    1C
    1UUSER                                                              
    1UDATE              27.october.2022                                 
    1UTIME              00:38:10                                        
    1UHOST                                                              
    1UPGM               CalculiX                                        
    1UVERSION           Version 2.17                             
    1UCOMPILETIME       Thu Jul 23 21:43:50 CEST 2020                    
    1UDIR                                                               
    1UDBN                                                               
    1UMAT    1SOLIDMATERIAL                                             
    2C                          4279                                     1
 -1         1 5.72727E+01 2.04621E+01 0.00000E+00
 -1         2 6.84507E+01 1.48456E+01 0.00000E+00
 -1         3 1.50000E+02 0.00000E+00 0.00000E+00
 -1         4 1.50000E+02 5.00000E+01 0.00000E+00
 -1         5 0.00000E+00 0.00000E+00 0.00000E+00
 -1         6 0.00000E+00 5.00000E+01 0.00000E+00
 -1         7 0.00000E+00 4.70500E+01 0.00000E+00
 -1         8 0.00000E+00 4.41000E+01 0.00000E+00
 -1         9 0.00000E+00 4.11500E+01 0.00000E+00
 -1        10 0.00000E+00 3.82000E+01 0.00000E+00
 -1        11 0.00000E+00 3.52500E+01 0.00000E+00
 -1        12 0.00000E+00 3.23500E+01 0.00000E+00
 -1        13 0.00000E+00 2.94000E+01 0.00000E+00
 -1        14 0.00000E+00 2.64500E+01 0.00000E+00
 -1        15 0.00000E+00 2.35000E+01 0.00000E+00
 -1        16 0.00000E+00 2.05500E+01 0.00000E+00
 -1        17 0.00000E+00 1.76000E+01 0.00000E+00
 -1        18 0.00000E+00 1.47000E+01 0.00000E+00
 -1        19 0.00000E+00 1.17500E+01 0.00000E+00
 -1        20 0.00000E+00 8.80000E+00 0.00000E+00
 -1        21 0.00000E+00 5.85000E+00 0.00000E+00
 -1        22 0.00000E+00 2.90000E+00 0.00000E+00
 -1        23 3.15000E+00 5.00000E+01 0.00000E+00
 -1        24 6.15000E+00 5.00000E+01 0.00000E+00
 -1        25 9.15000E+00 5.00000E+01 0.00000E+00
 -1        26 1.21500E+01 5.00000E+01 0.00000E+00
 -1        27 1.51500E+01 5.00000E+01 0.00000E+00
 -1        28 1.81500E+01 5.00000E+01 0.00000E+00
 -1        29 2.11500E+01 5.00000E+01 0.00000E+00
 -1        30 2.41500E+01 5.00000E+01 0.00000E+00
 -1        31 2.71500E+01 5.00000E+01 0.00000E+00
 -1        32 3.01500E+01 5.00000E+01 0.00000E+00
 -1        33 3.31500E+01 5.00000E+01 0.00000E+00
 -1        34 3.61500E+01 5.00000E+01 0.00000E+00
 -1        35 3.91500E+01 5.00000E+01 0.00000E+00
 -1        36 4.21500E+01 5.00000E+01 0.00000E+00
 -1        37 4.51500E+01 5.00000E+01 0.00000E+00
 -1        38 4.81500E+01 5.00000E+01 0.00000E+00
 -1        39 5.11500E+01 5.00000E+01 0.00000E+00
 -1        40 5.41500E+01 5.00000E+01 0.00000E+00
 -1        41 5.71500E+01 5.00000E+01 0.00000E+00
 -1        42 6.01500E+01 5.00000E+01 0.00000E+00
 -1        43 6.31500E+01 5.00000E+01 0.00000E+00
 -1        44 6.61500E+01 5.00000E+01 0.00000E+00
 -1        45 6.91500E+01 5.00000E+01 0.00000E+00
 -1        46 7.21500E+01 5.00000E+01 0.00000E+00
 -1        47 7.51500E+01 5.00000E+01 0.00000E+00
 -1        48 7.81500E+01 5.00000E+01 0.00000E+00
 -1        49 8.11500E+01 5.00000E+01 0.00000E+00
 -1        50 8.41500E+01 5.00000E+01 0.00000E+00
 -1        51 8.71500E+01 5.00000E+01 0.00000E+00
 -1        52 9.01500E+01 5.00000E+01 0.00000E+00
 -1        53 9.31500E+01 5.00000E+01 0.00000E+00
 -1        54 9.61500E+01 5.00000E+01 0.00000E+00
 -1        55 9.91500E+01 5.00000E+01 0.00000E+00
 -1        56 1.02150E+02 5.00000E+01 0.00000E+00
 -1        57 1.05150E+02 5.00000E+01 0.00000E+00
 -1        58 1.08150E+02 5.00000E+01 0.00000E+00
 -1        59 1.11150E+02 5.00000E+01 0.00000E+00
 -1        60 1.14150E+02 5.00000E+01 0.00000E+00
 -1        61 1.17150E+02 5.00000E+01 0.00000E+00
 -1        62 1.20150E+02 5.00000E+01 0.00000E+00
 -1        63 1.23150E+02 5.00000E+01 0.00000E+00
 -1        64 1.26150E+02 5.00000E+01 0.00000E+00
 -1        65 1.29150E+02 5.00000E+01 0.00000E+00
 -1        66 1.32150E+02 5.00000E+01 0.00000E+00
 -1        67 1.35150E+02 5.00000E+01 0.00000E+00
 -1        68 1.38150E+02 5.00000E+01 0.00000E+00
 -1        69 1.41150E+02 5.00000E+01 0.00000E+00
 -1        70 1.44150E+02 5.00000E+01 0.00000E+00
 -1        71 1.47150E+02 5.00000E+01 0.00000E+00
 -1        72 3.00000E+00 0.00000E+00 0.00000E+00
 -1        73 6.00000E+00 0.00000E+00 0.00000E+00
 -1        74 9.00000E+00 0.00000E+00 0.00000E+00
 -1        75 1.20000E+01 0.00000E+00 0.00000E+00
 -1        76 1.50000E+01 0.00000E+00 0.00000E+00
 -1        77 1.78500E+01 0.00000E+00 0.00000E+00
 -1        78 2.08500E+01 0.00000E+00 0.00000E+00
 -1        79 2.38500E+01 0.00000E+00 0.00000E+00
 -1        80 2.68500E+01 0.00000E+00 0.00000E+00
 -1        81 2.98500E+01 0.00000E+00 0.00000E+00
 -1        82 3.28500E+01 0.00000E+00 0.00000E+00
 -1        83 3.57000E+01 0.00000E+00 0.00000E+00
 -1        84 3.87000E+01 0.00000E+00 0.00000E+00
 -1        85 4.17000E+01 0.00000E+00 0.00000E+00
 -1        86 4.47000E+01 0.00000E+00 0.00000E+00
 -1        87 4.77000E+01 0.00000E+00 0.00000E+00
 -1        88 5.07000E+01 0.00000E+00 0.00000E+00
 -1        89 5.35500E+01 0.00000E+00 0.00000E+00
 -1        90 5.61000E+01 0.00000E+00 0.00000E+00
 -1        91 5.91000E+01 0.00000E+00 0.00000E+00
 -1        92 6.19500E+01 0.00000E+00 0.00000E+00
 -1        93 6.45000E+01 0.00000E+00 0.00000E+00
 -1        94 6.72000E+01 0.00000E+00 0.00000E+00
 -1        95 6.99000E+01 0.00000E+00 0.00000E+00
 -1        96 7.27500E+01 0.00000E+00 0.00000E+00
 -1        97 7.57500E+01 0.00000E+00 0.00000E+00
 -1        98 7.87500E+01 0.00000E+00 0.00000E+00
 -1        99 8.16000E+01 0.00000E+00 0.00000E+00
 -1       100 8.46000E+01 0.00000E+00 0.00000E+00
 -1       101 8.76000E+01 0.00000E+00 0.00000E+00
 -1       102 9.06000E+01 0.00000E+00 0.00000E+00
 -1       103 9.36000E+01 0.00000E+00 0.00000E+00
 -1       104 9.66000E+01 0.00000E+00 0.00000E+00
 -1       105 9.94500E+01 0.00000E+00 0.00000E+00
 -1       106 1.02450E+02 0.00000E+00 0.00000E+00
 -1       107 1.05450E+02 0.00000E+00 0.00000E+00
 -1       108 1.08450E+02 0.00000E+00 0.00000E+00
 -1       109 1.11450E+02 0.00000E+00 0.00000E+00
 -1       110 1.14450E+02 0.00000E+00 0.00000E+00
 -1       111 1.17300E+02 0.00000E+00 0.00000E+00
 -1       112 1.20300E+02 0.00000E+00 0.00000E+00
 -1       113 1.23300E+02 0.00000E+00 0.00000E+00
 -1       114 1.26300E+02 0.00000E+00 0.00000E+00
 -1       115 1.29300E+02 0.00000E+00 0.00000E+00
 -1       116 1.32300E+02 0.00000E+00 0.00000E+00
 -1       117 1.35150E+02 0.00000E+00 0.00000E+00
 -1       118 1.38150E+02 0.00000E+00 0.00000E+00
 -1       119 1.41150E+02 0.00000E+00 0.00000E+00
 -1       120 1.44150E+02 0.00000E+00 0.00000E+00
 -1       121 1.47150E+02 0.00000E+00 0.00000E+00
 -1       122 1.50000E+02 2.95000E+00 0.00000E+00
 -1       123 1.50000E+02 5.90000E+00 0.00000E+00
 -1       124 1.50000E+02 8.85000E+00 0.00000E+00
 -1       125 1.50000E+02 1.18000E+01 0.00000E+00
 -1       126 1.50000E+02 1.47500E+01 0.00000E+00
 -1       127 1.50000E+02 1.76500E+01 0.00000E+00
 -1       128 1.50000E+02 2.06000E+01 0.00000E+00
 -1       129 1.50000E+02 2.35500E+01 0.00000E+00
 -1       130 1.50000E+02 2.65000E+01 0.00000E+00
 -1       131 1.50000E+02 2.94500E+01 0.00000E+00
 -1       132 1.50000E+02 3.24000E+01 0.00000E+00
 -1       133 1.50000E+02 3.53000E+01 0.00000E+00
 -1       134 1.50000E+02 3.82500E+01 0.00000E+00
 -1       135 1.50000E+02 4.12000E+01 0.00000E+00
 -1       136 1.50000E+02 4.41500E+01 0.00000E+00
 -1       137 1.50000E+02 4.71000E+01 0.00000E+00
 -1       138 6.82777E+01 1.32992E+01 0.00000E+00
 -1       139 6.78176E+01 1.19367E+01 0.00000E+00
 -1       140 6.70177E+01 1.06020E+01 0.00000E+00
 -1       141 6.60641E+01 9.58095E+00 0.00000E+00
 -1       142 6.47826E+01 8.68943E+00 0.00000E+00
 -1       143 6.34461E+01 8.13604E+00 0.00000E+00
 -1       144 6.19131E+01 7.86089E+00 0.00000E+00
 -1       145 6.04046E+01 7.92420E+00 0.00000E+00
 -1       146 5.89859E+01 8.29387E+00 0.00000E+00
 -1       147 5.76391E+01 8.97432E+00 0.00000E+00
 -1       148 5.65430E+01 9.85414E+00 0.00000E+00
 -1       149 5.55876E+01 1.10215E+01 0.00000E+00
 -1       150 5.49059E+01 1.23626E+01 0.00000E+00
 -1       151 5.45347E+01 1.37642E+01 0.00000E+00
 -1       152 5.44632E+01 1.52645E+01 0.00000E+00
 -1       153 5.47091E+01 1.67302E+01 0.00000E+00
 -1       154 5.53046E+01 1.81961E+01 0.00000E+00
 -1       155 5.60876E+01 1.93442E+01 0.00000E+00
 -1       156 5.84575E+01 2.11734E+01 0.00000E+00
 -1       157 5.97450E+01 2.16346E+01 0.00000E+00
 -1       158 6.10852E+01 2.18361E+01 0.00000E+00
 -1       159 6.25406E+01 2.17602E+01 0.00000E+00
 -1       160 6.39097E+01 2.13995E+01 0.00000E+00
 -1       161 6.52209E+01 2.07435E+01 0.00000E+00
 -1       162 6.63074E+01 1.98867E+01 0.00000E+00
 -1       163 6.72273E+01 1.87991E+01 0.00000E+00
 -1       164 6.79048E+01 1.75555E+01 0.00000E+00
 -1       165 6.83129E+01 1.62274E+01 0.00000E+00
 -1       166 2.59800E+00 4.55750E+01 0.00000E+00
 -1       167 2.59800E+00 4.26250E+01 0.00000E+00
 -1       168 2.59800E+00 3.96750E+01 0.00000E+00
 -1       169 2.59800E+00 3.67250E+01 0.00000E+00
 -1       170 2.59800E+00 3.38250E+01 0.00000E+00
 -1       171 2.59800E+00 3.08750E+01 0.00000E+00
 -1       172 2.59800E+00 2.79250E+01 0.00000E+00
 -1       173 2.59800E+00 2.49750E+01 0.00000E+00
 -1       174 2.59800E+00 2.20250E+01 0.00000E+00
 -1       175 2.59800E+00 1.90750E+01 0.00000E+00
 -1       176 2.59800E+00 1.61750E+01 0.00000E+00
 -1       177 2.59800E+00 1.32250E+01 0.00000E+00
 -1       178 2.59800E+00 1.02750E+01 0.00000E+00
 -1       179 2.59800E+00 7.32500E+00 0.00000E+00
 -1       180 2.59800E+00 4.37500E+00 0.00000E+00
 -1       181 4.65000E+00 4.74020E+01 0.00000E+00
 -1       182 7.65000E+00 4.74020E+01 0.00000E+00
 -1       183 1.06500E+01 4.74020E+01 0.00000E+00
 -1       184 1.36500E+01 4.74020E+01 0.00000E+00
 -1       185 1.66500E+01 4.74020E+01 0.00000E+00
 -1       186 1.96500E+01 4.74020E+01 0.00000E+00
 -1       187 2.26500E+01 4.74020E+01 0.00000E+00
 -1       188 2.56500E+01 4.74020E+01 0.00000E+00
 -1       189 2.86500E+01 4.74020E+01 0.00000E+00
 -1       190 3.16500E+01 4.74020E+01 0.00000E+00
 -1       191 3.46500E+01 4.74020E+01 0.00000E+00
 -1       192 3.76500E+01 4.74020E+01 0.00000E+00
 -1       193 4.06500E+01 4.74020E+01 0.00000E+00
 -1       194 4.36500E+01 4.74020E+01 0.00000E+00
 -1       195 4.66500E+01 4.74020E+01 0.00000E+00
 -1       196 4.96500E+01 4.74020E+01 0.00000E+00
 -1       197 5.26500E+01 4.74020E+01 0.00000E+00
 -1       198 5.56500E+01 4.74020E+01 0.00000E+00
 -1       199 5.86500E+01 4.74020E+01 0.00000E+00
 -1       200 6.16500E+01 4.74020E+01 0.00000E+00
 -1       201 6.46500E+01 4.74020E+01 0.00000E+00
 -1       202 6.76500E+01 4.74020E+01 0.00000E+00
 -1       203 7.06500E+01 4.74020E+01 0.00000E+00
 -1       204 7.36500E+01 4.74020E+01 0.00000E+00
 -1       205 7.66500E+01 4.74020E+01 0.00000E+00
 -1       206 7.96500E+01 4.74020E+01 0.00000E+00
 -1       207 8.26500E+01 4.74020E+01 0.00000E+00
 -1       208 8.56500E+01 4.74020E+01 0.00000E+00
 -1       209 8.86500E+01 4.74020E+01 0.00000E+00
 -1       210 9.16500E+01 4.74020E+01 0.00000E+00
 -1       211 9.46500E+01 4.74020E+01 0.00000E+00
 -1       212 9.76500E+01 4.74020E+01 0.00000E+00
 -1       213 1.00650E+02 4.74020E+01 0.00000E+00
 -1       214 1.03650E+02 4.74020E+01 0.00000E+00
 -1       215 1.06650E+02 4.74020E+01 0.00000E+00
 -1       216 1.09650E+02 4.74020E+01 0.00000E+00
 -1       217 1.12650E+02 4.74020E+01 0.00000E+00
 -1       218 1.15650E+02 4.74020E+01 0.00000E+00
 -1       219 1.18650E+02 4.74020E+01 0.00000E+00
 -1       220 1.21650E+02 4.74020E+01 0.00000E+00
 -1       221 1.24650E+02 4.74020E+01 0.00000E+00
 -1       222 1.27650E+02 4.74020E+01 0.00000E+00
 -1       223 1.30650E+02 4.74020E+01 0.00000E+00
 -1       224 1.33650E+02 4.74020E+01 0.00000E+00
 -1       225 1.36650E+02 4.74020E+01 0.00000E+00
 -1       226 1.39650E+02 4.74020E+01 0.00000E+00
 -1       227 1.42650E+02 4.74020E+01 0.00000E+00
 -1       228 1.45650E+02 4.74020E+01 0.00000E+00
 -1       229 4.50000E+00 2.59800E+00 0.00000E+00
 -1       230 7.50000E+00 2.59800E+00 0.00000E+00
 -1       231 1.05000E+01 2.59800E+00 0.00000E+00
 -1       232 1.35000E+01 2.59800E+00 0.00000E+00
 -1       233 1.63500E+01 2.59800E+00 0.00000E+00
 -1       234 1.93500E+01 2.59800E+00 0.00000E+00
 -1       235 2.23500E+01 2.59800E+00 0.00000E+00
 -1       236 2.53500E+01 2.59800E+00 0.00000E+00
 -1       237 2.83500E+01 2.59800E+00 0.00000E+00
 -1       238 3.13500E+01 2.59800E+00 0.00000E+00
 -1       239 3.42000E+01 2.59800E+00 0.00000E+00
 -1       240 3.72000E+01 2.59800E+00 0.00000E+00
 -1       241 4.02000E+01 2.59800E+00 0.00000E+00
 -1       242 4.32000E+01 2.59800E+00 0.00000E+00
 -1       243 4.62000E+01 2.59800E+00 0.00000E+00
 -1       244 4.92000E+01 2.59800E+00 0.00000E+00
 -1       245 5.20500E+01 2.59800E+00 0.00000E+00
 -1       246 5.46000E+01 2.59800E+00 0.00000E+00
 -1       247 5.76000E+01 2.59800E+00 0.00000E+00
 -1       248 6.04500E+01 2.59800E+00 0.00000E+00
 -1       249 6.30000E+01 2.59800E+00 0.00000E+00
 -1       250 6.57000E+01 2.59800E+00 0.00000E+00
 -1       251 6.84000E+01 2.59800E+00 0.00000E+00
 -1       252 7.12500E+01 2.59800E+00 0.00000E+00
 -1       253 7.42500E+01 2.59800E+00 0.00000E+00
 -1       254 7.72500E+01 2.59800E+00 0.00000E+00
 -1       255 8.01000E+01 2.59800E+00 0.00000E+00
 -1       256 8.31000E+01 2.59800E+00 0.00000E+00
 -1       257 8.61000E+01 2.59800E+00 0.00000E+00
 -1       258 8.91000E+01 2.59800E+00 0.00000E+00
 -1       259 9.21000E+01 2.59800E+00 0.00000E+00
 -1       260 9.51000E+01 2.59800E+00 0.00000E+00
 -1       261 9.79500E+01 2.59800E+00 0.00000E+00
 -1       262 1.00950E+02 2.59800E+00 0.00000E+00
 -1       263 1.03950E+02 2.59800E+00 0.00000E+00
 -1       264 1.06950E+02 2.59800E+00 0.00000E+00
 -1       265 1.09950E+02 2.59800E+00 0.00000E+00
 -1       266 1.12950E+02 2.59800E+00 0.00000E+00
 -1       267 1.15800E+02 2.59800E+00 0.00000E+00
 -1       268 1.18800E+02 2.59800E+00 0.00000E+00
 -1       269 1.21800E+02 2.59800E+00 0.00000E+00
 -1       270 1.24800E+02 2.59800E+00 0.00000E+00
 -1       271 1.27800E+02 2.59800E+00 0.00000E+00
 -1       272 1.30800E+02 2.59800E+00 0.00000E+00
 -1       273 1.33650E+02 2.59800E+00 0.00000E+00
 -1       274 1.36650E+02 2.59800E+00 0.00000E+00
 -1       275 1.39650E+02 2.59800E+00 0.00000E+00
 -1       276 1.42650E+02 2.59800E+00 0.00000E+00
 -1       277 1.45650E+02 2.59800E+00 0.00000E+00
 -1       278 1.47402E+02 4.42500E+00 0.00000E+00
 -1       279 1.47402E+02 7.37500E+00 0.00000E+00
 -1       280 1.47402E+02 1.03250E+01 0.00000E+00
 -1       281 1.47402E+02 1.32750E+01 0.00000E+00
 -1       282 1.47402E+02 1.61750E+01 0.00000E+00
 -1       283 1.47402E+02 1.91250E+01 0.00000E+00
 -1       284 1.47402E+02 2.20750E+01 0.00000E+00
 -1       285 1.47402E+02 2.50250E+01 0.00000E+00
 -1       286 1.47402E+02 2.79750E+01 0.00000E+00
 -1       287 1.47402E+02 3.09250E+01 0.00000E+00
 -1       288 1.47402E+02 3.38250E+01 0.00000E+00
 -1       289 1.47402E+02 3.67750E+01 0.00000E+00
 -1       290 1.47402E+02 3.97250E+01 0.00000E+00
 -1       291 1.47402E+02 4.26750E+01 0.00000E+00
 -1       292 1.46526E+02 4.50385E+01 0.00000E+00
 -1       293 6.97356E+01 1.39190E+01 0.00000E+00
 -1       294 6.92757E+01 1.22032E+01 0.00000E+00
 -1       295 6.86013E+01 1.05599E+01 0.00000E+00
 -1       296 6.74269E+01 9.26396E+00 0.00000E+00
 -1       297 6.62114E+01 8.00239E+00 0.00000E+00
 -1       298 6.45782E+01 7.29257E+00 0.00000E+00
 -1       299 6.29234E+01 6.64020E+00 0.00000E+00
 -1       300 6.10975E+01 6.43008E+00 0.00000E+00
 -1       301 5.93685E+01 6.85472E+00 0.00000E+00
 -1       302 5.76902E+01 7.40239E+00 0.00000E+00
 -1       303 5.62797E+01 8.40340E+00 0.00000E+00
 -1       304 5.49325E+01 9.51070E+00 0.00000E+00
 -1       305 5.40166E+01 1.10667E+01 0.00000E+00
 -1       306 5.35483E+01 1.27530E+01 0.00000E+00
 -1       307 5.32879E+01 1.44566E+01 0.00000E+00
 -1       308 5.33079E+01 1.62119E+01 0.00000E+00
 -1       309 5.37284E+01 1.79825E+01 0.00000E+00
 -1       310 5.46945E+01 1.94533E+01 0.00000E+00
 -1       311 5.56183E+01 2.10289E+01 0.00000E+00
 -1       312 5.72411E+01 2.18572E+01 0.00000E+00
 -1       313 5.86924E+01 2.25454E+01 0.00000E+00
 -1       314 6.02349E+01 2.29343E+01 0.00000E+00
 -1       315 6.18804E+01 2.30926E+01 0.00000E+00
 -1       316 6.35341E+01 2.27522E+01 0.00000E+00
 -1       317 6.51827E+01 2.23056E+01 0.00000E+00
 -1       318 6.65149E+01 2.12671E+01 0.00000E+00
 -1       319 6.77570E+01 2.01800E+01 0.00000E+00
 -1       320 6.87043E+01 1.87974E+01 0.00000E+00
 -1       321 6.92678E+01 1.72475E+01 0.00000E+00
 -1       322 6.95882E+01 1.56567E+01 0.00000E+00
 -1       323 5.19600E+00 4.11500E+01 0.00000E+00
 -1       324 5.19600E+00 4.41000E+01 0.00000E+00
 -1       325 5.19600E+00 3.52750E+01 0.00000E+00
 -1       326 5.19600E+00 3.23250E+01 0.00000E+00
 -1       327 5.19600E+00 2.93750E+01 0.00000E+00
 -1       328 5.19600E+00 2.64250E+01 0.00000E+00
 -1       329 5.19600E+00 2.34750E+01 0.00000E+00
 -1       330 5.19600E+00 2.05250E+01 0.00000E+00
 -1       331 5.19600E+00 1.76250E+01 0.00000E+00
 -1       332 5.19600E+00 1.46750E+01 0.00000E+00
 -1       333 5.19600E+00 1.17250E+01 0.00000E+00
 -1       334 5.19600E+00 8.77500E+00 0.00000E+00
 -1       335 5.19600E+00 5.82500E+00 0.00000E+00
 -1       336 6.91609E+01 8.87280E+00 0.00000E+00
 -1       337 9.15000E+00 4.48040E+01 0.00000E+00
 -1       338 1.21500E+01 4.48040E+01 0.00000E+00
 -1       339 1.51500E+01 4.48040E+01 0.00000E+00
 -1       340 1.81500E+01 4.48040E+01 0.00000E+00
 -1       341 2.11500E+01 4.48040E+01 0.00000E+00
 -1       342 2.41500E+01 4.48040E+01 0.00000E+00
 -1       343 2.71500E+01 4.48040E+01 0.00000E+00
 -1       344 3.01500E+01 4.48040E+01 0.00000E+00
 -1       345 3.31500E+01 4.48040E+01 0.00000E+00
 -1       346 3.61500E+01 4.48040E+01 0.00000E+00
 -1       347 3.91500E+01 4.48040E+01 0.00000E+00
 -1       348 4.21500E+01 4.48040E+01 0.00000E+00
 -1       349 4.51500E+01 4.48040E+01 0.00000E+00
 -1       350 4.81500E+01 4.48040E+01 0.00000E+00
 -1       351 5.11500E+01 4.48040E+01 0.00000E+00
 -1       352 5.41500E+01 4.48040E+01 0.00000E+00
 -1       353 5.71500E+01 4.48040E+01 0.00000E+00
 -1       354 6.01500E+01 4.48040E+01 0.00000E+00
 -1       355 6.31500E+01 4.48040E+01 0.00000E+00
 -1       356 6.61500E+01 4.48040E+01 0.00000E+00
 -1       357 6.91500E+01 4.48040E+01 0.00000E+00
 -1       358 7.21500E+01 4.48040E+01 0.00000E+00
 -1       359 7.51500E+01 4.48040E+01 0.00000E+00
 -1       360 7.81500E+01 4.48040E+01 0.00000E+00
 -1       361 8.11500E+01 4.48040E+01 0.00000E+00
 -1       362 8.41500E+01 4.48040E+01 0.00000E+00
 -1       363 8.71500E+01 4.48040E+01 0.00000E+00
 -1       364 9.01500E+01 4.48040E+01 0.00000E+00
 -1       365 9.31500E+01 4.48040E+01 0.00000E+00
 -1       366 9.61500E+01 4.48040E+01 0.00000E+00
 -1       367 9.91500E+01 4.48040E+01 0.00000E+00
 -1       368 1.02150E+02 4.48040E+01 0.00000E+00
 -1       369 1.05150E+02 4.48040E+01 0.00000E+00
 -1       370 1.08150E+02 4.48040E+01 0.00000E+00
 -1       371 1.11150E+02 4.48040E+01 0.00000E+00
 -1       372 1.14150E+02 4.48040E+01 0.00000E+00
 -1       373 1.17150E+02 4.48040E+01 0.00000E+00
 -1       374 1.20150E+02 4.48040E+01 0.00000E+00
 -1       375 1.23150E+02 4.48040E+01 0.00000E+00
 -1       376 1.26150E+02 4.48040E+01 0.00000E+00
 -1       377 1.29150E+02 4.48040E+01 0.00000E+00
 -1       378 1.32150E+02 4.48040E+01 0.00000E+00
 -1       379 1.35150E+02 4.48040E+01 0.00000E+00
 -1       380 1.38150E+02 4.48040E+01 0.00000E+00
 -1       381 1.41150E+02 4.48040E+01 0.00000E+00
 -1       382 1.43838E+02 4.49212E+01 0.00000E+00
 -1       383 1.20000E+01 5.19600E+00 0.00000E+00
 -1       384 9.00000E+00 5.19600E+00 0.00000E+00
 -1       385 1.48500E+01 5.19600E+00 0.00000E+00
 -1       386 1.78500E+01 5.19600E+00 0.00000E+00
 -1       387 2.08500E+01 5.19600E+00 0.00000E+00
 -1       388 2.38500E+01 5.19600E+00 0.00000E+00
 -1       389 2.68500E+01 5.19600E+00 0.00000E+00
 -1       390 2.98500E+01 5.19600E+00 0.00000E+00
 -1       391 3.27000E+01 5.19600E+00 0.00000E+00
 -1       392 3.57000E+01 5.19600E+00 0.00000E+00
 -1       393 3.87000E+01 5.19600E+00 0.00000E+00
 -1       394 4.17000E+01 5.19600E+00 0.00000E+00
 -1       395 4.47000E+01 5.19600E+00 0.00000E+00
 -1       396 4.77000E+01 5.19600E+00 0.00000E+00
 -1       397 5.05500E+01 5.19600E+00 0.00000E+00
 -1       398 5.31000E+01 5.19600E+00 0.00000E+00
 -1       399 5.90250E+01 4.81582E+00 0.00000E+00
 -1       400 6.43500E+01 4.64825E+00 0.00000E+00
 -1       401 6.70500E+01 4.64825E+00 0.00000E+00
 -1       402 6.99000E+01 4.64825E+00 0.00000E+00
 -1       403 7.29000E+01 4.64825E+00 0.00000E+00
 -1       404 7.59000E+01 4.64825E+00 0.00000E+00
 -1       405 7.87500E+01 4.64825E+00 0.00000E+00
 -1       406 8.17500E+01 4.64825E+00 0.00000E+00
 -1       407 8.47500E+01 4.64825E+00 0.00000E+00
 -1       408 8.77500E+01 4.64825E+00 0.00000E+00
 -1       409 9.07500E+01 4.64825E+00 0.00000E+00
 -1       410 9.37500E+01 4.64825E+00 0.00000E+00
 -1       411 9.66000E+01 4.64825E+00 0.00000E+00
 -1       412 9.96000E+01 4.64825E+00 0.00000E+00
 -1       413 1.02600E+02 4.64825E+00 0.00000E+00
 -1       414 1.05600E+02 4.64825E+00 0.00000E+00
 -1       415 1.08600E+02 4.64825E+00 0.00000E+00
 -1       416 1.11600E+02 4.64825E+00 0.00000E+00
 -1       417 1.14450E+02 4.64825E+00 0.00000E+00
 -1       418 1.17450E+02 4.64825E+00 0.00000E+00
 -1       419 1.20450E+02 4.64825E+00 0.00000E+00
 -1       420 1.23450E+02 4.64825E+00 0.00000E+00
 -1       421 1.26450E+02 4.64825E+00 0.00000E+00
 -1       422 1.29450E+02 4.64825E+00 0.00000E+00
 -1       423 1.32300E+02 4.64825E+00 0.00000E+00
 -1       424 1.35300E+02 4.64825E+00 0.00000E+00
 -1       425 1.38300E+02 4.64825E+00 0.00000E+00
 -1       426 1.41300E+02 4.64825E+00 0.00000E+00
 -1       427 1.44300E+02 4.64825E+00 0.00000E+00
 -1       428 7.10004E+01 1.26605E+01 0.00000E+00
 -1       429 1.44804E+02 1.18000E+01 0.00000E+00
 -1       430 1.44804E+02 8.85000E+00 0.00000E+00
 -1       431 1.44804E+02 1.47000E+01 0.00000E+00
 -1       432 1.44804E+02 1.76500E+01 0.00000E+00
 -1       433 1.44804E+02 2.06000E+01 0.00000E+00
 -1       434 1.44804E+02 2.35500E+01 0.00000E+00
 -1       435 1.44804E+02 2.65000E+01 0.00000E+00
 -1       436 1.44804E+02 2.94500E+01 0.00000E+00
 -1       437 1.44804E+02 3.23500E+01 0.00000E+00
 -1       438 1.44804E+02 3.53000E+01 0.00000E+00
 -1       439 1.44804E+02 3.82500E+01 0.00000E+00
 -1       440 1.44804E+02 4.12000E+01 0.00000E+00
 -1       441 7.03702E+01 1.07941E+01 0.00000E+00
 -1       442 7.10369E+01 1.49045E+01 0.00000E+00
 -1       443 5.19600E+00 3.82125E+01 0.00000E+00
 -1       444 6.60116E+01 6.22819E+00 0.00000E+00
 -1       445 5.73468E+01 5.36349E+00 0.00000E+00
 -1       446 5.59362E+01 6.36450E+00 0.00000E+00
 -1       447 5.45891E+01 7.47180E+00 0.00000E+00
 -1       448 5.32853E+01 9.58863E+00 0.00000E+00
 -1       449 5.24528E+01 1.15406E+01 0.00000E+00
 -1       450 5.20540E+01 1.33964E+01 0.00000E+00
 -1       451 5.17504E+01 1.53518E+01 0.00000E+00
 -1       452 5.18494E+01 1.74935E+01 0.00000E+00
 -1       453 5.30580E+01 1.94755E+01 0.00000E+00
 -1       454 5.39819E+01 2.10512E+01 0.00000E+00
 -1       455 5.58023E+01 2.26722E+01 0.00000E+00
 -1       456 5.74114E+01 2.33725E+01 0.00000E+00
 -1       457 5.90854E+01 2.42404E+01 0.00000E+00
 -1       458 6.09335E+01 2.43036E+01 0.00000E+00
 -1       459 6.30023E+01 2.43561E+01 0.00000E+00
 -1       460 6.46509E+01 2.39095E+01 0.00000E+00
 -1       461 6.66972E+01 2.28747E+01 0.00000E+00
 -1       462 6.79393E+01 2.17876E+01 0.00000E+00
 -1       463 6.93690E+01 2.02687E+01 0.00000E+00
 -1       464 7.03617E+01 1.85226E+01 0.00000E+00
 -1       465 7.09451E+01 1.67577E+01 0.00000E+00
 -1       466 6.79453E+01 7.61123E+00 0.00000E+00
 -1       467 5.54804E+01 4.83836E+00 0.00000E+00
 -1       468 6.20487E+01 4.51404E+00 0.00000E+00
 -1       469 5.41659E+01 2.26944E+01 0.00000E+00
 -1       470 7.79400E+00 3.08500E+01 0.00000E+00
 -1       471 7.79400E+00 3.38000E+01 0.00000E+00
 -1       472 7.79400E+00 2.49500E+01 0.00000E+00
 -1       473 7.79400E+00 2.20000E+01 0.00000E+00
 -1       474 7.79400E+00 1.91000E+01 0.00000E+00
 -1       475 7.79400E+00 1.61500E+01 0.00000E+00
 -1       476 7.79400E+00 1.32000E+01 0.00000E+00
 -1       477 7.79400E+00 1.02500E+01 0.00000E+00
 -1       478 8.39700E+00 7.72300E+00 0.00000E+00
 -1       479 6.97882E+01 7.05199E+00 0.00000E+00
 -1       480 1.06500E+01 4.22060E+01 0.00000E+00
 -1       481 1.36500E+01 4.22060E+01 0.00000E+00
 -1       482 1.66500E+01 4.22060E+01 0.00000E+00
 -1       483 1.96500E+01 4.22060E+01 0.00000E+00
 -1       484 2.26500E+01 4.22060E+01 0.00000E+00
 -1       485 2.56500E+01 4.22060E+01 0.00000E+00
 -1       486 2.86500E+01 4.22060E+01 0.00000E+00
 -1       487 3.16500E+01 4.22060E+01 0.00000E+00
 -1       488 3.46500E+01 4.22060E+01 0.00000E+00
 -1       489 3.76500E+01 4.22060E+01 0.00000E+00
 -1       490 4.06500E+01 4.22060E+01 0.00000E+00
 -1       491 4.36500E+01 4.22060E+01 0.00000E+00
 -1       492 4.66500E+01 4.22060E+01 0.00000E+00
 -1       493 4.96500E+01 4.22060E+01 0.00000E+00
 -1       494 5.26500E+01 4.22060E+01 0.00000E+00
 -1       495 5.56500E+01 4.22060E+01 0.00000E+00
 -1       496 5.86500E+01 4.22060E+01 0.00000E+00
 -1       497 6.16500E+01 4.22060E+01 0.00000E+00
 -1       498 6.46500E+01 4.22060E+01 0.00000E+00
 -1       499 6.76500E+01 4.22060E+01 0.00000E+00
 -1       500 7.06500E+01 4.22060E+01 0.00000E+00
 -1       501 7.36500E+01 4.22060E+01 0.00000E+00
 -1       502 7.66500E+01 4.22060E+01 0.00000E+00
 -1       503 7.96500E+01 4.22060E+01 0.00000E+00
 -1       504 8.26500E+01 4.22060E+01 0.00000E+00
 -1       505 8.56500E+01 4.22060E+01 0.00000E+00
 -1       506 8.86500E+01 4.22060E+01 0.00000E+00
 -1       507 9.16500E+01 4.22060E+01 0.00000E+00
 -1       508 9.46500E+01 4.22060E+01 0.00000E+00
 -1       509 9.76500E+01 4.22060E+01 0.00000E+00
 -1       510 1.00650E+02 4.22060E+01 0.00000E+00
 -1       511 1.03650E+02 4.22060E+01 0.00000E+00
 -1       512 1.06650E+02 4.22060E+01 0.00000E+00
 -1       513 1.09650E+02 4.22060E+01 0.00000E+00
 -1       514 1.12650E+02 4.22060E+01 0.00000E+00
 -1       515 1.15650E+02 4.22060E+01 0.00000E+00
 -1       516 1.18650E+02 4.22060E+01 0.00000E+00
 -1       517 1.21650E+02 4.22060E+01 0.00000E+00
 -1       518 1.24650E+02 4.22060E+01 0.00000E+00
 -1       519 1.27650E+02 4.22060E+01 0.00000E+00
 -1       520 1.30650E+02 4.22060E+01 0.00000E+00
 -1       521 1.33650E+02 4.22060E+01 0.00000E+00
 -1       522 1.36650E+02 4.22060E+01 0.00000E+00
 -1       523 1.39650E+02 4.22060E+01 0.00000E+00
 -1       524 1.13970E+01 7.72300E+00 0.00000E+00
 -1       525 1.93500E+01 7.79400E+00 0.00000E+00
 -1       526 2.23500E+01 7.79400E+00 0.00000E+00
 -1       527 2.53500E+01 7.79400E+00 0.00000E+00
 -1       528 2.83500E+01 7.79400E+00 0.00000E+00
 -1       529 3.12000E+01 7.79400E+00 0.00000E+00
 -1       530 3.42000E+01 7.79400E+00 0.00000E+00
 -1       531 3.72000E+01 7.79400E+00 0.00000E+00
 -1       532 4.02000E+01 7.79400E+00 0.00000E+00
 -1       533 4.32000E+01 7.79400E+00 0.00000E+00
 -1       534 4.62000E+01 7.79400E+00 0.00000E+00
 -1       535 4.90500E+01 7.79400E+00 0.00000E+00
 -1       536 5.16000E+01 7.79400E+00 0.00000E+00
 -1       537 7.73250E+01 7.24625E+00 0.00000E+00
 -1       538 8.03250E+01 7.24625E+00 0.00000E+00
 -1       539 8.33250E+01 7.24625E+00 0.00000E+00
 -1       540 8.63250E+01 7.24625E+00 0.00000E+00
 -1       541 8.93250E+01 7.24625E+00 0.00000E+00
 -1       542 9.23250E+01 7.24625E+00 0.00000E+00
 -1       543 9.51750E+01 7.24625E+00 0.00000E+00
 -1       544 9.81750E+01 7.24625E+00 0.00000E+00
 -1       545 1.01175E+02 7.24625E+00 0.00000E+00
 -1       546 1.04175E+02 7.24625E+00 0.00000E+00
 -1       547 1.07175E+02 7.24625E+00 0.00000E+00
 -1       548 1.10175E+02 7.24625E+00 0.00000E+00
 -1       549 1.13025E+02 7.24625E+00 0.00000E+00
 -1       550 1.16025E+02 7.24625E+00 0.00000E+00
 -1       551 1.19025E+02 7.24625E+00 0.00000E+00
 -1       552 1.22025E+02 7.24625E+00 0.00000E+00
 -1       553 1.25025E+02 7.24625E+00 0.00000E+00
 -1       554 1.28025E+02 7.24625E+00 0.00000E+00
 -1       555 1.30875E+02 7.24625E+00 0.00000E+00
 -1       556 1.33875E+02 7.24625E+00 0.00000E+00
 -1       557 1.36875E+02 7.24625E+00 0.00000E+00
 -1       558 1.39875E+02 7.24625E+00 0.00000E+00
 -1       559 1.42339E+02 8.04813E+00 0.00000E+00
 -1       560 7.19928E+01 1.12858E+01 0.00000E+00
 -1       561 1.42206E+02 1.91250E+01 0.00000E+00
 -1       562 7.11461E+01 8.96443E+00 0.00000E+00
 -1       563 1.42206E+02 2.20750E+01 0.00000E+00
 -1       564 1.42206E+02 2.50250E+01 0.00000E+00
 -1       565 1.42206E+02 2.79750E+01 0.00000E+00
 -1       566 1.42206E+02 3.08750E+01 0.00000E+00
 -1       567 1.42206E+02 3.38250E+01 0.00000E+00
 -1       568 1.42206E+02 3.67750E+01 0.00000E+00
 -1       569 1.42206E+02 3.97250E+01 0.00000E+00
 -1       570 7.24530E+01 1.59036E+01 0.00000E+00
 -1       571 1.63500E+01 7.79400E+00 0.00000E+00
 -1       572 1.42206E+02 1.32500E+01 0.00000E+00
 -1       573 7.21227E+01 1.81258E+01 0.00000E+00
 -1       574 6.19287E+01 2.58769E+01 0.00000E+00
 -1       575 5.09894E+01 1.93774E+01 0.00000E+00
 -1       576 1.42273E+02 1.06491E+01 0.00000E+00
 -1       577 1.42206E+02 1.61875E+01 0.00000E+00
 -1       578 7.43250E+01 7.24625E+00 0.00000E+00
 -1       579 7.20566E+01 7.14912E+00 0.00000E+00
 -1       580 7.26498E+01 1.37560E+01 0.00000E+00
 -1       581 7.79400E+00 2.79000E+01 0.00000E+00
 -1       582 1.38735E+01 7.75850E+00 0.00000E+00
 -1       583 5.12915E+01 9.89172E+00 0.00000E+00
 -1       584 5.60227E+01 2.43645E+01 0.00000E+00
 -1       585 5.06585E+01 1.21257E+01 0.00000E+00
 -1       586 5.03549E+01 1.40812E+01 0.00000E+00
 -1       587 4.99193E+01 1.65096E+01 0.00000E+00
 -1       588 5.19132E+01 2.09531E+01 0.00000E+00
 -1       589 7.13563E+01 2.02433E+01 0.00000E+00
 -1       590 5.76967E+01 2.52324E+01 0.00000E+00
 -1       591 6.00805E+01 2.58137E+01 0.00000E+00
 -1       592 6.42750E+01 2.57882E+01 0.00000E+00
 -1       593 6.65993E+01 2.52217E+01 0.00000E+00
 -1       594 6.83927E+01 2.35587E+01 0.00000E+00
 -1       595 6.98224E+01 2.20398E+01 0.00000E+00
 -1       596 7.92300E+00 4.16780E+01 0.00000E+00
 -1       597 7.79400E+00 3.67375E+01 0.00000E+00
 -1       598 1.41678E+02 4.22645E+01 0.00000E+00
 -1       599 7.85850E+00 3.92077E+01 0.00000E+00
 -1       600 4.90592E+01 1.83935E+01 0.00000E+00
 -1       601 5.43863E+01 2.43867E+01 0.00000E+00
 -1       602 5.20973E+01 2.25963E+01 0.00000E+00
 -1       603 1.03920E+01 2.05500E+01 0.00000E+00
 -1       604 1.03920E+01 2.35000E+01 0.00000E+00
 -1       605 1.03920E+01 1.46750E+01 0.00000E+00
 -1       606 1.03920E+01 1.17250E+01 0.00000E+00
 -1       607 1.08945E+01 9.72400E+00 0.00000E+00
 -1       608 4.94054E+01 1.05640E+01 0.00000E+00
 -1       609 7.36674E+01 1.98823E+01 0.00000E+00
 -1       610 1.51500E+01 3.96080E+01 0.00000E+00
 -1       611 1.81500E+01 3.96080E+01 0.00000E+00
 -1       612 2.11500E+01 3.96080E+01 0.00000E+00
 -1       613 2.41500E+01 3.96080E+01 0.00000E+00
 -1       614 2.71500E+01 3.96080E+01 0.00000E+00
 -1       615 3.01500E+01 3.96080E+01 0.00000E+00
 -1       616 3.31500E+01 3.96080E+01 0.00000E+00
 -1       617 3.61500E+01 3.96080E+01 0.00000E+00
 -1       618 3.91500E+01 3.96080E+01 0.00000E+00
 -1       619 4.21500E+01 3.96080E+01 0.00000E+00
 -1       620 4.51500E+01 3.96080E+01 0.00000E+00
 -1       621 4.81500E+01 3.96080E+01 0.00000E+00
 -1       622 5.11500E+01 3.96080E+01 0.00000E+00
 -1       623 5.41500E+01 3.96080E+01 0.00000E+00
 -1       624 5.71500E+01 3.96080E+01 0.00000E+00
 -1       625 6.01500E+01 3.96080E+01 0.00000E+00
 -1       626 6.31500E+01 3.96080E+01 0.00000E+00
 -1       627 6.61500E+01 3.96080E+01 0.00000E+00
 -1       628 6.91500E+01 3.96080E+01 0.00000E+00
 -1       629 7.21500E+01 3.96080E+01 0.00000E+00
 -1       630 7.51500E+01 3.96080E+01 0.00000E+00
 -1       631 7.81500E+01 3.96080E+01 0.00000E+00
 -1       632 8.11500E+01 3.96080E+01 0.00000E+00
 -1       633 8.41500E+01 3.96080E+01 0.00000E+00
 -1       634 8.71500E+01 3.96080E+01 0.00000E+00
 -1       635 9.01500E+01 3.96080E+01 0.00000E+00
 -1       636 9.31500E+01 3.96080E+01 0.00000E+00
 -1       637 9.61500E+01 3.96080E+01 0.00000E+00
 -1       638 9.91500E+01 3.96080E+01 0.00000E+00
 -1       639 1.02150E+02 3.96080E+01 0.00000E+00
 -1       640 1.05150E+02 3.96080E+01 0.00000E+00
 -1       641 1.08150E+02 3.96080E+01 0.00000E+00
 -1       642 1.11150E+02 3.96080E+01 0.00000E+00
 -1       643 1.14150E+02 3.96080E+01 0.00000E+00
 -1       644 1.17150E+02 3.96080E+01 0.00000E+00
 -1       645 1.20150E+02 3.96080E+01 0.00000E+00
 -1       646 1.23150E+02 3.96080E+01 0.00000E+00
 -1       647 1.26150E+02 3.96080E+01 0.00000E+00
 -1       648 1.29150E+02 3.96080E+01 0.00000E+00
 -1       649 1.32150E+02 3.96080E+01 0.00000E+00
 -1       650 1.35150E+02 3.96080E+01 0.00000E+00
 -1       651 1.38150E+02 3.96080E+01 0.00000E+00
 -1       652 7.39843E+01 1.72668E+01 0.00000E+00
 -1       653 2.38500E+01 1.03920E+01 0.00000E+00
 -1       654 2.08500E+01 1.03920E+01 0.00000E+00
 -1       655 2.97750E+01 1.03920E+01 0.00000E+00
 -1       656 3.27750E+01 1.03920E+01 0.00000E+00
 -1       657 3.57750E+01 1.03920E+01 0.00000E+00
 -1       658 3.87750E+01 1.03920E+01 0.00000E+00
 -1       659 4.17750E+01 1.03920E+01 0.00000E+00
 -1       660 4.47750E+01 1.03920E+01 0.00000E+00
 -1       661 1.40178E+02 3.96665E+01 0.00000E+00
 -1       662 8.48250E+01 9.84425E+00 0.00000E+00
 -1       663 2.68125E+01 1.03920E+01 0.00000E+00
 -1       664 7.88250E+01 9.84425E+00 0.00000E+00
 -1       665 8.78250E+01 9.84425E+00 0.00000E+00
 -1       666 9.08250E+01 9.84425E+00 0.00000E+00
 -1       667 9.36750E+01 9.84425E+00 0.00000E+00
 -1       668 9.66750E+01 9.84425E+00 0.00000E+00
 -1       669 9.96750E+01 9.84425E+00 0.00000E+00
 -1       670 1.02675E+02 9.84425E+00 0.00000E+00
 -1       671 1.05675E+02 9.84425E+00 0.00000E+00
 -1       672 1.08675E+02 9.84425E+00 0.00000E+00
 -1       673 1.11525E+02 9.84425E+00 0.00000E+00
 -1       674 1.14525E+02 9.84425E+00 0.00000E+00
 -1       675 1.17525E+02 9.84425E+00 0.00000E+00
 -1       676 1.20525E+02 9.84425E+00 0.00000E+00
 -1       677 1.23525E+02 9.84425E+00 0.00000E+00
 -1       678 1.26525E+02 9.84425E+00 0.00000E+00
 -1       679 1.29375E+02 9.84425E+00 0.00000E+00
 -1       680 1.32375E+02 9.84425E+00 0.00000E+00
 -1       681 1.35375E+02 9.84425E+00 0.00000E+00
 -1       682 1.38375E+02 9.84425E+00 0.00000E+00
 -1       683 1.40324E+02 1.02467E+01 0.00000E+00
 -1       684 1.39608E+02 2.35500E+01 0.00000E+00
 -1       685 7.34956E+01 9.42262E+00 0.00000E+00
 -1       686 7.44262E+01 1.50016E+01 0.00000E+00
 -1       687 1.39608E+02 2.06000E+01 0.00000E+00
 -1       688 1.39608E+02 2.94250E+01 0.00000E+00
 -1       689 1.39608E+02 3.23750E+01 0.00000E+00
 -1       690 1.39608E+02 3.53250E+01 0.00000E+00
 -1       691 1.78500E+01 1.03920E+01 0.00000E+00
 -1       692 1.05855E+01 3.97357E+01 0.00000E+00
 -1       693 1.39608E+02 2.64875E+01 0.00000E+00
 -1       694 7.41526E+01 1.18928E+01 0.00000E+00
 -1       695 8.18250E+01 9.84425E+00 0.00000E+00
 -1       696 5.84823E+01 2.71893E+01 0.00000E+00
 -1       697 1.28678E+01 3.96719E+01 0.00000E+00
 -1       698 6.90040E+01 2.60164E+01 0.00000E+00
 -1       699 1.03920E+01 1.76125E+01 0.00000E+00
 -1       700 6.58433E+01 2.71713E+01 0.00000E+00
 -1       701 4.86463E+01 1.28147E+01 0.00000E+00
 -1       702 7.18937E+01 2.22553E+01 0.00000E+00
 -1       703 4.99718E+01 2.10328E+01 0.00000E+00
 -1       704 6.31666E+01 2.75465E+01 0.00000E+00
 -1       705 1.03920E+01 3.23250E+01 0.00000E+00
 -1       706 5.61088E+01 2.62467E+01 0.00000E+00
 -1       707 4.82106E+01 1.52431E+01 0.00000E+00
 -1       708 6.09459E+01 2.75594E+01 0.00000E+00
 -1       709 7.04640E+01 2.37742E+01 0.00000E+00
 -1       710 1.03920E+01 2.64500E+01 0.00000E+00
 -1       711 1.33710E+01 9.75950E+00 0.00000E+00
 -1       712 1.39608E+02 1.47188E+01 0.00000E+00
 -1       713 4.76250E+01 9.84425E+00 0.00000E+00
 -1       714 1.39608E+02 1.76563E+01 0.00000E+00
 -1       715 6.82480E+01 2.79660E+01 0.00000E+00
 -1       716 1.38879E+02 3.74665E+01 0.00000E+00
 -1       717 5.01558E+01 2.26760E+01 0.00000E+00
 -1       718 7.58250E+01 9.79921E+00 0.00000E+00
 -1       719 4.73506E+01 1.71270E+01 0.00000E+00
 -1       720 5.44724E+01 2.62689E+01 0.00000E+00
 -1       721 1.03920E+01 3.52625E+01 0.00000E+00
 -1       722 1.39966E+02 1.24827E+01 0.00000E+00
 -1       723 5.23176E+01 2.42886E+01 0.00000E+00
 -1       724 1.03920E+01 2.93875E+01 0.00000E+00
 -1       725 1.56105E+01 1.00758E+01 0.00000E+00
 -1       726 1.28685E+01 1.17605E+01 0.00000E+00
 -1       727 6.47663E+01 2.92233E+01 0.00000E+00
 -1       728 7.44227E+01 2.22963E+01 0.00000E+00
 -1       729 1.96500E+01 3.70100E+01 0.00000E+00
 -1       730 2.26500E+01 3.70100E+01 0.00000E+00
 -1       731 2.56500E+01 3.70100E+01 0.00000E+00
 -1       732 2.86500E+01 3.70100E+01 0.00000E+00
 -1       733 3.16500E+01 3.70100E+01 0.00000E+00
 -1       734 3.46500E+01 3.70100E+01 0.00000E+00
 -1       735 3.76500E+01 3.70100E+01 0.00000E+00
 -1       736 4.06500E+01 3.70100E+01 0.00000E+00
 -1       737 4.36500E+01 3.70100E+01 0.00000E+00
 -1       738 4.66500E+01 3.70100E+01 0.00000E+00
 -1       739 4.96500E+01 3.70100E+01 0.00000E+00
 -1       740 5.26500E+01 3.70100E+01 0.00000E+00
 -1       741 5.56500E+01 3.70100E+01 0.00000E+00
 -1       742 5.86500E+01 3.70100E+01 0.00000E+00
 -1       743 6.16500E+01 3.70100E+01 0.00000E+00
 -1       744 6.46500E+01 3.70100E+01 0.00000E+00
 -1       745 6.76500E+01 3.70100E+01 0.00000E+00
 -1       746 7.06500E+01 3.70100E+01 0.00000E+00
 -1       747 7.36500E+01 3.70100E+01 0.00000E+00
 -1       748 7.66500E+01 3.70100E+01 0.00000E+00
 -1       749 7.96500E+01 3.70100E+01 0.00000E+00
 -1       750 8.26500E+01 3.70100E+01 0.00000E+00
 -1       751 8.56500E+01 3.70100E+01 0.00000E+00
 -1       752 8.86500E+01 3.70100E+01 0.00000E+00
 -1       753 9.16500E+01 3.70100E+01 0.00000E+00
 -1       754 9.46500E+01 3.70100E+01 0.00000E+00
 -1       755 9.76500E+01 3.70100E+01 0.00000E+00
 -1       756 1.00650E+02 3.70100E+01 0.00000E+00
 -1       757 1.03650E+02 3.70100E+01 0.00000E+00
 -1       758 1.06650E+02 3.70100E+01 0.00000E+00
 -1       759 1.09650E+02 3.70100E+01 0.00000E+00
 -1       760 1.12650E+02 3.70100E+01 0.00000E+00
 -1       761 1.15650E+02 3.70100E+01 0.00000E+00
 -1       762 1.18650E+02 3.70100E+01 0.00000E+00
 -1       763 1.21650E+02 3.70100E+01 0.00000E+00
 -1       764 1.24650E+02 3.70100E+01 0.00000E+00
 -1       765 1.27650E+02 3.70100E+01 0.00000E+00
 -1       766 1.30650E+02 3.70100E+01 0.00000E+00
 -1       767 1.33650E+02 3.70100E+01 0.00000E+00
 -1       768 1.36264E+02 3.72383E+01 0.00000E+00
 -1       769 6.20663E+01 2.92680E+01 0.00000E+00
 -1       770 3.42750E+01 1.29900E+01 0.00000E+00
 -1       771 3.12750E+01 1.29900E+01 0.00000E+00
 -1       772 4.02750E+01 1.29900E+01 0.00000E+00
 -1       773 4.32750E+01 1.29900E+01 0.00000E+00
 -1       774 1.37010E+02 1.91281E+01 0.00000E+00
 -1       775 2.23500E+01 1.29900E+01 0.00000E+00
 -1       776 8.93250E+01 1.24423E+01 0.00000E+00
 -1       777 9.21750E+01 1.24423E+01 0.00000E+00
 -1       778 7.47362E+01 1.39012E+01 0.00000E+00
 -1       779 8.63250E+01 1.24423E+01 0.00000E+00
 -1       780 9.51750E+01 1.24423E+01 0.00000E+00
 -1       781 9.81750E+01 1.24423E+01 0.00000E+00
 -1       782 1.01175E+02 1.24423E+01 0.00000E+00
 -1       783 1.04175E+02 1.24423E+01 0.00000E+00
 -1       784 1.07175E+02 1.24423E+01 0.00000E+00
 -1       785 1.10025E+02 1.24423E+01 0.00000E+00
 -1       786 1.13025E+02 1.24423E+01 0.00000E+00
 -1       787 1.16025E+02 1.24423E+01 0.00000E+00
 -1       788 1.19025E+02 1.24423E+01 0.00000E+00
 -1       789 1.22025E+02 1.24423E+01 0.00000E+00
 -1       790 1.25025E+02 1.24423E+01 0.00000E+00
 -1       791 1.27875E+02 1.24423E+01 0.00000E+00
 -1       792 1.30875E+02 1.24423E+01 0.00000E+00
 -1       793 1.33875E+02 1.24423E+01 0.00000E+00
 -1       794 1.36875E+02 1.24423E+01 0.00000E+00
 -1       795 4.66186E+01 1.22961E+01 0.00000E+00
 -1       796 8.03250E+01 1.22296E+01 0.00000E+00
 -1       797 1.37010E+02 3.38500E+01 0.00000E+00
 -1       798 1.37010E+02 3.09000E+01 0.00000E+00
 -1       799 1.93500E+01 1.29900E+01 0.00000E+00
 -1       800 1.04888E+01 3.74991E+01 0.00000E+00
 -1       801 8.33250E+01 1.24423E+01 0.00000E+00
 -1       802 1.37010E+02 1.61906E+01 0.00000E+00
 -1       803 4.77362E+01 2.03283E+01 0.00000E+00
 -1       804 5.94345E+01 2.92361E+01 0.00000E+00
 -1       805 7.62176E+01 1.65267E+01 0.00000E+00
 -1       806 7.73250E+01 1.21846E+01 0.00000E+00
 -1       807 1.37010E+02 2.20781E+01 0.00000E+00
 -1       808 3.72750E+01 1.29900E+01 0.00000E+00
 -1       809 1.29900E+01 2.20250E+01 0.00000E+00
 -1       810 5.66006E+01 2.84677E+01 0.00000E+00
 -1       811 4.61829E+01 1.47244E+01 0.00000E+00
 -1       812 7.14521E+01 2.60140E+01 0.00000E+00
 -1       813 1.66500E+01 3.70100E+01 0.00000E+00
 -1       814 7.59007E+01 1.91423E+01 0.00000E+00
 -1       815 7.28818E+01 2.44951E+01 0.00000E+00
 -1       816 6.71710E+01 3.00181E+01 0.00000E+00
 -1       817 7.66560E+01 2.15563E+01 0.00000E+00
 -1       818 7.62320E+01 1.49164E+01 0.00000E+00
 -1       819 2.83125E+01 1.29900E+01 0.00000E+00
 -1       820 4.60276E+01 1.90619E+01 0.00000E+00
 -1       821 1.29900E+01 2.49750E+01 0.00000E+00
 -1       822 4.79202E+01 2.19716E+01 0.00000E+00
 -1       823 1.29900E+01 3.08563E+01 0.00000E+00
 -1       824 1.27710E+01 3.74352E+01 0.00000E+00
 -1       825 2.53312E+01 1.29900E+01 0.00000E+00
 -1       826 5.24037E+01 2.61708E+01 0.00000E+00
 -1       827 7.06962E+01 2.79636E+01 0.00000E+00
 -1       828 1.63501E+01 1.29900E+01 0.00000E+00
 -1       829 1.37010E+02 2.79625E+01 0.00000E+00
 -1       830 5.03762E+01 2.43683E+01 0.00000E+00
 -1       831 5.49642E+01 2.84900E+01 0.00000E+00
 -1       832 1.29900E+01 3.37938E+01 0.00000E+00
 -1       833 1.37010E+02 2.50203E+01 0.00000E+00
 -1       834 1.36100E+01 1.49000E+01 0.00000E+00
 -1       835 1.29900E+01 1.90875E+01 0.00000E+00
 -1       836 1.36637E+02 3.55441E+01 0.00000E+00
 -1       837 2.11500E+01 3.44120E+01 0.00000E+00
 -1       838 2.41500E+01 3.44120E+01 0.00000E+00
 -1       839 2.71500E+01 3.44120E+01 0.00000E+00
 -1       840 3.01500E+01 3.44120E+01 0.00000E+00
 -1       841 3.31500E+01 3.44120E+01 0.00000E+00
 -1       842 3.61500E+01 3.44120E+01 0.00000E+00
 -1       843 3.91500E+01 3.44120E+01 0.00000E+00
 -1       844 4.21500E+01 3.44120E+01 0.00000E+00
 -1       845 4.51500E+01 3.44120E+01 0.00000E+00
 -1       846 4.81500E+01 3.44120E+01 0.00000E+00
 -1       847 5.11500E+01 3.44120E+01 0.00000E+00
 -1       848 5.41500E+01 3.44120E+01 0.00000E+00
 -1       849 5.71500E+01 3.44120E+01 0.00000E+00
 -1       850 6.01500E+01 3.44120E+01 0.00000E+00
 -1       851 6.31500E+01 3.44120E+01 0.00000E+00
 -1       852 6.61500E+01 3.44120E+01 0.00000E+00
 -1       853 6.91500E+01 3.44120E+01 0.00000E+00
 -1       854 7.21500E+01 3.44120E+01 0.00000E+00
 -1       855 7.51500E+01 3.44120E+01 0.00000E+00
 -1       856 7.81500E+01 3.44120E+01 0.00000E+00
 -1       857 8.11500E+01 3.44120E+01 0.00000E+00
 -1       858 8.41500E+01 3.44120E+01 0.00000E+00
 -1       859 8.71500E+01 3.44120E+01 0.00000E+00
 -1       860 9.01500E+01 3.44120E+01 0.00000E+00
 -1       861 9.31500E+01 3.44120E+01 0.00000E+00
 -1       862 9.61500E+01 3.44120E+01 0.00000E+00
 -1       863 9.91500E+01 3.44120E+01 0.00000E+00
 -1       864 1.02150E+02 3.44120E+01 0.00000E+00
 -1       865 1.05150E+02 3.44120E+01 0.00000E+00
 -1       866 1.08150E+02 3.44120E+01 0.00000E+00
 -1       867 1.11150E+02 3.44120E+01 0.00000E+00
 -1       868 1.14150E+02 3.44120E+01 0.00000E+00
 -1       869 1.17150E+02 3.44120E+01 0.00000E+00
 -1       870 1.20150E+02 3.44120E+01 0.00000E+00
 -1       871 1.23150E+02 3.44120E+01 0.00000E+00
 -1       872 1.26150E+02 3.44120E+01 0.00000E+00
 -1       873 1.29150E+02 3.44120E+01 0.00000E+00
 -1       874 1.32150E+02 3.44120E+01 0.00000E+00
 -1       875 8.16564E+01 1.47154E+01 0.00000E+00
 -1       876 4.17750E+01 1.55880E+01 0.00000E+00
 -1       877 6.34502E+01 3.12956E+01 0.00000E+00
 -1       878 1.29900E+01 2.79188E+01 0.00000E+00
 -1       879 9.36750E+01 1.50403E+01 0.00000E+00
 -1       880 9.08250E+01 1.50403E+01 0.00000E+00
 -1       881 9.96750E+01 1.50403E+01 0.00000E+00
 -1       882 1.02675E+02 1.50403E+01 0.00000E+00
 -1       883 1.05675E+02 1.50403E+01 0.00000E+00
 -1       884 1.08525E+02 1.50403E+01 0.00000E+00
 -1       885 1.11525E+02 1.50403E+01 0.00000E+00
 -1       886 1.14525E+02 1.50403E+01 0.00000E+00
 -1       887 1.17525E+02 1.50403E+01 0.00000E+00
 -1       888 1.20525E+02 1.50403E+01 0.00000E+00
 -1       889 1.23525E+02 1.50403E+01 0.00000E+00
 -1       890 1.26375E+02 1.50403E+01 0.00000E+00
 -1       891 1.29375E+02 1.50403E+01 0.00000E+00
 -1       892 1.32375E+02 1.50403E+01 0.00000E+00
 -1       893 1.34693E+02 1.56154E+01 0.00000E+00
 -1       894 1.44274E+01 3.46401E+01 0.00000E+00
 -1       895 6.08184E+01 3.12638E+01 0.00000E+00
 -1       896 1.34412E+02 2.06031E+01 0.00000E+00
 -1       897 1.78501E+01 1.55880E+01 0.00000E+00
 -1       898 7.84425E+01 1.57415E+01 0.00000E+00
 -1       899 2.08501E+01 1.55880E+01 0.00000E+00
 -1       900 3.57750E+01 1.55880E+01 0.00000E+00
 -1       901 8.48250E+01 1.50403E+01 0.00000E+00
 -1       902 4.48599E+01 1.66593E+01 0.00000E+00
 -1       903 1.34552E+02 1.81093E+01 0.00000E+00
 -1       904 7.54685E+01 2.46685E+01 0.00000E+00
 -1       905 1.34412E+02 3.23750E+01 0.00000E+00
 -1       906 5.74810E+01 3.08307E+01 0.00000E+00
 -1       907 7.40388E+01 2.61874E+01 0.00000E+00
 -1       908 3.87750E+01 1.55880E+01 0.00000E+00
 -1       909 8.78250E+01 1.50403E+01 0.00000E+00
 -1       910 7.81256E+01 1.83571E+01 0.00000E+00
 -1       911 9.66750E+01 1.50403E+01 0.00000E+00
 -1       912 1.81500E+01 3.44120E+01 0.00000E+00
 -1       913 3.27750E+01 1.55880E+01 0.00000E+00
 -1       914 7.88809E+01 2.07710E+01 0.00000E+00
 -1       915 2.98125E+01 1.55880E+01 0.00000E+00
 -1       916 1.34394E+02 3.49781E+01 0.00000E+00
 -1       917 4.55612E+01 2.14768E+01 0.00000E+00
 -1       918 1.55880E+01 2.35000E+01 0.00000E+00
 -1       919 1.55880E+01 2.93875E+01 0.00000E+00
 -1       920 4.81406E+01 2.36639E+01 0.00000E+00
 -1       921 6.96191E+01 3.00157E+01 0.00000E+00
 -1       922 1.34412E+02 2.35453E+01 0.00000E+00
 -1       923 5.28955E+01 2.83919E+01 0.00000E+00
 -1       924 2.38313E+01 1.55880E+01 0.00000E+00
 -1       925 7.32828E+01 2.81370E+01 0.00000E+00
 -1       926 1.34412E+02 2.94375E+01 0.00000E+00
 -1       927 5.04623E+01 2.62505E+01 0.00000E+00
 -1       928 5.58445E+01 3.08530E+01 0.00000E+00
 -1       929 1.55880E+01 3.23250E+01 0.00000E+00
 -1       930 1.55880E+01 2.05625E+01 0.00000E+00
 -1       931 2.26500E+01 3.18140E+01 0.00000E+00
 -1       932 2.56500E+01 3.18140E+01 0.00000E+00
 -1       933 2.86500E+01 3.18140E+01 0.00000E+00
 -1       934 3.16500E+01 3.18140E+01 0.00000E+00
 -1       935 3.46500E+01 3.18140E+01 0.00000E+00
 -1       936 3.76500E+01 3.18140E+01 0.00000E+00
 -1       937 4.06500E+01 3.18140E+01 0.00000E+00
 -1       938 4.36500E+01 3.18140E+01 0.00000E+00
 -1       939 4.66500E+01 3.18140E+01 0.00000E+00
 -1       940 4.96500E+01 3.18140E+01 0.00000E+00
 -1       941 5.26500E+01 3.18140E+01 0.00000E+00
 -1       942 7.66500E+01 3.18140E+01 0.00000E+00
 -1       943 7.96500E+01 3.18140E+01 0.00000E+00
 -1       944 8.26500E+01 3.18140E+01 0.00000E+00
 -1       945 8.56500E+01 3.18140E+01 0.00000E+00
 -1       946 8.86500E+01 3.18140E+01 0.00000E+00
 -1       947 9.16500E+01 3.18140E+01 0.00000E+00
 -1       948 9.46500E+01 3.18140E+01 0.00000E+00
 -1       949 9.76500E+01 3.18140E+01 0.00000E+00
 -1       950 1.00650E+02 3.18140E+01 0.00000E+00
 -1       951 1.03650E+02 3.18140E+01 0.00000E+00
 -1       952 1.06650E+02 3.18140E+01 0.00000E+00
 -1       953 1.09650E+02 3.18140E+01 0.00000E+00
 -1       954 1.12650E+02 3.18140E+01 0.00000E+00
 -1       955 1.15650E+02 3.18140E+01 0.00000E+00
 -1       956 1.18650E+02 3.18140E+01 0.00000E+00
 -1       957 1.21650E+02 3.18140E+01 0.00000E+00
 -1       958 1.24650E+02 3.18140E+01 0.00000E+00
 -1       959 1.27650E+02 3.18140E+01 0.00000E+00
 -1       960 1.30650E+02 3.18140E+01 0.00000E+00
 -1       961 1.55880E+01 2.64438E+01 0.00000E+00
 -1       962 8.29757E+01 1.74623E+01 0.00000E+00
 -1       963 9.22500E+01 1.76383E+01 0.00000E+00
 -1       964 2.68219E+01 1.55880E+01 0.00000E+00
 -1       965 1.07100E+02 1.76383E+01 0.00000E+00
 -1       966 1.04100E+02 1.76383E+01 0.00000E+00
 -1       967 1.01100E+02 1.76383E+01 0.00000E+00
 -1       968 1.10100E+02 1.76383E+01 0.00000E+00
 -1       969 1.13100E+02 1.76383E+01 0.00000E+00
 -1       970 1.16100E+02 1.76383E+01 0.00000E+00
 -1       971 1.19100E+02 1.76383E+01 0.00000E+00
 -1       972 1.22100E+02 1.76383E+01 0.00000E+00
 -1       973 1.24950E+02 1.76383E+01 0.00000E+00
 -1       974 1.27950E+02 1.76383E+01 0.00000E+00
 -1       975 1.30950E+02 1.76383E+01 0.00000E+00
 -1       976 1.32751E+02 1.78738E+01 0.00000E+00
 -1       977 8.92500E+01 1.76383E+01 0.00000E+00
 -1       978 1.93501E+01 1.81860E+01 0.00000E+00
 -1       979 8.05507E+01 1.79097E+01 0.00000E+00
 -1       980 3.72750E+01 1.81860E+01 0.00000E+00
 -1       981 4.36168E+01 1.98488E+01 0.00000E+00
 -1       982 7.82909E+01 2.39627E+01 0.00000E+00
 -1       983 9.52500E+01 1.76383E+01 0.00000E+00
 -1       984 1.34412E+02 2.64953E+01 0.00000E+00
 -1       985 8.62500E+01 1.76383E+01 0.00000E+00
 -1       986 4.02750E+01 1.81860E+01 0.00000E+00
 -1       987 7.66454E+01 2.72086E+01 0.00000E+00
 -1       988 9.81750E+01 1.76383E+01 0.00000E+00
 -1       989 1.96500E+01 3.18140E+01 0.00000E+00
 -1       990 6.59804E+01 3.14485E+01 0.00000E+00
 -1       991 3.42750E+01 1.81860E+01 0.00000E+00
 -1       992 4.57816E+01 2.31691E+01 0.00000E+00
 -1       993 3.13125E+01 1.81860E+01 0.00000E+00
 -1       994 4.82267E+01 2.55461E+01 0.00000E+00
 -1       995 7.31361E+01 3.09177E+01 0.00000E+00
 -1       996 1.81860E+01 2.79156E+01 0.00000E+00
 -1       997 1.69381E+01 1.94461E+01 0.00000E+00
 -1       998 2.23313E+01 1.81860E+01 0.00000E+00
 -1       999 4.29501E+01 2.26203E+01 0.00000E+00
 -1      1000 5.09541E+01 2.84716E+01 0.00000E+00
 -1      1001 1.81860E+01 2.49719E+01 0.00000E+00
 -1      1002 1.32611E+02 2.03676E+01 0.00000E+00
 -1      1003 1.81860E+01 2.20344E+01 0.00000E+00
 -1      1004 1.32611E+02 2.33098E+01 0.00000E+00
 -1      1005 2.11860E+01 2.79156E+01 0.00000E+00
 -1      1006 2.71500E+01 2.92160E+01 0.00000E+00
 -1      1007 3.01500E+01 2.92160E+01 0.00000E+00
 -1      1008 3.31500E+01 2.92160E+01 0.00000E+00
 -1      1009 3.61500E+01 2.92160E+01 0.00000E+00
 -1      1010 3.91500E+01 2.92160E+01 0.00000E+00
 -1      1011 4.21500E+01 2.92160E+01 0.00000E+00
 -1      1012 4.51500E+01 2.92160E+01 0.00000E+00
 -1      1013 4.81500E+01 2.92160E+01 0.00000E+00
 -1      1014 3.87750E+01 2.07840E+01 0.00000E+00
 -1      1015 4.08625E+01 2.17021E+01 0.00000E+00
 -1      1016 8.11500E+01 2.92160E+01 0.00000E+00
 -1      1017 8.41500E+01 2.92160E+01 0.00000E+00
 -1      1018 8.71500E+01 2.92160E+01 0.00000E+00
 -1      1019 9.01500E+01 2.92160E+01 0.00000E+00
 -1      1020 9.31500E+01 2.92160E+01 0.00000E+00
 -1      1021 9.61500E+01 2.92160E+01 0.00000E+00
 -1      1022 9.91500E+01 2.92160E+01 0.00000E+00
 -1      1023 1.02150E+02 2.92160E+01 0.00000E+00
 -1      1024 1.05150E+02 2.92160E+01 0.00000E+00
 -1      1025 1.08150E+02 2.92160E+01 0.00000E+00
 -1      1026 1.11150E+02 2.92160E+01 0.00000E+00
 -1      1027 1.14150E+02 2.92160E+01 0.00000E+00
 -1      1028 1.17150E+02 2.92160E+01 0.00000E+00
 -1      1029 1.20150E+02 2.92160E+01 0.00000E+00
 -1      1030 1.23150E+02 2.92160E+01 0.00000E+00
 -1      1031 1.26150E+02 2.92160E+01 0.00000E+00
 -1      1032 1.29150E+02 2.92160E+01 0.00000E+00
 -1      1033 1.32611E+02 2.62598E+01 0.00000E+00
 -1      1034 1.05600E+02 2.02362E+01 0.00000E+00
 -1      1035 1.08600E+02 2.02362E+01 0.00000E+00
 -1      1036 1.02600E+02 2.02362E+01 0.00000E+00
 -1      1037 1.14600E+02 2.02362E+01 0.00000E+00
 -1      1038 1.17600E+02 2.02362E+01 0.00000E+00
 -1      1039 1.20600E+02 2.02362E+01 0.00000E+00
 -1      1040 1.23450E+02 2.02362E+01 0.00000E+00
 -1      1041 1.26450E+02 2.02362E+01 0.00000E+00
 -1      1042 1.29450E+02 2.02362E+01 0.00000E+00
 -1      1043 3.57750E+01 2.07840E+01 0.00000E+00
 -1      1044 8.22264E+01 2.01965E+01 0.00000E+00
 -1      1045 1.11600E+02 2.02362E+01 0.00000E+00
 -1      1046 7.97854E+01 2.67604E+01 0.00000E+00
 -1      1047 9.37500E+01 2.02362E+01 0.00000E+00
 -1      1048 8.55007E+01 2.03725E+01 0.00000E+00
 -1      1049 8.85007E+01 2.03725E+01 0.00000E+00
 -1      1050 8.11406E+01 2.28391E+01 0.00000E+00
 -1      1051 7.66477E+01 2.95113E+01 0.00000E+00
 -1      1052 9.11253E+01 2.03044E+01 0.00000E+00
 -1      1053 2.41680E+01 2.85658E+01 0.00000E+00
 -1      1054 4.38715E+01 2.54452E+01 0.00000E+00
 -1      1055 4.60491E+01 2.54957E+01 0.00000E+00
 -1      1056 3.28125E+01 2.07840E+01 0.00000E+00
 -1      1057 2.07840E+01 2.35031E+01 0.00000E+00
 -1      1058 9.66750E+01 2.02362E+01 0.00000E+00
 -1      1059 2.83219E+01 1.81860E+01 0.00000E+00
 -1      1060 9.96750E+01 2.02362E+01 0.00000E+00
 -1      1061 2.53266E+01 1.81860E+01 0.00000E+00
 -1      1062 1.29450E+02 2.31784E+01 0.00000E+00
 -1      1063 1.93471E+01 2.11187E+01 0.00000E+00
 -1      1064 4.09408E+01 2.48383E+01 0.00000E+00
 -1      1065 7.81500E+01 2.92160E+01 0.00000E+00
 -1      1066 1.29193E+02 2.57625E+01 0.00000E+00
 -1      1067 3.16500E+01 2.66180E+01 0.00000E+00
 -1      1068 3.46500E+01 2.66180E+01 0.00000E+00
 -1      1069 3.76500E+01 2.66180E+01 0.00000E+00
 -1      1070 3.88533E+01 2.39202E+01 0.00000E+00
 -1      1071 8.26500E+01 2.66180E+01 0.00000E+00
 -1      1072 8.56500E+01 2.66180E+01 0.00000E+00
 -1      1073 8.86500E+01 2.66180E+01 0.00000E+00
 -1      1074 9.16500E+01 2.66180E+01 0.00000E+00
 -1      1075 9.46500E+01 2.66180E+01 0.00000E+00
 -1      1076 9.76500E+01 2.66180E+01 0.00000E+00
 -1      1077 1.00650E+02 2.66180E+01 0.00000E+00
 -1      1078 1.03650E+02 2.66180E+01 0.00000E+00
 -1      1079 1.06650E+02 2.66180E+01 0.00000E+00
 -1      1080 1.09650E+02 2.66180E+01 0.00000E+00
 -1      1081 1.12650E+02 2.66180E+01 0.00000E+00
 -1      1082 1.15650E+02 2.66180E+01 0.00000E+00
 -1      1083 1.18650E+02 2.66180E+01 0.00000E+00
 -1      1084 1.21650E+02 2.66180E+01 0.00000E+00
 -1      1085 1.24650E+02 2.66180E+01 0.00000E+00
 -1      1086 1.26922E+02 2.61902E+01 0.00000E+00
 -1      1087 1.07100E+02 2.28343E+01 0.00000E+00
 -1      1088 1.04100E+02 2.28343E+01 0.00000E+00
 -1      1089 1.19100E+02 2.28343E+01 0.00000E+00
 -1      1090 1.16100E+02 2.28343E+01 0.00000E+00
 -1      1091 1.24950E+02 2.28343E+01 0.00000E+00
 -1      1092 1.27200E+02 2.30063E+01 0.00000E+00
 -1      1093 8.70007E+01 2.29705E+01 0.00000E+00
 -1      1094 2.86500E+01 2.66180E+01 0.00000E+00
 -1      1095 8.40706E+01 2.29048E+01 0.00000E+00
 -1      1096 2.37660E+01 2.41533E+01 0.00000E+00
 -1      1097 1.22025E+02 2.28343E+01 0.00000E+00
 -1      1098 2.62080E+01 2.53857E+01 0.00000E+00
 -1      1099 2.98219E+01 2.07840E+01 0.00000E+00
 -1      1100 1.01175E+02 2.28343E+01 0.00000E+00
 -1      1101 1.13100E+02 2.28343E+01 0.00000E+00
 -1      1102 8.96253E+01 2.29024E+01 0.00000E+00
 -1      1103 9.52125E+01 2.28343E+01 0.00000E+00
 -1      1104 9.24189E+01 2.28683E+01 0.00000E+00
 -1      1105 2.26602E+01 2.15054E+01 0.00000E+00
 -1      1106 3.54600E+01 2.41720E+01 0.00000E+00
 -1      1107 1.10100E+02 2.28343E+01 0.00000E+00
 -1      1108 3.01500E+01 2.40200E+01 0.00000E+00
 -1      1109 2.60188E+01 2.14727E+01 0.00000E+00
 -1      1110 9.86625E+01 2.34271E+01 0.00000E+00
 -1      1111 3.22313E+01 2.37010E+01 0.00000E+00
 -1      1112 0.00000E+00 4.85250E+01 0.00000E+00
 -1      1113 0.00000E+00 4.55750E+01 0.00000E+00
 -1      1114 0.00000E+00 4.26250E+01 0.00000E+00
 -1      1115 0.00000E+00 3.96750E+01 0.00000E+00
 -1      1116 0.00000E+00 3.67250E+01 0.00000E+00
 -1      1117 0.00000E+00 3.38000E+01 0.00000E+00
 -1      1118 0.00000E+00 3.08750E+01 0.00000E+00
 -1      1119 0.00000E+00 2.79250E+01 0.00000E+00
 -1      1120 0.00000E+00 2.49750E+01 0.00000E+00
 -1      1121 0.00000E+00 2.20250E+01 0.00000E+00
 -1      1122 0.00000E+00 1.90750E+01 0.00000E+00
 -1      1123 0.00000E+00 1.61500E+01 0.00000E+00
 -1      1124 0.00000E+00 1.32250E+01 0.00000E+00
 -1      1125 0.00000E+00 1.02750E+01 0.00000E+00
 -1      1126 0.00000E+00 7.32500E+00 0.00000E+00
 -1      1127 0.00000E+00 4.37500E+00 0.00000E+00
 -1      1128 0.00000E+00 1.45000E+00 0.00000E+00
 -1      1129 1.57500E+00 5.00000E+01 0.00000E+00
 -1      1130 4.65000E+00 5.00000E+01 0.00000E+00
 -1      1131 7.65000E+00 5.00000E+01 0.00000E+00
 -1      1132 1.06500E+01 5.00000E+01 0.00000E+00
 -1      1133 1.36500E+01 5.00000E+01 0.00000E+00
 -1      1134 1.66500E+01 5.00000E+01 0.00000E+00
 -1      1135 1.96500E+01 5.00000E+01 0.00000E+00
 -1      1136 2.26500E+01 5.00000E+01 0.00000E+00
 -1      1137 2.56500E+01 5.00000E+01 0.00000E+00
 -1      1138 2.86500E+01 5.00000E+01 0.00000E+00
 -1      1139 3.16500E+01 5.00000E+01 0.00000E+00
 -1      1140 3.46500E+01 5.00000E+01 0.00000E+00
 -1      1141 3.76500E+01 5.00000E+01 0.00000E+00
 -1      1142 4.06500E+01 5.00000E+01 0.00000E+00
 -1      1143 4.36500E+01 5.00000E+01 0.00000E+00
 -1      1144 4.66500E+01 5.00000E+01 0.00000E+00
 -1      1145 4.96500E+01 5.00000E+01 0.00000E+00
 -1      1146 5.26500E+01 5.00000E+01 0.00000E+00
 -1      1147 5.56500E+01 5.00000E+01 0.00000E+00
 -1      1148 5.86500E+01 5.00000E+01 0.00000E+00
 -1      1149 6.16500E+01 5.00000E+01 0.00000E+00
 -1      1150 6.46500E+01 5.00000E+01 0.00000E+00
 -1      1151 6.76500E+01 5.00000E+01 0.00000E+00
 -1      1152 7.06500E+01 5.00000E+01 0.00000E+00
 -1      1153 7.36500E+01 5.00000E+01 0.00000E+00
 -1      1154 7.66500E+01 5.00000E+01 0.00000E+00
 -1      1155 7.96500E+01 5.00000E+01 0.00000E+00
 -1      1156 8.26500E+01 5.00000E+01 0.00000E+00
 -1      1157 8.56500E+01 5.00000E+01 0.00000E+00
 -1      1158 8.86500E+01 5.00000E+01 0.00000E+00
 -1      1159 9.16500E+01 5.00000E+01 0.00000E+00
 -1      1160 9.46500E+01 5.00000E+01 0.00000E+00
 -1      1161 9.76500E+01 5.00000E+01 0.00000E+00
 -1      1162 1.00650E+02 5.00000E+01 0.00000E+00
 -1      1163 1.03650E+02 5.00000E+01 0.00000E+00
 -1      1164 1.06650E+02 5.00000E+01 0.00000E+00
 -1      1165 1.09650E+02 5.00000E+01 0.00000E+00
 -1      1166 1.12650E+02 5.00000E+01 0.00000E+00
 -1      1167 1.15650E+02 5.00000E+01 0.00000E+00
 -1      1168 1.18650E+02 5.00000E+01 0.00000E+00
 -1      1169 1.21650E+02 5.00000E+01 0.00000E+00
 -1      1170 1.24650E+02 5.00000E+01 0.00000E+00
 -1      1171 1.27650E+02 5.00000E+01 0.00000E+00
 -1      1172 1.30650E+02 5.00000E+01 0.00000E+00
 -1      1173 1.33650E+02 5.00000E+01 0.00000E+00
 -1      1174 1.36650E+02 5.00000E+01 0.00000E+00
 -1      1175 1.39650E+02 5.00000E+01 0.00000E+00
 -1      1176 1.42650E+02 5.00000E+01 0.00000E+00
 -1      1177 1.45650E+02 5.00000E+01 0.00000E+00
 -1      1178 1.48575E+02 5.00000E+01 0.00000E+00
 -1      1179 1.50000E+00 0.00000E+00 0.00000E+00
 -1      1180 4.50000E+00 0.00000E+00 0.00000E+00
 -1      1181 7.50000E+00 0.00000E+00 0.00000E+00
 -1      1182 1.05000E+01 0.00000E+00 0.00000E+00
 -1      1183 1.35000E+01 0.00000E+00 0.00000E+00
 -1      1184 1.64250E+01 0.00000E+00 0.00000E+00
 -1      1185 1.93500E+01 0.00000E+00 0.00000E+00
 -1      1186 2.23500E+01 0.00000E+00 0.00000E+00
 -1      1187 2.53500E+01 0.00000E+00 0.00000E+00
 -1      1188 2.83500E+01 0.00000E+00 0.00000E+00
 -1      1189 3.13500E+01 0.00000E+00 0.00000E+00
 -1      1190 3.42750E+01 0.00000E+00 0.00000E+00
 -1      1191 3.72000E+01 0.00000E+00 0.00000E+00
 -1      1192 4.02000E+01 0.00000E+00 0.00000E+00
 -1      1193 4.32000E+01 0.00000E+00 0.00000E+00
 -1      1194 4.62000E+01 0.00000E+00 0.00000E+00
 -1      1195 4.92000E+01 0.00000E+00 0.00000E+00
 -1      1196 5.21250E+01 0.00000E+00 0.00000E+00
 -1      1197 5.48250E+01 0.00000E+00 0.00000E+00
 -1      1198 5.76000E+01 0.00000E+00 0.00000E+00
 -1      1199 6.05250E+01 0.00000E+00 0.00000E+00
 -1      1200 6.32250E+01 0.00000E+00 0.00000E+00
 -1      1201 6.58500E+01 0.00000E+00 0.00000E+00
 -1      1202 6.85500E+01 0.00000E+00 0.00000E+00
 -1      1203 7.13250E+01 0.00000E+00 0.00000E+00
 -1      1204 7.42500E+01 0.00000E+00 0.00000E+00
 -1      1205 7.72500E+01 0.00000E+00 0.00000E+00
 -1      1206 8.01750E+01 0.00000E+00 0.00000E+00
 -1      1207 8.31000E+01 0.00000E+00 0.00000E+00
 -1      1208 8.61000E+01 0.00000E+00 0.00000E+00
 -1      1209 8.91000E+01 0.00000E+00 0.00000E+00
 -1      1210 9.21000E+01 0.00000E+00 0.00000E+00
 -1      1211 9.51000E+01 0.00000E+00 0.00000E+00
 -1      1212 9.80250E+01 0.00000E+00 0.00000E+00
 -1      1213 1.00950E+02 0.00000E+00 0.00000E+00
 -1      1214 1.03950E+02 0.00000E+00 0.00000E+00
 -1      1215 1.06950E+02 0.00000E+00 0.00000E+00
 -1      1216 1.09950E+02 0.00000E+00 0.00000E+00
 -1      1217 1.12950E+02 0.00000E+00 0.00000E+00
 -1      1218 1.15875E+02 0.00000E+00 0.00000E+00
 -1      1219 1.18800E+02 0.00000E+00 0.00000E+00
 -1      1220 1.21800E+02 0.00000E+00 0.00000E+00
 -1      1221 1.24800E+02 0.00000E+00 0.00000E+00
 -1      1222 1.27800E+02 0.00000E+00 0.00000E+00
 -1      1223 1.30800E+02 0.00000E+00 0.00000E+00
 -1      1224 1.33725E+02 0.00000E+00 0.00000E+00
 -1      1225 1.36650E+02 0.00000E+00 0.00000E+00
 -1      1226 1.39650E+02 0.00000E+00 0.00000E+00
 -1      1227 1.42650E+02 0.00000E+00 0.00000E+00
 -1      1228 1.45650E+02 0.00000E+00 0.00000E+00
 -1      1229 1.48575E+02 0.00000E+00 0.00000E+00
 -1      1230 1.50000E+02 1.47500E+00 0.00000E+00
 -1      1231 1.50000E+02 4.42500E+00 0.00000E+00
 -1      1232 1.50000E+02 7.37500E+00 0.00000E+00
 -1      1233 1.50000E+02 1.03250E+01 0.00000E+00
 -1      1234 1.50000E+02 1.32750E+01 0.00000E+00
 -1      1235 1.50000E+02 1.62000E+01 0.00000E+00
 -1      1236 1.50000E+02 1.91250E+01 0.00000E+00
 -1      1237 1.50000E+02 2.20750E+01 0.00000E+00
 -1      1238 1.50000E+02 2.50250E+01 0.00000E+00
 -1      1239 1.50000E+02 2.79750E+01 0.00000E+00
 -1      1240 1.50000E+02 3.09250E+01 0.00000E+00
 -1      1241 1.50000E+02 3.38500E+01 0.00000E+00
 -1      1242 1.50000E+02 3.67750E+01 0.00000E+00
 -1      1243 1.50000E+02 3.97250E+01 0.00000E+00
 -1      1244 1.50000E+02 4.26750E+01 0.00000E+00
 -1      1245 1.50000E+02 4.56250E+01 0.00000E+00
 -1      1246 1.50000E+02 4.85500E+01 0.00000E+00
 -1      1247 6.84073E+01 1.40676E+01 0.00000E+00
 -1      1248 6.80827E+01 1.26061E+01 0.00000E+00
 -1      1249 6.74549E+01 1.12471E+01 0.00000E+00
 -1      1250 6.65664E+01 1.00676E+01 0.00000E+00
 -1      1251 6.54482E+01 9.09936E+00 0.00000E+00
 -1      1252 6.41287E+01 8.37813E+00 0.00000E+00
 -1      1253 6.26873E+01 7.95570E+00 0.00000E+00
 -1      1254 6.11571E+01 7.85176E+00 0.00000E+00
 -1      1255 5.96856E+01 8.07179E+00 0.00000E+00
 -1      1256 5.82941E+01 8.59770E+00 0.00000E+00
 -1      1257 5.70689E+01 9.38665E+00 0.00000E+00
 -1      1258 5.60337E+01 1.04120E+01 0.00000E+00
 -1      1259 5.52106E+01 1.16736E+01 0.00000E+00
 -1      1260 5.46839E+01 1.30537E+01 0.00000E+00
 -1      1261 5.44586E+01 1.45124E+01 0.00000E+00
 -1      1262 5.45472E+01 1.60039E+01 0.00000E+00
 -1      1263 5.49653E+01 1.74801E+01 0.00000E+00
 -1      1264 5.56675E+01 1.87897E+01 0.00000E+00
 -1      1265 5.66475E+01 1.99378E+01 0.00000E+00
 -1      1266 5.78475E+01 2.08471E+01 0.00000E+00
 -1      1267 5.90900E+01 2.14355E+01 0.00000E+00
 -1      1268 6.04102E+01 2.17678E+01 0.00000E+00
 -1      1269 6.18149E+01 2.18361E+01 0.00000E+00
 -1      1270 6.32343E+01 2.16145E+01 0.00000E+00
 -1      1271 6.45825E+01 2.11059E+01 0.00000E+00
 -1      1272 6.57853E+01 2.03420E+01 0.00000E+00
 -1      1273 6.67951E+01 1.93663E+01 0.00000E+00
 -1      1274 6.75976E+01 1.81945E+01 0.00000E+00
 -1      1275 6.81419E+01 1.69016E+01 0.00000E+00
 -1      1276 6.84161E+01 1.55399E+01 0.00000E+00
 -1      1277 1.57500E+00 4.85250E+01 0.00000E+00
 -1      1278 1.29900E+00 4.48375E+01 0.00000E+00
 -1      1279 1.29900E+00 4.63125E+01 0.00000E+00
 -1      1280 1.29900E+00 4.18875E+01 0.00000E+00
 -1      1281 1.29900E+00 4.33625E+01 0.00000E+00
 -1      1282 2.59800E+00 4.41000E+01 0.00000E+00
 -1      1283 1.29900E+00 3.89375E+01 0.00000E+00
 -1      1284 1.29900E+00 4.04125E+01 0.00000E+00
 -1      1285 2.59800E+00 4.11500E+01 0.00000E+00
 -1      1286 1.29900E+00 3.59875E+01 0.00000E+00
 -1      1287 1.29900E+00 3.74625E+01 0.00000E+00
 -1      1288 2.59800E+00 3.82000E+01 0.00000E+00
 -1      1289 1.29900E+00 3.30875E+01 0.00000E+00
 -1      1290 1.29900E+00 3.45375E+01 0.00000E+00
 -1      1291 2.59800E+00 3.52750E+01 0.00000E+00
 -1      1292 1.29900E+00 3.01375E+01 0.00000E+00
 -1      1293 1.29900E+00 3.16125E+01 0.00000E+00
 -1      1294 2.59800E+00 3.23500E+01 0.00000E+00
 -1      1295 1.29900E+00 2.71875E+01 0.00000E+00
 -1      1296 1.29900E+00 2.86625E+01 0.00000E+00
 -1      1297 2.59800E+00 2.94000E+01 0.00000E+00
 -1      1298 1.29900E+00 2.42375E+01 0.00000E+00
 -1      1299 1.29900E+00 2.57125E+01 0.00000E+00
 -1      1300 2.59800E+00 2.64500E+01 0.00000E+00
 -1      1301 1.29900E+00 2.12875E+01 0.00000E+00
 -1      1302 1.29900E+00 2.27625E+01 0.00000E+00
 -1      1303 2.59800E+00 2.35000E+01 0.00000E+00
 -1      1304 1.29900E+00 1.83375E+01 0.00000E+00
 -1      1305 1.29900E+00 1.98125E+01 0.00000E+00
 -1      1306 2.59800E+00 2.05500E+01 0.00000E+00
 -1      1307 1.29900E+00 1.54375E+01 0.00000E+00
 -1      1308 1.29900E+00 1.68875E+01 0.00000E+00
 -1      1309 2.59800E+00 1.76250E+01 0.00000E+00
 -1      1310 1.29900E+00 1.24875E+01 0.00000E+00
 -1      1311 1.29900E+00 1.39625E+01 0.00000E+00
 -1      1312 2.59800E+00 1.47000E+01 0.00000E+00
 -1      1313 1.29900E+00 9.53750E+00 0.00000E+00
 -1      1314 1.29900E+00 1.10125E+01 0.00000E+00
 -1      1315 2.59800E+00 1.17500E+01 0.00000E+00
 -1      1316 1.29900E+00 6.58750E+00 0.00000E+00
 -1      1317 1.29900E+00 8.06250E+00 0.00000E+00
 -1      1318 2.59800E+00 8.80000E+00 0.00000E+00
 -1      1319 1.29900E+00 3.63750E+00 0.00000E+00
 -1      1320 1.29900E+00 5.11250E+00 0.00000E+00
 -1      1321 2.59800E+00 5.85000E+00 0.00000E+00
 -1      1322 1.50000E+00 1.45000E+00 0.00000E+00
 -1      1323 3.90000E+00 4.87010E+01 0.00000E+00
 -1      1324 5.40000E+00 4.87010E+01 0.00000E+00
 -1      1325 6.90000E+00 4.87010E+01 0.00000E+00
 -1      1326 8.40000E+00 4.87010E+01 0.00000E+00
 -1      1327 6.15000E+00 4.74020E+01 0.00000E+00
 -1      1328 9.90000E+00 4.87010E+01 0.00000E+00
 -1      1329 1.14000E+01 4.87010E+01 0.00000E+00
 -1      1330 9.15000E+00 4.74020E+01 0.00000E+00
 -1      1331 1.29000E+01 4.87010E+01 0.00000E+00
 -1      1332 1.44000E+01 4.87010E+01 0.00000E+00
 -1      1333 1.21500E+01 4.74020E+01 0.00000E+00
 -1      1334 1.59000E+01 4.87010E+01 0.00000E+00
 -1      1335 1.74000E+01 4.87010E+01 0.00000E+00
 -1      1336 1.51500E+01 4.74020E+01 0.00000E+00
 -1      1337 1.89000E+01 4.87010E+01 0.00000E+00
 -1      1338 2.04000E+01 4.87010E+01 0.00000E+00
 -1      1339 1.81500E+01 4.74020E+01 0.00000E+00
 -1      1340 2.19000E+01 4.87010E+01 0.00000E+00
 -1      1341 2.34000E+01 4.87010E+01 0.00000E+00
 -1      1342 2.11500E+01 4.74020E+01 0.00000E+00
 -1      1343 2.49000E+01 4.87010E+01 0.00000E+00
 -1      1344 2.64000E+01 4.87010E+01 0.00000E+00
 -1      1345 2.41500E+01 4.74020E+01 0.00000E+00
 -1      1346 2.79000E+01 4.87010E+01 0.00000E+00
 -1      1347 2.94000E+01 4.87010E+01 0.00000E+00
 -1      1348 2.71500E+01 4.74020E+01 0.00000E+00
 -1      1349 3.09000E+01 4.87010E+01 0.00000E+00
 -1      1350 3.24000E+01 4.87010E+01 0.00000E+00
 -1      1351 3.01500E+01 4.74020E+01 0.00000E+00
 -1      1352 3.39000E+01 4.87010E+01 0.00000E+00
 -1      1353 3.54000E+01 4.87010E+01 0.00000E+00
 -1      1354 3.31500E+01 4.74020E+01 0.00000E+00
 -1      1355 3.69000E+01 4.87010E+01 0.00000E+00
 -1      1356 3.84000E+01 4.87010E+01 0.00000E+00
 -1      1357 3.61500E+01 4.74020E+01 0.00000E+00
 -1      1358 3.99000E+01 4.87010E+01 0.00000E+00
 -1      1359 4.14000E+01 4.87010E+01 0.00000E+00
 -1      1360 3.91500E+01 4.74020E+01 0.00000E+00
 -1      1361 4.29000E+01 4.87010E+01 0.00000E+00
 -1      1362 4.44000E+01 4.87010E+01 0.00000E+00
 -1      1363 4.21500E+01 4.74020E+01 0.00000E+00
 -1      1364 4.59000E+01 4.87010E+01 0.00000E+00
 -1      1365 4.74000E+01 4.87010E+01 0.00000E+00
 -1      1366 4.51500E+01 4.74020E+01 0.00000E+00
 -1      1367 4.89000E+01 4.87010E+01 0.00000E+00
 -1      1368 5.04000E+01 4.87010E+01 0.00000E+00
 -1      1369 4.81500E+01 4.74020E+01 0.00000E+00
 -1      1370 5.19000E+01 4.87010E+01 0.00000E+00
 -1      1371 5.34000E+01 4.87010E+01 0.00000E+00
 -1      1372 5.11500E+01 4.74020E+01 0.00000E+00
 -1      1373 5.49000E+01 4.87010E+01 0.00000E+00
 -1      1374 5.64000E+01 4.87010E+01 0.00000E+00
 -1      1375 5.41500E+01 4.74020E+01 0.00000E+00
 -1      1376 5.79000E+01 4.87010E+01 0.00000E+00
 -1      1377 5.94000E+01 4.87010E+01 0.00000E+00
 -1      1378 5.71500E+01 4.74020E+01 0.00000E+00
 -1      1379 6.09000E+01 4.87010E+01 0.00000E+00
 -1      1380 6.24000E+01 4.87010E+01 0.00000E+00
 -1      1381 6.01500E+01 4.74020E+01 0.00000E+00
 -1      1382 6.39000E+01 4.87010E+01 0.00000E+00
 -1      1383 6.54000E+01 4.87010E+01 0.00000E+00
 -1      1384 6.31500E+01 4.74020E+01 0.00000E+00
 -1      1385 6.69000E+01 4.87010E+01 0.00000E+00
 -1      1386 6.84000E+01 4.87010E+01 0.00000E+00
 -1      1387 6.61500E+01 4.74020E+01 0.00000E+00
 -1      1388 6.99000E+01 4.87010E+01 0.00000E+00
 -1      1389 7.14000E+01 4.87010E+01 0.00000E+00
 -1      1390 6.91500E+01 4.74020E+01 0.00000E+00
 -1      1391 7.29000E+01 4.87010E+01 0.00000E+00
 -1      1392 7.44000E+01 4.87010E+01 0.00000E+00
 -1      1393 7.21500E+01 4.74020E+01 0.00000E+00
 -1      1394 7.59000E+01 4.87010E+01 0.00000E+00
 -1      1395 7.74000E+01 4.87010E+01 0.00000E+00
 -1      1396 7.51500E+01 4.74020E+01 0.00000E+00
 -1      1397 7.89000E+01 4.87010E+01 0.00000E+00
 -1      1398 8.04000E+01 4.87010E+01 0.00000E+00
 -1      1399 7.81500E+01 4.74020E+01 0.00000E+00
 -1      1400 8.19000E+01 4.87010E+01 0.00000E+00
 -1      1401 8.34000E+01 4.87010E+01 0.00000E+00
 -1      1402 8.11500E+01 4.74020E+01 0.00000E+00
 -1      1403 8.49000E+01 4.87010E+01 0.00000E+00
 -1      1404 8.64000E+01 4.87010E+01 0.00000E+00
 -1      1405 8.41500E+01 4.74020E+01 0.00000E+00
 -1      1406 8.79000E+01 4.87010E+01 0.00000E+00
 -1      1407 8.94000E+01 4.87010E+01 0.00000E+00
 -1      1408 8.71500E+01 4.74020E+01 0.00000E+00
 -1      1409 9.09000E+01 4.87010E+01 0.00000E+00
 -1      1410 9.24000E+01 4.87010E+01 0.00000E+00
 -1      1411 9.01500E+01 4.74020E+01 0.00000E+00
 -1      1412 9.39000E+01 4.87010E+01 0.00000E+00
 -1      1413 9.54000E+01 4.87010E+01 0.00000E+00
 -1      1414 9.31500E+01 4.74020E+01 0.00000E+00
 -1      1415 9.69000E+01 4.87010E+01 0.00000E+00
 -1      1416 9.84000E+01 4.87010E+01 0.00000E+00
 -1      1417 9.61500E+01 4.74020E+01 0.00000E+00
 -1      1418 9.99000E+01 4.87010E+01 0.00000E+00
 -1      1419 1.01400E+02 4.87010E+01 0.00000E+00
 -1      1420 9.91500E+01 4.74020E+01 0.00000E+00
 -1      1421 1.02900E+02 4.87010E+01 0.00000E+00
 -1      1422 1.04400E+02 4.87010E+01 0.00000E+00
 -1      1423 1.02150E+02 4.74020E+01 0.00000E+00
 -1      1424 1.05900E+02 4.87010E+01 0.00000E+00
 -1      1425 1.07400E+02 4.87010E+01 0.00000E+00
 -1      1426 1.05150E+02 4.74020E+01 0.00000E+00
 -1      1427 1.08900E+02 4.87010E+01 0.00000E+00
 -1      1428 1.10400E+02 4.87010E+01 0.00000E+00
 -1      1429 1.08150E+02 4.74020E+01 0.00000E+00
 -1      1430 1.11900E+02 4.87010E+01 0.00000E+00
 -1      1431 1.13400E+02 4.87010E+01 0.00000E+00
 -1      1432 1.11150E+02 4.74020E+01 0.00000E+00
 -1      1433 1.14900E+02 4.87010E+01 0.00000E+00
 -1      1434 1.16400E+02 4.87010E+01 0.00000E+00
 -1      1435 1.14150E+02 4.74020E+01 0.00000E+00
 -1      1436 1.17900E+02 4.87010E+01 0.00000E+00
 -1      1437 1.19400E+02 4.87010E+01 0.00000E+00
 -1      1438 1.17150E+02 4.74020E+01 0.00000E+00
 -1      1439 1.20900E+02 4.87010E+01 0.00000E+00
 -1      1440 1.22400E+02 4.87010E+01 0.00000E+00
 -1      1441 1.20150E+02 4.74020E+01 0.00000E+00
 -1      1442 1.23900E+02 4.87010E+01 0.00000E+00
 -1      1443 1.25400E+02 4.87010E+01 0.00000E+00
 -1      1444 1.23150E+02 4.74020E+01 0.00000E+00
 -1      1445 1.26900E+02 4.87010E+01 0.00000E+00
 -1      1446 1.28400E+02 4.87010E+01 0.00000E+00
 -1      1447 1.26150E+02 4.74020E+01 0.00000E+00
 -1      1448 1.29900E+02 4.87010E+01 0.00000E+00
 -1      1449 1.31400E+02 4.87010E+01 0.00000E+00
 -1      1450 1.29150E+02 4.74020E+01 0.00000E+00
 -1      1451 1.32900E+02 4.87010E+01 0.00000E+00
 -1      1452 1.34400E+02 4.87010E+01 0.00000E+00
 -1      1453 1.32150E+02 4.74020E+01 0.00000E+00
 -1      1454 1.35900E+02 4.87010E+01 0.00000E+00
 -1      1455 1.37400E+02 4.87010E+01 0.00000E+00
 -1      1456 1.35150E+02 4.74020E+01 0.00000E+00
 -1      1457 1.38900E+02 4.87010E+01 0.00000E+00
 -1      1458 1.40400E+02 4.87010E+01 0.00000E+00
 -1      1459 1.38150E+02 4.74020E+01 0.00000E+00
 -1      1460 1.41900E+02 4.87010E+01 0.00000E+00
 -1      1461 1.43400E+02 4.87010E+01 0.00000E+00
 -1      1462 1.41150E+02 4.74020E+01 0.00000E+00
 -1      1463 1.44900E+02 4.87010E+01 0.00000E+00
 -1      1464 1.46400E+02 4.87010E+01 0.00000E+00
 -1      1465 1.44150E+02 4.74020E+01 0.00000E+00
 -1      1466 1.48575E+02 4.85500E+01 0.00000E+00
 -1      1467 1.47825E+02 4.72510E+01 0.00000E+00
 -1      1468 5.25000E+00 1.29900E+00 0.00000E+00
 -1      1469 3.75000E+00 1.29900E+00 0.00000E+00
 -1      1470 8.25000E+00 1.29900E+00 0.00000E+00
 -1      1471 6.75000E+00 1.29900E+00 0.00000E+00
 -1      1472 6.00000E+00 2.59800E+00 0.00000E+00
 -1      1473 1.12500E+01 1.29900E+00 0.00000E+00
 -1      1474 9.75000E+00 1.29900E+00 0.00000E+00
 -1      1475 9.00000E+00 2.59800E+00 0.00000E+00
 -1      1476 1.42500E+01 1.29900E+00 0.00000E+00
 -1      1477 1.27500E+01 1.29900E+00 0.00000E+00
 -1      1478 1.20000E+01 2.59800E+00 0.00000E+00
 -1      1479 1.71000E+01 1.29900E+00 0.00000E+00
 -1      1480 1.56750E+01 1.29900E+00 0.00000E+00
 -1      1481 1.49250E+01 2.59800E+00 0.00000E+00
 -1      1482 2.01000E+01 1.29900E+00 0.00000E+00
 -1      1483 1.86000E+01 1.29900E+00 0.00000E+00
 -1      1484 1.78500E+01 2.59800E+00 0.00000E+00
 -1      1485 2.31000E+01 1.29900E+00 0.00000E+00
 -1      1486 2.16000E+01 1.29900E+00 0.00000E+00
 -1      1487 2.08500E+01 2.59800E+00 0.00000E+00
 -1      1488 2.61000E+01 1.29900E+00 0.00000E+00
 -1      1489 2.46000E+01 1.29900E+00 0.00000E+00
 -1      1490 2.38500E+01 2.59800E+00 0.00000E+00
 -1      1491 2.91000E+01 1.29900E+00 0.00000E+00
 -1      1492 2.76000E+01 1.29900E+00 0.00000E+00
 -1      1493 2.68500E+01 2.59800E+00 0.00000E+00
 -1      1494 3.21000E+01 1.29900E+00 0.00000E+00
 -1      1495 3.06000E+01 1.29900E+00 0.00000E+00
 -1      1496 2.98500E+01 2.59800E+00 0.00000E+00
 -1      1497 3.49500E+01 1.29900E+00 0.00000E+00
 -1      1498 3.35250E+01 1.29900E+00 0.00000E+00
 -1      1499 3.27750E+01 2.59800E+00 0.00000E+00
 -1      1500 3.79500E+01 1.29900E+00 0.00000E+00
 -1      1501 3.64500E+01 1.29900E+00 0.00000E+00
 -1      1502 3.57000E+01 2.59800E+00 0.00000E+00
 -1      1503 4.09500E+01 1.29900E+00 0.00000E+00
 -1      1504 3.94500E+01 1.29900E+00 0.00000E+00
 -1      1505 3.87000E+01 2.59800E+00 0.00000E+00
 -1      1506 4.39500E+01 1.29900E+00 0.00000E+00
 -1      1507 4.24500E+01 1.29900E+00 0.00000E+00
 -1      1508 4.17000E+01 2.59800E+00 0.00000E+00
 -1      1509 4.69500E+01 1.29900E+00 0.00000E+00
 -1      1510 4.54500E+01 1.29900E+00 0.00000E+00
 -1      1511 4.47000E+01 2.59800E+00 0.00000E+00
 -1      1512 4.99500E+01 1.29900E+00 0.00000E+00
 -1      1513 4.84500E+01 1.29900E+00 0.00000E+00
 -1      1514 4.77000E+01 2.59800E+00 0.00000E+00
 -1      1515 5.28000E+01 1.29900E+00 0.00000E+00
 -1      1516 5.13750E+01 1.29900E+00 0.00000E+00
 -1      1517 5.06250E+01 2.59800E+00 0.00000E+00
 -1      1518 5.53500E+01 1.29900E+00 0.00000E+00
 -1      1519 5.40750E+01 1.29900E+00 0.00000E+00
 -1      1520 5.33250E+01 2.59800E+00 0.00000E+00
 -1      1521 5.83500E+01 1.29900E+00 0.00000E+00
 -1      1522 5.68500E+01 1.29900E+00 0.00000E+00
 -1      1523 5.61000E+01 2.59800E+00 0.00000E+00
 -1      1524 6.12000E+01 1.29900E+00 0.00000E+00
 -1      1525 5.97750E+01 1.29900E+00 0.00000E+00
 -1      1526 5.90250E+01 2.59800E+00 0.00000E+00
 -1      1527 6.37500E+01 1.29900E+00 0.00000E+00
 -1      1528 6.24750E+01 1.29900E+00 0.00000E+00
 -1      1529 6.17250E+01 2.59800E+00 0.00000E+00
 -1      1530 6.64500E+01 1.29900E+00 0.00000E+00
 -1      1531 6.51000E+01 1.29900E+00 0.00000E+00
 -1      1532 6.43500E+01 2.59800E+00 0.00000E+00
 -1      1533 6.91500E+01 1.29900E+00 0.00000E+00
 -1      1534 6.78000E+01 1.29900E+00 0.00000E+00
 -1      1535 6.70500E+01 2.59800E+00 0.00000E+00
 -1      1536 7.20000E+01 1.29900E+00 0.00000E+00
 -1      1537 7.05750E+01 1.29900E+00 0.00000E+00
 -1      1538 6.98250E+01 2.59800E+00 0.00000E+00
 -1      1539 7.50000E+01 1.29900E+00 0.00000E+00
 -1      1540 7.35000E+01 1.29900E+00 0.00000E+00
 -1      1541 7.27500E+01 2.59800E+00 0.00000E+00
 -1      1542 7.80000E+01 1.29900E+00 0.00000E+00
 -1      1543 7.65000E+01 1.29900E+00 0.00000E+00
 -1      1544 7.57500E+01 2.59800E+00 0.00000E+00
 -1      1545 8.08500E+01 1.29900E+00 0.00000E+00
 -1      1546 7.94250E+01 1.29900E+00 0.00000E+00
 -1      1547 7.86750E+01 2.59800E+00 0.00000E+00
 -1      1548 8.38500E+01 1.29900E+00 0.00000E+00
 -1      1549 8.23500E+01 1.29900E+00 0.00000E+00
 -1      1550 8.16000E+01 2.59800E+00 0.00000E+00
 -1      1551 8.68500E+01 1.29900E+00 0.00000E+00
 -1      1552 8.53500E+01 1.29900E+00 0.00000E+00
 -1      1553 8.46000E+01 2.59800E+00 0.00000E+00
 -1      1554 8.98500E+01 1.29900E+00 0.00000E+00
 -1      1555 8.83500E+01 1.29900E+00 0.00000E+00
 -1      1556 8.76000E+01 2.59800E+00 0.00000E+00
 -1      1557 9.28500E+01 1.29900E+00 0.00000E+00
 -1      1558 9.13500E+01 1.29900E+00 0.00000E+00
 -1      1559 9.06000E+01 2.59800E+00 0.00000E+00
 -1      1560 9.58500E+01 1.29900E+00 0.00000E+00
 -1      1561 9.43500E+01 1.29900E+00 0.00000E+00
 -1      1562 9.36000E+01 2.59800E+00 0.00000E+00
 -1      1563 9.87000E+01 1.29900E+00 0.00000E+00
 -1      1564 9.72750E+01 1.29900E+00 0.00000E+00
 -1      1565 9.65250E+01 2.59800E+00 0.00000E+00
 -1      1566 1.01700E+02 1.29900E+00 0.00000E+00
 -1      1567 1.00200E+02 1.29900E+00 0.00000E+00
 -1      1568 9.94500E+01 2.59800E+00 0.00000E+00
 -1      1569 1.04700E+02 1.29900E+00 0.00000E+00
 -1      1570 1.03200E+02 1.29900E+00 0.00000E+00
 -1      1571 1.02450E+02 2.59800E+00 0.00000E+00
 -1      1572 1.07700E+02 1.29900E+00 0.00000E+00
 -1      1573 1.06200E+02 1.29900E+00 0.00000E+00
 -1      1574 1.05450E+02 2.59800E+00 0.00000E+00
 -1      1575 1.10700E+02 1.29900E+00 0.00000E+00
 -1      1576 1.09200E+02 1.29900E+00 0.00000E+00
 -1      1577 1.08450E+02 2.59800E+00 0.00000E+00
 -1      1578 1.13700E+02 1.29900E+00 0.00000E+00
 -1      1579 1.12200E+02 1.29900E+00 0.00000E+00
 -1      1580 1.11450E+02 2.59800E+00 0.00000E+00
 -1      1581 1.16550E+02 1.29900E+00 0.00000E+00
 -1      1582 1.15125E+02 1.29900E+00 0.00000E+00
 -1      1583 1.14375E+02 2.59800E+00 0.00000E+00
 -1      1584 1.19550E+02 1.29900E+00 0.00000E+00
 -1      1585 1.18050E+02 1.29900E+00 0.00000E+00
 -1      1586 1.17300E+02 2.59800E+00 0.00000E+00
 -1      1587 1.22550E+02 1.29900E+00 0.00000E+00
 -1      1588 1.21050E+02 1.29900E+00 0.00000E+00
 -1      1589 1.20300E+02 2.59800E+00 0.00000E+00
 -1      1590 1.25550E+02 1.29900E+00 0.00000E+00
 -1      1591 1.24050E+02 1.29900E+00 0.00000E+00
 -1      1592 1.23300E+02 2.59800E+00 0.00000E+00
 -1      1593 1.28550E+02 1.29900E+00 0.00000E+00
 -1      1594 1.27050E+02 1.29900E+00 0.00000E+00
 -1      1595 1.26300E+02 2.59800E+00 0.00000E+00
 -1      1596 1.31550E+02 1.29900E+00 0.00000E+00
 -1      1597 1.30050E+02 1.29900E+00 0.00000E+00
 -1      1598 1.29300E+02 2.59800E+00 0.00000E+00
 -1      1599 1.34400E+02 1.29900E+00 0.00000E+00
 -1      1600 1.32975E+02 1.29900E+00 0.00000E+00
 -1      1601 1.32225E+02 2.59800E+00 0.00000E+00
 -1      1602 1.37400E+02 1.29900E+00 0.00000E+00
 -1      1603 1.35900E+02 1.29900E+00 0.00000E+00
 -1      1604 1.35150E+02 2.59800E+00 0.00000E+00
 -1      1605 1.40400E+02 1.29900E+00 0.00000E+00
 -1      1606 1.38900E+02 1.29900E+00 0.00000E+00
 -1      1607 1.38150E+02 2.59800E+00 0.00000E+00
 -1      1608 1.43400E+02 1.29900E+00 0.00000E+00
 -1      1609 1.41900E+02 1.29900E+00 0.00000E+00
 -1      1610 1.41150E+02 2.59800E+00 0.00000E+00
 -1      1611 1.46400E+02 1.29900E+00 0.00000E+00
 -1      1612 1.44900E+02 1.29900E+00 0.00000E+00
 -1      1613 1.44150E+02 2.59800E+00 0.00000E+00
 -1      1614 1.48575E+02 1.47500E+00 0.00000E+00
 -1      1615 1.48701E+02 5.16250E+00 0.00000E+00
 -1      1616 1.48701E+02 3.68750E+00 0.00000E+00
 -1      1617 1.48701E+02 8.11250E+00 0.00000E+00
 -1      1618 1.48701E+02 6.63750E+00 0.00000E+00
 -1      1619 1.47402E+02 5.90000E+00 0.00000E+00
 -1      1620 1.48701E+02 1.10625E+01 0.00000E+00
 -1      1621 1.48701E+02 9.58750E+00 0.00000E+00
 -1      1622 1.47402E+02 8.85000E+00 0.00000E+00
 -1      1623 1.48701E+02 1.40125E+01 0.00000E+00
 -1      1624 1.48701E+02 1.25375E+01 0.00000E+00
 -1      1625 1.47402E+02 1.18000E+01 0.00000E+00
 -1      1626 1.48701E+02 1.69125E+01 0.00000E+00
 -1      1627 1.48701E+02 1.54625E+01 0.00000E+00
 -1      1628 1.47402E+02 1.47250E+01 0.00000E+00
 -1      1629 1.48701E+02 1.98625E+01 0.00000E+00
 -1      1630 1.48701E+02 1.83875E+01 0.00000E+00
 -1      1631 1.47402E+02 1.76500E+01 0.00000E+00
 -1      1632 1.48701E+02 2.28125E+01 0.00000E+00
 -1      1633 1.48701E+02 2.13375E+01 0.00000E+00
 -1      1634 1.47402E+02 2.06000E+01 0.00000E+00
 -1      1635 1.48701E+02 2.57625E+01 0.00000E+00
 -1      1636 1.48701E+02 2.42875E+01 0.00000E+00
 -1      1637 1.47402E+02 2.35500E+01 0.00000E+00
 -1      1638 1.48701E+02 2.87125E+01 0.00000E+00
 -1      1639 1.48701E+02 2.72375E+01 0.00000E+00
 -1      1640 1.47402E+02 2.65000E+01 0.00000E+00
 -1      1641 1.48701E+02 3.16625E+01 0.00000E+00
 -1      1642 1.48701E+02 3.01875E+01 0.00000E+00
 -1      1643 1.47402E+02 2.94500E+01 0.00000E+00
 -1      1644 1.48701E+02 3.45625E+01 0.00000E+00
 -1      1645 1.48701E+02 3.31125E+01 0.00000E+00
 -1      1646 1.47402E+02 3.23750E+01 0.00000E+00
 -1      1647 1.48701E+02 3.75125E+01 0.00000E+00
 -1      1648 1.48701E+02 3.60375E+01 0.00000E+00
 -1      1649 1.47402E+02 3.53000E+01 0.00000E+00
 -1      1650 1.48701E+02 4.04625E+01 0.00000E+00
 -1      1651 1.48701E+02 3.89875E+01 0.00000E+00
 -1      1652 1.47402E+02 3.82500E+01 0.00000E+00
 -1      1653 1.48701E+02 4.34125E+01 0.00000E+00
 -1      1654 1.48701E+02 4.19375E+01 0.00000E+00
 -1      1655 1.47402E+02 4.12000E+01 0.00000E+00
 -1      1656 1.48263E+02 4.60692E+01 0.00000E+00
 -1      1657 1.48263E+02 4.45942E+01 0.00000E+00
 -1      1658 1.46964E+02 4.38568E+01 0.00000E+00
 -1      1659 1.46088E+02 4.62202E+01 0.00000E+00
 -1      1660 6.90067E+01 1.36091E+01 0.00000E+00
 -1      1661 6.90931E+01 1.43823E+01 0.00000E+00
 -1      1662 6.85467E+01 1.20700E+01 0.00000E+00
 -1      1663 6.87767E+01 1.27512E+01 0.00000E+00
 -1      1664 6.78095E+01 1.05810E+01 0.00000E+00
 -1      1665 6.82095E+01 1.12483E+01 0.00000E+00
 -1      1666 6.67455E+01 9.42246E+00 0.00000E+00
 -1      1667 6.72223E+01 9.93300E+00 0.00000E+00
 -1      1668 6.54970E+01 8.34591E+00 0.00000E+00
 -1      1669 6.61377E+01 8.79167E+00 0.00000E+00
 -1      1670 6.40121E+01 7.71431E+00 0.00000E+00
 -1      1671 6.46804E+01 7.99100E+00 0.00000E+00
 -1      1672 6.24182E+01 7.25055E+00 0.00000E+00
 -1      1673 6.31847E+01 7.38812E+00 0.00000E+00
 -1      1674 6.07511E+01 7.17714E+00 0.00000E+00
 -1      1675 6.15053E+01 7.14548E+00 0.00000E+00
 -1      1676 5.91772E+01 7.57430E+00 0.00000E+00
 -1      1677 5.98865E+01 7.38946E+00 0.00000E+00
 -1      1678 5.76647E+01 8.18836E+00 0.00000E+00
 -1      1679 5.83381E+01 7.84813E+00 0.00000E+00
 -1      1680 5.64113E+01 9.12877E+00 0.00000E+00
 -1      1681 5.69594E+01 8.68886E+00 0.00000E+00
 -1      1682 5.52600E+01 1.02661E+01 0.00000E+00
 -1      1683 5.57378E+01 9.68242E+00 0.00000E+00
 -1      1684 5.44612E+01 1.17146E+01 0.00000E+00
 -1      1685 5.48021E+01 1.10441E+01 0.00000E+00
 -1      1686 5.40415E+01 1.32586E+01 0.00000E+00
 -1      1687 5.42271E+01 1.25578E+01 0.00000E+00
 -1      1688 5.38756E+01 1.48606E+01 0.00000E+00
 -1      1689 5.39113E+01 1.41104E+01 0.00000E+00
 -1      1690 5.40085E+01 1.64711E+01 0.00000E+00
 -1      1691 5.38855E+01 1.57382E+01 0.00000E+00
 -1      1692 5.45165E+01 1.80893E+01 0.00000E+00
 -1      1693 5.42188E+01 1.73564E+01 0.00000E+00
 -1      1694 5.53910E+01 1.93988E+01 0.00000E+00
 -1      1695 5.49995E+01 1.88247E+01 0.00000E+00
 -1      1696 5.64455E+01 2.07455E+01 0.00000E+00
 -1      1697 5.58530E+01 2.01866E+01 0.00000E+00
 -1      1698 5.78493E+01 2.15153E+01 0.00000E+00
 -1      1699 5.72569E+01 2.11596E+01 0.00000E+00
 -1      1700 5.92187E+01 2.20900E+01 0.00000E+00
 -1      1701 5.85750E+01 2.18594E+01 0.00000E+00
 -1      1702 6.06601E+01 2.23852E+01 0.00000E+00
 -1      1703 5.99900E+01 2.22844E+01 0.00000E+00
 -1      1704 6.22105E+01 2.24264E+01 0.00000E+00
 -1      1705 6.14828E+01 2.24643E+01 0.00000E+00
 -1      1706 6.37219E+01 2.20758E+01 0.00000E+00
 -1      1707 6.30373E+01 2.22562E+01 0.00000E+00
 -1      1708 6.52018E+01 2.15246E+01 0.00000E+00
 -1      1709 6.45462E+01 2.18526E+01 0.00000E+00
 -1      1710 6.64111E+01 2.05769E+01 0.00000E+00
 -1      1711 6.58679E+01 2.10053E+01 0.00000E+00
 -1      1712 6.74922E+01 1.94895E+01 0.00000E+00
 -1      1713 6.70322E+01 2.00333E+01 0.00000E+00
 -1      1714 6.83046E+01 1.81765E+01 0.00000E+00
 -1      1715 6.79658E+01 1.87982E+01 0.00000E+00
 -1      1716 6.87904E+01 1.67374E+01 0.00000E+00
 -1      1717 6.85863E+01 1.74015E+01 0.00000E+00
 -1      1718 6.90194E+01 1.52512E+01 0.00000E+00
 -1      1719 6.89506E+01 1.59420E+01 0.00000E+00
 -1      1720 2.79900E+00 2.18750E+00 0.00000E+00
 -1      1721 6.80141E+01 9.91195E+00 0.00000E+00
 -1      1722 1.47825E+02 2.77400E+00 0.00000E+00
 -1      1723 6.95057E+01 1.30611E+01 0.00000E+00
 -1      1724 6.89385E+01 1.13816E+01 0.00000E+00
 -1      1725 6.96619E+01 1.47879E+01 0.00000E+00
 -1      1726 6.68192E+01 8.63317E+00 0.00000E+00
 -1      1727 6.53948E+01 7.64748E+00 0.00000E+00
 -1      1728 6.37508E+01 6.96639E+00 0.00000E+00
 -1      1729 6.20104E+01 6.53514E+00 0.00000E+00
 -1      1730 6.02330E+01 6.64240E+00 0.00000E+00
 -1      1731 5.85293E+01 7.12856E+00 0.00000E+00
 -1      1732 5.69849E+01 7.90290E+00 0.00000E+00
 -1      1733 5.56061E+01 8.95705E+00 0.00000E+00
 -1      1734 5.44745E+01 1.02887E+01 0.00000E+00
 -1      1735 5.37824E+01 1.19098E+01 0.00000E+00
 -1      1736 5.34181E+01 1.36048E+01 0.00000E+00
 -1      1737 5.32979E+01 1.53343E+01 0.00000E+00
 -1      1738 5.35181E+01 1.70972E+01 0.00000E+00
 -1      1739 5.42114E+01 1.87179E+01 0.00000E+00
 -1      1740 5.51564E+01 2.02411E+01 0.00000E+00
 -1      1741 5.64297E+01 2.14431E+01 0.00000E+00
 -1      1742 5.79667E+01 2.22013E+01 0.00000E+00
 -1      1743 5.94637E+01 2.27398E+01 0.00000E+00
 -1      1744 6.10576E+01 2.30134E+01 0.00000E+00
 -1      1745 6.27072E+01 2.29224E+01 0.00000E+00
 -1      1746 6.43584E+01 2.25289E+01 0.00000E+00
 -1      1747 6.58488E+01 2.17864E+01 0.00000E+00
 -1      1748 6.71359E+01 2.07235E+01 0.00000E+00
 -1      1749 6.82306E+01 1.94887E+01 0.00000E+00
 -1      1750 6.89861E+01 1.80225E+01 0.00000E+00
 -1      1751 6.94280E+01 1.64521E+01 0.00000E+00
 -1      1752 2.87400E+00 4.77875E+01 0.00000E+00
 -1      1753 3.89700E+00 4.04125E+01 0.00000E+00
 -1      1754 3.89700E+00 4.18875E+01 0.00000E+00
 -1      1755 3.89700E+00 4.33625E+01 0.00000E+00
 -1      1756 3.89700E+00 4.48375E+01 0.00000E+00
 -1      1757 5.19600E+00 4.26250E+01 0.00000E+00
 -1      1758 3.89700E+00 3.45500E+01 0.00000E+00
 -1      1759 3.89700E+00 3.60000E+01 0.00000E+00
 -1      1760 3.89700E+00 3.16000E+01 0.00000E+00
 -1      1761 3.89700E+00 3.30750E+01 0.00000E+00
 -1      1762 5.19600E+00 3.38000E+01 0.00000E+00
 -1      1763 3.89700E+00 2.86500E+01 0.00000E+00
 -1      1764 3.89700E+00 3.01250E+01 0.00000E+00
 -1      1765 5.19600E+00 3.08500E+01 0.00000E+00
 -1      1766 3.89700E+00 2.57000E+01 0.00000E+00
 -1      1767 3.89700E+00 2.71750E+01 0.00000E+00
 -1      1768 5.19600E+00 2.79000E+01 0.00000E+00
 -1      1769 3.89700E+00 2.27500E+01 0.00000E+00
 -1      1770 3.89700E+00 2.42250E+01 0.00000E+00
 -1      1771 5.19600E+00 2.49500E+01 0.00000E+00
 -1      1772 3.89700E+00 1.98000E+01 0.00000E+00
 -1      1773 3.89700E+00 2.12750E+01 0.00000E+00
 -1      1774 5.19600E+00 2.20000E+01 0.00000E+00
 -1      1775 3.89700E+00 1.69000E+01 0.00000E+00
 -1      1776 3.89700E+00 1.83500E+01 0.00000E+00
 -1      1777 5.19600E+00 1.90750E+01 0.00000E+00
 -1      1778 3.89700E+00 1.39500E+01 0.00000E+00
 -1      1779 3.89700E+00 1.54250E+01 0.00000E+00
 -1      1780 5.19600E+00 1.61500E+01 0.00000E+00
 -1      1781 3.89700E+00 1.10000E+01 0.00000E+00
 -1      1782 3.89700E+00 1.24750E+01 0.00000E+00
 -1      1783 5.19600E+00 1.32000E+01 0.00000E+00
 -1      1784 3.89700E+00 8.05000E+00 0.00000E+00
 -1      1785 3.89700E+00 9.52500E+00 0.00000E+00
 -1      1786 5.19600E+00 1.02500E+01 0.00000E+00
 -1      1787 3.89700E+00 5.10000E+00 0.00000E+00
 -1      1788 3.89700E+00 6.57500E+00 0.00000E+00
 -1      1789 5.19600E+00 7.30000E+00 0.00000E+00
 -1      1790 6.82939E+01 9.06838E+00 0.00000E+00
 -1      1791 6.88811E+01 9.71637E+00 0.00000E+00
 -1      1792 3.62400E+00 4.64885E+01 0.00000E+00
 -1      1793 3.54900E+00 3.48650E+00 0.00000E+00
 -1      1794 8.40000E+00 4.61030E+01 0.00000E+00
 -1      1795 9.90000E+00 4.61030E+01 0.00000E+00
 -1      1796 1.14000E+01 4.61030E+01 0.00000E+00
 -1      1797 1.29000E+01 4.61030E+01 0.00000E+00
 -1      1798 1.06500E+01 4.48040E+01 0.00000E+00
 -1      1799 1.44000E+01 4.61030E+01 0.00000E+00
 -1      1800 1.59000E+01 4.61030E+01 0.00000E+00
 -1      1801 1.36500E+01 4.48040E+01 0.00000E+00
 -1      1802 1.74000E+01 4.61030E+01 0.00000E+00
 -1      1803 1.89000E+01 4.61030E+01 0.00000E+00
 -1      1804 1.66500E+01 4.48040E+01 0.00000E+00
 -1      1805 2.04000E+01 4.61030E+01 0.00000E+00
 -1      1806 2.19000E+01 4.61030E+01 0.00000E+00
 -1      1807 1.96500E+01 4.48040E+01 0.00000E+00
 -1      1808 2.34000E+01 4.61030E+01 0.00000E+00
 -1      1809 2.49000E+01 4.61030E+01 0.00000E+00
 -1      1810 2.26500E+01 4.48040E+01 0.00000E+00
 -1      1811 2.64000E+01 4.61030E+01 0.00000E+00
 -1      1812 2.79000E+01 4.61030E+01 0.00000E+00
 -1      1813 2.56500E+01 4.48040E+01 0.00000E+00
 -1      1814 2.94000E+01 4.61030E+01 0.00000E+00
 -1      1815 3.09000E+01 4.61030E+01 0.00000E+00
 -1      1816 2.86500E+01 4.48040E+01 0.00000E+00
 -1      1817 3.24000E+01 4.61030E+01 0.00000E+00
 -1      1818 3.39000E+01 4.61030E+01 0.00000E+00
 -1      1819 3.16500E+01 4.48040E+01 0.00000E+00
 -1      1820 3.54000E+01 4.61030E+01 0.00000E+00
 -1      1821 3.69000E+01 4.61030E+01 0.00000E+00
 -1      1822 3.46500E+01 4.48040E+01 0.00000E+00
 -1      1823 3.84000E+01 4.61030E+01 0.00000E+00
 -1      1824 3.99000E+01 4.61030E+01 0.00000E+00
 -1      1825 3.76500E+01 4.48040E+01 0.00000E+00
 -1      1826 4.14000E+01 4.61030E+01 0.00000E+00
 -1      1827 4.29000E+01 4.61030E+01 0.00000E+00
 -1      1828 4.06500E+01 4.48040E+01 0.00000E+00
 -1      1829 4.44000E+01 4.61030E+01 0.00000E+00
 -1      1830 4.59000E+01 4.61030E+01 0.00000E+00
 -1      1831 4.36500E+01 4.48040E+01 0.00000E+00
 -1      1832 4.74000E+01 4.61030E+01 0.00000E+00
 -1      1833 4.89000E+01 4.61030E+01 0.00000E+00
 -1      1834 4.66500E+01 4.48040E+01 0.00000E+00
 -1      1835 5.04000E+01 4.61030E+01 0.00000E+00
 -1      1836 5.19000E+01 4.61030E+01 0.00000E+00
 -1      1837 4.96500E+01 4.48040E+01 0.00000E+00
 -1      1838 5.34000E+01 4.61030E+01 0.00000E+00
 -1      1839 5.49000E+01 4.61030E+01 0.00000E+00
 -1      1840 5.26500E+01 4.48040E+01 0.00000E+00
 -1      1841 5.64000E+01 4.61030E+01 0.00000E+00
 -1      1842 5.79000E+01 4.61030E+01 0.00000E+00
 -1      1843 5.56500E+01 4.48040E+01 0.00000E+00
 -1      1844 5.94000E+01 4.61030E+01 0.00000E+00
 -1      1845 6.09000E+01 4.61030E+01 0.00000E+00
 -1      1846 5.86500E+01 4.48040E+01 0.00000E+00
 -1      1847 6.24000E+01 4.61030E+01 0.00000E+00
 -1      1848 6.39000E+01 4.61030E+01 0.00000E+00
 -1      1849 6.16500E+01 4.48040E+01 0.00000E+00
 -1      1850 6.54000E+01 4.61030E+01 0.00000E+00
 -1      1851 6.69000E+01 4.61030E+01 0.00000E+00
 -1      1852 6.46500E+01 4.48040E+01 0.00000E+00
 -1      1853 6.84000E+01 4.61030E+01 0.00000E+00
 -1      1854 6.99000E+01 4.61030E+01 0.00000E+00
 -1      1855 6.76500E+01 4.48040E+01 0.00000E+00
 -1      1856 7.14000E+01 4.61030E+01 0.00000E+00
 -1      1857 7.29000E+01 4.61030E+01 0.00000E+00
 -1      1858 7.06500E+01 4.48040E+01 0.00000E+00
 -1      1859 7.44000E+01 4.61030E+01 0.00000E+00
 -1      1860 7.59000E+01 4.61030E+01 0.00000E+00
 -1      1861 7.36500E+01 4.48040E+01 0.00000E+00
 -1      1862 7.74000E+01 4.61030E+01 0.00000E+00
 -1      1863 7.89000E+01 4.61030E+01 0.00000E+00
 -1      1864 7.66500E+01 4.48040E+01 0.00000E+00
 -1      1865 8.04000E+01 4.61030E+01 0.00000E+00
 -1      1866 8.19000E+01 4.61030E+01 0.00000E+00
 -1      1867 7.96500E+01 4.48040E+01 0.00000E+00
 -1      1868 8.34000E+01 4.61030E+01 0.00000E+00
 -1      1869 8.49000E+01 4.61030E+01 0.00000E+00
 -1      1870 8.26500E+01 4.48040E+01 0.00000E+00
 -1      1871 8.64000E+01 4.61030E+01 0.00000E+00
 -1      1872 8.79000E+01 4.61030E+01 0.00000E+00
 -1      1873 8.56500E+01 4.48040E+01 0.00000E+00
 -1      1874 8.94000E+01 4.61030E+01 0.00000E+00
 -1      1875 9.09000E+01 4.61030E+01 0.00000E+00
 -1      1876 8.86500E+01 4.48040E+01 0.00000E+00
 -1      1877 9.24000E+01 4.61030E+01 0.00000E+00
 -1      1878 9.39000E+01 4.61030E+01 0.00000E+00
 -1      1879 9.16500E+01 4.48040E+01 0.00000E+00
 -1      1880 9.54000E+01 4.61030E+01 0.00000E+00
 -1      1881 9.69000E+01 4.61030E+01 0.00000E+00
 -1      1882 9.46500E+01 4.48040E+01 0.00000E+00
 -1      1883 9.84000E+01 4.61030E+01 0.00000E+00
 -1      1884 9.99000E+01 4.61030E+01 0.00000E+00
 -1      1885 9.76500E+01 4.48040E+01 0.00000E+00
 -1      1886 1.01400E+02 4.61030E+01 0.00000E+00
 -1      1887 1.02900E+02 4.61030E+01 0.00000E+00
 -1      1888 1.00650E+02 4.48040E+01 0.00000E+00
 -1      1889 1.04400E+02 4.61030E+01 0.00000E+00
 -1      1890 1.05900E+02 4.61030E+01 0.00000E+00
 -1      1891 1.03650E+02 4.48040E+01 0.00000E+00
 -1      1892 1.07400E+02 4.61030E+01 0.00000E+00
 -1      1893 1.08900E+02 4.61030E+01 0.00000E+00
 -1      1894 1.06650E+02 4.48040E+01 0.00000E+00
 -1      1895 1.10400E+02 4.61030E+01 0.00000E+00
 -1      1896 1.11900E+02 4.61030E+01 0.00000E+00
 -1      1897 1.09650E+02 4.48040E+01 0.00000E+00
 -1      1898 1.13400E+02 4.61030E+01 0.00000E+00
 -1      1899 1.14900E+02 4.61030E+01 0.00000E+00
 -1      1900 1.12650E+02 4.48040E+01 0.00000E+00
 -1      1901 1.16400E+02 4.61030E+01 0.00000E+00
 -1      1902 1.17900E+02 4.61030E+01 0.00000E+00
 -1      1903 1.15650E+02 4.48040E+01 0.00000E+00
 -1      1904 1.19400E+02 4.61030E+01 0.00000E+00
 -1      1905 1.20900E+02 4.61030E+01 0.00000E+00
 -1      1906 1.18650E+02 4.48040E+01 0.00000E+00
 -1      1907 1.22400E+02 4.61030E+01 0.00000E+00
 -1      1908 1.23900E+02 4.61030E+01 0.00000E+00
 -1      1909 1.21650E+02 4.48040E+01 0.00000E+00
 -1      1910 1.25400E+02 4.61030E+01 0.00000E+00
 -1      1911 1.26900E+02 4.61030E+01 0.00000E+00
 -1      1912 1.24650E+02 4.48040E+01 0.00000E+00
 -1      1913 1.28400E+02 4.61030E+01 0.00000E+00
 -1      1914 1.29900E+02 4.61030E+01 0.00000E+00
 -1      1915 1.27650E+02 4.48040E+01 0.00000E+00
 -1      1916 1.31400E+02 4.61030E+01 0.00000E+00
 -1      1917 1.32900E+02 4.61030E+01 0.00000E+00
 -1      1918 1.30650E+02 4.48040E+01 0.00000E+00
 -1      1919 1.34400E+02 4.61030E+01 0.00000E+00
 -1      1920 1.35900E+02 4.61030E+01 0.00000E+00
 -1      1921 1.33650E+02 4.48040E+01 0.00000E+00
 -1      1922 1.37400E+02 4.61030E+01 0.00000E+00
 -1      1923 1.38900E+02 4.61030E+01 0.00000E+00
 -1      1924 1.36650E+02 4.48040E+01 0.00000E+00
 -1      1925 1.40400E+02 4.61030E+01 0.00000E+00
 -1      1926 1.41900E+02 4.61030E+01 0.00000E+00
 -1      1927 1.39650E+02 4.48040E+01 0.00000E+00
 -1      1928 1.43244E+02 4.61616E+01 0.00000E+00
 -1      1929 1.44744E+02 4.61616E+01 0.00000E+00
 -1      1930 1.45182E+02 4.49799E+01 0.00000E+00
 -1      1931 1.42494E+02 4.48626E+01 0.00000E+00
 -1      1932 1.27500E+01 3.89700E+00 0.00000E+00
 -1      1933 1.12500E+01 3.89700E+00 0.00000E+00
 -1      1934 9.75000E+00 3.89700E+00 0.00000E+00
 -1      1935 8.25000E+00 3.89700E+00 0.00000E+00
 -1      1936 1.05000E+01 5.19600E+00 0.00000E+00
 -1      1937 1.56000E+01 3.89700E+00 0.00000E+00
 -1      1938 1.41750E+01 3.89700E+00 0.00000E+00
 -1      1939 1.34250E+01 5.19600E+00 0.00000E+00
 -1      1940 1.86000E+01 3.89700E+00 0.00000E+00
 -1      1941 1.71000E+01 3.89700E+00 0.00000E+00
 -1      1942 1.63500E+01 5.19600E+00 0.00000E+00
 -1      1943 2.16000E+01 3.89700E+00 0.00000E+00
 -1      1944 2.01000E+01 3.89700E+00 0.00000E+00
 -1      1945 1.93500E+01 5.19600E+00 0.00000E+00
 -1      1946 2.46000E+01 3.89700E+00 0.00000E+00
 -1      1947 2.31000E+01 3.89700E+00 0.00000E+00
 -1      1948 2.23500E+01 5.19600E+00 0.00000E+00
 -1      1949 2.76000E+01 3.89700E+00 0.00000E+00
 -1      1950 2.61000E+01 3.89700E+00 0.00000E+00
 -1      1951 2.53500E+01 5.19600E+00 0.00000E+00
 -1      1952 3.06000E+01 3.89700E+00 0.00000E+00
 -1      1953 2.91000E+01 3.89700E+00 0.00000E+00
 -1      1954 2.83500E+01 5.19600E+00 0.00000E+00
 -1      1955 3.34500E+01 3.89700E+00 0.00000E+00
 -1      1956 3.20250E+01 3.89700E+00 0.00000E+00
 -1      1957 3.12750E+01 5.19600E+00 0.00000E+00
 -1      1958 3.64500E+01 3.89700E+00 0.00000E+00
 -1      1959 3.49500E+01 3.89700E+00 0.00000E+00
 -1      1960 3.42000E+01 5.19600E+00 0.00000E+00
 -1      1961 3.94500E+01 3.89700E+00 0.00000E+00
 -1      1962 3.79500E+01 3.89700E+00 0.00000E+00
 -1      1963 3.72000E+01 5.19600E+00 0.00000E+00
 -1      1964 4.24500E+01 3.89700E+00 0.00000E+00
 -1      1965 4.09500E+01 3.89700E+00 0.00000E+00
 -1      1966 4.02000E+01 5.19600E+00 0.00000E+00
 -1      1967 4.54500E+01 3.89700E+00 0.00000E+00
 -1      1968 4.39500E+01 3.89700E+00 0.00000E+00
 -1      1969 4.32000E+01 5.19600E+00 0.00000E+00
 -1      1970 4.84500E+01 3.89700E+00 0.00000E+00
 -1      1971 4.69500E+01 3.89700E+00 0.00000E+00
 -1      1972 4.62000E+01 5.19600E+00 0.00000E+00
 -1      1973 5.13000E+01 3.89700E+00 0.00000E+00
 -1      1974 4.98750E+01 3.89700E+00 0.00000E+00
 -1      1975 4.91250E+01 5.19600E+00 0.00000E+00
 -1      1976 5.38500E+01 3.89700E+00 0.00000E+00
 -1      1977 5.25750E+01 3.89700E+00 0.00000E+00
 -1      1978 5.18250E+01 5.19600E+00 0.00000E+00
 -1      1979 5.97375E+01 3.70691E+00 0.00000E+00
 -1      1980 5.83125E+01 3.70691E+00 0.00000E+00
 -1      1981 6.50250E+01 3.62313E+00 0.00000E+00
 -1      1982 6.36750E+01 3.62313E+00 0.00000E+00
 -1      1983 6.77250E+01 3.62313E+00 0.00000E+00
 -1      1984 6.63750E+01 3.62313E+00 0.00000E+00
 -1      1985 7.05750E+01 3.62313E+00 0.00000E+00
 -1      1986 6.91500E+01 3.62313E+00 0.00000E+00
 -1      1987 6.84750E+01 4.64825E+00 0.00000E+00
 -1      1988 7.35750E+01 3.62313E+00 0.00000E+00
 -1      1989 7.20750E+01 3.62313E+00 0.00000E+00
 -1      1990 7.14000E+01 4.64825E+00 0.00000E+00
 -1      1991 7.65750E+01 3.62313E+00 0.00000E+00
 -1      1992 7.50750E+01 3.62313E+00 0.00000E+00
 -1      1993 7.44000E+01 4.64825E+00 0.00000E+00
 -1      1994 7.94250E+01 3.62313E+00 0.00000E+00
 -1      1995 7.80000E+01 3.62313E+00 0.00000E+00
 -1      1996 7.73250E+01 4.64825E+00 0.00000E+00
 -1      1997 8.24250E+01 3.62313E+00 0.00000E+00
 -1      1998 8.09250E+01 3.62313E+00 0.00000E+00
 -1      1999 8.02500E+01 4.64825E+00 0.00000E+00
 -1      2000 8.54250E+01 3.62313E+00 0.00000E+00
 -1      2001 8.39250E+01 3.62313E+00 0.00000E+00
 -1      2002 8.32500E+01 4.64825E+00 0.00000E+00
 -1      2003 8.84250E+01 3.62313E+00 0.00000E+00
 -1      2004 8.69250E+01 3.62313E+00 0.00000E+00
 -1      2005 8.62500E+01 4.64825E+00 0.00000E+00
 -1      2006 9.14250E+01 3.62313E+00 0.00000E+00
 -1      2007 8.99250E+01 3.62313E+00 0.00000E+00
 -1      2008 8.92500E+01 4.64825E+00 0.00000E+00
 -1      2009 9.44250E+01 3.62313E+00 0.00000E+00
 -1      2010 9.29250E+01 3.62313E+00 0.00000E+00
 -1      2011 9.22500E+01 4.64825E+00 0.00000E+00
 -1      2012 9.72750E+01 3.62313E+00 0.00000E+00
 -1      2013 9.58500E+01 3.62313E+00 0.00000E+00
 -1      2014 9.51750E+01 4.64825E+00 0.00000E+00
 -1      2015 1.00275E+02 3.62313E+00 0.00000E+00
 -1      2016 9.87750E+01 3.62313E+00 0.00000E+00
 -1      2017 9.81000E+01 4.64825E+00 0.00000E+00
 -1      2018 1.03275E+02 3.62313E+00 0.00000E+00
 -1      2019 1.01775E+02 3.62313E+00 0.00000E+00
 -1      2020 1.01100E+02 4.64825E+00 0.00000E+00
 -1      2021 1.06275E+02 3.62313E+00 0.00000E+00
 -1      2022 1.04775E+02 3.62313E+00 0.00000E+00
 -1      2023 1.04100E+02 4.64825E+00 0.00000E+00
 -1      2024 1.09275E+02 3.62313E+00 0.00000E+00
 -1      2025 1.07775E+02 3.62313E+00 0.00000E+00
 -1      2026 1.07100E+02 4.64825E+00 0.00000E+00
 -1      2027 1.12275E+02 3.62313E+00 0.00000E+00
 -1      2028 1.10775E+02 3.62313E+00 0.00000E+00
 -1      2029 1.10100E+02 4.64825E+00 0.00000E+00
 -1      2030 1.15125E+02 3.62313E+00 0.00000E+00
 -1      2031 1.13700E+02 3.62313E+00 0.00000E+00
 -1      2032 1.13025E+02 4.64825E+00 0.00000E+00
 -1      2033 1.18125E+02 3.62313E+00 0.00000E+00
 -1      2034 1.16625E+02 3.62313E+00 0.00000E+00
 -1      2035 1.15950E+02 4.64825E+00 0.00000E+00
 -1      2036 1.21125E+02 3.62313E+00 0.00000E+00
 -1      2037 1.19625E+02 3.62313E+00 0.00000E+00
 -1      2038 1.18950E+02 4.64825E+00 0.00000E+00
 -1      2039 1.24125E+02 3.62313E+00 0.00000E+00
 -1      2040 1.22625E+02 3.62313E+00 0.00000E+00
 -1      2041 1.21950E+02 4.64825E+00 0.00000E+00
 -1      2042 1.27125E+02 3.62313E+00 0.00000E+00
 -1      2043 1.25625E+02 3.62313E+00 0.00000E+00
 -1      2044 1.24950E+02 4.64825E+00 0.00000E+00
 -1      2045 1.30125E+02 3.62313E+00 0.00000E+00
 -1      2046 1.28625E+02 3.62313E+00 0.00000E+00
 -1      2047 1.27950E+02 4.64825E+00 0.00000E+00
 -1      2048 1.32975E+02 3.62313E+00 0.00000E+00
 -1      2049 1.31550E+02 3.62313E+00 0.00000E+00
 -1      2050 1.30875E+02 4.64825E+00 0.00000E+00
 -1      2051 1.35975E+02 3.62313E+00 0.00000E+00
 -1      2052 1.34475E+02 3.62313E+00 0.00000E+00
 -1      2053 1.33800E+02 4.64825E+00 0.00000E+00
 -1      2054 1.38975E+02 3.62313E+00 0.00000E+00
 -1      2055 1.37475E+02 3.62313E+00 0.00000E+00
 -1      2056 1.36800E+02 4.64825E+00 0.00000E+00
 -1      2057 1.41975E+02 3.62313E+00 0.00000E+00
 -1      2058 1.40475E+02 3.62313E+00 0.00000E+00
 -1      2059 1.39800E+02 4.64825E+00 0.00000E+00
 -1      2060 1.44975E+02 3.62313E+00 0.00000E+00
 -1      2061 1.43475E+02 3.62313E+00 0.00000E+00
 -1      2062 1.42800E+02 4.64825E+00 0.00000E+00
 -1      2063 7.01381E+01 1.24319E+01 0.00000E+00
 -1      2064 7.03680E+01 1.32897E+01 0.00000E+00
 -1      2065 1.46103E+02 1.25375E+01 0.00000E+00
 -1      2066 1.46103E+02 1.10625E+01 0.00000E+00
 -1      2067 1.46103E+02 9.58750E+00 0.00000E+00
 -1      2068 1.46103E+02 8.11250E+00 0.00000E+00
 -1      2069 1.44804E+02 1.03250E+01 0.00000E+00
 -1      2070 1.46526E+02 3.51150E+00 0.00000E+00
 -1      2071 1.46103E+02 1.54375E+01 0.00000E+00
 -1      2072 1.46103E+02 1.39875E+01 0.00000E+00
 -1      2073 1.44804E+02 1.32500E+01 0.00000E+00
 -1      2074 1.46103E+02 1.83875E+01 0.00000E+00
 -1      2075 1.46103E+02 1.69125E+01 0.00000E+00
 -1      2076 1.44804E+02 1.61750E+01 0.00000E+00
 -1      2077 1.46103E+02 2.13375E+01 0.00000E+00
 -1      2078 1.46103E+02 1.98625E+01 0.00000E+00
 -1      2079 1.44804E+02 1.91250E+01 0.00000E+00
 -1      2080 1.46103E+02 2.42875E+01 0.00000E+00
 -1      2081 1.46103E+02 2.28125E+01 0.00000E+00
 -1      2082 1.44804E+02 2.20750E+01 0.00000E+00
 -1      2083 1.46103E+02 2.72375E+01 0.00000E+00
 -1      2084 1.46103E+02 2.57625E+01 0.00000E+00
 -1      2085 1.44804E+02 2.50250E+01 0.00000E+00
 -1      2086 1.46103E+02 3.01875E+01 0.00000E+00
 -1      2087 1.46103E+02 2.87125E+01 0.00000E+00
 -1      2088 1.44804E+02 2.79750E+01 0.00000E+00
 -1      2089 1.46103E+02 3.30875E+01 0.00000E+00
 -1      2090 1.46103E+02 3.16375E+01 0.00000E+00
 -1      2091 1.44804E+02 3.09000E+01 0.00000E+00
 -1      2092 1.46103E+02 3.60375E+01 0.00000E+00
 -1      2093 1.46103E+02 3.45625E+01 0.00000E+00
 -1      2094 1.44804E+02 3.38250E+01 0.00000E+00
 -1      2095 1.46103E+02 3.89875E+01 0.00000E+00
 -1      2096 1.46103E+02 3.75125E+01 0.00000E+00
 -1      2097 1.44804E+02 3.67750E+01 0.00000E+00
 -1      2098 1.46103E+02 4.19375E+01 0.00000E+00
 -1      2099 1.46103E+02 4.04625E+01 0.00000E+00
 -1      2100 1.44804E+02 3.97250E+01 0.00000E+00
 -1      2101 6.94858E+01 1.06770E+01 0.00000E+00
 -1      2102 6.98230E+01 1.14986E+01 0.00000E+00
 -1      2103 7.03863E+01 1.44118E+01 0.00000E+00
 -1      2104 7.03126E+01 1.52806E+01 0.00000E+00
 -1      2105 3.89700E+00 3.74688E+01 0.00000E+00
 -1      2106 3.89700E+00 3.89437E+01 0.00000E+00
 -1      2107 5.19600E+00 3.96813E+01 0.00000E+00
 -1      2108 5.19600E+00 3.67438E+01 0.00000E+00
 -1      2109 6.52949E+01 6.76038E+00 0.00000E+00
 -1      2110 6.61115E+01 7.11529E+00 0.00000E+00
 -1      2111 6.36367E+01 5.64423E+00 0.00000E+00
 -1      2112 6.44641E+01 5.97041E+00 0.00000E+00
 -1      2113 5.91967E+01 5.83527E+00 0.00000E+00
 -1      2114 6.00612E+01 5.62295E+00 0.00000E+00
 -1      2115 5.75185E+01 6.38294E+00 0.00000E+00
 -1      2116 5.83576E+01 6.10910E+00 0.00000E+00
 -1      2117 5.81859E+01 5.08965E+00 0.00000E+00
 -1      2118 5.61079E+01 7.38395E+00 0.00000E+00
 -1      2119 5.68132E+01 6.88344E+00 0.00000E+00
 -1      2120 5.66415E+01 5.86399E+00 0.00000E+00
 -1      2121 5.47608E+01 8.49125E+00 0.00000E+00
 -1      2122 5.54344E+01 7.93760E+00 0.00000E+00
 -1      2123 5.52626E+01 6.91815E+00 0.00000E+00
 -1      2124 5.36509E+01 1.03277E+01 0.00000E+00
 -1      2125 5.41089E+01 9.54966E+00 0.00000E+00
 -1      2126 5.30005E+01 1.21468E+01 0.00000E+00
 -1      2127 5.32347E+01 1.13036E+01 0.00000E+00
 -1      2128 5.26709E+01 1.39265E+01 0.00000E+00
 -1      2129 5.28011E+01 1.30747E+01 0.00000E+00
 -1      2130 5.25292E+01 1.57818E+01 0.00000E+00
 -1      2131 5.25192E+01 1.49042E+01 0.00000E+00
 -1      2132 5.27889E+01 1.77380E+01 0.00000E+00
 -1      2133 5.25786E+01 1.68527E+01 0.00000E+00
 -1      2134 5.38763E+01 1.94644E+01 0.00000E+00
 -1      2135 5.33932E+01 1.87290E+01 0.00000E+00
 -1      2136 5.48001E+01 2.10400E+01 0.00000E+00
 -1      2137 5.43382E+01 2.02522E+01 0.00000E+00
 -1      2138 5.35200E+01 2.02634E+01 0.00000E+00
 -1      2139 5.65217E+01 2.22647E+01 0.00000E+00
 -1      2140 5.57103E+01 2.18505E+01 0.00000E+00
 -1      2141 5.80519E+01 2.29589E+01 0.00000E+00
 -1      2142 5.73262E+01 2.26148E+01 0.00000E+00
 -1      2143 5.96601E+01 2.35873E+01 0.00000E+00
 -1      2144 5.88889E+01 2.33929E+01 0.00000E+00
 -1      2145 6.14069E+01 2.36981E+01 0.00000E+00
 -1      2146 6.05842E+01 2.36190E+01 0.00000E+00
 -1      2147 6.32682E+01 2.35542E+01 0.00000E+00
 -1      2148 6.24413E+01 2.37243E+01 0.00000E+00
 -1      2149 6.49168E+01 2.31076E+01 0.00000E+00
 -1      2150 6.40925E+01 2.33309E+01 0.00000E+00
 -1      2151 6.38266E+01 2.41328E+01 0.00000E+00
 -1      2152 6.66061E+01 2.20709E+01 0.00000E+00
 -1      2153 6.59400E+01 2.25902E+01 0.00000E+00
 -1      2154 6.78481E+01 2.09838E+01 0.00000E+00
 -1      2155 6.72271E+01 2.15273E+01 0.00000E+00
 -1      2156 6.73183E+01 2.23311E+01 0.00000E+00
 -1      2157 6.90367E+01 1.95330E+01 0.00000E+00
 -1      2158 6.85630E+01 2.02243E+01 0.00000E+00
 -1      2159 6.98148E+01 1.78851E+01 0.00000E+00
 -1      2160 6.95330E+01 1.86600E+01 0.00000E+00
 -1      2161 7.02666E+01 1.62072E+01 0.00000E+00
 -1      2162 7.01064E+01 1.70026E+01 0.00000E+00
 -1      2163 4.84800E+00 4.21150E+00 0.00000E+00
 -1      2164 6.70784E+01 7.80681E+00 0.00000E+00
 -1      2165 6.76861E+01 8.43760E+00 0.00000E+00
 -1      2166 6.85531E+01 8.24202E+00 0.00000E+00
 -1      2167 4.92300E+00 4.57510E+01 0.00000E+00
 -1      2168 1.45851E+02 4.53663E+00 0.00000E+00
 -1      2169 1.45851E+02 6.01163E+00 0.00000E+00
 -1      2170 6.97655E+01 9.83343E+00 0.00000E+00
 -1      2171 6.42300E+00 4.57510E+01 0.00000E+00
 -1      2172 6.69785E+01 6.91971E+00 0.00000E+00
 -1      2173 7.17300E+00 4.44520E+01 0.00000E+00
 -1      2174 7.09800E+00 5.51050E+00 0.00000E+00
 -1      2175 6.34800E+00 4.21150E+00 0.00000E+00
 -1      2176 5.74734E+01 3.98074E+00 0.00000E+00
 -1      2177 5.50402E+01 3.71818E+00 0.00000E+00
 -1      2178 5.42902E+01 5.01718E+00 0.00000E+00
 -1      2179 6.12494E+01 3.55602E+00 0.00000E+00
 -1      2180 6.05369E+01 4.66493E+00 0.00000E+00
 -1      2181 6.15731E+01 5.47206E+00 0.00000E+00
 -1      2182 6.25244E+01 3.55602E+00 0.00000E+00
 -1      2183 5.65402E+01 3.71818E+00 0.00000E+00
 -1      2184 6.31994E+01 4.58114E+00 0.00000E+00
 -1      2185 5.64136E+01 5.10092E+00 0.00000E+00
 -1      2186 6.57000E+01 4.64825E+00 0.00000E+00
 -1      2187 7.10187E+01 1.37825E+01 0.00000E+00
 -1      2188 1.44552E+02 6.74913E+00 0.00000E+00
 -1      2189 7.06853E+01 1.17273E+01 0.00000E+00
 -1      2190 1.45665E+02 4.31193E+01 0.00000E+00
 -1      2191 7.09910E+01 1.58311E+01 0.00000E+00
 -1      2192 7.06534E+01 1.76402E+01 0.00000E+00
 -1      2193 6.86542E+01 2.10281E+01 0.00000E+00
 -1      2194 6.56741E+01 2.33921E+01 0.00000E+00
 -1      2195 6.19679E+01 2.43299E+01 0.00000E+00
 -1      2196 6.00094E+01 2.42720E+01 0.00000E+00
 -1      2197 5.82484E+01 2.38064E+01 0.00000E+00
 -1      2198 5.48921E+01 2.18617E+01 0.00000E+00
 -1      2199 5.40739E+01 2.18728E+01 0.00000E+00
 -1      2200 5.49841E+01 2.26833E+01 0.00000E+00
 -1      2201 5.24537E+01 1.84845E+01 0.00000E+00
 -1      2202 5.17999E+01 1.64227E+01 0.00000E+00
 -1      2203 5.19022E+01 1.43741E+01 0.00000E+00
 -1      2204 5.22534E+01 1.24685E+01 0.00000E+00
 -1      2205 6.24861E+01 5.57712E+00 0.00000E+00
 -1      2206 5.39372E+01 8.53021E+00 0.00000E+00
 -1      2207 5.28690E+01 1.05646E+01 0.00000E+00
 -1      2208 5.66069E+01 2.30223E+01 0.00000E+00
 -1      2209 6.98653E+01 1.93957E+01 0.00000E+00
 -1      2210 6.49500E+00 3.01125E+01 0.00000E+00
 -1      2211 6.49500E+00 3.15875E+01 0.00000E+00
 -1      2212 6.49500E+00 3.30625E+01 0.00000E+00
 -1      2213 6.49500E+00 3.45375E+01 0.00000E+00
 -1      2214 7.79400E+00 3.23250E+01 0.00000E+00
 -1      2215 6.49500E+00 2.42125E+01 0.00000E+00
 -1      2216 6.49500E+00 2.56875E+01 0.00000E+00
 -1      2217 6.49500E+00 2.12625E+01 0.00000E+00
 -1      2218 6.49500E+00 2.27375E+01 0.00000E+00
 -1      2219 7.79400E+00 2.34750E+01 0.00000E+00
 -1      2220 6.49500E+00 1.83625E+01 0.00000E+00
 -1      2221 6.49500E+00 1.98125E+01 0.00000E+00
 -1      2222 7.79400E+00 2.05500E+01 0.00000E+00
 -1      2223 6.49500E+00 1.54125E+01 0.00000E+00
 -1      2224 6.49500E+00 1.68875E+01 0.00000E+00
 -1      2225 7.79400E+00 1.76250E+01 0.00000E+00
 -1      2226 6.49500E+00 1.24625E+01 0.00000E+00
 -1      2227 6.49500E+00 1.39375E+01 0.00000E+00
 -1      2228 7.79400E+00 1.46750E+01 0.00000E+00
 -1      2229 6.49500E+00 9.51250E+00 0.00000E+00
 -1      2230 6.49500E+00 1.09875E+01 0.00000E+00
 -1      2231 7.79400E+00 1.17250E+01 0.00000E+00
 -1      2232 6.79650E+00 6.77400E+00 0.00000E+00
 -1      2233 6.79650E+00 8.24900E+00 0.00000E+00
 -1      2234 8.09550E+00 8.98650E+00 0.00000E+00
 -1      2235 8.69850E+00 6.45950E+00 0.00000E+00
 -1      2236 6.88668E+01 7.33161E+00 0.00000E+00
 -1      2237 6.94745E+01 7.96239E+00 0.00000E+00
 -1      2238 9.90000E+00 4.35050E+01 0.00000E+00
 -1      2239 1.14000E+01 4.35050E+01 0.00000E+00
 -1      2240 1.29000E+01 4.35050E+01 0.00000E+00
 -1      2241 1.44000E+01 4.35050E+01 0.00000E+00
 -1      2242 1.21500E+01 4.22060E+01 0.00000E+00
 -1      2243 1.59000E+01 4.35050E+01 0.00000E+00
 -1      2244 1.74000E+01 4.35050E+01 0.00000E+00
 -1      2245 1.51500E+01 4.22060E+01 0.00000E+00
 -1      2246 1.89000E+01 4.35050E+01 0.00000E+00
 -1      2247 2.04000E+01 4.35050E+01 0.00000E+00
 -1      2248 1.81500E+01 4.22060E+01 0.00000E+00
 -1      2249 2.19000E+01 4.35050E+01 0.00000E+00
 -1      2250 2.34000E+01 4.35050E+01 0.00000E+00
 -1      2251 2.11500E+01 4.22060E+01 0.00000E+00
 -1      2252 2.49000E+01 4.35050E+01 0.00000E+00
 -1      2253 2.64000E+01 4.35050E+01 0.00000E+00
 -1      2254 2.41500E+01 4.22060E+01 0.00000E+00
 -1      2255 2.79000E+01 4.35050E+01 0.00000E+00
 -1      2256 2.94000E+01 4.35050E+01 0.00000E+00
 -1      2257 2.71500E+01 4.22060E+01 0.00000E+00
 -1      2258 3.09000E+01 4.35050E+01 0.00000E+00
 -1      2259 3.24000E+01 4.35050E+01 0.00000E+00
 -1      2260 3.01500E+01 4.22060E+01 0.00000E+00
 -1      2261 3.39000E+01 4.35050E+01 0.00000E+00
 -1      2262 3.54000E+01 4.35050E+01 0.00000E+00
 -1      2263 3.31500E+01 4.22060E+01 0.00000E+00
 -1      2264 3.69000E+01 4.35050E+01 0.00000E+00
 -1      2265 3.84000E+01 4.35050E+01 0.00000E+00
 -1      2266 3.61500E+01 4.22060E+01 0.00000E+00
 -1      2267 3.99000E+01 4.35050E+01 0.00000E+00
 -1      2268 4.14000E+01 4.35050E+01 0.00000E+00
 -1      2269 3.91500E+01 4.22060E+01 0.00000E+00
 -1      2270 4.29000E+01 4.35050E+01 0.00000E+00
 -1      2271 4.44000E+01 4.35050E+01 0.00000E+00
 -1      2272 4.21500E+01 4.22060E+01 0.00000E+00
 -1      2273 4.59000E+01 4.35050E+01 0.00000E+00
 -1      2274 4.74000E+01 4.35050E+01 0.00000E+00
 -1      2275 4.51500E+01 4.22060E+01 0.00000E+00
 -1      2276 4.89000E+01 4.35050E+01 0.00000E+00
 -1      2277 5.04000E+01 4.35050E+01 0.00000E+00
 -1      2278 4.81500E+01 4.22060E+01 0.00000E+00
 -1      2279 5.19000E+01 4.35050E+01 0.00000E+00
 -1      2280 5.34000E+01 4.35050E+01 0.00000E+00
 -1      2281 5.11500E+01 4.22060E+01 0.00000E+00
 -1      2282 5.49000E+01 4.35050E+01 0.00000E+00
 -1      2283 5.64000E+01 4.35050E+01 0.00000E+00
 -1      2284 5.41500E+01 4.22060E+01 0.00000E+00
 -1      2285 5.79000E+01 4.35050E+01 0.00000E+00
 -1      2286 5.94000E+01 4.35050E+01 0.00000E+00
 -1      2287 5.71500E+01 4.22060E+01 0.00000E+00
 -1      2288 6.09000E+01 4.35050E+01 0.00000E+00
 -1      2289 6.24000E+01 4.35050E+01 0.00000E+00
 -1      2290 6.01500E+01 4.22060E+01 0.00000E+00
 -1      2291 6.39000E+01 4.35050E+01 0.00000E+00
 -1      2292 6.54000E+01 4.35050E+01 0.00000E+00
 -1      2293 6.31500E+01 4.22060E+01 0.00000E+00
 -1      2294 6.69000E+01 4.35050E+01 0.00000E+00
 -1      2295 6.84000E+01 4.35050E+01 0.00000E+00
 -1      2296 6.61500E+01 4.22060E+01 0.00000E+00
 -1      2297 6.99000E+01 4.35050E+01 0.00000E+00
 -1      2298 7.14000E+01 4.35050E+01 0.00000E+00
 -1      2299 6.91500E+01 4.22060E+01 0.00000E+00
 -1      2300 7.29000E+01 4.35050E+01 0.00000E+00
 -1      2301 7.44000E+01 4.35050E+01 0.00000E+00
 -1      2302 7.21500E+01 4.22060E+01 0.00000E+00
 -1      2303 7.59000E+01 4.35050E+01 0.00000E+00
 -1      2304 7.74000E+01 4.35050E+01 0.00000E+00
 -1      2305 7.51500E+01 4.22060E+01 0.00000E+00
 -1      2306 7.89000E+01 4.35050E+01 0.00000E+00
 -1      2307 8.04000E+01 4.35050E+01 0.00000E+00
 -1      2308 7.81500E+01 4.22060E+01 0.00000E+00
 -1      2309 8.19000E+01 4.35050E+01 0.00000E+00
 -1      2310 8.34000E+01 4.35050E+01 0.00000E+00
 -1      2311 8.11500E+01 4.22060E+01 0.00000E+00
 -1      2312 8.49000E+01 4.35050E+01 0.00000E+00
 -1      2313 8.64000E+01 4.35050E+01 0.00000E+00
 -1      2314 8.41500E+01 4.22060E+01 0.00000E+00
 -1      2315 8.79000E+01 4.35050E+01 0.00000E+00
 -1      2316 8.94000E+01 4.35050E+01 0.00000E+00
 -1      2317 8.71500E+01 4.22060E+01 0.00000E+00
 -1      2318 9.09000E+01 4.35050E+01 0.00000E+00
 -1      2319 9.24000E+01 4.35050E+01 0.00000E+00
 -1      2320 9.01500E+01 4.22060E+01 0.00000E+00
 -1      2321 9.39000E+01 4.35050E+01 0.00000E+00
 -1      2322 9.54000E+01 4.35050E+01 0.00000E+00
 -1      2323 9.31500E+01 4.22060E+01 0.00000E+00
 -1      2324 9.69000E+01 4.35050E+01 0.00000E+00
 -1      2325 9.84000E+01 4.35050E+01 0.00000E+00
 -1      2326 9.61500E+01 4.22060E+01 0.00000E+00
 -1      2327 9.99000E+01 4.35050E+01 0.00000E+00
 -1      2328 1.01400E+02 4.35050E+01 0.00000E+00
 -1      2329 9.91500E+01 4.22060E+01 0.00000E+00
 -1      2330 1.02900E+02 4.35050E+01 0.00000E+00
 -1      2331 1.04400E+02 4.35050E+01 0.00000E+00
 -1      2332 1.02150E+02 4.22060E+01 0.00000E+00
 -1      2333 1.05900E+02 4.35050E+01 0.00000E+00
 -1      2334 1.07400E+02 4.35050E+01 0.00000E+00
 -1      2335 1.05150E+02 4.22060E+01 0.00000E+00
 -1      2336 1.08900E+02 4.35050E+01 0.00000E+00
 -1      2337 1.10400E+02 4.35050E+01 0.00000E+00
 -1      2338 1.08150E+02 4.22060E+01 0.00000E+00
 -1      2339 1.11900E+02 4.35050E+01 0.00000E+00
 -1      2340 1.13400E+02 4.35050E+01 0.00000E+00
 -1      2341 1.11150E+02 4.22060E+01 0.00000E+00
 -1      2342 1.14900E+02 4.35050E+01 0.00000E+00
 -1      2343 1.16400E+02 4.35050E+01 0.00000E+00
 -1      2344 1.14150E+02 4.22060E+01 0.00000E+00
 -1      2345 1.17900E+02 4.35050E+01 0.00000E+00
 -1      2346 1.19400E+02 4.35050E+01 0.00000E+00
 -1      2347 1.17150E+02 4.22060E+01 0.00000E+00
 -1      2348 1.20900E+02 4.35050E+01 0.00000E+00
 -1      2349 1.22400E+02 4.35050E+01 0.00000E+00
 -1      2350 1.20150E+02 4.22060E+01 0.00000E+00
 -1      2351 1.23900E+02 4.35050E+01 0.00000E+00
 -1      2352 1.25400E+02 4.35050E+01 0.00000E+00
 -1      2353 1.23150E+02 4.22060E+01 0.00000E+00
 -1      2354 1.26900E+02 4.35050E+01 0.00000E+00
 -1      2355 1.28400E+02 4.35050E+01 0.00000E+00
 -1      2356 1.26150E+02 4.22060E+01 0.00000E+00
 -1      2357 1.29900E+02 4.35050E+01 0.00000E+00
 -1      2358 1.31400E+02 4.35050E+01 0.00000E+00
 -1      2359 1.29150E+02 4.22060E+01 0.00000E+00
 -1      2360 1.32900E+02 4.35050E+01 0.00000E+00
 -1      2361 1.34400E+02 4.35050E+01 0.00000E+00
 -1      2362 1.32150E+02 4.22060E+01 0.00000E+00
 -1      2363 1.35900E+02 4.35050E+01 0.00000E+00
 -1      2364 1.37400E+02 4.35050E+01 0.00000E+00
 -1      2365 1.35150E+02 4.22060E+01 0.00000E+00
 -1      2366 1.38900E+02 4.35050E+01 0.00000E+00
 -1      2367 1.40400E+02 4.35050E+01 0.00000E+00
 -1      2368 1.38150E+02 4.22060E+01 0.00000E+00
 -1      2369 1.16985E+01 6.45950E+00 0.00000E+00
 -1      2370 1.01985E+01 6.45950E+00 0.00000E+00
 -1      2371 9.89700E+00 7.72300E+00 0.00000E+00
 -1      2372 2.01000E+01 6.49500E+00 0.00000E+00
 -1      2373 1.86000E+01 6.49500E+00 0.00000E+00
 -1      2374 2.31000E+01 6.49500E+00 0.00000E+00
 -1      2375 2.16000E+01 6.49500E+00 0.00000E+00
 -1      2376 2.08500E+01 7.79400E+00 0.00000E+00
 -1      2377 2.61000E+01 6.49500E+00 0.00000E+00
 -1      2378 2.46000E+01 6.49500E+00 0.00000E+00
 -1      2379 2.38500E+01 7.79400E+00 0.00000E+00
 -1      2380 2.91000E+01 6.49500E+00 0.00000E+00
 -1      2381 2.76000E+01 6.49500E+00 0.00000E+00
 -1      2382 2.68500E+01 7.79400E+00 0.00000E+00
 -1      2383 3.19500E+01 6.49500E+00 0.00000E+00
 -1      2384 3.05250E+01 6.49500E+00 0.00000E+00
 -1      2385 2.97750E+01 7.79400E+00 0.00000E+00
 -1      2386 3.49500E+01 6.49500E+00 0.00000E+00
 -1      2387 3.34500E+01 6.49500E+00 0.00000E+00
 -1      2388 3.27000E+01 7.79400E+00 0.00000E+00
 -1      2389 3.79500E+01 6.49500E+00 0.00000E+00
 -1      2390 3.64500E+01 6.49500E+00 0.00000E+00
 -1      2391 3.57000E+01 7.79400E+00 0.00000E+00
 -1      2392 4.09500E+01 6.49500E+00 0.00000E+00
 -1      2393 3.94500E+01 6.49500E+00 0.00000E+00
 -1      2394 3.87000E+01 7.79400E+00 0.00000E+00
 -1      2395 4.39500E+01 6.49500E+00 0.00000E+00
 -1      2396 4.24500E+01 6.49500E+00 0.00000E+00
 -1      2397 4.17000E+01 7.79400E+00 0.00000E+00
 -1      2398 4.69500E+01 6.49500E+00 0.00000E+00
 -1      2399 4.54500E+01 6.49500E+00 0.00000E+00
 -1      2400 4.47000E+01 7.79400E+00 0.00000E+00
 -1      2401 4.98000E+01 6.49500E+00 0.00000E+00
 -1      2402 4.83750E+01 6.49500E+00 0.00000E+00
 -1      2403 4.76250E+01 7.79400E+00 0.00000E+00
 -1      2404 5.23500E+01 6.49500E+00 0.00000E+00
 -1      2405 5.10750E+01 6.49500E+00 0.00000E+00
 -1      2406 5.03250E+01 7.79400E+00 0.00000E+00
 -1      2407 6.98441E+01 5.85012E+00 0.00000E+00
 -1      2408 6.84191E+01 5.85012E+00 0.00000E+00
 -1      2409 7.80375E+01 5.94725E+00 0.00000E+00
 -1      2410 7.66125E+01 5.94725E+00 0.00000E+00
 -1      2411 8.10375E+01 5.94725E+00 0.00000E+00
 -1      2412 7.95375E+01 5.94725E+00 0.00000E+00
 -1      2413 7.88250E+01 7.24625E+00 0.00000E+00
 -1      2414 8.40375E+01 5.94725E+00 0.00000E+00
 -1      2415 8.25375E+01 5.94725E+00 0.00000E+00
 -1      2416 8.18250E+01 7.24625E+00 0.00000E+00
 -1      2417 8.70375E+01 5.94725E+00 0.00000E+00
 -1      2418 8.55375E+01 5.94725E+00 0.00000E+00
 -1      2419 8.48250E+01 7.24625E+00 0.00000E+00
 -1      2420 9.00375E+01 5.94725E+00 0.00000E+00
 -1      2421 8.85375E+01 5.94725E+00 0.00000E+00
 -1      2422 8.78250E+01 7.24625E+00 0.00000E+00
 -1      2423 9.30375E+01 5.94725E+00 0.00000E+00
 -1      2424 9.15375E+01 5.94725E+00 0.00000E+00
 -1      2425 9.08250E+01 7.24625E+00 0.00000E+00
 -1      2426 9.58875E+01 5.94725E+00 0.00000E+00
 -1      2427 9.44625E+01 5.94725E+00 0.00000E+00
 -1      2428 9.37500E+01 7.24625E+00 0.00000E+00
 -1      2429 9.88875E+01 5.94725E+00 0.00000E+00
 -1      2430 9.73875E+01 5.94725E+00 0.00000E+00
 -1      2431 9.66750E+01 7.24625E+00 0.00000E+00
 -1      2432 1.01887E+02 5.94725E+00 0.00000E+00
 -1      2433 1.00387E+02 5.94725E+00 0.00000E+00
 -1      2434 9.96750E+01 7.24625E+00 0.00000E+00
 -1      2435 1.04887E+02 5.94725E+00 0.00000E+00
 -1      2436 1.03387E+02 5.94725E+00 0.00000E+00
 -1      2437 1.02675E+02 7.24625E+00 0.00000E+00
 -1      2438 1.07887E+02 5.94725E+00 0.00000E+00
 -1      2439 1.06387E+02 5.94725E+00 0.00000E+00
 -1      2440 1.05675E+02 7.24625E+00 0.00000E+00
 -1      2441 1.10887E+02 5.94725E+00 0.00000E+00
 -1      2442 1.09387E+02 5.94725E+00 0.00000E+00
 -1      2443 1.08675E+02 7.24625E+00 0.00000E+00
 -1      2444 1.13738E+02 5.94725E+00 0.00000E+00
 -1      2445 1.12313E+02 5.94725E+00 0.00000E+00
 -1      2446 1.11600E+02 7.24625E+00 0.00000E+00
 -1      2447 1.16738E+02 5.94725E+00 0.00000E+00
 -1      2448 1.15238E+02 5.94725E+00 0.00000E+00
 -1      2449 1.14525E+02 7.24625E+00 0.00000E+00
 -1      2450 1.19738E+02 5.94725E+00 0.00000E+00
 -1      2451 1.18238E+02 5.94725E+00 0.00000E+00
 -1      2452 1.17525E+02 7.24625E+00 0.00000E+00
 -1      2453 1.22738E+02 5.94725E+00 0.00000E+00
 -1      2454 1.21238E+02 5.94725E+00 0.00000E+00
 -1      2455 1.20525E+02 7.24625E+00 0.00000E+00
 -1      2456 1.25738E+02 5.94725E+00 0.00000E+00
 -1      2457 1.24238E+02 5.94725E+00 0.00000E+00
 -1      2458 1.23525E+02 7.24625E+00 0.00000E+00
 -1      2459 1.28738E+02 5.94725E+00 0.00000E+00
 -1      2460 1.27238E+02 5.94725E+00 0.00000E+00
 -1      2461 1.26525E+02 7.24625E+00 0.00000E+00
 -1      2462 1.31587E+02 5.94725E+00 0.00000E+00
 -1      2463 1.30163E+02 5.94725E+00 0.00000E+00
 -1      2464 1.29450E+02 7.24625E+00 0.00000E+00
 -1      2465 1.34587E+02 5.94725E+00 0.00000E+00
 -1      2466 1.33087E+02 5.94725E+00 0.00000E+00
 -1      2467 1.32375E+02 7.24625E+00 0.00000E+00
 -1      2468 1.37587E+02 5.94725E+00 0.00000E+00
 -1      2469 1.36087E+02 5.94725E+00 0.00000E+00
 -1      2470 1.35375E+02 7.24625E+00 0.00000E+00
 -1      2471 1.40587E+02 5.94725E+00 0.00000E+00
 -1      2472 1.39087E+02 5.94725E+00 0.00000E+00
 -1      2473 1.38375E+02 7.24625E+00 0.00000E+00
 -1      2474 1.43320E+02 6.34819E+00 0.00000E+00
 -1      2475 1.41820E+02 6.34819E+00 0.00000E+00
 -1      2476 1.41107E+02 7.64719E+00 0.00000E+00
 -1      2477 1.43572E+02 8.44906E+00 0.00000E+00
 -1      2478 7.11815E+01 1.10399E+01 0.00000E+00
 -1      2479 7.14966E+01 1.19731E+01 0.00000E+00
 -1      2480 1.43505E+02 1.98625E+01 0.00000E+00
 -1      2481 1.43505E+02 1.83875E+01 0.00000E+00
 -1      2482 7.01535E+01 8.91862E+00 0.00000E+00
 -1      2483 7.07582E+01 9.87924E+00 0.00000E+00
 -1      2484 1.43505E+02 2.28125E+01 0.00000E+00
 -1      2485 1.43505E+02 2.13375E+01 0.00000E+00
 -1      2486 1.42206E+02 2.06000E+01 0.00000E+00
 -1      2487 1.43505E+02 2.57625E+01 0.00000E+00
 -1      2488 1.43505E+02 2.42875E+01 0.00000E+00
 -1      2489 1.42206E+02 2.35500E+01 0.00000E+00
 -1      2490 1.43505E+02 2.87125E+01 0.00000E+00
 -1      2491 1.43505E+02 2.72375E+01 0.00000E+00
 -1      2492 1.42206E+02 2.65000E+01 0.00000E+00
 -1      2493 1.43505E+02 3.16125E+01 0.00000E+00
 -1      2494 1.43505E+02 3.01625E+01 0.00000E+00
 -1      2495 1.42206E+02 2.94250E+01 0.00000E+00
 -1      2496 1.43505E+02 3.45625E+01 0.00000E+00
 -1      2497 1.43505E+02 3.30875E+01 0.00000E+00
 -1      2498 1.42206E+02 3.23500E+01 0.00000E+00
 -1      2499 1.43505E+02 3.75125E+01 0.00000E+00
 -1      2500 1.43505E+02 3.60375E+01 0.00000E+00
 -1      2501 1.42206E+02 3.53000E+01 0.00000E+00
 -1      2502 1.43505E+02 4.04625E+01 0.00000E+00
 -1      2503 1.43505E+02 3.89875E+01 0.00000E+00
 -1      2504 1.42206E+02 3.82500E+01 0.00000E+00
 -1      2505 1.44321E+02 4.30606E+01 0.00000E+00
 -1      2506 5.57083E+01 5.60143E+00 0.00000E+00
 -1      2507 7.17450E+01 1.54040E+01 0.00000E+00
 -1      2508 7.16990E+01 1.63306E+01 0.00000E+00
 -1      2509 1.71000E+01 6.49500E+00 0.00000E+00
 -1      2510 1.56000E+01 6.49500E+00 0.00000E+00
 -1      2511 1.78500E+01 7.79400E+00 0.00000E+00
 -1      2512 1.43505E+02 1.39750E+01 0.00000E+00
 -1      2513 1.43505E+02 1.25250E+01 0.00000E+00
 -1      2514 7.15339E+01 1.74418E+01 0.00000E+00
 -1      2515 7.12422E+01 1.83242E+01 0.00000E+00
 -1      2516 6.24655E+01 2.51165E+01 0.00000E+00
 -1      2517 6.14311E+01 2.50903E+01 0.00000E+00
 -1      2518 5.20237E+01 1.94265E+01 0.00000E+00
 -1      2519 5.14194E+01 1.84355E+01 0.00000E+00
 -1      2520 1.43538E+02 1.12245E+01 0.00000E+00
 -1      2521 1.43538E+02 9.74953E+00 0.00000E+00
 -1      2522 1.42306E+02 9.34859E+00 0.00000E+00
 -1      2523 1.42239E+02 1.19495E+01 0.00000E+00
 -1      2524 1.43505E+02 1.69188E+01 0.00000E+00
 -1      2525 1.43505E+02 1.54438E+01 0.00000E+00
 -1      2526 1.42206E+02 1.47188E+01 0.00000E+00
 -1      2527 1.42206E+02 1.76563E+01 0.00000E+00
 -1      2528 7.51125E+01 5.94725E+00 0.00000E+00
 -1      2529 7.36125E+01 5.94725E+00 0.00000E+00
 -1      2530 7.58250E+01 7.24625E+00 0.00000E+00
 -1      2531 7.24783E+01 5.89868E+00 0.00000E+00
 -1      2532 7.09783E+01 5.89868E+00 0.00000E+00
 -1      2533 7.09224E+01 7.10055E+00 0.00000E+00
 -1      2534 7.31908E+01 7.19768E+00 0.00000E+00
 -1      2535 7.18251E+01 1.32082E+01 0.00000E+00
 -1      2536 7.18434E+01 1.43302E+01 0.00000E+00
 -1      2537 6.49500E+00 2.71625E+01 0.00000E+00
 -1      2538 6.49500E+00 2.86375E+01 0.00000E+00
 -1      2539 7.79400E+00 2.93750E+01 0.00000E+00
 -1      2540 7.79400E+00 2.64250E+01 0.00000E+00
 -1      2541 1.43617E+01 6.47725E+00 0.00000E+00
 -1      2542 1.29368E+01 6.47725E+00 0.00000E+00
 -1      2543 1.26353E+01 7.74075E+00 0.00000E+00
 -1      2544 1.51117E+01 7.77625E+00 0.00000E+00
 -1      2545 6.51808E+01 5.43822E+00 0.00000E+00
 -1      2546 5.18721E+01 1.07162E+01 0.00000E+00
 -1      2547 5.22884E+01 9.74017E+00 0.00000E+00
 -1      2548 5.67170E+01 2.38685E+01 0.00000E+00
 -1      2549 5.59125E+01 2.35183E+01 0.00000E+00
 -1      2550 5.13562E+01 1.27610E+01 0.00000E+00
 -1      2551 5.15556E+01 1.18332E+01 0.00000E+00
 -1      2552 5.10527E+01 1.47165E+01 0.00000E+00
 -1      2553 5.12045E+01 1.37388E+01 0.00000E+00
 -1      2554 5.05067E+01 1.31035E+01 0.00000E+00
 -1      2555 5.08843E+01 1.70015E+01 0.00000E+00
 -1      2556 5.08349E+01 1.59307E+01 0.00000E+00
 -1      2557 5.29476E+01 2.10021E+01 0.00000E+00
 -1      2558 5.24856E+01 2.02143E+01 0.00000E+00
 -1      2559 5.14513E+01 2.01653E+01 0.00000E+00
 -1      2560 7.08590E+01 1.93830E+01 0.00000E+00
 -1      2561 7.03627E+01 2.02560E+01 0.00000E+00
 -1      2562 5.83910E+01 2.47364E+01 0.00000E+00
 -1      2563 5.75540E+01 2.43024E+01 0.00000E+00
 -1      2564 5.68597E+01 2.47984E+01 0.00000E+00
 -1      2565 6.05070E+01 2.50587E+01 0.00000E+00
 -1      2566 5.95829E+01 2.50271E+01 0.00000E+00
 -1      2567 6.10046E+01 2.58453E+01 0.00000E+00
 -1      2568 6.44630E+01 2.48489E+01 0.00000E+00
 -1      2569 6.36386E+01 2.50722E+01 0.00000E+00
 -1      2570 6.66483E+01 2.40482E+01 0.00000E+00
 -1      2571 6.56251E+01 2.45656E+01 0.00000E+00
 -1      2572 6.81660E+01 2.26731E+01 0.00000E+00
 -1      2573 6.75450E+01 2.32167E+01 0.00000E+00
 -1      2574 6.95957E+01 2.11542E+01 0.00000E+00
 -1      2575 6.88808E+01 2.19137E+01 0.00000E+00
 -1      2576 6.91075E+01 2.27992E+01 0.00000E+00
 -1      2577 6.65308E+01 5.43822E+00 0.00000E+00
 -1      2578 6.55950E+00 4.28890E+01 0.00000E+00
 -1      2579 8.53650E+00 4.32410E+01 0.00000E+00
 -1      2580 9.28650E+00 4.19420E+01 0.00000E+00
 -1      2581 6.55950E+00 4.14140E+01 0.00000E+00
 -1      2582 6.74977E+01 6.12974E+00 0.00000E+00
 -1      2583 7.79400E+00 3.52687E+01 0.00000E+00
 -1      2584 6.49500E+00 3.60062E+01 0.00000E+00
 -1      2585 6.49500E+00 3.74750E+01 0.00000E+00
 -1      2586 7.04672E+01 8.00821E+00 0.00000E+00
 -1      2587 5.45181E+01 5.78025E+00 0.00000E+00
 -1      2588 5.88886E+01 2.55230E+01 0.00000E+00
 -1      2589 7.23213E+01 1.25209E+01 0.00000E+00
 -1      2590 7.15694E+01 1.01251E+01 0.00000E+00
 -1      2591 7.25514E+01 1.48298E+01 0.00000E+00
 -1      2592 1.42758E+02 4.35929E+01 0.00000E+00
 -1      2593 1.43241E+02 4.17323E+01 0.00000E+00
 -1      2594 1.41942E+02 4.09948E+01 0.00000E+00
 -1      2595 1.41414E+02 4.35342E+01 0.00000E+00
 -1      2596 7.22878E+01 1.70147E+01 0.00000E+00
 -1      2597 6.52725E+00 3.87101E+01 0.00000E+00
 -1      2598 6.52725E+00 4.01789E+01 0.00000E+00
 -1      2599 7.89075E+00 4.04429E+01 0.00000E+00
 -1      2600 7.82625E+00 3.79726E+01 0.00000E+00
 -1      2601 7.17395E+01 1.91846E+01 0.00000E+00
 -1      2602 6.31018E+01 2.58326E+01 0.00000E+00
 -1      2603 5.00243E+01 1.88855E+01 0.00000E+00
 -1      2604 5.04543E+01 1.79435E+01 0.00000E+00
 -1      2605 4.94893E+01 1.74515E+01 0.00000E+00
 -1      2606 7.05893E+01 2.11416E+01 0.00000E+00
 -1      2607 5.50943E+01 2.35294E+01 0.00000E+00
 -1      2608 5.42761E+01 2.35406E+01 0.00000E+00
 -1      2609 5.52045E+01 2.43756E+01 0.00000E+00
 -1      2610 6.74960E+01 2.43902E+01 0.00000E+00
 -1      2611 5.38445E+01 6.33390E+00 0.00000E+00
 -1      2612 5.30396E+01 2.18238E+01 0.00000E+00
 -1      2613 5.20052E+01 2.17747E+01 0.00000E+00
 -1      2614 5.31316E+01 2.26454E+01 0.00000E+00
 -1      2615 5.01371E+01 1.52954E+01 0.00000E+00
 -1      2616 5.09750E+01 1.10087E+01 0.00000E+00
 -1      2617 5.14457E+01 8.84286E+00 0.00000E+00
 -1      2618 5.24427E+01 8.69131E+00 0.00000E+00
 -1      2619 5.30945E+01 7.63290E+00 0.00000E+00
 -1      2620 6.54372E+01 2.55050E+01 0.00000E+00
 -1      2621 1.40664E+02 4.22352E+01 0.00000E+00
 -1      2622 9.09300E+00 1.98250E+01 0.00000E+00
 -1      2623 9.09300E+00 2.12750E+01 0.00000E+00
 -1      2624 9.09300E+00 2.27500E+01 0.00000E+00
 -1      2625 9.09300E+00 2.42250E+01 0.00000E+00
 -1      2626 1.03920E+01 2.20250E+01 0.00000E+00
 -1      2627 9.09300E+00 1.39375E+01 0.00000E+00
 -1      2628 9.09300E+00 1.54125E+01 0.00000E+00
 -1      2629 9.09300E+00 1.09875E+01 0.00000E+00
 -1      2630 9.09300E+00 1.24625E+01 0.00000E+00
 -1      2631 1.03920E+01 1.32000E+01 0.00000E+00
 -1      2632 9.64575E+00 8.72350E+00 0.00000E+00
 -1      2633 9.34425E+00 9.98700E+00 0.00000E+00
 -1      2634 1.06433E+01 1.07245E+01 0.00000E+00
 -1      2635 1.11458E+01 8.72350E+00 0.00000E+00
 -1      2636 5.00319E+01 1.13449E+01 0.00000E+00
 -1      2637 5.03484E+01 1.02279E+01 0.00000E+00
 -1      2638 7.28951E+01 1.90041E+01 0.00000E+00
 -1      2639 7.25119E+01 2.00628E+01 0.00000E+00
 -1      2640 1.44000E+01 4.09070E+01 0.00000E+00
 -1      2641 1.59000E+01 4.09070E+01 0.00000E+00
 -1      2642 1.74000E+01 4.09070E+01 0.00000E+00
 -1      2643 1.89000E+01 4.09070E+01 0.00000E+00
 -1      2644 1.66500E+01 3.96080E+01 0.00000E+00
 -1      2645 2.04000E+01 4.09070E+01 0.00000E+00
 -1      2646 2.19000E+01 4.09070E+01 0.00000E+00
 -1      2647 1.96500E+01 3.96080E+01 0.00000E+00
 -1      2648 2.34000E+01 4.09070E+01 0.00000E+00
 -1      2649 2.49000E+01 4.09070E+01 0.00000E+00
 -1      2650 2.26500E+01 3.96080E+01 0.00000E+00
 -1      2651 2.64000E+01 4.09070E+01 0.00000E+00
 -1      2652 2.79000E+01 4.09070E+01 0.00000E+00
 -1      2653 2.56500E+01 3.96080E+01 0.00000E+00
 -1      2654 2.94000E+01 4.09070E+01 0.00000E+00
 -1      2655 3.09000E+01 4.09070E+01 0.00000E+00
 -1      2656 2.86500E+01 3.96080E+01 0.00000E+00
 -1      2657 3.24000E+01 4.09070E+01 0.00000E+00
 -1      2658 3.39000E+01 4.09070E+01 0.00000E+00
 -1      2659 3.16500E+01 3.96080E+01 0.00000E+00
 -1      2660 3.54000E+01 4.09070E+01 0.00000E+00
 -1      2661 3.69000E+01 4.09070E+01 0.00000E+00
 -1      2662 3.46500E+01 3.96080E+01 0.00000E+00
 -1      2663 3.84000E+01 4.09070E+01 0.00000E+00
 -1      2664 3.99000E+01 4.09070E+01 0.00000E+00
 -1      2665 3.76500E+01 3.96080E+01 0.00000E+00
 -1      2666 4.14000E+01 4.09070E+01 0.00000E+00
 -1      2667 4.29000E+01 4.09070E+01 0.00000E+00
 -1      2668 4.06500E+01 3.96080E+01 0.00000E+00
 -1      2669 4.44000E+01 4.09070E+01 0.00000E+00
 -1      2670 4.59000E+01 4.09070E+01 0.00000E+00
 -1      2671 4.36500E+01 3.96080E+01 0.00000E+00
 -1      2672 4.74000E+01 4.09070E+01 0.00000E+00
 -1      2673 4.89000E+01 4.09070E+01 0.00000E+00
 -1      2674 4.66500E+01 3.96080E+01 0.00000E+00
 -1      2675 5.04000E+01 4.09070E+01 0.00000E+00
 -1      2676 5.19000E+01 4.09070E+01 0.00000E+00
 -1      2677 4.96500E+01 3.96080E+01 0.00000E+00
 -1      2678 5.34000E+01 4.09070E+01 0.00000E+00
 -1      2679 5.49000E+01 4.09070E+01 0.00000E+00
 -1      2680 5.26500E+01 3.96080E+01 0.00000E+00
 -1      2681 5.64000E+01 4.09070E+01 0.00000E+00
 -1      2682 5.79000E+01 4.09070E+01 0.00000E+00
 -1      2683 5.56500E+01 3.96080E+01 0.00000E+00
 -1      2684 5.94000E+01 4.09070E+01 0.00000E+00
 -1      2685 6.09000E+01 4.09070E+01 0.00000E+00
 -1      2686 5.86500E+01 3.96080E+01 0.00000E+00
 -1      2687 6.24000E+01 4.09070E+01 0.00000E+00
 -1      2688 6.39000E+01 4.09070E+01 0.00000E+00
 -1      2689 6.16500E+01 3.96080E+01 0.00000E+00
 -1      2690 6.54000E+01 4.09070E+01 0.00000E+00
 -1      2691 6.69000E+01 4.09070E+01 0.00000E+00
 -1      2692 6.46500E+01 3.96080E+01 0.00000E+00
 -1      2693 6.84000E+01 4.09070E+01 0.00000E+00
 -1      2694 6.99000E+01 4.09070E+01 0.00000E+00
 -1      2695 6.76500E+01 3.96080E+01 0.00000E+00
 -1      2696 7.14000E+01 4.09070E+01 0.00000E+00
 -1      2697 7.29000E+01 4.09070E+01 0.00000E+00
 -1      2698 7.06500E+01 3.96080E+01 0.00000E+00
 -1      2699 7.44000E+01 4.09070E+01 0.00000E+00
 -1      2700 7.59000E+01 4.09070E+01 0.00000E+00
 -1      2701 7.36500E+01 3.96080E+01 0.00000E+00
 -1      2702 7.74000E+01 4.09070E+01 0.00000E+00
 -1      2703 7.89000E+01 4.09070E+01 0.00000E+00
 -1      2704 7.66500E+01 3.96080E+01 0.00000E+00
 -1      2705 8.04000E+01 4.09070E+01 0.00000E+00
 -1      2706 8.19000E+01 4.09070E+01 0.00000E+00
 -1      2707 7.96500E+01 3.96080E+01 0.00000E+00
 -1      2708 8.34000E+01 4.09070E+01 0.00000E+00
 -1      2709 8.49000E+01 4.09070E+01 0.00000E+00
 -1      2710 8.26500E+01 3.96080E+01 0.00000E+00
 -1      2711 8.64000E+01 4.09070E+01 0.00000E+00
 -1      2712 8.79000E+01 4.09070E+01 0.00000E+00
 -1      2713 8.56500E+01 3.96080E+01 0.00000E+00
 -1      2714 8.94000E+01 4.09070E+01 0.00000E+00
 -1      2715 9.09000E+01 4.09070E+01 0.00000E+00
 -1      2716 8.86500E+01 3.96080E+01 0.00000E+00
 -1      2717 9.24000E+01 4.09070E+01 0.00000E+00
 -1      2718 9.39000E+01 4.09070E+01 0.00000E+00
 -1      2719 9.16500E+01 3.96080E+01 0.00000E+00
 -1      2720 9.54000E+01 4.09070E+01 0.00000E+00
 -1      2721 9.69000E+01 4.09070E+01 0.00000E+00
 -1      2722 9.46500E+01 3.96080E+01 0.00000E+00
 -1      2723 9.84000E+01 4.09070E+01 0.00000E+00
 -1      2724 9.99000E+01 4.09070E+01 0.00000E+00
 -1      2725 9.76500E+01 3.96080E+01 0.00000E+00
 -1      2726 1.01400E+02 4.09070E+01 0.00000E+00
 -1      2727 1.02900E+02 4.09070E+01 0.00000E+00
 -1      2728 1.00650E+02 3.96080E+01 0.00000E+00
 -1      2729 1.04400E+02 4.09070E+01 0.00000E+00
 -1      2730 1.05900E+02 4.09070E+01 0.00000E+00
 -1      2731 1.03650E+02 3.96080E+01 0.00000E+00
 -1      2732 1.07400E+02 4.09070E+01 0.00000E+00
 -1      2733 1.08900E+02 4.09070E+01 0.00000E+00
 -1      2734 1.06650E+02 3.96080E+01 0.00000E+00
 -1      2735 1.10400E+02 4.09070E+01 0.00000E+00
 -1      2736 1.11900E+02 4.09070E+01 0.00000E+00
 -1      2737 1.09650E+02 3.96080E+01 0.00000E+00
 -1      2738 1.13400E+02 4.09070E+01 0.00000E+00
 -1      2739 1.14900E+02 4.09070E+01 0.00000E+00
 -1      2740 1.12650E+02 3.96080E+01 0.00000E+00
 -1      2741 1.16400E+02 4.09070E+01 0.00000E+00
 -1      2742 1.17900E+02 4.09070E+01 0.00000E+00
 -1      2743 1.15650E+02 3.96080E+01 0.00000E+00
 -1      2744 1.19400E+02 4.09070E+01 0.00000E+00
 -1      2745 1.20900E+02 4.09070E+01 0.00000E+00
 -1      2746 1.18650E+02 3.96080E+01 0.00000E+00
 -1      2747 1.22400E+02 4.09070E+01 0.00000E+00
 -1      2748 1.23900E+02 4.09070E+01 0.00000E+00
 -1      2749 1.21650E+02 3.96080E+01 0.00000E+00
 -1      2750 1.25400E+02 4.09070E+01 0.00000E+00
 -1      2751 1.26900E+02 4.09070E+01 0.00000E+00
 -1      2752 1.24650E+02 3.96080E+01 0.00000E+00
 -1      2753 1.28400E+02 4.09070E+01 0.00000E+00
 -1      2754 1.29900E+02 4.09070E+01 0.00000E+00
 -1      2755 1.27650E+02 3.96080E+01 0.00000E+00
 -1      2756 1.31400E+02 4.09070E+01 0.00000E+00
 -1      2757 1.32900E+02 4.09070E+01 0.00000E+00
 -1      2758 1.30650E+02 3.96080E+01 0.00000E+00
 -1      2759 1.34400E+02 4.09070E+01 0.00000E+00
 -1      2760 1.35900E+02 4.09070E+01 0.00000E+00
 -1      2761 1.33650E+02 3.96080E+01 0.00000E+00
 -1      2762 1.37400E+02 4.09070E+01 0.00000E+00
 -1      2763 1.38900E+02 4.09070E+01 0.00000E+00
 -1      2764 1.36650E+02 3.96080E+01 0.00000E+00
 -1      2765 7.32186E+01 1.65852E+01 0.00000E+00
 -1      2766 7.30535E+01 1.76963E+01 0.00000E+00
 -1      2767 2.46000E+01 9.09300E+00 0.00000E+00
 -1      2768 2.31000E+01 9.09300E+00 0.00000E+00
 -1      2769 2.16000E+01 9.09300E+00 0.00000E+00
 -1      2770 2.01000E+01 9.09300E+00 0.00000E+00
 -1      2771 2.23500E+01 1.03920E+01 0.00000E+00
 -1      2772 3.04875E+01 9.09300E+00 0.00000E+00
 -1      2773 2.90625E+01 9.09300E+00 0.00000E+00
 -1      2774 3.34875E+01 9.09300E+00 0.00000E+00
 -1      2775 3.19875E+01 9.09300E+00 0.00000E+00
 -1      2776 3.12750E+01 1.03920E+01 0.00000E+00
 -1      2777 3.64875E+01 9.09300E+00 0.00000E+00
 -1      2778 3.49875E+01 9.09300E+00 0.00000E+00
 -1      2779 3.42750E+01 1.03920E+01 0.00000E+00
 -1      2780 3.94875E+01 9.09300E+00 0.00000E+00
 -1      2781 3.79875E+01 9.09300E+00 0.00000E+00
 -1      2782 3.72750E+01 1.03920E+01 0.00000E+00
 -1      2783 4.24875E+01 9.09300E+00 0.00000E+00
 -1      2784 4.09875E+01 9.09300E+00 0.00000E+00
 -1      2785 4.02750E+01 1.03920E+01 0.00000E+00
 -1      2786 4.54875E+01 9.09300E+00 0.00000E+00
 -1      2787 4.39875E+01 9.09300E+00 0.00000E+00
 -1      2788 4.32750E+01 1.03920E+01 0.00000E+00
 -1      2789 5.01707E+01 8.84286E+00 0.00000E+00
 -1      2790 1.39914E+02 4.09362E+01 0.00000E+00
 -1      2791 1.40928E+02 4.09655E+01 0.00000E+00
 -1      2792 1.39164E+02 3.96372E+01 0.00000E+00
 -1      2793 8.55750E+01 8.54525E+00 0.00000E+00
 -1      2794 8.40750E+01 8.54525E+00 0.00000E+00
 -1      2795 2.75812E+01 9.09300E+00 0.00000E+00
 -1      2796 2.60812E+01 9.09300E+00 0.00000E+00
 -1      2797 2.53312E+01 1.03920E+01 0.00000E+00
 -1      2798 2.82938E+01 1.03920E+01 0.00000E+00
 -1      2799 7.95750E+01 8.54525E+00 0.00000E+00
 -1      2800 7.80750E+01 8.54525E+00 0.00000E+00
 -1      2801 8.85750E+01 8.54525E+00 0.00000E+00
 -1      2802 8.70750E+01 8.54525E+00 0.00000E+00
 -1      2803 8.63250E+01 9.84425E+00 0.00000E+00
 -1      2804 9.15750E+01 8.54525E+00 0.00000E+00
 -1      2805 9.00750E+01 8.54525E+00 0.00000E+00
 -1      2806 8.93250E+01 9.84425E+00 0.00000E+00
 -1      2807 9.44250E+01 8.54525E+00 0.00000E+00
 -1      2808 9.30000E+01 8.54525E+00 0.00000E+00
 -1      2809 9.22500E+01 9.84425E+00 0.00000E+00
 -1      2810 9.74250E+01 8.54525E+00 0.00000E+00
 -1      2811 9.59250E+01 8.54525E+00 0.00000E+00
 -1      2812 9.51750E+01 9.84425E+00 0.00000E+00
 -1      2813 1.00425E+02 8.54525E+00 0.00000E+00
 -1      2814 9.89250E+01 8.54525E+00 0.00000E+00
 -1      2815 9.81750E+01 9.84425E+00 0.00000E+00
 -1      2816 1.03425E+02 8.54525E+00 0.00000E+00
 -1      2817 1.01925E+02 8.54525E+00 0.00000E+00
 -1      2818 1.01175E+02 9.84425E+00 0.00000E+00
 -1      2819 1.06425E+02 8.54525E+00 0.00000E+00
 -1      2820 1.04925E+02 8.54525E+00 0.00000E+00
 -1      2821 1.04175E+02 9.84425E+00 0.00000E+00
 -1      2822 1.09425E+02 8.54525E+00 0.00000E+00
 -1      2823 1.07925E+02 8.54525E+00 0.00000E+00
 -1      2824 1.07175E+02 9.84425E+00 0.00000E+00
 -1      2825 1.12275E+02 8.54525E+00 0.00000E+00
 -1      2826 1.10850E+02 8.54525E+00 0.00000E+00
 -1      2827 1.10100E+02 9.84425E+00 0.00000E+00
 -1      2828 1.15275E+02 8.54525E+00 0.00000E+00
 -1      2829 1.13775E+02 8.54525E+00 0.00000E+00
 -1      2830 1.13025E+02 9.84425E+00 0.00000E+00
 -1      2831 1.18275E+02 8.54525E+00 0.00000E+00
 -1      2832 1.16775E+02 8.54525E+00 0.00000E+00
 -1      2833 1.16025E+02 9.84425E+00 0.00000E+00
 -1      2834 1.21275E+02 8.54525E+00 0.00000E+00
 -1      2835 1.19775E+02 8.54525E+00 0.00000E+00
 -1      2836 1.19025E+02 9.84425E+00 0.00000E+00
 -1      2837 1.24275E+02 8.54525E+00 0.00000E+00
 -1      2838 1.22775E+02 8.54525E+00 0.00000E+00
 -1      2839 1.22025E+02 9.84425E+00 0.00000E+00
 -1      2840 1.27275E+02 8.54525E+00 0.00000E+00
 -1      2841 1.25775E+02 8.54525E+00 0.00000E+00
 -1      2842 1.25025E+02 9.84425E+00 0.00000E+00
 -1      2843 1.30125E+02 8.54525E+00 0.00000E+00
 -1      2844 1.28700E+02 8.54525E+00 0.00000E+00
 -1      2845 1.27950E+02 9.84425E+00 0.00000E+00
 -1      2846 1.33125E+02 8.54525E+00 0.00000E+00
 -1      2847 1.31625E+02 8.54525E+00 0.00000E+00
 -1      2848 1.30875E+02 9.84425E+00 0.00000E+00
 -1      2849 1.36125E+02 8.54525E+00 0.00000E+00
 -1      2850 1.34625E+02 8.54525E+00 0.00000E+00
 -1      2851 1.33875E+02 9.84425E+00 0.00000E+00
 -1      2852 1.39125E+02 8.54525E+00 0.00000E+00
 -1      2853 1.37625E+02 8.54525E+00 0.00000E+00
 -1      2854 1.36875E+02 9.84425E+00 0.00000E+00
 -1      2855 1.41332E+02 9.14739E+00 0.00000E+00
 -1      2856 1.40099E+02 8.74645E+00 0.00000E+00
 -1      2857 1.39349E+02 1.00455E+01 0.00000E+00
 -1      2858 1.41298E+02 1.04479E+01 0.00000E+00
 -1      2859 1.40907E+02 2.42875E+01 0.00000E+00
 -1      2860 1.40907E+02 2.28125E+01 0.00000E+00
 -1      2861 7.23209E+01 9.19353E+00 0.00000E+00
 -1      2862 7.27442E+01 1.03542E+01 0.00000E+00
 -1      2863 7.35380E+01 1.43788E+01 0.00000E+00
 -1      2864 7.34396E+01 1.54526E+01 0.00000E+00
 -1      2865 1.40907E+02 2.13375E+01 0.00000E+00
 -1      2866 1.40907E+02 1.98625E+01 0.00000E+00
 -1      2867 1.39608E+02 2.20750E+01 0.00000E+00
 -1      2868 1.40907E+02 3.01500E+01 0.00000E+00
 -1      2869 1.40907E+02 2.87000E+01 0.00000E+00
 -1      2870 1.40907E+02 3.31000E+01 0.00000E+00
 -1      2871 1.40907E+02 3.16250E+01 0.00000E+00
 -1      2872 1.39608E+02 3.09000E+01 0.00000E+00
 -1      2873 1.40907E+02 3.60500E+01 0.00000E+00
 -1      2874 1.40907E+02 3.45750E+01 0.00000E+00
 -1      2875 1.39608E+02 3.38500E+01 0.00000E+00
 -1      2876 1.86000E+01 9.09300E+00 0.00000E+00
 -1      2877 1.71000E+01 9.09300E+00 0.00000E+00
 -1      2878 1.93500E+01 1.03920E+01 0.00000E+00
 -1      2879 1.41192E+02 3.96958E+01 0.00000E+00
 -1      2880 9.25425E+00 4.07069E+01 0.00000E+00
 -1      2881 1.06178E+01 4.09709E+01 0.00000E+00
 -1      2882 9.22200E+00 3.94717E+01 0.00000E+00
 -1      2883 1.40907E+02 2.72313E+01 0.00000E+00
 -1      2884 1.40907E+02 2.57563E+01 0.00000E+00
 -1      2885 1.39608E+02 2.50187E+01 0.00000E+00
 -1      2886 1.39608E+02 2.79562E+01 0.00000E+00
 -1      2887 7.16014E+01 8.05678E+00 0.00000E+00
 -1      2888 7.30727E+01 1.15893E+01 0.00000E+00
 -1      2889 7.34012E+01 1.28244E+01 0.00000E+00
 -1      2890 7.38241E+01 1.06577E+01 0.00000E+00
 -1      2891 8.25750E+01 8.54525E+00 0.00000E+00
 -1      2892 8.10750E+01 8.54525E+00 0.00000E+00
 -1      2893 8.03250E+01 9.84425E+00 0.00000E+00
 -1      2894 5.92814E+01 2.65015E+01 0.00000E+00
 -1      2895 5.80895E+01 2.62109E+01 0.00000E+00
 -1      2896 1.17589E+01 4.09389E+01 0.00000E+00
 -1      2897 1.32589E+01 4.09389E+01 0.00000E+00
 -1      2898 1.40089E+01 3.96399E+01 0.00000E+00
 -1      2899 1.17266E+01 3.97038E+01 0.00000E+00
 -1      2900 6.86983E+01 2.47876E+01 0.00000E+00
 -1      2901 6.78017E+01 2.56191E+01 0.00000E+00
 -1      2902 9.09300E+00 1.68813E+01 0.00000E+00
 -1      2903 9.09300E+00 1.83563E+01 0.00000E+00
 -1      2904 1.03920E+01 1.90812E+01 0.00000E+00
 -1      2905 1.03920E+01 1.61437E+01 0.00000E+00
 -1      2906 6.62213E+01 2.61965E+01 0.00000E+00
 -1      2907 6.50592E+01 2.64798E+01 0.00000E+00
 -1      2908 4.95006E+01 1.34480E+01 0.00000E+00
 -1      2909 4.96524E+01 1.24702E+01 0.00000E+00
 -1      2910 7.16250E+01 2.12493E+01 0.00000E+00
 -1      2911 7.08580E+01 2.21475E+01 0.00000E+00
 -1      2912 5.09425E+01 2.09929E+01 0.00000E+00
 -1      2913 5.04806E+01 2.02051E+01 0.00000E+00
 -1      2914 6.37208E+01 2.66674E+01 0.00000E+00
 -1      2915 6.25476E+01 2.67117E+01 0.00000E+00
 -1      2916 9.09300E+00 3.15875E+01 0.00000E+00
 -1      2917 9.09300E+00 3.30625E+01 0.00000E+00
 -1      2918 5.69028E+01 2.57395E+01 0.00000E+00
 -1      2919 5.60658E+01 2.53056E+01 0.00000E+00
 -1      2920 4.90649E+01 1.58763E+01 0.00000E+00
 -1      2921 4.92828E+01 1.46621E+01 0.00000E+00
 -1      2922 4.84285E+01 1.40289E+01 0.00000E+00
 -1      2923 6.14373E+01 2.67182E+01 0.00000E+00
 -1      2924 6.05132E+01 2.66865E+01 0.00000E+00
 -1      2925 7.01432E+01 2.29070E+01 0.00000E+00
 -1      2926 6.94283E+01 2.36664E+01 0.00000E+00
 -1      2927 7.11788E+01 2.30147E+01 0.00000E+00
 -1      2928 4.92277E+01 9.17900E+00 0.00000E+00
 -1      2929 1.03920E+01 2.49750E+01 0.00000E+00
 -1      2930 9.09300E+00 2.57000E+01 0.00000E+00
 -1      2931 9.09300E+00 2.71750E+01 0.00000E+00
 -1      2932 1.23840E+01 8.74125E+00 0.00000E+00
 -1      2933 1.21327E+01 9.74175E+00 0.00000E+00
 -1      2934 1.36222E+01 8.75900E+00 0.00000E+00
 -1      2935 7.38259E+01 1.85746E+01 0.00000E+00
 -1      2936 7.27805E+01 2.10688E+01 0.00000E+00
 -1      2937 1.40907E+02 1.54531E+01 0.00000E+00
 -1      2938 1.40907E+02 1.39844E+01 0.00000E+00
 -1      2939 6.45050E+01 2.73589E+01 0.00000E+00
 -1      2940 8.33250E+01 9.84425E+00 0.00000E+00
 -1      2941 7.42053E+01 1.61342E+01 0.00000E+00
 -1      2942 1.41192E+02 3.82207E+01 0.00000E+00
 -1      2943 4.83375E+01 8.81913E+00 0.00000E+00
 -1      2944 4.69125E+01 8.81913E+00 0.00000E+00
 -1      2945 7.27761E+01 8.28587E+00 0.00000E+00
 -1      2946 1.40907E+02 1.83906E+01 0.00000E+00
 -1      2947 1.40907E+02 1.69219E+01 0.00000E+00
 -1      2948 1.39608E+02 1.61875E+01 0.00000E+00
 -1      2949 6.74237E+01 2.65939E+01 0.00000E+00
 -1      2950 6.70457E+01 2.75687E+01 0.00000E+00
 -1      2951 6.86260E+01 2.69912E+01 0.00000E+00
 -1      2952 1.39529E+02 3.85665E+01 0.00000E+00
 -1      2953 1.40542E+02 3.71208E+01 0.00000E+00
 -1      2954 1.39243E+02 3.63957E+01 0.00000E+00
 -1      2955 1.38514E+02 3.85373E+01 0.00000E+00
 -1      2956 1.39608E+02 1.91281E+01 0.00000E+00
 -1      2957 4.62000E+01 1.01181E+01 0.00000E+00
 -1      2958 5.10345E+01 2.18145E+01 0.00000E+00
 -1      2959 5.00638E+01 2.18544E+01 0.00000E+00
 -1      2960 5.11265E+01 2.26362E+01 0.00000E+00
 -1      2961 7.65750E+01 8.52273E+00 0.00000E+00
 -1      2962 7.50750E+01 8.52273E+00 0.00000E+00
 -1      2963 4.86349E+01 1.68183E+01 0.00000E+00
 -1      2964 4.77806E+01 1.61850E+01 0.00000E+00
 -1      2965 4.82049E+01 1.77603E+01 0.00000E+00
 -1      2966 4.95155E+01 1.97131E+01 0.00000E+00
 -1      2967 5.72956E+01 2.67180E+01 0.00000E+00
 -1      2968 5.52475E+01 2.53167E+01 0.00000E+00
 -1      2969 5.44293E+01 2.53278E+01 0.00000E+00
 -1      2970 5.52906E+01 2.62578E+01 0.00000E+00
 -1      2971 9.09300E+00 3.45313E+01 0.00000E+00
 -1      2972 9.09300E+00 3.60000E+01 0.00000E+00
 -1      2973 1.03920E+01 3.37938E+01 0.00000E+00
 -1      2974 1.41086E+02 1.28664E+01 0.00000E+00
 -1      2975 1.41119E+02 1.15659E+01 0.00000E+00
 -1      2976 1.40145E+02 1.13647E+01 0.00000E+00
 -1      2977 1.39787E+02 1.36007E+01 0.00000E+00
 -1      2978 5.33520E+01 2.43377E+01 0.00000E+00
 -1      2979 5.32418E+01 2.34915E+01 0.00000E+00
 -1      2980 5.22074E+01 2.34425E+01 0.00000E+00
 -1      2981 7.39103E+01 8.33444E+00 0.00000E+00
 -1      2982 9.09300E+00 2.86437E+01 0.00000E+00
 -1      2983 9.09300E+00 3.01187E+01 0.00000E+00
 -1      2984 1.03920E+01 3.08563E+01 0.00000E+00
 -1      2985 1.03920E+01 2.79188E+01 0.00000E+00
 -1      2986 7.46603E+01 9.61092E+00 0.00000E+00
 -1      2987 5.97141E+01 2.73744E+01 0.00000E+00
 -1      2988 4.90259E+01 1.16894E+01 0.00000E+00
 -1      2989 4.85152E+01 1.02041E+01 0.00000E+00
 -1      2990 6.20563E+01 2.75529E+01 0.00000E+00
 -1      2991 6.97340E+01 2.48953E+01 0.00000E+00
 -1      2992 1.59803E+01 8.93487E+00 0.00000E+00
 -1      2993 1.47420E+01 8.91712E+00 0.00000E+00
 -1      2994 1.44908E+01 9.91763E+00 0.00000E+00
 -1      2995 1.67302E+01 1.02339E+01 0.00000E+00
 -1      2996 7.73250E+01 9.82173E+00 0.00000E+00
 -1      2997 1.18815E+01 1.07423E+01 0.00000E+00
 -1      2998 1.16302E+01 1.17428E+01 0.00000E+00
 -1      2999 1.31198E+01 1.07600E+01 0.00000E+00
 -1      3000 1.16302E+01 1.32177E+01 0.00000E+00
 -1      3001 6.53048E+01 2.81973E+01 0.00000E+00
 -1      3002 6.39664E+01 2.83849E+01 0.00000E+00
 -1      3003 7.49888E+01 1.08460E+01 0.00000E+00
 -1      3004 7.40451E+01 2.10893E+01 0.00000E+00
 -1      3005 7.31582E+01 2.22758E+01 0.00000E+00
 -1      3006 1.89000E+01 3.83090E+01 0.00000E+00
 -1      3007 2.04000E+01 3.83090E+01 0.00000E+00
 -1      3008 2.19000E+01 3.83090E+01 0.00000E+00
 -1      3009 2.34000E+01 3.83090E+01 0.00000E+00
 -1      3010 2.11500E+01 3.70100E+01 0.00000E+00
 -1      3011 2.49000E+01 3.83090E+01 0.00000E+00
 -1      3012 2.64000E+01 3.83090E+01 0.00000E+00
 -1      3013 2.41500E+01 3.70100E+01 0.00000E+00
 -1      3014 2.79000E+01 3.83090E+01 0.00000E+00
 -1      3015 2.94000E+01 3.83090E+01 0.00000E+00
 -1      3016 2.71500E+01 3.70100E+01 0.00000E+00
 -1      3017 3.09000E+01 3.83090E+01 0.00000E+00
 -1      3018 3.24000E+01 3.83090E+01 0.00000E+00
 -1      3019 3.01500E+01 3.70100E+01 0.00000E+00
 -1      3020 3.39000E+01 3.83090E+01 0.00000E+00
 -1      3021 3.54000E+01 3.83090E+01 0.00000E+00
 -1      3022 3.31500E+01 3.70100E+01 0.00000E+00
 -1      3023 3.69000E+01 3.83090E+01 0.00000E+00
 -1      3024 3.84000E+01 3.83090E+01 0.00000E+00
 -1      3025 3.61500E+01 3.70100E+01 0.00000E+00
 -1      3026 3.99000E+01 3.83090E+01 0.00000E+00
 -1      3027 4.14000E+01 3.83090E+01 0.00000E+00
 -1      3028 3.91500E+01 3.70100E+01 0.00000E+00
 -1      3029 4.29000E+01 3.83090E+01 0.00000E+00
 -1      3030 4.44000E+01 3.83090E+01 0.00000E+00
 -1      3031 4.21500E+01 3.70100E+01 0.00000E+00
 -1      3032 4.59000E+01 3.83090E+01 0.00000E+00
 -1      3033 4.74000E+01 3.83090E+01 0.00000E+00
 -1      3034 4.51500E+01 3.70100E+01 0.00000E+00
 -1      3035 4.89000E+01 3.83090E+01 0.00000E+00
 -1      3036 5.04000E+01 3.83090E+01 0.00000E+00
 -1      3037 4.81500E+01 3.70100E+01 0.00000E+00
 -1      3038 5.19000E+01 3.83090E+01 0.00000E+00
 -1      3039 5.34000E+01 3.83090E+01 0.00000E+00
 -1      3040 5.11500E+01 3.70100E+01 0.00000E+00
 -1      3041 5.49000E+01 3.83090E+01 0.00000E+00
 -1      3042 5.64000E+01 3.83090E+01 0.00000E+00
 -1      3043 5.41500E+01 3.70100E+01 0.00000E+00
 -1      3044 5.79000E+01 3.83090E+01 0.00000E+00
 -1      3045 5.94000E+01 3.83090E+01 0.00000E+00
 -1      3046 5.71500E+01 3.70100E+01 0.00000E+00
 -1      3047 6.09000E+01 3.83090E+01 0.00000E+00
 -1      3048 6.24000E+01 3.83090E+01 0.00000E+00
 -1      3049 6.01500E+01 3.70100E+01 0.00000E+00
 -1      3050 6.39000E+01 3.83090E+01 0.00000E+00
 -1      3051 6.54000E+01 3.83090E+01 0.00000E+00
 -1      3052 6.31500E+01 3.70100E+01 0.00000E+00
 -1      3053 6.69000E+01 3.83090E+01 0.00000E+00
 -1      3054 6.84000E+01 3.83090E+01 0.00000E+00
 -1      3055 6.61500E+01 3.70100E+01 0.00000E+00
 -1      3056 6.99000E+01 3.83090E+01 0.00000E+00
 -1      3057 7.14000E+01 3.83090E+01 0.00000E+00
 -1      3058 6.91500E+01 3.70100E+01 0.00000E+00
 -1      3059 7.29000E+01 3.83090E+01 0.00000E+00
 -1      3060 7.44000E+01 3.83090E+01 0.00000E+00
 -1      3061 7.21500E+01 3.70100E+01 0.00000E+00
 -1      3062 7.59000E+01 3.83090E+01 0.00000E+00
 -1      3063 7.74000E+01 3.83090E+01 0.00000E+00
 -1      3064 7.51500E+01 3.70100E+01 0.00000E+00
 -1      3065 7.89000E+01 3.83090E+01 0.00000E+00
 -1      3066 8.04000E+01 3.83090E+01 0.00000E+00
 -1      3067 7.81500E+01 3.70100E+01 0.00000E+00
 -1      3068 8.19000E+01 3.83090E+01 0.00000E+00
 -1      3069 8.34000E+01 3.83090E+01 0.00000E+00
 -1      3070 8.11500E+01 3.70100E+01 0.00000E+00
 -1      3071 8.49000E+01 3.83090E+01 0.00000E+00
 -1      3072 8.64000E+01 3.83090E+01 0.00000E+00
 -1      3073 8.41500E+01 3.70100E+01 0.00000E+00
 -1      3074 8.79000E+01 3.83090E+01 0.00000E+00
 -1      3075 8.94000E+01 3.83090E+01 0.00000E+00
 -1      3076 8.71500E+01 3.70100E+01 0.00000E+00
 -1      3077 9.09000E+01 3.83090E+01 0.00000E+00
 -1      3078 9.24000E+01 3.83090E+01 0.00000E+00
 -1      3079 9.01500E+01 3.70100E+01 0.00000E+00
 -1      3080 9.39000E+01 3.83090E+01 0.00000E+00
 -1      3081 9.54000E+01 3.83090E+01 0.00000E+00
 -1      3082 9.31500E+01 3.70100E+01 0.00000E+00
 -1      3083 9.69000E+01 3.83090E+01 0.00000E+00
 -1      3084 9.84000E+01 3.83090E+01 0.00000E+00
 -1      3085 9.61500E+01 3.70100E+01 0.00000E+00
 -1      3086 9.99000E+01 3.83090E+01 0.00000E+00
 -1      3087 1.01400E+02 3.83090E+01 0.00000E+00
 -1      3088 9.91500E+01 3.70100E+01 0.00000E+00
 -1      3089 1.02900E+02 3.83090E+01 0.00000E+00
 -1      3090 1.04400E+02 3.83090E+01 0.00000E+00
 -1      3091 1.02150E+02 3.70100E+01 0.00000E+00
 -1      3092 1.05900E+02 3.83090E+01 0.00000E+00
 -1      3093 1.07400E+02 3.83090E+01 0.00000E+00
 -1      3094 1.05150E+02 3.70100E+01 0.00000E+00
 -1      3095 1.08900E+02 3.83090E+01 0.00000E+00
 -1      3096 1.10400E+02 3.83090E+01 0.00000E+00
 -1      3097 1.08150E+02 3.70100E+01 0.00000E+00
 -1      3098 1.11900E+02 3.83090E+01 0.00000E+00
 -1      3099 1.13400E+02 3.83090E+01 0.00000E+00
 -1      3100 1.11150E+02 3.70100E+01 0.00000E+00
 -1      3101 1.14900E+02 3.83090E+01 0.00000E+00
 -1      3102 1.16400E+02 3.83090E+01 0.00000E+00
 -1      3103 1.14150E+02 3.70100E+01 0.00000E+00
 -1      3104 1.17900E+02 3.83090E+01 0.00000E+00
 -1      3105 1.19400E+02 3.83090E+01 0.00000E+00
 -1      3106 1.17150E+02 3.70100E+01 0.00000E+00
 -1      3107 1.20900E+02 3.83090E+01 0.00000E+00
 -1      3108 1.22400E+02 3.83090E+01 0.00000E+00
 -1      3109 1.20150E+02 3.70100E+01 0.00000E+00
 -1      3110 1.23900E+02 3.83090E+01 0.00000E+00
 -1      3111 1.25400E+02 3.83090E+01 0.00000E+00
 -1      3112 1.23150E+02 3.70100E+01 0.00000E+00
 -1      3113 1.26900E+02 3.83090E+01 0.00000E+00
 -1      3114 1.28400E+02 3.83090E+01 0.00000E+00
 -1      3115 1.26150E+02 3.70100E+01 0.00000E+00
 -1      3116 1.29900E+02 3.83090E+01 0.00000E+00
 -1      3117 1.31400E+02 3.83090E+01 0.00000E+00
 -1      3118 1.29150E+02 3.70100E+01 0.00000E+00
 -1      3119 1.32900E+02 3.83090E+01 0.00000E+00
 -1      3120 1.34400E+02 3.83090E+01 0.00000E+00
 -1      3121 1.32150E+02 3.70100E+01 0.00000E+00
 -1      3122 1.35707E+02 3.84231E+01 0.00000E+00
 -1      3123 1.37207E+02 3.84231E+01 0.00000E+00
 -1      3124 1.37572E+02 3.73524E+01 0.00000E+00
 -1      3125 1.34957E+02 3.71241E+01 0.00000E+00
 -1      3126 6.26164E+01 2.84072E+01 0.00000E+00
 -1      3127 6.15061E+01 2.84137E+01 0.00000E+00
 -1      3128 3.50250E+01 1.16910E+01 0.00000E+00
 -1      3129 3.35250E+01 1.16910E+01 0.00000E+00
 -1      3130 3.20250E+01 1.16910E+01 0.00000E+00
 -1      3131 3.05250E+01 1.16910E+01 0.00000E+00
 -1      3132 3.27750E+01 1.29900E+01 0.00000E+00
 -1      3133 4.10250E+01 1.16910E+01 0.00000E+00
 -1      3134 3.95250E+01 1.16910E+01 0.00000E+00
 -1      3135 4.40250E+01 1.16910E+01 0.00000E+00
 -1      3136 4.25250E+01 1.16910E+01 0.00000E+00
 -1      3137 4.17750E+01 1.29900E+01 0.00000E+00
 -1      3138 1.38309E+02 1.98641E+01 0.00000E+00
 -1      3139 1.38309E+02 1.83922E+01 0.00000E+00
 -1      3140 2.31000E+01 1.16910E+01 0.00000E+00
 -1      3141 2.16000E+01 1.16910E+01 0.00000E+00
 -1      3142 9.00750E+01 1.11433E+01 0.00000E+00
 -1      3143 8.85750E+01 1.11433E+01 0.00000E+00
 -1      3144 9.29250E+01 1.11433E+01 0.00000E+00
 -1      3145 9.15000E+01 1.11433E+01 0.00000E+00
 -1      3146 9.07500E+01 1.24423E+01 0.00000E+00
 -1      3147 7.44444E+01 1.28970E+01 0.00000E+00
 -1      3148 7.36930E+01 1.38286E+01 0.00000E+00
 -1      3149 8.70750E+01 1.11433E+01 0.00000E+00
 -1      3150 8.55750E+01 1.11433E+01 0.00000E+00
 -1      3151 8.78250E+01 1.24423E+01 0.00000E+00
 -1      3152 9.59250E+01 1.11433E+01 0.00000E+00
 -1      3153 9.44250E+01 1.11433E+01 0.00000E+00
 -1      3154 9.36750E+01 1.24423E+01 0.00000E+00
 -1      3155 9.89250E+01 1.11433E+01 0.00000E+00
 -1      3156 9.74250E+01 1.11433E+01 0.00000E+00
 -1      3157 9.66750E+01 1.24423E+01 0.00000E+00
 -1      3158 1.01925E+02 1.11433E+01 0.00000E+00
 -1      3159 1.00425E+02 1.11433E+01 0.00000E+00
 -1      3160 9.96750E+01 1.24423E+01 0.00000E+00
 -1      3161 1.04925E+02 1.11433E+01 0.00000E+00
 -1      3162 1.03425E+02 1.11433E+01 0.00000E+00
 -1      3163 1.02675E+02 1.24423E+01 0.00000E+00
 -1      3164 1.07925E+02 1.11433E+01 0.00000E+00
 -1      3165 1.06425E+02 1.11433E+01 0.00000E+00
 -1      3166 1.05675E+02 1.24423E+01 0.00000E+00
 -1      3167 1.10775E+02 1.11433E+01 0.00000E+00
 -1      3168 1.09350E+02 1.11433E+01 0.00000E+00
 -1      3169 1.08600E+02 1.24423E+01 0.00000E+00
 -1      3170 1.13775E+02 1.11433E+01 0.00000E+00
 -1      3171 1.12275E+02 1.11433E+01 0.00000E+00
 -1      3172 1.11525E+02 1.24423E+01 0.00000E+00
 -1      3173 1.16775E+02 1.11433E+01 0.00000E+00
 -1      3174 1.15275E+02 1.11433E+01 0.00000E+00
 -1      3175 1.14525E+02 1.24423E+01 0.00000E+00
 -1      3176 1.19775E+02 1.11433E+01 0.00000E+00
 -1      3177 1.18275E+02 1.11433E+01 0.00000E+00
 -1      3178 1.17525E+02 1.24423E+01 0.00000E+00
 -1      3179 1.22775E+02 1.11433E+01 0.00000E+00
 -1      3180 1.21275E+02 1.11433E+01 0.00000E+00
 -1      3181 1.20525E+02 1.24423E+01 0.00000E+00
 -1      3182 1.25775E+02 1.11433E+01 0.00000E+00
 -1      3183 1.24275E+02 1.11433E+01 0.00000E+00
 -1      3184 1.23525E+02 1.24423E+01 0.00000E+00
 -1      3185 1.28625E+02 1.11433E+01 0.00000E+00
 -1      3186 1.27200E+02 1.11433E+01 0.00000E+00
 -1      3187 1.26450E+02 1.24423E+01 0.00000E+00
 -1      3188 1.31625E+02 1.11433E+01 0.00000E+00
 -1      3189 1.30125E+02 1.11433E+01 0.00000E+00
 -1      3190 1.29375E+02 1.24423E+01 0.00000E+00
 -1      3191 1.34625E+02 1.11433E+01 0.00000E+00
 -1      3192 1.33125E+02 1.11433E+01 0.00000E+00
 -1      3193 1.32375E+02 1.24423E+01 0.00000E+00
 -1      3194 1.37625E+02 1.11433E+01 0.00000E+00
 -1      3195 1.36125E+02 1.11433E+01 0.00000E+00
 -1      3196 1.35375E+02 1.24423E+01 0.00000E+00
 -1      3197 4.71218E+01 1.10702E+01 0.00000E+00
 -1      3198 4.56968E+01 1.13440E+01 0.00000E+00
 -1      3199 8.10750E+01 1.10369E+01 0.00000E+00
 -1      3200 7.95750E+01 1.10369E+01 0.00000E+00
 -1      3201 1.38309E+02 3.45875E+01 0.00000E+00
 -1      3202 1.38309E+02 3.31125E+01 0.00000E+00
 -1      3203 1.38309E+02 3.16375E+01 0.00000E+00
 -1      3204 1.38309E+02 3.01625E+01 0.00000E+00
 -1      3205 1.37010E+02 3.23750E+01 0.00000E+00
 -1      3206 2.01000E+01 1.16910E+01 0.00000E+00
 -1      3207 1.86000E+01 1.16910E+01 0.00000E+00
 -1      3208 2.08500E+01 1.29900E+01 0.00000E+00
 -1      3209 9.14137E+00 3.71183E+01 0.00000E+00
 -1      3210 9.17362E+00 3.83534E+01 0.00000E+00
 -1      3211 1.05371E+01 3.86174E+01 0.00000E+00
 -1      3212 1.04404E+01 3.63808E+01 0.00000E+00
 -1      3213 8.40750E+01 1.11433E+01 0.00000E+00
 -1      3214 8.25750E+01 1.11433E+01 0.00000E+00
 -1      3215 8.48250E+01 1.24423E+01 0.00000E+00
 -1      3216 1.38309E+02 1.69234E+01 0.00000E+00
 -1      3217 1.38309E+02 1.54547E+01 0.00000E+00
 -1      3218 1.37010E+02 1.76594E+01 0.00000E+00
 -1      3219 4.88540E+01 2.06805E+01 0.00000E+00
 -1      3220 4.83977E+01 1.93609E+01 0.00000E+00
 -1      3221 6.01902E+01 2.83978E+01 0.00000E+00
 -1      3222 5.89584E+01 2.82127E+01 0.00000E+00
 -1      3223 7.53219E+01 1.57642E+01 0.00000E+00
 -1      3224 7.51009E+01 1.68968E+01 0.00000E+00
 -1      3225 7.80750E+01 1.10144E+01 0.00000E+00
 -1      3226 7.65750E+01 1.09919E+01 0.00000E+00
 -1      3227 7.88250E+01 1.22071E+01 0.00000E+00
 -1      3228 1.38309E+02 2.28141E+01 0.00000E+00
 -1      3229 1.38309E+02 2.13391E+01 0.00000E+00
 -1      3230 1.37010E+02 2.06031E+01 0.00000E+00
 -1      3231 3.80250E+01 1.16910E+01 0.00000E+00
 -1      3232 3.65250E+01 1.16910E+01 0.00000E+00
 -1      3233 3.87750E+01 1.29900E+01 0.00000E+00
 -1      3234 7.45812E+01 1.44514E+01 0.00000E+00
 -1      3235 1.16910E+01 2.12875E+01 0.00000E+00
 -1      3236 1.16910E+01 2.27625E+01 0.00000E+00
 -1      3237 4.76324E+01 1.25554E+01 0.00000E+00
 -1      3238 4.80120E+01 1.14300E+01 0.00000E+00
 -1      3239 5.75415E+01 2.78285E+01 0.00000E+00
 -1      3240 5.63547E+01 2.73572E+01 0.00000E+00
 -1      3241 4.71968E+01 1.49838E+01 0.00000E+00
 -1      3242 4.74146E+01 1.37696E+01 0.00000E+00
 -1      3243 4.64008E+01 1.35103E+01 0.00000E+00
 -1      3244 7.09580E+01 2.48941E+01 0.00000E+00
 -1      3245 7.02281E+01 2.60152E+01 0.00000E+00
 -1      3246 1.59000E+01 3.83090E+01 0.00000E+00
 -1      3247 1.74000E+01 3.83090E+01 0.00000E+00
 -1      3248 1.81500E+01 3.70100E+01 0.00000E+00
 -1      3249 7.49425E+01 1.82045E+01 0.00000E+00
 -1      3250 7.47840E+01 1.95123E+01 0.00000E+00
 -1      3251 7.60591E+01 1.78345E+01 0.00000E+00
 -1      3252 7.23877E+01 2.33752E+01 0.00000E+00
 -1      3253 7.16729E+01 2.41347E+01 0.00000E+00
 -1      3254 7.21670E+01 2.52546E+01 0.00000E+00
 -1      3255 7.57388E+01 1.20387E+01 0.00000E+00
 -1      3256 7.60306E+01 1.30429E+01 0.00000E+00
 -1      3257 6.65072E+01 2.85947E+01 0.00000E+00
 -1      3258 6.59686E+01 2.96207E+01 0.00000E+00
 -1      3259 6.77095E+01 2.89920E+01 0.00000E+00
 -1      3260 7.51617E+01 2.07193E+01 0.00000E+00
 -1      3261 7.55393E+01 2.19263E+01 0.00000E+00
 -1      3262 7.62783E+01 2.03493E+01 0.00000E+00
 -1      3263 6.07504E+01 2.92521E+01 0.00000E+00
 -1      3264 3.57750E+01 1.29900E+01 0.00000E+00
 -1      3265 6.34163E+01 2.92457E+01 0.00000E+00
 -1      3266 7.54841E+01 1.44088E+01 0.00000E+00
 -1      3267 7.53291E+01 1.49590E+01 0.00000E+00
 -1      3268 2.97938E+01 1.29900E+01 0.00000E+00
 -1      3269 2.90438E+01 1.16910E+01 0.00000E+00
 -1      3270 2.75625E+01 1.16910E+01 0.00000E+00
 -1      3271 4.68819E+01 1.96951E+01 0.00000E+00
 -1      3272 4.75434E+01 1.87277E+01 0.00000E+00
 -1      3273 4.66891E+01 1.80944E+01 0.00000E+00
 -1      3274 1.16910E+01 2.42375E+01 0.00000E+00
 -1      3275 1.16910E+01 2.57125E+01 0.00000E+00
 -1      3276 1.29900E+01 2.35000E+01 0.00000E+00
 -1      3277 4.90380E+01 2.23238E+01 0.00000E+00
 -1      3278 4.89460E+01 2.15022E+01 0.00000E+00
 -1      3279 4.78282E+01 2.11500E+01 0.00000E+00
 -1      3280 1.16910E+01 3.01219E+01 0.00000E+00
 -1      3281 1.16910E+01 3.15906E+01 0.00000E+00
 -1      3282 1.16299E+01 3.74672E+01 0.00000E+00
 -1      3283 1.16783E+01 3.85855E+01 0.00000E+00
 -1      3284 1.28194E+01 3.85536E+01 0.00000E+00
 -1      3285 2.60719E+01 1.16910E+01 0.00000E+00
 -1      3286 2.45906E+01 1.16910E+01 0.00000E+00
 -1      3287 2.38406E+01 1.29900E+01 0.00000E+00
 -1      3288 2.68219E+01 1.29900E+01 0.00000E+00
 -1      3289 1.36943E+02 1.43164E+01 0.00000E+00
 -1      3290 1.38242E+02 1.35805E+01 0.00000E+00
 -1      3291 4.49468E+01 1.26430E+01 0.00000E+00
 -1      3292 1.39170E+02 1.11635E+01 0.00000E+00
 -1      3293 5.33950E+01 2.52788E+01 0.00000E+00
 -1      3294 5.23607E+01 2.52297E+01 0.00000E+00
 -1      3295 5.34381E+01 2.62199E+01 0.00000E+00
 -1      3296 6.98501E+01 2.69900E+01 0.00000E+00
 -1      3297 6.94721E+01 2.79648E+01 0.00000E+00
 -1      3298 7.10741E+01 2.69888E+01 0.00000E+00
 -1      3299 1.78500E+01 1.29900E+01 0.00000E+00
 -1      3300 1.71000E+01 1.16910E+01 0.00000E+00
 -1      3301 7.62248E+01 1.57216E+01 0.00000E+00
 -1      3302 1.37010E+02 2.94312E+01 0.00000E+00
 -1      3303 1.38309E+02 2.86938E+01 0.00000E+00
 -1      3304 1.38309E+02 2.72250E+01 0.00000E+00
 -1      3305 4.67668E+01 1.59257E+01 0.00000E+00
 -1      3306 5.12367E+01 2.34823E+01 0.00000E+00
 -1      3307 5.02660E+01 2.35222E+01 0.00000E+00
 -1      3308 5.13469E+01 2.43285E+01 0.00000E+00
 -1      3309 5.80175E+01 2.88519E+01 0.00000E+00
 -1      3310 5.55365E+01 2.73683E+01 0.00000E+00
 -1      3311 5.47183E+01 2.73794E+01 0.00000E+00
 -1      3312 5.57824E+01 2.84788E+01 0.00000E+00
 -1      3313 1.16910E+01 3.30594E+01 0.00000E+00
 -1      3314 1.16910E+01 3.45281E+01 0.00000E+00
 -1      3315 1.29900E+01 3.23250E+01 0.00000E+00
 -1      3316 1.38420E+02 1.24625E+01 0.00000E+00
 -1      3317 8.18250E+01 1.23359E+01 0.00000E+00
 -1      3318 1.38309E+02 2.57539E+01 0.00000E+00
 -1      3319 1.38309E+02 2.42852E+01 0.00000E+00
 -1      3320 1.37010E+02 2.35492E+01 0.00000E+00
 -1      3321 1.37010E+02 2.64914E+01 0.00000E+00
 -1      3322 7.36523E+01 2.33957E+01 0.00000E+00
 -1      3323 7.67785E+01 1.35505E+01 0.00000E+00
 -1      3324 1.32393E+01 1.33303E+01 0.00000E+00
 -1      3325 1.20010E+01 1.47875E+01 0.00000E+00
 -1      3326 1.59803E+01 1.15329E+01 0.00000E+00
 -1      3327 1.16910E+01 1.98188E+01 0.00000E+00
 -1      3328 1.29900E+01 2.05562E+01 0.00000E+00
 -1      3329 1.16910E+01 1.83500E+01 0.00000E+00
 -1      3330 1.37758E+02 3.65053E+01 0.00000E+00
 -1      3331 1.38123E+02 3.54346E+01 0.00000E+00
 -1      3332 1.36824E+02 3.46971E+01 0.00000E+00
 -1      3333 1.36451E+02 3.63912E+01 0.00000E+00
 -1      3334 1.39605E+01 3.85216E+01 0.00000E+00
 -1      3335 1.20010E+01 1.62563E+01 0.00000E+00
 -1      3336 1.47105E+01 3.72226E+01 0.00000E+00
 -1      3337 2.04000E+01 3.57110E+01 0.00000E+00
 -1      3338 2.19000E+01 3.57110E+01 0.00000E+00
 -1      3339 1.15815E+01 3.63489E+01 0.00000E+00
 -1      3340 2.34000E+01 3.57110E+01 0.00000E+00
 -1      3341 2.49000E+01 3.57110E+01 0.00000E+00
 -1      3342 2.26500E+01 3.44120E+01 0.00000E+00
 -1      3343 2.64000E+01 3.57110E+01 0.00000E+00
 -1      3344 2.79000E+01 3.57110E+01 0.00000E+00
 -1      3345 2.56500E+01 3.44120E+01 0.00000E+00
 -1      3346 2.94000E+01 3.57110E+01 0.00000E+00
 -1      3347 3.09000E+01 3.57110E+01 0.00000E+00
 -1      3348 2.86500E+01 3.44120E+01 0.00000E+00
 -1      3349 3.24000E+01 3.57110E+01 0.00000E+00
 -1      3350 3.39000E+01 3.57110E+01 0.00000E+00
 -1      3351 3.16500E+01 3.44120E+01 0.00000E+00
 -1      3352 3.54000E+01 3.57110E+01 0.00000E+00
 -1      3353 3.69000E+01 3.57110E+01 0.00000E+00
 -1      3354 3.46500E+01 3.44120E+01 0.00000E+00
 -1      3355 3.84000E+01 3.57110E+01 0.00000E+00
 -1      3356 3.99000E+01 3.57110E+01 0.00000E+00
 -1      3357 3.76500E+01 3.44120E+01 0.00000E+00
 -1      3358 4.14000E+01 3.57110E+01 0.00000E+00
 -1      3359 4.29000E+01 3.57110E+01 0.00000E+00
 -1      3360 4.06500E+01 3.44120E+01 0.00000E+00
 -1      3361 4.44000E+01 3.57110E+01 0.00000E+00
 -1      3362 4.59000E+01 3.57110E+01 0.00000E+00
 -1      3363 4.36500E+01 3.44120E+01 0.00000E+00
 -1      3364 4.74000E+01 3.57110E+01 0.00000E+00
 -1      3365 4.89000E+01 3.57110E+01 0.00000E+00
 -1      3366 4.66500E+01 3.44120E+01 0.00000E+00
 -1      3367 5.04000E+01 3.57110E+01 0.00000E+00
 -1      3368 5.19000E+01 3.57110E+01 0.00000E+00
 -1      3369 4.96500E+01 3.44120E+01 0.00000E+00
 -1      3370 5.34000E+01 3.57110E+01 0.00000E+00
 -1      3371 5.49000E+01 3.57110E+01 0.00000E+00
 -1      3372 5.26500E+01 3.44120E+01 0.00000E+00
 -1      3373 5.64000E+01 3.57110E+01 0.00000E+00
 -1      3374 5.79000E+01 3.57110E+01 0.00000E+00
 -1      3375 5.56500E+01 3.44120E+01 0.00000E+00
 -1      3376 5.94000E+01 3.57110E+01 0.00000E+00
 -1      3377 6.09000E+01 3.57110E+01 0.00000E+00
 -1      3378 5.86500E+01 3.44120E+01 0.00000E+00
 -1      3379 6.24000E+01 3.57110E+01 0.00000E+00
 -1      3380 6.39000E+01 3.57110E+01 0.00000E+00
 -1      3381 6.16500E+01 3.44120E+01 0.00000E+00
 -1      3382 6.54000E+01 3.57110E+01 0.00000E+00
 -1      3383 6.69000E+01 3.57110E+01 0.00000E+00
 -1      3384 6.46500E+01 3.44120E+01 0.00000E+00
 -1      3385 6.84000E+01 3.57110E+01 0.00000E+00
 -1      3386 6.99000E+01 3.57110E+01 0.00000E+00
 -1      3387 6.76500E+01 3.44120E+01 0.00000E+00
 -1      3388 7.14000E+01 3.57110E+01 0.00000E+00
 -1      3389 7.29000E+01 3.57110E+01 0.00000E+00
 -1      3390 7.06500E+01 3.44120E+01 0.00000E+00
 -1      3391 7.44000E+01 3.57110E+01 0.00000E+00
 -1      3392 7.59000E+01 3.57110E+01 0.00000E+00
 -1      3393 7.36500E+01 3.44120E+01 0.00000E+00
 -1      3394 7.74000E+01 3.57110E+01 0.00000E+00
 -1      3395 7.89000E+01 3.57110E+01 0.00000E+00
 -1      3396 7.66500E+01 3.44120E+01 0.00000E+00
 -1      3397 8.04000E+01 3.57110E+01 0.00000E+00
 -1      3398 8.19000E+01 3.57110E+01 0.00000E+00
 -1      3399 7.96500E+01 3.44120E+01 0.00000E+00
 -1      3400 8.34000E+01 3.57110E+01 0.00000E+00
 -1      3401 8.49000E+01 3.57110E+01 0.00000E+00
 -1      3402 8.26500E+01 3.44120E+01 0.00000E+00
 -1      3403 8.64000E+01 3.57110E+01 0.00000E+00
 -1      3404 8.79000E+01 3.57110E+01 0.00000E+00
 -1      3405 8.56500E+01 3.44120E+01 0.00000E+00
 -1      3406 8.94000E+01 3.57110E+01 0.00000E+00
 -1      3407 9.09000E+01 3.57110E+01 0.00000E+00
 -1      3408 8.86500E+01 3.44120E+01 0.00000E+00
 -1      3409 9.24000E+01 3.57110E+01 0.00000E+00
 -1      3410 9.39000E+01 3.57110E+01 0.00000E+00
 -1      3411 9.16500E+01 3.44120E+01 0.00000E+00
 -1      3412 9.54000E+01 3.57110E+01 0.00000E+00
 -1      3413 9.69000E+01 3.57110E+01 0.00000E+00
 -1      3414 9.46500E+01 3.44120E+01 0.00000E+00
 -1      3415 9.84000E+01 3.57110E+01 0.00000E+00
 -1      3416 9.99000E+01 3.57110E+01 0.00000E+00
 -1      3417 9.76500E+01 3.44120E+01 0.00000E+00
 -1      3418 1.01400E+02 3.57110E+01 0.00000E+00
 -1      3419 1.02900E+02 3.57110E+01 0.00000E+00
 -1      3420 1.00650E+02 3.44120E+01 0.00000E+00
 -1      3421 1.04400E+02 3.57110E+01 0.00000E+00
 -1      3422 1.05900E+02 3.57110E+01 0.00000E+00
 -1      3423 1.03650E+02 3.44120E+01 0.00000E+00
 -1      3424 1.07400E+02 3.57110E+01 0.00000E+00
 -1      3425 1.08900E+02 3.57110E+01 0.00000E+00
 -1      3426 1.06650E+02 3.44120E+01 0.00000E+00
 -1      3427 1.10400E+02 3.57110E+01 0.00000E+00
 -1      3428 1.11900E+02 3.57110E+01 0.00000E+00
 -1      3429 1.09650E+02 3.44120E+01 0.00000E+00
 -1      3430 1.13400E+02 3.57110E+01 0.00000E+00
 -1      3431 1.14900E+02 3.57110E+01 0.00000E+00
 -1      3432 1.12650E+02 3.44120E+01 0.00000E+00
 -1      3433 1.16400E+02 3.57110E+01 0.00000E+00
 -1      3434 1.17900E+02 3.57110E+01 0.00000E+00
 -1      3435 1.15650E+02 3.44120E+01 0.00000E+00
 -1      3436 1.19400E+02 3.57110E+01 0.00000E+00
 -1      3437 1.20900E+02 3.57110E+01 0.00000E+00
 -1      3438 1.18650E+02 3.44120E+01 0.00000E+00
 -1      3439 1.22400E+02 3.57110E+01 0.00000E+00
 -1      3440 1.23900E+02 3.57110E+01 0.00000E+00
 -1      3441 1.21650E+02 3.44120E+01 0.00000E+00
 -1      3442 1.25400E+02 3.57110E+01 0.00000E+00
 -1      3443 1.26900E+02 3.57110E+01 0.00000E+00
 -1      3444 1.24650E+02 3.44120E+01 0.00000E+00
 -1      3445 1.28400E+02 3.57110E+01 0.00000E+00
 -1      3446 1.29900E+02 3.57110E+01 0.00000E+00
 -1      3447 1.27650E+02 3.44120E+01 0.00000E+00
 -1      3448 1.31400E+02 3.57110E+01 0.00000E+00
 -1      3449 1.32900E+02 3.57110E+01 0.00000E+00
 -1      3450 1.30650E+02 3.44120E+01 0.00000E+00
 -1      3451 8.24907E+01 1.35788E+01 0.00000E+00
 -1      3452 8.09907E+01 1.34725E+01 0.00000E+00
 -1      3453 4.25250E+01 1.42890E+01 0.00000E+00
 -1      3454 4.10250E+01 1.42890E+01 0.00000E+00
 -1      3455 6.41082E+01 3.02595E+01 0.00000E+00
 -1      3456 6.27582E+01 3.02818E+01 0.00000E+00
 -1      3457 1.16910E+01 2.86531E+01 0.00000E+00
 -1      3458 1.29900E+01 2.93875E+01 0.00000E+00
 -1      3459 1.16910E+01 2.71844E+01 0.00000E+00
 -1      3460 1.33000E+01 1.69938E+01 0.00000E+00
 -1      3461 9.44250E+01 1.37413E+01 0.00000E+00
 -1      3462 9.29250E+01 1.37413E+01 0.00000E+00
 -1      3463 9.15000E+01 1.37413E+01 0.00000E+00
 -1      3464 9.00750E+01 1.37413E+01 0.00000E+00
 -1      3465 9.22500E+01 1.50403E+01 0.00000E+00
 -1      3466 4.47290E+01 1.38572E+01 0.00000E+00
 -1      3467 1.00425E+02 1.37413E+01 0.00000E+00
 -1      3468 9.89250E+01 1.37413E+01 0.00000E+00
 -1      3469 1.03425E+02 1.37413E+01 0.00000E+00
 -1      3470 1.01925E+02 1.37413E+01 0.00000E+00
 -1      3471 1.01175E+02 1.50403E+01 0.00000E+00
 -1      3472 1.06425E+02 1.37413E+01 0.00000E+00
 -1      3473 1.04925E+02 1.37413E+01 0.00000E+00
 -1      3474 1.04175E+02 1.50403E+01 0.00000E+00
 -1      3475 1.09275E+02 1.37413E+01 0.00000E+00
 -1      3476 1.07850E+02 1.37413E+01 0.00000E+00
 -1      3477 1.07100E+02 1.50403E+01 0.00000E+00
 -1      3478 1.12275E+02 1.37413E+01 0.00000E+00
 -1      3479 1.10775E+02 1.37413E+01 0.00000E+00
 -1      3480 1.10025E+02 1.50403E+01 0.00000E+00
 -1      3481 1.15275E+02 1.37413E+01 0.00000E+00
 -1      3482 1.13775E+02 1.37413E+01 0.00000E+00
 -1      3483 1.13025E+02 1.50403E+01 0.00000E+00
 -1      3484 1.18275E+02 1.37413E+01 0.00000E+00
 -1      3485 1.16775E+02 1.37413E+01 0.00000E+00
 -1      3486 1.16025E+02 1.50403E+01 0.00000E+00
 -1      3487 1.21275E+02 1.37413E+01 0.00000E+00
 -1      3488 1.19775E+02 1.37413E+01 0.00000E+00
 -1      3489 1.19025E+02 1.50403E+01 0.00000E+00
 -1      3490 1.24275E+02 1.37413E+01 0.00000E+00
 -1      3491 1.22775E+02 1.37413E+01 0.00000E+00
 -1      3492 1.22025E+02 1.50403E+01 0.00000E+00
 -1      3493 1.27125E+02 1.37413E+01 0.00000E+00
 -1      3494 1.25700E+02 1.37413E+01 0.00000E+00
 -1      3495 1.24950E+02 1.50403E+01 0.00000E+00
 -1      3496 1.30125E+02 1.37413E+01 0.00000E+00
 -1      3497 1.28625E+02 1.37413E+01 0.00000E+00
 -1      3498 1.27875E+02 1.50403E+01 0.00000E+00
 -1      3499 1.33125E+02 1.37413E+01 0.00000E+00
 -1      3500 1.31625E+02 1.37413E+01 0.00000E+00
 -1      3501 1.30875E+02 1.50403E+01 0.00000E+00
 -1      3502 1.35784E+02 1.40288E+01 0.00000E+00
 -1      3503 1.34284E+02 1.40288E+01 0.00000E+00
 -1      3504 1.33534E+02 1.53278E+01 0.00000E+00
 -1      3505 1.35851E+02 1.59030E+01 0.00000E+00
 -1      3506 1.35992E+01 3.60377E+01 0.00000E+00
 -1      3507 1.55387E+01 3.58251E+01 0.00000E+00
 -1      3508 6.14423E+01 3.02659E+01 0.00000E+00
 -1      3509 6.01264E+01 3.02500E+01 0.00000E+00
 -1      3510 6.21343E+01 3.12797E+01 0.00000E+00
 -1      3511 1.35711E+02 2.13406E+01 0.00000E+00
 -1      3512 1.35711E+02 1.98656E+01 0.00000E+00
 -1      3513 1.86000E+01 1.42890E+01 0.00000E+00
 -1      3514 1.71001E+01 1.42890E+01 0.00000E+00
 -1      3515 7.73373E+01 1.53290E+01 0.00000E+00
 -1      3516 7.73300E+01 1.61341E+01 0.00000E+00
 -1      3517 2.16000E+01 1.42890E+01 0.00000E+00
 -1      3518 2.01000E+01 1.42890E+01 0.00000E+00
 -1      3519 1.93501E+01 1.55880E+01 0.00000E+00
 -1      3520 3.65250E+01 1.42890E+01 0.00000E+00
 -1      3521 3.50250E+01 1.42890E+01 0.00000E+00
 -1      3522 1.42395E+01 1.09181E+01 0.00000E+00
 -1      3523 8.55750E+01 1.37413E+01 0.00000E+00
 -1      3524 8.40750E+01 1.37413E+01 0.00000E+00
 -1      3525 4.61052E+01 1.68931E+01 0.00000E+00
 -1      3526 4.55214E+01 1.56919E+01 0.00000E+00
 -1      3527 4.54437E+01 1.78606E+01 0.00000E+00
 -1      3528 1.35781E+02 1.86187E+01 0.00000E+00
 -1      3529 1.35781E+02 1.71500E+01 0.00000E+00
 -1      3530 1.34622E+02 1.68624E+01 0.00000E+00
 -1      3531 1.34482E+02 1.93562E+01 0.00000E+00
 -1      3532 7.49456E+01 2.34824E+01 0.00000E+00
 -1      3533 7.41752E+01 2.45818E+01 0.00000E+00
 -1      3534 1.35711E+02 3.31125E+01 0.00000E+00
 -1      3535 1.35711E+02 3.16375E+01 0.00000E+00
 -1      3536 5.84577E+01 3.00334E+01 0.00000E+00
 -1      3537 5.70408E+01 2.96492E+01 0.00000E+00
 -1      3538 7.34603E+01 2.53413E+01 0.00000E+00
 -1      3539 7.27455E+01 2.61007E+01 0.00000E+00
 -1      3540 7.47537E+01 2.54280E+01 0.00000E+00
 -1      3541 1.46093E+01 1.23753E+01 0.00000E+00
 -1      3542 1.49801E+01 1.39450E+01 0.00000E+00
 -1      3543 3.95250E+01 1.42890E+01 0.00000E+00
 -1      3544 3.80250E+01 1.42890E+01 0.00000E+00
 -1      3545 4.02750E+01 1.55880E+01 0.00000E+00
 -1      3546 4.39790E+01 1.51562E+01 0.00000E+00
 -1      3547 8.85750E+01 1.37413E+01 0.00000E+00
 -1      3548 8.70750E+01 1.37413E+01 0.00000E+00
 -1      3549 8.63250E+01 1.50403E+01 0.00000E+00
 -1      3550 7.71716E+01 1.74419E+01 0.00000E+00
 -1      3551 7.70131E+01 1.87497E+01 0.00000E+00
 -1      3552 7.82841E+01 1.70493E+01 0.00000E+00
 -1      3553 9.74250E+01 1.37413E+01 0.00000E+00
 -1      3554 9.59250E+01 1.37413E+01 0.00000E+00
 -1      3555 9.81750E+01 1.50403E+01 0.00000E+00
 -1      3556 1.74000E+01 3.57110E+01 0.00000E+00
 -1      3557 1.89000E+01 3.57110E+01 0.00000E+00
 -1      3558 1.96500E+01 3.44120E+01 0.00000E+00
 -1      3559 3.35250E+01 1.42890E+01 0.00000E+00
 -1      3560 3.20250E+01 1.42890E+01 0.00000E+00
 -1      3561 3.42750E+01 1.55880E+01 0.00000E+00
 -1      3562 7.78838E+01 1.39631E+01 0.00000E+00
 -1      3563 1.57301E+01 1.52440E+01 0.00000E+00
 -1      3564 1.28805E+01 3.56145E+01 0.00000E+00
 -1      3565 7.73908E+01 1.99567E+01 0.00000E+00
 -1      3566 7.77684E+01 2.11636E+01 0.00000E+00
 -1      3567 7.85033E+01 1.95640E+01 0.00000E+00
 -1      3568 7.60622E+01 2.31124E+01 0.00000E+00
 -1      3569 3.12938E+01 1.55880E+01 0.00000E+00
 -1      3570 3.05438E+01 1.42890E+01 0.00000E+00
 -1      3571 2.90625E+01 1.42890E+01 0.00000E+00
 -1      3572 8.32407E+01 1.48778E+01 0.00000E+00
 -1      3573 1.34022E+02 3.59940E+01 0.00000E+00
 -1      3574 1.35329E+02 3.61082E+01 0.00000E+00
 -1      3575 1.35515E+02 3.52611E+01 0.00000E+00
 -1      3576 1.33272E+02 3.46950E+01 0.00000E+00
 -1      3577 1.29900E+01 2.64469E+01 0.00000E+00
 -1      3578 4.66487E+01 2.09026E+01 0.00000E+00
 -1      3579 4.57944E+01 2.02693E+01 0.00000E+00
 -1      3580 1.42890E+01 2.27625E+01 0.00000E+00
 -1      3581 1.42890E+01 2.42375E+01 0.00000E+00
 -1      3582 1.42890E+01 2.86531E+01 0.00000E+00
 -1      3583 1.42890E+01 3.01219E+01 0.00000E+00
 -1      3584 4.91482E+01 2.31699E+01 0.00000E+00
 -1      3585 4.80304E+01 2.28177E+01 0.00000E+00
 -1      3586 4.92584E+01 2.40161E+01 0.00000E+00
 -1      3587 9.51750E+01 1.50403E+01 0.00000E+00
 -1      3588 8.93250E+01 1.50403E+01 0.00000E+00
 -1      3589 6.89336E+01 2.89908E+01 0.00000E+00
 -1      3590 6.83951E+01 3.00169E+01 0.00000E+00
 -1      3591 7.01576E+01 2.89896E+01 0.00000E+00
 -1      3592 5.91497E+01 3.10472E+01 0.00000E+00
 -1      3593 1.35711E+02 2.28117E+01 0.00000E+00
 -1      3594 1.34412E+02 2.20742E+01 0.00000E+00
 -1      3595 1.35711E+02 2.42828E+01 0.00000E+00
 -1      3596 5.36840E+01 2.73304E+01 0.00000E+00
 -1      3597 5.26496E+01 2.72813E+01 0.00000E+00
 -1      3598 5.39299E+01 2.84409E+01 0.00000E+00
 -1      3599 2.45813E+01 1.42890E+01 0.00000E+00
 -1      3600 2.30907E+01 1.42890E+01 0.00000E+00
 -1      3601 2.23407E+01 1.55880E+01 0.00000E+00
 -1      3602 7.23675E+01 2.70755E+01 0.00000E+00
 -1      3603 7.19895E+01 2.80503E+01 0.00000E+00
 -1      3604 7.36608E+01 2.71622E+01 0.00000E+00
 -1      3605 1.35711E+02 3.01688E+01 0.00000E+00
 -1      3606 1.35711E+02 2.87000E+01 0.00000E+00
 -1      3607 1.34412E+02 3.09063E+01 0.00000E+00
 -1      3608 8.00494E+01 1.52284E+01 0.00000E+00
 -1      3609 7.93838E+01 1.39856E+01 0.00000E+00
 -1      3610 3.72750E+01 1.55880E+01 0.00000E+00
 -1      3611 5.13900E+01 2.52696E+01 0.00000E+00
 -1      3612 5.04192E+01 2.53094E+01 0.00000E+00
 -1      3613 5.14330E+01 2.62107E+01 0.00000E+00
 -1      3614 5.62226E+01 2.96603E+01 0.00000E+00
 -1      3615 5.54044E+01 2.96715E+01 0.00000E+00
 -1      3616 5.66627E+01 3.08418E+01 0.00000E+00
 -1      3617 1.42890E+01 3.15906E+01 0.00000E+00
 -1      3618 1.42890E+01 3.30594E+01 0.00000E+00
 -1      3619 1.55880E+01 3.08563E+01 0.00000E+00
 -1      3620 1.54200E+01 1.73378E+01 0.00000E+00
 -1      3621 1.42890E+01 2.12938E+01 0.00000E+00
 -1      3622 1.55880E+01 2.20313E+01 0.00000E+00
 -1      3623 1.42890E+01 1.98250E+01 0.00000E+00
 -1      3624 1.62887E+01 3.45261E+01 0.00000E+00
 -1      3625 1.35702E+02 3.44140E+01 0.00000E+00
 -1      3626 4.67407E+01 2.17242E+01 0.00000E+00
 -1      3627 1.34403E+02 3.36765E+01 0.00000E+00
 -1      3628 2.19000E+01 3.31130E+01 0.00000E+00
 -1      3629 2.34000E+01 3.31130E+01 0.00000E+00
 -1      3630 2.49000E+01 3.31130E+01 0.00000E+00
 -1      3631 2.64000E+01 3.31130E+01 0.00000E+00
 -1      3632 2.41500E+01 3.18140E+01 0.00000E+00
 -1      3633 2.79000E+01 3.31130E+01 0.00000E+00
 -1      3634 2.94000E+01 3.31130E+01 0.00000E+00
 -1      3635 2.71500E+01 3.18140E+01 0.00000E+00
 -1      3636 3.09000E+01 3.31130E+01 0.00000E+00
 -1      3637 3.24000E+01 3.31130E+01 0.00000E+00
 -1      3638 3.01500E+01 3.18140E+01 0.00000E+00
 -1      3639 3.39000E+01 3.31130E+01 0.00000E+00
 -1      3640 3.54000E+01 3.31130E+01 0.00000E+00
 -1      3641 3.31500E+01 3.18140E+01 0.00000E+00
 -1      3642 3.69000E+01 3.31130E+01 0.00000E+00
 -1      3643 3.84000E+01 3.31130E+01 0.00000E+00
 -1      3644 3.61500E+01 3.18140E+01 0.00000E+00
 -1      3645 3.99000E+01 3.31130E+01 0.00000E+00
 -1      3646 4.14000E+01 3.31130E+01 0.00000E+00
 -1      3647 3.91500E+01 3.18140E+01 0.00000E+00
 -1      3648 4.29000E+01 3.31130E+01 0.00000E+00
 -1      3649 4.44000E+01 3.31130E+01 0.00000E+00
 -1      3650 4.21500E+01 3.18140E+01 0.00000E+00
 -1      3651 4.59000E+01 3.31130E+01 0.00000E+00
 -1      3652 4.74000E+01 3.31130E+01 0.00000E+00
 -1      3653 4.51500E+01 3.18140E+01 0.00000E+00
 -1      3654 4.89000E+01 3.31130E+01 0.00000E+00
 -1      3655 5.04000E+01 3.31130E+01 0.00000E+00
 -1      3656 4.81500E+01 3.18140E+01 0.00000E+00
 -1      3657 5.19000E+01 3.31130E+01 0.00000E+00
 -1      3658 5.34000E+01 3.31130E+01 0.00000E+00
 -1      3659 5.11500E+01 3.18140E+01 0.00000E+00
 -1      3660 5.49973E+01 3.26325E+01 0.00000E+00
 -1      3661 5.64973E+01 3.26325E+01 0.00000E+00
 -1      3662 6.04842E+01 3.28379E+01 0.00000E+00
 -1      3663 6.19842E+01 3.28379E+01 0.00000E+00
 -1      3664 6.33001E+01 3.28538E+01 0.00000E+00
 -1      3665 6.48001E+01 3.28538E+01 0.00000E+00
 -1      3666 6.66605E+01 3.22150E+01 0.00000E+00
 -1      3667 6.81605E+01 3.22150E+01 0.00000E+00
 -1      3668 6.93846E+01 3.22138E+01 0.00000E+00
 -1      3669 7.08846E+01 3.22138E+01 0.00000E+00
 -1      3670 7.59000E+01 3.31130E+01 0.00000E+00
 -1      3671 7.74000E+01 3.31130E+01 0.00000E+00
 -1      3672 7.89000E+01 3.31130E+01 0.00000E+00
 -1      3673 8.04000E+01 3.31130E+01 0.00000E+00
 -1      3674 7.81500E+01 3.18140E+01 0.00000E+00
 -1      3675 8.19000E+01 3.31130E+01 0.00000E+00
 -1      3676 8.34000E+01 3.31130E+01 0.00000E+00
 -1      3677 8.11500E+01 3.18140E+01 0.00000E+00
 -1      3678 8.49000E+01 3.31130E+01 0.00000E+00
 -1      3679 8.64000E+01 3.31130E+01 0.00000E+00
 -1      3680 8.41500E+01 3.18140E+01 0.00000E+00
 -1      3681 8.79000E+01 3.31130E+01 0.00000E+00
 -1      3682 8.94000E+01 3.31130E+01 0.00000E+00
 -1      3683 8.71500E+01 3.18140E+01 0.00000E+00
 -1      3684 9.09000E+01 3.31130E+01 0.00000E+00
 -1      3685 9.24000E+01 3.31130E+01 0.00000E+00
 -1      3686 9.01500E+01 3.18140E+01 0.00000E+00
 -1      3687 9.39000E+01 3.31130E+01 0.00000E+00
 -1      3688 9.54000E+01 3.31130E+01 0.00000E+00
 -1      3689 9.31500E+01 3.18140E+01 0.00000E+00
 -1      3690 9.69000E+01 3.31130E+01 0.00000E+00
 -1      3691 9.84000E+01 3.31130E+01 0.00000E+00
 -1      3692 9.61500E+01 3.18140E+01 0.00000E+00
 -1      3693 9.99000E+01 3.31130E+01 0.00000E+00
 -1      3694 1.01400E+02 3.31130E+01 0.00000E+00
 -1      3695 9.91500E+01 3.18140E+01 0.00000E+00
 -1      3696 1.02900E+02 3.31130E+01 0.00000E+00
 -1      3697 1.04400E+02 3.31130E+01 0.00000E+00
 -1      3698 1.02150E+02 3.18140E+01 0.00000E+00
 -1      3699 1.05900E+02 3.31130E+01 0.00000E+00
 -1      3700 1.07400E+02 3.31130E+01 0.00000E+00
 -1      3701 1.05150E+02 3.18140E+01 0.00000E+00
 -1      3702 1.08900E+02 3.31130E+01 0.00000E+00
 -1      3703 1.10400E+02 3.31130E+01 0.00000E+00
 -1      3704 1.08150E+02 3.18140E+01 0.00000E+00
 -1      3705 1.11900E+02 3.31130E+01 0.00000E+00
 -1      3706 1.13400E+02 3.31130E+01 0.00000E+00
 -1      3707 1.11150E+02 3.18140E+01 0.00000E+00
 -1      3708 1.14900E+02 3.31130E+01 0.00000E+00
 -1      3709 1.16400E+02 3.31130E+01 0.00000E+00
 -1      3710 1.14150E+02 3.18140E+01 0.00000E+00
 -1      3711 1.17900E+02 3.31130E+01 0.00000E+00
 -1      3712 1.19400E+02 3.31130E+01 0.00000E+00
 -1      3713 1.17150E+02 3.18140E+01 0.00000E+00
 -1      3714 1.20900E+02 3.31130E+01 0.00000E+00
 -1      3715 1.22400E+02 3.31130E+01 0.00000E+00
 -1      3716 1.20150E+02 3.18140E+01 0.00000E+00
 -1      3717 1.23900E+02 3.31130E+01 0.00000E+00
 -1      3718 1.25400E+02 3.31130E+01 0.00000E+00
 -1      3719 1.23150E+02 3.18140E+01 0.00000E+00
 -1      3720 1.26900E+02 3.31130E+01 0.00000E+00
 -1      3721 1.28400E+02 3.31130E+01 0.00000E+00
 -1      3722 1.26150E+02 3.18140E+01 0.00000E+00
 -1      3723 1.29900E+02 3.31130E+01 0.00000E+00
 -1      3724 1.31400E+02 3.31130E+01 0.00000E+00
 -1      3725 1.29150E+02 3.18140E+01 0.00000E+00
 -1      3726 1.33281E+02 3.33935E+01 0.00000E+00
 -1      3727 1.42890E+01 2.71812E+01 0.00000E+00
 -1      3728 1.55880E+01 2.79156E+01 0.00000E+00
 -1      3729 1.42890E+01 2.57094E+01 0.00000E+00
 -1      3730 8.39004E+01 1.62513E+01 0.00000E+00
 -1      3731 8.23160E+01 1.60888E+01 0.00000E+00
 -1      3732 4.33174E+01 1.61236E+01 0.00000E+00
 -1      3733 1.55880E+01 2.49719E+01 0.00000E+00
 -1      3734 9.29625E+01 1.63393E+01 0.00000E+00
 -1      3735 9.15375E+01 1.63393E+01 0.00000E+00
 -1      3736 2.75672E+01 1.42890E+01 0.00000E+00
 -1      3737 2.60766E+01 1.42890E+01 0.00000E+00
 -1      3738 2.53266E+01 1.55880E+01 0.00000E+00
 -1      3739 2.83172E+01 1.55880E+01 0.00000E+00
 -1      3740 1.07813E+02 1.63393E+01 0.00000E+00
 -1      3741 1.06387E+02 1.63393E+01 0.00000E+00
 -1      3742 1.04887E+02 1.63393E+01 0.00000E+00
 -1      3743 1.03387E+02 1.63393E+01 0.00000E+00
 -1      3744 1.05600E+02 1.76383E+01 0.00000E+00
 -1      3745 1.01887E+02 1.63393E+01 0.00000E+00
 -1      3746 1.00387E+02 1.63393E+01 0.00000E+00
 -1      3747 1.02600E+02 1.76383E+01 0.00000E+00
 -1      3748 1.10813E+02 1.63393E+01 0.00000E+00
 -1      3749 1.09313E+02 1.63393E+01 0.00000E+00
 -1      3750 1.08600E+02 1.76383E+01 0.00000E+00
 -1      3751 1.13813E+02 1.63393E+01 0.00000E+00
 -1      3752 1.12313E+02 1.63393E+01 0.00000E+00
 -1      3753 1.11600E+02 1.76383E+01 0.00000E+00
 -1      3754 1.16813E+02 1.63393E+01 0.00000E+00
 -1      3755 1.15313E+02 1.63393E+01 0.00000E+00
 -1      3756 1.14600E+02 1.76383E+01 0.00000E+00
 -1      3757 1.19813E+02 1.63393E+01 0.00000E+00
 -1      3758 1.18313E+02 1.63393E+01 0.00000E+00
 -1      3759 1.17600E+02 1.76383E+01 0.00000E+00
 -1      3760 1.22813E+02 1.63393E+01 0.00000E+00
 -1      3761 1.21313E+02 1.63393E+01 0.00000E+00
 -1      3762 1.20600E+02 1.76383E+01 0.00000E+00
 -1      3763 1.25662E+02 1.63393E+01 0.00000E+00
 -1      3764 1.24238E+02 1.63393E+01 0.00000E+00
 -1      3765 1.23525E+02 1.76383E+01 0.00000E+00
 -1      3766 1.28663E+02 1.63393E+01 0.00000E+00
 -1      3767 1.27162E+02 1.63393E+01 0.00000E+00
 -1      3768 1.26450E+02 1.76383E+01 0.00000E+00
 -1      3769 1.31663E+02 1.63393E+01 0.00000E+00
 -1      3770 1.30163E+02 1.63393E+01 0.00000E+00
 -1      3771 1.29450E+02 1.76383E+01 0.00000E+00
 -1      3772 1.33722E+02 1.67446E+01 0.00000E+00
 -1      3773 1.32563E+02 1.64570E+01 0.00000E+00
 -1      3774 1.31851E+02 1.77560E+01 0.00000E+00
 -1      3775 1.33652E+02 1.79915E+01 0.00000E+00
 -1      3776 1.37087E+01 3.42169E+01 0.00000E+00
 -1      3777 9.00375E+01 1.63393E+01 0.00000E+00
 -1      3778 8.85375E+01 1.63393E+01 0.00000E+00
 -1      3779 9.07500E+01 1.76383E+01 0.00000E+00
 -1      3780 2.01001E+01 1.68870E+01 0.00000E+00
 -1      3781 1.86001E+01 1.68870E+01 0.00000E+00
 -1      3782 8.11035E+01 1.63125E+01 0.00000E+00
 -1      3783 7.94966E+01 1.68256E+01 0.00000E+00
 -1      3784 7.93381E+01 1.81334E+01 0.00000E+00
 -1      3785 8.17632E+01 1.76860E+01 0.00000E+00
 -1      3786 3.80250E+01 1.68870E+01 0.00000E+00
 -1      3787 3.65250E+01 1.68870E+01 0.00000E+00
 -1      3788 4.45890E+01 2.06628E+01 0.00000E+00
 -1      3789 4.48222E+01 1.94553E+01 0.00000E+00
 -1      3790 7.74734E+01 2.27595E+01 0.00000E+00
 -1      3791 7.68797E+01 2.43156E+01 0.00000E+00
 -1      3792 9.59625E+01 1.63393E+01 0.00000E+00
 -1      3793 9.44625E+01 1.63393E+01 0.00000E+00
 -1      3794 9.37500E+01 1.76383E+01 0.00000E+00
 -1      3795 1.35711E+02 2.72289E+01 0.00000E+00
 -1      3796 1.35711E+02 2.57578E+01 0.00000E+00
 -1      3797 1.34412E+02 2.79664E+01 0.00000E+00
 -1      3798 8.70375E+01 1.63393E+01 0.00000E+00
 -1      3799 8.55375E+01 1.63393E+01 0.00000E+00
 -1      3800 8.77500E+01 1.76383E+01 0.00000E+00
 -1      3801 4.10250E+01 1.68870E+01 0.00000E+00
 -1      3802 3.95250E+01 1.68870E+01 0.00000E+00
 -1      3803 3.87750E+01 1.81860E+01 0.00000E+00
 -1      3804 7.60570E+01 2.59386E+01 0.00000E+00
 -1      3805 7.53421E+01 2.66980E+01 0.00000E+00
 -1      3806 4.42383E+01 1.82541E+01 0.00000E+00
 -1      3807 9.89250E+01 1.63393E+01 0.00000E+00
 -1      3808 9.74250E+01 1.63393E+01 0.00000E+00
 -1      3809 9.67125E+01 1.76383E+01 0.00000E+00
 -1      3810 9.96375E+01 1.76383E+01 0.00000E+00
 -1      3811 5.88155E+01 3.26214E+01 0.00000E+00
 -1      3812 1.89000E+01 3.31130E+01 0.00000E+00
 -1      3813 2.04000E+01 3.31130E+01 0.00000E+00
 -1      3814 2.11500E+01 3.18140E+01 0.00000E+00
 -1      3815 6.53733E+01 3.03359E+01 0.00000E+00
 -1      3816 6.47153E+01 3.13721E+01 0.00000E+00
 -1      3817 3.50250E+01 1.68870E+01 0.00000E+00
 -1      3818 3.35250E+01 1.68870E+01 0.00000E+00
 -1      3819 3.57750E+01 1.81860E+01 0.00000E+00
 -1      3820 4.68509E+01 2.25704E+01 0.00000E+00
 -1      3821 4.56714E+01 2.23230E+01 0.00000E+00
 -1      3822 4.69611E+01 2.34165E+01 0.00000E+00
 -1      3823 1.32531E+02 3.20945E+01 0.00000E+00
 -1      3824 4.26959E+01 1.77184E+01 0.00000E+00
 -1      3825 1.50077E+01 3.34825E+01 0.00000E+00
 -1      3826 7.97158E+01 1.93403E+01 0.00000E+00
 -1      3827 3.20438E+01 1.68870E+01 0.00000E+00
 -1      3828 3.05625E+01 1.68870E+01 0.00000E+00
 -1      3829 3.27938E+01 1.81860E+01 0.00000E+00
 -1      3830 4.93014E+01 2.49572E+01 0.00000E+00
 -1      3831 4.81836E+01 2.46050E+01 0.00000E+00
 -1      3832 4.93445E+01 2.58983E+01 0.00000E+00
 -1      3833 5.42473E+01 3.13335E+01 0.00000E+00
 -1      3834 5.73155E+01 3.26214E+01 0.00000E+00
 -1      3835 7.13776E+01 3.04667E+01 0.00000E+00
 -1      3836 7.26431E+01 3.26648E+01 0.00000E+00
 -1      3837 4.19459E+01 1.90174E+01 0.00000E+00
 -1      3838 7.41431E+01 3.26648E+01 0.00000E+00
 -1      3839 8.46128E+01 1.75503E+01 0.00000E+00
 -1      3840 1.68870E+01 2.71797E+01 0.00000E+00
 -1      3841 1.68870E+01 2.86516E+01 0.00000E+00
 -1      3842 1.34412E+02 2.50203E+01 0.00000E+00
 -1      3843 1.73941E+01 1.75170E+01 0.00000E+00
 -1      3844 1.49641E+01 1.92668E+01 0.00000E+00
 -1      3845 1.32531E+02 3.06257E+01 0.00000E+00
 -1      3846 7.19161E+01 2.94406E+01 0.00000E+00
 -1      3847 7.49641E+01 2.76728E+01 0.00000E+00
 -1      3848 7.32095E+01 2.95273E+01 0.00000E+00
 -1      3849 7.85859E+01 2.23669E+01 0.00000E+00
 -1      3850 2.15907E+01 1.68870E+01 0.00000E+00
 -1      3851 2.08407E+01 1.81860E+01 0.00000E+00
 -1      3852 2.30813E+01 1.68870E+01 0.00000E+00
 -1      3853 4.42557E+01 2.20485E+01 0.00000E+00
 -1      3854 4.32834E+01 2.12345E+01 0.00000E+00
 -1      3855 7.74682E+01 2.55857E+01 0.00000E+00
 -1      3856 5.16789E+01 2.73212E+01 0.00000E+00
 -1      3857 5.07082E+01 2.73610E+01 0.00000E+00
 -1      3858 5.19248E+01 2.84317E+01 0.00000E+00
 -1      3859 4.43658E+01 2.28947E+01 0.00000E+00
 -1      3860 1.68870E+01 2.42359E+01 0.00000E+00
 -1      3861 1.68870E+01 2.57078E+01 0.00000E+00
 -1      3862 1.81860E+01 2.64438E+01 0.00000E+00
 -1      3863 1.33511E+02 2.04854E+01 0.00000E+00
 -1      3864 1.33582E+02 1.92384E+01 0.00000E+00
 -1      3865 1.32681E+02 1.91207E+01 0.00000E+00
 -1      3866 7.48931E+01 3.13658E+01 0.00000E+00
 -1      3867 1.81441E+01 1.88160E+01 0.00000E+00
 -1      3868 1.68870E+01 2.27672E+01 0.00000E+00
 -1      3869 1.81860E+01 2.35031E+01 0.00000E+00
 -1      3870 1.68870E+01 2.12984E+01 0.00000E+00
 -1      3871 1.33511E+02 2.19565E+01 0.00000E+00
 -1      3872 1.32611E+02 2.18387E+01 0.00000E+00
 -1      3873 1.33511E+02 2.34276E+01 0.00000E+00
 -1      3874 1.89180E+01 2.98648E+01 0.00000E+00
 -1      3875 1.76190E+01 3.06007E+01 0.00000E+00
 -1      3876 1.68690E+01 3.33685E+01 0.00000E+00
 -1      3877 1.76190E+01 3.20695E+01 0.00000E+00
 -1      3878 6.65757E+01 3.07333E+01 0.00000E+00
 -1      3879 5.38071E+01 3.01520E+01 0.00000E+00
 -1      3880 1.96860E+01 2.79156E+01 0.00000E+00
 -1      3881 2.04180E+01 2.98648E+01 0.00000E+00
 -1      3882 2.19180E+01 2.98648E+01 0.00000E+00
 -1      3883 2.64000E+01 3.05150E+01 0.00000E+00
 -1      3884 2.79000E+01 3.05150E+01 0.00000E+00
 -1      3885 2.94000E+01 3.05150E+01 0.00000E+00
 -1      3886 3.09000E+01 3.05150E+01 0.00000E+00
 -1      3887 2.86500E+01 2.92160E+01 0.00000E+00
 -1      3888 3.24000E+01 3.05150E+01 0.00000E+00
 -1      3889 3.39000E+01 3.05150E+01 0.00000E+00
 -1      3890 3.16500E+01 2.92160E+01 0.00000E+00
 -1      3891 3.54000E+01 3.05150E+01 0.00000E+00
 -1      3892 3.69000E+01 3.05150E+01 0.00000E+00
 -1      3893 3.46500E+01 2.92160E+01 0.00000E+00
 -1      3894 3.84000E+01 3.05150E+01 0.00000E+00
 -1      3895 3.99000E+01 3.05150E+01 0.00000E+00
 -1      3896 3.76500E+01 2.92160E+01 0.00000E+00
 -1      3897 4.14000E+01 3.05150E+01 0.00000E+00
 -1      3898 4.29000E+01 3.05150E+01 0.00000E+00
 -1      3899 4.06500E+01 2.92160E+01 0.00000E+00
 -1      3900 4.44000E+01 3.05150E+01 0.00000E+00
 -1      3901 4.59000E+01 3.05150E+01 0.00000E+00
 -1      3902 4.36500E+01 2.92160E+01 0.00000E+00
 -1      3903 4.74000E+01 3.05150E+01 0.00000E+00
 -1      3904 4.89000E+01 3.05150E+01 0.00000E+00
 -1      3905 4.66500E+01 2.92160E+01 0.00000E+00
 -1      3906 5.03020E+01 3.01428E+01 0.00000E+00
 -1      3907 5.18020E+01 3.01428E+01 0.00000E+00
 -1      3908 3.95250E+01 1.94850E+01 0.00000E+00
 -1      3909 3.80250E+01 1.94850E+01 0.00000E+00
 -1      3910 4.22397E+01 2.07755E+01 0.00000E+00
 -1      3911 4.05688E+01 1.99441E+01 0.00000E+00
 -1      3912 3.98188E+01 2.12431E+01 0.00000E+00
 -1      3913 4.19063E+01 2.21612E+01 0.00000E+00
 -1      3914 8.04000E+01 3.05150E+01 0.00000E+00
 -1      3915 8.19000E+01 3.05150E+01 0.00000E+00
 -1      3916 8.34000E+01 3.05150E+01 0.00000E+00
 -1      3917 8.49000E+01 3.05150E+01 0.00000E+00
 -1      3918 8.26500E+01 2.92160E+01 0.00000E+00
 -1      3919 8.64000E+01 3.05150E+01 0.00000E+00
 -1      3920 8.79000E+01 3.05150E+01 0.00000E+00
 -1      3921 8.56500E+01 2.92160E+01 0.00000E+00
 -1      3922 8.94000E+01 3.05150E+01 0.00000E+00
 -1      3923 9.09000E+01 3.05150E+01 0.00000E+00
 -1      3924 8.86500E+01 2.92160E+01 0.00000E+00
 -1      3925 9.24000E+01 3.05150E+01 0.00000E+00
 -1      3926 9.39000E+01 3.05150E+01 0.00000E+00
 -1      3927 9.16500E+01 2.92160E+01 0.00000E+00
 -1      3928 9.54000E+01 3.05150E+01 0.00000E+00
 -1      3929 9.69000E+01 3.05150E+01 0.00000E+00
 -1      3930 9.46500E+01 2.92160E+01 0.00000E+00
 -1      3931 9.84000E+01 3.05150E+01 0.00000E+00
 -1      3932 9.99000E+01 3.05150E+01 0.00000E+00
 -1      3933 9.76500E+01 2.92160E+01 0.00000E+00
 -1      3934 1.01400E+02 3.05150E+01 0.00000E+00
 -1      3935 1.02900E+02 3.05150E+01 0.00000E+00
 -1      3936 1.00650E+02 2.92160E+01 0.00000E+00
 -1      3937 1.04400E+02 3.05150E+01 0.00000E+00
 -1      3938 1.05900E+02 3.05150E+01 0.00000E+00
 -1      3939 1.03650E+02 2.92160E+01 0.00000E+00
 -1      3940 1.07400E+02 3.05150E+01 0.00000E+00
 -1      3941 1.08900E+02 3.05150E+01 0.00000E+00
 -1      3942 1.06650E+02 2.92160E+01 0.00000E+00
 -1      3943 1.10400E+02 3.05150E+01 0.00000E+00
 -1      3944 1.11900E+02 3.05150E+01 0.00000E+00
 -1      3945 1.09650E+02 2.92160E+01 0.00000E+00
 -1      3946 1.13400E+02 3.05150E+01 0.00000E+00
 -1      3947 1.14900E+02 3.05150E+01 0.00000E+00
 -1      3948 1.12650E+02 2.92160E+01 0.00000E+00
 -1      3949 1.16400E+02 3.05150E+01 0.00000E+00
 -1      3950 1.17900E+02 3.05150E+01 0.00000E+00
 -1      3951 1.15650E+02 2.92160E+01 0.00000E+00
 -1      3952 1.19400E+02 3.05150E+01 0.00000E+00
 -1      3953 1.20900E+02 3.05150E+01 0.00000E+00
 -1      3954 1.18650E+02 2.92160E+01 0.00000E+00
 -1      3955 1.22400E+02 3.05150E+01 0.00000E+00
 -1      3956 1.23900E+02 3.05150E+01 0.00000E+00
 -1      3957 1.21650E+02 2.92160E+01 0.00000E+00
 -1      3958 1.25400E+02 3.05150E+01 0.00000E+00
 -1      3959 1.26900E+02 3.05150E+01 0.00000E+00
 -1      3960 1.24650E+02 2.92160E+01 0.00000E+00
 -1      3961 1.28400E+02 3.05150E+01 0.00000E+00
 -1      3962 1.29900E+02 3.05150E+01 0.00000E+00
 -1      3963 1.27650E+02 2.92160E+01 0.00000E+00
 -1      3964 1.33511E+02 2.63776E+01 0.00000E+00
 -1      3965 1.33511E+02 2.49026E+01 0.00000E+00
 -1      3966 1.32611E+02 2.47848E+01 0.00000E+00
 -1      3967 1.31781E+02 2.93267E+01 0.00000E+00
 -1      3968 1.06350E+02 1.89373E+01 0.00000E+00
 -1      3969 1.04850E+02 1.89373E+01 0.00000E+00
 -1      3970 1.09350E+02 1.89373E+01 0.00000E+00
 -1      3971 1.07850E+02 1.89373E+01 0.00000E+00
 -1      3972 1.07100E+02 2.02362E+01 0.00000E+00
 -1      3973 1.03350E+02 1.89373E+01 0.00000E+00
 -1      3974 1.01850E+02 1.89373E+01 0.00000E+00
 -1      3975 1.04100E+02 2.02362E+01 0.00000E+00
 -1      3976 1.15350E+02 1.89373E+01 0.00000E+00
 -1      3977 1.13850E+02 1.89373E+01 0.00000E+00
 -1      3978 1.18350E+02 1.89373E+01 0.00000E+00
 -1      3979 1.16850E+02 1.89373E+01 0.00000E+00
 -1      3980 1.16100E+02 2.02362E+01 0.00000E+00
 -1      3981 1.21350E+02 1.89373E+01 0.00000E+00
 -1      3982 1.19850E+02 1.89373E+01 0.00000E+00
 -1      3983 1.19100E+02 2.02362E+01 0.00000E+00
 -1      3984 1.24200E+02 1.89373E+01 0.00000E+00
 -1      3985 1.22775E+02 1.89373E+01 0.00000E+00
 -1      3986 1.22025E+02 2.02362E+01 0.00000E+00
 -1      3987 1.27200E+02 1.89373E+01 0.00000E+00
 -1      3988 1.25700E+02 1.89373E+01 0.00000E+00
 -1      3989 1.24950E+02 2.02362E+01 0.00000E+00
 -1      3990 1.30200E+02 1.89373E+01 0.00000E+00
 -1      3991 1.28700E+02 1.89373E+01 0.00000E+00
 -1      3992 1.27950E+02 2.02362E+01 0.00000E+00
 -1      3993 3.65250E+01 1.94850E+01 0.00000E+00
 -1      3994 3.50250E+01 1.94850E+01 0.00000E+00
 -1      3995 3.72750E+01 2.07840E+01 0.00000E+00
 -1      3996 8.26010E+01 1.88294E+01 0.00000E+00
 -1      3997 8.13885E+01 1.90531E+01 0.00000E+00
 -1      3998 5.27728E+01 3.01029E+01 0.00000E+00
 -1      3999 1.12350E+02 1.89373E+01 0.00000E+00
 -1      4000 1.10850E+02 1.89373E+01 0.00000E+00
 -1      4001 1.10100E+02 2.02362E+01 0.00000E+00
 -1      4002 1.13100E+02 2.02362E+01 0.00000E+00
 -1      4003 1.96860E+01 2.64438E+01 0.00000E+00
 -1      4004 7.90382E+01 2.53616E+01 0.00000E+00
 -1      4005 7.82154E+01 2.69845E+01 0.00000E+00
 -1      4006 9.45000E+01 1.89373E+01 0.00000E+00
 -1      4007 9.30000E+01 1.89373E+01 0.00000E+00
 -1      4008 8.58753E+01 1.90054E+01 0.00000E+00
 -1      4009 8.42382E+01 1.89174E+01 0.00000E+00
 -1      4010 8.38635E+01 2.02845E+01 0.00000E+00
 -1      4011 8.88753E+01 1.90054E+01 0.00000E+00
 -1      4012 8.73753E+01 1.90054E+01 0.00000E+00
 -1      4013 8.70007E+01 2.03725E+01 0.00000E+00
 -1      4014 8.00108E+01 2.18051E+01 0.00000E+00
 -1      4015 7.97158E+01 2.34009E+01 0.00000E+00
 -1      4016 7.49653E+01 2.88242E+01 0.00000E+00
 -1      4017 7.48919E+01 3.02145E+01 0.00000E+00
 -1      4018 7.66489E+01 3.06627E+01 0.00000E+00
 -1      4019 7.66466E+01 2.83600E+01 0.00000E+00
 -1      4020 9.16877E+01 1.89713E+01 0.00000E+00
 -1      4021 9.01877E+01 1.89713E+01 0.00000E+00
 -1      4022 8.98130E+01 2.03385E+01 0.00000E+00
 -1      4023 9.24377E+01 2.02703E+01 0.00000E+00
 -1      4024 8.05536E+01 2.04838E+01 0.00000E+00
 -1      4025 2.34090E+01 3.01899E+01 0.00000E+00
 -1      4026 2.49090E+01 3.01899E+01 0.00000E+00
 -1      4027 2.56590E+01 2.88909E+01 0.00000E+00
 -1      4028 2.26770E+01 2.82407E+01 0.00000E+00
 -1      4029 4.48265E+01 2.43072E+01 0.00000E+00
 -1      4030 4.34108E+01 2.40327E+01 0.00000E+00
 -1      4031 4.70948E+01 2.45798E+01 0.00000E+00
 -1      4032 4.59153E+01 2.43324E+01 0.00000E+00
 -1      4033 4.49603E+01 2.54704E+01 0.00000E+00
 -1      4034 4.71379E+01 2.55209E+01 0.00000E+00
 -1      4035 3.35438E+01 1.94850E+01 0.00000E+00
 -1      4036 3.20625E+01 1.94850E+01 0.00000E+00
 -1      4037 3.42938E+01 2.07840E+01 0.00000E+00
 -1      4038 4.93061E+01 2.77332E+01 0.00000E+00
 -1      4039 4.81883E+01 2.73810E+01 0.00000E+00
 -1      4040 6.60652E+01 3.29302E+01 0.00000E+00
 -1      4041 1.94850E+01 2.27687E+01 0.00000E+00
 -1      4042 1.94850E+01 2.42375E+01 0.00000E+00
 -1      4043 1.31780E+02 1.90029E+01 0.00000E+00
 -1      4044 9.59625E+01 1.89373E+01 0.00000E+00
 -1      4045 9.52125E+01 2.02362E+01 0.00000E+00
 -1      4046 9.74250E+01 1.89373E+01 0.00000E+00
 -1      4047 2.90672E+01 1.68870E+01 0.00000E+00
 -1      4048 2.75719E+01 1.68870E+01 0.00000E+00
 -1      4049 2.98172E+01 1.81860E+01 0.00000E+00
 -1      4050 1.01137E+02 2.02362E+01 0.00000E+00
 -1      4051 1.00387E+02 1.89373E+01 0.00000E+00
 -1      4052 9.89250E+01 1.89373E+01 0.00000E+00
 -1      4053 2.60743E+01 1.68870E+01 0.00000E+00
 -1      4054 2.45790E+01 1.68870E+01 0.00000E+00
 -1      4055 2.38290E+01 1.81860E+01 0.00000E+00
 -1      4056 2.68243E+01 1.81860E+01 0.00000E+00
 -1      4057 1.31030E+02 2.03019E+01 0.00000E+00
 -1      4058 1.62631E+01 2.00043E+01 0.00000E+00
 -1      4059 8.04630E+01 2.47998E+01 0.00000E+00
 -1      4060 8.16835E+01 2.15178E+01 0.00000E+00
 -1      4061 1.31030E+02 2.17730E+01 0.00000E+00
 -1      4062 1.29450E+02 2.17073E+01 0.00000E+00
 -1      4063 1.31030E+02 2.32441E+01 0.00000E+00
 -1      4064 1.33511E+02 2.78486E+01 0.00000E+00
 -1      4065 1.93486E+01 1.96524E+01 0.00000E+00
 -1      4066 1.81426E+01 2.02824E+01 0.00000E+00
 -1      4067 4.24061E+01 2.51418E+01 0.00000E+00
 -1      4068 4.19455E+01 2.37293E+01 0.00000E+00
 -1      4069 7.74000E+01 3.05150E+01 0.00000E+00
 -1      4070 7.89000E+01 3.05150E+01 0.00000E+00
 -1      4071 2.09850E+01 2.57094E+01 0.00000E+00
 -1      4072 4.95520E+01 2.88438E+01 0.00000E+00
 -1      4073 1.30880E+02 2.77379E+01 0.00000E+00
 -1      4074 2.08392E+01 1.96524E+01 0.00000E+00
 -1      4075 4.09017E+01 2.32702E+01 0.00000E+00
 -1      4076 1.75621E+01 2.07402E+01 0.00000E+00
 -1      4077 7.96500E+01 2.92160E+01 0.00000E+00
 -1      4078 1.29172E+02 2.74892E+01 0.00000E+00
 -1      4079 1.30902E+02 2.60111E+01 0.00000E+00
 -1      4080 3.09000E+01 2.79170E+01 0.00000E+00
 -1      4081 3.24000E+01 2.79170E+01 0.00000E+00
 -1      4082 3.39000E+01 2.79170E+01 0.00000E+00
 -1      4083 3.54000E+01 2.79170E+01 0.00000E+00
 -1      4084 3.31500E+01 2.66180E+01 0.00000E+00
 -1      4085 3.69000E+01 2.79170E+01 0.00000E+00
 -1      4086 3.84000E+01 2.79170E+01 0.00000E+00
 -1      4087 3.61500E+01 2.66180E+01 0.00000E+00
 -1      4088 4.00454E+01 2.70272E+01 0.00000E+00
 -1      4089 4.15454E+01 2.70272E+01 0.00000E+00
 -1      4090 4.30107E+01 2.73306E+01 0.00000E+00
 -1      4091 4.45107E+01 2.73306E+01 0.00000E+00
 -1      4092 4.66883E+01 2.73810E+01 0.00000E+00
 -1      4093 3.98579E+01 2.28112E+01 0.00000E+00
 -1      4094 3.88141E+01 2.23521E+01 0.00000E+00
 -1      4095 3.98971E+01 2.43793E+01 0.00000E+00
 -1      4096 8.19000E+01 2.79170E+01 0.00000E+00
 -1      4097 8.34000E+01 2.79170E+01 0.00000E+00
 -1      4098 1.30902E+02 2.45361E+01 0.00000E+00
 -1      4099 8.49000E+01 2.79170E+01 0.00000E+00
 -1      4100 8.64000E+01 2.79170E+01 0.00000E+00
 -1      4101 8.41500E+01 2.66180E+01 0.00000E+00
 -1      4102 8.79000E+01 2.79170E+01 0.00000E+00
 -1      4103 8.94000E+01 2.79170E+01 0.00000E+00
 -1      4104 8.71500E+01 2.66180E+01 0.00000E+00
 -1      4105 9.09000E+01 2.79170E+01 0.00000E+00
 -1      4106 9.24000E+01 2.79170E+01 0.00000E+00
 -1      4107 9.01500E+01 2.66180E+01 0.00000E+00
 -1      4108 9.39000E+01 2.79170E+01 0.00000E+00
 -1      4109 9.54000E+01 2.79170E+01 0.00000E+00
 -1      4110 9.31500E+01 2.66180E+01 0.00000E+00
 -1      4111 9.69000E+01 2.79170E+01 0.00000E+00
 -1      4112 9.84000E+01 2.79170E+01 0.00000E+00
 -1      4113 9.61500E+01 2.66180E+01 0.00000E+00
 -1      4114 9.99000E+01 2.79170E+01 0.00000E+00
 -1      4115 1.01400E+02 2.79170E+01 0.00000E+00
 -1      4116 9.91500E+01 2.66180E+01 0.00000E+00
 -1      4117 1.02900E+02 2.79170E+01 0.00000E+00
 -1      4118 1.04400E+02 2.79170E+01 0.00000E+00
 -1      4119 1.02150E+02 2.66180E+01 0.00000E+00
 -1      4120 1.05900E+02 2.79170E+01 0.00000E+00
 -1      4121 1.07400E+02 2.79170E+01 0.00000E+00
 -1      4122 1.05150E+02 2.66180E+01 0.00000E+00
 -1      4123 1.08900E+02 2.79170E+01 0.00000E+00
 -1      4124 1.10400E+02 2.79170E+01 0.00000E+00
 -1      4125 1.08150E+02 2.66180E+01 0.00000E+00
 -1      4126 1.11900E+02 2.79170E+01 0.00000E+00
 -1      4127 1.13400E+02 2.79170E+01 0.00000E+00
 -1      4128 1.11150E+02 2.66180E+01 0.00000E+00
 -1      4129 1.14900E+02 2.79170E+01 0.00000E+00
 -1      4130 1.16400E+02 2.79170E+01 0.00000E+00
 -1      4131 1.14150E+02 2.66180E+01 0.00000E+00
 -1      4132 1.17900E+02 2.79170E+01 0.00000E+00
 -1      4133 1.19400E+02 2.79170E+01 0.00000E+00
 -1      4134 1.17150E+02 2.66180E+01 0.00000E+00
 -1      4135 1.20900E+02 2.79170E+01 0.00000E+00
 -1      4136 1.22400E+02 2.79170E+01 0.00000E+00
 -1      4137 1.20150E+02 2.66180E+01 0.00000E+00
 -1      4138 1.23900E+02 2.79170E+01 0.00000E+00
 -1      4139 1.25400E+02 2.79170E+01 0.00000E+00
 -1      4140 1.23150E+02 2.66180E+01 0.00000E+00
 -1      4141 1.26536E+02 2.77031E+01 0.00000E+00
 -1      4142 1.28036E+02 2.77031E+01 0.00000E+00
 -1      4143 1.28057E+02 2.59763E+01 0.00000E+00
 -1      4144 1.25786E+02 2.64041E+01 0.00000E+00
 -1      4145 1.87665E+01 2.15766E+01 0.00000E+00
 -1      4146 7.89677E+01 2.79882E+01 0.00000E+00
 -1      4147 8.04677E+01 2.79882E+01 0.00000E+00
 -1      4148 1.07850E+02 2.15352E+01 0.00000E+00
 -1      4149 1.06350E+02 2.15352E+01 0.00000E+00
 -1      4150 1.04850E+02 2.15352E+01 0.00000E+00
 -1      4151 1.03350E+02 2.15352E+01 0.00000E+00
 -1      4152 1.05600E+02 2.28343E+01 0.00000E+00
 -1      4153 1.19850E+02 2.15352E+01 0.00000E+00
 -1      4154 1.18350E+02 2.15352E+01 0.00000E+00
 -1      4155 1.16850E+02 2.15352E+01 0.00000E+00
 -1      4156 1.15350E+02 2.15352E+01 0.00000E+00
 -1      4157 1.17600E+02 2.28343E+01 0.00000E+00
 -1      4158 1.25700E+02 2.15352E+01 0.00000E+00
 -1      4159 1.24200E+02 2.15352E+01 0.00000E+00
 -1      4160 1.28325E+02 2.16213E+01 0.00000E+00
 -1      4161 1.26825E+02 2.16213E+01 0.00000E+00
 -1      4162 1.26075E+02 2.29203E+01 0.00000E+00
 -1      4163 1.28325E+02 2.30924E+01 0.00000E+00
 -1      4164 3.73141E+01 2.23521E+01 0.00000E+00
 -1      4165 8.77507E+01 2.16715E+01 0.00000E+00
 -1      4166 8.62507E+01 2.16715E+01 0.00000E+00
 -1      4167 7.73989E+01 2.93637E+01 0.00000E+00
 -1      4168 2.79000E+01 2.79170E+01 0.00000E+00
 -1      4169 2.94000E+01 2.79170E+01 0.00000E+00
 -1      4170 3.01500E+01 2.66180E+01 0.00000E+00
 -1      4171 8.47857E+01 2.16387E+01 0.00000E+00
 -1      4172 8.31485E+01 2.15507E+01 0.00000E+00
 -1      4173 8.26056E+01 2.28720E+01 0.00000E+00
 -1      4174 8.55357E+01 2.29377E+01 0.00000E+00
 -1      4175 8.12177E+01 2.66892E+01 0.00000E+00
 -1      4176 2.22750E+01 2.38282E+01 0.00000E+00
 -1      4177 2.24760E+01 2.60345E+01 0.00000E+00
 -1      4178 2.39670E+01 2.63596E+01 0.00000E+00
 -1      4179 8.18953E+01 2.47286E+01 0.00000E+00
 -1      4180 7.73977E+01 2.82123E+01 0.00000E+00
 -1      4181 1.22738E+02 2.15352E+01 0.00000E+00
 -1      4182 1.21313E+02 2.15352E+01 0.00000E+00
 -1      4183 1.20563E+02 2.28343E+01 0.00000E+00
 -1      4184 1.23488E+02 2.28343E+01 0.00000E+00
 -1      4185 3.92954E+01 2.57282E+01 0.00000E+00
 -1      4186 4.55995E+01 2.73558E+01 0.00000E+00
 -1      4187 3.82516E+01 2.52691E+01 0.00000E+00
 -1      4188 2.51880E+01 2.69757E+01 0.00000E+00
 -1      4189 2.66790E+01 2.73008E+01 0.00000E+00
 -1      4190 2.74290E+01 2.60018E+01 0.00000E+00
 -1      4191 2.49870E+01 2.47695E+01 0.00000E+00
 -1      4192 2.00655E+01 2.23109E+01 0.00000E+00
 -1      4193 1.29322E+02 2.44704E+01 0.00000E+00
 -1      4194 9.81750E+01 2.02362E+01 0.00000E+00
 -1      4195 3.05672E+01 1.94850E+01 0.00000E+00
 -1      4196 2.90719E+01 1.94850E+01 0.00000E+00
 -1      4197 3.13172E+01 2.07840E+01 0.00000E+00
 -1      4198 1.01887E+02 2.15352E+01 0.00000E+00
 -1      4199 1.00425E+02 2.15352E+01 0.00000E+00
 -1      4200 1.02637E+02 2.28343E+01 0.00000E+00
 -1      4201 1.14600E+02 2.28343E+01 0.00000E+00
 -1      4202 1.13850E+02 2.15352E+01 0.00000E+00
 -1      4203 1.12350E+02 2.15352E+01 0.00000E+00
 -1      4204 8.90630E+01 2.16375E+01 0.00000E+00
 -1      4205 8.83130E+01 2.29365E+01 0.00000E+00
 -1      4206 9.03753E+01 2.16034E+01 0.00000E+00
 -1      4207 9.59437E+01 2.15352E+01 0.00000E+00
 -1      4208 9.44812E+01 2.15352E+01 0.00000E+00
 -1      4209 9.30845E+01 2.15523E+01 0.00000E+00
 -1      4210 9.17721E+01 2.15864E+01 0.00000E+00
 -1      4211 9.10221E+01 2.28854E+01 0.00000E+00
 -1      4212 9.38157E+01 2.28513E+01 0.00000E+00
 -1      4213 2.24958E+01 1.98457E+01 0.00000E+00
 -1      4214 2.10036E+01 2.13121E+01 0.00000E+00
 -1      4215 3.71567E+01 2.40461E+01 0.00000E+00
 -1      4216 3.56175E+01 2.24780E+01 0.00000E+00
 -1      4217 2.17221E+01 2.25042E+01 0.00000E+00
 -1      4218 2.32131E+01 2.28293E+01 0.00000E+00
 -1      4219 1.09350E+02 2.15352E+01 0.00000E+00
 -1      4220 1.08600E+02 2.28343E+01 0.00000E+00
 -1      4221 1.10850E+02 2.15352E+01 0.00000E+00
 -1      4222 2.39934E+01 1.98457E+01 0.00000E+00
 -1      4223 8.33603E+01 2.47614E+01 0.00000E+00
 -1      4224 3.41363E+01 2.24780E+01 0.00000E+00
 -1      4225 2.94000E+01 2.53190E+01 0.00000E+00
 -1      4226 3.09000E+01 2.53190E+01 0.00000E+00
 -1      4227 3.50550E+01 2.53950E+01 0.00000E+00
 -1      4228 3.65550E+01 2.53950E+01 0.00000E+00
 -1      4229 2.56727E+01 1.98294E+01 0.00000E+00
 -1      4230 2.43395E+01 2.14890E+01 0.00000E+00
 -1      4231 8.48603E+01 2.47614E+01 0.00000E+00
 -1      4232 8.63253E+01 2.47943E+01 0.00000E+00
 -1      4233 8.78253E+01 2.47943E+01 0.00000E+00
 -1      4234 8.91377E+01 2.47602E+01 0.00000E+00
 -1      4235 9.06377E+01 2.47602E+01 0.00000E+00
 -1      4236 9.20345E+01 2.47432E+01 0.00000E+00
 -1      4237 9.35345E+01 2.47432E+01 0.00000E+00
 -1      4238 9.49313E+01 2.47261E+01 0.00000E+00
 -1      4239 9.64313E+01 2.47261E+01 0.00000E+00
 -1      4240 1.00912E+02 2.47261E+01 0.00000E+00
 -1      4241 1.02412E+02 2.47261E+01 0.00000E+00
 -1      4242 1.03875E+02 2.47261E+01 0.00000E+00
 -1      4243 1.05375E+02 2.47261E+01 0.00000E+00
 -1      4244 1.06875E+02 2.47261E+01 0.00000E+00
 -1      4245 1.08375E+02 2.47261E+01 0.00000E+00
 -1      4246 1.09875E+02 2.47261E+01 0.00000E+00
 -1      4247 1.11375E+02 2.47261E+01 0.00000E+00
 -1      4248 1.12875E+02 2.47261E+01 0.00000E+00
 -1      4249 1.14375E+02 2.47261E+01 0.00000E+00
 -1      4250 1.15875E+02 2.47261E+01 0.00000E+00
 -1      4251 1.17375E+02 2.47261E+01 0.00000E+00
 -1      4252 1.18875E+02 2.47261E+01 0.00000E+00
 -1      4253 1.20375E+02 2.47261E+01 0.00000E+00
 -1      4254 1.21838E+02 2.47261E+01 0.00000E+00
 -1      4255 1.23338E+02 2.47261E+01 0.00000E+00
 -1      4256 2.71704E+01 1.98294E+01 0.00000E+00
 -1      4257 9.76687E+01 2.18317E+01 0.00000E+00
 -1      4258 9.69375E+01 2.31307E+01 0.00000E+00
 -1      4259 9.81563E+01 2.50226E+01 0.00000E+00
 -1      4260 9.91687E+01 2.18317E+01 0.00000E+00
 -1      4261 1.28197E+02 2.43844E+01 0.00000E+00
 -1      4262 2.48924E+01 2.28130E+01 0.00000E+00
 -1      4263 3.34406E+01 2.51595E+01 0.00000E+00
 -1      4264 3.38456E+01 2.39365E+01 0.00000E+00
 -1      4265 3.25219E+01 2.22425E+01 0.00000E+00
 -1      4266 3.19406E+01 2.51595E+01 0.00000E+00
 -1      4267 2.61134E+01 2.34292E+01 0.00000E+00
 -1      4268 9.96563E+01 2.50226E+01 0.00000E+00
 -1      4269 1.27061E+02 2.45983E+01 0.00000E+00
 -1      4270 9.99187E+01 2.31307E+01 0.00000E+00
 -1      4271 3.10266E+01 2.22425E+01 0.00000E+00
 -1      4272 3.11906E+01 2.38605E+01 0.00000E+00
 -1      4273 2.79204E+01 2.11284E+01 0.00000E+00
 -1      4274 1.24800E+02 2.47261E+01 0.00000E+00
 -1      4275 1.25936E+02 2.45122E+01 0.00000E+00
 -1      4276 1.11600E+02 2.28343E+01 0.00000E+00
 -1      4277 2.81790E+01 2.47028E+01 0.00000E+00
 -1      4278 2.80844E+01 2.27464E+01 0.00000E+00
 -1      4279 2.99860E+01 2.24020E+01 0.00000E+00
 -3
    3C                          2057                                     1
 -1       166    8    0    1
 -2         6         7        23      1112      1277      1129
 -1       167    8    0    1
 -2         7         8       166      1113      1278      1279
 -1       168    8    0    1
 -2         8         9       167      1114      1280      1281
 -1       169    8    0    1
 -2         8       167       166      1281      1282      1278
 -1       170    8    0    1
 -2         9        10       168      1115      1283      1284
 -1       171    8    0    1
 -2         9       168       167      1284      1285      1280
 -1       172    8    0    1
 -2        10        11       169      1116      1286      1287
 -1       173    8    0    1
 -2        10       169       168      1287      1288      1283
 -1       174    8    0    1
 -2        11        12       170      1117      1289      1290
 -1       175    8    0    1
 -2        11       170       169      1290      1291      1286
 -1       176    8    0    1
 -2        12        13       171      1118      1292      1293
 -1       177    8    0    1
 -2        12       171       170      1293      1294      1289
 -1       178    8    0    1
 -2        13        14       172      1119      1295      1296
 -1       179    8    0    1
 -2        13       172       171      1296      1297      1292
 -1       180    8    0    1
 -2        14        15       173      1120      1298      1299
 -1       181    8    0    1
 -2        14       173       172      1299      1300      1295
 -1       182    8    0    1
 -2        15        16       174      1121      1301      1302
 -1       183    8    0    1
 -2        15       174       173      1302      1303      1298
 -1       184    8    0    1
 -2        16        17       175      1122      1304      1305
 -1       185    8    0    1
 -2        16       175       174      1305      1306      1301
 -1       186    8    0    1
 -2        17        18       176      1123      1307      1308
 -1       187    8    0    1
 -2        17       176       175      1308      1309      1304
 -1       188    8    0    1
 -2        18        19       177      1124      1310      1311
 -1       189    8    0    1
 -2        18       177       176      1311      1312      1307
 -1       190    8    0    1
 -2        19        20       178      1125      1313      1314
 -1       191    8    0    1
 -2        19       178       177      1314      1315      1310
 -1       192    8    0    1
 -2        20        21       179      1126      1316      1317
 -1       193    8    0    1
 -2        20       179       178      1317      1318      1313
 -1       194    8    0    1
 -2        21        22       180      1127      1319      1320
 -1       195    8    0    1
 -2        21       180       179      1320      1321      1316
 -1       196    8    0    1
 -2        22         5        72      1128      1179      1322
 -1       197    8    0    1
 -2        24        23       181      1130      1323      1324
 -1       198    8    0    1
 -2        25        24       182      1131      1325      1326
 -1       199    8    0    1
 -2        24       181       182      1324      1327      1325
 -1       200    8    0    1
 -2        26        25       183      1132      1328      1329
 -1       201    8    0    1
 -2        25       182       183      1326      1330      1328
 -1       202    8    0    1
 -2        27        26       184      1133      1331      1332
 -1       203    8    0    1
 -2        26       183       184      1329      1333      1331
 -1       204    8    0    1
 -2        28        27       185      1134      1334      1335
 -1       205    8    0    1
 -2        27       184       185      1332      1336      1334
 -1       206    8    0    1
 -2        29        28       186      1135      1337      1338
 -1       207    8    0    1
 -2        28       185       186      1335      1339      1337
 -1       208    8    0    1
 -2        30        29       187      1136      1340      1341
 -1       209    8    0    1
 -2        29       186       187      1338      1342      1340
 -1       210    8    0    1
 -2        31        30       188      1137      1343      1344
 -1       211    8    0    1
 -2        30       187       188      1341      1345      1343
 -1       212    8    0    1
 -2        32        31       189      1138      1346      1347
 -1       213    8    0    1
 -2        31       188       189      1344      1348      1346
 -1       214    8    0    1
 -2        33        32       190      1139      1349      1350
 -1       215    8    0    1
 -2        32       189       190      1347      1351      1349
 -1       216    8    0    1
 -2        34        33       191      1140      1352      1353
 -1       217    8    0    1
 -2        33       190       191      1350      1354      1352
 -1       218    8    0    1
 -2        35        34       192      1141      1355      1356
 -1       219    8    0    1
 -2        34       191       192      1353      1357      1355
 -1       220    8    0    1
 -2        36        35       193      1142      1358      1359
 -1       221    8    0    1
 -2        35       192       193      1356      1360      1358
 -1       222    8    0    1
 -2        37        36       194      1143      1361      1362
 -1       223    8    0    1
 -2        36       193       194      1359      1363      1361
 -1       224    8    0    1
 -2        38        37       195      1144      1364      1365
 -1       225    8    0    1
 -2        37       194       195      1362      1366      1364
 -1       226    8    0    1
 -2        39        38       196      1145      1367      1368
 -1       227    8    0    1
 -2        38       195       196      1365      1369      1367
 -1       228    8    0    1
 -2        40        39       197      1146      1370      1371
 -1       229    8    0    1
 -2        39       196       197      1368      1372      1370
 -1       230    8    0    1
 -2        41        40       198      1147      1373      1374
 -1       231    8    0    1
 -2        40       197       198      1371      1375      1373
 -1       232    8    0    1
 -2        42        41       199      1148      1376      1377
 -1       233    8    0    1
 -2        41       198       199      1374      1378      1376
 -1       234    8    0    1
 -2        43        42       200      1149      1379      1380
 -1       235    8    0    1
 -2        42       199       200      1377      1381      1379
 -1       236    8    0    1
 -2        44        43       201      1150      1382      1383
 -1       237    8    0    1
 -2        43       200       201      1380      1384      1382
 -1       238    8    0    1
 -2        45        44       202      1151      1385      1386
 -1       239    8    0    1
 -2        44       201       202      1383      1387      1385
 -1       240    8    0    1
 -2        46        45       203      1152      1388      1389
 -1       241    8    0    1
 -2        45       202       203      1386      1390      1388
 -1       242    8    0    1
 -2        47        46       204      1153      1391      1392
 -1       243    8    0    1
 -2        46       203       204      1389      1393      1391
 -1       244    8    0    1
 -2        48        47       205      1154      1394      1395
 -1       245    8    0    1
 -2        47       204       205      1392      1396      1394
 -1       246    8    0    1
 -2        49        48       206      1155      1397      1398
 -1       247    8    0    1
 -2        48       205       206      1395      1399      1397
 -1       248    8    0    1
 -2        50        49       207      1156      1400      1401
 -1       249    8    0    1
 -2        49       206       207      1398      1402      1400
 -1       250    8    0    1
 -2        51        50       208      1157      1403      1404
 -1       251    8    0    1
 -2        50       207       208      1401      1405      1403
 -1       252    8    0    1
 -2        52        51       209      1158      1406      1407
 -1       253    8    0    1
 -2        51       208       209      1404      1408      1406
 -1       254    8    0    1
 -2        53        52       210      1159      1409      1410
 -1       255    8    0    1
 -2        52       209       210      1407      1411      1409
 -1       256    8    0    1
 -2        54        53       211      1160      1412      1413
 -1       257    8    0    1
 -2        53       210       211      1410      1414      1412
 -1       258    8    0    1
 -2        55        54       212      1161      1415      1416
 -1       259    8    0    1
 -2        54       211       212      1413      1417      1415
 -1       260    8    0    1
 -2        56        55       213      1162      1418      1419
 -1       261    8    0    1
 -2        55       212       213      1416      1420      1418
 -1       262    8    0    1
 -2        57        56       214      1163      1421      1422
 -1       263    8    0    1
 -2        56       213       214      1419      1423      1421
 -1       264    8    0    1
 -2        58        57       215      1164      1424      1425
 -1       265    8    0    1
 -2        57       214       215      1422      1426      1424
 -1       266    8    0    1
 -2        59        58       216      1165      1427      1428
 -1       267    8    0    1
 -2        58       215       216      1425      1429      1427
 -1       268    8    0    1
 -2        60        59       217      1166      1430      1431
 -1       269    8    0    1
 -2        59       216       217      1428      1432      1430
 -1       270    8    0    1
 -2        61        60       218      1167      1433      1434
 -1       271    8    0    1
 -2        60       217       218      1431      1435      1433
 -1       272    8    0    1
 -2        62        61       219      1168      1436      1437
 -1       273    8    0    1
 -2        61       218       219      1434      1438      1436
 -1       274    8    0    1
 -2        63        62       220      1169      1439      1440
 -1       275    8    0    1
 -2        62       219       220      1437      1441      1439
 -1       276    8    0    1
 -2        64        63       221      1170      1442      1443
 -1       277    8    0    1
 -2        63       220       221      1440      1444      1442
 -1       278    8    0    1
 -2        65        64       222      1171      1445      1446
 -1       279    8    0    1
 -2        64       221       222      1443      1447      1445
 -1       280    8    0    1
 -2        66        65       223      1172      1448      1449
 -1       281    8    0    1
 -2        65       222       223      1446      1450      1448
 -1       282    8    0    1
 -2        67        66       224      1173      1451      1452
 -1       283    8    0    1
 -2        66       223       224      1449      1453      1451
 -1       284    8    0    1
 -2        68        67       225      1174      1454      1455
 -1       285    8    0    1
 -2        67       224       225      1452      1456      1454
 -1       286    8    0    1
 -2        69        68       226      1175      1457      1458
 -1       287    8    0    1
 -2        68       225       226      1455      1459      1457
 -1       288    8    0    1
 -2        70        69       227      1176      1460      1461
 -1       289    8    0    1
 -2        69       226       227      1458      1462      1460
 -1       290    8    0    1
 -2        71        70       228      1177      1463      1464
 -1       291    8    0    1
 -2        70       227       228      1461      1465      1463
 -1       292    8    0    1
 -2         4        71       137      1178      1466      1246
 -1       293    8    0    1
 -2       137        71       228      1466      1464      1467
 -1       294    8    0    1
 -2        72        73       229      1180      1468      1469
 -1       295    8    0    1
 -2        73        74       230      1181      1470      1471
 -1       296    8    0    1
 -2        73       230       229      1471      1472      1468
 -1       297    8    0    1
 -2        74        75       231      1182      1473      1474
 -1       298    8    0    1
 -2        74       231       230      1474      1475      1470
 -1       299    8    0    1
 -2        75        76       232      1183      1476      1477
 -1       300    8    0    1
 -2        75       232       231      1477      1478      1473
 -1       301    8    0    1
 -2        76        77       233      1184      1479      1480
 -1       302    8    0    1
 -2        76       233       232      1480      1481      1476
 -1       303    8    0    1
 -2        77        78       234      1185      1482      1483
 -1       304    8    0    1
 -2        77       234       233      1483      1484      1479
 -1       305    8    0    1
 -2        78        79       235      1186      1485      1486
 -1       306    8    0    1
 -2        78       235       234      1486      1487      1482
 -1       307    8    0    1
 -2        79        80       236      1187      1488      1489
 -1       308    8    0    1
 -2        79       236       235      1489      1490      1485
 -1       309    8    0    1
 -2        80        81       237      1188      1491      1492
 -1       310    8    0    1
 -2        80       237       236      1492      1493      1488
 -1       311    8    0    1
 -2        81        82       238      1189      1494      1495
 -1       312    8    0    1
 -2        81       238       237      1495      1496      1491
 -1       313    8    0    1
 -2        82        83       239      1190      1497      1498
 -1       314    8    0    1
 -2        82       239       238      1498      1499      1494
 -1       315    8    0    1
 -2        83        84       240      1191      1500      1501
 -1       316    8    0    1
 -2        83       240       239      1501      1502      1497
 -1       317    8    0    1
 -2        84        85       241      1192      1503      1504
 -1       318    8    0    1
 -2        84       241       240      1504      1505      1500
 -1       319    8    0    1
 -2        85        86       242      1193      1506      1507
 -1       320    8    0    1
 -2        85       242       241      1507      1508      1503
 -1       321    8    0    1
 -2        86        87       243      1194      1509      1510
 -1       322    8    0    1
 -2        86       243       242      1510      1511      1506
 -1       323    8    0    1
 -2        87        88       244      1195      1512      1513
 -1       324    8    0    1
 -2        87       244       243      1513      1514      1509
 -1       325    8    0    1
 -2        88        89       245      1196      1515      1516
 -1       326    8    0    1
 -2        88       245       244      1516      1517      1512
 -1       327    8    0    1
 -2        89        90       246      1197      1518      1519
 -1       328    8    0    1
 -2        89       246       245      1519      1520      1515
 -1       329    8    0    1
 -2        90        91       247      1198      1521      1522
 -1       330    8    0    1
 -2        90       247       246      1522      1523      1518
 -1       331    8    0    1
 -2        91        92       248      1199      1524      1525
 -1       332    8    0    1
 -2        91       248       247      1525      1526      1521
 -1       333    8    0    1
 -2        92        93       249      1200      1527      1528
 -1       334    8    0    1
 -2        92       249       248      1528      1529      1524
 -1       335    8    0    1
 -2        93        94       250      1201      1530      1531
 -1       336    8    0    1
 -2        93       250       249      1531      1532      1527
 -1       337    8    0    1
 -2        94        95       251      1202      1533      1534
 -1       338    8    0    1
 -2        94       251       250      1534      1535      1530
 -1       339    8    0    1
 -2        95        96       252      1203      1536      1537
 -1       340    8    0    1
 -2        95       252       251      1537      1538      1533
 -1       341    8    0    1
 -2        96        97       253      1204      1539      1540
 -1       342    8    0    1
 -2        96       253       252      1540      1541      1536
 -1       343    8    0    1
 -2        97        98       254      1205      1542      1543
 -1       344    8    0    1
 -2        97       254       253      1543      1544      1539
 -1       345    8    0    1
 -2        98        99       255      1206      1545      1546
 -1       346    8    0    1
 -2        98       255       254      1546      1547      1542
 -1       347    8    0    1
 -2        99       100       256      1207      1548      1549
 -1       348    8    0    1
 -2        99       256       255      1549      1550      1545
 -1       349    8    0    1
 -2       100       101       257      1208      1551      1552
 -1       350    8    0    1
 -2       100       257       256      1552      1553      1548
 -1       351    8    0    1
 -2       101       102       258      1209      1554      1555
 -1       352    8    0    1
 -2       101       258       257      1555      1556      1551
 -1       353    8    0    1
 -2       102       103       259      1210      1557      1558
 -1       354    8    0    1
 -2       102       259       258      1558      1559      1554
 -1       355    8    0    1
 -2       103       104       260      1211      1560      1561
 -1       356    8    0    1
 -2       103       260       259      1561      1562      1557
 -1       357    8    0    1
 -2       104       105       261      1212      1563      1564
 -1       358    8    0    1
 -2       104       261       260      1564      1565      1560
 -1       359    8    0    1
 -2       105       106       262      1213      1566      1567
 -1       360    8    0    1
 -2       105       262       261      1567      1568      1563
 -1       361    8    0    1
 -2       106       107       263      1214      1569      1570
 -1       362    8    0    1
 -2       106       263       262      1570      1571      1566
 -1       363    8    0    1
 -2       107       108       264      1215      1572      1573
 -1       364    8    0    1
 -2       107       264       263      1573      1574      1569
 -1       365    8    0    1
 -2       108       109       265      1216      1575      1576
 -1       366    8    0    1
 -2       108       265       264      1576      1577      1572
 -1       367    8    0    1
 -2       109       110       266      1217      1578      1579
 -1       368    8    0    1
 -2       109       266       265      1579      1580      1575
 -1       369    8    0    1
 -2       110       111       267      1218      1581      1582
 -1       370    8    0    1
 -2       110       267       266      1582      1583      1578
 -1       371    8    0    1
 -2       111       112       268      1219      1584      1585
 -1       372    8    0    1
 -2       111       268       267      1585      1586      1581
 -1       373    8    0    1
 -2       112       113       269      1220      1587      1588
 -1       374    8    0    1
 -2       112       269       268      1588      1589      1584
 -1       375    8    0    1
 -2       113       114       270      1221      1590      1591
 -1       376    8    0    1
 -2       113       270       269      1591      1592      1587
 -1       377    8    0    1
 -2       114       115       271      1222      1593      1594
 -1       378    8    0    1
 -2       114       271       270      1594      1595      1590
 -1       379    8    0    1
 -2       115       116       272      1223      1596      1597
 -1       380    8    0    1
 -2       115       272       271      1597      1598      1593
 -1       381    8    0    1
 -2       116       117       273      1224      1599      1600
 -1       382    8    0    1
 -2       116       273       272      1600      1601      1596
 -1       383    8    0    1
 -2       117       118       274      1225      1602      1603
 -1       384    8    0    1
 -2       117       274       273      1603      1604      1599
 -1       385    8    0    1
 -2       118       119       275      1226      1605      1606
 -1       386    8    0    1
 -2       118       275       274      1606      1607      1602
 -1       387    8    0    1
 -2       119       120       276      1227      1608      1609
 -1       388    8    0    1
 -2       119       276       275      1609      1610      1605
 -1       389    8    0    1
 -2       120       121       277      1228      1611      1612
 -1       390    8    0    1
 -2       120       277       276      1612      1613      1608
 -1       391    8    0    1
 -2       121         3       122      1229      1230      1614
 -1       392    8    0    1
 -2       122       123       278      1231      1615      1616
 -1       393    8    0    1
 -2       123       124       279      1232      1617      1618
 -1       394    8    0    1
 -2       123       279       278      1618      1619      1615
 -1       395    8    0    1
 -2       124       125       280      1233      1620      1621
 -1       396    8    0    1
 -2       124       280       279      1621      1622      1617
 -1       397    8    0    1
 -2       125       126       281      1234      1623      1624
 -1       398    8    0    1
 -2       125       281       280      1624      1625      1620
 -1       399    8    0    1
 -2       126       127       282      1235      1626      1627
 -1       400    8    0    1
 -2       126       282       281      1627      1628      1623
 -1       401    8    0    1
 -2       127       128       283      1236      1629      1630
 -1       402    8    0    1
 -2       127       283       282      1630      1631      1626
 -1       403    8    0    1
 -2       128       129       284      1237      1632      1633
 -1       404    8    0    1
 -2       128       284       283      1633      1634      1629
 -1       405    8    0    1
 -2       129       130       285      1238      1635      1636
 -1       406    8    0    1
 -2       129       285       284      1636      1637      1632
 -1       407    8    0    1
 -2       130       131       286      1239      1638      1639
 -1       408    8    0    1
 -2       130       286       285      1639      1640      1635
 -1       409    8    0    1
 -2       131       132       287      1240      1641      1642
 -1       410    8    0    1
 -2       131       287       286      1642      1643      1638
 -1       411    8    0    1
 -2       132       133       288      1241      1644      1645
 -1       412    8    0    1
 -2       132       288       287      1645      1646      1641
 -1       413    8    0    1
 -2       133       134       289      1242      1647      1648
 -1       414    8    0    1
 -2       133       289       288      1648      1649      1644
 -1       415    8    0    1
 -2       134       135       290      1243      1650      1651
 -1       416    8    0    1
 -2       134       290       289      1651      1652      1647
 -1       417    8    0    1
 -2       135       136       291      1244      1653      1654
 -1       418    8    0    1
 -2       135       291       290      1654      1655      1650
 -1       419    8    0    1
 -2       136       137       292      1245      1656      1657
 -1       420    8    0    1
 -2       291       136       292      1653      1657      1658
 -1       421    8    0    1
 -2       137       228       292      1467      1659      1656
 -1       422    8    0    1
 -2         2       138       293      1247      1660      1661
 -1       423    8    0    1
 -2       138       139       294      1248      1662      1663
 -1       424    8    0    1
 -2       139       140       295      1249      1664      1665
 -1       425    8    0    1
 -2       140       141       296      1250      1666      1667
 -1       426    8    0    1
 -2       141       142       297      1251      1668      1669
 -1       427    8    0    1
 -2       142       143       298      1252      1670      1671
 -1       428    8    0    1
 -2       143       144       299      1253      1672      1673
 -1       429    8    0    1
 -2       144       145       300      1254      1674      1675
 -1       430    8    0    1
 -2       145       146       301      1255      1676      1677
 -1       431    8    0    1
 -2       146       147       302      1256      1678      1679
 -1       432    8    0    1
 -2       147       148       303      1257      1680      1681
 -1       433    8    0    1
 -2       148       149       304      1258      1682      1683
 -1       434    8    0    1
 -2       149       150       305      1259      1684      1685
 -1       435    8    0    1
 -2       150       151       306      1260      1686      1687
 -1       436    8    0    1
 -2       151       152       307      1261      1688      1689
 -1       437    8    0    1
 -2       152       153       308      1262      1690      1691
 -1       438    8    0    1
 -2       153       154       309      1263      1692      1693
 -1       439    8    0    1
 -2       154       155       310      1264      1694      1695
 -1       440    8    0    1
 -2       155         1       311      1265      1696      1697
 -1       441    8    0    1
 -2         1       156       312      1266      1698      1699
 -1       442    8    0    1
 -2       156       157       313      1267      1700      1701
 -1       443    8    0    1
 -2       157       158       314      1268      1702      1703
 -1       444    8    0    1
 -2       158       159       315      1269      1704      1705
 -1       445    8    0    1
 -2       159       160       316      1270      1706      1707
 -1       446    8    0    1
 -2       160       161       317      1271      1708      1709
 -1       447    8    0    1
 -2       161       162       318      1272      1710      1711
 -1       448    8    0    1
 -2       162       163       319      1273      1712      1713
 -1       449    8    0    1
 -2       163       164       320      1274      1714      1715
 -1       450    8    0    1
 -2       164       165       321      1275      1716      1717
 -1       451    8    0    1
 -2       165         2       322      1276      1718      1719
 -1       452    8    0    1
 -2        22        72       180      1322      1720      1319
 -1       453    8    0    1
 -2       295       140       296      1664      1667      1721
 -1       454    8    0    1
 -2       121       122       277      1614      1722      1611
 -1       455    8    0    1
 -2       293       138       294      1660      1663      1723
 -1       456    8    0    1
 -2       294       139       295      1662      1665      1724
 -1       457    8    0    1
 -2         2       293       322      1661      1725      1718
 -1       458    8    0    1
 -2       141       297       296      1669      1726      1666
 -1       459    8    0    1
 -2       142       298       297      1671      1727      1668
 -1       460    8    0    1
 -2       143       299       298      1673      1728      1670
 -1       461    8    0    1
 -2       144       300       299      1675      1729      1672
 -1       462    8    0    1
 -2       145       301       300      1677      1730      1674
 -1       463    8    0    1
 -2       146       302       301      1679      1731      1676
 -1       464    8    0    1
 -2       147       303       302      1681      1732      1678
 -1       465    8    0    1
 -2       148       304       303      1683      1733      1680
 -1       466    8    0    1
 -2       149       305       304      1685      1734      1682
 -1       467    8    0    1
 -2       150       306       305      1687      1735      1684
 -1       468    8    0    1
 -2       151       307       306      1689      1736      1686
 -1       469    8    0    1
 -2       152       308       307      1691      1737      1688
 -1       470    8    0    1
 -2       153       309       308      1693      1738      1690
 -1       471    8    0    1
 -2       154       310       309      1695      1739      1692
 -1       472    8    0    1
 -2       155       311       310      1697      1740      1694
 -1       473    8    0    1
 -2         1       312       311      1699      1741      1696
 -1       474    8    0    1
 -2       156       313       312      1701      1742      1698
 -1       475    8    0    1
 -2       157       314       313      1703      1743      1700
 -1       476    8    0    1
 -2       158       315       314      1705      1744      1702
 -1       477    8    0    1
 -2       159       316       315      1707      1745      1704
 -1       478    8    0    1
 -2       160       317       316      1709      1746      1706
 -1       479    8    0    1
 -2       161       318       317      1711      1747      1708
 -1       480    8    0    1
 -2       162       319       318      1713      1748      1710
 -1       481    8    0    1
 -2       163       320       319      1715      1749      1712
 -1       482    8    0    1
 -2       164       321       320      1717      1750      1714
 -1       483    8    0    1
 -2       165       322       321      1719      1751      1716
 -1       484    8    0    1
 -2        23         7       166      1277      1279      1752
 -1       485    8    0    1
 -2       167       168       323      1285      1753      1754
 -1       486    8    0    1
 -2       166       167       324      1282      1755      1756
 -1       487    8    0    1
 -2       167       323       324      1754      1757      1755
 -1       488    8    0    1
 -2       169       170       325      1291      1758      1759
 -1       489    8    0    1
 -2       170       171       326      1294      1760      1761
 -1       490    8    0    1
 -2       170       326       325      1761      1762      1758
 -1       491    8    0    1
 -2       171       172       327      1297      1763      1764
 -1       492    8    0    1
 -2       171       327       326      1764      1765      1760
 -1       493    8    0    1
 -2       172       173       328      1300      1766      1767
 -1       494    8    0    1
 -2       172       328       327      1767      1768      1763
 -1       495    8    0    1
 -2       173       174       329      1303      1769      1770
 -1       496    8    0    1
 -2       173       329       328      1770      1771      1766
 -1       497    8    0    1
 -2       174       175       330      1306      1772      1773
 -1       498    8    0    1
 -2       174       330       329      1773      1774      1769
 -1       499    8    0    1
 -2       175       176       331      1309      1775      1776
 -1       500    8    0    1
 -2       175       331       330      1776      1777      1772
 -1       501    8    0    1
 -2       176       177       332      1312      1778      1779
 -1       502    8    0    1
 -2       176       332       331      1779      1780      1775
 -1       503    8    0    1
 -2       177       178       333      1315      1781      1782
 -1       504    8    0    1
 -2       177       333       332      1782      1783      1778
 -1       505    8    0    1
 -2       178       179       334      1318      1784      1785
 -1       506    8    0    1
 -2       178       334       333      1785      1786      1781
 -1       507    8    0    1
 -2       179       180       335      1321      1787      1788
 -1       508    8    0    1
 -2       179       335       334      1788      1789      1784
 -1       509    8    0    1
 -2       295       296       336      1721      1790      1791
 -1       510    8    0    1
 -2       181        23       166      1323      1752      1792
 -1       511    8    0    1
 -2        72       229       180      1469      1793      1720
 -1       512    8    0    1
 -2       183       182       337      1330      1794      1795
 -1       513    8    0    1
 -2       184       183       338      1333      1796      1797
 -1       514    8    0    1
 -2       183       337       338      1795      1798      1796
 -1       515    8    0    1
 -2       185       184       339      1336      1799      1800
 -1       516    8    0    1
 -2       184       338       339      1797      1801      1799
 -1       517    8    0    1
 -2       186       185       340      1339      1802      1803
 -1       518    8    0    1
 -2       185       339       340      1800      1804      1802
 -1       519    8    0    1
 -2       187       186       341      1342      1805      1806
 -1       520    8    0    1
 -2       186       340       341      1803      1807      1805
 -1       521    8    0    1
 -2       188       187       342      1345      1808      1809
 -1       522    8    0    1
 -2       187       341       342      1806      1810      1808
 -1       523    8    0    1
 -2       189       188       343      1348      1811      1812
 -1       524    8    0    1
 -2       188       342       343      1809      1813      1811
 -1       525    8    0    1
 -2       190       189       344      1351      1814      1815
 -1       526    8    0    1
 -2       189       343       344      1812      1816      1814
 -1       527    8    0    1
 -2       191       190       345      1354      1817      1818
 -1       528    8    0    1
 -2       190       344       345      1815      1819      1817
 -1       529    8    0    1
 -2       192       191       346      1357      1820      1821
 -1       530    8    0    1
 -2       191       345       346      1818      1822      1820
 -1       531    8    0    1
 -2       193       192       347      1360      1823      1824
 -1       532    8    0    1
 -2       192       346       347      1821      1825      1823
 -1       533    8    0    1
 -2       194       193       348      1363      1826      1827
 -1       534    8    0    1
 -2       193       347       348      1824      1828      1826
 -1       535    8    0    1
 -2       195       194       349      1366      1829      1830
 -1       536    8    0    1
 -2       194       348       349      1827      1831      1829
 -1       537    8    0    1
 -2       196       195       350      1369      1832      1833
 -1       538    8    0    1
 -2       195       349       350      1830      1834      1832
 -1       539    8    0    1
 -2       197       196       351      1372      1835      1836
 -1       540    8    0    1
 -2       196       350       351      1833      1837      1835
 -1       541    8    0    1
 -2       198       197       352      1375      1838      1839
 -1       542    8    0    1
 -2       197       351       352      1836      1840      1838
 -1       543    8    0    1
 -2       199       198       353      1378      1841      1842
 -1       544    8    0    1
 -2       198       352       353      1839      1843      1841
 -1       545    8    0    1
 -2       200       199       354      1381      1844      1845
 -1       546    8    0    1
 -2       199       353       354      1842      1846      1844
 -1       547    8    0    1
 -2       201       200       355      1384      1847      1848
 -1       548    8    0    1
 -2       200       354       355      1845      1849      1847
 -1       549    8    0    1
 -2       202       201       356      1387      1850      1851
 -1       550    8    0    1
 -2       201       355       356      1848      1852      1850
 -1       551    8    0    1
 -2       203       202       357      1390      1853      1854
 -1       552    8    0    1
 -2       202       356       357      1851      1855      1853
 -1       553    8    0    1
 -2       204       203       358      1393      1856      1857
 -1       554    8    0    1
 -2       203       357       358      1854      1858      1856
 -1       555    8    0    1
 -2       205       204       359      1396      1859      1860
 -1       556    8    0    1
 -2       204       358       359      1857      1861      1859
 -1       557    8    0    1
 -2       206       205       360      1399      1862      1863
 -1       558    8    0    1
 -2       205       359       360      1860      1864      1862
 -1       559    8    0    1
 -2       207       206       361      1402      1865      1866
 -1       560    8    0    1
 -2       206       360       361      1863      1867      1865
 -1       561    8    0    1
 -2       208       207       362      1405      1868      1869
 -1       562    8    0    1
 -2       207       361       362      1866      1870      1868
 -1       563    8    0    1
 -2       209       208       363      1408      1871      1872
 -1       564    8    0    1
 -2       208       362       363      1869      1873      1871
 -1       565    8    0    1
 -2       210       209       364      1411      1874      1875
 -1       566    8    0    1
 -2       209       363       364      1872      1876      1874
 -1       567    8    0    1
 -2       211       210       365      1414      1877      1878
 -1       568    8    0    1
 -2       210       364       365      1875      1879      1877
 -1       569    8    0    1
 -2       212       211       366      1417      1880      1881
 -1       570    8    0    1
 -2       211       365       366      1878      1882      1880
 -1       571    8    0    1
 -2       213       212       367      1420      1883      1884
 -1       572    8    0    1
 -2       212       366       367      1881      1885      1883
 -1       573    8    0    1
 -2       214       213       368      1423      1886      1887
 -1       574    8    0    1
 -2       213       367       368      1884      1888      1886
 -1       575    8    0    1
 -2       215       214       369      1426      1889      1890
 -1       576    8    0    1
 -2       214       368       369      1887      1891      1889
 -1       577    8    0    1
 -2       216       215       370      1429      1892      1893
 -1       578    8    0    1
 -2       215       369       370      1890      1894      1892
 -1       579    8    0    1
 -2       217       216       371      1432      1895      1896
 -1       580    8    0    1
 -2       216       370       371      1893      1897      1895
 -1       581    8    0    1
 -2       218       217       372      1435      1898      1899
 -1       582    8    0    1
 -2       217       371       372      1896      1900      1898
 -1       583    8    0    1
 -2       219       218       373      1438      1901      1902
 -1       584    8    0    1
 -2       218       372       373      1899      1903      1901
 -1       585    8    0    1
 -2       220       219       374      1441      1904      1905
 -1       586    8    0    1
 -2       219       373       374      1902      1906      1904
 -1       587    8    0    1
 -2       221       220       375      1444      1907      1908
 -1       588    8    0    1
 -2       220       374       375      1905      1909      1907
 -1       589    8    0    1
 -2       222       221       376      1447      1910      1911
 -1       590    8    0    1
 -2       221       375       376      1908      1912      1910
 -1       591    8    0    1
 -2       223       222       377      1450      1913      1914
 -1       592    8    0    1
 -2       222       376       377      1911      1915      1913
 -1       593    8    0    1
 -2       224       223       378      1453      1916      1917
 -1       594    8    0    1
 -2       223       377       378      1914      1918      1916
 -1       595    8    0    1
 -2       225       224       379      1456      1919      1920
 -1       596    8    0    1
 -2       224       378       379      1917      1921      1919
 -1       597    8    0    1
 -2       226       225       380      1459      1922      1923
 -1       598    8    0    1
 -2       225       379       380      1920      1924      1922
 -1       599    8    0    1
 -2       227       226       381      1462      1925      1926
 -1       600    8    0    1
 -2       226       380       381      1923      1927      1925
 -1       601    8    0    1
 -2       228       227       382      1465      1928      1929
 -1       602    8    0    1
 -2       292       228       382      1659      1929      1930
 -1       603    8    0    1
 -2       227       381       382      1926      1931      1928
 -1       604    8    0    1
 -2       231       232       383      1478      1932      1933
 -1       605    8    0    1
 -2       230       231       384      1475      1934      1935
 -1       606    8    0    1
 -2       231       383       384      1933      1936      1934
 -1       607    8    0    1
 -2       232       233       385      1481      1937      1938
 -1       608    8    0    1
 -2       232       385       383      1938      1939      1932
 -1       609    8    0    1
 -2       233       234       386      1484      1940      1941
 -1       610    8    0    1
 -2       233       386       385      1941      1942      1937
 -1       611    8    0    1
 -2       234       235       387      1487      1943      1944
 -1       612    8    0    1
 -2       234       387       386      1944      1945      1940
 -1       613    8    0    1
 -2       235       236       388      1490      1946      1947
 -1       614    8    0    1
 -2       235       388       387      1947      1948      1943
 -1       615    8    0    1
 -2       236       237       389      1493      1949      1950
 -1       616    8    0    1
 -2       236       389       388      1950      1951      1946
 -1       617    8    0    1
 -2       237       238       390      1496      1952      1953
 -1       618    8    0    1
 -2       237       390       389      1953      1954      1949
 -1       619    8    0    1
 -2       238       239       391      1499      1955      1956
 -1       620    8    0    1
 -2       238       391       390      1956      1957      1952
 -1       621    8    0    1
 -2       239       240       392      1502      1958      1959
 -1       622    8    0    1
 -2       239       392       391      1959      1960      1955
 -1       623    8    0    1
 -2       240       241       393      1505      1961      1962
 -1       624    8    0    1
 -2       240       393       392      1962      1963      1958
 -1       625    8    0    1
 -2       241       242       394      1508      1964      1965
 -1       626    8    0    1
 -2       241       394       393      1965      1966      1961
 -1       627    8    0    1
 -2       242       243       395      1511      1967      1968
 -1       628    8    0    1
 -2       242       395       394      1968      1969      1964
 -1       629    8    0    1
 -2       243       244       396      1514      1970      1971
 -1       630    8    0    1
 -2       243       396       395      1971      1972      1967
 -1       631    8    0    1
 -2       244       245       397      1517      1973      1974
 -1       632    8    0    1
 -2       244       397       396      1974      1975      1970
 -1       633    8    0    1
 -2       245       246       398      1520      1976      1977
 -1       634    8    0    1
 -2       245       398       397      1977      1978      1973
 -1       635    8    0    1
 -2       247       248       399      1526      1979      1980
 -1       636    8    0    1
 -2       249       250       400      1532      1981      1982
 -1       637    8    0    1
 -2       250       251       401      1535      1983      1984
 -1       638    8    0    1
 -2       251       252       402      1538      1985      1986
 -1       639    8    0    1
 -2       251       402       401      1986      1987      1983
 -1       640    8    0    1
 -2       252       253       403      1541      1988      1989
 -1       641    8    0    1
 -2       252       403       402      1989      1990      1985
 -1       642    8    0    1
 -2       253       254       404      1544      1991      1992
 -1       643    8    0    1
 -2       253       404       403      1992      1993      1988
 -1       644    8    0    1
 -2       254       255       405      1547      1994      1995
 -1       645    8    0    1
 -2       254       405       404      1995      1996      1991
 -1       646    8    0    1
 -2       255       256       406      1550      1997      1998
 -1       647    8    0    1
 -2       255       406       405      1998      1999      1994
 -1       648    8    0    1
 -2       256       257       407      1553      2000      2001
 -1       649    8    0    1
 -2       256       407       406      2001      2002      1997
 -1       650    8    0    1
 -2       257       258       408      1556      2003      2004
 -1       651    8    0    1
 -2       257       408       407      2004      2005      2000
 -1       652    8    0    1
 -2       258       259       409      1559      2006      2007
 -1       653    8    0    1
 -2       258       409       408      2007      2008      2003
 -1       654    8    0    1
 -2       259       260       410      1562      2009      2010
 -1       655    8    0    1
 -2       259       410       409      2010      2011      2006
 -1       656    8    0    1
 -2       260       261       411      1565      2012      2013
 -1       657    8    0    1
 -2       260       411       410      2013      2014      2009
 -1       658    8    0    1
 -2       261       262       412      1568      2015      2016
 -1       659    8    0    1
 -2       261       412       411      2016      2017      2012
 -1       660    8    0    1
 -2       262       263       413      1571      2018      2019
 -1       661    8    0    1
 -2       262       413       412      2019      2020      2015
 -1       662    8    0    1
 -2       263       264       414      1574      2021      2022
 -1       663    8    0    1
 -2       263       414       413      2022      2023      2018
 -1       664    8    0    1
 -2       264       265       415      1577      2024      2025
 -1       665    8    0    1
 -2       264       415       414      2025      2026      2021
 -1       666    8    0    1
 -2       265       266       416      1580      2027      2028
 -1       667    8    0    1
 -2       265       416       415      2028      2029      2024
 -1       668    8    0    1
 -2       266       267       417      1583      2030      2031
 -1       669    8    0    1
 -2       266       417       416      2031      2032      2027
 -1       670    8    0    1
 -2       267       268       418      1586      2033      2034
 -1       671    8    0    1
 -2       267       418       417      2034      2035      2030
 -1       672    8    0    1
 -2       268       269       419      1589      2036      2037
 -1       673    8    0    1
 -2       268       419       418      2037      2038      2033
 -1       674    8    0    1
 -2       269       270       420      1592      2039      2040
 -1       675    8    0    1
 -2       269       420       419      2040      2041      2036
 -1       676    8    0    1
 -2       270       271       421      1595      2042      2043
 -1       677    8    0    1
 -2       270       421       420      2043      2044      2039
 -1       678    8    0    1
 -2       271       272       422      1598      2045      2046
 -1       679    8    0    1
 -2       271       422       421      2046      2047      2042
 -1       680    8    0    1
 -2       272       273       423      1601      2048      2049
 -1       681    8    0    1
 -2       272       423       422      2049      2050      2045
 -1       682    8    0    1
 -2       273       274       424      1604      2051      2052
 -1       683    8    0    1
 -2       273       424       423      2052      2053      2048
 -1       684    8    0    1
 -2       274       275       425      1607      2054      2055
 -1       685    8    0    1
 -2       274       425       424      2055      2056      2051
 -1       686    8    0    1
 -2       275       276       426      1610      2057      2058
 -1       687    8    0    1
 -2       275       426       425      2058      2059      2054
 -1       688    8    0    1
 -2       276       277       427      1613      2060      2061
 -1       689    8    0    1
 -2       276       427       426      2061      2062      2057
 -1       690    8    0    1
 -2       293       294       428      1723      2063      2064
 -1       691    8    0    1
 -2       280       281       429      1625      2065      2066
 -1       692    8    0    1
 -2       279       280       430      1622      2067      2068
 -1       693    8    0    1
 -2       280       429       430      2066      2069      2067
 -1       694    8    0    1
 -2       122       278       277      1616      2070      1722
 -1       695    8    0    1
 -2       281       282       431      1628      2071      2072
 -1       696    8    0    1
 -2       281       431       429      2072      2073      2065
 -1       697    8    0    1
 -2       282       283       432      1631      2074      2075
 -1       698    8    0    1
 -2       282       432       431      2075      2076      2071
 -1       699    8    0    1
 -2       283       284       433      1634      2077      2078
 -1       700    8    0    1
 -2       283       433       432      2078      2079      2074
 -1       701    8    0    1
 -2       284       285       434      1637      2080      2081
 -1       702    8    0    1
 -2       284       434       433      2081      2082      2077
 -1       703    8    0    1
 -2       285       286       435      1640      2083      2084
 -1       704    8    0    1
 -2       285       435       434      2084      2085      2080
 -1       705    8    0    1
 -2       286       287       436      1643      2086      2087
 -1       706    8    0    1
 -2       286       436       435      2087      2088      2083
 -1       707    8    0    1
 -2       287       288       437      1646      2089      2090
 -1       708    8    0    1
 -2       287       437       436      2090      2091      2086
 -1       709    8    0    1
 -2       288       289       438      1649      2092      2093
 -1       710    8    0    1
 -2       288       438       437      2093      2094      2089
 -1       711    8    0    1
 -2       289       290       439      1652      2095      2096
 -1       712    8    0    1
 -2       289       439       438      2096      2097      2092
 -1       713    8    0    1
 -2       290       291       440      1655      2098      2099
 -1       714    8    0    1
 -2       290       440       439      2099      2100      2095
 -1       715    8    0    1
 -2       294       295       441      1724      2101      2102
 -1       716    8    0    1
 -2       322       293       442      1725      2103      2104
 -1       717    8    0    1
 -2       168       169       443      1288      2105      2106
 -1       718    8    0    1
 -2       323       168       443      1753      2106      2107
 -1       719    8    0    1
 -2       169       325       443      1759      2108      2105
 -1       720    8    0    1
 -2       297       298       444      1727      2109      2110
 -1       721    8    0    1
 -2       298       299       400      1728      2111      2112
 -1       722    8    0    1
 -2       300       301       399      1730      2113      2114
 -1       723    8    0    1
 -2       301       302       445      1731      2115      2116
 -1       724    8    0    1
 -2       301       445       399      2116      2117      2113
 -1       725    8    0    1
 -2       302       303       446      1732      2118      2119
 -1       726    8    0    1
 -2       302       446       445      2119      2120      2115
 -1       727    8    0    1
 -2       303       304       447      1733      2121      2122
 -1       728    8    0    1
 -2       303       447       446      2122      2123      2118
 -1       729    8    0    1
 -2       304       305       448      1734      2124      2125
 -1       730    8    0    1
 -2       305       306       449      1735      2126      2127
 -1       731    8    0    1
 -2       306       307       450      1736      2128      2129
 -1       732    8    0    1
 -2       307       308       451      1737      2130      2131
 -1       733    8    0    1
 -2       308       309       452      1738      2132      2133
 -1       734    8    0    1
 -2       309       310       453      1739      2134      2135
 -1       735    8    0    1
 -2       310       311       454      1740      2136      2137
 -1       736    8    0    1
 -2       310       454       453      2137      2138      2134
 -1       737    8    0    1
 -2       311       312       455      1741      2139      2140
 -1       738    8    0    1
 -2       312       313       456      1742      2141      2142
 -1       739    8    0    1
 -2       313       314       457      1743      2143      2144
 -1       740    8    0    1
 -2       314       315       458      1744      2145      2146
 -1       741    8    0    1
 -2       315       316       459      1745      2147      2148
 -1       742    8    0    1
 -2       316       317       460      1746      2149      2150
 -1       743    8    0    1
 -2       316       460       459      2150      2151      2147
 -1       744    8    0    1
 -2       317       318       461      1747      2152      2153
 -1       745    8    0    1
 -2       318       319       462      1748      2154      2155
 -1       746    8    0    1
 -2       318       462       461      2155      2156      2152
 -1       747    8    0    1
 -2       319       320       463      1749      2157      2158
 -1       748    8    0    1
 -2       320       321       464      1750      2159      2160
 -1       749    8    0    1
 -2       321       322       465      1751      2161      2162
 -1       750    8    0    1
 -2       180       229       335      1793      2163      1787
 -1       751    8    0    1
 -2       296       297       466      1726      2164      2165
 -1       752    8    0    1
 -2       296       466       336      2165      2166      1790
 -1       753    8    0    1
 -2       181       166       324      1792      1756      2167
 -1       754    8    0    1
 -2       277       278       427      2070      2168      2060
 -1       755    8    0    1
 -2       427       278       279      2168      1619      2169
 -1       756    8    0    1
 -2       295       336       441      1791      2170      2101
 -1       757    8    0    1
 -2       181       324       182      2167      2171      1327
 -1       758    8    0    1
 -2       297       444       466      2110      2172      2164
 -1       759    8    0    1
 -2       337       182       324      1794      2171      2173
 -1       760    8    0    1
 -2       230       384       335      1935      2174      2175
 -1       761    8    0    1
 -2       229       230       335      1472      2175      2163
 -1       762    8    0    1
 -2       247       399       445      1980      2117      2176
 -1       763    8    0    1
 -2       398       246       467      1976      2177      2178
 -1       764    8    0    1
 -2       399       248       468      1979      2179      2180
 -1       765    8    0    1
 -2       300       399       468      2114      2180      2181
 -1       766    8    0    1
 -2       248       249       468      1529      2182      2179
 -1       767    8    0    1
 -2       246       247       467      1523      2183      2177
 -1       768    8    0    1
 -2       249       400       468      1982      2184      2182
 -1       769    8    0    1
 -2       467       247       445      2183      2176      2185
 -1       770    8    0    1
 -2       250       401       400      1984      2186      1981
 -1       771    8    0    1
 -2       293       428       442      2064      2187      2103
 -1       772    8    0    1
 -2       427       279       430      2169      2068      2188
 -1       773    8    0    1
 -2       428       294       441      2063      2102      2189
 -1       774    8    0    1
 -2       440       291       292      2098      1658      2190
 -1       775    8    0    1
 -2       322       442       465      2104      2191      2161
 -1       776    8    0    1
 -2       464       321       465      2159      2162      2192
 -1       777    8    0    1
 -2       462       319       463      2154      2158      2193
 -1       778    8    0    1
 -2       460       317       461      2149      2153      2194
 -1       779    8    0    1
 -2       458       315       459      2145      2148      2195
 -1       780    8    0    1
 -2       457       314       458      2143      2146      2196
 -1       781    8    0    1
 -2       456       313       457      2141      2144      2197
 -1       782    8    0    1
 -2       454       311       469      2136      2198      2199
 -1       783    8    0    1
 -2       311       455       469      2140      2200      2198
 -1       784    8    0    1
 -2       452       309       453      2132      2135      2201
 -1       785    8    0    1
 -2       451       308       452      2130      2133      2202
 -1       786    8    0    1
 -2       450       307       451      2128      2131      2203
 -1       787    8    0    1
 -2       449       306       450      2126      2129      2204
 -1       788    8    0    1
 -2       400       299       468      2111      2205      2184
 -1       789    8    0    1
 -2       299       300       468      1729      2181      2205
 -1       790    8    0    1
 -2       304       448       447      2125      2206      2121
 -1       791    8    0    1
 -2       448       305       449      2124      2127      2207
 -1       792    8    0    1
 -2       455       312       456      2139      2142      2208
 -1       793    8    0    1
 -2       463       320       464      2157      2160      2209
 -1       794    8    0    1
 -2       326       327       470      1765      2210      2211
 -1       795    8    0    1
 -2       325       326       471      1762      2212      2213
 -1       796    8    0    1
 -2       326       470       471      2211      2214      2212
 -1       797    8    0    1
 -2       328       329       472      1771      2215      2216
 -1       798    8    0    1
 -2       329       330       473      1774      2217      2218
 -1       799    8    0    1
 -2       329       473       472      2218      2219      2215
 -1       800    8    0    1
 -2       330       331       474      1777      2220      2221
 -1       801    8    0    1
 -2       330       474       473      2221      2222      2217
 -1       802    8    0    1
 -2       331       332       475      1780      2223      2224
 -1       803    8    0    1
 -2       331       475       474      2224      2225      2220
 -1       804    8    0    1
 -2       332       333       476      1783      2226      2227
 -1       805    8    0    1
 -2       332       476       475      2227      2228      2223
 -1       806    8    0    1
 -2       333       334       477      1786      2229      2230
 -1       807    8    0    1
 -2       333       477       476      2230      2231      2226
 -1       808    8    0    1
 -2       334       335       478      1789      2232      2233
 -1       809    8    0    1
 -2       477       334       478      2229      2233      2234
 -1       810    8    0    1
 -2       335       384       478      2174      2235      2232
 -1       811    8    0    1
 -2       336       466       479      2166      2236      2237
 -1       812    8    0    1
 -2       338       337       480      1798      2238      2239
 -1       813    8    0    1
 -2       339       338       481      1801      2240      2241
 -1       814    8    0    1
 -2       338       480       481      2239      2242      2240
 -1       815    8    0    1
 -2       340       339       482      1804      2243      2244
 -1       816    8    0    1
 -2       339       481       482      2241      2245      2243
 -1       817    8    0    1
 -2       341       340       483      1807      2246      2247
 -1       818    8    0    1
 -2       340       482       483      2244      2248      2246
 -1       819    8    0    1
 -2       342       341       484      1810      2249      2250
 -1       820    8    0    1
 -2       341       483       484      2247      2251      2249
 -1       821    8    0    1
 -2       343       342       485      1813      2252      2253
 -1       822    8    0    1
 -2       342       484       485      2250      2254      2252
 -1       823    8    0    1
 -2       344       343       486      1816      2255      2256
 -1       824    8    0    1
 -2       343       485       486      2253      2257      2255
 -1       825    8    0    1
 -2       345       344       487      1819      2258      2259
 -1       826    8    0    1
 -2       344       486       487      2256      2260      2258
 -1       827    8    0    1
 -2       346       345       488      1822      2261      2262
 -1       828    8    0    1
 -2       345       487       488      2259      2263      2261
 -1       829    8    0    1
 -2       347       346       489      1825      2264      2265
 -1       830    8    0    1
 -2       346       488       489      2262      2266      2264
 -1       831    8    0    1
 -2       348       347       490      1828      2267      2268
 -1       832    8    0    1
 -2       347       489       490      2265      2269      2267
 -1       833    8    0    1
 -2       349       348       491      1831      2270      2271
 -1       834    8    0    1
 -2       348       490       491      2268      2272      2270
 -1       835    8    0    1
 -2       350       349       492      1834      2273      2274
 -1       836    8    0    1
 -2       349       491       492      2271      2275      2273
 -1       837    8    0    1
 -2       351       350       493      1837      2276      2277
 -1       838    8    0    1
 -2       350       492       493      2274      2278      2276
 -1       839    8    0    1
 -2       352       351       494      1840      2279      2280
 -1       840    8    0    1
 -2       351       493       494      2277      2281      2279
 -1       841    8    0    1
 -2       353       352       495      1843      2282      2283
 -1       842    8    0    1
 -2       352       494       495      2280      2284      2282
 -1       843    8    0    1
 -2       354       353       496      1846      2285      2286
 -1       844    8    0    1
 -2       353       495       496      2283      2287      2285
 -1       845    8    0    1
 -2       355       354       497      1849      2288      2289
 -1       846    8    0    1
 -2       354       496       497      2286      2290      2288
 -1       847    8    0    1
 -2       356       355       498      1852      2291      2292
 -1       848    8    0    1
 -2       355       497       498      2289      2293      2291
 -1       849    8    0    1
 -2       357       356       499      1855      2294      2295
 -1       850    8    0    1
 -2       356       498       499      2292      2296      2294
 -1       851    8    0    1
 -2       358       357       500      1858      2297      2298
 -1       852    8    0    1
 -2       357       499       500      2295      2299      2297
 -1       853    8    0    1
 -2       359       358       501      1861      2300      2301
 -1       854    8    0    1
 -2       358       500       501      2298      2302      2300
 -1       855    8    0    1
 -2       360       359       502      1864      2303      2304
 -1       856    8    0    1
 -2       359       501       502      2301      2305      2303
 -1       857    8    0    1
 -2       361       360       503      1867      2306      2307
 -1       858    8    0    1
 -2       360       502       503      2304      2308      2306
 -1       859    8    0    1
 -2       362       361       504      1870      2309      2310
 -1       860    8    0    1
 -2       361       503       504      2307      2311      2309
 -1       861    8    0    1
 -2       363       362       505      1873      2312      2313
 -1       862    8    0    1
 -2       362       504       505      2310      2314      2312
 -1       863    8    0    1
 -2       364       363       506      1876      2315      2316
 -1       864    8    0    1
 -2       363       505       506      2313      2317      2315
 -1       865    8    0    1
 -2       365       364       507      1879      2318      2319
 -1       866    8    0    1
 -2       364       506       507      2316      2320      2318
 -1       867    8    0    1
 -2       366       365       508      1882      2321      2322
 -1       868    8    0    1
 -2       365       507       508      2319      2323      2321
 -1       869    8    0    1
 -2       367       366       509      1885      2324      2325
 -1       870    8    0    1
 -2       366       508       509      2322      2326      2324
 -1       871    8    0    1
 -2       368       367       510      1888      2327      2328
 -1       872    8    0    1
 -2       367       509       510      2325      2329      2327
 -1       873    8    0    1
 -2       369       368       511      1891      2330      2331
 -1       874    8    0    1
 -2       368       510       511      2328      2332      2330
 -1       875    8    0    1
 -2       370       369       512      1894      2333      2334
 -1       876    8    0    1
 -2       369       511       512      2331      2335      2333
 -1       877    8    0    1
 -2       371       370       513      1897      2336      2337
 -1       878    8    0    1
 -2       370       512       513      2334      2338      2336
 -1       879    8    0    1
 -2       372       371       514      1900      2339      2340
 -1       880    8    0    1
 -2       371       513       514      2337      2341      2339
 -1       881    8    0    1
 -2       373       372       515      1903      2342      2343
 -1       882    8    0    1
 -2       372       514       515      2340      2344      2342
 -1       883    8    0    1
 -2       374       373       516      1906      2345      2346
 -1       884    8    0    1
 -2       373       515       516      2343      2347      2345
 -1       885    8    0    1
 -2       375       374       517      1909      2348      2349
 -1       886    8    0    1
 -2       374       516       517      2346      2350      2348
 -1       887    8    0    1
 -2       376       375       518      1912      2351      2352
 -1       888    8    0    1
 -2       375       517       518      2349      2353      2351
 -1       889    8    0    1
 -2       377       376       519      1915      2354      2355
 -1       890    8    0    1
 -2       376       518       519      2352      2356      2354
 -1       891    8    0    1
 -2       378       377       520      1918      2357      2358
 -1       892    8    0    1
 -2       377       519       520      2355      2359      2357
 -1       893    8    0    1
 -2       379       378       521      1921      2360      2361
 -1       894    8    0    1
 -2       378       520       521      2358      2362      2360
 -1       895    8    0    1
 -2       380       379       522      1924      2363      2364
 -1       896    8    0    1
 -2       379       521       522      2361      2365      2363
 -1       897    8    0    1
 -2       381       380       523      1927      2366      2367
 -1       898    8    0    1
 -2       380       522       523      2364      2368      2366
 -1       899    8    0    1
 -2       384       383       524      1936      2369      2370
 -1       900    8    0    1
 -2       384       524       478      2370      2371      2235
 -1       901    8    0    1
 -2       386       387       525      1945      2372      2373
 -1       902    8    0    1
 -2       387       388       526      1948      2374      2375
 -1       903    8    0    1
 -2       387       526       525      2375      2376      2372
 -1       904    8    0    1
 -2       388       389       527      1951      2377      2378
 -1       905    8    0    1
 -2       388       527       526      2378      2379      2374
 -1       906    8    0    1
 -2       389       390       528      1954      2380      2381
 -1       907    8    0    1
 -2       389       528       527      2381      2382      2377
 -1       908    8    0    1
 -2       390       391       529      1957      2383      2384
 -1       909    8    0    1
 -2       390       529       528      2384      2385      2380
 -1       910    8    0    1
 -2       391       392       530      1960      2386      2387
 -1       911    8    0    1
 -2       391       530       529      2387      2388      2383
 -1       912    8    0    1
 -2       392       393       531      1963      2389      2390
 -1       913    8    0    1
 -2       392       531       530      2390      2391      2386
 -1       914    8    0    1
 -2       393       394       532      1966      2392      2393
 -1       915    8    0    1
 -2       393       532       531      2393      2394      2389
 -1       916    8    0    1
 -2       394       395       533      1969      2395      2396
 -1       917    8    0    1
 -2       394       533       532      2396      2397      2392
 -1       918    8    0    1
 -2       395       396       534      1972      2398      2399
 -1       919    8    0    1
 -2       395       534       533      2399      2400      2395
 -1       920    8    0    1
 -2       396       397       535      1975      2401      2402
 -1       921    8    0    1
 -2       396       535       534      2402      2403      2398
 -1       922    8    0    1
 -2       397       398       536      1978      2404      2405
 -1       923    8    0    1
 -2       397       536       535      2405      2406      2401
 -1       924    8    0    1
 -2       401       402       479      1987      2407      2408
 -1       925    8    0    1
 -2       404       405       537      1996      2409      2410
 -1       926    8    0    1
 -2       405       406       538      1999      2411      2412
 -1       927    8    0    1
 -2       405       538       537      2412      2413      2409
 -1       928    8    0    1
 -2       406       407       539      2002      2414      2415
 -1       929    8    0    1
 -2       406       539       538      2415      2416      2411
 -1       930    8    0    1
 -2       407       408       540      2005      2417      2418
 -1       931    8    0    1
 -2       407       540       539      2418      2419      2414
 -1       932    8    0    1
 -2       408       409       541      2008      2420      2421
 -1       933    8    0    1
 -2       408       541       540      2421      2422      2417
 -1       934    8    0    1
 -2       409       410       542      2011      2423      2424
 -1       935    8    0    1
 -2       409       542       541      2424      2425      2420
 -1       936    8    0    1
 -2       410       411       543      2014      2426      2427
 -1       937    8    0    1
 -2       410       543       542      2427      2428      2423
 -1       938    8    0    1
 -2       411       412       544      2017      2429      2430
 -1       939    8    0    1
 -2       411       544       543      2430      2431      2426
 -1       940    8    0    1
 -2       412       413       545      2020      2432      2433
 -1       941    8    0    1
 -2       412       545       544      2433      2434      2429
 -1       942    8    0    1
 -2       413       414       546      2023      2435      2436
 -1       943    8    0    1
 -2       413       546       545      2436      2437      2432
 -1       944    8    0    1
 -2       414       415       547      2026      2438      2439
 -1       945    8    0    1
 -2       414       547       546      2439      2440      2435
 -1       946    8    0    1
 -2       415       416       548      2029      2441      2442
 -1       947    8    0    1
 -2       415       548       547      2442      2443      2438
 -1       948    8    0    1
 -2       416       417       549      2032      2444      2445
 -1       949    8    0    1
 -2       416       549       548      2445      2446      2441
 -1       950    8    0    1
 -2       417       418       550      2035      2447      2448
 -1       951    8    0    1
 -2       417       550       549      2448      2449      2444
 -1       952    8    0    1
 -2       418       419       551      2038      2450      2451
 -1       953    8    0    1
 -2       418       551       550      2451      2452      2447
 -1       954    8    0    1
 -2       419       420       552      2041      2453      2454
 -1       955    8    0    1
 -2       419       552       551      2454      2455      2450
 -1       956    8    0    1
 -2       420       421       553      2044      2456      2457
 -1       957    8    0    1
 -2       420       553       552      2457      2458      2453
 -1       958    8    0    1
 -2       421       422       554      2047      2459      2460
 -1       959    8    0    1
 -2       421       554       553      2460      2461      2456
 -1       960    8    0    1
 -2       422       423       555      2050      2462      2463
 -1       961    8    0    1
 -2       422       555       554      2463      2464      2459
 -1       962    8    0    1
 -2       423       424       556      2053      2465      2466
 -1       963    8    0    1
 -2       423       556       555      2466      2467      2462
 -1       964    8    0    1
 -2       424       425       557      2056      2468      2469
 -1       965    8    0    1
 -2       424       557       556      2469      2470      2465
 -1       966    8    0    1
 -2       425       426       558      2059      2471      2472
 -1       967    8    0    1
 -2       425       558       557      2472      2473      2468
 -1       968    8    0    1
 -2       426       427       559      2062      2474      2475
 -1       969    8    0    1
 -2       558       426       559      2471      2475      2476
 -1       970    8    0    1
 -2       427       430       559      2188      2477      2474
 -1       971    8    0    1
 -2       428       441       560      2189      2478      2479
 -1       972    8    0    1
 -2       432       433       561      2079      2480      2481
 -1       973    8    0    1
 -2       441       336       562      2170      2482      2483
 -1       974    8    0    1
 -2       433       434       563      2082      2484      2485
 -1       975    8    0    1
 -2       433       563       561      2485      2486      2480
 -1       976    8    0    1
 -2       434       435       564      2085      2487      2488
 -1       977    8    0    1
 -2       434       564       563      2488      2489      2484
 -1       978    8    0    1
 -2       435       436       565      2088      2490      2491
 -1       979    8    0    1
 -2       435       565       564      2491      2492      2487
 -1       980    8    0    1
 -2       436       437       566      2091      2493      2494
 -1       981    8    0    1
 -2       436       566       565      2494      2495      2490
 -1       982    8    0    1
 -2       437       438       567      2094      2496      2497
 -1       983    8    0    1
 -2       437       567       566      2497      2498      2493
 -1       984    8    0    1
 -2       438       439       568      2097      2499      2500
 -1       985    8    0    1
 -2       438       568       567      2500      2501      2496
 -1       986    8    0    1
 -2       439       440       569      2100      2502      2503
 -1       987    8    0    1
 -2       439       569       568      2503      2504      2499
 -1       988    8    0    1
 -2       440       292       382      2190      1930      2505
 -1       989    8    0    1
 -2       467       445       446      2185      2120      2506
 -1       990    8    0    1
 -2       465       442       570      2191      2507      2508
 -1       991    8    0    1
 -2       385       386       571      1942      2509      2510
 -1       992    8    0    1
 -2       386       525       571      2373      2511      2509
 -1       993    8    0    1
 -2       429       431       572      2073      2512      2513
 -1       994    8    0    1
 -2       464       465       573      2192      2514      2515
 -1       995    8    0    1
 -2       458       459       574      2195      2516      2517
 -1       996    8    0    1
 -2       452       453       575      2201      2518      2519
 -1       997    8    0    1
 -2       430       429       576      2069      2520      2521
 -1       998    8    0    1
 -2       559       430       576      2477      2521      2522
 -1       999    8    0    1
 -2       429       572       576      2513      2523      2520
 -1      1000    8    0    1
 -2       431       432       577      2076      2524      2525
 -1      1001    8    0    1
 -2       572       431       577      2512      2525      2526
 -1      1002    8    0    1
 -2       432       561       577      2481      2527      2524
 -1      1003    8    0    1
 -2       403       404       578      1993      2528      2529
 -1      1004    8    0    1
 -2       404       537       578      2410      2530      2528
 -1      1005    8    0    1
 -2       402       403       579      1990      2531      2532
 -1      1006    8    0    1
 -2       479       402       579      2407      2532      2533
 -1      1007    8    0    1
 -2       403       578       579      2529      2534      2531
 -1      1008    8    0    1
 -2       442       428       580      2187      2535      2536
 -1      1009    8    0    1
 -2       327       328       581      1768      2537      2538
 -1      1010    8    0    1
 -2       470       327       581      2210      2538      2539
 -1      1011    8    0    1
 -2       328       472       581      2216      2540      2537
 -1      1012    8    0    1
 -2       383       385       582      1939      2541      2542
 -1      1013    8    0    1
 -2       524       383       582      2369      2542      2543
 -1      1014    8    0    1
 -2       385       571       582      2510      2544      2541
 -1      1015    8    0    1
 -2       444       298       400      2109      2112      2545
 -1      1016    8    0    1
 -2       448       449       583      2207      2546      2547
 -1      1017    8    0    1
 -2       455       456       584      2208      2548      2549
 -1      1018    8    0    1
 -2       449       450       585      2204      2550      2551
 -1      1019    8    0    1
 -2       450       451       586      2203      2552      2553
 -1      1020    8    0    1
 -2       450       586       585      2553      2554      2550
 -1      1021    8    0    1
 -2       451       452       587      2202      2555      2556
 -1      1022    8    0    1
 -2       453       454       588      2138      2557      2558
 -1      1023    8    0    1
 -2       453       588       575      2558      2559      2518
 -1      1024    8    0    1
 -2       463       464       589      2209      2560      2561
 -1      1025    8    0    1
 -2       456       457       590      2197      2562      2563
 -1      1026    8    0    1
 -2       456       590       584      2563      2564      2548
 -1      1027    8    0    1
 -2       457       458       591      2196      2565      2566
 -1      1028    8    0    1
 -2       458       574       591      2517      2567      2565
 -1      1029    8    0    1
 -2       459       460       592      2151      2568      2569
 -1      1030    8    0    1
 -2       460       461       593      2194      2570      2571
 -1      1031    8    0    1
 -2       461       462       594      2156      2572      2573
 -1      1032    8    0    1
 -2       462       463       595      2193      2574      2575
 -1      1033    8    0    1
 -2       462       595       594      2575      2576      2572
 -1      1034    8    0    1
 -2       400       401       444      2186      2577      2545
 -1      1035    8    0    1
 -2       337       324       596      2173      2578      2579
 -1      1036    8    0    1
 -2       480       337       596      2238      2579      2580
 -1      1037    8    0    1
 -2       324       323       596      1757      2581      2578
 -1      1038    8    0    1
 -2       444       401       466      2577      2582      2172
 -1      1039    8    0    1
 -2       325       471       597      2213      2583      2584
 -1      1040    8    0    1
 -2       325       597       443      2584      2585      2108
 -1      1041    8    0    1
 -2       336       479       562      2237      2586      2482
 -1      1042    8    0    1
 -2       467       446       398      2506      2587      2178
 -1      1043    8    0    1
 -2       457       591       590      2566      2588      2562
 -1      1044    8    0    1
 -2       580       428       560      2535      2479      2589
 -1      1045    8    0    1
 -2       560       441       562      2478      2483      2590
 -1      1046    8    0    1
 -2       442       580       570      2536      2591      2507
 -1      1047    8    0    1
 -2       440       382       598      2505      2592      2593
 -1      1048    8    0    1
 -2       569       440       598      2502      2593      2594
 -1      1049    8    0    1
 -2       382       381       598      1931      2595      2592
 -1      1050    8    0    1
 -2       573       465       570      2514      2508      2596
 -1      1051    8    0    1
 -2       323       443       599      2107      2597      2598
 -1      1052    8    0    1
 -2       596       323       599      2581      2598      2599
 -1      1053    8    0    1
 -2       443       597       599      2585      2600      2597
 -1      1054    8    0    1
 -2       464       573       589      2515      2601      2560
 -1      1055    8    0    1
 -2       459       592       574      2569      2602      2516
 -1      1056    8    0    1
 -2       452       575       600      2519      2603      2604
 -1      1057    8    0    1
 -2       452       600       587      2604      2605      2555
 -1      1058    8    0    1
 -2       595       463       589      2574      2561      2606
 -1      1059    8    0    1
 -2       469       455       601      2200      2607      2608
 -1      1060    8    0    1
 -2       455       584       601      2549      2609      2607
 -1      1061    8    0    1
 -2       593       461       594      2570      2573      2610
 -1      1062    8    0    1
 -2       446       447       398      2123      2611      2587
 -1      1063    8    0    1
 -2       588       454       602      2557      2612      2613
 -1      1064    8    0    1
 -2       454       469       602      2199      2614      2612
 -1      1065    8    0    1
 -2       586       451       587      2552      2556      2615
 -1      1066    8    0    1
 -2       466       401       479      2582      2408      2236
 -1      1067    8    0    1
 -2       583       449       585      2546      2551      2616
 -1      1068    8    0    1
 -2       448       583       536      2547      2617      2618
 -1      1069    8    0    1
 -2       447       448       536      2206      2618      2619
 -1      1070    8    0    1
 -2       592       460       593      2568      2571      2620
 -1      1071    8    0    1
 -2       398       447       536      2611      2619      2404
 -1      1072    8    0    1
 -2       598       381       523      2595      2367      2621
 -1      1073    8    0    1
 -2       473       474       603      2222      2622      2623
 -1      1074    8    0    1
 -2       472       473       604      2219      2624      2625
 -1      1075    8    0    1
 -2       473       603       604      2623      2626      2624
 -1      1076    8    0    1
 -2       475       476       605      2228      2627      2628
 -1      1077    8    0    1
 -2       476       477       606      2231      2629      2630
 -1      1078    8    0    1
 -2       476       606       605      2630      2631      2627
 -1      1079    8    0    1
 -2       477       478       607      2234      2632      2633
 -1      1080    8    0    1
 -2       606       477       607      2629      2633      2634
 -1      1081    8    0    1
 -2       478       524       607      2371      2635      2632
 -1      1082    8    0    1
 -2       583       585       608      2616      2636      2637
 -1      1083    8    0    1
 -2       589       573       609      2601      2638      2639
 -1      1084    8    0    1
 -2       482       481       610      2245      2640      2641
 -1      1085    8    0    1
 -2       483       482       611      2248      2642      2643
 -1      1086    8    0    1
 -2       482       610       611      2641      2644      2642
 -1      1087    8    0    1
 -2       484       483       612      2251      2645      2646
 -1      1088    8    0    1
 -2       483       611       612      2643      2647      2645
 -1      1089    8    0    1
 -2       485       484       613      2254      2648      2649
 -1      1090    8    0    1
 -2       484       612       613      2646      2650      2648
 -1      1091    8    0    1
 -2       486       485       614      2257      2651      2652
 -1      1092    8    0    1
 -2       485       613       614      2649      2653      2651
 -1      1093    8    0    1
 -2       487       486       615      2260      2654      2655
 -1      1094    8    0    1
 -2       486       614       615      2652      2656      2654
 -1      1095    8    0    1
 -2       488       487       616      2263      2657      2658
 -1      1096    8    0    1
 -2       487       615       616      2655      2659      2657
 -1      1097    8    0    1
 -2       489       488       617      2266      2660      2661
 -1      1098    8    0    1
 -2       488       616       617      2658      2662      2660
 -1      1099    8    0    1
 -2       490       489       618      2269      2663      2664
 -1      1100    8    0    1
 -2       489       617       618      2661      2665      2663
 -1      1101    8    0    1
 -2       491       490       619      2272      2666      2667
 -1      1102    8    0    1
 -2       490       618       619      2664      2668      2666
 -1      1103    8    0    1
 -2       492       491       620      2275      2669      2670
 -1      1104    8    0    1
 -2       491       619       620      2667      2671      2669
 -1      1105    8    0    1
 -2       493       492       621      2278      2672      2673
 -1      1106    8    0    1
 -2       492       620       621      2670      2674      2672
 -1      1107    8    0    1
 -2       494       493       622      2281      2675      2676
 -1      1108    8    0    1
 -2       493       621       622      2673      2677      2675
 -1      1109    8    0    1
 -2       495       494       623      2284      2678      2679
 -1      1110    8    0    1
 -2       494       622       623      2676      2680      2678
 -1      1111    8    0    1
 -2       496       495       624      2287      2681      2682
 -1      1112    8    0    1
 -2       495       623       624      2679      2683      2681
 -1      1113    8    0    1
 -2       497       496       625      2290      2684      2685
 -1      1114    8    0    1
 -2       496       624       625      2682      2686      2684
 -1      1115    8    0    1
 -2       498       497       626      2293      2687      2688
 -1      1116    8    0    1
 -2       497       625       626      2685      2689      2687
 -1      1117    8    0    1
 -2       499       498       627      2296      2690      2691
 -1      1118    8    0    1
 -2       498       626       627      2688      2692      2690
 -1      1119    8    0    1
 -2       500       499       628      2299      2693      2694
 -1      1120    8    0    1
 -2       499       627       628      2691      2695      2693
 -1      1121    8    0    1
 -2       501       500       629      2302      2696      2697
 -1      1122    8    0    1
 -2       500       628       629      2694      2698      2696
 -1      1123    8    0    1
 -2       502       501       630      2305      2699      2700
 -1      1124    8    0    1
 -2       501       629       630      2697      2701      2699
 -1      1125    8    0    1
 -2       503       502       631      2308      2702      2703
 -1      1126    8    0    1
 -2       502       630       631      2700      2704      2702
 -1      1127    8    0    1
 -2       504       503       632      2311      2705      2706
 -1      1128    8    0    1
 -2       503       631       632      2703      2707      2705
 -1      1129    8    0    1
 -2       505       504       633      2314      2708      2709
 -1      1130    8    0    1
 -2       504       632       633      2706      2710      2708
 -1      1131    8    0    1
 -2       506       505       634      2317      2711      2712
 -1      1132    8    0    1
 -2       505       633       634      2709      2713      2711
 -1      1133    8    0    1
 -2       507       506       635      2320      2714      2715
 -1      1134    8    0    1
 -2       506       634       635      2712      2716      2714
 -1      1135    8    0    1
 -2       508       507       636      2323      2717      2718
 -1      1136    8    0    1
 -2       507       635       636      2715      2719      2717
 -1      1137    8    0    1
 -2       509       508       637      2326      2720      2721
 -1      1138    8    0    1
 -2       508       636       637      2718      2722      2720
 -1      1139    8    0    1
 -2       510       509       638      2329      2723      2724
 -1      1140    8    0    1
 -2       509       637       638      2721      2725      2723
 -1      1141    8    0    1
 -2       511       510       639      2332      2726      2727
 -1      1142    8    0    1
 -2       510       638       639      2724      2728      2726
 -1      1143    8    0    1
 -2       512       511       640      2335      2729      2730
 -1      1144    8    0    1
 -2       511       639       640      2727      2731      2729
 -1      1145    8    0    1
 -2       513       512       641      2338      2732      2733
 -1      1146    8    0    1
 -2       512       640       641      2730      2734      2732
 -1      1147    8    0    1
 -2       514       513       642      2341      2735      2736
 -1      1148    8    0    1
 -2       513       641       642      2733      2737      2735
 -1      1149    8    0    1
 -2       515       514       643      2344      2738      2739
 -1      1150    8    0    1
 -2       514       642       643      2736      2740      2738
 -1      1151    8    0    1
 -2       516       515       644      2347      2741      2742
 -1      1152    8    0    1
 -2       515       643       644      2739      2743      2741
 -1      1153    8    0    1
 -2       517       516       645      2350      2744      2745
 -1      1154    8    0    1
 -2       516       644       645      2742      2746      2744
 -1      1155    8    0    1
 -2       518       517       646      2353      2747      2748
 -1      1156    8    0    1
 -2       517       645       646      2745      2749      2747
 -1      1157    8    0    1
 -2       519       518       647      2356      2750      2751
 -1      1158    8    0    1
 -2       518       646       647      2748      2752      2750
 -1      1159    8    0    1
 -2       520       519       648      2359      2753      2754
 -1      1160    8    0    1
 -2       519       647       648      2751      2755      2753
 -1      1161    8    0    1
 -2       521       520       649      2362      2756      2757
 -1      1162    8    0    1
 -2       520       648       649      2754      2758      2756
 -1      1163    8    0    1
 -2       522       521       650      2365      2759      2760
 -1      1164    8    0    1
 -2       521       649       650      2757      2761      2759
 -1      1165    8    0    1
 -2       523       522       651      2368      2762      2763
 -1      1166    8    0    1
 -2       522       650       651      2760      2764      2762
 -1      1167    8    0    1
 -2       573       570       652      2596      2765      2766
 -1      1168    8    0    1
 -2       526       527       653      2379      2767      2768
 -1      1169    8    0    1
 -2       525       526       654      2376      2769      2770
 -1      1170    8    0    1
 -2       526       653       654      2768      2771      2769
 -1      1171    8    0    1
 -2       528       529       655      2385      2772      2773
 -1      1172    8    0    1
 -2       529       530       656      2388      2774      2775
 -1      1173    8    0    1
 -2       529       656       655      2775      2776      2772
 -1      1174    8    0    1
 -2       530       531       657      2391      2777      2778
 -1      1175    8    0    1
 -2       530       657       656      2778      2779      2774
 -1      1176    8    0    1
 -2       531       532       658      2394      2780      2781
 -1      1177    8    0    1
 -2       531       658       657      2781      2782      2777
 -1      1178    8    0    1
 -2       532       533       659      2397      2783      2784
 -1      1179    8    0    1
 -2       532       659       658      2784      2785      2780
 -1      1180    8    0    1
 -2       533       534       660      2400      2786      2787
 -1      1181    8    0    1
 -2       533       660       659      2787      2788      2783
 -1      1182    8    0    1
 -2       535       536       583      2406      2617      2789
 -1      1183    8    0    1
 -2       598       523       661      2621      2790      2791
 -1      1184    8    0    1
 -2       523       651       661      2763      2792      2790
 -1      1185    8    0    1
 -2       539       540       662      2419      2793      2794
 -1      1186    8    0    1
 -2       527       528       663      2382      2795      2796
 -1      1187    8    0    1
 -2       653       527       663      2767      2796      2797
 -1      1188    8    0    1
 -2       528       655       663      2773      2798      2795
 -1      1189    8    0    1
 -2       537       538       664      2413      2799      2800
 -1      1190    8    0    1
 -2       540       541       665      2422      2801      2802
 -1      1191    8    0    1
 -2       540       665       662      2802      2803      2793
 -1      1192    8    0    1
 -2       541       542       666      2425      2804      2805
 -1      1193    8    0    1
 -2       541       666       665      2805      2806      2801
 -1      1194    8    0    1
 -2       542       543       667      2428      2807      2808
 -1      1195    8    0    1
 -2       542       667       666      2808      2809      2804
 -1      1196    8    0    1
 -2       543       544       668      2431      2810      2811
 -1      1197    8    0    1
 -2       543       668       667      2811      2812      2807
 -1      1198    8    0    1
 -2       544       545       669      2434      2813      2814
 -1      1199    8    0    1
 -2       544       669       668      2814      2815      2810
 -1      1200    8    0    1
 -2       545       546       670      2437      2816      2817
 -1      1201    8    0    1
 -2       545       670       669      2817      2818      2813
 -1      1202    8    0    1
 -2       546       547       671      2440      2819      2820
 -1      1203    8    0    1
 -2       546       671       670      2820      2821      2816
 -1      1204    8    0    1
 -2       547       548       672      2443      2822      2823
 -1      1205    8    0    1
 -2       547       672       671      2823      2824      2819
 -1      1206    8    0    1
 -2       548       549       673      2446      2825      2826
 -1      1207    8    0    1
 -2       548       673       672      2826      2827      2822
 -1      1208    8    0    1
 -2       549       550       674      2449      2828      2829
 -1      1209    8    0    1
 -2       549       674       673      2829      2830      2825
 -1      1210    8    0    1
 -2       550       551       675      2452      2831      2832
 -1      1211    8    0    1
 -2       550       675       674      2832      2833      2828
 -1      1212    8    0    1
 -2       551       552       676      2455      2834      2835
 -1      1213    8    0    1
 -2       551       676       675      2835      2836      2831
 -1      1214    8    0    1
 -2       552       553       677      2458      2837      2838
 -1      1215    8    0    1
 -2       552       677       676      2838      2839      2834
 -1      1216    8    0    1
 -2       553       554       678      2461      2840      2841
 -1      1217    8    0    1
 -2       553       678       677      2841      2842      2837
 -1      1218    8    0    1
 -2       554       555       679      2464      2843      2844
 -1      1219    8    0    1
 -2       554       679       678      2844      2845      2840
 -1      1220    8    0    1
 -2       555       556       680      2467      2846      2847
 -1      1221    8    0    1
 -2       555       680       679      2847      2848      2843
 -1      1222    8    0    1
 -2       556       557       681      2470      2849      2850
 -1      1223    8    0    1
 -2       556       681       680      2850      2851      2846
 -1      1224    8    0    1
 -2       557       558       682      2473      2852      2853
 -1      1225    8    0    1
 -2       557       682       681      2853      2854      2849
 -1      1226    8    0    1
 -2       558       559       683      2476      2855      2856
 -1      1227    8    0    1
 -2       682       558       683      2852      2856      2857
 -1      1228    8    0    1
 -2       559       576       683      2522      2858      2855
 -1      1229    8    0    1
 -2       563       564       684      2489      2859      2860
 -1      1230    8    0    1
 -2       560       562       685      2590      2861      2862
 -1      1231    8    0    1
 -2       570       580       686      2591      2863      2864
 -1      1232    8    0    1
 -2       561       563       687      2486      2865      2866
 -1      1233    8    0    1
 -2       563       684       687      2860      2867      2865
 -1      1234    8    0    1
 -2       565       566       688      2495      2868      2869
 -1      1235    8    0    1
 -2       566       567       689      2498      2870      2871
 -1      1236    8    0    1
 -2       566       689       688      2871      2872      2868
 -1      1237    8    0    1
 -2       567       568       690      2501      2873      2874
 -1      1238    8    0    1
 -2       567       690       689      2874      2875      2870
 -1      1239    8    0    1
 -2       571       525       691      2511      2876      2877
 -1      1240    8    0    1
 -2       525       654       691      2770      2878      2876
 -1      1241    8    0    1
 -2       569       598       661      2594      2791      2879
 -1      1242    8    0    1
 -2       480       596       692      2580      2880      2881
 -1      1243    8    0    1
 -2       596       599       692      2599      2882      2880
 -1      1244    8    0    1
 -2       564       565       693      2492      2883      2884
 -1      1245    8    0    1
 -2       684       564       693      2859      2884      2885
 -1      1246    8    0    1
 -2       565       688       693      2869      2886      2883
 -1      1247    8    0    1
 -2       562       479       579      2586      2533      2887
 -1      1248    8    0    1
 -2       580       560       694      2589      2888      2889
 -1      1249    8    0    1
 -2       560       685       694      2862      2890      2888
 -1      1250    8    0    1
 -2       538       539       695      2416      2891      2892
 -1      1251    8    0    1
 -2       538       695       664      2892      2893      2799
 -1      1252    8    0    1
 -2       590       591       696      2588      2894      2895
 -1      1253    8    0    1
 -2       481       480       697      2242      2896      2897
 -1      1254    8    0    1
 -2       610       481       697      2640      2897      2898
 -1      1255    8    0    1
 -2       480       692       697      2881      2899      2896
 -1      1256    8    0    1
 -2       593       594       698      2610      2900      2901
 -1      1257    8    0    1
 -2       474       475       699      2225      2902      2903
 -1      1258    8    0    1
 -2       603       474       699      2622      2903      2904
 -1      1259    8    0    1
 -2       475       605       699      2628      2905      2902
 -1      1260    8    0    1
 -2       592       593       700      2620      2906      2907
 -1      1261    8    0    1
 -2       585       586       701      2554      2908      2909
 -1      1262    8    0    1
 -2       595       589       702      2606      2910      2911
 -1      1263    8    0    1
 -2       575       588       703      2559      2912      2913
 -1      1264    8    0    1
 -2       574       592       704      2602      2914      2915
 -1      1265    8    0    1
 -2       471       470       705      2214      2916      2917
 -1      1266    8    0    1
 -2       584       590       706      2564      2918      2919
 -1      1267    8    0    1
 -2       586       587       707      2615      2920      2921
 -1      1268    8    0    1
 -2       586       707       701      2921      2922      2908
 -1      1269    8    0    1
 -2       591       574       708      2567      2923      2924
 -1      1270    8    0    1
 -2       594       595       709      2576      2925      2926
 -1      1271    8    0    1
 -2       595       702       709      2911      2927      2925
 -1      1272    8    0    1
 -2       535       583       608      2789      2637      2928
 -1      1273    8    0    1
 -2       472       604       710      2625      2929      2930
 -1      1274    8    0    1
 -2       472       710       581      2930      2931      2540
 -1      1275    8    0    1
 -2       607       524       711      2635      2932      2933
 -1      1276    8    0    1
 -2       524       582       711      2543      2934      2932
 -1      1277    8    0    1
 -2       609       573       652      2638      2766      2935
 -1      1278    8    0    1
 -2       589       609       702      2639      2936      2910
 -1      1279    8    0    1
 -2       572       577       712      2526      2937      2938
 -1      1280    8    0    1
 -2       592       700       704      2907      2939      2914
 -1      1281    8    0    1
 -2       539       662       695      2794      2940      2891
 -1      1282    8    0    1
 -2       652       570       686      2765      2864      2941
 -1      1283    8    0    1
 -2       569       661       568      2879      2942      2504
 -1      1284    8    0    1
 -2       534       535       713      2403      2943      2944
 -1      1285    8    0    1
 -2       685       562       579      2861      2887      2945
 -1      1286    8    0    1
 -2       577       561       714      2527      2946      2947
 -1      1287    8    0    1
 -2       577       714       712      2947      2948      2937
 -1      1288    8    0    1
 -2       700       593       715      2906      2949      2950
 -1      1289    8    0    1
 -2       593       698       715      2901      2951      2949
 -1      1290    8    0    1
 -2       568       661       716      2942      2952      2953
 -1      1291    8    0    1
 -2       690       568       716      2873      2953      2954
 -1      1292    8    0    1
 -2       661       651       716      2792      2955      2952
 -1      1293    8    0    1
 -2       561       687       714      2866      2956      2946
 -1      1294    8    0    1
 -2       534       713       660      2944      2957      2786
 -1      1295    8    0    1
 -2       703       588       717      2912      2958      2959
 -1      1296    8    0    1
 -2       588       602       717      2613      2960      2958
 -1      1297    8    0    1
 -2       578       537       718      2530      2961      2962
 -1      1298    8    0    1
 -2       707       587       719      2920      2963      2964
 -1      1299    8    0    1
 -2       587       600       719      2605      2965      2963
 -1      1300    8    0    1
 -2       600       575       703      2603      2913      2966
 -1      1301    8    0    1
 -2       706       590       696      2918      2895      2967
 -1      1302    8    0    1
 -2       601       584       720      2609      2968      2969
 -1      1303    8    0    1
 -2       584       706       720      2919      2970      2968
 -1      1304    8    0    1
 -2       597       471       721      2583      2971      2972
 -1      1305    8    0    1
 -2       471       705       721      2917      2973      2971
 -1      1306    8    0    1
 -2       576       572       722      2523      2974      2975
 -1      1307    8    0    1
 -2       683       576       722      2858      2975      2976
 -1      1308    8    0    1
 -2       572       712       722      2938      2977      2974
 -1      1309    8    0    1
 -2       469       601       723      2608      2978      2979
 -1      1310    8    0    1
 -2       469       723       602      2979      2980      2614
 -1      1311    8    0    1
 -2       579       578       685      2534      2981      2945
 -1      1312    8    0    1
 -2       470       581       724      2539      2982      2983
 -1      1313    8    0    1
 -2       705       470       724      2916      2983      2984
 -1      1314    8    0    1
 -2       581       710       724      2931      2985      2982
 -1      1315    8    0    1
 -2       578       718       685      2962      2986      2981
 -1      1316    8    0    1
 -2       696       591       708      2894      2924      2987
 -1      1317    8    0    1
 -2       585       701       608      2909      2988      2636
 -1      1318    8    0    1
 -2       535       608       713      2928      2989      2943
 -1      1319    8    0    1
 -2       574       704       708      2915      2990      2923
 -1      1320    8    0    1
 -2       594       709       698      2926      2991      2900
 -1      1321    8    0    1
 -2       582       571       725      2544      2992      2993
 -1      1322    8    0    1
 -2       711       582       725      2934      2993      2994
 -1      1323    8    0    1
 -2       571       691       725      2877      2995      2992
 -1      1324    8    0    1
 -2       718       537       664      2961      2800      2996
 -1      1325    8    0    1
 -2       606       607       726      2634      2997      2998
 -1      1326    8    0    1
 -2       607       711       726      2933      2999      2997
 -1      1327    8    0    1
 -2       605       606       726      2631      2998      3000
 -1      1328    8    0    1
 -2       704       700       727      2939      3001      3002
 -1      1329    8    0    1
 -2       685       718       694      2986      3003      2890
 -1      1330    8    0    1
 -2       702       609       728      2936      3004      3005
 -1      1331    8    0    1
 -2       612       611       729      2647      3006      3007
 -1      1332    8    0    1
 -2       613       612       730      2650      3008      3009
 -1      1333    8    0    1
 -2       612       729       730      3007      3010      3008
 -1      1334    8    0    1
 -2       614       613       731      2653      3011      3012
 -1      1335    8    0    1
 -2       613       730       731      3009      3013      3011
 -1      1336    8    0    1
 -2       615       614       732      2656      3014      3015
 -1      1337    8    0    1
 -2       614       731       732      3012      3016      3014
 -1      1338    8    0    1
 -2       616       615       733      2659      3017      3018
 -1      1339    8    0    1
 -2       615       732       733      3015      3019      3017
 -1      1340    8    0    1
 -2       617       616       734      2662      3020      3021
 -1      1341    8    0    1
 -2       616       733       734      3018      3022      3020
 -1      1342    8    0    1
 -2       618       617       735      2665      3023      3024
 -1      1343    8    0    1
 -2       617       734       735      3021      3025      3023
 -1      1344    8    0    1
 -2       619       618       736      2668      3026      3027
 -1      1345    8    0    1
 -2       618       735       736      3024      3028      3026
 -1      1346    8    0    1
 -2       620       619       737      2671      3029      3030
 -1      1347    8    0    1
 -2       619       736       737      3027      3031      3029
 -1      1348    8    0    1
 -2       621       620       738      2674      3032      3033
 -1      1349    8    0    1
 -2       620       737       738      3030      3034      3032
 -1      1350    8    0    1
 -2       622       621       739      2677      3035      3036
 -1      1351    8    0    1
 -2       621       738       739      3033      3037      3035
 -1      1352    8    0    1
 -2       623       622       740      2680      3038      3039
 -1      1353    8    0    1
 -2       622       739       740      3036      3040      3038
 -1      1354    8    0    1
 -2       624       623       741      2683      3041      3042
 -1      1355    8    0    1
 -2       623       740       741      3039      3043      3041
 -1      1356    8    0    1
 -2       625       624       742      2686      3044      3045
 -1      1357    8    0    1
 -2       624       741       742      3042      3046      3044
 -1      1358    8    0    1
 -2       626       625       743      2689      3047      3048
 -1      1359    8    0    1
 -2       625       742       743      3045      3049      3047
 -1      1360    8    0    1
 -2       627       626       744      2692      3050      3051
 -1      1361    8    0    1
 -2       626       743       744      3048      3052      3050
 -1      1362    8    0    1
 -2       628       627       745      2695      3053      3054
 -1      1363    8    0    1
 -2       627       744       745      3051      3055      3053
 -1      1364    8    0    1
 -2       629       628       746      2698      3056      3057
 -1      1365    8    0    1
 -2       628       745       746      3054      3058      3056
 -1      1366    8    0    1
 -2       630       629       747      2701      3059      3060
 -1      1367    8    0    1
 -2       629       746       747      3057      3061      3059
 -1      1368    8    0    1
 -2       631       630       748      2704      3062      3063
 -1      1369    8    0    1
 -2       630       747       748      3060      3064      3062
 -1      1370    8    0    1
 -2       632       631       749      2707      3065      3066
 -1      1371    8    0    1
 -2       631       748       749      3063      3067      3065
 -1      1372    8    0    1
 -2       633       632       750      2710      3068      3069
 -1      1373    8    0    1
 -2       632       749       750      3066      3070      3068
 -1      1374    8    0    1
 -2       634       633       751      2713      3071      3072
 -1      1375    8    0    1
 -2       633       750       751      3069      3073      3071
 -1      1376    8    0    1
 -2       635       634       752      2716      3074      3075
 -1      1377    8    0    1
 -2       634       751       752      3072      3076      3074
 -1      1378    8    0    1
 -2       636       635       753      2719      3077      3078
 -1      1379    8    0    1
 -2       635       752       753      3075      3079      3077
 -1      1380    8    0    1
 -2       637       636       754      2722      3080      3081
 -1      1381    8    0    1
 -2       636       753       754      3078      3082      3080
 -1      1382    8    0    1
 -2       638       637       755      2725      3083      3084
 -1      1383    8    0    1
 -2       637       754       755      3081      3085      3083
 -1      1384    8    0    1
 -2       639       638       756      2728      3086      3087
 -1      1385    8    0    1
 -2       638       755       756      3084      3088      3086
 -1      1386    8    0    1
 -2       640       639       757      2731      3089      3090
 -1      1387    8    0    1
 -2       639       756       757      3087      3091      3089
 -1      1388    8    0    1
 -2       641       640       758      2734      3092      3093
 -1      1389    8    0    1
 -2       640       757       758      3090      3094      3092
 -1      1390    8    0    1
 -2       642       641       759      2737      3095      3096
 -1      1391    8    0    1
 -2       641       758       759      3093      3097      3095
 -1      1392    8    0    1
 -2       643       642       760      2740      3098      3099
 -1      1393    8    0    1
 -2       642       759       760      3096      3100      3098
 -1      1394    8    0    1
 -2       644       643       761      2743      3101      3102
 -1      1395    8    0    1
 -2       643       760       761      3099      3103      3101
 -1      1396    8    0    1
 -2       645       644       762      2746      3104      3105
 -1      1397    8    0    1
 -2       644       761       762      3102      3106      3104
 -1      1398    8    0    1
 -2       646       645       763      2749      3107      3108
 -1      1399    8    0    1
 -2       645       762       763      3105      3109      3107
 -1      1400    8    0    1
 -2       647       646       764      2752      3110      3111
 -1      1401    8    0    1
 -2       646       763       764      3108      3112      3110
 -1      1402    8    0    1
 -2       648       647       765      2755      3113      3114
 -1      1403    8    0    1
 -2       647       764       765      3111      3115      3113
 -1      1404    8    0    1
 -2       649       648       766      2758      3116      3117
 -1      1405    8    0    1
 -2       648       765       766      3114      3118      3116
 -1      1406    8    0    1
 -2       650       649       767      2761      3119      3120
 -1      1407    8    0    1
 -2       649       766       767      3117      3121      3119
 -1      1408    8    0    1
 -2       651       650       768      2764      3122      3123
 -1      1409    8    0    1
 -2       716       651       768      2955      3123      3124
 -1      1410    8    0    1
 -2       650       767       768      3120      3125      3122
 -1      1411    8    0    1
 -2       708       704       769      2990      3126      3127
 -1      1412    8    0    1
 -2       656       657       770      2779      3128      3129
 -1      1413    8    0    1
 -2       655       656       771      2776      3130      3131
 -1      1414    8    0    1
 -2       656       770       771      3129      3132      3130
 -1      1415    8    0    1
 -2       658       659       772      2785      3133      3134
 -1      1416    8    0    1
 -2       659       660       773      2788      3135      3136
 -1      1417    8    0    1
 -2       659       773       772      3136      3137      3133
 -1      1418    8    0    1
 -2       714       687       774      2956      3138      3139
 -1      1419    8    0    1
 -2       654       653       775      2771      3140      3141
 -1      1420    8    0    1
 -2       665       666       776      2806      3142      3143
 -1      1421    8    0    1
 -2       666       667       777      2809      3144      3145
 -1      1422    8    0    1
 -2       666       777       776      3145      3146      3142
 -1      1423    8    0    1
 -2       580       694       778      2889      3147      3148
 -1      1424    8    0    1
 -2       662       665       779      2803      3149      3150
 -1      1425    8    0    1
 -2       665       776       779      3143      3151      3149
 -1      1426    8    0    1
 -2       667       668       780      2812      3152      3153
 -1      1427    8    0    1
 -2       667       780       777      3153      3154      3144
 -1      1428    8    0    1
 -2       668       669       781      2815      3155      3156
 -1      1429    8    0    1
 -2       668       781       780      3156      3157      3152
 -1      1430    8    0    1
 -2       669       670       782      2818      3158      3159
 -1      1431    8    0    1
 -2       669       782       781      3159      3160      3155
 -1      1432    8    0    1
 -2       670       671       783      2821      3161      3162
 -1      1433    8    0    1
 -2       670       783       782      3162      3163      3158
 -1      1434    8    0    1
 -2       671       672       784      2824      3164      3165
 -1      1435    8    0    1
 -2       671       784       783      3165      3166      3161
 -1      1436    8    0    1
 -2       672       673       785      2827      3167      3168
 -1      1437    8    0    1
 -2       672       785       784      3168      3169      3164
 -1      1438    8    0    1
 -2       673       674       786      2830      3170      3171
 -1      1439    8    0    1
 -2       673       786       785      3171      3172      3167
 -1      1440    8    0    1
 -2       674       675       787      2833      3173      3174
 -1      1441    8    0    1
 -2       674       787       786      3174      3175      3170
 -1      1442    8    0    1
 -2       675       676       788      2836      3176      3177
 -1      1443    8    0    1
 -2       675       788       787      3177      3178      3173
 -1      1444    8    0    1
 -2       676       677       789      2839      3179      3180
 -1      1445    8    0    1
 -2       676       789       788      3180      3181      3176
 -1      1446    8    0    1
 -2       677       678       790      2842      3182      3183
 -1      1447    8    0    1
 -2       677       790       789      3183      3184      3179
 -1      1448    8    0    1
 -2       678       679       791      2845      3185      3186
 -1      1449    8    0    1
 -2       678       791       790      3186      3187      3182
 -1      1450    8    0    1
 -2       679       680       792      2848      3188      3189
 -1      1451    8    0    1
 -2       679       792       791      3189      3190      3185
 -1      1452    8    0    1
 -2       680       681       793      2851      3191      3192
 -1      1453    8    0    1
 -2       680       793       792      3192      3193      3188
 -1      1454    8    0    1
 -2       681       682       794      2854      3194      3195
 -1      1455    8    0    1
 -2       681       794       793      3195      3196      3191
 -1      1456    8    0    1
 -2       660       713       795      2957      3197      3198
 -1      1457    8    0    1
 -2       664       695       796      2893      3199      3200
 -1      1458    8    0    1
 -2       689       690       797      2875      3201      3202
 -1      1459    8    0    1
 -2       688       689       798      2872      3203      3204
 -1      1460    8    0    1
 -2       689       797       798      3202      3205      3203
 -1      1461    8    0    1
 -2       691       654       799      2878      3206      3207
 -1      1462    8    0    1
 -2       654       775       799      3141      3208      3206
 -1      1463    8    0    1
 -2       599       597       800      2600      3209      3210
 -1      1464    8    0    1
 -2       692       599       800      2882      3210      3211
 -1      1465    8    0    1
 -2       597       721       800      2972      3212      3209
 -1      1466    8    0    1
 -2       695       662       801      2940      3213      3214
 -1      1467    8    0    1
 -2       662       779       801      3150      3215      3213
 -1      1468    8    0    1
 -2       712       714       802      2948      3216      3217
 -1      1469    8    0    1
 -2       714       774       802      3139      3218      3216
 -1      1470    8    0    1
 -2       600       703       803      2966      3219      3220
 -1      1471    8    0    1
 -2       696       708       804      2987      3221      3222
 -1      1472    8    0    1
 -2       652       686       805      2941      3223      3224
 -1      1473    8    0    1
 -2       718       664       806      2996      3225      3226
 -1      1474    8    0    1
 -2       664       796       806      3200      3227      3225
 -1      1475    8    0    1
 -2       687       684       807      2867      3228      3229
 -1      1476    8    0    1
 -2       687       807       774      3229      3230      3138
 -1      1477    8    0    1
 -2       657       658       808      2782      3231      3232
 -1      1478    8    0    1
 -2       658       772       808      3134      3233      3231
 -1      1479    8    0    1
 -2       686       580       778      2863      3148      3234
 -1      1480    8    0    1
 -2       604       603       809      2626      3235      3236
 -1      1481    8    0    1
 -2       608       701       795      2988      3237      3238
 -1      1482    8    0    1
 -2       706       696       810      2967      3239      3240
 -1      1483    8    0    1
 -2       701       707       811      2922      3241      3242
 -1      1484    8    0    1
 -2       701       811       795      3242      3243      3237
 -1      1485    8    0    1
 -2       698       709       812      2991      3244      3245
 -1      1486    8    0    1
 -2       611       610       813      2644      3246      3247
 -1      1487    8    0    1
 -2       611       813       729      3247      3248      3006
 -1      1488    8    0    1
 -2       713       608       795      2989      3238      3197
 -1      1489    8    0    1
 -2       609       652       814      2935      3249      3250
 -1      1490    8    0    1
 -2       652       805       814      3224      3251      3249
 -1      1491    8    0    1
 -2       709       702       815      2927      3252      3253
 -1      1492    8    0    1
 -2       709       815       812      3253      3254      3244
 -1      1493    8    0    1
 -2       694       718       806      3003      3226      3255
 -1      1494    8    0    1
 -2       778       694       806      3147      3255      3256
 -1      1495    8    0    1
 -2       727       700       816      3001      3257      3258
 -1      1496    8    0    1
 -2       700       715       816      2950      3259      3257
 -1      1497    8    0    1
 -2       728       609       817      3004      3260      3261
 -1      1498    8    0    1
 -2       609       814       817      3250      3262      3260
 -1      1499    8    0    1
 -2       708       769       804      3127      3263      3221
 -1      1500    8    0    1
 -2       770       657       808      3128      3232      3264
 -1      1501    8    0    1
 -2       704       727       769      3002      3265      3126
 -1      1502    8    0    1
 -2       686       778       818      3234      3266      3267
 -1      1503    8    0    1
 -2       655       771       819      3131      3268      3269
 -1      1504    8    0    1
 -2       655       819       663      3269      3270      2798
 -1      1505    8    0    1
 -2       600       803       820      3220      3271      3272
 -1      1506    8    0    1
 -2       600       820       719      3272      3273      2965
 -1      1507    8    0    1
 -2       710       604       821      2929      3274      3275
 -1      1508    8    0    1
 -2       604       809       821      3236      3276      3274
 -1      1509    8    0    1
 -2       703       717       822      2959      3277      3278
 -1      1510    8    0    1
 -2       703       822       803      3278      3279      3219
 -1      1511    8    0    1
 -2       705       724       823      2984      3280      3281
 -1      1512    8    0    1
 -2       692       800       824      3211      3282      3283
 -1      1513    8    0    1
 -2       692       824       697      3283      3284      2899
 -1      1514    8    0    1
 -2       653       663       825      2797      3285      3286
 -1      1515    8    0    1
 -2       775       653       825      3140      3286      3287
 -1      1516    8    0    1
 -2       663       819       825      3270      3288      3285
 -1      1517    8    0    1
 -2       712       802       794      3217      3289      3290
 -1      1518    8    0    1
 -2       660       795       773      3198      3291      3135
 -1      1519    8    0    1
 -2       682       683       722      2857      2976      3292
 -1      1520    8    0    1
 -2       723       601       826      2978      3293      3294
 -1      1521    8    0    1
 -2       601       720       826      2969      3295      3293
 -1      1522    8    0    1
 -2       715       698       827      2951      3296      3297
 -1      1523    8    0    1
 -2       698       812       827      3245      3298      3296
 -1      1524    8    0    1
 -2       691       799       828      3207      3299      3300
 -1      1525    8    0    1
 -2       686       818       805      3267      3301      3223
 -1      1526    8    0    1
 -2       688       798       829      3204      3302      3303
 -1      1527    8    0    1
 -2       688       829       693      3303      3304      2886
 -1      1528    8    0    1
 -2       811       707       719      3241      2964      3305
 -1      1529    8    0    1
 -2       717       602       830      2960      3306      3307
 -1      1530    8    0    1
 -2       602       723       830      2980      3308      3306
 -1      1531    8    0    1
 -2       810       696       804      3239      3222      3309
 -1      1532    8    0    1
 -2       720       706       831      2970      3310      3311
 -1      1533    8    0    1
 -2       706       810       831      3240      3312      3310
 -1      1534    8    0    1
 -2       721       705       832      2973      3313      3314
 -1      1535    8    0    1
 -2       705       823       832      3281      3315      3313
 -1      1536    8    0    1
 -2       722       712       794      2977      3290      3316
 -1      1537    8    0    1
 -2       796       695       801      3199      3214      3317
 -1      1538    8    0    1
 -2       684       693       833      2885      3318      3319
 -1      1539    8    0    1
 -2       807       684       833      3228      3319      3320
 -1      1540    8    0    1
 -2       693       829       833      3304      3321      3318
 -1      1541    8    0    1
 -2       702       728       815      3005      3322      3252
 -1      1542    8    0    1
 -2       778       806       818      3256      3323      3266
 -1      1543    8    0    1
 -2       605       726       834      3000      3324      3325
 -1      1544    8    0    1
 -2       691       828       725      3300      3326      2995
 -1      1545    8    0    1
 -2       809       603       835      3235      3327      3328
 -1      1546    8    0    1
 -2       603       699       835      2904      3329      3327
 -1      1547    8    0    1
 -2       690       716       836      2954      3330      3331
 -1      1548    8    0    1
 -2       797       690       836      3201      3331      3332
 -1      1549    8    0    1
 -2       716       768       836      3124      3333      3330
 -1      1550    8    0    1
 -2       610       697       824      2898      3284      3334
 -1      1551    8    0    1
 -2       699       605       834      2905      3325      3335
 -1      1552    8    0    1
 -2       682       722       794      3292      3316      3194
 -1      1553    8    0    1
 -2       610       824       813      3334      3336      3246
 -1      1554    8    0    1
 -2       730       729       837      3010      3337      3338
 -1      1555    8    0    1
 -2       824       800       721      3282      3212      3339
 -1      1556    8    0    1
 -2       731       730       838      3013      3340      3341
 -1      1557    8    0    1
 -2       730       837       838      3338      3342      3340
 -1      1558    8    0    1
 -2       732       731       839      3016      3343      3344
 -1      1559    8    0    1
 -2       731       838       839      3341      3345      3343
 -1      1560    8    0    1
 -2       733       732       840      3019      3346      3347
 -1      1561    8    0    1
 -2       732       839       840      3344      3348      3346
 -1      1562    8    0    1
 -2       734       733       841      3022      3349      3350
 -1      1563    8    0    1
 -2       733       840       841      3347      3351      3349
 -1      1564    8    0    1
 -2       735       734       842      3025      3352      3353
 -1      1565    8    0    1
 -2       734       841       842      3350      3354      3352
 -1      1566    8    0    1
 -2       736       735       843      3028      3355      3356
 -1      1567    8    0    1
 -2       735       842       843      3353      3357      3355
 -1      1568    8    0    1
 -2       737       736       844      3031      3358      3359
 -1      1569    8    0    1
 -2       736       843       844      3356      3360      3358
 -1      1570    8    0    1
 -2       738       737       845      3034      3361      3362
 -1      1571    8    0    1
 -2       737       844       845      3359      3363      3361
 -1      1572    8    0    1
 -2       739       738       846      3037      3364      3365
 -1      1573    8    0    1
 -2       738       845       846      3362      3366      3364
 -1      1574    8    0    1
 -2       740       739       847      3040      3367      3368
 -1      1575    8    0    1
 -2       739       846       847      3365      3369      3367
 -1      1576    8    0    1
 -2       741       740       848      3043      3370      3371
 -1      1577    8    0    1
 -2       740       847       848      3368      3372      3370
 -1      1578    8    0    1
 -2       742       741       849      3046      3373      3374
 -1      1579    8    0    1
 -2       741       848       849      3371      3375      3373
 -1      1580    8    0    1
 -2       743       742       850      3049      3376      3377
 -1      1581    8    0    1
 -2       742       849       850      3374      3378      3376
 -1      1582    8    0    1
 -2       744       743       851      3052      3379      3380
 -1      1583    8    0    1
 -2       743       850       851      3377      3381      3379
 -1      1584    8    0    1
 -2       745       744       852      3055      3382      3383
 -1      1585    8    0    1
 -2       744       851       852      3380      3384      3382
 -1      1586    8    0    1
 -2       746       745       853      3058      3385      3386
 -1      1587    8    0    1
 -2       745       852       853      3383      3387      3385
 -1      1588    8    0    1
 -2       747       746       854      3061      3388      3389
 -1      1589    8    0    1
 -2       746       853       854      3386      3390      3388
 -1      1590    8    0    1
 -2       748       747       855      3064      3391      3392
 -1      1591    8    0    1
 -2       747       854       855      3389      3393      3391
 -1      1592    8    0    1
 -2       749       748       856      3067      3394      3395
 -1      1593    8    0    1
 -2       748       855       856      3392      3396      3394
 -1      1594    8    0    1
 -2       750       749       857      3070      3397      3398
 -1      1595    8    0    1
 -2       749       856       857      3395      3399      3397
 -1      1596    8    0    1
 -2       751       750       858      3073      3400      3401
 -1      1597    8    0    1
 -2       750       857       858      3398      3402      3400
 -1      1598    8    0    1
 -2       752       751       859      3076      3403      3404
 -1      1599    8    0    1
 -2       751       858       859      3401      3405      3403
 -1      1600    8    0    1
 -2       753       752       860      3079      3406      3407
 -1      1601    8    0    1
 -2       752       859       860      3404      3408      3406
 -1      1602    8    0    1
 -2       754       753       861      3082      3409      3410
 -1      1603    8    0    1
 -2       753       860       861      3407      3411      3409
 -1      1604    8    0    1
 -2       755       754       862      3085      3412      3413
 -1      1605    8    0    1
 -2       754       861       862      3410      3414      3412
 -1      1606    8    0    1
 -2       756       755       863      3088      3415      3416
 -1      1607    8    0    1
 -2       755       862       863      3413      3417      3415
 -1      1608    8    0    1
 -2       757       756       864      3091      3418      3419
 -1      1609    8    0    1
 -2       756       863       864      3416      3420      3418
 -1      1610    8    0    1
 -2       758       757       865      3094      3421      3422
 -1      1611    8    0    1
 -2       757       864       865      3419      3423      3421
 -1      1612    8    0    1
 -2       759       758       866      3097      3424      3425
 -1      1613    8    0    1
 -2       758       865       866      3422      3426      3424
 -1      1614    8    0    1
 -2       760       759       867      3100      3427      3428
 -1      1615    8    0    1
 -2       759       866       867      3425      3429      3427
 -1      1616    8    0    1
 -2       761       760       868      3103      3430      3431
 -1      1617    8    0    1
 -2       760       867       868      3428      3432      3430
 -1      1618    8    0    1
 -2       762       761       869      3106      3433      3434
 -1      1619    8    0    1
 -2       761       868       869      3431      3435      3433
 -1      1620    8    0    1
 -2       763       762       870      3109      3436      3437
 -1      1621    8    0    1
 -2       762       869       870      3434      3438      3436
 -1      1622    8    0    1
 -2       764       763       871      3112      3439      3440
 -1      1623    8    0    1
 -2       763       870       871      3437      3441      3439
 -1      1624    8    0    1
 -2       765       764       872      3115      3442      3443
 -1      1625    8    0    1
 -2       764       871       872      3440      3444      3442
 -1      1626    8    0    1
 -2       766       765       873      3118      3445      3446
 -1      1627    8    0    1
 -2       765       872       873      3443      3447      3445
 -1      1628    8    0    1
 -2       767       766       874      3121      3448      3449
 -1      1629    8    0    1
 -2       766       873       874      3446      3450      3448
 -1      1630    8    0    1
 -2       796       801       875      3317      3451      3452
 -1      1631    8    0    1
 -2       772       773       876      3137      3453      3454
 -1      1632    8    0    1
 -2       769       727       877      3265      3455      3456
 -1      1633    8    0    1
 -2       823       724       878      3280      3457      3458
 -1      1634    8    0    1
 -2       724       710       878      2985      3459      3457
 -1      1635    8    0    1
 -2       699       834       835      3335      3460      3329
 -1      1636    8    0    1
 -2       777       780       879      3154      3461      3462
 -1      1637    8    0    1
 -2       776       777       880      3146      3463      3464
 -1      1638    8    0    1
 -2       777       879       880      3462      3465      3463
 -1      1639    8    0    1
 -2       773       795       811      3291      3243      3466
 -1      1640    8    0    1
 -2       781       782       881      3160      3467      3468
 -1      1641    8    0    1
 -2       782       783       882      3163      3469      3470
 -1      1642    8    0    1
 -2       782       882       881      3470      3471      3467
 -1      1643    8    0    1
 -2       783       784       883      3166      3472      3473
 -1      1644    8    0    1
 -2       783       883       882      3473      3474      3469
 -1      1645    8    0    1
 -2       784       785       884      3169      3475      3476
 -1      1646    8    0    1
 -2       784       884       883      3476      3477      3472
 -1      1647    8    0    1
 -2       785       786       885      3172      3478      3479
 -1      1648    8    0    1
 -2       785       885       884      3479      3480      3475
 -1      1649    8    0    1
 -2       786       787       886      3175      3481      3482
 -1      1650    8    0    1
 -2       786       886       885      3482      3483      3478
 -1      1651    8    0    1
 -2       787       788       887      3178      3484      3485
 -1      1652    8    0    1
 -2       787       887       886      3485      3486      3481
 -1      1653    8    0    1
 -2       788       789       888      3181      3487      3488
 -1      1654    8    0    1
 -2       788       888       887      3488      3489      3484
 -1      1655    8    0    1
 -2       789       790       889      3184      3490      3491
 -1      1656    8    0    1
 -2       789       889       888      3491      3492      3487
 -1      1657    8    0    1
 -2       790       791       890      3187      3493      3494
 -1      1658    8    0    1
 -2       790       890       889      3494      3495      3490
 -1      1659    8    0    1
 -2       791       792       891      3190      3496      3497
 -1      1660    8    0    1
 -2       791       891       890      3497      3498      3493
 -1      1661    8    0    1
 -2       792       793       892      3193      3499      3500
 -1      1662    8    0    1
 -2       792       892       891      3500      3501      3496
 -1      1663    8    0    1
 -2       793       794       893      3196      3502      3503
 -1      1664    8    0    1
 -2       892       793       893      3499      3503      3504
 -1      1665    8    0    1
 -2       794       802       893      3289      3505      3502
 -1      1666    8    0    1
 -2       813       824       894      3336      3506      3507
 -1      1667    8    0    1
 -2       804       769       895      3263      3508      3509
 -1      1668    8    0    1
 -2       769       877       895      3456      3510      3508
 -1      1669    8    0    1
 -2       774       807       896      3230      3511      3512
 -1      1670    8    0    1
 -2       828       799       897      3299      3513      3514
 -1      1671    8    0    1
 -2       805       818       898      3301      3515      3516
 -1      1672    8    0    1
 -2       799       775       899      3208      3517      3518
 -1      1673    8    0    1
 -2       799       899       897      3518      3519      3513
 -1      1674    8    0    1
 -2       770       808       900      3264      3520      3521
 -1      1675    8    0    1
 -2       726       711       725      2999      2994      3522
 -1      1676    8    0    1
 -2       801       779       901      3215      3523      3524
 -1      1677    8    0    1
 -2       811       719       902      3305      3525      3526
 -1      1678    8    0    1
 -2       719       820       902      3273      3527      3525
 -1      1679    8    0    1
 -2       802       774       903      3218      3528      3529
 -1      1680    8    0    1
 -2       893       802       903      3505      3529      3530
 -1      1681    8    0    1
 -2       774       896       903      3512      3531      3528
 -1      1682    8    0    1
 -2       815       728       904      3322      3532      3533
 -1      1683    8    0    1
 -2       798       797       905      3205      3534      3535
 -1      1684    8    0    1
 -2       810       804       906      3309      3536      3537
 -1      1685    8    0    1
 -2       812       815       907      3254      3538      3539
 -1      1686    8    0    1
 -2       815       904       907      3533      3540      3538
 -1      1687    8    0    1
 -2       834       726       828      3324      3541      3542
 -1      1688    8    0    1
 -2       725       828       726      3326      3541      3522
 -1      1689    8    0    1
 -2       808       772       908      3233      3543      3544
 -1      1690    8    0    1
 -2       772       876       908      3454      3545      3543
 -1      1691    8    0    1
 -2       773       811       876      3466      3546      3453
 -1      1692    8    0    1
 -2       779       776       909      3151      3547      3548
 -1      1693    8    0    1
 -2       779       909       901      3548      3549      3523
 -1      1694    8    0    1
 -2       814       805       910      3251      3550      3551
 -1      1695    8    0    1
 -2       805       898       910      3516      3552      3550
 -1      1696    8    0    1
 -2       780       781       911      3157      3553      3554
 -1      1697    8    0    1
 -2       781       881       911      3468      3555      3553
 -1      1698    8    0    1
 -2       729       813       912      3248      3556      3557
 -1      1699    8    0    1
 -2       729       912       837      3557      3558      3337
 -1      1700    8    0    1
 -2       771       770       913      3132      3559      3560
 -1      1701    8    0    1
 -2       770       900       913      3521      3561      3559
 -1      1702    8    0    1
 -2       818       806       898      3323      3562      3515
 -1      1703    8    0    1
 -2       834       828       897      3542      3514      3563
 -1      1704    8    0    1
 -2       824       721       832      3339      3314      3564
 -1      1705    8    0    1
 -2       817       814       914      3262      3565      3566
 -1      1706    8    0    1
 -2       814       910       914      3551      3567      3565
 -1      1707    8    0    1
 -2       728       817       904      3261      3568      3532
 -1      1708    8    0    1
 -2       771       913       915      3560      3569      3570
 -1      1709    8    0    1
 -2       771       915       819      3570      3571      3268
 -1      1710    8    0    1
 -2       875       801       901      3451      3524      3572
 -1      1711    8    0    1
 -2       768       767       916      3125      3573      3574
 -1      1712    8    0    1
 -2       836       768       916      3333      3574      3575
 -1      1713    8    0    1
 -2       767       874       916      3449      3576      3573
 -1      1714    8    0    1
 -2       878       710       821      3459      3275      3577
 -1      1715    8    0    1
 -2       820       803       917      3271      3578      3579
 -1      1716    8    0    1
 -2       821       809       918      3276      3580      3581
 -1      1717    8    0    1
 -2       823       878       919      3458      3582      3583
 -1      1718    8    0    1
 -2       822       717       920      3277      3584      3585
 -1      1719    8    0    1
 -2       717       830       920      3307      3586      3584
 -1      1720    8    0    1
 -2       879       780       911      3461      3554      3587
 -1      1721    8    0    1
 -2       776       880       909      3464      3588      3547
 -1      1722    8    0    1
 -2       816       715       921      3259      3589      3590
 -1      1723    8    0    1
 -2       715       827       921      3297      3591      3589
 -1      1724    8    0    1
 -2       804       895       906      3509      3592      3536
 -1      1725    8    0    1
 -2       896       807       922      3511      3593      3594
 -1      1726    8    0    1
 -2       807       833       922      3320      3595      3593
 -1      1727    8    0    1
 -2       826       720       923      3295      3596      3597
 -1      1728    8    0    1
 -2       720       831       923      3311      3598      3596
 -1      1729    8    0    1
 -2       775       825       924      3287      3599      3600
 -1      1730    8    0    1
 -2       775       924       899      3600      3601      3517
 -1      1731    8    0    1
 -2       827       812       925      3298      3602      3603
 -1      1732    8    0    1
 -2       812       907       925      3539      3604      3602
 -1      1733    8    0    1
 -2       829       798       926      3302      3605      3606
 -1      1734    8    0    1
 -2       798       905       926      3535      3607      3605
 -1      1735    8    0    1
 -2       796       875       898      3452      3608      3609
 -1      1736    8    0    1
 -2       900       808       908      3520      3544      3610
 -1      1737    8    0    1
 -2       830       723       927      3308      3611      3612
 -1      1738    8    0    1
 -2       723       826       927      3294      3613      3611
 -1      1739    8    0    1
 -2       831       810       928      3312      3614      3615
 -1      1740    8    0    1
 -2       810       906       928      3537      3616      3614
 -1      1741    8    0    1
 -2       806       796       898      3227      3609      3562
 -1      1742    8    0    1
 -2       832       823       929      3315      3617      3618
 -1      1743    8    0    1
 -2       823       919       929      3583      3619      3617
 -1      1744    8    0    1
 -2       835       834       897      3460      3563      3620
 -1      1745    8    0    1
 -2       918       809       930      3580      3621      3622
 -1      1746    8    0    1
 -2       809       835       930      3328      3623      3621
 -1      1747    8    0    1
 -2       912       813       894      3556      3507      3624
 -1      1748    8    0    1
 -2       797       836       916      3332      3575      3625
 -1      1749    8    0    1
 -2       803       822       917      3279      3626      3578
 -1      1750    8    0    1
 -2       797       916       905      3625      3627      3534
 -1      1751    8    0    1
 -2       838       837       931      3342      3628      3629
 -1      1752    8    0    1
 -2       839       838       932      3345      3630      3631
 -1      1753    8    0    1
 -2       838       931       932      3629      3632      3630
 -1      1754    8    0    1
 -2       840       839       933      3348      3633      3634
 -1      1755    8    0    1
 -2       839       932       933      3631      3635      3633
 -1      1756    8    0    1
 -2       841       840       934      3351      3636      3637
 -1      1757    8    0    1
 -2       840       933       934      3634      3638      3636
 -1      1758    8    0    1
 -2       842       841       935      3354      3639      3640
 -1      1759    8    0    1
 -2       841       934       935      3637      3641      3639
 -1      1760    8    0    1
 -2       843       842       936      3357      3642      3643
 -1      1761    8    0    1
 -2       842       935       936      3640      3644      3642
 -1      1762    8    0    1
 -2       844       843       937      3360      3645      3646
 -1      1763    8    0    1
 -2       843       936       937      3643      3647      3645
 -1      1764    8    0    1
 -2       845       844       938      3363      3648      3649
 -1      1765    8    0    1
 -2       844       937       938      3646      3650      3648
 -1      1766    8    0    1
 -2       846       845       939      3366      3651      3652
 -1      1767    8    0    1
 -2       845       938       939      3649      3653      3651
 -1      1768    8    0    1
 -2       847       846       940      3369      3654      3655
 -1      1769    8    0    1
 -2       846       939       940      3652      3656      3654
 -1      1770    8    0    1
 -2       848       847       941      3372      3657      3658
 -1      1771    8    0    1
 -2       847       940       941      3655      3659      3657
 -1      1772    8    0    1
 -2       849       848       928      3375      3660      3661
 -1      1773    8    0    1
 -2       851       850       895      3381      3662      3663
 -1      1774    8    0    1
 -2       852       851       877      3384      3664      3665
 -1      1775    8    0    1
 -2       853       852       816      3387      3666      3667
 -1      1776    8    0    1
 -2       854       853       921      3390      3668      3669
 -1      1777    8    0    1
 -2       856       855       942      3396      3670      3671
 -1      1778    8    0    1
 -2       857       856       943      3399      3672      3673
 -1      1779    8    0    1
 -2       856       942       943      3671      3674      3672
 -1      1780    8    0    1
 -2       858       857       944      3402      3675      3676
 -1      1781    8    0    1
 -2       857       943       944      3673      3677      3675
 -1      1782    8    0    1
 -2       859       858       945      3405      3678      3679
 -1      1783    8    0    1
 -2       858       944       945      3676      3680      3678
 -1      1784    8    0    1
 -2       860       859       946      3408      3681      3682
 -1      1785    8    0    1
 -2       859       945       946      3679      3683      3681
 -1      1786    8    0    1
 -2       861       860       947      3411      3684      3685
 -1      1787    8    0    1
 -2       860       946       947      3682      3686      3684
 -1      1788    8    0    1
 -2       862       861       948      3414      3687      3688
 -1      1789    8    0    1
 -2       861       947       948      3685      3689      3687
 -1      1790    8    0    1
 -2       863       862       949      3417      3690      3691
 -1      1791    8    0    1
 -2       862       948       949      3688      3692      3690
 -1      1792    8    0    1
 -2       864       863       950      3420      3693      3694
 -1      1793    8    0    1
 -2       863       949       950      3691      3695      3693
 -1      1794    8    0    1
 -2       865       864       951      3423      3696      3697
 -1      1795    8    0    1
 -2       864       950       951      3694      3698      3696
 -1      1796    8    0    1
 -2       866       865       952      3426      3699      3700
 -1      1797    8    0    1
 -2       865       951       952      3697      3701      3699
 -1      1798    8    0    1
 -2       867       866       953      3429      3702      3703
 -1      1799    8    0    1
 -2       866       952       953      3700      3704      3702
 -1      1800    8    0    1
 -2       868       867       954      3432      3705      3706
 -1      1801    8    0    1
 -2       867       953       954      3703      3707      3705
 -1      1802    8    0    1
 -2       869       868       955      3435      3708      3709
 -1      1803    8    0    1
 -2       868       954       955      3706      3710      3708
 -1      1804    8    0    1
 -2       870       869       956      3438      3711      3712
 -1      1805    8    0    1
 -2       869       955       956      3709      3713      3711
 -1      1806    8    0    1
 -2       871       870       957      3441      3714      3715
 -1      1807    8    0    1
 -2       870       956       957      3712      3716      3714
 -1      1808    8    0    1
 -2       872       871       958      3444      3717      3718
 -1      1809    8    0    1
 -2       871       957       958      3715      3719      3717
 -1      1810    8    0    1
 -2       873       872       959      3447      3720      3721
 -1      1811    8    0    1
 -2       872       958       959      3718      3722      3720
 -1      1812    8    0    1
 -2       874       873       960      3450      3723      3724
 -1      1813    8    0    1
 -2       873       959       960      3721      3725      3723
 -1      1814    8    0    1
 -2       916       874       905      3576      3726      3627
 -1      1815    8    0    1
 -2       919       878       961      3582      3727      3728
 -1      1816    8    0    1
 -2       878       821       961      3577      3729      3727
 -1      1817    8    0    1
 -2       875       901       962      3572      3730      3731
 -1      1818    8    0    1
 -2       876       811       902      3546      3526      3732
 -1      1819    8    0    1
 -2       821       918       961      3581      3733      3729
 -1      1820    8    0    1
 -2       880       879       963      3465      3734      3735
 -1      1821    8    0    1
 -2       825       819       964      3288      3736      3737
 -1      1822    8    0    1
 -2       924       825       964      3599      3737      3738
 -1      1823    8    0    1
 -2       819       915       964      3571      3739      3736
 -1      1824    8    0    1
 -2       883       884       965      3477      3740      3741
 -1      1825    8    0    1
 -2       882       883       966      3474      3742      3743
 -1      1826    8    0    1
 -2       883       965       966      3741      3744      3742
 -1      1827    8    0    1
 -2       881       882       967      3471      3745      3746
 -1      1828    8    0    1
 -2       882       966       967      3743      3747      3745
 -1      1829    8    0    1
 -2       884       885       968      3480      3748      3749
 -1      1830    8    0    1
 -2       884       968       965      3749      3750      3740
 -1      1831    8    0    1
 -2       885       886       969      3483      3751      3752
 -1      1832    8    0    1
 -2       885       969       968      3752      3753      3748
 -1      1833    8    0    1
 -2       886       887       970      3486      3754      3755
 -1      1834    8    0    1
 -2       886       970       969      3755      3756      3751
 -1      1835    8    0    1
 -2       887       888       971      3489      3757      3758
 -1      1836    8    0    1
 -2       887       971       970      3758      3759      3754
 -1      1837    8    0    1
 -2       888       889       972      3492      3760      3761
 -1      1838    8    0    1
 -2       888       972       971      3761      3762      3757
 -1      1839    8    0    1
 -2       889       890       973      3495      3763      3764
 -1      1840    8    0    1
 -2       889       973       972      3764      3765      3760
 -1      1841    8    0    1
 -2       890       891       974      3498      3766      3767
 -1      1842    8    0    1
 -2       890       974       973      3767      3768      3763
 -1      1843    8    0    1
 -2       891       892       975      3501      3769      3770
 -1      1844    8    0    1
 -2       891       975       974      3770      3771      3766
 -1      1845    8    0    1
 -2       892       893       976      3504      3772      3773
 -1      1846    8    0    1
 -2       975       892       976      3769      3773      3774
 -1      1847    8    0    1
 -2       893       903       976      3530      3775      3772
 -1      1848    8    0    1
 -2       894       824       832      3506      3564      3776
 -1      1849    8    0    1
 -2       895       877       851      3510      3664      3663
 -1      1850    8    0    1
 -2       909       880       977      3588      3777      3778
 -1      1851    8    0    1
 -2       880       963       977      3735      3779      3777
 -1      1852    8    0    1
 -2       897       899       978      3519      3780      3781
 -1      1853    8    0    1
 -2       898       875       979      3608      3782      3783
 -1      1854    8    0    1
 -2       910       898       979      3552      3783      3784
 -1      1855    8    0    1
 -2       875       962       979      3731      3785      3782
 -1      1856    8    0    1
 -2       900       908       980      3610      3786      3787
 -1      1857    8    0    1
 -2       820       917       981      3579      3788      3789
 -1      1858    8    0    1
 -2       904       817       982      3568      3790      3791
 -1      1859    8    0    1
 -2       879       911       983      3587      3792      3793
 -1      1860    8    0    1
 -2       879       983       963      3793      3794      3734
 -1      1861    8    0    1
 -2       833       829       984      3321      3795      3796
 -1      1862    8    0    1
 -2       829       926       984      3606      3797      3795
 -1      1863    8    0    1
 -2       901       909       985      3549      3798      3799
 -1      1864    8    0    1
 -2       909       977       985      3778      3800      3798
 -1      1865    8    0    1
 -2       908       876       986      3545      3801      3802
 -1      1866    8    0    1
 -2       908       986       980      3802      3803      3786
 -1      1867    8    0    1
 -2       907       904       987      3540      3804      3805
 -1      1868    8    0    1
 -2       902       820       981      3527      3789      3806
 -1      1869    8    0    1
 -2       911       881       988      3555      3807      3808
 -1      1870    8    0    1
 -2       983       911       988      3792      3808      3809
 -1      1871    8    0    1
 -2       881       967       988      3746      3810      3807
 -1      1872    8    0    1
 -2       895       850       906      3662      3811      3592
 -1      1873    8    0    1
 -2       837       912       989      3558      3812      3813
 -1      1874    8    0    1
 -2       837       989       931      3813      3814      3628
 -1      1875    8    0    1
 -2       877       727       990      3455      3815      3816
 -1      1876    8    0    1
 -2       913       900       991      3561      3817      3818
 -1      1877    8    0    1
 -2       900       980       991      3787      3819      3817
 -1      1878    8    0    1
 -2       917       822       992      3626      3820      3821
 -1      1879    8    0    1
 -2       822       920       992      3585      3822      3820
 -1      1880    8    0    1
 -2       905       874       960      3726      3724      3823
 -1      1881    8    0    1
 -2       876       902       981      3732      3806      3824
 -1      1882    8    0    1
 -2       894       832       929      3776      3618      3825
 -1      1883    8    0    1
 -2       914       910       979      3567      3784      3826
 -1      1884    8    0    1
 -2       915       913       993      3569      3827      3828
 -1      1885    8    0    1
 -2       913       991       993      3818      3829      3827
 -1      1886    8    0    1
 -2       920       830       994      3586      3830      3831
 -1      1887    8    0    1
 -2       830       927       994      3612      3832      3830
 -1      1888    8    0    1
 -2       928       848       941      3660      3658      3833
 -1      1889    8    0    1
 -2       850       849       906      3378      3834      3811
 -1      1890    8    0    1
 -2       853       816       921      3667      3590      3668
 -1      1891    8    0    1
 -2       854       921       995      3669      3835      3836
 -1      1892    8    0    1
 -2       876       981       986      3824      3837      3801
 -1      1893    8    0    1
 -2       855       854       995      3393      3836      3838
 -1      1894    8    0    1
 -2       962       901       985      3730      3799      3839
 -1      1895    8    0    1
 -2       919       961       996      3728      3840      3841
 -1      1896    8    0    1
 -2       833       984       922      3796      3842      3595
 -1      1897    8    0    1
 -2       835       897       997      3620      3843      3844
 -1      1898    8    0    1
 -2       905       960       926      3823      3845      3607
 -1      1899    8    0    1
 -2       921       827       995      3591      3846      3835
 -1      1900    8    0    1
 -2       925       907       987      3604      3805      3847
 -1      1901    8    0    1
 -2       995       827       925      3846      3603      3848
 -1      1902    8    0    1
 -2       982       817       914      3790      3566      3849
 -1      1903    8    0    1
 -2       978       899       998      3780      3850      3851
 -1      1904    8    0    1
 -2       899       924       998      3601      3852      3850
 -1      1905    8    0    1
 -2       981       917       999      3788      3853      3854
 -1      1906    8    0    1
 -2       904       982       987      3791      3855      3804
 -1      1907    8    0    1
 -2       927       826      1000      3613      3856      3857
 -1      1908    8    0    1
 -2       826       923      1000      3597      3858      3856
 -1      1909    8    0    1
 -2       917       992       999      3821      3859      3853
 -1      1910    8    0    1
 -2       961       918      1001      3733      3860      3861
 -1      1911    8    0    1
 -2       961      1001       996      3861      3862      3840
 -1      1912    8    0    1
 -2       903       896      1002      3531      3863      3864
 -1      1913    8    0    1
 -2       903      1002       976      3864      3865      3775
 -1      1914    8    0    1
 -2       942       855       995      3670      3838      3866
 -1      1915    8    0    1
 -2       997       897       978      3843      3781      3867
 -1      1916    8    0    1
 -2      1001       918      1003      3860      3868      3869
 -1      1917    8    0    1
 -2       918       930      1003      3622      3870      3868
 -1      1918    8    0    1
 -2      1002       896      1004      3863      3871      3872
 -1      1919    8    0    1
 -2       896       922      1004      3594      3873      3871
 -1      1920    8    0    1
 -2       906       849       928      3834      3661      3616
 -1      1921    8    0    1
 -2       919       996       989      3841      3874      3875
 -1      1922    8    0    1
 -2       894       929       912      3825      3876      3624
 -1      1923    8    0    1
 -2       989       912       929      3812      3876      3877
 -1      1924    8    0    1
 -2       990       727       816      3815      3258      3878
 -1      1925    8    0    1
 -2       831       928       941      3615      3833      3879
 -1      1926    8    0    1
 -2       919       989       929      3875      3877      3619
 -1      1927    8    0    1
 -2       989       996      1005      3874      3880      3881
 -1      1928    8    0    1
 -2       989      1005       931      3881      3882      3814
 -1      1929    8    0    1
 -2       933       932      1006      3635      3883      3884
 -1      1930    8    0    1
 -2       934       933      1007      3638      3885      3886
 -1      1931    8    0    1
 -2       933      1006      1007      3884      3887      3885
 -1      1932    8    0    1
 -2       935       934      1008      3641      3888      3889
 -1      1933    8    0    1
 -2       934      1007      1008      3886      3890      3888
 -1      1934    8    0    1
 -2       936       935      1009      3644      3891      3892
 -1      1935    8    0    1
 -2       935      1008      1009      3889      3893      3891
 -1      1936    8    0    1
 -2       937       936      1010      3647      3894      3895
 -1      1937    8    0    1
 -2       936      1009      1010      3892      3896      3894
 -1      1938    8    0    1
 -2       938       937      1011      3650      3897      3898
 -1      1939    8    0    1
 -2       937      1010      1011      3895      3899      3897
 -1      1940    8    0    1
 -2       939       938      1012      3653      3900      3901
 -1      1941    8    0    1
 -2       938      1011      1012      3898      3902      3900
 -1      1942    8    0    1
 -2       940       939      1013      3656      3903      3904
 -1      1943    8    0    1
 -2       939      1012      1013      3901      3905      3903
 -1      1944    8    0    1
 -2       941       940      1000      3659      3906      3907
 -1      1945    8    0    1
 -2       980       986      1014      3803      3908      3909
 -1      1946    8    0    1
 -2       986       981      1015      3837      3910      3911
 -1      1947    8    0    1
 -2      1014       986      1015      3908      3911      3912
 -1      1948    8    0    1
 -2       981       999      1015      3854      3913      3910
 -1      1949    8    0    1
 -2       944       943      1016      3677      3914      3915
 -1      1950    8    0    1
 -2       945       944      1017      3680      3916      3917
 -1      1951    8    0    1
 -2       944      1016      1017      3915      3918      3916
 -1      1952    8    0    1
 -2       946       945      1018      3683      3919      3920
 -1      1953    8    0    1
 -2       945      1017      1018      3917      3921      3919
 -1      1954    8    0    1
 -2       947       946      1019      3686      3922      3923
 -1      1955    8    0    1
 -2       946      1018      1019      3920      3924      3922
 -1      1956    8    0    1
 -2       948       947      1020      3689      3925      3926
 -1      1957    8    0    1
 -2       947      1019      1020      3923      3927      3925
 -1      1958    8    0    1
 -2       949       948      1021      3692      3928      3929
 -1      1959    8    0    1
 -2       948      1020      1021      3926      3930      3928
 -1      1960    8    0    1
 -2       950       949      1022      3695      3931      3932
 -1      1961    8    0    1
 -2       949      1021      1022      3929      3933      3931
 -1      1962    8    0    1
 -2       951       950      1023      3698      3934      3935
 -1      1963    8    0    1
 -2       950      1022      1023      3932      3936      3934
 -1      1964    8    0    1
 -2       952       951      1024      3701      3937      3938
 -1      1965    8    0    1
 -2       951      1023      1024      3935      3939      3937
 -1      1966    8    0    1
 -2       953       952      1025      3704      3940      3941
 -1      1967    8    0    1
 -2       952      1024      1025      3938      3942      3940
 -1      1968    8    0    1
 -2       954       953      1026      3707      3943      3944
 -1      1969    8    0    1
 -2       953      1025      1026      3941      3945      3943
 -1      1970    8    0    1
 -2       955       954      1027      3710      3946      3947
 -1      1971    8    0    1
 -2       954      1026      1027      3944      3948      3946
 -1      1972    8    0    1
 -2       956       955      1028      3713      3949      3950
 -1      1973    8    0    1
 -2       955      1027      1028      3947      3951      3949
 -1      1974    8    0    1
 -2       957       956      1029      3716      3952      3953
 -1      1975    8    0    1
 -2       956      1028      1029      3950      3954      3952
 -1      1976    8    0    1
 -2       958       957      1030      3719      3955      3956
 -1      1977    8    0    1
 -2       957      1029      1030      3953      3957      3955
 -1      1978    8    0    1
 -2       959       958      1031      3722      3958      3959
 -1      1979    8    0    1
 -2       958      1030      1031      3956      3960      3958
 -1      1980    8    0    1
 -2       960       959      1032      3725      3961      3962
 -1      1981    8    0    1
 -2       959      1031      1032      3959      3963      3961
 -1      1982    8    0    1
 -2       922       984      1033      3842      3964      3965
 -1      1983    8    0    1
 -2       922      1033      1004      3965      3966      3873
 -1      1984    8    0    1
 -2       926       960      1032      3845      3962      3967
 -1      1985    8    0    1
 -2       966       965      1034      3744      3968      3969
 -1      1986    8    0    1
 -2       965       968      1035      3750      3970      3971
 -1      1987    8    0    1
 -2       965      1035      1034      3971      3972      3968
 -1      1988    8    0    1
 -2       967       966      1036      3747      3973      3974
 -1      1989    8    0    1
 -2       966      1034      1036      3969      3975      3973
 -1      1990    8    0    1
 -2       969       970      1037      3756      3976      3977
 -1      1991    8    0    1
 -2       970       971      1038      3759      3978      3979
 -1      1992    8    0    1
 -2       970      1038      1037      3979      3980      3976
 -1      1993    8    0    1
 -2       971       972      1039      3762      3981      3982
 -1      1994    8    0    1
 -2       971      1039      1038      3982      3983      3978
 -1      1995    8    0    1
 -2       972       973      1040      3765      3984      3985
 -1      1996    8    0    1
 -2       972      1040      1039      3985      3986      3981
 -1      1997    8    0    1
 -2       973       974      1041      3768      3987      3988
 -1      1998    8    0    1
 -2       973      1041      1040      3988      3989      3984
 -1      1999    8    0    1
 -2       974       975      1042      3771      3990      3991
 -1      2000    8    0    1
 -2       974      1042      1041      3991      3992      3987
 -1      2001    8    0    1
 -2       991       980      1043      3819      3993      3994
 -1      2002    8    0    1
 -2       980      1014      1043      3909      3995      3993
 -1      2003    8    0    1
 -2       979       962      1044      3785      3996      3997
 -1      2004    8    0    1
 -2       923       831       941      3598      3879      3998
 -1      2005    8    0    1
 -2       968       969      1045      3753      3999      4000
 -1      2006    8    0    1
 -2      1035       968      1045      3970      4000      4001
 -1      2007    8    0    1
 -2       969      1037      1045      3977      4002      3999
 -1      2008    8    0    1
 -2       996      1001      1005      3862      4003      3880
 -1      2009    8    0    1
 -2       987       982      1046      3855      4004      4005
 -1      2010    8    0    1
 -2       963       983      1047      3794      4006      4007
 -1      2011    8    0    1
 -2       962       985      1048      3839      4008      4009
 -1      2012    8    0    1
 -2       962      1048      1044      4009      4010      3996
 -1      2013    8    0    1
 -2       985       977      1049      3800      4011      4012
 -1      2014    8    0    1
 -2       985      1049      1048      4012      4013      4008
 -1      2015    8    0    1
 -2       982       914      1050      3849      4014      4015
 -1      2016    8    0    1
 -2       995       925      1051      3848      4016      4017
 -1      2017    8    0    1
 -2       942       995      1051      3866      4017      4018
 -1      2018    8    0    1
 -2       925       987      1051      3847      4019      4016
 -1      2019    8    0    1
 -2       977       963      1052      3779      4020      4021
 -1      2020    8    0    1
 -2      1049       977      1052      4011      4021      4022
 -1      2021    8    0    1
 -2       963      1047      1052      4007      4023      4020
 -1      2022    8    0    1
 -2       914       979      1044      3826      3997      4024
 -1      2023    8    0    1
 -2       932       931      1053      3632      4025      4026
 -1      2024    8    0    1
 -2      1006       932      1053      3883      4026      4027
 -1      2025    8    0    1
 -2       931      1005      1053      3882      4028      4025
 -1      2026    8    0    1
 -2       999       992      1054      3859      4029      4030
 -1      2027    8    0    1
 -2       992       920      1055      3822      4031      4032
 -1      2028    8    0    1
 -2      1054       992      1055      4029      4032      4033
 -1      2029    8    0    1
 -2       920       994      1055      3831      4034      4031
 -1      2030    8    0    1
 -2       923       941      1000      3998      3907      3858
 -1      2031    8    0    1
 -2       993       991      1056      3829      4035      4036
 -1      2032    8    0    1
 -2       991      1043      1056      3994      4037      4035
 -1      2033    8    0    1
 -2       994       927      1013      3832      4038      4039
 -1      2034    8    0    1
 -2       852       877       990      3665      3816      4040
 -1      2035    8    0    1
 -2      1001      1003      1057      3869      4041      4042
 -1      2036    8    0    1
 -2       976      1002       975      3865      4043      3774
 -1      2037    8    0    1
 -2      1047       983      1058      4006      4044      4045
 -1      2038    8    0    1
 -2       983       988      1058      3809      4046      4044
 -1      2039    8    0    1
 -2       964       915      1059      3739      4047      4048
 -1      2040    8    0    1
 -2       915       993      1059      3828      4049      4047
 -1      2041    8    0    1
 -2       967      1036      1060      3974      4050      4051
 -1      2042    8    0    1
 -2       967      1060       988      4051      4052      3810
 -1      2043    8    0    1
 -2       924       964      1061      3738      4053      4054
 -1      2044    8    0    1
 -2       998       924      1061      3852      4054      4055
 -1      2045    8    0    1
 -2       964      1059      1061      4048      4056      4053
 -1      2046    8    0    1
 -2      1042       975      1002      3990      4043      4057
 -1      2047    8    0    1
 -2       835       997       930      3844      4058      3623
 -1      2048    8    0    1
 -2       982      1050      1046      4015      4059      4004
 -1      2049    8    0    1
 -2       914      1044      1050      4024      4060      4014
 -1      2050    8    0    1
 -2      1042      1002      1062      4057      4061      4062
 -1      2051    8    0    1
 -2      1002      1004      1062      3872      4063      4061
 -1      2052    8    0    1
 -2       984       926      1033      3797      4064      3964
 -1      2053    8    0    1
 -2       997       978      1063      3867      4065      4066
 -1      2054    8    0    1
 -2       999      1054      1064      4030      4067      4068
 -1      2055    8    0    1
 -2       943       942      1065      3674      4069      4070
 -1      2056    8    0    1
 -2      1005      1001      1057      4003      4042      4071
 -1      2057    8    0    1
 -2       927      1000      1013      3857      4072      4038
 -1      2058    8    0    1
 -2      1033       926      1032      4064      3967      4073
 -1      2059    8    0    1
 -2       978       998      1063      3851      4074      4065
 -1      2060    8    0    1
 -2      1015       999      1064      3913      4068      4075
 -1      2061    8    0    1
 -2       930       997      1003      4058      4076      3870
 -1      2062    8    0    1
 -2       943      1065      1016      4070      4077      3914
 -1      2063    8    0    1
 -2      1033      1032      1066      4073      4078      4079
 -1      2064    8    0    1
 -2       852       990       816      4040      3878      3666
 -1      2065    8    0    1
 -2       940      1013      1000      3904      4072      3906
 -1      2066    8    0    1
 -2      1008      1007      1067      3890      4080      4081
 -1      2067    8    0    1
 -2      1009      1008      1068      3893      4082      4083
 -1      2068    8    0    1
 -2      1008      1067      1068      4081      4084      4082
 -1      2069    8    0    1
 -2      1010      1009      1069      3896      4085      4086
 -1      2070    8    0    1
 -2      1009      1068      1069      4083      4087      4085
 -1      2071    8    0    1
 -2      1011      1010      1064      3899      4088      4089
 -1      2072    8    0    1
 -2      1012      1011      1054      3902      4090      4091
 -1      2073    8    0    1
 -2      1013      1012       994      3905      4092      4039
 -1      2074    8    0    1
 -2      1014      1015      1070      3912      4093      4094
 -1      2075    8    0    1
 -2      1015      1064      1070      4075      4095      4093
 -1      2076    8    0    1
 -2      1017      1016      1071      3918      4096      4097
 -1      2077    8    0    1
 -2      1004      1033      1066      3966      4079      4098
 -1      2078    8    0    1
 -2      1018      1017      1072      3921      4099      4100
 -1      2079    8    0    1
 -2      1017      1071      1072      4097      4101      4099
 -1      2080    8    0    1
 -2      1019      1018      1073      3924      4102      4103
 -1      2081    8    0    1
 -2      1018      1072      1073      4100      4104      4102
 -1      2082    8    0    1
 -2      1020      1019      1074      3927      4105      4106
 -1      2083    8    0    1
 -2      1019      1073      1074      4103      4107      4105
 -1      2084    8    0    1
 -2      1021      1020      1075      3930      4108      4109
 -1      2085    8    0    1
 -2      1020      1074      1075      4106      4110      4108
 -1      2086    8    0    1
 -2      1022      1021      1076      3933      4111      4112
 -1      2087    8    0    1
 -2      1021      1075      1076      4109      4113      4111
 -1      2088    8    0    1
 -2      1023      1022      1077      3936      4114      4115
 -1      2089    8    0    1
 -2      1022      1076      1077      4112      4116      4114
 -1      2090    8    0    1
 -2      1024      1023      1078      3939      4117      4118
 -1      2091    8    0    1
 -2      1023      1077      1078      4115      4119      4117
 -1      2092    8    0    1
 -2      1025      1024      1079      3942      4120      4121
 -1      2093    8    0    1
 -2      1024      1078      1079      4118      4122      4120
 -1      2094    8    0    1
 -2      1026      1025      1080      3945      4123      4124
 -1      2095    8    0    1
 -2      1025      1079      1080      4121      4125      4123
 -1      2096    8    0    1
 -2      1027      1026      1081      3948      4126      4127
 -1      2097    8    0    1
 -2      1026      1080      1081      4124      4128      4126
 -1      2098    8    0    1
 -2      1028      1027      1082      3951      4129      4130
 -1      2099    8    0    1
 -2      1027      1081      1082      4127      4131      4129
 -1      2100    8    0    1
 -2      1029      1028      1083      3954      4132      4133
 -1      2101    8    0    1
 -2      1028      1082      1083      4130      4134      4132
 -1      2102    8    0    1
 -2      1030      1029      1084      3957      4135      4136
 -1      2103    8    0    1
 -2      1029      1083      1084      4133      4137      4135
 -1      2104    8    0    1
 -2      1031      1030      1085      3960      4138      4139
 -1      2105    8    0    1
 -2      1030      1084      1085      4136      4140      4138
 -1      2106    8    0    1
 -2      1032      1031      1086      3963      4141      4142
 -1      2107    8    0    1
 -2      1066      1032      1086      4078      4142      4143
 -1      2108    8    0    1
 -2      1031      1085      1086      4139      4144      4141
 -1      2109    8    0    1
 -2       997      1063      1003      4066      4145      4076
 -1      2110    8    0    1
 -2      1016      1065      1046      4077      4146      4147
 -1      2111    8    0    1
 -2      1034      1035      1087      3972      4148      4149
 -1      2112    8    0    1
 -2      1036      1034      1088      3975      4150      4151
 -1      2113    8    0    1
 -2      1034      1087      1088      4149      4152      4150
 -1      2114    8    0    1
 -2      1038      1039      1089      3983      4153      4154
 -1      2115    8    0    1
 -2      1037      1038      1090      3980      4155      4156
 -1      2116    8    0    1
 -2      1038      1089      1090      4154      4157      4155
 -1      2117    8    0    1
 -2      1040      1041      1091      3989      4158      4159
 -1      2118    8    0    1
 -2      1041      1042      1092      3992      4160      4161
 -1      2119    8    0    1
 -2      1091      1041      1092      4158      4161      4162
 -1      2120    8    0    1
 -2      1042      1062      1092      4062      4163      4160
 -1      2121    8    0    1
 -2      1043      1014      1070      3995      4094      4164
 -1      2122    8    0    1
 -2      1048      1049      1093      4013      4165      4166
 -1      2123    8    0    1
 -2      1065       942      1051      4069      4018      4167
 -1      2124    8    0    1
 -2      1064      1054      1011      4067      4090      4089
 -1      2125    8    0    1
 -2      1007      1006      1094      3887      4168      4169
 -1      2126    8    0    1
 -2      1007      1094      1067      4169      4170      4080
 -1      2127    8    0    1
 -2      1044      1048      1095      4010      4171      4172
 -1      2128    8    0    1
 -2      1050      1044      1095      4060      4172      4173
 -1      2129    8    0    1
 -2      1048      1093      1095      4166      4174      4171
 -1      2130    8    0    1
 -2      1016      1046      1071      4147      4175      4096
 -1      2131    8    0    1
 -2      1005      1057      1096      4071      4176      4177
 -1      2132    8    0    1
 -2      1005      1096      1053      4177      4178      4028
 -1      2133    8    0    1
 -2      1046      1050      1071      4059      4179      4175
 -1      2134    8    0    1
 -2      1051       987      1065      4019      4180      4167
 -1      2135    8    0    1
 -2      1039      1040      1097      3986      4181      4182
 -1      2136    8    0    1
 -2      1089      1039      1097      4153      4182      4183
 -1      2137    8    0    1
 -2      1040      1091      1097      4159      4184      4181
 -1      2138    8    0    1
 -2       987      1046      1065      4005      4146      4180
 -1      2139    8    0    1
 -2      1064      1010      1069      4088      4086      4185
 -1      2140    8    0    1
 -2      1012      1054      1055      4091      4033      4186
 -1      2141    8    0    1
 -2      1070      1064      1069      4095      4185      4187
 -1      2142    8    0    1
 -2      1006      1053      1098      4027      4188      4189
 -1      2143    8    0    1
 -2      1094      1006      1098      4168      4189      4190
 -1      2144    8    0    1
 -2      1053      1096      1098      4178      4191      4188
 -1      2145    8    0    1
 -2      1057      1003      1063      4041      4145      4192
 -1      2146    8    0    1
 -2      1004      1066      1062      4098      4193      4063
 -1      2147    8    0    1
 -2      1058       988      1060      4046      4052      4194
 -1      2148    8    0    1
 -2      1059       993      1099      4049      4195      4196
 -1      2149    8    0    1
 -2       993      1056      1099      4036      4197      4195
 -1      2150    8    0    1
 -2      1060      1036      1100      4050      4198      4199
 -1      2151    8    0    1
 -2      1036      1088      1100      4151      4200      4198
 -1      2152    8    0    1
 -2      1037      1090      1101      4156      4201      4202
 -1      2153    8    0    1
 -2      1037      1101      1045      4202      4203      4002
 -1      2154    8    0    1
 -2      1093      1049      1102      4165      4204      4205
 -1      2155    8    0    1
 -2      1049      1052      1102      4022      4206      4204
 -1      2156    8    0    1
 -2      1047      1058      1103      4045      4207      4208
 -1      2157    8    0    1
 -2      1052      1047      1104      4023      4209      4210
 -1      2158    8    0    1
 -2      1102      1052      1104      4206      4210      4211
 -1      2159    8    0    1
 -2      1047      1103      1104      4208      4212      4209
 -1      2160    8    0    1
 -2      1063       998      1105      4074      4213      4214
 -1      2161    8    0    1
 -2      1043      1070      1106      4164      4215      4216
 -1      2162    8    0    1
 -2      1096      1057      1105      4176      4217      4218
 -1      2163    8    0    1
 -2      1087      1035      1107      4148      4219      4220
 -1      2164    8    0    1
 -2      1035      1045      1107      4001      4221      4219
 -1      2165    8    0    1
 -2      1063      1105      1057      4214      4217      4192
 -1      2166    8    0    1
 -2       998      1061      1105      4055      4222      4213
 -1      2167    8    0    1
 -2      1071      1050      1095      4179      4173      4223
 -1      2168    8    0    1
 -2      1056      1043      1106      4037      4216      4224
 -1      2169    8    0    1
 -2      1067      1094      1108      4170      4225      4226
 -1      2170    8    0    1
 -2      1069      1068      1106      4087      4227      4228
 -1      2171    8    0    1
 -2       994      1012      1055      4092      4186      4034
 -1      2172    8    0    1
 -2      1105      1061      1109      4222      4229      4230
 -1      2173    8    0    1
 -2      1072      1071      1095      4101      4223      4231
 -1      2174    8    0    1
 -2      1073      1072      1093      4104      4232      4233
 -1      2175    8    0    1
 -2      1074      1073      1102      4107      4234      4235
 -1      2176    8    0    1
 -2      1075      1074      1104      4110      4236      4237
 -1      2177    8    0    1
 -2      1076      1075      1103      4113      4238      4239
 -1      2178    8    0    1
 -2      1078      1077      1100      4119      4240      4241
 -1      2179    8    0    1
 -2      1079      1078      1088      4122      4242      4243
 -1      2180    8    0    1
 -2      1080      1079      1087      4125      4244      4245
 -1      2181    8    0    1
 -2      1081      1080      1107      4128      4246      4247
 -1      2182    8    0    1
 -2      1082      1081      1101      4131      4248      4249
 -1      2183    8    0    1
 -2      1083      1082      1090      4134      4250      4251
 -1      2184    8    0    1
 -2      1084      1083      1089      4137      4252      4253
 -1      2185    8    0    1
 -2      1085      1084      1097      4140      4254      4255
 -1      2186    8    0    1
 -2      1088      1087      1079      4152      4244      4243
 -1      2187    8    0    1
 -2      1061      1059      1109      4056      4256      4229
 -1      2188    8    0    1
 -2      1073      1093      1102      4233      4205      4234
 -1      2189    8    0    1
 -2      1103      1058      1110      4207      4257      4258
 -1      2190    8    0    1
 -2      1076      1103      1110      4239      4258      4259
 -1      2191    8    0    1
 -2      1058      1060      1110      4194      4260      4257
 -1      2192    8    0    1
 -2      1106      1070      1069      4215      4187      4228
 -1      2193    8    0    1
 -2      1095      1093      1072      4174      4232      4231
 -1      2194    8    0    1
 -2      1062      1066      1092      4193      4261      4163
 -1      2195    8    0    1
 -2      1096      1105      1109      4218      4230      4262
 -1      2196    8    0    1
 -2      1090      1089      1083      4157      4252      4251
 -1      2197    8    0    1
 -2      1088      1078      1100      4242      4241      4200
 -1      2198    8    0    1
 -2      1103      1075      1104      4238      4237      4212
 -1      2199    8    0    1
 -2      1106      1068      1111      4227      4263      4264
 -1      2200    8    0    1
 -2      1056      1106      1111      4224      4264      4265
 -1      2201    8    0    1
 -2      1068      1067      1111      4084      4266      4263
 -1      2202    8    0    1
 -2      1090      1082      1101      4250      4249      4201
 -1      2203    8    0    1
 -2      1080      1087      1107      4245      4220      4246
 -1      2204    8    0    1
 -2      1084      1089      1097      4253      4183      4254
 -1      2205    8    0    1
 -2      1096      1109      1098      4262      4267      4191
 -1      2206    8    0    1
 -2      1104      1074      1102      4236      4235      4211
 -1      2207    8    0    1
 -2      1076      1110      1077      4259      4268      4116
 -1      2208    8    0    1
 -2      1092      1066      1086      4261      4143      4269
 -1      2209    8    0    1
 -2      1100      1077      1110      4240      4268      4270
 -1      2210    8    0    1
 -2      1056      1111      1099      4265      4271      4197
 -1      2211    8    0    1
 -2      1111      1067      1108      4266      4226      4272
 -1      2212    8    0    1
 -2      1109      1059      1099      4256      4196      4273
 -1      2213    8    0    1
 -2      1085      1097      1091      4255      4184      4274
 -1      2214    8    0    1
 -2      1086      1085      1091      4144      4274      4275
 -1      2215    8    0    1
 -2      1045      1101      1107      4203      4276      4221
 -1      2216    8    0    1
 -2      1091      1092      1086      4162      4269      4275
 -1      2217    8    0    1
 -2      1094      1098      1108      4190      4277      4225
 -1      2218    8    0    1
 -2      1110      1060      1100      4260      4199      4270
 -1      2219    8    0    1
 -2      1101      1081      1107      4248      4247      4276
 -1      2220    8    0    1
 -2      1098      1109      1108      4267      4278      4277
 -1      2221    8    0    1
 -2      1111      1108      1099      4272      4279      4271
 -1      2222    8    0    1
 -2      1108      1109      1099      4278      4273      4279
 -3
    1PSTEP                         1           1           1          
  100CL  101 1.000000000        4279                     0    1           1
 -4  DISP        4    1
 -5  D1          1    2    1    0
 -5  D2          1    2    2    0
 -5  D3          1    2    3    0
 -5  ALL         1    2    0    0    1ALL
 -1         1 5.06102E-03-1.20650E-05-1.28699E-14
 -1         2 8.98283E-03 9.53650E-04-1.73073E-14
 -1         3 1.65954E-02 5.33784E-03-7.08312E-14
 -1         4 1.39825E-02 3.90764E-03-8.46647E-14
 -1         5 0.00000E+00 0.00000E+00 0.00000E+00
 -1         6 0.00000E+00 0.00000E+00 0.00000E+00
 -1         7 0.00000E+00 0.00000E+00 0.00000E+00
 -1         8 0.00000E+00 0.00000E+00 0.00000E+00
 -1         9 0.00000E+00 0.00000E+00 0.00000E+00
 -1        10 0.00000E+00 0.00000E+00 0.00000E+00
 -1        11 0.00000E+00 0.00000E+00 0.00000E+00
 -1        12 0.00000E+00 0.00000E+00 0.00000E+00
 -1        13 0.00000E+00 0.00000E+00 0.00000E+00
 -1        14 0.00000E+00 0.00000E+00 0.00000E+00
 -1        15 0.00000E+00 0.00000E+00 0.00000E+00
 -1        16 0.00000E+00 0.00000E+00 0.00000E+00
 -1        17 0.00000E+00 0.00000E+00 0.00000E+00
 -1        18 0.00000E+00 0.00000E+00 0.00000E+00
 -1        19 0.00000E+00 0.00000E+00 0.00000E+00
 -1        20 0.00000E+00 0.00000E+00 0.00000E+00
 -1        21 0.00000E+00 0.00000E+00 0.00000E+00
 -1        22 0.00000E+00 0.00000E+00 0.00000E+00
 -1        23 4.10069E-04-2.58421E-04-1.66764E-17
 -1        24 7.02058E-04-3.95953E-04-1.58338E-16
 -1        25 9.73043E-04-4.90410E-04-4.15951E-16
 -1        26 1.23928E-03-5.56174E-04-7.80632E-16
 -1        27 1.50548E-03-6.02498E-04-1.24443E-15
 -1        28 1.77391E-03-6.34947E-04-1.80308E-15
 -1        29 2.04569E-03-6.57509E-04-2.45244E-15
 -1        30 2.32135E-03-6.73289E-04-3.19012E-15
 -1        31 2.60097E-03-6.84841E-04-4.01188E-15
 -1        32 2.88424E-03-6.94331E-04-4.91619E-15
 -1        33 3.17044E-03-7.03568E-04-5.89865E-15
 -1        34 3.45833E-03-7.13934E-04-6.95013E-15
 -1        35 3.74614E-03-7.26191E-04-8.07289E-15
 -1        36 4.03151E-03-7.40184E-04-9.26448E-15
 -1        37 4.31170E-03-7.54489E-04-1.05235E-14
 -1        38 4.58394E-03-7.66114E-04-1.18453E-14
 -1        39 4.84602E-03-7.70438E-04-1.32279E-14
 -1        40 5.09703E-03-7.61587E-04-1.46725E-14
 -1        41 5.33800E-03-7.33344E-04-1.61796E-14
 -1        42 5.57204E-03-6.80471E-04-1.77522E-14
 -1        43 5.80389E-03-6.00037E-04-1.93939E-14
 -1        44 6.03888E-03-4.92242E-04-2.11043E-14
 -1        45 6.28164E-03-3.60358E-04-2.28830E-14
 -1        46 6.53510E-03-2.09838E-04-2.47325E-14
 -1        47 6.80013E-03-4.69660E-05-2.66395E-14
 -1        48 7.07581E-03 1.22410E-04-2.86019E-14
 -1        49 7.35999E-03 2.93703E-04-3.06166E-14
 -1        50 7.65012E-03 4.63881E-04-3.26886E-14
 -1        51 7.94373E-03 6.31336E-04-3.48141E-14
 -1        52 8.23882E-03 7.95545E-04-3.69832E-14
 -1        53 8.53397E-03 9.56681E-04-3.91908E-14
 -1        54 8.82829E-03 1.11527E-03-4.14339E-14
 -1        55 9.12131E-03 1.27197E-03-4.37076E-14
 -1        56 9.41291E-03 1.42741E-03-4.59863E-14
 -1        57 9.70313E-03 1.58210E-03-4.82771E-14
 -1        58 9.99213E-03 1.73646E-03-5.05882E-14
 -1        59 1.02801E-02 1.89078E-03-5.29036E-14
 -1        60 1.05673E-02 2.04522E-03-5.52345E-14
 -1        61 1.08540E-02 2.19991E-03-5.75754E-14
 -1        62 1.11402E-02 2.35488E-03-5.99453E-14
 -1        63 1.14261E-02 2.51015E-03-6.23477E-14
 -1        64 1.17118E-02 2.66570E-03-6.47850E-14
 -1        65 1.19974E-02 2.82149E-03-6.72618E-14
 -1        66 1.22830E-02 2.97748E-03-6.97638E-14
 -1        67 1.25685E-02 3.13364E-03-7.22771E-14
 -1        68 1.28541E-02 3.28991E-03-7.47760E-14
 -1        69 1.31397E-02 3.44627E-03-7.72709E-14
 -1        70 1.34254E-02 3.60267E-03-7.97634E-14
 -1        71 1.37111E-02 3.75907E-03-8.22715E-14
 -1        72 3.93753E-04 2.49769E-04 6.73866E-17
 -1        73 6.87614E-04 3.89677E-04 8.36496E-17
 -1        74 9.58877E-04 4.85082E-04 3.88415E-17
 -1        75 1.22512E-03 5.50810E-04-7.19233E-17
 -1        76 1.49141E-03 5.96129E-04-2.48316E-16
 -1        77 1.74687E-03 6.25252E-04-4.77683E-16
 -1        78 2.02002E-03 6.44832E-04-7.88123E-16
 -1        79 2.29897E-03 6.55855E-04-1.16986E-15
 -1        80 2.58536E-03 6.60700E-04-1.62043E-15
 -1        81 2.88135E-03 6.61669E-04-2.14104E-15
 -1        82 3.19006E-03 6.61462E-04-2.72708E-15
 -1        83 3.49917E-03 6.63726E-04-3.34198E-15
 -1        84 3.84721E-03 6.74608E-04-4.04958E-15
 -1        85 4.22639E-03 7.04466E-04-4.82530E-15
 -1        86 4.64524E-03 7.70485E-04-5.66179E-15
 -1        87 5.10830E-03 8.98609E-04-6.55179E-15
 -1        88 5.60583E-03 1.12001E-03-7.49085E-15
 -1        89 6.07618E-03 1.43207E-03-8.42613E-15
 -1        90 6.44788E-03 1.76738E-03-9.30636E-15
 -1        91 6.78049E-03 2.12131E-03-1.04051E-14
 -1        92 7.01563E-03 2.27098E-03-1.15222E-14
 -1        93 7.24003E-03 2.20544E-03-1.25948E-14
 -1        94 7.56057E-03 2.00597E-03-1.38135E-14
 -1        95 7.96903E-03 1.79531E-03-1.51136E-14
 -1        96 8.44585E-03 1.64980E-03-1.65693E-14
 -1        97 8.94121E-03 1.60390E-03-1.81777E-14
 -1        98 9.39899E-03 1.64601E-03-1.98556E-14
 -1        99 9.79366E-03 1.73928E-03-2.14983E-14
 -1       100 1.01727E-02 1.87017E-03-2.32859E-14
 -1       101 1.05231E-02 2.01925E-03-2.51275E-14
 -1       102 1.08530E-02 2.17741E-03-2.70163E-14
 -1       103 1.11687E-02 2.33965E-03-2.89648E-14
 -1       104 1.14745E-02 2.50333E-03-3.09546E-14
 -1       105 1.17589E-02 2.65895E-03-3.28716E-14
 -1       106 1.20537E-02 2.82227E-03-3.49236E-14
 -1       107 1.23453E-02 2.98482E-03-3.70139E-14
 -1       108 1.26348E-02 3.14654E-03-3.91468E-14
 -1       109 1.29228E-02 3.30744E-03-4.13187E-14
 -1       110 1.32098E-02 3.46761E-03-4.35090E-14
 -1       111 1.34819E-02 3.61916E-03-4.56060E-14
 -1       112 1.37679E-02 3.77815E-03-4.78412E-14
 -1       113 1.40536E-02 3.93667E-03-5.01079E-14
 -1       114 1.43392E-02 4.09481E-03-5.23980E-14
 -1       115 1.46247E-02 4.25263E-03-5.47034E-14
 -1       116 1.49102E-02 4.41022E-03-5.70261E-14
 -1       117 1.51815E-02 4.55975E-03-5.92427E-14
 -1       118 1.54671E-02 4.71703E-03-6.15714E-14
 -1       119 1.57527E-02 4.87423E-03-6.39056E-14
 -1       120 1.60383E-02 5.03138E-03-6.62554E-14
 -1       121 1.63240E-02 5.18853E-03-6.85965E-14
 -1       122 1.64409E-02 5.25355E-03-7.16392E-14
 -1       123 1.62863E-02 5.16925E-03-7.24607E-14
 -1       124 1.61317E-02 5.08491E-03-7.32799E-14
 -1       125 1.59772E-02 5.00053E-03-7.41038E-14
 -1       126 1.58227E-02 4.91612E-03-7.49156E-14
 -1       127 1.56709E-02 4.83311E-03-7.57130E-14
 -1       128 1.55166E-02 4.74867E-03-7.65416E-14
 -1       129 1.53623E-02 4.66422E-03-7.73779E-14
 -1       130 1.52082E-02 4.57977E-03-7.82122E-14
 -1       131 1.50541E-02 4.49532E-03-7.90344E-14
 -1       132 1.49001E-02 4.41089E-03-7.98466E-14
 -1       133 1.47488E-02 4.32790E-03-8.06650E-14
 -1       134 1.45950E-02 4.24350E-03-8.14926E-14
 -1       135 1.44412E-02 4.15914E-03-8.23183E-14
 -1       136 1.42874E-02 4.07480E-03-8.31192E-14
 -1       137 1.41337E-02 3.99050E-03-8.38976E-14
 -1       138 8.99950E-03 1.15078E-03-1.69339E-14
 -1       139 8.91097E-03 1.33351E-03-1.64489E-14
 -1       140 8.70080E-03 1.52632E-03-1.58060E-14
 -1       141 8.41343E-03 1.69063E-03-1.51631E-14
 -1       142 7.99106E-03 1.84922E-03-1.43991E-14
 -1       143 7.51721E-03 1.95225E-03-1.36880E-14
 -1       144 6.95014E-03 1.98820E-03-1.29541E-14
 -1       145 6.38068E-03 1.93291E-03-1.23056E-14
 -1       146 5.84126E-03 1.79999E-03-1.17566E-14
 -1       147 5.33931E-03 1.60574E-03-1.12997E-14
 -1       148 4.93964E-03 1.39823E-03-1.09897E-14
 -1       149 4.59920E-03 1.16881E-03-1.07843E-14
 -1       150 4.35957E-03 9.45704E-04-1.07136E-14
 -1       151 4.22784E-03 7.41386E-04-1.07692E-14
 -1       152 4.19510E-03 5.45536E-04-1.09508E-14
 -1       153 4.26515E-03 3.70932E-04-1.12551E-14
 -1       154 4.44674E-03 2.09588E-04-1.17072E-14
 -1       155 4.69011E-03 9.17412E-05-1.22000E-14
 -1       156 5.43700E-03-6.71992E-05-1.34953E-14
 -1       157 5.84931E-03-8.98909E-05-1.41450E-14
 -1       158 6.28393E-03-7.98767E-05-1.47956E-14
 -1       159 6.76196E-03-3.32564E-05-1.54745E-14
 -1       160 7.22217E-03 4.54289E-05-1.60836E-14
 -1       161 7.67240E-03 1.58326E-04-1.66293E-14
 -1       162 8.06013E-03 2.88430E-04-1.70424E-14
 -1       163 8.40442E-03 4.41581E-04-1.73432E-14
 -1       164 8.67923E-03 6.06998E-04-1.74934E-14
 -1       165 8.87280E-03 7.77950E-04-1.74802E-14
 -1       166 2.40723E-04-1.23539E-04-4.58550E-17
 -1       167 2.25744E-04-9.24072E-05-5.35901E-17
 -1       168 2.19918E-04-7.04686E-05-5.57619E-17
 -1       169 2.16904E-04-5.28753E-05-5.49860E-17
 -1       170 2.15169E-04-3.80214E-05-5.29192E-17
 -1       171 2.14105E-04-2.44592E-05-5.02358E-17
 -1       172 2.13519E-04-1.18491E-05-4.71763E-17
 -1       173 2.13327E-04 2.87268E-07-4.38289E-17
 -1       174 2.13513E-04 1.23869E-05-3.98783E-17
 -1       175 2.14111E-04 2.49003E-05-3.56601E-17
 -1       176 2.15191E-04 3.81046E-05-3.07642E-17
 -1       177 2.17008E-04 5.31044E-05-2.44488E-17
 -1       178 2.20088E-04 7.06715E-05-1.57684E-17
 -1       179 2.25977E-04 9.26900E-05-3.56770E-18
 -1       180 2.41038E-04 1.24077E-04 1.46096E-17
 -1       181 4.68836E-04-2.59820E-04-1.16945E-16
 -1       182 7.67690E-04-3.75414E-04-3.25555E-16
 -1       183 1.05287E-03-4.55147E-04-6.37785E-16
 -1       184 1.33229E-03-5.10730E-04-1.04821E-15
 -1       185 1.60975E-03-5.49315E-04-1.55205E-15
 -1       186 1.88744E-03-5.75812E-04-2.14650E-15
 -1       187 2.16662E-03-5.93873E-04-2.82801E-15
 -1       188 2.44791E-03-6.06419E-04-3.59280E-15
 -1       189 2.73154E-03-6.15899E-04-4.43807E-15
 -1       190 3.01731E-03-6.24405E-04-5.36188E-15
 -1       191 3.30467E-03-6.33663E-04-6.35892E-15
 -1       192 3.59267E-03-6.44903E-04-7.42550E-15
 -1       193 3.87997E-03-6.58603E-04-8.56145E-15
 -1       194 4.16489E-03-6.74114E-04-9.76341E-15
 -1       195 4.44561E-03-6.89279E-04-1.10322E-14
 -1       196 4.72046E-03-7.00161E-04-1.23637E-14
 -1       197 4.98839E-03-7.01153E-04-1.37550E-14
 -1       198 5.24939E-03-6.85627E-04-1.52081E-14
 -1       199 5.50479E-03-6.47188E-04-1.67265E-14
 -1       200 5.75719E-03-5.81215E-04-1.83124E-14
 -1       201 6.00995E-03-4.86149E-04-1.99698E-14
 -1       202 6.26638E-03-3.63962E-04-2.16957E-14
 -1       203 6.52898E-03-2.19570E-04-2.34906E-14
 -1       204 6.79897E-03-5.95003E-05-2.53498E-14
 -1       205 7.07632E-03 1.09634E-04-2.72639E-14
 -1       206 7.35996E-03 2.82294E-04-2.92339E-14
 -1       207 7.64834E-03 4.54577E-04-3.12564E-14
 -1       208 7.93979E-03 6.24237E-04-3.33354E-14
 -1       209 8.23284E-03 7.90366E-04-3.54582E-14
 -1       210 8.52631E-03 9.52964E-04-3.76250E-14
 -1       211 8.81944E-03 1.11254E-03-3.98273E-14
 -1       212 9.11174E-03 1.26979E-03-4.20628E-14
 -1       213 9.40299E-03 1.42545E-03-4.43212E-14
 -1       214 9.69316E-03 1.58013E-03-4.65913E-14
 -1       215 9.98232E-03 1.73433E-03-4.88809E-14
 -1       216 1.02706E-02 1.88841E-03-5.11845E-14
 -1       217 1.05581E-02 2.04258E-03-5.34983E-14
 -1       218 1.08451E-02 2.19700E-03-5.58254E-14
 -1       219 1.11316E-02 2.35173E-03-5.81742E-14
 -1       220 1.14178E-02 2.50678E-03-6.05536E-14
 -1       221 1.17038E-02 2.66214E-03-6.29590E-14
 -1       222 1.19896E-02 2.81778E-03-6.53949E-14
 -1       223 1.22753E-02 2.97367E-03-6.78643E-14
 -1       224 1.25610E-02 3.12974E-03-7.03558E-14
 -1       225 1.28466E-02 3.28597E-03-7.28541E-14
 -1       226 1.31323E-02 3.44230E-03-7.53463E-14
 -1       227 1.34180E-02 3.59869E-03-7.78368E-14
 -1       228 1.37037E-02 3.75510E-03-8.03338E-14
 -1       229 4.53559E-04 2.52618E-04 3.18484E-17
 -1       230 7.53055E-04 3.69645E-04-1.02186E-17
 -1       231 1.03880E-03 4.49873E-04-1.13092E-16
 -1       232 1.31875E-03 5.04910E-04-2.80351E-16
 -1       233 1.58314E-03 5.40364E-04-5.00156E-16
 -1       234 1.86230E-03 5.64439E-04-7.97990E-16
 -1       235 2.14420E-03 5.78221E-04-1.16665E-15
 -1       236 2.43043E-03 5.84270E-04-1.60497E-15
 -1       237 2.72263E-03 5.84787E-04-2.11215E-15
 -1       238 3.02271E-03 5.82035E-04-2.68640E-15
 -1       239 3.31731E-03 5.79058E-04-3.29146E-15
 -1       240 3.64044E-03 5.79805E-04-3.99031E-15
 -1       241 3.98076E-03 5.92057E-04-4.75336E-15
 -1       242 4.34268E-03 6.28958E-04-5.57863E-15
 -1       243 4.73039E-03 7.12257E-04-6.46088E-15
 -1       244 5.14599E-03 8.73480E-04-7.39478E-15
 -1       245 5.56360E-03 1.12913E-03-8.32725E-15
 -1       246 5.94623E-03 1.44667E-03-9.20307E-15
 -1       247 6.38566E-03 1.86365E-03-1.02960E-14
 -1       248 6.77701E-03 2.14750E-03-1.14066E-14
 -1       249 7.11725E-03 2.18797E-03-1.24654E-14
 -1       250 7.49259E-03 2.02542E-03-1.36591E-14
 -1       251 7.89090E-03 1.78604E-03-1.49306E-14
 -1       252 8.31937E-03 1.58677E-03-1.63577E-14
 -1       253 8.75705E-03 1.49271E-03-1.79383E-14
 -1       254 9.16944E-03 1.50469E-03-1.95924E-14
 -1       255 9.53596E-03 1.58307E-03-2.12227E-14
 -1       256 9.89793E-03 1.70734E-03-2.29942E-14
 -1       257 1.02398E-02 1.85473E-03-2.48223E-14
 -1       258 1.05662E-02 2.01346E-03-2.66978E-14
 -1       259 1.08810E-02 2.17715E-03-2.86221E-14
 -1       260 1.11873E-02 2.34247E-03-3.05941E-14
 -1       261 1.14725E-02 2.49957E-03-3.25025E-14
 -1       262 1.17685E-02 2.66425E-03-3.45450E-14
 -1       263 1.20612E-02 2.82794E-03-3.66269E-14
 -1       264 1.23517E-02 2.99059E-03-3.87460E-14
 -1       265 1.26406E-02 3.15225E-03-4.09007E-14
 -1       266 1.29284E-02 3.31301E-03-4.30847E-14
 -1       267 1.32011E-02 3.46502E-03-4.51816E-14
 -1       268 1.34876E-02 3.62439E-03-4.74117E-14
 -1       269 1.37737E-02 3.78320E-03-4.96687E-14
 -1       270 1.40596E-02 3.94156E-03-5.19496E-14
 -1       271 1.43454E-02 4.09955E-03-5.42483E-14
 -1       272 1.46310E-02 4.25726E-03-5.65620E-14
 -1       273 1.49024E-02 4.40687E-03-5.87737E-14
 -1       274 1.51880E-02 4.56421E-03-6.11101E-14
 -1       275 1.54737E-02 4.72143E-03-6.34464E-14
 -1       276 1.57593E-02 4.87859E-03-6.57913E-14
 -1       277 1.60450E-02 5.03573E-03-6.81380E-14
 -1       278 1.61162E-02 5.07529E-03-7.00140E-14
 -1       279 1.59616E-02 4.99098E-03-7.08266E-14
 -1       280 1.58070E-02 4.90665E-03-7.16378E-14
 -1       281 1.56525E-02 4.82229E-03-7.24533E-14
 -1       282 1.55006E-02 4.73936E-03-7.32564E-14
 -1       283 1.53463E-02 4.65498E-03-7.40743E-14
 -1       284 1.51920E-02 4.57061E-03-7.48940E-14
 -1       285 1.50378E-02 4.48623E-03-7.57120E-14
 -1       286 1.48837E-02 4.40186E-03-7.65221E-14
 -1       287 1.47297E-02 4.31749E-03-7.73280E-14
 -1       288 1.45783E-02 4.23455E-03-7.81235E-14
 -1       289 1.44245E-02 4.15020E-03-7.89351E-14
 -1       290 1.42706E-02 4.06585E-03-7.97400E-14
 -1       291 1.41169E-02 3.98153E-03-8.05374E-14
 -1       292 1.39103E-02 3.86830E-03-8.04393E-14
 -1       293 9.03718E-03 1.05369E-03-1.78237E-14
 -1       294 8.96457E-03 1.15876E-03-1.72590E-14
 -1       295 8.74855E-03 1.29283E-03-1.66007E-14
 -1       296 8.43366E-03 1.48448E-03-1.57671E-14
 -1       297 8.02730E-03 1.69439E-03-1.49410E-14
 -1       298 7.60436E-03 1.91262E-03-1.40441E-14
 -1       299 7.16410E-03 2.06110E-03-1.31795E-14
 -1       300 6.72934E-03 2.07158E-03-1.23497E-14
 -1       301 6.28168E-03 1.91438E-03-1.16928E-14
 -1       302 5.82691E-03 1.65303E-03-1.10999E-14
 -1       303 5.35476E-03 1.36353E-03-1.06992E-14
 -1       304 4.93340E-03 1.07875E-03-1.03519E-14
 -1       305 4.54675E-03 8.65908E-04-1.02293E-14
 -1       306 4.28632E-03 7.23473E-04-1.02851E-14
 -1       307 4.17056E-03 6.05852E-04-1.04199E-14
 -1       308 4.20010E-03 5.05990E-04-1.06659E-14
 -1       309 4.37626E-03 4.02418E-04-1.10682E-14
 -1       310 4.65059E-03 2.68684E-04-1.16518E-14
 -1       311 5.02124E-03 1.36397E-04-1.22513E-14
 -1       312 5.38593E-03-1.65079E-05-1.30587E-14
 -1       313 5.74494E-03-1.15166E-04-1.38000E-14
 -1       314 6.09927E-03-1.60165E-04-1.45617E-14
 -1       315 6.46591E-03-1.39068E-04-1.53629E-14
 -1       316 6.85730E-03-3.50199E-05-1.61185E-14
 -1       317 7.24662E-03 1.31429E-04-1.68811E-14
 -1       318 7.67938E-03 3.23803E-04-1.74004E-14
 -1       319 8.07617E-03 5.27700E-04-1.78779E-14
 -1       320 8.45320E-03 7.06155E-04-1.81491E-14
 -1       321 8.75856E-03 8.40238E-04-1.81795E-14
 -1       322 8.95704E-03 9.51213E-04-1.80661E-14
 -1       323 4.56259E-04-1.60050E-04-1.83291E-16
 -1       324 4.75289E-04-2.08450E-04-1.74590E-16
 -1       325 4.40416E-04-8.98412E-05-1.79964E-16
 -1       326 4.36847E-04-6.15273E-05-1.73401E-16
 -1       327 4.34717E-04-3.56510E-05-1.65388E-16
 -1       328 4.33692E-04-1.11659E-05-1.56213E-16
 -1       329 4.33666E-04 1.28165E-05-1.45984E-16
 -1       330 4.34668E-04 3.71603E-05-1.34109E-16
 -1       331 4.36802E-04 6.23566E-05-1.20709E-16
 -1       332 4.40491E-04 9.03977E-05-1.04812E-16
 -1       333 4.46495E-04 1.22408E-04-8.50794E-17
 -1       334 4.56787E-04 1.60726E-04-5.95091E-17
 -1       335 4.76131E-04 2.09549E-04-2.53771E-17
 -1       336 8.54544E-03 1.33639E-03-1.65661E-14
 -1       337 8.65503E-04-3.48819E-04-4.99533E-16
 -1       338 1.15329E-03-4.14276E-04-8.60020E-16
 -1       339 1.43806E-03-4.60106E-04-1.31226E-15
 -1       340 1.72145E-03-4.91626E-04-1.85316E-15
 -1       341 2.00471E-03-5.12907E-04-2.48080E-15
 -1       342 2.28872E-03-5.27191E-04-3.19147E-15
 -1       343 2.57402E-03-5.37172E-04-3.98078E-15
 -1       344 2.86089E-03-5.45163E-04-4.84756E-15
 -1       345 3.14934E-03-5.53149E-04-5.78872E-15
 -1       346 3.43909E-03-5.62742E-04-6.80052E-15
 -1       347 3.72957E-03-5.74982E-04-7.88024E-15
 -1       348 4.01988E-03-5.90023E-04-9.02689E-15
 -1       349 4.30875E-03-6.06690E-04-1.02413E-14
 -1       350 4.59475E-03-6.22054E-04-1.15208E-14
 -1       351 4.87648E-03-6.31203E-04-1.28605E-14
 -1       352 5.15307E-03-6.27516E-04-1.42599E-14
 -1       353 5.42462E-03-6.03657E-04-1.57231E-14
 -1       354 5.69254E-03-5.53225E-04-1.72538E-14
 -1       355 5.95930E-03-4.72560E-04-1.88562E-14
 -1       356 6.22778E-03-3.61907E-04-2.05280E-14
 -1       357 6.50036E-03-2.25333E-04-2.22706E-14
 -1       358 6.77832E-03-6.94557E-05-2.40799E-14
 -1       359 7.06168E-03 9.83687E-05-2.59489E-14
 -1       360 7.34954E-03 2.71617E-04-2.78716E-14
 -1       361 7.64056E-03 4.45476E-04-2.98487E-14
 -1       362 7.93338E-03 6.17017E-04-3.18803E-14
 -1       363 8.22687E-03 7.84902E-04-3.39625E-14
 -1       364 8.52023E-03 9.48916E-04-3.60837E-14
 -1       365 8.81293E-03 1.10950E-03-3.82450E-14
 -1       366 9.10473E-03 1.26738E-03-4.04412E-14
 -1       367 9.39552E-03 1.42334E-03-4.26721E-14
 -1       368 9.68533E-03 1.57809E-03-4.49205E-14
 -1       369 9.97424E-03 1.73220E-03-4.71890E-14
 -1       370 1.02624E-02 1.88608E-03-4.94740E-14
 -1       371 1.05499E-02 2.04002E-03-5.17723E-14
 -1       372 1.08369E-02 2.19418E-03-5.40870E-14
 -1       373 1.11235E-02 2.34866E-03-5.64152E-14
 -1       374 1.14098E-02 2.50349E-03-5.87688E-14
 -1       375 1.16959E-02 2.65866E-03-6.11479E-14
 -1       376 1.19818E-02 2.81415E-03-6.35571E-14
 -1       377 1.22676E-02 2.96991E-03-6.59959E-14
 -1       378 1.25534E-02 3.12589E-03-6.84572E-14
 -1       379 1.28391E-02 3.28205E-03-7.09393E-14
 -1       380 1.31248E-02 3.43833E-03-7.34249E-14
 -1       381 1.34105E-02 3.59471E-03-7.59077E-14
 -1       382 1.36604E-02 3.73150E-03-7.81700E-14
 -1       383 1.13954E-03 4.08925E-04-2.88178E-16
 -1       384 8.51356E-04 3.43605E-04-1.29308E-16
 -1       385 1.41065E-03 4.51872E-04-4.99384E-16
 -1       386 1.69488E-03 4.81807E-04-7.86867E-16
 -1       387 1.97939E-03 4.99801E-04-1.14327E-15
 -1       388 2.26539E-03 5.08731E-04-1.56936E-15
 -1       389 2.55390E-03 5.10927E-04-2.06418E-15
 -1       390 2.84580E-03 5.08539E-04-2.62620E-15
 -1       391 3.12704E-03 5.04233E-04-3.22162E-15
 -1       392 3.42811E-03 5.00742E-04-3.91069E-15
 -1       393 3.73540E-03 5.03554E-04-4.66315E-15
 -1       394 4.05060E-03 5.21576E-04-5.47791E-15
 -1       395 4.37705E-03 5.69750E-04-6.35143E-15
 -1       396 4.72187E-03 6.71873E-04-7.28022E-15
 -1       397 5.07862E-03 8.49955E-04-8.20799E-15
 -1       398 5.43466E-03 1.10355E-03-9.07826E-15
 -1       399 6.43578E-03 1.95443E-03-1.12206E-14
 -1       400 7.34541E-03 2.04960E-03-1.34458E-14
 -1       401 7.78831E-03 1.79859E-03-1.46952E-14
 -1       402 8.23128E-03 1.55556E-03-1.60968E-14
 -1       403 8.65316E-03 1.42060E-03-1.76556E-14
 -1       404 9.03425E-03 1.40463E-03-1.92882E-14
 -1       405 9.37025E-03 1.46603E-03-2.08995E-14
 -1       406 9.70621E-03 1.57986E-03-2.26564E-14
 -1       407 1.00298E-02 1.72193E-03-2.44700E-14
 -1       408 1.03443E-02 1.87845E-03-2.63349E-14
 -1       409 1.06518E-02 2.04164E-03-2.82451E-14
 -1       410 1.09539E-02 2.20731E-03-3.01988E-14
 -1       411 1.12369E-02 2.36507E-03-3.20947E-14
 -1       412 1.15316E-02 2.53056E-03-3.41271E-14
 -1       413 1.18238E-02 2.69505E-03-3.61966E-14
 -1       414 1.21142E-02 2.85841E-03-3.83060E-14
 -1       415 1.24032E-02 3.02069E-03-4.04495E-14
 -1       416 1.26911E-02 3.18197E-03-4.26246E-14
 -1       417 1.29640E-02 3.33438E-03-4.47156E-14
 -1       418 1.32507E-02 3.49410E-03-4.69432E-14
 -1       419 1.35370E-02 3.65319E-03-4.91921E-14
 -1       420 1.38231E-02 3.81176E-03-5.14666E-14
 -1       421 1.41090E-02 3.96993E-03-5.37588E-14
 -1       422 1.43948E-02 4.12776E-03-5.60661E-14
 -1       423 1.46663E-02 4.27747E-03-5.82739E-14
 -1       424 1.49520E-02 4.43486E-03-6.06075E-14
 -1       425 1.52376E-02 4.59212E-03-6.29468E-14
 -1       426 1.55233E-02 4.74930E-03-6.52923E-14
 -1       427 1.58090E-02 4.90644E-03-6.76438E-14
 -1       428 9.03481E-03 1.10069E-03-1.82622E-14
 -1       429 1.54823E-02 4.72845E-03-6.99940E-14
 -1       430 1.56368E-02 4.81276E-03-6.91846E-14
 -1       431 1.53304E-02 4.64556E-03-7.07955E-14
 -1       432 1.51760E-02 4.56124E-03-7.16044E-14
 -1       433 1.50217E-02 4.47693E-03-7.24125E-14
 -1       434 1.48674E-02 4.39262E-03-7.32193E-14
 -1       435 1.47133E-02 4.30831E-03-7.40228E-14
 -1       436 1.45592E-02 4.22401E-03-7.48198E-14
 -1       437 1.44078E-02 4.14113E-03-7.56004E-14
 -1       438 1.42539E-02 4.05682E-03-7.63964E-14
 -1       439 1.41001E-02 3.97251E-03-7.71890E-14
 -1       440 1.39463E-02 3.88821E-03-7.79797E-14
 -1       441 8.87829E-03 1.17630E-03-1.75665E-14
 -1       442 9.02646E-03 1.04071E-03-1.87097E-14
 -1       443 4.46230E-04-1.21887E-04-1.83942E-16
 -1       444 7.73685E-03 1.81373E-03-1.45103E-14
 -1       445 6.09417E-03 1.70190E-03-1.06531E-14
 -1       446 5.71530E-03 1.42322E-03-1.02742E-14
 -1       447 5.31929E-03 1.14610E-03-9.94293E-15
 -1       448 4.77214E-03 8.51326E-04-9.77095E-15
 -1       449 4.40343E-03 6.84848E-04-9.73750E-15
 -1       450 4.20309E-03 5.98200E-04-9.83969E-15
 -1       451 4.14629E-03 5.35815E-04-9.98594E-15
 -1       452 4.25269E-03 4.76357E-04-1.02993E-14
 -1       453 4.53655E-03 3.72689E-04-1.10139E-14
 -1       454 4.83999E-03 2.51609E-04-1.15859E-14
 -1       455 5.28857E-03 5.40908E-05-1.25557E-14
 -1       456 5.60793E-03-7.71363E-05-1.33469E-14
 -1       457 5.93715E-03-1.75721E-04-1.42222E-14
 -1       458 6.25032E-03-1.92484E-04-1.50931E-14
 -1       459 6.60154E-03-1.14240E-04-1.61049E-14
 -1       460 6.91506E-03 2.76050E-05-1.68691E-14
 -1       461 7.38262E-03 2.88107E-04-1.77713E-14
 -1       462 7.74914E-03 4.86706E-04-1.82549E-14
 -1       463 8.20346E-03 7.20983E-04-1.87716E-14
 -1       464 8.59501E-03 8.87304E-04-1.90066E-14
 -1       465 8.87048E-03 9.85933E-04-1.90051E-14
 -1       466 8.21626E-03 1.51963E-03-1.57105E-14
 -1       467 5.84526E-03 1.44806E-03-9.87227E-15
 -1       468 6.96049E-03 2.14765E-03-1.24158E-14
 -1       469 5.06182E-03 1.50743E-04-1.18757E-14
 -1       470 6.63956E-04-7.07591E-05-3.55625E-16
 -1       471 6.68937E-04-1.10087E-04-3.69147E-16
 -1       472 6.60136E-04 1.38341E-06-3.20721E-16
 -1       473 6.60961E-04 3.66535E-05-2.99636E-16
 -1       474 6.63677E-04 7.23852E-05-2.75882E-16
 -1       475 6.68763E-04 1.11178E-04-2.48133E-16
 -1       476 6.76944E-04 1.54113E-04-2.15472E-16
 -1       477 6.89881E-04 2.03333E-04-1.75871E-16
 -1       478 7.64732E-04 2.68086E-04-1.60838E-16
 -1       479 8.40777E-03 1.40985E-03-1.65278E-14
 -1       480 9.78869E-04-3.18281E-04-6.81563E-16
 -1       481 1.26596E-03-3.69755E-04-1.08467E-15
 -1       482 1.55261E-03-4.06063E-04-1.57429E-15
 -1       483 1.83893E-03-4.30810E-04-2.14954E-15
 -1       484 2.12541E-03-4.47216E-04-2.80725E-15
 -1       485 2.41257E-03-4.58041E-04-3.54284E-15
 -1       486 2.70088E-03-4.65686E-04-4.35409E-15
 -1       487 2.99075E-03-4.72279E-04-5.23938E-15
 -1       488 3.28244E-03-4.79684E-04-6.19633E-15
 -1       489 3.57603E-03-4.89408E-04-7.22196E-15
 -1       490 3.87131E-03-5.02373E-04-8.31428E-15
 -1       491 4.16762E-03-5.18513E-04-9.47397E-15
 -1       492 4.46376E-03-5.36232E-04-1.06979E-14
 -1       493 4.75806E-03-5.51843E-04-1.19864E-14
 -1       494 5.04872E-03-5.59293E-04-1.33345E-14
 -1       495 5.33456E-03-5.50607E-04-1.47442E-14
 -1       496 5.61575E-03-5.17390E-04-1.62181E-14
 -1       497 5.89416E-03-4.53207E-04-1.77647E-14
 -1       498 6.17283E-03-3.55824E-04-1.93841E-14
 -1       499 6.45470E-03-2.28060E-04-2.10734E-14
 -1       500 6.74147E-03-7.67197E-05-2.28315E-14
 -1       501 7.03312E-03 8.97358E-05-2.46521E-14
 -1       502 7.32838E-03 2.63466E-04-2.65296E-14
 -1       503 7.62548E-03 4.38604E-04-2.84631E-14
 -1       504 7.92282E-03 6.11563E-04-3.04499E-14
 -1       505 8.21931E-03 7.80682E-04-3.24873E-14
 -1       506 8.51435E-03 9.45629E-04-3.45687E-14
 -1       507 8.80777E-03 1.10684E-03-3.66891E-14
 -1       508 9.09964E-03 1.26507E-03-3.88463E-14
 -1       509 9.39014E-03 1.42119E-03-4.10434E-14
 -1       510 9.67950E-03 1.57593E-03-4.32664E-14
 -1       511 9.96794E-03 1.72992E-03-4.55075E-14
 -1       512 1.02557E-02 1.88362E-03-4.77738E-14
 -1       513 1.05428E-02 2.03734E-03-5.00560E-14
 -1       514 1.08296E-02 2.19128E-03-5.23566E-14
 -1       515 1.11160E-02 2.34555E-03-5.46656E-14
 -1       516 1.14022E-02 2.50018E-03-5.69938E-14
 -1       517 1.16883E-02 2.65518E-03-5.93462E-14
 -1       518 1.19742E-02 2.81052E-03-6.17309E-14
 -1       519 1.22600E-02 2.96616E-03-6.41430E-14
 -1       520 1.25458E-02 3.12204E-03-6.65803E-14
 -1       521 1.28316E-02 3.27813E-03-6.90393E-14
 -1       522 1.31173E-02 3.43438E-03-7.15120E-14
 -1       523 1.34030E-02 3.59072E-03-7.39822E-14
 -1       524 1.05153E-03 3.32498E-04-3.29763E-16
 -1       525 1.81042E-03 4.20906E-04-1.09926E-15
 -1       526 2.09628E-03 4.33777E-04-1.51373E-15
 -1       527 2.38216E-03 4.39181E-04-1.99601E-15
 -1       528 2.66809E-03 4.39319E-04-2.54587E-15
 -1       529 2.93955E-03 4.36620E-04-3.13051E-15
 -1       530 3.22450E-03 4.33391E-04-3.80953E-15
 -1       531 3.50767E-03 4.33481E-04-4.55357E-15
 -1       532 3.78804E-03 4.42563E-04-5.35880E-15
 -1       533 4.06544E-03 4.69414E-04-6.22292E-15
 -1       534 4.34313E-03 5.27746E-04-7.14438E-15
 -1       535 4.61712E-03 6.32483E-04-8.06760E-15
 -1       536 4.88720E-03 7.95073E-04-8.93144E-15
 -1       537 9.25571E-03 1.34358E-03-2.06491E-14
 -1       538 9.54505E-03 1.44743E-03-2.23875E-14
 -1       539 9.83257E-03 1.58149E-03-2.41871E-14
 -1       540 1.01211E-02 1.73248E-03-2.60418E-14
 -1       541 1.04109E-02 1.89232E-03-2.79423E-14
 -1       542 1.07011E-02 2.05625E-03-2.98840E-14
 -1       543 1.09768E-02 2.21331E-03-3.17651E-14
 -1       544 1.12666E-02 2.37866E-03-3.37863E-14
 -1       545 1.15557E-02 2.54334E-03-3.58446E-14
 -1       546 1.18442E-02 2.70705E-03-3.79442E-14
 -1       547 1.21320E-02 2.86973E-03-4.00789E-14
 -1       548 1.24194E-02 3.03140E-03-4.22461E-14
 -1       549 1.26919E-02 3.18416E-03-4.43274E-14
 -1       550 1.29785E-02 3.34419E-03-4.65509E-14
 -1       551 1.32648E-02 3.50354E-03-4.87981E-14
 -1       552 1.35509E-02 3.66234E-03-5.10639E-14
 -1       553 1.38369E-02 3.82068E-03-5.33558E-14
 -1       554 1.41227E-02 3.97865E-03-5.56583E-14
 -1       555 1.43942E-02 4.12845E-03-5.78604E-14
 -1       556 1.46800E-02 4.28592E-03-6.01891E-14
 -1       557 1.49657E-02 4.44323E-03-6.25322E-14
 -1       558 1.52514E-02 4.60043E-03-6.48781E-14
 -1       559 1.54441E-02 4.70661E-03-6.70268E-14
 -1       560 9.00350E-03 1.14066E-03-1.85281E-14
 -1       561 1.48514E-02 4.38318E-03-6.99415E-14
 -1       562 8.75597E-03 1.24049E-03-1.76162E-14
 -1       563 1.46971E-02 4.29894E-03-7.07416E-14
 -1       564 1.45429E-02 4.21470E-03-7.15349E-14
 -1       565 1.43888E-02 4.13046E-03-7.23195E-14
 -1       566 1.42374E-02 4.04765E-03-7.30879E-14
 -1       567 1.40834E-02 3.96340E-03-7.38716E-14
 -1       568 1.39296E-02 3.87914E-03-7.46531E-14
 -1       569 1.37758E-02 3.79487E-03-7.54331E-14
 -1       570 8.99097E-03 1.06458E-03-1.96740E-14
 -1       571 1.52431E-03 3.98105E-04-7.54286E-16
 -1       572 1.51589E-02 4.55100E-03-6.83396E-14
 -1       573 8.74705E-03 1.00272E-03-1.99075E-14
 -1       574 6.36609E-03-1.83952E-04-1.58050E-14
 -1       575 4.37304E-03 4.10827E-04-1.02154E-14
 -1       576 1.53015E-02 4.62880E-03-6.76825E-14
 -1       577 1.50051E-02 4.46708E-03-6.91419E-14
 -1       578 8.95493E-03 1.29125E-03-1.89721E-14
 -1       579 8.69985E-03 1.31246E-03-1.77286E-14
 -1       580 9.08868E-03 1.10005E-03-1.93706E-14
 -1       581 6.61123E-04-3.40247E-05-3.39294E-16
 -1       582 1.28812E-03 3.70655E-04-5.19187E-16
 -1       583 4.56237E-03 6.70777E-04-9.11045E-15
 -1       584 5.46756E-03-3.62416E-05-1.28782E-14
 -1       585 4.26702E-03 5.68294E-04-9.18322E-15
 -1       586 4.13590E-03 5.23513E-04-9.32627E-15
 -1       587 4.12886E-03 4.78439E-04-9.47353E-15
 -1       588 4.60968E-03 3.29694E-04-1.07597E-14
 -1       589 8.38773E-03 8.80408E-04-1.98644E-14
 -1       590 5.75446E-03-1.48947E-04-1.37315E-14
 -1       591 6.10608E-03-2.14347E-04-1.49084E-14
 -1       592 6.70220E-03-4.67416E-05-1.69682E-14
 -1       593 7.07975E-03 1.80220E-04-1.80992E-14
 -1       594 7.52747E-03 4.43373E-04-1.87988E-14
 -1       595 7.94123E-03 6.68146E-04-1.93277E-14
 -1       596 7.14326E-04-2.44454E-04-3.94097E-16
 -1       597 6.76816E-04-1.53322E-04-3.79532E-16
 -1       598 1.35931E-02 3.69478E-03-7.56726E-14
 -1       599 6.92862E-04-1.95669E-04-3.89727E-16
 -1       600 4.17593E-03 4.23112E-04-9.38922E-15
 -1       601 5.23233E-03 4.63023E-05-1.21851E-14
 -1       602 4.78917E-03 2.34156E-04-1.10318E-14
 -1       603 8.95078E-04 6.99465E-05-4.97869E-16
 -1       604 8.92520E-04 2.42921E-05-5.33505E-16
 -1       605 9.10120E-04 1.68272E-04-4.11184E-16
 -1       606 9.24354E-04 2.24736E-04-3.56858E-16
 -1       607 9.85433E-04 2.76094E-04-3.48368E-16
 -1       608 4.35219E-03 5.55944E-04-8.55016E-15
 -1       609 8.62578E-03 1.01089E-03-2.10978E-14
 -1       610 1.38581E-03-3.21779E-04-1.31153E-15
 -1       611 1.67296E-03-3.49110E-04-1.83505E-15
 -1       612 1.96065E-03-3.67400E-04-2.44031E-15
 -1       613 2.24895E-03-3.79111E-04-3.12388E-15
 -1       614 2.53822E-03-3.86511E-04-3.88169E-15
 -1       615 2.82897E-03-3.91678E-04-4.71273E-15
 -1       616 3.12183E-03-3.96538E-04-5.61536E-15
 -1       617 3.41741E-03-4.02869E-04-6.58618E-15
 -1       618 3.71618E-03-4.12199E-04-7.62486E-15
 -1       619 4.01825E-03-4.25535E-04-8.72975E-15
 -1       620 4.32300E-03-4.42853E-04-9.89910E-15
 -1       621 4.62886E-03-4.62312E-04-1.11327E-14
 -1       622 4.93338E-03-4.79361E-04-1.24295E-14
 -1       623 5.23383E-03-4.86227E-04-1.37876E-14
 -1       624 5.52857E-03-4.72649E-04-1.52085E-14
 -1       625 5.81828E-03-4.28453E-04-1.66988E-14
 -1       626 6.10615E-03-3.47397E-04-1.82623E-14
 -1       627 6.39636E-03-2.29896E-04-1.98980E-14
 -1       628 6.69182E-03-8.28952E-05-2.16031E-14
 -1       629 6.99289E-03 8.32576E-05-2.33744E-14
 -1       630 7.29772E-03 2.58494E-04-2.52080E-14
 -1       631 7.60358E-03 4.35372E-04-2.70964E-14
 -1       632 7.90809E-03 6.09584E-04-2.90394E-14
 -1       633 8.20983E-03 7.79340E-04-3.10345E-14
 -1       634 8.50827E-03 9.44446E-04-3.30771E-14
 -1       635 8.80355E-03 1.10553E-03-3.51576E-14
 -1       636 9.09614E-03 1.26350E-03-3.72775E-14
 -1       637 9.38663E-03 1.41931E-03-3.94373E-14
 -1       638 9.67556E-03 1.57375E-03-4.16282E-14
 -1       639 9.96338E-03 1.72746E-03-4.38458E-14
 -1       640 1.02505E-02 1.88091E-03-4.60858E-14
 -1       641 1.05370E-02 2.03441E-03-4.83505E-14
 -1       642 1.08233E-02 2.18815E-03-5.06335E-14
 -1       643 1.11093E-02 2.34224E-03-5.29272E-14
 -1       644 1.13952E-02 2.49672E-03-5.52300E-14
 -1       645 1.16811E-02 2.65158E-03-5.75608E-14
 -1       646 1.19669E-02 2.80681E-03-5.99178E-14
 -1       647 1.22526E-02 2.96235E-03-6.23033E-14
 -1       648 1.25384E-02 3.11817E-03-6.47158E-14
 -1       649 1.28241E-02 3.27420E-03-6.71546E-14
 -1       650 1.31098E-02 3.43040E-03-6.96072E-14
 -1       651 1.33956E-02 3.58673E-03-7.20652E-14
 -1       652 8.93154E-03 1.09067E-03-2.07887E-14
 -1       653 2.21198E-03 3.68534E-04-1.90918E-15
 -1       654 1.92770E-03 3.59379E-04-1.43817E-15
 -1       655 2.76712E-03 3.72777E-04-3.03572E-15
 -1       656 3.04252E-03 3.72519E-04-3.70622E-15
 -1       657 3.31140E-03 3.74471E-04-4.44191E-15
 -1       658 3.57083E-03 3.82600E-04-5.24016E-15
 -1       659 3.81731E-03 4.02150E-04-6.09828E-15
 -1       660 4.04737E-03 4.40153E-04-7.01263E-15
 -1       661 1.35857E-02 3.69079E-03-7.37443E-14
 -1       662 9.91574E-03 1.59833E-03-2.56917E-14
 -1       663 2.49092E-03 3.72240E-04-2.43959E-15
 -1       664 9.41753E-03 1.33341E-03-2.20692E-14
 -1       665 1.01820E-02 1.75074E-03-2.75785E-14
 -1       666 1.04557E-02 1.90953E-03-2.95114E-14
 -1       667 1.07205E-02 2.06341E-03-3.13802E-14
 -1       668 1.10023E-02 2.22673E-03-3.33876E-14
 -1       669 1.12862E-02 2.39029E-03-3.54345E-14
 -1       670 1.15711E-02 2.55346E-03-3.75243E-14
 -1       671 1.18567E-02 2.71593E-03-3.96473E-14
 -1       672 1.21425E-02 2.87760E-03-4.18012E-14
 -1       673 1.24142E-02 3.03045E-03-4.38761E-14
 -1       674 1.27001E-02 3.19062E-03-4.60914E-14
 -1       675 1.29861E-02 3.35013E-03-4.83342E-14
 -1       676 1.32720E-02 3.50907E-03-5.05961E-14
 -1       677 1.35578E-02 3.66755E-03-5.28814E-14
 -1       678 1.38437E-02 3.82563E-03-5.51866E-14
 -1       679 1.41152E-02 3.97552E-03-5.73853E-14
 -1       680 1.44009E-02 4.13306E-03-5.97093E-14
 -1       681 1.46867E-02 4.29041E-03-6.20521E-14
 -1       682 1.49724E-02 4.44764E-03-6.44018E-14
 -1       683 1.51370E-02 4.53823E-03-6.60376E-14
 -1       684 1.43726E-02 4.12101E-03-6.90620E-14
 -1       685 8.99309E-03 1.20731E-03-1.89706E-14
 -1       686 9.10577E-03 1.13233E-03-2.06008E-14
 -1       687 1.45268E-02 4.20517E-03-6.82743E-14
 -1       688 1.40657E-02 3.95340E-03-7.05996E-14
 -1       689 1.39117E-02 3.86923E-03-7.13676E-14
 -1       690 1.37578E-02 3.78503E-03-7.21371E-14
 -1       691 1.64231E-03 3.42592E-04-1.03650E-15
 -1       692 9.52036E-04-2.59909E-04-6.75099E-16
 -1       693 1.42191E-02 4.03721E-03-6.98354E-14
 -1       694 9.13261E-03 1.15881E-03-1.98315E-14
 -1       695 9.66005E-03 1.45697E-03-2.38498E-14
 -1       696 5.88464E-03-2.14062E-04-1.43551E-14
 -1       697 1.16841E-03-2.94865E-04-9.68874E-16
 -1       698 7.34405E-03 3.73534E-04-1.95322E-14
 -1       699 9.00702E-04 1.17300E-04-4.57679E-16
 -1       700 6.83156E-03 4.91463E-05-1.79976E-14
 -1       701 4.13697E-03 4.90364E-04-8.57500E-15
 -1       702 8.14936E-03 8.12169E-04-2.05193E-14
 -1       703 4.43010E-03 3.38811E-04-1.00310E-14
 -1       704 6.46952E-03-1.42163E-04-1.66660E-14
 -1       705 9.01405E-04-1.15066E-04-6.16369E-16
 -1       706 5.55608E-03-1.15288E-04-1.31625E-14
 -1       707 4.04961E-03 4.55406E-04-8.71902E-15
 -1       708 6.19237E-03-2.20777E-04-1.55691E-14
 -1       709 7.77942E-03 6.22032E-04-1.99775E-14
 -1       710 8.92759E-04-2.09182E-05-5.64971E-16
 -1       711 1.22087E-03 3.13457E-04-5.42911E-16
 -1       712 1.48345E-02 4.37303E-03-6.66842E-14
 -1       713 4.29559E-03 5.14361E-04-7.86269E-15
 -1       714 1.46808E-02 4.28918E-03-6.74809E-14
 -1       715 7.09605E-03 2.22805E-04-1.94210E-14
 -1       716 1.35766E-02 3.68588E-03-7.21008E-14
 -1       717 4.57219E-03 2.57842E-04-1.02886E-14
 -1       718 9.18739E-03 1.23871E-03-2.03406E-14
 -1       719 4.03233E-03 4.13472E-04-8.63918E-15
 -1       720 5.33199E-03-5.11045E-05-1.24571E-14
 -1       721 9.10467E-04-1.66927E-04-6.35847E-16
 -1       722 1.49857E-02 4.45562E-03-6.63632E-14
 -1       723 4.94481E-03 1.29967E-04-1.13230E-14
 -1       724 8.95674E-04-6.68640E-05-5.92493E-16
 -1       725 1.43169E-03 3.31637E-04-7.69248E-16
 -1       726 1.15754E-03 2.59861E-04-5.56660E-16
 -1       727 6.59811E-03-7.29907E-05-1.77349E-14
 -1       728 8.40821E-03 9.47382E-04-2.19678E-14
 -1       729 1.79723E-03-2.89306E-04-2.09293E-15
 -1       730 2.08544E-03-3.01517E-04-2.72435E-15
 -1       731 2.37467E-03-3.08624E-04-3.43021E-15
 -1       732 2.66530E-03-3.12423E-04-4.20819E-15
 -1       733 2.95801E-03-3.14664E-04-5.05781E-15
 -1       734 3.25377E-03-3.17105E-04-5.97593E-15
 -1       735 3.55365E-03-3.21556E-04-6.96021E-15
 -1       736 3.85862E-03-3.29809E-04-8.01031E-15
 -1       737 4.16909E-03-3.43339E-04-9.12454E-15
 -1       738 4.48435E-03-3.62588E-04-1.03039E-14
 -1       739 4.80206E-03-3.85680E-04-1.15477E-14
 -1       740 5.11832E-03-4.06760E-04-1.28530E-14
 -1       741 5.42900E-03-4.14967E-04-1.42219E-14
 -1       742 5.73216E-03-3.95974E-04-1.56566E-14
 -1       743 6.03009E-03-3.36958E-04-1.71630E-14
 -1       744 6.32835E-03-2.33248E-04-1.87437E-14
 -1       745 6.63226E-03-9.07990E-05-2.03969E-14
 -1       746 6.94347E-03 7.70704E-05-2.21192E-14
 -1       747 7.25966E-03 2.56253E-04-2.39041E-14
 -1       748 7.57664E-03 4.36498E-04-2.57497E-14
 -1       749 7.89063E-03 6.12429E-04-2.76492E-14
 -1       750 8.19949E-03 7.82380E-04-2.96031E-14
 -1       751 8.50267E-03 9.46717E-04-3.16040E-14
 -1       752 8.80066E-03 1.10662E-03-3.36470E-14
 -1       753 9.09443E-03 1.26338E-03-3.57303E-14
 -1       754 9.38506E-03 1.41814E-03-3.78509E-14
 -1       755 9.67352E-03 1.57176E-03-4.00108E-14
 -1       756 9.96057E-03 1.72487E-03-4.21985E-14
 -1       757 1.02468E-02 1.87789E-03-4.44132E-14
 -1       758 1.05325E-02 2.03109E-03-4.66554E-14
 -1       759 1.08180E-02 2.18463E-03-4.89177E-14
 -1       760 1.11035E-02 2.33858E-03-5.11937E-14
 -1       761 1.13889E-02 2.49296E-03-5.34778E-14
 -1       762 1.16744E-02 2.64775E-03-5.57856E-14
 -1       763 1.19599E-02 2.80292E-03-5.81195E-14
 -1       764 1.22455E-02 2.95841E-03-6.04806E-14
 -1       765 1.25311E-02 3.11419E-03-6.28692E-14
 -1       766 1.28168E-02 3.27020E-03-6.52830E-14
 -1       767 1.31025E-02 3.42638E-03-6.77148E-14
 -1       768 1.33396E-02 3.55609E-03-6.99055E-14
 -1       769 6.28167E-03-2.05265E-04-1.63592E-14
 -1       770 3.13257E-03 3.18999E-04-4.29158E-15
 -1       771 2.86901E-03 3.13454E-04-3.56604E-15
 -1       772 3.62018E-03 3.49625E-04-5.93126E-15
 -1       773 3.83299E-03 3.82757E-04-6.83889E-15
 -1       774 1.43564E-02 4.11123E-03-6.58187E-14
 -1       775 2.04610E-03 2.98512E-04-1.80361E-15
 -1       776 1.02198E-02 1.77380E-03-2.91282E-14
 -1       777 1.04722E-02 1.92175E-03-3.09890E-14
 -1       778 9.15427E-03 1.15034E-03-2.05586E-14
 -1       779 9.96390E-03 1.62365E-03-2.72046E-14
 -1       780 1.07446E-02 2.08075E-03-3.29841E-14
 -1       781 1.10217E-02 2.24146E-03-3.50190E-14
 -1       782 1.13020E-02 2.40282E-03-3.70981E-14
 -1       783 1.15843E-02 2.56419E-03-3.92120E-14
 -1       784 1.18679E-02 2.72522E-03-4.13558E-14
 -1       785 1.21380E-02 2.87774E-03-4.34199E-14
 -1       786 1.24230E-02 3.03773E-03-4.56268E-14
 -1       787 1.27082E-02 3.19718E-03-4.78603E-14
 -1       788 1.29937E-02 3.35612E-03-5.01221E-14
 -1       789 1.32792E-02 3.51462E-03-5.24024E-14
 -1       790 1.35649E-02 3.67274E-03-5.47032E-14
 -1       791 1.38363E-02 3.82267E-03-5.69028E-14
 -1       792 1.41220E-02 3.98025E-03-5.92272E-14
 -1       793 1.44077E-02 4.13763E-03-6.15663E-14
 -1       794 1.46935E-02 4.29487E-03-6.39216E-14
 -1       795 4.06453E-03 4.48181E-04-7.83112E-15
 -1       796 9.50474E-03 1.35668E-03-2.34618E-14
 -1       797 1.35873E-02 3.69161E-03-6.96340E-14
 -1       798 1.37413E-02 3.77573E-03-6.88741E-14
 -1       799 1.76289E-03 2.86164E-04-1.34579E-15
 -1       800 9.29403E-04-2.11313E-04-6.57497E-16
 -1       801 9.72233E-03 1.48241E-03-2.53296E-14
 -1       802 1.45101E-02 4.19499E-03-6.50335E-14
 -1       803 4.19147E-03 3.44953E-04-9.13146E-15
 -1       804 5.97851E-03-2.50784E-04-1.50753E-14
 -1       805 9.09878E-03 1.16919E-03-2.19205E-14
 -1       806 9.30882E-03 1.24611E-03-2.16902E-14
 -1       807 1.42021E-02 4.02714E-03-6.66019E-14
 -1       808 3.38453E-03 3.29780E-04-5.08069E-15
 -1       809 1.13039E-03 5.63279E-05-7.87581E-16
 -1       810 5.64327E-03-2.01067E-04-1.36662E-14
 -1       811 3.96334E-03 4.15438E-04-7.96962E-15
 -1       812 7.66754E-03 5.73742E-04-2.09031E-14
 -1       813 1.51010E-03-2.70110E-04-1.53954E-15
 -1       814 8.86673E-03 1.11300E-03-2.22416E-14
 -1       815 7.99647E-03 7.54075E-04-2.14655E-14
 -1       816 6.84984E-03 7.06177E-05-1.91394E-14
 -1       817 8.69253E-03 1.06968E-03-2.31383E-14
 -1       818 9.18643E-03 1.18599E-03-2.16117E-14
 -1       819 2.60075E-03 3.09934E-04-2.91456E-15
 -1       820 4.00857E-03 3.49805E-04-8.39253E-15
 -1       821 1.12903E-03 2.63659E-06-8.35486E-16
 -1       822 4.29944E-03 2.85926E-04-9.37601E-15
 -1       823 1.13709E-03-1.06984E-04-9.14674E-16
 -1       824 1.14390E-03-2.41580E-04-9.45543E-16
 -1       825 2.32527E-03 3.05708E-04-2.32625E-15
 -1       826 5.05072E-03 2.31738E-05-1.15806E-14
 -1       827 7.41022E-03 4.18315E-04-2.07885E-14
 -1       828 1.47876E-03 2.66617E-04-9.56215E-16
 -1       829 1.38947E-02 3.85945E-03-6.81235E-14
 -1       830 4.70573E-03 1.64707E-04-1.05647E-14
 -1       831 5.43704E-03-1.58629E-04-1.29435E-14
 -1       832 1.14662E-03-1.65630E-04-9.46478E-16
 -1       833 1.40484E-02 3.94329E-03-6.73692E-14
 -1       834 1.20874E-03 1.99454E-04-7.08397E-16
 -1       835 1.13561E-03 1.10769E-04-7.34350E-16
 -1       836 1.34634E-02 3.62385E-03-6.97696E-14
 -1       837 1.92430E-03-2.26648E-04-2.34719E-15
 -1       838 2.21241E-03-2.33182E-04-3.00119E-15
 -1       839 2.50179E-03-2.35707E-04-3.72710E-15
 -1       840 2.79297E-03-2.35562E-04-4.52348E-15
 -1       841 3.08692E-03-2.34178E-04-5.39012E-15
 -1       842 3.38508E-03-2.33214E-04-6.32121E-15
 -1       843 3.68916E-03-2.34712E-04-7.31642E-15
 -1       844 4.00084E-03-2.41114E-04-8.37720E-15
 -1       845 4.32102E-03-2.54976E-04-9.50172E-15
 -1       846 4.64884E-03-2.77889E-04-1.06913E-14
 -1       847 4.98075E-03-3.08150E-04-1.19439E-14
 -1       848 5.31057E-03-3.37515E-04-1.32584E-14
 -1       849 5.63226E-03-3.49211E-04-1.46380E-14
 -1       850 5.94392E-03-3.21427E-04-1.60878E-14
 -1       851 6.25196E-03-2.39467E-04-1.76104E-14
 -1       852 6.56499E-03-1.04061E-04-1.92089E-14
 -1       853 6.88725E-03 6.78716E-05-2.08838E-14
 -1       854 7.21691E-03 2.55249E-04-2.26204E-14
 -1       855 7.54755E-03 4.42147E-04-2.44210E-14
 -1       856 7.87327E-03 6.21150E-04-2.62781E-14
 -1       857 8.19077E-03 7.91132E-04-2.81901E-14
 -1       858 8.49949E-03 9.53673E-04-3.01517E-14
 -1       859 8.80045E-03 1.11109E-03-3.21567E-14
 -1       860 9.09535E-03 1.26540E-03-3.42031E-14
 -1       861 9.38592E-03 1.41811E-03-3.62878E-14
 -1       862 9.67362E-03 1.57017E-03-3.84105E-14
 -1       863 9.95960E-03 1.72220E-03-4.05682E-14
 -1       864 1.02446E-02 1.87452E-03-4.27560E-14
 -1       865 1.05293E-02 2.02730E-03-4.49736E-14
 -1       866 1.08138E-02 2.18061E-03-4.72135E-14
 -1       867 1.10984E-02 2.33444E-03-4.94699E-14
 -1       868 1.13832E-02 2.48878E-03-5.17347E-14
 -1       869 1.16682E-02 2.64356E-03-5.40224E-14
 -1       870 1.19533E-02 2.79874E-03-5.63372E-14
 -1       871 1.22386E-02 2.95426E-03-5.86722E-14
 -1       872 1.25241E-02 3.11005E-03-6.10379E-14
 -1       873 1.28096E-02 3.26607E-03-6.34283E-14
 -1       874 1.30952E-02 3.42227E-03-6.58418E-14
 -1       875 9.52135E-03 1.38033E-03-2.47884E-14
 -1       876 3.68629E-03 3.31234E-04-6.64471E-15
 -1       877 6.37601E-03-1.75834E-04-1.73448E-14
 -1       878 1.13130E-03-5.13573E-05-8.77696E-16
 -1       879 1.04896E-02 1.94154E-03-3.25752E-14
 -1       880 1.02389E-02 1.79646E-03-3.06856E-14
 -1       881 1.10354E-02 2.25594E-03-3.66668E-14
 -1       882 1.13141E-02 2.41520E-03-3.87717E-14
 -1       883 1.15950E-02 2.57483E-03-4.09069E-14
 -1       884 1.18633E-02 2.72647E-03-4.29650E-14
 -1       885 1.21469E-02 2.88588E-03-4.51596E-14
 -1       886 1.24312E-02 3.04496E-03-4.73833E-14
 -1       887 1.27159E-02 3.20368E-03-4.96371E-14
 -1       888 1.30011E-02 3.36205E-03-5.19140E-14
 -1       889 1.32864E-02 3.52010E-03-5.42155E-14
 -1       890 1.35576E-02 3.67000E-03-5.64138E-14
 -1       891 1.38432E-02 3.82756E-03-5.87408E-14
 -1       892 1.41289E-02 3.98493E-03-6.10806E-14
 -1       893 1.43195E-02 4.09001E-03-6.30526E-14
 -1       894 1.28536E-03-1.95933E-04-1.15861E-15
 -1       895 6.09055E-03-2.60445E-04-1.60137E-14
 -1       896 1.40319E-02 3.93325E-03-6.41482E-14
 -1       897 1.60379E-03 2.15414E-04-1.23805E-15
 -1       898 9.26715E-03 1.24928E-03-2.30670E-14
 -1       899 1.88592E-03 2.29408E-04-1.68298E-15
 -1       900 3.22698E-03 2.75599E-04-4.90206E-15
 -1       901 9.74287E-03 1.51023E-03-2.68197E-14
 -1       902 3.88461E-03 3.68133E-04-7.74259E-15
 -1       903 1.41757E-02 4.01160E-03-6.36031E-14
 -1       904 8.27204E-03 8.90817E-04-2.29990E-14
 -1       905 1.34169E-02 3.59817E-03-6.71514E-14
 -1       906 5.72876E-03-2.71342E-04-1.43640E-14
 -1       907 7.96950E-03 7.37626E-04-2.24224E-14
 -1       908 3.46649E-03 2.97637E-04-5.74411E-15
 -1       909 9.98428E-03 1.64922E-03-2.87320E-14
 -1       910 9.08356E-03 1.20216E-03-2.33987E-14
 -1       911 1.07601E-02 2.09771E-03-3.45992E-14
 -1       912 1.63750E-03-2.14778E-04-1.76778E-15
 -1       913 2.97306E-03 2.61789E-04-4.12239E-15
 -1       914 8.94924E-03 1.17507E-03-2.43193E-14
 -1       915 2.71198E-03 2.53009E-04-3.41722E-15
 -1       916 1.32793E-02 3.52304E-03-6.78005E-14
 -1       917 4.06285E-03 2.75145E-04-8.48057E-15
 -1       918 1.36931E-03 3.41943E-05-1.14501E-15
 -1       919 1.37538E-03-8.80135E-05-1.25900E-15
 -1       920 4.41335E-03 2.11860E-04-9.63686E-15
 -1       921 7.14538E-03 2.49227E-04-2.04981E-14
 -1       922 1.38781E-02 3.84950E-03-6.49104E-14
 -1       923 5.17263E-03-9.86044E-05-1.20429E-14
 -1       924 2.16466E-03 2.39030E-04-2.19247E-15
 -1       925 7.71823E-03 5.93371E-04-2.23041E-14
 -1       926 1.35703E-02 3.68181E-03-6.64045E-14
 -1       927 4.80487E-03 6.17036E-05-1.08075E-14
 -1       928 5.54006E-03-2.52803E-04-1.36188E-14
 -1       929 1.38475E-03-1.52094E-04-1.30557E-15
 -1       930 1.37305E-03 9.46414E-05-1.07823E-15
 -1       931 2.05345E-03-1.61264E-04-2.59604E-15
 -1       932 2.34076E-03-1.62538E-04-3.26974E-15
 -1       933 2.62934E-03-1.60461E-04-4.01424E-15
 -1       934 2.91990E-03-1.55903E-04-4.82736E-15
 -1       935 3.21380E-03-1.49978E-04-5.70709E-15
 -1       936 3.51308E-03-1.44327E-04-6.65050E-15
 -1       937 3.82040E-03-1.41484E-04-7.65650E-15
 -1       938 4.13853E-03-1.45086E-04-8.72611E-15
 -1       939 4.46936E-03-1.59770E-04-9.86204E-15
 -1       940 4.81216E-03-1.89494E-04-1.10601E-14
 -1       941 5.16151E-03-2.32909E-04-1.23195E-14
 -1       942 7.86076E-03 6.36674E-04-2.49246E-14
 -1       943 8.18784E-03 8.06807E-04-2.67955E-14
 -1       944 8.50205E-03 9.66348E-04-2.87165E-14
 -1       945 8.80534E-03 1.11966E-03-3.06813E-14
 -1       946 9.10051E-03 1.27000E-03-3.26914E-14
 -1       947 9.39016E-03 1.41943E-03-3.47395E-14
 -1       948 9.67638E-03 1.56906E-03-3.68287E-14
 -1       949 9.96068E-03 1.71942E-03-3.89534E-14
 -1       950 1.02441E-02 1.87070E-03-4.11129E-14
 -1       951 1.05272E-02 2.02289E-03-4.33055E-14
 -1       952 1.08105E-02 2.17592E-03-4.55223E-14
 -1       953 1.10941E-02 2.32967E-03-4.77583E-14
 -1       954 1.13781E-02 2.48403E-03-5.00046E-14
 -1       955 1.16624E-02 2.63890E-03-5.22684E-14
 -1       956 1.19471E-02 2.79417E-03-5.45613E-14
 -1       957 1.22320E-02 2.94979E-03-5.68811E-14
 -1       958 1.25172E-02 3.10567E-03-5.92232E-14
 -1       959 1.28026E-02 3.26176E-03-6.15915E-14
 -1       960 1.30881E-02 3.41802E-03-6.39816E-14
 -1       961 1.37019E-03-2.62874E-05-1.20532E-15
 -1       962 9.48499E-03 1.39394E-03-2.61723E-14
 -1       963 1.02388E-02 1.81213E-03-3.22051E-14
 -1       964 2.44094E-03 2.46202E-04-2.77133E-15
 -1       965 1.15966E-02 2.58093E-03-4.25579E-14
 -1       966 1.13161E-02 2.42279E-03-4.03987E-14
 -1       967 1.10377E-02 2.26530E-03-3.82693E-14
 -1       968 1.18787E-02 2.73930E-03-4.47468E-14
 -1       969 1.21619E-02 2.89767E-03-4.69595E-14
 -1       970 1.24459E-02 3.05591E-03-4.92031E-14
 -1       971 1.27304E-02 3.21395E-03-5.14713E-14
 -1       972 1.30154E-02 3.37178E-03-5.37713E-14
 -1       973 1.32864E-02 3.52153E-03-5.59710E-14
 -1       974 1.35718E-02 3.67899E-03-5.83022E-14
 -1       975 1.38573E-02 3.83630E-03-6.06451E-14
 -1       976 1.40165E-02 3.92397E-03-6.21207E-14
 -1       977 9.98038E-03 1.66691E-03-3.02222E-14
 -1       978 1.73178E-03 1.62162E-04-1.54847E-15
 -1       979 9.28171E-03 1.29382E-03-2.47702E-14
 -1       980 3.33776E-03 2.38378E-04-5.53744E-15
 -1       981 3.85301E-03 2.88575E-04-7.65649E-15
 -1       982 8.62503E-03 1.05051E-03-2.45627E-14
 -1       983 1.05047E-02 1.96272E-03-3.42238E-14
 -1       984 1.37240E-02 3.76555E-03-6.56594E-14
 -1       985 9.73178E-03 1.52935E-03-2.82772E-14
 -1       986 3.57486E-03 2.71149E-04-6.43066E-15
 -1       987 8.18120E-03 8.36701E-04-2.41446E-14
 -1       988 1.07693E-02 2.11296E-03-3.62265E-14
 -1       989 1.76735E-03-1.55869E-04-1.99421E-15
 -1       990 6.65191E-03-4.48090E-05-1.87004E-14
 -1       991 3.08728E-03 2.15701E-04-4.70509E-15
 -1       992 4.15107E-03 2.17740E-04-8.72674E-15
 -1       993 2.82987E-03 2.00527E-04-3.94647E-15
 -1       994 4.50929E-03 1.20341E-04-9.86496E-15
 -1       995 7.51383E-03 4.56478E-04-2.26654E-14
 -1       996 1.61572E-03-6.04157E-05-1.64354E-15
 -1       997 1.50169E-03 1.23811E-04-1.23255E-15
 -1       998 2.01054E-03 1.72494E-04-2.04503E-15
 -1       999 3.86953E-03 2.03360E-04-7.69418E-15
 -1      1000 4.93008E-03-5.97335E-05-1.12473E-14
 -1      1001 1.61162E-03 5.97650E-06-1.57083E-15
 -1      1002 1.38727E-02 3.84568E-03-6.26579E-14
 -1      1003 1.61271E-03 7.12560E-05-1.49049E-15
 -1      1004 1.37190E-02 3.76203E-03-6.34108E-14
 -1      1005 1.89859E-03-6.16319E-05-2.18617E-15
 -1      1006 2.46979E-03-9.00043E-05-3.52953E-15
 -1      1007 2.75619E-03-8.33156E-05-4.28982E-15
 -1      1008 3.04435E-03-7.38219E-05-5.11758E-15
 -1      1009 3.33597E-03-6.22802E-05-6.00991E-15
 -1      1010 3.63367E-03-5.03286E-05-6.96303E-15
 -1      1011 3.94204E-03-4.13026E-05-7.98007E-15
 -1      1012 4.26482E-03-4.08013E-05-9.06095E-15
 -1      1013 4.60627E-03-5.68871E-05-1.02044E-14
 -1      1014 3.47533E-03 1.99341E-04-6.19686E-15
 -1      1015 3.66592E-03 2.02036E-04-6.92761E-15
 -1      1016 8.51543E-03 9.85482E-04-2.72966E-14
 -1      1017 8.81888E-03 1.13265E-03-2.92222E-14
 -1      1018 9.11218E-03 1.27720E-03-3.11914E-14
 -1      1019 9.39913E-03 1.42197E-03-3.32072E-14
 -1      1020 9.68247E-03 1.56821E-03-3.52613E-14
 -1      1021 9.96410E-03 1.71631E-03-3.73525E-14
 -1      1022 1.02452E-02 1.86621E-03-3.94786E-14
 -1      1023 1.05264E-02 2.01767E-03-4.16406E-14
 -1      1024 1.08081E-02 2.17039E-03-4.38334E-14
 -1      1025 1.10904E-02 2.32411E-03-4.60524E-14
 -1      1026 1.13734E-02 2.47858E-03-4.82830E-14
 -1      1027 1.16570E-02 2.63363E-03-5.05281E-14
 -1      1028 1.19411E-02 2.78911E-03-5.27977E-14
 -1      1029 1.22257E-02 2.94493E-03-5.50950E-14
 -1      1030 1.25105E-02 3.10098E-03-5.74199E-14
 -1      1031 1.27957E-02 3.25722E-03-5.97681E-14
 -1      1032 1.30810E-02 3.41360E-03-6.21373E-14
 -1      1033 1.35648E-02 3.67817E-03-6.41547E-14
 -1      1034 1.13228E-02 2.43319E-03-4.20893E-14
 -1      1035 1.16036E-02 2.59015E-03-4.42730E-14
 -1      1036 1.10438E-02 2.27698E-03-3.99333E-14
 -1      1037 1.21690E-02 2.90500E-03-4.87132E-14
 -1      1038 1.24530E-02 3.06252E-03-5.09717E-14
 -1      1039 1.27375E-02 3.21997E-03-5.32578E-14
 -1      1040 1.30082E-02 3.36947E-03-5.54555E-14
 -1      1041 1.32934E-02 3.52674E-03-5.77877E-14
 -1      1042 1.35788E-02 3.68391E-03-6.01358E-14
 -1      1043 3.21926E-03 1.70320E-04-5.31307E-15
 -1      1044 9.26040E-03 1.31320E-03-2.62596E-14
 -1      1045 1.18858E-02 2.74750E-03-4.64790E-14
 -1      1046 8.54983E-03 1.01207E-03-2.59946E-14
 -1      1047 1.02380E-02 1.82731E-03-3.37850E-14
 -1      1048 9.51748E-03 1.44266E-03-2.83662E-14
 -1      1049 9.77138E-03 1.57487E-03-3.03132E-14
 -1      1050 8.97956E-03 1.20399E-03-2.61040E-14
 -1      1051 8.01041E-03 7.34910E-04-2.45407E-14
 -1      1052 1.00026E-02 1.69865E-03-3.20376E-14
 -1      1053 2.18323E-03-7.66168E-05-2.81959E-15
 -1      1054 4.03766E-03 1.13465E-04-8.26535E-15
 -1      1055 4.26613E-03 1.22615E-04-9.04946E-15
 -1      1056 2.95984E-03 1.49616E-04-4.50288E-15
 -1      1057 1.85465E-03 4.33704E-05-1.97214E-15
 -1      1058 1.05007E-02 1.97316E-03-3.57801E-14
 -1      1059 2.56222E-03 1.89745E-04-3.24671E-15
 -1      1060 1.07742E-02 2.12596E-03-3.78644E-14
 -1      1061 2.28837E-03 1.81107E-04-2.61196E-15
 -1      1062 1.34250E-02 3.60046E-03-6.08716E-14
 -1      1063 1.72271E-03 9.49351E-05-1.64758E-15
 -1      1064 3.73526E-03 1.10621E-04-7.21621E-15
 -1      1065 8.19724E-03 8.30610E-04-2.54118E-14
 -1      1066 1.32656E-02 3.51377E-03-6.13121E-14
 -1      1067 2.88123E-03-5.18692E-06-4.55338E-15
 -1      1068 3.16432E-03 9.76207E-06-5.39500E-15
 -1      1069 3.45030E-03 2.81127E-05-6.29828E-15
 -1      1070 3.52404E-03 1.18928E-04-6.47299E-15
 -1      1071 8.84583E-03 1.14963E-03-2.77722E-14
 -1      1072 9.13319E-03 1.28633E-03-2.97052E-14
 -1      1073 9.41432E-03 1.42502E-03-3.16845E-14
 -1      1074 9.69261E-03 1.56698E-03-3.37063E-14
 -1      1075 9.97007E-03 1.71233E-03-3.57644E-14
 -1      1076 1.02478E-02 1.86063E-03-3.78566E-14
 -1      1077 1.05265E-02 2.01131E-03-3.99853E-14
 -1      1078 1.08062E-02 2.16377E-03-4.21498E-14
 -1      1079 1.10871E-02 2.31756E-03-4.43460E-14
 -1      1080 1.13690E-02 2.47228E-03-4.65613E-14
 -1      1081 1.16517E-02 2.62765E-03-4.87907E-14
 -1      1082 1.19353E-02 2.78347E-03-5.10417E-14
 -1      1083 1.22194E-02 2.93959E-03-5.33193E-14
 -1      1084 1.25040E-02 3.09592E-03-5.56246E-14
 -1      1085 1.27889E-02 3.25239E-03-5.79538E-14
 -1      1086 1.30272E-02 3.38303E-03-5.96297E-14
 -1      1087 1.13281E-02 2.44230E-03-4.37928E-14
 -1      1088 1.10481E-02 2.28697E-03-4.16094E-14
 -1      1089 1.24598E-02 3.06869E-03-5.27451E-14
 -1      1090 1.21756E-02 2.91176E-03-5.04709E-14
 -1      1091 1.30151E-02 3.37480E-03-5.72595E-14
 -1      1092 1.32200E-02 3.48765E-03-5.90625E-14
 -1      1093 9.48831E-03 1.44728E-03-2.98661E-14
 -1      1094 2.59887E-03-1.63830E-05-3.77894E-15
 -1      1095 9.23405E-03 1.32251E-03-2.79618E-14
 -1      1096 2.13414E-03 3.36740E-05-2.56847E-15
 -1      1097 1.27373E-02 3.22174E-03-5.49938E-14
 -1      1098 2.36509E-03 8.64246E-06-3.14509E-15
 -1      1099 2.69192E-03 1.34769E-04-3.74949E-15
 -1      1100 1.07768E-02 2.13671E-03-3.95128E-14
 -1      1101 1.18921E-02 2.75496E-03-4.82210E-14
 -1      1102 9.72507E-03 1.56773E-03-3.15825E-14
 -1      1103 1.02307E-02 1.83678E-03-3.53441E-14
 -1      1104 9.97665E-03 1.70009E-03-3.34501E-14
 -1      1105 2.03158E-03 9.47636E-05-2.24480E-15
 -1      1106 3.21654E-03 8.35748E-05-5.46751E-15
 -1      1107 1.16095E-02 2.59840E-03-4.59972E-14
 -1      1108 2.72781E-03 5.69364E-05-4.01746E-15
 -1      1109 2.34353E-03 1.04759E-04-2.92089E-15
 -1      1110 1.05139E-02 1.99397E-03-3.78695E-14
 -1      1111 2.91769E-03 7.53005E-05-4.53695E-15
 -1      1112 0.00000E+00 0.00000E+00 0.00000E+00
 -1      1113 0.00000E+00 0.00000E+00 0.00000E+00
 -1      1114 0.00000E+00 0.00000E+00 0.00000E+00
 -1      1115 0.00000E+00 0.00000E+00 0.00000E+00
 -1      1116 0.00000E+00 0.00000E+00 0.00000E+00
 -1      1117 0.00000E+00 0.00000E+00 0.00000E+00
 -1      1118 0.00000E+00 0.00000E+00 0.00000E+00
 -1      1119 0.00000E+00 0.00000E+00 0.00000E+00
 -1      1120 0.00000E+00 0.00000E+00 0.00000E+00
 -1      1121 0.00000E+00 0.00000E+00 0.00000E+00
 -1      1122 0.00000E+00 0.00000E+00 0.00000E+00
 -1      1123 0.00000E+00 0.00000E+00 0.00000E+00
 -1      1124 0.00000E+00 0.00000E+00 0.00000E+00
 -1      1125 0.00000E+00 0.00000E+00 0.00000E+00
 -1      1126 0.00000E+00 0.00000E+00 0.00000E+00
 -1      1127 0.00000E+00 0.00000E+00 0.00000E+00
 -1      1128 0.00000E+00 0.00000E+00 0.00000E+00
 -1      1129 2.10922E-04-1.47368E-04-1.02186E-17
 -1      1130 5.50364E-04-3.33998E-04-1.04178E-16
 -1      1131 8.32689E-04-4.52559E-04-3.00229E-16
 -1      1132 1.10361E-03-5.31210E-04-6.11504E-16
 -1      1133 1.37123E-03-5.85421E-04-1.02601E-15
 -1      1134 1.63927E-03-6.23209E-04-1.53710E-15
 -1      1135 1.90973E-03-6.49441E-04-2.14062E-15
 -1      1136 2.18361E-03-6.67578E-04-2.83351E-15
 -1      1137 2.46132E-03-6.80386E-04-3.61224E-15
 -1      1138 2.74275E-03-6.90204E-04-4.47453E-15
 -1      1139 3.02742E-03-6.99033E-04-5.41861E-15
 -1      1140 3.31435E-03-7.08520E-04-6.43540E-15
 -1      1141 3.60207E-03-7.19819E-04-7.52111E-15
 -1      1142 3.88852E-03-7.33336E-04-8.67795E-15
 -1      1143 4.17119E-03-7.48369E-04-9.90289E-15
 -1      1144 4.44734E-03-7.62739E-04-1.11937E-14
 -1      1145 4.71450E-03-7.72558E-04-1.25461E-14
 -1      1146 4.97112E-03-7.72347E-04-1.39593E-14
 -1      1147 5.21724E-03-7.55697E-04-1.54351E-14
 -1      1148 5.45489E-03-7.16470E-04-1.69776E-14
 -1      1149 5.68800E-03-6.50256E-04-1.85854E-14
 -1      1150 5.92159E-03-5.55574E-04-2.02605E-14
 -1      1151 6.16061E-03-4.34302E-04-2.20047E-14
 -1      1152 6.40884E-03-2.91141E-04-2.38173E-14
 -1      1153 6.66817E-03-1.32365E-04-2.56955E-14
 -1      1154 6.93854E-03 3.56162E-05-2.76307E-14
 -1      1155 7.21841E-03 2.07381E-04-2.96190E-14
 -1      1156 7.50547E-03 3.79063E-04-3.16584E-14
 -1      1157 7.79721E-03 5.48391E-04-3.37594E-14
 -1      1158 8.09143E-03 7.14407E-04-3.59062E-14
 -1      1159 8.38645E-03 8.77048E-04-3.80923E-14
 -1      1160 8.68110E-03 1.03676E-03-4.03176E-14
 -1      1161 8.97472E-03 1.19422E-03-4.25744E-14
 -1      1162 9.26700E-03 1.35010E-03-4.48489E-14
 -1      1163 9.55790E-03 1.50500E-03-4.71318E-14
 -1      1164 9.84752E-03 1.65940E-03-4.94355E-14
 -1      1165 1.01360E-02 1.81365E-03-5.17483E-14
 -1      1166 1.04237E-02 1.96797E-03-5.40747E-14
 -1      1167 1.07106E-02 2.12250E-03-5.64112E-14
 -1      1168 1.09970E-02 2.27731E-03-5.87625E-14
 -1      1169 1.12831E-02 2.43243E-03-6.11480E-14
 -1      1170 1.15689E-02 2.58784E-03-6.35691E-14
 -1      1171 1.18546E-02 2.74351E-03-6.60304E-14
 -1      1172 1.21402E-02 2.89942E-03-6.85213E-14
 -1      1173 1.24257E-02 3.05551E-03-7.10245E-14
 -1      1174 1.27113E-02 3.21174E-03-7.35251E-14
 -1      1175 1.29969E-02 3.36807E-03-7.60223E-14
 -1      1176 1.32826E-02 3.52446E-03-7.85195E-14
 -1      1177 1.35682E-02 3.68087E-03-8.10191E-14
 -1      1178 1.38468E-02 3.83336E-03-8.34728E-14
 -1      1179 2.02141E-04 1.42121E-04 3.19840E-17
 -1      1180 5.35345E-04 3.26643E-04 6.85758E-17
 -1      1181 8.18345E-04 4.46914E-04 5.43863E-17
 -1      1182 1.08943E-03 5.26120E-04-2.42726E-17
 -1      1183 1.35719E-03 5.79872E-04-1.68810E-16
 -1      1184 1.61892E-03 6.15418E-04-3.73589E-16
 -1      1185 1.88365E-03 6.38698E-04-6.42932E-16
 -1      1186 2.16005E-03 6.52919E-04-9.89307E-16
 -1      1187 2.44304E-03 6.59805E-04-1.40587E-15
 -1      1188 2.73457E-03 6.61512E-04-1.89085E-15
 -1      1189 3.03727E-03 6.60295E-04-2.44412E-15
 -1      1190 3.34675E-03 6.59087E-04-3.04519E-15
 -1      1191 3.67529E-03 6.62020E-04-3.70648E-15
 -1      1192 4.03874E-03 6.76894E-04-4.44642E-15
 -1      1193 4.43698E-03 7.17197E-04-5.25033E-15
 -1      1194 4.87678E-03 8.05683E-04-6.11390E-15
 -1      1195 5.35708E-03 9.75470E-04-7.03157E-15
 -1      1196 5.84425E-03 1.25029E-03-7.97177E-15
 -1      1197 6.26911E-03 1.59875E-03-8.88021E-15
 -1      1198 6.62767E-03 1.98256E-03-9.86635E-15
 -1      1199 6.90239E-03 2.26258E-03-1.09749E-14
 -1      1200 7.12162E-03 2.29436E-03-1.20703E-14
 -1      1201 7.38933E-03 2.13326E-03-1.32144E-14
 -1      1202 7.75772E-03 1.89394E-03-1.44760E-14
 -1      1203 8.20521E-03 1.69422E-03-1.58561E-14
 -1      1204 8.69390E-03 1.59304E-03-1.73855E-14
 -1      1205 9.17001E-03 1.59735E-03-1.90251E-14
 -1      1206 9.59461E-03 1.67400E-03-2.06867E-14
 -1      1207 9.98130E-03 1.79258E-03-2.23998E-14
 -1      1208 1.03459E-02 1.93760E-03-2.42124E-14
 -1      1209 1.06863E-02 2.09439E-03-2.60800E-14
 -1      1210 1.10095E-02 2.25646E-03-2.79979E-14
 -1      1211 1.13206E-02 2.42050E-03-2.99656E-14
 -1      1212 1.16159E-02 2.58074E-03-3.19205E-14
 -1      1213 1.19057E-02 2.74053E-03-3.39031E-14
 -1      1214 1.21991E-02 2.90364E-03-3.59743E-14
 -1      1215 1.24898E-02 3.06585E-03-3.80829E-14
 -1      1216 1.27786E-02 3.22719E-03-4.02356E-14
 -1      1217 1.30662E-02 3.38773E-03-4.24204E-14
 -1      1218 1.33458E-02 3.54357E-03-4.45648E-14
 -1      1219 1.36248E-02 3.69883E-03-4.67282E-14
 -1      1220 1.39107E-02 3.85756E-03-4.89784E-14
 -1      1221 1.41964E-02 4.01586E-03-5.12533E-14
 -1      1222 1.44820E-02 4.17382E-03-5.35511E-14
 -1      1223 1.47675E-02 4.33150E-03-5.58678E-14
 -1      1224 1.50459E-02 4.48504E-03-5.81402E-14
 -1      1225 1.53243E-02 4.63843E-03-6.04109E-14
 -1      1226 1.56099E-02 4.79565E-03-6.27376E-14
 -1      1227 1.58955E-02 4.95281E-03-6.50833E-14
 -1      1228 1.61812E-02 5.10995E-03-6.74235E-14
 -1      1229 1.64597E-02 5.26318E-03-6.97126E-14
 -1      1230 1.65182E-02 5.29569E-03-7.12346E-14
 -1      1231 1.63636E-02 5.21140E-03-7.20507E-14
 -1      1232 1.62090E-02 5.12708E-03-7.28715E-14
 -1      1233 1.60544E-02 5.04272E-03-7.36939E-14
 -1      1234 1.58999E-02 4.95832E-03-7.45142E-14
 -1      1235 1.57468E-02 4.87461E-03-7.53101E-14
 -1      1236 1.55937E-02 4.79089E-03-7.61222E-14
 -1      1237 1.54394E-02 4.70644E-03-7.69576E-14
 -1      1238 1.52852E-02 4.62199E-03-7.77971E-14
 -1      1239 1.51311E-02 4.53755E-03-7.86248E-14
 -1      1240 1.49771E-02 4.45311E-03-7.94370E-14
 -1      1241 1.48245E-02 4.36940E-03-8.02549E-14
 -1      1242 1.46719E-02 4.28570E-03-8.10808E-14
 -1      1243 1.45181E-02 4.20132E-03-8.19067E-14
 -1      1244 1.43643E-02 4.11697E-03-8.27208E-14
 -1      1245 1.42106E-02 4.03265E-03-8.35086E-14
 -1      1246 1.40581E-02 3.94907E-03-8.42867E-14
 -1      1247 9.05095E-03 1.03885E-03-1.71469E-14
 -1      1248 8.99973E-03 1.20385E-03-1.67131E-14
 -1      1249 8.82570E-03 1.38113E-03-1.61549E-14
 -1      1250 8.54546E-03 1.56883E-03-1.55156E-14
 -1      1251 8.17205E-03 1.75904E-03-1.48164E-14
 -1      1252 7.71905E-03 1.92781E-03-1.40773E-14
 -1      1253 7.21469E-03 2.02807E-03-1.33469E-14
 -1      1254 6.67176E-03 2.02622E-03-1.26484E-14
 -1      1255 6.14031E-03 1.91496E-03-1.20435E-14
 -1      1256 5.62797E-03 1.71596E-03-1.15311E-14
 -1      1257 5.16820E-03 1.47865E-03-1.11406E-14
 -1      1258 4.77274E-03 1.23696E-03-1.08746E-14
 -1      1259 4.45235E-03 1.00760E-03-1.07322E-14
 -1      1260 4.24331E-03 8.09894E-04-1.07264E-14
 -1      1261 4.15119E-03 6.36814E-04-1.08449E-14
 -1      1262 4.17914E-03 4.79103E-04-1.10914E-14
 -1      1263 4.32733E-03 3.28242E-04-1.14759E-14
 -1      1264 4.57093E-03 1.90327E-04-1.19596E-14
 -1      1265 4.90021E-03 6.30239E-05-1.25450E-14
 -1      1266 5.28770E-03-4.20273E-05-1.32046E-14
 -1      1267 5.67689E-03-1.05908E-04-1.38490E-14
 -1      1268 6.08320E-03-1.29058E-04-1.45054E-14
 -1      1269 6.51572E-03-1.04365E-04-1.51744E-14
 -1      1270 6.96321E-03-2.96366E-05-1.58154E-14
 -1      1271 7.40798E-03 9.01329E-05-1.63869E-14
 -1      1272 7.83087E-03 2.38057E-04-1.68586E-14
 -1      1273 8.21537E-03 4.00016E-04-1.72094E-14
 -1      1274 8.55177E-03 5.67144E-04-1.74355E-14
 -1      1275 8.81252E-03 7.27672E-04-1.75078E-14
 -1      1276 8.98221E-03 8.80461E-04-1.74164E-14
 -1      1277 1.66496E-04-1.09449E-04-2.42726E-17
 -1      1278 1.12739E-04-5.60532E-05-3.45860E-17
 -1      1279 1.17735E-04-6.67475E-05-3.13741E-17
 -1      1280 1.08653E-04-4.23988E-05-3.91939E-17
 -1      1281 1.10506E-04-4.85742E-05-3.81504E-17
 -1      1282 2.26808E-04-1.05579E-04-9.02463E-17
 -1      1283 1.07036E-04-3.24514E-05-4.04272E-17
 -1      1284 1.07910E-04-3.71905E-05-4.03323E-17
 -1      1285 2.19581E-04-8.01992E-05-9.71174E-17
 -1      1286 1.06166E-04-2.42241E-05-4.00342E-17
 -1      1287 1.06648E-04-2.82139E-05-4.02781E-17
 -1      1288 2.16211E-04-6.09620E-05-9.82965E-17
 -1      1289 1.05656E-04-1.71289E-05-3.87060E-17
 -1      1290 1.05938E-04-2.06002E-05-3.91939E-17
 -1      1291 2.14319E-04-4.50339E-05-9.64940E-17
 -1      1292 1.05346E-04-1.05540E-05-3.70662E-17
 -1      1293 1.05513E-04-1.37904E-05-3.76354E-17
 -1      1294 2.13166E-04-3.09894E-05-9.32549E-17
 -1      1295 1.05188E-04-4.37158E-06-3.50739E-17
 -1      1296 1.05266E-04-7.43678E-06-3.57516E-17
 -1      1297 2.12474E-04-1.80201E-05-8.91350E-17
 -1      1298 1.05163E-04 1.63576E-06-3.28513E-17
 -1      1299 1.05163E-04-1.36702E-06-3.35967E-17
 -1      1300 2.12144E-04-5.74077E-06-8.43103E-17
 -1      1301 1.05273E-04 7.67848E-06-3.01679E-17
 -1      1302 1.05192E-04 4.63100E-06-3.09404E-17
 -1      1303 2.12143E-04 6.28808E-06-7.86589E-17
 -1      1304 1.05534E-04 1.39797E-05-2.72677E-17
 -1      1305 1.05360E-04 1.07715E-05-2.81486E-17
 -1      1306 2.12479E-04 1.84974E-05-7.22621E-17
 -1      1307 1.05978E-04 2.06740E-05-2.37847E-17
 -1      1308 1.05685E-04 1.72327E-05-2.48553E-17
 -1      1309 2.13191E-04 3.12412E-05-6.50657E-17
 -1      1310 1.06716E-04 2.83152E-05-1.93937E-17
 -1      1311 1.06221E-04 2.43401E-05-2.08573E-17
 -1      1312 2.14389E-04 4.51663E-05-5.63514E-17
 -1      1313 1.08000E-04 3.72989E-05-1.35390E-17
 -1      1314 1.07114E-04 3.25524E-05-1.56938E-17
 -1      1315 2.16354E-04 6.11639E-05-4.54416E-17
 -1      1316 1.10610E-04 4.87473E-05-5.61075E-18
 -1      1317 1.08745E-04 4.25370E-05-8.91756E-18
 -1      1318 2.19775E-04 8.04376E-05-3.13470E-17
 -1      1319 1.17853E-04 6.70290E-05 6.07153E-18
 -1      1320 1.12822E-04 5.62808E-05 6.77626E-19
 -1      1321 2.27029E-04 1.05986E-04-1.24819E-17
 -1      1322 1.58876E-04 1.04764E-04 2.07083E-17
 -1      1323 4.21181E-04-2.58905E-04-9.79306E-17
 -1      1324 5.74423E-04-3.32499E-04-1.67780E-16
 -1      1325 7.21929E-04-3.91589E-04-2.69180E-16
 -1      1326 8.65587E-04-4.39341E-04-3.98919E-16
 -1      1327 6.12730E-04-3.25743E-04-2.37793E-16
 -1      1328 1.00629E-03-4.78847E-04-5.54109E-16
 -1      1329 1.14500E-03-5.11262E-04-7.35076E-16
 -1      1330 9.06996E-04-4.23282E-04-4.97025E-16
 -1      1331 1.28258E-03-5.38455E-04-9.40789E-16
 -1      1332 1.41952E-03-5.60929E-04-1.17107E-15
 -1      1333 1.19111E-03-4.89460E-04-8.57794E-16
 -1      1334 1.55630E-03-5.79762E-04-1.42466E-15
 -1      1335 1.69319E-03-5.95319E-04-1.70124E-15
 -1      1336 1.47050E-03-5.34998E-04-1.31442E-15
 -1      1337 1.83045E-03-6.08258E-04-2.00024E-15
 -1      1338 1.96819E-03-6.18917E-04-2.32155E-15
 -1      1339 1.74853E-03-5.66238E-04-1.86296E-15
 -1      1340 2.10656E-03-6.27753E-04-2.66485E-15
 -1      1341 2.24560E-03-6.35070E-04-3.03002E-15
 -1      1342 2.02717E-03-5.87439E-04-2.50018E-15
 -1      1343 2.38537E-03-6.41225E-04-3.41564E-15
 -1      1344 2.52587E-03-6.46488E-04-3.82142E-15
 -1      1345 2.30750E-03-6.01839E-04-3.22267E-15
 -1      1346 2.66710E-03-6.51164E-04-4.24869E-15
 -1      1347 2.80899E-03-6.55480E-04-4.69590E-15
 -1      1348 2.58996E-03-6.12095E-04-4.02740E-15
 -1      1349 2.95149E-03-6.59707E-04-5.16190E-15
 -1      1350 3.09450E-03-6.64023E-04-5.64758E-15
 -1      1351 2.87460E-03-6.20480E-04-4.91152E-15
 -1      1352 3.23790E-03-6.68657E-04-6.15043E-15
 -1      1353 3.38153E-03-6.73720E-04-6.67082E-15
 -1      1354 3.16105E-03-6.28936E-04-5.87089E-15
 -1      1355 3.52521E-03-6.79376E-04-7.20927E-15
 -1      1356 3.66875E-03-6.85637E-04-7.76480E-15
 -1      1357 3.44857E-03-6.39008E-04-6.90232E-15
 -1      1358 3.81189E-03-6.92556E-04-8.33815E-15
 -1      1359 3.95440E-03-7.00005E-04-8.92784E-15
 -1      1360 3.73603E-03-6.51646E-04-8.00355E-15
 -1      1361 4.09598E-03-7.07864E-04-9.53479E-15
 -1      1362 4.23639E-03-7.15829E-04-1.01588E-14
 -1      1363 4.02196E-03-6.66865E-04-9.17277E-15
 -1      1364 4.37534E-03-7.23545E-04-1.07979E-14
 -1      1365 4.51259E-03-7.30510E-04-1.14531E-14
 -1      1366 4.30463E-03-6.83334E-04-1.04077E-14
 -1      1367 4.64794E-03-7.36104E-04-1.21235E-14
 -1      1368 4.78124E-03-7.39646E-04-1.28099E-14
 -1      1369 4.58235E-03-6.97996E-04-1.17069E-14
 -1      1370 4.91240E-03-7.40295E-04-1.35114E-14
 -1      1371 5.04143E-03-7.37267E-04-1.42272E-14
 -1      1372 4.85377E-03-7.05931E-04-1.30681E-14
 -1      1373 5.16845E-03-7.29634E-04-1.49598E-14
 -1      1374 5.29365E-03-7.16653E-04-1.57094E-14
 -1      1375 5.11835E-03-7.00718E-04-1.44913E-14
 -1      1376 5.41735E-03-6.97521E-04-1.64747E-14
 -1      1377 5.53993E-03-6.71706E-04-1.72573E-14
 -1      1378 5.37675E-03-6.75433E-04-1.59778E-14
 -1      1379 5.66186E-03-6.38752E-04-1.80558E-14
 -1      1380 5.78362E-03-5.98481E-04-1.88709E-14
 -1      1381 5.63090E-03-6.24164E-04-1.75309E-14
 -1      1382 5.90575E-03-5.50922E-04-1.97041E-14
 -1      1383 6.02873E-03-4.96304E-04-2.05541E-14
 -1      1384 5.88374E-03-5.43577E-04-1.91527E-14
 -1      1385 6.15302E-03-4.35130E-04-2.14221E-14
 -1      1386 6.27898E-03-3.67971E-04-2.23069E-14
 -1      1387 6.13858E-03-4.33893E-04-2.08445E-14
 -1      1388 6.40691E-03-2.95654E-04-2.32082E-14
 -1      1389 6.53700E-03-2.18945E-04-2.41259E-14
 -1      1390 6.39830E-03-2.98822E-04-2.26043E-14
 -1      1391 6.66935E-03-1.38769E-04-2.50588E-14
 -1      1392 6.80395E-03-5.59177E-05-2.60079E-14
 -1      1393 6.66472E-03-1.44496E-04-2.44297E-14
 -1      1394 6.94072E-03 2.87888E-05-2.69705E-14
 -1      1395 7.07953E-03 1.14666E-04-2.79463E-14
 -1      1396 6.93842E-03 2.21184E-05-2.63155E-14
 -1      1397 7.22015E-03 2.01115E-04-2.89359E-14
 -1      1398 7.36238E-03 2.87630E-04-2.99376E-14
 -1      1399 7.21885E-03 1.94667E-04-2.82576E-14
 -1      1400 7.50596E-03 3.73863E-04-3.09545E-14
 -1      1401 7.65064E-03 4.59492E-04-3.19850E-14
 -1      1402 7.50473E-03 3.68310E-04-3.02540E-14
 -1      1403 7.79618E-03 5.44386E-04-3.30277E-14
 -1      1404 7.94236E-03 6.28376E-04-3.40847E-14
 -1      1405 7.79448E-03 5.39983E-04-3.23048E-14
 -1      1406 8.08897E-03 7.11482E-04-3.51522E-14
 -1      1407 8.23584E-03 7.93649E-04-3.62293E-14
 -1      1408 8.08656E-03 7.08198E-04-3.44040E-14
 -1      1409 8.38281E-03 8.74975E-04-3.73179E-14
 -1      1410 8.52978E-03 9.55476E-04-3.84156E-14
 -1      1411 8.37968E-03 8.72618E-04-3.65483E-14
 -1      1412 8.67663E-03 1.03528E-03-3.95221E-14
 -1      1413 8.82330E-03 1.11444E-03-4.06373E-14
 -1      1414 8.67287E-03 1.03360E-03-3.87328E-14
 -1      1415 8.96974E-03 1.19309E-03-4.17591E-14
 -1      1416 9.11590E-03 1.27128E-03-4.28873E-14
 -1      1417 8.96551E-03 1.19184E-03-4.09498E-14
 -1      1418 9.26177E-03 1.34913E-03-4.40193E-14
 -1      1419 9.40735E-03 1.42669E-03-4.51545E-14
 -1      1420 9.25724E-03 1.34811E-03-4.31953E-14
 -1      1421 9.55263E-03 1.50406E-03-4.62943E-14
 -1      1422 9.69761E-03 1.58127E-03-4.74382E-14
 -1      1423 9.54794E-03 1.50311E-03-4.54597E-14
 -1      1424 9.84233E-03 1.65839E-03-4.85849E-14
 -1      1425 9.98678E-03 1.73547E-03-4.97354E-14
 -1      1426 9.83761E-03 1.65741E-03-4.77393E-14
 -1      1427 1.01310E-02 1.81252E-03-5.08910E-14
 -1      1428 1.02750E-02 1.88960E-03-5.20475E-14
 -1      1429 1.01263E-02 1.81144E-03-5.00356E-14
 -1      1430 1.04188E-02 1.96670E-03-5.32067E-14
 -1      1431 1.05625E-02 2.04387E-03-5.43728E-14
 -1      1432 1.04143E-02 1.96549E-03-5.23447E-14
 -1      1433 1.07060E-02 2.12109E-03-5.55390E-14
 -1      1434 1.08493E-02 2.19840E-03-5.67054E-14
 -1      1435 1.07015E-02 2.11974E-03-5.46664E-14
 -1      1436 1.09926E-02 2.27577E-03-5.78824E-14
 -1      1437 1.11358E-02 2.35323E-03-5.90670E-14
 -1      1438 1.09883E-02 2.27429E-03-5.70044E-14
 -1      1439 1.12788E-02 2.43077E-03-6.02570E-14
 -1      1440 1.14218E-02 2.50839E-03-6.14539E-14
 -1      1441 1.12747E-02 2.42916E-03-5.93671E-14
 -1      1442 1.15648E-02 2.58609E-03-6.26623E-14
 -1      1443 1.17077E-02 2.66385E-03-6.38794E-14
 -1      1444 1.15607E-02 2.58437E-03-6.17595E-14
 -1      1445 1.18506E-02 2.74168E-03-6.51049E-14
 -1      1446 1.19935E-02 2.81958E-03-6.63380E-14
 -1      1447 1.18466E-02 2.73988E-03-6.41843E-14
 -1      1448 1.21363E-02 2.89752E-03-6.75765E-14
 -1      1449 1.22791E-02 2.97552E-03-6.88194E-14
 -1      1450 1.21324E-02 2.89565E-03-6.66382E-14
 -1      1451 1.24219E-02 3.05357E-03-7.00670E-14
 -1      1452 1.25648E-02 3.13165E-03-7.13156E-14
 -1      1453 1.24181E-02 3.05165E-03-6.91153E-14
 -1      1454 1.27076E-02 3.20977E-03-7.25634E-14
 -1      1455 1.28504E-02 3.28792E-03-7.38103E-14
 -1      1456 1.27038E-02 3.20781E-03-7.16049E-14
 -1      1457 1.29932E-02 3.36608E-03-7.50588E-14
 -1      1458 1.31360E-02 3.44427E-03-7.63078E-14
 -1      1459 1.29895E-02 3.36410E-03-7.40983E-14
 -1      1460 1.32789E-02 3.52247E-03-7.75549E-14
 -1      1461 1.34217E-02 3.60067E-03-7.88022E-14
 -1      1462 1.32751E-02 3.52047E-03-7.65900E-14
 -1      1463 1.35645E-02 3.67888E-03-8.00521E-14
 -1      1464 1.37074E-02 3.75709E-03-8.13062E-14
 -1      1465 1.35608E-02 3.67689E-03-7.90856E-14
 -1      1466 1.39224E-02 3.87479E-03-8.30870E-14
 -1      1467 1.39187E-02 3.87281E-03-8.21145E-14
 -1      1468 5.59198E-04 3.25653E-04 3.96140E-17
 -1      1469 4.05471E-04 2.50774E-04 3.92346E-17
 -1      1470 8.51092E-04 4.33923E-04-4.98733E-18
 -1      1471 7.07113E-04 3.85610E-04 2.48282E-17
 -1      1472 5.97760E-04 3.19446E-04 3.02221E-18
 -1      1473 1.13097E-03 5.06119E-04-1.12350E-16
 -1      1474 9.92039E-04 4.73693E-04-5.05103E-17
 -1      1475 8.92630E-04 4.17983E-04-7.00937E-17
 -1      1476 1.40600E-03 5.55054E-04-2.84847E-16
 -1      1477 1.26877E-03 5.33073E-04-1.90264E-16
 -1      1478 1.17734E-03 4.84176E-04-2.05714E-16
 -1      1479 1.66687E-03 5.86251E-04-5.10456E-16
 -1      1480 1.53632E-03 5.72277E-04-3.89988E-16
 -1      1481 1.45053E-03 5.27763E-04-4.00735E-16
 -1      1482 1.94367E-03 6.07098E-04-8.15144E-16
 -1      1483 1.80487E-03 5.98021E-04-6.54072E-16
 -1      1484 1.72286E-03 5.56469E-04-6.59236E-16
 -1      1485 2.22464E-03 6.18579E-04-1.18988E-15
 -1      1486 2.08353E-03 6.13839E-04-9.93793E-16
 -1      1487 2.00377E-03 5.74307E-04-9.93034E-16
 -1      1488 2.51156E-03 6.23046E-04-1.63441E-15
 -1      1489 2.36724E-03 6.21532E-04-1.40357E-15
 -1      1490 2.28816E-03 5.83206E-04-1.39617E-15
 -1      1491 2.80641E-03 6.22586E-04-2.14721E-15
 -1      1492 2.65785E-03 6.23263E-04-1.88220E-15
 -1      1493 2.57771E-03 5.85409E-04-1.86870E-15
 -1      1494 3.11174E-03 6.19453E-04-2.72663E-15
 -1      1495 2.95757E-03 6.21139E-04-2.42913E-15
 -1      1496 2.87424E-03 5.82955E-04-2.40899E-15
 -1      1497 3.41461E-03 6.16756E-04-3.33719E-15
 -1      1498 3.26139E-03 6.17804E-04-3.02463E-15
 -1      1499 3.17216E-03 5.78280E-04-2.99957E-15
 -1      1500 3.75113E-03 6.18964E-04-4.04120E-15
 -1      1501 3.58029E-03 6.16753E-04-3.68097E-15
 -1      1502 3.48133E-03 5.74391E-04-3.65083E-15
 -1      1503 4.11105E-03 6.34816E-04-4.80794E-15
 -1      1504 3.92780E-03 6.24398E-04-4.41689E-15
 -1      1505 3.81335E-03 5.76590E-04-4.38132E-15
 -1      1506 4.49982E-03 6.79658E-04-5.63666E-15
 -1      1507 4.30153E-03 6.52315E-04-5.21566E-15
 -1      1508 4.16429E-03 5.94781E-04-5.17457E-15
 -1      1509 4.92086E-03 7.79168E-04-6.52286E-15
 -1      1510 4.70632E-03 7.20586E-04-6.07244E-15
 -1      1511 4.53810E-03 6.46380E-04-6.02808E-15
 -1      1512 5.37116E-03 9.69686E-04-7.46033E-15
 -1      1513 5.14309E-03 8.60625E-04-6.98534E-15
 -1      1514 4.93816E-03 7.59921E-04-6.93565E-15
 -1      1515 5.81152E-03 1.26472E-03-8.39757E-15
 -1      1516 5.59170E-03 1.10245E-03-7.92301E-15
 -1      1517 5.35457E-03 9.66992E-04-7.87052E-15
 -1      1518 6.19274E-03 1.61504E-03-9.27692E-15
 -1      1519 6.00592E-03 1.43208E-03-8.83241E-15
 -1      1520 5.75735E-03 1.26728E-03-8.77744E-15
 -1      1521 6.59185E-03 2.03301E-03-1.03744E-14
 -1      1522 6.40074E-03 1.83448E-03-9.81660E-15
 -1      1523 6.17381E-03 1.66696E-03-9.75943E-15
 -1      1524 6.91666E-03 2.26344E-03-1.14912E-14
 -1      1525 6.75788E-03 2.17962E-03-1.09242E-14
 -1      1526 6.58888E-03 2.06442E-03-1.08629E-14
 -1      1527 7.20047E-03 2.23845E-03-1.25560E-14
 -1      1528 7.05513E-03 2.27874E-03-1.20151E-14
 -1      1529 6.94590E-03 2.23809E-03-1.19512E-14
 -1      1530 7.54127E-03 2.02944E-03-1.37630E-14
 -1      1531 7.36374E-03 2.14805E-03-1.31498E-14
 -1      1532 7.29671E-03 2.15634E-03-1.30764E-14
 -1      1533 7.93263E-03 1.77963E-03-1.50490E-14
 -1      1534 7.73216E-03 1.90046E-03-1.43954E-14
 -1      1535 7.68474E-03 1.91290E-03-1.43103E-14
 -1      1536 8.37326E-03 1.59399E-03-1.64883E-14
 -1      1537 8.15208E-03 1.67271E-03-1.57587E-14
 -1      1538 8.10313E-03 1.66164E-03-1.56583E-14
 -1      1539 8.83238E-03 1.52308E-03-1.80797E-14
 -1      1540 8.60531E-03 1.54334E-03-1.72754E-14
 -1      1541 8.53872E-03 1.50330E-03-1.71614E-14
 -1      1542 9.26595E-03 1.55547E-03-1.97407E-14
 -1      1543 9.05309E-03 1.52873E-03-1.89011E-14
 -1      1544 8.96296E-03 1.46687E-03-1.87765E-14
 -1      1545 9.64851E-03 1.64733E-03-2.13788E-14
 -1      1546 9.46081E-03 1.59580E-03-2.05527E-14
 -1      1547 9.35066E-03 1.52155E-03-2.04175E-14
 -1      1548 1.00223E-02 1.78005E-03-2.31563E-14
 -1      1549 9.83882E-03 1.71038E-03-2.22613E-14
 -1      1550 9.71448E-03 1.63019E-03-2.21176E-14
 -1      1551 1.03718E-02 1.93185E-03-2.49871E-14
 -1      1552 1.01997E-02 1.85438E-03-2.40652E-14
 -1      1553 1.00663E-02 1.77196E-03-2.39152E-14
 -1      1554 1.07027E-02 2.09255E-03-2.68735E-14
 -1      1555 1.05392E-02 2.01154E-03-2.59230E-14
 -1      1556 1.04008E-02 1.92888E-03-2.57667E-14
 -1      1557 1.10200E-02 2.25686E-03-2.88049E-14
 -1      1558 1.08628E-02 2.17450E-03-2.78344E-14
 -1      1559 1.07219E-02 2.09245E-03-2.76664E-14
 -1      1560 1.13276E-02 2.42216E-03-3.07867E-14
 -1      1561 1.11748E-02 2.33952E-03-2.97897E-14
 -1      1562 1.10328E-02 2.25834E-03-2.96159E-14
 -1      1563 1.16134E-02 2.57894E-03-3.26976E-14
 -1      1564 1.14711E-02 2.50064E-03-3.17399E-14
 -1      1565 1.13289E-02 2.42032E-03-3.15564E-14
 -1      1566 1.19095E-02 2.74319E-03-3.47473E-14
 -1      1567 1.17619E-02 2.66120E-03-3.37176E-14
 -1      1568 1.16198E-02 2.58165E-03-3.35306E-14
 -1      1569 1.22022E-02 2.90645E-03-3.68310E-14
 -1      1570 1.20562E-02 2.82496E-03-3.57855E-14
 -1      1571 1.19144E-02 2.74609E-03-3.55931E-14
 -1      1572 1.24925E-02 3.06869E-03-3.89543E-14
 -1      1573 1.23476E-02 2.98770E-03-3.78870E-14
 -1      1574 1.22061E-02 2.90938E-03-3.76904E-14
 -1      1575 1.27812E-02 3.23000E-03-4.11168E-14
 -1      1576 1.26370E-02 3.14946E-03-4.00319E-14
 -1      1577 1.24959E-02 3.07159E-03-3.98273E-14
 -1      1578 1.30688E-02 3.39046E-03-4.33056E-14
 -1      1579 1.29251E-02 3.31033E-03-4.22076E-14
 -1      1580 1.27843E-02 3.23282E-03-4.19973E-14
 -1      1581 1.33413E-02 3.54223E-03-4.54005E-14
 -1      1582 1.32051E-02 3.46643E-03-4.43504E-14
 -1      1583 1.30646E-02 3.38920E-03-4.41349E-14
 -1      1584 1.36276E-02 3.70140E-03-4.76347E-14
 -1      1585 1.34845E-02 3.62189E-03-4.65159E-14
 -1      1586 1.33442E-02 3.54488E-03-4.62990E-14
 -1      1587 1.39136E-02 3.86004E-03-4.98939E-14
 -1      1588 1.37706E-02 3.78078E-03-4.87612E-14
 -1      1589 1.36306E-02 3.70394E-03-4.85431E-14
 -1      1590 1.41994E-02 4.01827E-03-5.21758E-14
 -1      1591 1.40565E-02 3.93921E-03-5.10332E-14
 -1      1592 1.39166E-02 3.86251E-03-5.08117E-14
 -1      1593 1.44850E-02 4.17616E-03-5.44795E-14
 -1      1594 1.43422E-02 4.09726E-03-5.33270E-14
 -1      1595 1.42025E-02 4.02066E-03-5.31009E-14
 -1      1596 1.47706E-02 4.33379E-03-5.68000E-14
 -1      1597 1.46278E-02 4.25501E-03-5.56361E-14
 -1      1598 1.44882E-02 4.17849E-03-5.54087E-14
 -1      1599 1.50420E-02 4.48336E-03-5.90118E-14
 -1      1600 1.49063E-02 4.40859E-03-5.79040E-14
 -1      1601 1.47667E-02 4.33213E-03-5.76692E-14
 -1      1602 1.53276E-02 4.64065E-03-6.13398E-14
 -1      1603 1.51848E-02 4.56202E-03-6.01770E-14
 -1      1604 1.50452E-02 4.48559E-03-5.99406E-14
 -1      1605 1.56132E-02 4.79784E-03-6.36784E-14
 -1      1606 1.54704E-02 4.71925E-03-6.25079E-14
 -1      1607 1.53309E-02 4.64285E-03-6.22754E-14
 -1      1608 1.58988E-02 4.95499E-03-6.60234E-14
 -1      1609 1.57560E-02 4.87642E-03-6.48504E-14
 -1      1610 1.56165E-02 4.80003E-03-6.46168E-14
 -1      1611 1.61845E-02 5.11213E-03-6.83661E-14
 -1      1612 1.60417E-02 5.03356E-03-6.71958E-14
 -1      1613 1.59022E-02 4.95716E-03-6.69646E-14
 -1      1614 1.63824E-02 5.22104E-03-7.01178E-14
 -1      1615 1.62012E-02 5.12226E-03-7.12358E-14
 -1      1616 1.62785E-02 5.16442E-03-7.08293E-14
 -1      1617 1.60466E-02 5.03794E-03-7.20540E-14
 -1      1618 1.61239E-02 5.08010E-03-7.16454E-14
 -1      1619 1.60389E-02 5.03314E-03-7.04210E-14
 -1      1620 1.58921E-02 4.95358E-03-7.28715E-14
 -1      1621 1.59693E-02 4.99576E-03-7.24621E-14
 -1      1622 1.58843E-02 4.94881E-03-7.12344E-14
 -1      1623 1.57376E-02 4.86920E-03-7.36860E-14
 -1      1624 1.58148E-02 4.91140E-03-7.32805E-14
 -1      1625 1.57297E-02 4.86447E-03-7.20486E-14
 -1      1626 1.55857E-02 4.78624E-03-7.44819E-14
 -1      1627 1.56616E-02 4.82772E-03-7.40824E-14
 -1      1628 1.55765E-02 4.78082E-03-7.28534E-14
 -1      1629 1.54314E-02 4.70183E-03-7.53019E-14
 -1      1630 1.55086E-02 4.74404E-03-7.48910E-14
 -1      1631 1.54234E-02 4.69717E-03-7.36593E-14
 -1      1632 1.52771E-02 4.61742E-03-7.61303E-14
 -1      1633 1.53543E-02 4.65963E-03-7.57157E-14
 -1      1634 1.52691E-02 4.61280E-03-7.44766E-14
 -1      1635 1.51230E-02 4.53301E-03-7.69577E-14
 -1      1636 1.52000E-02 4.57522E-03-7.65445E-14
 -1      1637 1.51149E-02 4.52842E-03-7.52970E-14
 -1      1638 1.49689E-02 4.44860E-03-7.77737E-14
 -1      1639 1.50459E-02 4.49080E-03-7.73685E-14
 -1      1640 1.49607E-02 4.44404E-03-7.61144E-14
 -1      1641 1.48149E-02 4.36420E-03-7.85855E-14
 -1      1642 1.48919E-02 4.40640E-03-7.81790E-14
 -1      1643 1.48066E-02 4.35967E-03-7.69234E-14
 -1      1644 1.46636E-02 4.28124E-03-7.93905E-14
 -1      1645 1.47392E-02 4.32272E-03-7.89869E-14
 -1      1646 1.46540E-02 4.27602E-03-7.77237E-14
 -1      1647 1.45097E-02 4.19686E-03-8.02113E-14
 -1      1648 1.45866E-02 4.23905E-03-7.98014E-14
 -1      1649 1.45014E-02 4.19237E-03-7.85283E-14
 -1      1650 1.43559E-02 4.11251E-03-8.10260E-14
 -1      1651 1.44328E-02 4.15468E-03-8.06204E-14
 -1      1652 1.43475E-02 4.10803E-03-7.93388E-14
 -1      1653 1.42022E-02 4.02817E-03-8.18283E-14
 -1      1654 1.42790E-02 4.07034E-03-8.14304E-14
 -1      1655 1.41937E-02 4.02369E-03-8.01431E-14
 -1      1656 1.40220E-02 3.92941E-03-8.21688E-14
 -1      1657 1.40988E-02 3.97156E-03-8.17768E-14
 -1      1658 1.40136E-02 3.92492E-03-8.04930E-14
 -1      1659 1.38070E-02 3.81170E-03-8.03906E-14
 -1      1660 9.06650E-03 1.06112E-03-1.73834E-14
 -1      1661 9.06535E-03 1.01238E-03-1.75721E-14
 -1      1662 8.96165E-03 1.17949E-03-1.68620E-14
 -1      1663 9.02670E-03 1.12357E-03-1.71047E-14
 -1      1664 8.71060E-03 1.33551E-03-1.62199E-14
 -1      1665 8.84409E-03 1.25522E-03-1.65410E-14
 -1      1666 8.38094E-03 1.53763E-03-1.54895E-14
 -1      1667 8.54153E-03 1.44578E-03-1.58112E-14
 -1      1668 7.94962E-03 1.76307E-03-1.47012E-14
 -1      1669 8.15468E-03 1.65104E-03-1.50843E-14
 -1      1670 7.52022E-03 1.97131E-03-1.38996E-14
 -1      1671 7.72087E-03 1.88484E-03-1.42566E-14
 -1      1672 7.05719E-03 2.09475E-03-1.30979E-14
 -1      1673 7.26920E-03 2.05338E-03-1.34655E-14
 -1      1674 6.60410E-03 2.06862E-03-1.23546E-14
 -1      1675 6.80872E-03 2.10165E-03-1.26766E-14
 -1      1676 6.13789E-03 1.89068E-03-1.17506E-14
 -1      1677 6.34952E-03 1.98617E-03-1.20209E-14
 -1      1678 5.66376E-03 1.61547E-03-1.12198E-14
 -1      1679 5.88651E-03 1.75036E-03-1.14451E-14
 -1      1680 5.20076E-03 1.33213E-03-1.08561E-14
 -1      1681 5.40331E-03 1.46023E-03-1.10095E-14
 -1      1682 4.78305E-03 1.05753E-03-1.05740E-14
 -1      1683 4.97604E-03 1.17473E-03-1.06751E-14
 -1      1684 4.42779E-03 8.53850E-04-1.04724E-14
 -1      1685 4.57487E-03 9.41946E-04-1.05081E-14
 -1      1686 4.20665E-03 7.12441E-04-1.05288E-14
 -1      1687 4.28949E-03 7.75906E-04-1.05005E-14
 -1      1688 4.12902E-03 5.94304E-04-1.06860E-14
 -1      1689 4.14684E-03 6.46048E-04-1.05968E-14
 -1      1690 4.19726E-03 4.89755E-04-1.09646E-14
 -1      1691 4.14760E-03 5.37276E-04-1.08126E-14
 -1      1692 4.41005E-03 3.72901E-04-1.13970E-14
 -1      1693 4.29463E-03 4.30518E-04-1.11730E-14
 -1      1694 4.69877E-03 2.34559E-04-1.19403E-14
 -1      1695 4.55899E-03 2.95368E-04-1.16967E-14
 -1      1696 5.09622E-03 9.03349E-05-1.25802E-14
 -1      1697 4.90812E-03 1.67084E-04-1.22475E-14
 -1      1698 5.46137E-03-5.17664E-05-1.33034E-14
 -1      1699 5.29183E-03 3.92603E-06-1.29903E-14
 -1      1700 5.82797E-03-1.40901E-04-1.40023E-14
 -1      1701 5.65928E-03-1.05160E-04-1.36776E-14
 -1      1702 6.19140E-03-1.73502E-04-1.47124E-14
 -1      1703 6.02427E-03-1.66248E-04-1.43847E-14
 -1      1704 6.57556E-03-1.35980E-04-1.54520E-14
 -1      1705 6.39498E-03-1.64177E-04-1.51117E-14
 -1      1706 6.97670E-03-2.19377E-05-1.61275E-14
 -1      1707 6.79277E-03-8.19928E-05-1.58239E-14
 -1      1708 7.38404E-03 1.52880E-04-1.67747E-14
 -1      1709 7.18901E-03 6.56610E-05-1.65007E-14
 -1      1710 7.81183E-03 3.42350E-04-1.72315E-14
 -1      1711 7.62361E-03 2.52665E-04-1.70261E-14
 -1      1712 8.20967E-03 5.40484E-04-1.76113E-14
 -1      1713 8.02514E-03 4.52030E-04-1.74628E-14
 -1      1714 8.57187E-03 7.11237E-04-1.78207E-14
 -1      1715 8.41282E-03 6.36693E-04-1.77445E-14
 -1      1716 8.85247E-03 8.42511E-04-1.78316E-14
 -1      1717 8.73615E-03 7.83631E-04-1.78377E-14
 -1      1718 9.02259E-03 9.52975E-04-1.76903E-14
 -1      1719 8.95851E-03 9.04781E-04-1.77772E-14
 -1      1720 2.77985E-04 1.70697E-04 2.10606E-17
 -1      1721 8.59094E-03 1.33367E-03-1.62029E-14
 -1      1722 1.62430E-02 5.14463E-03-6.98904E-14
 -1      1723 9.05410E-03 1.07555E-03-1.75501E-14
 -1      1724 8.88799E-03 1.17538E-03-1.69431E-14
 -1      1725 9.05566E-03 1.00613E-03-1.79528E-14
 -1      1726 8.20038E-03 1.55434E-03-1.53807E-14
 -1      1727 7.77596E-03 1.80621E-03-1.45225E-14
 -1      1728 7.34453E-03 2.02914E-03-1.36416E-14
 -1      1729 6.93390E-03 2.13361E-03-1.27889E-14
 -1      1730 6.53154E-03 2.05390E-03-1.20435E-14
 -1      1731 6.09439E-03 1.81380E-03-1.14149E-14
 -1      1732 5.63264E-03 1.49634E-03-1.09130E-14
 -1      1733 5.16488E-03 1.17691E-03-1.05324E-14
 -1      1734 4.73002E-03 9.17094E-04-1.02943E-14
 -1      1735 4.37670E-03 7.51005E-04-1.02593E-14
 -1      1736 4.17129E-03 6.44449E-04-1.03545E-14
 -1      1737 4.12821E-03 5.65407E-04-1.05456E-14
 -1      1738 4.24856E-03 4.89686E-04-1.08730E-14
 -1      1739 4.50356E-03 3.83279E-04-1.13702E-14
 -1      1740 4.85776E-03 2.41711E-04-1.19681E-14
 -1      1741 5.24036E-03 7.44255E-05-1.26742E-14
 -1      1742 5.60805E-03-7.81753E-05-1.34538E-14
 -1      1743 5.95204E-03-1.72380E-04-1.42083E-14
 -1      1744 6.29097E-03-1.96147E-04-1.49906E-14
 -1      1745 6.63989E-03-1.29506E-04-1.57673E-14
 -1      1746 7.01622E-03 2.44498E-05-1.65201E-14
 -1      1747 7.41749E-03 2.33205E-04-1.71558E-14
 -1      1748 7.84661E-03 4.55582E-04-1.76457E-14
 -1      1749 8.25721E-03 6.62157E-04-1.80154E-14
 -1      1750 8.62719E-03 8.17185E-04-1.81663E-14
 -1      1751 8.90309E-03 9.24407E-04-1.81281E-14
 -1      1752 2.85256E-04-1.74299E-04-7.69106E-17
 -1      1753 3.32848E-04-1.13296E-04-1.49159E-16
 -1      1754 3.37039E-04-1.29567E-04-1.46909E-16
 -1      1755 3.43016E-04-1.48685E-04-1.42898E-16
 -1      1756 3.52498E-04-1.70848E-04-1.35552E-16
 -1      1757 4.59437E-04-1.83437E-04-2.13994E-16
 -1      1758 3.24545E-04-6.23125E-05-1.45676E-16
 -1      1759 3.25892E-04-7.33901E-05-1.47804E-16
 -1      1760 3.22663E-04-4.14853E-05-1.40499E-16
 -1      1761 3.23505E-04-5.16049E-05-1.43345E-16
 -1      1762 4.36221E-04-7.54148E-05-2.11758E-16
 -1      1763 3.21572E-04-2.23035E-05-1.33953E-16
 -1      1764 3.22042E-04-3.17186E-05-1.37436E-16
 -1      1765 4.33664E-04-4.84188E-05-2.03857E-16
 -1      1766 3.21117E-04-4.00680E-06-1.26459E-16
 -1      1767 3.21274E-04-1.30705E-05-1.30348E-16
 -1      1768 4.32230E-04-2.33258E-05-1.94221E-16
 -1      1769 3.21261E-04 1.40705E-05-1.17690E-16
 -1      1770 3.21113E-04 5.03442E-06-1.22420E-16
 -1      1771 4.31748E-04 8.22857E-07-1.83162E-16
 -1      1772 3.22036E-04 3.25944E-05-1.07824E-16
 -1      1773 3.21559E-04 2.32516E-05-1.13042E-16
 -1      1774 4.32193E-04 2.48979E-05-1.70396E-16
 -1      1775 3.23523E-04 5.19602E-05-9.65211E-17
 -1      1776 3.22667E-04 4.21102E-05-1.02538E-16
 -1      1777 4.33627E-04 4.95806E-05-1.55868E-16
 -1      1778 3.26020E-04 7.37554E-05-8.29144E-17
 -1      1779 3.24602E-04 6.25683E-05-9.03005E-17
 -1      1780 4.36249E-04 7.60839E-05-1.39184E-16
 -1      1781 3.30113E-04 9.90008E-05-6.57569E-17
 -1      1782 3.27771E-04 8.59160E-05-7.51488E-17
 -1      1783 4.40545E-04 1.05982E-04-1.19140E-16
 -1      1784 3.37425E-04 1.30068E-04-4.35985E-17
 -1      1785 3.33176E-04 1.13722E-04-5.56738E-17
 -1      1786 4.47596E-04 1.40988E-04-9.38919E-17
 -1      1787 3.53050E-04 1.71716E-04-1.39862E-17
 -1      1788 3.43471E-04 1.49363E-04-3.04525E-17
 -1      1789 4.60146E-04 1.84322E-04-6.18673E-17
 -1      1790 8.46307E-03 1.34997E-03-1.61882E-14
 -1      1791 8.63439E-03 1.25897E-03-1.66065E-14
 -1      1792 3.40481E-04-1.88182E-04-1.12161E-16
 -1      1793 3.33272E-04 1.84932E-04 7.58942E-18
 -1      1794 8.09082E-04-3.66447E-04-4.40606E-16
 -1      1795 9.55001E-04-4.05993E-04-5.96379E-16
 -1      1796 1.09864E-03-4.39019E-04-7.76018E-16
 -1      1797 1.24126E-03-4.66242E-04-9.79780E-16
 -1      1798 1.00697E-03-3.87625E-04-6.96586E-16
 -1      1799 1.38279E-03-4.89057E-04-1.20666E-15
 -1      1800 1.52379E-03-5.07781E-04-1.45650E-15
 -1      1801 1.29437E-03-4.42185E-04-1.10179E-15
 -1      1802 1.66447E-03-5.23360E-04-1.72883E-15
 -1      1803 1.80505E-03-5.36064E-04-2.02286E-15
 -1      1804 1.57911E-03-4.79751E-04-1.59740E-15
 -1      1805 1.94572E-03-5.46553E-04-2.33871E-15
 -1      1806 2.08658E-03-5.55071E-04-2.67608E-15
 -1      1807 1.86280E-03-5.05146E-04-2.18104E-15
 -1      1808 2.22778E-03-5.62115E-04-3.03410E-15
 -1      1809 2.36932E-03-5.67910E-04-3.41213E-15
 -1      1810 2.14663E-03-5.22054E-04-2.84939E-15
 -1      1811 2.51131E-03-5.72861E-04-3.81052E-15
 -1      1812 2.65371E-03-5.77171E-04-4.22904E-15
 -1      1813 2.43137E-03-5.33436E-04-3.59881E-15
 -1      1814 2.79658E-03-5.81186E-04-4.66656E-15
 -1      1815 2.93983E-03-5.85084E-04-5.12269E-15
 -1      1816 2.71747E-03-5.41795E-04-4.42624E-15
 -1      1817 3.08351E-03-5.89158E-04-5.59763E-15
 -1      1818 3.22744E-03-5.93549E-04-6.09032E-15
 -1      1819 3.00508E-03-5.49303E-04-5.32959E-15
 -1      1820 3.37169E-03-5.98484E-04-6.60070E-15
 -1      1821 3.51597E-03-6.04045E-04-7.12902E-15
 -1      1822 3.29411E-03-5.57808E-04-6.30504E-15
 -1      1823 3.66036E-03-6.10350E-04-7.67457E-15
 -1      1824 3.80450E-03-6.17391E-04-8.23662E-15
 -1      1825 3.58416E-03-5.68715E-04-7.35081E-15
 -1      1826 3.94846E-03-6.25119E-04-8.81520E-15
 -1      1827 4.09180E-03-6.33385E-04-9.41120E-15
 -1      1828 3.87450E-03-5.82718E-04-8.46404E-15
 -1      1829 4.23460E-03-6.41911E-04-1.00233E-14
 -1      1830 4.37642E-03-6.50358E-04-1.06516E-14
 -1      1831 4.16410E-03-5.99400E-04-9.64405E-15
 -1      1832 4.51729E-03-6.58170E-04-1.12955E-14
 -1      1833 4.65686E-03-6.64794E-04-1.19552E-14
 -1      1834 4.45161E-03-6.16757E-04-1.08900E-14
 -1      1835 4.79514E-03-6.69401E-04-1.26310E-14
 -1      1836 4.93197E-03-6.71256E-04-1.33216E-14
 -1      1837 4.73561E-03-6.30815E-04-1.21992E-14
 -1      1838 5.06731E-03-6.69351E-04-1.40272E-14
 -1      1839 5.20131E-03-6.62875E-04-1.47485E-14
 -1      1840 5.01489E-03-6.35598E-04-1.35693E-14
 -1      1841 5.33391E-03-6.50837E-04-1.54870E-14
 -1      1842 5.46558E-03-6.32534E-04-1.62415E-14
 -1      1843 5.28902E-03-6.23762E-04-1.50015E-14
 -1      1844 5.59624E-03-6.07240E-04-1.70129E-14
 -1      1845 5.72665E-03-5.74554E-04-1.78012E-14
 -1      1846 5.55871E-03-5.87996E-04-1.65001E-14
 -1      1847 5.85671E-03-5.34229E-04-1.86068E-14
 -1      1848 5.98727E-03-4.86293E-04-1.94302E-14
 -1      1849 5.82593E-03-5.22905E-04-1.80665E-14
 -1      1850 6.11825E-03-4.31054E-04-2.02720E-14
 -1      1851 6.25037E-03-3.68962E-04-2.11308E-14
 -1      1852 6.09344E-03-4.26652E-04-1.97047E-14
 -1      1853 6.38354E-03-3.00782E-04-2.20053E-14
 -1      1854 6.51824E-03-2.27248E-04-2.28971E-14
 -1      1855 6.36395E-03-3.01552E-04-2.14116E-14
 -1      1856 6.65439E-03-1.49361E-04-2.38045E-14
 -1      1857 6.79210E-03-6.79397E-05-2.47273E-14
 -1      1858 6.63930E-03-1.53329E-04-2.31851E-14
 -1      1859 6.93136E-03 1.60199E-05-2.56658E-14
 -1      1860 7.07200E-03 1.01789E-04-2.66188E-14
 -1      1861 6.92010E-03 1.05967E-05-2.50219E-14
 -1      1862 7.21402E-03 1.88557E-04-2.75855E-14
 -1      1863 7.35708E-03 2.75780E-04-2.85646E-14
 -1      1864 7.20584E-03 1.82944E-04-2.69177E-14
 -1      1865 7.50122E-03 3.62916E-04-2.95593E-14
 -1      1866 7.64604E-03 4.49621E-04-3.05668E-14
 -1      1867 7.49536E-03 3.57863E-04-2.88697E-14
 -1      1868 7.79159E-03 5.35613E-04-3.15865E-14
 -1      1869 7.93749E-03 6.20723E-04-3.26188E-14
 -1      1870 7.78728E-03 5.31453E-04-3.08735E-14
 -1      1871 8.08379E-03 7.04871E-04-3.36629E-14
 -1      1872 8.23019E-03 7.88006E-04-3.47191E-14
 -1      1873 8.08039E-03 7.01645E-04-3.29285E-14
 -1      1874 8.37673E-03 8.70181E-04-3.57858E-14
 -1      1875 8.52320E-03 9.51418E-04-3.68622E-14
 -1      1876 8.37373E-03 8.67770E-04-3.50292E-14
 -1      1877 8.66962E-03 1.03184E-03-3.79491E-14
 -1      1878 8.81585E-03 1.11149E-03-3.90441E-14
 -1      1879 8.66667E-03 1.03005E-03-3.71712E-14
 -1      1880 8.96193E-03 1.19052E-03-4.01474E-14
 -1      1881 9.10776E-03 1.26899E-03-4.12584E-14
 -1      1882 8.95885E-03 1.18915E-03-3.93509E-14
 -1      1883 9.25338E-03 1.34703E-03-4.23762E-14
 -1      1884 9.39874E-03 1.42471E-03-4.34990E-14
 -1      1885 9.25008E-03 1.34591E-03-4.15623E-14
 -1      1886 9.54387E-03 1.50213E-03-4.46273E-14
 -1      1887 9.68875E-03 1.57933E-03-4.57610E-14
 -1      1888 9.54035E-03 1.50110E-03-4.38006E-14
 -1      1889 9.83341E-03 1.65641E-03-4.68969E-14
 -1      1890 9.97785E-03 1.73341E-03-4.80372E-14
 -1      1891 9.82969E-03 1.65539E-03-4.60567E-14
 -1      1892 1.01221E-02 1.81036E-03-4.91828E-14
 -1      1893 1.02661E-02 1.88731E-03-5.03328E-14
 -1      1894 1.01182E-02 1.80927E-03-4.83344E-14
 -1      1895 1.04100E-02 1.96429E-03-5.14840E-14
 -1      1896 1.05537E-02 2.04132E-03-5.26399E-14
 -1      1897 1.04061E-02 1.96309E-03-5.06260E-14
 -1      1898 1.06973E-02 2.11841E-03-5.37986E-14
 -1      1899 1.08408E-02 2.19558E-03-5.49610E-14
 -1      1900 1.06933E-02 2.11708E-03-5.29329E-14
 -1      1901 1.09841E-02 2.27282E-03-5.61281E-14
 -1      1902 1.11274E-02 2.35016E-03-5.73013E-14
 -1      1903 1.09801E-02 2.27137E-03-5.52547E-14
 -1      1904 1.12706E-02 2.42758E-03-5.84814E-14
 -1      1905 1.14137E-02 2.50509E-03-5.96663E-14
 -1      1906 1.12666E-02 2.42600E-03-5.75959E-14
 -1      1907 1.15567E-02 2.58268E-03-6.08587E-14
 -1      1908 1.16997E-02 2.66035E-03-6.20600E-14
 -1      1909 1.15528E-02 2.58100E-03-5.99630E-14
 -1      1910 1.18427E-02 2.73810E-03-6.32681E-14
 -1      1911 1.19856E-02 2.81592E-03-6.44856E-14
 -1      1912 1.18388E-02 2.73633E-03-6.23575E-14
 -1      1913 1.21285E-02 2.89380E-03-6.57082E-14
 -1      1914 1.22714E-02 2.97174E-03-6.69357E-14
 -1      1915 1.21247E-02 2.89196E-03-6.47821E-14
 -1      1916 1.24143E-02 3.04974E-03-6.81713E-14
 -1      1917 1.25572E-02 3.12778E-03-6.94100E-14
 -1      1918 1.24105E-02 3.04784E-03-6.72313E-14
 -1      1919 1.27000E-02 3.20586E-03-7.06510E-14
 -1      1920 1.28429E-02 3.28398E-03-7.18938E-14
 -1      1921 1.26962E-02 3.20392E-03-6.97013E-14
 -1      1922 1.29857E-02 3.36213E-03-7.31377E-14
 -1      1923 1.31286E-02 3.44030E-03-7.43829E-14
 -1      1924 1.29819E-02 3.36016E-03-7.21814E-14
 -1      1925 1.32714E-02 3.51849E-03-7.56289E-14
 -1      1926 1.34142E-02 3.59669E-03-7.68736E-14
 -1      1927 1.32676E-02 3.51650E-03-7.46660E-14
 -1      1928 1.35392E-02 3.66509E-03-7.80058E-14
 -1      1929 1.36820E-02 3.74330E-03-7.92544E-14
 -1      1930 1.37853E-02 3.79990E-03-7.93056E-14
 -1      1931 1.35354E-02 3.66309E-03-7.70404E-14
 -1      1932 1.22775E-03 4.60790E-04-3.04959E-16
 -1      1933 1.08479E-03 4.33810E-04-2.15065E-16
 -1      1934 9.40890E-04 4.00790E-04-1.41339E-16
 -1      1935 7.94695E-04 3.60974E-04-8.33074E-17
 -1      1936 9.93093E-04 3.82526E-04-2.18589E-16
 -1      1937 1.49701E-03 4.99324E-04-5.21284E-16
 -1      1938 1.36257E-03 4.82045E-04-4.05722E-16
 -1      1939 1.27386E-03 4.35442E-04-4.04950E-16
 -1      1940 1.77966E-03 5.25549E-04-8.14846E-16
 -1      1941 1.63830E-03 5.14079E-04-6.59493E-16
 -1      1942 1.55227E-03 4.71012E-04-6.54099E-16
 -1      1943 2.06348E-03 5.40620E-04-1.17704E-15
 -1      1944 1.92131E-03 5.34317E-04-9.87153E-16
 -1      1945 1.83714E-03 4.93949E-04-9.76297E-16
 -1      1946 2.35007E-03 5.47214E-04-1.60874E-15
 -1      1947 2.20632E-03 5.44841E-04-1.38428E-15
 -1      1948 2.12277E-03 5.06439E-04-1.36727E-15
 -1      1949 2.64082E-03 5.47492E-04-2.10908E-15
 -1      1950 2.49479E-03 5.48015E-04-1.85038E-15
 -1      1951 2.41034E-03 5.10996E-04-1.82729E-15
 -1      1952 2.93716E-03 5.43495E-04-2.67673E-15
 -1      1953 2.78811E-03 5.45888E-04-2.38465E-15
 -1      1954 2.70084E-03 5.09725E-04-2.35514E-15
 -1      1955 3.22533E-03 5.37931E-04-3.27704E-15
 -1      1956 3.08022E-03 5.40770E-04-2.96966E-15
 -1      1957 2.98775E-03 5.04866E-04-2.93462E-15
 -1      1958 3.53742E-03 5.33659E-04-3.97055E-15
 -1      1959 3.37994E-03 5.35328E-04-3.61565E-15
 -1      1960 3.27905E-03 4.98834E-04-3.57579E-15
 -1      1961 3.86065E-03 5.36998E-04-4.72753E-15
 -1      1962 3.69725E-03 5.33903E-04-4.34151E-15
 -1      1963 3.58324E-03 4.95246E-04-4.29629E-15
 -1      1964 4.19774E-03 5.58763E-04-5.54659E-15
 -1      1965 4.02704E-03 5.44710E-04-5.12979E-15
 -1      1966 3.89404E-03 5.00832E-04-5.07972E-15
 -1      1967 4.55260E-03 6.17812E-04-6.42275E-15
 -1      1968 4.37261E-03 5.82034E-04-5.97760E-15
 -1      1969 4.21367E-03 5.27031E-04-5.92325E-15
 -1      1970 4.93172E-03 7.44329E-04-7.35307E-15
 -1      1971 4.73914E-03 6.69948E-04-6.88126E-15
 -1      1972 4.54752E-03 5.93278E-04-6.82246E-15
 -1      1973 5.32331E-03 9.63134E-04-8.28401E-15
 -1      1974 5.12463E-03 8.38378E-04-7.81245E-15
 -1      1975 4.89805E-03 7.25640E-04-7.75077E-15
 -1      1976 5.70486E-03 1.26290E-03-9.15995E-15
 -1      1977 5.51300E-03 1.09923E-03-8.71669E-15
 -1      1978 5.25980E-03 9.41324E-04-8.65108E-15
 -1      1979 6.63580E-03 2.10172E-03-1.13382E-14
 -1      1980 6.42033E-03 1.93994E-03-1.07746E-14
 -1      1981 7.40837E-03 2.06148E-03-1.35808E-14
 -1      1982 7.20389E-03 2.16406E-03-1.29791E-14
 -1      1983 7.82672E-03 1.78845E-03-1.48406E-14
 -1      1984 7.61672E-03 1.92684E-03-1.42007E-14
 -1      1985 8.26558E-03 1.55099E-03-1.62521E-14
 -1      1986 8.05159E-03 1.65672E-03-1.55350E-14
 -1      1987 7.99923E-03 1.65336E-03-1.54123E-14
 -1      1988 8.69584E-03 1.43258E-03-1.78204E-14
 -1      1989 8.48705E-03 1.47561E-03-1.70271E-14
 -1      1990 8.44184E-03 1.44897E-03-1.68902E-14
 -1      1991 9.09183E-03 1.43356E-03-1.94582E-14
 -1      1992 8.89844E-03 1.42103E-03-1.86312E-14
 -1      1993 8.84600E-03 1.37770E-03-1.84844E-14
 -1      1994 9.44312E-03 1.50846E-03-2.10788E-14
 -1      1995 9.27018E-03 1.46416E-03-2.02613E-14
 -1      1996 9.20306E-03 1.40999E-03-2.01054E-14
 -1      1997 9.79315E-03 1.63255E-03-2.28421E-14
 -1      1998 9.62019E-03 1.56624E-03-2.19526E-14
 -1      1999 9.53767E-03 1.50519E-03-2.17874E-14
 -1      2000 1.01275E-02 1.78119E-03-2.46592E-14
 -1      2001 9.96186E-03 1.70473E-03-2.37436E-14
 -1      2002 9.86653E-03 1.63965E-03-2.35703E-14
 -1      2003 1.04497E-02 1.94155E-03-2.65281E-14
 -1      2004 1.02898E-02 1.86041E-03-2.55871E-14
 -1      2005 1.01854E-02 1.79337E-03-2.54079E-14
 -1      2006 1.07623E-02 2.10676E-03-2.84465E-14
 -1      2007 1.06069E-02 2.02381E-03-2.74819E-14
 -1      2008 1.04965E-02 1.95606E-03-2.72947E-14
 -1      2009 1.10676E-02 2.27338E-03-3.04070E-14
 -1      2010 1.09156E-02 2.19003E-03-2.94210E-14
 -1      2011 1.08016E-02 2.12223E-03-2.92267E-14
 -1      2012 1.13525E-02 2.43146E-03-3.23106E-14
 -1      2013 1.12105E-02 2.35251E-03-3.13555E-14
 -1      2014 1.10943E-02 2.28498E-03-3.11529E-14
 -1      2015 1.16485E-02 2.59697E-03-3.43476E-14
 -1      2016 1.15009E-02 2.51437E-03-3.33231E-14
 -1      2017 1.13835E-02 2.44722E-03-3.31165E-14
 -1      2018 1.19414E-02 2.76131E-03-3.64236E-14
 -1      2019 1.17953E-02 2.67930E-03-3.53811E-14
 -1      2020 1.16772E-02 2.61258E-03-3.51669E-14
 -1      2021 1.22322E-02 2.92446E-03-3.85351E-14
 -1      2022 1.20870E-02 2.84304E-03-3.74755E-14
 -1      2023 1.19686E-02 2.77671E-03-3.72572E-14
 -1      2024 1.25214E-02 3.08650E-03-4.06836E-14
 -1      2025 1.23769E-02 3.00562E-03-3.96045E-14
 -1      2026 1.22584E-02 2.93963E-03-3.93823E-14
 -1      2027 1.28094E-02 3.24756E-03-4.28610E-14
 -1      2028 1.26655E-02 3.16715E-03-4.17687E-14
 -1      2029 1.25469E-02 3.10146E-03-4.15403E-14
 -1      2030 1.30823E-02 3.39979E-03-4.49540E-14
 -1      2031 1.29459E-02 3.32377E-03-4.39052E-14
 -1      2032 1.28274E-02 3.25832E-03-4.36725E-14
 -1      2033 1.33690E-02 3.55933E-03-4.71832E-14
 -1      2034 1.32257E-02 3.47965E-03-4.60639E-14
 -1      2035 1.31072E-02 3.41439E-03-4.58313E-14
 -1      2036 1.36553E-02 3.71828E-03-4.94357E-14
 -1      2037 1.35122E-02 3.63887E-03-4.83065E-14
 -1      2038 1.33938E-02 3.57378E-03-4.80687E-14
 -1      2039 1.39413E-02 3.87674E-03-5.17105E-14
 -1      2040 1.37983E-02 3.79756E-03-5.05703E-14
 -1      2041 1.36800E-02 3.73260E-03-5.03291E-14
 -1      2042 1.42272E-02 4.03480E-03-5.40080E-14
 -1      2043 1.40842E-02 3.95581E-03-5.28578E-14
 -1      2044 1.39660E-02 3.89095E-03-5.26135E-14
 -1      2045 1.45129E-02 4.19256E-03-5.63186E-14
 -1      2046 1.43700E-02 4.11372E-03-5.51610E-14
 -1      2047 1.42519E-02 4.04893E-03-5.49150E-14
 -1      2048 1.47843E-02 4.34221E-03-5.85259E-14
 -1      2049 1.46486E-02 4.26741E-03-5.74214E-14
 -1      2050 1.45305E-02 4.20268E-03-5.71717E-14
 -1      2051 1.50700E-02 4.49957E-03-6.08579E-14
 -1      2052 1.49272E-02 4.42091E-03-5.96912E-14
 -1      2053 1.48091E-02 4.35622E-03-5.94402E-14
 -1      2054 1.53557E-02 4.65680E-03-6.31972E-14
 -1      2055 1.52128E-02 4.57819E-03-6.20264E-14
 -1      2056 1.50948E-02 4.51353E-03-6.17776E-14
 -1      2057 1.56413E-02 4.81395E-03-6.55422E-14
 -1      2058 1.54985E-02 4.73538E-03-6.43690E-14
 -1      2059 1.53805E-02 4.67073E-03-6.41190E-14
 -1      2060 1.59270E-02 4.97108E-03-6.78922E-14
 -1      2061 1.57842E-02 4.89252E-03-6.67177E-14
 -1      2062 1.56662E-02 4.82788E-03-6.64688E-14
 -1      2063 9.03123E-03 1.08323E-03-1.77706E-14
 -1      2064 9.07642E-03 1.06165E-03-1.80553E-14
 -1      2065 1.55674E-02 4.77537E-03-7.12257E-14
 -1      2066 1.56446E-02 4.81754E-03-7.08197E-14
 -1      2067 1.57219E-02 4.85970E-03-7.04144E-14
 -1      2068 1.57992E-02 4.90186E-03-7.00082E-14
 -1      2069 1.55595E-02 4.77060E-03-6.95919E-14
 -1      2070 1.60806E-02 5.05551E-03-6.90756E-14
 -1      2071 1.54155E-02 4.69246E-03-7.20235E-14
 -1      2072 1.54914E-02 4.73392E-03-7.16250E-14
 -1      2073 1.54063E-02 4.68700E-03-7.03950E-14
 -1      2074 1.52611E-02 4.60812E-03-7.28350E-14
 -1      2075 1.53383E-02 4.65029E-03-7.24284E-14
 -1      2076 1.52532E-02 4.60340E-03-7.11982E-14
 -1      2077 1.51068E-02 4.52378E-03-7.36486E-14
 -1      2078 1.51839E-02 4.56595E-03-7.32418E-14
 -1      2079 1.50988E-02 4.51908E-03-7.20060E-14
 -1      2080 1.49526E-02 4.43943E-03-7.44613E-14
 -1      2081 1.50297E-02 4.48161E-03-7.40543E-14
 -1      2082 1.49445E-02 4.43477E-03-7.28143E-14
 -1      2083 1.47985E-02 4.35509E-03-7.52713E-14
 -1      2084 1.48755E-02 4.39726E-03-7.48671E-14
 -1      2085 1.47903E-02 4.35047E-03-7.36203E-14
 -1      2086 1.46444E-02 4.27076E-03-7.60707E-14
 -1      2087 1.47214E-02 4.31292E-03-7.56705E-14
 -1      2088 1.46362E-02 4.26616E-03-7.44196E-14
 -1      2089 1.44931E-02 4.18785E-03-7.68608E-14
 -1      2090 1.45687E-02 4.22930E-03-7.64659E-14
 -1      2091 1.44835E-02 4.18257E-03-7.52087E-14
 -1      2092 1.43392E-02 4.10352E-03-7.76625E-14
 -1      2093 1.44161E-02 4.14568E-03-7.72606E-14
 -1      2094 1.43309E-02 4.09898E-03-7.59975E-14
 -1      2095 1.41854E-02 4.01919E-03-7.84645E-14
 -1      2096 1.42623E-02 4.06135E-03-7.80639E-14
 -1      2097 1.41770E-02 4.01467E-03-7.67933E-14
 -1      2098 1.40316E-02 3.93487E-03-7.92598E-14
 -1      2099 1.41085E-02 3.97703E-03-7.88624E-14
 -1      2100 1.40232E-02 3.93036E-03-7.75869E-14
 -1      2101 8.82098E-03 1.17078E-03-1.70986E-14
 -1      2102 8.94146E-03 1.12318E-03-1.74275E-14
 -1      2103 9.07607E-03 1.03416E-03-1.82757E-14
 -1      2104 9.03396E-03 1.01474E-03-1.83969E-14
 -1      2105 3.27589E-04-8.55488E-05-1.49078E-16
 -1      2106 3.29870E-04-9.86582E-05-1.49742E-16
 -1      2107 4.47186E-04-1.40419E-04-2.19131E-16
 -1      2108 4.40362E-04-1.05477E-04-2.17423E-16
 -1      2109 7.62569E-03 1.87221E-03-1.43081E-14
 -1      2110 7.81784E-03 1.74060E-03-1.47577E-14
 -1      2111 7.23136E-03 2.09951E-03-1.33439E-14
 -1      2112 7.39773E-03 2.00742E-03-1.37775E-14
 -1      2113 6.40485E-03 1.97423E-03-1.14796E-14
 -1      2114 6.57553E-03 2.07695E-03-1.17991E-14
 -1      2115 6.02687E-03 1.68353E-03-1.08990E-14
 -1      2116 6.21621E-03 1.84119E-03-1.11879E-14
 -1      2117 6.29477E-03 1.86035E-03-1.09549E-14
 -1      2118 5.60185E-03 1.36549E-03-1.05035E-14
 -1      2119 5.81870E-03 1.52985E-03-1.07003E-14
 -1      2120 5.94254E-03 1.56438E-03-1.04814E-14
 -1      2121 5.16560E-03 1.06258E-03-1.01587E-14
 -1      2122 5.38224E-03 1.21164E-03-1.03304E-14
 -1      2123 5.54766E-03 1.25854E-03-1.01219E-14
 -1      2124 4.66001E-03 8.05319E-04-1.00043E-14
 -1      2125 4.86434E-03 9.04154E-04-1.00651E-14
 -1      2126 4.31596E-03 6.67672E-04-1.00144E-14
 -1      2127 4.45683E-03 7.17323E-04-9.98578E-15
 -1      2128 4.14247E-03 5.96786E-04-1.01320E-14
 -1      2129 4.20615E-03 6.23819E-04-1.00659E-14
 -1      2130 4.13316E-03 5.49083E-04-1.03303E-14
 -1      2131 4.11556E-03 5.66671E-04-1.02090E-14
 -1      2132 4.29589E-03 4.91649E-04-1.06908E-14
 -1      2133 4.19819E-03 5.20076E-04-1.04920E-14
 -1      2134 4.60573E-03 3.76875E-04-1.13453E-14
 -1      2135 4.45481E-03 4.34186E-04-1.10552E-14
 -1      2136 4.96229E-03 2.33666E-04-1.19354E-14
 -1      2137 4.77754E-03 3.09424E-04-1.16384E-14
 -1      2138 4.69694E-03 3.53989E-04-1.13145E-14
 -1      2139 5.38642E-03 3.08937E-05-1.28295E-14
 -1      2140 5.20679E-03 1.20600E-04-1.24250E-14
 -1      2141 5.71598E-03-1.12089E-04-1.36000E-14
 -1      2142 5.55848E-03-4.62104E-05-1.32292E-14
 -1      2143 6.03658E-03-2.04865E-04-1.44207E-14
 -1      2144 5.89469E-03-1.70086E-04-1.40388E-14
 -1      2145 6.34630E-03-2.09279E-04-1.52594E-14
 -1      2146 6.20214E-03-2.17759E-04-1.48572E-14
 -1      2147 6.68555E-03-1.08817E-04-1.61409E-14
 -1      2148 6.52995E-03-1.68431E-04-1.57622E-14
 -1      2149 7.02159E-03 6.83074E-05-1.68991E-14
 -1      2150 6.85331E-03-3.08388E-05-1.65176E-14
 -1      2151 6.72932E-03-7.37739E-05-1.65106E-14
 -1      2152 7.46984E-03 3.25408E-04-1.76023E-14
 -1      2153 7.27063E-03 2.12118E-04-1.73419E-14
 -1      2154 7.86909E-03 5.46944E-04-1.80741E-14
 -1      2155 7.66943E-03 4.34496E-04-1.78374E-14
 -1      2156 7.52699E-03 4.04887E-04-1.80257E-14
 -1      2157 8.31217E-03 7.63646E-04-1.84638E-14
 -1      2158 8.11501E-03 6.74735E-04-1.83284E-14
 -1      2159 8.69002E-03 9.06787E-04-1.85965E-14
 -1      2160 8.52669E-03 8.52869E-04-1.85803E-14
 -1      2161 8.94932E-03 9.88279E-04-1.85410E-14
 -1      2162 8.84134E-03 9.58425E-04-1.85972E-14
 -1      2163 4.53027E-04 2.30048E-04-1.23735E-17
 -1      2164 8.08006E-03 1.57260E-03-1.53520E-14
 -1      2165 8.27851E-03 1.45480E-03-1.57668E-14
 -1      2166 8.36432E-03 1.38301E-03-1.61615E-14
 -1      2167 4.59833E-04-2.32660E-04-1.79788E-16
 -1      2168 1.59626E-02 4.99086E-03-6.88294E-14
 -1      2169 1.58853E-02 4.94871E-03-6.92343E-14
 -1      2170 8.72909E-03 1.20149E-03-1.70844E-14
 -1      2171 6.09150E-04-2.92524E-04-2.77569E-16
 -1      2172 7.94241E-03 1.64778E-03-1.51332E-14
 -1      2173 6.65288E-04-2.85905E-04-3.47609E-16
 -1      2174 6.58788E-04 2.83650E-04-8.45542E-17
 -1      2175 6.02509E-04 2.90243E-04-3.83672E-17
 -1      2176 6.27167E-03 1.80403E-03-1.04984E-14
 -1      2177 5.91102E-03 1.44390E-03-9.55520E-15
 -1      2178 5.65359E-03 1.25391E-03-9.48625E-15
 -1      2179 6.85447E-03 2.20370E-03-1.19293E-14
 -1      2180 6.71091E-03 2.13776E-03-1.18301E-14
 -1      2181 6.86011E-03 2.16803E-03-1.24088E-14
 -1      2182 7.04057E-03 2.21457E-03-1.24657E-14
 -1      2183 6.14524E-03 1.67478E-03-1.01027E-14
 -1      2184 7.13798E-03 2.15978E-03-1.29502E-14
 -1      2185 5.99348E-03 1.57689E-03-1.02769E-14
 -1      2186 7.54616E-03 1.94470E-03-1.40893E-14
 -1      2187 9.08822E-03 1.05856E-03-1.85009E-14
 -1      2188 1.57229E-02 4.85960E-03-6.84161E-14
 -1      2189 8.99535E-03 1.09907E-03-1.79298E-14
 -1      2190 1.39283E-02 3.87826E-03-7.92113E-14
 -1      2191 8.99586E-03 1.02793E-03-1.88684E-14
 -1      2192 8.76352E-03 9.72376E-04-1.90141E-14
 -1      2193 7.95699E-03 6.41057E-04-1.85212E-14
 -1      2194 7.10750E-03 1.46820E-04-1.73369E-14
 -1      2195 6.42139E-03-1.98655E-04-1.56230E-14
 -1      2196 6.10913E-03-2.23263E-04-1.46821E-14
 -1      2197 5.81181E-03-1.49077E-04-1.38067E-14
 -1      2198 5.09527E-03 1.81441E-04-1.20860E-14
 -1      2199 4.98482E-03 2.31025E-04-1.17515E-14
 -1      2200 5.20793E-03 1.24506E-04-1.22345E-14
 -1      2201 4.36763E-03 4.68942E-04-1.06652E-14
 -1      2202 4.15288E-03 5.26767E-04-1.01515E-14
 -1      2203 4.12094E-03 5.59961E-04-9.91926E-15
 -1      2204 4.25850E-03 6.09906E-04-9.79303E-15
 -1      2205 7.01889E-03 2.16121E-03-1.28231E-14
 -1      2206 5.05198E-03 9.49835E-04-9.86621E-15
 -1      2207 4.56274E-03 7.18480E-04-9.75928E-15
 -1      2208 5.48814E-03-1.02816E-05-1.29715E-14
 -1      2209 8.40622E-03 8.48785E-04-1.88959E-14
 -1      2210 5.46321E-04-5.20349E-05-2.84752E-16
 -1      2211 5.47706E-04-6.80428E-05-2.90864E-16
 -1      2212 5.49518E-04-8.47584E-05-2.96231E-16
 -1      2213 5.51797E-04-1.02239E-04-3.01002E-16
 -1      2214 6.63946E-04-9.02970E-05-3.95531E-16
 -1      2215 5.44246E-04 8.49932E-06-2.55397E-16
 -1      2216 5.44271E-04-6.34731E-06-2.63434E-16
 -1      2217 5.45202E-04 3.84817E-05-2.37345E-16
 -1      2218 5.44554E-04 2.34217E-05-2.46778E-16
 -1      2219 6.58357E-04 1.89888E-05-3.40019E-16
 -1      2220 5.47582E-04 6.91990E-05-2.17193E-16
 -1      2221 5.46204E-04 5.36365E-05-2.27737E-16
 -1      2222 6.60042E-04 5.44332E-05-3.16140E-16
 -1      2223 5.51806E-04 1.03005E-04-1.93598E-16
 -1      2224 5.49444E-04 8.57186E-05-2.05985E-16
 -1      2225 6.63716E-04 9.16343E-05-2.88926E-16
 -1      2226 5.58581E-04 1.41086E-04-1.65083E-16
 -1      2227 5.54830E-04 1.21435E-04-1.80113E-16
 -1      2228 6.69955E-04 1.32482E-04-2.57010E-16
 -1      2229 5.69607E-04 1.85857E-04-1.29942E-16
 -1      2230 5.63451E-04 1.62522E-04-1.48617E-16
 -1      2231 6.79762E-04 1.78636E-04-2.18860E-16
 -1      2232 6.15917E-04 2.45707E-04-9.89334E-17
 -1      2233 6.05031E-04 2.16438E-04-1.23247E-16
 -1      2234 7.22546E-04 2.35736E-04-1.90223E-16
 -1      2235 8.02693E-04 3.07089E-04-1.65693E-16
 -1      2236 8.28829E-03 1.42422E-03-1.61420E-14
 -1      2237 8.45239E-03 1.33184E-03-1.65726E-14
 -1      2238 9.17849E-04-3.36823E-04-6.18795E-16
 -1      2239 1.06258E-03-3.68455E-04-7.97783E-16
 -1      2240 1.20656E-03-3.95119E-04-9.99512E-16
 -1      2241 1.35023E-03-4.17258E-04-1.22366E-15
 -1      2242 1.12023E-03-3.48378E-04-9.00430E-16
 -1      2243 1.49339E-03-4.35737E-04-1.46976E-15
 -1      2244 1.63632E-03-4.50869E-04-1.73783E-15
 -1      2245 1.40794E-03-3.91626E-04-1.34571E-15
 -1      2246 1.77906E-03-4.63360E-04-2.02717E-15
 -1      2247 1.92175E-03-4.73455E-04-2.33763E-15
 -1      2248 1.69495E-03-4.21370E-04-1.87712E-15
 -1      2249 2.06448E-03-4.81710E-04-2.66826E-15
 -1      2250 2.20734E-03-4.88352E-04-3.01983E-15
 -1      2251 1.98166E-03-4.41187E-04-2.49207E-15
 -1      2252 2.35042E-03-4.93828E-04-3.39088E-15
 -1      2253 2.49374E-03-4.98349E-04-3.78143E-15
 -1      2254 2.26866E-03-4.54109E-04-3.18755E-15
 -1      2255 2.63741E-03-5.02288E-04-4.19121E-15
 -1      2256 2.78139E-03-5.05844E-04-4.61973E-15
 -1      2257 2.55648E-03-4.62735E-04-3.96077E-15
 -1      2258 2.92580E-03-5.09334E-04-5.06650E-15
 -1      2259 3.07054E-03-5.12942E-04-5.53140E-15
 -1      2260 2.84560E-03-4.69348E-04-4.80894E-15
 -1      2261 3.21574E-03-5.16925E-04-6.01419E-15
 -1      2262 3.36124E-03-5.21437E-04-6.51446E-15
 -1      2263 3.13638E-03-4.75979E-04-5.72865E-15
 -1      2264 3.50716E-03-5.26654E-04-7.03247E-15
 -1      2265 3.65326E-03-5.32670E-04-7.56726E-15
 -1      2266 3.42903E-03-4.84373E-04-6.71989E-15
 -1      2267 3.79969E-03-5.39537E-04-8.11867E-15
 -1      2268 3.94609E-03-5.47238E-04-8.68699E-15
 -1      2269 3.72353E-03-4.95833E-04-7.77892E-15
 -1      2270 4.09259E-03-5.55639E-04-9.27081E-15
 -1      2271 4.23879E-03-5.64545E-04-9.87226E-15
 -1      2272 4.01948E-03-5.10895E-04-8.90409E-15
 -1      2273 4.38473E-03-5.73579E-04-1.04906E-14
 -1      2274 4.53002E-03-5.82288E-04-1.11236E-14
 -1      2275 4.31597E-03-5.28833E-04-1.00952E-14
 -1      2276 4.67462E-03-5.90017E-04-1.17722E-14
 -1      2277 4.81821E-03-5.96026E-04-1.24375E-14
 -1      2278 4.61154E-03-5.47056E-04-1.13513E-14
 -1      2279 4.96071E-03-5.99408E-04-1.31167E-14
 -1      2280 5.10202E-03-5.99186E-04-1.38107E-14
 -1      2281 4.90434E-03-5.60614E-04-1.26688E-14
 -1      2282 5.24198E-03-5.94339E-04-1.45221E-14
 -1      2283 5.38087E-03-5.83841E-04-1.52498E-14
 -1      2284 5.19271E-03-5.62211E-04-1.40484E-14
 -1      2285 5.51852E-03-5.66784E-04-1.59932E-14
 -1      2286 5.65557E-03-5.42389E-04-1.67540E-14
 -1      2287 5.47601E-03-5.43181E-04-1.54921E-14
 -1      2288 5.79189E-03-5.10129E-04-1.75331E-14
 -1      2289 5.92832E-03-4.69736E-04-1.83292E-14
 -1      2290 5.75527E-03-4.95574E-04-1.70045E-14
 -1      2291 6.06478E-03-4.21243E-04-1.91423E-14
 -1      2292 6.20209E-03-3.64992E-04-1.99744E-14
 -1      2293 6.03315E-03-4.14709E-04-1.85870E-14
 -1      2294 6.34013E-03-3.01564E-04-2.08240E-14
 -1      2295 6.47947E-03-2.31787E-04-2.16892E-14
 -1      2296 6.31292E-03-3.00901E-04-2.02405E-14
 -1      2297 6.61999E-03-1.56595E-04-2.25722E-14
 -1      2298 6.76188E-03-7.70220E-05-2.34701E-14
 -1      2299 6.59708E-03-1.59342E-04-2.19634E-14
 -1      2300 6.90501E-03 5.91112E-06-2.43833E-14
 -1      2301 7.04926E-03 9.12440E-05-2.53127E-14
 -1      2302 6.88644E-03 1.79914E-06-2.37509E-14
 -1      2303 7.19455E-03 1.78089E-04-2.62559E-14
 -1      2304 7.34054E-03 2.65728E-04-2.72134E-14
 -1      2305 7.18023E-03 1.73919E-04-2.55995E-14
 -1      2306 7.48722E-03 3.53521E-04-2.81850E-14
 -1      2307 7.63421E-03 4.41032E-04-2.91707E-14
 -1      2308 7.47675E-03 3.49914E-04-2.75054E-14
 -1      2309 7.78154E-03 5.27885E-04-3.01675E-14
 -1      2310 7.92887E-03 6.13879E-04-3.11769E-14
 -1      2311 7.77422E-03 5.25005E-04-2.94654E-14
 -1      2312 8.07627E-03 6.98859E-04-3.22000E-14
 -1      2313 8.22346E-03 7.82782E-04-3.32343E-14
 -1      2314 8.07127E-03 6.96635E-04-3.14763E-14
 -1      2315 8.37056E-03 8.65645E-04-3.42795E-14
 -1      2316 8.51735E-03 9.47496E-04-3.53353E-14
 -1      2317 8.36706E-03 8.63926E-04-3.35362E-14
 -1      2318 8.66393E-03 1.02842E-03-3.64005E-14
 -1      2319 8.81018E-03 1.10850E-03-3.74756E-14
 -1      2320 8.66126E-03 1.02704E-03-3.56361E-14
 -1      2321 8.95618E-03 1.18785E-03-3.85607E-14
 -1      2322 9.10187E-03 1.26657E-03-3.96535E-14
 -1      2323 8.95384E-03 1.18668E-03-3.77748E-14
 -1      2324 9.24729E-03 1.34479E-03-4.07543E-14
 -1      2325 9.39244E-03 1.42258E-03-4.18624E-14
 -1      2326 9.24496E-03 1.34371E-03-3.99514E-14
 -1      2327 9.53734E-03 1.50005E-03-4.29779E-14
 -1      2328 9.68201E-03 1.57727E-03-4.40978E-14
 -1      2329 9.53483E-03 1.49899E-03-4.21600E-14
 -1      2330 9.82646E-03 1.65432E-03-4.52239E-14
 -1      2331 9.97071E-03 1.73125E-03-4.63534E-14
 -1      2332 9.82369E-03 1.65321E-03-4.43931E-14
 -1      2333 1.01148E-02 1.80813E-03-4.74872E-14
 -1      2334 1.02587E-02 1.88498E-03-4.86276E-14
 -1      2335 1.01117E-02 1.80694E-03-4.66461E-14
 -1      2336 1.04024E-02 1.96185E-03-4.97712E-14
 -1      2337 1.05461E-02 2.03876E-03-5.09192E-14
 -1      2338 1.03992E-02 1.96056E-03-4.89182E-14
 -1      2339 1.06896E-02 2.11573E-03-5.20682E-14
 -1      2340 1.08330E-02 2.19277E-03-5.32229E-14
 -1      2341 1.06861E-02 2.11433E-03-5.12083E-14
 -1      2342 1.09763E-02 2.26989E-03-5.43824E-14
 -1      2343 1.11196E-02 2.34711E-03-5.55446E-14
 -1      2344 1.09727E-02 2.26839E-03-5.35115E-14
 -1      2345 1.12628E-02 2.42442E-03-5.67134E-14
 -1      2346 1.14059E-02 2.50182E-03-5.78883E-14
 -1      2347 1.12591E-02 2.42281E-03-5.58325E-14
 -1      2348 1.15489E-02 2.57932E-03-5.90683E-14
 -1      2349 1.16920E-02 2.65690E-03-6.02539E-14
 -1      2350 1.15452E-02 2.57762E-03-5.81756E-14
 -1      2351 1.18350E-02 2.73456E-03-6.14486E-14
 -1      2352 1.19779E-02 2.81230E-03-6.26522E-14
 -1      2353 1.18312E-02 2.73278E-03-6.05435E-14
 -1      2354 1.21209E-02 2.89012E-03-6.38604E-14
 -1      2355 1.22638E-02 2.96800E-03-6.50764E-14
 -1      2356 1.21171E-02 2.88828E-03-6.29412E-14
 -1      2357 1.24067E-02 3.04594E-03-6.62976E-14
 -1      2358 1.25496E-02 3.12394E-03-6.75250E-14
 -1      2359 1.24029E-02 3.04405E-03-6.53669E-14
 -1      2360 1.26924E-02 3.20198E-03-6.87572E-14
 -1      2361 1.28353E-02 3.28007E-03-6.99907E-14
 -1      2362 1.26887E-02 3.20004E-03-6.78140E-14
 -1      2363 1.29782E-02 3.35819E-03-7.12258E-14
 -1      2364 1.31210E-02 3.43634E-03-7.24637E-14
 -1      2365 1.29744E-02 3.35622E-03-7.02762E-14
 -1      2366 1.32639E-02 3.51451E-03-7.37032E-14
 -1      2367 1.34068E-02 3.59271E-03-7.49454E-14
 -1      2368 1.32602E-02 3.51253E-03-7.27451E-14
 -1      2369 1.09234E-03 3.72800E-04-3.29923E-16
 -1      2370 9.47548E-04 3.42795E-04-2.39704E-16
 -1      2371 9.04981E-04 3.04819E-04-2.56454E-16
 -1      2372 1.89511E-03 4.61847E-04-1.14387E-15
 -1      2373 1.75208E-03 4.53330E-04-9.60047E-16
 -1      2374 2.18149E-03 4.72060E-04-1.56376E-15
 -1      2375 2.03819E-03 4.68025E-04-1.34505E-15
 -1      2376 1.95323E-03 4.29580E-04-1.31797E-15
 -1      2377 2.46891E-03 4.75000E-04-2.05135E-15
 -1      2378 2.32500E-03 4.74325E-04-1.79910E-15
 -1      2379 2.23945E-03 4.37829E-04-1.76603E-15
 -1      2380 2.75781E-03 4.72748E-04-2.60722E-15
 -1      2381 2.61309E-03 4.74415E-04-2.32107E-15
 -1      2382 2.52564E-03 4.39592E-04-2.28174E-15
 -1      2383 3.03387E-03 4.67783E-04-3.19727E-15
 -1      2384 2.89556E-03 4.70507E-04-2.89508E-15
 -1      2385 2.80453E-03 4.37074E-04-2.85007E-15
 -1      2386 3.32613E-03 4.62244E-04-3.88025E-15
 -1      2387 3.17966E-03 4.64900E-04-3.53050E-15
 -1      2388 3.08282E-03 4.32513E-04-3.48059E-15
 -1      2389 3.61991E-03 4.60525E-04-4.62793E-15
 -1      2390 3.47264E-03 4.60650E-04-4.24605E-15
 -1      2391 3.36672E-03 4.28617E-04-4.19086E-15
 -1      2392 3.91532E-03 4.69491E-04-5.43703E-15
 -1      2393 3.76712E-03 4.63211E-04-5.02499E-15
 -1      2394 3.64783E-03 4.29864E-04-4.96517E-15
 -1      2395 4.21408E-03 5.00545E-04-6.30442E-15
 -1      2396 4.06374E-03 4.81348E-04-5.86391E-15
 -1      2397 3.92522E-03 4.42988E-04-5.79972E-15
 -1      2398 4.52292E-03 5.72530E-04-7.22806E-15
 -1      2399 4.36622E-03 5.29576E-04-6.75938E-15
 -1      2400 4.20016E-03 4.78498E-04-6.69128E-15
 -1      2401 4.84132E-03 7.06237E-04-8.15202E-15
 -1      2402 4.67767E-03 6.28149E-04-7.68397E-15
 -1      2403 4.47344E-03 5.50879E-04-7.61325E-15
 -1      2404 5.16827E-03 9.12375E-04-9.01945E-15
 -1      2405 4.99914E-03 7.94052E-04-8.58029E-15
 -1      2406 4.74752E-03 6.73812E-04-8.50572E-15
 -1      2407 8.29621E-03 1.45803E-03-1.63379E-14
 -1      2408 8.07726E-03 1.57605E-03-1.56258E-14
 -1      2409 9.30583E-03 1.38628E-03-2.07944E-14
 -1      2410 9.15232E-03 1.34881E-03-1.99865E-14
 -1      2411 9.61894E-03 1.49999E-03-2.25406E-14
 -1      2412 9.46339E-03 1.43843E-03-2.16609E-14
 -1      2413 9.40330E-03 1.37626E-03-2.15311E-14
 -1      2414 9.92511E-03 1.64214E-03-2.43449E-14
 -1      2415 9.77236E-03 1.56844E-03-2.34353E-14
 -1      2416 9.68960E-03 1.50189E-03-2.32978E-14
 -1      2417 1.02276E-02 1.79902E-03-2.62007E-14
 -1      2418 1.00765E-02 1.71926E-03-2.52661E-14
 -1      2419 9.97648E-03 1.64896E-03-2.51221E-14
 -1      2420 1.05272E-02 1.96278E-03-2.81062E-14
 -1      2421 1.03775E-02 1.88033E-03-2.71467E-14
 -1      2422 1.02652E-02 1.80740E-03-2.69972E-14
 -1      2423 1.08243E-02 2.12911E-03-3.00509E-14
 -1      2424 1.06759E-02 2.04578E-03-2.90739E-14
 -1      2425 1.05551E-02 1.97126E-03-2.89170E-14
 -1      2426 1.11044E-02 2.28749E-03-3.19415E-14
 -1      2427 1.09645E-02 2.20833E-03-3.09914E-14
 -1      2428 1.08381E-02 2.13300E-03-3.08289E-14
 -1      2429 1.13972E-02 2.45359E-03-3.39677E-14
 -1      2430 1.12510E-02 2.37066E-03-3.29510E-14
 -1      2431 1.11210E-02 2.29497E-03-3.27811E-14
 -1      2432 1.16884E-02 2.61860E-03-3.60319E-14
 -1      2433 1.15430E-02 2.53625E-03-3.49948E-14
 -1      2434 1.14106E-02 2.46048E-03-3.48215E-14
 -1      2435 1.19782E-02 2.78240E-03-3.81370E-14
 -1      2436 1.18334E-02 2.70066E-03-3.70809E-14
 -1      2437 1.16995E-02 2.62497E-03-3.69008E-14
 -1      2438 1.22669E-02 2.94504E-03-4.02717E-14
 -1      2439 1.21226E-02 2.86387E-03-3.91987E-14
 -1      2440 1.19878E-02 2.78833E-03-3.90158E-14
 -1      2441 1.25547E-02 3.10662E-03-4.24407E-14
 -1      2442 1.24109E-02 3.02596E-03-4.13540E-14
 -1      2443 1.22754E-02 2.95060E-03-4.11634E-14
 -1      2444 1.28276E-02 3.25927E-03-4.45301E-14
 -1      2445 1.26912E-02 3.18305E-03-4.34833E-14
 -1      2446 1.25554E-02 3.10786E-03-4.32900E-14
 -1      2447 1.31143E-02 3.41917E-03-4.67523E-14
 -1      2448 1.29710E-02 3.33931E-03-4.56373E-14
 -1      2449 1.28351E-02 3.26428E-03-4.54409E-14
 -1      2450 1.34007E-02 3.57841E-03-4.89987E-14
 -1      2451 1.32576E-02 3.49887E-03-4.78735E-14
 -1      2452 1.31215E-02 3.42398E-03-4.76753E-14
 -1      2453 1.36869E-02 3.73710E-03-5.12682E-14
 -1      2454 1.35438E-02 3.65782E-03-5.01313E-14
 -1      2455 1.34078E-02 3.58305E-03-4.99295E-14
 -1      2456 1.39729E-02 3.89535E-03-5.35604E-14
 -1      2457 1.38299E-02 3.81628E-03-5.24108E-14
 -1      2458 1.36938E-02 3.74160E-03-5.22085E-14
 -1      2459 1.42587E-02 4.05325E-03-5.58657E-14
 -1      2460 1.41158E-02 3.97434E-03-5.47114E-14
 -1      2461 1.39798E-02 3.89975E-03-5.45060E-14
 -1      2462 1.45302E-02 4.20299E-03-5.80686E-14
 -1      2463 1.43945E-02 4.12815E-03-5.69642E-14
 -1      2464 1.42585E-02 4.05362E-03-5.67582E-14
 -1      2465 1.48160E-02 4.36042E-03-6.04000E-14
 -1      2466 1.46731E-02 4.28173E-03-5.92342E-14
 -1      2467 1.45371E-02 4.20724E-03-5.90239E-14
 -1      2468 1.51017E-02 4.51770E-03-6.27426E-14
 -1      2469 1.49588E-02 4.43908E-03-6.15716E-14
 -1      2470 1.48228E-02 4.36462E-03-6.13622E-14
 -1      2471 1.53874E-02 4.67488E-03-6.50870E-14
 -1      2472 1.52445E-02 4.59630E-03-6.39133E-14
 -1      2473 1.51086E-02 4.52186E-03-6.37067E-14
 -1      2474 1.56266E-02 4.80653E-03-6.73385E-14
 -1      2475 1.54837E-02 4.72797E-03-6.61627E-14
 -1      2476 1.53478E-02 4.65353E-03-6.59539E-14
 -1      2477 1.55405E-02 4.75969E-03-6.81087E-14
 -1      2478 8.96122E-03 1.11500E-03-1.80624E-14
 -1      2479 9.04460E-03 1.09312E-03-1.84125E-14
 -1      2480 1.49365E-02 4.43006E-03-7.11745E-14
 -1      2481 1.50137E-02 4.47221E-03-7.07722E-14
 -1      2482 8.64852E-03 1.23529E-03-1.71091E-14
 -1      2483 8.82014E-03 1.16603E-03-1.76113E-14
 -1      2484 1.47822E-02 4.34579E-03-7.19778E-14
 -1      2485 1.48594E-02 4.38792E-03-7.15772E-14
 -1      2486 1.47742E-02 4.34106E-03-7.03417E-14
 -1      2487 1.46281E-02 4.26151E-03-7.27771E-14
 -1      2488 1.47051E-02 4.30365E-03-7.23781E-14
 -1      2489 1.46200E-02 4.25682E-03-7.11412E-14
 -1      2490 1.44740E-02 4.17724E-03-7.35670E-14
 -1      2491 1.45510E-02 4.21938E-03-7.31729E-14
 -1      2492 1.44658E-02 4.17258E-03-7.19294E-14
 -1      2493 1.43226E-02 4.09440E-03-7.43447E-14
 -1      2494 1.43983E-02 4.13582E-03-7.39551E-14
 -1      2495 1.43131E-02 4.08906E-03-7.27065E-14
 -1      2496 1.41687E-02 4.01012E-03-7.51320E-14
 -1      2497 1.42456E-02 4.05226E-03-7.47385E-14
 -1      2498 1.41604E-02 4.00553E-03-7.34826E-14
 -1      2499 1.40148E-02 3.92583E-03-7.59236E-14
 -1      2500 1.40917E-02 3.96797E-03-7.55281E-14
 -1      2501 1.40065E-02 3.92127E-03-7.42658E-14
 -1      2502 1.38610E-02 3.84154E-03-7.67064E-14
 -1      2503 1.39379E-02 3.88368E-03-7.63130E-14
 -1      2504 1.38526E-02 3.83700E-03-7.50462E-14
 -1      2505 1.38033E-02 3.80985E-03-7.80776E-14
 -1      2506 5.81645E-03 1.42633E-03-1.00902E-14
 -1      2507 9.04151E-03 1.05714E-03-1.92030E-14
 -1      2508 8.96207E-03 1.04764E-03-1.93501E-14
 -1      2509 1.60906E-03 4.41993E-04-7.92918E-16
 -1      2510 1.46585E-03 4.27604E-04-6.42851E-16
 -1      2511 1.66679E-03 4.12585E-04-9.38282E-16
 -1      2512 1.52446E-02 4.59828E-03-6.95652E-14
 -1      2513 1.53206E-02 4.63972E-03-6.91685E-14
 -1      2514 8.82851E-03 1.02029E-03-1.94643E-14
 -1      2515 8.68557E-03 9.84202E-04-1.94645E-14
 -1      2516 6.46246E-03-1.83615E-04-1.59831E-14
 -1      2517 6.31737E-03-2.24396E-04-1.54763E-14
 -1      2518 4.45236E-03 4.36670E-04-1.06252E-14
 -1      2519 4.30077E-03 4.74459E-04-1.02709E-14
 -1      2520 1.53919E-02 4.67863E-03-6.88377E-14
 -1      2521 1.54692E-02 4.72078E-03-6.84349E-14
 -1      2522 1.53728E-02 4.66771E-03-6.73550E-14
 -1      2523 1.52302E-02 4.58990E-03-6.80094E-14
 -1      2524 1.50905E-02 4.51417E-03-7.03704E-14
 -1      2525 1.51677E-02 4.55632E-03-6.99675E-14
 -1      2526 1.50820E-02 4.50904E-03-6.87384E-14
 -1      2527 1.49282E-02 4.42513E-03-6.95421E-14
 -1      2528 8.98504E-03 1.32453E-03-1.91505E-14
 -1      2529 8.80937E-03 1.32361E-03-1.83332E-14
 -1      2530 9.11079E-03 1.28866E-03-1.98230E-14
 -1      2531 8.66484E-03 1.34078E-03-1.77172E-14
 -1      2532 8.46505E-03 1.39420E-03-1.69301E-14
 -1      2533 8.55119E-03 1.31928E-03-1.71467E-14
 -1      2534 8.83181E-03 1.26724E-03-1.83665E-14
 -1      2535 9.09776E-03 1.07679E-03-1.88294E-14
 -1      2536 9.09269E-03 1.06986E-03-1.90540E-14
 -1      2537 5.44621E-04-2.13208E-05-2.70996E-16
 -1      2538 5.45298E-04-3.64796E-05-2.78125E-16
 -1      2539 6.60258E-04-5.23037E-05-3.79647E-16
 -1      2540 6.58441E-04-1.62870E-05-3.61094E-16
 -1      2541 1.34770E-03 4.13436E-04-5.31422E-16
 -1      2542 1.21105E-03 3.93267E-04-4.17486E-16
 -1      2543 1.16791E-03 3.55271E-04-4.38207E-16
 -1      2544 1.40505E-03 3.87636E-04-6.50847E-16
 -1      2545 7.49336E-03 1.95618E-03-1.40023E-14
 -1      2546 4.47244E-03 6.38655E-04-9.42988E-15
 -1      2547 4.65966E-03 7.08616E-04-9.44543E-15
 -1      2548 5.57578E-03-5.77167E-05-1.31355E-14
 -1      2549 5.42597E-03 1.54249E-05-1.27388E-14
 -1      2550 4.20573E-03 5.63095E-04-9.51621E-15
 -1      2551 4.30896E-03 5.87416E-04-9.46573E-15
 -1      2552 4.10372E-03 5.34036E-04-9.66302E-15
 -1      2553 4.13609E-03 5.44077E-04-9.58979E-15
 -1      2554 4.16007E-03 5.28731E-04-9.26436E-15
 -1      2555 4.16187E-03 5.05139E-04-9.89346E-15
 -1      2556 4.10995E-03 5.16456E-04-9.73994E-15
 -1      2557 4.73742E-03 3.33045E-04-1.11862E-14
 -1      2558 4.58738E-03 3.91167E-04-1.09037E-14
 -1      2559 4.48641E-03 4.04491E-04-1.05008E-14
 -1      2560 8.48829E-03 9.21756E-04-1.94417E-14
 -1      2561 8.28860E-03 8.45453E-04-1.93223E-14
 -1      2562 5.87083E-03-1.82621E-04-1.40009E-14
 -1      2563 5.72977E-03-1.25498E-04-1.35642E-14
 -1      2564 5.64523E-03-1.03958E-04-1.33229E-14
 -1      2565 6.18337E-03-2.36848E-04-1.50306E-14
 -1      2566 6.05181E-03-2.25641E-04-1.45911E-14
 -1      2567 6.24036E-03-2.35485E-04-1.53801E-14
 -1      2568 6.76851E-03-3.07656E-05-1.69451E-14
 -1      2569 6.63498E-03-1.07611E-04-1.65610E-14
 -1      2570 7.17565E-03 2.34551E-04-1.79549E-14
 -1      2571 6.96667E-03 9.43856E-05-1.75004E-14
 -1      2572 7.59326E-03 4.87595E-04-1.85395E-14
 -1      2573 7.41899E-03 3.81155E-04-1.82974E-14
 -1      2574 8.04558E-03 7.30906E-04-1.90563E-14
 -1      2575 7.81840E-03 6.11978E-04-1.87969E-14
 -1      2576 7.70844E-03 5.77981E-04-1.90730E-14
 -1      2577 7.72541E-03 1.80364E-03-1.46326E-14
 -1      2578 5.90032E-04-2.32010E-04-3.07588E-16
 -1      2579 7.83448E-04-2.96784E-04-4.77957E-16
 -1      2580 8.42959E-04-2.84678E-04-5.58947E-16
 -1      2581 5.80326E-04-2.04120E-04-3.12250E-16
 -1      2582 7.94895E-03 1.64317E-03-1.52303E-14
 -1      2583 6.69952E-04-1.31578E-04-4.07877E-16
 -1      2584 5.54697E-04-1.20754E-04-3.04851E-16
 -1      2585 5.58306E-04-1.40455E-04-3.07697E-16
 -1      2586 8.58324E-03 1.28068E-03-1.70918E-14
 -1      2587 5.59824E-03 1.23247E-03-9.68319E-15
 -1      2588 5.95406E-03-2.14731E-04-1.43386E-14
 -1      2589 9.09387E-03 1.09471E-03-1.89673E-14
 -1      2590 8.90591E-03 1.14812E-03-1.80911E-14
 -1      2591 9.08513E-03 1.08365E-03-1.95390E-14
 -1      2592 1.36267E-02 3.71314E-03-7.69220E-14
 -1      2593 1.37697E-02 3.79149E-03-7.68277E-14
 -1      2594 1.36844E-02 3.74482E-03-7.55540E-14
 -1      2595 1.35018E-02 3.64474E-03-7.57928E-14
 -1      2596 8.90644E-03 1.05544E-03-1.98050E-14
 -1      2597 5.65120E-04-1.59039E-04-3.11396E-16
 -1      2598 5.70870E-04-1.82022E-04-3.11437E-16
 -1      2599 6.99307E-04-2.20372E-04-4.25102E-16
 -1      2600 6.81427E-04-1.74597E-04-4.17946E-16
 -1      2601 8.58478E-03 9.75711E-04-1.98964E-14
 -1      2602 6.52126E-03-1.52137E-04-1.64054E-14
 -1      2603 4.25730E-03 4.45470E-04-9.81198E-15
 -1      2604 4.20699E-03 4.78495E-04-9.85412E-15
 -1      2605 4.13101E-03 4.66995E-04-9.44577E-15
 -1      2606 8.16101E-03 8.10636E-04-1.96032E-14
 -1      2607 5.30408E-03 6.74221E-05-1.23929E-14
 -1      2608 5.18318E-03 1.13475E-04-1.20524E-14
 -1      2609 5.37868E-03 1.19651E-05-1.25505E-14
 -1      2610 7.26596E-03 3.11956E-04-1.84636E-14
 -1      2611 5.41270E-03 1.09497E-03-9.52233E-15
 -1      2612 4.84598E-03 2.80012E-04-1.13280E-14
 -1      2613 4.71373E-03 3.09776E-04-1.09135E-14
 -1      2614 4.94361E-03 2.21899E-04-1.14697E-14
 -1      2615 4.08633E-03 5.04321E-04-9.41212E-15
 -1      2616 4.38187E-03 5.83256E-04-9.15653E-15
 -1      2617 4.71954E-03 6.93870E-04-9.03178E-15
 -1      2618 4.84786E-03 7.77440E-04-9.35698E-15
 -1      2619 5.10583E-03 9.13491E-04-9.44169E-15
 -1      2620 6.86340E-03 4.62360E-05-1.75495E-14
 -1      2621 1.34981E-02 3.64274E-03-7.48274E-14
 -1      2622 7.76843E-04 7.28288E-05-4.05356E-16
 -1      2623 7.75223E-04 5.23565E-05-4.21280E-16
 -1      2624 7.74161E-04 3.18806E-05-4.36310E-16
 -1      2625 7.73685E-04 1.16391E-05-4.50486E-16
 -1      2626 8.91510E-04 4.70931E-05-5.43470E-16
 -1      2627 7.90837E-04 1.63838E-04-3.28459E-16
 -1      2628 7.86056E-04 1.39433E-04-3.50143E-16
 -1      2629 8.04152E-04 2.17490E-04-2.79534E-16
 -1      2630 7.96848E-04 1.89783E-04-3.05176E-16
 -1      2631 9.14188E-04 1.96607E-04-4.07768E-16
 -1      2632 8.71868E-04 2.76232E-04-2.66023E-16
 -1      2633 8.33965E-04 2.42555E-04-2.75387E-16
 -1      2634 9.51827E-04 2.51091E-04-3.74836E-16
 -1      2635 1.01541E-03 3.05625E-04-3.60050E-16
 -1      2636 4.29298E-03 5.37100E-04-8.87494E-15
 -1      2637 4.43975E-03 5.76509E-04-8.83904E-15
 -1      2638 8.69150E-03 1.03096E-03-2.05129E-14
 -1      2639 8.51404E-03 9.77279E-04-2.04885E-14
 -1      2640 1.32355E-03-3.48046E-04-1.22526E-15
 -1      2641 1.46738E-03-3.65247E-04-1.46779E-15
 -1      2642 1.61113E-03-3.79548E-04-1.73124E-15
 -1      2643 1.75491E-03-3.91192E-04-2.01550E-15
 -1      2644 1.52799E-03-3.38151E-04-1.58948E-15
 -1      2645 1.89868E-03-4.00695E-04-2.32023E-15
 -1      2646 2.04252E-03-4.08286E-04-2.64469E-15
 -1      2647 1.81585E-03-3.60415E-04-2.15256E-15
 -1      2648 2.18647E-03-4.14401E-04-2.98923E-15
 -1      2649 2.33060E-03-4.19253E-04-3.35292E-15
 -1      2650 2.10411E-03-3.74840E-04-2.79575E-15
 -1      2651 2.47497E-03-4.23212E-04-3.73556E-15
 -1      2652 2.61963E-03-4.26488E-04-4.13684E-15
 -1      2653 2.39305E-03-3.83847E-04-3.51555E-15
 -1      2654 2.76468E-03-4.29396E-04-4.55678E-15
 -1      2655 2.91013E-03-4.32148E-04-4.99428E-15
 -1      2656 2.68315E-03-3.89635E-04-4.30966E-15
 -1      2657 3.05612E-03-4.35009E-04-5.44950E-15
 -1      2658 3.20260E-03-4.38189E-04-5.92214E-15
 -1      2659 2.97499E-03-3.94230E-04-5.17605E-15
 -1      2660 3.34974E-03-4.41897E-04-6.41283E-15
 -1      2661 3.49744E-03-4.46327E-04-6.92056E-15
 -1      2662 3.26925E-03-3.99524E-04-6.11224E-15
 -1      2663 3.64587E-03-4.51606E-04-7.44477E-15
 -1      2664 3.79482E-03-4.57868E-04-7.98615E-15
 -1      2665 3.56654E-03-4.07237E-04-7.11688E-15
 -1      2666 3.94445E-03-4.65118E-04-8.54345E-15
 -1      2667 4.09445E-03-4.73355E-04-9.11661E-15
 -1      2668 3.86720E-03-4.18740E-04-8.18788E-15
 -1      2669 4.24490E-03-4.82400E-04-9.70721E-15
 -1      2670 4.39538E-03-4.92003E-04-1.03138E-14
 -1      2671 4.17104E-03-4.34668E-04-9.32540E-15
 -1      2672 4.54587E-03-5.01735E-04-1.09359E-14
 -1      2673 4.69588E-03-5.10972E-04-1.15735E-14
 -1      2674 4.47696E-03-4.54252E-04-1.05260E-14
 -1      2675 4.84529E-03-5.18993E-04-1.22270E-14
 -1      2676 4.99368E-03-5.24738E-04-1.28956E-14
 -1      2677 4.78282E-03-4.74395E-04-1.17911E-14
 -1      2678 5.14084E-03-5.27229E-04-1.35802E-14
 -1      2679 5.28669E-03-5.25082E-04-1.42810E-14
 -1      2680 5.08577E-03-4.88832E-04-1.31182E-14
 -1      2681 5.43101E-03-5.17239E-04-1.49976E-14
 -1      2682 5.57420E-03-5.02340E-04-1.57311E-14
 -1      2683 5.38327E-03-4.88110E-04-1.45086E-14
 -1      2684 5.71613E-03-4.79554E-04-1.64814E-14
 -1      2685 5.85766E-03-4.48061E-04-1.72506E-14
 -1      2686 5.67468E-03-4.61258E-04-1.59654E-14
 -1      2687 5.99873E-03-4.07562E-04-1.80374E-14
 -1      2688 6.14040E-03-3.58119E-04-1.88407E-14
 -1      2689 5.96215E-03-3.99331E-04-1.74924E-14
 -1      2690 6.28259E-03-3.00096E-04-1.96624E-14
 -1      2691 6.42613E-03-2.34411E-04-2.05029E-14
 -1      2692 6.24991E-03-2.99140E-04-1.90914E-14
 -1      2693 6.57086E-03-1.61945E-04-2.13609E-14
 -1      2694 6.71713E-03-8.40725E-05-2.22338E-14
 -1      2695 6.54203E-03-1.64721E-04-2.07620E-14
 -1      2696 6.86472E-03-1.86091E-06-2.31236E-14
 -1      2697 7.01348E-03 8.33332E-05-2.40280E-14
 -1      2698 6.84029E-03-5.47936E-06-2.25002E-14
 -1      2699 7.16322E-03 1.70552E-04-2.49478E-14
 -1      2700 7.31351E-03 2.58779E-04-2.58827E-14
 -1      2701 7.14373E-03 1.67672E-04-2.43019E-14
 -1      2702 7.46423E-03 3.47319E-04-2.68304E-14
 -1      2703 7.61491E-03 4.35583E-04-2.77933E-14
 -1      2704 7.44974E-03 3.45588E-04-2.61620E-14
 -1      2705 7.76555E-03 5.23151E-04-2.87693E-14
 -1      2706 7.91572E-03 6.09791E-04-2.97575E-14
 -1      2707 7.75551E-03 5.22326E-04-2.80771E-14
 -1      2708 8.06553E-03 6.95306E-04-3.07581E-14
 -1      2709 8.21468E-03 7.79686E-04-3.17715E-14
 -1      2710 8.05902E-03 6.94958E-04-3.00456E-14
 -1      2711 8.36332E-03 8.62891E-04-3.27980E-14
 -1      2712 8.51128E-03 9.45022E-04-3.38331E-14
 -1      2713 8.35929E-03 8.62660E-04-3.20642E-14
 -1      2714 8.65870E-03 1.02613E-03-3.48786E-14
 -1      2715 8.80550E-03 1.10635E-03-3.59333E-14
 -1      2716 8.65620E-03 1.02579E-03-3.41265E-14
 -1      2717 8.95183E-03 1.18578E-03-3.69976E-14
 -1      2718 9.09764E-03 1.26455E-03-3.80726E-14
 -1      2719 8.95010E-03 1.18524E-03-3.62267E-14
 -1      2720 9.24306E-03 1.34276E-03-3.91560E-14
 -1      2721 9.38808E-03 1.42053E-03-4.02468E-14
 -1      2722 9.24158E-03 1.34199E-03-3.83647E-14
 -1      2723 9.53279E-03 1.49795E-03-4.13463E-14
 -1      2724 9.67720E-03 1.57510E-03-4.24530E-14
 -1      2725 9.53121E-03 1.49697E-03-4.05388E-14
 -1      2726 9.82138E-03 1.65207E-03-4.35657E-14
 -1      2727 9.96534E-03 1.72891E-03-4.46837E-14
 -1      2728 9.81952E-03 1.65091E-03-4.27424E-14
 -1      2729 1.01091E-02 1.80569E-03-4.58083E-14
 -1      2730 1.02528E-02 1.88244E-03-4.69358E-14
 -1      2731 1.01069E-02 1.80438E-03-4.49714E-14
 -1      2732 1.03963E-02 1.95920E-03-4.80672E-14
 -1      2733 1.05397E-02 2.03600E-03-4.92076E-14
 -1      2734 1.03937E-02 1.95776E-03-4.72234E-14
 -1      2735 1.06830E-02 2.11286E-03-5.03500E-14
 -1      2736 1.08262E-02 2.18980E-03-5.14948E-14
 -1      2737 1.06801E-02 2.11132E-03-4.94929E-14
 -1      2738 1.09694E-02 2.26682E-03-5.26441E-14
 -1      2739 1.11125E-02 2.34394E-03-5.37964E-14
 -1      2740 1.09662E-02 2.26519E-03-5.17801E-14
 -1      2741 1.12556E-02 2.42116E-03-5.49556E-14
 -1      2742 1.13986E-02 2.49847E-03-5.61190E-14
 -1      2743 1.12522E-02 2.41944E-03-5.40797E-14
 -1      2744 1.15416E-02 2.57588E-03-5.72874E-14
 -1      2745 1.16846E-02 2.65339E-03-5.84616E-14
 -1      2746 1.15381E-02 2.57410E-03-5.64011E-14
 -1      2747 1.18275E-02 2.73098E-03-5.96425E-14
 -1      2748 1.19705E-02 2.80866E-03-6.08311E-14
 -1      2749 1.18239E-02 2.72914E-03-5.87441E-14
 -1      2750 1.21134E-02 2.88641E-03-6.20277E-14
 -1      2751 1.22563E-02 2.96424E-03-6.32294E-14
 -1      2752 1.21097E-02 2.88452E-03-6.11170E-14
 -1      2753 1.23992E-02 3.04214E-03-6.44394E-14
 -1      2754 1.25421E-02 3.12009E-03-6.56564E-14
 -1      2755 1.23955E-02 3.04021E-03-6.35164E-14
 -1      2756 1.26849E-02 3.19810E-03-6.68765E-14
 -1      2757 1.28278E-02 3.27615E-03-6.81023E-14
 -1      2758 1.26812E-02 3.19614E-03-6.59422E-14
 -1      2759 1.29707E-02 3.35425E-03-6.93282E-14
 -1      2760 1.31136E-02 3.43238E-03-7.05567E-14
 -1      2761 1.29670E-02 3.35227E-03-6.83819E-14
 -1      2762 1.32564E-02 3.51054E-03-7.17905E-14
 -1      2763 1.33993E-02 3.58872E-03-7.30235E-14
 -1      2764 1.32527E-02 3.50854E-03-7.08372E-14
 -1      2765 8.98282E-03 1.08931E-03-2.02448E-14
 -1      2766 8.86102E-03 1.06969E-03-2.03606E-14
 -1      2767 2.29673E-03 4.04050E-04-1.97424E-15
 -1      2768 2.15418E-03 4.01554E-04-1.72799E-15
 -1      2769 2.01146E-03 3.97345E-04-1.49852E-15
 -1      2770 1.86847E-03 3.91267E-04-1.28589E-15
 -1      2771 2.06961E-03 3.65368E-04-1.68519E-15
 -1      2772 2.85245E-03 4.03086E-04-3.10521E-15
 -1      2773 2.71861E-03 4.04444E-04-2.80768E-15
 -1      2774 3.13162E-03 3.99886E-04-3.77903E-15
 -1      2775 2.99243E-03 4.01514E-04-3.43398E-15
 -1      2776 2.90514E-03 3.71058E-04-3.38221E-15
 -1      2777 3.40585E-03 3.98822E-04-4.51731E-15
 -1      2778 3.26936E-03 3.98962E-04-4.14020E-15
 -1      2779 3.17708E-03 3.70297E-04-4.08464E-15
 -1      2780 3.67277E-03 4.04358E-04-5.31884E-15
 -1      2781 3.54018E-03 4.00593E-04-4.91034E-15
 -1      2782 3.44058E-03 3.73190E-04-4.85071E-15
 -1      2783 3.93015E-03 4.22849E-04-6.17834E-15
 -1      2784 3.80244E-03 4.11722E-04-5.74100E-15
 -1      2785 3.69208E-03 3.84105E-04-5.67791E-15
 -1      2786 4.17792E-03 4.63308E-04-7.09514E-15
 -1      2787 4.05456E-03 4.39784E-04-6.62998E-15
 -1      2788 3.92768E-03 4.08502E-04-6.56304E-15
 -1      2789 4.59737E-03 6.17964E-04-8.59441E-15
 -1      2790 1.34943E-02 3.64075E-03-7.38682E-14
 -1      2791 1.35894E-02 3.69278E-03-7.47128E-14
 -1      2792 1.34906E-02 3.63875E-03-7.29099E-14
 -1      2793 1.00166E-02 1.65792E-03-2.58805E-14
 -1      2794 9.87976E-03 1.58162E-03-2.49525E-14
 -1      2795 2.57904E-03 4.05208E-04-2.51451E-15
 -1      2796 2.43714E-03 4.05217E-04-2.23434E-15
 -1      2797 2.35152E-03 3.70964E-04-2.18581E-15
 -1      2798 2.62928E-03 3.72126E-04-2.74925E-15
 -1      2799 9.48146E-03 1.37590E-03-2.22490E-14
 -1      2800 9.35141E-03 1.31884E-03-2.13764E-14
 -1      2801 1.02943E-02 1.81634E-03-2.77716E-14
 -1      2802 1.01546E-02 1.73620E-03-2.68198E-14
 -1      2803 1.00490E-02 1.66901E-03-2.66411E-14
 -1      2804 1.05764E-02 1.97936E-03-2.97066E-14
 -1      2805 1.04348E-02 1.89741E-03-2.87348E-14
 -1      2806 1.03184E-02 1.82654E-03-2.85495E-14
 -1      2807 1.08469E-02 2.13596E-03-3.15837E-14
 -1      2808 1.07113E-02 2.05752E-03-3.06412E-14
 -1      2809 1.05876E-02 1.98420E-03-3.04502E-14
 -1      2810 1.11330E-02 2.30113E-03-3.35995E-14
 -1      2811 1.09897E-02 2.21855E-03-3.25854E-14
 -1      2812 1.08608E-02 2.14365E-03-3.23906E-14
 -1      2813 1.14198E-02 2.46581E-03-3.56527E-14
 -1      2814 1.12763E-02 2.38355E-03-3.46218E-14
 -1      2815 1.11437E-02 2.30768E-03-3.44187E-14
 -1      2816 1.17067E-02 2.62962E-03-3.77462E-14
 -1      2817 1.15632E-02 2.54783E-03-3.66936E-14
 -1      2818 1.14282E-02 2.47141E-03-3.64867E-14
 -1      2819 1.19937E-02 2.79244E-03-3.98708E-14
 -1      2820 1.18502E-02 2.71116E-03-3.88059E-14
 -1      2821 1.17136E-02 2.63447E-03-3.85912E-14
 -1      2822 1.22804E-02 2.95428E-03-4.20296E-14
 -1      2823 1.21370E-02 2.87348E-03-4.09448E-14
 -1      2824 1.19993E-02 2.79668E-03-4.07281E-14
 -1      2825 1.25526E-02 3.10718E-03-4.41127E-14
 -1      2826 1.24165E-02 3.03083E-03-4.30685E-14
 -1      2827 1.22781E-02 2.95402E-03-4.28434E-14
 -1      2828 1.28390E-02 3.26735E-03-4.63278E-14
 -1      2829 1.26959E-02 3.18736E-03-4.52165E-14
 -1      2830 1.25570E-02 3.11058E-03-4.49895E-14
 -1      2831 1.31252E-02 3.42682E-03-4.85697E-14
 -1      2832 1.29821E-02 3.34717E-03-4.74460E-14
 -1      2833 1.28430E-02 3.27045E-03-4.72155E-14
 -1      2834 1.34113E-02 3.58572E-03-5.08344E-14
 -1      2835 1.32683E-02 3.50634E-03-4.96994E-14
 -1      2836 1.31289E-02 3.42968E-03-4.94663E-14
 -1      2837 1.36972E-02 3.74413E-03-5.31226E-14
 -1      2838 1.35543E-02 3.66498E-03-5.19765E-14
 -1      2839 1.34148E-02 3.58839E-03-5.17418E-14
 -1      2840 1.39831E-02 3.90216E-03-5.54238E-14
 -1      2841 1.38402E-02 3.82319E-03-5.42695E-14
 -1      2842 1.37007E-02 3.74666E-03-5.40351E-14
 -1      2843 1.42547E-02 4.05201E-03-5.76242E-14
 -1      2844 1.41189E-02 3.97712E-03-5.65238E-14
 -1      2845 1.39794E-02 3.90063E-03-5.62847E-14
 -1      2846 1.45404E-02 4.20951E-03-5.99536E-14
 -1      2847 1.43975E-02 4.13079E-03-5.87871E-14
 -1      2848 1.42580E-02 4.05434E-03-5.85492E-14
 -1      2849 1.48262E-02 4.36684E-03-6.22950E-14
 -1      2850 1.46833E-02 4.28819E-03-6.11227E-14
 -1      2851 1.45438E-02 4.21178E-03-6.08836E-14
 -1      2852 1.51119E-02 4.52405E-03-6.46416E-14
 -1      2853 1.49691E-02 4.44546E-03-6.34687E-14
 -1      2854 1.48295E-02 4.36905E-03-6.32289E-14
 -1      2855 1.52905E-02 4.62243E-03-6.65361E-14
 -1      2856 1.51942E-02 4.56934E-03-6.54589E-14
 -1      2857 1.50547E-02 4.49295E-03-6.52214E-14
 -1      2858 1.52192E-02 4.58353E-03-6.68592E-14
 -1      2859 1.44577E-02 4.16786E-03-7.02964E-14
 -1      2860 1.45348E-02 4.20996E-03-6.99013E-14
 -1      2861 8.88702E-03 1.18127E-03-1.83067E-14
 -1      2862 9.00677E-03 1.14399E-03-1.87686E-14
 -1      2863 9.12539E-03 1.10931E-03-1.99990E-14
 -1      2864 9.07410E-03 1.10492E-03-2.01510E-14
 -1      2865 1.46119E-02 4.25207E-03-6.95068E-14
 -1      2866 1.46891E-02 4.29417E-03-6.91088E-14
 -1      2867 1.44497E-02 4.16309E-03-6.86681E-14
 -1      2868 1.41515E-02 4.00053E-03-7.18460E-14
 -1      2869 1.42272E-02 4.04192E-03-7.14634E-14
 -1      2870 1.39975E-02 3.91632E-03-7.26193E-14
 -1      2871 1.40745E-02 3.95843E-03-7.22327E-14
 -1      2872 1.39886E-02 3.91131E-03-7.09868E-14
 -1      2873 1.38436E-02 3.83208E-03-7.33997E-14
 -1      2874 1.39206E-02 3.87420E-03-7.30108E-14
 -1      2875 1.38347E-02 3.82713E-03-7.17584E-14
 -1      2876 1.72535E-03 3.82900E-04-1.09054E-15
 -1      2877 1.58200E-03 3.72056E-04-9.12234E-16
 -1      2878 1.78436E-03 3.53115E-04-1.24927E-15
 -1      2879 1.36807E-02 3.74282E-03-7.45928E-14
 -1      2880 8.29854E-04-2.56439E-04-5.57727E-16
 -1      2881 9.61907E-04-2.90186E-04-7.09041E-16
 -1      2882 8.18826E-04-2.29944E-04-5.54312E-16
 -1      2883 1.43039E-02 4.08384E-03-7.10740E-14
 -1      2884 1.43810E-02 4.12594E-03-7.06863E-14
 -1      2885 1.42958E-02 4.07911E-03-6.94477E-14
 -1      2886 1.41424E-02 3.99531E-03-7.02179E-14
 -1      2887 8.72069E-03 1.24222E-03-1.76950E-14
 -1      2888 9.09051E-03 1.12079E-03-1.91940E-14
 -1      2889 9.13670E-03 1.11568E-03-1.96190E-14
 -1      2890 9.09116E-03 1.15496E-03-1.94204E-14
 -1      2891 9.74523E-03 1.50871E-03-2.40363E-14
 -1      2892 9.61207E-03 1.43948E-03-2.31356E-14
 -1      2893 9.54242E-03 1.38276E-03-2.29702E-14
 -1      2894 6.00589E-03-2.38216E-04-1.46562E-14
 -1      2895 5.85041E-03-2.01803E-04-1.40655E-14
 -1      2896 1.07071E-03-3.09994E-04-8.50001E-16
 -1      2897 1.21448E-03-3.33491E-04-1.05479E-15
 -1      2898 1.27522E-03-3.10742E-04-1.16183E-15
 -1      2899 1.05773E-03-2.79949E-04-8.44729E-16
 -1      2900 7.39706E-03 4.16465E-04-1.91802E-14
 -1      2901 7.18935E-03 2.80768E-04-1.88264E-14
 -1      2902 7.82168E-04 1.16314E-04-3.69713E-16
 -1      2903 7.79149E-04 9.41574E-05-3.88090E-16
 -1      2904 8.95483E-04 9.35765E-05-5.04127E-16
 -1      2905 9.02791E-04 1.42760E-04-4.59485E-16
 -1      2906 6.92262E-03 1.01808E-04-1.80704E-14
 -1      2907 6.74845E-03-1.42153E-05-1.75042E-14
 -1      2908 4.11145E-03 4.97317E-04-8.95892E-15
 -1      2909 4.17725E-03 5.07470E-04-8.88764E-15
 -1      2910 8.25691E-03 8.74130E-04-2.02003E-14
 -1      2911 8.03322E-03 7.70984E-04-1.99286E-14
 -1      2912 4.52195E-03 3.64853E-04-1.04089E-14
 -1      2913 4.40370E-03 4.01223E-04-1.01393E-14
 -1      2914 6.56353E-03-1.20179E-04-1.68435E-14
 -1      2915 6.41476E-03-1.89634E-04-1.62600E-14
 -1      2916 7.79579E-04-9.22434E-05-5.08762E-16
 -1      2917 7.82539E-04-1.14762E-04-5.17883E-16
 -1      2918 5.67978E-03-1.41139E-04-1.34683E-14
 -1      2919 5.54889E-03-8.05571E-05-1.30424E-14
 -1      2920 4.06206E-03 4.75526E-04-9.10594E-15
 -1      2921 4.06766E-03 4.84980E-04-9.03375E-15
 -1      2922 4.05650E-03 4.66633E-04-8.66164E-15
 -1      2923 6.27457E-03-2.30360E-04-1.57145E-14
 -1      2924 6.16164E-03-2.45196E-04-1.52649E-14
 -1      2925 7.83306E-03 6.67465E-04-1.96606E-14
 -1      2926 7.63199E-03 5.53177E-04-1.93957E-14
 -1      2927 7.95257E-03 7.40071E-04-2.02578E-14
 -1      2928 4.47493E-03 5.65032E-04-8.32173E-15
 -1      2929 8.90393E-04 1.69910E-06-5.78110E-16
 -1      2930 7.73759E-04-8.59521E-06-4.63740E-16
 -1      2931 7.74375E-04-2.89327E-05-4.76317E-16
 -1      2932 1.13380E-03 3.26035E-04-4.50527E-16
 -1      2933 1.10091E-03 2.97712E-04-4.60515E-16
 -1      2934 1.25236E-03 3.43564E-04-5.52726E-16
 -1      2935 8.80224E-03 1.07287E-03-2.09613E-14
 -1      2936 8.39831E-03 9.42817E-04-2.08215E-14
 -1      2937 1.49198E-02 4.42007E-03-6.79124E-14
 -1      2938 1.49967E-02 4.46202E-03-6.75134E-14
 -1      2939 6.63343E-03-7.36684E-05-1.73490E-14
 -1      2940 9.78924E-03 1.51933E-03-2.47803E-14
 -1      2941 9.05261E-03 1.12042E-03-2.07129E-14
 -1      2942 1.37576E-02 3.78495E-03-7.42055E-14
 -1      2943 4.43769E-03 5.43731E-04-7.97839E-15
 -1      2944 4.31606E-03 5.00792E-04-7.51469E-15
 -1      2945 8.86239E-03 1.22061E-03-1.83679E-14
 -1      2946 1.47661E-02 4.33619E-03-6.87122E-14
 -1      2947 1.48429E-02 4.37813E-03-6.83123E-14
 -1      2948 1.47576E-02 4.33111E-03-6.70863E-14
 -1      2949 7.05924E-03 2.01219E-04-1.87756E-14
 -1      2950 6.94751E-03 1.29600E-04-1.87236E-14
 -1      2951 7.19489E-03 2.95071E-04-1.94928E-14
 -1      2952 1.35811E-02 3.68833E-03-7.29308E-14
 -1      2953 1.37531E-02 3.78249E-03-7.33828E-14
 -1      2954 1.36672E-02 3.73545E-03-7.21287E-14
 -1      2955 1.34861E-02 3.63629E-03-7.20895E-14
 -1      2956 1.46038E-02 4.24718E-03-6.78806E-14
 -1      2957 4.15929E-03 4.56552E-04-7.44641E-15
 -1      2958 4.60706E-03 3.20511E-04-1.05416E-14
 -1      2959 4.50523E-03 3.19643E-04-1.01764E-14
 -1      2960 4.68847E-03 2.70766E-04-1.06748E-14
 -1      2961 9.22223E-03 1.27104E-03-2.05142E-14
 -1      2962 9.09050E-03 1.23482E-03-1.96731E-14
 -1      2963 4.06743E-03 4.56312E-04-9.06628E-15
 -1      2964 4.01771E-03 4.40015E-04-8.69440E-15
 -1      2965 4.08288E-03 4.32854E-04-9.02456E-15
 -1      2966 4.28443E-03 4.08344E-04-9.72380E-15
 -1      2967 5.74553E-03-1.85691E-04-1.37739E-14
 -1      2968 5.43145E-03-3.90487E-05-1.26894E-14
 -1      2969 5.31369E-03 9.19809E-07-1.23424E-14
 -1      2970 5.46595E-03-8.55420E-05-1.28281E-14
 -1      2971 7.86271E-04-1.38221E-04-5.25770E-16
 -1      2972 7.90837E-04-1.62846E-04-5.32438E-16
 -1      2973 9.03300E-04-1.41008E-04-6.57474E-16
 -1      2974 1.50723E-02 4.50332E-03-6.73514E-14
 -1      2975 1.51436E-02 4.54221E-03-6.70238E-14
 -1      2976 1.50613E-02 4.49693E-03-6.62035E-14
 -1      2977 1.49101E-02 4.41433E-03-6.65279E-14
 -1      2978 5.10786E-03 1.04403E-04-1.17712E-14
 -1      2979 5.03324E-03 1.63678E-04-1.16215E-14
 -1      2980 4.88768E-03 2.00193E-04-1.11976E-14
 -1      2981 8.97600E-03 1.22267E-03-1.89918E-14
 -1      2982 7.75538E-04-4.95041E-05-4.87850E-16
 -1      2983 7.77254E-04-7.05901E-05-4.98774E-16
 -1      2984 8.96146E-04-9.09273E-05-6.35207E-16
 -1      2985 8.91943E-04-4.38528E-05-6.08617E-16
 -1      2986 9.10322E-03 1.19516E-03-1.96691E-14
 -1      2987 6.05019E-03-2.49420E-04-1.49793E-14
 -1      2988 4.21271E-03 5.00334E-04-8.57609E-15
 -1      2989 4.31479E-03 5.11642E-04-8.21551E-15
 -1      2990 6.32758E-03-2.13239E-04-1.61382E-14
 -1      2991 7.53338E-03 5.06602E-04-1.97673E-14
 -1      2992 1.47647E-03 3.66191E-04-7.83770E-16
 -1      2993 1.35807E-03 3.53508E-04-6.59696E-16
 -1      2994 1.32471E-03 3.25062E-04-6.71406E-16
 -1      2995 1.53590E-03 3.39260E-04-9.18184E-16
 -1      2996 9.30986E-03 1.26688E-03-2.12149E-14
 -1      2997 1.06912E-03 2.70564E-04-4.67589E-16
 -1      2998 1.03847E-03 2.44510E-04-4.72604E-16
 -1      2999 1.18686E-03 2.87621E-04-5.71971E-16
 -1      3000 1.02994E-03 2.13330E-04-5.06431E-16
 -1      3001 6.69367E-03-2.95660E-05-1.78910E-14
 -1      3002 6.52586E-03-1.25230E-04-1.72225E-14
 -1      3003 9.17084E-03 1.17904E-03-2.01054E-14
 -1      3004 8.51484E-03 9.97898E-04-2.15474E-14
 -1      3005 8.27773E-03 9.03119E-04-2.12510E-14
 -1      3006 1.73362E-03-3.20671E-04-1.99012E-15
 -1      3007 1.87772E-03-3.28997E-04-2.28875E-15
 -1      3008 2.02197E-03-3.35638E-04-2.60705E-15
 -1      3009 2.16640E-03-3.40792E-04-2.94444E-15
 -1      3010 1.94029E-03-2.96960E-04-2.42365E-15
 -1      3011 2.31106E-03-3.44786E-04-3.30057E-15
 -1      3012 2.45599E-03-3.47819E-04-3.67526E-15
 -1      3013 2.22923E-03-3.06175E-04-3.09094E-15
 -1      3014 2.60127E-03-3.50177E-04-4.06850E-15
 -1      3015 2.74697E-03-3.52071E-04-4.47969E-15
 -1      3016 2.51929E-03-3.11187E-04-3.83276E-15
 -1      3017 2.89322E-03-3.53749E-04-4.90798E-15
 -1      3018 3.04007E-03-3.55443E-04-5.35395E-15
 -1      3019 2.81102E-03-3.13786E-04-4.64585E-15
 -1      3020 3.18771E-03-3.57366E-04-5.81771E-15
 -1      3021 3.33615E-03-3.59777E-04-6.29835E-15
 -1      3022 3.10530E-03-3.15744E-04-5.52921E-15
 -1      3023 3.48561E-03-3.62844E-04-6.79502E-15
 -1      3024 3.63604E-03-3.66838E-04-7.30877E-15
 -1      3025 3.40322E-03-3.18880E-04-6.47994E-15
 -1      3026 3.78767E-03-3.71863E-04-7.83897E-15
 -1      3027 3.94031E-03-3.78145E-04-8.38529E-15
 -1      3028 3.70588E-03-3.25071E-04-7.49607E-15
 -1      3029 4.09416E-03-3.85682E-04-8.94807E-15
 -1      3030 4.24883E-03-3.94537E-04-9.52747E-15
 -1      3031 4.01408E-03-3.36089E-04-8.57817E-15
 -1      3032 4.40442E-03-4.04531E-04-1.01237E-14
 -1      3033 4.56032E-03-4.15365E-04-1.07347E-14
 -1      3034 4.32775E-03-3.53125E-04-9.72590E-15
 -1      3035 4.71646E-03-4.26592E-04-1.13600E-14
 -1      3036 4.87210E-03-4.37303E-04-1.20024E-14
 -1      3037 4.64531E-03-3.75765E-04-1.09367E-14
 -1      3038 5.02699E-03-4.46694E-04-1.26614E-14
 -1      3039 5.18054E-03-4.53150E-04-1.33357E-14
 -1      3040 4.96337E-03-4.00364E-04-1.22106E-14
 -1      3041 5.33241E-03-4.55544E-04-1.40252E-14
 -1      3042 5.48255E-03-4.51797E-04-1.47319E-14
 -1      3043 5.27735E-03-4.18399E-04-1.35483E-14
 -1      3044 5.63068E-03-4.40729E-04-1.54549E-14
 -1      3045 5.77761E-03-4.20507E-04-1.61955E-14
 -1      3046 5.58363E-03-4.16470E-04-1.49502E-14
 -1      3047 5.92322E-03-3.90388E-04-1.69545E-14
 -1      3048 6.06895E-03-3.49743E-04-1.77312E-14
 -1      3049 5.88222E-03-3.79578E-04-1.64217E-14
 -1      3050 6.21474E-03-2.98586E-04-1.85264E-14
 -1      3051 6.36197E-03-2.37773E-04-1.93387E-14
 -1      3052 6.17787E-03-2.98060E-04-1.79655E-14
 -1      3053 6.51050E-03-1.68134E-04-2.01692E-14
 -1      3054 6.66103E-03-9.15663E-05-2.10181E-14
 -1      3055 6.47715E-03-1.72560E-04-1.95822E-14
 -1      3056 6.81325E-03-9.27138E-06-2.18824E-14
 -1      3057 6.96705E-03 7.67364E-05-2.27629E-14
 -1      3058 6.78423E-03-1.39202E-05-2.12697E-14
 -1      3059 7.12207E-03 1.65334E-04-2.36592E-14
 -1      3060 7.27769E-03 2.54997E-04-2.45701E-14
 -1      3061 7.09855E-03 1.62927E-04-2.30211E-14
 -1      3062 7.43369E-03 3.44962E-04-2.54970E-14
 -1      3063 7.58932E-03 4.34383E-04-2.64367E-14
 -1      3064 7.41622E-03 3.45073E-04-2.48359E-14
 -1      3065 7.74454E-03 5.22835E-04-2.73906E-14
 -1      3066 7.89877E-03 6.10068E-04-2.83585E-14
 -1      3067 7.73273E-03 5.24577E-04-2.67089E-14
 -1      3068 8.05211E-03 6.95894E-04-2.93386E-14
 -1      3069 8.20421E-03 7.80381E-04-3.03304E-14
 -1      3070 8.04488E-03 6.98165E-04-2.86352E-14
 -1      3071 8.35527E-03 8.63491E-04-3.13339E-14
 -1      3072 8.50511E-03 9.45429E-04-3.23504E-14
 -1      3073 8.35131E-03 8.65500E-04-3.06109E-14
 -1      3074 8.65397E-03 1.02624E-03-3.33771E-14
 -1      3075 8.80179E-03 1.10614E-03-3.44134E-14
 -1      3076 8.65205E-03 1.02758E-03-3.26331E-14
 -1      3077 8.94879E-03 1.18520E-03-3.54585E-14
 -1      3078 9.09499E-03 1.26363E-03-3.65136E-14
 -1      3079 8.94793E-03 1.18577E-03-3.46955E-14
 -1      3080 9.24057E-03 1.34150E-03-3.75787E-14
 -1      3081 9.38556E-03 1.41897E-03-3.86529E-14
 -1      3082 9.24006E-03 1.34136E-03-3.67974E-14
 -1      3083 9.53011E-03 1.49610E-03-3.97353E-14
 -1      3084 9.67427E-03 1.57301E-03-4.08252E-14
 -1      3085 9.52952E-03 1.49539E-03-3.89375E-14
 -1      3086 9.81811E-03 1.64975E-03-4.19239E-14
 -1      3087 9.96171E-03 1.72640E-03-4.30288E-14
 -1      3088 9.81718E-03 1.64862E-03-4.11101E-14
 -1      3089 1.01051E-02 1.80300E-03-4.41386E-14
 -1      3090 1.02484E-02 1.87960E-03-4.52561E-14
 -1      3091 1.01037E-02 1.80157E-03-4.33107E-14
 -1      3092 1.03915E-02 1.95623E-03-4.63799E-14
 -1      3093 1.05345E-02 2.03291E-03-4.75072E-14
 -1      3094 1.03896E-02 1.95460E-03-4.55384E-14
 -1      3095 1.06775E-02 2.10967E-03-4.86408E-14
 -1      3096 1.08205E-02 2.18651E-03-4.97765E-14
 -1      3097 1.06752E-02 2.10791E-03-4.77892E-14
 -1      3098 1.09634E-02 2.26345E-03-5.09155E-14
 -1      3099 1.11062E-02 2.34050E-03-5.20586E-14
 -1      3100 1.09607E-02 2.26161E-03-5.00556E-14
 -1      3101 1.12491E-02 2.41764E-03-5.32079E-14
 -1      3102 1.13919E-02 2.49489E-03-5.43611E-14
 -1      3103 1.12461E-02 2.41575E-03-5.23375E-14
 -1      3104 1.15348E-02 2.57225E-03-5.55177E-14
 -1      3105 1.16776E-02 2.64970E-03-5.66811E-14
 -1      3106 1.15316E-02 2.57032E-03-5.46367E-14
 -1      3107 1.18205E-02 2.72725E-03-5.78509E-14
 -1      3108 1.19633E-02 2.80488E-03-5.90255E-14
 -1      3109 1.18171E-02 2.72529E-03-5.69602E-14
 -1      3110 1.21061E-02 2.88260E-03-6.02073E-14
 -1      3111 1.22490E-02 2.96039E-03-6.13981E-14
 -1      3112 1.21027E-02 2.88062E-03-5.93044E-14
 -1      3113 1.23918E-02 3.03825E-03-6.25947E-14
 -1      3114 1.25347E-02 3.11618E-03-6.37983E-14
 -1      3115 1.23883E-02 3.03626E-03-6.16776E-14
 -1      3116 1.26776E-02 3.19416E-03-6.50092E-14
 -1      3117 1.28204E-02 3.27219E-03-6.62239E-14
 -1      3118 1.26739E-02 3.19215E-03-6.40791E-14
 -1      3119 1.29633E-02 3.35027E-03-6.74427E-14
 -1      3120 1.31061E-02 3.42839E-03-6.86612E-14
 -1      3121 1.29596E-02 3.34825E-03-6.65042E-14
 -1      3122 1.32247E-02 3.49323E-03-6.97581E-14
 -1      3123 1.33675E-02 3.57141E-03-7.09861E-14
 -1      3124 1.34581E-02 3.62097E-03-7.10085E-14
 -1      3125 1.32210E-02 3.49122E-03-6.88137E-14
 -1      3126 6.36658E-03-1.96170E-04-1.65396E-14
 -1      3127 6.23994E-03-2.35510E-04-1.59886E-14
 -1      3128 3.21768E-03 3.44017E-04-4.38750E-15
 -1      3129 3.08656E-03 3.42417E-04-4.01487E-15
 -1      3130 2.95315E-03 3.41411E-04-3.65807E-15
 -1      3131 2.81762E-03 3.41044E-04-3.31759E-15
 -1      3132 3.00059E-03 3.14244E-04-3.94014E-15
 -1      3133 3.70693E-03 3.69125E-04-6.03212E-15
 -1      3134 3.59098E-03 3.59338E-04-5.59875E-15
 -1      3135 3.92116E-03 4.00361E-04-6.94268E-15
 -1      3136 3.81693E-03 3.83235E-04-6.48030E-15
 -1      3137 3.72257E-03 3.59500E-04-6.39262E-15
 -1      3138 1.44416E-02 4.15822E-03-6.70450E-14
 -1      3139 1.45186E-02 4.20020E-03-6.66504E-14
 -1      3140 2.12787E-03 3.33817E-04-1.87856E-15
 -1      3141 1.98608E-03 3.29423E-04-1.63838E-15
 -1      3142 1.03377E-02 1.83783E-03-2.93293E-14
 -1      3143 1.02045E-02 1.75906E-03-2.83614E-14
 -1      3144 1.05958E-02 1.98982E-03-3.11955E-14
 -1      3145 1.04660E-02 1.91342E-03-3.02575E-14
 -1      3146 1.03459E-02 1.84528E-03-3.00634E-14
 -1      3147 9.17511E-03 1.14098E-03-2.02136E-14
 -1      3148 9.14324E-03 1.11579E-03-1.99784E-14
 -1      3149 1.00739E-02 1.68191E-03-2.74048E-14
 -1      3150 9.94600E-03 1.60621E-03-2.64599E-14
 -1      3151 1.00922E-02 1.69505E-03-2.81714E-14
 -1      3152 1.08728E-02 2.15181E-03-3.31988E-14
 -1      3153 1.07337E-02 2.07061E-03-3.21931E-14
 -1      3154 1.06080E-02 1.99954E-03-3.19922E-14
 -1      3155 1.11533E-02 2.31455E-03-3.52419E-14
 -1      3156 1.10126E-02 2.23313E-03-3.42150E-14
 -1      3157 1.08828E-02 2.16000E-03-3.40103E-14
 -1      3158 1.14359E-02 2.47725E-03-3.73225E-14
 -1      3159 1.12944E-02 2.39593E-03-3.62758E-14
 -1      3160 1.11615E-02 2.32146E-03-3.60660E-14
 -1      3161 1.17199E-02 2.63947E-03-3.94383E-14
 -1      3162 1.15778E-02 2.55843E-03-3.83760E-14
 -1      3163 1.14428E-02 2.48311E-03-3.81601E-14
 -1      3164 1.20047E-02 2.80103E-03-4.15847E-14
 -1      3165 1.18622E-02 2.72034E-03-4.05092E-14
 -1      3166 1.17258E-02 2.64450E-03-4.02871E-14
 -1      3167 1.22757E-02 2.95385E-03-4.36596E-14
 -1      3168 1.21402E-02 2.87752E-03-4.26183E-14
 -1      3169 1.20027E-02 2.80138E-03-4.23941E-14
 -1      3170 1.25613E-02 3.11403E-03-4.58691E-14
 -1      3171 1.24185E-02 3.03402E-03-4.47607E-14
 -1      3172 1.22803E-02 2.95772E-03-4.45302E-14
 -1      3173 1.28469E-02 3.27357E-03-4.81054E-14
 -1      3174 1.27041E-02 3.19388E-03-4.69849E-14
 -1      3175 1.25654E-02 3.11748E-03-4.67515E-14
 -1      3176 1.31327E-02 3.43256E-03-5.03652E-14
 -1      3177 1.29898E-02 3.35313E-03-4.92306E-14
 -1      3178 1.28508E-02 3.27670E-03-4.89961E-14
 -1      3179 1.34184E-02 3.59107E-03-5.26469E-14
 -1      3180 1.32755E-02 3.51187E-03-5.15022E-14
 -1      3181 1.31364E-02 3.43542E-03-5.12633E-14
 -1      3182 1.37042E-02 3.74918E-03-5.49463E-14
 -1      3183 1.35613E-02 3.67017E-03-5.37961E-14
 -1      3184 1.34220E-02 3.59374E-03-5.35544E-14
 -1      3185 1.39757E-02 3.89910E-03-5.71477E-14
 -1      3186 1.38399E-02 3.82417E-03-5.60462E-14
 -1      3187 1.37005E-02 3.74775E-03-5.58046E-14
 -1      3188 1.42614E-02 4.05666E-03-5.94763E-14
 -1      3189 1.41185E-02 3.97791E-03-5.83109E-14
 -1      3190 1.39791E-02 3.90151E-03-5.80705E-14
 -1      3191 1.45472E-02 4.21403E-03-6.18130E-14
 -1      3192 1.44043E-02 4.13537E-03-6.06409E-14
 -1      3193 1.42648E-02 4.05898E-03-6.04009E-14
 -1      3194 1.48329E-02 4.37126E-03-6.41641E-14
 -1      3195 1.46900E-02 4.29266E-03-6.29874E-14
 -1      3196 1.45506E-02 4.21628E-03-6.27448E-14
 -1      3197 4.15321E-03 4.61238E-04-7.86215E-15
 -1      3198 4.04654E-03 4.30559E-04-7.43248E-15
 -1      3199 9.58785E-03 1.39737E-03-2.36748E-14
 -1      3200 9.47669E-03 1.33400E-03-2.27816E-14
 -1      3201 1.36725E-02 3.73832E-03-7.08908E-14
 -1      3202 1.37495E-02 3.78040E-03-7.05050E-14
 -1      3203 1.38264E-02 3.82248E-03-7.01239E-14
 -1      3204 1.39034E-02 3.86455E-03-6.97437E-14
 -1      3205 1.36643E-02 3.73367E-03-6.92600E-14
 -1      3206 1.84390E-03 3.23343E-04-1.41501E-15
 -1      3207 1.70134E-03 3.15421E-04-1.20851E-15
 -1      3208 1.90381E-03 2.93675E-04-1.58722E-15
 -1      3209 7.99605E-04-1.83398E-04-5.41193E-16
 -1      3210 8.08146E-04-2.06971E-04-5.47685E-16
 -1      3211 9.37644E-04-2.36276E-04-6.97156E-16
 -1      3212 9.17200E-04-1.89496E-04-6.77789E-16
 -1      3213 9.82184E-03 1.53319E-03-2.55260E-14
 -1      3214 9.70141E-03 1.46251E-03-2.46048E-14
 -1      3215 9.84445E-03 1.54784E-03-2.62752E-14
 -1      3216 1.45954E-02 4.24211E-03-6.62564E-14
 -1      3217 1.46723E-02 4.28402E-03-6.58615E-14
 -1      3218 1.44332E-02 4.15311E-03-6.54246E-14
 -1      3219 4.30182E-03 3.64408E-04-9.59241E-15
 -1      3220 4.17797E-03 4.00725E-04-9.27673E-15
 -1      3221 6.08784E-03-2.57452E-04-1.53463E-14
 -1      3222 5.94786E-03-2.53022E-04-1.47359E-14
 -1      3223 9.12126E-03 1.15264E-03-2.12746E-14
 -1      3224 9.03273E-03 1.13893E-03-2.13685E-14
 -1      3225 9.37242E-03 1.27665E-03-2.18978E-14
 -1      3226 9.27242E-03 1.22388E-03-2.10295E-14
 -1      3227 9.41348E-03 1.29121E-03-2.25855E-14
 -1      3228 1.42873E-02 4.07409E-03-6.78266E-14
 -1      3229 1.43644E-02 4.11615E-03-6.74378E-14
 -1      3230 1.42792E-02 4.06918E-03-6.62073E-14
 -1      3231 3.47052E-03 3.51853E-04-5.18039E-15
 -1      3232 3.34574E-03 3.47228E-04-4.77590E-15
 -1      3233 3.50047E-03 3.34881E-04-5.51475E-15
 -1      3234 9.15514E-03 1.13817E-03-2.05975E-14
 -1      3235 1.01040E-03 6.45171E-05-6.60428E-16
 -1      3236 1.00896E-03 3.94421E-05-6.82438E-16
 -1      3237 4.08593E-03 4.56139E-04-8.21287E-15
 -1      3238 4.18014E-03 4.75780E-04-8.20183E-15
 -1      3239 5.77757E-03-2.21205E-04-1.40298E-14
 -1      3240 5.62636E-03-1.70082E-04-1.34345E-14
 -1      3241 3.99025E-03 4.34344E-04-8.35488E-15
 -1      3242 4.02480E-03 4.43119E-04-8.28546E-15
 -1      3243 3.98700E-03 4.24388E-04-7.91656E-15
 -1      3244 7.69939E-03 6.09596E-04-2.04513E-14
 -1      3245 7.49168E-03 4.84065E-04-2.02276E-14
 -1      3246 1.44600E-03-2.97692E-04-1.45257E-15
 -1      3247 1.58973E-03-3.10298E-04-1.71113E-15
 -1      3248 1.65226E-03-2.81676E-04-1.83259E-15
 -1      3249 8.90820E-03 1.11483E-03-2.15282E-14
 -1      3250 8.75929E-03 1.08023E-03-2.16816E-14
 -1      3251 9.00524E-03 1.15269E-03-2.21006E-14
 -1      3252 8.05580E-03 8.00117E-04-2.10024E-14
 -1      3253 7.87609E-03 7.07526E-04-2.07264E-14
 -1      3254 7.82037E-03 6.75992E-04-2.11973E-14
 -1      3255 9.23343E-03 1.18487E-03-2.07698E-14
 -1      3256 9.24526E-03 1.18773E-03-2.11384E-14
 -1      3257 6.82370E-03 5.28722E-05-1.85908E-14
 -1      3258 6.71408E-03-1.35153E-05-1.84534E-14
 -1      3259 6.95393E-03 1.36837E-04-1.93007E-14
 -1      3260 8.65541E-03 1.05528E-03-2.21240E-14
 -1      3261 8.55611E-03 1.02381E-03-2.25665E-14
 -1      3262 8.78499E-03 1.10416E-03-2.27073E-14
 -1      3263 6.13288E-03-2.56005E-04-1.57334E-14
 -1      3264 3.25782E-03 3.21103E-04-4.69675E-15
 -1      3265 6.43240E-03-1.64958E-04-1.70638E-14
 -1      3266 9.19080E-03 1.16385E-03-2.11000E-14
 -1      3267 9.16334E-03 1.15777E-03-2.11200E-14
 -1      3268 2.73481E-03 3.10783E-04-3.25228E-15
 -1      3269 2.68227E-03 3.40597E-04-2.99744E-15
 -1      3270 2.54551E-03 3.40035E-04-2.69363E-15
 -1      3271 4.08691E-03 3.61061E-04-8.77511E-15
 -1      3272 4.08660E-03 3.99297E-04-8.90168E-15
 -1      3273 4.00849E-03 3.91082E-04-8.53282E-15
 -1      3274 1.00833E-03 1.45420E-05-7.03119E-16
 -1      3275 1.00851E-03-1.03367E-05-7.22702E-16
 -1      3276 1.12746E-03 2.95060E-05-8.38278E-16
 -1      3277 4.43251E-03 2.92713E-04-9.84361E-15
 -1      3278 4.36702E-03 3.31073E-04-9.71823E-15
 -1      3279 4.24088E-03 3.31175E-04-9.26981E-15
 -1      3280 1.01365E-03-8.64542E-05-7.74297E-16
 -1      3281 1.01693E-03-1.12936E-04-7.89177E-16
 -1      3282 1.03413E-03-2.28352E-04-8.24915E-16
 -1      3283 1.04538E-03-2.53639E-04-8.35568E-16
 -1      3284 1.15364E-03-2.69103E-04-9.86204E-16
 -1      3285 2.40686E-03 3.38826E-04-2.40523E-15
 -1      3286 2.26813E-03 3.36906E-04-2.13466E-15
 -1      3287 2.18534E-03 3.02812E-04-2.07730E-15
 -1      3288 2.46289E-03 3.07786E-04-2.63220E-15
 -1      3289 1.46017E-02 4.24493E-03-6.44765E-14
 -1      3290 1.47640E-02 4.33398E-03-6.53031E-14
 -1      3291 3.93881E-03 4.04125E-04-7.34260E-15
 -1      3292 1.49791E-02 4.45165E-03-6.53843E-14
 -1      3293 5.16601E-03 4.69346E-05-1.19041E-14
 -1      3294 5.01989E-03 8.51768E-05-1.14738E-14
 -1      3295 5.20842E-03-7.99480E-06-1.20353E-14
 -1      3296 7.35864E-03 4.00684E-04-2.01726E-14
 -1      3297 7.23972E-03 3.21366E-04-2.01159E-14
 -1      3298 7.52156E-03 4.99352E-04-2.08621E-14
 -1      3299 1.61966E-03 2.78277E-04-1.16386E-15
 -1      3300 1.55863E-03 3.05254E-04-1.01938E-15
 -1      3301 9.16362E-03 1.17949E-03-2.17840E-14
 -1      3302 1.38179E-02 3.81759E-03-6.85035E-14
 -1      3303 1.39801E-02 3.90643E-03-6.93625E-14
 -1      3304 1.40568E-02 3.94832E-03-6.89808E-14
 -1      3305 3.97022E-03 4.18890E-04-8.31684E-15
 -1      3306 4.76634E-03 2.18943E-04-1.08171E-14
 -1      3307 4.64937E-03 2.27461E-04-1.04438E-14
 -1      3308 4.83603E-03 1.64398E-04-1.09603E-14
 -1      3309 5.82627E-03-2.50258E-04-1.43811E-14
 -1      3310 5.51874E-03-1.41001E-04-1.30749E-14
 -1      3311 5.40969E-03-1.10499E-04-1.27196E-14
 -1      3312 5.55506E-03-1.88343E-04-1.33209E-14
 -1      3313 1.02111E-03-1.40285E-04-8.02676E-16
 -1      3314 1.02620E-03-1.68646E-04-8.14642E-16
 -1      3315 1.13949E-03-1.36372E-04-9.60224E-16
 -1      3316 1.48396E-02 4.37527E-03-6.51437E-14
 -1      3317 9.61733E-03 1.41241E-03-2.44057E-14
 -1      3318 1.41337E-02 3.99026E-03-6.85970E-14
 -1      3319 1.42104E-02 4.03214E-03-6.82137E-14
 -1      3320 1.41252E-02 3.98522E-03-6.69820E-14
 -1      3321 1.39715E-02 3.90137E-03-6.77460E-14
 -1      3322 8.19983E-03 8.69864E-04-2.17316E-14
 -1      3323 9.27195E-03 1.20911E-03-2.16694E-14
 -1      3324 1.18063E-03 2.30387E-04-6.53991E-16
 -1      3325 1.05693E-03 1.85953E-04-5.72879E-16
 -1      3326 1.45325E-03 3.00057E-04-8.83300E-16
 -1      3327 1.01271E-03 8.98880E-05-6.37430E-16
 -1      3328 1.13070E-03 8.35739E-05-7.86968E-16
 -1      3329 1.01589E-03 1.15828E-04-6.12479E-16
 -1      3330 1.35200E-02 3.65486E-03-7.09425E-14
 -1      3331 1.36106E-02 3.70443E-03-7.09599E-14
 -1      3332 1.35253E-02 3.65773E-03-6.97092E-14
 -1      3333 1.34015E-02 3.58997E-03-6.98432E-14
 -1      3334 1.26219E-03-2.82581E-04-1.14955E-15
 -1      3335 1.05105E-03 1.57298E-04-6.03060E-16
 -1      3336 1.32489E-03-2.59307E-04-1.25388E-15
 -1      3337 1.85940E-03-2.59062E-04-2.24567E-15
 -1      3338 2.00352E-03-2.64285E-04-2.55682E-15
 -1      3339 1.02385E-03-2.04125E-04-8.13003E-16
 -1      3340 2.14788E-03-2.68197E-04-2.88714E-15
 -1      3341 2.29253E-03-2.70961E-04-3.23542E-15
 -1      3342 2.06725E-03-2.30984E-04-2.68873E-15
 -1      3343 2.43750E-03-2.72806E-04-3.60217E-15
 -1      3344 2.58285E-03-2.73909E-04-3.98755E-15
 -1      3345 2.35616E-03-2.35168E-04-3.37798E-15
 -1      3346 2.72869E-03-2.74474E-04-4.38913E-15
 -1      3347 2.87513E-03-2.74713E-04-4.80875E-15
 -1      3348 2.64654E-03-2.35987E-04-4.13852E-15
 -1      3349 3.02233E-03-2.74808E-04-5.24590E-15
 -1      3350 3.17042E-03-2.75028E-04-5.70004E-15
 -1      3351 2.93914E-03-2.34827E-04-4.96886E-15
 -1      3352 3.31963E-03-2.75536E-04-6.17057E-15
 -1      3353 3.47007E-03-2.76676E-04-6.65710E-15
 -1      3354 3.23524E-03-2.33232E-04-5.86704E-15
 -1      3355 3.62203E-03-2.78595E-04-7.16046E-15
 -1      3356 3.77552E-03-2.81709E-04-7.67977E-15
 -1      3357 3.53651E-03-2.33073E-04-6.83081E-15
 -1      3358 3.93087E-03-2.86133E-04-8.21507E-15
 -1      3359 4.08787E-03-2.92280E-04-8.76659E-15
 -1      3360 3.84478E-03-2.36677E-04-7.85846E-15
 -1      3361 4.24680E-03-3.00200E-04-9.33501E-15
 -1      3362 4.40713E-03-3.10105E-04-9.92027E-15
 -1      3363 4.16150E-03-2.46753E-04-8.95150E-15
 -1      3364 4.56899E-03-3.21874E-04-1.05195E-14
 -1      3365 4.73144E-03-3.35166E-04-1.11341E-14
 -1      3366 4.48682E-03-2.65784E-04-1.01079E-14
 -1      3367 4.89435E-03-3.49518E-04-1.17657E-14
 -1      3368 5.05651E-03-3.63516E-04-1.24136E-14
 -1      3369 4.81845E-03-2.94332E-04-1.13285E-14
 -1      3370 5.21751E-03-3.76186E-04-1.30770E-14
 -1      3371 5.37651E-03-3.84868E-04-1.37561E-14
 -1      3372 5.15094E-03-3.27917E-04-1.26114E-14
 -1      3373 5.53297E-03-3.88117E-04-1.44519E-14
 -1      3374 5.68712E-03-3.82714E-04-1.51642E-14
 -1      3375 5.47701E-03-3.53576E-04-1.39591E-14
 -1      3376 5.83854E-03-3.67031E-04-1.58947E-14
 -1      3377 5.98917E-03-3.39058E-04-1.66440E-14
 -1      3378 5.79186E-03-3.50671E-04-1.53741E-14
 -1      3379 6.13862E-03-2.98066E-04-1.74108E-14
 -1      3380 6.28947E-03-2.44388E-04-1.81958E-14
 -1      3381 6.09782E-03-2.97507E-04-1.68611E-14
 -1      3382 6.44142E-03-1.78548E-04-1.90000E-14
 -1      3383 6.59605E-03-1.03119E-04-1.98223E-14
 -1      3384 6.40454E-03-1.86322E-04-1.84225E-14
 -1      3385 6.75294E-03-1.96605E-05-2.06605E-14
 -1      3386 6.91220E-03 6.87572E-05-2.15171E-14
 -1      3387 6.72035E-03-2.75513E-05-2.00576E-14
 -1      3388 7.07339E-03 1.60558E-04-2.23902E-14
 -1      3389 7.23538E-03 2.53365E-04-2.32773E-14
 -1      3390 7.04697E-03 1.57240E-04-2.17623E-14
 -1      3391 7.39791E-03 3.46234E-04-2.41810E-14
 -1      3392 7.55974E-03 4.37881E-04-2.50993E-14
 -1      3393 7.37892E-03 3.47779E-04-2.35309E-14
 -1      3394 7.72075E-03 5.27882E-04-2.60317E-14
 -1      3395 7.88013E-03 6.15977E-04-2.69778E-14
 -1      3396 7.70879E-03 5.32519E-04-2.53592E-14
 -1      3397 8.03798E-03 7.02062E-04-2.79366E-14
 -1      3398 8.19383E-03 7.86365E-04-2.89088E-14
 -1      3399 8.03156E-03 7.07606E-04-2.72427E-14
 -1      3400 8.34795E-03 8.68908E-04-2.98919E-14
 -1      3401 8.50018E-03 9.50088E-04-3.08863E-14
 -1      3402 8.34535E-03 8.73840E-04-2.91771E-14
 -1      3403 8.65083E-03 1.02997E-03-3.18943E-14
 -1      3404 8.79994E-03 1.10893E-03-3.29125E-14
 -1      3405 8.65047E-03 1.03356E-03-3.11594E-14
 -1      3406 8.94777E-03 1.18704E-03-3.39383E-14
 -1      3407 9.09446E-03 1.26459E-03-3.49750E-14
 -1      3408 8.94845E-03 1.18913E-03-3.31860E-14
 -1      3409 9.24021E-03 1.34163E-03-3.60219E-14
 -1      3410 9.38517E-03 1.41837E-03-3.70788E-14
 -1      3411 9.24111E-03 1.34238E-03-3.52504E-14
 -1      3412 9.52950E-03 1.49486E-03-3.81447E-14
 -1      3413 9.67332E-03 1.57123E-03-3.92176E-14
 -1      3414 9.53012E-03 1.49456E-03-3.73550E-14
 -1      3415 9.81674E-03 1.64751E-03-4.03009E-14
 -1      3416 9.95987E-03 1.72379E-03-4.13913E-14
 -1      3417 9.81684E-03 1.64646E-03-3.94955E-14
 -1      3418 1.01028E-02 1.80008E-03-4.24878E-14
 -1      3419 1.02455E-02 1.87643E-03-4.35913E-14
 -1      3420 1.01022E-02 1.79852E-03-4.16680E-14
 -1      3421 1.03881E-02 1.95286E-03-4.47017E-14
 -1      3422 1.05307E-02 2.02939E-03-4.58181E-14
 -1      3423 1.03870E-02 1.95100E-03-4.38693E-14
 -1      3424 1.06732E-02 2.10602E-03-4.69406E-14
 -1      3425 1.08157E-02 2.18277E-03-4.80682E-14
 -1      3426 1.06715E-02 2.10399E-03-4.60962E-14
 -1      3427 1.09583E-02 2.25964E-03-4.91984E-14
 -1      3428 1.11008E-02 2.33663E-03-5.03301E-14
 -1      3429 1.09561E-02 2.25752E-03-4.83432E-14
 -1      3430 1.12433E-02 2.41373E-03-5.14686E-14
 -1      3431 1.13859E-02 2.49095E-03-5.26133E-14
 -1      3432 1.12407E-02 2.41159E-03-5.06050E-14
 -1      3433 1.15285E-02 2.56828E-03-5.37590E-14
 -1      3434 1.16712E-02 2.64572E-03-5.49113E-14
 -1      3435 1.15256E-02 2.56614E-03-5.28825E-14
 -1      3436 1.18138E-02 2.72325E-03-5.60704E-14
 -1      3437 1.19565E-02 2.80087E-03-5.72359E-14
 -1      3438 1.18107E-02 2.72111E-03-5.51840E-14
 -1      3439 1.20992E-02 2.87857E-03-5.84071E-14
 -1      3440 1.22420E-02 2.95636E-03-5.95820E-14
 -1      3441 1.20959E-02 2.87646E-03-5.75103E-14
 -1      3442 1.23848E-02 3.03421E-03-6.07683E-14
 -1      3443 1.25275E-02 3.11213E-03-6.19600E-14
 -1      3444 1.23813E-02 3.03211E-03-5.98614E-14
 -1      3445 1.26703E-02 3.19011E-03-6.31546E-14
 -1      3446 1.28131E-02 3.26814E-03-6.43599E-14
 -1      3447 1.26668E-02 3.18802E-03-6.22382E-14
 -1      3448 1.29560E-02 3.34621E-03-6.55693E-14
 -1      3449 1.30988E-02 3.42433E-03-6.67822E-14
 -1      3450 1.29524E-02 3.34414E-03-6.46383E-14
 -1      3451 9.62892E-03 1.42604E-03-2.50750E-14
 -1      3452 9.52691E-03 1.36388E-03-2.41408E-14
 -1      3453 3.74466E-03 3.54162E-04-6.75888E-15
 -1      3454 3.64271E-03 3.36579E-04-6.30018E-15
 -1      3455 6.47605E-03-1.41548E-04-1.75642E-14
 -1      3456 6.32714E-03-2.06545E-04-1.68744E-14
 -1      3457 1.01116E-03-6.06387E-05-7.58318E-16
 -1      3458 1.13193E-03-7.91625E-05-9.25177E-16
 -1      3459 1.00946E-03-3.53506E-05-7.41323E-16
 -1      3460 1.16900E-03 1.54237E-04-7.48438E-16
 -1      3461 1.06175E-02 2.00921E-03-3.27915E-14
 -1      3462 1.04829E-02 1.93050E-03-3.17899E-14
 -1      3463 1.03568E-02 1.85663E-03-3.08478E-14
 -1      3464 1.02326E-02 1.78357E-03-2.99140E-14
 -1      3465 1.03644E-02 1.86731E-03-3.16352E-14
 -1      3466 3.88817E-03 3.92274E-04-7.40955E-15
 -1      3467 1.11685E-02 2.32836E-03-3.68931E-14
 -1      3468 1.10293E-02 2.24814E-03-3.58533E-14
 -1      3469 1.14489E-02 2.48898E-03-3.89996E-14
 -1      3470 1.13084E-02 2.40864E-03-3.79423E-14
 -1      3471 1.11745E-02 2.33504E-03-3.77233E-14
 -1      3472 1.17312E-02 2.64953E-03-4.11401E-14
 -1      3473 1.15898E-02 2.56927E-03-4.00656E-14
 -1      3474 1.14543E-02 2.49469E-03-3.98419E-14
 -1      3475 1.20004E-02 2.80176E-03-4.32031E-14
 -1      3476 1.18657E-02 2.72569E-03-4.21687E-14
 -1      3477 1.17290E-02 2.65047E-03-4.19420E-14
 -1      3478 1.22847E-02 2.96158E-03-4.54027E-14
 -1      3479 1.21425E-02 2.88173E-03-4.42987E-14
 -1      3480 1.20049E-02 2.80609E-03-4.40679E-14
 -1      3481 1.25695E-02 3.12092E-03-4.76323E-14
 -1      3482 1.24270E-02 3.04131E-03-4.65143E-14
 -1      3483 1.22889E-02 2.96539E-03-4.62769E-14
 -1      3484 1.28546E-02 3.27981E-03-4.98850E-14
 -1      3485 1.27120E-02 3.20042E-03-4.87559E-14
 -1      3486 1.25734E-02 3.12433E-03-4.85140E-14
 -1      3487 1.31400E-02 3.43828E-03-5.21637E-14
 -1      3488 1.29973E-02 3.35910E-03-5.10223E-14
 -1      3489 1.28584E-02 3.28290E-03-5.07775E-14
 -1      3490 1.34256E-02 3.59639E-03-5.44613E-14
 -1      3491 1.32828E-02 3.51738E-03-5.33100E-14
 -1      3492 1.31437E-02 3.44112E-03-5.30652E-14
 -1      3493 1.36969E-02 3.74632E-03-5.66622E-14
 -1      3494 1.35612E-02 3.67139E-03-5.55598E-14
 -1      3495 1.34220E-02 3.59509E-03-5.53136E-14
 -1      3496 1.39826E-02 3.90390E-03-5.89911E-14
 -1      3497 1.38397E-02 3.82514E-03-5.78245E-14
 -1      3498 1.37004E-02 3.74881E-03-5.75788E-14
 -1      3499 1.42683E-02 4.06128E-03-6.13282E-14
 -1      3500 1.41254E-02 3.98261E-03-6.01598E-14
 -1      3501 1.39860E-02 3.90628E-03-5.99132E-14
 -1      3502 1.45064E-02 4.19244E-03-6.34893E-14
 -1      3503 1.43636E-02 4.11383E-03-6.23112E-14
 -1      3504 1.42241E-02 4.03749E-03-6.20691E-14
 -1      3505 1.44147E-02 4.14252E-03-6.40430E-14
 -1      3506 1.21240E-03-2.20493E-04-1.07957E-15
 -1      3507 1.39529E-03-2.33238E-04-1.37019E-15
 -1      3508 6.18367E-03-2.50328E-04-1.62111E-14
 -1      3509 6.04147E-03-2.73971E-04-1.55634E-14
 -1      3510 6.23143E-03-2.39272E-04-1.66941E-14
 -1      3511 1.41170E-02 3.98021E-03-6.53697E-14
 -1      3512 1.41941E-02 4.02223E-03-6.49828E-14
 -1      3513 1.68137E-03 2.51035E-04-1.31568E-15
 -1      3514 1.53953E-03 2.42051E-04-1.11547E-15
 -1      3515 9.23943E-03 1.21573E-03-2.23511E-14
 -1      3516 9.19606E-03 1.21004E-03-2.25076E-14
 -1      3517 1.96432E-03 2.64193E-04-1.76659E-15
 -1      3518 1.82300E-03 2.58360E-04-1.53261E-15
 -1      3519 1.74373E-03 2.23529E-04-1.47445E-15
 -1      3520 3.29984E-03 3.01161E-04-5.01191E-15
 -1      3521 3.17616E-03 2.94609E-04-4.61249E-15
 -1      3522 1.29232E-03 2.97446E-04-6.80581E-16
 -1      3523 9.85798E-03 1.56285E-03-2.70271E-14
 -1      3524 9.74099E-03 1.49346E-03-2.60880E-14
 -1      3525 3.94631E-03 3.94783E-04-8.20017E-15
 -1      3526 3.90678E-03 3.92351E-04-7.87252E-15
 -1      3527 3.92684E-03 3.66904E-04-8.08231E-15
 -1      3528 1.42660E-02 4.06143E-03-6.47073E-14
 -1      3529 1.43428E-02 4.10330E-03-6.43176E-14
 -1      3530 1.42475E-02 4.05081E-03-6.33283E-14
 -1      3531 1.41037E-02 3.97242E-03-6.38737E-14
 -1      3532 8.33208E-03 9.31002E-04-2.24983E-14
 -1      3533 8.13171E-03 8.36883E-04-2.22395E-14
 -1      3534 1.35021E-02 3.64489E-03-6.83955E-14
 -1      3535 1.35791E-02 3.68692E-03-6.80187E-14
 -1      3536 5.85962E-03-2.75519E-04-1.47392E-14
 -1      3537 5.70241E-03-2.50428E-04-1.40333E-14
 -1      3538 7.97193E-03 7.55426E-04-2.19559E-14
 -1      3539 7.81203E-03 6.67871E-04-2.16721E-14
 -1      3540 8.11676E-03 8.25123E-04-2.27260E-14
 -1      3541 1.31644E-03 2.66601E-04-7.63780E-16
 -1      3542 1.34128E-03 2.33697E-04-8.51316E-16
 -1      3543 3.53397E-03 3.21488E-04-5.85559E-15
 -1      3544 3.41935E-03 3.10278E-04-5.42626E-15
 -1      3545 3.57296E-03 3.11493E-04-6.20284E-15
 -1      3546 3.82207E-03 3.68471E-04-7.30994E-15
 -1      3547 1.01044E-02 1.70822E-03-2.89407E-14
 -1      3548 9.97932E-03 1.63430E-03-2.79786E-14
 -1      3549 9.86475E-03 1.57667E-03-2.77824E-14
 -1      3550 9.10129E-03 1.19085E-03-2.26734E-14
 -1      3551 8.98680E-03 1.16616E-03-2.28339E-14
 -1      3552 9.19411E-03 1.23040E-03-2.32514E-14
 -1      3553 1.08909E-02 2.16817E-03-3.48237E-14
 -1      3554 1.07536E-02 2.08842E-03-3.38029E-14
 -1      3555 1.08975E-02 2.17600E-03-3.56387E-14
 -1      3556 1.57207E-03-2.43789E-04-1.68047E-15
 -1      3557 1.71559E-03-2.52277E-04-1.95360E-15
 -1      3558 1.77951E-03-2.22103E-04-2.07358E-15
 -1      3559 3.04898E-03 2.89401E-04-4.22897E-15
 -1      3560 2.91883E-03 2.85703E-04-3.86143E-15
 -1      3561 3.09920E-03 2.66799E-04-4.52394E-15
 -1      3562 9.31901E-03 1.24220E-03-2.23944E-14
 -1      3563 1.40446E-03 2.10177E-04-9.76975E-16
 -1      3564 1.14239E-03-2.03725E-04-9.76473E-16
 -1      3565 8.90816E-03 1.15175E-03-2.32884E-14
 -1      3566 8.82844E-03 1.13140E-03-2.37430E-14
 -1      3567 9.02422E-03 1.19631E-03-2.38764E-14
 -1      3568 8.48505E-03 9.96209E-04-2.30885E-14
 -1      3569 2.84205E-03 2.56259E-04-3.78228E-15
 -1      3570 2.78788E-03 2.82676E-04-3.51422E-15
 -1      3571 2.65487E-03 2.80285E-04-3.18303E-15
 -1      3572 9.63467E-03 1.44133E-03-2.58111E-14
 -1      3573 1.31909E-02 3.47470E-03-6.77654E-14
 -1      3574 1.33094E-02 3.53957E-03-6.88558E-14
 -1      3575 1.33713E-02 3.57344E-03-6.87923E-14
 -1      3576 1.31872E-02 3.47264E-03-6.68263E-14
 -1      3577 1.12794E-03-2.43297E-05-8.84479E-16
 -1      3578 4.12588E-03 3.21208E-04-8.82060E-15
 -1      3579 4.02819E-03 3.23491E-04-8.45541E-15
 -1      3580 1.24770E-03 4.62830E-05-9.83629E-16
 -1      3581 1.24701E-03 1.75757E-05-1.01195E-15
 -1      3582 1.25097E-03-6.93046E-05-1.08716E-15
 -1      3583 1.25421E-03-9.90655E-05-1.10915E-15
 -1      3584 4.49855E-03 2.50899E-04-9.97809E-15
 -1      3585 4.35760E-03 2.62847E-04-9.52274E-15
 -1      3586 4.56108E-03 2.05170E-04-1.01127E-14
 -1      3587 1.06247E-02 2.01839E-03-3.35934E-14
 -1      3588 1.01120E-02 1.72046E-03-2.97139E-14
 -1      3589 7.10684E-03 2.34103E-04-1.99744E-14
 -1      3590 6.98680E-03 1.53779E-04-1.98336E-14
 -1      3591 7.26166E-03 3.30476E-04-2.06613E-14
 -1      3592 5.91664E-03-2.90089E-04-1.51971E-14
 -1      3593 1.40401E-02 3.93831E-03-6.57526E-14
 -1      3594 1.39550E-02 3.89137E-03-6.45273E-14
 -1      3595 1.39632E-02 3.89641E-03-6.61332E-14
 -1      3596 5.27147E-03-7.24566E-05-1.22718E-14
 -1      3597 5.13227E-03-3.74075E-05-1.18324E-14
 -1      3598 5.31860E-03-1.30918E-04-1.25086E-14
 -1      3599 2.24330E-03 2.72448E-04-2.28225E-15
 -1      3600 2.10416E-03 2.68838E-04-2.01576E-15
 -1      3601 2.02455E-03 2.34913E-04-1.95109E-15
 -1      3602 7.67985E-03 5.90044E-04-2.16152E-14
 -1      3603 7.55638E-03 5.11908E-04-2.15567E-14
 -1      3604 7.83369E-03 6.71444E-04-2.23806E-14
 -1      3605 1.36557E-02 3.72877E-03-6.76441E-14
 -1      3606 1.37324E-02 3.77061E-03-6.72683E-14
 -1      3607 1.34936E-02 3.63999E-03-6.67828E-14
 -1      3608 9.40043E-03 1.31014E-03-2.39371E-14
 -1      3609 9.40637E-03 1.29721E-03-2.32854E-14
 -1      3610 3.34503E-03 2.84010E-04-5.33288E-15
 -1      3611 4.89294E-03 1.07892E-04-1.10863E-14
 -1      3612 4.76913E-03 1.22839E-04-1.07048E-14
 -1      3613 4.93869E-03 5.17869E-05-1.12108E-14
 -1      3614 5.60501E-03-2.34917E-04-1.36633E-14
 -1      3615 5.50597E-03-2.16067E-04-1.32992E-14
 -1      3616 5.64334E-03-2.72827E-04-1.40076E-14
 -1      3617 1.25846E-03-1.29521E-04-1.12977E-15
 -1      3618 1.26369E-03-1.60790E-04-1.14848E-15
 -1      3619 1.37792E-03-1.20106E-04-1.31034E-15
 -1      3620 1.36556E-03 1.61975E-04-9.99147E-16
 -1      3621 1.24946E-03 7.50047E-05-9.53840E-16
 -1      3622 1.36894E-03 6.44583E-05-1.13797E-15
 -1      3623 1.25232E-03 1.04059E-04-9.22710E-16
 -1      3624 1.45947E-03-2.07638E-04-1.47565E-15
 -1      3625 1.34333E-02 3.60730E-03-6.87236E-14
 -1      3626 4.17483E-03 2.93866E-04-8.93916E-15
 -1      3627 1.33481E-02 3.56060E-03-6.74816E-14
 -1      3628 1.98758E-03-1.94716E-04-2.49643E-15
 -1      3629 2.13144E-03-1.97081E-04-2.81899E-15
 -1      3630 2.27558E-03-1.98407E-04-3.15973E-15
 -1      3631 2.42005E-03-1.98814E-04-3.51830E-15
 -1      3632 2.19597E-03-1.62599E-04-2.94758E-15
 -1      3633 2.56488E-03-1.98442E-04-3.89436E-15
 -1      3634 2.71019E-03-1.97440E-04-4.28738E-15
 -1      3635 2.48403E-03-1.61929E-04-3.65581E-15
 -1      3636 2.85610E-03-1.95933E-04-4.69793E-15
 -1      3637 3.00279E-03-1.94136E-04-5.12586E-15
 -1      3638 2.77364E-03-1.58276E-04-4.43360E-15
 -1      3639 3.15046E-03-1.92163E-04-5.56995E-15
 -1      3640 3.29935E-03-1.90340E-04-6.03060E-15
 -1      3641 3.06586E-03-1.52611E-04-5.27903E-15
 -1      3642 3.44975E-03-1.88791E-04-6.50738E-15
 -1      3643 3.60191E-03-1.88003E-04-6.99988E-15
 -1      3644 3.36247E-03-1.46270E-04-6.19031E-15
 -1      3645 3.75621E-03-1.88109E-04-7.50890E-15
 -1      3646 3.91278E-03-1.89797E-04-8.03304E-15
 -1      3647 3.66595E-03-1.41322E-04-7.16510E-15
 -1      3648 4.07208E-03-1.93235E-04-8.57397E-15
 -1      3649 4.23394E-03-1.99184E-04-9.13173E-15
 -1      3650 3.97922E-03-1.40956E-04-8.20393E-15
 -1      3651 4.39876E-03-2.07837E-04-9.70398E-15
 -1      3652 4.56580E-03-2.19705E-04-1.02922E-14
 -1      3653 4.30490E-03-1.49640E-04-9.30629E-15
 -1      3654 4.73531E-03-2.34773E-04-1.08966E-14
 -1      3655 4.90571E-03-2.52694E-04-1.15169E-14
 -1      3656 4.64385E-03-1.72329E-04-1.04719E-14
 -1      3657 5.07704E-03-2.73017E-04-1.21525E-14
 -1      3658 5.24689E-03-2.93270E-04-1.28046E-14
 -1      3659 4.99288E-03-2.11614E-04-1.17003E-14
 -1      3660 5.43199E-03-2.99305E-04-1.34622E-14
 -1      3661 5.59848E-03-3.13658E-04-1.41457E-14
 -1      3662 6.01820E-03-3.01161E-04-1.60764E-14
 -1      3663 6.17427E-03-2.64427E-04-1.68264E-14
 -1      3664 6.30981E-03-2.17939E-04-1.75038E-14
 -1      3665 6.46837E-03-1.49679E-04-1.82902E-14
 -1      3666 6.69147E-03-2.98724E-05-1.92019E-14
 -1      3667 6.86008E-03 6.61116E-05-2.00280E-14
 -1      3668 7.00009E-03 1.49510E-04-2.07134E-14
 -1      3669 7.17309E-03 2.51141E-04-2.15712E-14
 -1      3670 7.69770E-03 5.38989E-04-2.46897E-14
 -1      3671 7.86332E-03 6.28638E-04-2.56145E-14
 -1      3672 8.02661E-03 7.15119E-04-2.65527E-14
 -1      3673 8.18679E-03 7.99024E-04-2.75039E-14
 -1      3674 8.02339E-03 7.24594E-04-2.58657E-14
 -1      3675 8.34434E-03 8.80470E-04-2.84673E-14
 -1      3676 8.49911E-03 9.60226E-04-2.94417E-14
 -1      3677 8.34520E-03 8.88966E-04-2.77612E-14
 -1      3678 8.65157E-03 1.03841E-03-3.04302E-14
 -1      3679 8.80185E-03 1.11566E-03-3.14286E-14
 -1      3680 8.65438E-03 1.04470E-03-2.97036E-14
 -1      3681 8.95034E-03 1.19205E-03-3.24374E-14
 -1      3682 9.09729E-03 1.26802E-03-3.34558E-14
 -1      3683 8.95368E-03 1.19594E-03-3.16917E-14
 -1      3684 9.24298E-03 1.34361E-03-3.44839E-14
 -1      3685 9.38765E-03 1.41909E-03-3.55223E-14
 -1      3686 9.24599E-03 1.34540E-03-3.37212E-14
 -1      3687 9.53151E-03 1.49448E-03-3.65702E-14
 -1      3688 9.67475E-03 1.56992E-03-3.76270E-14
 -1      3689 9.53376E-03 1.49464E-03-3.57894E-14
 -1      3690 9.81753E-03 1.64544E-03-3.86916E-14
 -1      3691 9.95997E-03 1.72109E-03-3.97674E-14
 -1      3692 9.81886E-03 1.64446E-03-3.78946E-14
 -1      3693 1.01022E-02 1.79689E-03-4.08506E-14
 -1      3694 1.02442E-02 1.87286E-03-4.19414E-14
 -1      3695 1.01026E-02 1.79516E-03-4.00358E-14
 -1      3696 1.03862E-02 1.94899E-03-4.30396E-14
 -1      3697 1.05281E-02 2.02530E-03-4.41433E-14
 -1      3698 1.03858E-02 1.94683E-03-4.22118E-14
 -1      3699 1.06701E-02 2.10179E-03-4.52532E-14
 -1      3700 1.08120E-02 2.17843E-03-4.63702E-14
 -1      3701 1.06689E-02 2.09940E-03-4.44146E-14
 -1      3702 1.09541E-02 2.25524E-03-4.74891E-14
 -1      3703 1.10962E-02 2.33219E-03-4.86122E-14
 -1      3704 1.09523E-02 2.25277E-03-4.66386E-14
 -1      3705 1.12383E-02 2.40929E-03-4.97414E-14
 -1      3706 1.13805E-02 2.48651E-03-5.08730E-14
 -1      3707 1.12360E-02 2.40682E-03-4.88810E-14
 -1      3708 1.15228E-02 2.56385E-03-5.20107E-14
 -1      3709 1.16652E-02 2.64131E-03-5.31530E-14
 -1      3710 1.15202E-02 2.56142E-03-5.11400E-14
 -1      3711 1.18076E-02 2.71887E-03-5.43005E-14
 -1      3712 1.19501E-02 2.79651E-03-5.54556E-14
 -1      3713 1.18047E-02 2.71650E-03-5.34207E-14
 -1      3714 1.20927E-02 2.87425E-03-5.66170E-14
 -1      3715 1.22353E-02 2.95206E-03-5.77841E-14
 -1      3716 1.20895E-02 2.87194E-03-5.57261E-14
 -1      3717 1.23779E-02 3.02994E-03-5.89584E-14
 -1      3718 1.25206E-02 3.10788E-03-6.01389E-14
 -1      3719 1.23746E-02 3.02769E-03-5.80576E-14
 -1      3720 1.26633E-02 3.18588E-03-6.13250E-14
 -1      3721 1.28060E-02 3.26393E-03-6.25149E-14
 -1      3722 1.26598E-02 3.18368E-03-6.04135E-14
 -1      3723 1.29488E-02 3.34202E-03-6.37118E-14
 -1      3724 1.30916E-02 3.42015E-03-6.49159E-14
 -1      3725 1.29453E-02 3.33987E-03-6.27916E-14
 -1      3726 1.32560E-02 3.51019E-03-6.65027E-14
 -1      3727 1.24867E-03-4.00165E-05-1.06374E-15
 -1      3728 1.37063E-03-5.71254E-05-1.25956E-15
 -1      3729 1.24734E-03-1.11138E-05-1.03823E-15
 -1      3730 9.62134E-03 1.45021E-03-2.65103E-14
 -1      3731 9.51325E-03 1.38697E-03-2.54934E-14
 -1      3732 3.77667E-03 3.48033E-04-7.19984E-15
 -1      3733 1.36756E-03 4.00746E-06-1.20227E-15
 -1      3734 1.03658E-02 1.87538E-03-3.24005E-14
 -1      3735 1.02413E-02 1.80377E-03-3.14526E-14
 -1      3736 2.51890E-03 2.77880E-04-2.86517E-15
 -1      3737 2.38188E-03 2.75438E-04-2.56587E-15
 -1      3738 2.30232E-03 2.42781E-04-2.49453E-15
 -1      3739 2.57609E-03 2.49150E-04-3.10671E-15
 -1      3740 1.17299E-02 2.65332E-03-4.27735E-14
 -1      3741 1.15960E-02 2.57776E-03-4.17405E-14
 -1      3742 1.14555E-02 2.49827E-03-4.06610E-14
 -1      3743 1.13154E-02 2.41881E-03-3.95912E-14
 -1      3744 1.14561E-02 2.50161E-03-4.14838E-14
 -1      3745 1.11760E-02 2.33951E-03-3.85292E-14
 -1      3746 1.10372E-02 2.26036E-03-3.74767E-14
 -1      3747 1.11767E-02 2.34364E-03-3.93389E-14
 -1      3748 1.20127E-02 2.81232E-03-4.49620E-14
 -1      3749 1.18711E-02 2.73283E-03-4.38640E-14
 -1      3750 1.17374E-02 2.65997E-03-4.36596E-14
 -1      3751 1.22964E-02 2.97113E-03-4.71811E-14
 -1      3752 1.21544E-02 2.89175E-03-4.60678E-14
 -1      3753 1.20201E-02 2.81841E-03-4.58586E-14
 -1      3754 1.25808E-02 3.12967E-03-4.94269E-14
 -1      3755 1.24385E-02 3.05043E-03-4.83016E-14
 -1      3756 1.23037E-02 2.97676E-03-4.80869E-14
 -1      3757 1.28657E-02 3.28792E-03-5.17013E-14
 -1      3758 1.27232E-02 3.20883E-03-5.05610E-14
 -1      3759 1.25881E-02 3.13493E-03-5.03435E-14
 -1      3760 1.31508E-02 3.44589E-03-5.39959E-14
 -1      3761 1.30082E-02 3.36694E-03-5.28458E-14
 -1      3762 1.28728E-02 3.29288E-03-5.26239E-14
 -1      3763 1.34219E-02 3.59573E-03-5.61961E-14
 -1      3764 1.32864E-02 3.52084E-03-5.50939E-14
 -1      3765 1.31508E-02 3.44668E-03-5.48720E-14
 -1      3766 1.37074E-02 3.75326E-03-5.85245E-14
 -1      3767 1.35647E-02 3.67452E-03-5.73580E-14
 -1      3768 1.34290E-02 3.60029E-03-5.71348E-14
 -1      3769 1.39931E-02 3.91060E-03-6.08688E-14
 -1      3770 1.38502E-02 3.83195E-03-5.96957E-14
 -1      3771 1.37145E-02 3.75767E-03-5.94737E-14
 -1      3772 1.41679E-02 4.00699E-03-6.25902E-14
 -1      3773 1.40726E-02 3.95446E-03-6.16046E-14
 -1      3774 1.39369E-02 3.88015E-03-6.13841E-14
 -1      3775 1.40960E-02 3.96780E-03-6.28606E-14
 -1      3776 1.21392E-03-1.81363E-04-1.07851E-15
 -1      3777 1.01124E-02 1.72990E-03-3.04647E-14
 -1      3778 9.98610E-03 1.65751E-03-2.94864E-14
 -1      3779 1.01100E-02 1.73798E-03-3.12183E-14
 -1      3780 1.80688E-03 1.95826E-04-1.64010E-15
 -1      3781 1.66601E-03 1.89437E-04-1.41263E-15
 -1      3782 9.41724E-03 1.33746E-03-2.47976E-14
 -1      3783 9.28403E-03 1.27323E-03-2.39290E-14
 -1      3784 9.19027E-03 1.25071E-03-2.40962E-14
 -1      3785 9.38840E-03 1.34352E-03-2.54808E-14
 -1      3786 3.39593E-03 2.68343E-04-5.66008E-15
 -1      3787 3.27641E-03 2.55992E-04-5.23507E-15
 -1      3788 3.94717E-03 2.90985E-04-8.07976E-15
 -1      3789 3.92591E-03 3.24982E-04-8.03809E-15
 -1      3790 8.65562E-03 1.06820E-03-2.38644E-14
 -1      3791 8.45212E-03 9.81883E-04-2.37912E-14
 -1      3792 1.06332E-02 2.02903E-03-3.44241E-14
 -1      3793 1.04987E-02 1.95171E-03-3.34076E-14
 -1      3794 1.03718E-02 1.88625E-03-3.32192E-14
 -1      3795 1.38093E-02 3.81251E-03-6.68916E-14
 -1      3796 1.38861E-02 3.85441E-03-6.65138E-14
 -1      3797 1.36471E-02 3.72368E-03-6.60340E-14
 -1      3798 9.86277E-03 1.58742E-03-2.85175E-14
 -1      3799 9.74312E-03 1.51943E-03-2.75604E-14
 -1      3800 9.85711E-03 1.59629E-03-2.92557E-14
 -1      3801 3.62157E-03 3.02416E-04-6.55553E-15
 -1      3802 3.51147E-03 2.83949E-04-6.10030E-15
 -1      3803 3.45393E-03 2.53663E-04-5.99337E-15
 -1      3804 8.21867E-03 8.70021E-04-2.35852E-14
 -1      3805 8.07161E-03 7.95074E-04-2.32915E-14
 -1      3806 3.85574E-03 3.35424E-04-7.71901E-15
 -1      3807 1.09027E-02 2.18349E-03-3.64574E-14
 -1      3808 1.07657E-02 2.10499E-03-3.54235E-14
 -1      3809 1.06369E-02 2.03700E-03-3.52308E-14
 -1      3810 1.09033E-02 2.18853E-03-3.72534E-14
 -1      3811 5.84895E-03-3.16701E-04-1.52359E-14
 -1      3812 1.70082E-03-1.86331E-04-1.90730E-15
 -1      3813 1.84404E-03-1.91168E-04-2.19247E-15
 -1      3814 1.90904E-03-1.59489E-04-2.31058E-15
 -1      3815 6.61652E-03-6.90102E-05-1.82409E-14
 -1      3816 6.50708E-03-1.26744E-04-1.80396E-14
 -1      3817 3.15290E-03 2.45701E-04-4.82501E-15
 -1      3818 3.02629E-03 2.37697E-04-4.43085E-15
 -1      3819 3.21107E-03 2.25768E-04-5.13231E-15
 -1      3820 4.22681E-03 2.62701E-04-9.06674E-15
 -1      3821 4.10385E-03 2.56354E-04-8.62076E-15
 -1      3822 4.27916E-03 2.27543E-04-9.19355E-15
 -1      3823 1.32524E-02 3.50807E-03-6.55691E-14
 -1      3824 3.74339E-03 3.16173E-04-7.16181E-15
 -1      3825 1.33314E-03-1.75032E-04-1.25990E-15
 -1      3826 9.13073E-03 1.24178E-03-2.45622E-14
 -1      3827 2.89842E-03 2.31137E-04-4.05694E-15
 -1      3828 2.76825E-03 2.25946E-04-3.69912E-15
 -1      3829 2.95765E-03 2.07105E-04-4.33816E-15
 -1      3830 4.61536E-03 1.54436E-04-1.02314E-14
 -1      3831 4.46743E-03 1.76393E-04-9.76802E-15
 -1      3832 4.66194E-03 1.02285E-04-1.03489E-14
 -1      3833 5.35828E-03-2.47390E-04-1.29810E-14
 -1      3834 5.68775E-03-3.18451E-04-1.45246E-14
 -1      3835 7.32387E-03 3.55350E-04-2.15876E-14
 -1      3836 7.35354E-03 3.51412E-04-2.26653E-14
 -1      3837 3.70447E-03 2.81857E-04-7.04735E-15
 -1      3838 7.52460E-03 4.48307E-04-2.35565E-14
 -1      3839 9.61002E-03 1.45957E-03-2.72292E-14
 -1      3840 1.49086E-03-4.29859E-05-1.44199E-15
 -1      3841 1.49378E-03-7.54249E-05-1.47273E-15
 -1      3842 1.38010E-02 3.80753E-03-6.52834E-14
 -1      3843 1.54980E-03 1.69056E-04-1.26227E-15
 -1      3844 1.31655E-03 1.18852E-04-9.92153E-16
 -1      3845 1.33291E-02 3.54986E-03-6.51969E-14
 -1      3846 7.45118E-03 4.39940E-04-2.17376E-14
 -1      3847 7.94821E-03 7.25206E-04-2.32327E-14
 -1      3848 7.60367E-03 5.25394E-04-2.25043E-14
 -1      3849 8.79247E-03 1.12364E-03-2.44613E-14
 -1      3850 1.94656E-03 2.01251E-04-1.88315E-15
 -1      3851 1.87004E-03 1.67841E-04-1.81144E-15
 -1      3852 2.08572E-03 2.05847E-04-2.14261E-15
 -1      3853 3.96552E-03 2.45088E-04-8.10172E-15
 -1      3854 3.85647E-03 2.53183E-04-7.69485E-15
 -1      3855 8.40229E-03 9.54724E-04-2.43729E-14
 -1      3856 5.00679E-03-1.39944E-05-1.14364E-14
 -1      3857 4.88227E-03 4.33179E-06-1.10459E-14
 -1      3858 5.06191E-03-7.67010E-05-1.16614E-14
 -1      3859 4.00499E-03 2.18535E-04-8.22062E-15
 -1      3860 1.48849E-03 2.07280E-05-1.37515E-15
 -1      3861 1.48908E-03-1.09940E-05-1.40945E-15
 -1      3862 1.61155E-03-2.71277E-05-1.63376E-15
 -1      3863 1.39523E-02 3.88947E-03-6.34020E-14
 -1      3864 1.40242E-02 3.92863E-03-6.31321E-14
 -1      3865 1.39446E-02 3.88483E-03-6.23917E-14
 -1      3866 7.68518E-03 5.50249E-04-2.37995E-14
 -1      3867 1.61502E-03 1.43144E-04-1.41099E-15
 -1      3868 1.48913E-03 5.22463E-05-1.33881E-15
 -1      3869 1.61001E-03 3.87182E-05-1.55687E-15
 -1      3870 1.49106E-03 8.38036E-05-1.30068E-15
 -1      3871 1.38754E-02 3.84762E-03-6.37831E-14
 -1      3872 1.37958E-02 3.80385E-03-6.30383E-14
 -1      3873 1.37985E-02 3.80577E-03-6.41587E-14
 -1      3874 1.68878E-03-1.07143E-04-1.84126E-15
 -1      3875 1.56848E-03-1.21474E-04-1.63178E-15
 -1      3876 1.50885E-03-1.83484E-04-1.55499E-15
 -1      3877 1.57414E-03-1.55996E-04-1.65995E-15
 -1      3878 6.73982E-03 1.47881E-06-1.89432E-14
 -1      3879 5.31103E-03-1.96367E-04-1.26537E-14
 -1      3880 1.75558E-03-6.15459E-05-1.93092E-15
 -1      3881 1.83097E-03-1.09364E-04-2.11795E-15
 -1      3882 1.97351E-03-1.10571E-04-2.41257E-15
 -1      3883 2.40427E-03-1.26520E-04-3.42349E-15
 -1      3884 2.54803E-03-1.24599E-04-3.79067E-15
 -1      3885 2.69212E-03-1.21926E-04-4.17525E-15
 -1      3886 2.83670E-03-1.18608E-04-4.57628E-15
 -1      3887 2.61190E-03-8.68860E-05-3.92304E-15
 -1      3888 2.98190E-03-1.14690E-04-4.99446E-15
 -1      3889 3.12801E-03-1.10384E-04-5.42879E-15
 -1      3890 2.89915E-03-7.84636E-05-4.71604E-15
 -1      3891 3.27525E-03-1.05737E-04-5.87971E-15
 -1      3892 3.42401E-03-1.01147E-04-6.34640E-15
 -1      3893 3.18895E-03-6.74261E-05-5.57559E-15
 -1      3894 3.57468E-03-9.66941E-05-6.82879E-15
 -1      3895 3.72771E-03-9.31280E-05-7.32681E-15
 -1      3896 3.48361E-03-5.48823E-05-6.49887E-15
 -1      3897 3.88363E-03-9.05461E-05-7.84081E-15
 -1      3898 4.04277E-03-9.00379E-05-8.37072E-15
 -1      3899 3.78673E-03-4.31279E-05-7.48490E-15
 -1      3900 4.20581E-03-9.20198E-05-8.91659E-15
 -1      3901 4.37267E-03-9.77525E-05-9.47780E-15
 -1      3902 4.10291E-03-3.69066E-05-8.53378E-15
 -1      3903 4.54439E-03-1.07486E-04-1.00539E-14
 -1      3904 4.71947E-03-1.22829E-04-1.06463E-14
 -1      3905 4.43706E-03-4.33684E-05-9.64441E-15
 -1      3906 4.88334E-03-1.25213E-04-1.11765E-14
 -1      3907 5.06520E-03-1.52029E-04-1.17976E-14
 -1      3908 3.52097E-03 2.37733E-04-6.33238E-15
 -1      3909 3.39942E-03 2.20457E-04-5.88144E-15
 -1      3910 3.75862E-03 2.48637E-04-7.30683E-15
 -1      3911 3.60976E-03 2.42197E-04-6.69626E-15
 -1      3912 3.56603E-03 2.02972E-04-6.57456E-15
 -1      3913 3.76248E-03 2.07262E-04-7.32354E-15
 -1      3914 8.34923E-03 8.99406E-04-2.70586E-14
 -1      3915 8.50615E-03 9.76875E-04-2.80134E-14
 -1      3916 8.65980E-03 1.05236E-03-2.89811E-14
 -1      3917 8.81058E-03 1.12694E-03-2.99601E-14
 -1      3918 8.66820E-03 1.06163E-03-2.82623E-14
 -1      3919 8.95899E-03 1.20067E-03-3.09505E-14
 -1      3920 9.10550E-03 1.27423E-03-3.19508E-14
 -1      3921 8.96660E-03 1.20640E-03-3.02114E-14
 -1      3922 9.25043E-03 1.34762E-03-3.29612E-14
 -1      3923 9.39420E-03 1.42120E-03-3.39816E-14
 -1      3924 9.25654E-03 1.35035E-03-3.22048E-14
 -1      3925 9.53703E-03 1.49496E-03-3.50118E-14
 -1      3926 9.67922E-03 1.56905E-03-3.60519E-14
 -1      3927 9.54145E-03 1.49544E-03-3.42381E-14
 -1      3928 9.82090E-03 1.64344E-03-3.71014E-14
 -1      3929 9.96229E-03 1.71820E-03-3.81586E-14
 -1      3930 9.82372E-03 1.64238E-03-3.63101E-14
 -1      3931 1.01035E-02 1.79330E-03-3.92264E-14
 -1      3932 1.02446E-02 1.86873E-03-4.03025E-14
 -1      3933 1.01049E-02 1.79127E-03-3.84195E-14
 -1      3934 1.03857E-02 1.94448E-03-4.13861E-14
 -1      3935 1.05268E-02 2.02051E-03-4.24781E-14
 -1      3936 1.03859E-02 1.94189E-03-4.05630E-14
 -1      3937 1.06680E-02 2.09681E-03-4.35766E-14
 -1      3938 1.08093E-02 2.17334E-03-4.46811E-14
 -1      3939 1.06673E-02 2.09397E-03-4.27384E-14
 -1      3940 1.09507E-02 2.25009E-03-4.57904E-14
 -1      3941 1.10922E-02 2.32704E-03-4.69032E-14
 -1      3942 1.09492E-02 2.24718E-03-4.49423E-14
 -1      3943 1.12339E-02 2.40416E-03-4.80222E-14
 -1      3944 1.13757E-02 2.48142E-03-4.91450E-14
 -1      3945 1.12318E-02 2.40128E-03-4.71655E-14
 -1      3946 1.15176E-02 2.55883E-03-5.02721E-14
 -1      3947 1.16596E-02 2.63635E-03-5.14048E-14
 -1      3948 1.15151E-02 2.55605E-03-4.94056E-14
 -1      3949 1.18018E-02 2.71399E-03-5.25430E-14
 -1      3950 1.19440E-02 2.79171E-03-5.36857E-14
 -1      3951 1.17990E-02 2.71133E-03-5.16654E-14
 -1      3952 1.20864E-02 2.86952E-03-5.48372E-14
 -1      3953 1.22288E-02 2.94741E-03-5.59949E-14
 -1      3954 1.20833E-02 2.86698E-03-5.39501E-14
 -1      3955 1.23713E-02 3.02536E-03-5.71582E-14
 -1      3956 1.25138E-02 3.10336E-03-5.83294E-14
 -1      3957 1.23680E-02 3.02292E-03-5.62620E-14
 -1      3958 1.26564E-02 3.18142E-03-5.95057E-14
 -1      3959 1.27991E-02 3.25952E-03-6.06858E-14
 -1      3960 1.26531E-02 3.17907E-03-5.85986E-14
 -1      3961 1.29418E-02 3.33766E-03-6.18746E-14
 -1      3962 1.30845E-02 3.41583E-03-6.30648E-14
 -1      3963 1.29383E-02 3.33539E-03-6.09582E-14
 -1      3964 1.36444E-02 3.72186E-03-6.49132E-14
 -1      3965 1.37214E-02 3.76381E-03-6.45383E-14
 -1      3966 1.36419E-02 3.72010E-03-6.37897E-14
 -1      3967 1.33256E-02 3.54767E-03-6.42680E-14
 -1      3968 1.14598E-02 2.50669E-03-4.23341E-14
 -1      3969 1.13197E-02 2.42795E-03-4.12507E-14
 -1      3970 1.17411E-02 2.66445E-03-4.45180E-14
 -1      3971 1.16003E-02 2.58552E-03-4.34229E-14
 -1      3972 1.14630E-02 2.51148E-03-4.31845E-14
 -1      3973 1.11802E-02 2.34941E-03-4.01753E-14
 -1      3974 1.10413E-02 2.27109E-03-3.91094E-14
 -1      3975 1.11832E-02 2.35479E-03-4.10149E-14
 -1      3976 1.23074E-02 2.98030E-03-4.89663E-14
 -1      3977 1.21655E-02 2.90135E-03-4.78441E-14
 -1      3978 1.25916E-02 3.13813E-03-5.12307E-14
 -1      3979 1.24494E-02 3.05923E-03-5.00947E-14
 -1      3980 1.23109E-02 2.98373E-03-4.98467E-14
 -1      3981 1.28764E-02 3.29580E-03-5.35200E-14
 -1      3982 1.27340E-02 3.21698E-03-5.23724E-14
 -1      3983 1.25952E-02 3.14124E-03-5.21184E-14
 -1      3984 1.31472E-02 3.44545E-03-5.57166E-14
 -1      3985 1.30118E-02 3.37065E-03-5.46159E-14
 -1      3986 1.28728E-02 3.29473E-03-5.43601E-14
 -1      3987 1.34325E-02 3.60283E-03-5.80475E-14
 -1      3988 1.32898E-02 3.52416E-03-5.68801E-14
 -1      3989 1.31507E-02 3.44812E-03-5.66214E-14
 -1      3990 1.37180E-02 3.76008E-03-6.03929E-14
 -1      3991 1.35752E-02 3.68147E-03-5.92164E-14
 -1      3992 1.34360E-02 3.60534E-03-5.89595E-14
 -1      3993 3.27499E-03 2.05659E-04-5.44578E-15
 -1      3994 3.14827E-03 1.93498E-04-5.02548E-15
 -1      3995 3.34528E-03 1.84958E-04-5.76558E-15
 -1      3996 9.38181E-03 1.35629E-03-2.62300E-14
 -1      3997 9.27596E-03 1.30657E-03-2.55255E-14
 -1      3998 5.18423E-03-1.70492E-04-1.22038E-14
 -1      3999 1.20238E-02 2.82238E-03-4.67282E-14
 -1      4000 1.18823E-02 2.74340E-03-4.56205E-14
 -1      4001 1.17445E-02 2.66871E-03-4.53803E-14
 -1      4002 1.20273E-02 2.82618E-03-4.75997E-14
 -1      4003 1.75254E-03-2.68145E-05-1.89098E-15
 -1      4004 8.58305E-03 1.03595E-03-2.52905E-14
 -1      4005 8.36740E-03 9.31789E-04-2.50756E-14
 -1      4006 1.03729E-02 1.89431E-03-3.40145E-14
 -1      4007 1.02400E-02 1.81978E-03-3.30019E-14
 -1      4008 9.63055E-03 1.48699E-03-2.83356E-14
 -1      4009 9.50435E-03 1.41973E-03-2.72751E-14
 -1      4010 9.39093E-03 1.37786E-03-2.73169E-14
 -1      4011 9.87977E-03 1.62101E-03-3.02801E-14
 -1      4012 9.75406E-03 1.55272E-03-2.93022E-14
 -1      4013 9.64582E-03 1.50815E-03-2.93449E-14
 -1      4014 8.96405E-03 1.19413E-03-2.52213E-14
 -1      4015 8.80814E-03 1.13443E-03-2.53445E-14
 -1      4016 7.86131E-03 6.70183E-04-2.34265E-14
 -1      4017 7.75772E-03 6.00991E-04-2.36128E-14
 -1      4018 7.92974E-03 6.86975E-04-2.47488E-14
 -1      4019 8.08958E-03 7.89326E-04-2.43590E-14
 -1      4020 1.01232E-02 1.75495E-03-3.21306E-14
 -1      4021 9.99353E-03 1.68305E-03-3.11346E-14
 -1      4022 9.88794E-03 1.63610E-03-3.11793E-14
 -1      4023 1.01208E-02 1.76226E-03-3.29139E-14
 -1      4024 9.11065E-03 1.24727E-03-2.52964E-14
 -1      4025 2.11688E-03-1.19338E-04-2.73312E-15
 -1      4026 2.26001E-03-1.18906E-04-3.06448E-15
 -1      4027 2.32517E-03-8.35283E-05-3.18751E-15
 -1      4028 2.03947E-03-6.93921E-05-2.51725E-15
 -1      4029 4.09825E-03 1.71518E-04-8.51512E-15
 -1      4030 3.95058E-03 1.66745E-04-7.99678E-15
 -1      4031 4.34575E-03 1.75864E-04-9.36103E-15
 -1      4032 4.21025E-03 1.79496E-04-8.90683E-15
 -1      4033 4.15139E-03 1.24827E-04-8.67238E-15
 -1      4034 4.38907E-03 1.30757E-04-9.47129E-15
 -1      4035 3.02072E-03 1.83366E-04-4.62598E-15
 -1      4036 2.89125E-03 1.75094E-04-4.24206E-15
 -1      4037 3.08814E-03 1.59620E-04-4.91978E-15
 -1      4038 4.71827E-03 6.85387E-06-1.05271E-14
 -1      4039 4.57282E-03 3.55299E-05-1.00547E-14
 -1      4040 6.60074E-03-8.30251E-05-1.89802E-14
 -1      4041 1.73197E-03 5.77941E-05-1.74695E-15
 -1      4042 1.73159E-03 2.41492E-05-1.79174E-15
 -1      4043 1.38650E-02 3.84101E-03-6.16527E-14
 -1      4044 1.05038E-02 1.96791E-03-3.50101E-14
 -1      4045 1.03695E-02 1.89951E-03-3.47861E-14
 -1      4046 1.06359E-02 2.04239E-03-3.60144E-14
 -1      4047 2.63478E-03 2.21400E-04-3.35471E-15
 -1      4048 2.49957E-03 2.17501E-04-3.02647E-15
 -1      4049 2.69538E-03 1.94518E-04-3.60920E-15
 -1      4050 1.09089E-02 2.20106E-03-3.89044E-14
 -1      4051 1.09065E-02 2.19507E-03-3.80779E-14
 -1      4052 1.07725E-02 2.11940E-03-3.70549E-14
 -1      4053 2.36268E-03 2.13721E-04-2.71476E-15
 -1      4054 2.22479E-03 2.09983E-04-2.42041E-15
 -1      4055 2.14862E-03 1.76972E-04-2.34259E-15
 -1      4056 2.42463E-03 1.85213E-04-2.94267E-15
 -1      4057 1.37257E-02 3.76481E-03-6.13930E-14
 -1      4058 1.43563E-03 1.09305E-04-1.17934E-15
 -1      4059 8.76795E-03 1.11783E-03-2.60677E-14
 -1      4060 9.12716E-03 1.26435E-03-2.61967E-14
 -1      4061 1.36488E-02 3.72302E-03-6.17717E-14
 -1      4062 1.35019E-02 3.64218E-03-6.05062E-14
 -1      4063 1.35720E-02 3.68125E-03-6.21424E-14
 -1      4064 1.35675E-02 3.68001E-03-6.52862E-14
 -1      4065 1.72507E-03 1.28637E-04-1.62277E-15
 -1      4066 1.61049E-03 1.10250E-04-1.45640E-15
 -1      4067 3.88312E-03 1.17258E-04-7.75137E-15
 -1      4068 3.80352E-03 1.60529E-04-7.47454E-15
 -1      4069 8.02364E-03 7.36358E-04-2.51843E-14
 -1      4070 8.18843E-03 8.19731E-04-2.61149E-14
 -1      4071 1.87365E-03-8.51142E-06-2.10487E-15
 -1      4072 4.77362E-03-5.28004E-05-1.07395E-14
 -1      4073 1.33229E-02 3.54582E-03-6.31539E-14
 -1      4074 1.86452E-03 1.33431E-04-1.86823E-15
 -1      4075 3.69721E-03 1.62177E-04-7.09174E-15
 -1      4076 1.55518E-03 9.81417E-05-1.38358E-15
 -1      4077 8.35688E-03 9.12036E-04-2.63582E-14
 -1      4078 1.31733E-02 3.46369E-03-6.17327E-14
 -1      4079 1.34152E-02 3.59597E-03-6.27373E-14
 -1      4080 2.81801E-03-4.39290E-05-4.44467E-15
 -1      4081 2.96083E-03-3.80944E-05-4.85319E-15
 -1      4082 3.10410E-03-3.13846E-05-5.27758E-15
 -1      4083 3.24831E-03-2.40528E-05-5.71865E-15
 -1      4084 3.02151E-03 2.43031E-06-4.98675E-15
 -1      4085 3.39356E-03-1.60349E-05-6.17515E-15
 -1      4086 3.54064E-03-7.81708E-06-6.64751E-15
 -1      4087 3.30573E-03 1.97379E-05-5.85843E-15
 -1      4088 3.68927E-03 3.24958E-05-7.11524E-15
 -1      4089 3.83933E-03 4.19164E-05-7.61699E-15
 -1      4090 3.99631E-03 3.86091E-05-8.14707E-15
 -1      4091 4.15543E-03 4.35773E-05-8.67995E-15
 -1      4092 4.39859E-03 4.29307E-05-9.48552E-15
 -1      4093 3.59460E-03 1.63152E-04-6.71833E-15
 -1      4094 3.49545E-03 1.63255E-04-6.35444E-15
 -1      4095 3.62652E-03 1.18021E-04-6.85885E-15
 -1      4096 8.68076E-03 1.07214E-03-2.75456E-14
 -1      4097 8.83042E-03 1.14283E-03-2.85056E-14
 -1      4098 1.34922E-02 3.63785E-03-6.23633E-14
 -1      4099 8.97713E-03 1.21275E-03-2.94760E-14
 -1      4100 9.12175E-03 1.28293E-03-3.04587E-14
 -1      4101 8.99099E-03 1.21994E-03-2.87437E-14
 -1      4102 9.26462E-03 1.35330E-03-3.14513E-14
 -1      4103 9.40635E-03 1.42431E-03-3.24547E-14
 -1      4104 9.27491E-03 1.35652E-03-3.07004E-14
 -1      4105 9.54716E-03 1.49588E-03-3.34684E-14
 -1      4106 9.68746E-03 1.56818E-03-3.44909E-14
 -1      4107 9.55428E-03 1.49627E-03-3.27008E-14
 -1      4108 9.82736E-03 1.64113E-03-3.55233E-14
 -1      4109 9.96712E-03 1.71475E-03-3.65642E-14
 -1      4110 9.83186E-03 1.63965E-03-3.47395E-14
 -1      4111 1.01068E-02 1.78897E-03-3.76138E-14
 -1      4112 1.02466E-02 1.86375E-03-3.86740E-14
 -1      4113 1.01092E-02 1.78636E-03-3.68129E-14
 -1      4114 1.03865E-02 1.93902E-03-3.97443E-14
 -1      4115 1.05265E-02 2.01474E-03-4.08203E-14
 -1      4116 1.03873E-02 1.93581E-03-3.89261E-14
 -1      4117 1.06667E-02 2.09084E-03-4.19046E-14
 -1      4118 1.08072E-02 2.16728E-03-4.29969E-14
 -1      4119 1.06664E-02 2.08739E-03-4.10734E-14
 -1      4120 1.09479E-02 2.24401E-03-4.40955E-14
 -1      4121 1.10888E-02 2.32099E-03-4.52003E-14
 -1      4122 1.09466E-02 2.24054E-03-4.32505E-14
 -1      4123 1.12299E-02 2.39818E-03-4.63081E-14
 -1      4124 1.13712E-02 2.47555E-03-4.74213E-14
 -1      4125 1.12279E-02 2.39482E-03-4.54533E-14
 -1      4126 1.15127E-02 2.55308E-03-4.85395E-14
 -1      4127 1.16543E-02 2.63074E-03-4.96634E-14
 -1      4128 1.15103E-02 2.54989E-03-4.76753E-14
 -1      4129 1.17962E-02 2.70851E-03-5.07912E-14
 -1      4130 1.19382E-02 2.78637E-03-5.19252E-14
 -1      4131 1.17934E-02 2.70551E-03-4.99178E-14
 -1      4132 1.20803E-02 2.86431E-03-5.30676E-14
 -1      4133 1.22225E-02 2.94232E-03-5.42154E-14
 -1      4134 1.20772E-02 2.86149E-03-5.21849E-14
 -1      4135 1.23648E-02 3.02038E-03-5.53672E-14
 -1      4136 1.25072E-02 3.09850E-03-5.65278E-14
 -1      4137 1.23616E-02 3.01773E-03-5.44760E-14
 -1      4138 1.26497E-02 3.17665E-03-5.76955E-14
 -1      4139 1.27923E-02 3.25484E-03-5.88677E-14
 -1      4140 1.26464E-02 3.17414E-03-5.67938E-14
 -1      4141 1.29114E-02 3.32011E-03-5.97059E-14
 -1      4142 1.30541E-02 3.39836E-03-6.08883E-14
 -1      4143 1.31463E-02 3.44839E-03-6.04775E-14
 -1      4144 1.29080E-02 3.31770E-03-5.87972E-14
 -1      4145 1.66618E-03 8.31240E-05-1.59275E-15
 -1      4146 8.37203E-03 9.27219E-04-2.57175E-14
 -1      4147 8.52948E-03 1.00117E-03-2.66540E-14
 -1      4148 1.14660E-02 2.51599E-03-4.40411E-14
 -1      4149 1.13256E-02 2.43779E-03-4.29478E-14
 -1      4150 1.11857E-02 2.35980E-03-4.18590E-14
 -1      4151 1.10463E-02 2.28204E-03-4.07786E-14
 -1      4152 1.11880E-02 2.36443E-03-4.27072E-14
 -1      4153 1.25986E-02 3.14425E-03-5.30112E-14
 -1      4154 1.24564E-02 3.06564E-03-5.18668E-14
 -1      4155 1.23143E-02 2.98703E-03-5.07290E-14
 -1      4156 1.21723E-02 2.90842E-03-4.95992E-14
 -1      4157 1.23176E-02 2.99020E-03-5.16139E-14
 -1      4158 1.31542E-02 3.45072E-03-5.75295E-14
 -1      4159 1.30116E-02 3.37216E-03-5.63625E-14
 -1      4160 1.33993E-02 3.58573E-03-5.96016E-14
 -1      4161 1.32567E-02 3.50720E-03-5.84290E-14
 -1      4162 1.31175E-02 3.43122E-03-5.81655E-14
 -1      4163 1.33225E-02 3.54405E-03-5.99720E-14
 -1      4164 3.36352E-03 1.47896E-04-5.89985E-15
 -1      4165 9.63385E-03 1.51237E-03-3.01011E-14
 -1      4166 9.50463E-03 1.44661E-03-2.91252E-14
 -1      4167 8.10146E-03 7.86091E-04-2.49891E-14
 -1      4168 2.53325E-03-5.31444E-05-3.67793E-15
 -1      4169 2.67557E-03-4.89539E-05-4.05272E-15
 -1      4170 2.73891E-03-1.09363E-05-4.17973E-15
 -1      4171 9.38124E-03 1.38537E-03-2.81777E-14
 -1      4172 9.24849E-03 1.32075E-03-2.71204E-14
 -1      4173 9.10932E-03 1.26555E-03-2.70404E-14
 -1      4174 9.36290E-03 1.38550E-03-2.89192E-14
 -1      4175 8.69957E-03 1.08480E-03-2.68891E-14
 -1      4176 1.99300E-03 3.85277E-05-2.28374E-15
 -1      4177 2.01452E-03-1.46734E-05-2.40274E-15
 -1      4178 2.15574E-03-2.06125E-05-2.71872E-15
 -1      4179 8.90967E-03 1.18116E-03-2.69493E-14
 -1      4180 8.18456E-03 8.36836E-04-2.47897E-14
 -1      4181 1.28727E-02 3.29555E-03-5.52279E-14
 -1      4182 1.27374E-02 3.22089E-03-5.41301E-14
 -1      4183 1.25984E-02 3.14520E-03-5.38743E-14
 -1      4184 1.28761E-02 3.29826E-03-5.61299E-14
 -1      4185 3.59342E-03 7.03421E-05-6.77178E-15
 -1      4186 4.27511E-03 4.49099E-05-9.07971E-15
 -1      4187 3.48689E-03 7.58721E-05-6.40663E-15
 -1      4188 2.27274E-03-3.42158E-05-3.00630E-15
 -1      4189 2.41484E-03-3.96428E-05-3.35876E-15
 -1      4190 2.48037E-03-3.73793E-06-3.47690E-15
 -1      4191 2.24805E-03 2.12759E-05-2.87193E-15
 -1      4192 1.78672E-03 6.96077E-05-1.83020E-15
 -1      4193 1.33453E-02 3.55711E-03-6.10996E-14
 -1      4194 1.06374E-02 2.04897E-03-3.68275E-14
 -1      4195 2.75862E-03 1.68040E-04-3.87101E-15
 -1      4196 2.62441E-03 1.62184E-04-3.51589E-15
 -1      4197 2.82488E-03 1.41717E-04-4.13879E-15
 -1      4198 1.09108E-02 2.20656E-03-3.97339E-14
 -1      4199 1.07760E-02 2.13143E-03-3.86976E-14
 -1      4200 1.09124E-02 2.21156E-03-4.05669E-14
 -1      4201 1.20338E-02 2.83330E-03-4.93499E-14
 -1      4202 1.20306E-02 2.82983E-03-4.84731E-14
 -1      4203 1.18890E-02 2.75127E-03-4.73556E-14
 -1      4204 9.74996E-03 1.57227E-03-3.09568E-14
 -1      4205 9.60798E-03 1.50754E-03-3.07286E-14
 -1      4206 9.86671E-03 1.63368E-03-3.18177E-14
 -1      4207 1.03670E-02 1.90478E-03-3.55719E-14
 -1      4208 1.02353E-02 1.83235E-03-3.45711E-14
 -1      4209 1.01093E-02 1.76379E-03-3.36268E-14
 -1      4210 9.99090E-03 1.69991E-03-3.27490E-14
 -1      4211 9.85165E-03 1.63356E-03-3.25200E-14
 -1      4212 1.01041E-02 1.76799E-03-3.44007E-14
 -1      4213 2.01858E-03 1.33795E-04-2.16895E-15
 -1      4214 1.87588E-03 9.51701E-05-1.95837E-15
 -1      4215 3.36879E-03 1.01753E-04-5.98016E-15
 -1      4216 3.21423E-03 1.29478E-04-5.41269E-15
 -1      4217 1.94154E-03 6.88873E-05-2.13141E-15
 -1      4218 2.08074E-03 6.45795E-05-2.42765E-15
 -1      4219 1.16067E-02 2.59432E-03-4.51386E-14
 -1      4220 1.14687E-02 2.52021E-03-4.48985E-14
 -1      4221 1.17477E-02 2.67276E-03-4.62448E-14
 -1      4222 2.15784E-03 1.37949E-04-2.45153E-15
 -1      4223 9.04394E-03 1.24236E-03-2.78821E-14
 -1      4224 3.08212E-03 1.18323E-04-4.99538E-15
 -1      4225 2.66209E-03 2.06140E-05-3.92156E-15
 -1      4226 2.80193E-03 2.69166E-05-4.30336E-15
 -1      4227 3.18928E-03 4.80766E-05-5.45262E-15
 -1      4228 3.32952E-03 5.85972E-05-5.89641E-15
 -1      4229 2.31322E-03 1.43123E-04-2.78819E-15
 -1      4230 2.18664E-03 9.96940E-05-2.59454E-15
 -1      4231 9.18253E-03 1.30725E-03-2.88445E-14
 -1      4232 9.31437E-03 1.37069E-03-2.97998E-14
 -1      4233 9.45120E-03 1.43800E-03-3.07841E-14
 -1      4234 9.57248E-03 1.49882E-03-3.16467E-14
 -1      4235 9.70885E-03 1.56857E-03-3.26500E-14
 -1      4236 9.83679E-03 1.63505E-03-3.35896E-14
 -1      4237 9.97350E-03 1.70706E-03-3.46106E-14
 -1      4238 1.01020E-02 1.77548E-03-3.55655E-14
 -1      4239 1.02394E-02 1.84935E-03-3.66032E-14
 -1      4240 1.06525E-02 2.07429E-03-3.97628E-14
 -1      4241 1.07917E-02 2.15065E-03-4.08359E-14
 -1      4242 1.09278E-02 2.22551E-03-4.18918E-14
 -1      4243 1.10677E-02 2.30260E-03-4.29809E-14
 -1      4244 1.12080E-02 2.37998E-03-4.40788E-14
 -1      4245 1.13486E-02 2.45757E-03-4.51789E-14
 -1      4246 1.14895E-02 2.53534E-03-4.62834E-14
 -1      4247 1.16307E-02 2.61325E-03-4.73970E-14
 -1      4248 1.17721E-02 2.69129E-03-4.85130E-14
 -1      4249 1.19137E-02 2.76940E-03-4.96356E-14
 -1      4250 1.20555E-02 2.84759E-03-5.07644E-14
 -1      4251 1.21975E-02 2.92583E-03-5.19014E-14
 -1      4252 1.23396E-02 3.00412E-03-5.30439E-14
 -1      4253 1.24818E-02 3.08243E-03-5.41910E-14
 -1      4254 1.26206E-02 3.15881E-03-5.53148E-14
 -1      4255 1.27631E-02 3.23717E-03-5.64771E-14
 -1      4256 2.45073E-03 1.47609E-04-3.10727E-15
 -1      4257 1.05080E-02 1.98391E-03-3.68313E-14
 -1      4258 1.03722E-02 1.91490E-03-3.66086E-14
 -1      4259 1.03819E-02 1.92763E-03-3.78740E-14
 -1      4260 1.06451E-02 2.05986E-03-3.78794E-14
 -1      4261 1.32428E-02 3.50074E-03-6.01914E-14
 -1      4262 2.23734E-03 6.91739E-05-2.76717E-15
 -1      4263 3.03716E-03 4.43657E-05-4.97847E-15
 -1      4264 3.06532E-03 7.94317E-05-5.01311E-15
 -1      4265 2.93609E-03 1.13621E-04-4.54334E-15
 -1      4266 2.89778E-03 3.61491E-05-4.56925E-15
 -1      4267 2.35125E-03 5.74972E-05-3.05687E-15
 -1      4268 1.05204E-02 2.00300E-03-3.89348E-14
 -1      4269 1.31236E-02 3.43533E-03-5.93519E-14
 -1      4270 1.06455E-02 2.06502E-03-3.86987E-14
 -1      4271 2.80110E-03 1.05528E-04-4.15663E-15
 -1      4272 2.82159E-03 6.61402E-05-4.29523E-15
 -1      4273 2.51734E-03 1.19316E-04-3.34516E-15
 -1      4274 1.29020E-02 3.31358E-03-5.76153E-14
 -1      4275 1.30211E-02 3.37897E-03-5.84493E-14
 -1      4276 1.17507E-02 2.67658E-03-4.71111E-14
 -1      4277 2.54599E-03 3.20749E-05-3.59204E-15
 -1      4278 2.53295E-03 8.07440E-05-3.46960E-15
 -1      4279 2.70677E-03 9.67141E-05-3.90599E-15
 -3
    1PSTEP                         2           1           1          
  100CL  101 1.000000000        4279                     0    1           1
 -4  STRESS      6    1
 -5  SXX         1    4    1    1
 -5  SYY         1    4    2    2
 -5  SZZ         1    4    3    3
 -5  SXY         1    4    1    2
 -5  SYZ         1    4    2    3
 -5  SZX         1    4    3    1
 -1         1 2.41013E+01 1.22450E+01 1.10167E+00 1.68708E+01-1.13926E-12-1.52534E-12
 -1         2-7.59129E-01-2.66135E+01-3.47658E+00-2.98726E-01 6.89185E-13-8.59868E-14
 -1         3 1.99999E+01 1.54175E-04 2.40639E-06 1.48378E-04-9.86197E-14-3.61423E-13
 -1         4 1.99999E+01 1.31556E-04 1.81329E-05-1.28640E-04 1.67855E-13-1.17350E-13
 -1         5 3.58363E+01 1.23133E+01 5.20790E+00 8.70535E+00 3.60822E-14 2.37049E-12
 -1         6 3.55903E+01 1.22015E+01 5.08136E+00-8.59866E+00-1.69920E-13 1.15198E-12
 -1         7 2.08285E+01 6.10070E+00-1.21174E-01-4.67986E+00-2.51327E-14-3.65274E-13
 -1         8 1.97046E+01 5.94362E+00 5.45183E-02-3.21487E+00-1.34337E-14-6.83514E-13
 -1         9 1.91746E+01 5.78244E+00 5.10534E-02-2.45689E+00-4.74100E-15-8.01441E-13
 -1        10 1.89249E+01 5.70039E+00 5.17347E-02-1.87831E+00 1.18829E-15-8.07456E-13
 -1        11 1.87877E+01 5.65507E+00 4.95143E-02-1.38779E+00 5.40366E-16-7.73173E-13
 -1        12 1.87080E+01 5.62854E+00 4.66810E-02-9.58915E-01 8.72523E-15-7.17840E-13
 -1        13 1.86609E+01 5.61302E+00 4.43231E-02-5.58035E-01 1.22270E-14-6.57035E-13
 -1        14 1.86391E+01 5.60583E+00 4.29393E-02-1.77967E-01 1.53081E-14-5.92481E-13
 -1        15 1.86396E+01 5.60596E+00 4.27537E-02 1.94465E-01 1.72155E-14-5.21995E-13
 -1        16 1.86631E+01 5.61355E+00 4.38484E-02 5.72356E-01 1.85800E-14-4.50680E-13
 -1        17 1.87132E+01 5.62976E+00 4.61545E-02 9.69879E-01 2.01935E-14-3.64141E-13
 -1        18 1.87966E+01 5.65731E+00 4.91205E-02 1.39536E+00 2.45628E-14-2.57815E-13
 -1        19 1.89377E+01 5.70403E+00 5.17120E-02 1.88446E+00 2.89213E-14-1.12165E-13
 -1        20 1.91903E+01 5.78715E+00 5.13025E-02 2.46419E+00 2.93411E-14 1.20806E-13
 -1        21 1.97222E+01 5.95034E+00 5.46981E-02 3.22583E+00 3.07393E-14 4.95569E-13
 -1        22 2.08075E+01 6.12081E+00-1.22777E-01 4.68425E+00 3.49720E-15 1.06568E-12
 -1        23 2.29914E+01-1.37880E+00-9.39005E-01-6.99206E-01-1.18131E-13 6.00936E-13
 -1        24 1.94014E+01-9.94549E-02-3.08452E-01 6.44818E-02-2.75197E-14 1.50836E-13
 -1        25 1.87705E+01-5.66142E-02-6.86200E-02 6.12698E-02-2.22051E-14-2.60987E-13
 -1        26 1.86285E+01-2.26924E-02-7.17272E-03 3.37317E-02-2.12580E-15-5.33840E-13
 -1        27 1.87099E+01-1.25133E-02 4.76172E-04 2.37868E-02-7.99642E-15-6.80673E-13
 -1        28 1.89066E+01-6.84988E-03 6.17985E-04 1.80923E-02-1.25518E-15-8.03637E-13
 -1        29 1.91610E+01-3.32462E-03 8.70569E-04 1.46257E-02 2.15811E-14-9.15106E-13
 -1        30 1.94369E+01-7.38975E-04 1.87900E-03 1.22920E-02-2.99155E-15-1.00063E-12
 -1        31 1.97056E+01 1.52008E-03 3.53385E-03 1.04174E-02-1.85363E-14-1.09730E-12
 -1        32 1.99390E+01 3.77615E-03 5.87373E-03 8.43551E-03-9.36737E-15-1.27086E-12
 -1        33 2.01050E+01 6.12560E-03 8.92381E-03 5.76171E-03 1.08776E-14-1.28747E-12
 -1        34 2.01662E+01 8.42163E-03 1.24587E-02 1.79936E-03-1.52807E-14-1.22617E-12
 -1        35 2.00828E+01 1.02389E-02 1.58021E-02-3.92046E-03 3.99339E-15-1.35098E-12
 -1        36 1.98193E+01 1.08906E-02 1.77314E-02-1.14575E-02-5.03775E-15-1.42983E-12
 -1        37 1.93584E+01 9.57626E-03 1.66340E-02-2.00915E-02-4.20565E-14-1.49726E-12
 -1        38 1.87168E+01 5.71107E-03 1.10771E-02-2.80503E-02 2.81308E-14-1.45184E-12
 -1        39 1.79597E+01-6.21420E-04 7.50687E-04-3.26620E-02-2.61264E-14-1.57461E-12
 -1        40 1.72019E+01-8.32445E-03-1.26526E-02-3.12158E-02-1.17922E-14-1.56286E-12
 -1        41 1.65895E+01-1.53766E-02-2.53947E-02-2.23979E-02 2.24405E-14-1.65930E-12
 -1        42 1.62594E+01-1.95252E-02-3.30243E-02-7.51207E-03-1.85831E-14-1.44849E-12
 -1        43 1.62933E+01-1.93219E-02-3.25906E-02 9.55058E-03-4.49819E-14-1.23015E-12
 -1        44 1.66868E+01-1.48732E-02-2.43161E-02 2.39080E-02-1.90346E-14-1.18238E-12
 -1        45 1.73517E+01-7.78156E-03-1.14660E-02 3.19413E-02 9.60430E-15-1.23432E-12
 -1        46 1.81500E+01-3.19945E-04 1.48567E-03 3.27233E-02-3.10364E-14-1.27791E-12
 -1        47 1.89406E+01 5.58918E-03 1.10245E-02 2.78371E-02-1.38596E-14-1.21083E-12
 -1        48 1.96170E+01 8.99303E-03 1.57428E-02 2.00685E-02 9.70253E-16-1.00224E-12
 -1        49 2.01231E+01 9.92811E-03 1.61496E-02 1.20217E-02 1.85769E-14-9.68845E-13
 -1        50 2.04495E+01 9.04759E-03 1.37498E-02 5.35754E-03-4.84696E-14-1.18698E-12
 -1        51 2.06183E+01 7.18047E-03 1.01406E-02 7.14997E-04-2.59563E-15-1.14137E-12
 -1        52 2.06672E+01 5.03053E-03 6.50015E-03-1.98847E-03-4.25409E-14-1.12379E-12
 -1        53 2.06357E+01 3.05736E-03 3.47351E-03-3.18680E-03-4.03884E-14-1.22692E-12
 -1        54 2.05584E+01 1.48460E-03 1.27729E-03-3.38969E-03 1.43023E-14-1.26266E-12
 -1        55 2.04613E+01 3.65480E-04-1.31700E-04-3.03489E-03 2.16913E-14-1.17539E-12
 -1        56 2.03619E+01-3.44805E-04-9.12965E-04-2.43789E-03 3.46716E-14-1.06941E-12
 -1        57 2.02709E+01-7.32745E-04-1.25024E-03-1.79652E-03 1.87414E-14-1.05810E-12
 -1        58 2.01932E+01-8.91160E-04-1.30513E-03-1.21739E-03 6.60738E-14-9.45560E-13
 -1        59 2.01306E+01-9.01157E-04-1.20094E-03-7.45520E-04-8.17528E-14-7.85936E-13
 -1        60 2.00825E+01-8.25598E-04-1.02271E-03-3.89069E-04-1.68610E-14-3.86376E-13
 -1        61 2.00471E+01-7.09003E-04-8.24039E-04-1.36918E-04-6.07232E-14 3.01464E-14
 -1        62 2.00223E+01-5.80371E-04-6.35391E-04 3.00190E-05-4.14231E-15-2.53173E-13
 -1        63 2.00059E+01-4.56851E-04-4.71598E-04 1.32274E-04-1.04617E-13-7.13986E-13
 -1        64 1.99960E+01-3.47188E-04-3.37639E-04 1.88504E-04-2.93381E-14-1.19873E-12
 -1        65 1.99909E+01-2.54527E-04-2.32719E-04 2.14143E-04 5.51029E-14-9.87366E-13
 -1        66 1.99892E+01-1.78451E-04-1.52788E-04 2.21120E-04 1.04256E-13-3.26394E-13
 -1        67 1.99898E+01-1.16340E-04-9.16193E-05 2.17985E-04 7.27426E-14-1.12039E-13
 -1        68 1.99918E+01-6.40824E-05-4.02405E-05 2.09947E-04-2.50345E-14-1.91376E-14
 -1        69 1.99946E+01-1.71530E-05 1.46747E-05 1.96765E-04-3.13874E-14-3.33422E-13
 -1        70 1.99974E+01 2.03435E-05 8.03278E-05 1.59205E-04 1.38908E-13-5.37738E-14
 -1        71 1.99995E+01-6.47082E-06 1.19850E-04 7.77279E-05-1.32021E-13-9.93577E-14
 -1        72 2.31906E+01-1.33839E+00-9.30375E-01 7.89901E-01 2.39080E-14 2.19444E-12
 -1        73 1.94447E+01-1.08491E-01-3.27433E-01-6.66822E-02 1.23920E-14 1.98984E-12
 -1        74 1.87765E+01-5.90043E-02-7.48743E-02-6.13937E-02 9.25930E-15 1.69420E-12
 -1        75 1.86302E+01-2.49857E-02-9.56421E-03-3.32253E-02 6.39311E-15 1.46853E-12
 -1        76 1.87303E+01-1.46659E-02-1.28458E-03-2.34770E-02-4.58596E-15 1.36266E-12
 -1        77 1.89639E+01-1.10192E-02-2.62180E-03-1.67132E-02 1.23076E-14 1.25260E-12
 -1        78 1.93159E+01-9.41862E-03-4.95641E-03-1.35514E-02 1.73621E-14 1.21974E-12
 -1        79 1.97755E+01-9.99687E-03-8.22082E-03-1.21760E-02-5.23041E-15 1.14864E-12
 -1        80 2.03654E+01-1.22758E-02-1.33351E-02-1.30221E-02 7.34243E-15 1.10604E-12
 -1        81 2.11359E+01-1.63446E-02-2.13743E-02-1.68850E-02-9.73885E-15 1.09459E-12
 -1        82 2.21663E+01-1.99414E-02-3.27770E-02-2.76607E-02 8.55013E-15 1.14489E-12
 -1        83 2.34909E+01-2.60163E-02-4.76228E-02-4.13018E-02 2.30423E-14 1.13663E-12
 -1        84 2.53679E+01-2.74258E-02-6.15654E-02-6.99792E-02-1.39335E-14 1.21606E-12
 -1        85 2.78443E+01-1.93735E-02-5.73140E-02-1.11434E-01 2.34365E-14 1.11140E-12
 -1        86 3.08467E+01 9.05745E-03 3.91131E-03-1.54830E-01-2.45942E-14 8.71324E-13
 -1        87 3.38190E+01 6.55407E-02 1.70114E-01-1.50515E-01-7.30839E-15 9.20226E-13
 -1        88 3.52792E+01 1.22849E-01 3.98277E-01 3.16504E-02-3.07003E-14 1.11539E-12
 -1        89 3.31966E+01 1.12195E-01 4.03936E-01 4.70902E-01-7.77260E-14 1.53655E-12
 -1        90 2.74380E+01-1.17362E-02-4.06518E-02 8.28097E-01 1.25499E-14 1.94028E-12
 -1        91 1.92446E+01-1.32652E-01-9.97898E-01 7.10042E-01-5.01196E-14 1.87395E-12
 -1        92 1.65899E+01-1.83387E-01-1.32411E+00-2.28364E-01 5.77698E-14 1.73564E-12
 -1        93 2.10165E+01-1.34821E-01-7.66125E-01-8.32661E-01 3.53051E-14 1.21103E-12
 -1        94 2.86348E+01 2.95265E-02 6.84296E-02-7.72265E-01 5.88418E-14 6.93084E-13
 -1        95 3.40560E+01 1.37968E-01 4.53128E-01-3.26583E-01-5.83388E-15 2.41696E-13
 -1        96 3.53805E+01 1.15622E-01 3.57964E-01 2.84582E-02 6.77670E-15 5.92719E-13
 -1        97 3.34992E+01 4.91759E-02 1.25239E-01 1.58381E-01 1.33799E-14 4.93938E-13
 -1        98 3.04922E+01 1.76761E-03-1.58898E-02 1.46584E-01 9.26948E-14 3.01467E-13
 -1        99 2.77511E+01-2.43821E-02-6.23418E-02 1.03281E-01-5.08666E-14 4.56038E-13
 -1       100 2.54444E+01-2.80097E-02-6.15877E-02 6.29693E-02-7.31902E-15 6.20594E-13
 -1       101 2.37480E+01-2.53809E-02-4.70952E-02 3.56663E-02 1.72101E-13 3.34323E-13
 -1       102 2.25516E+01-2.01960E-02-3.25099E-02 1.94081E-02-7.66067E-14 2.29450E-13
 -1       103 2.17243E+01-1.51837E-02-2.15895E-02 1.02313E-02 3.12074E-14 3.60729E-13
 -1       104 2.11583E+01-1.05555E-02-1.38942E-02 4.55432E-03-2.56751E-14 5.42558E-13
 -1       105 2.07858E+01-8.27575E-03-9.66676E-03 2.58053E-03 5.18993E-14 6.78823E-13
 -1       106 2.05160E+01-5.63913E-03-6.28567E-03 9.72277E-04-1.01897E-13 4.92841E-13
 -1       107 2.03323E+01-3.99892E-03-4.18828E-03 1.81056E-04 5.16026E-15 3.54334E-13
 -1       108 2.02076E+01-2.83260E-03-2.81640E-03-2.12324E-04 4.55279E-14-3.72462E-14
 -1       109 2.01236E+01-2.02053E-03-1.90808E-03-3.88084E-04 7.39553E-14-3.90929E-13
 -1       110 2.00678E+01-1.37749E-03-1.27071E-03-5.35396E-04-7.97758E-14 2.83688E-13
 -1       111 2.00329E+01-1.05680E-03-9.08740E-04-4.50416E-04-5.24088E-14 3.17029E-13
 -1       112 2.00095E+01-7.25615E-04-6.04695E-04-4.45633E-04 1.27841E-13 4.07612E-13
 -1       113 1.99957E+01-5.09898E-04-4.03520E-04-4.08523E-04-5.61072E-14 5.71612E-13
 -1       114 1.99884E+01-3.54213E-04-2.64940E-04-3.66998E-04 8.71600E-14 3.32182E-13
 -1       115 1.99855E+01-2.43675E-04-1.69578E-04-3.25680E-04-1.06956E-13 6.77235E-14
 -1       116 1.99856E+01-1.55735E-04-1.01912E-04-2.99231E-04 1.20329E-16-1.18935E-13
 -1       117 1.99874E+01-1.00682E-04-5.71299E-05-2.58954E-04-1.56251E-14 4.90388E-13
 -1       118 1.99904E+01-4.98855E-05-1.56788E-05-2.37793E-04 3.80715E-15 6.00860E-13
 -1       119 1.99939E+01-4.53106E-06 3.40890E-05-2.15072E-04-9.35287E-14-1.34270E-13
 -1       120 1.99972E+01 3.13933E-05 1.00959E-04-1.72197E-04 2.71669E-14-1.92191E-13
 -1       121 1.99995E+01 3.76743E-06 1.30858E-04-7.55666E-05-1.08401E-13-2.18782E-13
 -1       122 1.99998E+01-4.90481E-04 8.66939E-05-1.30224E-04-3.45454E-13 6.20632E-14
 -1       123 1.99998E+01-2.56336E-03 6.26105E-05-1.62387E-04-3.81374E-13-2.63840E-15
 -1       124 1.99998E+01-5.36471E-03-2.34188E-05-1.55174E-04-3.34047E-13 6.17365E-14
 -1       125 1.99998E+01-7.92160E-03-6.53591E-05-1.13421E-04-3.89315E-13 1.06851E-13
 -1       126 1.99998E+01-9.83628E-03-7.15203E-05-6.92931E-05 3.85724E-13 1.50534E-13
 -1       127 1.99998E+01-1.10237E-02-6.13172E-05-3.53553E-05-5.44189E-13-2.84080E-13
 -1       128 1.99998E+01-1.16115E-02-4.50583E-05-1.07435E-05-1.02698E-12 1.01221E-13
 -1       129 1.99998E+01-1.17252E-02-3.24578E-05 4.61577E-06-1.19231E-12-4.80283E-14
 -1       130 1.99998E+01-1.14881E-02-2.78012E-05 1.50701E-05-9.55521E-13 3.36419E-14
 -1       131 1.99998E+01-1.09493E-02-3.19740E-05 2.59340E-05-5.24950E-13-8.42271E-14
 -1       132 1.99998E+01-1.00743E-02-4.20933E-05 4.30073E-05-8.13679E-13-2.18686E-13
 -1       133 1.99998E+01-8.79696E-03-5.18948E-05 6.66537E-05-1.27537E-12 2.61503E-13
 -1       134 1.99998E+01-6.99737E-03-4.98400E-05 1.00263E-04-1.30177E-12-7.88890E-14
 -1       135 1.99998E+01-4.72288E-03-1.67876E-05 1.39627E-04-8.19815E-13-6.37321E-14
 -1       136 1.99998E+01-2.31911E-03 4.23186E-05 2.02772E-04 9.80142E-15 1.86118E-13
 -1       137 1.99998E+01-4.80913E-04 7.59100E-05 1.03461E-04-7.70963E-14 3.47453E-14
 -1       138-1.80687E+00-2.37459E+01-3.48710E+00-4.86764E+00 7.19980E-13 3.81674E-13
 -1       139-2.85873E+00-1.33540E+01-3.02206E+00-5.26463E+00 1.12310E-12 3.39534E-13
 -1       140 1.21705E+00-1.48612E-01-1.99400E+00 1.14221E+00 1.33371E-12 1.06209E-12
 -1       141 1.36180E+01 8.42628E+00-4.49038E-01 1.08499E+01 9.86267E-13 1.13254E-12
 -1       142 3.71330E+01 1.00227E+01 1.74215E+00 1.87486E+01 3.79585E-13 4.24993E-13
 -1       143 6.24366E+01 5.67584E+00 3.95483E+00 1.70952E+01-1.75179E-13-7.21201E-13
 -1       144 7.83131E+01 1.83074E+00 5.33118E+00 4.69522E+00-1.06505E-13-1.65848E-12
 -1       145 7.46140E+01 2.77524E+00 5.00839E+00-1.01953E+01 4.14530E-13-2.43278E-12
 -1       146 5.42083E+01 7.58447E+00 3.24061E+00-1.89797E+01 1.00064E-12-2.68219E-12
 -1       147 2.83744E+01 1.03005E+01 9.77700E-01-1.68402E+01 1.45312E-12-2.29383E-12
 -1       148 9.30357E+00 6.52254E+00-9.20941E-01-8.07176E+00 1.29008E-12-1.33948E-12
 -1       149-8.52632E-01-4.11118E+00-2.33704E+00 1.41448E+00 8.04301E-13-5.56388E-13
 -1       150-2.74697E+00-1.70759E+01-3.20389E+00 5.87404E+00-8.27116E-15-2.20796E-14
 -1       151-1.24819E+00-2.58277E+01-3.54599E+00 3.80555E+00-4.57009E-13 1.32287E-13
 -1       152-7.65453E-01-2.57953E+01-3.40893E+00-1.35596E+00-1.09385E-12-1.04569E-13
 -1       153-1.62839E+00-1.67166E+01-2.79746E+00-4.00373E+00-1.85740E-12-5.43246E-13
 -1       154-9.23981E-02-2.72814E+00-1.70214E+00-4.36993E-01-2.14095E-12-1.12466E-12
 -1       155 7.27806E+00 7.81948E+00-4.04739E-01 7.65512E+00-1.73611E-12-1.47254E-12
 -1       156 4.32064E+01 9.45023E+00 2.29506E+00 1.95540E+01-6.31051E-13-1.19649E-12
 -1       157 5.98607E+01 4.22064E+00 3.12313E+00 1.44821E+01-1.68331E-13-7.88036E-13
 -1       158 6.83763E+01 9.88372E-01 3.50855E+00 3.31240E+00-7.95995E-14 9.03166E-14
 -1       159 6.51471E+01 2.25877E+00 3.36559E+00-9.78479E+00-2.87670E-13 1.23240E-12
 -1       160 5.08052E+01 7.36217E+00 2.68300E+00-1.83551E+01-6.39919E-13 1.80278E-12
 -1       161 3.11225E+01 1.17549E+01 1.57837E+00-1.86754E+01-9.79938E-13 1.37557E-12
 -1       162 1.38085E+01 1.11628E+01 2.72292E-01-1.23504E+01-6.92613E-13 8.09852E-13
 -1       163 2.74065E+00 3.50956E+00-1.05368E+00-3.41241E+00 2.45914E-13-6.82787E-14
 -1       164-1.35867E+00-8.74415E+00-2.19861E+00 2.85927E+00 7.53786E-13-4.51333E-13
 -1       165-1.22062E+00-2.05100E+01-3.02412E+00 3.61821E+00 7.38798E-13-1.27939E-13
 -1       166 2.10482E+01 3.68204E+00-5.65361E-02-3.54636E+00-2.65950E-13-4.59809E-13
 -1       167 2.00349E+01 4.20718E+00-4.53446E-02-2.73656E+00-1.58941E-13-6.24702E-13
 -1       168 1.95463E+01 4.48528E+00-3.09814E-02-2.11987E+00-7.15404E-14-6.82902E-13
 -1       169 1.92849E+01 4.63334E+00-2.31398E-02-1.60088E+00 2.37679E-15-6.66428E-13
 -1       170 1.91321E+01 4.72348E+00-1.90921E-02-1.15429E+00 6.25219E-14-6.24739E-13
 -1       171 1.90372E+01 4.78209E+00-1.68920E-02-7.43159E-01 1.08537E-13-5.90379E-13
 -1       172 1.89846E+01 4.81624E+00-1.57842E-02-3.59690E-01 1.41572E-13-5.23649E-13
 -1       173 1.89671E+01 4.82913E+00-1.54307E-02 9.61340E-03 1.79417E-13-4.68203E-13
 -1       174 1.89838E+01 4.82113E+00-1.57418E-02 3.77506E-01 2.19373E-13-4.04265E-13
 -1       175 1.90373E+01 4.79041E+00-1.68081E-02 7.57219E-01 2.53288E-13-3.30905E-13
 -1       176 1.91337E+01 4.73390E+00-1.89837E-02 1.15647E+00 2.85496E-13-2.46999E-13
 -1       177 1.92940E+01 4.64073E+00-2.31105E-02 1.60663E+00 3.22951E-13-1.29766E-13
 -1       178 1.95621E+01 4.48781E+00-3.09572E-02 2.12447E+00 3.43223E-13 3.32564E-14
 -1       179 2.00565E+01 4.20344E+00-4.51797E-02 2.74367E+00 3.33035E-13 2.98563E-13
 -1       180 2.10714E+01 3.66657E+00-5.32780E-02 3.56235E+00 2.51748E-13 6.75252E-13
 -1       181 2.20001E+01 8.53268E-01 7.98259E-04-1.91228E+00-2.53172E-13-1.36190E-13
 -1       182 2.05170E+01 1.90253E-01-9.64611E-03-7.18601E-01-2.11215E-13-2.30912E-13
 -1       183 1.97887E+01 1.03919E-01 1.37673E-02-2.36742E-01-1.53853E-13-3.00726E-13
 -1       184 1.95028E+01 5.06745E-02 1.01185E-02-1.14382E-02-9.38522E-14-3.85926E-13
 -1       185 1.94351E+01 2.64490E-02 5.23685E-03 1.05259E-01-8.54036E-14-4.32805E-13
 -1       186 1.94918E+01 1.26514E-02 2.40673E-03 1.66654E-01-7.11602E-14-4.80082E-13
 -1       187 1.96162E+01 2.98752E-03 9.44705E-04 1.93790E-01-2.22071E-14-5.04364E-13
 -1       188 1.97705E+01-5.51841E-03 6.63320E-05 1.94988E-01-5.15594E-14-4.84435E-13
 -1       189 1.99256E+01-1.45612E-02-5.89738E-04 1.72044E-01-6.44000E-14-4.36959E-13
 -1       190 2.00548E+01-2.50205E-02-1.14161E-03 1.23198E-01-5.74475E-14-4.51762E-13
 -1       191 2.01313E+01-3.68328E-02-1.58845E-03 4.55230E-02-3.33103E-14-6.24365E-13
 -1       192 2.01278E+01-4.86203E-02-1.86572E-03-6.21677E-02-2.72037E-14-6.71656E-13
 -1       193 2.00194E+01-5.73521E-02-1.87957E-03-1.95612E-01-6.63224E-14-6.53839E-13
 -1       194 1.97899E+01-5.84650E-02-1.54842E-03-3.41168E-01-7.44435E-14-6.49280E-13
 -1       195 1.94400E+01-4.69879E-02-8.55988E-04-4.73433E-01-2.58171E-14-6.67508E-13
 -1       196 1.89964E+01-1.99659E-02 1.12007E-04-5.57231E-01-3.61000E-14-7.28533E-13
 -1       197 1.85165E+01 2.04426E-02 1.17315E-03-5.56421E-01-2.53547E-14-6.70719E-13
 -1       198 1.80828E+01 6.51712E-02 2.10478E-03-4.48837E-01-2.47541E-14-6.62394E-13
 -1       199 1.77854E+01 1.00193E-01 2.72713E-03-2.41182E-01 3.37380E-14-6.29055E-13
 -1       200 1.76940E+01 1.12623E-01 2.93903E-03 2.60607E-02 3.67206E-14-6.25879E-13
 -1       201 1.78335E+01 9.76653E-02 2.71433E-03 2.90162E-01 4.75830E-14-5.66391E-13
 -1       202 1.81744E+01 6.14275E-02 2.08716E-03 4.90034E-01-5.55448E-14-5.07967E-13
 -1       203 1.86447E+01 1.73618E-02 1.16687E-03 5.89200E-01 2.10832E-14-4.84407E-13
 -1       204 1.91560E+01-2.09004E-02 1.40630E-04 5.85145E-01 4.82284E-14-3.82608E-13
 -1       205 1.96297E+01-4.51936E-02-7.73723E-04 5.02574E-01 5.95721E-14-4.19973E-13
 -1       206 2.00140E+01-5.41817E-02-1.40631E-03 3.78009E-01 5.96105E-15-3.41670E-13
 -1       207 2.02869E+01-5.12760E-02-1.68983E-03 2.45402E-01-1.46191E-13-3.82279E-13
 -1       208 2.04507E+01-4.15678E-02-1.65918E-03 1.28189E-01-4.42744E-14-4.40144E-13
 -1       209 2.05230E+01-2.95831E-02-1.41328E-03 3.78966E-02 1.03359E-13-5.16769E-13
 -1       210 2.05274E+01-1.83296E-02-1.06336E-03-2.33233E-02-6.04408E-14-4.20014E-13
 -1       211 2.04876E+01-9.29283E-03-7.01139E-04-5.89704E-02-8.08608E-14-2.24403E-13
 -1       212 2.04233E+01-2.85493E-03-3.85069E-04-7.49557E-02-5.10714E-14-3.30597E-13
 -1       213 2.03497E+01 1.22940E-03-1.41768E-04-7.74426E-02-1.67987E-14-4.71177E-13
 -1       214 2.02767E+01 3.46682E-03 2.53011E-05-7.17154E-02-4.93145E-15-7.42402E-13
 -1       215 2.02104E+01 4.40093E-03 1.25965E-04-6.17791E-02 1.10493E-13-7.97026E-13
 -1       216 2.01538E+01 4.50177E-03 1.75443E-04-5.03819E-02 1.08436E-13-6.96224E-13
 -1       217 2.01078E+01 4.12859E-03 1.89295E-04-3.92296E-02 1.77628E-13-5.53009E-13
 -1       218 2.00719E+01 3.53186E-03 1.80820E-04-2.92519E-02 3.01261E-13-2.78758E-13
 -1       219 2.00450E+01 2.87202E-03 1.60164E-04-2.08490E-02-1.24352E-13-2.51568E-13
 -1       220 2.00256E+01 2.24225E-03 1.34378E-04-1.40895E-02-3.24857E-13-4.18469E-13
 -1       221 2.00123E+01 1.68915E-03 1.07915E-04-8.85486E-03-1.93873E-13-4.69150E-13
 -1       222 2.00038E+01 1.22907E-03 8.32543E-05-4.93941E-03 1.42513E-13-2.88699E-13
 -1       223 1.99989E+01 8.59915E-04 6.14590E-05-2.11379E-03 3.16532E-13-1.32951E-13
 -1       224 1.99965E+01 5.68540E-04 4.26849E-05-1.64232E-04 2.57215E-13 1.82928E-14
 -1       225 1.99959E+01 3.34873E-04 2.66916E-05 1.08360E-03 1.23816E-13 1.47982E-13
 -1       226 1.99965E+01 1.31241E-04 1.39563E-05 1.74862E-03-6.28188E-14 8.16975E-14
 -1       227 1.99975E+01-8.44307E-05 6.25209E-06 1.87612E-03 6.17206E-14-4.92577E-14
 -1       228 1.99987E+01-3.56498E-04 6.61454E-06 1.45174E-03 3.91065E-14-1.54009E-13
 -1       229 2.20625E+01 9.13958E-01 5.40502E-04 1.98625E+00 1.90275E-13 9.99787E-13
 -1       230 2.05650E+01 2.08315E-01-1.09385E-02 7.48947E-01 1.91394E-13 8.68553E-13
 -1       231 1.98276E+01 1.11812E-01 1.36376E-02 2.40212E-01 1.70608E-13 7.47331E-13
 -1       232 1.95529E+01 5.90520E-02 1.10327E-02-6.43304E-03 1.11726E-13 5.90395E-13
 -1       233 1.95190E+01 3.90858E-02 6.43618E-03-1.44624E-01 7.89752E-14 5.14025E-13
 -1       234 1.96428E+01 3.26486E-02 4.12601E-03-2.49755E-01 4.08079E-14 4.60376E-13
 -1       235 1.98907E+01 3.50722E-02 3.31203E-03-3.45559E-01 5.24107E-14 4.33800E-13
 -1       236 2.02531E+01 4.53269E-02 3.38660E-03-4.54203E-01 4.73508E-14 4.06939E-13
 -1       237 2.07415E+01 6.38436E-02 3.88293E-03-5.96272E-01 3.33305E-15 3.70722E-13
 -1       238 2.13838E+01 9.14877E-02 4.28236E-03-7.93333E-01-1.52851E-15 3.43574E-13
 -1       239 2.21760E+01 1.25309E-01 4.19939E-03-1.04945E+00-2.62147E-14 3.59535E-13
 -1       240 2.32462E+01 1.62881E-01 2.55563E-03-1.39893E+00-1.33066E-14 3.60179E-13
 -1       241 2.45962E+01 1.78924E-01-1.34303E-03-1.80885E+00 8.19123E-14 3.04045E-13
 -1       242 2.62221E+01 1.15086E-01-5.61296E-03-2.16162E+00 1.12465E-13 3.18735E-13
 -1       243 2.80281E+01-1.39566E-01-3.69751E-03-2.15953E+00-1.58285E-14 3.47375E-13
 -1       244 2.97657E+01-6.99206E-01 8.51789E-03-1.26945E+00-1.42145E-13 4.26424E-13
 -1       245 3.09374E+01-1.33116E+00 1.25335E-02 8.49804E-01-1.89506E-13 5.14019E-13
 -1       246 3.11394E+01-1.31127E+00-3.55171E-02 3.41387E+00-2.72761E-13 5.87613E-13
 -1       247 2.99657E+01 3.39943E-01-1.86840E-01 4.80239E+00 7.07073E-14 6.30818E-13
 -1       248 2.86326E+01 2.43975E+00-2.71316E-01 1.75170E+00 1.45925E-13 4.08471E-13
 -1       249 2.88161E+01 2.11177E+00-2.53376E-01-2.69222E+00 2.86993E-13 3.95104E-13
 -1       250 3.01626E+01-4.08684E-02-1.57211E-01-4.73632E+00 4.27956E-13 1.69212E-13
 -1       251 3.11433E+01-1.42555E+00-3.91506E-02-3.24597E+00 2.87025E-13-5.85244E-14
 -1       252 3.08919E+01-1.27226E+00 1.26421E-02-4.50279E-01-9.10227E-14-9.43197E-14
 -1       253 2.95896E+01-5.64690E-01 8.07606E-03 1.51471E+00 2.08479E-14-5.27868E-14
 -1       254 2.78483E+01-6.49804E-02-3.43635E-03 2.16322E+00 5.86597E-14-2.24092E-14
 -1       255 2.61902E+01 1.39632E-01-3.91987E-03 2.06176E+00-8.36137E-14 1.05806E-13
 -1       256 2.46503E+01 1.88007E-01-6.29287E-04 1.67486E+00 1.58194E-14 2.85535E-15
 -1       257 2.34097E+01 1.66448E-01 2.73936E-03 1.25669E+00 1.02474E-13-1.59692E-14
 -1       258 2.24572E+01 1.27967E-01 4.09222E-03 9.05137E-01 2.35706E-15 1.16847E-13
 -1       259 2.17492E+01 9.23908E-02 4.04589E-03 6.38511E-01-1.06556E-13 3.36757E-13
 -1       260 2.12341E+01 6.46855E-02 3.44822E-03 4.45831E-01 2.01286E-14 1.55911E-13
 -1       261 2.08782E+01 4.56120E-02 2.59057E-03 3.15328E-01 5.49769E-14 7.44065E-14
 -1       262 2.06078E+01 3.15393E-02 1.99185E-03 2.18789E-01 1.17739E-14 3.89394E-14
 -1       263 2.04158E+01 2.17800E-02 1.44263E-03 1.51295E-01 4.25450E-14 2.13391E-13
 -1       264 2.02801E+01 1.50947E-02 1.03681E-03 1.04229E-01 1.94241E-13 7.15471E-14
 -1       265 2.01846E+01 1.04981E-02 7.42319E-04 7.13076E-02 4.12758E-14-6.76558E-15
 -1       266 2.01181E+01 7.31382E-03 5.35536E-04 4.82134E-02-2.34719E-13 2.23624E-13
 -1       267 2.00741E+01 5.18863E-03 3.75895E-04 3.26653E-02 2.46877E-14 1.54288E-13
 -1       268 2.00424E+01 3.62336E-03 2.75900E-04 2.11180E-02-2.10062E-13 3.38933E-15
 -1       269 2.00215E+01 2.50978E-03 1.95420E-04 1.30132E-02-1.41381E-13 4.16468E-13
 -1       270 2.00082E+01 1.72239E-03 1.38077E-04 7.38906E-03 9.70598E-14 3.30233E-13
 -1       271 2.00003E+01 1.16333E-03 9.65315E-05 3.52795E-03 2.35325E-13 2.67234E-13
 -1       272 1.99962E+01 7.64162E-04 6.61456E-05 9.27478E-04-3.24947E-14 2.92379E-13
 -1       273 1.99947E+01 4.86472E-04 4.23467E-05-6.95459E-04-2.74152E-13 3.98460E-13
 -1       274 1.99947E+01 2.65501E-04 2.55558E-05-1.73176E-03 2.41385E-13 1.83467E-13
 -1       275 1.99957E+01 7.24252E-05 1.18167E-05-2.22462E-03 3.17343E-13-6.07504E-14
 -1       276 1.99971E+01-1.31976E-04 5.05992E-06-2.20294E-03-3.36062E-14 9.89346E-15
 -1       277 1.99986E+01-4.35760E-04 4.21315E-06-1.64453E-03 3.44834E-14-8.85246E-14
 -1       278 1.99995E+01-1.33423E-03-1.84310E-06-1.61075E-03 1.25468E-13-8.06246E-15
 -1       279 1.99998E+01-2.71063E-03-5.44357E-06-1.96695E-03 8.59145E-15-1.17019E-13
 -1       280 2.00000E+01-4.08422E-03-9.38268E-07-1.79724E-03 8.14035E-15-1.57187E-13
 -1       281 2.00000E+01-5.18951E-03 2.35783E-06-1.34669E-03-3.88550E-13 4.09536E-13
 -1       282 2.00000E+01-5.93246E-03 4.23316E-06-8.47337E-04-4.54434E-13-3.25352E-13
 -1       283 2.00000E+01-6.34068E-03 5.11322E-06-4.03745E-04-2.90374E-13-3.76102E-13
 -1       284 1.99999E+01-6.46654E-03 5.08322E-06-6.74624E-05-2.54613E-13-7.74475E-14
 -1       285 1.99999E+01-6.39207E-03 4.71380E-06 1.78963E-04-3.01151E-13-4.10089E-14
 -1       286 1.99999E+01-6.16930E-03 4.34959E-06 3.89142E-04-1.42926E-13 1.38692E-13
 -1       287 1.99999E+01-5.80357E-03 3.84908E-06 6.24020E-04-2.62154E-13-1.67360E-13
 -1       288 1.99999E+01-5.26973E-03 2.82478E-06 9.17173E-04-2.88225E-13-1.90947E-13
 -1       289 2.00000E+01-4.50256E-03 9.29158E-07 1.26798E-03-2.58961E-13-2.37697E-14
 -1       290 1.99999E+01-3.50245E-03-2.58573E-06 1.59451E-03-1.98599E-14 2.98405E-13
 -1       291 1.99998E+01-2.30178E-03-6.10568E-07 1.67383E-03-7.38227E-14 3.71364E-13
 -1       292 1.99994E+01-1.21419E-03-4.96787E-06 1.85196E-03-9.45654E-14 5.95434E-14
 -1       293-1.31285E+00-1.10377E+01-8.80879E-01 1.13776E-02 2.04975E-13 7.20257E-14
 -1       294 1.79463E+00-1.01112E+01-8.93630E-01 2.29726E+00 2.01700E-13 1.69031E-13
 -1       295 9.31555E+00-7.30077E+00-6.75507E-01 4.77427E+00 2.98817E-13 4.30711E-13
 -1       296 1.90130E+01-3.59662E+00-4.13212E-01 6.09507E+00 4.33709E-13 2.30843E-13
 -1       297 3.21595E+01-6.93300E-01 1.20968E-01 5.52349E+00 5.07205E-13-2.78333E-13
 -1       298 4.40157E+01 3.46906E+00 8.84395E-01 4.43658E+00 4.70141E-13-3.78031E-13
 -1       299 5.00331E+01 6.47207E+00 1.22182E+00 1.21083E+00 4.12170E-13-5.68573E-13
 -1       300 5.05580E+01 7.71862E+00 1.24891E+00-2.67728E-01 3.79113E-13-6.69888E-13
 -1       301 4.85609E+01 5.42969E+00 1.10280E+00-2.53966E+00 3.96363E-13-7.66387E-13
 -1       302 3.98193E+01 1.60206E+00 4.86422E-01-4.21186E+00 3.04409E-13-7.69551E-13
 -1       303 2.82045E+01-1.59372E+00-2.34017E-02-6.11387E+00 2.29650E-13-9.23372E-13
 -1       304 1.70912E+01-5.33897E+00-4.11627E-01-5.94320E+00 9.10660E-14-6.83453E-13
 -1       305 6.63393E+00-8.11791E+00-7.22214E-01-4.23111E+00 2.91434E-14-5.49349E-13
 -1       306 2.08008E-01-1.13518E+01-1.04531E+00-1.31803E+00-1.86712E-13-2.16688E-13
 -1       307-1.64697E+00-1.24514E+01-1.07403E+00 6.97795E-01-4.53571E-13-2.58071E-13
 -1       308 9.00952E-02-1.04201E+01-8.43805E-01 2.92746E+00-5.67685E-13-4.78617E-13
 -1       309 5.65338E+00-7.18721E+00-5.68099E-01 5.45188E+00-6.23585E-13-4.68549E-13
 -1       310 1.30535E+01-2.95848E+00-3.06404E-01 7.01785E+00-8.26006E-13-4.72539E-13
 -1       311 2.46679E+01-4.41917E-01 7.19781E-02 7.53540E+00-5.90417E-13-3.52468E-13
 -1       312 3.39188E+01 4.29312E+00 4.94429E-01 8.19576E+00-6.02032E-13-5.39402E-13
 -1       313 4.24101E+01 6.06573E+00 8.26948E-01 6.37909E+00-4.71317E-13-4.04232E-13
 -1       314 4.76696E+01 6.87363E+00 9.96954E-01 3.08980E+00-4.79727E-13-1.21028E-13
 -1       315 4.80008E+01 7.24439E+00 9.52404E-01-1.03809E+00-5.94996E-13 8.13724E-14
 -1       316 4.51968E+01 6.50661E+00 9.00028E-01-5.06890E+00-3.97793E-13 2.75502E-13
 -1       317 3.71474E+01 4.78421E+00 5.30988E-01-6.76340E+00-1.19760E-13 2.76640E-13
 -1       318 2.77500E+01 2.75761E+00 2.74706E-01-8.62925E+00 2.19269E-14 3.44280E-13
 -1       319 1.81688E+01-1.06978E+00-1.10714E-01-7.81047E+00 3.96627E-13 3.07282E-13
 -1       320 9.41737E+00-4.98795E+00-4.44185E-01-6.33455E+00 3.46279E-13 2.65260E-13
 -1       321 2.67919E+00-8.82969E+00-7.82735E-01-4.06500E+00 5.62550E-13-2.61464E-13
 -1       322-8.46943E-01-1.15162E+01-9.70367E-01-2.11089E+00 3.63959E-13-1.83339E-13
 -1       323 2.01831E+01 3.01002E+00-2.18905E-02-2.01164E+00-1.53570E-13-5.05679E-13
 -1       324 2.08103E+01 2.20566E+00-1.74148E-02-2.28856E+00-2.43535E-13-4.29256E-13
 -1       325 1.95813E+01 3.73420E+00-1.53195E-02-1.23534E+00 1.63169E-14-5.09407E-13
 -1       326 1.94292E+01 3.90853E+00-1.32965E-02-8.55393E-01 9.34498E-14-4.89514E-13
 -1       327 1.93360E+01 4.01478E+00-1.21790E-02-4.96500E-01 1.50648E-13-4.42334E-13
 -1       328 1.92901E+01 4.06789E+00-1.16728E-02-1.52819E-01 1.97139E-13-3.94323E-13
 -1       329 1.92883E+01 4.07270E+00-1.16568E-02 1.83939E-01 2.35443E-13-3.33241E-13
 -1       330 1.93321E+01 4.02762E+00-1.21241E-02 5.23118E-01 2.82522E-13-2.84469E-13
 -1       331 1.94250E+01 3.92739E+00-1.32213E-02 8.68304E-01 3.25051E-13-2.09535E-13
 -1       332 1.95830E+01 3.75202E+00-1.51565E-02 1.23995E+00 3.68979E-13-1.12388E-13
 -1       333 1.98287E+01 3.46848E+00-1.82786E-02 1.63378E+00 3.88710E-13 1.02626E-14
 -1       334 2.02119E+01 2.99958E+00-2.13720E-02 2.01694E+00 3.96095E-13 1.63919E-13
 -1       335 2.08366E+01 2.17168E+00-1.77659E-02 2.27546E+00 3.23882E-13 4.14066E-13
 -1       336 2.08099E+01-6.72049E+00-3.38832E-02 5.76631E+00-2.78111E-14-2.37102E-14
 -1       337 2.05444E+01 6.82203E-01 1.27096E-02-9.44041E-01-2.02810E-13-3.63972E-13
 -1       338 2.01587E+01 3.49658E-01 7.30283E-03-3.64666E-01-1.42463E-13-3.34114E-13
 -1       339 1.99486E+01 1.91537E-01 4.25496E-03-4.01334E-02-1.01867E-13-3.20518E-13
 -1       340 1.98649E+01 1.04398E-01 1.94787E-03 1.47213E-01-9.15712E-14-3.37842E-13
 -1       341 1.98682E+01 4.91475E-02 7.70493E-04 2.50577E-01-6.83313E-14-3.40736E-13
 -1       342 1.99267E+01 7.29383E-03 9.08114E-05 2.95903E-01 8.74421E-15-3.28214E-13
 -1       343 2.00155E+01-3.11537E-02-4.21963E-04 2.94117E-01-1.77457E-14-2.96324E-13
 -1       344 2.01138E+01-7.18496E-02-8.98518E-04 2.47373E-01-6.25781E-14-2.82195E-13
 -1       345 2.02025E+01-1.16845E-01-1.36505E-03 1.53254E-01-1.37768E-13-3.29789E-13
 -1       346 2.02622E+01-1.63791E-01-1.78097E-03 8.95262E-03-8.22977E-14-3.50762E-13
 -1       347 2.02727E+01-2.04644E-01-2.05106E-03-1.83477E-01-6.67383E-14-3.50563E-13
 -1       348 2.02143E+01-2.25150E-01-2.04235E-03-4.10797E-01-6.57149E-14-3.21484E-13
 -1       349 2.00722E+01-2.06932E-01-1.62481E-03-6.42689E-01-4.91082E-14-2.65523E-13
 -1       350 1.98437E+01-1.33993E-01-7.51775E-04-8.29860E-01-5.39620E-14-3.09472E-13
 -1       351 1.95475E+01-3.52082E-03 4.78287E-04-9.11140E-01-2.86791E-14-3.08962E-13
 -1       352 1.92301E+01 1.63654E-01 1.81029E-03-8.32867E-01-2.50808E-14-3.59000E-13
 -1       353 1.89610E+01 3.21994E-01 2.90593E-03-5.76454E-01 5.97665E-14-3.17785E-13
 -1       354 1.88130E+01 4.16850E-01 3.50397E-03-1.79549E-01 1.30642E-14-3.26794E-13
 -1       355 1.88316E+01 4.11792E-01 3.47454E-03 2.67494E-01 1.13505E-14-3.75782E-13
 -1       356 1.90144E+01 3.09485E-01 2.83769E-03 6.54487E-01 6.06741E-14-3.85626E-13
 -1       357 1.93118E+01 1.50242E-01 1.73925E-03 8.96430E-01 3.82962E-15-2.35067E-13
 -1       358 1.96512E+01-1.11568E-02 4.46466E-04 9.63233E-01 3.56129E-14-2.22343E-13
 -1       359 1.99664E+01-1.32003E-01-7.16624E-04 8.79126E-01 4.22305E-14-3.66336E-13
 -1       360 2.02152E+01-1.94943E-01-1.51007E-03 6.99693E-01 9.15843E-14-3.79964E-13
 -1       361 2.03824E+01-2.05264E-01-1.85283E-03 4.84764E-01 4.87463E-14-3.42252E-13
 -1       362 2.04726E+01-1.80041E-01-1.80794E-03 2.80481E-01-1.43157E-13-3.55553E-14
 -1       363 2.05006E+01-1.37844E-01-1.51973E-03 1.13408E-01 1.03437E-14-5.31143E-14
 -1       364 2.04843E+01-9.29346E-02-1.12689E-03-7.10244E-03 1.10782E-13-1.34464E-13
 -1       365 2.04402E+01-5.37315E-02-7.33596E-04-8.32253E-02-1.97365E-14-9.56261E-14
 -1       366 2.03816E+01-2.37242E-02-4.00140E-04-1.23024E-01-7.27431E-14-5.37754E-14
 -1       367 2.03183E+01-3.17902E-03-1.49959E-04-1.36324E-01-5.17914E-14-5.31944E-14
 -1       368 2.02567E+01 9.29869E-03 1.77435E-05-1.32287E-01-2.13583E-13-1.43574E-13
 -1       369 2.02007E+01 1.56753E-02 1.16292E-04-1.18314E-01-8.59749E-14-1.44604E-13
 -1       370 2.01523E+01 1.78667E-02 1.63171E-04-9.97985E-02 1.76785E-13-3.86402E-13
 -1       371 2.01122E+01 1.74572E-02 1.75105E-04-8.03230E-02 2.17912E-13-3.29351E-13
 -1       372 2.00799E+01 1.56265E-02 1.65808E-04-6.20324E-02 4.60205E-13-4.67158E-14
 -1       373 2.00549E+01 1.31812E-02 1.45401E-04-4.60310E-02 4.71624E-15-3.18436E-13
 -1       374 2.00360E+01 1.06285E-02 1.20722E-04-3.27272E-02-2.03422E-13-9.85309E-14
 -1       375 2.00223E+01 8.25500E-03 9.59742E-05-2.21034E-02-2.33189E-13 1.12035E-13
 -1       376 2.00127E+01 6.19608E-03 7.34262E-05-1.39106E-02 1.03969E-13 3.76130E-13
 -1       377 2.00063E+01 4.48954E-03 5.40229E-05-7.80114E-03 3.80607E-13 2.15508E-13
 -1       378 2.00024E+01 3.11342E-03 3.78300E-05-3.41235E-03 4.43757E-13 3.11584E-13
 -1       379 2.00001E+01 2.00928E-03 2.43668E-05-4.18466E-04 1.34774E-13 1.12946E-13
 -1       380 1.99991E+01 1.09658E-03 1.36335E-05 1.43702E-03-1.20942E-13 2.00856E-14
 -1       381 1.99989E+01 2.71768E-04 5.04000E-06 2.34151E-03-1.09784E-13-1.07651E-14
 -1       382 1.99990E+01-4.69403E-04-7.60567E-06 2.41588E-03-1.13949E-13 2.21438E-13
 -1       383 2.02014E+01 3.87525E-01 8.56622E-03 3.50720E-01 2.27747E-13 3.29544E-13
 -1       384 2.05719E+01 7.22261E-01 1.32260E-02 9.55655E-01 2.73159E-13 3.77386E-13
 -1       385 2.00161E+01 2.42229E-01 5.48630E-03-1.38736E-03 1.74913E-13 2.83674E-13
 -1       386 1.99598E+01 1.72165E-01 3.03225E-03-2.52646E-01 1.12019E-13 2.32467E-13
 -1       387 2.00153E+01 1.53659E-01 2.28253E-03-4.48609E-01 9.59332E-14 1.47046E-13
 -1       388 2.01599E+01 1.69712E-01 2.36644E-03-6.34268E-01 1.48908E-14 1.56234E-13
 -1       389 2.03808E+01 2.16644E-01 2.92433E-03-8.43977E-01 3.69844E-14 1.96937E-13
 -1       390 2.06720E+01 2.94442E-01 3.77491E-03-1.10852E+00 2.18032E-14 1.53930E-13
 -1       391 2.10129E+01 3.95856E-01 4.58646E-03-1.43608E+00 2.94641E-14 9.99795E-14
 -1       392 2.14408E+01 5.18325E-01 5.21158E-03-1.87984E+00 1.76656E-14-2.60017E-14
 -1       393 2.19445E+01 6.13527E-01 4.54069E-03-2.42498E+00-2.09186E-15-1.82468E-14
 -1       394 2.25576E+01 5.65769E-01 2.29696E-03-3.01429E+00 6.74921E-14 1.01441E-13
 -1       395 2.33956E+01 1.38176E-01 1.12613E-03-3.47362E+00 5.75078E-14 7.84837E-14
 -1       396 2.47574E+01-1.01847E+00 7.24071E-03-3.42546E+00-3.12415E-14 3.91046E-14
 -1       397 2.70111E+01-2.89453E+00 1.04561E-02-2.33540E+00-2.65094E-13-1.09635E-15
 -1       398 2.99956E+01-4.45147E+00-1.65097E-02-5.45461E-02-2.96100E-13 4.39995E-14
 -1       399 3.62455E+01 3.79128E+00-1.26935E-01 3.46399E+00 1.86420E-13 1.60538E-13
 -1       400 3.55089E+01 2.56259E+00-1.51325E-01-4.41823E+00 5.39124E-13-2.77126E-13
 -1       401 3.37212E+01-2.58455E+00-8.50921E-02-3.67798E+00 3.92429E-13-1.59248E-13
 -1       402 3.03559E+01-3.64420E+00 3.13812E-03-4.22186E-01 7.32834E-14-7.01297E-14
 -1       403 2.73989E+01-2.16745E+00 1.57370E-02 2.17096E+00-6.42750E-14-5.48162E-14
 -1       404 2.53630E+01-5.89160E-01 2.60080E-03 3.16225E+00 8.26596E-15 4.71679E-14
 -1       405 2.41033E+01 2.20244E-01-4.07241E-04 3.13820E+00-8.17298E-14-1.07516E-14
 -1       406 2.31714E+01 5.13408E-01 2.27246E-03 2.66174E+00-1.19453E-14-8.72017E-14
 -1       407 2.24572E+01 5.21071E-01 4.64956E-03 2.07922E+00 4.74171E-14-3.05588E-14
 -1       408 2.18841E+01 4.29940E-01 5.30566E-03 1.55199E+00 5.65617E-14-1.01956E-13
 -1       409 2.14243E+01 3.24691E-01 4.76511E-03 1.12888E+00-2.94587E-13-4.83423E-14
 -1       410 2.10624E+01 2.34695E-01 3.83201E-03 8.09341E-01-1.29656E-14 6.84020E-14
 -1       411 2.07936E+01 1.69426E-01 2.83221E-03 5.85366E-01 2.28442E-13 1.62197E-13
 -1       412 2.05764E+01 1.18867E-01 2.06469E-03 4.14157E-01 4.86396E-14 1.07819E-13
 -1       413 2.04134E+01 8.32439E-02 1.45661E-03 2.92018E-01 9.43181E-14-3.57287E-14
 -1       414 2.02923E+01 5.83449E-02 1.01904E-03 2.05042E-01 1.37434E-13 4.46099E-14
 -1       415 2.02033E+01 4.09888E-02 7.12787E-04 1.43133E-01 9.39309E-14 2.58406E-13
 -1       416 2.01386E+01 2.88389E-02 5.04945E-04 9.90308E-02 2.78474E-14 2.36324E-13
 -1       417 2.00939E+01 2.07042E-02 3.49815E-04 6.89315E-02-1.46587E-13-5.98692E-14
 -1       418 2.00603E+01 1.45691E-02 2.50433E-04 4.61529E-02-8.90078E-14 1.56175E-14
 -1       419 2.00369E+01 1.02180E-02 1.74780E-04 2.99845E-02-3.06230E-13 2.51174E-14
 -1       420 2.00211E+01 7.11552E-03 1.21609E-04 1.85619E-02-1.11062E-14-5.38067E-14
 -1       421 2.00106E+01 4.89662E-03 8.40873E-05 1.05666E-02 8.76639E-14 4.21414E-14
 -1       422 2.00042E+01 3.30131E-03 5.75088E-05 5.04940E-03 2.20309E-13 5.80642E-13
 -1       423 2.00006E+01 2.19891E-03 3.67094E-05 1.48891E-03-1.50920E-13 4.76341E-13
 -1       424 1.99987E+01 1.32632E-03 2.25677E-05-9.49026E-04 6.75738E-14 2.75960E-13
 -1       425 1.99981E+01 6.31355E-04 1.04513E-05-2.35037E-03 2.82554E-13 3.05030E-13
 -1       426 1.99982E+01-9.34410E-06-1.72732E-06-2.91551E-03 2.21207E-13 3.93197E-13
 -1       427 1.99988E+01-6.99526E-04-4.29281E-06-2.71727E-03 1.42536E-13 2.76134E-14
 -1       428 3.48634E+00-4.50644E+00 1.84929E-03 3.39435E+00 7.22755E-14 1.47715E-13
 -1       429 2.00005E+01-1.94153E-03 4.51763E-06-2.14913E-03-3.18097E-14-1.90849E-13
 -1       430 2.00001E+01-1.65526E-03-1.95044E-06-2.73213E-03 2.12149E-13-1.61346E-13
 -1       431 2.00006E+01-1.98704E-03 6.09719E-06-1.41488E-03-2.77414E-13 3.65389E-14
 -1       432 2.00005E+01-1.86206E-03 6.42808E-06-7.18144E-04-2.58802E-13-4.34619E-13
 -1       433 2.00003E+01-1.65393E-03 6.02096E-06-1.88369E-04-2.19285E-13 1.83558E-13
 -1       434 2.00001E+01-1.45930E-03 5.20291E-06 1.65371E-04-1.78496E-13-2.24103E-13
 -1       435 2.00001E+01-1.34417E-03 4.69654E-06 4.11827E-04-2.14529E-13 2.55233E-13
 -1       436 2.00001E+01-1.32814E-03 4.65046E-06 6.53354E-04 9.02048E-14 2.00446E-13
 -1       437 2.00002E+01-1.37912E-03 4.69450E-06 9.74234E-04 2.46711E-13-2.75592E-13
 -1       438 2.00003E+01-1.43402E-03 4.06874E-06 1.41951E-03 1.53334E-13 1.91066E-13
 -1       439 2.00003E+01-1.40423E-03 2.19965E-06 1.93061E-03 3.15913E-13 7.34011E-14
 -1       440 2.00000E+01-1.25852E-03-3.82147E-06 2.36307E-03 9.72742E-14 1.51006E-13
 -1       441 1.01696E+01-5.83712E+00-2.95421E-02 6.11895E+00-4.02733E-14 3.02702E-13
 -1       442 8.51126E-01-4.57193E+00-4.72852E-02-1.65144E+00 1.36349E-13-1.51018E-13
 -1       443 1.98163E+01 3.45828E+00-1.85506E-02-1.63236E+00-6.32826E-14-5.31027E-13
 -1       444 3.67140E+01-1.55070E+00 1.27945E-02-1.17809E+00 4.28116E-13-2.57294E-13
 -1       445 3.59016E+01 2.90386E-02-1.02397E-01 3.57219E+00 2.13024E-14-1.32117E-14
 -1       446 3.39968E+01-3.74273E+00-7.52378E-02 5.55996E-01-1.29497E-13-1.45342E-13
 -1       447 2.87531E+01-6.11562E+00 6.85095E-03-3.14728E+00-2.19769E-13-3.96641E-13
 -1       448 1.66207E+01-6.68894E+00-7.40012E-02-6.43279E+00-1.08580E-13-5.35463E-13
 -1       449 6.81162E+00-5.84203E+00-9.52197E-02-5.31862E+00-1.51490E-13-5.21444E-13
 -1       450 1.56414E+00-5.16292E+00-9.12686E-02-1.87978E+00-9.28424E-14-3.02425E-13
 -1       451 1.41022E+00-4.21587E+00-3.96818E-03 2.60065E+00-9.55000E-14-4.38288E-13
 -1       452 6.57767E+00-4.46389E+00 6.71373E-02 6.78670E+00 1.55848E-14-3.65138E-13
 -1       453 1.44105E+01-5.55719E+00-7.43140E-03 8.00712E+00-9.80049E-14-1.01274E-13
 -1       454 2.23658E+01-4.73573E+00-5.12052E-03 6.88161E+00-1.45467E-13-1.84852E-14
 -1       455 3.05087E+01-9.41605E-01 3.98735E-03 3.61851E+00-3.31662E-13 9.47159E-14
 -1       456 3.48639E+01 3.12769E+00 7.20529E-02 2.04998E+00-3.03417E-13-8.82627E-15
 -1       457 3.62813E+01 6.71332E+00 2.90269E-02 1.20779E-01-4.10005E-13-2.99066E-14
 -1       458 3.81540E+01 8.59941E+00 9.22379E-02 4.05077E-02-6.20254E-13-9.68323E-14
 -1       459 3.69463E+01 7.90667E+00 4.42255E-02-5.15819E-02-3.41172E-13-2.05357E-13
 -1       460 3.58616E+01 5.09270E+00 6.14223E-02-7.64736E-01-1.08968E-13-3.76588E-13
 -1       461 3.18230E+01 1.34949E-01 1.22831E-02-3.19656E+00 1.72142E-13-1.89848E-14
 -1       462 2.67108E+01-2.78621E+00 2.60445E-02-5.69750E+00 4.13544E-13 3.43156E-13
 -1       463 1.84246E+01-5.13434E+00-1.84469E-02-7.71720E+00 3.36065E-13 2.52867E-13
 -1       464 1.00741E+01-5.35511E+00-2.22852E-02-7.76574E+00 3.26503E-13 1.75714E-13
 -1       465 3.96393E+00-4.61676E+00-4.55576E-03-5.56164E+00 2.16521E-13-2.09721E-13
 -1       466 2.89488E+01-5.75994E+00-1.03486E-01 3.15169E+00 2.21337E-13-3.10155E-13
 -1       467 3.30010E+01-2.96244E+00-1.07968E-01 3.08023E+00-2.49838E-13 1.35121E-13
 -1       468 3.57694E+01 5.84067E+00-1.77342E-01-1.18906E+00 3.73923E-13-1.84262E-14
 -1       469 2.74257E+01-4.17998E+00-1.76038E-02 4.05750E+00-1.61177E-13 1.72362E-13
 -1       470 1.96692E+01 3.20427E+00-5.20728E-03-5.58342E-01 1.10572E-13-4.32581E-13
 -1       471 1.97995E+01 3.00690E+00-5.85048E-03-8.56170E-01 5.84565E-14-4.36358E-13
 -1       472 1.95612E+01 3.36291E+00-4.75648E-03 2.16118E-02 2.14370E-13-3.29225E-13
 -1       473 1.95820E+01 3.33584E+00-4.83268E-03 3.04180E-01 2.39690E-13-2.89366E-13
 -1       474 1.96545E+01 3.23458E+00-5.19915E-03 5.81687E-01 2.76403E-13-2.23230E-13
 -1       475 1.97874E+01 3.04189E+00-5.85813E-03 8.63201E-01 3.31812E-13-1.28922E-13
 -1       476 1.99864E+01 2.73326E+00-6.57217E-03 1.13796E+00 3.54278E-13-5.98928E-14
 -1       477 2.02527E+01 2.26336E+00-6.67714E-03 1.36182E+00 3.55707E-13 5.59823E-14
 -1       478 2.05091E+01 1.50040E+00-3.11395E-03 1.28074E+00 3.20884E-13 1.90173E-13
 -1       479 2.70711E+01-6.02471E+00-3.26311E-03 3.11859E+00-2.88311E-14-2.43503E-13
 -1       480 2.04207E+01 9.97593E-01 2.93535E-03-8.27396E-01-1.36339E-13-3.75041E-13
 -1       481 2.02767E+01 5.77504E-01 2.38804E-03-3.34950E-01-8.63311E-14-3.21034E-13
 -1       482 2.01649E+01 3.35740E-01 9.84690E-04-1.04073E-02-7.08692E-14-2.77361E-13
 -1       483 2.01077E+01 1.86811E-01 4.45622E-04 1.92960E-01-9.06830E-14-2.49228E-13
 -1       484 2.01022E+01 8.20587E-02 1.21085E-04 3.10176E-01-1.87169E-14-2.21794E-13
 -1       485 2.01388E+01-4.38883E-03-1.02393E-04 3.60890E-01-3.89821E-14-2.79281E-13
 -1       486 2.02075E+01-8.82343E-02-3.05283E-04 3.53096E-01-6.16795E-14-2.70252E-13
 -1       487 2.02988E+01-1.78058E-01-5.13817E-04 2.86858E-01-1.01190E-13-2.90352E-13
 -1       488 2.04023E+01-2.74871E-01-7.22783E-04 1.58018E-01-9.75063E-14-2.40189E-13
 -1       489 2.05040E+01-3.69713E-01-8.96210E-04-3.68266E-02-6.74758E-14-2.23403E-13
 -1       490 2.05845E+01-4.41153E-01-9.69815E-04-2.93277E-01-2.13564E-14-1.87681E-13
 -1       491 2.06184E+01-4.55533E-01-8.62035E-04-5.90184E-01 1.83207E-14-1.19923E-13
 -1       492 2.05780E+01-3.74123E-01-4.99760E-04-8.81094E-01-6.85841E-14-4.18395E-14
 -1       493 2.04454E+01-1.70722E-01 7.96126E-05-1.09211E+00-1.17472E-13-1.12073E-14
 -1       494 2.02298E+01 1.42911E-01 7.27911E-04-1.13535E+00-1.18224E-13-5.15979E-14
 -1       495 1.99810E+01 4.98371E-01 1.24581E-03-9.43493E-01-1.79156E-15-9.78591E-14
 -1       496 1.97830E+01 7.81356E-01 1.48694E-03-5.15241E-01 1.47233E-14-1.38840E-13
 -1       497 1.97165E+01 8.82660E-01 1.51781E-03 5.93035E-02-7.02723E-14-1.85029E-13
 -1       498 1.98123E+01 7.60873E-01 1.41087E-03 6.25672E-01-3.09767E-15-3.12024E-13
 -1       499 2.00319E+01 4.68564E-01 1.17031E-03 1.03375E+00 1.19707E-13-3.35838E-13
 -1       500 2.02920E+01 1.19445E-01 7.04432E-04 1.20517E+00 4.19750E-14-3.13768E-13
 -1       501 2.05125E+01-1.76646E-01 8.06995E-05 1.15134E+00-8.56384E-14-3.48800E-13
 -1       502 2.06489E+01-3.59003E-01-4.79021E-04 9.43951E-01 3.30181E-14-4.62115E-13
 -1       503 2.06965E+01-4.22334E-01-8.07292E-04 6.69700E-01 8.06212E-14-5.39095E-13
 -1       504 2.06749E+01-3.96212E-01-8.72896E-04 3.98136E-01 1.73785E-13-4.40921E-13
 -1       505 2.06106E+01-3.20287E-01-7.77601E-04 1.70482E-01 1.02616E-14-2.09511E-13
 -1       506 2.05267E+01-2.28271E-01-6.02164E-04 2.70424E-03 1.41637E-15-4.66588E-15
 -1       507 2.04392E+01-1.42086E-01-4.10547E-04-1.06137E-01 2.34116E-14-1.23278E-13
 -1       508 2.03570E+01-7.24919E-02-2.41048E-04-1.65712E-01 3.67299E-14-5.48717E-14
 -1       509 2.02845E+01-2.23322E-02-1.09816E-04-1.88573E-01-1.94186E-14 1.25452E-14
 -1       510 2.02229E+01 1.00635E-02-1.88964E-05-1.86749E-01-1.31781E-13 4.03233E-14
 -1       511 2.01719E+01 2.83061E-02 3.70442E-05-1.70175E-01-1.41589E-13 9.75127E-14
 -1       512 2.01305E+01 3.63563E-02 6.61419E-05-1.46265E-01-1.44323E-13 5.80606E-14
 -1       513 2.00975E+01 3.77150E-02 7.66044E-05-1.20093E-01 2.27572E-13 1.07882E-13
 -1       514 2.00715E+01 3.51232E-02 7.53686E-05-9.48232E-02 4.78476E-13 7.44943E-14
 -1       515 2.00513E+01 3.05444E-02 6.76654E-05-7.22022E-02 3.66390E-14-2.63639E-13
 -1       516 2.00360E+01 2.52772E-02 5.71090E-05-5.29940E-02-5.27637E-14-1.27807E-13
 -1       517 2.00245E+01 2.01075E-02 4.59847E-05-3.73362E-02-5.47207E-14 1.17776E-14
 -1       518 2.00161E+01 1.54544E-02 3.55828E-05-2.50032E-02-4.14200E-14 1.67654E-13
 -1       519 2.00101E+01 1.14903E-02 2.64943E-05-1.55909E-02-5.44454E-14-5.85234E-14
 -1       520 2.00060E+01 8.23208E-03 1.89093E-05-8.63857E-03 4.29944E-13-2.38298E-13
 -1       521 2.00033E+01 5.60329E-03 1.27378E-05-3.70257E-03 1.31874E-13-2.51902E-13
 -1       522 2.00015E+01 3.46669E-03 7.92237E-06-4.03832E-04 7.84125E-14-1.89765E-13
 -1       523 2.00005E+01 1.65829E-03 4.44534E-06 1.55187E-03-2.01838E-14-2.15861E-13
 -1       524 2.03928E+01 8.93418E-01 2.75684E-03 6.37176E-01 2.66408E-13 1.66917E-13
 -1       525 2.01350E+01 3.56457E-01 8.91752E-04-3.60635E-01 1.53015E-13 1.07844E-13
 -1       526 2.01215E+01 3.41098E-01 8.96418E-04-6.03272E-01 8.01015E-14 8.58635E-14
 -1       527 2.01387E+01 3.88581E-01 1.09215E-03-8.39415E-01 8.77711E-14 5.85948E-15
 -1       528 2.01659E+01 4.93800E-01 1.46670E-03-1.10205E+00 8.88557E-14-5.75468E-14
 -1       529 2.01776E+01 6.45091E-01 1.83522E-03-1.40288E+00 9.74702E-14-1.26851E-13
 -1       530 2.01456E+01 8.47023E-01 2.35705E-03-1.79568E+00 7.55050E-14-1.11070E-13
 -1       531 2.00336E+01 1.05630E+00 2.74503E-03-2.28557E+00 2.23587E-14-1.54807E-13
 -1       532 1.98285E+01 1.16942E+00 3.44915E-03-2.88110E+00 1.42600E-15-2.33252E-13
 -1       533 1.95934E+01 9.54620E-01 6.87121E-03-3.57624E+00 1.70430E-14-2.48619E-13
 -1       534 1.95913E+01-1.03754E-02 2.60104E-02-4.32230E+00 9.18102E-15-1.65492E-13
 -1       535 2.04942E+01-2.14508E+00 6.55248E-02-4.95199E+00-1.35812E-13-2.37640E-13
 -1       536 2.26918E+01-5.00091E+00 8.68737E-02-4.93228E+00-2.40322E-13-3.17116E-13
 -1       537 2.05068E+01 1.98132E-01 1.78044E-02 4.02702E+00-5.32048E-14 2.00141E-13
 -1       538 2.03713E+01 9.56819E-01 6.06874E-03 3.32658E+00 1.38137E-14 2.31836E-13
 -1       539 2.04502E+01 1.08675E+00 3.57584E-03 2.63287E+00-3.19325E-14 2.22953E-13
 -1       540 2.05200E+01 9.55673E-01 3.23787E-03 2.02491E+00 8.78377E-14 3.90752E-13
 -1       541 2.05304E+01 7.55549E-01 2.86437E-03 1.52544E+00-8.86785E-14 4.69647E-13
 -1       542 2.04922E+01 5.66195E-01 2.31243E-03 1.13252E+00-1.69891E-13 2.34163E-13
 -1       543 2.04304E+01 4.19407E-01 1.71820E-03 8.44741E-01 8.18014E-14 6.73462E-14
 -1       544 2.03559E+01 3.01367E-01 1.23618E-03 6.15842E-01 1.93279E-13 2.95520E-13
 -1       545 2.02838E+01 2.15135E-01 8.70593E-04 4.46302E-01 7.62351E-14 2.20943E-13
 -1       546 2.02197E+01 1.53265E-01 6.03938E-04 3.21563E-01 1.16984E-14 4.26526E-13
 -1       547 2.01657E+01 1.09218E-01 4.17942E-04 2.30168E-01 2.08986E-13 3.94893E-13
 -1       548 2.01222E+01 7.78899E-02 2.95551E-04 1.63400E-01 2.01735E-13-1.18708E-13
 -1       549 2.00895E+01 5.65372E-02 2.01549E-04 1.16740E-01-5.38338E-14-3.65183E-14
 -1       550 2.00629E+01 4.03046E-02 1.45037E-04 8.07115E-02-5.26185E-14-6.86162E-14
 -1       551 2.00431E+01 2.86476E-02 1.00869E-04 5.45994E-02-2.77522E-13-2.30850E-13
 -1       552 2.00285E+01 2.02461E-02 6.98189E-05 3.57780E-02-1.13551E-13-3.91395E-13
 -1       553 2.00182E+01 1.41755E-02 4.81295E-05 2.23203E-02-1.38307E-13-2.56256E-13
 -1       554 2.00110E+01 9.77562E-03 3.31963E-05 1.28146E-02-2.08528E-13 5.29139E-14
 -1       555 2.00064E+01 6.71339E-03 2.09411E-05 6.49023E-03 2.58655E-14 1.47324E-13
 -1       556 2.00032E+01 4.31259E-03 1.38032E-05 1.96245E-03 5.31175E-15-5.04752E-14
 -1       557 2.00013E+01 2.47380E-03 7.56733E-06-9.05693E-04 4.26974E-13 2.74176E-14
 -1       558 2.00003E+01 9.47347E-04 6.54392E-06-2.47996E-03 4.50870E-13-1.60772E-13
 -1       559 2.00003E+01-1.76839E-04 1.01340E-06-2.88392E-03 3.68777E-13-4.07742E-13
 -1       560 9.51437E+00-2.88388E+00 1.51829E-01 5.32289E+00-8.00054E-15 1.69711E-13
 -1       561 2.00008E+01 2.77063E-03 2.92929E-06-6.88589E-06-5.92415E-14-6.46269E-14
 -1       562 1.85589E+01-5.05085E+00 1.10093E-01 6.05508E+00-1.12535E-13 5.02480E-14
 -1       563 2.00005E+01 3.39849E-03 2.53958E-06 2.99933E-04-2.99789E-13 5.80689E-14
 -1       564 2.00002E+01 3.69092E-03 2.14568E-06 3.90702E-04-9.77047E-14-2.89577E-13
 -1       565 2.00002E+01 3.59613E-03 2.07675E-06 4.09334E-04-1.92111E-13 6.37174E-13
 -1       566 2.00004E+01 3.14911E-03 2.05689E-06 5.09697E-04 1.46838E-14-6.17233E-14
 -1       567 2.00007E+01 2.42288E-03 1.23836E-06 8.06822E-04 3.26959E-13-1.30649E-13
 -1       568 2.00008E+01 1.58805E-03-4.40235E-07 1.32359E-03 6.52113E-13 5.27276E-13
 -1       569 2.00006E+01 8.09096E-04 7.66135E-07 1.91236E-03 4.44190E-13-2.80498E-13
 -1       570 4.85598E+00-1.49219E+00 1.76066E-01-3.68026E+00 3.66686E-14-1.80300E-13
 -1       571 2.01951E+01 4.53278E-01 1.44580E-03-7.05628E-02 1.66867E-13 1.35245E-13
 -1       572 2.00013E+01 1.04130E-03 1.19916E-06-1.43559E-03 8.44875E-14-2.86383E-13
 -1       573 9.83714E+00-3.05138E+00 1.50509E-01-7.13825E+00 4.74065E-14 6.95416E-14
 -1       574 3.16167E+01 8.25343E+00-1.75084E-01 3.26148E-01-3.56645E-13-1.16055E-13
 -1       575 1.39208E+01-4.02509E+00 1.33471E-01 7.69135E+00 2.45581E-13 4.30073E-14
 -1       576 2.00010E+01 3.04330E-04 7.56303E-07-2.24343E-03 2.25328E-13-3.87421E-13
 -1       577 2.00012E+01 1.93219E-03 2.40262E-06-5.99582E-04-3.09547E-13-1.43969E-13
 -1       578 2.14082E+01-1.72452E+00 4.14593E-02 4.52152E+00-1.31249E-13-6.90073E-14
 -1       579 2.34877E+01-4.05124E+00 4.71267E-02 4.32922E+00-1.26128E-13-8.91787E-14
 -1       580 4.74457E+00-9.07706E-01 1.95374E-01 9.34147E-01 1.17562E-13 1.54418E-13
 -1       581 1.95906E+01 3.31942E+00-4.86685E-03-2.65079E-01 1.68599E-13-3.82592E-13
 -1       582 2.02827E+01 6.12684E-01 1.96486E-03 2.36819E-01 2.24395E-13 1.07696E-13
 -1       583 1.47920E+01-4.11536E+00 1.43195E-01-6.31095E+00-2.00090E-13-5.54244E-13
 -1       584 3.11086E+01 7.95474E-03-1.06961E-01 2.60577E-01-1.46581E-13 7.10543E-15
 -1       585 7.23323E+00-2.11153E+00 1.66781E-01-4.23739E+00-5.70169E-14-2.90171E-13
 -1       586 4.30204E+00-1.10832E+00 1.80191E-01-3.27959E-01 7.51916E-15-3.88148E-13
 -1       587 6.80543E+00-1.02246E+00 2.11036E-01 4.46847E+00 1.42639E-13-3.17940E-13
 -1       588 1.97555E+01-5.27343E+00 8.36319E-02 7.16830E+00 1.96218E-13 2.31091E-14
 -1       589 1.71010E+01-4.86393E+00 9.65096E-02-7.78803E+00 2.06023E-13 2.70131E-13
 -1       590 3.18543E+01 3.92528E+00-1.44746E-01-1.25099E+00-3.24123E-13 1.10766E-13
 -1       591 3.17075E+01 7.67571E+00-1.60287E-01-9.00862E-01-3.16649E-13 4.13385E-14
 -1       592 3.11760E+01 5.68755E+00-1.77699E-01 1.52319E+00-1.69795E-13-1.61059E-13
 -1       593 3.06534E+01 1.01338E+00-1.25332E-01 9.72221E-01-3.11591E-14-1.16032E-13
 -1       594 2.89561E+01-3.12158E+00-5.91283E-02-2.40006E+00 3.68124E-13-1.79301E-14
 -1       595 2.42552E+01-5.17141E+00 2.07667E-02-5.69902E+00 3.64361E-13 2.90358E-13
 -1       596 2.04490E+01 1.77185E+00-5.22997E-03-1.42391E+00-1.79095E-13-4.15419E-13
 -1       597 1.99875E+01 2.70362E+00-6.44738E-03-1.14093E+00-3.04880E-14-4.69870E-13
 -1       598 2.00001E+01 5.17415E-04 1.28661E-06 2.25313E-03 1.19246E-14 1.10590E-13
 -1       599 2.02015E+01 2.31193E+00-5.71340E-03-1.33188E+00-1.10094E-13-4.56660E-13
 -1       600 1.19216E+01-1.62012E+00 1.35413E-01 6.15945E+00 2.72300E-13-5.11050E-14
 -1       601 2.89612E+01-2.81994E+00-6.12452E-02 1.24129E+00-8.06113E-14 2.23002E-13
 -1       602 2.40469E+01-5.23508E+00 2.65873E-02 5.11932E+00 1.47438E-13 9.96356E-14
 -1       603 1.98274E+01 2.64221E+00-1.47504E-03 3.45246E-01 2.32316E-13-2.33167E-13
 -1       604 1.97845E+01 2.71378E+00-1.41330E-03 1.36943E-01 2.04942E-13-2.89436E-13
 -1       605 2.00746E+01 2.20404E+00-7.52701E-04 7.21104E-01 2.91789E-13-7.13649E-14
 -1       606 2.02478E+01 1.80947E+00-2.20092E-04 8.44628E-01 3.31608E-13 1.49029E-15
 -1       607 2.03679E+01 1.34964E+00 9.56752E-04 7.80468E-01 2.99478E-13 3.79435E-14
 -1       608 1.28456E+01-1.32808E+00 1.27388E-01-5.17427E+00-5.06366E-14-4.91517E-13
 -1       609 1.54072E+01-2.76841E+00 1.10502E-01-6.79109E+00 1.42421E-14 1.73802E-13
 -1       610 2.03111E+01 7.26492E-01-4.45129E-04-2.26789E-01-4.48640E-14-2.85725E-13
 -1       611 2.02657E+01 4.44405E-01 1.97965E-04 6.02760E-02-5.66348E-14-2.58914E-13
 -1       612 2.02388E+01 2.47540E-01 4.04712E-05 2.51597E-01-2.63193E-14-2.34322E-13
 -1       613 2.02438E+01 9.54160E-02-1.50614E-05 3.67667E-01-7.72994E-14-2.80382E-13
 -1       614 2.02858E+01-4.05753E-02-7.02027E-05 4.19811E-01-3.69805E-14-2.91533E-13
 -1       615 2.03680E+01-1.79407E-01-1.34974E-04 4.11157E-01-8.10142E-14-2.34120E-13
 -1       616 2.04918E+01-3.30612E-01-2.12562E-04 3.37568E-01-7.05753E-14-1.75160E-13
 -1       617 2.06545E+01-4.91221E-01-2.99333E-04 1.90371E-01-4.69648E-14-1.58260E-13
 -1       618 2.08449E+01-6.40732E-01-3.63564E-04-3.83715E-02-3.15491E-14-1.38170E-13
 -1       619 2.10376E+01-7.36818E-01-3.54355E-04-3.46718E-01-2.26305E-14-1.38089E-13
 -1       620 2.11907E+01-7.17021E-01-2.16379E-04-7.09203E-01-4.78815E-15-1.24053E-13
 -1       621 2.12515E+01-5.14944E-01 1.22554E-04-1.06165E+00-2.44127E-14-7.88899E-14
 -1       622 2.11793E+01-9.78379E-02 4.85067E-04-1.29565E+00-1.49413E-13-2.37600E-14
 -1       623 2.09806E+01 4.82821E-01 6.36465E-04-1.28253E+00-8.40965E-14-6.53395E-14
 -1       624 2.07345E+01 1.06572E+00 5.23266E-04-9.38165E-01 2.35120E-14-4.06891E-14
 -1       625 2.05704E+01 1.42551E+00 9.37949E-05-3.01965E-01-7.07024E-15-8.37118E-14
 -1       626 2.05836E+01 1.40582E+00 2.47226E-05 4.42331E-01-8.83294E-14-8.89676E-14
 -1       627 2.07682E+01 1.01547E+00 1.77997E-04 1.05390E+00-4.10303E-15-1.78103E-13
 -1       628 2.10172E+01 4.32412E-01 5.52070E-04 1.36485E+00 4.37107E-14-4.30410E-13
 -1       629 2.12058E+01-1.24203E-01 5.15132E-04 1.35475E+00-2.36754E-14-2.68487E-13
 -1       630 2.12640E+01-5.06273E-01 7.54260E-05 1.11680E+00-1.08521E-13-9.61153E-14
 -1       631 2.11925E+01-6.75705E-01-2.81905E-04 7.78619E-01 5.79805E-14-8.62133E-14
 -1       632 2.10347E+01-6.72976E-01-3.57881E-04 4.42311E-01 1.66530E-13-1.06514E-13
 -1       633 2.08418E+01-5.66653E-01-3.34985E-04 1.64657E-01 2.34055E-13-1.68574E-13
 -1       634 2.06523E+01-4.19054E-01-2.61276E-04-3.52172E-02 2.10623E-14-2.95936E-13
 -1       635 2.04878E+01-2.72657E-01-1.77342E-04-1.61122E-01-1.11076E-15-7.94343E-14
 -1       636 2.03558E+01-1.49846E-01-1.05471E-04-2.27135E-01 7.57677E-14-1.03173E-13
 -1       637 2.02555E+01-5.82592E-02-5.17742E-05-2.49703E-01 2.77661E-16-8.28219E-14
 -1       638 2.01820E+01 3.21811E-03-1.51461E-05-2.43706E-01-8.43580E-14 3.62957E-14
 -1       639 2.01294E+01 3.98055E-02 7.49165E-06-2.20979E-01-2.16914E-13 5.20757E-14
 -1       640 2.00922E+01 5.78665E-02 1.96156E-05-1.90143E-01-7.36038E-14 2.73376E-13
 -1       641 2.00661E+01 6.33182E-02 2.45094E-05-1.57010E-01-3.99601E-14 3.70593E-13
 -1       642 2.00476E+01 6.09654E-02 2.48974E-05-1.25187E-01 1.24943E-13-1.33614E-13
 -1       643 2.00345E+01 5.43656E-02 2.27527E-05-9.66583E-02 2.51630E-14-4.61776E-13
 -1       644 2.00250E+01 4.59547E-02 1.94245E-05-7.23005E-02-1.46550E-14-4.80227E-13
 -1       645 2.00181E+01 3.72731E-02 1.57738E-05-5.22751E-02-6.82605E-14-3.67171E-13
 -1       646 2.00130E+01 2.92001E-02 1.22885E-05-3.63251E-02-7.84356E-14-4.84440E-13
 -1       647 2.00093E+01 2.21571E-02 9.19204E-06-2.39800E-02-8.76287E-14-5.04452E-13
 -1       648 2.00065E+01 1.62657E-02 6.49962E-06-1.46940E-02 5.84259E-14-1.94195E-13
 -1       649 2.00044E+01 1.14667E-02 4.23575E-06-7.93251E-03 1.93850E-13-3.60766E-13
 -1       650 2.00029E+01 7.58990E-03 5.10672E-06-3.21002E-03 2.36463E-14-3.30336E-13
 -1       651 2.00017E+01 4.39821E-03 7.90998E-07-1.57693E-04-1.05666E-14-7.43091E-13
 -1       652 9.55238E+00-6.04154E-01 1.47972E-01-5.06062E+00-1.23849E-13-5.12645E-14
 -1       653 2.00192E+01 5.61623E-01 2.82508E-04-6.75170E-01 1.27392E-13-2.71067E-14
 -1       654 2.01217E+01 5.56962E-01 2.34239E-04-4.36326E-01 1.48302E-13 7.42729E-15
 -1       655 1.96900E+01 8.13847E-01 3.84812E-04-1.13922E+00 1.17090E-13-4.73285E-14
 -1       656 1.93822E+01 1.04913E+00 5.50490E-04-1.40965E+00 8.95666E-14-4.78719E-14
 -1       657 1.89026E+01 1.33057E+00 6.93472E-04-1.72523E+00 9.69142E-14-1.03624E-13
 -1       658 1.81803E+01 1.59488E+00 1.79723E-03-2.10684E+00 6.86593E-14-2.41968E-13
 -1       659 1.71495E+01 1.69784E+00 7.47311E-03-2.60198E+00 4.33939E-14-2.50772E-13
 -1       660 1.57757E+01 1.34719E+00 2.72324E-02-3.30965E+00-9.75890E-16-3.80788E-13
 -1       661 2.00011E+01 2.51584E-03-3.86279E-06 1.13434E-03 2.21730E-13-5.86594E-13
 -1       662 1.87185E+01 1.51694E+00 1.47784E-03 1.97719E+00-1.84469E-14 2.32844E-13
 -1       663 1.98860E+01 6.49705E-01 3.68639E-04-9.01118E-01 1.33813E-13-6.76734E-14
 -1       664 1.68163E+01 1.40327E+00 2.01916E-02 3.23087E+00-1.51572E-13-3.06118E-14
 -1       665 1.92832E+01 1.24701E+00 9.20026E-04 1.55274E+00-5.47226E-14 2.37258E-13
 -1       666 1.96439E+01 9.67605E-01 7.82456E-04 1.20757E+00-1.09888E-13 2.12229E-13
 -1       667 1.98508E+01 7.37612E-01 6.49542E-04 9.40079E-01-5.95197E-14 1.45829E-13
 -1       668 1.99731E+01 5.44127E-01 4.50138E-04 7.14389E-01 2.09367E-14 1.01535E-13
 -1       669 2.00343E+01 3.97351E-01 3.26743E-04 5.37574E-01 2.51326E-13 1.42725E-13
 -1       670 2.00596E+01 2.88702E-01 2.27301E-04 4.00691E-01-1.46991E-13 2.12570E-13
 -1       671 2.00651E+01 2.09319E-01 1.55361E-04 2.95853E-01 1.63239E-13 2.74883E-13
 -1       672 2.00605E+01 1.51646E-01 1.12312E-04 2.16290E-01 3.30092E-13 3.73914E-13
 -1       673 2.00522E+01 1.11586E-01 7.66638E-05 1.58810E-01 9.09361E-14 2.52807E-13
 -1       674 2.00423E+01 8.06435E-02 5.53103E-05 1.13110E-01 2.51098E-14 5.66438E-14
 -1       675 2.00329E+01 5.81158E-02 3.85887E-05 7.91146E-02 1.38490E-13-1.27238E-13
 -1       676 2.00248E+01 4.16659E-02 2.67628E-05 5.40003E-02-3.12598E-13-4.24635E-13
 -1       677 2.00181E+01 2.96355E-02 1.83898E-05 3.56166E-02-2.47599E-13-1.61067E-13
 -1       678 2.00129E+01 2.08257E-02 1.31041E-05 2.23226E-02-2.60289E-13-2.59219E-13
 -1       679 2.00090E+01 1.46437E-02 7.70406E-06 1.32440E-02-1.95040E-14-4.18005E-13
 -1       680 2.00060E+01 9.79688E-03 5.61639E-06 6.51998E-03 1.44702E-13-4.48063E-13
 -1       681 2.00038E+01 6.14159E-03 2.74692E-06 2.01413E-03 1.70497E-13-5.74291E-13
 -1       682 2.00022E+01 3.29055E-03 2.94599E-06-7.67497E-04 4.01652E-13-4.38522E-13
 -1       683 2.00015E+01 1.84056E-03-7.35733E-06-1.73370E-03 3.96864E-13-3.33621E-13
 -1       684 2.00002E+01 9.07557E-03 7.28564E-07 6.93486E-04-3.38794E-13 2.03395E-13
 -1       685 1.61901E+01-1.93368E+00 1.19049E-01 5.45068E+00-1.55889E-13-5.84394E-14
 -1       686 7.78539E+00 7.71841E-01 1.72299E-01-1.45825E+00 1.09442E-13 1.57957E-13
 -1       687 2.00007E+01 8.27547E-03 9.32082E-07 9.48255E-04-2.30028E-13-2.96673E-13
 -1       688 2.00002E+01 8.54977E-03 2.08740E-07-1.75490E-04 1.08810E-13 6.89840E-13
 -1       689 2.00007E+01 7.31047E-03-7.18052E-07-3.33995E-04 2.95594E-13-1.97764E-13
 -1       690 2.00012E+01 5.64816E-03-1.63017E-06-1.02080E-04 3.40122E-13 2.88294E-13
 -1       691 2.02114E+01 6.52358E-01 8.28394E-05-1.58855E-01 1.63858E-13-1.59832E-14
 -1       692 2.03379E+01 1.46802E+00 1.87509E-04-8.69183E-01-1.07359E-13-3.56986E-13
 -1       693 2.00000E+01 9.16772E-03 5.95341E-07 2.39923E-04 1.23534E-13-2.60116E-16
 -1       694 1.02858E+01 5.86710E-02 1.53631E-01 3.55547E+00 6.18845E-14 1.00850E-13
 -1       695 1.78934E+01 1.65855E+00 4.76887E-03 2.50942E+00-1.17981E-13 1.62104E-13
 -1       696 2.85607E+01 5.11600E+00-1.47336E-01-1.89364E+00-1.87447E-13 1.14377E-13
 -1       697 2.03346E+01 1.04127E+00 4.49269E-04-5.13851E-01-6.93233E-14-3.23325E-13
 -1       698 2.80451E+01-2.11927E+00-5.41353E-02 1.37978E-01 4.06642E-13-3.64674E-14
 -1       699 1.99252E+01 2.47565E+00-1.45747E-03 5.42740E-01 2.62720E-13-1.46318E-13
 -1       700 2.83375E+01 2.96332E+00-1.30866E-01 2.06999E+00-9.99478E-14 7.02563E-14
 -1       701 8.79434E+00 4.67044E-01 1.66470E-01-2.29939E+00-5.01335E-15-2.25105E-13
 -1       702 2.19991E+01-4.88366E+00 5.57328E-02-5.84535E+00 3.03053E-13-8.79266E-14
 -1       703 1.83959E+01-4.01552E+00 9.58376E-02 6.71811E+00 2.94674E-13-6.64746E-15
 -1       704 2.79729E+01 6.41054E+00-1.54797E-01 1.27035E+00-3.13680E-13 2.01748E-14
 -1       705 1.99548E+01 2.42047E+00-1.57221E-03-5.18140E-01 7.00556E-14-3.82189E-13
 -1       706 2.92557E+01 1.08953E+00-1.27699E-01-1.55911E+00-1.51684E-13 3.09933E-13
 -1       707 8.27908E+00 7.99911E-01 1.62947E-01 1.66747E+00 8.46198E-14-3.87086E-13
 -1       708 2.79130E+01 7.06879E+00-1.67675E-01-4.05079E-01-3.38493E-13 5.72290E-14
 -1       709 2.60816E+01-4.59991E+00-4.71375E-03-3.38929E+00 5.41608E-13-3.10810E-14
 -1       710 1.97946E+01 2.69826E+00-1.43444E-03-7.89222E-02 1.74331E-13-3.27463E-13
 -1       711 2.03212E+01 9.63416E-01 7.25795E-04 3.72399E-01 2.41777E-13 3.75397E-14
 -1       712 2.00021E+01 5.14946E-03 2.44780E-06 1.92037E-04-2.71969E-15-3.78518E-13
 -1       713 1.55324E+01-1.75975E-01 9.95739E-02-4.55759E+00 8.10133E-14-4.68538E-13
 -1       714 2.00015E+01 6.89151E-03 1.55803E-06 8.03748E-04-9.65234E-14-1.41349E-13
 -1       715 2.70534E+01-1.94143E-01-5.19856E-02 1.61198E+00 2.71038E-13 6.07778E-14
 -1       716 2.00016E+01 5.21669E-03-1.70419E-06-1.90150E-04 1.15111E-13 1.82639E-13
 -1       717 2.18715E+01-4.51237E+00 3.38756E-02 5.31883E+00 2.04376E-13 1.66325E-14
 -1       718 1.57290E+01 2.40160E-01 6.55956E-02 4.29399E+00-2.45345E-13-9.33281E-14
 -1       719 1.10683E+01 3.62829E-01 9.47636E-02 3.77473E+00 2.62639E-13-9.03583E-14
 -1       720 2.82944E+01-1.36312E+00-6.43144E-02-6.85814E-01-1.52430E-14 2.76914E-13
 -1       721 2.00969E+01 2.14443E+00-1.07212E-03-7.19472E-01 3.71248E-15-3.82832E-13
 -1       722 2.00020E+01 3.35381E-03 1.35032E-06-7.41114E-04 1.98198E-13-5.40259E-13
 -1       723 2.63060E+01-4.45475E+00-1.22145E-02 2.77353E+00 2.67772E-14 2.20607E-13
 -1       724 1.98528E+01 2.60135E+00-1.50528E-03-2.99423E-01 1.26605E-13-3.51087E-13
 -1       725 2.02704E+01 7.65577E-01-1.89200E-04 8.47174E-02 1.71256E-13 2.13720E-14
 -1       726 2.02888E+01 1.31802E+00 3.67805E-04 4.71868E-01 2.46030E-13-1.96361E-14
 -1       727 2.59759E+01 4.07939E+00-8.94471E-02 1.90055E+00-1.64899E-13-5.43237E-14
 -1       728 1.98202E+01-3.35091E+00 2.85407E-02-5.38838E+00 1.10445E-13-1.94218E-13
 -1       729 2.03018E+01 5.10419E-01 4.56340E-05 1.50650E-01-1.92999E-14-2.48595E-13
 -1       730 2.02986E+01 2.79851E-01-1.64149E-05 3.22455E-01-6.73861E-14-2.44470E-13
 -1       731 2.03198E+01 8.68148E-02-1.16962E-05 4.36182E-01-9.17200E-14-2.26313E-13
 -1       732 2.03817E+01-9.86369E-02-1.76772E-05 4.96755E-01-1.02144E-14-2.47019E-13
 -1       733 2.04992E+01-2.97625E-01-4.06302E-05 5.01869E-01-1.30019E-14-2.43351E-13
 -1       734 2.06844E+01-5.19507E-01-7.98947E-05 4.40908E-01-4.57051E-15-1.32456E-13
 -1       735 2.09424E+01-7.55111E-01-1.47605E-04 2.96089E-01-2.84823E-14-3.77130E-14
 -1       736 2.12629E+01-9.67582E-01-1.81107E-04 4.77787E-02-8.72810E-15-5.88159E-14
 -1       737 2.16093E+01-1.08428E+00-1.21090E-04-3.13141E-01-1.71095E-14-1.43975E-13
 -1       738 2.19115E+01-9.98960E-01 2.26233E-05-7.61742E-01-5.01380E-14-1.67758E-13
 -1       739 2.20766E+01-6.03358E-01 3.94720E-04-1.20838E+00-6.46689E-14-1.86532E-13
 -1       740 2.20307E+01 1.37711E-01 3.52840E-04-1.48363E+00-5.94395E-14-9.52415E-14
 -1       741 2.17937E+01 1.08486E+00-4.86969E-04-1.38651E+00 6.10804E-15-1.83081E-14
 -1       742 2.15135E+01 1.90708E+00-9.45550E-04-8.12985E-01-3.06219E-14-4.03549E-14
 -1       743 2.14006E+01 2.20859E+00-1.47201E-03 8.30160E-02-7.25777E-14-8.02138E-14
 -1       744 2.15386E+01 1.84008E+00-1.38852E-03 9.61451E-01-1.99241E-13-1.32573E-13
 -1       745 2.18194E+01 9.93944E-01-1.17382E-03 1.47906E+00-7.91280E-14-1.55082E-13
 -1       746 2.20337E+01 7.04029E-02-3.16130E-05 1.53469E+00 1.40284E-13-1.85232E-13
 -1       747 2.20448E+01-6.15490E-01 1.93934E-04 1.24281E+00 2.61920E-14-6.02439E-14
 -1       748 2.18504E+01-9.57781E-01-3.52204E-04 8.06382E-01-9.33031E-15 4.55973E-14
 -1       749 2.15287E+01-1.00483E+00-2.87275E-04 3.85811E-01 7.63580E-14 6.70209E-14
 -1       750 2.11706E+01-8.69261E-01-2.31163E-04 5.83408E-02 6.86457E-14 6.31400E-15
 -1       751 2.08408E+01-6.55787E-01-1.60651E-04-1.59028E-01 8.74113E-14-9.30053E-14
 -1       752 2.05711E+01-4.36088E-01-9.05363E-05-2.81060E-01 3.07131E-14 9.34904E-15
 -1       753 2.03686E+01-2.48091E-01-4.39675E-05-3.32544E-01-8.09697E-14 2.91769E-14
 -1       754 2.02265E+01-1.05526E-01-1.81109E-05-3.37252E-01 2.69422E-14 7.21327E-14
 -1       755 2.01323E+01-7.95050E-03-4.44017E-06-3.14069E-01 2.57445E-14 1.90075E-14
 -1       756 2.00734E+01 5.17895E-02 2.74174E-06-2.76525E-01-1.32349E-13-2.62977E-14
 -1       757 2.00385E+01 8.29005E-02 5.97815E-06-2.33623E-01 8.32252E-14 1.40528E-13
 -1       758 2.00193E+01 9.41423E-02 6.79712E-06-1.90942E-01-2.14962E-13 1.13264E-13
 -1       759 2.00095E+01 9.27544E-02 6.52231E-06-1.51651E-01-2.24636E-13 2.19759E-13
 -1       760 2.00051E+01 8.41952E-02 5.74720E-06-1.17293E-01-2.11147E-13-3.30696E-17
 -1       761 2.00035E+01 7.22815E-02 4.77152E-06-8.83687E-02-5.48925E-14-3.05360E-13
 -1       762 2.00032E+01 5.94913E-02 3.78104E-06-6.47480E-02 1.10776E-13-1.01677E-13
 -1       763 2.00033E+01 4.72969E-02 2.88236E-06-4.59559E-02 2.96536E-14 3.73643E-14
 -1       764 2.00034E+01 3.64600E-02 2.09126E-06-3.13595E-02-9.23669E-14 3.61701E-13
 -1       765 2.00033E+01 2.72678E-02 1.33435E-06-2.02867E-02-2.87077E-14-2.23279E-13
 -1       766 2.00031E+01 1.97026E-02 4.38378E-07-1.21041E-02 5.95241E-14-4.51625E-13
 -1       767 2.00026E+01 1.35876E-02 2.61334E-06-6.27215E-03 1.15088E-13-4.68762E-13
 -1       768 2.00022E+01 8.94924E-03-6.77339E-07-2.64810E-03 7.58595E-14-3.27026E-13
 -1       769 2.57107E+01 5.85293E+00-9.94889E-02 4.38628E-01-3.57728E-13 1.29827E-13
 -1       770 1.84746E+01 1.37083E+00-1.24440E-04-1.02381E+00 1.22150E-13-3.95214E-14
 -1       771 1.90840E+01 1.09748E+00-4.79236E-05-9.11164E-01 1.06237E-13-8.49445E-16
 -1       772 1.62892E+01 1.94301E+00 4.49412E-03-1.18619E+00 9.80686E-14-1.31113E-14
 -1       773 1.44168E+01 2.04600E+00 2.11452E-02-1.29327E+00 1.10727E-13-1.40313E-13
 -1       774 2.00010E+01 1.32442E-02-2.42466E-06 2.49383E-03-2.00746E-14-3.67502E-13
 -1       775 1.99867E+01 7.40703E-01 6.65793E-05-4.38259E-01 1.60457E-13-1.15419E-13
 -1       776 1.86765E+01 1.32656E+00 1.16791E-04 9.40092E-01-7.56212E-14 1.24144E-13
 -1       777 1.91563E+01 1.04343E+00 3.70937E-06 7.94080E-01-1.37879E-13-1.20217E-13
 -1       778 8.52267E+00 9.91707E-01 1.40322E-01 4.49787E-01 8.90559E-14-8.29198E-15
 -1       779 1.79230E+01 1.64941E+00 4.33961E-04 1.09766E+00-1.20594E-13 1.01942E-14
 -1       780 1.94881E+01 7.94151E-01 3.76010E-05 6.49491E-01 4.58081E-14-8.69270E-14
 -1       781 1.96990E+01 5.96022E-01 6.13491E-05 5.19857E-01 7.38168E-14 1.73367E-14
 -1       782 1.98302E+01 4.43651E-01 4.74182E-05 4.08254E-01-2.04186E-14 1.92267E-13
 -1       783 1.99099E+01 3.28608E-01 3.02134E-05 3.15189E-01 3.43763E-14-1.18729E-13
 -1       784 1.99570E+01 2.42672E-01 2.59824E-05 2.39607E-01 4.58191E-14-3.18542E-13
 -1       785 1.99828E+01 1.81504E-01 2.15727E-05 1.81903E-01 2.84296E-13-1.42837E-13
 -1       786 1.99978E+01 1.33279E-01 1.33924E-05 1.33893E-01 1.00103E-13-3.48241E-14
 -1       787 2.00052E+01 9.75147E-02 1.03387E-05 9.67736E-02 2.40572E-13-6.13478E-14
 -1       788 2.00083E+01 7.09611E-02 7.30635E-06 6.84144E-02 1.25012E-13-1.09383E-13
 -1       789 2.00090E+01 5.12494E-02 4.89487E-06 4.70329E-02-3.28935E-13-2.71315E-13
 -1       790 2.00084E+01 3.66261E-02 3.94116E-06 3.11477E-02-1.11054E-13-5.04961E-13
 -1       791 2.00073E+01 2.62483E-02 1.71497E-06 2.00078E-02-1.68201E-13-7.04456E-13
 -1       792 2.00059E+01 1.80576E-02 2.07790E-06 1.15225E-02 1.22994E-13-3.78872E-13
 -1       793 2.00046E+01 1.19407E-02 4.25050E-06 5.62586E-03 1.55411E-13-3.82364E-13
 -1       794 2.00033E+01 7.20674E-03 5.16103E-06 1.68644E-03 2.52096E-13-6.61326E-13
 -1       795 1.19702E+01 1.39150E+00 9.99434E-02-2.40473E+00 7.16116E-14-2.85796E-13
 -1       796 1.52996E+01 2.05839E+00 1.77418E-02 1.64705E+00-1.88473E-13-3.18519E-13
 -1       797 2.00010E+01 1.11749E-02 7.97191E-07-2.15607E-03 6.22704E-13 1.57262E-13
 -1       798 2.00000E+01 1.35482E-02-2.19248E-06-1.71791E-03 2.95330E-13 2.89007E-13
 -1       799 2.01289E+01 8.19463E-01 3.00585E-04-2.15902E-01 1.51593E-13-8.54354E-14
 -1       800 2.02202E+01 1.84211E+00-4.40296E-05-8.24831E-01-5.00303E-14-3.78386E-13
 -1       801 1.68060E+01 1.93827E+00 1.19061E-03 1.26609E+00-2.61291E-13-1.84911E-13
 -1       802 2.00022E+01 1.07544E-02-9.24522E-06 2.55810E-03 3.11365E-13-4.05573E-13
 -1       803 1.61950E+01-1.99212E+00 6.16815E-02 5.66062E+00 2.38115E-13-4.04364E-14
 -1       804 2.58482E+01 5.23703E+00-9.00815E-02-1.33870E+00-1.77136E-13 6.90021E-14
 -1       805 1.11309E+01 1.02112E+00 9.10637E-02-2.95043E+00 5.64861E-14 7.88050E-14
 -1       806 1.30572E+01 1.75714E+00 5.89573E-02 2.14311E+00-1.68729E-13-7.82915E-14
 -1       807 1.99999E+01 1.49375E-02-7.91257E-07 1.73166E-03-1.67976E-13-1.54735E-13
 -1       808 1.75849E+01 1.67631E+00 1.79831E-04-1.11188E+00 1.28265E-13-4.22378E-15
 -1       809 1.99459E+01 2.13875E+00-2.03019E-04 1.81818E-01 1.85076E-13-2.31009E-13
 -1       810 2.68813E+01 2.35277E+00-9.04089E-02-2.15759E+00-7.55125E-14 2.77028E-13
 -1       811 1.10403E+01 1.68650E+00 9.19898E-02 4.96881E-01 1.38428E-13-2.03244E-13
 -1       812 2.59122E+01-3.59387E+00-1.73377E-02-1.43704E+00 3.98054E-13 7.53876E-14
 -1       813 2.03098E+01 8.13895E-01 1.82548E-04-8.75502E-02-2.63676E-14-2.81099E-13
 -1       814 1.42760E+01-6.89085E-01 6.99417E-02-5.08622E+00-3.45210E-14 7.67962E-15
 -1       815 2.38953E+01-4.18434E+00 1.51289E-02-3.54953E+00 2.69737E-13-3.33579E-14
 -1       816 2.54714E+01 1.55132E+00-2.35995E-02 2.09523E+00 1.55309E-13-2.46266E-13
 -1       817 1.79490E+01-1.76291E+00 1.84987E-02-4.81048E+00-5.05897E-14-9.05599E-14
 -1       818 1.04610E+01 1.49982E+00 9.34143E-02-8.85895E-01-1.43212E-14 3.98397E-14
 -1       819 1.94972E+01 8.93391E-01 4.32784E-05-7.77768E-01 9.24791E-14-2.83327E-14
 -1       820 1.46320E+01-2.97860E-01 5.39710E-02 4.37540E+00 2.48406E-13-7.66141E-14
 -1       821 1.99409E+01 2.15705E+00-2.96773E-04 4.76915E-02 1.52389E-13-2.93845E-13
 -1       822 1.90857E+01-2.97688E+00 4.01187E-02 5.32989E+00 2.26774E-13-1.65340E-13
 -1       823 2.00592E+01 1.94214E+00-2.61759E-04-2.44778E-01 7.32062E-14-3.33174E-13
 -1       824 2.02898E+01 1.35370E+00-7.02284E-05-5.16205E-01-3.20740E-14-3.43788E-13
 -1       825 1.97851E+01 7.70235E-01 6.49916E-05-6.21694E-01 1.22000E-13-7.68957E-14
 -1       826 2.67793E+01-3.24123E+00-2.26006E-02 7.49853E-01 8.22595E-15 2.72723E-13
 -1       827 2.60782E+01-2.23020E+00-2.52869E-02 3.38547E-01 2.58153E-13 7.91251E-14
 -1       828 2.02181E+01 1.02484E+00-1.33155E-05 6.44052E-02 2.00901E-13-5.99307E-14
 -1       829 1.99994E+01 1.50827E-02-1.70095E-06-7.12799E-04 4.65185E-13 3.43814E-13
 -1       830 2.41629E+01-4.39026E+00 3.40465E-03 3.54872E+00 1.27203E-13 1.69684E-13
 -1       831 2.67426E+01 3.15725E-01-5.02887E-02-1.79932E+00-8.57578E-14 3.16113E-13
 -1       832 2.01596E+01 1.71599E+00-6.17894E-04-3.78528E-01 2.63837E-14-3.32740E-13
 -1       833 1.99993E+01 1.55712E-02-1.76795E-06 5.48828E-04 1.32470E-13 3.84277E-13
 -1       834 2.01668E+01 1.58204E+00-2.42883E-04 3.61675E-01 2.38630E-13-3.91476E-14
 -1       835 2.00112E+01 2.01332E+00-2.93716E-04 3.02868E-01 2.17807E-13-1.73813E-13
 -1       836 2.00016E+01 1.02559E-02 2.01240E-05-2.50434E-03 4.65018E-13-1.85749E-13
 -1       837 2.02941E+01 5.40298E-01-9.52065E-06 2.45030E-01-2.55381E-14-1.88405E-13
 -1       838 2.03017E+01 2.90523E-01-2.37451E-05 4.02767E-01-4.16170E-14-1.72519E-13
 -1       839 2.03355E+01 6.58929E-02 2.37144E-05 5.24369E-01-5.89819E-14-1.50585E-13
 -1       840 2.04204E+01-1.65147E-01 2.42506E-05 6.10425E-01-4.49050E-14-1.78304E-13
 -1       841 2.05830E+01-4.26637E-01 6.61217E-06 6.53511E-01 2.15697E-14-1.92515E-13
 -1       842 2.08484E+01-7.28832E-01-1.14688E-05 6.33893E-01 3.51185E-14-2.21239E-13
 -1       843 2.12323E+01-1.05584E+00-1.08548E-04 5.18319E-01-3.70961E-14-2.14824E-13
 -1       844 2.17283E+01-1.35047E+00-5.46016E-05 2.64458E-01-7.15980E-14-2.23613E-13
 -1       845 2.22855E+01-1.49561E+00 1.51337E-04-1.62656E-01-4.65824E-14-1.97971E-13
 -1       846 2.27897E+01-1.31269E+00-3.42336E-04-7.45957E-01-1.49584E-14-1.15316E-13
 -1       847 2.30834E+01-6.23167E-01-8.74593E-04-1.35213E+00-2.95402E-14-1.05105E-13
 -1       848 2.30368E+01 6.03136E-01 7.70157E-05-1.68817E+00-2.34999E-14-1.22176E-13
 -1       849 2.26991E+01 2.04411E+00-1.37549E-02-1.43951E+00-5.71772E-14-8.65129E-14
 -1       850 2.23887E+01 3.05194E+00-1.43160E-02-5.07809E-01-3.59435E-15-1.09470E-13
 -1       851 2.24208E+01 2.95458E+00-1.03133E-02 7.07513E-01-1.26063E-13-1.58762E-13
 -1       852 2.26789E+01 1.91995E+00-1.53152E-02 1.57175E+00-1.69147E-13-6.20012E-14
 -1       853 2.30004E+01 4.85992E-01-1.16981E-03 1.73813E+00-1.07026E-14-6.39098E-14
 -1       854 2.30145E+01-6.76286E-01 2.62798E-03 1.35322E+00 1.92486E-13-1.50310E-13
 -1       855 2.26802E+01-1.28864E+00-1.14257E-03 7.55109E-01 4.62575E-15-1.20838E-13
 -1       856 2.21396E+01-1.40426E+00-3.90404E-04 2.00936E-01 1.14473E-13 4.38639E-14
 -1       857 2.15636E+01-1.22824E+00-3.24187E-04-1.86833E-01 1.19725E-13 4.17940E-14
 -1       858 2.10546E+01-9.28176E-01-2.14878E-04-4.06194E-01 9.24360E-15 2.68985E-14
 -1       859 2.06557E+01-6.17228E-01-9.85996E-05-4.97026E-01-6.35186E-14-1.31253E-13
 -1       860 2.03696E+01-3.51913E-01-2.92814E-05-5.05195E-01 4.12182E-14-1.36621E-13
 -1       861 2.01797E+01-1.51289E-01-6.08319E-06-4.67206E-01 9.73113E-15-3.82157E-14
 -1       862 2.00631E+01-1.39526E-02 5.78350E-07-4.07867E-01-4.36159E-14-9.38032E-14
 -1       863 1.99981E+01 7.05527E-02 2.47071E-06-3.42322E-01-2.02979E-13-3.81178E-14
 -1       864 1.99670E+01 1.15181E-01 2.43443E-06-2.79011E-01 5.07349E-14 2.47087E-14
 -1       865 1.99565E+01 1.32079E-01 1.22754E-06-2.22073E-01-2.25551E-14-1.65811E-13
 -1       866 1.99575E+01 1.31202E-01 4.01575E-07-1.73118E-01-5.12818E-14 1.14041E-13
 -1       867 1.99640E+01 1.20067E-01 8.92993E-08-1.32335E-01-2.80436E-13 2.38000E-13
 -1       868 1.99723E+01 1.03962E-01-4.12912E-08-9.91713E-02-3.40922E-13 2.06811E-13
 -1       869 1.99804E+01 8.63551E-02-1.06512E-07-7.27385E-02 4.55208E-14 1.93513E-13
 -1       870 1.99873E+01 6.93490E-02-1.34801E-07-5.20452E-02 8.39288E-14 1.09923E-15
 -1       871 1.99927E+01 5.40714E-02-1.45638E-07-3.61213E-02-3.16729E-14-2.59625E-13
 -1       872 1.99966E+01 4.09955E-02-5.35379E-08-2.40811E-02-1.69123E-13-3.56974E-13
 -1       873 1.99991E+01 3.01712E-02 1.96456E-06-1.51500E-02 1.95769E-14-1.04946E-13
 -1       874 2.00005E+01 2.13484E-02-7.88422E-06-8.71817E-03 4.92250E-14-1.73478E-13
 -1       875 1.52261E+01 2.01182E+00 2.88355E-03 2.73601E-03-2.85234E-13 1.23520E-14
 -1       876 1.49674E+01 1.87739E+00 1.28889E-02 4.68419E-01 1.32108E-13-1.39110E-14
 -1       877 2.41117E+01 4.15006E+00-4.77158E-02 1.09006E+00-1.24557E-13-2.99609E-13
 -1       878 1.99817E+01 2.08998E+00-3.02743E-04-9.78640E-02 1.37645E-13-3.07493E-13
 -1       879 1.90057E+01 9.80938E-01 5.12258E-05 3.93676E-01-4.48368E-14-1.21250E-13
 -1       880 1.85383E+01 1.22380E+00-3.08197E-04 3.83798E-01-3.33643E-14-6.02952E-15
 -1       881 1.95730E+01 5.85487E-01-3.12806E-05 3.22250E-01 3.33535E-14-1.89632E-13
 -1       882 1.97257E+01 4.45715E-01-9.33542E-06 2.70099E-01 2.40106E-13-4.51075E-13
 -1       883 1.98268E+01 3.37149E-01 1.19484E-05 2.18879E-01 1.31937E-13-5.13658E-13
 -1       884 1.98903E+01 2.57277E-01 8.07563E-06 1.74631E-01-7.04412E-14-4.85433E-13
 -1       885 1.99343E+01 1.92578E-01-2.06205E-06 1.34409E-01-3.09580E-14-2.01697E-13
 -1       886 1.99624E+01 1.43393E-01 1.37722E-07 1.01072E-01 1.93552E-13-1.35383E-13
 -1       887 1.99801E+01 1.06074E-01 1.76664E-07 7.41747E-02 2.01213E-13 1.09766E-13
 -1       888 1.99910E+01 7.78372E-02-2.95262E-07 5.29842E-02-3.40090E-14 8.57908E-14
 -1       889 1.99975E+01 5.65432E-02 3.89289E-07 3.66557E-02-1.06267E-13-2.12412E-13
 -1       890 2.00009E+01 4.12172E-02 1.71828E-07 2.48295E-02-2.02248E-14-1.17433E-13
 -1       891 2.00026E+01 2.89932E-02 2.71911E-07 1.55381E-02-6.28345E-14-3.29547E-13
 -1       892 2.00031E+01 1.98304E-02 3.98555E-06 8.89482E-03-1.31261E-13-5.88429E-14
 -1       893 2.00027E+01 1.50108E-02 3.47727E-06 5.20144E-03 2.61953E-13-2.32684E-13
 -1       894 2.02389E+01 1.36320E+00-3.22268E-04-2.73190E-01 2.38138E-14-2.97861E-13
 -1       895 2.40431E+01 4.61690E+00-4.88670E-02-3.38072E-01-3.30031E-13-1.19073E-13
 -1       896 1.99993E+01 2.13873E-02 9.02531E-08 4.00284E-03-2.28590E-13-3.79075E-13
 -1       897 2.01239E+01 1.11089E+00-1.31126E-05-6.20644E-03 1.95766E-13-4.47404E-14
 -1       898 1.28119E+01 1.82793E+00 3.96221E-02-1.30243E+00 4.77708E-14-2.14767E-14
 -1       899 1.99966E+01 9.34375E-01-1.70186E-04-2.00700E-01 1.60441E-13-4.85889E-14
 -1       900 1.77266E+01 1.47160E+00-4.24688E-04-2.58566E-01 1.15615E-13 3.14098E-14
 -1       901 1.68062E+01 1.77819E+00 3.85963E-04 1.42853E-01-2.40745E-13 6.15129E-14
 -1       902 1.29534E+01 1.29900E+00 2.61299E-02 2.22404E+00 2.44273E-13-7.14481E-14
 -1       903 2.00010E+01 1.85075E-02 4.62866E-07 5.03795E-03 1.38768E-13-6.67904E-13
 -1       904 2.18947E+01-3.17584E+00 1.87057E-02-3.64506E+00 1.08401E-13-1.70610E-13
 -1       905 1.99998E+01 1.85505E-02 8.70290E-06-4.51316E-03 2.45616E-13 1.95107E-13
 -1       906 2.46963E+01 3.10924E+00-4.23382E-02-1.85368E+00-3.87832E-14 6.50413E-14
 -1       907 2.38139E+01-3.48441E+00 2.36126E-03-2.35754E+00 1.55487E-13 2.40029E-13
 -1       908 1.65970E+01 1.69234E+00 5.39406E-04 2.25976E-02 1.24516E-13-8.97936E-16
 -1       909 1.78299E+01 1.50521E+00-2.85075E-04 3.10614E-01-1.26206E-13-9.55394E-15
 -1       910 1.42835E+01 6.19678E-01 3.06958E-02-3.41109E+00-2.24165E-14 2.21665E-13
 -1       911 1.93445E+01 7.62412E-01-5.72245E-05 3.67636E-01-5.17581E-14-2.09760E-13
 -1       912 2.02862E+01 8.48225E-01-3.86332E-04 4.49110E-02 1.23164E-15-2.38485E-13
 -1       913 1.85322E+01 1.23701E+00-2.15571E-04-4.03616E-01 1.26013E-13-2.53343E-14
 -1       914 1.69107E+01-3.92104E-01 8.64779E-03-3.76889E+00-1.21882E-14 4.88684E-14
 -1       915 1.91004E+01 1.04343E+00-6.98151E-05-4.49650E-01 7.79559E-14-8.39761E-14
 -1       916 2.00014E+01 1.52040E-02 1.23101E-06-5.21794E-03 2.62567E-14-2.21184E-13
 -1       917 1.77637E+01-1.43057E+00 2.55583E-02 4.42982E+00 2.17032E-13-1.44312E-13
 -1       918 2.00224E+01 1.70216E+00 1.63277E-04 1.05044E-01 1.30584E-13-2.35042E-13
 -1       919 2.01189E+01 1.54879E+00 3.77111E-04-4.13231E-02 8.13753E-14-2.79771E-13
 -1       920 2.14930E+01-3.52638E+00 1.82869E-02 4.34139E+00 1.71902E-13 1.08700E-13
 -1       921 2.53197E+01-5.85621E-01-2.04385E-02 1.51786E+00 1.52795E-13 6.13047E-14
 -1       922 1.99979E+01 2.30257E-02-9.87865E-07 1.86976E-03 6.38447E-14 3.97634E-13
 -1       923 2.62411E+01-1.59910E+00-1.98827E-02-8.90584E-01-1.93972E-14 3.45932E-13
 -1       924 1.98008E+01 8.71978E-01-9.04505E-05-3.38520E-01 1.11569E-13-6.00389E-14
 -1       925 2.45889E+01-2.89768E+00-5.46239E-03-7.90094E-01 2.16015E-13 2.96009E-13
 -1       926 1.99984E+01 2.13486E-02-8.86550E-07-2.90106E-03 2.86315E-13 2.60702E-13
 -1       927 2.51990E+01-3.69924E+00-5.76145E-04 1.72250E+00 1.33872E-13 2.76674E-13
 -1       928 2.48925E+01 1.61622E+00-2.84855E-02-2.00218E+00 2.58005E-14 1.51954E-13
 -1       929 2.02013E+01 1.36634E+00 1.10212E-03-1.17408E-01 5.85247E-14-2.75504E-13
 -1       930 2.00330E+01 1.64391E+00-2.73170E-03 1.46567E-01 1.80784E-13-1.80888E-13
 -1       931 2.02432E+01 5.50318E-01-2.90845E-05 3.32541E-01-1.54386E-14-2.23572E-13
 -1       932 2.02453E+01 2.95874E-01 8.13340E-05 4.89458E-01-3.34407E-14-1.70809E-13
 -1       933 2.02781E+01 5.20138E-02 1.09963E-04 6.36195E-01-2.50924E-14-1.09143E-13
 -1       934 2.03760E+01-2.16847E-01 5.39685E-05 7.73009E-01-1.52962E-14-1.15175E-13
 -1       935 2.05786E+01-5.40971E-01-9.28706E-06 8.88442E-01 5.88950E-15-1.52111E-13
 -1       936 2.09317E+01-9.37318E-01 1.25556E-04 9.51229E-01 1.14470E-14-1.59510E-13
 -1       937 2.14660E+01-1.38141E+00 6.17219E-06 9.04619E-01-2.24823E-14-1.18161E-13
 -1       938 2.21976E+01-1.80306E+00 5.97845E-04 6.67533E-01-3.26536E-14 2.04077E-15
 -1       939 2.30600E+01-2.00846E+00 1.15813E-03 1.54206E-01 4.13938E-14 7.77505E-14
 -1       940 2.38791E+01-1.68588E+00-1.07562E-03-6.57864E-01-4.67137E-14 1.51311E-13
 -1       941 2.43428E+01-5.39444E-01-7.61726E-03-1.53573E+00-4.07984E-14 1.60121E-13
 -1       942 2.28504E+01-1.89142E+00 7.27592E-03-1.70815E-01 1.28902E-13 1.67309E-13
 -1       943 2.19711E+01-1.65223E+00 2.87476E-04-6.22418E-01 1.62900E-13 4.73455E-14
 -1       944 2.12328E+01-1.22475E+00-2.44978E-04-8.18988E-01-1.28219E-14-2.38898E-14
 -1       945 2.06851E+01-7.94594E-01-1.26629E-04-8.38355E-01-1.35435E-13-2.18477E-13
 -1       946 2.03140E+01-4.38141E-01-1.15611E-05-7.63603E-01-6.31917E-14-1.22752E-13
 -1       947 2.00831E+01-1.75262E-01 1.94117E-05-6.50300E-01 2.90995E-14-1.17300E-13
 -1       948 1.99533E+01 8.32015E-04 8.04893E-06-5.30657E-01 9.15088E-15 9.19355E-14
 -1       949 1.98911E+01 1.07075E-01 7.86906E-06-4.20639E-01 6.89415E-14 1.63144E-13
 -1       950 1.98711E+01 1.61728E-01 3.12151E-06-3.26506E-01-1.26240E-13 2.32315E-13
 -1       951 1.98751E+01 1.81189E-01-5.91247E-07-2.49391E-01-1.00599E-13 1.89898E-13
 -1       952 1.98912E+01 1.78313E-01-3.19893E-06-1.87903E-01-1.89942E-14 8.79148E-14
 -1       953 1.99118E+01 1.62679E-01-3.36145E-06-1.39799E-01-2.80426E-14 3.03612E-14
 -1       954 1.99324E+01 1.40937E-01-2.86355E-06-1.02666E-01-3.61997E-13-5.84569E-14
 -1       955 1.99508E+01 1.17431E-01-2.29791E-06-7.43009E-02-2.46890E-13-3.98041E-14
 -1       956 1.99660E+01 9.47868E-02-1.75293E-06-5.28314E-02-1.58234E-14-2.43836E-13
 -1       957 1.99779E+01 7.44231E-02-1.10203E-06-3.67297E-02-9.09092E-14-1.98720E-13
 -1       958 1.99867E+01 5.69469E-02-1.62704E-06-2.47797E-02 7.89308E-14 3.19248E-14
 -1       959 1.99928E+01 4.24253E-02 9.98881E-07-1.60223E-02 8.23679E-14 3.72591E-13
 -1       960 1.99968E+01 3.05554E-02-1.29212E-05-9.58250E-03-7.90185E-14 3.03725E-13
 -1       961 2.00520E+01 1.66562E+00-2.94163E-05 3.94304E-02 9.24903E-14-2.94211E-13
 -1       962 1.61936E+01 1.47923E+00 5.23265E-03-1.19265E+00-1.42722E-13-2.04619E-13
 -1       963 1.86669E+01 1.02178E+00-4.53052E-04-2.70562E-02-9.66585E-14-3.06683E-13
 -1       964 1.95110E+01 9.13797E-01-6.43685E-05-4.23429E-01 3.87894E-14-5.99695E-14
 -1       965 1.97928E+01 3.23741E-01-2.22604E-05 1.29755E-01-1.25972E-13 1.06982E-13
 -1       966 1.96912E+01 4.18835E-01-6.80795E-06 1.47428E-01 1.71860E-13-3.24598E-13
 -1       967 1.95455E+01 5.36727E-01-1.48142E-05 1.54214E-01 1.98021E-13-2.45787E-13
 -1       968 1.98633E+01 2.48181E-01-7.16099E-06 1.08107E-01-1.12488E-13 2.43634E-13
 -1       969 1.99117E+01 1.88670E-01-2.92504E-06 8.64519E-02 3.25386E-14 1.64318E-13
 -1       970 1.99447E+01 1.42196E-01-2.32639E-06 6.67392E-02 3.78243E-14 2.99024E-13
 -1       971 1.99669E+01 1.06154E-01-2.35581E-06 4.98532E-02 1.05587E-13 2.58041E-13
 -1       972 1.99815E+01 7.83963E-02-1.19026E-06 3.60202E-02 1.72840E-13 2.49091E-13
 -1       973 1.99904E+01 5.80622E-02-1.13846E-06 2.55178E-02 1.62695E-13-7.09374E-14
 -1       974 1.99963E+01 4.16112E-02-2.62444E-06 1.69201E-02 1.11274E-13-5.05411E-13
 -1       975 1.99995E+01 2.91197E-02-6.28263E-06 1.05344E-02-1.80095E-13-4.69210E-13
 -1       976 2.00004E+01 2.35163E-02 9.52764E-06 7.44561E-03 6.87653E-14-6.26616E-13
 -1       977 1.81183E+01 1.20960E+00-5.30742E-04-2.43966E-01-4.84331E-14-3.36932E-13
 -1       978 2.00217E+01 1.14619E+00 6.17894E-04-1.34408E-02 2.02191E-13-1.15434E-13
 -1       979 1.52025E+01 1.26680E+00 1.43465E-02-2.12415E+00-1.22615E-13 1.29365E-13
 -1       980 1.74398E+01 1.22302E+00 2.46612E-03 7.65958E-01 1.19016E-13-1.88142E-14
 -1       981 1.61704E+01 1.23983E-01 2.08750E-02 3.35633E+00 2.49615E-13-1.33947E-13
 -1       982 1.99181E+01-1.84408E+00 9.91619E-03-3.54100E+00-2.22130E-14-2.12649E-13
 -1       983 1.90650E+01 8.38054E-01-4.40772E-05 8.87139E-02 5.55272E-14-2.21074E-13
 -1       984 1.99977E+01 2.30851E-02 2.87383E-05-6.82345E-04 2.94156E-13 7.43819E-13
 -1       985 1.73707E+01 1.36816E+00-6.39959E-05-6.11326E-01-1.74517E-13-2.50207E-13
 -1       986 1.63483E+01 1.19474E+00-1.61498E-03 1.49289E+00 1.47841E-13-6.14179E-15
 -1       987 2.25514E+01-2.69869E+00 7.26047E-03-2.13802E+00 1.54951E-13 1.15854E-13
 -1       988 1.93451E+01 6.75559E-01 4.41488E-05 1.39861E-01-4.10840E-14-2.85051E-13
 -1       989 2.02424E+01 8.48544E-01 3.07483E-05 1.58872E-01 2.53965E-14-2.49617E-13
 -1       990 2.44280E+01 2.41054E+00-3.38740E-02 1.84497E+00 1.17054E-13-2.88055E-13
 -1       991 1.82378E+01 1.13571E+00 4.77469E-04 3.13602E-01 1.19394E-13-7.05166E-14
 -1       992 1.97123E+01-2.20961E+00 1.41672E-02 4.08568E+00 2.51022E-13-2.01505E-14
 -1       993 1.88379E+01 1.02737E+00-1.17523E-05 4.75756E-02 8.35002E-15-1.13614E-13
 -1       994 2.31721E+01-3.52962E+00 6.57696E-03 2.91410E+00 6.06030E-14 2.67633E-13
 -1       995 2.40954E+01-1.88118E+00-2.61600E-03 4.96483E-01 2.02112E-13 9.74963E-14
 -1       996 2.01238E+01 1.23629E+00-1.58889E-04 1.06157E-01 5.36971E-14-2.81339E-13
 -1       997 2.00486E+01 1.44304E+00 1.60126E-03 1.03401E-01 1.82900E-13-1.49907E-13
 -1       998 1.98727E+01 9.73967E-01-2.33234E-04-1.02420E-01 1.26441E-13-5.36455E-14
 -1       999 1.86302E+01-8.99906E-01 5.16689E-03 3.26510E+00 2.80178E-13-6.42754E-14
 -1      1000 2.53591E+01-2.55226E+00-1.08858E-02 2.72646E-02-1.65649E-14 2.52943E-13
 -1      1001 2.00604E+01 1.32697E+00 3.73027E-04 1.13720E-01 1.11039E-13-2.17936E-13
 -1      1002 1.99981E+01 2.69972E-02-9.46950E-06 5.87642E-03 1.79809E-13-5.74108E-13
 -1      1003 2.00252E+01 1.34770E+00-2.65955E-04 9.68941E-02 1.49139E-13-1.40409E-13
 -1      1004 1.99963E+01 2.91004E-02-8.20267E-06 2.80326E-03 4.16686E-13 5.58056E-13
 -1      1005 2.01201E+01 8.94960E-01-9.98415E-05 2.37214E-01 7.24577E-14-2.25055E-13
 -1      1006 2.01129E+01 3.19708E-01 3.93707E-04 5.75108E-01 1.93520E-14-1.67160E-13
 -1      1007 2.01207E+01 7.25156E-02 2.59069E-04 7.67718E-01-4.27515E-14-1.42525E-13
 -1      1008 2.02042E+01-2.20600E-01 2.10247E-04 9.86755E-01-1.43505E-14-1.18265E-13
 -1      1009 2.04183E+01-6.01100E-01 1.17983E-04 1.21701E+00 1.44864E-14-1.24653E-13
 -1      1010 2.08438E+01-1.11459E+00-4.38431E-03 1.42028E+00 5.27139E-14-1.03265E-14
 -1      1011 2.15765E+01-1.73525E+00-4.24603E-05 1.51508E+00 1.09893E-13 5.96982E-14
 -1      1012 2.26509E+01-2.34512E+00 8.60666E-03 1.33646E+00 1.00049E-13 2.14386E-13
 -1      1013 2.38818E+01-2.65883E+00-3.89182E-03 7.21108E-01 8.11488E-14 2.23606E-13
 -1      1014 1.78351E+01 5.34275E-01-3.37310E-03 1.77644E+00 1.43033E-13-5.44974E-14
 -1      1015 1.80195E+01-3.62106E-02 3.24779E-04 2.53796E+00 2.45972E-13-7.76761E-14
 -1      1016 2.12671E+01-1.52372E+00-1.66624E-04-1.44924E+00-6.15125E-14-9.07068E-14
 -1      1017 2.05698E+01-9.35952E-01-1.10240E-04-1.33067E+00-5.93346E-14-1.60392E-13
 -1      1018 2.01337E+01-4.73451E-01 8.67347E-05-1.11694E+00-1.33459E-13 1.28303E-13
 -1      1019 1.98898E+01-1.49536E-01 1.06866E-04-8.87071E-01 1.63402E-13 1.50365E-13
 -1      1020 1.97730E+01 5.74802E-02 4.82892E-05-6.79108E-01 1.12840E-13 2.91325E-13
 -1      1021 1.97347E+01 1.75909E-01-3.49897E-06-5.07037E-01 1.34799E-14 3.27954E-13
 -1      1022 1.97414E+01 2.32107E-01 1.21598E-05-3.71635E-01-7.25471E-14 5.47612E-14
 -1      1023 1.97709E+01 2.47061E-01-1.49797E-05-2.68929E-01-2.01285E-13 4.43066E-14
 -1      1024 1.98096E+01 2.36960E-01-1.93628E-05-1.92566E-01-2.12450E-13 1.51293E-14
 -1      1025 1.98492E+01 2.13138E-01-1.80125E-05-1.36784E-01-1.66254E-13-5.64982E-14
 -1      1026 1.98854E+01 1.83258E-01-1.53330E-05-9.64144E-02-3.67027E-13-2.88393E-13
 -1      1027 1.99162E+01 1.52197E-01-1.27487E-05-6.73874E-02-2.07550E-13-1.60008E-14
 -1      1028 1.99411E+01 1.22842E-01-1.03798E-05-4.66013E-02-1.28560E-13 1.10612E-13
 -1      1029 1.99603E+01 9.67009E-02-8.54183E-06-3.17580E-02-3.05033E-14 9.97819E-14
 -1      1030 1.99747E+01 7.43553E-02-7.55746E-06-2.11765E-02 6.73463E-14 2.01307E-13
 -1      1031 1.99849E+01 5.58934E-02-6.79579E-06-1.37351E-02 1.58055E-13 7.91310E-15
 -1      1032 1.99919E+01 4.08342E-02 3.46610E-08-8.37283E-03 7.74747E-14 9.13399E-14
 -1      1033 1.99958E+01 2.91811E-02-2.07965E-05-8.30901E-04 1.90792E-13 7.04378E-13
 -1      1034 1.97069E+01 3.70680E-01-3.27361E-05 4.94297E-02-1.31521E-13-1.29303E-13
 -1      1035 1.97962E+01 2.92882E-01-2.49127E-05 5.51873E-02-1.61169E-13-4.09919E-14
 -1      1036 1.95851E+01 4.62402E-01-2.09562E-05 2.71838E-02 1.53806E-13-1.52524E-13
 -1      1037 1.99071E+01 1.76097E-01-1.37012E-05 4.49230E-02 1.12894E-13 1.54165E-13
 -1      1038 1.99398E+01 1.34102E-01-1.05525E-05 3.63813E-02 6.58739E-14 9.08470E-14
 -1      1039 1.99625E+01 1.00856E-01-6.81920E-06 2.80465E-02 1.74286E-13 1.89769E-13
 -1      1040 1.99773E+01 7.59347E-02-7.40038E-06 2.09810E-02 1.97761E-13 2.07416E-13
 -1      1041 1.99877E+01 5.54405E-02-8.58707E-06 1.48059E-02 3.05492E-13 3.26498E-13
 -1      1042 1.99942E+01 3.96475E-02 2.34330E-06 9.91310E-03 3.50282E-13-1.81367E-13
 -1      1043 1.83530E+01 7.46930E-01 2.35929E-03 1.08982E+00 7.06216E-14-2.97604E-14
 -1      1044 1.70318E+01 6.11889E-01 3.41897E-03-2.31190E+00 4.62401E-14 6.93944E-15
 -1      1045 1.98608E+01 2.28472E-01-1.80671E-05 5.21164E-02 1.86158E-14 3.34238E-14
 -1      1046 2.09982E+01-1.76966E+00 2.70054E-03-2.30915E+00-1.06122E-13-7.81827E-14
 -1      1047 1.89302E+01 7.87372E-01 1.81548E-04-2.75188E-01 3.37685E-16-4.79929E-13
 -1      1048 1.77609E+01 8.35370E-01 1.20794E-03-1.42383E+00-8.22426E-14-2.18544E-13
 -1      1049 1.82581E+01 8.91658E-01 5.08319E-04-8.57079E-01-6.32775E-14-3.66059E-13
 -1      1050 1.85579E+01-5.36177E-01 2.24167E-03-2.90285E+00-4.47148E-14-8.12621E-14
 -1      1051 2.29196E+01-2.37437E+00-4.65452E-03-1.02005E+00 1.61889E-13 1.64071E-13
 -1      1052 1.86228E+01 8.62962E-01 6.24092E-04-5.10425E-01-1.55597E-14-3.04433E-13
 -1      1053 2.01087E+01 5.93994E-01 7.56986E-05 3.96568E-01 5.06971E-14-1.94538E-13
 -1      1054 2.08080E+01-1.97566E+00 2.03283E-04 2.84953E+00 2.10225E-13 6.34001E-14
 -1      1055 2.17166E+01-2.74728E+00-6.24876E-03 3.03592E+00 1.90256E-13 1.47483E-13
 -1      1056 1.88239E+01 8.03720E-01 2.93954E-04 6.24240E-01 5.73518E-14-2.68038E-14
 -1      1057 1.99929E+01 1.08081E+00-1.41586E-04 1.43250E-01 1.20833E-13-1.93059E-13
 -1      1058 1.92081E+01 6.77847E-01 1.58747E-04-1.16700E-01-2.22929E-14-4.70897E-13
 -1      1059 1.92964E+01 9.41633E-01 1.01435E-04-8.83374E-02 7.03079E-14-8.56017E-14
 -1      1060 1.94243E+01 5.64776E-01-1.38244E-04-2.18125E-02-1.57328E-13-3.03834E-13
 -1      1061 1.96343E+01 9.14861E-01-7.38211E-05-1.31481E-01 9.35556E-14-3.53344E-14
 -1      1062 1.99914E+01 4.25422E-02 3.57160E-05 4.37803E-03 4.69600E-13 7.17282E-13
 -1      1063 2.00041E+01 1.21645E+00-2.10567E-04 7.38684E-02 1.51467E-13-1.07337E-13
 -1      1064 1.97883E+01-9.67771E-01 2.53107E-03 2.43838E+00 2.28129E-13-5.99181E-14
 -1      1065 2.22994E+01-2.16632E+00-3.52923E-03-1.32417E+00 6.12807E-14 2.42378E-13
 -1      1066 1.99900E+01 4.39744E-02 5.89097E-06-1.26532E-03 1.79977E-13 1.97886E-13
 -1      1067 1.98240E+01 1.59585E-01 1.65729E-04 9.02363E-01-8.89046E-18-1.41428E-13
 -1      1068 1.98366E+01-1.36326E-01-1.01814E-03 1.23983E+00 9.80132E-15-1.00576E-13
 -1      1069 2.00292E+01-5.64573E-01 1.97946E-03 1.64385E+00 1.03218E-13-7.36578E-14
 -1      1070 1.91411E+01-2.71033E-01-1.27698E-03 2.02168E+00 1.66227E-13-1.02517E-13
 -1      1071 2.01734E+01-9.99101E-01-1.98800E-03-1.99836E+00-1.82885E-13-3.85717E-14
 -1      1072 1.97369E+01-4.15533E-01 1.24858E-04-1.56116E+00 5.29771E-14-3.16826E-14
 -1      1073 1.95422E+01-4.05372E-02 6.97732E-04-1.16465E+00 7.27285E-14 2.57062E-13
 -1      1074 1.94886E+01 1.79648E-01 5.08550E-04-8.39254E-01 1.19748E-13 2.41643E-13
 -1      1075 1.95103E+01 2.92867E-01 2.94249E-04-5.89163E-01 1.15998E-14 1.53601E-13
 -1      1076 1.95689E+01 3.36074E-01 1.44995E-04-4.04545E-01-1.50871E-13-5.63193E-14
 -1      1077 1.96400E+01 3.35986E-01 1.21229E-04-2.73366E-01-3.12569E-13-7.59479E-14
 -1      1078 1.97126E+01 3.10081E-01 1.21985E-04-1.82331E-01-2.02469E-13 8.22295E-14
 -1      1079 1.97776E+01 2.72647E-01 7.34770E-05-1.20015E-01-2.24206E-13 1.84742E-13
 -1      1080 1.98332E+01 2.31055E-01 5.31708E-05-7.81355E-02-2.73381E-13 1.28388E-13
 -1      1081 1.98786E+01 1.90189E-01 3.70964E-05-5.03807E-02-1.60586E-13-2.86398E-14
 -1      1082 1.99143E+01 1.52768E-01 2.51445E-05-3.21698E-02-1.44013E-13-1.04768E-13
 -1      1083 1.99417E+01 1.20069E-01 1.61703E-05-2.03083E-02-4.79091E-14 8.55869E-14
 -1      1084 1.99619E+01 9.24666E-02 1.09904E-05-1.26386E-02 5.49141E-14 8.64990E-14
 -1      1085 1.99763E+01 6.98153E-02 7.48913E-06-7.68344E-03 1.43133E-13 2.26837E-15
 -1      1086 1.99841E+01 5.59492E-02 3.76409E-06-3.88162E-03 2.31679E-13 1.09375E-13
 -1      1087 1.97485E+01 3.15411E-01-3.63608E-05-2.22473E-02-3.48330E-13-1.72865E-13
 -1      1088 1.96545E+01 3.83291E-01-3.68796E-05-6.03074E-02-3.76102E-14-1.89642E-13
 -1      1089 1.99440E+01 1.20708E-01-3.53481E-07 1.12705E-02 1.05791E-13 2.91090E-13
 -1      1090 1.99148E+01 1.57219E-01-5.34739E-06 1.11622E-02 2.64778E-14 3.24450E-13
 -1      1091 1.99783E+01 6.88270E-02 4.20430E-06 7.93292E-03 3.17687E-13 3.45130E-13
 -1      1092 1.99859E+01 5.44647E-02 6.98696E-06 5.97707E-03 4.32482E-13 3.20382E-13
 -1      1093 1.86736E+01 3.75266E-01-9.73249E-04-1.41508E+00 1.71872E-13 1.07809E-13
 -1      1094 1.98810E+01 3.83401E-01-1.06302E-03 6.35610E-01 4.20645E-14-1.96284E-13
 -1      1095 1.85361E+01 5.68943E-02-1.04503E-03-2.06320E+00 4.87036E-14 1.45423E-13
 -1      1096 1.99084E+01 8.36117E-01-2.86228E-04 2.55091E-01 4.16909E-14-1.79805E-13
 -1      1097 1.99642E+01 9.18606E-02 7.12061E-07 9.84270E-03 4.49113E-14 4.16017E-13
 -1      1098 1.98720E+01 6.24037E-01-2.56582E-04 4.25893E-01 4.89517E-14-1.67116E-13
 -1      1099 1.92270E+01 8.16027E-01-7.69240E-04 3.20836E-01 6.61366E-14 2.56360E-14
 -1      1100 1.95373E+01 4.52467E-01-1.52190E-04-1.24369E-01-2.25203E-14-3.33751E-13
 -1      1101 1.98747E+01 2.01615E-01-1.25550E-05 7.73557E-03-2.00925E-13 1.19341E-13
 -1      1102 1.88300E+01 5.26865E-01-8.24753E-04-9.74009E-01 1.59683E-14-2.14067E-13
 -1      1103 1.92141E+01 5.68708E-01-4.32430E-04-3.96810E-01-1.13117E-13-2.02202E-13
 -1      1104 1.90258E+01 5.80063E-01-4.49743E-04-6.34832E-01 3.07854E-14-2.59920E-13
 -1      1105 1.98797E+01 9.71067E-01 2.83691E-04 9.41435E-02 1.03499E-13-9.77083E-14
 -1      1106 1.92564E+01 1.39915E-01-1.04086E-03 1.36171E+00 2.67773E-14-1.16917E-13
 -1      1107 1.98205E+01 2.54399E-01-2.36264E-05-1.88486E-03-3.54767E-13-6.85969E-14
 -1      1108 1.95364E+01 5.23980E-01 1.28851E-03 6.47819E-01 2.43331E-14-1.87468E-13
 -1      1109 1.96499E+01 8.37197E-01 1.68217E-04 1.74980E-01 5.52762E-14-6.57136E-14
 -1      1110 1.94380E+01 4.85320E-01 1.47951E-04-2.40250E-01-9.53338E-14-2.25265E-13
 -1      1111 1.93409E+01 4.52972E-01-3.60501E-04 8.63427E-01 9.00407E-14-1.27908E-13
 -1      1112 2.78938E+01 9.06157E+00 2.31126E+00-6.65409E+00-5.62883E-14 3.76005E-13
 -1      1113 2.05655E+01 6.23377E+00 2.13714E-01-3.85100E+00-1.94567E-14-4.79256E-13
 -1      1114 1.94701E+01 5.86462E+00 7.85558E-02-2.82287E+00-8.43769E-15-7.31243E-13
 -1      1115 1.90597E+01 5.73651E+00 6.19507E-02-2.16353E+00-3.45557E-15-7.92723E-13
 -1      1116 1.88618E+01 5.67585E+00 5.77083E-02-1.63048E+00-2.11636E-16-7.82320E-13
 -1      1117 1.87519E+01 5.64175E+00 5.39406E-02-1.17159E+00 1.33574E-15-7.32485E-13
 -1      1118 1.86880E+01 5.62168E+00 5.09118E-02-7.57303E-01 3.52843E-15-6.76625E-13
 -1      1119 1.86533E+01 5.61062E+00 4.87444E-02-3.67384E-01 5.00251E-15-6.15110E-13
 -1      1120 1.86426E+01 5.60716E+00 4.78753E-02 8.30352E-03 6.47551E-15-5.48204E-13
 -1      1121 1.86548E+01 5.61098E+00 4.84483E-02 3.82877E-01 7.13145E-15-4.78768E-13
 -1      1122 1.86918E+01 5.62269E+00 5.04630E-02 7.69924E-01 8.12978E-15-3.98584E-13
 -1      1123 1.87595E+01 5.64400E+00 5.38155E-02 1.18084E+00 1.08646E-14-2.99647E-13
 -1      1124 1.88730E+01 5.67920E+00 5.76797E-02 1.63727E+00 1.19522E-14-1.77703E-13
 -1      1125 1.90743E+01 5.74096E+00 6.22422E-02 2.17014E+00 1.29272E-14 1.45344E-14
 -1      1126 1.94871E+01 5.86984E+00 7.89930E-02 2.83221E+00 1.53072E-14 3.16993E-13
 -1      1127 2.05876E+01 6.24076E+00 2.14891E-01 3.86405E+00 1.29896E-14 8.26547E-13
 -1      1128 2.79553E+01 9.09175E+00 2.35033E+00 6.69380E+00-2.33147E-15 1.69620E-12
 -1      1129 2.87111E+01 3.58993E+00 1.25061E+00-4.18763E+00-1.87433E-13 8.76577E-13
 -1      1130 2.02271E+01-1.78367E-01-6.16377E-01-1.05222E-01-6.41431E-14 4.51084E-13
 -1      1131 1.88968E+01-9.68096E-02-2.35745E-01 6.34407E-02-2.88276E-14-8.32927E-14
 -1      1132 1.86203E+01-4.89842E-02-6.03724E-02 4.12331E-02-1.76690E-14-4.11060E-13
 -1      1133 1.86297E+01-2.58830E-02-1.68070E-02 2.78114E-02-1.15804E-14-6.31949E-13
 -1      1134 1.87877E+01-1.43741E-02-6.86139E-03 2.05840E-02-8.15559E-15-7.52141E-13
 -1      1135 1.90237E+01-7.59137E-03-3.05455E-03 1.62635E-02 2.35575E-15-8.69440E-13
 -1      1136 1.92960E+01-2.93340E-03 3.71053E-05 1.34525E-02 1.77741E-15-9.97870E-13
 -1      1137 1.95744E+01 8.85867E-04 3.39451E-03 1.13517E-02-1.28151E-14-1.04242E-12
 -1      1138 1.98316E+01 4.60180E-03 7.39432E-03 9.37593E-03-8.84498E-15-1.21077E-12
 -1      1139 2.00381E+01 8.57734E-03 1.22725E-02 6.97066E-03 6.28425E-15-1.33448E-12
 -1      1140 2.01592E+01 1.28044E-02 1.79239E-02 3.56463E-03-4.62911E-15-1.22780E-12
 -1      1141 2.01553E+01 1.68129E-02 2.36308E-02-1.35234E-03-1.07228E-14-1.30941E-12
 -1      1142 1.99868E+01 1.95934E-02 2.78676E-02-8.02034E-03-7.18674E-15-1.41917E-12
 -1      1143 1.96247E+01 1.96723E-02 2.83681E-02-1.60911E-02-1.25744E-14-1.49270E-12
 -1      1144 1.90657E+01 1.54999E-02 2.27095E-02-2.43171E-02 9.50585E-15-1.48231E-12
 -1      1145 1.83493E+01 6.23207E-03 9.51874E-03-3.04981E-02-1.84348E-14-1.51575E-12
 -1      1146 1.75672E+01-7.30961E-03-1.00578E-02-3.19804E-02-5.08957E-15-1.57454E-12
 -1      1147 1.68552E+01-2.21144E-02-3.15849E-02-2.67864E-02-9.95428E-15-1.66182E-12
 -1      1148 1.63632E+01-3.36307E-02-4.83560E-02-1.49226E-02 2.16042E-14-1.59813E-12
 -1      1149 1.62077E+01-3.77169E-02-5.42901E-02 1.03074E-03-3.09453E-14-1.31832E-12
 -1      1150 1.64302E+01-3.28358E-02-4.71394E-02 1.67236E-02-1.35391E-14-1.22634E-12
 -1      1151 1.69809E+01-2.09434E-02-2.97728E-02 2.79397E-02-1.51589E-14-1.22857E-12
 -1      1152 1.77390E+01-6.36334E-03-8.54442E-03 3.24201E-02-2.41766E-14-1.26887E-12
 -1      1153 1.85569E+01 6.47830E-03 1.00114E-02 3.04775E-02-2.21106E-14-1.31411E-12
 -1      1154 1.93058E+01 1.48565E-02 2.18783E-02 2.42601E-02-4.04082E-15-1.08946E-12
 -1      1155 1.99033E+01 1.82203E-02 2.63068E-02 1.64261E-02-7.51547E-15-9.73494E-13
 -1      1156 2.03183E+01 1.75762E-02 2.48963E-02 9.08867E-03-2.38754E-14-1.09508E-12
 -1      1157 2.05603E+01 1.45345E-02 2.01297E-02 3.40063E-03-2.58927E-14-1.21109E-12
 -1      1158 2.06619E+01 1.05814E-02 1.42458E-02-3.41782E-04-6.76217E-15-1.16466E-12
 -1      1159 2.06636E+01 6.74933E-03 8.74045E-03-2.37519E-03-6.53375E-14-1.21625E-12
 -1      1160 2.06034E+01 3.58447E-03 4.34845E-03-3.15408E-03 2.83784E-15-1.27439E-12
 -1      1161 2.05120E+01 1.26359E-03 1.24973E-03-3.14217E-03 2.18997E-14-1.30233E-12
 -1      1162 2.04111E+01-2.59677E-04-6.88887E-04-2.71267E-03 4.37811E-14-1.11480E-12
 -1      1163 2.03144E+01-1.13509E-03-1.72734E-03-2.12328E-03 1.12243E-14-9.57073E-13
 -1      1164 2.02293E+01-1.53786E-03-2.13911E-03-1.52942E-03 2.31247E-14-1.05841E-12
 -1      1165 2.01591E+01-1.62714E-03-2.15700E-03-1.01067E-03-2.33799E-14-8.70981E-13
 -1      1166 2.01039E+01-1.52934E-03-1.95624E-03-5.97053E-04-3.56703E-14-7.14069E-13
 -1      1167 2.00625E+01-1.33578E-03-1.65697E-03-2.89766E-04-1.75114E-14-9.52787E-14
 -1      1168 2.00328E+01-1.10723E-03-1.33474E-03-7.56126E-05-3.32593E-14-1.67482E-13
 -1      1169 2.00126E+01-8.80635E-04-1.03234E-03 6.39873E-05-3.36607E-14-3.78897E-13
 -1      1170 1.99999E+01-6.75852E-04-7.70284E-04 1.47913E-04-7.22619E-14-1.00857E-12
 -1      1171 1.99927E+01-5.01209E-04-5.54968E-04 1.92848E-04 5.12754E-14-1.20337E-12
 -1      1172 1.99895E+01-3.57712E-04-3.84263E-04 2.12328E-04 4.90933E-14-5.33065E-13
 -1      1173 1.99891E+01-2.41874E-04-2.50905E-04 2.16559E-04 2.96539E-14-1.95568E-13
 -1      1174 1.99906E+01-1.47462E-04-1.43735E-04 2.12392E-04 2.66509E-14-1.15299E-14
 -1      1175 1.99931E+01-6.65777E-05-4.68177E-05 2.02522E-04-1.79845E-14-2.15449E-13
 -1      1176 1.99961E+01 9.94395E-06 5.71824E-05 1.79354E-04 9.41687E-14-2.29497E-13
 -1      1177 1.99986E+01 8.35998E-05 1.68351E-04 1.23434E-04-4.26780E-14-1.86870E-13
 -1      1178 1.99998E+01 1.36468E-05 6.95874E-05-2.78381E-06 1.41432E-14-9.01939E-14
 -1      1179 2.89905E+01 3.68928E+00 1.34152E+00 4.30793E+00 4.76563E-14 2.30543E-12
 -1      1180 2.03526E+01-1.76329E-01-6.28884E-01 1.34460E-01 1.90750E-14 2.17382E-12
 -1      1181 1.89117E+01-9.92704E-02-2.49188E-01-6.32142E-02 9.66588E-15 1.87400E-12
 -1      1182 1.86190E+01-5.22520E-02-6.62382E-02-4.10242E-02 9.21919E-15 1.57321E-12
 -1      1183 1.86352E+01-2.87440E-02-2.05438E-02-2.71276E-02-2.82803E-15 1.43274E-12
 -1      1184 1.88188E+01-2.03429E-02-1.22745E-02-2.01010E-02 7.93072E-15 1.33730E-12
 -1      1185 1.91156E+01-1.56668E-02-1.20016E-02-1.55083E-02 8.87831E-15 1.23709E-12
 -1      1186 1.95210E+01-1.53044E-02-1.47343E-02-1.33517E-02 8.92233E-15 1.20279E-12
 -1      1187 2.00396E+01-1.80055E-02-2.05868E-02-1.33595E-02 2.71744E-15 1.14891E-12
 -1      1188 2.07083E+01-2.34993E-02-3.03794E-02-1.60956E-02 1.05987E-14 1.09539E-12
 -1      1189 2.15924E+01-3.07441E-02-4.47492E-02-2.31219E-02-6.78927E-15 1.13843E-12
 -1      1190 2.27524E+01-4.20217E-02-6.38033E-02-3.64832E-02 9.48070E-15 1.13305E-12
 -1      1191 2.43292E+01-5.06544E-02-8.42281E-02-5.77580E-02-1.85095E-15 1.21253E-12
 -1      1192 2.65037E+01-5.23504E-02-9.06813E-02-9.20749E-02 4.37150E-15 1.17401E-12
 -1      1193 2.92936E+01-3.12777E-02-4.60744E-02-1.33308E-01-8.28287E-15 9.82103E-13
 -1      1194 3.24450E+01 3.73384E-02 1.09656E-01-1.51588E-01-2.42948E-14 9.25815E-13
 -1      1195 3.49758E+01 1.66653E-01 3.94517E-01-6.20269E-02-2.90566E-15 1.01649E-12
 -1      1196 3.49120E+01 2.89041E-01 6.03391E-01 2.42878E-01-4.60118E-14 1.34973E-12
 -1      1197 3.08094E+01 3.03066E-01 3.55807E-01 6.41904E-01-5.28848E-14 1.78513E-12
 -1      1198 2.30851E+01-8.99881E-02-5.79082E-01 8.30896E-01-8.98587E-16 1.94927E-12
 -1      1199 1.66942E+01-5.40643E-01-1.55438E+00 2.57658E-01-1.72501E-14 1.86229E-12
 -1      1200 1.79109E+01-5.24033E-01-1.36150E+00-5.68987E-01 5.17295E-14 1.54582E-12
 -1      1201 2.48234E+01-3.31145E-02-3.46988E-01-8.39488E-01 1.58033E-15 9.70557E-13
 -1      1202 3.20099E+01 3.24536E-01 4.80406E-01-5.44674E-01 3.49235E-14 4.15001E-13
 -1      1203 3.53930E+01 3.09941E-01 6.04626E-01-1.39936E-01 7.12277E-15 3.94712E-13
 -1      1204 3.47969E+01 1.39908E-01 3.31608E-01 9.49636E-02 1.43774E-14 6.20247E-13
 -1      1205 3.20574E+01 1.67398E-02 6.47745E-02 1.52548E-01 1.54074E-14 4.04288E-13
 -1      1206 2.90496E+01-3.85675E-02-6.39267E-02 1.23772E-01 2.76563E-14 2.49356E-13
 -1      1207 2.64916E+01-5.42507E-02-9.37989E-02 8.57478E-02-2.72352E-14 5.83908E-13
 -1      1208 2.44959E+01-5.07463E-02-8.41288E-02 5.15650E-02 7.08314E-14 4.55129E-13
 -1      1209 2.30706E+01-4.07739E-02-6.34151E-02 2.94603E-02 1.11283E-15 2.38806E-13
 -1      1210 2.20798E+01-3.05612E-02-4.45492E-02 1.62558E-02 1.36184E-14 2.33660E-13
 -1      1211 2.13995E+01-2.18403E-02-3.03195E-02 8.61988E-03-1.39394E-14 4.53120E-13
 -1      1212 2.09433E+01-1.68135E-02-2.11984E-02 3.74842E-03-2.72135E-14 6.62598E-13
 -1      1213 2.06305E+01-1.13217E-02-1.42413E-02 2.21472E-03 1.65458E-14 6.08246E-13
 -1      1214 2.04101E+01-7.98284E-03-9.67267E-03 9.00525E-04-1.70170E-14 4.90159E-13
 -1      1215 2.02602E+01-5.63340E-03-6.61376E-03 1.99906E-04 2.12083E-14 1.91736E-13
 -1      1216 2.01588E+01-3.98045E-03-4.54683E-03-1.62351E-04 5.86667E-14-2.32384E-13
 -1      1217 2.00909E+01-2.77159E-03-3.12442E-03-3.43485E-04-4.62167E-14-2.94799E-14
 -1      1218 2.00471E+01-2.11158E-03-2.22341E-03-4.81782E-04 2.75908E-15 3.58159E-13
 -1      1219 2.00188E+01-1.43445E-03-1.52896E-03-4.21440E-04 5.77214E-14 4.00503E-13
 -1      1220 2.00009E+01-1.00668E-03-1.04673E-03-4.04314E-04 4.13862E-14 4.91249E-13
 -1      1221 1.99909E+01-7.01163E-04-7.10362E-04-3.74630E-04-1.96495E-14 5.02699E-13
 -1      1222 1.99862E+01-4.81203E-04-4.73748E-04-3.40195E-04-4.88698E-14 3.08434E-13
 -1      1223 1.99851E+01-3.15300E-04-3.04920E-04-3.06548E-04-4.59895E-15-1.38497E-13
 -1      1224 1.99862E+01-2.17235E-04-1.89813E-04-2.79940E-04-3.36744E-14 1.08453E-13
 -1      1225 1.99887E+01-1.20271E-04-9.94822E-05-2.51655E-04-2.15000E-14 6.50068E-13
 -1      1226 1.99921E+01-4.33411E-05-1.18916E-05-2.27598E-04 1.78979E-14 3.29343E-13
 -1      1227 1.99956E+01 3.01597E-05 8.85886E-05-1.96984E-04-1.56212E-14-2.77547E-13
 -1      1228 1.99986E+01 1.13275E-04 2.02018E-04-1.28359E-04-9.43682E-14-1.30721E-13
 -1      1229 1.99998E+01 2.29748E-05 6.73654E-05 9.18186E-06-2.38159E-14-3.06056E-13
 -1      1230 1.99998E+01-5.22807E-05 3.25938E-05-3.86362E-05-2.10040E-13-1.44163E-13
 -1      1231 1.99999E+01-1.26926E-03 1.58726E-04-1.26129E-04-4.35804E-13 3.46631E-14
 -1      1232 1.99998E+01-3.93791E-03 2.46285E-05-1.60646E-04-3.08739E-13-3.52298E-14
 -1      1233 1.99998E+01-6.72745E-03-7.21700E-05-1.34734E-04-4.22911E-13-1.26447E-13
 -1      1234 1.99997E+01-9.00769E-03-1.07840E-04-9.31388E-05 9.60353E-14 2.32355E-13
 -1      1235 1.99997E+01-1.05551E-02-1.05038E-04-5.31947E-05-9.62121E-14-1.01726E-13
 -1      1236 1.99997E+01-1.14196E-02-8.34544E-05-2.44775E-05-8.35381E-13-1.65876E-14
 -1      1237 1.99998E+01-1.17441E-02-6.08045E-05-3.88722E-06-1.10821E-12-9.10039E-14
 -1      1238 1.99998E+01-1.16658E-02-4.69481E-05 9.79751E-06-1.20977E-12-8.63001E-14
 -1      1239 1.99998E+01-1.12765E-02-4.62963E-05 2.12839E-05-8.27348E-13 3.66843E-14
 -1      1240 1.99998E+01-1.05813E-02-5.72251E-05 3.56662E-05-4.63809E-13-1.74455E-13
 -1      1241 1.99998E+01-9.51996E-03-7.24120E-05 5.66050E-05-1.21441E-12 8.08881E-14
 -1      1242 1.99998E+01-7.98848E-03-7.86140E-05 8.52442E-05-1.21338E-12 8.04857E-16
 -1      1243 1.99998E+01-5.91983E-03-5.32352E-05 1.19907E-04-1.22410E-12 6.20412E-14
 -1      1244 1.99998E+01-3.43659E-03 3.84226E-05 1.65637E-04-4.49303E-13 4.49264E-14
 -1      1245 1.99999E+01-1.16445E-03 1.45083E-04 1.29673E-04 1.68724E-13-6.24493E-14
 -1      1246 1.99998E+01-3.82612E-05 4.32193E-05 2.82708E-05 6.74889E-15 2.12356E-14
 -1      1247-1.36302E+00-2.70599E+01-3.99914E+00-2.84169E+00 5.99465E-13 6.25992E-14
 -1      1248-2.68616E+00-2.01055E+01-3.77962E+00-5.84785E+00 1.01186E-12 4.45810E-13
 -1      1249-1.59115E+00-7.31020E+00-2.85668E+00-2.83901E+00 1.19948E-12 7.05436E-13
 -1      1250 6.62034E+00 4.42605E+00-1.35395E+00 5.66454E+00 1.37623E-12 1.21880E-12
 -1      1251 2.51494E+01 1.00514E+01 8.17198E-01 1.52680E+01 6.64802E-13 8.55760E-13
 -1      1252 5.12954E+01 8.58571E+00 3.48133E+00 1.90606E+01 9.72555E-14-1.86740E-13
 -1      1253 7.37390E+01 4.17103E+00 5.68752E+00 1.17622E+01-1.69420E-13-1.19615E-12
 -1      1254 8.02604E+01 2.77475E+00 6.35683E+00-2.97742E+00 1.47438E-13-2.10532E-12
 -1      1255 6.73237E+01 5.66928E+00 5.07647E+00-1.57329E+01 7.19813E-13-2.71183E-12
 -1      1256 4.20312E+01 9.88622E+00 2.57877E+00-1.88511E+01 1.28031E-12-2.61524E-12
 -1      1257 1.83316E+01 9.13510E+00 9.59669E-02-1.26712E+01 1.40377E-12-1.87983E-12
 -1      1258 3.33797E+00 1.28189E+00-1.84469E+00-2.82693E+00 1.10423E-12-9.73888E-13
 -1      1259-2.43217E+00-1.14186E+01-3.15137E+00 4.48258E+00 4.16556E-13-2.87548E-13
 -1      1260-2.16474E+00-2.30299E+01-3.84566E+00 5.47677E+00-2.67786E-13 6.89726E-14
 -1      1261-9.45338E-01-2.76897E+01-3.96160E+00 1.30496E+00-7.18647E-13-4.24660E-15
 -1      1262-1.31137E+00-2.28570E+01-3.56627E+00-3.17138E+00-1.54521E-12-3.27988E-13
 -1      1263-1.34561E+00-1.04565E+01-2.57200E+00-2.91705E+00-2.07012E-12-8.79186E-13
 -1      1264 3.04666E+00 2.76208E+00-1.13400E+00 3.21166E+00-2.01439E-12-1.33960E-12
 -1      1265 1.54339E+01 1.08283E+01 5.01616E-01 1.24783E+01-1.48170E-12-1.53388E-12
 -1      1266 3.42858E+01 1.15914E+01 2.07404E+00 1.90160E+01-8.73190E-13-1.39044E-12
 -1      1267 5.29890E+01 7.35890E+00 3.26482E+00 1.77595E+01-3.67706E-13-9.71223E-13
 -1      1268 6.62930E+01 2.86327E+00 4.00398E+00 9.34871E+00-1.38112E-13-3.81917E-13
 -1      1269 6.90708E+01 1.81277E+00 4.12760E+00-3.38694E+00-1.39166E-13 7.04686E-13
 -1      1270 5.99787E+01 5.12372E+00 3.67300E+00-1.48347E+01-4.43451E-13 1.65046E-12
 -1      1271 4.18859E+01 1.03377E+01 2.60592E+00-1.92625E+01-8.42548E-13 1.75815E-12
 -1      1272 2.25958E+01 1.23049E+01 1.20836E+00-1.60308E+01-9.21929E-13 1.17506E-12
 -1      1273 7.81382E+00 7.80686E+00-3.85031E-01-7.78150E+00-2.58904E-13 2.85771E-13
 -1      1274 1.72803E-01-2.82457E+00-1.81734E+00 2.56159E-01 5.81979E-13-2.63567E-13
 -1      1275-1.58253E+00-1.56674E+01-2.97304E+00 3.85246E+00 7.48290E-13-2.68452E-13
 -1      1276-1.05349E+00-2.53042E+01-3.75191E+00 1.98937E+00 8.22009E-13-5.72979E-14
 -1      1277 2.22492E+01 1.83813E+00-7.22460E-01-2.76135E+00-7.62168E-14 1.11466E-13
 -1      1278 2.03914E+01 4.68741E+00-4.72073E-02-3.24755E+00-1.23387E-13-6.01234E-13
 -1      1279 2.08879E+01 4.80256E+00-1.10664E-01-4.10524E+00-1.84242E-13-4.69152E-13
 -1      1280 1.95713E+01 4.99715E+00-1.90525E-02-2.58447E+00-7.67025E-14-7.61141E-13
 -1      1281 1.98686E+01 5.09290E+00 2.01620E-03-2.97931E+00-1.03861E-13-7.02757E-13
 -1      1282 2.05658E+01 3.94814E+00-2.50388E-02-3.00786E+00-1.96048E-13-5.22277E-13
 -1      1283 1.92165E+01 5.09168E+00-3.50090E-03-1.99684E+00-3.08711E-14-7.94184E-13
 -1      1284 1.93707E+01 5.14846E+00 1.18392E-02-2.29112E+00-4.67092E-14-7.89473E-13
 -1      1285 1.97957E+01 4.37185E+00-2.31805E-02-2.41638E+00-1.09655E-13-6.52076E-13
 -1      1286 1.90239E+01 5.14141E+00 2.83505E-03-1.49388E+00 8.81066E-15-7.62619E-13
 -1      1287 1.91112E+01 5.17382E+00 1.35858E-02-1.74125E+00-8.17055E-16-7.82159E-13
 -1      1288 1.94198E+01 4.56907E+00-1.90261E-02-1.85624E+00-3.76131E-14-6.71477E-13
 -1      1289 1.89112E+01 5.17323E+00 5.54252E-03-1.05673E+00 4.49389E-14-7.15258E-13
 -1      1290 1.89633E+01 5.19255E+00 1.30711E-02-1.27216E+00 3.01061E-14-7.41076E-13
 -1      1291 1.92118E+01 4.68397E+00-1.56446E-02-1.37520E+00 2.62091E-14-6.38805E-13
 -1      1292 1.88427E+01 5.19506E+00 6.90881E-03-6.50765E-01 6.93829E-14-6.61571E-13
 -1      1293 1.88739E+01 5.20646E+00 1.18433E-02-8.51675E-01 6.10258E-14-6.95558E-13
 -1      1294 1.90872E+01 4.75710E+00-1.35759E-02-9.47174E-01 8.18763E-14-6.08420E-13
 -1      1295 1.88075E+01 5.20919E+00 7.92120E-03-2.68913E-01 8.76909E-14-5.98018E-13
 -1      1296 1.88223E+01 5.21456E+00 1.04760E-02-4.59241E-01 8.08169E-14-6.33297E-13
 -1      1297 1.90132E+01 4.80285E+00-1.24532E-02-5.50529E-01 1.18464E-13-5.52631E-13
 -1      1298 1.88009E+01 5.21647E+00 8.95385E-03 1.02114E-01 1.06797E-13-5.32852E-13
 -1      1299 1.88010E+01 5.21653E+00 9.19051E-03-8.43487E-02 1.03680E-13-5.72497E-13
 -1      1300 1.89780E+01 4.82613E+00-1.19357E-02-1.74705E-01 1.55666E-13-4.94507E-13
 -1      1301 1.88228E+01 5.21720E+00 1.01818E-02 4.75218E-01 1.31675E-13-4.59178E-13
 -1      1302 1.88077E+01 5.21183E+00 8.01068E-03 2.85990E-01 1.23212E-13-4.97973E-13
 -1      1303 1.89776E+01 4.82865E+00-1.18886E-02 1.93335E-01 1.83019E-13-4.30947E-13
 -1      1304 1.88764E+01 5.21113E+00 1.15748E-02 8.64080E-01 1.51195E-13-3.80395E-13
 -1      1305 1.88441E+01 5.19959E+00 6.83436E-03 6.64912E-01 1.42779E-13-4.27280E-13
 -1      1306 1.90128E+01 4.80968E+00-1.23253E-02 5.66529E-01 2.24507E-13-3.64646E-13
 -1      1307 1.89686E+01 5.19868E+00 1.29630E-02 1.27687E+00 1.71408E-13-2.83568E-13
 -1      1308 1.89146E+01 5.17873E+00 5.30072E-03 1.06332E+00 1.61776E-13-3.41786E-13
 -1      1309 1.90885E+01 4.76680E+00-1.32994E-02 9.55337E-01 2.57317E-13-2.85938E-13
 -1      1310 1.91225E+01 5.17943E+00 1.37588E-02 1.74716E+00 1.95226E-13-1.47264E-13
 -1      1311 1.90325E+01 5.14596E+00 2.48739E-03 1.50064E+00 1.84058E-13-2.25294E-13
 -1      1312 1.92172E+01 4.69346E+00-1.53767E-02 1.37902E+00 2.88926E-13-1.84724E-13
 -1      1313 1.93865E+01 5.15238E+00 1.21484E-02 2.29705E+00 2.08458E-13 5.50809E-14
 -1      1314 1.92301E+01 5.09461E+00-3.76326E-03 2.00225E+00 1.95552E-13-6.59889E-14
 -1      1315 1.94324E+01 4.57477E+00-1.87298E-02 1.86114E+00 3.12480E-13-4.36109E-14
 -1      1316 1.98890E+01 5.09531E+00 2.80223E-03 2.98855E+00 2.04850E-13 3.77032E-13
 -1      1317 1.95891E+01 4.99732E+00-1.92290E-02 2.59158E+00 1.92554E-13 1.87413E-13
 -1      1318 1.98148E+01 4.37190E+00-2.27223E-02 2.42228E+00 3.23006E-13 1.73708E-13
 -1      1319 2.09144E+01 4.82902E+00-9.63635E-02 4.12604E+00 1.52101E-13 8.54386E-13
 -1      1320 2.04135E+01 4.68472E+00-4.68805E-02 3.26101E+00 1.46411E-13 5.87801E-13
 -1      1321 2.05926E+01 3.93824E+00-2.40331E-02 3.01806E+00 2.78527E-13 5.12812E-13
 -1      1322 2.23390E+01 1.87297E+00-7.13937E-01 2.81792E+00 9.82547E-15 1.60538E-12
 -1      1323 2.20028E+01 1.29692E-01-3.99747E-01-1.25769E+00-1.68976E-13 2.09194E-13
 -1      1324 2.07107E+01 3.04727E-01-1.63413E-01-7.82145E-01-1.39541E-13 1.25386E-14
 -1      1325 2.01326E+01 1.53417E-01-7.29333E-02-3.78864E-01-1.17246E-13-5.57488E-14
 -1      1326 1.96915E+01 9.15468E-02-1.43834E-02-3.06960E-01-1.10516E-13-2.36772E-13
 -1      1327 2.10207E+01 3.67159E-01-1.03928E-01-1.22805E+00-2.49273E-13-1.82382E-13
 -1      1328 1.93580E+01 6.54734E-02 3.22649E-03-1.10866E-01-9.22257E-14-2.78104E-13
 -1      1329 1.92340E+01 4.24976E-02 1.34064E-02-9.24376E-02-7.38160E-14-3.98528E-13
 -1      1330 2.00135E+01 1.34465E-01-3.53807E-02-4.57065E-01-1.86753E-13-2.67831E-13
 -1      1331 1.91009E+01 3.31566E-02 1.31846E-02 2.04484E-04-5.13417E-14-4.54581E-13
 -1      1332 1.91162E+01 2.10429E-02 1.10594E-02 1.05146E-02-4.70526E-14-5.25784E-13
 -1      1333 1.95862E+01 5.75897E-02-8.98112E-03-1.17471E-01-1.33255E-13-3.46284E-13
 -1      1334 1.90916E+01 1.79348E-02 8.58892E-03 5.80573E-02-4.71752E-14-5.51240E-13
 -1      1335 1.91745E+01 1.07485E-02 6.32564E-03 6.37385E-02-3.80759E-14-6.07882E-13
 -1      1336 1.94349E+01 2.72840E-02-4.08730E-03 4.99608E-02-9.08657E-14-4.21194E-13
 -1      1337 1.92103E+01 9.57665E-03 4.39022E-03 8.85376E-02-3.67909E-14-6.32452E-13
 -1      1338 1.93265E+01 4.59806E-03 3.41125E-03 9.13156E-02-2.66074E-14-6.79365E-13
 -1      1339 1.94444E+01 1.29476E-02-2.79468E-03 1.37863E-01-7.72186E-14-4.58751E-13
 -1      1340 1.93947E+01 4.03086E-03 2.08260E-03 1.02067E-01 3.13920E-15-7.02345E-13
 -1      1341 1.95239E+01 8.09258E-05 1.85661E-03 1.02684E-01-1.32987E-14-7.44219E-13
 -1      1342 1.95442E+01 4.33143E-03-1.71718E-03 1.81621E-01-4.31910E-14-5.07296E-13
 -1      1343 1.96061E+01-4.98750E-04 9.33345E-04 1.02775E-01-2.31650E-14-7.17416E-13
 -1      1344 1.97329E+01-4.04421E-03 9.64755E-04 1.01395E-01-3.83895E-14-7.62883E-13
 -1      1345 1.96902E+01-2.38579E-03-5.43030E-04 1.95614E-01-3.73875E-14-5.08333E-13
 -1      1346 1.98146E+01-5.01480E-03 3.91641E-04 9.15169E-02-5.12860E-14-7.63383E-13
 -1      1347 1.99244E+01-8.47116E-03 4.24366E-04 8.79322E-02-4.33945E-14-8.40388E-13
 -1      1348 1.98506E+01-9.03799E-03 7.20507E-04 1.84757E-01-6.56667E-14-4.79940E-13
 -1      1349 1.99922E+01-1.00825E-02 2.46676E-04 6.73096E-02-4.38000E-14-8.33288E-13
 -1      1350 2.00690E+01-1.34920E-02 1.51296E-04 6.10956E-02-2.78072E-14-8.85616E-13
 -1      1351 1.99983E+01-1.66213E-02 2.13045E-03 1.48970E-01-5.90257E-14-4.39832E-13
 -1      1352 2.01092E+01-1.58307E-02 4.44539E-04 2.84815E-02-7.20539E-15-9.29660E-13
 -1      1353 2.01350E+01-1.89094E-02 1.43512E-04 1.92132E-02-2.19508E-14-9.22683E-13
 -1      1354 2.01068E+01-2.54214E-02 3.73414E-03 8.57950E-02-4.00970E-14-5.54961E-13
 -1      1355 2.01335E+01-2.18006E-02 9.53928E-04-2.58936E-02-2.21208E-14-9.30612E-13
 -1      1356 2.00895E+01-2.38726E-02 3.91006E-04-3.83092E-02-1.91297E-14-9.82939E-13
 -1      1357 2.01486E+01-3.48065E-02 5.46616E-03-6.98032E-03-3.44481E-14-6.79472E-13
 -1      1358 2.00334E+01-2.67682E-02 1.67476E-03-9.41114E-02-1.94992E-14-9.91725E-13
 -1      1359 1.99037E+01-2.67784E-02 8.07654E-04-1.08991E-01-2.86099E-14-1.02119E-12
 -1      1360 2.00970E+01-4.29382E-02 7.06393E-03-1.28014E-01-4.74876E-14-6.76544E-13
 -1      1361 1.97842E+01-2.87248E-02 2.37902E-03-1.69757E-01-2.69272E-14-1.02728E-12
 -1      1362 1.95620E+01-2.54509E-02 1.18706E-03-1.85199E-01-4.78740E-14-1.07968E-12
 -1      1363 1.99298E+01-4.66990E-02 8.02199E-03-2.68532E-01-7.80040E-14-6.52562E-13
 -1      1364 1.93791E+01-2.52693E-02 2.71413E-03-2.40289E-01-3.50609E-14-1.06661E-12
 -1      1365 1.90738E+01-1.78245E-02 1.22332E-03-2.53001E-01 7.59809E-16-1.06916E-12
 -1      1366 1.96373E+01-4.22351E-02 7.64210E-03-4.09054E-01-4.16533E-14-6.54184E-13
 -1      1367 1.88414E+01-1.46058E-02 2.32003E-03-2.87742E-01-3.60476E-15-1.08842E-12
 -1      1368 1.84847E+01-3.16771E-03 6.38094E-04-2.93519E-01-3.96898E-14-1.12085E-12
 -1      1369 1.92319E+01-2.64367E-02 5.25769E-03-5.19037E-01-3.14184E-14-7.47347E-13
 -1      1370 1.82326E+01 3.01424E-03 1.05148E-03-2.92908E-01-1.71501E-14-1.11696E-12
 -1      1371 1.78785E+01 1.66006E-02-6.08607E-04-2.88003E-01-1.55316E-14-1.10139E-12
 -1      1372 1.87556E+01 8.48098E-04 6.56431E-04-5.62188E-01-3.89955E-14-6.86607E-13
 -1      1373 1.76503E+01 2.41868E-02-8.15535E-04-2.42924E-01-2.17742E-14-1.10778E-12
 -1      1374 1.73658E+01 3.65036E-02-2.15501E-03-2.25987E-01-1.36271E-14-1.15360E-12
 -1      1375 1.82808E+01 3.49630E-02-5.46795E-03-5.08484E-01-3.05975E-14-6.84737E-13
 -1      1376 1.72091E+01 4.27563E-02-2.59402E-03-1.39330E-01 5.71643E-14-1.11307E-12
 -1      1377 1.70565E+01 4.99550E-02-3.31390E-03-1.12876E-01 7.38645E-15-1.05417E-12
 -1      1378 1.78986E+01 6.66796E-02-1.14051E-02-3.49566E-01 1.68476E-14-6.56711E-13
 -1      1379 1.70082E+01 5.22390E-02-3.52428E-03-1.49632E-03 1.80914E-14-1.00898E-12
 -1      1380 1.70244E+01 5.18251E-02-3.43906E-03 2.83460E-02-2.73219E-16-9.33899E-13
 -1      1381 1.76943E+01 8.54641E-02-1.50049E-02-1.09169E-01 2.47415E-14-6.58763E-13
 -1      1382 1.70975E+01 4.91448E-02-3.23592E-03 1.38425E-01 1.24662E-14-8.60154E-13
 -1      1383 1.72805E+01 4.12972E-02-2.35672E-03 1.64171E-01 1.99320E-14-8.39806E-13
 -1      1384 1.77188E+01 8.44656E-02-1.48054E-02 1.60067E-01 4.61783E-14-6.06729E-13
 -1      1385 1.74596E+01 3.49290E-02-1.98295E-03 2.47603E-01-3.12510E-14-8.38257E-13
 -1      1386 1.77698E+01 2.24006E-02-5.10040E-04 2.63494E-01-4.94483E-15-8.78089E-13
 -1      1387 1.79696E+01 6.41976E-02-1.09128E-02 3.94836E-01-7.74641E-15-5.63951E-13
 -1      1388 1.80166E+01 1.50954E-02-4.46154E-04 3.05077E-01 1.27397E-14-8.70859E-13
 -1      1389 1.83912E+01 1.76032E-03 1.32038E-03 3.09122E-01-1.63695E-14-8.65828E-13
 -1      1390 1.83920E+01 3.22357E-02-4.94384E-03 5.45417E-01-1.16318E-14-5.15973E-13
 -1      1391 1.86590E+01-3.83842E-03 7.11658E-04 3.07703E-01 1.00955E-14-8.12780E-13
 -1      1392 1.90332E+01-1.47407E-02 2.48651E-03 3.01655E-01 3.38125E-14-7.75817E-13
 -1      1393 1.89002E+01-7.87203E-04 9.57380E-04 5.92295E-01 2.10617E-14-4.65064E-13
 -1      1394 1.92807E+01-1.72650E-02 1.17936E-03 2.67416E-01 3.56013E-14-7.79116E-13
 -1      1395 1.96042E+01-2.41356E-02 2.76814E-03 2.55167E-01 3.92663E-14-7.41541E-13
 -1      1396 1.94062E+01-2.61267E-02 5.19964E-03 5.47258E-01 6.32142E-14-3.93894E-13
 -1      1397 1.98043E+01-2.36664E-02 1.03428E-03 2.03284E-01-1.59638E-15-6.91221E-13
 -1      1398 2.00496E+01-2.65249E-02 2.34565E-03 1.88958E-01 4.45130E-15-6.67362E-13
 -1      1399 1.98429E+01-3.98060E-02 7.22549E-03 4.41774E-01 2.25466E-14-4.29975E-13
 -1      1400 2.01912E+01-2.40360E-02 5.61752E-04 1.33607E-01-4.63067E-14-6.80938E-13
 -1      1401 2.03522E+01-2.38782E-02 1.57959E-03 1.20304E-01-9.53573E-14-7.58708E-13
 -1      1402 2.01734E+01-4.24939E-02 7.33849E-03 3.11672E-01-5.34156E-14-3.54807E-13
 -1      1403 2.04367E+01-2.05388E-02 4.96001E-05 7.13119E-02-4.04538E-14-7.76067E-13
 -1      1404 2.05227E+01-1.86308E-02 7.97893E-04 6.07190E-02-5.28830E-15-7.86040E-13
 -1      1405 2.03896E+01-3.75384E-02 6.23940E-03 1.85858E-01-1.25133E-13-4.05106E-13
 -1      1406 2.05596E+01-1.53560E-02-3.25084E-04 2.29432E-02-6.45621E-15-8.13092E-13
 -1      1407 2.05875E+01-1.27756E-02 1.92030E-04 1.55490E-02 8.69075E-15-8.08879E-13
 -1      1408 2.05033E+01-2.88261E-02 4.62644E-03 8.17520E-02 2.17439E-14-5.22403E-13
 -1      1409 2.05893E+01-1.00831E-02-5.08344E-04-1.00836E-02-3.37130E-14-7.58165E-13
 -1      1410 2.05774E+01-7.54727E-03-1.80197E-04-1.45527E-02-2.00910E-14-7.58376E-13
 -1      1411 2.05367E+01-1.94378E-02 3.00119E-03 6.01718E-03 2.86080E-14-5.32982E-13
 -1      1412 2.05565E+01-5.61241E-03-5.27634E-04-2.94921E-02-4.15326E-14-6.85487E-13
 -1      1413 2.05214E+01-3.49338E-03-3.47046E-04-3.16615E-02-4.79705E-15-6.88402E-13
 -1      1414 2.05145E+01-1.12256E-02 1.63610E-03-4.22005E-02-7.04742E-14-3.30984E-13
 -1      1415 2.04881E+01-2.27355E-03-4.43192E-04-3.83761E-02-3.57612E-14-7.82295E-13
 -1      1416 2.04424E+01-6.94191E-04-3.71319E-04-3.89398E-02-1.04347E-14-7.79026E-13
 -1      1417 2.04588E+01-4.96466E-03 6.25610E-04-6.77385E-02-7.05425E-14-2.56703E-13
 -1      1418 2.04045E+01-4.46545E-05-3.13965E-04-4.00077E-02-6.33821E-16-7.93295E-13
 -1      1419 2.03569E+01 1.01891E-03-3.16118E-04-3.95756E-02 1.39615E-14-8.14095E-13
 -1      1420 2.03873E+01-7.15346E-04-4.32594E-05-7.67116E-02-2.01290E-14-4.25099E-13
 -1      1421 2.03195E+01 1.26611E-03-1.82293E-04-3.72084E-02 2.01550E-14-8.93690E-13
 -1      1422 2.02753E+01 1.90541E-03-2.29418E-04-3.62484E-02 1.84580E-14-9.16095E-13
 -1      1423 2.03123E+01 1.82918E-03-4.32972E-04-7.48782E-02-3.33228E-14-5.86139E-13
 -1      1424 2.02415E+01 1.89956E-03-7.16990E-05-3.21220E-02 2.31026E-14-9.15791E-13
 -1      1425 2.02035E+01 2.22376E-03-1.41241E-04-3.09579E-02 7.61910E-14-8.63262E-13
 -1      1426 2.02418E+01 3.09867E-03-6.18494E-04-6.68911E-02 3.72194E-14-8.00902E-13
 -1      1427 2.01747E+01 2.07965E-03 9.05519E-06-2.62214E-02 1.15113E-13-8.32076E-13
 -1      1428 2.01438E+01 2.18916E-03-6.68437E-05-2.50560E-02 1.67499E-14-6.83747E-13
 -1      1429 2.01800E+01 3.50712E-03-6.68072E-04-5.61212E-02 1.43633E-13-8.21809E-13
 -1      1430 2.01204E+01 1.98612E-03 6.04323E-05-2.04220E-02 8.40133E-14-6.38208E-13
 -1      1431 2.00965E+01 1.96186E-03-1.15176E-05-1.93674E-02 1.03092E-13-4.75113E-13
 -1      1432 2.01287E+01 3.39203E-03-6.35814E-04-4.47842E-02 1.10909E-13-6.27067E-13
 -1      1433 2.00783E+01 1.74957E-03 8.74354E-05-1.52236E-02 1.17212E-13-2.51258E-13
 -1      1434 2.00606E+01 1.65113E-03 2.51458E-05-1.43302E-02 8.93932E-14-1.49271E-13
 -1      1435 2.00879E+01 3.00033E-03-5.60770E-04-3.41866E-02 2.48132E-13-4.10175E-13
 -1      1436 2.00470E+01 1.45723E-03 9.64561E-05-1.08430E-02-9.14608E-14-1.00012E-13
 -1      1437 2.00345E+01 1.32532E-03 4.62024E-05-1.01222E-02-1.23359E-13-2.88383E-13
 -1      1438 2.00567E+01 2.49741E-03-4.68977E-04-2.49834E-02 1.20916E-13-2.84073E-13
 -1      1439 2.00248E+01 1.16248E-03 9.35125E-05-7.31945E-03-1.40718E-13-3.37811E-13
 -1      1440 2.00164E+01 1.02280E-03 5.54701E-05-6.76034E-03-1.84516E-13-5.60323E-13
 -1      1441 2.00339E+01 1.98456E-03-3.76404E-04-1.74012E-02-2.82860E-13-3.75498E-13
 -1      1442 2.00098E+01 8.94321E-04 8.34724E-05-4.59213E-03-1.86583E-13-6.52213E-13
 -1      1443 2.00046E+01 7.61584E-04 5.65212E-05-4.17339E-03-1.15097E-13-8.21035E-13
 -1      1444 2.00178E+01 1.51694E-03-2.91819E-04-1.14097E-02-2.66958E-13-4.18729E-13
 -1      1445 2.00005E+01 6.65420E-04 6.98700E-05-2.55348E-03 2.17940E-15-6.89848E-13
 -1      1446 1.99977E+01 5.46670E-04 5.22462E-05-2.25041E-03 1.03791E-13-6.86618E-13
 -1      1447 2.00072E+01 1.11883E-03-2.19153E-04-6.84316E-03-3.59157E-14-3.64757E-13
 -1      1448 1.99953E+01 4.78064E-04 5.50381E-05-1.08293E-03 1.48652E-13-5.21102E-13
 -1      1449 1.99942E+01 3.75226E-04 4.47848E-05-8.71882E-04 2.04502E-13-2.61398E-13
 -1      1450 2.00007E+01 7.95126E-04-1.59273E-04-3.48165E-03 2.88439E-13-2.38505E-13
 -1      1451 1.99931E+01 3.28178E-04 4.04473E-05-6.76433E-05 1.39041E-13-2.12356E-13
 -1      1452 1.99933E+01 2.39813E-04 3.57885E-05 7.14144E-05 9.15296E-14-7.74644E-14
 -1      1453 1.99972E+01 5.38978E-04-1.11214E-04-1.10217E-03 2.90133E-13-7.77819E-14
 -1      1454 1.99931E+01 2.07683E-04 2.72957E-05 5.84946E-04 1.08801E-13 2.91035E-15
 -1      1455 1.99939E+01 1.30054E-04 2.71371E-05 6.66830E-04 2.51746E-14 1.64938E-14
 -1      1456 1.99959E+01 3.36477E-04-7.28005E-05 4.90255E-04 1.79931E-13 1.21266E-13
 -1      1457 1.99943E+01 1.05223E-04 1.77370E-05 9.38694E-04-4.75572E-14-2.84091E-14
 -1      1458 1.99955E+01 3.24268E-05 2.24087E-05 9.71053E-04-9.79743E-14-1.00823E-13
 -1      1459 1.99960E+01 1.68202E-04-4.07572E-05 1.44316E-03 1.61427E-14 6.11167E-14
 -1      1460 1.99961E+01 3.47897E-06 1.63690E-05 1.01886E-03 2.34243E-14-1.90139E-13
 -1      1461 1.99974E+01-7.20481E-05 2.42791E-05 9.98021E-04 1.46001E-13-1.01451E-13
 -1      1462 1.99969E+01 5.26635E-06-1.10755E-05 1.83778E-03-4.19537E-14 1.17916E-13
 -1      1463 1.99980E+01-1.13187E-04 2.83973E-05 8.00716E-04 6.43448E-14-1.52182E-14
 -1      1464 1.99990E+01-1.82215E-04 3.86836E-05 7.31097E-04-8.87818E-14-5.58138E-14
 -1      1465 1.99981E+01-2.02285E-04 1.76097E-05 1.68235E-03 1.22070E-13-1.71605E-13
 -1      1466 1.99996E+01-1.94534E-04 8.06098E-05 1.40835E-04-1.19551E-13 6.44899E-14
 -1      1467 1.99994E+01-5.20438E-04 3.95539E-05 7.94489E-04-5.07271E-14-6.18118E-14
 -1      1468 2.07696E+01 3.25374E-01-1.74592E-01 8.23364E-01 1.12202E-13 1.47518E-12
 -1      1469 2.21225E+01 1.85786E-01-3.99555E-01 1.33150E+00 1.05957E-13 1.58412E-12
 -1      1470 1.97256E+01 9.51118E-02-1.75306E-02 3.20239E-01 1.03535E-13 1.27085E-12
 -1      1471 2.01858E+01 1.60665E-01-7.95182E-02 3.93508E-01 9.62529E-14 1.39997E-12
 -1      1472 2.10791E+01 4.11957E-01-1.02571E-01 1.28427E+00 1.96489E-13 9.51343E-13
 -1      1473 1.92576E+01 4.63247E-02 1.33596E-02 9.35331E-02 8.31731E-14 1.08903E-12
 -1      1474 1.93840E+01 6.96264E-02 1.63368E-03 1.13513E-01 8.87242E-14 1.19283E-12
 -1      1475 2.00555E+01 1.42670E-01-3.76254E-02 4.74693E-01 1.88446E-13 8.27470E-13
 -1      1476 1.91553E+01 2.59639E-02 1.21353E-02-2.00358E-02 4.77196E-14 9.57297E-13
 -1      1477 1.91292E+01 3.63426E-02 1.32485E-02-8.00215E-03 5.45779E-14 1.01880E-12
 -1      1478 1.96257E+01 6.45968E-02-1.00474E-02 1.10536E-01 1.40613E-13 6.84015E-13
 -1      1479 1.92504E+01 1.82975E-02 7.83394E-03-8.46922E-02 4.45512E-14 8.70663E-13
 -1      1480 1.91469E+01 2.33257E-02 9.34279E-03-7.68980E-02 3.43358E-14 9.19601E-13
 -1      1481 1.94968E+01 3.43657E-02-5.54080E-03-7.81663E-02 9.49414E-14 5.52705E-13
 -1      1482 1.94882E+01 1.55869E-02 5.11792E-03-1.35240E-01 2.60985E-14 8.18915E-13
 -1      1483 1.93197E+01 1.80797E-02 5.34077E-03-1.27707E-01 3.42014E-14 8.42175E-13
 -1      1484 1.95520E+01 2.62292E-02-4.63746E-03-1.98362E-01 7.04185E-14 5.08428E-13
 -1      1485 1.98439E+01 1.74281E-02 3.88994E-03-1.82853E-01 2.11732E-14 7.79609E-13
 -1      1486 1.96183E+01 1.80089E-02 3.02247E-03-1.74629E-01 3.53925E-14 8.20468E-13
 -1      1487 1.97426E+01 2.51632E-02-4.78739E-03-2.97815E-01 4.20454E-14 4.45128E-13
 -1      1488 2.03242E+01 2.28745E-02 3.24089E-03-2.38759E-01 2.27500E-14 7.42753E-13
 -1      1489 2.00310E+01 2.16923E-02 1.59448E-03-2.27929E-01 2.20054E-14 7.66241E-13
 -1      1490 2.00475E+01 3.11914E-02-5.37475E-03-3.99146E-01 5.03044E-14 4.46897E-13
 -1      1491 2.09598E+01 3.21540E-02 2.54116E-03-3.13580E-01-1.24436E-14 7.14184E-13
 -1      1492 2.05750E+01 2.93866E-02 2.37572E-04-2.98132E-01 8.28591E-15 7.24313E-13
 -1      1493 2.04687E+01 4.38018E-02-6.72210E-03-5.23688E-01 4.03306E-14 3.93646E-13
 -1      1494 2.18033E+01 4.57936E-02 8.53392E-04-4.18772E-01 5.12958E-15 7.34423E-13
 -1      1495 2.12898E+01 4.07424E-02-2.06823E-03-3.96111E-01 4.88325E-16 7.26020E-13
 -1      1496 2.10268E+01 6.40102E-02-9.00146E-03-6.92266E-01-1.11447E-14 3.64733E-13
 -1      1497 2.28680E+01 6.04535E-02-2.13094E-03-5.56800E-01 9.87144E-15 7.12284E-13
 -1      1498 2.22116E+01 5.66837E-02-5.71798E-03-5.27900E-01 3.22485E-15 7.32274E-13
 -1      1499 2.17372E+01 9.04530E-02-1.21499E-02-9.18595E-01-1.25802E-14 3.58908E-13
 -1      1500 2.43434E+01 7.34307E-02-7.40877E-03-7.47146E-01-1.04942E-14 7.57346E-13
 -1      1501 2.34227E+01 7.50219E-02-1.14157E-02-7.04555E-01 5.46004E-15 7.48304E-13
 -1      1502 2.26569E+01 1.22129E-01-1.70104E-02-1.22081E+00-2.52185E-14 3.85365E-13
 -1      1503 2.62395E+01 7.11961E-02-1.17707E-02-9.69682E-01 4.47281E-14 7.05123E-13
 -1      1504 2.50479E+01 8.78699E-02-1.85927E-02-9.20167E-01 2.81893E-14 7.53383E-13
 -1      1505 2.38639E+01 1.44481E-01-2.20359E-02-1.60354E+00 3.65142E-14 3.22929E-13
 -1      1506 2.84980E+01 2.26788E-02-5.26563E-03-1.15525E+00 4.76841E-14 5.74846E-13
 -1      1507 2.70927E+01 7.18168E-02-2.05380E-02-1.11715E+00 1.07231E-13 6.97470E-13
 -1      1508 2.53645E+01 1.22138E-01-2.25316E-02-1.99379E+00 1.14680E-13 2.99816E-13
 -1      1509 3.07768E+01-1.20297E-01 2.89185E-02-1.12363E+00-2.40658E-14 6.06459E-13
 -1      1510 2.94446E+01-1.84578E-02 4.95581E-04-1.14748E+00-8.33882E-15 6.08930E-13
 -1      1511 2.71219E+01-2.30939E-02-8.74419E-03-2.19058E+00 3.90382E-14 3.53054E-13
 -1      1512 3.22582E+01-3.87856E-01 8.66576E-02-5.50317E-01-1.01020E-13 7.60829E-13
 -1      1513 3.16676E+01-2.39104E-01 6.52165E-02-7.30744E-01-6.55413E-14 6.52471E-13
 -1      1514 2.89696E+01-3.92403E-01 3.02533E-02-1.77948E+00-7.34829E-14 3.56826E-13
 -1      1515 3.18201E+01-6.31520E-01 8.47729E-02 7.32907E-01-1.19876E-13 1.00203E-12
 -1      1516 3.27930E+01-5.24625E-01 1.51096E-01 3.79944E-01-1.13097E-13 8.01616E-13
 -1      1517 3.05022E+01-9.53376E-01 7.71192E-02-2.77627E-01-1.80536E-13 4.88422E-13
 -1      1518 2.93077E+01-4.60565E-01-4.97938E-02 2.15663E+00-1.27887E-13 1.21825E-12
 -1      1519 3.17961E+01-6.11657E-01 1.23163E-01 1.86384E+00-1.87720E-13 1.04261E-12
 -1      1520 3.11718E+01-1.24108E+00 6.35869E-02 2.10380E+00-2.32302E-13 5.82444E-13
 -1      1521 2.50453E+01 4.39584E-01-4.01065E-01 2.60681E+00 1.42802E-14 1.21364E-12
 -1      1522 2.85020E+01-8.96334E-02-1.25233E-01 2.72053E+00 2.32037E-14 1.24589E-12
 -1      1523 3.05871E+01-5.37140E-01-1.01953E-01 4.25817E+00-1.12771E-13 6.27217E-13
 -1      1524 2.31568E+01 1.15029E+00-5.82873E-01 5.98861E-01 8.24896E-14 1.00495E-12
 -1      1525 2.42471E+01 8.68846E-01-5.26983E-01 1.30700E+00 2.10387E-14 1.06831E-12
 -1      1526 2.91230E+01 1.34353E+00-2.88657E-01 3.50795E+00 1.14020E-13 5.38986E-13
 -1      1527 2.50711E+01 7.61616E-01-4.22575E-01-1.81879E+00 1.84935E-13 7.72216E-13
 -1      1528 2.32871E+01 1.01036E+00-5.83456E-01-1.32950E+00 1.57985E-13 1.01644E-12
 -1      1529 2.84908E+01 2.12749E+00-3.94348E-01-5.46065E-01 1.98619E-13 4.43860E-13
 -1      1530 2.90957E+01-2.01004E-01-9.42427E-02-2.69144E+00 2.18436E-13 4.20775E-13
 -1      1531 2.59237E+01 1.96673E-01-3.34576E-01-2.74226E+00 2.11595E-13 6.32161E-13
 -1      1532 2.93908E+01 9.75132E-01-2.63138E-01-3.98067E+00 3.55438E-13 3.00118E-13
 -1      1533 3.21498E+01-6.73045E-01 1.13419E-01-1.70134E+00 1.48326E-13 8.40161E-14
 -1      1534 2.98100E+01-5.09534E-01-2.26535E-02-2.08367E+00 2.43345E-13 3.28682E-13
 -1      1535 3.07976E+01-6.43653E-01-2.73886E-02-4.14558E+00 4.08673E-13 7.26346E-14
 -1      1536 3.28396E+01-5.14203E-01 1.22690E-01-1.63435E-01-9.90735E-14 2.39017E-13
 -1      1537 3.22006E+01-5.80015E-01 1.07627E-01-4.92039E-01-8.35235E-14 9.24538E-14
 -1      1538 3.12379E+01-1.23779E+00 8.76207E-02-1.82373E+00 6.26582E-14-1.05645E-13
 -1      1539 3.14501E+01-1.87332E-01 4.65341E-02 8.45325E-01 3.95829E-14 2.43965E-13
 -1      1540 3.22472E+01-3.17414E-01 8.09197E-02 7.06776E-01 2.99205E-14 2.61972E-13
 -1      1541 3.03970E+01-8.47755E-01 7.66611E-02 6.11986E-01-5.37972E-14-6.36947E-14
 -1      1542 2.91964E+01 9.60614E-03-5.15189E-03 1.14593E+00 8.62609E-14 1.53488E-13
 -1      1543 3.05544E+01-8.04334E-02 1.96805E-02 1.14255E+00 6.56749E-14 2.29955E-13
 -1      1544 2.87733E+01-2.93598E-01 2.36938E-02 1.89315E+00 8.36275E-14 2.23120E-14
 -1      1545 2.70440E+01 7.99108E-02-1.88440E-02 1.06866E+00-9.66319E-14 2.50251E-13
 -1      1546 2.83245E+01 3.92330E-02-8.42303E-03 1.11000E+00 1.75407E-14 2.12108E-13
 -1      1547 2.70048E+01 2.56341E-02-1.16662E-02 2.13178E+00-1.48766E-14 4.49640E-14
 -1      1548 2.51206E+01 9.17052E-02-1.59782E-02 8.55373E-01 4.01155E-15 3.46181E-13
 -1      1549 2.62248E+01 7.42877E-02-1.37326E-02 9.05247E-01-4.89990E-14 2.88033E-13
 -1      1550 2.53748E+01 1.39169E-01-2.16302E-02 1.87499E+00-7.89100E-14 2.94313E-14
 -1      1551 2.36392E+01 7.67035E-02-9.23011E-03 6.35073E-01 1.35537E-13 1.49963E-13
 -1      1552 2.44651E+01 7.29749E-02-8.86254E-03 6.76312E-01 5.67723E-14 2.88033E-13
 -1      1553 2.39783E+01 1.52252E-01-2.00289E-02 1.46520E+00 9.83102E-14-1.71790E-14
 -1      1554 2.25492E+01 5.74784E-02-4.20986E-03 4.53873E-01-7.23787E-14 1.76730E-13
 -1      1555 2.31390E+01 5.90197E-02-3.71356E-03 4.84240E-01 1.04770E-13 2.25146E-13
 -1      1556 2.28864E+01 1.26181E-01-1.50702E-02 1.07846E+00 8.81031E-14 1.85815E-14
 -1      1557 2.17684E+01 4.09696E-02-1.39078E-03 3.18225E-01-1.91635E-14 3.70254E-13
 -1      1558 2.21800E+01 4.39037E-02-5.93773E-04 3.39517E-01-5.36116E-14 3.14233E-13
 -1      1559 2.20651E+01 9.40048E-02-1.05317E-02 7.69414E-01-9.99322E-14 2.05151E-13
 -1      1560 2.12179E+01 2.87831E-02 1.51215E-04 2.21077E-01-1.25624E-14 3.82350E-13
 -1      1561 2.15011E+01 3.11861E-02 7.54694E-04 2.35752E-01 2.15062E-15 3.14069E-13
 -1      1562 2.14623E+01 6.67513E-02-7.17042E-03 5.40232E-01-4.72955E-14 2.58375E-13
 -1      1563 2.08474E+01 2.02201E-02 4.59754E-04 1.55829E-01 7.55646E-15 3.53140E-13
 -1      1564 2.10353E+01 2.26434E-02 1.37846E-03 1.65242E-01 8.91735E-15 2.91261E-13
 -1      1565 2.10346E+01 4.58005E-02-5.40598E-03 3.79093E-01 6.91660E-14 9.50419E-14
 -1      1566 2.05723E+01 1.37769E-02 5.55148E-04 1.07584E-01-2.32596E-14 2.51842E-13
 -1      1567 2.07086E+01 1.55289E-02 1.15248E-03 1.14596E-01 6.08881E-14 2.77947E-13
 -1      1568 2.07269E+01 3.25482E-02-3.44927E-03 2.66118E-01 1.92112E-14 6.95201E-14
 -1      1569 2.03812E+01 9.49016E-03 5.41945E-04 7.41135E-02 2.13380E-14 2.70864E-13
 -1      1570 2.04744E+01 1.09149E-02 1.03327E-03 7.88849E-02-3.74705E-14 3.01443E-13
 -1      1571 2.05004E+01 2.21986E-02-2.45150E-03 1.84349E-01 3.45212E-14 1.21498E-13
 -1      1572 2.02487E+01 6.56323E-03 4.67948E-04 5.08481E-02 1.21047E-13 1.86840E-14
 -1      1573 2.03122E+01 7.62434E-03 8.27742E-04 5.41369E-02 6.03858E-14 1.93357E-13
 -1      1574 2.03398E+01 1.52600E-02-1.73374E-03 1.27293E-01 7.56331E-14 1.96925E-13
 -1      1575 2.01574E+01 4.55786E-03 3.85997E-04 3.46288E-02 5.97103E-14-2.34266E-13
 -1      1576 2.02004E+01 5.34245E-03 6.37603E-04 3.69047E-02 5.96051E-14-1.07140E-13
 -1      1577 2.02264E+01 1.05309E-02-1.23205E-03 8.74399E-02 1.99819E-13 2.99714E-14
 -1      1578 2.00952E+01 3.20570E-03 3.27374E-04 2.32870E-02-2.04318E-13 2.05815E-13
 -1      1579 2.01239E+01 3.71821E-03 4.71547E-04 2.48719E-02-9.39993E-14-6.61337E-14
 -1      1580 2.01471E+01 7.31408E-03-8.70221E-04 5.95289E-02-1.18661E-13 1.75339E-13
 -1      1581 2.00550E+01 2.27448E-03 2.47933E-04 1.56794E-02-2.27433E-14 1.85059E-13
 -1      1582 2.00732E+01 2.69160E-03 3.68696E-04 1.67077E-02-1.36439E-14 1.77623E-13
 -1      1583 2.00931E+01 4.99676E-03-6.71706E-04 4.02628E-02-1.06455E-13 1.61132E-13
 -1      1584 2.00270E+01 1.54920E-03 1.86463E-04 1.00246E-02-1.68366E-14 2.37371E-13
 -1      1585 2.00392E+01 1.87176E-03 2.64219E-04 1.08103E-02-1.27424E-13 1.37809E-13
 -1      1586 2.00560E+01 3.60217E-03-4.47621E-04 2.67733E-02-6.95974E-14 4.29619E-14
 -1      1587 2.00093E+01 1.06370E-03 1.43141E-04 6.08430E-03-7.71165E-14 5.21496E-13
 -1      1588 2.00166E+01 1.32714E-03 2.00749E-04 6.62103E-03-2.46331E-14 4.76194E-13
 -1      1589 2.00303E+01 2.46959E-03-3.22719E-04 1.69735E-02-1.97862E-13 1.95036E-13
 -1      1590 1.99988E+01 7.21238E-04 1.08965E-04 3.35828E-03 8.38618E-14 2.80017E-13
 -1      1591 2.00028E+01 9.24610E-04 1.47452E-04 3.72489E-03-3.83567E-14 4.25228E-13
 -1      1592 2.00137E+01 1.69535E-03-2.27218E-04 1.01354E-02-4.38631E-14 4.33024E-13
 -1      1593 1.99932E+01 4.79434E-04 8.25199E-05 1.49585E-03 2.39546E-14 2.12527E-13
 -1      1594 1.99950E+01 6.36914E-04 1.06841E-04 1.74157E-03 1.49319E-13 2.73044E-13
 -1      1595 2.00035E+01 1.14986E-03-1.57728E-04 5.40911E-03 1.94208E-13 2.85042E-13
 -1      1596 1.99911E+01 3.11799E-04 6.16664E-05 2.49144E-04 1.71524E-14 1.28810E-13
 -1      1597 1.99913E+01 4.24507E-04 7.39221E-05 4.09327E-04-6.50332E-14 1.52066E-13
 -1      1598 1.99977E+01 7.68037E-04-1.06212E-04 2.19076E-03 1.04694E-13 2.26047E-13
 -1      1599 1.99911E+01 1.91270E-04 4.36097E-05-5.22373E-04-2.13077E-13 4.62819E-13
 -1      1600 1.99904E+01 2.81634E-04 5.03781E-05-4.31076E-04-1.96751E-13 1.34678E-13
 -1      1601 1.99951E+01 4.80593E-04-7.37990E-05 8.81638E-05-1.21624E-13 3.64468E-13
 -1      1602 1.99926E+01 8.51999E-05 2.90923E-05-1.00800E-03 7.69338E-14 3.92302E-13
 -1      1603 1.99913E+01 1.69645E-04 3.31727E-05-9.52901E-04 9.10917E-14 3.50828E-13
 -1      1604 1.99945E+01 2.97718E-04-4.38504E-05-1.23756E-03-4.13392E-14 2.91452E-13
 -1      1605 1.99947E+01-3.98512E-06 2.20470E-05-1.22139E-03 1.44998E-13-2.19989E-15
 -1      1606 1.99932E+01 7.70682E-05 2.16523E-05-1.20906E-03 1.48192E-13 1.66406E-13
 -1      1607 1.99951E+01 1.27498E-04-2.19642E-05-2.00058E-03 2.41216E-13 1.32880E-14
 -1      1608 1.99970E+01-1.02052E-04 2.51735E-05-1.17000E-03-2.46025E-14-1.54062E-13
 -1      1609 1.99955E+01-1.96049E-05 2.00767E-05-1.20618E-03-6.36576E-14-1.68301E-13
 -1      1610 1.99964E+01-3.37702E-05 2.13601E-06-2.23584E-03 2.17964E-13 8.52225E-14
 -1      1611 1.99989E+01-2.17714E-04 3.91068E-05-8.15537E-04-7.60501E-14-1.82514E-13
 -1      1612 1.99978E+01-1.50524E-04 3.07771E-05-9.11862E-04 3.35987E-14-1.21761E-13
 -1      1613 1.99979E+01-2.40670E-04 2.75652E-05-1.94651E-03-2.58778E-14 4.28895E-14
 -1      1614 1.99996E+01-2.22415E-04 8.11020E-05-1.63467E-04-1.87944E-13-9.82270E-14
 -1      1615 1.99997E+01-1.99488E-03 1.80218E-05-8.87332E-04-1.37050E-13 4.32102E-14
 -1      1616 1.99996E+01-1.04353E-03 1.38606E-05-7.87052E-04-1.59472E-13 6.82257E-15
 -1      1617 1.99998E+01-3.99782E-03-7.06913E-06-1.04567E-03-1.24461E-13-2.38488E-14
 -1      1618 1.99998E+01-2.72665E-03 6.74327E-06-1.04235E-03-2.14450E-13-3.99226E-14
 -1      1619 1.99997E+01-2.00569E-03 1.09032E-05-1.82206E-03 1.85111E-14-6.22121E-14
 -1      1620 1.99999E+01-5.92669E-03-1.79586E-05-9.32139E-04-1.85694E-13-1.00962E-13
 -1      1621 1.99998E+01-4.73513E-03-5.77079E-06-9.77562E-04-1.05914E-13 3.63286E-14
 -1      1622 1.99998E+01-3.41932E-03-1.19682E-05-1.91095E-03 1.12973E-13-8.77923E-14
 -1      1623 1.99999E+01-7.43482E-03-1.71768E-05-6.85278E-04-7.22064E-14 2.85708E-13
 -1      1624 1.99999E+01-6.52265E-03-8.67862E-06-7.43149E-04-3.62844E-13 3.91447E-13
 -1      1625 2.00000E+01-4.70057E-03-2.53460E-05-1.57995E-03-1.50577E-13 7.02130E-14
 -1      1626 1.99999E+01-8.41182E-03-1.29153E-05-4.22827E-04-5.26938E-13-3.83614E-13
 -1      1627 1.99999E+01-7.83279E-03-6.80404E-06-4.74774E-04-1.12457E-13-1.51423E-13
 -1      1628 2.00000E+01-5.63666E-03-2.72698E-05-1.09675E-03-5.01364E-13-2.58616E-14
 -1      1629 1.99999E+01-8.92798E-03-7.86884E-06-1.94285E-04-6.76539E-13-4.08219E-14
 -1      1630 1.99999E+01-8.63239E-03-4.34241E-06-2.34956E-04-3.80475E-13-3.04748E-13
 -1      1631 2.00000E+01-6.20384E-03-2.09906E-05-6.21527E-04-3.38013E-13-3.87943E-13
 -1      1632 1.99999E+01-9.06206E-03-3.73029E-06-2.29262E-05-6.82429E-13-9.30329E-14
 -1      1633 1.99999E+01-8.99693E-03-2.20788E-06-5.10198E-05-6.38566E-13 5.72237E-14
 -1      1634 1.99999E+01-6.45374E-03-1.34628E-05-2.30720E-04-3.34885E-13-7.00833E-14
 -1      1635 1.99998E+01-8.91346E-03-1.29556E-06 1.03551E-04-5.97031E-13-1.17626E-14
 -1      1636 1.99998E+01-9.02402E-03-1.76851E-06 8.29045E-05-6.92920E-13-2.39257E-14
 -1      1637 1.99999E+01-6.46483E-03-7.65335E-06 5.89773E-05-3.04012E-13-1.74899E-13
 -1      1638 1.99998E+01-8.53255E-03-7.32665E-07 2.14671E-04-4.59556E-13 2.22646E-14
 -1      1639 1.99998E+01-8.79607E-03-3.14263E-06 1.94209E-04-5.05230E-13 1.35414E-13
 -1      1640 1.99999E+01-6.31008E-03-5.62201E-06 2.84575E-04-2.25186E-13 9.55702E-14
 -1      1641 1.99999E+01-7.90852E-03-2.06057E-06 3.42279E-04-5.82311E-13-2.45063E-13
 -1      1642 1.99998E+01-8.33833E-03-6.31373E-06 3.15421E-04-3.23514E-13-7.43178E-14
 -1      1643 1.99999E+01-6.01934E-03-7.71232E-06 5.04712E-04-1.44251E-13 5.97520E-14
 -1      1644 1.99999E+01-7.00233E-03-4.67438E-06 5.02399E-04-8.35385E-13 2.50582E-14
 -1      1645 1.99999E+01-7.62390E-03-1.07094E-05 4.67594E-04-5.22515E-13-2.72806E-13
 -1      1646 1.99999E+01-5.57794E-03-1.24820E-05 7.68037E-04-3.05767E-13-2.82691E-13
 -1      1647 1.99999E+01-5.72976E-03-6.76811E-06 6.92659E-04-7.57713E-13-1.46801E-13
 -1      1648 1.99999E+01-6.59143E-03-1.50490E-05 6.50881E-04-7.41725E-13 1.39878E-13
 -1      1649 1.99999E+01-4.93547E-03-1.77695E-05 1.09222E-03-3.95904E-13 4.71567E-14
 -1      1650 1.99998E+01-4.13102E-03-7.06057E-06 8.67694E-04-4.48621E-13 2.15622E-13
 -1      1651 1.99999E+01-5.19094E-03-1.64967E-05 8.29774E-04-6.25200E-13 1.89072E-13
 -1      1652 1.99999E+01-4.04465E-03-1.85529E-05 1.43593E-03-9.81491E-14 3.87009E-14
 -1      1653 1.99998E+01-2.40513E-03-1.85846E-06 9.04612E-04-1.19759E-13 3.97780E-13
 -1      1654 1.99998E+01-3.49888E-03-1.16157E-05 9.00751E-04-3.76987E-13 3.40696E-15
 -1      1655 1.99998E+01-2.91550E-03-1.17632E-05 1.67124E-03-9.25243E-14 2.20242E-13
 -1      1656 1.99996E+01-9.84042E-04-2.39632E-07 9.01603E-04-9.78882E-14-2.11285E-14
 -1      1657 1.99996E+01-1.82121E-03-1.12778E-05 1.04764E-03-2.37172E-14 9.02455E-14
 -1      1658 1.99997E+01-1.65893E-03 4.70480E-05 1.75938E-03-9.74429E-14 3.59765E-13
 -1      1659 1.99991E+01-6.92230E-04 3.21315E-05 1.64625E-03 2.55801E-14-1.60614E-13
 -1      1660-1.02142E+00-1.67000E+01-1.79828E+00-2.00296E+00 4.45866E-13 1.80855E-13
 -1      1661-8.16453E-01-1.79545E+01-1.84451E+00-4.30187E-01 4.24917E-13-1.06970E-13
 -1      1662 2.55785E-01-1.13341E+01-1.56825E+00-1.26525E+00 6.28719E-13 2.00368E-13
 -1      1663-7.33056E-02-1.59190E+01-1.92707E+00-1.33252E+00 4.80727E-13 2.83162E-13
 -1      1664 6.05763E+00-3.65617E+00-1.01325E+00 2.84792E+00 7.66498E-13 6.94222E-13
 -1      1665 3.11010E+00-9.55248E+00-1.69601E+00 1.33135E-01 6.78013E-13 3.96960E-13
 -1      1666 1.63927E+01 2.64658E+00-2.79620E-01 8.08459E+00 7.23865E-13 6.43263E-13
 -1      1667 9.84794E+00-1.57194E+00-1.24417E+00 4.08767E+00 8.54650E-13 6.31717E-13
 -1      1668 3.40409E+01 4.73192E+00 8.48767E-01 1.16107E+01 4.63851E-13 7.90479E-14
 -1      1669 2.30901E+01 3.30360E+00-3.48531E-01 8.63660E+00 6.59028E-13 4.56302E-13
 -1      1670 5.15382E+01 4.75686E+00 2.02064E+00 1.09799E+01 1.51962E-13-5.57776E-13
 -1      1671 4.02851E+01 5.92546E+00 9.28235E-01 1.18446E+01 4.08784E-13-6.59472E-14
 -1      1672 6.23530E+01 3.76996E+00 2.62204E+00 3.48366E+00 1.21070E-13-1.09401E-12
 -1      1673 5.55449E+01 5.02883E+00 2.00535E+00 8.53667E+00 1.07039E-13-6.44595E-13
 -1      1674 6.12471E+01 4.33935E+00 2.42117E+00-4.44085E+00 3.98626E-13-1.45878E-12
 -1      1675 6.27923E+01 4.03223E+00 2.55612E+00 1.47772E+00 1.82465E-13-1.16226E-12
 -1      1676 5.09234E+01 5.47824E+00 1.64197E+00-1.04066E+01 5.96398E-13-1.71840E-12
 -1      1677 5.99032E+01 3.99906E+00 2.51829E+00-6.69882E+00 4.05009E-13-1.59450E-12
 -1      1678 3.40924E+01 5.09858E+00 3.85238E-01-1.07235E+01 8.45213E-13-1.52989E-12
 -1      1679 4.58084E+01 4.83797E+00 1.62493E+00-1.13973E+01 7.01605E-13-1.67422E-12
 -1      1680 1.85420E+01 2.33965E+00-6.31327E-01-7.58624E+00 7.33857E-13-1.18527E-12
 -1      1681 2.78566E+01 4.64594E+00 5.04479E-01-1.10548E+01 8.50986E-13-1.56786E-12
 -1      1682 8.16358E+00-4.34135E+00-1.30408E+00-2.87380E+00 4.44755E-13-6.19838E-13
 -1      1683 1.37304E+01 5.76031E-01-4.30235E-01-6.64690E+00 6.85896E-13-9.22817E-13
 -1      1684 1.77237E+00-1.17592E+01-1.79816E+00 5.22354E-01 2.91989E-14-2.91489E-13
 -1      1685 3.67114E+00-5.98444E+00-1.20125E+00-1.42122E+00 3.79252E-13-4.95937E-13
 -1      1686-5.63489E-01-1.77214E+01-2.05962E+00 1.40078E+00-3.23075E-13-1.59317E-14
 -1      1687-5.91393E-01-1.37943E+01-1.77021E+00 2.02664E+00-1.14797E-13-1.07400E-13
 -1      1688-8.75165E-01-1.84283E+01-1.92254E+00 1.64125E-02-7.27446E-13-1.60427E-13
 -1      1689-1.06250E+00-1.85118E+01-1.99836E+00 1.89191E+00-4.49391E-13-5.67879E-14
 -1      1690-1.14643E-01-1.31605E+01-1.46931E+00-2.48361E-01-1.18283E-12-4.80657E-13
 -1      1691-3.24156E-01-1.72416E+01-1.87769E+00 5.66755E-01-8.66973E-13-2.83856E-13
 -1      1692 3.48607E+00-4.92051E+00-8.60325E-01 2.49915E+00-1.34470E-12-7.70051E-13
 -1      1693 1.84717E+00-1.10922E+01-1.51741E+00 8.70929E-01-1.22180E-12-5.30201E-13
 -1      1694 1.02783E+01 2.49461E+00-2.53069E-01 6.97655E+00-1.28475E-12-9.48908E-13
 -1      1695 6.14231E+00-2.44539E+00-1.02646E+00 3.57798E+00-1.43574E-12-7.94254E-13
 -1      1696 2.40950E+01 5.78608E+00 5.38635E-01 1.15819E+01-8.85514E-13-9.29701E-13
 -1      1697 1.61133E+01 3.39374E+00-2.88482E-01 8.11331E+00-1.10412E-12-9.03722E-13
 -1      1698 3.78018E+01 7.10177E+00 1.26795E+00 1.36116E+01-6.42097E-13-9.13492E-13
 -1      1699 2.88125E+01 7.67080E+00 5.10915E-01 1.26711E+01-8.35554E-13-1.03384E-12
 -1      1700 5.00256E+01 5.20853E+00 1.68706E+00 1.04671E+01-3.40838E-13-6.01852E-13
 -1      1701 4.24826E+01 6.93690E+00 1.18177E+00 1.27813E+01-5.57887E-13-7.95475E-13
 -1      1702 5.69028E+01 3.71127E+00 1.85867E+00 3.50478E+00-2.78666E-13-5.74540E-14
 -1      1703 5.30697E+01 4.86795E+00 1.62778E+00 8.34031E+00-3.07962E-13-4.65183E-13
 -1      1704 5.57129E+01 4.20300E+00 1.72211E+00-4.89176E+00-4.30683E-13 6.01186E-13
 -1      1705 5.71564E+01 3.75176E+00 1.80821E+00 7.24817E-01-3.34954E-13 9.66519E-14
 -1      1706 4.74774E+01 6.14761E+00 1.36844E+00-1.14235E+01-4.30621E-13 1.01319E-12
 -1      1707 5.40068E+01 4.38214E+00 1.79891E+00-7.63027E+00-3.55882E-13 7.47402E-13
 -1      1708 3.40695E+01 7.35007E+00 7.08520E-01-1.26299E+01-4.90774E-13 7.91367E-13
 -1      1709 4.29430E+01 6.14365E+00 1.36313E+00-1.22619E+01-4.28019E-13 9.57123E-13
 -1      1710 2.05793E+01 6.54172E+00 4.36926E-02-1.07410E+01-3.06977E-13 6.10401E-13
 -1      1711 2.88274E+01 7.37656E+00 8.25766E-01-1.32532E+01-4.95715E-13 8.20233E-13
 -1      1712 1.03748E+01 1.24579E+00-6.51061E-01-6.02881E+00 2.76446E-13 1.17129E-13
 -1      1713 1.61070E+01 5.00715E+00 1.59155E-01-9.65658E+00-9.98090E-14 4.96381E-13
 -1      1714 3.84394E+00-6.35156E+00-1.26619E+00-2.04752E+00 5.28022E-13-6.80567E-14
 -1      1715 6.59365E+00-7.59642E-01-5.49196E-01-4.70084E+00 3.03535E-13 1.20348E-13
 -1      1716 5.78846E-01-1.38862E+01-1.73816E+00-1.87517E-01 6.28941E-13-1.90594E-13
 -1      1717 1.27493E+00-8.57651E+00-1.20548E+00-6.84017E-01 6.43152E-13-3.69399E-13
 -1      1718-6.35919E-01-1.81975E+01-1.92357E+00-9.23193E-01 4.95048E-13-1.59844E-13
 -1      1719-5.30446E-01-1.54968E+01-1.67056E+00 4.54954E-01 5.74873E-13-1.62953E-13
 -1      1720 2.29295E+01 1.97840E+00-2.77399E-02 2.72736E+00 1.30809E-13 1.36133E-12
 -1      1721 1.37836E+01-5.88165E+00-7.41021E-01 5.23482E+00 3.72591E-13 3.44780E-13
 -1      1722 1.99993E+01-5.57630E-04 5.36490E-05-8.87927E-04-1.41835E-13-7.72621E-14
 -1      1723-3.21782E-01-1.15601E+01-1.29965E+00 1.04268E+00 2.28317E-13 2.11997E-13
 -1      1724 5.03367E+00-9.35488E+00-1.10440E+00 3.43983E+00 2.52909E-13 2.98442E-13
 -1      1725-1.59107E+00-1.23215E+01-1.34003E+00-1.07521E+00 2.41834E-13-1.38722E-13
 -1      1726 2.59081E+01-1.98866E+00-2.86771E-02 6.09052E+00 5.06484E-13 4.94049E-14
 -1      1727 3.89303E+01 1.85374E+00 9.02209E-01 5.10599E+00 5.01155E-13-4.05009E-13
 -1      1728 4.88866E+01 5.88739E+00 1.81844E+00 2.83454E+00 4.29767E-13-4.35763E-13
 -1      1729 5.25519E+01 8.24097E+00 2.17464E+00 4.94775E-01 3.93907E-13-6.89421E-13
 -1      1730 5.16769E+01 7.70937E+00 2.07294E+00-1.61004E+00 4.32487E-13-7.53453E-13
 -1      1731 4.56715E+01 4.42874E+00 1.46867E+00-3.60509E+00 3.39694E-13-8.59868E-13
 -1      1732 3.48384E+01 4.29731E-01 5.67151E-01-5.44048E+00 3.01537E-13-8.92064E-13
 -1      1733 2.24802E+01-3.59624E+00-2.72493E-01-5.88251E+00 1.69642E-13-8.49876E-13
 -1      1734 1.15513E+01-7.09800E+00-7.47238E-01-5.06745E+00 6.17284E-14-6.33299E-13
 -1      1735 2.90287E+00-1.03365E+01-1.18756E+00-2.69414E+00-5.83977E-14-4.37983E-13
 -1      1736-1.23874E+00-1.29027E+01-1.46223E+00-2.21528E-01-3.42004E-13-2.19935E-13
 -1      1737-1.30265E+00-1.23968E+01-1.35532E+00 1.77713E+00-5.37514E-13-3.92852E-13
 -1      1738 2.42087E+00-9.48266E+00-1.01325E+00 4.15084E+00-6.19060E-13-5.00433E-13
 -1      1739 9.06040E+00-5.56727E+00-6.26054E-01 6.04097E+00-7.37188E-13-4.86888E-13
 -1      1740 1.91148E+01-1.35422E+00 2.03535E-02 7.67234E+00-7.41185E-13-4.47087E-13
 -1      1741 2.92765E+01 2.13628E+00 3.67011E-01 7.73976E+00-6.23279E-13-4.79505E-13
 -1      1742 3.90464E+01 5.70422E+00 1.04878E+00 7.53599E+00-5.61703E-13-5.26579E-13
 -1      1743 4.61974E+01 7.15443E+00 1.43107E+00 4.86165E+00-4.39926E-13-2.70173E-13
 -1      1744 4.92620E+01 7.68330E+00 1.54423E+00 1.04904E+00-5.46396E-13 7.52176E-15
 -1      1745 4.79593E+01 7.54908E+00 1.48760E+00-3.14350E+00-5.26190E-13 2.19824E-13
 -1      1746 4.20338E+01 6.26778E+00 1.14154E+00-6.04789E+00-2.64122E-13 3.42837E-13
 -1      1747 3.32535E+01 4.22964E+00 7.45647E-01-7.96750E+00-7.12763E-14 3.60822E-13
 -1      1748 2.30837E+01 1.01990E+00 1.79961E-01-8.23124E+00 2.46025E-13 3.30957E-13
 -1      1749 1.36812E+01-3.17834E+00-3.43274E-01-7.05062E+00 3.44613E-13 3.09197E-13
 -1      1750 5.71749E+00-7.34309E+00-8.22947E-01-5.14265E+00 4.51084E-13-2.09381E-14
 -1      1751 4.39293E-01-1.10075E+01-1.23351E+00-3.00260E+00 5.66436E-13-1.18155E-13
 -1      1752 2.28578E+01 1.97684E+00-2.43471E-02-2.68097E+00-2.01842E-13 3.40006E-14
 -1      1753 1.98623E+01 3.72678E+00-3.51480E-02-2.07465E+00-1.05957E-13-5.47597E-13
 -1      1754 2.00978E+01 3.56493E+00-4.21859E-02-2.36273E+00-1.61229E-13-5.24362E-13
 -1      1755 2.04132E+01 3.17976E+00-4.51656E-02-2.51209E+00-1.93286E-13-4.69264E-13
 -1      1756 2.06309E+01 2.80306E+00-1.41134E-01-2.78441E+00-2.52468E-13-4.03691E-13
 -1      1757 2.04812E+01 2.69490E+00-2.63502E-03-2.14078E+00-1.98892E-13-4.70908E-13
 -1      1758 1.93502E+01 4.22303E+00-2.03506E-02-1.19739E+00 3.71079E-14-5.20826E-13
 -1      1759 1.94364E+01 4.17993E+00-1.64756E-02-1.41722E+00 8.36310E-15-5.47833E-13
 -1      1760 1.92287E+01 4.34130E+00-1.68395E-02-8.01202E-01 1.00805E-13-4.99125E-13
 -1      1761 1.92837E+01 4.31434E+00-1.35820E-02-1.00404E+00 7.98127E-14-5.14594E-13
 -1      1762 1.95099E+01 3.83434E+00-8.91409E-03-1.04415E+00 5.10568E-14-5.00718E-13
 -1      1763 1.91575E+01 4.41266E+00-1.46710E-02-4.29585E-01 1.48253E-13-4.39414E-13
 -1      1764 1.91885E+01 4.39735E+00-1.25266E-02-6.19083E-01 1.29790E-13-4.76678E-13
 -1      1765 1.93863E+01 3.97103E+00-8.67790E-03-6.75066E-01 1.16314E-13-4.70774E-13
 -1      1766 1.91274E+01 4.44645E+00-1.33514E-02-7.27937E-02 1.94114E-13-3.88087E-13
 -1      1767 1.91380E+01 4.44079E+00-1.24777E-02-2.55354E-01 1.70326E-13-4.18852E-13
 -1      1768 1.93163E+01 4.04920E+00-8.44471E-03-3.24146E-01 1.68745E-13-4.21350E-13
 -1      1769 1.91363E+01 4.44539E+00-1.26692E-02 2.79745E-01 2.29930E-13-3.33449E-13
 -1      1770 1.91268E+01 4.44907E+00-1.31595E-02 9.79577E-02 2.09078E-13-3.63943E-13
 -1      1771 1.92924E+01 4.07788E+00-8.28443E-03 1.56576E-02 2.14508E-13-3.69028E-13
 -1      1772 1.91864E+01 4.40766E+00-1.26624E-02 6.39336E-01 2.68032E-13-2.71349E-13
 -1      1773 1.91553E+01 4.42168E+00-1.45324E-02 4.51912E-01 2.54668E-13-3.15407E-13
 -1      1774 1.93135E+01 4.05847E+00-8.25403E-03 3.53197E-01 2.51002E-13-3.07709E-13
 -1      1775 1.92824E+01 4.32895E+00-1.35565E-02 1.01150E+00 3.09892E-13-1.92082E-13
 -1      1776 1.92265E+01 4.35474E+00-1.68266E-02 8.14899E-01 2.88700E-13-2.36460E-13
 -1      1777 1.93827E+01 3.98753E+00-8.27580E-03 6.94942E-01 2.93665E-13-2.46945E-13
 -1      1778 1.94422E+01 4.19251E+00-1.62694E-02 1.42212E+00 3.51348E-13-9.32518E-14
 -1      1779 1.93512E+01 4.23698E+00-2.04807E-02 1.20106E+00 3.25469E-13-1.45238E-13
 -1      1780 1.95089E+01 3.85356E+00-8.47350E-03 1.05283E+00 3.39647E-13-1.60042E-13
 -1      1781 1.96961E+01 3.96534E+00-2.37358E-02 1.87610E+00 3.69742E-13 4.47524E-14
 -1      1782 1.95518E+01 4.04465E+00-2.65313E-02 1.62403E+00 3.52807E-13-3.65541E-14
 -1      1783 1.97132E+01 3.63195E+00-8.12690E-03 1.43528E+00 3.72869E-13-5.50497E-14
 -1      1784 2.01202E+01 3.55821E+00-4.24057E-02 2.36356E+00 3.67746E-13 2.45557E-13
 -1      1785 1.98800E+01 3.72539E+00-3.54237E-02 2.07628E+00 3.68910E-13 1.18409E-13
 -1      1786 2.00312E+01 3.27834E+00-4.79612E-03 1.82668E+00 3.87395E-13 9.11268E-14
 -1      1787 2.06609E+01 2.78807E+00-1.36454E-01 2.79168E+00 2.89217E-13 5.71460E-13
 -1      1788 2.04382E+01 3.16262E+00-4.56956E-02 2.51653E+00 3.26265E-13 3.82500E-13
 -1      1789 2.05272E+01 2.68036E+00 4.92583E-03 2.14699E+00 3.63082E-13 2.99340E-13
 -1      1790 2.02043E+01-5.27240E+00-1.18711E-01 5.92824E+00 2.11609E-13 1.04750E-13
 -1      1791 1.50295E+01-6.87053E+00-3.94049E-01 5.33049E+00 1.25677E-13 1.59220E-13
 -1      1792 2.18259E+01 2.44809E+00 9.01440E-02-2.99106E+00-2.50416E-13-2.38573E-13
 -1      1793 2.18564E+01 2.46370E+00 8.86970E-02 3.02645E+00 2.06685E-13 8.48113E-13
 -1      1794 2.06001E+01 5.03836E-01 3.26478E-02-8.58703E-01-1.97575E-13-2.99415E-13
 -1      1795 2.01928E+01 3.57604E-01 8.51135E-03-5.64545E-01-1.61038E-13-3.41345E-13
 -1      1796 2.00156E+01 2.64517E-01 2.74986E-02-3.20571E-01-1.55161E-13-3.24690E-13
 -1      1797 1.98519E+01 1.86751E-01 1.10859E-02-1.78102E-01-1.19211E-13-3.66005E-13
 -1      1798 2.03021E+01 4.92537E-01-6.41487E-03-6.36060E-01-1.75407E-13-3.43811E-13
 -1      1799 1.97517E+01 1.41985E-01 1.67753E-02-3.76756E-02-9.44618E-14-3.59607E-13
 -1      1800 1.97047E+01 1.02781E-01 7.51127E-03 3.86246E-02-8.65800E-14-3.84987E-13
 -1      1801 2.00165E+01 2.57012E-01-6.20078E-03-1.94864E-01-1.29686E-13-3.31760E-13
 -1      1802 1.96655E+01 7.77136E-02 8.84616E-03 1.19305E-01-9.52760E-14-3.72345E-13
 -1      1803 1.96857E+01 5.49188E-02 4.37110E-03 1.60507E-01-7.88332E-14-4.13153E-13
 -1      1804 1.98817E+01 1.38905E-01-5.11573E-03 5.79269E-02-1.00057E-13-3.25558E-13
 -1      1805 1.96891E+01 3.86839E-02 4.37751E-03 2.04596E-01-7.65062E-14-4.01522E-13
 -1      1806 1.97458E+01 2.30916E-02 2.22037E-03 2.23981E-01-4.83835E-14-4.30728E-13
 -1      1807 1.98507E+01 7.11025E-02-3.88627E-03 2.01740E-01-8.04165E-14-3.40220E-13
 -1      1808 1.97763E+01 1.05560E-02 1.90647E-03 2.42734E-01-9.33612E-15-4.11017E-13
 -1      1809 1.98492E+01-2.47864E-03 4.64619E-04 2.45787E-01-8.25980E-15-4.08863E-13
 -1      1810 1.98883E+01 2.49206E-02-2.63553E-03 2.75400E-01-3.88710E-14-3.48537E-13
 -1      1811 1.98948E+01-1.41002E-02 4.25887E-04 2.43857E-01-3.43525E-14-3.90075E-13
 -1      1812 1.99683E+01-2.72380E-02-1.25411E-03 2.32063E-01-2.64268E-14-3.62753E-13
 -1      1813 1.99671E+01-1.33417E-02-1.50397E-03 2.96964E-01-5.06149E-15-3.13797E-13
 -1      1814 2.00190E+01-3.95286E-02-5.69597E-04 2.10227E-01-5.54157E-14-3.41685E-13
 -1      1815 2.00794E+01-5.41535E-02-3.05654E-03 1.82894E-01-4.83270E-14-3.54838E-13
 -1      1816 2.00650E+01-5.12404E-02-4.78178E-04 2.72771E-01-4.43343E-14-2.94005E-13
 -1      1817 2.01258E+01-6.76616E-02-1.32669E-03 1.39919E-01-8.60692E-14-3.99900E-13
 -1      1818 2.01594E+01-8.38128E-02-4.87020E-03 9.56112E-02-7.73439E-14-4.65464E-13
 -1      1819 2.01627E+01-9.24504E-02 5.24221E-04 2.02524E-01-1.01692E-13-3.12294E-13
 -1      1820 2.01917E+01-9.77862E-02-1.96846E-03 3.01358E-02-7.35193E-14-4.85763E-13
 -1      1821 2.01854E+01-1.13741E-01-6.42917E-03-3.16397E-02-4.29047E-14-5.30230E-13
 -1      1822 2.02408E+01-1.36746E-01 1.57973E-03 8.34079E-02-1.18924E-13-3.47175E-13
 -1      1823 2.01931E+01-1.25721E-01-2.54505E-03-1.18724E-01-3.66413E-14-5.27688E-13
 -1      1824 2.01353E+01-1.37606E-01-7.28039E-03-1.95403E-01-6.55361E-14-5.10267E-13
 -1      1825 2.02796E+01-1.78986E-01 2.70573E-03-8.52236E-02-6.30850E-14-3.68320E-13
 -1      1826 2.01081E+01-1.43259E-01-3.03422E-03-2.98080E-01-8.28942E-14-4.93080E-13
 -1      1827 1.99920E+01-1.45233E-01-6.86711E-03-3.81804E-01-9.61050E-14-4.73793E-13
 -1      1828 2.02584E+01-2.08251E-01 3.80158E-03-2.96038E-01-6.00243E-14-3.31259E-13
 -1      1829 1.99216E+01-1.38972E-01-3.30955E-03-4.86290E-01-6.78333E-14-4.62672E-13
 -1      1830 1.97492E+01-1.24674E-01-4.74851E-03-5.62518E-01-3.29363E-14-4.48873E-13
 -1      1831 2.01590E+01-2.08683E-01 4.58286E-03-5.27504E-01-5.32801E-14-3.08183E-13
 -1      1832 1.96333E+01-1.01634E-01-3.10848E-03-6.46489E-01-4.57314E-14-4.90313E-13
 -1      1833 1.94191E+01-6.72705E-02-9.39680E-04-6.95050E-01-3.01267E-14-5.17309E-13
 -1      1834 1.99714E+01-1.63758E-01 4.55445E-03-7.39775E-01-7.23564E-14-3.11262E-13
 -1      1835 1.92667E+01-2.66126E-02-2.04982E-03-7.30986E-01-2.17899E-14-4.99958E-13
 -1      1836 1.90387E+01 2.50720E-02 3.80228E-03-7.31013E-01-2.17368E-14-4.82987E-13
 -1      1837 1.97026E+01-6.47632E-02 3.13697E-03-8.77023E-01-1.25856E-14-3.17602E-13
 -1      1838 1.88737E+01 7.69310E-02 1.91967E-04-6.95023E-01-4.61647E-14-5.15546E-13
 -1      1839 1.86705E+01 1.34314E-01 8.03851E-03-6.33516E-01-3.46242E-14-5.04649E-13
 -1      1840 1.93851E+01 7.90884E-02 7.10676E-05-8.80610E-01-6.13647E-14-3.35242E-13
 -1      1841 1.85297E+01 1.83342E-01 3.53779E-03-5.17625E-01 4.03887E-14-4.76674E-13
 -1      1842 1.83918E+01 2.28366E-01 1.02560E-02-3.98211E-01 3.50718E-14-4.64201E-13
 -1      1843 1.90793E+01 2.35533E-01-4.06795E-03-7.12992E-01 4.04358E-14-3.53558E-13
 -1      1844 1.83139E+01 2.57706E-01 7.20691E-03-2.19533E-01 8.90954E-15-4.48551E-13
 -1      1845 1.82721E+01 2.73736E-01 9.74121E-03-6.55407E-02 1.24692E-14-4.36632E-13
 -1      1846 1.88604E+01 3.56723E-01-7.71349E-03-3.83055E-01 1.92654E-14-3.28304E-13
 -1      1847 1.82816E+01 2.72134E-01 9.81476E-03 1.35505E-01 2.98537E-14-4.34259E-13
 -1      1848 1.83467E+01 2.52971E-01 7.00815E-03 2.87682E-01 3.98822E-14-4.72031E-13
 -1      1849 1.87920E+01 3.99624E-01-9.07548E-03 4.42529E-02 7.15617E-15-3.41358E-13
 -1      1850 1.84423E+01 2.21251E-01 1.00730E-02 4.61943E-01 2.48933E-14-4.64744E-13
 -1      1851 1.86016E+01 1.74788E-01 3.41864E-03 5.76869E-01-2.91269E-14-4.01928E-13
 -1      1852 1.88972E+01 3.48353E-01-7.42668E-03 4.66460E-01 3.83335E-14-3.85086E-13
 -1      1853 1.87566E+01 1.25392E-01 7.61392E-03 6.86289E-01-5.72099E-14-3.33728E-13
 -1      1854 1.89784E+01 6.89878E-02 3.00712E-04 7.42981E-01 2.44080E-14-3.31129E-13
 -1      1855 1.91479E+01 2.23144E-01-3.66902E-03 7.83837E-01 1.38197E-14-3.23770E-13
 -1      1856 1.91541E+01 1.88124E-02 3.29135E-03 7.73797E-01 2.04665E-14-3.36204E-13
 -1      1857 1.93986E+01-2.99997E-02-1.67259E-03 7.71045E-01 3.55787E-14-3.05958E-13
 -1      1858 1.94786E+01 6.89504E-02 3.50805E-04 9.38131E-01 2.52446E-14-2.19464E-13
 -1      1859 1.95599E+01-6.78009E-02-1.35327E-03 7.33788E-01 5.48585E-14-3.81864E-13
 -1      1860 1.97902E+01-9.85643E-02-2.50335E-03 6.86016E-01 7.25275E-14-3.57619E-13
 -1      1861 1.98159E+01-6.75485E-02 3.18213E-03 9.27214E-01 5.01586E-14-3.18609E-13
 -1      1862 1.99157E+01-1.18647E-01-4.95462E-03 6.05484E-01 5.98701E-14-3.65307E-13
 -1      1863 2.01061E+01-1.29679E-01-2.54387E-03 5.33729E-01 4.90591E-14-3.16309E-13
 -1      1864 2.01037E+01-1.57076E-01 4.37787E-03 7.92427E-01 6.96513E-14-3.85165E-13
 -1      1865 2.01886E+01-1.33641E-01-6.85965E-03 4.36881E-01 2.28983E-14-3.08940E-13
 -1      1866 2.03270E+01-1.29336E-01-2.17577E-03 3.60570E-01-4.48014E-14-3.52017E-13
 -1      1867 2.03134E+01-1.93288E-01 4.27704E-03 5.92633E-01 5.47622E-14-3.49929E-13
 -1      1868 2.03697E+01-1.22370E-01-7.13754E-03 2.68339E-01-1.73748E-13-2.29190E-13
 -1      1869 2.04555E+01-1.09271E-01-1.66352E-03 2.00840E-01-1.24408E-13-2.17932E-13
 -1      1870 2.04410E+01-1.86639E-01 3.48088E-03 3.81338E-01-8.46307E-15-2.12623E-13
 -1      1871 2.04668E+01-9.70199E-02-6.27395E-03 1.25344E-01-2.94196E-14-2.62073E-13
 -1      1872 2.05075E+01-8.09650E-02-1.15358E-03 7.32436E-02 1.10819E-13-2.76167E-13
 -1      1873 2.04976E+01-1.54290E-01 2.47334E-03 1.94894E-01-1.13785E-13-3.64813E-14
 -1      1874 2.04968E+01-6.77593E-02-4.84041E-03 1.87766E-02 1.23078E-13-3.06523E-13
 -1      1875 2.05032E+01-5.26573E-02-7.07993E-04-1.66603E-02-1.82953E-14-2.75426E-13
 -1      1876 2.05004E+01-1.12192E-01 1.53662E-03 5.10113E-02 8.60724E-14-1.20462E-13
 -1      1877 2.04791E+01-4.10584E-02-3.29688E-03-5.10596E-02-8.09564E-14-2.80964E-13
 -1      1878 2.04625E+01-2.88696E-02-3.48291E-04-7.17886E-02-4.16617E-14-1.98281E-13
 -1      1879 2.04673E+01-7.14274E-02 7.88108E-04-4.70148E-02 3.54545E-14-1.50367E-13
 -1      1880 2.04318E+01-1.99503E-02-1.92894E-03-8.97723E-02-1.22308E-13-1.56911E-13
 -1      1881 2.04021E+01-1.12060E-02-7.72274E-05-9.91401E-02-8.32802E-14-1.80130E-13
 -1      1882 2.04135E+01-3.78429E-02 2.46899E-04-1.04534E-01-2.36060E-14-3.93314E-14
 -1      1883 2.03695E+01-5.06778E-03-8.64795E-04-1.05164E-01-7.36835E-14-1.81544E-13
 -1      1884 2.03342E+01 5.27966E-04 1.11761E-04-1.06685E-01-3.71741E-14-2.25601E-13
 -1      1885 2.03508E+01-1.32989E-02-1.12008E-04-1.30638E-01-7.14841E-14-7.29811E-14
 -1      1886 2.03030E+01 4.28481E-03-1.23956E-04-1.04898E-01-1.23338E-13-2.73502E-13
 -1      1887 2.02673E+01 7.38471E-03 2.30344E-04-1.01605E-01-1.43718E-13-3.73696E-13
 -1      1888 2.02870E+01 2.73772E-03-3.27168E-04-1.34892E-01-1.17538E-13-1.25446E-13
 -1      1889 2.02392E+01 9.33434E-03 3.34052E-04-9.53561E-02-3.11380E-14-4.64339E-13
 -1      1890 2.02064E+01 1.06535E-02 2.92661E-04-8.95644E-02 6.86271E-14-4.87287E-13
 -1      1891 2.02275E+01 1.18959E-02-4.36683E-04-1.25603E-01-1.58319E-13-1.14474E-13
 -1      1892 2.01822E+01 1.13583E-02 5.73338E-04-8.12846E-02 1.89324E-13-5.93498E-13
 -1      1893 2.01540E+01 1.15245E-02 3.13194E-04-7.45958E-02 1.48145E-13-4.93683E-13
 -1      1894 2.01750E+01 1.60621E-02-4.73025E-04-1.09162E-01 7.13166E-14-2.72100E-13
 -1      1895 2.01340E+01 1.14509E-02 6.59426E-04-6.58965E-02 1.11846E-13-5.02864E-13
 -1      1896 2.01108E+01 1.09510E-02 3.05168E-04-5.93145E-02 1.56928E-13-4.44474E-13
 -1      1897 2.01306E+01 1.69375E-02-4.61877E-04-9.00445E-02 1.69174E-13-3.90361E-13
 -1      1898 2.00949E+01 1.04472E-02 6.48277E-04-5.11565E-02 3.11000E-13-2.96904E-13
 -1      1899 2.00767E+01 9.62507E-03 2.79596E-04-4.52367E-02 4.13270E-13-1.35034E-13
 -1      1900 2.00945E+01 1.58646E-02-4.22565E-04-7.10936E-02 3.56074E-13-1.87972E-13
 -1      1901 2.00643E+01 8.93001E-03 5.82626E-04-3.81115E-02 1.96440E-13-2.76282E-13
 -1      1902 2.00506E+01 8.00943E-03 2.44922E-04-3.30999E-02-1.89676E-14-2.91572E-13
 -1      1903 2.00660E+01 1.38073E-02-3.68978E-04-5.39174E-02 2.25979E-13-1.30991E-13
 -1      1904 2.00413E+01 7.27413E-03 4.92349E-04-2.71864E-02-1.16483E-13-2.05067E-13
 -1      1905 2.00313E+01 6.38727E-03 2.07112E-04-2.31334E-02-2.59387E-13-1.84044E-13
 -1      1906 2.00442E+01 1.14023E-02-3.10596E-04-3.92586E-02-8.88019E-14-3.28941E-13
 -1      1907 2.00246E+01 5.69782E-03 3.96635E-04-1.84200E-02-2.96549E-13-1.59919E-13
 -1      1908 2.00177E+01 4.91255E-03 1.69974E-04-1.52638E-02-1.85852E-13-1.57757E-13
 -1      1909 2.00282E+01 9.03324E-03-2.53466E-04-2.73021E-02-2.65221E-13 6.85301E-14
 -1      1910 2.00130E+01 4.31041E-03 3.06600E-04-1.16363E-02-2.74266E-14-9.53665E-14
 -1      1911 2.00086E+01 3.65216E-03 1.35578E-04-9.26173E-03 1.55374E-13 1.94315E-14
 -1      1912 2.00167E+01 6.90388E-03-2.01079E-04-1.79079E-02-2.54179E-14 2.30611E-13
 -1      1913 2.00055E+01 3.14987E-03 2.27729E-04-6.56237E-03 3.28332E-13-4.60742E-14
 -1      1914 2.00028E+01 2.61777E-03 1.04655E-04-4.83806E-03 4.10534E-13 9.62179E-14
 -1      1915 2.00089E+01 5.09727E-03-1.55083E-04-1.07729E-02 2.33369E-13 2.22455E-13
 -1      1916 2.00009E+01 2.21001E-03 1.61851E-04-2.90335E-03 3.77411E-13 1.59044E-13
 -1      1917 1.99996E+01 1.78740E-03 7.68903E-05-1.70538E-03 3.97516E-13 3.09527E-13
 -1      1918 2.00039E+01 3.62047E-03-1.15916E-04-5.53916E-03 4.73234E-13 2.87356E-13
 -1      1919 1.99985E+01 1.45776E-03 1.08696E-04-3.89186E-04 2.26927E-13 1.53719E-13
 -1      1920 1.99981E+01 1.11842E-03 5.12693E-05 3.84723E-04 1.49217E-13 1.74750E-13
 -1      1921 2.00009E+01 2.43384E-03-8.33588E-05-1.86073E-03 2.55463E-13 2.21478E-13
 -1      1922 1.99977E+01 8.43696E-04 6.70617E-05 1.19744E-03 7.30700E-15 8.93003E-14
 -1      1923 1.99978E+01 5.57591E-04 2.87552E-05 1.61798E-03-5.32627E-14 1.80774E-14
 -1      1924 1.99994E+01 1.47021E-03-5.63261E-05 5.55448E-04-3.76337E-15 2.77924E-14
 -1      1925 1.99978E+01 2.98244E-04 3.37660E-05 2.01371E-03-7.24614E-14 5.20707E-15
 -1      1926 1.99982E+01 2.89333E-05 8.89276E-06 2.10938E-03-6.56749E-14 1.42160E-14
 -1      1927 1.99989E+01 6.52371E-04-3.33021E-05 1.92787E-03-1.23375E-13-3.18222E-14
 -1      1928 1.99983E+01-2.01231E-04 1.79844E-05 2.12676E-03 2.72941E-14 2.73012E-14
 -1      1929 1.99989E+01-4.93301E-04-8.10048E-06 1.90716E-03 4.50339E-14-5.79198E-14
 -1      1930 1.99992E+01-8.46362E-04-1.61841E-05 2.16591E-03-8.63258E-14 1.55029E-13
 -1      1931 1.99989E+01-1.45180E-04-2.69363E-05 2.40713E-03-8.46398E-14 3.29434E-14
 -1      1932 1.99037E+01 2.09098E-01 1.34152E-02 1.60449E-01 1.79908E-13 4.71247E-13
 -1      1933 2.00563E+01 2.82703E-01 2.65938E-02 3.14385E-01 2.04775E-13 5.38174E-13
 -1      1934 2.02341E+01 3.82184E-01 9.89283E-03 5.74750E-01 2.24794E-13 5.63625E-13
 -1      1935 2.06342E+01 5.31262E-01 2.97747E-02 8.85863E-01 2.25802E-13 6.25049E-13
 -1      1936 2.03424E+01 5.31123E-01-4.29577E-03 6.36492E-01 2.52227E-13 3.52395E-13
 -1      1937 1.97854E+01 1.36114E-01 1.05822E-02-8.10256E-02 1.24264E-13 4.02477E-13
 -1      1938 1.98120E+01 1.68664E-01 1.73993E-02 7.56648E-03 1.45722E-13 4.43297E-13
 -1      1939 2.00722E+01 2.98500E-01-5.43274E-03 1.69190E-01 2.04895E-13 3.12473E-13
 -1      1940 1.98149E+01 1.03935E-01 8.76687E-03-2.57635E-01 6.37580E-14 3.50287E-13
 -1      1941 1.97580E+01 1.16009E-01 9.96782E-03-1.90195E-01 9.16537E-14 3.76268E-13
 -1      1942 1.99581E+01 1.94965E-01-5.63217E-03-1.30560E-01 1.43942E-13 2.54686E-13
 -1      1943 1.99655E+01 9.92561E-02 8.73388E-03-4.03073E-01 6.72067E-14 2.78569E-13
 -1      1944 1.98423E+01 9.81808E-02 5.74254E-03-3.43114E-01 5.83158E-14 2.98582E-13
 -1      1945 1.99643E+01 1.54498E-01-5.02265E-03-3.51879E-01 1.01525E-13 1.99383E-13
 -1      1946 2.02199E+01 1.15784E-01 1.01549E-02-5.50686E-01 2.86555E-14 2.77143E-13
 -1      1947 2.00359E+01 1.03376E-01 3.48119E-03-4.84870E-01 3.90517E-14 2.80336E-13
 -1      1948 2.00684E+01 1.54569E-01-4.11012E-03-5.41058E-01 6.29668E-14 1.43531E-13
 -1      1949 2.05766E+01 1.52248E-01 1.26947E-02-7.27787E-01 2.33672E-14 2.96382E-13
 -1      1950 2.03267E+01 1.28719E-01 2.25587E-03-6.44260E-01 3.64101E-14 2.90821E-13
 -1      1951 2.02529E+01 1.86460E-01-3.31404E-03-7.37374E-01 2.02191E-14 1.69280E-13
 -1      1952 2.10455E+01 2.08861E-01 1.57416E-02-9.60017E-01 5.24754E-17 2.54828E-13
 -1      1953 2.07169E+01 1.73730E-01 1.29460E-03-8.47066E-01 1.31995E-14 2.77215E-13
 -1      1954 2.05095E+01 2.48674E-01-2.61283E-03-9.73135E-01 3.81023E-14 1.92005E-13
 -1      1955 2.16152E+01 2.79217E-01 1.90026E-02-1.25291E+00-1.99164E-14 2.48199E-13
 -1      1956 2.12076E+01 2.36657E-01 1.34973E-04-1.11023E+00 3.43475E-16 2.13058E-13
 -1      1957 2.08271E+01 3.38873E-01-1.34284E-03-1.26839E+00 1.78143E-14 1.33025E-13
 -1      1958 2.23663E+01 3.59882E-01 2.16663E-02-1.65133E+00-1.34181E-14 1.80723E-13
 -1      1959 2.18199E+01 3.13629E-01-1.53524E-03-1.45768E+00-1.38431E-14 1.82280E-13
 -1      1960 2.12107E+01 4.49851E-01-1.39296E-03-1.65274E+00 4.33239E-14 4.38007E-14
 -1      1961 2.32911E+01 4.05844E-01 1.99061E-02-2.12774E+00 5.12351E-14 1.62455E-13
 -1      1962 2.26080E+01 3.85560E-01-3.50145E-03-1.90458E+00 1.01247E-14 1.76110E-13
 -1      1963 2.16776E+01 5.59216E-01-1.65363E-03-2.14819E+00 6.12141E-15-3.02844E-14
 -1      1964 2.44040E+01 3.20426E-01 1.15103E-02-2.59410E+00 5.86020E-14 2.25986E-13
 -1      1965 2.35919E+01 3.87370E-01-3.83244E-03-2.40291E+00 8.21179E-14 2.11530E-13
 -1      1966 2.22352E+01 5.84678E-01-4.00151E-03-2.71977E+00 2.49366E-14 3.68078E-14
 -1      1967 2.57179E+01-8.22861E-02-3.84569E-03-2.81534E+00 2.23502E-14 2.49471E-13
 -1      1968 2.48328E+01 1.82629E-01 5.54421E-03-2.80482E+00 5.92217E-14 2.46676E-13
 -1      1969 2.29463E+01 3.47311E-01-1.07793E-02-3.25632E+00 5.95567E-14 1.03733E-13
 -1      1970 2.72759E+01-1.01879E+00-2.04019E-02-2.33796E+00-1.03882E-13 2.40237E-13
 -1      1971 2.64389E+01-4.56177E-01 3.55884E-02-2.76744E+00-3.57353E-14 2.21130E-13
 -1      1972 2.39926E+01-4.50335E-01-2.32398E-02-3.48952E+00 2.28324E-14 5.23800E-14
 -1      1973 2.90333E+01-2.29244E+00-3.68670E-02-7.21631E-01-2.21087E-13 2.42277E-13
 -1      1974 2.84653E+01-1.63193E+00 7.59083E-02-1.75077E+00-1.87496E-13 2.19217E-13
 -1      1975 2.56915E+01-2.00652E+00-4.65528E-02-2.95535E+00-1.34948E-13 1.81521E-14
 -1      1976 3.07247E+01-2.79192E+00-5.05794E-02 1.71123E+00-2.83065E-13 3.35305E-13
 -1      1977 3.06230E+01-2.70660E+00 8.19330E-02 4.90948E-01-2.54539E-13 2.95569E-13
 -1      1978 2.82390E+01-3.75703E+00-9.33335E-02-1.29982E+00-3.05894E-13 3.85456E-15
 -1      1979 3.24960E+01 3.48471E+00-1.60866E-01 2.69289E+00 1.96454E-13 2.85938E-13
 -1      1980 3.28243E+01 1.56965E+00-2.50628E-01 3.99209E+00 1.56319E-13 3.86954E-13
 -1      1981 3.27163E+01 7.43388E-01-2.33676E-01-4.38261E+00 4.64934E-13-6.79456E-14
 -1      1982 3.21446E+01 2.78077E+00-1.45838E-01-3.39899E+00 4.12781E-13 5.27078E-14
 -1      1983 3.23455E+01-2.15619E+00-3.72107E-02-3.44864E+00 3.46171E-13-1.22694E-13
 -1      1984 3.17971E+01-8.27362E-01-8.74120E-02-4.19035E+00 4.71650E-13 9.10383E-15
 -1      1985 3.06896E+01-2.36694E+00 7.48971E-02-4.57724E-01 4.99115E-14-1.12514E-13
 -1      1986 3.07102E+01-2.57171E+00-7.99692E-02-1.79191E+00 1.53259E-13-3.46563E-14
 -1      1987 3.16534E+01-3.43207E+00-1.57682E-01-1.90621E+00 2.43644E-13-8.31418E-14
 -1      1988 2.85631E+01-1.20763E+00 7.41228E-02 1.82817E+00-6.00700E-14-5.83786E-14
 -1      1989 2.91235E+01-1.91659E+00-5.02926E-02 8.76099E-01-2.67286E-14-9.55590E-14
 -1      1990 2.86397E+01-3.06800E+00-6.97785E-02 9.71955E-01-2.20657E-14-8.54898E-14
 -1      1991 2.66405E+01-2.16032E-01 3.23706E-02 2.64573E+00 1.66360E-14 3.55410E-14
 -1      1992 2.74531E+01-7.25452E-01-2.81019E-02 2.33468E+00 2.46955E-14 1.97793E-14
 -1      1993 2.62536E+01-1.40729E+00-3.29092E-02 2.72925E+00-1.54390E-14 4.54567E-14
 -1      1994 2.51535E+01 2.33036E-01 4.42723E-03 2.57989E+00-2.98143E-14 4.78680E-14
 -1      1995 2.59760E+01 7.36259E-03-7.60006E-03 2.63804E+00-2.40242E-14-4.21312E-14
 -1      1996 2.46861E+01-2.02818E-01-1.91154E-02 3.17991E+00-3.64118E-14-1.82753E-15
 -1      1997 2.39082E+01 3.70259E-01-3.50076E-03 2.14939E+00-1.18213E-14-8.32945E-14
 -1      1998 2.46869E+01 3.07994E-01 7.74210E-03 2.35616E+00-4.32397E-14-1.27589E-14
 -1      1999 2.36190E+01 3.61844E-01-7.36200E-03 2.91100E+00-3.22943E-14-1.75207E-14
 -1      2000 2.29288E+01 3.46832E-01-3.52157E-03 1.65132E+00 5.80846E-14-1.83005E-14
 -1      2001 2.35680E+01 3.61743E-01 1.58391E-02 1.87632E+00 5.27824E-14-3.78864E-14
 -1      2002 2.28027E+01 5.12823E-01-1.73410E-03 2.37095E+00-2.65794E-14-6.17180E-14
 -1      2003 2.21671E+01 2.76112E-01-1.77016E-03 1.21510E+00 7.15357E-14 1.11044E-14
 -1      2004 2.26622E+01 3.14370E-01 1.76728E-02 1.40724E+00 1.01565E-13 3.81683E-15
 -1      2005 2.21578E+01 4.70633E-01 1.75856E-04 1.81237E+00 8.92906E-14-5.96063E-14
 -1      2006 2.15848E+01 2.04549E-01-3.72928E-04 8.73376E-01-2.50802E-13 1.33755E-13
 -1      2007 2.19546E+01 2.43040E-01 1.58623E-02 1.02138E+00-1.57175E-13 4.63260E-14
 -1      2008 2.16402E+01 3.72247E-01 2.67036E-04 1.33651E+00-9.35267E-14-1.57546E-13
 -1      2009 2.11475E+01 1.46483E-01 6.17090E-04 6.19892E-01 5.52210E-14 1.25245E-13
 -1      2010 2.14167E+01 1.77721E-01 1.27106E-02 7.28336E-01-2.51578E-14 2.50531E-13
 -1      2011 2.12294E+01 2.75022E-01-1.86118E-04 9.65557E-01-2.01819E-13 3.83980E-14
 -1      2012 2.08361E+01 1.04900E-01 7.85815E-04 4.44958E-01 1.80920E-13 1.36209E-13
 -1      2013 2.10235E+01 1.28379E-01 9.79672E-03 5.19677E-01 1.67810E-13 8.24170E-14
 -1      2014 2.09155E+01 1.97176E-01-1.07818E-03 6.94605E-01 1.28298E-13 4.29992E-14
 -1      2015 2.05923E+01 7.33576E-02 7.36033E-04 3.12463E-01 3.73790E-15 1.12718E-13
 -1      2016 2.07336E+01 9.04280E-02 7.04738E-03 3.68088E-01 2.92878E-14 8.71462E-14
 -1      2017 2.06748E+01 1.40775E-01-7.48439E-04 4.97694E-01 1.36093E-13 1.69072E-13
 -1      2018 2.04150E+01 5.12238E-02 6.66674E-04 2.18789E-01 1.00213E-13 8.31862E-14
 -1      2019 2.05155E+01 6.35142E-02 5.11777E-03 2.58020E-01 4.86631E-14 4.21491E-14
 -1      2020 2.04868E+01 9.83193E-02-8.53750E-04 3.51621E-01 5.24665E-14 7.25787E-14
 -1      2021 2.02866E+01 3.58552E-02 5.73058E-04 1.52598E-01 1.20251E-13 4.55197E-14
 -1      2022 2.03576E+01 4.45038E-02 3.63452E-03 1.80207E-01 7.78596E-14 1.70099E-13
 -1      2023 2.03465E+01 6.86331E-02-8.17180E-04 2.47483E-01 1.47739E-13-2.48440E-14
 -1      2024 2.01943E+01 2.51694E-02 4.75069E-04 1.05774E-01 8.78730E-14 2.16927E-13
 -1      2025 2.02442E+01 3.12447E-02 2.56779E-03 1.25241E-01 2.02941E-13 1.23801E-13
 -1      2026 2.02429E+01 4.79948E-02-7.20954E-04 1.73343E-01 1.37068E-13 7.25694E-14
 -1      2027 2.01287E+01 1.77309E-02 4.12826E-04 7.26109E-02-7.28962E-14 2.21671E-13
 -1      2028 2.01634E+01 2.19545E-02 1.79953E-03 8.63473E-02 6.60230E-15 1.56563E-13
 -1      2029 2.01672E+01 3.36643E-02-6.00525E-04 1.20548E-01 3.79282E-14 3.72435E-13
 -1      2030 2.00843E+01 1.27058E-02 3.23849E-04 5.00991E-02-1.00465E-13 5.96293E-14
 -1      2031 2.01074E+01 1.56944E-02 1.28904E-03 5.94556E-02-1.83875E-13 6.06709E-14
 -1      2032 2.01134E+01 2.36709E-02-5.56493E-04 8.35955E-02-7.47035E-14 7.68926E-14
 -1      2033 2.00516E+01 8.90950E-03 2.41017E-04 3.31200E-02-1.21654E-13 3.90895E-14
 -1      2034 2.00681E+01 1.10698E-02 9.00005E-04 4.00965E-02-5.75684E-15 1.69107E-13
 -1      2035 2.00750E+01 1.69177E-02-3.86571E-04 5.72618E-02-1.32990E-13-3.74544E-15
 -1      2036 2.00294E+01 6.22165E-03 1.83258E-04 2.11396E-02-1.97571E-13 1.56670E-13
 -1      2037 2.00403E+01 7.80934E-03 6.43608E-04 2.60641E-02-2.94797E-13 6.54621E-14
 -1      2038 2.00470E+01 1.18442E-02-3.06095E-04 3.78683E-02-2.15642E-13 6.30181E-14
 -1      2039 2.00148E+01 4.31238E-03 1.40024E-04 1.27293E-02 7.48277E-14 1.34307E-13
 -1      2040 2.00218E+01 5.45769E-03 4.50179E-04 1.61727E-02-6.66734E-14 1.81734E-13
 -1      2041 2.00278E+01 8.25887E-03-2.35227E-04 2.41275E-02-1.67437E-13 1.83909E-14
 -1      2042 2.00056E+01 2.94848E-03 1.06181E-04 6.88256E-03 1.73532E-13 2.78169E-13
 -1      2043 2.00098E+01 3.77582E-03 3.11291E-04 9.26452E-03 1.26896E-13 2.51876E-13
 -1      2044 2.00150E+01 5.70807E-03-1.77296E-04 1.44573E-02 3.67136E-14-5.47807E-14
 -1      2045 2.00003E+01 1.97392E-03 8.19891E-05 2.88677E-03 1.20619E-13 3.65006E-13
 -1      2046 2.00025E+01 2.56270E-03 2.09253E-04 4.49935E-03 2.63015E-13 4.64357E-13
 -1      2047 2.00068E+01 3.89094E-03-1.30035E-04 7.72902E-03 1.35595E-13 3.48149E-13
 -1      2048 1.99977E+01 1.29131E-03 5.80219E-05 3.37866E-04-1.38490E-13 3.93747E-13
 -1      2049 1.99986E+01 1.72010E-03 1.39354E-04 1.35877E-03-1.57450E-13 3.03700E-13
 -1      2050 2.00020E+01 2.58014E-03-1.01939E-04 3.21159E-03 1.47884E-14 3.95139E-13
 -1      2051 1.99967E+01 7.37452E-04 3.45323E-05-1.37174E-03 1.76283E-13 1.08041E-13
 -1      2052 1.99968E+01 1.07887E-03 8.86113E-05-7.09127E-04-6.79277E-14 2.36640E-13
 -1      2053 1.99993E+01 1.66322E-03-6.70928E-05 2.23616E-04-5.25917E-14 4.52998E-13
 -1      2054 1.99969E+01 2.85908E-04 1.45751E-05-2.29234E-03 3.07181E-13 8.65966E-14
 -1      2055 1.99965E+01 5.80474E-04 5.35719E-05-1.96272E-03 3.33670E-13 3.24968E-13
 -1      2056 1.99982E+01 9.14953E-04-4.54817E-05-1.68746E-03 2.25390E-13 2.72448E-13
 -1      2057 1.99977E+01-1.57998E-04-3.10131E-06-2.53976E-03 8.14339E-14 2.49035E-13
 -1      2058 1.99970E+01 1.30453E-04 2.61007E-05-2.51893E-03 2.06452E-13 2.43025E-13
 -1      2059 1.99980E+01 2.93169E-04-2.52866E-05-2.66209E-03 1.87718E-13 3.30621E-13
 -1      2060 1.99986E+01-6.75616E-04-2.21860E-05-2.13586E-03 1.58817E-14 1.03034E-13
 -1      2061 1.99980E+01-3.22150E-04 1.98715E-05-2.40781E-03-9.96661E-15 4.14062E-14
 -1      2062 1.99985E+01-3.75736E-04-9.00212E-06-2.84631E-03 1.99747E-13 1.79685E-13
 -1      2063 2.94631E+00-7.11256E+00-3.09223E-01 3.10311E+00 1.63147E-13 1.63924E-13
 -1      2064 1.09926E+00-7.37937E+00-3.58352E-01 1.56528E+00 1.35447E-13 2.04614E-13
 -1      2065 2.00003E+01-3.54398E-03 2.09491E-07-1.73337E-03-1.41163E-13 3.34101E-14
 -1      2066 2.00002E+01-2.99522E-03 1.56940E-05-1.98166E-03-1.97148E-14-9.21564E-14
 -1      2067 2.00001E+01-2.85602E-03 3.59285E-06-2.23992E-03 2.67454E-14-2.26625E-13
 -1      2068 1.99999E+01-2.17712E-03-9.62542E-06-2.35458E-03 1.09411E-13-3.63167E-14
 -1      2069 2.00003E+01-1.82531E-03-8.08260E-06-2.43920E-03 1.40290E-13-1.43180E-13
 -1      2070 1.99991E+01-8.05082E-04 3.34719E-05-1.63130E-03 4.52204E-14-1.02549E-13
 -1      2071 2.00003E+01-3.94293E-03-1.12521E-06-1.12043E-03-3.49379E-13-7.34333E-14
 -1      2072 2.00003E+01-3.55854E-03 2.52291E-05-1.39681E-03-3.97887E-13 3.01601E-13
 -1      2073 2.00005E+01-1.99395E-03-8.96510E-06-1.78290E-03-2.65624E-13-1.99437E-13
 -1      2074 2.00002E+01-4.09095E-03-1.68111E-06-5.54640E-04-3.16812E-13-5.43551E-13
 -1      2075 2.00003E+01-3.86825E-03 2.58691E-05-7.98639E-04-3.04977E-13-2.09903E-13
 -1      2076 2.00005E+01-1.94614E-03-3.34221E-06-1.06036E-03-1.50134E-13-1.41202E-13
 -1      2077 2.00001E+01-4.05450E-03-2.16447E-07-1.25313E-04-2.58613E-13 2.61852E-14
 -1      2078 2.00002E+01-3.97382E-03 2.10670E-05-3.07466E-04-2.14680E-13-7.02313E-14
 -1      2079 2.00004E+01-1.76489E-03 3.34117E-06-4.44155E-04-2.35505E-13-1.50838E-13
 -1      2080 2.00000E+01-3.92085E-03 3.52740E-06 1.73421E-04-3.22682E-13-2.79754E-13
 -1      2081 2.00000E+01-3.94832E-03 1.31284E-05 4.28600E-05-1.67222E-13-2.75810E-13
 -1      2082 2.00002E+01-1.54989E-03 8.80172E-06-4.22815E-06-1.83266E-13-3.16138E-14
 -1      2083 2.00000E+01-3.74866E-03 9.28303E-06 4.03145E-04-1.31282E-13 1.45309E-13
 -1      2084 2.00000E+01-3.86115E-03 5.05256E-06 2.93244E-04-2.27836E-13 1.54571E-13
 -1      2085 2.00001E+01-1.38736E-03 1.14259E-05 2.91386E-04-2.42617E-13-9.28211E-15
 -1      2086 2.00000E+01-3.55240E-03 1.55666E-05 6.44739E-04-2.83718E-14 6.30615E-15
 -1      2087 2.00000E+01-3.74543E-03-1.20102E-06 5.20459E-04 1.15963E-14 1.83083E-13
 -1      2088 2.00001E+01-1.32222E-03 1.07097E-05 5.30435E-04-7.81801E-14 2.21547E-13
 -1      2089 2.00001E+01-3.30569E-03 2.01688E-05 9.54945E-04 4.45677E-14-2.13919E-13
 -1      2090 2.00001E+01-3.58886E-03-4.94968E-06 7.97567E-04 2.05259E-14-2.05887E-13
 -1      2091 2.00002E+01-1.34716E-03 7.43843E-06 8.08299E-04 1.95846E-13-9.92818E-14
 -1      2092 2.00002E+01-2.94908E-03 2.03078E-05 1.35494E-03-4.96717E-14 1.53672E-13
 -1      2093 2.00001E+01-3.34461E-03-6.05745E-06 1.16323E-03-2.60617E-14 1.91517E-14
 -1      2094 2.00003E+01-1.41108E-03 1.51341E-06 1.19101E-03 2.01692E-13-1.67235E-13
 -1      2095 2.00001E+01-2.44166E-03 1.29130E-05 1.76715E-03 1.57054E-13 1.56404E-13
 -1      2096 2.00001E+01-2.94197E-03-4.93873E-06 1.59011E-03 9.32692E-14 7.09558E-14
 -1      2097 2.00003E+01-1.43382E-03-4.87160E-06 1.67547E-03 1.83941E-13 2.67783E-13
 -1      2098 1.99998E+01-1.81738E-03-1.39536E-05 2.05536E-03-2.65804E-15 3.04708E-13
 -1      2099 2.00000E+01-2.35116E-03 4.23639E-06 1.95498E-03 1.09977E-14 1.37062E-13
 -1      2100 2.00002E+01-1.32483E-03-3.01915E-06 2.14165E-03 1.82617E-13 5.37640E-14
 -1      2101 9.98942E+00-6.42718E+00-2.09458E-01 5.60784E+00 1.28120E-13 3.90202E-13
 -1      2102 5.96653E+00-7.66951E+00-4.38864E-01 4.20325E+00 8.40439E-14 2.21406E-13
 -1      2103-1.07570E-01-7.47573E+00-3.48363E-01-6.26066E-01 1.40644E-13-1.49880E-14
 -1      2104 1.27990E-01-7.75863E+00-4.03306E-01-2.13294E+00 2.05724E-13-1.96065E-13
 -1      2105 1.95432E+01 4.03696E+00-2.58981E-02-1.62038E+00-3.01443E-14-5.59351E-13
 -1      2106 1.96828E+01 3.95960E+00-2.37056E-02-1.87413E+00-7.28723E-14-5.60330E-13
 -1      2107 2.00097E+01 3.27058E+00-7.72689E-03-1.82233E+00-1.07866E-13-5.19593E-13
 -1      2108 1.97053E+01 3.61708E+00-9.02593E-03-1.43256E+00-2.08572E-14-5.26867E-13
 -1      2109 3.96784E+01 7.70543E-01 2.79985E-01 1.39518E+00 4.46020E-13-3.11973E-13
 -1      2110 3.40511E+01-1.30477E+00-1.54936E-01 1.78488E+00 4.63379E-13-3.17746E-13
 -1      2111 4.13515E+01 4.13222E+00 1.27111E-01-1.54000E+00 4.90719E-13-3.34177E-13
 -1      2112 3.94611E+01 2.53963E+00 5.09109E-02-8.68481E-01 4.83363E-13-1.98952E-13
 -1      2113 4.15560E+01 4.15318E+00 1.71322E-01 1.09071E+00 3.05977E-13-2.22045E-13
 -1      2114 4.21770E+01 5.62020E+00 2.06698E-01 1.40256E+00 2.45026E-13-2.61013E-13
 -1      2115 3.72520E+01 2.68817E-01-1.55347E-01 2.04429E-01 8.86513E-14-3.75255E-13
 -1      2116 4.10148E+01 2.37268E+00 1.86672E-01 6.33189E-01 2.28734E-13-2.93321E-13
 -1      2117 3.69414E+01 2.35657E+00 2.98235E-01 3.52493E+00 1.33282E-13 1.28342E-13
 -1      2118 3.11957E+01-3.10940E+00-2.54628E-01-2.51053E+00 2.55906E-14-4.20997E-13
 -1      2119 3.63388E+01-1.24883E+00 7.42392E-02-1.62189E+00 1.01030E-13-3.98348E-13
 -1      2120 3.57831E+01-1.49136E+00 2.18433E-01 1.80542E+00-4.07036E-14-2.01450E-13
 -1      2121 2.30541E+01-5.70941E+00-2.79307E-01-4.55645E+00-6.07292E-14-5.80092E-13
 -1      2122 2.86301E+01-3.98271E+00 4.47797E-02-4.51867E+00 2.49245E-14-5.61995E-13
 -1      2123 3.17215E+01-4.84854E+00 6.58390E-02-1.25145E+00-1.73028E-13-2.32925E-13
 -1      2124 1.15338E+01-7.29391E+00-4.48891E-01-5.21748E+00-5.65104E-14-5.12980E-13
 -1      2125 1.68352E+01-5.93004E+00-1.90715E-01-6.24487E+00-1.06581E-14-6.15452E-13
 -1      2126 3.45573E+00-8.32326E+00-5.54826E-01-3.22605E+00-1.44162E-13-3.82083E-13
 -1      2127 6.90221E+00-6.86058E+00-2.94869E-01-4.88181E+00-3.93019E-14-5.26940E-13
 -1      2128-3.11250E-02-8.39650E+00-4.80730E-01-4.09273E-01-2.95160E-13-2.50522E-13
 -1      2129 1.12889E+00-8.01169E+00-4.25732E-01-1.85868E+00-1.47549E-13-2.71672E-13
 -1      2130 8.69925E-01-6.97132E+00-2.85443E-01 2.99027E+00-3.15636E-13-4.24272E-13
 -1      2131-4.70643E-03-7.93088E+00-4.21583E-01 1.41411E+00-2.68958E-13-3.51275E-13
 -1      2132 6.29704E+00-5.68177E+00-1.10991E-01 6.34493E+00-2.99094E-13-3.68650E-13
 -1      2133 3.36010E+00-7.04508E+00-3.18908E-01 4.77131E+00-2.49467E-13-4.06786E-13
 -1      2134 1.39375E+01-4.30252E+00-7.38230E-02 7.58342E+00-4.66072E-13-2.60347E-13
 -1      2135 9.92195E+00-6.14056E+00-3.04601E-01 6.68785E+00-3.45612E-13-2.87092E-13
 -1      2136 2.31015E+01-2.66628E+00-5.91566E-02 7.08824E+00-3.78086E-13-1.33893E-13
 -1      2137 1.78381E+01-4.00299E+00-2.37835E-01 6.95357E+00-4.66516E-13-2.45581E-13
 -1      2138 1.85133E+01-5.15464E+00 1.93543E-02 7.52948E+00-1.27065E-13-5.72598E-14
 -1      2139 3.22500E+01 1.78882E+00 3.47470E-01 5.97305E+00-4.69458E-13-1.91402E-13
 -1      2140 2.76844E+01-6.05550E-01 3.06583E-02 5.67359E+00-4.55525E-13-1.50824E-13
 -1      2141 3.81586E+01 4.63364E+00 3.62916E-01 4.25648E+00-3.86746E-13-1.75637E-13
 -1      2142 3.42646E+01 3.31930E+00 9.84790E-02 4.97120E+00-4.07584E-13-2.15272E-13
 -1      2143 4.13370E+01 6.74502E+00 3.61601E-01 1.76652E+00-4.76008E-13-1.00364E-13
 -1      2144 3.90716E+01 5.99452E+00 2.20265E-01 2.84555E+00-4.18915E-13-1.68143E-13
 -1      2145 4.25677E+01 7.75822E+00 3.37167E-01-2.18117E-01-6.08347E-13-1.53003E-14
 -1      2146 4.24737E+01 7.52781E+00 3.64711E-01 1.25682E+00-5.79647E-13-1.00780E-13
 -1      2147 4.07294E+01 6.85101E+00 2.68379E-01-2.16050E+00-3.54772E-13-2.18714E-14
 -1      2148 4.19245E+01 7.49173E+00 3.39578E-01-8.10555E-01-4.61964E-13-5.58442E-14
 -1      2149 3.63142E+01 4.62539E+00 1.04975E-01-3.53046E+00-1.11161E-13-2.30926E-14
 -1      2150 4.00905E+01 5.78128E+00 3.95236E-01-3.01804E+00-2.93154E-13-8.86513E-14
 -1      2151 3.69651E+01 6.87634E+00 3.17496E-01-4.18223E-01-2.10498E-13-3.08475E-13
 -1      2152 2.97982E+01 1.04666E+00-3.85183E-03-5.79274E+00 6.43652E-14 1.73750E-13
 -1      2153 3.40451E+01 2.51359E+00 2.12056E-01-5.08130E+00 2.99344E-14 1.46105E-13
 -1      2154 2.23694E+01-2.04063E+00-1.57269E-01-6.75524E+00 4.20775E-13 2.88880E-13
 -1      2155 2.71716E+01-2.97925E-03 1.82168E-01-7.12533E+00 2.19436E-13 3.16414E-13
 -1      2156 2.96213E+01-1.15269E+00 1.70889E-01-4.49474E+00 2.52798E-13 2.22045E-13
 -1      2157 1.38834E+01-5.02760E+00-2.90412E-01-7.00993E+00 3.23963E-13 2.19658E-13
 -1      2158 1.83894E+01-3.05538E+00 2.00352E-02-7.79869E+00 3.54161E-13 2.39808E-13
 -1      2159 6.37578E+00-6.85773E+00-3.89147E-01-5.91981E+00 3.76699E-13-9.12742E-14
 -1      2160 9.92021E+00-5.07086E+00-1.13623E-01-7.16232E+00 3.19078E-13 1.85348E-13
 -1      2161 1.60383E+00-7.64796E+00-4.01367E-01-3.74356E+00 3.22964E-13-1.62315E-13
 -1      2162 3.56305E+00-6.50138E+00-2.43121E-01-5.06769E+00 4.12947E-13-1.94400E-13
 -1      2163 2.15832E+01 1.74946E+00 7.74622E-02 2.29586E+00 2.42667E-13 7.04027E-13
 -1      2164 3.00969E+01-3.26735E+00-3.20842E-02 4.37900E+00 3.78753E-13-3.13971E-13
 -1      2165 2.40126E+01-4.99879E+00-3.83143E-01 4.61449E+00 3.16969E-13-5.48450E-14
 -1      2166 2.50787E+01-6.32457E+00-5.14469E-03 4.46376E+00 9.73666E-14-1.18655E-13
 -1      2167 2.15487E+01 1.73791E+00 7.91190E-02-2.27466E+00-2.51736E-13-2.83863E-13
 -1      2168 1.99991E+01-9.57412E-04 6.80128E-07-2.16873E-03 1.19120E-13 8.28369E-14
 -1      2169 1.99995E+01-1.61660E-03 1.22332E-05-2.36101E-03 5.61032E-14-1.59897E-13
 -1      2170 1.53920E+01-6.54647E+00-9.36531E-02 6.02901E+00-5.32907E-14 2.13808E-13
 -1      2171 2.07975E+01 1.10779E+00-2.00015E-02-1.55349E+00-2.24019E-13-3.35905E-13
 -1      2172 3.33904E+01-3.44445E+00 1.52067E-01 8.45186E-01 3.86358E-13-2.97096E-13
 -1      2173 2.06929E+01 1.33159E+00-1.92352E-02-1.59918E+00-2.29483E-13-3.88425E-13
 -1      2174 2.07103E+01 1.33423E+00-2.28800E-02 1.59326E+00 2.94488E-13 4.01660E-13
 -1      2175 2.08237E+01 1.10706E+00-2.23788E-02 1.55711E+00 2.50210E-13 6.32883E-13
 -1      2176 3.31042E+01 2.90131E-01-1.32576E-01 4.39812E+00 6.14508E-14 2.94653E-13
 -1      2177 3.22841E+01-2.26785E+00-3.21494E-02 3.24176E+00-2.49807E-13 3.72258E-13
 -1      2178 3.14677E+01-3.76827E+00-2.48063E-02 1.52026E+00-2.88328E-13 8.90676E-14
 -1      2179 3.21432E+01 4.15937E+00-2.39902E-01 2.96546E-01 2.47413E-13 2.31148E-13
 -1      2180 3.69818E+01 5.50389E+00 1.87949E-01 1.21129E+00 2.50133E-13 5.07372E-14
 -1      2181 4.21847E+01 6.70177E+00 2.54996E-01-2.86009E-01 3.41061E-13-3.21090E-13
 -1      2182 3.22621E+01 3.79593E+00-2.27908E-01-1.79742E+00 3.21354E-13 1.91186E-13
 -1      2183 3.19730E+01-9.97921E-01-9.09535E-02 3.97849E+00-5.69822E-14 3.86177E-13
 -1      2184 3.63606E+01 4.70738E+00 1.85280E-01-2.92075E+00 5.10758E-13-1.75332E-13
 -1      2185 3.43160E+01-1.58829E+00-1.63070E-01 3.15309E+00-1.04722E-13 1.80689E-14
 -1      2186 3.43948E+01-6.31951E-02-1.36366E-01-4.16276E+00 4.69680E-13-2.65787E-13
 -1      2187 1.83581E+00-4.90624E+00-1.61558E-01 8.97211E-01 1.06193E-13 1.17184E-13
 -1      2188 1.99995E+01-1.15698E-03-3.55293E-07-2.78983E-03 2.99746E-13-7.32266E-14
 -1      2189 6.66533E+00-5.46037E+00-1.22285E-01 4.75939E+00 2.70894E-14 1.35447E-13
 -1      2190 1.99997E+01-1.32437E-03-7.92679E-06 2.12039E-03 1.00496E-14 2.78027E-13
 -1      2191 2.16633E+00-4.95459E+00-1.78563E-01-3.64661E+00 1.69836E-13-2.18214E-13
 -1      2192 6.87250E+00-5.30301E+00-1.19497E-01-6.67801E+00 3.01204E-13-3.21132E-14
 -1      2193 2.26810E+01-4.05053E+00 2.20951E-02-6.74733E+00 4.04343E-13 3.16608E-13
 -1      2194 3.44577E+01 2.81767E+00 2.26585E-01-2.02411E+00 6.35186E-14-2.19380E-13
 -1      2195 3.82898E+01 8.62885E+00 3.37635E-01-1.57444E-02-5.13034E-13-9.74845E-14
 -1      2196 3.77949E+01 8.06286E+00 3.30933E-01 8.05596E-02-5.20584E-13-1.00336E-13
 -1      2197 3.62667E+01 5.20325E+00 2.94649E-01 1.13340E+00-3.79113E-13-3.16969E-14
 -1      2198 2.63341E+01-2.52070E+00 4.56947E-02 5.65271E+00-3.25573E-13-5.88418E-14
 -1      2199 2.53481E+01-4.19283E+00 1.57693E-01 5.57934E+00-1.51823E-13 5.28744E-14
 -1      2200 2.86312E+01-2.89616E+00-1.74445E-01 3.74474E+00-2.40238E-13 1.48603E-13
 -1      2201 1.02147E+01-5.47608E+00-1.00341E-01 7.40146E+00-4.60743E-14-2.60597E-13
 -1      2202 3.74307E+00-4.62039E+00-8.30020E-02 4.77131E+00-5.70377E-14-4.08173E-13
 -1      2203 1.15866E+00-5.09828E+00-2.17408E-01 3.93957E-01-1.34451E-13-3.67761E-13
 -1      2204 3.94446E+00-5.83434E+00-2.26258E-01-3.61243E+00-1.03695E-13-4.35263E-13
 -1      2205 4.18787E+01 5.99187E+00 1.79043E-01-5.05128E-01 4.41647E-13-2.88880E-13
 -1      2206 2.28563E+01-6.53556E+00-4.46459E-02-5.09838E+00-1.60372E-13-5.62606E-13
 -1      2207 1.15983E+01-6.41669E+00-1.19883E-01-5.94982E+00-1.25233E-13-5.12479E-13
 -1      2208 3.29301E+01 1.20647E+00 1.42012E-01 2.86411E+00-2.96511E-13 5.06262E-14
 -1      2209 1.42277E+01-5.44221E+00-5.71938E-02-7.78655E+00 3.40616E-13 2.52487E-13
 -1      2210 1.94994E+01 3.60339E+00-1.12928E-02-5.30265E-01 1.29288E-13-4.39344E-13
 -1      2211 1.95490E+01 3.55076E+00-9.83454E-03-7.04173E-01 1.02146E-13-4.66592E-13
 -1      2212 1.96107E+01 3.44974E+00-1.30440E-02-8.59269E-01 7.97535E-14-4.64619E-13
 -1      2213 1.96882E+01 3.36150E+00-1.22095E-02-1.04168E+00 3.10187E-14-4.74242E-13
 -1      2214 1.97402E+01 3.12152E+00 3.88599E-04-7.06963E-01 8.85349E-14-4.42026E-13
 -1      2215 1.94232E+01 3.71300E+00-9.53729E-03 1.00405E-01 2.30161E-13-3.32866E-13
 -1      2216 1.94249E+01 3.71107E+00-9.13754E-03-6.34103E-02 2.04717E-13-3.69042E-13
 -1      2217 1.94561E+01 3.67660E+00-9.46897E-03 4.11146E-01 2.65262E-13-2.88079E-13
 -1      2218 1.94334E+01 3.69928E+00-9.87613E-03 2.46554E-01 2.35107E-13-3.12285E-13
 -1      2219 1.95763E+01 3.36152E+00-1.34985E-04 1.62973E-01 2.26412E-13-3.10093E-13
 -1      2220 1.95389E+01 3.57471E+00-1.01948E-02 7.21876E-01 3.06396E-13-2.19830E-13
 -1      2221 1.94904E+01 3.62461E+00-1.12353E-02 5.55204E-01 2.82051E-13-2.57593E-13
 -1      2222 1.96238E+01 3.29905E+00 3.41987E-04 4.42756E-01 2.52630E-13-2.57519E-13
 -1      2223 1.96832E+01 3.38714E+00-1.22738E-02 1.04735E+00 3.55431E-13-1.25015E-13
 -1      2224 1.96022E+01 3.47595E+00-1.32546E-02 8.69652E-01 3.28147E-13-1.77624E-13
 -1      2225 1.97275E+01 3.15595E+00 1.11443E-03 7.22405E-01 2.96893E-13-1.76215E-13
 -1      2226 1.98999E+01 3.08301E+00-1.72322E-02 1.37839E+00 3.76950E-13-2.29573E-14
 -1      2227 1.97816E+01 3.23015E+00-1.57066E-02 1.19415E+00 3.60173E-13-9.01015E-14
 -1      2228 1.98955E+01 2.91113E+00 2.36855E-03 1.00087E+00 3.37936E-13-9.60512E-14
 -1      2229 2.02115E+01 2.59274E+00-2.67222E-02 1.67896E+00 3.80462E-13 1.08297E-13
 -1      2230 2.00468E+01 2.84798E+00-1.70643E-02 1.50773E+00 3.70591E-13 3.40908E-14
 -1      2231 2.01316E+01 2.53369E+00 4.88441E-03 1.25358E+00 3.52700E-13 1.91557E-15
 -1      2232 2.06440E+01 1.78478E+00-1.83660E-02 1.72549E+00 3.30352E-13 2.96953E-13
 -1      2233 2.03935E+01 2.21818E+00-9.84216E-03 1.66740E+00 3.57239E-13 1.73738E-13
 -1      2234 2.04050E+01 1.91913E+00 7.85139E-03 1.33579E+00 3.41517E-13 1.27242E-13
 -1      2235 2.05176E+01 1.13528E+00 2.09536E-03 1.12367E+00 2.99824E-13 2.85994E-13
 -1      2236 2.77883E+01-6.17076E+00-1.68102E-01 3.21546E+00 6.32827E-14-2.43860E-13
 -1      2237 2.40252E+01-6.14819E+00 3.62517E-02 4.24698E+00-1.99563E-14-2.15175E-13
 -1      2238 2.04843E+01 8.68843E-01 1.27047E-02-9.05116E-01-1.68514E-13-3.68401E-13
 -1      2239 2.02927E+01 6.47301E-01-3.15015E-03-5.89107E-01-1.27742E-13-3.57680E-13
 -1      2240 2.02376E+01 4.90631E-01 1.56469E-02-3.62005E-01-1.14717E-13-3.20132E-13
 -1      2241 2.01206E+01 3.67826E-01 7.43166E-04-1.82223E-01-9.86368E-14-3.11404E-13
 -1      2242 2.03350E+01 7.74708E-01-1.77959E-03-5.70870E-01-1.16355E-13-3.44719E-13
 -1      2243 2.00737E+01 2.83218E-01 1.08924E-02-3.41932E-02-8.93463E-14-2.79244E-13
 -1      2244 2.00210E+01 2.11001E-01 1.04651E-03 7.17308E-02-7.98602E-14-2.94752E-13
 -1      2245 2.02026E+01 4.45830E-01-4.52565E-03-1.66141E-01-7.83073E-14-2.95752E-13
 -1      2246 1.99985E+01 1.58909E-01 6.68922E-03 1.64044E-01-8.36488E-14-2.83605E-13
 -1      2247 1.99922E+01 1.11774E-01 7.42646E-04 2.23909E-01-6.63824E-14-2.78387E-13
 -1      2248 2.01205E+01 2.55246E-01-4.23992E-03 9.55998E-02-8.30939E-14-2.68925E-13
 -1      2249 1.99936E+01 7.51289E-02 4.10029E-03 2.76282E-01-3.30619E-14-2.89899E-13
 -1      2250 2.00167E+01 3.94967E-02 8.14045E-05 3.04144E-01-2.92339E-15-2.75935E-13
 -1      2251 2.00931E+01 1.29970E-01-3.55294E-03 2.54693E-01-5.92766E-14-2.43277E-13
 -1      2252 2.00384E+01 9.02552E-03 2.63152E-03 3.25650E-01-2.28375E-14-3.08997E-13
 -1      2253 2.00775E+01-2.31224E-02-8.89050E-04 3.27679E-01-2.58317E-14-2.96966E-13
 -1      2254 2.01121E+01 3.57099E-02-2.79050E-03 3.38116E-01-3.36329E-14-2.39245E-13
 -1      2255 2.01152E+01-5.29038E-02 1.83762E-03 3.21823E-01-3.46003E-14-2.85253E-13
 -1      2256 2.01591E+01-8.63072E-02-2.14624E-03 2.99532E-01-5.57621E-14-2.95806E-13
 -1      2257 2.01676E+01-4.83841E-02-2.12539E-03 3.59454E-01-3.98078E-14-2.77547E-13
 -1      2258 2.02087E+01-1.18320E-01 1.42189E-03 2.66091E-01-8.86474E-14-2.90701E-13
 -1      2259 2.02473E+01-1.54926E-01-3.60749E-03 2.18500E-01-1.26981E-13-3.18630E-13
 -1      2260 2.02501E+01-1.34325E-01-1.53839E-03 3.22590E-01-9.40716E-14-2.71996E-13
 -1      2261 2.03035E+01-1.89365E-01 1.13170E-03 1.55333E-01-1.35472E-13-2.79645E-13
 -1      2262 2.03271E+01-2.27690E-01-5.06841E-03 8.11285E-02-8.92389E-14-2.90914E-13
 -1      2263 2.03497E+01-2.26773E-01-9.15939E-04 2.25300E-01-9.73632E-14-2.86959E-13
 -1      2264 2.03828E+01-2.61156E-01 7.06126E-04-1.33907E-02-6.60051E-14-2.78624E-13
 -1      2265 2.03818E+01-2.95224E-01-6.14755E-03-1.13153E-01-6.14413E-14-2.67815E-13
 -1      2266 2.04548E+01-3.21608E-01-9.89441E-05 6.35458E-02-8.55655E-14-2.42029E-13
 -1      2267 2.04264E+01-3.19847E-01-1.18747E-04-2.36712E-01-4.49953E-14-2.42750E-13
 -1      2268 2.03925E+01-3.38629E-01-6.27934E-03-3.55325E-01-3.89151E-14-2.22879E-13
 -1      2269 2.05488E+01-4.03505E-01 1.06214E-03-1.62539E-01-3.28454E-14-2.10498E-13
 -1      2270 2.04117E+01-3.42242E-01-1.52021E-03-4.97395E-01-7.29538E-15-2.11906E-13
 -1      2271 2.03396E+01-3.31010E-01-4.82998E-03-6.19351E-01-1.14774E-14-1.52980E-13
 -1      2272 2.06092E+01-4.44901E-01 2.58937E-03-4.40625E-01-7.49747E-15-1.64795E-13
 -1      2273 2.03178E+01-2.99832E-01-3.39737E-03-7.57280E-01-8.29350E-14-1.44923E-13
 -1      2274 2.02087E+01-2.45063E-01-1.43359E-03-8.56994E-01-6.61487E-14-1.47933E-13
 -1      2275 2.06087E+01-4.09890E-01 4.18700E-03-7.37278E-01-5.18798E-14-9.90675E-14
 -1      2276 2.01354E+01-1.70081E-01-5.17762E-03-9.55407E-01-7.91309E-14-1.48127E-13
 -1      2277 2.00000E+01-6.82074E-02 3.48721E-03-1.00053E+00-7.12350E-14-1.49560E-13
 -1      2278 2.05229E+01-2.66780E-01 5.07694E-03-9.92229E-01-7.02626E-14-2.35565E-14
 -1      2279 1.98799E+01 4.58459E-02-5.77009E-03-1.01821E+00-1.06295E-13-1.94372E-13
 -1      2280 1.97399E+01 1.79227E-01 8.39666E-03-9.79566E-01-5.66579E-14-1.99363E-13
 -1      2281 2.03453E+01-9.57180E-03 4.14383E-03-1.12352E+00-1.46982E-13-5.17911E-14
 -1      2282 1.96008E+01 3.07502E-01-4.02318E-03-8.85897E-01 3.22492E-14-2.57921E-13
 -1      2283 1.94853E+01 4.35640E-01 1.10497E-02-7.52401E-01 4.52190E-14-2.18597E-13
 -1      2284 2.01048E+01 3.20928E-01 8.04447E-04-1.05143E+00-4.80031E-14-8.02643E-14
 -1      2285 1.93742E+01 5.37290E-01 3.10281E-04-5.48056E-01 7.20734E-15-2.41320E-13
 -1      2286 1.93121E+01 6.14686E-01 9.89999E-03-3.39027E-01 3.10082E-16-2.74401E-13
 -1      2287 1.98709E+01 6.34370E-01-3.95544E-03-7.39410E-01 2.33425E-14-1.04742E-13
 -1      2288 1.92744E+01 6.50986E-01 5.85505E-03-6.65856E-02-2.13987E-14-2.92711E-13
 -1      2289 1.92832E+01 6.46856E-01 5.42548E-03 1.69521E-01-5.09003E-14-3.35716E-13
 -1      2290 1.97314E+01 8.22395E-01-7.38514E-03-2.31636E-01-2.57077E-14-1.52319E-13
 -1      2291 1.93363E+01 6.03156E-01 1.00324E-02 4.38163E-01-6.30312E-15-4.06488E-13
 -1      2292 1.94149E+01 5.19741E-01-6.19268E-05 6.41806E-01 7.36694E-14-3.93963E-13
 -1      2293 1.97465E+01 8.12373E-01-7.21182E-03 3.46944E-01-6.35765E-14-2.62538E-13
 -1      2294 1.95371E+01 4.14640E-01 1.07296E-02 8.36844E-01 9.95111E-14-4.05629E-13
 -1      2295 1.96668E+01 2.85996E-01-4.01704E-03 9.62542E-01 6.22319E-14-3.15553E-13
 -1      2296 1.99121E+01 6.09887E-01-3.47011E-03 8.40095E-01 7.19973E-14-3.52675E-13
 -1      2297 1.98112E+01 1.59832E-01 7.74266E-03 1.04662E+00 5.89138E-14-3.13321E-13
 -1      2298 1.99632E+01 3.14062E-02-5.33098E-03 1.07922E+00 6.57175E-14-2.80053E-13
 -1      2299 2.01623E+01 2.94757E-01 1.21657E-03 1.13118E+00 9.40507E-14-2.87627E-13
 -1      2300 2.00848E+01-7.64978E-02 2.76558E-03 1.05646E+00-1.72376E-14-3.03457E-13
 -1      2301 2.02310E+01-1.70461E-01-4.46229E-03 1.00996E+00-3.75265E-14-3.36800E-13
 -1      2302 2.04103E+01-2.41384E-02 4.29805E-03 1.18741E+00-1.83562E-14-3.00022E-13
 -1      2303 2.03051E+01-2.37968E-01-2.01053E-03 9.13148E-01-9.47712E-15-4.05190E-13
 -1      2304 2.04256E+01-2.84748E-01-2.59044E-03 8.17620E-01 6.84462E-14-4.27562E-13
 -1      2305 2.05916E+01-2.62389E-01 4.95024E-03 1.05260E+00-5.39664E-14-4.26541E-13
 -1      2306 2.04501E+01-3.09455E-01-5.17191E-03 6.87546E-01 9.49735E-14-4.71657E-13
 -1      2307 2.05356E+01-3.14571E-01-7.48363E-04 5.74514E-01 6.78042E-14-4.06653E-13
 -1      2308 2.06827E+01-3.86081E-01 3.93118E-03 8.07961E-01 7.49011E-14-5.29290E-13
 -1      2309 2.05217E+01-3.06722E-01-6.41504E-03 4.44583E-01 1.33560E-13-3.70320E-13
 -1      2310 2.05720E+01-2.84492E-01 5.47546E-04 3.37890E-01 8.54877E-14-2.30809E-13
 -1      2311 2.06929E+01-4.06143E-01 2.38162E-03 5.32548E-01 1.12605E-13-4.57590E-13
 -1      2312 2.05351E+01-2.58222E-01-6.17272E-03 2.28314E-01-7.73953E-14-1.42465E-13
 -1      2313 2.05553E+01-2.23500E-01 1.20204E-03 1.41439E-01-3.32102E-15-8.56100E-14
 -1      2314 2.06471E+01-3.56484E-01 1.01354E-03 2.81764E-01 7.02416E-14-3.84385E-13
 -1      2315 2.05084E+01-1.90993E-01-5.08558E-03 6.03074E-02 1.43791E-14-1.97327E-14
 -1      2316 2.05061E+01-1.54854E-01 1.36987E-03-2.15475E-03 8.29390E-14-5.39455E-14
 -1      2317 2.05707E+01-2.73517E-01 8.28945E-05 8.38330E-02 2.20052E-14-2.06583E-14
 -1      2318 2.04580E+01-1.24129E-01-3.69847E-03-5.50215E-02 7.78306E-14-1.68609E-13
 -1      2319 2.04406E+01-9.29400E-02 1.25528E-03-9.43463E-02 8.96581E-15-1.30083E-13
 -1      2320 2.04835E+01-1.85065E-01-4.30067E-04-5.41512E-02-1.38355E-14-1.17451E-13
 -1      2321 2.03963E+01-6.79940E-02-2.36695E-03-1.23476E-01-3.96980E-14-1.30225E-13
 -1      2322 2.03704E+01-4.42855E-02 1.02202E-03-1.43905E-01 6.90808E-15-8.06852E-14
 -1      2323 2.03977E+01-1.07560E-01-6.50020E-04-1.37815E-01 2.97527E-14-1.02683E-13
 -1      2324 2.03319E+01-2.62313E-02-1.26945E-03-1.55305E-01-4.26692E-14-7.64945E-14
 -1      2325 2.03024E+01-1.00800E-02 7.71548E-04-1.61950E-01-2.59959E-14 7.80707E-16
 -1      2326 2.03198E+01-4.78951E-02-7.00089E-04-1.78466E-01 1.45118E-14-4.11948E-14
 -1      2327 2.02702E+01 1.62973E-03-4.60350E-04-1.61417E-01-7.36669E-14-4.02357E-14
 -1      2328 2.02407E+01 1.13866E-02 5.53335E-04-1.59033E-01-1.38308E-13-9.04573E-14
 -1      2329 2.02525E+01-6.71892E-03-6.66658E-04-1.88494E-01-8.29405E-14 1.90961E-14
 -1      2330 2.02145E+01 1.80229E-02 7.74102E-05-1.51367E-01-1.48138E-13 1.20717E-15
 -1      2331 2.01871E+01 2.29591E-02 3.83463E-04-1.43799E-01-1.50958E-13 5.05479E-15
 -1      2332 2.01961E+01 1.85682E-02-5.99872E-04-1.78916E-01-1.08377E-13 1.22354E-13
 -1      2333 2.01662E+01 2.59332E-02 3.93390E-04-1.32580E-01-1.37478E-13-9.83778E-14
 -1      2334 2.01421E+01 2.75653E-02 2.60510E-04-1.22637E-01 3.92732E-14-2.36077E-13
 -1      2335 2.01499E+01 3.17268E-02-5.24673E-04-1.58407E-01-1.84682E-13 4.93116E-14
 -1      2336 2.01257E+01 2.81301E-02 5.45292E-04-1.10312E-01 1.37269E-13-1.83646E-13
 -1      2337 2.01054E+01 2.77089E-02 1.75979E-04-9.98682E-02 2.25158E-13-1.15650E-13
 -1      2338 2.01127E+01 3.64714E-02-4.51581E-04-1.33192E-01 4.95506E-14 9.95160E-14
 -1      2339 2.00926E+01 2.68471E-02 5.86024E-04-8.79597E-02 3.96782E-13-8.96302E-14
 -1      2340 2.00762E+01 2.53039E-02 1.19975E-04-7.81423E-02 4.71601E-13 2.48103E-15
 -1      2341 2.00833E+01 3.59115E-02-3.84184E-04-1.07370E-01 3.66668E-13 6.39108E-14
 -1      2342 2.00664E+01 2.37202E-02 5.58328E-04-6.74879E-02 2.52235E-13-1.34198E-13
 -1      2343 2.00535E+01 2.16936E-02 8.37496E-05-5.88816E-02 3.61359E-15-2.34550E-13
 -1      2344 2.00603E+01 3.23910E-02-3.23282E-04-8.33750E-02 2.44269E-13-1.00269E-13
 -1      2345 2.00461E+01 1.98541E-02 4.93789E-04-4.98459E-02-2.59985E-14-2.71662E-13
 -1      2346 2.00363E+01 1.77469E-02 6.05084E-05-4.26713E-02-1.17346E-13-1.93540E-13
 -1      2347 2.00427E+01 2.75347E-02-2.68780E-04-6.24442E-02-4.23773E-14-2.10205E-13
 -1      2348 2.00309E+01 1.59340E-02 4.14033E-04-3.53180E-02-2.46629E-13-3.58872E-14
 -1      2349 2.00237E+01 1.39748E-02 4.53534E-05-2.95705E-02-1.91248E-13 8.55740E-14
 -1      2350 2.00295E+01 2.23808E-02-2.20406E-04-4.50153E-02-6.06702E-14-4.83718E-14
 -1      2351 2.00197E+01 1.23395E-02 3.32736E-04-2.37901E-02-1.27185E-13 1.58940E-13
 -1      2352 2.00146E+01 1.06371E-02 3.48875E-05-1.93421E-02 7.02686E-15 3.14482E-13
 -1      2353 2.00197E+01 1.75288E-02-1.77888E-04-3.10350E-02-9.71745E-15 9.73212E-14
 -1      2354 2.00118E+01 9.24204E-03 2.57726E-04-1.49403E-02 2.85997E-14 2.10210E-13
 -1      2355 2.00084E+01 7.82725E-03 2.68070E-05-1.16105E-02 1.63859E-13 3.60395E-14
 -1      2356 2.00126E+01 1.32732E-02-1.40944E-04-2.01818E-02-1.01007E-13 7.90180E-14
 -1      2357 2.00065E+01 6.67926E-03 1.92825E-04-8.36699E-03 3.66653E-13-8.39907E-15
 -1      2358 2.00043E+01 5.53541E-03 1.95753E-05-5.96465E-03 4.70256E-13-1.77229E-14
 -1      2359 2.00077E+01 9.70823E-03-1.09171E-04-1.20193E-02 1.94747E-13-1.90843E-13
 -1      2360 2.00030E+01 4.60764E-03 1.39378E-04-3.66808E-03 2.25421E-13-1.11687E-13
 -1      2361 2.00018E+01 3.68915E-03 1.17896E-05-2.02046E-03 1.59229E-13-9.04081E-14
 -1      2362 2.00043E+01 6.80426E-03-8.21885E-05-6.09323E-03 2.78467E-13-2.60474E-13
 -1      2363 2.00010E+01 2.93264E-03 9.70870E-05-4.90659E-04 1.00758E-13-6.28398E-14
 -1      2364 2.00004E+01 2.18152E-03 4.86858E-06 5.38717E-04-3.41271E-14-2.99812E-14
 -1      2365 2.00022E+01 4.45429E-03-6.00272E-05-1.98867E-03 1.32649E-13-2.45299E-13
 -1      2366 2.00000E+01 1.51962E-03 5.99124E-05 1.44691E-03-4.54197E-14-8.05922E-14
 -1      2367 1.99998E+01 8.98966E-04 6.14257E-06 1.94552E-03-5.36755E-14-9.81449E-16
 -1      2368 2.00009E+01 2.52503E-03-4.04164E-05 6.33075E-04 1.67241E-14-2.23083E-13
 -1      2369 2.02951E+01 6.34049E-01 3.85777E-04 4.88641E-01 2.44812E-13 2.53870E-13
 -1      2370 2.04751E+01 8.21284E-01 8.50385E-03 8.04359E-01 2.70119E-13 2.74921E-13
 -1      2371 2.04487E+01 1.20895E+00 5.02890E-03 9.58352E-01 2.83609E-13 1.81079E-13
 -1      2372 2.00838E+01 2.55370E-01 4.96065E-03-4.08799E-01 1.27094E-13 1.34630E-13
 -1      2373 2.00598E+01 2.73706E-01 5.90441E-03-3.00085E-01 1.35870E-13 1.72812E-13
 -1      2374 2.01489E+01 2.59828E-01 6.39056E-03-6.22532E-01 3.59001E-14 1.46997E-13
 -1      2375 2.00766E+01 2.50772E-01 2.62566E-03-5.21469E-01 8.99734E-14 1.30700E-13
 -1      2376 2.01153E+01 3.43847E-01-3.02301E-03-4.83032E-01 1.26810E-13 8.66473E-14
 -1      2377 2.02677E+01 3.10622E-01 8.16941E-03-8.45174E-01 6.23585E-14 9.36255E-14
 -1      2378 2.01540E+01 2.77505E-01 9.28254E-05-7.33895E-01 4.39582E-14 1.19246E-13
 -1      2379 2.01216E+01 3.61437E-01-1.52612E-03-7.20829E-01 7.99873E-14 6.14660E-14
 -1      2380 2.04256E+01 4.05219E-01 1.00407E-02-1.10848E+00 6.02025E-14 2.58332E-14
 -1      2381 2.02748E+01 3.49102E-01-2.12844E-03-9.71440E-01 7.37051E-14 7.42387E-14
 -1      2382 2.01490E+01 4.39472E-01 4.20369E-04-9.68902E-01 8.92910E-14-3.40586E-14
 -1      2383 2.06012E+01 5.33950E-01 1.22396E-02-1.42144E+00 6.06711E-14 2.48299E-15
 -1      2384 2.04207E+01 4.59983E-01-4.50589E-03-1.25609E+00 4.98178E-14 4.26189E-15
 -1      2385 2.01745E+01 5.70760E-01 3.11158E-03-1.24961E+00 9.28623E-14-1.00733E-13
 -1      2386 2.07978E+01 6.98040E-01 1.49571E-02-1.83853E+00 6.18151E-14-7.19553E-14
 -1      2387 2.05730E+01 6.07594E-01-7.02361E-03-1.61688E+00 8.27550E-14-2.20749E-14
 -1      2388 2.01716E+01 7.48814E-01 5.42889E-03-1.59524E+00 9.69463E-14-1.23096E-13
 -1      2389 2.09923E+01 8.48180E-01 1.67502E-02-2.35356E+00-3.08824E-15-9.34490E-14
 -1      2390 2.07273E+01 7.72465E-01-9.36458E-03-2.08586E+00 2.16216E-14-9.20816E-14
 -1      2391 2.01090E+01 9.58601E-01 8.79201E-03-2.03622E+00 4.59758E-14-1.23017E-13
 -1      2392 2.11998E+01 8.72479E-01 1.86666E-02-2.94423E+00 1.73316E-14-1.07791E-13
 -1      2393 2.08782E+01 8.80657E-01-9.70687E-03-2.65734E+00-1.31527E-14-1.46069E-13
 -1      2394 1.99587E+01 1.12466E+00 1.14459E-02-2.57887E+00 2.58031E-14-2.01172E-13
 -1      2395 2.15194E+01 5.31035E-01 2.38403E-02-3.52757E+00 5.59843E-14-1.07148E-13
 -1      2396 2.10845E+01 7.66330E-01-1.81791E-03-3.29606E+00 5.48148E-14-7.52354E-14
 -1      2397 1.97321E+01 1.07715E+00 1.05342E-02-3.22487E+00-9.72302E-15-2.68468E-13
 -1      2398 2.22471E+01-5.64978E-01 4.16593E-02-3.90464E+00-9.95731E-15-1.08730E-13
 -1      2399 2.15615E+01 1.09663E-01 2.93181E-02-3.88111E+00 3.83339E-14-8.70554E-14
 -1      2400 1.95650E+01 4.69211E-01-2.25623E-04-3.95136E+00 3.33726E-14-1.91227E-13
 -1      2401 2.39077E+01-2.61412E+00 7.30052E-02-3.71305E+00-1.85629E-13-1.13442E-13
 -1      2402 2.27776E+01-1.47447E+00 9.31474E-02-4.11723E+00-5.40609E-14-1.00968E-13
 -1      2403 1.98671E+01-1.08141E+00-1.34937E-03-4.65413E+00-5.75512E-14-1.73916E-13
 -1      2404 2.66413E+01-4.80699E+00 7.30700E-02-2.67796E+00-2.61097E-13-1.77934E-13
 -1      2405 2.51702E+01-3.77653E+00 1.42413E-01-3.50807E+00-2.71026E-13-1.26794E-13
 -1      2406 2.11859E+01-3.65549E+00-6.53236E-02-4.94084E+00-1.87683E-13-2.73871E-13
 -1      2407 2.91946E+01-4.69025E+00 1.27777E-01 1.12866E+00 3.15720E-14-1.43968E-13
 -1      2408 3.11408E+01-4.43108E+00 3.79320E-02-2.84904E-01 1.59789E-13-1.93012E-13
 -1      2409 2.23553E+01 2.50344E-01 2.08033E-02 3.57235E+00-8.39823E-14 9.17961E-14
 -1      2410 2.29957E+01-2.52621E-01 2.79892E-02 3.61198E+00-2.56982E-14 8.06005E-14
 -1      2411 2.17844E+01 7.39474E-01-1.44289E-03 3.00040E+00 3.20708E-14 9.57878E-14
 -1      2412 2.22527E+01 5.72354E-01 1.88298E-02 3.23897E+00-5.11414E-14 7.76855E-14
 -1      2413 2.04181E+01 5.84252E-01 2.39477E-03 3.67912E+00-1.90056E-14 2.00929E-13
 -1      2414 2.14545E+01 7.93118E-01-6.82477E-03 2.36431E+00-1.56125E-16 7.04473E-14
 -1      2415 2.18157E+01 8.03084E-01 1.64891E-02 2.65065E+00 9.93953E-15 6.36188E-14
 -1      2416 2.04293E+01 1.03380E+00 9.21236E-03 2.97681E+00-2.39609E-16 2.40613E-13
 -1      2417 2.12012E+01 6.78235E-01-6.16979E-03 1.79438E+00 7.40710E-14 1.78547E-13
 -1      2418 2.14928E+01 7.49677E-01 1.55431E-02 2.05635E+00 1.02987E-13 1.75784E-13
 -1      2419 2.05068E+01 1.03061E+00 9.91581E-03 2.32448E+00-9.75348E-15 2.70306E-13
 -1      2420 2.09776E+01 5.26594E-01-4.32889E-03 1.33049E+00-1.70097E-13 1.82218E-13
 -1      2421 2.12134E+01 6.06178E-01 1.39723E-02 1.54375E+00-6.55379E-15 1.11495E-13
 -1      2422 2.05395E+01 8.60790E-01 7.67088E-03 1.77056E+00 6.23074E-14 4.49224E-13
 -1      2423 2.07791E+01 3.90002E-01-2.40004E-03 9.72268E-01-1.70093E-13 1.04993E-13
 -1      2424 2.09655E+01 4.58176E-01 1.17553E-02 1.13556E+00-2.86908E-13 1.13029E-13
 -1      2425 2.05178E+01 6.62830E-01 4.86068E-03 1.32461E+00-1.84715E-13 3.85517E-13
 -1      2426 2.06147E+01 2.86323E-01-1.40065E-03 7.15578E-01 1.37572E-13 1.16161E-13
 -1      2427 2.07551E+01 3.37805E-01 9.48471E-03 8.31960E-01 5.29967E-14 2.98985E-15
 -1      2428 2.04618E+01 4.92374E-01 2.14945E-03 9.85266E-01 2.53964E-15 9.13841E-14
 -1      2429 2.04684E+01 2.04099E-01-8.83957E-04 5.14878E-01 1.55820E-13 2.68944E-13
 -1      2430 2.05814E+01 2.43860E-01 7.18456E-03 6.04344E-01 1.75806E-13 2.45069E-13
 -1      2431 2.03915E+01 3.59636E-01 1.19098E-03 7.27461E-01 1.07252E-13 1.05157E-13
 -1      2432 2.03508E+01 1.44932E-01-4.31750E-04 3.68755E-01 7.66029E-14 7.77354E-14
 -1      2433 2.04359E+01 1.73565E-01 5.38738E-03 4.33264E-01 1.33072E-13 1.76461E-13
 -1      2434 2.03171E+01 2.57093E-01 2.79196E-04 5.28968E-01 1.69734E-13 3.17314E-13
 -1      2435 2.02579E+01 1.02824E-01-1.71626E-04 2.62811E-01 7.35647E-14 2.90730E-13
 -1      2436 2.03213E+01 1.23199E-01 3.97007E-03 3.09150E-01 2.89005E-14 1.56398E-13
 -1      2437 2.02485E+01 1.82946E-01-2.13288E-04 3.82363E-01 1.81553E-14 2.35291E-13
 -1      2438 2.01861E+01 7.30274E-02-2.70987E-05 1.86165E-01 9.57406E-14 2.95060E-13
 -1      2439 2.02328E+01 8.74633E-02 2.89945E-03 2.19412E-01 1.55239E-13 2.72236E-13
 -1      2440 2.01896E+01 1.30064E-01-4.33879E-04 2.74706E-01 1.02304E-13 4.79969E-13
 -1      2441 2.01317E+01 5.19904E-02 9.12061E-05 1.30785E-01 8.00611E-14 9.57358E-14
 -1      2442 2.01656E+01 6.21496E-02 2.10182E-03 1.54615E-01 9.25267E-14 8.67460E-14
 -1      2443 2.01412E+01 9.25358E-02-4.98527E-04 1.95912E-01 2.54157E-13 9.63164E-14
 -1      2444 2.00928E+01 3.76475E-02 1.11320E-04 9.24890E-02-3.59647E-14-3.46848E-14
 -1      2445 2.01164E+01 4.47071E-02 1.54764E-03 1.08935E-01 4.54945E-14 7.36997E-14
 -1      2446 2.01035E+01 6.62095E-02-5.67388E-04 1.39458E-01 6.92094E-14-8.25003E-14
 -1      2447 2.00624E+01 2.67091E-02 8.67836E-05 6.31312E-02-9.57753E-14-1.13481E-13
 -1      2448 2.00801E+01 3.19790E-02 1.11243E-03 7.55927E-02-6.97984E-14-7.78146E-14
 -1      2449 2.00743E+01 4.77381E-02-4.23362E-04 9.82489E-02-6.59701E-14-1.31826E-14
 -1      2450 2.00406E+01 1.89149E-02 8.11469E-05 4.20516E-02-3.21241E-13-9.88671E-14
 -1      2451 2.00530E+01 2.27175E-02 8.09043E-04 5.09515E-02-2.13436E-13-1.58711E-13
 -1      2452 2.00515E+01 3.39211E-02-3.57967E-04 6.73108E-02-1.57083E-13-1.55883E-13
 -1      2453 2.00252E+01 1.33108E-02 7.13517E-05 2.69818E-02-7.92464E-14-2.46502E-13
 -1      2454 2.00337E+01 1.60486E-02 5.80017E-04 3.33036E-02-2.14115E-13-1.94758E-13
 -1      2455 2.00347E+01 2.40153E-02-2.91195E-04 4.49358E-02-2.21944E-13-1.95030E-13
 -1      2456 2.00147E+01 9.27101E-03 6.02846E-05 1.62989E-02-4.94830E-14-2.27192E-13
 -1      2457 2.00203E+01 1.12450E-02 4.12339E-04 2.07482E-02-5.90477E-14-2.78596E-13
 -1      2458 2.00225E+01 1.68809E-02-2.30303E-04 2.88619E-02-1.01814E-13-4.47534E-13
 -1      2459 2.00078E+01 6.35775E-03 5.37413E-05 8.82632E-03-2.60997E-15 2.71290E-13
 -1      2460 2.00114E+01 7.76962E-03 2.87694E-04 1.19081E-02-6.64049E-14-6.10790E-14
 -1      2461 2.00139E+01 1.17331E-02-1.77084E-04 1.74266E-02-2.29123E-13-6.65880E-15
 -1      2462 2.00037E+01 4.32189E-03 4.06596E-05 3.91317E-03-1.30443E-14 3.47523E-13
 -1      2463 2.00057E+01 5.32393E-03 2.01003E-04 5.92460E-03 1.08739E-13 3.66373E-13
 -1      2464 2.00082E+01 8.03772E-03-1.45359E-04 9.55375E-03-8.01026E-14 5.04422E-14
 -1      2465 2.00011E+01 2.70494E-03 2.34480E-05 4.51303E-04 7.01433E-14 2.54009E-13
 -1      2466 2.00022E+01 3.48910E-03 1.36247E-04 1.83375E-03-9.09317E-15 3.28328E-13
 -1      2467 2.00044E+01 5.38560E-03-9.89919E-05 4.14601E-03 3.87643E-14 6.25878E-14
 -1      2468 1.99998E+01 1.45719E-03 1.03020E-05-1.66150E-03 3.65606E-13 2.41933E-13
 -1      2469 2.00002E+01 2.07879E-03 9.05922E-05-8.55057E-04 2.65698E-13 2.31322E-13
 -1      2470 2.00020E+01 3.30399E-03-7.00720E-05 4.66420E-04 1.88677E-13-7.26412E-14
 -1      2471 1.99993E+01 4.11736E-04 6.82354E-06-2.68632E-03 3.21573E-13 4.02686E-14
 -1      2472 1.99993E+01 9.14619E-04 5.04141E-05-2.37097E-03 2.68242E-13 1.24619E-13
 -1      2473 2.00007E+01 1.67345E-03-4.16596E-05-1.74828E-03 4.61519E-13 7.15272E-14
 -1      2474 1.99995E+01-5.35686E-04-8.77965E-06-2.82492E-03 3.79114E-13-2.10639E-13
 -1      2475 1.99993E+01-1.59048E-05 1.36186E-05-2.90027E-03 3.87728E-13 2.41217E-14
 -1      2476 2.00003E+01 3.69015E-04-1.85758E-05-2.69945E-03 3.48857E-13-3.66931E-13
 -1      2477 2.00002E+01-9.24838E-04-8.97192E-08-2.82733E-03 3.18770E-13-4.24505E-13
 -1      2478 9.74796E+00-4.41231E+00 1.83412E-02 5.78411E+00 1.57652E-14 2.01672E-13
 -1      2479 6.55759E+00-3.62148E+00 8.50543E-02 4.23747E+00 3.67206E-14 1.00808E-13
 -1      2480 2.00005E+01 5.32794E-04-1.65065E-05-1.09340E-04-1.27671E-13 6.71115E-14
 -1      2481 2.00007E+01 4.60254E-04 1.98449E-05-3.63091E-04-1.38941E-13-2.26161E-13
 -1      2482 1.94532E+01-6.02989E+00-3.62533E-02 5.96887E+00-6.08957E-14-2.07334E-14
 -1      2483 1.45271E+01-5.31676E+00 7.43058E-02 6.01887E+00-5.06262E-14 2.13107E-13
 -1      2484 2.00003E+01 9.43532E-04-1.24681E-05 2.19140E-04-1.87444E-13 5.69475E-14
 -1      2485 2.00004E+01 8.68229E-04 1.11431E-05 6.03038E-05-2.88141E-13 1.44268E-13
 -1      2486 2.00007E+01 3.14102E-03 2.41555E-05 1.59186E-04-2.10235E-13-5.65043E-14
 -1      2487 2.00002E+01 1.15270E-03-4.52979E-06 3.89206E-04-1.35515E-13 4.29245E-14
 -1      2488 2.00002E+01 1.10095E-03 2.40049E-07 2.87249E-04-1.53471E-13-1.24702E-13
 -1      2489 2.00004E+01 3.61271E-03 2.91064E-05 3.52381E-04-1.88598E-13-6.57473E-14
 -1      2490 2.00002E+01 1.12200E-03 5.07493E-06 5.23203E-04-5.90236E-14 4.73667E-13
 -1      2491 2.00001E+01 1.10342E-03-9.52797E-06 4.22673E-04-2.63982E-13 4.10970E-13
 -1      2492 2.00003E+01 3.71333E-03 2.95914E-05 3.99623E-04-1.25830E-13 1.29037E-13
 -1      2493 2.00003E+01 8.83296E-04 1.40521E-05 7.38144E-04 1.08944E-13-1.75327E-13
 -1      2494 2.00002E+01 8.83635E-04-1.60243E-05 5.93473E-04 7.16297E-14 7.82861E-14
 -1      2495 2.00004E+01 3.43327E-03 2.60599E-05 4.52550E-04-5.05288E-14 3.61215E-13
 -1      2496 2.00005E+01 5.00594E-04 1.82954E-05 1.11255E-03 2.64419E-13-2.06916E-14
 -1      2497 2.00004E+01 5.01454E-04-1.76909E-05 8.98508E-04 2.08948E-13-1.78476E-13
 -1      2498 2.00006E+01 2.83159E-03 1.77686E-05 6.46828E-04 9.03981E-14-1.83903E-13
 -1      2499 2.00006E+01 7.97697E-05 1.28692E-05 1.62311E-03 4.56880E-13 3.21733E-13
 -1      2500 2.00006E+01 6.22941E-05-1.18193E-05 1.36650E-03 2.87948E-13 4.57036E-13
 -1      2501 2.00008E+01 2.03410E-03 1.11947E-05 1.05717E-03 4.71389E-13 1.36221E-13
 -1      2502 2.00003E+01-2.30866E-04 5.26854E-06 2.11958E-03 1.97739E-13-1.13596E-13
 -1      2503 2.00005E+01-3.08277E-04-6.21157E-06 1.91890E-03 4.23807E-13-1.37271E-13
 -1      2504 2.00008E+01 1.17689E-03-9.87514E-06 1.60961E-03 6.63714E-13 1.76332E-13
 -1      2505 1.99996E+01-7.70711E-04 2.04394E-05 2.39008E-03 4.20499E-15 3.03171E-13
 -1      2506 3.33622E+01-3.34786E+00-1.00938E-01 1.87241E+00-2.12712E-13-3.10585E-14
 -1      2507 2.94674E+00-2.93256E+00 8.29801E-02-2.56252E+00 1.32366E-13-1.89238E-13
 -1      2508 4.33761E+00-3.03392E+00 7.37093E-02-4.67272E+00 1.04611E-13-2.48301E-13
 -1      2509 2.00870E+01 3.06646E-01 3.94367E-03-1.67454E-01 1.48851E-13 1.75905E-13
 -1      2510 2.01208E+01 3.61073E-01 9.15184E-03-2.70635E-02 1.76218E-13 2.07387E-13
 -1      2511 2.01486E+01 3.96368E-01-4.03423E-03-2.19251E-01 1.53460E-13 1.22494E-13
 -1      2512 2.00009E+01-4.75086E-04-1.04878E-05-1.42759E-03-1.61485E-13-1.78852E-13
 -1      2513 2.00009E+01-4.37148E-04 2.06244E-05-1.79528E-03-3.31152E-14-2.98298E-13
 -1      2514 7.02187E+00-3.71910E+00 1.04729E-01-6.26280E+00 1.05888E-13-9.08995E-14
 -1      2515 9.85604E+00-4.21631E+00 4.01149E-02-7.52531E+00 2.04059E-13 1.37224E-13
 -1      2516 3.41031E+01 8.04770E+00-1.33369E-01 2.56349E-01-3.69649E-13-1.69711E-13
 -1      2517 3.46801E+01 8.34194E+00-1.06227E-01 3.17710E-02-4.86666E-13-9.43828E-14
 -1      2518 1.41173E+01-4.86174E+00 6.22493E-02 7.94316E+00 6.47815E-14-2.69645E-14
 -1      2519 1.03273E+01-4.11298E+00 1.12963E-01 7.30689E+00 1.27010E-13-1.80245E-13
 -1      2520 2.00008E+01-8.16135E-04-3.86530E-06-2.19814E-03 7.74720E-14-3.94859E-13
 -1      2521 2.00005E+01-6.85900E-04 8.56327E-06-2.47413E-03 2.33159E-13-2.94434E-13
 -1      2522 2.00006E+01 8.48507E-05 1.28154E-06-2.55734E-03 2.73350E-13-2.87824E-13
 -1      2523 2.00012E+01 6.79986E-04-2.60567E-08-1.83915E-03 1.69177E-13-4.79951E-13
 -1      2524 2.00008E+01 1.56493E-05-1.58510E-05-6.66403E-04-2.78316E-13-3.28495E-13
 -1      2525 2.00009E+01-1.71117E-05 2.33085E-05-1.01195E-03-2.22442E-13-2.67853E-14
 -1      2526 2.00012E+01 1.50108E-03 1.42132E-06-1.01105E-03-1.18015E-13-1.22911E-13
 -1      2527 2.00010E+01 2.38819E-03 1.51409E-05-2.89987E-04-1.92226E-13-1.20877E-13
 -1      2528 2.35288E+01-1.04656E+00 6.78181E-02 3.78091E+00-5.55840E-14-2.33823E-14
 -1      2529 2.45717E+01-2.04845E+00 4.95759E-02 3.37246E+00-7.16163E-14-3.30335E-14
 -1      2530 2.08211E+01-7.64197E-01-1.38638E-02 4.29810E+00-1.13329E-13 4.05856E-14
 -1      2531 2.57409E+01-2.96838E+00 1.29643E-01 3.13870E+00-8.11851E-14-8.92671E-14
 -1      2532 2.72883E+01-3.97783E+00 7.58469E-02 2.01490E+00-4.96547E-14-1.08386E-13
 -1      2533 2.47231E+01-5.29121E+00-1.69199E-01 3.89984E+00-4.90163E-14-1.42962E-13
 -1      2534 2.21719E+01-3.01591E+00-6.22134E-02 4.48172E+00-1.25483E-13-1.96926E-14
 -1      2535 4.03327E+00-2.65827E+00 9.91591E-02 2.22520E+00 8.07687E-14 1.72862E-13
 -1      2536 2.84077E+00-2.64471E+00 9.75069E-02-4.30996E-01 1.87836E-13-1.44329E-15
 -1      2537 1.94379E+01 3.68850E+00-1.01583E-02-2.11416E-01 1.83732E-13-3.91175E-13
 -1      2538 1.94632E+01 3.66270E+00-9.03765E-03-3.78574E-01 1.58937E-13-4.12130E-13
 -1      2539 1.96347E+01 3.27465E+00-1.93880E-04-4.11349E-01 1.33903E-13-4.06446E-13
 -1      2540 1.95804E+01 3.35286E+00-3.30845E-04-1.21458E-01 1.84707E-13-3.63323E-13
 -1      2541 2.01602E+01 4.19726E-01 3.55970E-03 1.12760E-01 2.03199E-13 1.99506E-13
 -1      2542 2.02559E+01 5.17300E-01 1.13774E-02 3.05237E-01 2.24523E-13 2.17852E-13
 -1      2543 2.03259E+01 7.52950E-01 1.52876E-04 4.34731E-01 2.53054E-13 1.34639E-13
 -1      2544 2.02221E+01 5.25579E-01-3.79380E-03 8.09501E-02 1.95297E-13 1.25149E-13
 -1      2545 3.70099E+01 1.07947E+00 2.59424E-01-2.79104E+00 4.48752E-13-2.61513E-13
 -1      2546 1.09219E+01-4.85822E+00 5.37203E-02-5.77869E+00-2.18020E-13-5.27800E-13
 -1      2547 1.54170E+01-5.46733E+00-2.95708E-02-6.37340E+00-1.46994E-13-4.97144E-13
 -1      2548 3.28384E+01 1.49741E+00-4.23718E-02 1.24278E+00-2.47330E-13 6.05072E-15
 -1      2549 3.08698E+01-4.27028E-01-6.22877E-02 1.90395E+00-2.54290E-13 5.69544E-14
 -1      2550 4.47062E+00-3.49596E+00 5.91772E-02-2.99259E+00-5.22082E-14-2.92766E-13
 -1      2551 6.97202E+00-3.93189E+00 3.53570E-02-4.85699E+00-1.14131E-13-4.25326E-13
 -1      2552 2.73660E+00-2.59703E+00 6.94009E-02 1.15567E+00-4.12170E-14-4.37317E-13
 -1      2553 3.06468E+00-3.07083E+00 7.78213E-02-1.20964E+00-2.48412E-14-3.28848E-13
 -1      2554 5.73474E+00-1.74643E+00 1.48944E-01-2.29662E+00-3.93019E-14-3.21854E-13
 -1      2555 6.50150E+00-2.71962E+00 1.01788E-01 5.59605E+00 8.24341E-14-3.05533E-13
 -1      2556 4.28691E+00-2.54451E+00 1.42034E-01 3.47498E+00 4.25771E-14-3.75922E-13
 -1      2557 2.07838E+01-5.15054E+00-2.14754E-02 7.01594E+00 3.54439E-14 1.69448E-14
 -1      2558 1.72146E+01-5.38801E+00 3.56662E-02 7.49582E+00 6.26443E-14-1.41163E-14
 -1      2559 1.69552E+01-4.76309E+00 1.28085E-01 7.47163E+00 2.01977E-13 2.49523E-14
 -1      2560 1.37582E+01-4.96893E+00 6.81597E-02-7.72351E+00 2.73004E-13 2.85799E-13
 -1      2561 1.76155E+01-5.09285E+00 1.62551E-03-7.83998E+00 2.79166E-13 2.60873E-13
 -1      2562 3.37945E+01 5.18241E+00-1.47452E-01-4.53505E-01-3.46889E-13 5.44564E-14
 -1      2563 3.34011E+01 3.46327E+00-5.68851E-02 2.37724E-01-3.18884E-13 2.67564E-14
 -1      2564 3.17712E+01 2.01972E+00-4.52404E-02-4.97689E-01-2.25958E-13 4.92939E-14
 -1      2565 3.46822E+01 8.00784E+00-1.00658E-01-2.84178E-01-4.35485E-13-4.05925E-14
 -1      2566 3.38713E+01 7.20120E+00-1.11391E-01-5.07312E-01-3.29681E-13 2.07612E-14
 -1      2567 3.19269E+01 8.11775E+00-5.44345E-02-2.99705E-01-3.43114E-13-3.88370E-14
 -1      2568 3.32926E+01 5.34912E+00-1.22428E-01 5.64684E-01-1.28564E-13-2.86771E-13
 -1      2569 3.37372E+01 6.66789E+00-1.54331E-01 6.20820E-01-2.50910E-13-2.19658E-13
 -1      2570 3.13588E+01 5.80495E-01-7.65766E-02-8.97673E-01 7.34690E-14-1.48770E-13
 -1      2571 3.28302E+01 2.88085E+00-1.48953E-01 6.31980E-02-3.52218E-14-2.55601E-13
 -1      2572 2.78791E+01-2.95085E+00-2.94511E-02-3.89535E+00 3.52759E-13 1.59872E-13
 -1      2573 3.00351E+01-1.63951E+00-1.21875E-01-2.82899E+00 2.22197E-13-7.54952E-15
 -1      2574 2.14580E+01-5.05288E+00 1.51596E-02-6.61884E+00 3.54244E-13 2.99594E-13
 -1      2575 2.52597E+01-4.12978E+00-3.86692E-02-5.73363E+00 3.80834E-13 3.59379E-13
 -1      2576 2.67822E+01-4.14274E+00 2.99586E-02-4.11824E+00 3.72508E-13 1.39749E-13
 -1      2577 3.52240E+01-2.41594E+00-1.10943E-01-2.38291E+00 3.69892E-13-1.63480E-13
 -1      2578 2.06041E+01 1.96298E+00-1.34069E-02-1.81562E+00-2.03405E-13-4.29042E-13
 -1      2579 2.04855E+01 1.22931E+00-5.23784E-03-1.19643E+00-1.98292E-13-4.00318E-13
 -1      2580 2.04397E+01 1.39199E+00 2.41436E-03-1.12508E+00-1.58135E-13-3.90024E-13
 -1      2581 2.03378E+01 2.37850E+00-8.10749E-03-1.73559E+00-1.63271E-13-4.51085E-13
 -1      2582 3.21282E+01-3.87687E+00 2.64220E-02-4.65967E-01 2.74711E-13-2.70339E-13
 -1      2583 1.99009E+01 2.87809E+00 1.58363E-03-9.99621E-01 6.18039E-15-4.54064E-13
 -1      2584 1.97832E+01 3.20848E+00-1.49232E-02-1.19377E+00-4.15748E-15-4.92790E-13
 -1      2585 1.98954E+01 3.06377E+00-1.68413E-02-1.38037E+00-4.48735E-14-5.03471E-13
 -1      2586 2.28902E+01-5.53400E+00 1.06804E-01 4.71288E+00-8.02136E-14-1.89703E-13
 -1      2587 3.15528E+01-4.38303E+00-1.09213E-01 1.60131E-01-1.97661E-13-3.71647E-14
 -1      2588 3.21014E+01 5.96330E+00-6.59529E-02-1.12049E+00-3.30291E-13 6.88893E-14
 -1      2589 6.88760E+00-1.95377E+00 1.61657E-01 3.19382E+00-7.84095E-15 1.83520E-13
 -1      2590 1.40660E+01-4.01989E+00 1.47783E-01 5.82702E+00-2.60347E-14 1.60427E-13
 -1      2591 4.69629E+00-1.31815E+00 1.57697E-01-1.38228E+00 1.51445E-13-4.05787E-14
 -1      2592 1.99996E+01-2.44734E-05 1.73951E-06 2.33270E-03-6.13530E-14 2.47994E-13
 -1      2593 2.00001E+01-3.56867E-04-1.73319E-05 2.34930E-03 5.46521E-14 6.76888E-14
 -1      2594 2.00004E+01 7.19501E-04 2.10743E-05 2.07352E-03 1.28432E-13-9.24664E-14
 -1      2595 1.99996E+01 4.78962E-04 3.60097E-05 2.25993E-03-1.30339E-14 8.59460E-14
 -1      2596 7.23255E+00-2.34243E+00 1.50952E-01-5.49786E+00 7.21645E-15-1.28286E-13
 -1      2597 2.00155E+01 2.86817E+00-1.52899E-02-1.49062E+00-8.24869E-14-4.91496E-13
 -1      2598 2.01738E+01 2.63338E+00-2.20664E-02-1.65771E+00-1.31662E-13-4.85691E-13
 -1      2599 2.03326E+01 2.07734E+00 4.30348E-03-1.38485E+00-1.49637E-13-4.36266E-13
 -1      2600 2.01067E+01 2.53682E+00 4.20404E-03-1.23877E+00-7.08559E-14-4.65033E-13
 -1      2601 1.35417E+01-4.05142E+00 1.30464E-01-7.55256E+00 1.69198E-13 2.39891E-13
 -1      2602 3.16950E+01 7.17710E+00-7.35628E-02 9.67890E-01-2.67564E-13-2.03199E-13
 -1      2603 1.26452E+01-2.94959E+00 3.80983E-02 6.91220E+00 2.65968E-13-1.60982E-15
 -1      2604 9.61697E+00-2.85756E+00 1.66868E-01 6.45984E+00 1.52489E-13-2.37144E-13
 -1      2605 9.42226E+00-1.28946E+00 1.77563E-01 5.41457E+00 2.08208E-13-2.25542E-13
 -1      2606 2.07892E+01-5.12628E+00 8.66703E-02-6.76770E+00 2.80526E-13 2.74121E-13
 -1      2607 2.98290E+01-2.04398E+00-2.86133E-02 2.31736E+00-2.11678E-13 1.39999E-13
 -1      2608 2.83373E+01-3.27909E+00 3.48057E-02 2.74228E+00-1.66124E-13 2.12136E-13
 -1      2609 2.99524E+01-1.50566E+00-1.20866E-01 7.01748E-01-1.04021E-13 8.76244E-14
 -1      2610 3.02524E+01-9.56532E-01 9.92315E-03-7.18295E-01 1.31627E-13-7.35523E-14
 -1      2611 2.95207E+01-5.31091E+00 4.17017E-02-1.29976E+00-2.60861E-13-1.41415E-13
 -1      2612 2.34497E+01-5.06734E+00 5.38785E-02 5.98405E+00 3.13638E-15 4.01068E-15
 -1      2613 2.21071E+01-5.17672E+00 1.19570E-01 6.23126E+00 1.75693E-13 5.22776E-14
 -1      2614 2.53888E+01-4.90804E+00-1.11198E-01 4.51288E+00-9.58955E-15 1.16782E-13
 -1      2615 5.36469E+00-1.14509E+00 1.74049E-01 2.16801E+00 6.77930E-14-3.92075E-13
 -1      2616 1.09298E+01-3.19976E+00 1.54827E-01-5.38157E+00-1.39638E-13-4.55302E-13
 -1      2617 1.89971E+01-4.53742E+00 1.69557E-01-5.72483E+00-1.87905E-13-4.32043E-13
 -1      2618 2.00327E+01-5.80727E+00 8.33118E-02-5.54842E+00-1.88183E-13-4.32483E-13
 -1      2619 2.50910E+01-5.85746E+00-9.36076E-02-4.07016E+00-2.46803E-13-3.75339E-13
 -1      2620 3.11783E+01 3.44873E+00-6.53863E-02 1.27455E+00-8.53762E-14-1.39333E-13
 -1      2621 2.00002E+01 1.01988E-03-4.11296E-05 1.91913E-03 7.73855E-15-8.86539E-14
 -1      2622 1.97372E+01 2.92982E+00-6.35092E-03 4.59240E-01 2.52660E-13-2.25789E-13
 -1      2623 1.97023E+01 2.98174E+00-5.88047E-03 3.28117E-01 2.35142E-13-2.58614E-13
 -1      2624 1.96801E+01 3.01740E+00-5.85672E-03 2.16939E-01 2.24378E-13-2.90276E-13
 -1      2625 1.96712E+01 3.03176E+00-5.26223E-03 8.23963E-02 2.12953E-13-3.05868E-13
 -1      2626 1.98122E+01 2.69406E+00 4.60703E-03 2.41259E-01 2.14785E-13-2.64837E-13
 -1      2627 2.00193E+01 2.45386E+00-9.57339E-03 9.20686E-01 3.26679E-13-7.16230E-14
 -1      2628 1.99293E+01 2.61034E+00-7.40685E-03 7.96264E-01 3.13283E-13-9.95948E-14
 -1      2629 2.02371E+01 2.01639E+00-1.04228E-02 1.09165E+00 3.44838E-13 2.96547E-14
 -1      2630 2.01246E+01 2.25632E+00-5.85993E-03 9.99256E-01 3.42195E-13-2.59202E-14
 -1      2631 2.01705E+01 2.03064E+00 7.28972E-03 7.87905E-01 3.07413E-13-3.97245E-14
 -1      2632 2.04219E+01 1.41678E+00-7.84499E-03 1.02120E+00 3.01496E-13 1.22299E-13
 -1      2633 2.03244E+01 1.80019E+00 1.81733E-03 1.07534E+00 3.24046E-13 5.06479E-14
 -1      2634 2.03107E+01 1.58956E+00 3.01091E-03 8.13931E-01 3.20060E-13 2.07510E-14
 -1      2635 2.03751E+01 1.12817E+00 1.00122E-03 7.09181E-01 2.76364E-13 1.02474E-13
 -1      2636 1.02189E+01-1.64966E+00 1.94267E-01-4.65033E+00-6.29358E-14-3.79446E-13
 -1      2637 1.36741E+01-2.80761E+00 7.65537E-02-5.75472E+00-1.34906E-13-5.50254E-13
 -1      2638 1.28420E+01-2.78355E+00 1.87087E-01-6.89733E+00 2.66454E-14 2.03351E-13
 -1      2639 1.59339E+01-3.89916E+00 1.37109E-02-7.35942E+00 1.04056E-13 1.72723E-13
 -1      2640 2.03041E+01 6.69520E-01 7.19701E-03-2.88823E-01-5.73446E-14-3.12987E-13
 -1      2641 2.02386E+01 5.21505E-01-2.57269E-03-1.16122E-01-5.29595E-14-2.95385E-13
 -1      2642 2.02266E+01 4.05525E-01 6.84452E-03 1.91278E-02-5.96099E-14-2.81412E-13
 -1      2643 2.01888E+01 3.06567E-01-1.46626E-03 1.28380E-01-6.94234E-14-2.67728E-13
 -1      2644 2.02781E+01 5.83669E-01-2.13327E-03-7.69683E-02-6.41731E-14-2.68527E-13
 -1      2645 2.01825E+01 2.29050E-01 5.04419E-03 2.17566E-01-6.00295E-14-2.44551E-13
 -1      2646 2.01727E+01 1.57959E-01-8.20371E-04 2.82228E-01-2.23767E-14-2.34035E-13
 -1      2647 2.02422E+01 3.41984E-01-2.87593E-03 1.59540E-01-4.43620E-14-2.34785E-13
 -1      2648 2.01806E+01 9.84066E-02 3.91373E-03 3.35172E-01-4.30414E-14-2.34974E-13
 -1      2649 2.01929E+01 3.95720E-02-7.76448E-04 3.65213E-01-5.42509E-14-2.65751E-13
 -1      2650 2.02320E+01 1.67906E-01-2.97105E-03 3.12539E-01-4.52848E-14-2.58618E-13
 -1      2651 2.02187E+01-1.38010E-02 3.37715E-03 3.87218E-01-3.96794E-14-2.71904E-13
 -1      2652 2.02474E+01-7.04987E-02-1.21928E-03 3.86994E-01-4.61052E-14-2.66370E-13
 -1      2653 2.02563E+01 2.41459E-02-2.95860E-03 3.96322E-01-6.67637E-14-2.82446E-13
 -1      2654 2.02936E+01-1.25127E-01 3.32696E-03 3.79321E-01-7.55823E-14-2.40626E-13
 -1      2655 2.03332E+01-1.85726E-01-2.06815E-03 3.49155E-01-8.75487E-14-2.32511E-13
 -1      2656 2.03189E+01-1.13131E-01-2.98731E-03 4.18114E-01-4.57374E-14-2.68207E-13
 -1      2657 2.04009E+01-2.45064E-01 3.56485E-03 3.09576E-01-7.36090E-14-2.27021E-13
 -1      2658 2.04456E+01-3.10948E-01-3.21995E-03 2.47520E-01-6.19015E-14-2.24170E-13
 -1      2659 2.04222E+01-2.58129E-01-3.01216E-03 3.77324E-01-8.42318E-14-1.94209E-13
 -1      2660 2.05336E+01-3.73339E-01 3.78406E-03 1.71788E-01-8.00936E-14-2.05480E-13
 -1      2661 2.05764E+01-4.39485E-01-4.46130E-03 7.60184E-02-7.99262E-14-2.03166E-13
 -1      2662 2.05660E+01-4.13936E-01-2.83671E-03 2.67391E-01-5.21369E-14-1.61859E-13
 -1      2663 2.06784E+01-4.96288E-01 3.54950E-03-3.93866E-02-4.99292E-14-1.63740E-13
 -1      2664 2.07106E+01-5.49257E-01-5.36638E-03-1.67116E-01-2.02743E-14-1.60632E-13
 -1      2665 2.07441E+01-5.68500E-01-2.14063E-03 7.97176E-02-4.14659E-14-1.66246E-13
 -1      2666 2.08125E+01-5.83435E-01 2.33077E-03-3.20387E-01-2.21968E-14-1.76456E-13
 -1      2667 2.08231E+01-6.00785E-01-5.23463E-03-4.70227E-01 7.64590E-15-1.41761E-13
 -1      2668 2.09391E+01-6.89980E-01-5.50411E-04-1.89192E-01-2.92203E-14-1.34801E-13
 -1      2669 2.09015E+01-5.88061E-01-3.04369E-04-6.47636E-01 9.19078E-15-1.65870E-13
 -1      2670 2.08804E+01-5.42141E-01-3.20807E-03-7.97011E-01-2.48817E-14-1.16926E-13
 -1      2671 2.11175E+01-7.25640E-01 2.10371E-03-5.26371E-01-1.76330E-14-1.39267E-13
 -1      2672 2.09060E+01-4.57801E-01-4.23571E-03-9.66084E-01-4.30105E-14-7.28581E-14
 -1      2673 2.08482E+01-3.27204E-01 1.17836E-03-1.07781E+00-7.06190E-14-4.85893E-14
 -1      2674 2.12313E+01-6.11336E-01 5.33862E-03-8.87728E-01-6.14474E-15-9.48156E-14
 -1      2675 2.07986E+01-1.60648E-01-8.37373E-03-1.18582E+00-1.39328E-13-2.94455E-14
 -1      2676 2.07103E+01 5.09863E-02 7.01650E-03-1.21394E+00-1.34090E-13-2.84769E-14
 -1      2677 2.12304E+01-2.98825E-01 7.62230E-03-1.18694E+00-8.83453E-14-5.90030E-14
 -1      2678 2.05902E+01 2.77864E-01-1.04800E-02-1.20064E+00-7.38555E-14-4.40823E-14
 -1      2679 2.04928E+01 5.25403E-01 1.16143E-02-1.10793E+00-6.26696E-14-9.13040E-14
 -1      2680 2.10936E+01 1.99793E-01 6.60528E-03-1.30345E+00-1.17625E-13-3.51001E-14
 -1      2681 2.03477E+01 7.50117E-01-8.24599E-03-9.36141E-01-8.21490E-15-5.65782E-14
 -1      2682 2.02726E+01 9.51139E-01 1.15658E-02-7.19038E-01 3.29136E-14-9.86550E-14
 -1      2683 2.08622E+01 7.76882E-01 1.51538E-03-1.12688E+00-3.32409E-14-4.46035E-14
 -1      2684 2.01765E+01 1.08892E+00-1.54625E-03-4.10122E-01 1.08323E-14-1.21451E-13
 -1      2685 2.01523E+01 1.16149E+00 5.94528E-03-1.15260E-01-2.83103E-14-1.34768E-13
 -1      2686 2.06451E+01 1.24071E+00-5.35567E-03-6.30862E-01 1.01975E-14-6.14022E-14
 -1      2687 2.01596E+01 1.15390E+00 6.53003E-03 2.44289E-01-6.47227E-14-1.17503E-13
 -1      2688 2.01967E+01 1.06644E+00-2.36111E-03 5.34860E-01-4.39752E-14-1.45991E-13
 -1      2689 2.05650E+01 1.40780E+00-8.20931E-03 7.06698E-02-5.98231E-14-1.28709E-13
 -1      2690 2.03041E+01 9.17083E-01 1.14695E-02 8.32451E-01-9.68323E-15-1.69518E-13
 -1      2691 2.03894E+01 7.09607E-01-8.62482E-03 1.03857E+00 6.25578E-14-2.62042E-13
 -1      2692 2.06701E+01 1.20659E+00-4.81212E-03 7.60069E-01-3.13536E-14-1.07472E-13
 -1      2693 2.05357E+01 4.84518E-01 1.08773E-02 1.19462E+00 8.00039E-14-3.19533E-13
 -1      2694 2.06398E+01 2.42120E-01-1.00920E-02 1.27667E+00 3.24011E-14-3.75862E-13
 -1      2695 2.08986E+01 7.27003E-01 1.96294E-03 1.22567E+00 7.32839E-15-3.39906E-13
 -1      2696 2.07538E+01 2.41471E-02 6.07895E-03 1.27883E+00-3.05380E-14-2.95491E-13
 -1      2697 2.08461E+01-1.74734E-01-7.52438E-03 1.24540E+00-6.13553E-14-2.74635E-13
 -1      2698 2.11257E+01 1.61826E-01 6.98991E-03 1.37338E+00 4.30590E-14-3.74242E-13
 -1      2699 2.08872E+01-3.27898E-01 2.96254E-04 1.13521E+00-1.11964E-13-2.87115E-13
 -1      2700 2.09486E+01-4.43887E-01-3.34796E-03 1.02558E+00-6.98432E-15-3.08471E-13
 -1      2701 2.12496E+01-3.07923E-01 7.50204E-03 1.24312E+00-9.71158E-14-1.62723E-13
 -1      2702 2.09164E+01-5.15469E-01-3.83355E-03 8.63199E-01 6.48615E-14-3.05185E-13
 -1      2703 2.09422E+01-5.49418E-01 4.01793E-04 7.22476E-01 7.05346E-14-3.63449E-13
 -1      2704 2.12377E+01-5.86747E-01 4.95184E-03 9.49302E-01-1.60313E-14-9.17660E-14
 -1      2705 2.08606E+01-5.53089E-01-5.58174E-03 5.57772E-01 9.98960E-14-3.49490E-13
 -1      2706 2.08565E+01-5.28456E-01 2.80043E-03 4.20738E-01 1.72390E-13-2.96811E-13
 -1      2707 2.11166E+01-6.73312E-01 1.80794E-03 6.08535E-01 1.04227E-13-1.10219E-13
 -1      2708 2.07540E+01-4.89929E-01-5.53606E-03 2.82707E-01 1.88764E-13-3.33523E-13
 -1      2709 2.07299E+01-4.34743E-01 3.74812E-03 1.69199E-01 1.39996E-13-2.13668E-13
 -1      2710 2.09363E+01-6.20991E-01-5.81371E-04 3.00095E-01 2.15956E-13-1.46067E-13
 -1      2711 2.06283E+01-3.78324E-01-4.55516E-03 6.84789E-02 8.01270E-14-2.49341E-13
 -1      2712 2.05937E+01-3.14972E-01 3.67748E-03-1.43269E-02 5.35494E-14-1.50256E-13
 -1      2713 2.07424E+01-4.95051E-01-1.88691E-03 6.12130E-02 1.31815E-13-2.44323E-13
 -1      2714 2.05053E+01-2.57773E-01-3.28320E-03-7.87283E-02-5.44402E-15-1.05321E-13
 -1      2715 2.04673E+01-2.00056E-01 3.07457E-03-1.31855E-01 1.28447E-14-3.88438E-14
 -1      2716 2.05647E+01-3.48230E-01-2.29632E-03-1.01140E-01-1.30910E-14-2.18310E-13
 -1      2717 2.03965E+01-1.51418E-01-2.08898E-03-1.66423E-01 9.21259E-14-6.22084E-14
 -1      2718 2.03595E+01-1.05662E-01 2.30234E-03-1.94985E-01 1.09361E-13 6.35473E-15
 -1      2719 2.04168E+01-2.13368E-01-2.16853E-03-1.96360E-01 4.13335E-14-9.68047E-14
 -1      2720 2.03059E+01-6.90212E-02-1.12619E-03-2.07688E-01 4.42465E-14-4.25664E-15
 -1      2721 2.02723E+01-3.65198E-02 1.57290E-03-2.18056E-01 5.07121E-14 1.54862E-14
 -1      2722 2.03016E+01-1.05757E-01-1.80444E-03-2.39942E-01 3.82480E-15-1.46637E-13
 -1      2723 2.02334E+01-1.16984E-02-4.25235E-04-2.16257E-01-5.44201E-14 3.07363E-14
 -1      2724 2.02041E+01 8.98904E-03 9.80315E-04-2.14452E-01-1.49409E-13 1.89446E-14
 -1      2725 2.02156E+01-2.88182E-02-1.39227E-03-2.47644E-01 8.36994E-15-3.09215E-14
 -1      2726 2.01766E+01 2.39241E-02 4.09507E-05-2.04075E-01-1.56267E-13 9.33330E-14
 -1      2727 2.01517E+01 3.53369E-02 5.45393E-04-1.95036E-01-1.20412E-13 7.58355E-14
 -1      2728 2.01533E+01 2.05515E-02-1.02502E-03-2.32845E-01-1.78917E-13 4.13978E-14
 -1      2729 2.01327E+01 4.28560E-02 3.19923E-04-1.80428E-01-1.40403E-13 1.60840E-13
 -1      2730 2.01121E+01 4.76566E-02 2.51848E-04-1.67831E-01-1.47819E-13 2.40538E-13
 -1      2731 2.01091E+01 4.81304E-02-7.35051E-04-2.05760E-01-1.28144E-13 1.28600E-13
 -1      2732 2.00990E+01 5.00977E-02 4.61238E-04-1.51935E-01-7.19684E-14 3.03709E-13
 -1      2733 2.00822E+01 5.05938E-02 6.96957E-05-1.38294E-01 1.30548E-13 2.81046E-13
 -1      2734 2.00779E+01 6.00693E-02-5.22168E-04-1.73580E-01-3.52747E-14 3.60203E-13
 -1      2735 2.00732E+01 4.98725E-02 5.08252E-04-1.22942E-01 2.20260E-13 2.59922E-14
 -1      2736 2.00598E+01 4.78524E-02-3.21617E-05-1.09825E-01 3.17163E-13 6.72596E-15
 -1      2737 2.00559E+01 6.17468E-02-3.72740E-04-1.40989E-01 2.66265E-14 1.32963E-13
 -1      2738 2.00536E+01 4.53943E-02 4.95486E-04-9.60304E-02 2.57485E-13-2.22121E-13
 -1      2739 2.00431E+01 4.21313E-02-8.03829E-05-8.43019E-02 4.99866E-14-3.64848E-13
 -1      2740 2.00403E+01 5.73601E-02-2.70419E-04-1.10756E-01 7.37412E-14-3.61513E-13
 -1      2741 2.00388E+01 3.89164E-02 4.48628E-04-7.25166E-02 2.94672E-14-4.15733E-13
 -1      2742 2.00306E+01 3.52491E-02-9.54517E-05-6.25533E-02-4.02741E-14-2.71757E-13
 -1      2743 2.00291E+01 4.99188E-02-2.00745E-04-8.42941E-02 5.07197E-14-3.82760E-13
 -1      2744 2.00276E+01 3.18988E-02 3.85679E-04-5.28686E-02-9.22080E-14-2.33706E-13
 -1      2745 2.00214E+01 2.83327E-02-9.19367E-05-4.47355E-02-4.98013E-14-1.52339E-13
 -1      2746 2.00211E+01 4.14205E-02-1.52636E-04-6.21068E-02-6.01388E-14-4.76384E-13
 -1      2747 2.00192E+01 2.52033E-02 3.18505E-04-3.70307E-02 1.15102E-14-2.35801E-13
 -1      2748 2.00146E+01 2.20061E-02-7.95727E-05-3.06113E-02-4.28488E-15-2.17808E-13
 -1      2749 2.00152E+01 3.30806E-02-1.18348E-04-4.41361E-02-9.02789E-14-3.08030E-13
 -1      2750 2.00131E+01 1.92698E-02 2.54380E-04-2.46578E-02-6.93759E-14-1.69975E-13
 -1      2751 2.00097E+01 1.65494E-02-6.45546E-05-1.97459E-02-1.00954E-13-2.36309E-13
 -1      2752 2.00108E+01 2.55530E-02-9.28484E-05-3.00112E-02-9.25865E-14-5.99947E-13
 -1      2753 2.00086E+01 1.42579E-02 1.97268E-04-1.52769E-02-4.93446E-14-1.66768E-13
 -1      2754 2.00063E+01 1.20216E-02-5.03959E-05-1.16378E-02 2.06593E-13-2.08763E-13
 -1      2755 2.00076E+01 1.91113E-02-7.30811E-05-1.92191E-02 4.50956E-15-3.28765E-13
 -1      2756 2.00054E+01 1.01536E-02 1.48935E-04-8.39133E-03 3.47471E-13-2.70889E-13
 -1      2757 2.00039E+01 8.34984E-03-3.86625E-05-5.79873E-03 1.91437E-13-2.30383E-13
 -1      2758 2.00052E+01 1.37888E-02-5.68174E-05-1.12171E-02 1.35756E-13-2.86329E-13
 -1      2759 2.00032E+01 6.84255E-03 1.10903E-04-3.53868E-03 7.17718E-14-2.34969E-13
 -1      2760 2.00022E+01 5.37979E-03-2.87626E-05-1.79327E-03 6.88788E-14-2.72513E-13
 -1      2761 2.00035E+01 9.47409E-03-4.33576E-05-5.49578E-03 1.06263E-13-3.32672E-13
 -1      2762 2.00018E+01 4.12026E-03 7.57651E-05-3.38872E-04 2.26164E-14-4.12632E-13
 -1      2763 2.00012E+01 2.95014E-03-9.06176E-06 6.98590E-04-2.20993E-14-4.28358E-13
 -1      2764 2.00022E+01 5.93248E-03-4.35221E-05-1.60849E-03-3.44927E-14-5.39398E-13
 -1      2765 7.28581E+00-9.84012E-01 1.76625E-01-4.33511E+00-4.51097E-14-1.15796E-13
 -1      2766 9.46164E+00-1.87784E+00 7.85603E-02-6.11628E+00-7.21229E-14-7.67164E-14
 -1      2767 2.00806E+01 4.77002E-01 3.02857E-03-7.58099E-01 1.10745E-13-2.37195E-15
 -1      2768 2.00725E+01 4.52513E-01-4.10211E-04-6.37479E-01 1.09681E-13 2.13315E-14
 -1      2769 2.01245E+01 4.47882E-01 1.89937E-03-5.21434E-01 1.26201E-13 3.10895E-14
 -1      2770 2.01344E+01 4.62980E-01 2.28108E-03-3.94892E-01 1.60949E-13 5.02294E-14
 -1      2771 2.00687E+01 5.58300E-01 3.11119E-04-5.56747E-01 1.28970E-13-1.49067E-15
 -1      2772 1.99308E+01 7.34978E-01 4.52756E-03-1.26864E+00 1.15851E-13-8.43653E-14
 -1      2773 1.99197E+01 6.45936E-01-6.09253E-03-1.12349E+00 1.10282E-13-5.22118E-14
 -1      2774 1.97565E+01 9.54400E-01 5.26903E-03-1.59740E+00 6.65598E-14-6.06434E-14
 -1      2775 1.97675E+01 8.34128E-01-9.39136E-03-1.41200E+00 1.02483E-13-9.01866E-14
 -1      2776 1.95600E+01 9.39443E-01 8.87764E-03-1.27282E+00 1.05353E-13-4.58659E-14
 -1      2777 1.94549E+01 1.19990E+00 6.06384E-03-1.99583E+00 5.52934E-14-1.15461E-13
 -1      2778 1.95036E+01 1.07108E+00-1.34568E-02-1.77049E+00 7.05671E-14-9.28832E-14
 -1      2779 1.91822E+01 1.20410E+00 1.42765E-02-1.56535E+00 8.68759E-14-6.49235E-14
 -1      2780 1.89875E+01 1.39008E+00 9.51850E-03-2.47945E+00 4.48201E-14-2.17172E-13
 -1      2781 1.90789E+01 1.30204E+00-1.75939E-02-2.21138E+00 5.54452E-14-2.04016E-13
 -1      2782 1.86022E+01 1.48516E+00 2.13780E-02-1.91291E+00 9.17024E-14-1.83820E-13
 -1      2783 1.83611E+01 1.34022E+00 2.23694E-02-3.07352E+00 2.54596E-14-2.79343E-13
 -1      2784 1.84578E+01 1.40336E+00-1.87813E-02-2.76167E+00 3.88279E-14-2.30540E-13
 -1      2785 1.77490E+01 1.67834E+00 3.12075E-02-2.34795E+00 5.85348E-14-2.44079E-13
 -1      2786 1.76619E+01 6.76177E-01 4.80884E-02-3.84724E+00 6.42889E-15-2.57905E-13
 -1      2787 1.76767E+01 1.12935E+00-2.20937E-03-3.47540E+00 4.55365E-16-2.91125E-13
 -1      2788 1.65556E+01 1.55060E+00 3.91178E-02-2.93991E+00 1.38123E-14-3.15057E-13
 -1      2789 1.80302E+01-3.02265E+00 1.73951E-01-5.49232E+00-1.79842E-13-4.12254E-13
 -1      2790 2.00009E+01 2.18469E-03 4.76245E-05 1.29971E-03 5.30620E-14-2.97108E-13
 -1      2791 2.00006E+01 1.46394E-03 5.75328E-07 1.67928E-03 1.14924E-13-2.37645E-13
 -1      2792 2.00013E+01 3.38355E-03-4.37111E-05 5.25299E-04 1.12544E-13-6.30200E-13
 -1      2793 1.95935E+01 1.21435E+00-1.59821E-02 2.01395E+00-3.29049E-14 3.19924E-13
 -1      2794 1.95699E+01 1.31085E+00 9.64698E-03 2.29317E+00-7.94061E-14 3.01987E-13
 -1      2795 2.00248E+01 5.75586E-01 3.74929E-03-1.00098E+00 1.02759E-13-5.18351E-14
 -1      2796 2.00096E+01 5.15694E-01-3.16766E-03-8.70562E-01 1.11830E-13-3.69534E-14
 -1      2797 1.99569E+01 6.07107E-01 2.40289E-03-7.88049E-01 1.35402E-13-4.92911E-14
 -1      2798 1.98008E+01 7.36396E-01 5.41207E-03-1.01924E+00 1.17858E-13-5.85424E-14
 -1      2799 1.85785E+01 1.15398E+00-7.16430E-03 3.29771E+00-7.81961E-14 1.71363E-13
 -1      2800 1.86709E+01 8.18788E-01 4.74037E-02 3.63106E+00-1.09700E-13 9.32397E-14
 -1      2801 1.98881E+01 9.83268E-01-1.21902E-02 1.54760E+00-6.04790E-14 3.98623E-13
 -1      2802 1.98911E+01 1.10935E+00 6.99329E-03 1.78132E+00 7.99699E-14 3.45167E-13
 -1      2803 1.90526E+01 1.40142E+00 1.85611E-02 1.76162E+00-2.00732E-14 2.69178E-13
 -1      2804 2.00559E+01 7.53185E-01-8.48353E-03 1.17493E+00-1.05160E-13 2.52376E-13
 -1      2805 2.00817E+01 8.70069E-01 6.29140E-03 1.36237E+00-1.61573E-13 3.71040E-13
 -1      2806 1.94982E+01 1.11933E+00 1.26757E-02 1.37696E+00-1.50316E-13 2.17701E-13
 -1      2807 2.01332E+01 5.67743E-01-5.96464E-03 8.95508E-01-3.89842E-14 1.52303E-13
 -1      2808 2.01707E+01 6.59884E-01 5.58936E-03 1.03562E+00-3.81980E-14 1.90132E-13
 -1      2809 1.97674E+01 8.59972E-01 7.97371E-03 1.07142E+00-2.03618E-14 2.04217E-13
 -1      2810 2.01597E+01 4.14601E-01-4.24948E-03 6.66829E-01 1.10061E-13 2.34248E-13
 -1      2811 2.02019E+01 4.88975E-01 4.69312E-03 7.79258E-01 1.12080E-14 1.75399E-13
 -1      2812 1.99246E+01 6.45020E-01 5.15333E-03 8.24909E-01-7.47484E-14 1.55968E-13
 -1      2813 2.01564E+01 3.00268E-01-2.85992E-03 4.92771E-01 1.49038E-13 2.10084E-13
 -1      2814 2.01967E+01 3.55397E-01 3.83482E-03 5.77220E-01 2.80760E-13 2.80293E-13
 -1      2815 2.00105E+01 4.73007E-01 3.01861E-03 6.24112E-01 1.80372E-13 1.25724E-13
 -1      2816 2.01382E+01 2.16650E-01-1.90669E-03 3.61466E-01-6.58238E-14 3.11437E-13
 -1      2817 2.01737E+01 2.56850E-01 3.06351E-03 4.24298E-01-8.02555E-14 2.25358E-13
 -1      2818 2.00503E+01 3.44056E-01 1.63177E-03 4.67612E-01 4.46467E-14 1.36419E-13
 -1      2819 2.01147E+01 1.56144E-01-1.26223E-03 2.63080E-01 1.61652E-13 3.15101E-13
 -1      2820 2.01444E+01 1.85215E-01 2.39513E-03 3.09566E-01 6.33895E-14 3.80024E-13
 -1      2821 2.00636E+01 2.49341E-01 7.89120E-04 3.47071E-01-2.85731E-14 2.11483E-13
 -1      2822 2.00912E+01 1.12611E-01-7.75006E-04 1.89761E-01 3.53899E-13 6.73415E-14
 -1      2823 2.01150E+01 1.33498E-01 1.84754E-03 2.23999E-01 3.69135E-13 2.88967E-13
 -1      2824 2.00629E+01 1.80419E-01 2.94655E-04 2.55105E-01 3.02056E-13 3.63918E-13
 -1      2825 2.00709E+01 8.24840E-02-5.04613E-04 1.37682E-01-2.42956E-14 7.61889E-14
 -1      2826 2.00890E+01 9.71184E-02 1.42703E-03 1.61885E-01 1.97856E-13 6.31773E-14
 -1      2827 2.00558E+01 1.31294E-01-4.76453E-05 1.86856E-01 2.16107E-13 3.48110E-13
 -1      2828 2.00527E+01 5.92946E-02-3.54956E-04 9.67834E-02 1.28520E-14 3.26599E-14
 -1      2829 2.00672E+01 7.04034E-02 1.06689E-03 1.15497E-01-1.14241E-13 9.00238E-14
 -1      2830 2.00466E+01 9.58413E-02-8.30334E-05 1.35387E-01-1.11178E-14 1.43288E-13
 -1      2831 2.00381E+01 4.25251E-02-2.30624E-04 6.67351E-02-4.10998E-14-2.03868E-13
 -1      2832 2.00490E+01 5.06055E-02 8.04603E-04 8.03893E-02 8.24791E-14-7.63569E-14
 -1      2833 2.00369E+01 6.91014E-02-1.38069E-04 9.56866E-02 1.64775E-13-6.58911E-14
 -1      2834 2.00268E+01 3.03350E-02-1.47565E-04 4.47829E-02-2.23829E-13-4.12630E-13
 -1      2835 2.00348E+01 3.62126E-02 5.97362E-04 5.46789E-02-2.56068E-13-3.35132E-13
 -1      2836 2.00282E+01 4.96355E-02-1.52020E-04 6.62349E-02-1.23358E-13-2.91330E-13
 -1      2837 2.00183E+01 2.14545E-02-9.30766E-05 2.88807E-02-1.87351E-13-1.89935E-13
 -1      2838 2.00240E+01 2.57353E-02 4.39016E-04 3.59927E-02-1.45026E-13-3.02372E-13
 -1      2839 2.00209E+01 3.54311E-02-1.43779E-04 4.45641E-02-2.31790E-13-3.08281E-13
 -1      2840 2.00120E+01 1.49878E-02-4.99902E-05 1.75002E-02-2.86491E-13-3.15716E-14
 -1      2841 2.00160E+01 1.80909E-02 3.17739E-04 2.25433E-02-2.18191E-13-7.89391E-14
 -1      2842 2.00150E+01 2.50518E-02-1.25739E-04 2.87808E-02-2.91888E-13-1.90653E-13
 -1      2843 2.00078E+01 1.04470E-02-3.00493E-05 9.82050E-03-4.85397E-14-1.74960E-13
 -1      2844 2.00104E+01 1.26493E-02 2.30494E-04 1.32074E-02-1.10863E-13-1.83390E-13
 -1      2845 2.00106E+01 1.75649E-02-1.18792E-04 1.76506E-02-1.25867E-13-3.83959E-13
 -1      2846 2.00047E+01 6.86945E-03-2.41525E-05 4.20489E-03 6.89375E-14-3.37442E-13
 -1      2847 2.00065E+01 8.58344E-03 1.62914E-04 6.63182E-03 1.34500E-13-1.29869E-13
 -1      2848 2.00072E+01 1.21133E-02-8.22914E-05 9.77316E-03 6.81053E-14-3.73948E-13
 -1      2849 2.00026E+01 4.16497E-03-1.80011E-05 5.32364E-04 2.75506E-13-3.97589E-13
 -1      2850 2.00037E+01 5.47920E-03 1.15766E-04 2.08204E-03 3.20114E-14-4.06838E-13
 -1      2851 2.00047E+01 7.88382E-03-6.49423E-05 4.18336E-03 1.39520E-13-5.64298E-13
 -1      2852 2.00013E+01 2.03740E-03 1.16497E-06-1.63313E-03 5.05030E-13-2.35398E-13
 -1      2853 2.00019E+01 3.05130E-03 7.36824E-05-7.80989E-04 4.06997E-13-2.01382E-13
 -1      2854 2.00028E+01 4.65916E-03-4.59541E-05 5.44397E-04 2.46618E-13-4.68740E-13
 -1      2855 2.00009E+01 8.12016E-04 1.00132E-05-2.29262E-03 4.04851E-13-3.43354E-13
 -1      2856 2.00010E+01 1.45699E-03 2.04312E-05-2.09290E-03 5.00851E-13-2.06258E-13
 -1      2857 2.00018E+01 2.57114E-03-2.18262E-05-1.25844E-03 4.29280E-13-2.77484E-13
 -1      2858 2.00013E+01 1.03944E-03-1.41603E-05-1.98872E-03 3.03033E-13-3.85353E-13
 -1      2859 2.00002E+01 6.32834E-03-2.34202E-05 5.12883E-04-2.74772E-13-9.36726E-14
 -1      2860 2.00003E+01 6.20171E-03-4.14898E-06 5.17694E-04-2.74011E-13 1.52391E-13
 -1      2861 1.70335E+01-3.55820E+00 1.42357E-02 5.80034E+00-1.30618E-13 1.92901E-14
 -1      2862 1.30504E+01-2.31375E+00 1.64798E-01 5.34701E+00-6.67522E-14 6.36713E-14
 -1      2863 6.30226E+00-2.35213E-02 1.84041E-01-3.23818E-01 1.50242E-13 1.68671E-13
 -1      2864 6.29697E+00-2.98608E-01 1.72153E-01-2.56495E+00 5.93553E-14 1.86517E-14
 -1      2865 2.00005E+01 5.77670E-03-3.27212E-05 5.93537E-04-2.95158E-13-1.29539E-13
 -1      2866 2.00008E+01 5.50379E-03 9.81618E-06 4.84775E-04-9.78012E-14-1.52127E-13
 -1      2867 2.00005E+01 8.80123E-03 4.92415E-05 8.35079E-04-2.68208E-13 1.13515E-14
 -1      2868 2.00003E+01 5.82433E-03 3.98995E-06 1.50383E-04 8.72936E-14 3.08860E-13
 -1      2869 2.00002E+01 6.01685E-03-2.89347E-05 1.44801E-04-4.23708E-14 7.33101E-13
 -1      2870 2.00007E+01 4.85461E-03 1.25270E-05 2.26706E-04 2.85641E-13-1.15070E-13
 -1      2871 2.00005E+01 5.17807E-03-3.41182E-05 1.12578E-04 1.76378E-13-1.53335E-13
 -1      2872 2.00005E+01 8.03435E-03 3.91831E-05-2.71830E-04 2.42890E-13 9.72899E-14
 -1      2873 2.00010E+01 3.56720E-03-1.29797E-06 6.09232E-04 5.30955E-13 2.88232E-13
 -1      2874 2.00009E+01 3.99684E-03-3.11771E-05 3.55302E-04 3.75871E-13 1.05081E-13
 -1      2875 2.00010E+01 6.57584E-03 2.81772E-05-2.39956E-04 2.77483E-13 2.86991E-14
 -1      2876 2.01757E+01 4.99755E-01 4.76414E-04-2.62352E-01 1.53376E-13 5.67042E-14
 -1      2877 2.02107E+01 5.62387E-01 4.00187E-03-1.09818E-01 1.60223E-13 7.54856E-14
 -1      2878 2.01604E+01 6.01995E-01-9.07684E-04-3.00624E-01 1.62889E-13-1.38699E-14
 -1      2879 2.00008E+01 1.67419E-03-9.15963E-06 1.54077E-03 3.64943E-13-4.88542E-13
 -1      2880 2.03764E+01 1.60867E+00-8.55714E-03-1.13124E+00-1.38767E-13-3.90157E-13
 -1      2881 2.03706E+01 1.24679E+00 1.14103E-03-8.52241E-01-1.26156E-13-3.72896E-13
 -1      2882 2.02808E+01 1.88043E+00-9.31510E-04-1.10474E+00-1.03697E-13-4.02342E-13
 -1      2883 2.00001E+01 6.33961E-03-1.02774E-05 3.00266E-04-2.92966E-14 3.72624E-13
 -1      2884 2.00001E+01 6.38067E-03-1.80941E-05 3.41126E-04-3.01173E-16-2.75787E-13
 -1      2885 2.00002E+01 9.25402E-03 5.27147E-05 4.70414E-04-1.45706E-13-3.31933E-14
 -1      2886 2.00002E+01 8.98343E-03 4.91989E-05 2.54607E-05 1.13172E-13 5.57995E-13
 -1      2887 2.12403E+01-4.38293E+00 1.60718E-01 5.02092E+00-1.33796E-13-2.39114E-14
 -1      2888 9.78492E+00-1.38786E+00 1.26574E-01 4.45857E+00-1.18794E-14 1.71307E-13
 -1      2889 7.44739E+00-4.15297E-01 1.46525E-01 2.30734E+00 2.41474E-15 1.22014E-13
 -1      2890 1.33005E+01-9.29295E-01 1.86059E-01 4.56088E+00-1.51268E-14 5.95635E-14
 -1      2891 1.91431E+01 1.34592E+00-1.76489E-02 2.58970E+00-9.63881E-14 2.15757E-13
 -1      2892 1.91215E+01 1.31907E+00 1.90530E-02 2.90655E+00-2.66282E-14 2.32748E-13
 -1      2893 1.74344E+01 1.56297E+00 3.46170E-02 2.85938E+00-1.01029E-13 1.25376E-13
 -1      2894 2.99663E+01 6.30046E+00-2.05997E-01-1.33782E+00-2.62429E-13 8.43908E-14
 -1      2895 3.02267E+01 4.63061E+00-1.17918E-01-1.65064E+00-2.72005E-13 1.34226E-13
 -1      2896 2.03757E+01 1.02561E+00 2.99149E-03-6.69846E-01-1.05574E-13-3.45402E-13
 -1      2897 2.03024E+01 8.02119E-01-3.01929E-03-4.22580E-01-7.90419E-14-3.37275E-13
 -1      2898 2.03160E+01 8.75873E-01-3.73085E-03-3.66806E-01-5.58172E-14-3.08371E-13
 -1      2899 2.03373E+01 1.26074E+00 2.90520E-03-6.94617E-01-8.56500E-14-3.29677E-13
 -1      2900 2.86921E+01-2.52334E+00-3.53566E-03-9.67121E-01 4.15040E-13-1.56264E-14
 -1      2901 2.90864E+01-6.81865E-01-1.52005E-01 5.13998E-01 1.76234E-13-1.79856E-14
 -1      2902 1.98485E+01 2.74738E+00-8.31317E-03 6.94968E-01 3.00031E-13-1.30515E-13
 -1      2903 1.97849E+01 2.84728E+00-7.03974E-03 5.65345E-01 2.69077E-13-1.86363E-13
 -1      2904 1.98831E+01 2.58030E+00 6.33197E-03 4.45116E-01 2.42523E-13-1.97984E-13
 -1      2905 2.00134E+01 2.36042E+00 8.22282E-03 6.33089E-01 2.70472E-13-1.06449E-13
 -1      2906 2.95036E+01 2.14451E+00-1.01580E-01 1.52311E+00-7.03465E-14-3.59573E-14
 -1      2907 2.96939E+01 4.19124E+00-1.90716E-01 1.69976E+00-1.21292E-13 2.52021E-14
 -1      2908 6.60690E+00-2.61880E-01 1.75275E-01-1.30923E+00-1.38986E-14-2.92544E-13
 -1      2909 7.99621E+00-8.81257E-01 1.26820E-01-3.33385E+00-2.63123E-14-2.31287E-13
 -1      2910 1.96967E+01-4.75875E+00 1.18936E-01-6.73728E+00 2.38101E-13 1.24293E-13
 -1      2911 2.28871E+01-5.14783E+00-4.09579E-02-5.84198E+00 3.54924E-13 1.34684E-13
 -1      2912 1.88978E+01-4.71296E+00 2.35891E-02 6.95184E+00 2.39253E-13 2.40086E-15
 -1      2913 1.63610E+01-3.97819E+00 1.61018E-01 7.13308E+00 2.73281E-13 4.54359E-14
 -1      2914 2.95622E+01 6.18642E+00-1.40465E-01 1.44229E+00-2.66204E-13-5.20001E-14
 -1      2915 2.96796E+01 7.22113E+00-2.04055E-01 7.30820E-01-3.33400E-13-1.48978E-14
 -1      2916 1.98096E+01 2.80388E+00-6.60322E-03-5.42139E-01 9.61744E-14-4.06656E-13
 -1      2917 1.98726E+01 2.70355E+00-7.04450E-03-6.82259E-01 6.30226E-14-4.07272E-13
 -1      2918 3.03876E+01 2.37896E+00-1.90686E-01-1.31901E+00-2.60791E-13 1.99868E-13
 -1      2919 3.02187E+01 6.02671E-01-1.03855E-01-7.10613E-01-1.32783E-13 1.50074E-13
 -1      2920 7.39245E+00-1.24910E-01 1.44445E-01 3.02853E+00 1.03834E-13-3.76227E-13
 -1      2921 6.36041E+00-1.12312E-01 1.74938E-01 6.65911E-01 5.38287E-14-3.87523E-13
 -1      2922 8.45438E+00 6.19333E-01 1.67735E-01-3.22499E-01 4.62321E-14-3.03063E-13
 -1      2923 2.96417E+01 7.59930E+00-1.97892E-01 2.60730E-02-3.48083E-13 4.30732E-14
 -1      2924 2.97066E+01 7.37701E+00-1.71770E-01-7.18196E-01-3.42781E-13 1.00253E-13
 -1      2925 2.52863E+01-4.75387E+00 5.59938E-02-4.41978E+00 4.35138E-13 8.55288E-14
 -1      2926 2.72522E+01-3.99299E+00-1.08238E-01-2.96003E+00 4.86833E-13 9.89486E-15
 -1      2927 2.41547E+01-4.78272E+00 5.21408E-02-4.61569E+00 4.34597E-13-1.19918E-13
 -1      2928 1.68686E+01-1.83804E+00 1.03181E-01-5.21367E+00-9.75747E-14-3.82680E-13
 -1      2929 1.97952E+01 2.72051E+00 4.05444E-03 2.93867E-02 1.89683E-13-3.05502E-13
 -1      2930 1.96747E+01 3.02352E+00-5.91727E-03-3.20202E-02 1.95064E-13-3.24754E-13
 -1      2931 1.96910E+01 3.00237E+00-5.12624E-03-1.68965E-01 1.70666E-13-3.58555E-13
 -1      2932 2.03570E+01 9.31079E-01 1.73669E-03 5.05729E-01 2.61137E-13 9.07157E-14
 -1      2933 2.03442E+01 1.16247E+00 3.28014E-03 5.77631E-01 2.72649E-13 3.50226E-14
 -1      2934 2.03005E+01 7.86789E-01-1.62208E-04 3.01816E-01 2.39922E-13 7.00401E-14
 -1      2935 1.24902E+01-1.66644E+00 1.59549E-01-6.04849E+00-9.42302E-14 1.29313E-13
 -1      2936 1.86899E+01-3.94224E+00 9.66692E-02-6.45352E+00 1.37113E-13 5.00468E-14
 -1      2937 2.00016E+01 3.50283E-03-2.74336E-05-2.22455E-04-2.09689E-13-2.59263E-13
 -1      2938 2.00017E+01 3.08168E-03 1.82198E-05-6.35567E-04 4.76962E-14-2.74514E-13
 -1      2939 2.83115E+01 4.75269E+00-1.19655E-01 1.75010E+00-2.17007E-13 2.64233E-14
 -1      2940 1.83757E+01 1.61416E+00 2.51037E-02 2.23671E+00-8.49169E-14 1.65418E-13
 -1      2941 8.61036E+00 8.13982E-02 1.80805E-01-3.24519E+00 1.17753E-14 1.65701E-14
 -1      2942 2.00010E+01 2.18071E-03 2.42534E-05 1.20183E-03 5.47776E-13 1.34620E-14
 -1      2943 1.78863E+01-1.16815E+00 7.35097E-02-4.79165E+00-2.63539E-14-3.51753E-13
 -1      2944 1.75556E+01-6.86427E-02 5.06047E-02-4.39865E+00 4.84959E-14-2.77355E-13
 -1      2945 1.98896E+01-2.96643E+00 1.40543E-01 4.98220E+00-1.88904E-13-7.34759E-14
 -1      2946 2.00011E+01 4.77554E-03-3.53398E-05 3.72874E-04-1.12418E-13-7.39702E-14
 -1      2947 2.00014E+01 4.40980E-03 1.99633E-05 1.09300E-04-2.14439E-13-1.51893E-13
 -1      2948 2.00018E+01 6.09143E-03 2.53317E-05 5.23261E-04-1.02409E-13-2.81070E-13
 -1      2949 2.87202E+01 2.80621E-01-1.02408E-01 1.30163E+00 1.25615E-13-1.21014E-14
 -1      2950 2.76649E+01 1.32887E+00-8.59489E-02 1.89245E+00 1.07629E-13 5.59761E-14
 -1      2951 2.75590E+01-1.06192E+00-3.17590E-02 8.42614E-01 2.96312E-13 3.61863E-15
 -1      2952 2.00013E+01 3.81123E-03-1.92213E-05 4.72887E-04 2.23222E-13-2.95439E-13
 -1      2953 2.00012E+01 3.40338E-03-1.77070E-05 6.29739E-04 4.84583E-13 3.51923E-13
 -1      2954 2.00015E+01 5.56295E-03 5.12671E-05-1.57424E-04 2.17106E-13 3.15127E-13
 -1      2955 2.00017E+01 4.97926E-03 7.03567E-05-2.34606E-04 7.11040E-14-3.70217E-13
 -1      2956 2.00012E+01 7.68818E-03 3.97670E-05 8.98168E-04-1.38411E-13-1.68435E-13
 -1      2957 1.55778E+01 5.59956E-01 2.78375E-02-3.96462E+00 5.94177E-14-4.12531E-13
 -1      2958 2.09915E+01-4.84144E+00 8.51220E-02 6.17920E+00 2.15730E-13-2.16754E-15
 -1      2959 2.02065E+01-4.29120E+00 6.10571E-02 6.02336E+00 2.57877E-13-2.05183E-14
 -1      2960 2.27572E+01-4.91886E+00-3.29319E-02 5.19045E+00 1.76643E-13 8.05137E-14
 -1      2961 1.81618E+01 2.14827E-01 3.48731E-02 4.16817E+00-1.60070E-13 6.18811E-14
 -1      2962 1.85909E+01-7.26856E-01 9.89282E-02 4.48197E+00-2.24522E-13-9.63257E-14
 -1      2963 9.25317E+00-3.08372E-01 1.93489E-01 4.10216E+00 2.00964E-13-2.33924E-13
 -1      2964 9.57634E+00 5.34867E-01 8.77688E-02 2.81589E+00 1.68605E-13-2.50883E-13
 -1      2965 1.13539E+01-6.38280E-01 7.94010E-02 4.84781E+00 2.65937E-13-1.00628E-13
 -1      2966 1.50985E+01-2.90581E+00 1.24936E-01 6.59616E+00 2.82496E-13 1.64452E-14
 -1      2967 2.91111E+01 3.12176E+00-1.09603E-01-1.78148E+00-1.97786E-13 2.13593E-13
 -1      2968 2.96633E+01-7.96328E-01-9.26644E-02-2.23092E-01-5.42413E-14 1.11106E-13
 -1      2969 2.86443E+01-1.97577E+00-4.46822E-02 2.97132E-01-4.26048E-15 2.41127E-13
 -1      2970 2.87969E+01-1.44668E-01-7.86611E-02-1.14085E+00-7.58144E-14 2.92946E-13
 -1      2971 1.99466E+01 2.56577E+00-6.94563E-03-7.93197E-01 3.33876E-14-4.05363E-13
 -1      2972 2.00317E+01 2.40897E+00-9.52021E-03-9.22513E-01-1.44835E-14-4.28271E-13
 -1      2973 2.00330E+01 2.30216E+00 5.61465E-03-6.20410E-01 3.15438E-14-3.76445E-13
 -1      2974 2.00016E+01 2.15499E-03-1.70942E-05-1.08664E-03 1.52117E-13-4.36702E-13
 -1      2975 2.00015E+01 1.78180E-03 1.03591E-05-1.49091E-03 1.95707E-13-4.04987E-13
 -1      2976 2.00018E+01 2.57685E-03-3.57865E-06-1.21550E-03 1.82683E-13-4.43309E-13
 -1      2977 2.00020E+01 4.24257E-03-1.47476E-05-2.90767E-04 1.52925E-13-4.98768E-13
 -1      2978 2.75111E+01-3.77376E+00-8.66318E-02 1.96373E+00-2.73080E-14 2.59445E-13
 -1      2979 2.68759E+01-4.34567E+00-1.87374E-03 3.40485E+00-6.37823E-14 1.82410E-13
 -1      2980 2.52867E+01-4.73324E+00 5.47022E-02 4.02423E+00 9.31547E-14 1.14107E-13
 -1      2981 1.89086E+01-1.77587E+00 1.12002E-01 4.93309E+00-1.72196E-13-4.73371E-14
 -1      2982 1.97186E+01 2.95301E+00-6.18396E-03-2.85683E-01 1.50863E-13-3.57928E-13
 -1      2983 1.97585E+01 2.89529E+00-5.64981E-03-4.25354E-01 1.16668E-13-3.86711E-13
 -1      2984 1.99100E+01 2.52707E+00 4.41826E-03-4.09097E-01 9.84013E-14-3.81654E-13
 -1      2985 1.98293E+01 2.66436E+00 3.99177E-03-1.89000E-01 1.49270E-13-3.38734E-13
 -1      2986 1.58230E+01-9.07385E-01 3.27460E-02 4.87958E+00-2.06134E-13-4.59077E-14
 -1      2987 2.83507E+01 6.17354E+00-1.30138E-01-1.16462E+00-2.47663E-13 5.31519E-14
 -1      2988 1.07293E+01-5.42480E-01 1.23515E-01-3.82241E+00-1.87489E-14-3.29348E-13
 -1      2989 1.43484E+01-6.73771E-01 1.63241E-01-4.83542E+00 1.25941E-14-5.07067E-13
 -1      2990 2.80568E+01 6.79335E+00-1.31521E-01 4.35770E-01-3.33622E-13 2.46435E-14
 -1      2991 2.73132E+01-3.37995E+00-7.08984E-03-1.61500E+00 4.76686E-13-1.00336E-14
 -1      2992 2.02348E+01 6.11797E-01 1.01425E-03 4.82618E-03 1.70660E-13 8.96804E-14
 -1      2993 2.02820E+01 6.98619E-01 4.11844E-03 1.65022E-01 1.89783E-13 7.83794E-14
 -1      2994 2.02889E+01 8.52430E-01-4.26169E-03 2.27349E-01 1.98956E-13 3.88932E-14
 -1      2995 2.02327E+01 7.10347E-01-1.89270E-03-4.12520E-02 1.72341E-13 3.50566E-15
 -1      2996 1.63089E+01 8.48382E-01 4.53533E-02 3.74368E+00-2.10968E-13-1.09517E-13
 -1      2997 2.03248E+01 1.33384E+00-1.10679E-03 6.23788E-01 2.73176E-13-4.88162E-16
 -1      2998 2.02640E+01 1.56046E+00-1.67969E-03 6.57254E-01 2.94501E-13-8.57593E-15
 -1      2999 2.03088E+01 1.15169E+00 4.52844E-03 4.23632E-01 2.24840E-13 1.12668E-14
 -1      3000 2.01825E+01 1.75178E+00-4.60829E-03 6.09073E-01 2.80477E-13-4.14294E-14
 -1      3001 2.71851E+01 3.64474E+00-8.27368E-02 2.00629E+00-1.86240E-13 4.57967E-15
 -1      3002 2.69064E+01 5.13854E+00-1.56422E-01 1.55723E+00-2.48343E-13-3.98986E-16
 -1      3003 1.30427E+01 1.50569E-01 9.34855E-02 3.93182E+00-5.80508E-14-1.32117E-14
 -1      3004 1.77447E+01-3.02153E+00 9.19639E-02-6.09780E+00 6.12912E-14-2.53200E-14
 -1      3005 2.07166E+01-4.19046E+00-1.20755E-02-5.68008E+00 1.83353E-13-1.92277E-13
 -1      3006 2.02911E+01 4.88858E-01 4.54051E-03 1.01635E-01-4.34794E-14-2.49202E-13
 -1      3007 2.02709E+01 3.71490E-01-1.83214E-03 2.01930E-01-2.92838E-14-2.50917E-13
 -1      3008 2.02759E+01 2.73417E-01 3.91302E-03 2.83398E-01-5.05259E-14-2.43009E-13
 -1      3009 2.02728E+01 1.81677E-01-9.71020E-04 3.46141E-01-8.12438E-14-2.75143E-13
 -1      3010 2.02933E+01 3.92434E-01-1.95851E-03 2.39176E-01-4.21780E-14-2.45743E-13
 -1      3011 2.02889E+01 9.99392E-02 3.69974E-03 3.98428E-01-9.26288E-14-2.56206E-13
 -1      3012 2.03049E+01 1.77952E-02-6.22922E-04 4.29220E-01-6.26917E-14-2.71666E-13
 -1      3013 2.03009E+01 1.80095E-01-2.75411E-03 3.81636E-01-8.29267E-14-2.31396E-13
 -1      3014 2.03412E+01-6.06909E-02 3.91833E-03 4.54678E-01-1.97779E-14-2.82648E-13
 -1      3015 2.03771E+01-1.44677E-01-7.73392E-04 4.55304E-01-5.15748E-14-2.55433E-13
 -1      3016 2.03409E+01-9.74480E-03-3.49904E-03 4.68697E-01-4.83108E-14-2.38792E-13
 -1      3017 2.04418E+01-2.28522E-01 4.57105E-03 4.52527E-01-5.66221E-14-2.33251E-13
 -1      3018 2.04975E+01-3.20988E-01-1.43786E-03 4.21154E-01-3.99588E-14-2.26585E-13
 -1      3019 2.04288E+01-2.02765E-01-4.31047E-03 5.01811E-01-2.52536E-14-2.26150E-13
 -1      3020 2.05972E+01-4.13302E-01 5.49859E-03 3.84726E-01-4.63507E-14-1.53460E-13
 -1      3021 2.06707E+01-5.14022E-01-2.61181E-03 3.17016E-01-1.80291E-14-1.28824E-13
 -1      3022 2.05782E+01-4.14146E-01-5.08470E-03 4.74544E-01-1.35720E-15-2.13688E-13
 -1      3023 2.08081E+01-6.09758E-01 6.30643E-03 2.38376E-01-3.30964E-14-1.03962E-13
 -1      3024 2.08933E+01-7.08185E-01-4.14998E-03 1.29876E-01-3.64357E-14-9.87506E-14
 -1      3025 2.07986E+01-6.43639E-01-5.47173E-03 3.72588E-01-2.88431E-14-8.86902E-14
 -1      3026 2.10625E+01-7.90701E-01 6.34465E-03 2.60507E-04-2.54932E-14-1.19233E-13
 -1      3027 2.11478E+01-8.62361E-01-5.54973E-03-1.49275E-01-8.71498E-15-1.06401E-13
 -1      3028 2.10886E+01-8.67693E-01-4.89309E-03 1.76924E-01-1.45702E-14-3.96263E-14
 -1      3029 2.13282E+01-9.00996E-01 4.67941E-03-3.32401E-01-3.90657E-14-1.13596E-13
 -1      3030 2.13955E+01-9.06457E-01-5.74737E-03-5.12253E-01-3.67970E-14-1.07913E-13
 -1      3031 2.14268E+01-1.03063E+00-2.55380E-03-1.27548E-01-9.36198E-15-7.89874E-14
 -1      3032 2.15484E+01-8.58946E-01 4.01109E-04-7.33766E-01-2.46593E-14-1.00342E-13
 -1      3033 2.15770E+01-7.51514E-01-3.24019E-03-9.13917E-01-2.57671E-14-1.06765E-13
 -1      3034 2.17609E+01-1.04206E+00 1.98210E-03-5.34351E-01-2.89074E-14-1.86415E-13
 -1      3035 2.16511E+01-5.77972E-01-6.32781E-03-1.12736E+00-6.04790E-14-1.42325E-13
 -1      3036 2.16275E+01-3.27006E-01 2.85631E-03-1.25395E+00-1.08654E-13-1.39242E-13
 -1      3037 2.20077E+01-7.95218E-01 7.81306E-03-9.87779E-01-6.36239E-14-1.55933E-13
 -1      3038 2.15832E+01-1.95755E-02-1.35564E-02-1.37683E+00-1.15115E-13-6.41997E-14
 -1      3039 2.15130E+01 3.51623E-01 1.04953E-02-1.38185E+00-9.98293E-14-6.05966E-14
 -1      3040 2.20780E+01-2.20489E-01 1.19748E-02-1.35868E+00-5.41621E-14-1.77851E-13
 -1      3041 2.13638E+01 7.32965E-01-1.69281E-02-1.32155E+00-4.96829E-14-2.80363E-14
 -1      3042 2.12787E+01 1.12122E+00 1.48310E-02-1.15683E+00 5.27941E-15-9.89183E-15
 -1      3043 2.19361E+01 6.23900E-01 9.58352E-03-1.45698E+00-3.14611E-14-5.63937E-14
 -1      3044 2.11091E+01 1.44550E+00-1.22537E-02-8.70614E-01 5.97992E-16-7.34579E-15
 -1      3045 2.10548E+01 1.68997E+00 1.01119E-02-5.49736E-01-2.69413E-14-2.02139E-14
 -1      3046 2.16643E+01 1.50280E+00 1.05726E-03-1.12404E+00-8.34834E-15-1.12922E-14
 -1      3047 2.09869E+01 1.80735E+00-7.66489E-04-1.12829E-01-2.50786E-14-5.50722E-14
 -1      3048 2.09929E+01 1.79439E+00-1.61254E-03 2.65694E-01-8.91937E-14-7.33799E-14
 -1      3049 2.14571E+01 2.05410E+00-6.77644E-03-3.75082E-01-5.02865E-14-9.31757E-14
 -1      3050 2.10743E+01 1.64971E+00 1.04241E-02 6.94094E-01-1.43676E-13-1.14575E-13
 -1      3051 2.11387E+01 1.38389E+00-1.32217E-02 1.00108E+00-9.24929E-14-1.49600E-13
 -1      3052 2.14711E+01 2.02075E+00-6.67000E-03 5.32809E-01-1.33655E-13-1.11441E-13
 -1      3053 2.13074E+01 1.05030E+00 1.36926E-02 1.26142E+00-7.18754E-14-2.19165E-13
 -1      3054 2.13942E+01 6.63831E-01-1.70745E-02 1.40907E+00-2.61100E-14-2.98780E-13
 -1      3055 2.16931E+01 1.42049E+00 9.75938E-04 1.24492E+00-1.68982E-13-1.59288E-13
 -1      3056 2.15315E+01 2.91653E-01 9.32643E-03 1.44939E+00 1.05072E-13-2.98385E-13
 -1      3057 2.15984E+01-6.26719E-02-1.26443E-02 1.43210E+00 9.09973E-14-2.47417E-13
 -1      3058 2.19495E+01 5.45272E-01 9.03982E-03 1.52892E+00 5.26122E-14-1.66967E-13
 -1      3059 2.16236E+01-3.48991E-01 1.59887E-03 1.30087E+00-6.82107E-15-1.75906E-13
 -1      3060 2.16427E+01-5.76704E-01-5.25751E-03 1.17278E+00-6.23390E-14-2.79633E-14
 -1      3061 2.20618E+01-2.60584E-01 1.11743E-02 1.39942E+00 7.60730E-14-1.34531E-13
 -1      3062 2.15522E+01-7.28840E-01-4.20621E-03 9.63950E-01-7.00983E-14 1.10003E-15
 -1      3063 2.15198E+01-8.15846E-01 1.08986E-03 7.91396E-01 3.48709E-14 6.25774E-14
 -1      3064 2.19602E+01-7.81103E-01 7.07077E-03 1.02614E+00 1.23767E-15-4.98272E-14
 -1      3065 2.13558E+01-8.47177E-01-6.24989E-03 5.83274E-01 5.06972E-14 2.66123E-14
 -1      3066 2.12868E+01-8.28682E-01 5.02227E-03 4.16673E-01 1.05261E-13 3.95137E-15
 -1      3067 2.16893E+01-9.82241E-01 1.26102E-03 5.92554E-01 4.02293E-14 1.03353E-13
 -1      3068 2.11000E+01-7.81499E-01-5.73913E-03 2.50219E-01 1.07339E-13-5.74624E-14
 -1      3069 2.10144E+01-7.04829E-01 6.34329E-03 1.15692E-01 1.55430E-13-8.84171E-14
 -1      3070 2.13406E+01-9.41657E-01-2.72763E-03 2.16954E-01 5.66136E-14 1.15717E-14
 -1      3071 2.08406E+01-6.21108E-01-4.22937E-03 1.99154E-03 1.28127E-13-1.14012E-13
 -1      3072 2.07551E+01-5.25182E-01 5.98235E-03-9.28598E-02 2.12838E-14-1.79348E-13
 -1      3073 2.09928E+01-7.68399E-01-4.64504E-03-5.50810E-02 9.18996E-14-6.82892E-14
 -1      3074 2.06123E+01-4.35329E-01-2.63619E-03-1.59207E-01-2.76640E-14-1.29695E-13
 -1      3075 2.05368E+01-3.44621E-01 4.83800E-03-2.17503E-01 1.83370E-14 7.89071E-15
 -1      3076 2.06931E+01-5.51484E-01-4.91877E-03-2.23666E-01 6.29653E-14-9.05480E-14
 -1      3077 2.04295E+01-2.65748E-01-1.36924E-03-2.47862E-01-4.22896E-14-3.26623E-14
 -1      3078 2.03679E+01-1.91980E-01 3.51012E-03-2.77142E-01 9.79475E-15-2.14124E-14
 -1      3079 2.04590E+01-3.46617E-01-4.30179E-03-3.09274E-01-3.99236E-14 1.73181E-14
 -1      3080 2.02926E+01-1.31012E-01-4.97587E-04-2.83061E-01-1.42727E-14-4.13582E-14
 -1      3081 2.02449E+01-7.73229E-02 2.31581E-03-2.91610E-01-4.13723E-14-4.22218E-14
 -1      3082 2.02892E+01-1.80174E-01-3.36493E-03-3.36428E-01 1.89784E-14 7.71559E-14
 -1      3083 2.01953E+01-3.48790E-02 4.44333E-05-2.82572E-01 1.41795E-14-7.73015E-15
 -1      3084 2.01597E+01 3.28389E-04 1.37663E-03-2.77682E-01 1.40346E-14 3.24983E-14
 -1      3085 2.01735E+01-5.90731E-02-2.43378E-03-3.26503E-01 2.68415E-14 6.07409E-14
 -1      3086 2.01289E+01 2.68121E-02 3.49547E-04-2.60645E-01-8.52268E-14 7.19950E-14
 -1      3087 2.01029E+01 4.71556E-02 7.04199E-04-2.48026E-01-2.22497E-13 6.15140E-14
 -1      3088 2.00989E+01 2.03886E-02-1.65411E-03-2.95674E-01-4.81754E-14-7.12794E-14
 -1      3089 2.00850E+01 6.13634E-02 4.96906E-04-2.27712E-01-1.38729E-13 7.77195E-14
 -1      3090 2.00662E+01 7.08556E-02 2.60082E-04-2.11478E-01 3.36411E-14 1.30990E-13
 -1      3091 2.00535E+01 6.63896E-02-1.06457E-03-2.55155E-01-7.88528E-14 1.02307E-13
 -1      3092 2.00566E+01 7.64331E-02 5.44950E-04-1.90871E-01-1.04122E-13 1.52090E-13
 -1      3093 2.00431E+01 7.86593E-02-8.89560E-06-1.73773E-01-1.25621E-13 2.00410E-13
 -1      3094 2.00274E+01 8.79505E-02-6.51407E-04-2.12188E-01-7.11867E-15 5.78748E-14
 -1      3095 2.00385E+01 7.86823E-02 5.33674E-04-1.54601E-01-1.51232E-13 1.99832E-13
 -1      3096 2.00287E+01 7.64905E-02-1.53414E-04-1.38334E-01-6.80338E-14 4.12332E-14
 -1      3097 2.00135E+01 9.31203E-02-3.78814E-04-1.71109E-01-2.16114E-13 1.13357E-13
 -1      3098 2.00269E+01 7.33081E-02 4.89403E-04-1.21469E-01-5.29202E-14-1.52748E-13
 -1      3099 2.00198E+01 6.87766E-02-2.15542E-04-1.06955E-01-1.31639E-13-3.44369E-13
 -1      3100 2.00068E+01 8.82914E-02-2.09017E-04-1.34247E-01-2.28606E-13 1.87543E-13
 -1      3101 2.00195E+01 6.40469E-02 4.29195E-04-9.27102E-02 1.40466E-14-3.88383E-13
 -1      3102 2.00142E+01 5.85830E-02-2.27117E-04-8.03439E-02-3.48949E-14-4.20476E-13
 -1      3103 2.00040E+01 7.81358E-02-1.09319E-04-1.02601E-01-8.54641E-14-1.80795E-13
 -1      3104 2.00145E+01 5.33916E-02 3.63836E-04-6.86941E-02-2.12791E-14-2.99482E-13
 -1      3105 2.00106E+01 4.78756E-02-2.10610E-04-5.85318E-02 2.91226E-14-2.32545E-13
 -1      3106 2.00032E+01 6.58262E-02-5.45531E-05-7.63433E-02-1.36348E-14-2.55892E-13
 -1      3107 2.00111E+01 4.28732E-02 2.99935E-04-4.92615E-02-2.43222E-16-1.22553E-13
 -1      3108 2.00081E+01 3.78003E-02-1.80963E-04-4.11620E-02-7.95082E-14-1.22394E-13
 -1      3109 2.00031E+01 5.33545E-02-2.68382E-05-5.51615E-02 7.81194E-14-7.33237E-14
 -1      3110 2.00085E+01 3.33292E-02 2.41314E-04-3.39663E-02-1.00037E-13-1.19895E-13
 -1      3111 2.00063E+01 2.89297E-02-1.47517E-04-2.76884E-02-3.30345E-14-1.26251E-13
 -1      3112 2.00033E+01 4.18482E-02-1.43072E-05-3.84955E-02-4.20296E-14 2.48278E-13
 -1      3113 2.00065E+01 2.51246E-02 1.89988E-04-2.22372E-02-2.13044E-15-3.72223E-13
 -1      3114 2.00048E+01 2.14554E-02-1.16074E-04-1.75050E-02 6.64381E-14-2.27660E-13
 -1      3115 2.00033E+01 3.18382E-02-9.59660E-06-2.56890E-02-2.28629E-14 8.56082E-14
 -1      3116 2.00050E+01 1.83179E-02 1.46273E-04-1.34853E-02 6.78873E-14-2.98563E-13
 -1      3117 2.00037E+01 1.53350E-02-8.84511E-05-1.00318E-02 9.08213E-14-4.07212E-13
 -1      3118 2.00031E+01 2.34629E-02-8.50220E-06-1.60859E-02-1.04331E-14-4.09344E-13
 -1      3119 2.00037E+01 1.27976E-02 1.09406E-04-7.16635E-03 1.22709E-13-3.77643E-13
 -1      3120 2.00027E+01 1.04081E-02-5.70434E-05-4.74963E-03 8.74581E-14-4.49247E-13
 -1      3121 2.00028E+01 1.66436E-02-4.43047E-06-9.09905E-03 6.88447E-14-3.91304E-13
 -1      3122 2.00026E+01 8.48383E-03 8.64552E-05-2.98944E-03 3.00693E-15-3.81998E-13
 -1      3123 2.00019E+01 6.54650E-03-3.39694E-05-1.38938E-03-4.78092E-14-5.35766E-13
 -1      3124 2.00018E+01 6.97329E-03-5.10397E-05-1.37370E-03 7.32348E-14-2.15385E-14
 -1      3125 2.00023E+01 1.12029E-02-3.46543E-05-4.40486E-03 1.12734E-13-5.18014E-13
 -1      3126 2.68250E+01 6.17936E+00-1.09907E-01 8.75205E-01-3.16053E-13 7.03881E-14
 -1      3127 2.67890E+01 6.44206E+00-1.33840E-01-1.77215E-02-3.45848E-13 5.30296E-14
 -1      3128 1.86599E+01 1.34445E+00-5.09644E-03-1.36038E+00 1.03397E-13-7.96346E-14
 -1      3129 1.89026E+01 1.19927E+00-1.19638E-02-1.22775E+00 1.12552E-13-6.70235E-14
 -1      3130 1.92152E+01 1.06922E+00-2.88769E-03-1.15165E+00 1.00246E-13-3.87030E-14
 -1      3131 1.93714E+01 9.48930E-01-7.99331E-03-1.03156E+00 1.06778E-13-2.49602E-14
 -1      3132 1.88238E+01 1.24994E+00 1.54523E-02-9.68580E-01 1.16390E-13-3.02705E-14
 -1      3133 1.66596E+01 1.81880E+00-7.92451E-04-1.86131E+00 6.50096E-14-1.35336E-13
 -1      3134 1.71751E+01 1.73868E+00-2.37337E-02-1.67392E+00 8.26344E-14-1.29691E-13
 -1      3135 1.50550E+01 1.70493E+00 3.46931E-02-2.26313E+00 4.27531E-14-2.63414E-13
 -1      3136 1.56964E+01 1.81986E+00-2.02175E-02-2.00296E+00 6.01481E-14-1.87773E-13
 -1      3137 1.54990E+01 2.03605E+00 6.03657E-02-1.23698E+00 9.91644E-14-8.78841E-14
 -1      3138 2.00008E+01 1.06651E-02-5.55273E-05 1.66854E-03-1.75828E-13-4.03669E-13
 -1      3139 2.00013E+01 1.00379E-02 1.40952E-05 1.66820E-03-4.34463E-14-2.60609E-13
 -1      3140 1.99999E+01 6.47529E-01-8.66818E-04-5.55590E-01 1.47444E-13-7.64759E-14
 -1      3141 2.00547E+01 6.52639E-01-4.53148E-05-4.36413E-01 1.50563E-13-4.04908E-14
 -1      3142 1.91368E+01 1.13371E+00-1.17531E-02 1.08423E+00-1.07317E-13 1.19257E-13
 -1      3143 1.89566E+01 1.28400E+00-2.86270E-03 1.23431E+00-1.01199E-13 1.38496E-13
 -1      3144 1.94881E+01 8.80849E-01-8.33160E-03 8.73844E-01-9.10872E-14 7.43741E-15
 -1      3145 1.93860E+01 1.00545E+00-1.08646E-03 9.94665E-01-1.10420E-13 1.07431E-14
 -1      3146 1.89563E+01 1.20005E+00 1.43693E-02 8.66685E-01-1.02499E-13 9.79490E-15
 -1      3147 9.37744E+00 5.31077E-01 1.60532E-01 1.91230E+00 5.71869E-14 6.39488E-14
 -1      3148 6.85155E+00 7.21192E-02 1.86009E-01 6.66074E-01 7.66678E-14 7.02216E-14
 -1      3149 1.85679E+01 1.43001E+00-1.64700E-02 1.34161E+00-8.97861E-14 9.03573E-14
 -1      3150 1.82863E+01 1.57995E+00-3.56837E-03 1.51919E+00 7.14706E-16 7.87053E-14
 -1      3151 1.83625E+01 1.50980E+00 2.14405E-02 1.01912E+00-9.71535E-14 1.03918E-13
 -1      3152 1.97200E+01 6.61442E-01-6.08758E-03 6.86331E-01 3.62130E-14-4.36191E-14
 -1      3153 1.96606E+01 7.67284E-01 5.60575E-05 7.90278E-01-6.51226E-15 4.05220E-14
 -1      3154 1.93493E+01 9.28087E-01 9.48233E-03 7.21261E-01-5.86779E-14-9.97368E-14
 -1      3155 1.98599E+01 4.90757E-01-4.30345E-03 5.31435E-01 1.64525E-13 2.22333E-15
 -1      3156 1.98313E+01 5.72213E-01 6.96953E-04 6.14791E-01 9.75839E-14-7.84427E-14
 -1      3157 1.96106E+01 7.01190E-01 6.27054E-03 5.83947E-01 5.59689E-14-1.92694E-14
 -1      3158 1.99406E+01 3.61626E-01-3.04011E-03 4.06129E-01-2.78880E-14 1.83151E-13
 -1      3159 1.99301E+01 4.22997E-01 1.02458E-03 4.71806E-01 7.15039E-14 1.49771E-13
 -1      3160 1.97752E+01 5.23589E-01 3.98300E-03 4.63252E-01 1.21346E-14 1.49454E-13
 -1      3161 1.99848E+01 2.65490E-01-2.14343E-03 3.06509E-01 6.55123E-14 3.99959E-14
 -1      3162 1.99840E+01 3.11131E-01 1.10172E-03 3.57542E-01-9.18352E-14 5.74594E-14
 -1      3163 1.98764E+01 3.88372E-01 2.46120E-03 3.60945E-01 1.28204E-14 6.50440E-14
 -1      3164 2.00071E+01 1.94611E-01-1.45215E-03 2.28478E-01 1.48227E-13 1.51930E-13
 -1      3165 2.00111E+01 2.28264E-01 1.05709E-03 2.67674E-01 1.96418E-13 5.05283E-14
 -1      3166 1.99371E+01 2.86868E-01 1.46590E-03 2.76663E-01 5.96820E-14-2.60215E-13
 -1      3167 2.00166E+01 1.44589E-01-1.01886E-03 1.70693E-01 2.09213E-13 8.75101E-14
 -1      3168 2.00222E+01 1.68539E-01 9.39474E-04 1.99402E-01 2.85805E-13 1.50222E-13
 -1      3169 1.99717E+01 2.12771E-01 7.96174E-04 2.10182E-01 1.70979E-13-2.18657E-13
 -1      3170 2.00194E+01 1.05465E-01-7.40500E-04 1.23685E-01 4.50273E-14-5.60457E-14
 -1      3171 2.00255E+01 1.24057E-01 7.79037E-04 1.46567E-01 7.33175E-14 1.04043E-13
 -1      3172 1.99913E+01 1.57726E-01 4.89462E-04 1.57377E-01 1.69037E-13-4.86983E-14
 -1      3173 2.00187E+01 7.66935E-02-5.16333E-04 8.80357E-02 2.23731E-13-8.46041E-14
 -1      3174 2.00243E+01 9.04020E-02 6.34074E-04 1.05202E-01 1.80050E-13 3.86123E-15
 -1      3175 2.00020E+01 1.15557E-01 2.60818E-04 1.14924E-01 1.50729E-13-7.83096E-14
 -1      3176 2.00163E+01 5.54759E-02-3.58825E-04 6.12476E-02-1.49162E-13-2.34165E-13
 -1      3177 2.00211E+01 6.55946E-02 5.04676E-04 7.40090E-02 9.60148E-14-8.25625E-14
 -1      3178 2.00069E+01 8.42811E-02 1.21910E-04 8.22655E-02 2.16450E-13-1.10963E-13
 -1      3179 2.00134E+01 3.98182E-02-2.48605E-04 4.13367E-02-2.92901E-13-2.89643E-13
 -1      3180 2.00173E+01 4.72889E-02 3.93493E-04 5.07306E-02-2.92236E-13-3.43688E-13
 -1      3181 2.00086E+01 6.10872E-02 4.29106E-05 5.74642E-02-9.16363E-14-1.83025E-13
 -1      3182 2.00106E+01 2.82801E-02-1.61683E-04 2.67307E-02-1.39373E-13-5.05790E-13
 -1      3183 2.00136E+01 3.37751E-02 3.01478E-04 3.35546E-02-2.05218E-13-3.04570E-13
 -1      3184 2.00086E+01 4.38881E-02-8.80768E-07 3.88813E-02-2.39059E-13-3.10909E-13
 -1      3185 2.00082E+01 2.01098E-02-1.11288E-04 1.66230E-02-1.24985E-13-6.30856E-13
 -1      3186 2.00104E+01 2.40334E-02 2.29378E-04 2.13269E-02-1.86915E-13-6.06803E-13
 -1      3187 2.00077E+01 3.13604E-02-3.64690E-05 2.54284E-02-1.10860E-13-6.99911E-13
 -1      3188 2.00059E+01 1.36678E-02-8.12842E-05 9.01406E-03 1.27272E-13-3.96309E-13
 -1      3189 2.00077E+01 1.67323E-02 1.69780E-04 1.24945E-02 7.17656E-14-4.00078E-13
 -1      3190 2.00065E+01 2.20993E-02-2.73073E-05 1.56374E-02-7.45750E-14-5.16958E-13
 -1      3191 2.00041E+01 8.83383E-03-6.02394E-05 3.78881E-03 2.10577E-13-5.21179E-13
 -1      3192 2.00055E+01 1.11674E-02 1.27987E-04 6.15049E-03 1.51313E-13-3.81876E-13
 -1      3193 2.00051E+01 1.49441E-02-3.23161E-05 8.48119E-03 1.69662E-13-2.64198E-13
 -1      3194 2.00027E+01 5.11740E-03-2.95534E-05 4.39700E-04 2.90090E-13-6.33716E-13
 -1      3195 2.00037E+01 6.90455E-03 9.64433E-05 1.92087E-03 2.58004E-13-5.30355E-13
 -1      3196 2.00038E+01 9.45187E-03-5.71507E-05 3.56157E-03 1.87135E-13-5.29447E-13
 -1      3197 1.36107E+01 5.85214E-01 8.86871E-02-3.57083E+00 9.82721E-14-3.86989E-13
 -1      3198 1.38752E+01 1.38682E+00 4.94911E-02-2.84080E+00 6.08064E-14-3.37501E-13
 -1      3199 1.65485E+01 1.79882E+00-2.52732E-02 2.08850E+00-1.90827E-13-1.07437E-13
 -1      3200 1.60230E+01 1.73801E+00 2.05549E-02 2.36991E+00-1.63018E-13-2.26156E-13
 -1      3201 2.00011E+01 8.33770E-03-6.99014E-06-1.12564E-03 4.67484E-13 1.61657E-13
 -1      3202 2.00008E+01 9.15866E-03-5.22190E-05-1.21739E-03 4.57543E-13-2.06957E-14
 -1      3203 2.00004E+01 1.03942E-02 7.74743E-06-1.04814E-03 2.62775E-13 3.24169E-14
 -1      3204 2.00001E+01 1.09554E-02-5.24715E-05-9.01635E-04 1.91748E-13 3.86012E-13
 -1      3205 2.00006E+01 1.25054E-02 4.67446E-05-1.97663E-03 4.57549E-13 2.20464E-13
 -1      3206 2.01231E+01 6.82745E-01-1.52037E-03-3.25373E-01 1.41677E-13-4.25141E-14
 -1      3207 2.01737E+01 7.43728E-01 2.37773E-03-1.85880E-01 1.61111E-13-6.01550E-14
 -1      3208 2.00610E+01 7.80841E-01 2.16377E-03-3.28643E-01 1.49830E-13-9.50099E-14
 -1      3209 2.01099E+01 2.25758E+00-5.19178E-03-9.87178E-01-2.97520E-14-4.12905E-13
 -1      3210 2.01989E+01 2.05823E+00-9.96265E-03-1.06882E+00-7.91873E-14-4.10488E-13
 -1      3211 2.02813E+01 1.66877E+00 3.25689E-03-8.47577E-01-8.95435E-14-3.71896E-13
 -1      3212 2.01699E+01 2.00977E+00 6.65438E-03-7.75174E-01-1.79422E-14-3.86120E-13
 -1      3213 1.77121E+01 1.69934E+00-2.26342E-02 1.65002E+00-9.86587E-14-2.22877E-14
 -1      3214 1.73064E+01 1.79974E+00 1.13950E-03 1.86284E+00-2.25529E-13-4.22748E-14
 -1      3215 1.74530E+01 1.82831E+00 3.09382E-02 1.18139E+00-1.43947E-13-7.86567E-14
 -1      3216 2.00017E+01 8.74392E-03-5.88874E-05 1.62829E-03 1.08855E-13-3.05108E-13
 -1      3217 2.00022E+01 7.97340E-03 2.52133E-05 1.40086E-03 1.51471E-13-3.94395E-13
 -1      3218 2.00017E+01 1.21628E-02 5.85737E-05 2.56117E-03 1.74305E-13-2.97095E-13
 -1      3219 1.71246E+01-3.04971E+00 4.38599E-02 6.22365E+00 2.74031E-13-2.22877E-14
 -1      3220 1.41569E+01-1.76824E+00 1.20497E-01 5.91807E+00 2.46130E-13 2.19269E-14
 -1      3221 2.68202E+01 6.10681E+00-1.43986E-01-8.44305E-01-2.70034E-13 3.87121E-14
 -1      3222 2.72046E+01 5.25153E+00-8.91648E-02-1.64391E+00-1.81022E-13 8.19414E-14
 -1      3223 9.46831E+00 8.88763E-01 1.21933E-01-2.21748E+00 9.39734E-14 1.12757E-13
 -1      3224 1.02515E+01 1.99605E-01 8.32008E-02-3.98004E+00-2.10457E-14 5.76761E-14
 -1      3225 1.48580E+01 1.50687E+00-1.00201E-02 2.74215E+00-2.11886E-13-1.44138E-13
 -1      3226 1.43921E+01 1.03829E+00 9.39420E-02 3.19001E+00-2.43272E-13-1.31152E-13
 -1      3227 1.43444E+01 1.98418E+00 9.56909E-02 1.88227E+00-1.75932E-13-2.09152E-13
 -1      3228 2.00000E+01 1.19105E-02-4.59243E-05 1.16354E-03-2.36184E-13 7.59881E-14
 -1      3229 2.00003E+01 1.15514E-02-4.86328E-06 1.37195E-03-2.07499E-13-2.50842E-13
 -1      3230 2.00005E+01 1.42735E-02 6.57935E-05 2.13659E-03-1.10822E-13-3.08252E-13
 -1      3231 1.78391E+01 1.62874E+00-6.48193E-03-1.58759E+00 9.85080E-14-1.29438E-13
 -1      3232 1.82040E+01 1.48615E+00-1.74427E-02-1.43618E+00 1.30954E-13-7.91852E-14
 -1      3233 1.70438E+01 1.84544E+00 3.67979E-02-1.14917E+00 1.08173E-13 1.02713E-14
 -1      3234 8.15494E+00 8.36204E-01 1.44723E-01-4.31449E-01 1.12963E-13 1.33782E-14
 -1      3235 1.98820E+01 2.38037E+00-4.86613E-03 2.58801E-01 2.15104E-13-2.27585E-13
 -1      3236 1.98638E+01 2.41837E+00-3.34220E-03 1.63074E-01 1.92874E-13-2.67039E-13
 -1      3237 1.05657E+01 1.01162E+00 1.90530E-01-2.27008E+00 1.49117E-14-2.84328E-13
 -1      3238 1.21229E+01 1.16647E-01 8.65467E-02-3.71962E+00 2.44284E-14-3.63834E-13
 -1      3239 2.76309E+01 3.61611E+00-1.57848E-01-1.99838E+00-1.25525E-13 2.04260E-13
 -1      3240 2.81049E+01 1.80488E+00-8.67574E-02-1.89785E+00-1.29299E-13 3.04944E-13
 -1      3241 9.77036E+00 1.31207E+00 1.79033E-01 1.09678E+00 9.48824E-14-3.11765E-13
 -1      3242 9.73222E+00 1.14374E+00 9.85792E-02-7.90148E-01 5.89802E-14-2.23516E-13
 -1      3243 1.14562E+01 1.46943E+00 8.08157E-02-9.65777E-01 7.62567E-14-2.27103E-13
 -1      3244 2.61198E+01-3.99787E+00 2.84592E-02-2.34162E+00 4.72077E-13 4.25701E-14
 -1      3245 2.68930E+01-2.95054E+00-6.95960E-02-6.75846E-01 4.16155E-13 9.63118E-15
 -1      3246 2.03196E+01 7.85076E-01 6.18189E-03-1.59431E-01-4.23328E-14-2.86947E-13
 -1      3247 2.02862E+01 6.19621E-01-3.59823E-03-1.43046E-02-3.92564E-14-2.82947E-13
 -1      3248 2.02999E+01 6.62167E-01-9.07598E-04 3.39207E-02-2.27059E-14-2.59648E-13
 -1      3249 1.20588E+01-6.00481E-01 1.34497E-01-5.08468E+00-6.11802E-14 8.66945E-14
 -1      3250 1.45981E+01-1.75743E+00 2.09078E-02-5.89692E+00 1.22090E-14 8.17540E-14
 -1      3251 1.27101E+01 1.85224E-01 1.17543E-01-4.08043E+00-1.20251E-14 1.18940E-13
 -1      3252 2.30940E+01-4.40144E+00 8.00238E-02-4.58089E+00 3.10002E-13-1.26009E-13
 -1      3253 2.47752E+01-4.47183E+00-5.55158E-02-3.52458E+00 4.23560E-13-5.12828E-15
 -1      3254 2.49707E+01-3.94912E+00-3.98502E-04-2.50605E+00 3.28213E-13 4.05509E-14
 -1      3255 1.18343E+01 9.72472E-01 1.24129E-01 2.83043E+00-2.51396E-14 4.70457E-15
 -1      3256 1.08622E+01 1.42982E+00 1.04244E-01 1.30615E+00 6.69690E-15 3.25712E-14
 -1      3257 2.68508E+01 2.08051E+00-1.01276E-01 2.06420E+00 7.05269E-14-1.41574E-13
 -1      3258 2.57354E+01 2.78043E+00-5.34987E-02 2.05263E+00 1.46064E-14-2.47621E-13
 -1      3259 2.63032E+01 7.54399E-01-2.75108E-02 1.81753E+00 2.20584E-13-5.13825E-14
 -1      3260 1.68807E+01-2.20613E+00 8.75731E-02-5.68958E+00-4.61436E-16 7.91728E-15
 -1      3261 1.87096E+01-2.60540E+00-3.69230E-02-5.08599E+00 2.47320E-14-1.50390E-13
 -1      3262 1.61780E+01-1.21255E+00 5.39797E-02-5.00550E+00-7.85032E-14-3.70398E-14
 -1      3263 2.58225E+01 5.57869E+00-9.29420E-02-4.66947E-01-2.86229E-13 9.24625E-14
 -1      3264 1.80990E+01 1.54800E+00 2.34546E-02-1.06915E+00 1.32049E-13-3.14570E-14
 -1      3265 2.59065E+01 5.00792E+00-8.90647E-02 1.21377E+00-2.45248E-13 4.87110E-14
 -1      3266 9.38380E+00 1.24976E+00 8.19665E-02-2.01177E-01 5.65140E-14 5.50393E-14
 -1      3267 9.25262E+00 1.09935E+00 1.37441E-01-1.22044E+00 2.27301E-14 1.41720E-13
 -1      3268 1.93179E+01 1.00547E+00 1.00186E-02-8.45333E-01 9.25584E-14-1.38304E-14
 -1      3269 1.95834E+01 8.50991E-01-1.40630E-03-9.53515E-01 1.03019E-13-5.96414E-14
 -1      3270 1.96832E+01 7.68211E-01-4.85326E-03-8.42924E-01 1.27222E-13-4.67088E-14
 -1      3271 1.53815E+01-1.15049E+00 5.15291E-02 4.98108E+00 2.36559E-13-4.61783E-14
 -1      3272 1.34094E+01-9.13143E-01 1.08026E-01 5.19950E+00 2.64372E-13-6.00978E-14
 -1      3273 1.27761E+01 2.30317E-03 3.25709E-02 4.11368E+00 2.51257E-13-7.01106E-14
 -1      3274 1.98584E+01 2.42697E+00-4.36793E-03 8.83710E-02 1.79832E-13-2.84699E-13
 -1      3275 1.98659E+01 2.42042E+00-3.28104E-03-1.20616E-02 1.61602E-13-3.12311E-13
 -1      3276 1.99500E+01 2.16352E+00 5.81664E-03 1.15592E-01 1.62413E-13-2.69153E-13
 -1      3277 2.03643E+01-3.76708E+00 2.36696E-02 5.32666E+00 2.22485E-13-5.46195E-14
 -1      3278 1.88627E+01-3.42438E+00 1.12470E-01 5.94459E+00 2.58078E-13-1.23786E-13
 -1      3279 1.76361E+01-2.54938E+00 3.19750E-02 5.56854E+00 2.35933E-13-1.56160E-13
 -1      3280 1.99538E+01 2.26356E+00-3.78883E-03-2.75963E-01 1.03836E-13-3.42678E-13
 -1      3281 2.00021E+01 2.17185E+00-4.53735E-03-3.77222E-01 7.17223E-14-3.61923E-13
 -1      3282 2.02498E+01 1.59296E+00-2.68706E-03-6.71230E-01-4.12751E-14-3.62510E-13
 -1      3283 2.03092E+01 1.41049E+00-1.52498E-03-6.88607E-01-6.26699E-14-3.43907E-13
 -1      3284 2.03178E+01 1.21020E+00 5.08082E-03-5.17659E-01-4.05167E-14-3.35979E-13
 -1      3285 1.98300E+01 7.07316E-01-7.92694E-04-7.58812E-01 1.34305E-13-6.22810E-14
 -1      3286 1.98988E+01 6.66240E-01-2.25257E-03-6.49383E-01 1.27621E-13-6.50630E-14
 -1      3287 1.98941E+01 7.58383E-01 3.70285E-03-5.31378E-01 1.45433E-13-1.22723E-13
 -1      3288 1.96572E+01 8.37540E-01 6.26458E-03-7.00728E-01 1.11356E-13-2.30828E-14
 -1      3289 2.00029E+01 9.14077E-03 5.11300E-05 2.20164E-03 2.81116E-13-5.21196E-13
 -1      3290 2.00026E+01 6.22119E-03-1.63817E-05 9.16109E-04 2.18822E-13-6.26182E-13
 -1      3291 1.32909E+01 1.72048E+00 5.74122E-02-1.84794E+00 9.34912E-14-2.01547E-13
 -1      3292 2.00022E+01 3.45495E-03 3.84790E-05-7.08801E-04 3.28282E-13-5.40014E-13
 -1      3293 2.78341E+01-3.08746E+00-4.05522E-02 1.02530E+00-2.52411E-14 2.75016E-13
 -1      3294 2.65748E+01-3.75994E+00 9.49402E-04 1.79228E+00-1.49360E-15 2.83461E-13
 -1      3295 2.75443E+01-2.37740E+00-5.03764E-02 5.96894E-03 2.06432E-16 2.63879E-13
 -1      3296 2.70517E+01-2.20081E+00-3.16155E-02 2.03683E-01 3.52519E-13-2.49661E-14
 -1      3297 2.65940E+01-1.21279E+00-3.24580E-02 1.00087E+00 2.90754E-13 2.14689E-14
 -1      3298 2.59941E+01-2.89840E+00-3.13402E-02-5.77940E-01 3.27227E-13 8.07358E-14
 -1      3299 2.01707E+01 9.26744E-01 1.41540E-03-7.83403E-02 1.81815E-13-6.99385E-14
 -1      3300 2.02131E+01 8.35053E-01-2.06703E-03-4.34906E-02 1.79665E-13-4.33266E-14
 -1      3301 1.08770E+01 1.23093E+00 1.12272E-01-1.92610E+00 2.73410E-14-5.27356E-16
 -1      3302 1.99998E+01 1.44841E-02 6.46870E-05-1.23625E-03 3.30571E-13 2.91607E-13
 -1      3303 1.99998E+01 1.17579E-02-9.57373E-06-4.79206E-04 2.51571E-13 5.88631E-13
 -1      3304 1.99997E+01 1.20357E-02-4.09114E-05-1.91486E-04 3.19128E-13 2.85623E-13
 -1      3305 1.09252E+01 9.93658E-01 9.13312E-02 2.09545E+00 2.02065E-13-1.84464E-13
 -1      3306 2.41681E+01-4.75124E+00 3.24928E-02 4.27771E+00 1.24428E-13 1.31738E-13
 -1      3307 2.30711E+01-4.45971E+00 2.32464E-02 4.47870E+00 1.49318E-13 1.04115E-13
 -1      3308 2.51072E+01-4.44446E+00-4.00139E-02 3.13821E+00 7.96273E-14 1.51795E-13
 -1      3309 2.64547E+01 3.80238E+00-9.14889E-02-1.79494E+00-9.21208E-14 1.53710E-13
 -1      3310 2.79545E+01 6.25317E-01-1.00997E-01-1.63873E+00-1.08552E-13 3.36398E-13
 -1      3311 2.75281E+01-4.36594E-01-5.52950E-02-1.24361E+00-8.24618E-14 3.05270E-13
 -1      3312 2.68665E+01 1.37051E+00-4.13422E-02-2.00841E+00-9.88237E-14 3.60878E-13
 -1      3313 2.00585E+01 2.05791E+00-3.33757E-03-4.53099E-01 4.91639E-14-3.50137E-13
 -1      3314 2.01222E+01 1.92111E+00-4.61053E-03-5.44178E-01 1.92970E-14-3.56896E-13
 -1      3315 2.01173E+01 1.84231E+00 5.16253E-03-3.12388E-01 4.03750E-14-3.37749E-13
 -1      3316 2.00026E+01 5.29086E-03-7.09871E-06 4.04872E-04 2.69297E-13-6.88754E-13
 -1      3317 1.62052E+01 2.03375E+00 5.28863E-02 1.45421E+00-2.52212E-13-2.38765E-13
 -1      3318 1.99996E+01 1.22887E-02-2.94213E-05 3.50752E-04 1.61355E-13 8.66080E-14
 -1      3319 1.99998E+01 1.22490E-02-2.40523E-05 6.62717E-04-1.27538E-13 2.15231E-13
 -1      3320 1.99997E+01 1.54501E-02 7.45123E-05 1.15249E-03-7.06446E-14 1.71952E-13
 -1      3321 1.99994E+01 1.55166E-02 7.23914E-05-8.54301E-05 3.82828E-13 3.33737E-13
 -1      3322 2.20103E+01-3.84569E+00 5.05331E-02-4.50999E+00 2.04805E-13-1.30229E-13
 -1      3323 1.15089E+01 1.59419E+00 1.99576E-02 6.79425E-01-3.54022E-14 7.97279E-15
 -1      3324 2.02363E+01 1.47793E+00 8.80695E-03 4.18529E-01 2.48330E-13-3.62491E-14
 -1      3325 2.01172E+01 1.88090E+00-3.96738E-03 5.38419E-01 2.67082E-13-5.28816E-14
 -1      3326 2.02526E+01 9.11705E-01 5.61703E-03 7.68158E-02 1.84563E-13-3.50455E-14
 -1      3327 1.99127E+01 2.32493E+00-3.81966E-03 3.24668E-01 2.27238E-13-2.10156E-13
 -1      3328 1.99829E+01 2.10404E+00 8.27996E-03 2.41817E-01 2.06255E-13-1.98892E-13
 -1      3329 1.99549E+01 2.23160E+00-8.66215E-03 4.14077E-01 2.43250E-13-1.62538E-13
 -1      3330 2.00016E+01 7.58145E-03-2.79055E-05-1.34186E-03 2.48649E-13 1.86375E-14
 -1      3331 2.00014E+01 7.83535E-03-3.48473E-05-1.24103E-03 3.95375E-13 1.10381E-13
 -1      3332 2.00014E+01 1.08265E-02 4.85245E-05-2.33988E-03 5.61351E-13-3.20718E-14
 -1      3333 2.00020E+01 9.74407E-03 7.07819E-05-2.61941E-03 3.13052E-13-2.65590E-13
 -1      3334 2.03012E+01 1.02640E+00-3.14667E-03-3.71309E-01-3.29376E-14-3.20149E-13
 -1      3335 2.00493E+01 2.02111E+00-2.81633E-03 4.67704E-01 2.47596E-13-8.95225E-14
 -1      3336 2.02961E+01 1.07362E+00-9.47165E-04-2.93458E-01-3.76729E-14-3.13544E-13
 -1      3337 2.03029E+01 5.33348E-01 2.95925E-03 1.95264E-01-1.83476E-14-2.17287E-13
 -1      3338 2.02970E+01 4.05045E-01-1.18301E-03 2.84303E-01-4.17834E-14-2.19736E-13
 -1      3339 2.01968E+01 1.74312E+00-2.27397E-03-6.27297E-01-1.51304E-14-3.57155E-13
 -1      3340 2.03059E+01 2.92311E-01 2.90520E-03 3.59705E-01-5.53623E-14-2.14378E-13
 -1      3341 2.03131E+01 1.84747E-01-2.44453E-04 4.20771E-01-6.39992E-14-2.00238E-13
 -1      3342 2.02921E+01 4.13217E-01-1.66018E-03 3.25378E-01-3.76848E-14-1.83379E-13
 -1      3343 2.03345E+01 8.36259E-02 3.32545E-03 4.76883E-01-7.14280E-14-1.88873E-13
 -1      3344 2.03622E+01-1.98713E-02 3.13035E-04 5.12473E-01-2.89330E-14-1.79796E-13
 -1      3345 2.03099E+01 1.74876E-01-2.95120E-03 4.65044E-01-4.50364E-14-1.56787E-13
 -1      3346 2.04096E+01-1.23480E-01 4.18084E-03 5.49406E-01-3.10978E-14-1.94882E-13
 -1      3347 2.04645E+01-2.35535E-01 3.60149E-04 5.58706E-01-3.80160E-14-2.13893E-13
 -1      3348 2.03658E+01-5.43090E-02-4.38750E-03 5.68930E-01-5.40641E-14-1.39656E-13
 -1      3349 2.05520E+01-3.51255E-01 5.58207E-03 5.72315E-01 6.78881E-15-2.33620E-13
 -1      3350 2.06389E+01-4.79179E-01-2.90436E-04 5.50371E-01 2.67999E-14-1.86600E-13
 -1      3351 2.04853E+01-3.02367E-01-6.07716E-03 6.34034E-01-2.12218E-14-2.07722E-13
 -1      3352 2.07798E+01-6.09592E-01 7.42835E-03 5.30585E-01 1.37678E-14-1.76698E-13
 -1      3353 2.09001E+01-7.51233E-01-1.81806E-03 4.68459E-01 3.30302E-15-1.38382E-13
 -1      3354 2.06945E+01-5.86370E-01-7.83294E-03 6.46962E-01 3.52323E-14-2.02896E-13
 -1      3355 2.11028E+01-8.86894E-01 9.20517E-03 3.99170E-01-3.32192E-14-1.08646E-13
 -1      3356 2.12502E+01-1.02468E+00-4.24377E-03 2.86214E-01-3.83314E-14-1.31614E-13
 -1      3357 2.10154E+01-9.02896E-01-9.07476E-03 5.81111E-01 5.70941E-16-2.03404E-13
 -1      3358 2.15105E+01-1.13819E+00 1.00121E-02 1.47994E-01-5.26353E-14-1.51378E-13
 -1      3359 2.16675E+01-1.23227E+00-6.92173E-03-2.25911E-02-3.34087E-14-1.82856E-13
 -1      3360 2.14547E+01-1.21483E+00-8.88934E-03 3.98576E-01-5.59140E-14-2.25657E-13
 -1      3361 2.19568E+01-1.27286E+00 8.09538E-03-2.43277E-01-2.44904E-14-2.18672E-13
 -1      3362 2.20926E+01-1.25735E+00-8.09070E-03-4.63099E-01-4.95500E-14-2.00811E-13
 -1      3363 2.19875E+01-1.43283E+00-5.51810E-03 5.95641E-02-6.56533E-14-2.24622E-13
 -1      3364 2.23479E+01-1.15398E+00 1.26223E-03-7.52052E-01-4.11085E-14-1.58002E-13
 -1      3365 2.24257E+01-9.50934E-01-5.12689E-03-9.80749E-01-4.13032E-14-1.09078E-13
 -1      3366 2.25343E+01-1.40712E+00 1.59675E-03-4.47875E-01-5.68045E-15-1.49179E-13
 -1      3367 2.25598E+01-6.39559E-01-1.02108E-02-1.26756E+00-5.16310E-14-1.42885E-13
 -1      3368 2.25544E+01-2.04572E-01 3.84424E-03-1.42228E+00-2.71825E-14-1.14786E-13
 -1      3369 2.29554E+01-9.60951E-01 9.91748E-03-1.05111E+00-5.29056E-14-1.13463E-13
 -1      3370 2.24998E+01 3.13077E-01-2.29337E-02-1.56690E+00-3.22147E-14-1.08158E-13
 -1      3371 2.24249E+01 9.09815E-01 1.37224E-02-1.53870E+00-1.52075E-14-7.84801E-14
 -1      3372 2.30989E+01 1.35606E-02 1.59931E-02-1.54286E+00-8.95833E-15-1.30415E-13
 -1      3373 2.22200E+01 1.49053E+00-2.98045E-02-1.39763E+00-1.71191E-14-9.26841E-14
 -1      3374 2.21363E+01 2.04671E+00 1.81190E-02-1.13033E+00-5.25361E-14-1.23529E-13
 -1      3375 2.29177E+01 1.34340E+00 1.11312E-02-1.60277E+00-3.89029E-14-8.61993E-14
 -1      3376 2.19302E+01 2.41108E+00-2.70734E-02-6.41577E-01-2.83280E-15-1.27627E-13
 -1      3377 2.19223E+01 2.62313E+00 1.71064E-03-2.11308E-01-4.06784E-14-1.34708E-13
 -1      3378 2.25910E+01 2.62880E+00 1.14083E-02-1.01959E+00-3.88405E-14-9.77040E-14
 -1      3379 2.19129E+01 2.59652E+00-2.87852E-03 3.92245E-01-1.17689E-13-1.24477E-13
 -1      3380 2.19788E+01 2.35174E+00-1.63280E-02 8.19881E-01-1.66922E-13-1.12572E-13
 -1      3381 2.24496E+01 3.03061E+00 7.15590E-04 7.85970E-02-4.74820E-14-1.38892E-13
 -1      3382 2.21528E+01 1.93256E+00 1.27509E-02 1.25188E+00-2.10737E-13-1.12348E-13
 -1      3383 2.22372E+01 1.37134E+00-3.32881E-02 1.49463E+00-1.27485E-13-9.24571E-14
 -1      3384 2.26288E+01 2.43783E+00 3.83832E-03 1.15176E+00-1.49626E-13-1.18834E-13
 -1      3385 2.24386E+01 8.06471E-01 1.55987E-02 1.60536E+00-3.47600E-14-1.32124E-13
 -1      3386 2.24944E+01 2.19539E-01-2.34803E-02 1.61657E+00 6.72820E-14-1.59293E-13
 -1      3387 2.29228E+01 1.21795E+00 1.66994E-02 1.69792E+00-9.12989E-14-4.64169E-14
 -1      3388 2.25262E+01-2.67477E-01 3.37317E-03 1.44415E+00 1.39654E-13-1.65028E-13
 -1      3389 2.25128E+01-6.65107E-01-8.83712E-03 1.28639E+00 1.24316E-13-8.84603E-14
 -1      3390 2.30607E+01-8.28048E-02 1.88015E-02 1.57785E+00 9.52105E-14-1.14604E-13
 -1      3391 2.23535E+01-9.46051E-01-6.56108E-03 1.00044E+00 3.18786E-14-1.01176E-13
 -1      3392 2.22625E+01-1.11613E+00 1.80845E-03 7.77788E-01 2.38688E-14-5.56560E-14
 -1      3393 2.28665E+01-9.65072E-01 1.00452E-02 1.06480E+00 9.34395E-14-1.58506E-13
 -1      3394 2.19883E+01-1.19231E+00-9.06499E-03 5.03846E-01 3.29563E-14 1.32485E-14
 -1      3395 2.18437E+01-1.18621E+00 8.25090E-03 2.98748E-01 1.29155E-13 3.93860E-14
 -1      3396 2.24013E+01-1.35094E+00-1.60803E-03 4.70199E-01 6.13095E-14-3.81813E-14
 -1      3397 2.15448E+01-1.13145E+00-7.11615E-03 9.77702E-02 8.25716E-14 1.45176E-14
 -1      3398 2.13815E+01-1.02842E+00 9.74533E-03-5.64760E-02 7.30415E-14 7.69468E-14
 -1      3399 2.18316E+01-1.32577E+00-6.21162E-03-1.55338E-03 1.27134E-13 6.70014E-14
 -1      3400 2.11149E+01-9.11155E-01-4.26664E-03-1.76858E-01 3.32543E-14 5.67863E-14
 -1      3401 2.09619E+01-7.74747E-01 8.66589E-03-2.75269E-01 5.20118E-14-4.83462E-14
 -1      3402 2.12848E+01-1.08921E+00-8.74159E-03-3.03346E-01 4.87970E-14 4.67104E-14
 -1      3403 2.07523E+01-6.44848E-01-1.80745E-03-3.31109E-01 9.01498E-15-1.14829E-13
 -1      3404 2.06250E+01-5.14110E-01 6.63498E-03-3.83207E-01-5.41727E-15-7.87317E-14
 -1      3405 2.08324E+01-7.82330E-01-8.52882E-03-4.56117E-01-7.14874E-15-8.75716E-14
 -1      3406 2.04748E+01-3.98750E-01-2.10398E-04-3.95813E-01 6.79136E-14-6.71013E-14
 -1      3407 2.03777E+01-2.91793E-01 4.56295E-03-4.14699E-01-2.64005E-14-4.45313E-14
 -1      3408 2.04943E+01-4.92037E-01-7.05277E-03-5.03715E-01 2.33318E-15-1.42325E-13
 -1      3409 2.02781E+01-2.01889E-01 6.28766E-04-4.01969E-01-6.87646E-14-3.37533E-14
 -1      3410 2.02088E+01-1.23559E-01 2.84080E-03-3.99490E-01 5.58622E-14 7.76022E-15
 -1      3411 2.02613E+01-2.56909E-01-5.27287E-03-4.87492E-01 1.03745E-14-5.96680E-14
 -1      3412 2.01480E+01-6.03399E-02 9.65894E-04-3.74075E-01-1.74089E-14-8.48228E-15
 -1      3413 2.01012E+01-8.45507E-03 1.56883E-03-3.59309E-01-2.96015E-14 9.88226E-15
 -1      3414 2.01123E+01-8.61327E-02-3.65549E-03-4.38016E-01-2.13869E-14-5.47239E-14
 -1      3415 2.00676E+01 3.16079E-02 1.02250E-03-3.29236E-01-1.11902E-13-6.03051E-14
 -1      3416 2.00377E+01 6.21394E-02 7.05432E-04-3.08515E-01-1.60037E-13-8.46718E-14
 -1      3417 2.00249E+01 2.61294E-02-2.36813E-03-3.75112E-01-1.35590E-13-7.37406E-14
 -1      3418 2.00219E+01 8.42497E-02 9.44516E-04-2.78455E-01-5.50712E-14 4.81079E-15
 -1      3419 2.00037E+01 9.90871E-02 1.62907E-04-2.55893E-01 6.96204E-14 1.22580E-13
 -1      3420 1.99792E+01 9.16317E-02-1.42564E-03-3.10447E-01-5.58333E-14 5.48313E-14
 -1      3421 1.99987E+01 1.08440E-01 8.15355E-04-2.28293E-01 5.31377E-14 3.30168E-14
 -1      3422 1.99882E+01 1.12648E-01-1.49101E-04-2.06374E-01-1.15351E-13-2.29963E-14
 -1      3423 1.99600E+01 1.23001E-01-7.84583E-04-2.50221E-01-2.64917E-14-7.33372E-14
 -1      3424 1.99892E+01 1.13654E-01 6.78604E-04-1.82317E-01-1.43653E-13 1.62049E-13
 -1      3425 1.99834E+01 1.11277E-01-3.04454E-04-1.62410E-01-1.18345E-13 2.12919E-13
 -1      3426 1.99562E+01 1.31382E-01-3.73788E-04-1.97247E-01 1.26588E-14-9.88893E-14
 -1      3427 1.99873E+01 1.07341E-01 5.52857E-04-1.42184E-01-2.53128E-13 3.10851E-13
 -1      3428 1.99843E+01 1.01358E-01-3.59946E-04-1.24915E-01-2.53017E-13 2.39344E-13
 -1      3429 1.99605E+01 1.25583E-01-1.28703E-04-1.52392E-01-1.74563E-13 1.73203E-13
 -1      3430 1.99891E+01 9.49150E-02 4.44554E-04-1.08365E-01-2.91146E-13 1.85934E-13
 -1      3431 1.99876E+01 8.73735E-02-3.56446E-04-9.38952E-02-2.62989E-13 2.60447E-14
 -1      3432 1.99682E+01 1.12065E-01 4.72090E-06-1.15452E-01-3.10326E-13 2.80427E-13
 -1      3433 1.99923E+01 8.00454E-02 3.54174E-04-8.06535E-02-3.24061E-14-3.17572E-14
 -1      3434 1.99915E+01 7.22503E-02-3.21624E-04-6.88654E-02 1.31403E-13 4.35060E-14
 -1      3435 1.99765E+01 9.52488E-02 6.72683E-05-8.56945E-02-1.68244E-13 1.56933E-13
 -1      3436 1.99955E+01 6.50361E-02 2.79952E-04-5.84768E-02 1.24893E-13-3.79501E-14
 -1      3437 1.99950E+01 5.77462E-02-2.73287E-04-4.91068E-02 7.59976E-14 4.07624E-14
 -1      3438 1.99841E+01 7.79472E-02 8.78270E-05-6.21732E-02 8.67603E-14 6.99751E-14
 -1      3439 1.99982E+01 5.11952E-02 2.19548E-04-4.11063E-02 2.62142E-14 7.82159E-15
 -1      3440 1.99978E+01 4.47883E-02-2.22300E-04-3.38265E-02-7.15665E-14 1.10060E-13
 -1      3441 1.99902E+01 6.17934E-02 8.57598E-05-4.39035E-02 2.81803E-14-5.87032E-14
 -1      3442 2.00001E+01 3.91441E-02 1.70729E-04-2.77790E-02-1.53020E-13 2.80192E-14
 -1      3443 1.99998E+01 3.37468E-02-1.74583E-04-2.22509E-02-1.31151E-13-1.31252E-13
 -1      3444 1.99948E+01 4.75981E-02 7.31771E-05-2.99561E-02-8.52858E-14-4.12917E-13
 -1      3445 2.00013E+01 2.90539E-02 1.31407E-04-1.77700E-02-6.48407E-14-1.84867E-13
 -1      3446 2.00009E+01 2.46345E-02-1.31740E-04-1.36782E-02 6.71444E-14-2.96374E-13
 -1      3447 1.99979E+01 3.56347E-02 5.93769E-05-1.94997E-02-9.83929E-14-2.05995E-13
 -1      3448 2.00019E+01 2.07788E-02 8.76336E-05-1.04411E-02 7.62656E-14-3.25918E-13
 -1      3449 2.00015E+01 1.72819E-02-7.11493E-05-7.55134E-03 1.04652E-13-2.45453E-13
 -1      3450 1.99999E+01 2.58350E-02 5.14039E-05-1.18288E-02 7.65577E-14-1.03469E-13
 -1      3451 1.59423E+01 1.96020E+00-2.49382E-02 6.62260E-01-2.38688E-13-7.65898E-14
 -1      3452 1.51217E+01 2.00730E+00-2.84088E-02 8.11815E-01-1.90001E-13-1.32266E-13
 -1      3453 1.46704E+01 1.91472E+00-1.29780E-03-3.32134E-01 1.30277E-13-5.00398E-14
 -1      3454 1.55524E+01 1.86192E+00-1.85484E-02-3.93519E-01 1.10943E-13-1.22309E-14
 -1      3455 2.50627E+01 4.20945E+00-4.79593E-02 1.49532E+00-1.27467E-13-1.57301E-13
 -1      3456 2.48911E+01 4.96498E+00-8.07774E-02 7.46522E-01-2.58016E-13-6.07416E-14
 -1      3457 1.99141E+01 2.33792E+00-3.68500E-03-1.94906E-01 1.35159E-13-3.28094E-13
 -1      3458 2.00265E+01 2.03150E+00 5.41848E-03-1.71665E-01 1.06214E-13-3.16099E-13
 -1      3459 1.98845E+01 2.38616E+00-4.10164E-03-9.21004E-02 1.58892E-13-3.10224E-13
 -1      3460 2.00999E+01 1.82949E+00 9.89122E-03 3.41938E-01 2.19733E-13-1.01978E-13
 -1      3461 1.92330E+01 8.83328E-01-5.75707E-03 5.28159E-01-3.37158E-14-1.81697E-13
 -1      3462 1.90628E+01 1.00471E+00-5.52471E-03 5.85464E-01-9.70260E-14-1.87014E-13
 -1      3463 1.88253E+01 1.12861E+00-7.98021E-03 5.97152E-01-5.87182E-14-6.84589E-14
 -1      3464 1.85798E+01 1.26222E+00-9.17425E-03 6.48973E-01-2.54805E-14 1.18880E-14
 -1      3465 1.88075E+01 1.11646E+00 1.29064E-02 3.90581E-01-3.73690E-14-7.65297E-14
 -1      3466 1.27437E+01 1.88550E+00 3.91634E-02-4.39601E-01 1.37882E-13-1.49526E-13
 -1      3467 1.96952E+01 5.11386E-01-3.21581E-03 3.67955E-01-3.32310E-14 2.33326E-14
 -1      3468 1.96292E+01 5.88951E-01-1.63193E-03 4.17753E-01-6.67082E-15-3.84492E-14
 -1      3469 1.98135E+01 3.84390E-01-2.40573E-03 2.94408E-01 1.78955E-13-2.04679E-13
 -1      3470 1.97739E+01 4.44278E-01-6.84720E-04 3.37202E-01 9.15950E-14-1.17789E-13
 -1      3471 1.96601E+01 5.19574E-01 3.96791E-03 2.96261E-01 1.59710E-13-2.89767E-13
 -1      3472 1.98890E+01 2.87604E-01-1.75407E-03 2.30390E-01 2.72104E-14-4.24896E-13
 -1      3473 1.98661E+01 3.33259E-01-1.28855E-04 2.65900E-01 1.52049E-13-3.34817E-13
 -1      3474 1.97832E+01 3.93980E-01 2.63713E-03 2.44320E-01 2.10907E-13-4.59721E-13
 -1      3475 1.99347E+01 2.17509E-01-1.28960E-03 1.79060E-01 1.02388E-13-2.98879E-13
 -1      3476 1.99226E+01 2.50779E-01 1.55432E-04 2.06732E-01-5.40574E-15-4.96086E-13
 -1      3477 1.98628E+01 2.99001E-01 1.72792E-03 1.96500E-01-1.84679E-14-5.43715E-13
 -1      3478 1.99647E+01 1.61417E-01-9.68084E-04 1.34683E-01 9.34645E-15-1.08192E-13
 -1      3479 1.99580E+01 1.87935E-01 2.72863E-04 1.57866E-01 4.93232E-14-2.40827E-13
 -1      3480 1.99152E+01 2.25925E-01 1.13055E-03 1.54214E-01-3.18249E-14-2.83786E-13
 -1      3481 1.99829E+01 1.19260E-01-7.05121E-04 9.92659E-02 1.80382E-13-1.20439E-14
 -1      3482 1.99799E+01 1.39198E-01 3.02934E-04 1.17404E-01 1.74863E-13-1.00883E-13
 -1      3483 1.99501E+01 1.68655E-01 7.35079E-04 1.17457E-01 8.71577E-14-1.16161E-13
 -1      3484 1.99936E+01 8.75838E-02-5.12383E-04 7.15155E-02 2.04028E-13 6.88392E-14
 -1      3485 1.99927E+01 1.02579E-01 2.96658E-04 8.54897E-02 1.94533E-13-1.08135E-14
 -1      3486 1.99724E+01 1.25144E-01 4.67197E-04 8.73655E-02 1.72099E-13-1.07160E-13
 -1      3487 1.99996E+01 6.38196E-02-3.70880E-04 5.01493E-02-2.10836E-13-3.10170E-14
 -1      3488 1.99998E+01 7.50776E-02 2.65612E-04 6.07606E-02 9.09826E-14-6.26754E-14
 -1      3489 1.99862E+01 9.22009E-02 2.91801E-04 6.33585E-02 1.58909E-13 1.69611E-13
 -1      3490 2.00027E+01 4.60477E-02-2.56401E-04 3.39850E-02-8.71483E-14-3.04562E-13
 -1      3491 2.00034E+01 5.44631E-02 2.27176E-04 4.19144E-02-2.21722E-13-1.93708E-13
 -1      3492 1.99946E+01 6.73194E-02 1.75540E-04 4.46290E-02-1.31939E-13-6.40447E-14
 -1      3493 2.00039E+01 3.33171E-02-1.83694E-04 2.24777E-02-7.62088E-14-3.91667E-13
 -1      3494 2.00048E+01 3.93833E-02 1.86334E-04 2.80937E-02-5.36344E-14-3.38304E-13
 -1      3495 1.99993E+01 4.89473E-02 9.16940E-05 3.06022E-02-2.13038E-14-1.46023E-13
 -1      3496 2.00042E+01 2.32020E-02-1.34334E-04 1.35661E-02 1.27691E-14-4.02755E-13
 -1      3497 2.00051E+01 2.79901E-02 1.47107E-04 1.78401E-02-1.28729E-13-4.32302E-13
 -1      3498 2.00018E+01 3.51371E-02 6.13822E-05 2.00586E-02-9.59764E-14-2.65075E-13
 -1      3499 2.00038E+01 1.56764E-02-6.41789E-05 7.27847E-03-2.46751E-14-1.38944E-13
 -1      3500 2.00047E+01 1.92233E-02 1.17124E-04 1.02389E-02 1.67749E-14-2.42994E-13
 -1      3501 2.00029E+01 2.44087E-02 2.55371E-05 1.21081E-02-3.77176E-14-2.08407E-13
 -1      3502 2.00031E+01 1.09370E-02-2.12698E-05 3.48516E-03 2.37852E-13-3.03078E-13
 -1      3503 2.00038E+01 1.37313E-02 1.01574E-04 5.50096E-03 1.82168E-13-2.43363E-13
 -1      3504 2.00028E+01 1.73299E-02-6.45176E-05 6.95098E-03-5.04502E-16-9.18681E-14
 -1      3505 2.00023E+01 1.26987E-02-8.46405E-05 3.81740E-03 3.08743E-13-4.12877E-13
 -1      3506 2.02630E+01 1.37091E+00 2.03373E-03-3.92653E-01-7.66889E-15-3.23943E-13
 -1      3507 2.02709E+01 1.07575E+00-4.43681E-03-1.80057E-01 2.41137E-15-2.87478E-13
 -1      3508 2.48492E+01 5.20715E+00-8.08952E-02 6.17661E-02-3.65666E-13-3.12684E-16
 -1      3509 2.49795E+01 4.99045E+00-4.04222E-02-8.72276E-01-2.56510E-13-1.84991E-14
 -1      3510 2.41123E+01 4.40807E+00-4.58345E-02 3.80973E-01-2.41616E-13-2.45460E-13
 -1      3511 1.99995E+01 1.80298E-02-6.27377E-05 2.78116E-03-1.31936E-13-3.06525E-13
 -1      3512 2.00002E+01 1.72074E-02-8.69894E-06 3.25541E-03-1.35858E-13-4.47549E-13
 -1      3513 2.01177E+01 9.64209E-01-2.95870E-03-1.11180E-01 1.72491E-13-6.82227E-14
 -1      3514 2.01799E+01 1.09076E+00 8.60287E-03 2.83742E-02 1.99744E-13-6.25510E-14
 -1      3515 1.17497E+01 1.73946E+00 1.13207E-01-1.10889E+00 2.89723E-14-1.89918E-14
 -1      3516 1.19668E+01 1.38816E+00 3.59832E-02-2.11690E+00 6.19288E-14 8.90954E-15
 -1      3517 1.99858E+01 8.30487E-01-3.36133E-03-3.17069E-01 1.56554E-13-7.84343E-14
 -1      3518 2.00625E+01 8.81605E-01 3.60217E-04-2.07695E-01 1.53574E-13-6.31983E-14
 -1      3519 2.00592E+01 1.02769E+00 1.53351E-03-1.09387E-01 1.64863E-13-4.28650E-14
 -1      3520 1.76090E+01 1.54971E+00-1.68003E-02-6.63748E-01 1.01307E-13 1.91173E-14
 -1      3521 1.80690E+01 1.41835E+00-1.01082E-02-6.55778E-01 1.24706E-13 7.36255E-15
 -1      3522 2.02795E+01 1.02776E+00-1.87224E-03 2.76263E-01 2.00354E-13-3.70147E-15
 -1      3523 1.73173E+01 1.70094E+00-1.56399E-02 6.42481E-01-1.70753E-13 4.74863E-14
 -1      3524 1.67557E+01 1.83723E+00-1.44526E-02 6.70868E-01-1.83369E-13-4.92406E-14
 -1      3525 1.20947E+01 9.08541E-01 1.03160E-01 2.97109E+00 2.52933E-13-6.23043E-14
 -1      3526 1.20401E+01 1.42537E+00 4.73676E-02 1.40854E+00 2.09223E-13-1.45037E-13
 -1      3527 1.36877E+01 5.31545E-01 4.39903E-02 3.26293E+00 2.43900E-13-6.50452E-14
 -1      3528 2.00009E+01 1.57294E-02-7.60126E-05 3.69022E-03 1.87969E-14-4.45516E-13
 -1      3529 2.00017E+01 1.45351E-02-2.01082E-06 3.80348E-03 2.31540E-13-5.09662E-13
 -1      3530 2.00020E+01 1.69737E-02 1.02449E-04 5.17074E-03 3.02450E-13-5.48390E-13
 -1      3531 2.00003E+01 2.01358E-02 8.23610E-05 4.55428E-03-1.66518E-13-5.53821E-13
 -1      3532 2.10639E+01-3.17788E+00 9.07523E-02-4.47470E+00 1.49232E-13-1.83594E-13
 -1      3533 2.27019E+01-3.74462E+00-4.37818E-02-3.62452E+00 2.07723E-13-9.85600E-14
 -1      3534 2.00005E+01 1.48032E-02 1.57920E-05-3.35843E-03 4.32846E-13 2.45980E-13
 -1      3535 1.99998E+01 1.58848E-02-8.04072E-05-3.09353E-03 3.10867E-13 2.85074E-13
 -1      3536 2.52170E+01 4.07241E+00-1.00114E-01-1.58663E+00-9.34877E-14 6.91947E-14
 -1      3537 2.58152E+01 2.76388E+00-5.37800E-02-2.01236E+00-4.25354E-14 9.93233E-14
 -1      3538 2.39054E+01-3.73430E+00 4.67645E-02-2.89365E+00 1.88169E-13 6.57005E-14
 -1      3539 2.47652E+01-3.56076E+00-2.34611E-02-1.92863E+00 2.85843E-13 1.50178E-13
 -1      3540 2.29012E+01-3.37030E+00 1.32780E-02-2.97433E+00 1.01124E-13 1.10121E-13
 -1      3541 2.02459E+01 1.15909E+00-3.68088E-03 2.56146E-01 2.25971E-13-3.50788E-14
 -1      3542 2.01852E+01 1.27761E+00-8.35221E-03 2.07160E-01 2.21742E-13-4.60386E-14
 -1      3543 1.63687E+01 1.78796E+00-2.18650E-02-5.48852E-01 1.04730E-13-4.51115E-15
 -1      3544 1.70384E+01 1.67846E+00-1.48910E-02-5.68640E-01 1.10193E-13 8.03903E-15
 -1      3545 1.59157E+01 1.79547E+00 4.37645E-02 2.43886E-01 1.19700E-13-2.79308E-14
 -1      3546 1.32468E+01 1.79172E+00 5.57662E-02 4.53716E-01 1.63278E-13-8.37871E-14
 -1      3547 1.82226E+01 1.40955E+00-1.07805E-02 6.39759E-01-9.59632E-14 3.84703E-14
 -1      3548 1.78354E+01 1.55900E+00-1.32139E-02 6.84048E-01-1.58581E-13 1.71947E-14
 -1      3549 1.73960E+01 1.67064E+00 2.69092E-02 2.32239E-01-1.94558E-13-1.03791E-14
 -1      3550 1.27671E+01 8.20723E-01 6.83027E-02-3.19375E+00-1.52899E-14 1.30479E-13
 -1      3551 1.41647E+01-5.02872E-02 1.70624E-02-4.21762E+00-3.24376E-14 3.96488E-14
 -1      3552 1.36078E+01 1.20526E+00 5.92472E-02-2.37114E+00-2.50217E-14 1.54449E-13
 -1      3553 1.95123E+01 6.75644E-01-4.29432E-03 4.47951E-01-3.06810E-15-7.38593E-14
 -1      3554 1.94050E+01 7.74168E-01-3.19554E-03 5.03266E-01 3.37128E-14-1.61716E-13
 -1      3555 1.94751E+01 6.79916E-01 5.89794E-03 3.45400E-01-5.44301E-14-2.08648E-13
 -1      3556 2.03041E+01 8.44052E-01 4.37138E-03-2.37463E-02-1.42830E-14-2.54586E-13
 -1      3557 2.02924E+01 6.73664E-01-2.75922E-03 9.70980E-02-5.69033E-15-2.46390E-13
 -1      3558 2.02863E+01 6.96300E-01-2.22474E-04 1.46620E-01-1.81027E-14-2.04894E-13
 -1      3559 1.84731E+01 1.28674E+00-1.11521E-02-6.99438E-01 1.28128E-13 7.41930E-15
 -1      3560 1.87880E+01 1.16618E+00-6.80824E-03-6.66481E-01 1.24594E-13-8.92407E-15
 -1      3561 1.81852E+01 1.37401E+00 1.87507E-02-3.36057E-01 1.34699E-13 1.11278E-14
 -1      3562 1.26690E+01 1.78713E+00 2.17848E-02 3.54627E-01-1.69309E-15-5.13964E-14
 -1      3563 2.01441E+01 1.31828E+00-6.17740E-03 1.67072E-01 2.26370E-13-4.87355E-14
 -1      3564 2.02265E+01 1.55365E+00 2.82483E-03-4.51445E-01-2.91767E-15-3.39117E-13
 -1      3565 1.57892E+01-5.20810E-01 6.67720E-02-4.36087E+00-8.64005E-14 2.01957E-14
 -1      3566 1.72529E+01-1.13559E+00-5.00210E-02-4.27487E+00-5.26415E-14-3.44412E-14
 -1      3567 1.56039E+01 9.82994E-02 1.28921E-02-3.62838E+00-3.46251E-14 1.80359E-13
 -1      3568 1.99860E+01-2.52667E+00 3.43585E-02-4.31760E+00 4.91655E-14-2.06387E-13
 -1      3569 1.88529E+01 1.15391E+00 1.30044E-02-4.30312E-01 9.69074E-14-7.91578E-14
 -1      3570 1.90725E+01 1.05839E+00-7.30878E-03-6.71318E-01 8.82105E-14-2.28171E-14
 -1      3571 1.92864E+01 9.68432E-01-4.46705E-03-6.19092E-01 7.32095E-14-3.43836E-14
 -1      3572 1.61458E+01 1.93005E+00 3.87319E-02 7.63933E-02-2.55131E-13 7.34005E-14
 -1      3573 2.00021E+01 1.45614E-02 6.35728E-05-5.80140E-03 9.91529E-14-3.70669E-13
 -1      3574 2.00018E+01 1.19457E-02-2.68502E-05-3.95618E-03 1.47662E-13-2.70163E-13
 -1      3575 2.00015E+01 1.26109E-02-2.62388E-05-3.82714E-03 2.42181E-13-2.94210E-13
 -1      3576 2.00010E+01 1.83331E-02 2.63399E-05-6.97666E-03 1.37753E-14-2.07382E-13
 -1      3577 1.99673E+01 2.13890E+00 5.46892E-03-2.45985E-02 1.38986E-13-3.02005E-13
 -1      3578 1.71232E+01-1.64382E+00 9.14719E-02 5.00966E+00 2.26333E-13-1.12105E-13
 -1      3579 1.61559E+01-9.28973E-01 1.14560E-02 4.46737E+00 2.18964E-13-1.00506E-13
 -1      3580 1.99788E+01 1.91120E+00-4.00416E-03 1.39477E-01 1.57634E-13-2.32408E-13
 -1      3581 1.99805E+01 1.92229E+00-2.29976E-03 7.99984E-02 1.39877E-13-2.74740E-13
 -1      3582 2.00459E+01 1.81309E+00-3.05183E-03-7.21314E-02 1.12649E-13-2.85169E-13
 -1      3583 2.00837E+01 1.73759E+00-3.62222E-03-1.37166E-01 7.96518E-14-3.04759E-13
 -1      3584 2.17080E+01-3.96492E+00 5.51592E-02 4.82870E+00 1.82916E-13 6.56350E-14
 -1      3585 2.02644E+01-3.30104E+00 5.26994E-03 4.87847E+00 2.12958E-13-1.85546E-14
 -1      3586 2.27764E+01-3.98873E+00 7.75889E-03 3.95550E+00 1.46876E-13 1.46988E-13
 -1      3587 1.91999E+01 8.80233E-01 8.63917E-03 3.81854E-01-5.79214E-14-1.54561E-13
 -1      3588 1.82384E+01 1.38361E+00 1.81379E-02 3.51377E-01-4.63326E-14-6.69126E-14
 -1      3589 2.61773E+01-4.40778E-01-5.83744E-02 1.51331E+00 2.60967E-13 6.35811E-14
 -1      3590 2.54879E+01 4.85084E-01-4.27728E-03 1.86146E+00 1.50354E-13-5.51989E-14
 -1      3591 2.57278E+01-1.38026E+00-2.33122E-02 9.13927E-01 2.44174E-13 5.41338E-14
 -1      3592 2.44393E+01 3.94973E+00-2.88500E-02-1.17144E+00-1.85622E-13 2.46175E-14
 -1      3593 1.99990E+01 1.88435E-02-2.63400E-05 1.82437E-03-8.79252E-14 6.12260E-14
 -1      3594 1.99987E+01 2.23969E-02 6.47833E-05 2.95933E-03-6.40986E-14-7.45835E-15
 -1      3595 1.99986E+01 1.91562E-02-4.83212E-05 1.14366E-03 3.10422E-14 4.70655E-13
 -1      3596 2.72424E+01-1.53695E+00-5.24255E-02-7.57823E-01-3.44447E-14 3.46480E-13
 -1      3597 2.65249E+01-2.38222E+00-2.62560E-02-5.06627E-02 1.74513E-15 3.18898E-13
 -1      3598 2.65440E+01-6.92461E-01-2.83684E-02-1.38168E+00-4.82323E-14 2.92474E-13
 -1      3599 1.97844E+01 8.13876E-01-3.71415E-03-4.76303E-01 1.17561E-13-7.89868E-14
 -1      3600 1.98904E+01 8.10029E-01-9.40530E-04-3.89493E-01 1.40201E-13-8.55365E-14
 -1      3601 1.99083E+01 9.06479E-01 4.00161E-03-2.72178E-01 1.49843E-13-5.05579E-14
 -1      3602 2.52601E+01-3.20765E+00-2.80825E-04-1.08950E+00 3.03693E-13 1.93992E-13
 -1      3603 2.53119E+01-2.54309E+00-1.00770E-02-2.08962E-01 2.07537E-13 2.31547E-13
 -1      3604 2.42138E+01-3.19783E+00-7.86641E-03-1.58506E+00 2.10272E-13 2.71827E-13
 -1      3605 1.99992E+01 1.74410E-02 5.46399E-06-2.36664E-03 3.88458E-13 3.83130E-13
 -1      3606 1.99988E+01 1.81270E-02-6.90974E-05-1.77968E-03 3.99381E-13 2.71307E-13
 -1      3607 1.99991E+01 2.01251E-02 3.45386E-05-3.72521E-03 3.00478E-13 2.84889E-13
 -1      3608 1.41863E+01 1.96996E+00 6.38203E-02-6.11391E-01-1.27639E-13-3.50657E-14
 -1      3609 1.38725E+01 1.94452E+00-2.34459E-03 2.76451E-01-2.28446E-14-1.40436E-13
 -1      3610 1.72442E+01 1.61161E+00 2.77407E-02-1.26204E-01 1.08626E-13 2.53586E-14
 -1      3611 2.57567E+01-4.04000E+00 2.73994E-03 2.23163E+00 5.70585E-14 3.00995E-13
 -1      3612 2.46759E+01-4.01834E+00-2.21660E-03 2.66620E+00 1.41071E-13 2.63355E-13
 -1      3613 2.59227E+01-3.48424E+00-2.76107E-02 1.22505E+00 6.25327E-14 2.75516E-13
 -1      3614 2.58463E+01 1.88902E+00-8.61955E-02-2.01111E+00-3.15512E-14 1.63182E-13
 -1      3615 2.58140E+01 1.02230E+00-3.77858E-02-1.88937E+00-4.22717E-14 2.19498E-13
 -1      3616 2.48819E+01 2.40118E+00 1.30868E-03-1.96380E+00-5.79398E-15 5.84515E-14
 -1      3617 2.01289E+01 1.64786E+00-1.93459E-03-1.86417E-01 6.57062E-14-3.01876E-13
 -1      3618 2.01761E+01 1.53791E+00-1.56756E-03-2.43905E-01 3.15655E-14-3.07711E-13
 -1      3619 2.01674E+01 1.46926E+00 5.63799E-03-8.06241E-02 6.68305E-14-2.78656E-13
 -1      3620 2.00762E+01 1.54017E+00-2.15716E-03 1.68680E-01 2.09314E-13-9.79744E-14
 -1      3621 1.99901E+01 1.88561E+00-2.79493E-03 1.71060E-01 1.85875E-13-1.98682E-13
 -1      3622 2.00353E+01 1.68964E+00 5.15815E-03 1.27305E-01 1.64812E-13-1.94680E-13
 -1      3623 2.00261E+01 1.82783E+00 8.97990E-05 2.19058E-01 1.97581E-13-1.84282E-13
 -1      3624 2.02625E+01 1.09781E+00-8.85851E-04-1.08677E-01 1.18984E-14-2.70619E-13
 -1      3625 2.00011E+01 1.31160E-02-4.38534E-05-3.63182E-03 2.53458E-13-4.10926E-14
 -1      3626 1.83264E+01-2.20322E+00 9.88682E-03 4.86124E+00 2.12603E-13-1.57662E-13
 -1      3627 2.00006E+01 1.70028E-02 1.78041E-05-4.90214E-03 1.44992E-13 2.73244E-14
 -1      3628 2.02712E+01 5.49328E-01 1.39589E-03 2.86425E-01-1.81787E-14-1.98902E-13
 -1      3629 2.02739E+01 4.18437E-01 1.11786E-04 3.68246E-01-2.51627E-14-2.03172E-13
 -1      3630 2.02779E+01 2.97419E-01 1.83903E-03 4.43253E-01-3.71502E-14-1.76274E-13
 -1      3631 2.02938E+01 1.80091E-01 1.10554E-03 5.08377E-01-5.47115E-14-1.72452E-13
 -1      3632 2.02385E+01 4.20200E-01-1.89909E-03 4.11467E-01-2.61794E-14-1.97537E-13
 -1      3633 2.03134E+01 6.39584E-02 2.68139E-03 5.76951E-01-3.88657E-14-1.44581E-13
 -1      3634 2.03552E+01-5.70568E-02 1.94822E-03 6.26178E-01-2.23390E-14-1.41044E-13
 -1      3635 2.02516E+01 1.70269E-01-3.45675E-03 5.63243E-01-3.32023E-14-1.37813E-13
 -1      3636 2.04079E+01-1.83970E-01 4.05710E-03 6.86970E-01-2.16076E-14-1.45935E-13
 -1      3637 2.04877E+01-3.23242E-01 2.25451E-03 7.17376E-01-4.04050E-15-1.35377E-13
 -1      3638 2.03122E+01-8.79548E-02-5.40771E-03 7.05027E-01-2.84360E-14-1.07192E-13
 -1      3639 2.05948E+01-4.72572E-01 6.34025E-03 7.64040E-01 8.02540E-15-1.41409E-13
 -1      3640 2.07233E+01-6.39585E-01 1.59842E-03 7.66602E-01 2.37793E-14-1.71082E-13
 -1      3641 2.04554E+01-3.87337E-01-8.17304E-03 8.31913E-01-8.57279E-16-1.33269E-13
 -1      3642 2.09085E+01-8.14606E-01 9.59313E-03 7.82862E-01 1.98189E-14-1.84745E-13
 -1      3643 2.10915E+01-1.00616E+00-4.00269E-04 7.41122E-01 3.52105E-15-1.71402E-13
 -1      3644 2.07236E+01-7.51105E-01-1.14568E-02 9.23325E-01-2.37684E-15-1.56579E-13
 -1      3645 2.13734E+01-1.19302E+00 1.32188E-02 6.98939E-01-1.46888E-14-1.74233E-13
 -1      3646 2.16047E+01-1.38439E+00-4.38608E-03 5.90933E-01-4.03062E-14-1.24885E-13
 -1      3647 2.11597E+01-1.17642E+00-1.43341E-02 9.33177E-01-4.26400E-15-1.52216E-13
 -1      3648 2.19878E+01-1.54262E+00 1.61707E-02 4.52122E-01-5.94707E-14-1.27617E-13
 -1      3649 2.22414E+01-1.67278E+00-9.24501E-03 2.56644E-01-5.67599E-14-1.06459E-13
 -1      3650 2.17878E+01-1.61280E+00-1.52898E-02 7.98107E-01-3.13043E-14-2.17690E-14
 -1      3651 2.26895E+01-1.71964E+00 1.45259E-02-1.53563E-02 8.62174E-15-3.10875E-14
 -1      3652 2.29157E+01-1.67942E+00-1.29738E-02-2.96213E-01 3.99854E-14 2.30350E-15
 -1      3653 2.25884E+01-1.92450E+00-1.13025E-02 4.25746E-01 3.41762E-15 2.59599E-14
 -1      3654 2.33281E+01-1.48911E+00 3.66900E-03-6.96201E-01-4.76731E-14-9.48894E-16
 -1      3655 2.34601E+01-1.14740E+00-1.12031E-02-1.00038E+00-5.59856E-14 2.96769E-14
 -1      3656 2.34496E+01-1.86389E+00-3.74693E-03-2.39099E-01-5.88033E-15 1.02218E-13
 -1      3657 2.36934E+01-6.14726E-01-1.59740E-02-1.41792E+00-3.31547E-14 6.58360E-14
 -1      3658 2.36761E+01 8.29201E-02-2.07123E-04-1.59374E+00-3.36927E-14 2.07538E-14
 -1      3659 2.41335E+01-1.11607E+00-1.41127E-04-1.10390E+00-4.51245E-14 1.71831E-13
 -1      3660 2.38949E+01 1.01944E+00-3.69699E-02-1.82882E+00 1.69608E-14 6.83060E-14
 -1      3661 2.37444E+01 1.91318E+00-1.72464E-02-1.69692E+00-1.31960E-14 9.73063E-14
 -1      3662 2.31398E+01 3.74696E+00-6.08511E-02-4.02259E-01-1.63525E-13-7.26450E-14
 -1      3663 2.31664E+01 3.80494E+00-2.71868E-02 2.28732E-01-2.07580E-13-1.73930E-13
 -1      3664 2.32281E+01 3.52041E+00-3.31817E-02 9.13677E-01-1.36700E-13-2.59437E-13
 -1      3665 2.33480E+01 2.97733E+00-3.34830E-02 1.35974E+00-1.04161E-13-1.99587E-13
 -1      3666 2.40124E+01 1.83676E+00-1.88008E-02 1.81395E+00-3.63320E-14-1.02096E-13
 -1      3667 2.41216E+01 9.08421E-01-4.78890E-02 1.85648E+00 5.17598E-14-3.35799E-14
 -1      3668 2.41010E+01 5.08233E-02-8.28436E-03 1.64306E+00 5.54556E-14 2.24404E-14
 -1      3669 2.40944E+01-6.76554E-01-1.88281E-02 1.41507E+00 1.46130E-13-1.58571E-14
 -1      3670 2.27592E+01-1.62019E+00-1.09050E-02 2.85075E-01 6.12804E-14 2.17830E-14
 -1      3671 2.25120E+01-1.61862E+00 1.54295E-02 2.66858E-02 1.29012E-13 8.32007E-14
 -1      3672 2.20588E+01-1.55051E+00-8.02204E-03-2.14423E-01 1.26679E-13 6.10026E-15
 -1      3673 2.17916E+01-1.40837E+00 1.52553E-02-3.90937E-01 1.65869E-13 3.89638E-14
 -1      3674 2.23663E+01-1.78911E+00-1.07992E-02-4.06470E-01 1.72373E-13 9.48304E-14
 -1      3675 2.14052E+01-1.24344E+00-4.26288E-03-5.08917E-01 9.13255E-14 2.52852E-15
 -1      3676 2.11659E+01-1.05206E+00 1.22764E-02-6.00813E-01 5.02376E-15 3.44887E-14
 -1      3677 2.15599E+01-1.45781E+00-1.49465E-02-7.31103E-01 6.74096E-14 2.56772E-14
 -1      3678 2.08791E+01-8.70426E-01-4.36444E-04-6.28072E-01-5.64891E-14-1.28179E-13
 -1      3679 2.06874E+01-6.90154E-01 8.58251E-03-6.59034E-01-9.20569E-14-1.92529E-13
 -1      3680 2.09226E+01-1.02462E+00-1.35082E-02-8.34165E-01-1.17751E-13-1.52858E-13
 -1      3681 2.04937E+01-5.31100E-01 1.62579E-03-6.35114E-01-6.18562E-14-1.43454E-13
 -1      3682 2.03535E+01-3.86107E-01 5.37479E-03-6.28624E-01 1.26348E-14-1.29686E-13
 -1      3683 2.04721E+01-6.27240E-01-1.04442E-02-8.03456E-01-8.58731E-14-2.29303E-13
 -1      3684 2.02337E+01-2.63688E-01 2.38434E-03-5.81343E-01-9.37892E-15-1.35616E-13
 -1      3685 2.01388E+01-1.58995E-01 2.98134E-03-5.55209E-01 2.89279E-14-9.64350E-14
 -1      3686 2.01797E+01-3.13975E-01-7.34302E-03-7.07620E-01-2.13588E-14-5.54566E-14
 -1      3687 2.00721E+01-7.37178E-02 2.38697E-03-5.01439E-01-3.86576E-15-9.41203E-15
 -1      3688 2.00124E+01-5.10691E-03 1.37626E-03-4.67288E-01-2.72762E-15-1.69786E-14
 -1      3689 2.00062E+01-9.17674E-02-4.82291E-03-5.90219E-01 1.02558E-14-6.62635E-14
 -1      3690 1.99810E+01 4.86355E-02 2.06439E-03-4.15901E-01 1.57690E-14-2.99980E-14
 -1      3691 1.99467E+01 8.86793E-02 3.89423E-04-3.80522E-01-1.01196E-13 4.09167E-14
 -1      3692 1.99151E+01 5.13251E-02-2.95203E-03-4.75009E-01 8.71029E-14 1.47104E-13
 -1      3693 1.99372E+01 1.18245E-01 1.65063E-03-3.35435E-01-1.33411E-13 1.14394E-13
 -1      3694 1.99198E+01 1.37538E-01-1.68530E-04-3.02428E-01-1.54574E-14 1.43188E-13
 -1      3695 1.98773E+01 1.33039E-01-1.65334E-03-3.72821E-01-3.95622E-14 2.21470E-13
 -1      3696 1.99227E+01 1.50063E-01 1.25582E-03-2.64797E-01 4.83560E-15 4.51566E-14
 -1      3697 1.99158E+01 1.55403E-01-4.48136E-04-2.35750E-01-4.30474E-14 6.45444E-14
 -1      3698 1.98714E+01 1.70892E-01-8.03507E-04-2.87244E-01-1.38313E-13 1.62320E-13
 -1      3699 1.99249E+01 1.56780E-01 9.28323E-04-2.05310E-01 1.17179E-14-9.48922E-14
 -1      3700 1.99240E+01 1.53478E-01-5.54830E-04-1.80704E-01-9.42075E-15 4.68890E-14
 -1      3701 1.98827E+01 1.79653E-01-2.80542E-04-2.18030E-01-4.86904E-14 1.73622E-13
 -1      3702 1.99352E+01 1.48230E-01 6.74274E-04-1.56617E-01-4.97840E-14 5.12675E-14
 -1      3703 1.99373E+01 1.40183E-01-5.60522E-04-1.36328E-01-1.61334E-13 5.35996E-14
 -1      3704 1.99017E+01 1.70640E-01 1.55671E-05-1.63342E-01-5.26384E-16 8.99486E-14
 -1      3705 1.99485E+01 1.31533E-01 4.86312E-04-1.17568E-01-3.33417E-13 7.44622E-14
 -1      3706 1.99518E+01 1.21408E-01-5.13239E-04-1.01185E-01-3.35227E-13 7.03674E-14
 -1      3707 1.99226E+01 1.52057E-01 1.64522E-04-1.20824E-01-2.37164E-13-2.55259E-14
 -1      3708 1.99617E+01 1.11512E-01 3.50661E-04-8.67585E-02-2.23800E-13 7.26042E-14
 -1      3709 1.99651E+01 1.01017E-01-4.42473E-04-7.37602E-02-1.07129E-13 1.21869E-13
 -1      3710 1.99422E+01 1.29456E-01 2.22019E-04-8.81609E-02-3.17025E-13-3.02965E-14
 -1      3711 1.99733E+01 9.12142E-02 2.54088E-04-6.27889E-02 1.30232E-14-4.28220E-14
 -1      3712 1.99762E+01 8.13529E-02-3.65685E-04-5.26402E-02 9.92683E-15-1.60781E-13
 -1      3713 1.99590E+01 1.06362E-01 2.26717E-04-6.33143E-02-1.02508E-13-1.85690E-13
 -1      3714 1.99827E+01 7.23917E-02 1.85691E-04-4.43871E-02-2.01134E-14-1.80216E-13
 -1      3715 1.99849E+01 6.36762E-02-2.92440E-04-3.65865E-02-5.73725E-14-2.48914E-13
 -1      3716 1.99725E+01 8.48189E-02 2.04049E-04-4.45853E-02-7.65816E-14-2.33250E-13
 -1      3717 1.99897E+01 5.59056E-02 1.37101E-04-3.04506E-02 2.73644E-14-2.73902E-13
 -1      3718 1.99913E+01 4.85223E-02-2.28713E-04-2.45520E-02-5.09000E-15-2.02215E-13
 -1      3719 1.99827E+01 6.58537E-02 1.69911E-04-3.06042E-02-1.34591E-14-8.49663E-14
 -1      3720 1.99947E+01 4.20255E-02 1.02163E-04-2.00524E-02-3.25498E-14-4.81765E-14
 -1      3721 1.99957E+01 3.59765E-02-1.64024E-04-1.56832E-02 7.75429E-14 1.68624E-13
 -1      3722 1.99900E+01 4.98066E-02 1.29791E-04-2.02725E-02 7.43573E-14 2.64077E-13
 -1      3723 1.99979E+01 3.06088E-02 5.63176E-05-1.23965E-02 3.57308E-14 1.76331E-13
 -1      3724 1.99986E+01 2.57535E-02-9.61508E-05-9.24874E-03-1.98773E-14 9.82414E-14
 -1      3725 1.99950E+01 3.67178E-02 1.21371E-04-1.27412E-02 9.09544E-14 3.81602E-13
 -1      3726 2.00001E+01 1.99943E-02-1.71163E-05-6.58000E-03 1.01427E-13-4.69773E-14
 -1      3727 2.00150E+01 1.87045E+00-2.60067E-03-2.54834E-02 1.13263E-13-3.10974E-13
 -1      3728 2.00908E+01 1.62439E+00 6.05512E-03-6.31870E-04 8.09886E-14-2.79568E-13
 -1      3729 1.99919E+01 1.90278E+00-3.76160E-03 3.94636E-02 1.29980E-13-2.93213E-13
 -1      3730 1.64446E+01 1.64257E+00-6.26313E-03-4.97887E-01-2.42884E-13-5.00320E-14
 -1      3731 1.56323E+01 1.69860E+00-2.38236E-02-6.30498E-01-2.40565E-13-5.52349E-14
 -1      3732 1.40018E+01 1.62877E+00 2.45277E-02 1.28469E+00 1.92350E-13-5.83318E-14
 -1      3733 2.00431E+01 1.69885E+00 5.68766E-03 7.29476E-02 1.12579E-13-2.65150E-13
 -1      3734 1.88222E+01 1.00458E+00-3.06285E-03 1.89661E-01-3.88039E-14-1.50962E-13
 -1      3735 1.85784E+01 1.10635E+00-1.07795E-02 1.68635E-01-6.98748E-14-1.00985E-13
 -1      3736 1.94913E+01 8.94912E-01-4.89464E-03-5.94602E-01 5.61251E-14-3.17701E-14
 -1      3737 1.96409E+01 8.43873E-01-2.53874E-03-5.25430E-01 8.24337E-14-5.52167E-14
 -1      3738 1.96709E+01 8.98451E-01 5.86063E-03-3.83318E-01 7.51750E-14-6.27290E-14
 -1      3739 1.93296E+01 9.87464E-01 8.82913E-03-4.39080E-01 6.08221E-14-7.18648E-14
 -1      3740 1.98389E+01 2.89390E-01-1.23176E-03 1.53201E-01-1.42056E-13-2.95581E-13
 -1      3741 1.98070E+01 3.29470E-01-8.37765E-04 1.73078E-01 3.65543E-14-3.12475E-13
 -1      3742 1.97555E+01 3.76761E-01-1.55611E-03 1.84796E-01 1.49577E-13-4.39769E-13
 -1      3743 1.97040E+01 4.30215E-01-1.50227E-03 2.06703E-01 2.02969E-13-4.65138E-13
 -1      3744 1.97483E+01 3.73584E-01 2.32199E-03 1.38872E-01 8.44625E-15-1.34055E-13
 -1      3745 1.96307E+01 4.90229E-01-1.94185E-03 2.14566E-01 2.14643E-13-3.82320E-13
 -1      3746 1.95522E+01 5.57140E-01-2.64640E-03 2.35071E-01 1.78193E-13-2.77542E-13
 -1      3747 1.96275E+01 4.81189E-01 3.35638E-03 1.51456E-01 2.13430E-13-2.72843E-13
 -1      3748 1.98969E+01 2.19345E-01-9.61445E-04 1.22003E-01-6.80954E-14-1.04883E-14
 -1      3749 1.98750E+01 2.52371E-01-4.24875E-04 1.40473E-01-1.33198E-13-7.84550E-14
 -1      3750 1.98323E+01 2.87575E-01 1.63935E-03 1.18969E-01-1.32902E-13 1.58045E-13
 -1      3751 1.99358E+01 1.65114E-01-7.42674E-04 9.42729E-02 1.17333E-13 1.73304E-14
 -1      3752 1.99219E+01 1.90636E-01-1.84119E-04 1.09913E-01-1.67400E-15 3.66045E-14
 -1      3753 1.98904E+01 2.19562E-01 1.14803E-03 9.72260E-02-6.91798E-14 2.66754E-13
 -1      3754 1.99615E+01 1.23351E-01-5.69510E-04 7.08071E-02 9.66804E-14 1.24913E-13
 -1      3755 1.99530E+01 1.43020E-01-3.42528E-05 8.36117E-02 1.34560E-13 1.72047E-14
 -1      3756 1.99302E+01 1.66202E-01 7.88509E-04 7.64847E-02 9.77622E-14 2.06001E-13
 -1      3757 1.99783E+01 9.13447E-02-4.32404E-04 5.16570E-02 8.03410E-14 1.77941E-13
 -1      3758 1.99732E+01 1.06429E-01 4.30122E-05 6.18595E-02 1.70899E-13 1.88420E-13
 -1      3759 1.99571E+01 1.24690E-01 5.36744E-04 5.81688E-02 7.19760E-14 3.21170E-13
 -1      3760 1.99890E+01 6.69565E-02-3.16249E-04 3.64901E-02-1.76196E-14 1.36184E-14
 -1      3761 1.99861E+01 7.84537E-02 8.11447E-05 4.44226E-02 4.09863E-14 1.66774E-13
 -1      3762 1.99750E+01 9.25974E-02 3.58448E-04 4.28041E-02 1.59825E-13 2.35877E-13
 -1      3763 1.99953E+01 4.92282E-02-2.35127E-04 2.52810E-02 2.79583E-14-5.45361E-14
 -1      3764 1.99939E+01 5.76229E-02 8.92739E-05 3.10946E-02-3.69609E-14-1.48251E-13
 -1      3765 1.99864E+01 6.84574E-02 2.31295E-04 3.06611E-02 1.47855E-13 1.15501E-13
 -1      3766 1.99992E+01 3.49808E-02-1.76487E-04 1.63025E-02 2.05281E-14-4.41492E-13
 -1      3767 1.99986E+01 4.16981E-02 8.50135E-05 2.08672E-02 4.91814E-14-3.22718E-13
 -1      3768 1.99937E+01 4.99633E-02 1.55945E-04 2.11112E-02 1.55968E-13-3.73656E-13
 -1      3769 2.00013E+01 2.42902E-02-9.02993E-05 9.79770E-03-1.82815E-13-2.40867E-13
 -1      3770 2.00011E+01 2.92744E-02 7.28197E-05 1.30236E-02-1.08926E-13-3.83462E-13
 -1      3771 1.99981E+01 3.54333E-02 9.32791E-05 1.36167E-02-2.68522E-14-5.17229E-13
 -1      3772 2.00016E+01 1.91468E-02-2.12872E-05 6.36393E-03 1.43992E-13-4.46461E-13
 -1      3773 2.00019E+01 2.18907E-02 8.00130E-05 8.25900E-03-6.17912E-14-2.78565E-13
 -1      3774 2.00000E+01 2.64071E-02 2.76526E-05 8.95535E-03-7.98676E-14-4.70446E-13
 -1      3775 2.00006E+01 2.08282E-02-6.97967E-05 6.20856E-03 1.63008E-13-6.95097E-13
 -1      3776 2.01960E+01 1.54012E+00-1.96466E-03-3.29167E-01 2.73682E-14-3.10923E-13
 -1      3777 1.83076E+01 1.22406E+00-3.63431E-03 8.04129E-02-5.60702E-14-1.10280E-13
 -1      3778 1.79375E+01 1.33341E+00-1.59980E-02 2.01791E-02-7.00592E-14-1.46426E-13
 -1      3779 1.84272E+01 1.12819E+00 1.09299E-02-1.30796E-01-1.00285E-13-2.81583E-13
 -1      3780 2.00006E+01 1.03262E+00-4.20589E-03-1.06941E-01 1.82281E-13-7.61668E-14
 -1      3781 2.00609E+01 1.12959E+00-4.33608E-03-1.40270E-02 2.00764E-13-6.68382E-14
 -1      3782 1.51934E+01 1.67481E+00 2.45358E-02-1.03078E+00-2.68873E-13 6.65193E-14
 -1      3783 1.40018E+01 1.48434E+00-8.24335E-03-1.75708E+00-1.19654E-13 4.16247E-14
 -1      3784 1.47689E+01 9.46134E-01 2.89943E-02-2.76289E+00-7.07438E-14 2.22079E-13
 -1      3785 1.57430E+01 1.39518E+00 2.63766E-02-1.63743E+00-1.23583E-13-3.27880E-14
 -1      3786 1.69678E+01 1.41613E+00-2.29594E-02 4.17001E-01 1.19207E-13 6.33282E-15
 -1      3787 1.75551E+01 1.35838E+00-1.62517E-03 2.39718E-01 1.14133E-13 1.18400E-14
 -1      3788 1.69114E+01-6.90696E-01 2.36941E-03 3.87130E+00 2.36540E-13-1.22204E-13
 -1      3789 1.55543E+01-3.48691E-02 8.96385E-02 3.84355E+00 2.48624E-13-1.02040E-13
 -1      3790 1.90826E+01-1.70206E+00 8.07887E-02-4.13485E+00-2.25662E-14-1.50557E-13
 -1      3791 2.07185E+01-2.60194E+00-5.54235E-02-3.62869E+00 2.43512E-14-2.48785E-13
 -1      3792 1.91950E+01 8.01071E-01-2.62875E-03 2.32644E-01-2.74316E-14-1.77823E-13
 -1      3793 1.90195E+01 8.97702E-01-6.97935E-03 2.33434E-01 2.12937E-16-8.53300E-14
 -1      3794 1.88924E+01 9.39677E-01 8.89653E-03 3.39925E-02-5.46655E-15-3.19729E-13
 -1      3795 1.99985E+01 1.89337E-02-2.25504E-05-7.26240E-04 4.38680E-13 3.40381E-13
 -1      3796 1.99985E+01 1.91659E-02-4.28214E-05-1.88925E-05 2.15205E-13 5.45333E-13
 -1      3797 1.99979E+01 2.23806E-02 2.29635E-05-1.92595E-03 3.10246E-13 4.10253E-13
 -1      3798 1.75661E+01 1.44700E+00-4.54010E-03-1.36362E-01-1.74917E-13-4.94432E-14
 -1      3799 1.70343E+01 1.54208E+00-2.14712E-02-2.55383E-01-2.35456E-13-5.18223E-14
 -1      3800 1.77886E+01 1.30268E+00 1.34409E-02-4.21094E-01-8.84448E-14-3.61885E-13
 -1      3801 1.55796E+01 1.48527E+00-1.70891E-02 1.01080E+00 1.31128E-13-8.06907E-15
 -1      3802 1.64492E+01 1.46119E+00-2.21537E-04 7.12098E-01 1.41598E-13-7.91468E-15
 -1      3803 1.69618E+01 1.23460E+00 1.91957E-02 1.10715E+00 1.39554E-13-1.54755E-14
 -1      3804 2.23350E+01-2.83559E+00 6.09958E-02-2.82756E+00 1.38632E-13 5.06257E-15
 -1      3805 2.31123E+01-3.12470E+00-2.21656E-02-2.26832E+00 1.82130E-13 2.22353E-13
 -1      3806 1.44637E+01 6.53209E-01-1.57737E-02 2.86731E+00 2.38332E-13-8.99419E-14
 -1      3807 1.94520E+01 6.30120E-01-2.31676E-03 2.34315E-01 1.41831E-14-2.96498E-13
 -1      3808 1.93339E+01 7.11908E-01-4.39998E-03 2.48606E-01-5.50523E-14-2.44156E-13
 -1      3809 1.92236E+01 7.64260E-01 6.80354E-03 1.16245E-01 1.85733E-14-2.44735E-13
 -1      3810 1.94582E+01 6.11063E-01 4.74270E-03 1.48285E-01 6.06731E-14-3.54699E-13
 -1      3811 2.34923E+01 3.20187E+00-2.06064E-02-1.15267E+00-4.70145E-14 3.43172E-14
 -1      3812 2.02691E+01 8.59321E-01 3.81759E-03 1.01122E-01 1.86018E-14-2.28700E-13
 -1      3813 2.02665E+01 6.92357E-01-1.30324E-03 2.02484E-01 7.58948E-16-2.07131E-13
 -1      3814 2.02385E+01 7.01059E-01-4.66638E-04 2.47278E-01-4.40223E-15-2.24080E-13
 -1      3815 2.52013E+01 3.15323E+00-6.55986E-02 1.86196E+00 1.46376E-14-1.95156E-13
 -1      3816 2.42855E+01 3.29516E+00-4.01130E-02 1.50176E+00 1.46567E-14-2.91857E-13
 -1      3817 1.79457E+01 1.27214E+00-1.79569E-02 4.46390E-02 1.29279E-13-1.09821E-14
 -1      3818 1.83671E+01 1.19431E+00-1.94104E-03-5.33453E-02 1.22461E-13-4.96714E-14
 -1      3819 1.78899E+01 1.19658E+00 1.81277E-02 5.29849E-01 1.19399E-13-3.56954E-14
 -1      3820 1.94687E+01-2.52038E+00 5.92432E-02 4.66453E+00 2.24284E-13-9.35328E-14
 -1      3821 1.87065E+01-1.86362E+00 2.24069E-04 4.29462E+00 2.38871E-13-1.05785E-13
 -1      3822 2.05108E+01-2.87552E+00-3.87649E-03 4.21629E+00 2.13989E-13 3.24567E-14
 -1      3823 1.99985E+01 2.44751E-02 5.19260E-05-7.00050E-03-2.40345E-14 1.50713E-13
 -1      3824 1.53375E+01 1.07188E+00 1.96070E-02 1.96903E+00 1.81475E-13-6.22601E-14
 -1      3825 2.02246E+01 1.37824E+00 5.28631E-03-1.94369E-01 3.75266E-14-2.93612E-13
 -1      3826 1.59916E+01 4.63361E-01 2.43007E-02-2.96894E+00-3.13723E-14 1.26947E-13
 -1      3827 1.86600E+01 1.10991E+00-1.23989E-02-1.66292E-01 6.28372E-14-9.27566E-14
 -1      3828 1.89574E+01 1.04145E+00-1.64715E-03-2.06658E-01 5.05534E-14-1.09605E-13
 -1      3829 1.85744E+01 1.09499E+00 1.29561E-02 1.74245E-01 6.11953E-14-9.95716E-14
 -1      3830 2.36394E+01-3.94141E+00 1.52195E-02 3.27810E+00 1.25174E-13 2.33168E-13
 -1      3831 2.23183E+01-3.54828E+00-4.26467E-05 3.66634E+00 1.15069E-13 2.01775E-13
 -1      3832 2.41522E+01-3.64450E+00-1.89823E-03 2.32664E+00 1.19131E-13 2.60217E-13
 -1      3833 2.46589E+01 4.90156E-01 8.89131E-06-1.80481E+00-3.60909E-15 1.67071E-13
 -1      3834 2.36129E+01 2.46306E+00-6.52846E-02-1.58961E+00-3.75134E-14 5.92759E-14
 -1      3835 2.47197E+01-1.26502E+00 2.29363E-03 1.01085E+00 1.57819E-13 6.39749E-14
 -1      3836 2.35371E+01-1.23752E+00-5.84631E-03 9.34371E-01 2.19660E-13-6.10753E-14
 -1      3837 1.61785E+01 7.16896E-01 9.20102E-03 2.39039E+00 1.92748E-13-8.40890E-14
 -1      3838 2.33706E+01-1.55033E+00 1.18778E-03 6.37772E-01 1.05221E-13 1.56374E-14
 -1      3839 1.68533E+01 1.43599E+00 1.82718E-02-8.90525E-01-1.78412E-13-2.28406E-13
 -1      3840 2.00845E+01 1.44170E+00-3.42510E-03 6.95028E-02 7.33524E-14-2.81627E-13
 -1      3841 2.01204E+01 1.38249E+00-2.74030E-03 3.32764E-02 6.75207E-14-2.83187E-13
 -1      3842 1.99978E+01 2.32250E-02 5.06004E-05 6.05293E-04 1.69495E-13 7.70784E-13
 -1      3843 2.00950E+01 1.29068E+00 5.91300E-03 5.72558E-02 1.84190E-13-7.51781E-14
 -1      3844 2.00316E+01 1.69469E+00-6.48677E-03 1.97780E-01 1.97341E-13-1.57376E-13
 -1      3845 1.99975E+01 2.58598E-02-5.07618E-05-5.96521E-03-1.35667E-14 2.62744E-13
 -1      3846 2.50561E+01-2.08117E+00-1.99957E-02 4.15173E-01 2.02416E-13 1.04880E-13
 -1      3847 2.35616E+01-2.86505E+00-2.50446E-03-1.50287E+00 1.99942E-13 2.46600E-13
 -1      3848 2.43627E+01-2.32766E+00 4.76024E-03-1.22211E-01 1.84757E-13 1.66197E-13
 -1      3849 1.84466E+01-1.13028E+00 2.08938E-02-3.71677E+00-2.50529E-14-1.18717E-13
 -1      3850 1.99325E+01 9.61653E-01 5.85455E-04-1.53024E-01 1.53425E-13-5.51653E-14
 -1      3851 1.99529E+01 1.05382E+00 5.24745E-04-6.17375E-02 1.65612E-13-9.59507E-14
 -1      3852 1.98258E+01 9.15439E-01-5.20257E-03-2.19084E-01 1.19017E-13-4.76000E-14
 -1      3853 1.82871E+01-1.09266E+00 5.69886E-02 3.80983E+00 2.43455E-13-9.32917E-14
 -1      3854 1.74479E+01-4.63248E-01-3.77563E-03 3.33594E+00 2.67735E-13-1.03169E-13
 -1      3855 2.12939E+01-2.33580E+00 8.28203E-03-2.88512E+00 9.07954E-14-1.44568E-13
 -1      3856 2.61056E+01-2.87117E+00 6.63016E-04 3.87097E-01 8.82963E-15 2.55667E-13
 -1      3857 2.53032E+01-3.13214E+00-7.93408E-03 9.14828E-01 5.57054E-14 2.29294E-13
 -1      3858 2.57770E+01-2.08518E+00-2.52652E-02-4.30930E-01-1.45162E-14 3.11974E-13
 -1      3859 1.90500E+01-1.56932E+00-2.25796E-02 3.66964E+00 2.63326E-13-2.86177E-14
 -1      3860 2.00355E+01 1.50572E+00-3.82128E-03 1.05688E-01 1.17093E-13-2.18467E-13
 -1      3861 2.00554E+01 1.48973E+00-1.67364E-03 7.99589E-02 9.29837E-14-2.58132E-13
 -1      3862 2.00932E+01 1.29149E+00 3.02296E-03 1.10140E-01 7.96995E-14-2.53870E-13
 -1      3863 1.99986E+01 2.41300E-02-4.04674E-05 4.86188E-03-9.38367E-14-4.22997E-13
 -1      3864 1.99995E+01 2.27229E-02-3.01982E-05 5.49324E-03 1.36842E-13-6.69971E-13
 -1      3865 1.99992E+01 2.54125E-02 1.21010E-05 6.65142E-03 1.62342E-13-7.19546E-13
 -1      3866 2.34172E+01-1.93319E+00-1.50843E-02 1.20117E-01 1.47468E-13 1.66695E-13
 -1      3867 2.00403E+01 1.29769E+00 3.19644E-03 5.39442E-02 1.98182E-13-1.29815E-13
 -1      3868 2.00251E+01 1.51916E+00-1.03039E-03 1.06390E-01 1.41322E-13-1.86392E-13
 -1      3869 2.00503E+01 1.34884E+00 5.18786E-03 1.07613E-01 1.29095E-13-1.72555E-13
 -1      3870 2.00257E+01 1.49349E+00-3.09637E-03 1.16276E-01 1.74530E-13-1.64600E-13
 -1      3871 1.99977E+01 2.52246E-02-4.83158E-05 3.47471E-03 7.71676E-14 8.09528E-14
 -1      3872 1.99973E+01 2.83807E-02 1.17498E-04 4.41363E-03 2.11097E-13 8.30897E-14
 -1      3873 1.99971E+01 2.61056E-02 7.58909E-06 2.26112E-03 2.30029E-13 3.38579E-13
 -1      3874 2.01861E+01 1.05144E+00 2.45662E-03 1.30501E-01 3.38808E-14-2.81674E-13
 -1      3875 2.01800E+01 1.18710E+00-1.73229E-03 5.28910E-02 6.13456E-14-2.75280E-13
 -1      3876 2.02389E+01 1.09396E+00-4.32484E-03-3.61809E-02 4.27565E-14-2.60962E-13
 -1      3877 2.02201E+01 1.09386E+00-2.12726E-03 2.47556E-02 5.01129E-14-2.62087E-13
 -1      3878 2.49982E+01 2.11327E+00 9.40716E-03 1.99285E+00 1.20955E-13-2.82503E-13
 -1      3879 2.54426E+01-2.14020E-01-5.01274E-02-1.62014E+00-4.38716E-14 1.93213E-13
 -1      3880 2.01222E+01 1.06647E+00 6.85151E-04 1.70061E-01 5.96769E-14-2.60824E-13
 -1      3881 2.01827E+01 8.74773E-01-4.05310E-04 2.00030E-01 3.91481E-14-2.71349E-13
 -1      3882 2.01846E+01 7.24888E-01 1.09716E-03 2.86854E-01 3.30901E-14-2.52770E-13
 -1      3883 2.01834E+01 3.08300E-01 1.05621E-03 5.28732E-01-3.16492E-16-1.64790E-13
 -1      3884 2.02007E+01 1.88438E-01 2.90902E-03 6.06253E-01-1.14334E-14-1.35243E-13
 -1      3885 2.02055E+01 6.39252E-02 1.62475E-03 6.98878E-01-3.85013E-14-1.20250E-13
 -1      3886 2.02571E+01-6.84977E-02 4.25627E-03 7.74189E-01-3.53827E-14-1.33674E-13
 -1      3887 2.01052E+01 1.92205E-01-3.89656E-03 6.70141E-01-1.27800E-14-1.52586E-13
 -1      3888 2.03003E+01-2.14707E-01 3.22171E-03 8.74612E-01-1.69301E-14-1.39833E-13
 -1      3889 2.04040E+01-3.78465E-01 5.01769E-03 9.43370E-01-3.85263E-15-1.54962E-13
 -1      3890 2.01459E+01-7.96294E-02-5.87346E-03 8.75772E-01-2.74378E-14-1.37898E-13
 -1      3891 2.05158E+01-5.61615E-01 6.42889E-03 1.04447E+00 1.32165E-14-1.71730E-13
 -1      3892 2.06927E+01-7.70710E-01 5.45531E-03 1.09298E+00 1.56380E-14-1.61429E-13
 -1      3893 2.02857E+01-4.21465E-01-9.77749E-03 1.10132E+00-2.90149E-15-1.18397E-13
 -1      3894 2.09083E+01-1.00153E+00 1.06592E-02 1.17788E+00 1.95484E-14-1.23997E-13
 -1      3895 2.11757E+01-1.25550E+00 3.53233E-03 1.18008E+00 8.47087E-15-1.01969E-13
 -1      3896 2.05762E+01-8.68934E-01-1.84047E-02 1.32090E+00 2.86354E-14-6.65581E-14
 -1      3897 2.15476E+01-1.51073E+00 2.14709E-02 1.18570E+00 4.13515E-14-5.69873E-14
 -1      3898 2.18819E+01-1.78710E+00-4.83839E-03 1.10183E+00 4.78758E-14 2.85000E-14
 -1      3899 2.11416E+01-1.46895E+00-3.11321E-02 1.47700E+00 7.85611E-14 2.68004E-14
 -1      3900 2.24347E+01-2.01156E+00 2.91439E-02 9.79196E-01 4.62426E-14 1.07503E-13
 -1      3901 2.28256E+01-2.20712E+00-9.69543E-03 7.59454E-01 6.37962E-14 1.32299E-13
 -1      3902 2.19667E+01-2.08795E+00-4.33605E-02 1.44981E+00 1.00179E-13 1.27373E-13
 -1      3903 2.35189E+01-2.28932E+00 2.65228E-02 4.29766E-01 5.46892E-14 1.61417E-13
 -1      3904 2.39033E+01-2.21917E+00-1.45945E-02 3.83681E-02 3.69845E-14 2.06475E-13
 -1      3905 2.31643E+01-2.51023E+00-1.99032E-02 1.03790E+00 8.97333E-14 2.35024E-13
 -1      3906 2.46391E+01-2.07251E+00 9.81824E-03-3.50524E-01-1.93122E-14 2.26035E-13
 -1      3907 2.49287E+01-1.51871E+00-1.50269E-02-8.24095E-01-3.95586E-14 2.19871E-13
 -1      3908 1.71236E+01 8.42519E-01-2.71887E-03 1.66040E+00 1.48438E-13-5.60905E-14
 -1      3909 1.76488E+01 9.12077E-01 1.56995E-02 1.24895E+00 1.36959E-13-4.12801E-14
 -1      3910 1.72066E+01 5.48706E-02 2.60510E-02 2.89993E+00 2.41284E-13-1.24302E-13
 -1      3911 1.71867E+01 5.85485E-01 1.14968E-02 2.06137E+00 1.79602E-13-4.62629E-14
 -1      3912 1.78743E+01 2.16408E-01-2.29545E-02 2.16329E+00 1.92545E-13-9.03117E-14
 -1      3913 1.82281E+01-4.98269E-01-3.46218E-02 2.90306E+00 2.78493E-13-7.61765E-14
 -1      3914 2.16343E+01-1.61297E+00-3.73810E-03-1.04688E+00 7.10111E-14-4.78815E-14
 -1      3915 2.12854E+01-1.34132E+00 1.71641E-02-1.11557E+00 2.30785E-14-4.25511E-14
 -1      3916 2.09185E+01-1.08924E+00 2.35657E-03-1.08445E+00-2.43718E-14-1.19420E-13
 -1      3917 2.06509E+01-8.46403E-01 1.04858E-02-1.07249E+00-9.93337E-14-1.18393E-13
 -1      3918 2.08650E+01-1.25239E+00-2.01360E-02-1.39523E+00-9.53751E-15-1.12477E-13
 -1      3919 2.04244E+01-6.34619E-01 4.69364E-03-9.85101E-01-1.28490E-13-1.15033E-14
 -1      3920 2.02385E+01-4.47436E-01 5.61283E-03-9.32992E-01-1.07680E-13-2.69624E-14
 -1      3921 2.03134E+01-7.18845E-01-1.42938E-02-1.22536E+00-1.35773E-13 3.99935E-14
 -1      3922 2.01135E+01-2.90301E-01 5.06095E-03-8.30542E-01 6.98145E-15 2.19173E-14
 -1      3923 1.99947E+01-1.60075E-01 2.43448E-03-7.64684E-01 1.10134E-13 9.96631E-14
 -1      3924 1.99877E+01-3.20165E-01-9.17626E-03-1.00120E+00 1.43677E-14 8.62849E-14
 -1      3925 1.99363E+01-5.39681E-02 4.42194E-03-6.68177E-01 8.79664E-14 6.46629E-14
 -1      3926 1.98672E+01 2.83684E-02 5.49934E-04-6.02990E-01 4.49001E-14 2.15844E-13
 -1      3927 1.98172E+01-5.10321E-02-5.60234E-03-7.81460E-01 1.53205E-13 2.35135E-13
 -1      3928 1.98496E+01 9.31821E-02 3.47486E-03-5.21023E-01 1.53767E-14 2.43959E-13
 -1      3929 1.98144E+01 1.39378E-01-4.24700E-04-4.63196E-01 6.04277E-14 2.53729E-13
 -1      3930 1.97463E+01 1.14066E-01-3.17739E-03-5.91327E-01 5.80907E-14 3.44573E-13
 -1      3931 1.98197E+01 1.73717E-01 2.58260E-03-3.97431E-01-5.11276E-16 1.55942E-13
 -1      3932 1.98063E+01 1.94372E-01-8.61161E-04-3.49093E-01-1.22759E-13 1.34678E-13
 -1      3933 1.97346E+01 2.02961E-01-1.57355E-03-4.37800E-01-1.27432E-14 1.85987E-13
 -1      3934 1.98231E+01 2.07644E-01 1.82348E-03-2.98401E-01-1.65292E-13 1.63276E-13
 -1      3935 1.98223E+01 2.11687E-01-1.00006E-03-2.59510E-01-2.01535E-13 1.31414E-13
 -1      3936 1.97551E+01 2.39291E-01-6.02885E-04-3.19009E-01-1.50153E-13 3.01442E-14
 -1      3937 1.98435E+01 2.11565E-01 1.24909E-03-2.21286E-01-1.94126E-13 1.68496E-13
 -1      3938 1.98494E+01 2.05505E-01-9.68628E-04-1.90725E-01-1.50169E-13 1.09128E-13
 -1      3939 1.97906E+01 2.42261E-01-3.96629E-05-2.29731E-01-2.16901E-13 7.53226E-14
 -1      3940 1.98708E+01 1.97557E-01 8.26736E-04-1.62435E-01-1.08549E-13 8.85410E-14
 -1      3941 1.98794E+01 1.86141E-01-8.59946E-04-1.38794E-01-3.32538E-14 1.69673E-14
 -1      3942 1.98304E+01 2.25501E-01 2.51574E-04-1.63920E-01-2.26921E-13-2.12626E-14
 -1      3943 1.98988E+01 1.74294E-01 5.36152E-04-1.18083E-01-2.52188E-13-1.28062E-13
 -1      3944 1.99079E+01 1.60680E-01-7.25023E-04-9.99979E-02-3.68914E-13-1.85079E-13
 -1      3945 1.98685E+01 1.98716E-01 3.79589E-04-1.16041E-01-2.48242E-13-2.21398E-13
 -1      3946 1.99243E+01 1.47520E-01 3.41656E-04-8.49520E-02-2.49638E-13-1.24623E-13
 -1      3947 1.99327E+01 1.33703E-01-5.90147E-04-7.12328E-02-2.57148E-13-9.04894E-14
 -1      3948 1.99019E+01 1.68226E-01 4.07489E-04-8.14934E-02-2.77559E-13-1.74515E-13
 -1      3949 1.99459E+01 1.20820E-01 2.15247E-04-6.03626E-02-1.77430E-13-5.42206E-14
 -1      3950 1.99529E+01 1.07959E-01-4.67653E-04-5.00310E-02-4.38527E-14-6.25329E-14
 -1      3951 1.99297E+01 1.37956E-01 3.80690E-04-5.66997E-02-1.74532E-13 3.46573E-14
 -1      3952 1.99631E+01 9.62370E-02 1.35369E-04-4.22121E-02-5.15288E-14-7.66096E-14
 -1      3953 1.99686E+01 8.49113E-02-3.62529E-04-3.44886E-02-8.88381E-14-5.86272E-14
 -1      3954 1.99516E+01 1.10132E-01 3.28397E-04-3.89674E-02-8.55643E-14 7.53620E-14
 -1      3955 1.99762E+01 7.47523E-02 8.67489E-05-2.88888E-02-2.80187E-14-3.84225E-14
 -1      3956 1.99803E+01 6.51535E-02-2.80114E-04-2.31632E-02 5.55159E-14 1.58550E-14
 -1      3957 1.99682E+01 8.58124E-02 2.66374E-04-2.63157E-02-5.40647E-15 1.49546E-13
 -1      3958 1.99857E+01 5.67122E-02 7.10483E-05-1.92048E-02 1.55988E-13 5.57710E-14
 -1      3959 1.99885E+01 4.87907E-02-2.12594E-04-1.49655E-02 1.10784E-13 1.81747E-13
 -1      3960 1.99803E+01 6.52957E-02 2.02864E-04-1.73461E-02 1.52413E-13 1.22803E-13
 -1      3961 1.99923E+01 4.18220E-02 3.48400E-05-1.22158E-02 1.23651E-13 3.00748E-13
 -1      3962 1.99942E+01 3.55291E-02-9.19509E-05-9.07917E-03 3.16994E-14 2.95766E-13
 -1      3963 1.99887E+01 4.84520E-02 1.11353E-04-1.10269E-02 1.31674E-13 2.52927E-14
 -1      3964 1.99967E+01 2.62420E-02 4.39036E-05-7.51645E-04 2.63151E-13 9.12328E-13
 -1      3965 1.99967E+01 2.60828E-02-6.23201E-05 6.29190E-04 2.00224E-13 7.26738E-13
 -1      3966 1.99961E+01 2.93959E-02 8.32620E-05 9.65100E-04 3.11574E-13 6.44136E-13
 -1      3967 1.99957E+01 3.07152E-02 7.14104E-05-5.37693E-03 3.87074E-14 1.72492E-13
 -1      3968 1.97473E+01 3.47358E-01-7.83416E-04 9.07898E-02-1.60048E-13 1.47638E-13
 -1      3969 1.96948E+01 3.91714E-01-1.85492E-03 9.64435E-02 1.38398E-14-1.00270E-13
 -1      3970 1.98278E+01 2.70244E-01-7.20811E-04 8.25665E-02-1.03073E-13 6.53073E-14
 -1      3971 1.97917E+01 3.06622E-01-1.13775E-03 9.11636E-02-1.08394E-13 1.32431E-13
 -1      3972 1.97565E+01 3.33681E-01 1.81497E-03 5.28149E-02-1.47125E-13-1.46066E-13
 -1      3973 1.96348E+01 4.41515E-01-7.72136E-04 8.89404E-02 2.06390E-13-1.62624E-13
 -1      3974 1.95591E+01 4.94631E-01-2.89988E-03 8.77616E-02 2.06775E-13-1.33143E-13
 -1      3975 1.96528E+01 4.19147E-01 2.44199E-03 3.92612E-02 2.90850E-14-1.30245E-13
 -1      3976 1.99249E+01 1.58641E-01-5.13474E-04 5.63232E-02 1.03573E-14 2.14414E-13
 -1      3977 1.99083E+01 1.81956E-01-3.92613E-04 6.51382E-02 8.18395E-14 6.47089E-14
 -1      3978 1.99526E+01 1.19639E-01-4.14990E-04 4.34725E-02 7.45844E-14 1.81216E-13
 -1      3979 1.99415E+01 1.38016E-01-2.08708E-04 5.12136E-02-1.71782E-15 1.61157E-13
 -1      3980 1.99253E+01 1.55791E-01 6.94182E-04 4.06740E-02 5.03411E-14 1.23451E-13
 -1      3981 1.99714E+01 8.91899E-02-3.23133E-04 3.22820E-02 2.02746E-13 1.45461E-13
 -1      3982 1.99642E+01 1.03536E-01-9.38644E-05 3.87301E-02 1.20228E-13 1.46255E-13
 -1      3983 1.99524E+01 1.17944E-01 4.91224E-04 3.21852E-02 1.27127E-13 2.37684E-13
 -1      3984 1.99835E+01 6.66184E-02-2.54112E-04 2.34250E-02 2.29957E-13 9.59175E-14
 -1      3985 1.99791E+01 7.72922E-02-3.07658E-05 2.84133E-02 2.01849E-13 2.12455E-13
 -1      3986 1.99707E+01 8.87572E-02 3.43138E-04 2.44738E-02 2.12626E-13 2.07192E-13
 -1      3987 1.99917E+01 4.82215E-02-1.99857E-04 1.59487E-02 2.20260E-13-4.85050E-14
 -1      3988 1.99889E+01 5.69254E-02 1.80112E-05 2.00797E-02 3.10236E-13 7.48320E-14
 -1      3989 1.99831E+01 6.58351E-02 2.24854E-04 1.78392E-02 2.13938E-13 2.30806E-13
 -1      3990 1.99967E+01 3.41587E-02-1.39319E-04 1.02078E-02 9.00791E-14-3.28107E-13
 -1      3991 1.99952E+01 4.08175E-02 4.49944E-05 1.33605E-02 1.70377E-13-1.83919E-13
 -1      3992 1.99913E+01 4.75900E-02 1.24962E-04 1.23043E-02 3.20622E-13 1.91366E-13
 -1      3993 1.78704E+01 9.36036E-01-2.09348E-02 9.44308E-01 1.00912E-13-4.76407E-14
 -1      3994 1.82981E+01 9.51667E-01 5.80497E-03 6.88326E-01 1.05290E-13-6.67595E-14
 -1      3995 1.81312E+01 6.85020E-01 2.11298E-02 1.41952E+00 9.83719E-14-2.68305E-14
 -1      3996 1.66318E+01 1.07409E+00 2.43993E-02-1.74404E+00-2.92010E-14-1.20880E-13
 -1      3997 1.60872E+01 8.97157E-01-1.58745E-02-2.22747E+00 2.65669E-14 6.46523E-14
 -1      3998 2.53069E+01-9.78478E-01 7.86498E-03-1.24621E+00-2.77417E-14 2.25206E-13
 -1      3999 1.98849E+01 2.08119E-01-6.17295E-04 6.99613E-02 2.99821E-14 6.68164E-14
 -1      4000 1.98602E+01 2.37399E-01-6.88656E-04 7.92624E-02-4.83554E-16 1.52935E-13
 -1      4001 1.98321E+01 2.62046E-01 1.33258E-03 5.39122E-02-8.70395E-14 3.96988E-14
 -1      4002 1.98865E+01 2.03263E-01 9.66763E-04 4.86285E-02 8.07844E-14 1.24348E-15
 -1      4003 2.00825E+01 1.10846E+00-2.30251E-03 1.67281E-01 9.15340E-14-2.15165E-13
 -1      4004 2.05966E+01-1.73735E+00 5.74124E-02-2.88955E+00-5.06834E-14-1.76272E-13
 -1      4005 2.16380E+01-2.29241E+00-4.39002E-02-2.25823E+00-3.40656E-16-3.82359E-14
 -1      4006 1.89908E+01 8.19015E-01 2.93979E-04-8.87038E-02-2.11154E-15-3.20636E-13
 -1      4007 1.87819E+01 8.88398E-01-8.96274E-03-1.59314E-01-8.50024E-14-4.43032E-13
 -1      4008 1.75670E+01 1.11950E+00 9.76315E-03-1.01366E+00-1.48165E-13-2.64006E-13
 -1      4009 1.69760E+01 1.11784E+00-1.45147E-02-1.33786E+00-1.36136E-13-2.23235E-13
 -1      4010 1.74134E+01 7.21700E-01 9.79986E-04-1.85304E+00-5.28158E-14-9.69641E-14
 -1      4011 1.81860E+01 1.06244E+00 4.94954E-03-5.47075E-01-5.98009E-14-3.71667E-13
 -1      4012 1.77983E+01 1.10093E+00-1.37261E-02-7.50944E-01-8.25901E-14-4.05969E-13
 -1      4013 1.80277E+01 8.66379E-01 5.39892E-03-1.13212E+00-4.37918E-14-3.41580E-13
 -1      4014 1.78066E+01-4.17004E-01 3.15249E-02-3.30118E+00-1.21296E-14-5.32708E-14
 -1      4015 1.90535E+01-1.24192E+00-5.48763E-02-3.24159E+00-1.64903E-14-1.57478E-13
 -1      4016 2.36941E+01-2.68452E+00-2.29684E-02-9.49875E-01 1.85092E-13 2.08076E-13
 -1      4017 2.35811E+01-2.18523E+00 4.96671E-03-2.77530E-01 1.79814E-13 1.27436E-13
 -1      4018 2.29507E+01-2.09306E+00 2.69276E-02-5.70585E-01 1.35599E-13 1.57141E-13
 -1      4019 2.27308E+01-2.49522E+00 5.72545E-03-1.54979E+00 1.33798E-13 1.91025E-13
 -1      4020 1.86385E+01 9.51600E-01 2.01420E-03-2.64488E-01-1.06039E-13-2.76125E-13
 -1      4021 1.83537E+01 1.01469E+00-1.08005E-02-3.90078E-01-9.82067E-14-3.49799E-13
 -1      4022 1.84598E+01 8.83510E-01 6.89447E-03-6.77555E-01-9.47622E-14-2.82501E-13
 -1      4023 1.87945E+01 8.32207E-01 6.68900E-03-3.87613E-01 2.74968E-14-3.58559E-13
 -1      4024 1.68775E+01 1.40722E-01-8.85497E-03-3.01724E+00 5.07303E-14 4.77699E-14
 -1      4025 2.01779E+01 5.71208E-01-4.39143E-04 3.62603E-01 1.43548E-14-2.31066E-13
 -1      4026 2.01801E+01 4.46639E-01 1.76999E-03 4.44393E-01 1.44811E-14-1.92517E-13
 -1      4027 2.01004E+01 4.51330E-01-3.71414E-03 4.84797E-01 4.43730E-14-1.76465E-13
 -1      4028 2.01096E+01 7.38975E-01-2.36272E-03 3.15265E-01 6.22663E-14-1.94229E-13
 -1      4029 2.03485E+01-2.02210E+00 4.46391E-02 3.43296E+00 2.31145E-13 3.52908E-14
 -1      4030 1.97187E+01-1.45603E+00 5.41093E-03 3.10174E+00 2.39915E-13-1.18667E-14
 -1      4031 2.16899E+01-3.08622E+00 3.60105E-02 3.66364E+00 1.78027E-13 1.47759E-13
 -1      4032 2.07790E+01-2.52847E+00 7.14730E-03 3.59855E+00 2.16308E-13 5.80326E-14
 -1      4033 2.11558E+01-2.42680E+00-4.99418E-02 2.95203E+00 1.94014E-13 7.36165E-14
 -1      4034 2.23692E+01-3.09832E+00-3.94265E-03 2.95387E+00 1.23415E-13 2.31343E-13
 -1      4035 1.85076E+01 9.35589E-01-1.65828E-02 4.82920E-01 8.33014E-14-6.55521E-14
 -1      4036 1.88299E+01 9.22479E-01 2.17665E-03 3.30185E-01 3.49129E-14-7.62664E-14
 -1      4037 1.86301E+01 7.97861E-01 1.75206E-02 8.40510E-01 6.02066E-14-1.32673E-14
 -1      4038 2.45771E+01-3.13682E+00 1.73355E-02 1.20208E+00 1.04940E-13 1.92272E-13
 -1      4039 2.36198E+01-3.11586E+00-3.39104E-03 1.78890E+00 5.51934E-14 2.34787E-13
 -1      4040 2.34480E+01 2.15868E+00-5.27934E-02 1.69385E+00-3.67258E-14-1.41269E-13
 -1      4041 2.00057E+01 1.21059E+00-2.12894E-03 1.16083E-01 1.28564E-13-1.70358E-13
 -1      4042 2.00297E+01 1.20090E+00 1.48454E-04 1.33599E-01 1.22106E-13-2.02046E-13
 -1      4043 1.99988E+01 2.82264E-02 3.57691E-05 8.15221E-03 6.92704E-14-5.30555E-13
 -1      4044 1.91236E+01 7.46418E-01-6.50157E-03-1.91770E-02 2.59785E-14-3.56062E-13
 -1      4045 1.90855E+01 7.39402E-01 5.86854E-03-1.91809E-01 6.08874E-15-4.33091E-13
 -1      4046 1.92710E+01 6.80364E-01-2.66035E-04 1.50399E-02-5.14674E-14-3.31910E-13
 -1      4047 1.91807E+01 9.77291E-01-8.51882E-03-2.62075E-01 7.37595E-14-1.13983E-13
 -1      4048 1.93963E+01 9.32794E-01-1.02597E-03-2.60498E-01 4.89697E-14-8.52311E-14
 -1      4049 1.90933E+01 9.95473E-01 9.79845E-03-2.51833E-02 4.32180E-14-1.02229E-13
 -1      4050 1.95145E+01 5.17041E-01 3.30951E-03 4.06307E-03-5.95509E-15-2.01467E-13
 -1      4051 1.94809E+01 5.52970E-01-5.65660E-04 6.82007E-02 1.55117E-14-2.04810E-13
 -1      4052 1.93756E+01 6.12393E-01-4.53951E-03 5.52444E-02-8.94382E-14-3.02360E-13
 -1      4053 1.95591E+01 9.04098E-01-6.37081E-03-2.74135E-01 6.35449E-14-5.84414E-14
 -1      4054 1.97139E+01 9.00054E-01 1.16242E-04-2.37587E-01 9.82727E-14-4.97520E-14
 -1      4055 1.97629E+01 9.44674E-01 2.59615E-03-1.21726E-01 1.16154E-13-3.27263E-14
 -1      4056 1.94803E+01 9.33224E-01 5.36386E-03-1.14599E-01 7.23334E-14-5.83476E-14
 -1      4057 1.99963E+01 3.31372E-02 5.77495E-07 7.76935E-03 2.71758E-13-3.95971E-13
 -1      4058 2.00354E+01 1.53610E+00-3.70569E-03 1.20659E-01 1.70996E-13-1.74880E-13
 -1      4059 1.98353E+01-1.16854E+00 1.89738E-02-2.66497E+00-5.81462E-14-1.75189E-13
 -1      4060 1.78344E+01 7.28746E-02 3.04339E-02-2.61300E+00-5.31553E-14-2.01256E-14
 -1      4061 1.99947E+01 3.44183E-02-1.07693E-04 5.32299E-03 3.20140E-13 7.19951E-15
 -1      4062 1.99928E+01 4.14034E-02 9.23497E-05 7.21814E-03 4.38187E-13 9.29560E-14
 -1      4063 1.99939E+01 3.54326E-02-6.52781E-05 3.55499E-03 4.84146E-13 7.15629E-13
 -1      4064 1.99971E+01 2.52990E-02-8.25061E-06-2.05671E-03 2.54534E-13 3.88904E-13
 -1      4065 2.00183E+01 1.19279E+00 4.77311E-03 3.30213E-02 1.74930E-13-1.30488E-13
 -1      4066 2.00204E+01 1.32821E+00-1.81956E-03 8.41320E-02 1.81702E-13-1.37103E-13
 -1      4067 2.01394E+01-1.51668E+00-4.83796E-02 2.66988E+00 2.14334E-13 1.92988E-15
 -1      4068 1.92985E+01-8.82244E-01 4.20363E-02 2.82482E+00 2.67769E-13-8.05484E-14
 -1      4069 2.26077E+01-2.03916E+00 2.07450E-03-7.32768E-01 9.45481E-14 2.45221E-13
 -1      4070 2.21767E+01-1.86163E+00 2.20982E-02-9.50804E-01 1.02738E-13 1.39169E-13
 -1      4071 2.00599E+01 1.00178E+00 4.05777E-03 1.93644E-01 8.91558E-14-1.84441E-13
 -1      4072 2.45231E+01-2.61960E+00-1.99668E-02 3.95489E-01 3.48506E-14 2.35251E-13
 -1      4073 1.99937E+01 3.49147E-02-7.32328E-05-4.29472E-03 3.02680E-14 2.55264E-13
 -1      4074 1.99371E+01 1.08345E+00-3.38095E-03-3.09875E-03 1.35231E-13-9.45995E-14
 -1      4075 1.89137E+01-5.02767E-01 6.94059E-03 2.50519E+00 2.52873E-13-7.01279E-14
 -1      4076 2.00371E+01 1.40874E+00 4.22875E-03 9.74590E-02 1.69876E-13-1.55509E-13
 -1      4077 2.17131E+01-1.87459E+00-2.49437E-02-1.41022E+00-2.60191E-14-4.10754E-14
 -1      4078 1.99909E+01 4.27906E-02 8.71346E-05-4.87380E-03 1.05572E-13 5.52873E-14
 -1      4079 1.99931E+01 3.63531E-02 6.77190E-06-1.06956E-03 1.76459E-13 3.31969E-13
 -1      4080 1.99774E+01 1.11547E-01-6.98340E-04 8.32360E-01-2.68889E-14-1.24763E-13
 -1      4081 2.00276E+01-2.04000E-02 7.64330E-03 9.46494E-01-5.30728E-15-1.11607E-13
 -1      4082 2.00314E+01-1.83109E-01-4.21459E-04 1.10917E+00 2.84533E-15-9.35784E-14
 -1      4083 2.01494E+01-3.63245E-01 8.07589E-03 1.23195E+00 1.03949E-14-9.63829E-14
 -1      4084 1.98207E+01 1.69818E-02-1.73106E-03 1.06661E+00 9.70372E-15-1.31726E-13
 -1      4085 2.02404E+01-5.81244E-01 5.01067E-03 1.41760E+00 5.62664E-14-8.38288E-14
 -1      4086 2.04759E+01-8.29539E-01 1.26373E-02 1.52586E+00 9.75398E-14-1.53441E-14
 -1      4087 1.99123E+01-3.51860E-01-4.39926E-03 1.43786E+00 5.25950E-14-9.07403E-14
 -1      4088 2.04131E+01-1.03968E+00 1.52603E-02 1.91466E+00 1.35904E-13-1.11800E-14
 -1      4089 2.07605E+01-1.38148E+00 1.33373E-02 2.01767E+00 1.50597E-13 3.91050E-14
 -1      4090 2.13267E+01-1.80212E+00 4.22234E-02 2.14565E+00 1.70014E-13 9.26637E-14
 -1      4091 2.18345E+01-2.20564E+00 1.65049E-02 2.11629E+00 1.62267E-13 1.47105E-13
 -1      4092 2.29703E+01-2.89883E+00 1.78534E-02 2.05018E+00 6.57044E-14 2.44426E-13
 -1      4093 1.86679E+01-1.31050E-01 2.60953E-02 2.26210E+00 2.13807E-13-8.59087E-14
 -1      4094 1.84765E+01 1.04046E-01-1.24427E-02 1.93607E+00 1.49752E-13-6.35377E-14
 -1      4095 1.94137E+01-6.20819E-01-1.17426E-02 2.21506E+00 2.09528E-13-8.46122E-14
 -1      4096 2.07447E+01-1.26485E+00 7.14797E-03-1.73485E+00-1.68669E-13-2.70847E-14
 -1      4097 2.03943E+01-9.43646E-01 1.01835E-02-1.64336E+00-1.07653E-13-1.42399E-13
 -1      4098 1.99930E+01 3.62435E-02-1.14175E-04 9.63098E-04 4.08465E-13 4.76497E-13
 -1      4099 2.01772E+01-6.66069E-01 1.14725E-02-1.45317E+00-3.25569E-14-1.33380E-13
 -1      4100 1.99462E+01-4.37809E-01 3.59086E-03-1.32769E+00-4.22218E-14-3.22458E-15
 -1      4101 1.98915E+01-7.27408E-01-2.37534E-02-1.77537E+00-6.14885E-14-4.91215E-14
 -1      4102 1.98544E+01-2.44898E-01 9.98167E-03-1.14455E+00-7.24064E-14 1.07551E-13
 -1      4103 1.97197E+01-9.65519E-02 7.36135E-06-1.01912E+00 1.00239E-13 1.43943E-13
 -1      4104 1.96039E+01-2.38935E-01-1.28768E-02-1.35799E+00 3.54439E-14 3.03800E-14
 -1      4105 1.97000E+01 2.71710E-02 7.97586E-03-8.65655E-01 1.63786E-13 1.95389E-13
 -1      4106 1.96303E+01 1.14757E-01-1.50078E-03-7.55610E-01 1.54400E-13 2.73401E-13
 -1      4107 1.94955E+01 6.15988E-02-7.88109E-03-9.97155E-01 1.07362E-13 2.82824E-13
 -1      4108 1.96487E+01 1.85308E-01 5.85469E-03-6.35521E-01 6.69490E-14 2.51920E-13
 -1      4109 1.96204E+01 2.29764E-01-2.13620E-03-5.46301E-01 2.83111E-14 2.52574E-13
 -1      4110 1.94886E+01 2.31111E-01-4.64661E-03-7.10127E-01 7.00811E-14 1.79641E-13
 -1      4111 1.96564E+01 2.63725E-01 4.14986E-03-4.56810E-01-1.03995E-13 1.50728E-13
 -1      4112 1.96528E+01 2.79852E-01-1.99923E-03-3.87845E-01-1.09262E-13 6.06526E-15
 -1      4113 1.95352E+01 3.11080E-01-2.39532E-03-4.93722E-01-7.84470E-14 8.11194E-14
 -1      4114 1.96933E+01 2.89352E-01 2.65198E-03-3.22656E-01-1.94846E-13 1.57734E-14
 -1      4115 1.97030E+01 2.87340E-01-2.00321E-03-2.71136E-01-2.54808E-13-3.69968E-14
 -1      4116 1.96042E+01 3.36022E-01-3.02950E-04-3.36511E-01-2.22385E-13-8.45908E-14
 -1      4117 1.97434E+01 2.82655E-01 1.85936E-03-2.25341E-01-2.26640E-13-9.72855E-16
 -1      4118 1.97587E+01 2.70397E-01-1.64541E-03-1.87481E-01-2.16350E-13-1.14459E-15
 -1      4119 1.96777E+01 3.22429E-01 3.91749E-05-2.26166E-01-2.39831E-13 5.78403E-15
 -1      4120 1.97945E+01 2.57509E-01 1.16410E-03-1.55884E-01-2.24599E-13-5.31153E-14
 -1      4121 1.98115E+01 2.40396E-01-1.33276E-03-1.28543E-01-2.55290E-13 2.25560E-14
 -1      4122 1.97470E+01 2.91428E-01 4.57192E-04-1.49895E-01-2.04150E-13 9.42615E-14
 -1      4123 1.98417E+01 2.23866E-01 7.13504E-04-1.07005E-01-2.70527E-13-6.69867E-15
 -1      4124 1.98577E+01 2.05211E-01-1.05117E-03-8.74511E-02-3.00977E-13-6.12226E-14
 -1      4125 1.98077E+01 2.52273E-01 6.92015E-04-9.81609E-02-2.66452E-13 2.01841E-13
 -1      4126 1.98822E+01 1.87854E-01 4.19898E-04-7.29629E-02-2.52493E-13-6.44164E-14
 -1      4127 1.98962E+01 1.69712E-01-8.11393E-04-5.90502E-02-2.14988E-13 7.09192E-14
 -1      4128 1.98581E+01 2.11166E-01 7.40716E-04-6.36230E-02-1.88187E-13-1.51706E-15
 -1      4129 1.99153E+01 1.53191E-01 2.36402E-04-4.93983E-02-1.60348E-13 6.59012E-14
 -1      4130 1.99268E+01 1.36696E-01-6.16010E-04-3.95236E-02-1.72280E-13 8.03904E-14
 -1      4131 1.98984E+01 1.72023E-01 6.88978E-04-4.08342E-02-1.47477E-13-7.29640E-14
 -1      4132 1.99414E+01 1.21894E-01 1.26381E-04-3.31413E-02-7.18686E-14 1.99562E-13
 -1      4133 1.99503E+01 1.07564E-01-4.62048E-04-2.61381E-02-4.77661E-15 1.93930E-13
 -1      4134 1.99296E+01 1.36902E-01 5.91872E-04-2.59312E-02-9.47988E-14-9.09623E-14
 -1      4135 1.99611E+01 9.48616E-02 6.58227E-05-2.19453E-02 2.73453E-14 1.38067E-13
 -1      4136 1.99678E+01 8.28224E-02-3.38124E-04-1.69712E-02 4.63459E-14 2.02672E-13
 -1      4137 1.99531E+01 1.06658E-01 4.78371E-04-1.62542E-02 2.35781E-14 1.46969E-13
 -1      4138 1.99755E+01 7.22358E-02 3.13887E-05-1.42051E-02 6.39315E-14 1.81434E-13
 -1      4139 1.99802E+01 6.23879E-02-2.62163E-04-1.07441E-02 8.72611E-14 2.89347E-14
 -1      4140 1.99701E+01 8.13863E-02 3.48549E-04-9.99565E-03 6.69659E-14 5.07217E-14
 -1      4141 1.99845E+01 5.61755E-02 7.18734E-05-8.75000E-03 1.74036E-13 6.41871E-14
 -1      4142 1.99878E+01 4.81517E-02-1.37262E-04-6.41401E-03 2.13529E-13 8.89956E-14
 -1      4143 1.99873E+01 4.99150E-02 7.03417E-05-2.55028E-03 1.66294E-13 1.78928E-13
 -1      4144 1.99807E+01 6.31832E-02 2.32914E-04-5.58983E-03 2.18526E-13 4.03268E-15
 -1      4145 2.00080E+01 1.27648E+00-3.95968E-03 8.25634E-02 1.47711E-13-1.11892E-13
 -1      4146 2.16368E+01-1.99403E+00-7.63104E-03-1.83927E+00 4.06272E-15 6.78155E-14
 -1      4147 2.11792E+01-1.58971E+00 2.72564E-02-1.83829E+00-1.04277E-13-5.43879E-15
 -1      4148 1.97712E+01 3.05265E-01-9.61476E-05 1.77293E-02-2.69734E-13-1.88170E-13
 -1      4149 1.97241E+01 3.39944E-01-1.88821E-03 1.27282E-02-1.98647E-13-3.06014E-13
 -1      4150 1.96793E+01 3.79183E-01 1.72899E-04-3.74912E-03-7.92261E-14-3.23440E-13
 -1      4151 1.96148E+01 4.18287E-01-2.68213E-03-1.77117E-02 6.06426E-14-2.63212E-13
 -1      4152 1.97061E+01 3.50326E-01 1.29209E-03-4.01257E-02-1.64708E-13-2.78951E-13
 -1      4153 1.99528E+01 1.10555E-01-2.26558E-04 2.00412E-02 1.13096E-13 2.64932E-13
 -1      4154 1.99411E+01 1.26943E-01-3.42661E-04 2.36468E-02 9.37352E-14 1.95971E-13
 -1      4155 1.99268E+01 1.45526E-01-2.55498E-04 2.43011E-02 4.58149E-14 2.78329E-13
 -1      4156 1.99099E+01 1.65869E-01-5.41429E-04 2.77668E-02 7.76722E-14 3.36971E-13
 -1      4157 1.99312E+01 1.39439E-01 6.28930E-04 1.13673E-02 5.42799E-14 3.19609E-13
 -1      4158 1.99827E+01 6.18891E-02-1.68644E-04 1.15354E-02 2.84278E-13 2.48768E-13
 -1      4159 1.99775E+01 7.22708E-02-1.20380E-04 1.43529E-02 2.69965E-13 2.65921E-13
 -1      4160 1.99900E+01 4.68018E-02-1.13044E-04 8.20848E-03 4.60619E-13 1.24749E-14
 -1      4161 1.99866E+01 5.50867E-02-8.98776E-06 1.03949E-02 3.70123E-13 3.08050E-13
 -1      4162 1.99826E+01 6.18752E-02 2.23695E-04 6.92427E-03 3.90876E-13 2.13063E-13
 -1      4163 1.99888E+01 4.84319E-02 5.98599E-05 5.11529E-03 4.58097E-13 6.39571E-13
 -1      4164 1.87036E+01 2.58808E-01 2.85249E-03 1.57284E+00 1.07138E-13-6.27948E-14
 -1      4165 1.84666E+01 6.59959E-01 1.05973E-02-1.13191E+00 4.01102E-14-1.76376E-13
 -1      4166 1.81917E+01 5.80598E-01-1.44533E-02-1.41659E+00 7.43047E-14-9.08850E-14
 -1      4167 2.25646E+01-2.27353E+00-2.43587E-02-1.17062E+00 1.22684E-13 2.87267E-13
 -1      4168 2.00051E+01 3.50892E-01 1.26957E-03 6.06951E-01 2.60190E-14-1.65299E-13
 -1      4169 2.00099E+01 2.35123E-01 4.92268E-03 7.03684E-01-5.45275E-15-1.68110E-13
 -1      4170 1.98456E+01 2.71795E-01-2.38436E-03 7.66466E-01 1.97328E-14-1.69672E-13
 -1      4171 1.81591E+01 4.87288E-01 2.02479E-02-1.73485E+00-6.37728E-15-2.25756E-14
 -1      4172 1.77804E+01 3.13594E-01-1.02900E-02-2.18438E+00 1.65390E-15 7.80571E-14
 -1      4173 1.84843E+01-2.70529E-01-2.83434E-02-2.46772E+00-3.18842E-14 9.13234E-14
 -1      4174 1.85826E+01 2.07693E-01-1.11727E-02-1.72661E+00 1.37118E-13 1.12660E-13
 -1      4175 2.05027E+01-1.43680E+00-3.68942E-02-2.15885E+00-1.43458E-13-2.54471E-14
 -1      4176 1.99491E+01 9.53640E-01-1.83645E-03 1.93317E-01 8.01895E-14-1.86596E-13
 -1      4177 2.00175E+01 8.61646E-01-1.15282E-03 2.54184E-01 5.63698E-14-1.74674E-13
 -1      4178 2.00132E+01 7.25385E-01 3.62991E-03 3.32441E-01 4.42570E-14-1.75128E-13
 -1      4179 1.94481E+01-7.57291E-01 1.72606E-02-2.44838E+00-7.82907E-14-8.13759E-15
 -1      4180 2.24684E+01-2.37776E+00 2.52997E-02-1.68805E+00 9.87604E-14 2.40376E-13
 -1      4181 1.99704E+01 8.36824E-02-1.87269E-04 1.56681E-02 1.31879E-13 3.34863E-13
 -1      4182 1.99628E+01 9.61154E-02-2.15903E-04 1.88601E-02 9.86003E-14 3.38919E-13
 -1      4183 1.99554E+01 1.06636E-01 4.69764E-04 1.06484E-02 5.60869E-14 3.35796E-13
 -1      4184 1.99722E+01 8.04948E-02 3.12990E-04 8.92916E-03 1.44174E-13 4.68081E-13
 -1      4185 1.99008E+01-7.76727E-01-8.51695E-03 2.01531E+00 1.70788E-13-7.27389E-14
 -1      4186 2.23099E+01-2.52003E+00 2.79479E-02 2.15642E+00 1.55263E-13 1.96423E-13
 -1      4187 1.95624E+01-4.43995E-01-1.76834E-02 1.83522E+00 1.32648E-13-7.71052E-14
 -1      4188 1.99987E+01 6.08029E-01 1.36510E-03 4.13728E-01 5.40000E-14-1.71544E-13
 -1      4189 1.99951E+01 4.78642E-01 2.95585E-03 5.06033E-01 3.89658E-14-1.76387E-13
 -1      4190 1.98664E+01 5.03372E-01-3.63837E-03 5.27352E-01 4.69472E-14-1.84875E-13
 -1      4191 1.98787E+01 7.20396E-01-6.02694E-03 3.39057E-01 4.77924E-14-1.62223E-13
 -1      4192 2.00035E+01 1.16042E+00 4.68507E-03 1.05322E-01 1.27561E-13-1.51277E-13
 -1      4193 1.99906E+01 4.35695E-02 7.88672E-05 1.53538E-03 3.05839E-13 5.52738E-13
 -1      4194 1.93277E+01 6.24687E-01 3.70317E-03-6.67721E-02-1.05291E-13-4.56090E-13
 -1      4195 1.90163E+01 9.00676E-01-1.10647E-02 1.92412E-01 3.66999E-14-2.97502E-14
 -1      4196 1.92571E+01 8.87487E-01 7.80866E-04 1.12775E-01 7.15824E-14-1.41896E-14
 -1      4197 1.90602E+01 8.21897E-01 1.19236E-02 4.61986E-01 6.78464E-14 8.47846E-17
 -1      4198 1.95598E+01 4.60977E-01 5.69785E-04-4.62430E-02 5.48856E-14-3.16927E-13
 -1      4199 1.94742E+01 5.02586E-01-3.61352E-03-7.47014E-02-7.98403E-14-3.09517E-13
 -1      4200 1.96009E+01 4.18786E-01 1.19350E-03-9.04713E-02-2.46420E-14-2.47984E-13
 -1      4201 1.98972E+01 1.80043E-01 8.01137E-04 9.70659E-03-6.45856E-14 1.58923E-13
 -1      4202 1.98902E+01 1.88918E-01-2.61488E-04 2.70451E-02-2.54986E-14 1.98916E-13
 -1      4203 1.98661E+01 2.13760E-01-8.35042E-04 2.95108E-02-1.20369E-13 1.41691E-13
 -1      4204 1.85210E+01 6.90357E-01-1.18930E-02-9.16108E-01-2.07727E-14-2.93914E-13
 -1      4205 1.87462E+01 4.47256E-01-4.61480E-03-1.18600E+00 1.05169E-13-6.76092E-14
 -1      4206 1.87243E+01 7.12545E-01 6.15845E-03-7.38833E-01 3.15333E-14-2.93033E-13
 -1      4207 1.92079E+01 6.32878E-01 2.19241E-03-2.53171E-01-4.87350E-14-3.06059E-13
 -1      4208 1.90588E+01 6.65359E-01-7.51395E-03-3.38077E-01 2.44345E-14-3.32529E-13
 -1      4209 1.89763E+01 6.96391E-01 4.16495E-03-4.52437E-01 2.71100E-14-4.31769E-13
 -1      4210 1.88074E+01 7.05874E-01-9.27001E-03-5.74079E-01 2.11026E-14-3.52998E-13
 -1      4211 1.89280E+01 5.51930E-01-2.24340E-03-7.97398E-01 5.39515E-15-2.62368E-13
 -1      4212 1.91233E+01 5.73908E-01-3.94302E-04-5.11325E-01 1.57912E-14-1.76833E-13
 -1      4213 1.98773E+01 9.86457E-01 4.19172E-03-2.05063E-03 1.06301E-13-8.12341E-14
 -1      4214 1.99453E+01 1.08791E+00-2.15315E-04 7.96765E-02 1.22358E-13-1.10225E-13
 -1      4215 1.92125E+01-3.90270E-02 9.41068E-03 1.67536E+00 9.56289E-14-1.16124E-13
 -1      4216 1.87661E+01 4.05178E-01-2.01183E-02 1.24832E+00 3.62375E-14-4.76097E-14
 -1      4217 1.99292E+01 1.01374E+00-5.45821E-03 1.16123E-01 1.18858E-13-1.56846E-13
 -1      4218 1.99020E+01 9.16228E-01 6.04836E-03 1.70769E-01 7.84119E-14-1.53374E-13
 -1      4219 1.98059E+01 2.71614E-01-1.26782E-03 2.60431E-02-2.58857E-13-4.12742E-14
 -1      4220 1.97883E+01 2.85825E-01 1.16419E-03-1.13603E-02-4.01504E-13-1.25641E-13
 -1      4221 1.98397E+01 2.41881E-01-2.21214E-04 2.60713E-02-1.51859E-13 5.00039E-14
 -1      4222 1.97504E+01 9.29751E-01-5.09648E-03-8.18249E-03 9.89576E-14-5.20549E-14
 -1      4223 1.94094E+01-4.50501E-01 2.39951E-02-2.06100E+00-7.06583E-14 6.09027E-14
 -1      4224 1.90143E+01 4.90122E-01 1.52263E-03 1.00394E+00 2.49423E-14-6.33910E-14
 -1      4225 1.97132E+01 4.43694E-01-2.19210E-03 6.45099E-01 4.92628E-14-2.20466E-13
 -1      4226 1.96814E+01 3.48868E-01 4.09046E-03 7.80933E-01 3.04672E-14-1.88354E-13
 -1      4227 1.95367E+01-2.22493E-02-1.23783E-02 1.29933E+00 2.34665E-14-1.06140E-13
 -1      4228 1.96493E+01-1.89719E-01 1.20181E-02 1.50827E+00 6.81696E-14-9.56154E-14
 -1      4229 1.96409E+01 8.84886E-01 2.46297E-03 2.36088E-02 7.22883E-14-4.18027E-14
 -1      4230 1.97734E+01 9.00655E-01 1.66269E-03 1.31692E-01 7.88083E-14-5.86800E-14
 -1      4231 1.91778E+01-1.91673E-01 3.69144E-03-1.81950E+00 6.76479E-14 1.13241E-13
 -1      4232 1.92361E+01-1.06036E-03 1.67850E-02-1.50575E+00 1.02029E-13 1.20139E-13
 -1      4233 1.91292E+01 1.53804E-01-1.12518E-05-1.29919E+00 1.45665E-13 2.52601E-13
 -1      4234 1.92057E+01 2.57231E-01 1.15513E-02-1.08158E+00 6.58792E-14 1.68669E-13
 -1      4235 1.91728E+01 3.41889E-01-1.05878E-03-9.14968E-01 3.44651E-14 6.65197E-14
 -1      4236 1.92693E+01 3.90733E-01 8.09329E-03-7.45151E-01 6.56895E-14 7.02964E-14
 -1      4237 1.92747E+01 4.27348E-01-1.47446E-03-6.19389E-01 3.71007E-14-1.36647E-14
 -1      4238 1.93685E+01 4.39177E-01 5.38480E-03-4.99222E-01-7.95426E-14-3.11093E-14
 -1      4239 1.93943E+01 4.43761E-01-2.08627E-03-4.07049E-01-1.57375E-13-1.71970E-13
 -1      4240 1.95890E+01 3.98499E-01 1.96951E-03-2.00993E-01-1.79088E-13-1.93737E-13
 -1      4241 1.96236E+01 3.76717E-01-1.59951E-03-1.57543E-01-9.63804E-14-8.27175E-14
 -1      4242 1.96828E+01 3.49836E-01 1.21809E-03-1.22566E-01-1.31191E-13 4.89403E-14
 -1      4243 1.97139E+01 3.24504E-01-1.39780E-03-9.34414E-02-1.17193E-13 1.12204E-13
 -1      4244 1.97616E+01 2.96319E-01 6.07267E-04-7.17482E-02-2.78379E-13 1.34787E-13
 -1      4245 1.97886E+01 2.70666E-01-1.20226E-03-5.27054E-02-3.31274E-13 1.29419E-13
 -1      4246 1.98252E+01 2.44358E-01 2.47717E-04-4.03187E-02-3.18966E-13 1.89607E-14
 -1      4247 1.98474E+01 2.20422E-01-9.84622E-04-2.80333E-02-2.63224E-13-8.51857E-14
 -1      4248 1.98751E+01 1.97062E-01 5.17096E-05-2.14611E-02-1.74879E-13-2.91715E-14
 -1      4249 1.98928E+01 1.75841E-01-7.80764E-04-1.36407E-02-1.50348E-13-9.85156E-14
 -1      4250 1.99133E+01 1.55824E-01-4.44264E-05-1.05541E-02-4.38502E-14 4.00787E-14
 -1      4251 1.99268E+01 1.37680E-01-6.03361E-04-5.63233E-03-3.83763E-14 5.54116E-14
 -1      4252 1.99417E+01 1.20985E-01-8.00547E-05-4.52535E-03 1.82590E-14 1.89924E-13
 -1      4253 1.99519E+01 1.05906E-01-4.51508E-04-1.47014E-03 1.00236E-13 2.17440E-13
 -1      4254 1.99622E+01 9.26161E-02-7.13609E-05-1.41245E-03 6.47668E-14 1.75224E-13
 -1      4255 1.99696E+01 8.03866E-02-3.01079E-04 4.53347E-04 1.58524E-13 2.09772E-13
 -1      4256 1.94671E+01 8.69498E-01-6.99709E-03 5.53616E-02 6.93172E-14-5.30152E-14
 -1      4257 1.93153E+01 5.70908E-01-4.95816E-03-1.83946E-01-4.22543E-14-2.49812E-13
 -1      4258 1.93354E+01 5.27071E-01 1.41537E-03-3.14431E-01-1.52773E-13-1.84883E-13
 -1      4259 1.95059E+01 4.16764E-01 3.06548E-03-3.22128E-01-1.34601E-13-1.89536E-13
 -1      4260 1.94278E+01 5.31420E-01 1.58347E-03-1.31447E-01-1.35375E-13-2.67713E-13
 -1      4261 1.99876E+01 4.90757E-02-1.15083E-04 2.12059E-03 2.64594E-13 3.28839E-13
 -1      4262 1.97805E+01 8.31899E-01-9.16594E-04 2.17914E-01 4.82413E-14-1.17589E-13
 -1      4263 1.95921E+01 1.77011E-01 7.92907E-03 1.05752E+00 4.50992E-14-1.29039E-13
 -1      4264 1.93101E+01 3.15528E-01 7.57020E-03 1.10306E+00 5.69434E-14-1.14234E-13
 -1      4265 1.90536E+01 6.06729E-01-1.41264E-02 7.50033E-01 7.47453E-14-6.61558E-14
 -1      4266 1.95787E+01 2.86838E-01-7.35770E-03 8.90392E-01 4.31226E-14-1.87955E-13
 -1      4267 1.97529E+01 7.39590E-01 6.18395E-04 3.07808E-01 5.32705E-14-1.17990E-13
 -1      4268 1.95364E+01 4.04918E-01-2.22359E-03-2.58919E-01-2.16212E-13-2.26251E-13
 -1      4269 1.99846E+01 5.54121E-02-3.03765E-05 1.02011E-03 2.42591E-13 1.88837E-13
 -1      4270 1.94906E+01 4.70596E-01 1.13316E-03-1.80288E-01-7.02845E-14-3.25357E-13
 -1      4271 1.92663E+01 6.39830E-01-3.15171E-03 5.92258E-01 8.51049E-14-4.37572E-14
 -1      4272 1.94527E+01 5.03117E-01 8.33462E-03 7.53770E-01 5.73118E-14-1.47202E-13
 -1      4273 1.94650E+01 8.32028E-01 8.29028E-03 2.38635E-01 5.64465E-14-3.31256E-14
 -1      4274 1.99768E+01 6.96581E-02-3.73778E-05 1.06321E-04 2.48931E-13 1.85422E-13
 -1      4275 1.99807E+01 6.21383E-02-2.07886E-04 1.76715E-03 2.73921E-13 1.99362E-13
 -1      4276 1.98507E+01 2.28788E-01 9.86226E-04 3.35669E-03-2.82022E-13 6.33929E-14
 -1      4277 1.97205E+01 5.71213E-01 3.31190E-03 5.28595E-01 3.29902E-14-1.85473E-13
 -1      4278 1.95719E+01 6.84153E-01-4.22816E-03 3.98603E-01 2.69097E-14-1.34098E-13
 -1      4279 1.93587E+01 6.65181E-01-6.66962E-03 4.93624E-01 2.98270E-14-7.97263E-14
 -3
    1PSTEP                         3           1           1          
  100CL  101 1.000000000        4279                     0    1           1
 -4  TOSTRAIN    6    1
 -5  EXX         1    4    1    1
 -5  EYY         1    4    2    2
 -5  EZZ         1    4    3    3
 -5  EXY         1    4    1    2
 -5  EYZ         1    4    2    3
 -5  EZX         1    4    3    1
 -1         1 9.57014E-05 2.23052E-05-4.66772E-05 1.04439E-04-7.05155E-18-9.44526E-18
 -1         2 3.93709E-05-1.20680E-04 2.25486E-05-1.84926E-06 4.26661E-18-5.32307E-19
 -1         3 9.52376E-05-2.85706E-05-2.85716E-05 9.18530E-10-6.10503E-19-2.23738E-18
 -1         4 9.52375E-05-2.85707E-05-2.85714E-05-7.96340E-10 1.03911E-18-7.26450E-19
 -1         5 1.45619E-04 2.57636E-10-4.39856E-05 5.38903E-05 2.24252E-19 1.46753E-17
 -1         6 1.44788E-04 2.57077E-10-4.40771E-05-5.32298E-05-1.05191E-18 7.13106E-18
 -1         7 9.06411E-05-5.30944E-07-3.90473E-05-2.89706E-05-1.56278E-19-2.26126E-18
 -1         8 8.52627E-05 7.55987E-08-3.63807E-05-1.99016E-05-8.31945E-20-4.23127E-18
 -1         9 8.29741E-05 7.01921E-08-3.54098E-05-1.52093E-05-2.93285E-20-4.96129E-18
 -1        10 8.19012E-05 3.52507E-08-3.49326E-05-1.16277E-05 7.37183E-21-4.99854E-18
 -1        11 8.13159E-05 1.86011E-08-3.46825E-05-8.59109E-06 3.35835E-21-4.78630E-18
 -1        12 8.09784E-05 1.01593E-08-3.45442E-05-5.93614E-06 5.40099E-20-4.44378E-18
 -1        13 8.07794E-05 6.93832E-09-3.44659E-05-3.45450E-06 7.56870E-20-4.06737E-18
 -1        14 8.06878E-05 5.85234E-09-3.44311E-05-1.10170E-06 9.47631E-20-3.66774E-18
 -1        15 8.06906E-05 5.89975E-09-3.44330E-05 1.20383E-06 1.06572E-19-3.23139E-18
 -1        16 8.07899E-05 6.97748E-09-3.44721E-05 3.54316E-06 1.15015E-19-2.78991E-18
 -1        17 8.10018E-05 9.35659E-09-3.45558E-05 6.00402E-06 1.25007E-19-2.25421E-18
 -1        18 8.13556E-05 1.71389E-08-3.47003E-05 8.63795E-06 1.52049E-19-1.59601E-18
 -1        19 8.19572E-05 3.42700E-08-3.49563E-05 1.16657E-05 1.79022E-19-6.94342E-19
 -1        20 8.30418E-05 6.98243E-08-3.54378E-05 1.52545E-05 1.81662E-19 7.47844E-19
 -1        21 8.53368E-05 8.21865E-08-3.64146E-05 1.99694E-05 1.90344E-19 3.06781E-18
 -1        22 9.05149E-05-4.02971E-07-3.90537E-05 2.89977E-05 2.18111E-20 6.59710E-18
 -1        23 1.12794E-04-3.80691E-05-3.53466E-05-4.32842E-06-7.31360E-19 3.72049E-18
 -1        24 9.29703E-05-2.77492E-05-2.90430E-05 3.99173E-07-1.70350E-19 9.33748E-19
 -1        25 8.95621E-05-2.69865E-05-2.70608E-05 3.79289E-07-1.37458E-19-1.61568E-18
 -1        26 8.87496E-05-2.67099E-05-2.66138E-05 2.08815E-07-1.31588E-20-3.30470E-18
 -1        27 8.91120E-05-2.67887E-05-2.67083E-05 1.47252E-07-4.95039E-20-4.21365E-18
 -1        28 9.00403E-05-2.70429E-05-2.69967E-05 1.12000E-07-7.76867E-21-4.97490E-18
 -1        29 9.12464E-05-2.73899E-05-2.73640E-05 9.05398E-08 1.33597E-19-5.66497E-18
 -1        30 9.25550E-05-2.77732E-05-2.77570E-05 7.60936E-08-1.85197E-20-6.19438E-18
 -1        31 9.38292E-05-2.81487E-05-2.81363E-05 6.44889E-08-1.14749E-19-6.79281E-18
 -1        32 9.49341E-05-2.84748E-05-2.84618E-05 5.22199E-08-5.79885E-20-7.86720E-18
 -1        33 9.57166E-05-2.87050E-05-2.86877E-05 3.56677E-08 6.73387E-20-7.97006E-18
 -1        34 9.59999E-05-2.87866E-05-2.87616E-05 1.11389E-08-9.45951E-20-7.59058E-18
 -1        35 9.55950E-05-2.86635E-05-2.86291E-05-2.42695E-08 2.47219E-20-8.36320E-18
 -1        36 9.43368E-05-2.82868E-05-2.82444E-05-7.09273E-08-3.11851E-20-8.85132E-18
 -1        37 9.21453E-05-2.76330E-05-2.75893E-05-1.24376E-07-2.60348E-19-9.26880E-18
 -1        38 8.91037E-05-2.67269E-05-2.66937E-05-1.73645E-07 1.74144E-19-8.98761E-18
 -1        39 8.55221E-05-2.56607E-05-2.56522E-05-2.02193E-07-1.61735E-19-9.74760E-18
 -1        40 8.19440E-05-2.45958E-05-2.46226E-05-1.93241E-07-7.29991E-20-9.67486E-18
 -1        41 7.90559E-05-2.37363E-05-2.37983E-05-1.38654E-07 1.38918E-19-1.02718E-17
 -1        42 7.75009E-05-2.32736E-05-2.33571E-05-4.65033E-08-1.15034E-19-8.96682E-18
 -1        43 7.76614E-05-2.33216E-05-2.34038E-05 5.91226E-08-2.78460E-19-7.61518E-18
 -1        44 7.95168E-05-2.38743E-05-2.39328E-05 1.48002E-07-1.17834E-19-7.31945E-18
 -1        45 8.26545E-05-2.48088E-05-2.48316E-05 1.97732E-07 5.94553E-20-7.64105E-18
 -1        46 8.64267E-05-2.59322E-05-2.59210E-05 2.02573E-07-1.92131E-19-7.91086E-18
 -1        47 9.01697E-05-2.70472E-05-2.70135E-05 1.72325E-07-8.57960E-20-7.49563E-18
 -1        48 9.33792E-05-2.80040E-05-2.79622E-05 1.24234E-07 6.00616E-21-6.20436E-18
 -1        49 9.57872E-05-2.87231E-05-2.86846E-05 7.44203E-08 1.15003E-19-5.99762E-18
 -1        50 9.73459E-05-2.91901E-05-2.91610E-05 3.31657E-08-3.00049E-19-7.34798E-18
 -1        51 9.81578E-05-2.94350E-05-2.94167E-05 4.42617E-09-1.60688E-20-7.06563E-18
 -1        52 9.83986E-05-2.95098E-05-2.95008E-05-1.23096E-08-2.63350E-19-6.95677E-18
 -1        53 9.82559E-05-2.94700E-05-2.94674E-05-1.97278E-08-2.50024E-19-7.59522E-18
 -1        54 9.78931E-05-2.93639E-05-2.93651E-05-2.09838E-08 8.85385E-20-7.81650E-18
 -1        55 9.74342E-05-2.92284E-05-2.92315E-05-1.87874E-08 1.34280E-19-7.27620E-18
 -1        56 9.69634E-05-2.90888E-05-2.90923E-05-1.50917E-08 2.14634E-19-6.62016E-18
 -1        57 9.65308E-05-2.89601E-05-2.89633E-05-1.11213E-08 1.16018E-19-6.55011E-18
 -1        58 9.61614E-05-2.88499E-05-2.88524E-05-7.53620E-09 4.09028E-19-5.85346E-18
 -1        59 9.58631E-05-2.87606E-05-2.87625E-05-4.61512E-09-5.06089E-19-4.86532E-18
 -1        60 9.56334E-05-2.86917E-05-2.86929E-05-2.40852E-09-1.04378E-19-2.39185E-18
 -1        61 9.54644E-05-2.86409E-05-2.86416E-05-8.47587E-10-3.75905E-19 1.86621E-19
 -1        62 9.53459E-05-2.86051E-05-2.86055E-05 1.85832E-10-2.56428E-20-1.56726E-18
 -1        63 9.52677E-05-2.85814E-05-2.85815E-05 8.18838E-10-6.47626E-19-4.41991E-18
 -1        64 9.52203E-05-2.85670E-05-2.85669E-05 1.16693E-09-1.81617E-19-7.42068E-18
 -1        65 9.51956E-05-2.85594E-05-2.85592E-05 1.32565E-09 3.41113E-19-6.11226E-18
 -1        66 9.51872E-05-2.85566E-05-2.85565E-05 1.36884E-09 6.45394E-19-2.02054E-18
 -1        67 9.51898E-05-2.85573E-05-2.85571E-05 1.34943E-09 4.50311E-19-6.93575E-19
 -1        68 9.51993E-05-2.85600E-05-2.85599E-05 1.29967E-09-1.54976E-19-1.18471E-19
 -1        69 9.52124E-05-2.85638E-05-2.85636E-05 1.21807E-09-1.94303E-19-2.06404E-18
 -1        70 9.52257E-05-2.85678E-05-2.85674E-05 9.85558E-10 8.59904E-19-3.32885E-19
 -1        71 9.52355E-05-2.85709E-05-2.85701E-05 4.81172E-10-8.17271E-19-6.15071E-19
 -1        72 1.13673E-04-3.81736E-05-3.56478E-05 4.88986E-06 1.48098E-19 1.35852E-17
 -1        73 9.32165E-05-2.78270E-05-2.91823E-05-4.12794E-07 7.67293E-20 1.23181E-17
 -1        74 8.96033E-05-2.69976E-05-2.70959E-05-3.80056E-07 5.73087E-20 1.04879E-17
 -1        75 8.87647E-05-2.67199E-05-2.66244E-05-2.05680E-07 3.95781E-20 9.09095E-18
 -1        76 8.92146E-05-2.68255E-05-2.67427E-05-1.45334E-07-2.83888E-20 8.43553E-18
 -1        77 9.03237E-05-2.71400E-05-2.70880E-05-1.03463E-07 7.61924E-20 7.75417E-18
 -1        78 9.20010E-05-2.76319E-05-2.76043E-05-8.38898E-08 1.07481E-19 7.55081E-18
 -1        79 9.41951E-05-2.82866E-05-2.82756E-05-7.53750E-08-3.23821E-20 7.11065E-18
 -1        80 9.70148E-05-2.91329E-05-2.91394E-05-8.06131E-08 4.54540E-20 6.84689E-18
 -1        81 1.00701E-04-3.02415E-05-3.02726E-05-1.04526E-07-6.02899E-20 6.77601E-18
 -1        82 1.05629E-04-3.17142E-05-3.17937E-05-1.71233E-07 5.29321E-20 7.08745E-18
 -1        83 1.11966E-04-3.36142E-05-3.37480E-05-2.55678E-07 1.42652E-19 7.03625E-18
 -1        84 1.20927E-04-3.62825E-05-3.64939E-05-4.33205E-07-8.62584E-20 7.52793E-18
 -1        85 1.32701E-04-3.97879E-05-4.00228E-05-6.89830E-07 1.45080E-19 6.88003E-18
 -1        86 1.46871E-04-4.40292E-05-4.40611E-05-9.58473E-07-1.52249E-19 5.39380E-18
 -1        87 1.60706E-04-4.82438E-05-4.75965E-05-9.31759E-07-4.52335E-20 5.69672E-18
 -1        88 1.67252E-04-5.03828E-05-4.86777E-05 1.95931E-07-1.90033E-19 6.90472E-18
 -1        89 1.57342E-04-4.74666E-05-4.56606E-05 2.91511E-06-4.81161E-19 9.51197E-18
 -1        90 1.30732E-04-3.91950E-05-3.93740E-05 5.12631E-06 7.76822E-20 1.20118E-17
 -1        91 9.32559E-05-2.66983E-05-3.20546E-05 4.39550E-06-3.10371E-19 1.16008E-17
 -1        92 8.11529E-05-2.26815E-05-2.97431E-05-1.41368E-06 3.57739E-19 1.07445E-17
 -1        93 1.01366E-04-2.95711E-05-3.34792E-05-5.15457E-06 2.18627E-19 7.49794E-18
 -1        94 1.36216E-04-4.08640E-05-4.06232E-05-4.78069E-06 3.64264E-19 4.29086E-18
 -1        95 1.61327E-04-4.86418E-05-4.66908E-05-2.02170E-06-3.61048E-20 1.49650E-18
 -1        96 1.67802E-04-5.05043E-05-4.90041E-05 1.76170E-07 4.19546E-20 3.66923E-18
 -1        97 1.59271E-04-4.78008E-05-4.73299E-05 9.80456E-07 8.28256E-20 3.05776E-18
 -1        98 1.45221E-04-4.35292E-05-4.36385E-05 9.07425E-07 5.73821E-19 1.86623E-18
 -1        99 1.32272E-04-3.96715E-05-3.99065E-05 6.39359E-07-3.14896E-19 2.82298E-18
 -1       100 1.21292E-04-3.63945E-05-3.66024E-05 3.89810E-07-4.53113E-20 3.84166E-18
 -1       101 1.13189E-04-3.39793E-05-3.41137E-05 2.20791E-07 1.06538E-18 2.06959E-18
 -1       102 1.07464E-04-3.22663E-05-3.23426E-05 1.20146E-07-4.74230E-19 1.42040E-18
 -1       103 1.03501E-04-3.10761E-05-3.11158E-05 6.33367E-08 1.93190E-19 2.23308E-18
 -1       104 1.00789E-04-3.02566E-05-3.02773E-05 2.81934E-08-1.58944E-19 3.35869E-18
 -1       105 9.90055E-05-2.97196E-05-2.97282E-05 1.59747E-08 3.21281E-19 4.20224E-18
 -1       106 9.77124E-05-2.93265E-05-2.93305E-05 6.01886E-09-6.30791E-19 3.05092E-18
 -1       107 9.68323E-05-2.90593E-05-2.90604E-05 1.12083E-09 3.19453E-20 2.19350E-18
 -1       108 9.62349E-05-2.88775E-05-2.88774E-05-1.31439E-09 2.81839E-19-2.30572E-19
 -1       109 9.58323E-05-2.87549E-05-2.87542E-05-2.40242E-09 4.57819E-19-2.42003E-18
 -1       110 9.55648E-05-2.86731E-05-2.86724E-05-3.31436E-09-4.93851E-19 1.75616E-18
 -1       111 9.53975E-05-2.86222E-05-2.86212E-05-2.78829E-09-3.24436E-19 1.96256E-18
 -1       112 9.52853E-05-2.85876E-05-2.85869E-05-2.75868E-09 7.91397E-19 2.52331E-18
 -1       113 9.52189E-05-2.85671E-05-2.85665E-05-2.52895E-09-3.47330E-19 3.53855E-18
 -1       114 9.51837E-05-2.85562E-05-2.85556E-05-2.27189E-09 5.39562E-19 2.05637E-18
 -1       115 9.51698E-05-2.85517E-05-2.85512E-05-2.01611E-09-6.62111E-19 4.19240E-19
 -1       116 9.51699E-05-2.85515E-05-2.85511E-05-1.85238E-09 7.44928E-22-7.36262E-19
 -1       117 9.51785E-05-2.85539E-05-2.85536E-05-1.60305E-09-9.67266E-20 3.03574E-18
 -1       118 9.51925E-05-2.85579E-05-2.85577E-05-1.47205E-09 2.35681E-20 3.71961E-18
 -1       119 9.52089E-05-2.85628E-05-2.85625E-05-1.33140E-09-5.78987E-19-8.31193E-19
 -1       120 9.52244E-05-2.85674E-05-2.85669E-05-1.06598E-09 1.68176E-19-1.18975E-18
 -1       121 9.52353E-05-2.85708E-05-2.85700E-05-4.67793E-10-6.71052E-19-1.35436E-18
 -1       122 9.52380E-05-2.85737E-05-2.85701E-05-8.06149E-10-2.13853E-18 3.84201E-19
 -1       123 9.52409E-05-2.85835E-05-2.85672E-05-1.00526E-09-2.36089E-18-1.63329E-20
 -1       124 9.52448E-05-2.85966E-05-2.85636E-05-9.60598E-10-2.06791E-18 3.82179E-19
 -1       125 9.52484E-05-2.86087E-05-2.85601E-05-7.02129E-10-2.41004E-18 6.61461E-19
 -1       126 9.52511E-05-2.86178E-05-2.85574E-05-4.28957E-10 2.38782E-18 9.31878E-19
 -1       127 9.52528E-05-2.86235E-05-2.85556E-05-2.18866E-10-3.36879E-18-1.75859E-18
 -1       128 9.52537E-05-2.86263E-05-2.85547E-05-6.65073E-11-6.35751E-18 6.26606E-19
 -1       129 9.52538E-05-2.86269E-05-2.85545E-05 2.85738E-11-7.38094E-18-2.97318E-19
 -1       130 9.52535E-05-2.86258E-05-2.85548E-05 9.32913E-11-5.91513E-18 2.08260E-19
 -1       131 9.52527E-05-2.86232E-05-2.85556E-05 1.60544E-10-3.24969E-18-5.21406E-19
 -1       132 9.52515E-05-2.86190E-05-2.85569E-05 2.66236E-10-5.03706E-18-1.35377E-18
 -1       133 9.52497E-05-2.86129E-05-2.85588E-05 4.12618E-10-7.89514E-18 1.61883E-18
 -1       134 9.52471E-05-2.86044E-05-2.85614E-05 6.20673E-10-8.05857E-18-4.88361E-19
 -1       135 9.52439E-05-2.85936E-05-2.85645E-05 8.64356E-10-5.07504E-18-3.94532E-19
 -1       136 9.52406E-05-2.85823E-05-2.85677E-05 1.25526E-09 6.06754E-20 1.15216E-18
 -1       137 9.52379E-05-2.85736E-05-2.85702E-05 6.40475E-10-4.77263E-19 2.15090E-19
 -1       138 3.03001E-05-1.05513E-04 1.98987E-05-3.01330E-05 4.45688E-18 2.36282E-18
 -1       139 9.78132E-06-5.51892E-05 8.77024E-06-3.25905E-05 6.95329E-18 2.10149E-18
 -1       140 8.85636E-06 4.02243E-07-1.10216E-05 7.07081E-06 8.25857E-18 6.57594E-18
 -1       141 5.34514E-05 2.13124E-05-3.36301E-05 6.71662E-05 6.10499E-18 7.01174E-18
 -1       142 1.60017E-04-7.80868E-06-5.90693E-05 1.16063E-04 2.35009E-18 2.62834E-18
 -1       143 2.83559E-04-6.78171E-05-7.84709E-05 1.05827E-04-1.08463E-18-4.46513E-18
 -1       144 3.62688E-04-1.10774E-04-8.91047E-05 2.90656E-05-6.58992E-19-1.02667E-17
 -1       145 3.44185E-04-1.00531E-04-8.67066E-05-6.31140E-05 2.56619E-18-1.50592E-17
 -1       146 2.42670E-04-4.59533E-05-7.28439E-05-1.17493E-04 6.19435E-18-1.66048E-17
 -1       147 1.19005E-04 7.11858E-06-5.05942E-05-1.04249E-04 8.99549E-18-1.42005E-17
 -1       148 3.63004E-05 1.90845E-05-2.69942E-05-4.99680E-05 7.98794E-18-8.29203E-18
 -1       149 5.15158E-06-1.50204E-05-4.03758E-06 8.75628E-06 4.97801E-18-3.44425E-18
 -1       150 1.58904E-05-7.28128E-05 1.30618E-05 3.63631E-05-5.08220E-20-1.36796E-19
 -1       151 3.60186E-05-1.16140E-04 2.17941E-05 2.35581E-05-2.82856E-18 8.18737E-19
 -1       152 3.80753E-05-1.16871E-04 2.17109E-05-8.39402E-06-6.77108E-18-6.47385E-19
 -1       153 2.01230E-05-7.32804E-05 1.28860E-05-2.47850E-05-1.14980E-17-3.36283E-18
 -1       154 5.88898E-06-1.04275E-05-4.07610E-06-2.70520E-06-1.32548E-17-6.96176E-18
 -1       155 2.40649E-05 2.74166E-05-2.34952E-05 4.73889E-05-1.07463E-17-9.11577E-18
 -1       156 1.88966E-04-2.00010E-05-6.42949E-05 1.21048E-04-3.90673E-18-7.40857E-18
 -1       157 2.74560E-04-6.98787E-05-7.66728E-05 8.96513E-05-1.04217E-18-4.87806E-18
 -1       158 3.19177E-04-9.79861E-05-8.23850E-05 2.05053E-05-4.92656E-19 5.58883E-19
 -1       159 3.02190E-04-8.71193E-05-8.02675E-05-6.05725E-05-1.78082E-18 7.62838E-18
 -1       160 2.27579E-04-4.13537E-05-7.03200E-05-1.13627E-04-3.96147E-18 1.11601E-17
 -1       161 1.29155E-04 9.26035E-06-5.37375E-05-1.15610E-04-6.06666E-18 8.51649E-18
 -1       162 4.94189E-05 3.30407E-05-3.43766E-05-7.64548E-05-4.28810E-18 5.01189E-18
 -1       163 9.54234E-06 1.43022E-05-1.39464E-05-2.11244E-05 1.52127E-18-4.23940E-19
 -1       164 9.16267E-06-3.65570E-05 3.96301E-06 1.77002E-05 4.66673E-18-2.79394E-18
 -1       165 2.78076E-05-9.16026E-05 1.66432E-05 2.23984E-05 4.57355E-18-7.92082E-19
 -1       166 9.50504E-05-1.24546E-05-3.55982E-05-2.19536E-05-1.64641E-18-2.84640E-18
 -1       167 8.94587E-05-8.52229E-06-3.48474E-05-1.69406E-05-9.83921E-19-3.86721E-18
 -1       168 8.67144E-05-6.52058E-06-3.44784E-05-1.31230E-05-4.42882E-19-4.22749E-18
 -1       169 8.52468E-05-5.45327E-06-3.42791E-05-9.91023E-06 1.47172E-20-4.12552E-18
 -1       170 8.43847E-05-4.81152E-06-3.41703E-05-7.14562E-06 3.87036E-19-3.86743E-18
 -1       171 8.38458E-05-4.39997E-06-3.41080E-05-4.60051E-06 6.71896E-19-3.65474E-18
 -1       172 8.35449E-05-4.16380E-06-3.40763E-05-2.22665E-06 8.76396E-19-3.24165E-18
 -1       173 8.34430E-05-4.07803E-06-3.40682E-05 5.95115E-08 1.11068E-18-2.89840E-18
 -1       174 8.35340E-05-4.13939E-06-3.40819E-05 2.33694E-06 1.35803E-18-2.50259E-18
 -1       175 8.38345E-05-4.36066E-06-3.41197E-05 4.68754E-06 1.56798E-18-2.04847E-18
 -1       176 8.43771E-05-4.76430E-06-3.41869E-05 7.15910E-06 1.76736E-18-1.52902E-18
 -1       177 8.52795E-05-5.43110E-06-3.43025E-05 9.94580E-06 1.99922E-18-8.03298E-19
 -1       178 8.67858E-05-6.53107E-06-3.45044E-05 1.31515E-05 2.12471E-18 2.05895E-19
 -1       179 8.95668E-05-8.57122E-06-3.48722E-05 1.69846E-05 2.06163E-18 1.84821E-18
 -1       180 9.51780E-05-1.25660E-05-3.55936E-05 2.20526E-05 1.55841E-18 4.18011E-18
 -1       181 1.03542E-04-2.73666E-05-3.26438E-05-1.18379E-05-1.56733E-18-8.43142E-19
 -1       182 9.74420E-05-2.83902E-05-2.96277E-05-4.44848E-06-1.30749E-18-1.42944E-18
 -1       183 9.40640E-05-2.77944E-05-2.83525E-05-1.46555E-06-9.52419E-19-1.86165E-18
 -1       184 9.27834E-05-2.76342E-05-2.78853E-05-7.08079E-08-5.80984E-19-2.38907E-18
 -1       185 9.25028E-05-2.76460E-05-2.77773E-05 6.51603E-07-5.28688E-19-2.67927E-18
 -1       186 9.27967E-05-2.77887E-05-2.78521E-05 1.03167E-06-4.40516E-19-2.97194E-18
 -1       187 9.34046E-05-2.80102E-05-2.80228E-05 1.19965E-06-1.37472E-19-3.12226E-18
 -1       188 9.41529E-05-2.82699E-05-2.82353E-05 1.20707E-06-3.19178E-19-2.99888E-18
 -1       189 9.49054E-05-2.85336E-05-2.84471E-05 1.06504E-06-3.98667E-19-2.70498E-18
 -1       190 9.55366E-05-2.87673E-05-2.86195E-05 7.62654E-07-3.55626E-19-2.79662E-18
 -1       191 9.59183E-05-2.89322E-05-2.87140E-05 2.81809E-07-2.06206E-19-3.86512E-18
 -1       192 9.59187E-05-2.89828E-05-2.86934E-05-3.84848E-07-1.68402E-19-4.15787E-18
 -1       193 9.54151E-05-2.88696E-05-2.85262E-05-1.21093E-06-4.10569E-19-4.04758E-18
 -1       194 9.43234E-05-2.85475E-05-2.81952E-05-2.11199E-06-4.60841E-19-4.01935E-18
 -1       195 9.26399E-05-2.79940E-05-2.77084E-05-2.93077E-06-1.59819E-19-4.13219E-18
 -1       196 9.04876E-05-2.72330E-05-2.71087E-05-3.44952E-06-2.23478E-19-4.50997E-18
 -1       197 8.81429E-05-2.63565E-05-2.64757E-05-3.44451E-06-1.56957E-19-4.15207E-18
 -1       198 8.60127E-05-2.55253E-05-2.59157E-05-2.77851E-06-1.53242E-19-4.10053E-18
 -1       199 8.45455E-05-2.49345E-05-2.55379E-05-1.49303E-06 2.08850E-19-3.89415E-18
 -1       200 8.40923E-05-2.47451E-05-2.54241E-05 1.61328E-07 2.27322E-19-3.87449E-18
 -1       201 8.47781E-05-2.50152E-05-2.56030E-05 1.79624E-06 2.94559E-19-3.50623E-18
 -1       202 8.64539E-05-2.56739E-05-2.60412E-05 3.03355E-06-3.43847E-19-3.14456E-18
 -1       203 8.87577E-05-2.65543E-05-2.66545E-05 3.64743E-06 1.30513E-19-2.99871E-18
 -1       204 9.12485E-05-2.74654E-05-2.73351E-05 3.62232E-06 2.98557E-19-2.36853E-18
 -1       205 9.35406E-05-2.82566E-05-2.79816E-05 3.11117E-06 3.68778E-19-2.59983E-18
 -1       206 9.53842E-05-2.88474E-05-2.85207E-05 2.34006E-06 3.69030E-20-2.11510E-18
 -1       207 9.66798E-05-2.92230E-05-2.89160E-05 1.51915E-06-9.04994E-19-2.36649E-18
 -1       208 9.74460E-05-2.94109E-05-2.91638E-05 7.93550E-07-2.74079E-19-2.72470E-18
 -1       209 9.77729E-05-2.94574E-05-2.92830E-05 2.34598E-07 6.39840E-19-3.19905E-18
 -1       210 9.77774E-05-2.94107E-05-2.93038E-05-1.44382E-07-3.74157E-19-2.60008E-18
 -1       211 9.75742E-05-2.93112E-05-2.92580E-05-3.65055E-07-5.00567E-19-1.38916E-18
 -1       212 9.72586E-05-2.91892E-05-2.91739E-05-4.64011E-07-3.16156E-19-2.04656E-18
 -1       213 9.69016E-05-2.90649E-05-2.90734E-05-4.79406E-07-1.03992E-19-2.91681E-18
 -1       214 9.65507E-05-2.89502E-05-2.89715E-05-4.43952E-07-3.05280E-20-4.59582E-18
 -1       215 9.62337E-05-2.88513E-05-2.88777E-05-3.82442E-07 6.84002E-19-4.93397E-18
 -1       216 9.59640E-05-2.87700E-05-2.87968E-05-3.11888E-07 6.71271E-19-4.30996E-18
 -1       217 9.57453E-05-2.87061E-05-2.87304E-05-2.42850E-07 1.09960E-18-3.42339E-18
 -1       218 9.55751E-05-2.86576E-05-2.86783E-05-1.81083E-07 1.86495E-18-1.72564E-18
 -1       219 9.54478E-05-2.86222E-05-2.86390E-05-1.29065E-07-7.69798E-19-1.55732E-18
 -1       220 9.53566E-05-2.85975E-05-2.86106E-05-8.72206E-08-2.01102E-18-2.59052E-18
 -1       221 9.52942E-05-2.85812E-05-2.85909E-05-5.48158E-08-1.20017E-18-2.90426E-18
 -1       222 9.52544E-05-2.85711E-05-2.85782E-05-3.05773E-08 8.82221E-19-1.78719E-18
 -1       223 9.52314E-05-2.85658E-05-2.85708E-05-1.30854E-08 1.95949E-18-8.23030E-19
 -1       224 9.52206E-05-2.85638E-05-2.85671E-05-1.01667E-09 1.59228E-18 1.13241E-19
 -1       225 9.52182E-05-2.85641E-05-2.85660E-05 6.70801E-09 7.66479E-19 9.16077E-19
 -1       226 9.52210E-05-2.85658E-05-2.85665E-05 1.08248E-08-3.88878E-19 5.05746E-19
 -1       227 9.52264E-05-2.85683E-05-2.85677E-05 1.16141E-08 3.82080E-19-3.04929E-19
 -1       228 9.52325E-05-2.85713E-05-2.85690E-05 8.98696E-09 2.42088E-19-9.53386E-19
 -1       229 1.03753E-04-2.71664E-05-3.28209E-05 1.22959E-05 1.17783E-18 6.18919E-18
 -1       230 9.76465E-05-2.83709E-05-2.97282E-05 4.63634E-06 1.18485E-18 5.37675E-18
 -1       231 9.42377E-05-2.78121E-05-2.84199E-05 1.48703E-06 1.05614E-18 4.62632E-18
 -1       232 9.30088E-05-2.76672E-05-2.79645E-05-3.98236E-08 6.91642E-19 3.65482E-18
 -1       233 9.28827E-05-2.77074E-05-2.79095E-05-8.95292E-07 4.88889E-19 3.18206E-18
 -1       234 9.34845E-05-2.79115E-05-2.80881E-05-1.54610E-06 2.52620E-19 2.84995E-18
 -1       235 9.46627E-05-2.82530E-05-2.84496E-05-2.13918E-06 3.24448E-19 2.68543E-18
 -1       236 9.63739E-05-2.87220E-05-2.89817E-05-2.81173E-06 2.93127E-19 2.51915E-18
 -1       237 9.86722E-05-2.93322E-05-2.97034E-05-3.69121E-06 2.06348E-20 2.29495E-18
 -1       238 1.01691E-04-3.01188E-05-3.06587E-05-4.91111E-06-9.46460E-21 2.12689E-18
 -1       239 1.05415E-04-3.10892E-05-3.18390E-05-6.49657E-06-1.62285E-19 2.22569E-18
 -1       240 1.10460E-04-3.24369E-05-3.34294E-05-8.66004E-06-8.23706E-20 2.22968E-18
 -1       241 1.16871E-04-3.42835E-05-3.53994E-05-1.11976E-05 5.07078E-19 1.88216E-18
 -1       242 1.24711E-04-3.69041E-05-3.76513E-05-1.33814E-05 6.96210E-19 1.97310E-18
 -1       243 1.33672E-04-4.06995E-05-3.98584E-05-1.33685E-05-9.79845E-20 2.15040E-18
 -1       244 1.42728E-04-4.58641E-05-4.14830E-05-7.85851E-06-8.79935E-19 2.63978E-18
 -1       245 1.49205E-04-5.05531E-05-4.22350E-05 5.26069E-06-1.17314E-18 3.18204E-18
 -1       246 1.50207E-04-5.06782E-05-4.27807E-05 2.11335E-05-1.68854E-18 3.63772E-18
 -1       247 1.42475E-04-4.09225E-05-4.41835E-05 2.97291E-05 4.37598E-19 3.90501E-18
 -1       248 1.33248E-04-2.88983E-05-4.56811E-05 1.08439E-05 9.03361E-19 2.52865E-18
 -1       249 1.34565E-04-3.07478E-05-4.53892E-05-1.66661E-05 1.77655E-18 2.44585E-18
 -1       250 1.43914E-04-4.30595E-05-4.37797E-05-2.93201E-05 2.64925E-18 1.04742E-18
 -1       251 1.50394E-04-5.12228E-05-4.26403E-05-2.00941E-05 1.77684E-18-3.62292E-19
 -1       252 1.48904E-04-5.02077E-05-4.22535E-05-2.78744E-06-5.63475E-19-5.83844E-19
 -1       253 1.41698E-04-4.49713E-05-4.14256E-05 9.37675E-06 1.29053E-19-3.26756E-19
 -1       254 1.32709E-04-4.00879E-05-3.97069E-05 1.33914E-05 3.63132E-19-1.38741E-19
 -1       255 1.24521E-04-3.67440E-05-3.76327E-05 1.27633E-05-5.17608E-19 6.55008E-19
 -1       256 1.17115E-04-3.43186E-05-3.54863E-05 1.03682E-05 9.79216E-20 1.76752E-20
 -1       257 1.11233E-04-3.26538E-05-3.36672E-05 7.77954E-06 6.34355E-19-9.88555E-20
 -1       258 1.06750E-04-3.14782E-05-3.22451E-05 5.60323E-06 1.45948E-20 7.23336E-19
 -1       259 1.03430E-04-3.06362E-05-3.11831E-05 3.95269E-06-6.59634E-19 2.08469E-18
 -1       260 1.01017E-04-3.00313E-05-3.04104E-05 2.75991E-06 1.24603E-19 9.65167E-19
 -1       261 9.93512E-05-2.96125E-05-2.98788E-05 1.95203E-06 3.40334E-19 4.60611E-19
 -1       262 9.80845E-05-2.92924E-05-2.94753E-05 1.35441E-06 7.28870E-20 2.41054E-19
 -1       263 9.71851E-05-2.90638E-05-2.91897E-05 9.36588E-07 2.63373E-19 1.32099E-18
 -1       264 9.65486E-05-2.89011E-05-2.89881E-05 6.45226E-07 1.20244E-18 4.42911E-19
 -1       265 9.61010E-05-2.87862E-05-2.88466E-05 4.41428E-07 2.55517E-19-4.18822E-20
 -1       266 9.57891E-05-2.87060E-05-2.87480E-05 2.98464E-07-1.45302E-18 1.38434E-18
 -1       267 9.55828E-05-2.86531E-05-2.86829E-05 2.02214E-07 1.52829E-19 9.55118E-19
 -1       268 9.54342E-05-2.86151E-05-2.86358E-05 1.30730E-07-1.30038E-18 2.09816E-20
 -1       269 9.53364E-05-2.85904E-05-2.86047E-05 8.05580E-08-8.75217E-19 2.57813E-18
 -1       270 9.52745E-05-2.85751E-05-2.85850E-05 4.57418E-08 6.00847E-19 2.04430E-18
 -1       271 9.52379E-05-2.85665E-05-2.85731E-05 2.18397E-08 1.45677E-18 1.65430E-18
 -1       272 9.52190E-05-2.85625E-05-2.85668E-05 5.74153E-09-2.01157E-19 1.80997E-18
 -1       273 9.52120E-05-2.85616E-05-2.85643E-05-4.30522E-09-1.69713E-18 2.46666E-18
 -1       274 9.52124E-05-2.85626E-05-2.85641E-05-1.07205E-08 1.49429E-18 1.13575E-18
 -1       275 9.52174E-05-2.85649E-05-2.85653E-05-1.37715E-08 1.96450E-18-3.76074E-19
 -1       276 9.52245E-05-2.85679E-05-2.85671E-05-1.36373E-08-2.08038E-19 6.12453E-20
 -1       277 9.52318E-05-2.85714E-05-2.85687E-05-1.01804E-08 2.13468E-19-5.48009E-19
 -1       278 9.52374E-05-2.85770E-05-2.85688E-05-9.97128E-09 7.76708E-19-4.99104E-20
 -1       279 9.52410E-05-2.85840E-05-2.85673E-05-1.21764E-08 5.31852E-20-7.24403E-19
 -1       280 9.52437E-05-2.85908E-05-2.85655E-05-1.11258E-08 5.03926E-20-9.73061E-19
 -1       281 9.52456E-05-2.85962E-05-2.85640E-05-8.33664E-09-2.40531E-18 2.53522E-18
 -1       282 9.52466E-05-2.85997E-05-2.85629E-05-5.24542E-09-2.81316E-18-2.01408E-18
 -1       283 9.52470E-05-2.86016E-05-2.85623E-05-2.49938E-09-1.79755E-18-2.32825E-18
 -1       284 9.52469E-05-2.86021E-05-2.85621E-05-4.17624E-10-1.57618E-18-4.79437E-19
 -1       285 9.52467E-05-2.86017E-05-2.85621E-05 1.10787E-09-1.86427E-18-2.53865E-19
 -1       286 9.52464E-05-2.86007E-05-2.85624E-05 2.40897E-09-8.84778E-19 8.58572E-19
 -1       287 9.52460E-05-2.85989E-05-2.85630E-05 3.86298E-09-1.62286E-18-1.03604E-18
 -1       288 9.52453E-05-2.85964E-05-2.85638E-05 5.67774E-09-1.78425E-18-1.18205E-18
 -1       289 9.52443E-05-2.85928E-05-2.85649E-05 7.84943E-09-1.60309E-18-1.47146E-19
 -1       290 9.52427E-05-2.85880E-05-2.85663E-05 9.87078E-09-1.22943E-19 1.84727E-18
 -1       291 9.52402E-05-2.85820E-05-2.85678E-05 1.03618E-08-4.56998E-19 2.29892E-18
 -1       292 9.52372E-05-2.85764E-05-2.85689E-05 1.14645E-08-5.85405E-19 3.68602E-19
 -1       293 1.07749E-05-4.94267E-05 1.34490E-05 7.04328E-08 1.26907E-18 4.45328E-19
 -1       294 2.42671E-05-4.94358E-05 7.62548E-06 1.42211E-05 1.24916E-18 1.04614E-18
 -1       295 5.57545E-05-4.71085E-05-6.09496E-06 2.95550E-05 1.84928E-18 2.66643E-18
 -1       296 9.62666E-05-4.36979E-05-2.39911E-05 3.77314E-05 2.68531E-18 1.42916E-18
 -1       297 1.53958E-04-4.94163E-05-4.43756E-05 3.41930E-05 3.14037E-18-1.72138E-18
 -1       298 2.03379E-04-4.76237E-05-6.36240E-05 2.74645E-05 2.91062E-18-2.34035E-18
 -1       299 2.27262E-04-4.24019E-05-7.49035E-05 7.49563E-06 2.55147E-18-3.51921E-18
 -1       300 2.27942E-04-3.72545E-05-7.73052E-05-1.65736E-06 2.34670E-18-4.14686E-18
 -1       301 2.21910E-04-4.50925E-05-7.18780E-05-1.57217E-05 2.45354E-18-4.74338E-18
 -1       302 1.86632E-04-4.99507E-05-5.68570E-05-2.60734E-05 1.88460E-18-4.76371E-18
 -1       303 1.36617E-04-4.78478E-05-3.81268E-05-3.78477E-05 1.42132E-18-5.71599E-18
 -1       304 8.96018E-05-4.92516E-05-1.87490E-05-3.67913E-05 5.63489E-19-4.23051E-18
 -1       305 4.42189E-05-4.71020E-05-1.31915E-06-2.61926E-05 1.81477E-19-3.40070E-18
 -1       306 1.87006E-05-5.28600E-05 1.09420E-05-8.15924E-06-1.15578E-18-1.34149E-18
 -1       307 1.14794E-05-5.54055E-05 1.50262E-05 4.31968E-06-2.80786E-18-1.59761E-18
 -1       308 1.65203E-05-4.85426E-05 1.07390E-05 1.81224E-05-3.51434E-18-2.96282E-18
 -1       309 3.79998E-05-4.14895E-05-5.14047E-07 3.37497E-05-3.85993E-18-2.90060E-18
 -1       310 6.68237E-05-3.22982E-05-1.58805E-05 4.34438E-05-5.11354E-18-2.92576E-18
 -1       311 1.17995E-04-3.74470E-05-3.42658E-05 4.66477E-05-3.65558E-18-2.18238E-18
 -1       312 1.54679E-04-2.87184E-05-5.22341E-05 5.07356E-05-3.72694E-18-3.33879E-18
 -1       313 1.92106E-04-3.28827E-05-6.53133E-05 3.94896E-05-2.91755E-18-2.50214E-18
 -1       314 2.15755E-04-3.67921E-05-7.31715E-05 1.91273E-05-2.96980E-18-7.49307E-19
 -1       315 2.16865E-04-3.54361E-05-7.43864E-05-6.42627E-06-3.68269E-18 5.03588E-19
 -1       316 2.04642E-04-3.48688E-05-6.95762E-05-3.13789E-05-2.46254E-18 1.70529E-18
 -1       317 1.69299E-04-3.10443E-05-5.73738E-05-4.18687E-05-7.41326E-19 1.71249E-18
 -1       318 1.27811E-04-2.69038E-05-4.22742E-05-5.34192E-05 1.35843E-19 2.13029E-18
 -1       319 8.82045E-05-3.08914E-05-2.49544E-05-4.83505E-05 2.45470E-18 1.90244E-18
 -1       320 5.26048E-05-3.65710E-05-8.44291E-06-3.92139E-05 2.14342E-18 1.64203E-18
 -1       321 2.64901E-05-4.47554E-05 5.05911E-06-2.51643E-05 3.48258E-18-1.61852E-18
 -1       322 1.38050E-05-5.22431E-05 1.30409E-05-1.30674E-05 2.25321E-18-1.13481E-18
 -1       323 9.18414E-05-1.44683E-05-3.32373E-05-1.24530E-05-9.50675E-19-3.13040E-18
 -1       324 9.59704E-05-1.92009E-05-3.29628E-05-1.41673E-05-1.50760E-18-2.65731E-18
 -1       325 8.79316E-05-1.01695E-05-3.33808E-05-7.64736E-06 1.01008E-19-3.15347E-18
 -1       326 8.69555E-05-9.12501E-06-3.34030E-05-5.29529E-06 5.78500E-19-3.03032E-18
 -1       327 8.63581E-05-8.48746E-06-3.34162E-05-3.07357E-06 9.32584E-19-2.73825E-18
 -1       328 8.60632E-05-8.16978E-06-3.34242E-05-9.46021E-07 1.22038E-18-2.44104E-18
 -1       329 8.60478E-05-8.14431E-06-3.34284E-05 1.13867E-06 1.45750E-18-2.06293E-18
 -1       330 8.63211E-05-8.42080E-06-3.34287E-05 3.23835E-06 1.74894E-18-1.76101E-18
 -1       331 8.69082E-05-9.02922E-06-3.34235E-05 5.37522E-06 2.01222E-18-1.29712E-18
 -1       332 8.79138E-05-1.00873E-05-3.34079E-05 7.67589E-06 2.28416E-18-6.95748E-19
 -1       333 8.94937E-05-1.17841E-05-3.33688E-05 1.01139E-05 2.40630E-18 6.35242E-20
 -1       334 9.19928E-05-1.45599E-05-3.32611E-05 1.24858E-05 2.45202E-18 1.01475E-18
 -1       335 9.61449E-05-1.93998E-05-3.29536E-05 1.40862E-05 2.00498E-18 2.56329E-18
 -1       336 1.08744E-04-6.16824E-05-2.02891E-05 3.56962E-05-1.71736E-19-1.46881E-19
 -1       337 9.68376E-05-2.61187E-05-3.02631E-05-5.84406E-06-1.25548E-18-2.25316E-18
 -1       338 9.54838E-05-2.71435E-05-2.92629E-05-2.25746E-06-8.81920E-19-2.06832E-18
 -1       339 9.47136E-05-2.75920E-05-2.87513E-05-2.48445E-07-6.30601E-19-1.98416E-18
 -1       340 9.44427E-05-2.78840E-05-2.85182E-05 9.11319E-07-5.66869E-19-2.09141E-18
 -1       341 9.45393E-05-2.81502E-05-2.84497E-05 1.55119E-06-4.23003E-19-2.10932E-18
 -1       342 9.48785E-05-2.84321E-05-2.84767E-05 1.83178E-06 5.41306E-20-2.03180E-18
 -1       343 9.53568E-05-2.87413E-05-2.85510E-05 1.82073E-06-1.09854E-19-1.83439E-18
 -1       344 9.58839E-05-2.90748E-05-2.86356E-05 1.53136E-06-3.87387E-19-1.74692E-18
 -1       345 9.63714E-05-2.94152E-05-2.87003E-05 9.48715E-07-8.52850E-19-2.04155E-18
 -1       346 9.67234E-05-2.97235E-05-2.87206E-05 5.54210E-08-5.09462E-19-2.17139E-18
 -1       347 9.68319E-05-2.99326E-05-2.86784E-05-1.13581E-06-4.13141E-19-2.17015E-18
 -1       348 9.65831E-05-2.99468E-05-2.85656E-05-2.54303E-06-4.06807E-19-1.99014E-18
 -1       349 9.58797E-05-2.96576E-05-2.83866E-05-3.97855E-06-3.04003E-19-1.64371E-18
 -1       350 9.46861E-05-2.89851E-05-2.81602E-05-5.13723E-06-3.34051E-19-1.91578E-18
 -1       351 9.30876E-05-2.79424E-05-2.79177E-05-5.64039E-06-1.77537E-19-1.91262E-18
 -1       352 9.13354E-05-2.66948E-05-2.76967E-05-5.15585E-06-1.55263E-19-2.22238E-18
 -1       353 8.98265E-05-2.55581E-05-2.75334E-05-3.56853E-06 3.69983E-19-1.96724E-18
 -1       354 8.89851E-05-2.48957E-05-2.74545E-05-1.11149E-06 8.08743E-20-2.02301E-18
 -1       355 8.90813E-05-2.49464E-05-2.74741E-05 1.65592E-06 7.02673E-20-2.32627E-18
 -1       356 9.00988E-05-2.56938E-05-2.75921E-05 4.05159E-06 3.75601E-19-2.38721E-18
 -1       357 9.17439E-05-2.68753E-05-2.77946E-05 5.54933E-06 2.37053E-20-1.45518E-18
 -1       358 9.35927E-05-2.81270E-05-2.80551E-05 5.96287E-06 2.20461E-19-1.37641E-18
 -1       359 9.52677E-05-2.91510E-05-2.83383E-05 5.44221E-06 2.61426E-19-2.26779E-18
 -1       360 9.65434E-05-2.98050E-05-2.86075E-05 4.33143E-06 5.66951E-19-2.35216E-18
 -1       361 9.73548E-05-3.00925E-05-2.88333E-05 3.00092E-06 3.01763E-19-2.11871E-18
 -1       362 9.77482E-05-3.01013E-05-2.89979E-05 1.73631E-06-8.86208E-19-2.20104E-19
 -1       363 9.78210E-05-2.99408E-05-2.90969E-05 7.02052E-07 6.40329E-20-3.28803E-19
 -1       364 9.76788E-05-2.97043E-05-2.91359E-05-4.39675E-08 6.85790E-19-8.32399E-19
 -1       365 9.74123E-05-2.94552E-05-2.91271E-05-5.15204E-07-1.22179E-19-5.91971E-19
 -1       366 9.70899E-05-2.92290E-05-2.90846E-05-7.61576E-07-4.50314E-19-3.32895E-19
 -1       367 9.67585E-05-2.90410E-05-2.90223E-05-8.43910E-07-3.20614E-19-3.29299E-19
 -1       368 9.64470E-05-2.88938E-05-2.89513E-05-8.18917E-07-1.32218E-18-8.88789E-19
 -1       369 9.61712E-05-2.87837E-05-2.88800E-05-7.32419E-07-5.32226E-19-8.95165E-19
 -1       370 9.59377E-05-2.87042E-05-2.88138E-05-6.17800E-07 1.09438E-18-2.39201E-18
 -1       371 9.57470E-05-2.86488E-05-2.87557E-05-4.97237E-07 1.34898E-18-2.03884E-18
 -1       372 9.55961E-05-2.86114E-05-2.87071E-05-3.84010E-07 2.84889E-18-2.89193E-19
 -1       373 9.54804E-05-2.85873E-05-2.86680E-05-2.84954E-07 2.91957E-20-1.97127E-18
 -1       374 9.53944E-05-2.85725E-05-2.86375E-05-2.02597E-07-1.25928E-18-6.09953E-19
 -1       375 9.53325E-05-2.85642E-05-2.86147E-05-1.36830E-07-1.44355E-18 6.93550E-19
 -1       376 9.52898E-05-2.85602E-05-2.85981E-05-8.61134E-08 6.43618E-19 2.32843E-18
 -1       377 9.52618E-05-2.85592E-05-2.85866E-05-4.82927E-08 2.35614E-18 1.33410E-18
 -1       378 9.52448E-05-2.85600E-05-2.85791E-05-2.11240E-08 2.74707E-18 1.92885E-18
 -1       379 9.52359E-05-2.85621E-05-2.85744E-05-2.59051E-09 8.34317E-19 6.99189E-19
 -1       380 9.52324E-05-2.85650E-05-2.85717E-05 8.89584E-09-7.48686E-19 1.24339E-19
 -1       381 9.52325E-05-2.85686E-05-2.85702E-05 1.44950E-08-6.79613E-19-6.66413E-20
 -1       382 9.52341E-05-2.85723E-05-2.85694E-05 1.49555E-08-7.05398E-19 1.37080E-18
 -1       383 9.56313E-05-2.70260E-05-2.93720E-05 2.17112E-06 1.40986E-18 2.04004E-18
 -1       384 9.69109E-05-2.59680E-05-3.03573E-05 5.91596E-06 1.69098E-18 2.33620E-18
 -1       385 9.49610E-05-2.74488E-05-2.89144E-05-8.58843E-09 1.08279E-18 1.75608E-18
 -1       386 9.47964E-05-2.76985E-05-2.87455E-05-1.56400E-06 6.93455E-19 1.43908E-18
 -1       387 9.50882E-05-2.78648E-05-2.88019E-05-2.77710E-06 5.93873E-19 9.10285E-19
 -1       388 9.57539E-05-2.79951E-05-2.90311E-05-3.92642E-06 9.21806E-20 9.67165E-19
 -1       389 9.67377E-05-2.80880E-05-2.94110E-05-5.22462E-06 2.28950E-19 1.21913E-18
 -1       390 9.80121E-05-2.81347E-05-2.99341E-05-6.86227E-06 1.34973E-19 9.52903E-19
 -1       391 9.94892E-05-2.81399E-05-3.05621E-05-8.89000E-06 1.82397E-19 6.18920E-19
 -1       392 1.01351E-04-2.81690E-05-3.13454E-05-1.16371E-05 1.09358E-19-1.60964E-19
 -1       393 1.03615E-04-2.84342E-05-3.22041E-05-1.50118E-05-1.29520E-20-1.12957E-19
 -1       394 1.06605E-04-2.95342E-05-3.30224E-05-1.86599E-05 4.17809E-19 6.27974E-19
 -1       395 1.11209E-04-3.27659E-05-3.36143E-05-2.15033E-05 3.55997E-19 4.85855E-19
 -1       396 1.19337E-04-4.02279E-05-3.38782E-05-2.12052E-05-1.93401E-19 2.42089E-19
 -1       397 1.32744E-04-5.23856E-05-3.44024E-05-1.44573E-05-1.64107E-18-6.76137E-21
 -1       398 1.49219E-04-6.40247E-05-3.65702E-05-3.37666E-07-1.83303E-18 2.72447E-19
 -1       399 1.67363E-04-3.35442E-05-5.77998E-05 2.14437E-05 1.15398E-18 9.93887E-19
 -1       400 1.65645E-04-3.83079E-05-5.51084E-05-2.73510E-05 3.33720E-18-1.71561E-18
 -1       401 1.64391E-04-6.03589E-05-4.48861E-05-2.27685E-05 2.42929E-18-9.85788E-19
 -1       402 1.49754E-04-6.07234E-05-3.81447E-05-2.61353E-06 4.53666E-19-4.34157E-19
 -1       403 1.33545E-04-4.94849E-05-3.59700E-05 1.34393E-05-3.97867E-19-3.39353E-19
 -1       404 1.21614E-04-3.90421E-05-3.53788E-05 1.95759E-05 5.11727E-20 2.91987E-19
 -1       405 1.14464E-04-3.33840E-05-3.47499E-05 1.94269E-05-5.05947E-19-6.65550E-20
 -1       406 1.09603E-04-3.06605E-05-3.38247E-05 1.64774E-05-7.39458E-20-5.39824E-19
 -1       407 1.06188E-04-2.96071E-05-3.28040E-05 1.28714E-05 2.93537E-19-1.89174E-19
 -1       408 1.03588E-04-2.92232E-05-3.18519E-05 9.60756E-06 3.50147E-19-6.31154E-19
 -1       409 1.01550E-04-2.90668E-05-3.10473E-05 6.98830E-06-1.82364E-18-2.99263E-19
 -1       410 9.99565E-05-2.89771E-05-3.04062E-05 5.01021E-06-8.02663E-20 4.23440E-19
 -1       411 9.87712E-05-2.89024E-05-2.99337E-05 3.62370E-06 1.41417E-18 1.00408E-18
 -1       412 9.78103E-05-2.88318E-05-2.95549E-05 2.56383E-06 3.01103E-19 6.67448E-19
 -1       413 9.70859E-05-2.87677E-05-2.92740E-05 1.80773E-06 5.83874E-19-2.21178E-19
 -1       414 9.65453E-05-2.87127E-05-2.90675E-05 1.26931E-06 8.50780E-19 2.76157E-19
 -1       415 9.61464E-05-2.86676E-05-2.89170E-05 8.86064E-07 5.81477E-19 1.59966E-18
 -1       416 9.58560E-05-2.86328E-05-2.88082E-05 6.13048E-07 1.72389E-19 1.46296E-18
 -1       417 9.56552E-05-2.86075E-05-2.87335E-05 4.26719E-07-9.07442E-19-3.70619E-19
 -1       418 9.55040E-05-2.85885E-05-2.86772E-05 2.85708E-07-5.51001E-19 9.66796E-20
 -1       419 9.53991E-05-2.85758E-05-2.86379E-05 1.85618E-07-1.89571E-18 1.55488E-19
 -1       420 9.53280E-05-2.85678E-05-2.86111E-05 1.14907E-07-6.87525E-20-3.33089E-19
 -1       421 9.52817E-05-2.85634E-05-2.85932E-05 6.54123E-08 5.42681E-19 2.60875E-19
 -1       422 9.52531E-05-2.85617E-05-2.85818E-05 3.12582E-08 1.36382E-18 3.59445E-18
 -1       423 9.52377E-05-2.85618E-05-2.85752E-05 9.21705E-09-9.34269E-19 2.94878E-18
 -1       424 9.52300E-05-2.85633E-05-2.85714E-05-5.87492E-09 4.18314E-19 1.70833E-18
 -1       425 9.52280E-05-2.85657E-05-2.85695E-05-1.45499E-08 1.74914E-18 1.88828E-18
 -1       426 9.52297E-05-2.85689E-05-2.85689E-05-1.80484E-08 1.36938E-18 2.43408E-18
 -1       427 9.52335E-05-2.85731E-05-2.85688E-05-1.68212E-08 8.82368E-19 1.70940E-19
 -1       428 2.30367E-05-2.64424E-05 1.46610E-06 2.10126E-05 4.47339E-19 9.14690E-19
 -1       429 9.52433E-05-2.85814E-05-2.85694E-05-1.33041E-08-1.96917E-19-1.18144E-18
 -1       430 9.52410E-05-2.85795E-05-2.85692E-05-1.69132E-08 1.31330E-18-9.98811E-19
 -1       431 9.52437E-05-2.85817E-05-2.85694E-05-8.75875E-09-1.71733E-18 2.26193E-19
 -1       432 9.52430E-05-2.85810E-05-2.85694E-05-4.44565E-09-1.60211E-18-2.69050E-18
 -1       433 9.52418E-05-2.85797E-05-2.85695E-05-1.16610E-09-1.35748E-18 1.13631E-18
 -1       434 9.52409E-05-2.85786E-05-2.85695E-05 1.02373E-09-1.10497E-18-1.38731E-18
 -1       435 9.52404E-05-2.85780E-05-2.85696E-05 2.54941E-09-1.32804E-18 1.58001E-18
 -1       436 9.52406E-05-2.85779E-05-2.85697E-05 4.04457E-09 5.58411E-19 1.24086E-18
 -1       437 9.52412E-05-2.85783E-05-2.85698E-05 6.03097E-09 1.52726E-18-1.70604E-18
 -1       438 9.52417E-05-2.85787E-05-2.85698E-05 8.78745E-09 9.49211E-19 1.18279E-18
 -1       439 9.52416E-05-2.85786E-05-2.85699E-05 1.19514E-08 1.95565E-18 4.54388E-19
 -1       440 9.52401E-05-2.85775E-05-2.85697E-05 1.46285E-08 6.02174E-19 9.34798E-19
 -1       441 5.68078E-05-4.22816E-05-6.32999E-06 3.78792E-05-2.49451E-19 1.87374E-18
 -1       442 1.06519E-05-2.29194E-05 5.09026E-06-1.02232E-05 8.44121E-19-9.35124E-19
 -1       443 8.94492E-05-1.18145E-05-3.33377E-05-1.01051E-05-3.91749E-19-3.28731E-18
 -1       444 1.77026E-04-5.98512E-05-5.01724E-05-7.29294E-06 2.65025E-18-1.59285E-18
 -1       445 1.71065E-04-5.10034E-05-5.18171E-05 2.21136E-05 1.31714E-19-8.18446E-20
 -1       446 1.67344E-04-6.62820E-05-4.35784E-05 3.44188E-06-8.01664E-19-9.00184E-19
 -1       447 1.45647E-04-7.02077E-05-3.23067E-05-1.94831E-05-1.36076E-18-2.45597E-18
 -1       448 8.88077E-05-5.54903E-05-1.45406E-05-3.98220E-05-6.72121E-19-3.31474E-18
 -1       449 4.09181E-05-3.74140E-05-1.83856E-06-3.29248E-05-9.37348E-19-3.22794E-18
 -1       450 1.49543E-05-2.66895E-05 4.70650E-06-1.16367E-05-5.74818E-19-1.87215E-18
 -1       451 1.27437E-05-2.20845E-05 3.98917E-06 1.60992E-05-5.91070E-19-2.71315E-18
 -1       452 3.76033E-05-3.07492E-05-2.69998E-06 4.20129E-05 9.67735E-20-2.26031E-18
 -1       453 7.65707E-05-4.70386E-05-1.26829E-05 4.95679E-05-6.06370E-19-6.26985E-19
 -1       454 1.13276E-04-5.44949E-05-2.52102E-05 4.26005E-05-9.00078E-19-1.14561E-19
 -1       455 1.46619E-04-4.80734E-05-4.22198E-05 2.24003E-05-2.05315E-18 5.86676E-19
 -1       456 1.61448E-04-3.50148E-05-5.39306E-05 1.26903E-05-1.87824E-18-5.45277E-20
 -1       457 1.63136E-04-1.99036E-05-6.12826E-05 7.47678E-07-2.53792E-18-1.84971E-19
 -1       458 1.69269E-04-1.36880E-05-6.63514E-05 2.50762E-07-3.83971E-18-5.99382E-19
 -1       459 1.64576E-04-1.51928E-05-6.38651E-05-3.19317E-07-2.11186E-18-1.27145E-18
 -1       460 1.63407E-04-2.70677E-05-5.82137E-05-4.73408E-06-6.74397E-19-2.33103E-18
 -1       461 1.51328E-04-4.48364E-05-4.55958E-05-1.97882E-05 1.06561E-18-1.17208E-19
 -1       462 1.31137E-04-5.14632E-05-3.40540E-05-3.52702E-05 2.56016E-18 2.12478E-18
 -1       463 9.50971E-05-5.07437E-05-1.90739E-05-4.77732E-05 2.08042E-18 1.56534E-18
 -1       464 5.56538E-05-3.98602E-05-6.84751E-06-4.80736E-05 2.02113E-18 1.08743E-18
 -1       465 2.54777E-05-2.76408E-05 9.10922E-07-3.44292E-05 1.34032E-18-1.29850E-18
 -1       466 1.46228E-04-6.86358E-05-3.36197E-05 1.95105E-05 1.36986E-18-1.92001E-18
 -1       467 1.61534E-04-6.10969E-05-4.34264E-05 1.90681E-05-1.54659E-18 8.36286E-19
 -1       468 1.62240E-04-2.30331E-05-6.02875E-05-7.36087E-06 2.31494E-18-1.14111E-19
 -1       469 1.36595E-04-5.90592E-05-3.32920E-05 2.51179E-05-9.97778E-19 1.06689E-18
 -1       470 8.90928E-05-1.28330E-05-3.27012E-05-3.45640E-06 6.84496E-19-2.67788E-18
 -1       471 8.99962E-05-1.39581E-05-3.26085E-05-5.30010E-06 3.61874E-19-2.70127E-18
 -1       472 8.83510E-05-1.19239E-05-3.27713E-05 1.33788E-07 1.32705E-18-2.03806E-18
 -1       473 8.84892E-05-1.20825E-05-3.27628E-05 1.88302E-06 1.48379E-18-1.79132E-18
 -1       474 8.89797E-05-1.26678E-05-3.27235E-05 3.60092E-06 1.71107E-18-1.38190E-18
 -1       475 8.98883E-05-1.37741E-05-3.26411E-05 5.34363E-06 2.05407E-18-7.98091E-19
 -1       476 9.12782E-05-1.55271E-05-3.24880E-05 7.04449E-06 2.19315E-18-3.70766E-19
 -1       477 9.32178E-05-1.81451E-05-3.21977E-05 8.43029E-06 2.20199E-18 3.46560E-19
 -1       478 9.55234E-05-2.21495E-05-3.14570E-05 7.92837E-06 1.98642E-18 1.17726E-18
 -1       479 1.37521E-04-6.73574E-05-3.00818E-05 1.93056E-05-1.78459E-19-1.50748E-18
 -1       480 9.58120E-05-2.44262E-05-3.05836E-05-5.12198E-06-8.44003E-19-2.32168E-18
 -1       481 9.57274E-05-2.62201E-05-2.97804E-05-2.07350E-06-5.34430E-19-1.98735E-18
 -1       482 9.55424E-05-2.72097E-05-2.92820E-05-6.44262E-08-4.38714E-19-1.71699E-18
 -1       483 9.54834E-05-2.78363E-05-2.89900E-05 1.19451E-06-5.61371E-19-1.54284E-18
 -1       484 9.56073E-05-2.83268E-05-2.88341E-05 1.92014E-06-1.15867E-19-1.37301E-18
 -1       485 9.59053E-05-2.87904E-05-2.87639E-05 2.23408E-06-2.41318E-19-1.72888E-18
 -1       486 9.63526E-05-2.92876E-05-2.87432E-05 2.18583E-06-3.81825E-19-1.67299E-18
 -1       487 9.69162E-05-2.98455E-05-2.87464E-05 1.77579E-06-6.26417E-19-1.79742E-18
 -1       488 9.75475E-05-3.04540E-05-2.87569E-05 9.78206E-07-6.03610E-19-1.48688E-18
 -1       489 9.81676E-05-3.10507E-05-2.87676E-05-2.27974E-07-4.17708E-19-1.38297E-18
 -1       490 9.86532E-05-3.15058E-05-2.87809E-05-1.81553E-06-1.32207E-19-1.16184E-18
 -1       491 9.88347E-05-3.16228E-05-2.88081E-05-3.65352E-06 1.13415E-19-7.42383E-19
 -1       492 9.85256E-05-3.11779E-05-2.88650E-05-5.45439E-06-4.24569E-19-2.59006E-19
 -1       493 9.76029E-05-3.00208E-05-2.89635E-05-6.76071E-06-7.27206E-19-6.93785E-20
 -1       494 9.61270E-05-2.82202E-05-2.91004E-05-7.02838E-06-7.31863E-19-3.19416E-19
 -1       495 9.44340E-05-2.61729E-05-2.92503E-05-5.84067E-06-1.10904E-20-6.05796E-19
 -1       496 9.30865E-05-2.45428E-05-2.93706E-05-3.18959E-06 9.11425E-20-8.59487E-19
 -1       497 9.26249E-05-2.39654E-05-2.94201E-05 3.67117E-07-4.35016E-19-1.14542E-18
 -1       498 9.32553E-05-2.46821E-05-2.93835E-05 3.87321E-06-1.91769E-20-1.93158E-18
 -1       499 9.47191E-05-2.63875E-05-2.92808E-05 6.39941E-06 7.41044E-19-2.07900E-18
 -1       500 9.64572E-05-2.84209E-05-2.91559E-05 7.46055E-06 2.59845E-19-1.94237E-18
 -1       501 9.79308E-05-3.01449E-05-2.90508E-05 7.12735E-06-5.30143E-19-2.15924E-18
 -1       502 9.88419E-05-3.12074E-05-2.89879E-05 5.84350E-06 2.04398E-19-2.86071E-18
 -1       503 9.91595E-05-3.15765E-05-2.89670E-05 4.14576E-06 4.99083E-19-3.33726E-18
 -1       504 9.90191E-05-3.14210E-05-2.89737E-05 2.46465E-06 1.07581E-18-2.72951E-18
 -1       505 9.86042E-05-3.09677E-05-2.89898E-05 1.05537E-06 6.35245E-20-1.29697E-18
 -1       506 9.80732E-05-3.04100E-05-2.90006E-05 1.67405E-08 8.76791E-21-2.88839E-20
 -1       507 9.75329E-05-2.98748E-05-2.89978E-05-6.57040E-07 1.44928E-19-7.63152E-19
 -1       508 9.70421E-05-2.94263E-05-2.89791E-05-1.02584E-06 2.27376E-19-3.39682E-19
 -1       509 9.66250E-05-2.90841E-05-2.89465E-05-1.16736E-06-1.20210E-19 7.76605E-20
 -1       510 9.62853E-05-2.88419E-05-2.89044E-05-1.15606E-06-8.15784E-19 2.49621E-19
 -1       511 9.60164E-05-2.86823E-05-2.88573E-05-1.05346E-06-8.76504E-19 6.03650E-19
 -1       512 9.58077E-05-2.85849E-05-2.88095E-05-9.05450E-07-8.93426E-19 3.59423E-19
 -1       513 9.56483E-05-2.85312E-05-2.87642E-05-7.43430E-07 1.40878E-18 6.67843E-19
 -1       514 9.55281E-05-2.85064E-05-2.87233E-05-5.87001E-07 2.96199E-18 4.61155E-19
 -1       515 9.54387E-05-2.84994E-05-2.86881E-05-4.46966E-07 2.26813E-19-1.63205E-18
 -1       516 9.53732E-05-2.85025E-05-2.86587E-05-3.28058E-07-3.26632E-19-7.91184E-19
 -1       517 9.53260E-05-2.85107E-05-2.86349E-05-2.31129E-07-3.38747E-19 7.29086E-20
 -1       518 9.52927E-05-2.85209E-05-2.86163E-05-1.54782E-07-2.56410E-19 1.03786E-18
 -1       519 9.52699E-05-2.85312E-05-2.86022E-05-9.65153E-08-3.37043E-19-3.62288E-19
 -1       520 9.52549E-05-2.85408E-05-2.85917E-05-5.34768E-08 2.66156E-18-1.47518E-18
 -1       521 9.52456E-05-2.85494E-05-2.85840E-05-2.29207E-08 8.16362E-19-1.55939E-18
 -1       522 9.52405E-05-2.85571E-05-2.85785E-05-2.49991E-09 4.85411E-19-1.17474E-18
 -1       523 9.52383E-05-2.85643E-05-2.85746E-05 9.60681E-09-1.24947E-19-1.33628E-18
 -1       524 9.58284E-05-2.48822E-05-3.03958E-05 3.94442E-06 1.64920E-18 1.03329E-18
 -1       525 9.53703E-05-2.70681E-05-2.92692E-05-2.23250E-06 9.47233E-19 6.67604E-19
 -1       526 9.53281E-05-2.71220E-05-2.92280E-05-3.73454E-06 4.95866E-19 5.31536E-19
 -1       527 9.53421E-05-2.69208E-05-2.93195E-05-5.19638E-06 5.43345E-19 3.62728E-20
 -1       528 9.53205E-05-2.64591E-05-2.95068E-05-6.82222E-06 5.50059E-19-3.56242E-19
 -1       529 9.51596E-05-2.57559E-05-2.97380E-05-8.68452E-06 6.03387E-19-7.85268E-19
 -1       530 9.47180E-05-2.47493E-05-2.99782E-05-1.11161E-05 4.67412E-19-6.87578E-19
 -1       531 9.38854E-05-2.35934E-05-3.01154E-05-1.41488E-05 1.38413E-19-9.58327E-19
 -1       532 9.27458E-05-2.27627E-05-2.99806E-05-1.78354E-05 8.82865E-21-1.44394E-18
 -1       533 9.19285E-05-2.34546E-05-2.93216E-05-2.21386E-05 1.05503E-19-1.53906E-18
 -1       534 9.32698E-05-2.80742E-05-2.78490E-05-2.67571E-05 5.68439E-20-1.02448E-18
 -1       535 1.00562E-04-3.95857E-05-2.59010E-05-3.06552E-05-8.40707E-19-1.47114E-18
 -1       536 1.15076E-04-5.63548E-05-2.48590E-05-3.05332E-05-1.48776E-18-1.96308E-18
 -1       537 9.73431E-05-2.83774E-05-2.94937E-05 2.49292E-05-3.29363E-19 1.23897E-18
 -1       538 9.56305E-05-2.45542E-05-3.04398E-05 2.05931E-05 8.55131E-20 1.43518E-18
 -1       539 9.58241E-05-2.40446E-05-3.07500E-05 1.62987E-05-1.97675E-19 1.38018E-18
 -1       540 9.63443E-05-2.47681E-05-3.06641E-05 1.25352E-05 5.43760E-19 2.41894E-18
 -1       541 9.66801E-05-2.57353E-05-3.03948E-05 9.44318E-06-5.48963E-19 2.90734E-18
 -1       542 9.67699E-05-2.65818E-05-3.00725E-05 7.01086E-06-1.05171E-18 1.44958E-18
 -1       543 9.66861E-05-2.71916E-05-2.97773E-05 5.22935E-06 5.06390E-19 4.16905E-19
 -1       544 9.65005E-05-2.76465E-05-2.95045E-05 3.81236E-06 1.19649E-18 1.82941E-18
 -1       545 9.62809E-05-2.79536E-05-2.92800E-05 2.76282E-06 4.71931E-19 1.36774E-18
 -1       546 9.60643E-05-2.81563E-05-2.91013E-05 1.99063E-06 7.24183E-20 2.64040E-18
 -1       547 9.58707E-05-2.82887E-05-2.89622E-05 1.42485E-06 1.29372E-18 2.44458E-18
 -1       548 9.57084E-05-2.83756E-05-2.88559E-05 1.01153E-06 1.24883E-18-7.34862E-19
 -1       549 9.55832E-05-2.84304E-05-2.87791E-05 7.22674E-07-3.33257E-19-2.26066E-19
 -1       550 9.54799E-05-2.84696E-05-2.87182E-05 4.99643E-07-3.25734E-19-4.24767E-19
 -1       551 9.54021E-05-2.84967E-05-2.86734E-05 3.37996E-07-1.71800E-18-1.42907E-18
 -1       552 9.53450E-05-2.85159E-05-2.86408E-05 2.21483E-07-7.02934E-19-2.42292E-18
 -1       553 9.53044E-05-2.85300E-05-2.86174E-05 1.38173E-07-8.56185E-19-1.58635E-18
 -1       554 9.52765E-05-2.85407E-05-2.86010E-05 7.93286E-08-1.29089E-18 3.27562E-19
 -1       555 9.52589E-05-2.85486E-05-2.85900E-05 4.01776E-08 1.60120E-19 9.12003E-19
 -1       556 9.52473E-05-2.85555E-05-2.85821E-05 1.21485E-08 3.28823E-20-3.12465E-19
 -1       557 9.52409E-05-2.85616E-05-2.85768E-05-5.60667E-09 2.64317E-18 1.69728E-19
 -1       558 9.52383E-05-2.85674E-05-2.85732E-05-1.53522E-08 2.79110E-18-9.95258E-19
 -1       559 9.52396E-05-2.85727E-05-2.85716E-05-1.78529E-08 2.28291E-18-2.52412E-18
 -1       560 4.92095E-05-2.75416E-05-8.74914E-06 3.29512E-05-4.95514E-20 1.05059E-18
 -1       561 9.52381E-05-2.85594E-05-2.85766E-05-4.26269E-11-3.66733E-19-4.00072E-19
 -1       562 9.54338E-05-5.07216E-05-1.87729E-05 3.74838E-05-6.96579E-19 3.11020E-19
 -1       563 9.52354E-05-2.85559E-05-2.85769E-05 1.85673E-09-1.85584E-18 3.59474E-19
 -1       564 9.52340E-05-2.85542E-05-2.85770E-05 2.41863E-09-6.04839E-19-1.79262E-18
 -1       565 9.52341E-05-2.85546E-05-2.85769E-05 2.53397E-09-1.18926E-18 3.94441E-18
 -1       566 9.52356E-05-2.85570E-05-2.85765E-05 3.15527E-09 9.09000E-20-3.82096E-19
 -1       567 9.52379E-05-2.85609E-05-2.85759E-05 4.99461E-09 2.02403E-18-8.08778E-19
 -1       568 9.52398E-05-2.85651E-05-2.85749E-05 8.19367E-09 4.03689E-18 3.26409E-18
 -1       569 9.52400E-05-2.85685E-05-2.85735E-05 1.18384E-08 2.74975E-18-1.73641E-18
 -1       570 2.50039E-05-1.42943E-05-3.96701E-06-2.27826E-05 2.26978E-19-1.11607E-18
 -1       571 9.55173E-05-2.66937E-05-2.94907E-05-4.36818E-07 1.03299E-18 8.37229E-19
 -1       572 9.52428E-05-2.85683E-05-2.85748E-05-8.88700E-09 5.23018E-19-1.77285E-18
 -1       573 5.09876E-05-2.87985E-05-8.97723E-06-4.41891E-05 2.93444E-19 4.30399E-19
 -1       574 1.39015E-04-5.61458E-06-5.77911E-05 2.01901E-06-2.20800E-18-7.18416E-19
 -1       575 7.18489E-05-3.92446E-05-1.35011E-05 4.76131E-05 1.52037E-18 2.66180E-19
 -1       576 9.52425E-05-2.85714E-05-2.85733E-05-1.38879E-08 1.39489E-18-2.39832E-18
 -1       577 9.52410E-05-2.85639E-05-2.85759E-05-3.71170E-09-1.91624E-18-8.91235E-19
 -1       578 1.04348E-04-3.88544E-05-2.79222E-05 2.79903E-05-8.12490E-19-4.27183E-19
 -1       579 1.17566E-04-5.29128E-05-2.75419E-05 2.67999E-05-7.80806E-19-5.52060E-19
 -1       580 2.36108E-05-1.13795E-05-4.55089E-06 5.78282E-06 7.27747E-19 9.55983E-19
 -1       581 8.85534E-05-1.21728E-05-3.27517E-05-1.64096E-06 1.04371E-18-2.36842E-18
 -1       582 9.57064E-05-2.60606E-05-2.98412E-05 1.46602E-06 1.38911E-18 6.66688E-19
 -1       583 7.61127E-05-4.09330E-05-1.45705E-05-3.90678E-05-1.23868E-18-3.43091E-18
 -1       584 1.48278E-04-4.42502E-05-4.49616E-05 1.61309E-06-9.07358E-19 4.38340E-20
 -1       585 3.72222E-05-2.06263E-05-6.52253E-06-2.62315E-05-3.52895E-19-1.79592E-18
 -1       586 2.18118E-05-1.16809E-05-3.70441E-06-2.03022E-06 4.65537E-20-2.40271E-18
 -1       587 3.35660E-05-1.48924E-05-7.25646E-06 2.76619E-05 8.83032E-19-1.96808E-18
 -1       588 1.01488E-04-5.34532E-05-2.02904E-05 4.43752E-05 1.21465E-18 1.43056E-19
 -1       589 8.82441E-05-4.77295E-05-1.70220E-05-4.82116E-05 1.27547E-18 1.67231E-18
 -1       590 1.46286E-04-2.66075E-05-5.18029E-05-7.74423E-06-2.00630E-18 6.85832E-19
 -1       591 1.40252E-04-8.51643E-06-5.70250E-05-5.57676E-06-1.96003E-18 2.55910E-19
 -1       592 1.40586E-04-1.71997E-05-5.35084E-05 9.42924E-06-1.05106E-18-9.96958E-19
 -1       593 1.44700E-04-3.87860E-05-4.58351E-05 6.01851E-06-1.92885E-19-7.18337E-19
 -1       594 1.42430E-04-5.61461E-05-3.71881E-05-1.48575E-05 2.27882E-18-1.11014E-19
 -1       595 1.22859E-04-5.93057E-05-2.71637E-05-3.52796E-05 2.25554E-18 1.79754E-18
 -1       596 9.48527E-05-2.07681E-05-3.17690E-05-8.81468E-06-1.10869E-18-2.57164E-18
 -1       597 9.13254E-05-1.56700E-05-3.24466E-05-7.06287E-06-1.88735E-19-2.90871E-18
 -1       598 9.52380E-05-2.85692E-05-2.85724E-05 1.39480E-08 7.38188E-20 6.84606E-19
 -1       599 9.29032E-05-1.78420E-05-3.21893E-05-8.24499E-06-6.81532E-19-2.82694E-18
 -1       600 5.88904E-05-2.49391E-05-1.40715E-05 3.81299E-05 1.68562E-18-3.16393E-19
 -1       601 1.42026E-04-5.47139E-05-3.76363E-05 7.68419E-06-4.99012E-19 1.38040E-18
 -1       602 1.21950E-04-5.93197E-05-2.67474E-05 3.16910E-05 9.12704E-19 6.16766E-19
 -1       603 9.06439E-05-1.57408E-05-3.21065E-05 2.13724E-06 1.43815E-18-1.44342E-18
 -1       604 9.03371E-05-1.53388E-05-3.21471E-05 8.47745E-07 1.26869E-18-1.79175E-18
 -1       605 9.24460E-05-1.81816E-05-3.18303E-05 4.46398E-06 1.80631E-18-4.41782E-19
 -1       606 9.38336E-05-2.03086E-05-3.15115E-05 5.22865E-06 2.05281E-18 9.22555E-21
 -1       607 9.50608E-05-2.26716E-05-3.10206E-05 4.83147E-06 1.85391E-18 2.34889E-19
 -1       608 6.28849E-05-2.48571E-05-1.58470E-05-3.20312E-05-3.13508E-19-3.04260E-18
 -1       609 7.71648E-05-3.53511E-05-1.75293E-05-4.20401E-05 8.81708E-20 1.07592E-18
 -1       610 9.56821E-05-2.55557E-05-3.00558E-05-1.40393E-06-2.77730E-19-1.76877E-18
 -1       611 9.58680E-05-2.68350E-05-2.95849E-05 3.73137E-07-3.50596E-19-1.60280E-18
 -1       612 9.60215E-05-2.77338E-05-2.92660E-05 1.55750E-06-1.62929E-19-1.45056E-18
 -1       613 9.62627E-05-2.84653E-05-2.90561E-05 2.27603E-06-4.78520E-19-1.73570E-18
 -1       614 9.66570E-05-2.91728E-05-2.89221E-05 2.59883E-06-2.28927E-19-1.80473E-18
 -1       615 9.72468E-05-2.99512E-05-2.88414E-05 2.54526E-06-5.01517E-19-1.44931E-18
 -1       616 9.80525E-05-3.08480E-05-2.88027E-05 2.08971E-06-4.36895E-19-1.08432E-18
 -1       617 9.90571E-05-3.18452E-05-2.88061E-05 1.17849E-06-2.90734E-19-9.79704E-19
 -1       618 1.00177E-04-3.28290E-05-2.88648E-05-2.37538E-07-1.95304E-19-8.55339E-19
 -1       619 1.01232E-04-3.35619E-05-2.90029E-05-2.14635E-06-1.40094E-19-8.54835E-19
 -1       620 1.01933E-04-3.36865E-05-2.92491E-05-4.39030E-06-2.96407E-20-7.67949E-19
 -1       621 1.01933E-04-3.28116E-05-2.96231E-05-6.57211E-06-1.51127E-19-4.88366E-19
 -1       622 1.00993E-04-3.07227E-05-3.01141E-05-8.02070E-06-9.24938E-19-1.47087E-19
 -1       623 9.92172E-05-2.76741E-05-3.06591E-05-7.93947E-06-5.20597E-19-4.04484E-19
 -1       624 9.72126E-05-2.45466E-05-3.11407E-05-5.80769E-06 1.45552E-19-2.51885E-19
 -1       625 9.59176E-05-2.25983E-05-3.14222E-05-1.86931E-06-4.37684E-20-5.18216E-19
 -1       626 9.60088E-05-2.27108E-05-3.14133E-05 2.73824E-06-5.46803E-19-5.50752E-19
 -1       627 9.74455E-05-2.48336E-05-3.11187E-05 6.52413E-06-2.53994E-20-1.10255E-18
 -1       628 9.94633E-05-2.79662E-05-3.06396E-05 8.44907E-06 2.70590E-19-2.66444E-18
 -1       629 1.01157E-04-3.08862E-05-3.01142E-05 8.38656E-06-1.46563E-19-1.66206E-18
 -1       630 1.01980E-04-3.27881E-05-2.96535E-05 6.91352E-06-6.71798E-19-5.94999E-19
 -1       631 1.01882E-04-3.34922E-05-2.93110E-05 4.82002E-06 3.58927E-19-5.33702E-19
 -1       632 1.01127E-04-3.32538E-05-2.90899E-05 2.73811E-06 1.03090E-18-6.59372E-19
 -1       633 1.00057E-04-3.24719E-05-2.89661E-05 1.01931E-06 1.44891E-18-1.04355E-18
 -1       634 9.89433E-05-3.14984E-05-2.89059E-05-2.18011E-07 1.30386E-19-1.83198E-18
 -1       635 9.79505E-05-3.05663E-05-2.88796E-05-9.97420E-07-6.87619E-21-4.91736E-19
 -1       636 9.71465E-05-2.97931E-05-2.88661E-05-1.40607E-06 4.69038E-19-6.38690E-19
 -1       637 9.65380E-05-2.92137E-05-2.88534E-05-1.54578E-06 1.71893E-21-5.12707E-19
 -1       638 9.61001E-05-2.88161E-05-2.88361E-05-1.50866E-06-5.22216E-19 2.24688E-19
 -1       639 9.57973E-05-2.85667E-05-2.88131E-05-1.36797E-06-1.34280E-18 3.22373E-19
 -1       640 9.55945E-05-2.84276E-05-2.87857E-05-1.17707E-06-4.55642E-19 1.69233E-18
 -1       641 9.54622E-05-2.83643E-05-2.87562E-05-9.71969E-07-2.47372E-19 2.29415E-18
 -1       642 9.53777E-05-2.83492E-05-2.87264E-05-7.74965E-07 7.73459E-19-8.27134E-19
 -1       643 9.53245E-05-2.83618E-05-2.86982E-05-5.98361E-07 1.55771E-19-2.85861E-18
 -1       644 9.52915E-05-2.83883E-05-2.86727E-05-4.47574E-07-9.07215E-20-2.97283E-18
 -1       645 9.52711E-05-2.84198E-05-2.86505E-05-3.23608E-07-4.22565E-19-2.27297E-18
 -1       646 9.52584E-05-2.84510E-05-2.86317E-05-2.24870E-07-4.85554E-19-2.99892E-18
 -1       647 9.52506E-05-2.84792E-05-2.86163E-05-1.48448E-07-5.42463E-19-3.12280E-18
 -1       648 9.52457E-05-2.85032E-05-2.86039E-05-9.09630E-08 3.61684E-19-1.20216E-18
 -1       649 9.52427E-05-2.85231E-05-2.85941E-05-4.91060E-08 1.20002E-18-2.23331E-18
 -1       650 9.52409E-05-2.85394E-05-2.85863E-05-1.98715E-08 1.46382E-19-2.04494E-18
 -1       651 9.52401E-05-2.85530E-05-2.85802E-05-9.76194E-10-6.54120E-20-4.60009E-18
 -1       652 4.61392E-05-1.67346E-05-1.20785E-05-3.13277E-05-7.66657E-19-3.17320E-19
 -1       653 9.45269E-05-2.59249E-05-2.93999E-05-4.17962E-06 7.88618E-19-1.67804E-19
 -1       654 9.50216E-05-2.60934E-05-2.95398E-05-2.70106E-06 9.18059E-19 4.59781E-20
 -1       655 9.25988E-05-2.42537E-05-2.92894E-05-7.05232E-06 7.24840E-19-2.92987E-19
 -1       656 9.07968E-05-2.26939E-05-2.91850E-05-8.72643E-06 5.54461E-19-2.96349E-19
 -1       657 8.81107E-05-2.06687E-05-2.89013E-05-1.06800E-05 5.99945E-19-6.41485E-19
 -1       658 8.42918E-05-1.83797E-05-2.82417E-05-1.30423E-05 4.25034E-19-1.49790E-18
 -1       659 7.92280E-05-1.64250E-05-2.68892E-05-1.61075E-05 2.68630E-19-1.55239E-18
 -1       660 7.31589E-05-1.61604E-05-2.43316E-05-2.04883E-05-6.03097E-21-2.35727E-18
 -1       661 9.52399E-05-2.85611E-05-2.85766E-05 7.02208E-09 1.37262E-18-3.63130E-18
 -1       662 8.69667E-05-1.95194E-05-2.89008E-05 1.22398E-05-1.14194E-19 1.44142E-18
 -1       663 9.37666E-05-2.53153E-05-2.93350E-05-5.57835E-06 8.28365E-19-4.18931E-19
 -1       664 7.80442E-05-1.73699E-05-2.59318E-05 2.00006E-05-9.38301E-19-1.89517E-19
 -1       665 9.00420E-05-2.16106E-05-2.93245E-05 9.61222E-06-3.38759E-19 1.46874E-18
 -1       666 9.21590E-05-2.34562E-05-2.94413E-05 7.47542E-06-6.80261E-19 1.31380E-18
 -1       667 9.34732E-05-2.48468E-05-2.94090E-05 5.81954E-06-3.68455E-19 9.02749E-19
 -1       668 9.43318E-05-2.59425E-05-2.93081E-05 4.42241E-06 1.29608E-19 6.28553E-19
 -1       669 9.48335E-05-2.67288E-05-2.91866E-05 3.32784E-06 1.55583E-18 8.83535E-19
 -1       670 9.51093E-05-2.72822E-05-2.90680E-05 2.48047E-06-9.09942E-19 1.31591E-18
 -1       671 9.52486E-05-2.76678E-05-2.89626E-05 1.83147E-06 1.01053E-18 1.70165E-18
 -1       672 9.53096E-05-2.79360E-05-2.88740E-05 1.33894E-06 2.04342E-18 2.31470E-18
 -1       673 9.53272E-05-2.81147E-05-2.88050E-05 9.83110E-07 5.62938E-19 1.56500E-18
 -1       674 9.53242E-05-2.82479E-05-2.87468E-05 7.00203E-07 1.55442E-19 3.50652E-19
 -1       675 9.53117E-05-2.83418E-05-2.87013E-05 4.89757E-07 8.57317E-19-7.87666E-19
 -1       676 9.52965E-05-2.84085E-05-2.86662E-05 3.34287E-07-1.93513E-18-2.62869E-18
 -1       677 9.52820E-05-2.84562E-05-2.86395E-05 2.20483E-07-1.53276E-18-9.97082E-19
 -1       678 9.52696E-05-2.84907E-05-2.86195E-05 1.38187E-07-1.61131E-18-1.60469E-18
 -1       679 9.52601E-05-2.85146E-05-2.86052E-05 8.19865E-08-1.20739E-19-2.58765E-18
 -1       680 9.52526E-05-2.85333E-05-2.85939E-05 4.03618E-08 8.95777E-19-2.77372E-18
 -1       681 9.52473E-05-2.85476E-05-2.85856E-05 1.24684E-08 1.05546E-18-3.55513E-18
 -1       682 9.52439E-05-2.85589E-05-2.85793E-05-4.75117E-09 2.48642E-18-2.71466E-18
 -1       683 9.52428E-05-2.85648E-05-2.85763E-05-1.07325E-08 2.45678E-18-2.06527E-18
 -1       684 9.52261E-05-2.85285E-05-2.85847E-05 4.29301E-09-2.09730E-18 1.25911E-18
 -1       685 7.96881E-05-3.25068E-05-1.97994E-05 3.37423E-05-9.65088E-19-3.61789E-19
 -1       686 3.57245E-05-7.69270E-06-1.14041E-05-9.02728E-06 6.77501E-19 9.77582E-19
 -1       687 9.52298E-05-2.85331E-05-2.85843E-05 5.87015E-09-1.42398E-18-1.83655E-18
 -1       688 9.52270E-05-2.85310E-05-2.85840E-05-1.08636E-09 6.73587E-19 4.27044E-18
 -1       689 9.52310E-05-2.85376E-05-2.85829E-05-2.06759E-09 1.82987E-18-1.22425E-18
 -1       690 9.52357E-05-2.85462E-05-2.85812E-05-6.31926E-10 2.10551E-18 1.78468E-18
 -1       691 9.53125E-05-2.57670E-05-2.98049E-05-9.83387E-07 1.01436E-18-9.89436E-20
 -1       692 9.47498E-05-2.20639E-05-3.11505E-05-5.38066E-06-6.64604E-19-2.20991E-18
 -1       693 9.52251E-05-2.85278E-05-2.85846E-05 1.48524E-09 7.64737E-19-1.61024E-21
 -1       694 4.86767E-05-1.46341E-05-1.40462E-05 2.20100E-05 3.83097E-19 6.24316E-19
 -1       695 8.28304E-05-1.76709E-05-2.79086E-05 1.55345E-05-7.30359E-19 1.00351E-18
 -1       696 1.28905E-04-1.62287E-05-4.88112E-05-1.17225E-05-1.16022E-18 7.07934E-19
 -1       697 9.53435E-05-2.40917E-05-3.05349E-05-3.18098E-06-4.29145E-19-2.00154E-18
 -1       698 1.36653E-04-5.00788E-05-3.72946E-05 8.54147E-07 2.51730E-18-2.25814E-19
 -1       699 9.13473E-05-1.66736E-05-3.20081E-05 3.35982E-06 1.62636E-18-9.05779E-19
 -1       700 1.30894E-04-2.61842E-05-4.53387E-05 1.28142E-05-6.18731E-19 4.34912E-19
 -1       701 4.09728E-05-1.05771E-05-1.24378E-05-1.42343E-05-3.10821E-20-1.39342E-18
 -1       702 1.11655E-04-5.47624E-05-2.41852E-05-3.61855E-05 1.87613E-18-5.44285E-19
 -1       703 9.31993E-05-4.55384E-05-2.00871E-05 4.15883E-05 1.82424E-18-4.11605E-20
 -1       704 1.24267E-04-9.21375E-06-4.98563E-05 7.86409E-06-1.94188E-18 1.24898E-19
 -1       705 9.15672E-05-1.69785E-05-3.19721E-05-3.20753E-06 4.33678E-19-2.36593E-18
 -1       706 1.37939E-04-3.64231E-05-4.39583E-05-9.65164E-06-9.39068E-19 1.91856E-18
 -1       707 3.80487E-05-8.25094E-06-1.21940E-05 1.03224E-05 5.23834E-19-2.39620E-18
 -1       708 1.23060E-04-5.97531E-06-5.07725E-05-2.50763E-06-2.09567E-18 3.54275E-19
 -1       709 1.30776E-04-5.91571E-05-3.07106E-05-2.09813E-05 3.35285E-18-1.92396E-19
 -1       710 9.04074E-05-1.54271E-05-3.21395E-05-4.88566E-07 1.07919E-18-2.02715E-18
 -1       711 9.53904E-05-2.44437E-05-3.04032E-05 2.30533E-06 1.49671E-18 2.32389E-19
 -1       712 9.52405E-05-2.85498E-05-2.85817E-05 1.18880E-09-1.68362E-20-2.34321E-18
 -1       713 7.40728E-05-2.31693E-05-2.14636E-05-2.82136E-05 5.01496E-19-2.90051E-18
 -1       714 9.52352E-05-2.85407E-05-2.85834E-05 4.97558E-09-5.97526E-19-8.75020E-19
 -1       715 1.29178E-04-3.94980E-05-3.86180E-05 9.97890E-06 1.67785E-18 3.76228E-19
 -1       716 9.52381E-05-2.85488E-05-2.85811E-05-1.17712E-09 7.12591E-19 1.13062E-18
 -1       717 1.10548E-04-5.27808E-05-2.46374E-05 3.29261E-05 1.26515E-18 1.02958E-19
 -1       718 7.44630E-05-2.14200E-05-2.25007E-05 2.65818E-05-1.51882E-18-5.77743E-19
 -1       719 5.20525E-05-1.42195E-05-1.58789E-05 2.33674E-05 1.62587E-18-5.59333E-19
 -1       720 1.36775E-04-4.68198E-05-3.87796E-05-4.24552E-06-9.43780E-20 1.71424E-18
 -1       721 9.26375E-05-1.84967E-05-3.17784E-05-4.45387E-06 2.29821E-20-2.36991E-18
 -1       722 9.52429E-05-2.85583E-05-2.85791E-05-4.58785E-09 1.22694E-18-3.34446E-18
 -1       723 1.31648E-04-5.87757E-05-3.12743E-05 1.71695E-05 1.65787E-19 1.36562E-18
 -1       724 9.08229E-05-1.59716E-05-3.20845E-05-1.85357E-06 7.83745E-19-2.17340E-18
 -1       725 9.54324E-05-2.53119E-05-3.00523E-05 5.24441E-07 1.06015E-18 1.32303E-19
 -1       726 9.47300E-05-2.27082E-05-3.08652E-05 2.92109E-06 1.52305E-18-1.21557E-19
 -1       727 1.17995E-04-1.75550E-05-4.33621E-05 1.17653E-05-1.02086E-18-3.36292E-19
 -1       728 9.91282E-05-4.43120E-05-2.33917E-05-3.33566E-05 6.83695E-19-1.20227E-18
 -1       729 9.59462E-05-2.65721E-05-2.97316E-05 9.32595E-07-1.19476E-19-1.53892E-18
 -1       730 9.62602E-05-2.76654E-05-2.93979E-05 1.99615E-06-4.17152E-19-1.51339E-18
 -1       731 9.66369E-05-2.86149E-05-2.91524E-05 2.70017E-06-5.67790E-19-1.40099E-18
 -1       732 9.71969E-05-2.95865E-05-2.89760E-05 3.07515E-06-6.32313E-20-1.52917E-18
 -1       733 9.80405E-05-3.07018E-05-2.88596E-05 3.10681E-06-8.04879E-20-1.50646E-18
 -1       734 9.92395E-05-3.20229E-05-2.88074E-05 2.72943E-06-2.82934E-20-8.19967E-19
 -1       735 1.00805E-04-3.35133E-05-2.88397E-05 1.83293E-06-1.76319E-19-2.33461E-19
 -1       736 1.02634E-04-3.49828E-05-2.89941E-05 2.95773E-07-5.40312E-20-3.64099E-19
 -1       737 1.04450E-04-3.60335E-05-2.93220E-05-1.93849E-06-1.05916E-19-8.91274E-19
 -1       738 1.05768E-04-3.60592E-05-2.98750E-05-4.71555E-06-3.10378E-19-1.03850E-18
 -1       739 1.05988E-04-3.44117E-05-3.06742E-05-7.48042E-06-4.00333E-19-1.15472E-18
 -1       740 1.04711E-04-3.08172E-05-3.16675E-05-9.18438E-06-3.67960E-19-5.89591E-19
 -1       741 1.02231E-04-2.59672E-05-3.26860E-05-8.58317E-06 3.78139E-20-1.13338E-19
 -1       742 9.97221E-05-2.16509E-05-3.34625E-05-5.03277E-06-1.89565E-19-2.49816E-19
 -1       743 9.87548E-05-2.00531E-05-3.37345E-05 5.13909E-07-4.49291E-19-4.96563E-19
 -1       744 9.99380E-05-2.20051E-05-3.34047E-05 5.95184E-06-1.23340E-18-8.20693E-19
 -1       745 1.02483E-04-2.64358E-05-3.25960E-05 9.15610E-06-4.89838E-19-9.60034E-19
 -1       746 1.04822E-04-3.11414E-05-3.15774E-05 9.50044E-06 8.68421E-19-1.14667E-18
 -1       747 1.05854E-04-3.44237E-05-3.06124E-05 7.69356E-06 1.62139E-19-3.72938E-19
 -1       748 1.05418E-04-3.57752E-05-2.98482E-05 4.99189E-06-5.77590E-20 2.82269E-19
 -1       749 1.03954E-04-3.55398E-05-2.93212E-05 2.38835E-06 4.72692E-19 4.14891E-19
 -1       750 1.02055E-04-3.43827E-05-2.90030E-05 3.61157E-07 4.24950E-19 3.90872E-20
 -1       751 1.00179E-04-3.28951E-05-2.88364E-05-9.84459E-07 5.41117E-19-5.75747E-19
 -1       752 9.85808E-05-3.14638E-05-2.87647E-05-1.73990E-06 1.90129E-19 5.78751E-20
 -1       753 9.73479E-05-3.02793E-05-2.87438E-05-2.05860E-06-5.01241E-19 1.80619E-19
 -1       754 9.64673E-05-2.93974E-05-2.87443E-05-2.08775E-06 1.66785E-19 4.46536E-19
 -1       755 9.58796E-05-2.87983E-05-2.87491E-05-1.94424E-06 1.59371E-19 1.17666E-19
 -1       756 9.55135E-05-2.84296E-05-2.87502E-05-1.71182E-06-8.19305E-19-1.62796E-19
 -1       757 9.53031E-05-2.82317E-05-2.87449E-05-1.44624E-06 5.15203E-19 8.69937E-19
 -1       758 9.51953E-05-2.81507E-05-2.87334E-05-1.18202E-06-1.33072E-18 7.01157E-19
 -1       759 9.51507E-05-2.81433E-05-2.87174E-05-9.38790E-07-1.39061E-18 1.36041E-18
 -1       760 9.51420E-05-2.81778E-05-2.86989E-05-7.26101E-07-1.30710E-18-2.04697E-22
 -1       761 9.51515E-05-2.82322E-05-2.86797E-05-5.47044E-07-3.39811E-19-1.89033E-18
 -1       762 9.51683E-05-2.82927E-05-2.86610E-05-4.00821E-07 6.85758E-19-6.29430E-19
 -1       763 9.51863E-05-2.83509E-05-2.86437E-05-2.84489E-07 1.83570E-19 2.31303E-19
 -1       764 9.52022E-05-2.84027E-05-2.86284E-05-1.94130E-07-5.71795E-19 2.23910E-18
 -1       765 9.52150E-05-2.84463E-05-2.86151E-05-1.25584E-07-1.77714E-19-1.38220E-18
 -1       766 9.52245E-05-2.84820E-05-2.86039E-05-7.49303E-08 3.68483E-19-2.79578E-18
 -1       767 9.52311E-05-2.85105E-05-2.85946E-05-3.88276E-08 7.12448E-19-2.90186E-18
 -1       768 9.52356E-05-2.85319E-05-2.85873E-05-1.63930E-08 4.69607E-19-2.02445E-18
 -1       769 1.14212E-04-8.71630E-06-4.55646E-05 2.71532E-06-2.21446E-18 8.03687E-19
 -1       770 8.60164E-05-1.98644E-05-2.83513E-05-6.33789E-06 7.56170E-19-2.44657E-19
 -1       771 8.93086E-05-2.20368E-05-2.88310E-05-5.64054E-06 6.57659E-19-5.25797E-21
 -1       772 7.47854E-05-1.40243E-05-2.60246E-05-7.34307E-06 6.07088E-19-8.11688E-20
 -1       773 6.56984E-05-1.08828E-05-2.34176E-05-8.00596E-06 6.85453E-19-8.68593E-19
 -1       774 9.52239E-05-2.85098E-05-2.85918E-05 1.54380E-08-1.24272E-19-2.27501E-18
 -1       775 9.41165E-05-2.50254E-05-2.96102E-05-2.71303E-06 9.93305E-19-7.14497E-19
 -1       776 8.70403E-05-2.03639E-05-2.85752E-05 5.81962E-06-4.68131E-19 7.68508E-19
 -1       777 8.97300E-05-2.23975E-05-2.88568E-05 4.91573E-06-8.53536E-19-7.44203E-19
 -1       778 3.89670E-05-7.65329E-06-1.29238E-05 2.78440E-06 5.51287E-19-5.12984E-20
 -1       779 8.29908E-05-1.77506E-05-2.79585E-05 6.79501E-06-7.46531E-19 6.31106E-20
 -1       780 9.16658E-05-2.40585E-05-2.89744E-05 4.02066E-06 2.83574E-19-5.38119E-19
 -1       781 9.29534E-05-2.53034E-05-2.89927E-05 3.21816E-06 4.56962E-19 1.07323E-19
 -1       782 9.37959E-05-2.62164E-05-2.89625E-05 2.52729E-06-1.26401E-19 1.19022E-18
 -1       783 9.43397E-05-2.68780E-05-2.89121E-05 1.95117E-06 2.12805E-19-7.34988E-19
 -1       784 9.46867E-05-2.73545E-05-2.88566E-05 1.48328E-06 2.83642E-19-1.97193E-18
 -1       785 9.48971E-05-2.76826E-05-2.88061E-05 1.12607E-06 1.75993E-18-8.84230E-19
 -1       786 9.50370E-05-2.79336E-05-2.87586E-05 8.28860E-07 6.19683E-19-2.15577E-19
 -1       787 9.51235E-05-2.81145E-05-2.87181E-05 5.99075E-07 1.48925E-18-3.79772E-19
 -1       788 9.51762E-05-2.82454E-05-2.86846E-05 4.23518E-07 7.73884E-19-6.77136E-19
 -1       789 9.52076E-05-2.83402E-05-2.86574E-05 2.91156E-07-2.03627E-18-1.67957E-18
 -1       790 9.52258E-05-2.84090E-05-2.86357E-05 1.92819E-07-6.87475E-19-3.12595E-18
 -1       791 9.52354E-05-2.84569E-05-2.86194E-05 1.23858E-07-1.04125E-18-4.36092E-18
 -1       792 9.52406E-05-2.84939E-05-2.86057E-05 7.13297E-08 7.61389E-19-2.34540E-18
 -1       793 9.52427E-05-2.85211E-05-2.85950E-05 3.48268E-08 9.62071E-19-2.36702E-18
 -1       794 9.52434E-05-2.85418E-05-2.85864E-05 1.04398E-08 1.56060E-18-4.09392E-18
 -1       795 5.48705E-05-1.06169E-05-1.86123E-05-1.48864E-05 4.43306E-19-1.76920E-18
 -1       796 6.98892E-05-1.20800E-05-2.47126E-05 1.01960E-05-1.16674E-18-1.97178E-18
 -1       797 9.52270E-05-2.85197E-05-2.85889E-05-1.33471E-08 3.85484E-18 9.73524E-19
 -1       798 9.52190E-05-2.85070E-05-2.85909E-05-1.06347E-08 1.82824E-18 1.78909E-18
 -1       799 9.46808E-05-2.48538E-05-2.99248E-05-1.33654E-06 9.38432E-19-5.28886E-19
 -1       800 9.36550E-05-2.01139E-05-3.15177E-05-5.10610E-06-3.09712E-19-2.34239E-18
 -1       801 7.72581E-05-1.47805E-05-2.67719E-05 7.83770E-06-1.61752E-18-1.14469E-18
 -1       802 9.52333E-05-2.85234E-05-2.85900E-05 1.58358E-08 1.92750E-18-2.51069E-18
 -1       803 7.98770E-05-3.27101E-05-1.99962E-05 3.50420E-05 1.47408E-18-2.50298E-19
 -1       804 1.15734E-04-1.18590E-05-4.48364E-05-8.28716E-06-1.09654E-18 4.27163E-19
 -1       805 5.14153E-05-1.11688E-05-1.69264E-05-1.82645E-05 3.49653E-19 4.87785E-19
 -1       806 5.95828E-05-1.03701E-05-2.08826E-05 1.32668E-05-1.04451E-18-4.84622E-19
 -1       807 9.52163E-05-2.85001E-05-2.85926E-05 1.07198E-08-1.03985E-18-9.57883E-19
 -1       808 8.13427E-05-1.71391E-05-2.75152E-05-6.88309E-06 7.94022E-19-2.61497E-20
 -1       809 9.19253E-05-1.83093E-05-3.15504E-05 1.12554E-06 1.14571E-18-1.43005E-18
 -1       810 1.24774E-04-2.70690E-05-4.21934E-05-1.33565E-05-4.67456E-19 1.71495E-18
 -1       811 5.00324E-05-7.87240E-06-1.77432E-05 3.07593E-06 8.56929E-19-1.25821E-18
 -1       812 1.28550E-04-5.41063E-05-3.19658E-05-8.89595E-06 2.46414E-18 4.66695E-19
 -1       813 9.55502E-05-2.51385E-05-3.01758E-05-5.41977E-07-1.63228E-19-1.74014E-18
 -1       814 6.88655E-05-2.37756E-05-1.90769E-05-3.14861E-05-2.13727E-19 4.74868E-20
 -1       815 1.19743E-04-5.40832E-05-2.80865E-05-2.19733E-05 1.66981E-18-2.06494E-19
 -1       816 1.19110E-04-2.89668E-05-3.87163E-05 1.29705E-05 9.61449E-19-1.52447E-18
 -1       817 8.79633E-05-3.40626E-05-2.30348E-05-2.97791E-05-3.13181E-19-5.60603E-19
 -1       818 4.75381E-05-7.93568E-06-1.66420E-05-5.48411E-06-8.86605E-20 2.46698E-19
 -1       819 9.15677E-05-2.35990E-05-2.91293E-05-4.81475E-06 5.72490E-19-1.75392E-19
 -1       820 7.00248E-05-2.23984E-05-2.02204E-05 2.70858E-05 1.53776E-18-4.74292E-19
 -1       821 9.18756E-05-1.82149E-05-3.15699E-05 2.95233E-07 9.43363E-19-1.81904E-18
 -1       822 9.50796E-05-4.14982E-05-2.28215E-05 3.29946E-05 1.40383E-18-1.02355E-18
 -1       823 9.27459E-05-1.94073E-05-3.14317E-05-1.51529E-06 4.53181E-19-2.06251E-18
 -1       824 9.46841E-05-2.25391E-05-3.09196E-05-3.19556E-06-1.98553E-19-2.12821E-18
 -1       825 9.31145E-05-2.45968E-05-2.93645E-05-3.84858E-06 7.55237E-19-4.76021E-19
 -1       826 1.32183E-04-5.36583E-05-3.37334E-05 4.64195E-06 5.09235E-20 1.68829E-18
 -1       827 1.27404E-04-4.78384E-05-3.41889E-05 2.09577E-06 1.59808E-18 4.89843E-19
 -1       828 9.48128E-05-2.40028E-05-3.03472E-05 3.98699E-07 1.24367E-18-3.71000E-19
 -1       829 9.52136E-05-2.84987E-05-2.85921E-05-4.41257E-09 2.87972E-18 2.12838E-18
 -1       830 1.21328E-04-5.54293E-05-2.82304E-05 2.19683E-05 7.87436E-19 1.05041E-18
 -1       831 1.26967E-04-3.66284E-05-3.88942E-05-1.11386E-05-5.30832E-19 1.95687E-18
 -1       832 9.35476E-05-2.06272E-05-3.12538E-05-2.34327E-06 1.63328E-19-2.05982E-18
 -1       833 9.52126E-05-2.84963E-05-2.85927E-05 3.39750E-09 8.20054E-19 2.37885E-18
 -1       834 9.37728E-05-2.12759E-05-3.10710E-05 2.23894E-06 1.47723E-18-2.42343E-19
 -1       835 9.24157E-05-1.89998E-05-3.14650E-05 1.87489E-06 1.34833E-18-1.07599E-18
 -1       836 9.52311E-05-2.85249E-05-2.85883E-05-1.55031E-08 2.87869E-18-1.14987E-18
 -1       837 9.58665E-05-2.64186E-05-2.97634E-05 1.51685E-06-1.58093E-19-1.16632E-18
 -1       838 9.62599E-05-2.76190E-05-2.94176E-05 2.49332E-06-2.57629E-19-1.06798E-18
 -1       839 9.67413E-05-2.87369E-05-2.91447E-05 3.24609E-06-3.65126E-19-9.32190E-19
 -1       840 9.74760E-05-2.99585E-05-2.89360E-05 3.77882E-06-2.77983E-19-1.10379E-18
 -1       841 9.86238E-05-3.14359E-05-2.87948E-05 4.04554E-06 1.33526E-19-1.19176E-18
 -1       842 1.00319E-04-3.32540E-05-2.87423E-05 3.92410E-06 2.17400E-19-1.36958E-18
 -1       843 1.02615E-04-3.53596E-05-2.88241E-05 3.20864E-06-2.29642E-19-1.32987E-18
 -1       844 1.05397E-04-3.74711E-05-2.91114E-05 1.63712E-06-4.43226E-19-1.38427E-18
 -1       845 1.08258E-04-3.89586E-05-2.96991E-05-1.00692E-06-2.88367E-19-1.22554E-18
 -1       846 1.10398E-04-3.88071E-05-3.06830E-05-4.61783E-06-9.25995E-20-7.13862E-19
 -1       847 1.10812E-04-3.59425E-05-3.20902E-05-8.37034E-06-1.82866E-19-6.50652E-19
 -1       848 1.08837E-04-3.00377E-05-3.37709E-05-1.04506E-05-1.45475E-19-7.56332E-19
 -1       849 1.05190E-04-2.26737E-05-3.54129E-05-8.91122E-06-3.53948E-19-5.35549E-19
 -1       850 1.02273E-04-1.74303E-05-3.64120E-05-3.14358E-06-2.22578E-20-6.77668E-19
 -1       851 1.02560E-04-1.79456E-05-3.62997E-05 4.37984E-06-7.80395E-19-9.82811E-19
 -1       852 1.05274E-04-2.32339E-05-3.52142E-05 9.72988E-06-1.04710E-18-3.83818E-19
 -1       853 1.08833E-04-3.05417E-05-3.35575E-05 1.07599E-05-6.62518E-20-3.95636E-19
 -1       854 1.10555E-04-3.61021E-05-3.18993E-05 8.37710E-06 1.19158E-18-9.30495E-19
 -1       855 1.09843E-04-3.85350E-05-3.05648E-05 4.67449E-06 2.86370E-20-7.48044E-19
 -1       856 1.07433E-04-3.83144E-05-2.96238E-05 1.24389E-06 7.08645E-19 2.71539E-19
 -1       857 1.04439E-04-3.66535E-05-2.90521E-05-1.15658E-06 7.41152E-19 2.58725E-19
 -1       858 1.01586E-04-3.44976E-05-2.87531E-05-2.51453E-06 5.72229E-20 1.66515E-19
 -1       859 9.92421E-05-3.24471E-05-2.86268E-05-3.07683E-06-3.93210E-19-8.12517E-19
 -1       860 9.75008E-05-3.07752E-05-2.85968E-05-3.12740E-06 2.55161E-19-8.45750E-19
 -1       861 9.63098E-05-2.95485E-05-2.86120E-05-2.89223E-06 6.02401E-20-2.36573E-19
 -1       862 9.55583E-05-2.87280E-05-2.86416E-05-2.52489E-06-2.70003E-19-5.80686E-19
 -1       863 9.51282E-05-2.82327E-05-2.86695E-05-2.11914E-06-1.25654E-18-2.35968E-19
 -1       864 9.49163E-05-2.79758E-05-2.86888E-05-1.72721E-06 3.14074E-19 1.52959E-19
 -1       865 9.48423E-05-2.78803E-05-2.86980E-05-1.37474E-06-1.39627E-19-1.02645E-18
 -1       866 9.48483E-05-2.78859E-05-2.86981E-05-1.07168E-06-3.17459E-19 7.05971E-19
 -1       867 9.48950E-05-2.79482E-05-2.86915E-05-8.19218E-07-1.73603E-18 1.47333E-18
 -1       868 9.49576E-05-2.80368E-05-2.86803E-05-6.13918E-07-2.11047E-18 1.28026E-18
 -1       869 9.50213E-05-2.81322E-05-2.86668E-05-4.50286E-07 2.81795E-19 1.19794E-18
 -1       870 9.50786E-05-2.82231E-05-2.86524E-05-3.22185E-07 5.19559E-19 6.80476E-21
 -1       871 9.51261E-05-2.83035E-05-2.86382E-05-2.23608E-07-1.96070E-19-1.60720E-18
 -1       872 9.51632E-05-2.83713E-05-2.86251E-05-1.49074E-07-1.04695E-18-2.20984E-18
 -1       873 9.51906E-05-2.84265E-05-2.86132E-05-9.37858E-08 1.21190E-19-6.49664E-19
 -1       874 9.52102E-05-2.84705E-05-2.86027E-05-5.39696E-08 3.04726E-19-1.07391E-18
 -1       875 6.96271E-05-1.21756E-05-2.46119E-05 1.69372E-08-1.76574E-18 7.64710E-20
 -1       876 6.85727E-05-1.24604E-05-2.40025E-05 2.89974E-06 8.17799E-19-8.61161E-20
 -1       877 1.08957E-04-1.46149E-05-4.06012E-05 6.74798E-06-7.71065E-19-1.85472E-18
 -1       878 9.21656E-05-1.85925E-05-3.15324E-05-6.05825E-07 8.52088E-19-1.90353E-18
 -1       879 8.91018E-05-2.24799E-05-2.85521E-05 2.43704E-06-2.77562E-19-7.50593E-19
 -1       880 8.65296E-05-2.06552E-05-2.82330E-05 2.37589E-06-2.06540E-19-3.73253E-20
 -1       881 9.23684E-05-2.51733E-05-2.87980E-05 1.99488E-06 2.06474E-19-1.17391E-18
 -1       882 9.32954E-05-2.60572E-05-2.88164E-05 1.67204E-06 1.48637E-18-2.79237E-18
 -1       883 9.39315E-05-2.67185E-05-2.88055E-05 1.35497E-06 8.16753E-19-3.17979E-18
 -1       884 9.43483E-05-2.71896E-05-2.87823E-05 1.08105E-06-4.36064E-19-3.00506E-18
 -1       885 9.46499E-05-2.75605E-05-2.87526E-05 8.32055E-07-1.91645E-19-1.24860E-18
 -1       886 9.48542E-05-2.78349E-05-2.87226E-05 6.25686E-07 1.19818E-18-8.38086E-19
 -1       887 9.49920E-05-2.80379E-05-2.86946E-05 4.59177E-07 1.24561E-18 6.79505E-19
 -1       888 9.50842E-05-2.81880E-05-2.86698E-05 3.27998E-07-2.10532E-19 5.31086E-19
 -1       889 9.51452E-05-2.82985E-05-2.86486E-05 2.26917E-07-6.57844E-19-1.31493E-18
 -1       890 9.51833E-05-2.83764E-05-2.86315E-05 1.53707E-07-1.25201E-19-7.26967E-19
 -1       891 9.52091E-05-2.84371E-05-2.86166E-05 9.61881E-08-3.88975E-19-2.04005E-18
 -1       892 9.52247E-05-2.84815E-05-2.86042E-05 5.50631E-08-8.12566E-19-3.64266E-19
 -1       893 9.52296E-05-2.85038E-05-2.85967E-05 3.21994E-08 1.62161E-18-1.44042E-18
 -1       894 9.44288E-05-2.24208E-05-3.08617E-05-1.69117E-06 1.47419E-19-1.84390E-18
 -1       895 1.07965E-04-1.22923E-05-4.11756E-05-2.09282E-06-2.04310E-18-7.37116E-19
 -1       896 9.52042E-05-2.84686E-05-2.86010E-05 2.47795E-08-1.41508E-18-2.34666E-18
 -1       897 9.42410E-05-2.34584E-05-3.03354E-05-3.84208E-08 1.21189E-18-2.76964E-19
 -1       898 5.83410E-05-9.65484E-06-2.07253E-05-8.06264E-06 2.95725E-19-1.32951E-19
 -1       899 9.38875E-05-2.41170E-05-2.99023E-05-1.24243E-06 9.93203E-19-3.00788E-19
 -1       900 8.23109E-05-1.83155E-05-2.74281E-05-1.60065E-06 7.15710E-19 1.94438E-19
 -1       901 7.74888E-05-1.55419E-05-2.65473E-05 8.84330E-07-1.49033E-18 3.80794E-19
 -1       902 5.97896E-05-1.23564E-05-2.02361E-05 1.37678E-05 1.51217E-18-4.42297E-19
 -1       903 9.52164E-05-2.84847E-05-2.85993E-05 3.11873E-08 8.59039E-19-4.13464E-18
 -1       904 1.08771E-04-4.64279E-05-2.66522E-05-2.25647E-05 6.71052E-19-1.05615E-18
 -1       905 9.52108E-05-2.84829E-05-2.85977E-05-2.79386E-08 1.52048E-18 1.20781E-18
 -1       906 1.13220E-04-2.04141E-05-3.99238E-05-1.14752E-05-2.40054E-19 4.02625E-19
 -1       907 1.18374E-04-5.06157E-05-2.90309E-05-1.45943E-05 9.62540E-19 1.48589E-18
 -1       908 7.66149E-05-1.56520E-05-2.61250E-05 1.39890E-07 7.70819E-19-5.56114E-21
 -1       909 8.27543E-05-1.83032E-05-2.76229E-05 1.92285E-06-7.81276E-19-5.91432E-20
 -1       910 6.70873E-05-1.74979E-05-2.11440E-05-2.11162E-05-1.38761E-19 1.37221E-18
 -1       911 9.10276E-05-2.40044E-05-2.87244E-05 2.27584E-06-3.20408E-19-1.29851E-18
 -1       912 9.53899E-05-2.49406E-05-3.01939E-05 2.78021E-07 7.62454E-21-1.47633E-18
 -1       913 8.64816E-05-2.05837E-05-2.82427E-05-2.49857E-06 7.80080E-19-1.56831E-19
 -1       914 8.10748E-05-2.60376E-05-2.35568E-05-2.33312E-05-7.54587E-20 3.02513E-19
 -1       915 8.94636E-05-2.23174E-05-2.87772E-05-2.78355E-06 4.82584E-19-5.19850E-19
 -1       916 9.52229E-05-2.85010E-05-2.85951E-05-3.23015E-08 1.62542E-19-1.36923E-18
 -1       917 8.65960E-05-3.22254E-05-2.32113E-05 2.74227E-05 1.34353E-18-8.93372E-19
 -1       918 9.29127E-05-2.04981E-05-3.10343E-05 6.50272E-07 8.08374E-19-1.45502E-18
 -1       919 9.35911E-05-2.13666E-05-3.09520E-05-2.55810E-07 5.03752E-19-1.73192E-18
 -1       920 1.07359E-04-4.75227E-05-2.55795E-05 2.68753E-05 1.06414E-18 6.72909E-19
 -1       921 1.21436E-04-3.89305E-05-3.54318E-05 9.39630E-06 9.45871E-19 3.79504E-19
 -1       922 9.51954E-05-2.84588E-05-2.86014E-05 1.15747E-08 3.95229E-19 2.46155E-18
 -1       923 1.27271E-04-4.50737E-05-3.52976E-05-5.51314E-06-1.20074E-19 2.14149E-18
 -1       924 9.30438E-05-2.41344E-05-2.95329E-05-2.09560E-06 6.90669E-19-3.71670E-19
 -1       925 1.21237E-04-4.89176E-05-3.10134E-05-4.89106E-06 1.33724E-18 1.83244E-18
 -1       926 9.52000E-05-2.84675E-05-2.85997E-05-1.79589E-08 1.77243E-18 1.61387E-18
 -1       927 1.25280E-04-5.36131E-05-3.07166E-05 1.06631E-05 8.28741E-19 1.71274E-18
 -1       928 1.16267E-04-2.78237E-05-3.80052E-05-1.23945E-05 1.59705E-19 9.40670E-19
 -1       929 9.42433E-05-2.23542E-05-3.08057E-05-7.26814E-07 3.62295E-19-1.70550E-18
 -1       930 9.30506E-05-2.07865E-05-3.09800E-05 9.07319E-07 1.11914E-18-1.11978E-18
 -1       931 9.56098E-05-2.62982E-05-2.97051E-05 2.05859E-06-9.55722E-20-1.38402E-18
 -1       932 9.59832E-05-2.75130E-05-2.93441E-05 3.02998E-06-2.07014E-19-1.05739E-18
 -1       933 9.64881E-05-2.87213E-05-2.90426E-05 3.93835E-06-1.55334E-19-6.75649E-19
 -1       934 9.73384E-05-3.01413E-05-2.87986E-05 4.78529E-06-9.46907E-20-7.12986E-19
 -1       935 9.87661E-05-3.19740E-05-2.86252E-05 5.49988E-06 3.64588E-20-9.41642E-19
 -1       936 1.01014E-04-3.43660E-05-2.85628E-05 5.88856E-06 7.08633E-20-9.87443E-19
 -1       937 1.04193E-04-3.72439E-05-2.86923E-05 5.60002E-06-1.39177E-19-7.31471E-19
 -1       938 1.08278E-04-4.02978E-05-2.91323E-05 4.13234E-06-2.02140E-19 1.26330E-20
 -1       939 1.12677E-04-4.25087E-05-3.00682E-05 9.54606E-07 2.56246E-19 4.81312E-19
 -1       940 1.16120E-04-4.21394E-05-3.17097E-05-4.07249E-06-2.89181E-19 9.36684E-19
 -1       941 1.16700E-04-3.73333E-05-3.40411E-05-9.50687E-06-2.52559E-19 9.91224E-19
 -1       942 1.11503E-04-4.16606E-05-2.99067E-05-1.05743E-06 7.97964E-19 1.03573E-18
 -1       943 1.06984E-04-3.92554E-05-2.90256E-05-3.85306E-06 1.00843E-18 2.93093E-19
 -1       944 1.02858E-04-3.61643E-05-2.85841E-05-5.06993E-06-7.93723E-20-1.47889E-19
 -1       945 9.96358E-05-3.33337E-05-2.84156E-05-5.18982E-06-8.38408E-19-1.35248E-18
 -1       946 9.73592E-05-3.11063E-05-2.83941E-05-4.72707E-06-3.91187E-19-7.59892E-19
 -1       947 9.58842E-05-2.95248E-05-2.84397E-05-4.02566E-06 1.80140E-19-7.26143E-19
 -1       948 9.50146E-05-2.85008E-05-2.85059E-05-3.28502E-06 5.66485E-20 5.69125E-19
 -1       949 9.45666E-05-2.79060E-05-2.85688E-05-2.60396E-06 4.26781E-19 1.00994E-18
 -1       950 9.43932E-05-2.76171E-05-2.86183E-05-2.02123E-06-7.81489E-19 1.43814E-18
 -1       951 9.43846E-05-2.75302E-05-2.86519E-05-1.54385E-06-6.22755E-19 1.17556E-18
 -1       952 9.44653E-05-2.75669E-05-2.86708E-05-1.16321E-06-1.17583E-19 5.44234E-19
 -1       953 9.45856E-05-2.76707E-05-2.86778E-05-8.65424E-07-1.73597E-19 1.87950E-19
 -1       954 9.47149E-05-2.78037E-05-2.86762E-05-6.35553E-07-2.24093E-18-3.61876E-19
 -1       955 9.48361E-05-2.79420E-05-2.86689E-05-4.59958E-07-1.52837E-18-2.46407E-19
 -1       956 9.49410E-05-2.80716E-05-2.86583E-05-3.27052E-07-9.79542E-20-1.50946E-18
 -1       957 9.50266E-05-2.81855E-05-2.86462E-05-2.27375E-07-5.62771E-19-1.23017E-18
 -1       958 9.50933E-05-2.82812E-05-2.86338E-05-1.53398E-07 4.88619E-19 1.97630E-19
 -1       959 9.51433E-05-2.83591E-05-2.86218E-05-9.91856E-08 5.09896E-19 2.30652E-18
 -1       960 9.51792E-05-2.84213E-05-2.86106E-05-5.93202E-08-4.89162E-19 1.88020E-18
 -1       961 9.31061E-05-2.07141E-05-3.10253E-05 2.44093E-07 5.72559E-19-1.82131E-18
 -1       962 7.49918E-05-1.60973E-05-2.52220E-05-7.38309E-06-8.83512E-19-1.26669E-18
 -1       963 8.74308E-05-2.18007E-05-2.81288E-05-1.67491E-07-5.98362E-19-1.89851E-18
 -1       964 9.16041E-05-2.35213E-05-2.91786E-05-2.62123E-06 2.40125E-19-3.71240E-19
 -1       965 9.37888E-05-2.67337E-05-2.87380E-05 8.03245E-07-7.79824E-19 6.62272E-19
 -1       966 9.31692E-05-2.61358E-05-2.87286E-05 9.12651E-07 1.06390E-18-2.00942E-18
 -1       967 9.23070E-05-2.53663E-05-2.86889E-05 9.54659E-07 1.22585E-18-1.52154E-18
 -1       968 9.42324E-05-2.71942E-05-2.87307E-05 6.69233E-07-6.96351E-19 1.50821E-18
 -1       969 9.45483E-05-2.75469E-05-2.87149E-05 5.35178E-07 2.01429E-19 1.01721E-18
 -1       970 9.47718E-05-2.78154E-05-2.86956E-05 4.13148E-07 2.34150E-19 1.85110E-18
 -1       971 9.49288E-05-2.80186E-05-2.86758E-05 3.08615E-07 6.53633E-19 1.59740E-18
 -1       972 9.50378E-05-2.81716E-05-2.86569E-05 2.22982E-07 1.06996E-18 1.54199E-18
 -1       973 9.51095E-05-2.82812E-05-2.86407E-05 1.57968E-07 1.00716E-18-4.39136E-19
 -1       974 9.51608E-05-2.83679E-05-2.86255E-05 1.04743E-07 6.88839E-19-3.12873E-18
 -1       975 9.51944E-05-2.84321E-05-2.86124E-05 6.52127E-08-1.11487E-18-2.90464E-18
 -1       976 9.52066E-05-2.84601E-05-2.86056E-05 4.60919E-08 4.25690E-19-3.87905E-18
 -1       977 8.45505E-05-2.01226E-05-2.76139E-05-1.51027E-06-2.99824E-19-2.08577E-18
 -1       978 9.37033E-05-2.31453E-05-3.02370E-05-8.32049E-08 1.25166E-18-7.14593E-19
 -1       979 7.05625E-05-1.57059E-05-2.34592E-05-1.31495E-05-7.59041E-19 8.00823E-19
 -1       980 8.12960E-05-1.90936E-05-2.66494E-05 4.74164E-06 7.36768E-19-1.16469E-19
 -1       981 7.67951E-05-2.25400E-05-2.31783E-05 2.07773E-05 1.54524E-18-8.29196E-19
 -1       982 9.74684E-05-3.72500E-05-2.57728E-05-2.19205E-05-1.37511E-19-1.31640E-18
 -1       983 8.95887E-05-2.32449E-05-2.84332E-05 5.49181E-07 3.43740E-19-1.36856E-18
 -1       984 9.51940E-05-2.84582E-05-2.86009E-05-4.22404E-09 1.82096E-18 4.60460E-18
 -1       985 8.07632E-05-1.83001E-05-2.67701E-05-3.78440E-06-1.08034E-18-1.54890E-18
 -1       986 7.61448E-05-1.76632E-05-2.50692E-05 9.24169E-06 9.15198E-19-3.80238E-20
 -1       987 1.11233E-04-4.50776E-05-2.83265E-05-1.32354E-05 9.59228E-19 7.17192E-19
 -1       988 9.11542E-05-2.44189E-05-2.86007E-05 8.65809E-07-2.54329E-19-1.76460E-18
 -1       989 9.51803E-05-2.48771E-05-3.01298E-05 9.83493E-07 1.57216E-19-1.54525E-18
 -1       990 1.12929E-04-2.33700E-05-3.85021E-05 1.14213E-05 7.24628E-19-1.78320E-18
 -1       991 8.52234E-05-2.06465E-05-2.76741E-05 1.94135E-06 7.39102E-19-4.36531E-19
 -1       992 9.70043E-05-3.87026E-05-2.49363E-05 2.52923E-05 1.55394E-18-1.24742E-19
 -1       993 8.82365E-05-2.20190E-05-2.83790E-05 2.94515E-07 5.16909E-20-7.03324E-19
 -1       994 1.15376E-04-4.99201E-05-2.80293E-05 1.80396E-05 3.75166E-19 1.65678E-18
 -1       995 1.17431E-04-4.33762E-05-3.17471E-05 3.07347E-06 1.25117E-18 6.03541E-19
 -1       996 9.40617E-05-2.28609E-05-3.05152E-05 6.57165E-07 3.32411E-19-1.74162E-18
 -1       997 9.34060E-05-2.17716E-05-3.06948E-05 6.40104E-07 1.13224E-18-9.27995E-19
 -1       998 9.32408E-05-2.37513E-05-2.97820E-05-6.34027E-07 7.82730E-19-3.32091E-19
 -1       999 8.99936E-05-3.09073E-05-2.53044E-05 2.02125E-05 1.73444E-18-3.97899E-19
 -1      1000 1.24419E-04-4.83653E-05-3.26330E-05 1.68781E-07-1.02544E-19 1.56584E-18
 -1      1001 9.36293E-05-2.23393E-05-3.05515E-05 7.03982E-07 6.87386E-19-1.34913E-18
 -1      1002 9.51906E-05-2.84402E-05-2.86074E-05 3.63778E-08 1.11310E-18-3.55400E-18
 -1      1003 9.34330E-05-2.21894E-05-3.05339E-05 5.99821E-07 9.23242E-19-8.69196E-19
 -1      1004 9.51789E-05-2.84276E-05-2.86078E-05 1.73535E-08 2.57949E-18 3.45463E-18
 -1      1005 9.45317E-05-2.44812E-05-3.00220E-05 1.46847E-06 4.48548E-19-1.39320E-18
 -1      1006 9.53182E-05-2.72108E-05-2.91875E-05 3.56019E-06 1.19798E-19-1.03480E-18
 -1      1007 9.57089E-05-2.83989E-05-2.88462E-05 4.75254E-06-2.64652E-19-8.82298E-19
 -1      1008 9.65252E-05-2.99139E-05-2.85470E-05 6.10848E-06-8.88361E-20-7.32115E-19
 -1      1009 9.80885E-05-3.20315E-05-2.83097E-05 7.53386E-06 8.96757E-20-7.71663E-19
 -1      1010 1.00855E-04-3.50782E-05-2.82055E-05 8.79224E-06 3.26322E-19-6.39258E-20
 -1      1011 1.05224E-04-3.90866E-05-2.83448E-05 9.37907E-06 6.80288E-19 3.69567E-19
 -1      1012 1.11199E-04-4.35380E-05-2.89673E-05 8.27330E-06 6.19351E-19 1.32715E-18
 -1      1013 1.17527E-04-4.67724E-05-3.03371E-05 4.46400E-06 5.02354E-19 1.38422E-18
 -1      1014 8.41707E-05-2.29297E-05-2.62580E-05 1.09970E-05 8.85448E-19-3.37364E-19
 -1      1015 8.58582E-05-2.59150E-05-2.56888E-05 1.57112E-05 1.52269E-18-4.80857E-19
 -1      1016 1.03449E-04-3.76371E-05-2.82056E-05-8.97151E-06-3.80789E-19-5.61518E-19
 -1      1017 9.92888E-05-3.38422E-05-2.80489E-05-8.23746E-06-3.67311E-19-9.92900E-19
 -1      1018 9.65508E-05-3.10170E-05-2.80856E-05-6.91442E-06-8.26176E-19 7.94254E-19
 -1      1019 9.49269E-05-2.91263E-05-2.81999E-05-5.49139E-06 1.01154E-18 9.30829E-19
 -1      1020 9.40750E-05-2.79735E-05-2.83290E-05-4.20400E-06 6.98534E-19 1.80344E-18
 -1      1021 9.37237E-05-2.73548E-05-2.84438E-05-3.13880E-06 8.34468E-20 2.03019E-18
 -1      1022 9.36750E-05-2.70967E-05-2.85335E-05-2.30060E-06-4.49101E-19 3.38998E-19
 -1      1023 9.37944E-05-2.70677E-05-2.85972E-05-1.66480E-06-1.24605E-18 2.74279E-19
 -1      1024 9.39931E-05-2.71711E-05-2.86381E-05-1.19208E-06-1.31516E-18 9.36574E-20
 -1      1025 9.42156E-05-2.73411E-05-2.86606E-05-8.46759E-07-1.02919E-18-3.49751E-19
 -1      1026 9.44306E-05-2.75350E-05-2.86696E-05-5.96851E-07-2.27207E-18-1.78529E-18
 -1      1027 9.46216E-05-2.77269E-05-2.86692E-05-4.17160E-07-1.28483E-18-9.90523E-20
 -1      1028 9.47820E-05-2.79023E-05-2.86628E-05-2.88484E-07-7.95848E-19 6.84739E-19
 -1      1029 9.49111E-05-2.80543E-05-2.86530E-05-1.96597E-07-1.88830E-19 6.17698E-19
 -1      1030 9.50113E-05-2.81812E-05-2.86415E-05-1.31093E-07 4.16906E-19 1.24618E-18
 -1      1031 9.50862E-05-2.82836E-05-2.86297E-05-8.50267E-08 9.78436E-19 4.89858E-20
 -1      1032 9.51411E-05-2.83654E-05-2.86182E-05-5.18318E-08 4.79605E-19 5.65438E-19
 -1      1033 9.51762E-05-2.84264E-05-2.86072E-05-5.14368E-09 1.18109E-18 4.36044E-18
 -1      1034 9.33128E-05-2.63875E-05-2.86824E-05 3.05994E-07-8.14179E-19-8.00450E-19
 -1      1035 9.38490E-05-2.68855E-05-2.86987E-05 3.41636E-07-9.97711E-19-2.53760E-19
 -1      1036 9.26020E-05-2.57768E-05-2.86394E-05 1.68281E-07 9.52132E-19-9.44194E-19
 -1      1037 9.45442E-05-2.76002E-05-2.86904E-05 2.78095E-07 6.98870E-19 9.54355E-19
 -1      1038 9.47599E-05-2.78468E-05-2.86771E-05 2.25217E-07 4.07791E-19 5.62386E-19
 -1      1039 9.49154E-05-2.80376E-05-2.86620E-05 1.73621E-07 1.07891E-18 1.17476E-18
 -1      1040 9.50215E-05-2.81774E-05-2.86475E-05 1.29882E-07 1.22423E-18 1.28401E-18
 -1      1041 9.51002E-05-2.82898E-05-2.86331E-05 9.16556E-08 1.89114E-18 2.02118E-18
 -1      1042 9.51540E-05-2.83744E-05-2.86198E-05 6.13668E-08 2.16841E-18-1.12275E-18
 -1      1043 8.63250E-05-2.26652E-05-2.72744E-05 6.74651E-06 4.37181E-19-1.84232E-19
 -1      1044 8.02246E-05-2.14222E-05-2.51889E-05-1.43118E-05 2.86249E-19 4.29591E-20
 -1      1045 9.42490E-05-2.72846E-05-2.86991E-05 3.22626E-07 1.15240E-19 2.06909E-19
 -1      1046 1.02515E-04-3.84282E-05-2.74564E-05-1.42947E-05-6.56952E-19-4.83995E-19
 -1      1047 8.90186E-05-2.32940E-05-2.81670E-05-1.70355E-06 2.09096E-21-2.97099E-18
 -1      1048 8.33804E-05-2.13964E-05-2.65603E-05-8.81418E-06-5.09121E-19-1.35289E-18
 -1      1049 8.56690E-05-2.18378E-05-2.73544E-05-5.30573E-06-3.91717E-19-2.26608E-18
 -1      1050 8.91339E-05-2.90678E-05-2.57347E-05-1.79700E-05-2.76810E-19-5.03051E-19
 -1      1051 1.12539E-04-4.40421E-05-2.93725E-05-6.31461E-06 1.00217E-18 1.01568E-18
 -1      1052 8.74463E-05-2.24955E-05-2.78338E-05-3.15977E-06-9.63216E-20-1.88459E-18
 -1      1053 9.49073E-05-2.58984E-05-2.95750E-05 2.45495E-06 3.13839E-19-1.20428E-18
 -1      1054 1.01908E-04-3.91339E-05-2.69024E-05 1.76400E-05 1.30139E-18 3.92479E-19
 -1      1055 1.07346E-04-4.40971E-05-2.71288E-05 1.87938E-05 1.17777E-18 9.12986E-19
 -1      1056 8.84890E-05-2.30644E-05-2.80380E-05 3.86434E-06 3.55036E-19-1.65928E-19
 -1      1057 9.36607E-05-2.34144E-05-3.01060E-05 8.86788E-07 7.48016E-19-1.19513E-18
 -1      1058 9.04987E-05-2.42126E-05-2.84078E-05-7.22428E-07-1.38004E-19-2.91508E-18
 -1      1059 9.05421E-05-2.30824E-05-2.89109E-05-5.46850E-07 4.35240E-19-5.29916E-19
 -1      1060 9.16900E-05-2.50594E-05-2.85565E-05-1.35030E-07-9.73937E-19-1.88088E-18
 -1      1061 9.21897E-05-2.36924E-05-2.93562E-05-8.13933E-07 5.79153E-19-2.18737E-19
 -1      1062 9.51364E-05-2.83566E-05-2.86198E-05 2.71021E-08 2.90705E-18 4.44032E-18
 -1      1063 9.35202E-05-2.27844E-05-3.03161E-05 4.57280E-07 9.37655E-19-6.64469E-19
 -1      1064 9.56091E-05-3.28811E-05-2.68745E-05 1.50948E-05 1.41223E-18-3.70924E-19
 -1      1065 1.09288E-04-4.21671E-05-2.87784E-05-8.19727E-06 3.79359E-19 1.50044E-18
 -1      1066 9.51277E-05-2.83478E-05-2.86199E-05-7.83293E-09 1.11414E-18 1.22501E-18
 -1      1067 9.41716E-05-2.75603E-05-2.85471E-05 5.58606E-06-5.45939E-23-8.75507E-19
 -1      1068 9.46560E-05-2.89857E-05-2.81480E-05 7.67511E-06 6.06746E-20-6.22616E-19
 -1      1069 9.61808E-05-3.13044E-05-2.77972E-05 1.01762E-05 6.38970E-19-4.55977E-19
 -1      1070 9.15371E-05-2.86332E-05-2.69633E-05 1.25152E-05 1.02903E-18-6.34629E-19
 -1      1071 9.74938E-05-3.35739E-05-2.74013E-05-1.23708E-05-1.13214E-18-2.38774E-19
 -1      1072 9.45785E-05-3.01744E-05-2.76013E-05-9.66433E-06 3.27954E-19-1.96132E-19
 -1      1073 9.31151E-05-2.81115E-05-2.78562E-05-7.20971E-06 4.50223E-19 1.59134E-18
 -1      1074 9.25455E-05-2.69861E-05-2.80951E-05-5.19538E-06 7.41297E-19 1.49589E-18
 -1      1075 9.24872E-05-2.64776E-05-2.82888E-05-3.64720E-06 7.18085E-20 9.50863E-19
 -1      1076 9.27048E-05-2.63554E-05-2.84350E-05-2.50432E-06-9.33961E-19-3.48643E-19
 -1      1077 9.30436E-05-2.64574E-05-2.85365E-05-1.69226E-06-1.93495E-18-4.70153E-19
 -1      1078 9.34263E-05-2.66844E-05-2.86032E-05-1.12871E-06-1.25338E-18 5.09040E-19
 -1      1079 9.37895E-05-2.69555E-05-2.86429E-05-7.42949E-07-1.38794E-18 1.14364E-18
 -1      1080 9.41136E-05-2.72329E-05-2.86629E-05-4.83696E-07-1.69236E-18 7.94786E-19
 -1      1081 9.43881E-05-2.74924E-05-2.86695E-05-3.11880E-07-9.94105E-19-1.77294E-19
 -1      1082 9.46119E-05-2.77216E-05-2.86672E-05-1.99146E-07-8.91507E-19-6.48565E-19
 -1      1083 9.47888E-05-2.79164E-05-2.86595E-05-1.25718E-07-2.96580E-19 5.29823E-19
 -1      1084 9.49245E-05-2.80767E-05-2.86490E-05-7.82388E-08 3.39945E-19 5.35470E-19
 -1      1085 9.50256E-05-2.82052E-05-2.86373E-05-4.75642E-08 8.86059E-19 1.40423E-20
 -1      1086 9.50823E-05-2.82822E-05-2.86286E-05-2.40291E-08 1.43420E-18 6.77080E-19
 -1      1087 9.35898E-05-2.67101E-05-2.86629E-05-1.37721E-07-2.15633E-18-1.07011E-18
 -1      1088 9.30455E-05-2.62527E-05-2.86256E-05-3.73332E-07-2.32825E-19-1.17397E-18
 -1      1089 9.47988E-05-2.79166E-05-2.86638E-05 6.97700E-08 6.54897E-19 1.80199E-18
 -1      1090 9.46080E-05-2.77011E-05-2.86744E-05 6.90993E-08 1.63910E-19 2.00850E-18
 -1      1091 9.50364E-05-2.82127E-05-2.86387E-05 4.91085E-08 1.96663E-18 2.13652E-18
 -1      1092 9.50929E-05-2.82919E-05-2.86290E-05 3.70009E-08 2.67727E-18 1.98331E-18
 -1      1093 8.83872E-05-2.48882E-05-2.72173E-05-8.76004E-06 1.06397E-18 6.67387E-19
 -1      1094 9.41254E-05-2.65742E-05-2.89543E-05 3.93473E-06 2.60399E-19-1.21509E-18
 -1      1095 8.81874E-05-2.62077E-05-2.65664E-05-1.27722E-05 3.01498E-19 9.00241E-19
 -1      1096 9.36080E-05-2.44587E-05-2.96364E-05 1.57914E-06 2.58087E-19-1.11308E-18
 -1      1097 9.49364E-05-2.80828E-05-2.86515E-05 6.09310E-08 2.78023E-19 2.57535E-18
 -1      1098 9.37373E-05-2.54166E-05-2.92812E-05 2.63648E-06 3.03035E-19-1.03453E-18
 -1      1099 9.03925E-05-2.35802E-05-2.86366E-05 1.98613E-06 4.09418E-19 1.58699E-19
 -1      1100 9.23888E-05-2.57557E-05-2.85576E-05-7.69904E-07-1.39411E-19-2.06608E-18
 -1      1101 9.43535E-05-2.74324E-05-2.86805E-05 4.78869E-08-1.24382E-18 7.38775E-19
 -1      1102 8.89150E-05-2.43899E-05-2.76565E-05-6.02958E-06 9.88528E-20-1.32518E-18
 -1      1103 9.06839E-05-2.47400E-05-2.82632E-05-2.45644E-06-7.00249E-19-1.25172E-18
 -1      1104 8.97711E-05-2.44169E-05-2.80105E-05-3.92991E-06 1.90576E-19-1.60903E-18
 -1      1105 9.32774E-05-2.37758E-05-2.97854E-05 5.82793E-07 6.40706E-19-6.04861E-19
 -1      1106 9.14987E-05-2.68414E-05-2.77140E-05 8.42964E-06 1.65764E-19-7.23774E-19
 -1      1107 9.40199E-05-2.71035E-05-2.86785E-05-1.16682E-08-2.19617E-18-4.24648E-19
 -1      1108 9.22800E-05-2.54158E-05-2.86515E-05 4.01031E-06 1.50633E-19-1.16052E-18
 -1      1109 9.23748E-05-2.40849E-05-2.92665E-05 1.08321E-06 3.42185E-19-4.06799E-19
 -1      1110 9.18683E-05-2.54577E-05-2.84612E-05-1.48726E-06-5.90162E-19-1.39450E-18
 -1      1111 9.14528E-05-2.54723E-05-2.82786E-05 5.34502E-06 5.57395E-19-7.91811E-19
 -1      1112 1.16581E-04 2.57077E-10-4.17874E-05-4.11920E-05-3.48978E-19 2.32765E-18
 -1      1113 8.87201E-05 7.25031E-11-3.72669E-05-2.38395E-05-1.20385E-19-2.96668E-18
 -1      1114 8.42247E-05 4.18671E-11-3.58184E-05-1.74749E-05-5.23572E-20-4.52674E-18
 -1      1115 8.24771E-05 3.21294E-11-3.51282E-05-1.33933E-05-2.13082E-20-4.90731E-18
 -1      1116 8.16272E-05 2.70497E-11-3.47790E-05-1.00935E-05-1.25731E-21-4.84294E-18
 -1      1117 8.11579E-05 2.39401E-11-3.45912E-05-7.25269E-06 8.27181E-21-4.53443E-18
 -1      1118 8.08869E-05 2.19421E-11-3.44857E-05-4.68807E-06 2.18442E-20-4.18864E-18
 -1      1119 8.07405E-05 2.07810E-11-3.44306E-05-2.27428E-06 3.09630E-20-3.80783E-18
 -1      1120 8.06959E-05 2.03578E-11-3.44146E-05 5.14028E-08 4.00835E-20-3.39364E-18
 -1      1121 8.07475E-05 2.06609E-11-3.44347E-05 2.37019E-06 4.41450E-20-2.96380E-18
 -1      1122 8.09041E-05 2.17501E-11-3.44947E-05 4.76620E-06 5.03323E-20-2.46744E-18
 -1      1123 8.11913E-05 2.37328E-11-3.46059E-05 7.30999E-06 6.72465E-20-1.85496E-18
 -1      1124 8.16757E-05 2.69500E-11-3.47999E-05 1.01355E-05 7.39963E-20-1.10007E-18
 -1      1125 8.25395E-05 3.21797E-11-3.51539E-05 1.34342E-05 8.00446E-20 8.99708E-20
 -1      1126 8.42974E-05 4.21039E-11-3.58481E-05 1.75327E-05 9.48148E-20 1.96234E-18
 -1      1127 8.88138E-05 7.28689E-11-3.73029E-05 2.39203E-05 8.05740E-20 5.11682E-18
 -1      1128 1.16775E-04 2.57636E-10-4.17323E-05 4.14378E-05-1.35525E-20 1.05007E-17
 -1      1129 1.29804E-04-2.57075E-05-4.01890E-05-2.59234E-05-1.16044E-18 5.42694E-18
 -1      1130 9.74546E-05-2.88646E-05-3.15761E-05-6.51377E-07-3.97206E-19 2.79267E-18
 -1      1131 9.04598E-05-2.71196E-05-2.79797E-05 3.92728E-07-1.78459E-19-5.15658E-19
 -1      1132 8.88244E-05-2.67475E-05-2.68180E-05 2.55253E-07-1.09383E-19-2.54465E-18
 -1      1133 8.87740E-05-2.67131E-05-2.66570E-05 1.72166E-07-7.16901E-20-3.91202E-18
 -1      1134 8.94954E-05-2.68982E-05-2.68516E-05 1.27425E-07-5.04853E-20-4.65611E-18
 -1      1135 9.06043E-05-2.72085E-05-2.71804E-05 1.00679E-07 1.45832E-20-5.38226E-18
 -1      1136 9.18898E-05-2.75797E-05-2.75613E-05 8.32772E-08 1.10023E-20-6.17732E-18
 -1      1137 9.32051E-05-2.79640E-05-2.79485E-05 7.02727E-08-7.93317E-20-6.45308E-18
 -1      1138 9.44190E-05-2.83195E-05-2.83022E-05 5.80415E-08-5.47544E-20-7.49524E-18
 -1      1139 9.53898E-05-2.86026E-05-2.85797E-05 4.31517E-08 3.89031E-20-8.26110E-18
 -1      1140 9.59523E-05-2.87635E-05-2.87318E-05 2.20668E-08-2.86577E-20-7.60068E-18
 -1      1141 9.59197E-05-2.87470E-05-2.87047E-05-8.37161E-09-6.63763E-20-8.10590E-18
 -1      1142 9.51075E-05-2.84991E-05-2.84479E-05-4.96498E-08-4.44874E-20-8.78531E-18
 -1      1143 9.33823E-05-2.79821E-05-2.79283E-05-9.96113E-08-7.78394E-20-9.24051E-18
 -1      1144 9.07346E-05-2.71954E-05-2.71507E-05-1.50534E-07 5.88473E-20-9.17620E-18
 -1      1145 8.73553E-05-2.61973E-05-2.61769E-05-1.88798E-07-1.14120E-19-9.38322E-18
 -1      1146 8.36781E-05-2.51164E-05-2.51334E-05-1.97974E-07-3.15073E-20-9.74718E-18
 -1      1147 8.03398E-05-2.41391E-05-2.41977E-05-1.65820E-07-6.16216E-20-1.02874E-17
 -1      1148 7.80371E-05-2.34670E-05-2.35582E-05-9.23781E-08 1.33748E-19-9.89324E-18
 -1      1149 7.73111E-05-2.32559E-05-2.33585E-05 6.38080E-09-1.91572E-19-8.16099E-18
 -1      1150 7.83533E-05-2.35607E-05-2.36493E-05 1.03527E-07-8.38132E-20-7.59165E-18
 -1      1151 8.09338E-05-2.43156E-05-2.43703E-05 1.72960E-07-9.38420E-20-7.60546E-18
 -1      1152 8.44925E-05-2.53595E-05-2.53730E-05 2.00696E-07-1.49665E-19-7.85485E-18
 -1      1153 8.83426E-05-2.64933E-05-2.64714E-05 1.88670E-07-1.36877E-19-8.13496E-18
 -1      1154 9.18800E-05-2.75403E-05-2.74968E-05 1.50182E-07-2.50123E-20-6.74431E-18
 -1      1155 9.47139E-05-2.83841E-05-2.83340E-05 1.01686E-07-4.65239E-20-6.02640E-18
 -1      1156 9.66932E-05-2.89780E-05-2.89327E-05 5.62632E-08-1.47801E-19-6.77905E-18
 -1      1157 9.78567E-05-2.93314E-05-2.92968E-05 2.10515E-08-1.60289E-19-7.49719E-18
 -1      1158 9.83545E-05-2.94870E-05-2.94643E-05-2.11579E-09-4.18611E-20-7.20978E-18
 -1      1159 9.83758E-05-2.94997E-05-2.94874E-05-1.47036E-08-4.04469E-19-7.52915E-18
 -1      1160 9.81002E-05-2.94226E-05-2.94179E-05-1.95253E-08 1.75679E-20-7.88911E-18
 -1      1161 9.76727E-05-2.92986E-05-2.92987E-05-1.94515E-08 1.35570E-19-8.06205E-18
 -1      1162 9.71969E-05-2.91589E-05-2.91616E-05-1.67927E-08 2.71026E-19-6.90115E-18
 -1      1163 9.67391E-05-2.90234E-05-2.90271E-05-1.31441E-08 6.94836E-20-5.92474E-18
 -1      1164 9.63353E-05-2.89033E-05-2.89070E-05-9.46781E-09 1.43153E-19-6.55205E-18
 -1      1165 9.60009E-05-2.88033E-05-2.88066E-05-6.25653E-09-1.44733E-19-5.39179E-18
 -1      1166 9.57377E-05-2.87243E-05-2.87270E-05-3.69604E-09-2.20816E-19-4.42043E-18
 -1      1167 9.55398E-05-2.86646E-05-2.86666E-05-1.79379E-09-1.08404E-19-5.89820E-19
 -1      1168 9.53977E-05-2.86216E-05-2.86230E-05-4.68078E-10-2.05891E-19-1.03679E-18
 -1      1169 9.53009E-05-2.85922E-05-2.85931E-05 3.96112E-10-2.08376E-19-2.34555E-18
 -1      1170 9.52395E-05-2.85733E-05-2.85739E-05 9.15655E-10-4.47335E-19-6.24353E-18
 -1      1171 9.52046E-05-2.85625E-05-2.85629E-05 1.19382E-09 3.17419E-19-7.44945E-18
 -1      1172 9.51891E-05-2.85576E-05-2.85577E-05 1.31441E-09 3.03911E-19-3.29993E-18
 -1      1173 9.51869E-05-2.85567E-05-2.85567E-05 1.34060E-09 1.83572E-19-1.21066E-18
 -1      1174 9.51937E-05-2.85585E-05-2.85584E-05 1.31481E-09 1.64982E-19-7.13760E-20
 -1      1175 9.52055E-05-2.85619E-05-2.85617E-05 1.25371E-09-1.11333E-19-1.33373E-18
 -1      1176 9.52193E-05-2.85658E-05-2.85655E-05 1.11029E-09 5.82949E-19-1.42070E-18
 -1      1177 9.52313E-05-2.85693E-05-2.85688E-05 7.64115E-10-2.64197E-19-1.15681E-18
 -1      1178 9.52370E-05-2.85712E-05-2.85708E-05-1.72331E-11 8.75529E-20-5.58343E-19
 -1      1179 1.30863E-04-2.57635E-05-4.02972E-05 2.66681E-05 2.95403E-19 1.42725E-17
 -1      1180 9.80675E-05-2.90164E-05-3.18180E-05 8.32370E-07 1.18108E-19 1.34571E-17
 -1      1181 9.05535E-05-2.71335E-05-2.80615E-05-3.91326E-07 5.98349E-20 1.16010E-17
 -1      1182 8.88310E-05-2.67527E-05-2.68393E-05-2.53959E-07 5.70722E-20 9.73895E-18
 -1      1183 8.88096E-05-2.67293E-05-2.66785E-05-1.67933E-07-1.75065E-20 8.86936E-18
 -1      1184 8.96601E-05-2.69634E-05-2.69134E-05-1.24435E-07 4.90965E-20 8.27850E-18
 -1      1185 9.10662E-05-2.73655E-05-2.73428E-05-9.60038E-08 5.49612E-20 7.65821E-18
 -1      1186 9.29999E-05-2.79389E-05-2.79354E-05-8.26533E-08 5.52308E-20 7.44590E-18
 -1      1187 9.54816E-05-2.86843E-05-2.87002E-05-8.27016E-08 1.68215E-20 7.11228E-18
 -1      1188 9.86880E-05-2.96518E-05-2.96944E-05-9.96392E-08 6.56087E-20 6.78098E-18
 -1      1189 1.02929E-04-3.09288E-05-3.10155E-05-1.43135E-07-4.20307E-20 7.04747E-18
 -1      1190 1.08496E-04-3.26123E-05-3.27472E-05-2.25849E-07 5.86967E-20 7.01417E-18
 -1      1191 1.16046E-04-3.48769E-05-3.50848E-05-3.57549E-07-1.14614E-20 7.50609E-18
 -1      1192 1.26412E-04-3.79821E-05-3.82194E-05-5.69988E-07 2.70554E-20 7.26754E-18
 -1      1193 1.39604E-04-4.19311E-05-4.20227E-05-8.25241E-07-5.12703E-20 6.07979E-18
 -1      1194 1.54290E-04-4.63289E-05-4.58812E-05-9.38400E-07-1.50401E-19 5.73102E-18
 -1      1195 1.65750E-04-4.97354E-05-4.83248E-05-3.83976E-07-1.79730E-20 6.29248E-18
 -1      1196 1.64973E-04-4.93599E-05-4.74139E-05 1.50353E-06-2.84841E-19 8.35492E-18
 -1      1197 1.45770E-04-4.30786E-05-4.27521E-05 3.97369E-06-3.27378E-19 1.10512E-17
 -1      1198 1.10885E-04-3.25800E-05-3.56077E-05 5.14364E-06-5.53218E-21 1.20660E-17
 -1      1199 8.24893E-05-2.42029E-05-3.04784E-05 1.59502E-06-1.06779E-19 1.15283E-17
 -1      1200 8.79836E-05-2.61374E-05-3.13217E-05-3.52230E-06 3.20337E-19 9.56914E-18
 -1      1201 1.18750E-04-3.51241E-05-3.70671E-05-5.19683E-06 9.78058E-21 6.00928E-18
 -1      1202 1.51278E-04-4.48693E-05-4.39044E-05-3.37179E-06 2.16205E-19 2.56905E-18
 -1      1203 1.67232E-04-4.99493E-05-4.81251E-05-8.66271E-07 4.41251E-20 2.44369E-18
 -1      1204 1.65026E-04-4.95174E-05-4.83307E-05 5.87870E-07 8.90179E-20 3.83963E-18
 -1      1205 1.52538E-04-4.58091E-05-4.55117E-05 9.44344E-07 9.53706E-20 2.50277E-18
 -1      1206 1.38478E-04-4.15918E-05-4.17488E-05 7.66207E-07 1.71203E-19 1.54372E-18
 -1      1207 1.26362E-04-3.79695E-05-3.82143E-05 5.30820E-07-1.68603E-19 3.61450E-18
 -1      1208 1.16840E-04-3.51156E-05-3.53222E-05 3.19212E-07 4.38479E-19 2.81734E-18
 -1      1209 1.10009E-04-3.30616E-05-3.32017E-05 1.82373E-07 6.88876E-21 1.47834E-18
 -1      1210 1.05249E-04-3.16245E-05-3.17111E-05 1.00631E-07 8.42996E-20 1.44644E-18
 -1      1211 1.01977E-04-3.06313E-05-3.06838E-05 5.33612E-08-8.62915E-20 2.80504E-18
 -1      1212 9.97844E-05-2.99688E-05-2.99959E-05 2.32045E-08-1.68469E-19 4.10180E-18
 -1      1213 9.82770E-05-2.95057E-05-2.95238E-05 1.37102E-08 1.02425E-19 3.76533E-18
 -1      1214 9.72161E-05-2.91815E-05-2.91919E-05 5.57468E-09-1.05342E-19 3.03432E-18
 -1      1215 9.64946E-05-2.89605E-05-2.89666E-05 1.23751E-09 1.31289E-19 1.18694E-18
 -1      1216 9.60064E-05-2.88107E-05-2.88142E-05-1.00503E-09 3.63176E-19-1.43857E-18
 -1      1217 9.56794E-05-2.87100E-05-2.87122E-05-2.12633E-09-2.86103E-19-1.82495E-19
 -1      1218 9.54683E-05-2.86455E-05-2.86462E-05-2.98246E-09 1.70792E-20 2.21717E-18
 -1      1219 9.53319E-05-2.86029E-05-2.86035E-05-2.60891E-09 3.57323E-19 2.47931E-18
 -1      1220 9.52455E-05-2.85761E-05-2.85763E-05-2.50290E-09 2.56200E-19 3.04106E-18
 -1      1221 9.51968E-05-2.85608E-05-2.85608E-05-2.31914E-09-1.21640E-19 3.11195E-18
 -1      1222 9.51737E-05-2.85533E-05-2.85533E-05-2.10597E-09-3.02527E-19 1.90935E-18
 -1      1223 9.51679E-05-2.85512E-05-2.85511E-05-1.89768E-09-2.84696E-20-8.57362E-19
 -1      1224 9.51730E-05-2.85525E-05-2.85523E-05-1.73296E-09-2.08460E-19 6.71375E-19
 -1      1225 9.51848E-05-2.85558E-05-2.85556E-05-1.55786E-09-1.33095E-19 4.02423E-18
 -1      1226 9.52005E-05-2.85603E-05-2.85601E-05-1.40894E-09 1.10796E-19 2.03879E-18
 -1      1227 9.52170E-05-2.85651E-05-2.85648E-05-1.21942E-09-9.67029E-20-1.71815E-18
 -1      1228 9.52308E-05-2.85691E-05-2.85686E-05-7.94601E-10-5.84184E-19-8.09222E-19
 -1      1229 9.52370E-05-2.85711E-05-2.85709E-05 5.68401E-11-1.47432E-19-1.89464E-18
 -1      1230 9.52371E-05-2.85714E-05-2.85709E-05-2.39177E-10-1.30025E-18-8.92435E-19
 -1      1231 9.52391E-05-2.85775E-05-2.85687E-05-7.80796E-10-2.69783E-18 2.14581E-19
 -1      1232 9.52428E-05-2.85899E-05-2.85654E-05-9.94476E-10-1.91124E-18-2.18090E-19
 -1      1233 9.52466E-05-2.86030E-05-2.85618E-05-8.34070E-10-2.61802E-18-7.82769E-19
 -1      1234 9.52499E-05-2.86138E-05-2.85587E-05-5.76574E-10 5.94504E-19 1.43839E-18
 -1      1235 9.52521E-05-2.86212E-05-2.85565E-05-3.29301E-10-5.95599E-19-6.29733E-19
 -1      1236 9.52533E-05-2.86253E-05-2.85552E-05-1.51527E-10-5.17141E-18-1.02685E-19
 -1      1237 9.52538E-05-2.86269E-05-2.85546E-05-2.40637E-11-6.86034E-18-5.63357E-19
 -1      1238 9.52537E-05-2.86266E-05-2.85547E-05 6.06513E-11-7.48905E-18-5.34238E-19
 -1      1239 9.52532E-05-2.86247E-05-2.85552E-05 1.31758E-10-5.12168E-18 2.27093E-19
 -1      1240 9.52522E-05-2.86214E-05-2.85563E-05 2.20791E-10-2.87120E-18-1.07996E-18
 -1      1241 9.52506E-05-2.86163E-05-2.85578E-05 3.50412E-10-7.51775E-18 5.00736E-19
 -1      1242 9.52484E-05-2.86090E-05-2.85600E-05 5.27702E-10-7.51139E-18 4.98244E-21
 -1      1243 9.52455E-05-2.85992E-05-2.85629E-05 7.42282E-10-7.57774E-18 3.84064E-19
 -1      1244 9.52421E-05-2.85876E-05-2.85661E-05 1.02537E-09-2.78140E-18 2.78116E-19
 -1      1245 9.52391E-05-2.85770E-05-2.85689E-05 8.02739E-10 1.04448E-18-3.86591E-19
 -1      1246 9.52371E-05-2.85714E-05-2.85709E-05 1.75010E-10 4.17788E-20 1.31459E-19
 -1      1247 3.78795E-05-1.21196E-04 2.15606E-05-1.75914E-05 3.71106E-18 3.87518E-19
 -1      1248 2.13304E-05-8.65039E-05 1.45614E-05-3.62010E-05 6.26381E-18 2.75963E-18
 -1      1249 6.94723E-06-2.84564E-05-8.87053E-07-1.75748E-05 7.42848E-18 4.36730E-18
 -1      1250 2.71367E-05 1.35530E-05-2.22280E-05 3.50662E-05 8.52115E-18 7.54706E-18
 -1      1251 1.04232E-04 1.07689E-05-4.63955E-05 9.45162E-05 4.11658E-18 5.29904E-18
 -1      1252 2.27025E-04-3.73682E-05-6.89667E-05 1.17994E-04 6.00546E-19-1.15705E-18
 -1      1253 3.37054E-04-9.36044E-05-8.42166E-05 7.28134E-05-1.04852E-18-7.40561E-18
 -1      1254 3.69147E-04-1.10526E-04-8.83510E-05-1.84317E-05 9.12837E-19-1.30324E-17
 -1      1255 3.05238E-04-7.64323E-05-8.01021E-05-9.73939E-05 4.45582E-18-1.67882E-17
 -1      1256 1.82341E-04-1.66513E-05-6.18878E-05-1.16698E-04 7.92653E-18-1.61885E-17
 -1      1257 7.41061E-05 1.71754E-05-3.87812E-05-7.84410E-05 8.69056E-18-1.16399E-17
 -1      1258 1.66991E-05 3.97100E-06-1.53840E-05-1.75001E-05 6.83725E-18-6.02749E-18
 -1      1259 9.23252E-06-4.63980E-05 4.78038E-06 2.77493E-05 2.57837E-18-1.77919E-18
 -1      1260 2.80854E-05-1.01080E-04 1.76798E-05 3.39038E-05-1.65764E-18 4.27010E-19
 -1      1261 4.07145E-05-1.24846E-04 2.20424E-05 8.07830E-06-4.44872E-18-2.65227E-20
 -1      1262 3.15030E-05-1.01875E-04 1.75441E-05-1.96324E-05-9.56639E-18-2.03034E-18
 -1      1263 1.22045E-05-4.41964E-05 4.61258E-06-1.80580E-05-1.28139E-17-5.44261E-18
 -1      1264 1.21821E-05 1.04204E-05-1.36982E-05 1.98817E-05-1.24683E-17-8.29330E-18
 -1      1265 5.73090E-05 2.87985E-05-3.51288E-05 7.72465E-05-9.17337E-18-9.49693E-18
 -1      1266 1.43744E-04 3.25434E-06-5.56624E-05 1.17718E-04-5.40661E-18-8.60755E-18
 -1      1267 2.37152E-04-4.53202E-05-7.06645E-05 1.09940E-04-2.27682E-18-6.01478E-18
 -1      1268 3.05871E-04-8.67897E-05-7.97281E-05 5.78730E-05-8.54894E-19-2.36449E-18
 -1      1269 3.20422E-04-9.59370E-05-8.16070E-05-2.09668E-05-8.61565E-19 4.36222E-18
 -1      1270 2.73046E-04-6.65323E-05-7.55129E-05-9.18340E-05-2.74481E-18 1.02152E-17
 -1      1271 1.80966E-04-1.43327E-05-6.21960E-05-1.19244E-04-5.21603E-18 1.08827E-17
 -1      1272 8.82945E-05 2.45889E-05-4.41041E-05-9.92382E-05-5.70985E-18 7.27432E-18
 -1      1273 2.66060E-05 2.65630E-05-2.41487E-05-4.81712E-05-1.60259E-18 1.76860E-18
 -1      1274 7.45417E-06-1.11010E-05-4.86574E-06 1.58575E-06 3.60158E-18-1.63223E-18
 -1      1275 1.90933E-05-6.80986E-05 1.04854E-05 2.38486E-05 4.63242E-18-1.66188E-18
 -1      1276 3.64921E-05-1.13631E-04 1.97875E-05 1.23152E-05 5.08813E-18-3.54801E-19
 -1      1277 1.04355E-04-2.19995E-05-3.78507E-05-1.70941E-05-4.72221E-19 6.90332E-19
 -1      1278 9.04730E-05-6.74212E-06-3.60516E-05-2.01039E-05-7.63759E-19-3.72197E-18
 -1      1279 9.27635E-05-6.81244E-06-3.72276E-05-2.54134E-05-1.14053E-18-2.90426E-18
 -1      1280 8.60850E-05-4.13579E-06-3.51885E-05-1.59991E-05-4.74815E-19-4.71186E-18
 -1      1281 8.73339E-05-4.13470E-06-3.56497E-05-1.84434E-05-6.42898E-19-4.35041E-18
 -1      1282 9.23281E-05-1.05433E-05-3.51392E-05-1.86201E-05-1.21364E-18-3.23323E-18
 -1      1283 8.42385E-05-3.20110E-06-3.47427E-05-1.23614E-05-1.91085E-19-4.91636E-18
 -1      1284 8.48694E-05-3.17283E-06-3.49709E-05-1.41831E-05-2.89156E-19-4.88722E-18
 -1      1285 8.80528E-05-7.42809E-06-3.46354E-05-1.49585E-05-6.78831E-19-4.03667E-18
 -1      1286 8.32409E-05-2.69810E-06-3.45083E-05-9.24781E-06 5.45608E-20-4.72098E-18
 -1      1287 8.35953E-05-2.68394E-06-3.46282E-05-1.07792E-05-5.05573E-21-4.84193E-18
 -1      1288 8.59750E-05-5.95786E-06-3.43604E-05-1.14910E-05-2.32841E-19-4.15676E-18
 -1      1289 8.26552E-05-2.38950E-06-3.43800E-05-6.54163E-06 2.78191E-19-4.42780E-18
 -1      1290 8.28650E-05-2.38272E-06-3.44462E-05-7.87525E-06 1.86374E-19-4.58762E-18
 -1      1291 8.48156E-05-5.11842E-06-3.42113E-05-8.51313E-06 1.62240E-19-3.95448E-18
 -1      1292 8.22957E-05-2.18963E-06-3.43068E-05-4.02855E-06 4.29514E-19-4.09547E-18
 -1      1293 8.24210E-05-2.18698E-06-3.43441E-05-5.27227E-06 3.77777E-19-4.30584E-18
 -1      1294 8.41151E-05-4.59519E-06-3.41280E-05-5.86346E-06 5.06848E-19-3.76642E-18
 -1      1295 8.21066E-05-2.07355E-06-3.42719E-05-1.66470E-06 5.42849E-19-3.70202E-18
 -1      1296 8.21656E-05-2.07271E-06-3.42885E-05-2.84292E-06 5.00285E-19-3.92041E-18
 -1      1297 8.36954E-05-4.27315E-06-3.40822E-05-3.40803E-06 7.33349E-19-3.42106E-18
 -1      1298 8.20633E-05-2.03091E-06-3.42679E-05 6.32135E-07 6.61121E-19-3.29861E-18
 -1      1299 8.20631E-05-2.03103E-06-3.42669E-05-5.22159E-07 6.41829E-19-3.54403E-18
 -1      1300 8.34940E-05-4.11279E-06-3.40627E-05-1.08150E-06 9.63648E-19-3.06124E-18
 -1      1301 8.21645E-05-2.06039E-06-3.42943E-05 2.94182E-06 8.15137E-19-2.84251E-18
 -1      1302 8.21036E-05-2.06137E-06-3.42755E-05 1.77041E-06 7.62739E-19-3.08268E-18
 -1      1303 8.34885E-05-4.10035E-06-3.40656E-05 1.19683E-06 1.13298E-18-2.66777E-18
 -1      1304 8.24267E-05-2.16793E-06-3.43557E-05 5.34907E-06 9.35965E-19-2.35483E-18
 -1      1305 8.22958E-05-2.16989E-06-3.43155E-05 4.11612E-06 8.83869E-19-2.64509E-18
 -1      1306 8.36839E-05-4.24034E-06-3.40908E-05 3.50709E-06 1.38981E-18-2.25734E-18
 -1      1307 8.28815E-05-2.36092E-06-3.44630E-05 7.90441E-06 1.06109E-18-1.75542E-18
 -1      1308 8.26637E-05-2.36780E-06-3.43938E-05 6.58247E-06 1.00148E-18-2.11584E-18
 -1      1309 8.41067E-05-4.55118E-06-3.41423E-05 5.91399E-06 1.59291E-18-1.77010E-18
 -1      1310 8.36408E-05-2.67359E-06-3.46516E-05 1.08158E-05 1.20856E-18-9.11580E-19
 -1      1311 8.32758E-05-2.68821E-06-3.45288E-05 9.28968E-06 1.13942E-18-1.39469E-18
 -1      1312 8.48274E-05-5.08134E-06-3.42313E-05 8.53679E-06 1.78859E-18-1.14352E-18
 -1      1313 8.49390E-05-3.17727E-06-3.49977E-05 1.42198E-05 1.29045E-18 3.40931E-19
 -1      1314 8.42992E-05-3.20614E-06-3.47675E-05 1.23949E-05 1.21052E-18-4.08508E-19
 -1      1315 8.60268E-05-5.94924E-06-3.43852E-05 1.15214E-05 1.93440E-18-2.69965E-19
 -1      1316 8.74263E-05-4.15345E-06-3.56785E-05 1.85006E-05 1.26811E-18 2.33389E-18
 -1      1317 8.61697E-05-4.16013E-06-3.52150E-05 1.60431E-05 1.19201E-18 1.16017E-18
 -1      1318 8.81431E-05-7.45582E-06-3.46606E-05 1.49951E-05 1.99953E-18 1.07536E-18
 -1      1319 9.28317E-05-6.74480E-06-3.72352E-05 2.55421E-05 9.41901E-19 5.28909E-18
 -1      1320 9.05818E-05-6.78703E-06-3.60779E-05 2.01872E-05 9.06219E-19 3.63880E-18
 -1      1321 9.24682E-05-1.06301E-05-3.51585E-05 1.86832E-05 1.72419E-18 3.17452E-18
 -1      1322 1.04720E-04-2.19740E-05-3.79882E-05 1.74443E-05 6.11981E-20 9.93866E-18
 -1      1323 1.05161E-04-3.02439E-05-3.35214E-05-7.78572E-06-1.04609E-18 1.29511E-18
 -1      1324 9.84203E-05-2.79021E-05-3.08001E-05-4.84185E-06-8.63921E-19 7.77153E-20
 -1      1325 9.57545E-05-2.79261E-05-2.93273E-05-2.34535E-06-7.25854E-19-3.45087E-19
 -1      1326 9.36590E-05-2.76743E-05-2.83300E-05-1.90023E-06-6.84164E-19-1.46574E-18
 -1      1327 9.97225E-05-2.81327E-05-3.10490E-05-7.60219E-06-1.54308E-18-1.12904E-18
 -1      1328 9.20829E-05-2.73471E-05-2.77325E-05-6.86314E-07-5.70927E-19-1.72159E-18
 -1      1329 9.15107E-05-2.72939E-05-2.74740E-05-5.72233E-07-4.56954E-19-2.46706E-18
 -1      1330 9.51606E-05-2.78998E-05-2.89512E-05-2.82945E-06-1.15604E-18-1.65803E-18
 -1      1331 9.08905E-05-2.71479E-05-2.72716E-05 1.26585E-09-3.17829E-19-2.81408E-18
 -1      1332 9.09838E-05-2.72245E-05-2.72863E-05 6.50902E-08-2.91287E-19-3.25484E-18
 -1      1333 9.31982E-05-2.76932E-05-2.81053E-05-7.27199E-07-8.24904E-19-2.14366E-18
 -1      1334 9.08747E-05-2.72006E-05-2.72585E-05 3.59402E-07-2.92036E-19-3.41243E-18
 -1      1335 9.12828E-05-2.73500E-05-2.73774E-05 3.94572E-07-2.35707E-19-3.76309E-18
 -1      1336 9.25142E-05-2.76284E-05-2.78227E-05 3.09281E-07-5.62503E-19-2.60739E-18
 -1      1337 9.14575E-05-2.74039E-05-2.74360E-05 5.48090E-07-2.27753E-19-3.91520E-18
 -1      1338 9.20194E-05-2.75922E-05-2.75996E-05 5.65287E-07-1.64711E-19-4.20560E-18
 -1      1339 9.25777E-05-2.77120E-05-2.78095E-05 8.53439E-07-4.78021E-19-2.83989E-18
 -1      1340 9.23469E-05-2.76905E-05-2.77025E-05 6.31843E-07 1.94330E-20-4.34786E-18
 -1      1341 9.29681E-05-2.78935E-05-2.78825E-05 6.35660E-07-8.23252E-20-4.60707E-18
 -1      1342 9.30638E-05-2.78972E-05-2.79346E-05 1.12432E-06-2.67371E-19-3.14040E-18
 -1      1343 9.33616E-05-2.80124E-05-2.80035E-05 6.36226E-07-1.43402E-19-4.44113E-18
 -1      1344 9.39704E-05-2.82104E-05-2.81794E-05 6.27681E-07-2.37649E-19-4.72261E-18
 -1      1345 9.37670E-05-2.81394E-05-2.81280E-05 1.21095E-06-2.31447E-19-3.14682E-18
 -1      1346 9.43617E-05-2.83310E-05-2.82975E-05 5.66533E-07-3.17485E-19-4.72570E-18
 -1      1347 9.48894E-05-2.85043E-05-2.84492E-05 5.44342E-07-2.68633E-19-5.20240E-18
 -1      1348 9.45385E-05-2.84021E-05-2.83417E-05 1.14374E-06-4.06508E-19-2.97106E-18
 -1      1349 9.52149E-05-2.86086E-05-2.85447E-05 4.16679E-07-2.71145E-19-5.15844E-18
 -1      1350 9.55856E-05-2.87344E-05-2.86500E-05 3.78211E-07-1.72138E-19-5.48239E-18
 -1      1351 9.52507E-05-2.86512E-05-2.85351E-05 9.22194E-07-3.65397E-19-2.72277E-18
 -1      1352 9.57802E-05-2.88035E-05-2.87027E-05 1.76314E-07-4.46032E-20-5.75504E-18
 -1      1353 9.59077E-05-2.88545E-05-2.87366E-05 1.18939E-07-1.35889E-19-5.71185E-18
 -1      1354 9.57774E-05-2.88503E-05-2.86698E-05 5.31112E-07-2.48217E-19-3.43547E-18
 -1      1355 9.59038E-05-2.88674E-05-2.87265E-05-1.60294E-07-1.36938E-19-5.76093E-18
 -1      1356 9.56980E-05-2.88136E-05-2.86634E-05-2.37152E-07-1.18421E-19-6.08487E-18
 -1      1357 9.59879E-05-2.89573E-05-2.87080E-05-4.32115E-08-2.13254E-19-4.20625E-18
 -1      1358 9.54330E-05-2.87490E-05-2.85729E-05-5.82595E-07-1.20709E-19-6.13925E-18
 -1      1359 9.48168E-05-2.85626E-05-2.83918E-05-6.74708E-07-1.77109E-19-6.32166E-18
 -1      1360 9.57513E-05-2.89246E-05-2.86151E-05-7.92466E-07-2.93970E-19-4.18813E-18
 -1      1361 9.42481E-05-2.84033E-05-2.82108E-05-1.05087E-06-1.66693E-19-6.35936E-18
 -1      1362 9.31869E-05-2.80685E-05-2.79036E-05-1.14647E-06-2.96359E-19-6.68373E-18
 -1      1363 9.49590E-05-2.87050E-05-2.83662E-05-1.66234E-06-4.82882E-19-4.03967E-18
 -1      1364 9.23138E-05-2.78087E-05-2.76355E-05-1.48750E-06-2.17046E-19-6.60283E-18
 -1      1365 9.08513E-05-2.73349E-05-2.72170E-05-1.56620E-06 4.70500E-21-6.61858E-18
 -1      1366 9.35606E-05-2.82654E-05-2.79566E-05-2.53224E-06-2.57852E-19-4.04971E-18
 -1      1367 8.97385E-05-2.69891E-05-2.68844E-05-1.78126E-06-2.23157E-20-6.73787E-18
 -1      1368 8.80258E-05-2.64226E-05-2.63991E-05-1.81702E-06-2.45699E-19-6.93862E-18
 -1      1369 9.16109E-05-2.76076E-05-2.74114E-05-3.21309E-06-1.94497E-19-4.62644E-18
 -1      1370 8.68162E-05-2.60337E-05-2.60459E-05-1.81324E-06-1.06168E-19-6.91454E-18
 -1      1371 8.51127E-05-2.54607E-05-2.55673E-05-1.78288E-06-9.61482E-20-6.81811E-18
 -1      1372 8.93104E-05-2.67907E-05-2.67918E-05-3.48021E-06-2.41401E-19-4.25042E-18
 -1      1373 8.40157E-05-2.50984E-05-2.52532E-05-1.50381E-06-1.34797E-19-6.85767E-18
 -1      1374 8.26454E-05-2.46314E-05-2.48708E-05-1.39897E-06-8.43625E-20-7.14130E-18
 -1      1375 8.70094E-05-2.59412E-05-2.61915E-05-3.14776E-06-1.89411E-19-4.23886E-18
 -1      1376 8.18906E-05-2.43771E-05-2.46578E-05-8.62518E-07 3.53871E-19-6.89043E-18
 -1      1377 8.11550E-05-2.41239E-05-2.44536E-05-6.98755E-07 4.57365E-20-6.52578E-18
 -1      1378 8.51525E-05-2.52356E-05-2.57190E-05-2.16398E-06 1.04294E-19-4.06535E-18
 -1      1379 8.09217E-05-2.40436E-05-2.43888E-05-9.26295E-09 1.12000E-19-6.24609E-18
 -1      1380 8.09992E-05-2.40688E-05-2.44109E-05 1.75475E-07-1.68745E-21-5.78128E-18
 -1      1381 8.41579E-05-2.48491E-05-2.54711E-05-6.75808E-07 1.53167E-19-4.07806E-18
 -1      1382 8.13512E-05-2.41864E-05-2.45107E-05 8.56914E-07 7.71726E-20-5.32476E-18
 -1      1383 8.22327E-05-2.44865E-05-2.47567E-05 1.01629E-06 1.23382E-19-5.19877E-18
 -1      1384 8.42758E-05-2.48892E-05-2.55038E-05 9.90889E-07 2.85867E-19-3.75594E-18
 -1      1385 8.30940E-05-2.47731E-05-2.50016E-05 1.53278E-06-1.93461E-19-5.18919E-18
 -1      1386 8.45867E-05-2.52780E-05-2.54198E-05 1.63115E-06-3.06090E-20-5.43579E-18
 -1      1387 8.54934E-05-2.53496E-05-2.58145E-05 2.44422E-06-4.79533E-20-3.49113E-18
 -1      1388 8.57723E-05-2.56655E-05-2.57617E-05 1.88857E-06 7.88659E-20-5.39105E-18
 -1      1389 8.75729E-05-2.62667E-05-2.62694E-05 1.91361E-06-1.01335E-19-5.35987E-18
 -1      1390 8.75418E-05-2.61137E-05-2.63438E-05 3.37639E-06-7.20077E-20-3.19412E-18
 -1      1391 8.88570E-05-2.66750E-05-2.66469E-05 1.90483E-06 6.24960E-20-5.03148E-18
 -1      1392 9.06518E-05-2.72640E-05-2.71574E-05 1.86739E-06 2.09316E-19-4.80268E-18
 -1      1393 9.00005E-05-2.70054E-05-2.69946E-05 3.66659E-06 1.30382E-19-2.87897E-18
 -1      1394 9.18359E-05-2.76278E-05-2.75136E-05 1.65543E-06 2.20387E-19-4.82311E-18
 -1      1395 9.33839E-05-2.81249E-05-2.79584E-05 1.57960E-06 2.43075E-19-4.59048E-18
 -1      1396 9.24405E-05-2.78550E-05-2.76611E-05 3.38779E-06 3.91326E-19-2.43840E-18
 -1      1397 9.43387E-05-2.84061E-05-2.82532E-05 1.25842E-06-9.88315E-21-4.27899E-18
 -1      1398 9.55089E-05-2.87720E-05-2.85932E-05 1.16974E-06 2.75583E-20-4.13130E-18
 -1      1399 9.45364E-05-2.85468E-05-2.82557E-05 2.73479E-06 1.39575E-19-2.66175E-18
 -1      1400 9.61819E-05-2.89598E-05-2.88075E-05 8.27091E-07-2.86659E-19-4.21534E-18
 -1      1401 9.69470E-05-2.91905E-05-2.90329E-05 7.44738E-07-5.90306E-19-4.69676E-18
 -1      1402 9.61139E-05-2.90320E-05-2.87235E-05 1.92940E-06-3.30664E-19-2.19643E-18
 -1      1403 9.73470E-05-2.92932E-05-2.91658E-05 4.41455E-07-2.50429E-19-4.80422E-18
 -1      1404 9.77527E-05-2.94080E-05-2.92877E-05 3.75880E-07-3.27398E-20-4.86596E-18
 -1      1405 9.71379E-05-2.93156E-05-2.90446E-05 1.15055E-06-7.74631E-19-2.50780E-18
 -1      1406 9.79255E-05-2.94436E-05-2.93505E-05 1.42029E-07-3.99677E-20-5.03342E-18
 -1      1407 9.80535E-05-2.94718E-05-2.93915E-05 9.62557E-08 5.37982E-20-5.00735E-18
 -1      1408 9.76694E-05-2.94343E-05-2.92272E-05 5.06084E-07 1.34604E-19-3.23392E-18
 -1      1409 9.80594E-05-2.94606E-05-2.94013E-05-6.24225E-08-2.08698E-19-4.69340E-18
 -1      1410 9.79989E-05-2.94320E-05-2.93864E-05-9.00883E-08-1.24373E-19-4.69471E-18
 -1      1411 9.78175E-05-2.94351E-05-2.92961E-05 3.72492E-08 1.77099E-19-3.29941E-18
 -1      1412 9.78971E-05-2.93925E-05-2.93610E-05-1.82570E-07-2.57107E-19-4.24349E-18
 -1      1413 9.77266E-05-2.93325E-05-2.93130E-05-1.96000E-07-2.96958E-20-4.26154E-18
 -1      1414 9.77018E-05-2.93622E-05-2.92826E-05-2.61241E-07-4.36268E-19-2.04895E-18
 -1      1415 9.75665E-05-2.92790E-05-2.92676E-05-2.37566E-07-2.21379E-19-4.84278E-18
 -1      1416 9.73465E-05-2.92063E-05-2.92043E-05-2.41056E-07-6.45956E-20-4.82254E-18
 -1      1417 9.74293E-05-2.92515E-05-2.92169E-05-4.19333E-07-4.36692E-19-1.58912E-18
 -1      1418 9.71648E-05-2.91491E-05-2.91507E-05-2.47667E-07-3.92363E-21-4.91088E-18
 -1      1419 9.69367E-05-2.90760E-05-2.90843E-05-2.44991E-07 8.64282E-20-5.03964E-18
 -1      1420 9.70835E-05-2.91281E-05-2.91239E-05-4.74881E-07-1.24608E-19-2.63156E-18
 -1      1421 9.67580E-05-2.90216E-05-2.90305E-05-2.30338E-07 1.24769E-19-5.53237E-18
 -1      1422 9.65469E-05-2.89554E-05-2.89686E-05-2.24395E-07 1.14264E-19-5.67106E-18
 -1      1423 9.67235E-05-2.90083E-05-2.90223E-05-4.63532E-07-2.06284E-19-3.62848E-18
 -1      1424 9.63855E-05-2.89073E-05-2.89195E-05-1.98851E-07 1.43016E-19-5.66918E-18
 -1      1425 9.62041E-05-2.88513E-05-2.88660E-05-1.91644E-07 4.71658E-19-5.34401E-18
 -1      1426 9.63861E-05-2.89012E-05-2.89243E-05-4.14088E-07 2.30406E-19-4.95796E-18
 -1      1427 9.60670E-05-2.88111E-05-2.88239E-05-1.62323E-07 7.12604E-19-5.15094E-18
 -1      1428 9.59197E-05-2.87663E-05-2.87803E-05-1.55109E-07 1.03690E-19-4.23272E-18
 -1      1429 9.60913E-05-2.88109E-05-2.88368E-05-3.47417E-07 8.89154E-19-5.08739E-18
 -1      1430 9.58086E-05-2.87341E-05-2.87460E-05-1.26422E-07 5.20082E-19-3.95081E-18
 -1      1431 9.56947E-05-2.86999E-05-2.87121E-05-1.19893E-07 6.38187E-19-2.94117E-18
 -1      1432 9.58469E-05-2.87382E-05-2.87631E-05-2.77236E-07 6.86582E-19-3.88184E-18
 -1      1433 9.56084E-05-2.86751E-05-2.86854E-05-9.42414E-08 7.25601E-19-1.55540E-18
 -1      1434 9.55241E-05-2.86501E-05-2.86602E-05-8.87109E-08 5.53387E-19-9.24056E-19
 -1      1435 9.56530E-05-2.86819E-05-2.87039E-05-2.11631E-07 1.53605E-18-2.53918E-18
 -1      1436 9.54597E-05-2.86318E-05-2.86402E-05-6.71236E-08-5.66186E-19-6.19121E-19
 -1      1437 9.54003E-05-2.86144E-05-2.86223E-05-6.26611E-08-7.63651E-19-1.78523E-18
 -1      1438 9.55052E-05-2.86399E-05-2.86582E-05-1.54659E-07 7.48527E-19-1.75855E-18
 -1      1439 9.53543E-05-2.86014E-05-2.86080E-05-4.53109E-08-8.71113E-19-2.09121E-18
 -1      1440 9.53146E-05-2.85901E-05-2.85961E-05-4.18497E-08-1.14224E-18-3.46867E-18
 -1      1441 9.53970E-05-2.86098E-05-2.86244E-05-1.07722E-07-1.75104E-18-2.32451E-18
 -1      1442 9.52834E-05-2.85813E-05-2.85863E-05-2.84275E-08-1.15504E-18-4.03751E-18
 -1      1443 9.52590E-05-2.85745E-05-2.85789E-05-2.58353E-08-7.12505E-19-5.08260E-18
 -1      1444 9.53213E-05-2.85893E-05-2.86005E-05-7.06316E-08-1.65260E-18-2.59213E-18
 -1      1445 9.52392E-05-2.85690E-05-2.85727E-05-1.58073E-08 1.34916E-20-4.27049E-18
 -1      1446 9.52262E-05-2.85656E-05-2.85687E-05-1.39311E-08 6.42514E-19-4.25049E-18
 -1      1447 9.52712E-05-2.85761E-05-2.85844E-05-4.23624E-08-2.22335E-19-2.25802E-18
 -1      1448 9.52149E-05-2.85625E-05-2.85651E-05-6.70385E-09 9.20229E-19-3.22587E-18
 -1      1449 9.52101E-05-2.85615E-05-2.85635E-05-5.39736E-09 1.26597E-18-1.61818E-18
 -1      1450 9.52406E-05-2.85684E-05-2.85743E-05-2.15531E-08 1.78557E-18-1.47646E-18
 -1      1451 9.52049E-05-2.85601E-05-2.85619E-05-4.18744E-10 8.60729E-19-1.31459E-18
 -1      1452 9.52056E-05-2.85607E-05-2.85620E-05 4.42089E-10 5.66612E-19-4.79542E-19
 -1      1453 9.52244E-05-2.85648E-05-2.85688E-05-6.82297E-09 1.79606E-18-4.81507E-19
 -1      1454 9.52047E-05-2.85606E-05-2.85617E-05 3.62110E-09 6.73531E-19 1.80163E-20
 -1      1455 9.52089E-05-2.85622E-05-2.85628E-05 4.12800E-09 1.55843E-19 1.02105E-19
 -1      1456 9.52183E-05-2.85639E-05-2.85664E-05 3.03491E-09 1.11386E-18 7.50692E-19
 -1      1457 9.52106E-05-2.85628E-05-2.85633E-05 5.81096E-09-2.94402E-19-1.75866E-19
 -1      1458 9.52166E-05-2.85649E-05-2.85649E-05 6.01128E-09-6.06507E-19-6.24142E-19
 -1      1459 9.52190E-05-2.85649E-05-2.85662E-05 8.93387E-09 9.99311E-20 3.78341E-19
 -1      1460 9.52196E-05-2.85659E-05-2.85658E-05 6.30725E-09 1.45008E-19-1.17705E-18
 -1      1461 9.52257E-05-2.85681E-05-2.85675E-05 6.17823E-09 9.03818E-19-6.28033E-19
 -1      1462 9.52235E-05-2.85670E-05-2.85671E-05 1.13767E-08-2.59713E-19 7.29958E-19
 -1      1463 9.52288E-05-2.85692E-05-2.85683E-05 4.95682E-09 3.98325E-19-9.42081E-20
 -1      1464 9.52335E-05-2.85709E-05-2.85695E-05 4.52584E-09-5.49601E-19-3.45514E-19
 -1      1465 9.52295E-05-2.85698E-05-2.85684E-05 1.04146E-08 7.55670E-19-1.06231E-18
 -1      1466 9.52365E-05-2.85719E-05-2.85702E-05 8.71837E-10-7.40076E-19 3.99223E-19
 -1      1467 9.52359E-05-2.85731E-05-2.85696E-05 4.91826E-09-3.14025E-19-3.82644E-19
 -1      1468 9.86875E-05-2.78721E-05-3.09671E-05 5.09702E-06 6.94567E-19 9.13207E-18
 -1      1469 1.05651E-04-3.01481E-05-3.37717E-05 8.24264E-06 6.56027E-19 9.80652E-18
 -1      1470 9.38205E-05-2.77014E-05-2.83988E-05 1.98243E-06 6.40913E-19 7.86719E-18
 -1      1471 9.60068E-05-2.79582E-05-2.94450E-05 2.43600E-06 5.95861E-19 8.66648E-18
 -1      1472 9.99347E-05-2.80048E-05-3.11899E-05 7.95024E-06 1.21634E-18 5.88929E-18
 -1      1473 9.16178E-05-2.73094E-05-2.75135E-05 5.79014E-07 5.14890E-19 6.74159E-18
 -1      1474 9.22028E-05-2.73622E-05-2.77831E-05 7.02700E-07 5.49248E-19 7.38420E-18
 -1      1475 9.53524E-05-2.79176E-05-2.90337E-05 2.93858E-06 1.16660E-18 5.12243E-18
 -1      1476 9.11613E-05-2.72584E-05-2.73440E-05-1.24031E-07 2.95403E-19 5.92613E-18
 -1      1477 9.10204E-05-2.71733E-05-2.73162E-05-4.95371E-08 3.37860E-19 6.30687E-18
 -1      1478 9.33779E-05-2.77148E-05-2.81769E-05 6.84268E-07 8.70472E-19 4.23440E-18
 -1      1479 9.16313E-05-2.74246E-05-2.74894E-05-5.24285E-07 2.75795E-19 5.38983E-18
 -1      1480 9.11288E-05-2.72549E-05-2.73415E-05-4.76035E-07 2.12556E-19 5.69280E-18
 -1      1481 9.28006E-05-2.76810E-05-2.79280E-05-4.83887E-07 5.87735E-19 3.42149E-18
 -1      1482 9.27714E-05-2.77734E-05-2.78382E-05-8.37201E-07 1.61563E-19 5.06948E-18
 -1      1483 9.19650E-05-2.75211E-05-2.75999E-05-7.90566E-07 2.11722E-19 5.21347E-18
 -1      1484 9.30739E-05-2.77999E-05-2.79910E-05-1.22796E-06 4.35924E-19 3.14742E-18
 -1      1485 9.44644E-05-2.82710E-05-2.83548E-05-1.13194E-06 1.31073E-19 4.82616E-18
 -1      1486 9.33904E-05-2.79447E-05-2.80375E-05-1.08104E-06 2.19094E-19 5.07909E-18
 -1      1487 9.39832E-05-2.80770E-05-2.82624E-05-1.84362E-06 2.60281E-19 2.75556E-18
 -1      1488 9.67446E-05-2.89303E-05-2.90518E-05-1.47803E-06 1.40832E-19 4.59799E-18
 -1      1489 9.53525E-05-2.85147E-05-2.86391E-05-1.41099E-06 1.36222E-19 4.74339E-18
 -1      1490 9.54272E-05-2.84830E-05-2.87094E-05-2.47091E-06 3.11410E-19 2.76650E-18
 -1      1491 9.97589E-05-2.97930E-05-2.99764E-05-1.94121E-06-7.70337E-20 4.42113E-18
 -1      1492 9.79338E-05-2.92532E-05-2.94337E-05-1.84558E-06 5.13017E-20 4.48384E-18
 -1      1493 9.74169E-05-2.90228E-05-2.93355E-05-3.24188E-06 2.49666E-19 2.43686E-18
 -1      1494 1.03758E-04-3.09307E-05-3.12089E-05-2.59240E-06 3.17406E-20 4.54644E-18
 -1      1495 1.01325E-04-3.02170E-05-3.04820E-05-2.45212E-06 3.01755E-21 4.49442E-18
 -1      1496 1.00049E-04-2.97206E-05-3.01726E-05-4.28546E-06-6.89869E-20 2.25787E-18
 -1      1497 1.08812E-04-3.23777E-05-3.27651E-05-3.44686E-06 6.11187E-20 4.40939E-18
 -1      1498 1.05697E-04-3.14527E-05-3.18390E-05-3.26795E-06 1.99714E-20 4.53316E-18
 -1      1499 1.03399E-04-3.06051E-05-3.12403E-05-5.68654E-06-7.78741E-20 2.22181E-18
 -1      1500 1.15827E-04-3.44160E-05-3.49165E-05-4.62519E-06-6.49568E-20 4.68830E-18
 -1      1501 1.11446E-04-3.30874E-05-3.36225E-05-4.36153E-06 3.38085E-20 4.63232E-18
 -1      1502 1.07740E-04-3.17611E-05-3.26225E-05-7.55741E-06-1.56119E-19 2.38560E-18
 -1      1503 1.24865E-04-3.71292E-05-3.76428E-05-6.00279E-06 2.76881E-19 4.36508E-18
 -1      1504 1.19177E-04-3.53377E-05-3.59968E-05-5.69627E-06 1.74509E-19 4.66376E-18
 -1      1505 1.13463E-04-3.33718E-05-3.44026E-05-9.92665E-06 2.26045E-19 1.99907E-18
 -1      1506 1.35680E-04-4.05959E-05-4.07689E-05-7.15154E-06 2.95188E-19 3.55849E-18
 -1      1507 1.28939E-04-3.83325E-05-3.89042E-05-6.91570E-06 6.63809E-19 4.31759E-18
 -1      1508 1.20641E-04-3.56212E-05-3.65167E-05-1.23425E-05 7.09916E-19 1.85601E-18
 -1      1509 1.46687E-04-4.45810E-05-4.36573E-05-6.95580E-06-1.48972E-19 3.75431E-18
 -1      1510 1.40238E-04-4.21523E-05-4.20350E-05-7.10344E-06-5.16227E-20 3.76956E-18
 -1      1511 1.29197E-04-3.88430E-05-3.87542E-05-1.35607E-05 2.41662E-19 2.18558E-18
 -1      1512 1.54041E-04-4.80539E-05-4.51164E-05-3.40673E-06-6.25375E-19 4.70987E-18
 -1      1513 1.51047E-04-4.64712E-05-4.45873E-05-4.52365E-06-4.05702E-19 4.03918E-18
 -1      1514 1.38468E-04-4.32969E-05-4.06805E-05-1.10158E-05-4.54910E-19 2.20890E-18
 -1      1515 1.52305E-04-4.85856E-05-4.41514E-05 4.53704E-06-7.42080E-19 6.20282E-18
 -1      1516 1.56691E-04-4.95612E-05-4.53782E-05 2.35203E-06-7.00126E-19 4.96234E-18
 -1      1517 1.46500E-04-4.82246E-05-4.18453E-05-1.71864E-06-1.11761E-18 3.02355E-18
 -1      1518 1.40290E-04-4.39902E-05-4.14473E-05 1.33506E-05-7.91724E-19 7.54177E-18
 -1      1519 1.52108E-04-4.85117E-05-4.39628E-05 1.15380E-05-1.16208E-18 6.45439E-18
 -1      1520 1.50119E-04-5.05319E-05-4.24554E-05 1.30235E-05-1.43805E-18 3.60563E-18
 -1      1521 1.19208E-04-3.31128E-05-3.83168E-05 1.61374E-05 8.84091E-20 7.51297E-18
 -1      1522 1.36031E-04-4.09650E-05-4.11854E-05 1.68414E-05 1.43572E-19 7.71287E-18
 -1      1523 1.46566E-04-4.61080E-05-4.34139E-05 2.63601E-05-6.98061E-19 3.88279E-18
 -1      1524 1.09460E-04-2.67709E-05-3.74999E-05 3.70724E-06 5.10761E-19 6.22117E-18
 -1      1525 1.14974E-04-2.97485E-05-3.83893E-05 8.09097E-06 1.30020E-19 6.61363E-18
 -1      1526 1.37174E-04-3.47941E-05-4.48981E-05 2.17159E-05 7.06002E-19 3.33660E-18
 -1      1527 1.18902E-04-3.15855E-05-3.89162E-05-1.12592E-05 1.14498E-18 4.78044E-18
 -1      1528 1.10281E-04-2.76225E-05-3.74890E-05-8.23026E-06 9.78111E-19 6.29224E-18
 -1      1529 1.33195E-04-3.00069E-05-4.56183E-05-3.38040E-06 1.22904E-18 2.74775E-18
 -1      1530 1.38973E-04-4.23877E-05-4.17268E-05-1.66613E-05 1.35218E-18 2.60547E-18
 -1      1531 1.23643E-04-3.56193E-05-3.89080E-05-1.69759E-05 1.30994E-18 3.91414E-18
 -1      1532 1.38939E-04-3.69675E-05-4.46330E-05-2.46422E-05 2.20017E-18 1.85782E-18
 -1      1533 1.53894E-04-4.92953E-05-4.44267E-05-1.05321E-05 9.18184E-19 5.20502E-19
 -1      1534 1.42713E-04-4.49798E-05-4.19657E-05-1.28989E-05 1.50644E-18 2.03500E-18
 -1      1535 1.47614E-04-4.70225E-05-4.32075E-05-2.56631E-05 2.52988E-18 4.49695E-19
 -1      1536 1.56938E-04-4.95376E-05-4.55949E-05-1.01174E-06-6.13278E-19 1.47963E-18
 -1      1537 1.54011E-04-4.89166E-05-4.46598E-05-3.04596E-06-5.17114E-19 5.72700E-19
 -1      1538 1.50395E-04-5.06449E-05-4.24400E-05-1.12898E-05 3.87915E-19-6.53936E-19
 -1      1539 1.49964E-04-4.58873E-05-4.44396E-05 5.23297E-06 2.45018E-19 1.51026E-18
 -1      1540 1.53896E-04-4.76945E-05-4.52287E-05 4.37528E-06 1.85183E-19 1.62172E-18
 -1      1541 1.45849E-04-4.75708E-05-4.18482E-05 3.78849E-06-3.33096E-19-3.94294E-19
 -1      1542 1.39024E-04-4.16561E-05-4.17474E-05 7.09383E-06 5.34001E-19 9.50159E-19
 -1      1543 1.45584E-04-4.40603E-05-4.34406E-05 7.07294E-06 4.06569E-19 1.42349E-18
 -1      1544 1.37401E-04-4.25366E-05-4.05724E-05 1.17195E-05 5.17722E-19 1.38119E-19
 -1      1545 1.28694E-04-3.82268E-05-3.88381E-05 6.61550E-06-5.98204E-19 1.54912E-18
 -1      1546 1.34835E-04-4.02648E-05-4.05598E-05 6.87143E-06 1.08586E-19 1.31306E-18
 -1      1547 1.28574E-04-3.84395E-05-3.86704E-05 1.31967E-05-9.20884E-20 2.78303E-19
 -1      1548 1.19514E-04-3.54271E-05-3.60937E-05 5.29516E-06 2.48287E-20 2.14299E-18
 -1      1549 1.24793E-04-3.70906E-05-3.76355E-05 5.60391E-06-3.03324E-19 1.78306E-18
 -1      1550 1.20665E-04-3.55561E-05-3.65516E-05 1.16071E-05-4.88493E-19 1.82191E-19
 -1      1551 1.12471E-04-3.33919E-05-3.39238E-05 3.93140E-06 8.39026E-19 9.28348E-19
 -1      1552 1.16409E-04-3.45900E-05-3.50966E-05 4.18669E-06 3.51426E-19 1.78306E-18
 -1      1553 1.13994E-04-3.35011E-05-3.45676E-05 9.07029E-06 6.08587E-19-1.06349E-19
 -1      1554 1.07301E-04-3.19335E-05-3.23153E-05 2.80969E-06-4.48061E-19 1.09404E-18
 -1      1555 1.10107E-04-3.27694E-05-3.31577E-05 2.99768E-06 6.48582E-19 1.39378E-18
 -1      1556 1.08824E-04-3.20725E-05-3.29469E-05 6.67618E-06 5.45410E-19 1.15024E-19
 -1      1557 1.03603E-04-3.09007E-05-3.11629E-05 1.96996E-06-1.18624E-19 2.29204E-18
 -1      1558 1.05557E-04-3.14758E-05-3.17512E-05 2.10177E-06-3.31885E-19 1.94525E-18
 -1      1559 1.04953E-04-3.10589E-05-3.17060E-05 4.76304E-06-6.18632E-19 1.26999E-18
 -1      1560 1.00996E-04-3.01744E-05-3.03517E-05 1.36857E-06-7.77682E-20 2.36693E-18
 -1      1561 1.02341E-04-3.05685E-05-3.07569E-05 1.45942E-06 1.33176E-20 1.94425E-18
 -1      1562 1.02116E-04-3.03323E-05-3.07899E-05 3.34429E-06-2.92772E-19 1.59946E-18
 -1      1563 9.92438E-05-2.96864E-05-2.98087E-05 9.64656E-07 4.67820E-20 2.18611E-18
 -1      1564 1.00134E-04-2.99446E-05-3.00763E-05 1.02293E-06 5.52044E-20 1.80305E-18
 -1      1565 1.00107E-04-2.98236E-05-3.01406E-05 2.34677E-06 4.28172E-19 5.88354E-19
 -1      1566 9.79428E-05-2.93242E-05-2.94060E-05 6.65993E-07-1.43989E-19 1.55902E-18
 -1      1567 9.85885E-05-2.95114E-05-2.96004E-05 7.09404E-07 3.76928E-19 1.72063E-18
 -1      1568 9.86579E-05-2.94499E-05-2.96728E-05 1.64740E-06 1.18925E-19 4.30364E-19
 -1      1569 9.70389E-05-2.90715E-05-2.91269E-05 4.58798E-07 1.32092E-19 1.67678E-18
 -1      1570 9.74802E-05-2.91987E-05-2.92598E-05 4.88335E-07-2.31961E-19 1.86608E-18
 -1      1571 9.75928E-05-2.91771E-05-2.93297E-05 1.14121E-06 2.13704E-19 7.52133E-19
 -1      1572 9.64123E-05-2.88961E-05-2.89338E-05 3.14774E-07 7.49341E-19 1.15663E-19
 -1      1573 9.67129E-05-2.89824E-05-2.90244E-05 3.35133E-07 3.73818E-19 1.19697E-18
 -1      1574 9.68367E-05-2.89817E-05-2.90869E-05 7.88006E-07 4.68202E-19 1.21906E-18
 -1      1575 9.59806E-05-2.87751E-05-2.88010E-05 2.14369E-07 3.69636E-19-1.45022E-18
 -1      1576 9.61839E-05-2.88332E-05-2.88623E-05 2.28457E-07 3.68985E-19-6.63248E-19
 -1      1577 9.63031E-05-2.88430E-05-2.89158E-05 5.41295E-07 1.23698E-18 1.85537E-19
 -1      1578 9.56864E-05-2.86926E-05-2.87104E-05 1.44157E-07-1.26483E-18 1.27409E-18
 -1      1579 9.58220E-05-2.87314E-05-2.87515E-05 1.53969E-07-5.81899E-19-4.09399E-19
 -1      1580 9.59293E-05-2.87455E-05-2.87961E-05 3.68512E-07-7.34565E-19 1.08543E-18
 -1      1581 9.54966E-05-2.86396E-05-2.86521E-05 9.70632E-08-1.40792E-19 1.14560E-18
 -1      1582 9.55823E-05-2.86637E-05-2.86781E-05 1.03428E-07-8.44626E-20 1.09957E-18
 -1      1583 9.56752E-05-2.86797E-05-2.87148E-05 2.49246E-07-6.59007E-19 9.97481E-19
 -1      1584 9.53642E-05-2.86029E-05-2.86113E-05 6.20573E-08-1.04227E-19 1.46944E-18
 -1      1585 9.54218E-05-2.86189E-05-2.86289E-05 6.69210E-08-7.88818E-19 8.53104E-19
 -1      1586 9.55002E-05-2.86336E-05-2.86587E-05 1.65739E-07-4.30842E-19 2.65955E-19
 -1      1587 9.52806E-05-2.85798E-05-2.85855E-05 3.76647E-08-4.77388E-19 3.22831E-18
 -1      1588 9.53152E-05-2.85892E-05-2.85961E-05 4.09873E-08-1.52491E-19 2.94787E-18
 -1      1589 9.53795E-05-2.86026E-05-2.86198E-05 1.05074E-07-1.22486E-18 1.20737E-18
 -1      1590 9.52310E-05-2.85664E-05-2.85702E-05 2.07893E-08 5.19144E-19 1.73344E-18
 -1      1591 9.52498E-05-2.85712E-05-2.85760E-05 2.30589E-08-2.37446E-19 2.63236E-18
 -1      1592 9.53014E-05-2.85826E-05-2.85945E-05 6.27429E-08-2.71534E-19 2.68062E-18
 -1      1593 9.52051E-05-2.85596E-05-2.85621E-05 9.26002E-09 1.48290E-19 1.31564E-18
 -1      1594 9.52130E-05-2.85613E-05-2.85646E-05 1.07811E-08 9.24354E-19 1.69028E-18
 -1      1595 9.52533E-05-2.85707E-05-2.85788E-05 3.34850E-08 1.20224E-18 1.76455E-18
 -1      1596 9.51951E-05-2.85573E-05-2.85588E-05 1.54232E-09 1.06182E-19 7.97394E-19
 -1      1597 9.51959E-05-2.85571E-05-2.85592E-05 2.53393E-09-4.02587E-19 9.41362E-19
 -1      1598 9.52264E-05-2.85644E-05-2.85698E-05 1.35619E-08 6.48103E-19 1.39934E-18
 -1      1599 9.51955E-05-2.85579E-05-2.85588E-05-3.23374E-09-1.31905E-18 2.86507E-18
 -1      1600 9.51920E-05-2.85565E-05-2.85579E-05-2.66857E-09-1.21798E-18 8.33718E-19
 -1      1601 9.52142E-05-2.85620E-05-2.85655E-05 5.45776E-10-7.52911E-19 2.25623E-18
 -1      1602 9.52025E-05-2.85604E-05-2.85608E-05-6.23999E-09 4.76257E-19 2.42854E-18
 -1      1603 9.51961E-05-2.85582E-05-2.85590E-05-5.89891E-09 5.63901E-19 2.17179E-18
 -1      1604 9.52113E-05-2.85620E-05-2.85641E-05-7.66109E-09-2.55909E-19 1.80423E-18
 -1      1605 9.52129E-05-2.85639E-05-2.85638E-05-7.56096E-09 8.97604E-19-1.36184E-20
 -1      1606 9.52054E-05-2.85613E-05-2.85617E-05-7.48464E-09 9.17382E-19 1.03013E-18
 -1      1607 9.52144E-05-2.85637E-05-2.85647E-05-1.23845E-08 1.49324E-18 8.22592E-20
 -1      1608 9.52240E-05-2.85677E-05-2.85669E-05-7.24284E-09-1.52301E-19-9.53718E-19
 -1      1609 9.52168E-05-2.85652E-05-2.85649E-05-7.46681E-09-3.94071E-19-1.04187E-18
 -1      1610 9.52208E-05-2.85664E-05-2.85662E-05-1.38409E-08 1.34930E-18 5.27568E-19
 -1      1611 9.52330E-05-2.85709E-05-2.85693E-05-5.04856E-09-4.70786E-19-1.12985E-18
 -1      1612 9.52278E-05-2.85690E-05-2.85679E-05-5.64486E-09 2.07992E-19-7.53759E-19
 -1      1613 9.52282E-05-2.85696E-05-2.85679E-05-1.20498E-08-1.60196E-19 2.65506E-19
 -1      1614 9.52364E-05-2.85720E-05-2.85702E-05-1.01194E-09-1.16346E-18-6.08072E-19
 -1      1615 9.52395E-05-2.85805E-05-2.85681E-05-5.49301E-09-8.48406E-19 2.67492E-19
 -1      1616 9.52378E-05-2.85759E-05-2.85694E-05-4.87223E-09-9.87209E-19 4.22350E-20
 -1      1617 9.52430E-05-2.85902E-05-2.85655E-05-6.47320E-09-7.70476E-19-1.47636E-19
 -1      1618 9.52408E-05-2.85841E-05-2.85671E-05-6.45264E-09-1.32755E-18-2.47140E-19
 -1      1619 9.52394E-05-2.85805E-05-2.85681E-05-1.12794E-08 1.14592E-19-3.85123E-19
 -1      1620 9.52461E-05-2.85995E-05-2.85629E-05-5.77038E-09-1.14954E-18-6.25003E-19
 -1      1621 9.52441E-05-2.85938E-05-2.85645E-05-6.05158E-09-6.55656E-19 2.24891E-19
 -1      1622 9.52423E-05-2.85875E-05-2.85664E-05-1.18297E-08 6.99358E-19-5.43476E-19
 -1      1623 9.52483E-05-2.86067E-05-2.85608E-05-4.24220E-09-4.46992E-19 1.76867E-18
 -1      1624 9.52469E-05-2.86023E-05-2.85620E-05-4.60045E-09-2.24618E-18 2.42324E-18
 -1      1625 9.52446E-05-2.85937E-05-2.85648E-05-9.78067E-09-9.32142E-19 4.34652E-19
 -1      1626 9.52496E-05-2.86113E-05-2.85593E-05-2.61750E-09-3.26200E-18-2.37475E-18
 -1      1627 9.52488E-05-2.86086E-05-2.85601E-05-2.93908E-09-6.96163E-19-9.37382E-19
 -1      1628 9.52461E-05-2.85982E-05-2.85635E-05-6.78943E-09-3.10368E-18-1.60096E-19
 -1      1629 9.52503E-05-2.86137E-05-2.85585E-05-1.20272E-09-4.18810E-18-2.52707E-19
 -1      1630 9.52499E-05-2.86124E-05-2.85589E-05-1.45449E-09-2.35532E-18-1.88653E-18
 -1      1631 9.52468E-05-2.86009E-05-2.85626E-05-3.84754E-09-2.09246E-18-2.40155E-18
 -1      1632 9.52503E-05-2.86144E-05-2.85583E-05-1.41924E-10-4.22456E-18-5.75918E-19
 -1      1633 9.52503E-05-2.86141E-05-2.85584E-05-3.15837E-10-3.95302E-18 3.54242E-19
 -1      1634 9.52470E-05-2.86020E-05-2.85622E-05-1.42827E-09-2.07310E-18-4.33849E-19
 -1      1635 9.52501E-05-2.86136E-05-2.85585E-05 6.41032E-10-3.69591E-18-7.28158E-20
 -1      1636 9.52503E-05-2.86142E-05-2.85583E-05 5.13218E-10-4.28951E-18-1.48111E-19
 -1      1637 9.52468E-05-2.86021E-05-2.85621E-05 3.65098E-10-1.88198E-18-1.08271E-18
 -1      1638 9.52495E-05-2.86118E-05-2.85590E-05 1.32892E-09-2.84487E-18 1.37829E-19
 -1      1639 9.52499E-05-2.86131E-05-2.85587E-05 1.20225E-09-3.12761E-18 8.38277E-19
 -1      1640 9.52466E-05-2.86013E-05-2.85623E-05 1.76165E-09-1.39401E-18 5.91625E-19
 -1      1641 9.52487E-05-2.86089E-05-2.85599E-05 2.11887E-09-3.60478E-18-1.51706E-18
 -1      1642 9.52493E-05-2.86109E-05-2.85593E-05 1.95261E-09-2.00271E-18-4.60063E-19
 -1      1643 9.52462E-05-2.85999E-05-2.85627E-05 3.12440E-09-8.92981E-19 3.69894E-19
 -1      1644 9.52475E-05-2.86046E-05-2.85613E-05 3.11009E-09-5.17143E-18 1.55122E-19
 -1      1645 9.52484E-05-2.86075E-05-2.85604E-05 2.89463E-09-3.23462E-18-1.68880E-18
 -1      1646 9.52457E-05-2.85978E-05-2.85634E-05 4.75451E-09-1.89285E-18-1.74999E-18
 -1      1647 9.52456E-05-2.85985E-05-2.85631E-05 4.28789E-09-4.69061E-18-9.08770E-19
 -1      1648 9.52469E-05-2.86026E-05-2.85619E-05 4.02926E-09-4.59163E-18 8.65909E-19
 -1      1649 9.52448E-05-2.85948E-05-2.85644E-05 6.76134E-09-2.45083E-18 2.91923E-19
 -1      1650 9.52432E-05-2.85909E-05-2.85653E-05 5.37144E-09-2.77718E-18 1.33480E-18
 -1      1651 9.52449E-05-2.85959E-05-2.85639E-05 5.13670E-09-3.87029E-18 1.17045E-18
 -1      1652 9.52435E-05-2.85905E-05-2.85656E-05 8.88911E-09-6.07589E-19 2.39577E-19
 -1      1653 9.52405E-05-2.85826E-05-2.85677E-05 5.59998E-09-7.41366E-19 2.46245E-18
 -1      1654 9.52422E-05-2.85878E-05-2.85662E-05 5.57608E-09-2.33373E-18 2.10907E-20
 -1      1655 9.52414E-05-2.85850E-05-2.85671E-05 1.03458E-08-5.72770E-19 1.36340E-18
 -1      1656 9.52375E-05-2.85755E-05-2.85694E-05 5.58135E-09-6.05974E-19-1.30796E-19
 -1      1657 9.52390E-05-2.85796E-05-2.85684E-05 6.48541E-09-1.46821E-19 5.58662E-19
 -1      1658 9.52389E-05-2.85790E-05-2.85684E-05 1.08914E-08-6.03218E-19 2.22712E-18
 -1      1659 9.52348E-05-2.85735E-05-2.85690E-05 1.01911E-08 1.58353E-19-9.94279E-19
 -1      1660 2.15622E-05-7.54956E-05 1.67531E-05-1.23993E-05 2.76048E-18 1.11935E-18
 -1      1661 2.43964E-05-8.16961E-05 1.80322E-05-2.66306E-06 2.63051E-18-6.62380E-19
 -1      1662 1.96500E-05-5.20971E-05 8.35835E-06-7.83249E-06 3.89212E-18 1.24006E-18
 -1      1663 2.51453E-05-7.29472E-05 1.36697E-05-8.24890E-06 2.97563E-18 1.75283E-18
 -1      1664 3.55165E-05-2.46166E-05-8.25565E-06 1.76300E-05 4.74508E-18 4.29742E-18
 -1      1665 3.08793E-05-4.75081E-05 1.12714E-06 8.24169E-07 4.19790E-18 2.45724E-18
 -1      1666 7.46792E-05-1.04159E-05-2.85305E-05 5.00474E-05 4.48080E-18 3.98190E-18
 -1      1667 5.09180E-05-1.97765E-05-1.77475E-05 2.53046E-05 5.29057E-18 3.90990E-18
 -1      1668 1.54127E-04-2.73094E-05-5.13480E-05 7.18755E-05 2.87314E-18 4.91279E-19
 -1      1669 1.05731E-04-1.67566E-05-3.93650E-05 5.34647E-05 4.07931E-18 2.82570E-18
 -1      1670 2.35738E-04-5.38609E-05-7.07994E-05 6.79707E-05 9.40630E-19-3.45251E-18
 -1      1671 1.82043E-04-3.06597E-05-6.15950E-05 7.33235E-05 2.53093E-18-4.09964E-19
 -1      1672 2.87787E-04-7.48693E-05-8.19754E-05 2.15655E-05 7.49624E-19-6.77160E-18
 -1      1673 2.54451E-04-5.82678E-05-7.69846E-05 5.28461E-05 6.62274E-19-3.99037E-18
 -1      1674 2.81995E-04-7.02911E-05-8.21656E-05-2.74910E-05 2.46825E-18-9.03022E-18
 -1      1675 2.89599E-04-7.41538E-05-8.32916E-05 9.14781E-06 1.12994E-18-7.19480E-18
 -1      1676 2.32321E-04-4.90065E-05-7.27548E-05-6.44217E-05 3.69200E-18-1.06387E-17
 -1      1677 2.75943E-04-7.01304E-05-7.92971E-05-4.14689E-05 2.50722E-18-9.87132E-18
 -1      1678 1.54511E-04-2.49748E-05-5.41526E-05-6.63833E-05 5.23297E-18-9.46983E-18
 -1      1679 2.08903E-04-4.47239E-05-6.46142E-05-7.05548E-05 4.34316E-18-1.03643E-17
 -1      1680 8.58547E-05-1.44455E-05-3.28372E-05-4.69625E-05 4.54348E-18-7.33785E-18
 -1      1681 1.25293E-04-1.83923E-05-4.40299E-05-6.84344E-05 5.26939E-18-9.70700E-18
 -1      1682 4.69391E-05-3.04724E-05-1.16702E-05-1.77902E-05 2.75455E-18-3.83706E-18
 -1      1683 6.51747E-05-1.62573E-05-2.24865E-05-4.11475E-05 4.24702E-18-5.71154E-18
 -1      1684 2.78076E-05-5.59595E-05 5.70427E-06 3.23362E-06 1.81265E-19-1.80460E-18
 -1      1685 2.77469E-05-3.20257E-05-2.41550E-06-8.79804E-06 2.34882E-18-3.07007E-18
 -1      1686 2.55753E-05-8.06401E-05 1.63135E-05 8.67150E-06-1.99942E-18-9.88911E-20
 -1      1687 1.94189E-05-6.23136E-05 1.21215E-05 1.25459E-05-7.09814E-19-6.64815E-19
 -1      1688 2.49051E-05-8.37569E-05 1.84214E-05 1.01601E-07-4.50304E-18-9.92723E-19
 -1      1689 2.42407E-05-8.37787E-05 1.84472E-05 1.17118E-05-2.78176E-18-3.51730E-19
 -1      1690 2.03538E-05-6.04062E-05 1.19677E-05-1.53747E-06-7.32260E-18-2.97557E-18
 -1      1691 2.57696E-05-7.89572E-05 1.61525E-05 3.50848E-06-5.36680E-18-1.75738E-18
 -1      1692 2.48587E-05-2.71821E-05-2.04759E-06 1.54710E-05-8.32379E-18-4.76710E-18
 -1      1693 2.68099E-05-5.32913E-05 5.98147E-06 5.39146E-06-7.56231E-18-3.28225E-18
 -1      1694 4.57421E-05-2.44266E-06-1.94521E-05 4.31882E-05-7.95110E-18-5.87587E-18
 -1      1695 3.42089E-05-1.89531E-05-1.01692E-05 2.21494E-05-8.88876E-18-4.91660E-18
 -1      1696 1.05703E-04-7.63809E-06-4.01223E-05 7.16977E-05-5.48200E-18-5.75728E-18
 -1      1697 7.22941E-05-6.44626E-06-2.92410E-05 5.02252E-05-6.83386E-18-5.59465E-18
 -1      1698 1.68052E-04-2.19960E-05-5.81101E-05 8.42621E-05-3.97513E-18-5.65649E-18
 -1      1699 1.25514E-04-5.36301E-06-4.96861E-05 7.84399E-05-5.17198E-18-6.40188E-18
 -1      1700 2.28366E-04-4.90727E-05-7.08723E-05 6.47965E-05-2.10988E-18-3.72525E-18
 -1      1701 1.90700E-04-2.93449E-05-6.49718E-05 7.91225E-05-3.45357E-18-4.92550E-18
 -1      1702 2.63009E-04-6.62722E-05-7.77407E-05 2.16962E-05-1.72477E-18-3.55542E-19
 -1      1703 2.43433E-04-5.49586E-05-7.50168E-05 5.16305E-05-1.90667E-18-2.87949E-18
 -1      1704 2.56835E-04-6.20358E-05-7.73937E-05-3.02823E-05-2.66625E-18 3.72102E-18
 -1      1705 2.64230E-04-6.63696E-05-7.84011E-05 4.48696E-06-2.07311E-18 5.98191E-19
 -1      1706 2.15346E-04-4.05055E-05-7.00908E-05-7.07168E-05-2.66593E-18 6.27228E-18
 -1      1707 2.48345E-04-5.88551E-05-7.48465E-05-4.72350E-05-2.20313E-18 4.62607E-18
 -1      1708 1.50723E-04-1.46825E-05-5.57969E-05-7.81849E-05-3.03831E-18 4.89924E-18
 -1      1709 1.93766E-04-3.40389E-05-6.36327E-05-7.59069E-05-2.64973E-18 5.92500E-18
 -1      1710 8.85888E-05 1.68969E-06-3.85362E-05-6.64918E-05-1.90074E-18 3.77607E-18
 -1      1711 1.25556E-04-7.23527E-06-4.77878E-05-8.20435E-05-3.06880E-18 5.07796E-18
 -1      1712 4.85542E-05-7.95874E-06-1.97011E-05-3.73212E-05 1.71101E-18 7.25060E-19
 -1      1713 6.93196E-05 6.06184E-07-2.94052E-05-5.97789E-05-6.18334E-19 3.07134E-18
 -1      1714 2.91870E-05-3.39280E-05-2.44717E-06-1.26751E-05 3.26955E-18-4.20552E-19
 -1      1715 3.32681E-05-1.22523E-05-1.09495E-05-2.91004E-05 1.87872E-18 7.44965E-19
 -1      1716 2.50769E-05-6.44685E-05 1.07335E-05-1.16082E-06 3.89466E-18-1.17997E-18
 -1      1717 2.00453E-05-4.09397E-05 4.69043E-06-4.23439E-06 3.98105E-18-2.28657E-18
 -1      1718 2.57162E-05-8.29983E-05 1.77450E-05-5.71500E-06 3.06520E-18-9.89123E-19
 -1      1719 2.19989E-05-7.06502E-05 1.49411E-05 2.81638E-06 3.55923E-18-1.00892E-18
 -1      1720 1.06401E-04-2.32958E-05-3.57148E-05 1.68837E-05 8.09790E-19 8.42734E-18
 -1      1721 7.50973E-05-4.66401E-05-1.48172E-05 3.24060E-05 2.30562E-18 2.13410E-18
 -1      1722 9.52357E-05-2.85732E-05-2.85694E-05-5.49669E-09-8.78027E-19-4.78289E-19
 -1      1723 1.68388E-05-5.27317E-05 1.07853E-05 6.45470E-06 1.41327E-18 1.31205E-18
 -1      1724 3.89117E-05-5.01603E-05 9.14091E-07 2.12942E-05 1.56616E-18 1.84759E-18
 -1      1725 1.19399E-05-5.44864E-05 1.34939E-05-6.65606E-06 1.49734E-18-8.59315E-19
 -1      1726 1.26254E-04-4.64405E-05-3.43073E-05 3.77032E-05 3.13572E-18 3.06626E-19
 -1      1727 1.81445E-04-4.80762E-05-5.39666E-05 3.16085E-05 3.10268E-18-2.50722E-18
 -1      1728 2.21785E-04-4.44006E-05-6.95893E-05 1.75471E-05 2.66074E-18-2.69780E-18
 -1      1729 2.35368E-04-3.89380E-05-7.64915E-05 3.06289E-06 2.43861E-18-4.26778E-18
 -1      1730 2.32106E-04-4.00742E-05-7.49664E-05-9.96692E-06 2.67747E-18-4.66376E-18
 -1      1731 2.09059E-04-4.62539E-05-6.45782E-05-2.23172E-05 2.10281E-18-5.32276E-18
 -1      1732 1.64473E-04-4.85331E-05-4.76824E-05-3.36792E-05 1.86686E-18-5.52181E-18
 -1      1733 1.12575E-04-4.88502E-05-2.82746E-05-3.64155E-05 1.05117E-18-5.26092E-18
 -1      1734 6.62135E-05-4.92343E-05-9.92010E-06-3.13700E-05 3.81165E-19-3.92049E-18
 -1      1735 3.02861E-05-5.16719E-05 4.96443E-06-1.66780E-05-3.60413E-19-2.71103E-18
 -1      1736 1.46226E-05-5.75831E-05 1.32391E-05-1.37136E-06-2.11716E-18-1.36161E-18
 -1      1737 1.34429E-05-5.52355E-05 1.31168E-05 1.10013E-05-3.32757E-18-2.43141E-18
 -1      1738 2.65221E-05-4.71664E-05 5.26324E-06 2.56957E-05-3.83198E-18-3.09802E-18
 -1      1739 5.19924E-05-3.85599E-05-7.97141E-06 3.73965E-05-4.56381E-18-3.01374E-18
 -1      1740 9.29285E-05-3.37847E-05-2.52754E-05 4.74954E-05-4.58753E-18-2.76768E-18
 -1      1741 1.35836E-04-3.21751E-05-4.31277E-05 4.79128E-05-3.85824E-18-2.96885E-18
 -1      1742 1.76288E-04-3.01159E-05-5.89353E-05 4.66514E-05-3.47712E-18-3.25938E-18
 -1      1743 2.07723E-04-3.39720E-05-6.94023E-05 3.00960E-05-2.72363E-18-1.67289E-18
 -1      1744 2.21399E-04-3.59931E-05-7.39969E-05 6.49404E-06-3.38136E-18 4.67986E-20
 -1      1745 2.15468E-04-3.46904E-05-7.22138E-05-1.94597E-05-3.25769E-18 1.36033E-18
 -1      1746 1.89576E-04-3.18324E-05-6.35663E-05-3.74393E-05-1.63520E-18 2.12266E-18
 -1      1747 1.51242E-04-2.84290E-05-4.99966E-05-4.93226E-05-4.40669E-19 2.23278E-18
 -1      1748 1.08208E-04-2.83771E-05-3.35767E-05-5.09553E-05 1.52297E-18 2.04728E-18
 -1      1749 7.01796E-05-3.41892E-05-1.66388E-05-4.36467E-05 2.13368E-18 1.91387E-18
 -1      1750 3.88919E-05-4.19593E-05-1.59651E-06-3.18354E-05 2.79267E-18-1.29675E-19
 -1      1751 1.95791E-05-5.12822E-05 9.22362E-06-1.85875E-05 3.50672E-18-7.31413E-19
 -1      1752 1.06057E-04-2.32057E-05-3.55940E-05-1.65965E-05-1.24945E-18 2.10488E-19
 -1      1753 8.93086E-05-1.05779E-05-3.38660E-05-1.28430E-05-6.55928E-19-3.38991E-18
 -1      1754 9.06714E-05-1.16751E-05-3.40048E-05-1.46264E-05-9.98089E-19-3.24602E-18
 -1      1755 9.27276E-05-1.39554E-05-3.39193E-05-1.55510E-05-1.19654E-18-2.90495E-18
 -1      1756 9.44397E-05-1.59232E-05-3.41492E-05-1.72368E-05-1.56293E-18-2.49896E-18
 -1      1757 9.36833E-05-1.64222E-05-3.31212E-05-1.32524E-05-1.23124E-18-2.91512E-18
 -1      1758 8.61398E-05-7.50434E-06-3.37729E-05-7.41242E-06 2.29711E-19-3.22416E-18
 -1      1759 8.66067E-05-7.83837E-06-3.38161E-05-8.77325E-06 5.17716E-20-3.39140E-18
 -1      1760 8.53873E-05-6.77261E-06-3.37516E-05-4.95982E-06 6.24032E-19-3.08982E-18
 -1      1761 8.56831E-05-6.98424E-06-3.37761E-05-6.21549E-06 4.94077E-19-3.18556E-18
 -1      1762 8.74395E-05-9.59984E-06-3.33914E-05-6.46379E-06 3.16067E-19-3.09969E-18
 -1      1763 8.49432E-05-6.33420E-06-3.37415E-05-2.65934E-06 9.17757E-19-2.72017E-18
 -1      1764 8.51100E-05-6.45456E-06-3.37538E-05-3.83242E-06 8.03462E-19-2.95088E-18
 -1      1765 8.66552E-05-8.77265E-06-3.34089E-05-4.17898E-06 7.20038E-19-2.91432E-18
 -1      1766 8.47499E-05-6.13224E-06-3.37405E-05-4.50627E-07 1.20166E-18-2.40244E-18
 -1      1767 8.48071E-05-6.17552E-06-3.37434E-05-1.58077E-06 1.05440E-18-2.59289E-18
 -1      1768 8.62097E-05-8.30070E-06-3.34194E-05-2.00662E-06 1.04461E-18-2.60836E-18
 -1      1769 8.47929E-05-6.15096E-06-3.37485E-05 1.73175E-06 1.42337E-18-2.06421E-18
 -1      1770 8.47432E-05-6.11923E-06-3.37425E-05 6.06405E-07 1.29429E-18-2.25300E-18
 -1      1771 8.60547E-05-8.13020E-06-3.34255E-05 9.69279E-08 1.32791E-18-2.28445E-18
 -1      1772 8.50851E-05-6.40217E-06-3.37660E-05 3.95779E-06 1.65925E-18-1.67979E-18
 -1      1773 8.49197E-05-6.28830E-06-3.37506E-05 2.79755E-06 1.57651E-18-1.95252E-18
 -1      1774 8.61830E-05-8.25287E-06-3.34278E-05 2.18646E-06 1.55382E-18-1.90488E-18
 -1      1775 8.56559E-05-6.91283E-06-3.37950E-05 6.26166E-06 1.91838E-18-1.18909E-18
 -1      1776 8.53579E-05-6.70560E-06-3.37677E-05 5.04461E-06 1.78719E-18-1.46379E-18
 -1      1777 8.66139E-05-8.68950E-06-3.34254E-05 4.30202E-06 1.81793E-18-1.52871E-18
 -1      1778 8.66159E-05-7.78699E-06-3.38414E-05 8.80362E-06 2.17501E-18-5.77279E-19
 -1      1779 8.61248E-05-7.43915E-06-3.37949E-05 7.43515E-06 2.01481E-18-8.99086E-19
 -1      1780 8.74067E-05-9.50752E-06-3.34153E-05 6.51752E-06 2.10258E-18-9.90744E-19
 -1      1781 8.81601E-05-9.22078E-06-3.39151E-05 1.16140E-05 2.28889E-18 2.77033E-19
 -1      1782 8.73638E-05-8.63308E-06-3.38356E-05 1.00535E-05 2.18404E-18-2.26277E-19
 -1      1783 8.86957E-05-1.08552E-05-3.33890E-05 8.88509E-06 2.30824E-18-3.40785E-19
 -1      1784 9.07880E-05-1.17387E-05-3.40283E-05 1.46316E-05 2.27651E-18 1.52008E-18
 -1      1785 8.93952E-05-1.06094E-05-3.38906E-05 1.28532E-05 2.28373E-18 7.33001E-19
 -1      1786 9.07101E-05-1.29980E-05-3.33222E-05 1.13080E-05 2.39816E-18 5.64137E-19
 -1      1787 9.45974E-05-1.60442E-05-3.41484E-05 1.72818E-05 1.79038E-18 3.53753E-18
 -1      1788 9.28720E-05-1.40720E-05-3.39331E-05 1.55785E-05 2.01977E-18 2.36783E-18
 -1      1789 9.39124E-05-1.65680E-05-3.31302E-05 1.32909E-05 2.24766E-18 1.85307E-18
 -1      1790 1.03913E-04-5.38004E-05-2.18966E-05 3.66986E-05 1.30951E-18 6.48404E-19
 -1      1791 8.19468E-05-5.36245E-05-1.35320E-05 3.29982E-05 7.77576E-19 9.85523E-19
 -1      1792 1.00307E-04-1.96511E-05-3.42479E-05-1.85161E-05-1.55024E-18-1.47691E-18
 -1      1793 1.00432E-04-1.96183E-05-3.43206E-05 1.87352E-05 1.27944E-18 5.25012E-18
 -1      1794 9.73292E-05-2.70761E-05-2.99930E-05-5.31578E-06-1.22298E-18-1.85351E-18
 -1      1795 9.56333E-05-2.71562E-05-2.93172E-05-3.49480E-06-9.96905E-19-2.11309E-18
 -1      1796 9.48954E-05-2.73734E-05-2.88407E-05-1.98449E-06-9.60516E-19-2.01000E-18
 -1      1797 9.42505E-05-2.74865E-05-2.85739E-05-1.10254E-06-7.37971E-19-2.26576E-18
 -1      1798 9.59821E-05-2.66484E-05-2.97371E-05-3.93752E-06-1.08586E-18-2.12835E-18
 -1      1799 9.38288E-05-2.75645E-05-2.83396E-05-2.33230E-07-5.84757E-19-2.22615E-18
 -1      1800 9.36742E-05-2.76708E-05-2.82606E-05 2.39105E-07-5.35973E-19-2.38326E-18
 -1      1801 9.49582E-05-2.73622E-05-2.89916E-05-1.20630E-06-8.02815E-19-2.05376E-18
 -1      1802 9.35217E-05-2.77362E-05-2.81625E-05 7.38553E-07-5.89803E-19-2.30499E-18
 -1      1803 9.36568E-05-2.78672E-05-2.81801E-05 9.93616E-07-4.88018E-19-2.55761E-18
 -1      1804 9.44838E-05-2.77337E-05-2.86253E-05 3.58595E-07-6.19394E-19-2.01536E-18
 -1      1805 9.36962E-05-2.79494E-05-2.81617E-05 1.26654E-06-4.73609E-19-2.48561E-18
 -1      1806 9.39914E-05-2.81015E-05-2.82307E-05 1.38655E-06-2.99515E-19-2.66641E-18
 -1      1807 9.44310E-05-2.80140E-05-2.84782E-05 1.24887E-06-4.97815E-19-2.10613E-18
 -1      1808 9.41550E-05-2.82043E-05-2.82579E-05 1.50264E-06-5.77949E-20-2.54439E-18
 -1      1809 9.45227E-05-2.83684E-05-2.83502E-05 1.52154E-06-5.11322E-20-2.53106E-18
 -1      1810 9.46742E-05-2.82894E-05-2.84600E-05 1.70486E-06-2.40631E-19-2.15761E-18
 -1      1811 9.47566E-05-2.84889E-05-2.83989E-05 1.50959E-06-2.12658E-19-2.41475E-18
 -1      1812 9.51280E-05-2.86541E-05-2.84933E-05 1.43658E-06-1.63595E-19-2.24562E-18
 -1      1813 9.51024E-05-2.85858E-05-2.85125E-05 1.83835E-06-3.13329E-20-1.94255E-18
 -1      1814 9.53860E-05-2.87860E-05-2.85448E-05 1.30141E-06-3.43048E-19-2.11519E-18
 -1      1815 9.56981E-05-2.89384E-05-2.86221E-05 1.13220E-06-2.99166E-19-2.19662E-18
 -1      1816 9.56216E-05-2.89076E-05-2.85934E-05 1.68858E-06-2.74450E-19-1.82003E-18
 -1      1817 9.59355E-05-2.90714E-05-2.86607E-05 8.66165E-07-5.32807E-19-2.47557E-18
 -1      1818 9.61240E-05-2.91914E-05-2.87027E-05 5.91879E-07-4.78797E-19-2.88145E-18
 -1      1819 9.61440E-05-2.92448E-05-2.86692E-05 1.25372E-06-6.29522E-19-1.93325E-18
 -1      1820 9.62933E-05-2.93081E-05-2.87149E-05 1.86555E-07-4.55120E-19-3.00710E-18
 -1      1821 9.62924E-05-2.93687E-05-2.87043E-05-1.95865E-07-2.65599E-19-3.28238E-18
 -1      1822 9.65780E-05-2.95689E-05-2.87126E-05 5.16335E-07-7.36197E-19-2.14918E-18
 -1      1823 9.63408E-05-2.94423E-05-2.86798E-05-7.34957E-07-2.26825E-19-3.26664E-18
 -1      1824 9.60892E-05-2.94095E-05-2.86028E-05-1.20964E-06-4.05701E-19-3.15879E-18
 -1      1825 9.68212E-05-2.98270E-05-2.87022E-05-5.27575E-07-3.90527E-19-2.28008E-18
 -1      1826 9.59618E-05-2.94037E-05-2.85356E-05-1.84526E-06-5.13155E-19-3.05240E-18
 -1      1827 9.54174E-05-2.92418E-05-2.83852E-05-2.36355E-06-5.94936E-19-2.93300E-18
 -1      1828 9.67605E-05-2.99376E-05-2.86249E-05-1.83262E-06-3.71576E-19-2.05065E-18
 -1      1829 9.50680E-05-2.91165E-05-2.82767E-05-3.01037E-06-4.19920E-19-2.86416E-18
 -1      1830 9.42289E-05-2.88001E-05-2.80577E-05-3.48225E-06-2.03888E-19-2.77874E-18
 -1      1831 9.62869E-05-2.97989E-05-2.84787E-05-3.26550E-06-3.29832E-19-1.90780E-18
 -1      1832 9.36418E-05-2.85272E-05-2.79173E-05-4.00208E-06-2.83101E-19-3.03527E-18
 -1      1833 9.25693E-05-2.80606E-05-2.76499E-05-4.30269E-06-1.86501E-19-3.20239E-18
 -1      1834 9.53295E-05-2.93169E-05-2.82750E-05-4.57956E-06-4.47923E-19-1.92686E-18
 -1      1835 9.17872E-05-2.76477E-05-2.74956E-05-4.52515E-06-1.34889E-19-3.09497E-18
 -1      1836 9.06191E-05-2.70842E-05-2.72158E-05-4.52532E-06-1.34561E-19-2.98992E-18
 -1      1837 9.39099E-05-2.84594E-05-2.80391E-05-5.42919E-06-7.79121E-20-1.96611E-18
 -1      1838 8.97646E-05-2.65964E-05-2.70714E-05-4.30252E-06-2.85781E-19-3.19147E-18
 -1      1839 8.87038E-05-2.60440E-05-2.68258E-05-3.92177E-06-2.14342E-19-3.12402E-18
 -1      1840 9.21971E-05-2.73166E-05-2.78057E-05-5.45139E-06-3.79876E-19-2.07531E-18
 -1      1841 8.79695E-05-2.56029E-05-2.67160E-05-3.20435E-06 2.50020E-19-2.95084E-18
 -1      1842 8.72392E-05-2.52012E-05-2.65514E-05-2.46512E-06 2.17105E-19-2.87362E-18
 -1      1843 9.05232E-05-2.61288E-05-2.76120E-05-4.41376E-06 2.50316E-19-2.18869E-18
 -1      1844 8.68304E-05-2.49458E-05-2.64965E-05-1.35901E-06 5.51597E-20-2.77675E-18
 -1      1845 8.66049E-05-2.48134E-05-2.64476E-05-4.05728E-07 7.71892E-20-2.70296E-18
 -1      1846 8.93130E-05-2.52338E-05-2.74898E-05-2.37129E-06 1.19266E-19-2.03236E-18
 -1      1847 8.66525E-05-2.48347E-05-2.64586E-05 8.38841E-07 1.84805E-19-2.68827E-18
 -1      1848 8.69940E-05-2.50150E-05-2.65376E-05 1.78089E-06 2.46887E-19-2.92210E-18
 -1      1849 8.89276E-05-2.49297E-05-2.74598E-05 2.73946E-07 4.43005E-20-2.11317E-18
 -1      1850 8.74900E-05-2.53070E-05-2.66142E-05 2.85965E-06 1.54104E-19-2.87699E-18
 -1      1851 8.83245E-05-2.57463E-05-2.68072E-05 3.57109E-06-1.80306E-19-2.48813E-18
 -1      1852 8.94995E-05-2.53265E-05-2.75290E-05 2.88761E-06 2.37302E-19-2.38387E-18
 -1      1853 8.91270E-05-2.62089E-05-2.69380E-05 4.24846E-06-3.54156E-19-2.06594E-18
 -1      1854 9.02746E-05-2.67840E-05-2.72092E-05 4.59941E-06 1.51096E-19-2.04985E-18
 -1      1855 9.08669E-05-2.62863E-05-2.76904E-05 4.85233E-06 8.55487E-20-2.00429E-18
 -1      1856 9.11783E-05-2.72781E-05-2.73742E-05 4.79017E-06 1.26697E-19-2.08126E-18
 -1      1857 9.24193E-05-2.78527E-05-2.76773E-05 4.77314E-06 2.20249E-19-1.89403E-18
 -1      1858 9.26562E-05-2.74987E-05-2.79234E-05 5.80748E-06 1.56275E-19-1.35859E-18
 -1      1859 9.32411E-05-2.82636E-05-2.78523E-05 4.54250E-06 3.39601E-19-2.36392E-18
 -1      1860 9.43835E-05-2.87375E-05-2.81428E-05 4.24676E-06 4.48980E-19-2.21383E-18
 -1      1861 9.44534E-05-2.86346E-05-2.81968E-05 5.73989E-06 3.10506E-19-1.97234E-18
 -1      1862 9.50132E-05-2.90089E-05-2.83051E-05 3.74823E-06 3.70627E-19-2.26142E-18
 -1      1863 9.59322E-05-2.93369E-05-2.85499E-05 3.30404E-06 3.03698E-19-1.95810E-18
 -1      1864 9.59500E-05-2.94738E-05-2.84743E-05 4.90550E-06 4.31175E-19-2.38436E-18
 -1      1865 9.63369E-05-2.94674E-05-2.86826E-05 2.70450E-06 1.41751E-19-1.91249E-18
 -1      1866 9.69829E-05-2.96513E-05-2.88641E-05 2.23210E-06-2.77342E-19-2.17915E-18
 -1      1867 9.70007E-05-2.99457E-05-2.87227E-05 3.66868E-06 3.39003E-19-2.16623E-18
 -1      1868 9.71835E-05-2.96721E-05-2.89587E-05 1.66115E-06-1.07558E-18-1.41880E-18
 -1      1869 9.75658E-05-2.97401E-05-2.90740E-05 1.24330E-06-7.70143E-19-1.34911E-18
 -1      1870 9.76000E-05-3.00952E-05-2.89183E-05 2.36066E-06-5.23903E-20-1.31624E-18
 -1      1871 9.76086E-05-2.96913E-05-2.91296E-05 7.75936E-07-1.82120E-19-1.62236E-18
 -1      1872 9.77719E-05-2.96803E-05-2.91862E-05 4.53413E-07 6.86019E-19-1.70961E-18
 -1      1873 9.78243E-05-3.00205E-05-2.90500E-05 1.20649E-06-7.04382E-19-2.25837E-19
 -1      1874 9.77076E-05-2.95969E-05-2.92074E-05 1.16236E-07 7.61913E-19-1.89753E-18
 -1      1875 9.77104E-05-2.95400E-05-2.92184E-05-1.03135E-07-1.13258E-19-1.70502E-18
 -1      1876 9.77788E-05-2.98227E-05-2.91186E-05 3.15784E-07 5.32829E-19-7.45718E-19
 -1      1877 9.75831E-05-2.94467E-05-2.92130E-05-3.16083E-07-5.01158E-19-1.73930E-18
 -1      1878 9.74823E-05-2.93692E-05-2.91926E-05-4.44405E-07-2.57905E-19-1.22746E-18
 -1      1879 9.75641E-05-2.95802E-05-2.91332E-05-2.91044E-07 2.19480E-19-9.30845E-19
 -1      1880 9.73257E-05-2.92806E-05-2.91690E-05-5.55734E-07-7.57147E-19-9.71355E-19
 -1      1881 9.71689E-05-2.91991E-05-2.91302E-05-6.13725E-07-5.15544E-19-1.11509E-18
 -1      1882 9.72610E-05-2.93427E-05-2.91069E-05-6.47118E-07-1.46133E-19-2.43480E-19
 -1      1883 9.70063E-05-2.91223E-05-2.90962E-05-6.51014E-07-4.56136E-19-1.12385E-18
 -1      1884 9.68288E-05-2.90465E-05-2.90491E-05-6.60429E-07-2.30125E-19-1.39658E-18
 -1      1885 9.69275E-05-2.91357E-05-2.90540E-05-8.08713E-07-4.42520E-19-4.51787E-19
 -1      1886 9.66749E-05-2.89837E-05-2.90110E-05-6.49371E-07-7.63524E-19-1.69311E-18
 -1      1887 9.65002E-05-2.89185E-05-2.89628E-05-6.28986E-07-8.89682E-19-2.31336E-18
 -1      1888 9.66015E-05-2.89680E-05-2.89870E-05-8.35048E-07-7.27617E-19-7.76568E-19
 -1      1889 9.63632E-05-2.88691E-05-2.89249E-05-5.90299E-07-1.92760E-19-2.87448E-18
 -1      1890 9.62053E-05-2.88160E-05-2.88801E-05-5.54446E-07 4.24834E-19-3.01654E-18
 -1      1891 9.63051E-05-2.88392E-05-2.89155E-05-7.77540E-07-9.80070E-19-7.08651E-19
 -1      1892 9.60888E-05-2.87785E-05-2.88453E-05-5.03190E-07 1.17201E-18-3.67403E-18
 -1      1893 9.59543E-05-2.87369E-05-2.88063E-05-4.61783E-07 9.17090E-19-3.05613E-18
 -1      1894 9.60490E-05-2.87442E-05-2.88466E-05-6.75768E-07 4.41484E-19-1.68443E-18
 -1      1895 9.58589E-05-2.87093E-05-2.87761E-05-4.07931E-07 6.92379E-19-3.11297E-18
 -1      1896 9.57497E-05-2.86780E-05-2.87439E-05-3.67185E-07 9.71460E-19-2.75151E-18
 -1      1897 9.58364E-05-2.86767E-05-2.87844E-05-5.57418E-07 1.04727E-18-2.41652E-18
 -1      1898 9.56740E-05-2.86581E-05-2.87188E-05-3.16683E-07 1.92524E-18-1.83798E-18
 -1      1899 9.55889E-05-2.86355E-05-2.86933E-05-2.80037E-07 2.55834E-18-8.35928E-19
 -1      1900 9.56658E-05-2.86302E-05-2.87310E-05-4.40103E-07 2.20427E-18-1.16364E-18
 -1      1901 9.55307E-05-2.86216E-05-2.86733E-05-2.35928E-07 1.21606E-18-1.71032E-18
 -1      1902 9.54670E-05-2.86059E-05-2.86539E-05-2.04904E-07-1.17418E-19-1.80497E-18
 -1      1903 9.55331E-05-2.85994E-05-2.86872E-05-3.33775E-07 1.39892E-18-8.10895E-19
 -1      1904 9.54236E-05-2.85965E-05-2.86385E-05-1.68297E-07-7.21087E-19-1.26946E-18
 -1      1905 9.53779E-05-2.85861E-05-2.86243E-05-1.43206E-07-1.60573E-18-1.13932E-18
 -1      1906 9.54330E-05-2.85799E-05-2.86524E-05-2.43029E-07-5.49726E-19-2.03630E-18
 -1      1907 9.53466E-05-2.85800E-05-2.86128E-05-1.14028E-07-1.83578E-18-9.89972E-19
 -1      1908 9.53153E-05-2.85736E-05-2.86030E-05-9.44903E-08-1.15051E-18-9.76591E-19
 -1      1909 9.53598E-05-2.85683E-05-2.86258E-05-1.69013E-07-1.64184E-18 4.24234E-19
 -1      1910 9.52936E-05-2.85700E-05-2.85948E-05-7.20344E-08-1.69784E-19-5.90364E-19
 -1      1911 9.52736E-05-2.85665E-05-2.85883E-05-5.73345E-08 9.61837E-19 1.20290E-19
 -1      1912 9.53082E-05-2.85622E-05-2.86061E-05-1.10858E-07-1.57349E-19 1.42759E-18
 -1      1913 9.52593E-05-2.85646E-05-2.85827E-05-4.06242E-08 2.03253E-18-2.85221E-19
 -1      1914 9.52477E-05-2.85632E-05-2.85787E-05-2.99499E-08 2.54140E-18 5.95634E-19
 -1      1915 9.52735E-05-2.85597E-05-2.85922E-05-6.66894E-08 1.44467E-18 1.37710E-18
 -1      1916 9.52390E-05-2.85624E-05-2.85751E-05-1.79731E-08 2.33635E-18 9.84557E-19
 -1      1917 9.52335E-05-2.85625E-05-2.85730E-05-1.05571E-08 2.46081E-18 1.91612E-18
 -1      1918 9.52516E-05-2.85596E-05-2.85827E-05-3.42900E-08 2.92954E-18 1.77887E-18
 -1      1919 9.52289E-05-2.85625E-05-2.85709E-05-2.40925E-09 1.40478E-18 9.51597E-19
 -1      1920 9.52276E-05-2.85635E-05-2.85701E-05 2.38162E-09 9.23721E-19 1.08178E-18
 -1      1921 9.52391E-05-2.85610E-05-2.85766E-05-1.15188E-08 1.58144E-18 1.37105E-18
 -1      1922 9.52257E-05-2.85642E-05-2.85690E-05 7.41274E-09 4.52339E-20 5.52812E-19
 -1      1923 9.52270E-05-2.85657E-05-2.85690E-05 1.00161E-08-3.29721E-19 1.11908E-19
 -1      1924 9.52333E-05-2.85635E-05-2.85730E-05 3.43849E-09-2.32970E-20 1.72048E-19
 -1      1925 9.52269E-05-2.85669E-05-2.85685E-05 1.24658E-08-4.48571E-19 3.22342E-20
 -1      1926 9.52296E-05-2.85688E-05-2.85689E-05 1.30580E-08-4.06559E-19 8.80038E-20
 -1      1927 9.52319E-05-2.85667E-05-2.85709E-05 1.19344E-08-7.63749E-19-1.96995E-19
 -1      1928 9.52303E-05-2.85700E-05-2.85686E-05 1.31657E-08 1.68963E-19 1.69008E-19
 -1      1929 9.52333E-05-2.85721E-05-2.85691E-05 1.18062E-08 2.78781E-19-3.58551E-19
 -1      1930 9.52355E-05-2.85743E-05-2.85691E-05 1.34080E-08-5.34398E-19 9.59706E-19
 -1      1931 9.52331E-05-2.85705E-05-2.85698E-05 1.49013E-08-5.23961E-19 2.03935E-19
 -1      1932 9.44616E-05-2.74573E-05-2.86687E-05 9.93257E-07 1.11372E-18 2.91724E-18
 -1      1933 9.50641E-05-2.73436E-05-2.89290E-05 1.94619E-06 1.26766E-18 3.33156E-18
 -1      1934 9.57928E-05-2.71001E-05-2.94047E-05 3.55797E-06 1.39160E-18 3.48909E-18
 -1      1935 9.74564E-05-2.69901E-05-3.00945E-05 5.48391E-06 1.39784E-18 3.86935E-18
 -1      1936 9.61162E-05-2.65253E-05-2.98398E-05 3.94019E-06 1.56143E-18 2.18150E-18
 -1      1937 9.40066E-05-2.76318E-05-2.84089E-05-5.01587E-07 7.69251E-19 2.49152E-18
 -1      1938 9.40769E-05-2.75245E-05-2.84609E-05 4.68401E-08 9.02083E-19 2.74422E-18
 -1      1939 9.51632E-05-2.72454E-05-2.91269E-05 1.04737E-06 1.26840E-18 1.93436E-18
 -1      1940 9.41956E-05-2.78246E-05-2.84137E-05-1.59488E-06 3.94693E-19 2.16844E-18
 -1      1941 9.39059E-05-2.76876E-05-2.83440E-05-1.17740E-06 5.67376E-19 2.32928E-18
 -1      1942 9.47681E-05-2.75751E-05-2.88169E-05-8.08227E-07 8.91070E-19 1.57663E-18
 -1      1943 9.49195E-05-2.80620E-05-2.86223E-05-2.49522E-06 4.16039E-19 1.72448E-18
 -1      1944 9.43386E-05-2.78868E-05-2.84590E-05-2.12404E-06 3.61003E-19 1.84837E-18
 -1      1945 9.48547E-05-2.77776E-05-2.87651E-05-2.17830E-06 6.28489E-19 1.23427E-18
 -1      1946 9.61051E-05-2.83487E-05-2.90025E-05-3.40901E-06 1.77394E-19 1.71564E-18
 -1      1947 9.52565E-05-2.81355E-05-2.87539E-05-3.00157E-06 2.41752E-19 1.73541E-18
 -1      1948 9.53488E-05-2.79272E-05-2.89095E-05-3.34941E-06 3.89794E-19 8.88524E-19
 -1      1949 9.77483E-05-2.86883E-05-2.95522E-05-4.50535E-06 1.44651E-19 1.83475E-18
 -1      1950 9.66069E-05-2.84285E-05-2.92113E-05-3.98827E-06 2.25397E-19 1.80032E-18
 -1      1951 9.61806E-05-2.80400E-05-2.92148E-05-4.56469E-06 1.25162E-19 1.04793E-18
 -1      1952 9.98957E-05-2.90929E-05-3.02884E-05-5.94296E-06 3.20946E-22 1.57751E-18
 -1      1953 9.84021E-05-2.87702E-05-2.98376E-05-5.24374E-06 8.17089E-20 1.71609E-18
 -1      1954 9.73126E-05-2.81113E-05-2.96669E-05-6.02417E-06 2.35872E-19 1.18861E-18
 -1      1955 1.02504E-04-2.95764E-05-3.11873E-05-7.75613E-06-1.23290E-19 1.53647E-18
 -1      1956 1.00650E-04-2.91698E-05-3.06340E-05-6.87282E-06 2.12420E-21 1.31893E-18
 -1      1957 9.86945E-05-2.81374E-05-3.02435E-05-7.85194E-06 1.10280E-19 8.23488E-19
 -1      1958 1.05961E-04-3.02691E-05-3.23628E-05-1.02225E-05-8.30622E-20 1.11876E-18
 -1      1959 1.03458E-04-2.96756E-05-3.16266E-05-9.02376E-06-8.56893E-20 1.12840E-18
 -1      1960 1.00363E-04-2.81569E-05-3.09503E-05-1.02312E-05 2.68198E-19 2.71147E-19
 -1      1961 1.10302E-04-3.13689E-05-3.37580E-05-1.31717E-05 3.17168E-19 1.00567E-18
 -1      1962 1.07111E-04-3.04561E-05-3.28646E-05-1.17903E-05 6.26672E-20 1.09020E-18
 -1      1963 1.02430E-04-2.83027E-05-3.17748E-05-1.32983E-05 3.78981E-20-1.87473E-19
 -1      1964 1.15736E-04-3.33535E-05-3.52658E-05-1.60587E-05 3.62778E-19 1.39895E-18
 -1      1965 1.11794E-04-3.18526E-05-3.42743E-05-1.48751E-05 5.08355E-19 1.30946E-18
 -1      1966 1.05052E-04-2.89747E-05-3.26189E-05-1.68367E-05 1.54372E-19 2.27858E-19
 -1      1967 1.22589E-04-3.71262E-05-3.66406E-05-1.74283E-05 1.38351E-19 1.54431E-18
 -1      1968 1.17983E-04-3.46137E-05-3.57100E-05-1.73632E-05 3.66603E-19 1.52704E-18
 -1      1969 1.08787E-04-3.11112E-05-3.33279E-05-2.01582E-05 3.68683E-19 6.42160E-19
 -1      1970 1.31370E-04-4.37878E-05-3.76073E-05-1.44731E-05-6.43083E-19 1.48719E-18
 -1      1971 1.26500E-04-3.99930E-05-3.69487E-05-1.71317E-05-2.21248E-19 1.36890E-18
 -1      1972 1.14927E-04-3.63864E-05-3.37425E-05-2.16018E-05 1.41335E-19 3.24242E-19
 -1      1973 1.41582E-04-5.23399E-05-3.83768E-05-4.46724E-06-1.36870E-18 1.49979E-18
 -1      1974 1.37772E-04-4.85442E-05-3.79719E-05-1.08381E-05-1.16073E-18 1.35707E-18
 -1      1975 1.25274E-04-4.61905E-05-3.40574E-05-1.82950E-05-8.35386E-19 1.12391E-19
 -1      1976 1.50369E-04-5.71150E-05-4.01448E-05 1.05934E-05-1.75238E-18 2.07572E-18
 -1      1977 1.49573E-04-5.67528E-05-3.94905E-05 3.03920E-06-1.57577E-18 1.82972E-18
 -1      1978 1.39972E-04-5.80987E-05-3.54187E-05-8.04650E-06-1.89354E-18 2.38559E-20
 -1      1979 1.49994E-04-2.95992E-05-5.21670E-05 1.66703E-05 1.21592E-18 1.76988E-18
 -1      1980 1.54422E-04-3.90592E-05-5.03276E-05 2.47129E-05 9.67735E-19 2.39530E-18
 -1      1981 1.55064E-04-4.28638E-05-4.89123E-05-2.71305E-05 2.87779E-18-4.20552E-19
 -1      1982 1.49305E-04-3.24707E-05-5.05878E-05-2.10414E-05 2.55465E-18 3.26214E-19
 -1      1983 1.57160E-04-5.64222E-05-4.33048E-05-2.13487E-05 2.14294E-18-7.59471E-19
 -1      1984 1.52721E-04-4.92393E-05-4.46587E-05-2.59403E-05 2.91993E-18 5.64336E-20
 -1      1985 1.49415E-04-5.52204E-05-4.01042E-05-2.83353E-06 3.08982E-19-6.96499E-19
 -1      1986 1.50027E-04-5.60037E-05-4.05786E-05-1.10927E-05 9.48756E-19-2.14538E-19
 -1      1987 1.55859E-04-6.13371E-05-4.10671E-05-1.18004E-05 1.50826E-18-5.14625E-19
 -1      1988 1.37634E-04-4.66609E-05-3.87262E-05 1.13173E-05-3.71821E-19-3.61379E-19
 -1      1989 1.41493E-04-5.06597E-05-3.91065E-05 5.42347E-06-1.65436E-19-5.91553E-19
 -1      1990 1.40862E-04-5.54237E-05-3.68633E-05 6.01686E-06-1.36584E-19-5.29263E-19
 -1      1991 1.27122E-04-3.91328E-05-3.75950E-05 1.63783E-05 1.02967E-19 2.20004E-19
 -1      1992 1.31805E-04-4.26330E-05-3.83161E-05 1.44528E-05 1.52916E-19 1.22449E-19
 -1      1993 1.27075E-04-4.41595E-05-3.56514E-05 1.68953E-05-9.55824E-20 2.81400E-19
 -1      1994 1.19439E-04-3.48302E-05-3.62454E-05 1.59708E-05-1.84562E-19 2.96342E-19
 -1      1995 1.23695E-04-3.70626E-05-3.71552E-05 1.63307E-05-1.48727E-19-2.60820E-19
 -1      1996 1.17870E-04-3.62043E-05-3.50671E-05 1.96851E-05-2.25403E-19-1.13191E-20
 -1      1997 1.13325E-04-3.23865E-05-3.47002E-05 1.33058E-05-7.31691E-20-5.15631E-19
 -1      1998 1.17105E-04-3.38114E-05-3.56701E-05 1.45858E-05-2.67676E-19-7.89726E-20
 -1      1999 1.11965E-04-3.20079E-05-3.42934E-05 1.80205E-05-1.99913E-19-1.08467E-19
 -1      2000 1.08694E-04-3.10989E-05-3.32677E-05 1.02224E-05 3.59572E-19-1.13287E-19
 -1      2001 1.11689E-04-3.19687E-05-3.41100E-05 1.16153E-05 3.26750E-19-2.34549E-19
 -1      2002 1.07854E-04-3.01309E-05-3.33162E-05 1.46773E-05-1.64536E-19-3.82065E-19
 -1      2003 1.05166E-04-3.03500E-05-3.20702E-05 7.52203E-06 4.42846E-19 6.87420E-20
 -1      2004 1.07441E-04-3.09029E-05-3.27396E-05 8.71151E-06 6.28737E-19 2.36276E-20
 -1      2005 1.04841E-04-2.94131E-05-3.23254E-05 1.12194E-05 5.52749E-19-3.68991E-19
 -1      2006 1.02493E-04-2.98608E-05-3.11294E-05 5.40661E-06-1.55258E-18 8.28007E-19
 -1      2007 1.04176E-04-3.02290E-05-3.16353E-05 6.32280E-06-9.72996E-19 2.86781E-19
 -1      2008 1.02516E-04-2.91423E-05-3.14451E-05 8.27364E-06-5.78980E-19-9.75286E-19
 -1      2009 1.00492E-04-2.95141E-05-3.04171E-05 3.83743E-06 3.41837E-19 7.75330E-19
 -1      2010 1.01712E-04-2.97671E-05-3.07886E-05 4.50875E-06-1.55742E-19 1.55091E-18
 -1      2011 1.00700E-04-2.90178E-05-3.07215E-05 5.97726E-06-1.24934E-18 2.37702E-19
 -1      2012 9.90686E-05-2.92675E-05-2.99120E-05 2.75450E-06 1.11998E-18 8.43196E-19
 -1      2013 9.99146E-05-2.94363E-05-3.01703E-05 3.21705E-06 1.03882E-18 5.10201E-19
 -1      2014 9.93177E-05-2.89389E-05-3.01662E-05 4.29994E-06 7.94219E-19 2.66184E-19
 -1      2015 9.79526E-05-2.90693E-05-2.95188E-05 1.93429E-06 2.31396E-20 6.97781E-19
 -1      2016 9.85922E-05-2.91989E-05-2.97151E-05 2.27864E-06 1.81308E-19 5.39476E-19
 -1      2017 9.82514E-05-2.88640E-05-2.97401E-05 3.08096E-06 8.42480E-19 1.04664E-18
 -1      2018 9.71400E-05-2.89213E-05-2.92342E-05 1.35441E-06 6.20372E-19 5.14963E-19
 -1      2019 9.75947E-05-2.90127E-05-2.93742E-05 1.59727E-06 3.01246E-19 2.60922E-19
 -1      2020 9.74171E-05-2.87975E-05-2.94114E-05 2.17670E-06 3.24792E-19 4.49296E-19
 -1      2021 9.65506E-05-2.88109E-05-2.90293E-05 9.44653E-07 7.44411E-19 2.81788E-19
 -1      2022 9.68723E-05-2.88756E-05-2.91286E-05 1.11557E-06 4.81989E-19 1.05299E-18
 -1      2023 9.67915E-05-2.87385E-05-2.91684E-05 1.53204E-06 9.14574E-19-1.53796E-19
 -1      2024 9.61266E-05-2.87298E-05-2.88827E-05 6.54793E-07 5.43976E-19 1.34288E-18
 -1      2025 9.63528E-05-2.87752E-05-2.89527E-05 7.75304E-07 1.25630E-18 7.66388E-19
 -1      2026 9.63273E-05-2.86889E-05-2.89905E-05 1.07308E-06 8.48516E-19 4.49239E-19
 -1      2027 9.58248E-05-2.86714E-05-2.87786E-05 4.49496E-07-4.51262E-19 1.37225E-18
 -1      2028 9.59821E-05-2.87028E-05-2.88276E-05 5.34531E-07 4.08722E-20 9.69201E-19
 -1      2029 9.59869E-05-2.86491E-05-2.88612E-05 7.46247E-07 2.34794E-19 2.30555E-18
 -1      2030 9.56209E-05-2.86318E-05-2.87085E-05 3.10137E-07-6.21929E-19 3.69134E-19
 -1      2031 9.57252E-05-2.86520E-05-2.87411E-05 3.68058E-07-1.13827E-18 3.75582E-19
 -1      2032 9.57453E-05-2.86200E-05-2.87700E-05 5.17496E-07-4.62451E-19 4.76001E-19
 -1      2033 9.54705E-05-2.86030E-05-2.86567E-05 2.05029E-07-7.53096E-19 2.41983E-19
 -1      2034 9.55454E-05-2.86173E-05-2.86803E-05 2.48216E-07-3.56374E-20 1.04685E-18
 -1      2035 9.55715E-05-2.85974E-05-2.87045E-05 3.54478E-07-8.23273E-19-2.31861E-20
 -1      2036 9.53688E-05-2.85840E-05-2.86214E-05 1.30864E-07-1.22306E-18 9.69860E-19
 -1      2037 9.54181E-05-2.85928E-05-2.86371E-05 1.61349E-07-1.82493E-18 4.05242E-19
 -1      2038 9.54456E-05-2.85818E-05-2.86570E-05 2.34423E-07-1.33493E-18 3.90112E-19
 -1      2039 9.53021E-05-2.85722E-05-2.85980E-05 7.88006E-08 4.63219E-19 8.31421E-19
 -1      2040 9.53332E-05-2.85772E-05-2.86082E-05 1.00117E-07-4.12740E-19 1.12502E-18
 -1      2041 9.53592E-05-2.85715E-05-2.86241E-05 1.49361E-07-1.03651E-18 1.13849E-19
 -1      2042 9.52604E-05-2.85655E-05-2.85831E-05 4.26063E-08 1.07425E-18 1.72200E-18
 -1      2043 9.52788E-05-2.85679E-05-2.85893E-05 5.73518E-08 7.85548E-19 1.55923E-18
 -1      2044 9.53016E-05-2.85654E-05-2.86019E-05 8.94975E-08 2.27274E-19-3.39119E-19
 -1      2045 9.52365E-05-2.85626E-05-2.85743E-05 1.78705E-08 7.46690E-19 2.25956E-18
 -1      2046 9.52460E-05-2.85631E-05-2.85777E-05 2.78531E-08 1.62819E-18 2.87459E-18
 -1      2047 9.52651E-05-2.85624E-05-2.85873E-05 4.78463E-08 8.39396E-19 2.15521E-18
 -1      2048 9.52252E-05-2.85621E-05-2.85697E-05 2.09155E-09-8.57316E-19 2.43748E-18
 -1      2049 9.52287E-05-2.85614E-05-2.85712E-05 8.41145E-09-9.74691E-19 1.88005E-18
 -1      2050 9.52438E-05-2.85618E-05-2.85784E-05 1.98813E-08 9.15475E-20 2.44610E-18
 -1      2051 9.52214E-05-2.85633E-05-2.85676E-05-8.49171E-09 1.09127E-18 6.68823E-19
 -1      2052 9.52212E-05-2.85618E-05-2.85680E-05-4.38984E-09-4.20505E-19 1.46491E-18
 -1      2053 9.52327E-05-2.85625E-05-2.85732E-05 1.38429E-09-3.25568E-19 2.80427E-18
 -1      2054 9.52229E-05-2.85657E-05-2.85673E-05-1.41907E-08 1.90160E-18 5.36074E-19
 -1      2055 9.52203E-05-2.85637E-05-2.85669E-05-1.21502E-08 2.06558E-18 2.01171E-18
 -1      2056 9.52283E-05-2.85644E-05-2.85704E-05-1.04462E-08 1.39527E-18 1.68658E-18
 -1      2057 9.52273E-05-2.85689E-05-2.85679E-05-1.57223E-08 5.04114E-19 1.54165E-18
 -1      2058 9.52236E-05-2.85666E-05-2.85672E-05-1.55934E-08 1.27804E-18 1.50444E-18
 -1      2059 9.52284E-05-2.85672E-05-2.85692E-05-1.64796E-08 1.16206E-18 2.04670E-18
 -1      2060 9.52326E-05-2.85727E-05-2.85686E-05-1.32220E-08 9.83155E-20 6.37827E-19
 -1      2061 9.52289E-05-2.85701E-05-2.85680E-05-1.49055E-08-6.16980E-20 2.56324E-19
 -1      2062 9.52314E-05-2.85710E-05-2.85688E-05-1.76200E-08 1.23653E-18 1.11234E-18
 -1      2063 2.46326E-05-3.76366E-05 4.47930E-06 1.92097E-05 1.01051E-18 1.01559E-18
 -1      2064 1.62885E-05-3.61983E-05 7.26515E-06 9.68980E-06 8.38245E-19 1.26674E-18
 -1      2065 9.52445E-05-2.85887E-05-2.85668E-05-1.07304E-08-8.73863E-19 2.06824E-19
 -1      2066 9.52434E-05-2.85860E-05-2.85674E-05-1.22674E-08-1.22044E-19-5.70492E-19
 -1      2067 9.52427E-05-2.85852E-05-2.85675E-05-1.38662E-08 1.65567E-19-1.40292E-18
 -1      2068 9.52407E-05-2.85816E-05-2.85682E-05-1.45760E-08 6.77306E-19-2.24818E-19
 -1      2069 9.52422E-05-2.85806E-05-2.85693E-05-1.50998E-08 8.68459E-19-8.86350E-19
 -1      2070 9.52347E-05-2.85740E-05-2.85688E-05-1.00985E-08 2.79936E-19-6.34825E-19
 -1      2071 9.52451E-05-2.85906E-05-2.85662E-05-6.93600E-09-2.16282E-18-4.54587E-19
 -1      2072 9.52446E-05-2.85889E-05-2.85667E-05-8.64693E-09-2.46311E-18 1.86705E-18
 -1      2073 9.52435E-05-2.85817E-05-2.85694E-05-1.10370E-08-1.64434E-18-1.23461E-18
 -1      2074 9.52449E-05-2.85912E-05-2.85659E-05-3.43349E-09-1.96121E-18-3.36484E-18
 -1      2075 9.52448E-05-2.85903E-05-2.85662E-05-4.94395E-09-1.88795E-18-1.29940E-18
 -1      2076 9.52433E-05-2.85814E-05-2.85694E-05-6.56412E-09-9.29403E-19-8.74108E-19
 -1      2077 9.52443E-05-2.85909E-05-2.85658E-05-7.75745E-10-1.60094E-18 1.62099E-19
 -1      2078 9.52445E-05-2.85906E-05-2.85659E-05-1.90336E-09-1.32897E-18-4.34765E-19
 -1      2079 9.52424E-05-2.85804E-05-2.85694E-05-2.74953E-09-1.45789E-18-9.33758E-19
 -1      2080 9.52437E-05-2.85901E-05-2.85658E-05 1.07356E-09-1.99755E-18-1.73181E-18
 -1      2081 9.52439E-05-2.85903E-05-2.85658E-05 2.65324E-10-1.03518E-18-1.70740E-18
 -1      2082 9.52414E-05-2.85791E-05-2.85695E-05-2.61743E-11-1.13451E-18-1.95705E-19
 -1      2083 9.52434E-05-2.85893E-05-2.85660E-05 2.49566E-09-8.12700E-19 8.99532E-19
 -1      2084 9.52436E-05-2.85898E-05-2.85659E-05 1.81532E-09-1.41041E-18 9.56870E-19
 -1      2085 9.52407E-05-2.85782E-05-2.85696E-05 1.80382E-09-1.50192E-18-5.74607E-20
 -1      2086 9.52433E-05-2.85884E-05-2.85663E-05 3.99124E-09-1.75635E-19 3.90381E-20
 -1      2087 9.52435E-05-2.85893E-05-2.85661E-05 3.22189E-09 7.17869E-20 1.13337E-18
 -1      2088 9.52405E-05-2.85779E-05-2.85697E-05 3.28365E-09-4.83972E-19 1.37148E-18
 -1      2089 9.52433E-05-2.85874E-05-2.85668E-05 5.91157E-09 2.75895E-19-1.32426E-18
 -1      2090 9.52435E-05-2.85886E-05-2.85664E-05 4.93732E-09 1.27065E-19-1.27454E-18
 -1      2091 9.52409E-05-2.85781E-05-2.85697E-05 5.00376E-09 1.21238E-18-6.14601E-19
 -1      2092 9.52430E-05-2.85857E-05-2.85673E-05 8.38771E-09-3.07491E-19 9.51302E-19
 -1      2093 9.52435E-05-2.85875E-05-2.85669E-05 7.20096E-09-1.61334E-19 1.18558E-19
 -1      2094 9.52414E-05-2.85786E-05-2.85698E-05 7.37293E-09 1.24857E-18-1.03526E-18
 -1      2095 9.52421E-05-2.85832E-05-2.85680E-05 1.09395E-08 9.72237E-19 9.68214E-19
 -1      2096 9.52430E-05-2.85856E-05-2.85675E-05 9.84355E-09 5.77381E-19 4.39250E-19
 -1      2097 9.52416E-05-2.85787E-05-2.85698E-05 1.03719E-08 1.13868E-18 1.65771E-18
 -1      2098 9.52399E-05-2.85798E-05-2.85686E-05 1.27236E-08-1.64545E-20 1.88629E-18
 -1      2099 9.52416E-05-2.85827E-05-2.85681E-05 1.21022E-08 6.80808E-20 8.48481E-19
 -1      2100 9.52408E-05-2.85780E-05-2.85698E-05 1.32578E-08 1.13049E-18 3.32825E-19
 -1      2101 5.70495E-05-4.45770E-05-6.08633E-06 3.47152E-05 7.93670E-19 2.41574E-18
 -1      2102 3.99954E-05-4.44181E-05 3.42995E-07 2.60201E-05 5.20078E-19 1.37050E-18
 -1      2103 1.06650E-05-3.49474E-05 9.17442E-06-3.87565E-06 8.70750E-19-9.31736E-20
 -1      2104 1.22694E-05-3.65525E-05 8.98041E-06-1.32039E-05 1.27436E-18-1.21337E-18
 -1      2105 8.73326E-05-8.65819E-06-3.38092E-05-1.00309E-05-1.86602E-19-3.46263E-18
 -1      2106 8.81050E-05-9.22921E-06-3.38878E-05-1.16017E-05-4.51111E-19-3.46868E-18
 -1      2107 9.06231E-05-1.30001E-05-3.32943E-05-1.12811E-05-6.67747E-19-3.21653E-18
 -1      2108 8.86802E-05-1.09133E-05-3.33606E-05-8.86822E-06-1.29115E-19-3.26154E-18
 -1      2109 1.87444E-04-5.34141E-05-5.64509E-05 8.63685E-06 2.76110E-18-1.93124E-18
 -1      2110 1.64233E-04-5.46363E-05-4.75182E-05 1.10493E-05 2.86827E-18-1.96596E-18
 -1      2111 1.90827E-04-3.95779E-05-6.43714E-05-9.53333E-06 3.03788E-18-2.07015E-18
 -1      2112 1.84209E-04-4.43522E-05-5.97585E-05-5.37631E-06 2.99236E-18-1.23243E-18
 -1      2113 1.91708E-04-3.98334E-05-6.44830E-05 6.75204E-06 1.89375E-18-1.37389E-18
 -1      2114 1.92519E-04-3.37852E-05-6.72974E-05 8.68251E-06 1.51661E-18-1.61529E-18
 -1      2115 1.77228E-04-5.17151E-05-5.43409E-05 1.26552E-06 5.48771E-19-2.32256E-18
 -1      2116 1.91652E-04-4.75607E-05-6.10931E-05 3.91974E-06 1.41560E-18-1.81562E-18
 -1      2117 1.72119E-04-4.19777E-05-5.47197E-05 2.18210E-05 8.25222E-19 7.94517E-19
 -1      2118 1.53357E-04-5.90082E-05-4.13358E-05-1.55414E-05 1.57972E-19-2.60674E-18
 -1      2119 1.74720E-04-5.79654E-05-4.97750E-05-1.00403E-05 6.25746E-19-2.46529E-18
 -1      2120 1.72214E-04-5.85326E-05-4.79481E-05 1.11764E-05-2.51992E-19-1.24726E-18
 -1      2121 1.18337E-04-5.97231E-05-2.61082E-05-2.82066E-05-3.76083E-19-3.59100E-18
 -1      2122 1.41959E-04-5.99294E-05-3.49973E-05-2.79727E-05 1.54584E-19-3.48003E-18
 -1      2123 1.57887E-04-6.84987E-05-3.80764E-05-7.74709E-06-1.07107E-18-1.44229E-18
 -1      2124 6.59842E-05-5.05686E-05-8.19461E-06-3.22987E-05-3.48554E-19-3.17565E-18
 -1      2125 8.89113E-05-5.20160E-05-1.64869E-05-3.86587E-05-6.56451E-20-3.80995E-18
 -1      2126 2.91389E-05-4.37787E-05 4.31158E-06-1.99708E-05-8.92349E-19-2.36534E-18
 -1      2127 4.30898E-05-4.21085E-05-1.46361E-06-3.02207E-05-2.41404E-19-3.26171E-18
 -1      2128 1.25335E-05-3.92521E-05 9.75027E-06-2.53360E-06-1.82731E-18-1.55092E-18
 -1      2129 1.74291E-05-3.91554E-05 7.80526E-06-1.15061E-05-9.13525E-19-1.68136E-18
 -1      2130 1.45093E-05-3.40318E-05 7.35703E-06 1.85112E-05-1.95411E-18-2.62580E-18
 -1      2131 1.19097E-05-3.71571E-05 9.32901E-06 8.75404E-06-1.66511E-18-2.17391E-18
 -1      2132 3.82613E-05-3.58933E-05-1.40748E-06 3.92782E-05-1.85119E-18-2.28233E-18
 -1      2133 2.65205E-05-3.78926E-05 3.74565E-06 2.95367E-05-1.54456E-18-2.51781E-18
 -1      2134 7.26211E-05-4.02935E-05-1.41158E-05 4.69450E-05-2.88711E-18-1.61148E-18
 -1      2135 5.64548E-05-4.29798E-05-6.85247E-06 4.14010E-05-2.13961E-18-1.77729E-18
 -1      2136 1.13901E-04-4.56142E-05-2.94749E-05 4.38796E-05-2.34035E-18-8.29245E-19
 -1      2137 9.10019E-05-4.42052E-05-2.08970E-05 4.30459E-05-2.88881E-18-1.52085E-18
 -1      2138 9.54947E-05-5.10211E-05-1.89916E-05 4.66111E-05-7.86470E-19-3.54695E-19
 -1      2139 1.50520E-04-3.80497E-05-4.69723E-05 3.69760E-05-2.90617E-18-1.18542E-18
 -1      2140 1.32652E-04-4.24766E-05-3.85381E-05 3.51222E-05-2.82041E-18-9.33430E-19
 -1      2141 1.74570E-04-3.29658E-05-5.94036E-05 2.63496E-05-2.39414E-18-1.08717E-18
 -1      2142 1.58282E-04-3.32839E-05-5.32223E-05 3.07741E-05-2.52318E-18-1.33238E-18
 -1      2143 1.86691E-04-2.74503E-05-6.69667E-05 1.09356E-05-2.94725E-18-6.21299E-19
 -1      2144 1.77177E-04-2.75859E-05-6.33313E-05 1.76153E-05-2.59319E-18-1.04143E-18
 -1      2145 1.91138E-04-2.43488E-05-7.02886E-05-1.35025E-06-3.76548E-18-9.47618E-20
 -1      2146 1.90981E-04-2.53511E-05-6.96941E-05 7.78033E-06-3.58846E-18-6.23840E-19
 -1      2147 1.83779E-04-2.59444E-05-6.66940E-05-1.33745E-05-2.19593E-18-1.35525E-19
 -1      2148 1.88453E-04-2.47023E-05-6.89775E-05-5.01772E-06-2.85958E-18-3.45589E-19
 -1      2149 1.66167E-04-3.00017E-05-5.79852E-05-2.18552E-05-6.87791E-19-1.41878E-19
 -1      2150 1.82084E-04-3.03069E-05-6.36490E-05-1.86831E-05-1.81434E-18-5.48877E-19
 -1      2151 1.65748E-04-2.05164E-05-6.11188E-05-2.58900E-06-1.30295E-18-1.90985E-18
 -1      2152 1.40407E-04-3.75793E-05-4.40825E-05-3.58598E-05 3.98317E-19 1.07404E-18
 -1      2153 1.58226E-04-3.69693E-05-5.12169E-05-3.14556E-05 1.85394E-19 9.04631E-19
 -1      2154 1.09661E-04-4.14488E-05-2.97899E-05-4.18182E-05 2.60505E-18 1.78809E-18
 -1      2155 1.29132E-04-3.90910E-05-3.79448E-05-4.41092E-05 1.35864E-18 1.95876E-18
 -1      2156 1.42456E-04-4.80492E-05-3.98557E-05-2.78246E-05 1.56489E-18 1.37473E-18
 -1      2157 7.37086E-05-4.33595E-05-1.40341E-05-4.33948E-05 2.00577E-18 1.35970E-18
 -1      2158 9.19048E-05-4.08486E-05-2.18103E-05-4.82776E-05 2.19170E-18 1.48464E-18
 -1      2159 4.07135E-05-4.12082E-05-1.16458E-06-3.66464E-05 2.33146E-18-5.65183E-19
 -1      2160 5.46455E-05-3.81564E-05-7.46871E-06-4.43382E-05 1.97486E-18 1.14733E-18
 -1      2161 1.91363E-05-3.81367E-05 6.72319E-06-2.31744E-05 1.99942E-18-1.00458E-18
 -1      2162 2.66019E-05-3.57017E-05 3.03991E-06-3.13714E-05 2.55635E-18-1.20363E-18
 -1      2163 1.00167E-04-2.26130E-05-3.29635E-05 1.42125E-05 1.50224E-18 4.35825E-18
 -1      2164 1.48032E-04-5.85086E-05-3.84807E-05 2.71081E-05 2.34459E-18-1.94309E-18
 -1      2165 1.22034E-04-5.75601E-05-2.89871E-05 2.85659E-05 1.96173E-18-3.39660E-19
 -1      2166 1.28465E-04-6.59364E-05-2.68161E-05 2.76328E-05 6.02240E-19-7.34378E-19
 -1      2167 1.00017E-04-2.26210E-05-3.28898E-05-1.40812E-05-1.55841E-18-1.75728E-18
 -1      2168 9.52351E-05-2.85747E-05-2.85687E-05-1.34255E-08 7.37408E-19 5.12800E-19
 -1      2169 9.52378E-05-2.85784E-05-2.85683E-05-1.46158E-08 3.47306E-19-9.89836E-19
 -1      2170 8.27810E-05-5.30284E-05-1.30824E-05 3.73225E-05-3.29919E-19 1.32359E-18
 -1      2171 9.74816E-05-2.44069E-05-3.13885E-05-9.61687E-06-1.38675E-18-2.07939E-18
 -1      2172 1.63706E-04-6.43200E-05-4.20559E-05 5.23210E-06 2.39160E-18-1.83933E-18
 -1      2173 9.66630E-05-2.31929E-05-3.15552E-05-9.89971E-06-1.42063E-18-2.40453E-18
 -1      2174 9.67473E-05-2.32000E-05-3.16012E-05 9.86304E-06 1.82303E-18 2.48645E-18
 -1      2175 9.76110E-05-2.44445E-05-3.14363E-05 9.63927E-06 1.54891E-18 3.91782E-18
 -1      2176 1.57414E-04-4.57208E-05-4.83375E-05 2.72265E-05 3.80318E-19 1.82387E-18
 -1      2177 1.57019E-04-5.68735E-05-4.30334E-05 2.00680E-05-1.54647E-18 2.30446E-18
 -1      2178 1.55265E-04-6.28626E-05-3.96887E-05 9.41115E-06-1.78486E-18 5.51313E-19
 -1      2179 1.47463E-04-2.57695E-05-5.30031E-05 1.83576E-06 1.53144E-18 1.43096E-18
 -1      2180 1.67973E-04-2.68907E-05-5.97989E-05 7.49849E-06 1.54838E-18 3.14037E-19
 -1      2181 1.90941E-04-2.87149E-05-6.86235E-05-1.77053E-06 2.11165E-18-1.98777E-18
 -1      2182 1.48532E-04-2.76873E-05-5.25967E-05-1.11269E-05 1.98968E-18 1.18354E-18
 -1      2183 1.53808E-04-5.02979E-05-4.46833E-05 2.46287E-05-3.53001E-19 2.39054E-18
 -1      2184 1.66156E-04-2.97923E-05-5.77862E-05-1.80808E-05 3.16113E-18-1.08547E-18
 -1      2185 1.65912E-04-5.63533E-05-4.75305E-05 1.95191E-05-6.48298E-19 1.11385E-19
 -1      2186 1.64070E-04-4.92415E-05-4.96945E-05-2.57695E-05 2.90744E-18-1.64557E-18
 -1      2187 1.59817E-05-2.57548E-05 3.61700E-06 5.55416E-06 6.57298E-19 7.25484E-19
 -1      2188 9.52375E-05-2.85763E-05-2.85691E-05-1.72704E-08 1.85557E-18-4.53307E-19
 -1      2189 3.97149E-05-3.53490E-05-2.30367E-06 2.94629E-05 1.67501E-19 8.38563E-19
 -1      2190 9.52387E-05-2.85773E-05-2.85692E-05 1.31263E-08 6.22116E-20 1.72112E-18
 -1      2191 1.76490E-05-2.64330E-05 3.13293E-06-2.25743E-05 1.05159E-18-1.35144E-18
 -1      2192 4.04726E-05-3.48996E-05-2.81116E-06-4.13401E-05 1.86474E-18-1.98841E-19
 -1      2193 1.13760E-04-5.17212E-05-2.65097E-05-4.17692E-05 2.50341E-18 1.96003E-18
 -1      2194 1.59735E-04-3.61315E-05-5.21715E-05-1.25302E-05 3.93659E-19-1.35737E-18
 -1      2195 1.69523E-04-1.40922E-05-6.54188E-05-9.74654E-08-3.17595E-18-6.03511E-19
 -1      2196 1.67985E-04-1.60710E-05-6.39352E-05 4.98702E-07-3.22254E-18-6.21087E-19
 -1      2197 1.64845E-04-2.74532E-05-5.78397E-05 7.01628E-06-2.34692E-18-1.96512E-19
 -1      2198 1.28936E-04-4.96888E-05-3.38016E-05 3.49929E-05-2.01573E-18-3.64224E-19
 -1      2199 1.26470E-04-5.64027E-05-2.94709E-05 3.45388E-05-9.39995E-19 3.27166E-19
 -1      2200 1.40726E-04-5.44438E-05-3.75950E-05 2.31817E-05-1.48739E-18 9.19878E-19
 -1      2201 5.66079E-05-4.05257E-05-7.24731E-06 4.58186E-05-2.84603E-19-1.61307E-18
 -1      2202 2.45433E-05-2.72305E-05 8.58079E-07 2.95367E-05-3.52789E-19-2.52628E-18
 -1      2203 1.31113E-05-2.56222E-05 4.59275E-06 2.43878E-06-8.32342E-19-2.27682E-18
 -1      2204 2.74411E-05-3.30943E-05 1.62241E-06-2.23626E-05-6.41627E-19-2.69441E-18
 -1      2205 1.90607E-04-3.15497E-05-6.75339E-05-3.12698E-06 2.73422E-18-1.78809E-18
 -1      2206 1.18240E-04-6.37098E-05-2.35280E-05-3.15614E-05-9.93146E-19-3.48289E-18
 -1      2207 6.45679E-05-4.69534E-05-7.97315E-06-3.68322E-05-7.75035E-19-3.17224E-18
 -1      2208 1.54884E-04-4.15008E-05-4.80903E-05 1.77302E-05-1.83564E-18 3.13826E-19
 -1      2209 7.56073E-05-4.61589E-05-1.28231E-05-4.82025E-05 2.10869E-18 1.56288E-18
 -1      2210 8.77225E-05-1.06811E-05-3.30577E-05-3.28260E-06 8.00352E-19-2.71974E-18
 -1      2211 8.80320E-05-1.10047E-05-3.30465E-05-4.35917E-06 6.32330E-19-2.88843E-18
 -1      2212 8.84749E-05-1.15694E-05-3.30057E-05-5.31928E-06 4.93712E-19-2.87621E-18
 -1      2213 8.89687E-05-1.21014E-05-3.29863E-05-6.44852E-06 1.92020E-19-2.93576E-18
 -1      2214 8.95413E-05-1.33365E-05-3.26578E-05-4.37644E-06 5.48073E-19-2.73635E-18
 -1      2215 8.72007E-05-1.00528E-05-3.30971E-05 6.21554E-07 1.42481E-18-2.06061E-18
 -1      2216 8.72111E-05-1.00651E-05-3.30949E-05-3.92540E-07 1.26730E-18-2.28455E-18
 -1      2217 8.74094E-05-1.02733E-05-3.30918E-05 2.54519E-06 1.64210E-18-1.78336E-18
 -1      2218 8.72694E-05-1.01323E-05-3.30937E-05 1.52629E-06 1.45543E-18-1.93321E-18
 -1      2219 8.84184E-05-1.19587E-05-3.27689E-05 1.00888E-06 1.40160E-18-1.91962E-18
 -1      2220 8.79500E-05-1.08757E-05-3.30679E-05 4.46876E-06 1.89674E-18-1.36085E-18
 -1      2221 8.76492E-05-1.05672E-05-3.30749E-05 3.43698E-06 1.74603E-18-1.59464E-18
 -1      2222 8.87334E-05-1.23248E-05-3.27453E-05 2.74087E-06 1.56390E-18-1.59417E-18
 -1      2223 8.89085E-05-1.19722E-05-3.30161E-05 6.48363E-06 2.20029E-18-7.73917E-19
 -1      2224 8.83973E-05-1.14321E-05-3.30320E-05 5.38356E-06 2.03138E-18-1.09957E-18
 -1      2225 8.94305E-05-1.31554E-05-3.26854E-05 4.47203E-06 1.83791E-18-1.09086E-18
 -1      2226 9.03815E-05-1.37228E-05-3.29147E-05 8.53289E-06 2.33350E-18-1.42116E-19
 -1      2227 8.96059E-05-1.28553E-05-3.29487E-05 7.39235E-06 2.22964E-18-5.57778E-19
 -1      2228 9.05785E-05-1.45630E-05-3.25697E-05 6.19584E-06 2.09198E-18-5.94601E-19
 -1      2229 9.25797E-05-1.64891E-05-3.27048E-05 1.03936E-05 2.35524E-18 6.70400E-19
 -1      2230 9.14167E-05-1.50521E-05-3.27881E-05 9.33359E-06 2.29413E-18 2.11044E-19
 -1      2231 9.22380E-05-1.67012E-05-3.23557E-05 7.76027E-06 2.18338E-18 1.18585E-20
 -1      2232 9.57814E-05-2.09662E-05-3.21286E-05 1.06816E-05 2.04504E-18 1.83827E-18
 -1      2233 9.39571E-05-1.85567E-05-3.23493E-05 1.03220E-05 2.21149E-18 1.07552E-18
 -1      2234 9.44138E-05-2.00225E-05-3.18542E-05 8.26917E-06 2.11415E-18 7.87686E-19
 -1      2235 9.60778E-05-2.39077E-05-3.09226E-05 6.95602E-06 1.85605E-18 1.77044E-18
 -1      2236 1.41381E-04-6.88419E-05-3.16827E-05 1.99052E-05 3.92176E-19-1.50941E-18
 -1      2237 1.23137E-04-6.36506E-05-2.53659E-05 2.62909E-05-1.23667E-19-1.33217E-18
 -1      2238 9.62849E-05-2.51441E-05-3.04440E-05-5.60310E-06-1.04318E-18-2.28058E-18
 -1      2239 9.57116E-05-2.59026E-05-2.99293E-05-3.64685E-06-7.90785E-19-2.21421E-18
 -1      2240 9.56462E-05-2.65968E-05-2.95372E-05-2.24099E-06-7.10154E-19-1.98177E-18
 -1      2241 9.52861E-05-2.69933E-05-2.92657E-05-1.12805E-06-6.10607E-19-1.92774E-18
 -1      2242 9.57292E-05-2.53584E-05-3.01652E-05-3.53395E-06-7.20292E-19-2.13397E-18
 -1      2243 9.51691E-05-2.73437E-05-2.90295E-05-2.11672E-07-5.53098E-19-1.72865E-18
 -1      2244 9.50350E-05-2.75981E-05-2.88978E-05 4.44048E-07-4.94372E-19-1.82466E-18
 -1      2245 9.55726E-05-2.67314E-05-2.95193E-05-1.02849E-06-4.84759E-19-1.83084E-18
 -1      2246 9.49942E-05-2.78221E-05-2.87644E-05 1.01551E-06-5.17825E-19-1.75565E-18
 -1      2247 9.50401E-05-2.80290E-05-2.87164E-05 1.38610E-06-4.10938E-19-1.72335E-18
 -1      2248 9.54532E-05-2.75220E-05-2.91284E-05 5.91809E-07-5.14391E-19-1.66478E-18
 -1      2249 9.50942E-05-2.82103E-05-2.86500E-05 1.71032E-06-2.04669E-19-1.79461E-18
 -1      2250 9.52612E-05-2.84073E-05-2.86513E-05 1.88280E-06-1.80973E-20-1.70817E-18
 -1      2251 9.55010E-05-2.80805E-05-2.89071E-05 1.57667E-06-3.66950E-19-1.50600E-18
 -1      2252 9.54042E-05-2.85870E-05-2.86266E-05 2.01593E-06-1.41375E-19-1.91284E-18
 -1      2253 9.56414E-05-2.87910E-05-2.86533E-05 2.02849E-06-1.59911E-19-1.83836E-18
 -1      2254 9.57250E-05-2.85576E-05-2.87959E-05 2.09310E-06-2.08204E-19-1.48104E-18
 -1      2255 9.58598E-05-2.89906E-05-2.86517E-05 1.99224E-06-2.14192E-19-1.76585E-18
 -1      2256 9.61221E-05-2.92067E-05-2.86857E-05 1.85424E-06-3.45194E-19-1.83118E-18
 -1      2257 9.61084E-05-2.90382E-05-2.87519E-05 2.22519E-06-2.46429E-19-1.71815E-18
 -1      2258 9.63987E-05-2.94350E-05-2.86937E-05 1.64723E-06-5.48770E-19-1.79958E-18
 -1      2259 9.66420E-05-2.96572E-05-2.87205E-05 1.35262E-06-7.86073E-19-1.97247E-18
 -1      2260 9.66229E-05-2.95661E-05-2.87441E-05 1.99698E-06-5.82348E-19-1.68379E-18
 -1      2261 9.69523E-05-2.99084E-05-2.87291E-05 9.61583E-07-8.38639E-19-1.73113E-18
 -1      2262 9.71280E-05-3.01156E-05-2.87375E-05 5.02224E-07-5.52431E-19-1.80089E-18
 -1      2263 9.72288E-05-3.01496E-05-2.87515E-05 1.39471E-06-6.02725E-19-1.77641E-18
 -1      2264 9.74331E-05-3.03629E-05-2.87419E-05-8.28948E-08-4.08605E-19-1.72481E-18
 -1      2265 9.74866E-05-3.05139E-05-2.87244E-05-7.00469E-07-3.80352E-19-1.65790E-18
 -1      2266 9.78634E-05-3.07525E-05-2.87622E-05 3.93379E-07-5.29692E-19-1.49828E-18
 -1      2267 9.77257E-05-3.07035E-05-2.87242E-05-1.46536E-06-2.78541E-19-1.50274E-18
 -1      2268 9.75996E-05-3.07356E-05-2.86782E-05-2.19963E-06-2.40902E-19-1.37972E-18
 -1      2269 9.84265E-05-3.12784E-05-2.87740E-05-1.00619E-06-2.03328E-19-1.30309E-18
 -1      2270 9.76896E-05-3.07871E-05-2.86779E-05-3.07911E-06-4.51616E-20-1.31180E-18
 -1      2271 9.73349E-05-3.06259E-05-2.86067E-05-3.83408E-06-7.10499E-20-9.47021E-19
 -1      2272 9.87710E-05-3.15640E-05-2.87938E-05-2.72768E-06-4.64131E-20-1.02016E-18
 -1      2273 9.71845E-05-3.04483E-05-2.86133E-05-4.68792E-06-5.13406E-19-8.97142E-19
 -1      2274 9.65840E-05-3.00345E-05-2.85263E-05-5.30520E-06-4.09493E-19-9.15776E-19
 -1      2275 9.87162E-05-3.13988E-05-2.88355E-05-4.56410E-06-3.21161E-19-6.13275E-19
 -1      2276 9.61332E-05-2.95673E-05-2.85465E-05-5.91442E-06-4.89858E-19-9.16979E-19
 -1      2277 9.53306E-05-2.89012E-05-2.84574E-05-6.19376E-06-4.40978E-19-9.25845E-19
 -1      2278 9.81018E-05-3.05960E-05-2.89131E-05-6.14237E-06-4.34958E-19-1.45826E-19
 -1      2279 9.46090E-05-2.81733E-05-2.84929E-05-6.30322E-06-6.58017E-19-1.20325E-18
 -1      2280 9.37313E-05-2.73583E-05-2.84159E-05-6.06398E-06-3.50739E-19-1.23415E-18
 -1      2281 9.68900E-05-2.91162E-05-2.90313E-05-6.95514E-06-9.09888E-19-3.20612E-19
 -1      2282 9.29034E-05-2.65310E-05-2.84595E-05-5.48412E-06 1.99638E-19-1.59666E-18
 -1      2283 9.21491E-05-2.57775E-05-2.84059E-05-4.65772E-06 2.79928E-19-1.35322E-18
 -1      2284 9.52776E-05-2.71941E-05-2.91758E-05-6.50883E-06-2.97160E-19-4.96875E-19
 -1      2285 9.14902E-05-2.51194E-05-2.84435E-05-3.39273E-06 4.46165E-20-1.49389E-18
 -1      2286 9.10702E-05-2.46758E-05-2.84197E-05-2.09874E-06 1.92237E-21-1.69868E-18
 -1      2287 9.37228E-05-2.53606E-05-2.93121E-05-4.57730E-06 1.44500E-19-6.48402E-19
 -1      2288 9.08447E-05-2.44434E-05-2.84370E-05-4.12197E-07-1.32468E-19-1.81202E-18
 -1      2289 9.08928E-05-2.44749E-05-2.84456E-05 1.04942E-06-3.15096E-19-2.07824E-18
 -1      2290 9.27948E-05-2.42610E-05-2.93978E-05-1.43394E-06-1.59144E-19-9.42929E-19
 -1      2291 9.12015E-05-2.47654E-05-2.84371E-05 2.71243E-06-3.90148E-20-2.51636E-18
 -1      2292 9.17096E-05-2.52605E-05-2.84784E-05 3.97308E-06 4.56048E-19-2.43882E-18
 -1      2293 9.28807E-05-2.43305E-05-2.94041E-05 2.14775E-06-3.93567E-19-1.62523E-18
 -1      2294 9.24261E-05-2.59510E-05-2.84514E-05 5.18046E-06 6.16021E-19-2.51104E-18
 -1      2295 9.32487E-05-2.67278E-05-2.85231E-05 5.95859E-06 3.85244E-19-1.95342E-18
 -1      2296 9.39532E-05-2.55367E-05-2.93336E-05 5.20059E-06 4.45698E-19-2.18323E-18
 -1      2297 9.40995E-05-2.75516E-05-2.84931E-05 6.47908E-06 3.64703E-19-1.93961E-18
 -1      2298 9.50257E-05-2.83617E-05-2.85891E-05 6.68086E-06 4.06822E-19-1.73366E-18
 -1      2299 9.55882E-05-2.74014E-05-2.92186E-05 7.00255E-06 5.82218E-19-1.78055E-18
 -1      2300 9.57471E-05-2.90608E-05-2.85701E-05 6.53999E-06-1.06709E-19-1.87854E-18
 -1      2301 9.65879E-05-2.97067E-05-2.86791E-05 6.25211E-06-2.32307E-19-2.08495E-18
 -1      2302 9.72200E-05-2.92786E-05-2.91026E-05 7.35064E-06-1.13634E-19-1.85728E-18
 -1      2303 9.70340E-05-3.01377E-05-2.86770E-05 5.65282E-06-5.86678E-20-2.50832E-18
 -1      2304 9.76752E-05-3.05317E-05-2.87850E-05 5.06145E-06 4.23714E-19-2.64682E-18
 -1      2305 9.84229E-05-3.06731E-05-2.90181E-05 6.51609E-06-3.34077E-19-2.64049E-18
 -1      2306 9.78308E-05-3.06806E-05-2.87969E-05 4.25624E-06 5.87929E-19-2.91978E-18
 -1      2307 9.82389E-05-3.08334E-05-2.88907E-05 3.55651E-06 4.19740E-19-2.51738E-18
 -1      2308 9.90347E-05-3.13907E-05-2.89764E-05 5.00167E-06 4.63674E-19-3.27656E-18
 -1      2309 9.81700E-05-3.07682E-05-2.89092E-05 2.75218E-06 8.26802E-19-2.29246E-18
 -1      2310 9.83676E-05-3.07441E-05-2.89796E-05 2.09170E-06 5.29210E-19-1.42882E-18
 -1      2311 9.91145E-05-3.14987E-05-2.89698E-05 3.29673E-06 6.97080E-19-2.83270E-18
 -1      2312 9.81640E-05-3.05567E-05-2.89964E-05 1.41337E-06-4.79113E-19-8.81925E-19
 -1      2313 9.82002E-05-3.04308E-05-2.90398E-05 8.75575E-07-2.05587E-20-5.29967E-19
 -1      2314 9.88273E-05-3.11948E-05-2.89818E-05 1.74425E-06 4.34829E-19-2.37953E-18
 -1      2315 9.79393E-05-3.02000E-05-2.90491E-05 3.73332E-07 8.90137E-20-1.22154E-19
 -1      2316 9.78673E-05-3.00338E-05-2.90667E-05-1.33389E-08 5.13431E-19-3.33949E-19
 -1      2317 9.83465E-05-3.06894E-05-2.89956E-05 5.18966E-07 1.36223E-19-1.27885E-19
 -1      2318 9.76016E-05-2.98115E-05-2.90660E-05-3.40609E-07 4.81810E-19-1.04377E-18
 -1      2319 9.74674E-05-2.96453E-05-2.90622E-05-5.84049E-07 5.55022E-20-8.05277E-19
 -1      2320 9.78055E-05-3.01428E-05-2.89998E-05-3.35221E-07-8.56483E-20-7.27079E-19
 -1      2321 9.72256E-05-2.94579E-05-2.90517E-05-7.64374E-07-2.45750E-19-8.06152E-19
 -1      2322 9.70635E-05-2.93129E-05-2.90324E-05-8.90840E-07 4.27642E-20-4.99480E-19
 -1      2323 9.72865E-05-2.96508E-05-2.89890E-05-8.53139E-07 1.84183E-19-6.35655E-19
 -1      2324 9.68577E-05-2.91686E-05-2.90141E-05-9.61410E-07-2.64143E-19-4.73537E-19
 -1      2325 9.66914E-05-2.90525E-05-2.89853E-05-1.00255E-06-1.60927E-19 4.83311E-21
 -1      2326 9.68305E-05-2.92554E-05-2.89632E-05-1.10479E-06 8.98349E-20-2.55015E-19
 -1      2327 9.65233E-05-2.89491E-05-2.89620E-05-9.99248E-07-4.56033E-19-2.49078E-19
 -1      2328 9.63672E-05-2.88618E-05-2.89289E-05-9.84490E-07-8.56190E-19-5.59974E-19
 -1      2329 9.64510E-05-2.89632E-05-2.89257E-05-1.16687E-06-5.13441E-19 1.18214E-19
 -1      2330 9.62338E-05-2.87922E-05-2.89033E-05-9.37032E-07-9.17045E-19 7.47306E-21
 -1      2331 9.60957E-05-2.87299E-05-2.88697E-05-8.90184E-07-9.34503E-19 3.12916E-20
 -1      2332 9.61461E-05-2.87623E-05-2.88809E-05-1.10758E-06-6.70908E-19 7.57429E-19
 -1      2333 9.59919E-05-2.86859E-05-2.88440E-05-8.20731E-07-8.51052E-19-6.09005E-19
 -1      2334 9.58750E-05-2.86435E-05-2.88126E-05-7.59184E-07 2.43120E-19-1.46143E-18
 -1      2335 9.59072E-05-2.86337E-05-2.88334E-05-9.80614E-07-1.14327E-18 3.05262E-19
 -1      2336 9.57955E-05-2.86178E-05-2.87885E-05-6.82883E-07 8.49760E-19-1.13686E-18
 -1      2337 9.57001E-05-2.85903E-05-2.87607E-05-6.18232E-07 1.39384E-18-7.15926E-19
 -1      2338 9.57233E-05-2.85581E-05-2.87867E-05-8.24524E-07 3.06742E-19 6.16051E-19
 -1      2339 9.56399E-05-2.85767E-05-2.87393E-05-5.44512E-07 2.45627E-18-5.54854E-19
 -1      2340 9.55645E-05-2.85599E-05-2.87158E-05-4.83738E-07 2.91944E-18 1.53588E-20
 -1      2341 9.55839E-05-2.85188E-05-2.87435E-05-6.64673E-07 2.26985E-18 3.95638E-19
 -1      2342 9.55196E-05-2.85541E-05-2.86975E-05-4.17782E-07 1.56145E-18-8.30752E-19
 -1      2343 9.54617E-05-2.85447E-05-2.86784E-05-3.64505E-07 2.23698E-20-1.45198E-18
 -1      2344 9.54796E-05-2.85029E-05-2.87054E-05-5.16131E-07 1.51214E-18-6.20712E-19
 -1      2345 9.54287E-05-2.85435E-05-2.86633E-05-3.08570E-07-1.60943E-19-1.68172E-18
 -1      2346 9.53856E-05-2.85389E-05-2.86484E-05-2.64156E-07-7.26426E-19-1.19810E-18
 -1      2347 9.54026E-05-2.85010E-05-2.86731E-05-3.86559E-07-2.62336E-19-1.30127E-18
 -1      2348 9.53617E-05-2.85402E-05-2.86363E-05-2.18635E-07-1.52675E-18-2.22159E-19
 -1      2349 9.53308E-05-2.85388E-05-2.86250E-05-1.83056E-07-1.18391E-18 5.29744E-19
 -1      2350 9.53468E-05-2.85066E-05-2.86465E-05-2.78666E-07-3.75578E-19-2.99445E-19
 -1      2351 9.53139E-05-2.85413E-05-2.86156E-05-1.47272E-07-7.87336E-19 9.83917E-19
 -1      2352 9.52925E-05-2.85417E-05-2.86073E-05-1.19737E-07 4.34996E-20 1.94679E-18
 -1      2353 9.53070E-05-2.85158E-05-2.86254E-05-1.92121E-07-6.01556E-20 6.02465E-19
 -1      2354 9.52808E-05-2.85447E-05-2.86003E-05-9.24878E-08 1.77046E-19 1.30130E-18
 -1      2355 9.52668E-05-2.85462E-05-2.85945E-05-7.18743E-08 1.01436E-18 2.23102E-19
 -1      2356 9.52794E-05-2.85260E-05-2.86091E-05-1.24935E-07-6.25282E-19 4.89159E-19
 -1      2357 9.52591E-05-2.85491E-05-2.85893E-05-5.17956E-08 2.26976E-18-5.19942E-20
 -1      2358 9.52506E-05-2.85512E-05-2.85854E-05-3.69240E-08 2.91111E-18-1.09713E-19
 -1      2359 9.52609E-05-2.85360E-05-2.85968E-05-7.44053E-08 1.20558E-18-1.18141E-18
 -1      2360 9.52458E-05-2.85540E-05-2.85817E-05-2.27072E-08 1.39547E-18-6.91394E-19
 -1      2361 9.52413E-05-2.85564E-05-2.85792E-05-1.25076E-08 9.85704E-19-5.59669E-19
 -1      2362 9.52491E-05-2.85451E-05-2.85877E-05-3.77200E-08 1.72384E-18-1.61246E-18
 -1      2363 9.52386E-05-2.85590E-05-2.85766E-05-3.03741E-09 6.23738E-19-3.89009E-19
 -1      2364 9.52368E-05-2.85616E-05-2.85751E-05 3.33492E-09-2.11263E-19-1.85598E-19
 -1      2365 9.52422E-05-2.85533E-05-2.85812E-05-1.23108E-08 8.21160E-19-1.51851E-18
 -1      2366 9.52356E-05-2.85642E-05-2.85732E-05 8.95708E-09-2.81170E-19-4.98904E-19
 -1      2367 9.52356E-05-2.85668E-05-2.85723E-05 1.20437E-08-3.32277E-19-6.07563E-21
 -1      2368 9.52388E-05-2.85606E-05-2.85765E-05 3.91904E-09 1.03530E-19-1.38099E-18
 -1      2369 9.57371E-05-2.59743E-05-2.98970E-05 3.02492E-06 1.51550E-18 1.57158E-18
 -1      2370 9.63150E-05-2.53514E-05-3.03829E-05 4.97936E-06 1.67218E-18 1.70190E-18
 -1      2371 9.56406E-05-2.34627E-05-3.09156E-05 5.93266E-06 1.75568E-18 1.12096E-18
 -1      2372 9.52653E-05-2.74822E-05-2.90324E-05-2.53066E-06 7.86774E-19 8.33424E-19
 -1      2373 9.51234E-05-2.73619E-05-2.90197E-05-1.85767E-06 8.41102E-19 1.06979E-18
 -1      2374 9.55669E-05-2.75560E-05-2.91249E-05-3.85377E-06 2.22240E-19 9.09983E-19
 -1      2375 9.52409E-05-2.74905E-05-2.90266E-05-3.22814E-06 5.56978E-19 8.09098E-19
 -1      2376 9.53001E-05-2.70944E-05-2.92417E-05-2.99020E-06 7.85016E-19 5.36388E-19
 -1      2377 9.60575E-05-2.74864E-05-2.93587E-05-5.23203E-06 3.86027E-19 5.79587E-19
 -1      2378 9.55747E-05-2.74701E-05-2.91874E-05-4.54316E-06 2.72123E-19 7.38189E-19
 -1      2379 9.53031E-05-2.70219E-05-2.92688E-05-4.46227E-06 4.95159E-19 3.80503E-19
 -1      2380 9.66714E-05-2.72641E-05-2.97105E-05-6.86204E-06 3.72685E-19 1.59920E-19
 -1      2381 9.60508E-05-2.72985E-05-2.94728E-05-6.01368E-06 4.56270E-19 4.59574E-19
 -1      2382 9.53190E-05-2.66921E-05-2.94100E-05-5.99797E-06 5.52754E-19-2.10839E-19
 -1      2383 9.73205E-05-2.69051E-05-3.01347E-05-8.79941E-06 3.75586E-19 1.53703E-20
 -1      2384 9.65907E-05-2.69756E-05-2.98510E-05-7.77577E-06 3.08396E-19 2.63829E-20
 -1      2385 9.52493E-05-2.61073E-05-2.96213E-05-7.73569E-06 5.74864E-19-6.23588E-19
 -1      2386 9.80187E-05-2.64086E-05-3.06372E-05-1.13814E-05 3.82664E-19-4.45439E-19
 -1      2387 9.71086E-05-2.64866E-05-3.02914E-05-1.00093E-05 5.12293E-19-1.36654E-19
 -1      2388 9.49776E-05-2.52585E-05-2.98604E-05-9.87532E-06 6.00144E-19-7.62021E-19
 -1      2389 9.87276E-05-2.59739E-05-3.11209E-05-1.45697E-05-1.91178E-20-5.78493E-19
 -1      2390 9.76115E-05-2.59187E-05-3.07586E-05-1.29125E-05 1.33848E-19-5.70030E-19
 -1      2391 9.43752E-05-2.41749E-05-3.00547E-05-1.26052E-05 2.84611E-19-7.61534E-19
 -1      2392 9.96782E-05-2.61574E-05-3.14429E-05-1.82262E-05 1.07289E-19-6.67279E-19
 -1      2393 9.81758E-05-2.56185E-05-3.11303E-05-1.64502E-05-8.14219E-20-9.04235E-19
 -1      2394 9.34183E-05-2.31732E-05-3.00645E-05-1.59644E-05 1.59736E-19-1.24535E-18
 -1      2395 1.01681E-04-2.82473E-05-3.13871E-05-2.18373E-05 3.46569E-19-6.63298E-19
 -1      2396 9.93101E-05-2.64689E-05-3.12241E-05-2.04042E-05 3.39329E-19-4.65744E-19
 -1      2397 9.24084E-05-2.30744E-05-2.96773E-05-1.99635E-05-6.01898E-20-1.66194E-18
 -1      2398 1.06686E-04-3.45315E-05-3.07761E-05-2.41716E-05-6.16481E-20-6.73100E-19
 -1      2399 1.02475E-04-3.03218E-05-3.08192E-05-2.40259E-05 2.37308E-19-5.38925E-19
 -1      2400 9.24969E-05-2.57154E-05-2.86214E-05-2.44608E-05 2.06610E-19-1.18378E-18
 -1      2401 1.17476E-04-4.67063E-05-3.00717E-05-2.29855E-05-1.14916E-18-7.02223E-19
 -1      2402 1.10438E-04-3.96938E-05-2.99895E-05-2.54876E-05-3.34684E-19-6.25004E-19
 -1      2403 9.61522E-05-3.35293E-05-2.68432E-05-2.88113E-05-3.56204E-19-1.07663E-18
 -1      2404 1.33626E-04-6.10538E-05-3.08439E-05-1.65778E-05-1.61624E-18-1.10143E-18
 -1      2405 1.25050E-04-5.41443E-05-2.98842E-05-2.17166E-05-1.67776E-18-7.84882E-19
 -1      2406 1.06201E-04-4.75793E-05-2.53545E-05-3.05861E-05-1.16181E-18-1.69544E-18
 -1      2407 1.45540E-04-6.42237E-05-3.43978E-05 6.98694E-06 1.95400E-19-8.91185E-19
 -1      2408 1.54565E-04-6.56414E-05-3.79760E-05-1.76369E-06 9.89334E-19-1.19495E-18
 -1      2409 1.06066E-04-3.07737E-05-3.21946E-05 2.21145E-05-5.19880E-19 5.68265E-19
 -1      2410 1.09824E-04-3.40939E-05-3.23568E-05 2.23599E-05-1.59097E-19 4.98964E-19
 -1      2411 1.02681E-04-2.75972E-05-3.21838E-05 1.85739E-05 1.98533E-19 5.92969E-19
 -1      2412 1.05121E-04-2.90910E-05-3.25175E-05 2.00508E-05-3.16592E-19 4.80910E-19
 -1      2413 9.63911E-05-2.63900E-05-2.99920E-05 2.27755E-05-1.17645E-19 1.24386E-18
 -1      2414 1.01041E-04-2.68628E-05-3.18149E-05 1.46362E-05-9.66147E-22 4.36101E-19
 -1      2415 1.02713E-04-2.73646E-05-3.22340E-05 1.64088E-05 6.15290E-20 3.93829E-19
 -1      2416 9.57926E-05-2.42751E-05-3.06178E-05 1.84279E-05-1.48065E-21 1.48951E-18
 -1      2417 9.99980E-05-2.70489E-05-3.12857E-05 1.11081E-05 4.58536E-19 1.10529E-18
 -1      2418 1.01253E-04-2.71563E-05-3.17009E-05 1.27298E-05 6.37538E-19 1.08818E-18
 -1      2419 9.61648E-05-2.44019E-05-3.07205E-05 1.43896E-05-6.03743E-20 1.67332E-18
 -1      2420 9.91473E-05-2.74542E-05-3.07409E-05 8.23638E-06-1.05298E-18 1.12802E-18
 -1      2421 1.00130E-04-2.74382E-05-3.11042E-05 9.55652E-06-4.05716E-20 6.90210E-19
 -1      2422 9.65665E-05-2.52541E-05-3.05353E-05 1.09606E-05 3.85709E-19 2.78091E-18
 -1      2423 9.83945E-05-2.78239E-05-3.02530E-05 6.01880E-06-1.05296E-18 6.49955E-19
 -1      2424 9.91644E-05-2.77857E-05-3.05493E-05 7.02967E-06-1.77610E-18 6.99702E-19
 -1      2425 9.67498E-05-2.61617E-05-3.02348E-05 8.19996E-06-1.14347E-18 2.38653E-18
 -1      2426 9.77582E-05-2.80841E-05-2.98653E-05 4.42977E-06 8.51637E-19 7.19089E-19
 -1      2427 9.83379E-05-2.80552E-05-3.00876E-05 5.15023E-06 3.28071E-19 1.85082E-20
 -1      2428 9.67306E-05-2.68895E-05-2.99243E-05 6.09927E-06 1.57214E-20 5.65711E-19
 -1      2429 9.71785E-05-2.82675E-05-2.95364E-05 3.18734E-06 9.64598E-19 1.66489E-18
 -1      2430 9.76480E-05-2.82510E-05-2.97161E-05 3.74118E-06 1.08833E-18 1.51710E-18
 -1      2431 9.65871E-05-2.74199E-05-2.96389E-05 4.50333E-06 6.63941E-19 6.50969E-19
 -1      2432 9.67020E-05-2.83818E-05-2.92816E-05 2.28277E-06 4.74209E-19 4.81219E-19
 -1      2433 9.70583E-05-2.83754E-05-2.94165E-05 2.68211E-06 8.23777E-19 1.09238E-18
 -1      2434 9.63803E-05-2.78005E-05-2.93903E-05 3.27456E-06 1.05074E-18 1.96433E-18
 -1      2435 9.63194E-05-2.84499E-05-2.90875E-05 1.62692E-06 4.55401E-19 1.79976E-18
 -1      2436 9.65865E-05-2.84494E-05-2.91875E-05 1.91378E-06 1.78908E-19 9.68178E-19
 -1      2437 9.61606E-05-2.80550E-05-2.91889E-05 2.36701E-06 1.12390E-19 1.45656E-18
 -1      2438 9.60198E-05-2.84894E-05-2.89417E-05 1.15245E-06 5.92680E-19 1.82656E-18
 -1      2439 9.62176E-05-2.84916E-05-2.90151E-05 1.35826E-06 9.61001E-19 1.68527E-18
 -1      2440 9.59560E-05-2.82224E-05-2.90302E-05 1.70056E-06 6.33310E-19 2.97124E-18
 -1      2441 9.57908E-05-2.85121E-05-2.88334E-05 8.09622E-07 4.95617E-19 5.92650E-19
 -1      2442 9.59350E-05-2.85151E-05-2.88868E-05 9.57138E-07 5.72785E-19 5.36999E-19
 -1      2443 9.57791E-05-2.83318E-05-2.89078E-05 1.21279E-06 1.57335E-18 5.96244E-19
 -1      2444 9.56259E-05-2.85248E-05-2.87572E-05 5.72551E-07-2.22639E-19-2.14715E-19
 -1      2445 9.57264E-05-2.85271E-05-2.87942E-05 6.74357E-07 2.81633E-19 4.56236E-19
 -1      2446 9.56373E-05-2.84032E-05-2.88166E-05 8.63313E-07 4.28440E-19-5.10716E-19
 -1      2447 9.54969E-05-2.85335E-05-2.86983E-05 3.90812E-07-5.92894E-19-7.02501E-19
 -1      2448 9.55724E-05-2.85352E-05-2.87263E-05 4.67955E-07-4.32085E-19-4.81709E-19
 -1      2449 9.55244E-05-2.84497E-05-2.87478E-05 6.08208E-07-4.08386E-19-8.16067E-20
 -1      2450 9.54042E-05-2.85394E-05-2.86560E-05 2.60320E-07-1.98863E-18-6.12035E-19
 -1      2451 9.54568E-05-2.85401E-05-2.86757E-05 3.15414E-07-1.32127E-18-9.82496E-19
 -1      2452 9.54354E-05-2.84830E-05-2.86952E-05 4.16686E-07-9.72419E-19-9.64988E-19
 -1      2453 9.53392E-05-2.85442E-05-2.86262E-05 1.67030E-07-4.90573E-19-1.52596E-18
 -1      2454 9.53749E-05-2.85440E-05-2.86398E-05 2.06165E-07-1.32548E-18-1.20565E-18
 -1      2455 9.53692E-05-2.85062E-05-2.86566E-05 2.78174E-07-1.37394E-18-1.20733E-18
 -1      2456 9.52949E-05-2.85484E-05-2.86054E-05 1.00898E-07-3.06323E-19-1.40643E-18
 -1      2457 9.53183E-05-2.85475E-05-2.86146E-05 1.28441E-07-3.65533E-19-1.72464E-18
 -1      2458 9.53214E-05-2.85228E-05-2.86288E-05 1.78669E-07-6.30278E-19-2.77045E-18
 -1      2459 9.52662E-05-2.85524E-05-2.85914E-05 5.46391E-08-1.61569E-20 1.67941E-18
 -1      2460 9.52806E-05-2.85511E-05-2.85974E-05 7.37167E-08-4.11078E-19-3.78108E-19
 -1      2461 9.52879E-05-2.85352E-05-2.86089E-05 1.07879E-07-1.41838E-18-4.12211E-20
 -1      2462 9.52493E-05-2.85561E-05-2.85826E-05 2.42244E-08-8.07505E-20 2.15133E-18
 -1      2463 9.52572E-05-2.85545E-05-2.85862E-05 3.66761E-08 6.73148E-19 2.26802E-18
 -1      2464 9.52659E-05-2.85447E-05-2.85953E-05 5.91423E-08-4.95873E-19 3.12261E-19
 -1      2465 9.52393E-05-2.85601E-05-2.85767E-05 2.79378E-09 4.34220E-19 1.57244E-18
 -1      2466 9.52433E-05-2.85581E-05-2.85789E-05 1.13518E-08-5.62910E-20 2.03251E-18
 -1      2467 9.52517E-05-2.85520E-05-2.85860E-05 2.56658E-08 2.39969E-19 3.87448E-19
 -1      2468 9.52349E-05-2.85642E-05-2.85731E-05-1.02855E-08 2.26327E-18 1.49768E-18
 -1      2469 9.52360E-05-2.85620E-05-2.85743E-05-5.29321E-09 1.64480E-18 1.43199E-18
 -1      2470 9.52432E-05-2.85585E-05-2.85794E-05 2.88736E-09 1.16800E-18-4.49684E-19
 -1      2471 9.52342E-05-2.85685E-05-2.85710E-05-1.66296E-08 1.99069E-18 2.49282E-19
 -1      2472 9.52335E-05-2.85662E-05-2.85715E-05-1.46775E-08 1.66055E-18 7.71450E-19
 -1      2473 9.52389E-05-2.85644E-05-2.85750E-05-1.08227E-08 2.85702E-18 4.42787E-19
 -1      2474 9.52364E-05-2.85732E-05-2.85700E-05-1.74876E-08 2.34689E-18-1.30395E-18
 -1      2475 9.52348E-05-2.85705E-05-2.85703E-05-1.79541E-08 2.40022E-18 1.49325E-19
 -1      2476 9.52389E-05-2.85700E-05-2.85724E-05-1.67109E-08 2.15959E-18-2.27148E-18
 -1      2477 9.52405E-05-2.85761E-05-2.85704E-05-1.75025E-08 1.97334E-18-2.62789E-18
 -1      2478 5.26960E-05-3.49628E-05-7.53503E-06 3.58064E-05 9.78323E-20 1.24853E-18
 -1      2479 3.62786E-05-2.67346E-05-3.78942E-06 2.62319E-05 2.27217E-19 6.23840E-19
 -1      2480 9.52398E-05-2.85696E-05-2.85730E-05-6.76865E-10-7.90344E-19 4.15452E-19
 -1      2481 9.52406E-05-2.85702E-05-2.85730E-05-2.24771E-09-8.60113E-19-1.40004E-18
 -1      2482 1.01300E-04-5.64523E-05-1.93488E-05 3.69501E-05-3.76506E-19-1.28405E-19
 -1      2483 7.66658E-05-4.61770E-05-1.28037E-05 3.72597E-05-3.13402E-19 1.31915E-18
 -1      2484 9.52381E-05-2.85673E-05-2.85732E-05 1.35658E-09-1.16037E-18 3.52532E-19
 -1      2485 9.52387E-05-2.85679E-05-2.85732E-05 3.73309E-10-1.78373E-18 8.93085E-19
 -1      2486 9.52367E-05-2.85575E-05-2.85768E-05 9.85439E-10-1.30146E-18-3.49789E-19
 -1      2487 9.52372E-05-2.85662E-05-2.85733E-05 2.40937E-09-8.38900E-19 2.65723E-19
 -1      2488 9.52375E-05-2.85665E-05-2.85733E-05 1.77821E-09-9.50060E-19-7.71967E-19
 -1      2489 9.52347E-05-2.85548E-05-2.85770E-05 2.18141E-09-1.16751E-18-4.07007E-19
 -1      2490 9.52374E-05-2.85664E-05-2.85733E-05 3.23887E-09-3.65384E-19 2.93223E-18
 -1      2491 9.52372E-05-2.85664E-05-2.85733E-05 2.61655E-09-1.63417E-18 2.54410E-18
 -1      2492 9.52340E-05-2.85542E-05-2.85770E-05 2.47386E-09-7.78946E-19 7.98803E-19
 -1      2493 9.52385E-05-2.85677E-05-2.85731E-05 4.56946E-09 6.74414E-19-1.08535E-18
 -1      2494 9.52380E-05-2.85676E-05-2.85731E-05 3.67388E-09 4.43422E-19 4.84628E-19
 -1      2495 9.52348E-05-2.85556E-05-2.85767E-05 2.80150E-09-3.12797E-19 2.23610E-18
 -1      2496 9.52398E-05-2.85698E-05-2.85728E-05 6.88721E-09 1.63688E-18-1.28091E-19
 -1      2497 9.52394E-05-2.85696E-05-2.85728E-05 5.56220E-09 1.29349E-18-1.10485E-18
 -1      2498 9.52367E-05-2.85588E-05-2.85762E-05 4.00417E-09 5.59607E-19-1.13845E-18
 -1      2499 9.52407E-05-2.85719E-05-2.85723E-05 1.00478E-08 2.82831E-18 1.99168E-18
 -1      2500 9.52408E-05-2.85719E-05-2.85724E-05 8.45928E-09 1.78253E-18 2.82927E-18
 -1      2501 9.52388E-05-2.85629E-05-2.85754E-05 6.54440E-09 2.91812E-18 8.43272E-19
 -1      2502 9.52399E-05-2.85730E-05-2.85715E-05 1.31212E-08 1.22410E-18-7.03213E-19
 -1      2503 9.52409E-05-2.85736E-05-2.85717E-05 1.18789E-08 2.62357E-18-8.49776E-19
 -1      2504 9.52400E-05-2.85669E-05-2.85742E-05 9.96424E-09 4.10871E-18 1.09158E-18
 -1      2505 9.52373E-05-2.85746E-05-2.85697E-05 1.47957E-08 2.60309E-20 1.87678E-18
 -1      2506 1.63794E-04-6.34583E-05-4.33583E-05 1.15911E-05-1.31667E-18-1.92700E-19
 -1      2507 1.81029E-05-1.82928E-05 3.74896E-07-1.58632E-05 8.19504E-19-1.17145E-18
 -1      2508 2.48842E-05-2.07491E-05-1.51142E-06-2.89263E-05 6.47557E-19-1.53694E-18
 -1      2509 9.52086E-05-2.72411E-05-2.91150E-05-1.03662E-06 9.21459E-19 1.08893E-18
 -1      2510 9.52846E-05-2.70377E-05-2.92163E-05-1.67536E-07 1.09087E-18 1.28382E-18
 -1      2511 9.53850E-05-2.68904E-05-2.93691E-05-1.35727E-06 9.49990E-19 7.58300E-19
 -1      2512 9.52432E-05-2.85750E-05-2.85721E-05-8.83748E-09-9.99671E-19-1.10718E-18
 -1      2513 9.52430E-05-2.85748E-05-2.85720E-05-1.11137E-08-2.04999E-19-1.84660E-18
 -1      2514 3.86009E-05-2.78909E-05-4.21952E-06-3.87697E-05 6.55392E-19-5.62853E-19
 -1      2515 5.28995E-05-3.42150E-05-7.86573E-06-4.65852E-05 1.26335E-18 8.49362E-19
 -1      2516 1.51089E-04-1.02058E-05-6.08505E-05 1.58692E-06-2.28826E-18-1.05074E-18
 -1      2517 1.53378E-04-9.66778E-06-6.19659E-05 1.96678E-07-3.01290E-18-5.84294E-19
 -1      2518 7.40814E-05-4.34076E-05-1.29257E-05 4.91719E-05 4.01070E-19-1.66971E-19
 -1      2519 5.48921E-05-3.45003E-05-8.33975E-06 4.52331E-05 7.86470E-19-1.11575E-18
 -1      2520 9.52429E-05-2.85764E-05-2.85714E-05-1.36075E-08 4.79589E-19-2.44436E-18
 -1      2521 9.52416E-05-2.85755E-05-2.85712E-05-1.53160E-08 1.44336E-18-1.82269E-18
 -1      2522 9.52410E-05-2.85719E-05-2.85724E-05-1.58312E-08 1.69216E-18-1.78177E-18
 -1      2523 9.52427E-05-2.85699E-05-2.85741E-05-1.13852E-08 1.04729E-18-2.97113E-18
 -1      2524 9.52419E-05-2.85725E-05-2.85727E-05-4.12535E-09-1.72291E-18-2.03354E-18
 -1      2525 9.52424E-05-2.85728E-05-2.85726E-05-6.26447E-09-1.37702E-18-1.65814E-19
 -1      2526 9.52419E-05-2.85661E-05-2.85753E-05-6.25890E-09-7.30570E-19-7.60875E-19
 -1      2527 9.52395E-05-2.85615E-05-2.85762E-05-1.79516E-09-1.18997E-18-7.48287E-19
 -1      2528 1.13440E-04-3.86931E-05-3.17946E-05 2.34056E-05-3.44107E-19-1.44763E-19
 -1      2529 1.19863E-04-4.49277E-05-3.19399E-05 2.08771E-05-4.43369E-19-2.04466E-19
 -1      2530 1.00259E-04-3.33636E-05-2.87187E-05 2.66073E-05-7.01608E-19 2.51278E-19
 -1      2531 1.26631E-04-5.10931E-05-3.19149E-05 1.94300E-05-5.02608E-19-5.52603E-19
 -1      2532 1.35519E-04-5.80337E-05-3.29395E-05 1.24732E-05-3.07685E-19-6.70956E-19
 -1      2533 1.25530E-04-6.02732E-05-2.85655E-05 2.41419E-05-3.03450E-19-8.85017E-19
 -1      2534 1.09978E-04-4.59467E-05-2.76619E-05 2.77440E-05-7.76782E-19-1.21867E-19
 -1      2535 2.28619E-05-1.85619E-05-1.49210E-06 1.37751E-05 4.99749E-19 1.07065E-18
 -1      2536 1.71663E-05-1.67914E-05 1.84233E-07-2.66807E-06 1.16278E-18-8.89385E-21
 -1      2537 8.73068E-05-1.01897E-05-3.30861E-05-1.30877E-06 1.13739E-18-2.42155E-18
 -1      2538 8.74624E-05-1.03503E-05-3.30800E-05-2.34355E-06 9.83896E-19-2.55128E-18
 -1      2539 8.88209E-05-1.24557E-05-3.27286E-05-2.54644E-06 8.28925E-19-2.51609E-18
 -1      2540 8.84505E-05-1.20055E-05-3.27633E-05-7.51880E-07 1.14342E-18-2.24914E-18
 -1      2541 9.53963E-05-2.68067E-05-2.93830E-05 6.98040E-07 1.25789E-18 1.23504E-18
 -1      2542 9.57014E-05-2.64899E-05-2.96218E-05 1.88956E-06 1.38990E-18 1.34861E-18
 -1      2543 9.57142E-05-2.54518E-05-3.01119E-05 2.69119E-06 1.56653E-18 8.33482E-19
 -1      2544 9.55505E-05-2.63806E-05-2.96577E-05 5.01120E-07 1.20898E-18 7.74735E-19
 -1      2545 1.74325E-04-4.81015E-05-5.31780E-05-1.72779E-05 2.77742E-18-1.61868E-18
 -1      2546 5.88726E-05-3.88138E-05-8.40660E-06-3.57728E-05-1.34932E-18-3.26722E-18
 -1      2547 8.12671E-05-4.80170E-05-1.43547E-05-3.94544E-05-9.09925E-19-3.07738E-18
 -1      2548 1.54295E-04-3.97210E-05-4.92529E-05 7.69343E-06-1.53106E-18 3.79047E-20
 -1      2549 1.47698E-04-4.60443E-05-4.37863E-05 1.17863E-05-1.57413E-18 3.52366E-19
 -1      2550 2.61983E-05-2.31186E-05-1.11057E-06-1.85255E-05-3.23143E-19-1.81265E-18
 -1      2551 3.87666E-05-2.87338E-05-4.17467E-06-3.00670E-05-7.06425E-19-2.63300E-18
 -1      2552 1.66423E-05-1.63754E-05 1.31094E-07 7.15415E-06-2.55063E-19-2.70754E-18
 -1      2553 1.88694E-05-1.91123E-05 3.79361E-07-7.48828E-06-1.53842E-19-2.03627E-18
 -1      2554 2.95904E-05-1.67216E-05-4.98834E-06-1.42172E-05-2.43310E-19-1.99222E-18
 -1      2555 3.46993E-05-2.23839E-05-4.91798E-06 3.46422E-05 5.10231E-19-1.89121E-18
 -1      2556 2.38459E-05-1.84438E-05-1.81278E-06 2.15118E-05 2.63639E-19-2.32680E-18
 -1      2557 1.06359E-04-5.41868E-05-2.24355E-05 4.34320E-05 2.19593E-19 1.04873E-19
 -1      2558 8.96203E-05-5.03004E-05-1.67252E-05 4.64027E-05 3.87941E-19-8.73834E-20
 -1      2559 8.73603E-05-4.70861E-05-1.68073E-05 4.62529E-05 1.25064E-18 1.54478E-19
 -1      2560 7.25166E-05-4.34136E-05-1.22316E-05-4.78122E-05 1.68962E-18 1.76913E-18
 -1      2561 9.11564E-05-4.94190E-05-1.78817E-05-4.85332E-05 1.72774E-18 1.61486E-18
 -1      2562 1.53733E-04-2.33891E-05-5.63835E-05-2.80741E-06-2.14765E-18 3.37119E-19
 -1      2563 1.54187E-04-3.11428E-05-5.29343E-05 1.47163E-06-1.97401E-18 1.65595E-19
 -1      2564 1.48471E-04-3.57051E-05-4.84882E-05-3.08093E-06-1.39877E-18 3.04932E-19
 -1      2565 1.53857E-04-1.12697E-05-6.14651E-05-1.75920E-06-2.69611E-18-2.51304E-19
 -1      2566 1.51164E-04-1.39370E-05-5.92055E-05-3.14050E-06-2.04093E-18 1.28749E-19
 -1      2567 1.40514E-04-6.87617E-06-5.74659E-05-1.85532E-06-2.12436E-18-2.40425E-19
 -1      2568 1.51069E-04-2.19139E-05-5.57854E-05 3.49566E-06-7.95576E-19-1.77517E-18
 -1      2569 1.51348E-04-1.62237E-05-5.84565E-05 3.84317E-06-1.55282E-18-1.35970E-18
 -1      2570 1.48608E-04-4.19247E-05-4.59923E-05-5.55703E-06 4.54910E-19-9.20725E-19
 -1      2571 1.52432E-04-3.29692E-05-5.17251E-05 3.91226E-07-2.18005E-19-1.58226E-18
 -1      2572 1.37015E-04-5.38369E-05-3.57520E-05-2.41141E-05 2.18376E-18 9.90182E-19
 -1      2573 1.45541E-04-5.05404E-05-4.11455E-05-1.75128E-05 1.37537E-18-4.65868E-20
 -1      2574 1.09378E-04-5.47373E-05-2.33637E-05-4.09738E-05 2.19276E-18 1.85458E-18
 -1      2575 1.26239E-04-5.56956E-05-3.03697E-05-3.54939E-05 2.35729E-18 2.22558E-18
 -1      2576 1.33410E-04-5.80303E-05-3.21994E-05-2.54938E-05 2.30584E-18 8.65244E-19
 -1      2577 1.71343E-04-6.16660E-05-4.73970E-05-1.47514E-05 2.28977E-18-1.01220E-18
 -1      2578 9.53296E-05-2.00678E-05-3.23025E-05-1.12395E-05-1.25918E-18-2.65598E-18
 -1      2579 9.58012E-05-2.34036E-05-3.10461E-05-7.40645E-06-1.22752E-18-2.47816E-18
 -1      2580 9.53401E-05-2.25746E-05-3.11767E-05-6.96476E-06-9.78932E-19-2.41444E-18
 -1      2581 9.34602E-05-1.77162E-05-3.24904E-05-1.07442E-05-1.01072E-18-2.79243E-18
 -1      2582 1.58492E-04-6.43965E-05-4.02332E-05-2.88455E-06 1.70058E-18-1.67353E-18
 -1      2583 9.06522E-05-1.47269E-05-3.25338E-05-6.18813E-06 3.82596E-20-2.81088E-18
 -1      2584 8.96433E-05-1.29619E-05-3.29163E-05-7.39002E-06-2.57377E-20-3.05060E-18
 -1      2585 9.03874E-05-1.38086E-05-3.28791E-05-8.54513E-06-2.77787E-19-3.11672E-18
 -1      2586 1.16754E-04-5.92052E-05-2.42860E-05 2.91750E-05-4.96573E-19-1.17442E-18
 -1      2587 1.56669E-04-6.57910E-05-3.93341E-05 9.91290E-07-1.22359E-18-2.30075E-19
 -1      2588 1.44439E-04-1.73683E-05-5.46922E-05-6.93635E-06-2.04474E-18 4.26693E-19
 -1      2589 3.53583E-05-1.93741E-05-6.27853E-06 1.97713E-05-4.85985E-20 1.13629E-18
 -1      2590 7.25125E-05-3.94477E-05-1.36478E-05 3.60720E-05-1.60936E-19 9.93146E-19
 -1      2591 2.40211E-05-1.32112E-05-4.07497E-06-8.55695E-06 9.37560E-19-2.51569E-19
 -1      2592 9.52361E-05-2.85709E-05-2.85708E-05 1.44405E-08-3.79804E-19 1.53520E-18
 -1      2593 9.52390E-05-2.85732E-05-2.85711E-05 1.45433E-08 3.38322E-19 4.19026E-19
 -1      2594 9.52391E-05-2.85686E-05-2.85730E-05 1.28361E-08 7.95054E-19-5.72411E-19
 -1      2595 9.52353E-05-2.85686E-05-2.85713E-05 1.39901E-08-8.06861E-20 5.32047E-19
 -1      2596 3.75714E-05-2.17023E-05-6.26707E-06-3.40344E-05 4.46810E-20-7.93882E-19
 -1      2597 9.12363E-05-1.49137E-05-3.27638E-05-9.22763E-06-5.10634E-19-3.04258E-18
 -1      2598 9.23351E-05-1.62482E-05-3.26867E-05-1.02620E-05-8.15052E-19-3.00667E-18
 -1      2599 9.38483E-05-1.91606E-05-3.19938E-05-8.57290E-06-9.26326E-19-2.70069E-18
 -1      2600 9.21163E-05-1.66498E-05-3.23279E-05-7.66857E-06-4.38630E-19-2.87877E-18
 -1      2601 7.00856E-05-3.88241E-05-1.29363E-05-4.67539E-05 1.04736E-18 1.48506E-18
 -1      2602 1.40780E-04-1.09967E-05-5.58818E-05 5.99170E-06-1.65637E-18-1.25784E-18
 -1      2603 6.43745E-05-3.21647E-05-1.36695E-05 4.27898E-05 1.64642E-18-1.01644E-20
 -1      2604 4.96389E-05-2.75843E-05-8.86169E-06 3.99895E-05 9.43701E-19-1.46812E-18
 -1      2605 4.64563E-05-1.98543E-05-1.07727E-05 3.35188E-05 1.28887E-18-1.39612E-18
 -1      2606 1.06196E-04-5.42335E-05-2.19629E-05-4.18953E-05 1.73684E-18 1.69682E-18
 -1      2607 1.45004E-04-5.23052E-05-3.98291E-05 1.43456E-05-1.31041E-18 8.66515E-19
 -1      2608 1.39574E-04-5.61463E-05-3.56317E-05 1.69760E-05-1.02848E-18 1.31311E-18
 -1      2609 1.44954E-04-4.97863E-05-4.12137E-05 4.34415E-06-6.43851E-19 5.42313E-19
 -1      2610 1.45411E-04-4.77867E-05-4.18039E-05-4.44659E-06 8.14819E-19-4.55068E-19
 -1      2611 1.48102E-04-6.75221E-05-3.43869E-05-8.04614E-06-1.61497E-18-8.75726E-19
 -1      2612 1.18828E-04-5.77068E-05-2.60040E-05 3.70441E-05 1.96935E-20 2.46698E-20
 -1      2613 1.12497E-04-5.64034E-05-2.36169E-05 3.85745E-05 1.08759E-18 3.23639E-19
 -1      2614 1.28069E-04-5.94824E-05-2.97877E-05 2.79369E-05-5.92923E-20 7.22837E-19
 -1      2615 2.69333E-05-1.33653E-05-5.19919E-06 1.34210E-05 4.19705E-19-2.42675E-18
 -1      2616 5.63963E-05-3.10721E-05-1.03056E-05-3.33145E-05-8.64609E-19-2.81850E-18
 -1      2617 9.67022E-05-4.89877E-05-1.98493E-05-3.54394E-05-1.16319E-18-2.67472E-18
 -1      2618 1.03571E-04-5.63908E-05-1.99253E-05-3.43474E-05-1.16509E-18-2.67727E-18
 -1      2619 1.27982E-04-6.36032E-05-2.79222E-05-2.51962E-05-1.52762E-18-2.32336E-18
 -1      2620 1.43635E-04-2.80245E-05-4.97786E-05 7.89007E-06-5.28654E-19-8.62280E-19
 -1      2621 9.52379E-05-2.85669E-05-2.85734E-05 1.18803E-08 4.79053E-20-5.48810E-19
 -1      2622 8.98104E-05-1.42355E-05-3.24117E-05 2.84291E-06 1.56408E-18-1.39774E-18
 -1      2623 8.95695E-05-1.39391E-05-3.24338E-05 2.03120E-06 1.45564E-18-1.60095E-18
 -1      2624 8.94127E-05-1.37376E-05-3.24529E-05 1.34296E-06 1.38900E-18-1.79695E-18
 -1      2625 8.93487E-05-1.36572E-05-3.24578E-05 5.10073E-07 1.31828E-18-1.89347E-18
 -1      2626 9.04885E-05-1.54808E-05-3.21299E-05 1.49351E-06 1.32962E-18-1.63947E-18
 -1      2627 9.18380E-05-1.69002E-05-3.21500E-05 5.69949E-06 2.02230E-18-4.43375E-19
 -1      2628 9.11830E-05-1.60297E-05-3.22348E-05 4.92926E-06 1.93937E-18-6.16539E-19
 -1      2629 9.35016E-05-1.92934E-05-3.18404E-05 6.75784E-06 2.13471E-18 1.83576E-19
 -1      2630 9.26167E-05-1.79967E-05-3.20007E-05 6.18587E-06 2.11835E-18-1.60456E-19
 -1      2631 9.31388E-05-1.91558E-05-3.16813E-05 4.87751E-06 1.90303E-18-2.45913E-19
 -1      2632 9.52343E-05-2.24163E-05-3.12354E-05 6.32174E-06 1.86640E-18 7.57088E-19
 -1      2633 9.42084E-05-2.04651E-05-3.15978E-05 6.65687E-06 2.00599E-18 3.13541E-19
 -1      2634 9.44426E-05-2.14503E-05-3.12718E-05 5.03862E-06 1.98132E-18 1.28459E-19
 -1      2635 9.54112E-05-2.37365E-05-3.07142E-05 4.39017E-06 1.71083E-18 6.34363E-19
 -1      2636 5.07406E-05-2.27315E-05-1.13167E-05-2.87878E-05-3.89635E-19-2.34903E-18
 -1      2637 6.90162E-05-3.30134E-05-1.51590E-05-3.56245E-05-8.35174E-19-3.40634E-18
 -1      2638 6.48616E-05-3.18680E-05-1.34783E-05-4.26977E-05 1.64854E-19 1.25869E-18
 -1      2639 8.14265E-05-4.13498E-05-1.71272E-05-4.55583E-05 6.44380E-19 1.06917E-18
 -1      2640 9.57192E-05-2.58279E-05-2.99280E-05-1.78795E-06-3.54990E-19-1.93754E-18
 -1      2641 9.56330E-05-2.64253E-05-2.96695E-05-7.18847E-07-3.27843E-19-1.82857E-18
 -1      2642 9.57281E-05-2.69739E-05-2.94419E-05 1.18410E-07-3.69013E-19-1.74208E-18
 -1      2643 9.57015E-05-2.73793E-05-2.92861E-05 7.94736E-07-4.29763E-19-1.65736E-18
 -1      2644 9.57317E-05-2.61863E-05-2.98127E-05-4.76470E-07-3.97261E-19-1.66231E-18
 -1      2645 9.57729E-05-2.77487E-05-2.91354E-05 1.34684E-06-3.71611E-19-1.51389E-18
 -1      2646 9.58359E-05-2.80648E-05-2.90477E-05 1.74712E-06-1.38522E-19-1.44879E-18
 -1      2647 9.59070E-05-2.72848E-05-2.94197E-05 9.87627E-07-2.74622E-19-1.45343E-18
 -1      2648 9.59518E-05-2.83664E-05-2.89513E-05 2.07487E-06-2.66446E-19-1.45460E-18
 -1      2649 9.61013E-05-2.86575E-05-2.89072E-05 2.26084E-06-3.35839E-19-1.64513E-18
 -1      2650 9.61074E-05-2.80991E-05-2.91569E-05 1.93477E-06-2.80334E-19-1.60097E-18
 -1      2651 9.62945E-05-2.89544E-05-2.88481E-05 2.39706E-06-2.45634E-19-1.68321E-18
 -1      2652 9.65188E-05-2.92589E-05-2.88300E-05 2.39568E-06-2.85413E-19-1.64896E-18
 -1      2653 9.64283E-05-2.88184E-05-2.89862E-05 2.45342E-06-4.13299E-19-1.74847E-18
 -1      2654 9.68101E-05-2.95914E-05-2.87962E-05 2.34818E-06-4.67891E-19-1.48959E-18
 -1      2655 9.70930E-05-2.99289E-05-2.87919E-05 2.16144E-06-5.41968E-19-1.43936E-18
 -1      2656 9.69224E-05-2.95614E-05-2.88796E-05 2.58833E-06-2.83136E-19-1.66033E-18
 -1      2657 9.74920E-05-3.03162E-05-2.87770E-05 1.91642E-06-4.55675E-19-1.40537E-18
 -1      2658 9.78087E-05-3.06841E-05-2.87791E-05 1.53227E-06-3.83200E-19-1.38772E-18
 -1      2659 9.76214E-05-3.03994E-05-2.88201E-05 2.33581E-06-5.21435E-19-1.20224E-18
 -1      2660 9.83068E-05-3.11169E-05-2.87823E-05 1.06345E-06-4.95818E-19-1.27202E-18
 -1      2661 9.86172E-05-3.14813E-05-2.87883E-05 4.70590E-07-4.94781E-19-1.25770E-18
 -1      2662 9.85287E-05-3.13471E-05-2.88022E-05 1.65528E-06-3.22752E-19-1.00198E-18
 -1      2663 9.91726E-05-3.19090E-05-2.88147E-05-2.43822E-07-3.09086E-19-1.01363E-18
 -1      2664 9.94140E-05-3.21943E-05-2.88274E-05-1.03453E-06-1.25507E-19-9.94386E-19
 -1      2665 9.95968E-05-3.23386E-05-2.88325E-05 4.93490E-07-2.56694E-19-1.02914E-18
 -1      2666 9.99371E-05-3.25137E-05-2.88875E-05-1.98335E-06-1.37409E-19-1.09235E-18
 -1      2667 1.00024E-04-3.26008E-05-2.89140E-05-2.91093E-06 4.73317E-20-8.77566E-19
 -1      2668 1.00696E-04-3.31978E-05-2.89299E-05-1.17119E-06-1.80887E-19-8.34483E-19
 -1      2669 1.00371E-04-3.26591E-05-2.90206E-05-4.00917E-06 5.68951E-20-1.02682E-18
 -1      2670 1.00210E-04-3.24062E-05-2.90700E-05-4.93388E-06-1.54030E-19-7.23828E-19
 -1      2671 1.01593E-04-3.36263E-05-2.91213E-05-3.25849E-06-1.09157E-19-8.62132E-19
 -1      2672 1.00212E-04-3.20396E-05-2.92318E-05-5.98052E-06-2.66256E-19-4.51027E-19
 -1      2673 9.97428E-05-3.13429E-05-2.93101E-05-6.67216E-06-4.37165E-19-3.00791E-19
 -1      2674 1.01967E-04-3.32491E-05-2.94316E-05-5.49546E-06-3.80385E-20-5.86954E-19
 -1      2675 9.92822E-05-3.04652E-05-2.95226E-05-7.34081E-06-8.62504E-19-1.82282E-19
 -1      2676 9.85378E-05-2.93534E-05-2.96256E-05-7.51484E-06-8.30082E-19-1.76285E-19
 -1      2677 1.01513E-04-3.17630E-05-2.98659E-05-7.34773E-06-5.46900E-19-3.65256E-19
 -1      2678 9.76667E-05-2.80765E-05-2.98615E-05-7.43252E-06-4.57199E-19-2.72890E-19
 -1      2679 9.68177E-05-2.67901E-05-2.99707E-05-6.85864E-06-3.87953E-19-5.65216E-19
 -1      2680 1.00151E-04-2.91917E-05-3.03876E-05-8.06898E-06-7.28155E-19-2.17286E-19
 -1      2681 9.58341E-05-2.54844E-05-3.01790E-05-5.79516E-06-5.08540E-20-3.50247E-19
 -1      2682 9.51609E-05-2.44481E-05-3.02645E-05-4.45119E-06 2.03749E-19-6.10721E-19
 -1      2683 9.82316E-05-2.61058E-05-3.09057E-05-6.97591E-06-2.05777E-19-2.76116E-19
 -1      2684 9.45252E-05-2.36361E-05-3.03865E-05-2.53885E-06 6.70562E-20-7.51837E-19
 -1      2685 9.42953E-05-2.32665E-05-3.04199E-05-7.13513E-07-1.75251E-19-8.34276E-19
 -1      2686 9.65451E-05-2.35772E-05-3.12909E-05-3.90534E-06 6.31279E-20-3.80109E-19
 -1      2687 9.43404E-05-2.33140E-05-3.04168E-05 1.51227E-06-4.00665E-19-7.27403E-19
 -1      2688 9.46549E-05-2.37709E-05-3.03872E-05 3.31104E-06-2.72228E-19-9.03752E-19
 -1      2689 9.59289E-05-2.26630E-05-3.14287E-05 4.37480E-07-3.70334E-19-7.96772E-19
 -1      2690 9.53595E-05-2.46551E-05-3.02613E-05 5.15327E-06-5.99433E-20-1.04939E-18
 -1      2691 9.60912E-05-2.57364E-05-3.01826E-05 6.42922E-06 3.87262E-19-1.62216E-18
 -1      2692 9.67120E-05-2.37761E-05-3.12753E-05 4.70519E-06-1.94096E-19-6.65301E-19
 -1      2693 9.70814E-05-2.70450E-05-2.99771E-05 7.39527E-06 4.95263E-19-1.97806E-18
 -1      2694 9.79532E-05-2.83180E-05-2.98793E-05 7.90322E-06 2.00578E-19-2.32676E-18
 -1      2695 9.84757E-05-2.63960E-05-3.08844E-05 7.58750E-06 4.53664E-20-2.10418E-18
 -1      2696 9.87844E-05-2.95420E-05-2.96538E-05 7.91655E-06-1.89045E-19-1.82923E-18
 -1      2697 9.95277E-05-3.06015E-05-2.95664E-05 7.70960E-06-3.79818E-19-1.70012E-18
 -1      2698 1.00357E-04-2.94189E-05-3.03774E-05 8.50189E-06 2.66555E-19-2.31674E-18
 -1      2699 9.99309E-05-3.14007E-05-2.93690E-05 7.02747E-06-6.93113E-19-1.77738E-18
 -1      2700 1.00394E-04-3.20356E-05-2.93085E-05 6.34884E-06-4.32359E-20-1.90958E-18
 -1      2701 1.01618E-04-3.18335E-05-2.98809E-05 7.69549E-06-6.01193E-19-1.00734E-18
 -1      2702 1.00344E-04-3.23297E-05-2.91625E-05 5.34361E-06 4.01523E-19-1.88924E-18
 -1      2703 1.00509E-04-3.25342E-05-2.91306E-05 4.47247E-06 4.36642E-19-2.24992E-18
 -1      2704 1.01963E-04-3.31407E-05-2.94778E-05 5.87663E-06-9.92416E-20-5.68076E-19
 -1      2705 1.00134E-04-3.24266E-05-2.90373E-05 3.45287E-06 6.18404E-19-2.16351E-18
 -1      2706 1.00067E-04-3.23154E-05-2.90267E-05 2.60457E-06 1.06718E-18-1.83740E-18
 -1      2707 1.01515E-04-3.33754E-05-2.91961E-05 3.76712E-06 6.45217E-19-6.82306E-19
 -1      2708 9.95364E-05-3.19737E-05-2.89750E-05 1.75009E-06 1.16854E-18-2.06467E-18
 -1      2709 9.93295E-05-3.16897E-05-2.89752E-05 1.04742E-06 8.66642E-19-1.32270E-18
 -1      2710 1.00585E-04-3.28652E-05-2.90246E-05 1.85773E-06 1.33687E-18-9.04223E-19
 -1      2711 9.87770E-05-3.12640E-05-2.89502E-05 4.23917E-07 4.96024E-19-1.54354E-18
 -1      2712 9.85102E-05-3.09248E-05-2.89522E-05-8.86905E-08 3.31496E-19-9.30159E-19
 -1      2713 9.94833E-05-3.19867E-05-2.89338E-05 3.78938E-07 8.16000E-19-1.51248E-18
 -1      2714 9.80171E-05-3.05161E-05-2.89406E-05-4.87365E-07-3.37012E-20-6.51988E-19
 -1      2715 9.77449E-05-3.01961E-05-2.89386E-05-8.16244E-07 7.95149E-20-2.40462E-19
 -1      2716 9.84278E-05-3.10331E-05-2.88916E-05-6.26104E-07-8.10400E-20-1.35144E-18
 -1      2717 9.73453E-05-2.98559E-05-2.89314E-05-1.03024E-06 5.70303E-19-3.85099E-19
 -1      2718 9.70978E-05-2.95915E-05-2.89231E-05-1.20705E-06 6.76999E-19 3.93390E-20
 -1      2719 9.75309E-05-3.01798E-05-2.88724E-05-1.21556E-06 2.55874E-19-5.99267E-19
 -1      2720 9.67951E-05-2.93355E-05-2.89152E-05-1.28569E-06 2.73907E-19-2.63505E-20
 -1      2721 9.65848E-05-2.91366E-05-2.89008E-05-1.34987E-06 3.13932E-19 9.58671E-20
 -1      2722 9.68277E-05-2.95032E-05-2.88597E-05-1.48536E-06 2.36775E-20-9.07750E-19
 -1      2723 9.63668E-05-2.89600E-05-2.88902E-05-1.33873E-06-3.36886E-19 1.90272E-19
 -1      2724 9.61956E-05-2.88216E-05-2.88711E-05-1.32756E-06-9.24915E-19 1.17276E-19
 -1      2725 9.63078E-05-2.90146E-05-2.88449E-05-1.53304E-06 5.18140E-20-1.91419E-19
 -1      2726 9.60448E-05-2.87098E-05-2.88577E-05-1.26332E-06-9.67364E-19 5.77776E-19
 -1      2727 9.59094E-05-2.86207E-05-2.88361E-05-1.20737E-06-7.45409E-19 4.69458E-19
 -1      2728 9.59404E-05-2.86912E-05-2.88247E-05-1.44142E-06-1.10758E-18 2.56272E-19
 -1      2729 9.58083E-05-2.85574E-05-2.88207E-05-1.11693E-06-8.69160E-19 9.95676E-19
 -1      2730 9.57034E-05-2.85050E-05-2.87984E-05-1.03896E-06-9.15069E-19 1.48904E-18
 -1      2731 9.56898E-05-2.84970E-05-2.87995E-05-1.27375E-06-7.93271E-19 7.96097E-19
 -1      2732 9.56373E-05-2.84750E-05-2.87822E-05-9.40550E-07-4.45519E-19 1.88011E-18
 -1      2733 9.55573E-05-2.84481E-05-2.87608E-05-8.56108E-07 8.08152E-19 1.73981E-18
 -1      2734 9.55238E-05-2.83959E-05-2.87710E-05-1.07455E-06-2.18367E-19 2.22983E-18
 -1      2735 9.55149E-05-2.84393E-05-2.87449E-05-7.61069E-07 1.36351E-18 1.60904E-19
 -1      2736 9.54546E-05-2.84290E-05-2.87254E-05-6.79870E-07 1.96339E-18 4.16369E-20
 -1      2737 9.54165E-05-2.83567E-05-2.87412E-05-8.72786E-07 1.64831E-19 8.23105E-19
 -1      2738 9.54279E-05-2.84326E-05-2.87105E-05-5.94474E-07 1.59396E-18-1.37504E-18
 -1      2739 9.53831E-05-2.84322E-05-2.86935E-05-5.21869E-07 3.09441E-19-2.25858E-18
 -1      2740 9.53484E-05-2.83555E-05-2.87122E-05-6.85632E-07 4.56493E-19-2.23794E-18
 -1      2741 9.53664E-05-2.84421E-05-2.86803E-05-4.48912E-07 1.82416E-19-2.57358E-18
 -1      2742 9.53336E-05-2.84472E-05-2.86660E-05-3.87235E-07-2.49316E-19-1.68230E-18
 -1      2743 9.53058E-05-2.83751E-05-2.86853E-05-5.21820E-07 3.13979E-19-2.36947E-18
 -1      2744 9.53232E-05-2.84595E-05-2.86545E-05-3.27282E-07-5.70811E-19-1.44675E-18
 -1      2745 9.52996E-05-2.84669E-05-2.86429E-05-2.76934E-07-3.08294E-19-9.43051E-19
 -1      2746 9.52795E-05-2.84041E-05-2.86614E-05-3.84471E-07-3.72288E-19-2.94905E-18
 -1      2747 9.52931E-05-2.84793E-05-2.86334E-05-2.29238E-07 7.12539E-20-1.45972E-18
 -1      2748 9.52765E-05-2.84874E-05-2.86242E-05-1.89498E-07-2.65254E-20-1.34834E-18
 -1      2749 9.52633E-05-2.84354E-05-2.86409E-05-2.73224E-07-5.58869E-19-1.90685E-18
 -1      2750 9.52724E-05-2.84987E-05-2.86164E-05-1.52643E-07-4.29470E-19-1.05222E-18
 -1      2751 9.52610E-05-2.85065E-05-2.86093E-05-1.22236E-07-6.24955E-19-1.46287E-18
 -1      2752 9.52533E-05-2.84651E-05-2.86239E-05-1.85784E-07-5.73154E-19-3.71396E-18
 -1      2753 9.52584E-05-2.85161E-05-2.86031E-05-9.45715E-08-3.05467E-19-1.03238E-18
 -1      2754 9.52509E-05-2.85231E-05-2.85978E-05-7.20437E-08 1.27891E-18-1.29234E-18
 -1      2755 9.52472E-05-2.84912E-05-2.86100E-05-1.18975E-07 2.79163E-20-2.03521E-18
 -1      2756 9.52492E-05-2.85310E-05-2.85930E-05-5.19463E-08 2.15101E-18-1.67693E-18
 -1      2757 9.52446E-05-2.85371E-05-2.85891E-05-3.58969E-08 1.18509E-18-1.42618E-18
 -1      2758 9.52435E-05-2.85132E-05-2.85989E-05-6.94389E-08 8.40395E-19-1.77251E-18
 -1      2759 9.52436E-05-2.85436E-05-2.85853E-05-2.19061E-08 4.44302E-19-1.45457E-18
 -1      2760 9.52410E-05-2.85489E-05-2.85824E-05-1.11012E-08 4.26393E-19-1.68699E-18
 -1      2761 9.52412E-05-2.85312E-05-2.85901E-05-3.40215E-08 6.57821E-19-2.05940E-18
 -1      2762 9.52405E-05-2.85544E-05-2.85795E-05-2.09778E-09 1.40006E-19-2.55439E-18
 -1      2763 9.52394E-05-2.85590E-05-2.85773E-05 4.32460E-09-1.36805E-19-2.65174E-18
 -1      2764 9.52400E-05-2.85462E-05-2.85832E-05-9.95731E-09-2.13527E-19-3.33913E-18
 -1      2765 3.58477E-05-1.53464E-05-8.16149E-06-2.68364E-05-2.79309E-19-7.17013E-19
 -1      2766 4.76258E-05-2.25710E-05-1.04599E-05-3.78627E-05-4.46598E-19-4.74974E-19
 -1      2767 9.49361E-05-2.64195E-05-2.93536E-05-4.69299E-06 6.85567E-19-1.46839E-20
 -1      2768 9.49376E-05-2.65196E-05-2.93234E-05-3.94630E-06 6.78978E-19 1.32053E-19
 -1      2769 9.51884E-05-2.66192E-05-2.93801E-05-3.22793E-06 7.81247E-19 1.92459E-19
 -1      2770 9.52136E-05-2.65621E-05-2.94140E-05-2.44457E-06 9.96349E-19 3.10944E-19
 -1      2771 9.47671E-05-2.60114E-05-2.94656E-05-3.44653E-06 7.98386E-19-9.22761E-21
 -1      2772 9.38522E-05-2.49792E-05-2.95010E-05-7.85348E-06 7.17171E-19-5.22261E-19
 -1      2773 9.39418E-05-2.53722E-05-2.94085E-05-6.95495E-06 6.82698E-19-3.23216E-19
 -1      2774 9.27074E-05-2.36863E-05-2.95619E-05-9.88867E-06 4.12040E-19-3.75413E-19
 -1      2775 9.29528E-05-2.42538E-05-2.94756E-05-8.74097E-06 6.34418E-19-5.58298E-19
 -1      2776 9.17881E-05-2.34820E-05-2.92427E-05-7.87936E-06 6.52186E-19-2.83933E-19
 -1      2777 9.09198E-05-2.20876E-05-2.94781E-05-1.23551E-05 3.42292E-19-7.14761E-19
 -1      2778 9.13635E-05-2.27427E-05-2.94565E-05-1.09602E-05 4.36844E-19-5.74994E-19
 -1      2779 8.96031E-05-2.16897E-05-2.90552E-05-9.69029E-06 5.37806E-19-4.01907E-19
 -1      2780 8.84171E-05-2.05191E-05-2.90655E-05-1.53489E-05 2.77458E-19-1.34440E-18
 -1      2781 8.90169E-05-2.10302E-05-2.91994E-05-1.36895E-05 3.43232E-19-1.26296E-18
 -1      2782 8.64298E-05-1.95329E-05-2.85945E-05-1.18418E-05 5.67679E-19-1.13793E-18
 -1      2783 8.54873E-05-1.98801E-05-2.80383E-05-1.90266E-05 1.57609E-19-1.72925E-18
 -1      2784 8.59162E-05-1.96587E-05-2.84625E-05-1.70960E-05 2.40364E-19-1.42715E-18
 -1      2785 8.20771E-05-1.74083E-05-2.76048E-05-1.45349E-05 3.62361E-19-1.51096E-18
 -1      2786 8.30695E-05-2.20801E-05-2.59682E-05-2.38162E-05 3.98105E-20-1.59655E-18
 -1      2787 8.25645E-05-1.98714E-05-2.68763E-05-2.15144E-05 2.82565E-21-1.80217E-18
 -1      2788 7.65650E-05-1.63229E-05-2.56797E-05-1.81994E-05 8.55040E-20-1.95035E-18
 -1      2789 8.99278E-05-4.03995E-05-2.06111E-05-3.40001E-05-1.11321E-18-2.55200E-18
 -1      2790 9.52393E-05-2.85624E-05-2.85756E-05 8.04581E-09 3.28479E-19-1.83924E-18
 -1      2791 9.52391E-05-2.85654E-05-2.85744E-05 1.03956E-08 7.11432E-19-1.47114E-18
 -1      2792 9.52397E-05-2.85572E-05-2.85784E-05 3.25185E-09 6.96698E-19-3.90124E-18
 -1      2793 9.15906E-05-2.21853E-05-2.98017E-05 1.24673E-05-2.03696E-19 1.98048E-18
 -1      2794 9.13035E-05-2.17286E-05-2.97837E-05 1.41958E-05-4.91560E-19 1.86944E-18
 -1      2795 9.45283E-05-2.58713E-05-2.94112E-05-6.19655E-06 6.36127E-19-3.20884E-19
 -1      2796 9.45518E-05-2.61250E-05-2.93370E-05-5.38919E-06 6.92284E-19-2.28760E-19
 -1      2797 9.41620E-05-2.56223E-05-2.93657E-05-4.87840E-06 8.38203E-19-3.05136E-19
 -1      2798 9.32296E-05-2.47879E-05-2.93130E-05-6.30958E-06 7.29597E-19-3.62405E-19
 -1      2799 8.68309E-05-2.10354E-05-2.82234E-05 2.04144E-05-4.84066E-19 1.06082E-18
 -1      2800 8.76717E-05-2.28415E-05-2.76167E-05 2.24780E-05-6.79095E-19 5.77226E-19
 -1      2801 9.33180E-05-2.37119E-05-2.98743E-05 9.58039E-06-3.74395E-19 2.46767E-18
 -1      2802 9.31248E-05-2.31432E-05-2.99673E-05 1.10272E-05 4.95053E-19 2.13674E-18
 -1      2803 8.86982E-05-2.05711E-05-2.91317E-05 1.09053E-05-1.24262E-19 1.66634E-18
 -1      2804 9.44404E-05-2.50526E-05-2.97677E-05 7.27338E-06-6.50987E-19 1.56233E-18
 -1      2805 9.43752E-05-2.45539E-05-2.99011E-05 8.43372E-06-1.00021E-18 2.29692E-18
 -1      2806 9.12313E-05-2.25425E-05-2.93932E-05 8.52403E-06-9.30524E-19 1.34767E-18
 -1      2807 9.50698E-05-2.60496E-05-2.96012E-05 5.54362E-06-2.41330E-19 9.42826E-19
 -1      2808 9.51002E-05-2.56809E-05-2.97313E-05 6.41096E-06-2.36465E-19 1.17701E-18
 -1      2809 9.28907E-05-2.41555E-05-2.94297E-05 6.63262E-06-1.26049E-19 1.26420E-18
 -1      2810 9.54123E-05-2.68192E-05-2.94121E-05 4.12799E-06 6.81328E-19 1.45011E-18
 -1      2811 9.54944E-05-2.65381E-05-2.95361E-05 4.82398E-06 6.93831E-20 1.08581E-18
 -1      2812 9.39500E-05-2.53995E-05-2.93606E-05 5.10658E-06-4.62729E-19 9.65517E-19
 -1      2813 9.55579E-05-2.73609E-05-2.92374E-05 3.05049E-06 9.22618E-19 1.30052E-18
 -1      2814 9.56615E-05-2.71655E-05-2.93419E-05 3.57327E-06 1.73804E-18 1.73515E-18
 -1      2815 9.46083E-05-2.63384E-05-2.92478E-05 3.86355E-06 1.11659E-18 7.78295E-19
 -1      2816 9.55896E-05-2.77345E-05-2.90875E-05 2.23764E-06-4.07480E-19 1.92794E-18
 -1      2817 9.56941E-05-2.76009E-05-2.91720E-05 2.62660E-06-4.96820E-19 1.39507E-18
 -1      2818 9.49836E-05-2.70072E-05-2.91270E-05 2.89474E-06 2.76385E-19 8.44501E-19
 -1      2819 9.55632E-05-2.79900E-05-2.89644E-05 1.62859E-06 1.00070E-18 1.95062E-18
 -1      2820 9.56577E-05-2.78992E-05-2.90309E-05 1.91636E-06 3.92411E-19 2.35253E-18
 -1      2821 9.51835E-05-2.74760E-05-2.90147E-05 2.14854E-06-1.76881E-19 1.30918E-18
 -1      2822 9.55126E-05-2.81644E-05-2.88663E-05 1.17471E-06 2.19080E-18 4.16876E-19
 -1      2823 9.55923E-05-2.81026E-05-2.89176E-05 1.38666E-06 2.28512E-18 1.78884E-18
 -1      2824 9.52793E-05-2.78025E-05-2.89176E-05 1.57922E-06 1.86987E-18 2.25283E-18
 -1      2825 9.54587E-05-2.82792E-05-2.87930E-05 8.52319E-07-1.50401E-19 4.71646E-19
 -1      2826 9.55209E-05-2.82381E-05-2.88304E-05 1.00215E-06 1.22482E-18 3.91098E-19
 -1      2827 9.53163E-05-2.80259E-05-2.88389E-05 1.15673E-06 1.33780E-18 2.15497E-18
 -1      2828 9.54048E-05-2.83638E-05-2.87331E-05 5.99135E-07 7.95600E-20 2.02181E-19
 -1      2829 9.54560E-05-2.83337E-05-2.87629E-05 7.14981E-07-7.07204E-19 5.57290E-19
 -1      2830 9.53231E-05-2.81815E-05-2.87753E-05 8.38111E-07-6.88242E-20 8.87024E-19
 -1      2831 9.53592E-05-2.84230E-05-2.86877E-05 4.13122E-07-2.54427E-19-1.26204E-18
 -1      2832 9.53979E-05-2.84016E-05-2.87099E-05 4.97648E-07 5.10585E-19-4.72686E-19
 -1      2833 9.53153E-05-2.82949E-05-2.87235E-05 5.92345E-07 1.02004E-18-4.07897E-19
 -1      2834 9.53226E-05-2.84650E-05-2.86537E-05 2.77227E-07-1.38561E-18-2.55437E-18
 -1      2835 9.53511E-05-2.84495E-05-2.86700E-05 3.38488E-07-1.58519E-18-2.07462E-18
 -1      2836 9.53017E-05-2.83751E-05-2.86833E-05 4.10026E-07-7.63642E-19-1.80347E-18
 -1      2837 9.52946E-05-2.84952E-05-2.86286E-05 1.78785E-07-1.15979E-18-1.17579E-18
 -1      2838 9.53149E-05-2.84838E-05-2.86404E-05 2.22812E-07-8.97779E-19-1.87183E-18
 -1      2839 9.52871E-05-2.84323E-05-2.86526E-05 2.75873E-07-1.43489E-18-1.90841E-18
 -1      2840 9.52741E-05-2.85172E-05-2.86103E-05 1.08334E-07-1.77352E-18-1.95443E-19
 -1      2841 9.52881E-05-2.85086E-05-2.86186E-05 1.39554E-07-1.35070E-18-4.88670E-19
 -1      2842 9.52740E-05-2.84734E-05-2.86293E-05 1.78167E-07-1.80693E-18-1.18024E-18
 -1      2843 9.52603E-05-2.85328E-05-2.85976E-05 6.07936E-08-3.00484E-19-1.08308E-18
 -1      2844 9.52692E-05-2.85264E-05-2.86033E-05 8.17602E-08-6.86294E-19-1.13527E-18
 -1      2845 9.52634E-05-2.85027E-05-2.86122E-05 1.09265E-07-7.79176E-19-2.37689E-18
 -1      2846 9.52505E-05-2.85453E-05-2.85880E-05 2.60303E-08 4.26756E-19-2.08893E-18
 -1      2847 9.52564E-05-2.85400E-05-2.85921E-05 4.10541E-08 8.32617E-19-8.03951E-19
 -1      2848 9.52552E-05-2.85239E-05-2.85994E-05 6.05005E-08 4.21604E-19-2.31492E-18
 -1      2849 9.52445E-05-2.85553E-05-2.85812E-05 3.29559E-09 1.70552E-18-2.46126E-18
 -1      2850 9.52478E-05-2.85508E-05-2.85840E-05 1.28888E-08 1.98166E-19-2.51852E-18
 -1      2851 9.52491E-05-2.85404E-05-2.85897E-05 2.58970E-08 8.63697E-19-3.49327E-18
 -1      2852 9.52413E-05-2.85636E-05-2.85762E-05-1.01098E-08 3.12638E-18-1.45722E-18
 -1      2853 9.52427E-05-2.85597E-05-2.85782E-05-4.83469E-09 2.51951E-18-1.24665E-18
 -1      2854 9.52450E-05-2.85532E-05-2.85823E-05 3.37007E-09 1.52668E-18-2.90173E-18
 -1      2855 9.52412E-05-2.85689E-05-2.85738E-05-1.41924E-08 2.50622E-18-2.12553E-18
 -1      2856 9.52407E-05-2.85659E-05-2.85748E-05-1.29560E-08 3.10051E-18-1.27684E-18
 -1      2857 9.52431E-05-2.85617E-05-2.85778E-05-7.79036E-09 2.65745E-18-1.71776E-18
 -1      2858 9.52426E-05-2.85683E-05-2.85748E-05-1.23111E-08 1.87592E-18-2.38552E-18
 -1      2859 9.52300E-05-2.85415E-05-2.85809E-05 3.17499E-09-1.70097E-18-5.79878E-19
 -1      2860 9.52309E-05-2.85424E-05-2.85808E-05 3.20477E-09-1.69626E-18 9.43376E-19
 -1      2861 8.61746E-05-4.12977E-05-1.91826E-05 3.59068E-05-8.08387E-19 1.19432E-19
 -1      2862 6.52148E-05-2.98968E-05-1.45534E-05 3.31005E-05-4.13352E-19 3.94188E-19
 -1      2863 2.97814E-05-9.37815E-06-8.09324E-06-2.00459E-06 9.30085E-19 1.04418E-18
 -1      2864 3.01662E-05-1.06635E-05-7.74931E-06-1.58783E-05 3.67401E-19 1.15196E-19
 -1      2865 9.52325E-05-2.85447E-05-2.85806E-05 3.67428E-09-1.82717E-18-8.01906E-19
 -1      2866 9.52341E-05-2.85464E-05-2.85804E-05 3.00099E-09-6.05436E-19-9.41738E-19
 -1      2867 9.52280E-05-2.85304E-05-2.85845E-05 5.16954E-09-1.66033E-18 7.02709E-20
 -1      2868 9.52314E-05-2.85442E-05-2.85802E-05 9.30941E-10 5.40389E-19 1.91199E-18
 -1      2869 9.52305E-05-2.85430E-05-2.85804E-05 8.96388E-10-2.62296E-19 4.53824E-18
 -1      2870 9.52346E-05-2.85494E-05-2.85793E-05 1.40342E-09 1.76825E-18-7.12336E-19
 -1      2871 9.52332E-05-2.85474E-05-2.85797E-05 6.96913E-10 1.09187E-18-9.49219E-19
 -1      2872 9.52290E-05-2.85340E-05-2.85834E-05-1.68276E-09 1.50361E-18 6.02271E-19
 -1      2873 9.52379E-05-2.85559E-05-2.85780E-05 3.77143E-09 3.28687E-18 1.78429E-18
 -1      2874 9.52367E-05-2.85536E-05-2.85786E-05 2.19949E-09 2.32682E-18 6.50504E-19
 -1      2875 9.52333E-05-2.85416E-05-2.85821E-05-1.48544E-09 1.71775E-18 1.77661E-19
 -1      2876 9.53601E-05-2.64433E-05-2.95341E-05-1.62408E-06 9.49468E-19 3.51026E-19
 -1      2877 9.54321E-05-2.62001E-05-2.96567E-05-6.79823E-07 9.91857E-19 4.67292E-19
 -1      2878 9.51431E-05-2.59326E-05-2.96648E-05-1.86100E-06 1.00836E-18-8.58618E-20
 -1      2879 9.52397E-05-2.85646E-05-2.85751E-05 9.53808E-09 2.25917E-18-3.02431E-18
 -1      2880 9.47448E-05-2.14366E-05-3.14481E-05-7.00291E-06-8.59037E-19-2.41526E-18
 -1      2881 9.52200E-05-2.31654E-05-3.08765E-05-5.27578E-06-7.80961E-19-2.30840E-18
 -1      2882 9.38904E-05-2.00169E-05-3.16634E-05-6.83888E-06-6.41932E-19-2.49070E-18
 -1      2883 9.52296E-05-2.85414E-05-2.85807E-05 1.85879E-09-1.81360E-19 2.30672E-18
 -1      2884 9.52296E-05-2.85412E-05-2.85808E-05 2.11173E-09-1.86441E-21-1.70725E-18
 -1      2885 9.52256E-05-2.85277E-05-2.85847E-05 2.91208E-09-9.01988E-19-2.05483E-19
 -1      2886 9.52261E-05-2.85290E-05-2.85843E-05 1.57614E-10 7.00589E-19 3.45425E-18
 -1      2887 1.07176E-04-5.14440E-05-2.33167E-05 3.10819E-05-8.28398E-19-1.48125E-19
 -1      2888 4.83967E-05-2.07681E-05-1.13931E-05 2.76007E-05-7.34801E-20 1.06070E-18
 -1      2889 3.58477E-05-1.28261E-05-9.34811E-06 1.42836E-05 1.49290E-20 7.55553E-19
 -1      2890 6.43975E-05-2.36917E-05-1.67872E-05 2.82340E-05-9.36501E-20 3.68883E-19
 -1      2891 8.92603E-05-2.09130E-05-2.93541E-05 1.60315E-05-5.96687E-19 1.33564E-18
 -1      2892 8.91433E-05-2.10624E-05-2.91101E-05 1.79929E-05-1.64839E-19 1.44083E-18
 -1      2893 8.07387E-05-1.75130E-05-2.69742E-05 1.77009E-05-6.25421E-19 7.76124E-19
 -1      2894 1.33990E-04-1.25125E-05-5.27906E-05-8.28172E-06-1.62397E-18 5.22408E-19
 -1      2895 1.37490E-04-2.09620E-05-5.03577E-05-1.02182E-05-1.68369E-18 8.31151E-19
 -1      2896 9.55576E-05-2.42285E-05-3.05590E-05-4.14666E-06-6.53553E-19-2.13820E-18
 -1      2897 9.55366E-05-2.51795E-05-3.01637E-05-2.61597E-06-4.89307E-19-2.08789E-18
 -1      2898 9.54970E-05-2.48467E-05-3.02919E-05-2.27070E-06-3.45535E-19-1.90896E-18
 -1      2899 9.50391E-05-2.30539E-05-3.08405E-05-4.30001E-06-5.30216E-19-2.04086E-18
 -1      2900 1.40239E-04-5.29996E-05-3.74008E-05-5.98694E-06 2.56930E-18-9.66676E-20
 -1      2901 1.39698E-04-4.45818E-05-4.13017E-05 3.18189E-06 1.09108E-18-1.11279E-19
 -1      2902 9.06035E-05-1.52603E-05-3.23194E-05 4.30218E-06 1.85734E-18-8.07952E-19
 -1      2903 9.01562E-05-1.46956E-05-3.23652E-05 3.49975E-06 1.66572E-18-1.15368E-18
 -1      2904 9.09864E-05-1.61264E-05-3.20605E-05 2.75548E-06 1.50133E-18-1.22562E-18
 -1      2905 9.19179E-05-1.73622E-05-3.19234E-05 3.91912E-06 1.67435E-18-6.58970E-19
 -1      2906 1.37575E-04-3.17910E-05-4.56953E-05 9.42876E-06-4.35587E-19-2.22558E-19
 -1      2907 1.35684E-04-2.21891E-05-4.93155E-05 1.05223E-05-7.51001E-19 1.56066E-19
 -1      2908 3.15852E-05-1.09359E-05-8.22967E-06-8.10476E-06-8.60268E-20-1.81074E-18
 -1      2909 3.91549E-05-1.58008E-05-9.56031E-06-2.06381E-05-1.62948E-19-1.43170E-18
 -1      2910 1.00422E-04-5.09687E-05-2.07735E-05-4.17069E-05 1.47405E-18 7.69476E-19
 -1      2911 1.16399E-04-5.71508E-05-2.55369E-05-3.61646E-05 2.19710E-18 8.33719E-19
 -1      2912 9.66888E-05-4.94733E-05-2.01518E-05 4.30352E-05 1.48114E-18 1.47701E-20
 -1      2913 8.33625E-05-4.25466E-05-1.69230E-05 4.41572E-05 1.69184E-18 2.81215E-19
 -1      2914 1.32135E-04-1.25719E-05-5.17384E-05 8.92845E-06-1.64811E-18-3.21767E-19
 -1      2915 1.31307E-04-7.72153E-06-5.36870E-05 4.52413E-06-2.06401E-18-9.22472E-20
 -1      2916 9.03355E-05-1.49382E-05-3.23365E-05-3.35610E-06 5.95365E-19-2.51740E-18
 -1      2917 9.07793E-05-1.55053E-05-3.22852E-05-4.22351E-06 3.90140E-19-2.52121E-18
 -1      2918 1.41577E-04-3.18100E-05-4.77173E-05-8.16530E-06-1.61444E-18 1.23741E-18
 -1      2919 1.43186E-04-4.01514E-05-4.45251E-05-4.39903E-06-8.22045E-19 9.28878E-19
 -1      2920 3.51742E-05-1.13618E-05-9.69436E-06 1.87481E-05 6.42739E-19-2.32892E-18
 -1      2921 3.01982E-05-9.87103E-06-8.09281E-06 4.12230E-06 3.33233E-19-2.39922E-18
 -1      2922 3.91346E-05-9.36810E-06-1.21637E-05-1.99642E-06 2.86195E-19-1.87597E-18
 -1      2923 1.30577E-04-5.87540E-06-5.41437E-05 1.61405E-07-2.15528E-18 2.66650E-19
 -1      2924 1.31167E-04-7.06397E-06-5.37945E-05-4.44598E-06-2.12161E-18 6.20663E-19
 -1      2925 1.27122E-04-5.88408E-05-2.90655E-05-2.73606E-05 2.69367E-18 5.29396E-19
 -1      2926 1.35631E-04-5.77913E-05-3.37428E-05-1.83240E-05 3.01374E-18 6.11981E-20
 -1      2927 1.21780E-04-5.73560E-05-2.74259E-05-2.85733E-05 2.69028E-18-7.42424E-19
 -1      2928 8.28049E-05-3.29979E-05-2.09808E-05-3.22751E-05-6.04146E-19-2.36873E-18
 -1      2929 9.03705E-05-1.53298E-05-3.21460E-05 1.81918E-07 1.17423E-18-1.89120E-18
 -1      2930 8.93780E-05-1.37005E-05-3.24542E-05-1.98220E-07 1.20754E-18-2.01038E-18
 -1      2931 8.94848E-05-1.38257E-05-3.24435E-05-1.04598E-06 1.05650E-18-2.21963E-18
 -1      2932 9.56053E-05-2.46501E-05-3.04032E-05 3.13071E-06 1.61656E-18 5.61574E-19
 -1      2933 9.52119E-05-2.35323E-05-3.07082E-05 3.57581E-06 1.68783E-18 2.16807E-19
 -1      2934 9.55453E-05-2.52539E-05-3.01255E-05 1.86838E-06 1.48523E-18 4.33581E-19
 -1      2935 6.16298E-05-2.60065E-05-1.47028E-05-3.74430E-05-5.83394E-19 8.00658E-19
 -1      2936 9.44930E-05-4.56105E-05-2.06077E-05-3.99504E-05 8.49045E-19 3.09882E-19
 -1      2937 9.52406E-05-2.85570E-05-2.85788E-05-1.37710E-09-1.29808E-18-1.60496E-18
 -1      2938 9.52418E-05-2.85592E-05-2.85782E-05-3.93446E-09 2.95262E-19-1.69938E-18
 -1      2939 1.28198E-04-1.76423E-05-4.78044E-05 1.08340E-05-1.34350E-18 1.63583E-19
 -1      2940 8.51613E-05-1.86003E-05-2.84373E-05 1.38463E-05-5.25673E-19 1.02402E-18
 -1      2941 4.06271E-05-1.21712E-05-1.15558E-05-2.00892E-05 7.28713E-20 1.02491E-19
 -1      2942 9.52399E-05-2.85626E-05-2.85759E-05 7.43991E-09 3.39099E-18 8.33361E-20
 -1      2943 8.67366E-05-3.12195E-05-2.35330E-05-2.96626E-05-1.63160E-19-2.17762E-18
 -1      2944 8.36238E-05-2.54786E-05-2.47404E-05-2.72297E-05 3.00207E-19-1.71702E-18
 -1      2945 9.87496E-05-4.27404E-05-2.35068E-05 3.08422E-05-1.16965E-18-4.54857E-19
 -1      2946 9.52365E-05-2.85502E-05-2.85800E-05 2.30827E-09-6.95921E-19-4.57911E-19
 -1      2947 9.52382E-05-2.85524E-05-2.85796E-05 6.76617E-10-1.32748E-18-9.40291E-19
 -1      2948 9.52379E-05-2.85450E-05-2.85826E-05 3.23924E-09-6.33962E-19-1.73996E-18
 -1      2949 1.36508E-04-3.95463E-05-4.19174E-05 8.05768E-06 7.77629E-19-7.48565E-20
 -1      2950 1.29962E-04-3.30705E-05-4.18290E-05 1.17152E-05 6.66297E-19 3.46542E-19
 -1      2951 1.32796E-04-4.43814E-05-3.80042E-05 5.21618E-06 1.83430E-18 2.23670E-20
 -1      2952 9.52391E-05-2.85552E-05-2.85789E-05 2.92739E-09 1.38185E-18-1.82891E-18
 -1      2953 9.52387E-05-2.85568E-05-2.85780E-05 3.89838E-09 2.99980E-18 2.17857E-18
 -1      2954 9.52370E-05-2.85471E-05-2.85812E-05-9.74526E-10 1.34399E-18 1.95078E-18
 -1      2955 9.52392E-05-2.85503E-05-2.85807E-05-1.45232E-09 4.40167E-19-2.29182E-18
 -1      2956 9.52325E-05-2.85365E-05-2.85839E-05 5.56009E-09-8.56830E-19-1.04269E-18
 -1      2957 7.33401E-05-1.96272E-05-2.29213E-05-2.45429E-05 3.67824E-19-2.55378E-18
 -1      2958 1.06754E-04-5.31639E-05-2.26662E-05 3.82522E-05 1.33535E-18-1.34202E-20
 -1      2959 1.02265E-04-4.93880E-05-2.24455E-05 3.72875E-05 1.59639E-18-1.27028E-19
 -1      2960 1.15442E-04-5.58864E-05-2.56401E-05 3.21314E-05 1.09341E-18 4.98419E-19
 -1      2961 8.61280E-05-2.49723E-05-2.60863E-05 2.58029E-05-9.90909E-19 3.83071E-19
 -1      2962 8.94253E-05-3.01610E-05-2.50490E-05 2.77455E-05-1.38993E-18-5.96311E-19
 -1      2963 4.42268E-05-1.49637E-05-1.18569E-05 2.53943E-05 1.24403E-18-1.44811E-18
 -1      2964 4.47121E-05-1.12589E-05-1.40266E-05 1.74317E-05 1.04376E-18-1.55282E-18
 -1      2965 5.48647E-05-1.93727E-05-1.49300E-05 3.00102E-05 1.64631E-18-6.22993E-19
 -1      2966 7.58703E-05-3.55850E-05-1.68232E-05 4.08334E-05 1.74881E-18 1.01856E-19
 -1      2967 1.34321E-04-2.65652E-05-4.65689E-05-1.10282E-05-1.22449E-18 1.32222E-18
 -1      2968 1.42524E-04-4.60358E-05-4.16798E-05-1.38105E-06-3.35796E-19 6.87685E-19
 -1      2969 1.39288E-04-5.02650E-05-3.83107E-05 1.83939E-06-2.63639E-20 1.49268E-18
 -1      2970 1.37447E-04-4.17149E-05-4.13063E-05-7.06239E-06-4.69415E-19 1.81350E-18
 -1      2971 9.13285E-05-1.62673E-05-3.21936E-05-4.91027E-06 2.06686E-19-2.50939E-18
 -1      2972 9.19614E-05-1.71319E-05-3.21035E-05-5.71080E-06-8.96601E-20-2.65120E-18
 -1      2973 9.20983E-05-1.76639E-05-3.18806E-05-3.84064E-06 1.95271E-19-2.33037E-18
 -1      2974 9.52428E-05-2.85635E-05-2.85769E-05-6.72680E-09 9.41674E-19-2.70339E-18
 -1      2975 9.52428E-05-2.85651E-05-2.85761E-05-9.22944E-09 1.21152E-18-2.50706E-18
 -1      2976 9.52430E-05-2.85617E-05-2.85777E-05-7.52449E-09 1.13090E-18-2.74429E-18
 -1      2977 9.52415E-05-2.85541E-05-2.85804E-05-1.79999E-09 9.46677E-19-3.08761E-18
 -1      2978 1.36520E-04-5.71482E-05-3.43230E-05 1.21564E-05-1.69036E-19 1.60608E-18
 -1      2979 1.34191E-04-5.90851E-05-3.21950E-05 2.10776E-05-3.94717E-19 1.12909E-18
 -1      2980 1.27096E-04-5.87412E-05-2.91015E-05 2.49119E-05 5.76618E-19 7.06346E-19
 -1      2981 9.24178E-05-3.56288E-05-2.39419E-05 3.05382E-05-1.06589E-18-2.93179E-19
 -1      2982 8.96884E-05-1.40986E-05-3.24175E-05-1.76851E-06 9.33917E-19-2.21575E-18
 -1      2983 8.99602E-05-1.44313E-05-3.23895E-05-2.63314E-06 7.22233E-19-2.39392E-18
 -1      2984 9.11930E-05-1.64155E-05-3.20319E-05-2.53250E-06 6.09151E-19-2.36262E-18
 -1      2985 9.06135E-05-1.56459E-05-3.21148E-05-1.17000E-06 9.24052E-19-2.09693E-18
 -1      2986 7.65971E-05-2.69719E-05-2.11521E-05 3.02069E-05-1.27611E-18-2.84127E-19
 -1      2987 1.26370E-04-1.09173E-05-4.99401E-05-7.20955E-06-1.53292E-18 3.29019E-19
 -1      2988 5.16903E-05-1.80872E-05-1.39644E-05-2.36626E-05-1.16096E-19-2.03881E-18
 -1      2989 6.90550E-05-2.39393E-05-1.87578E-05-2.99335E-05 7.78212E-20-3.13900E-18
 -1      2990 1.24087E-04-7.54397E-06-5.04122E-05 2.69763E-06-2.06528E-18 1.52572E-19
 -1      2991 1.34901E-04-5.51037E-05-3.42241E-05-9.99760E-06 2.95090E-18-6.22040E-20
 -1      2992 9.54805E-05-2.59949E-05-2.97760E-05 2.98763E-08 1.05647E-18 5.55165E-19
 -1      2993 9.55768E-05-2.56534E-05-2.99526E-05 1.02156E-06 1.17485E-18 4.85206E-19
 -1      2994 9.54021E-05-2.49189E-05-3.02222E-05 1.40740E-06 1.23163E-18 2.40767E-19
 -1      2995 9.53340E-05-2.55185E-05-2.99276E-05-2.55370E-07 1.06687E-18 2.17017E-20
 -1      2996 7.63847E-05-1.93233E-05-2.42944E-05 2.31751E-05-1.30603E-18-6.77970E-19
 -1      2997 9.48808E-05-2.26822E-05-3.09462E-05 3.86154E-06 1.69109E-18-3.02210E-21
 -1      2998 9.42684E-05-2.15154E-05-3.11858E-05 4.06872E-06 1.82310E-18-5.30880E-20
 -1      2999 9.50571E-05-2.35349E-05-3.06364E-05 2.62248E-06 1.39187E-18 6.97468E-20
 -1      3000 9.36111E-05-2.04837E-05-3.13566E-05 3.77045E-06 1.73629E-18-2.56468E-19
 -1      3001 1.24364E-04-2.13617E-05-4.44366E-05 1.24199E-05-1.15292E-18 2.83227E-20
 -1      3002 1.21008E-04-1.37450E-05-4.65233E-05 9.63999E-06-1.53726E-18-2.51463E-21
 -1      3003 6.17595E-05-1.80490E-05-1.84024E-05 2.43398E-05-3.59407E-19-8.17387E-20
 -1      3004 8.86838E-05-3.98692E-05-2.05952E-05-3.77483E-05 3.79471E-19-1.56754E-19
 -1      3005 1.04654E-04-4.95324E-05-2.36662E-05-3.51624E-05 1.13502E-18-1.19024E-18
 -1      3006 9.59194E-05-2.66659E-05-2.96640E-05 6.29171E-07-2.69158E-19-1.54268E-18
 -1      3007 9.60001E-05-2.71869E-05-2.94979E-05 1.25004E-06-1.81281E-19-1.55329E-18
 -1      3008 9.61557E-05-2.76692E-05-2.93375E-05 1.75437E-06-3.12779E-19-1.50434E-18
 -1      3009 9.62792E-05-2.80947E-05-2.92254E-05 2.14278E-06-5.02938E-19-1.70327E-18
 -1      3010 9.60769E-05-2.71189E-05-2.95604E-05 1.48061E-06-2.61101E-19-1.52127E-18
 -1      3011 9.64657E-05-2.85135E-05-2.91093E-05 2.46646E-06-5.73416E-19-1.58604E-18
 -1      3012 9.66654E-05-2.89214E-05-2.90354E-05 2.65707E-06-3.88092E-19-1.68174E-18
 -1      3013 9.64174E-05-2.81397E-05-2.92716E-05 2.36251E-06-5.13356E-19-1.43245E-18
 -1      3014 9.69438E-05-2.93534E-05-2.89534E-05 2.81468E-06-1.22434E-19-1.74972E-18
 -1      3015 9.72416E-05-2.97980E-05-2.89071E-05 2.81855E-06-3.19273E-19-1.58125E-18
 -1      3016 9.68805E-05-2.90999E-05-2.90612E-05 2.90146E-06-2.99067E-19-1.47824E-18
 -1      3017 9.76617E-05-3.02972E-05-2.88543E-05 2.80136E-06-3.50518E-19-1.44394E-18
 -1      3018 9.80677E-05-3.08086E-05-2.88304E-05 2.60714E-06-2.47364E-19-1.40267E-18
 -1      3019 9.75759E-05-3.01434E-05-2.89149E-05 3.10645E-06-1.56332E-19-1.39998E-18
 -1      3020 9.86646E-05-3.14006E-05-2.88080E-05 2.38163E-06-2.86933E-19-9.49993E-19
 -1      3021 9.91698E-05-3.19735E-05-2.88076E-05 1.96248E-06-1.11608E-19-7.97482E-19
 -1      3022 9.85904E-05-3.13623E-05-2.88300E-05 2.93765E-06-8.40167E-21-1.32283E-18
 -1      3023 9.99483E-05-3.26385E-05-2.88248E-05 1.47566E-06-2.04883E-19-6.43573E-19
 -1      3024 1.00510E-04-3.32140E-05-2.88557E-05 8.03996E-07-2.25555E-19-6.11314E-19
 -1      3025 9.99681E-05-3.27694E-05-2.88188E-05 2.30650E-06-1.78552E-19-5.49035E-19
 -1      3026 1.01418E-04-3.38636E-05-2.89295E-05 1.61266E-09-1.57815E-19-7.38107E-19
 -1      3027 1.01944E-04-3.43096E-05-2.90056E-05-9.24084E-07-5.39493E-20-6.58676E-19
 -1      3028 1.01669E-04-3.42515E-05-2.89103E-05 1.09525E-06-9.01968E-20-2.45305E-19
 -1      3029 1.02843E-04-3.47660E-05-2.91595E-05-2.05772E-06-2.41835E-19-7.03213E-19
 -1      3030 1.03186E-04-3.48732E-05-2.92974E-05-3.17109E-06-2.27791E-19-6.68035E-19
 -1      3031 1.03508E-04-3.55138E-05-2.91495E-05-7.89585E-07-5.79561E-20-4.88969E-19
 -1      3032 1.03838E-04-3.48742E-05-2.95544E-05-4.54236E-06-1.52652E-19-6.21167E-19
 -1      3033 1.03826E-04-3.43984E-05-2.97662E-05-5.65758E-06-1.59511E-19-6.60929E-19
 -1      3034 1.05109E-04-3.60520E-05-2.95889E-05-3.30789E-06-1.78951E-19-1.15400E-18
 -1      3035 1.03935E-04-3.36734E-05-3.01347E-05-6.97890E-06-3.74394E-19-8.81062E-19
 -1      3036 1.03451E-04-3.24576E-05-3.04156E-05-7.76255E-06-6.72624E-19-8.61978E-19
 -1      3037 1.05924E-04-3.52375E-05-3.02664E-05-6.11482E-06-3.93861E-19-9.65301E-19
 -1      3038 1.02825E-04-3.09070E-05-3.08698E-05-8.52320E-06-7.12619E-19-3.97427E-19
 -1      3039 1.01926E-04-2.90735E-05-3.11852E-05-8.55434E-06-6.17990E-19-3.75124E-19
 -1      3040 1.05431E-04-3.26070E-05-3.11680E-05-8.41087E-06-3.35293E-19-1.10098E-18
 -1      3041 1.00710E-04-2.70053E-05-3.16475E-05-8.18102E-06-3.07561E-19-1.73560E-19
 -1      3042 9.97041E-05-2.50802E-05-3.19292E-05-7.16135E-06 3.26819E-20-6.12354E-20
 -1      3043 1.03553E-04-2.83801E-05-3.21830E-05-9.01941E-06-1.94758E-19-3.49105E-19
 -1      3044 9.84723E-05-2.32551E-05-3.22793E-05-5.38951E-06 3.70246E-21-4.54734E-20
 -1      3045 9.78321E-05-2.20452E-05-3.24443E-05-3.40312E-06-1.66779E-19-1.25133E-19
 -1      3046 1.01015E-04-2.37943E-05-3.30908E-05-6.95832E-06-5.16787E-20-6.99050E-20
 -1      3047 9.73570E-05-2.13738E-05-3.25669E-05-6.98465E-07-1.55249E-19-3.40924E-19
 -1      3048 9.74051E-05-2.14428E-05-3.25610E-05 1.64477E-06-5.52153E-19-4.54256E-19
 -1      3049 9.92519E-05-2.08619E-05-3.36197E-05-2.32194E-06-3.11298E-19-5.76804E-19
 -1      3050 9.79821E-05-2.22653E-05-3.24132E-05 4.29677E-06-8.89426E-19-7.09274E-19
 -1      3051 9.87025E-05-2.35893E-05-3.22381E-05 6.19716E-06-5.72574E-19-9.26099E-19
 -1      3052 9.93662E-05-2.10409E-05-3.35916E-05 3.29834E-06-8.27392E-19-6.89869E-19
 -1      3053 9.99438E-05-2.54573E-05-3.18744E-05 7.80878E-06-4.44942E-19-1.35673E-18
 -1      3054 1.00953E-04-2.73776E-05-3.15927E-05 8.72279E-06-1.61633E-19-1.84959E-18
 -1      3055 1.01270E-04-2.42273E-05-3.30148E-05 7.70664E-06-1.04608E-18-9.86067E-19
 -1      3056 1.02101E-04-2.93837E-05-3.11315E-05 8.97239E-06 6.50447E-19-1.84714E-18
 -1      3057 1.02957E-04-3.11353E-05-3.08256E-05 8.86539E-06 5.63317E-19-1.53163E-18
 -1      3058 1.03729E-04-2.87728E-05-3.20923E-05 9.46473E-06 3.25699E-19-1.03361E-18
 -1      3059 1.03466E-04-3.25550E-05-3.03847E-05 8.05303E-06-4.22253E-20-1.08894E-18
 -1      3060 1.03892E-04-3.36569E-05-3.01193E-05 7.26008E-06-3.85907E-19-1.73106E-19
 -1      3061 1.05412E-04-3.27736E-05-3.10913E-05 8.66305E-06 4.70927E-19-8.32807E-19
 -1      3062 1.03677E-04-3.42535E-05-2.97677E-05 5.96731E-06-4.33942E-19 6.80956E-21
 -1      3063 1.03639E-04-3.46290E-05-2.95718E-05 4.89912E-06 2.15867E-19 3.87383E-19
 -1      3064 1.05678E-04-3.51013E-05-3.02221E-05 6.35231E-06 7.66155E-21-3.08454E-19
 -1      3065 1.02914E-04-3.45336E-05-2.93279E-05 3.61074E-06 3.13840E-19 1.64743E-19
 -1      3066 1.02543E-04-3.43630E-05-2.92020E-05 2.57940E-06 6.51614E-19 2.44608E-20
 -1      3067 1.04684E-04-3.56639E-05-2.95755E-05 3.66819E-06 2.49039E-19 6.39802E-19
 -1      3068 1.01601E-04-3.38560E-05-2.90537E-05 1.54898E-06 6.64482E-19-3.55720E-19
 -1      3069 1.01066E-04-3.33860E-05-2.89835E-05 7.16191E-07 9.62186E-19-5.47344E-19
 -1      3070 1.02971E-04-3.49667E-05-2.91543E-05 1.34305E-06 3.50466E-19 7.16343E-20
 -1      3071 1.00134E-04-3.27239E-05-2.89051E-05 1.23286E-08 7.93164E-19-7.05789E-19
 -1      3072 9.95755E-05-3.21595E-05-2.88714E-05-5.74846E-07 1.31757E-19-1.11025E-18
 -1      3073 1.01070E-04-3.36422E-05-2.89142E-05-3.40978E-07 5.68902E-19-4.22742E-19
 -1      3074 9.87797E-05-3.15154E-05-2.88369E-05-9.85570E-07-1.71253E-19-8.02876E-19
 -1      3075 9.82798E-05-3.09863E-05-2.88229E-05-1.34645E-06 1.13514E-19 4.88469E-20
 -1      3076 9.93334E-05-3.21807E-05-2.87972E-05-1.38460E-06 3.89785E-19-5.60535E-19
 -1      3077 9.76647E-05-3.04484E-05-2.88118E-05-1.53438E-06-2.61793E-19-2.02196E-19
 -1      3078 9.72590E-05-3.00161E-05-2.88060E-05-1.71564E-06 6.06342E-20-1.32552E-19
 -1      3079 9.79251E-05-3.08715E-05-2.87525E-05-1.91455E-06-2.47146E-19 1.07208E-19
 -1      3080 9.68191E-05-2.96125E-05-2.88046E-05-1.75228E-06-8.83547E-20-2.56027E-19
 -1      3081 9.65116E-05-2.92929E-05-2.87999E-05-1.80521E-06-2.56114E-19-2.61373E-19
 -1      3082 9.68777E-05-2.98378E-05-2.87433E-05-2.08265E-06 1.17486E-19 4.77632E-19
 -1      3083 9.62177E-05-2.90165E-05-2.88003E-05-1.74925E-06 8.77781E-20-4.78534E-20
 -1      3084 9.59963E-05-2.88000E-05-2.87935E-05-1.71898E-06 8.68807E-20 2.01180E-19
 -1      3085 9.61523E-05-2.90972E-05-2.87465E-05-2.02121E-06 1.66162E-19 3.76015E-19
 -1      3086 9.58129E-05-2.86283E-05-2.87922E-05-1.61352E-06-5.27594E-19 4.45684E-19
 -1      3087 9.56598E-05-2.84949E-05-2.87825E-05-1.53540E-06-1.37737E-18 3.80801E-19
 -1      3088 9.56825E-05-2.86133E-05-2.87498E-05-1.83036E-06-2.98229E-19-4.41254E-19
 -1      3089 9.55543E-05-2.84013E-05-2.87781E-05-1.40965E-06-8.58796E-19 4.81121E-19
 -1      3090 9.54518E-05-2.83290E-05-2.87660E-05-1.30915E-06 2.08255E-19 8.10892E-19
 -1      3091 9.53994E-05-2.83302E-05-2.87477E-05-1.57953E-06-4.88137E-19 6.33327E-19
 -1      3092 9.53976E-05-2.82891E-05-2.87589E-05-1.18158E-06-6.44565E-19 9.41512E-19
 -1      3093 9.53308E-05-2.82584E-05-2.87453E-05-1.07574E-06-7.77656E-19 1.24063E-18
 -1      3094 9.52438E-05-2.81908E-05-2.87393E-05-1.31354E-06-4.40680E-20 3.58273E-19
 -1      3095 9.53082E-05-2.82525E-05-2.87363E-05-9.57053E-07-9.36199E-19 1.23706E-18
 -1      3096 9.52656E-05-2.82479E-05-2.87224E-05-8.56356E-07-4.21162E-19 2.55253E-19
 -1      3097 9.51699E-05-2.81467E-05-2.87255E-05-1.05925E-06-1.33785E-18 7.01732E-19
 -1      3098 9.52610E-05-2.82615E-05-2.87123E-05-7.51949E-07-3.27601E-19-9.45582E-19
 -1      3099 9.52343E-05-2.82718E-05-2.86989E-05-6.62103E-07-8.14911E-19-2.13181E-18
 -1      3100 9.51446E-05-2.81604E-05-2.87083E-05-8.31052E-07-1.41518E-18 1.16098E-18
 -1      3101 9.52388E-05-2.82949E-05-2.86887E-05-5.73920E-07 8.69551E-20-2.40428E-18
 -1      3102 9.52222E-05-2.83124E-05-2.86765E-05-4.97367E-07-2.16016E-19-2.60294E-18
 -1      3103 9.51458E-05-2.82049E-05-2.86893E-05-6.35150E-07-5.29064E-19-1.11921E-18
 -1      3104 9.52305E-05-2.83385E-05-2.86667E-05-4.25249E-07-1.31728E-19-1.85393E-18
 -1      3105 9.52203E-05-2.83582E-05-2.86559E-05-3.62340E-07 1.80283E-19-1.43957E-18
 -1      3106 9.51593E-05-2.82624E-05-2.86703E-05-4.72601E-07-8.44061E-20-1.58409E-18
 -1      3107 9.52291E-05-2.83835E-05-2.86470E-05-3.04952E-07-1.50568E-21-7.58660E-19
 -1      3108 9.52228E-05-2.84027E-05-2.86378E-05-2.54812E-07-4.92194E-19-7.57677E-19
 -1      3109 9.51769E-05-2.83218E-05-2.86523E-05-3.41476E-07 4.83596E-19-4.53908E-19
 -1      3110 9.52307E-05-2.84252E-05-2.86301E-05-2.10268E-07-6.19278E-19-7.42206E-19
 -1      3111 9.52268E-05-2.84424E-05-2.86224E-05-1.71404E-07-2.04499E-19-7.81554E-19
 -1      3112 9.51939E-05-2.83768E-05-2.86360E-05-2.38305E-07-2.60183E-19 1.53696E-18
 -1      3113 9.52331E-05-2.84614E-05-2.86158E-05-1.37659E-07-1.31884E-20-2.30424E-18
 -1      3114 9.52307E-05-2.84760E-05-2.86096E-05-1.08364E-07 4.11284E-19-1.40932E-18
 -1      3115 9.52083E-05-2.84245E-05-2.86217E-05-1.59027E-07-1.41532E-19 5.29956E-19
 -1      3116 9.52354E-05-2.84915E-05-2.86040E-05-8.34807E-08 4.20255E-19-1.84825E-18
 -1      3117 9.52339E-05-2.85035E-05-2.85990E-05-6.21017E-08 5.62227E-19-2.52084E-18
 -1      3118 9.52195E-05-2.84642E-05-2.86095E-05-9.95792E-08-6.45858E-20-2.53404E-18
 -1      3119 9.52370E-05-2.85159E-05-2.85944E-05-4.43631E-08 7.59628E-19-2.33779E-18
 -1      3120 9.52362E-05-2.85257E-05-2.85904E-05-2.94025E-08 5.41407E-19-2.78105E-18
 -1      3121 9.52275E-05-2.84961E-05-2.85992E-05-5.63274E-08 4.26182E-19-2.42236E-18
 -1      3122 9.52384E-05-2.85349E-05-2.85869E-05-1.85061E-08 1.86143E-20-2.36475E-18
 -1      3123 9.52379E-05-2.85430E-05-2.85837E-05-8.60094E-09-2.95962E-19-3.31665E-18
 -1      3124 9.52366E-05-2.85407E-05-2.85842E-05-8.50387E-09 4.53358E-19-1.33334E-19
 -1      3125 9.52331E-05-2.85213E-05-2.85909E-05-2.72682E-08 6.97877E-19-3.20675E-18
 -1      3126 1.19067E-04-8.73888E-06-4.76725E-05 5.41794E-06-1.95643E-18 4.35693E-19
 -1      3127 1.18555E-04-7.40236E-06-4.81103E-05-1.09704E-07-2.14109E-18 3.28278E-19
 -1      3128 8.69432E-05-2.02475E-05-2.86019E-05-8.42141E-06 6.40079E-19-4.92975E-19
 -1      3129 8.83164E-05-2.12759E-05-2.87740E-05-7.60034E-06 6.96754E-19-4.14908E-19
 -1      3130 8.99776E-05-2.23546E-05-2.89915E-05-7.12929E-06 6.20567E-19-2.39590E-19
 -1      3131 9.09005E-05-2.31433E-05-2.90671E-05-6.38584E-06 6.61009E-19-1.54517E-19
 -1      3132 8.78295E-05-2.09611E-05-2.86032E-05-5.99597E-06 7.20505E-19-1.87388E-19
 -1      3133 7.67342E-05-1.51373E-05-2.64015E-05-1.15224E-05 4.02440E-19-8.37795E-19
 -1      3134 7.93364E-05-1.62226E-05-2.71327E-05-1.03624E-05 5.11545E-19-8.02855E-19
 -1      3135 6.92053E-05-1.34380E-05-2.37775E-05-1.40099E-05 2.64661E-19-1.63066E-18
 -1      3136 7.21737E-05-1.37285E-05-2.51195E-05-1.23993E-05 3.72350E-19-1.16239E-18
 -1      3137 7.08099E-05-1.25322E-05-2.47626E-05-7.65750E-06 6.13879E-19-5.44047E-19
 -1      3138 9.52266E-05-2.85217E-05-2.85880E-05 1.03290E-08-1.08846E-18-2.49891E-18
 -1      3139 9.52298E-05-2.85255E-05-2.85875E-05 1.03270E-08-2.68953E-19-1.61330E-18
 -1      3140 9.43139E-05-2.54866E-05-2.95005E-05-3.43937E-06 9.12749E-19-4.73423E-19
 -1      3141 9.45665E-05-2.55418E-05-2.95822E-05-2.70160E-06 9.32054E-19-2.50658E-19
 -1      3142 8.95246E-05-2.19228E-05-2.90138E-05 6.71188E-06-6.64341E-19 7.38255E-19
 -1      3143 8.84393E-05-2.09625E-05-2.89288E-05 7.64096E-06-6.26474E-19 8.57358E-19
 -1      3144 9.15538E-05-2.36337E-05-2.91381E-05 5.40951E-06-5.63873E-19 4.60409E-20
 -1      3145 9.08797E-05-2.29049E-05-2.91359E-05 6.15745E-06-6.83553E-19 6.65049E-20
 -1      3146 8.85332E-05-2.13864E-05-2.87263E-05 5.36519E-06-6.34517E-19 6.06340E-20
 -1      3147 4.36665E-05-1.10967E-05-1.33906E-05 1.18381E-05 3.53954E-19 3.95882E-19
 -1      3148 3.22577E-05-9.71024E-06-9.00520E-06 4.12332E-06 4.74577E-19 4.34740E-19
 -1      3149 8.63991E-05-1.96924E-05-2.86468E-05 8.30521E-06-5.55819E-19 5.59358E-19
 -1      3150 8.48258E-05-1.85946E-05-2.83974E-05 9.40454E-06 4.42542E-21 4.87228E-19
 -1      3151 8.52532E-05-1.90733E-05-2.82870E-05 6.30884E-06-6.01425E-19 6.43302E-19
 -1      3152 9.29686E-05-2.50130E-05-2.91454E-05 4.24872E-06 2.24175E-19-2.70023E-19
 -1      3153 9.25258E-05-2.44329E-05-2.91825E-05 4.89220E-06-4.03139E-20 2.50850E-19
 -1      3154 9.08001E-05-2.32359E-05-2.89225E-05 4.46495E-06-3.63244E-19-6.17418E-19
 -1      3155 9.38759E-05-2.60282E-05-2.90928E-05 3.28984E-06 1.01849E-18 1.37634E-20
 -1      3156 9.36165E-05-2.56067E-05-2.91446E-05 3.80585E-06 6.04091E-19-4.85598E-19
 -1      3157 9.23732E-05-2.46851E-05-2.89870E-05 3.61491E-06 3.46474E-19-1.19287E-19
 -1      3158 9.44429E-05-2.67602E-05-2.90176E-05 2.51413E-06-1.72640E-19 1.13379E-18
 -1      3159 9.42994E-05-2.64587E-05-2.90709E-05 2.92070E-06 4.42644E-19 9.27155E-19
 -1      3160 9.34137E-05-2.57626E-05-2.89792E-05 2.86775E-06 7.51190E-20 9.25193E-19
 -1      3161 9.47894E-05-2.72824E-05-2.89391E-05 1.89744E-06 4.05552E-19 2.47594E-19
 -1      3162 9.47160E-05-2.70686E-05-2.89878E-05 2.21335E-06-5.68504E-19 3.55702E-19
 -1      3163 9.40911E-05-2.65490E-05-2.89379E-05 2.23442E-06 7.93642E-20 4.02654E-19
 -1      3164 9.49962E-05-2.76528E-05-2.88666E-05 1.41439E-06 9.17597E-19 9.40522E-19
 -1      3165 9.49633E-05-2.75018E-05-2.89083E-05 1.65703E-06 1.21592E-18 3.12795E-19
 -1      3166 9.45268E-05-2.71177E-05-2.88844E-05 1.71268E-06 3.69460E-19-1.61085E-18
 -1      3167 9.51119E-05-2.79051E-05-2.88065E-05 1.05667E-06 1.29513E-18 5.41729E-19
 -1      3168 9.51018E-05-2.78020E-05-2.88395E-05 1.23439E-06 1.76927E-18 9.29947E-19
 -1      3169 9.47985E-05-2.75190E-05-2.88312E-05 1.30113E-06 1.05844E-18-1.35359E-18
 -1      3170 9.51809E-05-2.80959E-05-2.87533E-05 7.65671E-07 2.78740E-19-3.46950E-19
 -1      3171 9.51813E-05-2.80183E-05-2.87814E-05 9.07321E-07 4.53870E-19 6.44077E-19
 -1      3172 9.49709E-05-2.78087E-05-2.87821E-05 9.74238E-07 1.04642E-18-3.01466E-19
 -1      3173 9.52182E-05-2.82322E-05-2.87101E-05 5.44983E-07 1.38500E-18-5.23739E-19
 -1      3174 9.52239E-05-2.81766E-05-2.87323E-05 6.51249E-07 1.11460E-18 2.39029E-20
 -1      3175 9.50819E-05-2.80243E-05-2.87381E-05 7.11434E-07 9.33082E-19-4.84774E-19
 -1      3176 9.52371E-05-2.83301E-05-2.86757E-05 3.79152E-07-9.23386E-19-1.44960E-18
 -1      3177 9.52443E-05-2.82900E-05-2.86929E-05 4.58151E-07 5.94378E-19-5.11101E-19
 -1      3178 9.51503E-05-2.81801E-05-2.87011E-05 5.09263E-07 1.33993E-18-6.86916E-19
 -1      3179 9.52455E-05-2.84006E-05-2.86487E-05 2.55894E-07-1.81320E-18-1.79303E-18
 -1      3180 9.52526E-05-2.83716E-05-2.86619E-05 3.14047E-07-1.80908E-18-2.12759E-18
 -1      3181 9.51917E-05-2.82929E-05-2.86708E-05 3.55731E-07-5.67272E-19-1.13301E-18
 -1      3182 9.52483E-05-2.84516E-05-2.86277E-05 1.65476E-07-8.62782E-19-3.13108E-18
 -1      3183 9.52544E-05-2.84305E-05-2.86377E-05 2.07719E-07-1.27040E-18-1.88544E-18
 -1      3184 9.52162E-05-2.83747E-05-2.86464E-05 2.40694E-07-1.47989E-18-1.92467E-18
 -1      3185 9.52483E-05-2.84872E-05-2.86123E-05 1.02904E-07-7.73717E-19-3.90530E-18
 -1      3186 9.52530E-05-2.84722E-05-2.86196E-05 1.32024E-07-1.15709E-18-3.75640E-18
 -1      3187 9.52300E-05-2.84330E-05-2.86274E-05 1.57414E-07-6.86277E-19-4.33278E-18
 -1      3188 9.52470E-05-2.85147E-05-2.85998E-05 5.58013E-08 7.87875E-19-2.45334E-18
 -1      3189 9.52507E-05-2.85030E-05-2.86056E-05 7.73469E-08 4.44263E-19-2.47668E-18
 -1      3190 9.52374E-05-2.84754E-05-2.86124E-05 9.68030E-08-4.61655E-19-3.20021E-18
 -1      3191 9.52453E-05-2.85352E-05-2.85903E-05 2.34546E-08 1.30357E-18-3.22635E-18
 -1      3192 9.52479E-05-2.85262E-05-2.85946E-05 3.80745E-08 9.36702E-19-2.36400E-18
 -1      3193 9.52411E-05-2.85075E-05-2.86002E-05 5.25026E-08 1.05029E-18-1.63551E-18
 -1      3194 9.52438E-05-2.85509E-05-2.85828E-05 2.72195E-09 1.79579E-18-3.92300E-18
 -1      3195 9.52456E-05-2.85439E-05-2.85861E-05 1.18911E-08 1.59717E-18-3.28315E-18
 -1      3196 9.52426E-05-2.85317E-05-2.85906E-05 2.20478E-08 1.15845E-18-3.27753E-18
 -1      3197 6.38503E-05-1.67839E-05-1.98576E-05-2.21051E-05 6.08328E-19-2.39562E-18
 -1      3198 6.40207E-05-1.32886E-05-2.15673E-05-1.75859E-05 3.76420E-19-2.08931E-18
 -1      3199 7.62690E-05-1.50389E-05-2.63309E-05 1.29288E-05-1.18130E-18-6.65080E-19
 -1      3200 7.37879E-05-1.46432E-05-2.52750E-05 1.46709E-05-1.00916E-18-1.40005E-18
 -1      3201 9.52316E-05-2.85333E-05-2.85850E-05-6.96825E-09 2.89395E-18 1.00073E-18
 -1      3202 9.52288E-05-2.85289E-05-2.85859E-05-7.53625E-09 2.83241E-18-1.28116E-19
 -1      3203 9.52252E-05-2.85225E-05-2.85868E-05-6.48849E-09 1.62670E-18 2.00676E-19
 -1      3204 9.52228E-05-2.85193E-05-2.85874E-05-5.58155E-09 1.18701E-18 2.38960E-18
 -1      3205 9.52229E-05-2.85128E-05-2.85899E-05-1.22363E-08 2.83245E-18 1.36478E-18
 -1      3206 9.48510E-05-2.54939E-05-2.97298E-05-2.01421E-06 8.77051E-19-2.63183E-19
 -1      3207 9.49996E-05-2.52815E-05-2.98708E-05-1.15069E-06 9.97356E-19-3.72388E-19
 -1      3208 9.44098E-05-2.49433E-05-2.97637E-05-2.03446E-06 9.27521E-19-5.88156E-19
 -1      3209 9.25438E-05-1.79707E-05-3.19783E-05-6.11110E-06-1.84180E-19-2.55607E-18
 -1      3210 9.32594E-05-1.90403E-05-3.18434E-05-6.61649E-06-4.90210E-19-2.54112E-18
 -1      3211 9.41892E-05-2.10315E-05-3.13418E-05-5.24691E-06-5.54317E-19-2.30221E-18
 -1      3212 9.31667E-05-1.92534E-05-3.16536E-05-4.79870E-06-1.11071E-19-2.39026E-18
 -1      3213 8.19482E-05-1.71786E-05-2.78384E-05 1.02144E-05-6.10744E-19-1.37968E-19
 -1      3214 7.98387E-05-1.61549E-05-2.72891E-05 1.15319E-05-1.39614E-18-2.61700E-19
 -1      3215 8.04533E-05-1.62708E-05-2.73973E-05 7.31337E-06-8.91101E-19-4.86925E-19
 -1      3216 9.52339E-05-2.85322E-05-2.85867E-05 1.00799E-08 6.73866E-19-1.88877E-18
 -1      3217 9.52371E-05-2.85366E-05-2.85858E-05 8.67199E-09 9.37678E-19-2.44150E-18
 -1      3218 9.52286E-05-2.85160E-05-2.85909E-05 1.58549E-08 1.07903E-18-1.83916E-18
 -1      3219 8.58399E-05-3.90488E-05-1.98982E-05 3.85274E-05 1.69629E-18-1.37855E-19
 -1      3220 6.97676E-05-2.88164E-05-1.71243E-05 3.66357E-05 1.52371E-18 1.35684E-19
 -1      3221 1.19197E-04-9.02883E-06-4.77242E-05-5.22665E-06-1.67162E-18 2.39657E-19
 -1      3222 1.22171E-04-1.37291E-05-4.67905E-05-1.01766E-05-1.12062E-18 5.07214E-19
 -1      3223 4.36433E-05-9.46814E-06-1.42152E-05-1.37272E-05 5.81726E-19 6.97849E-19
 -1      3224 4.84129E-05-1.38134E-05-1.45340E-05-2.46384E-05-1.30284E-19 3.56919E-19
 -1      3225 6.86139E-05-1.40358E-05-2.34261E-05 1.69752E-05-1.31168E-18-8.92270E-19
 -1      3226 6.69165E-05-1.57502E-05-2.15961E-05 1.97477E-05-1.50598E-18-8.11828E-19
 -1      3227 6.53352E-05-1.11801E-05-2.28708E-05 1.16521E-05-1.08910E-18-1.29473E-18
 -1      3228 9.52211E-05-2.85146E-05-2.85886E-05 7.20284E-09-1.46209E-18 4.70402E-19
 -1      3229 9.52233E-05-2.85169E-05-2.85884E-05 8.49302E-09-1.28452E-18-1.55283E-18
 -1      3230 9.52200E-05-2.85043E-05-2.85922E-05 1.32265E-08-6.86040E-19-1.90823E-18
 -1      3231 8.26304E-05-1.77192E-05-2.78420E-05-9.82797E-06 6.09807E-19-8.01288E-19
 -1      3232 8.45877E-05-1.89040E-05-2.82119E-05-8.89066E-06 8.10665E-19-4.90194E-19
 -1      3233 7.84721E-05-1.56131E-05-2.68094E-05-7.11391E-06 6.69639E-19 6.35821E-20
 -1      3234 3.74317E-05-7.87475E-06-1.21553E-05-2.67088E-06 6.99292E-19 8.26916E-20
 -1      3235 9.12824E-05-1.70608E-05-3.18265E-05 1.60210E-06 1.33160E-18-1.40886E-18
 -1      3236 9.11394E-05-1.68560E-05-3.18476E-05 1.00951E-06 1.19398E-18-1.65310E-18
 -1      3237 4.85956E-05-1.05489E-05-1.56318E-05-1.40529E-05 9.23200E-20-1.76013E-18
 -1      3238 5.74378E-05-1.68866E-05-1.70729E-05-2.30262E-05 1.51195E-19-2.25226E-18
 -1      3239 1.26636E-04-2.20277E-05-4.53903E-05-1.23709E-05-7.76941E-19 1.26446E-18
 -1      3240 1.31378E-04-3.14312E-05-4.31413E-05-1.17486E-05-8.00552E-19 1.88772E-18
 -1      3241 4.43954E-05-7.96547E-06-1.49795E-05 6.78956E-06 5.87351E-19-1.92996E-18
 -1      3242 4.45692E-05-8.59763E-06-1.50677E-05-4.89139E-06 3.65103E-19-1.38352E-18
 -1      3243 5.23389E-05-9.48422E-06-1.80804E-05-5.97862E-06 4.72069E-19-1.40586E-18
 -1      3244 1.30051E-04-5.63922E-05-3.14673E-05-1.44957E-05 2.92238E-18 2.63533E-19
 -1      3245 1.32376E-04-5.23693E-05-3.45349E-05-4.18381E-06 2.57616E-18 5.95835E-20
 -1      3246 9.56296E-05-2.52984E-05-3.01201E-05-9.86953E-07-2.62060E-19-1.77634E-18
 -1      3247 9.57207E-05-2.60245E-05-2.98825E-05-8.85523E-08-2.43015E-19-1.75158E-18
 -1      3248 9.57215E-05-2.58454E-05-2.99501E-05 2.09985E-07-1.40560E-19-1.60735E-18
 -1      3249 5.80887E-05-2.02785E-05-1.57286E-05-3.14766E-05-3.78703E-19 5.36701E-19
 -1      3250 7.19956E-05-2.92530E-05-1.82443E-05-3.65048E-05 7.54918E-20 5.06049E-19
 -1      3251 6.00917E-05-1.74432E-05-1.78622E-05-2.52598E-05-7.44595E-20 7.36283E-19
 -1      3252 1.16145E-04-5.40650E-05-2.63226E-05-2.83579E-05 1.91903E-18-7.80045E-19
 -1      3253 1.24445E-04-5.66082E-05-2.92691E-05-2.18188E-05 2.62210E-18-3.17306E-20
 -1      3254 1.24550E-04-5.44772E-05-3.00327E-05-1.55136E-05 2.03179E-18 2.51013E-19
 -1      3255 5.47872E-05-1.24526E-05-1.77043E-05 1.75217E-05-1.55642E-19 2.92756E-20
 -1      3256 4.95334E-05-8.85775E-06-1.70637E-05 8.08567E-06 4.14517E-20 2.01911E-19
 -1      3257 1.25034E-04-2.83065E-05-4.18128E-05 1.27784E-05 4.36593E-19-8.76388E-19
 -1      3258 1.18654E-04-2.34483E-05-4.09916E-05 1.27067E-05 9.03678E-20-1.53284E-18
 -1      3259 1.24215E-04-3.39443E-05-3.87847E-05 1.12513E-05 1.36558E-18-3.18048E-19
 -1      3260 8.34108E-05-3.47457E-05-2.05466E-05-3.52212E-05-2.91168E-21 4.89956E-20
 -1      3261 9.28683E-05-3.90820E-05-2.31819E-05-3.14847E-05 1.53088E-19-9.30969E-19
 -1      3262 7.86930E-05-2.89625E-05-2.11221E-05-3.09864E-05-4.86012E-19-2.29308E-19
 -1      3263 1.15128E-04-1.01913E-05-4.53014E-05-2.89063E-06-1.77189E-18 5.72383E-19
 -1      3264 8.39406E-05-1.85177E-05-2.79554E-05-6.61853E-06 8.17449E-19-1.94737E-19
 -1      3265 1.16337E-04-1.30348E-05-4.45876E-05 7.51382E-06-1.51825E-18 3.01504E-19
 -1      3266 4.27823E-05-7.57127E-06-1.48005E-05-1.24538E-06 3.49838E-19 3.40719E-19
 -1      3267 4.22933E-05-8.17938E-06-1.41341E-05-7.55511E-06 1.40674E-19 8.77103E-19
 -1      3268 9.05394E-05-2.28234E-05-2.89857E-05-5.23302E-06 5.72981E-19-8.56173E-20
 -1      3269 9.20405E-05-2.39219E-05-2.91987E-05-5.90271E-06 6.37734E-19-3.69209E-19
 -1      3270 9.26392E-05-2.44538E-05-2.92395E-05-5.21810E-06 7.87568E-19-2.89150E-19
 -1      3271 7.48154E-05-2.75258E-05-2.00847E-05 3.08353E-05 1.46442E-18-2.85874E-19
 -1      3272 6.50046E-05-2.36589E-05-1.73374E-05 3.21874E-05 1.63663E-18-3.72112E-19
 -1      3273 6.07889E-05-1.82872E-05-1.80998E-05 2.54657E-05 1.55543E-18-4.34051E-19
 -1      3274 9.11028E-05-1.68058E-05-3.18570E-05 5.47058E-07 1.11325E-18-1.76242E-18
 -1      3275 9.11463E-05-1.68493E-05-3.18532E-05-7.46668E-08 1.00039E-18-1.93335E-18
 -1      3276 9.19010E-05-1.82059E-05-3.15630E-05 7.15567E-07 1.00541E-18-1.66618E-18
 -1      3277 1.02320E-04-4.70641E-05-2.35975E-05 3.29746E-05 1.37725E-18-3.38151E-19
 -1      3278 9.45538E-05-4.34140E-05-2.15192E-05 3.67999E-05 1.59761E-18-7.66300E-19
 -1      3279 8.75779E-05-3.73801E-05-2.14002E-05 3.44719E-05 1.46055E-18-9.66729E-19
 -1      3280 9.17901E-05-1.77212E-05-3.17572E-05-1.70834E-06 6.42797E-19-2.12134E-18
 -1      3281 9.21518E-05-1.82258E-05-3.16986E-05-2.33518E-06 4.43996E-19-2.24048E-18
 -1      3282 9.41557E-05-2.13389E-05-3.12167E-05-4.15523E-06-2.55513E-19-2.24411E-18
 -1      3283 9.46979E-05-2.22944E-05-3.10355E-05-4.26281E-06-3.87957E-19-2.12895E-18
 -1      3284 9.50154E-05-2.32699E-05-3.07301E-05-3.20456E-06-2.50817E-19-2.07987E-18
 -1      3285 9.34191E-05-2.49592E-05-2.93428E-05-4.69741E-06 8.31411E-19-3.85549E-19
 -1      3286 9.38075E-05-2.52510E-05-2.93893E-05-4.01999E-06 7.90036E-19-4.02772E-19
 -1      3287 9.36453E-05-2.48141E-05-2.94860E-05-3.28948E-06 9.00303E-19-7.59712E-19
 -1      3288 9.24004E-05-2.41024E-05-2.92484E-05-4.33784E-06 6.89344E-19-1.42892E-19
 -1      3289 9.52385E-05-2.85320E-05-2.85883E-05 1.36292E-08 1.74024E-18-3.22645E-18
 -1      3290 9.52417E-05-2.85455E-05-2.85841E-05 5.67115E-09 1.35461E-18-3.87636E-18
 -1      3291 6.07503E-05-1.08763E-05-2.11715E-05-1.14396E-05 5.78748E-19-1.24771E-18
 -1      3292 9.52435E-05-2.85582E-05-2.85793E-05-4.38781E-09 2.03222E-18-3.34294E-18
 -1      3293 1.37012E-04-5.44073E-05-3.55455E-05 6.34709E-06-1.56264E-19 1.70248E-18
 -1      3294 1.31917E-04-5.58698E-05-3.25881E-05 1.10951E-05-9.23134E-21 1.75479E-18
 -1      3295 1.34631E-04-5.05979E-05-3.61925E-05 3.69506E-08 1.29702E-21 1.63361E-18
 -1      3296 1.32007E-04-4.90802E-05-3.56518E-05 1.26089E-06 2.18225E-18-1.54531E-19
 -1      3297 1.28417E-04-4.37202E-05-3.64134E-05 6.19585E-06 1.79989E-18 1.32931E-19
 -1      3298 1.27967E-04-5.08915E-05-3.31431E-05-3.57772E-06 2.02569E-18 4.99829E-19
 -1      3299 9.47252E-05-2.44043E-05-3.01325E-05-4.84964E-07 1.12552E-18-4.32952E-19
 -1      3300 9.50631E-05-2.48965E-05-3.00787E-05-2.69228E-07 1.11221E-18-2.68212E-19
 -1      3301 4.98765E-05-9.83739E-06-1.67625E-05-1.19235E-05 1.69254E-19-3.17637E-21
 -1      3302 9.52163E-05-2.85023E-05-2.85915E-05-7.65297E-09 2.04639E-18 1.80519E-18
 -1      3303 9.52204E-05-2.85152E-05-2.85880E-05-2.96651E-09 1.55734E-18 3.64391E-18
 -1      3304 9.52193E-05-2.85136E-05-2.85883E-05-1.18539E-09 1.97556E-18 1.76814E-18
 -1      3305 5.04746E-05-1.10062E-05-1.65920E-05 1.29719E-05 1.25088E-18-1.14191E-18
 -1      3306 1.21827E-04-5.71972E-05-2.75836E-05 2.64810E-05 7.70218E-19 8.15507E-19
 -1      3307 1.16200E-04-5.42286E-05-2.64769E-05 2.77253E-05 9.24298E-19 6.44509E-19
 -1      3308 1.25964E-04-5.69744E-05-2.97087E-05 1.94270E-05 4.92933E-19 9.39651E-19
 -1      3309 1.20674E-04-1.95552E-05-4.36601E-05-1.11115E-05-5.70265E-19 9.51562E-19
 -1      3310 1.32368E-04-3.68131E-05-4.13093E-05-1.01445E-05-6.72015E-19 2.08248E-18
 -1      3311 1.31789E-04-4.13259E-05-3.89655E-05-7.69852E-06-5.10443E-19 1.88970E-18
 -1      3312 1.26037E-04-3.17954E-05-4.05354E-05-1.24330E-05-6.11770E-19 2.23394E-18
 -1      3313 9.25817E-05-1.88507E-05-3.16108E-05-2.80490E-06 3.04348E-19-2.16751E-18
 -1      3314 9.30819E-05-1.95912E-05-3.15123E-05-3.36872E-06 1.19458E-19-2.20935E-18
 -1      3315 9.31572E-05-1.99734E-05-3.13462E-05-1.93383E-06 2.49941E-19-2.09082E-18
 -1      3316 9.52428E-05-2.85499E-05-2.85827E-05 2.50635E-09 1.66708E-18-4.26372E-18
 -1      3317 7.41865E-05-1.35412E-05-2.58038E-05 9.00228E-06-1.56131E-18-1.47808E-18
 -1      3318 9.52189E-05-2.85124E-05-2.85886E-05 2.17132E-09 9.98862E-19 5.36145E-19
 -1      3319 9.52195E-05-2.85127E-05-2.85887E-05 4.10253E-09-7.89520E-19 1.33238E-18
 -1      3320 9.52144E-05-2.84975E-05-2.85927E-05 7.13444E-09-4.37324E-19 1.06446E-18
 -1      3321 9.52131E-05-2.84968E-05-2.85924E-05-5.28853E-10 2.36988E-18 2.06599E-18
 -1      3322 1.10233E-04-4.98283E-05-2.57088E-05-2.79190E-05 1.26782E-18-8.06164E-19
 -1      3323 5.24985E-05-8.87844E-06-1.86237E-05 4.20597E-06-2.19143E-19 4.94455E-20
 -1      3324 9.42394E-05-2.18838E-05-3.09784E-05 2.59090E-06 1.53728E-18-2.24401E-19
 -1      3325 9.31149E-05-1.97765E-05-3.14448E-05 3.33307E-06 1.65336E-18-3.27362E-19
 -1      3326 9.51307E-05-2.45989E-05-3.02080E-05 4.75526E-07 1.14254E-18-2.16949E-19
 -1      3327 9.15065E-05-1.73702E-05-3.17862E-05 2.00985E-06 1.40671E-18-1.30096E-18
 -1      3328 9.21392E-05-1.85396E-05-3.15134E-05 1.49696E-06 1.27682E-18-1.23123E-18
 -1      3329 9.18477E-05-1.78680E-05-3.17362E-05 2.56333E-06 1.50583E-18-1.00619E-18
 -1      3330 9.52348E-05-2.85375E-05-2.85846E-05-8.30678E-09 1.53925E-18 1.15375E-19
 -1      3331 9.52334E-05-2.85360E-05-2.85847E-05-7.68254E-09 2.44756E-18 6.83314E-19
 -1      3332 9.52290E-05-2.85219E-05-2.85886E-05-1.44850E-08 3.47503E-18-1.98540E-19
 -1      3333 9.52334E-05-2.85279E-05-2.85878E-05-1.62154E-08 1.93794E-18-1.64413E-18
 -1      3334 9.52107E-05-2.41096E-05-3.04830E-05-2.29858E-06-2.03901E-19-1.98188E-18
 -1      3335 9.25898E-05-1.90136E-05-3.15426E-05 2.89531E-06 1.53274E-18-5.54186E-19
 -1      3336 9.51158E-05-2.38806E-05-3.05327E-05-1.81665E-06-2.33214E-19-1.94099E-18
 -1      3337 9.59145E-05-2.64687E-05-2.97520E-05 1.20877E-06-1.13580E-19-1.34511E-18
 -1      3338 9.60753E-05-2.70652E-05-2.95800E-05 1.75997E-06-2.58659E-19-1.36027E-18
 -1      3339 9.36884E-05-2.05488E-05-3.13536E-05-3.88327E-06-9.36646E-20-2.21096E-18
 -1      3340 9.62732E-05-2.76207E-05-2.94122E-05 2.22675E-06-3.42719E-19-1.32710E-18
 -1      3341 9.64655E-05-2.81386E-05-2.92838E-05 2.60477E-06-3.96186E-19-1.23957E-18
 -1      3342 9.60413E-05-2.70187E-05-2.95870E-05 2.01424E-06-2.33287E-19-1.13521E-18
 -1      3343 9.67067E-05-2.86558E-05-2.91529E-05 2.95213E-06-4.42173E-19-1.16921E-18
 -1      3344 9.69909E-05-2.91840E-05-2.90590E-05 3.17245E-06-1.79109E-19-1.11302E-18
 -1      3345 9.64684E-05-2.81772E-05-2.92781E-05 2.87884E-06-2.78797E-19-9.70586E-19
 -1      3346 9.73591E-05-2.97506E-05-2.89603E-05 3.40108E-06-1.92509E-19-1.20642E-18
 -1      3347 9.77860E-05-3.03571E-05-2.88968E-05 3.45865E-06-2.35337E-19-1.32410E-18
 -1      3348 9.70637E-05-2.93463E-05-2.90373E-05 3.52195E-06-3.34682E-19-8.64534E-19
 -1      3349 9.83603E-05-3.10405E-05-2.88316E-05 3.54291E-06 4.20259E-20-1.44622E-18
 -1      3350 9.89655E-05-3.17656E-05-2.88010E-05 3.40706E-06 1.65904E-19-1.15514E-18
 -1      3351 9.79897E-05-3.06959E-05-2.88617E-05 3.92497E-06-1.31373E-19-1.28590E-18
 -1      3352 9.98118E-05-3.25989E-05-2.87792E-05 3.28457E-06 8.52298E-20-1.09384E-18
 -1      3353 1.00600E-04-3.34320E-05-2.87928E-05 2.89998E-06 2.04467E-20-8.56649E-19
 -1      3354 9.93943E-05-3.23447E-05-2.87633E-05 4.00500E-06 2.18104E-19-1.25602E-18
 -1      3355 1.01743E-04-3.43833E-05-2.88360E-05 2.47105E-06-2.05644E-19-6.72568E-19
 -1      3356 1.02662E-04-3.52309E-05-2.89139E-05 1.77180E-06-2.37289E-19-8.14756E-19
 -1      3357 1.01376E-04-3.43085E-05-2.87753E-05 3.59736E-06 3.53330E-21-1.25917E-18
 -1      3358 1.04042E-04-3.61635E-05-2.90556E-05 9.16155E-07-3.25838E-19-9.37101E-19
 -1      3359 1.04949E-04-3.68116E-05-2.92261E-05-1.39850E-07-2.06816E-19-1.13197E-18
 -1      3360 1.03913E-04-3.64217E-05-2.89564E-05 2.46737E-06-3.46133E-19-1.39692E-18
 -1      3361 1.06363E-04-3.74397E-05-2.95100E-05-1.50600E-06-1.51607E-19-1.35369E-18
 -1      3362 1.07011E-04-3.75367E-05-2.98032E-05-2.86680E-06-3.06738E-19-1.24311E-18
 -1      3363 1.06757E-04-3.82259E-05-2.93901E-05 3.68730E-07-4.06423E-19-1.39052E-18
 -1      3364 1.08065E-04-3.74226E-05-3.02711E-05-4.65556E-06-2.54481E-19-9.78110E-19
 -1      3365 1.08155E-04-3.65576E-05-3.07026E-05-6.07130E-06-2.55687E-19-6.75243E-19
 -1      3366 1.09314E-04-3.88947E-05-3.01741E-05-2.77256E-06-3.51650E-20-9.23486E-19
 -1      3367 1.08356E-04-3.52592E-05-3.13632E-05-7.84679E-06-3.19623E-19-8.84526E-19
 -1      3368 1.07689E-04-3.32002E-05-3.19101E-05-8.80458E-06-1.68273E-19-7.10580E-19
 -1      3369 1.10670E-04-3.73836E-05-3.13735E-05-6.50686E-06-3.27511E-19-7.02389E-19
 -1      3370 1.06727E-04-3.06189E-05-3.26990E-05-9.69983E-06-1.99425E-19-6.69552E-19
 -1      3371 1.05466E-04-2.77228E-05-3.32700E-05-9.52531E-06-9.41398E-20-4.85832E-19
 -1      3372 1.09953E-04-3.29567E-05-3.29416E-05-9.55103E-06-5.54558E-20-8.07335E-19
 -1      3373 1.03723E-04-2.46026E-05-3.40142E-05-8.65197E-06-1.05972E-19-5.73761E-19
 -1      3374 1.02461E-04-2.19030E-05-3.44609E-05-6.99725E-06-3.25214E-19-7.64701E-19
 -1      3375 1.07197E-04-2.63584E-05-3.46057E-05-9.92189E-06-2.40825E-19-5.33611E-19
 -1      3376 1.01024E-04-1.98088E-05-3.49022E-05-3.97167E-06-1.75362E-20-7.90070E-19
 -1      3377 1.00642E-04-1.88290E-05-3.50568E-05-1.30809E-06-2.51814E-19-8.33911E-19
 -1      3378 1.03804E-04-1.97711E-05-3.59740E-05-6.31174E-06-2.40451E-19-6.04834E-19
 -1      3379 1.00642E-04-1.89357E-05-3.50272E-05 2.42818E-06-7.28554E-19-7.70572E-19
 -1      3380 1.01325E-04-2.01762E-05-3.48357E-05 5.07545E-06-1.03333E-18-6.96872E-19
 -1      3381 1.02573E-04-1.76405E-05-3.63969E-05 4.86553E-07-2.93940E-19-8.59810E-19
 -1      3382 1.02711E-04-2.24625E-05-3.43470E-05 7.74976E-06-1.30456E-18-6.95487E-19
 -1      3383 1.03980E-04-2.51897E-05-3.38850E-05 9.25248E-06-7.89190E-19-5.72361E-19
 -1      3384 1.04268E-04-2.07237E-05-3.57913E-05 7.12992E-06-9.26264E-19-7.35637E-19
 -1      3385 1.05676E-04-2.82371E-05-3.31329E-05 9.93794E-06-2.15179E-19-8.17913E-19
 -1      3386 1.06836E-04-3.10559E-05-3.25603E-05 1.00073E-05 4.16509E-19-9.86098E-19
 -1      3387 1.07393E-04-2.69710E-05-3.44073E-05 1.05109E-05-5.65174E-19-2.87346E-19
 -1      3388 1.07645E-04-3.34588E-05-3.17821E-05 8.94000E-06 8.64523E-19-1.02160E-18
 -1      3389 1.08166E-04-3.53157E-05-3.12530E-05 7.96334E-06 7.69574E-19-5.47608E-19
 -1      3390 1.09904E-04-3.33650E-05-3.27360E-05 9.76764E-06 5.89398E-19-7.09450E-19
 -1      3391 1.07806E-04-3.64292E-05-3.06133E-05 6.19320E-06 1.97344E-19-6.26330E-19
 -1      3392 1.07604E-04-3.71211E-05-3.02005E-05 4.81488E-06 1.47759E-19-3.44539E-19
 -1      3393 1.10253E-04-3.72764E-05-3.12400E-05 6.59160E-06 5.78435E-19-9.81225E-19
 -1      3394 1.06422E-04-3.70765E-05-2.97517E-05 3.11905E-06 2.04015E-19 8.20150E-20
 -1      3395 1.05700E-04-3.68657E-05-2.94714E-05 1.84939E-06 7.99531E-19 2.43819E-19
 -1      3396 1.08605E-04-3.84326E-05-3.00796E-05 2.91076E-06 3.79535E-19-2.36359E-19
 -1      3397 1.04221E-04-3.61560E-05-2.91959E-05 6.05244E-07 5.11157E-19 8.98699E-20
 -1      3398 1.03272E-04-3.54562E-05-2.90295E-05-3.49613E-07 4.52163E-19 4.76338E-19
 -1      3399 1.05863E-04-3.74923E-05-2.93236E-05-9.61614E-09 7.87022E-19 4.14771E-19
 -1      3400 1.01855E-04-3.44969E-05-2.88828E-05-1.09483E-06 2.05861E-19 3.51536E-19
 -1      3401 1.00913E-04-3.36472E-05-2.87975E-05-1.70405E-06 3.21977E-19-2.99286E-19
 -1      3402 1.02925E-04-3.55811E-05-2.88925E-05-1.87786E-06 3.02078E-19 2.89159E-19
 -1      3403 9.97444E-05-3.27143E-05-2.87336E-05-2.04973E-06 5.58076E-20-7.10847E-19
 -1      3404 9.89394E-05-3.19219E-05-2.86983E-05-2.37223E-06-3.35353E-20-4.87387E-19
 -1      3405 1.00332E-04-3.34738E-05-2.86836E-05-2.82358E-06-4.42542E-20-5.42110E-19
 -1      3406 9.80691E-05-3.11483E-05-2.86811E-05-2.45027E-06 4.20417E-19-4.15389E-19
 -1      3407 9.74468E-05-3.05069E-05-2.86724E-05-2.56718E-06-1.63431E-19-2.75670E-19
 -1      3408 9.83051E-05-3.16106E-05-2.86083E-05-3.11824E-06 1.44440E-20-8.81059E-19
 -1      3409 9.68500E-05-2.99310E-05-2.86774E-05-2.48838E-06-4.25686E-19-2.08949E-19
 -1      3410 9.64049E-05-2.94622E-05-2.86797E-05-2.47303E-06 3.45814E-19 4.80393E-20
 -1      3411 9.68568E-05-3.01605E-05-2.86028E-05-3.01781E-06 6.42227E-20-3.69373E-19
 -1      3412 9.60275E-05-2.90715E-05-2.86920E-05-2.31570E-06-1.07770E-19-5.25094E-20
 -1      3413 9.57301E-05-2.87586E-05-2.86965E-05-2.22429E-06-1.83247E-19 6.11760E-20
 -1      3414 9.59013E-05-2.91368E-05-2.86263E-05-2.71153E-06-1.32395E-19-3.38767E-19
 -1      3415 9.55134E-05-2.85189E-05-2.87083E-05-2.03813E-06-6.92726E-19-3.73317E-19
 -1      3416 9.53279E-05-2.83304E-05-2.87107E-05-1.90986E-06-9.90705E-19-5.24159E-19
 -1      3417 9.53226E-05-2.84792E-05-2.86556E-05-2.32212E-06-8.39365E-19-4.56489E-19
 -1      3418 9.52206E-05-2.82029E-05-2.87186E-05-1.72377E-06-3.40917E-19 2.97811E-20
 -1      3419 9.51138E-05-2.81051E-05-2.87175E-05-1.58410E-06 4.30983E-19 7.58831E-19
 -1      3420 9.50102E-05-2.81033E-05-2.86794E-05-1.92181E-06-3.45635E-19 3.39432E-19
 -1      3421 9.50759E-05-2.80544E-05-2.87206E-05-1.41324E-06 3.28948E-19 2.04390E-19
 -1      3422 9.50211E-05-2.80179E-05-2.87162E-05-1.27755E-06-7.14079E-19-1.42358E-19
 -1      3423 9.48730E-05-2.79274E-05-2.86937E-05-1.54899E-06-1.63996E-19-4.53992E-19
 -1      3424 9.50234E-05-2.80158E-05-2.87152E-05-1.12863E-06-8.89279E-19 1.00316E-18
 -1      3425 9.50006E-05-2.80174E-05-2.87082E-05-1.00540E-06-7.32614E-19 1.31807E-18
 -1      3426 9.48425E-05-2.78827E-05-2.86984E-05-1.22105E-06 7.83637E-20-6.12172E-19
 -1      3427 9.50235E-05-2.80429E-05-2.87040E-05-8.80184E-07-1.56698E-18 1.92432E-18
 -1      3428 9.50190E-05-2.80658E-05-2.86955E-05-7.73283E-07-1.56629E-18 1.48165E-18
 -1      3429 9.48709E-05-2.79168E-05-2.86950E-05-9.43379E-07-1.08063E-18 1.07221E-18
 -1      3430 9.50500E-05-2.81045E-05-2.86893E-05-6.70833E-07-1.80233E-18 1.15102E-18
 -1      3431 9.50547E-05-2.81371E-05-2.86802E-05-5.81256E-07-1.62803E-18 1.61229E-19
 -1      3432 9.49265E-05-2.79924E-05-2.86861E-05-7.14703E-07-1.92107E-18 1.73598E-18
 -1      3433 9.50864E-05-2.81797E-05-2.86730E-05-4.99283E-07-2.00609E-19-1.96592E-19
 -1      3434 9.50948E-05-2.82148E-05-2.86640E-05-4.26310E-07 8.13449E-19 2.69323E-19
 -1      3435 9.49901E-05-2.80844E-05-2.86736E-05-5.30490E-07-1.04151E-18 9.71491E-19
 -1      3436 9.51233E-05-2.82557E-05-2.86566E-05-3.61999E-07 7.73145E-19-2.34929E-19
 -1      3437 9.51324E-05-2.82890E-05-2.86481E-05-3.03995E-07 4.70461E-19 2.52339E-19
 -1      3438 9.50507E-05-2.81776E-05-2.86596E-05-3.84881E-07 5.37088E-19 4.33179E-19
 -1      3439 9.51561E-05-2.83254E-05-2.86409E-05-2.54467E-07 1.62278E-19 4.84194E-20
 -1      3440 9.51641E-05-2.83547E-05-2.86334E-05-2.09402E-07-4.43030E-19 6.81324E-19
 -1      3441 9.51030E-05-2.82633E-05-2.86453E-05-2.71784E-07 1.74450E-19-3.63401E-19
 -1      3442 9.51826E-05-2.83855E-05-2.86267E-05-1.71965E-07-9.47266E-19 1.73452E-19
 -1      3443 9.51891E-05-2.84102E-05-2.86202E-05-1.37744E-07-8.11887E-19-8.12514E-19
 -1      3444 9.51452E-05-2.83374E-05-2.86316E-05-1.85443E-07-5.27960E-19-2.55616E-18
 -1      3445 9.52028E-05-2.84352E-05-2.86142E-05-1.10005E-07-4.01395E-19-1.14442E-18
 -1      3446 9.52076E-05-2.84553E-05-2.86086E-05-8.46745E-08 4.15656E-19-1.83470E-18
 -1      3447 9.51773E-05-2.83989E-05-2.86191E-05-1.20712E-07-6.09099E-19-1.27520E-18
 -1      3448 9.52173E-05-2.84753E-05-2.86034E-05-6.46357E-08 4.72120E-19-2.01759E-18
 -1      3449 9.52208E-05-2.84912E-05-2.85986E-05-4.67464E-08 6.47845E-19-1.51947E-18
 -1      3450 9.52006E-05-2.84483E-05-2.86079E-05-7.32258E-08 4.73929E-19-6.40522E-19
 -1      3451 7.31508E-05-1.34047E-05-2.56937E-05 4.09971E-06-1.47759E-18-4.74130E-19
 -1      3452 6.91809E-05-1.20032E-05-2.46052E-05 5.02552E-06-1.17620E-18-8.18803E-19
 -1      3453 6.71256E-05-1.18382E-05-2.36992E-05-2.05607E-06 8.06475E-19-3.09776E-19
 -1      3454 7.14257E-05-1.33249E-05-2.49659E-05-2.43607E-06 6.86798E-19-7.57152E-20
 -1      3455 1.13401E-04-1.56903E-05-4.20457E-05 9.25676E-06-7.89170E-19-9.73770E-19
 -1      3456 1.11552E-04-1.18006E-05-4.30362E-05 4.62133E-06-1.59729E-18-3.76019E-19
 -1      3457 9.14943E-05-1.73105E-05-3.18061E-05-1.20656E-06 8.36701E-19-2.03106E-18
 -1      3458 9.24542E-05-1.89432E-05-3.14856E-05-1.06269E-06 6.57516E-19-1.95680E-18
 -1      3459 9.12853E-05-1.70379E-05-3.18348E-05-5.70145E-07 9.83618E-19-1.92044E-18
 -1      3460 9.30862E-05-2.00164E-05-3.12806E-05 2.11676E-06 1.36025E-18-6.31290E-19
 -1      3461 9.03321E-05-2.32612E-05-2.87650E-05 3.26956E-06-2.08717E-19-1.12479E-18
 -1      3462 8.93480E-05-2.24404E-05-2.86942E-05 3.62430E-06-6.00638E-19-1.15770E-18
 -1      3463 8.80435E-05-2.15076E-05-2.85436E-05 3.69666E-06-3.63492E-19-4.23793E-19
 -1      3464 8.66851E-05-2.05189E-05-2.83894E-05 4.01745E-06-1.57736E-19 7.35914E-20
 -1      3465 8.79463E-05-2.15699E-05-2.84014E-05 2.41788E-06-2.31333E-19-4.73756E-19
 -1      3466 5.79350E-05-9.28274E-06-2.07124E-05-2.72134E-06 8.53558E-19-9.25648E-19
 -1      3467 9.30606E-05-2.56962E-05-2.88818E-05 2.27782E-06-2.05716E-19 1.44440E-19
 -1      3468 9.26331E-05-2.52348E-05-2.88908E-05 2.58609E-06-4.12955E-20-2.38018E-19
 -1      3469 9.38041E-05-2.64711E-05-2.88655E-05 1.82252E-06 1.10782E-18-1.26706E-18
 -1      3470 9.35280E-05-2.61319E-05-2.88864E-05 2.08744E-06 5.67017E-19-7.29170E-19
 -1      3471 9.28716E-05-2.56174E-05-2.88092E-05 1.83400E-06 9.88680E-19-1.79380E-18
 -1      3472 9.43013E-05-2.70408E-05-2.88321E-05 1.42622E-06 1.68445E-19-2.63031E-18
 -1      3473 9.41248E-05-2.67931E-05-2.88569E-05 1.64605E-06 9.41254E-19-2.07268E-18
 -1      3474 9.36392E-05-2.63894E-05-2.88120E-05 1.51246E-06 1.30561E-18-2.84590E-18
 -1      3475 9.46183E-05-2.74406E-05-2.87950E-05 1.10847E-06 6.33832E-19-1.85020E-18
 -1      3476 9.45111E-05-2.72669E-05-2.88184E-05 1.27977E-06-3.34641E-20-3.07101E-18
 -1      3477 9.41552E-05-2.69541E-05-2.87944E-05 1.21643E-06-1.14325E-19-3.36586E-18
 -1      3478 9.48409E-05-2.77510E-05-2.87562E-05 8.33752E-07 5.78590E-20-6.69760E-19
 -1      3479 9.47693E-05-2.76169E-05-2.87786E-05 9.77267E-07 3.05334E-19-1.49083E-18
 -1      3480 9.45099E-05-2.73761E-05-2.87676E-05 9.54658E-07-1.97011E-19-1.75677E-18
 -1      3481 9.49875E-05-2.79781E-05-2.87208E-05 6.14504E-07 1.11665E-18-7.45573E-20
 -1      3482 9.49433E-05-2.78803E-05-2.87402E-05 7.26788E-07 1.08248E-18-6.24513E-19
 -1      3483 9.47586E-05-2.76981E-05-2.87376E-05 7.27112E-07 5.39548E-19-7.19092E-19
 -1      3484 9.50834E-05-2.81446E-05-2.86899E-05 4.42715E-07 1.26303E-18 4.26148E-19
 -1      3485 9.50564E-05-2.80730E-05-2.87062E-05 5.29222E-07 1.20425E-18-6.69408E-20
 -1      3486 9.49271E-05-2.79367E-05-2.87085E-05 5.40834E-07 1.06537E-18-6.63373E-19
 -1      3487 9.51457E-05-2.82665E-05-2.86638E-05 3.10448E-07-1.30517E-18-1.92010E-19
 -1      3488 9.51295E-05-2.82140E-05-2.86771E-05 3.76137E-07 5.63225E-19-3.87991E-19
 -1      3489 9.50404E-05-2.81131E-05-2.86821E-05 3.92219E-07 9.83723E-19 1.04997E-18
 -1      3490 9.51855E-05-2.83556E-05-2.86423E-05 2.10384E-07-5.39489E-19-1.88538E-18
 -1      3491 9.51761E-05-2.83173E-05-2.86530E-05 2.59470E-07-1.37257E-18-1.19914E-18
 -1      3492 9.51160E-05-2.82434E-05-2.86591E-05 2.76275E-07-8.16764E-19-3.96467E-19
 -1      3493 9.52095E-05-2.84181E-05-2.86255E-05 1.39147E-07-4.71769E-19-2.42461E-18
 -1      3494 9.52046E-05-2.83911E-05-2.86337E-05 1.73913E-07-3.32022E-19-2.09427E-18
 -1      3495 9.51648E-05-2.83375E-05-2.86399E-05 1.89442E-07-1.31880E-19-9.03951E-19
 -1      3496 9.52250E-05-2.84667E-05-2.86112E-05 8.39806E-08 7.90465E-20-2.49325E-18
 -1      3497 9.52223E-05-2.84457E-05-2.86180E-05 1.10439E-07-7.96895E-19-2.67615E-18
 -1      3498 9.51965E-05-2.84068E-05-2.86239E-05 1.24172E-07-5.94140E-19-1.64094E-18
 -1      3499 9.52341E-05-2.85022E-05-2.85996E-05 4.50572E-08-1.52750E-19-8.60132E-19
 -1      3500 9.52328E-05-2.84868E-05-2.86050E-05 6.33838E-08 1.03845E-19-1.50425E-18
 -1      3501 9.52169E-05-2.84593E-05-2.86103E-05 7.49547E-08-2.33490E-19-1.29014E-18
 -1      3502 9.52371E-05-2.85237E-05-2.85915E-05 2.15748E-08 1.47242E-18-1.87620E-18
 -1      3503 9.52364E-05-2.85116E-05-2.85960E-05 3.40535E-08 1.12771E-18-1.50653E-18
 -1      3504 9.52266E-05-2.84928E-05-2.86005E-05 4.30299E-08-3.12311E-21-5.68707E-19
 -1      3505 9.52313E-05-2.85142E-05-2.85933E-05 2.36315E-08 1.91127E-18-2.55591E-18
 -1      3506 9.45292E-05-2.24219E-05-3.08959E-05-2.43071E-06-4.74738E-20-2.00536E-18
 -1      3507 9.49974E-05-2.38294E-05-3.05163E-05-1.11464E-06 1.49273E-20-1.77962E-18
 -1      3508 1.11006E-04-1.05873E-05-4.33228E-05 3.82362E-07-2.26364E-18-1.93312E-21
 -1      3509 1.11879E-04-1.18633E-05-4.30067E-05-5.39981E-06-1.58792E-18-1.14535E-19
 -1      3510 1.08589E-04-1.33899E-05-4.09617E-05 2.35840E-06-1.49570E-18-1.51951E-18
 -1      3511 9.52100E-05-2.84848E-05-2.85968E-05 1.72167E-08-8.16746E-19-1.89754E-18
 -1      3512 9.52144E-05-2.84897E-05-2.85963E-05 2.01525E-08-8.41023E-19-2.77054E-18
 -1      3513 9.44254E-05-2.41439E-05-3.01311E-05-6.88256E-07 1.06780E-18-4.22331E-19
 -1      3514 9.45245E-05-2.36467E-05-3.03458E-05 1.75650E-07 1.23651E-18-3.87219E-19
 -1      3515 5.33042E-05-8.66385E-06-1.87311E-05-6.86457E-06 1.79351E-19-1.17526E-19
 -1      3516 5.49505E-05-1.05366E-05-1.89072E-05-1.31046E-05 3.83362E-19 5.51101E-20
 -1      3517 9.39888E-05-2.45916E-05-2.97535E-05-1.96281E-06 9.69146E-19-4.85546E-19
 -1      3518 9.42759E-05-2.44631E-05-2.99185E-05-1.28573E-06 9.50697E-19-3.91227E-19
 -1      3519 9.40498E-05-2.37645E-05-3.01169E-05-6.77157E-07 1.02058E-18-2.65354E-19
 -1      3520 8.16623E-05-1.77521E-05-2.74495E-05-4.10892E-06 6.27142E-19 1.18341E-19
 -1      3521 8.40313E-05-1.90444E-05-2.78873E-05-4.05958E-06 7.71991E-19 4.55785E-20
 -1      3522 9.51036E-05-2.40740E-05-3.04479E-05 1.71020E-06 1.24029E-18-2.29135E-20
 -1      3523 8.00558E-05-1.66170E-05-2.72434E-05 3.97727E-06-1.05704E-18 2.93962E-19
 -1      3524 7.71853E-05-1.51674E-05-2.66302E-05 4.15299E-06-1.13514E-18-3.04829E-19
 -1      3525 5.61486E-05-1.30992E-05-1.80849E-05 1.83925E-05 1.56582E-18-3.85718E-19
 -1      3526 5.52300E-05-1.04803E-05-1.90108E-05 8.71953E-06 1.29519E-18-8.97802E-19
 -1      3527 6.43573E-05-1.70855E-05-2.01037E-05 2.01991E-05 1.50985E-18-4.02658E-19
 -1      3528 9.52199E-05-2.84977E-05-2.85955E-05 2.28442E-08 1.16362E-19-2.75796E-18
 -1      3529 9.52253E-05-2.85046E-05-2.85946E-05 2.35453E-08 1.43334E-18-3.15505E-18
 -1      3530 9.52233E-05-2.84936E-05-2.85981E-05 3.20094E-08 1.87231E-18-3.39479E-18
 -1      3531 9.52104E-05-2.84760E-05-2.86002E-05 2.81931E-08-1.03083E-18-3.42842E-18
 -1      3532 1.04714E-04-4.53536E-05-2.51193E-05-2.77005E-05 9.23815E-19-1.13653E-18
 -1      3533 1.13516E-04-5.02002E-05-2.72903E-05-2.24375E-05 1.28588E-18-6.10142E-19
 -1      3534 9.52193E-05-2.85017E-05-2.85932E-05-2.07903E-08 2.67952E-18 1.52273E-18
 -1      3535 9.52147E-05-2.84954E-05-2.85943E-05-1.91504E-08 1.92441E-18 1.76474E-18
 -1      3536 1.14406E-04-1.64887E-05-4.23187E-05-9.82200E-06-5.78735E-19 4.28347E-19
 -1      3537 1.19058E-04-2.36408E-05-4.10834E-05-1.24575E-05-2.63163E-19 6.14840E-19
 -1      3538 1.19103E-04-5.19998E-05-2.85932E-05-1.79131E-05 1.16485E-18 4.06702E-19
 -1      3539 1.23050E-04-5.23014E-05-3.04038E-05-1.19391E-05 1.76950E-18 9.29665E-19
 -1      3540 1.13849E-04-4.87841E-05-2.78381E-05-1.84125E-05 6.26024E-19 6.81701E-19
 -1      3541 9.47586E-05-2.33980E-05-3.05961E-05 1.58566E-06 1.39887E-18-2.17155E-19
 -1      3542 9.43067E-05-2.27402E-05-3.07009E-05 1.28242E-06 1.37269E-18-2.85002E-19
 -1      3543 7.54234E-05-1.48386E-05-2.60423E-05-3.39765E-06 6.48334E-19-2.79256E-20
 -1      3544 7.87585E-05-1.63266E-05-2.68092E-05-3.52015E-06 6.82143E-19 4.97653E-20
 -1      3545 7.31615E-05-1.42494E-05-2.50933E-05 1.50977E-06 7.41005E-19-1.72914E-19
 -1      3546 6.04407E-05-1.04717E-05-2.12180E-05 2.80872E-06 1.01075E-18-5.18702E-19
 -1      3547 8.47761E-05-1.93048E-05-2.80973E-05 3.96041E-06-5.94059E-19 2.38148E-19
 -1      3548 8.27221E-05-1.80364E-05-2.77692E-05 4.23459E-06-9.81695E-19 1.06444E-19
 -1      3549 8.04130E-05-1.69344E-05-2.71099E-05 1.43767E-06-1.20441E-18-6.42521E-20
 -1      3550 5.95257E-05-1.44281E-05-1.90859E-05-1.97708E-05-9.46559E-20 8.07699E-19
 -1      3551 6.74982E-05-2.04991E-05-2.00821E-05-2.61091E-05-2.00820E-19 2.45428E-19
 -1      3552 6.29924E-05-1.37850E-05-2.08793E-05-1.46785E-05-1.54901E-19 9.56115E-19
 -1      3553 9.19565E-05-2.46512E-05-2.88603E-05 2.77303E-06-1.89925E-20-4.57224E-19
 -1      3554 9.13036E-05-2.40304E-05-2.88427E-05 3.11546E-06 2.08699E-19-1.00110E-18
 -1      3555 9.17590E-05-2.45923E-05-2.87648E-05 2.13819E-06-3.36949E-19-1.29163E-18
 -1      3556 9.54741E-05-2.49928E-05-3.01908E-05-1.47001E-07-8.84188E-20-1.57601E-18
 -1      3557 9.56719E-05-2.57772E-05-2.99646E-05 6.01083E-07-3.52257E-20-1.52527E-18
 -1      3558 9.56072E-05-2.56645E-05-2.99763E-05 9.07649E-07-1.12064E-19-1.26839E-18
 -1      3559 8.61450E-05-2.02469E-05-2.82815E-05-4.32985E-06 7.93176E-19 4.59284E-20
 -1      3560 8.78105E-05-2.12771E-05-2.85384E-05-4.12583E-06 7.71296E-19-5.52435E-20
 -1      3561 8.46063E-05-1.94627E-05-2.78524E-05-2.08035E-06 8.33852E-19 6.88876E-20
 -1      3562 5.77444E-05-9.61953E-06-2.05479E-05 2.19531E-06-1.04754E-20-3.18167E-19
 -1      3563 9.40496E-05-2.24909E-05-3.06899E-05 1.03426E-06 1.40134E-18-3.01695E-19
 -1      3564 9.40929E-05-2.15007E-05-3.11010E-05-2.79466E-06-1.80615E-20-2.09930E-18
 -1      3565 7.58355E-05-2.51315E-05-2.14941E-05-2.69959E-05-5.34881E-19 1.24964E-19
 -1      3566 8.38502E-05-2.99831E-05-2.32629E-05-2.64635E-05-3.25889E-19-2.13201E-19
 -1      3567 7.41454E-05-2.18416E-05-2.23703E-05-2.24614E-05-2.14339E-19 1.11650E-18
 -1      3568 9.87318E-05-4.06322E-05-2.47783E-05-2.67280E-05 3.04350E-19-1.27763E-18
 -1      3569 8.81086E-05-2.14564E-05-2.85192E-05-2.66384E-06 5.99902E-19-4.90022E-19
 -1      3570 8.93198E-05-2.21960E-05-2.87932E-05-4.15578E-06 5.46065E-19-1.41248E-19
 -1      3571 9.04627E-05-2.29340E-05-2.89567E-05-3.83247E-06 4.53202E-19-2.12850E-19
 -1      3572 7.40724E-05-1.39301E-05-2.56383E-05 4.72911E-07-1.57939E-18 4.54384E-19
 -1      3573 9.52270E-05-2.85051E-05-2.85949E-05-3.59134E-08 6.13803E-19-2.29462E-18
 -1      3574 9.52296E-05-2.85171E-05-2.85912E-05-2.44907E-08 9.14099E-19-1.67244E-18
 -1      3575 9.52271E-05-2.85134E-05-2.85917E-05-2.36918E-08 1.49922E-18-1.82130E-18
 -1      3576 9.52166E-05-2.84856E-05-2.85989E-05-4.31889E-08 8.52757E-20-1.28379E-18
 -1      3577 9.20191E-05-1.83474E-05-3.15543E-05-1.52277E-07 8.60387E-19-1.86955E-18
 -1      3578 8.37568E-05-3.24201E-05-2.16778E-05 3.10122E-05 1.40111E-18-6.93985E-19
 -1      3579 7.82437E-05-2.75199E-05-2.16982E-05 2.76551E-05 1.35549E-18-6.22172E-19
 -1      3580 9.24125E-05-1.94345E-05-3.12905E-05 8.63429E-07 9.75828E-19-1.43872E-18
 -1      3581 9.24024E-05-1.93865E-05-3.13007E-05 4.95228E-07 8.65904E-19-1.70077E-18
 -1      3582 9.28708E-05-1.99989E-05-3.12416E-05-4.46528E-07 6.97352E-19-1.76533E-18
 -1      3583 9.31596E-05-2.04116E-05-3.11905E-05-8.49126E-07 4.93083E-19-1.88661E-18
 -1      3584 1.08957E-04-4.99708E-05-2.50846E-05 2.98920E-05 1.13235E-18 4.06298E-19
 -1      3585 1.01206E-04-4.46760E-05-2.42083E-05 3.02001E-05 1.31827E-18-1.14852E-19
 -1      3586 1.14146E-04-5.15428E-05-2.68026E-05 2.44864E-05 9.09224E-19 9.09921E-19
 -1      3587 9.01582E-05-2.32492E-05-2.86448E-05 2.36386E-06-3.58561E-19-9.56804E-19
 -1      3588 8.48470E-05-1.94921E-05-2.79450E-05 2.17519E-06-2.86820E-19-4.14221E-19
 -1      3589 1.25367E-04-3.94116E-05-3.70444E-05 9.36811E-06 1.61550E-18 3.93606E-19
 -1      3590 1.20684E-04-3.40953E-05-3.71246E-05 1.15233E-05 9.30783E-19-3.41698E-19
 -1      3591 1.24519E-04-4.32934E-05-3.48933E-05 5.65764E-06 1.51155E-18 3.35134E-19
 -1      3592 1.10776E-04-1.60638E-05-4.06931E-05-7.25178E-06-1.14911E-18 1.52387E-19
 -1      3593 9.52062E-05-2.84802E-05-2.85970E-05 1.12937E-08-5.44299E-19 3.79018E-19
 -1      3594 9.51997E-05-2.84630E-05-2.86012E-05 1.83197E-08-3.96801E-19-4.61707E-20
 -1      3595 9.52041E-05-2.84781E-05-2.85970E-05 7.07979E-09 1.92166E-19 2.91358E-18
 -1      3596 1.31996E-04-4.61616E-05-3.69717E-05-4.69128E-06-2.13227E-19 2.14482E-18
 -1      3597 1.29750E-04-4.91991E-05-3.46146E-05-3.13626E-07 1.07997E-20 1.97416E-18
 -1      3598 1.27430E-04-4.11769E-05-3.70658E-05-8.55324E-06-2.98553E-19 1.81059E-18
 -1      3599 9.30539E-05-2.43825E-05-2.94438E-05-2.94854E-06 7.27758E-19-4.88966E-19
 -1      3600 9.35605E-05-2.45563E-05-2.95766E-05-2.41115E-06 8.67911E-19-5.29512E-19
 -1      3601 9.35010E-05-2.41296E-05-2.97164E-05-1.68491E-06 9.27598E-19-3.12977E-19
 -1      3602 1.24869E-04-5.13600E-05-3.15049E-05-6.74449E-06 1.88000E-18 1.20091E-18
 -1      3603 1.24180E-04-4.82554E-05-3.25749E-05-1.29357E-06 1.28475E-18 1.43340E-18
 -1      3604 1.19883E-04-4.98077E-05-3.00603E-05-9.81228E-06 1.30168E-18 1.68274E-18
 -1      3605 9.52096E-05-2.84873E-05-2.85952E-05-1.46506E-08 2.40474E-18 2.37176E-18
 -1      3606 9.52064E-05-2.84832E-05-2.85959E-05-1.10171E-08 2.47236E-18 1.67952E-18
 -1      3607 9.52049E-05-2.84743E-05-2.85987E-05-2.30608E-08 1.86010E-18 1.76360E-18
 -1      3608 6.46484E-05-1.09765E-05-2.27765E-05-3.78480E-06-7.90146E-19-2.17072E-19
 -1      3609 6.32852E-05-1.05549E-05-2.26070E-05 1.71136E-06-1.41408E-19-8.69360E-19
 -1      3610 7.97732E-05-1.69999E-05-2.68047E-05-7.81261E-07 6.72444E-19 1.56979E-19
 -1      3611 1.28418E-04-5.60372E-05-3.10107E-05 1.38149E-05 3.53226E-19 1.86334E-18
 -1      3612 1.23248E-04-5.43831E-05-2.95213E-05 1.65050E-05 8.73317E-19 1.63027E-18
 -1      3613 1.28459E-04-5.35846E-05-3.21865E-05 7.58363E-06 3.87102E-19 1.70555E-18
 -1      3614 1.20502E-04-2.78049E-05-4.00324E-05-1.24497E-05-1.95321E-19 1.01019E-18
 -1      3615 1.21517E-04-3.19551E-05-3.85175E-05-1.16961E-05-2.61627E-19 1.35879E-18
 -1      3616 1.15053E-04-2.41132E-05-3.89696E-05-1.21568E-05-3.58930E-20 3.61802E-19
 -1      3617 9.35007E-05-2.09059E-05-3.11189E-05-1.15401E-06 4.06753E-19-1.86875E-18
 -1      3618 9.38820E-05-2.14974E-05-3.10275E-05-1.50989E-06 1.95405E-19-1.90488E-18
 -1      3619 9.39285E-05-2.18222E-05-3.08827E-05-4.99102E-07 4.13713E-19-1.72502E-18
 -1      3620 9.34039E-05-2.13431E-05-3.08908E-05 1.04421E-06 1.29576E-18-6.06508E-19
 -1      3621 9.25014E-05-1.95743E-05-3.12644E-05 1.05894E-06 1.15065E-18-1.22994E-18
 -1      3622 9.29852E-05-2.05834E-05-3.10111E-05 7.88077E-07 1.02026E-18-1.20516E-18
 -1      3623 9.27511E-05-1.99049E-05-3.12195E-05 1.35608E-06 1.22312E-18-1.14079E-18
 -1      3624 9.49208E-05-2.37174E-05-3.05189E-05-6.72764E-07 7.36567E-20-1.67526E-18
 -1      3625 9.52248E-05-2.85105E-05-2.85920E-05-2.24827E-08 1.56903E-18-2.54383E-19
 -1      3626 9.04018E-05-3.66862E-05-2.29860E-05 3.00934E-05 1.31610E-18-9.76020E-19
 -1      3627 9.52164E-05-2.84913E-05-2.85964E-05-3.03466E-08 8.97570E-19 1.69151E-19
 -1      3628 9.57428E-05-2.63450E-05-2.97370E-05 1.77311E-06-1.12535E-19-1.23130E-18
 -1      3629 9.59444E-05-2.69703E-05-2.95599E-05 2.27962E-06-1.55769E-19-1.25773E-18
 -1      3630 9.61339E-05-2.75548E-05-2.93845E-05 2.74395E-06-2.29977E-19-1.09122E-18
 -1      3631 9.63784E-05-2.81352E-05-2.92432E-05 3.14710E-06-3.38690E-19-1.06756E-18
 -1      3632 9.57762E-05-2.69085E-05-2.95214E-05 2.54718E-06-1.62063E-19-1.22285E-18
 -1      3633 9.66354E-05-2.87185E-05-2.90978E-05 3.57160E-06-2.40597E-19-8.95026E-19
 -1      3634 9.70082E-05-2.93533E-05-2.89881E-05 3.87634E-06-1.38290E-19-8.73130E-19
 -1      3635 9.61978E-05-2.81151E-05-2.91905E-05 3.48674E-06-2.05538E-19-8.53127E-19
 -1      3636 9.74376E-05-3.00360E-05-2.88720E-05 4.25267E-06-1.33760E-19-9.03410E-19
 -1      3637 9.80190E-05-3.08106E-05-2.87956E-05 4.44090E-06-2.50129E-20-8.38047E-19
 -1      3638 9.68582E-05-2.94285E-05-2.89175E-05 4.36445E-06-1.76033E-19-6.63570E-19
 -1      3639 9.87365E-05-3.16805E-05-2.87158E-05 4.72977E-06 4.96809E-20-8.75387E-19
 -1      3640 9.95940E-05-3.26527E-05-2.86835E-05 4.74563E-06 1.47205E-19-1.05908E-18
 -1      3641 9.79717E-05-3.10548E-05-2.87076E-05 5.14994E-06-5.30760E-21-8.24999E-19
 -1      3642 1.00714E-04-3.37620E-05-2.86598E-05 4.84629E-06 1.22688E-19-1.14366E-18
 -1      3643 1.01874E-04-3.49214E-05-2.86953E-05 4.58790E-06 2.17970E-20-1.06106E-18
 -1      3644 9.97733E-05-3.31655E-05-2.85867E-05 5.71582E-06-1.47137E-20-9.69295E-19
 -1      3645 1.03463E-04-3.62333E-05-2.87662E-05 4.32677E-06-9.09287E-20-1.07858E-18
 -1      3646 1.04863E-04-3.74499E-05-2.89070E-05 3.65816E-06-2.49515E-19-7.73096E-19
 -1      3647 1.02461E-04-3.58096E-05-2.86158E-05 5.77681E-06-2.63949E-20-9.42289E-19
 -1      3648 1.06884E-04-3.87801E-05-2.91304E-05 2.79885E-06-3.68152E-19-7.90008E-19
 -1      3649 1.08314E-04-3.97259E-05-2.94278E-05 1.58875E-06-3.51371E-19-6.59034E-19
 -1      3650 1.06077E-04-3.87836E-05-2.88942E-05 4.94066E-06-1.93789E-19-1.34759E-19
 -1      3651 1.10481E-04-4.06231E-05-2.98878E-05-9.50627E-08 5.33718E-20-1.92449E-19
 -1      3652 1.11540E-04-4.07153E-05-3.03993E-05-1.83370E-06 2.47530E-19 1.42573E-20
 -1      3653 1.10329E-04-4.14173E-05-2.95737E-05 2.63557E-06 2.11576E-20 1.60705E-19
 -1      3654 1.13208E-04-4.04220E-05-3.11810E-05-4.30982E-06-2.95118E-19-5.87464E-21
 -1      3655 1.13370E-04-3.89622E-05-3.19286E-05-6.19284E-06-3.46575E-19 1.83715E-19
 -1      3656 1.14333E-04-4.23697E-05-3.08545E-05-1.48014E-06-3.64015E-20 6.32777E-19
 -1      3657 1.13727E-04-3.67522E-05-3.30456E-05-8.77759E-06-2.05240E-19 4.07554E-19
 -1      3658 1.12625E-04-3.34279E-05-3.39425E-05-9.86603E-06-2.08574E-19 1.28471E-19
 -1      3659 1.16516E-04-3.97909E-05-3.28827E-05-6.83367E-06-2.79336E-19 1.06371E-18
 -1      3660 1.12382E-04-2.92283E-05-3.57680E-05-1.13213E-05 1.04999E-19 4.22846E-19
 -1      3661 1.10360E-04-2.47856E-05-3.67359E-05-1.05047E-05-8.16990E-20 6.02373E-19
 -1      3662 1.04924E-04-1.51273E-05-3.86995E-05-2.49017E-06-1.01230E-18-4.49702E-19
 -1      3663 1.04919E-04-1.49372E-05-3.86599E-05 1.41596E-06-1.28504E-18-1.07671E-18
 -1      3664 1.05628E-04-1.63717E-05-3.83701E-05 5.65609E-06-8.46226E-19-1.60604E-18
 -1      3665 1.06976E-04-1.91287E-05-3.77671E-05 8.41745E-06-6.44804E-19-1.23554E-18
 -1      3666 1.11747E-04-2.55300E-05-3.70168E-05 1.12292E-05-2.24914E-19-6.32010E-19
 -1      3667 1.13635E-04-3.00652E-05-3.59852E-05 1.14925E-05 3.20423E-19-2.07887E-19
 -1      3668 1.14706E-04-3.41762E-05-3.45421E-05 1.01714E-05 3.43300E-19 1.38913E-19
 -1      3669 1.15728E-04-3.76153E-05-3.35437E-05 8.75994E-06 9.04611E-19-9.81698E-20
 -1      3670 1.10708E-04-4.02128E-05-3.02506E-05 1.76475E-06 3.79358E-19 1.34850E-19
 -1      3671 1.09490E-04-3.98897E-05-2.97741E-05 1.65198E-07 7.98645E-19 5.15052E-19
 -1      3672 1.07268E-04-3.88844E-05-2.93357E-05-1.32738E-06 7.84202E-19 3.77629E-20
 -1      3673 1.05760E-04-3.78592E-05-2.90463E-05-2.42009E-06 1.02681E-18 2.41204E-19
 -1      3674 1.09077E-04-4.04559E-05-2.94474E-05-2.51624E-06 1.06707E-18 5.87047E-19
 -1      3675 1.03712E-04-3.64940E-05-2.88229E-05-3.15044E-06 5.65347E-19 1.56523E-20
 -1      3676 1.02275E-04-3.52643E-05-2.86755E-05-3.71932E-06 3.11003E-20 2.13501E-19
 -1      3677 1.04770E-04-3.77204E-05-2.87884E-05-4.52588E-06 4.17298E-19 1.58954E-19
 -1      3678 1.00668E-04-3.39715E-05-2.85859E-05-3.88806E-06-3.49695E-19-7.93491E-19
 -1      3679 9.94850E-05-3.28521E-05-2.85266E-05-4.07973E-06-5.69875E-19-1.19185E-18
 -1      3680 1.01114E-04-3.47492E-05-2.84900E-05-5.16388E-06-7.28931E-19-9.46260E-19
 -1      3681 9.83454E-05-3.18081E-05-2.85102E-05-3.93166E-06-3.82919E-19-8.88048E-19
 -1      3682 9.74654E-05-3.09227E-05-2.84993E-05-3.89148E-06 7.82157E-20-8.02817E-19
 -1      3683 9.83973E-05-3.22178E-05-2.83996E-05-4.97377E-06-5.31595E-19-1.41950E-18
 -1      3684 9.67243E-05-3.01644E-05-2.85173E-05-3.59879E-06-5.80598E-20-8.39527E-19
 -1      3685 9.61218E-05-2.95310E-05-2.85283E-05-3.43701E-06 1.79077E-19-5.96979E-19
 -1      3686 9.65527E-05-3.03127E-05-2.84145E-05-4.38051E-06-1.32221E-19-3.43303E-19
 -1      3687 9.56831E-05-2.90288E-05-2.85577E-05-3.10414E-06-2.39307E-20-5.82649E-20
 -1      3688 9.53025E-05-2.86154E-05-2.85753E-05-2.89274E-06-1.68853E-20-1.05106E-19
 -1      3689 9.54054E-05-2.90103E-05-2.84721E-05-3.65374E-06 6.34890E-20-4.10202E-19
 -1      3690 9.50753E-05-2.83157E-05-2.86040E-05-2.57463E-06 9.76174E-20-1.85702E-19
 -1      3691 9.48570E-05-2.80735E-05-2.86201E-05-2.35561E-06-6.26450E-19 2.53294E-19
 -1      3692 9.47646E-05-2.82015E-05-2.85375E-05-2.94053E-06 5.39209E-19 9.10647E-19
 -1      3693 9.47678E-05-2.79210E-05-2.86428E-05-2.07650E-06-8.25876E-19 7.08154E-19
 -1      3694 9.46599E-05-2.78017E-05-2.86541E-05-1.87217E-06-9.56885E-20 8.86401E-19
 -1      3695 9.44660E-05-2.77602E-05-2.85941E-05-2.30794E-06-2.44909E-19 1.37101E-18
 -1      3696 9.46540E-05-2.77482E-05-2.86694E-05-1.63922E-06 2.99347E-20 2.79541E-19
 -1      3697 9.46158E-05-2.77105E-05-2.86753E-05-1.45940E-06-2.66484E-19 3.99560E-19
 -1      3698 9.43827E-05-2.75728E-05-2.86357E-05-1.77818E-06-8.56224E-19 1.00484E-18
 -1      3699 9.46551E-05-2.77189E-05-2.86837E-05-1.27097E-06 7.25395E-20-5.87428E-19
 -1      3700 9.46575E-05-2.77312E-05-2.86847E-05-1.11864E-06-5.83190E-20 2.90265E-19
 -1      3701 9.44233E-05-2.75480E-05-2.86619E-05-1.34971E-06-3.01417E-19 1.07480E-18
 -1      3702 9.47170E-05-2.77740E-05-2.86875E-05-9.69534E-07-3.08186E-19 3.17370E-19
 -1      3703 9.47401E-05-2.78135E-05-2.86848E-05-8.43934E-07-9.98737E-19 3.31807E-19
 -1      3704 9.45263E-05-2.76185E-05-2.86747E-05-1.01117E-06-3.25857E-21 5.56825E-19
 -1      3705 9.48044E-05-2.78723E-05-2.86835E-05-7.27804E-07-2.06401E-18 4.60956E-19
 -1      3706 9.48357E-05-2.79236E-05-2.86784E-05-6.26383E-07-2.07522E-18 4.35608E-19
 -1      3707 9.46522E-05-2.77370E-05-2.86773E-05-7.47959E-07-1.46816E-18-1.58017E-19
 -1      3708 9.48961E-05-2.79863E-05-2.86744E-05-5.37076E-07-1.38543E-18 4.49455E-19
 -1      3709 9.49281E-05-2.80399E-05-2.86679E-05-4.56611E-07-6.63182E-19 7.54427E-19
 -1      3710 9.47778E-05-2.78728E-05-2.86728E-05-5.45758E-07-1.96254E-18-1.87550E-19
 -1      3711 9.49804E-05-2.80993E-05-2.86624E-05-3.88693E-07 8.06198E-20-2.65089E-19
 -1      3712 9.50092E-05-2.81495E-05-2.86554E-05-3.25868E-07 6.14518E-20-9.95310E-19
 -1      3713 9.48907E-05-2.80067E-05-2.86638E-05-3.91946E-07-6.34573E-19-1.14951E-18
 -1      3714 9.50519E-05-2.82022E-05-2.86492E-05-2.74777E-07-1.24511E-19-1.11562E-18
 -1      3715 9.50758E-05-2.82463E-05-2.86423E-05-2.26488E-07-3.55163E-19-1.54089E-18
 -1      3716 9.49856E-05-2.81285E-05-2.86523E-05-2.76004E-07-4.74077E-19-1.44393E-18
 -1      3717 9.51092E-05-2.82907E-05-2.86360E-05-1.88503E-07 1.69398E-19-1.69558E-18
 -1      3718 9.51278E-05-2.83277E-05-2.86294E-05-1.51988E-07-3.15095E-20-1.25181E-18
 -1      3719 9.50614E-05-2.82334E-05-2.86400E-05-1.89455E-07-8.33182E-20-5.25982E-19
 -1      3720 9.51528E-05-2.83639E-05-2.86234E-05-1.24134E-07-2.01499E-19-2.98236E-19
 -1      3721 9.51666E-05-2.83938E-05-2.86175E-05-9.70867E-08 4.80027E-19 1.04386E-18
 -1      3722 9.51193E-05-2.83202E-05-2.86277E-05-1.25496E-07 4.60307E-19 1.63477E-18
 -1      3723 9.51845E-05-2.84228E-05-2.86119E-05-7.67404E-08 2.21191E-19 1.09157E-18
 -1      3724 9.51947E-05-2.84466E-05-2.86067E-05-5.72541E-08-1.23050E-19 6.08161E-19
 -1      3725 9.51617E-05-2.83896E-05-2.86162E-05-7.88740E-08 5.63051E-19 2.36230E-18
 -1      3726 9.52100E-05-2.84763E-05-2.86002E-05-4.07334E-08 6.27884E-19-2.90812E-19
 -1      3727 9.26411E-05-1.96822E-05-3.12773E-05-1.57754E-07 7.01150E-19-1.92508E-18
 -1      3728 9.33415E-05-2.09747E-05-3.09929E-05-3.91157E-09 5.01358E-19-1.73066E-18
 -1      3729 9.24868E-05-1.94937E-05-3.12961E-05 2.44298E-07 8.04641E-19-1.81513E-18
 -1      3730 7.59702E-05-1.56616E-05-2.58687E-05-3.08216E-06-1.50357E-18-3.09723E-19
 -1      3731 7.20470E-05-1.42093E-05-2.48719E-05-3.90308E-06-1.48920E-18-3.41930E-19
 -1      3732 6.43132E-05-1.22815E-05-2.22125E-05 7.95285E-06 1.19072E-18-3.61114E-19
 -1      3733 9.30081E-05-2.05513E-05-3.10328E-05 4.51581E-07 6.96918E-19-1.64141E-18
 -1      3734 8.81986E-05-2.21007E-05-2.83385E-05 1.17409E-06-2.40215E-19-9.34526E-19
 -1      3735 8.69035E-05-2.12568E-05-2.81724E-05 1.04393E-06-4.32558E-19-6.25147E-19
 -1      3736 9.15440E-05-2.35762E-05-2.91464E-05-3.68087E-06 3.47441E-19-1.96671E-19
 -1      3737 9.23262E-05-2.40364E-05-2.92761E-05-3.25266E-06 5.10304E-19-3.41817E-19
 -1      3738 9.23788E-05-2.38312E-05-2.93568E-05-2.37292E-06 4.65371E-19-3.88322E-19
 -1      3739 9.06226E-05-2.29242E-05-2.89824E-05-2.71811E-06 3.76518E-19-4.44878E-19
 -1      3740 9.40594E-05-2.69615E-05-2.87606E-05 9.48389E-07-8.79392E-19-1.82979E-18
 -1      3741 9.38493E-05-2.67255E-05-2.87703E-05 1.07144E-06 2.26289E-19-1.93437E-18
 -1      3742 9.35379E-05-2.64259E-05-2.87678E-05 1.14397E-06 9.25954E-19-2.72238E-18
 -1      3743 9.32162E-05-2.60978E-05-2.87703E-05 1.27959E-06 1.25647E-18-2.87943E-18
 -1      3744 9.35023E-05-2.64361E-05-2.87344E-05 8.59685E-07 5.22863E-20-8.29865E-19
 -1      3745 9.27821E-05-2.57067E-05-2.87535E-05 1.32826E-06 1.32874E-18-2.36674E-18
 -1      3746 9.23136E-05-2.52749E-05-2.87402E-05 1.45520E-06 1.10310E-18-1.71812E-18
 -1      3747 9.27723E-05-2.57528E-05-2.87108E-05 9.37584E-07 1.32123E-18-1.68903E-18
 -1      3748 9.44351E-05-2.73783E-05-2.87421E-05 7.55257E-07-4.21543E-19-6.49277E-20
 -1      3749 9.42830E-05-2.71905E-05-2.87554E-05 8.69592E-07-8.24556E-19-4.85674E-19
 -1      3750 9.40266E-05-2.69649E-05-2.87349E-05 7.36474E-07-8.22724E-19 9.78372E-19
 -1      3751 9.46974E-05-2.76923E-05-2.87191E-05 5.83594E-07 7.26350E-19 1.07283E-19
 -1      3752 9.45942E-05-2.75518E-05-2.87331E-05 6.80416E-07-1.03629E-20 2.26599E-19
 -1      3753 9.44011E-05-2.73710E-05-2.87231E-05 6.01875E-07-4.28256E-19 1.65133E-18
 -1      3754 9.48794E-05-2.79282E-05-2.86954E-05 4.38330E-07 5.98498E-19 7.73269E-19
 -1      3755 9.48098E-05-2.78231E-05-2.87087E-05 5.17596E-07 8.32993E-19 1.06505E-19
 -1      3756 9.46672E-05-2.76814E-05-2.87054E-05 4.73477E-07 6.05194E-19 1.27524E-18
 -1      3757 9.50049E-05-2.81048E-05-2.86730E-05 3.19782E-07 4.97349E-19 1.10154E-18
 -1      3758 9.49583E-05-2.80264E-05-2.86850E-05 3.82940E-07 1.05794E-18 1.16641E-18
 -1      3759 9.48550E-05-2.79172E-05-2.86857E-05 3.60093E-07 4.45566E-19 1.98820E-18
 -1      3760 9.50906E-05-2.82364E-05-2.86529E-05 2.25891E-07-1.09074E-19 8.43042E-20
 -1      3761 9.50598E-05-2.81781E-05-2.86633E-05 2.74997E-07 2.53725E-19 1.03241E-18
 -1      3762 9.49864E-05-2.80953E-05-2.86663E-05 2.64978E-07 9.89395E-19 1.46019E-18
 -1      3763 9.51459E-05-2.83300E-05-2.86362E-05 1.56501E-07 1.73075E-19-3.37604E-19
 -1      3764 9.51266E-05-2.82885E-05-2.86446E-05 1.92491E-07-2.28806E-19-9.17744E-19
 -1      3765 9.50754E-05-2.82264E-05-2.86488E-05 1.89807E-07 9.15296E-19 7.15005E-19
 -1      3766 9.51846E-05-2.84035E-05-2.86211E-05 1.00921E-07 1.27078E-19-2.73304E-18
 -1      3767 9.51716E-05-2.83709E-05-2.86285E-05 1.29178E-07 3.04456E-19-1.99778E-18
 -1      3768 9.51364E-05-2.83247E-05-2.86330E-05 1.30688E-07 9.65517E-19-2.31311E-18
 -1      3769 9.52095E-05-2.84574E-05-2.86084E-05 6.06525E-08-1.13171E-18-1.49108E-18
 -1      3770 9.52016E-05-2.84337E-05-2.86145E-05 8.06220E-08-6.74304E-19-2.37381E-18
 -1      3771 9.51783E-05-2.84001E-05-2.86189E-05 8.42939E-08-1.66228E-19-3.20189E-18
 -1      3772 9.52184E-05-2.84825E-05-2.86012E-05 3.93958E-08 8.91377E-19-2.76381E-18
 -1      3773 9.52156E-05-2.84700E-05-2.86050E-05 5.11271E-08-3.82517E-19-1.72445E-18
 -1      3774 9.52003E-05-2.84457E-05-2.86090E-05 5.54379E-08-4.94419E-19-2.91229E-18
 -1      3775 9.52115E-05-2.84731E-05-2.86024E-05 3.84340E-08 1.00910E-18-4.30298E-18
 -1      3776 9.39739E-05-2.15147E-05-3.10609E-05-2.03770E-06 1.69422E-19-1.92476E-18
 -1      3777 8.54357E-05-2.03197E-05-2.79197E-05 4.97794E-07-3.47100E-19-6.82686E-19
 -1      3778 8.35345E-05-1.92525E-05-2.76060E-05 1.24918E-07-4.33700E-19-9.06445E-19
 -1      3779 8.61211E-05-2.09678E-05-2.78842E-05-8.09689E-07-6.20814E-19-1.74313E-18
 -1      3780 9.37718E-05-2.36490E-05-3.00675E-05-6.62016E-07 1.12840E-18-4.71508E-19
 -1      3781 9.39205E-05-2.32732E-05-3.02928E-05-8.68340E-08 1.24283E-18-4.13760E-19
 -1      3782 6.99219E-05-1.37646E-05-2.39806E-05-6.38104E-06-1.66445E-18 4.11784E-19
 -1      3783 6.45667E-05-1.29226E-05-2.21624E-05-1.08772E-05-7.40712E-19 2.57670E-19
 -1      3784 6.89350E-05-1.66344E-05-2.23120E-05-1.71036E-05-4.37929E-19 1.37475E-18
 -1      3785 7.29359E-05-1.58840E-05-2.43575E-05-1.01365E-05-7.65033E-19-2.02970E-19
 -1      3786 7.88090E-05-1.74635E-05-2.63721E-05 2.58144E-06 7.37946E-19 3.92026E-20
 -1      3787 8.16574E-05-1.86079E-05-2.70270E-05 1.48397E-06 7.06535E-19 7.32944E-20
 -1      3788 8.15140E-05-2.74516E-05-2.31612E-05 2.39652E-05 1.46429E-18-7.56520E-19
 -1      3789 7.39899E-05-2.25145E-05-2.17438E-05 2.37934E-05 1.53910E-18-6.31675E-19
 -1      3790 9.31855E-05-3.54813E-05-2.44446E-05-2.55967E-05-1.39698E-19-9.32017E-19
 -1      3791 1.02456E-04-4.19089E-05-2.61447E-05-2.24633E-05 1.50742E-19-1.54012E-18
 -1      3792 9.02640E-05-2.36030E-05-2.85783E-05 1.44018E-06-1.69815E-19-1.10081E-18
 -1      3793 8.92966E-05-2.28860E-05-2.84864E-05 1.44507E-06 1.31853E-21-5.28233E-19
 -1      3794 8.86086E-05-2.25272E-05-2.82892E-05 2.10430E-07-3.38408E-20-1.97927E-18
 -1      3795 9.52041E-05-2.84791E-05-2.85965E-05-4.49577E-09 2.71564E-18 2.10712E-18
 -1      3796 9.52034E-05-2.84779E-05-2.85968E-05-1.16953E-10 1.33222E-18 3.37587E-18
 -1      3797 9.51963E-05-2.84619E-05-2.86003E-05-1.19226E-08 1.92057E-18 2.53966E-18
 -1      3798 8.15875E-05-1.81975E-05-2.71832E-05-8.44147E-07-1.08282E-18-3.06077E-19
 -1      3799 7.89433E-05-1.69607E-05-2.66399E-05-1.58094E-06-1.45758E-18-3.20805E-19
 -1      3800 8.28273E-05-1.92282E-05-2.72092E-05-2.60677E-06-5.47515E-19-2.24024E-18
 -1      3801 7.20914E-05-1.51595E-05-2.44598E-05 6.25735E-06 8.11744E-19-4.99551E-20
 -1      3802 7.62425E-05-1.65405E-05-2.55873E-05 4.40822E-06 8.76557E-19-4.89989E-20
 -1      3803 7.89793E-05-1.83795E-05-2.59034E-05 6.85376E-06 8.63907E-19-9.58041E-20
 -1      3804 1.10321E-04-4.54971E-05-2.75659E-05-1.75039E-05 8.58203E-19 3.13386E-20
 -1      3805 1.14554E-04-4.78655E-05-2.86593E-05-1.40420E-05 1.12749E-18 1.37647E-18
 -1      3806 6.79644E-05-1.75294E-05-2.16708E-05 1.77500E-05 1.47536E-18-5.56792E-19
 -1      3807 9.17317E-05-2.47847E-05-2.86998E-05 1.45052E-06 8.77998E-20-1.83546E-18
 -1      3808 9.10557E-05-2.42236E-05-2.86579E-05 1.53899E-06-3.40800E-19-1.51144E-18
 -1      3809 9.04394E-05-2.38327E-05-2.85217E-05 7.19614E-07 1.14977E-19-1.51503E-18
 -1      3810 9.17785E-05-2.48944E-05-2.86478E-05 9.17956E-07 3.75594E-19-2.19576E-18
 -1      3811 1.07323E-04-1.82839E-05-3.82326E-05-7.13556E-06-2.91009E-19 2.12440E-19
 -1      3812 9.52865E-05-2.48693E-05-3.01653E-05 6.25990E-07 1.15154E-19-1.41576E-18
 -1      3813 9.55202E-05-2.56534E-05-2.99475E-05 1.25347E-06 4.69833E-21-1.28224E-18
 -1      3814 9.53729E-05-2.55731E-05-2.99159E-05 1.53077E-06-2.72519E-20-1.38716E-18
 -1      3815 1.15595E-04-2.08928E-05-4.08188E-05 1.15264E-05 9.06325E-20-1.20812E-18
 -1      3816 1.10995E-04-1.89450E-05-3.95919E-05 9.29660E-06 9.07384E-20-1.80672E-18
 -1      3817 8.36641E-05-1.95533E-05-2.75396E-05 2.76337E-07 8.00300E-19-6.79823E-20
 -1      3818 8.57591E-05-2.05488E-05-2.79542E-05-3.30233E-07 7.58090E-19-3.07487E-19
 -1      3819 8.34547E-05-1.98849E-05-2.71801E-05 3.28002E-06 7.39136E-19-2.20971E-19
 -1      3820 9.62239E-05-3.98988E-05-2.39298E-05 2.88757E-05 1.38842E-18-5.78987E-19
 -1      3821 9.17407E-05-3.55983E-05-2.40602E-05 2.65857E-05 1.47873E-18-6.54862E-19
 -1      3822 1.01784E-04-4.29886E-05-2.52118E-05 2.61009E-05 1.32469E-18 2.00932E-19
 -1      3823 9.51960E-05-2.84528E-05-2.86040E-05-4.33365E-08-1.48785E-19 9.32984E-19
 -1      3824 7.14765E-05-1.68346E-05-2.33486E-05 1.21892E-05 1.12342E-18-3.85420E-19
 -1      3825 9.43312E-05-2.23368E-05-3.08360E-05-1.20324E-06 2.32308E-19-1.81760E-18
 -1      3826 7.54537E-05-2.06733E-05-2.33913E-05-1.83791E-05-1.94209E-19 7.85875E-19
 -1      3827 8.72895E-05-2.13542E-05-2.83018E-05-1.02943E-06 3.88992E-19-5.74206E-19
 -1      3828 8.87878E-05-2.21203E-05-2.85776E-05-1.27931E-06 3.12949E-19-6.78502E-19
 -1      3829 8.68665E-05-2.13391E-05-2.80374E-05 1.07866E-06 3.78828E-19-6.16395E-19
 -1      3830 1.18177E-04-5.25609E-05-2.80675E-05 2.02930E-05 7.74903E-19 1.44342E-18
 -1      3831 1.11347E-04-4.87798E-05-2.68146E-05 2.26964E-05 7.12328E-19 1.24908E-18
 -1      3832 1.20220E-04-5.18553E-05-2.93058E-05 1.44030E-05 7.37481E-19 1.61087E-18
 -1      3833 1.16723E-04-3.28929E-05-3.59272E-05-1.11726E-05-2.23273E-20 1.03425E-18
 -1      3834 1.09017E-04-2.19106E-05-3.75623E-05-9.84044E-06-2.32233E-19 3.66951E-19
 -1      3835 1.19517E-04-4.13410E-05-3.34957E-05 6.25766E-06 9.76973E-19 3.96034E-19
 -1      3836 1.13858E-04-3.95090E-05-3.18844E-05 5.78420E-06 1.35980E-18-3.78098E-19
 -1      3837 7.60034E-05-1.97116E-05-2.40925E-05 1.47976E-05 1.19320E-18-5.20548E-19
 -1      3838 1.13502E-04-4.07708E-05-3.11661E-05 3.94811E-06 6.51372E-19 9.68000E-20
 -1      3839 7.81764E-05-1.72643E-05-2.60406E-05-5.51277E-06-1.10445E-18-1.41394E-18
 -1      3840 9.35859E-05-2.18221E-05-3.07680E-05 4.30256E-07 4.54086E-19-1.74341E-18
 -1      3841 9.38405E-05-2.21563E-05-3.07315E-05 2.05997E-07 4.17985E-19-1.75306E-18
 -1      3842 9.51943E-05-2.84577E-05-2.86012E-05 3.74705E-09 1.04925E-18 4.77152E-18
 -1      3843 9.38382E-05-2.25695E-05-3.05228E-05 3.54440E-07 1.14022E-18-4.65389E-19
 -1      3844 9.29767E-05-2.05373E-05-3.10684E-05 1.22435E-06 1.22163E-18-9.74231E-19
 -1      3845 9.51895E-05-2.84447E-05-2.86051E-05-3.69275E-08-8.39843E-20 1.62651E-18
 -1      3846 1.22316E-04-4.56761E-05-3.29165E-05 2.57012E-06 1.25305E-18 6.49254E-19
 -1      3847 1.16294E-04-4.72989E-05-2.95784E-05-9.30351E-06 1.23774E-18 1.52657E-18
 -1      3848 1.19331E-04-4.58947E-05-3.14559E-05-7.56547E-07 1.14374E-18 1.02883E-18
 -1      3849 8.94259E-05-3.17645E-05-2.46382E-05-2.30086E-05-1.55086E-19-7.34914E-19
 -1      3850 9.35421E-05-2.38965E-05-2.98460E-05-9.47291E-07 9.49772E-19-3.41499E-19
 -1      3851 9.35076E-05-2.34867E-05-3.00071E-05-3.82184E-07 1.02522E-18-5.93980E-19
 -1      3852 9.31082E-05-2.39559E-05-2.96551E-05-1.35623E-06 7.36773E-19-2.94667E-19
 -1      3853 8.85607E-05-3.14089E-05-2.42920E-05 2.35847E-05 1.50710E-18-5.77528E-19
 -1      3854 8.37523E-05-2.71261E-05-2.42817E-05 2.06510E-05 1.65741E-18-6.38660E-19
 -1      3855 1.04725E-04-4.15546E-05-2.70436E-05-1.78603E-05 5.62073E-19-8.94951E-19
 -1      3856 1.28413E-04-5.09668E-05-3.31888E-05 2.39631E-06 5.46593E-20 1.58271E-18
 -1      3857 1.24977E-04-5.10510E-05-3.17107E-05 5.66322E-06 3.44842E-19 1.41943E-18
 -1      3858 1.25762E-04-4.67175E-05-3.39657E-05-2.66766E-06-8.98517E-20 1.93129E-18
 -1      3859 9.29887E-05-3.46551E-05-2.50800E-05 2.27168E-05 1.63012E-18-1.77162E-19
 -1      3860 9.32614E-05-2.14465E-05-3.07913E-05 6.54262E-07 7.24864E-19-1.35241E-18
 -1      3861 9.33763E-05-2.15543E-05-3.07868E-05 4.94984E-07 5.75613E-19-1.59796E-18
 -1      3862 9.38325E-05-2.25589E-05-3.05351E-05 6.81818E-07 4.93378E-19-1.57158E-18
 -1      3863 9.51972E-05-2.84545E-05-2.86042E-05 3.00974E-08-5.80894E-19-2.61855E-18
 -1      3864 9.52034E-05-2.84625E-05-2.86033E-05 3.40058E-08 8.47119E-19-4.14744E-18
 -1      3865 9.51979E-05-2.84493E-05-2.86065E-05 4.11755E-08 1.00497E-18-4.45433E-18
 -1      3866 1.14294E-04-4.26372E-05-3.07633E-05 7.43582E-07 9.12899E-19 1.03193E-18
 -1      3867 9.35715E-05-2.24541E-05-3.04676E-05 3.33940E-07 1.22684E-18-8.03616E-19
 -1      3868 9.31888E-05-2.13717E-05-3.07824E-05 6.58604E-07 8.74852E-19-1.15385E-18
 -1      3869 9.35432E-05-2.22276E-05-3.05455E-05 6.66178E-07 7.99160E-19-1.06820E-18
 -1      3870 9.32316E-05-2.14919E-05-3.07565E-05 7.19802E-07 1.08043E-18-1.01895E-18
 -1      3871 9.51912E-05-2.84480E-05-2.86044E-05 2.15101E-08 4.77704E-19 5.01136E-19
 -1      3872 9.51847E-05-2.84327E-05-2.86076E-05 2.73224E-08 1.30679E-18 5.14365E-19
 -1      3873 9.51871E-05-2.84430E-05-2.86046E-05 1.39974E-08 1.42399E-18 2.09596E-18
 -1      3874 9.46187E-05-2.38339E-05-3.03277E-05 8.07864E-07 2.09738E-19-1.74370E-18
 -1      3875 9.44017E-05-2.31732E-05-3.05326E-05 3.27420E-07 3.79759E-19-1.70411E-18
 -1      3876 9.48193E-05-2.36973E-05-3.04962E-05-2.23977E-07 2.64683E-19-1.61548E-18
 -1      3877 9.47268E-05-2.36740E-05-3.04587E-05 1.53249E-07 3.10222E-19-1.62244E-18
 -1      3878 1.16007E-04-2.56620E-05-3.86859E-05 1.23367E-05 7.48764E-19-1.74881E-18
 -1      3879 1.21533E-04-3.72942E-05-3.62796E-05-1.00294E-05-2.71567E-19 1.19607E-18
 -1      3880 9.42953E-05-2.36685E-05-3.02662E-05 1.05276E-06 3.69429E-19-1.61463E-18
 -1      3881 9.48592E-05-2.46663E-05-3.00841E-05 1.23828E-06 2.42345E-19-1.67978E-18
 -1      3882 9.50798E-05-2.53848E-05-2.98654E-05 1.77576E-06 2.04843E-19-1.56477E-18
 -1      3883 9.56697E-05-2.73669E-05-2.92689E-05 3.27310E-06-1.95913E-21-1.02013E-18
 -1      3884 9.59206E-05-2.79650E-05-2.91135E-05 3.75299E-06-7.07783E-20-8.37219E-19
 -1      3885 9.61231E-05-2.85629E-05-2.89486E-05 4.32639E-06-2.38342E-19-7.44408E-19
 -1      3886 9.65543E-05-2.92710E-05-2.88206E-05 4.79260E-06-2.19036E-19-8.27504E-19
 -1      3887 9.54701E-05-2.78009E-05-2.90149E-05 4.14849E-06-7.91147E-20-9.44582E-19
 -1      3888 9.69703E-05-3.00275E-05-2.86784E-05 5.41427E-06-1.04806E-19-8.65631E-19
 -1      3889 9.76953E-05-3.09579E-05-2.85840E-05 5.83991E-06-2.38499E-20-9.59291E-19
 -1      3890 9.60550E-05-2.91506E-05-2.86941E-05 5.42144E-06-1.69852E-19-8.53653E-19
 -1      3891 9.84872E-05-3.19918E-05-2.84753E-05 6.46578E-06 8.18173E-20-1.06309E-18
 -1      3892 9.96298E-05-3.32388E-05-2.84340E-05 6.76604E-06 9.68062E-20-9.99326E-19
 -1      3893 9.72148E-05-3.09726E-05-2.84241E-05 6.81770E-06-1.79606E-20-7.32933E-19
 -1      3894 1.00979E-04-3.46534E-05-2.83875E-05 7.29162E-06 1.21014E-19-7.67602E-19
 -1      3895 1.02625E-04-3.62347E-05-2.84406E-05 7.30524E-06 5.24391E-20-6.31237E-19
 -1      3896 9.92495E-05-3.35061E-05-2.82409E-05 8.17702E-06 1.77263E-19-4.12029E-19
 -1      3897 1.04735E-04-3.80070E-05-2.85219E-05 7.34003E-06 2.55983E-19-3.52780E-19
 -1      3898 1.06759E-04-3.97629E-05-2.87299E-05 6.82087E-06 2.96376E-19 1.76428E-19
 -1      3899 1.02817E-04-3.71528E-05-2.82520E-05 9.14333E-06 4.86329E-19 1.65909E-19
 -1      3900 1.09664E-04-4.16701E-05-2.90372E-05 6.06169E-06 2.86262E-19 6.65498E-19
 -1      3901 1.11860E-04-4.31042E-05-2.95011E-05 4.70138E-06 3.94926E-19 8.18995E-19
 -1      3902 1.07648E-04-4.12617E-05-2.86047E-05 8.97502E-06 6.20160E-19 7.88500E-19
 -1      3903 1.15227E-04-4.45379E-05-3.02017E-05 2.66046E-06 3.38552E-19 9.99249E-19
 -1      3904 1.17016E-04-4.46942E-05-3.10469E-05 2.37517E-07 2.28951E-19 1.27818E-18
 -1      3905 1.13920E-04-4.50168E-05-2.96005E-05 6.42510E-06 5.55495E-19 1.45491E-18
 -1      3906 1.20276E-04-4.50818E-05-3.21912E-05-2.16991E-06-1.19551E-19 1.39927E-18
 -1      3907 1.20899E-04-4.28229E-05-3.35144E-05-5.10154E-06-2.44888E-19 1.36111E-18
 -1      3908 8.03413E-05-2.04464E-05-2.56788E-05 1.02786E-05 9.18905E-19-3.47231E-19
 -1      3909 8.27167E-05-2.08918E-05-2.64408E-05 7.73158E-06 8.47844E-19-2.55544E-19
 -1      3910 8.18207E-05-2.43568E-05-2.45352E-05 1.79519E-05 1.49368E-18-7.69486E-19
 -1      3911 8.09884E-05-2.17808E-05-2.53340E-05 1.27609E-05 1.11182E-18-2.86395E-19
 -1      3912 8.48395E-05-2.44715E-05-2.59532E-05 1.33918E-05 1.19195E-18-5.59072E-19
 -1      3913 8.75616E-05-2.83634E-05-2.54932E-05 1.79713E-05 1.72401E-18-4.71569E-19
 -1      3914 1.05330E-04-3.85817E-05-2.86197E-05-6.48068E-06 4.39593E-19-2.96407E-19
 -1      3915 1.03251E-04-3.68194E-05-2.84098E-05-6.90589E-06 1.42869E-19-2.63412E-19
 -1      3916 1.01165E-04-3.50738E-05-2.83163E-05-6.71327E-06-1.50872E-19-7.39264E-19
 -1      3917 9.95318E-05-3.35467E-05-2.82422E-05-6.63925E-06-6.14919E-19-7.32908E-19
 -1      3918 1.01175E-04-3.57421E-05-2.81139E-05-8.63717E-06-5.90446E-20-6.96285E-19
 -1      3919 9.81591E-05-3.22065E-05-2.82488E-05-6.09825E-06-7.95417E-19-7.12116E-20
 -1      3920 9.70052E-05-3.10509E-05-2.82463E-05-5.77566E-06-6.66589E-19-1.66909E-19
 -1      3921 9.77780E-05-3.24218E-05-2.80603E-05-7.58559E-06-8.40495E-19 2.47578E-19
 -1      3922 9.61863E-05-3.01233E-05-2.82948E-05-5.14145E-06 4.32189E-20 1.35679E-19
 -1      3923 9.54382E-05-2.93297E-05-2.83236E-05-4.73376E-06 6.81784E-19 6.16962E-19
 -1      3924 9.56499E-05-3.00653E-05-2.81402E-05-6.19788E-06 8.89432E-20 5.34144E-19
 -1      3925 9.50057E-05-2.87438E-05-2.83823E-05-4.13633E-06 5.44554E-19 4.00294E-19
 -1      3926 9.45643E-05-2.82474E-05-2.84196E-05-3.73279E-06 2.77953E-19 1.33618E-18
 -1      3927 9.44487E-05-2.85453E-05-2.82641E-05-4.83761E-06 9.48413E-19 1.45560E-18
 -1      3928 9.43837E-05-2.79178E-05-2.84731E-05-3.22538E-06 9.51888E-20 1.51022E-18
 -1      3929 9.41558E-05-2.76420E-05-2.85074E-05-2.86740E-06 3.74076E-19 1.57071E-18
 -1      3930 9.38714E-05-2.76612E-05-2.83870E-05-3.66060E-06 3.59609E-19 2.13307E-18
 -1      3931 9.41279E-05-2.74904E-05-2.85498E-05-2.46029E-06-3.16495E-21 9.65356E-19
 -1      3932 9.40391E-05-2.73678E-05-2.85764E-05-2.16105E-06-7.59935E-19 8.33720E-19
 -1      3933 9.36864E-05-2.72235E-05-2.84897E-05-2.71019E-06-7.88866E-20 1.15135E-18
 -1      3934 9.40966E-05-2.73326E-05-2.86067E-05-1.84725E-06-1.02323E-18 1.01076E-18
 -1      3935 9.40910E-05-2.73081E-05-2.86248E-05-1.60649E-06-1.24760E-18 8.13515E-19
 -1      3936 9.37310E-05-2.70813E-05-2.85663E-05-1.97482E-06-9.29516E-19 1.86607E-19
 -1      3937 9.41890E-05-2.73422E-05-2.86442E-05-1.36987E-06-1.20173E-18 1.04307E-18
 -1      3938 9.42288E-05-2.73763E-05-2.86545E-05-1.18068E-06-9.29617E-19 6.75554E-19
 -1      3939 9.38948E-05-2.71186E-05-2.86185E-05-1.42215E-06-1.34272E-18 4.66283E-19
 -1      3940 9.43393E-05-2.74473E-05-2.86651E-05-1.00555E-06-6.71973E-19 5.48111E-19
 -1      3941 9.43993E-05-2.75116E-05-2.86692E-05-8.59202E-07-2.05857E-19 1.05036E-19
 -1      3942 9.41078E-05-2.72556E-05-2.86500E-05-1.01474E-06-1.40475E-18-1.31625E-19
 -1      3943 9.45064E-05-2.75976E-05-2.86733E-05-7.30992E-07-1.56116E-18-7.92767E-19
 -1      3944 9.45711E-05-2.76737E-05-2.86729E-05-6.19035E-07-2.28376E-18-1.14573E-18
 -1      3945 9.43273E-05-2.74378E-05-2.86656E-05-7.18347E-07-1.53674E-18-1.37056E-18
 -1      3946 9.46665E-05-2.77613E-05-2.86724E-05-5.25893E-07-1.54538E-18-7.71475E-19
 -1      3947 9.47273E-05-2.78377E-05-2.86690E-05-4.40965E-07-1.59187E-18-5.60173E-19
 -1      3948 9.45302E-05-2.76308E-05-2.86697E-05-5.04483E-07-1.71822E-18-1.08033E-18
 -1      3949 9.48075E-05-2.79191E-05-2.86657E-05-3.73673E-07-1.09838E-18-3.35651E-19
 -1      3950 9.48601E-05-2.79893E-05-2.86606E-05-3.09716E-07-2.71469E-19-3.87109E-19
 -1      3951 9.47055E-05-2.78145E-05-2.86662E-05-3.50998E-07-1.08044E-18 2.14545E-19
 -1      3952 9.49248E-05-2.80607E-05-2.86556E-05-2.61313E-07-3.18988E-19-4.74250E-19
 -1      3953 9.49677E-05-2.81217E-05-2.86496E-05-2.13501E-07-5.49950E-19-3.62930E-19
 -1      3954 9.48497E-05-2.79783E-05-2.86580E-05-2.41227E-07-5.29684E-19 4.66527E-19
 -1      3955 9.50179E-05-2.81816E-05-2.86438E-05-1.78835E-07-1.73449E-19-2.37854E-19
 -1      3956 9.50514E-05-2.82326E-05-2.86376E-05-1.43391E-07 3.43670E-19 9.81499E-20
 -1      3957 9.49637E-05-2.81177E-05-2.86473E-05-1.62907E-07-3.34686E-20 9.25761E-19
 -1      3958 9.50890E-05-2.82811E-05-2.86317E-05-1.18887E-07 9.65642E-19 3.45249E-19
 -1      3959 9.51140E-05-2.83224E-05-2.86257E-05-9.26438E-08 6.85804E-19 1.12510E-18
 -1      3960 9.50508E-05-2.82327E-05-2.86356E-05-1.07381E-07 9.43507E-19 7.60208E-19
 -1      3961 9.51416E-05-2.83613E-05-2.86200E-05-7.56215E-08 7.65458E-19 1.86177E-18
 -1      3962 9.51599E-05-2.83938E-05-2.86144E-05-5.62044E-08 1.96235E-19 1.83093E-18
 -1      3963 9.51147E-05-2.83247E-05-2.86239E-05-6.82616E-08 8.15127E-19 1.56574E-19
 -1      3964 9.51850E-05-2.84419E-05-2.86041E-05-4.65304E-09 1.62903E-18 5.64774E-18
 -1      3965 9.51854E-05-2.84425E-05-2.86043E-05 3.89499E-09 1.23948E-18 4.49886E-18
 -1      3966 9.51775E-05-2.84260E-05-2.86075E-05 5.97443E-09 1.92879E-18 3.98751E-18
 -1      3967 9.51734E-05-2.84191E-05-2.86088E-05-3.32858E-08 2.39617E-19 1.06781E-18
 -1      3968 9.35396E-05-2.65552E-05-2.87104E-05 5.62032E-07-9.90774E-19 9.13949E-19
 -1      3969 9.32279E-05-2.62675E-05-2.87039E-05 5.97031E-07 8.56752E-20-6.20720E-19
 -1      3970 9.40331E-05-2.70375E-05-2.87149E-05 5.11126E-07-6.38070E-19 4.04283E-19
 -1      3971 9.38097E-05-2.68121E-05-2.87173E-05 5.64346E-07-6.71010E-19 8.19810E-19
 -1      3972 9.35992E-05-2.66372E-05-2.86916E-05 3.26949E-07-9.10775E-19-9.04221E-19
 -1      3973 9.28693E-05-2.59461E-05-2.86841E-05 5.50583E-07 1.27766E-18-1.00672E-18
 -1      3974 9.24361E-05-2.55821E-05-2.86620E-05 5.43286E-07 1.28003E-18-8.24221E-19
 -1      3975 9.29824E-05-2.60829E-05-2.86626E-05 2.43045E-07 1.80050E-19-8.06278E-19
 -1      3976 9.46545E-05-2.77080E-05-2.86932E-05 3.48667E-07 6.41166E-20 1.32733E-18
 -1      3977 9.45418E-05-2.75733E-05-2.87022E-05 4.03237E-07 5.06625E-19 4.00579E-19
 -1      3978 9.48420E-05-2.79334E-05-2.86766E-05 2.69115E-07 4.61713E-19 1.12181E-18
 -1      3979 9.47628E-05-2.78304E-05-2.86861E-05 3.17037E-07-1.06342E-20 9.97639E-19
 -1      3980 9.46586E-05-2.77238E-05-2.86839E-05 2.51791E-07 3.11635E-19 7.64220E-19
 -1      3981 9.49751E-05-2.81054E-05-2.86596E-05 1.99841E-07 1.25509E-18 9.00471E-19
 -1      3982 9.49201E-05-2.80272E-05-2.86687E-05 2.39758E-07 7.44266E-19 9.05387E-19
 -1      3983 9.48422E-05-2.79425E-05-2.86696E-05 1.99242E-07 7.86978E-19 1.47137E-18
 -1      3984 9.50645E-05-2.82302E-05-2.86442E-05 1.45012E-07 1.42354E-18 5.93775E-19
 -1      3985 9.50283E-05-2.81735E-05-2.86522E-05 1.75892E-07 1.24954E-18 1.31520E-18
 -1      3986 9.49713E-05-2.81074E-05-2.86547E-05 1.51505E-07 1.31625E-18 1.28262E-18
 -1      3987 9.51298E-05-2.83296E-05-2.86293E-05 9.87298E-08 1.36351E-18-3.00269E-19
 -1      3988 9.51040E-05-2.82846E-05-2.86368E-05 1.24303E-07 1.92051E-18 4.63246E-19
 -1      3989 9.50632E-05-2.82341E-05-2.86402E-05 1.10433E-07 1.32438E-18 1.42880E-18
 -1      3990 9.51736E-05-2.84038E-05-2.86161E-05 6.31914E-08 5.57633E-19-2.03114E-18
 -1      3991 9.51569E-05-2.83703E-05-2.86227E-05 8.27079E-08 1.05472E-18-1.13855E-18
 -1      3992 9.51285E-05-2.83326E-05-2.86264E-05 7.61695E-08 1.98480E-18 1.18465E-18
 -1      3993 8.37897E-05-2.10419E-05-2.69660E-05 5.84572E-06 6.24691E-19-2.94920E-19
 -1      3994 8.57662E-05-2.16168E-05-2.74721E-05 4.26106E-06 6.51794E-19-4.13275E-19
 -1      3995 8.53301E-05-2.26698E-05-2.67796E-05 8.78751E-06 6.08970E-19-1.66093E-19
 -1      3996 7.76296E-05-1.86798E-05-2.51779E-05-1.07964E-05-1.80767E-19-7.48302E-19
 -1      3997 7.53468E-05-1.86869E-05-2.43390E-05-1.37891E-05 1.64460E-19 4.00236E-19
 -1      3998 1.21896E-04-4.08234E-05-3.47174E-05-7.71465E-06-1.71723E-19 1.39415E-18
 -1      3999 9.43935E-05-2.74150E-05-2.87072E-05 4.33094E-07 1.85604E-19 4.13626E-19
 -1      4000 9.42343E-05-2.72403E-05-2.87141E-05 4.90672E-07-2.99341E-21 9.46743E-19
 -1      4001 9.40622E-05-2.70856E-05-2.86995E-05 3.33742E-07-5.38816E-19 2.45755E-19
 -1      4002 9.44059E-05-2.74428E-05-2.86951E-05 3.01034E-07 5.00094E-19 7.69777E-21
 -1      4003 9.40509E-05-2.34077E-05-3.02838E-05 1.03555E-06 5.66639E-19-1.33197E-18
 -1      4004 1.00479E-04-3.77788E-05-2.66684E-05-1.78877E-05-3.13761E-19-1.09122E-18
 -1      4005 1.06376E-04-4.17649E-05-2.78456E-05-1.39795E-05-2.11841E-21-2.36699E-19
 -1      4006 8.92621E-05-2.32301E-05-2.82984E-05-5.49119E-07-1.30719E-20-1.98489E-18
 -1      4007 8.81814E-05-2.25881E-05-2.81432E-05-9.86230E-07-5.26204E-19-2.74258E-18
 -1      4008 8.20393E-05-1.97787E-05-2.66486E-05-6.27502E-06-9.17215E-19-1.63432E-18
 -1      4009 7.92617E-05-1.89076E-05-2.59174E-05-8.28197E-06-8.42746E-19-1.38193E-18
 -1      4010 8.18885E-05-2.14410E-05-2.59026E-05-1.14712E-05-3.26956E-19-6.00254E-19
 -1      4011 8.50752E-05-2.09279E-05-2.74742E-05-3.38665E-06-3.70196E-19-2.30079E-18
 -1      4012 8.32008E-05-2.01641E-05-2.70643E-05-4.64870E-06-5.11272E-19-2.51314E-18
 -1      4013 8.46008E-05-2.16360E-05-2.69658E-05-7.00838E-06-2.71092E-19-2.11454E-18
 -1      4014 8.53442E-05-2.74688E-05-2.46922E-05-2.04359E-05-7.50915E-20-3.29775E-19
 -1      4015 9.25833E-05-3.30548E-05-2.57064E-05-2.00670E-05-1.02094E-19-9.74856E-19
 -1      4016 1.16697E-04-4.65994E-05-3.01231E-05-5.88018E-06 1.14581E-18 1.28809E-18
 -1      4017 1.15406E-04-4.41002E-05-3.05419E-05-1.71805E-06 1.11313E-18 7.88882E-19
 -1      4018 1.12241E-04-4.27921E-05-2.96684E-05-3.53219E-06 8.39425E-19 9.72778E-19
 -1      4019 1.11799E-04-4.43628E-05-2.88808E-05-9.59391E-06 8.28272E-19 1.18254E-18
 -1      4020 8.73924E-05-2.20979E-05-2.79763E-05-1.63731E-06-6.56434E-19-1.70935E-18
 -1      4021 8.59646E-05-2.13723E-05-2.77206E-05-2.41477E-06-6.07945E-19-2.16542E-18
 -1      4022 8.66317E-05-2.21738E-05-2.76004E-05-4.19439E-06-5.86622E-19-1.74881E-18
 -1      4023 8.82992E-05-2.28960E-05-2.80063E-05-2.39951E-06 1.70220E-19-2.21965E-18
 -1      4024 8.01808E-05-2.34280E-05-2.43539E-05-1.86781E-05 3.14044E-19 2.95727E-19
 -1      4025 9.52699E-05-2.61049E-05-2.96437E-05 2.24468E-06 8.88631E-20-1.43041E-18
 -1      4026 9.54552E-05-2.67044E-05-2.94584E-05 2.75101E-06 8.96449E-20-1.19177E-18
 -1      4027 9.50769E-05-2.65604E-05-2.93774E-05 3.00112E-06 2.74690E-19-1.09240E-18
 -1      4028 9.47075E-05-2.52056E-05-2.97949E-05 1.95164E-06 3.85458E-19-1.20237E-18
 -1      4029 9.97225E-05-3.87621E-05-2.59680E-05 2.12516E-05 1.43089E-18 2.18467E-19
 -1      4030 9.59709E-05-3.51108E-05-2.60638E-05 1.92012E-05 1.48519E-18-7.34607E-20
 -1      4031 1.07643E-04-4.57333E-05-2.64052E-05 2.26797E-05 1.10207E-18 9.14702E-19
 -1      4032 1.02550E-04-4.17349E-05-2.60382E-05 2.22768E-05 1.33904E-18 3.59245E-19
 -1      4033 1.04280E-04-4.17074E-05-2.69935E-05 1.82745E-05 1.20104E-18 4.55730E-19
 -1      4034 1.10952E-04-4.67042E-05-2.75486E-05 1.82858E-05 7.64000E-19 1.43212E-18
 -1      4035 8.68188E-05-2.19606E-05-2.78550E-05 2.98951E-06 5.15676E-19-4.05798E-19
 -1      4036 8.83452E-05-2.25102E-05-2.82073E-05 2.04400E-06 2.16128E-19-4.72125E-19
 -1      4037 8.75498E-05-2.28401E-05-2.76707E-05 5.20316E-06 3.72707E-19-8.21316E-20
 -1      4038 1.21490E-04-5.00721E-05-3.05464E-05 7.44146E-06 6.49640E-19 1.19025E-18
 -1      4039 1.16931E-04-4.85752E-05-2.93075E-05 1.10741E-05 3.41677E-19 1.45344E-18
 -1      4040 1.08649E-04-2.31423E-05-3.68324E-05 1.04857E-05-2.27349E-19-8.74528E-19
 -1      4041 9.35388E-05-2.28118E-05-3.03191E-05 7.18608E-07 7.95875E-19-1.05460E-18
 -1      4042 9.36636E-05-2.28954E-05-3.03287E-05 8.27039E-07 7.55897E-19-1.25076E-18
 -1      4043 9.51921E-05-2.84354E-05-2.86099E-05 5.04661E-08 4.28817E-19-3.28439E-18
 -1      4044 9.00076E-05-2.37557E-05-2.84167E-05-1.18715E-07 1.60820E-19-2.20419E-18
 -1      4045 8.98187E-05-2.37524E-05-2.82934E-05-1.18739E-06 3.76921E-20-2.68104E-18
 -1      4046 9.07953E-05-2.42898E-05-2.85033E-05 9.31043E-08-3.18608E-19-2.05468E-18
 -1      4047 8.99528E-05-2.27351E-05-2.88377E-05-1.62237E-06 4.56607E-19-7.05611E-19
 -1      4048 9.10321E-05-2.32656E-05-2.90464E-05-1.61261E-06 3.03147E-19-5.27622E-19
 -1      4049 8.94842E-05-2.25498E-05-2.86515E-05-1.55897E-07 2.67540E-19-6.32847E-19
 -1      4050 9.21827E-05-2.54205E-05-2.86007E-05 2.51523E-08-3.68652E-20-1.24717E-18
 -1      4051 9.19772E-05-2.51959E-05-2.86226E-05 4.22195E-07 9.60245E-20-1.26787E-18
 -1      4052 9.13966E-05-2.47568E-05-2.85760E-05 3.41989E-07-5.53665E-19-1.87175E-18
 -1      4053 9.18559E-05-2.36272E-05-2.92634E-05-1.69702E-06 3.93373E-19-3.61781E-19
 -1      4054 9.25897E-05-2.38769E-05-2.94479E-05-1.47078E-06 6.08355E-19-3.07988E-19
 -1      4055 9.27556E-05-2.37379E-05-2.95698E-05-7.53540E-07 7.19049E-19-2.02591E-19
 -1      4056 9.14223E-05-2.33927E-05-2.91366E-05-7.09424E-07 4.47777E-19-3.61199E-19
 -1      4057 9.51732E-05-2.84084E-05-2.86135E-05 4.80960E-08 1.68231E-18-2.45125E-18
 -1      4058 9.32176E-05-2.13020E-05-3.08341E-05 7.46935E-07 1.05855E-18-1.08259E-18
 -1      4059 9.60959E-05-3.39277E-05-2.65764E-05-1.64974E-05-3.59946E-19-1.08451E-18
 -1      4060 8.47780E-05-2.51741E-05-2.54369E-05-1.61757E-05-3.29057E-19-1.24587E-19
 -1      4061 9.51639E-05-2.83998E-05-2.86136E-05 3.29518E-08 1.98182E-18 4.45684E-20
 -1      4062 9.51445E-05-2.83641E-05-2.86199E-05 4.46837E-08 2.71259E-18 5.75442E-19
 -1      4063 9.51586E-05-2.83939E-05-2.86137E-05 2.20071E-08 2.99709E-18 4.43008E-18
 -1      4064 9.51879E-05-2.84467E-05-2.86034E-05-1.27320E-08 1.57569E-18 2.40750E-18
 -1      4065 9.36146E-05-2.29245E-05-3.02789E-05 2.04417E-07 1.08290E-18-8.07783E-19
 -1      4066 9.34405E-05-2.22732E-05-3.05067E-05 5.20817E-07 1.12482E-18-8.48735E-19
 -1      4067 9.81376E-05-3.59237E-05-2.68342E-05 1.65279E-05 1.32684E-18 1.19445E-20
 -1      4068 9.30981E-05-3.18306E-05-2.61088E-05 1.74870E-05 1.65762E-18-4.98636E-19
 -1      4069 1.10566E-04-4.20100E-05-2.93738E-05-4.53618E-06 5.85296E-19 1.51803E-18
 -1      4070 1.08231E-04-4.05775E-05-2.89164E-05-5.88593E-06 6.35997E-19 8.61527E-19
 -1      4071 9.40865E-05-2.38924E-05-3.00688E-05 1.19875E-06 5.51917E-19-1.14178E-18
 -1      4072 1.20548E-04-4.74788E-05-3.13858E-05 2.44827E-06 2.15744E-19 1.45631E-18
 -1      4073 9.51583E-05-2.83960E-05-2.86126E-05-2.65863E-08 1.87374E-19 1.58021E-18
 -1      4074 9.33956E-05-2.33174E-05-3.00455E-05-1.91827E-08 8.37146E-19-5.85616E-19
 -1      4075 9.07738E-05-2.94237E-05-2.62683E-05 1.55083E-05 1.56540E-18-4.34124E-19
 -1      4076 9.33964E-05-2.19222E-05-3.06168E-05 6.03318E-07 1.05161E-18-9.62677E-19
 -1      4077 1.06110E-04-3.99097E-05-2.84596E-05-8.72991E-06-1.61062E-19-2.54277E-19
 -1      4078 9.51334E-05-2.83548E-05-2.86191E-05-3.01712E-08 6.53538E-19 3.42255E-19
 -1      4079 9.51534E-05-2.83885E-05-2.86135E-05-6.62111E-09 1.09236E-18 2.05504E-18
 -1      4080 9.49723E-05-2.80070E-05-2.87019E-05 5.15270E-06-1.66454E-19-7.72345E-19
 -1      4081 9.53877E-05-2.87189E-05-2.85453E-05 5.85925E-06-3.28544E-20-6.90902E-19
 -1      4082 9.56497E-05-2.94876E-05-2.83567E-05 6.86632E-06 1.76142E-20-5.79295E-19
 -1      4083 9.64568E-05-3.05261E-05-2.82275E-05 7.62638E-06 6.43489E-20-5.96656E-19
 -1      4084 9.43624E-05-2.82319E-05-2.83478E-05 6.60280E-06 6.00707E-20-8.15445E-19
 -1      4085 9.72061E-05-3.16899E-05-2.80607E-05 8.77560E-06 3.48313E-19-5.18942E-19
 -1      4086 9.86714E-05-3.32195E-05-2.80061E-05 9.44583E-06 6.03815E-19-9.49885E-20
 -1      4087 9.53292E-05-3.01153E-05-2.79644E-05 8.90102E-06 3.25587E-19-5.61728E-19
 -1      4088 9.86688E-05-3.41342E-05-2.76037E-05 1.18526E-05 8.41306E-19-6.92110E-20
 -1      4089 1.00814E-04-3.62554E-05-2.76208E-05 1.24903E-05 9.32266E-19 2.42079E-19
 -1      4090 1.04070E-04-3.91085E-05-2.76911E-05 1.32826E-05 1.05247E-18 5.73637E-19
 -1      4091 1.07101E-04-4.17187E-05-2.79626E-05 1.31009E-05 1.00451E-18 9.10643E-19
 -1      4092 1.13498E-04-4.66441E-05-2.85884E-05 1.26916E-05 4.06743E-19 1.51312E-18
 -1      4093 8.90447E-05-2.73298E-05-2.63570E-05 1.40035E-05 1.32357E-18-5.31814E-19
 -1      4094 8.78524E-05-2.58817E-05-2.66029E-05 1.19852E-05 9.27040E-19-3.93328E-19
 -1      4095 9.33497E-05-3.06733E-05-2.69028E-05 1.37123E-05 1.29708E-18-5.23791E-19
 -1      4096 1.00581E-04-3.56685E-05-2.77942E-05-1.07395E-05-1.04414E-18-1.67662E-19
 -1      4097 9.84491E-05-3.36428E-05-2.77381E-05-1.01732E-05-6.66422E-19-8.81520E-19
 -1      4098 9.51534E-05-2.83887E-05-2.86138E-05 5.96204E-09 2.52859E-18 2.94974E-18
 -1      4099 9.70171E-05-3.20127E-05-2.78184E-05-8.99581E-06-2.01541E-19-8.25687E-19
 -1      4100 9.56020E-05-3.05845E-05-2.78520E-05-8.21902E-06-2.61373E-19-1.99619E-20
 -1      4101 9.57943E-05-3.18463E-05-2.74903E-05-1.09904E-05-3.80642E-19-3.04088E-19
 -1      4102 9.48802E-05-2.95438E-05-2.79660E-05-7.08529E-06-4.48230E-19 6.65795E-19
 -1      4103 9.40413E-05-2.86308E-05-2.80330E-05-6.30887E-06 6.20526E-19 8.91077E-19
 -1      4104 9.37118E-05-2.91250E-05-2.77256E-05-8.40659E-06 2.19414E-19 1.88069E-19
 -1      4105 9.37593E-05-2.80249E-05-2.81437E-05-5.35882E-06 1.01391E-18 1.20955E-18
 -1      4106 9.33160E-05-2.74947E-05-2.82144E-05-4.67758E-06 9.55807E-19 1.69248E-18
 -1      4107 9.27588E-05-2.75461E-05-2.79762E-05-6.17286E-06 6.64622E-19 1.75082E-18
 -1      4108 9.32920E-05-2.71955E-05-2.83064E-05-3.93418E-06 4.14447E-19 1.55950E-18
 -1      4109 9.31052E-05-2.69319E-05-2.83675E-05-3.38186E-06 1.75259E-19 1.56355E-18
 -1      4110 9.24796E-05-2.67338E-05-2.81932E-05-4.39602E-06 4.33835E-19 1.11206E-18
 -1      4111 9.32193E-05-2.68307E-05-2.84376E-05-2.82787E-06-6.43776E-19 9.33080E-19
 -1      4112 9.31876E-05-2.67399E-05-2.84847E-05-2.40095E-06-6.76385E-19 3.75470E-20
 -1      4113 9.25837E-05-2.64226E-05-2.83632E-05-3.05638E-06-4.85624E-19 5.02168E-19
 -1      4114 9.33607E-05-2.67593E-05-2.85341E-05-1.99739E-06-1.20619E-18 9.76447E-20
 -1      4115 9.34164E-05-2.67761E-05-2.85672E-05-1.67846E-06-1.57738E-18-2.29028E-19
 -1      4116 9.28738E-05-2.64055E-05-2.84875E-05-2.08316E-06-1.37667E-18-5.23657E-19
 -1      4117 9.36096E-05-2.68615E-05-2.85998E-05-1.39497E-06-1.40301E-18-6.02239E-21
 -1      4118 9.37053E-05-2.69368E-05-2.86209E-05-1.16060E-06-1.33931E-18-7.08563E-21
 -1      4119 9.32424E-05-2.65756E-05-2.85714E-05-1.40008E-06-1.48467E-18 3.58060E-20
 -1      4120 9.38902E-05-2.70533E-05-2.86402E-05-9.64995E-07-1.39037E-18-3.28809E-19
 -1      4121 9.39989E-05-2.71555E-05-2.86519E-05-7.95741E-07-1.58037E-18 1.39633E-19
 -1      4122 9.36166E-05-2.68230E-05-2.86242E-05-9.27923E-07-1.26379E-18 5.83523E-19
 -1      4123 9.41634E-05-2.72803E-05-2.86617E-05-6.62411E-07-1.67469E-18-4.14680E-20
 -1      4124 9.42690E-05-2.73895E-05-2.86664E-05-5.41364E-07-1.86319E-18-3.78997E-19
 -1      4125 9.39610E-05-2.70964E-05-2.86538E-05-6.07663E-07-1.64946E-18 1.24949E-18
 -1      4126 9.44082E-05-2.75092E-05-2.86695E-05-4.51675E-07-1.56305E-18-3.98768E-19
 -1      4127 9.45024E-05-2.76138E-05-2.86694E-05-3.65549E-07-1.33088E-18 4.39023E-19
 -1      4128 9.42597E-05-2.73642E-05-2.86669E-05-3.93857E-07-1.16496E-18-9.39137E-21
 -1      4129 9.46158E-05-2.77213E-05-2.86682E-05-3.05799E-07-9.92629E-19 4.07960E-19
 -1      4130 9.46950E-05-2.78150E-05-2.86650E-05-2.44670E-07-1.06650E-18 4.97655E-19
 -1      4131 9.45077E-05-2.76081E-05-2.86688E-05-2.52783E-07-9.12953E-19-4.51682E-19
 -1      4132 9.47846E-05-2.79074E-05-2.86612E-05-2.05160E-07-4.44901E-19 1.23538E-18
 -1      4133 9.48485E-05-2.79876E-05-2.86563E-05-1.61807E-07-2.95695E-20 1.20052E-18
 -1      4134 9.47066E-05-2.78198E-05-2.86637E-05-1.60526E-07-5.86850E-19-5.63100E-19
 -1      4135 9.49172E-05-2.80642E-05-2.86510E-05-1.35852E-07 1.69281E-19 8.54699E-19
 -1      4136 9.49668E-05-2.81305E-05-2.86453E-05-1.05060E-07 2.86903E-19 1.25464E-18
 -1      4137 9.48615E-05-2.79972E-05-2.86545E-05-1.00621E-07 1.45960E-19 9.09810E-19
 -1      4138 9.50181E-05-2.81925E-05-2.86395E-05-8.79365E-08 3.95766E-19 1.12316E-18
 -1      4139 9.50551E-05-2.82457E-05-2.86335E-05-6.65112E-08 5.40188E-19 1.79120E-19
 -1      4140 9.49787E-05-2.81416E-05-2.86433E-05-6.18778E-08 4.14551E-19 3.13991E-19
 -1      4141 9.50839E-05-2.82819E-05-2.86292E-05-5.41667E-08 1.07736E-18 3.97348E-19
 -1      4142 9.51112E-05-2.83245E-05-2.86234E-05-3.97058E-08 1.32185E-18 5.50925E-19
 -1      4143 9.51062E-05-2.83157E-05-2.86243E-05-1.57874E-08 1.02944E-18 1.10765E-18
 -1      4144 9.50555E-05-2.82433E-05-2.86330E-05-3.46037E-08 1.35278E-18 2.49642E-20
 -1      4145 9.34584E-05-2.24988E-05-3.04253E-05 5.11106E-07 9.14399E-19-6.92662E-19
 -1      4146 1.05892E-04-4.03942E-05-2.80974E-05-1.13860E-05 2.51595E-20 4.19812E-19
 -1      4147 1.03086E-04-3.78651E-05-2.78552E-05-1.13799E-05-6.45519E-19-3.36671E-20
 -1      4148 9.37125E-05-2.67907E-05-2.86811E-05 1.09753E-07-1.66978E-18-1.16486E-18
 -1      4149 9.34413E-05-2.65558E-05-2.86719E-05 7.87936E-08-1.22972E-18-1.89437E-18
 -1      4150 9.31691E-05-2.63079E-05-2.86542E-05-2.32088E-08-4.90447E-19-2.00225E-18
 -1      4151 9.28102E-05-2.60255E-05-2.86315E-05-1.09644E-07 3.75406E-19-1.62941E-18
 -1      4152 9.33361E-05-2.64851E-05-2.86458E-05-2.48397E-07-1.01962E-18-1.72684E-18
 -1      4153 9.48558E-05-2.79772E-05-2.86630E-05 1.24064E-07 7.00120E-19 1.64006E-18
 -1      4154 9.47769E-05-2.78824E-05-2.86703E-05 1.46385E-07 5.80265E-19 1.21316E-18
 -1      4155 9.46819E-05-2.77735E-05-2.86759E-05 1.50436E-07 2.83616E-19 1.72299E-18
 -1      4156 9.45726E-05-2.76520E-05-2.86822E-05 1.71890E-07 4.80828E-19 2.08601E-18
 -1      4157 9.47105E-05-2.78101E-05-2.86694E-05 7.03690E-08 3.36019E-19 1.97853E-18
 -1      4158 9.50676E-05-2.82518E-05-2.86360E-05 7.14097E-08 1.75981E-18 1.53999E-18
 -1      4159 9.50277E-05-2.81949E-05-2.86431E-05 8.88514E-08 1.67121E-18 1.64617E-18
 -1      4160 9.51236E-05-2.83341E-05-2.86245E-05 5.08144E-08 2.85145E-18 7.72257E-20
 -1      4161 9.50957E-05-2.82900E-05-2.86311E-05 6.43491E-08 2.29124E-18 1.90697E-18
 -1      4162 9.50664E-05-2.82522E-05-2.86339E-05 4.28645E-08 2.41971E-18 1.31896E-18
 -1      4163 9.51156E-05-2.83249E-05-2.86244E-05 3.16661E-08 2.83584E-18 3.95925E-18
 -1      4164 8.86908E-05-2.54910E-05-2.70755E-05 9.73661E-06 6.63235E-19-3.88730E-19
 -1      4165 8.69784E-05-2.32534E-05-2.72732E-05-7.00704E-06 2.48301E-19-1.09185E-18
 -1      4166 8.58183E-05-2.32027E-05-2.68864E-05-8.76938E-06 4.59981E-19-5.62623E-19
 -1      4167 1.10733E-04-4.30267E-05-2.91032E-05-7.24667E-06 7.59472E-19 1.77832E-18
 -1      4168 9.47594E-05-2.69097E-05-2.90740E-05 3.75732E-06 1.61070E-19-1.02328E-18
 -1      4169 9.49424E-05-2.74730E-05-2.88980E-05 4.35614E-06-3.37551E-20-1.04068E-18
 -1      4170 9.41180E-05-2.70532E-05-2.87505E-05 4.74479E-06 1.22156E-19-1.05035E-18
 -1      4171 8.57469E-05-2.36501E-05-2.65413E-05-1.07395E-05-3.94813E-20-1.39754E-19
 -1      4172 8.42352E-05-2.38925E-05-2.58975E-05-1.35223E-05 1.02384E-20 4.83211E-19
 -1      4173 8.84473E-05-2.76539E-05-2.61546E-05-1.52763E-05-1.97381E-19 5.65338E-19
 -1      4174 8.82080E-05-2.55417E-05-2.68965E-05-1.06886E-05 8.48821E-19 6.97421E-19
 -1      4175 9.97372E-05-3.60788E-05-2.74127E-05-1.33643E-05-8.88071E-19-1.57523E-19
 -1      4176 9.36360E-05-2.39549E-05-2.98698E-05 1.19673E-06 4.96411E-19-1.15512E-18
 -1      4177 9.40922E-05-2.44917E-05-2.98328E-05 1.57352E-06 3.48956E-19-1.08131E-18
 -1      4178 9.42596E-05-2.51413E-05-2.96093E-05 2.05797E-06 2.73972E-19-1.08413E-18
 -1      4179 9.36671E-05-3.14138E-05-2.66190E-05-1.51567E-05-4.84658E-19-5.03720E-20
 -1      4180 1.10353E-04-4.34566E-05-2.85805E-05-1.04498E-05 6.11376E-19 1.48805E-18
 -1      4181 9.49779E-05-2.81304E-05-2.86496E-05 9.69929E-08 8.16396E-19 2.07296E-18
 -1      4182 9.49241E-05-2.80603E-05-2.86567E-05 1.16753E-07 6.10383E-19 2.09807E-18
 -1      4183 9.48726E-05-2.80006E-05-2.86578E-05 6.59184E-08 3.47204E-19 2.07874E-18
 -1      4184 9.49901E-05-2.81488E-05-2.86452E-05 5.52758E-08 8.92504E-19 2.89764E-18
 -1      4185 9.58876E-05-3.21163E-05-2.73607E-05 1.24757E-05 1.05726E-18-4.50287E-19
 -1      4186 1.09798E-04-4.39114E-05-2.81382E-05 1.33492E-05 9.61152E-19 1.21595E-18
 -1      4187 9.38137E-05-3.00352E-05-2.73962E-05 1.13609E-05 8.21154E-19-4.77317E-19
 -1      4188 9.43612E-05-2.56761E-05-2.94316E-05 2.56118E-06 3.34286E-19-1.06194E-18
 -1      4189 9.45269E-05-2.62895E-05-2.92342E-05 3.13259E-06 2.41217E-19-1.09192E-18
 -1      4190 9.38880E-05-2.59784E-05-2.91170E-05 3.26456E-06 2.90626E-19-1.14446E-18
 -1      4191 9.36397E-05-2.49590E-05-2.94559E-05 2.09892E-06 2.95857E-19-1.00424E-18
 -1      4192 9.35905E-05-2.30574E-05-3.02119E-05 6.51993E-07 7.89663E-19-9.36475E-19
 -1      4193 9.51310E-05-2.83506E-05-2.86199E-05 9.50471E-09 1.89329E-18 3.42171E-18
 -1      4194 9.11390E-05-2.46416E-05-2.84858E-05-4.13351E-07-6.51800E-19-2.82341E-18
 -1      4195 8.92828E-05-2.28614E-05-2.85055E-05 1.19112E-06 2.27189E-19-1.84169E-19
 -1      4196 9.04314E-05-2.32851E-05-2.87742E-05 6.98128E-07 4.43130E-19-8.78400E-20
 -1      4197 8.95719E-05-2.33322E-05-2.83463E-05 2.85991E-06 4.20003E-19 5.25260E-22
 -1      4198 9.24827E-05-2.57483E-05-2.85984E-05-2.86266E-07 3.39768E-19-1.96193E-18
 -1      4199 9.20217E-05-2.54219E-05-2.85555E-05-4.62437E-07-4.94250E-19-1.91606E-18
 -1      4200 9.27376E-05-2.60087E-05-2.85938E-05-5.60061E-07-1.52546E-19-1.53514E-18
 -1      4201 9.44901E-05-2.75683E-05-2.86779E-05 6.00884E-08-3.99816E-19 9.83810E-19
 -1      4202 9.44458E-05-2.75146E-05-2.86857E-05 1.67422E-07-1.57848E-19 1.23138E-18
 -1      4203 9.42963E-05-2.73610E-05-2.86895E-05 1.82686E-07-7.45141E-19 8.77135E-19
 -1      4204 8.72262E-05-2.31542E-05-2.75015E-05-5.67115E-06-1.28592E-19-1.81947E-18
 -1      4205 8.86351E-05-2.46439E-05-2.74412E-05-7.34192E-06 6.51051E-19-4.18533E-19
 -1      4206 8.81366E-05-2.33647E-05-2.77376E-05-4.57373E-06 1.95206E-19-1.81401E-18
 -1      4207 9.05588E-05-2.44292E-05-2.83335E-05-1.56725E-06-3.01693E-19-1.89465E-18
 -1      4208 8.98164E-05-2.40477E-05-2.82131E-05-2.09286E-06 1.51262E-19-2.05851E-18
 -1      4209 8.93624E-05-2.37988E-05-2.80840E-05-2.80080E-06 1.67823E-19-2.67285E-18
 -1      4210 8.85641E-05-2.34932E-05-2.79203E-05-3.55382E-06 1.30635E-19-2.18523E-18
 -1      4211 8.93481E-05-2.44086E-05-2.78392E-05-4.93627E-06 3.33982E-20-1.62418E-18
 -1      4212 9.02441E-05-2.45856E-05-2.81408E-05-3.16535E-06 9.77550E-20-1.09468E-18
 -1      4213 9.32388E-05-2.37048E-05-2.97855E-05-1.26944E-08 6.58057E-19-5.02878E-19
 -1      4214 9.34240E-05-2.33125E-05-3.00485E-05 4.93236E-07 7.57454E-19-6.82346E-19
 -1      4215 9.15302E-05-2.76457E-05-2.73458E-05 1.03713E-05 5.91988E-19-7.18865E-19
 -1      4216 8.88121E-05-2.48505E-05-2.74833E-05 7.72771E-06 2.24328E-19-2.94728E-19
 -1      4217 9.34604E-05-2.36351E-05-2.99444E-05 7.18857E-07 7.35787E-19-9.70948E-19
 -1      4218 9.34541E-05-2.40771E-05-2.97116E-05 1.05714E-06 4.85406E-19-9.49457E-19
 -1      4219 9.39274E-05-2.69989E-05-2.86881E-05 1.61219E-07-1.60245E-18-2.55507E-19
 -1      4220 9.38200E-05-2.69096E-05-2.86718E-05-7.03255E-08-2.48550E-18-7.77778E-19
 -1      4221 9.41298E-05-2.71904E-05-2.86891E-05 1.61394E-07-9.40081E-19 3.09548E-19
 -1      4222 9.27284E-05-2.37801E-05-2.95673E-05-5.06535E-08 6.12595E-19-3.22246E-19
 -1      4223 9.30352E-05-2.99073E-05-2.69699E-05-1.27586E-05-4.37409E-19 3.77017E-19
 -1      4224 8.98422E-05-2.48316E-05-2.78563E-05 6.21484E-06 1.54406E-19-3.92422E-19
 -1      4225 9.32418E-05-2.60458E-05-2.88061E-05 3.99347E-06 3.04960E-19-1.36479E-18
 -1      4226 9.32166E-05-2.64608E-05-2.85952E-05 4.83435E-06 1.88606E-19-1.16600E-18
 -1      4227 9.30815E-05-2.79979E-05-2.79368E-05 8.04350E-06 1.45269E-19-6.57056E-19
 -1      4228 9.38220E-05-2.89910E-05-2.77422E-05 9.33690E-06 4.22000E-19-5.91907E-19
 -1      4229 9.22605E-05-2.38482E-05-2.93108E-05 1.46150E-07 4.47499E-19-2.58779E-19
 -1      4230 9.28698E-05-2.39612E-05-2.95264E-05 8.15235E-07 4.87861E-19-3.63258E-19
 -1      4231 9.15916E-05-2.83149E-05-2.71055E-05-1.12636E-05 4.18773E-19 7.01017E-19
 -1      4232 9.15781E-05-2.75092E-05-2.73987E-05-9.32129E-06 6.31605E-19 7.43718E-19
 -1      4233 9.08716E-05-2.65950E-05-2.75472E-05-8.04261E-06 9.01737E-19 1.56372E-18
 -1      4234 9.10717E-05-2.62283E-05-2.77492E-05-6.69547E-06 4.07825E-19 1.04414E-18
 -1      4235 9.08119E-05-2.57601E-05-2.78831E-05-5.66409E-06 2.13355E-19 4.11789E-19
 -1      4236 9.11890E-05-2.56786E-05-2.80473E-05-4.61284E-06 4.06648E-19 4.35168E-19
 -1      4237 9.11760E-05-2.54982E-05-2.81528E-05-3.83431E-06 2.29671E-19-8.45914E-20
 -1      4238 9.15956E-05-2.55856E-05-2.82710E-05-3.09043E-06-4.92406E-19-1.92582E-19
 -1      4239 9.17227E-05-2.55900E-05-2.83500E-05-2.51983E-06-9.74225E-19-1.06458E-18
 -1      4240 9.27088E-05-2.60895E-05-2.85442E-05-1.24424E-06-1.10864E-18-1.19932E-18
 -1      4241 9.29096E-05-2.62375E-05-2.85794E-05-9.75264E-07-5.96640E-19-5.12060E-19
 -1      4242 9.32262E-05-2.64542E-05-2.86123E-05-7.58743E-07-8.12135E-19 3.02964E-19
 -1      4243 9.34144E-05-2.66155E-05-2.86330E-05-5.78446E-07-7.25480E-19 6.94599E-19
 -1      4244 9.36788E-05-2.68207E-05-2.86513E-05-4.44155E-07-1.72330E-18 8.34395E-19
 -1      4245 9.38462E-05-2.69788E-05-2.86618E-05-3.26271E-07-2.05074E-18 8.01167E-19
 -1      4246 9.40563E-05-2.71585E-05-2.86696E-05-2.49592E-07-1.97455E-18 1.17376E-19
 -1      4247 9.41981E-05-2.73025E-05-2.86731E-05-1.73539E-07-1.62948E-18-5.27340E-19
 -1      4248 9.43618E-05-2.74547E-05-2.86743E-05-1.32855E-07-1.08259E-18-1.80586E-19
 -1      4249 9.44774E-05-2.75798E-05-2.86732E-05-8.44423E-08-9.30723E-19-6.09859E-19
 -1      4250 9.46025E-05-2.77054E-05-2.86703E-05-6.53347E-08-2.71453E-19 2.48106E-19
 -1      4251 9.46939E-05-2.78104E-05-2.86665E-05-3.48668E-08-2.37567E-19 3.43024E-19
 -1      4252 9.47879E-05-2.79120E-05-2.86614E-05-2.80141E-08 1.13032E-19 1.17572E-18
 -1      4253 9.48582E-05-2.79977E-05-2.86561E-05-9.10087E-09 6.20506E-19 1.34606E-18
 -1      4254 9.49261E-05-2.80764E-05-2.86501E-05-8.74372E-09 4.00937E-19 1.08472E-18
 -1      4255 9.49787E-05-2.81447E-05-2.86442E-05 2.80643E-09 9.81336E-19 1.29859E-18
 -1      4256 9.14682E-05-2.36596E-05-2.90856E-05 3.42715E-07 4.29105E-19-3.28189E-19
 -1      4257 9.11691E-05-2.48676E-05-2.84325E-05-1.13872E-06-2.61575E-19-1.54645E-18
 -1      4258 9.13183E-05-2.51141E-05-2.83682E-05-1.94648E-06-9.45738E-19-1.14452E-18
 -1      4259 9.22854E-05-2.58853E-05-2.84463E-05-1.99412E-06-8.33241E-19-1.17332E-18
 -1      4260 9.17520E-05-2.52257E-05-2.85057E-05-8.13721E-07-8.38034E-19-1.65727E-18
 -1      4261 9.51093E-05-2.83199E-05-2.86244E-05 1.31274E-08 1.63796E-18 2.03567E-18
 -1      4262 9.30059E-05-2.42952E-05-2.94507E-05 1.34899E-06 2.98636E-19-7.27931E-19
 -1      4263 9.30314E-05-2.71571E-05-2.82038E-05 6.54657E-06 2.79186E-19-7.98811E-19
 -1      4264 9.14912E-05-2.60941E-05-2.80005E-05 6.82849E-06 3.52506E-19-7.07161E-19
 -1      4265 8.98851E-05-2.43101E-05-2.81535E-05 4.64306E-06 4.62710E-19-4.09537E-19
 -1      4266 9.28325E-05-2.65931E-05-2.84143E-05 5.51195E-06 2.66949E-19-1.16353E-18
 -1      4267 9.30040E-05-2.46975E-05-2.92721E-05 1.90548E-06 3.29769E-19-7.30416E-19
 -1      4268 9.24554E-05-2.59778E-05-2.84982E-05-1.60283E-06-1.33846E-18-1.40060E-18
 -1      4269 9.50858E-05-2.82856E-05-2.86288E-05 6.31498E-09 1.50175E-18 1.16899E-18
 -1      4270 9.21384E-05-2.56044E-05-2.85106E-05-1.11607E-06-4.35095E-19-2.01411E-18
 -1      4271 9.08348E-05-2.44720E-05-2.84523E-05 3.66636E-06 5.26840E-19-2.70879E-19
 -1      4272 9.19011E-05-2.54056E-05-2.84686E-05 4.66620E-06 3.54788E-19-9.11250E-19
 -1      4273 9.14899E-05-2.38569E-05-2.89562E-05 1.47726E-06 3.49429E-19-2.05064E-19
 -1      4274 9.50282E-05-2.82065E-05-2.86380E-05 6.58177E-10 1.54100E-18 1.14785E-18
 -1      4275 9.50575E-05-2.82476E-05-2.86335E-05 1.09395E-08 1.69570E-18 1.23414E-18
 -1      4276 9.41988E-05-2.72700E-05-2.86802E-05 2.07795E-08-1.74585E-18 3.92432E-19
 -1      4277 9.30863E-05-2.54568E-05-2.89723E-05 3.27225E-06 2.04225E-19-1.14817E-18
 -1      4278 9.22281E-05-2.46959E-05-2.89573E-05 2.46754E-06 1.66583E-19-8.30130E-19
 -1      4279 9.12435E-05-2.44782E-05-2.86373E-05 3.05577E-06 1.84643E-19-4.93545E-19
 -3
    1PSTEP                         4           1           1          
  100CL  101 1.000000000        4279                     0    1           1
 -4  ERROR       1    1
 -5  STR(%)      1    1    0    0
 -1         1 1.46802E+01
 -1         2 2.48224E+01
 -1         3 5.34672E-04
 -1         4 4.61319E-04
 -1         5 1.31985E+01
 -1         6 1.30793E+01
 -1         7 1.30793E+01
 -1         8 3.62090E+00
 -1         9 1.81263E+00
 -1        10 1.29187E+00
 -1        11 1.04136E+00
 -1        12 8.89280E-01
 -1        13 7.87467E-01
 -1        14 7.19670E-01
 -1        15 7.16496E-01
 -1        16 7.82449E-01
 -1        17 8.78652E-01
 -1        18 1.03882E+00
 -1        19 1.29298E+00
 -1        20 1.82101E+00
 -1        21 3.64898E+00
 -1        22 1.31985E+01
 -1        23 1.30793E+01
 -1        24 4.31096E+00
 -1        25 3.30678E+00
 -1        26 2.06582E+00
 -1        27 1.37340E+00
 -1        28 1.02609E+00
 -1        29 7.68771E-01
 -1        30 5.57648E-01
 -1        31 3.78768E-01
 -1        32 2.79740E-01
 -1        33 2.22812E-01
 -1        34 2.08711E-01
 -1        35 3.61701E-01
 -1        36 5.82236E-01
 -1        37 8.15724E-01
 -1        38 1.24407E+00
 -1        39 1.75137E+00
 -1        40 2.18698E+00
 -1        41 2.39278E+00
 -1        42 2.39278E+00
 -1        43 2.39667E+00
 -1        44 2.39667E+00
 -1        45 2.15695E+00
 -1        46 1.70300E+00
 -1        47 1.19446E+00
 -1        48 8.09446E-01
 -1        49 6.18319E-01
 -1        50 4.15948E-01
 -1        51 3.23999E-01
 -1        52 2.64629E-01
 -1        53 2.26982E-01
 -1        54 2.04000E-01
 -1        55 1.65665E-01
 -1        56 1.23758E-01
 -1        57 1.03616E-01
 -1        58 9.15660E-02
 -1        59 7.61434E-02
 -1        60 6.02440E-02
 -1        61 4.55622E-02
 -1        62 3.70678E-02
 -1        63 3.15069E-02
 -1        64 2.56747E-02
 -1        65 2.00650E-02
 -1        66 1.49306E-02
 -1        67 1.07765E-02
 -1        68 8.43035E-03
 -1        69 5.83371E-03
 -1        70 3.14702E-03
 -1        71 2.44265E-03
 -1        72 1.31985E+01
 -1        73 4.29884E+00
 -1        74 3.38872E+00
 -1        75 2.14436E+00
 -1        76 1.46956E+00
 -1        77 1.15431E+00
 -1        78 9.64696E-01
 -1        79 8.25151E-01
 -1        80 9.15782E-01
 -1        81 1.16702E+00
 -1        82 1.40594E+00
 -1        83 1.80890E+00
 -1        84 2.51195E+00
 -1        85 3.35633E+00
 -1        86 4.41000E+00
 -1        87 4.80606E+00
 -1        88 4.80606E+00
 -1        89 4.26763E+00
 -1        90 9.69654E+00
 -1        91 1.36910E+01
 -1        92 1.36910E+01
 -1        93 1.31021E+01
 -1        94 7.74200E+00
 -1        95 4.39380E+00
 -1        96 4.84150E+00
 -1        97 4.84150E+00
 -1        98 4.21944E+00
 -1        99 3.08263E+00
 -1       100 2.40490E+00
 -1       101 1.69798E+00
 -1       102 1.27454E+00
 -1       103 9.44037E-01
 -1       104 6.80221E-01
 -1       105 4.65922E-01
 -1       106 3.44429E-01
 -1       107 2.39882E-01
 -1       108 1.65931E-01
 -1       109 1.13815E-01
 -1       110 8.79350E-02
 -1       111 6.90173E-02
 -1       112 5.33669E-02
 -1       113 4.06952E-02
 -1       114 3.05660E-02
 -1       115 2.24420E-02
 -1       116 1.58930E-02
 -1       117 1.24383E-02
 -1       118 9.44020E-03
 -1       119 6.31869E-03
 -1       120 3.63768E-03
 -1       121 2.77028E-03
 -1       122 1.72133E-03
 -1       123 6.70255E-04
 -1       124 3.77663E-04
 -1       125 4.92057E-04
 -1       126 4.92057E-04
 -1       127 4.62736E-04
 -1       128 3.64236E-04
 -1       129 2.66810E-04
 -1       130 2.06766E-04
 -1       131 2.49580E-04
 -1       132 3.19270E-04
 -1       133 3.58067E-04
 -1       134 3.58067E-04
 -1       135 2.86042E-04
 -1       136 7.92760E-04
 -1       137 1.51133E-03
 -1       138 2.56023E+01
 -1       139 2.76323E+01
 -1       140 2.86468E+01
 -1       141 2.81132E+01
 -1       142 1.41219E+01
 -1       143 1.40361E+01
 -1       144 1.40735E+01
 -1       145 1.40735E+01
 -1       146 1.36319E+01
 -1       147 1.49180E+01
 -1       148 3.92762E+01
 -1       149 3.92762E+01
 -1       150 2.43749E+01
 -1       151 2.43749E+01
 -1       152 2.45806E+01
 -1       153 2.61126E+01
 -1       154 3.72530E+01
 -1       155 3.72530E+01
 -1       156 1.17323E+01
 -1       157 1.17623E+01
 -1       158 1.18083E+01
 -1       159 1.19035E+01
 -1       160 1.19182E+01
 -1       161 1.19182E+01
 -1       162 2.12022E+01
 -1       163 4.75181E+01
 -1       164 4.75181E+01
 -1       165 2.39152E+01
 -1       166 6.00995E+00
 -1       167 2.28179E+00
 -1       168 1.51156E+00
 -1       169 1.16068E+00
 -1       170 9.65872E-01
 -1       171 8.47192E-01
 -1       172 7.67178E-01
 -1       173 7.15076E-01
 -1       174 7.63658E-01
 -1       175 8.40245E-01
 -1       176 9.64008E-01
 -1       177 1.16066E+00
 -1       178 1.51641E+00
 -1       179 2.29477E+00
 -1       180 6.10572E+00
 -1       181 4.31096E+00
 -1       182 3.30678E+00
 -1       183 2.06582E+00
 -1       184 1.39380E+00
 -1       185 1.02609E+00
 -1       186 7.68771E-01
 -1       187 5.57648E-01
 -1       188 4.05602E-01
 -1       189 2.94104E-01
 -1       190 2.23283E-01
 -1       191 2.11021E-01
 -1       192 2.85539E-01
 -1       193 4.79985E-01
 -1       194 7.24937E-01
 -1       195 9.92976E-01
 -1       196 1.32941E+00
 -1       197 1.75137E+00
 -1       198 2.18698E+00
 -1       199 2.39278E+00
 -1       200 2.33286E+00
 -1       201 2.39667E+00
 -1       202 2.15695E+00
 -1       203 1.70300E+00
 -1       204 1.28432E+00
 -1       205 9.45420E-01
 -1       206 6.67877E-01
 -1       207 4.15948E-01
 -1       208 3.23999E-01
 -1       209 2.64629E-01
 -1       210 2.26982E-01
 -1       211 2.04000E-01
 -1       212 1.65665E-01
 -1       213 1.29426E-01
 -1       214 1.03898E-01
 -1       215 9.15660E-02
 -1       216 7.61434E-02
 -1       217 6.02440E-02
 -1       218 4.70322E-02
 -1       219 3.70678E-02
 -1       220 3.15069E-02
 -1       221 2.56747E-02
 -1       222 2.00650E-02
 -1       223 1.49306E-02
 -1       224 1.07765E-02
 -1       225 8.43035E-03
 -1       226 5.83371E-03
 -1       227 3.52298E-03
 -1       228 2.44265E-03
 -1       229 4.29884E+00
 -1       230 3.38872E+00
 -1       231 2.14436E+00
 -1       232 1.46956E+00
 -1       233 1.15431E+00
 -1       234 9.64696E-01
 -1       235 8.25151E-01
 -1       236 7.29001E-01
 -1       237 9.15782E-01
 -1       238 1.22991E+00
 -1       239 1.80961E+00
 -1       240 2.48735E+00
 -1       241 3.14576E+00
 -1       242 3.63352E+00
 -1       243 4.41000E+00
 -1       244 4.80606E+00
 -1       245 4.38798E+00
 -1       246 4.03487E+00
 -1       247 9.69654E+00
 -1       248 1.36910E+01
 -1       249 1.31021E+01
 -1       250 7.74200E+00
 -1       251 3.98760E+00
 -1       252 4.39380E+00
 -1       253 4.84150E+00
 -1       254 4.21944E+00
 -1       255 3.39077E+00
 -1       256 2.77699E+00
 -1       257 2.13501E+00
 -1       258 1.59047E+00
 -1       259 1.13180E+00
 -1       260 7.80356E-01
 -1       261 5.10274E-01
 -1       262 3.69300E-01
 -1       263 2.64177E-01
 -1       264 1.87420E-01
 -1       265 1.32121E-01
 -1       266 9.23720E-02
 -1       267 6.90173E-02
 -1       268 5.33669E-02
 -1       269 4.06952E-02
 -1       270 3.05660E-02
 -1       271 2.24420E-02
 -1       272 1.67258E-02
 -1       273 1.24383E-02
 -1       274 9.44020E-03
 -1       275 6.31869E-03
 -1       276 3.95372E-03
 -1       277 2.77028E-03
 -1       278 1.50941E-03
 -1       279 1.49578E-03
 -1       280 8.55646E-04
 -1       281 8.55646E-04
 -1       282 8.51656E-04
 -1       283 7.52882E-04
 -1       284 5.58460E-04
 -1       285 3.76065E-04
 -1       286 3.60264E-04
 -1       287 4.91700E-04
 -1       288 5.95531E-04
 -1       289 6.12459E-04
 -1       290 6.52134E-04
 -1       291 6.52134E-04
 -1       292 1.30908E-03
 -1       293 2.91884E+01
 -1       294 3.39866E+01
 -1       295 3.39866E+01
 -1       296 2.86468E+01
 -1       297 1.41219E+01
 -1       298 1.25762E+01
 -1       299 1.40361E+01
 -1       300 1.40735E+01
 -1       301 1.36319E+01
 -1       302 1.20900E+01
 -1       303 1.49180E+01
 -1       304 3.92762E+01
 -1       305 3.50107E+01
 -1       306 2.77033E+01
 -1       307 2.82091E+01
 -1       308 2.82091E+01
 -1       309 3.40467E+01
 -1       310 3.72530E+01
 -1       311 1.53942E+01
 -1       312 1.09030E+01
 -1       313 1.17323E+01
 -1       314 1.17623E+01
 -1       315 1.18083E+01
 -1       316 1.19035E+01
 -1       317 1.19182E+01
 -1       318 1.11003E+01
 -1       319 2.30370E+01
 -1       320 4.75181E+01
 -1       321 2.89504E+01
 -1       322 2.91884E+01
 -1       323 1.06893E+00
 -1       324 2.44410E+00
 -1       325 7.91288E-01
 -1       326 6.90390E-01
 -1       327 6.18585E-01
 -1       328 5.65111E-01
 -1       329 5.62750E-01
 -1       330 6.13286E-01
 -1       331 6.88545E-01
 -1       332 7.90865E-01
 -1       333 9.24665E-01
 -1       334 1.07817E+00
 -1       335 2.43290E+00
 -1       336 2.01721E+01
 -1       337 1.68753E+00
 -1       338 1.20865E+00
 -1       339 8.30481E-01
 -1       340 6.31446E-01
 -1       341 5.05697E-01
 -1       342 3.84602E-01
 -1       343 2.95994E-01
 -1       344 2.33196E-01
 -1       345 2.45426E-01
 -1       346 3.01782E-01
 -1       347 4.10100E-01
 -1       348 5.92815E-01
 -1       349 8.00989E-01
 -1       350 1.06879E+00
 -1       351 1.28761E+00
 -1       352 1.55406E+00
 -1       353 1.70331E+00
 -1       354 1.69227E+00
 -1       355 1.71359E+00
 -1       356 1.70203E+00
 -1       357 1.53184E+00
 -1       358 1.25800E+00
 -1       359 1.02206E+00
 -1       360 7.41764E-01
 -1       361 5.18990E-01
 -1       362 3.20780E-01
 -1       363 1.58670E-01
 -1       364 1.18743E-01
 -1       365 1.40727E-01
 -1       366 1.40424E-01
 -1       367 1.24182E-01
 -1       368 1.08923E-01
 -1       369 9.29471E-02
 -1       370 7.78471E-02
 -1       371 6.13668E-02
 -1       372 4.70322E-02
 -1       373 3.59374E-02
 -1       374 2.63492E-02
 -1       375 1.89088E-02
 -1       376 1.55844E-02
 -1       377 1.25210E-02
 -1       378 9.50145E-03
 -1       379 6.66560E-03
 -1       380 4.74606E-03
 -1       381 3.21256E-03
 -1       382 1.84845E-03
 -1       383 1.23073E+00
 -1       384 1.70159E+00
 -1       385 8.49996E-01
 -1       386 7.07759E-01
 -1       387 5.95715E-01
 -1       388 5.01090E-01
 -1       389 6.55759E-01
 -1       390 1.00116E+00
 -1       391 1.50959E+00
 -1       392 2.15285E+00
 -1       393 2.90227E+00
 -1       394 3.66922E+00
 -1       395 4.30946E+00
 -1       396 5.19773E+00
 -1       397 7.01970E+00
 -1       398 8.68831E+00
 -1       399 1.22369E+01
 -1       400 1.16992E+01
 -1       401 7.49765E+00
 -1       402 7.64816E+00
 -1       403 6.09751E+00
 -1       404 4.68341E+00
 -1       405 4.00203E+00
 -1       406 3.51981E+00
 -1       407 2.80863E+00
 -1       408 2.11283E+00
 -1       409 1.52512E+00
 -1       410 1.07056E+00
 -1       411 7.28237E-01
 -1       412 5.10610E-01
 -1       413 3.42687E-01
 -1       414 2.27100E-01
 -1       415 1.48224E-01
 -1       416 9.47556E-02
 -1       417 6.24347E-02
 -1       418 4.67300E-02
 -1       419 3.27661E-02
 -1       420 2.24808E-02
 -1       421 1.66948E-02
 -1       422 1.24489E-02
 -1       423 9.67985E-03
 -1       424 7.28201E-03
 -1       425 5.04306E-03
 -1       426 3.13172E-03
 -1       427 2.38785E-03
 -1       428 3.83735E+01
 -1       429 1.28397E-03
 -1       430 1.93528E-03
 -1       431 1.11811E-03
 -1       432 1.02281E-03
 -1       433 7.67350E-04
 -1       434 4.46460E-04
 -1       435 2.79530E-04
 -1       436 4.16408E-04
 -1       437 6.54067E-04
 -1       438 7.77894E-04
 -1       439 9.11831E-04
 -1       440 1.35979E-03
 -1       441 3.39866E+01
 -1       442 3.83735E+01
 -1       443 9.20029E-01
 -1       444 8.17656E+00
 -1       445 1.05017E+01
 -1       446 7.09445E+00
 -1       447 1.34926E+01
 -1       448 2.26376E+01
 -1       449 2.85687E+01
 -1       450 3.90353E+01
 -1       451 3.90353E+01
 -1       452 2.52700E+01
 -1       453 2.28689E+01
 -1       454 1.32066E+01
 -1       455 7.52847E+00
 -1       456 8.13417E+00
 -1       457 1.03348E+01
 -1       458 9.91219E+00
 -1       459 1.02744E+01
 -1       460 9.06992E+00
 -1       461 6.17596E+00
 -1       462 9.96058E+00
 -1       463 1.66810E+01
 -1       464 2.89504E+01
 -1       465 2.65437E+01
 -1       466 1.14847E+01
 -1       467 3.54751E+00
 -1       468 1.33093E+01
 -1       469 7.05722E+00
 -1       470 4.84179E-01
 -1       471 5.17041E-01
 -1       472 4.06597E-01
 -1       473 4.34808E-01
 -1       474 4.74676E-01
 -1       475 5.11296E-01
 -1       476 5.21384E-01
 -1       477 5.21384E-01
 -1       478 7.91045E-01
 -1       479 9.76246E+00
 -1       480 7.54431E-01
 -1       481 6.32565E-01
 -1       482 5.00562E-01
 -1       483 3.72988E-01
 -1       484 3.23998E-01
 -1       485 2.67815E-01
 -1       486 2.30486E-01
 -1       487 2.45426E-01
 -1       488 3.01782E-01
 -1       489 4.07644E-01
 -1       490 5.50791E-01
 -1       491 7.06005E-01
 -1       492 9.07274E-01
 -1       493 1.10380E+00
 -1       494 1.20445E+00
 -1       495 1.30926E+00
 -1       496 1.30346E+00
 -1       497 1.23894E+00
 -1       498 1.31515E+00
 -1       499 1.30258E+00
 -1       500 1.18667E+00
 -1       501 1.06193E+00
 -1       502 8.45635E-01
 -1       503 6.18635E-01
 -1       504 4.43567E-01
 -1       505 2.80768E-01
 -1       506 2.09634E-01
 -1       507 1.63027E-01
 -1       508 1.26863E-01
 -1       509 1.26488E-01
 -1       510 1.14954E-01
 -1       511 1.01595E-01
 -1       512 8.65583E-02
 -1       513 7.13830E-02
 -1       514 5.60746E-02
 -1       515 4.21382E-02
 -1       516 3.03013E-02
 -1       517 2.07773E-02
 -1       518 1.35376E-02
 -1       519 9.27028E-03
 -1       520 6.95820E-03
 -1       521 5.56340E-03
 -1       522 4.07165E-03
 -1       523 2.65660E-03
 -1       524 7.35702E-01
 -1       525 3.47292E-01
 -1       526 2.53710E-01
 -1       527 3.99769E-01
 -1       528 6.75108E-01
 -1       529 1.04837E+00
 -1       530 1.55956E+00
 -1       531 2.27606E+00
 -1       532 3.29483E+00
 -1       533 4.78593E+00
 -1       534 5.93108E+00
 -1       535 1.07847E+01
 -1       536 1.15451E+01
 -1       537 6.05586E+00
 -1       538 4.41845E+00
 -1       539 3.15546E+00
 -1       540 2.25457E+00
 -1       541 1.60891E+00
 -1       542 1.14278E+00
 -1       543 8.10074E-01
 -1       544 5.76161E-01
 -1       545 4.01520E-01
 -1       546 2.77565E-01
 -1       547 1.90074E-01
 -1       548 1.28589E-01
 -1       549 8.44690E-02
 -1       550 5.70710E-02
 -1       551 3.62392E-02
 -1       552 2.24808E-02
 -1       553 1.55519E-02
 -1       554 1.21256E-02
 -1       555 9.67985E-03
 -1       556 7.28201E-03
 -1       557 5.04306E-03
 -1       558 3.44817E-03
 -1       559 2.57587E-03
 -1       560 2.27425E+01
 -1       561 9.67482E-04
 -1       562 1.52972E+01
 -1       563 8.04463E-04
 -1       564 7.07146E-04
 -1       565 6.16915E-04
 -1       566 6.58127E-04
 -1       567 8.27805E-04
 -1       568 1.17444E-03
 -1       569 9.95072E-04
 -1       570 2.65437E+01
 -1       571 4.54704E-01
 -1       572 1.38118E-03
 -1       573 1.93975E+01
 -1       574 8.30400E+00
 -1       575 1.65874E+01
 -1       576 1.72701E-03
 -1       577 1.32074E-03
 -1       578 7.09463E+00
 -1       579 8.88798E+00
 -1       580 3.83735E+01
 -1       581 4.45023E-01
 -1       582 5.64631E-01
 -1       583 1.77566E+01
 -1       584 3.48072E+00
 -1       585 2.85687E+01
 -1       586 3.90353E+01
 -1       587 2.52700E+01
 -1       588 9.79941E+00
 -1       589 1.31494E+01
 -1       590 5.55415E+00
 -1       591 7.85639E+00
 -1       592 7.08135E+00
 -1       593 5.33093E+00
 -1       594 5.46490E+00
 -1       595 8.52942E+00
 -1       596 8.51895E-01
 -1       597 5.17041E-01
 -1       598 1.74793E-03
 -1       599 4.72541E-01
 -1       600 1.46199E+01
 -1       601 3.48809E+00
 -1       602 6.77679E+00
 -1       603 3.34372E-01
 -1       604 3.07614E-01
 -1       605 3.59495E-01
 -1       606 3.50982E-01
 -1       607 3.90285E-01
 -1       608 1.41571E+01
 -1       609 1.13219E+01
 -1       610 3.17199E-01
 -1       611 2.86837E-01
 -1       612 2.31094E-01
 -1       613 2.08604E-01
 -1       614 1.96557E-01
 -1       615 2.24647E-01
 -1       616 2.97005E-01
 -1       617 4.07644E-01
 -1       618 5.50791E-01
 -1       619 7.06005E-01
 -1       620 8.74847E-01
 -1       621 1.01350E+00
 -1       622 1.13846E+00
 -1       623 1.23568E+00
 -1       624 1.37313E+00
 -1       625 1.27669E+00
 -1       626 1.29386E+00
 -1       627 1.35471E+00
 -1       628 1.20535E+00
 -1       629 1.10195E+00
 -1       630 9.64664E-01
 -1       631 8.02952E-01
 -1       632 6.18635E-01
 -1       633 4.43567E-01
 -1       634 3.39550E-01
 -1       635 2.49230E-01
 -1       636 1.74115E-01
 -1       637 1.56991E-01
 -1       638 1.36911E-01
 -1       639 1.14954E-01
 -1       640 9.75490E-02
 -1       641 7.97128E-02
 -1       642 6.33569E-02
 -1       643 4.86200E-02
 -1       644 3.60849E-02
 -1       645 2.58905E-02
 -1       646 1.79150E-02
 -1       647 1.19009E-02
 -1       648 7.53570E-03
 -1       649 4.50000E-03
 -1       650 2.89403E-03
 -1       651 2.31113E-03
 -1       652 1.55524E+01
 -1       653 3.20221E-01
 -1       654 1.95585E-01
 -1       655 8.77397E-01
 -1       656 1.39487E+00
 -1       657 2.13100E+00
 -1       658 3.20570E+00
 -1       659 4.82325E+00
 -1       660 6.35285E+00
 -1       661 1.73321E-03
 -1       662 2.95426E+00
 -1       663 5.22482E-01
 -1       664 6.05822E+00
 -1       665 2.01270E+00
 -1       666 1.37660E+00
 -1       667 9.39480E-01
 -1       668 6.39222E-01
 -1       669 4.25366E-01
 -1       670 2.84807E-01
 -1       671 1.98287E-01
 -1       672 1.41055E-01
 -1       673 9.94700E-02
 -1       674 6.97810E-02
 -1       675 4.74230E-02
 -1       676 3.14490E-02
 -1       677 2.02356E-02
 -1       678 1.25039E-02
 -1       679 7.16609E-03
 -1       680 5.44585E-03
 -1       681 4.36351E-03
 -1       682 3.15236E-03
 -1       683 2.16958E-03
 -1       684 1.62446E-03
 -1       685 1.24493E+01
 -1       686 1.38739E+01
 -1       687 1.62446E-03
 -1       688 1.52206E-03
 -1       689 1.34447E-03
 -1       690 1.17444E-03
 -1       691 1.98211E-01
 -1       692 3.52273E-01
 -1       693 1.58327E-03
 -1       694 1.82633E+01
 -1       695 4.11145E+00
 -1       696 4.81823E+00
 -1       697 3.56549E-01
 -1       698 3.43754E+00
 -1       699 3.59495E-01
 -1       700 3.40929E+00
 -1       701 1.68179E+01
 -1       702 8.22247E+00
 -1       703 1.05729E+01
 -1       704 5.37084E+00
 -1       705 3.67505E-01
 -1       706 3.00341E+00
 -1       707 1.54111E+01
 -1       708 5.99203E+00
 -1       709 5.00531E+00
 -1       710 3.22884E-01
 -1       711 2.94780E-01
 -1       712 1.99275E-03
 -1       713 7.99299E+00
 -1       714 1.43923E-03
 -1       715 3.22118E+00
 -1       716 1.34449E-03
 -1       717 5.33008E+00
 -1       718 9.61152E+00
 -1       719 9.41142E+00
 -1       720 2.80749E+00
 -1       721 3.67505E-01
 -1       722 1.99275E-03
 -1       723 4.23509E+00
 -1       724 3.51474E-01
 -1       725 2.28543E-01
 -1       726 2.95351E-01
 -1       727 3.40929E+00
 -1       728 7.13853E+00
 -1       729 1.47292E-01
 -1       730 1.24906E-01
 -1       731 1.32700E-01
 -1       732 1.64965E-01
 -1       733 2.44054E-01
 -1       734 3.38892E-01
 -1       735 4.86998E-01
 -1       736 6.80567E-01
 -1       737 8.74847E-01
 -1       738 1.05965E+00
 -1       739 1.23544E+00
 -1       740 1.23939E+00
 -1       741 1.52450E+00
 -1       742 1.71355E+00
 -1       743 1.54316E+00
 -1       744 1.68380E+00
 -1       745 1.48009E+00
 -1       746 1.19817E+00
 -1       747 1.19796E+00
 -1       748 9.88751E-01
 -1       749 8.02952E-01
 -1       750 6.44922E-01
 -1       751 4.95028E-01
 -1       752 3.49388E-01
 -1       753 2.58349E-01
 -1       754 2.12848E-01
 -1       755 1.72221E-01
 -1       756 1.37760E-01
 -1       757 1.14146E-01
 -1       758 9.08417E-02
 -1       759 6.99194E-02
 -1       760 5.22643E-02
 -1       761 3.87154E-02
 -1       762 2.80294E-02
 -1       763 1.98073E-02
 -1       764 1.36334E-02
 -1       765 9.11643E-03
 -1       766 5.91160E-03
 -1       767 3.70777E-03
 -1       768 2.05415E-03
 -1       769 3.98311E+00
 -1       770 1.61321E+00
 -1       771 1.05325E+00
 -1       772 3.98109E+00
 -1       773 7.08823E+00
 -1       774 2.75005E-03
 -1       775 2.73927E-01
 -1       776 1.62640E+00
 -1       777 1.11904E+00
 -1       778 1.45044E+01
 -1       779 2.44798E+00
 -1       780 7.81263E-01
 -1       781 5.38987E-01
 -1       782 3.70880E-01
 -1       783 2.53878E-01
 -1       784 1.72378E-01
 -1       785 1.16495E-01
 -1       786 7.99978E-02
 -1       787 5.37975E-02
 -1       788 3.53957E-02
 -1       789 2.36110E-02
 -1       790 1.58343E-02
 -1       791 1.03528E-02
 -1       792 6.65644E-03
 -1       793 3.98639E-03
 -1       794 2.60603E-03
 -1       795 8.28960E+00
 -1       796 6.31157E+00
 -1       797 2.01109E-03
 -1       798 2.68181E-03
 -1       799 2.05940E-01
 -1       800 3.10862E-01
 -1       801 3.50992E+00
 -1       802 2.40045E-03
 -1       803 8.20135E+00
 -1       804 4.13364E+00
 -1       805 9.07136E+00
 -1       806 1.09786E+01
 -1       807 2.87285E-03
 -1       808 2.47967E+00
 -1       809 2.48826E-01
 -1       810 3.00341E+00
 -1       811 7.50371E+00
 -1       812 2.86547E+00
 -1       813 1.44842E-01
 -1       814 8.73805E+00
 -1       815 4.74080E+00
 -1       816 3.28886E+00
 -1       817 5.70271E+00
 -1       818 1.09786E+01
 -1       819 6.76161E-01
 -1       820 7.08043E+00
 -1       821 2.48890E-01
 -1       822 4.61185E+00
 -1       823 2.87107E-01
 -1       824 2.76516E-01
 -1       825 4.15795E-01
 -1       826 3.14342E+00
 -1       827 2.69345E+00
 -1       828 1.82828E-01
 -1       829 2.68181E-03
 -1       830 3.56251E+00
 -1       831 2.63033E+00
 -1       832 2.87107E-01
 -1       833 2.87285E-03
 -1       834 3.36268E-01
 -1       835 3.36268E-01
 -1       836 1.39271E-03
 -1       837 9.62591E-02
 -1       838 1.07654E-01
 -1       839 1.55078E-01
 -1       840 2.25610E-01
 -1       841 3.38892E-01
 -1       842 4.86427E-01
 -1       843 6.66642E-01
 -1       844 9.15092E-01
 -1       845 1.10458E+00
 -1       846 1.30697E+00
 -1       847 1.59169E+00
 -1       848 2.08051E+00
 -1       849 2.71077E+00
 -1       850 3.31276E+00
 -1       851 2.62038E+00
 -1       852 3.28886E+00
 -1       853 2.71990E+00
 -1       854 2.57276E+00
 -1       855 1.51832E+00
 -1       856 1.11040E+00
 -1       857 9.20905E-01
 -1       858 6.73253E-01
 -1       859 4.95028E-01
 -1       860 3.84090E-01
 -1       861 2.93043E-01
 -1       862 2.22824E-01
 -1       863 1.76547E-01
 -1       864 1.37892E-01
 -1       865 1.04382E-01
 -1       866 8.20317E-02
 -1       867 6.42959E-02
 -1       868 4.99941E-02
 -1       869 3.73995E-02
 -1       870 2.69357E-02
 -1       871 1.86826E-02
 -1       872 1.27540E-02
 -1       873 8.31378E-03
 -1       874 5.09430E-03
 -1       875 4.42864E+00
 -1       876 7.08823E+00
 -1       877 2.93094E+00
 -1       878 2.76484E-01
 -1       879 7.21028E-01
 -1       880 1.01025E+00
 -1       881 3.88832E-01
 -1       882 2.80268E-01
 -1       883 2.00314E-01
 -1       884 1.42373E-01
 -1       885 1.00643E-01
 -1       886 6.92505E-02
 -1       887 4.72730E-02
 -1       888 3.20837E-02
 -1       889 2.12215E-02
 -1       890 1.37201E-02
 -1       891 8.56863E-03
 -1       892 4.90499E-03
 -1       893 3.65605E-03
 -1       894 1.66301E-01
 -1       895 3.31276E+00
 -1       896 4.13688E-03
 -1       897 1.99561E-01
 -1       898 6.31157E+00
 -1       899 2.46284E-01
 -1       900 1.73483E+00
 -1       901 2.52091E+00
 -1       902 6.19602E+00
 -1       903 4.13688E-03
 -1       904 5.17196E+00
 -1       905 3.89669E-03
 -1       906 3.31276E+00
 -1       907 2.60922E+00
 -1       908 2.65968E+00
 -1       909 1.55127E+00
 -1       910 5.98687E+00
 -1       911 5.35875E-01
 -1       912 1.42507E-01
 -1       913 1.14928E+00
 -1       914 4.22266E+00
 -1       915 7.61083E-01
 -1       916 2.78554E-03
 -1       917 5.15165E+00
 -1       918 1.65045E-01
 -1       919 2.10151E-01
 -1       920 3.94281E+00
 -1       921 2.71990E+00
 -1       922 3.91241E-03
 -1       923 2.63033E+00
 -1       924 3.40930E-01
 -1       925 2.50264E+00
 -1       926 7.72320E-03
 -1       927 2.82262E+00
 -1       928 2.71077E+00
 -1       929 2.10151E-01
 -1       930 1.55152E-01
 -1       931 1.82742E-01
 -1       932 1.98443E-01
 -1       933 2.60790E-01
 -1       934 3.59590E-01
 -1       935 5.15792E-01
 -1       936 7.23263E-01
 -1       937 9.15092E-01
 -1       938 1.30629E+00
 -1       939 1.69468E+00
 -1       940 1.74317E+00
 -1       941 2.63033E+00
 -1       942 1.51832E+00
 -1       943 1.25740E+00
 -1       944 9.20905E-01
 -1       945 7.31883E-01
 -1       946 5.51204E-01
 -1       947 4.16601E-01
 -1       948 3.17189E-01
 -1       949 2.31247E-01
 -1       950 1.68742E-01
 -1       951 1.32101E-01
 -1       952 1.03231E-01
 -1       953 8.20317E-02
 -1       954 6.31322E-02
 -1       955 4.71964E-02
 -1       956 3.42886E-02
 -1       957 2.41675E-02
 -1       958 1.64556E-02
 -1       959 1.10201E-02
 -1       960 7.51765E-03
 -1       961 1.96540E-01
 -1       962 2.92120E+00
 -1       963 7.89424E-01
 -1       964 5.14932E-01
 -1       965 1.44096E-01
 -1       966 1.91274E-01
 -1       967 2.61084E-01
 -1       968 1.02817E-01
 -1       969 7.48113E-02
 -1       970 5.33708E-02
 -1       971 3.72466E-02
 -1       972 2.56458E-02
 -1       973 1.75932E-02
 -1       974 1.17661E-02
 -1       975 7.45465E-03
 -1       976 4.86140E-03
 -1       977 1.22096E+00
 -1       978 1.93392E-01
 -1       979 4.42864E+00
 -1       980 2.09890E+00
 -1       981 5.95316E+00
 -1       982 4.15655E+00
 -1       983 5.51820E-01
 -1       984 2.71796E-03
 -1       985 2.17970E+00
 -1       986 2.97120E+00
 -1       987 3.38531E+00
 -1       988 3.74444E-01
 -1       989 1.88897E-01
 -1       990 3.28886E+00
 -1       991 1.22124E+00
 -1       992 2.88055E+00
 -1       993 8.39477E-01
 -1       994 3.26275E+00
 -1       995 2.57276E+00
 -1       996 1.88897E-01
 -1       997 1.99561E-01
 -1       998 2.82696E-01
 -1       999 3.52748E+00
 -1      1000 2.20300E+00
 -1      1001 1.30589E-01
 -1      1002 8.47191E-03
 -1      1003 1.20070E-01
 -1      1004 8.47191E-03
 -1      1005 2.77697E-01
 -1      1006 3.48654E-01
 -1      1007 4.14403E-01
 -1      1008 5.93647E-01
 -1      1009 7.57337E-01
 -1      1010 1.41666E+00
 -1      1011 2.45998E+00
 -1      1012 2.44018E+00
 -1      1013 2.32860E+00
 -1      1014 2.13329E+00
 -1      1015 2.97120E+00
 -1      1016 1.39492E+00
 -1      1017 1.05723E+00
 -1      1018 8.18114E-01
 -1      1019 6.18300E-01
 -1      1020 4.37766E-01
 -1      1021 3.02851E-01
 -1      1022 2.25212E-01
 -1      1023 1.68742E-01
 -1      1024 1.32101E-01
 -1      1025 1.00734E-01
 -1      1026 7.52234E-02
 -1      1027 5.50744E-02
 -1      1028 3.95239E-02
 -1      1029 2.77483E-02
 -1      1030 1.89944E-02
 -1      1031 1.25962E-02
 -1      1032 9.77046E-03
 -1      1033 7.72320E-03
 -1      1034 1.56503E-01
 -1      1035 1.11677E-01
 -1      1036 2.10926E-01
 -1      1037 5.51119E-02
 -1      1038 3.84115E-02
 -1      1039 2.75641E-02
 -1      1040 1.92995E-02
 -1      1041 1.35444E-02
 -1      1042 1.08343E-02
 -1      1043 1.52172E+00
 -1      1044 2.92120E+00
 -1      1045 7.89043E-02
 -1      1046 3.32096E+00
 -1      1047 5.51820E-01
 -1      1048 2.17970E+00
 -1      1049 1.28271E+00
 -1      1050 3.32096E+00
 -1      1051 2.20814E+00
 -1      1052 7.89424E-01
 -1      1053 3.04484E-01
 -1      1054 2.85478E+00
 -1      1055 2.68796E+00
 -1      1056 1.03374E+00
 -1      1057 2.77697E-01
 -1      1058 3.86894E-01
 -1      1059 6.12466E-01
 -1      1060 2.90664E-01
 -1      1061 4.25504E-01
 -1      1062 9.08624E-03
 -1      1063 1.93392E-01
 -1      1064 2.45998E+00
 -1      1065 1.99860E+00
 -1      1066 8.49668E-03
 -1      1067 6.42181E-01
 -1      1068 9.41150E-01
 -1      1069 1.16970E+00
 -1      1070 1.98783E+00
 -1      1071 2.21211E+00
 -1      1072 1.64235E+00
 -1      1073 1.14957E+00
 -1      1074 8.76478E-01
 -1      1075 6.39258E-01
 -1      1076 4.41124E-01
 -1      1077 2.59159E-01
 -1      1078 2.17119E-01
 -1      1079 1.58228E-01
 -1      1080 1.12949E-01
 -1      1081 8.00573E-02
 -1      1082 5.62569E-02
 -1      1083 3.90874E-02
 -1      1084 2.66991E-02
 -1      1085 1.80667E-02
 -1      1086 9.82016E-03
 -1      1087 1.42296E-01
 -1      1088 2.11618E-01
 -1      1089 3.45667E-02
 -1      1090 4.85854E-02
 -1      1091 1.59971E-02
 -1      1092 1.08343E-02
 -1      1093 1.54612E+00
 -1      1094 3.90372E-01
 -1      1095 2.17741E+00
 -1      1096 3.11493E-01
 -1      1097 2.35322E-02
 -1      1098 4.07149E-01
 -1      1099 6.12466E-01
 -1      1100 2.59159E-01
 -1      1101 6.69752E-02
 -1      1102 1.14957E+00
 -1      1103 6.39258E-01
 -1      1104 8.76478E-01
 -1      1105 3.11493E-01
 -1      1106 1.30901E+00
 -1      1107 9.33928E-02
 -1      1108 5.66260E-01
 -1      1109 5.12447E-01
 -1      1110 4.41124E-01
 -1      1111 7.48849E-01
 -1      1112 1.30793E+01
 -1      1113 8.35011E+00
 -1      1114 2.71676E+00
 -1      1115 1.55225E+00
 -1      1116 1.16662E+00
 -1      1117 9.65321E-01
 -1      1118 8.38374E-01
 -1      1119 7.53568E-01
 -1      1120 7.18083E-01
 -1      1121 7.49472E-01
 -1      1122 8.30550E-01
 -1      1123 9.58735E-01
 -1      1124 1.16590E+00
 -1      1125 1.55700E+00
 -1      1126 2.73500E+00
 -1      1127 8.42375E+00
 -1      1128 1.31985E+01
 -1      1129 1.30793E+01
 -1      1130 8.69514E+00
 -1      1131 3.80887E+00
 -1      1132 2.68630E+00
 -1      1133 1.71961E+00
 -1      1134 1.19975E+00
 -1      1135 8.97429E-01
 -1      1136 6.63209E-01
 -1      1137 4.68208E-01
 -1      1138 3.29254E-01
 -1      1139 2.51276E-01
 -1      1140 2.15762E-01
 -1      1141 2.85206E-01
 -1      1142 4.71968E-01
 -1      1143 6.98980E-01
 -1      1144 1.02990E+00
 -1      1145 1.49772E+00
 -1      1146 1.96918E+00
 -1      1147 2.28988E+00
 -1      1148 2.39278E+00
 -1      1149 2.39472E+00
 -1      1150 2.39667E+00
 -1      1151 2.27681E+00
 -1      1152 1.92998E+00
 -1      1153 1.44873E+00
 -1      1154 1.00195E+00
 -1      1155 7.13883E-01
 -1      1156 5.17134E-01
 -1      1157 3.69973E-01
 -1      1158 2.94314E-01
 -1      1159 2.45806E-01
 -1      1160 2.15491E-01
 -1      1161 1.84833E-01
 -1      1162 1.44712E-01
 -1      1163 1.13687E-01
 -1      1164 9.75908E-02
 -1      1165 8.38547E-02
 -1      1166 6.81937E-02
 -1      1167 5.29031E-02
 -1      1168 4.13150E-02
 -1      1169 3.42874E-02
 -1      1170 2.85908E-02
 -1      1171 2.28699E-02
 -1      1172 1.74978E-02
 -1      1173 1.28536E-02
 -1      1174 9.60344E-03
 -1      1175 7.13203E-03
 -1      1176 4.49036E-03
 -1      1177 2.79483E-03
 -1      1178 1.45199E-03
 -1      1179 1.31985E+01
 -1      1180 8.74868E+00
 -1      1181 3.84378E+00
 -1      1182 2.76654E+00
 -1      1183 1.80696E+00
 -1      1184 1.31193E+00
 -1      1185 1.05950E+00
 -1      1186 8.94924E-01
 -1      1187 8.70466E-01
 -1      1188 1.04140E+00
 -1      1189 1.28648E+00
 -1      1190 1.60742E+00
 -1      1191 2.16042E+00
 -1      1192 2.93414E+00
 -1      1193 3.88316E+00
 -1      1194 4.60803E+00
 -1      1195 4.80606E+00
 -1      1196 4.53685E+00
 -1      1197 6.98209E+00
 -1      1198 1.16938E+01
 -1      1199 1.36910E+01
 -1      1200 1.33966E+01
 -1      1201 1.04221E+01
 -1      1202 6.06790E+00
 -1      1203 4.61765E+00
 -1      1204 4.84150E+00
 -1      1205 4.53047E+00
 -1      1206 3.65104E+00
 -1      1207 2.74377E+00
 -1      1208 2.05144E+00
 -1      1209 1.48626E+00
 -1      1210 1.10929E+00
 -1      1211 8.12129E-01
 -1      1212 5.73071E-01
 -1      1213 4.05175E-01
 -1      1214 2.92156E-01
 -1      1215 2.02906E-01
 -1      1216 1.39873E-01
 -1      1217 1.00875E-01
 -1      1218 7.84762E-02
 -1      1219 6.11921E-02
 -1      1220 4.70310E-02
 -1      1221 3.56306E-02
 -1      1222 2.65040E-02
 -1      1223 1.91675E-02
 -1      1224 1.41657E-02
 -1      1225 1.09393E-02
 -1      1226 7.87944E-03
 -1      1227 4.97818E-03
 -1      1228 3.20398E-03
 -1      1229 1.65247E-03
 -1      1230 1.12800E-03
 -1      1231 1.19579E-03
 -1      1232 5.23959E-04
 -1      1233 4.34860E-04
 -1      1234 4.92057E-04
 -1      1235 4.77396E-04
 -1      1236 4.13486E-04
 -1      1237 3.15523E-04
 -1      1238 2.36788E-04
 -1      1239 2.28173E-04
 -1      1240 2.84425E-04
 -1      1241 3.38668E-04
 -1      1242 3.58067E-04
 -1      1243 3.22055E-04
 -1      1244 5.39401E-04
 -1      1245 1.15205E-03
 -1      1246 9.86325E-04
 -1      1247 2.52124E+01
 -1      1248 2.66173E+01
 -1      1249 2.81396E+01
 -1      1250 2.83800E+01
 -1      1251 2.11176E+01
 -1      1252 1.40790E+01
 -1      1253 1.40548E+01
 -1      1254 1.40735E+01
 -1      1255 1.38527E+01
 -1      1256 1.42749E+01
 -1      1257 2.70971E+01
 -1      1258 3.92762E+01
 -1      1259 3.18255E+01
 -1      1260 2.43749E+01
 -1      1261 2.44777E+01
 -1      1262 2.53466E+01
 -1      1263 3.16828E+01
 -1      1264 3.72530E+01
 -1      1265 2.59666E+01
 -1      1266 1.32063E+01
 -1      1267 1.17473E+01
 -1      1268 1.17853E+01
 -1      1269 1.18559E+01
 -1      1270 1.19108E+01
 -1      1271 1.19182E+01
 -1      1272 1.65602E+01
 -1      1273 3.43601E+01
 -1      1274 4.75181E+01
 -1      1275 3.57166E+01
 -1      1276 2.43688E+01
 -1      1277 1.30793E+01
 -1      1278 4.81542E+00
 -1      1279 9.54464E+00
 -1      1280 2.04721E+00
 -1      1281 2.95134E+00
 -1      1282 4.14587E+00
 -1      1283 1.40172E+00
 -1      1284 1.66209E+00
 -1      1285 1.89667E+00
 -1      1286 1.10102E+00
 -1      1287 1.22627E+00
 -1      1288 1.33612E+00
 -1      1289 9.27576E-01
 -1      1290 1.00362E+00
 -1      1291 1.06327E+00
 -1      1292 8.17330E-01
 -1      1293 8.68236E-01
 -1      1294 9.06532E-01
 -1      1295 7.43424E-01
 -1      1296 7.77322E-01
 -1      1297 8.07185E-01
 -1      1298 7.15786E-01
 -1      1299 7.17373E-01
 -1      1300 7.41127E-01
 -1      1301 7.73053E-01
 -1      1302 7.40077E-01
 -1      1303 7.39367E-01
 -1      1304 8.59448E-01
 -1      1305 8.11347E-01
 -1      1306 8.01951E-01
 -1      1307 1.00141E+00
 -1      1308 9.21330E-01
 -1      1309 9.02127E-01
 -1      1310 1.22682E+00
 -1      1311 1.09974E+00
 -1      1312 1.06233E+00
 -1      1313 1.66871E+00
 -1      1314 1.40470E+00
 -1      1315 1.33854E+00
 -1      1316 2.97187E+00
 -1      1317 2.05789E+00
 -1      1318 1.90559E+00
 -1      1319 9.65212E+00
 -1      1320 4.87735E+00
 -1      1321 4.20024E+00
 -1      1322 1.31985E+01
 -1      1323 8.69514E+00
 -1      1324 4.31096E+00
 -1      1325 3.80887E+00
 -1      1326 3.30678E+00
 -1      1327 3.80887E+00
 -1      1328 2.68630E+00
 -1      1329 2.06582E+00
 -1      1330 2.68630E+00
 -1      1331 1.72981E+00
 -1      1332 1.38360E+00
 -1      1333 1.72981E+00
 -1      1334 1.19975E+00
 -1      1335 1.02609E+00
 -1      1336 1.20994E+00
 -1      1337 8.97429E-01
 -1      1338 7.68771E-01
 -1      1339 8.97429E-01
 -1      1340 6.63209E-01
 -1      1341 5.57648E-01
 -1      1342 6.63209E-01
 -1      1343 4.81625E-01
 -1      1344 3.92185E-01
 -1      1345 4.81625E-01
 -1      1346 3.36436E-01
 -1      1347 2.86922E-01
 -1      1348 3.49853E-01
 -1      1349 2.51511E-01
 -1      1350 2.23047E-01
 -1      1351 2.58693E-01
 -1      1352 2.16917E-01
 -1      1353 2.09866E-01
 -1      1354 2.17152E-01
 -1      1355 2.47125E-01
 -1      1356 3.23620E-01
 -1      1357 2.48280E-01
 -1      1358 4.20843E-01
 -1      1359 5.31111E-01
 -1      1360 3.82762E-01
 -1      1361 6.53587E-01
 -1      1362 7.70331E-01
 -1      1363 6.02461E-01
 -1      1364 9.04350E-01
 -1      1365 1.11853E+00
 -1      1366 8.58957E-01
 -1      1367 1.28674E+00
 -1      1368 1.54039E+00
 -1      1369 1.16119E+00
 -1      1370 1.75137E+00
 -1      1371 1.96918E+00
 -1      1372 1.54039E+00
 -1      1373 2.18698E+00
 -1      1374 2.28988E+00
 -1      1375 1.96918E+00
 -1      1376 2.39278E+00
 -1      1377 2.39278E+00
 -1      1378 2.28988E+00
 -1      1379 2.36282E+00
 -1      1380 2.36477E+00
 -1      1381 2.36282E+00
 -1      1382 2.39667E+00
 -1      1383 2.39667E+00
 -1      1384 2.36477E+00
 -1      1385 2.27681E+00
 -1      1386 2.15695E+00
 -1      1387 2.27681E+00
 -1      1388 1.92998E+00
 -1      1389 1.70300E+00
 -1      1390 1.92998E+00
 -1      1391 1.49366E+00
 -1      1392 1.23939E+00
 -1      1393 1.49366E+00
 -1      1394 1.06994E+00
 -1      1395 8.77433E-01
 -1      1396 1.11487E+00
 -1      1397 7.38661E-01
 -1      1398 6.43098E-01
 -1      1399 8.06649E-01
 -1      1400 5.17134E-01
 -1      1401 4.15948E-01
 -1      1402 5.41912E-01
 -1      1403 3.69973E-01
 -1      1404 3.23999E-01
 -1      1405 3.69973E-01
 -1      1406 2.94314E-01
 -1      1407 2.64629E-01
 -1      1408 2.94314E-01
 -1      1409 2.45806E-01
 -1      1410 2.26982E-01
 -1      1411 2.45806E-01
 -1      1412 2.15491E-01
 -1      1413 2.04000E-01
 -1      1414 2.15491E-01
 -1      1415 1.84833E-01
 -1      1416 1.65665E-01
 -1      1417 1.84833E-01
 -1      1418 1.47546E-01
 -1      1419 1.26592E-01
 -1      1420 1.47546E-01
 -1      1421 1.13828E-01
 -1      1422 1.03757E-01
 -1      1423 1.16662E-01
 -1      1424 9.75908E-02
 -1      1425 9.15660E-02
 -1      1426 9.77321E-02
 -1      1427 8.38547E-02
 -1      1428 7.61434E-02
 -1      1429 8.38547E-02
 -1      1430 6.81937E-02
 -1      1431 6.02440E-02
 -1      1432 6.81937E-02
 -1      1433 5.36381E-02
 -1      1434 4.62972E-02
 -1      1435 5.36381E-02
 -1      1436 4.13150E-02
 -1      1437 3.70678E-02
 -1      1438 4.20500E-02
 -1      1439 3.42874E-02
 -1      1440 3.15069E-02
 -1      1441 3.42874E-02
 -1      1442 2.85908E-02
 -1      1443 2.56747E-02
 -1      1444 2.85908E-02
 -1      1445 2.28699E-02
 -1      1446 2.00650E-02
 -1      1447 2.28699E-02
 -1      1448 1.74978E-02
 -1      1449 1.49306E-02
 -1      1450 1.74978E-02
 -1      1451 1.28536E-02
 -1      1452 1.07765E-02
 -1      1453 1.28536E-02
 -1      1454 9.60344E-03
 -1      1455 8.43035E-03
 -1      1456 9.60344E-03
 -1      1457 7.13203E-03
 -1      1458 5.83371E-03
 -1      1459 7.13203E-03
 -1      1460 4.67834E-03
 -1      1461 3.33500E-03
 -1      1462 4.67834E-03
 -1      1463 2.79483E-03
 -1      1464 2.44265E-03
 -1      1465 2.98281E-03
 -1      1466 1.97699E-03
 -1      1467 1.97699E-03
 -1      1468 4.29884E+00
 -1      1469 8.74868E+00
 -1      1470 3.38872E+00
 -1      1471 3.84378E+00
 -1      1472 3.84378E+00
 -1      1473 2.14436E+00
 -1      1474 2.76654E+00
 -1      1475 2.76654E+00
 -1      1476 1.46956E+00
 -1      1477 1.80696E+00
 -1      1478 1.80696E+00
 -1      1479 1.15431E+00
 -1      1480 1.31193E+00
 -1      1481 1.31193E+00
 -1      1482 9.64696E-01
 -1      1483 1.05950E+00
 -1      1484 1.05950E+00
 -1      1485 8.25151E-01
 -1      1486 8.94924E-01
 -1      1487 8.94924E-01
 -1      1488 8.22391E-01
 -1      1489 7.77076E-01
 -1      1490 7.77076E-01
 -1      1491 1.04140E+00
 -1      1492 9.15782E-01
 -1      1493 8.22391E-01
 -1      1494 1.31792E+00
 -1      1495 1.19846E+00
 -1      1496 1.07284E+00
 -1      1497 1.80925E+00
 -1      1498 1.60777E+00
 -1      1499 1.51976E+00
 -1      1500 2.49965E+00
 -1      1501 2.14812E+00
 -1      1502 2.14848E+00
 -1      1503 3.25105E+00
 -1      1504 2.82886E+00
 -1      1505 2.81655E+00
 -1      1506 4.02176E+00
 -1      1507 3.49492E+00
 -1      1508 3.38964E+00
 -1      1509 4.60803E+00
 -1      1510 4.41000E+00
 -1      1511 4.02176E+00
 -1      1512 4.80606E+00
 -1      1513 4.80606E+00
 -1      1514 4.60803E+00
 -1      1515 4.32781E+00
 -1      1516 4.59702E+00
 -1      1517 4.59702E+00
 -1      1518 6.86571E+00
 -1      1519 4.15125E+00
 -1      1520 4.21143E+00
 -1      1521 1.16938E+01
 -1      1522 9.69654E+00
 -1      1523 6.86571E+00
 -1      1524 1.36910E+01
 -1      1525 1.36910E+01
 -1      1526 1.16938E+01
 -1      1527 1.31021E+01
 -1      1528 1.33966E+01
 -1      1529 1.33966E+01
 -1      1530 7.74200E+00
 -1      1531 1.04221E+01
 -1      1532 1.04221E+01
 -1      1533 4.19070E+00
 -1      1534 5.86480E+00
 -1      1535 5.86480E+00
 -1      1536 4.61765E+00
 -1      1537 4.39380E+00
 -1      1538 4.19070E+00
 -1      1539 4.84150E+00
 -1      1540 4.84150E+00
 -1      1541 4.61765E+00
 -1      1542 4.21944E+00
 -1      1543 4.53047E+00
 -1      1544 4.53047E+00
 -1      1545 3.23670E+00
 -1      1546 3.80510E+00
 -1      1547 3.80510E+00
 -1      1548 2.59095E+00
 -1      1549 2.92981E+00
 -1      1550 3.08388E+00
 -1      1551 1.91650E+00
 -1      1552 2.26996E+00
 -1      1553 2.45600E+00
 -1      1554 1.43251E+00
 -1      1555 1.64422E+00
 -1      1556 1.86274E+00
 -1      1557 1.03792E+00
 -1      1558 1.20317E+00
 -1      1559 1.36113E+00
 -1      1560 7.30289E-01
 -1      1561 8.62197E-01
 -1      1562 9.56080E-01
 -1      1563 4.88098E-01
 -1      1564 5.95248E-01
 -1      1565 6.45315E-01
 -1      1566 3.56864E-01
 -1      1567 4.17611E-01
 -1      1568 4.39787E-01
 -1      1569 2.52030E-01
 -1      1570 3.04303E-01
 -1      1571 3.16738E-01
 -1      1572 1.76675E-01
 -1      1573 2.13651E-01
 -1      1574 2.25798E-01
 -1      1575 1.22968E-01
 -1      1576 1.49026E-01
 -1      1577 1.59771E-01
 -1      1578 9.01535E-02
 -1      1579 1.03093E-01
 -1      1580 1.12247E-01
 -1      1581 6.90173E-02
 -1      1582 7.84762E-02
 -1      1583 8.06947E-02
 -1      1584 5.33669E-02
 -1      1585 6.11921E-02
 -1      1586 6.11921E-02
 -1      1587 4.06952E-02
 -1      1588 4.70310E-02
 -1      1589 4.70310E-02
 -1      1590 3.05660E-02
 -1      1591 3.56306E-02
 -1      1592 3.56306E-02
 -1      1593 2.24420E-02
 -1      1594 2.65040E-02
 -1      1595 2.65040E-02
 -1      1596 1.63094E-02
 -1      1597 1.95839E-02
 -1      1598 1.95839E-02
 -1      1599 1.24383E-02
 -1      1600 1.41657E-02
 -1      1601 1.45821E-02
 -1      1602 9.44020E-03
 -1      1603 1.09393E-02
 -1      1604 1.09393E-02
 -1      1605 6.31869E-03
 -1      1606 7.87944E-03
 -1      1607 7.87944E-03
 -1      1608 3.79570E-03
 -1      1609 5.13620E-03
 -1      1610 5.13620E-03
 -1      1611 2.77028E-03
 -1      1612 3.20398E-03
 -1      1613 3.36200E-03
 -1      1614 2.24580E-03
 -1      1615 1.08983E-03
 -1      1616 1.61537E-03
 -1      1617 9.36722E-04
 -1      1618 1.08302E-03
 -1      1619 1.50259E-03
 -1      1620 6.73852E-04
 -1      1621 6.16654E-04
 -1      1622 1.17571E-03
 -1      1623 6.73852E-04
 -1      1624 6.73852E-04
 -1      1625 8.55646E-04
 -1      1626 6.57196E-04
 -1      1627 6.71857E-04
 -1      1628 8.53651E-04
 -1      1629 5.58559E-04
 -1      1630 6.07809E-04
 -1      1631 8.02269E-04
 -1      1632 4.12635E-04
 -1      1633 4.61348E-04
 -1      1634 6.55671E-04
 -1      1635 2.91415E-04
 -1      1636 3.21437E-04
 -1      1637 4.67262E-04
 -1      1638 3.04922E-04
 -1      1639 2.83515E-04
 -1      1640 3.68165E-04
 -1      1641 4.05485E-04
 -1      1642 3.70640E-04
 -1      1643 4.25982E-04
 -1      1644 4.76799E-04
 -1      1645 4.57400E-04
 -1      1646 5.43615E-04
 -1      1647 4.85263E-04
 -1      1648 4.85263E-04
 -1      1649 6.03995E-04
 -1      1650 4.69088E-04
 -1      1651 5.05101E-04
 -1      1652 6.32297E-04
 -1      1653 7.22447E-04
 -1      1654 4.69088E-04
 -1      1655 6.52134E-04
 -1      1656 1.41020E-03
 -1      1657 1.05092E-03
 -1      1658 9.80605E-04
 -1      1659 1.87586E-03
 -1      1660 2.73954E+01
 -1      1661 2.70054E+01
 -1      1662 3.08095E+01
 -1      1663 2.97945E+01
 -1      1664 3.13167E+01
 -1      1665 3.08095E+01
 -1      1666 2.83800E+01
 -1      1667 2.86468E+01
 -1      1668 1.41219E+01
 -1      1669 2.11176E+01
 -1      1670 1.33061E+01
 -1      1671 1.33491E+01
 -1      1672 1.40548E+01
 -1      1673 1.40361E+01
 -1      1674 1.40735E+01
 -1      1675 1.40735E+01
 -1      1676 1.36319E+01
 -1      1677 1.38527E+01
 -1      1678 1.35040E+01
 -1      1679 1.28610E+01
 -1      1680 2.70971E+01
 -1      1681 1.49180E+01
 -1      1682 3.92762E+01
 -1      1683 3.92762E+01
 -1      1684 2.96928E+01
 -1      1685 3.71434E+01
 -1      1686 2.60391E+01
 -1      1687 2.60391E+01
 -1      1688 2.63948E+01
 -1      1689 2.62920E+01
 -1      1690 2.71608E+01
 -1      1691 2.63948E+01
 -1      1692 3.56498E+01
 -1      1693 3.00796E+01
 -1      1694 3.72530E+01
 -1      1695 3.72530E+01
 -1      1696 1.50372E+01
 -1      1697 2.63236E+01
 -1      1698 1.13177E+01
 -1      1699 1.27916E+01
 -1      1700 1.17473E+01
 -1      1701 1.17323E+01
 -1      1702 1.17853E+01
 -1      1703 1.17623E+01
 -1      1704 1.18559E+01
 -1      1705 1.18083E+01
 -1      1706 1.19108E+01
 -1      1707 1.19035E+01
 -1      1708 1.19182E+01
 -1      1709 1.19182E+01
 -1      1710 1.61513E+01
 -1      1711 1.15093E+01
 -1      1712 3.52775E+01
 -1      1713 2.21196E+01
 -1      1714 4.75181E+01
 -1      1715 4.75181E+01
 -1      1716 2.64328E+01
 -1      1717 3.82342E+01
 -1      1718 2.70054E+01
 -1      1719 2.65518E+01
 -1      1720 9.65212E+00
 -1      1721 3.13167E+01
 -1      1722 2.24580E-03
 -1      1723 3.15875E+01
 -1      1724 3.39866E+01
 -1      1725 2.91884E+01
 -1      1726 2.13843E+01
 -1      1727 1.33491E+01
 -1      1728 1.33061E+01
 -1      1729 1.40548E+01
 -1      1730 1.38527E+01
 -1      1731 1.28610E+01
 -1      1732 1.35040E+01
 -1      1733 2.70971E+01
 -1      1734 3.71434E+01
 -1      1735 3.13570E+01
 -1      1736 2.79562E+01
 -1      1737 2.82091E+01
 -1      1738 3.11279E+01
 -1      1739 3.56498E+01
 -1      1740 2.63236E+01
 -1      1741 1.31486E+01
 -1      1742 1.13177E+01
 -1      1743 1.17473E+01
 -1      1744 1.17853E+01
 -1      1745 1.18559E+01
 -1      1746 1.19108E+01
 -1      1747 1.15093E+01
 -1      1748 1.70687E+01
 -1      1749 3.52775E+01
 -1      1750 3.82342E+01
 -1      1751 2.90694E+01
 -1      1752 9.54464E+00
 -1      1753 1.29025E+00
 -1      1754 1.67536E+00
 -1      1755 2.36294E+00
 -1      1756 4.22703E+00
 -1      1757 1.75652E+00
 -1      1758 8.78580E-01
 -1      1759 9.75982E-01
 -1      1760 7.68791E-01
 -1      1761 8.28131E-01
 -1      1762 7.40839E-01
 -1      1763 6.92881E-01
 -1      1764 7.32889E-01
 -1      1765 6.54487E-01
 -1      1766 6.40094E-01
 -1      1767 6.66145E-01
 -1      1768 5.91848E-01
 -1      1769 6.63204E-01
 -1      1770 6.38913E-01
 -1      1771 5.63931E-01
 -1      1772 7.26765E-01
 -1      1773 6.88472E-01
 -1      1774 5.88018E-01
 -1      1775 8.26277E-01
 -1      1776 7.64395E-01
 -1      1777 6.50915E-01
 -1      1778 9.75761E-01
 -1      1779 8.77437E-01
 -1      1780 7.39705E-01
 -1      1781 1.22054E+00
 -1      1782 1.04266E+00
 -1      1783 8.57765E-01
 -1      1784 1.68647E+00
 -1      1785 1.29729E+00
 -1      1786 1.00142E+00
 -1      1787 4.26931E+00
 -1      1788 2.36383E+00
 -1      1789 1.75554E+00
 -1      1790 2.44094E+01
 -1      1791 2.70794E+01
 -1      1792 5.16046E+00
 -1      1793 5.20228E+00
 -1      1794 2.49716E+00
 -1      1795 1.87668E+00
 -1      1796 1.63724E+00
 -1      1797 1.30123E+00
 -1      1798 1.44809E+00
 -1      1799 1.11214E+00
 -1      1800 9.28284E-01
 -1      1801 1.01957E+00
 -1      1802 8.28767E-01
 -1      1803 7.00108E-01
 -1      1804 7.30964E-01
 -1      1805 6.37234E-01
 -1      1806 5.31672E-01
 -1      1807 5.68571E-01
 -1      1808 4.71125E-01
 -1      1809 3.95102E-01
 -1      1810 4.45150E-01
 -1      1811 3.50798E-01
 -1      1812 2.95049E-01
 -1      1813 3.40298E-01
 -1      1814 2.63650E-01
 -1      1815 2.28239E-01
 -1      1816 2.64595E-01
 -1      1817 2.34355E-01
 -1      1818 2.28224E-01
 -1      1819 2.39311E-01
 -1      1820 2.56401E-01
 -1      1821 2.93661E-01
 -1      1822 2.73604E-01
 -1      1823 3.47820E-01
 -1      1824 4.45043E-01
 -1      1825 3.55941E-01
 -1      1826 5.36400E-01
 -1      1827 6.58876E-01
 -1      1828 5.01458E-01
 -1      1829 7.62963E-01
 -1      1830 8.96983E-01
 -1      1831 6.96902E-01
 -1      1832 1.03088E+00
 -1      1833 1.19910E+00
 -1      1834 9.34890E-01
 -1      1835 1.30851E+00
 -1      1836 1.51949E+00
 -1      1837 1.17820E+00
 -1      1838 1.65272E+00
 -1      1839 1.87052E+00
 -1      1840 1.42084E+00
 -1      1841 1.94515E+00
 -1      1842 2.04805E+00
 -1      1843 1.62869E+00
 -1      1844 2.04253E+00
 -1      1845 2.01257E+00
 -1      1846 1.69779E+00
 -1      1847 2.02323E+00
 -1      1848 2.05513E+00
 -1      1849 1.70293E+00
 -1      1850 2.04935E+00
 -1      1851 1.92949E+00
 -1      1852 1.70781E+00
 -1      1853 1.84440E+00
 -1      1854 1.61742E+00
 -1      1855 1.61694E+00
 -1      1856 1.48050E+00
 -1      1857 1.27116E+00
 -1      1858 1.39492E+00
 -1      1859 1.15319E+00
 -1      1860 9.83742E-01
 -1      1861 1.14003E+00
 -1      1862 8.43592E-01
 -1      1863 7.04821E-01
 -1      1864 8.81914E-01
 -1      1865 5.93433E-01
 -1      1866 4.67469E-01
 -1      1867 6.30377E-01
 -1      1868 3.68364E-01
 -1      1869 3.22389E-01
 -1      1870 4.19885E-01
 -1      1871 2.41334E-01
 -1      1872 2.11650E-01
 -1      1873 2.39725E-01
 -1      1874 1.91686E-01
 -1      1875 1.72862E-01
 -1      1876 1.38706E-01
 -1      1877 1.83855E-01
 -1      1878 1.72364E-01
 -1      1879 1.29735E-01
 -1      1880 1.72212E-01
 -1      1881 1.53045E-01
 -1      1882 1.40575E-01
 -1      1883 1.44924E-01
 -1      1884 1.26804E-01
 -1      1885 1.32303E-01
 -1      1886 1.19174E-01
 -1      1887 1.06411E-01
 -1      1888 1.16552E-01
 -1      1889 9.84227E-02
 -1      1890 9.22565E-02
 -1      1891 1.00935E-01
 -1      1892 8.47066E-02
 -1      1893 7.69953E-02
 -1      1894 8.53971E-02
 -1      1895 6.87551E-02
 -1      1896 6.08054E-02
 -1      1897 6.96070E-02
 -1      1898 5.36381E-02
 -1      1899 4.70322E-02
 -1      1900 5.41995E-02
 -1      1901 4.14848E-02
 -1      1902 3.65026E-02
 -1      1903 4.14848E-02
 -1      1904 3.17085E-02
 -1      1905 2.89281E-02
 -1      1906 3.11433E-02
 -1      1907 2.52079E-02
 -1      1908 2.22918E-02
 -1      1909 2.26290E-02
 -1      1910 2.06296E-02
 -1      1911 1.78247E-02
 -1      1912 1.72466E-02
 -1      1913 1.62930E-02
 -1      1914 1.37258E-02
 -1      1915 1.40527E-02
 -1      1916 1.22160E-02
 -1      1917 1.01390E-02
 -1      1918 1.10112E-02
 -1      1919 8.72107E-03
 -1      1920 7.54798E-03
 -1      1921 8.08353E-03
 -1      1922 6.58820E-03
 -1      1923 5.28988E-03
 -1      1924 5.70583E-03
 -1      1925 4.52314E-03
 -1      1926 3.36777E-03
 -1      1927 3.97931E-03
 -1      1928 2.68571E-03
 -1      1929 2.14555E-03
 -1      1930 1.57876E-03
 -1      1931 2.53051E-03
 -1      1932 1.35015E+00
 -1      1933 1.68755E+00
 -1      1934 1.92297E+00
 -1      1935 2.54515E+00
 -1      1936 1.46616E+00
 -1      1937 1.00215E+00
 -1      1938 1.15978E+00
 -1      1939 1.04036E+00
 -1      1940 8.36228E-01
 -1      1941 9.31032E-01
 -1      1942 7.78877E-01
 -1      1943 7.10433E-01
 -1      1944 7.80205E-01
 -1      1945 6.51737E-01
 -1      1946 6.15045E-01
 -1      1947 6.63121E-01
 -1      1948 5.48402E-01
 -1      1949 7.85771E-01
 -1      1950 6.92380E-01
 -1      1951 5.78425E-01
 -1      1952 1.11554E+00
 -1      1953 9.58473E-01
 -1      1954 8.28462E-01
 -1      1955 1.65960E+00
 -1      1956 1.36975E+00
 -1      1957 1.25538E+00
 -1      1958 2.32010E+00
 -1      1959 1.98123E+00
 -1      1960 1.83122E+00
 -1      1961 3.02402E+00
 -1      1962 2.69481E+00
 -1      1963 2.52756E+00
 -1      1964 3.65137E+00
 -1      1965 3.40749E+00
 -1      1966 3.28575E+00
 -1      1967 4.35973E+00
 -1      1968 3.97149E+00
 -1      1969 3.98934E+00
 -1      1970 5.00190E+00
 -1      1971 4.80386E+00
 -1      1972 4.75359E+00
 -1      1973 5.70384E+00
 -1      1974 5.91288E+00
 -1      1975 6.10871E+00
 -1      1976 6.36159E+00
 -1      1977 6.53814E+00
 -1      1978 7.85400E+00
 -1      1979 1.29640E+01
 -1      1980 1.09667E+01
 -1      1981 9.72062E+00
 -1      1982 1.24007E+01
 -1      1983 5.74262E+00
 -1      1984 7.61982E+00
 -1      1985 6.02098E+00
 -1      1986 5.81788E+00
 -1      1987 7.57290E+00
 -1      1988 5.46951E+00
 -1      1989 5.24566E+00
 -1      1990 6.87284E+00
 -1      1991 4.45142E+00
 -1      1992 4.76246E+00
 -1      1993 5.39046E+00
 -1      1994 3.69640E+00
 -1      1995 4.11074E+00
 -1      1996 4.34272E+00
 -1      1997 3.14840E+00
 -1      1998 3.45529E+00
 -1      1999 3.76092E+00
 -1      2000 2.47182E+00
 -1      2001 2.79281E+00
 -1      2002 3.16422E+00
 -1      2003 1.85165E+00
 -1      2004 2.12392E+00
 -1      2005 2.46073E+00
 -1      2006 1.32846E+00
 -1      2007 1.55779E+00
 -1      2008 1.81897E+00
 -1      2009 9.25461E-01
 -1      2010 1.10118E+00
 -1      2011 1.29784E+00
 -1      2012 6.19256E-01
 -1      2013 7.54297E-01
 -1      2014 8.99401E-01
 -1      2015 4.39955E-01
 -1      2016 5.10442E-01
 -1      2017 6.19424E-01
 -1      2018 3.03432E-01
 -1      2019 3.55993E-01
 -1      2020 4.26648E-01
 -1      2021 2.07260E-01
 -1      2022 2.45639E-01
 -1      2023 2.84893E-01
 -1      2024 1.40173E-01
 -1      2025 1.67822E-01
 -1      2026 1.87662E-01
 -1      2027 9.35638E-02
 -1      2028 1.13438E-01
 -1      2029 1.21490E-01
 -1      2030 6.57260E-02
 -1      2031 7.74034E-02
 -1      2032 7.85952E-02
 -1      2033 5.00485E-02
 -1      2034 5.78737E-02
 -1      2035 5.45824E-02
 -1      2036 3.67307E-02
 -1      2037 4.30665E-02
 -1      2038 3.97481E-02
 -1      2039 2.65234E-02
 -1      2040 3.15880E-02
 -1      2041 2.76235E-02
 -1      2042 1.95684E-02
 -1      2043 2.36304E-02
 -1      2044 1.95878E-02
 -1      2045 1.45873E-02
 -1      2046 1.74455E-02
 -1      2047 1.45719E-02
 -1      2048 1.10591E-02
 -1      2049 1.32028E-02
 -1      2050 1.10644E-02
 -1      2051 8.36110E-03
 -1      2052 9.86017E-03
 -1      2053 8.48093E-03
 -1      2054 5.68087E-03
 -1      2055 7.24163E-03
 -1      2056 6.16254E-03
 -1      2057 3.54272E-03
 -1      2058 4.72520E-03
 -1      2059 4.08739E-03
 -1      2060 2.57906E-03
 -1      2061 3.17078E-03
 -1      2062 2.75978E-03
 -1      2063 3.61800E+01
 -1      2064 3.37809E+01
 -1      2065 1.06981E-03
 -1      2066 1.06981E-03
 -1      2067 1.39546E-03
 -1      2068 1.71553E-03
 -1      2069 1.60962E-03
 -1      2070 2.13984E-03
 -1      2071 9.84882E-04
 -1      2072 9.86877E-04
 -1      2073 1.20104E-03
 -1      2074 8.87845E-04
 -1      2075 9.37232E-04
 -1      2076 1.07046E-03
 -1      2077 6.62905E-04
 -1      2078 7.60116E-04
 -1      2079 8.95079E-04
 -1      2080 4.11262E-04
 -1      2081 5.02460E-04
 -1      2082 6.06905E-04
 -1      2083 3.19897E-04
 -1      2084 3.27797E-04
 -1      2085 3.62995E-04
 -1      2086 4.54054E-04
 -1      2087 3.88336E-04
 -1      2088 3.47969E-04
 -1      2089 6.24799E-04
 -1      2090 5.72883E-04
 -1      2091 5.35238E-04
 -1      2092 6.95177E-04
 -1      2093 6.86712E-04
 -1      2094 7.15980E-04
 -1      2095 7.81983E-04
 -1      2096 7.62145E-04
 -1      2097 8.44863E-04
 -1      2098 1.00596E-03
 -1      2099 1.00596E-03
 -1      2100 1.13581E-03
 -1      2101 3.39866E+01
 -1      2102 3.39866E+01
 -1      2103 3.37809E+01
 -1      2104 3.37809E+01
 -1      2105 1.04035E+00
 -1      2106 1.21580E+00
 -1      2107 9.94480E-01
 -1      2108 8.55659E-01
 -1      2109 1.03764E+01
 -1      2110 1.11492E+01
 -1      2111 1.28677E+01
 -1      2112 1.21377E+01
 -1      2113 1.29344E+01
 -1      2114 1.31552E+01
 -1      2115 1.12959E+01
 -1      2116 1.20668E+01
 -1      2117 1.13693E+01
 -1      2118 1.10062E+01
 -1      2119 9.59224E+00
 -1      2120 8.79808E+00
 -1      2121 2.63844E+01
 -1      2122 1.42053E+01
 -1      2123 1.02935E+01
 -1      2124 2.88241E+01
 -1      2125 3.09569E+01
 -1      2126 2.81360E+01
 -1      2127 3.17897E+01
 -1      2128 3.36222E+01
 -1      2129 3.33693E+01
 -1      2130 3.36222E+01
 -1      2131 3.36222E+01
 -1      2132 2.96583E+01
 -1      2133 2.67395E+01
 -1      2134 3.00609E+01
 -1      2135 2.84578E+01
 -1      2136 1.43004E+01
 -1      2137 2.52298E+01
 -1      2138 1.80377E+01
 -1      2139 9.21574E+00
 -1      2140 1.14613E+01
 -1      2141 9.93325E+00
 -1      2142 9.51859E+00
 -1      2143 1.10486E+01
 -1      2144 1.10336E+01
 -1      2145 1.08603E+01
 -1      2146 1.08373E+01
 -1      2147 1.10890E+01
 -1      2148 1.10414E+01
 -1      2149 1.04940E+01
 -1      2150 1.04867E+01
 -1      2151 9.67218E+00
 -1      2152 8.63815E+00
 -1      2153 9.04707E+00
 -1      2154 1.64988E+01
 -1      2155 1.05305E+01
 -1      2156 8.06827E+00
 -1      2157 3.20995E+01
 -1      2158 1.98590E+01
 -1      2159 2.89504E+01
 -1      2160 3.82342E+01
 -1      2161 2.78660E+01
 -1      2162 2.77470E+01
 -1      2163 3.36587E+00
 -1      2164 1.28033E+01
 -1      2165 2.00658E+01
 -1      2166 1.58284E+01
 -1      2167 3.37753E+00
 -1      2168 1.94863E-03
 -1      2169 1.94181E-03
 -1      2170 2.70794E+01
 -1      2171 2.87544E+00
 -1      2172 9.83064E+00
 -1      2173 2.06581E+00
 -1      2174 2.06724E+00
 -1      2175 2.91081E+00
 -1      2176 1.00991E+01
 -1      2177 3.79119E+00
 -1      2178 6.11791E+00
 -1      2179 1.35001E+01
 -1      2180 1.27731E+01
 -1      2181 1.36914E+01
 -1      2182 1.32057E+01
 -1      2183 6.62203E+00
 -1      2184 1.25042E+01
 -1      2185 7.02462E+00
 -1      2186 9.59844E+00
 -1      2187 3.83735E+01
 -1      2188 2.16157E-03
 -1      2189 3.61800E+01
 -1      2190 1.33443E-03
 -1      2191 3.24586E+01
 -1      2192 2.77470E+01
 -1      2193 1.33208E+01
 -1      2194 7.62294E+00
 -1      2195 1.00933E+01
 -1      2196 1.01235E+01
 -1      2197 9.23449E+00
 -1      2198 1.12257E+01
 -1      2199 1.01319E+01
 -1      2200 7.29284E+00
 -1      2201 2.40695E+01
 -1      2202 3.21526E+01
 -1      2203 3.90353E+01
 -1      2204 3.38020E+01
 -1      2205 1.36727E+01
 -1      2206 1.80651E+01
 -1      2207 2.56031E+01
 -1      2208 7.83132E+00
 -1      2209 2.28157E+01
 -1      2210 5.51382E-01
 -1      2211 5.87284E-01
 -1      2212 6.03716E-01
 -1      2213 6.54164E-01
 -1      2214 5.00610E-01
 -1      2215 4.84674E-01
 -1      2216 4.85854E-01
 -1      2217 5.24047E-01
 -1      2218 4.98779E-01
 -1      2219 4.20703E-01
 -1      2220 5.81610E-01
 -1      2221 5.43981E-01
 -1      2222 4.54742E-01
 -1      2223 6.51081E-01
 -1      2224 5.99921E-01
 -1      2225 4.92986E-01
 -1      2226 7.23025E-01
 -1      2227 6.56125E-01
 -1      2228 5.16340E-01
 -1      2229 7.99778E-01
 -1      2230 7.23025E-01
 -1      2231 5.21384E-01
 -1      2232 1.61197E+00
 -1      2233 9.34608E-01
 -1      2234 6.56215E-01
 -1      2235 1.24632E+00
 -1      2236 1.06236E+01
 -1      2237 1.49673E+01
 -1      2238 1.22098E+00
 -1      2239 9.81542E-01
 -1      2240 9.20609E-01
 -1      2241 7.31523E-01
 -1      2242 6.93498E-01
 -1      2243 6.65521E-01
 -1      2244 5.66004E-01
 -1      2245 5.66563E-01
 -1      2246 5.02217E-01
 -1      2247 4.39342E-01
 -1      2248 4.36775E-01
 -1      2249 4.14847E-01
 -1      2250 3.54300E-01
 -1      2251 3.48493E-01
 -1      2252 3.26209E-01
 -1      2253 2.81905E-01
 -1      2254 2.95907E-01
 -1      2255 2.63240E-01
 -1      2256 2.31841E-01
 -1      2257 2.49151E-01
 -1      2258 2.39311E-01
 -1      2259 2.45426E-01
 -1      2260 2.37956E-01
 -1      2261 2.73604E-01
 -1      2262 3.01782E-01
 -1      2263 2.73604E-01
 -1      2264 3.54713E-01
 -1      2265 4.08872E-01
 -1      2266 3.54713E-01
 -1      2267 4.80446E-01
 -1      2268 5.71803E-01
 -1      2269 4.79218E-01
 -1      2270 6.49410E-01
 -1      2271 7.53497E-01
 -1      2272 6.28398E-01
 -1      2273 8.54132E-01
 -1      2274 9.88032E-01
 -1      2275 8.06640E-01
 -1      2276 1.08629E+00
 -1      2277 1.19570E+00
 -1      2278 1.00554E+00
 -1      2279 1.24603E+00
 -1      2280 1.37926E+00
 -1      2281 1.15413E+00
 -1      2282 1.43166E+00
 -1      2283 1.50629E+00
 -1      2284 1.25686E+00
 -1      2285 1.50339E+00
 -1      2286 1.49787E+00
 -1      2287 1.30636E+00
 -1      2288 1.46561E+00
 -1      2289 1.47627E+00
 -1      2290 1.27120E+00
 -1      2291 1.51437E+00
 -1      2292 1.50859E+00
 -1      2293 1.27704E+00
 -1      2294 1.50231E+00
 -1      2295 1.41721E+00
 -1      2296 1.30886E+00
 -1      2297 1.35926E+00
 -1      2298 1.22234E+00
 -1      2299 1.24463E+00
 -1      2300 1.15996E+00
 -1      2301 1.04199E+00
 -1      2302 1.12430E+00
 -1      2303 9.33849E-01
 -1      2304 7.93700E-01
 -1      2305 9.53780E-01
 -1      2306 6.80200E-01
 -1      2307 5.68813E-01
 -1      2308 7.32135E-01
 -1      2309 4.81278E-01
 -1      2310 3.82173E-01
 -1      2311 5.31101E-01
 -1      2312 3.00774E-01
 -1      2313 2.19719E-01
 -1      2314 3.62167E-01
 -1      2315 1.84152E-01
 -1      2316 1.64189E-01
 -1      2317 2.45201E-01
 -1      2318 1.40885E-01
 -1      2319 1.51877E-01
 -1      2320 1.86331E-01
 -1      2321 1.33795E-01
 -1      2322 1.33643E-01
 -1      2323 1.44945E-01
 -1      2324 1.33456E-01
 -1      2325 1.25335E-01
 -1      2326 1.26675E-01
 -1      2327 1.19568E-01
 -1      2328 1.11939E-01
 -1      2329 1.20721E-01
 -1      2330 1.05259E-01
 -1      2331 9.72712E-02
 -1      2332 1.08275E-01
 -1      2333 8.97527E-02
 -1      2334 8.22027E-02
 -1      2335 9.40768E-02
 -1      2336 7.46151E-02
 -1      2337 6.63749E-02
 -1      2338 7.89707E-02
 -1      2339 5.87207E-02
 -1      2340 5.15534E-02
 -1      2341 6.37288E-02
 -1      2342 4.45852E-02
 -1      2343 3.90378E-02
 -1      2344 4.91064E-02
 -1      2345 3.31193E-02
 -1      2346 2.83252E-02
 -1      2347 3.62198E-02
 -1      2348 2.35632E-02
 -1      2349 1.98430E-02
 -1      2350 2.55393E-02
 -1      2351 1.62232E-02
 -1      2352 1.45610E-02
 -1      2353 1.71574E-02
 -1      2354 1.24274E-02
 -1      2355 1.08956E-02
 -1      2356 1.14039E-02
 -1      2357 9.73961E-03
 -1      2358 8.22982E-03
 -1      2359 8.11424E-03
 -1      2360 7.53243E-03
 -1      2361 6.11450E-03
 -1      2362 6.26080E-03
 -1      2363 5.36863E-03
 -1      2364 4.40885E-03
 -1      2365 4.81753E-03
 -1      2366 3.70133E-03
 -1      2367 2.93458E-03
 -1      2368 3.36413E-03
 -1      2369 9.83217E-01
 -1      2370 1.21865E+00
 -1      2371 7.63374E-01
 -1      2372 4.71503E-01
 -1      2373 5.27525E-01
 -1      2374 3.77400E-01
 -1      2375 4.24712E-01
 -1      2376 3.00501E-01
 -1      2377 5.27764E-01
 -1      2378 4.50430E-01
 -1      2379 3.26740E-01
 -1      2380 8.38136E-01
 -1      2381 6.65434E-01
 -1      2382 5.37438E-01
 -1      2383 1.27898E+00
 -1      2384 1.02477E+00
 -1      2385 8.61737E-01
 -1      2386 1.85621E+00
 -1      2387 1.53457E+00
 -1      2388 1.30396E+00
 -1      2389 2.58917E+00
 -1      2390 2.21446E+00
 -1      2391 1.91781E+00
 -1      2392 3.48203E+00
 -1      2393 3.09855E+00
 -1      2394 2.78545E+00
 -1      2395 4.54769E+00
 -1      2396 4.22758E+00
 -1      2397 4.04038E+00
 -1      2398 5.56440E+00
 -1      2399 5.12027E+00
 -1      2400 5.35850E+00
 -1      2401 8.90222E+00
 -1      2402 7.99124E+00
 -1      2403 8.35791E+00
 -1      2404 1.01167E+01
 -1      2405 9.28238E+00
 -1      2406 1.11649E+01
 -1      2407 8.70531E+00
 -1      2408 8.63006E+00
 -1      2409 5.02894E+00
 -1      2410 5.36963E+00
 -1      2411 3.96913E+00
 -1      2412 4.21024E+00
 -1      2413 5.23715E+00
 -1      2414 2.98204E+00
 -1      2415 3.33764E+00
 -1      2416 3.78695E+00
 -1      2417 2.18370E+00
 -1      2418 2.53160E+00
 -1      2419 2.70501E+00
 -1      2420 1.56702E+00
 -1      2421 1.86087E+00
 -1      2422 1.93174E+00
 -1      2423 1.10667E+00
 -1      2424 1.33395E+00
 -1      2425 1.37585E+00
 -1      2426 7.69155E-01
 -1      2427 9.40319E-01
 -1      2428 9.76427E-01
 -1      2429 5.43386E-01
 -1      2430 6.52199E-01
 -1      2431 6.93117E-01
 -1      2432 3.72103E-01
 -1      2433 4.56065E-01
 -1      2434 4.88841E-01
 -1      2435 2.52332E-01
 -1      2436 3.10126E-01
 -1      2437 3.39542E-01
 -1      2438 1.69149E-01
 -1      2439 2.08587E-01
 -1      2440 2.33819E-01
 -1      2441 1.11672E-01
 -1      2442 1.38406E-01
 -1      2443 1.59331E-01
 -1      2444 7.34518E-02
 -1      2445 8.96123E-02
 -1      2446 1.06529E-01
 -1      2447 5.19005E-02
 -1      2448 5.97529E-02
 -1      2449 7.07700E-02
 -1      2450 3.45027E-02
 -1      2451 4.14846E-02
 -1      2452 4.66551E-02
 -1      2453 2.24808E-02
 -1      2454 2.76235E-02
 -1      2455 2.93600E-02
 -1      2456 1.61234E-02
 -1      2457 1.90164E-02
 -1      2458 1.90164E-02
 -1      2459 1.22872E-02
 -1      2460 1.44102E-02
 -1      2461 1.38388E-02
 -1      2462 9.67985E-03
 -1      2463 1.10644E-02
 -1      2464 1.09027E-02
 -1      2465 7.28201E-03
 -1      2466 8.48093E-03
 -1      2467 8.48093E-03
 -1      2468 5.04306E-03
 -1      2469 6.16254E-03
 -1      2470 6.16254E-03
 -1      2471 3.28995E-03
 -1      2472 4.24562E-03
 -1      2473 4.24562E-03
 -1      2474 2.48186E-03
 -1      2475 2.85379E-03
 -1      2476 3.01202E-03
 -1      2477 2.25558E-03
 -1      2478 2.83645E+01
 -1      2479 3.05580E+01
 -1      2480 8.67416E-04
 -1      2481 9.95145E-04
 -1      2482 1.77347E+01
 -1      2483 2.46419E+01
 -1      2484 6.25462E-04
 -1      2485 7.85907E-04
 -1      2486 8.85973E-04
 -1      2487 4.93338E-04
 -1      2488 5.76803E-04
 -1      2489 7.55804E-04
 -1      2490 5.16662E-04
 -1      2491 4.48223E-04
 -1      2492 6.62030E-04
 -1      2493 6.56097E-04
 -1      2494 5.37267E-04
 -1      2495 6.37521E-04
 -1      2496 8.02850E-04
 -1      2497 7.40936E-04
 -1      2498 7.42966E-04
 -1      2499 1.04313E-03
 -1      2500 9.76166E-04
 -1      2501 1.00112E-03
 -1      2502 1.17743E-03
 -1      2503 9.53451E-04
 -1      2504 1.08475E-03
 -1      2505 1.60412E-03
 -1      2506 5.32098E+00
 -1      2507 3.24586E+01
 -1      2508 2.65437E+01
 -1      2509 5.81232E-01
 -1      2510 6.52350E-01
 -1      2511 4.00998E-01
 -1      2512 1.24965E-03
 -1      2513 1.33257E-03
 -1      2514 2.29706E+01
 -1      2515 2.41739E+01
 -1      2516 9.28921E+00
 -1      2517 9.10809E+00
 -1      2518 1.97282E+01
 -1      2519 2.09287E+01
 -1      2520 1.50549E-03
 -1      2521 1.83115E-03
 -1      2522 2.15144E-03
 -1      2523 1.55410E-03
 -1      2524 1.17178E-03
 -1      2525 1.21943E-03
 -1      2526 1.35096E-03
 -1      2527 1.14411E-03
 -1      2528 5.88902E+00
 -1      2529 6.59607E+00
 -1      2530 6.57524E+00
 -1      2531 7.49274E+00
 -1      2532 8.26807E+00
 -1      2533 9.32522E+00
 -1      2534 7.99130E+00
 -1      2535 3.83735E+01
 -1      2536 3.83735E+01
 -1      2537 5.05067E-01
 -1      2538 5.31804E-01
 -1      2539 4.64601E-01
 -1      2540 4.25810E-01
 -1      2541 7.07313E-01
 -1      2542 8.97682E-01
 -1      2543 6.50167E-01
 -1      2544 5.09668E-01
 -1      2545 9.93789E+00
 -1      2546 2.31627E+01
 -1      2547 2.01971E+01
 -1      2548 5.80745E+00
 -1      2549 5.50460E+00
 -1      2550 3.38020E+01
 -1      2551 2.85687E+01
 -1      2552 3.90353E+01
 -1      2553 3.90353E+01
 -1      2554 3.38020E+01
 -1      2555 2.52700E+01
 -1      2556 3.21526E+01
 -1      2557 1.15030E+01
 -1      2558 1.63342E+01
 -1      2559 1.31934E+01
 -1      2560 2.10499E+01
 -1      2561 1.49152E+01
 -1      2562 7.94448E+00
 -1      2563 6.84416E+00
 -1      2564 4.51744E+00
 -1      2565 8.88429E+00
 -1      2566 9.09560E+00
 -1      2567 8.08019E+00
 -1      2568 8.07563E+00
 -1      2569 8.67789E+00
 -1      2570 5.75345E+00
 -1      2571 7.20043E+00
 -1      2572 7.71274E+00
 -1      2573 5.82043E+00
 -1      2574 1.26052E+01
 -1      2575 9.24500E+00
 -1      2576 6.99716E+00
 -1      2577 7.83710E+00
 -1      2578 1.64800E+00
 -1      2579 1.26971E+00
 -1      2580 8.03163E-01
 -1      2581 9.60413E-01
 -1      2582 9.49119E+00
 -1      2583 5.17041E-01
 -1      2584 6.54164E-01
 -1      2585 7.18535E-01
 -1      2586 1.25298E+01
 -1      2587 7.89138E+00
 -1      2588 6.70527E+00
 -1      2589 3.05580E+01
 -1      2590 1.90198E+01
 -1      2591 3.24586E+01
 -1      2592 1.79819E-03
 -1      2593 1.55386E-03
 -1      2594 1.37150E-03
 -1      2595 2.48024E-03
 -1      2596 2.29706E+01
 -1      2597 6.96285E-01
 -1      2598 7.70736E-01
 -1      2599 6.62218E-01
 -1      2600 4.94791E-01
 -1      2601 1.62734E+01
 -1      2602 7.69267E+00
 -1      2603 1.56036E+01
 -1      2604 1.99450E+01
 -1      2605 1.99450E+01
 -1      2606 1.08394E+01
 -1      2607 5.50828E+00
 -1      2608 5.27265E+00
 -1      2609 3.48441E+00
 -1      2610 5.39792E+00
 -1      2611 1.10905E+01
 -1      2612 9.99167E+00
 -1      2613 8.28810E+00
 -1      2614 6.91700E+00
 -1      2615 3.21526E+01
 -1      2616 2.31627E+01
 -1      2617 1.46508E+01
 -1      2618 1.70913E+01
 -1      2619 1.25188E+01
 -1      2620 6.20614E+00
 -1      2621 2.20226E-03
 -1      2622 4.04524E-01
 -1      2623 3.84590E-01
 -1      2624 3.71211E-01
 -1      2625 3.57106E-01
 -1      2626 3.20993E-01
 -1      2627 4.40439E-01
 -1      2628 4.35395E-01
 -1      2629 4.36183E-01
 -1      2630 4.36183E-01
 -1      2631 3.55238E-01
 -1      2632 5.90665E-01
 -1      2633 4.55835E-01
 -1      2634 3.70633E-01
 -1      2635 5.62994E-01
 -1      2636 2.13629E+01
 -1      2637 1.59569E+01
 -1      2638 1.53597E+01
 -1      2639 1.22356E+01
 -1      2640 4.74882E-01
 -1      2641 4.08880E-01
 -1      2642 3.93700E-01
 -1      2643 3.29913E-01
 -1      2644 3.02018E-01
 -1      2645 3.02041E-01
 -1      2646 2.77546E-01
 -1      2647 2.58966E-01
 -1      2648 2.66301E-01
 -1      2649 2.38210E-01
 -1      2650 2.19849E-01
 -1      2651 2.32186E-01
 -1      2652 2.13522E-01
 -1      2653 2.02581E-01
 -1      2654 2.27567E-01
 -1      2655 2.35037E-01
 -1      2656 2.10602E-01
 -1      2657 2.71216E-01
 -1      2658 2.99393E-01
 -1      2659 2.60826E-01
 -1      2660 3.54713E-01
 -1      2661 4.07644E-01
 -1      2662 3.52325E-01
 -1      2663 4.79218E-01
 -1      2664 5.50791E-01
 -1      2665 4.79218E-01
 -1      2666 6.28398E-01
 -1      2667 7.06005E-01
 -1      2668 6.28398E-01
 -1      2669 7.90426E-01
 -1      2670 8.91061E-01
 -1      2671 7.90426E-01
 -1      2672 9.60389E-01
 -1      2673 1.05865E+00
 -1      2674 9.44175E-01
 -1      2675 1.12113E+00
 -1      2676 1.17146E+00
 -1      2677 1.07598E+00
 -1      2678 1.22007E+00
 -1      2679 1.27247E+00
 -1      2680 1.18707E+00
 -1      2681 1.34120E+00
 -1      2682 1.33830E+00
 -1      2683 1.30441E+00
 -1      2684 1.29008E+00
 -1      2685 1.25782E+00
 -1      2686 1.32491E+00
 -1      2687 1.26640E+00
 -1      2688 1.30450E+00
 -1      2689 1.28528E+00
 -1      2690 1.33493E+00
 -1      2691 1.32865E+00
 -1      2692 1.32428E+00
 -1      2693 1.25396E+00
 -1      2694 1.19601E+00
 -1      2695 1.28003E+00
 -1      2696 1.14431E+00
 -1      2697 1.08194E+00
 -1      2698 1.15365E+00
 -1      2699 1.01330E+00
 -1      2700 9.05149E-01
 -1      2701 1.03330E+00
 -1      2702 8.24293E-01
 -1      2703 7.10793E-01
 -1      2704 8.83808E-01
 -1      2705 6.18635E-01
 -1      2706 5.31101E-01
 -1      2707 7.10793E-01
 -1      2708 4.43567E-01
 -1      2709 3.62167E-01
 -1      2710 5.31101E-01
 -1      2711 3.10159E-01
 -1      2712 2.74592E-01
 -1      2713 3.91558E-01
 -1      2714 2.29432E-01
 -1      2715 2.06128E-01
 -1      2716 2.94390E-01
 -1      2717 1.68571E-01
 -1      2718 1.50489E-01
 -1      2719 2.11672E-01
 -1      2720 1.41927E-01
 -1      2721 1.41739E-01
 -1      2722 1.65553E-01
 -1      2723 1.31699E-01
 -1      2724 1.25933E-01
 -1      2725 1.46951E-01
 -1      2726 1.14954E-01
 -1      2727 1.08275E-01
 -1      2728 1.25933E-01
 -1      2729 9.95721E-02
 -1      2730 9.20536E-02
 -1      2731 1.06252E-01
 -1      2732 8.31356E-02
 -1      2733 7.55479E-02
 -1      2734 8.86309E-02
 -1      2735 6.73699E-02
 -1      2736 5.97157E-02
 -1      2737 7.15348E-02
 -1      2738 5.23473E-02
 -1      2739 4.53791E-02
 -1      2740 5.59884E-02
 -1      2741 3.91115E-02
 -1      2742 3.31931E-02
 -1      2743 4.23524E-02
 -1      2744 2.80959E-02
 -1      2745 2.33339E-02
 -1      2746 3.09877E-02
 -1      2747 1.93462E-02
 -1      2748 1.57263E-02
 -1      2749 2.19028E-02
 -1      2750 1.27192E-02
 -1      2751 1.05856E-02
 -1      2752 1.49079E-02
 -1      2753 8.40299E-03
 -1      2754 7.24695E-03
 -1      2755 9.71829E-03
 -1      2756 5.72910E-03
 -1      2757 5.03170E-03
 -1      2758 6.01785E-03
 -1      2759 4.22872E-03
 -1      2760 3.48284E-03
 -1      2761 3.69701E-03
 -1      2762 3.19139E-03
 -1      2763 2.48386E-03
 -1      2764 2.60258E-03
 -1      2765 2.10480E+01
 -1      2766 1.74749E+01
 -1      2767 3.59995E-01
 -1      2768 2.86966E-01
 -1      2769 2.24647E-01
 -1      2770 2.71438E-01
 -1      2771 2.57903E-01
 -1      2772 9.62882E-01
 -1      2773 7.76252E-01
 -1      2774 1.47722E+00
 -1      2775 1.22162E+00
 -1      2776 1.13613E+00
 -1      2777 2.20353E+00
 -1      2778 1.84528E+00
 -1      2779 1.76293E+00
 -1      2780 3.25027E+00
 -1      2781 2.74088E+00
 -1      2782 2.66835E+00
 -1      2783 4.80459E+00
 -1      2784 4.05904E+00
 -1      2785 4.01447E+00
 -1      2786 6.14196E+00
 -1      2787 5.56939E+00
 -1      2788 5.58805E+00
 -1      2789 1.42707E+01
 -1      2790 2.19490E-03
 -1      2791 1.74057E-03
 -1      2792 2.02217E-03
 -1      2793 2.60441E+00
 -1      2794 3.05486E+00
 -1      2795 5.98795E-01
 -1      2796 4.61125E-01
 -1      2797 4.21351E-01
 -1      2798 6.99939E-01
 -1      2799 5.23833E+00
 -1      2800 6.05704E+00
 -1      2801 1.81081E+00
 -1      2802 2.13364E+00
 -1      2803 2.48348E+00
 -1      2804 1.25969E+00
 -1      2805 1.49276E+00
 -1      2806 1.69465E+00
 -1      2807 8.74777E-01
 -1      2808 1.04113E+00
 -1      2809 1.15804E+00
 -1      2810 6.07692E-01
 -1      2811 7.24648E-01
 -1      2812 7.89351E-01
 -1      2813 4.13443E-01
 -1      2814 5.00763E-01
 -1      2815 5.32294E-01
 -1      2816 2.81186E-01
 -1      2817 3.43163E-01
 -1      2818 3.55086E-01
 -1      2819 1.94180E-01
 -1      2820 2.37926E-01
 -1      2821 2.41547E-01
 -1      2822 1.34822E-01
 -1      2823 1.65565E-01
 -1      2824 1.69671E-01
 -1      2825 9.19695E-02
 -1      2826 1.14029E-01
 -1      2827 1.20263E-01
 -1      2828 6.34260E-02
 -1      2829 7.71250E-02
 -1      2830 8.46255E-02
 -1      2831 4.18311E-02
 -1      2832 5.22470E-02
 -1      2833 5.86020E-02
 -1      2834 2.69649E-02
 -1      2835 3.38441E-02
 -1      2836 3.94360E-02
 -1      2837 1.78938E-02
 -1      2838 2.13582E-02
 -1      2839 2.58423E-02
 -1      2840 1.23148E-02
 -1      2841 1.40279E-02
 -1      2842 1.63698E-02
 -1      2843 8.42297E-03
 -1      2844 9.64583E-03
 -1      2845 9.83501E-03
 -1      2846 6.36393E-03
 -1      2847 7.56285E-03
 -1      2848 6.30597E-03
 -1      2849 4.70329E-03
 -1      2850 5.82276E-03
 -1      2851 4.90468E-03
 -1      2852 3.30027E-03
 -1      2853 4.09771E-03
 -1      2854 3.75794E-03
 -1      2855 2.37272E-03
 -1      2856 2.80888E-03
 -1      2857 2.66097E-03
 -1      2858 1.94830E-03
 -1      2859 1.16580E-03
 -1      2860 1.21446E-03
 -1      2861 1.38733E+01
 -1      2862 1.75959E+01
 -1      2863 2.61237E+01
 -1      2864 2.02088E+01
 -1      2865 1.21446E-03
 -1      2866 1.29597E-03
 -1      2867 1.62446E-03
 -1      2868 1.09009E-03
 -1      2869 1.06949E-03
 -1      2870 1.08614E-03
 -1      2871 1.00130E-03
 -1      2872 1.43326E-03
 -1      2873 1.17444E-03
 -1      2874 1.00112E-03
 -1      2875 1.25945E-03
 -1      2876 2.72751E-01
 -1      2877 3.26458E-01
 -1      2878 1.96898E-01
 -1      2879 1.36414E-03
 -1      2880 6.02084E-01
 -1      2881 5.53352E-01
 -1      2882 4.12407E-01
 -1      2883 1.10009E-03
 -1      2884 1.14521E-03
 -1      2885 1.60386E-03
 -1      2886 1.55266E-03
 -1      2887 1.20926E+01
 -1      2888 2.05029E+01
 -1      2889 2.83184E+01
 -1      2890 1.53563E+01
 -1      2891 3.63346E+00
 -1      2892 4.26495E+00
 -1      2893 5.08484E+00
 -1      2894 6.33731E+00
 -1      2895 5.18619E+00
 -1      2896 5.55490E-01
 -1      2897 4.94557E-01
 -1      2898 3.36874E-01
 -1      2899 3.54411E-01
 -1      2900 4.45122E+00
 -1      2901 4.38423E+00
 -1      2902 4.35395E-01
 -1      2903 4.17085E-01
 -1      2904 3.46933E-01
 -1      2905 3.59495E-01
 -1      2906 4.37011E+00
 -1      2907 5.24532E+00
 -1      2908 2.79266E+01
 -1      2909 2.26933E+01
 -1      2910 1.06859E+01
 -1      2911 8.37595E+00
 -1      2912 1.01862E+01
 -1      2913 1.35801E+01
 -1      2914 6.22610E+00
 -1      2915 6.83742E+00
 -1      2916 4.25842E-01
 -1      2917 4.42273E-01
 -1      2918 4.27878E+00
 -1      2919 3.24207E+00
 -1      2920 2.03406E+01
 -1      2921 2.72232E+01
 -1      2922 1.61145E+01
 -1      2923 7.14801E+00
 -1      2924 6.92421E+00
 -1      2925 6.76737E+00
 -1      2926 5.23511E+00
 -1      2927 6.61389E+00
 -1      2928 1.24709E+01
 -1      2929 3.15249E-01
 -1      2930 3.64741E-01
 -1      2931 3.83954E-01
 -1      2932 5.15241E-01
 -1      2933 3.42532E-01
 -1      2934 4.29706E-01
 -1      2935 1.34371E+01
 -1      2936 9.77218E+00
 -1      2937 1.65674E-03
 -1      2938 1.68697E-03
 -1      2939 4.39007E+00
 -1      2940 3.53286E+00
 -1      2941 1.47132E+01
 -1      2942 1.45382E-03
 -1      2943 9.38887E+00
 -1      2944 6.96203E+00
 -1      2945 1.06686E+01
 -1      2946 1.20336E-03
 -1      2947 1.37999E-03
 -1      2948 1.71599E-03
 -1      2949 4.27606E+00
 -1      2950 3.31523E+00
 -1      2951 3.32936E+00
 -1      2952 1.53885E-03
 -1      2953 1.25947E-03
 -1      2954 1.25947E-03
 -1      2955 1.82781E-03
 -1      2956 1.53184E-03
 -1      2957 7.17292E+00
 -1      2958 7.56474E+00
 -1      2959 7.95150E+00
 -1      2960 6.05344E+00
 -1      2961 7.83368E+00
 -1      2962 8.35307E+00
 -1      2963 1.73407E+01
 -1      2964 1.24113E+01
 -1      2965 1.20157E+01
 -1      2966 1.25964E+01
 -1      2967 3.91082E+00
 -1      2968 3.14411E+00
 -1      2969 3.14779E+00
 -1      2970 2.90545E+00
 -1      2971 4.42273E-01
 -1      2972 4.42273E-01
 -1      2973 3.67505E-01
 -1      2974 1.68697E-03
 -1      2975 1.85988E-03
 -1      2976 2.08116E-03
 -1      2977 1.99275E-03
 -1      2978 3.86159E+00
 -1      2979 5.64615E+00
 -1      2980 5.50594E+00
 -1      2981 9.77196E+00
 -1      2982 3.98248E-01
 -1      2983 4.17826E-01
 -1      2984 3.59489E-01
 -1      2985 3.37179E-01
 -1      2986 1.10304E+01
 -1      2987 5.40513E+00
 -1      2988 1.54875E+01
 -1      2989 1.10751E+01
 -1      2990 5.68143E+00
 -1      2991 4.22143E+00
 -1      2992 3.41624E-01
 -1      2993 3.96587E-01
 -1      2994 2.61661E-01
 -1      2995 2.13377E-01
 -1      2996 7.83487E+00
 -1      2997 3.42818E-01
 -1      2998 3.23166E-01
 -1      2999 2.95065E-01
 -1      3000 3.27423E-01
 -1      3001 3.40929E+00
 -1      3002 4.39007E+00
 -1      3003 1.39374E+01
 -1      3004 9.23020E+00
 -1      3005 7.68050E+00
 -1      3006 2.17065E-01
 -1      3007 1.89193E-01
 -1      3008 1.78000E-01
 -1      3009 1.66755E-01
 -1      3010 1.36099E-01
 -1      3011 1.70652E-01
 -1      3012 1.64629E-01
 -1      3013 1.28803E-01
 -1      3014 1.80761E-01
 -1      3015 1.94806E-01
 -1      3016 1.48833E-01
 -1      3017 2.34351E-01
 -1      3018 2.70529E-01
 -1      3019 2.04509E-01
 -1      3020 3.17948E-01
 -1      3021 3.73268E-01
 -1      3022 2.91473E-01
 -1      3023 4.47321E-01
 -1      3024 5.18895E-01
 -1      3025 4.12945E-01
 -1      3026 6.15679E-01
 -1      3027 6.93286E-01
 -1      3028 5.83783E-01
 -1      3029 7.90426E-01
 -1      3030 8.74847E-01
 -1      3031 7.77707E-01
 -1      3032 9.67249E-01
 -1      3033 1.03658E+00
 -1      3034 9.67249E-01
 -1      3035 1.12447E+00
 -1      3036 1.18695E+00
 -1      3037 1.14754E+00
 -1      3038 1.18892E+00
 -1      3039 1.23753E+00
 -1      3040 1.23741E+00
 -1      3041 1.38009E+00
 -1      3042 1.44882E+00
 -1      3043 1.38195E+00
 -1      3044 1.54334E+00
 -1      3045 1.49512E+00
 -1      3046 1.61903E+00
 -1      3047 1.40992E+00
 -1      3048 1.41851E+00
 -1      3049 1.62836E+00
 -1      3050 1.48883E+00
 -1      3051 1.51925E+00
 -1      3052 1.61348E+00
 -1      3053 1.41740E+00
 -1      3054 1.34272E+00
 -1      3055 1.58195E+00
 -1      3056 1.20176E+00
 -1      3057 1.15006E+00
 -1      3058 1.33913E+00
 -1      3059 1.14995E+00
 -1      3060 1.08131E+00
 -1      3061 1.19807E+00
 -1      3062 9.76708E-01
 -1      3063 8.95852E-01
 -1      3064 1.09335E+00
 -1      3065 8.02952E-01
 -1      3066 7.10793E-01
 -1      3067 8.95852E-01
 -1      3068 6.31779E-01
 -1      3069 5.44244E-01
 -1      3070 7.23937E-01
 -1      3071 4.69297E-01
 -1      3072 4.17289E-01
 -1      3073 5.69975E-01
 -1      3074 3.44469E-01
 -1      3075 2.99309E-01
 -1      3076 4.22208E-01
 -1      3077 2.53789E-01
 -1      3078 2.16232E-01
 -1      3079 3.03868E-01
 -1      3080 1.93482E-01
 -1      3081 1.84920E-01
 -1      3082 2.35599E-01
 -1      3083 1.64606E-01
 -1      3084 1.54566E-01
 -1      3085 1.92535E-01
 -1      3086 1.37335E-01
 -1      3087 1.26357E-01
 -1      3088 1.54991E-01
 -1      3089 1.14550E-01
 -1      3090 1.05847E-01
 -1      3091 1.25953E-01
 -1      3092 9.41953E-02
 -1      3093 8.52773E-02
 -1      3094 1.02494E-01
 -1      3095 7.48161E-02
 -1      3096 6.66381E-02
 -1      3097 8.03806E-02
 -1      3098 5.78106E-02
 -1      3099 5.04421E-02
 -1      3100 6.10919E-02
 -1      3101 4.36677E-02
 -1      3102 3.74001E-02
 -1      3103 4.54898E-02
 -1      3104 3.20571E-02
 -1      3105 2.69600E-02
 -1      3106 3.33724E-02
 -1      3107 2.28489E-02
 -1      3108 1.88612E-02
 -1      3109 2.39184E-02
 -1      3110 1.57742E-02
 -1      3111 1.27672E-02
 -1      3112 1.67204E-02
 -1      3113 1.05087E-02
 -1      3114 8.32607E-03
 -1      3115 1.13749E-02
 -1      3116 6.72365E-03
 -1      3117 5.20580E-03
 -1      3118 7.51402E-03
 -1      3119 4.10388E-03
 -1      3120 3.30090E-03
 -1      3121 4.80968E-03
 -1      3122 2.47409E-03
 -1      3123 2.18264E-03
 -1      3124 1.69932E-03
 -1      3125 2.88096E-03
 -1      3126 4.67698E+00
 -1      3127 4.98757E+00
 -1      3128 1.87210E+00
 -1      3129 1.50404E+00
 -1      3130 1.22406E+00
 -1      3131 9.65325E-01
 -1      3132 1.33323E+00
 -1      3133 4.40217E+00
 -1      3134 3.59340E+00
 -1      3135 6.72054E+00
 -1      3136 5.95574E+00
 -1      3137 5.53466E+00
 -1      3138 2.18725E-03
 -1      3139 2.09464E-03
 -1      3140 2.97074E-01
 -1      3141 2.34756E-01
 -1      3142 1.50150E+00
 -1      3143 1.81955E+00
 -1      3144 1.02926E+00
 -1      3145 1.24782E+00
 -1      3146 1.37272E+00
 -1      3147 1.63838E+01
 -1      3148 2.64389E+01
 -1      3149 2.23034E+00
 -1      3150 2.70112E+00
 -1      3151 2.03719E+00
 -1      3152 7.10243E-01
 -1      3153 8.60371E-01
 -1      3154 9.50150E-01
 -1      3155 4.82176E-01
 -1      3156 5.89104E-01
 -1      3157 6.60125E-01
 -1      3158 3.27843E-01
 -1      3159 3.98123E-01
 -1      3160 4.54933E-01
 -1      3161 2.26083E-01
 -1      3162 2.69342E-01
 -1      3163 3.12379E-01
 -1      3164 1.56717E-01
 -1      3165 1.85332E-01
 -1      3166 2.13128E-01
 -1      3167 1.07983E-01
 -1      3168 1.28775E-01
 -1      3169 1.44437E-01
 -1      3170 7.48894E-02
 -1      3171 8.97339E-02
 -1      3172 9.82466E-02
 -1      3173 5.06103E-02
 -1      3174 6.17893E-02
 -1      3175 6.68976E-02
 -1      3176 3.34223E-02
 -1      3177 4.14093E-02
 -1      3178 4.45966E-02
 -1      3179 2.19233E-02
 -1      3180 2.75300E-02
 -1      3181 2.95033E-02
 -1      3182 1.41691E-02
 -1      3183 1.80350E-02
 -1      3184 1.97227E-02
 -1      3185 8.75945E-03
 -1      3186 1.14284E-02
 -1      3187 1.30936E-02
 -1      3188 6.05114E-03
 -1      3189 6.91126E-03
 -1      3190 8.50463E-03
 -1      3191 4.17495E-03
 -1      3192 4.71612E-03
 -1      3193 5.32141E-03
 -1      3194 2.87920E-03
 -1      3195 3.48477E-03
 -1      3196 3.29621E-03
 -1      3197 8.14129E+00
 -1      3198 7.32122E+00
 -1      3199 5.21151E+00
 -1      3200 6.18489E+00
 -1      3201 1.59276E-03
 -1      3202 1.67778E-03
 -1      3203 2.01314E-03
 -1      3204 2.10193E-03
 -1      3205 2.34645E-03
 -1      3206 2.00762E-01
 -1      3207 2.02075E-01
 -1      3208 2.39934E-01
 -1      3209 4.13951E-01
 -1      3210 3.91701E-01
 -1      3211 3.31567E-01
 -1      3212 3.39183E-01
 -1      3213 3.23209E+00
 -1      3214 3.81069E+00
 -1      3215 2.97895E+00
 -1      3216 1.91984E-03
 -1      3217 2.19660E-03
 -1      3218 2.57525E-03
 -1      3219 9.38713E+00
 -1      3220 1.14106E+01
 -1      3221 5.06283E+00
 -1      3222 4.47593E+00
 -1      3223 1.14727E+01
 -1      3224 1.23119E+01
 -1      3225 8.51840E+00
 -1      3226 1.02951E+01
 -1      3227 8.64508E+00
 -1      3228 2.24865E-03
 -1      3229 2.24865E-03
 -1      3230 2.81145E-03
 -1      3231 2.84268E+00
 -1      3232 2.30533E+00
 -1      3233 3.23038E+00
 -1      3234 1.41892E+01
 -1      3235 2.91599E-01
 -1      3236 2.78220E-01
 -1      3237 1.25538E+01
 -1      3238 1.12234E+01
 -1      3239 3.91082E+00
 -1      3240 3.00341E+00
 -1      3241 1.14574E+01
 -1      3242 1.21608E+01
 -1      3243 7.89666E+00
 -1      3244 3.93539E+00
 -1      3245 3.15151E+00
 -1      3246 2.31021E-01
 -1      3247 2.15840E-01
 -1      3248 1.46067E-01
 -1      3249 1.21452E+01
 -1      3250 1.00300E+01
 -1      3251 8.90471E+00
 -1      3252 6.48164E+00
 -1      3253 4.87306E+00
 -1      3254 3.80314E+00
 -1      3255 1.46209E+01
 -1      3256 1.27415E+01
 -1      3257 3.34907E+00
 -1      3258 3.34907E+00
 -1      3259 3.25502E+00
 -1      3260 8.51230E+00
 -1      3261 6.42062E+00
 -1      3262 7.22038E+00
 -1      3263 4.05837E+00
 -1      3264 2.04644E+00
 -1      3265 3.69620E+00
 -1      3266 1.27415E+01
 -1      3267 1.24263E+01
 -1      3268 8.64706E-01
 -1      3269 7.76779E-01
 -1      3270 5.99321E-01
 -1      3271 7.64089E+00
 -1      3272 1.08502E+01
 -1      3273 8.24593E+00
 -1      3274 2.78252E-01
 -1      3275 2.85887E-01
 -1      3276 2.48858E-01
 -1      3277 4.97096E+00
 -1      3278 7.59238E+00
 -1      3279 6.40660E+00
 -1      3280 3.19290E-01
 -1      3281 3.27306E-01
 -1      3282 2.93689E-01
 -1      3283 3.14394E-01
 -1      3284 3.16532E-01
 -1      3285 4.69138E-01
 -1      3286 3.68008E-01
 -1      3287 3.44861E-01
 -1      3288 5.45978E-01
 -1      3289 2.50324E-03
 -1      3290 2.29939E-03
 -1      3291 7.68891E+00
 -1      3292 2.57255E-03
 -1      3293 3.31575E+00
 -1      3294 3.68926E+00
 -1      3295 2.97545E+00
 -1      3296 3.06549E+00
 -1      3297 2.95731E+00
 -1      3298 2.77946E+00
 -1      3299 1.94384E-01
 -1      3300 1.90519E-01
 -1      3301 1.00250E+01
 -1      3302 2.68181E-03
 -1      3303 2.10193E-03
 -1      3304 2.13254E-03
 -1      3305 8.45757E+00
 -1      3306 5.16965E+00
 -1      3307 4.44630E+00
 -1      3308 3.89880E+00
 -1      3309 3.56852E+00
 -1      3310 2.81687E+00
 -1      3311 2.71891E+00
 -1      3312 2.81687E+00
 -1      3313 3.27306E-01
 -1      3314 3.27306E-01
 -1      3315 2.87107E-01
 -1      3316 2.29939E-03
 -1      3317 4.91074E+00
 -1      3318 2.22806E-03
 -1      3319 2.24865E-03
 -1      3320 2.87285E-03
 -1      3321 2.77733E-03
 -1      3322 5.93967E+00
 -1      3323 1.09786E+01
 -1      3324 3.15809E-01
 -1      3325 3.47881E-01
 -1      3326 2.05686E-01
 -1      3327 3.35320E-01
 -1      3328 2.92547E-01
 -1      3329 3.47881E-01
 -1      3330 1.36860E-03
 -1      3331 1.28357E-03
 -1      3332 1.70190E-03
 -1      3333 1.72343E-03
 -1      3334 2.96858E-01
 -1      3335 3.47881E-01
 -1      3336 2.10679E-01
 -1      3337 1.21776E-01
 -1      3338 1.10582E-01
 -1      3339 3.22010E-01
 -1      3340 1.16280E-01
 -1      3341 1.20177E-01
 -1      3342 1.01957E-01
 -1      3343 1.43889E-01
 -1      3344 1.60022E-01
 -1      3345 1.31366E-01
 -1      3346 1.95288E-01
 -1      3347 2.34832E-01
 -1      3348 1.90344E-01
 -1      3349 2.91473E-01
 -1      3350 3.38892E-01
 -1      3351 2.82251E-01
 -1      3352 4.12659E-01
 -1      3353 4.86713E-01
 -1      3354 4.12659E-01
 -1      3355 5.76820E-01
 -1      3356 6.73605E-01
 -1      3357 5.76535E-01
 -1      3358 7.97830E-01
 -1      3359 8.94970E-01
 -1      3360 7.90867E-01
 -1      3361 9.89714E-01
 -1      3362 1.08212E+00
 -1      3363 1.00984E+00
 -1      3364 1.18331E+00
 -1      3365 1.27120E+00
 -1      3366 1.20577E+00
 -1      3367 1.41357E+00
 -1      3368 1.41554E+00
 -1      3369 1.44933E+00
 -1      3370 1.65995E+00
 -1      3371 1.80250E+00
 -1      3372 1.83610E+00
 -1      3373 2.11763E+00
 -1      3374 2.21216E+00
 -1      3375 2.39564E+00
 -1      3376 2.51316E+00
 -1      3377 2.42796E+00
 -1      3378 3.01177E+00
 -1      3379 2.08177E+00
 -1      3380 2.15209E+00
 -1      3381 2.96657E+00
 -1      3382 2.48633E+00
 -1      3383 2.38448E+00
 -1      3384 2.95462E+00
 -1      3385 2.10000E+00
 -1      3386 1.95904E+00
 -1      3387 3.00438E+00
 -1      3388 1.88547E+00
 -1      3389 1.88536E+00
 -1      3390 2.64633E+00
 -1      3391 1.35814E+00
 -1      3392 1.25354E+00
 -1      3393 2.04554E+00
 -1      3394 1.04957E+00
 -1      3395 9.56674E-01
 -1      3396 1.31436E+00
 -1      3397 8.61929E-01
 -1      3398 7.82914E-01
 -1      3399 1.01565E+00
 -1      3400 6.59088E-01
 -1      3401 5.84140E-01
 -1      3402 7.97079E-01
 -1      3403 4.95028E-01
 -1      3404 4.22208E-01
 -1      3405 5.84140E-01
 -1      3406 3.66739E-01
 -1      3407 3.21220E-01
 -1      3408 4.39559E-01
 -1      3409 2.75696E-01
 -1      3410 2.52945E-01
 -1      3411 3.38566E-01
 -1      3412 2.17836E-01
 -1      3413 1.97522E-01
 -1      3414 2.57933E-01
 -1      3415 1.74384E-01
 -1      3416 1.57154E-01
 -1      3417 1.99685E-01
 -1      3418 1.37826E-01
 -1      3419 1.26019E-01
 -1      3420 1.57219E-01
 -1      3421 1.09264E-01
 -1      3422 9.76119E-02
 -1      3423 1.21137E-01
 -1      3424 8.64367E-02
 -1      3425 7.59756E-02
 -1      3426 9.32069E-02
 -1      3427 6.71077E-02
 -1      3428 5.82801E-02
 -1      3429 7.31638E-02
 -1      3430 5.11292E-02
 -1      3431 4.43547E-02
 -1      3432 5.71450E-02
 -1      3433 3.80574E-02
 -1      3434 3.27144E-02
 -1      3435 4.36968E-02
 -1      3436 2.74825E-02
 -1      3437 2.33715E-02
 -1      3438 3.21676E-02
 -1      3439 1.92450E-02
 -1      3440 1.61580E-02
 -1      3441 2.28092E-02
 -1      3442 1.31937E-02
 -1      3443 1.09352E-02
 -1      3444 1.57183E-02
 -1      3445 8.71511E-03
 -1      3446 7.11269E-03
 -1      3447 1.05339E-02
 -1      3448 5.50295E-03
 -1      3449 4.40103E-03
 -1      3450 6.70404E-03
 -1      3451 3.96928E+00
 -1      3452 5.37010E+00
 -1      3453 7.08823E+00
 -1      3454 5.53466E+00
 -1      3455 3.17011E+00
 -1      3456 3.45702E+00
 -1      3457 3.13979E-01
 -1      3458 2.81796E-01
 -1      3459 2.99684E-01
 -1      3460 3.36268E-01
 -1      3461 7.51145E-01
 -1      3462 9.20033E-01
 -1      3463 1.06464E+00
 -1      3464 1.31832E+00
 -1      3465 8.65639E-01
 -1      3466 7.29597E+00
 -1      3467 3.79856E-01
 -1      3468 4.63910E-01
 -1      3469 2.67073E-01
 -1      3470 3.25574E-01
 -1      3471 3.34550E-01
 -1      3472 1.86346E-01
 -1      3473 2.27096E-01
 -1      3474 2.40291E-01
 -1      3475 1.29434E-01
 -1      3476 1.57375E-01
 -1      3477 1.71343E-01
 -1      3478 9.03206E-02
 -1      3479 1.08569E-01
 -1      3480 1.21508E-01
 -1      3481 6.15240E-02
 -1      3482 7.46241E-02
 -1      3483 8.49470E-02
 -1      3484 4.13343E-02
 -1      3485 5.05352E-02
 -1      3486 5.82617E-02
 -1      3487 2.78474E-02
 -1      3488 3.37397E-02
 -1      3489 3.96784E-02
 -1      3490 1.85279E-02
 -1      3491 2.24163E-02
 -1      3492 2.66526E-02
 -1      3493 1.20365E-02
 -1      3494 1.47772E-02
 -1      3495 1.74708E-02
 -1      3496 7.61253E-03
 -1      3497 9.46072E-03
 -1      3498 1.11444E-02
 -1      3499 4.44569E-03
 -1      3500 5.78071E-03
 -1      3501 6.73681E-03
 -1      3502 3.13104E-03
 -1      3503 3.82122E-03
 -1      3504 4.28052E-03
 -1      3505 3.02825E-03
 -1      3506 2.21408E-01
 -1      3507 1.55571E-01
 -1      3508 3.64794E+00
 -1      3509 3.72320E+00
 -1      3510 3.12185E+00
 -1      3511 3.50486E-03
 -1      3512 3.44346E-03
 -1      3513 2.02751E-01
 -1      3514 1.91195E-01
 -1      3515 8.64508E+00
 -1      3516 7.69146E+00
 -1      3517 2.60105E-01
 -1      3518 2.26112E-01
 -1      3519 2.22923E-01
 -1      3520 2.10725E+00
 -1      3521 1.67402E+00
 -1      3522 2.61947E-01
 -1      3523 2.48445E+00
 -1      3524 3.01541E+00
 -1      3525 7.80372E+00
 -1      3526 6.84987E+00
 -1      3527 6.63823E+00
 -1      3528 3.44346E-03
 -1      3529 3.26867E-03
 -1      3530 3.89646E-03
 -1      3531 4.13688E-03
 -1      3532 6.15524E+00
 -1      3533 4.95638E+00
 -1      3534 2.95389E-03
 -1      3535 3.28925E-03
 -1      3536 3.72320E+00
 -1      3537 3.15809E+00
 -1      3538 3.67501E+00
 -1      3539 2.73735E+00
 -1      3540 3.89059E+00
 -1      3541 2.39089E-01
 -1      3542 2.59548E-01
 -1      3543 3.32039E+00
 -1      3544 2.56967E+00
 -1      3545 4.87396E+00
 -1      3546 7.29597E+00
 -1      3547 1.58883E+00
 -1      3548 1.99963E+00
 -1      3549 2.03609E+00
 -1      3550 7.52912E+00
 -1      3551 7.36246E+00
 -1      3552 6.14922E+00
 -1      3553 5.37431E-01
 -1      3554 6.58569E-01
 -1      3555 4.62353E-01
 -1      3556 1.43675E-01
 -1      3557 1.44900E-01
 -1      3558 1.19383E-01
 -1      3559 1.38124E+00
 -1      3560 1.10126E+00
 -1      3561 1.44205E+00
 -1      3562 8.64508E+00
 -1      3563 2.67914E-01
 -1      3564 2.81811E-01
 -1      3565 6.48036E+00
 -1      3566 4.96269E+00
 -1      3567 5.10477E+00
 -1      3568 5.43734E+00
 -1      3569 9.55180E-01
 -1      3570 9.07168E-01
 -1      3571 7.18622E-01
 -1      3572 3.47477E+00
 -1      3573 3.24665E-03
 -1      3574 2.41985E-03
 -1      3575 2.08912E-03
 -1      3576 3.93992E-03
 -1      3577 2.62687E-01
 -1      3578 6.67650E+00
 -1      3579 6.11604E+00
 -1      3580 2.06935E-01
 -1      3581 2.06968E-01
 -1      3582 2.43318E-01
 -1      3583 2.48629E-01
 -1      3584 4.63644E+00
 -1      3585 4.27733E+00
 -1      3586 3.75266E+00
 -1      3587 6.28451E-01
 -1      3588 1.28076E+00
 -1      3589 2.97054E+00
 -1      3590 3.00438E+00
 -1      3591 2.70667E+00
 -1      3592 3.31276E+00
 -1      3593 3.39263E-03
 -1      3594 4.02465E-03
 -1      3595 3.39263E-03
 -1      3596 2.71891E+00
 -1      3597 2.88688E+00
 -1      3598 2.63033E+00
 -1      3599 3.78363E-01
 -1      3600 3.07429E-01
 -1      3601 2.93607E-01
 -1      3602 2.68406E+00
 -1      3603 2.59805E+00
 -1      3604 2.55593E+00
 -1      3605 5.20250E-03
 -1      3606 5.20250E-03
 -1      3607 5.80995E-03
 -1      3608 5.37010E+00
 -1      3609 6.31157E+00
 -1      3610 2.19726E+00
 -1      3611 3.52885E+00
 -1      3612 3.19256E+00
 -1      3613 2.98302E+00
 -1      3614 2.85709E+00
 -1      3615 2.67055E+00
 -1      3616 3.01177E+00
 -1      3617 2.48629E-01
 -1      3618 2.48629E-01
 -1      3619 2.10151E-01
 -1      3620 2.67914E-01
 -1      3621 2.01989E-01
 -1      3622 1.60099E-01
 -1      3623 2.45710E-01
 -1      3624 1.54404E-01
 -1      3625 2.39831E-03
 -1      3626 4.88175E+00
 -1      3627 3.34112E-03
 -1      3628 1.39501E-01
 -1      3629 1.45198E-01
 -1      3630 1.53049E-01
 -1      3631 1.76761E-01
 -1      3632 1.90593E-01
 -1      3633 2.07934E-01
 -1      3634 2.43200E-01
 -1      3635 2.29617E-01
 -1      3636 2.92600E-01
 -1      3637 3.49241E-01
 -1      3638 3.10190E-01
 -1      3639 4.27342E-01
 -1      3640 5.01109E-01
 -1      3641 4.37691E-01
 -1      3642 6.04845E-01
 -1      3643 6.94953E-01
 -1      3644 6.19528E-01
 -1      3645 7.90867E-01
 -1      3646 9.15092E-01
 -1      3647 8.19178E-01
 -1      3648 1.11069E+00
 -1      3649 1.20543E+00
 -1      3650 1.11069E+00
 -1      3651 1.39963E+00
 -1      3652 1.50082E+00
 -1      3653 1.50048E+00
 -1      3654 1.52507E+00
 -1      3655 1.66743E+00
 -1      3656 1.71892E+00
 -1      3657 2.11101E+00
 -1      3658 2.35542E+00
 -1      3659 2.18675E+00
 -1      3660 2.39564E+00
 -1      3661 2.71077E+00
 -1      3662 3.31276E+00
 -1      3663 2.96657E+00
 -1      3664 2.77566E+00
 -1      3665 3.10990E+00
 -1      3666 3.28886E+00
 -1      3667 3.00438E+00
 -1      3668 2.71990E+00
 -1      3669 2.64633E+00
 -1      3670 1.51832E+00
 -1      3671 1.31436E+00
 -1      3672 1.18390E+00
 -1      3673 1.08915E+00
 -1      3674 1.38786E+00
 -1      3675 9.20905E-01
 -1      3676 7.97079E-01
 -1      3677 1.08915E+00
 -1      3678 7.02568E-01
 -1      3679 6.13455E-01
 -1      3680 8.26394E-01
 -1      3681 5.23116E-01
 -1      3682 4.67647E-01
 -1      3683 6.41543E-01
 -1      3684 4.00346E-01
 -1      3685 3.54822E-01
 -1      3686 4.83903E-01
 -1      3687 3.05116E-01
 -1      3688 2.70006E-01
 -1      3689 3.66895E-01
 -1      3690 2.27036E-01
 -1      3691 2.03897E-01
 -1      3692 2.74218E-01
 -1      3693 1.72645E-01
 -1      3694 1.53317E-01
 -1      3695 1.99995E-01
 -1      3696 1.34996E-01
 -1      3697 1.18242E-01
 -1      3698 1.50422E-01
 -1      3699 1.03806E-01
 -1      3700 9.26312E-02
 -1      3701 1.17666E-01
 -1      3702 8.20317E-02
 -1      3703 7.31638E-02
 -1      3704 9.26312E-02
 -1      3705 6.37140E-02
 -1      3706 5.65631E-02
 -1      3707 7.25819E-02
 -1      3708 4.85952E-02
 -1      3709 4.22979E-02
 -1      3710 5.51643E-02
 -1      3711 3.58441E-02
 -1      3712 3.06122E-02
 -1      3713 4.07425E-02
 -1      3714 2.55516E-02
 -1      3715 2.14250E-02
 -1      3716 2.92280E-02
 -1      3717 1.75691E-02
 -1      3718 1.46048E-02
 -1      3719 2.03115E-02
 -1      3720 1.18870E-02
 -1      3721 9.66692E-03
 -1      3722 1.37378E-02
 -1      3723 7.91572E-03
 -1      3724 6.30598E-03
 -1      3725 9.26885E-03
 -1      3726 4.49550E-03
 -1      3727 2.36512E-01
 -1      3728 2.03346E-01
 -1      3729 2.22715E-01
 -1      3730 2.72105E+00
 -1      3731 3.67492E+00
 -1      3732 6.64212E+00
 -1      3733 1.80793E-01
 -1      3734 7.55226E-01
 -1      3735 8.99837E-01
 -1      3736 5.95546E-01
 -1      3737 4.65364E-01
 -1      3738 4.27931E-01
 -1      3739 6.38008E-01
 -1      3740 1.43234E-01
 -1      3741 1.72205E-01
 -1      3742 1.95794E-01
 -1      3743 2.35771E-01
 -1      3744 1.67685E-01
 -1      3745 2.70676E-01
 -1      3746 3.24958E-01
 -1      3747 2.26179E-01
 -1      3748 1.01730E-01
 -1      3749 1.22595E-01
 -1      3750 1.23457E-01
 -1      3751 7.20309E-02
 -1      3752 8.77274E-02
 -1      3753 8.88141E-02
 -1      3754 5.03219E-02
 -1      3755 6.13107E-02
 -1      3756 6.40910E-02
 -1      3757 3.46652E-02
 -1      3758 4.22598E-02
 -1      3759 4.53087E-02
 -1      3760 2.34337E-02
 -1      3761 2.88648E-02
 -1      3762 3.14462E-02
 -1      3763 1.56567E-02
 -1      3764 1.94073E-02
 -1      3765 2.16195E-02
 -1      3766 1.01674E-02
 -1      3767 1.27431E-02
 -1      3768 1.46796E-02
 -1      3769 6.17982E-03
 -1      3770 8.01164E-03
 -1      3771 9.61039E-03
 -1      3772 4.25872E-03
 -1      3773 4.88319E-03
 -1      3774 6.15802E-03
 -1      3775 4.49914E-03
 -1      3776 2.26704E-01
 -1      3777 1.11561E+00
 -1      3778 1.38612E+00
 -1      3779 1.00519E+00
 -1      3780 2.19838E-01
 -1      3781 1.96477E-01
 -1      3782 4.42864E+00
 -1      3783 5.37010E+00
 -1      3784 5.20775E+00
 -1      3785 3.67492E+00
 -1      3786 2.37929E+00
 -1      3787 1.91686E+00
 -1      3788 5.55241E+00
 -1      3789 6.51680E+00
 -1      3790 4.92963E+00
 -1      3791 4.66425E+00
 -1      3792 5.43847E-01
 -1      3793 6.36424E-01
 -1      3794 6.70622E-01
 -1      3795 2.69988E-03
 -1      3796 2.79540E-03
 -1      3797 5.22058E-03
 -1      3798 1.86549E+00
 -1      3799 2.35030E+00
 -1      3800 1.70033E+00
 -1      3801 5.02971E+00
 -1      3802 2.81544E+00
 -1      3803 2.53505E+00
 -1      3804 4.27864E+00
 -1      3805 2.99727E+00
 -1      3806 6.07459E+00
 -1      3807 3.81638E-01
 -1      3808 4.55159E-01
 -1      3809 4.63132E-01
 -1      3810 3.17764E-01
 -1      3811 3.31276E+00
 -1      3812 1.65702E-01
 -1      3813 1.42578E-01
 -1      3814 1.85820E-01
 -1      3815 3.34907E+00
 -1      3816 3.10990E+00
 -1      3817 1.47803E+00
 -1      3818 1.18526E+00
 -1      3819 1.66007E+00
 -1      3820 3.74620E+00
 -1      3821 4.01610E+00
 -1      3822 3.41168E+00
 -1      3823 5.70717E-03
 -1      3824 6.52069E+00
 -1      3825 1.88226E-01
 -1      3826 4.32565E+00
 -1      3827 9.94377E-01
 -1      3828 8.00280E-01
 -1      3829 1.03036E+00
 -1      3830 3.41263E+00
 -1      3831 3.60278E+00
 -1      3832 3.04269E+00
 -1      3833 2.67055E+00
 -1      3834 3.01177E+00
 -1      3835 2.64633E+00
 -1      3836 2.57276E+00
 -1      3837 4.46218E+00
 -1      3838 2.04554E+00
 -1      3839 2.55045E+00
 -1      3840 1.92719E-01
 -1      3841 1.99524E-01
 -1      3842 3.31519E-03
 -1      3843 1.99561E-01
 -1      3844 2.67914E-01
 -1      3845 7.62042E-03
 -1      3846 2.63310E+00
 -1      3847 2.94398E+00
 -1      3848 2.53770E+00
 -1      3849 4.18961E+00
 -1      3850 2.64490E-01
 -1      3851 2.38044E-01
 -1      3852 3.11813E-01
 -1      3853 4.33957E+00
 -1      3854 4.74032E+00
 -1      3855 3.77093E+00
 -1      3856 2.67321E+00
 -1      3857 2.51281E+00
 -1      3858 2.41667E+00
 -1      3859 3.20402E+00
 -1      3860 1.47817E-01
 -1      3861 1.63564E-01
 -1      3862 1.59743E-01
 -1      3863 6.30439E-03
 -1      3864 6.30439E-03
 -1      3865 6.66665E-03
 -1      3866 2.04554E+00
 -1      3867 1.96477E-01
 -1      3868 1.42558E-01
 -1      3869 1.25329E-01
 -1      3870 1.37611E-01
 -1      3871 6.30439E-03
 -1      3872 8.47191E-03
 -1      3873 6.19216E-03
 -1      3874 1.88897E-01
 -1      3875 1.99524E-01
 -1      3876 1.76329E-01
 -1      3877 1.99524E-01
 -1      3878 3.28886E+00
 -1      3879 2.63033E+00
 -1      3880 2.33297E-01
 -1      3881 2.33297E-01
 -1      3882 2.30219E-01
 -1      3883 2.73549E-01
 -1      3884 3.04722E-01
 -1      3885 3.37597E-01
 -1      3886 3.86997E-01
 -1      3887 3.81529E-01
 -1      3888 4.76618E-01
 -1      3889 5.54720E-01
 -1      3890 5.04025E-01
 -1      3891 6.36565E-01
 -1      3892 7.40300E-01
 -1      3893 6.75492E-01
 -1      3894 1.06996E+00
 -1      3895 1.16588E+00
 -1      3896 1.08700E+00
 -1      3897 1.68753E+00
 -1      3898 1.88313E+00
 -1      3899 1.93832E+00
 -1      3900 1.87323E+00
 -1      3901 2.06743E+00
 -1      3902 2.45008E+00
 -1      3903 2.01164E+00
 -1      3904 2.03589E+00
 -1      3905 2.38439E+00
 -1      3906 1.97309E+00
 -1      3907 2.41667E+00
 -1      3908 2.55224E+00
 -1      3909 2.11609E+00
 -1      3910 4.46218E+00
 -1      3911 2.97120E+00
 -1      3912 2.55224E+00
 -1      3913 3.24934E+00
 -1      3914 1.32616E+00
 -1      3915 1.15791E+00
 -1      3916 9.89066E-01
 -1      3917 8.94555E-01
 -1      3918 1.22607E+00
 -1      3919 7.74998E-01
 -1      3920 6.84659E-01
 -1      3921 9.37671E-01
 -1      3922 5.84752E-01
 -1      3923 5.17451E-01
 -1      3924 7.18207E-01
 -1      3925 4.27184E-01
 -1      3926 3.77478E-01
 -1      3927 5.28033E-01
 -1      3928 3.10020E-01
 -1      3929 2.67049E-01
 -1      3930 3.70309E-01
 -1      3931 2.28230E-01
 -1      3932 1.96977E-01
 -1      3933 2.64031E-01
 -1      3934 1.68742E-01
 -1      3935 1.50422E-01
 -1      3936 1.96977E-01
 -1      3937 1.32101E-01
 -1      3938 1.17666E-01
 -1      3939 1.50422E-01
 -1      3940 1.01982E-01
 -1      3941 9.13828E-02
 -1      3942 1.16417E-01
 -1      3943 7.86275E-02
 -1      3944 6.91778E-02
 -1      3945 8.79786E-02
 -1      3946 5.91033E-02
 -1      3947 5.11354E-02
 -1      3948 6.51489E-02
 -1      3949 4.33601E-02
 -1      3950 3.69063E-02
 -1      3951 4.72991E-02
 -1      3952 3.10185E-02
 -1      3953 2.59579E-02
 -1      3954 3.36361E-02
 -1      3955 2.15809E-02
 -1      3956 1.77250E-02
 -1      3957 2.33714E-02
 -1      3958 1.45259E-02
 -1      3959 1.18081E-02
 -1      3960 1.57953E-02
 -1      3961 1.03953E-02
 -1      3962 8.64406E-03
 -1      3963 1.11833E-02
 -1      3964 5.22058E-03
 -1      3965 5.81781E-03
 -1      3966 8.09755E-03
 -1      3967 8.74683E-03
 -1      3968 1.50300E-01
 -1      3969 1.73888E-01
 -1      3970 1.07247E-01
 -1      3971 1.27887E-01
 -1      3972 1.34090E-01
 -1      3973 2.01100E-01
 -1      3974 2.36005E-01
 -1      3975 1.83715E-01
 -1      3976 5.42413E-02
 -1      3977 6.49616E-02
 -1      3978 3.78291E-02
 -1      3979 4.58911E-02
 -1      3980 4.67617E-02
 -1      3981 2.66050E-02
 -1      3982 3.24054E-02
 -1      3983 3.29878E-02
 -1      3984 1.84463E-02
 -1      3985 2.24726E-02
 -1      3986 2.34318E-02
 -1      3987 1.26552E-02
 -1      3988 1.55688E-02
 -1      3989 1.64219E-02
 -1      3990 9.14447E-03
 -1      3991 1.13002E-02
 -1      3992 1.21893E-02
 -1      3993 1.81031E+00
 -1      3994 1.37148E+00
 -1      3995 1.82750E+00
 -1      3996 2.92120E+00
 -1      3997 3.67492E+00
 -1      3998 2.63033E+00
 -1      3999 7.68578E-02
 -1      4000 9.08606E-02
 -1      4001 9.52909E-02
 -1      4002 6.70081E-02
 -1      4003 2.04143E-01
 -1      4004 3.73876E+00
 -1      4005 3.35314E+00
 -1      4006 5.51820E-01
 -1      4007 6.70622E-01
 -1      4008 2.17970E+00
 -1      4009 2.55045E+00
 -1      4010 2.55045E+00
 -1      4011 1.25183E+00
 -1      4012 1.73120E+00
 -1      4013 1.73120E+00
 -1      4014 3.77181E+00
 -1      4015 3.73876E+00
 -1      4016 2.35539E+00
 -1      4017 2.39045E+00
 -1      4018 1.86323E+00
 -1      4019 2.79673E+00
 -1      4020 7.89424E-01
 -1      4021 1.00519E+00
 -1      4022 1.03607E+00
 -1      4023 6.70622E-01
 -1      4024 3.57193E+00
 -1      4025 2.43613E-01
 -1      4026 2.51464E-01
 -1      4027 3.26569E-01
 -1      4028 2.91090E-01
 -1      4029 2.86767E+00
 -1      4030 3.19113E+00
 -1      4031 3.31538E+00
 -1      4032 2.78426E+00
 -1      4033 2.77137E+00
 -1      4034 2.97536E+00
 -1      4035 1.12749E+00
 -1      4036 9.36608E-01
 -1      4037 1.27773E+00
 -1      4038 2.57561E+00
 -1      4039 2.79568E+00
 -1      4040 3.28886E+00
 -1      4041 1.98883E-01
 -1      4042 2.04143E-01
 -1      4043 7.96328E-03
 -1      4044 4.69357E-01
 -1      4045 4.69357E-01
 -1      4046 3.80669E-01
 -1      4047 6.86774E-01
 -1      4048 5.63699E-01
 -1      4049 7.25971E-01
 -1      4050 2.50795E-01
 -1      4051 2.75874E-01
 -1      4052 3.32554E-01
 -1      4053 4.70218E-01
 -1      4054 3.83217E-01
 -1      4055 3.54100E-01
 -1      4056 5.18985E-01
 -1      4057 9.65310E-03
 -1      4058 1.77357E-01
 -1      4059 3.32096E+00
 -1      4060 3.12108E+00
 -1      4061 8.77908E-03
 -1      4062 9.96026E-03
 -1      4063 8.77908E-03
 -1      4064 7.72320E-03
 -1      4065 1.93392E-01
 -1      4066 1.96477E-01
 -1      4067 2.65738E+00
 -1      4068 2.99373E+00
 -1      4069 1.75846E+00
 -1      4070 1.62800E+00
 -1      4071 2.77697E-01
 -1      4072 2.26580E+00
 -1      4073 8.74683E-03
 -1      4074 2.38044E-01
 -1      4075 2.71559E+00
 -1      4076 1.59816E-01
 -1      4077 1.69676E+00
 -1      4078 9.13357E-03
 -1      4079 8.10994E-03
 -1      4080 5.28292E-01
 -1      4081 6.17914E-01
 -1      4082 7.67399E-01
 -1      4083 8.49244E-01
 -1      4084 7.91666E-01
 -1      4085 9.63517E-01
 -1      4086 1.29318E+00
 -1      4087 1.05542E+00
 -1      4088 1.93832E+00
 -1      4089 2.45998E+00
 -1      4090 2.65738E+00
 -1      4091 2.64748E+00
 -1      4092 2.85147E+00
 -1      4093 2.47952E+00
 -1      4094 2.06056E+00
 -1      4095 2.22390E+00
 -1      4096 1.80351E+00
 -1      4097 1.63467E+00
 -1      4098 8.48430E-03
 -1      4099 1.34979E+00
 -1      4100 1.23023E+00
 -1      4101 1.92723E+00
 -1      4102 9.83841E-01
 -1      4103 8.83934E-01
 -1      4104 1.39596E+00
 -1      4105 7.47389E-01
 -1      4106 6.57122E-01
 -1      4107 1.01302E+00
 -1      4108 5.38512E-01
 -1      4109 4.71054E-01
 -1      4110 7.57868E-01
 -1      4111 3.71987E-01
 -1      4112 3.33168E-01
 -1      4113 5.40191E-01
 -1      4114 2.42185E-01
 -1      4115 2.13951E-01
 -1      4116 3.50141E-01
 -1      4117 1.92931E-01
 -1      4118 1.74610E-01
 -1      4119 2.38139E-01
 -1      4120 1.45165E-01
 -1      4121 1.29481E-01
 -1      4122 1.87674E-01
 -1      4123 1.06841E-01
 -1      4124 9.40863E-02
 -1      4125 1.35589E-01
 -1      4126 7.76403E-02
 -1      4127 6.75658E-02
 -1      4128 9.65032E-02
 -1      4129 5.56656E-02
 -1      4130 4.78904E-02
 -1      4131 6.81571E-02
 -1      4132 3.93056E-02
 -1      4133 3.34179E-02
 -1      4134 4.76721E-02
 -1      4135 2.72237E-02
 -1      4136 2.28468E-02
 -1      4137 3.28933E-02
 -1      4138 1.85306E-02
 -1      4139 1.53315E-02
 -1      4140 2.23829E-02
 -1      4141 1.12082E-02
 -1      4142 9.79531E-03
 -1      4143 9.15842E-03
 -1      4144 1.39434E-02
 -1      4145 1.56731E-01
 -1      4146 2.65978E+00
 -1      4147 2.35794E+00
 -1      4148 1.26987E-01
 -1      4149 1.49400E-01
 -1      4150 1.84060E-01
 -1      4151 2.11272E-01
 -1      4152 1.76957E-01
 -1      4153 3.10654E-02
 -1      4154 3.64891E-02
 -1      4155 4.34984E-02
 -1      4156 5.18486E-02
 -1      4157 4.15760E-02
 -1      4158 1.47707E-02
 -1      4159 1.76483E-02
 -1      4160 1.08343E-02
 -1      4161 1.21893E-02
 -1      4162 1.34157E-02
 -1      4163 9.96026E-03
 -1      4164 1.75478E+00
 -1      4165 1.41441E+00
 -1      4166 1.86291E+00
 -1      4167 2.10337E+00
 -1      4168 3.69513E-01
 -1      4169 4.02388E-01
 -1      4170 5.16277E-01
 -1      4171 2.17855E+00
 -1      4172 2.54930E+00
 -1      4173 2.74919E+00
 -1      4174 1.86177E+00
 -1      4175 2.76653E+00
 -1      4176 2.94595E-01
 -1      4177 2.94595E-01
 -1      4178 3.07989E-01
 -1      4179 2.76653E+00
 -1      4180 2.69196E+00
 -1      4181 2.14158E-02
 -1      4182 2.55481E-02
 -1      4183 2.90495E-02
 -1      4184 1.97647E-02
 -1      4185 1.81484E+00
 -1      4186 2.56407E+00
 -1      4187 1.57876E+00
 -1      4188 3.55816E-01
 -1      4189 3.77901E-01
 -1      4190 3.98760E-01
 -1      4191 3.59321E-01
 -1      4192 2.35544E-01
 -1      4193 8.79146E-03
 -1      4194 3.38779E-01
 -1      4195 7.25971E-01
 -1      4196 6.12466E-01
 -1      4197 8.23102E-01
 -1      4198 2.35043E-01
 -1      4199 2.74911E-01
 -1      4200 2.35388E-01
 -1      4201 5.77803E-02
 -1      4202 6.10436E-02
 -1      4203 7.29398E-02
 -1      4204 1.21614E+00
 -1      4205 1.34784E+00
 -1      4206 9.69496E-01
 -1      4207 5.13076E-01
 -1      4208 5.95539E-01
 -1      4209 7.14149E-01
 -1      4210 8.32951E-01
 -1      4211 1.01302E+00
 -1      4212 7.57868E-01
 -1      4213 2.97095E-01
 -1      4214 2.52443E-01
 -1      4215 1.64842E+00
 -1      4216 1.41537E+00
 -1      4217 2.94595E-01
 -1      4218 3.11493E-01
 -1      4219 1.02535E-01
 -1      4220 1.17845E-01
 -1      4221 8.61485E-02
 -1      4222 3.68499E-01
 -1      4223 2.19476E+00
 -1      4224 1.17138E+00
 -1      4225 4.78316E-01
 -1      4226 6.04221E-01
 -1      4227 1.12508E+00
 -1      4228 1.23936E+00
 -1      4229 4.68976E-01
 -1      4230 4.11970E-01
 -1      4231 1.90988E+00
 -1      4232 1.59424E+00
 -1      4233 1.34784E+00
 -1      4234 1.14957E+00
 -1      4235 1.01302E+00
 -1      4236 8.76478E-01
 -1      4237 7.57868E-01
 -1      4238 6.39258E-01
 -1      4239 5.40191E-01
 -1      4240 2.59159E-01
 -1      4241 2.38139E-01
 -1      4242 2.14368E-01
 -1      4243 1.84923E-01
 -1      4244 1.50262E-01
 -1      4245 1.27623E-01
 -1      4246 1.03171E-01
 -1      4247 8.67251E-02
 -1      4248 7.35163E-02
 -1      4249 6.16161E-02
 -1      4250 5.24211E-02
 -1      4251 4.38364E-02
 -1      4252 3.68271E-02
 -1      4253 3.06329E-02
 -1      4254 2.51157E-02
 -1      4255 2.07995E-02
 -1      4256 5.62456E-01
 -1      4257 4.14009E-01
 -1      4258 5.40191E-01
 -1      4259 4.41124E-01
 -1      4260 3.65894E-01
 -1      4261 9.66548E-03
 -1      4262 4.11970E-01
 -1      4263 8.45000E-01
 -1      4264 1.02893E+00
 -1      4265 8.91294E-01
 -1      4266 6.95515E-01
 -1      4267 4.59798E-01
 -1      4268 3.50141E-01
 -1      4269 1.03272E-02
 -1      4270 3.50141E-01
 -1      4271 6.80657E-01
 -1      4272 6.57554E-01
 -1      4273 5.62456E-01
 -1      4274 1.70319E-02
 -1      4275 1.29087E-02
 -1      4276 8.01840E-02
 -1      4277 4.86704E-01
 -1      4278 5.39353E-01
 -1      4279 5.89363E-01
 -3
 9999
