    1C
    1UUSER                                                              
    1UDATE              27.october.2022                                 
    1UTIME              00:16:44                                        
    1UHOST                                                              
    1UPGM               CalculiX                                        
    1UVERSION           Version 2.17                             
    1UCOMPILETIME       Thu Jul 23 21:43:50 CEST 2020                    
    1UDIR                                                               
    1UDBN                                                               
    1UMAT    1SOLIDMATERIAL                                             
    2C                          4361                                     1
 -1         1 4.36364E+01 3.10871E+01 0.00000E+00
 -1         2 5.44592E+01 2.52232E+01 0.00000E+00
 -1         3 1.50000E+02 0.00000E+00 0.00000E+00
 -1         4 1.50000E+02 5.00000E+01 0.00000E+00
 -1         5 0.00000E+00 0.00000E+00 0.00000E+00
 -1         6 0.00000E+00 5.00000E+01 0.00000E+00
 -1         7 0.00000E+00 4.70500E+01 0.00000E+00
 -1         8 0.00000E+00 4.41000E+01 0.00000E+00
 -1         9 0.00000E+00 4.11500E+01 0.00000E+00
 -1        10 0.00000E+00 3.82000E+01 0.00000E+00
 -1        11 0.00000E+00 3.52500E+01 0.00000E+00
 -1        12 0.00000E+00 3.23500E+01 0.00000E+00
 -1        13 0.00000E+00 2.94000E+01 0.00000E+00
 -1        14 0.00000E+00 2.64500E+01 0.00000E+00
 -1        15 0.00000E+00 2.35000E+01 0.00000E+00
 -1        16 0.00000E+00 2.05500E+01 0.00000E+00
 -1        17 0.00000E+00 1.76000E+01 0.00000E+00
 -1        18 0.00000E+00 1.47000E+01 0.00000E+00
 -1        19 0.00000E+00 1.17500E+01 0.00000E+00
 -1        20 0.00000E+00 8.80000E+00 0.00000E+00
 -1        21 0.00000E+00 5.85000E+00 0.00000E+00
 -1        22 0.00000E+00 2.90000E+00 0.00000E+00
 -1        23 3.15000E+00 5.00000E+01 0.00000E+00
 -1        24 6.15000E+00 5.00000E+01 0.00000E+00
 -1        25 9.15000E+00 5.00000E+01 0.00000E+00
 -1        26 1.21500E+01 5.00000E+01 0.00000E+00
 -1        27 1.51500E+01 5.00000E+01 0.00000E+00
 -1        28 1.81500E+01 5.00000E+01 0.00000E+00
 -1        29 2.11500E+01 5.00000E+01 0.00000E+00
 -1        30 2.41500E+01 5.00000E+01 0.00000E+00
 -1        31 2.71500E+01 5.00000E+01 0.00000E+00
 -1        32 3.01500E+01 5.00000E+01 0.00000E+00
 -1        33 3.31500E+01 5.00000E+01 0.00000E+00
 -1        34 3.61500E+01 5.00000E+01 0.00000E+00
 -1        35 3.91500E+01 5.00000E+01 0.00000E+00
 -1        36 4.21500E+01 5.00000E+01 0.00000E+00
 -1        37 4.51500E+01 5.00000E+01 0.00000E+00
 -1        38 4.81500E+01 5.00000E+01 0.00000E+00
 -1        39 5.11500E+01 5.00000E+01 0.00000E+00
 -1        40 5.41500E+01 5.00000E+01 0.00000E+00
 -1        41 5.71500E+01 5.00000E+01 0.00000E+00
 -1        42 6.01500E+01 5.00000E+01 0.00000E+00
 -1        43 6.31500E+01 5.00000E+01 0.00000E+00
 -1        44 6.61500E+01 5.00000E+01 0.00000E+00
 -1        45 6.91500E+01 5.00000E+01 0.00000E+00
 -1        46 7.21500E+01 5.00000E+01 0.00000E+00
 -1        47 7.51500E+01 5.00000E+01 0.00000E+00
 -1        48 7.81500E+01 5.00000E+01 0.00000E+00
 -1        49 8.11500E+01 5.00000E+01 0.00000E+00
 -1        50 8.41500E+01 5.00000E+01 0.00000E+00
 -1        51 8.71500E+01 5.00000E+01 0.00000E+00
 -1        52 9.01500E+01 5.00000E+01 0.00000E+00
 -1        53 9.31500E+01 5.00000E+01 0.00000E+00
 -1        54 9.61500E+01 5.00000E+01 0.00000E+00
 -1        55 9.91500E+01 5.00000E+01 0.00000E+00
 -1        56 1.02150E+02 5.00000E+01 0.00000E+00
 -1        57 1.05150E+02 5.00000E+01 0.00000E+00
 -1        58 1.08150E+02 5.00000E+01 0.00000E+00
 -1        59 1.11150E+02 5.00000E+01 0.00000E+00
 -1        60 1.14150E+02 5.00000E+01 0.00000E+00
 -1        61 1.17150E+02 5.00000E+01 0.00000E+00
 -1        62 1.20150E+02 5.00000E+01 0.00000E+00
 -1        63 1.23150E+02 5.00000E+01 0.00000E+00
 -1        64 1.26150E+02 5.00000E+01 0.00000E+00
 -1        65 1.29150E+02 5.00000E+01 0.00000E+00
 -1        66 1.32150E+02 5.00000E+01 0.00000E+00
 -1        67 1.35150E+02 5.00000E+01 0.00000E+00
 -1        68 1.38150E+02 5.00000E+01 0.00000E+00
 -1        69 1.41150E+02 5.00000E+01 0.00000E+00
 -1        70 1.44150E+02 5.00000E+01 0.00000E+00
 -1        71 1.47150E+02 5.00000E+01 0.00000E+00
 -1        72 3.15000E+00 0.00000E+00 0.00000E+00
 -1        73 6.15000E+00 0.00000E+00 0.00000E+00
 -1        74 9.15000E+00 0.00000E+00 0.00000E+00
 -1        75 1.21500E+01 0.00000E+00 0.00000E+00
 -1        76 1.51500E+01 0.00000E+00 0.00000E+00
 -1        77 1.81500E+01 0.00000E+00 0.00000E+00
 -1        78 2.11500E+01 0.00000E+00 0.00000E+00
 -1        79 2.41500E+01 0.00000E+00 0.00000E+00
 -1        80 2.71500E+01 0.00000E+00 0.00000E+00
 -1        81 3.01500E+01 0.00000E+00 0.00000E+00
 -1        82 3.31500E+01 0.00000E+00 0.00000E+00
 -1        83 3.61500E+01 0.00000E+00 0.00000E+00
 -1        84 3.91500E+01 0.00000E+00 0.00000E+00
 -1        85 4.21500E+01 0.00000E+00 0.00000E+00
 -1        86 4.51500E+01 0.00000E+00 0.00000E+00
 -1        87 4.81500E+01 0.00000E+00 0.00000E+00
 -1        88 5.11500E+01 0.00000E+00 0.00000E+00
 -1        89 5.41500E+01 0.00000E+00 0.00000E+00
 -1        90 5.71500E+01 0.00000E+00 0.00000E+00
 -1        91 6.01500E+01 0.00000E+00 0.00000E+00
 -1        92 6.31500E+01 0.00000E+00 0.00000E+00
 -1        93 6.61500E+01 0.00000E+00 0.00000E+00
 -1        94 6.91500E+01 0.00000E+00 0.00000E+00
 -1        95 7.21500E+01 0.00000E+00 0.00000E+00
 -1        96 7.51500E+01 0.00000E+00 0.00000E+00
 -1        97 7.81500E+01 0.00000E+00 0.00000E+00
 -1        98 8.11500E+01 0.00000E+00 0.00000E+00
 -1        99 8.41500E+01 0.00000E+00 0.00000E+00
 -1       100 8.71500E+01 0.00000E+00 0.00000E+00
 -1       101 9.01500E+01 0.00000E+00 0.00000E+00
 -1       102 9.31500E+01 0.00000E+00 0.00000E+00
 -1       103 9.61500E+01 0.00000E+00 0.00000E+00
 -1       104 9.91500E+01 0.00000E+00 0.00000E+00
 -1       105 1.02150E+02 0.00000E+00 0.00000E+00
 -1       106 1.05150E+02 0.00000E+00 0.00000E+00
 -1       107 1.08150E+02 0.00000E+00 0.00000E+00
 -1       108 1.11150E+02 0.00000E+00 0.00000E+00
 -1       109 1.14150E+02 0.00000E+00 0.00000E+00
 -1       110 1.17150E+02 0.00000E+00 0.00000E+00
 -1       111 1.20150E+02 0.00000E+00 0.00000E+00
 -1       112 1.23150E+02 0.00000E+00 0.00000E+00
 -1       113 1.26150E+02 0.00000E+00 0.00000E+00
 -1       114 1.29150E+02 0.00000E+00 0.00000E+00
 -1       115 1.32150E+02 0.00000E+00 0.00000E+00
 -1       116 1.35150E+02 0.00000E+00 0.00000E+00
 -1       117 1.38150E+02 0.00000E+00 0.00000E+00
 -1       118 1.41150E+02 0.00000E+00 0.00000E+00
 -1       119 1.44150E+02 0.00000E+00 0.00000E+00
 -1       120 1.47150E+02 0.00000E+00 0.00000E+00
 -1       121 1.50000E+02 2.95000E+00 0.00000E+00
 -1       122 1.50000E+02 5.90000E+00 0.00000E+00
 -1       123 1.50000E+02 8.85000E+00 0.00000E+00
 -1       124 1.50000E+02 1.18000E+01 0.00000E+00
 -1       125 1.50000E+02 1.47500E+01 0.00000E+00
 -1       126 1.50000E+02 1.76500E+01 0.00000E+00
 -1       127 1.50000E+02 2.06000E+01 0.00000E+00
 -1       128 1.50000E+02 2.35500E+01 0.00000E+00
 -1       129 1.50000E+02 2.65000E+01 0.00000E+00
 -1       130 1.50000E+02 2.94500E+01 0.00000E+00
 -1       131 1.50000E+02 3.24000E+01 0.00000E+00
 -1       132 1.50000E+02 3.53000E+01 0.00000E+00
 -1       133 1.50000E+02 3.82500E+01 0.00000E+00
 -1       134 1.50000E+02 4.12000E+01 0.00000E+00
 -1       135 1.50000E+02 4.41500E+01 0.00000E+00
 -1       136 1.50000E+02 4.71000E+01 0.00000E+00
 -1       137 5.42637E+01 2.35802E+01 0.00000E+00
 -1       138 5.37855E+01 2.22268E+01 0.00000E+00
 -1       139 5.30019E+01 2.09478E+01 0.00000E+00
 -1       140 5.19793E+01 1.98782E+01 0.00000E+00
 -1       141 5.05949E+01 1.89647E+01 0.00000E+00
 -1       142 4.92412E+01 1.84538E+01 0.00000E+00
 -1       143 4.77778E+01 1.82304E+01 0.00000E+00
 -1       144 4.61824E+01 1.83406E+01 0.00000E+00
 -1       145 4.47072E+01 1.87869E+01 0.00000E+00
 -1       146 4.34179E+01 1.95076E+01 0.00000E+00
 -1       147 4.23176E+01 2.04731E+01 0.00000E+00
 -1       148 4.14331E+01 2.16615E+01 0.00000E+00
 -1       149 4.08172E+01 2.30133E+01 0.00000E+00
 -1       150 4.04948E+01 2.45183E+01 0.00000E+00
 -1       151 4.04986E+01 2.59648E+01 0.00000E+00
 -1       152 4.08046E+01 2.73948E+01 0.00000E+00
 -1       153 4.13982E+01 2.87251E+01 0.00000E+00
 -1       154 4.24061E+01 3.00673E+01 0.00000E+00
 -1       155 4.49608E+01 3.17621E+01 0.00000E+00
 -1       156 4.64399E+01 3.21485E+01 0.00000E+00
 -1       157 4.79090E+01 3.22087E+01 0.00000E+00
 -1       158 4.94869E+01 3.19231E+01 0.00000E+00
 -1       159 5.08568E+01 3.13434E+01 0.00000E+00
 -1       160 5.20771E+01 3.04839E+01 0.00000E+00
 -1       161 5.30768E+01 2.93996E+01 0.00000E+00
 -1       162 5.38193E+01 2.81471E+01 0.00000E+00
 -1       163 5.43089E+01 2.66661E+01 0.00000E+00
 -1       164 2.59800E+00 4.55750E+01 0.00000E+00
 -1       165 2.59800E+00 4.26250E+01 0.00000E+00
 -1       166 2.59800E+00 3.96750E+01 0.00000E+00
 -1       167 2.59800E+00 3.67250E+01 0.00000E+00
 -1       168 2.59800E+00 3.38250E+01 0.00000E+00
 -1       169 2.59800E+00 3.08750E+01 0.00000E+00
 -1       170 2.59800E+00 2.79250E+01 0.00000E+00
 -1       171 2.59800E+00 2.49750E+01 0.00000E+00
 -1       172 2.59800E+00 2.20250E+01 0.00000E+00
 -1       173 2.59800E+00 1.90750E+01 0.00000E+00
 -1       174 2.59800E+00 1.61750E+01 0.00000E+00
 -1       175 2.59800E+00 1.32250E+01 0.00000E+00
 -1       176 2.59800E+00 1.02750E+01 0.00000E+00
 -1       177 2.59800E+00 7.32500E+00 0.00000E+00
 -1       178 2.59800E+00 4.37500E+00 0.00000E+00
 -1       179 2.87400E+00 2.18750E+00 0.00000E+00
 -1       180 4.65000E+00 4.74020E+01 0.00000E+00
 -1       181 7.65000E+00 4.74020E+01 0.00000E+00
 -1       182 1.06500E+01 4.74020E+01 0.00000E+00
 -1       183 1.36500E+01 4.74020E+01 0.00000E+00
 -1       184 1.66500E+01 4.74020E+01 0.00000E+00
 -1       185 1.96500E+01 4.74020E+01 0.00000E+00
 -1       186 2.26500E+01 4.74020E+01 0.00000E+00
 -1       187 2.56500E+01 4.74020E+01 0.00000E+00
 -1       188 2.86500E+01 4.74020E+01 0.00000E+00
 -1       189 3.16500E+01 4.74020E+01 0.00000E+00
 -1       190 3.46500E+01 4.74020E+01 0.00000E+00
 -1       191 3.76500E+01 4.74020E+01 0.00000E+00
 -1       192 4.06500E+01 4.74020E+01 0.00000E+00
 -1       193 4.36500E+01 4.74020E+01 0.00000E+00
 -1       194 4.66500E+01 4.74020E+01 0.00000E+00
 -1       195 4.96500E+01 4.74020E+01 0.00000E+00
 -1       196 5.26500E+01 4.74020E+01 0.00000E+00
 -1       197 5.56500E+01 4.74020E+01 0.00000E+00
 -1       198 5.86500E+01 4.74020E+01 0.00000E+00
 -1       199 6.16500E+01 4.74020E+01 0.00000E+00
 -1       200 6.46500E+01 4.74020E+01 0.00000E+00
 -1       201 6.76500E+01 4.74020E+01 0.00000E+00
 -1       202 7.06500E+01 4.74020E+01 0.00000E+00
 -1       203 7.36500E+01 4.74020E+01 0.00000E+00
 -1       204 7.66500E+01 4.74020E+01 0.00000E+00
 -1       205 7.96500E+01 4.74020E+01 0.00000E+00
 -1       206 8.26500E+01 4.74020E+01 0.00000E+00
 -1       207 8.56500E+01 4.74020E+01 0.00000E+00
 -1       208 8.86500E+01 4.74020E+01 0.00000E+00
 -1       209 9.16500E+01 4.74020E+01 0.00000E+00
 -1       210 9.46500E+01 4.74020E+01 0.00000E+00
 -1       211 9.76500E+01 4.74020E+01 0.00000E+00
 -1       212 1.00650E+02 4.74020E+01 0.00000E+00
 -1       213 1.03650E+02 4.74020E+01 0.00000E+00
 -1       214 1.06650E+02 4.74020E+01 0.00000E+00
 -1       215 1.09650E+02 4.74020E+01 0.00000E+00
 -1       216 1.12650E+02 4.74020E+01 0.00000E+00
 -1       217 1.15650E+02 4.74020E+01 0.00000E+00
 -1       218 1.18650E+02 4.74020E+01 0.00000E+00
 -1       219 1.21650E+02 4.74020E+01 0.00000E+00
 -1       220 1.24650E+02 4.74020E+01 0.00000E+00
 -1       221 1.27650E+02 4.74020E+01 0.00000E+00
 -1       222 1.30650E+02 4.74020E+01 0.00000E+00
 -1       223 1.33650E+02 4.74020E+01 0.00000E+00
 -1       224 1.36650E+02 4.74020E+01 0.00000E+00
 -1       225 1.39650E+02 4.74020E+01 0.00000E+00
 -1       226 1.42650E+02 4.74020E+01 0.00000E+00
 -1       227 1.45650E+02 4.74020E+01 0.00000E+00
 -1       228 5.87400E+00 2.18750E+00 0.00000E+00
 -1       229 8.87400E+00 2.18750E+00 0.00000E+00
 -1       230 1.18740E+01 2.18750E+00 0.00000E+00
 -1       231 1.48740E+01 2.18750E+00 0.00000E+00
 -1       232 1.78740E+01 2.18750E+00 0.00000E+00
 -1       233 2.08740E+01 2.18750E+00 0.00000E+00
 -1       234 2.38740E+01 2.18750E+00 0.00000E+00
 -1       235 2.68740E+01 2.18750E+00 0.00000E+00
 -1       236 2.98740E+01 2.18750E+00 0.00000E+00
 -1       237 3.28740E+01 2.18750E+00 0.00000E+00
 -1       238 3.58740E+01 2.18750E+00 0.00000E+00
 -1       239 3.88740E+01 2.18750E+00 0.00000E+00
 -1       240 4.18740E+01 2.18750E+00 0.00000E+00
 -1       241 4.48740E+01 2.18750E+00 0.00000E+00
 -1       242 4.78740E+01 2.18750E+00 0.00000E+00
 -1       243 5.08740E+01 2.18750E+00 0.00000E+00
 -1       244 5.38740E+01 2.18750E+00 0.00000E+00
 -1       245 5.68740E+01 2.18750E+00 0.00000E+00
 -1       246 5.98740E+01 2.18750E+00 0.00000E+00
 -1       247 6.28740E+01 2.18750E+00 0.00000E+00
 -1       248 6.58740E+01 2.18750E+00 0.00000E+00
 -1       249 6.88740E+01 2.18750E+00 0.00000E+00
 -1       250 7.18740E+01 2.18750E+00 0.00000E+00
 -1       251 7.48740E+01 2.18750E+00 0.00000E+00
 -1       252 7.78740E+01 2.18750E+00 0.00000E+00
 -1       253 8.08740E+01 2.18750E+00 0.00000E+00
 -1       254 8.38740E+01 2.18750E+00 0.00000E+00
 -1       255 8.68740E+01 2.18750E+00 0.00000E+00
 -1       256 8.98740E+01 2.18750E+00 0.00000E+00
 -1       257 9.28740E+01 2.18750E+00 0.00000E+00
 -1       258 9.58740E+01 2.18750E+00 0.00000E+00
 -1       259 9.88740E+01 2.18750E+00 0.00000E+00
 -1       260 1.01874E+02 2.18750E+00 0.00000E+00
 -1       261 1.04874E+02 2.18750E+00 0.00000E+00
 -1       262 1.07874E+02 2.18750E+00 0.00000E+00
 -1       263 1.10874E+02 2.18750E+00 0.00000E+00
 -1       264 1.13874E+02 2.18750E+00 0.00000E+00
 -1       265 1.16874E+02 2.18750E+00 0.00000E+00
 -1       266 1.19874E+02 2.18750E+00 0.00000E+00
 -1       267 1.22874E+02 2.18750E+00 0.00000E+00
 -1       268 1.25874E+02 2.18750E+00 0.00000E+00
 -1       269 1.28874E+02 2.18750E+00 0.00000E+00
 -1       270 1.31874E+02 2.18750E+00 0.00000E+00
 -1       271 1.34874E+02 2.18750E+00 0.00000E+00
 -1       272 1.37874E+02 2.18750E+00 0.00000E+00
 -1       273 1.40874E+02 2.18750E+00 0.00000E+00
 -1       274 1.43874E+02 2.18750E+00 0.00000E+00
 -1       275 1.46874E+02 2.18750E+00 0.00000E+00
 -1       276 1.47402E+02 4.42500E+00 0.00000E+00
 -1       277 1.47402E+02 7.37500E+00 0.00000E+00
 -1       278 1.47402E+02 1.03250E+01 0.00000E+00
 -1       279 1.47402E+02 1.32750E+01 0.00000E+00
 -1       280 1.47402E+02 1.61750E+01 0.00000E+00
 -1       281 1.47402E+02 1.91250E+01 0.00000E+00
 -1       282 1.47402E+02 2.20750E+01 0.00000E+00
 -1       283 1.47402E+02 2.50250E+01 0.00000E+00
 -1       284 1.47402E+02 2.79750E+01 0.00000E+00
 -1       285 1.47402E+02 3.09250E+01 0.00000E+00
 -1       286 1.47402E+02 3.38250E+01 0.00000E+00
 -1       287 1.47402E+02 3.67750E+01 0.00000E+00
 -1       288 1.47402E+02 3.97250E+01 0.00000E+00
 -1       289 1.47402E+02 4.26750E+01 0.00000E+00
 -1       290 1.46526E+02 4.50385E+01 0.00000E+00
 -1       291 5.58982E+01 2.42188E+01 0.00000E+00
 -1       292 5.51677E+01 2.24996E+01 0.00000E+00
 -1       293 5.44990E+01 2.09101E+01 0.00000E+00
 -1       294 5.33670E+01 1.95752E+01 0.00000E+00
 -1       295 5.19548E+01 1.84095E+01 0.00000E+00
 -1       296 5.03462E+01 1.75750E+01 0.00000E+00
 -1       297 4.86924E+01 1.71436E+01 0.00000E+00
 -1       298 4.68735E+01 1.67416E+01 0.00000E+00
 -1       299 4.50938E+01 1.74033E+01 0.00000E+00
 -1       300 4.34300E+01 1.80158E+01 0.00000E+00
 -1       301 4.20681E+01 1.90790E+01 0.00000E+00
 -1       302 4.09027E+01 2.03434E+01 0.00000E+00
 -1       303 4.00219E+01 2.18347E+01 0.00000E+00
 -1       304 3.93067E+01 2.34767E+01 0.00000E+00
 -1       305 3.92843E+01 2.52448E+01 0.00000E+00
 -1       306 3.94661E+01 2.69335E+01 0.00000E+00
 -1       307 3.99177E+01 2.85881E+01 0.00000E+00
 -1       308 4.06647E+01 3.03255E+01 0.00000E+00
 -1       309 4.20336E+01 3.17686E+01 0.00000E+00
 -1       310 4.37481E+01 3.25048E+01 0.00000E+00
 -1       311 4.53939E+01 3.31284E+01 0.00000E+00
 -1       312 4.71249E+01 3.33900E+01 0.00000E+00
 -1       313 4.89438E+01 3.34238E+01 0.00000E+00
 -1       314 5.06443E+01 3.27497E+01 0.00000E+00
 -1       315 5.21650E+01 3.19049E+01 0.00000E+00
 -1       316 5.34683E+01 3.07636E+01 0.00000E+00
 -1       317 5.44910E+01 2.93916E+01 0.00000E+00
 -1       318 5.52948E+01 2.78135E+01 0.00000E+00
 -1       319 5.55899E+01 2.60703E+01 0.00000E+00
 -1       320 5.19600E+00 4.11500E+01 0.00000E+00
 -1       321 5.19600E+00 4.41000E+01 0.00000E+00
 -1       322 5.19600E+00 3.52750E+01 0.00000E+00
 -1       323 5.19600E+00 3.23250E+01 0.00000E+00
 -1       324 5.19600E+00 2.93750E+01 0.00000E+00
 -1       325 5.19600E+00 2.64250E+01 0.00000E+00
 -1       326 5.19600E+00 2.34750E+01 0.00000E+00
 -1       327 5.19600E+00 2.05250E+01 0.00000E+00
 -1       328 5.19600E+00 1.76250E+01 0.00000E+00
 -1       329 5.19600E+00 1.46750E+01 0.00000E+00
 -1       330 5.19600E+00 1.17250E+01 0.00000E+00
 -1       331 5.19600E+00 8.77500E+00 0.00000E+00
 -1       332 5.19600E+00 5.82500E+00 0.00000E+00
 -1       333 5.53500E+00 4.00625E+00 0.00000E+00
 -1       334 8.53500E+00 4.00625E+00 0.00000E+00
 -1       335 9.15000E+00 4.48040E+01 0.00000E+00
 -1       336 1.21500E+01 4.48040E+01 0.00000E+00
 -1       337 1.51500E+01 4.48040E+01 0.00000E+00
 -1       338 1.81500E+01 4.48040E+01 0.00000E+00
 -1       339 2.11500E+01 4.48040E+01 0.00000E+00
 -1       340 2.41500E+01 4.48040E+01 0.00000E+00
 -1       341 2.71500E+01 4.48040E+01 0.00000E+00
 -1       342 3.01500E+01 4.48040E+01 0.00000E+00
 -1       343 3.31500E+01 4.48040E+01 0.00000E+00
 -1       344 3.61500E+01 4.48040E+01 0.00000E+00
 -1       345 3.91500E+01 4.48040E+01 0.00000E+00
 -1       346 4.21500E+01 4.48040E+01 0.00000E+00
 -1       347 4.51500E+01 4.48040E+01 0.00000E+00
 -1       348 4.81500E+01 4.48040E+01 0.00000E+00
 -1       349 5.11500E+01 4.48040E+01 0.00000E+00
 -1       350 5.41500E+01 4.48040E+01 0.00000E+00
 -1       351 5.71500E+01 4.48040E+01 0.00000E+00
 -1       352 6.01500E+01 4.48040E+01 0.00000E+00
 -1       353 6.31500E+01 4.48040E+01 0.00000E+00
 -1       354 6.61500E+01 4.48040E+01 0.00000E+00
 -1       355 6.91500E+01 4.48040E+01 0.00000E+00
 -1       356 7.21500E+01 4.48040E+01 0.00000E+00
 -1       357 7.51500E+01 4.48040E+01 0.00000E+00
 -1       358 7.81500E+01 4.48040E+01 0.00000E+00
 -1       359 8.11500E+01 4.48040E+01 0.00000E+00
 -1       360 8.41500E+01 4.48040E+01 0.00000E+00
 -1       361 8.71500E+01 4.48040E+01 0.00000E+00
 -1       362 9.01500E+01 4.48040E+01 0.00000E+00
 -1       363 9.31500E+01 4.48040E+01 0.00000E+00
 -1       364 9.61500E+01 4.48040E+01 0.00000E+00
 -1       365 9.91500E+01 4.48040E+01 0.00000E+00
 -1       366 1.02150E+02 4.48040E+01 0.00000E+00
 -1       367 1.05150E+02 4.48040E+01 0.00000E+00
 -1       368 1.08150E+02 4.48040E+01 0.00000E+00
 -1       369 1.11150E+02 4.48040E+01 0.00000E+00
 -1       370 1.14150E+02 4.48040E+01 0.00000E+00
 -1       371 1.17150E+02 4.48040E+01 0.00000E+00
 -1       372 1.20150E+02 4.48040E+01 0.00000E+00
 -1       373 1.23150E+02 4.48040E+01 0.00000E+00
 -1       374 1.26150E+02 4.48040E+01 0.00000E+00
 -1       375 1.29150E+02 4.48040E+01 0.00000E+00
 -1       376 1.32150E+02 4.48040E+01 0.00000E+00
 -1       377 1.35150E+02 4.48040E+01 0.00000E+00
 -1       378 1.38150E+02 4.48040E+01 0.00000E+00
 -1       379 1.41150E+02 4.48040E+01 0.00000E+00
 -1       380 1.43838E+02 4.49212E+01 0.00000E+00
 -1       381 1.15350E+01 4.00625E+00 0.00000E+00
 -1       382 1.45350E+01 4.00625E+00 0.00000E+00
 -1       383 1.75350E+01 4.00625E+00 0.00000E+00
 -1       384 2.05350E+01 4.00625E+00 0.00000E+00
 -1       385 2.35350E+01 4.00625E+00 0.00000E+00
 -1       386 2.65350E+01 4.00625E+00 0.00000E+00
 -1       387 2.95350E+01 4.00625E+00 0.00000E+00
 -1       388 3.25350E+01 4.00625E+00 0.00000E+00
 -1       389 3.55350E+01 4.00625E+00 0.00000E+00
 -1       390 3.85350E+01 4.00625E+00 0.00000E+00
 -1       391 4.15350E+01 4.00625E+00 0.00000E+00
 -1       392 4.45350E+01 4.00625E+00 0.00000E+00
 -1       393 4.75350E+01 4.00625E+00 0.00000E+00
 -1       394 5.05350E+01 4.00625E+00 0.00000E+00
 -1       395 5.35350E+01 4.00625E+00 0.00000E+00
 -1       396 5.65350E+01 4.00625E+00 0.00000E+00
 -1       397 5.95350E+01 4.00625E+00 0.00000E+00
 -1       398 6.25350E+01 4.00625E+00 0.00000E+00
 -1       399 6.55350E+01 4.00625E+00 0.00000E+00
 -1       400 6.85350E+01 4.00625E+00 0.00000E+00
 -1       401 7.15350E+01 4.00625E+00 0.00000E+00
 -1       402 7.45350E+01 4.00625E+00 0.00000E+00
 -1       403 7.75350E+01 4.00625E+00 0.00000E+00
 -1       404 8.05350E+01 4.00625E+00 0.00000E+00
 -1       405 8.35350E+01 4.00625E+00 0.00000E+00
 -1       406 8.65350E+01 4.00625E+00 0.00000E+00
 -1       407 8.95350E+01 4.00625E+00 0.00000E+00
 -1       408 9.25350E+01 4.00625E+00 0.00000E+00
 -1       409 9.55350E+01 4.00625E+00 0.00000E+00
 -1       410 9.85350E+01 4.00625E+00 0.00000E+00
 -1       411 1.01535E+02 4.00625E+00 0.00000E+00
 -1       412 1.04535E+02 4.00625E+00 0.00000E+00
 -1       413 1.07535E+02 4.00625E+00 0.00000E+00
 -1       414 1.10535E+02 4.00625E+00 0.00000E+00
 -1       415 1.13535E+02 4.00625E+00 0.00000E+00
 -1       416 1.16535E+02 4.00625E+00 0.00000E+00
 -1       417 1.19535E+02 4.00625E+00 0.00000E+00
 -1       418 1.22535E+02 4.00625E+00 0.00000E+00
 -1       419 1.25535E+02 4.00625E+00 0.00000E+00
 -1       420 1.28535E+02 4.00625E+00 0.00000E+00
 -1       421 1.31535E+02 4.00625E+00 0.00000E+00
 -1       422 1.34535E+02 4.00625E+00 0.00000E+00
 -1       423 1.37535E+02 4.00625E+00 0.00000E+00
 -1       424 1.40535E+02 4.00625E+00 0.00000E+00
 -1       425 1.43535E+02 4.00625E+00 0.00000E+00
 -1       426 1.45469E+02 4.21562E+00 0.00000E+00
 -1       427 1.44804E+02 1.18000E+01 0.00000E+00
 -1       428 1.44804E+02 8.85000E+00 0.00000E+00
 -1       429 1.45136E+02 6.53281E+00 0.00000E+00
 -1       430 1.44804E+02 1.47000E+01 0.00000E+00
 -1       431 1.44804E+02 1.76500E+01 0.00000E+00
 -1       432 1.44804E+02 2.06000E+01 0.00000E+00
 -1       433 1.44804E+02 2.35500E+01 0.00000E+00
 -1       434 1.44804E+02 2.65000E+01 0.00000E+00
 -1       435 1.44804E+02 2.94500E+01 0.00000E+00
 -1       436 1.44804E+02 3.23500E+01 0.00000E+00
 -1       437 1.44804E+02 3.53000E+01 0.00000E+00
 -1       438 1.44804E+02 3.82500E+01 0.00000E+00
 -1       439 1.44804E+02 4.12000E+01 0.00000E+00
 -1       440 5.61053E+01 2.11697E+01 0.00000E+00
 -1       441 5.70226E+01 2.53574E+01 0.00000E+00
 -1       442 5.68357E+01 2.28889E+01 0.00000E+00
 -1       443 5.49855E+01 1.93502E+01 0.00000E+00
 -1       444 5.35394E+01 1.79281E+01 0.00000E+00
 -1       445 5.19600E+00 3.82125E+01 0.00000E+00
 -1       446 4.99099E+01 1.58618E+01 0.00000E+00
 -1       447 4.80910E+01 1.54599E+01 0.00000E+00
 -1       448 4.54736E+01 1.57004E+01 0.00000E+00
 -1       449 4.38098E+01 1.63130E+01 0.00000E+00
 -1       450 4.17968E+01 1.73276E+01 0.00000E+00
 -1       451 4.02859E+01 1.86056E+01 0.00000E+00
 -1       452 3.92741E+01 2.03873E+01 0.00000E+00
 -1       453 3.81687E+01 2.20043E+01 0.00000E+00
 -1       454 3.79156E+01 2.43433E+01 0.00000E+00
 -1       455 3.80865E+01 2.62279E+01 0.00000E+00
 -1       456 3.81182E+01 2.81904E+01 0.00000E+00
 -1       457 3.88651E+01 2.99278E+01 0.00000E+00
 -1       458 4.02872E+01 3.20544E+01 0.00000E+00
 -1       459 4.23464E+01 3.34047E+01 0.00000E+00
 -1       460 4.39922E+01 3.40283E+01 0.00000E+00
 -1       461 4.60281E+01 3.47893E+01 0.00000E+00
 -1       462 4.80087E+01 3.47866E+01 0.00000E+00
 -1       463 5.03643E+01 3.45254E+01 0.00000E+00
 -1       464 5.21562E+01 3.36801E+01 0.00000E+00
 -1       465 5.37258E+01 3.23724E+01 0.00000E+00
 -1       466 5.50860E+01 3.09024E+01 0.00000E+00
 -1       467 5.60479E+01 2.91908E+01 0.00000E+00
 -1       468 5.69682E+01 2.72002E+01 0.00000E+00
 -1       469 5.19017E+01 1.65442E+01 0.00000E+00
 -1       470 5.79602E+01 2.40274E+01 0.00000E+00
 -1       471 3.84876E+01 3.16567E+01 0.00000E+00
 -1       472 4.66911E+01 1.44187E+01 0.00000E+00
 -1       473 4.05999E+01 3.36905E+01 0.00000E+00
 -1       474 1.00350E+01 6.60425E+00 0.00000E+00
 -1       475 7.79400E+00 3.08500E+01 0.00000E+00
 -1       476 7.79400E+00 3.38000E+01 0.00000E+00
 -1       477 7.79400E+00 2.49500E+01 0.00000E+00
 -1       478 7.79400E+00 2.20000E+01 0.00000E+00
 -1       479 7.79400E+00 1.91000E+01 0.00000E+00
 -1       480 7.79400E+00 1.61500E+01 0.00000E+00
 -1       481 7.79400E+00 1.32000E+01 0.00000E+00
 -1       482 7.79400E+00 1.02500E+01 0.00000E+00
 -1       483 1.30350E+01 6.60425E+00 0.00000E+00
 -1       484 1.06500E+01 4.22060E+01 0.00000E+00
 -1       485 5.14617E+01 1.45805E+01 0.00000E+00
 -1       486 1.36500E+01 4.22060E+01 0.00000E+00
 -1       487 1.66500E+01 4.22060E+01 0.00000E+00
 -1       488 1.96500E+01 4.22060E+01 0.00000E+00
 -1       489 2.26500E+01 4.22060E+01 0.00000E+00
 -1       490 2.56500E+01 4.22060E+01 0.00000E+00
 -1       491 2.86500E+01 4.22060E+01 0.00000E+00
 -1       492 3.16500E+01 4.22060E+01 0.00000E+00
 -1       493 3.46500E+01 4.22060E+01 0.00000E+00
 -1       494 3.76500E+01 4.22060E+01 0.00000E+00
 -1       495 4.06500E+01 4.22060E+01 0.00000E+00
 -1       496 4.36500E+01 4.22060E+01 0.00000E+00
 -1       497 4.66500E+01 4.22060E+01 0.00000E+00
 -1       498 4.96500E+01 4.22060E+01 0.00000E+00
 -1       499 5.26500E+01 4.22060E+01 0.00000E+00
 -1       500 5.56500E+01 4.22060E+01 0.00000E+00
 -1       501 5.86500E+01 4.22060E+01 0.00000E+00
 -1       502 6.16500E+01 4.22060E+01 0.00000E+00
 -1       503 6.46500E+01 4.22060E+01 0.00000E+00
 -1       504 6.76500E+01 4.22060E+01 0.00000E+00
 -1       505 7.06500E+01 4.22060E+01 0.00000E+00
 -1       506 7.36500E+01 4.22060E+01 0.00000E+00
 -1       507 7.66500E+01 4.22060E+01 0.00000E+00
 -1       508 7.96500E+01 4.22060E+01 0.00000E+00
 -1       509 8.26500E+01 4.22060E+01 0.00000E+00
 -1       510 8.56500E+01 4.22060E+01 0.00000E+00
 -1       511 8.86500E+01 4.22060E+01 0.00000E+00
 -1       512 9.16500E+01 4.22060E+01 0.00000E+00
 -1       513 9.46500E+01 4.22060E+01 0.00000E+00
 -1       514 9.76500E+01 4.22060E+01 0.00000E+00
 -1       515 1.00650E+02 4.22060E+01 0.00000E+00
 -1       516 1.03650E+02 4.22060E+01 0.00000E+00
 -1       517 1.06650E+02 4.22060E+01 0.00000E+00
 -1       518 1.09650E+02 4.22060E+01 0.00000E+00
 -1       519 1.12650E+02 4.22060E+01 0.00000E+00
 -1       520 1.15650E+02 4.22060E+01 0.00000E+00
 -1       521 1.18650E+02 4.22060E+01 0.00000E+00
 -1       522 1.21650E+02 4.22060E+01 0.00000E+00
 -1       523 1.24650E+02 4.22060E+01 0.00000E+00
 -1       524 1.27650E+02 4.22060E+01 0.00000E+00
 -1       525 1.30650E+02 4.22060E+01 0.00000E+00
 -1       526 1.33650E+02 4.22060E+01 0.00000E+00
 -1       527 1.36650E+02 4.22060E+01 0.00000E+00
 -1       528 1.39650E+02 4.22060E+01 0.00000E+00
 -1       529 5.78948E+01 2.14241E+01 0.00000E+00
 -1       530 1.90350E+01 6.60425E+00 0.00000E+00
 -1       531 2.20350E+01 6.60425E+00 0.00000E+00
 -1       532 2.50350E+01 6.60425E+00 0.00000E+00
 -1       533 2.80350E+01 6.60425E+00 0.00000E+00
 -1       534 3.10350E+01 6.60425E+00 0.00000E+00
 -1       535 3.40350E+01 6.60425E+00 0.00000E+00
 -1       536 3.70350E+01 6.60425E+00 0.00000E+00
 -1       537 4.00350E+01 6.60425E+00 0.00000E+00
 -1       538 4.30350E+01 6.60425E+00 0.00000E+00
 -1       539 4.60350E+01 6.60425E+00 0.00000E+00
 -1       540 4.90350E+01 6.60425E+00 0.00000E+00
 -1       541 5.20350E+01 6.60425E+00 0.00000E+00
 -1       542 5.50350E+01 6.60425E+00 0.00000E+00
 -1       543 5.80350E+01 6.60425E+00 0.00000E+00
 -1       544 6.10350E+01 6.60425E+00 0.00000E+00
 -1       545 6.40350E+01 6.60425E+00 0.00000E+00
 -1       546 6.70350E+01 6.60425E+00 0.00000E+00
 -1       547 7.00350E+01 6.60425E+00 0.00000E+00
 -1       548 7.30350E+01 6.60425E+00 0.00000E+00
 -1       549 7.60350E+01 6.60425E+00 0.00000E+00
 -1       550 7.90350E+01 6.60425E+00 0.00000E+00
 -1       551 8.20350E+01 6.60425E+00 0.00000E+00
 -1       552 8.50350E+01 6.60425E+00 0.00000E+00
 -1       553 8.80350E+01 6.60425E+00 0.00000E+00
 -1       554 9.10350E+01 6.60425E+00 0.00000E+00
 -1       555 9.40350E+01 6.60425E+00 0.00000E+00
 -1       556 9.70350E+01 6.60425E+00 0.00000E+00
 -1       557 1.00035E+02 6.60425E+00 0.00000E+00
 -1       558 1.03035E+02 6.60425E+00 0.00000E+00
 -1       559 1.06035E+02 6.60425E+00 0.00000E+00
 -1       560 1.09035E+02 6.60425E+00 0.00000E+00
 -1       561 1.12035E+02 6.60425E+00 0.00000E+00
 -1       562 1.15035E+02 6.60425E+00 0.00000E+00
 -1       563 1.18035E+02 6.60425E+00 0.00000E+00
 -1       564 1.21035E+02 6.60425E+00 0.00000E+00
 -1       565 1.24035E+02 6.60425E+00 0.00000E+00
 -1       566 1.27035E+02 6.60425E+00 0.00000E+00
 -1       567 1.30035E+02 6.60425E+00 0.00000E+00
 -1       568 1.33035E+02 6.60425E+00 0.00000E+00
 -1       569 1.36035E+02 6.60425E+00 0.00000E+00
 -1       570 1.39035E+02 6.60425E+00 0.00000E+00
 -1       571 1.42035E+02 6.60425E+00 0.00000E+00
 -1       572 1.42206E+02 1.61750E+01 0.00000E+00
 -1       573 1.42206E+02 1.91250E+01 0.00000E+00
 -1       574 1.42206E+02 1.03250E+01 0.00000E+00
 -1       575 1.42206E+02 1.32500E+01 0.00000E+00
 -1       576 1.42206E+02 2.20750E+01 0.00000E+00
 -1       577 1.42206E+02 2.50250E+01 0.00000E+00
 -1       578 1.42206E+02 2.79750E+01 0.00000E+00
 -1       579 1.42206E+02 3.08750E+01 0.00000E+00
 -1       580 1.42206E+02 3.38250E+01 0.00000E+00
 -1       581 1.42206E+02 3.67750E+01 0.00000E+00
 -1       582 1.42206E+02 3.97250E+01 0.00000E+00
 -1       583 5.85423E+01 2.63245E+01 0.00000E+00
 -1       584 1.60350E+01 6.60425E+00 0.00000E+00
 -1       585 5.69347E+01 1.94049E+01 0.00000E+00
 -1       586 5.80648E+01 2.89153E+01 0.00000E+00
 -1       587 7.92300E+00 4.16780E+01 0.00000E+00
 -1       588 5.54650E+01 1.74162E+01 0.00000E+00
 -1       589 3.64712E+01 2.72355E+01 0.00000E+00
 -1       590 7.79400E+00 2.79000E+01 0.00000E+00
 -1       591 3.99878E+01 1.67211E+01 0.00000E+00
 -1       592 4.93163E+01 1.42316E+01 0.00000E+00
 -1       593 4.41070E+01 1.45545E+01 0.00000E+00
 -1       594 4.21068E+01 1.54383E+01 0.00000E+00
 -1       595 3.82886E+01 1.86495E+01 0.00000E+00
 -1       596 3.71831E+01 2.02665E+01 0.00000E+00
 -1       597 3.64203E+01 2.29984E+01 0.00000E+00
 -1       598 3.63004E+01 2.53510E+01 0.00000E+00
 -1       599 3.67620E+01 2.98027E+01 0.00000E+00
 -1       600 4.70205E+01 3.63355E+01 0.00000E+00
 -1       601 4.25616E+01 3.53204E+01 0.00000E+00
 -1       602 4.45975E+01 3.60814E+01 0.00000E+00
 -1       603 4.93755E+01 3.63607E+01 0.00000E+00
 -1       604 5.19920E+01 3.56540E+01 0.00000E+00
 -1       605 5.39316E+01 3.42152E+01 0.00000E+00
 -1       606 5.55418E+01 3.26884E+01 0.00000E+00
 -1       607 5.69161E+01 3.08048E+01 0.00000E+00
 -1       608 7.61550E+00 6.21462E+00 0.00000E+00
 -1       609 5.38273E+01 1.60323E+01 0.00000E+00
 -1       610 7.79400E+00 3.67375E+01 0.00000E+00
 -1       611 5.90193E+01 2.25627E+01 0.00000E+00
 -1       612 1.41678E+02 4.22645E+01 0.00000E+00
 -1       613 3.88003E+01 3.32928E+01 0.00000E+00
 -1       614 4.53245E+01 1.32728E+01 0.00000E+00
 -1       615 4.79164E+01 1.31904E+01 0.00000E+00
 -1       616 1.03920E+01 2.05500E+01 0.00000E+00
 -1       617 1.03920E+01 2.35000E+01 0.00000E+00
 -1       618 1.03920E+01 1.46750E+01 0.00000E+00
 -1       619 1.03920E+01 1.17250E+01 0.00000E+00
 -1       620 1.15350E+01 9.20225E+00 0.00000E+00
 -1       621 5.78487E+01 1.71920E+01 0.00000E+00
 -1       622 1.45350E+01 9.20225E+00 0.00000E+00
 -1       623 4.00723E+01 1.44692E+01 0.00000E+00
 -1       624 5.89560E+01 3.07510E+01 0.00000E+00
 -1       625 1.51500E+01 3.96080E+01 0.00000E+00
 -1       626 1.81500E+01 3.96080E+01 0.00000E+00
 -1       627 2.11500E+01 3.96080E+01 0.00000E+00
 -1       628 2.41500E+01 3.96080E+01 0.00000E+00
 -1       629 2.71500E+01 3.96080E+01 0.00000E+00
 -1       630 3.01500E+01 3.96080E+01 0.00000E+00
 -1       631 3.31500E+01 3.96080E+01 0.00000E+00
 -1       632 3.61500E+01 3.96080E+01 0.00000E+00
 -1       633 3.91500E+01 3.96080E+01 0.00000E+00
 -1       634 4.21500E+01 3.96080E+01 0.00000E+00
 -1       635 4.51500E+01 3.96080E+01 0.00000E+00
 -1       636 4.81500E+01 3.96080E+01 0.00000E+00
 -1       637 5.11500E+01 3.96080E+01 0.00000E+00
 -1       638 5.41500E+01 3.96080E+01 0.00000E+00
 -1       639 5.71500E+01 3.96080E+01 0.00000E+00
 -1       640 6.01500E+01 3.96080E+01 0.00000E+00
 -1       641 6.31500E+01 3.96080E+01 0.00000E+00
 -1       642 6.61500E+01 3.96080E+01 0.00000E+00
 -1       643 6.91500E+01 3.96080E+01 0.00000E+00
 -1       644 7.21500E+01 3.96080E+01 0.00000E+00
 -1       645 7.51500E+01 3.96080E+01 0.00000E+00
 -1       646 7.81500E+01 3.96080E+01 0.00000E+00
 -1       647 8.11500E+01 3.96080E+01 0.00000E+00
 -1       648 8.41500E+01 3.96080E+01 0.00000E+00
 -1       649 8.71500E+01 3.96080E+01 0.00000E+00
 -1       650 9.01500E+01 3.96080E+01 0.00000E+00
 -1       651 9.31500E+01 3.96080E+01 0.00000E+00
 -1       652 9.61500E+01 3.96080E+01 0.00000E+00
 -1       653 9.91500E+01 3.96080E+01 0.00000E+00
 -1       654 1.02150E+02 3.96080E+01 0.00000E+00
 -1       655 1.05150E+02 3.96080E+01 0.00000E+00
 -1       656 1.08150E+02 3.96080E+01 0.00000E+00
 -1       657 1.11150E+02 3.96080E+01 0.00000E+00
 -1       658 1.14150E+02 3.96080E+01 0.00000E+00
 -1       659 1.17150E+02 3.96080E+01 0.00000E+00
 -1       660 1.20150E+02 3.96080E+01 0.00000E+00
 -1       661 1.23150E+02 3.96080E+01 0.00000E+00
 -1       662 1.26150E+02 3.96080E+01 0.00000E+00
 -1       663 1.29150E+02 3.96080E+01 0.00000E+00
 -1       664 1.32150E+02 3.96080E+01 0.00000E+00
 -1       665 1.35150E+02 3.96080E+01 0.00000E+00
 -1       666 1.38150E+02 3.96080E+01 0.00000E+00
 -1       667 4.56301E+01 3.79142E+01 0.00000E+00
 -1       668 5.39836E+01 3.63121E+01 0.00000E+00
 -1       669 2.05350E+01 9.20225E+00 0.00000E+00
 -1       670 2.95350E+01 9.20225E+00 0.00000E+00
 -1       671 3.25350E+01 9.20225E+00 0.00000E+00
 -1       672 3.55350E+01 9.20225E+00 0.00000E+00
 -1       673 3.85350E+01 9.20225E+00 0.00000E+00
 -1       674 4.15350E+01 9.20225E+00 0.00000E+00
 -1       675 4.45350E+01 9.20225E+00 0.00000E+00
 -1       676 4.75350E+01 9.20225E+00 0.00000E+00
 -1       677 5.05350E+01 9.20225E+00 0.00000E+00
 -1       678 5.35350E+01 9.20225E+00 0.00000E+00
 -1       679 5.65350E+01 9.20225E+00 0.00000E+00
 -1       680 5.95350E+01 9.20225E+00 0.00000E+00
 -1       681 6.25350E+01 9.20225E+00 0.00000E+00
 -1       682 6.55350E+01 9.20225E+00 0.00000E+00
 -1       683 6.85350E+01 9.20225E+00 0.00000E+00
 -1       684 7.15350E+01 9.20225E+00 0.00000E+00
 -1       685 7.45350E+01 9.20225E+00 0.00000E+00
 -1       686 7.75350E+01 9.20225E+00 0.00000E+00
 -1       687 8.05350E+01 9.20225E+00 0.00000E+00
 -1       688 8.35350E+01 9.20225E+00 0.00000E+00
 -1       689 8.65350E+01 9.20225E+00 0.00000E+00
 -1       690 8.95350E+01 9.20225E+00 0.00000E+00
 -1       691 9.25350E+01 9.20225E+00 0.00000E+00
 -1       692 9.55350E+01 9.20225E+00 0.00000E+00
 -1       693 9.85350E+01 9.20225E+00 0.00000E+00
 -1       694 1.01535E+02 9.20225E+00 0.00000E+00
 -1       695 1.04535E+02 9.20225E+00 0.00000E+00
 -1       696 1.07535E+02 9.20225E+00 0.00000E+00
 -1       697 1.10535E+02 9.20225E+00 0.00000E+00
 -1       698 1.13535E+02 9.20225E+00 0.00000E+00
 -1       699 1.16535E+02 9.20225E+00 0.00000E+00
 -1       700 1.19535E+02 9.20225E+00 0.00000E+00
 -1       701 1.22535E+02 9.20225E+00 0.00000E+00
 -1       702 1.25535E+02 9.20225E+00 0.00000E+00
 -1       703 1.28535E+02 9.20225E+00 0.00000E+00
 -1       704 1.31535E+02 9.20225E+00 0.00000E+00
 -1       705 1.34535E+02 9.20225E+00 0.00000E+00
 -1       706 1.37535E+02 9.20225E+00 0.00000E+00
 -1       707 1.39870E+02 9.76363E+00 0.00000E+00
 -1       708 1.39608E+02 2.35500E+01 0.00000E+00
 -1       709 1.40178E+02 3.96665E+01 0.00000E+00
 -1       710 1.39608E+02 1.76500E+01 0.00000E+00
 -1       711 1.39608E+02 2.65000E+01 0.00000E+00
 -1       712 1.39608E+02 2.06000E+01 0.00000E+00
 -1       713 5.91150E+01 1.96060E+01 0.00000E+00
 -1       714 1.39608E+02 2.94000E+01 0.00000E+00
 -1       715 1.39608E+02 3.23500E+01 0.00000E+00
 -1       716 1.39608E+02 3.53000E+01 0.00000E+00
 -1       717 1.75350E+01 9.20225E+00 0.00000E+00
 -1       718 5.99138E+01 2.47547E+01 0.00000E+00
 -1       719 5.75468E+01 3.27081E+01 0.00000E+00
 -1       720 3.46777E+01 2.64481E+01 0.00000E+00
 -1       721 9.78035E+00 3.93914E+01 0.00000E+00
 -1       722 3.48270E+01 2.10811E+01 0.00000E+00
 -1       723 4.24137E+01 1.34276E+01 0.00000E+00
 -1       724 2.65350E+01 9.20225E+00 0.00000E+00
 -1       725 2.35350E+01 9.20225E+00 0.00000E+00
 -1       726 1.24652E+01 3.94997E+01 0.00000E+00
 -1       727 1.03920E+01 1.76125E+01 0.00000E+00
 -1       728 3.49685E+01 2.90153E+01 0.00000E+00
 -1       729 1.03920E+01 3.23250E+01 0.00000E+00
 -1       730 4.00564E+01 3.63402E+01 0.00000E+00
 -1       731 3.62467E+01 3.20124E+01 0.00000E+00
 -1       732 3.61817E+01 1.83955E+01 0.00000E+00
 -1       733 5.11747E+01 3.78249E+01 0.00000E+00
 -1       734 5.06643E+01 1.27131E+01 0.00000E+00
 -1       735 4.79851E+01 3.79394E+01 0.00000E+00
 -1       736 3.44801E+01 2.40789E+01 0.00000E+00
 -1       737 3.77256E+01 1.64406E+01 0.00000E+00
 -1       738 4.29203E+01 3.74644E+01 0.00000E+00
 -1       739 6.03199E+01 2.79915E+01 0.00000E+00
 -1       740 5.58614E+01 1.52863E+01 0.00000E+00
 -1       741 5.59168E+01 3.46964E+01 0.00000E+00
 -1       742 5.37169E+01 1.35590E+01 0.00000E+00
 -1       743 1.03920E+01 3.52625E+01 0.00000E+00
 -1       744 1.03920E+01 2.64500E+01 0.00000E+00
 -1       745 6.02395E+01 2.07446E+01 0.00000E+00
 -1       746 6.16914E+01 2.64216E+01 0.00000E+00
 -1       747 1.39608E+02 1.47250E+01 0.00000E+00
 -1       748 1.39739E+02 1.22443E+01 0.00000E+00
 -1       749 3.44532E+01 3.12249E+01 0.00000E+00
 -1       750 1.38879E+02 3.74540E+01 0.00000E+00
 -1       751 4.36312E+01 1.21459E+01 0.00000E+00
 -1       752 3.82568E+01 3.59425E+01 0.00000E+00
 -1       753 1.03920E+01 2.93875E+01 0.00000E+00
 -1       754 4.65498E+01 1.20444E+01 0.00000E+00
 -1       755 3.65594E+01 3.36485E+01 0.00000E+00
 -1       756 1.29900E+01 1.32000E+01 0.00000E+00
 -1       757 3.31189E+01 2.79247E+01 0.00000E+00
 -1       758 1.96500E+01 3.70100E+01 0.00000E+00
 -1       759 2.26500E+01 3.70100E+01 0.00000E+00
 -1       760 2.56500E+01 3.70100E+01 0.00000E+00
 -1       761 2.86500E+01 3.70100E+01 0.00000E+00
 -1       762 3.16500E+01 3.70100E+01 0.00000E+00
 -1       763 3.46500E+01 3.70100E+01 0.00000E+00
 -1       764 5.56500E+01 3.73902E+01 0.00000E+00
 -1       765 5.86500E+01 3.73902E+01 0.00000E+00
 -1       766 6.16500E+01 3.73902E+01 0.00000E+00
 -1       767 6.46500E+01 3.73902E+01 0.00000E+00
 -1       768 6.76500E+01 3.73902E+01 0.00000E+00
 -1       769 7.06500E+01 3.73902E+01 0.00000E+00
 -1       770 7.36500E+01 3.73902E+01 0.00000E+00
 -1       771 7.66500E+01 3.73902E+01 0.00000E+00
 -1       772 7.96500E+01 3.73902E+01 0.00000E+00
 -1       773 8.26500E+01 3.73902E+01 0.00000E+00
 -1       774 8.56500E+01 3.73902E+01 0.00000E+00
 -1       775 8.86500E+01 3.73902E+01 0.00000E+00
 -1       776 9.16500E+01 3.73902E+01 0.00000E+00
 -1       777 9.46500E+01 3.73902E+01 0.00000E+00
 -1       778 9.76500E+01 3.73902E+01 0.00000E+00
 -1       779 1.00650E+02 3.73902E+01 0.00000E+00
 -1       780 1.03650E+02 3.73902E+01 0.00000E+00
 -1       781 1.06650E+02 3.73902E+01 0.00000E+00
 -1       782 1.09650E+02 3.73902E+01 0.00000E+00
 -1       783 1.12650E+02 3.73902E+01 0.00000E+00
 -1       784 1.15650E+02 3.73902E+01 0.00000E+00
 -1       785 1.18650E+02 3.73902E+01 0.00000E+00
 -1       786 1.21650E+02 3.73902E+01 0.00000E+00
 -1       787 1.24650E+02 3.73902E+01 0.00000E+00
 -1       788 1.27650E+02 3.73902E+01 0.00000E+00
 -1       789 1.30650E+02 3.73902E+01 0.00000E+00
 -1       790 1.33650E+02 3.73902E+01 0.00000E+00
 -1       791 1.36264E+02 3.74221E+01 0.00000E+00
 -1       792 3.10350E+01 1.18003E+01 0.00000E+00
 -1       793 4.00350E+01 1.18003E+01 0.00000E+00
 -1       794 5.50350E+01 1.17552E+01 0.00000E+00
 -1       795 5.80350E+01 1.17552E+01 0.00000E+00
 -1       796 6.10350E+01 1.17552E+01 0.00000E+00
 -1       797 6.40350E+01 1.17552E+01 0.00000E+00
 -1       798 6.70350E+01 1.17552E+01 0.00000E+00
 -1       799 7.00350E+01 1.17552E+01 0.00000E+00
 -1       800 7.30350E+01 1.17552E+01 0.00000E+00
 -1       801 7.60350E+01 1.17552E+01 0.00000E+00
 -1       802 7.90350E+01 1.17552E+01 0.00000E+00
 -1       803 8.20350E+01 1.17552E+01 0.00000E+00
 -1       804 8.50350E+01 1.17552E+01 0.00000E+00
 -1       805 8.80350E+01 1.17552E+01 0.00000E+00
 -1       806 9.10350E+01 1.17552E+01 0.00000E+00
 -1       807 9.40350E+01 1.17552E+01 0.00000E+00
 -1       808 9.70350E+01 1.17552E+01 0.00000E+00
 -1       809 1.00035E+02 1.17552E+01 0.00000E+00
 -1       810 1.03035E+02 1.17552E+01 0.00000E+00
 -1       811 1.06035E+02 1.17552E+01 0.00000E+00
 -1       812 1.09035E+02 1.17552E+01 0.00000E+00
 -1       813 1.12035E+02 1.17552E+01 0.00000E+00
 -1       814 1.15035E+02 1.17552E+01 0.00000E+00
 -1       815 1.18035E+02 1.17552E+01 0.00000E+00
 -1       816 1.21035E+02 1.17552E+01 0.00000E+00
 -1       817 1.24035E+02 1.17552E+01 0.00000E+00
 -1       818 1.27035E+02 1.17552E+01 0.00000E+00
 -1       819 1.30035E+02 1.17552E+01 0.00000E+00
 -1       820 1.33035E+02 1.17552E+01 0.00000E+00
 -1       821 1.36035E+02 1.17552E+01 0.00000E+00
 -1       822 1.37887E+02 1.19998E+01 0.00000E+00
 -1       823 5.80582E+01 3.47896E+01 0.00000E+00
 -1       824 1.29900E+01 2.20250E+01 0.00000E+00
 -1       825 1.37010E+02 2.50250E+01 0.00000E+00
 -1       826 1.37010E+02 3.38250E+01 0.00000E+00
 -1       827 1.37010E+02 2.79250E+01 0.00000E+00
 -1       828 2.20350E+01 1.18003E+01 0.00000E+00
 -1       829 2.80350E+01 1.18003E+01 0.00000E+00
 -1       830 6.04458E+01 1.73687E+01 0.00000E+00
 -1       831 1.37010E+02 3.08750E+01 0.00000E+00
 -1       832 3.70350E+01 1.18003E+01 0.00000E+00
 -1       833 3.40350E+01 1.18003E+01 0.00000E+00
 -1       834 3.53447E+01 1.61473E+01 0.00000E+00
 -1       835 1.66500E+01 3.70100E+01 0.00000E+00
 -1       836 3.24504E+01 2.23250E+01 0.00000E+00
 -1       837 2.50350E+01 1.18003E+01 0.00000E+00
 -1       838 6.11340E+01 2.29366E+01 0.00000E+00
 -1       839 3.73646E+01 1.36285E+01 0.00000E+00
 -1       840 5.96432E+01 3.27317E+01 0.00000E+00
 -1       841 1.37625E+01 1.12011E+01 0.00000E+00
 -1       842 3.25357E+01 2.54339E+01 0.00000E+00
 -1       843 5.85060E+01 1.45174E+01 0.00000E+00
 -1       844 3.36738E+01 1.88149E+01 0.00000E+00
 -1       845 6.14759E+01 3.02797E+01 0.00000E+00
 -1       846 1.29900E+01 2.49750E+01 0.00000E+00
 -1       847 1.29900E+01 3.37938E+01 0.00000E+00
 -1       848 6.15703E+01 1.85073E+01 0.00000E+00
 -1       849 6.29115E+01 2.46035E+01 0.00000E+00
 -1       850 1.37010E+02 1.61875E+01 0.00000E+00
 -1       851 6.28474E+01 2.87098E+01 0.00000E+00
 -1       852 3.12972E+01 2.00589E+01 0.00000E+00
 -1       853 1.29900E+01 1.90875E+01 0.00000E+00
 -1       854 1.37010E+02 1.91375E+01 0.00000E+00
 -1       855 1.67625E+01 1.12011E+01 0.00000E+00
 -1       856 1.37010E+02 2.20812E+01 0.00000E+00
 -1       857 3.47659E+01 3.28610E+01 0.00000E+00
 -1       858 1.93988E+01 1.15007E+01 0.00000E+00
 -1       859 1.29900E+01 3.08563E+01 0.00000E+00
 -1       860 1.39652E+01 3.69017E+01 0.00000E+00
 -1       861 1.29900E+01 1.61437E+01 0.00000E+00
 -1       862 1.36637E+02 3.56235E+01 0.00000E+00
 -1       863 3.26036E+01 3.01344E+01 0.00000E+00
 -1       864 2.41500E+01 3.44120E+01 0.00000E+00
 -1       865 2.71500E+01 3.44120E+01 0.00000E+00
 -1       866 3.01500E+01 3.44120E+01 0.00000E+00
 -1       867 6.20676E+01 3.26328E+01 0.00000E+00
 -1       868 6.31500E+01 3.47922E+01 0.00000E+00
 -1       869 6.61500E+01 3.47922E+01 0.00000E+00
 -1       870 6.91500E+01 3.47922E+01 0.00000E+00
 -1       871 7.21500E+01 3.47922E+01 0.00000E+00
 -1       872 7.51500E+01 3.47922E+01 0.00000E+00
 -1       873 7.81500E+01 3.47922E+01 0.00000E+00
 -1       874 8.11500E+01 3.47922E+01 0.00000E+00
 -1       875 8.41500E+01 3.47922E+01 0.00000E+00
 -1       876 8.71500E+01 3.47922E+01 0.00000E+00
 -1       877 9.01500E+01 3.47922E+01 0.00000E+00
 -1       878 9.31500E+01 3.47922E+01 0.00000E+00
 -1       879 9.61500E+01 3.47922E+01 0.00000E+00
 -1       880 9.91500E+01 3.47922E+01 0.00000E+00
 -1       881 1.02150E+02 3.47922E+01 0.00000E+00
 -1       882 1.05150E+02 3.47922E+01 0.00000E+00
 -1       883 1.08150E+02 3.47922E+01 0.00000E+00
 -1       884 1.11150E+02 3.47922E+01 0.00000E+00
 -1       885 1.14150E+02 3.47922E+01 0.00000E+00
 -1       886 1.17150E+02 3.47922E+01 0.00000E+00
 -1       887 1.20150E+02 3.47922E+01 0.00000E+00
 -1       888 1.23150E+02 3.47922E+01 0.00000E+00
 -1       889 1.26150E+02 3.47922E+01 0.00000E+00
 -1       890 1.29150E+02 3.47922E+01 0.00000E+00
 -1       891 1.32150E+02 3.47922E+01 0.00000E+00
 -1       892 6.55350E+01 1.43532E+01 0.00000E+00
 -1       893 6.85350E+01 1.43532E+01 0.00000E+00
 -1       894 7.15350E+01 1.43532E+01 0.00000E+00
 -1       895 7.45350E+01 1.43532E+01 0.00000E+00
 -1       896 7.75350E+01 1.43532E+01 0.00000E+00
 -1       897 8.05350E+01 1.43532E+01 0.00000E+00
 -1       898 8.35350E+01 1.43532E+01 0.00000E+00
 -1       899 8.65350E+01 1.43532E+01 0.00000E+00
 -1       900 8.95350E+01 1.43532E+01 0.00000E+00
 -1       901 9.25350E+01 1.43532E+01 0.00000E+00
 -1       902 9.55350E+01 1.43532E+01 0.00000E+00
 -1       903 9.85350E+01 1.43532E+01 0.00000E+00
 -1       904 1.01535E+02 1.43532E+01 0.00000E+00
 -1       905 1.04535E+02 1.43532E+01 0.00000E+00
 -1       906 1.07535E+02 1.43532E+01 0.00000E+00
 -1       907 1.10535E+02 1.43532E+01 0.00000E+00
 -1       908 1.13535E+02 1.43532E+01 0.00000E+00
 -1       909 1.16535E+02 1.43532E+01 0.00000E+00
 -1       910 1.19535E+02 1.43532E+01 0.00000E+00
 -1       911 1.22535E+02 1.43532E+01 0.00000E+00
 -1       912 1.25535E+02 1.43532E+01 0.00000E+00
 -1       913 1.28535E+02 1.43532E+01 0.00000E+00
 -1       914 1.31535E+02 1.43532E+01 0.00000E+00
 -1       915 1.34535E+02 1.43532E+01 0.00000E+00
 -1       916 3.09942E+01 2.71084E+01 0.00000E+00
 -1       917 2.35350E+01 1.43982E+01 0.00000E+00
 -1       918 1.37449E+02 1.40936E+01 0.00000E+00
 -1       919 6.03422E+01 3.49095E+01 0.00000E+00
 -1       920 2.65350E+01 1.43982E+01 0.00000E+00
 -1       921 1.34412E+02 2.64750E+01 0.00000E+00
 -1       922 3.50151E+01 1.43191E+01 0.00000E+00
 -1       923 3.26297E+01 1.63038E+01 0.00000E+00
 -1       924 2.95350E+01 1.43982E+01 0.00000E+00
 -1       925 6.25350E+01 1.43532E+01 0.00000E+00
 -1       926 1.81500E+01 3.44120E+01 0.00000E+00
 -1       927 1.29900E+01 2.79188E+01 0.00000E+00
 -1       928 6.24648E+01 2.06993E+01 0.00000E+00
 -1       929 2.11500E+01 3.44120E+01 0.00000E+00
 -1       930 3.01086E+01 2.39449E+01 0.00000E+00
 -1       931 1.59900E+01 1.32000E+01 0.00000E+00
 -1       932 6.42424E+01 2.23662E+01 0.00000E+00
 -1       933 2.89554E+01 2.16787E+01 0.00000E+00
 -1       934 6.40676E+01 2.68917E+01 0.00000E+00
 -1       935 6.34391E+01 3.10630E+01 0.00000E+00
 -1       936 3.31500E+01 3.44120E+01 0.00000E+00
 -1       937 3.04789E+01 2.93181E+01 0.00000E+00
 -1       938 1.34394E+02 3.52079E+01 0.00000E+00
 -1       939 1.56748E+01 3.39021E+01 0.00000E+00
 -1       940 1.34412E+02 2.35313E+01 0.00000E+00
 -1       941 1.56748E+01 3.09646E+01 0.00000E+00
 -1       942 2.05351E+01 1.43983E+01 0.00000E+00
 -1       943 1.34412E+02 2.94250E+01 0.00000E+00
 -1       944 3.24019E+01 3.25901E+01 0.00000E+00
 -1       945 3.02531E+01 1.75478E+01 0.00000E+00
 -1       946 1.34412E+02 1.76625E+01 0.00000E+00
 -1       947 1.55880E+01 2.35000E+01 0.00000E+00
 -1       948 1.55880E+01 2.05625E+01 0.00000E+00
 -1       949 1.34766E+02 3.34093E+01 0.00000E+00
 -1       950 2.56500E+01 3.18140E+01 0.00000E+00
 -1       951 2.26500E+01 3.18140E+01 0.00000E+00
 -1       952 2.86500E+01 3.18140E+01 0.00000E+00
 -1       953 1.63096E+01 1.65262E+01 0.00000E+00
 -1       954 6.76500E+01 3.21942E+01 0.00000E+00
 -1       955 7.06500E+01 3.21942E+01 0.00000E+00
 -1       956 7.36500E+01 3.21942E+01 0.00000E+00
 -1       957 7.66500E+01 3.21942E+01 0.00000E+00
 -1       958 7.96500E+01 3.21942E+01 0.00000E+00
 -1       959 8.26500E+01 3.21942E+01 0.00000E+00
 -1       960 8.56500E+01 3.21942E+01 0.00000E+00
 -1       961 8.86500E+01 3.21942E+01 0.00000E+00
 -1       962 9.16500E+01 3.21942E+01 0.00000E+00
 -1       963 9.46500E+01 3.21942E+01 0.00000E+00
 -1       964 9.76500E+01 3.21942E+01 0.00000E+00
 -1       965 1.00650E+02 3.21942E+01 0.00000E+00
 -1       966 1.03650E+02 3.21942E+01 0.00000E+00
 -1       967 1.06650E+02 3.21942E+01 0.00000E+00
 -1       968 1.09650E+02 3.21942E+01 0.00000E+00
 -1       969 1.12650E+02 3.21942E+01 0.00000E+00
 -1       970 1.15650E+02 3.21942E+01 0.00000E+00
 -1       971 1.18650E+02 3.21942E+01 0.00000E+00
 -1       972 1.21650E+02 3.21942E+01 0.00000E+00
 -1       973 1.24650E+02 3.21942E+01 0.00000E+00
 -1       974 1.27650E+02 3.21942E+01 0.00000E+00
 -1       975 1.30650E+02 3.21942E+01 0.00000E+00
 -1       976 7.30350E+01 1.69512E+01 0.00000E+00
 -1       977 6.70350E+01 1.69512E+01 0.00000E+00
 -1       978 7.60350E+01 1.69512E+01 0.00000E+00
 -1       979 7.90350E+01 1.69512E+01 0.00000E+00
 -1       980 8.20350E+01 1.69512E+01 0.00000E+00
 -1       981 8.50350E+01 1.69512E+01 0.00000E+00
 -1       982 8.80350E+01 1.69512E+01 0.00000E+00
 -1       983 9.10350E+01 1.69512E+01 0.00000E+00
 -1       984 9.40350E+01 1.69512E+01 0.00000E+00
 -1       985 9.70350E+01 1.69512E+01 0.00000E+00
 -1       986 1.00035E+02 1.69512E+01 0.00000E+00
 -1       987 1.03035E+02 1.69512E+01 0.00000E+00
 -1       988 1.06035E+02 1.69512E+01 0.00000E+00
 -1       989 1.09035E+02 1.69512E+01 0.00000E+00
 -1       990 1.12035E+02 1.69512E+01 0.00000E+00
 -1       991 1.15035E+02 1.69512E+01 0.00000E+00
 -1       992 1.18035E+02 1.69512E+01 0.00000E+00
 -1       993 1.21035E+02 1.69512E+01 0.00000E+00
 -1       994 1.24035E+02 1.69512E+01 0.00000E+00
 -1       995 1.27035E+02 1.69512E+01 0.00000E+00
 -1       996 1.30035E+02 1.69512E+01 0.00000E+00
 -1       997 6.47946E+01 3.29276E+01 0.00000E+00
 -1       998 2.20351E+01 1.69963E+01 0.00000E+00
 -1       999 2.50351E+01 1.69963E+01 0.00000E+00
 -1      1000 1.81500E+01 3.14745E+01 0.00000E+00
 -1      1001 2.76441E+01 1.72720E+01 0.00000E+00
 -1      1002 6.40350E+01 1.69512E+01 0.00000E+00
 -1      1003 2.82543E+01 2.61697E+01 0.00000E+00
 -1      1004 1.55880E+01 2.64438E+01 0.00000E+00
 -1      1005 1.56314E+01 2.87042E+01 0.00000E+00
 -1      1006 6.42261E+01 1.87020E+01 0.00000E+00
 -1      1007 1.82625E+01 1.37991E+01 0.00000E+00
 -1      1008 1.34412E+02 2.05969E+01 0.00000E+00
 -1      1009 7.00350E+01 1.69512E+01 0.00000E+00
 -1      1010 2.04000E+01 3.16443E+01 0.00000E+00
 -1      1011 6.60037E+01 2.03690E+01 0.00000E+00
 -1      1012 2.71011E+01 2.39036E+01 0.00000E+00
 -1      1013 6.53984E+01 2.46544E+01 0.00000E+00
 -1      1014 6.52942E+01 2.93456E+01 0.00000E+00
 -1      1015 1.31814E+02 2.50031E+01 0.00000E+00
 -1      1016 1.31814E+02 2.79531E+01 0.00000E+00
 -1      1017 1.97625E+01 1.63971E+01 0.00000E+00
 -1      1018 2.82997E+01 1.94754E+01 0.00000E+00
 -1      1019 1.81860E+01 2.49719E+01 0.00000E+00
 -1      1020 2.77390E+01 2.83794E+01 0.00000E+00
 -1      1021 1.30035E+02 1.98856E+01 0.00000E+00
 -1      1022 1.81860E+01 2.20344E+01 0.00000E+00
 -1      1023 2.41500E+01 2.92160E+01 0.00000E+00
 -1      1024 8.05350E+01 1.95492E+01 0.00000E+00
 -1      1025 6.91500E+01 2.95962E+01 0.00000E+00
 -1      1026 7.21500E+01 2.95962E+01 0.00000E+00
 -1      1027 7.51500E+01 2.95962E+01 0.00000E+00
 -1      1028 7.81500E+01 2.95962E+01 0.00000E+00
 -1      1029 8.11500E+01 2.95962E+01 0.00000E+00
 -1      1030 8.41500E+01 2.95962E+01 0.00000E+00
 -1      1031 8.71500E+01 2.95962E+01 0.00000E+00
 -1      1032 9.01500E+01 2.95962E+01 0.00000E+00
 -1      1033 9.31500E+01 2.95962E+01 0.00000E+00
 -1      1034 9.61500E+01 2.95962E+01 0.00000E+00
 -1      1035 9.91500E+01 2.95962E+01 0.00000E+00
 -1      1036 1.02150E+02 2.95962E+01 0.00000E+00
 -1      1037 1.05150E+02 2.95962E+01 0.00000E+00
 -1      1038 1.08150E+02 2.95962E+01 0.00000E+00
 -1      1039 1.11150E+02 2.95962E+01 0.00000E+00
 -1      1040 1.14150E+02 2.95962E+01 0.00000E+00
 -1      1041 1.17150E+02 2.95962E+01 0.00000E+00
 -1      1042 1.20150E+02 2.95962E+01 0.00000E+00
 -1      1043 1.23150E+02 2.95962E+01 0.00000E+00
 -1      1044 1.26150E+02 2.95962E+01 0.00000E+00
 -1      1045 1.29150E+02 2.95962E+01 0.00000E+00
 -1      1046 7.75350E+01 1.95492E+01 0.00000E+00
 -1      1047 6.71598E+01 2.26572E+01 0.00000E+00
 -1      1048 7.45350E+01 1.95492E+01 0.00000E+00
 -1      1049 8.35350E+01 1.95492E+01 0.00000E+00
 -1      1050 8.65350E+01 1.95492E+01 0.00000E+00
 -1      1051 8.95350E+01 1.95492E+01 0.00000E+00
 -1      1052 9.25350E+01 1.95492E+01 0.00000E+00
 -1      1053 9.55350E+01 1.95492E+01 0.00000E+00
 -1      1054 9.85350E+01 1.95492E+01 0.00000E+00
 -1      1055 1.01535E+02 1.95492E+01 0.00000E+00
 -1      1056 1.04535E+02 1.95492E+01 0.00000E+00
 -1      1057 1.07535E+02 1.95492E+01 0.00000E+00
 -1      1058 1.10535E+02 1.95492E+01 0.00000E+00
 -1      1059 1.13535E+02 1.95492E+01 0.00000E+00
 -1      1060 1.16535E+02 1.95492E+01 0.00000E+00
 -1      1061 1.19535E+02 1.95492E+01 0.00000E+00
 -1      1062 1.22535E+02 1.95492E+01 0.00000E+00
 -1      1063 1.25535E+02 1.95492E+01 0.00000E+00
 -1      1064 1.27785E+02 1.97174E+01 0.00000E+00
 -1      1065 6.64721E+01 3.07699E+01 0.00000E+00
 -1      1066 6.90037E+01 2.03690E+01 0.00000E+00
 -1      1067 2.35351E+01 1.95943E+01 0.00000E+00
 -1      1068 1.81066E+01 2.92141E+01 0.00000E+00
 -1      1069 1.89743E+01 1.92157E+01 0.00000E+00
 -1      1070 6.66250E+01 2.71083E+01 0.00000E+00
 -1      1071 1.30924E+02 2.24444E+01 0.00000E+00
 -1      1072 2.54024E+01 2.61945E+01 0.00000E+00
 -1      1073 2.64455E+01 2.17002E+01 0.00000E+00
 -1      1074 2.19000E+01 2.90462E+01 0.00000E+00
 -1      1075 2.12547E+01 1.94050E+01 0.00000E+00
 -1      1076 7.17693E+01 1.99591E+01 0.00000E+00
 -1      1077 1.81463E+01 2.70930E+01 0.00000E+00
 -1      1078 1.28915E+02 2.45768E+01 0.00000E+00
 -1      1079 2.07840E+01 2.35031E+01 0.00000E+00
 -1      1080 1.29033E+02 2.70865E+01 0.00000E+00
 -1      1081 2.07443E+01 2.56242E+01 0.00000E+00
 -1      1082 6.97109E+01 2.65016E+01 0.00000E+00
 -1      1083 2.47468E+01 2.39911E+01 0.00000E+00
 -1      1084 8.50350E+01 2.21472E+01 0.00000E+00
 -1      1085 7.36500E+01 2.69982E+01 0.00000E+00
 -1      1086 7.66500E+01 2.69982E+01 0.00000E+00
 -1      1087 7.96500E+01 2.69982E+01 0.00000E+00
 -1      1088 8.26500E+01 2.69982E+01 0.00000E+00
 -1      1089 8.56500E+01 2.69982E+01 0.00000E+00
 -1      1090 8.86500E+01 2.69982E+01 0.00000E+00
 -1      1091 9.16500E+01 2.69982E+01 0.00000E+00
 -1      1092 9.46500E+01 2.69982E+01 0.00000E+00
 -1      1093 9.76500E+01 2.69982E+01 0.00000E+00
 -1      1094 1.00650E+02 2.69982E+01 0.00000E+00
 -1      1095 1.03650E+02 2.69982E+01 0.00000E+00
 -1      1096 1.06650E+02 2.69982E+01 0.00000E+00
 -1      1097 1.09650E+02 2.69982E+01 0.00000E+00
 -1      1098 1.12650E+02 2.69982E+01 0.00000E+00
 -1      1099 1.15650E+02 2.69982E+01 0.00000E+00
 -1      1100 1.18650E+02 2.69982E+01 0.00000E+00
 -1      1101 1.21650E+02 2.69982E+01 0.00000E+00
 -1      1102 1.24650E+02 2.69982E+01 0.00000E+00
 -1      1103 7.90350E+01 2.21472E+01 0.00000E+00
 -1      1104 7.60350E+01 2.21472E+01 0.00000E+00
 -1      1105 8.80350E+01 2.21472E+01 0.00000E+00
 -1      1106 9.10350E+01 2.21472E+01 0.00000E+00
 -1      1107 9.40350E+01 2.21472E+01 0.00000E+00
 -1      1108 9.70350E+01 2.21472E+01 0.00000E+00
 -1      1109 1.00035E+02 2.21472E+01 0.00000E+00
 -1      1110 1.03035E+02 2.21472E+01 0.00000E+00
 -1      1111 1.06035E+02 2.21472E+01 0.00000E+00
 -1      1112 1.09035E+02 2.21472E+01 0.00000E+00
 -1      1113 1.12035E+02 2.21472E+01 0.00000E+00
 -1      1114 1.15035E+02 2.21472E+01 0.00000E+00
 -1      1115 1.18035E+02 2.21472E+01 0.00000E+00
 -1      1116 1.21035E+02 2.21472E+01 0.00000E+00
 -1      1117 1.24035E+02 2.21472E+01 0.00000E+00
 -1      1118 7.01046E+01 2.31432E+01 0.00000E+00
 -1      1119 1.28350E+02 2.21471E+01 0.00000E+00
 -1      1120 8.20350E+01 2.21472E+01 0.00000E+00
 -1      1121 6.84353E+01 2.45794E+01 0.00000E+00
 -1      1122 2.31524E+01 2.60248E+01 0.00000E+00
 -1      1123 2.30007E+01 2.16981E+01 0.00000E+00
 -1      1124 7.32693E+01 2.25571E+01 0.00000E+00
 -1      1125 1.26193E+02 2.21472E+01 0.00000E+00
 -1      1126 1.26758E+02 2.45769E+01 0.00000E+00
 -1      1127 2.07636E+01 2.05071E+01 0.00000E+00
 -1      1128 8.95350E+01 2.47452E+01 0.00000E+00
 -1      1129 7.81500E+01 2.44002E+01 0.00000E+00
 -1      1130 9.31500E+01 2.44002E+01 0.00000E+00
 -1      1131 7.51500E+01 2.44002E+01 0.00000E+00
 -1      1132 0.00000E+00 4.85250E+01 0.00000E+00
 -1      1133 0.00000E+00 4.55750E+01 0.00000E+00
 -1      1134 0.00000E+00 4.26250E+01 0.00000E+00
 -1      1135 0.00000E+00 3.96750E+01 0.00000E+00
 -1      1136 0.00000E+00 3.67250E+01 0.00000E+00
 -1      1137 0.00000E+00 3.38000E+01 0.00000E+00
 -1      1138 0.00000E+00 3.08750E+01 0.00000E+00
 -1      1139 0.00000E+00 2.79250E+01 0.00000E+00
 -1      1140 0.00000E+00 2.49750E+01 0.00000E+00
 -1      1141 0.00000E+00 2.20250E+01 0.00000E+00
 -1      1142 0.00000E+00 1.90750E+01 0.00000E+00
 -1      1143 0.00000E+00 1.61500E+01 0.00000E+00
 -1      1144 0.00000E+00 1.32250E+01 0.00000E+00
 -1      1145 0.00000E+00 1.02750E+01 0.00000E+00
 -1      1146 0.00000E+00 7.32500E+00 0.00000E+00
 -1      1147 0.00000E+00 4.37500E+00 0.00000E+00
 -1      1148 0.00000E+00 1.45000E+00 0.00000E+00
 -1      1149 1.57500E+00 5.00000E+01 0.00000E+00
 -1      1150 4.65000E+00 5.00000E+01 0.00000E+00
 -1      1151 7.65000E+00 5.00000E+01 0.00000E+00
 -1      1152 1.06500E+01 5.00000E+01 0.00000E+00
 -1      1153 1.36500E+01 5.00000E+01 0.00000E+00
 -1      1154 1.66500E+01 5.00000E+01 0.00000E+00
 -1      1155 1.96500E+01 5.00000E+01 0.00000E+00
 -1      1156 2.26500E+01 5.00000E+01 0.00000E+00
 -1      1157 2.56500E+01 5.00000E+01 0.00000E+00
 -1      1158 2.86500E+01 5.00000E+01 0.00000E+00
 -1      1159 3.16500E+01 5.00000E+01 0.00000E+00
 -1      1160 3.46500E+01 5.00000E+01 0.00000E+00
 -1      1161 3.76500E+01 5.00000E+01 0.00000E+00
 -1      1162 4.06500E+01 5.00000E+01 0.00000E+00
 -1      1163 4.36500E+01 5.00000E+01 0.00000E+00
 -1      1164 4.66500E+01 5.00000E+01 0.00000E+00
 -1      1165 4.96500E+01 5.00000E+01 0.00000E+00
 -1      1166 5.26500E+01 5.00000E+01 0.00000E+00
 -1      1167 5.56500E+01 5.00000E+01 0.00000E+00
 -1      1168 5.86500E+01 5.00000E+01 0.00000E+00
 -1      1169 6.16500E+01 5.00000E+01 0.00000E+00
 -1      1170 6.46500E+01 5.00000E+01 0.00000E+00
 -1      1171 6.76500E+01 5.00000E+01 0.00000E+00
 -1      1172 7.06500E+01 5.00000E+01 0.00000E+00
 -1      1173 7.36500E+01 5.00000E+01 0.00000E+00
 -1      1174 7.66500E+01 5.00000E+01 0.00000E+00
 -1      1175 7.96500E+01 5.00000E+01 0.00000E+00
 -1      1176 8.26500E+01 5.00000E+01 0.00000E+00
 -1      1177 8.56500E+01 5.00000E+01 0.00000E+00
 -1      1178 8.86500E+01 5.00000E+01 0.00000E+00
 -1      1179 9.16500E+01 5.00000E+01 0.00000E+00
 -1      1180 9.46500E+01 5.00000E+01 0.00000E+00
 -1      1181 9.76500E+01 5.00000E+01 0.00000E+00
 -1      1182 1.00650E+02 5.00000E+01 0.00000E+00
 -1      1183 1.03650E+02 5.00000E+01 0.00000E+00
 -1      1184 1.06650E+02 5.00000E+01 0.00000E+00
 -1      1185 1.09650E+02 5.00000E+01 0.00000E+00
 -1      1186 1.12650E+02 5.00000E+01 0.00000E+00
 -1      1187 1.15650E+02 5.00000E+01 0.00000E+00
 -1      1188 1.18650E+02 5.00000E+01 0.00000E+00
 -1      1189 1.21650E+02 5.00000E+01 0.00000E+00
 -1      1190 1.24650E+02 5.00000E+01 0.00000E+00
 -1      1191 1.27650E+02 5.00000E+01 0.00000E+00
 -1      1192 1.30650E+02 5.00000E+01 0.00000E+00
 -1      1193 1.33650E+02 5.00000E+01 0.00000E+00
 -1      1194 1.36650E+02 5.00000E+01 0.00000E+00
 -1      1195 1.39650E+02 5.00000E+01 0.00000E+00
 -1      1196 1.42650E+02 5.00000E+01 0.00000E+00
 -1      1197 1.45650E+02 5.00000E+01 0.00000E+00
 -1      1198 1.48575E+02 5.00000E+01 0.00000E+00
 -1      1199 1.57500E+00 0.00000E+00 0.00000E+00
 -1      1200 4.65000E+00 0.00000E+00 0.00000E+00
 -1      1201 7.65000E+00 0.00000E+00 0.00000E+00
 -1      1202 1.06500E+01 0.00000E+00 0.00000E+00
 -1      1203 1.36500E+01 0.00000E+00 0.00000E+00
 -1      1204 1.66500E+01 0.00000E+00 0.00000E+00
 -1      1205 1.96500E+01 0.00000E+00 0.00000E+00
 -1      1206 2.26500E+01 0.00000E+00 0.00000E+00
 -1      1207 2.56500E+01 0.00000E+00 0.00000E+00
 -1      1208 2.86500E+01 0.00000E+00 0.00000E+00
 -1      1209 3.16500E+01 0.00000E+00 0.00000E+00
 -1      1210 3.46500E+01 0.00000E+00 0.00000E+00
 -1      1211 3.76500E+01 0.00000E+00 0.00000E+00
 -1      1212 4.06500E+01 0.00000E+00 0.00000E+00
 -1      1213 4.36500E+01 0.00000E+00 0.00000E+00
 -1      1214 4.66500E+01 0.00000E+00 0.00000E+00
 -1      1215 4.96500E+01 0.00000E+00 0.00000E+00
 -1      1216 5.26500E+01 0.00000E+00 0.00000E+00
 -1      1217 5.56500E+01 0.00000E+00 0.00000E+00
 -1      1218 5.86500E+01 0.00000E+00 0.00000E+00
 -1      1219 6.16500E+01 0.00000E+00 0.00000E+00
 -1      1220 6.46500E+01 0.00000E+00 0.00000E+00
 -1      1221 6.76500E+01 0.00000E+00 0.00000E+00
 -1      1222 7.06500E+01 0.00000E+00 0.00000E+00
 -1      1223 7.36500E+01 0.00000E+00 0.00000E+00
 -1      1224 7.66500E+01 0.00000E+00 0.00000E+00
 -1      1225 7.96500E+01 0.00000E+00 0.00000E+00
 -1      1226 8.26500E+01 0.00000E+00 0.00000E+00
 -1      1227 8.56500E+01 0.00000E+00 0.00000E+00
 -1      1228 8.86500E+01 0.00000E+00 0.00000E+00
 -1      1229 9.16500E+01 0.00000E+00 0.00000E+00
 -1      1230 9.46500E+01 0.00000E+00 0.00000E+00
 -1      1231 9.76500E+01 0.00000E+00 0.00000E+00
 -1      1232 1.00650E+02 0.00000E+00 0.00000E+00
 -1      1233 1.03650E+02 0.00000E+00 0.00000E+00
 -1      1234 1.06650E+02 0.00000E+00 0.00000E+00
 -1      1235 1.09650E+02 0.00000E+00 0.00000E+00
 -1      1236 1.12650E+02 0.00000E+00 0.00000E+00
 -1      1237 1.15650E+02 0.00000E+00 0.00000E+00
 -1      1238 1.18650E+02 0.00000E+00 0.00000E+00
 -1      1239 1.21650E+02 0.00000E+00 0.00000E+00
 -1      1240 1.24650E+02 0.00000E+00 0.00000E+00
 -1      1241 1.27650E+02 0.00000E+00 0.00000E+00
 -1      1242 1.30650E+02 0.00000E+00 0.00000E+00
 -1      1243 1.33650E+02 0.00000E+00 0.00000E+00
 -1      1244 1.36650E+02 0.00000E+00 0.00000E+00
 -1      1245 1.39650E+02 0.00000E+00 0.00000E+00
 -1      1246 1.42650E+02 0.00000E+00 0.00000E+00
 -1      1247 1.45650E+02 0.00000E+00 0.00000E+00
 -1      1248 1.48575E+02 0.00000E+00 0.00000E+00
 -1      1249 1.50000E+02 1.47500E+00 0.00000E+00
 -1      1250 1.50000E+02 4.42500E+00 0.00000E+00
 -1      1251 1.50000E+02 7.37500E+00 0.00000E+00
 -1      1252 1.50000E+02 1.03250E+01 0.00000E+00
 -1      1253 1.50000E+02 1.32750E+01 0.00000E+00
 -1      1254 1.50000E+02 1.62000E+01 0.00000E+00
 -1      1255 1.50000E+02 1.91250E+01 0.00000E+00
 -1      1256 1.50000E+02 2.20750E+01 0.00000E+00
 -1      1257 1.50000E+02 2.50250E+01 0.00000E+00
 -1      1258 1.50000E+02 2.79750E+01 0.00000E+00
 -1      1259 1.50000E+02 3.09250E+01 0.00000E+00
 -1      1260 1.50000E+02 3.38500E+01 0.00000E+00
 -1      1261 1.50000E+02 3.67750E+01 0.00000E+00
 -1      1262 1.50000E+02 3.97250E+01 0.00000E+00
 -1      1263 1.50000E+02 4.26750E+01 0.00000E+00
 -1      1264 1.50000E+02 4.56250E+01 0.00000E+00
 -1      1265 1.50000E+02 4.85500E+01 0.00000E+00
 -1      1266 5.44102E+01 2.43959E+01 0.00000E+00
 -1      1267 5.40594E+01 2.28912E+01 0.00000E+00
 -1      1268 5.34281E+01 2.15662E+01 0.00000E+00
 -1      1269 5.25190E+01 2.03859E+01 0.00000E+00
 -1      1270 5.13143E+01 1.93803E+01 0.00000E+00
 -1      1271 4.99313E+01 1.86742E+01 0.00000E+00
 -1      1272 4.85154E+01 1.83033E+01 0.00000E+00
 -1      1273 4.69769E+01 1.82398E+01 0.00000E+00
 -1      1274 4.54325E+01 1.85230E+01 0.00000E+00
 -1      1275 4.40435E+01 1.91131E+01 0.00000E+00
 -1      1276 4.28424E+01 1.99615E+01 0.00000E+00
 -1      1277 4.18438E+01 2.10438E+01 0.00000E+00
 -1      1278 4.10892E+01 2.23210E+01 0.00000E+00
 -1      1279 4.06145E+01 2.37569E+01 0.00000E+00
 -1      1280 4.04593E+01 2.52417E+01 0.00000E+00
 -1      1281 4.06142E+01 2.66879E+01 0.00000E+00
 -1      1282 4.10667E+01 2.80755E+01 0.00000E+00
 -1      1283 4.18618E+01 2.94265E+01 0.00000E+00
 -1      1284 4.29920E+01 3.06124E+01 0.00000E+00
 -1      1285 4.42806E+01 3.14599E+01 0.00000E+00
 -1      1286 4.56898E+01 3.19958E+01 0.00000E+00
 -1      1287 4.71729E+01 3.22173E+01 0.00000E+00
 -1      1288 4.87062E+01 3.21112E+01 0.00000E+00
 -1      1289 5.01873E+01 3.16697E+01 0.00000E+00
 -1      1290 5.14899E+01 3.09463E+01 0.00000E+00
 -1      1291 5.26056E+01 2.99682E+01 0.00000E+00
 -1      1292 5.34807E+01 2.87927E+01 0.00000E+00
 -1      1293 5.41055E+01 2.74203E+01 0.00000E+00
 -1      1294 5.44216E+01 2.59485E+01 0.00000E+00
 -1      1295 1.57500E+00 4.85250E+01 0.00000E+00
 -1      1296 1.29900E+00 4.48375E+01 0.00000E+00
 -1      1297 1.29900E+00 4.63125E+01 0.00000E+00
 -1      1298 1.29900E+00 4.18875E+01 0.00000E+00
 -1      1299 1.29900E+00 4.33625E+01 0.00000E+00
 -1      1300 2.59800E+00 4.41000E+01 0.00000E+00
 -1      1301 1.29900E+00 3.89375E+01 0.00000E+00
 -1      1302 1.29900E+00 4.04125E+01 0.00000E+00
 -1      1303 2.59800E+00 4.11500E+01 0.00000E+00
 -1      1304 1.29900E+00 3.59875E+01 0.00000E+00
 -1      1305 1.29900E+00 3.74625E+01 0.00000E+00
 -1      1306 2.59800E+00 3.82000E+01 0.00000E+00
 -1      1307 1.29900E+00 3.30875E+01 0.00000E+00
 -1      1308 1.29900E+00 3.45375E+01 0.00000E+00
 -1      1309 2.59800E+00 3.52750E+01 0.00000E+00
 -1      1310 1.29900E+00 3.01375E+01 0.00000E+00
 -1      1311 1.29900E+00 3.16125E+01 0.00000E+00
 -1      1312 2.59800E+00 3.23500E+01 0.00000E+00
 -1      1313 1.29900E+00 2.71875E+01 0.00000E+00
 -1      1314 1.29900E+00 2.86625E+01 0.00000E+00
 -1      1315 2.59800E+00 2.94000E+01 0.00000E+00
 -1      1316 1.29900E+00 2.42375E+01 0.00000E+00
 -1      1317 1.29900E+00 2.57125E+01 0.00000E+00
 -1      1318 2.59800E+00 2.64500E+01 0.00000E+00
 -1      1319 1.29900E+00 2.12875E+01 0.00000E+00
 -1      1320 1.29900E+00 2.27625E+01 0.00000E+00
 -1      1321 2.59800E+00 2.35000E+01 0.00000E+00
 -1      1322 1.29900E+00 1.83375E+01 0.00000E+00
 -1      1323 1.29900E+00 1.98125E+01 0.00000E+00
 -1      1324 2.59800E+00 2.05500E+01 0.00000E+00
 -1      1325 1.29900E+00 1.54375E+01 0.00000E+00
 -1      1326 1.29900E+00 1.68875E+01 0.00000E+00
 -1      1327 2.59800E+00 1.76250E+01 0.00000E+00
 -1      1328 1.29900E+00 1.24875E+01 0.00000E+00
 -1      1329 1.29900E+00 1.39625E+01 0.00000E+00
 -1      1330 2.59800E+00 1.47000E+01 0.00000E+00
 -1      1331 1.29900E+00 9.53750E+00 0.00000E+00
 -1      1332 1.29900E+00 1.10125E+01 0.00000E+00
 -1      1333 2.59800E+00 1.17500E+01 0.00000E+00
 -1      1334 1.29900E+00 6.58750E+00 0.00000E+00
 -1      1335 1.29900E+00 8.06250E+00 0.00000E+00
 -1      1336 2.59800E+00 8.80000E+00 0.00000E+00
 -1      1337 1.29900E+00 3.63750E+00 0.00000E+00
 -1      1338 1.29900E+00 5.11250E+00 0.00000E+00
 -1      1339 2.59800E+00 5.85000E+00 0.00000E+00
 -1      1340 1.43700E+00 1.09375E+00 0.00000E+00
 -1      1341 1.43700E+00 2.54375E+00 0.00000E+00
 -1      1342 2.73600E+00 3.28125E+00 0.00000E+00
 -1      1343 3.01200E+00 1.09375E+00 0.00000E+00
 -1      1344 3.90000E+00 4.87010E+01 0.00000E+00
 -1      1345 5.40000E+00 4.87010E+01 0.00000E+00
 -1      1346 6.90000E+00 4.87010E+01 0.00000E+00
 -1      1347 8.40000E+00 4.87010E+01 0.00000E+00
 -1      1348 6.15000E+00 4.74020E+01 0.00000E+00
 -1      1349 9.90000E+00 4.87010E+01 0.00000E+00
 -1      1350 1.14000E+01 4.87010E+01 0.00000E+00
 -1      1351 9.15000E+00 4.74020E+01 0.00000E+00
 -1      1352 1.29000E+01 4.87010E+01 0.00000E+00
 -1      1353 1.44000E+01 4.87010E+01 0.00000E+00
 -1      1354 1.21500E+01 4.74020E+01 0.00000E+00
 -1      1355 1.59000E+01 4.87010E+01 0.00000E+00
 -1      1356 1.74000E+01 4.87010E+01 0.00000E+00
 -1      1357 1.51500E+01 4.74020E+01 0.00000E+00
 -1      1358 1.89000E+01 4.87010E+01 0.00000E+00
 -1      1359 2.04000E+01 4.87010E+01 0.00000E+00
 -1      1360 1.81500E+01 4.74020E+01 0.00000E+00
 -1      1361 2.19000E+01 4.87010E+01 0.00000E+00
 -1      1362 2.34000E+01 4.87010E+01 0.00000E+00
 -1      1363 2.11500E+01 4.74020E+01 0.00000E+00
 -1      1364 2.49000E+01 4.87010E+01 0.00000E+00
 -1      1365 2.64000E+01 4.87010E+01 0.00000E+00
 -1      1366 2.41500E+01 4.74020E+01 0.00000E+00
 -1      1367 2.79000E+01 4.87010E+01 0.00000E+00
 -1      1368 2.94000E+01 4.87010E+01 0.00000E+00
 -1      1369 2.71500E+01 4.74020E+01 0.00000E+00
 -1      1370 3.09000E+01 4.87010E+01 0.00000E+00
 -1      1371 3.24000E+01 4.87010E+01 0.00000E+00
 -1      1372 3.01500E+01 4.74020E+01 0.00000E+00
 -1      1373 3.39000E+01 4.87010E+01 0.00000E+00
 -1      1374 3.54000E+01 4.87010E+01 0.00000E+00
 -1      1375 3.31500E+01 4.74020E+01 0.00000E+00
 -1      1376 3.69000E+01 4.87010E+01 0.00000E+00
 -1      1377 3.84000E+01 4.87010E+01 0.00000E+00
 -1      1378 3.61500E+01 4.74020E+01 0.00000E+00
 -1      1379 3.99000E+01 4.87010E+01 0.00000E+00
 -1      1380 4.14000E+01 4.87010E+01 0.00000E+00
 -1      1381 3.91500E+01 4.74020E+01 0.00000E+00
 -1      1382 4.29000E+01 4.87010E+01 0.00000E+00
 -1      1383 4.44000E+01 4.87010E+01 0.00000E+00
 -1      1384 4.21500E+01 4.74020E+01 0.00000E+00
 -1      1385 4.59000E+01 4.87010E+01 0.00000E+00
 -1      1386 4.74000E+01 4.87010E+01 0.00000E+00
 -1      1387 4.51500E+01 4.74020E+01 0.00000E+00
 -1      1388 4.89000E+01 4.87010E+01 0.00000E+00
 -1      1389 5.04000E+01 4.87010E+01 0.00000E+00
 -1      1390 4.81500E+01 4.74020E+01 0.00000E+00
 -1      1391 5.19000E+01 4.87010E+01 0.00000E+00
 -1      1392 5.34000E+01 4.87010E+01 0.00000E+00
 -1      1393 5.11500E+01 4.74020E+01 0.00000E+00
 -1      1394 5.49000E+01 4.87010E+01 0.00000E+00
 -1      1395 5.64000E+01 4.87010E+01 0.00000E+00
 -1      1396 5.41500E+01 4.74020E+01 0.00000E+00
 -1      1397 5.79000E+01 4.87010E+01 0.00000E+00
 -1      1398 5.94000E+01 4.87010E+01 0.00000E+00
 -1      1399 5.71500E+01 4.74020E+01 0.00000E+00
 -1      1400 6.09000E+01 4.87010E+01 0.00000E+00
 -1      1401 6.24000E+01 4.87010E+01 0.00000E+00
 -1      1402 6.01500E+01 4.74020E+01 0.00000E+00
 -1      1403 6.39000E+01 4.87010E+01 0.00000E+00
 -1      1404 6.54000E+01 4.87010E+01 0.00000E+00
 -1      1405 6.31500E+01 4.74020E+01 0.00000E+00
 -1      1406 6.69000E+01 4.87010E+01 0.00000E+00
 -1      1407 6.84000E+01 4.87010E+01 0.00000E+00
 -1      1408 6.61500E+01 4.74020E+01 0.00000E+00
 -1      1409 6.99000E+01 4.87010E+01 0.00000E+00
 -1      1410 7.14000E+01 4.87010E+01 0.00000E+00
 -1      1411 6.91500E+01 4.74020E+01 0.00000E+00
 -1      1412 7.29000E+01 4.87010E+01 0.00000E+00
 -1      1413 7.44000E+01 4.87010E+01 0.00000E+00
 -1      1414 7.21500E+01 4.74020E+01 0.00000E+00
 -1      1415 7.59000E+01 4.87010E+01 0.00000E+00
 -1      1416 7.74000E+01 4.87010E+01 0.00000E+00
 -1      1417 7.51500E+01 4.74020E+01 0.00000E+00
 -1      1418 7.89000E+01 4.87010E+01 0.00000E+00
 -1      1419 8.04000E+01 4.87010E+01 0.00000E+00
 -1      1420 7.81500E+01 4.74020E+01 0.00000E+00
 -1      1421 8.19000E+01 4.87010E+01 0.00000E+00
 -1      1422 8.34000E+01 4.87010E+01 0.00000E+00
 -1      1423 8.11500E+01 4.74020E+01 0.00000E+00
 -1      1424 8.49000E+01 4.87010E+01 0.00000E+00
 -1      1425 8.64000E+01 4.87010E+01 0.00000E+00
 -1      1426 8.41500E+01 4.74020E+01 0.00000E+00
 -1      1427 8.79000E+01 4.87010E+01 0.00000E+00
 -1      1428 8.94000E+01 4.87010E+01 0.00000E+00
 -1      1429 8.71500E+01 4.74020E+01 0.00000E+00
 -1      1430 9.09000E+01 4.87010E+01 0.00000E+00
 -1      1431 9.24000E+01 4.87010E+01 0.00000E+00
 -1      1432 9.01500E+01 4.74020E+01 0.00000E+00
 -1      1433 9.39000E+01 4.87010E+01 0.00000E+00
 -1      1434 9.54000E+01 4.87010E+01 0.00000E+00
 -1      1435 9.31500E+01 4.74020E+01 0.00000E+00
 -1      1436 9.69000E+01 4.87010E+01 0.00000E+00
 -1      1437 9.84000E+01 4.87010E+01 0.00000E+00
 -1      1438 9.61500E+01 4.74020E+01 0.00000E+00
 -1      1439 9.99000E+01 4.87010E+01 0.00000E+00
 -1      1440 1.01400E+02 4.87010E+01 0.00000E+00
 -1      1441 9.91500E+01 4.74020E+01 0.00000E+00
 -1      1442 1.02900E+02 4.87010E+01 0.00000E+00
 -1      1443 1.04400E+02 4.87010E+01 0.00000E+00
 -1      1444 1.02150E+02 4.74020E+01 0.00000E+00
 -1      1445 1.05900E+02 4.87010E+01 0.00000E+00
 -1      1446 1.07400E+02 4.87010E+01 0.00000E+00
 -1      1447 1.05150E+02 4.74020E+01 0.00000E+00
 -1      1448 1.08900E+02 4.87010E+01 0.00000E+00
 -1      1449 1.10400E+02 4.87010E+01 0.00000E+00
 -1      1450 1.08150E+02 4.74020E+01 0.00000E+00
 -1      1451 1.11900E+02 4.87010E+01 0.00000E+00
 -1      1452 1.13400E+02 4.87010E+01 0.00000E+00
 -1      1453 1.11150E+02 4.74020E+01 0.00000E+00
 -1      1454 1.14900E+02 4.87010E+01 0.00000E+00
 -1      1455 1.16400E+02 4.87010E+01 0.00000E+00
 -1      1456 1.14150E+02 4.74020E+01 0.00000E+00
 -1      1457 1.17900E+02 4.87010E+01 0.00000E+00
 -1      1458 1.19400E+02 4.87010E+01 0.00000E+00
 -1      1459 1.17150E+02 4.74020E+01 0.00000E+00
 -1      1460 1.20900E+02 4.87010E+01 0.00000E+00
 -1      1461 1.22400E+02 4.87010E+01 0.00000E+00
 -1      1462 1.20150E+02 4.74020E+01 0.00000E+00
 -1      1463 1.23900E+02 4.87010E+01 0.00000E+00
 -1      1464 1.25400E+02 4.87010E+01 0.00000E+00
 -1      1465 1.23150E+02 4.74020E+01 0.00000E+00
 -1      1466 1.26900E+02 4.87010E+01 0.00000E+00
 -1      1467 1.28400E+02 4.87010E+01 0.00000E+00
 -1      1468 1.26150E+02 4.74020E+01 0.00000E+00
 -1      1469 1.29900E+02 4.87010E+01 0.00000E+00
 -1      1470 1.31400E+02 4.87010E+01 0.00000E+00
 -1      1471 1.29150E+02 4.74020E+01 0.00000E+00
 -1      1472 1.32900E+02 4.87010E+01 0.00000E+00
 -1      1473 1.34400E+02 4.87010E+01 0.00000E+00
 -1      1474 1.32150E+02 4.74020E+01 0.00000E+00
 -1      1475 1.35900E+02 4.87010E+01 0.00000E+00
 -1      1476 1.37400E+02 4.87010E+01 0.00000E+00
 -1      1477 1.35150E+02 4.74020E+01 0.00000E+00
 -1      1478 1.38900E+02 4.87010E+01 0.00000E+00
 -1      1479 1.40400E+02 4.87010E+01 0.00000E+00
 -1      1480 1.38150E+02 4.74020E+01 0.00000E+00
 -1      1481 1.41900E+02 4.87010E+01 0.00000E+00
 -1      1482 1.43400E+02 4.87010E+01 0.00000E+00
 -1      1483 1.41150E+02 4.74020E+01 0.00000E+00
 -1      1484 1.44900E+02 4.87010E+01 0.00000E+00
 -1      1485 1.46400E+02 4.87010E+01 0.00000E+00
 -1      1486 1.44150E+02 4.74020E+01 0.00000E+00
 -1      1487 1.48575E+02 4.85500E+01 0.00000E+00
 -1      1488 1.47825E+02 4.72510E+01 0.00000E+00
 -1      1489 6.01200E+00 1.09375E+00 0.00000E+00
 -1      1490 4.51200E+00 1.09375E+00 0.00000E+00
 -1      1491 4.37400E+00 2.18750E+00 0.00000E+00
 -1      1492 9.01200E+00 1.09375E+00 0.00000E+00
 -1      1493 7.51200E+00 1.09375E+00 0.00000E+00
 -1      1494 7.37400E+00 2.18750E+00 0.00000E+00
 -1      1495 1.20120E+01 1.09375E+00 0.00000E+00
 -1      1496 1.05120E+01 1.09375E+00 0.00000E+00
 -1      1497 1.03740E+01 2.18750E+00 0.00000E+00
 -1      1498 1.50120E+01 1.09375E+00 0.00000E+00
 -1      1499 1.35120E+01 1.09375E+00 0.00000E+00
 -1      1500 1.33740E+01 2.18750E+00 0.00000E+00
 -1      1501 1.80120E+01 1.09375E+00 0.00000E+00
 -1      1502 1.65120E+01 1.09375E+00 0.00000E+00
 -1      1503 1.63740E+01 2.18750E+00 0.00000E+00
 -1      1504 2.10120E+01 1.09375E+00 0.00000E+00
 -1      1505 1.95120E+01 1.09375E+00 0.00000E+00
 -1      1506 1.93740E+01 2.18750E+00 0.00000E+00
 -1      1507 2.40120E+01 1.09375E+00 0.00000E+00
 -1      1508 2.25120E+01 1.09375E+00 0.00000E+00
 -1      1509 2.23740E+01 2.18750E+00 0.00000E+00
 -1      1510 2.70120E+01 1.09375E+00 0.00000E+00
 -1      1511 2.55120E+01 1.09375E+00 0.00000E+00
 -1      1512 2.53740E+01 2.18750E+00 0.00000E+00
 -1      1513 3.00120E+01 1.09375E+00 0.00000E+00
 -1      1514 2.85120E+01 1.09375E+00 0.00000E+00
 -1      1515 2.83740E+01 2.18750E+00 0.00000E+00
 -1      1516 3.30120E+01 1.09375E+00 0.00000E+00
 -1      1517 3.15120E+01 1.09375E+00 0.00000E+00
 -1      1518 3.13740E+01 2.18750E+00 0.00000E+00
 -1      1519 3.60120E+01 1.09375E+00 0.00000E+00
 -1      1520 3.45120E+01 1.09375E+00 0.00000E+00
 -1      1521 3.43740E+01 2.18750E+00 0.00000E+00
 -1      1522 3.90120E+01 1.09375E+00 0.00000E+00
 -1      1523 3.75120E+01 1.09375E+00 0.00000E+00
 -1      1524 3.73740E+01 2.18750E+00 0.00000E+00
 -1      1525 4.20120E+01 1.09375E+00 0.00000E+00
 -1      1526 4.05120E+01 1.09375E+00 0.00000E+00
 -1      1527 4.03740E+01 2.18750E+00 0.00000E+00
 -1      1528 4.50120E+01 1.09375E+00 0.00000E+00
 -1      1529 4.35120E+01 1.09375E+00 0.00000E+00
 -1      1530 4.33740E+01 2.18750E+00 0.00000E+00
 -1      1531 4.80120E+01 1.09375E+00 0.00000E+00
 -1      1532 4.65120E+01 1.09375E+00 0.00000E+00
 -1      1533 4.63740E+01 2.18750E+00 0.00000E+00
 -1      1534 5.10120E+01 1.09375E+00 0.00000E+00
 -1      1535 4.95120E+01 1.09375E+00 0.00000E+00
 -1      1536 4.93740E+01 2.18750E+00 0.00000E+00
 -1      1537 5.40120E+01 1.09375E+00 0.00000E+00
 -1      1538 5.25120E+01 1.09375E+00 0.00000E+00
 -1      1539 5.23740E+01 2.18750E+00 0.00000E+00
 -1      1540 5.70120E+01 1.09375E+00 0.00000E+00
 -1      1541 5.55120E+01 1.09375E+00 0.00000E+00
 -1      1542 5.53740E+01 2.18750E+00 0.00000E+00
 -1      1543 6.00120E+01 1.09375E+00 0.00000E+00
 -1      1544 5.85120E+01 1.09375E+00 0.00000E+00
 -1      1545 5.83740E+01 2.18750E+00 0.00000E+00
 -1      1546 6.30120E+01 1.09375E+00 0.00000E+00
 -1      1547 6.15120E+01 1.09375E+00 0.00000E+00
 -1      1548 6.13740E+01 2.18750E+00 0.00000E+00
 -1      1549 6.60120E+01 1.09375E+00 0.00000E+00
 -1      1550 6.45120E+01 1.09375E+00 0.00000E+00
 -1      1551 6.43740E+01 2.18750E+00 0.00000E+00
 -1      1552 6.90120E+01 1.09375E+00 0.00000E+00
 -1      1553 6.75120E+01 1.09375E+00 0.00000E+00
 -1      1554 6.73740E+01 2.18750E+00 0.00000E+00
 -1      1555 7.20120E+01 1.09375E+00 0.00000E+00
 -1      1556 7.05120E+01 1.09375E+00 0.00000E+00
 -1      1557 7.03740E+01 2.18750E+00 0.00000E+00
 -1      1558 7.50120E+01 1.09375E+00 0.00000E+00
 -1      1559 7.35120E+01 1.09375E+00 0.00000E+00
 -1      1560 7.33740E+01 2.18750E+00 0.00000E+00
 -1      1561 7.80120E+01 1.09375E+00 0.00000E+00
 -1      1562 7.65120E+01 1.09375E+00 0.00000E+00
 -1      1563 7.63740E+01 2.18750E+00 0.00000E+00
 -1      1564 8.10120E+01 1.09375E+00 0.00000E+00
 -1      1565 7.95120E+01 1.09375E+00 0.00000E+00
 -1      1566 7.93740E+01 2.18750E+00 0.00000E+00
 -1      1567 8.40120E+01 1.09375E+00 0.00000E+00
 -1      1568 8.25120E+01 1.09375E+00 0.00000E+00
 -1      1569 8.23740E+01 2.18750E+00 0.00000E+00
 -1      1570 8.70120E+01 1.09375E+00 0.00000E+00
 -1      1571 8.55120E+01 1.09375E+00 0.00000E+00
 -1      1572 8.53740E+01 2.18750E+00 0.00000E+00
 -1      1573 9.00120E+01 1.09375E+00 0.00000E+00
 -1      1574 8.85120E+01 1.09375E+00 0.00000E+00
 -1      1575 8.83740E+01 2.18750E+00 0.00000E+00
 -1      1576 9.30120E+01 1.09375E+00 0.00000E+00
 -1      1577 9.15120E+01 1.09375E+00 0.00000E+00
 -1      1578 9.13740E+01 2.18750E+00 0.00000E+00
 -1      1579 9.60120E+01 1.09375E+00 0.00000E+00
 -1      1580 9.45120E+01 1.09375E+00 0.00000E+00
 -1      1581 9.43740E+01 2.18750E+00 0.00000E+00
 -1      1582 9.90120E+01 1.09375E+00 0.00000E+00
 -1      1583 9.75120E+01 1.09375E+00 0.00000E+00
 -1      1584 9.73740E+01 2.18750E+00 0.00000E+00
 -1      1585 1.02012E+02 1.09375E+00 0.00000E+00
 -1      1586 1.00512E+02 1.09375E+00 0.00000E+00
 -1      1587 1.00374E+02 2.18750E+00 0.00000E+00
 -1      1588 1.05012E+02 1.09375E+00 0.00000E+00
 -1      1589 1.03512E+02 1.09375E+00 0.00000E+00
 -1      1590 1.03374E+02 2.18750E+00 0.00000E+00
 -1      1591 1.08012E+02 1.09375E+00 0.00000E+00
 -1      1592 1.06512E+02 1.09375E+00 0.00000E+00
 -1      1593 1.06374E+02 2.18750E+00 0.00000E+00
 -1      1594 1.11012E+02 1.09375E+00 0.00000E+00
 -1      1595 1.09512E+02 1.09375E+00 0.00000E+00
 -1      1596 1.09374E+02 2.18750E+00 0.00000E+00
 -1      1597 1.14012E+02 1.09375E+00 0.00000E+00
 -1      1598 1.12512E+02 1.09375E+00 0.00000E+00
 -1      1599 1.12374E+02 2.18750E+00 0.00000E+00
 -1      1600 1.17012E+02 1.09375E+00 0.00000E+00
 -1      1601 1.15512E+02 1.09375E+00 0.00000E+00
 -1      1602 1.15374E+02 2.18750E+00 0.00000E+00
 -1      1603 1.20012E+02 1.09375E+00 0.00000E+00
 -1      1604 1.18512E+02 1.09375E+00 0.00000E+00
 -1      1605 1.18374E+02 2.18750E+00 0.00000E+00
 -1      1606 1.23012E+02 1.09375E+00 0.00000E+00
 -1      1607 1.21512E+02 1.09375E+00 0.00000E+00
 -1      1608 1.21374E+02 2.18750E+00 0.00000E+00
 -1      1609 1.26012E+02 1.09375E+00 0.00000E+00
 -1      1610 1.24512E+02 1.09375E+00 0.00000E+00
 -1      1611 1.24374E+02 2.18750E+00 0.00000E+00
 -1      1612 1.29012E+02 1.09375E+00 0.00000E+00
 -1      1613 1.27512E+02 1.09375E+00 0.00000E+00
 -1      1614 1.27374E+02 2.18750E+00 0.00000E+00
 -1      1615 1.32012E+02 1.09375E+00 0.00000E+00
 -1      1616 1.30512E+02 1.09375E+00 0.00000E+00
 -1      1617 1.30374E+02 2.18750E+00 0.00000E+00
 -1      1618 1.35012E+02 1.09375E+00 0.00000E+00
 -1      1619 1.33512E+02 1.09375E+00 0.00000E+00
 -1      1620 1.33374E+02 2.18750E+00 0.00000E+00
 -1      1621 1.38012E+02 1.09375E+00 0.00000E+00
 -1      1622 1.36512E+02 1.09375E+00 0.00000E+00
 -1      1623 1.36374E+02 2.18750E+00 0.00000E+00
 -1      1624 1.41012E+02 1.09375E+00 0.00000E+00
 -1      1625 1.39512E+02 1.09375E+00 0.00000E+00
 -1      1626 1.39374E+02 2.18750E+00 0.00000E+00
 -1      1627 1.44012E+02 1.09375E+00 0.00000E+00
 -1      1628 1.42512E+02 1.09375E+00 0.00000E+00
 -1      1629 1.42374E+02 2.18750E+00 0.00000E+00
 -1      1630 1.47012E+02 1.09375E+00 0.00000E+00
 -1      1631 1.45512E+02 1.09375E+00 0.00000E+00
 -1      1632 1.45374E+02 2.18750E+00 0.00000E+00
 -1      1633 1.48575E+02 1.47500E+00 0.00000E+00
 -1      1634 1.48701E+02 5.16250E+00 0.00000E+00
 -1      1635 1.48701E+02 3.68750E+00 0.00000E+00
 -1      1636 1.48701E+02 8.11250E+00 0.00000E+00
 -1      1637 1.48701E+02 6.63750E+00 0.00000E+00
 -1      1638 1.47402E+02 5.90000E+00 0.00000E+00
 -1      1639 1.48701E+02 1.10625E+01 0.00000E+00
 -1      1640 1.48701E+02 9.58750E+00 0.00000E+00
 -1      1641 1.47402E+02 8.85000E+00 0.00000E+00
 -1      1642 1.48701E+02 1.40125E+01 0.00000E+00
 -1      1643 1.48701E+02 1.25375E+01 0.00000E+00
 -1      1644 1.47402E+02 1.18000E+01 0.00000E+00
 -1      1645 1.48701E+02 1.69125E+01 0.00000E+00
 -1      1646 1.48701E+02 1.54625E+01 0.00000E+00
 -1      1647 1.47402E+02 1.47250E+01 0.00000E+00
 -1      1648 1.48701E+02 1.98625E+01 0.00000E+00
 -1      1649 1.48701E+02 1.83875E+01 0.00000E+00
 -1      1650 1.47402E+02 1.76500E+01 0.00000E+00
 -1      1651 1.48701E+02 2.28125E+01 0.00000E+00
 -1      1652 1.48701E+02 2.13375E+01 0.00000E+00
 -1      1653 1.47402E+02 2.06000E+01 0.00000E+00
 -1      1654 1.48701E+02 2.57625E+01 0.00000E+00
 -1      1655 1.48701E+02 2.42875E+01 0.00000E+00
 -1      1656 1.47402E+02 2.35500E+01 0.00000E+00
 -1      1657 1.48701E+02 2.87125E+01 0.00000E+00
 -1      1658 1.48701E+02 2.72375E+01 0.00000E+00
 -1      1659 1.47402E+02 2.65000E+01 0.00000E+00
 -1      1660 1.48701E+02 3.16625E+01 0.00000E+00
 -1      1661 1.48701E+02 3.01875E+01 0.00000E+00
 -1      1662 1.47402E+02 2.94500E+01 0.00000E+00
 -1      1663 1.48701E+02 3.45625E+01 0.00000E+00
 -1      1664 1.48701E+02 3.31125E+01 0.00000E+00
 -1      1665 1.47402E+02 3.23750E+01 0.00000E+00
 -1      1666 1.48701E+02 3.75125E+01 0.00000E+00
 -1      1667 1.48701E+02 3.60375E+01 0.00000E+00
 -1      1668 1.47402E+02 3.53000E+01 0.00000E+00
 -1      1669 1.48701E+02 4.04625E+01 0.00000E+00
 -1      1670 1.48701E+02 3.89875E+01 0.00000E+00
 -1      1671 1.47402E+02 3.82500E+01 0.00000E+00
 -1      1672 1.48701E+02 4.34125E+01 0.00000E+00
 -1      1673 1.48701E+02 4.19375E+01 0.00000E+00
 -1      1674 1.47402E+02 4.12000E+01 0.00000E+00
 -1      1675 1.48263E+02 4.60692E+01 0.00000E+00
 -1      1676 1.48263E+02 4.45942E+01 0.00000E+00
 -1      1677 1.46964E+02 4.38568E+01 0.00000E+00
 -1      1678 1.46088E+02 4.62202E+01 0.00000E+00
 -1      1679 5.50809E+01 2.38995E+01 0.00000E+00
 -1      1680 5.51787E+01 2.47210E+01 0.00000E+00
 -1      1681 5.44766E+01 2.23632E+01 0.00000E+00
 -1      1682 5.47157E+01 2.30399E+01 0.00000E+00
 -1      1683 5.37504E+01 2.09290E+01 0.00000E+00
 -1      1684 5.41422E+01 2.15685E+01 0.00000E+00
 -1      1685 5.26731E+01 1.97267E+01 0.00000E+00
 -1      1686 5.31844E+01 2.02615E+01 0.00000E+00
 -1      1687 5.12748E+01 1.86871E+01 0.00000E+00
 -1      1688 5.19671E+01 1.91438E+01 0.00000E+00
 -1      1689 4.97937E+01 1.80144E+01 0.00000E+00
 -1      1690 5.04705E+01 1.82699E+01 0.00000E+00
 -1      1691 4.82351E+01 1.76870E+01 0.00000E+00
 -1      1692 4.89668E+01 1.77987E+01 0.00000E+00
 -1      1693 4.65279E+01 1.75411E+01 0.00000E+00
 -1      1694 4.73256E+01 1.74860E+01 0.00000E+00
 -1      1695 4.49005E+01 1.80951E+01 0.00000E+00
 -1      1696 4.56381E+01 1.78719E+01 0.00000E+00
 -1      1697 4.34240E+01 1.87617E+01 0.00000E+00
 -1      1698 4.40686E+01 1.84013E+01 0.00000E+00
 -1      1699 4.21928E+01 1.97761E+01 0.00000E+00
 -1      1700 4.27430E+01 1.92933E+01 0.00000E+00
 -1      1701 4.11679E+01 2.10025E+01 0.00000E+00
 -1      1702 4.16101E+01 2.04083E+01 0.00000E+00
 -1      1703 4.04195E+01 2.24240E+01 0.00000E+00
 -1      1704 4.07275E+01 2.17481E+01 0.00000E+00
 -1      1705 3.99007E+01 2.39975E+01 0.00000E+00
 -1      1706 4.00619E+01 2.32450E+01 0.00000E+00
 -1      1707 3.98915E+01 2.56048E+01 0.00000E+00
 -1      1708 3.98896E+01 2.48816E+01 0.00000E+00
 -1      1709 4.01354E+01 2.71642E+01 0.00000E+00
 -1      1710 3.99824E+01 2.64492E+01 0.00000E+00
 -1      1711 4.06580E+01 2.86566E+01 0.00000E+00
 -1      1712 4.03612E+01 2.79915E+01 0.00000E+00
 -1      1713 4.15354E+01 3.01964E+01 0.00000E+00
 -1      1714 4.10314E+01 2.95253E+01 0.00000E+00
 -1      1715 4.28350E+01 3.14279E+01 0.00000E+00
 -1      1716 4.22199E+01 3.09180E+01 0.00000E+00
 -1      1717 4.43544E+01 3.21334E+01 0.00000E+00
 -1      1718 4.36922E+01 3.17959E+01 0.00000E+00
 -1      1719 4.59169E+01 3.26385E+01 0.00000E+00
 -1      1720 4.51774E+01 3.24452E+01 0.00000E+00
 -1      1721 4.75169E+01 3.27994E+01 0.00000E+00
 -1      1722 4.67824E+01 3.27693E+01 0.00000E+00
 -1      1723 4.92153E+01 3.26734E+01 0.00000E+00
 -1      1724 4.84264E+01 3.28162E+01 0.00000E+00
 -1      1725 5.07505E+01 3.20466E+01 0.00000E+00
 -1      1726 5.00656E+01 3.23364E+01 0.00000E+00
 -1      1727 5.21210E+01 3.11944E+01 0.00000E+00
 -1      1728 5.15109E+01 3.16241E+01 0.00000E+00
 -1      1729 5.32725E+01 3.00816E+01 0.00000E+00
 -1      1730 5.27727E+01 3.06238E+01 0.00000E+00
 -1      1731 5.41551E+01 2.87694E+01 0.00000E+00
 -1      1732 5.37839E+01 2.93956E+01 0.00000E+00
 -1      1733 5.48018E+01 2.72398E+01 0.00000E+00
 -1      1734 5.45570E+01 2.79803E+01 0.00000E+00
 -1      1735 5.50246E+01 2.56467E+01 0.00000E+00
 -1      1736 5.49494E+01 2.63682E+01 0.00000E+00
 -1      1737 5.26609E+01 1.89923E+01 0.00000E+00
 -1      1738 5.39330E+01 2.02427E+01 0.00000E+00
 -1      1739 1.48437E+02 2.56875E+00 0.00000E+00
 -1      1740 1.47138E+02 3.30625E+00 0.00000E+00
 -1      1741 5.55330E+01 2.33592E+01 0.00000E+00
 -1      1742 5.48334E+01 2.17049E+01 0.00000E+00
 -1      1743 5.57441E+01 2.51445E+01 0.00000E+00
 -1      1744 5.11505E+01 1.79922E+01 0.00000E+00
 -1      1745 4.95193E+01 1.73593E+01 0.00000E+00
 -1      1746 4.77829E+01 1.69426E+01 0.00000E+00
 -1      1747 4.59836E+01 1.70724E+01 0.00000E+00
 -1      1748 4.42619E+01 1.77095E+01 0.00000E+00
 -1      1749 4.27491E+01 1.85474E+01 0.00000E+00
 -1      1750 4.14854E+01 1.97112E+01 0.00000E+00
 -1      1751 4.04623E+01 2.10891E+01 0.00000E+00
 -1      1752 3.96643E+01 2.26557E+01 0.00000E+00
 -1      1753 3.92955E+01 2.43608E+01 0.00000E+00
 -1      1754 3.93752E+01 2.60892E+01 0.00000E+00
 -1      1755 3.96919E+01 2.77608E+01 0.00000E+00
 -1      1756 4.02912E+01 2.94568E+01 0.00000E+00
 -1      1757 4.13491E+01 3.10470E+01 0.00000E+00
 -1      1758 4.28908E+01 3.21367E+01 0.00000E+00
 -1      1759 4.45710E+01 3.28166E+01 0.00000E+00
 -1      1760 4.62594E+01 3.32592E+01 0.00000E+00
 -1      1761 4.80343E+01 3.34069E+01 0.00000E+00
 -1      1762 4.97941E+01 3.30868E+01 0.00000E+00
 -1      1763 5.14047E+01 3.23273E+01 0.00000E+00
 -1      1764 5.28166E+01 3.13343E+01 0.00000E+00
 -1      1765 5.39796E+01 3.00776E+01 0.00000E+00
 -1      1766 5.48929E+01 2.86025E+01 0.00000E+00
 -1      1767 5.54424E+01 2.69419E+01 0.00000E+00
 -1      1768 2.87400E+00 4.77875E+01 0.00000E+00
 -1      1769 3.89700E+00 4.04125E+01 0.00000E+00
 -1      1770 3.89700E+00 4.18875E+01 0.00000E+00
 -1      1771 3.89700E+00 4.33625E+01 0.00000E+00
 -1      1772 3.89700E+00 4.48375E+01 0.00000E+00
 -1      1773 5.19600E+00 4.26250E+01 0.00000E+00
 -1      1774 3.89700E+00 3.45500E+01 0.00000E+00
 -1      1775 3.89700E+00 3.60000E+01 0.00000E+00
 -1      1776 3.89700E+00 3.16000E+01 0.00000E+00
 -1      1777 3.89700E+00 3.30750E+01 0.00000E+00
 -1      1778 5.19600E+00 3.38000E+01 0.00000E+00
 -1      1779 3.89700E+00 2.86500E+01 0.00000E+00
 -1      1780 3.89700E+00 3.01250E+01 0.00000E+00
 -1      1781 5.19600E+00 3.08500E+01 0.00000E+00
 -1      1782 3.89700E+00 2.57000E+01 0.00000E+00
 -1      1783 3.89700E+00 2.71750E+01 0.00000E+00
 -1      1784 5.19600E+00 2.79000E+01 0.00000E+00
 -1      1785 3.89700E+00 2.27500E+01 0.00000E+00
 -1      1786 3.89700E+00 2.42250E+01 0.00000E+00
 -1      1787 5.19600E+00 2.49500E+01 0.00000E+00
 -1      1788 3.89700E+00 1.98000E+01 0.00000E+00
 -1      1789 3.89700E+00 2.12750E+01 0.00000E+00
 -1      1790 5.19600E+00 2.20000E+01 0.00000E+00
 -1      1791 3.89700E+00 1.69000E+01 0.00000E+00
 -1      1792 3.89700E+00 1.83500E+01 0.00000E+00
 -1      1793 5.19600E+00 1.90750E+01 0.00000E+00
 -1      1794 3.89700E+00 1.39500E+01 0.00000E+00
 -1      1795 3.89700E+00 1.54250E+01 0.00000E+00
 -1      1796 5.19600E+00 1.61500E+01 0.00000E+00
 -1      1797 3.89700E+00 1.10000E+01 0.00000E+00
 -1      1798 3.89700E+00 1.24750E+01 0.00000E+00
 -1      1799 5.19600E+00 1.32000E+01 0.00000E+00
 -1      1800 3.89700E+00 8.05000E+00 0.00000E+00
 -1      1801 3.89700E+00 9.52500E+00 0.00000E+00
 -1      1802 5.19600E+00 1.02500E+01 0.00000E+00
 -1      1803 3.89700E+00 5.10000E+00 0.00000E+00
 -1      1804 3.89700E+00 6.57500E+00 0.00000E+00
 -1      1805 5.19600E+00 7.30000E+00 0.00000E+00
 -1      1806 4.20450E+00 3.09687E+00 0.00000E+00
 -1      1807 4.06650E+00 4.19063E+00 0.00000E+00
 -1      1808 5.36550E+00 4.91563E+00 0.00000E+00
 -1      1809 5.70450E+00 3.09687E+00 0.00000E+00
 -1      1810 3.62400E+00 4.64885E+01 0.00000E+00
 -1      1811 8.70450E+00 3.09687E+00 0.00000E+00
 -1      1812 7.20450E+00 3.09687E+00 0.00000E+00
 -1      1813 7.03500E+00 4.00625E+00 0.00000E+00
 -1      1814 4.92300E+00 4.57510E+01 0.00000E+00
 -1      1815 8.40000E+00 4.61030E+01 0.00000E+00
 -1      1816 9.90000E+00 4.61030E+01 0.00000E+00
 -1      1817 1.14000E+01 4.61030E+01 0.00000E+00
 -1      1818 1.29000E+01 4.61030E+01 0.00000E+00
 -1      1819 1.06500E+01 4.48040E+01 0.00000E+00
 -1      1820 1.44000E+01 4.61030E+01 0.00000E+00
 -1      1821 1.59000E+01 4.61030E+01 0.00000E+00
 -1      1822 1.36500E+01 4.48040E+01 0.00000E+00
 -1      1823 1.74000E+01 4.61030E+01 0.00000E+00
 -1      1824 1.89000E+01 4.61030E+01 0.00000E+00
 -1      1825 1.66500E+01 4.48040E+01 0.00000E+00
 -1      1826 2.04000E+01 4.61030E+01 0.00000E+00
 -1      1827 2.19000E+01 4.61030E+01 0.00000E+00
 -1      1828 1.96500E+01 4.48040E+01 0.00000E+00
 -1      1829 2.34000E+01 4.61030E+01 0.00000E+00
 -1      1830 2.49000E+01 4.61030E+01 0.00000E+00
 -1      1831 2.26500E+01 4.48040E+01 0.00000E+00
 -1      1832 2.64000E+01 4.61030E+01 0.00000E+00
 -1      1833 2.79000E+01 4.61030E+01 0.00000E+00
 -1      1834 2.56500E+01 4.48040E+01 0.00000E+00
 -1      1835 2.94000E+01 4.61030E+01 0.00000E+00
 -1      1836 3.09000E+01 4.61030E+01 0.00000E+00
 -1      1837 2.86500E+01 4.48040E+01 0.00000E+00
 -1      1838 3.24000E+01 4.61030E+01 0.00000E+00
 -1      1839 3.39000E+01 4.61030E+01 0.00000E+00
 -1      1840 3.16500E+01 4.48040E+01 0.00000E+00
 -1      1841 3.54000E+01 4.61030E+01 0.00000E+00
 -1      1842 3.69000E+01 4.61030E+01 0.00000E+00
 -1      1843 3.46500E+01 4.48040E+01 0.00000E+00
 -1      1844 3.84000E+01 4.61030E+01 0.00000E+00
 -1      1845 3.99000E+01 4.61030E+01 0.00000E+00
 -1      1846 3.76500E+01 4.48040E+01 0.00000E+00
 -1      1847 4.14000E+01 4.61030E+01 0.00000E+00
 -1      1848 4.29000E+01 4.61030E+01 0.00000E+00
 -1      1849 4.06500E+01 4.48040E+01 0.00000E+00
 -1      1850 4.44000E+01 4.61030E+01 0.00000E+00
 -1      1851 4.59000E+01 4.61030E+01 0.00000E+00
 -1      1852 4.36500E+01 4.48040E+01 0.00000E+00
 -1      1853 4.74000E+01 4.61030E+01 0.00000E+00
 -1      1854 4.89000E+01 4.61030E+01 0.00000E+00
 -1      1855 4.66500E+01 4.48040E+01 0.00000E+00
 -1      1856 5.04000E+01 4.61030E+01 0.00000E+00
 -1      1857 5.19000E+01 4.61030E+01 0.00000E+00
 -1      1858 4.96500E+01 4.48040E+01 0.00000E+00
 -1      1859 5.34000E+01 4.61030E+01 0.00000E+00
 -1      1860 5.49000E+01 4.61030E+01 0.00000E+00
 -1      1861 5.26500E+01 4.48040E+01 0.00000E+00
 -1      1862 5.64000E+01 4.61030E+01 0.00000E+00
 -1      1863 5.79000E+01 4.61030E+01 0.00000E+00
 -1      1864 5.56500E+01 4.48040E+01 0.00000E+00
 -1      1865 5.94000E+01 4.61030E+01 0.00000E+00
 -1      1866 6.09000E+01 4.61030E+01 0.00000E+00
 -1      1867 5.86500E+01 4.48040E+01 0.00000E+00
 -1      1868 6.24000E+01 4.61030E+01 0.00000E+00
 -1      1869 6.39000E+01 4.61030E+01 0.00000E+00
 -1      1870 6.16500E+01 4.48040E+01 0.00000E+00
 -1      1871 6.54000E+01 4.61030E+01 0.00000E+00
 -1      1872 6.69000E+01 4.61030E+01 0.00000E+00
 -1      1873 6.46500E+01 4.48040E+01 0.00000E+00
 -1      1874 6.84000E+01 4.61030E+01 0.00000E+00
 -1      1875 6.99000E+01 4.61030E+01 0.00000E+00
 -1      1876 6.76500E+01 4.48040E+01 0.00000E+00
 -1      1877 7.14000E+01 4.61030E+01 0.00000E+00
 -1      1878 7.29000E+01 4.61030E+01 0.00000E+00
 -1      1879 7.06500E+01 4.48040E+01 0.00000E+00
 -1      1880 7.44000E+01 4.61030E+01 0.00000E+00
 -1      1881 7.59000E+01 4.61030E+01 0.00000E+00
 -1      1882 7.36500E+01 4.48040E+01 0.00000E+00
 -1      1883 7.74000E+01 4.61030E+01 0.00000E+00
 -1      1884 7.89000E+01 4.61030E+01 0.00000E+00
 -1      1885 7.66500E+01 4.48040E+01 0.00000E+00
 -1      1886 8.04000E+01 4.61030E+01 0.00000E+00
 -1      1887 8.19000E+01 4.61030E+01 0.00000E+00
 -1      1888 7.96500E+01 4.48040E+01 0.00000E+00
 -1      1889 8.34000E+01 4.61030E+01 0.00000E+00
 -1      1890 8.49000E+01 4.61030E+01 0.00000E+00
 -1      1891 8.26500E+01 4.48040E+01 0.00000E+00
 -1      1892 8.64000E+01 4.61030E+01 0.00000E+00
 -1      1893 8.79000E+01 4.61030E+01 0.00000E+00
 -1      1894 8.56500E+01 4.48040E+01 0.00000E+00
 -1      1895 8.94000E+01 4.61030E+01 0.00000E+00
 -1      1896 9.09000E+01 4.61030E+01 0.00000E+00
 -1      1897 8.86500E+01 4.48040E+01 0.00000E+00
 -1      1898 9.24000E+01 4.61030E+01 0.00000E+00
 -1      1899 9.39000E+01 4.61030E+01 0.00000E+00
 -1      1900 9.16500E+01 4.48040E+01 0.00000E+00
 -1      1901 9.54000E+01 4.61030E+01 0.00000E+00
 -1      1902 9.69000E+01 4.61030E+01 0.00000E+00
 -1      1903 9.46500E+01 4.48040E+01 0.00000E+00
 -1      1904 9.84000E+01 4.61030E+01 0.00000E+00
 -1      1905 9.99000E+01 4.61030E+01 0.00000E+00
 -1      1906 9.76500E+01 4.48040E+01 0.00000E+00
 -1      1907 1.01400E+02 4.61030E+01 0.00000E+00
 -1      1908 1.02900E+02 4.61030E+01 0.00000E+00
 -1      1909 1.00650E+02 4.48040E+01 0.00000E+00
 -1      1910 1.04400E+02 4.61030E+01 0.00000E+00
 -1      1911 1.05900E+02 4.61030E+01 0.00000E+00
 -1      1912 1.03650E+02 4.48040E+01 0.00000E+00
 -1      1913 1.07400E+02 4.61030E+01 0.00000E+00
 -1      1914 1.08900E+02 4.61030E+01 0.00000E+00
 -1      1915 1.06650E+02 4.48040E+01 0.00000E+00
 -1      1916 1.10400E+02 4.61030E+01 0.00000E+00
 -1      1917 1.11900E+02 4.61030E+01 0.00000E+00
 -1      1918 1.09650E+02 4.48040E+01 0.00000E+00
 -1      1919 1.13400E+02 4.61030E+01 0.00000E+00
 -1      1920 1.14900E+02 4.61030E+01 0.00000E+00
 -1      1921 1.12650E+02 4.48040E+01 0.00000E+00
 -1      1922 1.16400E+02 4.61030E+01 0.00000E+00
 -1      1923 1.17900E+02 4.61030E+01 0.00000E+00
 -1      1924 1.15650E+02 4.48040E+01 0.00000E+00
 -1      1925 1.19400E+02 4.61030E+01 0.00000E+00
 -1      1926 1.20900E+02 4.61030E+01 0.00000E+00
 -1      1927 1.18650E+02 4.48040E+01 0.00000E+00
 -1      1928 1.22400E+02 4.61030E+01 0.00000E+00
 -1      1929 1.23900E+02 4.61030E+01 0.00000E+00
 -1      1930 1.21650E+02 4.48040E+01 0.00000E+00
 -1      1931 1.25400E+02 4.61030E+01 0.00000E+00
 -1      1932 1.26900E+02 4.61030E+01 0.00000E+00
 -1      1933 1.24650E+02 4.48040E+01 0.00000E+00
 -1      1934 1.28400E+02 4.61030E+01 0.00000E+00
 -1      1935 1.29900E+02 4.61030E+01 0.00000E+00
 -1      1936 1.27650E+02 4.48040E+01 0.00000E+00
 -1      1937 1.31400E+02 4.61030E+01 0.00000E+00
 -1      1938 1.32900E+02 4.61030E+01 0.00000E+00
 -1      1939 1.30650E+02 4.48040E+01 0.00000E+00
 -1      1940 1.34400E+02 4.61030E+01 0.00000E+00
 -1      1941 1.35900E+02 4.61030E+01 0.00000E+00
 -1      1942 1.33650E+02 4.48040E+01 0.00000E+00
 -1      1943 1.37400E+02 4.61030E+01 0.00000E+00
 -1      1944 1.38900E+02 4.61030E+01 0.00000E+00
 -1      1945 1.36650E+02 4.48040E+01 0.00000E+00
 -1      1946 1.40400E+02 4.61030E+01 0.00000E+00
 -1      1947 1.41900E+02 4.61030E+01 0.00000E+00
 -1      1948 1.39650E+02 4.48040E+01 0.00000E+00
 -1      1949 1.43244E+02 4.61616E+01 0.00000E+00
 -1      1950 1.44744E+02 4.61616E+01 0.00000E+00
 -1      1951 1.45182E+02 4.49799E+01 0.00000E+00
 -1      1952 1.42494E+02 4.48626E+01 0.00000E+00
 -1      1953 1.17045E+01 3.09687E+00 0.00000E+00
 -1      1954 1.02045E+01 3.09687E+00 0.00000E+00
 -1      1955 1.00350E+01 4.00625E+00 0.00000E+00
 -1      1956 1.47045E+01 3.09687E+00 0.00000E+00
 -1      1957 1.32045E+01 3.09687E+00 0.00000E+00
 -1      1958 1.30350E+01 4.00625E+00 0.00000E+00
 -1      1959 1.77045E+01 3.09687E+00 0.00000E+00
 -1      1960 1.62045E+01 3.09687E+00 0.00000E+00
 -1      1961 1.60350E+01 4.00625E+00 0.00000E+00
 -1      1962 2.07045E+01 3.09687E+00 0.00000E+00
 -1      1963 1.92045E+01 3.09687E+00 0.00000E+00
 -1      1964 1.90350E+01 4.00625E+00 0.00000E+00
 -1      1965 2.37045E+01 3.09687E+00 0.00000E+00
 -1      1966 2.22045E+01 3.09687E+00 0.00000E+00
 -1      1967 2.20350E+01 4.00625E+00 0.00000E+00
 -1      1968 2.67045E+01 3.09687E+00 0.00000E+00
 -1      1969 2.52045E+01 3.09687E+00 0.00000E+00
 -1      1970 2.50350E+01 4.00625E+00 0.00000E+00
 -1      1971 2.97045E+01 3.09687E+00 0.00000E+00
 -1      1972 2.82045E+01 3.09687E+00 0.00000E+00
 -1      1973 2.80350E+01 4.00625E+00 0.00000E+00
 -1      1974 3.27045E+01 3.09687E+00 0.00000E+00
 -1      1975 3.12045E+01 3.09687E+00 0.00000E+00
 -1      1976 3.10350E+01 4.00625E+00 0.00000E+00
 -1      1977 3.57045E+01 3.09687E+00 0.00000E+00
 -1      1978 3.42045E+01 3.09687E+00 0.00000E+00
 -1      1979 3.40350E+01 4.00625E+00 0.00000E+00
 -1      1980 3.87045E+01 3.09687E+00 0.00000E+00
 -1      1981 3.72045E+01 3.09687E+00 0.00000E+00
 -1      1982 3.70350E+01 4.00625E+00 0.00000E+00
 -1      1983 4.17045E+01 3.09687E+00 0.00000E+00
 -1      1984 4.02045E+01 3.09687E+00 0.00000E+00
 -1      1985 4.00350E+01 4.00625E+00 0.00000E+00
 -1      1986 4.47045E+01 3.09687E+00 0.00000E+00
 -1      1987 4.32045E+01 3.09687E+00 0.00000E+00
 -1      1988 4.30350E+01 4.00625E+00 0.00000E+00
 -1      1989 4.77045E+01 3.09687E+00 0.00000E+00
 -1      1990 4.62045E+01 3.09687E+00 0.00000E+00
 -1      1991 4.60350E+01 4.00625E+00 0.00000E+00
 -1      1992 5.07045E+01 3.09687E+00 0.00000E+00
 -1      1993 4.92045E+01 3.09687E+00 0.00000E+00
 -1      1994 4.90350E+01 4.00625E+00 0.00000E+00
 -1      1995 5.37045E+01 3.09687E+00 0.00000E+00
 -1      1996 5.22045E+01 3.09687E+00 0.00000E+00
 -1      1997 5.20350E+01 4.00625E+00 0.00000E+00
 -1      1998 5.67045E+01 3.09687E+00 0.00000E+00
 -1      1999 5.52045E+01 3.09687E+00 0.00000E+00
 -1      2000 5.50350E+01 4.00625E+00 0.00000E+00
 -1      2001 5.97045E+01 3.09687E+00 0.00000E+00
 -1      2002 5.82045E+01 3.09687E+00 0.00000E+00
 -1      2003 5.80350E+01 4.00625E+00 0.00000E+00
 -1      2004 6.27045E+01 3.09687E+00 0.00000E+00
 -1      2005 6.12045E+01 3.09687E+00 0.00000E+00
 -1      2006 6.10350E+01 4.00625E+00 0.00000E+00
 -1      2007 6.57045E+01 3.09687E+00 0.00000E+00
 -1      2008 6.42045E+01 3.09687E+00 0.00000E+00
 -1      2009 6.40350E+01 4.00625E+00 0.00000E+00
 -1      2010 6.87045E+01 3.09687E+00 0.00000E+00
 -1      2011 6.72045E+01 3.09687E+00 0.00000E+00
 -1      2012 6.70350E+01 4.00625E+00 0.00000E+00
 -1      2013 7.17045E+01 3.09687E+00 0.00000E+00
 -1      2014 7.02045E+01 3.09687E+00 0.00000E+00
 -1      2015 7.00350E+01 4.00625E+00 0.00000E+00
 -1      2016 7.47045E+01 3.09687E+00 0.00000E+00
 -1      2017 7.32045E+01 3.09687E+00 0.00000E+00
 -1      2018 7.30350E+01 4.00625E+00 0.00000E+00
 -1      2019 7.77045E+01 3.09687E+00 0.00000E+00
 -1      2020 7.62045E+01 3.09687E+00 0.00000E+00
 -1      2021 7.60350E+01 4.00625E+00 0.00000E+00
 -1      2022 8.07045E+01 3.09687E+00 0.00000E+00
 -1      2023 7.92045E+01 3.09687E+00 0.00000E+00
 -1      2024 7.90350E+01 4.00625E+00 0.00000E+00
 -1      2025 8.37045E+01 3.09687E+00 0.00000E+00
 -1      2026 8.22045E+01 3.09687E+00 0.00000E+00
 -1      2027 8.20350E+01 4.00625E+00 0.00000E+00
 -1      2028 8.67045E+01 3.09687E+00 0.00000E+00
 -1      2029 8.52045E+01 3.09687E+00 0.00000E+00
 -1      2030 8.50350E+01 4.00625E+00 0.00000E+00
 -1      2031 8.97045E+01 3.09687E+00 0.00000E+00
 -1      2032 8.82045E+01 3.09687E+00 0.00000E+00
 -1      2033 8.80350E+01 4.00625E+00 0.00000E+00
 -1      2034 9.27045E+01 3.09687E+00 0.00000E+00
 -1      2035 9.12045E+01 3.09687E+00 0.00000E+00
 -1      2036 9.10350E+01 4.00625E+00 0.00000E+00
 -1      2037 9.57045E+01 3.09687E+00 0.00000E+00
 -1      2038 9.42045E+01 3.09687E+00 0.00000E+00
 -1      2039 9.40350E+01 4.00625E+00 0.00000E+00
 -1      2040 9.87045E+01 3.09687E+00 0.00000E+00
 -1      2041 9.72045E+01 3.09687E+00 0.00000E+00
 -1      2042 9.70350E+01 4.00625E+00 0.00000E+00
 -1      2043 1.01704E+02 3.09687E+00 0.00000E+00
 -1      2044 1.00204E+02 3.09687E+00 0.00000E+00
 -1      2045 1.00035E+02 4.00625E+00 0.00000E+00
 -1      2046 1.04704E+02 3.09687E+00 0.00000E+00
 -1      2047 1.03204E+02 3.09687E+00 0.00000E+00
 -1      2048 1.03035E+02 4.00625E+00 0.00000E+00
 -1      2049 1.07704E+02 3.09687E+00 0.00000E+00
 -1      2050 1.06204E+02 3.09687E+00 0.00000E+00
 -1      2051 1.06035E+02 4.00625E+00 0.00000E+00
 -1      2052 1.10704E+02 3.09687E+00 0.00000E+00
 -1      2053 1.09204E+02 3.09687E+00 0.00000E+00
 -1      2054 1.09035E+02 4.00625E+00 0.00000E+00
 -1      2055 1.13704E+02 3.09687E+00 0.00000E+00
 -1      2056 1.12204E+02 3.09687E+00 0.00000E+00
 -1      2057 1.12035E+02 4.00625E+00 0.00000E+00
 -1      2058 1.16704E+02 3.09687E+00 0.00000E+00
 -1      2059 1.15204E+02 3.09687E+00 0.00000E+00
 -1      2060 1.15035E+02 4.00625E+00 0.00000E+00
 -1      2061 1.19704E+02 3.09687E+00 0.00000E+00
 -1      2062 1.18204E+02 3.09687E+00 0.00000E+00
 -1      2063 1.18035E+02 4.00625E+00 0.00000E+00
 -1      2064 1.22704E+02 3.09687E+00 0.00000E+00
 -1      2065 1.21204E+02 3.09687E+00 0.00000E+00
 -1      2066 1.21035E+02 4.00625E+00 0.00000E+00
 -1      2067 1.25704E+02 3.09687E+00 0.00000E+00
 -1      2068 1.24204E+02 3.09687E+00 0.00000E+00
 -1      2069 1.24035E+02 4.00625E+00 0.00000E+00
 -1      2070 1.28704E+02 3.09687E+00 0.00000E+00
 -1      2071 1.27204E+02 3.09687E+00 0.00000E+00
 -1      2072 1.27035E+02 4.00625E+00 0.00000E+00
 -1      2073 1.31704E+02 3.09687E+00 0.00000E+00
 -1      2074 1.30204E+02 3.09687E+00 0.00000E+00
 -1      2075 1.30035E+02 4.00625E+00 0.00000E+00
 -1      2076 1.34704E+02 3.09687E+00 0.00000E+00
 -1      2077 1.33204E+02 3.09687E+00 0.00000E+00
 -1      2078 1.33035E+02 4.00625E+00 0.00000E+00
 -1      2079 1.37704E+02 3.09687E+00 0.00000E+00
 -1      2080 1.36204E+02 3.09687E+00 0.00000E+00
 -1      2081 1.36035E+02 4.00625E+00 0.00000E+00
 -1      2082 1.40704E+02 3.09687E+00 0.00000E+00
 -1      2083 1.39204E+02 3.09687E+00 0.00000E+00
 -1      2084 1.39035E+02 4.00625E+00 0.00000E+00
 -1      2085 1.43704E+02 3.09687E+00 0.00000E+00
 -1      2086 1.42204E+02 3.09687E+00 0.00000E+00
 -1      2087 1.42035E+02 4.00625E+00 0.00000E+00
 -1      2088 1.46171E+02 3.20156E+00 0.00000E+00
 -1      2089 1.44671E+02 3.20156E+00 0.00000E+00
 -1      2090 1.44502E+02 4.11094E+00 0.00000E+00
 -1      2091 1.46435E+02 4.32031E+00 0.00000E+00
 -1      2092 1.46103E+02 1.25375E+01 0.00000E+00
 -1      2093 1.46103E+02 1.10625E+01 0.00000E+00
 -1      2094 1.46103E+02 9.58750E+00 0.00000E+00
 -1      2095 1.46103E+02 8.11250E+00 0.00000E+00
 -1      2096 1.44804E+02 1.03250E+01 0.00000E+00
 -1      2097 1.46269E+02 6.95391E+00 0.00000E+00
 -1      2098 1.46269E+02 5.47891E+00 0.00000E+00
 -1      2099 1.45302E+02 5.37422E+00 0.00000E+00
 -1      2100 1.44970E+02 7.69141E+00 0.00000E+00
 -1      2101 1.46103E+02 1.54375E+01 0.00000E+00
 -1      2102 1.46103E+02 1.39875E+01 0.00000E+00
 -1      2103 1.44804E+02 1.32500E+01 0.00000E+00
 -1      2104 1.46103E+02 1.83875E+01 0.00000E+00
 -1      2105 1.46103E+02 1.69125E+01 0.00000E+00
 -1      2106 1.44804E+02 1.61750E+01 0.00000E+00
 -1      2107 1.46103E+02 2.13375E+01 0.00000E+00
 -1      2108 1.46103E+02 1.98625E+01 0.00000E+00
 -1      2109 1.44804E+02 1.91250E+01 0.00000E+00
 -1      2110 1.46103E+02 2.42875E+01 0.00000E+00
 -1      2111 1.46103E+02 2.28125E+01 0.00000E+00
 -1      2112 1.44804E+02 2.20750E+01 0.00000E+00
 -1      2113 1.46103E+02 2.72375E+01 0.00000E+00
 -1      2114 1.46103E+02 2.57625E+01 0.00000E+00
 -1      2115 1.44804E+02 2.50250E+01 0.00000E+00
 -1      2116 1.46103E+02 3.01875E+01 0.00000E+00
 -1      2117 1.46103E+02 2.87125E+01 0.00000E+00
 -1      2118 1.44804E+02 2.79750E+01 0.00000E+00
 -1      2119 1.46103E+02 3.30875E+01 0.00000E+00
 -1      2120 1.46103E+02 3.16375E+01 0.00000E+00
 -1      2121 1.44804E+02 3.09000E+01 0.00000E+00
 -1      2122 1.46103E+02 3.60375E+01 0.00000E+00
 -1      2123 1.46103E+02 3.45625E+01 0.00000E+00
 -1      2124 1.44804E+02 3.38250E+01 0.00000E+00
 -1      2125 1.46103E+02 3.89875E+01 0.00000E+00
 -1      2126 1.46103E+02 3.75125E+01 0.00000E+00
 -1      2127 1.44804E+02 3.67750E+01 0.00000E+00
 -1      2128 1.46103E+02 4.19375E+01 0.00000E+00
 -1      2129 1.46103E+02 4.04625E+01 0.00000E+00
 -1      2130 1.44804E+02 3.97250E+01 0.00000E+00
 -1      2131 5.53021E+01 2.10399E+01 0.00000E+00
 -1      2132 5.56365E+01 2.18346E+01 0.00000E+00
 -1      2133 5.64604E+01 2.47881E+01 0.00000E+00
 -1      2134 5.63063E+01 2.57138E+01 0.00000E+00
 -1      2135 5.60017E+01 2.26942E+01 0.00000E+00
 -1      2136 5.63669E+01 2.35538E+01 0.00000E+00
 -1      2137 5.64705E+01 2.20293E+01 0.00000E+00
 -1      2138 5.41762E+01 1.94627E+01 0.00000E+00
 -1      2139 5.47422E+01 2.01302E+01 0.00000E+00
 -1      2140 5.27471E+01 1.81688E+01 0.00000E+00
 -1      2141 5.34532E+01 1.87516E+01 0.00000E+00
 -1      2142 3.89700E+00 3.74688E+01 0.00000E+00
 -1      2143 3.89700E+00 3.89437E+01 0.00000E+00
 -1      2144 5.19600E+00 3.96813E+01 0.00000E+00
 -1      2145 5.19600E+00 3.67438E+01 0.00000E+00
 -1      2146 4.93012E+01 1.65027E+01 0.00000E+00
 -1      2147 5.01281E+01 1.67184E+01 0.00000E+00
 -1      2148 4.74822E+01 1.61008E+01 0.00000E+00
 -1      2149 4.83917E+01 1.63017E+01 0.00000E+00
 -1      2150 4.90005E+01 1.56609E+01 0.00000E+00
 -1      2151 4.52836E+01 1.65518E+01 0.00000E+00
 -1      2152 4.61735E+01 1.62210E+01 0.00000E+00
 -1      2153 4.36199E+01 1.71644E+01 0.00000E+00
 -1      2154 4.44518E+01 1.68581E+01 0.00000E+00
 -1      2155 4.46417E+01 1.60067E+01 0.00000E+00
 -1      2156 4.19324E+01 1.82033E+01 0.00000E+00
 -1      2157 4.26134E+01 1.76717E+01 0.00000E+00
 -1      2158 4.05943E+01 1.94745E+01 0.00000E+00
 -1      2159 4.11770E+01 1.88423E+01 0.00000E+00
 -1      2160 3.96480E+01 2.11110E+01 0.00000E+00
 -1      2161 4.00884E+01 2.03653E+01 0.00000E+00
 -1      2162 3.87377E+01 2.27405E+01 0.00000E+00
 -1      2163 3.90953E+01 2.19195E+01 0.00000E+00
 -1      2164 3.86000E+01 2.47941E+01 0.00000E+00
 -1      2165 3.86112E+01 2.39100E+01 0.00000E+00
 -1      2166 3.87763E+01 2.65807E+01 0.00000E+00
 -1      2167 3.86854E+01 2.57363E+01 0.00000E+00
 -1      2168 3.90179E+01 2.83893E+01 0.00000E+00
 -1      2169 3.87921E+01 2.75620E+01 0.00000E+00
 -1      2170 3.97649E+01 3.01266E+01 0.00000E+00
 -1      2171 3.93914E+01 2.92579E+01 0.00000E+00
 -1      2172 3.84916E+01 2.90591E+01 0.00000E+00
 -1      2173 4.11604E+01 3.19115E+01 0.00000E+00
 -1      2174 4.04759E+01 3.11899E+01 0.00000E+00
 -1      2175 4.30472E+01 3.29548E+01 0.00000E+00
 -1      2176 4.21900E+01 3.25867E+01 0.00000E+00
 -1      2177 4.46930E+01 3.35783E+01 0.00000E+00
 -1      2178 4.38701E+01 3.32665E+01 0.00000E+00
 -1      2179 4.31693E+01 3.37165E+01 0.00000E+00
 -1      2180 4.65765E+01 3.40897E+01 0.00000E+00
 -1      2181 4.57110E+01 3.39588E+01 0.00000E+00
 -1      2182 4.84762E+01 3.41052E+01 0.00000E+00
 -1      2183 4.75668E+01 3.40883E+01 0.00000E+00
 -1      2184 5.05043E+01 3.36376E+01 0.00000E+00
 -1      2185 4.96540E+01 3.39746E+01 0.00000E+00
 -1      2186 5.21606E+01 3.27925E+01 0.00000E+00
 -1      2187 5.14003E+01 3.32149E+01 0.00000E+00
 -1      2188 5.35970E+01 3.15680E+01 0.00000E+00
 -1      2189 5.29454E+01 3.21387E+01 0.00000E+00
 -1      2190 5.47885E+01 3.01470E+01 0.00000E+00
 -1      2191 5.42772E+01 3.08330E+01 0.00000E+00
 -1      2192 5.56713E+01 2.85021E+01 0.00000E+00
 -1      2193 5.52694E+01 2.92912E+01 0.00000E+00
 -1      2194 5.62791E+01 2.66352E+01 0.00000E+00
 -1      2195 5.61315E+01 2.75068E+01 0.00000E+00
 -1      2196 5.11240E+01 1.70596E+01 0.00000E+00
 -1      2197 5.19283E+01 1.74768E+01 0.00000E+00
 -1      2198 5.27205E+01 1.72361E+01 0.00000E+00
 -1      2199 6.42300E+00 4.57510E+01 0.00000E+00
 -1      2200 5.09058E+01 1.62030E+01 0.00000E+00
 -1      2201 7.17300E+00 4.44520E+01 0.00000E+00
 -1      2202 5.69292E+01 2.41231E+01 0.00000E+00
 -1      2203 5.74914E+01 2.46924E+01 0.00000E+00
 -1      2204 5.73980E+01 2.34582E+01 0.00000E+00
 -1      2205 5.55454E+01 2.02599E+01 0.00000E+00
 -1      2206 1.45665E+02 4.31193E+01 0.00000E+00
 -1      2207 5.69954E+01 2.62788E+01 0.00000E+00
 -1      2208 5.42624E+01 1.86391E+01 0.00000E+00
 -1      2209 5.65080E+01 2.81955E+01 0.00000E+00
 -1      2210 5.55670E+01 3.00466E+01 0.00000E+00
 -1      2211 5.44059E+01 3.16374E+01 0.00000E+00
 -1      2212 5.29410E+01 3.30263E+01 0.00000E+00
 -1      2213 5.12603E+01 3.41028E+01 0.00000E+00
 -1      2214 4.91865E+01 3.46560E+01 0.00000E+00
 -1      2215 4.50101E+01 3.44088E+01 0.00000E+00
 -1      2216 3.95761E+01 3.09911E+01 0.00000E+00
 -1      2217 3.86764E+01 3.07922E+01 0.00000E+00
 -1      2218 3.93874E+01 3.18556E+01 0.00000E+00
 -1      2219 3.81023E+01 2.72091E+01 0.00000E+00
 -1      2220 3.80011E+01 2.52856E+01 0.00000E+00
 -1      2221 3.80421E+01 2.31738E+01 0.00000E+00
 -1      2222 3.87214E+01 2.11958E+01 0.00000E+00
 -1      2223 3.97800E+01 1.94964E+01 0.00000E+00
 -1      2224 4.28033E+01 1.68203E+01 0.00000E+00
 -1      2225 4.60823E+01 1.50596E+01 0.00000E+00
 -1      2226 4.67823E+01 1.55802E+01 0.00000E+00
 -1      2227 4.73910E+01 1.49393E+01 0.00000E+00
 -1      2228 4.10413E+01 1.79666E+01 0.00000E+00
 -1      2229 4.13168E+01 3.27296E+01 0.00000E+00
 -1      2230 4.04436E+01 3.28725E+01 0.00000E+00
 -1      2231 4.14731E+01 3.35476E+01 0.00000E+00
 -1      2232 4.70184E+01 3.47880E+01 0.00000E+00
 -1      2233 1.07850E+01 5.30525E+00 0.00000E+00
 -1      2234 9.28500E+00 5.30525E+00 0.00000E+00
 -1      2235 6.49500E+00 3.01125E+01 0.00000E+00
 -1      2236 6.49500E+00 3.15875E+01 0.00000E+00
 -1      2237 6.49500E+00 3.30625E+01 0.00000E+00
 -1      2238 6.49500E+00 3.45375E+01 0.00000E+00
 -1      2239 7.79400E+00 3.23250E+01 0.00000E+00
 -1      2240 6.49500E+00 2.42125E+01 0.00000E+00
 -1      2241 6.49500E+00 2.56875E+01 0.00000E+00
 -1      2242 6.49500E+00 2.12625E+01 0.00000E+00
 -1      2243 6.49500E+00 2.27375E+01 0.00000E+00
 -1      2244 7.79400E+00 2.34750E+01 0.00000E+00
 -1      2245 6.49500E+00 1.83625E+01 0.00000E+00
 -1      2246 6.49500E+00 1.98125E+01 0.00000E+00
 -1      2247 7.79400E+00 2.05500E+01 0.00000E+00
 -1      2248 6.49500E+00 1.54125E+01 0.00000E+00
 -1      2249 6.49500E+00 1.68875E+01 0.00000E+00
 -1      2250 7.79400E+00 1.76250E+01 0.00000E+00
 -1      2251 6.49500E+00 1.24625E+01 0.00000E+00
 -1      2252 6.49500E+00 1.39375E+01 0.00000E+00
 -1      2253 7.79400E+00 1.46750E+01 0.00000E+00
 -1      2254 6.49500E+00 9.51250E+00 0.00000E+00
 -1      2255 6.49500E+00 1.09875E+01 0.00000E+00
 -1      2256 7.79400E+00 1.17250E+01 0.00000E+00
 -1      2257 1.37850E+01 5.30525E+00 0.00000E+00
 -1      2258 1.22850E+01 5.30525E+00 0.00000E+00
 -1      2259 1.15350E+01 6.60425E+00 0.00000E+00
 -1      2260 9.90000E+00 4.35050E+01 0.00000E+00
 -1      2261 1.14000E+01 4.35050E+01 0.00000E+00
 -1      2262 5.06858E+01 1.52211E+01 0.00000E+00
 -1      2263 5.16817E+01 1.55623E+01 0.00000E+00
 -1      2264 1.29000E+01 4.35050E+01 0.00000E+00
 -1      2265 1.44000E+01 4.35050E+01 0.00000E+00
 -1      2266 1.21500E+01 4.22060E+01 0.00000E+00
 -1      2267 1.59000E+01 4.35050E+01 0.00000E+00
 -1      2268 1.74000E+01 4.35050E+01 0.00000E+00
 -1      2269 1.51500E+01 4.22060E+01 0.00000E+00
 -1      2270 1.89000E+01 4.35050E+01 0.00000E+00
 -1      2271 2.04000E+01 4.35050E+01 0.00000E+00
 -1      2272 1.81500E+01 4.22060E+01 0.00000E+00
 -1      2273 2.19000E+01 4.35050E+01 0.00000E+00
 -1      2274 2.34000E+01 4.35050E+01 0.00000E+00
 -1      2275 2.11500E+01 4.22060E+01 0.00000E+00
 -1      2276 2.49000E+01 4.35050E+01 0.00000E+00
 -1      2277 2.64000E+01 4.35050E+01 0.00000E+00
 -1      2278 2.41500E+01 4.22060E+01 0.00000E+00
 -1      2279 2.79000E+01 4.35050E+01 0.00000E+00
 -1      2280 2.94000E+01 4.35050E+01 0.00000E+00
 -1      2281 2.71500E+01 4.22060E+01 0.00000E+00
 -1      2282 3.09000E+01 4.35050E+01 0.00000E+00
 -1      2283 3.24000E+01 4.35050E+01 0.00000E+00
 -1      2284 3.01500E+01 4.22060E+01 0.00000E+00
 -1      2285 3.39000E+01 4.35050E+01 0.00000E+00
 -1      2286 3.54000E+01 4.35050E+01 0.00000E+00
 -1      2287 3.31500E+01 4.22060E+01 0.00000E+00
 -1      2288 3.69000E+01 4.35050E+01 0.00000E+00
 -1      2289 3.84000E+01 4.35050E+01 0.00000E+00
 -1      2290 3.61500E+01 4.22060E+01 0.00000E+00
 -1      2291 3.99000E+01 4.35050E+01 0.00000E+00
 -1      2292 4.14000E+01 4.35050E+01 0.00000E+00
 -1      2293 3.91500E+01 4.22060E+01 0.00000E+00
 -1      2294 4.29000E+01 4.35050E+01 0.00000E+00
 -1      2295 4.44000E+01 4.35050E+01 0.00000E+00
 -1      2296 4.21500E+01 4.22060E+01 0.00000E+00
 -1      2297 4.59000E+01 4.35050E+01 0.00000E+00
 -1      2298 4.74000E+01 4.35050E+01 0.00000E+00
 -1      2299 4.51500E+01 4.22060E+01 0.00000E+00
 -1      2300 4.89000E+01 4.35050E+01 0.00000E+00
 -1      2301 5.04000E+01 4.35050E+01 0.00000E+00
 -1      2302 4.81500E+01 4.22060E+01 0.00000E+00
 -1      2303 5.19000E+01 4.35050E+01 0.00000E+00
 -1      2304 5.34000E+01 4.35050E+01 0.00000E+00
 -1      2305 5.11500E+01 4.22060E+01 0.00000E+00
 -1      2306 5.49000E+01 4.35050E+01 0.00000E+00
 -1      2307 5.64000E+01 4.35050E+01 0.00000E+00
 -1      2308 5.41500E+01 4.22060E+01 0.00000E+00
 -1      2309 5.79000E+01 4.35050E+01 0.00000E+00
 -1      2310 5.94000E+01 4.35050E+01 0.00000E+00
 -1      2311 5.71500E+01 4.22060E+01 0.00000E+00
 -1      2312 6.09000E+01 4.35050E+01 0.00000E+00
 -1      2313 6.24000E+01 4.35050E+01 0.00000E+00
 -1      2314 6.01500E+01 4.22060E+01 0.00000E+00
 -1      2315 6.39000E+01 4.35050E+01 0.00000E+00
 -1      2316 6.54000E+01 4.35050E+01 0.00000E+00
 -1      2317 6.31500E+01 4.22060E+01 0.00000E+00
 -1      2318 6.69000E+01 4.35050E+01 0.00000E+00
 -1      2319 6.84000E+01 4.35050E+01 0.00000E+00
 -1      2320 6.61500E+01 4.22060E+01 0.00000E+00
 -1      2321 6.99000E+01 4.35050E+01 0.00000E+00
 -1      2322 7.14000E+01 4.35050E+01 0.00000E+00
 -1      2323 6.91500E+01 4.22060E+01 0.00000E+00
 -1      2324 7.29000E+01 4.35050E+01 0.00000E+00
 -1      2325 7.44000E+01 4.35050E+01 0.00000E+00
 -1      2326 7.21500E+01 4.22060E+01 0.00000E+00
 -1      2327 7.59000E+01 4.35050E+01 0.00000E+00
 -1      2328 7.74000E+01 4.35050E+01 0.00000E+00
 -1      2329 7.51500E+01 4.22060E+01 0.00000E+00
 -1      2330 7.89000E+01 4.35050E+01 0.00000E+00
 -1      2331 8.04000E+01 4.35050E+01 0.00000E+00
 -1      2332 7.81500E+01 4.22060E+01 0.00000E+00
 -1      2333 8.19000E+01 4.35050E+01 0.00000E+00
 -1      2334 8.34000E+01 4.35050E+01 0.00000E+00
 -1      2335 8.11500E+01 4.22060E+01 0.00000E+00
 -1      2336 8.49000E+01 4.35050E+01 0.00000E+00
 -1      2337 8.64000E+01 4.35050E+01 0.00000E+00
 -1      2338 8.41500E+01 4.22060E+01 0.00000E+00
 -1      2339 8.79000E+01 4.35050E+01 0.00000E+00
 -1      2340 8.94000E+01 4.35050E+01 0.00000E+00
 -1      2341 8.71500E+01 4.22060E+01 0.00000E+00
 -1      2342 9.09000E+01 4.35050E+01 0.00000E+00
 -1      2343 9.24000E+01 4.35050E+01 0.00000E+00
 -1      2344 9.01500E+01 4.22060E+01 0.00000E+00
 -1      2345 9.39000E+01 4.35050E+01 0.00000E+00
 -1      2346 9.54000E+01 4.35050E+01 0.00000E+00
 -1      2347 9.31500E+01 4.22060E+01 0.00000E+00
 -1      2348 9.69000E+01 4.35050E+01 0.00000E+00
 -1      2349 9.84000E+01 4.35050E+01 0.00000E+00
 -1      2350 9.61500E+01 4.22060E+01 0.00000E+00
 -1      2351 9.99000E+01 4.35050E+01 0.00000E+00
 -1      2352 1.01400E+02 4.35050E+01 0.00000E+00
 -1      2353 9.91500E+01 4.22060E+01 0.00000E+00
 -1      2354 1.02900E+02 4.35050E+01 0.00000E+00
 -1      2355 1.04400E+02 4.35050E+01 0.00000E+00
 -1      2356 1.02150E+02 4.22060E+01 0.00000E+00
 -1      2357 1.05900E+02 4.35050E+01 0.00000E+00
 -1      2358 1.07400E+02 4.35050E+01 0.00000E+00
 -1      2359 1.05150E+02 4.22060E+01 0.00000E+00
 -1      2360 1.08900E+02 4.35050E+01 0.00000E+00
 -1      2361 1.10400E+02 4.35050E+01 0.00000E+00
 -1      2362 1.08150E+02 4.22060E+01 0.00000E+00
 -1      2363 1.11900E+02 4.35050E+01 0.00000E+00
 -1      2364 1.13400E+02 4.35050E+01 0.00000E+00
 -1      2365 1.11150E+02 4.22060E+01 0.00000E+00
 -1      2366 1.14900E+02 4.35050E+01 0.00000E+00
 -1      2367 1.16400E+02 4.35050E+01 0.00000E+00
 -1      2368 1.14150E+02 4.22060E+01 0.00000E+00
 -1      2369 1.17900E+02 4.35050E+01 0.00000E+00
 -1      2370 1.19400E+02 4.35050E+01 0.00000E+00
 -1      2371 1.17150E+02 4.22060E+01 0.00000E+00
 -1      2372 1.20900E+02 4.35050E+01 0.00000E+00
 -1      2373 1.22400E+02 4.35050E+01 0.00000E+00
 -1      2374 1.20150E+02 4.22060E+01 0.00000E+00
 -1      2375 1.23900E+02 4.35050E+01 0.00000E+00
 -1      2376 1.25400E+02 4.35050E+01 0.00000E+00
 -1      2377 1.23150E+02 4.22060E+01 0.00000E+00
 -1      2378 1.26900E+02 4.35050E+01 0.00000E+00
 -1      2379 1.28400E+02 4.35050E+01 0.00000E+00
 -1      2380 1.26150E+02 4.22060E+01 0.00000E+00
 -1      2381 1.29900E+02 4.35050E+01 0.00000E+00
 -1      2382 1.31400E+02 4.35050E+01 0.00000E+00
 -1      2383 1.29150E+02 4.22060E+01 0.00000E+00
 -1      2384 1.32900E+02 4.35050E+01 0.00000E+00
 -1      2385 1.34400E+02 4.35050E+01 0.00000E+00
 -1      2386 1.32150E+02 4.22060E+01 0.00000E+00
 -1      2387 1.35900E+02 4.35050E+01 0.00000E+00
 -1      2388 1.37400E+02 4.35050E+01 0.00000E+00
 -1      2389 1.35150E+02 4.22060E+01 0.00000E+00
 -1      2390 1.38900E+02 4.35050E+01 0.00000E+00
 -1      2391 1.40400E+02 4.35050E+01 0.00000E+00
 -1      2392 1.38150E+02 4.22060E+01 0.00000E+00
 -1      2393 5.70001E+01 2.12969E+01 0.00000E+00
 -1      2394 5.73653E+01 2.21565E+01 0.00000E+00
 -1      2395 1.97850E+01 5.30525E+00 0.00000E+00
 -1      2396 1.82850E+01 5.30525E+00 0.00000E+00
 -1      2397 2.27850E+01 5.30525E+00 0.00000E+00
 -1      2398 2.12850E+01 5.30525E+00 0.00000E+00
 -1      2399 2.05350E+01 6.60425E+00 0.00000E+00
 -1      2400 2.57850E+01 5.30525E+00 0.00000E+00
 -1      2401 2.42850E+01 5.30525E+00 0.00000E+00
 -1      2402 2.35350E+01 6.60425E+00 0.00000E+00
 -1      2403 2.87850E+01 5.30525E+00 0.00000E+00
 -1      2404 2.72850E+01 5.30525E+00 0.00000E+00
 -1      2405 2.65350E+01 6.60425E+00 0.00000E+00
 -1      2406 3.17850E+01 5.30525E+00 0.00000E+00
 -1      2407 3.02850E+01 5.30525E+00 0.00000E+00
 -1      2408 2.95350E+01 6.60425E+00 0.00000E+00
 -1      2409 3.47850E+01 5.30525E+00 0.00000E+00
 -1      2410 3.32850E+01 5.30525E+00 0.00000E+00
 -1      2411 3.25350E+01 6.60425E+00 0.00000E+00
 -1      2412 3.77850E+01 5.30525E+00 0.00000E+00
 -1      2413 3.62850E+01 5.30525E+00 0.00000E+00
 -1      2414 3.55350E+01 6.60425E+00 0.00000E+00
 -1      2415 4.07850E+01 5.30525E+00 0.00000E+00
 -1      2416 3.92850E+01 5.30525E+00 0.00000E+00
 -1      2417 3.85350E+01 6.60425E+00 0.00000E+00
 -1      2418 4.37850E+01 5.30525E+00 0.00000E+00
 -1      2419 4.22850E+01 5.30525E+00 0.00000E+00
 -1      2420 4.15350E+01 6.60425E+00 0.00000E+00
 -1      2421 4.67850E+01 5.30525E+00 0.00000E+00
 -1      2422 4.52850E+01 5.30525E+00 0.00000E+00
 -1      2423 4.45350E+01 6.60425E+00 0.00000E+00
 -1      2424 4.97850E+01 5.30525E+00 0.00000E+00
 -1      2425 4.82850E+01 5.30525E+00 0.00000E+00
 -1      2426 4.75350E+01 6.60425E+00 0.00000E+00
 -1      2427 5.27850E+01 5.30525E+00 0.00000E+00
 -1      2428 5.12850E+01 5.30525E+00 0.00000E+00
 -1      2429 5.05350E+01 6.60425E+00 0.00000E+00
 -1      2430 5.57850E+01 5.30525E+00 0.00000E+00
 -1      2431 5.42850E+01 5.30525E+00 0.00000E+00
 -1      2432 5.35350E+01 6.60425E+00 0.00000E+00
 -1      2433 5.87850E+01 5.30525E+00 0.00000E+00
 -1      2434 5.72850E+01 5.30525E+00 0.00000E+00
 -1      2435 5.65350E+01 6.60425E+00 0.00000E+00
 -1      2436 6.17850E+01 5.30525E+00 0.00000E+00
 -1      2437 6.02850E+01 5.30525E+00 0.00000E+00
 -1      2438 5.95350E+01 6.60425E+00 0.00000E+00
 -1      2439 6.47850E+01 5.30525E+00 0.00000E+00
 -1      2440 6.32850E+01 5.30525E+00 0.00000E+00
 -1      2441 6.25350E+01 6.60425E+00 0.00000E+00
 -1      2442 6.77850E+01 5.30525E+00 0.00000E+00
 -1      2443 6.62850E+01 5.30525E+00 0.00000E+00
 -1      2444 6.55350E+01 6.60425E+00 0.00000E+00
 -1      2445 7.07850E+01 5.30525E+00 0.00000E+00
 -1      2446 6.92850E+01 5.30525E+00 0.00000E+00
 -1      2447 6.85350E+01 6.60425E+00 0.00000E+00
 -1      2448 7.37850E+01 5.30525E+00 0.00000E+00
 -1      2449 7.22850E+01 5.30525E+00 0.00000E+00
 -1      2450 7.15350E+01 6.60425E+00 0.00000E+00
 -1      2451 7.67850E+01 5.30525E+00 0.00000E+00
 -1      2452 7.52850E+01 5.30525E+00 0.00000E+00
 -1      2453 7.45350E+01 6.60425E+00 0.00000E+00
 -1      2454 7.97850E+01 5.30525E+00 0.00000E+00
 -1      2455 7.82850E+01 5.30525E+00 0.00000E+00
 -1      2456 7.75350E+01 6.60425E+00 0.00000E+00
 -1      2457 8.27850E+01 5.30525E+00 0.00000E+00
 -1      2458 8.12850E+01 5.30525E+00 0.00000E+00
 -1      2459 8.05350E+01 6.60425E+00 0.00000E+00
 -1      2460 8.57850E+01 5.30525E+00 0.00000E+00
 -1      2461 8.42850E+01 5.30525E+00 0.00000E+00
 -1      2462 8.35350E+01 6.60425E+00 0.00000E+00
 -1      2463 8.87850E+01 5.30525E+00 0.00000E+00
 -1      2464 8.72850E+01 5.30525E+00 0.00000E+00
 -1      2465 8.65350E+01 6.60425E+00 0.00000E+00
 -1      2466 9.17850E+01 5.30525E+00 0.00000E+00
 -1      2467 9.02850E+01 5.30525E+00 0.00000E+00
 -1      2468 8.95350E+01 6.60425E+00 0.00000E+00
 -1      2469 9.47850E+01 5.30525E+00 0.00000E+00
 -1      2470 9.32850E+01 5.30525E+00 0.00000E+00
 -1      2471 9.25350E+01 6.60425E+00 0.00000E+00
 -1      2472 9.77850E+01 5.30525E+00 0.00000E+00
 -1      2473 9.62850E+01 5.30525E+00 0.00000E+00
 -1      2474 9.55350E+01 6.60425E+00 0.00000E+00
 -1      2475 1.00785E+02 5.30525E+00 0.00000E+00
 -1      2476 9.92850E+01 5.30525E+00 0.00000E+00
 -1      2477 9.85350E+01 6.60425E+00 0.00000E+00
 -1      2478 1.03785E+02 5.30525E+00 0.00000E+00
 -1      2479 1.02285E+02 5.30525E+00 0.00000E+00
 -1      2480 1.01535E+02 6.60425E+00 0.00000E+00
 -1      2481 1.06785E+02 5.30525E+00 0.00000E+00
 -1      2482 1.05285E+02 5.30525E+00 0.00000E+00
 -1      2483 1.04535E+02 6.60425E+00 0.00000E+00
 -1      2484 1.09785E+02 5.30525E+00 0.00000E+00
 -1      2485 1.08285E+02 5.30525E+00 0.00000E+00
 -1      2486 1.07535E+02 6.60425E+00 0.00000E+00
 -1      2487 1.12785E+02 5.30525E+00 0.00000E+00
 -1      2488 1.11285E+02 5.30525E+00 0.00000E+00
 -1      2489 1.10535E+02 6.60425E+00 0.00000E+00
 -1      2490 1.15785E+02 5.30525E+00 0.00000E+00
 -1      2491 1.14285E+02 5.30525E+00 0.00000E+00
 -1      2492 1.13535E+02 6.60425E+00 0.00000E+00
 -1      2493 1.18785E+02 5.30525E+00 0.00000E+00
 -1      2494 1.17285E+02 5.30525E+00 0.00000E+00
 -1      2495 1.16535E+02 6.60425E+00 0.00000E+00
 -1      2496 1.21785E+02 5.30525E+00 0.00000E+00
 -1      2497 1.20285E+02 5.30525E+00 0.00000E+00
 -1      2498 1.19535E+02 6.60425E+00 0.00000E+00
 -1      2499 1.24785E+02 5.30525E+00 0.00000E+00
 -1      2500 1.23285E+02 5.30525E+00 0.00000E+00
 -1      2501 1.22535E+02 6.60425E+00 0.00000E+00
 -1      2502 1.27785E+02 5.30525E+00 0.00000E+00
 -1      2503 1.26285E+02 5.30525E+00 0.00000E+00
 -1      2504 1.25535E+02 6.60425E+00 0.00000E+00
 -1      2505 1.30785E+02 5.30525E+00 0.00000E+00
 -1      2506 1.29285E+02 5.30525E+00 0.00000E+00
 -1      2507 1.28535E+02 6.60425E+00 0.00000E+00
 -1      2508 1.33785E+02 5.30525E+00 0.00000E+00
 -1      2509 1.32285E+02 5.30525E+00 0.00000E+00
 -1      2510 1.31535E+02 6.60425E+00 0.00000E+00
 -1      2511 1.36785E+02 5.30525E+00 0.00000E+00
 -1      2512 1.35285E+02 5.30525E+00 0.00000E+00
 -1      2513 1.34535E+02 6.60425E+00 0.00000E+00
 -1      2514 1.39785E+02 5.30525E+00 0.00000E+00
 -1      2515 1.38285E+02 5.30525E+00 0.00000E+00
 -1      2516 1.37535E+02 6.60425E+00 0.00000E+00
 -1      2517 1.42785E+02 5.30525E+00 0.00000E+00
 -1      2518 1.41285E+02 5.30525E+00 0.00000E+00
 -1      2519 1.40535E+02 6.60425E+00 0.00000E+00
 -1      2520 1.44336E+02 5.26953E+00 0.00000E+00
 -1      2521 1.43505E+02 1.69125E+01 0.00000E+00
 -1      2522 1.43505E+02 1.54375E+01 0.00000E+00
 -1      2523 1.43505E+02 1.98625E+01 0.00000E+00
 -1      2524 1.43505E+02 1.83875E+01 0.00000E+00
 -1      2525 1.42206E+02 1.76500E+01 0.00000E+00
 -1      2526 1.43505E+02 1.10625E+01 0.00000E+00
 -1      2527 1.43505E+02 9.58750E+00 0.00000E+00
 -1      2528 1.43505E+02 1.39750E+01 0.00000E+00
 -1      2529 1.43505E+02 1.25250E+01 0.00000E+00
 -1      2530 1.42206E+02 1.17875E+01 0.00000E+00
 -1      2531 1.42206E+02 1.47125E+01 0.00000E+00
 -1      2532 1.43505E+02 2.28125E+01 0.00000E+00
 -1      2533 1.43505E+02 2.13375E+01 0.00000E+00
 -1      2534 1.42206E+02 2.06000E+01 0.00000E+00
 -1      2535 1.43505E+02 2.57625E+01 0.00000E+00
 -1      2536 1.43505E+02 2.42875E+01 0.00000E+00
 -1      2537 1.42206E+02 2.35500E+01 0.00000E+00
 -1      2538 1.43505E+02 2.87125E+01 0.00000E+00
 -1      2539 1.43505E+02 2.72375E+01 0.00000E+00
 -1      2540 1.42206E+02 2.65000E+01 0.00000E+00
 -1      2541 1.43505E+02 3.16125E+01 0.00000E+00
 -1      2542 1.43505E+02 3.01625E+01 0.00000E+00
 -1      2543 1.42206E+02 2.94250E+01 0.00000E+00
 -1      2544 1.43505E+02 3.45625E+01 0.00000E+00
 -1      2545 1.43505E+02 3.30875E+01 0.00000E+00
 -1      2546 1.42206E+02 3.23500E+01 0.00000E+00
 -1      2547 1.43505E+02 3.75125E+01 0.00000E+00
 -1      2548 1.43505E+02 3.60375E+01 0.00000E+00
 -1      2549 1.42206E+02 3.53000E+01 0.00000E+00
 -1      2550 1.43505E+02 4.04625E+01 0.00000E+00
 -1      2551 1.43505E+02 3.89875E+01 0.00000E+00
 -1      2552 1.42206E+02 3.82500E+01 0.00000E+00
 -1      2553 1.44321E+02 4.30606E+01 0.00000E+00
 -1      2554 5.77825E+01 2.58409E+01 0.00000E+00
 -1      2555 5.77552E+01 2.67624E+01 0.00000E+00
 -1      2556 1.67850E+01 5.30525E+00 0.00000E+00
 -1      2557 1.52850E+01 5.30525E+00 0.00000E+00
 -1      2558 1.75350E+01 6.60425E+00 0.00000E+00
 -1      2559 5.59601E+01 1.93775E+01 0.00000E+00
 -1      2560 5.65200E+01 2.02873E+01 0.00000E+00
 -1      2561 5.75165E+01 2.80577E+01 0.00000E+00
 -1      2562 5.70564E+01 2.90530E+01 0.00000E+00
 -1      2563 6.55950E+00 4.28890E+01 0.00000E+00
 -1      2564 8.53650E+00 4.32410E+01 0.00000E+00
 -1      2565 9.28650E+00 4.19420E+01 0.00000E+00
 -1      2566 6.55950E+00 4.14140E+01 0.00000E+00
 -1      2567 5.45022E+01 1.76722E+01 0.00000E+00
 -1      2568 5.52252E+01 1.83832E+01 0.00000E+00
 -1      2569 3.72947E+01 2.77129E+01 0.00000E+00
 -1      2570 3.72788E+01 2.67317E+01 0.00000E+00
 -1      2571 6.49500E+00 2.71625E+01 0.00000E+00
 -1      2572 6.49500E+00 2.86375E+01 0.00000E+00
 -1      2573 7.79400E+00 2.93750E+01 0.00000E+00
 -1      2574 7.79400E+00 2.64250E+01 0.00000E+00
 -1      2575 4.01368E+01 1.76634E+01 0.00000E+00
 -1      2576 4.08923E+01 1.70243E+01 0.00000E+00
 -1      2577 4.87036E+01 1.48457E+01 0.00000E+00
 -1      2578 4.96131E+01 1.50467E+01 0.00000E+00
 -1      2579 4.39584E+01 1.54337E+01 0.00000E+00
 -1      2580 4.47903E+01 1.51275E+01 0.00000E+00
 -1      2581 4.19518E+01 1.63830E+01 0.00000E+00
 -1      2582 4.29583E+01 1.58757E+01 0.00000E+00
 -1      2583 3.87814E+01 1.95184E+01 0.00000E+00
 -1      2584 3.92872E+01 1.86276E+01 0.00000E+00
 -1      2585 3.76759E+01 2.11354E+01 0.00000E+00
 -1      2586 3.82286E+01 2.03269E+01 0.00000E+00
 -1      2587 3.77359E+01 1.94580E+01 0.00000E+00
 -1      2588 3.71680E+01 2.36709E+01 0.00000E+00
 -1      2589 3.72945E+01 2.25013E+01 0.00000E+00
 -1      2590 3.71934E+01 2.57894E+01 0.00000E+00
 -1      2591 3.71080E+01 2.48472E+01 0.00000E+00
 -1      2592 3.63858E+01 2.62932E+01 0.00000E+00
 -1      2593 3.78136E+01 2.98652E+01 0.00000E+00
 -1      2594 3.74401E+01 2.89966E+01 0.00000E+00
 -1      2595 4.75146E+01 3.55611E+01 0.00000E+00
 -1      2596 4.65243E+01 3.55624E+01 0.00000E+00
 -1      2597 4.32769E+01 3.46743E+01 0.00000E+00
 -1      2598 4.24540E+01 3.43625E+01 0.00000E+00
 -1      2599 4.53128E+01 3.54354E+01 0.00000E+00
 -1      2600 4.42949E+01 3.50548E+01 0.00000E+00
 -1      2601 4.35796E+01 3.57009E+01 0.00000E+00
 -1      2602 4.98699E+01 3.54431E+01 0.00000E+00
 -1      2603 4.86921E+01 3.55737E+01 0.00000E+00
 -1      2604 5.20741E+01 3.46670E+01 0.00000E+00
 -1      2605 5.11781E+01 3.50897E+01 0.00000E+00
 -1      2606 5.38287E+01 3.32938E+01 0.00000E+00
 -1      2607 5.30439E+01 3.39477E+01 0.00000E+00
 -1      2608 5.53139E+01 3.17954E+01 0.00000E+00
 -1      2609 5.46338E+01 3.25304E+01 0.00000E+00
 -1      2610 5.64820E+01 2.99978E+01 0.00000E+00
 -1      2611 5.60010E+01 3.08536E+01 0.00000E+00
 -1      2612 8.07525E+00 5.11044E+00 0.00000E+00
 -1      2613 6.57525E+00 5.11044E+00 0.00000E+00
 -1      2614 6.40575E+00 6.01981E+00 0.00000E+00
 -1      2615 8.82525E+00 6.40944E+00 0.00000E+00
 -1      2616 5.28645E+01 1.62882E+01 0.00000E+00
 -1      2617 5.36833E+01 1.69802E+01 0.00000E+00
 -1      2618 5.46462E+01 1.67243E+01 0.00000E+00
 -1      2619 4.10473E+01 1.60797E+01 0.00000E+00
 -1      2620 7.79400E+00 3.52687E+01 0.00000E+00
 -1      2621 6.49500E+00 3.60062E+01 0.00000E+00
 -1      2622 6.49500E+00 3.74750E+01 0.00000E+00
 -1      2623 1.45350E+01 6.60425E+00 0.00000E+00
 -1      2624 6.40575E+00 7.49481E+00 0.00000E+00
 -1      2625 5.26445E+01 1.53064E+01 0.00000E+00
 -1      2626 5.74904E+01 2.98600E+01 0.00000E+00
 -1      2627 5.62289E+01 3.17466E+01 0.00000E+00
 -1      2628 5.47367E+01 3.34518E+01 0.00000E+00
 -1      2629 5.79275E+01 2.27258E+01 0.00000E+00
 -1      2630 5.84898E+01 2.32951E+01 0.00000E+00
 -1      2631 5.84571E+01 2.19934E+01 0.00000E+00
 -1      2632 5.83036E+01 2.76199E+01 0.00000E+00
 -1      2633 5.74148E+01 2.04145E+01 0.00000E+00
 -1      2634 1.43586E+02 6.56853E+00 0.00000E+00
 -1      2635 1.43419E+02 7.72713E+00 0.00000E+00
 -1      2636 5.29618E+01 3.49346E+01 0.00000E+00
 -1      2637 1.42758E+02 4.35929E+01 0.00000E+00
 -1      2638 1.43241E+02 4.17323E+01 0.00000E+00
 -1      2639 1.41942E+02 4.09948E+01 0.00000E+00
 -1      2640 1.41414E+02 4.35342E+01 0.00000E+00
 -1      2641 4.58090E+01 3.62085E+01 0.00000E+00
 -1      2642 4.81980E+01 3.63481E+01 0.00000E+00
 -1      2643 5.82512E+01 2.51760E+01 0.00000E+00
 -1      2644 7.70475E+00 8.23231E+00 0.00000E+00
 -1      2645 5.61998E+01 1.84106E+01 0.00000E+00
 -1      2646 3.66166E+01 2.85191E+01 0.00000E+00
 -1      2647 3.68017E+01 2.16325E+01 0.00000E+00
 -1      2648 4.31069E+01 1.49964E+01 0.00000E+00
 -1      2649 6.55950E+00 3.99453E+01 0.00000E+00
 -1      2650 3.95438E+01 3.26736E+01 0.00000E+00
 -1      2651 3.86440E+01 3.24747E+01 0.00000E+00
 -1      2652 3.97001E+01 3.34917E+01 0.00000E+00
 -1      2653 3.76248E+01 3.07297E+01 0.00000E+00
 -1      2654 5.03890E+01 1.44060E+01 0.00000E+00
 -1      2655 4.53990E+01 1.44866E+01 0.00000E+00
 -1      2656 4.60078E+01 1.38457E+01 0.00000E+00
 -1      2657 4.47157E+01 1.39136E+01 0.00000E+00
 -1      2658 4.80037E+01 1.43251E+01 0.00000E+00
 -1      2659 4.86163E+01 1.37110E+01 0.00000E+00
 -1      2660 4.73037E+01 1.38045E+01 0.00000E+00
 -1      2661 4.15808E+01 3.45054E+01 0.00000E+00
 -1      2662 3.91382E+01 1.76853E+01 0.00000E+00
 -1      2663 3.63603E+01 2.41747E+01 0.00000E+00
 -1      2664 5.06838E+01 3.60073E+01 0.00000E+00
 -1      2665 1.42120E+02 8.46463E+00 0.00000E+00
 -1      2666 1.40664E+02 4.22352E+01 0.00000E+00
 -1      2667 9.09300E+00 1.98250E+01 0.00000E+00
 -1      2668 9.09300E+00 2.12750E+01 0.00000E+00
 -1      2669 9.09300E+00 2.27500E+01 0.00000E+00
 -1      2670 9.09300E+00 2.42250E+01 0.00000E+00
 -1      2671 1.03920E+01 2.20250E+01 0.00000E+00
 -1      2672 9.09300E+00 1.39375E+01 0.00000E+00
 -1      2673 9.09300E+00 1.54125E+01 0.00000E+00
 -1      2674 9.09300E+00 1.09875E+01 0.00000E+00
 -1      2675 9.09300E+00 1.24625E+01 0.00000E+00
 -1      2676 1.03920E+01 1.32000E+01 0.00000E+00
 -1      2677 1.22850E+01 7.90325E+00 0.00000E+00
 -1      2678 1.07850E+01 7.90325E+00 0.00000E+00
 -1      2679 5.66568E+01 1.73041E+01 0.00000E+00
 -1      2680 5.73917E+01 1.82984E+01 0.00000E+00
 -1      2681 1.52850E+01 7.90325E+00 0.00000E+00
 -1      2682 1.37850E+01 7.90325E+00 0.00000E+00
 -1      2683 1.30350E+01 9.20225E+00 0.00000E+00
 -1      2684 4.00301E+01 1.55951E+01 0.00000E+00
 -1      2685 4.10896E+01 1.49538E+01 0.00000E+00
 -1      2686 5.85104E+01 2.98331E+01 0.00000E+00
 -1      2687 5.79360E+01 3.07779E+01 0.00000E+00
 -1      2688 1.44000E+01 4.09070E+01 0.00000E+00
 -1      2689 1.59000E+01 4.09070E+01 0.00000E+00
 -1      2690 1.74000E+01 4.09070E+01 0.00000E+00
 -1      2691 1.89000E+01 4.09070E+01 0.00000E+00
 -1      2692 1.66500E+01 3.96080E+01 0.00000E+00
 -1      2693 2.04000E+01 4.09070E+01 0.00000E+00
 -1      2694 2.19000E+01 4.09070E+01 0.00000E+00
 -1      2695 1.96500E+01 3.96080E+01 0.00000E+00
 -1      2696 2.34000E+01 4.09070E+01 0.00000E+00
 -1      2697 2.49000E+01 4.09070E+01 0.00000E+00
 -1      2698 2.26500E+01 3.96080E+01 0.00000E+00
 -1      2699 2.64000E+01 4.09070E+01 0.00000E+00
 -1      2700 2.79000E+01 4.09070E+01 0.00000E+00
 -1      2701 2.56500E+01 3.96080E+01 0.00000E+00
 -1      2702 2.94000E+01 4.09070E+01 0.00000E+00
 -1      2703 3.09000E+01 4.09070E+01 0.00000E+00
 -1      2704 2.86500E+01 3.96080E+01 0.00000E+00
 -1      2705 3.24000E+01 4.09070E+01 0.00000E+00
 -1      2706 3.39000E+01 4.09070E+01 0.00000E+00
 -1      2707 3.16500E+01 3.96080E+01 0.00000E+00
 -1      2708 3.54000E+01 4.09070E+01 0.00000E+00
 -1      2709 3.69000E+01 4.09070E+01 0.00000E+00
 -1      2710 3.46500E+01 3.96080E+01 0.00000E+00
 -1      2711 3.84000E+01 4.09070E+01 0.00000E+00
 -1      2712 3.99000E+01 4.09070E+01 0.00000E+00
 -1      2713 3.76500E+01 3.96080E+01 0.00000E+00
 -1      2714 4.14000E+01 4.09070E+01 0.00000E+00
 -1      2715 4.29000E+01 4.09070E+01 0.00000E+00
 -1      2716 4.06500E+01 3.96080E+01 0.00000E+00
 -1      2717 4.44000E+01 4.09070E+01 0.00000E+00
 -1      2718 4.59000E+01 4.09070E+01 0.00000E+00
 -1      2719 4.36500E+01 3.96080E+01 0.00000E+00
 -1      2720 4.74000E+01 4.09070E+01 0.00000E+00
 -1      2721 4.89000E+01 4.09070E+01 0.00000E+00
 -1      2722 4.66500E+01 3.96080E+01 0.00000E+00
 -1      2723 5.04000E+01 4.09070E+01 0.00000E+00
 -1      2724 5.19000E+01 4.09070E+01 0.00000E+00
 -1      2725 4.96500E+01 3.96080E+01 0.00000E+00
 -1      2726 5.34000E+01 4.09070E+01 0.00000E+00
 -1      2727 5.49000E+01 4.09070E+01 0.00000E+00
 -1      2728 5.26500E+01 3.96080E+01 0.00000E+00
 -1      2729 5.64000E+01 4.09070E+01 0.00000E+00
 -1      2730 5.79000E+01 4.09070E+01 0.00000E+00
 -1      2731 5.56500E+01 3.96080E+01 0.00000E+00
 -1      2732 5.94000E+01 4.09070E+01 0.00000E+00
 -1      2733 6.09000E+01 4.09070E+01 0.00000E+00
 -1      2734 5.86500E+01 3.96080E+01 0.00000E+00
 -1      2735 6.24000E+01 4.09070E+01 0.00000E+00
 -1      2736 6.39000E+01 4.09070E+01 0.00000E+00
 -1      2737 6.16500E+01 3.96080E+01 0.00000E+00
 -1      2738 6.54000E+01 4.09070E+01 0.00000E+00
 -1      2739 6.69000E+01 4.09070E+01 0.00000E+00
 -1      2740 6.46500E+01 3.96080E+01 0.00000E+00
 -1      2741 6.84000E+01 4.09070E+01 0.00000E+00
 -1      2742 6.99000E+01 4.09070E+01 0.00000E+00
 -1      2743 6.76500E+01 3.96080E+01 0.00000E+00
 -1      2744 7.14000E+01 4.09070E+01 0.00000E+00
 -1      2745 7.29000E+01 4.09070E+01 0.00000E+00
 -1      2746 7.06500E+01 3.96080E+01 0.00000E+00
 -1      2747 7.44000E+01 4.09070E+01 0.00000E+00
 -1      2748 7.59000E+01 4.09070E+01 0.00000E+00
 -1      2749 7.36500E+01 3.96080E+01 0.00000E+00
 -1      2750 7.74000E+01 4.09070E+01 0.00000E+00
 -1      2751 7.89000E+01 4.09070E+01 0.00000E+00
 -1      2752 7.66500E+01 3.96080E+01 0.00000E+00
 -1      2753 8.04000E+01 4.09070E+01 0.00000E+00
 -1      2754 8.19000E+01 4.09070E+01 0.00000E+00
 -1      2755 7.96500E+01 3.96080E+01 0.00000E+00
 -1      2756 8.34000E+01 4.09070E+01 0.00000E+00
 -1      2757 8.49000E+01 4.09070E+01 0.00000E+00
 -1      2758 8.26500E+01 3.96080E+01 0.00000E+00
 -1      2759 8.64000E+01 4.09070E+01 0.00000E+00
 -1      2760 8.79000E+01 4.09070E+01 0.00000E+00
 -1      2761 8.56500E+01 3.96080E+01 0.00000E+00
 -1      2762 8.94000E+01 4.09070E+01 0.00000E+00
 -1      2763 9.09000E+01 4.09070E+01 0.00000E+00
 -1      2764 8.86500E+01 3.96080E+01 0.00000E+00
 -1      2765 9.24000E+01 4.09070E+01 0.00000E+00
 -1      2766 9.39000E+01 4.09070E+01 0.00000E+00
 -1      2767 9.16500E+01 3.96080E+01 0.00000E+00
 -1      2768 9.54000E+01 4.09070E+01 0.00000E+00
 -1      2769 9.69000E+01 4.09070E+01 0.00000E+00
 -1      2770 9.46500E+01 3.96080E+01 0.00000E+00
 -1      2771 9.84000E+01 4.09070E+01 0.00000E+00
 -1      2772 9.99000E+01 4.09070E+01 0.00000E+00
 -1      2773 9.76500E+01 3.96080E+01 0.00000E+00
 -1      2774 1.01400E+02 4.09070E+01 0.00000E+00
 -1      2775 1.02900E+02 4.09070E+01 0.00000E+00
 -1      2776 1.00650E+02 3.96080E+01 0.00000E+00
 -1      2777 1.04400E+02 4.09070E+01 0.00000E+00
 -1      2778 1.05900E+02 4.09070E+01 0.00000E+00
 -1      2779 1.03650E+02 3.96080E+01 0.00000E+00
 -1      2780 1.07400E+02 4.09070E+01 0.00000E+00
 -1      2781 1.08900E+02 4.09070E+01 0.00000E+00
 -1      2782 1.06650E+02 3.96080E+01 0.00000E+00
 -1      2783 1.10400E+02 4.09070E+01 0.00000E+00
 -1      2784 1.11900E+02 4.09070E+01 0.00000E+00
 -1      2785 1.09650E+02 3.96080E+01 0.00000E+00
 -1      2786 1.13400E+02 4.09070E+01 0.00000E+00
 -1      2787 1.14900E+02 4.09070E+01 0.00000E+00
 -1      2788 1.12650E+02 3.96080E+01 0.00000E+00
 -1      2789 1.16400E+02 4.09070E+01 0.00000E+00
 -1      2790 1.17900E+02 4.09070E+01 0.00000E+00
 -1      2791 1.15650E+02 3.96080E+01 0.00000E+00
 -1      2792 1.19400E+02 4.09070E+01 0.00000E+00
 -1      2793 1.20900E+02 4.09070E+01 0.00000E+00
 -1      2794 1.18650E+02 3.96080E+01 0.00000E+00
 -1      2795 1.22400E+02 4.09070E+01 0.00000E+00
 -1      2796 1.23900E+02 4.09070E+01 0.00000E+00
 -1      2797 1.21650E+02 3.96080E+01 0.00000E+00
 -1      2798 1.25400E+02 4.09070E+01 0.00000E+00
 -1      2799 1.26900E+02 4.09070E+01 0.00000E+00
 -1      2800 1.24650E+02 3.96080E+01 0.00000E+00
 -1      2801 1.28400E+02 4.09070E+01 0.00000E+00
 -1      2802 1.29900E+02 4.09070E+01 0.00000E+00
 -1      2803 1.27650E+02 3.96080E+01 0.00000E+00
 -1      2804 1.31400E+02 4.09070E+01 0.00000E+00
 -1      2805 1.32900E+02 4.09070E+01 0.00000E+00
 -1      2806 1.30650E+02 3.96080E+01 0.00000E+00
 -1      2807 1.34400E+02 4.09070E+01 0.00000E+00
 -1      2808 1.35900E+02 4.09070E+01 0.00000E+00
 -1      2809 1.33650E+02 3.96080E+01 0.00000E+00
 -1      2810 1.37400E+02 4.09070E+01 0.00000E+00
 -1      2811 1.38900E+02 4.09070E+01 0.00000E+00
 -1      2812 1.36650E+02 3.96080E+01 0.00000E+00
 -1      2813 4.63253E+01 3.71249E+01 0.00000E+00
 -1      2814 4.51138E+01 3.69978E+01 0.00000E+00
 -1      2815 5.39576E+01 3.52637E+01 0.00000E+00
 -1      2816 5.29878E+01 3.59830E+01 0.00000E+00
 -1      2817 2.12850E+01 7.90325E+00 0.00000E+00
 -1      2818 1.97850E+01 7.90325E+00 0.00000E+00
 -1      2819 3.02850E+01 7.90325E+00 0.00000E+00
 -1      2820 2.87850E+01 7.90325E+00 0.00000E+00
 -1      2821 3.32850E+01 7.90325E+00 0.00000E+00
 -1      2822 3.17850E+01 7.90325E+00 0.00000E+00
 -1      2823 3.10350E+01 9.20225E+00 0.00000E+00
 -1      2824 3.62850E+01 7.90325E+00 0.00000E+00
 -1      2825 3.47850E+01 7.90325E+00 0.00000E+00
 -1      2826 3.40350E+01 9.20225E+00 0.00000E+00
 -1      2827 3.92850E+01 7.90325E+00 0.00000E+00
 -1      2828 3.77850E+01 7.90325E+00 0.00000E+00
 -1      2829 3.70350E+01 9.20225E+00 0.00000E+00
 -1      2830 4.22850E+01 7.90325E+00 0.00000E+00
 -1      2831 4.07850E+01 7.90325E+00 0.00000E+00
 -1      2832 4.00350E+01 9.20225E+00 0.00000E+00
 -1      2833 4.52850E+01 7.90325E+00 0.00000E+00
 -1      2834 4.37850E+01 7.90325E+00 0.00000E+00
 -1      2835 4.30350E+01 9.20225E+00 0.00000E+00
 -1      2836 4.82850E+01 7.90325E+00 0.00000E+00
 -1      2837 4.67850E+01 7.90325E+00 0.00000E+00
 -1      2838 4.60350E+01 9.20225E+00 0.00000E+00
 -1      2839 5.12850E+01 7.90325E+00 0.00000E+00
 -1      2840 4.97850E+01 7.90325E+00 0.00000E+00
 -1      2841 4.90350E+01 9.20225E+00 0.00000E+00
 -1      2842 5.42850E+01 7.90325E+00 0.00000E+00
 -1      2843 5.27850E+01 7.90325E+00 0.00000E+00
 -1      2844 5.20350E+01 9.20225E+00 0.00000E+00
 -1      2845 5.72850E+01 7.90325E+00 0.00000E+00
 -1      2846 5.57850E+01 7.90325E+00 0.00000E+00
 -1      2847 5.50350E+01 9.20225E+00 0.00000E+00
 -1      2848 6.02850E+01 7.90325E+00 0.00000E+00
 -1      2849 5.87850E+01 7.90325E+00 0.00000E+00
 -1      2850 5.80350E+01 9.20225E+00 0.00000E+00
 -1      2851 6.32850E+01 7.90325E+00 0.00000E+00
 -1      2852 6.17850E+01 7.90325E+00 0.00000E+00
 -1      2853 6.10350E+01 9.20225E+00 0.00000E+00
 -1      2854 6.62850E+01 7.90325E+00 0.00000E+00
 -1      2855 6.47850E+01 7.90325E+00 0.00000E+00
 -1      2856 6.40350E+01 9.20225E+00 0.00000E+00
 -1      2857 6.92850E+01 7.90325E+00 0.00000E+00
 -1      2858 6.77850E+01 7.90325E+00 0.00000E+00
 -1      2859 6.70350E+01 9.20225E+00 0.00000E+00
 -1      2860 7.22850E+01 7.90325E+00 0.00000E+00
 -1      2861 7.07850E+01 7.90325E+00 0.00000E+00
 -1      2862 7.00350E+01 9.20225E+00 0.00000E+00
 -1      2863 7.52850E+01 7.90325E+00 0.00000E+00
 -1      2864 7.37850E+01 7.90325E+00 0.00000E+00
 -1      2865 7.30350E+01 9.20225E+00 0.00000E+00
 -1      2866 7.82850E+01 7.90325E+00 0.00000E+00
 -1      2867 7.67850E+01 7.90325E+00 0.00000E+00
 -1      2868 7.60350E+01 9.20225E+00 0.00000E+00
 -1      2869 8.12850E+01 7.90325E+00 0.00000E+00
 -1      2870 7.97850E+01 7.90325E+00 0.00000E+00
 -1      2871 7.90350E+01 9.20225E+00 0.00000E+00
 -1      2872 8.42850E+01 7.90325E+00 0.00000E+00
 -1      2873 8.27850E+01 7.90325E+00 0.00000E+00
 -1      2874 8.20350E+01 9.20225E+00 0.00000E+00
 -1      2875 8.72850E+01 7.90325E+00 0.00000E+00
 -1      2876 8.57850E+01 7.90325E+00 0.00000E+00
 -1      2877 8.50350E+01 9.20225E+00 0.00000E+00
 -1      2878 9.02850E+01 7.90325E+00 0.00000E+00
 -1      2879 8.87850E+01 7.90325E+00 0.00000E+00
 -1      2880 8.80350E+01 9.20225E+00 0.00000E+00
 -1      2881 9.32850E+01 7.90325E+00 0.00000E+00
 -1      2882 9.17850E+01 7.90325E+00 0.00000E+00
 -1      2883 9.10350E+01 9.20225E+00 0.00000E+00
 -1      2884 9.62850E+01 7.90325E+00 0.00000E+00
 -1      2885 9.47850E+01 7.90325E+00 0.00000E+00
 -1      2886 9.40350E+01 9.20225E+00 0.00000E+00
 -1      2887 9.92850E+01 7.90325E+00 0.00000E+00
 -1      2888 9.77850E+01 7.90325E+00 0.00000E+00
 -1      2889 9.70350E+01 9.20225E+00 0.00000E+00
 -1      2890 1.02285E+02 7.90325E+00 0.00000E+00
 -1      2891 1.00785E+02 7.90325E+00 0.00000E+00
 -1      2892 1.00035E+02 9.20225E+00 0.00000E+00
 -1      2893 1.05285E+02 7.90325E+00 0.00000E+00
 -1      2894 1.03785E+02 7.90325E+00 0.00000E+00
 -1      2895 1.03035E+02 9.20225E+00 0.00000E+00
 -1      2896 1.08285E+02 7.90325E+00 0.00000E+00
 -1      2897 1.06785E+02 7.90325E+00 0.00000E+00
 -1      2898 1.06035E+02 9.20225E+00 0.00000E+00
 -1      2899 1.11285E+02 7.90325E+00 0.00000E+00
 -1      2900 1.09785E+02 7.90325E+00 0.00000E+00
 -1      2901 1.09035E+02 9.20225E+00 0.00000E+00
 -1      2902 1.14285E+02 7.90325E+00 0.00000E+00
 -1      2903 1.12785E+02 7.90325E+00 0.00000E+00
 -1      2904 1.12035E+02 9.20225E+00 0.00000E+00
 -1      2905 1.17285E+02 7.90325E+00 0.00000E+00
 -1      2906 1.15785E+02 7.90325E+00 0.00000E+00
 -1      2907 1.15035E+02 9.20225E+00 0.00000E+00
 -1      2908 1.20285E+02 7.90325E+00 0.00000E+00
 -1      2909 1.18785E+02 7.90325E+00 0.00000E+00
 -1      2910 1.18035E+02 9.20225E+00 0.00000E+00
 -1      2911 1.23285E+02 7.90325E+00 0.00000E+00
 -1      2912 1.21785E+02 7.90325E+00 0.00000E+00
 -1      2913 1.21035E+02 9.20225E+00 0.00000E+00
 -1      2914 1.26285E+02 7.90325E+00 0.00000E+00
 -1      2915 1.24785E+02 7.90325E+00 0.00000E+00
 -1      2916 1.24035E+02 9.20225E+00 0.00000E+00
 -1      2917 1.29285E+02 7.90325E+00 0.00000E+00
 -1      2918 1.27785E+02 7.90325E+00 0.00000E+00
 -1      2919 1.27035E+02 9.20225E+00 0.00000E+00
 -1      2920 1.32285E+02 7.90325E+00 0.00000E+00
 -1      2921 1.30785E+02 7.90325E+00 0.00000E+00
 -1      2922 1.30035E+02 9.20225E+00 0.00000E+00
 -1      2923 1.35285E+02 7.90325E+00 0.00000E+00
 -1      2924 1.33785E+02 7.90325E+00 0.00000E+00
 -1      2925 1.33035E+02 9.20225E+00 0.00000E+00
 -1      2926 1.38285E+02 7.90325E+00 0.00000E+00
 -1      2927 1.36785E+02 7.90325E+00 0.00000E+00
 -1      2928 1.36035E+02 9.20225E+00 0.00000E+00
 -1      2929 1.40953E+02 8.18394E+00 0.00000E+00
 -1      2930 1.39453E+02 8.18394E+00 0.00000E+00
 -1      2931 1.38703E+02 9.48294E+00 0.00000E+00
 -1      2932 1.41038E+02 1.00443E+01 0.00000E+00
 -1      2933 1.40907E+02 2.42875E+01 0.00000E+00
 -1      2934 1.40907E+02 2.28125E+01 0.00000E+00
 -1      2935 1.39914E+02 4.09362E+01 0.00000E+00
 -1      2936 1.40928E+02 4.09655E+01 0.00000E+00
 -1      2937 1.39164E+02 3.96372E+01 0.00000E+00
 -1      2938 1.40907E+02 1.83875E+01 0.00000E+00
 -1      2939 1.40907E+02 1.69125E+01 0.00000E+00
 -1      2940 1.40907E+02 2.72375E+01 0.00000E+00
 -1      2941 1.40907E+02 2.57625E+01 0.00000E+00
 -1      2942 1.39608E+02 2.50250E+01 0.00000E+00
 -1      2943 1.40907E+02 2.13375E+01 0.00000E+00
 -1      2944 1.40907E+02 1.98625E+01 0.00000E+00
 -1      2945 1.39608E+02 1.91250E+01 0.00000E+00
 -1      2946 1.39608E+02 2.20750E+01 0.00000E+00
 -1      2947 5.80248E+01 1.95054E+01 0.00000E+00
 -1      2948 5.85049E+01 2.05151E+01 0.00000E+00
 -1      2949 1.40907E+02 3.01375E+01 0.00000E+00
 -1      2950 1.40907E+02 2.86875E+01 0.00000E+00
 -1      2951 1.39608E+02 2.79500E+01 0.00000E+00
 -1      2952 1.40907E+02 3.30875E+01 0.00000E+00
 -1      2953 1.40907E+02 3.16125E+01 0.00000E+00
 -1      2954 1.39608E+02 3.08750E+01 0.00000E+00
 -1      2955 1.40907E+02 3.60375E+01 0.00000E+00
 -1      2956 1.40907E+02 3.45625E+01 0.00000E+00
 -1      2957 1.39608E+02 3.38250E+01 0.00000E+00
 -1      2958 1.82850E+01 7.90325E+00 0.00000E+00
 -1      2959 1.67850E+01 7.90325E+00 0.00000E+00
 -1      2960 1.60350E+01 9.20225E+00 0.00000E+00
 -1      2961 1.90350E+01 9.20225E+00 0.00000E+00
 -1      2962 5.89370E+01 2.43911E+01 0.00000E+00
 -1      2963 5.92280E+01 2.55396E+01 0.00000E+00
 -1      2964 5.72314E+01 3.17564E+01 0.00000E+00
 -1      2965 5.65443E+01 3.26982E+01 0.00000E+00
 -1      2966 3.55745E+01 2.68418E+01 0.00000E+00
 -1      2967 3.54890E+01 2.58995E+01 0.00000E+00
 -1      2968 8.85168E+00 4.05347E+01 0.00000E+00
 -1      2969 1.02152E+01 4.07987E+01 0.00000E+00
 -1      2970 8.91450E+00 8.42712E+00 0.00000E+00
 -1      2971 3.56236E+01 2.20397E+01 0.00000E+00
 -1      2972 3.60051E+01 2.06738E+01 0.00000E+00
 -1      2973 4.22602E+01 1.44330E+01 0.00000E+00
 -1      2974 4.32603E+01 1.39911E+01 0.00000E+00
 -1      2975 2.72850E+01 7.90325E+00 0.00000E+00
 -1      2976 2.57850E+01 7.90325E+00 0.00000E+00
 -1      2977 2.80350E+01 9.20225E+00 0.00000E+00
 -1      2978 2.42850E+01 7.90325E+00 0.00000E+00
 -1      2979 2.27850E+01 7.90325E+00 0.00000E+00
 -1      2980 2.50350E+01 9.20225E+00 0.00000E+00
 -1      2981 1.15576E+01 4.08528E+01 0.00000E+00
 -1      2982 1.30576E+01 4.08528E+01 0.00000E+00
 -1      2983 1.38076E+01 3.95538E+01 0.00000E+00
 -1      2984 1.11228E+01 3.94455E+01 0.00000E+00
 -1      2985 9.09300E+00 1.68813E+01 0.00000E+00
 -1      2986 9.09300E+00 1.83563E+01 0.00000E+00
 -1      2987 1.03920E+01 1.90812E+01 0.00000E+00
 -1      2988 1.03920E+01 1.61437E+01 0.00000E+00
 -1      2989 3.58653E+01 2.94090E+01 0.00000E+00
 -1      2990 3.57199E+01 2.81254E+01 0.00000E+00
 -1      2991 3.48231E+01 2.77317E+01 0.00000E+00
 -1      2992 9.09300E+00 3.15875E+01 0.00000E+00
 -1      2993 9.09300E+00 3.30625E+01 0.00000E+00
 -1      2994 4.13090E+01 3.58303E+01 0.00000E+00
 -1      2995 4.03282E+01 3.50154E+01 0.00000E+00
 -1      2996 7.48818E+00 3.88019E+01 0.00000E+00
 -1      2997 3.73671E+01 3.18345E+01 0.00000E+00
 -1      2998 3.65044E+01 3.09075E+01 0.00000E+00
 -1      2999 3.66824E+01 1.93310E+01 0.00000E+00
 -1      3000 3.72351E+01 1.85225E+01 0.00000E+00
 -1      3001 5.15834E+01 3.67394E+01 0.00000E+00
 -1      3002 5.02751E+01 3.70928E+01 0.00000E+00
 -1      3003 4.99903E+01 1.34724E+01 0.00000E+00
 -1      3004 5.10630E+01 1.36468E+01 0.00000E+00
 -1      3005 4.86803E+01 3.71500E+01 0.00000E+00
 -1      3006 4.75028E+01 3.71375E+01 0.00000E+00
 -1      3007 4.68076E+01 3.79268E+01 0.00000E+00
 -1      3008 3.53903E+01 2.47149E+01 0.00000E+00
 -1      3009 3.54502E+01 2.35386E+01 0.00000E+00
 -1      3010 3.80071E+01 1.75451E+01 0.00000E+00
 -1      3011 3.88567E+01 1.65809E+01 0.00000E+00
 -1      3012 4.37589E+01 3.67729E+01 0.00000E+00
 -1      3013 4.27410E+01 3.63924E+01 0.00000E+00
 -1      3014 5.94311E+01 2.71580E+01 0.00000E+00
 -1      3015 5.91923E+01 2.84534E+01 0.00000E+00
 -1      3016 5.48443E+01 1.56593E+01 0.00000E+00
 -1      3017 5.56632E+01 1.63513E+01 0.00000E+00
 -1      3018 1.41192E+02 3.96958E+01 0.00000E+00
 -1      3019 5.57293E+01 3.36924E+01 0.00000E+00
 -1      3020 5.49242E+01 3.44558E+01 0.00000E+00
 -1      3021 5.25893E+01 1.40697E+01 0.00000E+00
 -1      3022 5.37721E+01 1.47956E+01 0.00000E+00
 -1      3023 9.09300E+00 3.45313E+01 0.00000E+00
 -1      3024 9.09300E+00 3.60000E+01 0.00000E+00
 -1      3025 1.03920E+01 3.37938E+01 0.00000E+00
 -1      3026 1.03920E+01 2.49750E+01 0.00000E+00
 -1      3027 9.09300E+00 2.57000E+01 0.00000E+00
 -1      3028 9.09300E+00 2.71750E+01 0.00000E+00
 -1      3029 4.12430E+01 1.39484E+01 0.00000E+00
 -1      3030 5.84818E+01 1.83990E+01 0.00000E+00
 -1      3031 5.21906E+01 1.31361E+01 0.00000E+00
 -1      3032 3.88990E+01 1.54549E+01 0.00000E+00
 -1      3033 5.82514E+01 3.17295E+01 0.00000E+00
 -1      3034 4.42752E+01 3.76893E+01 0.00000E+00
 -1      3035 5.90672E+01 2.10844E+01 0.00000E+00
 -1      3036 5.96294E+01 2.16537E+01 0.00000E+00
 -1      3037 5.96772E+01 2.01753E+01 0.00000E+00
 -1      3038 5.47891E+01 1.44226E+01 0.00000E+00
 -1      3039 6.01168E+01 2.63731E+01 0.00000E+00
 -1      3040 6.10056E+01 2.72066E+01 0.00000E+00
 -1      3041 6.08026E+01 2.55882E+01 0.00000E+00
 -1      3042 1.39608E+02 1.61875E+01 0.00000E+00
 -1      3043 1.40907E+02 1.54500E+01 0.00000E+00
 -1      3044 1.40907E+02 1.39875E+01 0.00000E+00
 -1      3045 3.46536E+01 2.25800E+01 0.00000E+00
 -1      3046 5.25791E+01 3.70685E+01 0.00000E+00
 -1      3047 2.20350E+01 9.20225E+00 0.00000E+00
 -1      3048 3.69536E+01 1.74181E+01 0.00000E+00
 -1      3049 5.49502E+01 3.55042E+01 0.00000E+00
 -1      3050 1.40973E+02 1.27472E+01 0.00000E+00
 -1      3051 1.40973E+02 1.12847E+01 0.00000E+00
 -1      3052 1.39805E+02 1.10040E+01 0.00000E+00
 -1      3053 1.39674E+02 1.34847E+01 0.00000E+00
 -1      3054 4.95799E+01 3.78821E+01 0.00000E+00
 -1      3055 3.56076E+01 3.05138E+01 0.00000E+00
 -1      3056 3.47108E+01 3.01201E+01 0.00000E+00
 -1      3057 3.53499E+01 3.16187E+01 0.00000E+00
 -1      3058 1.41192E+02 3.82207E+01 0.00000E+00
 -1      3059 4.92903E+01 1.29518E+01 0.00000E+00
 -1      3060 1.39529E+02 3.85602E+01 0.00000E+00
 -1      3061 1.40542E+02 3.71145E+01 0.00000E+00
 -1      3062 1.39243E+02 3.63770E+01 0.00000E+00
 -1      3063 1.38514E+02 3.85310E+01 0.00000E+00
 -1      3064 5.67318E+01 3.37022E+01 0.00000E+00
 -1      3065 3.45789E+01 2.52635E+01 0.00000E+00
 -1      3066 9.66450E+00 9.72612E+00 0.00000E+00
 -1      3067 4.30224E+01 1.27868E+01 0.00000E+00
 -1      3068 4.38691E+01 1.33502E+01 0.00000E+00
 -1      3069 4.44778E+01 1.27093E+01 0.00000E+00
 -1      3070 8.78718E+00 3.80644E+01 0.00000E+00
 -1      3071 3.94284E+01 3.48165E+01 0.00000E+00
 -1      3072 3.85286E+01 3.46176E+01 0.00000E+00
 -1      3073 3.91566E+01 3.61413E+01 0.00000E+00
 -1      3074 9.09300E+00 2.86437E+01 0.00000E+00
 -1      3075 9.09300E+00 3.01187E+01 0.00000E+00
 -1      3076 1.03920E+01 3.08563E+01 0.00000E+00
 -1      3077 1.03920E+01 2.79188E+01 0.00000E+00
 -1      3078 4.14884E+01 3.69023E+01 0.00000E+00
 -1      3079 4.66204E+01 1.32316E+01 0.00000E+00
 -1      3080 4.72331E+01 1.26174E+01 0.00000E+00
 -1      3081 4.59371E+01 1.26586E+01 0.00000E+00
 -1      3082 3.76799E+01 3.34706E+01 0.00000E+00
 -1      3083 3.75235E+01 3.26526E+01 0.00000E+00
 -1      3084 3.64031E+01 3.28304E+01 0.00000E+00
 -1      3085 5.94666E+01 2.36587E+01 0.00000E+00
 -1      3086 5.68550E+01 1.62391E+01 0.00000E+00
 -1      3087 1.09635E+01 1.04636E+01 0.00000E+00
 -1      3088 1.16910E+01 1.24625E+01 0.00000E+00
 -1      3089 1.16910E+01 1.39375E+01 0.00000E+00
 -1      3090 3.40437E+01 2.84700E+01 0.00000E+00
 -1      3091 3.38983E+01 2.71864E+01 0.00000E+00
 -1      3092 1.89000E+01 3.83090E+01 0.00000E+00
 -1      3093 2.04000E+01 3.83090E+01 0.00000E+00
 -1      3094 2.19000E+01 3.83090E+01 0.00000E+00
 -1      3095 2.34000E+01 3.83090E+01 0.00000E+00
 -1      3096 2.11500E+01 3.70100E+01 0.00000E+00
 -1      3097 2.49000E+01 3.83090E+01 0.00000E+00
 -1      3098 2.64000E+01 3.83090E+01 0.00000E+00
 -1      3099 2.41500E+01 3.70100E+01 0.00000E+00
 -1      3100 2.79000E+01 3.83090E+01 0.00000E+00
 -1      3101 2.94000E+01 3.83090E+01 0.00000E+00
 -1      3102 2.71500E+01 3.70100E+01 0.00000E+00
 -1      3103 3.09000E+01 3.83090E+01 0.00000E+00
 -1      3104 3.24000E+01 3.83090E+01 0.00000E+00
 -1      3105 3.01500E+01 3.70100E+01 0.00000E+00
 -1      3106 3.39000E+01 3.83090E+01 0.00000E+00
 -1      3107 3.54000E+01 3.83090E+01 0.00000E+00
 -1      3108 3.31500E+01 3.70100E+01 0.00000E+00
 -1      3109 3.72034E+01 3.77752E+01 0.00000E+00
 -1      3110 3.87034E+01 3.77752E+01 0.00000E+00
 -1      3111 4.25352E+01 3.85362E+01 0.00000E+00
 -1      3112 4.40352E+01 3.85362E+01 0.00000E+00
 -1      3113 5.49000E+01 3.84991E+01 0.00000E+00
 -1      3114 5.64000E+01 3.84991E+01 0.00000E+00
 -1      3115 5.79000E+01 3.84991E+01 0.00000E+00
 -1      3116 5.94000E+01 3.84991E+01 0.00000E+00
 -1      3117 5.71500E+01 3.73902E+01 0.00000E+00
 -1      3118 6.09000E+01 3.84991E+01 0.00000E+00
 -1      3119 6.24000E+01 3.84991E+01 0.00000E+00
 -1      3120 6.01500E+01 3.73902E+01 0.00000E+00
 -1      3121 6.39000E+01 3.84991E+01 0.00000E+00
 -1      3122 6.54000E+01 3.84991E+01 0.00000E+00
 -1      3123 6.31500E+01 3.73902E+01 0.00000E+00
 -1      3124 6.69000E+01 3.84991E+01 0.00000E+00
 -1      3125 6.84000E+01 3.84991E+01 0.00000E+00
 -1      3126 6.61500E+01 3.73902E+01 0.00000E+00
 -1      3127 6.99000E+01 3.84991E+01 0.00000E+00
 -1      3128 7.14000E+01 3.84991E+01 0.00000E+00
 -1      3129 6.91500E+01 3.73902E+01 0.00000E+00
 -1      3130 7.29000E+01 3.84991E+01 0.00000E+00
 -1      3131 7.44000E+01 3.84991E+01 0.00000E+00
 -1      3132 7.21500E+01 3.73902E+01 0.00000E+00
 -1      3133 7.59000E+01 3.84991E+01 0.00000E+00
 -1      3134 7.74000E+01 3.84991E+01 0.00000E+00
 -1      3135 7.51500E+01 3.73902E+01 0.00000E+00
 -1      3136 7.89000E+01 3.84991E+01 0.00000E+00
 -1      3137 8.04000E+01 3.84991E+01 0.00000E+00
 -1      3138 7.81500E+01 3.73902E+01 0.00000E+00
 -1      3139 8.19000E+01 3.84991E+01 0.00000E+00
 -1      3140 8.34000E+01 3.84991E+01 0.00000E+00
 -1      3141 8.11500E+01 3.73902E+01 0.00000E+00
 -1      3142 8.49000E+01 3.84991E+01 0.00000E+00
 -1      3143 8.64000E+01 3.84991E+01 0.00000E+00
 -1      3144 8.41500E+01 3.73902E+01 0.00000E+00
 -1      3145 8.79000E+01 3.84991E+01 0.00000E+00
 -1      3146 8.94000E+01 3.84991E+01 0.00000E+00
 -1      3147 8.71500E+01 3.73902E+01 0.00000E+00
 -1      3148 9.09000E+01 3.84991E+01 0.00000E+00
 -1      3149 9.24000E+01 3.84991E+01 0.00000E+00
 -1      3150 9.01500E+01 3.73902E+01 0.00000E+00
 -1      3151 9.39000E+01 3.84991E+01 0.00000E+00
 -1      3152 9.54000E+01 3.84991E+01 0.00000E+00
 -1      3153 9.31500E+01 3.73902E+01 0.00000E+00
 -1      3154 9.69000E+01 3.84991E+01 0.00000E+00
 -1      3155 9.84000E+01 3.84991E+01 0.00000E+00
 -1      3156 9.61500E+01 3.73902E+01 0.00000E+00
 -1      3157 9.99000E+01 3.84991E+01 0.00000E+00
 -1      3158 1.01400E+02 3.84991E+01 0.00000E+00
 -1      3159 9.91500E+01 3.73902E+01 0.00000E+00
 -1      3160 1.02900E+02 3.84991E+01 0.00000E+00
 -1      3161 1.04400E+02 3.84991E+01 0.00000E+00
 -1      3162 1.02150E+02 3.73902E+01 0.00000E+00
 -1      3163 1.05900E+02 3.84991E+01 0.00000E+00
 -1      3164 1.07400E+02 3.84991E+01 0.00000E+00
 -1      3165 1.05150E+02 3.73902E+01 0.00000E+00
 -1      3166 1.08900E+02 3.84991E+01 0.00000E+00
 -1      3167 1.10400E+02 3.84991E+01 0.00000E+00
 -1      3168 1.08150E+02 3.73902E+01 0.00000E+00
 -1      3169 1.11900E+02 3.84991E+01 0.00000E+00
 -1      3170 1.13400E+02 3.84991E+01 0.00000E+00
 -1      3171 1.11150E+02 3.73902E+01 0.00000E+00
 -1      3172 1.14900E+02 3.84991E+01 0.00000E+00
 -1      3173 1.16400E+02 3.84991E+01 0.00000E+00
 -1      3174 1.14150E+02 3.73902E+01 0.00000E+00
 -1      3175 1.17900E+02 3.84991E+01 0.00000E+00
 -1      3176 1.19400E+02 3.84991E+01 0.00000E+00
 -1      3177 1.17150E+02 3.73902E+01 0.00000E+00
 -1      3178 1.20900E+02 3.84991E+01 0.00000E+00
 -1      3179 1.22400E+02 3.84991E+01 0.00000E+00
 -1      3180 1.20150E+02 3.73902E+01 0.00000E+00
 -1      3181 1.23900E+02 3.84991E+01 0.00000E+00
 -1      3182 1.25400E+02 3.84991E+01 0.00000E+00
 -1      3183 1.23150E+02 3.73902E+01 0.00000E+00
 -1      3184 1.26900E+02 3.84991E+01 0.00000E+00
 -1      3185 1.28400E+02 3.84991E+01 0.00000E+00
 -1      3186 1.26150E+02 3.73902E+01 0.00000E+00
 -1      3187 1.29900E+02 3.84991E+01 0.00000E+00
 -1      3188 1.31400E+02 3.84991E+01 0.00000E+00
 -1      3189 1.29150E+02 3.73902E+01 0.00000E+00
 -1      3190 1.32900E+02 3.84991E+01 0.00000E+00
 -1      3191 1.34400E+02 3.84991E+01 0.00000E+00
 -1      3192 1.32150E+02 3.73902E+01 0.00000E+00
 -1      3193 1.35707E+02 3.85150E+01 0.00000E+00
 -1      3194 1.37207E+02 3.85150E+01 0.00000E+00
 -1      3195 1.37572E+02 3.74380E+01 0.00000E+00
 -1      3196 1.34957E+02 3.74061E+01 0.00000E+00
 -1      3197 3.17850E+01 1.05013E+01 0.00000E+00
 -1      3198 3.02850E+01 1.05013E+01 0.00000E+00
 -1      3199 4.07850E+01 1.05013E+01 0.00000E+00
 -1      3200 3.92850E+01 1.05013E+01 0.00000E+00
 -1      3201 4.40831E+01 1.06741E+01 0.00000E+00
 -1      3202 4.25831E+01 1.06741E+01 0.00000E+00
 -1      3203 4.70424E+01 1.06233E+01 0.00000E+00
 -1      3204 4.55424E+01 1.06233E+01 0.00000E+00
 -1      3205 5.05996E+01 1.09577E+01 0.00000E+00
 -1      3206 4.90996E+01 1.09577E+01 0.00000E+00
 -1      3207 5.20996E+01 1.09577E+01 0.00000E+00
 -1      3208 5.57850E+01 1.04787E+01 0.00000E+00
 -1      3209 5.42850E+01 1.04787E+01 0.00000E+00
 -1      3210 5.87850E+01 1.04787E+01 0.00000E+00
 -1      3211 5.72850E+01 1.04787E+01 0.00000E+00
 -1      3212 5.65350E+01 1.17552E+01 0.00000E+00
 -1      3213 6.17850E+01 1.04787E+01 0.00000E+00
 -1      3214 6.02850E+01 1.04787E+01 0.00000E+00
 -1      3215 5.95350E+01 1.17552E+01 0.00000E+00
 -1      3216 6.47850E+01 1.04787E+01 0.00000E+00
 -1      3217 6.32850E+01 1.04787E+01 0.00000E+00
 -1      3218 6.25350E+01 1.17552E+01 0.00000E+00
 -1      3219 6.77850E+01 1.04787E+01 0.00000E+00
 -1      3220 6.62850E+01 1.04787E+01 0.00000E+00
 -1      3221 6.55350E+01 1.17552E+01 0.00000E+00
 -1      3222 7.07850E+01 1.04787E+01 0.00000E+00
 -1      3223 6.92850E+01 1.04787E+01 0.00000E+00
 -1      3224 6.85350E+01 1.17552E+01 0.00000E+00
 -1      3225 7.37850E+01 1.04787E+01 0.00000E+00
 -1      3226 7.22850E+01 1.04787E+01 0.00000E+00
 -1      3227 7.15350E+01 1.17552E+01 0.00000E+00
 -1      3228 7.67850E+01 1.04787E+01 0.00000E+00
 -1      3229 7.52850E+01 1.04787E+01 0.00000E+00
 -1      3230 7.45350E+01 1.17552E+01 0.00000E+00
 -1      3231 7.97850E+01 1.04787E+01 0.00000E+00
 -1      3232 7.82850E+01 1.04787E+01 0.00000E+00
 -1      3233 7.75350E+01 1.17552E+01 0.00000E+00
 -1      3234 8.27850E+01 1.04787E+01 0.00000E+00
 -1      3235 8.12850E+01 1.04787E+01 0.00000E+00
 -1      3236 8.05350E+01 1.17552E+01 0.00000E+00
 -1      3237 8.57850E+01 1.04787E+01 0.00000E+00
 -1      3238 8.42850E+01 1.04787E+01 0.00000E+00
 -1      3239 8.35350E+01 1.17552E+01 0.00000E+00
 -1      3240 8.87850E+01 1.04787E+01 0.00000E+00
 -1      3241 8.72850E+01 1.04787E+01 0.00000E+00
 -1      3242 8.65350E+01 1.17552E+01 0.00000E+00
 -1      3243 9.17850E+01 1.04787E+01 0.00000E+00
 -1      3244 9.02850E+01 1.04787E+01 0.00000E+00
 -1      3245 8.95350E+01 1.17552E+01 0.00000E+00
 -1      3246 9.47850E+01 1.04787E+01 0.00000E+00
 -1      3247 9.32850E+01 1.04787E+01 0.00000E+00
 -1      3248 9.25350E+01 1.17552E+01 0.00000E+00
 -1      3249 9.77850E+01 1.04787E+01 0.00000E+00
 -1      3250 9.62850E+01 1.04787E+01 0.00000E+00
 -1      3251 9.55350E+01 1.17552E+01 0.00000E+00
 -1      3252 1.00785E+02 1.04787E+01 0.00000E+00
 -1      3253 9.92850E+01 1.04787E+01 0.00000E+00
 -1      3254 9.85350E+01 1.17552E+01 0.00000E+00
 -1      3255 1.03785E+02 1.04787E+01 0.00000E+00
 -1      3256 1.02285E+02 1.04787E+01 0.00000E+00
 -1      3257 1.01535E+02 1.17552E+01 0.00000E+00
 -1      3258 1.06785E+02 1.04787E+01 0.00000E+00
 -1      3259 1.05285E+02 1.04787E+01 0.00000E+00
 -1      3260 1.04535E+02 1.17552E+01 0.00000E+00
 -1      3261 1.09785E+02 1.04787E+01 0.00000E+00
 -1      3262 1.08285E+02 1.04787E+01 0.00000E+00
 -1      3263 1.07535E+02 1.17552E+01 0.00000E+00
 -1      3264 1.12785E+02 1.04787E+01 0.00000E+00
 -1      3265 1.11285E+02 1.04787E+01 0.00000E+00
 -1      3266 1.10535E+02 1.17552E+01 0.00000E+00
 -1      3267 1.15785E+02 1.04787E+01 0.00000E+00
 -1      3268 1.14285E+02 1.04787E+01 0.00000E+00
 -1      3269 1.13535E+02 1.17552E+01 0.00000E+00
 -1      3270 1.18785E+02 1.04787E+01 0.00000E+00
 -1      3271 1.17285E+02 1.04787E+01 0.00000E+00
 -1      3272 1.16535E+02 1.17552E+01 0.00000E+00
 -1      3273 1.21785E+02 1.04787E+01 0.00000E+00
 -1      3274 1.20285E+02 1.04787E+01 0.00000E+00
 -1      3275 1.19535E+02 1.17552E+01 0.00000E+00
 -1      3276 1.24785E+02 1.04787E+01 0.00000E+00
 -1      3277 1.23285E+02 1.04787E+01 0.00000E+00
 -1      3278 1.22535E+02 1.17552E+01 0.00000E+00
 -1      3279 1.27785E+02 1.04787E+01 0.00000E+00
 -1      3280 1.26285E+02 1.04787E+01 0.00000E+00
 -1      3281 1.25535E+02 1.17552E+01 0.00000E+00
 -1      3282 1.30785E+02 1.04787E+01 0.00000E+00
 -1      3283 1.29285E+02 1.04787E+01 0.00000E+00
 -1      3284 1.28535E+02 1.17552E+01 0.00000E+00
 -1      3285 1.33785E+02 1.04787E+01 0.00000E+00
 -1      3286 1.32285E+02 1.04787E+01 0.00000E+00
 -1      3287 1.31535E+02 1.17552E+01 0.00000E+00
 -1      3288 1.36785E+02 1.04787E+01 0.00000E+00
 -1      3289 1.35285E+02 1.04787E+01 0.00000E+00
 -1      3290 1.34535E+02 1.17552E+01 0.00000E+00
 -1      3291 1.38879E+02 1.08817E+01 0.00000E+00
 -1      3292 1.37711E+02 1.06010E+01 0.00000E+00
 -1      3293 1.36961E+02 1.18775E+01 0.00000E+00
 -1      3294 1.38813E+02 1.21220E+01 0.00000E+00
 -1      3295 5.78025E+01 3.37488E+01 0.00000E+00
 -1      3296 5.69875E+01 3.47430E+01 0.00000E+00
 -1      3297 1.16910E+01 2.12875E+01 0.00000E+00
 -1      3298 1.16910E+01 2.27625E+01 0.00000E+00
 -1      3299 1.38309E+02 2.57625E+01 0.00000E+00
 -1      3300 1.38309E+02 2.42875E+01 0.00000E+00
 -1      3301 1.38309E+02 3.45625E+01 0.00000E+00
 -1      3302 1.38309E+02 3.30875E+01 0.00000E+00
 -1      3303 1.38309E+02 2.86625E+01 0.00000E+00
 -1      3304 1.38309E+02 2.72125E+01 0.00000E+00
 -1      3305 1.37010E+02 2.64750E+01 0.00000E+00
 -1      3306 2.27850E+01 1.05013E+01 0.00000E+00
 -1      3307 2.12850E+01 1.05013E+01 0.00000E+00
 -1      3308 4.53901E+01 3.87611E+01 0.00000E+00
 -1      3309 2.87850E+01 1.05013E+01 0.00000E+00
 -1      3310 2.72850E+01 1.05013E+01 0.00000E+00
 -1      3311 2.95350E+01 1.18003E+01 0.00000E+00
 -1      3312 5.91472E+01 1.72804E+01 0.00000E+00
 -1      3313 5.97804E+01 1.84874E+01 0.00000E+00
 -1      3314 4.11032E+01 3.79741E+01 0.00000E+00
 -1      3315 1.38309E+02 3.16125E+01 0.00000E+00
 -1      3316 1.38309E+02 3.01375E+01 0.00000E+00
 -1      3317 1.37010E+02 2.94000E+01 0.00000E+00
 -1      3318 1.37010E+02 3.23500E+01 0.00000E+00
 -1      3319 3.77850E+01 1.05013E+01 0.00000E+00
 -1      3320 3.62850E+01 1.05013E+01 0.00000E+00
 -1      3321 3.85350E+01 1.18003E+01 0.00000E+00
 -1      3322 3.47850E+01 1.05013E+01 0.00000E+00
 -1      3323 3.32850E+01 1.05013E+01 0.00000E+00
 -1      3324 3.25350E+01 1.18003E+01 0.00000E+00
 -1      3325 3.55350E+01 1.18003E+01 0.00000E+00
 -1      3326 3.57632E+01 1.72714E+01 0.00000E+00
 -1      3327 3.65352E+01 1.62940E+01 0.00000E+00
 -1      3328 4.00537E+01 1.31347E+01 0.00000E+00
 -1      3329 4.12243E+01 1.26139E+01 0.00000E+00
 -1      3330 1.59000E+01 3.83090E+01 0.00000E+00
 -1      3331 1.74000E+01 3.83090E+01 0.00000E+00
 -1      3332 1.81500E+01 3.70100E+01 0.00000E+00
 -1      3333 3.34653E+01 2.32019E+01 0.00000E+00
 -1      3334 3.36387E+01 2.17030E+01 0.00000E+00
 -1      3335 2.57850E+01 1.05013E+01 0.00000E+00
 -1      3336 2.42850E+01 1.05013E+01 0.00000E+00
 -1      3337 2.65350E+01 1.18003E+01 0.00000E+00
 -1      3338 3.55043E+01 1.97383E+01 0.00000E+00
 -1      3339 1.00862E+01 3.73269E+01 0.00000E+00
 -1      3340 6.00766E+01 2.27496E+01 0.00000E+00
 -1      3341 6.05239E+01 2.38456E+01 0.00000E+00
 -1      3342 6.06867E+01 2.18406E+01 0.00000E+00
 -1      3343 5.96379E+01 2.93712E+01 0.00000E+00
 -1      3344 5.57834E+01 3.60433E+01 0.00000E+00
 -1      3345 5.48168E+01 3.68511E+01 0.00000E+00
 -1      3346 3.75451E+01 1.50346E+01 0.00000E+00
 -1      3347 3.87185E+01 1.40488E+01 0.00000E+00
 -1      3348 4.80676E+01 3.87737E+01 0.00000E+00
 -1      3349 4.68901E+01 3.87611E+01 0.00000E+00
 -1      3350 5.92996E+01 3.17414E+01 0.00000E+00
 -1      3351 5.85950E+01 3.27199E+01 0.00000E+00
 -1      3352 1.26488E+01 1.02017E+01 0.00000E+00
 -1      3353 1.20772E+01 1.14631E+01 0.00000E+00
 -1      3354 1.33763E+01 1.22006E+01 0.00000E+00
 -1      3355 1.41488E+01 1.02017E+01 0.00000E+00
 -1      3356 5.43760E+01 1.26571E+01 0.00000E+00
 -1      3357 5.54482E+01 1.35208E+01 0.00000E+00
 -1      3358 3.36067E+01 2.59410E+01 0.00000E+00
 -1      3359 3.35079E+01 2.47564E+01 0.00000E+00
 -1      3360 5.71837E+01 1.49019E+01 0.00000E+00
 -1      3361 5.81773E+01 1.58547E+01 0.00000E+00
 -1      3362 3.42504E+01 1.99480E+01 0.00000E+00
 -1      3363 3.49277E+01 1.86052E+01 0.00000E+00
 -1      3364 6.08979E+01 2.91356E+01 0.00000E+00
 -1      3365 6.02159E+01 3.05153E+01 0.00000E+00
 -1      3366 1.16910E+01 2.42375E+01 0.00000E+00
 -1      3367 1.16910E+01 2.57125E+01 0.00000E+00
 -1      3368 1.29900E+01 2.35000E+01 0.00000E+00
 -1      3369 3.28273E+01 2.66793E+01 0.00000E+00
 -1      3370 5.69482E+01 1.35208E+01 0.00000E+00
 -1      3371 1.16910E+01 3.30594E+01 0.00000E+00
 -1      3372 1.16910E+01 3.45281E+01 0.00000E+00
 -1      3373 6.03427E+01 1.90567E+01 0.00000E+00
 -1      3374 6.09049E+01 1.96260E+01 0.00000E+00
 -1      3375 6.10081E+01 1.79380E+01 0.00000E+00
 -1      3376 6.14127E+01 2.46791E+01 0.00000E+00
 -1      3377 6.23015E+01 2.55126E+01 0.00000E+00
 -1      3378 6.20228E+01 2.37701E+01 0.00000E+00
 -1      3379 1.38309E+02 1.69188E+01 0.00000E+00
 -1      3380 1.38309E+02 1.54563E+01 0.00000E+00
 -1      3381 3.64534E+01 3.64762E+01 0.00000E+00
 -1      3382 6.05596E+01 3.15057E+01 0.00000E+00
 -1      3383 3.96032E+01 3.79741E+01 0.00000E+00
 -1      3384 4.96623E+01 3.87164E+01 0.00000E+00
 -1      3385 5.11623E+01 3.87164E+01 0.00000E+00
 -1      3386 5.25668E+01 3.79600E+01 0.00000E+00
 -1      3387 5.40668E+01 3.79600E+01 0.00000E+00
 -1      3388 6.15837E+01 2.83507E+01 0.00000E+00
 -1      3389 6.21617E+01 2.94948E+01 0.00000E+00
 -1      3390 6.22694E+01 2.75657E+01 0.00000E+00
 -1      3391 3.30621E+01 2.05700E+01 0.00000E+00
 -1      3392 3.24855E+01 1.94369E+01 0.00000E+00
 -1      3393 3.18738E+01 2.11919E+01 0.00000E+00
 -1      3394 5.82705E+01 1.31363E+01 0.00000E+00
 -1      3395 4.77257E+01 1.11963E+01 0.00000E+00
 -1      3396 5.36260E+01 1.13806E+01 0.00000E+00
 -1      3397 5.88507E+01 3.37607E+01 0.00000E+00
 -1      3398 1.16910E+01 1.98188E+01 0.00000E+00
 -1      3399 1.29900E+01 2.05562E+01 0.00000E+00
 -1      3400 1.16910E+01 1.83500E+01 0.00000E+00
 -1      3401 1.38309E+02 1.98687E+01 0.00000E+00
 -1      3402 1.38309E+02 1.83937E+01 0.00000E+00
 -1      3403 1.37010E+02 1.76625E+01 0.00000E+00
 -1      3404 1.56488E+01 1.02017E+01 0.00000E+00
 -1      3405 1.52625E+01 1.12011E+01 0.00000E+00
 -1      3406 1.71488E+01 1.02017E+01 0.00000E+00
 -1      3407 3.63547E+01 1.48879E+01 0.00000E+00
 -1      3408 1.38309E+02 2.28156E+01 0.00000E+00
 -1      3409 1.38309E+02 2.13406E+01 0.00000E+00
 -1      3410 1.37010E+02 2.06094E+01 0.00000E+00
 -1      3411 1.37010E+02 2.35531E+01 0.00000E+00
 -1      3412 2.35350E+01 1.18003E+01 0.00000E+00
 -1      3413 3.55063E+01 3.24367E+01 0.00000E+00
 -1      3414 3.46095E+01 3.20430E+01 0.00000E+00
 -1      3415 3.56627E+01 3.32547E+01 0.00000E+00
 -1      3416 1.99669E+01 1.03515E+01 0.00000E+00
 -1      3417 1.84669E+01 1.03515E+01 0.00000E+00
 -1      3418 1.80806E+01 1.13509E+01 0.00000E+00
 -1      3419 2.07169E+01 1.16505E+01 0.00000E+00
 -1      3420 3.45092E+01 1.74811E+01 0.00000E+00
 -1      3421 5.94759E+01 1.59431E+01 0.00000E+00
 -1      3422 1.16910E+01 3.15906E+01 0.00000E+00
 -1      3423 1.29900E+01 3.23250E+01 0.00000E+00
 -1      3424 1.16910E+01 3.01219E+01 0.00000E+00
 -1      3425 1.45576E+01 3.82548E+01 0.00000E+00
 -1      3426 1.53076E+01 3.69558E+01 0.00000E+00
 -1      3427 1.32152E+01 3.82007E+01 0.00000E+00
 -1      3428 3.86998E+01 1.27144E+01 0.00000E+00
 -1      3429 5.68541E+01 3.60899E+01 0.00000E+00
 -1      3430 3.24931E+01 2.38794E+01 0.00000E+00
 -1      3431 1.14286E+01 3.73811E+01 0.00000E+00
 -1      3432 3.74081E+01 3.47955E+01 0.00000E+00
 -1      3433 1.16910E+01 1.54094E+01 0.00000E+00
 -1      3434 1.16910E+01 1.68781E+01 0.00000E+00
 -1      3435 1.29900E+01 1.76156E+01 0.00000E+00
 -1      3436 1.29900E+01 1.46719E+01 0.00000E+00
 -1      3437 1.37758E+02 3.65388E+01 0.00000E+00
 -1      3438 1.38123E+02 3.54618E+01 0.00000E+00
 -1      3439 1.36824E+02 3.47243E+01 0.00000E+00
 -1      3440 1.36451E+02 3.65228E+01 0.00000E+00
 -1      3441 3.35284E+01 3.06797E+01 0.00000E+00
 -1      3442 3.37860E+01 2.95748E+01 0.00000E+00
 -1      3443 3.28612E+01 2.90295E+01 0.00000E+00
 -1      3444 4.50905E+01 1.20952E+01 0.00000E+00
 -1      3445 3.56047E+01 3.53292E+01 0.00000E+00
 -1      3446 2.34000E+01 3.57110E+01 0.00000E+00
 -1      3447 2.49000E+01 3.57110E+01 0.00000E+00
 -1      3448 2.64000E+01 3.57110E+01 0.00000E+00
 -1      3449 2.79000E+01 3.57110E+01 0.00000E+00
 -1      3450 2.56500E+01 3.44120E+01 0.00000E+00
 -1      3451 2.94000E+01 3.57110E+01 0.00000E+00
 -1      3452 3.09000E+01 3.57110E+01 0.00000E+00
 -1      3453 2.86500E+01 3.44120E+01 0.00000E+00
 -1      3454 6.17718E+01 3.14562E+01 0.00000E+00
 -1      3455 6.08554E+01 3.26823E+01 0.00000E+00
 -1      3456 6.24000E+01 3.60912E+01 0.00000E+00
 -1      3457 6.39000E+01 3.60912E+01 0.00000E+00
 -1      3458 6.54000E+01 3.60912E+01 0.00000E+00
 -1      3459 6.69000E+01 3.60912E+01 0.00000E+00
 -1      3460 6.46500E+01 3.47922E+01 0.00000E+00
 -1      3461 6.84000E+01 3.60912E+01 0.00000E+00
 -1      3462 6.99000E+01 3.60912E+01 0.00000E+00
 -1      3463 6.76500E+01 3.47922E+01 0.00000E+00
 -1      3464 7.14000E+01 3.60912E+01 0.00000E+00
 -1      3465 7.29000E+01 3.60912E+01 0.00000E+00
 -1      3466 7.06500E+01 3.47922E+01 0.00000E+00
 -1      3467 7.44000E+01 3.60912E+01 0.00000E+00
 -1      3468 7.59000E+01 3.60912E+01 0.00000E+00
 -1      3469 7.36500E+01 3.47922E+01 0.00000E+00
 -1      3470 7.74000E+01 3.60912E+01 0.00000E+00
 -1      3471 7.89000E+01 3.60912E+01 0.00000E+00
 -1      3472 7.66500E+01 3.47922E+01 0.00000E+00
 -1      3473 8.04000E+01 3.60912E+01 0.00000E+00
 -1      3474 8.19000E+01 3.60912E+01 0.00000E+00
 -1      3475 7.96500E+01 3.47922E+01 0.00000E+00
 -1      3476 8.34000E+01 3.60912E+01 0.00000E+00
 -1      3477 8.49000E+01 3.60912E+01 0.00000E+00
 -1      3478 8.26500E+01 3.47922E+01 0.00000E+00
 -1      3479 8.64000E+01 3.60912E+01 0.00000E+00
 -1      3480 8.79000E+01 3.60912E+01 0.00000E+00
 -1      3481 8.56500E+01 3.47922E+01 0.00000E+00
 -1      3482 8.94000E+01 3.60912E+01 0.00000E+00
 -1      3483 9.09000E+01 3.60912E+01 0.00000E+00
 -1      3484 8.86500E+01 3.47922E+01 0.00000E+00
 -1      3485 9.24000E+01 3.60912E+01 0.00000E+00
 -1      3486 9.39000E+01 3.60912E+01 0.00000E+00
 -1      3487 9.16500E+01 3.47922E+01 0.00000E+00
 -1      3488 9.54000E+01 3.60912E+01 0.00000E+00
 -1      3489 9.69000E+01 3.60912E+01 0.00000E+00
 -1      3490 9.46500E+01 3.47922E+01 0.00000E+00
 -1      3491 9.84000E+01 3.60912E+01 0.00000E+00
 -1      3492 9.99000E+01 3.60912E+01 0.00000E+00
 -1      3493 9.76500E+01 3.47922E+01 0.00000E+00
 -1      3494 1.01400E+02 3.60912E+01 0.00000E+00
 -1      3495 1.02900E+02 3.60912E+01 0.00000E+00
 -1      3496 1.00650E+02 3.47922E+01 0.00000E+00
 -1      3497 1.04400E+02 3.60912E+01 0.00000E+00
 -1      3498 1.05900E+02 3.60912E+01 0.00000E+00
 -1      3499 1.03650E+02 3.47922E+01 0.00000E+00
 -1      3500 1.07400E+02 3.60912E+01 0.00000E+00
 -1      3501 1.08900E+02 3.60912E+01 0.00000E+00
 -1      3502 1.06650E+02 3.47922E+01 0.00000E+00
 -1      3503 1.10400E+02 3.60912E+01 0.00000E+00
 -1      3504 1.11900E+02 3.60912E+01 0.00000E+00
 -1      3505 1.09650E+02 3.47922E+01 0.00000E+00
 -1      3506 1.13400E+02 3.60912E+01 0.00000E+00
 -1      3507 1.14900E+02 3.60912E+01 0.00000E+00
 -1      3508 1.12650E+02 3.47922E+01 0.00000E+00
 -1      3509 1.16400E+02 3.60912E+01 0.00000E+00
 -1      3510 1.17900E+02 3.60912E+01 0.00000E+00
 -1      3511 1.15650E+02 3.47922E+01 0.00000E+00
 -1      3512 1.19400E+02 3.60912E+01 0.00000E+00
 -1      3513 1.20900E+02 3.60912E+01 0.00000E+00
 -1      3514 1.18650E+02 3.47922E+01 0.00000E+00
 -1      3515 1.22400E+02 3.60912E+01 0.00000E+00
 -1      3516 1.23900E+02 3.60912E+01 0.00000E+00
 -1      3517 1.21650E+02 3.47922E+01 0.00000E+00
 -1      3518 1.25400E+02 3.60912E+01 0.00000E+00
 -1      3519 1.26900E+02 3.60912E+01 0.00000E+00
 -1      3520 1.24650E+02 3.47922E+01 0.00000E+00
 -1      3521 1.28400E+02 3.60912E+01 0.00000E+00
 -1      3522 1.29900E+02 3.60912E+01 0.00000E+00
 -1      3523 1.27650E+02 3.47922E+01 0.00000E+00
 -1      3524 1.31400E+02 3.60912E+01 0.00000E+00
 -1      3525 1.32900E+02 3.60912E+01 0.00000E+00
 -1      3526 1.30650E+02 3.47922E+01 0.00000E+00
 -1      3527 4.18331E+01 1.19731E+01 0.00000E+00
 -1      3528 5.97705E+01 1.31363E+01 0.00000E+00
 -1      3529 1.34776E+01 3.53477E+01 0.00000E+00
 -1      3530 1.21786E+01 3.60821E+01 0.00000E+00
 -1      3531 6.62850E+01 1.30542E+01 0.00000E+00
 -1      3532 6.47850E+01 1.30542E+01 0.00000E+00
 -1      3533 6.92850E+01 1.30542E+01 0.00000E+00
 -1      3534 6.77850E+01 1.30542E+01 0.00000E+00
 -1      3535 6.70350E+01 1.43532E+01 0.00000E+00
 -1      3536 7.22850E+01 1.30542E+01 0.00000E+00
 -1      3537 7.07850E+01 1.30542E+01 0.00000E+00
 -1      3538 7.00350E+01 1.43532E+01 0.00000E+00
 -1      3539 7.52850E+01 1.30542E+01 0.00000E+00
 -1      3540 7.37850E+01 1.30542E+01 0.00000E+00
 -1      3541 7.30350E+01 1.43532E+01 0.00000E+00
 -1      3542 7.82850E+01 1.30542E+01 0.00000E+00
 -1      3543 7.67850E+01 1.30542E+01 0.00000E+00
 -1      3544 7.60350E+01 1.43532E+01 0.00000E+00
 -1      3545 8.12850E+01 1.30542E+01 0.00000E+00
 -1      3546 7.97850E+01 1.30542E+01 0.00000E+00
 -1      3547 7.90350E+01 1.43532E+01 0.00000E+00
 -1      3548 8.42850E+01 1.30542E+01 0.00000E+00
 -1      3549 8.27850E+01 1.30542E+01 0.00000E+00
 -1      3550 8.20350E+01 1.43532E+01 0.00000E+00
 -1      3551 8.72850E+01 1.30542E+01 0.00000E+00
 -1      3552 8.57850E+01 1.30542E+01 0.00000E+00
 -1      3553 8.50350E+01 1.43532E+01 0.00000E+00
 -1      3554 9.02850E+01 1.30542E+01 0.00000E+00
 -1      3555 8.87850E+01 1.30542E+01 0.00000E+00
 -1      3556 8.80350E+01 1.43532E+01 0.00000E+00
 -1      3557 9.32850E+01 1.30542E+01 0.00000E+00
 -1      3558 9.17850E+01 1.30542E+01 0.00000E+00
 -1      3559 9.10350E+01 1.43532E+01 0.00000E+00
 -1      3560 9.62850E+01 1.30542E+01 0.00000E+00
 -1      3561 9.47850E+01 1.30542E+01 0.00000E+00
 -1      3562 9.40350E+01 1.43532E+01 0.00000E+00
 -1      3563 9.92850E+01 1.30542E+01 0.00000E+00
 -1      3564 9.77850E+01 1.30542E+01 0.00000E+00
 -1      3565 9.70350E+01 1.43532E+01 0.00000E+00
 -1      3566 1.02285E+02 1.30542E+01 0.00000E+00
 -1      3567 1.00785E+02 1.30542E+01 0.00000E+00
 -1      3568 1.00035E+02 1.43532E+01 0.00000E+00
 -1      3569 1.05285E+02 1.30542E+01 0.00000E+00
 -1      3570 1.03785E+02 1.30542E+01 0.00000E+00
 -1      3571 1.03035E+02 1.43532E+01 0.00000E+00
 -1      3572 1.08285E+02 1.30542E+01 0.00000E+00
 -1      3573 1.06785E+02 1.30542E+01 0.00000E+00
 -1      3574 1.06035E+02 1.43532E+01 0.00000E+00
 -1      3575 1.11285E+02 1.30542E+01 0.00000E+00
 -1      3576 1.09785E+02 1.30542E+01 0.00000E+00
 -1      3577 1.09035E+02 1.43532E+01 0.00000E+00
 -1      3578 1.14285E+02 1.30542E+01 0.00000E+00
 -1      3579 1.12785E+02 1.30542E+01 0.00000E+00
 -1      3580 1.12035E+02 1.43532E+01 0.00000E+00
 -1      3581 1.17285E+02 1.30542E+01 0.00000E+00
 -1      3582 1.15785E+02 1.30542E+01 0.00000E+00
 -1      3583 1.15035E+02 1.43532E+01 0.00000E+00
 -1      3584 1.20285E+02 1.30542E+01 0.00000E+00
 -1      3585 1.18785E+02 1.30542E+01 0.00000E+00
 -1      3586 1.18035E+02 1.43532E+01 0.00000E+00
 -1      3587 1.23285E+02 1.30542E+01 0.00000E+00
 -1      3588 1.21785E+02 1.30542E+01 0.00000E+00
 -1      3589 1.21035E+02 1.43532E+01 0.00000E+00
 -1      3590 1.26285E+02 1.30542E+01 0.00000E+00
 -1      3591 1.24785E+02 1.30542E+01 0.00000E+00
 -1      3592 1.24035E+02 1.43532E+01 0.00000E+00
 -1      3593 1.29285E+02 1.30542E+01 0.00000E+00
 -1      3594 1.27785E+02 1.30542E+01 0.00000E+00
 -1      3595 1.27035E+02 1.43532E+01 0.00000E+00
 -1      3596 1.32285E+02 1.30542E+01 0.00000E+00
 -1      3597 1.30785E+02 1.30542E+01 0.00000E+00
 -1      3598 1.30035E+02 1.43532E+01 0.00000E+00
 -1      3599 1.35285E+02 1.30542E+01 0.00000E+00
 -1      3600 1.33785E+02 1.30542E+01 0.00000E+00
 -1      3601 1.33035E+02 1.43532E+01 0.00000E+00
 -1      3602 3.71998E+01 1.27144E+01 0.00000E+00
 -1      3603 3.20566E+01 2.75166E+01 0.00000E+00
 -1      3604 3.17650E+01 2.62712E+01 0.00000E+00
 -1      3605 2.42850E+01 1.30992E+01 0.00000E+00
 -1      3606 2.27850E+01 1.30992E+01 0.00000E+00
 -1      3607 1.38528E+02 1.44093E+01 0.00000E+00
 -1      3608 1.38594E+02 1.31690E+01 0.00000E+00
 -1      3609 1.37668E+02 1.30467E+01 0.00000E+00
 -1      3610 1.37229E+02 1.51406E+01 0.00000E+00
 -1      3611 5.99927E+01 3.38206E+01 0.00000E+00
 -1      3612 5.92002E+01 3.48495E+01 0.00000E+00
 -1      3613 2.72850E+01 1.30992E+01 0.00000E+00
 -1      3614 2.57850E+01 1.30992E+01 0.00000E+00
 -1      3615 2.50350E+01 1.43982E+01 0.00000E+00
 -1      3616 1.35711E+02 2.72000E+01 0.00000E+00
 -1      3617 1.35711E+02 2.57500E+01 0.00000E+00
 -1      3618 3.51799E+01 1.52332E+01 0.00000E+00
 -1      3619 3.61899E+01 1.39738E+01 0.00000E+00
 -1      3620 3.60251E+01 1.30597E+01 0.00000E+00
 -1      3621 3.31517E+01 1.75594E+01 0.00000E+00
 -1      3622 3.39872E+01 1.62256E+01 0.00000E+00
 -1      3623 3.02850E+01 1.30992E+01 0.00000E+00
 -1      3624 2.87850E+01 1.30992E+01 0.00000E+00
 -1      3625 2.80350E+01 1.43982E+01 0.00000E+00
 -1      3626 6.32850E+01 1.30542E+01 0.00000E+00
 -1      3627 6.17850E+01 1.30542E+01 0.00000E+00
 -1      3628 6.40350E+01 1.43532E+01 0.00000E+00
 -1      3629 6.05205E+01 1.44353E+01 0.00000E+00
 -1      3630 5.83541E+01 3.60899E+01 0.00000E+00
 -1      3631 1.74000E+01 3.57110E+01 0.00000E+00
 -1      3632 1.89000E+01 3.57110E+01 0.00000E+00
 -1      3633 1.16910E+01 2.71844E+01 0.00000E+00
 -1      3634 1.16910E+01 2.86531E+01 0.00000E+00
 -1      3635 1.29900E+01 2.93875E+01 0.00000E+00
 -1      3636 6.13521E+01 2.07219E+01 0.00000E+00
 -1      3637 6.17994E+01 2.18179E+01 0.00000E+00
 -1      3638 6.20175E+01 1.96033E+01 0.00000E+00
 -1      3639 2.04000E+01 3.57110E+01 0.00000E+00
 -1      3640 2.19000E+01 3.57110E+01 0.00000E+00
 -1      3641 2.26500E+01 3.44120E+01 0.00000E+00
 -1      3642 3.13222E+01 2.46894E+01 0.00000E+00
 -1      3643 3.12795E+01 2.31349E+01 0.00000E+00
 -1      3644 1.48763E+01 1.22006E+01 0.00000E+00
 -1      3645 1.44900E+01 1.32000E+01 0.00000E+00
 -1      3646 1.63762E+01 1.22006E+01 0.00000E+00
 -1      3647 6.14904E+01 1.58610E+01 0.00000E+00
 -1      3648 5.94961E+01 3.61498E+01 0.00000E+00
 -1      3649 1.96500E+01 3.44120E+01 0.00000E+00
 -1      3650 6.26882E+01 2.26514E+01 0.00000E+00
 -1      3651 6.35770E+01 2.34849E+01 0.00000E+00
 -1      3652 6.33536E+01 2.15328E+01 0.00000E+00
 -1      3653 2.95320E+01 2.28118E+01 0.00000E+00
 -1      3654 3.07029E+01 2.20019E+01 0.00000E+00
 -1      3655 3.01263E+01 2.08688E+01 0.00000E+00
 -1      3656 6.28795E+01 2.66567E+01 0.00000E+00
 -1      3657 6.34575E+01 2.78008E+01 0.00000E+00
 -1      3658 6.34896E+01 2.57476E+01 0.00000E+00
 -1      3659 6.12049E+01 3.37711E+01 0.00000E+00
 -1      3660 6.24575E+01 3.06713E+01 0.00000E+00
 -1      3661 6.27534E+01 3.18479E+01 0.00000E+00
 -1      3662 6.31433E+01 2.98864E+01 0.00000E+00
 -1      3663 3.24000E+01 3.57110E+01 0.00000E+00
 -1      3664 3.39000E+01 3.57110E+01 0.00000E+00
 -1      3665 1.29900E+01 2.64469E+01 0.00000E+00
 -1      3666 3.15412E+01 2.97262E+01 0.00000E+00
 -1      3667 3.17989E+01 2.86214E+01 0.00000E+00
 -1      3668 3.07365E+01 2.82133E+01 0.00000E+00
 -1      3669 6.09961E+01 3.61498E+01 0.00000E+00
 -1      3670 3.18323E+01 1.40520E+01 0.00000E+00
 -1      3671 3.10823E+01 1.53510E+01 0.00000E+00
 -1      3672 1.34022E+02 3.62990E+01 0.00000E+00
 -1      3673 1.35329E+02 3.63150E+01 0.00000E+00
 -1      3674 1.35515E+02 3.54157E+01 0.00000E+00
 -1      3675 1.33272E+02 3.50000E+01 0.00000E+00
 -1      3676 3.38224E+01 1.53114E+01 0.00000E+00
 -1      3677 1.35773E+02 1.52704E+01 0.00000E+00
 -1      3678 1.35992E+02 1.42234E+01 0.00000E+00
 -1      3679 1.43324E+01 3.38479E+01 0.00000E+00
 -1      3680 1.48200E+01 3.54019E+01 0.00000E+00
 -1      3681 1.61624E+01 3.54560E+01 0.00000E+00
 -1      3682 1.34412E+02 2.50031E+01 0.00000E+00
 -1      3683 1.35711E+02 2.42781E+01 0.00000E+00
 -1      3684 1.35711E+02 2.28062E+01 0.00000E+00
 -1      3685 1.36742E+02 1.29244E+01 0.00000E+00
 -1      3686 1.43324E+01 3.23792E+01 0.00000E+00
 -1      3687 1.56748E+01 3.24333E+01 0.00000E+00
 -1      3688 1.43324E+01 3.09104E+01 0.00000E+00
 -1      3689 6.17461E+01 3.48508E+01 0.00000E+00
 -1      3690 2.20350E+01 1.43983E+01 0.00000E+00
 -1      3691 2.12850E+01 1.30993E+01 0.00000E+00
 -1      3692 1.35711E+02 2.86750E+01 0.00000E+00
 -1      3693 1.34412E+02 2.79500E+01 0.00000E+00
 -1      3694 1.35711E+02 3.01500E+01 0.00000E+00
 -1      3695 3.45251E+01 1.30597E+01 0.00000E+00
 -1      3696 1.99669E+01 1.29495E+01 0.00000E+00
 -1      3697 3.34276E+01 3.19075E+01 0.00000E+00
 -1      3698 3.25027E+01 3.13623E+01 0.00000E+00
 -1      3699 3.19635E+01 1.81813E+01 0.00000E+00
 -1      3700 3.14414E+01 1.69258E+01 0.00000E+00
 -1      3701 3.07752E+01 1.88033E+01 0.00000E+00
 -1      3702 1.35711E+02 1.84000E+01 0.00000E+00
 -1      3703 1.35711E+02 1.69250E+01 0.00000E+00
 -1      3704 3.05514E+01 2.55267E+01 0.00000E+00
 -1      3705 3.35839E+01 3.27256E+01 0.00000E+00
 -1      3706 1.69124E+01 3.41570E+01 0.00000E+00
 -1      3707 3.48547E+01 3.40302E+01 0.00000E+00
 -1      3708 1.44900E+01 1.46719E+01 0.00000E+00
 -1      3709 1.42890E+01 2.27625E+01 0.00000E+00
 -1      3710 1.42890E+01 2.42375E+01 0.00000E+00
 -1      3711 1.42890E+01 1.98250E+01 0.00000E+00
 -1      3712 1.42890E+01 2.12938E+01 0.00000E+00
 -1      3713 1.55880E+01 2.20313E+01 0.00000E+00
 -1      3714 1.35702E+02 3.45164E+01 0.00000E+00
 -1      3715 1.35888E+02 3.36172E+01 0.00000E+00
 -1      3716 1.34580E+02 3.43086E+01 0.00000E+00
 -1      3717 1.34473E+02 1.60079E+01 0.00000E+00
 -1      3718 3.16500E+01 3.44120E+01 0.00000E+00
 -1      3719 1.35888E+02 3.21422E+01 0.00000E+00
 -1      3720 2.49000E+01 3.31130E+01 0.00000E+00
 -1      3721 2.64000E+01 3.31130E+01 0.00000E+00
 -1      3722 2.19000E+01 3.31130E+01 0.00000E+00
 -1      3723 2.34000E+01 3.31130E+01 0.00000E+00
 -1      3724 2.41500E+01 3.18140E+01 0.00000E+00
 -1      3725 2.79000E+01 3.31130E+01 0.00000E+00
 -1      3726 2.94000E+01 3.31130E+01 0.00000E+00
 -1      3727 2.71500E+01 3.18140E+01 0.00000E+00
 -1      3728 1.34589E+02 3.14172E+01 0.00000E+00
 -1      3729 6.26088E+01 3.37125E+01 0.00000E+00
 -1      3730 1.61498E+01 1.48631E+01 0.00000E+00
 -1      3731 1.46498E+01 1.63350E+01 0.00000E+00
 -1      3732 3.30251E+01 1.30597E+01 0.00000E+00
 -1      3733 6.69000E+01 3.34932E+01 0.00000E+00
 -1      3734 6.84000E+01 3.34932E+01 0.00000E+00
 -1      3735 6.99000E+01 3.34932E+01 0.00000E+00
 -1      3736 7.14000E+01 3.34932E+01 0.00000E+00
 -1      3737 6.91500E+01 3.21942E+01 0.00000E+00
 -1      3738 7.29000E+01 3.34932E+01 0.00000E+00
 -1      3739 7.44000E+01 3.34932E+01 0.00000E+00
 -1      3740 7.21500E+01 3.21942E+01 0.00000E+00
 -1      3741 7.59000E+01 3.34932E+01 0.00000E+00
 -1      3742 7.74000E+01 3.34932E+01 0.00000E+00
 -1      3743 7.51500E+01 3.21942E+01 0.00000E+00
 -1      3744 7.89000E+01 3.34932E+01 0.00000E+00
 -1      3745 8.04000E+01 3.34932E+01 0.00000E+00
 -1      3746 7.81500E+01 3.21942E+01 0.00000E+00
 -1      3747 8.19000E+01 3.34932E+01 0.00000E+00
 -1      3748 8.34000E+01 3.34932E+01 0.00000E+00
 -1      3749 8.11500E+01 3.21942E+01 0.00000E+00
 -1      3750 8.49000E+01 3.34932E+01 0.00000E+00
 -1      3751 8.64000E+01 3.34932E+01 0.00000E+00
 -1      3752 8.41500E+01 3.21942E+01 0.00000E+00
 -1      3753 8.79000E+01 3.34932E+01 0.00000E+00
 -1      3754 8.94000E+01 3.34932E+01 0.00000E+00
 -1      3755 8.71500E+01 3.21942E+01 0.00000E+00
 -1      3756 9.09000E+01 3.34932E+01 0.00000E+00
 -1      3757 9.24000E+01 3.34932E+01 0.00000E+00
 -1      3758 9.01500E+01 3.21942E+01 0.00000E+00
 -1      3759 9.39000E+01 3.34932E+01 0.00000E+00
 -1      3760 9.54000E+01 3.34932E+01 0.00000E+00
 -1      3761 9.31500E+01 3.21942E+01 0.00000E+00
 -1      3762 9.69000E+01 3.34932E+01 0.00000E+00
 -1      3763 9.84000E+01 3.34932E+01 0.00000E+00
 -1      3764 9.61500E+01 3.21942E+01 0.00000E+00
 -1      3765 9.99000E+01 3.34932E+01 0.00000E+00
 -1      3766 1.01400E+02 3.34932E+01 0.00000E+00
 -1      3767 9.91500E+01 3.21942E+01 0.00000E+00
 -1      3768 1.02900E+02 3.34932E+01 0.00000E+00
 -1      3769 1.04400E+02 3.34932E+01 0.00000E+00
 -1      3770 1.02150E+02 3.21942E+01 0.00000E+00
 -1      3771 1.05900E+02 3.34932E+01 0.00000E+00
 -1      3772 1.07400E+02 3.34932E+01 0.00000E+00
 -1      3773 1.05150E+02 3.21942E+01 0.00000E+00
 -1      3774 1.08900E+02 3.34932E+01 0.00000E+00
 -1      3775 1.10400E+02 3.34932E+01 0.00000E+00
 -1      3776 1.08150E+02 3.21942E+01 0.00000E+00
 -1      3777 1.11900E+02 3.34932E+01 0.00000E+00
 -1      3778 1.13400E+02 3.34932E+01 0.00000E+00
 -1      3779 1.11150E+02 3.21942E+01 0.00000E+00
 -1      3780 1.14900E+02 3.34932E+01 0.00000E+00
 -1      3781 1.16400E+02 3.34932E+01 0.00000E+00
 -1      3782 1.14150E+02 3.21942E+01 0.00000E+00
 -1      3783 1.17900E+02 3.34932E+01 0.00000E+00
 -1      3784 1.19400E+02 3.34932E+01 0.00000E+00
 -1      3785 1.17150E+02 3.21942E+01 0.00000E+00
 -1      3786 1.20900E+02 3.34932E+01 0.00000E+00
 -1      3787 1.22400E+02 3.34932E+01 0.00000E+00
 -1      3788 1.20150E+02 3.21942E+01 0.00000E+00
 -1      3789 1.23900E+02 3.34932E+01 0.00000E+00
 -1      3790 1.25400E+02 3.34932E+01 0.00000E+00
 -1      3791 1.23150E+02 3.21942E+01 0.00000E+00
 -1      3792 1.26900E+02 3.34932E+01 0.00000E+00
 -1      3793 1.28400E+02 3.34932E+01 0.00000E+00
 -1      3794 1.26150E+02 3.21942E+01 0.00000E+00
 -1      3795 1.29900E+02 3.34932E+01 0.00000E+00
 -1      3796 1.31400E+02 3.34932E+01 0.00000E+00
 -1      3797 1.29150E+02 3.21942E+01 0.00000E+00
 -1      3798 1.32973E+02 1.60079E+01 0.00000E+00
 -1      3799 3.12760E+01 3.35011E+01 0.00000E+00
 -1      3800 3.27760E+01 3.35011E+01 0.00000E+00
 -1      3801 7.37850E+01 1.56522E+01 0.00000E+00
 -1      3802 7.22850E+01 1.56522E+01 0.00000E+00
 -1      3803 2.98941E+01 1.59730E+01 0.00000E+00
 -1      3804 6.77850E+01 1.56522E+01 0.00000E+00
 -1      3805 6.62850E+01 1.56522E+01 0.00000E+00
 -1      3806 7.67850E+01 1.56522E+01 0.00000E+00
 -1      3807 7.52850E+01 1.56522E+01 0.00000E+00
 -1      3808 7.45350E+01 1.69512E+01 0.00000E+00
 -1      3809 7.97850E+01 1.56522E+01 0.00000E+00
 -1      3810 7.82850E+01 1.56522E+01 0.00000E+00
 -1      3811 7.75350E+01 1.69512E+01 0.00000E+00
 -1      3812 8.27850E+01 1.56522E+01 0.00000E+00
 -1      3813 8.12850E+01 1.56522E+01 0.00000E+00
 -1      3814 8.05350E+01 1.69512E+01 0.00000E+00
 -1      3815 8.57850E+01 1.56522E+01 0.00000E+00
 -1      3816 8.42850E+01 1.56522E+01 0.00000E+00
 -1      3817 8.35350E+01 1.69512E+01 0.00000E+00
 -1      3818 8.87850E+01 1.56522E+01 0.00000E+00
 -1      3819 8.72850E+01 1.56522E+01 0.00000E+00
 -1      3820 8.65350E+01 1.69512E+01 0.00000E+00
 -1      3821 9.17850E+01 1.56522E+01 0.00000E+00
 -1      3822 9.02850E+01 1.56522E+01 0.00000E+00
 -1      3823 8.95350E+01 1.69512E+01 0.00000E+00
 -1      3824 9.47850E+01 1.56522E+01 0.00000E+00
 -1      3825 9.32850E+01 1.56522E+01 0.00000E+00
 -1      3826 9.25350E+01 1.69512E+01 0.00000E+00
 -1      3827 9.77850E+01 1.56522E+01 0.00000E+00
 -1      3828 9.62850E+01 1.56522E+01 0.00000E+00
 -1      3829 9.55350E+01 1.69512E+01 0.00000E+00
 -1      3830 1.00785E+02 1.56522E+01 0.00000E+00
 -1      3831 9.92850E+01 1.56522E+01 0.00000E+00
 -1      3832 9.85350E+01 1.69512E+01 0.00000E+00
 -1      3833 1.03785E+02 1.56522E+01 0.00000E+00
 -1      3834 1.02285E+02 1.56522E+01 0.00000E+00
 -1      3835 1.01535E+02 1.69512E+01 0.00000E+00
 -1      3836 1.06785E+02 1.56522E+01 0.00000E+00
 -1      3837 1.05285E+02 1.56522E+01 0.00000E+00
 -1      3838 1.04535E+02 1.69512E+01 0.00000E+00
 -1      3839 1.09785E+02 1.56522E+01 0.00000E+00
 -1      3840 1.08285E+02 1.56522E+01 0.00000E+00
 -1      3841 1.07535E+02 1.69512E+01 0.00000E+00
 -1      3842 1.12785E+02 1.56522E+01 0.00000E+00
 -1      3843 1.11285E+02 1.56522E+01 0.00000E+00
 -1      3844 1.10535E+02 1.69512E+01 0.00000E+00
 -1      3845 1.15785E+02 1.56522E+01 0.00000E+00
 -1      3846 1.14285E+02 1.56522E+01 0.00000E+00
 -1      3847 1.13535E+02 1.69512E+01 0.00000E+00
 -1      3848 1.18785E+02 1.56522E+01 0.00000E+00
 -1      3849 1.17285E+02 1.56522E+01 0.00000E+00
 -1      3850 1.16535E+02 1.69512E+01 0.00000E+00
 -1      3851 1.21785E+02 1.56522E+01 0.00000E+00
 -1      3852 1.20285E+02 1.56522E+01 0.00000E+00
 -1      3853 1.19535E+02 1.69512E+01 0.00000E+00
 -1      3854 1.24785E+02 1.56522E+01 0.00000E+00
 -1      3855 1.23285E+02 1.56522E+01 0.00000E+00
 -1      3856 1.22535E+02 1.69512E+01 0.00000E+00
 -1      3857 1.27785E+02 1.56522E+01 0.00000E+00
 -1      3858 1.26285E+02 1.56522E+01 0.00000E+00
 -1      3859 1.25535E+02 1.69512E+01 0.00000E+00
 -1      3860 1.30785E+02 1.56522E+01 0.00000E+00
 -1      3861 1.29285E+02 1.56522E+01 0.00000E+00
 -1      3862 1.28535E+02 1.69512E+01 0.00000E+00
 -1      3863 6.34311E+01 3.27802E+01 0.00000E+00
 -1      3864 6.39723E+01 3.38599E+01 0.00000E+00
 -1      3865 6.54723E+01 3.38599E+01 0.00000E+00
 -1      3866 6.41168E+01 3.19953E+01 0.00000E+00
 -1      3867 2.27850E+01 1.56973E+01 0.00000E+00
 -1      3868 2.12851E+01 1.56973E+01 0.00000E+00
 -1      3869 2.57850E+01 1.56973E+01 0.00000E+00
 -1      3870 2.42850E+01 1.56973E+01 0.00000E+00
 -1      3871 2.35351E+01 1.69963E+01 0.00000E+00
 -1      3872 1.69124E+01 3.26883E+01 0.00000E+00
 -1      3873 1.81500E+01 3.29432E+01 0.00000E+00
 -1      3874 1.69124E+01 3.12195E+01 0.00000E+00
 -1      3875 2.85896E+01 1.58351E+01 0.00000E+00
 -1      3876 2.70896E+01 1.58351E+01 0.00000E+00
 -1      3877 2.63396E+01 1.71341E+01 0.00000E+00
 -1      3878 2.89486E+01 1.74099E+01 0.00000E+00
 -1      3879 6.47850E+01 1.56522E+01 0.00000E+00
 -1      3880 6.32850E+01 1.56522E+01 0.00000E+00
 -1      3881 6.55350E+01 1.69512E+01 0.00000E+00
 -1      3882 2.96243E+01 2.66391E+01 0.00000E+00
 -1      3883 2.91815E+01 2.50573E+01 0.00000E+00
 -1      3884 1.42890E+01 2.57094E+01 0.00000E+00
 -1      3885 1.42890E+01 2.71812E+01 0.00000E+00
 -1      3886 1.55880E+01 2.49719E+01 0.00000E+00
 -1      3887 1.43107E+01 2.83115E+01 0.00000E+00
 -1      3888 1.43107E+01 2.97802E+01 0.00000E+00
 -1      3889 1.56531E+01 2.98344E+01 0.00000E+00
 -1      3890 1.56097E+01 2.75740E+01 0.00000E+00
 -1      3891 6.28982E+01 1.86047E+01 0.00000E+00
 -1      3892 6.33455E+01 1.97007E+01 0.00000E+00
 -1      3893 1.88306E+01 1.26499E+01 0.00000E+00
 -1      3894 1.75125E+01 1.25001E+01 0.00000E+00
 -1      3895 1.71263E+01 1.34996E+01 0.00000E+00
 -1      3896 1.93988E+01 1.40987E+01 0.00000E+00
 -1      3897 1.46498E+01 1.78069E+01 0.00000E+00
 -1      3898 1.35711E+02 2.13391E+01 0.00000E+00
 -1      3899 1.35711E+02 1.98672E+01 0.00000E+00
 -1      3900 1.34412E+02 1.91297E+01 0.00000E+00
 -1      3901 1.34412E+02 2.20641E+01 0.00000E+00
 -1      3902 7.07850E+01 1.56522E+01 0.00000E+00
 -1      3903 6.92850E+01 1.56522E+01 0.00000E+00
 -1      3904 6.85350E+01 1.69512E+01 0.00000E+00
 -1      3905 7.15350E+01 1.69512E+01 0.00000E+00
 -1      3906 6.22404E+01 1.71600E+01 0.00000E+00
 -1      3907 1.92750E+01 3.30281E+01 0.00000E+00
 -1      3908 2.07750E+01 3.30281E+01 0.00000E+00
 -1      3909 2.15250E+01 3.17291E+01 0.00000E+00
 -1      3910 1.92750E+01 3.15594E+01 0.00000E+00
 -1      3911 1.32223E+02 1.73069E+01 0.00000E+00
 -1      3912 3.05260E+01 3.22021E+01 0.00000E+00
 -1      3913 6.41306E+01 1.78266E+01 0.00000E+00
 -1      3914 6.23360E+01 1.80354E+01 0.00000E+00
 -1      3915 6.51149E+01 1.95355E+01 0.00000E+00
 -1      3916 6.42342E+01 2.05341E+01 0.00000E+00
 -1      3917 6.51230E+01 2.13676E+01 0.00000E+00
 -1      3918 6.56306E+01 1.78266E+01 0.00000E+00
 -1      3919 6.65193E+01 1.86601E+01 0.00000E+00
 -1      3920 2.86049E+01 2.39242E+01 0.00000E+00
 -1      3921 2.80282E+01 2.27911E+01 0.00000E+00
 -1      3922 2.76777E+01 2.50366E+01 0.00000E+00
 -1      3923 6.41550E+01 2.46290E+01 0.00000E+00
 -1      3924 6.47330E+01 2.57731E+01 0.00000E+00
 -1      3925 6.48204E+01 2.35103E+01 0.00000E+00
 -1      3926 6.40708E+01 2.90277E+01 0.00000E+00
 -1      3927 6.43666E+01 3.02043E+01 0.00000E+00
 -1      3928 1.72861E+01 1.51627E+01 0.00000E+00
 -1      3929 1.33458E+02 3.41007E+01 0.00000E+00
 -1      3930 6.62223E+01 3.25609E+01 0.00000E+00
 -1      3931 1.32708E+02 3.28017E+01 0.00000E+00
 -1      3932 6.46809E+01 2.81187E+01 0.00000E+00
 -1      3933 3.44807E+01 3.31193E+01 0.00000E+00
 -1      3934 1.33113E+02 2.57391E+01 0.00000E+00
 -1      3935 1.33113E+02 2.42672E+01 0.00000E+00
 -1      3936 1.32531E+02 3.08096E+01 0.00000E+00
 -1      3937 3.06268E+01 3.09742E+01 0.00000E+00
 -1      3938 1.33113E+02 2.86891E+01 0.00000E+00
 -1      3939 1.33113E+02 2.72141E+01 0.00000E+00
 -1      3940 1.31814E+02 2.64781E+01 0.00000E+00
 -1      3941 2.08988E+01 1.66967E+01 0.00000E+00
 -1      3942 2.01488E+01 1.53977E+01 0.00000E+00
 -1      3943 1.90125E+01 1.50981E+01 0.00000E+00
 -1      3944 2.97985E+01 1.97671E+01 0.00000E+00
 -1      3945 2.92764E+01 1.85116E+01 0.00000E+00
 -1      3946 2.79719E+01 1.83737E+01 0.00000E+00
 -1      3947 2.86276E+01 2.05771E+01 0.00000E+00
 -1      3948 1.68870E+01 2.42359E+01 0.00000E+00
 -1      3949 1.68870E+01 2.57078E+01 0.00000E+00
 -1      3950 2.93666E+01 2.77439E+01 0.00000E+00
 -1      3951 2.79967E+01 2.72745E+01 0.00000E+00
 -1      3952 2.91089E+01 2.88487E+01 0.00000E+00
 -1      3953 1.59488E+01 1.85444E+01 0.00000E+00
 -1      3954 1.32223E+02 2.02412E+01 0.00000E+00
 -1      3955 1.32223E+02 1.87740E+01 0.00000E+00
 -1      3956 1.30035E+02 1.84184E+01 0.00000E+00
 -1      3957 1.68870E+01 2.12984E+01 0.00000E+00
 -1      3958 1.68870E+01 2.27672E+01 0.00000E+00
 -1      3959 1.81860E+01 2.35031E+01 0.00000E+00
 -1      3960 2.34000E+01 3.05150E+01 0.00000E+00
 -1      3961 2.49000E+01 3.05150E+01 0.00000E+00
 -1      3962 2.66945E+01 3.00967E+01 0.00000E+00
 -1      3963 2.81945E+01 3.00967E+01 0.00000E+00
 -1      3964 1.80361E+01 1.64617E+01 0.00000E+00
 -1      3965 8.12850E+01 1.82502E+01 0.00000E+00
 -1      3966 7.97850E+01 1.82502E+01 0.00000E+00
 -1      3967 6.84000E+01 3.08952E+01 0.00000E+00
 -1      3968 6.99000E+01 3.08952E+01 0.00000E+00
 -1      3969 2.95644E+01 3.05661E+01 0.00000E+00
 -1      3970 7.14000E+01 3.08952E+01 0.00000E+00
 -1      3971 7.29000E+01 3.08952E+01 0.00000E+00
 -1      3972 7.06500E+01 2.95962E+01 0.00000E+00
 -1      3973 7.44000E+01 3.08952E+01 0.00000E+00
 -1      3974 7.59000E+01 3.08952E+01 0.00000E+00
 -1      3975 7.36500E+01 2.95962E+01 0.00000E+00
 -1      3976 7.74000E+01 3.08952E+01 0.00000E+00
 -1      3977 7.89000E+01 3.08952E+01 0.00000E+00
 -1      3978 7.66500E+01 2.95962E+01 0.00000E+00
 -1      3979 8.04000E+01 3.08952E+01 0.00000E+00
 -1      3980 8.19000E+01 3.08952E+01 0.00000E+00
 -1      3981 7.96500E+01 2.95962E+01 0.00000E+00
 -1      3982 8.34000E+01 3.08952E+01 0.00000E+00
 -1      3983 8.49000E+01 3.08952E+01 0.00000E+00
 -1      3984 8.26500E+01 2.95962E+01 0.00000E+00
 -1      3985 8.64000E+01 3.08952E+01 0.00000E+00
 -1      3986 8.79000E+01 3.08952E+01 0.00000E+00
 -1      3987 8.56500E+01 2.95962E+01 0.00000E+00
 -1      3988 8.94000E+01 3.08952E+01 0.00000E+00
 -1      3989 9.09000E+01 3.08952E+01 0.00000E+00
 -1      3990 8.86500E+01 2.95962E+01 0.00000E+00
 -1      3991 9.24000E+01 3.08952E+01 0.00000E+00
 -1      3992 9.39000E+01 3.08952E+01 0.00000E+00
 -1      3993 9.16500E+01 2.95962E+01 0.00000E+00
 -1      3994 9.54000E+01 3.08952E+01 0.00000E+00
 -1      3995 9.69000E+01 3.08952E+01 0.00000E+00
 -1      3996 9.46500E+01 2.95962E+01 0.00000E+00
 -1      3997 9.84000E+01 3.08952E+01 0.00000E+00
 -1      3998 9.99000E+01 3.08952E+01 0.00000E+00
 -1      3999 9.76500E+01 2.95962E+01 0.00000E+00
 -1      4000 1.01400E+02 3.08952E+01 0.00000E+00
 -1      4001 1.02900E+02 3.08952E+01 0.00000E+00
 -1      4002 1.00650E+02 2.95962E+01 0.00000E+00
 -1      4003 1.04400E+02 3.08952E+01 0.00000E+00
 -1      4004 1.05900E+02 3.08952E+01 0.00000E+00
 -1      4005 1.03650E+02 2.95962E+01 0.00000E+00
 -1      4006 1.07400E+02 3.08952E+01 0.00000E+00
 -1      4007 1.08900E+02 3.08952E+01 0.00000E+00
 -1      4008 1.06650E+02 2.95962E+01 0.00000E+00
 -1      4009 1.10400E+02 3.08952E+01 0.00000E+00
 -1      4010 1.11900E+02 3.08952E+01 0.00000E+00
 -1      4011 1.09650E+02 2.95962E+01 0.00000E+00
 -1      4012 1.13400E+02 3.08952E+01 0.00000E+00
 -1      4013 1.14900E+02 3.08952E+01 0.00000E+00
 -1      4014 1.12650E+02 2.95962E+01 0.00000E+00
 -1      4015 1.16400E+02 3.08952E+01 0.00000E+00
 -1      4016 1.17900E+02 3.08952E+01 0.00000E+00
 -1      4017 1.15650E+02 2.95962E+01 0.00000E+00
 -1      4018 1.19400E+02 3.08952E+01 0.00000E+00
 -1      4019 1.20900E+02 3.08952E+01 0.00000E+00
 -1      4020 1.18650E+02 2.95962E+01 0.00000E+00
 -1      4021 1.22400E+02 3.08952E+01 0.00000E+00
 -1      4022 1.23900E+02 3.08952E+01 0.00000E+00
 -1      4023 1.21650E+02 2.95962E+01 0.00000E+00
 -1      4024 1.25400E+02 3.08952E+01 0.00000E+00
 -1      4025 1.26900E+02 3.08952E+01 0.00000E+00
 -1      4026 1.24650E+02 2.95962E+01 0.00000E+00
 -1      4027 1.28400E+02 3.08952E+01 0.00000E+00
 -1      4028 1.29900E+02 3.08952E+01 0.00000E+00
 -1      4029 1.27650E+02 2.95962E+01 0.00000E+00
 -1      4030 7.82850E+01 1.82502E+01 0.00000E+00
 -1      4031 7.67850E+01 1.82502E+01 0.00000E+00
 -1      4032 7.90350E+01 1.95492E+01 0.00000E+00
 -1      4033 6.65817E+01 2.15131E+01 0.00000E+00
 -1      4034 6.57011E+01 2.25117E+01 0.00000E+00
 -1      4035 6.62791E+01 2.36558E+01 0.00000E+00
 -1      4036 1.31232E+02 3.00737E+01 0.00000E+00
 -1      4037 7.52850E+01 1.82502E+01 0.00000E+00
 -1      4038 7.37850E+01 1.82502E+01 0.00000E+00
 -1      4039 7.60350E+01 1.95492E+01 0.00000E+00
 -1      4040 8.42850E+01 1.82502E+01 0.00000E+00
 -1      4041 8.27850E+01 1.82502E+01 0.00000E+00
 -1      4042 8.20350E+01 1.95492E+01 0.00000E+00
 -1      4043 8.72850E+01 1.82502E+01 0.00000E+00
 -1      4044 8.57850E+01 1.82502E+01 0.00000E+00
 -1      4045 8.50350E+01 1.95492E+01 0.00000E+00
 -1      4046 9.02850E+01 1.82502E+01 0.00000E+00
 -1      4047 8.87850E+01 1.82502E+01 0.00000E+00
 -1      4048 8.80350E+01 1.95492E+01 0.00000E+00
 -1      4049 9.32850E+01 1.82502E+01 0.00000E+00
 -1      4050 9.17850E+01 1.82502E+01 0.00000E+00
 -1      4051 9.10350E+01 1.95492E+01 0.00000E+00
 -1      4052 9.62850E+01 1.82502E+01 0.00000E+00
 -1      4053 9.47850E+01 1.82502E+01 0.00000E+00
 -1      4054 9.40350E+01 1.95492E+01 0.00000E+00
 -1      4055 9.92850E+01 1.82502E+01 0.00000E+00
 -1      4056 9.77850E+01 1.82502E+01 0.00000E+00
 -1      4057 9.70350E+01 1.95492E+01 0.00000E+00
 -1      4058 1.02285E+02 1.82502E+01 0.00000E+00
 -1      4059 1.00785E+02 1.82502E+01 0.00000E+00
 -1      4060 1.00035E+02 1.95492E+01 0.00000E+00
 -1      4061 1.05285E+02 1.82502E+01 0.00000E+00
 -1      4062 1.03785E+02 1.82502E+01 0.00000E+00
 -1      4063 1.03035E+02 1.95492E+01 0.00000E+00
 -1      4064 1.08285E+02 1.82502E+01 0.00000E+00
 -1      4065 1.06785E+02 1.82502E+01 0.00000E+00
 -1      4066 1.06035E+02 1.95492E+01 0.00000E+00
 -1      4067 1.11285E+02 1.82502E+01 0.00000E+00
 -1      4068 1.09785E+02 1.82502E+01 0.00000E+00
 -1      4069 1.09035E+02 1.95492E+01 0.00000E+00
 -1      4070 1.14285E+02 1.82502E+01 0.00000E+00
 -1      4071 1.12785E+02 1.82502E+01 0.00000E+00
 -1      4072 1.12035E+02 1.95492E+01 0.00000E+00
 -1      4073 1.17285E+02 1.82502E+01 0.00000E+00
 -1      4074 1.15785E+02 1.82502E+01 0.00000E+00
 -1      4075 1.15035E+02 1.95492E+01 0.00000E+00
 -1      4076 1.20285E+02 1.82502E+01 0.00000E+00
 -1      4077 1.18785E+02 1.82502E+01 0.00000E+00
 -1      4078 1.18035E+02 1.95492E+01 0.00000E+00
 -1      4079 1.23285E+02 1.82502E+01 0.00000E+00
 -1      4080 1.21785E+02 1.82502E+01 0.00000E+00
 -1      4081 1.21035E+02 1.95492E+01 0.00000E+00
 -1      4082 1.26285E+02 1.82502E+01 0.00000E+00
 -1      4083 1.24785E+02 1.82502E+01 0.00000E+00
 -1      4084 1.24035E+02 1.95492E+01 0.00000E+00
 -1      4085 1.28910E+02 1.83343E+01 0.00000E+00
 -1      4086 1.27410E+02 1.83343E+01 0.00000E+00
 -1      4087 1.26660E+02 1.96333E+01 0.00000E+00
 -1      4088 1.28910E+02 1.98015E+01 0.00000E+00
 -1      4089 6.49556E+01 3.09164E+01 0.00000E+00
 -1      4090 6.56333E+01 3.18487E+01 0.00000E+00
 -1      4091 6.70610E+01 3.14820E+01 0.00000E+00
 -1      4092 6.58831E+01 3.00577E+01 0.00000E+00
 -1      4093 6.80193E+01 1.86601E+01 0.00000E+00
 -1      4094 6.75037E+01 2.03690E+01 0.00000E+00
 -1      4095 6.95193E+01 1.86601E+01 0.00000E+00
 -1      4096 2.42851E+01 1.82953E+01 0.00000E+00
 -1      4097 2.27851E+01 1.82953E+01 0.00000E+00
 -1      4098 1.68907E+01 3.00893E+01 0.00000E+00
 -1      4099 1.81283E+01 3.03443E+01 0.00000E+00
 -1      4100 1.68690E+01 2.89591E+01 0.00000E+00
 -1      4101 1.76419E+01 1.78710E+01 0.00000E+00
 -1      4102 1.72811E+01 1.98891E+01 0.00000E+00
 -1      4103 1.85801E+01 2.06251E+01 0.00000E+00
 -1      4104 1.93684E+01 1.78064E+01 0.00000E+00
 -1      4105 6.53463E+01 2.70000E+01 0.00000E+00
 -1      4106 6.59596E+01 2.82270E+01 0.00000E+00
 -1      4107 6.60117E+01 2.58814E+01 0.00000E+00
 -1      4108 1.32668E+02 2.29878E+01 0.00000E+00
 -1      4109 1.32668E+02 2.15206E+01 0.00000E+00
 -1      4110 1.30480E+02 2.11650E+01 0.00000E+00
 -1      4111 1.31369E+02 2.37237E+01 0.00000E+00
 -1      4112 2.68284E+01 2.61821E+01 0.00000E+00
 -1      4113 2.62518E+01 2.50490E+01 0.00000E+00
 -1      4114 6.78875E+01 2.83522E+01 0.00000E+00
 -1      4115 6.72221E+01 2.94709E+01 0.00000E+00
 -1      4116 1.30482E+02 2.87747E+01 0.00000E+00
 -1      4117 2.67733E+01 2.28019E+01 0.00000E+00
 -1      4118 2.77004E+01 2.16895E+01 0.00000E+00
 -1      4119 2.73726E+01 2.05878E+01 0.00000E+00
 -1      4120 6.80817E+01 2.15131E+01 0.00000E+00
 -1      4121 2.11500E+01 3.03452E+01 0.00000E+00
 -1      4122 2.22750E+01 3.04301E+01 0.00000E+00
 -1      4123 2.30250E+01 2.91311E+01 0.00000E+00
 -1      4124 2.57403E+01 1.93482E+01 0.00000E+00
 -1      4125 2.49903E+01 2.06472E+01 0.00000E+00
 -1      4126 2.16449E+01 1.82006E+01 0.00000E+00
 -1      4127 2.05086E+01 1.79011E+01 0.00000E+00
 -1      4128 2.01145E+01 1.93104E+01 0.00000E+00
 -1      4129 2.23949E+01 1.94996E+01 0.00000E+00
 -1      4130 1.92533E+01 3.04292E+01 0.00000E+00
 -1      4131 2.59445E+01 2.87977E+01 0.00000E+00
 -1      4132 7.24022E+01 1.84552E+01 0.00000E+00
 -1      4133 7.09022E+01 1.84552E+01 0.00000E+00
 -1      4134 7.03865E+01 2.01640E+01 0.00000E+00
 -1      4135 7.31522E+01 1.97542E+01 0.00000E+00
 -1      4136 2.65707E+01 2.72869E+01 0.00000E+00
 -1      4137 1.68671E+01 2.67684E+01 0.00000E+00
 -1      4138 1.68889E+01 2.78986E+01 0.00000E+00
 -1      4139 1.81264E+01 2.81535E+01 0.00000E+00
 -1      4140 1.81661E+01 2.60324E+01 0.00000E+00
 -1      4141 1.30365E+02 2.47900E+01 0.00000E+00
 -1      4142 1.29920E+02 2.35106E+01 0.00000E+00
 -1      4143 1.94850E+01 2.27687E+01 0.00000E+00
 -1      4144 1.94850E+01 2.42375E+01 0.00000E+00
 -1      4145 1.30423E+02 2.75198E+01 0.00000E+00
 -1      4146 1.30423E+02 2.60448E+01 0.00000E+00
 -1      4147 1.28974E+02 2.58316E+01 0.00000E+00
 -1      4148 1.29091E+02 2.83413E+01 0.00000E+00
 -1      4149 1.94651E+01 2.52981E+01 0.00000E+00
 -1      4150 1.94453E+01 2.63586E+01 0.00000E+00
 -1      4151 2.07641E+01 2.45637E+01 0.00000E+00
 -1      4152 6.81679E+01 2.68050E+01 0.00000E+00
 -1      4153 6.94304E+01 2.80489E+01 0.00000E+00
 -1      4154 2.59239E+01 2.39474E+01 0.00000E+00
 -1      4155 2.55961E+01 2.28457E+01 0.00000E+00
 -1      4156 2.50746E+01 2.50928E+01 0.00000E+00
 -1      4157 8.57850E+01 2.08482E+01 0.00000E+00
 -1      4158 8.42850E+01 2.08482E+01 0.00000E+00
 -1      4159 7.09304E+01 2.80489E+01 0.00000E+00
 -1      4160 7.29000E+01 2.82972E+01 0.00000E+00
 -1      4161 7.44000E+01 2.82972E+01 0.00000E+00
 -1      4162 7.59000E+01 2.82972E+01 0.00000E+00
 -1      4163 7.74000E+01 2.82972E+01 0.00000E+00
 -1      4164 7.51500E+01 2.69982E+01 0.00000E+00
 -1      4165 7.89000E+01 2.82972E+01 0.00000E+00
 -1      4166 8.04000E+01 2.82972E+01 0.00000E+00
 -1      4167 7.81500E+01 2.69982E+01 0.00000E+00
 -1      4168 8.19000E+01 2.82972E+01 0.00000E+00
 -1      4169 8.34000E+01 2.82972E+01 0.00000E+00
 -1      4170 8.11500E+01 2.69982E+01 0.00000E+00
 -1      4171 8.49000E+01 2.82972E+01 0.00000E+00
 -1      4172 8.64000E+01 2.82972E+01 0.00000E+00
 -1      4173 8.41500E+01 2.69982E+01 0.00000E+00
 -1      4174 8.79000E+01 2.82972E+01 0.00000E+00
 -1      4175 8.94000E+01 2.82972E+01 0.00000E+00
 -1      4176 8.71500E+01 2.69982E+01 0.00000E+00
 -1      4177 9.09000E+01 2.82972E+01 0.00000E+00
 -1      4178 9.24000E+01 2.82972E+01 0.00000E+00
 -1      4179 9.01500E+01 2.69982E+01 0.00000E+00
 -1      4180 9.39000E+01 2.82972E+01 0.00000E+00
 -1      4181 9.54000E+01 2.82972E+01 0.00000E+00
 -1      4182 9.31500E+01 2.69982E+01 0.00000E+00
 -1      4183 9.69000E+01 2.82972E+01 0.00000E+00
 -1      4184 9.84000E+01 2.82972E+01 0.00000E+00
 -1      4185 9.61500E+01 2.69982E+01 0.00000E+00
 -1      4186 9.99000E+01 2.82972E+01 0.00000E+00
 -1      4187 1.01400E+02 2.82972E+01 0.00000E+00
 -1      4188 9.91500E+01 2.69982E+01 0.00000E+00
 -1      4189 1.02900E+02 2.82972E+01 0.00000E+00
 -1      4190 1.04400E+02 2.82972E+01 0.00000E+00
 -1      4191 1.02150E+02 2.69982E+01 0.00000E+00
 -1      4192 1.05900E+02 2.82972E+01 0.00000E+00
 -1      4193 1.07400E+02 2.82972E+01 0.00000E+00
 -1      4194 1.05150E+02 2.69982E+01 0.00000E+00
 -1      4195 1.08900E+02 2.82972E+01 0.00000E+00
 -1      4196 1.10400E+02 2.82972E+01 0.00000E+00
 -1      4197 1.08150E+02 2.69982E+01 0.00000E+00
 -1      4198 1.11900E+02 2.82972E+01 0.00000E+00
 -1      4199 1.13400E+02 2.82972E+01 0.00000E+00
 -1      4200 1.11150E+02 2.69982E+01 0.00000E+00
 -1      4201 1.14900E+02 2.82972E+01 0.00000E+00
 -1      4202 1.16400E+02 2.82972E+01 0.00000E+00
 -1      4203 1.14150E+02 2.69982E+01 0.00000E+00
 -1      4204 1.17900E+02 2.82972E+01 0.00000E+00
 -1      4205 1.19400E+02 2.82972E+01 0.00000E+00
 -1      4206 1.17150E+02 2.69982E+01 0.00000E+00
 -1      4207 1.20900E+02 2.82972E+01 0.00000E+00
 -1      4208 1.22400E+02 2.82972E+01 0.00000E+00
 -1      4209 1.20150E+02 2.69982E+01 0.00000E+00
 -1      4210 1.23900E+02 2.82972E+01 0.00000E+00
 -1      4211 1.25400E+02 2.82972E+01 0.00000E+00
 -1      4212 1.23150E+02 2.69982E+01 0.00000E+00
 -1      4213 1.27591E+02 2.83413E+01 0.00000E+00
 -1      4214 7.97850E+01 2.08482E+01 0.00000E+00
 -1      4215 7.82850E+01 2.08482E+01 0.00000E+00
 -1      4216 2.66674E+01 1.82358E+01 0.00000E+00
 -1      4217 7.67850E+01 2.08482E+01 0.00000E+00
 -1      4218 7.52850E+01 2.08482E+01 0.00000E+00
 -1      4219 7.75350E+01 2.21472E+01 0.00000E+00
 -1      4220 8.87850E+01 2.08482E+01 0.00000E+00
 -1      4221 8.72850E+01 2.08482E+01 0.00000E+00
 -1      4222 8.65350E+01 2.21472E+01 0.00000E+00
 -1      4223 9.17850E+01 2.08482E+01 0.00000E+00
 -1      4224 9.02850E+01 2.08482E+01 0.00000E+00
 -1      4225 8.95350E+01 2.21472E+01 0.00000E+00
 -1      4226 9.47850E+01 2.08482E+01 0.00000E+00
 -1      4227 9.32850E+01 2.08482E+01 0.00000E+00
 -1      4228 9.25350E+01 2.21472E+01 0.00000E+00
 -1      4229 9.77850E+01 2.08482E+01 0.00000E+00
 -1      4230 9.62850E+01 2.08482E+01 0.00000E+00
 -1      4231 9.55350E+01 2.21472E+01 0.00000E+00
 -1      4232 1.00785E+02 2.08482E+01 0.00000E+00
 -1      4233 9.92850E+01 2.08482E+01 0.00000E+00
 -1      4234 9.85350E+01 2.21472E+01 0.00000E+00
 -1      4235 1.03785E+02 2.08482E+01 0.00000E+00
 -1      4236 1.02285E+02 2.08482E+01 0.00000E+00
 -1      4237 1.01535E+02 2.21472E+01 0.00000E+00
 -1      4238 1.06785E+02 2.08482E+01 0.00000E+00
 -1      4239 1.05285E+02 2.08482E+01 0.00000E+00
 -1      4240 1.04535E+02 2.21472E+01 0.00000E+00
 -1      4241 1.09785E+02 2.08482E+01 0.00000E+00
 -1      4242 1.08285E+02 2.08482E+01 0.00000E+00
 -1      4243 1.07535E+02 2.21472E+01 0.00000E+00
 -1      4244 1.12785E+02 2.08482E+01 0.00000E+00
 -1      4245 1.11285E+02 2.08482E+01 0.00000E+00
 -1      4246 1.10535E+02 2.21472E+01 0.00000E+00
 -1      4247 1.15785E+02 2.08482E+01 0.00000E+00
 -1      4248 1.14285E+02 2.08482E+01 0.00000E+00
 -1      4249 1.13535E+02 2.21472E+01 0.00000E+00
 -1      4250 1.18785E+02 2.08482E+01 0.00000E+00
 -1      4251 1.17285E+02 2.08482E+01 0.00000E+00
 -1      4252 1.16535E+02 2.21472E+01 0.00000E+00
 -1      4253 1.21785E+02 2.08482E+01 0.00000E+00
 -1      4254 1.20285E+02 2.08482E+01 0.00000E+00
 -1      4255 1.19535E+02 2.21472E+01 0.00000E+00
 -1      4256 1.24785E+02 2.08482E+01 0.00000E+00
 -1      4257 1.23285E+02 2.08482E+01 0.00000E+00
 -1      4258 1.22535E+02 2.21472E+01 0.00000E+00
 -1      4259 6.78110E+01 3.01830E+01 0.00000E+00
 -1      4260 2.47762E+01 2.77053E+01 0.00000E+00
 -1      4261 6.95542E+01 2.17561E+01 0.00000E+00
 -1      4262 6.86322E+01 2.29002E+01 0.00000E+00
 -1      4263 1.29637E+02 2.22957E+01 0.00000E+00
 -1      4264 1.29193E+02 2.10163E+01 0.00000E+00
 -1      4265 1.28068E+02 2.09323E+01 0.00000E+00
 -1      4266 1.28633E+02 2.33620E+01 0.00000E+00
 -1      4267 8.27850E+01 2.08482E+01 0.00000E+00
 -1      4268 8.12850E+01 2.08482E+01 0.00000E+00
 -1      4269 8.05350E+01 2.21472E+01 0.00000E+00
 -1      4270 6.69169E+01 2.46169E+01 0.00000E+00
 -1      4271 6.75301E+01 2.58439E+01 0.00000E+00
 -1      4272 6.90731E+01 2.55405E+01 0.00000E+00
 -1      4273 6.77975E+01 2.36183E+01 0.00000E+00
 -1      4274 2.36512E+01 2.76204E+01 0.00000E+00
 -1      4275 2.42774E+01 2.61096E+01 0.00000E+00
 -1      4276 2.25262E+01 2.75355E+01 0.00000E+00
 -1      4277 2.00033E+01 2.91302E+01 0.00000E+00
 -1      4278 2.47231E+01 2.16991E+01 0.00000E+00
 -1      4279 2.32679E+01 2.06462E+01 0.00000E+00
 -1      4280 2.21277E+01 2.05515E+01 0.00000E+00
 -1      4281 2.38738E+01 2.28446E+01 0.00000E+00
 -1      4282 7.16804E+01 2.67499E+01 0.00000E+00
 -1      4283 7.46522E+01 2.23522E+01 0.00000E+00
 -1      4284 7.39022E+01 2.10532E+01 0.00000E+00
 -1      4285 7.25193E+01 2.12581E+01 0.00000E+00
 -1      4286 1.26841E+02 2.70423E+01 0.00000E+00
 -1      4287 2.39496E+01 2.50080E+01 0.00000E+00
 -1      4288 1.26989E+02 2.09323E+01 0.00000E+00
 -1      4289 1.25864E+02 2.08482E+01 0.00000E+00
 -1      4290 1.25114E+02 2.21472E+01 0.00000E+00
 -1      4291 1.27271E+02 2.21471E+01 0.00000E+00
 -1      4292 8.35350E+01 2.21472E+01 0.00000E+00
 -1      4293 1.27837E+02 2.45768E+01 0.00000E+00
 -1      4294 1.27554E+02 2.33620E+01 0.00000E+00
 -1      4295 1.26475E+02 2.33620E+01 0.00000E+00
 -1      4296 7.09370E+01 2.15512E+01 0.00000E+00
 -1      4297 2.19682E+01 2.47639E+01 0.00000E+00
 -1      4298 2.19484E+01 2.58245E+01 0.00000E+00
 -1      4299 6.92700E+01 2.38613E+01 0.00000E+00
 -1      4300 1.94748E+01 2.12708E+01 0.00000E+00
 -1      4301 2.07738E+01 2.20051E+01 0.00000E+00
 -1      4302 2.00231E+01 2.80696E+01 0.00000E+00
 -1      4303 1.27895E+02 2.58317E+01 0.00000E+00
 -1      4304 2.27654E+01 2.37471E+01 0.00000E+00
 -1      4305 2.13221E+01 2.73352E+01 0.00000E+00
 -1      4306 9.02850E+01 2.34462E+01 0.00000E+00
 -1      4307 8.87850E+01 2.34462E+01 0.00000E+00
 -1      4308 7.74000E+01 2.56992E+01 0.00000E+00
 -1      4309 7.89000E+01 2.56992E+01 0.00000E+00
 -1      4310 8.08425E+01 2.45727E+01 0.00000E+00
 -1      4311 8.23425E+01 2.45727E+01 0.00000E+00
 -1      4312 8.38425E+01 2.45727E+01 0.00000E+00
 -1      4313 8.53425E+01 2.45727E+01 0.00000E+00
 -1      4314 8.90925E+01 2.58717E+01 0.00000E+00
 -1      4315 9.05925E+01 2.58717E+01 0.00000E+00
 -1      4316 9.24000E+01 2.56992E+01 0.00000E+00
 -1      4317 9.39000E+01 2.56992E+01 0.00000E+00
 -1      4318 9.58425E+01 2.45727E+01 0.00000E+00
 -1      4319 9.73425E+01 2.45727E+01 0.00000E+00
 -1      4320 9.88425E+01 2.45727E+01 0.00000E+00
 -1      4321 1.00342E+02 2.45727E+01 0.00000E+00
 -1      4322 1.01842E+02 2.45727E+01 0.00000E+00
 -1      4323 1.03342E+02 2.45727E+01 0.00000E+00
 -1      4324 1.04842E+02 2.45727E+01 0.00000E+00
 -1      4325 1.06342E+02 2.45727E+01 0.00000E+00
 -1      4326 1.07842E+02 2.45727E+01 0.00000E+00
 -1      4327 1.09342E+02 2.45727E+01 0.00000E+00
 -1      4328 1.10842E+02 2.45727E+01 0.00000E+00
 -1      4329 1.12342E+02 2.45727E+01 0.00000E+00
 -1      4330 1.13842E+02 2.45727E+01 0.00000E+00
 -1      4331 1.15342E+02 2.45727E+01 0.00000E+00
 -1      4332 1.16842E+02 2.45727E+01 0.00000E+00
 -1      4333 1.18342E+02 2.45727E+01 0.00000E+00
 -1      4334 1.19842E+02 2.45727E+01 0.00000E+00
 -1      4335 1.21342E+02 2.45727E+01 0.00000E+00
 -1      4336 1.22842E+02 2.45727E+01 0.00000E+00
 -1      4337 1.24342E+02 2.45727E+01 0.00000E+00
 -1      4338 6.99078E+01 2.48224E+01 0.00000E+00
 -1      4339 7.16870E+01 2.28502E+01 0.00000E+00
 -1      4340 7.85925E+01 2.32737E+01 0.00000E+00
 -1      4341 7.70925E+01 2.32737E+01 0.00000E+00
 -1      4342 9.35925E+01 2.32737E+01 0.00000E+00
 -1      4343 9.20925E+01 2.32737E+01 0.00000E+00
 -1      4344 7.18773E+01 2.50707E+01 0.00000E+00
 -1      4345 2.18924E+01 2.26006E+01 0.00000E+00
 -1      4346 8.68425E+01 2.45727E+01 0.00000E+00
 -1      4347 7.34597E+01 2.47776E+01 0.00000E+00
 -1      4348 9.13425E+01 2.45727E+01 0.00000E+00
 -1      4349 8.83425E+01 2.45727E+01 0.00000E+00
 -1      4350 1.25396E+02 2.33620E+01 0.00000E+00
 -1      4351 1.25704E+02 2.57875E+01 0.00000E+00
 -1      4352 2.18822E+01 2.11026E+01 0.00000E+00
 -1      4353 9.43425E+01 2.45727E+01 0.00000E+00
 -1      4354 2.10091E+01 1.99561E+01 0.00000E+00
 -1      4355 1.98689E+01 1.98614E+01 0.00000E+00
 -1      4356 7.44000E+01 2.56992E+01 0.00000E+00
 -1      4357 7.59000E+01 2.56992E+01 0.00000E+00
 -1      4358 7.93425E+01 2.45727E+01 0.00000E+00
 -1      4359 7.66500E+01 2.44002E+01 0.00000E+00
 -1      4360 7.55925E+01 2.32737E+01 0.00000E+00
 -1      4361 7.42097E+01 2.34786E+01 0.00000E+00
 -3
    3C                          2099                                     1
 -1       164    8    0    1
 -2         6         7        23      1132      1295      1149
 -1       165    8    0    1
 -2         7         8       164      1133      1296      1297
 -1       166    8    0    1
 -2         8         9       165      1134      1298      1299
 -1       167    8    0    1
 -2         8       165       164      1299      1300      1296
 -1       168    8    0    1
 -2         9        10       166      1135      1301      1302
 -1       169    8    0    1
 -2         9       166       165      1302      1303      1298
 -1       170    8    0    1
 -2        10        11       167      1136      1304      1305
 -1       171    8    0    1
 -2        10       167       166      1305      1306      1301
 -1       172    8    0    1
 -2        11        12       168      1137      1307      1308
 -1       173    8    0    1
 -2        11       168       167      1308      1309      1304
 -1       174    8    0    1
 -2        12        13       169      1138      1310      1311
 -1       175    8    0    1
 -2        12       169       168      1311      1312      1307
 -1       176    8    0    1
 -2        13        14       170      1139      1313      1314
 -1       177    8    0    1
 -2        13       170       169      1314      1315      1310
 -1       178    8    0    1
 -2        14        15       171      1140      1316      1317
 -1       179    8    0    1
 -2        14       171       170      1317      1318      1313
 -1       180    8    0    1
 -2        15        16       172      1141      1319      1320
 -1       181    8    0    1
 -2        15       172       171      1320      1321      1316
 -1       182    8    0    1
 -2        16        17       173      1142      1322      1323
 -1       183    8    0    1
 -2        16       173       172      1323      1324      1319
 -1       184    8    0    1
 -2        17        18       174      1143      1325      1326
 -1       185    8    0    1
 -2        17       174       173      1326      1327      1322
 -1       186    8    0    1
 -2        18        19       175      1144      1328      1329
 -1       187    8    0    1
 -2        18       175       174      1329      1330      1325
 -1       188    8    0    1
 -2        19        20       176      1145      1331      1332
 -1       189    8    0    1
 -2        19       176       175      1332      1333      1328
 -1       190    8    0    1
 -2        20        21       177      1146      1334      1335
 -1       191    8    0    1
 -2        20       177       176      1335      1336      1331
 -1       192    8    0    1
 -2        21        22       178      1147      1337      1338
 -1       193    8    0    1
 -2        21       178       177      1338      1339      1334
 -1       194    8    0    1
 -2        22         5       179      1148      1340      1341
 -1       195    8    0    1
 -2       178        22       179      1337      1341      1342
 -1       196    8    0    1
 -2         5        72       179      1199      1343      1340
 -1       197    8    0    1
 -2        24        23       180      1150      1344      1345
 -1       198    8    0    1
 -2        25        24       181      1151      1346      1347
 -1       199    8    0    1
 -2        24       180       181      1345      1348      1346
 -1       200    8    0    1
 -2        26        25       182      1152      1349      1350
 -1       201    8    0    1
 -2        25       181       182      1347      1351      1349
 -1       202    8    0    1
 -2        27        26       183      1153      1352      1353
 -1       203    8    0    1
 -2        26       182       183      1350      1354      1352
 -1       204    8    0    1
 -2        28        27       184      1154      1355      1356
 -1       205    8    0    1
 -2        27       183       184      1353      1357      1355
 -1       206    8    0    1
 -2        29        28       185      1155      1358      1359
 -1       207    8    0    1
 -2        28       184       185      1356      1360      1358
 -1       208    8    0    1
 -2        30        29       186      1156      1361      1362
 -1       209    8    0    1
 -2        29       185       186      1359      1363      1361
 -1       210    8    0    1
 -2        31        30       187      1157      1364      1365
 -1       211    8    0    1
 -2        30       186       187      1362      1366      1364
 -1       212    8    0    1
 -2        32        31       188      1158      1367      1368
 -1       213    8    0    1
 -2        31       187       188      1365      1369      1367
 -1       214    8    0    1
 -2        33        32       189      1159      1370      1371
 -1       215    8    0    1
 -2        32       188       189      1368      1372      1370
 -1       216    8    0    1
 -2        34        33       190      1160      1373      1374
 -1       217    8    0    1
 -2        33       189       190      1371      1375      1373
 -1       218    8    0    1
 -2        35        34       191      1161      1376      1377
 -1       219    8    0    1
 -2        34       190       191      1374      1378      1376
 -1       220    8    0    1
 -2        36        35       192      1162      1379      1380
 -1       221    8    0    1
 -2        35       191       192      1377      1381      1379
 -1       222    8    0    1
 -2        37        36       193      1163      1382      1383
 -1       223    8    0    1
 -2        36       192       193      1380      1384      1382
 -1       224    8    0    1
 -2        38        37       194      1164      1385      1386
 -1       225    8    0    1
 -2        37       193       194      1383      1387      1385
 -1       226    8    0    1
 -2        39        38       195      1165      1388      1389
 -1       227    8    0    1
 -2        38       194       195      1386      1390      1388
 -1       228    8    0    1
 -2        40        39       196      1166      1391      1392
 -1       229    8    0    1
 -2        39       195       196      1389      1393      1391
 -1       230    8    0    1
 -2        41        40       197      1167      1394      1395
 -1       231    8    0    1
 -2        40       196       197      1392      1396      1394
 -1       232    8    0    1
 -2        42        41       198      1168      1397      1398
 -1       233    8    0    1
 -2        41       197       198      1395      1399      1397
 -1       234    8    0    1
 -2        43        42       199      1169      1400      1401
 -1       235    8    0    1
 -2        42       198       199      1398      1402      1400
 -1       236    8    0    1
 -2        44        43       200      1170      1403      1404
 -1       237    8    0    1
 -2        43       199       200      1401      1405      1403
 -1       238    8    0    1
 -2        45        44       201      1171      1406      1407
 -1       239    8    0    1
 -2        44       200       201      1404      1408      1406
 -1       240    8    0    1
 -2        46        45       202      1172      1409      1410
 -1       241    8    0    1
 -2        45       201       202      1407      1411      1409
 -1       242    8    0    1
 -2        47        46       203      1173      1412      1413
 -1       243    8    0    1
 -2        46       202       203      1410      1414      1412
 -1       244    8    0    1
 -2        48        47       204      1174      1415      1416
 -1       245    8    0    1
 -2        47       203       204      1413      1417      1415
 -1       246    8    0    1
 -2        49        48       205      1175      1418      1419
 -1       247    8    0    1
 -2        48       204       205      1416      1420      1418
 -1       248    8    0    1
 -2        50        49       206      1176      1421      1422
 -1       249    8    0    1
 -2        49       205       206      1419      1423      1421
 -1       250    8    0    1
 -2        51        50       207      1177      1424      1425
 -1       251    8    0    1
 -2        50       206       207      1422      1426      1424
 -1       252    8    0    1
 -2        52        51       208      1178      1427      1428
 -1       253    8    0    1
 -2        51       207       208      1425      1429      1427
 -1       254    8    0    1
 -2        53        52       209      1179      1430      1431
 -1       255    8    0    1
 -2        52       208       209      1428      1432      1430
 -1       256    8    0    1
 -2        54        53       210      1180      1433      1434
 -1       257    8    0    1
 -2        53       209       210      1431      1435      1433
 -1       258    8    0    1
 -2        55        54       211      1181      1436      1437
 -1       259    8    0    1
 -2        54       210       211      1434      1438      1436
 -1       260    8    0    1
 -2        56        55       212      1182      1439      1440
 -1       261    8    0    1
 -2        55       211       212      1437      1441      1439
 -1       262    8    0    1
 -2        57        56       213      1183      1442      1443
 -1       263    8    0    1
 -2        56       212       213      1440      1444      1442
 -1       264    8    0    1
 -2        58        57       214      1184      1445      1446
 -1       265    8    0    1
 -2        57       213       214      1443      1447      1445
 -1       266    8    0    1
 -2        59        58       215      1185      1448      1449
 -1       267    8    0    1
 -2        58       214       215      1446      1450      1448
 -1       268    8    0    1
 -2        60        59       216      1186      1451      1452
 -1       269    8    0    1
 -2        59       215       216      1449      1453      1451
 -1       270    8    0    1
 -2        61        60       217      1187      1454      1455
 -1       271    8    0    1
 -2        60       216       217      1452      1456      1454
 -1       272    8    0    1
 -2        62        61       218      1188      1457      1458
 -1       273    8    0    1
 -2        61       217       218      1455      1459      1457
 -1       274    8    0    1
 -2        63        62       219      1189      1460      1461
 -1       275    8    0    1
 -2        62       218       219      1458      1462      1460
 -1       276    8    0    1
 -2        64        63       220      1190      1463      1464
 -1       277    8    0    1
 -2        63       219       220      1461      1465      1463
 -1       278    8    0    1
 -2        65        64       221      1191      1466      1467
 -1       279    8    0    1
 -2        64       220       221      1464      1468      1466
 -1       280    8    0    1
 -2        66        65       222      1192      1469      1470
 -1       281    8    0    1
 -2        65       221       222      1467      1471      1469
 -1       282    8    0    1
 -2        67        66       223      1193      1472      1473
 -1       283    8    0    1
 -2        66       222       223      1470      1474      1472
 -1       284    8    0    1
 -2        68        67       224      1194      1475      1476
 -1       285    8    0    1
 -2        67       223       224      1473      1477      1475
 -1       286    8    0    1
 -2        69        68       225      1195      1478      1479
 -1       287    8    0    1
 -2        68       224       225      1476      1480      1478
 -1       288    8    0    1
 -2        70        69       226      1196      1481      1482
 -1       289    8    0    1
 -2        69       225       226      1479      1483      1481
 -1       290    8    0    1
 -2        71        70       227      1197      1484      1485
 -1       291    8    0    1
 -2        70       226       227      1482      1486      1484
 -1       292    8    0    1
 -2         4        71       136      1198      1487      1265
 -1       293    8    0    1
 -2       136        71       227      1487      1485      1488
 -1       294    8    0    1
 -2        72        73       228      1200      1489      1490
 -1       295    8    0    1
 -2        72       228       179      1490      1491      1343
 -1       296    8    0    1
 -2        73        74       229      1201      1492      1493
 -1       297    8    0    1
 -2        73       229       228      1493      1494      1489
 -1       298    8    0    1
 -2        74        75       230      1202      1495      1496
 -1       299    8    0    1
 -2        74       230       229      1496      1497      1492
 -1       300    8    0    1
 -2        75        76       231      1203      1498      1499
 -1       301    8    0    1
 -2        75       231       230      1499      1500      1495
 -1       302    8    0    1
 -2        76        77       232      1204      1501      1502
 -1       303    8    0    1
 -2        76       232       231      1502      1503      1498
 -1       304    8    0    1
 -2        77        78       233      1205      1504      1505
 -1       305    8    0    1
 -2        77       233       232      1505      1506      1501
 -1       306    8    0    1
 -2        78        79       234      1206      1507      1508
 -1       307    8    0    1
 -2        78       234       233      1508      1509      1504
 -1       308    8    0    1
 -2        79        80       235      1207      1510      1511
 -1       309    8    0    1
 -2        79       235       234      1511      1512      1507
 -1       310    8    0    1
 -2        80        81       236      1208      1513      1514
 -1       311    8    0    1
 -2        80       236       235      1514      1515      1510
 -1       312    8    0    1
 -2        81        82       237      1209      1516      1517
 -1       313    8    0    1
 -2        81       237       236      1517      1518      1513
 -1       314    8    0    1
 -2        82        83       238      1210      1519      1520
 -1       315    8    0    1
 -2        82       238       237      1520      1521      1516
 -1       316    8    0    1
 -2        83        84       239      1211      1522      1523
 -1       317    8    0    1
 -2        83       239       238      1523      1524      1519
 -1       318    8    0    1
 -2        84        85       240      1212      1525      1526
 -1       319    8    0    1
 -2        84       240       239      1526      1527      1522
 -1       320    8    0    1
 -2        85        86       241      1213      1528      1529
 -1       321    8    0    1
 -2        85       241       240      1529      1530      1525
 -1       322    8    0    1
 -2        86        87       242      1214      1531      1532
 -1       323    8    0    1
 -2        86       242       241      1532      1533      1528
 -1       324    8    0    1
 -2        87        88       243      1215      1534      1535
 -1       325    8    0    1
 -2        87       243       242      1535      1536      1531
 -1       326    8    0    1
 -2        88        89       244      1216      1537      1538
 -1       327    8    0    1
 -2        88       244       243      1538      1539      1534
 -1       328    8    0    1
 -2        89        90       245      1217      1540      1541
 -1       329    8    0    1
 -2        89       245       244      1541      1542      1537
 -1       330    8    0    1
 -2        90        91       246      1218      1543      1544
 -1       331    8    0    1
 -2        90       246       245      1544      1545      1540
 -1       332    8    0    1
 -2        91        92       247      1219      1546      1547
 -1       333    8    0    1
 -2        91       247       246      1547      1548      1543
 -1       334    8    0    1
 -2        92        93       248      1220      1549      1550
 -1       335    8    0    1
 -2        92       248       247      1550      1551      1546
 -1       336    8    0    1
 -2        93        94       249      1221      1552      1553
 -1       337    8    0    1
 -2        93       249       248      1553      1554      1549
 -1       338    8    0    1
 -2        94        95       250      1222      1555      1556
 -1       339    8    0    1
 -2        94       250       249      1556      1557      1552
 -1       340    8    0    1
 -2        95        96       251      1223      1558      1559
 -1       341    8    0    1
 -2        95       251       250      1559      1560      1555
 -1       342    8    0    1
 -2        96        97       252      1224      1561      1562
 -1       343    8    0    1
 -2        96       252       251      1562      1563      1558
 -1       344    8    0    1
 -2        97        98       253      1225      1564      1565
 -1       345    8    0    1
 -2        97       253       252      1565      1566      1561
 -1       346    8    0    1
 -2        98        99       254      1226      1567      1568
 -1       347    8    0    1
 -2        98       254       253      1568      1569      1564
 -1       348    8    0    1
 -2        99       100       255      1227      1570      1571
 -1       349    8    0    1
 -2        99       255       254      1571      1572      1567
 -1       350    8    0    1
 -2       100       101       256      1228      1573      1574
 -1       351    8    0    1
 -2       100       256       255      1574      1575      1570
 -1       352    8    0    1
 -2       101       102       257      1229      1576      1577
 -1       353    8    0    1
 -2       101       257       256      1577      1578      1573
 -1       354    8    0    1
 -2       102       103       258      1230      1579      1580
 -1       355    8    0    1
 -2       102       258       257      1580      1581      1576
 -1       356    8    0    1
 -2       103       104       259      1231      1582      1583
 -1       357    8    0    1
 -2       103       259       258      1583      1584      1579
 -1       358    8    0    1
 -2       104       105       260      1232      1585      1586
 -1       359    8    0    1
 -2       104       260       259      1586      1587      1582
 -1       360    8    0    1
 -2       105       106       261      1233      1588      1589
 -1       361    8    0    1
 -2       105       261       260      1589      1590      1585
 -1       362    8    0    1
 -2       106       107       262      1234      1591      1592
 -1       363    8    0    1
 -2       106       262       261      1592      1593      1588
 -1       364    8    0    1
 -2       107       108       263      1235      1594      1595
 -1       365    8    0    1
 -2       107       263       262      1595      1596      1591
 -1       366    8    0    1
 -2       108       109       264      1236      1597      1598
 -1       367    8    0    1
 -2       108       264       263      1598      1599      1594
 -1       368    8    0    1
 -2       109       110       265      1237      1600      1601
 -1       369    8    0    1
 -2       109       265       264      1601      1602      1597
 -1       370    8    0    1
 -2       110       111       266      1238      1603      1604
 -1       371    8    0    1
 -2       110       266       265      1604      1605      1600
 -1       372    8    0    1
 -2       111       112       267      1239      1606      1607
 -1       373    8    0    1
 -2       111       267       266      1607      1608      1603
 -1       374    8    0    1
 -2       112       113       268      1240      1609      1610
 -1       375    8    0    1
 -2       112       268       267      1610      1611      1606
 -1       376    8    0    1
 -2       113       114       269      1241      1612      1613
 -1       377    8    0    1
 -2       113       269       268      1613      1614      1609
 -1       378    8    0    1
 -2       114       115       270      1242      1615      1616
 -1       379    8    0    1
 -2       114       270       269      1616      1617      1612
 -1       380    8    0    1
 -2       115       116       271      1243      1618      1619
 -1       381    8    0    1
 -2       115       271       270      1619      1620      1615
 -1       382    8    0    1
 -2       116       117       272      1244      1621      1622
 -1       383    8    0    1
 -2       116       272       271      1622      1623      1618
 -1       384    8    0    1
 -2       117       118       273      1245      1624      1625
 -1       385    8    0    1
 -2       117       273       272      1625      1626      1621
 -1       386    8    0    1
 -2       118       119       274      1246      1627      1628
 -1       387    8    0    1
 -2       118       274       273      1628      1629      1624
 -1       388    8    0    1
 -2       119       120       275      1247      1630      1631
 -1       389    8    0    1
 -2       119       275       274      1631      1632      1627
 -1       390    8    0    1
 -2       120         3       121      1248      1249      1633
 -1       391    8    0    1
 -2       121       122       276      1250      1634      1635
 -1       392    8    0    1
 -2       122       123       277      1251      1636      1637
 -1       393    8    0    1
 -2       122       277       276      1637      1638      1634
 -1       394    8    0    1
 -2       123       124       278      1252      1639      1640
 -1       395    8    0    1
 -2       123       278       277      1640      1641      1636
 -1       396    8    0    1
 -2       124       125       279      1253      1642      1643
 -1       397    8    0    1
 -2       124       279       278      1643      1644      1639
 -1       398    8    0    1
 -2       125       126       280      1254      1645      1646
 -1       399    8    0    1
 -2       125       280       279      1646      1647      1642
 -1       400    8    0    1
 -2       126       127       281      1255      1648      1649
 -1       401    8    0    1
 -2       126       281       280      1649      1650      1645
 -1       402    8    0    1
 -2       127       128       282      1256      1651      1652
 -1       403    8    0    1
 -2       127       282       281      1652      1653      1648
 -1       404    8    0    1
 -2       128       129       283      1257      1654      1655
 -1       405    8    0    1
 -2       128       283       282      1655      1656      1651
 -1       406    8    0    1
 -2       129       130       284      1258      1657      1658
 -1       407    8    0    1
 -2       129       284       283      1658      1659      1654
 -1       408    8    0    1
 -2       130       131       285      1259      1660      1661
 -1       409    8    0    1
 -2       130       285       284      1661      1662      1657
 -1       410    8    0    1
 -2       131       132       286      1260      1663      1664
 -1       411    8    0    1
 -2       131       286       285      1664      1665      1660
 -1       412    8    0    1
 -2       132       133       287      1261      1666      1667
 -1       413    8    0    1
 -2       132       287       286      1667      1668      1663
 -1       414    8    0    1
 -2       133       134       288      1262      1669      1670
 -1       415    8    0    1
 -2       133       288       287      1670      1671      1666
 -1       416    8    0    1
 -2       134       135       289      1263      1672      1673
 -1       417    8    0    1
 -2       134       289       288      1673      1674      1669
 -1       418    8    0    1
 -2       135       136       290      1264      1675      1676
 -1       419    8    0    1
 -2       289       135       290      1672      1676      1677
 -1       420    8    0    1
 -2       136       227       290      1488      1678      1675
 -1       421    8    0    1
 -2         2       137       291      1266      1679      1680
 -1       422    8    0    1
 -2       137       138       292      1267      1681      1682
 -1       423    8    0    1
 -2       138       139       293      1268      1683      1684
 -1       424    8    0    1
 -2       139       140       294      1269      1685      1686
 -1       425    8    0    1
 -2       140       141       295      1270      1687      1688
 -1       426    8    0    1
 -2       141       142       296      1271      1689      1690
 -1       427    8    0    1
 -2       142       143       297      1272      1691      1692
 -1       428    8    0    1
 -2       143       144       298      1273      1693      1694
 -1       429    8    0    1
 -2       144       145       299      1274      1695      1696
 -1       430    8    0    1
 -2       145       146       300      1275      1697      1698
 -1       431    8    0    1
 -2       146       147       301      1276      1699      1700
 -1       432    8    0    1
 -2       147       148       302      1277      1701      1702
 -1       433    8    0    1
 -2       148       149       303      1278      1703      1704
 -1       434    8    0    1
 -2       149       150       304      1279      1705      1706
 -1       435    8    0    1
 -2       150       151       305      1280      1707      1708
 -1       436    8    0    1
 -2       151       152       306      1281      1709      1710
 -1       437    8    0    1
 -2       152       153       307      1282      1711      1712
 -1       438    8    0    1
 -2       153       154       308      1283      1713      1714
 -1       439    8    0    1
 -2       154         1       309      1284      1715      1716
 -1       440    8    0    1
 -2         1       155       310      1285      1717      1718
 -1       441    8    0    1
 -2       155       156       311      1286      1719      1720
 -1       442    8    0    1
 -2       156       157       312      1287      1721      1722
 -1       443    8    0    1
 -2       157       158       313      1288      1723      1724
 -1       444    8    0    1
 -2       158       159       314      1289      1725      1726
 -1       445    8    0    1
 -2       159       160       315      1290      1727      1728
 -1       446    8    0    1
 -2       160       161       316      1291      1729      1730
 -1       447    8    0    1
 -2       161       162       317      1292      1731      1732
 -1       448    8    0    1
 -2       162       163       318      1293      1733      1734
 -1       449    8    0    1
 -2       163         2       319      1294      1735      1736
 -1       450    8    0    1
 -2       294       140       295      1685      1688      1737
 -1       451    8    0    1
 -2       293       139       294      1683      1686      1738
 -1       452    8    0    1
 -2       120       121       275      1633      1739      1630
 -1       453    8    0    1
 -2       121       276       275      1635      1740      1739
 -1       454    8    0    1
 -2       291       137       292      1679      1682      1741
 -1       455    8    0    1
 -2       292       138       293      1681      1684      1742
 -1       456    8    0    1
 -2         2       291       319      1680      1743      1735
 -1       457    8    0    1
 -2       141       296       295      1690      1744      1687
 -1       458    8    0    1
 -2       142       297       296      1692      1745      1689
 -1       459    8    0    1
 -2       143       298       297      1694      1746      1691
 -1       460    8    0    1
 -2       144       299       298      1696      1747      1693
 -1       461    8    0    1
 -2       145       300       299      1698      1748      1695
 -1       462    8    0    1
 -2       146       301       300      1700      1749      1697
 -1       463    8    0    1
 -2       147       302       301      1702      1750      1699
 -1       464    8    0    1
 -2       148       303       302      1704      1751      1701
 -1       465    8    0    1
 -2       149       304       303      1706      1752      1703
 -1       466    8    0    1
 -2       150       305       304      1708      1753      1705
 -1       467    8    0    1
 -2       151       306       305      1710      1754      1707
 -1       468    8    0    1
 -2       152       307       306      1712      1755      1709
 -1       469    8    0    1
 -2       153       308       307      1714      1756      1711
 -1       470    8    0    1
 -2       154       309       308      1716      1757      1713
 -1       471    8    0    1
 -2         1       310       309      1718      1758      1715
 -1       472    8    0    1
 -2       155       311       310      1720      1759      1717
 -1       473    8    0    1
 -2       156       312       311      1722      1760      1719
 -1       474    8    0    1
 -2       157       313       312      1724      1761      1721
 -1       475    8    0    1
 -2       158       314       313      1726      1762      1723
 -1       476    8    0    1
 -2       159       315       314      1728      1763      1725
 -1       477    8    0    1
 -2       160       316       315      1730      1764      1727
 -1       478    8    0    1
 -2       161       317       316      1732      1765      1729
 -1       479    8    0    1
 -2       162       318       317      1734      1766      1731
 -1       480    8    0    1
 -2       163       319       318      1736      1767      1733
 -1       481    8    0    1
 -2        23         7       164      1295      1297      1768
 -1       482    8    0    1
 -2       165       166       320      1303      1769      1770
 -1       483    8    0    1
 -2       164       165       321      1300      1771      1772
 -1       484    8    0    1
 -2       165       320       321      1770      1773      1771
 -1       485    8    0    1
 -2       167       168       322      1309      1774      1775
 -1       486    8    0    1
 -2       168       169       323      1312      1776      1777
 -1       487    8    0    1
 -2       168       323       322      1777      1778      1774
 -1       488    8    0    1
 -2       169       170       324      1315      1779      1780
 -1       489    8    0    1
 -2       169       324       323      1780      1781      1776
 -1       490    8    0    1
 -2       170       171       325      1318      1782      1783
 -1       491    8    0    1
 -2       170       325       324      1783      1784      1779
 -1       492    8    0    1
 -2       171       172       326      1321      1785      1786
 -1       493    8    0    1
 -2       171       326       325      1786      1787      1782
 -1       494    8    0    1
 -2       172       173       327      1324      1788      1789
 -1       495    8    0    1
 -2       172       327       326      1789      1790      1785
 -1       496    8    0    1
 -2       173       174       328      1327      1791      1792
 -1       497    8    0    1
 -2       173       328       327      1792      1793      1788
 -1       498    8    0    1
 -2       174       175       329      1330      1794      1795
 -1       499    8    0    1
 -2       174       329       328      1795      1796      1791
 -1       500    8    0    1
 -2       175       176       330      1333      1797      1798
 -1       501    8    0    1
 -2       175       330       329      1798      1799      1794
 -1       502    8    0    1
 -2       176       177       331      1336      1800      1801
 -1       503    8    0    1
 -2       176       331       330      1801      1802      1797
 -1       504    8    0    1
 -2       177       178       332      1339      1803      1804
 -1       505    8    0    1
 -2       177       332       331      1804      1805      1800
 -1       506    8    0    1
 -2       178       179       333      1342      1806      1807
 -1       507    8    0    1
 -2       332       178       333      1803      1807      1808
 -1       508    8    0    1
 -2       179       228       333      1491      1809      1806
 -1       509    8    0    1
 -2       180        23       164      1344      1768      1810
 -1       510    8    0    1
 -2       228       229       334      1494      1811      1812
 -1       511    8    0    1
 -2       228       334       333      1812      1813      1809
 -1       512    8    0    1
 -2       180       164       321      1810      1772      1814
 -1       513    8    0    1
 -2       182       181       335      1351      1815      1816
 -1       514    8    0    1
 -2       183       182       336      1354      1817      1818
 -1       515    8    0    1
 -2       182       335       336      1816      1819      1817
 -1       516    8    0    1
 -2       184       183       337      1357      1820      1821
 -1       517    8    0    1
 -2       183       336       337      1818      1822      1820
 -1       518    8    0    1
 -2       185       184       338      1360      1823      1824
 -1       519    8    0    1
 -2       184       337       338      1821      1825      1823
 -1       520    8    0    1
 -2       186       185       339      1363      1826      1827
 -1       521    8    0    1
 -2       185       338       339      1824      1828      1826
 -1       522    8    0    1
 -2       187       186       340      1366      1829      1830
 -1       523    8    0    1
 -2       186       339       340      1827      1831      1829
 -1       524    8    0    1
 -2       188       187       341      1369      1832      1833
 -1       525    8    0    1
 -2       187       340       341      1830      1834      1832
 -1       526    8    0    1
 -2       189       188       342      1372      1835      1836
 -1       527    8    0    1
 -2       188       341       342      1833      1837      1835
 -1       528    8    0    1
 -2       190       189       343      1375      1838      1839
 -1       529    8    0    1
 -2       189       342       343      1836      1840      1838
 -1       530    8    0    1
 -2       191       190       344      1378      1841      1842
 -1       531    8    0    1
 -2       190       343       344      1839      1843      1841
 -1       532    8    0    1
 -2       192       191       345      1381      1844      1845
 -1       533    8    0    1
 -2       191       344       345      1842      1846      1844
 -1       534    8    0    1
 -2       193       192       346      1384      1847      1848
 -1       535    8    0    1
 -2       192       345       346      1845      1849      1847
 -1       536    8    0    1
 -2       194       193       347      1387      1850      1851
 -1       537    8    0    1
 -2       193       346       347      1848      1852      1850
 -1       538    8    0    1
 -2       195       194       348      1390      1853      1854
 -1       539    8    0    1
 -2       194       347       348      1851      1855      1853
 -1       540    8    0    1
 -2       196       195       349      1393      1856      1857
 -1       541    8    0    1
 -2       195       348       349      1854      1858      1856
 -1       542    8    0    1
 -2       197       196       350      1396      1859      1860
 -1       543    8    0    1
 -2       196       349       350      1857      1861      1859
 -1       544    8    0    1
 -2       198       197       351      1399      1862      1863
 -1       545    8    0    1
 -2       197       350       351      1860      1864      1862
 -1       546    8    0    1
 -2       199       198       352      1402      1865      1866
 -1       547    8    0    1
 -2       198       351       352      1863      1867      1865
 -1       548    8    0    1
 -2       200       199       353      1405      1868      1869
 -1       549    8    0    1
 -2       199       352       353      1866      1870      1868
 -1       550    8    0    1
 -2       201       200       354      1408      1871      1872
 -1       551    8    0    1
 -2       200       353       354      1869      1873      1871
 -1       552    8    0    1
 -2       202       201       355      1411      1874      1875
 -1       553    8    0    1
 -2       201       354       355      1872      1876      1874
 -1       554    8    0    1
 -2       203       202       356      1414      1877      1878
 -1       555    8    0    1
 -2       202       355       356      1875      1879      1877
 -1       556    8    0    1
 -2       204       203       357      1417      1880      1881
 -1       557    8    0    1
 -2       203       356       357      1878      1882      1880
 -1       558    8    0    1
 -2       205       204       358      1420      1883      1884
 -1       559    8    0    1
 -2       204       357       358      1881      1885      1883
 -1       560    8    0    1
 -2       206       205       359      1423      1886      1887
 -1       561    8    0    1
 -2       205       358       359      1884      1888      1886
 -1       562    8    0    1
 -2       207       206       360      1426      1889      1890
 -1       563    8    0    1
 -2       206       359       360      1887      1891      1889
 -1       564    8    0    1
 -2       208       207       361      1429      1892      1893
 -1       565    8    0    1
 -2       207       360       361      1890      1894      1892
 -1       566    8    0    1
 -2       209       208       362      1432      1895      1896
 -1       567    8    0    1
 -2       208       361       362      1893      1897      1895
 -1       568    8    0    1
 -2       210       209       363      1435      1898      1899
 -1       569    8    0    1
 -2       209       362       363      1896      1900      1898
 -1       570    8    0    1
 -2       211       210       364      1438      1901      1902
 -1       571    8    0    1
 -2       210       363       364      1899      1903      1901
 -1       572    8    0    1
 -2       212       211       365      1441      1904      1905
 -1       573    8    0    1
 -2       211       364       365      1902      1906      1904
 -1       574    8    0    1
 -2       213       212       366      1444      1907      1908
 -1       575    8    0    1
 -2       212       365       366      1905      1909      1907
 -1       576    8    0    1
 -2       214       213       367      1447      1910      1911
 -1       577    8    0    1
 -2       213       366       367      1908      1912      1910
 -1       578    8    0    1
 -2       215       214       368      1450      1913      1914
 -1       579    8    0    1
 -2       214       367       368      1911      1915      1913
 -1       580    8    0    1
 -2       216       215       369      1453      1916      1917
 -1       581    8    0    1
 -2       215       368       369      1914      1918      1916
 -1       582    8    0    1
 -2       217       216       370      1456      1919      1920
 -1       583    8    0    1
 -2       216       369       370      1917      1921      1919
 -1       584    8    0    1
 -2       218       217       371      1459      1922      1923
 -1       585    8    0    1
 -2       217       370       371      1920      1924      1922
 -1       586    8    0    1
 -2       219       218       372      1462      1925      1926
 -1       587    8    0    1
 -2       218       371       372      1923      1927      1925
 -1       588    8    0    1
 -2       220       219       373      1465      1928      1929
 -1       589    8    0    1
 -2       219       372       373      1926      1930      1928
 -1       590    8    0    1
 -2       221       220       374      1468      1931      1932
 -1       591    8    0    1
 -2       220       373       374      1929      1933      1931
 -1       592    8    0    1
 -2       222       221       375      1471      1934      1935
 -1       593    8    0    1
 -2       221       374       375      1932      1936      1934
 -1       594    8    0    1
 -2       223       222       376      1474      1937      1938
 -1       595    8    0    1
 -2       222       375       376      1935      1939      1937
 -1       596    8    0    1
 -2       224       223       377      1477      1940      1941
 -1       597    8    0    1
 -2       223       376       377      1938      1942      1940
 -1       598    8    0    1
 -2       225       224       378      1480      1943      1944
 -1       599    8    0    1
 -2       224       377       378      1941      1945      1943
 -1       600    8    0    1
 -2       226       225       379      1483      1946      1947
 -1       601    8    0    1
 -2       225       378       379      1944      1948      1946
 -1       602    8    0    1
 -2       227       226       380      1486      1949      1950
 -1       603    8    0    1
 -2       290       227       380      1678      1950      1951
 -1       604    8    0    1
 -2       226       379       380      1947      1952      1949
 -1       605    8    0    1
 -2       229       230       381      1497      1953      1954
 -1       606    8    0    1
 -2       229       381       334      1954      1955      1811
 -1       607    8    0    1
 -2       230       231       382      1500      1956      1957
 -1       608    8    0    1
 -2       230       382       381      1957      1958      1953
 -1       609    8    0    1
 -2       231       232       383      1503      1959      1960
 -1       610    8    0    1
 -2       231       383       382      1960      1961      1956
 -1       611    8    0    1
 -2       232       233       384      1506      1962      1963
 -1       612    8    0    1
 -2       232       384       383      1963      1964      1959
 -1       613    8    0    1
 -2       233       234       385      1509      1965      1966
 -1       614    8    0    1
 -2       233       385       384      1966      1967      1962
 -1       615    8    0    1
 -2       234       235       386      1512      1968      1969
 -1       616    8    0    1
 -2       234       386       385      1969      1970      1965
 -1       617    8    0    1
 -2       235       236       387      1515      1971      1972
 -1       618    8    0    1
 -2       235       387       386      1972      1973      1968
 -1       619    8    0    1
 -2       236       237       388      1518      1974      1975
 -1       620    8    0    1
 -2       236       388       387      1975      1976      1971
 -1       621    8    0    1
 -2       237       238       389      1521      1977      1978
 -1       622    8    0    1
 -2       237       389       388      1978      1979      1974
 -1       623    8    0    1
 -2       238       239       390      1524      1980      1981
 -1       624    8    0    1
 -2       238       390       389      1981      1982      1977
 -1       625    8    0    1
 -2       239       240       391      1527      1983      1984
 -1       626    8    0    1
 -2       239       391       390      1984      1985      1980
 -1       627    8    0    1
 -2       240       241       392      1530      1986      1987
 -1       628    8    0    1
 -2       240       392       391      1987      1988      1983
 -1       629    8    0    1
 -2       241       242       393      1533      1989      1990
 -1       630    8    0    1
 -2       241       393       392      1990      1991      1986
 -1       631    8    0    1
 -2       242       243       394      1536      1992      1993
 -1       632    8    0    1
 -2       242       394       393      1993      1994      1989
 -1       633    8    0    1
 -2       243       244       395      1539      1995      1996
 -1       634    8    0    1
 -2       243       395       394      1996      1997      1992
 -1       635    8    0    1
 -2       244       245       396      1542      1998      1999
 -1       636    8    0    1
 -2       244       396       395      1999      2000      1995
 -1       637    8    0    1
 -2       245       246       397      1545      2001      2002
 -1       638    8    0    1
 -2       245       397       396      2002      2003      1998
 -1       639    8    0    1
 -2       246       247       398      1548      2004      2005
 -1       640    8    0    1
 -2       246       398       397      2005      2006      2001
 -1       641    8    0    1
 -2       247       248       399      1551      2007      2008
 -1       642    8    0    1
 -2       247       399       398      2008      2009      2004
 -1       643    8    0    1
 -2       248       249       400      1554      2010      2011
 -1       644    8    0    1
 -2       248       400       399      2011      2012      2007
 -1       645    8    0    1
 -2       249       250       401      1557      2013      2014
 -1       646    8    0    1
 -2       249       401       400      2014      2015      2010
 -1       647    8    0    1
 -2       250       251       402      1560      2016      2017
 -1       648    8    0    1
 -2       250       402       401      2017      2018      2013
 -1       649    8    0    1
 -2       251       252       403      1563      2019      2020
 -1       650    8    0    1
 -2       251       403       402      2020      2021      2016
 -1       651    8    0    1
 -2       252       253       404      1566      2022      2023
 -1       652    8    0    1
 -2       252       404       403      2023      2024      2019
 -1       653    8    0    1
 -2       253       254       405      1569      2025      2026
 -1       654    8    0    1
 -2       253       405       404      2026      2027      2022
 -1       655    8    0    1
 -2       254       255       406      1572      2028      2029
 -1       656    8    0    1
 -2       254       406       405      2029      2030      2025
 -1       657    8    0    1
 -2       255       256       407      1575      2031      2032
 -1       658    8    0    1
 -2       255       407       406      2032      2033      2028
 -1       659    8    0    1
 -2       256       257       408      1578      2034      2035
 -1       660    8    0    1
 -2       256       408       407      2035      2036      2031
 -1       661    8    0    1
 -2       257       258       409      1581      2037      2038
 -1       662    8    0    1
 -2       257       409       408      2038      2039      2034
 -1       663    8    0    1
 -2       258       259       410      1584      2040      2041
 -1       664    8    0    1
 -2       258       410       409      2041      2042      2037
 -1       665    8    0    1
 -2       259       260       411      1587      2043      2044
 -1       666    8    0    1
 -2       259       411       410      2044      2045      2040
 -1       667    8    0    1
 -2       260       261       412      1590      2046      2047
 -1       668    8    0    1
 -2       260       412       411      2047      2048      2043
 -1       669    8    0    1
 -2       261       262       413      1593      2049      2050
 -1       670    8    0    1
 -2       261       413       412      2050      2051      2046
 -1       671    8    0    1
 -2       262       263       414      1596      2052      2053
 -1       672    8    0    1
 -2       262       414       413      2053      2054      2049
 -1       673    8    0    1
 -2       263       264       415      1599      2055      2056
 -1       674    8    0    1
 -2       263       415       414      2056      2057      2052
 -1       675    8    0    1
 -2       264       265       416      1602      2058      2059
 -1       676    8    0    1
 -2       264       416       415      2059      2060      2055
 -1       677    8    0    1
 -2       265       266       417      1605      2061      2062
 -1       678    8    0    1
 -2       265       417       416      2062      2063      2058
 -1       679    8    0    1
 -2       266       267       418      1608      2064      2065
 -1       680    8    0    1
 -2       266       418       417      2065      2066      2061
 -1       681    8    0    1
 -2       267       268       419      1611      2067      2068
 -1       682    8    0    1
 -2       267       419       418      2068      2069      2064
 -1       683    8    0    1
 -2       268       269       420      1614      2070      2071
 -1       684    8    0    1
 -2       268       420       419      2071      2072      2067
 -1       685    8    0    1
 -2       269       270       421      1617      2073      2074
 -1       686    8    0    1
 -2       269       421       420      2074      2075      2070
 -1       687    8    0    1
 -2       270       271       422      1620      2076      2077
 -1       688    8    0    1
 -2       270       422       421      2077      2078      2073
 -1       689    8    0    1
 -2       271       272       423      1623      2079      2080
 -1       690    8    0    1
 -2       271       423       422      2080      2081      2076
 -1       691    8    0    1
 -2       272       273       424      1626      2082      2083
 -1       692    8    0    1
 -2       272       424       423      2083      2084      2079
 -1       693    8    0    1
 -2       273       274       425      1629      2085      2086
 -1       694    8    0    1
 -2       273       425       424      2086      2087      2082
 -1       695    8    0    1
 -2       274       275       426      1632      2088      2089
 -1       696    8    0    1
 -2       425       274       426      2085      2089      2090
 -1       697    8    0    1
 -2       275       276       426      1740      2091      2088
 -1       698    8    0    1
 -2       278       279       427      1644      2092      2093
 -1       699    8    0    1
 -2       277       278       428      1641      2094      2095
 -1       700    8    0    1
 -2       278       427       428      2093      2096      2094
 -1       701    8    0    1
 -2       276       277       429      1638      2097      2098
 -1       702    8    0    1
 -2       426       276       429      2091      2098      2099
 -1       703    8    0    1
 -2       277       428       429      2095      2100      2097
 -1       704    8    0    1
 -2       279       280       430      1647      2101      2102
 -1       705    8    0    1
 -2       279       430       427      2102      2103      2092
 -1       706    8    0    1
 -2       280       281       431      1650      2104      2105
 -1       707    8    0    1
 -2       280       431       430      2105      2106      2101
 -1       708    8    0    1
 -2       281       282       432      1653      2107      2108
 -1       709    8    0    1
 -2       281       432       431      2108      2109      2104
 -1       710    8    0    1
 -2       282       283       433      1656      2110      2111
 -1       711    8    0    1
 -2       282       433       432      2111      2112      2107
 -1       712    8    0    1
 -2       283       284       434      1659      2113      2114
 -1       713    8    0    1
 -2       283       434       433      2114      2115      2110
 -1       714    8    0    1
 -2       284       285       435      1662      2116      2117
 -1       715    8    0    1
 -2       284       435       434      2117      2118      2113
 -1       716    8    0    1
 -2       285       286       436      1665      2119      2120
 -1       717    8    0    1
 -2       285       436       435      2120      2121      2116
 -1       718    8    0    1
 -2       286       287       437      1668      2122      2123
 -1       719    8    0    1
 -2       286       437       436      2123      2124      2119
 -1       720    8    0    1
 -2       287       288       438      1671      2125      2126
 -1       721    8    0    1
 -2       287       438       437      2126      2127      2122
 -1       722    8    0    1
 -2       288       289       439      1674      2128      2129
 -1       723    8    0    1
 -2       288       439       438      2129      2130      2125
 -1       724    8    0    1
 -2       292       293       440      1742      2131      2132
 -1       725    8    0    1
 -2       319       291       441      1743      2133      2134
 -1       726    8    0    1
 -2       291       292       442      1741      2135      2136
 -1       727    8    0    1
 -2       292       440       442      2132      2137      2135
 -1       728    8    0    1
 -2       293       294       443      1738      2138      2139
 -1       729    8    0    1
 -2       294       295       444      1737      2140      2141
 -1       730    8    0    1
 -2       166       167       445      1306      2142      2143
 -1       731    8    0    1
 -2       320       166       445      1769      2143      2144
 -1       732    8    0    1
 -2       167       322       445      1775      2145      2142
 -1       733    8    0    1
 -2       296       297       446      1745      2146      2147
 -1       734    8    0    1
 -2       297       298       447      1746      2148      2149
 -1       735    8    0    1
 -2       297       447       446      2149      2150      2146
 -1       736    8    0    1
 -2       298       299       448      1747      2151      2152
 -1       737    8    0    1
 -2       299       300       449      1748      2153      2154
 -1       738    8    0    1
 -2       299       449       448      2154      2155      2151
 -1       739    8    0    1
 -2       300       301       450      1749      2156      2157
 -1       740    8    0    1
 -2       301       302       451      1750      2158      2159
 -1       741    8    0    1
 -2       302       303       452      1751      2160      2161
 -1       742    8    0    1
 -2       303       304       453      1752      2162      2163
 -1       743    8    0    1
 -2       304       305       454      1753      2164      2165
 -1       744    8    0    1
 -2       305       306       455      1754      2166      2167
 -1       745    8    0    1
 -2       306       307       456      1755      2168      2169
 -1       746    8    0    1
 -2       307       308       457      1756      2170      2171
 -1       747    8    0    1
 -2       307       457       456      2171      2172      2168
 -1       748    8    0    1
 -2       308       309       458      1757      2173      2174
 -1       749    8    0    1
 -2       309       310       459      1758      2175      2176
 -1       750    8    0    1
 -2       310       311       460      1759      2177      2178
 -1       751    8    0    1
 -2       310       460       459      2178      2179      2175
 -1       752    8    0    1
 -2       311       312       461      1760      2180      2181
 -1       753    8    0    1
 -2       312       313       462      1761      2182      2183
 -1       754    8    0    1
 -2       313       314       463      1762      2184      2185
 -1       755    8    0    1
 -2       314       315       464      1763      2186      2187
 -1       756    8    0    1
 -2       315       316       465      1764      2188      2189
 -1       757    8    0    1
 -2       316       317       466      1765      2190      2191
 -1       758    8    0    1
 -2       317       318       467      1766      2192      2193
 -1       759    8    0    1
 -2       318       319       468      1767      2194      2195
 -1       760    8    0    1
 -2       295       296       469      1744      2196      2197
 -1       761    8    0    1
 -2       444       295       469      2140      2197      2198
 -1       762    8    0    1
 -2       180       321       181      1814      2199      1348
 -1       763    8    0    1
 -2       296       446       469      2147      2200      2196
 -1       764    8    0    1
 -2       335       181       321      1815      2199      2201
 -1       765    8    0    1
 -2       441       291       470      2133      2202      2203
 -1       766    8    0    1
 -2       291       442       470      2136      2204      2202
 -1       767    8    0    1
 -2       293       443       440      2139      2205      2131
 -1       768    8    0    1
 -2       439       289       290      2128      1677      2206
 -1       769    8    0    1
 -2       319       441       468      2134      2207      2194
 -1       770    8    0    1
 -2       443       294       444      2138      2141      2208
 -1       771    8    0    1
 -2       467       318       468      2192      2195      2209
 -1       772    8    0    1
 -2       466       317       467      2190      2193      2210
 -1       773    8    0    1
 -2       465       316       466      2188      2191      2211
 -1       774    8    0    1
 -2       464       315       465      2186      2189      2212
 -1       775    8    0    1
 -2       463       314       464      2184      2187      2213
 -1       776    8    0    1
 -2       462       313       463      2182      2185      2214
 -1       777    8    0    1
 -2       460       311       461      2177      2181      2215
 -1       778    8    0    1
 -2       457       308       471      2170      2216      2217
 -1       779    8    0    1
 -2       308       458       471      2174      2218      2216
 -1       780    8    0    1
 -2       455       306       456      2166      2169      2219
 -1       781    8    0    1
 -2       454       305       455      2164      2167      2220
 -1       782    8    0    1
 -2       453       304       454      2162      2165      2221
 -1       783    8    0    1
 -2       452       303       453      2160      2163      2222
 -1       784    8    0    1
 -2       451       302       452      2158      2161      2223
 -1       785    8    0    1
 -2       449       300       450      2153      2157      2224
 -1       786    8    0    1
 -2       298       448       472      2152      2225      2226
 -1       787    8    0    1
 -2       298       472       447      2226      2227      2148
 -1       788    8    0    1
 -2       450       301       451      2156      2159      2228
 -1       789    8    0    1
 -2       458       309       473      2173      2229      2230
 -1       790    8    0    1
 -2       309       459       473      2176      2231      2229
 -1       791    8    0    1
 -2       461       312       462      2180      2183      2232
 -1       792    8    0    1
 -2       334       381       474      1955      2233      2234
 -1       793    8    0    1
 -2       323       324       475      1781      2235      2236
 -1       794    8    0    1
 -2       322       323       476      1778      2237      2238
 -1       795    8    0    1
 -2       323       475       476      2236      2239      2237
 -1       796    8    0    1
 -2       325       326       477      1787      2240      2241
 -1       797    8    0    1
 -2       326       327       478      1790      2242      2243
 -1       798    8    0    1
 -2       326       478       477      2243      2244      2240
 -1       799    8    0    1
 -2       327       328       479      1793      2245      2246
 -1       800    8    0    1
 -2       327       479       478      2246      2247      2242
 -1       801    8    0    1
 -2       328       329       480      1796      2248      2249
 -1       802    8    0    1
 -2       328       480       479      2249      2250      2245
 -1       803    8    0    1
 -2       329       330       481      1799      2251      2252
 -1       804    8    0    1
 -2       329       481       480      2252      2253      2248
 -1       805    8    0    1
 -2       330       331       482      1802      2254      2255
 -1       806    8    0    1
 -2       330       482       481      2255      2256      2251
 -1       807    8    0    1
 -2       381       382       483      1958      2257      2258
 -1       808    8    0    1
 -2       381       483       474      2258      2259      2233
 -1       809    8    0    1
 -2       336       335       484      1819      2260      2261
 -1       810    8    0    1
 -2       469       446       485      2200      2262      2263
 -1       811    8    0    1
 -2       337       336       486      1822      2264      2265
 -1       812    8    0    1
 -2       336       484       486      2261      2266      2264
 -1       813    8    0    1
 -2       338       337       487      1825      2267      2268
 -1       814    8    0    1
 -2       337       486       487      2265      2269      2267
 -1       815    8    0    1
 -2       339       338       488      1828      2270      2271
 -1       816    8    0    1
 -2       338       487       488      2268      2272      2270
 -1       817    8    0    1
 -2       340       339       489      1831      2273      2274
 -1       818    8    0    1
 -2       339       488       489      2271      2275      2273
 -1       819    8    0    1
 -2       341       340       490      1834      2276      2277
 -1       820    8    0    1
 -2       340       489       490      2274      2278      2276
 -1       821    8    0    1
 -2       342       341       491      1837      2279      2280
 -1       822    8    0    1
 -2       341       490       491      2277      2281      2279
 -1       823    8    0    1
 -2       343       342       492      1840      2282      2283
 -1       824    8    0    1
 -2       342       491       492      2280      2284      2282
 -1       825    8    0    1
 -2       344       343       493      1843      2285      2286
 -1       826    8    0    1
 -2       343       492       493      2283      2287      2285
 -1       827    8    0    1
 -2       345       344       494      1846      2288      2289
 -1       828    8    0    1
 -2       344       493       494      2286      2290      2288
 -1       829    8    0    1
 -2       346       345       495      1849      2291      2292
 -1       830    8    0    1
 -2       345       494       495      2289      2293      2291
 -1       831    8    0    1
 -2       347       346       496      1852      2294      2295
 -1       832    8    0    1
 -2       346       495       496      2292      2296      2294
 -1       833    8    0    1
 -2       348       347       497      1855      2297      2298
 -1       834    8    0    1
 -2       347       496       497      2295      2299      2297
 -1       835    8    0    1
 -2       349       348       498      1858      2300      2301
 -1       836    8    0    1
 -2       348       497       498      2298      2302      2300
 -1       837    8    0    1
 -2       350       349       499      1861      2303      2304
 -1       838    8    0    1
 -2       349       498       499      2301      2305      2303
 -1       839    8    0    1
 -2       351       350       500      1864      2306      2307
 -1       840    8    0    1
 -2       350       499       500      2304      2308      2306
 -1       841    8    0    1
 -2       352       351       501      1867      2309      2310
 -1       842    8    0    1
 -2       351       500       501      2307      2311      2309
 -1       843    8    0    1
 -2       353       352       502      1870      2312      2313
 -1       844    8    0    1
 -2       352       501       502      2310      2314      2312
 -1       845    8    0    1
 -2       354       353       503      1873      2315      2316
 -1       846    8    0    1
 -2       353       502       503      2313      2317      2315
 -1       847    8    0    1
 -2       355       354       504      1876      2318      2319
 -1       848    8    0    1
 -2       354       503       504      2316      2320      2318
 -1       849    8    0    1
 -2       356       355       505      1879      2321      2322
 -1       850    8    0    1
 -2       355       504       505      2319      2323      2321
 -1       851    8    0    1
 -2       357       356       506      1882      2324      2325
 -1       852    8    0    1
 -2       356       505       506      2322      2326      2324
 -1       853    8    0    1
 -2       358       357       507      1885      2327      2328
 -1       854    8    0    1
 -2       357       506       507      2325      2329      2327
 -1       855    8    0    1
 -2       359       358       508      1888      2330      2331
 -1       856    8    0    1
 -2       358       507       508      2328      2332      2330
 -1       857    8    0    1
 -2       360       359       509      1891      2333      2334
 -1       858    8    0    1
 -2       359       508       509      2331      2335      2333
 -1       859    8    0    1
 -2       361       360       510      1894      2336      2337
 -1       860    8    0    1
 -2       360       509       510      2334      2338      2336
 -1       861    8    0    1
 -2       362       361       511      1897      2339      2340
 -1       862    8    0    1
 -2       361       510       511      2337      2341      2339
 -1       863    8    0    1
 -2       363       362       512      1900      2342      2343
 -1       864    8    0    1
 -2       362       511       512      2340      2344      2342
 -1       865    8    0    1
 -2       364       363       513      1903      2345      2346
 -1       866    8    0    1
 -2       363       512       513      2343      2347      2345
 -1       867    8    0    1
 -2       365       364       514      1906      2348      2349
 -1       868    8    0    1
 -2       364       513       514      2346      2350      2348
 -1       869    8    0    1
 -2       366       365       515      1909      2351      2352
 -1       870    8    0    1
 -2       365       514       515      2349      2353      2351
 -1       871    8    0    1
 -2       367       366       516      1912      2354      2355
 -1       872    8    0    1
 -2       366       515       516      2352      2356      2354
 -1       873    8    0    1
 -2       368       367       517      1915      2357      2358
 -1       874    8    0    1
 -2       367       516       517      2355      2359      2357
 -1       875    8    0    1
 -2       369       368       518      1918      2360      2361
 -1       876    8    0    1
 -2       368       517       518      2358      2362      2360
 -1       877    8    0    1
 -2       370       369       519      1921      2363      2364
 -1       878    8    0    1
 -2       369       518       519      2361      2365      2363
 -1       879    8    0    1
 -2       371       370       520      1924      2366      2367
 -1       880    8    0    1
 -2       370       519       520      2364      2368      2366
 -1       881    8    0    1
 -2       372       371       521      1927      2369      2370
 -1       882    8    0    1
 -2       371       520       521      2367      2371      2369
 -1       883    8    0    1
 -2       373       372       522      1930      2372      2373
 -1       884    8    0    1
 -2       372       521       522      2370      2374      2372
 -1       885    8    0    1
 -2       374       373       523      1933      2375      2376
 -1       886    8    0    1
 -2       373       522       523      2373      2377      2375
 -1       887    8    0    1
 -2       375       374       524      1936      2378      2379
 -1       888    8    0    1
 -2       374       523       524      2376      2380      2378
 -1       889    8    0    1
 -2       376       375       525      1939      2381      2382
 -1       890    8    0    1
 -2       375       524       525      2379      2383      2381
 -1       891    8    0    1
 -2       377       376       526      1942      2384      2385
 -1       892    8    0    1
 -2       376       525       526      2382      2386      2384
 -1       893    8    0    1
 -2       378       377       527      1945      2387      2388
 -1       894    8    0    1
 -2       377       526       527      2385      2389      2387
 -1       895    8    0    1
 -2       379       378       528      1948      2390      2391
 -1       896    8    0    1
 -2       378       527       528      2388      2392      2390
 -1       897    8    0    1
 -2       442       440       529      2137      2393      2394
 -1       898    8    0    1
 -2       383       384       530      1964      2395      2396
 -1       899    8    0    1
 -2       384       385       531      1967      2397      2398
 -1       900    8    0    1
 -2       384       531       530      2398      2399      2395
 -1       901    8    0    1
 -2       385       386       532      1970      2400      2401
 -1       902    8    0    1
 -2       385       532       531      2401      2402      2397
 -1       903    8    0    1
 -2       386       387       533      1973      2403      2404
 -1       904    8    0    1
 -2       386       533       532      2404      2405      2400
 -1       905    8    0    1
 -2       387       388       534      1976      2406      2407
 -1       906    8    0    1
 -2       387       534       533      2407      2408      2403
 -1       907    8    0    1
 -2       388       389       535      1979      2409      2410
 -1       908    8    0    1
 -2       388       535       534      2410      2411      2406
 -1       909    8    0    1
 -2       389       390       536      1982      2412      2413
 -1       910    8    0    1
 -2       389       536       535      2413      2414      2409
 -1       911    8    0    1
 -2       390       391       537      1985      2415      2416
 -1       912    8    0    1
 -2       390       537       536      2416      2417      2412
 -1       913    8    0    1
 -2       391       392       538      1988      2418      2419
 -1       914    8    0    1
 -2       391       538       537      2419      2420      2415
 -1       915    8    0    1
 -2       392       393       539      1991      2421      2422
 -1       916    8    0    1
 -2       392       539       538      2422      2423      2418
 -1       917    8    0    1
 -2       393       394       540      1994      2424      2425
 -1       918    8    0    1
 -2       393       540       539      2425      2426      2421
 -1       919    8    0    1
 -2       394       395       541      1997      2427      2428
 -1       920    8    0    1
 -2       394       541       540      2428      2429      2424
 -1       921    8    0    1
 -2       395       396       542      2000      2430      2431
 -1       922    8    0    1
 -2       395       542       541      2431      2432      2427
 -1       923    8    0    1
 -2       396       397       543      2003      2433      2434
 -1       924    8    0    1
 -2       396       543       542      2434      2435      2430
 -1       925    8    0    1
 -2       397       398       544      2006      2436      2437
 -1       926    8    0    1
 -2       397       544       543      2437      2438      2433
 -1       927    8    0    1
 -2       398       399       545      2009      2439      2440
 -1       928    8    0    1
 -2       398       545       544      2440      2441      2436
 -1       929    8    0    1
 -2       399       400       546      2012      2442      2443
 -1       930    8    0    1
 -2       399       546       545      2443      2444      2439
 -1       931    8    0    1
 -2       400       401       547      2015      2445      2446
 -1       932    8    0    1
 -2       400       547       546      2446      2447      2442
 -1       933    8    0    1
 -2       401       402       548      2018      2448      2449
 -1       934    8    0    1
 -2       401       548       547      2449      2450      2445
 -1       935    8    0    1
 -2       402       403       549      2021      2451      2452
 -1       936    8    0    1
 -2       402       549       548      2452      2453      2448
 -1       937    8    0    1
 -2       403       404       550      2024      2454      2455
 -1       938    8    0    1
 -2       403       550       549      2455      2456      2451
 -1       939    8    0    1
 -2       404       405       551      2027      2457      2458
 -1       940    8    0    1
 -2       404       551       550      2458      2459      2454
 -1       941    8    0    1
 -2       405       406       552      2030      2460      2461
 -1       942    8    0    1
 -2       405       552       551      2461      2462      2457
 -1       943    8    0    1
 -2       406       407       553      2033      2463      2464
 -1       944    8    0    1
 -2       406       553       552      2464      2465      2460
 -1       945    8    0    1
 -2       407       408       554      2036      2466      2467
 -1       946    8    0    1
 -2       407       554       553      2467      2468      2463
 -1       947    8    0    1
 -2       408       409       555      2039      2469      2470
 -1       948    8    0    1
 -2       408       555       554      2470      2471      2466
 -1       949    8    0    1
 -2       409       410       556      2042      2472      2473
 -1       950    8    0    1
 -2       409       556       555      2473      2474      2469
 -1       951    8    0    1
 -2       410       411       557      2045      2475      2476
 -1       952    8    0    1
 -2       410       557       556      2476      2477      2472
 -1       953    8    0    1
 -2       411       412       558      2048      2478      2479
 -1       954    8    0    1
 -2       411       558       557      2479      2480      2475
 -1       955    8    0    1
 -2       412       413       559      2051      2481      2482
 -1       956    8    0    1
 -2       412       559       558      2482      2483      2478
 -1       957    8    0    1
 -2       413       414       560      2054      2484      2485
 -1       958    8    0    1
 -2       413       560       559      2485      2486      2481
 -1       959    8    0    1
 -2       414       415       561      2057      2487      2488
 -1       960    8    0    1
 -2       414       561       560      2488      2489      2484
 -1       961    8    0    1
 -2       415       416       562      2060      2490      2491
 -1       962    8    0    1
 -2       415       562       561      2491      2492      2487
 -1       963    8    0    1
 -2       416       417       563      2063      2493      2494
 -1       964    8    0    1
 -2       416       563       562      2494      2495      2490
 -1       965    8    0    1
 -2       417       418       564      2066      2496      2497
 -1       966    8    0    1
 -2       417       564       563      2497      2498      2493
 -1       967    8    0    1
 -2       418       419       565      2069      2499      2500
 -1       968    8    0    1
 -2       418       565       564      2500      2501      2496
 -1       969    8    0    1
 -2       419       420       566      2072      2502      2503
 -1       970    8    0    1
 -2       419       566       565      2503      2504      2499
 -1       971    8    0    1
 -2       420       421       567      2075      2505      2506
 -1       972    8    0    1
 -2       420       567       566      2506      2507      2502
 -1       973    8    0    1
 -2       421       422       568      2078      2508      2509
 -1       974    8    0    1
 -2       421       568       567      2509      2510      2505
 -1       975    8    0    1
 -2       422       423       569      2081      2511      2512
 -1       976    8    0    1
 -2       422       569       568      2512      2513      2508
 -1       977    8    0    1
 -2       423       424       570      2084      2514      2515
 -1       978    8    0    1
 -2       423       570       569      2515      2516      2511
 -1       979    8    0    1
 -2       424       425       571      2087      2517      2518
 -1       980    8    0    1
 -2       424       571       570      2518      2519      2514
 -1       981    8    0    1
 -2       425       426       429      2090      2099      2520
 -1       982    8    0    1
 -2       430       431       572      2106      2521      2522
 -1       983    8    0    1
 -2       431       432       573      2109      2523      2524
 -1       984    8    0    1
 -2       431       573       572      2524      2525      2521
 -1       985    8    0    1
 -2       428       427       574      2096      2526      2527
 -1       986    8    0    1
 -2       427       430       575      2103      2528      2529
 -1       987    8    0    1
 -2       574       427       575      2526      2529      2530
 -1       988    8    0    1
 -2       430       572       575      2522      2531      2528
 -1       989    8    0    1
 -2       432       433       576      2112      2532      2533
 -1       990    8    0    1
 -2       432       576       573      2533      2534      2523
 -1       991    8    0    1
 -2       433       434       577      2115      2535      2536
 -1       992    8    0    1
 -2       433       577       576      2536      2537      2532
 -1       993    8    0    1
 -2       434       435       578      2118      2538      2539
 -1       994    8    0    1
 -2       434       578       577      2539      2540      2535
 -1       995    8    0    1
 -2       435       436       579      2121      2541      2542
 -1       996    8    0    1
 -2       435       579       578      2542      2543      2538
 -1       997    8    0    1
 -2       436       437       580      2124      2544      2545
 -1       998    8    0    1
 -2       436       580       579      2545      2546      2541
 -1       999    8    0    1
 -2       437       438       581      2127      2547      2548
 -1      1000    8    0    1
 -2       437       581       580      2548      2549      2544
 -1      1001    8    0    1
 -2       438       439       582      2130      2550      2551
 -1      1002    8    0    1
 -2       438       582       581      2551      2552      2547
 -1      1003    8    0    1
 -2       439       290       380      2206      1951      2553
 -1      1004    8    0    1
 -2       468       441       583      2207      2554      2555
 -1      1005    8    0    1
 -2       382       383       584      1961      2556      2557
 -1      1006    8    0    1
 -2       383       530       584      2396      2558      2556
 -1      1007    8    0    1
 -2       440       443       585      2205      2559      2560
 -1      1008    8    0    1
 -2       467       468       586      2209      2561      2562
 -1      1009    8    0    1
 -2       335       321       587      2201      2563      2564
 -1      1010    8    0    1
 -2       484       335       587      2260      2564      2565
 -1      1011    8    0    1
 -2       321       320       587      1773      2566      2563
 -1      1012    8    0    1
 -2       443       444       588      2208      2567      2568
 -1      1013    8    0    1
 -2       455       456       589      2219      2569      2570
 -1      1014    8    0    1
 -2       324       325       590      1784      2571      2572
 -1      1015    8    0    1
 -2       475       324       590      2235      2572      2573
 -1      1016    8    0    1
 -2       325       477       590      2241      2574      2571
 -1      1017    8    0    1
 -2       450       451       591      2228      2575      2576
 -1      1018    8    0    1
 -2       446       447       592      2150      2577      2578
 -1      1019    8    0    1
 -2       448       449       593      2155      2579      2580
 -1      1020    8    0    1
 -2       449       450       594      2224      2581      2582
 -1      1021    8    0    1
 -2       451       452       595      2223      2583      2584
 -1      1022    8    0    1
 -2       452       453       596      2222      2585      2586
 -1      1023    8    0    1
 -2       452       596       595      2586      2587      2583
 -1      1024    8    0    1
 -2       453       454       597      2221      2588      2589
 -1      1025    8    0    1
 -2       454       455       598      2220      2590      2591
 -1      1026    8    0    1
 -2       455       589       598      2570      2592      2590
 -1      1027    8    0    1
 -2       456       457       599      2172      2593      2594
 -1      1028    8    0    1
 -2       461       462       600      2232      2595      2596
 -1      1029    8    0    1
 -2       459       460       601      2179      2597      2598
 -1      1030    8    0    1
 -2       460       461       602      2215      2599      2600
 -1      1031    8    0    1
 -2       460       602       601      2600      2601      2597
 -1      1032    8    0    1
 -2       462       463       603      2214      2602      2603
 -1      1033    8    0    1
 -2       463       464       604      2213      2604      2605
 -1      1034    8    0    1
 -2       464       465       605      2212      2606      2607
 -1      1035    8    0    1
 -2       465       466       606      2211      2608      2609
 -1      1036    8    0    1
 -2       466       467       607      2210      2610      2611
 -1      1037    8    0    1
 -2       333       334       608      1813      2612      2613
 -1      1038    8    0    1
 -2       332       333       608      1808      2613      2614
 -1      1039    8    0    1
 -2       334       474       608      2234      2615      2612
 -1      1040    8    0    1
 -2       444       469       609      2198      2616      2617
 -1      1041    8    0    1
 -2       444       609       588      2617      2618      2567
 -1      1042    8    0    1
 -2       450       591       594      2576      2619      2581
 -1      1043    8    0    1
 -2       322       476       610      2238      2620      2621
 -1      1044    8    0    1
 -2       322       610       445      2621      2622      2145
 -1      1045    8    0    1
 -2       483       382       584      2257      2557      2623
 -1      1046    8    0    1
 -2       331       332       608      1805      2614      2624
 -1      1047    8    0    1
 -2       609       469       485      2616      2263      2625
 -1      1048    8    0    1
 -2       607       467       586      2610      2562      2626
 -1      1049    8    0    1
 -2       606       466       607      2608      2611      2627
 -1      1050    8    0    1
 -2       605       465       606      2606      2609      2628
 -1      1051    8    0    1
 -2       470       442       611      2204      2629      2630
 -1      1052    8    0    1
 -2       442       529       611      2394      2631      2629
 -1      1053    8    0    1
 -2       468       583       586      2555      2632      2561
 -1      1054    8    0    1
 -2       529       440       585      2393      2560      2633
 -1      1055    8    0    1
 -2       425       429       571      2520      2634      2517
 -1      1056    8    0    1
 -2       429       428       571      2100      2635      2634
 -1      1057    8    0    1
 -2       604       464       605      2604      2607      2636
 -1      1058    8    0    1
 -2       439       380       612      2553      2637      2638
 -1      1059    8    0    1
 -2       582       439       612      2550      2638      2639
 -1      1060    8    0    1
 -2       380       379       612      1952      2640      2637
 -1      1061    8    0    1
 -2       602       461       600      2599      2596      2641
 -1      1062    8    0    1
 -2       462       603       600      2603      2642      2595
 -1      1063    8    0    1
 -2       583       441       470      2554      2203      2643
 -1      1064    8    0    1
 -2       331       608       482      2624      2644      2254
 -1      1065    8    0    1
 -2       585       443       588      2559      2568      2645
 -1      1066    8    0    1
 -2       589       456       599      2569      2594      2646
 -1      1067    8    0    1
 -2       596       453       597      2585      2589      2647
 -1      1068    8    0    1
 -2       593       449       594      2579      2582      2648
 -1      1069    8    0    1
 -2       587       320       445      2566      2144      2649
 -1      1070    8    0    1
 -2       471       458       613      2218      2650      2651
 -1      1071    8    0    1
 -2       458       473       613      2230      2652      2650
 -1      1072    8    0    1
 -2       457       471       599      2217      2653      2593
 -1      1073    8    0    1
 -2       485       446       592      2262      2578      2654
 -1      1074    8    0    1
 -2       472       448       614      2225      2655      2656
 -1      1075    8    0    1
 -2       448       593       614      2580      2657      2655
 -1      1076    8    0    1
 -2       592       447       615      2577      2658      2659
 -1      1077    8    0    1
 -2       447       472       615      2227      2660      2658
 -1      1078    8    0    1
 -2       473       459       601      2231      2598      2661
 -1      1079    8    0    1
 -2       451       595       591      2584      2662      2575
 -1      1080    8    0    1
 -2       597       454       598      2588      2591      2663
 -1      1081    8    0    1
 -2       603       463       604      2602      2605      2664
 -1      1082    8    0    1
 -2       571       428       574      2635      2527      2665
 -1      1083    8    0    1
 -2       612       379       528      2640      2391      2666
 -1      1084    8    0    1
 -2       478       479       616      2247      2667      2668
 -1      1085    8    0    1
 -2       477       478       617      2244      2669      2670
 -1      1086    8    0    1
 -2       478       616       617      2668      2671      2669
 -1      1087    8    0    1
 -2       480       481       618      2253      2672      2673
 -1      1088    8    0    1
 -2       481       482       619      2256      2674      2675
 -1      1089    8    0    1
 -2       481       619       618      2675      2676      2672
 -1      1090    8    0    1
 -2       474       483       620      2259      2677      2678
 -1      1091    8    0    1
 -2       585       588       621      2645      2679      2680
 -1      1092    8    0    1
 -2       483       584       622      2623      2681      2682
 -1      1093    8    0    1
 -2       483       622       620      2682      2683      2677
 -1      1094    8    0    1
 -2       594       591       623      2619      2684      2685
 -1      1095    8    0    1
 -2       607       586       624      2626      2686      2687
 -1      1096    8    0    1
 -2       487       486       625      2269      2688      2689
 -1      1097    8    0    1
 -2       488       487       626      2272      2690      2691
 -1      1098    8    0    1
 -2       487       625       626      2689      2692      2690
 -1      1099    8    0    1
 -2       489       488       627      2275      2693      2694
 -1      1100    8    0    1
 -2       488       626       627      2691      2695      2693
 -1      1101    8    0    1
 -2       490       489       628      2278      2696      2697
 -1      1102    8    0    1
 -2       489       627       628      2694      2698      2696
 -1      1103    8    0    1
 -2       491       490       629      2281      2699      2700
 -1      1104    8    0    1
 -2       490       628       629      2697      2701      2699
 -1      1105    8    0    1
 -2       492       491       630      2284      2702      2703
 -1      1106    8    0    1
 -2       491       629       630      2700      2704      2702
 -1      1107    8    0    1
 -2       493       492       631      2287      2705      2706
 -1      1108    8    0    1
 -2       492       630       631      2703      2707      2705
 -1      1109    8    0    1
 -2       494       493       632      2290      2708      2709
 -1      1110    8    0    1
 -2       493       631       632      2706      2710      2708
 -1      1111    8    0    1
 -2       495       494       633      2293      2711      2712
 -1      1112    8    0    1
 -2       494       632       633      2709      2713      2711
 -1      1113    8    0    1
 -2       496       495       634      2296      2714      2715
 -1      1114    8    0    1
 -2       495       633       634      2712      2716      2714
 -1      1115    8    0    1
 -2       497       496       635      2299      2717      2718
 -1      1116    8    0    1
 -2       496       634       635      2715      2719      2717
 -1      1117    8    0    1
 -2       498       497       636      2302      2720      2721
 -1      1118    8    0    1
 -2       497       635       636      2718      2722      2720
 -1      1119    8    0    1
 -2       499       498       637      2305      2723      2724
 -1      1120    8    0    1
 -2       498       636       637      2721      2725      2723
 -1      1121    8    0    1
 -2       500       499       638      2308      2726      2727
 -1      1122    8    0    1
 -2       499       637       638      2724      2728      2726
 -1      1123    8    0    1
 -2       501       500       639      2311      2729      2730
 -1      1124    8    0    1
 -2       500       638       639      2727      2731      2729
 -1      1125    8    0    1
 -2       502       501       640      2314      2732      2733
 -1      1126    8    0    1
 -2       501       639       640      2730      2734      2732
 -1      1127    8    0    1
 -2       503       502       641      2317      2735      2736
 -1      1128    8    0    1
 -2       502       640       641      2733      2737      2735
 -1      1129    8    0    1
 -2       504       503       642      2320      2738      2739
 -1      1130    8    0    1
 -2       503       641       642      2736      2740      2738
 -1      1131    8    0    1
 -2       505       504       643      2323      2741      2742
 -1      1132    8    0    1
 -2       504       642       643      2739      2743      2741
 -1      1133    8    0    1
 -2       506       505       644      2326      2744      2745
 -1      1134    8    0    1
 -2       505       643       644      2742      2746      2744
 -1      1135    8    0    1
 -2       507       506       645      2329      2747      2748
 -1      1136    8    0    1
 -2       506       644       645      2745      2749      2747
 -1      1137    8    0    1
 -2       508       507       646      2332      2750      2751
 -1      1138    8    0    1
 -2       507       645       646      2748      2752      2750
 -1      1139    8    0    1
 -2       509       508       647      2335      2753      2754
 -1      1140    8    0    1
 -2       508       646       647      2751      2755      2753
 -1      1141    8    0    1
 -2       510       509       648      2338      2756      2757
 -1      1142    8    0    1
 -2       509       647       648      2754      2758      2756
 -1      1143    8    0    1
 -2       511       510       649      2341      2759      2760
 -1      1144    8    0    1
 -2       510       648       649      2757      2761      2759
 -1      1145    8    0    1
 -2       512       511       650      2344      2762      2763
 -1      1146    8    0    1
 -2       511       649       650      2760      2764      2762
 -1      1147    8    0    1
 -2       513       512       651      2347      2765      2766
 -1      1148    8    0    1
 -2       512       650       651      2763      2767      2765
 -1      1149    8    0    1
 -2       514       513       652      2350      2768      2769
 -1      1150    8    0    1
 -2       513       651       652      2766      2770      2768
 -1      1151    8    0    1
 -2       515       514       653      2353      2771      2772
 -1      1152    8    0    1
 -2       514       652       653      2769      2773      2771
 -1      1153    8    0    1
 -2       516       515       654      2356      2774      2775
 -1      1154    8    0    1
 -2       515       653       654      2772      2776      2774
 -1      1155    8    0    1
 -2       517       516       655      2359      2777      2778
 -1      1156    8    0    1
 -2       516       654       655      2775      2779      2777
 -1      1157    8    0    1
 -2       518       517       656      2362      2780      2781
 -1      1158    8    0    1
 -2       517       655       656      2778      2782      2780
 -1      1159    8    0    1
 -2       519       518       657      2365      2783      2784
 -1      1160    8    0    1
 -2       518       656       657      2781      2785      2783
 -1      1161    8    0    1
 -2       520       519       658      2368      2786      2787
 -1      1162    8    0    1
 -2       519       657       658      2784      2788      2786
 -1      1163    8    0    1
 -2       521       520       659      2371      2789      2790
 -1      1164    8    0    1
 -2       520       658       659      2787      2791      2789
 -1      1165    8    0    1
 -2       522       521       660      2374      2792      2793
 -1      1166    8    0    1
 -2       521       659       660      2790      2794      2792
 -1      1167    8    0    1
 -2       523       522       661      2377      2795      2796
 -1      1168    8    0    1
 -2       522       660       661      2793      2797      2795
 -1      1169    8    0    1
 -2       524       523       662      2380      2798      2799
 -1      1170    8    0    1
 -2       523       661       662      2796      2800      2798
 -1      1171    8    0    1
 -2       525       524       663      2383      2801      2802
 -1      1172    8    0    1
 -2       524       662       663      2799      2803      2801
 -1      1173    8    0    1
 -2       526       525       664      2386      2804      2805
 -1      1174    8    0    1
 -2       525       663       664      2802      2806      2804
 -1      1175    8    0    1
 -2       527       526       665      2389      2807      2808
 -1      1176    8    0    1
 -2       526       664       665      2805      2809      2807
 -1      1177    8    0    1
 -2       528       527       666      2392      2810      2811
 -1      1178    8    0    1
 -2       527       665       666      2808      2812      2810
 -1      1179    8    0    1
 -2       602       600       667      2641      2813      2814
 -1      1180    8    0    1
 -2       604       605       668      2636      2815      2816
 -1      1181    8    0    1
 -2       530       531       669      2399      2817      2818
 -1      1182    8    0    1
 -2       533       534       670      2408      2819      2820
 -1      1183    8    0    1
 -2       534       535       671      2411      2821      2822
 -1      1184    8    0    1
 -2       534       671       670      2822      2823      2819
 -1      1185    8    0    1
 -2       535       536       672      2414      2824      2825
 -1      1186    8    0    1
 -2       535       672       671      2825      2826      2821
 -1      1187    8    0    1
 -2       536       537       673      2417      2827      2828
 -1      1188    8    0    1
 -2       536       673       672      2828      2829      2824
 -1      1189    8    0    1
 -2       537       538       674      2420      2830      2831
 -1      1190    8    0    1
 -2       537       674       673      2831      2832      2827
 -1      1191    8    0    1
 -2       538       539       675      2423      2833      2834
 -1      1192    8    0    1
 -2       538       675       674      2834      2835      2830
 -1      1193    8    0    1
 -2       539       540       676      2426      2836      2837
 -1      1194    8    0    1
 -2       539       676       675      2837      2838      2833
 -1      1195    8    0    1
 -2       540       541       677      2429      2839      2840
 -1      1196    8    0    1
 -2       540       677       676      2840      2841      2836
 -1      1197    8    0    1
 -2       541       542       678      2432      2842      2843
 -1      1198    8    0    1
 -2       541       678       677      2843      2844      2839
 -1      1199    8    0    1
 -2       542       543       679      2435      2845      2846
 -1      1200    8    0    1
 -2       542       679       678      2846      2847      2842
 -1      1201    8    0    1
 -2       543       544       680      2438      2848      2849
 -1      1202    8    0    1
 -2       543       680       679      2849      2850      2845
 -1      1203    8    0    1
 -2       544       545       681      2441      2851      2852
 -1      1204    8    0    1
 -2       544       681       680      2852      2853      2848
 -1      1205    8    0    1
 -2       545       546       682      2444      2854      2855
 -1      1206    8    0    1
 -2       545       682       681      2855      2856      2851
 -1      1207    8    0    1
 -2       546       547       683      2447      2857      2858
 -1      1208    8    0    1
 -2       546       683       682      2858      2859      2854
 -1      1209    8    0    1
 -2       547       548       684      2450      2860      2861
 -1      1210    8    0    1
 -2       547       684       683      2861      2862      2857
 -1      1211    8    0    1
 -2       548       549       685      2453      2863      2864
 -1      1212    8    0    1
 -2       548       685       684      2864      2865      2860
 -1      1213    8    0    1
 -2       549       550       686      2456      2866      2867
 -1      1214    8    0    1
 -2       549       686       685      2867      2868      2863
 -1      1215    8    0    1
 -2       550       551       687      2459      2869      2870
 -1      1216    8    0    1
 -2       550       687       686      2870      2871      2866
 -1      1217    8    0    1
 -2       551       552       688      2462      2872      2873
 -1      1218    8    0    1
 -2       551       688       687      2873      2874      2869
 -1      1219    8    0    1
 -2       552       553       689      2465      2875      2876
 -1      1220    8    0    1
 -2       552       689       688      2876      2877      2872
 -1      1221    8    0    1
 -2       553       554       690      2468      2878      2879
 -1      1222    8    0    1
 -2       553       690       689      2879      2880      2875
 -1      1223    8    0    1
 -2       554       555       691      2471      2881      2882
 -1      1224    8    0    1
 -2       554       691       690      2882      2883      2878
 -1      1225    8    0    1
 -2       555       556       692      2474      2884      2885
 -1      1226    8    0    1
 -2       555       692       691      2885      2886      2881
 -1      1227    8    0    1
 -2       556       557       693      2477      2887      2888
 -1      1228    8    0    1
 -2       556       693       692      2888      2889      2884
 -1      1229    8    0    1
 -2       557       558       694      2480      2890      2891
 -1      1230    8    0    1
 -2       557       694       693      2891      2892      2887
 -1      1231    8    0    1
 -2       558       559       695      2483      2893      2894
 -1      1232    8    0    1
 -2       558       695       694      2894      2895      2890
 -1      1233    8    0    1
 -2       559       560       696      2486      2896      2897
 -1      1234    8    0    1
 -2       559       696       695      2897      2898      2893
 -1      1235    8    0    1
 -2       560       561       697      2489      2899      2900
 -1      1236    8    0    1
 -2       560       697       696      2900      2901      2896
 -1      1237    8    0    1
 -2       561       562       698      2492      2902      2903
 -1      1238    8    0    1
 -2       561       698       697      2903      2904      2899
 -1      1239    8    0    1
 -2       562       563       699      2495      2905      2906
 -1      1240    8    0    1
 -2       562       699       698      2906      2907      2902
 -1      1241    8    0    1
 -2       563       564       700      2498      2908      2909
 -1      1242    8    0    1
 -2       563       700       699      2909      2910      2905
 -1      1243    8    0    1
 -2       564       565       701      2501      2911      2912
 -1      1244    8    0    1
 -2       564       701       700      2912      2913      2908
 -1      1245    8    0    1
 -2       565       566       702      2504      2914      2915
 -1      1246    8    0    1
 -2       565       702       701      2915      2916      2911
 -1      1247    8    0    1
 -2       566       567       703      2507      2917      2918
 -1      1248    8    0    1
 -2       566       703       702      2918      2919      2914
 -1      1249    8    0    1
 -2       567       568       704      2510      2920      2921
 -1      1250    8    0    1
 -2       567       704       703      2921      2922      2917
 -1      1251    8    0    1
 -2       568       569       705      2513      2923      2924
 -1      1252    8    0    1
 -2       568       705       704      2924      2925      2920
 -1      1253    8    0    1
 -2       569       570       706      2516      2926      2927
 -1      1254    8    0    1
 -2       569       706       705      2927      2928      2923
 -1      1255    8    0    1
 -2       570       571       707      2519      2929      2930
 -1      1256    8    0    1
 -2       706       570       707      2926      2930      2931
 -1      1257    8    0    1
 -2       571       574       707      2665      2932      2929
 -1      1258    8    0    1
 -2       576       577       708      2537      2933      2934
 -1      1259    8    0    1
 -2       612       528       709      2666      2935      2936
 -1      1260    8    0    1
 -2       528       666       709      2811      2937      2935
 -1      1261    8    0    1
 -2       572       573       710      2525      2938      2939
 -1      1262    8    0    1
 -2       577       578       711      2540      2940      2941
 -1      1263    8    0    1
 -2       577       711       708      2941      2942      2933
 -1      1264    8    0    1
 -2       573       576       712      2534      2943      2944
 -1      1265    8    0    1
 -2       710       573       712      2938      2944      2945
 -1      1266    8    0    1
 -2       576       708       712      2934      2946      2943
 -1      1267    8    0    1
 -2       529       585       713      2633      2947      2948
 -1      1268    8    0    1
 -2       578       579       714      2543      2949      2950
 -1      1269    8    0    1
 -2       578       714       711      2950      2951      2940
 -1      1270    8    0    1
 -2       579       580       715      2546      2952      2953
 -1      1271    8    0    1
 -2       579       715       714      2953      2954      2949
 -1      1272    8    0    1
 -2       580       581       716      2549      2955      2956
 -1      1273    8    0    1
 -2       580       716       715      2956      2957      2952
 -1      1274    8    0    1
 -2       584       530       717      2558      2958      2959
 -1      1275    8    0    1
 -2       622       584       717      2681      2959      2960
 -1      1276    8    0    1
 -2       530       669       717      2818      2961      2958
 -1      1277    8    0    1
 -2       583       470       718      2643      2962      2963
 -1      1278    8    0    1
 -2       606       607       719      2627      2964      2965
 -1      1279    8    0    1
 -2       598       589       720      2592      2966      2967
 -1      1280    8    0    1
 -2       484       587       721      2565      2968      2969
 -1      1281    8    0    1
 -2       608       474       482      2615      2970      2644
 -1      1282    8    0    1
 -2       596       597       722      2647      2971      2972
 -1      1283    8    0    1
 -2       593       594       723      2648      2973      2974
 -1      1284    8    0    1
 -2       532       533       724      2405      2975      2976
 -1      1285    8    0    1
 -2       533       670       724      2820      2977      2975
 -1      1286    8    0    1
 -2       531       532       725      2402      2978      2979
 -1      1287    8    0    1
 -2       532       724       725      2976      2980      2978
 -1      1288    8    0    1
 -2       486       484       726      2266      2981      2982
 -1      1289    8    0    1
 -2       625       486       726      2688      2982      2983
 -1      1290    8    0    1
 -2       484       721       726      2969      2984      2981
 -1      1291    8    0    1
 -2       479       480       727      2250      2985      2986
 -1      1292    8    0    1
 -2       616       479       727      2667      2986      2987
 -1      1293    8    0    1
 -2       480       618       727      2673      2988      2985
 -1      1294    8    0    1
 -2       589       599       728      2646      2989      2990
 -1      1295    8    0    1
 -2       589       728       720      2990      2991      2966
 -1      1296    8    0    1
 -2       476       475       729      2239      2992      2993
 -1      1297    8    0    1
 -2       473       601       730      2661      2994      2995
 -1      1298    8    0    1
 -2       587       445       721      2649      2996      2968
 -1      1299    8    0    1
 -2       599       471       731      2653      2997      2998
 -1      1300    8    0    1
 -2       595       596       732      2587      2999      3000
 -1      1301    8    0    1
 -2       603       604       733      2664      3001      3002
 -1      1302    8    0    1
 -2       485       592       734      2654      3003      3004
 -1      1303    8    0    1
 -2       600       603       735      2642      3005      3006
 -1      1304    8    0    1
 -2       600       735       667      3006      3007      2813
 -1      1305    8    0    1
 -2       597       598       736      2663      3008      3009
 -1      1306    8    0    1
 -2       591       595       737      2662      3010      3011
 -1      1307    8    0    1
 -2       601       602       738      2601      3012      3013
 -1      1308    8    0    1
 -2       586       583       739      2632      3014      3015
 -1      1309    8    0    1
 -2       588       609       740      2618      3016      3017
 -1      1310    8    0    1
 -2       582       612       709      2639      2936      3018
 -1      1311    8    0    1
 -2       605       606       741      2628      3019      3020
 -1      1312    8    0    1
 -2       609       485       742      2625      3021      3022
 -1      1313    8    0    1
 -2       610       476       743      2620      3023      3024
 -1      1314    8    0    1
 -2       476       729       743      2993      3025      3023
 -1      1315    8    0    1
 -2       477       617       744      2670      3026      3027
 -1      1316    8    0    1
 -2       477       744       590      3027      3028      2574
 -1      1317    8    0    1
 -2       594       623       723      2685      3029      2973
 -1      1318    8    0    1
 -2       585       621       713      2680      3030      2947
 -1      1319    8    0    1
 -2       742       485       734      3021      3004      3031
 -1      1320    8    0    1
 -2       623       591       737      2684      3011      3032
 -1      1321    8    0    1
 -2       607       624       719      2687      3033      2964
 -1      1322    8    0    1
 -2       602       667       738      2814      3034      3012
 -1      1323    8    0    1
 -2       611       529       745      2631      3035      3036
 -1      1324    8    0    1
 -2       529       713       745      2948      3037      3035
 -1      1325    8    0    1
 -2       740       609       742      3016      3022      3038
 -1      1326    8    0    1
 -2       739       583       746      3014      3039      3040
 -1      1327    8    0    1
 -2       583       718       746      2963      3041      3039
 -1      1328    8    0    1
 -2       572       710       747      2939      3042      3043
 -1      1329    8    0    1
 -2       572       747       575      3043      3044      2531
 -1      1330    8    0    1
 -2       597       736       722      3009      3045      2971
 -1      1331    8    0    1
 -2       604       668       733      2816      3046      3001
 -1      1332    8    0    1
 -2       531       725       669      2979      3047      2817
 -1      1333    8    0    1
 -2       737       595       732      3010      3000      3048
 -1      1334    8    0    1
 -2       605       741       668      3020      3049      2815
 -1      1335    8    0    1
 -2       574       575       748      2530      3050      3051
 -1      1336    8    0    1
 -2       707       574       748      2932      3051      3052
 -1      1337    8    0    1
 -2       575       747       748      3044      3053      3050
 -1      1338    8    0    1
 -2       735       603       733      3005      3002      3054
 -1      1339    8    0    1
 -2       728       599       749      2989      3055      3056
 -1      1340    8    0    1
 -2       599       731       749      2998      3057      3055
 -1      1341    8    0    1
 -2       581       582       709      2552      3018      3058
 -1      1342    8    0    1
 -2       734       592       615      3003      2659      3059
 -1      1343    8    0    1
 -2       581       709       750      3058      3060      3061
 -1      1344    8    0    1
 -2       716       581       750      2955      3061      3062
 -1      1345    8    0    1
 -2       709       666       750      2937      3063      3060
 -1      1346    8    0    1
 -2       606       719       741      2965      3064      3019
 -1      1347    8    0    1
 -2       598       720       736      2967      3065      3008
 -1      1348    8    0    1
 -2       482       474       620      2970      2678      3066
 -1      1349    8    0    1
 -2       593       723       751      2974      3067      3068
 -1      1350    8    0    1
 -2       593       751       614      3068      3069      2657
 -1      1351    8    0    1
 -2       445       610       721      2622      3070      2996
 -1      1352    8    0    1
 -2       613       473       752      2652      3071      3072
 -1      1353    8    0    1
 -2       473       730       752      2995      3073      3071
 -1      1354    8    0    1
 -2       475       590       753      2573      3074      3075
 -1      1355    8    0    1
 -2       729       475       753      2992      3075      3076
 -1      1356    8    0    1
 -2       590       744       753      3028      3077      3074
 -1      1357    8    0    1
 -2       730       601       738      2994      3013      3078
 -1      1358    8    0    1
 -2       615       472       754      2660      3079      3080
 -1      1359    8    0    1
 -2       472       614       754      2656      3081      3079
 -1      1360    8    0    1
 -2       471       613       755      2651      3082      3083
 -1      1361    8    0    1
 -2       471       755       731      3083      3084      2997
 -1      1362    8    0    1
 -2       718       470       611      2962      2630      3085
 -1      1363    8    0    1
 -2       621       588       740      2679      3017      3086
 -1      1364    8    0    1
 -2       482       620       619      3066      3087      2674
 -1      1365    8    0    1
 -2       618       619       756      2676      3088      3089
 -1      1366    8    0    1
 -2       720       728       757      2991      3090      3091
 -1      1367    8    0    1
 -2       627       626       758      2695      3092      3093
 -1      1368    8    0    1
 -2       628       627       759      2698      3094      3095
 -1      1369    8    0    1
 -2       627       758       759      3093      3096      3094
 -1      1370    8    0    1
 -2       629       628       760      2701      3097      3098
 -1      1371    8    0    1
 -2       628       759       760      3095      3099      3097
 -1      1372    8    0    1
 -2       630       629       761      2704      3100      3101
 -1      1373    8    0    1
 -2       629       760       761      3098      3102      3100
 -1      1374    8    0    1
 -2       631       630       762      2707      3103      3104
 -1      1375    8    0    1
 -2       630       761       762      3101      3105      3103
 -1      1376    8    0    1
 -2       632       631       763      2710      3106      3107
 -1      1377    8    0    1
 -2       631       762       763      3104      3108      3106
 -1      1378    8    0    1
 -2       633       632       752      2713      3109      3110
 -1      1379    8    0    1
 -2       635       634       738      2719      3111      3112
 -1      1380    8    0    1
 -2       639       638       764      2731      3113      3114
 -1      1381    8    0    1
 -2       640       639       765      2734      3115      3116
 -1      1382    8    0    1
 -2       639       764       765      3114      3117      3115
 -1      1383    8    0    1
 -2       641       640       766      2737      3118      3119
 -1      1384    8    0    1
 -2       640       765       766      3116      3120      3118
 -1      1385    8    0    1
 -2       642       641       767      2740      3121      3122
 -1      1386    8    0    1
 -2       641       766       767      3119      3123      3121
 -1      1387    8    0    1
 -2       643       642       768      2743      3124      3125
 -1      1388    8    0    1
 -2       642       767       768      3122      3126      3124
 -1      1389    8    0    1
 -2       644       643       769      2746      3127      3128
 -1      1390    8    0    1
 -2       643       768       769      3125      3129      3127
 -1      1391    8    0    1
 -2       645       644       770      2749      3130      3131
 -1      1392    8    0    1
 -2       644       769       770      3128      3132      3130
 -1      1393    8    0    1
 -2       646       645       771      2752      3133      3134
 -1      1394    8    0    1
 -2       645       770       771      3131      3135      3133
 -1      1395    8    0    1
 -2       647       646       772      2755      3136      3137
 -1      1396    8    0    1
 -2       646       771       772      3134      3138      3136
 -1      1397    8    0    1
 -2       648       647       773      2758      3139      3140
 -1      1398    8    0    1
 -2       647       772       773      3137      3141      3139
 -1      1399    8    0    1
 -2       649       648       774      2761      3142      3143
 -1      1400    8    0    1
 -2       648       773       774      3140      3144      3142
 -1      1401    8    0    1
 -2       650       649       775      2764      3145      3146
 -1      1402    8    0    1
 -2       649       774       775      3143      3147      3145
 -1      1403    8    0    1
 -2       651       650       776      2767      3148      3149
 -1      1404    8    0    1
 -2       650       775       776      3146      3150      3148
 -1      1405    8    0    1
 -2       652       651       777      2770      3151      3152
 -1      1406    8    0    1
 -2       651       776       777      3149      3153      3151
 -1      1407    8    0    1
 -2       653       652       778      2773      3154      3155
 -1      1408    8    0    1
 -2       652       777       778      3152      3156      3154
 -1      1409    8    0    1
 -2       654       653       779      2776      3157      3158
 -1      1410    8    0    1
 -2       653       778       779      3155      3159      3157
 -1      1411    8    0    1
 -2       655       654       780      2779      3160      3161
 -1      1412    8    0    1
 -2       654       779       780      3158      3162      3160
 -1      1413    8    0    1
 -2       656       655       781      2782      3163      3164
 -1      1414    8    0    1
 -2       655       780       781      3161      3165      3163
 -1      1415    8    0    1
 -2       657       656       782      2785      3166      3167
 -1      1416    8    0    1
 -2       656       781       782      3164      3168      3166
 -1      1417    8    0    1
 -2       658       657       783      2788      3169      3170
 -1      1418    8    0    1
 -2       657       782       783      3167      3171      3169
 -1      1419    8    0    1
 -2       659       658       784      2791      3172      3173
 -1      1420    8    0    1
 -2       658       783       784      3170      3174      3172
 -1      1421    8    0    1
 -2       660       659       785      2794      3175      3176
 -1      1422    8    0    1
 -2       659       784       785      3173      3177      3175
 -1      1423    8    0    1
 -2       661       660       786      2797      3178      3179
 -1      1424    8    0    1
 -2       660       785       786      3176      3180      3178
 -1      1425    8    0    1
 -2       662       661       787      2800      3181      3182
 -1      1426    8    0    1
 -2       661       786       787      3179      3183      3181
 -1      1427    8    0    1
 -2       663       662       788      2803      3184      3185
 -1      1428    8    0    1
 -2       662       787       788      3182      3186      3184
 -1      1429    8    0    1
 -2       664       663       789      2806      3187      3188
 -1      1430    8    0    1
 -2       663       788       789      3185      3189      3187
 -1      1431    8    0    1
 -2       665       664       790      2809      3190      3191
 -1      1432    8    0    1
 -2       664       789       790      3188      3192      3190
 -1      1433    8    0    1
 -2       666       665       791      2812      3193      3194
 -1      1434    8    0    1
 -2       750       666       791      3063      3194      3195
 -1      1435    8    0    1
 -2       665       790       791      3191      3196      3193
 -1      1436    8    0    1
 -2       670       671       792      2823      3197      3198
 -1      1437    8    0    1
 -2       673       674       793      2832      3199      3200
 -1      1438    8    0    1
 -2       674       675       751      2835      3201      3202
 -1      1439    8    0    1
 -2       675       676       754      2838      3203      3204
 -1      1440    8    0    1
 -2       676       677       734      2841      3205      3206
 -1      1441    8    0    1
 -2       677       678       734      2844      3207      3205
 -1      1442    8    0    1
 -2       678       679       794      2847      3208      3209
 -1      1443    8    0    1
 -2       679       680       795      2850      3210      3211
 -1      1444    8    0    1
 -2       679       795       794      3211      3212      3208
 -1      1445    8    0    1
 -2       680       681       796      2853      3213      3214
 -1      1446    8    0    1
 -2       680       796       795      3214      3215      3210
 -1      1447    8    0    1
 -2       681       682       797      2856      3216      3217
 -1      1448    8    0    1
 -2       681       797       796      3217      3218      3213
 -1      1449    8    0    1
 -2       682       683       798      2859      3219      3220
 -1      1450    8    0    1
 -2       682       798       797      3220      3221      3216
 -1      1451    8    0    1
 -2       683       684       799      2862      3222      3223
 -1      1452    8    0    1
 -2       683       799       798      3223      3224      3219
 -1      1453    8    0    1
 -2       684       685       800      2865      3225      3226
 -1      1454    8    0    1
 -2       684       800       799      3226      3227      3222
 -1      1455    8    0    1
 -2       685       686       801      2868      3228      3229
 -1      1456    8    0    1
 -2       685       801       800      3229      3230      3225
 -1      1457    8    0    1
 -2       686       687       802      2871      3231      3232
 -1      1458    8    0    1
 -2       686       802       801      3232      3233      3228
 -1      1459    8    0    1
 -2       687       688       803      2874      3234      3235
 -1      1460    8    0    1
 -2       687       803       802      3235      3236      3231
 -1      1461    8    0    1
 -2       688       689       804      2877      3237      3238
 -1      1462    8    0    1
 -2       688       804       803      3238      3239      3234
 -1      1463    8    0    1
 -2       689       690       805      2880      3240      3241
 -1      1464    8    0    1
 -2       689       805       804      3241      3242      3237
 -1      1465    8    0    1
 -2       690       691       806      2883      3243      3244
 -1      1466    8    0    1
 -2       690       806       805      3244      3245      3240
 -1      1467    8    0    1
 -2       691       692       807      2886      3246      3247
 -1      1468    8    0    1
 -2       691       807       806      3247      3248      3243
 -1      1469    8    0    1
 -2       692       693       808      2889      3249      3250
 -1      1470    8    0    1
 -2       692       808       807      3250      3251      3246
 -1      1471    8    0    1
 -2       693       694       809      2892      3252      3253
 -1      1472    8    0    1
 -2       693       809       808      3253      3254      3249
 -1      1473    8    0    1
 -2       694       695       810      2895      3255      3256
 -1      1474    8    0    1
 -2       694       810       809      3256      3257      3252
 -1      1475    8    0    1
 -2       695       696       811      2898      3258      3259
 -1      1476    8    0    1
 -2       695       811       810      3259      3260      3255
 -1      1477    8    0    1
 -2       696       697       812      2901      3261      3262
 -1      1478    8    0    1
 -2       696       812       811      3262      3263      3258
 -1      1479    8    0    1
 -2       697       698       813      2904      3264      3265
 -1      1480    8    0    1
 -2       697       813       812      3265      3266      3261
 -1      1481    8    0    1
 -2       698       699       814      2907      3267      3268
 -1      1482    8    0    1
 -2       698       814       813      3268      3269      3264
 -1      1483    8    0    1
 -2       699       700       815      2910      3270      3271
 -1      1484    8    0    1
 -2       699       815       814      3271      3272      3267
 -1      1485    8    0    1
 -2       700       701       816      2913      3273      3274
 -1      1486    8    0    1
 -2       700       816       815      3274      3275      3270
 -1      1487    8    0    1
 -2       701       702       817      2916      3276      3277
 -1      1488    8    0    1
 -2       701       817       816      3277      3278      3273
 -1      1489    8    0    1
 -2       702       703       818      2919      3279      3280
 -1      1490    8    0    1
 -2       702       818       817      3280      3281      3276
 -1      1491    8    0    1
 -2       703       704       819      2922      3282      3283
 -1      1492    8    0    1
 -2       703       819       818      3283      3284      3279
 -1      1493    8    0    1
 -2       704       705       820      2925      3285      3286
 -1      1494    8    0    1
 -2       704       820       819      3286      3287      3282
 -1      1495    8    0    1
 -2       705       706       821      2928      3288      3289
 -1      1496    8    0    1
 -2       705       821       820      3289      3290      3285
 -1      1497    8    0    1
 -2       706       707       822      2931      3291      3292
 -1      1498    8    0    1
 -2       821       706       822      3288      3292      3293
 -1      1499    8    0    1
 -2       707       748       822      3052      3294      3291
 -1      1500    8    0    1
 -2       741       719       823      3064      3295      3296
 -1      1501    8    0    1
 -2       617       616       824      2671      3297      3298
 -1      1502    8    0    1
 -2       708       711       825      2942      3299      3300
 -1      1503    8    0    1
 -2       715       716       826      2957      3301      3302
 -1      1504    8    0    1
 -2       711       714       827      2951      3303      3304
 -1      1505    8    0    1
 -2       711       827       825      3304      3305      3299
 -1      1506    8    0    1
 -2       669       725       828      3047      3306      3307
 -1      1507    8    0    1
 -2       738       667       635      3034      3308      3112
 -1      1508    8    0    1
 -2       724       670       829      2977      3309      3310
 -1      1509    8    0    1
 -2       670       792       829      3198      3311      3309
 -1      1510    8    0    1
 -2       713       621       830      3030      3312      3313
 -1      1511    8    0    1
 -2       730       738       634      3078      3111      3314
 -1      1512    8    0    1
 -2       714       715       831      2954      3315      3316
 -1      1513    8    0    1
 -2       827       714       831      3303      3316      3317
 -1      1514    8    0    1
 -2       715       826       831      3302      3318      3315
 -1      1515    8    0    1
 -2       672       673       832      2829      3319      3320
 -1      1516    8    0    1
 -2       673       793       832      3200      3321      3319
 -1      1517    8    0    1
 -2       671       672       833      2826      3322      3323
 -1      1518    8    0    1
 -2       792       671       833      3197      3323      3324
 -1      1519    8    0    1
 -2       672       832       833      3320      3325      3322
 -1      1520    8    0    1
 -2       737       732       834      3048      3326      3327
 -1      1521    8    0    1
 -2       723       623       793      3029      3328      3329
 -1      1522    8    0    1
 -2       626       625       835      2692      3330      3331
 -1      1523    8    0    1
 -2       626       835       758      3331      3332      3092
 -1      1524    8    0    1
 -2       722       736       836      3045      3333      3334
 -1      1525    8    0    1
 -2       725       724       837      2980      3335      3336
 -1      1526    8    0    1
 -2       724       829       837      3310      3337      3335
 -1      1527    8    0    1
 -2       732       596       722      2999      2972      3338
 -1      1528    8    0    1
 -2       721       610       743      3070      3024      3339
 -1      1529    8    0    1
 -2       718       611       838      3085      3340      3341
 -1      1530    8    0    1
 -2       611       745       838      3036      3342      3340
 -1      1531    8    0    1
 -2       624       586       739      2686      3015      3343
 -1      1532    8    0    1
 -2       668       741       764      3049      3344      3345
 -1      1533    8    0    1
 -2       623       737       839      3032      3346      3347
 -1      1534    8    0    1
 -2       667       735       636      3007      3348      3349
 -1      1535    8    0    1
 -2       719       624       840      3033      3350      3351
 -1      1536    8    0    1
 -2       619       620       841      3087      3352      3353
 -1      1537    8    0    1
 -2       756       619       841      3088      3353      3354
 -1      1538    8    0    1
 -2       620       622       841      2683      3355      3352
 -1      1539    8    0    1
 -2       740       742       794      3038      3356      3357
 -1      1540    8    0    1
 -2       736       720       842      3065      3358      3359
 -1      1541    8    0    1
 -2       621       740       843      3086      3360      3361
 -1      1542    8    0    1
 -2       732       722       844      3338      3362      3363
 -1      1543    8    0    1
 -2       624       739       845      3343      3364      3365
 -1      1544    8    0    1
 -2       635       667       636      3308      3349      2722
 -1      1545    8    0    1
 -2       744       617       846      3026      3366      3367
 -1      1546    8    0    1
 -2       617       824       846      3298      3368      3366
 -1      1547    8    0    1
 -2       720       757       842      3091      3369      3358
 -1      1548    8    0    1
 -2       740       794       795      3357      3212      3370
 -1      1549    8    0    1
 -2       743       729       847      3025      3371      3372
 -1      1550    8    0    1
 -2       745       713       848      3037      3373      3374
 -1      1551    8    0    1
 -2       713       830       848      3313      3375      3373
 -1      1552    8    0    1
 -2       746       718       849      3041      3376      3377
 -1      1553    8    0    1
 -2       718       838       849      3341      3378      3376
 -1      1554    8    0    1
 -2       747       710       850      3042      3379      3380
 -1      1555    8    0    1
 -2       632       763       752      3107      3381      3109
 -1      1556    8    0    1
 -2       624       845       840      3365      3382      3350
 -1      1557    8    0    1
 -2       634       633       730      2716      3383      3314
 -1      1558    8    0    1
 -2       637       636       733      2725      3384      3385
 -1      1559    8    0    1
 -2       638       637       668      2728      3386      3387
 -1      1560    8    0    1
 -2       845       739       851      3364      3388      3389
 -1      1561    8    0    1
 -2       739       746       851      3040      3390      3388
 -1      1562    8    0    1
 -2       844       722       852      3362      3391      3392
 -1      1563    8    0    1
 -2       722       836       852      3334      3393      3391
 -1      1564    8    0    1
 -2       735       733       636      3054      3384      3348
 -1      1565    8    0    1
 -2       843       740       795      3360      3370      3394
 -1      1566    8    0    1
 -2       676       734       615      3206      3059      3395
 -1      1567    8    0    1
 -2       734       678       742      3207      3396      3031
 -1      1568    8    0    1
 -2       823       719       840      3295      3351      3397
 -1      1569    8    0    1
 -2       824       616       853      3297      3398      3399
 -1      1570    8    0    1
 -2       616       727       853      2987      3400      3398
 -1      1571    8    0    1
 -2       710       712       854      2945      3401      3402
 -1      1572    8    0    1
 -2       710       854       850      3402      3403      3379
 -1      1573    8    0    1
 -2       841       622       855      3355      3404      3405
 -1      1574    8    0    1
 -2       622       717       855      2960      3406      3404
 -1      1575    8    0    1
 -2       737       834       839      3327      3407      3346
 -1      1576    8    0    1
 -2       712       708       856      2946      3408      3409
 -1      1577    8    0    1
 -2       854       712       856      3401      3409      3410
 -1      1578    8    0    1
 -2       708       825       856      3300      3411      3408
 -1      1579    8    0    1
 -2       828       725       837      3306      3336      3412
 -1      1580    8    0    1
 -2       749       731       857      3057      3413      3414
 -1      1581    8    0    1
 -2       731       755       857      3084      3415      3413
 -1      1582    8    0    1
 -2       717       669       858      2961      3416      3417
 -1      1583    8    0    1
 -2       855       717       858      3406      3417      3418
 -1      1584    8    0    1
 -2       669       828       858      3307      3419      3416
 -1      1585    8    0    1
 -2       834       732       844      3326      3363      3420
 -1      1586    8    0    1
 -2       830       621       843      3312      3361      3421
 -1      1587    8    0    1
 -2       638       668       764      3387      3345      3113
 -1      1588    8    0    1
 -2       847       729       859      3371      3422      3423
 -1      1589    8    0    1
 -2       729       753       859      3076      3424      3422
 -1      1590    8    0    1
 -2       835       625       860      3330      3425      3426
 -1      1591    8    0    1
 -2       625       726       860      2983      3427      3425
 -1      1592    8    0    1
 -2       793       623       839      3328      3347      3428
 -1      1593    8    0    1
 -2       741       823       764      3296      3429      3344
 -1      1594    8    0    1
 -2       836       736       842      3333      3359      3430
 -1      1595    8    0    1
 -2       730       633       752      3383      3110      3073
 -1      1596    8    0    1
 -2       726       721       743      2984      3339      3431
 -1      1597    8    0    1
 -2       755       613       752      3082      3072      3432
 -1      1598    8    0    1
 -2       727       618       861      2988      3433      3434
 -1      1599    8    0    1
 -2       853       727       861      3400      3434      3435
 -1      1600    8    0    1
 -2       618       756       861      3089      3436      3433
 -1      1601    8    0    1
 -2       716       750       862      3062      3437      3438
 -1      1602    8    0    1
 -2       826       716       862      3301      3438      3439
 -1      1603    8    0    1
 -2       750       791       862      3195      3440      3437
 -1      1604    8    0    1
 -2       728       749       863      3056      3441      3442
 -1      1605    8    0    1
 -2       728       863       757      3442      3443      3090
 -1      1606    8    0    1
 -2       614       751       754      3069      3444      3081
 -1      1607    8    0    1
 -2       752       763       755      3381      3445      3432
 -1      1608    8    0    1
 -2       760       759       864      3099      3446      3447
 -1      1609    8    0    1
 -2       761       760       865      3102      3448      3449
 -1      1610    8    0    1
 -2       760       864       865      3447      3450      3448
 -1      1611    8    0    1
 -2       762       761       866      3105      3451      3452
 -1      1612    8    0    1
 -2       761       865       866      3449      3453      3451
 -1      1613    8    0    1
 -2       840       845       867      3382      3454      3455
 -1      1614    8    0    1
 -2       767       766       868      3123      3456      3457
 -1      1615    8    0    1
 -2       768       767       869      3126      3458      3459
 -1      1616    8    0    1
 -2       767       868       869      3457      3460      3458
 -1      1617    8    0    1
 -2       769       768       870      3129      3461      3462
 -1      1618    8    0    1
 -2       768       869       870      3459      3463      3461
 -1      1619    8    0    1
 -2       770       769       871      3132      3464      3465
 -1      1620    8    0    1
 -2       769       870       871      3462      3466      3464
 -1      1621    8    0    1
 -2       771       770       872      3135      3467      3468
 -1      1622    8    0    1
 -2       770       871       872      3465      3469      3467
 -1      1623    8    0    1
 -2       772       771       873      3138      3470      3471
 -1      1624    8    0    1
 -2       771       872       873      3468      3472      3470
 -1      1625    8    0    1
 -2       773       772       874      3141      3473      3474
 -1      1626    8    0    1
 -2       772       873       874      3471      3475      3473
 -1      1627    8    0    1
 -2       774       773       875      3144      3476      3477
 -1      1628    8    0    1
 -2       773       874       875      3474      3478      3476
 -1      1629    8    0    1
 -2       775       774       876      3147      3479      3480
 -1      1630    8    0    1
 -2       774       875       876      3477      3481      3479
 -1      1631    8    0    1
 -2       776       775       877      3150      3482      3483
 -1      1632    8    0    1
 -2       775       876       877      3480      3484      3482
 -1      1633    8    0    1
 -2       777       776       878      3153      3485      3486
 -1      1634    8    0    1
 -2       776       877       878      3483      3487      3485
 -1      1635    8    0    1
 -2       778       777       879      3156      3488      3489
 -1      1636    8    0    1
 -2       777       878       879      3486      3490      3488
 -1      1637    8    0    1
 -2       779       778       880      3159      3491      3492
 -1      1638    8    0    1
 -2       778       879       880      3489      3493      3491
 -1      1639    8    0    1
 -2       780       779       881      3162      3494      3495
 -1      1640    8    0    1
 -2       779       880       881      3492      3496      3494
 -1      1641    8    0    1
 -2       781       780       882      3165      3497      3498
 -1      1642    8    0    1
 -2       780       881       882      3495      3499      3497
 -1      1643    8    0    1
 -2       782       781       883      3168      3500      3501
 -1      1644    8    0    1
 -2       781       882       883      3498      3502      3500
 -1      1645    8    0    1
 -2       783       782       884      3171      3503      3504
 -1      1646    8    0    1
 -2       782       883       884      3501      3505      3503
 -1      1647    8    0    1
 -2       784       783       885      3174      3506      3507
 -1      1648    8    0    1
 -2       783       884       885      3504      3508      3506
 -1      1649    8    0    1
 -2       785       784       886      3177      3509      3510
 -1      1650    8    0    1
 -2       784       885       886      3507      3511      3509
 -1      1651    8    0    1
 -2       786       785       887      3180      3512      3513
 -1      1652    8    0    1
 -2       785       886       887      3510      3514      3512
 -1      1653    8    0    1
 -2       787       786       888      3183      3515      3516
 -1      1654    8    0    1
 -2       786       887       888      3513      3517      3515
 -1      1655    8    0    1
 -2       788       787       889      3186      3518      3519
 -1      1656    8    0    1
 -2       787       888       889      3516      3520      3518
 -1      1657    8    0    1
 -2       789       788       890      3189      3521      3522
 -1      1658    8    0    1
 -2       788       889       890      3519      3523      3521
 -1      1659    8    0    1
 -2       790       789       891      3192      3524      3525
 -1      1660    8    0    1
 -2       789       890       891      3522      3526      3524
 -1      1661    8    0    1
 -2       793       674       751      3199      3202      3527
 -1      1662    8    0    1
 -2       675       754       751      3204      3444      3201
 -1      1663    8    0    1
 -2       795       796       843      3215      3528      3394
 -1      1664    8    0    1
 -2       743       847       860      3372      3529      3530
 -1      1665    8    0    1
 -2       797       798       892      3221      3531      3532
 -1      1666    8    0    1
 -2       798       799       893      3224      3533      3534
 -1      1667    8    0    1
 -2       798       893       892      3534      3535      3531
 -1      1668    8    0    1
 -2       799       800       894      3227      3536      3537
 -1      1669    8    0    1
 -2       799       894       893      3537      3538      3533
 -1      1670    8    0    1
 -2       800       801       895      3230      3539      3540
 -1      1671    8    0    1
 -2       800       895       894      3540      3541      3536
 -1      1672    8    0    1
 -2       801       802       896      3233      3542      3543
 -1      1673    8    0    1
 -2       801       896       895      3543      3544      3539
 -1      1674    8    0    1
 -2       802       803       897      3236      3545      3546
 -1      1675    8    0    1
 -2       802       897       896      3546      3547      3542
 -1      1676    8    0    1
 -2       803       804       898      3239      3548      3549
 -1      1677    8    0    1
 -2       803       898       897      3549      3550      3545
 -1      1678    8    0    1
 -2       804       805       899      3242      3551      3552
 -1      1679    8    0    1
 -2       804       899       898      3552      3553      3548
 -1      1680    8    0    1
 -2       805       806       900      3245      3554      3555
 -1      1681    8    0    1
 -2       805       900       899      3555      3556      3551
 -1      1682    8    0    1
 -2       806       807       901      3248      3557      3558
 -1      1683    8    0    1
 -2       806       901       900      3558      3559      3554
 -1      1684    8    0    1
 -2       807       808       902      3251      3560      3561
 -1      1685    8    0    1
 -2       807       902       901      3561      3562      3557
 -1      1686    8    0    1
 -2       808       809       903      3254      3563      3564
 -1      1687    8    0    1
 -2       808       903       902      3564      3565      3560
 -1      1688    8    0    1
 -2       809       810       904      3257      3566      3567
 -1      1689    8    0    1
 -2       809       904       903      3567      3568      3563
 -1      1690    8    0    1
 -2       810       811       905      3260      3569      3570
 -1      1691    8    0    1
 -2       810       905       904      3570      3571      3566
 -1      1692    8    0    1
 -2       811       812       906      3263      3572      3573
 -1      1693    8    0    1
 -2       811       906       905      3573      3574      3569
 -1      1694    8    0    1
 -2       812       813       907      3266      3575      3576
 -1      1695    8    0    1
 -2       812       907       906      3576      3577      3572
 -1      1696    8    0    1
 -2       813       814       908      3269      3578      3579
 -1      1697    8    0    1
 -2       813       908       907      3579      3580      3575
 -1      1698    8    0    1
 -2       814       815       909      3272      3581      3582
 -1      1699    8    0    1
 -2       814       909       908      3582      3583      3578
 -1      1700    8    0    1
 -2       815       816       910      3275      3584      3585
 -1      1701    8    0    1
 -2       815       910       909      3585      3586      3581
 -1      1702    8    0    1
 -2       816       817       911      3278      3587      3588
 -1      1703    8    0    1
 -2       816       911       910      3588      3589      3584
 -1      1704    8    0    1
 -2       817       818       912      3281      3590      3591
 -1      1705    8    0    1
 -2       817       912       911      3591      3592      3587
 -1      1706    8    0    1
 -2       818       819       913      3284      3593      3594
 -1      1707    8    0    1
 -2       818       913       912      3594      3595      3590
 -1      1708    8    0    1
 -2       819       820       914      3287      3596      3597
 -1      1709    8    0    1
 -2       819       914       913      3597      3598      3593
 -1      1710    8    0    1
 -2       820       821       915      3290      3599      3600
 -1      1711    8    0    1
 -2       820       915       914      3600      3601      3596
 -1      1712    8    0    1
 -2       832       793       839      3321      3428      3602
 -1      1713    8    0    1
 -2       842       757       916      3369      3603      3604
 -1      1714    8    0    1
 -2       828       837       917      3412      3605      3606
 -1      1715    8    0    1
 -2       748       747       918      3053      3607      3608
 -1      1716    8    0    1
 -2       822       748       918      3294      3608      3609
 -1      1717    8    0    1
 -2       747       850       918      3380      3610      3607
 -1      1718    8    0    1
 -2       823       840       919      3397      3611      3612
 -1      1719    8    0    1
 -2       837       829       920      3337      3613      3614
 -1      1720    8    0    1
 -2       837       920       917      3614      3615      3605
 -1      1721    8    0    1
 -2       825       827       921      3305      3616      3617
 -1      1722    8    0    1
 -2       839       834       922      3407      3618      3619
 -1      1723    8    0    1
 -2       839       922       832      3619      3620      3602
 -1      1724    8    0    1
 -2       834       844       923      3420      3621      3622
 -1      1725    8    0    1
 -2       829       792       924      3311      3623      3624
 -1      1726    8    0    1
 -2       829       924       920      3624      3625      3613
 -1      1727    8    0    1
 -2       796       797       925      3218      3626      3627
 -1      1728    8    0    1
 -2       797       892       925      3532      3628      3626
 -1      1729    8    0    1
 -2       843       796       925      3528      3627      3629
 -1      1730    8    0    1
 -2       751       723       793      3067      3329      3527
 -1      1731    8    0    1
 -2       765       764       823      3117      3429      3630
 -1      1732    8    0    1
 -2       726       743       860      3431      3530      3427
 -1      1733    8    0    1
 -2       758       835       926      3332      3631      3632
 -1      1734    8    0    1
 -2       753       744       927      3077      3633      3634
 -1      1735    8    0    1
 -2       753       927       859      3634      3635      3424
 -1      1736    8    0    1
 -2       838       745       928      3342      3636      3637
 -1      1737    8    0    1
 -2       745       848       928      3374      3638      3636
 -1      1738    8    0    1
 -2       759       758       929      3096      3639      3640
 -1      1739    8    0    1
 -2       759       929       864      3640      3641      3446
 -1      1740    8    0    1
 -2       836       842       930      3430      3642      3643
 -1      1741    8    0    1
 -2       756       841       931      3354      3644      3645
 -1      1742    8    0    1
 -2       841       855       931      3405      3646      3644
 -1      1743    8    0    1
 -2       676       615       754      3395      3080      3203
 -1      1744    8    0    1
 -2       742       678       794      3396      3209      3356
 -1      1745    8    0    1
 -2       830       843       925      3421      3629      3647
 -1      1746    8    0    1
 -2       765       823       919      3630      3612      3648
 -1      1747    8    0    1
 -2       758       926       929      3632      3649      3639
 -1      1748    8    0    1
 -2       849       838       932      3378      3650      3651
 -1      1749    8    0    1
 -2       838       928       932      3637      3652      3650
 -1      1750    8    0    1
 -2       836       930       933      3643      3653      3654
 -1      1751    8    0    1
 -2       836       933       852      3654      3655      3393
 -1      1752    8    0    1
 -2       851       746       934      3390      3656      3657
 -1      1753    8    0    1
 -2       746       849       934      3377      3658      3656
 -1      1754    8    0    1
 -2       840       867       919      3455      3659      3611
 -1      1755    8    0    1
 -2       867       845       935      3454      3660      3661
 -1      1756    8    0    1
 -2       845       851       935      3389      3662      3660
 -1      1757    8    0    1
 -2       763       762       936      3108      3663      3664
 -1      1758    8    0    1
 -2       668       637       733      3386      3385      3046
 -1      1759    8    0    1
 -2       744       846       927      3367      3665      3633
 -1      1760    8    0    1
 -2       757       863       937      3443      3666      3667
 -1      1761    8    0    1
 -2       757       937       916      3667      3668      3603
 -1      1762    8    0    1
 -2       766       765       919      3120      3648      3669
 -1      1763    8    0    1
 -2       924       792       923      3623      3670      3671
 -1      1764    8    0    1
 -2       791       790       938      3196      3672      3673
 -1      1765    8    0    1
 -2       862       791       938      3440      3673      3674
 -1      1766    8    0    1
 -2       790       891       938      3525      3675      3672
 -1      1767    8    0    1
 -2       922       834       923      3618      3622      3676
 -1      1768    8    0    1
 -2       918       850       915      3610      3677      3678
 -1      1769    8    0    1
 -2       860       847       939      3529      3679      3680
 -1      1770    8    0    1
 -2       860       939       835      3680      3681      3426
 -1      1771    8    0    1
 -2       825       921       940      3617      3682      3683
 -1      1772    8    0    1
 -2       825       940       856      3683      3684      3411
 -1      1773    8    0    1
 -2       821       822       918      3293      3609      3685
 -1      1774    8    0    1
 -2       939       847       941      3679      3686      3687
 -1      1775    8    0    1
 -2       847       859       941      3423      3688      3686
 -1      1776    8    0    1
 -2       766       919       868      3669      3689      3456
 -1      1777    8    0    1
 -2       828       917       942      3606      3690      3691
 -1      1778    8    0    1
 -2       821       918       915      3685      3678      3599
 -1      1779    8    0    1
 -2       921       827       943      3616      3692      3693
 -1      1780    8    0    1
 -2       827       831       943      3317      3694      3692
 -1      1781    8    0    1
 -2       832       922       833      3620      3695      3325
 -1      1782    8    0    1
 -2       858       828       942      3419      3691      3696
 -1      1783    8    0    1
 -2       863       749       944      3441      3697      3698
 -1      1784    8    0    1
 -2       923       844       945      3621      3699      3700
 -1      1785    8    0    1
 -2       844       852       945      3392      3701      3699
 -1      1786    8    0    1
 -2       850       854       946      3403      3702      3703
 -1      1787    8    0    1
 -2       842       916       930      3604      3704      3642
 -1      1788    8    0    1
 -2       749       857       944      3414      3705      3697
 -1      1789    8    0    1
 -2       926       835       939      3631      3681      3706
 -1      1790    8    0    1
 -2       755       763       936      3445      3664      3707
 -1      1791    8    0    1
 -2       861       756       931      3436      3645      3708
 -1      1792    8    0    1
 -2       846       824       947      3368      3709      3710
 -1      1793    8    0    1
 -2       824       853       948      3399      3711      3712
 -1      1794    8    0    1
 -2       824       948       947      3712      3713      3709
 -1      1795    8    0    1
 -2       826       862       949      3439      3714      3715
 -1      1796    8    0    1
 -2       862       938       949      3674      3716      3714
 -1      1797    8    0    1
 -2       850       946       915      3703      3717      3677
 -1      1798    8    0    1
 -2       762       866       936      3452      3718      3663
 -1      1799    8    0    1
 -2       826       949       831      3715      3719      3318
 -1      1800    8    0    1
 -2       865       864       950      3450      3720      3721
 -1      1801    8    0    1
 -2       864       929       951      3641      3722      3723
 -1      1802    8    0    1
 -2       864       951       950      3723      3724      3720
 -1      1803    8    0    1
 -2       866       865       952      3453      3725      3726
 -1      1804    8    0    1
 -2       865       950       952      3721      3727      3725
 -1      1805    8    0    1
 -2       831       949       943      3719      3728      3694
 -1      1806    8    0    1
 -2       919       867       868      3659      3729      3689
 -1      1807    8    0    1
 -2       861       931       953      3708      3730      3731
 -1      1808    8    0    1
 -2       923       792       922      3670      3732      3676
 -1      1809    8    0    1
 -2       870       869       954      3463      3733      3734
 -1      1810    8    0    1
 -2       871       870       955      3466      3735      3736
 -1      1811    8    0    1
 -2       870       954       955      3734      3737      3735
 -1      1812    8    0    1
 -2       872       871       956      3469      3738      3739
 -1      1813    8    0    1
 -2       871       955       956      3736      3740      3738
 -1      1814    8    0    1
 -2       873       872       957      3472      3741      3742
 -1      1815    8    0    1
 -2       872       956       957      3739      3743      3741
 -1      1816    8    0    1
 -2       874       873       958      3475      3744      3745
 -1      1817    8    0    1
 -2       873       957       958      3742      3746      3744
 -1      1818    8    0    1
 -2       875       874       959      3478      3747      3748
 -1      1819    8    0    1
 -2       874       958       959      3745      3749      3747
 -1      1820    8    0    1
 -2       876       875       960      3481      3750      3751
 -1      1821    8    0    1
 -2       875       959       960      3748      3752      3750
 -1      1822    8    0    1
 -2       877       876       961      3484      3753      3754
 -1      1823    8    0    1
 -2       876       960       961      3751      3755      3753
 -1      1824    8    0    1
 -2       878       877       962      3487      3756      3757
 -1      1825    8    0    1
 -2       877       961       962      3754      3758      3756
 -1      1826    8    0    1
 -2       879       878       963      3490      3759      3760
 -1      1827    8    0    1
 -2       878       962       963      3757      3761      3759
 -1      1828    8    0    1
 -2       880       879       964      3493      3762      3763
 -1      1829    8    0    1
 -2       879       963       964      3760      3764      3762
 -1      1830    8    0    1
 -2       881       880       965      3496      3765      3766
 -1      1831    8    0    1
 -2       880       964       965      3763      3767      3765
 -1      1832    8    0    1
 -2       882       881       966      3499      3768      3769
 -1      1833    8    0    1
 -2       881       965       966      3766      3770      3768
 -1      1834    8    0    1
 -2       883       882       967      3502      3771      3772
 -1      1835    8    0    1
 -2       882       966       967      3769      3773      3771
 -1      1836    8    0    1
 -2       884       883       968      3505      3774      3775
 -1      1837    8    0    1
 -2       883       967       968      3772      3776      3774
 -1      1838    8    0    1
 -2       885       884       969      3508      3777      3778
 -1      1839    8    0    1
 -2       884       968       969      3775      3779      3777
 -1      1840    8    0    1
 -2       886       885       970      3511      3780      3781
 -1      1841    8    0    1
 -2       885       969       970      3778      3782      3780
 -1      1842    8    0    1
 -2       887       886       971      3514      3783      3784
 -1      1843    8    0    1
 -2       886       970       971      3781      3785      3783
 -1      1844    8    0    1
 -2       888       887       972      3517      3786      3787
 -1      1845    8    0    1
 -2       887       971       972      3784      3788      3786
 -1      1846    8    0    1
 -2       889       888       973      3520      3789      3790
 -1      1847    8    0    1
 -2       888       972       973      3787      3791      3789
 -1      1848    8    0    1
 -2       890       889       974      3523      3792      3793
 -1      1849    8    0    1
 -2       889       973       974      3790      3794      3792
 -1      1850    8    0    1
 -2       891       890       975      3526      3795      3796
 -1      1851    8    0    1
 -2       890       974       975      3793      3797      3795
 -1      1852    8    0    1
 -2       915       946       914      3717      3798      3601
 -1      1853    8    0    1
 -2       936       866       944      3718      3799      3800
 -1      1854    8    0    1
 -2       894       895       976      3541      3801      3802
 -1      1855    8    0    1
 -2       924       923       945      3671      3700      3803
 -1      1856    8    0    1
 -2       892       893       977      3535      3804      3805
 -1      1857    8    0    1
 -2       895       896       978      3544      3806      3807
 -1      1858    8    0    1
 -2       895       978       976      3807      3808      3801
 -1      1859    8    0    1
 -2       896       897       979      3547      3809      3810
 -1      1860    8    0    1
 -2       896       979       978      3810      3811      3806
 -1      1861    8    0    1
 -2       897       898       980      3550      3812      3813
 -1      1862    8    0    1
 -2       897       980       979      3813      3814      3809
 -1      1863    8    0    1
 -2       898       899       981      3553      3815      3816
 -1      1864    8    0    1
 -2       898       981       980      3816      3817      3812
 -1      1865    8    0    1
 -2       899       900       982      3556      3818      3819
 -1      1866    8    0    1
 -2       899       982       981      3819      3820      3815
 -1      1867    8    0    1
 -2       900       901       983      3559      3821      3822
 -1      1868    8    0    1
 -2       900       983       982      3822      3823      3818
 -1      1869    8    0    1
 -2       901       902       984      3562      3824      3825
 -1      1870    8    0    1
 -2       901       984       983      3825      3826      3821
 -1      1871    8    0    1
 -2       902       903       985      3565      3827      3828
 -1      1872    8    0    1
 -2       902       985       984      3828      3829      3824
 -1      1873    8    0    1
 -2       903       904       986      3568      3830      3831
 -1      1874    8    0    1
 -2       903       986       985      3831      3832      3827
 -1      1875    8    0    1
 -2       904       905       987      3571      3833      3834
 -1      1876    8    0    1
 -2       904       987       986      3834      3835      3830
 -1      1877    8    0    1
 -2       905       906       988      3574      3836      3837
 -1      1878    8    0    1
 -2       905       988       987      3837      3838      3833
 -1      1879    8    0    1
 -2       906       907       989      3577      3839      3840
 -1      1880    8    0    1
 -2       906       989       988      3840      3841      3836
 -1      1881    8    0    1
 -2       907       908       990      3580      3842      3843
 -1      1882    8    0    1
 -2       907       990       989      3843      3844      3839
 -1      1883    8    0    1
 -2       908       909       991      3583      3845      3846
 -1      1884    8    0    1
 -2       908       991       990      3846      3847      3842
 -1      1885    8    0    1
 -2       909       910       992      3586      3848      3849
 -1      1886    8    0    1
 -2       909       992       991      3849      3850      3845
 -1      1887    8    0    1
 -2       910       911       993      3589      3851      3852
 -1      1888    8    0    1
 -2       910       993       992      3852      3853      3848
 -1      1889    8    0    1
 -2       911       912       994      3592      3854      3855
 -1      1890    8    0    1
 -2       911       994       993      3855      3856      3851
 -1      1891    8    0    1
 -2       912       913       995      3595      3857      3858
 -1      1892    8    0    1
 -2       912       995       994      3858      3859      3854
 -1      1893    8    0    1
 -2       913       914       996      3598      3860      3861
 -1      1894    8    0    1
 -2       913       996       995      3861      3862      3857
 -1      1895    8    0    1
 -2       868       867       997      3729      3863      3864
 -1      1896    8    0    1
 -2       869       868       997      3460      3864      3865
 -1      1897    8    0    1
 -2       867       935       997      3661      3866      3863
 -1      1898    8    0    1
 -2       942       917       998      3690      3867      3868
 -1      1899    8    0    1
 -2       917       920       999      3615      3869      3870
 -1      1900    8    0    1
 -2       917       999       998      3870      3871      3867
 -1      1901    8    0    1
 -2       926       939      1000      3706      3872      3873
 -1      1902    8    0    1
 -2       939       941      1000      3687      3874      3872
 -1      1903    8    0    1
 -2       920       924      1001      3625      3875      3876
 -1      1904    8    0    1
 -2       999       920      1001      3869      3876      3877
 -1      1905    8    0    1
 -2       924       945      1001      3803      3878      3875
 -1      1906    8    0    1
 -2       925       892      1002      3628      3879      3880
 -1      1907    8    0    1
 -2       892       977      1002      3805      3881      3879
 -1      1908    8    0    1
 -2       930       916      1003      3704      3882      3883
 -1      1909    8    0    1
 -2       927       846      1004      3665      3884      3885
 -1      1910    8    0    1
 -2       846       947      1004      3710      3886      3884
 -1      1911    8    0    1
 -2       859       927      1005      3635      3887      3888
 -1      1912    8    0    1
 -2       941       859      1005      3688      3888      3889
 -1      1913    8    0    1
 -2       927      1004      1005      3885      3890      3887
 -1      1914    8    0    1
 -2       928       848      1006      3638      3891      3892
 -1      1915    8    0    1
 -2       855       858      1007      3418      3893      3894
 -1      1916    8    0    1
 -2       931       855      1007      3646      3894      3895
 -1      1917    8    0    1
 -2       858       942      1007      3696      3896      3893
 -1      1918    8    0    1
 -2       853       861       953      3435      3731      3897
 -1      1919    8    0    1
 -2       854       856      1008      3410      3898      3899
 -1      1920    8    0    1
 -2       946       854      1008      3702      3899      3900
 -1      1921    8    0    1
 -2       856       940      1008      3684      3901      3898
 -1      1922    8    0    1
 -2       893       894      1009      3538      3902      3903
 -1      1923    8    0    1
 -2       977       893      1009      3804      3903      3904
 -1      1924    8    0    1
 -2       894       976      1009      3802      3905      3902
 -1      1925    8    0    1
 -2       830       925      1002      3647      3880      3906
 -1      1926    8    0    1
 -2       929       926      1010      3649      3907      3908
 -1      1927    8    0    1
 -2       951       929      1010      3722      3908      3909
 -1      1928    8    0    1
 -2       926      1000      1010      3873      3910      3907
 -1      1929    8    0    1
 -2       914       946       996      3798      3911      3860
 -1      1930    8    0    1
 -2       944       866       952      3799      3726      3912
 -1      1931    8    0    1
 -2       830      1002      1006      3906      3913      3914
 -1      1932    8    0    1
 -2       928      1006      1011      3892      3915      3916
 -1      1933    8    0    1
 -2       928      1011       932      3916      3917      3652
 -1      1934    8    0    1
 -2      1006      1002       977      3913      3881      3918
 -1      1935    8    0    1
 -2      1006       977      1011      3918      3919      3915
 -1      1936    8    0    1
 -2       933       930      1012      3653      3920      3921
 -1      1937    8    0    1
 -2       930      1003      1012      3883      3922      3920
 -1      1938    8    0    1
 -2       934       849      1013      3658      3923      3924
 -1      1939    8    0    1
 -2       849       932      1013      3651      3925      3923
 -1      1940    8    0    1
 -2       935       851      1014      3662      3926      3927
 -1      1941    8    0    1
 -2       953       931      1007      3730      3895      3928
 -1      1942    8    0    1
 -2       922       792       833      3732      3324      3695
 -1      1943    8    0    1
 -2       938       891       949      3675      3929      3716
 -1      1944    8    0    1
 -2       954       869       997      3733      3865      3930
 -1      1945    8    0    1
 -2       891       975       949      3796      3931      3929
 -1      1946    8    0    1
 -2       851       934      1014      3657      3932      3926
 -1      1947    8    0    1
 -2       755       936       944      3707      3800      3933
 -1      1948    8    0    1
 -2       940       921      1015      3682      3934      3935
 -1      1949    8    0    1
 -2       949       975       943      3931      3936      3728
 -1      1950    8    0    1
 -2       944       952       863      3912      3937      3698
 -1      1951    8    0    1
 -2       921       943      1016      3693      3938      3939
 -1      1952    8    0    1
 -2       921      1016      1015      3939      3940      3934
 -1      1953    8    0    1
 -2       942       998      1017      3868      3941      3942
 -1      1954    8    0    1
 -2       942      1017      1007      3942      3943      3896
 -1      1955    8    0    1
 -2       945       852      1018      3701      3944      3945
 -1      1956    8    0    1
 -2      1001       945      1018      3878      3945      3946
 -1      1957    8    0    1
 -2       852       933      1018      3655      3947      3944
 -1      1958    8    0    1
 -2      1004       947      1019      3886      3948      3949
 -1      1959    8    0    1
 -2      1003       916      1020      3882      3950      3951
 -1      1960    8    0    1
 -2       916       937      1020      3668      3952      3950
 -1      1961    8    0    1
 -2       853       953       948      3897      3953      3711
 -1      1962    8    0    1
 -2       946      1008      1021      3900      3954      3955
 -1      1963    8    0    1
 -2       946      1021       996      3955      3956      3911
 -1      1964    8    0    1
 -2       947       948      1022      3713      3957      3958
 -1      1965    8    0    1
 -2       947      1022      1019      3958      3959      3948
 -1      1966    8    0    1
 -2       950       951      1023      3724      3960      3961
 -1      1967    8    0    1
 -2       952       950      1020      3727      3962      3963
 -1      1968    8    0    1
 -2       953      1007      1017      3928      3943      3964
 -1      1969    8    0    1
 -2       979       980      1024      3814      3965      3966
 -1      1970    8    0    1
 -2       955       954      1025      3737      3967      3968
 -1      1971    8    0    1
 -2       937       863       952      3666      3937      3969
 -1      1972    8    0    1
 -2       956       955      1026      3740      3970      3971
 -1      1973    8    0    1
 -2       955      1025      1026      3968      3972      3970
 -1      1974    8    0    1
 -2       957       956      1027      3743      3973      3974
 -1      1975    8    0    1
 -2       956      1026      1027      3971      3975      3973
 -1      1976    8    0    1
 -2       958       957      1028      3746      3976      3977
 -1      1977    8    0    1
 -2       957      1027      1028      3974      3978      3976
 -1      1978    8    0    1
 -2       959       958      1029      3749      3979      3980
 -1      1979    8    0    1
 -2       958      1028      1029      3977      3981      3979
 -1      1980    8    0    1
 -2       960       959      1030      3752      3982      3983
 -1      1981    8    0    1
 -2       959      1029      1030      3980      3984      3982
 -1      1982    8    0    1
 -2       961       960      1031      3755      3985      3986
 -1      1983    8    0    1
 -2       960      1030      1031      3983      3987      3985
 -1      1984    8    0    1
 -2       962       961      1032      3758      3988      3989
 -1      1985    8    0    1
 -2       961      1031      1032      3986      3990      3988
 -1      1986    8    0    1
 -2       963       962      1033      3761      3991      3992
 -1      1987    8    0    1
 -2       962      1032      1033      3989      3993      3991
 -1      1988    8    0    1
 -2       964       963      1034      3764      3994      3995
 -1      1989    8    0    1
 -2       963      1033      1034      3992      3996      3994
 -1      1990    8    0    1
 -2       965       964      1035      3767      3997      3998
 -1      1991    8    0    1
 -2       964      1034      1035      3995      3999      3997
 -1      1992    8    0    1
 -2       966       965      1036      3770      4000      4001
 -1      1993    8    0    1
 -2       965      1035      1036      3998      4002      4000
 -1      1994    8    0    1
 -2       967       966      1037      3773      4003      4004
 -1      1995    8    0    1
 -2       966      1036      1037      4001      4005      4003
 -1      1996    8    0    1
 -2       968       967      1038      3776      4006      4007
 -1      1997    8    0    1
 -2       967      1037      1038      4004      4008      4006
 -1      1998    8    0    1
 -2       969       968      1039      3779      4009      4010
 -1      1999    8    0    1
 -2       968      1038      1039      4007      4011      4009
 -1      2000    8    0    1
 -2       970       969      1040      3782      4012      4013
 -1      2001    8    0    1
 -2       969      1039      1040      4010      4014      4012
 -1      2002    8    0    1
 -2       971       970      1041      3785      4015      4016
 -1      2003    8    0    1
 -2       970      1040      1041      4013      4017      4015
 -1      2004    8    0    1
 -2       972       971      1042      3788      4018      4019
 -1      2005    8    0    1
 -2       971      1041      1042      4016      4020      4018
 -1      2006    8    0    1
 -2       973       972      1043      3791      4021      4022
 -1      2007    8    0    1
 -2       972      1042      1043      4019      4023      4021
 -1      2008    8    0    1
 -2       974       973      1044      3794      4024      4025
 -1      2009    8    0    1
 -2       973      1043      1044      4022      4026      4024
 -1      2010    8    0    1
 -2       975       974      1045      3797      4027      4028
 -1      2011    8    0    1
 -2       974      1044      1045      4025      4029      4027
 -1      2012    8    0    1
 -2       978       979      1046      3811      4030      4031
 -1      2013    8    0    1
 -2       979      1024      1046      3966      4032      4030
 -1      2014    8    0    1
 -2       932      1011      1047      3917      4033      4034
 -1      2015    8    0    1
 -2       932      1047      1013      4034      4035      3925
 -1      2016    8    0    1
 -2       943       975      1016      3936      4036      3938
 -1      2017    8    0    1
 -2       976       978      1048      3808      4037      4038
 -1      2018    8    0    1
 -2       978      1046      1048      4031      4039      4037
 -1      2019    8    0    1
 -2       980       981      1049      3817      4040      4041
 -1      2020    8    0    1
 -2       980      1049      1024      4041      4042      3965
 -1      2021    8    0    1
 -2       981       982      1050      3820      4043      4044
 -1      2022    8    0    1
 -2       981      1050      1049      4044      4045      4040
 -1      2023    8    0    1
 -2       982       983      1051      3823      4046      4047
 -1      2024    8    0    1
 -2       982      1051      1050      4047      4048      4043
 -1      2025    8    0    1
 -2       983       984      1052      3826      4049      4050
 -1      2026    8    0    1
 -2       983      1052      1051      4050      4051      4046
 -1      2027    8    0    1
 -2       984       985      1053      3829      4052      4053
 -1      2028    8    0    1
 -2       984      1053      1052      4053      4054      4049
 -1      2029    8    0    1
 -2       985       986      1054      3832      4055      4056
 -1      2030    8    0    1
 -2       985      1054      1053      4056      4057      4052
 -1      2031    8    0    1
 -2       986       987      1055      3835      4058      4059
 -1      2032    8    0    1
 -2       986      1055      1054      4059      4060      4055
 -1      2033    8    0    1
 -2       987       988      1056      3838      4061      4062
 -1      2034    8    0    1
 -2       987      1056      1055      4062      4063      4058
 -1      2035    8    0    1
 -2       988       989      1057      3841      4064      4065
 -1      2036    8    0    1
 -2       988      1057      1056      4065      4066      4061
 -1      2037    8    0    1
 -2       989       990      1058      3844      4067      4068
 -1      2038    8    0    1
 -2       989      1058      1057      4068      4069      4064
 -1      2039    8    0    1
 -2       990       991      1059      3847      4070      4071
 -1      2040    8    0    1
 -2       990      1059      1058      4071      4072      4067
 -1      2041    8    0    1
 -2       991       992      1060      3850      4073      4074
 -1      2042    8    0    1
 -2       991      1060      1059      4074      4075      4070
 -1      2043    8    0    1
 -2       992       993      1061      3853      4076      4077
 -1      2044    8    0    1
 -2       992      1061      1060      4077      4078      4073
 -1      2045    8    0    1
 -2       993       994      1062      3856      4079      4080
 -1      2046    8    0    1
 -2       993      1062      1061      4080      4081      4076
 -1      2047    8    0    1
 -2       994       995      1063      3859      4082      4083
 -1      2048    8    0    1
 -2       994      1063      1062      4083      4084      4079
 -1      2049    8    0    1
 -2       995       996      1064      3862      4085      4086
 -1      2050    8    0    1
 -2      1063       995      1064      4082      4086      4087
 -1      2051    8    0    1
 -2       996      1021      1064      3956      4088      4085
 -1      2052    8    0    1
 -2       997       935      1065      3866      4089      4090
 -1      2053    8    0    1
 -2       954       997      1065      3930      4090      4091
 -1      2054    8    0    1
 -2       935      1014      1065      3927      4092      4089
 -1      2055    8    0    1
 -2      1011       977      1066      3919      4093      4094
 -1      2056    8    0    1
 -2       977      1009      1066      3904      4095      4093
 -1      2057    8    0    1
 -2       998       999      1067      3871      4096      4097
 -1      2058    8    0    1
 -2      1000       941      1068      3874      4098      4099
 -1      2059    8    0    1
 -2       941      1005      1068      3889      4100      4098
 -1      2060    8    0    1
 -2       948       953      1069      3953      4101      4102
 -1      2061    8    0    1
 -2      1022       948      1069      3957      4102      4103
 -1      2062    8    0    1
 -2       953      1017      1069      3964      4104      4101
 -1      2063    8    0    1
 -2      1014       934      1070      3932      4105      4106
 -1      2064    8    0    1
 -2       934      1013      1070      3924      4107      4105
 -1      2065    8    0    1
 -2      1008       940      1071      3901      4108      4109
 -1      2066    8    0    1
 -2      1021      1008      1071      3954      4109      4110
 -1      2067    8    0    1
 -2       940      1015      1071      3935      4111      4108
 -1      2068    8    0    1
 -2       937       952      1020      3969      3963      3952
 -1      2069    8    0    1
 -2       848       830      1006      3375      3914      3891
 -1      2070    8    0    1
 -2      1012      1003      1072      3922      4112      4113
 -1      2071    8    0    1
 -2      1014      1070      1025      4106      4114      4115
 -1      2072    8    0    1
 -2      1016       975      1045      4036      4028      4116
 -1      2073    8    0    1
 -2       933      1012      1073      3921      4117      4118
 -1      2074    8    0    1
 -2       933      1073      1018      4118      4119      3947
 -1      2075    8    0    1
 -2      1047      1011      1066      4033      4094      4120
 -1      2076    8    0    1
 -2       951      1010      1074      3909      4121      4122
 -1      2077    8    0    1
 -2       951      1074      1023      4122      4123      3960
 -1      2078    8    0    1
 -2      1067       999      1073      4096      4124      4125
 -1      2079    8    0    1
 -2      1017       998      1075      3941      4126      4127
 -1      2080    8    0    1
 -2      1069      1017      1075      4104      4127      4128
 -1      2081    8    0    1
 -2       998      1067      1075      4097      4129      4126
 -1      2082    8    0    1
 -2      1000      1068      1010      4099      4130      3910
 -1      2083    8    0    1
 -2       950      1023      1020      3961      4131      3962
 -1      2084    8    0    1
 -2      1009       976      1076      3905      4132      4133
 -1      2085    8    0    1
 -2      1066      1009      1076      4095      4133      4134
 -1      2086    8    0    1
 -2       976      1048      1076      4038      4135      4132
 -1      2087    8    0    1
 -2      1003      1020      1072      3951      4136      4112
 -1      2088    8    0    1
 -2      1005      1004      1077      3890      4137      4138
 -1      2089    8    0    1
 -2      1068      1005      1077      4100      4138      4139
 -1      2090    8    0    1
 -2      1004      1019      1077      3949      4140      4137
 -1      2091    8    0    1
 -2      1071      1015      1078      4111      4141      4142
 -1      2092    8    0    1
 -2      1019      1022      1079      3959      4143      4144
 -1      2093    8    0    1
 -2      1015      1016      1080      3940      4145      4146
 -1      2094    8    0    1
 -2      1078      1015      1080      4141      4146      4147
 -1      2095    8    0    1
 -2      1016      1045      1080      4116      4148      4145
 -1      2096    8    0    1
 -2      1077      1019      1081      4140      4149      4150
 -1      2097    8    0    1
 -2      1019      1079      1081      4144      4151      4149
 -1      2098    8    0    1
 -2      1025      1070      1082      4114      4152      4153
 -1      2099    8    0    1
 -2      1073      1012      1083      4117      4154      4155
 -1      2100    8    0    1
 -2      1012      1072      1083      4113      4156      4154
 -1      2101    8    0    1
 -2      1049      1050      1084      4045      4157      4158
 -1      2102    8    0    1
 -2      1026      1025      1082      3972      4153      4159
 -1      2103    8    0    1
 -2      1027      1026      1085      3975      4160      4161
 -1      2104    8    0    1
 -2      1028      1027      1086      3978      4162      4163
 -1      2105    8    0    1
 -2      1027      1085      1086      4161      4164      4162
 -1      2106    8    0    1
 -2      1029      1028      1087      3981      4165      4166
 -1      2107    8    0    1
 -2      1028      1086      1087      4163      4167      4165
 -1      2108    8    0    1
 -2      1030      1029      1088      3984      4168      4169
 -1      2109    8    0    1
 -2      1029      1087      1088      4166      4170      4168
 -1      2110    8    0    1
 -2      1031      1030      1089      3987      4171      4172
 -1      2111    8    0    1
 -2      1030      1088      1089      4169      4173      4171
 -1      2112    8    0    1
 -2      1032      1031      1090      3990      4174      4175
 -1      2113    8    0    1
 -2      1031      1089      1090      4172      4176      4174
 -1      2114    8    0    1
 -2      1033      1032      1091      3993      4177      4178
 -1      2115    8    0    1
 -2      1032      1090      1091      4175      4179      4177
 -1      2116    8    0    1
 -2      1034      1033      1092      3996      4180      4181
 -1      2117    8    0    1
 -2      1033      1091      1092      4178      4182      4180
 -1      2118    8    0    1
 -2      1035      1034      1093      3999      4183      4184
 -1      2119    8    0    1
 -2      1034      1092      1093      4181      4185      4183
 -1      2120    8    0    1
 -2      1036      1035      1094      4002      4186      4187
 -1      2121    8    0    1
 -2      1035      1093      1094      4184      4188      4186
 -1      2122    8    0    1
 -2      1037      1036      1095      4005      4189      4190
 -1      2123    8    0    1
 -2      1036      1094      1095      4187      4191      4189
 -1      2124    8    0    1
 -2      1038      1037      1096      4008      4192      4193
 -1      2125    8    0    1
 -2      1037      1095      1096      4190      4194      4192
 -1      2126    8    0    1
 -2      1039      1038      1097      4011      4195      4196
 -1      2127    8    0    1
 -2      1038      1096      1097      4193      4197      4195
 -1      2128    8    0    1
 -2      1040      1039      1098      4014      4198      4199
 -1      2129    8    0    1
 -2      1039      1097      1098      4196      4200      4198
 -1      2130    8    0    1
 -2      1041      1040      1099      4017      4201      4202
 -1      2131    8    0    1
 -2      1040      1098      1099      4199      4203      4201
 -1      2132    8    0    1
 -2      1042      1041      1100      4020      4204      4205
 -1      2133    8    0    1
 -2      1041      1099      1100      4202      4206      4204
 -1      2134    8    0    1
 -2      1043      1042      1101      4023      4207      4208
 -1      2135    8    0    1
 -2      1042      1100      1101      4205      4209      4207
 -1      2136    8    0    1
 -2      1044      1043      1102      4026      4210      4211
 -1      2137    8    0    1
 -2      1043      1101      1102      4208      4212      4210
 -1      2138    8    0    1
 -2      1045      1044      1080      4029      4213      4148
 -1      2139    8    0    1
 -2      1046      1024      1103      4032      4214      4215
 -1      2140    8    0    1
 -2      1073       999      1018      4124      4216      4119
 -1      2141    8    0    1
 -2      1048      1046      1104      4039      4217      4218
 -1      2142    8    0    1
 -2      1046      1103      1104      4215      4219      4217
 -1      2143    8    0    1
 -2      1050      1051      1105      4048      4220      4221
 -1      2144    8    0    1
 -2      1050      1105      1084      4221      4222      4157
 -1      2145    8    0    1
 -2      1051      1052      1106      4051      4223      4224
 -1      2146    8    0    1
 -2      1051      1106      1105      4224      4225      4220
 -1      2147    8    0    1
 -2      1052      1053      1107      4054      4226      4227
 -1      2148    8    0    1
 -2      1052      1107      1106      4227      4228      4223
 -1      2149    8    0    1
 -2      1053      1054      1108      4057      4229      4230
 -1      2150    8    0    1
 -2      1053      1108      1107      4230      4231      4226
 -1      2151    8    0    1
 -2      1054      1055      1109      4060      4232      4233
 -1      2152    8    0    1
 -2      1054      1109      1108      4233      4234      4229
 -1      2153    8    0    1
 -2      1055      1056      1110      4063      4235      4236
 -1      2154    8    0    1
 -2      1055      1110      1109      4236      4237      4232
 -1      2155    8    0    1
 -2      1056      1057      1111      4066      4238      4239
 -1      2156    8    0    1
 -2      1056      1111      1110      4239      4240      4235
 -1      2157    8    0    1
 -2      1057      1058      1112      4069      4241      4242
 -1      2158    8    0    1
 -2      1057      1112      1111      4242      4243      4238
 -1      2159    8    0    1
 -2      1058      1059      1113      4072      4244      4245
 -1      2160    8    0    1
 -2      1058      1113      1112      4245      4246      4241
 -1      2161    8    0    1
 -2      1059      1060      1114      4075      4247      4248
 -1      2162    8    0    1
 -2      1059      1114      1113      4248      4249      4244
 -1      2163    8    0    1
 -2      1060      1061      1115      4078      4250      4251
 -1      2164    8    0    1
 -2      1060      1115      1114      4251      4252      4247
 -1      2165    8    0    1
 -2      1061      1062      1116      4081      4253      4254
 -1      2166    8    0    1
 -2      1061      1116      1115      4254      4255      4250
 -1      2167    8    0    1
 -2      1062      1063      1117      4084      4256      4257
 -1      2168    8    0    1
 -2      1062      1117      1116      4257      4258      4253
 -1      2169    8    0    1
 -2      1025       954      1065      3967      4091      4259
 -1      2170    8    0    1
 -2      1072      1020      1023      4136      4131      4260
 -1      2171    8    0    1
 -2      1047      1066      1118      4120      4261      4262
 -1      2172    8    0    1
 -2      1021      1071      1119      4110      4263      4264
 -1      2173    8    0    1
 -2      1064      1021      1119      4088      4264      4265
 -1      2174    8    0    1
 -2      1071      1078      1119      4142      4266      4263
 -1      2175    8    0    1
 -2      1024      1049      1120      4042      4267      4268
 -1      2176    8    0    1
 -2      1024      1120      1103      4268      4269      4214
 -1      2177    8    0    1
 -2      1070      1013      1121      4107      4270      4271
 -1      2178    8    0    1
 -2      1082      1070      1121      4152      4271      4272
 -1      2179    8    0    1
 -2      1013      1047      1121      4035      4273      4270
 -1      2180    8    0    1
 -2      1072      1023      1122      4260      4274      4275
 -1      2181    8    0    1
 -2      1023      1074      1122      4123      4276      4274
 -1      2182    8    0    1
 -2      1010      1068      1074      4130      4277      4121
 -1      2183    8    0    1
 -2      1067      1073      1123      4125      4278      4279
 -1      2184    8    0    1
 -2      1075      1067      1123      4129      4279      4280
 -1      2185    8    0    1
 -2      1073      1083      1123      4155      4281      4278
 -1      2186    8    0    1
 -2      1014      1025      1065      4115      4259      4092
 -1      2187    8    0    1
 -2      1026      1082      1085      4159      4282      4160
 -1      2188    8    0    1
 -2      1048      1104      1124      4218      4283      4284
 -1      2189    8    0    1
 -2      1048      1124      1076      4284      4285      4135
 -1      2190    8    0    1
 -2      1044      1102      1080      4211      4286      4213
 -1      2191    8    0    1
 -2      1018       999      1001      4216      3877      3946
 -1      2192    8    0    1
 -2      1072      1122      1083      4275      4287      4156
 -1      2193    8    0    1
 -2      1063      1064      1125      4087      4288      4289
 -1      2194    8    0    1
 -2      1117      1063      1125      4256      4289      4290
 -1      2195    8    0    1
 -2      1064      1119      1125      4265      4291      4288
 -1      2196    8    0    1
 -2      1120      1049      1084      4267      4158      4292
 -1      2197    8    0    1
 -2      1119      1078      1126      4266      4293      4294
 -1      2198    8    0    1
 -2      1119      1126      1125      4294      4295      4291
 -1      2199    8    0    1
 -2      1118      1066      1076      4261      4134      4296
 -1      2200    8    0    1
 -2      1081      1079      1122      4151      4297      4298
 -1      2201    8    0    1
 -2      1121      1047      1118      4273      4262      4299
 -1      2202    8    0    1
 -2      1079      1022      1127      4143      4300      4301
 -1      2203    8    0    1
 -2      1068      1077      1074      4139      4302      4277
 -1      2204    8    0    1
 -2      1078      1080      1126      4147      4303      4293
 -1      2205    8    0    1
 -2      1122      1079      1083      4297      4304      4287
 -1      2206    8    0    1
 -2      1077      1081      1074      4150      4305      4302
 -1      2207    8    0    1
 -2      1105      1106      1128      4225      4306      4307
 -1      2208    8    0    1
 -2      1087      1086      1129      4167      4308      4309
 -1      2209    8    0    1
 -2      1088      1087      1120      4170      4310      4311
 -1      2210    8    0    1
 -2      1089      1088      1084      4173      4312      4313
 -1      2211    8    0    1
 -2      1091      1090      1128      4179      4314      4315
 -1      2212    8    0    1
 -2      1092      1091      1130      4182      4316      4317
 -1      2213    8    0    1
 -2      1093      1092      1108      4185      4318      4319
 -1      2214    8    0    1
 -2      1094      1093      1109      4188      4320      4321
 -1      2215    8    0    1
 -2      1095      1094      1110      4191      4322      4323
 -1      2216    8    0    1
 -2      1096      1095      1111      4194      4324      4325
 -1      2217    8    0    1
 -2      1097      1096      1112      4197      4326      4327
 -1      2218    8    0    1
 -2      1098      1097      1113      4200      4328      4329
 -1      2219    8    0    1
 -2      1099      1098      1114      4203      4330      4331
 -1      2220    8    0    1
 -2      1100      1099      1115      4206      4332      4333
 -1      2221    8    0    1
 -2      1101      1100      1116      4209      4334      4335
 -1      2222    8    0    1
 -2      1102      1101      1117      4212      4336      4337
 -1      2223    8    0    1
 -2      1082      1121      1118      4272      4299      4338
 -1      2224    8    0    1
 -2      1110      1094      1109      4322      4321      4237
 -1      2225    8    0    1
 -2      1118      1076      1124      4296      4285      4339
 -1      2226    8    0    1
 -2      1104      1103      1129      4219      4340      4341
 -1      2227    8    0    1
 -2      1106      1107      1130      4228      4342      4343
 -1      2228    8    0    1
 -2      1108      1109      1093      4234      4320      4319
 -1      2229    8    0    1
 -2      1110      1111      1095      4240      4324      4323
 -1      2230    8    0    1
 -2      1111      1112      1096      4243      4326      4325
 -1      2231    8    0    1
 -2      1112      1113      1097      4246      4328      4327
 -1      2232    8    0    1
 -2      1113      1114      1098      4249      4330      4329
 -1      2233    8    0    1
 -2      1114      1115      1099      4252      4332      4331
 -1      2234    8    0    1
 -2      1115      1116      1100      4255      4334      4333
 -1      2235    8    0    1
 -2      1116      1117      1101      4258      4336      4335
 -1      2236    8    0    1
 -2      1085      1082      1118      4282      4338      4344
 -1      2237    8    0    1
 -2      1083      1079      1123      4304      4345      4281
 -1      2238    8    0    1
 -2      1120      1084      1088      4292      4312      4311
 -1      2239    8    0    1
 -2      1122      1074      1081      4276      4305      4298
 -1      2240    8    0    1
 -2      1084      1105      1089      4222      4346      4313
 -1      2241    8    0    1
 -2      1085      1118      1124      4344      4339      4347
 -1      2242    8    0    1
 -2      1128      1106      1130      4306      4343      4348
 -1      2243    8    0    1
 -2      1091      1128      1130      4315      4348      4316
 -1      2244    8    0    1
 -2      1090      1089      1105      4176      4346      4349
 -1      2245    8    0    1
 -2      1102      1117      1126      4337      4350      4351
 -1      2246    8    0    1
 -2      1123      1079      1127      4345      4301      4352
 -1      2247    8    0    1
 -2      1107      1108      1092      4231      4318      4353
 -1      2248    8    0    1
 -2      1102      1126      1080      4351      4303      4286
 -1      2249    8    0    1
 -2      1126      1117      1125      4350      4290      4295
 -1      2250    8    0    1
 -2      1069      1075      1127      4128      4354      4355
 -1      2251    8    0    1
 -2      1069      1127      1022      4355      4300      4103
 -1      2252    8    0    1
 -2      1086      1085      1131      4164      4356      4357
 -1      2253    8    0    1
 -2      1120      1087      1103      4310      4358      4269
 -1      2254    8    0    1
 -2      1086      1131      1129      4357      4359      4308
 -1      2255    8    0    1
 -2       755       944       857      3933      3705      3415
 -1      2256    8    0    1
 -2      1124      1104      1131      4283      4360      4361
 -1      2257    8    0    1
 -2      1104      1129      1131      4341      4359      4360
 -1      2258    8    0    1
 -2      1085      1124      1131      4347      4361      4356
 -1      2259    8    0    1
 -2      1123      1127      1075      4352      4354      4280
 -1      2260    8    0    1
 -2      1090      1105      1128      4349      4307      4314
 -1      2261    8    0    1
 -2      1103      1087      1129      4358      4309      4340
 -1      2262    8    0    1
 -2      1107      1092      1130      4353      4317      4342
 -3
    1PSTEP                         1           1           1          
  100CL  101 1.000000000        4361                     0    1           1
 -4  DISP        4    1
 -5  D1          1    2    1    0
 -5  D2          1    2    2    0
 -5  D3          1    2    3    0
 -5  ALL         1    2    0    0    1ALL
 -1         1 3.74276E-03-7.24933E-04-2.37206E-14
 -1         2 7.14161E-03-1.78571E-05-3.60648E-14
 -1         3 1.51780E-02 6.12167E-04-2.10435E-13
 -1         4 1.52292E-02-8.18408E-04-2.23896E-13
 -1         5 0.00000E+00 0.00000E+00 0.00000E+00
 -1         6 0.00000E+00 0.00000E+00 0.00000E+00
 -1         7 0.00000E+00 0.00000E+00 0.00000E+00
 -1         8 0.00000E+00 0.00000E+00 0.00000E+00
 -1         9 0.00000E+00 0.00000E+00 0.00000E+00
 -1        10 0.00000E+00 0.00000E+00 0.00000E+00
 -1        11 0.00000E+00 0.00000E+00 0.00000E+00
 -1        12 0.00000E+00 0.00000E+00 0.00000E+00
 -1        13 0.00000E+00 0.00000E+00 0.00000E+00
 -1        14 0.00000E+00 0.00000E+00 0.00000E+00
 -1        15 0.00000E+00 0.00000E+00 0.00000E+00
 -1        16 0.00000E+00 0.00000E+00 0.00000E+00
 -1        17 0.00000E+00 0.00000E+00 0.00000E+00
 -1        18 0.00000E+00 0.00000E+00 0.00000E+00
 -1        19 0.00000E+00 0.00000E+00 0.00000E+00
 -1        20 0.00000E+00 0.00000E+00 0.00000E+00
 -1        21 0.00000E+00 0.00000E+00 0.00000E+00
 -1        22 0.00000E+00 0.00000E+00 0.00000E+00
 -1        23 4.12885E-04-2.48334E-04 3.66189E-17
 -1        24 7.15300E-04-3.73493E-04-2.17708E-16
 -1        25 1.00311E-03-4.57287E-04-7.50082E-16
 -1        26 1.29195E-03-5.15764E-04-1.54989E-15
 -1        27 1.58704E-03-5.59541E-04-2.60789E-15
 -1        28 1.89146E-03-5.96033E-04-3.91650E-15
 -1        29 2.20701E-03-6.31765E-04-5.47177E-15
 -1        30 2.53430E-03-6.73058E-04-7.26638E-15
 -1        31 2.87218E-03-7.26020E-04-9.29701E-15
 -1        32 3.21706E-03-7.95804E-04-1.15579E-14
 -1        33 3.56231E-03-8.84937E-04-1.40452E-14
 -1        34 3.89853E-03-9.90806E-04-1.67511E-14
 -1        35 4.21561E-03-1.10319E-03-1.96797E-14
 -1        36 4.50687E-03-1.20389E-03-2.28298E-14
 -1        37 4.77385E-03-1.27083E-03-2.62051E-14
 -1        38 5.02810E-03-1.28664E-03-2.98021E-14
 -1        39 5.28732E-03-1.24721E-03-3.36112E-14
 -1        40 5.56718E-03-1.16399E-03-3.76294E-14
 -1        41 5.87475E-03-1.05812E-03-4.18368E-14
 -1        42 6.20731E-03-9.51119E-04-4.62161E-14
 -1        43 6.55611E-03-8.58163E-04-5.07555E-14
 -1        44 6.91114E-03-7.86348E-04-5.54525E-14
 -1        45 7.26434E-03-7.36432E-04-6.02970E-14
 -1        46 7.61068E-03-7.05574E-04-6.52803E-14
 -1        47 7.94781E-03-6.89595E-04-7.03840E-14
 -1        48 8.27528E-03-6.84325E-04-7.56084E-14
 -1        49 8.59378E-03-6.86229E-04-8.09420E-14
 -1        50 8.90447E-03-6.92572E-04-8.63847E-14
 -1        51 9.20873E-03-7.01369E-04-9.19180E-14
 -1        52 9.50783E-03-7.11258E-04-9.75321E-14
 -1        53 9.80294E-03-7.21346E-04-1.03224E-13
 -1        54 1.00950E-02-7.31092E-04-1.09000E-13
 -1        55 1.03849E-02-7.40193E-04-1.14864E-13
 -1        56 1.06731E-02-7.48514E-04-1.20819E-13
 -1        57 1.09602E-02-7.56024E-04-1.26854E-13
 -1        58 1.12465E-02-7.62759E-04-1.32959E-13
 -1        59 1.15323E-02-7.68791E-04-1.39130E-13
 -1        60 1.18178E-02-7.74207E-04-1.45360E-13
 -1        61 1.21032E-02-7.79104E-04-1.51646E-13
 -1        62 1.23885E-02-7.83570E-04-1.58002E-13
 -1        63 1.26737E-02-7.87689E-04-1.64435E-13
 -1        64 1.29590E-02-7.91535E-04-1.70931E-13
 -1        65 1.32444E-02-7.95174E-04-1.77487E-13
 -1        66 1.35298E-02-7.98659E-04-1.84093E-13
 -1        67 1.38152E-02-8.02040E-04-1.90735E-13
 -1        68 1.41008E-02-8.05355E-04-1.97397E-13
 -1        69 1.43864E-02-8.08642E-04-2.04078E-13
 -1        70 1.46721E-02-8.11930E-04-2.10772E-13
 -1        71 1.49578E-02-8.15239E-04-2.17492E-13
 -1        72 4.14963E-04 2.49138E-04 1.24819E-16
 -1        73 7.15093E-04 3.76387E-04 2.78877E-17
 -1        74 1.00346E-03 4.59484E-04-2.89699E-16
 -1        75 1.29231E-03 5.18114E-04-8.30421E-16
 -1        76 1.58708E-03 5.62169E-04-1.59398E-15
 -1        77 1.89083E-03 5.98962E-04-2.58088E-15
 -1        78 2.20527E-03 6.34907E-04-3.79044E-15
 -1        79 2.53083E-03 6.76140E-04-5.21818E-15
 -1        80 2.86624E-03 7.28480E-04-6.86306E-15
 -1        81 3.20784E-03 7.96672E-04-8.72757E-15
 -1        82 3.54915E-03 8.82800E-04-1.08106E-14
 -1        83 3.88123E-03 9.83963E-04-1.31118E-14
 -1        84 4.19467E-03 1.09012E-03-1.56384E-14
 -1        85 4.48348E-03 1.18400E-03-1.83919E-14
 -1        86 4.74938E-03 1.24506E-03-2.13741E-14
 -1        87 5.00331E-03 1.25731E-03-2.45808E-14
 -1        88 5.26185E-03 1.21698E-03-2.80065E-14
 -1        89 5.53984E-03 1.13452E-03-3.16495E-14
 -1        90 5.84417E-03 1.02949E-03-3.55009E-14
 -1        91 6.17266E-03 9.22117E-04-3.95377E-14
 -1        92 6.51727E-03 8.27026E-04-4.37478E-14
 -1        93 6.86860E-03 7.51439E-04-4.81216E-14
 -1        94 7.21889E-03 6.96540E-04-5.26549E-14
 -1        95 7.56310E-03 6.59944E-04-5.73366E-14
 -1        96 7.89879E-03 6.37821E-04-6.21604E-14
 -1        97 8.22533E-03 6.26231E-04-6.71137E-14
 -1        98 8.54325E-03 6.21765E-04-7.21874E-14
 -1        99 8.85361E-03 6.21752E-04-7.73714E-14
 -1       100 9.15767E-03 6.24232E-04-8.26661E-14
 -1       101 9.45668E-03 6.27845E-04-8.80747E-14
 -1       102 9.75174E-03 6.31696E-04-9.35932E-14
 -1       103 1.00438E-02 6.35233E-04-9.92127E-14
 -1       104 1.03336E-02 6.38149E-04-1.04925E-13
 -1       105 1.06219E-02 6.40299E-04-1.10724E-13
 -1       106 1.09090E-02 6.41649E-04-1.16621E-13
 -1       107 1.11953E-02 6.42230E-04-1.22611E-13
 -1       108 1.14811E-02 6.42112E-04-1.28667E-13
 -1       109 1.17666E-02 6.41383E-04-1.34781E-13
 -1       110 1.20520E-02 6.40134E-04-1.40941E-13
 -1       111 1.23373E-02 6.38456E-04-1.47140E-13
 -1       112 1.26225E-02 6.36431E-04-1.53386E-13
 -1       113 1.29078E-02 6.34135E-04-1.59661E-13
 -1       114 1.31932E-02 6.31630E-04-1.65958E-13
 -1       115 1.34786E-02 6.28972E-04-1.72273E-13
 -1       116 1.37641E-02 6.26209E-04-1.78614E-13
 -1       117 1.40496E-02 6.23381E-04-1.84974E-13
 -1       118 1.43352E-02 6.20525E-04-1.91380E-13
 -1       119 1.46209E-02 6.17669E-04-1.97821E-13
 -1       120 1.49066E-02 6.14835E-04-2.04289E-13
 -1       121 1.51808E-02 5.27883E-04-2.11221E-13
 -1       122 1.51835E-02 4.43588E-04-2.12001E-13
 -1       123 1.51862E-02 3.59260E-04-2.12768E-13
 -1       124 1.51889E-02 2.74887E-04-2.13525E-13
 -1       125 1.51917E-02 1.90467E-04-2.14312E-13
 -1       126 1.51944E-02 1.07436E-04-2.15133E-13
 -1       127 1.51973E-02 2.29407E-05-2.15981E-13
 -1       128 1.52002E-02-6.15752E-05-2.16840E-13
 -1       129 1.52032E-02-1.46098E-04-2.17697E-13
 -1       130 1.52063E-02-2.30614E-04-2.18536E-13
 -1       131 1.52095E-02-3.15108E-04-2.19357E-13
 -1       132 1.52127E-02-3.98139E-04-2.20195E-13
 -1       133 1.52160E-02-4.82559E-04-2.21015E-13
 -1       134 1.52194E-02-5.66931E-04-2.21786E-13
 -1       135 1.52227E-02-6.51258E-04-2.22522E-13
 -1       136 1.52260E-02-7.35553E-04-2.23217E-13
 -1       137 7.07991E-03 1.71745E-04-3.56202E-14
 -1       138 6.93135E-03 3.33125E-04-3.48424E-14
 -1       139 6.68759E-03 4.87233E-04-3.36852E-14
 -1       140 6.36871E-03 6.20116E-04-3.22695E-14
 -1       141 5.93485E-03 7.37266E-04-3.04631E-14
 -1       142 5.50905E-03 8.05160E-04-2.87870E-14
 -1       143 5.04524E-03 8.36413E-04-2.70580E-14
 -1       144 4.54468E-03 8.23623E-04-2.52665E-14
 -1       145 4.07636E-03 7.66976E-04-2.36959E-14
 -1       146 3.67035E-03 6.75402E-04-2.23920E-14
 -1       147 3.32416E-03 5.55424E-04-2.13385E-14
 -1       148 3.04673E-03 4.10540E-04-2.05424E-14
 -1       149 2.85431E-03 2.48150E-04-2.00432E-14
 -1       150 2.75372E-03 7.11261E-05-1.98542E-14
 -1       151 2.75528E-03-1.00252E-04-1.99823E-14
 -1       152 2.85152E-03-2.70400E-04-2.04144E-14
 -1       153 3.03804E-03-4.30609E-04-2.11382E-14
 -1       154 3.35541E-03-5.95452E-04-2.23097E-14
 -1       155 4.16232E-03-8.12531E-04-2.52437E-14
 -1       156 4.63113E-03-8.63486E-04-2.69613E-14
 -1       157 5.09724E-03-8.71206E-04-2.86844E-14
 -1       158 5.59414E-03-8.32685E-04-3.05497E-14
 -1       159 6.02559E-03-7.56813E-04-3.21728E-14
 -1       160 6.40702E-03-6.47275E-04-3.36102E-14
 -1       161 6.71746E-03-5.13186E-04-3.47597E-14
 -1       162 6.94644E-03-3.62141E-04-3.55745E-14
 -1       163 7.09643E-03-1.87791E-04-3.60375E-14
 -1       164 2.47507E-04-1.11759E-04-7.18352E-17
 -1       165 2.31089E-04-7.84149E-05-1.04446E-16
 -1       166 2.22551E-04-5.56666E-05-1.20475E-16
 -1       167 2.16463E-04-3.87981E-05-1.27851E-16
 -1       168 2.11835E-04-2.60553E-05-1.30440E-16
 -1       169 2.08376E-04-1.58358E-05-1.30175E-16
 -1       170 2.06252E-04-7.41828E-06-1.28370E-16
 -1       171 2.05559E-04 1.17430E-07-1.25706E-16
 -1       172 2.06331E-04 7.69127E-06-1.21695E-16
 -1       173 2.08522E-04 1.62194E-05-1.16274E-16
 -1       174 2.11954E-04 2.64205E-05-1.08752E-16
 -1       175 2.16673E-04 3.95954E-05-9.75477E-17
 -1       176 2.22780E-04 5.67794E-05-8.06308E-17
 -1       177 2.31275E-04 7.99406E-05-5.39797E-17
 -1       178 2.46469E-04 1.13944E-04-1.03372E-17
 -1       179 3.04513E-04 1.72623E-04 3.71000E-17
 -1       180 4.81996E-04-2.40456E-04-1.89061E-16
 -1       181 7.93438E-04-3.43191E-04-6.26371E-16
 -1       182 1.09514E-03-4.12548E-04-1.31886E-15
 -1       183 1.39558E-03-4.61605E-04-2.26373E-15
 -1       184 1.69910E-03-4.99051E-04-3.45484E-15
 -1       185 2.00843E-03-5.32003E-04-4.88799E-15
 -1       186 2.32507E-03-5.67130E-04-6.55737E-15
 -1       187 2.64940E-03-6.11060E-04-8.45889E-15
 -1       188 2.98039E-03-6.70086E-04-1.05874E-14
 -1       189 3.31539E-03-7.48983E-04-1.29398E-14
 -1       190 3.64992E-03-8.48736E-04-1.55122E-14
 -1       191 3.97828E-03-9.63498E-04-1.83033E-14
 -1       192 4.29511E-03-1.07830E-03-2.13169E-14
 -1       193 4.59814E-03-1.17037E-03-2.45523E-14
 -1       194 4.89058E-03-1.21623E-03-2.80141E-14
 -1       195 5.18085E-03-1.20275E-03-3.16942E-14
 -1       196 5.47876E-03-1.13438E-03-3.55846E-14
 -1       197 5.79058E-03-1.03076E-03-3.96747E-14
 -1       198 6.11682E-03-9.16679E-04-4.39467E-14
 -1       199 6.45343E-03-8.12212E-04-4.83849E-14
 -1       200 6.79466E-03-7.28511E-04-5.29822E-14
 -1       201 7.13528E-03-6.68619E-04-5.77328E-14
 -1       202 7.47160E-03-6.30478E-04-6.26283E-14
 -1       203 7.80159E-03-6.09791E-04-6.76535E-14
 -1       204 8.12449E-03-6.01887E-04-7.27983E-14
 -1       205 8.44045E-03-6.02653E-04-7.80579E-14
 -1       206 8.75009E-03-6.08852E-04-8.34245E-14
 -1       207 9.05427E-03-6.18108E-04-8.88954E-14
 -1       208 9.35392E-03-6.28779E-04-9.44511E-14
 -1       209 9.64990E-03-6.39786E-04-1.00090E-13
 -1       210 9.94300E-03-6.50466E-04-1.05810E-13
 -1       211 1.02339E-02-6.60448E-04-1.11616E-13
 -1       212 1.05231E-02-6.69558E-04-1.17509E-13
 -1       213 1.08111E-02-6.77750E-04-1.23482E-13
 -1       214 1.10981E-02-6.85057E-04-1.29533E-13
 -1       215 1.13846E-02-6.91558E-04-1.35658E-13
 -1       216 1.16706E-02-6.97352E-04-1.41843E-13
 -1       217 1.19564E-02-7.02544E-04-1.48086E-13
 -1       218 1.22420E-02-7.07238E-04-1.54393E-13
 -1       219 1.25275E-02-7.11529E-04-1.60769E-13
 -1       220 1.28130E-02-7.15500E-04-1.67212E-13
 -1       221 1.30985E-02-7.19226E-04-1.73713E-13
 -1       222 1.33840E-02-7.22769E-04-1.80268E-13
 -1       223 1.36695E-02-7.26182E-04-1.86871E-13
 -1       224 1.39551E-02-7.29511E-04-1.93501E-13
 -1       225 1.42407E-02-7.32794E-04-2.00156E-13
 -1       226 1.45264E-02-7.36066E-04-2.06828E-13
 -1       227 1.48121E-02-7.39354E-04-2.13527E-13
 -1       228 6.22132E-04 3.02074E-04-1.01495E-16
 -1       229 9.26509E-04 3.88946E-04-4.46352E-16
 -1       230 1.22573E-03 4.48999E-04-1.00694E-15
 -1       231 1.52602E-03 4.92868E-04-1.78564E-15
 -1       232 1.83100E-03 5.28301E-04-2.78391E-15
 -1       233 2.14278E-03 5.61997E-04-4.00183E-15
 -1       234 2.46223E-03 6.00391E-04-5.43595E-15
 -1       235 2.78893E-03 6.49723E-04-7.08538E-15
 -1       236 3.12085E-03 7.15386E-04-8.95061E-15
 -1       237 3.45420E-03 8.00357E-04-1.10314E-14
 -1       238 3.78360E-03 9.02726E-04-1.33282E-14
 -1       239 4.10322E-03 1.01308E-03-1.58465E-14
 -1       240 4.40894E-03 1.11375E-03-1.85911E-14
 -1       241 4.70101E-03 1.18239E-03-2.15617E-14
 -1       242 4.98538E-03 1.20049E-03-2.47585E-14
 -1       243 5.27173E-03 1.16238E-03-2.81778E-14
 -1       244 5.56911E-03 1.07841E-03-3.18146E-14
 -1       245 5.88190E-03 9.69578E-04-3.56562E-14
 -1       246 6.20894E-03 8.57910E-04-3.96874E-14
 -1       247 6.54542E-03 7.59320E-04-4.38960E-14
 -1       248 6.88553E-03 6.81537E-04-4.82679E-14
 -1       249 7.22429E-03 6.25702E-04-5.27960E-14
 -1       250 7.55834E-03 5.89131E-04-5.74705E-14
 -1       251 7.88593E-03 5.67649E-04-6.22846E-14
 -1       252 8.20650E-03 5.57024E-04-6.72321E-14
 -1       253 8.52031E-03 5.53641E-04-7.22991E-14
 -1       254 8.82805E-03 5.54693E-04-7.74779E-14
 -1       255 9.13061E-03 5.58148E-04-8.27687E-14
 -1       256 9.42889E-03 5.62608E-04-8.81721E-14
 -1       257 9.72376E-03 5.67171E-04-9.36834E-14
 -1       258 1.00160E-02 5.71290E-04-9.92935E-14
 -1       259 1.03061E-02 5.74668E-04-1.04996E-13
 -1       260 1.05948E-02 5.77179E-04-1.10790E-13
 -1       261 1.08823E-02 5.78805E-04-1.16678E-13
 -1       262 1.11691E-02 5.79593E-04-1.22654E-13
 -1       263 1.14553E-02 5.79626E-04-1.28697E-13
 -1       264 1.17412E-02 5.79005E-04-1.34799E-13
 -1       265 1.20268E-02 5.77830E-04-1.40953E-13
 -1       266 1.23124E-02 5.76202E-04-1.47148E-13
 -1       267 1.25978E-02 5.74208E-04-1.53389E-13
 -1       268 1.28833E-02 5.71928E-04-1.59664E-13
 -1       269 1.31687E-02 5.69430E-04-1.65966E-13
 -1       270 1.34542E-02 5.66772E-04-1.72286E-13
 -1       271 1.37398E-02 5.64005E-04-1.78627E-13
 -1       272 1.40254E-02 5.61169E-04-1.84988E-13
 -1       273 1.43110E-02 5.58302E-04-1.91388E-13
 -1       274 1.45967E-02 5.55436E-04-1.97824E-13
 -1       275 1.48824E-02 5.52595E-04-2.04282E-13
 -1       276 1.49347E-02 4.88162E-04-2.06022E-13
 -1       277 1.49374E-02 4.03847E-04-2.06805E-13
 -1       278 1.49401E-02 3.19504E-04-2.07576E-13
 -1       279 1.49428E-02 2.35130E-04-2.08356E-13
 -1       280 1.49455E-02 1.52156E-04-2.09139E-13
 -1       281 1.49484E-02 6.77274E-05-2.09954E-13
 -1       282 1.49512E-02-1.67197E-05-2.10777E-13
 -1       283 1.49542E-02-1.01176E-04-2.11604E-13
 -1       284 1.49573E-02-1.85632E-04-2.12427E-13
 -1       285 1.49604E-02-2.70079E-04-2.13243E-13
 -1       286 1.49636E-02-3.53077E-04-2.14037E-13
 -1       287 1.49669E-02-4.37481E-04-2.14828E-13
 -1       288 1.49702E-02-5.21855E-04-2.15592E-13
 -1       289 1.49736E-02-6.06197E-04-2.16327E-13
 -1       290 1.48928E-02-6.72783E-04-2.14934E-13
 -1       291 7.14894E-03 2.52681E-05-3.79978E-14
 -1       292 6.99422E-03 1.43422E-04-3.67780E-14
 -1       293 6.73380E-03 2.70823E-04-3.56917E-14
 -1       294 6.39885E-03 4.41116E-04-3.40405E-14
 -1       295 5.99910E-03 6.27876E-04-3.20979E-14
 -1       296 5.59182E-03 7.90666E-04-3.00154E-14
 -1       297 5.21474E-03 8.88811E-04-2.79991E-14
 -1       298 4.82795E-03 9.19747E-04-2.58817E-14
 -1       299 4.42041E-03 8.34345E-04-2.40032E-14
 -1       300 4.03278E-03 6.92524E-04-2.23242E-14
 -1       301 3.64248E-03 5.23350E-04-2.10492E-14
 -1       302 3.28437E-03 3.53129E-04-2.00245E-14
 -1       303 2.98548E-03 2.04703E-04-1.93146E-14
 -1       304 2.78331E-03 7.84689E-05-1.87982E-14
 -1       305 2.71559E-03-1.33867E-05-1.89059E-14
 -1       306 2.78454E-03-1.09537E-04-1.92117E-14
 -1       307 2.98060E-03-2.19440E-04-1.97807E-14
 -1       308 3.31284E-03-3.60604E-04-2.06594E-14
 -1       309 3.72347E-03-5.59942E-04-2.21490E-14
 -1       310 4.10283E-03-7.53090E-04-2.40020E-14
 -1       311 4.49752E-03-8.86920E-04-2.58653E-14
 -1       312 4.88132E-03-9.46814E-04-2.78716E-14
 -1       313 5.26702E-03-9.21791E-04-3.00441E-14
 -1       314 5.67287E-03-8.02548E-04-3.20777E-14
 -1       315 6.06265E-03-6.40886E-04-3.39245E-14
 -1       316 6.43770E-03-4.64916E-04-3.54983E-14
 -1       317 6.76466E-03-3.05502E-04-3.67003E-14
 -1       318 7.01734E-03-1.67159E-04-3.76019E-14
 -1       319 7.15236E-03-6.60026E-05-3.77861E-14
 -1       320 4.64886E-04-1.32944E-04-4.04004E-16
 -1       321 4.89096E-04-1.83038E-04-3.53840E-16
 -1       322 4.35259E-04-6.60854E-05-4.42958E-16
 -1       323 4.25581E-04-4.29144E-05-4.46315E-16
 -1       324 4.18981E-04-2.39565E-05-4.44001E-16
 -1       325 4.15671E-04-7.47704E-06-4.37591E-16
 -1       326 4.15803E-04 8.23351E-06-4.27514E-16
 -1       327 4.19359E-04 2.48809E-05-4.13203E-16
 -1       328 4.26016E-04 4.38025E-05-3.94121E-16
 -1       329 4.35796E-04 6.73409E-05-3.67748E-16
 -1       330 4.48664E-04 9.71071E-05-3.31078E-16
 -1       331 4.65603E-04 1.35647E-04-2.78708E-16
 -1       332 4.90734E-04 1.87327E-04-2.01526E-16
 -1       333 5.49403E-04 2.40452E-04-1.64436E-16
 -1       334 8.55124E-04 3.28468E-04-5.25455E-16
 -1       335 8.94902E-04-3.07434E-04-1.07234E-15
 -1       336 1.19668E-03-3.63530E-04-1.91281E-15
 -1       337 1.49862E-03-4.04214E-04-2.99415E-15
 -1       338 1.80298E-03-4.36611E-04-4.31215E-15
 -1       339 2.11164E-03-4.67362E-04-5.86243E-15
 -1       340 2.42608E-03-5.03114E-04-7.64119E-15
 -1       341 2.74727E-03-5.50606E-04-9.64282E-15
 -1       342 3.07545E-03-6.16124E-04-1.18642E-14
 -1       343 3.40965E-03-7.03966E-04-1.43035E-14
 -1       344 3.74693E-03-8.13611E-04-1.69598E-14
 -1       345 4.08222E-03-9.35957E-04-1.98336E-14
 -1       346 4.40981E-03-1.05077E-03-2.29292E-14
 -1       347 4.72709E-03-1.12977E-03-2.62511E-14
 -1       348 5.03804E-03-1.14842E-03-2.98013E-14
 -1       349 5.35155E-03-1.10062E-03-3.35665E-14
 -1       350 5.67482E-03-1.00289E-03-3.75392E-14
 -1       351 6.00857E-03-8.83765E-04-4.17027E-14
 -1       352 6.34815E-03-7.69102E-04-4.60413E-14
 -1       353 6.68781E-03-6.74349E-04-5.05412E-14
 -1       354 7.02339E-03-6.04790E-04-5.51965E-14
 -1       355 7.35286E-03-5.59170E-04-6.00007E-14
 -1       356 7.67568E-03-5.33225E-04-6.49437E-14
 -1       357 7.99211E-03-5.21977E-04-7.00125E-14
 -1       358 8.30278E-03-5.20896E-04-7.51959E-14
 -1       359 8.60842E-03-5.26329E-04-8.04880E-14
 -1       360 8.90979E-03-5.35549E-04-8.58897E-14
 -1       361 9.20759E-03-5.46635E-04-9.13896E-14
 -1       362 9.50247E-03-5.58307E-04-9.69711E-14
 -1       363 9.79501E-03-5.69758E-04-1.02632E-13
 -1       364 1.00857E-02-5.80525E-04-1.08380E-13
 -1       365 1.03750E-02-5.90376E-04-1.14217E-13
 -1       366 1.06631E-02-5.99236E-04-1.20134E-13
 -1       367 1.09505E-02-6.07123E-04-1.26130E-13
 -1       368 1.12373E-02-6.14113E-04-1.32203E-13
 -1       369 1.15236E-02-6.20309E-04-1.38340E-13
 -1       370 1.18096E-02-6.25826E-04-1.44543E-13
 -1       371 1.20955E-02-6.30776E-04-1.50804E-13
 -1       372 1.23812E-02-6.35264E-04-1.57126E-13
 -1       373 1.26668E-02-6.39385E-04-1.63516E-13
 -1       374 1.29525E-02-6.43219E-04-1.69967E-13
 -1       375 1.32381E-02-6.46837E-04-1.76475E-13
 -1       376 1.35237E-02-6.50299E-04-1.83031E-13
 -1       377 1.38093E-02-6.53654E-04-1.89626E-13
 -1       378 1.40949E-02-6.56944E-04-1.96250E-13
 -1       379 1.43806E-02-6.60207E-04-2.02896E-13
 -1       380 1.46367E-02-6.66483E-04-2.08902E-13
 -1       381 1.15743E-03 3.89978E-04-1.09608E-15
 -1       382 1.45930E-03 4.34319E-04-1.88085E-15
 -1       383 1.76369E-03 4.69135E-04-2.88193E-15
 -1       384 2.07273E-03 5.01175E-04-4.09972E-15
 -1       385 2.38772E-03 5.36967E-04-5.53182E-15
 -1       386 2.70913E-03 5.82960E-04-7.17699E-15
 -1       387 3.03640E-03 6.45028E-04-9.03552E-15
 -1       388 3.36764E-03 7.27057E-04-1.11075E-14
 -1       389 3.69937E-03 8.28524E-04-1.33924E-14
 -1       390 4.02683E-03 9.41480E-04-1.58950E-14
 -1       391 4.34541E-03 1.04873E-03-1.86230E-14
 -1       392 4.65337E-03 1.12637E-03-2.15762E-14
 -1       393 4.95423E-03 1.15250E-03-2.47571E-14
 -1       394 5.25576E-03 1.11856E-03-2.81626E-14
 -1       395 5.56562E-03 1.03431E-03-3.17877E-14
 -1       396 5.88699E-03 9.22513E-04-3.56187E-14
 -1       397 6.21789E-03 8.07280E-04-3.96410E-14
 -1       398 6.55366E-03 7.05760E-04-4.38416E-14
 -1       399 6.88961E-03 6.26052E-04-4.82081E-14
 -1       400 7.22231E-03 5.69199E-04-5.27273E-14
 -1       401 7.54979E-03 5.32284E-04-5.73923E-14
 -1       402 7.87125E-03 5.10910E-04-6.21963E-14
 -1       403 8.18664E-03 5.00672E-04-6.71334E-14
 -1       404 8.49637E-03 4.97823E-04-7.21911E-14
 -1       405 8.80109E-03 4.99468E-04-7.73639E-14
 -1       406 9.10152E-03 5.03513E-04-8.26477E-14
 -1       407 9.39840E-03 5.08526E-04-8.80425E-14
 -1       408 9.69241E-03 5.13581E-04-9.35419E-14
 -1       409 9.98415E-03 5.18124E-04-9.91421E-14
 -1       410 1.02741E-02 5.21858E-04-1.04838E-13
 -1       411 1.05628E-02 5.24661E-04-1.10621E-13
 -1       412 1.08504E-02 5.26521E-04-1.16498E-13
 -1       413 1.11373E-02 5.27493E-04-1.22461E-13
 -1       414 1.14237E-02 5.27668E-04-1.28493E-13
 -1       415 1.17098E-02 5.27153E-04-1.34586E-13
 -1       416 1.19956E-02 5.26058E-04-1.40731E-13
 -1       417 1.22813E-02 5.24486E-04-1.46923E-13
 -1       418 1.25669E-02 5.22532E-04-1.53162E-13
 -1       419 1.28524E-02 5.20278E-04-1.59437E-13
 -1       420 1.31380E-02 5.17797E-04-1.65738E-13
 -1       421 1.34235E-02 5.15147E-04-1.72058E-13
 -1       422 1.37091E-02 5.12381E-04-1.78398E-13
 -1       423 1.39947E-02 5.09544E-04-1.84763E-13
 -1       424 1.42804E-02 5.06671E-04-1.91157E-13
 -1       425 1.45661E-02 5.03796E-04-1.97589E-13
 -1       426 1.47504E-02 4.95972E-04-2.01803E-13
 -1       427 1.46940E-02 2.79809E-04-2.02393E-13
 -1       428 1.46913E-02 3.64151E-04-2.01612E-13
 -1       429 1.47209E-02 4.30067E-04-2.01711E-13
 -1       430 1.46967E-02 1.96875E-04-2.03158E-13
 -1       431 1.46995E-02 1.12492E-04-2.03944E-13
 -1       432 1.47023E-02 2.80949E-05-2.04739E-13
 -1       433 1.47052E-02-5.63110E-05-2.05541E-13
 -1       434 1.47083E-02-1.40720E-04-2.06343E-13
 -1       435 1.47114E-02-2.25126E-04-2.07141E-13
 -1       436 1.47145E-02-3.08092E-04-2.07914E-13
 -1       437 1.47178E-02-3.92475E-04-2.08684E-13
 -1       438 1.47211E-02-4.76839E-04-2.09436E-13
 -1       439 1.47245E-02-5.61181E-04-2.10167E-13
 -1       440 6.86540E-03 1.37791E-04-3.79257E-14
 -1       441 7.18588E-03-2.42244E-05-3.97368E-14
 -1       442 7.08219E-03 4.70777E-05-3.91612E-14
 -1       443 6.51347E-03 2.95014E-04-3.61730E-14
 -1       444 6.12985E-03 4.90589E-04-3.40819E-14
 -1       445 4.48015E-04-9.51575E-05-4.30394E-16
 -1       446 5.35160E-03 8.68998E-04-2.92962E-14
 -1       447 5.04628E-03 9.45387E-04-2.71206E-14
 -1       448 4.62089E-03 9.01524E-04-2.42508E-14
 -1       449 4.31479E-03 7.81776E-04-2.25740E-14
 -1       450 3.89832E-03 5.67839E-04-2.06719E-14
 -1       451 3.52336E-03 3.71816E-04-1.93592E-14
 -1       452 3.15793E-03 2.08641E-04-1.85804E-14
 -1       453 2.88697E-03 8.88629E-05-1.77411E-14
 -1       454 2.71185E-03 1.16023E-05-1.76923E-14
 -1       455 2.71969E-03-4.02539E-05-1.79788E-14
 -1       456 2.86091E-03-1.01724E-04-1.81668E-14
 -1       457 3.11202E-03-2.03264E-04-1.89708E-14
 -1       458 3.55975E-03-4.09359E-04-2.04717E-14
 -1       459 4.02114E-03-6.59775E-04-2.26271E-14
 -1       460 4.34220E-03-8.23610E-04-2.44109E-14
 -1       461 4.72172E-03-9.59025E-04-2.67357E-14
 -1       462 5.04533E-03-9.80111E-04-2.90470E-14
 -1       463 5.43835E-03-8.77515E-04-3.19121E-14
 -1       464 5.79242E-03-7.08618E-04-3.41203E-14
 -1       465 6.18483E-03-5.05481E-04-3.60510E-14
 -1       466 6.56124E-03-3.17425E-04-3.77255E-14
 -1       467 6.87941E-03-1.77654E-04-3.88482E-14
 -1       468 7.11609E-03-7.44334E-05-3.98942E-14
 -1       469 5.71992E-03 7.01070E-04-3.18193E-14
 -1       470 7.17917E-03 1.44574E-06-4.09034E-14
 -1       471 3.30598E-03-2.72587E-04-1.87685E-14
 -1       472 4.83713E-03 9.58470E-04-2.54340E-14
 -1       473 3.80493E-03-5.26245E-04-2.09067E-14
 -1       474 9.61693E-04 2.91095E-04-9.55440E-16
 -1       475 6.40024E-04-4.98922E-05-9.41589E-16
 -1       476 6.53928E-04-8.07175E-05-9.40664E-16
 -1       477 6.28804E-04 5.17679E-07-9.16971E-16
 -1       478 6.31994E-04 2.47364E-05-8.93142E-16
 -1       479 6.40698E-04 5.09163E-05-8.61493E-16
 -1       480 6.54812E-04 8.21818E-05-8.18783E-16
 -1       481 6.73904E-04 1.20333E-04-7.62031E-16
 -1       482 6.98293E-04 1.67699E-04-6.85616E-16
 -1       483 1.26066E-03 3.39947E-04-1.67868E-15
 -1       484 1.00331E-03-2.69818E-04-1.56032E-15
 -1       485 5.51485E-03 8.04808E-04-3.10259E-14
 -1       486 1.29970E-03-3.13422E-04-2.53702E-15
 -1       487 1.59770E-03-3.46300E-04-3.74525E-15
 -1       488 1.89826E-03-3.74063E-04-5.18222E-15
 -1       489 2.20296E-03-4.02688E-04-6.84343E-15
 -1       490 2.51380E-03-4.38559E-04-8.72425E-15
 -1       491 2.83308E-03-4.88439E-04-1.08198E-14
 -1       492 3.16289E-03-5.58947E-04-1.31283E-14
 -1       493 3.50386E-03-6.54905E-04-1.56507E-14
 -1       494 3.85320E-03-7.75578E-04-1.83866E-14
 -1       495 4.20341E-03-9.08646E-04-2.13394E-14
 -1       496 4.54525E-03-1.02541E-03-2.45179E-14
 -1       497 4.87574E-03-1.08702E-03-2.79288E-14
 -1       498 5.20310E-03-1.06812E-03-3.15679E-14
 -1       499 5.53901E-03-9.77324E-04-3.54237E-14
 -1       500 5.88652E-03-8.50326E-04-3.94803E-14
 -1       501 6.23862E-03-7.23323E-04-4.37193E-14
 -1       502 6.58608E-03-6.17735E-04-4.81267E-14
 -1       503 6.92355E-03-5.40143E-04-5.26888E-14
 -1       504 7.25004E-03-4.88814E-04-5.74000E-14
 -1       505 7.56694E-03-4.58829E-04-6.22547E-14
 -1       506 7.87631E-03-4.44778E-04-6.72436E-14
 -1       507 8.18001E-03-4.41865E-04-7.23524E-14
 -1       508 8.47949E-03-4.46238E-04-7.75738E-14
 -1       509 8.77577E-03-4.54993E-04-8.29036E-14
 -1       510 9.06961E-03-4.66048E-04-8.83379E-14
 -1       511 9.36153E-03-4.77978E-04-9.38643E-14
 -1       512 9.65195E-03-4.89861E-04-9.94710E-14
 -1       513 9.94118E-03-5.01146E-04-1.05161E-13
 -1       514 1.02295E-02-5.11539E-04-1.10941E-13
 -1       515 1.05171E-02-5.20920E-04-1.16803E-13
 -1       516 1.08041E-02-5.29285E-04-1.22743E-13
 -1       517 1.10907E-02-5.36697E-04-1.28764E-13
 -1       518 1.13771E-02-5.43253E-04-1.34856E-13
 -1       519 1.16631E-02-5.49070E-04-1.41012E-13
 -1       520 1.19491E-02-5.54265E-04-1.47231E-13
 -1       521 1.22349E-02-5.58948E-04-1.53505E-13
 -1       522 1.25207E-02-5.63219E-04-1.59844E-13
 -1       523 1.28064E-02-5.67169E-04-1.66246E-13
 -1       524 1.30921E-02-5.70871E-04-1.72703E-13
 -1       525 1.33777E-02-5.74390E-04-1.79211E-13
 -1       526 1.36634E-02-5.77779E-04-1.85767E-13
 -1       527 1.39491E-02-5.81085E-04-1.92358E-13
 -1       528 1.42348E-02-5.84346E-04-1.98971E-13
 -1       529 6.99609E-03 6.93178E-05-4.04637E-14
 -1       530 1.86356E-03 4.06581E-04-3.75994E-15
 -1       531 2.17034E-03 4.36672E-04-5.11869E-15
 -1       532 2.48279E-03 4.73042E-04-6.68750E-15
 -1       533 2.80238E-03 5.22156E-04-8.46563E-15
 -1       534 3.13004E-03 5.89930E-04-1.04530E-14
 -1       535 3.46537E-03 6.80047E-04-1.26495E-14
 -1       536 3.80545E-03 7.90940E-04-1.50573E-14
 -1       537 4.14437E-03 9.11455E-04-1.76841E-14
 -1       538 4.47547E-03 1.01823E-03-2.05350E-14
 -1       539 4.79648E-03 1.08071E-03-2.36148E-14
 -1       540 5.11311E-03 1.07640E-03-2.69245E-14
 -1       541 5.43511E-03 1.00600E-03-3.04608E-14
 -1       542 5.76788E-03 8.93520E-04-3.42116E-14
 -1       543 6.10856E-03 7.69849E-04-3.81616E-14
 -1       544 6.45046E-03 6.57945E-04-4.22963E-14
 -1       545 6.78783E-03 5.68860E-04-4.66005E-14
 -1       546 7.11784E-03 5.04545E-04-5.10614E-14
 -1       547 7.44004E-03 4.62100E-04-5.56661E-14
 -1       548 7.75519E-03 4.36885E-04-6.04094E-14
 -1       549 8.06438E-03 4.24190E-04-6.52891E-14
 -1       550 8.36868E-03 4.19966E-04-7.02953E-14
 -1       551 8.66899E-03 4.21038E-04-7.54191E-14
 -1       552 8.96606E-03 4.25065E-04-8.06574E-14
 -1       553 9.26051E-03 4.30417E-04-8.60050E-14
 -1       554 9.55285E-03 4.36017E-04-9.14567E-14
 -1       555 9.84352E-03 4.41197E-04-9.70079E-14
 -1       556 1.01329E-02 4.45587E-04-1.02660E-13
 -1       557 1.04212E-02 4.49014E-04-1.08404E-13
 -1       558 1.07087E-02 4.51441E-04-1.14233E-13
 -1       559 1.09957E-02 4.52908E-04-1.20152E-13
 -1       560 1.12822E-02 4.53504E-04-1.26152E-13
 -1       561 1.15684E-02 4.53337E-04-1.32210E-13
 -1       562 1.18544E-02 4.52524E-04-1.38325E-13
 -1       563 1.21402E-02 4.51175E-04-1.44495E-13
 -1       564 1.24259E-02 4.49394E-04-1.50714E-13
 -1       565 1.27116E-02 4.47271E-04-1.56979E-13
 -1       566 1.29973E-02 4.44884E-04-1.63270E-13
 -1       567 1.32829E-02 4.42300E-04-1.69582E-13
 -1       568 1.35686E-02 4.39576E-04-1.75914E-13
 -1       569 1.38542E-02 4.36758E-04-1.82272E-13
 -1       570 1.41399E-02 4.33887E-04-1.88655E-13
 -1       571 1.44256E-02 4.30999E-04-1.95069E-13
 -1       572 1.44506E-02 1.57239E-04-1.97960E-13
 -1       573 1.44534E-02 7.28800E-05-1.98732E-13
 -1       574 1.44452E-02 3.24492E-04-1.96427E-13
 -1       575 1.44479E-02 2.40873E-04-1.97197E-13
 -1       576 1.44563E-02-1.14858E-05-1.99511E-13
 -1       577 1.44593E-02-9.58550E-05-2.00291E-13
 -1       578 1.44623E-02-1.80224E-04-2.01066E-13
 -1       579 1.44654E-02-2.63160E-04-2.01824E-13
 -1       580 1.44687E-02-3.47519E-04-2.02574E-13
 -1       581 1.44720E-02-4.31867E-04-2.03314E-13
 -1       582 1.44754E-02-5.16201E-04-2.04037E-13
 -1       583 7.19919E-03-3.91672E-05-4.20368E-14
 -1       584 1.56087E-03 3.76404E-04-2.61314E-15
 -1       585 6.70628E-03 1.82302E-04-3.88455E-14
 -1       586 7.02061E-03-1.05269E-04-4.16779E-14
 -1       587 7.29657E-04-2.05600E-04-8.88866E-16
 -1       588 6.31167E-03 3.69715E-04-3.65679E-14
 -1       589 2.72750E-03-4.69751E-05-1.66985E-14
 -1       590 6.31525E-04-2.35788E-05-9.33244E-16
 -1       591 3.71936E-03 4.57325E-04-1.89333E-14
 -1       592 5.20234E-03 9.28507E-04-2.83973E-14
 -1       593 4.46825E-03 8.53747E-04-2.27052E-14
 -1       594 4.13024E-03 6.83091E-04-2.08025E-14
 -1       595 3.29712E-03 2.46626E-04-1.75926E-14
 -1       596 3.01414E-03 1.28398E-04-1.67827E-14
 -1       597 2.73642E-03 2.94415E-05-1.63560E-14
 -1       598 2.66618E-03-1.28194E-05-1.64251E-14
 -1       599 2.94824E-03-1.25957E-04-1.71198E-14
 -1       600 4.89660E-03-1.00133E-03-2.80133E-14
 -1       601 4.22641E-03-7.60176E-04-2.30062E-14
 -1       602 4.55489E-03-9.18420E-04-2.52419E-14
 -1       603 5.21938E-03-9.66321E-04-3.08469E-14
 -1       604 5.61319E-03-7.99722E-04-3.41024E-14
 -1       605 5.99613E-03-5.86636E-04-3.65297E-14
 -1       606 6.37039E-03-3.85313E-04-3.85652E-14
 -1       607 6.74089E-03-2.12736E-04-4.02707E-14
 -1       608 7.26387E-04 2.47851E-04-5.06624E-16
 -1       609 5.95201E-03 5.65514E-04-3.42157E-14
 -1       610 6.72825E-04-1.18187E-04-9.27349E-16
 -1       611 7.14002E-03 2.41376E-05-4.22206E-14
 -1       612 1.44280E-02-5.88214E-04-2.03474E-13
 -1       613 3.52829E-03-3.83196E-04-1.91676E-14
 -1       614 4.66970E-03 9.37713E-04-2.38293E-14
 -1       615 5.00458E-03 9.74101E-04-2.66541E-14
 -1       616 8.55348E-04 4.87055E-05-1.50865E-15
 -1       617 8.46369E-04 1.59523E-05-1.55309E-15
 -1       618 8.96466E-04 1.29006E-04-1.37530E-15
 -1       619 9.27291E-04 1.81453E-04-1.27723E-15
 -1       620 1.06975E-03 2.51904E-04-1.44681E-15
 -1       621 6.57152E-03 2.65638E-04-3.97927E-14
 -1       622 1.36265E-03 2.89405E-04-2.31718E-15
 -1       623 3.91133E-03 5.88344E-04-1.87871E-14
 -1       624 6.91710E-03-1.57948E-04-4.31749E-14
 -1       625 1.39969E-03-2.63263E-04-3.19241E-15
 -1       626 1.69080E-03-2.88836E-04-4.51940E-15
 -1       627 1.98461E-03-3.11747E-04-6.06753E-15
 -1       628 2.28295E-03-3.37199E-04-7.83202E-15
 -1       629 2.58884E-03-3.71188E-04-9.80703E-15
 -1       630 2.90643E-03-4.20757E-04-1.19901E-14
 -1       631 3.24028E-03-4.94030E-04-1.43807E-14
 -1       632 3.59284E-03-5.98745E-04-1.69792E-14
 -1       633 3.96119E-03-7.36442E-04-1.97891E-14
 -1       634 4.33217E-03-8.89031E-04-2.28205E-14
 -1       635 4.69212E-03-1.00970E-03-2.60849E-14
 -1       636 5.04065E-03-1.03976E-03-2.95881E-14
 -1       637 5.39331E-03-9.62658E-04-3.33238E-14
 -1       638 5.75973E-03-8.21327E-04-3.72750E-14
 -1       639 6.13168E-03-6.73483E-04-4.14166E-14
 -1       640 6.49355E-03-5.54165E-04-4.57334E-14
 -1       641 6.83727E-03-4.69930E-04-5.02060E-14
 -1       642 7.16286E-03-4.15871E-04-5.48275E-14
 -1       643 7.47418E-03-3.84594E-04-5.95901E-14
 -1       644 7.77569E-03-3.69580E-04-6.44935E-14
 -1       645 8.07098E-03-3.65761E-04-6.95250E-14
 -1       646 8.36252E-03-3.69323E-04-7.46744E-14
 -1       647 8.65187E-03-3.77446E-04-7.99362E-14
 -1       648 8.93994E-03-3.88091E-04-8.53023E-14
 -1       649 9.22726E-03-3.99827E-04-9.07693E-14
 -1       650 9.51413E-03-4.11697E-04-9.63220E-14
 -1       651 9.80070E-03-4.23101E-04-1.01957E-13
 -1       652 1.00871E-02-4.33698E-04-1.07678E-13
 -1       653 1.03733E-02-4.43330E-04-1.13484E-13
 -1       654 1.06594E-02-4.51960E-04-1.19374E-13
 -1       655 1.09454E-02-4.59630E-04-1.25343E-13
 -1       656 1.12313E-02-4.66426E-04-1.31386E-13
 -1       657 1.15172E-02-4.72456E-04-1.37496E-13
 -1       658 1.18030E-02-4.77834E-04-1.43667E-13
 -1       659 1.20888E-02-4.82670E-04-1.49899E-13
 -1       660 1.23745E-02-4.87067E-04-1.56192E-13
 -1       661 1.26603E-02-4.91115E-04-1.62546E-13
 -1       662 1.29460E-02-4.94893E-04-1.68954E-13
 -1       663 1.32318E-02-4.98467E-04-1.75417E-13
 -1       664 1.35175E-02-5.01893E-04-1.81930E-13
 -1       665 1.38032E-02-5.05218E-04-1.88478E-13
 -1       666 1.40889E-02-5.08482E-04-1.95059E-13
 -1       667 4.73195E-03-9.94151E-04-2.65275E-14
 -1       668 5.85521E-03-6.89909E-04-3.67974E-14
 -1       669 1.95521E-03 3.43929E-04-4.68404E-15
 -1       670 2.88552E-03 4.57304E-04-9.78696E-15
 -1       671 3.21736E-03 5.29032E-04-1.18981E-14
 -1       672 3.56299E-03 6.27263E-04-1.42145E-14
 -1       673 3.91864E-03 7.51008E-04-1.67414E-14
 -1       674 4.27451E-03 8.84927E-04-1.94876E-14
 -1       675 4.62037E-03 9.93442E-04-2.24613E-14
 -1       676 4.95513E-03 1.03254E-03-2.56709E-14
 -1       677 5.28908E-03 9.83762E-04-2.91159E-14
 -1       678 5.63678E-03 8.68222E-04-3.27865E-14
 -1       679 5.99300E-03 7.30517E-04-3.66668E-14
 -1       680 6.34884E-03 6.05267E-04-4.07367E-14
 -1       681 6.69432E-03 5.07211E-04-4.49805E-14
 -1       682 7.02608E-03 4.37583E-04-4.93839E-14
 -1       683 7.34515E-03 3.91887E-04-5.39339E-14
 -1       684 7.65433E-03 3.64471E-04-5.86210E-14
 -1       685 7.95646E-03 3.50188E-04-6.34420E-14
 -1       686 8.25377E-03 3.44845E-04-6.83965E-14
 -1       687 8.54782E-03 3.45207E-04-7.34712E-14
 -1       688 8.83964E-03 3.48880E-04-7.86616E-14
 -1       689 9.12989E-03 3.54165E-04-8.39650E-14
 -1       690 9.41900E-03 3.59906E-04-8.93723E-14
 -1       691 9.70726E-03 3.65367E-04-9.48783E-14
 -1       692 9.99488E-03 3.70115E-04-1.00485E-13
 -1       693 1.02820E-02 3.73930E-04-1.06187E-13
 -1       694 1.05687E-02 3.76741E-04-1.11977E-13
 -1       695 1.08552E-02 3.78567E-04-1.17850E-13
 -1       696 1.11414E-02 3.79485E-04-1.23809E-13
 -1       697 1.14275E-02 3.79598E-04-1.29837E-13
 -1       698 1.17134E-02 3.79021E-04-1.35921E-13
 -1       699 1.19993E-02 3.77866E-04-1.42063E-13
 -1       700 1.22851E-02 3.76241E-04-1.48263E-13
 -1       701 1.25708E-02 3.74241E-04-1.54512E-13
 -1       702 1.28566E-02 3.71947E-04-1.60791E-13
 -1       703 1.31423E-02 3.69431E-04-1.67096E-13
 -1       704 1.34280E-02 3.66752E-04-1.73420E-13
 -1       705 1.37137E-02 3.63960E-04-1.79772E-13
 -1       706 1.39994E-02 3.61098E-04-1.86150E-13
 -1       707 1.42223E-02 3.42800E-04-1.91280E-13
 -1       708 1.42103E-02-5.10279E-05-1.94280E-13
 -1       709 1.42821E-02-5.12343E-04-1.99541E-13
 -1       710 1.42045E-02 1.17636E-04-1.92764E-13
 -1       711 1.42133E-02-1.35361E-04-1.95034E-13
 -1       712 1.42074E-02 3.33049E-05-1.93525E-13
 -1       713 6.91449E-03 1.15520E-04-4.19335E-14
 -1       714 1.42164E-02-2.18265E-04-1.95769E-13
 -1       715 1.42196E-02-3.02596E-04-1.96509E-13
 -1       716 1.42229E-02-3.86923E-04-1.97232E-13
 -1       717 1.65752E-03 3.18420E-04-3.39608E-15
 -1       718 7.25264E-03-1.60980E-05-4.38120E-14
 -1       719 6.59951E-03-2.88920E-04-4.13759E-14
 -1       720 2.63037E-03-2.66201E-05-1.51772E-14
 -1       721 8.81616E-04-1.92928E-04-1.38442E-15
 -1       722 2.78007E-03 6.77758E-05-1.49196E-14
 -1       723 4.28104E-03 7.84748E-04-2.08878E-14
 -1       724 2.56648E-03 4.07032E-04-7.88135E-15
 -1       725 2.25739E-03 3.71451E-04-6.18024E-15
 -1       726 1.13925E-03-2.31930E-04-2.19773E-15
 -1       727 8.72318E-04 8.55416E-05-1.45057E-15
 -1       728 2.76776E-03-7.89617E-05-1.55678E-14
 -1       729 8.70979E-04-8.39299E-05-1.61136E-15
 -1       730 3.93981E-03-6.32237E-04-2.05448E-14
 -1       731 3.11837E-03-2.11274E-04-1.68092E-14
 -1       732 3.11076E-03 1.90187E-04-1.57919E-14
 -1       733 5.42573E-03-9.16491E-04-3.32298E-14
 -1       734 5.34766E-03 9.00211E-04-2.98019E-14
 -1       735 5.02356E-03-1.01895E-03-2.92799E-14
 -1       736 2.61968E-03 5.43158E-06-1.48633E-14
 -1       737 3.45675E-03 3.47535E-04-1.69069E-14
 -1       738 4.37463E-03-8.61227E-04-2.35254E-14
 -1       739 7.19974E-03-6.49506E-05-4.48240E-14
 -1       740 6.16826E-03 4.69778E-04-3.67939E-14
 -1       741 6.22345E-03-4.81099E-04-3.92909E-14
 -1       742 5.77735E-03 6.93362E-04-3.37233E-14
 -1       743 8.94851E-04-1.26724E-04-1.60223E-15
 -1       744 8.46066E-04-1.52523E-05-1.58496E-15
 -1       745 7.08684E-03 6.34381E-05-4.37127E-14
 -1       746 7.31674E-03-3.89185E-05-4.66356E-14
 -1       747 1.42018E-02 2.01249E-04-1.92009E-13
 -1       748 1.42120E-02 2.72028E-04-1.91648E-13
 -1       749 2.89055E-03-1.46327E-04-1.52583E-14
 -1       750 1.41559E-02-4.47710E-04-1.96151E-13
 -1       751 4.47571E-03 8.90863E-04-2.19435E-14
 -1       752 3.67754E-03-5.07617E-04-1.88068E-14
 -1       753 8.54442E-04-4.75955E-05-1.60479E-15
 -1       754 4.83560E-03 9.84734E-04-2.49920E-14
 -1       755 3.29583E-03-3.04517E-04-1.71635E-14
 -1       756 1.15149E-03 1.81362E-04-2.05293E-15
 -1       757 2.60373E-03-4.94848E-05-1.40238E-14
 -1       758 1.77708E-03-2.32071E-04-5.31571E-15
 -1       759 2.06150E-03-2.49486E-04-6.96696E-15
 -1       760 2.35043E-03-2.69987E-04-8.82652E-15
 -1       761 2.64802E-03-2.99133E-04-1.08895E-14
 -1       762 2.96069E-03-3.44777E-04-1.31538E-14
 -1       763 3.29633E-03-4.18634E-04-1.56194E-14
 -1       764 6.02546E-03-6.42192E-04-3.91593E-14
 -1       765 6.40463E-03-5.01384E-04-4.33867E-14
 -1       766 6.75607E-03-4.08339E-04-4.77748E-14
 -1       767 7.08118E-03-3.52506E-04-5.23111E-14
 -1       768 7.38691E-03-3.21606E-04-5.69884E-14
 -1       769 7.68047E-03-3.06984E-04-6.18053E-14
 -1       770 7.96723E-03-3.03044E-04-6.67593E-14
 -1       771 8.25064E-03-3.06079E-04-7.18357E-14
 -1       772 8.53274E-03-3.13507E-04-7.70302E-14
 -1       773 8.81466E-03-3.23476E-04-8.23319E-14
 -1       774 9.09693E-03-3.34662E-04-8.77365E-14
 -1       775 9.37976E-03-3.46143E-04-9.32346E-14
 -1       776 9.66318E-03-3.57311E-04-9.88169E-14
 -1       777 9.94714E-03-3.67799E-04-1.04487E-13
 -1       778 1.02316E-02-3.77417E-04-1.10242E-13
 -1       779 1.05164E-02-3.86098E-04-1.16078E-13
 -1       780 1.08014E-02-3.93858E-04-1.21998E-13
 -1       781 1.10867E-02-4.00764E-04-1.27992E-13
 -1       782 1.13722E-02-4.06909E-04-1.34055E-13
 -1       783 1.16577E-02-4.12398E-04-1.40184E-13
 -1       784 1.19434E-02-4.17336E-04-1.46374E-13
 -1       785 1.22291E-02-4.21823E-04-1.52626E-13
 -1       786 1.25148E-02-4.25946E-04-1.58938E-13
 -1       787 1.28005E-02-4.29786E-04-1.65305E-13
 -1       788 1.30863E-02-4.33407E-04-1.71725E-13
 -1       789 1.33720E-02-4.36867E-04-1.78194E-13
 -1       790 1.36578E-02-4.40213E-04-1.84706E-13
 -1       791 1.39068E-02-4.43978E-04-1.90413E-13
 -1       792 2.95475E-03 3.85022E-04-1.11418E-14
 -1       793 4.02873E-03 7.13477E-04-1.84400E-14
 -1       794 5.88062E-03 6.95038E-04-3.51449E-14
 -1       795 6.25607E-03 5.48496E-04-3.91516E-14
 -1       796 6.61359E-03 4.39416E-04-4.33368E-14
 -1       797 6.94872E-03 3.66548E-04-4.76846E-14
 -1       798 7.26471E-03 3.20660E-04-5.21817E-14
 -1       799 7.56713E-03 2.93663E-04-5.68183E-14
 -1       800 7.86097E-03 2.79503E-04-6.15848E-14
 -1       801 8.14988E-03 2.73906E-04-6.64831E-14
 -1       802 8.43617E-03 2.73806E-04-7.15093E-14
 -1       803 8.72126E-03 2.76987E-04-7.66507E-14
 -1       804 9.00591E-03 2.81862E-04-8.19078E-14
 -1       805 9.29052E-03 2.87327E-04-8.72723E-14
 -1       806 9.57527E-03 2.92644E-04-9.27375E-14
 -1       807 9.86022E-03 2.97360E-04-9.83003E-14
 -1       808 1.01454E-02 3.01227E-04-1.03961E-13
 -1       809 1.04307E-02 3.04144E-04-1.09711E-13
 -1       810 1.07161E-02 3.06107E-04-1.15545E-13
 -1       811 1.10016E-02 3.07174E-04-1.21460E-13
 -1       812 1.12873E-02 3.07435E-04-1.27454E-13
 -1       813 1.15729E-02 3.06995E-04-1.33507E-13
 -1       814 1.18586E-02 3.05964E-04-1.39622E-13
 -1       815 1.21444E-02 3.04445E-04-1.45796E-13
 -1       816 1.24301E-02 3.02533E-04-1.52027E-13
 -1       817 1.27158E-02 3.00311E-04-1.58294E-13
 -1       818 1.30016E-02 2.97850E-04-1.64589E-13
 -1       819 1.32873E-02 2.95211E-04-1.70906E-13
 -1       820 1.35731E-02 2.92445E-04-1.77249E-13
 -1       821 1.38588E-02 2.89593E-04-1.83620E-13
 -1       822 1.40354E-02 2.80817E-04-1.87629E-13
 -1       823 6.48549E-03-3.84900E-04-4.23104E-14
 -1       824 1.06934E-03 3.80576E-05-2.33317E-15
 -1       825 1.39643E-02-9.05341E-05-1.89049E-13
 -1       826 1.39738E-02-3.41994E-04-1.91193E-13
 -1       827 1.39673E-02-1.73400E-04-1.89764E-13
 -1       828 2.03813E-03 2.80996E-04-5.65602E-15
 -1       829 2.63731E-03 3.36621E-04-9.11332E-15
 -1       830 6.85942E-03 1.89107E-04-4.34835E-14
 -1       831 1.39705E-02-2.57696E-04-1.90484E-13
 -1       832 3.65171E-03 5.67962E-04-1.57997E-14
 -1       833 3.29206E-03 4.58816E-04-1.33695E-14
 -1       834 3.20292E-03 2.81965E-04-1.48939E-14
 -1       835 1.49495E-03-2.13434E-04-3.87865E-15
 -1       836 2.57034E-03 3.53026E-05-1.31635E-14
 -1       837 2.33339E-03 3.04362E-04-7.28457E-15
 -1       838 7.25718E-03 9.66559E-06-4.53350E-14
 -1       839 3.60584E-03 4.88658E-04-1.62990E-14
 -1       840 6.81563E-03-2.32751E-04-4.43854E-14
 -1       841 1.25388E-03 2.32388E-04-2.19411E-15
 -1       842 2.52045E-03-1.17650E-05-1.34320E-14
 -1       843 6.45106E-03 3.87227E-04-4.02782E-14
 -1       844 2.84820E-03 1.34799E-04-1.38227E-14
 -1       845 7.14432E-03-1.19181E-04-4.67978E-14
 -1       846 1.06286E-03 2.56384E-07-2.38729E-15
 -1       847 1.11303E-03-1.24026E-04-2.44602E-15
 -1       848 7.04008E-03 1.28582E-04-4.52919E-14
 -1       849 7.38378E-03-1.54047E-05-4.81950E-14
 -1       850 1.39557E-02 1.61998E-04-1.86830E-13
 -1       851 7.31346E-03-7.89346E-05-4.86453E-14
 -1       852 2.58725E-03 8.61620E-05-1.21347E-14
 -1       853 1.08720E-03 7.90278E-05-2.26140E-15
 -1       854 1.39585E-02 7.76993E-05-1.87579E-13
 -1       855 1.54169E-03 2.59430E-04-3.24794E-15
 -1       856 1.39613E-02-6.41826E-06-1.88319E-13
 -1       857 3.04281E-03-2.19772E-04-1.55890E-14
 -1       858 1.78968E-03 2.71106E-04-4.36916E-15
 -1       859 1.08559E-03-7.77259E-05-2.44500E-15
 -1       860 1.24217E-03-1.90528E-04-2.77851E-15
 -1       861 1.11517E-03 1.26130E-04-2.16964E-15
 -1       862 1.39403E-02-3.92989E-04-1.90806E-13
 -1       863 2.67605E-03-9.92242E-05-1.37252E-14
 -1       864 2.12842E-03-1.87632E-04-7.87854E-15
 -1       865 2.40280E-03-2.01341E-04-9.82627E-15
 -1       866 2.68478E-03-2.22566E-04-1.19706E-14
 -1       867 7.05253E-03-1.95585E-04-4.79380E-14
 -1       868 7.04002E-03-2.68898E-04-4.97823E-14
 -1       869 7.33082E-03-2.44093E-04-5.43752E-14
 -1       870 7.60926E-03-2.33967E-04-5.91067E-14
 -1       871 7.88208E-03-2.32424E-04-6.39724E-14
 -1       872 8.15335E-03-2.36213E-04-6.89715E-14
 -1       873 8.42515E-03-2.43378E-04-7.40930E-14
 -1       874 8.69851E-03-2.52572E-04-7.93285E-14
 -1       875 8.97377E-03-2.62810E-04-8.46680E-14
 -1       876 9.25096E-03-2.73363E-04-9.01065E-14
 -1       877 9.52992E-03-2.83717E-04-9.56361E-14
 -1       878 9.81041E-03-2.93540E-04-1.01253E-13
 -1       879 1.00922E-02-3.02641E-04-1.06955E-13
 -1       880 1.03750E-02-3.10938E-04-1.12739E-13
 -1       881 1.06586E-02-3.18424E-04-1.18607E-13
 -1       882 1.09428E-02-3.25142E-04-1.24550E-13
 -1       883 1.12275E-02-3.31165E-04-1.30566E-13
 -1       884 1.15126E-02-3.36579E-04-1.36647E-13
 -1       885 1.17979E-02-3.41477E-04-1.42795E-13
 -1       886 1.20834E-02-3.45946E-04-1.49003E-13
 -1       887 1.23690E-02-3.50067E-04-1.55273E-13
 -1       888 1.26547E-02-3.53912E-04-1.61598E-13
 -1       889 1.29404E-02-3.57542E-04-1.67974E-13
 -1       890 1.32261E-02-3.61011E-04-1.74399E-13
 -1       891 1.35119E-02-3.64362E-04-1.80868E-13
 -1       892 7.20610E-03 2.43814E-04-5.04257E-14
 -1       893 7.49740E-03 2.20838E-04-5.50116E-14
 -1       894 7.77956E-03 2.09246E-04-5.97283E-14
 -1       895 8.05748E-03 2.04782E-04-6.45739E-14
 -1       896 8.33400E-03 2.04816E-04-6.95487E-14
 -1       897 8.61072E-03 2.07569E-04-7.46454E-14
 -1       898 8.88840E-03 2.11784E-04-7.98549E-14
 -1       899 9.16733E-03 2.16559E-04-8.51765E-14
 -1       900 9.44755E-03 2.21261E-04-9.05983E-14
 -1       901 9.72896E-03 2.25477E-04-9.61224E-14
 -1       902 1.00114E-02 2.28965E-04-1.01743E-13
 -1       903 1.02946E-02 2.31612E-04-1.07454E-13
 -1       904 1.05786E-02 2.33396E-04-1.13249E-13
 -1       905 1.08630E-02 2.34352E-04-1.19127E-13
 -1       906 1.11479E-02 2.34554E-04-1.25079E-13
 -1       907 1.14331E-02 2.34090E-04-1.31104E-13
 -1       908 1.17184E-02 2.33059E-04-1.37189E-13
 -1       909 1.20039E-02 2.31555E-04-1.43338E-13
 -1       910 1.22896E-02 2.29664E-04-1.49543E-13
 -1       911 1.25753E-02 2.27466E-04-1.55795E-13
 -1       912 1.28610E-02 2.25029E-04-1.62081E-13
 -1       913 1.31467E-02 2.22409E-04-1.68392E-13
 -1       914 1.34325E-02 2.19655E-04-1.74728E-13
 -1       915 1.37183E-02 2.16809E-04-1.81094E-13
 -1       916 2.45610E-03-3.54512E-05-1.23602E-14
 -1       917 2.11146E-03 2.17586E-04-6.67563E-15
 -1       918 1.39955E-02 2.21405E-04-1.87232E-13
 -1       919 6.73962E-03-3.22083E-04-4.56207E-14
 -1       920 2.39596E-03 2.34734E-04-8.43120E-15
 -1       921 1.37183E-02-1.29283E-04-1.83812E-13
 -1       922 3.28193E-03 3.65986E-04-1.44362E-14
 -1       923 2.90705E-03 2.22897E-04-1.27918E-14
 -1       924 2.69010E-03 2.60388E-04-1.03820E-14
 -1       925 6.89818E-03 2.86018E-04-4.59806E-14
 -1       926 1.58561E-03-1.64300E-04-4.59236E-15
 -1       927 1.06845E-03-3.72763E-05-2.42486E-15
 -1       928 7.23649E-03 5.55205E-05-4.69512E-14
 -1       929 1.85672E-03-1.76363E-04-6.13173E-15
 -1       930 2.39124E-03 1.09149E-05-1.15421E-14
 -1       931 1.43151E-03 2.05827E-04-3.08066E-15
 -1       932 7.41795E-03 1.96627E-05-4.98567E-14
 -1       933 2.35846E-03 5.06437E-05-1.05890E-14
 -1       934 7.43667E-03-4.85676E-05-5.02431E-14
 -1       935 7.25252E-03-1.36768E-04-4.98160E-14
 -1       936 2.98244E-03-2.59696E-04-1.43084E-14
 -1       937 2.48659E-03-7.65073E-05-1.20755E-14
 -1       938 1.37261E-02-3.78688E-04-1.85826E-13
 -1       939 1.35460E-03-1.42051E-04-3.48387E-15
 -1       940 1.37153E-02-4.52149E-05-1.83107E-13
 -1       941 1.31858E-03-8.97272E-05-3.47989E-15
 -1       942 1.83159E-03 2.03440E-04-5.11853E-15
 -1       943 1.37214E-02-2.13532E-04-1.84515E-13
 -1       944 2.80065E-03-1.77266E-04-1.36570E-14
 -1       945 2.61764E-03 1.56919E-04-1.11764E-14
 -1       946 1.37096E-02 1.22398E-04-1.81661E-13
 -1       947 1.28270E-03 2.10875E-05-3.33045E-15
 -1       948 1.29887E-03 6.49153E-05-3.24786E-15
 -1       949 1.37596E-02-3.27714E-04-1.86218E-13
 -1       950 2.18596E-03-1.27900E-04-8.79957E-15
 -1       951 1.93130E-03-1.22702E-04-6.96396E-15
 -1       952 2.43807E-03-1.34277E-04-1.08286E-14
 -1       953 1.40755E-03 1.37772E-04-3.37733E-15
 -1       954 7.55449E-03-1.64060E-04-5.64314E-14
 -1       955 7.80766E-03-1.66047E-04-6.12147E-14
 -1       956 8.06353E-03-1.71109E-04-6.61288E-14
 -1       957 8.32316E-03-1.78095E-04-7.11705E-14
 -1       958 8.58679E-03-1.86301E-04-7.63362E-14
 -1       959 8.85427E-03-1.95194E-04-8.16110E-14
 -1       960 9.12523E-03-2.04326E-04-8.69881E-14
 -1       961 9.39924E-03-2.13338E-04-9.24626E-14
 -1       962 9.67583E-03-2.21972E-04-9.80264E-14
 -1       963 9.95456E-03-2.30069E-04-1.03675E-13
 -1       964 1.02350E-02-2.37548E-04-1.09409E-13
 -1       965 1.05169E-02-2.44386E-04-1.15224E-13
 -1       966 1.07998E-02-2.50600E-04-1.21121E-13
 -1       967 1.10836E-02-2.56241E-04-1.27090E-13
 -1       968 1.13680E-02-2.61372E-04-1.33127E-13
 -1       969 1.16528E-02-2.66064E-04-1.39229E-13
 -1       970 1.19380E-02-2.70388E-04-1.45398E-13
 -1       971 1.22234E-02-2.74410E-04-1.51624E-13
 -1       972 1.25089E-02-2.78188E-04-1.57909E-13
 -1       973 1.27946E-02-2.81776E-04-1.64244E-13
 -1       974 1.30803E-02-2.85218E-04-1.70626E-13
 -1       975 1.33661E-02-2.88551E-04-1.77055E-13
 -1       976 7.97458E-03 1.39384E-04-6.26560E-14
 -1       977 7.44676E-03 1.48415E-04-5.31935E-14
 -1       978 8.23904E-03 1.40072E-04-6.75810E-14
 -1       979 8.50590E-03 1.42448E-04-7.26305E-14
 -1       980 8.77555E-03 1.45763E-04-7.77953E-14
 -1       981 9.04799E-03 1.49442E-04-8.30729E-14
 -1       982 9.32302E-03 1.53049E-04-8.84540E-14
 -1       983 9.60031E-03 1.56271E-04-9.39339E-14
 -1       984 9.87953E-03 1.58907E-04-9.95181E-14
 -1       985 1.01603E-02 1.60855E-04-1.05192E-13
 -1       986 1.04424E-02 1.62085E-04-1.10951E-13
 -1       987 1.07255E-02 1.62615E-04-1.16792E-13
 -1       988 1.10093E-02 1.62496E-04-1.22711E-13
 -1       989 1.12938E-02 1.61799E-04-1.28699E-13
 -1       990 1.15787E-02 1.60601E-04-1.34757E-13
 -1       991 1.18639E-02 1.58982E-04-1.40878E-13
 -1       992 1.21493E-02 1.57016E-04-1.47055E-13
 -1       993 1.24348E-02 1.54770E-04-1.53283E-13
 -1       994 1.27205E-02 1.52304E-04-1.59555E-13
 -1       995 1.30062E-02 1.49667E-04-1.65861E-13
 -1       996 1.32920E-02 1.46904E-04-1.72194E-13
 -1       997 7.28192E-03-1.89605E-04-5.20845E-14
 -1       998 1.90888E-03 1.47106E-04-6.05708E-15
 -1       999 2.17473E-03 1.54624E-04-7.74047E-15
 -1      1000 1.53865E-03-1.06121E-04-4.58805E-15
 -1      1001 2.39670E-03 1.54749E-04-9.38485E-15
 -1      1002 7.17591E-03 1.63833E-04-4.86562E-14
 -1      1003 2.26843E-03-2.12530E-05-1.03586E-14
 -1      1004 1.28204E-03-2.07882E-05-3.39149E-15
 -1      1005 1.29589E-03-5.39376E-05-3.44204E-15
 -1      1006 7.27573E-03 1.06500E-04-4.92428E-14
 -1      1007 1.63282E-03 2.06300E-04-4.03586E-15
 -1      1008 1.37124E-02 3.85878E-05-1.82389E-13
 -1      1009 7.71136E-03 1.41487E-04-5.78602E-14
 -1      1010 1.73525E-03-1.14759E-04-5.71755E-15
 -1      1011 7.48072E-03 6.08019E-05-5.22088E-14
 -1      1012 2.19084E-03 1.40015E-05-9.47331E-15
 -1      1013 7.52718E-03-1.68370E-05-5.19515E-14
 -1      1014 7.45780E-03-9.48948E-05-5.24275E-14
 -1      1015 1.34693E-02-8.45884E-05-1.77895E-13
 -1      1016 1.34724E-02-1.68774E-04-1.78581E-13
 -1      1017 1.71895E-03 1.53916E-04-4.87842E-15
 -1      1018 2.37495E-03 9.81739E-05-9.98922E-15
 -1      1019 1.49577E-03-2.00955E-07-4.49624E-15
 -1      1020 2.26396E-03-5.80454E-05-1.00958E-14
 -1      1021 1.32948E-02 6.31870E-05-1.72899E-13
 -1      1022 1.50686E-03 4.54990E-05-4.40655E-15
 -1      1023 2.00520E-03-7.28637E-05-7.80849E-15
 -1      1024 8.66514E-03 8.42300E-05-7.57231E-14
 -1      1025 7.73985E-03-1.06364E-04-5.84802E-14
 -1      1026 7.97706E-03-1.11988E-04-6.33132E-14
 -1      1027 8.22314E-03-1.18306E-04-6.82732E-14
 -1      1028 8.47647E-03-1.25062E-04-7.33588E-14
 -1      1029 8.73595E-03-1.32122E-04-7.85647E-14
 -1      1030 9.00060E-03-1.39327E-04-8.38780E-14
 -1      1031 9.26960E-03-1.46473E-04-8.92913E-14
 -1      1032 9.54224E-03-1.53403E-04-9.48008E-14
 -1      1033 9.81787E-03-1.60008E-04-1.00398E-13
 -1      1034 1.00959E-02-1.66220E-04-1.06082E-13
 -1      1035 1.03759E-02-1.72010E-04-1.11848E-13
 -1      1036 1.06574E-02-1.77376E-04-1.17696E-13
 -1      1037 1.09401E-02-1.82342E-04-1.23621E-13
 -1      1038 1.12238E-02-1.86949E-04-1.29616E-13
 -1      1039 1.15081E-02-1.91240E-04-1.35674E-13
 -1      1040 1.17929E-02-1.95264E-04-1.41800E-13
 -1      1041 1.20780E-02-1.99065E-04-1.47988E-13
 -1      1042 1.23634E-02-2.02685E-04-1.54231E-13
 -1      1043 1.26490E-02-2.06162E-04-1.60528E-13
 -1      1044 1.29346E-02-2.09526E-04-1.66869E-13
 -1      1045 1.32204E-02-2.12806E-04-1.73258E-13
 -1      1046 8.40419E-03 8.21613E-05-7.06027E-14
 -1      1047 7.62012E-03 1.56536E-05-5.43576E-14
 -1      1048 8.14839E-03 8.04066E-05-6.56030E-14
 -1      1049 8.93069E-03 8.63774E-05-8.09584E-14
 -1      1050 9.20023E-03 8.83971E-05-8.62988E-14
 -1      1051 9.47319E-03 9.01217E-05-9.17407E-14
 -1      1052 9.74900E-03 9.14190E-05-9.72835E-14
 -1      1053 1.00272E-02 9.22151E-05-1.02920E-13
 -1      1054 1.03072E-02 9.24842E-05-1.08644E-13
 -1      1055 1.05887E-02 9.22339E-05-1.14450E-13
 -1      1056 1.08714E-02 9.14950E-05-1.20336E-13
 -1      1057 1.11550E-02 9.03153E-05-1.26291E-13
 -1      1058 1.14393E-02 8.87501E-05-1.32319E-13
 -1      1059 1.17241E-02 8.68565E-05-1.38412E-13
 -1      1060 1.20092E-02 8.46898E-05-1.44564E-13
 -1      1061 1.22946E-02 8.23004E-05-1.50766E-13
 -1      1062 1.25802E-02 7.97336E-05-1.57018E-13
 -1      1063 1.28658E-02 7.70287E-05-1.63314E-13
 -1      1064 1.30803E-02 7.01357E-05-1.68097E-13
 -1      1065 7.50251E-03-1.28037E-04-5.44200E-14
 -1      1066 7.71155E-03 6.09450E-05-5.68548E-14
 -1      1067 1.98226E-03 9.34430E-05-7.04364E-15
 -1      1068 1.50878E-03-6.66484E-05-4.54429E-15
 -1      1069 1.60298E-03 9.50998E-05-4.65686E-15
 -1      1070 7.59643E-03-5.57745E-05-5.41854E-14
 -1      1071 1.33820E-02-1.06805E-05-1.75395E-13
 -1      1072 2.06630E-03-2.15125E-05-8.48674E-15
 -1      1073 2.17263E-03 5.21637E-05-8.92567E-15
 -1      1074 1.82143E-03-6.83047E-05-6.49398E-15
 -1      1075 1.79442E-03 9.50156E-05-5.79208E-15
 -1      1076 7.92507E-03 7.04301E-05-6.11791E-14
 -1      1077 1.49706E-03-3.27256E-05-4.52675E-15
 -1      1078 1.31928E-02-6.94682E-05-1.71615E-13
 -1      1079 1.71091E-03 2.27691E-05-5.73179E-15
 -1      1080 1.32065E-02-1.41129E-04-1.72438E-13
 -1      1081 1.70410E-03-1.10163E-05-5.78211E-15
 -1      1082 7.81963E-03-4.98729E-05-5.89465E-14
 -1      1083 2.01814E-03 1.39599E-05-7.98859E-15
 -1      1084 9.07726E-03 2.74382E-05-8.41315E-14
 -1      1085 8.11927E-03-6.42976E-05-6.54005E-14
 -1      1086 8.36319E-03-6.88604E-05-7.04052E-14
 -1      1087 8.61553E-03-7.34836E-05-7.55345E-14
 -1      1088 8.87446E-03-7.83092E-05-8.07791E-14
 -1      1089 9.13902E-03-8.31172E-05-8.61294E-14
 -1      1090 9.40809E-03-8.79038E-05-9.15780E-14
 -1      1091 9.68097E-03-9.25574E-05-9.71222E-14
 -1      1092 9.95681E-03-9.70795E-05-1.02757E-13
 -1      1093 1.02350E-02-1.01449E-04-1.08474E-13
 -1      1094 1.05152E-02-1.05618E-04-1.14273E-13
 -1      1095 1.07969E-02-1.09611E-04-1.20153E-13
 -1      1096 1.10798E-02-1.13439E-04-1.26106E-13
 -1      1097 1.13635E-02-1.17119E-04-1.32128E-13
 -1      1098 1.16479E-02-1.20670E-04-1.38214E-13
 -1      1099 1.19328E-02-1.24113E-04-1.44363E-13
 -1      1100 1.22180E-02-1.27467E-04-1.50567E-13
 -1      1101 1.25035E-02-1.30749E-04-1.56824E-13
 -1      1102 1.27891E-02-1.33975E-04-1.63131E-13
 -1      1103 8.55409E-03 2.73786E-05-7.36377E-14
 -1      1104 8.30157E-03 2.70916E-05-6.85636E-14
 -1      1105 9.34605E-03 2.71624E-05-8.95358E-14
 -1      1106 9.61865E-03 2.66751E-05-9.50391E-14
 -1      1107 9.89428E-03 2.58956E-05-1.00639E-13
 -1      1108 1.01723E-02 2.47928E-05-1.06330E-13
 -1      1109 1.04523E-02 2.33985E-05-1.12102E-13
 -1      1110 1.07338E-02 2.17239E-05-1.17953E-13
 -1      1111 1.10166E-02 1.97940E-05-1.23877E-13
 -1      1112 1.13002E-02 1.76385E-05-1.29874E-13
 -1      1113 1.15846E-02 1.52891E-05-1.35937E-13
 -1      1114 1.18694E-02 1.27768E-05-1.42067E-13
 -1      1115 1.21545E-02 1.01307E-05-1.48242E-13
 -1      1116 1.24400E-02 7.37685E-06-1.54476E-13
 -1      1117 1.27255E-02 4.53732E-06-1.60754E-13
 -1      1118 7.84025E-03 7.60770E-06-5.90583E-14
 -1      1119 1.31365E-02 3.46898E-07-1.69857E-13
 -1      1120 8.81293E-03 2.74762E-05-7.88295E-14
 -1      1121 7.72903E-03-1.67509E-05-5.66455E-14
 -1      1122 1.89506E-03-1.81040E-05-7.12412E-15
 -1      1123 1.90431E-03 5.31430E-05-6.85610E-15
 -1      1124 8.07966E-03 1.89228E-05-6.40647E-14
 -1      1125 1.29310E-02 2.45613E-06-1.65297E-13
 -1      1126 1.29873E-02-6.72754E-05-1.67042E-13
 -1      1127 1.73688E-03 7.38396E-05-5.59467E-15
 -1      1128 9.48713E-03-3.53434E-05-9.27836E-14
 -1      1129 8.48837E-03-1.87024E-05-7.25244E-14
 -1      1130 9.81654E-03-3.00999E-05-9.94306E-14
 -1      1131 8.24122E-03-1.68870E-05-6.74735E-14
 -1      1132 0.00000E+00 0.00000E+00 0.00000E+00
 -1      1133 0.00000E+00 0.00000E+00 0.00000E+00
 -1      1134 0.00000E+00 0.00000E+00 0.00000E+00
 -1      1135 0.00000E+00 0.00000E+00 0.00000E+00
 -1      1136 0.00000E+00 0.00000E+00 0.00000E+00
 -1      1137 0.00000E+00 0.00000E+00 0.00000E+00
 -1      1138 0.00000E+00 0.00000E+00 0.00000E+00
 -1      1139 0.00000E+00 0.00000E+00 0.00000E+00
 -1      1140 0.00000E+00 0.00000E+00 0.00000E+00
 -1      1141 0.00000E+00 0.00000E+00 0.00000E+00
 -1      1142 0.00000E+00 0.00000E+00 0.00000E+00
 -1      1143 0.00000E+00 0.00000E+00 0.00000E+00
 -1      1144 0.00000E+00 0.00000E+00 0.00000E+00
 -1      1145 0.00000E+00 0.00000E+00 0.00000E+00
 -1      1146 0.00000E+00 0.00000E+00 0.00000E+00
 -1      1147 0.00000E+00 0.00000E+00 0.00000E+00
 -1      1148 0.00000E+00 0.00000E+00 0.00000E+00
 -1      1149 2.11645E-04-1.43431E-04 1.34306E-17
 -1      1150 5.58549E-04-3.17607E-04-1.29278E-16
 -1      1151 8.54888E-04-4.23734E-04-5.15796E-16
 -1      1152 1.14562E-03-4.92722E-04-1.18368E-15
 -1      1153 1.43902E-03-5.41306E-04-2.11346E-15
 -1      1154 1.73946E-03-5.78989E-04-3.29703E-15
 -1      1155 2.04972E-03-6.12808E-04-4.72864E-15
 -1      1156 2.37115E-03-6.49196E-04-6.40286E-15
 -1      1157 2.70356E-03-6.94562E-04-8.31484E-15
 -1      1158 3.04468E-03-7.54978E-04-1.04595E-14
 -1      1159 3.38955E-03-8.34944E-04-1.28338E-14
 -1      1160 3.73029E-03-9.35093E-04-1.54310E-14
 -1      1161 4.05719E-03-1.04923E-03-1.82482E-14
 -1      1162 4.36167E-03-1.16234E-03-2.12882E-14
 -1      1163 4.64084E-03-1.25230E-03-2.45498E-14
 -1      1164 4.90116E-03-1.29694E-03-2.80360E-14
 -1      1165 5.15750E-03-1.28400E-03-3.17372E-14
 -1      1166 5.42690E-03-1.21764E-03-3.56495E-14
 -1      1167 5.72082E-03-1.11627E-03-3.97602E-14
 -1      1168 6.04120E-03-1.00362E-03-4.40536E-14
 -1      1169 6.38201E-03-8.99475E-04-4.85126E-14
 -1      1170 6.73380E-03-8.15202E-04-5.31293E-14
 -1      1171 7.08764E-03-7.54201E-04-5.78983E-14
 -1      1172 7.43712E-03-7.14695E-04-6.28094E-14
 -1      1173 7.77863E-03-6.92564E-04-6.78516E-14
 -1      1174 8.11082E-03-6.83248E-04-7.30146E-14
 -1      1175 8.43379E-03-6.82706E-04-7.82911E-14
 -1      1176 8.74842E-03-6.87736E-04-8.36771E-14
 -1      1177 9.05598E-03-6.95984E-04-8.91672E-14
 -1      1178 9.35775E-03-7.05807E-04-9.47406E-14
 -1      1179 9.65495E-03-7.16121E-04-1.00390E-13
 -1      1180 9.94863E-03-7.26246E-04-1.06122E-13
 -1      1181 1.02397E-02-7.35792E-04-1.11941E-13
 -1      1182 1.05288E-02-7.44567E-04-1.17852E-13
 -1      1183 1.08165E-02-7.52507E-04-1.23847E-13
 -1      1184 1.11032E-02-7.59628E-04-1.29916E-13
 -1      1185 1.13893E-02-7.65996E-04-1.36054E-13
 -1      1186 1.16750E-02-7.71696E-04-1.42257E-13
 -1      1187 1.19605E-02-7.76825E-04-1.48515E-13
 -1      1188 1.22458E-02-7.81478E-04-1.54834E-13
 -1      1189 1.25311E-02-7.85744E-04-1.61225E-13
 -1      1190 1.28164E-02-7.89703E-04-1.67690E-13
 -1      1191 1.31017E-02-7.93424E-04-1.74219E-13
 -1      1192 1.33871E-02-7.96967E-04-1.80802E-13
 -1      1193 1.36725E-02-8.00384E-04-1.87427E-13
 -1      1194 1.39580E-02-8.03717E-04-1.94070E-13
 -1      1195 1.42436E-02-8.07007E-04-2.00740E-13
 -1      1196 1.45293E-02-8.10285E-04-2.07430E-13
 -1      1197 1.48149E-02-8.13578E-04-2.14138E-13
 -1      1198 1.50935E-02-8.16818E-04-2.20701E-13
 -1      1199 2.28115E-04 1.55596E-04 6.34394E-17
 -1      1200 5.60564E-04 3.22202E-04 5.14318E-17
 -1      1201 8.55650E-04 4.26174E-04-1.56925E-16
 -1      1202 1.14614E-03 4.94931E-04-5.88939E-16
 -1      1203 1.43918E-03 5.43748E-04-1.24282E-15
 -1      1204 1.73908E-03 5.81765E-04-2.11872E-15
 -1      1205 2.04845E-03 6.15890E-04-3.21788E-15
 -1      1206 2.36847E-03 6.52429E-04-4.53602E-15
 -1      1207 2.69881E-03 6.97557E-04-6.07216E-15
 -1      1208 3.03709E-03 7.56985E-04-7.82599E-15
 -1      1209 3.37838E-03 8.34745E-04-9.80052E-15
 -1      1210 3.71509E-03 9.31036E-04-1.19935E-14
 -1      1211 4.03806E-03 1.03957E-03-1.44083E-14
 -1      1212 4.33945E-03 1.14590E-03-1.70487E-14
 -1      1213 4.61685E-03 1.22925E-03-1.99158E-14
 -1      1214 4.87653E-03 1.26900E-03-2.30123E-14
 -1      1215 5.13244E-03 1.25382E-03-2.63261E-14
 -1      1216 5.40058E-03 1.18750E-03-2.98562E-14
 -1      1217 5.69190E-03 1.08712E-03-3.36043E-14
 -1      1218 6.00855E-03 9.74895E-04-3.75494E-14
 -1      1219 6.34521E-03 8.69626E-04-4.16690E-14
 -1      1220 6.69308E-03 7.82454E-04-4.59582E-14
 -1      1221 7.04365E-03 7.17068E-04-5.04094E-14
 -1      1222 7.39064E-03 6.72160E-04-5.50158E-14
 -1      1223 7.73039E-03 6.44037E-04-5.97689E-14
 -1      1224 8.06139E-03 6.28443E-04-6.46551E-14
 -1      1225 8.38360E-03 6.21519E-04-6.96676E-14
 -1      1226 8.69777E-03 6.20160E-04-7.47978E-14
 -1      1227 9.00505E-03 6.22052E-04-8.00398E-14
 -1      1228 9.30667E-03 6.25566E-04-8.53878E-14
 -1      1229 9.60379E-03 6.29614E-04-9.08472E-14
 -1      1230 9.89743E-03 6.33509E-04-9.64173E-14
 -1      1231 1.01885E-02 6.36853E-04-1.02083E-13
 -1      1232 1.04776E-02 6.39446E-04-1.07839E-13
 -1      1233 1.07653E-02 6.41218E-04-1.13683E-13
 -1      1234 1.10520E-02 6.42180E-04-1.19623E-13
 -1      1235 1.13381E-02 6.42395E-04-1.25645E-13
 -1      1236 1.16238E-02 6.41946E-04-1.31733E-13
 -1      1237 1.19093E-02 6.40929E-04-1.37868E-13
 -1      1238 1.21946E-02 6.39437E-04-1.44045E-13
 -1      1239 1.24799E-02 6.37559E-04-1.50268E-13
 -1      1240 1.27652E-02 6.35373E-04-1.56531E-13
 -1      1241 1.30505E-02 6.32951E-04-1.62816E-13
 -1      1242 1.33359E-02 6.30351E-04-1.69117E-13
 -1      1243 1.36213E-02 6.27624E-04-1.75438E-13
 -1      1244 1.39068E-02 6.24814E-04-1.81795E-13
 -1      1245 1.41924E-02 6.21960E-04-1.88180E-13
 -1      1246 1.44781E-02 6.19095E-04-1.94607E-13
 -1      1247 1.47637E-02 6.16245E-04-2.01059E-13
 -1      1248 1.50423E-02 6.13495E-04-2.07363E-13
 -1      1249 1.51794E-02 5.70020E-04-2.10827E-13
 -1      1250 1.51822E-02 4.85733E-04-2.11614E-13
 -1      1251 1.51849E-02 4.01422E-04-2.12388E-13
 -1      1252 1.51876E-02 3.17071E-04-2.13141E-13
 -1      1253 1.51903E-02 2.32674E-04-2.13915E-13
 -1      1254 1.51930E-02 1.48949E-04-2.14718E-13
 -1      1255 1.51958E-02 6.51864E-05-2.15558E-13
 -1      1256 1.51987E-02-1.93182E-05-2.16410E-13
 -1      1257 1.52017E-02-1.03837E-04-2.17271E-13
 -1      1258 1.52048E-02-1.88355E-04-2.18117E-13
 -1      1259 1.52079E-02-2.72859E-04-2.18939E-13
 -1      1260 1.52111E-02-3.56621E-04-2.19770E-13
 -1      1261 1.52144E-02-4.40346E-04-2.20610E-13
 -1      1262 1.52177E-02-5.24742E-04-2.21401E-13
 -1      1263 1.52210E-02-6.09092E-04-2.22151E-13
 -1      1264 1.52243E-02-6.93402E-04-2.22872E-13
 -1      1265 1.52276E-02-7.76975E-04-2.23562E-13
 -1      1266 7.16373E-03 6.27840E-05-3.59172E-14
 -1      1267 7.03863E-03 2.18109E-04-3.52983E-14
 -1      1268 6.81669E-03 3.70042E-04-3.43406E-14
 -1      1269 6.50942E-03 5.24019E-04-3.30590E-14
 -1      1270 6.11935E-03 6.74411E-04-3.14600E-14
 -1      1271 5.68900E-03 7.94105E-04-2.97213E-14
 -1      1272 5.26112E-03 8.63476E-04-2.80187E-14
 -1      1273 4.80261E-03 8.75900E-04-2.62462E-14
 -1      1274 4.33856E-03 8.27126E-04-2.45480E-14
 -1      1275 3.90950E-03 7.26094E-04-2.30902E-14
 -1      1276 3.52415E-03 5.94348E-04-2.18885E-14
 -1      1277 3.18974E-03 4.45181E-04-2.09417E-14
 -1      1278 2.92748E-03 2.90411E-04-2.02769E-14
 -1      1279 2.75826E-03 1.35546E-04-1.99215E-14
 -1      1280 2.70086E-03-1.43468E-05-1.98950E-14
 -1      1281 2.75772E-03-1.60953E-04-2.01812E-14
 -1      1282 2.92140E-03-3.11204E-04-2.07752E-14
 -1      1283 3.19951E-03-4.75553E-04-2.17348E-14
 -1      1284 3.57717E-03-6.42025E-04-2.30559E-14
 -1      1285 3.98885E-03-7.78520E-04-2.45492E-14
 -1      1286 4.42255E-03-8.72842E-04-2.61869E-14
 -1      1287 4.86842E-03-9.13727E-04-2.79175E-14
 -1      1288 5.32665E-03-8.92192E-04-2.97118E-14
 -1      1289 5.77562E-03-8.13250E-04-3.14507E-14
 -1      1290 6.18320E-03-6.93342E-04-3.29770E-14
 -1      1291 6.54567E-03-5.48980E-04-3.42644E-14
 -1      1292 6.84079E-03-3.97138E-04-3.52371E-14
 -1      1293 7.05742E-03-2.41971E-04-3.58745E-14
 -1      1294 7.16995E-03-9.09143E-05-3.61085E-14
 -1      1295 1.69598E-04-1.04790E-04-2.45301E-17
 -1      1296 1.15977E-04-4.97175E-05-6.42796E-17
 -1      1297 1.21037E-04-6.13002E-05-5.29904E-17
 -1      1298 1.10998E-04-3.46539E-05-8.26975E-17
 -1      1299 1.13347E-04-4.13332E-05-7.74527E-17
 -1      1300 2.33346E-04-9.21447E-05-1.82160E-16
 -1      1301 1.08049E-04-2.42508E-05-9.12898E-17
 -1      1302 1.09605E-04-2.90405E-05-8.89994E-17
 -1      1303 2.23796E-04-6.48906E-05-2.13493E-16
 -1      1304 1.05760E-04-1.65318E-05-9.58299E-17
 -1      1305 1.06951E-04-2.01536E-05-9.48812E-17
 -1      1306 2.17426E-04-4.54682E-05-2.29498E-16
 -1      1307 1.03977E-04-1.07469E-05-9.74156E-17
 -1      1308 1.04879E-04-1.34969E-05-9.72936E-17
 -1      1309 2.12522E-04-3.09965E-05-2.37196E-16
 -1      1310 1.02657E-04-6.17566E-06-9.75646E-17
 -1      1311 1.03290E-04-8.39428E-06-9.78357E-17
 -1      1312 2.08715E-04-1.98524E-05-2.39826E-16
 -1      1313 1.01905E-04-2.44375E-06-9.63991E-17
 -1      1314 1.02226E-04-4.31687E-06-9.68599E-17
 -1      1315 2.06052E-04-1.09445E-05-2.38836E-16
 -1      1316 1.01771E-04 9.35456E-07-9.45289E-17
 -1      1317 1.01762E-04-8.28750E-07-9.51523E-17
 -1      1318 2.04700E-04-3.42497E-06-2.35624E-16
 -1      1319 1.02265E-04 4.45452E-06-9.16557E-17
 -1      1320 1.01928E-04 2.56139E-06-9.24960E-17
 -1      1321 2.04737E-04 3.65734E-06-2.30298E-16
 -1      1322 1.03351E-04 8.60224E-06-8.77662E-17
 -1      1323 1.02707E-04 6.34487E-06-8.89046E-17
 -1      1324 2.06159E-04 1.12560E-05-2.22465E-16
 -1      1325 1.04938E-04 1.37591E-05-8.19928E-17
 -1      1326 1.04032E-04 1.09612E-05-8.37682E-17
 -1      1327 2.08844E-04 2.02295E-05-2.11772E-16
 -1      1328 1.07033E-04 2.05994E-05-7.40375E-17
 -1      1329 1.05840E-04 1.69077E-05-7.67751E-17
 -1      1330 2.12673E-04 3.15657E-05-1.97067E-16
 -1      1331 1.09668E-04 2.96795E-05-6.22061E-17
 -1      1332 1.08115E-04 2.47986E-05-6.67055E-17
 -1      1333 2.17624E-04 4.64400E-05-1.76562E-16
 -1      1334 1.13327E-04 4.21510E-05-4.42354E-17
 -1      1335 1.11013E-04 3.53947E-05-5.19062E-17
 -1      1336 2.23939E-04 6.62573E-05-1.47086E-16
 -1      1337 1.20318E-04 6.14647E-05-1.61004E-17
 -1      1338 1.15616E-04 5.05978E-05-2.95852E-17
 -1      1339 2.33310E-04 9.40980E-05-1.03907E-16
 -1      1340 1.59740E-04 1.05096E-04 2.68340E-17
 -1      1341 1.39215E-04 8.02836E-05 6.23416E-19
 -1      1342 2.63897E-04 1.38851E-04-5.26109E-17
 -1      1343 3.40889E-04 2.08554E-04 1.90413E-17
 -1      1344 4.30589E-04-2.44465E-04-1.45378E-16
 -1      1345 5.89477E-04-3.11111E-04-2.78152E-16
 -1      1346 7.43747E-04-3.63659E-04-4.85506E-16
 -1      1347 8.95316E-04-4.05459E-04-7.60608E-16
 -1      1348 6.32752E-04-2.99238E-04-4.46746E-16
 -1      1349 1.04516E-03-4.39786E-04-1.09980E-15
 -1      1350 1.19430E-03-4.67947E-04-1.50430E-15
 -1      1351 9.41700E-04-3.84448E-04-1.01044E-15
 -1      1352 1.34365E-03-4.91925E-04-1.97229E-15
 -1      1353 1.49379E-03-5.12435E-04-2.50382E-15
 -1      1354 1.24464E-03-4.41539E-04-1.82879E-15
 -1      1355 1.64526E-03-5.30752E-04-3.09693E-15
 -1      1356 1.79840E-03-5.47527E-04-3.75202E-15
 -1      1357 1.54758E-03-4.82494E-04-2.89639E-15
 -1      1358 1.95354E-03-5.63748E-04-4.46774E-15
 -1      1359 2.11080E-03-5.80110E-04-5.24331E-15
 -1      1360 1.85442E-03-5.15466E-04-4.20764E-15
 -1      1361 2.27033E-03-5.97548E-04-6.07899E-15
 -1      1362 2.43210E-03-6.16776E-04-6.97406E-15
 -1      1363 2.16750E-03-5.47359E-04-5.75808E-15
 -1      1364 2.59604E-03-6.38753E-04-7.92727E-15
 -1      1365 2.76191E-03-6.64139E-04-8.93774E-15
 -1      1366 2.48784E-03-5.84928E-04-7.54316E-15
 -1      1367 2.92941E-03-6.93852E-04-1.00063E-14
 -1      1368 3.09803E-03-7.28346E-04-1.11309E-14
 -1      1369 2.81517E-03-6.34940E-04-9.55792E-15
 -1      1370 3.26719E-03-7.68256E-04-1.23118E-14
 -1      1371 3.43613E-03-8.13568E-04-1.35495E-14
 -1      1372 3.14774E-03-7.03487E-04-1.17977E-14
 -1      1373 3.60403E-03-8.64212E-04-1.48417E-14
 -1      1374 3.76995E-03-9.19363E-04-1.61887E-14
 -1      1375 3.48216E-03-7.94186E-04-1.42595E-14
 -1      1376 3.93302E-03-9.77766E-04-1.75908E-14
 -1      1377 4.09242E-03-1.03751E-03-1.90488E-14
 -1      1378 3.81352E-03-9.05231E-04-1.69412E-14
 -1      1379 4.24755E-03-1.09599E-03-2.05622E-14
 -1      1380 4.39815E-03-1.15037E-03-2.21310E-14
 -1      1381 4.13633E-03-1.02613E-03-1.98434E-14
 -1      1382 4.54429E-03-1.19724E-03-2.37563E-14
 -1      1383 4.68663E-03-1.23374E-03-2.54365E-14
 -1      1384 4.44658E-03-1.13660E-03-2.29683E-14
 -1      1385 4.82607E-03-1.25708E-03-2.71720E-14
 -1      1386 4.96410E-03-1.26566E-03-2.89633E-14
 -1      1387 4.74447E-03-1.21094E-03-2.63160E-14
 -1      1388 5.10217E-03-1.25880E-03-3.08077E-14
 -1      1389 5.24198E-03-1.23705E-03-3.27056E-14
 -1      1390 5.03578E-03-1.22837E-03-2.98849E-14
 -1      1391 5.38479E-03-1.20225E-03-3.46566E-14
 -1      1392 5.53176E-03-1.15680E-03-3.66565E-14
 -1      1393 5.32990E-03-1.18390E-03-3.36692E-14
 -1      1394 5.68342E-03-1.10402E-03-3.87054E-14
 -1      1395 5.83997E-03-1.04697E-03-4.08018E-14
 -1      1396 5.63502E-03-1.09124E-03-3.76590E-14
 -1      1397 6.00114E-03-9.88843E-04-4.29422E-14
 -1      1398 6.16635E-03-9.32175E-04-4.51249E-14
 -1      1399 5.95437E-03-9.75348E-04-4.18379E-14
 -1      1400 6.33485E-03-8.79016E-04-4.73487E-14
 -1      1401 6.50571E-03-8.30825E-04-4.96130E-14
 -1      1402 6.28588E-03-8.60752E-04-4.61922E-14
 -1      1403 6.67808E-03-7.88322E-04-5.19169E-14
 -1      1404 6.85109E-03-7.52013E-04-5.42577E-14
 -1      1405 6.62457E-03-7.63794E-04-5.07093E-14
 -1      1406 7.02401E-03-7.21681E-04-5.66376E-14
 -1      1407 7.19622E-03-6.97210E-04-5.90535E-14
 -1      1408 6.96507E-03-6.91210E-04-5.53833E-14
 -1      1409 7.36725E-03-6.77937E-04-6.15028E-14
 -1      1410 7.53672E-03-6.63451E-04-6.39864E-14
 -1      1411 7.30311E-03-6.42739E-04-6.02033E-14
 -1      1412 7.70441E-03-6.53001E-04-6.65019E-14
 -1      1413 7.87017E-03-6.46093E-04-6.90498E-14
 -1      1414 7.63595E-03-6.14500E-04-6.51603E-14
 -1      1415 8.03393E-03-6.42070E-04-7.16277E-14
 -1      1416 8.19569E-03-6.40466E-04-7.42324E-14
 -1      1417 7.96222E-03-6.01532E-04-7.02445E-14
 -1      1418 8.35551E-03-6.40784E-04-7.68655E-14
 -1      1419 8.51347E-03-6.42628E-04-7.95262E-14
 -1      1420 8.28160E-03-5.99184E-04-7.54458E-14
 -1      1421 8.66968E-03-6.45654E-04-8.22145E-14
 -1      1422 8.82427E-03-6.49551E-04-8.49291E-14
 -1      1423 8.59444E-03-6.03675E-04-8.07570E-14
 -1      1424 8.97736E-03-6.54099E-04-8.76670E-14
 -1      1425 9.12909E-03-6.59064E-04-9.04288E-14
 -1      1426 8.90144E-03-6.12178E-04-8.61742E-14
 -1      1427 9.27960E-03-6.64315E-04-9.32106E-14
 -1      1428 9.42900E-03-6.69687E-04-9.60126E-14
 -1      1429 9.20346E-03-6.22707E-04-9.16857E-14
 -1      1430 9.57744E-03-6.75108E-04-9.88354E-14
 -1      1431 9.72501E-03-6.80465E-04-1.01677E-13
 -1      1432 9.50139E-03-6.33939E-04-9.72828E-14
 -1      1433 9.87182E-03-6.85729E-04-1.04542E-13
 -1      1434 1.00180E-02-6.90824E-04-1.07426E-13
 -1      1435 9.79604E-03-6.45043E-04-1.02963E-13
 -1      1436 1.01635E-02-6.95747E-04-1.10332E-13
 -1      1437 1.03086E-02-7.00451E-04-1.13260E-13
 -1      1438 1.00881E-02-6.55536E-04-1.08725E-13
 -1      1439 1.04533E-02-7.04947E-04-1.16210E-13
 -1      1440 1.05976E-02-7.09208E-04-1.19183E-13
 -1      1441 1.03782E-02-6.65174E-04-1.14575E-13
 -1      1442 1.07415E-02-7.13255E-04-1.22176E-13
 -1      1443 1.08853E-02-7.17074E-04-1.25186E-13
 -1      1444 1.06669E-02-6.73869E-04-1.20509E-13
 -1      1445 1.10288E-02-7.20687E-04-1.28216E-13
 -1      1446 1.11721E-02-7.24091E-04-1.31262E-13
 -1      1447 1.09545E-02-6.81631E-04-1.26521E-13
 -1      1448 1.13153E-02-7.27309E-04-1.34327E-13
 -1      1449 1.14583E-02-7.30344E-04-1.37408E-13
 -1      1450 1.12413E-02-6.88528E-04-1.32606E-13
 -1      1451 1.16013E-02-7.33215E-04-1.40505E-13
 -1      1452 1.17442E-02-7.35929E-04-1.43620E-13
 -1      1453 1.15276E-02-6.94657E-04-1.38761E-13
 -1      1454 1.18870E-02-7.38506E-04-1.46744E-13
 -1      1455 1.20298E-02-7.40952E-04-1.49882E-13
 -1      1456 1.18135E-02-7.00125E-04-1.44976E-13
 -1      1457 1.21725E-02-7.43284E-04-1.53040E-13
 -1      1458 1.23152E-02-7.45510E-04-1.56215E-13
 -1      1459 1.20992E-02-7.05042E-04-1.51250E-13
 -1      1460 1.24579E-02-7.47644E-04-1.59407E-13
 -1      1461 1.26006E-02-7.49694E-04-1.62615E-13
 -1      1462 1.23848E-02-7.09508E-04-1.57590E-13
 -1      1463 1.27433E-02-7.51672E-04-1.65842E-13
 -1      1464 1.28860E-02-7.53585E-04-1.69085E-13
 -1      1465 1.26703E-02-7.13614E-04-1.64000E-13
 -1      1466 1.30287E-02-7.55442E-04-1.72341E-13
 -1      1467 1.31714E-02-7.57250E-04-1.75613E-13
 -1      1468 1.29557E-02-7.17441E-04-1.70472E-13
 -1      1469 1.33142E-02-7.59018E-04-1.78898E-13
 -1      1470 1.34569E-02-7.60750E-04-1.82193E-13
 -1      1471 1.32412E-02-7.21056E-04-1.76999E-13
 -1      1472 1.35997E-02-7.62454E-04-1.85497E-13
 -1      1473 1.37424E-02-7.64134E-04-1.88811E-13
 -1      1474 1.35268E-02-7.24517E-04-1.83577E-13
 -1      1475 1.38852E-02-7.65797E-04-1.92130E-13
 -1      1476 1.40280E-02-7.67446E-04-1.95451E-13
 -1      1477 1.38123E-02-7.27873E-04-1.90191E-13
 -1      1478 1.41708E-02-7.69086E-04-1.98783E-13
 -1      1479 1.43136E-02-7.70722E-04-2.02119E-13
 -1      1480 1.40979E-02-7.31166E-04-1.96831E-13
 -1      1481 1.44564E-02-7.72357E-04-2.05460E-13
 -1      1482 1.45992E-02-7.73995E-04-2.08807E-13
 -1      1483 1.43835E-02-7.34433E-04-2.03495E-13
 -1      1484 1.47421E-02-7.75639E-04-2.12159E-13
 -1      1485 1.48849E-02-7.77292E-04-2.15518E-13
 -1      1486 1.46692E-02-7.37705E-04-2.10181E-13
 -1      1487 1.50919E-02-7.75388E-04-2.20360E-13
 -1      1488 1.50190E-02-7.37439E-04-2.18373E-13
 -1      1489 6.59923E-04 3.43464E-04-9.60468E-17
 -1      1490 5.03603E-04 2.83266E-04-1.10453E-17
 -1      1491 4.57513E-04 2.44889E-04-6.42932E-17
 -1      1492 9.62084E-04 4.28723E-04-4.30320E-16
 -1      1493 8.12229E-04 3.90254E-04-2.35882E-16
 -1      1494 7.70659E-04 3.53398E-04-3.02926E-16
 -1      1495 1.25935E-03 4.86692E-04-9.82748E-16
 -1      1496 1.11074E-03 4.60240E-04-6.79022E-16
 -1      1497 1.07461E-03 4.24905E-04-7.57627E-16
 -1      1498 1.55860E-03 5.29036E-04-1.75462E-15
 -1      1499 1.40836E-03 5.09305E-04-1.34100E-15
 -1      1500 1.37570E-03 4.74539E-04-1.42852E-15
 -1      1501 1.86381E-03 5.63584E-04-2.74753E-15
 -1      1502 1.71025E-03 5.46875E-04-2.22312E-15
 -1      1503 1.67898E-03 5.11928E-04-2.31731E-15
 -1      1504 2.17713E-03 5.96958E-04-3.96060E-15
 -1      1505 2.01935E-03 5.80036E-04-3.32660E-15
 -1      1506 1.98761E-03 5.44338E-04-3.42562E-15
 -1      1507 2.49923E-03 6.35542E-04-5.39084E-15
 -1      1508 2.33707E-03 6.15244E-04-4.64902E-15
 -1      1509 2.30321E-03 5.78375E-04-4.75167E-15
 -1      1510 2.82919E-03 6.85591E-04-7.03844E-15
 -1      1511 2.66333E-03 6.58849E-04-6.18745E-15
 -1      1512 2.62606E-03 6.20551E-04-6.29347E-15
 -1      1513 3.16421E-03 7.52527E-04-8.90229E-15
 -1      1514 2.99631E-03 7.16824E-04-7.94319E-15
 -1      1515 2.95500E-03 6.77069E-04-8.05019E-15
 -1      1516 3.49940E-03 8.39271E-04-1.09846E-14
 -1      1517 3.33217E-03 7.93594E-04-9.91633E-15
 -1      1518 3.28722E-03 7.52705E-04-1.00233E-14
 -1      1519 3.82817E-03 9.43649E-04-1.32854E-14
 -1      1520 3.66507E-03 8.89861E-04-1.21070E-14
 -1      1521 3.61830E-03 8.48641E-04-1.22121E-14
 -1      1522 4.14373E-03 1.05570E-03-1.58093E-14
 -1      1523 3.98803E-03 9.99796E-04-1.45192E-14
 -1      1524 3.94276E-03 9.59544E-04-1.46201E-14
 -1      1525 4.44175E-03 1.15706E-03-1.85578E-14
 -1      1526 4.29507E-03 1.10908E-03-1.71551E-14
 -1      1527 4.25562E-03 1.07132E-03-1.72522E-14
 -1      1528 4.72330E-03 1.22494E-03-2.15335E-14
 -1      1529 4.58427E-03 1.19637E-03-2.00174E-14
 -1      1530 4.55479E-03 1.16220E-03-2.01091E-14
 -1      1531 4.99601E-03 1.24089E-03-2.47361E-14
 -1      1532 4.86004E-03 1.23984E-03-2.31068E-14
 -1      1533 4.84322E-03 1.20927E-03-2.31935E-14
 -1      1534 5.27156E-03 1.19982E-03-2.81546E-14
 -1      1535 5.13260E-03 1.22690E-03-2.64183E-14
 -1      1536 5.12874E-03 1.19869E-03-2.64995E-14
 -1      1537 5.56073E-03 1.11285E-03-3.17905E-14
 -1      1538 5.41390E-03 1.16074E-03-2.99463E-14
 -1      1539 5.42084E-03 1.13299E-03-3.00262E-14
 -1      1540 5.86883E-03 1.00163E-03-3.56358E-14
 -1      1541 5.71231E-03 1.05879E-03-3.36874E-14
 -1      1542 5.72622E-03 1.02991E-03-3.37643E-14
 -1      1543 6.19474E-03 8.88540E-04-3.96667E-14
 -1      1544 6.02983E-03 9.44208E-04-3.76288E-14
 -1      1545 6.04627E-03 9.13429E-04-3.77008E-14
 -1      1546 6.53293E-03 7.89464E-04-4.38699E-14
 -1      1547 6.36274E-03 8.36689E-04-4.17471E-14
 -1      1548 6.37790E-03 8.04034E-04-4.18179E-14
 -1      1549 6.87654E-03 7.11874E-04-4.82404E-14
 -1      1550 6.70450E-03 7.47883E-04-4.60353E-14
 -1      1551 6.71583E-03 7.13819E-04-4.61059E-14
 -1      1552 7.21957E-03 6.56570E-04-5.27678E-14
 -1      1553 7.04847E-03 6.81606E-04-5.04856E-14
 -1      1554 7.05482E-03 6.46724E-04-5.05546E-14
 -1      1555 7.55788E-03 6.20593E-04-5.74448E-14
 -1      1556 7.38953E-03 6.36441E-04-5.50884E-14
 -1      1557 7.39085E-03 6.01269E-04-5.51547E-14
 -1      1558 7.88924E-03 5.99603E-04-6.22635E-14
 -1      1559 7.72453E-03 6.08506E-04-5.98375E-14
 -1      1560 7.72142E-03 5.73429E-04-5.98995E-14
 -1      1561 8.21289E-03 5.89306E-04-6.72081E-14
 -1      1562 8.05204E-03 5.93359E-04-6.47195E-14
 -1      1563 8.04538E-03 5.58620E-04-6.47793E-14
 -1      1564 8.52906E-03 5.86085E-04-7.22761E-14
 -1      1565 8.37188E-03 5.86998E-04-6.97278E-14
 -1      1566 8.36257E-03 5.52721E-04-6.97838E-14
 -1      1567 8.83851E-03 5.87167E-04-7.74599E-14
 -1      1568 8.68456E-03 5.86225E-04-7.48530E-14
 -1      1569 8.67340E-03 5.52448E-04-7.49056E-14
 -1      1570 9.14223E-03 5.90557E-04-8.27537E-14
 -1      1571 8.99102E-03 5.88668E-04-8.00930E-14
 -1      1572 8.97865E-03 5.55378E-04-8.01426E-14
 -1      1573 9.44126E-03 5.94896E-04-8.81540E-14
 -1      1574 9.29227E-03 5.92671E-04-8.54406E-14
 -1      1575 9.27918E-03 5.59823E-04-8.54880E-14
 -1      1576 9.73657E-03 5.99310E-04-9.36665E-14
 -1      1577 9.58932E-03 5.97133E-04-9.08973E-14
 -1      1578 9.57586E-03 5.64668E-04-9.09426E-14
 -1      1579 1.00290E-02 6.03271E-04-9.92807E-14
 -1      1580 9.88309E-03 6.01369E-04-9.64615E-14
 -1      1581 9.86949E-03 5.69225E-04-9.65021E-14
 -1      1582 1.03192E-02 6.06497E-04-1.04988E-13
 -1      1583 1.01743E-02 6.04986E-04-1.02122E-13
 -1      1584 1.01608E-02 5.73104E-04-1.02159E-13
 -1      1585 1.06078E-02 6.08870E-04-1.10785E-13
 -1      1586 1.04637E-02 6.07794E-04-1.07875E-13
 -1      1587 1.04502E-02 5.76119E-04-1.07907E-13
 -1      1588 1.08953E-02 6.10375E-04-1.16673E-13
 -1      1589 1.07517E-02 6.09730E-04-1.13718E-13
 -1      1590 1.07384E-02 5.78218E-04-1.13746E-13
 -1      1591 1.11820E-02 6.11060E-04-1.22650E-13
 -1      1592 1.10387E-02 6.10816E-04-1.19652E-13
 -1      1593 1.10256E-02 5.79428E-04-1.19676E-13
 -1      1594 1.14681E-02 6.11009E-04-1.28698E-13
 -1      1595 1.13251E-02 6.11121E-04-1.25665E-13
 -1      1596 1.13121E-02 5.79825E-04-1.25684E-13
 -1      1597 1.17538E-02 6.10318E-04-1.34807E-13
 -1      1598 1.16110E-02 6.10737E-04-1.31745E-13
 -1      1599 1.15982E-02 5.79509E-04-1.31757E-13
 -1      1600 1.20394E-02 6.09089E-04-1.40958E-13
 -1      1601 1.18966E-02 6.09765E-04-1.37877E-13
 -1      1602 1.18840E-02 5.78585E-04-1.37883E-13
 -1      1603 1.23248E-02 6.07418E-04-1.47158E-13
 -1      1604 1.21821E-02 6.08304E-04-1.44053E-13
 -1      1605 1.21696E-02 5.77157E-04-1.44057E-13
 -1      1606 1.26102E-02 6.05392E-04-1.53399E-13
 -1      1607 1.24675E-02 6.06445E-04-1.50273E-13
 -1      1608 1.24551E-02 5.75320E-04-1.50277E-13
 -1      1609 1.28956E-02 6.03088E-04-1.59672E-13
 -1      1610 1.27529E-02 6.04271E-04-1.56532E-13
 -1      1611 1.27406E-02 5.73159E-04-1.56534E-13
 -1      1612 1.31810E-02 6.00573E-04-1.65969E-13
 -1      1613 1.30383E-02 6.01853E-04-1.62817E-13
 -1      1614 1.30260E-02 5.70749E-04-1.62819E-13
 -1      1615 1.34664E-02 5.97903E-04-1.72280E-13
 -1      1616 1.33237E-02 5.99254E-04-1.69125E-13
 -1      1617 1.33115E-02 5.68153E-04-1.69126E-13
 -1      1618 1.37519E-02 5.95127E-04-1.78624E-13
 -1      1619 1.36092E-02 5.96525E-04-1.75449E-13
 -1      1620 1.35970E-02 5.65424E-04-1.75457E-13
 -1      1621 1.40375E-02 5.92286E-04-1.84992E-13
 -1      1622 1.38947E-02 5.93712E-04-1.81803E-13
 -1      1623 1.38826E-02 5.62608E-04-1.81811E-13
 -1      1624 1.43231E-02 5.89417E-04-1.91394E-13
 -1      1625 1.41803E-02 5.90853E-04-1.88188E-13
 -1      1626 1.41682E-02 5.59745E-04-1.88193E-13
 -1      1627 1.46088E-02 5.86550E-04-1.97832E-13
 -1      1628 1.44660E-02 5.87982E-04-1.94607E-13
 -1      1629 1.44538E-02 5.56868E-04-1.94611E-13
 -1      1630 1.48945E-02 5.83710E-04-2.04285E-13
 -1      1631 1.47516E-02 5.85126E-04-2.01057E-13
 -1      1632 1.47395E-02 5.54008E-04-2.01055E-13
 -1      1633 1.50437E-02 5.71351E-04-2.07756E-13
 -1      1634 1.50591E-02 4.65864E-04-2.09011E-13
 -1      1635 1.50578E-02 5.08015E-04-2.08617E-13
 -1      1636 1.50618E-02 3.81540E-04-2.09782E-13
 -1      1637 1.50605E-02 4.23706E-04-2.09398E-13
 -1      1638 1.49361E-02 4.46002E-04-2.06406E-13
 -1      1639 1.50645E-02 2.97183E-04-2.10549E-13
 -1      1640 1.50632E-02 3.39366E-04-2.10167E-13
 -1      1641 1.49388E-02 3.61673E-04-2.07182E-13
 -1      1642 1.50672E-02 2.12788E-04-2.11335E-13
 -1      1643 1.50659E-02 2.54990E-04-2.10941E-13
 -1      1644 1.49415E-02 2.77314E-04-2.07961E-13
 -1      1645 1.50700E-02 1.29790E-04-2.12133E-13
 -1      1646 1.50686E-02 1.71293E-04-2.11729E-13
 -1      1647 1.49442E-02 1.93640E-04-2.08743E-13
 -1      1648 1.50728E-02 4.53332E-05-2.12966E-13
 -1      1649 1.50714E-02 8.75648E-05-2.12548E-13
 -1      1650 1.49469E-02 1.09939E-04-2.09544E-13
 -1      1651 1.50757E-02-3.91430E-05-2.13803E-13
 -1      1652 1.50742E-02 3.09689E-06-2.13383E-13
 -1      1653 1.49498E-02 2.55021E-05-2.10362E-13
 -1      1654 1.50787E-02-1.23628E-04-2.14646E-13
 -1      1655 1.50772E-02-8.13849E-05-2.14227E-13
 -1      1656 1.49527E-02-5.89484E-05-2.11189E-13
 -1      1657 1.50818E-02-2.08109E-04-2.15476E-13
 -1      1658 1.50802E-02-1.65870E-04-2.15062E-13
 -1      1659 1.49557E-02-1.43403E-04-2.12016E-13
 -1      1660 1.50850E-02-2.92577E-04-2.16293E-13
 -1      1661 1.50834E-02-2.50346E-04-2.15886E-13
 -1      1662 1.49588E-02-2.27854E-04-2.12833E-13
 -1      1663 1.50882E-02-3.75589E-04-2.17101E-13
 -1      1664 1.50865E-02-3.34087E-04-2.16694E-13
 -1      1665 1.49620E-02-3.11575E-04-2.13633E-13
 -1      1666 1.50915E-02-4.60001E-04-2.17913E-13
 -1      1667 1.50898E-02-4.17800E-04-2.17512E-13
 -1      1668 1.49652E-02-3.95276E-04-2.14428E-13
 -1      1669 1.50948E-02-5.44377E-04-2.18682E-13
 -1      1670 1.50931E-02-5.02194E-04-2.18305E-13
 -1      1671 1.49686E-02-4.79664E-04-2.15212E-13
 -1      1672 1.50981E-02-6.28716E-04-2.19419E-13
 -1      1673 1.50965E-02-5.86551E-04-2.19054E-13
 -1      1674 1.49719E-02-5.64023E-04-2.15964E-13
 -1      1675 1.50594E-02-7.04157E-04-2.19077E-13
 -1      1676 1.50578E-02-6.62005E-04-2.18724E-13
 -1      1677 1.49332E-02-6.39486E-04-2.15635E-13
 -1      1678 1.48524E-02-7.06066E-04-2.14239E-13
 -1      1679 7.15405E-03 5.42227E-05-3.68222E-14
 -1      1680 7.19504E-03 7.36008E-06-3.70474E-14
 -1      1681 6.97555E-03 1.79679E-04-3.58339E-14
 -1      1682 7.07008E-03 1.24865E-04-3.62251E-14
 -1      1683 6.69011E-03 3.20213E-04-3.47237E-14
 -1      1684 6.83385E-03 2.49054E-04-3.53057E-14
 -1      1685 6.34021E-03 4.95139E-04-3.32055E-14
 -1      1686 6.50955E-03 4.14322E-04-3.39154E-14
 -1      1687 5.92005E-03 6.84836E-04-3.13493E-14
 -1      1688 6.12344E-03 5.95957E-04-3.22531E-14
 -1      1689 5.51856E-03 8.31756E-04-2.94879E-14
 -1      1690 5.69604E-03 7.71646E-04-3.03253E-14
 -1      1691 5.13256E-03 9.14766E-04-2.76245E-14
 -1      1692 5.31080E-03 8.85052E-04-2.84872E-14
 -1      1693 4.73216E-03 9.20076E-04-2.56704E-14
 -1      1694 4.91551E-03 9.33769E-04-2.65621E-14
 -1      1695 4.31353E-03 8.19655E-04-2.39378E-14
 -1      1696 4.50175E-03 8.72902E-04-2.47195E-14
 -1      1697 3.92039E-03 6.67324E-04-2.24325E-14
 -1      1698 4.10174E-03 7.42667E-04-2.30797E-14
 -1      1699 3.53022E-03 4.96079E-04-2.12503E-14
 -1      1700 3.70507E-03 5.77272E-04-2.17731E-14
 -1      1701 3.17881E-03 3.27624E-04-2.03245E-14
 -1      1702 3.33542E-03 4.03713E-04-2.07175E-14
 -1      1703 2.89855E-03 1.83612E-04-1.97049E-14
 -1      1704 3.01699E-03 2.46531E-04-1.99516E-14
 -1      1705 2.72401E-03 6.05068E-05-1.93452E-14
 -1      1706 2.79023E-03 1.10364E-04-1.94381E-14
 -1      1707 2.68792E-03-3.60316E-05-1.94609E-14
 -1      1708 2.68725E-03 8.39943E-06-1.93975E-14
 -1      1709 2.78790E-03-1.40183E-04-1.98346E-14
 -1      1710 2.72506E-03-9.03251E-05-1.96210E-14
 -1      1711 3.00979E-03-2.62149E-04-2.04930E-14
 -1      1712 2.89419E-03-2.01290E-04-2.01357E-14
 -1      1713 3.37087E-03-4.23530E-04-2.15334E-14
 -1      1714 3.19198E-03-3.36642E-04-2.09572E-14
 -1      1715 3.78842E-03-6.23288E-04-2.30015E-14
 -1      1716 3.59731E-03-5.31736E-04-2.23057E-14
 -1      1717 4.17503E-03-8.02429E-04-2.47060E-14
 -1      1718 3.99081E-03-7.29631E-04-2.39488E-14
 -1      1719 4.57856E-03-9.21023E-04-2.65065E-14
 -1      1720 4.39176E-03-8.73695E-04-2.56508E-14
 -1      1721 4.96757E-03-9.60755E-04-2.83705E-14
 -1      1722 4.79069E-03-9.53236E-04-2.75122E-14
 -1      1723 5.37101E-03-9.10886E-04-3.03786E-14
 -1      1724 5.18121E-03-9.48075E-04-2.94477E-14
 -1      1725 5.78082E-03-7.81250E-04-3.21950E-14
 -1      1726 5.59801E-03-8.46990E-04-3.13805E-14
 -1      1727 6.17624E-03-6.12907E-04-3.38234E-14
 -1      1728 5.99429E-03-6.94269E-04-3.31006E-14
 -1      1729 6.54696E-03-4.37876E-04-3.51720E-14
 -1      1730 6.38035E-03-5.17917E-04-3.45919E-14
 -1      1731 6.85991E-03-2.82687E-04-3.61645E-14
 -1      1732 6.72426E-03-3.50995E-04-3.57562E-14
 -1      1733 7.09187E-03-1.47754E-04-3.68361E-14
 -1      1734 6.99605E-03-2.05098E-04-3.66032E-14
 -1      1735 7.19535E-03-4.56749E-05-3.69358E-14
 -1      1736 7.16483E-03-9.05707E-05-3.69221E-14
 -1      1737 6.16692E-03 5.11905E-04-3.31215E-14
 -1      1738 6.55615E-03 3.13681E-04-3.49048E-14
 -1      1739 1.50316E-02 5.40229E-04-2.07752E-13
 -1      1740 1.49085E-02 5.20375E-04-2.05149E-13
 -1      1741 7.11578E-03 5.13947E-05-3.74053E-14
 -1      1742 6.88234E-03 1.63560E-04-3.62640E-14
 -1      1743 7.20552E-03-1.64513E-05-3.79048E-14
 -1      1744 5.75508E-03 7.15687E-04-3.11248E-14
 -1      1745 5.37330E-03 8.72556E-04-2.90875E-14
 -1      1746 5.00785E-03 9.51694E-04-2.70211E-14
 -1      1747 4.65410E-03 9.17880E-04-2.50218E-14
 -1      1748 4.26434E-03 7.80703E-04-2.32324E-14
 -1      1749 3.87742E-03 5.94588E-04-2.17439E-14
 -1      1750 3.48483E-03 4.01848E-04-2.05789E-14
 -1      1751 3.12835E-03 2.33435E-04-1.96981E-14
 -1      1752 2.85040E-03 1.02495E-04-1.90754E-14
 -1      1753 2.69799E-03 2.05914E-05-1.88686E-14
 -1      1754 2.69881E-03-4.71994E-05-1.90768E-14
 -1      1755 2.84798E-03-1.28497E-04-1.95229E-14
 -1      1756 3.13904E-03-2.45632E-04-2.02615E-14
 -1      1757 3.53968E-03-4.25681E-04-2.14574E-14
 -1      1758 3.94925E-03-6.49907E-04-2.31401E-14
 -1      1759 4.33676E-03-8.41760E-04-2.50126E-14
 -1      1760 4.70756E-03-9.58952E-04-2.69517E-14
 -1      1761 5.06911E-03-9.80280E-04-2.90347E-14
 -1      1762 5.43407E-03-8.91154E-04-3.11279E-14
 -1      1763 5.82686E-03-7.23411E-04-3.30553E-14
 -1      1764 6.21893E-03-5.26991E-04-3.47531E-14
 -1      1765 6.59311E-03-3.42177E-04-3.61293E-14
 -1      1766 6.91204E-03-1.92401E-04-3.71704E-14
 -1      1767 7.12942E-03-9.05910E-05-3.77069E-14
 -1      1768 2.92786E-04-1.63516E-04-1.23884E-16
 -1      1769 3.38220E-04-9.12136E-05-3.35547E-16
 -1      1770 3.44683E-04-1.08055E-04-3.19650E-16
 -1      1771 3.52563E-04-1.28153E-04-2.99186E-16
 -1      1772 3.63418E-04-1.51782E-04-2.68991E-16
 -1      1773 4.71368E-04-1.56151E-04-4.63917E-16
 -1      1774 3.20160E-04-4.35379E-05-3.63736E-16
 -1      1775 3.23815E-04-5.30269E-05-3.60307E-16
 -1      1776 3.14193E-04-2.72992E-05-3.65783E-16
 -1      1777 3.16935E-04-3.49190E-05-3.65335E-16
 -1      1778 4.27975E-04-5.31165E-05-5.36585E-16
 -1      1779 3.10286E-04-1.41069E-05-3.63194E-16
 -1      1780 3.11972E-04-2.03908E-05-3.64997E-16
 -1      1781 4.20031E-04-3.24422E-05-5.37534E-16
 -1      1782 3.08617E-04-2.57241E-06-3.57651E-16
 -1      1783 3.09163E-04-8.20365E-06-3.60931E-16
 -1      1784 4.15162E-04-1.52057E-05-5.32858E-16
 -1      1785 3.09277E-04 8.67987E-06-3.48585E-16
 -1      1786 3.08655E-04 3.01718E-06-3.53680E-16
 -1      1787 4.13598E-04 3.60608E-07-5.23534E-16
 -1      1788 3.12220E-04 2.10210E-05-3.35940E-16
 -1      1789 3.10471E-04 1.46456E-05-3.42865E-16
 -1      1790 4.15417E-04 1.60148E-05-5.09318E-16
 -1      1791 3.17182E-04 3.55344E-05-3.18769E-16
 -1      1792 3.14454E-04 2.79231E-05-3.28324E-16
 -1      1793 4.20449E-04 3.33444E-05-4.89924E-16
 -1      1794 3.24166E-04 5.41107E-05-2.95228E-16
 -1      1795 3.20429E-04 4.42884E-05-3.08293E-16
 -1      1796 4.28455E-04 5.41822E-05-4.63876E-16
 -1      1797 3.33152E-04 7.81975E-05-2.62187E-16
 -1      1798 3.28378E-04 6.54101E-05-2.80592E-16
 -1      1799 4.39360E-04 8.05723E-05-4.28192E-16
 -1      1800 3.45013E-04 1.10321E-04-2.14970E-16
 -1      1801 3.38575E-04 9.31725E-05-2.41438E-16
 -1      1802 4.53358E-04 1.14603E-04-3.78834E-16
 -1      1803 3.63900E-04 1.55568E-04-1.45568E-16
 -1      1804 3.53167E-04 1.31090E-04-1.84138E-16
 -1      1805 4.72409E-04 1.59754E-04-3.08984E-16
 -1      1806 4.20598E-04 2.12473E-04-9.55589E-17
 -1      1807 3.90675E-04 1.80766E-04-1.27746E-16
 -1      1808 5.12940E-04 2.13762E-04-2.45341E-16
 -1      1809 5.77463E-04 2.72795E-04-1.92378E-16
 -1      1810 3.51244E-04-1.72369E-04-2.03627E-16
 -1      1811 8.86987E-04 3.61673E-04-5.47929E-16
 -1      1812 7.32842E-04 3.21544E-04-3.43855E-16
 -1      1813 6.98032E-04 2.90556E-04-3.77831E-16
 -1      1814 4.74970E-04-2.09760E-04-3.51553E-16
 -1      1815 8.38716E-04-3.28528E-04-9.15934E-16
 -1      1816 9.92051E-04-3.62441E-04-1.26848E-15
 -1      1817 1.14395E-03-3.90703E-04-1.68260E-15
 -1      1818 1.29579E-03-4.14136E-04-2.15862E-15
 -1      1819 1.04391E-03-3.39803E-04-1.53466E-15
 -1      1820 1.44753E-03-4.34351E-04-2.69501E-15
 -1      1821 1.59986E-03-4.51856E-04-3.29218E-15
 -1      1822 1.34687E-03-3.86460E-04-2.49377E-15
 -1      1823 1.75300E-03-4.67910E-04-3.94948E-15
 -1      1824 1.90725E-03-4.83064E-04-4.66551E-15
 -1      1825 1.65061E-03-4.21095E-04-3.69207E-15
 -1      1826 2.06287E-03-4.98423E-04-5.44008E-15
 -1      1827 2.21993E-03-5.14607E-04-6.27304E-15
 -1      1828 1.95736E-03-4.50711E-04-5.12525E-15
 -1      1829 2.37869E-03-5.32684E-04-7.16370E-15
 -1      1830 2.53896E-03-5.53338E-04-8.11115E-15
 -1      1831 2.26891E-03-4.82049E-04-6.78864E-15
 -1      1832 2.70107E-03-5.77587E-04-9.11510E-15
 -1      1833 2.86447E-03-6.06110E-04-1.01750E-14
 -1      1834 2.58658E-03-5.21993E-04-8.67833E-15
 -1      1835 3.02961E-03-6.39719E-04-1.12905E-14
 -1      1836 3.19545E-03-6.78913E-04-1.24605E-14
 -1      1837 2.91113E-03-5.77438E-04-1.07896E-14
 -1      1838 3.36259E-03-7.23967E-04-1.36853E-14
 -1      1839 3.52948E-03-7.74836E-04-1.49649E-14
 -1      1840 3.24243E-03-6.54304E-04-1.31194E-14
 -1      1841 3.69669E-03-8.30816E-04-1.62993E-14
 -1      1842 3.86247E-03-8.90806E-04-1.76887E-14
 -1      1843 3.57875E-03-7.55282E-04-1.56659E-14
 -1      1844 4.02710E-03-9.52775E-04-1.91331E-14
 -1      1845 4.18924E-03-1.01415E-03-2.06327E-14
 -1      1846 3.91609E-03-8.76175E-04-1.84310E-14
 -1      1847 4.34871E-03-1.07167E-03-2.21878E-14
 -1      1848 4.50556E-03-1.12177E-03-2.38000E-14
 -1      1849 4.24849E-03-1.00191E-03-2.14159E-14
 -1      1850 4.65912E-03-1.16099E-03-2.54677E-14
 -1      1851 4.81146E-03-1.18619E-03-2.71904E-14
 -1      1852 4.57077E-03-1.10610E-03-2.46246E-14
 -1      1853 4.96160E-03-1.19541E-03-2.89682E-14
 -1      1854 5.11297E-03-1.18786E-03-3.08015E-14
 -1      1855 4.88322E-03-1.15903E-03-2.80583E-14
 -1      1856 5.26450E-03-1.16421E-03-3.26896E-14
 -1      1857 5.41921E-03-1.12657E-03-3.46289E-14
 -1      1858 5.19334E-03-1.14304E-03-3.17143E-14
 -1      1859 5.57620E-03-1.07784E-03-3.66174E-14
 -1      1860 5.73660E-03-1.02167E-03-3.86549E-14
 -1      1861 5.51072E-03-1.06412E-03-3.55819E-14
 -1      1862 5.89996E-03-9.61621E-04-4.07408E-14
 -1      1863 6.06554E-03-9.01013E-04-4.28705E-14
 -1      1864 5.83971E-03-9.47906E-04-3.96487E-14
 -1      1865 6.23339E-03-8.42659E-04-4.50423E-14
 -1      1866 6.40190E-03-7.88437E-04-4.72557E-14
 -1      1867 6.17750E-03-8.24581E-04-4.38991E-14
 -1      1868 6.57148E-03-7.39827E-04-4.95097E-14
 -1      1869 6.74047E-03-6.97443E-04-5.18035E-14
 -1      1870 6.51796E-03-7.16049E-04-4.83164E-14
 -1      1871 6.90942E-03-6.61587E-04-5.41359E-14
 -1      1872 7.07705E-03-6.32077E-04-5.65055E-14
 -1      1873 6.85588E-03-6.32430E-04-5.28953E-14
 -1      1874 7.24383E-03-6.08499E-04-5.89102E-14
 -1      1875 7.40898E-03-5.90347E-04-6.13496E-14
 -1      1876 7.18830E-03-5.74963E-04-5.76226E-14
 -1      1877 7.57282E-03-5.76908E-04-6.38236E-14
 -1      1878 7.73498E-03-5.67623E-04-6.63296E-14
 -1      1879 7.51419E-03-5.40126E-04-6.24928E-14
 -1      1880 7.89562E-03-5.61756E-04-6.88670E-14
 -1      1881 8.05467E-03-5.58812E-04-7.14353E-14
 -1      1882 7.83358E-03-5.22767E-04-6.74960E-14
 -1      1883 8.21219E-03-5.58165E-04-7.40308E-14
 -1      1884 8.36828E-03-5.59418E-04-7.66533E-14
 -1      1885 8.14697E-03-5.17823E-04-7.26202E-14
 -1      1886 8.52294E-03-5.62098E-04-7.93059E-14
 -1      1887 8.67635E-03-5.65905E-04-8.19833E-14
 -1      1888 8.45504E-03-5.21057E-04-7.78588E-14
 -1      1889 8.82851E-03-5.70508E-04-8.46865E-14
 -1      1890 8.97960E-03-5.75688E-04-8.74153E-14
 -1      1891 8.75854E-03-5.29232E-04-8.32039E-14
 -1      1892 9.12963E-03-5.81233E-04-9.01667E-14
 -1      1893 9.27879E-03-5.86986E-04-9.29402E-14
 -1      1894 9.05816E-03-5.40028E-04-8.86521E-14
 -1      1895 9.42707E-03-5.92821E-04-9.57352E-14
 -1      1896 9.57464E-03-5.98632E-04-9.85497E-14
 -1      1897 9.35456E-03-5.51873E-04-9.41912E-14
 -1      1898 9.72151E-03-6.04352E-04-1.01386E-13
 -1      1899 9.86782E-03-6.09912E-04-1.04243E-13
 -1      1900 9.64835E-03-5.63757E-04-9.98135E-14
 -1      1901 1.00136E-02-6.15286E-04-1.07121E-13
 -1      1902 1.01589E-02-6.20431E-04-1.10020E-13
 -1      1903 9.94003E-03-5.75080E-04-1.05520E-13
 -1      1904 1.03038E-02-6.25344E-04-1.12941E-13
 -1      1905 1.04484E-02-6.30002E-04-1.15883E-13
 -1      1906 1.02301E-02-5.85522E-04-1.11311E-13
 -1      1907 1.05926E-02-6.34418E-04-1.18846E-13
 -1      1908 1.07366E-02-6.38580E-04-1.21828E-13
 -1      1909 1.05189E-02-5.94953E-04-1.17188E-13
 -1      1910 1.08804E-02-6.42510E-04-1.24831E-13
 -1      1911 1.10240E-02-6.46204E-04-1.27851E-13
 -1      1912 1.08067E-02-6.03362E-04-1.23143E-13
 -1      1913 1.11674E-02-6.49686E-04-1.30889E-13
 -1      1914 1.13107E-02-6.52957E-04-1.33946E-13
 -1      1915 1.10938E-02-6.10810E-04-1.29178E-13
 -1      1916 1.14539E-02-6.56044E-04-1.37019E-13
 -1      1917 1.15970E-02-6.58949E-04-1.40109E-13
 -1      1918 1.13803E-02-6.17397E-04-1.35283E-13
 -1      1919 1.17400E-02-6.61697E-04-1.43212E-13
 -1      1920 1.18829E-02-6.64294E-04-1.46331E-13
 -1      1921 1.16666E-02-6.23237E-04-1.41452E-13
 -1      1922 1.20258E-02-6.66760E-04-1.49465E-13
 -1      1923 1.21687E-02-6.69103E-04-1.52614E-13
 -1      1924 1.19525E-02-6.28450E-04-1.47684E-13
 -1      1925 1.23115E-02-6.71340E-04-1.55781E-13
 -1      1926 1.24543E-02-6.73478E-04-1.58964E-13
 -1      1927 1.22383E-02-6.33146E-04-1.53975E-13
 -1      1928 1.25971E-02-6.75532E-04-1.62163E-13
 -1      1929 1.27399E-02-6.77509E-04-1.65377E-13
 -1      1930 1.25240E-02-6.37428E-04-1.60333E-13
 -1      1931 1.28827E-02-6.79421E-04-1.68607E-13
 -1      1932 1.30255E-02-6.81275E-04-1.71851E-13
 -1      1933 1.28096E-02-6.41385E-04-1.66749E-13
 -1      1934 1.31683E-02-6.83080E-04-1.75111E-13
 -1      1935 1.33110E-02-6.84843E-04-1.78383E-13
 -1      1936 1.30953E-02-6.45092E-04-1.73228E-13
 -1      1937 1.34538E-02-6.86571E-04-1.81666E-13
 -1      1938 1.35966E-02-6.88268E-04-1.84959E-13
 -1      1939 1.33809E-02-6.48615E-04-1.79760E-13
 -1      1940 1.37394E-02-6.89943E-04-1.88258E-13
 -1      1941 1.38822E-02-6.91600E-04-1.91568E-13
 -1      1942 1.36665E-02-6.52009E-04-1.86333E-13
 -1      1943 1.40250E-02-6.93243E-04-1.94883E-13
 -1      1944 1.41678E-02-6.94878E-04-1.98203E-13
 -1      1945 1.39521E-02-6.55318E-04-1.92938E-13
 -1      1946 1.43107E-02-6.96508E-04-2.01534E-13
 -1      1947 1.44535E-02-6.98138E-04-2.04869E-13
 -1      1948 1.42378E-02-6.58583E-04-1.99575E-13
 -1      1949 1.45815E-02-7.01276E-04-2.07873E-13
 -1      1950 1.47244E-02-7.02915E-04-2.11220E-13
 -1      1951 1.47648E-02-6.69626E-04-2.11920E-13
 -1      1952 1.45086E-02-6.63345E-04-2.05904E-13
 -1      1953 1.19076E-03 4.21821E-04-1.11487E-15
 -1      1954 1.03905E-03 3.94544E-04-8.04261E-16
 -1      1955 1.00422E-03 3.64290E-04-8.44241E-16
 -1      1956 1.49351E-03 4.64741E-04-1.89752E-15
 -1      1957 1.34187E-03 4.44946E-04-1.47920E-15
 -1      1958 1.30768E-03 4.15413E-04-1.52260E-15
 -1      1959 1.79905E-03 4.98570E-04-2.89714E-15
 -1      1960 1.64570E-03 4.82406E-04-2.36993E-15
 -1      1961 1.61151E-03 4.53014E-04-2.41589E-15
 -1      1962 2.10976E-03 5.30192E-04-4.11419E-15
 -1      1963 1.95363E-03 5.14298E-04-3.47851E-15
 -1      1964 1.91851E-03 4.84446E-04-3.52493E-15
 -1      1965 2.42683E-03 5.66222E-04-5.54705E-15
 -1      1966 2.26747E-03 5.47307E-04-4.80373E-15
 -1      1967 2.23055E-03 5.16436E-04-4.84949E-15
 -1      1968 2.75031E-03 6.13221E-04-7.19399E-15
 -1      1969 2.58785E-03 5.88035E-04-6.34380E-15
 -1      1970 2.54859E-03 5.55649E-04-6.38801E-15
 -1      1971 3.07897E-03 6.77127E-04-9.05543E-15
 -1      1972 2.91420E-03 6.42849E-04-8.09785E-15
 -1      1973 2.87269E-03 6.08601E-04-8.13925E-15
 -1      1974 3.41015E-03 7.61723E-04-1.11313E-14
 -1      1975 3.24461E-03 7.16865E-04-1.00664E-14
 -1      1976 3.20179E-03 6.80744E-04-1.01037E-14
 -1      1977 3.73977E-03 8.65995E-04-1.34233E-14
 -1      1978 3.57565E-03 8.11835E-04-1.22504E-14
 -1      1979 3.53340E-03 7.74451E-04-1.22820E-14
 -1      1980 4.06289E-03 9.81068E-04-1.59361E-14
 -1      1981 3.90262E-03 9.23149E-04-1.46517E-14
 -1      1982 3.86348E-03 8.85954E-04-1.46767E-14
 -1      1983 4.37538E-03 1.08872E-03-1.86714E-14
 -1      1984 4.22067E-03 1.03721E-03-1.72754E-14
 -1      1985 4.18711E-03 1.00231E-03-1.72924E-14
 -1      1986 4.67649E-03 1.16466E-03-2.16338E-14
 -1      1987 4.52709E-03 1.13199E-03-2.01244E-14
 -1      1988 4.50057E-03 1.10128E-03-2.01326E-14
 -1      1989 4.97060E-03 1.18760E-03-2.48221E-14
 -1      1990 4.82367E-03 1.18336E-03-2.32001E-14
 -1      1991 4.80438E-03 1.15732E-03-2.32002E-14
 -1      1992 5.26593E-03 1.15009E-03-2.82327E-14
 -1      1993 5.11722E-03 1.17590E-03-2.64996E-14
 -1      1994 5.10456E-03 1.15317E-03-2.64925E-14
 -1      1995 5.57040E-03 1.06278E-03-3.18598E-14
 -1      1996 5.41646E-03 1.11132E-03-3.00199E-14
 -1      1997 5.40965E-03 1.08954E-03-3.00071E-14
 -1      1998 5.88744E-03 9.48656E-04-3.56927E-14
 -1      1999 5.72727E-03 1.00757E-03-3.37508E-14
 -1      2000 5.72549E-03 9.84845E-04-3.37329E-14
 -1      2001 6.21556E-03 8.31892E-04-3.97172E-14
 -1      2002 6.05041E-03 8.89513E-04-3.76823E-14
 -1      2003 6.05222E-03 8.65074E-04-3.76588E-14
 -1      2004 6.55041E-03 7.29608E-04-4.39174E-14
 -1      2005 6.38259E-03 7.78422E-04-4.17961E-14
 -1      2006 6.38602E-03 7.52377E-04-4.17687E-14
 -1      2007 6.88714E-03 6.49799E-04-4.82829E-14
 -1      2008 6.71895E-03 6.86836E-04-4.60802E-14
 -1      2009 6.72197E-03 6.59639E-04-4.60506E-14
 -1      2010 7.22185E-03 5.93297E-04-5.28039E-14
 -1      2011 7.05505E-03 6.18828E-04-5.05247E-14
 -1      2012 7.05609E-03 5.90947E-04-5.04912E-14
 -1      2013 7.55200E-03 5.56953E-04-5.74728E-14
 -1      2014 7.38768E-03 5.72887E-04-5.51211E-14
 -1      2015 7.38588E-03 5.44680E-04-5.50827E-14
 -1      2016 7.87626E-03 5.36181E-04-6.22820E-14
 -1      2017 7.71495E-03 5.44895E-04-5.98592E-14
 -1      2018 7.71009E-03 5.16615E-04-5.98170E-14
 -1      2019 8.19425E-03 5.26459E-04-6.72181E-14
 -1      2020 8.03605E-03 5.30166E-04-6.47343E-14
 -1      2021 8.02835E-03 5.01981E-04-6.46862E-14
 -1      2022 8.50621E-03 5.23993E-04-7.22790E-14
 -1      2023 8.35096E-03 5.24491E-04-6.97347E-14
 -1      2024 8.34084E-03 4.96505E-04-6.96815E-14
 -1      2025 8.81271E-03 5.25883E-04-7.74549E-14
 -1      2026 8.66009E-03 5.24515E-04-7.48523E-14
 -1      2027 8.64807E-03 4.96785E-04-7.47971E-14
 -1      2028 9.11451E-03 5.30056E-04-8.27430E-14
 -1      2029 8.96414E-03 5.27765E-04-8.00848E-14
 -1      2030 8.95070E-03 5.00313E-04-8.00252E-14
 -1      2031 9.41238E-03 5.35107E-04-8.81380E-14
 -1      2032 9.26387E-03 5.32523E-04-8.54273E-14
 -1      2033 9.24944E-03 5.05343E-04-8.53631E-14
 -1      2034 9.70709E-03 5.40140E-04-9.36412E-14
 -1      2035 9.56008E-03 5.37655E-04-9.08767E-14
 -1      2036 9.54497E-03 5.10729E-04-9.08088E-14
 -1      2037 9.99928E-03 5.44622E-04-9.92450E-14
 -1      2038 9.85345E-03 5.42465E-04-9.64305E-14
 -1      2039 9.83792E-03 5.15764E-04-9.63566E-14
 -1      2040 1.02895E-02 5.48276E-04-1.04943E-13
 -1      2041 1.01446E-02 5.46558E-04-1.02083E-13
 -1      2042 1.01289E-02 5.20051E-04-1.02004E-13
 -1      2043 1.05783E-02 5.50991E-04-1.10733E-13
 -1      2044 1.04341E-02 5.49750E-04-1.07826E-13
 -1      2045 1.04182E-02 5.23405E-04-1.07743E-13
 -1      2046 1.08661E-02 5.52765E-04-1.16614E-13
 -1      2047 1.07223E-02 5.51992E-04-1.13662E-13
 -1      2048 1.07064E-02 5.25778E-04-1.13575E-13
 -1      2049 1.11530E-02 5.53656E-04-1.22577E-13
 -1      2050 1.10096E-02 5.53315E-04-1.19585E-13
 -1      2051 1.09937E-02 5.27207E-04-1.19493E-13
 -1      2052 1.14394E-02 5.53760E-04-1.28612E-13
 -1      2053 1.12962E-02 5.53800E-04-1.25586E-13
 -1      2054 1.12804E-02 5.27776E-04-1.25487E-13
 -1      2055 1.17254E-02 5.53184E-04-1.34707E-13
 -1      2056 1.15824E-02 5.53551E-04-1.31653E-13
 -1      2057 1.15667E-02 5.27590E-04-1.31549E-13
 -1      2058 1.20112E-02 5.52038E-04-1.40853E-13
 -1      2059 1.18683E-02 5.52676E-04-1.37774E-13
 -1      2060 1.18526E-02 5.26764E-04-1.37665E-13
 -1      2061 1.22968E-02 5.50424E-04-1.47050E-13
 -1      2062 1.21540E-02 5.51284E-04-1.43946E-13
 -1      2063 1.21384E-02 5.25407E-04-1.43834E-13
 -1      2064 1.25823E-02 5.48437E-04-1.53288E-13
 -1      2065 1.24396E-02 5.49472E-04-1.50164E-13
 -1      2066 1.24241E-02 5.23621E-04-1.50050E-13
 -1      2067 1.28679E-02 5.46157E-04-1.59559E-13
 -1      2068 1.27251E-02 5.47329E-04-1.56418E-13
 -1      2069 1.27096E-02 5.21495E-04-1.56305E-13
 -1      2070 1.31534E-02 5.43654E-04-1.65856E-13
 -1      2071 1.30106E-02 5.44930E-04-1.62705E-13
 -1      2072 1.29952E-02 5.19107E-04-1.62589E-13
 -1      2073 1.34389E-02 5.40990E-04-1.72175E-13
 -1      2074 1.32961E-02 5.42340E-04-1.69014E-13
 -1      2075 1.32808E-02 5.16524E-04-1.68899E-13
 -1      2076 1.37245E-02 5.38213E-04-1.78519E-13
 -1      2077 1.35817E-02 5.39613E-04-1.75344E-13
 -1      2078 1.35663E-02 5.13800E-04-1.75230E-13
 -1      2079 1.40101E-02 5.35368E-04-1.84884E-13
 -1      2080 1.38673E-02 5.36797E-04-1.81696E-13
 -1      2081 1.38519E-02 5.10985E-04-1.81583E-13
 -1      2082 1.42957E-02 5.32491E-04-1.91284E-13
 -1      2083 1.41529E-02 5.33932E-04-1.88080E-13
 -1      2084 1.41376E-02 5.08118E-04-1.87964E-13
 -1      2085 1.45814E-02 5.29615E-04-1.97713E-13
 -1      2086 1.44385E-02 5.31052E-04-1.94494E-13
 -1      2087 1.44232E-02 5.05234E-04-1.94377E-13
 -1      2088 1.48164E-02 5.24279E-04-2.03043E-13
 -1      2089 1.46735E-02 5.25702E-04-1.99818E-13
 -1      2090 1.46582E-02 4.99881E-04-1.99699E-13
 -1      2091 1.48426E-02 4.92061E-04-2.03911E-13
 -1      2092 1.48184E-02 2.57463E-04-2.05376E-13
 -1      2093 1.48171E-02 2.99645E-04-2.04983E-13
 -1      2094 1.48157E-02 3.41820E-04-2.04592E-13
 -1      2095 1.48144E-02 3.83989E-04-2.04202E-13
 -1      2096 1.46927E-02 3.21980E-04-2.02003E-13
 -1      2097 1.48291E-02 4.16950E-04-2.04252E-13
 -1      2098 1.48278E-02 4.59108E-04-2.03860E-13
 -1      2099 1.47356E-02 4.63018E-04-2.01756E-13
 -1      2100 1.47061E-02 3.97108E-04-2.01659E-13
 -1      2101 1.48211E-02 1.74511E-04-2.06149E-13
 -1      2102 1.48198E-02 2.15990E-04-2.05760E-13
 -1      2103 1.46954E-02 2.38341E-04-2.02778E-13
 -1      2104 1.48239E-02 9.01082E-05-2.06949E-13
 -1      2105 1.48225E-02 1.32312E-04-2.06547E-13
 -1      2106 1.46981E-02 1.54682E-04-2.03554E-13
 -1      2107 1.48268E-02 5.68962E-06-2.07756E-13
 -1      2108 1.48253E-02 4.79002E-05-2.07352E-13
 -1      2109 1.47009E-02 7.02926E-05-2.04345E-13
 -1      2110 1.48297E-02-7.87380E-05-2.08573E-13
 -1      2111 1.48282E-02-3.65238E-05-2.08163E-13
 -1      2112 1.47038E-02-1.41086E-05-2.05145E-13
 -1      2113 1.48328E-02-1.63168E-04-2.09384E-13
 -1      2114 1.48312E-02-1.20953E-04-2.08979E-13
 -1      2115 1.47067E-02-9.85155E-05-2.05947E-13
 -1      2116 1.48359E-02-2.47591E-04-2.10187E-13
 -1      2117 1.48343E-02-2.05381E-04-2.09785E-13
 -1      2118 1.47098E-02-1.82922E-04-2.06745E-13
 -1      2119 1.48391E-02-3.30572E-04-2.10969E-13
 -1      2120 1.48375E-02-2.89084E-04-2.10580E-13
 -1      2121 1.47129E-02-2.66608E-04-2.07530E-13
 -1      2122 1.48423E-02-4.14965E-04-2.11753E-13
 -1      2123 1.48407E-02-3.72772E-04-2.11362E-13
 -1      2124 1.47161E-02-3.50283E-04-2.08303E-13
 -1      2125 1.48457E-02-4.99335E-04-2.12510E-13
 -1      2126 1.48440E-02-4.57153E-04-2.12133E-13
 -1      2127 1.47194E-02-4.34656E-04-2.09065E-13
 -1      2128 1.48490E-02-5.83679E-04-2.13245E-13
 -1      2129 1.48473E-02-5.41510E-04-2.12881E-13
 -1      2130 1.47228E-02-5.19010E-04-2.09806E-13
 -1      2131 6.79829E-03 1.50585E-04-3.68402E-14
 -1      2132 6.93980E-03 9.82531E-05-3.73876E-14
 -1      2133 7.20737E-03-1.24050E-05-3.88843E-14
 -1      2134 7.20602E-03-2.96626E-05-3.87781E-14
 -1      2135 7.05999E-03 5.04966E-05-3.79926E-14
 -1      2136 7.14874E-03 1.74408E-05-3.86044E-14
 -1      2137 7.00027E-03 5.55238E-05-3.85742E-14
 -1      2138 6.42680E-03 3.21608E-04-3.51496E-14
 -1      2139 6.60358E-03 2.35474E-04-3.59782E-14
 -1      2140 6.02094E-03 5.38052E-04-3.31470E-14
 -1      2141 6.21655E-03 4.30593E-04-3.41201E-14
 -1      2142 3.27968E-04-6.40667E-05-3.54859E-16
 -1      2143 3.32706E-04-7.66078E-05-3.46606E-16
 -1      2144 4.52631E-04-1.12260E-04-5.05265E-16
 -1      2145 4.38748E-04-7.89908E-05-5.27031E-16
 -1      2146 5.26440E-03 9.13804E-04-2.87320E-14
 -1      2147 5.41699E-03 8.50916E-04-2.97399E-14
 -1      2148 4.94965E-03 9.74342E-04-2.65868E-14
 -1      2149 5.10058E-03 9.56520E-04-2.76478E-14
 -1      2150 5.17856E-03 9.43781E-04-2.82787E-14
 -1      2151 4.56849E-03 8.96272E-04-2.42137E-14
 -1      2152 4.73132E-03 9.49104E-04-2.51448E-14
 -1      2153 4.23466E-03 7.40305E-04-2.25264E-14
 -1      2154 4.40308E-03 8.28663E-04-2.33621E-14
 -1      2155 4.50011E-03 8.66679E-04-2.34806E-14
 -1      2156 3.82813E-03 5.18152E-04-2.09257E-14
 -1      2157 4.01052E-03 6.18920E-04-2.15564E-14
 -1      2158 3.43981E-03 3.15591E-04-1.97444E-14
 -1      2159 3.62137E-03 4.07673E-04-2.02488E-14
 -1      2160 3.07378E-03 1.59775E-04-1.89849E-14
 -1      2161 3.23479E-03 2.27303E-04-1.93363E-14
 -1      2162 2.81147E-03 5.31067E-05-1.82990E-14
 -1      2163 2.92562E-03 9.38108E-05-1.85536E-14
 -1      2164 2.67536E-03-1.45682E-06-1.83227E-14
 -1      2165 2.71255E-03 1.70851E-05-1.82689E-14
 -1      2166 2.71730E-03-4.60341E-05-1.86194E-14
 -1      2167 2.67817E-03-2.54150E-05-1.84686E-14
 -1      2168 2.90611E-03-1.09549E-04-1.90044E-14
 -1      2169 2.79875E-03-7.46740E-05-1.87251E-14
 -1      2170 3.21985E-03-2.30263E-04-1.98552E-14
 -1      2171 3.04854E-03-1.64572E-04-1.94228E-14
 -1      2172 2.96761E-03-1.13202E-04-1.86083E-14
 -1      2173 3.67654E-03-4.50603E-04-2.13669E-14
 -1      2174 3.46934E-03-3.43560E-04-2.06295E-14
 -1      2175 4.10822E-03-7.02165E-04-2.33872E-14
 -1      2176 3.92479E-03-5.91237E-04-2.24627E-14
 -1      2177 4.44944E-03-8.79665E-04-2.52197E-14
 -1      2178 4.28038E-03-7.95565E-04-2.42924E-14
 -1      2179 4.21918E-03-7.46862E-04-2.35857E-14
 -1      2180 4.80293E-03-9.94627E-04-2.73896E-14
 -1      2181 4.65226E-03-9.55689E-04-2.63902E-14
 -1      2182 5.12608E-03-9.88672E-04-2.96257E-14
 -1      2183 4.97402E-03-1.00618E-03-2.85437E-14
 -1      2184 5.49727E-03-8.55995E-04-3.20668E-14
 -1      2185 5.33122E-03-9.30030E-04-3.10465E-14
 -1      2186 5.86508E-03-6.61685E-04-3.40828E-14
 -1      2187 5.68972E-03-7.60633E-04-3.31546E-14
 -1      2188 6.26585E-03-4.47603E-04-3.58229E-14
 -1      2189 6.08074E-03-5.48076E-04-3.50308E-14
 -1      2190 6.64518E-03-2.62843E-04-3.72491E-14
 -1      2191 6.47296E-03-3.43184E-04-3.66443E-14
 -1      2192 6.96142E-03-1.32596E-04-3.82504E-14
 -1      2193 6.82181E-03-1.87720E-04-3.77974E-14
 -1      2194 7.16730E-03-5.35704E-05-3.88582E-14
 -1      2195 7.09199E-03-7.89001E-05-3.87659E-14
 -1      2196 5.61535E-03 7.55653E-04-3.09896E-14
 -1      2197 5.79495E-03 6.55311E-04-3.20327E-14
 -1      2198 5.88392E-03 5.87670E-04-3.30055E-14
 -1      2199 6.29913E-04-2.62548E-04-5.62023E-16
 -1      2200 5.50088E-03 8.04361E-04-3.06191E-14
 -1      2201 6.86893E-04-2.51136E-04-7.39629E-16
 -1      2202 7.19158E-03-4.14029E-06-3.94710E-14
 -1      2203 7.21660E-03-1.41941E-05-4.03454E-14
 -1      2204 7.16192E-03 1.60005E-06-4.00578E-14
 -1      2205 6.69320E-03 1.72475E-04-3.70859E-14
 -1      2206 1.48087E-02-6.16979E-04-2.12554E-13
 -1      2207 7.19393E-03-3.64940E-05-3.98375E-14
 -1      2208 6.29844E-03 3.59736E-04-3.51719E-14
 -1      2209 7.03144E-03-8.86276E-05-3.93948E-14
 -1      2210 6.72443E-03-2.04066E-04-3.83172E-14
 -1      2211 6.35202E-03-3.76475E-04-3.69256E-14
 -1      2212 5.94985E-03-5.94876E-04-3.51317E-14
 -1      2213 5.57732E-03-8.07207E-04-3.30704E-14
 -1      2214 5.22285E-03-9.69210E-04-3.05360E-14
 -1      2215 4.56378E-03-9.23688E-04-2.56411E-14
 -1      2216 3.34105E-03-2.61974E-04-1.97660E-14
 -1      2217 3.22052E-03-2.00436E-04-1.89248E-14
 -1      2218 3.44714E-03-3.02855E-04-1.96673E-14
 -1      2219 2.75103E-03-4.82840E-05-1.81070E-14
 -1      2220 2.66788E-03-1.26263E-05-1.78640E-14
 -1      2221 2.75445E-03 2.55760E-05-1.77475E-14
 -1      2222 3.00486E-03 1.05787E-04-1.81938E-14
 -1      2223 3.35099E-03 2.50009E-04-1.90132E-14
 -1      2224 4.14490E-03 6.77586E-04-2.16776E-14
 -1      2225 4.75191E-03 9.62151E-04-2.49201E-14
 -1      2226 4.84352E-03 9.76424E-04-2.57473E-14
 -1      2227 4.93491E-03 9.87073E-04-2.63512E-14
 -1      2228 3.74106E-03 4.45023E-04-2.00655E-14
 -1      2229 3.82169E-03-5.12400E-04-2.15993E-14
 -1      2230 3.71790E-03-4.44218E-04-2.07547E-14
 -1      2231 3.94599E-03-5.76776E-04-2.18262E-14
 -1      2232 4.88760E-03-1.01267E-03-2.79603E-14
 -1      2233 1.05656E-03 3.41581E-04-1.09210E-15
 -1      2234 9.04824E-04 3.12027E-04-7.94219E-16
 -1      2235 5.26380E-04-3.53417E-05-7.60527E-16
 -1      2236 5.30722E-04-4.70565E-05-7.62045E-16
 -1      2237 5.36128E-04-5.99671E-05-7.61313E-16
 -1      2238 5.42457E-04-7.42512E-05-7.58264E-16
 -1      2239 6.44091E-04-6.40681E-05-1.02973E-15
 -1      2240 5.19920E-04 5.30976E-06-7.37583E-16
 -1      2241 5.19830E-04-4.41701E-06-7.45863E-16
 -1      2242 5.23507E-04 2.55307E-05-7.16359E-16
 -1      2243 5.21160E-04 1.52274E-05-7.27906E-16
 -1      2244 6.27566E-04 1.23247E-05-9.91503E-16
 -1      2245 5.31275E-04 4.80394E-05-6.88238E-16
 -1      2246 5.26901E-04 3.63551E-05-7.03444E-16
 -1      2247 6.33535E-04 3.70179E-05-9.61864E-16
 -1      2248 5.43154E-04 7.56471E-05-6.49952E-16
 -1      2249 5.36759E-04 6.11474E-05-6.70579E-16
 -1      2250 6.44877E-04 6.53084E-05-9.22141E-16
 -1      2251 5.58889E-04 1.10164E-04-5.98452E-16
 -1      2252 5.50576E-04 9.19336E-05-6.26303E-16
 -1      2253 6.61314E-04 9.97589E-05-8.69273E-16
 -1      2254 5.79061E-04 1.54193E-04-5.28427E-16
 -1      2255 5.68420E-04 1.30843E-04-5.66428E-16
 -1      2256 6.82631E-04 1.42487E-04-7.99125E-16
 -1      2257 1.35905E-03 3.87669E-04-1.84588E-15
 -1      2258 1.20775E-03 3.66643E-04-1.44191E-15
 -1      2259 1.10926E-03 3.18582E-04-1.35360E-15
 -1      2260 9.46521E-04-2.90338E-04-1.38562E-15
 -1      2261 1.09697E-03-3.16955E-04-1.80982E-15
 -1      2262 5.40811E-03 8.53784E-04-3.02312E-14
 -1      2263 5.57156E-03 7.61227E-04-3.14940E-14
 -1      2264 1.24719E-03-3.39539E-04-2.29275E-15
 -1      2265 1.39776E-03-3.58630E-04-2.83532E-15
 -1      2266 1.14965E-03-2.93950E-04-2.09335E-15
 -1      2267 1.54851E-03-3.75366E-04-3.43639E-15
 -1      2268 1.69986E-03-3.90271E-04-4.09635E-15
 -1      2269 1.44759E-03-3.30897E-04-3.18352E-15
 -1      2270 1.85191E-03-4.04401E-04-4.81338E-15
 -1      2271 2.00493E-03-4.18346E-04-5.58737E-15
 -1      2272 1.74722E-03-3.59619E-04-4.50455E-15
 -1      2273 2.15916E-03-4.33105E-04-6.41781E-15
 -1      2274 2.31473E-03-4.49392E-04-7.30489E-15
 -1      2275 2.04993E-03-3.86082E-04-6.05204E-15
 -1      2276 2.47203E-03-4.68154E-04-8.24667E-15
 -1      2277 2.63098E-03-4.90249E-04-9.24399E-15
 -1      2278 2.35762E-03-4.16586E-04-7.82149E-15
 -1      2279 2.79219E-03-5.16506E-04-1.02957E-14
 -1      2280 2.95525E-03-5.47861E-04-1.14015E-14
 -1      2281 2.67262E-03-4.57907E-04-9.80899E-15
 -1      2282 3.12094E-03-5.84844E-04-1.25609E-14
 -1      2283 3.28835E-03-6.28244E-04-1.37742E-14
 -1      2284 2.99743E-03-5.17132E-04-1.20106E-14
 -1      2285 3.45831E-03-6.77998E-04-1.50406E-14
 -1      2286 3.62919E-03-7.34099E-04-1.63616E-14
 -1      2287 3.33384E-03-6.00748E-04-1.44251E-14
 -1      2288 3.80157E-03-7.95530E-04-1.77375E-14
 -1      2289 3.97333E-03-8.60523E-04-1.91674E-14
 -1      2290 3.68104E-03-7.11983E-04-1.70532E-14
 -1      2291 4.14447E-03-9.26727E-04-2.06523E-14
 -1      2292 4.31317E-03-9.89910E-04-2.21929E-14
 -1      2293 4.03349E-03-8.45382E-04-1.98980E-14
 -1      2294 4.47868E-03-1.04670E-03-2.37902E-14
 -1      2295 4.64158E-03-1.09140E-03-2.54443E-14
 -1      2296 4.38084E-03-9.79797E-04-2.29641E-14
 -1      2297 4.80064E-03-1.12092E-03-2.71559E-14
 -1      2298 4.95950E-03-1.13155E-03-2.89226E-14
 -1      2299 4.71460E-03-1.07763E-03-2.62582E-14
 -1      2300 5.11684E-03-1.12256E-03-3.07448E-14
 -1      2301 5.27722E-03-1.09512E-03-3.26233E-14
 -1      2302 5.03812E-03-1.10120E-03-2.97822E-14
 -1      2303 5.43936E-03-1.05135E-03-3.45534E-14
 -1      2304 5.60555E-03-9.96488E-04-3.65332E-14
 -1      2305 5.36535E-03-1.04047E-03-3.35274E-14
 -1      2306 5.77475E-03-9.33932E-04-3.85623E-14
 -1      2307 5.94610E-03-8.69194E-04-4.06399E-14
 -1      2308 5.70664E-03-9.21570E-04-3.74825E-14
 -1      2309 6.11917E-03-8.05339E-04-4.27612E-14
 -1      2310 6.29192E-03-7.45324E-04-4.49251E-14
 -1      2311 6.05869E-03-7.85973E-04-4.16278E-14
 -1      2312 6.46460E-03-6.90964E-04-4.71294E-14
 -1      2313 6.63525E-03-6.43133E-04-4.93752E-14
 -1      2314 6.41094E-03-6.64823E-04-4.59494E-14
 -1      2315 6.80459E-03-6.02466E-04-5.16603E-14
 -1      2316 6.97136E-03-5.68549E-04-5.39833E-14
 -1      2317 6.75494E-03-5.71446E-04-5.04322E-14
 -1      2318 7.13635E-03-5.41272E-04-5.63442E-14
 -1      2319 7.29894E-03-5.19821E-04-5.87381E-14
 -1      2320 7.08745E-03-5.07068E-04-5.50694E-14
 -1      2321 7.45975E-03-5.03700E-04-6.11690E-14
 -1      2322 7.61856E-03-4.92106E-04-6.36329E-14
 -1      2323 7.40909E-03-4.67355E-04-5.98506E-14
 -1      2324 7.77578E-03-4.84419E-04-6.61287E-14
 -1      2325 7.93141E-03-4.79985E-04-6.86572E-14
 -1      2326 7.72195E-03-4.46566E-04-6.47681E-14
 -1      2327 8.08569E-03-4.78215E-04-7.12153E-14
 -1      2328 8.23872E-03-4.78621E-04-7.38020E-14
 -1      2329 8.02821E-03-4.39304E-04-6.98143E-14
 -1      2330 8.39061E-03-4.80716E-04-7.64167E-14
 -1      2331 8.54152E-03-4.84150E-04-7.90594E-14
 -1      2332 8.32959E-03-4.41111E-04-7.49799E-14
 -1      2333 8.69148E-03-4.88557E-04-8.17276E-14
 -1      2334 8.84066E-03-4.93693E-04-8.44213E-14
 -1      2335 8.62734E-03-4.48560E-04-8.02545E-14
 -1      2336 8.98904E-03-4.99304E-04-8.71410E-14
 -1      2337 9.13680E-03-5.05224E-04-8.98841E-14
 -1      2338 8.92233E-03-4.59155E-04-8.56338E-14
 -1      2339 9.28391E-03-5.11288E-04-9.26491E-14
 -1      2340 9.43052E-03-5.17387E-04-9.54364E-14
 -1      2341 9.21520E-03-4.71165E-04-9.11118E-14
 -1      2342 9.57661E-03-5.23424E-04-9.82453E-14
 -1      2343 9.72230E-03-5.29329E-04-1.01073E-13
 -1      2344 9.50639E-03-4.83444E-04-9.66787E-14
 -1      2345 9.86756E-03-5.35053E-04-1.03922E-13
 -1      2346 1.00125E-02-5.40554E-04-1.06794E-13
 -1      2347 9.79625E-03-4.95287E-04-1.02329E-13
 -1      2348 1.01571E-02-5.45816E-04-1.09686E-13
 -1      2349 1.03015E-02-5.50817E-04-1.12599E-13
 -1      2350 1.00851E-02-5.06296E-04-1.08063E-13
 -1      2351 1.04456E-02-5.55558E-04-1.15534E-13
 -1      2352 1.05896E-02-5.60031E-04-1.18488E-13
 -1      2353 1.03731E-02-5.16290E-04-1.13883E-13
 -1      2354 1.07333E-02-5.64252E-04-1.21462E-13
 -1      2355 1.08769E-02-5.68218E-04-1.24457E-13
 -1      2356 1.06604E-02-5.25223E-04-1.19785E-13
 -1      2357 1.10204E-02-5.71950E-04-1.27470E-13
 -1      2358 1.11637E-02-5.75453E-04-1.30501E-13
 -1      2359 1.09473E-02-5.33140E-04-1.25766E-13
 -1      2360 1.13070E-02-5.78751E-04-1.33550E-13
 -1      2361 1.14501E-02-5.81848E-04-1.36615E-13
 -1      2362 1.12338E-02-5.40132E-04-1.31821E-13
 -1      2363 1.15932E-02-5.84769E-04-1.39696E-13
 -1      2364 1.17363E-02-5.87521E-04-1.42793E-13
 -1      2365 1.15200E-02-5.46313E-04-1.37943E-13
 -1      2366 1.18792E-02-5.90126E-04-1.45902E-13
 -1      2367 1.20222E-02-5.92592E-04-1.49029E-13
 -1      2368 1.18060E-02-5.51805E-04-1.44127E-13
 -1      2369 1.21651E-02-5.94938E-04-1.52175E-13
 -1      2370 1.23080E-02-5.97172E-04-1.55334E-13
 -1      2371 1.20919E-02-5.56727E-04-1.50375E-13
 -1      2372 1.24509E-02-5.99310E-04-1.58508E-13
 -1      2373 1.25937E-02-6.01360E-04-1.61695E-13
 -1      2374 1.23777E-02-5.61186E-04-1.56686E-13
 -1      2375 1.27366E-02-6.03335E-04-1.64900E-13
 -1      2376 1.28794E-02-6.05242E-04-1.68119E-13
 -1      2377 1.26635E-02-5.65278E-04-1.63054E-13
 -1      2378 1.30222E-02-6.07093E-04-1.71353E-13
 -1      2379 1.31651E-02-6.08893E-04-1.74601E-13
 -1      2380 1.29492E-02-5.69086E-04-1.69484E-13
 -1      2381 1.33079E-02-6.10651E-04-1.77860E-13
 -1      2382 1.34507E-02-6.12374E-04-1.81131E-13
 -1      2383 1.32349E-02-5.72681E-04-1.75966E-13
 -1      2384 1.35935E-02-6.14067E-04-1.84414E-13
 -1      2385 1.37364E-02-6.15737E-04-1.87701E-13
 -1      2386 1.35206E-02-5.76121E-04-1.82495E-13
 -1      2387 1.38792E-02-6.17389E-04-1.90998E-13
 -1      2388 1.40220E-02-6.19027E-04-1.94304E-13
 -1      2389 1.38062E-02-5.79456E-04-1.89064E-13
 -1      2390 1.41648E-02-6.20657E-04-1.97618E-13
 -1      2391 1.43077E-02-6.22282E-04-2.00940E-13
 -1      2392 1.40919E-02-5.82728E-04-1.95667E-13
 -1      2393 6.94051E-03 6.39235E-05-3.92265E-14
 -1      2394 7.05468E-03 3.09438E-05-3.98474E-14
 -1      2395 1.96877E-03 4.52112E-04-3.99419E-15
 -1      2396 1.81512E-03 4.37406E-04-3.37683E-15
 -1      2397 2.27978E-03 4.83902E-04-5.38904E-15
 -1      2398 2.12364E-03 4.67400E-04-4.66498E-15
 -1      2399 2.01659E-03 4.19849E-04-4.47456E-15
 -1      2400 2.59667E-03 5.24266E-04-6.99454E-15
 -1      2401 2.43751E-03 5.02623E-04-6.16506E-15
 -1      2402 2.32617E-03 4.51364E-04-5.93778E-15
 -1      2403 2.92011E-03 5.79741E-04-8.81260E-15
 -1      2404 2.75771E-03 5.49744E-04-7.87737E-15
 -1      2405 2.64211E-03 4.92658E-04-7.61072E-15
 -1      2406 3.24983E-03 6.55675E-04-1.08406E-14
 -1      2407 3.08446E-03 6.14893E-04-9.79986E-15
 -1      2408 2.96582E-03 5.50313E-04-9.49287E-15
 -1      2409 3.58405E-03 7.54067E-04-1.30819E-14
 -1      2410 3.41684E-03 7.02133E-04-1.19348E-14
 -1      2411 3.29787E-03 6.29779E-04-1.15846E-14
 -1      2412 3.91880E-03 8.70082E-04-1.55389E-14
 -1      2413 3.75194E-03 8.10536E-04-1.42831E-14
 -1      2414 3.63684E-03 7.32962E-04-1.38875E-14
 -1      2415 4.24833E-03 9.88625E-04-1.82157E-14
 -1      2416 4.08468E-03 9.30496E-04-1.68495E-14
 -1      2417 3.97805E-03 8.54149E-04-1.64048E-14
 -1      2418 4.56790E-03 1.08427E-03-2.11183E-14
 -1      2419 4.40928E-03 1.04121E-03-1.96382E-14
 -1      2420 4.31407E-03 9.75447E-04-1.91430E-14
 -1      2421 4.87812E-03 1.12939E-03-2.42498E-14
 -1      2422 4.72337E-03 1.11467E-03-2.26558E-14
 -1      2423 4.63910E-03 1.06726E-03-2.21082E-14
 -1      2424 5.18630E-03 1.10837E-03-2.76060E-14
 -1      2425 5.03128E-03 1.12729E-03-2.58994E-14
 -1      2426 4.95478E-03 1.09920E-03-2.53032E-14
 -1      2427 5.50175E-03 1.02738E-03-3.11845E-14
 -1      2428 5.34230E-03 1.07393E-03-2.93687E-14
 -1      2429 5.27096E-03 1.05858E-03-2.87250E-14
 -1      2430 5.82858E-03 9.11434E-04-3.49712E-14
 -1      2431 5.66379E-03 9.71884E-04-3.30528E-14
 -1      2432 5.59744E-03 9.59547E-04-3.23680E-14
 -1      2433 6.16380E-03 7.88720E-04-3.89549E-14
 -1      2434 5.99564E-03 8.49400E-04-3.69390E-14
 -1      2435 5.93528E-03 8.33803E-04-3.62172E-14
 -1      2436 6.50174E-03 6.79643E-04-4.31188E-14
 -1      2437 6.33303E-03 7.31657E-04-4.10148E-14
 -1      2438 6.27822E-03 7.10535E-04-4.02576E-14
 -1      2439 6.83737E-03 5.93917E-04-4.74503E-14
 -1      2440 6.67028E-03 6.33663E-04-4.52644E-14
 -1      2441 6.61904E-03 6.07249E-04-4.44754E-14
 -1      2442 7.16785E-03 5.32852E-04-5.19352E-14
 -1      2443 7.00350E-03 5.60440E-04-4.96731E-14
 -1      2444 6.95321E-03 5.29827E-04-4.88544E-14
 -1      2445 7.49213E-03 4.93300E-04-5.65705E-14
 -1      2446 7.33087E-03 5.10661E-04-5.42354E-14
 -1      2447 7.27930E-03 4.76917E-04-5.33862E-14
 -1      2448 7.81021E-03 4.70481E-04-6.13433E-14
 -1      2449 7.65196E-03 4.80088E-04-5.89390E-14
 -1      2450 7.59776E-03 4.44101E-04-5.80609E-14
 -1      2451 8.12255E-03 4.59638E-04-6.62462E-14
 -1      2452 7.96706E-03 4.63816E-04-6.37788E-14
 -1      2453 7.90969E-03 4.26301E-04-6.28704E-14
 -1      2454 8.42979E-03 4.56737E-04-7.12782E-14
 -1      2455 8.27675E-03 4.57396E-04-6.87475E-14
 -1      2456 8.21626E-03 4.18930E-04-6.78129E-14
 -1      2457 8.73264E-03 4.58668E-04-7.64244E-14
 -1      2458 8.58171E-03 4.57250E-04-7.38363E-14
 -1      2459 8.51845E-03 4.18279E-04-7.28765E-14
 -1      2460 9.03177E-03 4.63181E-04-8.16856E-14
 -1      2461 8.88261E-03 4.60709E-04-7.90416E-14
 -1      2462 8.81710E-03 4.21565E-04-7.80562E-14
 -1      2463 9.32780E-03 4.68739E-04-8.70534E-14
 -1      2464 9.18012E-03 4.65903E-04-8.43564E-14
 -1      2465 9.11287E-03 4.26813E-04-8.33487E-14
 -1      2466 9.62131E-03 4.74348E-04-9.25269E-14
 -1      2467 9.47483E-03 4.71584E-04-8.97778E-14
 -1      2468 9.40630E-03 4.32695E-04-8.87474E-14
 -1      2469 9.91280E-03 4.79413E-04-9.81018E-14
 -1      2470 9.76727E-03 4.76977E-04-9.53019E-14
 -1      2471 9.69785E-03 4.38367E-04-9.42488E-14
 -1      2472 1.02027E-02 4.83615E-04-1.03774E-13
 -1      2473 1.00579E-02 4.81638E-04-1.00925E-13
 -1      2474 9.98790E-03 4.43339E-04-9.98488E-14
 -1      2475 1.04914E-02 4.86823E-04-1.09538E-13
 -1      2476 1.03472E-02 4.85351E-04-1.06645E-13
 -1      2477 1.02768E-02 4.47365E-04-1.05547E-13
 -1      2478 1.07791E-02 4.89023E-04-1.15392E-13
 -1      2479 1.06354E-02 4.88051E-04-1.12455E-13
 -1      2480 1.05648E-02 4.50359E-04-1.11335E-13
 -1      2481 1.10662E-02 4.90275E-04-1.21328E-13
 -1      2482 1.09227E-02 4.89766E-04-1.18349E-13
 -1      2483 1.08520E-02 4.52337E-04-1.17208E-13
 -1      2484 1.13527E-02 4.90674E-04-1.27336E-13
 -1      2485 1.12095E-02 4.90577E-04-1.24323E-13
 -1      2486 1.11388E-02 4.53377E-04-1.23162E-13
 -1      2487 1.16389E-02 4.90337E-04-1.33412E-13
 -1      2488 1.14959E-02 4.90593E-04-1.30367E-13
 -1      2489 1.14252E-02 4.53586E-04-1.29188E-13
 -1      2490 1.19249E-02 4.89378E-04-1.39540E-13
 -1      2491 1.17819E-02 4.89930E-04-1.36470E-13
 -1      2492 1.17113E-02 4.53081E-04-1.35275E-13
 -1      2493 1.22107E-02 4.87909E-04-1.45725E-13
 -1      2494 1.20678E-02 4.88702E-04-1.42626E-13
 -1      2495 1.19972E-02 4.51982E-04-1.41418E-13
 -1      2496 1.24964E-02 4.86031E-04-1.51951E-13
 -1      2497 1.23535E-02 4.87016E-04-1.48830E-13
 -1      2498 1.22830E-02 4.50397E-04-1.47613E-13
 -1      2499 1.27820E-02 4.83831E-04-1.58216E-13
 -1      2500 1.26392E-02 4.84967E-04-1.55079E-13
 -1      2501 1.25688E-02 4.48424E-04-1.53851E-13
 -1      2502 1.30676E-02 4.81385E-04-1.64507E-13
 -1      2503 1.29248E-02 4.82635E-04-1.61358E-13
 -1      2504 1.28544E-02 4.46151E-04-1.60125E-13
 -1      2505 1.33532E-02 4.78757E-04-1.70823E-13
 -1      2506 1.32104E-02 4.80091E-04-1.67664E-13
 -1      2507 1.31401E-02 4.43648E-04-1.66426E-13
 -1      2508 1.36389E-02 4.76002E-04-1.77164E-13
 -1      2509 1.34961E-02 4.77393E-04-1.73991E-13
 -1      2510 1.34258E-02 4.40979E-04-1.72750E-13
 -1      2511 1.39245E-02 4.73165E-04-1.83523E-13
 -1      2512 1.37817E-02 4.74592E-04-1.80340E-13
 -1      2513 1.37114E-02 4.38194E-04-1.79095E-13
 -1      2514 1.42102E-02 4.70286E-04-1.89915E-13
 -1      2515 1.40673E-02 4.71729E-04-1.86715E-13
 -1      2516 1.39971E-02 4.35338E-04-1.85465E-13
 -1      2517 1.44958E-02 4.67398E-04-1.96335E-13
 -1      2518 1.43530E-02 4.68841E-04-1.93122E-13
 -1      2519 1.42827E-02 4.32448E-04-1.91864E-13
 -1      2520 1.46435E-02 4.66932E-04-1.99650E-13
 -1      2521 1.45750E-02 1.34866E-04-2.00954E-13
 -1      2522 1.45736E-02 1.77050E-04-2.00565E-13
 -1      2523 1.45778E-02 5.04899E-05-2.01740E-13
 -1      2524 1.45764E-02 9.26792E-05-2.01347E-13
 -1      2525 1.44520E-02 1.15061E-04-1.98357E-13
 -1      2526 1.45696E-02 3.02150E-04-1.99413E-13
 -1      2527 1.45683E-02 3.44317E-04-1.99019E-13
 -1      2528 1.45723E-02 2.18873E-04-2.00179E-13
 -1      2529 1.45710E-02 2.60335E-04-1.99797E-13
 -1      2530 1.44466E-02 2.82685E-04-1.96816E-13
 -1      2531 1.44492E-02 1.99058E-04-1.97583E-13
 -1      2532 1.45808E-02-3.38944E-05-2.02531E-13
 -1      2533 1.45793E-02 8.29815E-06-2.02135E-13
 -1      2534 1.44548E-02 3.06976E-05-1.99134E-13
 -1      2535 1.45837E-02-1.18282E-04-2.03319E-13
 -1      2536 1.45822E-02-7.60884E-05-2.02925E-13
 -1      2537 1.44578E-02-5.36703E-05-1.99913E-13
 -1      2538 1.45868E-02-2.02669E-04-2.04103E-13
 -1      2539 1.45853E-02-1.60476E-04-2.03712E-13
 -1      2540 1.44608E-02-1.38040E-04-2.00688E-13
 -1      2541 1.45900E-02-2.85619E-04-2.04866E-13
 -1      2542 1.45884E-02-2.44145E-04-2.04485E-13
 -1      2543 1.44639E-02-2.21693E-04-2.01451E-13
 -1      2544 1.45932E-02-3.69990E-04-2.05630E-13
 -1      2545 1.45916E-02-3.27807E-04-2.05251E-13
 -1      2546 1.44670E-02-3.05341E-04-2.02207E-13
 -1      2547 1.45965E-02-4.54347E-04-2.06376E-13
 -1      2548 1.45949E-02-4.12171E-04-2.06006E-13
 -1      2549 1.44703E-02-3.89695E-04-2.02955E-13
 -1      2550 1.45999E-02-5.38686E-04-2.07101E-13
 -1      2551 1.45982E-02-4.96519E-04-2.06738E-13
 -1      2552 1.44737E-02-4.74037E-04-2.03685E-13
 -1      2553 1.46806E-02-6.13836E-04-2.09544E-13
 -1      2554 7.22135E-03-2.79436E-05-4.09089E-14
 -1      2555 7.18633E-03-3.68893E-05-4.09890E-14
 -1      2556 1.66243E-03 4.22230E-04-2.81291E-15
 -1      2557 1.51046E-03 4.06033E-04-2.30253E-15
 -1      2558 1.71171E-03 3.91479E-04-3.22194E-15
 -1      2559 6.59985E-03 1.95440E-04-3.75456E-14
 -1      2560 6.77952E-03 1.22124E-04-3.84299E-14
 -1      2561 7.08733E-03-6.48707E-05-4.08130E-14
 -1      2562 6.96091E-03-1.00637E-04-4.02853E-14
 -1      2563 6.06056E-04-1.98632E-04-6.73452E-16
 -1      2564 8.06493E-04-2.55216E-04-1.06131E-15
 -1      2565 8.62980E-04-2.39609E-04-1.27890E-15
 -1      2566 5.92422E-04-1.70058E-04-7.04664E-16
 -1      2567 6.19117E-03 3.99756E-04-3.53717E-14
 -1      2568 6.38079E-03 2.98936E-04-3.64231E-14
 -1      2569 2.76834E-03-4.49662E-05-1.74658E-14
 -1      2570 2.69876E-03-2.95026E-05-1.73744E-14
 -1      2571 5.20891E-04-1.42809E-05-7.52436E-16
 -1      2572 5.23073E-04-2.44790E-05-7.57275E-16
 -1      2573 6.32931E-04-3.59386E-05-1.02601E-15
 -1      2574 6.27328E-04-1.12684E-05-1.01305E-15
 -1      2575 3.65807E-03 3.87715E-04-1.92063E-14
 -1      2576 3.84088E-03 4.90829E-04-1.98545E-14
 -1      2577 5.11728E-03 9.66993E-04-2.78360E-14
 -1      2578 5.24673E-03 9.24198E-04-2.89249E-14
 -1      2579 4.43235E-03 8.32462E-04-2.27161E-14
 -1      2580 4.56519E-03 8.99326E-04-2.35484E-14
 -1      2581 4.06166E-03 6.19077E-04-2.08060E-14
 -1      2582 4.25491E-03 7.35741E-04-2.17488E-14
 -1      2583 3.24532E-03 1.88964E-04-1.81353E-14
 -1      2584 3.42581E-03 2.70058E-04-1.85167E-14
 -1      2585 2.94402E-03 7.58656E-05-1.73024E-14
 -1      2586 3.08694E-03 1.24496E-04-1.77151E-14
 -1      2587 3.15202E-03 1.53388E-04-1.72325E-14
 -1      2588 2.69796E-03 6.87372E-06-1.70560E-14
 -1      2589 2.78675E-03 2.75444E-05-1.70795E-14
 -1      2590 2.66234E-03-1.60189E-05-1.72313E-14
 -1      2591 2.65762E-03-8.93848E-06-1.70910E-14
 -1      2592 2.66030E-03-2.02081E-05-1.66019E-14
 -1      2593 3.02570E-03-1.23418E-04-1.80833E-14
 -1      2594 2.89684E-03-8.25927E-05-1.76899E-14
 -1      2595 4.96222E-03-1.02466E-03-2.86079E-14
 -1      2596 4.82772E-03-1.01302E-03-2.74528E-14
 -1      2597 4.31859E-03-7.98224E-04-2.37817E-14
 -1      2598 4.17132E-03-7.08615E-04-2.28920E-14
 -1      2599 4.65357E-03-9.65068E-04-2.60649E-14
 -1      2600 4.49319E-03-8.90591E-04-2.49081E-14
 -1      2601 4.41956E-03-8.57893E-04-2.41826E-14
 -1      2602 5.29338E-03-9.47892E-04-3.14498E-14
 -1      2603 5.12716E-03-1.00478E-03-3.00178E-14
 -1      2604 5.65562E-03-7.58063E-04-3.41743E-14
 -1      2605 5.49808E-03-8.51245E-04-3.30645E-14
 -1      2606 6.04534E-03-5.26776E-04-3.63428E-14
 -1      2607 5.86061E-03-6.37560E-04-3.53701E-14
 -1      2608 6.43771E-03-3.16251E-04-3.81893E-14
 -1      2609 6.25036E-03-4.13198E-04-3.73455E-14
 -1      2610 6.80569E-03-1.56935E-04-3.95928E-14
 -1      2611 6.64295E-03-2.21586E-04-3.90271E-14
 -1      2612 7.85649E-04 2.89046E-04-5.81837E-16
 -1      2613 6.32990E-04 2.47689E-04-3.79132E-16
 -1      2614 6.04107E-04 2.20810E-04-3.98702E-16
 -1      2615 8.41004E-04 2.72578E-04-7.76004E-16
 -1      2616 5.80356E-03 6.26128E-04-3.30726E-14
 -1      2617 5.99409E-03 5.10795E-04-3.42111E-14
 -1      2618 6.10558E-03 4.49632E-04-3.54371E-14
 -1      2619 3.95419E-03 5.61002E-04-1.99165E-14
 -1      2620 6.60313E-04-9.79230E-05-1.02166E-15
 -1      2621 5.49773E-04-9.02160E-05-7.52070E-16
 -1      2622 5.57972E-04-1.08117E-04-7.42258E-16
 -1      2623 1.40980E-03 3.59848E-04-2.18179E-15
 -1      2624 5.88345E-04 1.89326E-04-4.54443E-16
 -1      2625 5.69848E-03 6.92873E-04-3.26644E-14
 -1      2626 6.89725E-03-1.23495E-04-4.10046E-14
 -1      2627 6.54942E-03-2.63742E-04-3.94541E-14
 -1      2628 6.15738E-03-4.65422E-04-3.75889E-14
 -1      2629 7.12639E-03 9.55396E-06-4.07177E-14
 -1      2630 7.18322E-03-1.83155E-06-4.15952E-14
 -1      2631 7.08915E-03 2.18471E-05-4.13762E-14
 -1      2632 7.14971E-03-4.99117E-05-4.18880E-14
 -1      2633 6.86475E-03 9.06858E-05-3.96927E-14
 -1      2634 1.45732E-02 4.30529E-04-1.98388E-13
 -1      2635 1.45585E-02 3.97576E-04-1.98343E-13
 -1      2636 5.76957E-03-6.96126E-04-3.53622E-14
 -1      2637 1.45323E-02-6.27348E-04-2.06192E-13
 -1      2638 1.45762E-02-5.74695E-04-2.06823E-13
 -1      2639 1.44517E-02-5.52211E-04-2.03762E-13
 -1      2640 1.44043E-02-6.24215E-04-2.03194E-13
 -1      2641 4.73971E-03-9.96771E-04-2.66834E-14
 -1      2642 5.05266E-03-1.02262E-03-2.94853E-14
 -1      2643 7.23375E-03-2.17616E-05-4.14983E-14
 -1      2644 7.06895E-04 2.05502E-04-6.69874E-16
 -1      2645 6.50062E-03 2.42250E-04-3.77469E-14
 -1      2646 2.80744E-03-5.95044E-05-1.69550E-14
 -1      2647 2.84229E-03 4.76296E-05-1.66110E-14
 -1      2648 4.33041E-03 7.81984E-04-2.18099E-14
 -1      2649 5.80541E-04-1.45120E-04-7.28177E-16
 -1      2650 3.57329E-03-3.64921E-04-1.98795E-14
 -1      2651 3.43409E-03-3.00464E-04-1.90264E-14
 -1      2652 3.68662E-03-4.31271E-04-2.00888E-14
 -1      2653 3.11514E-03-1.60373E-04-1.79839E-14
 -1      2654 5.33657E-03 8.92119E-04-2.97677E-14
 -1      2655 4.67078E-03 9.42814E-04-2.41223E-14
 -1      2656 4.76036E-03 9.73978E-04-2.47010E-14
 -1      2657 4.59304E-03 9.18500E-04-2.33364E-14
 -1      2658 5.01629E-03 9.88330E-04-2.69702E-14
 -1      2659 5.09024E-03 9.79924E-04-2.75934E-14
 -1      2660 4.92679E-03 9.95544E-04-2.61181E-14
 -1      2661 4.05160E-03-6.40882E-04-2.20097E-14
 -1      2662 3.52352E-03 3.22747E-04-1.83103E-14
 -1      2663 2.65904E-03-1.81370E-06-1.64298E-14
 -1      2664 5.39067E-03-9.11063E-04-3.25199E-14
 -1      2665 1.44354E-02 3.77751E-04-1.95756E-13
 -1      2666 1.43314E-02-5.86284E-04-2.01227E-13
 -1      2667 7.45808E-04 5.05013E-05-1.24343E-15
 -1      2668 7.40467E-04 3.55295E-05-1.26482E-15
 -1      2669 7.36708E-04 2.11328E-05-1.28367E-15
 -1      2670 7.34757E-04 7.28142E-06-1.29993E-15
 -1      2671 8.47450E-04 3.17060E-05-1.61256E-15
 -1      2672 7.83166E-04 1.25877E-04-1.11999E-15
 -1      2673 7.71648E-04 1.04222E-04-1.15753E-15
 -1      2674 8.10667E-04 1.76495E-04-1.02833E-15
 -1      2675 7.96248E-04 1.49882E-04-1.07755E-15
 -1      2676 9.08705E-04 1.53722E-04-1.40129E-15
 -1      2677 1.16222E-03 2.95493E-04-1.63007E-15
 -1      2678 1.01366E-03 2.72560E-04-1.25780E-15
 -1      2679 6.42981E-03 2.88115E-04-3.82174E-14
 -1      2680 6.62208E-03 1.97052E-04-3.93689E-14
 -1      2681 1.45993E-03 3.32024E-04-2.53157E-15
 -1      2682 1.31083E-03 3.15142E-04-2.05429E-15
 -1      2683 1.21437E-03 2.72207E-04-1.92111E-15
 -1      2684 3.84893E-03 5.12617E-04-1.89254E-14
 -1      2685 4.04539E-03 6.28194E-04-1.98470E-14
 -1      2686 6.97446E-03-1.06143E-04-4.24586E-14
 -1      2687 6.83146E-03-1.52798E-04-4.17493E-14
 -1      2688 1.34893E-03-2.88321E-04-2.93367E-15
 -1      2689 1.49642E-03-3.03321E-04-3.53854E-15
 -1      2690 1.64428E-03-3.16750E-04-4.19960E-15
 -1      2691 1.79281E-03-3.29116E-04-4.91756E-15
 -1      2692 1.54374E-03-2.75925E-04-3.89983E-15
 -1      2693 1.94209E-03-3.41242E-04-5.69084E-15
 -1      2694 2.09244E-03-3.53775E-04-6.51932E-15
 -1      2695 1.83634E-03-2.98774E-04-5.33503E-15
 -1      2696 2.24414E-03-3.67507E-04-7.40190E-15
 -1      2697 2.39749E-03-3.83294E-04-8.33865E-15
 -1      2698 2.13233E-03-3.21346E-04-6.98912E-15
 -1      2699 2.55303E-03-4.01855E-04-9.32940E-15
 -1      2700 2.71099E-03-4.24351E-04-1.03731E-14
 -1      2701 2.43430E-03-3.49297E-04-8.85739E-15
 -1      2702 2.87219E-03-4.51362E-04-1.14693E-14
 -1      2703 3.03653E-03-4.84323E-04-1.26178E-14
 -1      2704 2.74611E-03-3.89265E-04-1.09364E-14
 -1      2705 3.20510E-03-5.23557E-04-1.38188E-14
 -1      2706 3.37709E-03-5.70551E-04-1.50723E-14
 -1      2707 3.07263E-03-4.49174E-04-1.32222E-14
 -1      2708 3.55350E-03-6.25188E-04-1.63792E-14
 -1      2709 3.73227E-03-6.87661E-04-1.77398E-14
 -1      2710 3.41811E-03-5.38163E-04-1.57164E-14
 -1      2711 3.91432E-03-7.56716E-04-1.91540E-14
 -1      2712 4.09548E-03-8.29828E-04-2.06224E-14
 -1      2713 3.78291E-03-6.62554E-04-1.84206E-14
 -1      2714 4.27581E-03-9.04411E-04-2.21478E-14
 -1      2715 4.45229E-03-9.72258E-04-2.37298E-14
 -1      2716 4.15748E-03-8.17711E-04-2.13413E-14
 -1      2717 4.62332E-03-1.02948E-03-2.53703E-14
 -1      2718 4.79170E-03-1.06659E-03-2.70688E-14
 -1      2719 4.52309E-03-9.70002E-04-2.44903E-14
 -1      2720 4.95506E-03-1.08073E-03-2.88261E-14
 -1      2721 5.12097E-03-1.06921E-03-3.06387E-14
 -1      2722 4.86931E-03-1.05616E-03-2.78751E-14
 -1      2723 5.28720E-03-1.03292E-03-3.25072E-14
 -1      2724 5.45936E-03-9.78732E-04-3.44317E-14
 -1      2725 5.20934E-03-1.02908E-03-3.14929E-14
 -1      2726 5.63592E-03-9.10363E-04-3.64044E-14
 -1      2727 5.81560E-03-8.38168E-04-3.84279E-14
 -1      2728 5.56524E-03-9.04298E-04-3.53318E-14
 -1      2729 5.99761E-03-7.65467E-04-4.04995E-14
 -1      2730 6.17876E-03-6.97472E-04-4.26157E-14
 -1      2731 5.93722E-03-7.46311E-04-3.93749E-14
 -1      2732 6.35899E-03-6.36242E-04-4.47729E-14
 -1      2733 6.53523E-03-5.82913E-04-4.69718E-14
 -1      2734 6.30876E-03-6.06307E-04-4.36016E-14
 -1      2735 6.70843E-03-5.38258E-04-4.92092E-14
 -1      2736 6.87711E-03-5.01107E-04-5.14866E-14
 -1      2737 6.66495E-03-5.02817E-04-4.79928E-14
 -1      2738 7.04239E-03-4.71580E-04-5.38017E-14
 -1      2739 7.20386E-03-4.48174E-04-5.61523E-14
 -1      2740 7.00109E-03-4.34400E-04-5.25395E-14
 -1      2741 7.36248E-03-4.30632E-04-5.85395E-14
 -1      2742 7.51833E-03-4.17715E-04-6.09590E-14
 -1      2743 7.31983E-03-3.93159E-04-5.72323E-14
 -1      2744 7.67206E-03-4.09002E-04-6.34133E-14
 -1      2745 7.82394E-03-4.03607E-04-6.58996E-14
 -1      2746 7.62600E-03-3.71482E-04-6.20635E-14
 -1      2747 7.97435E-03-4.01065E-04-6.84190E-14
 -1      2748 8.12356E-03-4.00784E-04-7.09686E-14
 -1      2749 7.92401E-03-3.63375E-04-6.70290E-14
 -1      2750 8.27176E-03-4.02333E-04-7.35464E-14
 -1      2751 8.41920E-03-4.05322E-04-7.61528E-14
 -1      2752 8.21707E-03-3.64349E-04-7.21177E-14
 -1      2753 8.56594E-03-4.09395E-04-7.87861E-14
 -1      2754 8.71218E-03-4.14299E-04-8.14464E-14
 -1      2755 8.50725E-03-3.71088E-04-7.73219E-14
 -1      2756 8.85792E-03-4.19761E-04-8.41328E-14
 -1      2757 9.00332E-03-4.25620E-04-8.68428E-14
 -1      2758 8.79579E-03-3.81179E-04-8.26340E-14
 -1      2759 9.14836E-03-4.31681E-04-8.95773E-14
 -1      2760 9.29315E-03-4.37845E-04-9.23351E-14
 -1      2761 9.08339E-03-3.92910E-04-8.80478E-14
 -1      2762 9.43766E-03-4.43982E-04-9.51160E-14
 -1      2763 9.58199E-03-4.50035E-04-9.79174E-14
 -1      2764 9.37044E-03-4.05115E-04-9.35571E-14
 -1      2765 9.72610E-03-4.55924E-04-1.00738E-13
 -1      2766 9.87008E-03-4.61620E-04-1.03581E-13
 -1      2767 9.65714E-03-4.17040E-04-9.91508E-14
 -1      2768 1.00139E-02-4.67081E-04-1.06445E-13
 -1      2769 1.01576E-02-4.72295E-04-1.09329E-13
 -1      2770 9.94362E-03-4.28239E-04-1.04829E-13
 -1      2771 1.03011E-02-4.77246E-04-1.12238E-13
 -1      2772 1.04446E-02-4.81932E-04-1.15164E-13
 -1      2773 1.02299E-02-4.38484E-04-1.10595E-13
 -1      2774 1.05880E-02-4.86356E-04-1.18111E-13
 -1      2775 1.07313E-02-4.90522E-04-1.21080E-13
 -1      2776 1.05161E-02-4.47697E-04-1.16443E-13
 -1      2777 1.08745E-02-4.94442E-04-1.24066E-13
 -1      2778 1.10177E-02-4.98125E-04-1.27072E-13
 -1      2779 1.08022E-02-4.55894E-04-1.22370E-13
 -1      2780 1.11608E-02-5.01587E-04-1.30096E-13
 -1      2781 1.13039E-02-5.04841E-04-1.33137E-13
 -1      2782 1.10882E-02-4.63149E-04-1.28374E-13
 -1      2783 1.14470E-02-5.07904E-04-1.36195E-13
 -1      2784 1.15900E-02-5.10788E-04-1.39269E-13
 -1      2785 1.13741E-02-4.69567E-04-1.34450E-13
 -1      2786 1.17330E-02-5.13512E-04-1.42358E-13
 -1      2787 1.18759E-02-5.16087E-04-1.45460E-13
 -1      2788 1.16600E-02-4.75266E-04-1.40589E-13
 -1      2789 1.20188E-02-5.18530E-04-1.48580E-13
 -1      2790 1.21618E-02-5.20851E-04-1.51719E-13
 -1      2791 1.19458E-02-4.80362E-04-1.46791E-13
 -1      2792 1.23047E-02-5.23067E-04-1.54869E-13
 -1      2793 1.24475E-02-5.25185E-04-1.58033E-13
 -1      2794 1.22316E-02-4.84964E-04-1.53054E-13
 -1      2795 1.25904E-02-5.27221E-04-1.61214E-13
 -1      2796 1.27333E-02-5.29181E-04-1.64408E-13
 -1      2797 1.25174E-02-4.89172E-04-1.59378E-13
 -1      2798 1.28762E-02-5.31077E-04-1.67619E-13
 -1      2799 1.30190E-02-5.32915E-04-1.70842E-13
 -1      2800 1.28031E-02-4.93070E-04-1.65760E-13
 -1      2801 1.31619E-02-5.34706E-04-1.74077E-13
 -1      2802 1.33047E-02-5.36455E-04-1.77325E-13
 -1      2803 1.30889E-02-4.96732E-04-1.72196E-13
 -1      2804 1.34476E-02-5.38171E-04-1.80585E-13
 -1      2805 1.35904E-02-5.39857E-04-1.83855E-13
 -1      2806 1.33746E-02-5.00219E-04-1.78681E-13
 -1      2807 1.37333E-02-5.41520E-04-1.87134E-13
 -1      2808 1.38761E-02-5.43165E-04-1.90421E-13
 -1      2809 1.36603E-02-5.03583E-04-1.85209E-13
 -1      2810 1.40190E-02-5.44798E-04-1.93716E-13
 -1      2811 1.41618E-02-5.46421E-04-1.97022E-13
 -1      2812 1.39461E-02-5.06867E-04-1.91772E-13
 -1      2813 4.81722E-03-1.02361E-03-2.73420E-14
 -1      2814 4.66517E-03-9.79904E-04-2.59577E-14
 -1      2815 5.88978E-03-6.33933E-04-3.67192E-14
 -1      2816 5.71091E-03-7.46238E-04-3.54963E-14
 -1      2817 2.06210E-03 3.87492E-04-4.96623E-15
 -1      2818 1.91026E-03 3.74018E-04-4.27851E-15
 -1      2819 3.00935E-03 5.19292E-04-1.01807E-14
 -1      2820 2.84590E-03 4.87038E-04-9.18258E-15
 -1      2821 3.34494E-03 6.01764E-04-1.23345E-14
 -1      2822 3.17598E-03 5.57219E-04-1.12317E-14
 -1      2823 3.05095E-03 4.86466E-04-1.08772E-14
 -1      2824 3.69056E-03 7.09915E-04-1.46977E-14
 -1      2825 3.51711E-03 6.52656E-04-1.34894E-14
 -1      2826 3.39136E-03 5.71842E-04-1.30906E-14
 -1      2827 4.04027E-03 8.37640E-04-1.72748E-14
 -1      2828 3.86580E-03 7.72375E-04-1.59592E-14
 -1      2829 3.74504E-03 6.86246E-04-1.55123E-14
 -1      2830 4.38417E-03 9.63615E-04-2.00740E-14
 -1      2831 4.21370E-03 9.03221E-04-1.86468E-14
 -1      2832 4.10422E-03 8.22876E-04-1.81488E-14
 -1      2833 4.71459E-03 1.05206E-03-2.31031E-14
 -1      2834 4.55069E-03 1.01543E-03-2.15596E-14
 -1      2835 4.45565E-03 9.54930E-04-2.10094E-14
 -1      2836 5.03525E-03 1.06845E-03-2.63623E-14
 -1      2837 4.87450E-03 1.07084E-03-2.47041E-14
 -1      2838 4.79125E-03 1.03801E-03-2.41011E-14
 -1      2839 5.35980E-03 1.00432E-03-2.98519E-14
 -1      2840 5.19536E-03 1.04529E-03-2.80788E-14
 -1      2841 5.11837E-03 1.03354E-03-2.74280E-14
 -1      2842 5.69813E-03 8.85143E-04-3.35591E-14
 -1      2843 5.52689E-03 9.48483E-04-3.16788E-14
 -1      2844 5.45519E-03 9.40917E-04-3.09851E-14
 -1      2845 6.04712E-03 7.51095E-04-3.74701E-14
 -1      2846 5.87214E-03 8.17766E-04-3.54898E-14
 -1      2847 5.80745E-03 8.03257E-04-3.47582E-14
 -1      2848 6.39670E-03 6.29986E-04-4.15678E-14
 -1      2849 6.22284E-03 6.87720E-04-3.94964E-14
 -1      2850 6.16696E-03 6.64331E-04-3.87314E-14
 -1      2851 6.73857E-03 5.34981E-04-4.58377E-14
 -1      2852 6.56918E-03 5.79055E-04-4.36822E-14
 -1      2853 6.52049E-03 5.49253E-04-4.28856E-14
 -1      2854 7.06964E-03 4.67352E-04-5.02642E-14
 -1      2855 6.90569E-03 4.98025E-04-4.80321E-14
 -1      2856 6.86064E-03 4.64775E-04-4.72062E-14
 -1      2857 7.39030E-03 4.23209E-04-5.48402E-14
 -1      2858 7.23127E-03 4.42748E-04-5.25338E-14
 -1      2859 7.18653E-03 4.07803E-04-5.16809E-14
 -1      2860 7.70247E-03 3.97170E-04-5.95558E-14
 -1      2861 7.54736E-03 4.08292E-04-5.71816E-14
 -1      2862 7.50055E-03 3.72402E-04-5.62993E-14
 -1      2863 8.00818E-03 3.84158E-04-6.44025E-14
 -1      2864 7.85603E-03 3.89332E-04-6.19631E-14
 -1      2865 7.80591E-03 3.52764E-04-6.10542E-14
 -1      2866 8.30911E-03 3.79923E-04-6.93809E-14
 -1      2867 8.15915E-03 3.81167E-04-6.68752E-14
 -1      2868 8.10533E-03 3.44059E-04-6.59393E-14
 -1      2869 8.60648E-03 3.81178E-04-7.44790E-14
 -1      2870 8.45816E-03 3.80027E-04-7.19158E-14
 -1      2871 8.40078E-03 3.42510E-04-7.09523E-14
 -1      2872 8.90115E-03 3.85510E-04-7.96922E-14
 -1      2873 8.75409E-03 3.83073E-04-7.70713E-14
 -1      2874 8.69356E-03 3.45288E-04-7.60857E-14
 -1      2875 9.19375E-03 3.91232E-04-8.50149E-14
 -1      2876 9.04766E-03 3.88274E-04-8.23393E-14
 -1      2877 8.98451E-03 3.50357E-04-8.13299E-14
 -1      2878 9.48472E-03 3.97226E-04-9.04410E-14
 -1      2879 9.33939E-03 3.94244E-04-8.77146E-14
 -1      2880 9.27416E-03 3.56312E-04-8.66825E-14
 -1      2881 9.77441E-03 4.02796E-04-9.59721E-14
 -1      2882 9.62969E-03 4.00093E-04-9.31955E-14
 -1      2883 9.56284E-03 3.62233E-04-9.21398E-14
 -1      2884 1.00631E-02 4.07549E-04-1.01600E-13
 -1      2885 9.91884E-03 4.05290E-04-9.87754E-14
 -1      2886 9.85080E-03 3.67558E-04-9.76991E-14
 -1      2887 1.03510E-02 4.11303E-04-1.07321E-13
 -1      2888 1.02071E-02 4.09557E-04-1.04447E-13
 -1      2889 1.01382E-02 3.71986E-04-1.03353E-13
 -1      2890 1.06383E-02 4.14013E-04-1.13131E-13
 -1      2891 1.04947E-02 4.12789E-04-1.10214E-13
 -1      2892 1.04252E-02 3.75391E-04-1.09096E-13
 -1      2893 1.09251E-02 4.15721E-04-1.19025E-13
 -1      2894 1.07817E-02 4.14989E-04-1.16068E-13
 -1      2895 1.07118E-02 3.77762E-04-1.14928E-13
 -1      2896 1.12115E-02 4.16515E-04-1.24995E-13
 -1      2897 1.10683E-02 4.16227E-04-1.22001E-13
 -1      2898 1.09982E-02 3.79159E-04-1.20841E-13
 -1      2899 1.14977E-02 4.16510E-04-1.31036E-13
 -1      2900 1.13547E-02 4.16607E-04-1.28007E-13
 -1      2901 1.12843E-02 3.79680E-04-1.26829E-13
 -1      2902 1.17838E-02 4.15824E-04-1.37137E-13
 -1      2903 1.16408E-02 4.16246E-04-1.34080E-13
 -1      2904 1.15704E-02 3.79443E-04-1.32884E-13
 -1      2905 1.20697E-02 4.14575E-04-1.43295E-13
 -1      2906 1.19267E-02 4.15265E-04-1.40209E-13
 -1      2907 1.18563E-02 3.78565E-04-1.39001E-13
 -1      2908 1.23555E-02 4.12870E-04-1.49502E-13
 -1      2909 1.22126E-02 4.13774E-04-1.46394E-13
 -1      2910 1.21421E-02 3.77160E-04-1.45172E-13
 -1      2911 1.26412E-02 4.10802E-04-1.55750E-13
 -1      2912 1.24983E-02 4.11877E-04-1.52620E-13
 -1      2913 1.24279E-02 3.75331E-04-1.51391E-13
 -1      2914 1.29269E-02 4.08455E-04-1.62033E-13
 -1      2915 1.27841E-02 4.09660E-04-1.58890E-13
 -1      2916 1.27137E-02 3.73167E-04-1.57650E-13
 -1      2917 1.32126E-02 4.05897E-04-1.68342E-13
 -1      2918 1.30697E-02 4.07199E-04-1.65185E-13
 -1      2919 1.29994E-02 3.70747E-04-1.63943E-13
 -1      2920 1.34983E-02 4.03188E-04-1.74674E-13
 -1      2921 1.33554E-02 4.04559E-04-1.71505E-13
 -1      2922 1.32851E-02 3.68135E-04-1.70258E-13
 -1      2923 1.37840E-02 4.00375E-04-1.81027E-13
 -1      2924 1.36411E-02 4.01792E-04-1.77847E-13
 -1      2925 1.35708E-02 3.65387E-04-1.76596E-13
 -1      2926 1.40696E-02 3.97502E-04-1.87408E-13
 -1      2927 1.39268E-02 3.98944E-04-1.84215E-13
 -1      2928 1.38565E-02 3.62548E-04-1.82963E-13
 -1      2929 1.43240E-02 3.86903E-04-1.93181E-13
 -1      2930 1.41811E-02 3.88354E-04-1.89975E-13
 -1      2931 1.41108E-02 3.51959E-04-1.88719E-13
 -1      2932 1.43338E-02 3.33650E-04-1.93858E-13
 -1      2933 1.43348E-02-7.34367E-05-1.97290E-13
 -1      2934 1.43333E-02-3.12611E-05-1.96908E-13
 -1      2935 1.42584E-02-5.48352E-04-1.99266E-13
 -1      2936 1.43551E-02-5.50281E-04-2.01512E-13
 -1      2937 1.41855E-02-5.10420E-04-1.97307E-13
 -1      2938 1.43290E-02 9.52633E-05-1.95755E-13
 -1      2939 1.43276E-02 1.37436E-04-1.95367E-13
 -1      2940 1.43378E-02-1.57788E-04-1.98054E-13
 -1      2941 1.43363E-02-1.15613E-04-1.97673E-13
 -1      2942 1.42118E-02-9.31946E-05-1.94668E-13
 -1      2943 1.43318E-02 1.09146E-05-1.96524E-13
 -1      2944 1.43304E-02 5.30892E-05-1.96140E-13
 -1      2945 1.42059E-02 7.54729E-05-1.93152E-13
 -1      2946 1.42088E-02-8.86039E-06-1.93914E-13
 -1      2947 6.81324E-03 1.16582E-04-4.04232E-14
 -1      2948 6.95726E-03 6.67989E-05-4.12408E-14
 -1      2949 1.43409E-02-2.40709E-04-1.98797E-13
 -1      2950 1.43393E-02-1.99249E-04-1.98426E-13
 -1      2951 1.42148E-02-1.76814E-04-1.95412E-13
 -1      2952 1.43441E-02-3.25056E-04-1.99544E-13
 -1      2953 1.43425E-02-2.82883E-04-1.99170E-13
 -1      2954 1.42180E-02-2.60433E-04-1.96148E-13
 -1      2955 1.43474E-02-4.09395E-04-2.00276E-13
 -1      2956 1.43458E-02-3.67227E-04-1.99911E-13
 -1      2957 1.42212E-02-3.44764E-04-1.96877E-13
 -1      2958 1.75943E-03 3.60747E-04-3.64345E-15
 -1      2959 1.60935E-03 3.47051E-04-3.06115E-15
 -1      2960 1.50879E-03 3.04308E-04-2.89456E-15
 -1      2961 1.80529E-03 3.30120E-04-4.07718E-15
 -1      2962 7.23931E-03-1.60093E-05-4.23807E-14
 -1      2963 7.25567E-03-2.31279E-05-4.29531E-14
 -1      2964 6.65736E-03-2.22086E-04-4.08629E-14
 -1      2965 6.47349E-03-3.06550E-04-4.00036E-14
 -1      2966 2.65602E-03-2.38554E-05-1.59742E-14
 -1      2967 2.62501E-03-1.64353E-05-1.58403E-14
 -1      2968 8.03386E-04-2.00644E-04-1.20514E-15
 -1      2969 9.38523E-04-2.29992E-04-1.55292E-15
 -1      2970 8.22711E-04 2.26356E-04-8.91241E-16
 -1      2971 2.74504E-03 2.98529E-05-1.56772E-14
 -1      2972 2.88192E-03 6.86950E-05-1.58847E-14
 -1      2973 4.23998E-03 7.39833E-04-2.09155E-14
 -1      2974 4.39556E-03 8.29334E-04-2.18572E-14
 -1      2975 2.68478E-03 4.60111E-04-8.23580E-15
 -1      2976 2.52631E-03 4.37465E-04-7.34006E-15
 -1      2977 2.72491E-03 4.26396E-04-8.86925E-15
 -1      2978 2.36980E-03 4.18427E-04-6.49650E-15
 -1      2979 2.21522E-03 4.02039E-04-5.70551E-15
 -1      2980 2.41077E-03 3.84947E-04-7.06618E-15
 -1      2981 1.06981E-03-2.51723E-04-1.94647E-15
 -1      2982 1.21648E-03-2.71531E-04-2.44249E-15
 -1      2983 1.26750E-03-2.48210E-04-2.74733E-15
 -1      2984 1.00779E-03-2.13442E-04-1.84610E-15
 -1      2985 7.61505E-04 8.46792E-05-1.18994E-15
 -1      2986 7.52890E-04 6.68332E-05-1.21867E-15
 -1      2987 8.60541E-04 6.60086E-05-1.55946E-15
 -1      2988 8.81207E-04 1.05840E-04-1.49049E-15
 -1      2989 2.84262E-03-7.67784E-05-1.63836E-14
 -1      2990 2.73264E-03-4.50825E-05-1.61788E-14
 -1      2991 2.66836E-03-3.72525E-05-1.54207E-14
 -1      2992 7.51919E-04-6.55193E-05-1.34049E-15
 -1      2993 7.60400E-04-8.30974E-05-1.33965E-15
 -1      2994 4.10547E-03-6.90914E-04-2.18282E-14
 -1      2995 3.91223E-03-5.70667E-04-2.07998E-14
 -1      2996 6.58159E-04-1.44102E-04-9.25692E-16
 -1      2997 3.21788E-03-2.09809E-04-1.78324E-14
 -1      2998 3.03395E-03-1.42854E-04-1.70202E-14
 -1      2999 3.06673E-03 1.33048E-04-1.63357E-14
 -1      3000 3.20858E-03 1.87931E-04-1.67332E-14
 -1      3001 5.48833E-03-8.73301E-04-3.37305E-14
 -1      3002 5.30976E-03-9.60412E-04-3.20968E-14
 -1      3003 5.26192E-03 9.33565E-04-2.91694E-14
 -1      3004 5.40403E-03 8.69254E-04-3.04816E-14
 -1      3005 5.10693E-03-1.02056E-03-3.01310E-14
 -1      3006 4.96360E-03-1.03673E-03-2.87185E-14
 -1      3007 4.88093E-03-1.03806E-03-2.79567E-14
 -1      3008 2.61951E-03-5.75796E-06-1.56794E-14
 -1      3009 2.65386E-03 3.51294E-06-1.56453E-14
 -1      3010 3.39833E-03 2.73034E-04-1.73075E-14
 -1      3011 3.60407E-03 3.77927E-04-1.79640E-14
 -1      3012 4.48288E-03-9.03369E-04-2.44521E-14
 -1      3013 4.33326E-03-8.20652E-04-2.33398E-14
 -1      3014 7.21830E-03-4.03410E-05-4.34573E-14
 -1      3015 7.13005E-03-6.09511E-05-4.32745E-14
 -1      3016 6.03743E-03 5.02288E-04-3.55525E-14
 -1      3017 6.21019E-03 4.02727E-04-3.67374E-14
 -1      3018 1.43787E-02-5.14275E-04-2.01793E-13
 -1      3019 6.26806E-03-4.13093E-04-3.89764E-14
 -1      3020 6.08725E-03-5.16126E-04-3.79488E-14
 -1      3021 5.62522E-03 7.52926E-04-3.24272E-14
 -1      3022 5.82712E-03 6.28527E-04-3.40324E-14
 -1      3023 7.70432E-04-1.02333E-04-1.33517E-15
 -1      3024 7.81818E-04-1.23537E-04-1.32616E-15
 -1      3025 8.79709E-04-1.03884E-04-1.69092E-15
 -1      3026 8.42756E-04 3.27422E-07-1.65196E-15
 -1      3027 7.34619E-04-6.38179E-06-1.31325E-15
 -1      3028 7.36302E-04-2.01666E-05-1.32434E-15
 -1      3029 4.11985E-03 6.89862E-04-1.98850E-14
 -1      3030 6.74604E-03 1.62627E-04-4.09043E-14
 -1      3031 5.54101E-03 8.13744E-04-3.17954E-14
 -1      3032 3.70228E-03 4.52171E-04-1.78919E-14
 -1      3033 6.76342E-03-1.93848E-04-4.23096E-14
 -1      3034 4.56980E-03-9.53212E-04-2.50718E-14
 -1      3035 7.04675E-03 4.16861E-05-4.21193E-14
 -1      3036 7.12534E-03 2.52064E-05-4.30057E-14
 -1      3037 7.01196E-03 6.77253E-05-4.28612E-14
 -1      3038 5.94914E-03 5.77835E-04-3.52997E-14
 -1      3039 7.27035E-03-3.12212E-05-4.43531E-14
 -1      3040 7.28048E-03-4.16733E-05-4.57612E-14
 -1      3041 7.30625E-03-2.63582E-05-4.52510E-14
 -1      3042 1.42031E-02 1.59446E-04-1.92394E-13
 -1      3043 1.43262E-02 1.79249E-04-1.94989E-13
 -1      3044 1.43248E-02 2.21060E-04-1.94607E-13
 -1      3045 2.66573E-03 1.99705E-05-1.49407E-14
 -1      3046 5.61346E-03-8.19024E-04-3.50521E-14
 -1      3047 2.10522E-03 3.55032E-04-5.46849E-15
 -1      3048 3.28689E-03 2.43365E-04-1.63990E-14
 -1      3049 6.01559E-03-5.77795E-04-3.80858E-14
 -1      3050 1.43300E-02 2.56454E-04-1.94423E-13
 -1      3051 1.43286E-02 2.98261E-04-1.94042E-13
 -1      3052 1.42172E-02 3.07420E-04-1.91472E-13
 -1      3053 1.42069E-02 2.36643E-04-1.91836E-13
 -1      3054 5.21345E-03-1.00195E-03-3.12892E-14
 -1      3055 2.92111E-03-1.12598E-04-1.62349E-14
 -1      3056 2.82010E-03-9.35093E-05-1.54679E-14
 -1      3057 2.99813E-03-1.56165E-04-1.60789E-14
 -1      3058 1.43771E-02-4.72113E-04-2.01441E-13
 -1      3059 5.16877E-03 9.68208E-04-2.82749E-14
 -1      3060 1.42190E-02-4.80031E-04-1.97854E-13
 -1      3061 1.43139E-02-4.39794E-04-1.99739E-13
 -1      3062 1.41894E-02-4.17323E-04-1.96701E-13
 -1      3063 1.41224E-02-4.78105E-04-1.95615E-13
 -1      3064 6.39843E-03-3.61735E-04-4.03721E-14
 -1      3065 2.59109E-03-1.01583E-05-1.50667E-14
 -1      3066 8.79508E-04 2.11278E-04-1.09968E-15
 -1      3067 4.39925E-03 8.51275E-04-2.14796E-14
 -1      3068 4.49587E-03 8.85535E-04-2.23993E-14
 -1      3069 4.58431E-03 9.31786E-04-2.29471E-14
 -1      3070 7.72017E-04-1.52835E-04-1.22954E-15
 -1      3071 3.77173E-03-4.97580E-04-1.99177E-14
 -1      3072 3.63168E-03-4.30575E-04-1.90562E-14
 -1      3073 3.82445E-03-5.61223E-04-1.97301E-14
 -1      3074 7.39788E-04-3.43704E-05-1.33240E-15
 -1      3075 7.45004E-04-4.94144E-05-1.33788E-15
 -1      3076 8.59393E-04-6.46663E-05-1.69221E-15
 -1      3077 8.46836E-04-3.08437E-05-1.67859E-15
 -1      3078 4.18042E-03-7.54065E-04-2.20738E-14
 -1      3079 4.84318E-03 9.94511E-04-2.52938E-14
 -1      3080 4.91845E-03 1.00493E-03-2.58901E-14
 -1      3081 4.76420E-03 9.84937E-04-2.44796E-14
 -1      3082 3.42214E-03-3.18503E-04-1.82121E-14
 -1      3083 3.32132E-03-2.61399E-04-1.80224E-14
 -1      3084 3.21298E-03-2.37451E-04-1.70433E-14
 -1      3085 7.23075E-03-8.75461E-06-4.30483E-14
 -1      3086 6.35827E-03 3.46279E-04-3.83322E-14
 -1      3087 9.94818E-04 2.15298E-04-1.43294E-15
 -1      3088 1.03780E-03 1.82575E-04-1.71171E-15
 -1      3089 1.02010E-03 1.54221E-04-1.77079E-15
 -1      3090 2.66791E-03-4.91118E-05-1.48360E-14
 -1      3091 2.60089E-03-2.96384E-05-1.46461E-14
 -1      3092 1.73346E-03-2.58969E-04-4.98481E-15
 -1      3093 1.87790E-03-2.68620E-04-5.75702E-15
 -1      3094 2.02309E-03-2.78333E-04-6.58268E-15
 -1      3095 2.16949E-03-2.88776E-04-7.46130E-15
 -1      3096 1.91730E-03-2.38577E-04-6.18299E-15
 -1      3097 2.31741E-03-3.00497E-04-8.39238E-15
 -1      3098 2.46747E-03-3.14510E-04-9.37633E-15
 -1      3099 2.20372E-03-2.55897E-04-7.93595E-15
 -1      3100 2.62029E-03-3.31260E-04-1.04119E-14
 -1      3101 2.77659E-03-3.52394E-04-1.14987E-14
 -1      3102 2.49673E-03-2.78599E-04-9.89606E-15
 -1      3103 2.93746E-03-3.78255E-04-1.26359E-14
 -1      3104 3.10323E-03-4.11172E-04-1.38243E-14
 -1      3105 2.80208E-03-3.13333E-04-1.20594E-14
 -1      3106 3.27568E-03-4.51361E-04-1.50642E-14
 -1      3107 3.45380E-03-5.02159E-04-1.63553E-14
 -1      3108 3.12795E-03-3.69897E-04-1.44237E-14
 -1      3109 3.65417E-03-5.48353E-04-1.79629E-14
 -1      3110 3.84626E-03-6.23566E-04-1.93656E-14
 -1      3111 4.37014E-03-8.83539E-04-2.32456E-14
 -1      3112 4.55561E-03-9.60424E-04-2.48575E-14
 -1      3113 5.87282E-03-7.35678E-04-3.82668E-14
 -1      3114 6.06508E-03-6.54783E-04-4.03363E-14
 -1      3115 6.25643E-03-5.82920E-04-4.24484E-14
 -1      3116 6.44070E-03-5.22281E-04-4.46018E-14
 -1      3117 6.20708E-03-5.59871E-04-4.12993E-14
 -1      3118 6.61993E-03-4.73286E-04-4.67968E-14
 -1      3119 6.79194E-03-4.33553E-04-4.90286E-14
 -1      3120 6.57882E-03-4.41749E-04-4.56053E-14
 -1      3121 6.95846E-03-4.03009E-04-5.12981E-14
 -1      3122 7.11939E-03-3.79105E-04-5.36059E-14
 -1      3123 6.91999E-03-3.69655E-04-5.00655E-14
 -1      3124 7.27603E-03-3.61565E-04-5.59484E-14
 -1      3125 7.42897E-03-3.48631E-04-5.83256E-14
 -1      3126 7.23607E-03-3.28879E-04-5.46710E-14
 -1      3127 7.57907E-03-3.39976E-04-6.07390E-14
 -1      3128 7.72696E-03-3.34470E-04-6.31838E-14
 -1      3129 7.53548E-03-3.08180E-04-5.94187E-14
 -1      3130 7.87316E-03-3.31782E-04-6.56628E-14
 -1      3131 8.01814E-03-3.31226E-04-6.81734E-14
 -1      3132 7.82514E-03-3.00465E-04-6.43032E-14
 -1      3133 8.16220E-03-3.32479E-04-7.07143E-14
 -1      3134 8.30566E-03-3.35120E-04-7.32846E-14
 -1      3135 8.10973E-03-3.01202E-04-6.93165E-14
 -1      3136 8.44865E-03-3.38858E-04-7.58823E-14
 -1      3137 8.59141E-03-3.43432E-04-7.85088E-14
 -1      3138 8.39209E-03-3.07350E-04-7.44492E-14
 -1      3139 8.73395E-03-3.48603E-04-8.11623E-14
 -1      3140 8.87644E-03-3.54206E-04-8.38420E-14
 -1      3141 8.67382E-03-3.16760E-04-7.96953E-14
 -1      3142 9.01885E-03-3.60059E-04-8.65474E-14
 -1      3143 9.16130E-03-3.66060E-04-8.92742E-14
 -1      3144 8.95574E-03-3.27883E-04-8.50482E-14
 -1      3145 9.30373E-03-3.72078E-04-9.20233E-14
 -1      3146 9.44622E-03-3.78054E-04-9.47975E-14
 -1      3147 9.23818E-03-3.39629E-04-9.04979E-14
 -1      3148 9.58873E-03-3.83903E-04-9.75927E-14
 -1      3149 9.73131E-03-3.89592E-04-1.00408E-13
 -1      3150 9.52125E-03-3.51256E-04-9.60365E-14
 -1      3151 9.87391E-03-3.95071E-04-1.03245E-13
 -1      3152 1.00166E-02-4.00328E-04-1.06103E-13
 -1      3153 9.80492E-03-3.62300E-04-1.01665E-13
 -1      3154 1.01592E-02-4.05337E-04-1.08984E-13
 -1      3155 1.03020E-02-4.10098E-04-1.11885E-13
 -1      3156 1.00891E-02-3.72501E-04-1.07378E-13
 -1      3157 1.04447E-02-4.14603E-04-1.14806E-13
 -1      3158 1.05875E-02-4.18859E-04-1.17748E-13
 -1      3159 1.03737E-02-3.81748E-04-1.13174E-13
 -1      3160 1.07303E-02-4.22871E-04-1.20708E-13
 -1      3161 1.08731E-02-4.26650E-04-1.23687E-13
 -1      3162 1.06587E-02-3.90029E-04-1.19050E-13
 -1      3163 1.10159E-02-4.30206E-04-1.26687E-13
 -1      3164 1.11588E-02-4.33552E-04-1.29705E-13
 -1      3165 1.09439E-02-3.97396E-04-1.25004E-13
 -1      3166 1.13016E-02-4.36704E-04-1.32739E-13
 -1      3167 1.14445E-02-4.39673E-04-1.35790E-13
 -1      3168 1.12293E-02-4.03936E-04-1.31032E-13
 -1      3169 1.15874E-02-4.42477E-04-1.38859E-13
 -1      3170 1.17302E-02-4.45127E-04-1.41940E-13
 -1      3171 1.15148E-02-4.09755E-04-1.37129E-13
 -1      3172 1.18731E-02-4.47640E-04-1.45038E-13
 -1      3173 1.20160E-02-4.50026E-04-1.48151E-13
 -1      3174 1.18005E-02-4.14964E-04-1.43289E-13
 -1      3175 1.21589E-02-4.52301E-04-1.51280E-13
 -1      3176 1.23017E-02-4.54473E-04-1.54425E-13
 -1      3177 1.20862E-02-4.19666E-04-1.49509E-13
 -1      3178 1.24446E-02-4.56557E-04-1.57583E-13
 -1      3179 1.25875E-02-4.58560E-04-1.60755E-13
 -1      3180 1.23719E-02-4.23960E-04-1.55792E-13
 -1      3181 1.27304E-02-4.60494E-04-1.63943E-13
 -1      3182 1.28732E-02-4.62366E-04-1.67144E-13
 -1      3183 1.26576E-02-4.27929E-04-1.62131E-13
 -1      3184 1.30161E-02-4.64187E-04-1.70358E-13
 -1      3185 1.31590E-02-4.65961E-04-1.73584E-13
 -1      3186 1.29434E-02-4.31647E-04-1.68524E-13
 -1      3187 1.33019E-02-4.67696E-04-1.76823E-13
 -1      3188 1.34447E-02-4.69399E-04-1.80072E-13
 -1      3189 1.32291E-02-4.35176E-04-1.74969E-13
 -1      3190 1.35876E-02-4.71075E-04-1.83330E-13
 -1      3191 1.37305E-02-4.72729E-04-1.86598E-13
 -1      3192 1.35149E-02-4.38569E-04-1.81458E-13
 -1      3193 1.38550E-02-4.74613E-04-1.89458E-13
 -1      3194 1.39979E-02-4.76239E-04-1.92742E-13
 -1      3195 1.40313E-02-4.45855E-04-1.93289E-13
 -1      3196 1.37823E-02-4.42113E-04-1.87568E-13
 -1      3197 3.08891E-03 4.51179E-04-1.15803E-14
 -1      3198 2.92328E-03 4.17916E-04-1.05205E-14
 -1      3199 4.16932E-03 8.08959E-04-1.90258E-14
 -1      3200 3.98436E-03 7.32958E-04-1.76511E-14
 -1      3201 4.56324E-03 9.58078E-04-2.22751E-14
 -1      3202 4.38498E-03 8.93967E-04-2.07737E-14
 -1      3203 4.89973E-03 1.02656E-03-2.54059E-14
 -1      3204 4.72991E-03 1.00526E-03-2.37873E-14
 -1      3205 5.30401E-03 9.55019E-04-2.95354E-14
 -1      3206 5.12918E-03 1.00105E-03-2.77721E-14
 -1      3207 5.48275E-03 8.88836E-04-3.13544E-14
 -1      3208 5.92569E-03 7.13077E-04-3.59643E-14
 -1      3209 5.74032E-03 7.90297E-04-3.40189E-14
 -1      3210 6.29481E-03 5.74268E-04-3.99969E-14
 -1      3211 6.11228E-03 6.39886E-04-3.79570E-14
 -1      3212 6.05952E-03 6.15859E-04-3.71797E-14
 -1      3213 6.64897E-03 4.69639E-04-4.42069E-14
 -1      3214 6.47463E-03 5.17794E-04-4.20807E-14
 -1      3215 6.43212E-03 4.84168E-04-4.12723E-14
 -1      3216 6.98413E-03 3.97891E-04-4.85781E-14
 -1      3217 6.81907E-03 4.30219E-04-4.63735E-14
 -1      3218 6.78167E-03 3.93362E-04-4.55370E-14
 -1      3219 7.30264E-03 3.52239E-04-5.30982E-14
 -1      3220 7.14529E-03 3.72467E-04-5.08203E-14
 -1      3221 7.10824E-03 3.35504E-04-4.99574E-14
 -1      3222 7.60895E-03 3.25370E-04-5.77589E-14
 -1      3223 7.45707E-03 3.36935E-04-5.54103E-14
 -1      3224 7.41746E-03 3.00823E-04-5.45216E-14
 -1      3225 7.90717E-03 3.11619E-04-6.25507E-14
 -1      3226 7.75885E-03 3.17197E-04-6.01389E-14
 -1      3227 7.71524E-03 2.81729E-04-5.92217E-14
 -1      3228 8.20041E-03 3.06667E-04-6.74742E-14
 -1      3229 8.05425E-03 3.08279E-04-6.49967E-14
 -1      3230 8.00619E-03 2.73057E-04-6.40522E-14
 -1      3231 8.49068E-03 3.07310E-04-7.25236E-14
 -1      3232 8.34580E-03 3.06452E-04-6.99842E-14
 -1      3233 8.29342E-03 2.71174E-04-6.90146E-14
 -1      3234 8.77923E-03 3.11210E-04-7.76894E-14
 -1      3235 8.63509E-03 3.08965E-04-7.50925E-14
 -1      3236 8.57884E-03 2.73479E-04-7.40982E-14
 -1      3237 9.06681E-03 3.16701E-04-8.29659E-14
 -1      3238 8.92309E-03 3.13831E-04-8.03138E-14
 -1      3239 8.86353E-03 2.78102E-04-7.92959E-14
 -1      3240 9.35380E-03 3.22647E-04-8.83488E-14
 -1      3241 9.21034E-03 3.19666E-04-8.56451E-14
 -1      3242 9.14805E-03 2.83725E-04-8.46054E-14
 -1      3243 9.64045E-03 3.28311E-04-9.38349E-14
 -1      3244 9.49715E-03 3.25544E-04-9.10780E-14
 -1      3245 9.43268E-03 2.89452E-04-9.00181E-14
 -1      3246 9.92686E-03 3.33257E-04-9.94222E-14
 -1      3247 9.78367E-03 3.30890E-04-9.66161E-14
 -1      3248 9.71751E-03 2.94709E-04-9.55322E-14
 -1      3249 1.02131E-02 3.37261E-04-1.05098E-13
 -1      3250 1.00700E-02 3.35383E-04-1.02250E-13
 -1      3251 1.00026E-02 2.99166E-04-1.01145E-13
 -1      3252 1.04993E-02 3.40244E-04-1.10867E-13
 -1      3253 1.03562E-02 3.38881E-04-1.07972E-13
 -1      3254 1.02878E-02 3.02668E-04-1.06848E-13
 -1      3255 1.07853E-02 3.42225E-04-1.16721E-13
 -1      3256 1.06423E-02 3.41357E-04-1.13783E-13
 -1      3257 1.05732E-02 3.05177E-04-1.12640E-13
 -1      3258 1.10713E-02 3.43276E-04-1.22653E-13
 -1      3259 1.09283E-02 3.42862E-04-1.19679E-13
 -1      3260 1.08587E-02 3.06730E-04-1.18514E-13
 -1      3261 1.13572E-02 3.43502E-04-1.28658E-13
 -1      3262 1.12142E-02 3.43486E-04-1.25647E-13
 -1      3263 1.11443E-02 3.07411E-04-1.24466E-13
 -1      3264 1.16430E-02 3.43018E-04-1.34728E-13
 -1      3265 1.15001E-02 3.43342E-04-1.31684E-13
 -1      3266 1.14300E-02 3.07325E-04-1.30487E-13
 -1      3267 1.19288E-02 3.41939E-04-1.40860E-13
 -1      3268 1.17859E-02 3.42547E-04-1.37787E-13
 -1      3269 1.17157E-02 3.06585E-04-1.36572E-13
 -1      3270 1.22146E-02 3.40374E-04-1.47044E-13
 -1      3271 1.20717E-02 3.41212E-04-1.43945E-13
 -1      3272 1.20014E-02 3.05300E-04-1.42717E-13
 -1      3273 1.25004E-02 3.38419E-04-1.53275E-13
 -1      3274 1.23575E-02 3.39440E-04-1.50155E-13
 -1      3275 1.22872E-02 3.03572E-04-1.48916E-13
 -1      3276 1.27862E-02 3.36159E-04-1.59545E-13
 -1      3277 1.26433E-02 3.37323E-04-1.56406E-13
 -1      3278 1.25729E-02 3.01492E-04-1.55161E-13
 -1      3279 1.30719E-02 3.33667E-04-1.65845E-13
 -1      3280 1.29290E-02 3.34939E-04-1.62692E-13
 -1      3281 1.28587E-02 2.99137E-04-1.61439E-13
 -1      3282 1.33576E-02 3.31003E-04-1.72169E-13
 -1      3283 1.32148E-02 3.32353E-04-1.69004E-13
 -1      3284 1.31444E-02 2.96575E-04-1.67747E-13
 -1      3285 1.36434E-02 3.28218E-04-1.78515E-13
 -1      3286 1.35005E-02 3.29623E-04-1.75340E-13
 -1      3287 1.34302E-02 2.93860E-04-1.74079E-13
 -1      3288 1.39291E-02 3.25356E-04-1.84890E-13
 -1      3289 1.37862E-02 3.26795E-04-1.81700E-13
 -1      3290 1.37159E-02 2.91041E-04-1.80435E-13
 -1      3291 1.41289E-02 3.11815E-04-1.89462E-13
 -1      3292 1.40174E-02 3.20968E-04-1.86896E-13
 -1      3293 1.39471E-02 2.85216E-04-1.85627E-13
 -1      3294 1.41237E-02 2.76430E-04-1.89643E-13
 -1      3295 6.52643E-03-3.18453E-04-4.18870E-14
 -1      3296 6.34323E-03-4.14167E-04-4.08349E-14
 -1      3297 9.59966E-04 4.39541E-05-1.97684E-15
 -1      3298 9.54640E-04 2.60690E-05-2.00441E-15
 -1      3299 1.40888E-02-1.12943E-04-1.92046E-13
 -1      3300 1.40873E-02-7.07855E-05-1.91675E-13
 -1      3301 1.40983E-02-3.64463E-04-1.94216E-13
 -1      3302 1.40966E-02-3.22305E-04-1.93858E-13
 -1      3303 1.40918E-02-1.95830E-04-1.92771E-13
 -1      3304 1.40903E-02-1.54387E-04-1.92410E-13
 -1      3305 1.39658E-02-1.31968E-04-1.89419E-13
 -1      3306 2.14588E-03 3.22331E-04-5.98209E-15
 -1      3307 1.99701E-03 3.10610E-04-5.22699E-15
 -1      3308 4.72013E-03-1.01910E-03-2.63793E-14
 -1      3309 2.76151E-03 3.90995E-04-9.51149E-15
 -1      3310 2.60364E-03 3.68741E-04-8.55319E-15
 -1      3311 2.79441E-03 3.53665E-04-1.01626E-14
 -1      3312 6.71578E-03 2.04266E-04-4.16689E-14
 -1      3313 6.88051E-03 1.33542E-04-4.27538E-14
 -1      3314 4.16931E-03-7.74632E-04-2.17357E-14
 -1      3315 1.40950E-02-2.80147E-04-1.93499E-13
 -1      3316 1.40934E-02-2.37989E-04-1.93138E-13
 -1      3317 1.39689E-02-2.15551E-04-1.90138E-13
 -1      3318 1.39721E-02-2.99850E-04-1.90853E-13
 -1      3319 3.79815E-03 6.60487E-04-1.63309E-14
 -1      3320 3.61529E-03 5.95408E-04-1.50653E-14
 -1      3321 3.84902E-03 6.35214E-04-1.71544E-14
 -1      3322 3.43483E-03 5.38729E-04-1.38522E-14
 -1      3323 3.25982E-03 4.90579E-04-1.26905E-14
 -1      3324 3.12331E-03 4.12750E-04-1.22905E-14
 -1      3325 3.47501E-03 5.03452E-04-1.46192E-14
 -1      3326 3.16634E-03 2.18346E-04-1.53984E-14
 -1      3327 3.33560E-03 2.94372E-04-1.59424E-14
 -1      3328 3.99546E-03 6.51610E-04-1.86822E-14
 -1      3329 4.17032E-03 7.49714E-04-1.97129E-14
 -1      3330 1.44635E-03-2.37593E-04-3.60454E-15
 -1      3331 1.58972E-03-2.48788E-04-4.26707E-15
 -1      3332 1.63410E-03-2.21842E-04-4.64093E-15
 -1      3333 2.58083E-03 1.24015E-05-1.40525E-14
 -1      3334 2.65688E-03 3.60475E-05-1.40798E-14
 -1      3335 2.44869E-03 3.50644E-04-7.64535E-15
 -1      3336 2.29631E-03 3.35364E-04-6.78800E-15
 -1      3337 2.48341E-03 3.15248E-04-8.23446E-15
 -1      3338 2.92707E-03 1.00450E-04-1.54041E-14
 -1      3339 8.84952E-04-1.57884E-04-1.57797E-15
 -1      3340 7.21459E-03 2.65831E-06-4.38048E-14
 -1      3341 7.27682E-03-9.42491E-06-4.46058E-14
 -1      3342 7.19513E-03 1.99526E-05-4.45591E-14
 -1      3343 7.08711E-03-8.42763E-05-4.40327E-14
 -1      3344 6.09662E-03-5.55632E-04-3.92782E-14
 -1      3345 5.92228E-03-6.61575E-04-3.80239E-14
 -1      3346 3.55408E-03 4.07239E-04-1.66676E-14
 -1      3347 3.77155E-03 5.25612E-04-1.75835E-14
 -1      3348 5.02929E-03-1.04921E-03-2.95056E-14
 -1      3349 4.89506E-03-1.04769E-03-2.81070E-14
 -1      3350 6.86373E-03-1.74288E-04-4.38177E-14
 -1      3351 6.70540E-03-2.36443E-04-4.29114E-14
 -1      3352 1.16074E-03 2.43219E-04-1.86910E-15
 -1      3353 1.08751E-03 2.07786E-04-1.77367E-15
 -1      3354 1.19991E-03 2.05724E-04-2.19335E-15
 -1      3355 1.30605E-03 2.60043E-04-2.32374E-15
 -1      3356 5.81179E-03 6.94096E-04-3.44932E-14
 -1      3357 5.99102E-03 5.83946E-04-3.60288E-14
 -1      3358 2.55741E-03-1.53908E-05-1.43415E-14
 -1      3359 2.55042E-03-5.81699E-06-1.41894E-14
 -1      3360 6.29901E-03 4.11459E-04-3.85741E-14
 -1      3361 6.49294E-03 3.11856E-04-4.00897E-14
 -1      3362 2.81012E-03 8.44088E-05-1.44204E-14
 -1      3363 2.97318E-03 1.39956E-04-1.48445E-14
 -1      3364 7.18277E-03-7.66803E-05-4.58444E-14
 -1      3365 7.04065E-03-1.16398E-04-4.50091E-14
 -1      3366 9.51839E-04 8.81944E-06-2.02782E-15
 -1      3367 9.51649E-04-8.20745E-06-2.04769E-15
 -1      3368 1.06201E-03 1.87734E-05-2.43914E-15
 -1      3369 2.53587E-03-2.42234E-05-1.37788E-14
 -1      3370 6.18790E-03 5.00976E-04-3.80310E-14
 -1      3371 9.88218E-04-1.02772E-04-2.08857E-15
 -1      3372 1.00215E-03-1.26088E-04-2.08323E-15
 -1      3373 6.97604E-03 1.03265E-04-4.36463E-14
 -1      3374 7.06539E-03 7.95640E-05-4.45440E-14
 -1      3375 6.95375E-03 1.43134E-04-4.44273E-14
 -1      3376 7.32907E-03-1.80619E-05-4.60234E-14
 -1      3377 7.37021E-03-2.59816E-05-4.74504E-14
 -1      3378 7.34042E-03-8.80759E-06-4.67949E-14
 -1      3379 1.40801E-02 1.39827E-04-1.89800E-13
 -1      3380 1.40787E-02 1.81627E-04-1.89427E-13
 -1      3381 3.49217E-03-4.46223E-04-1.72447E-14
 -1      3382 6.99459E-03-1.51677E-04-4.56264E-14
 -1      3383 3.97352E-03-6.84310E-04-2.02422E-14
 -1      3384 5.21490E-03-1.01231E-03-3.14500E-14
 -1      3385 5.39454E-03-9.53137E-04-3.33426E-14
 -1      3386 5.58601E-03-8.51346E-04-3.51060E-14
 -1      3387 5.78049E-03-7.60117E-04-3.70981E-14
 -1      3388 7.26461E-03-6.06646E-05-4.67592E-14
 -1      3389 7.24381E-03-8.59100E-05-4.77567E-14
 -1      3390 7.33198E-03-5.08355E-05-4.76759E-14
 -1      3391 2.68205E-03 6.29983E-05-1.35484E-14
 -1      3392 2.70560E-03 9.54239E-05-1.30211E-14
 -1      3393 2.56864E-03 5.07117E-05-1.27007E-14
 -1      3394 6.33806E-03 4.61740E-04-3.97685E-14
 -1      3395 4.97508E-03 1.02034E-03-2.62458E-14
 -1      3396 5.67816E-03 7.90765E-04-3.33281E-14
 -1      3397 6.64787E-03-2.87240E-04-4.33867E-14
 -1      3398 9.67731E-04 6.27367E-05-1.94536E-15
 -1      3399 1.07441E-03 5.75236E-05-2.37497E-15
 -1      3400 9.77723E-04 8.28548E-05-1.90947E-15
 -1      3401 1.40829E-02 5.55104E-05-1.90555E-13
 -1      3402 1.40815E-02 9.76684E-05-1.90176E-13
 -1      3403 1.39571E-02 1.19853E-04-1.87211E-13
 -1      3404 1.45170E-03 2.74640E-04-2.83017E-15
 -1      3405 1.39598E-03 2.46219E-04-2.76114E-15
 -1      3406 1.59794E-03 2.87528E-04-3.38899E-15
 -1      3407 3.41364E-03 3.69427E-04-1.56481E-14
 -1      3408 1.40858E-02-2.87166E-05-1.91303E-13
 -1      3409 1.40843E-02 1.34413E-05-1.90930E-13
 -1      3410 1.39599E-02 3.56433E-05-1.87956E-13
 -1      3411 1.39628E-02-4.84753E-05-1.88694E-13
 -1      3412 2.18393E-03 2.89246E-04-6.50715E-15
 -1      3413 3.08425E-03-1.96925E-04-1.62518E-14
 -1      3414 2.96348E-03-1.65434E-04-1.54803E-14
 -1      3415 3.16924E-03-2.42580E-04-1.64241E-14
 -1      3416 1.87075E-03 3.05066E-04-4.59292E-15
 -1      3417 1.72356E-03 2.93873E-04-3.93527E-15
 -1      3418 1.66440E-03 2.64543E-04-3.85270E-15
 -1      3419 1.91262E-03 2.74263E-04-5.05577E-15
 -1      3420 3.01932E-03 1.86259E-04-1.44108E-14
 -1      3421 6.65228E-03 2.67692E-04-4.19181E-14
 -1      3422 9.76214E-04-8.13732E-05-2.08877E-15
 -1      3423 1.09568E-03-9.94388E-05-2.52610E-15
 -1      3424 9.66482E-04-6.15369E-05-2.08450E-15
 -1      3425 1.31761E-03-2.25012E-04-3.05978E-15
 -1      3426 1.36645E-03-2.01781E-04-3.38056E-15
 -1      3427 1.18926E-03-2.11013E-04-2.55926E-15
 -1      3428 3.83363E-03 5.97251E-04-1.74126E-14
 -1      3429 6.23736E-03-5.01669E-04-4.07725E-14
 -1      3430 2.51599E-03 5.93302E-06-1.33528E-14
 -1      3431 1.01031E-03-1.74885E-04-1.97418E-15
 -1      3432 3.49890E-03-3.89038E-04-1.80356E-14
 -1      3433 1.00404E-03 1.28333E-04-1.82279E-15
 -1      3434 9.89943E-04 1.04645E-04-1.86889E-15
 -1      3435 1.09762E-03 1.01102E-04-2.29147E-15
 -1      3436 1.13016E-03 1.52121E-04-2.18543E-15
 -1      3437 1.40481E-02-4.20355E-04-1.93485E-13
 -1      3438 1.40816E-02-3.89966E-04-1.94025E-13
 -1      3439 1.39570E-02-3.67499E-04-1.91013E-13
 -1      3440 1.39235E-02-4.18493E-04-1.90623E-13
 -1      3441 2.77126E-03-1.05983E-04-1.45368E-14
 -1      3442 2.71708E-03-7.43529E-05-1.46888E-14
 -1      3443 2.62564E-03-6.22703E-05-1.39296E-14
 -1      3444 4.66617E-03 9.66760E-04-2.35084E-14
 -1      3445 3.31550E-03-3.50768E-04-1.64568E-14
 -1      3446 2.09417E-03-2.15591E-04-7.48693E-15
 -1      3447 2.23479E-03-2.23039E-04-8.41242E-15
 -1      3448 2.37672E-03-2.31500E-04-9.38888E-15
 -1      3449 2.52108E-03-2.42100E-04-1.04164E-14
 -1      3450 2.26248E-03-1.90033E-04-8.89127E-15
 -1      3451 2.66828E-03-2.55073E-04-1.14923E-14
 -1      3452 2.82002E-03-2.72611E-04-1.26184E-14
 -1      3453 2.54001E-03-2.04573E-04-1.09357E-14
 -1      3454 7.10171E-03-1.43026E-04-4.74060E-14
 -1      3455 6.93740E-03-1.96439E-04-4.61891E-14
 -1      3456 6.89756E-03-3.26301E-04-4.88204E-14
 -1      3457 7.05613E-03-3.03788E-04-5.10838E-14
 -1      3458 7.20880E-03-2.88480E-04-5.33826E-14
 -1      3459 7.35700E-03-2.77360E-04-5.57177E-14
 -1      3460 7.18860E-03-2.46569E-04-5.21002E-14
 -1      3461 7.50166E-03-2.70392E-04-5.80881E-14
 -1      3462 7.64407E-03-2.66066E-04-6.04924E-14
 -1      3463 7.47287E-03-2.32325E-04-5.67627E-14
 -1      3464 7.78466E-03-2.64255E-04-6.29307E-14
 -1      3465 7.92427E-03-2.64169E-04-6.54000E-14
 -1      3466 7.74774E-03-2.28540E-04-6.15629E-14
 -1      3467 8.06310E-03-2.65639E-04-6.79023E-14
 -1      3468 8.20169E-03-2.68258E-04-7.04357E-14
 -1      3469 8.01910E-03-2.30992E-04-6.64937E-14
 -1      3470 8.34008E-03-2.71825E-04-7.29994E-14
 -1      3471 8.47860E-03-2.76119E-04-7.55898E-14
 -1      3472 8.29009E-03-2.37394E-04-7.15516E-14
 -1      3473 8.61724E-03-2.80946E-04-7.82073E-14
 -1      3474 8.75617E-03-2.86180E-04-8.08547E-14
 -1      3475 8.56227E-03-2.46254E-04-7.67260E-14
 -1      3476 8.89535E-03-2.91654E-04-8.35288E-14
 -1      3477 9.03489E-03-2.97296E-04-8.62267E-14
 -1      3478 8.83630E-03-2.56483E-04-8.20116E-14
 -1      3479 9.17471E-03-3.02975E-04-8.89475E-14
 -1      3480 9.31488E-03-3.08649E-04-9.16896E-14
 -1      3481 9.11235E-03-2.67267E-04-8.73990E-14
 -1      3482 9.45533E-03-3.14226E-04-9.44575E-14
 -1      3483 9.59608E-03-3.19685E-04-9.72479E-14
 -1      3484 9.39031E-03-2.78012E-04-9.28825E-14
 -1      3485 9.73708E-03-3.24964E-04-1.00059E-13
 -1      3486 9.87834E-03-3.30060E-04-1.02892E-13
 -1      3487 9.66998E-03-2.88312E-04-9.84552E-14
 -1      3488 1.00198E-02-3.34934E-04-1.05745E-13
 -1      3489 1.01615E-02-3.39592E-04-1.08620E-13
 -1      3490 9.95109E-03-2.97925E-04-1.04115E-13
 -1      3491 1.03033E-02-3.44015E-04-1.11513E-13
 -1      3492 1.04453E-02-3.48213E-04-1.14429E-13
 -1      3493 1.02334E-02-3.06727E-04-1.09857E-13
 -1      3494 1.05875E-02-3.52183E-04-1.17367E-13
 -1      3495 1.07297E-02-3.55937E-04-1.20320E-13
 -1      3496 1.05166E-02-3.14686E-04-1.15683E-13
 -1      3497 1.08721E-02-3.59478E-04-1.23294E-13
 -1      3498 1.10145E-02-3.62822E-04-1.26288E-13
 -1      3499 1.08005E-02-3.21829E-04-1.21588E-13
 -1      3500 1.11571E-02-3.65977E-04-1.29298E-13
 -1      3501 1.12997E-02-3.68958E-04-1.32325E-13
 -1      3502 1.10850E-02-3.28221E-04-1.27567E-13
 -1      3503 1.14423E-02-3.71777E-04-1.35372E-13
 -1      3504 1.15850E-02-3.74447E-04-1.38433E-13
 -1      3505 1.13699E-02-3.33949E-04-1.33617E-13
 -1      3506 1.17277E-02-3.76980E-04-1.41508E-13
 -1      3507 1.18705E-02-3.79389E-04-1.44600E-13
 -1      3508 1.16551E-02-3.39105E-04-1.39731E-13
 -1      3509 1.20133E-02-3.81687E-04-1.47709E-13
 -1      3510 1.21561E-02-3.83883E-04-1.50831E-13
 -1      3511 1.19406E-02-3.43784E-04-1.45910E-13
 -1      3512 1.22990E-02-3.85989E-04-1.53968E-13
 -1      3513 1.24418E-02-3.88014E-04-1.57119E-13
 -1      3514 1.22261E-02-3.48071E-04-1.52148E-13
 -1      3515 1.25847E-02-3.89969E-04-1.60285E-13
 -1      3516 1.27275E-02-3.91861E-04-1.63465E-13
 -1      3517 1.25118E-02-3.52045E-04-1.58445E-13
 -1      3518 1.28704E-02-3.93699E-04-1.66658E-13
 -1      3519 1.30133E-02-3.95488E-04-1.69861E-13
 -1      3520 1.27975E-02-3.55773E-04-1.64795E-13
 -1      3521 1.31562E-02-3.97238E-04-1.73077E-13
 -1      3522 1.32990E-02-3.98952E-04-1.76306E-13
 -1      3523 1.30832E-02-3.59313E-04-1.71193E-13
 -1      3524 1.34419E-02-4.00637E-04-1.79547E-13
 -1      3525 1.35848E-02-4.02298E-04-1.82795E-13
 -1      3526 1.33690E-02-3.62714E-04-1.77640E-13
 -1      3527 4.26538E-03 8.11066E-04-2.02149E-14
 -1      3528 6.52108E-03 4.05287E-04-4.18525E-14
 -1      3529 1.17339E-03-1.54900E-04-2.68996E-15
 -1      3530 1.06382E-03-1.57710E-04-2.23103E-15
 -1      3531 7.23265E-03 2.77226E-04-5.13450E-14
 -1      3532 7.07801E-03 2.96124E-04-4.90928E-14
 -1      3533 7.53081E-03 2.53003E-04-5.59524E-14
 -1      3534 7.38328E-03 2.63421E-04-5.36319E-14
 -1      3535 7.35418E-03 2.25101E-04-5.27391E-14
 -1      3536 7.81938E-03 2.40834E-04-6.06939E-14
 -1      3537 7.67591E-03 2.45810E-04-5.83076E-14
 -1      3538 7.64044E-03 2.09896E-04-5.73896E-14
 -1      3539 8.10299E-03 2.36412E-04-6.55642E-14
 -1      3540 7.96156E-03 2.37883E-04-6.31129E-14
 -1      3541 7.91990E-03 2.03300E-04-6.21704E-14
 -1      3542 8.38444E-03 2.36917E-04-7.05632E-14
 -1      3543 8.24383E-03 2.36192E-04-6.80480E-14
 -1      3544 8.19660E-03 2.02101E-04-6.70803E-14
 -1      3545 8.66535E-03 2.40361E-04-7.56821E-14
 -1      3546 8.52487E-03 2.38366E-04-7.31084E-14
 -1      3547 8.47283E-03 2.04249E-04-7.21162E-14
 -1      3548 8.94651E-03 2.45319E-04-8.09132E-14
 -1      3549 8.80584E-03 2.42713E-04-7.82830E-14
 -1      3550 8.74974E-03 2.08307E-04-7.72684E-14
 -1      3551 9.22831E-03 2.50787E-04-8.62517E-14
 -1      3552 9.08730E-03 2.48030E-04-8.35688E-14
 -1      3553 9.02786E-03 2.13237E-04-8.25316E-14
 -1      3554 9.51084E-03 2.56085E-04-9.16944E-14
 -1      3555 9.36947E-03 2.53482E-04-8.89612E-14
 -1      3556 9.30732E-03 2.18303E-04-8.79014E-14
 -1      3557 9.79406E-03 2.60782E-04-9.72401E-14
 -1      3558 9.65235E-03 2.58522E-04-9.44540E-14
 -1      3559 9.58807E-03 2.23003E-04-9.33742E-14
 -1      3560 1.00779E-02 2.64642E-04-1.02876E-13
 -1      3561 9.93591E-03 2.62822E-04-1.00046E-13
 -1      3562 9.86996E-03 2.27026E-04-9.89456E-14
 -1      3563 1.03623E-02 2.67564E-04-1.08604E-13
 -1      3564 1.02200E-02 2.66220E-04-1.05729E-13
 -1      3565 1.01528E-02 2.30211E-04-1.04608E-13
 -1      3566 1.06470E-02 2.69543E-04-1.14419E-13
 -1      3567 1.05046E-02 2.68668E-04-1.11502E-13
 -1      3568 1.04364E-02 2.32504E-04-1.10362E-13
 -1      3569 1.09321E-02 2.70632E-04-1.20313E-13
 -1      3570 1.07895E-02 2.70193E-04-1.17356E-13
 -1      3571 1.07206E-02 2.33921E-04-1.16198E-13
 -1      3572 1.12174E-02 2.70918E-04-1.26283E-13
 -1      3573 1.10747E-02 2.70869E-04-1.23291E-13
 -1      3574 1.10053E-02 2.34526E-04-1.22113E-13
 -1      3575 1.15028E-02 2.70504E-04-1.32321E-13
 -1      3576 1.13601E-02 2.70792E-04-1.29295E-13
 -1      3577 1.12904E-02 2.34406E-04-1.28102E-13
 -1      3578 1.17884E-02 2.69499E-04-1.38424E-13
 -1      3579 1.16456E-02 2.70069E-04-1.35365E-13
 -1      3580 1.15756E-02 2.33660E-04-1.34158E-13
 -1      3581 1.20741E-02 2.68003E-04-1.44582E-13
 -1      3582 1.19312E-02 2.68806E-04-1.41495E-13
 -1      3583 1.18611E-02 2.32387E-04-1.40274E-13
 -1      3584 1.23598E-02 2.66111E-04-1.50794E-13
 -1      3585 1.22169E-02 2.67101E-04-1.47682E-13
 -1      3586 1.21467E-02 2.30681E-04-1.46445E-13
 -1      3587 1.26455E-02 2.63905E-04-1.57050E-13
 -1      3588 1.25026E-02 2.65043E-04-1.53918E-13
 -1      3589 1.24324E-02 2.28627E-04-1.52672E-13
 -1      3590 1.29312E-02 2.61456E-04-1.63337E-13
 -1      3591 1.27884E-02 2.62707E-04-1.60190E-13
 -1      3592 1.27181E-02 2.26299E-04-1.58937E-13
 -1      3593 1.32170E-02 2.58826E-04-1.69652E-13
 -1      3594 1.30741E-02 2.60161E-04-1.66492E-13
 -1      3595 1.30038E-02 2.23760E-04-1.65234E-13
 -1      3596 1.35028E-02 2.56063E-04-1.75996E-13
 -1      3597 1.33599E-02 2.57458E-04-1.72822E-13
 -1      3598 1.32896E-02 2.21063E-04-1.71561E-13
 -1      3599 1.37885E-02 2.53210E-04-1.82362E-13
 -1      3600 1.36456E-02 2.54645E-04-1.79176E-13
 -1      3601 1.35754E-02 2.18254E-04-1.77913E-13
 -1      3602 3.64112E-03 5.23553E-04-1.61120E-14
 -1      3603 2.51664E-03-3.57324E-05-1.32327E-14
 -1      3604 2.47313E-03-2.05929E-05-1.29459E-14
 -1      3605 2.21907E-03 2.55876E-04-7.04271E-15
 -1      3606 2.07453E-03 2.46794E-04-6.22226E-15
 -1      3607 1.40987E-02 2.11335E-04-1.89627E-13
 -1      3608 1.41038E-02 2.46721E-04-1.89446E-13
 -1      3609 1.40155E-02 2.51118E-04-1.87438E-13
 -1      3610 1.39756E-02 1.91707E-04-1.87039E-13
 -1      3611 6.77012E-03-2.62621E-04-4.50448E-14
 -1      3612 6.60878E-03-3.36556E-04-4.39968E-14
 -1      3613 2.51400E-03 2.78886E-04-8.83332E-15
 -1      3614 2.36528E-03 2.66189E-04-7.91305E-15
 -1      3615 2.25107E-03 2.22050E-04-7.58950E-15
 -1      3616 1.38428E-02-1.51338E-04-1.86794E-13
 -1      3617 1.38413E-02-1.09915E-04-1.86441E-13
 -1      3618 3.25055E-03 3.12678E-04-1.47243E-14
 -1      3619 3.44893E-03 4.14247E-04-1.54120E-14
 -1      3620 3.47648E-03 4.57306E-04-1.51710E-14
 -1      3621 2.88050E-03 1.66122E-04-1.33625E-14
 -1      3622 3.05309E-03 2.36083E-04-1.38810E-14
 -1      3623 2.82171E-03 3.14349E-04-1.08217E-14
 -1      3624 2.66571E-03 2.94303E-04-9.80288E-15
 -1      3625 2.54001E-03 2.41275E-04-9.44186E-15
 -1      3626 6.91815E-03 3.20242E-04-4.68784E-14
 -1      3627 6.75250E-03 3.52586E-04-4.47007E-14
 -1      3628 7.05442E-03 2.54488E-04-4.82268E-14
 -1      3629 6.67665E-03 3.17186E-04-4.31416E-14
 -1      3630 6.42853E-03-4.33794E-04-4.28962E-14
 -1      3631 1.53877E-03-1.87614E-04-4.30375E-15
 -1      3632 1.67716E-03-1.95245E-04-5.02041E-15
 -1      3633 9.54077E-04-2.53367E-05-2.06370E-15
 -1      3634 9.59022E-04-4.29907E-05-2.07603E-15
 -1      3635 1.07307E-03-5.65459E-05-2.51523E-15
 -1      3636 7.17016E-03 4.50303E-05-4.53612E-14
 -1      3637 7.25898E-03 2.14933E-05-4.61795E-14
 -1      3638 7.15050E-03 7.65495E-05-4.61602E-14
 -1      3639 1.81567E-03-2.02195E-04-5.79041E-15
 -1      3640 1.95468E-03-2.08852E-04-6.61281E-15
 -1      3641 1.98993E-03-1.79361E-04-7.04601E-15
 -1      3642 2.44356E-03-1.77188E-06-1.25249E-14
 -1      3643 2.46506E-03 1.71140E-05-1.23968E-14
 -1      3644 1.34177E-03 2.19301E-04-2.68717E-15
 -1      3645 1.28927E-03 1.93796E-04-2.60913E-15
 -1      3646 1.48420E-03 2.31100E-04-3.23264E-15
 -1      3647 6.86764E-03 2.26878E-04-4.47774E-14
 -1      3648 6.56489E-03-3.98104E-04-4.45456E-14
 -1      3649 1.71883E-03-1.68932E-04-5.40530E-15
 -1      3650 7.34408E-03 7.36834E-06-4.76158E-14
 -1      3651 7.41593E-03-2.79345E-06-4.90642E-14
 -1      3652 7.34244E-03 2.80300E-05-4.84362E-14
 -1      3653 2.36306E-03 2.63368E-05-1.11196E-14
 -1      3654 2.46017E-03 3.67021E-05-1.18997E-14
 -1      3655 2.45981E-03 6.00561E-05-1.14078E-14
 -1      3656 7.38673E-03-3.96684E-05-4.84655E-14
 -1      3657 7.39163E-03-5.67755E-05-4.94831E-14
 -1      3658 7.42863E-03-3.04490E-05-4.92563E-14
 -1      3659 6.90016E-03-2.40937E-04-4.68171E-14
 -1      3660 7.20275E-03-1.16395E-04-4.83371E-14
 -1      3661 7.16102E-03-1.52840E-04-4.89142E-14
 -1      3662 7.29301E-03-9.70081E-05-4.92716E-14
 -1      3663 2.97743E-03-2.94889E-04-1.37939E-14
 -1      3664 3.14222E-03-3.25924E-04-1.50185E-14
 -1      3665 1.06154E-03-1.81909E-05-2.48572E-15
 -1      3666 2.57027E-03-7.77940E-05-1.29438E-14
 -1      3667 2.53947E-03-5.46898E-05-1.30904E-14
 -1      3668 2.45775E-03-4.92070E-05-1.22759E-14
 -1      3669 6.73923E-03-3.56529E-04-4.67390E-14
 -1      3670 2.94308E-03 2.98233E-04-1.20281E-14
 -1      3671 2.80095E-03 2.34205E-04-1.16188E-14
 -1      3672 1.36919E-02-4.09464E-04-1.85278E-13
 -1      3673 1.38164E-02-4.11342E-04-1.88127E-13
 -1      3674 1.38332E-02-3.85850E-04-1.88324E-13
 -1      3675 1.36190E-02-3.71540E-04-1.83356E-13
 -1      3676 3.09210E-03 2.77556E-04-1.36606E-14
 -1      3677 1.38370E-02 1.89420E-04-1.83965E-13
 -1      3678 1.38569E-02 2.19121E-04-1.84166E-13
 -1      3679 1.23132E-03-1.32732E-04-3.01926E-15
 -1      3680 1.29673E-03-1.65575E-04-3.20098E-15
 -1      3681 1.42059E-03-1.75118E-04-3.75577E-15
 -1      3682 1.37168E-02-8.72488E-05-1.83467E-13
 -1      3683 1.38398E-02-6.78674E-05-1.86080E-13
 -1      3684 1.38383E-02-2.58197E-05-1.85719E-13
 -1      3685 1.39271E-02 2.55512E-04-1.85431E-13
 -1      3686 1.21402E-03-1.07171E-04-3.02120E-15
 -1      3687 1.33269E-03-1.14121E-04-3.55948E-15
 -1      3688 1.19946E-03-8.34140E-05-3.01721E-15
 -1      3689 6.89180E-03-2.81012E-04-4.77266E-14
 -1      3690 1.96921E-03 2.08069E-04-5.93525E-15
 -1      3691 1.93136E-03 2.38524E-04-5.45264E-15
 -1      3692 1.38444E-02-1.93476E-04-1.87150E-13
 -1      3693 1.37198E-02-1.71410E-04-1.84174E-13
 -1      3694 1.38459E-02-2.35615E-04-1.87506E-13
 -1      3695 3.29609E-03 4.06215E-04-1.39630E-14
 -1      3696 1.80966E-03 2.35244E-04-4.80651E-15
 -1      3697 2.84537E-03-1.47652E-04-1.45076E-14
 -1      3698 2.73110E-03-1.24780E-04-1.37509E-14
 -1      3699 2.73366E-03 1.34413E-04-1.25244E-14
 -1      3700 2.75555E-03 1.77177E-04-1.20292E-14
 -1      3701 2.59857E-03 1.12086E-04-1.17112E-14
 -1      3702 1.38340E-02 1.00062E-04-1.84622E-13
 -1      3703 1.38326E-02 1.42204E-04-1.84252E-13
 -1      3704 2.40028E-03-1.13539E-05-1.20074E-14
 -1      3705 2.91678E-03-1.81654E-04-1.46656E-14
 -1      3706 1.46737E-03-1.52183E-04-4.09247E-15
 -1      3707 3.14050E-03-2.63459E-04-1.57678E-14
 -1      3708 1.26737E-03 1.63186E-04-2.68190E-15
 -1      3709 1.17335E-03 2.99715E-05-2.88527E-15
 -1      3710 1.16957E-03 9.99971E-06-2.91733E-15
 -1      3711 1.19088E-03 7.22341E-05-2.80646E-15
 -1      3712 1.18052E-03 5.05277E-05-2.84867E-15
 -1      3713 1.28608E-03 4.21288E-05-3.36501E-15
 -1      3714 1.38499E-02-3.60357E-04-1.88521E-13
 -1      3715 1.38666E-02-3.34863E-04-1.88714E-13
 -1      3716 1.37428E-02-3.53211E-04-1.86035E-13
 -1      3717 1.37139E-02 1.69611E-04-1.81384E-13
 -1      3718 2.82990E-03-2.29767E-04-1.31756E-14
 -1      3719 1.38650E-02-2.92720E-04-1.88367E-13
 -1      3720 2.15493E-03-1.54017E-04-8.40131E-15
 -1      3721 2.28687E-03-1.57763E-04-9.37073E-15
 -1      3722 1.89157E-03-1.47063E-04-6.61336E-15
 -1      3723 2.02345E-03-1.50585E-04-7.48239E-15
 -1      3724 2.05531E-03-1.22513E-04-7.92117E-15
 -1      3725 2.41886E-03-1.62109E-04-1.03888E-14
 -1      3726 2.55262E-03-1.67641E-04-1.14549E-14
 -1      3727 2.30778E-03-1.26198E-04-9.85102E-15
 -1      3728 1.37405E-02-2.70625E-04-1.85379E-13
 -1      3729 7.04372E-03-2.21861E-04-4.88979E-14
 -1      3730 1.41643E-03 1.69709E-04-3.30107E-15
 -1      3731 1.25922E-03 1.32203E-04-2.81146E-15
 -1      3732 3.12351E-03 3.66600E-04-1.28050E-14
 -1      3733 7.44963E-03-1.95083E-04-5.54425E-14
 -1      3734 7.58257E-03-1.93707E-04-5.78061E-14
 -1      3735 7.71422E-03-1.93958E-04-6.02009E-14
 -1      3736 7.84586E-03-1.95307E-04-6.26290E-14
 -1      3737 7.68408E-03-1.60454E-04-5.88455E-14
 -1      3738 7.97734E-03-1.97609E-04-6.50905E-14
 -1      3739 8.10933E-03-2.00645E-04-6.75833E-14
 -1      3740 7.93762E-03-1.65485E-04-6.36925E-14
 -1      3741 8.24169E-03-2.04258E-04-7.01087E-14
 -1      3742 8.37480E-03-2.08370E-04-7.26639E-14
 -1      3743 8.19464E-03-1.72431E-04-6.86713E-14
 -1      3744 8.50852E-03-2.12813E-04-7.52474E-14
 -1      3745 8.64303E-03-2.17566E-04-7.78582E-14
 -1      3746 8.45574E-03-1.80647E-04-7.37719E-14
 -1      3747 8.77823E-03-2.22471E-04-8.04973E-14
 -1      3748 8.91419E-03-2.27526E-04-8.31650E-14
 -1      3749 8.72092E-03-1.89644E-04-7.89885E-14
 -1      3750 9.05080E-03-2.32597E-04-8.58549E-14
 -1      3751 9.18810E-03-2.37690E-04-8.85688E-14
 -1      3752 8.98989E-03-1.98992E-04-8.43113E-14
 -1      3753 9.32598E-03-2.42698E-04-9.13068E-14
 -1      3754 9.46447E-03-2.47635E-04-9.40696E-14
 -1      3755 9.26221E-03-2.08317E-04-8.97351E-14
 -1      3756 9.60346E-03-2.52422E-04-9.68532E-14
 -1      3757 9.74295E-03-2.57076E-04-9.96592E-14
 -1      3758 9.53741E-03-2.17328E-04-9.52526E-14
 -1      3759 9.88285E-03-2.61544E-04-1.02487E-13
 -1      3760 1.00232E-02-2.65847E-04-1.05335E-13
 -1      3761 9.81502E-03-2.25830E-04-1.00859E-13
 -1      3762 1.01638E-02-2.69949E-04-1.08203E-13
 -1      3763 1.03048E-02-2.73870E-04-1.11092E-13
 -1      3764 1.00946E-02-2.33714E-04-1.06550E-13
 -1      3765 1.04460E-02-2.77594E-04-1.14002E-13
 -1      3766 1.05875E-02-2.81138E-04-1.16934E-13
 -1      3767 1.03758E-02-2.40938E-04-1.12324E-13
 -1      3768 1.07292E-02-2.84495E-04-1.19885E-13
 -1      3769 1.08711E-02-2.87685E-04-1.22852E-13
 -1      3770 1.06582E-02-2.47506E-04-1.18181E-13
 -1      3771 1.10132E-02-2.90706E-04-1.25840E-13
 -1      3772 1.11554E-02-2.93577E-04-1.28843E-13
 -1      3773 1.09415E-02-2.53458E-04-1.24114E-13
 -1      3774 1.12977E-02-2.96301E-04-1.31865E-13
 -1      3775 1.14401E-02-2.98894E-04-1.34904E-13
 -1      3776 1.12256E-02-2.58857E-04-1.30117E-13
 -1      3777 1.15826E-02-3.01363E-04-1.37959E-13
 -1      3778 1.17252E-02-3.03721E-04-1.41027E-13
 -1      3779 1.15103E-02-2.63773E-04-1.36187E-13
 -1      3780 1.18679E-02-3.05977E-04-1.44114E-13
 -1      3781 1.20106E-02-3.08140E-04-1.47217E-13
 -1      3782 1.17953E-02-2.68281E-04-1.42323E-13
 -1      3783 1.21533E-02-3.10220E-04-1.50332E-13
 -1      3784 1.22961E-02-3.12226E-04-1.53462E-13
 -1      3785 1.20806E-02-2.72449E-04-1.48519E-13
 -1      3786 1.24389E-02-3.14166E-04-1.56607E-13
 -1      3787 1.25817E-02-3.16047E-04-1.59765E-13
 -1      3788 1.23661E-02-2.76343E-04-1.54773E-13
 -1      3789 1.27246E-02-3.17877E-04-1.62938E-13
 -1      3790 1.28675E-02-3.19662E-04-1.66121E-13
 -1      3791 1.26517E-02-2.80020E-04-1.61083E-13
 -1      3792 1.30103E-02-3.21408E-04-1.69317E-13
 -1      3793 1.31532E-02-3.23120E-04-1.72523E-13
 -1      3794 1.29374E-02-2.83527E-04-1.67442E-13
 -1      3795 1.32961E-02-3.24803E-04-1.75739E-13
 -1      3796 1.34390E-02-3.26462E-04-1.78968E-13
 -1      3797 1.32232E-02-2.86908E-04-1.73846E-13
 -1      3798 1.35710E-02 1.71057E-04-1.78196E-13
 -1      3799 2.74379E-03-1.91174E-04-1.28650E-14
 -1      3800 2.88830E-03-2.05516E-04-1.40407E-14
 -1      3801 8.01635E-03 1.68931E-04-6.36513E-14
 -1      3802 7.88107E-03 1.69644E-04-6.12254E-14
 -1      3803 2.65384E-03 2.00929E-04-1.08405E-14
 -1      3804 7.47151E-03 1.79303E-04-5.41395E-14
 -1      3805 7.33137E-03 1.86701E-04-5.18439E-14
 -1      3806 8.28679E-03 1.69934E-04-6.86003E-14
 -1      3807 8.15144E-03 1.69102E-04-6.61102E-14
 -1      3808 8.10817E-03 1.37192E-04-6.51371E-14
 -1      3809 8.55842E-03 1.73011E-04-7.36706E-14
 -1      3810 8.42236E-03 1.71271E-04-7.11199E-14
 -1      3811 8.37330E-03 1.39445E-04-7.01234E-14
 -1      3812 8.83194E-03 1.77191E-04-7.88566E-14
 -1      3813 8.69490E-03 1.74999E-04-7.62500E-14
 -1      3814 8.64116E-03 1.42815E-04-7.52283E-14
 -1      3815 9.10752E-03 1.81760E-04-8.41520E-14
 -1      3816 8.96945E-03 1.79451E-04-8.14920E-14
 -1      3817 8.91194E-03 1.46702E-04-8.04485E-14
 -1      3818 9.38506E-03 1.86197E-04-8.95533E-14
 -1      3819 9.24604E-03 1.84010E-04-8.68407E-14
 -1      3820 9.18550E-03 1.50640E-04-8.57783E-14
 -1      3821 9.66437E-03 1.90146E-04-9.50570E-14
 -1      3822 9.52450E-03 1.88240E-04-9.22917E-14
 -1      3823 9.46155E-03 1.54273E-04-9.12087E-14
 -1      3824 9.94518E-03 1.93393E-04-1.00652E-13
 -1      3825 9.80459E-03 1.91859E-04-9.78426E-14
 -1      3826 9.73975E-03 1.57362E-04-9.67376E-14
 -1      3827 1.02272E-02 1.95837E-04-1.06345E-13
 -1      3828 1.00861E-02 1.94713E-04-1.03488E-13
 -1      3829 1.00197E-02 1.59766E-04-1.02364E-13
 -1      3830 1.05102E-02 1.97458E-04-1.12122E-13
 -1      3831 1.03686E-02 1.96746E-04-1.09222E-13
 -1      3832 1.03012E-02 1.61431E-04-1.08081E-13
 -1      3833 1.07940E-02 1.98288E-04-1.17977E-13
 -1      3834 1.06521E-02 1.97966E-04-1.15039E-13
 -1      3835 1.05838E-02 1.62361E-04-1.13879E-13
 -1      3836 1.10784E-02 1.98395E-04-1.23914E-13
 -1      3837 1.09362E-02 1.98426E-04-1.20936E-13
 -1      3838 1.08672E-02 1.62597E-04-1.19759E-13
 -1      3839 1.13633E-02 1.97862E-04-1.29919E-13
 -1      3840 1.12208E-02 1.98202E-04-1.26908E-13
 -1      3841 1.11514E-02 1.62204E-04-1.25713E-13
 -1      3842 1.16484E-02 1.96782E-04-1.35992E-13
 -1      3843 1.15058E-02 1.97384E-04-1.32947E-13
 -1      3844 1.14361E-02 1.61262E-04-1.31737E-13
 -1      3845 1.19338E-02 1.95243E-04-1.42120E-13
 -1      3846 1.17911E-02 1.96064E-04-1.39048E-13
 -1      3847 1.17212E-02 1.59854E-04-1.37823E-13
 -1      3848 1.22193E-02 1.93330E-04-1.48311E-13
 -1      3849 1.20766E-02 1.94329E-04-1.45210E-13
 -1      3850 1.20065E-02 1.58057E-04-1.43970E-13
 -1      3851 1.25050E-02 1.91118E-04-1.54546E-13
 -1      3852 1.23622E-02 1.92258E-04-1.51421E-13
 -1      3853 1.22920E-02 1.55944E-04-1.50172E-13
 -1      3854 1.27907E-02 1.88671E-04-1.60823E-13
 -1      3855 1.26478E-02 1.89921E-04-1.57681E-13
 -1      3856 1.25776E-02 1.53580E-04-1.56419E-13
 -1      3857 1.30764E-02 1.86045E-04-1.67130E-13
 -1      3858 1.29336E-02 1.87378E-04-1.63972E-13
 -1      3859 1.28633E-02 1.51021E-04-1.62707E-13
 -1      3860 1.33622E-02 1.83287E-04-1.73468E-13
 -1      3861 1.32193E-02 1.84680E-04-1.70295E-13
 -1      3862 1.31491E-02 1.48313E-04-1.69027E-13
 -1      3863 7.17042E-03-1.81524E-04-5.00355E-14
 -1      3864 7.16655E-03-2.17449E-04-5.09712E-14
 -1      3865 7.30670E-03-2.09841E-04-5.32659E-14
 -1      3866 7.26938E-03-1.54274E-04-5.09876E-14
 -1      3867 2.00503E-03 1.77933E-04-6.42994E-15
 -1      3868 1.86861E-03 1.73083E-04-5.64598E-15
 -1      3869 2.27968E-03 1.88286E-04-8.14720E-15
 -1      3870 2.14181E-03 1.82830E-04-7.26380E-15
 -1      3871 2.03876E-03 1.48047E-04-6.93671E-15
 -1      3872 1.44494E-03-1.23642E-04-4.09384E-15
 -1      3873 1.55800E-03-1.32950E-04-4.66481E-15
 -1      3874 1.42562E-03-9.70860E-05-4.08853E-15
 -1      3875 2.53594E-03 1.97550E-04-9.94148E-15
 -1      3876 2.39545E-03 1.89702E-04-8.96665E-15
 -1      3877 2.28259E-03 1.50424E-04-8.60386E-15
 -1      3878 2.50361E-03 1.49324E-04-1.03206E-14
 -1      3879 7.18832E-03 1.96808E-04-4.95828E-14
 -1      3880 7.04030E-03 2.11901E-04-4.73573E-14
 -1      3881 7.31520E-03 1.47893E-04-5.09454E-14
 -1      3882 2.35342E-03-2.62420E-05-1.13954E-14
 -1      3883 2.31632E-03-5.61005E-06-1.10034E-14
 -1      3884 1.16929E-03-9.60170E-06-2.94434E-15
 -1      3885 1.17248E-03-2.94310E-05-2.96651E-15
 -1      3886 1.27746E-03 1.01588E-07-3.43763E-15
 -1      3887 1.17916E-03-4.50475E-05-2.98856E-15
 -1      3888 1.18833E-03-6.62164E-05-3.00213E-15
 -1      3889 1.30344E-03-7.07907E-05-3.53725E-15
 -1      3890 1.28492E-03-3.67802E-05-3.49277E-15
 -1      3891 7.16424E-03 1.04268E-04-4.72933E-14
 -1      3892 7.25903E-03 7.09358E-05-4.81337E-14
 -1      3893 1.70845E-03 2.36279E-04-4.26995E-15
 -1      3894 1.58634E-03 2.31759E-04-3.70071E-15
 -1      3895 1.53062E-03 2.05507E-04-3.60885E-15
 -1      3896 1.73064E-03 2.03638E-04-4.62685E-15
 -1      3897 1.24168E-03 1.06079E-04-2.86944E-15
 -1      3898 1.38368E-02 1.60954E-05-1.85357E-13
 -1      3899 1.38354E-02 5.81448E-05-1.84988E-13
 -1      3900 1.37110E-02 8.04979E-05-1.82032E-13
 -1      3901 1.37138E-02-3.31123E-06-1.82755E-13
 -1      3902 7.74559E-03 1.71345E-04-5.88309E-14
 -1      3903 7.60906E-03 1.74572E-04-5.64685E-14
 -1      3904 7.58196E-03 1.39653E-04-5.55454E-14
 -1      3905 7.84500E-03 1.36862E-04-6.02776E-14
 -1      3906 7.02030E-03 1.61713E-04-4.60872E-14
 -1      3907 1.65867E-03-1.38215E-04-5.21528E-15
 -1      3908 1.79089E-03-1.42373E-04-5.99469E-15
 -1      3909 1.83011E-03-1.16936E-04-6.39389E-15
 -1      3910 1.63407E-03-1.09303E-04-5.20820E-15
 -1      3911 1.35008E-02 1.34683E-04-1.76922E-13
 -1      3912 2.60967E-03-1.43446E-04-1.22637E-14
 -1      3913 7.23025E-03 1.25531E-04-4.89907E-14
 -1      3914 7.08125E-03 1.27280E-04-4.63736E-14
 -1      3915 7.38807E-03 7.45778E-05-5.07582E-14
 -1      3916 7.36270E-03 4.99460E-05-4.95946E-14
 -1      3917 7.45575E-03 3.39705E-05-5.10691E-14
 -1      3918 7.36080E-03 1.20521E-04-5.12452E-14
 -1      3919 7.46794E-03 9.65715E-05-5.27440E-14
 -1      3920 2.28521E-03 1.08119E-05-1.05419E-14
 -1      3921 2.26179E-03 2.88001E-05-1.00852E-14
 -1      3922 2.21793E-03-4.02110E-06-9.97158E-15
 -1      3923 7.46421E-03-1.73837E-05-5.00989E-14
 -1      3924 7.49793E-03-3.15061E-05-5.11377E-14
 -1      3925 7.48892E-03-2.38807E-06-5.09416E-14
 -1      3926 7.39162E-03-7.98790E-05-5.05634E-14
 -1      3927 7.36757E-03-1.06021E-04-5.11572E-14
 -1      3928 1.51534E-03 1.69262E-04-3.77241E-15
 -1      3929 1.36357E-02-3.46059E-04-1.83556E-13
 -1      3930 7.42435E-03-1.68619E-04-5.42828E-14
 -1      3931 1.35628E-02-3.08148E-04-1.81635E-13
 -1      3932 7.45886E-03-6.55428E-05-5.13744E-14
 -1      3933 3.03458E-03-2.11985E-04-1.54187E-14
 -1      3934 1.35938E-02-1.06929E-04-1.80859E-13
 -1      3935 1.35923E-02-6.49079E-05-1.80508E-13
 -1      3936 1.35437E-02-2.51077E-04-1.80794E-13
 -1      3937 2.55855E-03-1.08347E-04-1.23013E-14
 -1      3938 1.35969E-02-1.91152E-04-1.81555E-13
 -1      3939 1.35953E-02-1.49040E-04-1.81208E-13
 -1      3940 1.34708E-02-1.26682E-04-1.78249E-13
 -1      3941 1.81182E-03 1.48948E-04-5.51744E-15
 -1      3942 1.77192E-03 1.76150E-04-5.06593E-15
 -1      3943 1.67427E-03 1.78529E-04-4.51650E-15
 -1      3944 2.47711E-03 8.54347E-05-1.10951E-14
 -1      3945 2.48632E-03 1.18349E-04-1.06351E-14
 -1      3946 2.38100E-03 1.20733E-04-9.74592E-15
 -1      3947 2.35866E-03 6.86079E-05-1.03472E-14
 -1      3948 1.38608E-03 1.07341E-05-3.96489E-15
 -1      3949 1.38564E-03-1.08214E-05-3.99973E-15
 -1      3950 2.35569E-03-4.29364E-05-1.12615E-14
 -1      3951 2.25528E-03-3.68519E-05-1.02879E-14
 -1      3952 2.36616E-03-6.18154E-05-1.11228E-14
 -1      3953 1.34700E-03 9.84888E-05-3.39083E-15
 -1      3954 1.35036E-02 5.09121E-05-1.77641E-13
 -1      3955 1.35021E-02 9.27952E-05-1.77284E-13
 -1      3956 1.32933E-02 1.05053E-04-1.72554E-13
 -1      3957 1.40034E-03 5.51652E-05-3.87731E-15
 -1      3958 1.39105E-03 3.24879E-05-3.92404E-15
 -1      3959 1.49549E-03 2.19914E-05-4.52516E-15
 -1      3960 1.96375E-03-9.51042E-05-7.44959E-15
 -1      3961 2.08647E-03-9.59093E-05-8.36186E-15
 -1      3962 2.21940E-03-8.80465E-05-9.50661E-15
 -1      3963 2.33624E-03-8.77191E-05-1.05237E-14
 -1      3964 1.56072E-03 1.45070E-04-4.16244E-15
 -1      3965 8.72107E-03 1.13462E-04-7.67910E-14
 -1      3966 8.58808E-03 1.11851E-04-7.42062E-14
 -1      3967 7.65628E-03-1.29052E-04-5.74947E-14
 -1      3968 7.77704E-03-1.32057E-04-5.98818E-14
 -1      3969 2.45794E-03-9.79781E-05-1.15082E-14
 -1      3970 7.89902E-03-1.35106E-04-6.23030E-14
 -1      3971 8.02291E-03-1.38571E-04-6.47557E-14
 -1      3972 7.86115E-03-1.06622E-04-6.09183E-14
 -1      3973 8.14818E-03-1.42144E-04-6.72393E-14
 -1      3974 8.27510E-03-1.45971E-04-6.97549E-14
 -1      3975 8.10186E-03-1.13419E-04-6.58149E-14
 -1      3976 8.40333E-03-1.49867E-04-7.23015E-14
 -1      3977 8.53301E-03-1.53950E-04-7.48771E-14
 -1      3978 8.35091E-03-1.20488E-04-7.08360E-14
 -1      3979 8.66390E-03-1.58061E-04-7.74828E-14
 -1      3980 8.79604E-03-1.62292E-04-8.01148E-14
 -1      3981 8.60685E-03-1.27732E-04-7.59804E-14
 -1      3982 8.92923E-03-1.66496E-04-8.27718E-14
 -1      3983 9.06349E-03-1.70740E-04-8.54561E-14
 -1      3984 8.86859E-03-1.35119E-04-8.12362E-14
 -1      3985 9.19867E-03-1.74906E-04-8.81660E-14
 -1      3986 9.33475E-03-1.79047E-04-9.08983E-14
 -1      3987 9.13519E-03-1.42480E-04-8.65974E-14
 -1      3988 9.47160E-03-1.83068E-04-9.36546E-14
 -1      3989 9.60918E-03-1.87013E-04-9.64338E-14
 -1      3990 9.40587E-03-1.49662E-04-9.20574E-14
 -1      3991 9.74741E-03-1.90819E-04-9.92326E-14
 -1      3992 9.88625E-03-1.94517E-04-1.02055E-13
 -1      3993 9.67992E-03-1.56531E-04-9.76090E-14
 -1      3994 1.00256E-02-1.98063E-04-1.04900E-13
 -1      3995 1.01654E-02-2.01486E-04-1.07763E-13
 -1      3996 9.95672E-03-1.63016E-04-1.03248E-13
 -1      3997 1.03057E-02-2.04757E-04-1.10649E-13
 -1      3998 1.04463E-02-2.07899E-04-1.13555E-13
 -1      3999 1.02357E-02-1.69072E-04-1.08973E-13
 -1      4000 1.05873E-02-2.10896E-04-1.16481E-13
 -1      4001 1.07285E-02-2.13768E-04-1.19427E-13
 -1      4002 1.05165E-02-1.74685E-04-1.14781E-13
 -1      4003 1.08700E-02-2.16507E-04-1.22390E-13
 -1      4004 1.10117E-02-2.19133E-04-1.25372E-13
 -1      4005 1.07986E-02-1.79873E-04-1.20667E-13
 -1      4006 1.11537E-02-2.21641E-04-1.28371E-13
 -1      4007 1.12957E-02-2.24049E-04-1.31387E-13
 -1      4008 1.10818E-02-1.84673E-04-1.26626E-13
 -1      4009 1.14380E-02-2.26356E-04-1.34419E-13
 -1      4010 1.15803E-02-2.28576E-04-1.37468E-13
 -1      4011 1.13658E-02-1.89128E-04-1.32654E-13
 -1      4012 1.17228E-02-2.30713E-04-1.40533E-13
 -1      4013 1.18653E-02-2.32776E-04-1.43614E-13
 -1      4014 1.16503E-02-1.93287E-04-1.38746E-13
 -1      4015 1.20079E-02-2.34771E-04-1.46711E-13
 -1      4016 1.21506E-02-2.36706E-04-1.49820E-13
 -1      4017 1.19353E-02-1.97198E-04-1.44903E-13
 -1      4018 1.22933E-02-2.38587E-04-1.52943E-13
 -1      4019 1.24361E-02-2.40419E-04-1.56081E-13
 -1      4020 1.22206E-02-2.00905E-04-1.51117E-13
 -1      4021 1.25789E-02-2.42208E-04-1.59232E-13
 -1      4022 1.27217E-02-2.43960E-04-1.62396E-13
 -1      4023 1.25061E-02-2.04450E-04-1.57385E-13
 -1      4024 1.28646E-02-2.45678E-04-1.65572E-13
 -1      4025 1.30074E-02-2.47368E-04-1.68758E-13
 -1      4026 1.27918E-02-2.07866E-04-1.63705E-13
 -1      4027 1.31503E-02-2.49033E-04-1.71956E-13
 -1      4028 1.32932E-02-2.50677E-04-1.75162E-13
 -1      4029 1.30775E-02-2.11183E-04-1.70069E-13
 -1      4030 8.45613E-03 1.10362E-04-7.16501E-14
 -1      4031 8.32512E-03 1.08938E-04-6.91245E-14
 -1      4032 8.53538E-03 8.21320E-05-7.31800E-14
 -1      4033 7.56194E-03 3.27986E-05-5.33191E-14
 -1      4034 7.52548E-03 1.38347E-05-5.21281E-14
 -1      4035 7.58300E-03-3.05398E-06-5.31903E-14
 -1      4036 1.34192E-02-2.28677E-04-1.77833E-13
 -1      4037 8.19525E-03 1.07727E-04-6.66275E-14
 -1      4038 8.06627E-03 1.06681E-04-6.41623E-14
 -1      4039 8.27751E-03 7.97655E-05-6.81211E-14
 -1      4040 8.98978E-03 1.16696E-04-8.20447E-14
 -1      4041 8.85496E-03 1.15062E-04-7.94045E-14
 -1      4042 8.79828E-03 8.45483E-05-7.83565E-14
 -1      4043 9.26185E-03 1.19767E-04-8.74045E-14
 -1      4044 9.12541E-03 1.18251E-04-8.47114E-14
 -1      4045 9.06559E-03 8.68680E-05-8.36432E-14
 -1      4046 9.53683E-03 1.22452E-04-9.28667E-14
 -1      4047 9.39899E-03 1.21156E-04-9.01242E-14
 -1      4048 9.33668E-03 8.89134E-05-8.90348E-14
 -1      4049 9.81424E-03 1.24590E-04-9.84242E-14
 -1      4050 9.67525E-03 1.23586E-04-9.56343E-14
 -1      4051 9.61098E-03 9.05572E-05-9.45266E-14
 -1      4052 1.00936E-02 1.26099E-04-1.04078E-13
 -1      4053 9.95371E-03 1.25418E-04-1.01238E-13
 -1      4054 9.88790E-03 9.16974E-05-1.00113E-13
 -1      4055 1.03747E-02 1.26959E-04-1.09819E-13
 -1      4056 1.02340E-02 1.26605E-04-1.06938E-13
 -1      4057 1.01670E-02 9.22932E-05-1.05792E-13
 -1      4058 1.06570E-02 1.27187E-04-1.15639E-13
 -1      4059 1.05157E-02 1.27146E-04-1.12719E-13
 -1      4060 1.04478E-02 9.23471E-05-1.11556E-13
 -1      4061 1.09402E-02 1.26826E-04-1.21540E-13
 -1      4062 1.07985E-02 1.27074E-04-1.18580E-13
 -1      4063 1.07299E-02 9.18802E-05-1.17400E-13
 -1      4064 1.12243E-02 1.25939E-04-1.27513E-13
 -1      4065 1.10822E-02 1.26442E-04-1.24519E-13
 -1      4066 1.10131E-02 9.09369E-05-1.23321E-13
 -1      4067 1.15089E-02 1.24596E-04-1.33556E-13
 -1      4068 1.13665E-02 1.25319E-04-1.30526E-13
 -1      4069 1.12970E-02 8.95723E-05-1.29313E-13
 -1      4070 1.17939E-02 1.22868E-04-1.39657E-13
 -1      4071 1.16513E-02 1.23776E-04-1.36599E-13
 -1      4072 1.15816E-02 8.78451E-05-1.35372E-13
 -1      4073 1.20792E-02 1.20822E-04-1.45821E-13
 -1      4074 1.19365E-02 1.21881E-04-1.42731E-13
 -1      4075 1.18666E-02 8.58136E-05-1.41492E-13
 -1      4076 1.23647E-02 1.18518E-04-1.52034E-13
 -1      4077 1.22219E-02 1.19699E-04-1.48923E-13
 -1      4078 1.21518E-02 8.35320E-05-1.47669E-13
 -1      4079 1.26503E-02 1.16011E-04-1.58295E-13
 -1      4080 1.25075E-02 1.17287E-04-1.55159E-13
 -1      4081 1.24373E-02 8.10492E-05-1.53897E-13
 -1      4082 1.29360E-02 1.13346E-04-1.64592E-13
 -1      4083 1.27931E-02 1.14696E-04-1.61440E-13
 -1      4084 1.27230E-02 7.84081E-05-1.60169E-13
 -1      4085 1.31861E-02 1.08517E-04-1.70153E-13
 -1      4086 1.30432E-02 1.09917E-04-1.66984E-13
 -1      4087 1.29730E-02 7.36007E-05-1.65708E-13
 -1      4088 1.31875E-02 6.66767E-05-1.70504E-13
 -1      4089 7.38395E-03-1.23965E-04-5.21413E-14
 -1      4090 7.40180E-03-1.49198E-04-5.32912E-14
 -1      4091 7.53198E-03-1.40621E-04-5.54635E-14
 -1      4092 7.48567E-03-1.05590E-04-5.34615E-14
 -1      4093 7.59123E-03 9.58805E-05-5.50549E-14
 -1      4094 7.60031E-03 5.63315E-05-5.45520E-14
 -1      4095 7.71555E-03 9.58599E-05-5.73987E-14
 -1      4096 2.07061E-03 1.19133E-04-7.45457E-15
 -1      4097 1.94235E-03 1.17579E-04-6.60817E-15
 -1      4098 1.41128E-03-7.79268E-05-4.07035E-15
 -1      4099 1.51943E-03-8.49129E-05-4.63934E-15
 -1      4100 1.39930E-03-5.96476E-05-4.04815E-15
 -1      4101 1.50353E-03 1.15949E-04-4.06228E-15
 -1      4102 1.44685E-03 7.88343E-05-3.99424E-15
 -1      4103 1.54921E-03 6.84389E-05-4.60358E-15
 -1      4104 1.65581E-03 1.21808E-04-4.83860E-15
 -1      4105 7.52330E-03-4.93058E-05-5.22403E-14
 -1      4106 7.54036E-03-7.01138E-05-5.33445E-14
 -1      4107 7.57514E-03-3.48787E-05-5.31057E-14
 -1      4108 1.35486E-02-2.79335E-05-1.79251E-13
 -1      4109 1.35472E-02 1.39500E-05-1.78898E-13
 -1      4110 1.33383E-02 2.62639E-05-1.74155E-13
 -1      4111 1.34256E-02-4.76272E-05-1.76654E-13
 -1      4112 2.16245E-03-2.05966E-05-9.46111E-15
 -1      4113 2.11876E-03-3.80098E-06-9.03728E-15
 -1      4114 7.67318E-03-7.71410E-05-5.63582E-14
 -1      4115 7.60153E-03-9.61214E-05-5.54639E-14
 -1      4116 1.33463E-02-1.90810E-04-1.75929E-13
 -1      4117 2.17251E-03 3.04505E-05-9.25901E-15
 -1      4118 2.25993E-03 4.80663E-05-9.79957E-15
 -1      4119 2.26309E-03 6.95856E-05-9.51291E-15
 -1      4120 7.67113E-03 3.44141E-05-5.56406E-14
 -1      4121 1.77427E-03-8.97662E-05-6.17189E-15
 -1      4122 1.86937E-03-9.25128E-05-6.79659E-15
 -1      4123 1.90936E-03-6.90579E-05-7.20212E-15
 -1      4124 2.16553E-03 9.67608E-05-8.39494E-15
 -1      4125 2.07509E-03 7.01663E-05-8.02135E-15
 -1      4126 1.84640E-03 1.18057E-04-5.99148E-15
 -1      4127 1.75359E-03 1.22372E-04-5.39495E-15
 -1      4128 1.69588E-03 9.39028E-05-5.27574E-15
 -1      4129 1.88515E-03 9.24325E-05-6.46714E-15
 -1      4130 1.61599E-03-8.84794E-05-5.18686E-15
 -1      4131 2.13205E-03-6.31298E-05-8.98115E-15
 -1      4132 7.95245E-03 1.01369E-04-6.19555E-14
 -1      4133 7.82585E-03 1.00778E-04-5.95499E-14
 -1      4134 7.82078E-03 6.28520E-05-5.90378E-14
 -1      4135 8.03838E-03 7.33548E-05-6.34114E-14
 -1      4136 2.15483E-03-3.73825E-05-9.33650E-15
 -1      4137 1.38656E-03-2.63566E-05-4.01266E-15
 -1      4138 1.39365E-03-4.33386E-05-4.04191E-15
 -1      4139 1.49845E-03-4.87976E-05-4.60888E-15
 -1      4140 1.49175E-03-1.62168E-05-4.58447E-15
 -1      4141 1.33310E-02-7.70245E-05-1.74761E-13
 -1      4142 1.32873E-02-4.00842E-05-1.73517E-13
 -1      4143 1.60579E-03 3.38657E-05-5.11704E-15
 -1      4144 1.59931E-03 1.08026E-05-5.16710E-15
 -1      4145 1.33394E-02-1.54951E-04-1.75518E-13
 -1      4146 1.33379E-02-1.12878E-04-1.75177E-13
 -1      4147 1.31996E-02-1.05298E-04-1.72042E-13
 -1      4148 1.32134E-02-1.76970E-04-1.72861E-13
 -1      4149 1.59666E-03-5.44183E-06-5.18917E-15
 -1      4150 1.59714E-03-2.18415E-05-5.20768E-15
 -1      4151 1.70168E-03 5.67269E-06-5.82601E-15
 -1      4152 7.71276E-03-5.14911E-05-5.65850E-14
 -1      4153 7.79014E-03-7.50572E-05-5.87536E-14
 -1      4154 2.09923E-03 1.31115E-05-8.77682E-15
 -1      4155 2.08567E-03 3.07844E-05-8.51580E-15
 -1      4156 2.03343E-03-3.85949E-06-8.29965E-15
 -1      4157 9.13949E-03 5.70793E-05-8.52422E-14
 -1      4158 9.00565E-03 5.64985E-05-8.25704E-14
 -1      4159 7.90341E-03-7.82112E-05-6.11565E-14
 -1      4160 8.05449E-03-8.64143E-05-6.43956E-14
 -1      4161 8.17491E-03-8.95508E-05-6.68702E-14
 -1      4162 8.29757E-03-9.25291E-05-6.93765E-14
 -1      4163 8.42243E-03-9.56332E-05-7.19136E-14
 -1      4164 8.24272E-03-6.59442E-05-6.79232E-14
 -1      4165 8.54912E-03-9.86393E-05-7.44822E-14
 -1      4166 8.67755E-03-1.01753E-04-7.70799E-14
 -1      4167 8.49026E-03-7.07494E-05-7.29885E-14
 -1      4168 8.80745E-03-1.04828E-04-7.97025E-14
 -1      4169 8.93879E-03-1.07961E-04-8.23529E-14
 -1      4170 8.74549E-03-7.56306E-05-7.81735E-14
 -1      4171 9.07137E-03-1.11016E-04-8.50312E-14
 -1      4172 9.20514E-03-1.14092E-04-8.77339E-14
 -1      4173 9.00697E-03-8.05100E-05-8.34678E-14
 -1      4174 9.33994E-03-1.17091E-04-9.04600E-14
 -1      4175 9.47570E-03-1.20077E-04-9.32098E-14
 -1      4176 9.27360E-03-8.53618E-05-8.88654E-14
 -1      4177 9.61232E-03-1.22964E-04-9.59850E-14
 -1      4178 9.74972E-03-1.25821E-04-9.87811E-14
 -1      4179 9.54446E-03-9.01082E-05-9.43602E-14
 -1      4180 9.88780E-03-1.28583E-04-1.01599E-13
 -1      4181 1.00265E-02-1.31283E-04-1.04438E-13
 -1      4182 9.81873E-03-9.47649E-05-9.99503E-14
 -1      4183 1.01658E-02-1.33895E-04-1.07299E-13
 -1      4184 1.03055E-02-1.36440E-04-1.10180E-13
 -1      4185 1.00957E-02-9.92415E-05-1.05625E-13
 -1      4186 1.04457E-02-1.38890E-04-1.13080E-13
 -1      4187 1.05863E-02-1.41273E-04-1.16002E-13
 -1      4188 1.03749E-02-1.03523E-04-1.11382E-13
 -1      4189 1.07272E-02-1.43572E-04-1.18944E-13
 -1      4190 1.08685E-02-1.45806E-04-1.21903E-13
 -1      4191 1.06559E-02-1.07616E-04-1.17219E-13
 -1      4192 1.10100E-02-1.47965E-04-1.24881E-13
 -1      4193 1.11517E-02-1.50066E-04-1.27877E-13
 -1      4194 1.09382E-02-1.11533E-04-1.23137E-13
 -1      4195 1.12936E-02-1.52102E-04-1.30889E-13
 -1      4196 1.14357E-02-1.54086E-04-1.33918E-13
 -1      4197 1.12215E-02-1.15291E-04-1.29125E-13
 -1      4198 1.15779E-02-1.56015E-04-1.36961E-13
 -1      4199 1.17203E-02-1.57900E-04-1.40021E-13
 -1      4200 1.15056E-02-1.18908E-04-1.35178E-13
 -1      4201 1.18628E-02-1.59740E-04-1.43098E-13
 -1      4202 1.20053E-02-1.61542E-04-1.46189E-13
 -1      4203 1.17902E-02-1.22405E-04-1.41294E-13
 -1      4204 1.21480E-02-1.63308E-04-1.49292E-13
 -1      4205 1.22906E-02-1.65044E-04-1.52409E-13
 -1      4206 1.20753E-02-1.25803E-04-1.47470E-13
 -1      4207 1.24334E-02-1.66751E-04-1.55542E-13
 -1      4208 1.25762E-02-1.68434E-04-1.58686E-13
 -1      4209 1.23607E-02-1.29119E-04-1.53700E-13
 -1      4210 1.27190E-02-1.70095E-04-1.61842E-13
 -1      4211 1.28618E-02-1.71738E-04-1.65009E-13
 -1      4212 1.26462E-02-1.32371E-04-1.59984E-13
 -1      4213 1.30705E-02-1.75365E-04-1.69667E-13
 -1      4214 8.61125E-03 5.44921E-05-7.47139E-14
 -1      4215 8.48245E-03 5.37106E-05-7.21514E-14
 -1      4216 2.27484E-03 1.22713E-04-8.89353E-15
 -1      4217 8.35524E-03 5.29512E-05-6.96177E-14
 -1      4218 8.22969E-03 5.20725E-05-6.71147E-14
 -1      4219 8.42883E-03 2.65253E-05-7.11180E-14
 -1      4220 9.41011E-03 5.79791E-05-9.06677E-14
 -1      4221 9.27432E-03 5.75479E-05-8.79425E-14
 -1      4222 9.21172E-03 2.70979E-05-8.68476E-14
 -1      4223 9.68409E-03 5.85174E-05-9.61884E-14
 -1      4224 9.54671E-03 5.82887E-05-9.34161E-14
 -1      4225 9.48230E-03 2.67860E-05-9.23024E-14
 -1      4226 9.96083E-03 5.86324E-05-1.01803E-13
 -1      4227 9.82215E-03 5.86239E-05-9.89845E-14
 -1      4228 9.75632E-03 2.61911E-05-9.78515E-14
 -1      4229 1.02398E-02 5.83106E-05-1.07507E-13
 -1      4230 1.01000E-02 5.85184E-05-1.04643E-13
 -1      4231 1.00331E-02 2.52987E-05-1.03495E-13
 -1      4232 1.05205E-02 5.75652E-05-1.13294E-13
 -1      4233 1.03799E-02 5.79861E-05-1.10391E-13
 -1      4234 1.03121E-02 2.40793E-05-1.09222E-13
 -1      4235 1.08026E-02 5.64203E-05-1.19162E-13
 -1      4236 1.06614E-02 5.70381E-05-1.16219E-13
 -1      4237 1.05929E-02 2.25623E-05-1.15033E-13
 -1      4238 1.10857E-02 5.49146E-05-1.25103E-13
 -1      4239 1.09440E-02 5.57085E-05-1.22123E-13
 -1      4240 1.08750E-02 2.07707E-05-1.20923E-13
 -1      4241 1.13697E-02 5.30929E-05-1.31112E-13
 -1      4242 1.12276E-02 5.40397E-05-1.28097E-13
 -1      4243 1.11582E-02 1.87338E-05-1.26881E-13
 -1      4244 1.16542E-02 5.10010E-05-1.37189E-13
 -1      4245 1.15119E-02 5.20776E-05-1.34145E-13
 -1      4246 1.14423E-02 1.64838E-05-1.32910E-13
 -1      4247 1.19392E-02 4.86839E-05-1.43325E-13
 -1      4248 1.17967E-02 4.98680E-05-1.40249E-13
 -1      4249 1.17269E-02 1.40531E-05-1.39006E-13
 -1      4250 1.22245E-02 4.61828E-05-1.49516E-13
 -1      4251 1.20818E-02 4.74541E-05-1.46415E-13
 -1      4252 1.20119E-02 1.14727E-05-1.45158E-13
 -1      4253 1.25100E-02 4.35342E-05-1.55758E-13
 -1      4254 1.23672E-02 4.48751E-05-1.52632E-13
 -1      4255 1.22972E-02 8.77069E-06-1.51365E-13
 -1      4256 1.27956E-02 4.07705E-05-1.62045E-13
 -1      4257 1.26528E-02 4.21650E-05-1.58898E-13
 -1      4258 1.25827E-02 5.97180E-06-1.57622E-13
 -1      4259 7.62824E-03-1.12216E-04-5.64775E-14
 -1      4260 2.02693E-03-4.48414E-05-8.21214E-15
 -1      4261 7.78528E-03 3.09509E-05-5.79914E-14
 -1      4262 7.73471E-03 9.98178E-06-5.67267E-14
 -1      4263 1.32592E-02-5.15703E-06-1.72633E-13
 -1      4264 1.32156E-02 3.17626E-05-1.71390E-13
 -1      4265 1.31083E-02 3.52514E-05-1.68987E-13
 -1      4266 1.31646E-02-3.45542E-05-1.70750E-13
 -1      4267 8.87295E-03 5.58861E-05-7.99240E-14
 -1      4268 8.74142E-03 5.51766E-05-7.73043E-14
 -1      4269 8.68407E-03 2.69729E-05-7.62495E-14
 -1      4270 7.63299E-03-1.73232E-05-5.43180E-14
 -1      4271 7.67436E-03-3.55421E-05-5.54497E-14
 -1      4272 7.78177E-03-3.27251E-05-5.78272E-14
 -1      4273 7.68414E-03-2.21442E-06-5.55343E-14
 -1      4274 1.93968E-03-4.33340E-05-7.53024E-15
 -1      4275 1.97613E-03-1.92735E-05-7.85420E-15
 -1      4276 1.85083E-03-4.18694E-05-6.87631E-15
 -1      4277 1.66282E-03-6.68662E-05-5.54773E-15
 -1      4278 2.03516E-03 5.09696E-05-7.92086E-15
 -1      4279 1.93700E-03 7.06967E-05-7.01545E-15
 -1      4280 1.84537E-03 7.24401E-05-6.37926E-15
 -1      4281 1.95504E-03 3.22091E-05-7.47678E-15
 -1      4282 7.97064E-03-5.61949E-05-6.21793E-14
 -1      4283 8.19226E-03 2.19221E-05-6.63340E-14
 -1      4284 8.11817E-03 4.72627E-05-6.48713E-14
 -1      4285 8.00893E-03 4.23142E-05-6.26524E-14
 -1      4286 1.29977E-02-1.37563E-04-1.67785E-13
 -1      4287 1.94942E-03-2.30275E-06-7.61647E-15
 -1      4288 1.30056E-02 3.62884E-05-1.66706E-13
 -1      4289 1.28984E-02 3.97550E-05-1.64314E-13
 -1      4290 1.28282E-02 3.50601E-06-1.63035E-13
 -1      4291 1.30337E-02 1.40982E-06-1.67586E-13
 -1      4292 8.94535E-03 2.71471E-05-8.14938E-14
 -1      4293 1.30900E-02-6.83705E-05-1.69339E-13
 -1      4294 1.30618E-02-3.34763E-05-1.68463E-13
 -1      4295 1.29591E-02-3.24014E-05-1.66181E-13
 -1      4296 7.88826E-03 3.59149E-05-6.01547E-14
 -1      4297 1.79679E-03 2.28506E-06-6.47686E-15
 -1      4298 1.79578E-03-1.43279E-05-6.50237E-15
 -1      4299 7.79031E-03-5.66668E-06-5.78820E-14
 -1      4300 1.61731E-03 5.83197E-05-5.05344E-15
 -1      4301 1.71703E-03 4.66804E-05-5.73310E-15
 -1      4302 1.65423E-03-4.91719E-05-5.53823E-15
 -1      4303 1.30969E-02-1.04182E-04-1.69748E-13
 -1      4304 1.86230E-03 1.79856E-05-6.88096E-15
 -1      4305 1.75358E-03-3.81112E-05-6.20462E-15
 -1      4306 9.55344E-03-4.74404E-06-9.39383E-14
 -1      4307 9.41751E-03-3.97379E-06-9.11842E-14
 -1      4308 8.42932E-03-4.38579E-05-7.15002E-14
 -1      4309 8.55473E-03-4.56265E-05-7.40598E-14
 -1      4310 8.71876E-03-2.41939E-05-7.72220E-14
 -1      4311 8.84826E-03-2.53846E-05-7.98422E-14
 -1      4312 8.97923E-03-2.65014E-05-8.24909E-14
 -1      4313 9.11151E-03-2.77466E-05-8.51657E-14
 -1      4314 9.44841E-03-6.16659E-05-9.22060E-14
 -1      4315 9.58441E-03-6.35505E-05-9.49708E-14
 -1      4316 9.74929E-03-6.15289E-05-9.83010E-14
 -1      4317 9.88704E-03-6.33213E-05-1.01117E-13
 -1      4318 1.00653E-02-3.68329E-05-1.04569E-13
 -1      4319 1.02044E-02-3.82189E-05-1.07432E-13
 -1      4320 1.03441E-02-3.95966E-05-1.10313E-13
 -1      4321 1.04843E-02-4.10109E-05-1.13214E-13
 -1      4322 1.06248E-02-4.24207E-05-1.16137E-13
 -1      4323 1.07657E-02-4.38580E-05-1.19078E-13
 -1      4324 1.09069E-02-4.52939E-05-1.22040E-13
 -1      4325 1.10484E-02-4.67506E-05-1.25019E-13
 -1      4326 1.11901E-02-4.82081E-05-1.28012E-13
 -1      4327 1.13320E-02-4.96812E-05-1.31024E-13
 -1      4328 1.14740E-02-5.11565E-05-1.34055E-13
 -1      4329 1.16162E-02-5.26433E-05-1.37100E-13
 -1      4330 1.17586E-02-5.41330E-05-1.40157E-13
 -1      4331 1.19011E-02-5.56311E-05-1.43233E-13
 -1      4332 1.20436E-02-5.71324E-05-1.46323E-13
 -1      4333 1.21862E-02-5.86396E-05-1.49423E-13
 -1      4334 1.23289E-02-6.01500E-05-1.52537E-13
 -1      4335 1.24716E-02-6.16644E-05-1.55666E-13
 -1      4336 1.26144E-02-6.31819E-05-1.58806E-13
 -1      4337 1.27572E-02-6.47017E-05-1.61957E-13
 -1      4338 7.84083E-03-2.14544E-05-5.90419E-14
 -1      4339 7.96201E-03 1.20630E-05-6.15779E-14
 -1      4340 8.52370E-03 3.64642E-06-7.31159E-14
 -1      4341 8.39825E-03 3.90425E-06-7.05694E-14
 -1      4342 9.85573E-03-2.33066E-06-1.00060E-13
 -1      4343 9.71803E-03-1.52258E-06-9.72547E-14
 -1      4344 7.98831E-03-2.72803E-05-6.22436E-14
 -1      4345 1.80182E-03 3.67370E-05-6.34990E-15
 -1      4346 9.24501E-03-2.89388E-05-8.78674E-14
 -1      4347 8.11021E-03-2.31506E-05-6.47774E-14
 -1      4348 9.65152E-03-3.28177E-05-9.61143E-14
 -1      4349 9.37959E-03-3.02021E-05-9.05910E-14
 -1      4350 1.28564E-02-3.13306E-05-1.63906E-13
 -1      4351 1.28881E-02-1.00650E-04-1.65097E-13
 -1      4352 1.81742E-03 6.23877E-05-6.27479E-15
 -1      4353 9.92666E-03-3.55041E-05-1.01731E-13
 -1      4354 1.76163E-03 8.27975E-05-5.75856E-15
 -1      4355 1.66707E-03 8.34284E-05-5.18222E-15
 -1      4356 8.18521E-03-4.05629E-05-6.64741E-14
 -1      4357 8.30606E-03-4.22835E-05-6.89712E-14
 -1      4358 8.59086E-03-2.32146E-05-7.46286E-14
 -1      4359 8.36590E-03-1.79275E-05-7.00167E-14
 -1      4360 8.27486E-03 4.21632E-06-6.80539E-14
 -1      4361 8.16440E-03 4.55003E-07-6.57967E-14
 -3
    1PSTEP                         2           1           1          
  100CL  101 1.000000000        4361                     0    1           1
 -4  STRESS      6    1
 -5  SXX         1    4    1    1
 -5  SYY         1    4    2    2
 -5  SZZ         1    4    3    3
 -5  SXY         1    4    1    2
 -5  SYZ         1    4    2    3
 -5  SZX         1    4    3    1
 -1         1 2.78131E+01 1.09345E+01 1.34959E+00 1.71102E+01-3.64314E-12-5.39258E-12
 -1         2-7.92785E-01-2.44449E+01-3.33722E+00-2.73228E-01 9.19330E-13 1.62970E-13
 -1         3 1.99999E+01 1.48498E-04-1.68350E-04 1.45247E-04-3.08291E-13-3.91680E-13
 -1         4 1.99999E+01 1.28870E-04-1.83982E-04-1.28592E-04 2.24872E-13 2.90947E-14
 -1         5 3.26021E+01 6.12782E+00 2.61018E+00 6.09798E+00-7.77989E-14 5.49212E-12
 -1         6 3.54090E+01 1.20941E+01 4.90445E+00-8.43835E+00-3.55493E-13 4.49568E-12
 -1         7 2.13902E+01 6.24891E+00-6.42685E-02-4.40436E+00-5.08343E-14 3.60295E-13
 -1         8 2.02097E+01 6.08725E+00 8.13200E-02-2.79633E+00-4.89331E-14-8.00185E-13
 -1         9 1.95175E+01 5.88113E+00 6.25311E-02-1.96077E+00-4.56822E-14-1.39001E-12
 -1        10 1.90421E+01 5.73339E+00 5.05663E-02-1.36966E+00-2.37033E-14-1.62721E-12
 -1        11 1.86694E+01 5.61849E+00 3.85198E-02-9.25043E-01-1.49412E-14-1.71839E-12
 -1        12 1.83832E+01 5.53067E+00 2.81408E-02-5.90185E-01-3.09475E-15-1.72204E-12
 -1        13 1.81805E+01 5.46889E+00 2.04728E-02-3.23338E-01 3.39399E-15-1.68771E-12
 -1        14 1.80773E+01 5.43747E+00 1.65175E-02-1.00829E-01 1.17037E-14-1.63671E-12
 -1        15 1.80798E+01 5.43826E+00 1.67152E-02 1.07670E-01 1.93951E-14-1.58101E-12
 -1        16 1.81877E+01 5.47109E+00 2.10502E-02 3.32766E-01 2.76090E-14-1.50920E-12
 -1        17 1.83938E+01 5.53371E+00 2.90764E-02 6.04789E-01 3.28713E-14-1.40409E-12
 -1        18 1.86810E+01 5.62186E+00 3.96831E-02 9.46166E-01 4.20618E-14-1.22882E-12
 -1        19 1.90535E+01 5.73685E+00 5.16093E-02 1.40010E+00 5.63022E-14-9.53207E-13
 -1        20 1.95255E+01 5.88452E+00 6.25553E-02 2.00208E+00 7.16267E-14-4.74248E-13
 -1        21 2.02048E+01 6.10052E+00 7.64033E-02 2.83624E+00 7.78058E-14 3.82298E-13
 -1        22 2.16993E+01 6.50582E+00 1.74954E-01 4.21055E+00 9.85323E-15 2.01915E-12
 -1        23 2.34885E+01-1.41379E+00-9.59491E-01-6.18435E-01-2.52676E-13 3.28500E-12
 -1        24 2.03782E+01-1.00150E-01-3.01922E-01 7.72843E-02-6.62508E-14 2.20801E-12
 -1        25 2.01505E+01-5.81673E-02-6.76013E-02 6.80586E-02-3.61117E-14 1.19696E-12
 -1        26 2.04242E+01-2.55088E-02-1.12635E-02 4.20448E-02 1.48232E-15 5.37063E-13
 -1        27 2.09723E+01-1.52312E-02-5.18681E-03 3.52597E-02-2.68893E-14 9.07417E-14
 -1        28 2.16921E+01-7.81389E-03-3.40717E-03 3.32496E-02-7.39122E-15-2.80991E-13
 -1        29 2.25013E+01-4.45171E-04 2.42506E-03 3.26958E-02-4.67051E-15-5.93216E-13
 -1        30 2.32985E+01 8.34768E-03 1.42175E-02 3.02537E-02-6.06085E-15-8.69161E-13
 -1        31 2.39390E+01 1.86676E-02 3.22737E-02 2.16543E-02-7.19802E-16-1.10154E-12
 -1        32 2.42276E+01 2.86424E-02 5.37283E-02 1.92184E-03-5.62154E-14-1.40401E-12
 -1        33 2.39491E+01 3.38405E-02 6.94748E-02-3.19949E-02 4.12058E-14-1.56809E-12
 -1        34 2.29586E+01 2.82737E-02 6.41613E-02-7.55837E-02-7.11237E-16-1.59577E-12
 -1        35 2.13300E+01 8.31222E-03 2.43078E-02-1.11209E-01 3.03224E-14-1.66264E-12
 -1        36 1.94764E+01-2.16392E-02-4.44159E-02-1.12022E-01-1.19204E-14-1.74759E-12
 -1        37 1.80864E+01-4.75899E-02-1.08192E-01-6.20939E-02 8.01182E-15-1.90195E-12
 -1        38 1.77899E+01-5.41725E-02-1.24762E-01 2.11658E-02-5.05065E-14-2.06496E-12
 -1        39 1.87500E+01-3.71851E-02-8.21991E-02 9.33872E-02 1.04148E-14-2.28976E-12
 -1        40 2.05476E+01-7.36317E-03-1.08494E-02 1.19591E-01-3.93221E-15-2.49947E-12
 -1        41 2.24738E+01 1.90148E-02 4.65178E-02 9.96120E-02 2.05445E-14-2.47781E-12
 -1        42 2.39461E+01 3.21617E-02 6.89192E-02 5.78351E-02 1.86162E-14-2.30440E-12
 -1        43 2.47199E+01 3.21095E-02 6.21480E-02 1.84611E-02-5.53149E-14-2.14575E-12
 -1        44 2.48446E+01 2.43261E-02 4.20393E-02-7.40979E-03 2.15474E-15-1.97313E-12
 -1        45 2.45118E+01 1.45155E-02 2.15418E-02-1.96003E-02 7.19303E-15-1.78667E-12
 -1        46 2.39287E+01 6.06006E-03 6.42130E-03-2.24353E-02-1.32247E-14-1.69214E-12
 -1        47 2.32567E+01 1.38222E-04-2.60416E-03-2.03654E-02 2.25669E-14-1.48978E-12
 -1        48 2.25989E+01-3.36184E-03-6.94507E-03-1.64395E-02-8.91767E-15-1.22602E-12
 -1        49 2.20099E+01-5.03417E-03-8.33460E-03-1.23172E-02 4.35466E-14-1.44306E-12
 -1        50 2.15119E+01-5.51036E-03-8.12317E-03-8.72359E-03-1.90303E-14-1.61844E-12
 -1        51 2.11074E+01-5.29153E-03-7.17742E-03-5.87130E-03 4.06652E-14-1.22562E-12
 -1        52 2.07890E+01-4.72228E-03-5.98942E-03-3.73514E-03-4.26441E-14-1.05126E-12
 -1        53 2.05449E+01-4.01824E-03-4.81115E-03-2.20196E-03 8.46127E-14-9.85462E-13
 -1        54 2.03620E+01-3.30387E-03-3.75626E-03-1.14162E-03 4.54891E-15-1.24683E-12
 -1        55 2.02283E+01-2.64447E-03-2.86431E-03-4.36025E-04-4.91571E-14-1.74924E-12
 -1        56 2.01331E+01-2.06914E-03-2.13755E-03 1.19102E-05 9.63275E-14-1.87659E-12
 -1        57 2.00672E+01-1.58599E-03-1.56121E-03 2.77784E-04 7.91636E-14-1.60217E-12
 -1        58 2.00232E+01-1.19175E-03-1.11418E-03 4.18539E-04-7.49198E-14-1.82054E-12
 -1        59 1.99954E+01-8.77543E-04-7.74384E-04 4.76107E-04 6.99947E-14-1.87425E-12
 -1        60 1.99791E+01-6.32277E-04-5.21250E-04 4.80812E-04 4.91301E-14-1.42025E-12
 -1        61 1.99709E+01-4.44511E-04-3.36685E-04 4.54189E-04 4.52995E-14-1.12522E-12
 -1        62 1.99682E+01-3.03443E-04-2.05308E-04 4.11214E-04-9.77932E-14-1.29081E-12
 -1        63 1.99690E+01-1.99360E-04-1.14325E-04 3.62028E-04-5.26846E-14-1.47096E-12
 -1        64 1.99720E+01-1.23776E-04-5.31935E-05 3.13234E-04 9.53651E-15-1.91446E-12
 -1        65 1.99763E+01-6.93714E-05-1.31653E-05 2.68836E-04 1.34534E-14-1.98414E-12
 -1        66 1.99811E+01-2.98313E-05 1.34067E-05 2.30816E-04 7.90199E-14-1.75727E-12
 -1        67 1.99861E+01 3.63454E-07 3.40869E-05 1.99291E-04 4.29193E-14-1.12783E-12
 -1        68 1.99908E+01 2.60500E-05 5.76815E-05 1.71862E-04-2.27025E-14-6.60566E-13
 -1        69 1.99950E+01 5.02119E-05 9.33553E-05 1.40654E-04-2.08026E-14-7.25311E-13
 -1        70 1.99982E+01 6.14638E-05 1.29965E-04 7.73349E-05 9.77422E-14-5.34254E-13
 -1        71 1.99998E+01-1.22520E-05 6.96349E-05-2.49882E-05-1.13166E-13-1.47292E-13
 -1        72 2.15345E+01-4.06742E-01-9.91707E-01-3.42100E-01 5.54973E-14 5.11391E-12
 -1        73 2.03459E+01-6.62088E-02-2.83491E-01-6.17361E-02 4.66406E-14 4.00405E-12
 -1        74 2.01499E+01-2.22834E-02-6.33146E-02-2.44330E-02 2.40790E-14 3.16964E-12
 -1        75 2.04135E+01-1.20386E-02-1.36532E-02-1.99929E-02 3.05485E-15 2.66552E-12
 -1        76 2.09471E+01-6.51910E-03-5.31198E-03-1.99139E-02 2.16955E-14 2.28834E-12
 -1        77 2.16444E+01-1.70387E-03-2.26374E-03-2.25140E-02 2.60896E-14 1.97076E-12
 -1        78 2.24209E+01 3.78598E-03 4.23910E-03-2.67753E-02-2.88459E-14 1.83097E-12
 -1        79 2.31733E+01 1.03531E-02 1.63338E-02-3.08554E-02 1.69699E-14 1.70527E-12
 -1        80 2.37579E+01 1.72273E-02 3.40353E-02-3.13010E-02 4.36825E-15 1.41552E-12
 -1        81 2.39864E+01 2.19936E-02 5.39282E-02-2.27146E-02 1.83779E-14 1.14556E-12
 -1        82 2.36591E+01 2.07269E-02 6.67749E-02 6.51098E-04-2.50321E-15 9.65103E-13
 -1        83 2.26528E+01 1.00954E-02 5.80940E-02 3.97215E-02 3.23283E-14 9.08010E-13
 -1        84 2.10592E+01-8.64007E-03 1.70739E-02 8.31254E-02 1.66764E-14 7.95551E-13
 -1        85 1.92877E+01-2.73637E-02-4.80976E-02 1.06115E-01 1.22558E-15 7.15237E-13
 -1        86 1.79900E+01-3.55421E-02-1.05049E-01 8.56067E-02 1.95701E-14 5.27902E-13
 -1        87 1.77435E+01-2.86041E-02-1.17352E-01 2.39985E-02-7.00195E-14 5.96138E-13
 -1        88 1.86858E+01-1.14087E-02-7.62623E-02-4.70297E-02 1.58140E-14 6.32844E-13
 -1        89 2.04181E+01 6.20641E-03-9.76126E-03-9.03484E-02 1.07878E-13-7.54431E-14
 -1        90 2.22736E+01 1.74224E-02 4.38329E-02-9.30311E-02-9.66208E-14-3.19616E-13
 -1        91 2.37050E+01 2.04849E-02 6.57149E-02-6.83720E-02-7.66314E-16 1.78853E-13
 -1        92 2.44778E+01 1.75423E-02 6.01624E-02-3.63609E-02 1.32045E-14 1.93630E-13
 -1        93 2.46310E+01 1.19653E-02 4.16274E-02-1.01481E-02-3.12128E-14 6.87357E-14
 -1        94 2.43401E+01 6.32345E-03 2.20431E-02 6.16654E-03-2.25136E-14-2.02787E-13
 -1        95 2.37998E+01 1.91101E-03 7.19641E-03 1.38968E-02-3.37821E-14-2.50920E-13
 -1        96 2.31648E+01-9.84078E-04-1.92253E-03 1.59784E-02 2.63893E-14-1.38789E-13
 -1        97 2.25358E+01-2.58020E-03-6.47737E-03 1.50130E-02-2.05524E-14-1.34429E-13
 -1        98 2.19679E+01-3.24916E-03-8.07009E-03 1.27449E-02 7.81521E-14-2.38304E-13
 -1        99 2.14846E+01-3.33496E-03-8.00636E-03 1.01645E-02-5.69425E-14-1.82898E-13
 -1       100 2.10900E+01-3.09598E-03-7.15168E-03 7.75624E-03-8.78984E-15 5.39329E-13
 -1       101 2.07780E+01-2.70458E-03-6.01182E-03 5.71135E-03 1.87591E-14 2.07032E-13
 -1       102 2.05380E+01-2.26626E-03-4.85354E-03 4.06970E-03-1.26559E-14-2.09782E-13
 -1       103 2.03578E+01-1.84043E-03-3.80211E-03 2.80173E-03-4.88206E-14-1.12109E-13
 -1       104 2.02258E+01-1.45701E-03-2.90510E-03 1.85174E-03 2.22847E-14 5.38669E-14
 -1       105 2.01316E+01-1.12806E-03-2.16995E-03 1.15899E-03 2.25475E-14 1.50547E-13
 -1       106 2.00663E+01-8.55408E-04-1.58482E-03 6.67272E-04-6.85652E-14-1.89992E-13
 -1       107 2.00228E+01-6.35433E-04-1.13002E-03 3.28523E-04-1.78441E-14-4.32590E-13
 -1       108 1.99952E+01-4.61978E-04-7.83972E-04 1.03518E-04 3.82214E-14-7.11345E-13
 -1       109 1.99791E+01-3.28015E-04-5.26153E-04-3.88596E-05-6.76580E-14-1.83658E-13
 -1       110 1.99709E+01-2.26575E-04-3.38287E-04-1.22783E-04 7.64315E-15-2.19086E-13
 -1       111 1.99683E+01-1.51212E-04-2.04737E-04-1.66720E-04 1.58003E-13-2.62392E-13
 -1       112 1.99691E+01-9.61972E-05-1.12432E-04-1.84571E-04-1.00987E-14-2.85372E-13
 -1       113 1.99721E+01-5.65421E-05-5.05745E-05-1.86664E-04-2.11899E-14 1.79643E-13
 -1       114 1.99764E+01-2.79334E-05-1.01995E-05-1.80559E-04-2.01961E-13 4.18770E-13
 -1       115 1.99813E+01-6.58693E-06 1.65200E-05-1.71703E-04 2.04660E-14 4.17201E-13
 -1       116 1.99862E+01 1.08152E-05 3.74581E-05-1.63721E-04 8.78566E-14-6.03625E-13
 -1       117 1.99909E+01 2.71740E-05 6.20023E-05-1.58041E-04 5.35470E-14-1.15205E-12
 -1       118 1.99951E+01 4.36078E-05 9.94287E-05-1.51911E-04-1.04073E-13-1.22735E-12
 -1       119 1.99982E+01 5.43220E-05 1.39835E-04-1.24862E-04-1.07629E-13-7.78874E-13
 -1       120 1.99998E+01-4.39817E-05 4.97891E-05-1.30485E-05 1.03921E-13-4.22302E-13
 -1       121 1.99998E+01-9.32379E-05 4.72332E-05 1.78805E-05-2.69142E-13 1.22497E-13
 -1       122 1.99999E+01-1.65192E-03 1.13458E-04-9.20347E-05 5.85383E-13-4.15563E-14
 -1       123 1.99998E+01-4.55597E-03 4.81166E-05-1.34827E-04 9.54289E-13-1.85327E-13
 -1       124 1.99998E+01-7.92757E-03-1.17235E-05-1.33876E-04 3.41519E-13 1.87178E-13
 -1       125 1.99998E+01-1.11640E-02-5.00338E-05-1.12180E-04-4.42469E-13-5.05168E-14
 -1       126 1.99998E+01-1.38294E-02-7.25109E-05-8.38575E-05-1.68235E-12 9.66360E-15
 -1       127 1.99997E+01-1.57552E-02-8.38672E-05-5.08898E-05-1.56856E-12-7.65208E-14
 -1       128 1.99997E+01-1.67469E-02-8.87901E-05-1.68497E-05-1.93760E-12 1.09338E-13
 -1       129 1.99997E+01-1.67393E-02-8.87617E-05 1.73697E-05-1.13905E-12 1.28041E-13
 -1       130 1.99997E+01-1.57326E-02-8.38167E-05 5.13009E-05-8.51855E-13-1.20274E-13
 -1       131 1.99998E+01-1.37940E-02-7.17911E-05 8.52550E-05-1.76685E-12-3.80735E-13
 -1       132 1.99998E+01-1.11191E-02-5.00818E-05 1.12837E-04-2.69672E-12 3.01287E-13
 -1       133 1.99998E+01-7.87476E-03-1.14077E-05 1.33942E-04-1.28063E-12 4.71029E-15
 -1       134 1.99998E+01-4.49588E-03 5.36914E-05 1.43641E-04-7.87746E-13 9.64652E-14
 -1       135 1.99999E+01-1.66333E-03 9.77182E-05 1.28106E-04-3.00177E-13-8.86051E-14
 -1       136 1.99999E+01-1.41300E-04 4.09461E-05-6.88461E-05 1.12939E-13 2.83831E-14
 -1       137-1.45136E+00-1.89922E+01-2.99671E+00-3.72620E+00 3.27438E-12 8.76903E-13
 -1       138-1.45657E+00-7.47435E+00-2.18414E+00-2.75127E+00 3.85725E-12 1.76772E-12
 -1       139 3.71529E+00 4.33751E+00-9.71074E-01 4.27591E+00 3.56737E-12 2.79687E-12
 -1       140 1.67185E+01 1.07233E+01 4.82908E-01 1.33456E+01 2.93132E-12 3.53495E-12
 -1       141 3.82708E+01 9.43843E+00 2.04875E+00 1.83952E+01 1.72243E-12 3.40628E-12
 -1       142 5.65271E+01 4.29161E+00 3.06607E+00 1.42822E+01 5.18731E-13 1.51673E-12
 -1       143 6.60343E+01 1.03984E+00 3.55917E+00 2.50499E+00 1.11123E-13-1.18899E-12
 -1       144 6.15024E+01 2.73285E+00 3.33981E+00-1.05502E+01 7.77994E-13-3.93682E-12
 -1       145 4.44567E+01 8.05249E+00 2.41093E+00-1.82024E+01 2.43097E-12-5.49066E-12
 -1       146 2.44367E+01 1.11737E+01 1.11386E+00-1.62280E+01 4.05864E-12-5.78204E-12
 -1       147 8.29097E+00 8.06222E+00-3.43431E-01-8.24573E+00 5.12623E-12-4.69663E-12
 -1       148-1.32178E-01-2.01900E+00-1.71639E+00 3.36809E-01 4.79283E-12-2.88986E-12
 -1       149-1.78511E+00-1.48335E+01-2.77921E+00 4.12982E+00 2.80703E-12-9.85378E-13
 -1       150-9.44414E-01-2.36550E+01-3.34090E+00 2.28013E+00 1.27759E-13-7.69610E-14
 -1       151-8.72841E-01-2.36977E+01-3.33884E+00-2.30477E+00-2.56381E-12-3.51835E-13
 -1       152-1.80214E+00-1.51235E+01-2.79385E+00-4.31214E+00-4.94976E-12-1.75626E-12
 -1       153-2.06508E-01-2.66604E+00-1.76928E+00-4.82488E-01-5.92570E-12-3.49115E-12
 -1       154 9.85289E+00 8.12838E+00-2.22275E-01 9.01144E+00-5.28116E-12-5.09492E-12
 -1       155 4.81770E+01 7.07269E+00 2.65862E+00 1.76285E+01-1.72973E-12-4.39593E-12
 -1       156 6.34207E+01 2.02895E+00 3.46944E+00 9.02599E+00-4.09939E-13-2.11772E-12
 -1       157 6.58466E+01 1.14769E+00 3.58927E+00-4.27483E+00-1.29501E-13 7.34676E-13
 -1       158 5.39701E+01 5.17592E+00 2.95823E+00-1.54102E+01-9.07066E-13 2.90068E-12
 -1       159 3.42955E+01 1.00869E+01 1.77415E+00-1.81469E+01-2.14789E-12 3.87640E-12
 -1       160 1.52005E+01 1.03890E+01 3.30113E-01-1.24983E+01-3.52829E-12 3.95362E-12
 -1       161 2.91559E+00 3.49667E+00-1.09638E+00-3.46733E+00-3.95983E-12 2.94076E-12
 -1       162-1.54735E+00-8.40668E+00-2.28806E+00 3.01860E+00-3.19489E-12 1.48864E-12
 -1       163-1.39856E+00-2.01255E+01-3.10239E+00 3.87778E+00-1.51498E-12 4.17669E-13
 -1       164 2.16936E+01 3.65382E+00-5.15031E-02-3.13783E+00-7.36838E-13-1.96655E-13
 -1       165 2.05270E+01 4.23319E+00-4.21626E-02-2.26428E+00-6.08616E-13-8.93306E-13
 -1       166 1.97828E+01 4.55196E+00-2.98704E-02-1.62069E+00-4.55783E-13-1.26209E-12
 -1       167 1.92418E+01 4.72518E+00-2.20351E-02-1.12750E+00-2.97120E-13-1.40960E-12
 -1       168 1.88243E+01 4.83516E+00-1.71376E-02-7.52103E-01-1.56821E-13-1.45556E-12
 -1       169 1.85114E+01 4.90567E+00-1.43923E-02-4.53667E-01-3.49889E-14-1.43414E-12
 -1       170 1.83188E+01 4.94528E+00-1.29336E-02-2.11454E-01 9.52115E-14-1.40690E-12
 -1       171 1.82559E+01 4.95710E+00-1.24938E-02 2.87633E-03 2.02595E-13-1.36709E-12
 -1       172 1.83261E+01 4.94199E+00-1.29919E-02 2.18483E-01 2.99104E-13-1.29533E-12
 -1       173 1.85248E+01 4.89909E+00-1.44925E-02 4.64353E-01 4.03301E-13-1.21685E-12
 -1       174 1.88355E+01 4.82644E+00-1.72964E-02 7.62719E-01 5.06457E-13-1.09008E-12
 -1       175 1.92606E+01 4.71191E+00-2.21766E-02 1.15098E+00 6.27806E-13-8.76373E-13
 -1       176 1.98062E+01 4.53026E+00-3.09628E-02 1.65504E+00 7.38728E-13-5.46778E-13
 -1       177 2.05500E+01 4.20772E+00-4.37002E-02 2.30725E+00 7.81889E-13 2.08132E-14
 -1       178 2.18009E+01 3.43169E+00-5.43088E-02 3.08250E+00 7.04589E-13 1.03615E-12
 -1       179 2.30637E+01 1.09184E+00-3.29518E-01 2.68156E+00 5.04095E-13 2.33728E-12
 -1       180 2.27547E+01 8.26822E-01 1.70544E-03-1.60258E+00-6.60576E-13 7.31408E-13
 -1       181 2.15310E+01 1.88133E-01-8.12864E-03-4.08997E-01-5.70936E-13 4.34619E-13
 -1       182 2.11035E+01 1.16018E-01 1.45363E-02 9.04739E-02-4.01536E-13 1.69982E-13
 -1       183 2.11519E+01 6.82062E-02 1.03349E-02 3.54107E-01-2.94210E-13-5.52748E-14
 -1       184 2.14551E+01 4.14537E-02 4.93352E-03 5.11375E-01-2.22042E-13-2.11493E-13
 -1       185 2.19083E+01 1.51431E-02 1.32110E-03 5.93894E-01-1.85827E-13-3.42049E-13
 -1       186 2.24263E+01-2.04669E-02-1.19048E-03 5.94410E-01-1.54663E-13-4.23610E-13
 -1       187 2.29202E+01-7.07773E-02-3.06634E-03 4.86182E-01-1.28376E-13-4.76023E-13
 -1       188 2.32855E+01-1.34091E-01-4.11423E-03 2.37576E-01-1.38447E-13-4.78673E-13
 -1       189 2.34057E+01-1.94363E-01-3.77882E-03-1.62182E-01-6.75584E-14-5.00563E-13
 -1       190 2.31793E+01-2.15331E-01-1.87811E-03-6.61955E-01-6.56693E-14-6.49822E-13
 -1       191 2.25763E+01-1.49584E-01 7.99210E-04-1.11061E+00-6.68059E-14-7.20356E-13
 -1       192 2.17101E+01 2.26706E-02 2.22649E-03-1.27340E+00-1.21135E-13-8.45948E-13
 -1       193 2.08699E+01 2.43099E-01 1.49135E-03-9.57699E-01-1.40569E-13-9.38407E-13
 -1       194 2.04281E+01 3.80499E-01 4.46169E-04-2.01076E-01-1.39426E-13-1.08893E-12
 -1       195 2.06183E+01 3.35700E-01 9.35502E-04 6.70029E-01-1.05055E-13-1.25843E-12
 -1       196 2.13641E+01 1.42663E-01 2.08204E-03 1.24709E+00-9.90657E-14-1.34561E-12
 -1       197 2.23380E+01-6.76856E-02 1.58162E-03 1.32951E+00 1.69450E-14-1.32549E-12
 -1       198 2.31859E+01-1.90907E-01-7.47783E-04 1.00779E+00 1.99259E-14-1.36044E-12
 -1       199 2.36991E+01-2.10014E-01-3.03928E-03 5.16661E-01 4.65166E-14-1.34979E-12
 -1       200 2.38385E+01-1.65122E-01-4.29573E-03 5.84362E-02 9.56214E-14-1.22429E-12
 -1       201 2.36731E+01-1.01468E-01-4.10569E-03-2.67961E-01 8.52278E-14-1.14350E-12
 -1       202 2.33092E+01-4.59923E-02-3.00218E-03-4.49678E-01 1.76504E-13-9.70559E-13
 -1       203 2.28465E+01-7.61123E-03-1.63635E-03-5.16550E-01 1.84714E-13-8.08901E-13
 -1       204 2.23601E+01 1.46615E-02-4.44245E-04-5.08277E-01 2.58696E-14-7.22632E-13
 -1       205 2.18983E+01 2.51541E-02 3.95610E-04-4.58658E-01-7.36178E-14-8.13017E-13
 -1       206 2.14873E+01 2.82229E-02 8.82268E-04-3.91345E-01-1.53881E-13-7.49622E-13
 -1       207 2.11377E+01 2.71538E-02 1.09351E-03-3.20854E-01 1.39056E-13-8.80023E-13
 -1       208 2.08504E+01 2.40965E-02 1.12146E-03-2.55071E-01 1.69942E-13-7.93153E-13
 -1       209 2.06208E+01 2.03304E-02 1.04329E-03-1.97610E-01-3.33378E-14-7.08480E-13
 -1       210 2.04416E+01 1.65559E-02 9.13777E-04-1.49561E-01-1.97165E-13-8.06772E-13
 -1       211 2.03048E+01 1.31187E-02 7.67705E-04-1.10645E-01-2.20510E-13-7.79805E-13
 -1       212 2.02026E+01 1.01590E-02 6.25112E-04-7.99175E-02-9.13516E-15-8.28540E-13
 -1       213 2.01279E+01 7.70413E-03 4.96276E-04-5.61832E-02 1.31782E-13-9.34359E-13
 -1       214 2.00747E+01 5.72409E-03 3.85436E-04-3.82215E-02 5.04051E-15-1.12184E-12
 -1       215 2.00380E+01 4.16328E-03 2.93329E-04-2.49013E-02 8.01017E-14-7.79474E-13
 -1       216 2.00135E+01 2.95802E-03 2.18815E-04-1.52314E-02 1.75126E-13-9.52301E-13
 -1       217 1.99981E+01 2.04560E-03 1.59864E-04-8.37477E-03 1.84877E-13-7.49794E-13
 -1       218 1.99891E+01 1.36861E-03 1.14126E-04-3.64412E-03-1.10711E-13-8.65020E-13
 -1       219 1.99847E+01 8.76657E-04 7.92458E-05-4.88860E-04-9.93118E-14-6.88213E-13
 -1       220 1.99834E+01 5.26668E-04 5.30181E-05 1.52195E-03-2.59385E-13-7.45291E-13
 -1       221 1.99841E+01 2.82221E-04 3.34613E-05 2.71655E-03 3.60023E-14-6.84600E-13
 -1       222 1.99861E+01 1.12382E-04 1.88430E-05 3.33571E-03 8.68806E-14-4.67730E-13
 -1       223 1.99887E+01-9.89648E-06 7.79249E-06 3.54503E-03 3.34472E-13-2.28467E-13
 -1       224 1.99915E+01-1.09798E-04-4.76633E-07 3.44333E-03 3.35513E-13-2.73548E-13
 -1       225 1.99942E+01-2.13628E-04-5.56073E-06 3.06722E-03-4.80281E-14-2.99749E-13
 -1       226 1.99966E+01-3.50904E-04-7.71309E-06 2.39612E-03 1.95359E-13-3.03632E-13
 -1       227 1.99985E+01-5.29135E-04-4.20588E-06 1.39967E-03 1.90623E-13-1.57771E-13
 -1       228 2.18739E+01 2.66552E-01-4.72962E-02 8.62168E-01 5.50181E-13 2.00737E-12
 -1       229 2.11171E+01 1.30568E-01 9.66233E-03 1.43797E-01 4.02739E-13 1.59106E-12
 -1       230 2.09837E+01 6.98613E-02 1.27282E-02-1.75114E-01 2.70589E-13 1.25388E-12
 -1       231 2.11891E+01 4.19390E-02 7.05331E-03-3.53504E-01 2.04911E-13 1.03481E-12
 -1       232 2.15937E+01 2.30358E-02 2.86322E-03-4.57230E-01 1.42432E-13 9.08608E-13
 -1       233 2.21021E+01 2.09324E-03 6.47940E-04-4.97128E-01 6.31765E-14 7.86618E-13
 -1       234 2.26249E+01-2.67083E-02-2.15395E-04-4.60120E-01 1.11176E-13 6.50207E-13
 -1       235 2.30603E+01-6.56302E-02 8.51937E-05-3.21570E-01 1.47648E-13 6.03263E-13
 -1       236 2.32900E+01-1.10212E-01 1.52605E-03-6.05260E-02 1.19084E-13 5.24428E-13
 -1       237 2.31959E+01-1.44456E-01 3.57656E-03 3.14162E-01 2.75986E-14 5.08064E-13
 -1       238 2.27057E+01-1.39372E-01 4.59120E-03 7.29048E-01 4.86859E-14 4.55726E-13
 -1       239 2.18620E+01-6.64298E-02 2.30105E-03 1.02724E+00 6.53313E-14 4.52731E-13
 -1       240 2.08820E+01 7.02209E-02-3.54527E-03 1.01549E+00 5.65663E-14 3.31919E-13
 -1       241 2.01276E+01 2.09521E-01-9.35038E-03 5.96101E-01 5.50159E-14 2.46608E-13
 -1       242 1.99425E+01 2.63179E-01-1.01960E-02-1.04067E-01-3.63850E-14 1.82489E-13
 -1       243 2.04338E+01 1.94172E-01-4.81274E-03-7.72057E-01 1.40242E-13-3.30569E-14
 -1       244 2.13961E+01 5.08750E-02 2.35716E-03-1.11547E+00 3.47741E-13-1.45991E-13
 -1       245 2.24503E+01-7.65424E-02 6.12799E-03-1.05724E+00-3.50939E-14-2.44050E-13
 -1       246 2.32733E+01-1.37678E-01 5.31878E-03-7.28009E-01-1.34282E-13-3.43674E-13
 -1       247 2.37132E+01-1.36306E-01 2.14460E-03-3.19394E-01 1.38691E-15-3.20835E-13
 -1       248 2.37750E+01-1.01322E-01-6.59407E-04 3.00860E-02-3.54664E-15-3.40446E-13
 -1       249 2.35504E+01-5.94332E-02-2.03126E-03 2.64274E-01 1.32328E-13-3.61493E-13
 -1       250 2.31519E+01-2.49181E-02-2.13346E-03 3.85718E-01 8.71048E-15-5.70130E-13
 -1       251 2.26765E+01-1.73130E-03-1.57591E-03 4.22414E-01-6.46243E-14-4.91900E-13
 -1       252 2.21935E+01 1.14270E-02-8.56483E-04 4.05712E-01 1.62455E-14-3.17844E-13
 -1       253 2.17449E+01 1.74223E-02-2.42830E-04 3.60804E-01-1.45721E-14-2.32068E-13
 -1       254 2.13522E+01 1.89489E-02 1.79393E-04 3.04799E-01-1.87543E-13-7.38976E-14
 -1       255 2.10227E+01 1.80003E-02 4.20865E-04 2.47988E-01-2.45333E-13-7.16378E-14
 -1       256 2.07549E+01 1.58751E-02 5.26466E-04 1.95836E-01 1.04938E-13 8.07359E-14
 -1       257 2.05432E+01 1.33473E-02 5.43365E-04 1.50741E-01 1.88488E-13 1.10541E-13
 -1       258 2.03797E+01 1.08427E-02 5.09002E-04 1.13308E-01-7.20094E-14-8.36542E-14
 -1       259 2.02563E+01 8.57254E-03 4.49275E-04 8.31740E-02-1.79182E-14-1.07590E-13
 -1       260 2.01653E+01 6.62231E-03 3.80581E-04 5.95171E-02 5.60584E-14-2.57832E-13
 -1       261 2.00997E+01 5.00753E-03 3.12541E-04 4.13520E-02 2.57251E-14-2.26547E-13
 -1       262 2.00538E+01 3.70739E-03 2.50282E-04 2.76932E-02 1.00920E-13-1.81765E-13
 -1       263 2.00228E+01 2.68476E-03 1.96085E-04 1.76375E-02 6.65399E-15-4.22977E-14
 -1       264 2.00028E+01 1.89723E-03 1.50532E-04 1.03994E-02-1.54812E-13-2.23115E-14
 -1       265 1.99907E+01 1.30306E-03 1.13250E-04 5.31939E-03 6.12654E-14-9.24733E-14
 -1       266 1.99843E+01 8.64008E-04 8.33766E-05 1.85920E-03 1.42912E-13 3.80586E-14
 -1       267 1.99818E+01 5.46473E-04 5.98379E-05-4.09739E-04-1.34966E-13 7.28218E-14
 -1       268 1.99819E+01 3.21616E-04 4.15091E-05-1.82017E-03-2.24141E-13 1.71636E-13
 -1       269 1.99836E+01 1.64940E-04 2.73148E-05-2.62269E-03-2.31931E-13 3.53277E-13
 -1       270 1.99862E+01 5.54377E-05 1.63398E-05-2.99767E-03 3.22933E-13 2.26899E-13
 -1       271 1.99892E+01-2.58558E-05 8.11533E-06-3.06431E-03 4.30260E-13-1.82749E-14
 -1       272 1.99923E+01-9.73936E-05 3.34291E-06-2.88547E-03 1.02688E-13 1.15643E-13
 -1       273 1.99952E+01-1.77877E-04 4.15714E-06-2.47075E-03-3.44397E-14 2.24211E-13
 -1       274 1.99975E+01-2.96941E-04 5.23768E-06-1.77910E-03-2.07289E-13 2.00198E-14
 -1       275 1.99991E+01-4.01631E-04-4.73158E-07-8.00524E-04-9.10845E-14 6.27746E-15
 -1       276 1.99993E+01-1.38957E-03-5.80283E-06-1.40651E-03-1.00613E-14 6.64549E-13
 -1       277 1.99995E+01-3.12540E-03-3.04619E-06-2.21475E-03 3.22312E-13 4.35856E-14
 -1       278 1.99998E+01-5.21591E-03-1.54663E-06-2.54083E-03 2.46100E-13-2.29406E-13
 -1       279 1.99999E+01-7.36647E-03 1.81121E-06-2.44486E-03-1.45730E-13-4.33161E-13
 -1       280 2.00000E+01-9.27422E-03 6.06312E-06-2.05526E-03-4.93259E-13-7.61137E-13
 -1       281 2.00001E+01-1.07999E-02 9.45711E-06-1.46336E-03-5.70224E-13-1.13819E-13
 -1       282 2.00001E+01-1.17643E-02 1.16154E-05-7.55078E-04-5.21475E-13-9.31755E-14
 -1       283 2.00001E+01-1.20908E-02 1.23233E-05 5.81431E-06-4.95983E-13 4.77304E-13
 -1       284 2.00001E+01-1.17544E-02 1.16136E-05 7.66305E-04-6.50050E-13-7.57599E-14
 -1       285 2.00001E+01-1.07805E-02 9.43388E-06 1.47375E-03-9.37524E-13-3.58745E-13
 -1       286 2.00000E+01-9.27850E-03 5.84776E-06 2.05589E-03-7.15801E-13-2.64790E-13
 -1       287 1.99999E+01-7.33403E-03 1.75190E-06 2.44961E-03-4.00700E-13 7.52970E-13
 -1       288 1.99998E+01-5.18342E-03-2.32329E-06 2.54097E-03-1.18540E-13 2.04440E-13
 -1       289 1.99995E+01-3.09519E-03-7.13552E-06 2.17854E-03 1.72843E-14 2.24718E-13
 -1       290 1.99991E+01-1.68988E-03-1.04919E-05 2.06745E-03 1.34097E-13 9.14449E-14
 -1       291-3.11933E-01-8.76726E+00-6.27795E-01 1.73019E+00 3.06408E-13 1.21270E-12
 -1       292 2.98802E+00-8.35142E+00-7.88739E-01 3.44055E+00 1.14728E-12 8.61020E-13
 -1       293 1.01621E+01-4.79167E+00-4.56099E-01 5.74424E+00 1.25785E-12 9.45827E-13
 -1       294 1.91119E+01-6.44544E-01-9.27363E-02 7.20200E+00 1.28339E-12 1.26435E-12
 -1       295 3.02497E+01 2.94977E+00 4.01809E-01 7.63559E+00 1.19914E-12 1.09246E-12
 -1       296 4.00050E+01 5.19772E+00 7.91631E-01 5.84373E+00 1.33307E-12 3.59823E-13
 -1       297 4.57349E+01 6.42396E+00 1.00027E+00 2.71454E+00 1.21023E-12-3.61378E-13
 -1       298 4.34211E+01 7.35377E+00 6.78817E-01-8.42551E-01 1.43660E-12-7.59427E-13
 -1       299 4.24261E+01 5.77167E+00 8.73090E-01-5.11870E+00 1.49117E-12-1.92096E-12
 -1       300 3.38620E+01 3.55795E+00 4.91491E-01-6.80548E+00 1.80313E-12-2.07817E-12
 -1       301 2.36953E+01 8.55713E-01 1.13938E-01-7.63472E+00 1.96421E-12-2.36910E-12
 -1       302 1.36551E+01-2.95075E+00-3.21907E-01-6.47592E+00 1.77872E-12-2.07137E-12
 -1       303 5.54967E+00-7.02143E+00-6.98710E-01-4.41392E+00 1.16587E-12-1.88198E-12
 -1       304 6.69645E-01-9.30001E+00-7.86537E-01-2.60260E+00 3.32206E-13-1.52113E-12
 -1       305-1.30215E+00-1.13453E+01-1.02803E+00-1.73509E-03-6.05477E-13-1.37071E-12
 -1       306 3.45549E-01-1.01646E+01-9.47972E-01 2.12312E+00-1.51887E-12-1.62646E-12
 -1       307 5.71813E+00-7.03602E+00-6.31309E-01 4.71211E+00-2.00442E-12-1.81708E-12
 -1       308 1.58026E+01-4.04547E+00-1.94301E-01 6.81637E+00-1.90165E-12-1.84701E-12
 -1       309 2.62406E+01-4.26607E-01 9.17524E-02 6.43525E+00-1.97869E-12-1.70142E-12
 -1       310 3.56025E+01 4.23962E+00 6.00626E-01 6.99782E+00-1.98175E-12-2.12813E-12
 -1       311 4.37206E+01 6.02037E+00 9.69112E-01 4.60272E+00-1.65437E-12-1.51687E-12
 -1       312 4.71973E+01 6.63311E+00 1.08312E+00 8.53410E-01-1.33041E-12-6.58425E-13
 -1       313 4.39801E+01 6.51688E+00 8.42966E-01-2.61676E+00-1.05928E-12-6.08680E-14
 -1       314 3.85370E+01 4.84655E+00 7.22725E-01-6.28001E+00-1.05649E-12 7.37493E-13
 -1       315 2.87901E+01 2.40356E+00 3.20663E-01-7.58799E+00-1.23876E-12 1.05460E-12
 -1       316 1.82397E+01-1.01257E+00-1.31054E-01-7.07871E+00-1.32147E-12 1.34651E-12
 -1       317 9.13172E+00-4.98950E+00-5.31721E-01-5.36295E+00-1.24284E-12 1.53738E-12
 -1       318 2.66945E+00-8.49493E+00-7.79713E-01-3.44101E+00-7.03604E-13 1.18586E-12
 -1       319-9.22983E-01-1.08666E+01-9.77763E-01-9.78906E-01-7.87426E-14 1.08898E-12
 -1       320 2.05838E+01 3.08945E+00-1.79668E-02-1.48083E+00-6.18926E-13-7.87841E-13
 -1       321 2.14648E+01 2.20389E+00-1.63720E-02-1.79749E+00-7.38751E-13-3.70527E-13
 -1       322 1.93321E+01 3.95415E+00-1.37561E-02-7.53680E-01-2.80301E-13-1.12390E-12
 -1       323 1.88968E+01 4.19217E+00-1.07728E-02-4.76828E-01-1.20182E-13-1.14209E-12
 -1       324 1.85961E+01 4.34275E+00-9.03048E-03-2.59820E-01 3.78111E-14-1.12911E-12
 -1       325 1.84446E+01 4.41449E+00-8.22842E-03-8.11275E-02 1.85080E-13-1.09909E-12
 -1       326 1.84509E+01 4.41020E+00-8.26467E-03 8.54208E-02 3.08804E-13-1.05449E-12
 -1       327 1.86140E+01 4.33016E+00-9.13627E-03 2.67322E-01 4.28300E-13-9.88103E-13
 -1       328 1.89173E+01 4.17542E+00-1.09186E-02 4.85736E-01 5.53082E-13-8.89289E-13
 -1       329 1.93572E+01 3.93110E+00-1.37924E-02 7.66879E-01 6.85282E-13-7.15646E-13
 -1       330 1.99220E+01 3.56984E+00-1.79492E-02 1.11436E+00 8.03906E-13-4.83523E-13
 -1       331 2.06297E+01 3.02234E+00-2.19401E-02 1.50463E+00 8.84190E-13-1.34682E-13
 -1       332 2.14574E+01 2.12460E+00-2.89585E-02 1.77099E+00 8.48444E-13 5.09044E-13
 -1       333 2.19216E+01 1.16662E+00-2.21621E-02 1.46390E+00 7.41749E-13 1.09729E-12
 -1       334 2.14457E+01 5.05109E-01 9.37163E-03 4.43248E-01 5.96631E-13 8.52057E-13
 -1       335 2.14415E+01 7.21737E-01 1.33532E-02-4.20934E-01-5.89198E-13-2.37014E-13
 -1       336 2.12632E+01 4.12855E-01 7.77964E-03 2.22503E-01-4.39402E-13-2.70191E-13
 -1       337 2.12962E+01 2.56729E-01 4.55601E-03 6.20109E-01-3.38518E-13-3.11358E-13
 -1       338 2.14904E+01 1.41143E-01 1.77674E-03 8.66129E-01-2.50360E-13-3.53425E-13
 -1       339 2.18023E+01 1.61057E-02-3.62536E-04 9.80628E-01-1.96093E-13-3.62624E-13
 -1       340 2.21915E+01-1.47770E-01-2.42451E-03 9.44895E-01-1.42960E-13-3.70984E-13
 -1       341 2.26156E+01-3.60367E-01-4.46821E-03 7.18203E-01-7.92551E-14-3.24725E-13
 -1       342 2.30186E+01-5.95419E-01-6.05137E-03 2.61724E-01-1.01800E-13-2.30826E-13
 -1       343 2.33182E+01-7.64598E-01-6.09146E-03-4.16530E-01-7.58601E-14-2.11856E-13
 -1       344 2.34040E+01-7.13286E-01-4.00379E-03-1.19279E+00-9.15570E-14-1.87211E-13
 -1       345 2.31851E+01-2.93513E-01-6.71678E-04-1.77443E+00-1.97552E-13-1.94160E-13
 -1       346 2.27033E+01 4.55953E-01-2.83533E-05-1.76605E+00-2.43327E-13-2.88015E-13
 -1       347 2.22286E+01 1.17403E+00-1.20046E-03-9.49152E-01-3.88915E-13-5.21258E-13
 -1       348 2.21218E+01 1.36298E+00-1.39807E-03 3.90256E-01-3.42362E-13-8.43403E-13
 -1       349 2.24875E+01 8.78900E-01 1.20649E-04 1.55777E+00-1.90329E-13-9.80302E-13
 -1       350 2.30613E+01 8.53607E-02-4.44178E-04 1.99937E+00-9.99722E-14-1.04056E-12
 -1       351 2.34886E+01-5.32881E-01-3.59665E-03 1.69114E+00 6.38877E-15-1.08527E-12
 -1       352 2.36081E+01-7.66338E-01-5.47671E-03 9.78799E-01 1.27730E-13-1.06754E-12
 -1       353 2.34544E+01-6.93325E-01-6.35845E-03 2.29287E-01 1.42470E-13-8.82636E-13
 -1       354 2.31350E+01-4.82766E-01-5.44358E-03-3.50185E-01 2.36586E-13-7.16094E-13
 -1       355 2.27424E+01-2.62638E-01-3.68721E-03-7.05720E-01 2.30418E-13-5.20693E-13
 -1       356 2.23347E+01-9.16706E-02-1.91470E-03-8.67137E-01 1.36839E-13-6.30997E-13
 -1       357 2.19439E+01 1.89426E-02-5.26357E-04-8.91254E-01 8.69939E-14-7.84220E-13
 -1       358 2.15865E+01 7.93947E-02 3.77663E-04-8.32233E-01-5.83911E-15-7.69668E-13
 -1       359 2.12707E+01 1.05033E-01 8.66591E-04-7.31201E-01-1.63131E-14-6.98642E-13
 -1       360 2.09992E+01 1.09311E-01 1.06044E-03-6.15516E-01-2.85694E-14-4.70867E-13
 -1       361 2.07714E+01 1.01936E-01 1.07071E-03-5.01543E-01 8.04356E-14-5.71636E-13
 -1       362 2.05844E+01 8.91731E-02 9.81221E-04-3.97957E-01 5.79047E-14-6.25861E-13
 -1       363 2.04340E+01 7.47541E-02 8.47465E-04-3.08517E-01-1.39084E-13-5.32455E-13
 -1       364 2.03154E+01 6.07304E-02 7.02716E-04-2.34044E-01-3.63933E-14-3.30819E-13
 -1       365 2.02236E+01 4.81125E-02 5.65077E-04-1.73748E-01-1.12227E-13-2.90687E-13
 -1       366 2.01539E+01 3.72959E-02 4.43168E-04-1.26053E-01-1.55380E-13-4.85680E-13
 -1       367 2.01020E+01 2.83327E-02 3.39998E-04-8.91006E-02-4.52711E-14-4.38707E-13
 -1       368 2.00642E+01 2.10979E-02 2.55494E-04-6.10272E-02 1.83517E-13-4.00523E-13
 -1       369 2.00374E+01 1.53863E-02 1.88034E-04-4.01140E-02 1.44843E-13-3.18656E-13
 -1       370 2.00189E+01 1.09674E-02 1.35352E-04-2.48522E-02 1.94908E-13-1.74529E-13
 -1       371 2.00067E+01 7.61440E-03 9.50263E-05-1.39640E-02 1.85988E-14-1.86449E-13
 -1       372 1.99991E+01 5.11895E-03 6.47411E-05-6.39715E-03 4.23853E-14 8.70398E-14
 -1       373 1.99948E+01 3.29723E-03 4.23972E-05-1.30628E-03-1.68432E-13 2.07750E-13
 -1       374 1.99928E+01 1.99086E-03 2.61438E-05 1.97071E-03-3.99661E-14 2.32151E-13
 -1       375 1.99923E+01 1.06466E-03 1.43997E-05 3.93741E-03 2.68790E-13 1.35452E-13
 -1       376 1.99929E+01 4.02707E-04 5.78517E-06 4.96151E-03 2.97130E-13 4.29672E-13
 -1       377 1.99940E+01-9.67673E-05-7.81879E-07 5.29429E-03 2.07249E-13 1.48150E-13
 -1       378 1.99954E+01-5.25143E-04-5.74950E-06 5.08678E-03-7.69357E-14 1.47852E-13
 -1       379 1.99968E+01-9.69025E-04-1.18559E-05 4.41527E-03-1.75777E-14 1.57590E-13
 -1       380 1.99979E+01-1.33947E-03-1.49877E-05 3.39340E-03 3.50500E-13 1.44760E-13
 -1       381 2.12245E+01 2.67255E-01 1.11571E-02-1.35679E-01 4.27651E-13 6.36493E-13
 -1       382 2.12614E+01 1.60676E-01 6.38075E-03-4.78141E-01 2.96417E-13 5.07823E-13
 -1       383 2.14906E+01 8.85191E-02 2.54739E-03-6.82779E-01 2.09152E-13 3.93714E-13
 -1       384 2.18412E+01 1.46846E-02 2.11254E-05-7.75856E-01 1.63847E-13 2.79369E-13
 -1       385 2.22502E+01-8.04511E-02-1.97769E-03-7.46055E-01 1.31902E-13 1.82580E-13
 -1       386 2.26512E+01-2.04420E-01-3.67489E-03-5.62259E-01 1.26229E-13 2.48236E-13
 -1       387 2.29674E+01-3.44213E-01-4.90206E-03-1.95000E-01 1.31157E-13 3.41527E-13
 -1       388 2.31108E+01-4.52898E-01-4.97531E-03 3.47928E-01 6.26365E-14 3.75799E-13
 -1       389 2.29965E+01-4.44591E-01-3.54209E-03 9.72002E-01 9.26034E-14 3.27402E-13
 -1       390 2.25877E+01-2.29617E-01-1.22922E-03 1.45870E+00 1.02142E-13 2.90029E-13
 -1       391 2.19729E+01 1.89829E-01 5.07820E-04 1.51400E+00 1.77419E-13 2.52401E-13
 -1       392 2.14058E+01 6.37422E-01 1.76457E-03 9.55331E-01 1.69310E-13 1.23024E-13
 -1       393 2.12042E+01 8.30599E-01 3.18341E-03-6.83066E-02 8.80849E-14-3.99282E-14
 -1       394 2.15068E+01 6.35909E-01 4.10738E-03-1.08881E+00 2.42936E-13-2.47696E-13
 -1       395 2.21588E+01 1.85167E-01 3.13298E-03-1.63437E+00 3.32907E-13-3.43000E-13
 -1       396 2.28316E+01-2.30072E-01 5.31221E-04-1.56519E+00 1.55979E-13-3.48468E-13
 -1       397 2.32825E+01-4.38921E-01-2.96824E-03-1.07594E+00-7.29573E-14-5.98267E-13
 -1       398 2.34357E+01-4.44898E-01-5.53154E-03-4.58401E-01-3.09718E-14-6.07565E-13
 -1       399 2.33321E+01-3.37116E-01-5.85524E-03 7.55565E-02-8.79635E-14-6.49421E-13
 -1       400 2.30549E+01-2.02093E-01-4.64440E-03 4.38497E-01 1.04418E-13-4.77297E-13
 -1       401 2.26834E+01-8.79541E-02-2.85884E-03 6.31226E-01 7.17124E-14-3.10081E-13
 -1       402 2.22780E+01-9.47713E-03-1.24005E-03 6.93432E-01-9.45476E-14-2.55521E-13
 -1       403 2.18796E+01 3.62638E-02-6.22685E-05 6.71176E-01-2.64372E-14-2.77697E-13
 -1       404 2.15128E+01 5.79897E-02 6.53613E-04 6.02533E-01-6.27240E-14-2.78926E-13
 -1       405 2.11903E+01 6.43494E-02 1.00429E-03 5.14170E-01-2.20239E-13-6.16272E-14
 -1       406 2.09168E+01 6.19487E-02 1.10864E-03 4.22702E-01-2.46831E-13-6.10278E-14
 -1       407 2.06912E+01 5.52071E-02 1.06703E-03 3.37368E-01-1.14112E-14 1.40339E-13
 -1       408 2.05099E+01 4.68283E-02 9.51175E-04 2.62543E-01 2.19464E-13 2.21823E-13
 -1       409 2.03672E+01 3.83423E-02 8.06716E-04 1.99642E-01 1.24658E-13 3.73476E-14
 -1       410 2.02573E+01 3.05378E-02 6.60097E-04 1.48406E-01 5.21050E-14-2.10599E-13
 -1       411 2.01743E+01 2.37589E-02 5.25136E-04 1.07725E-01-1.56557E-14-2.42857E-13
 -1       412 2.01131E+01 1.80945E-02 4.07920E-04 7.61345E-02 4.47400E-14-1.03024E-13
 -1       413 2.00689E+01 1.34973E-02 3.10069E-04 5.21056E-02-6.89380E-15 7.87035E-14
 -1       414 2.00379E+01 9.85450E-03 2.30774E-04 3.41975E-02-5.79931E-14 4.41825E-13
 -1       415 2.00169E+01 7.02889E-03 1.68055E-04 2.11315E-02-7.49079E-14 2.18043E-13
 -1       416 2.00033E+01 4.88124E-03 1.19494E-04 1.18174E-02 1.58227E-13 1.49782E-13
 -1       417 1.99951E+01 3.28150E-03 8.26264E-05 5.35318E-03-4.13213E-14-3.91000E-14
 -1       418 1.99908E+01 2.11391E-03 5.51367E-05 1.01213E-03-1.28020E-13 4.62354E-13
 -1       419 1.99890E+01 1.27821E-03 3.49476E-05-1.77671E-03-3.03859E-13 4.82111E-13
 -1       420 1.99890E+01 6.88705E-04 2.02346E-05-3.44873E-03-1.72969E-13 3.76557E-13
 -1       421 1.99902E+01 2.72065E-04 9.42623E-06-4.32295E-03 2.82998E-13 1.93489E-13
 -1       422 1.99919E+01-3.63276E-05 1.23363E-06-4.61832E-03 4.42517E-13 5.41927E-13
 -1       423 1.99939E+01-2.97152E-04-4.80120E-06-4.46554E-03-6.29203E-14 7.46984E-13
 -1       424 1.99958E+01-5.62221E-04-8.31431E-06-3.91769E-03 1.81558E-15 6.69040E-13
 -1       425 1.99976E+01-8.76417E-04-9.08564E-06-2.97795E-03 8.12404E-15 6.42833E-13
 -1       426 1.99985E+01-1.16281E-03-9.38669E-06-2.26139E-03-1.14171E-13 6.85088E-13
 -1       427 2.00000E+01-4.79008E-03-3.85557E-08-4.09666E-03 4.45495E-14-6.41025E-13
 -1       428 1.99993E+01-3.33519E-03-8.43646E-06-3.99604E-03-2.94663E-14-8.73048E-15
 -1       429 1.99989E+01-2.24973E-03-1.32123E-05-3.31895E-03-1.06167E-13 5.87882E-13
 -1       430 2.00004E+01-6.08985E-03 5.20123E-06-3.66914E-03-8.68873E-14-1.10415E-12
 -1       431 2.00007E+01-7.17640E-03 8.74411E-06-2.85705E-03-6.51564E-14-2.55294E-13
 -1       432 2.00009E+01-7.94201E-03 1.11359E-05-1.79918E-03-1.92404E-13-1.44437E-13
 -1       433 2.00010E+01-8.33561E-03 1.23045E-05-6.07492E-04-3.46318E-13-5.17610E-14
 -1       434 2.00010E+01-8.33271E-03 1.22939E-05 6.25846E-04-5.67967E-13 5.84665E-14
 -1       435 2.00009E+01-7.93345E-03 1.11380E-05 1.81645E-03-6.92879E-13-3.42937E-13
 -1       436 2.00007E+01-7.17886E-03 8.69292E-06 2.85619E-03-3.95349E-13-4.61778E-13
 -1       437 2.00004E+01-6.09374E-03 5.05068E-06 3.67023E-03-3.16666E-13 1.07105E-12
 -1       438 2.00000E+01-4.76724E-03-7.74773E-08 4.10270E-03 1.18843E-13 6.42534E-13
 -1       439 1.99993E+01-3.32423E-03-9.04120E-06 4.02762E-03 1.19298E-13 3.15398E-13
 -1       440 1.06048E+01-5.67036E+00-6.81603E-02 6.82508E+00-1.77261E-13 1.94296E-13
 -1       441 1.11322E+00-4.46713E+00-6.81451E-02-3.27012E-01-1.59261E-13 1.25089E-12
 -1       442 4.65446E+00-4.75526E+00-2.09195E-02 4.89458E+00-2.54144E-13 7.19536E-13
 -1       443 1.95663E+01-5.22101E+00-2.83691E-02 6.48405E+00 1.45259E-13 3.65860E-13
 -1       444 2.72971E+01-2.76793E+00 4.26001E-03 4.24744E+00 3.82944E-13 6.01325E-14
 -1       445 1.99004E+01 3.60112E+00-1.66757E-02-1.10970E+00-4.62741E-13-1.02358E-12
 -1       446 3.49596E+01 5.66436E+00 3.18122E-02-3.25058E-01 1.32352E-12-4.55858E-13
 -1       447 3.49600E+01 7.85083E+00-1.56319E-02-3.82186E-01 1.40563E-12-2.25667E-13
 -1       448 3.49044E+01 6.48794E+00 1.68886E-03 3.90165E-01 1.37079E-12-1.44149E-13
 -1       449 3.40416E+01 3.21387E+00 5.43073E-02-5.82005E-01 1.08297E-12-2.83870E-13
 -1       450 2.95704E+01-1.82124E+00-9.06646E-03-2.93037E+00 6.44838E-13-3.99972E-13
 -1       451 2.33582E+01-4.83330E+00 6.80364E-04-5.63828E+00 1.68268E-13-8.38024E-13
 -1       452 1.44767E+01-5.74640E+00-4.32587E-02-7.13467E+00-1.94844E-14-1.33598E-12
 -1       453 7.60627E+00-4.96235E+00 1.08588E-02-6.29571E+00-2.47774E-13-1.50635E-12
 -1       454 1.62650E+00-4.58573E+00-7.17830E-02-2.05483E+00-1.59699E-13-1.77194E-12
 -1       455 1.50746E+00-5.03593E+00-1.13387E-01 2.24903E+00-3.26551E-13-1.66811E-12
 -1       456 6.76616E+00-4.85526E+00 8.96964E-03 5.94328E+00-1.59275E-13-1.48309E-12
 -1       457 1.36769E+01-5.60407E+00-1.07401E-02 7.13692E+00-3.85483E-13-1.15771E-12
 -1       458 2.38914E+01-4.69515E+00-2.05581E-02 5.21930E+00-6.27498E-13-6.30405E-13
 -1       459 3.09374E+01-2.73712E-01 2.23056E-02 2.24932E+00-1.23599E-12-4.98213E-13
 -1       460 3.46552E+01 3.66948E+00 7.79337E-02 8.35684E-01-1.49213E-12-5.65048E-13
 -1       461 3.56102E+01 7.25956E+00 4.25423E-02-2.31171E-01-1.60870E-12-4.02657E-13
 -1       462 3.62723E+01 7.91231E+00 7.84687E-02 1.98954E-01-1.36244E-12-5.92297E-13
 -1       463 3.44696E+01 4.80910E+00 7.97741E-03 3.20205E-01-8.81836E-13-6.51743E-13
 -1       464 3.20632E+01 5.03448E-01 1.19685E-02-1.44834E+00-5.04824E-13-5.28910E-13
 -1       465 2.65036E+01-3.19542E+00-8.40355E-04-4.52707E+00-3.70398E-13-1.55417E-13
 -1       466 1.85654E+01-5.35170E+00-3.98642E-02-6.62229E+00-7.79099E-14 4.09811E-13
 -1       467 1.01156E+01-5.72134E+00-7.69817E-02-6.70526E+00-3.66374E-15 9.81625E-13
 -1       468 3.64926E+00-4.54986E+00-3.51105E-02-4.24137E+00-4.26326E-14 1.19184E-12
 -1       469 3.24822E+01 1.22091E+00 8.99681E-03 9.40146E-01 7.78596E-13-3.70301E-13
 -1       470 4.00526E+00-2.47658E+00 1.23075E-01 2.57093E+00-4.46480E-13 1.06930E-12
 -1       471 2.05941E+01-5.81436E+00 7.65648E-02 6.14329E+00 1.06373E-13-4.40727E-13
 -1       472 3.11052E+01 7.27875E+00-1.63057E-01 4.88703E-01 1.34240E-12-1.91340E-14
 -1       473 2.81532E+01-4.01266E+00-5.65428E-02 2.12749E+00-5.08513E-13 1.92554E-14
 -1       474 2.12305E+01 9.20269E-01 4.22080E-03 2.66371E-01 6.32931E-13 1.71760E-13
 -1       475 1.88846E+01 3.66173E+00-3.86690E-03-1.96497E-01-4.28723E-14-1.01358E-12
 -1       476 1.93020E+01 3.38032E+00-4.61125E-03-3.47136E-01-1.89036E-13-1.01016E-12
 -1       477 1.85409E+01 3.87711E+00-3.23406E-03-2.94187E-03 2.22301E-13-9.93870E-13
 -1       478 1.86401E+01 3.81375E+00-3.41297E-03 8.40855E-02 3.51680E-13-9.30248E-13
 -1       479 1.89069E+01 3.64141E+00-4.00104E-03 1.96443E-01 4.72251E-13-8.57241E-13
 -1       480 1.93294E+01 3.35272E+00-4.95158E-03 3.54070E-01 5.94577E-13-7.25614E-13
 -1       481 1.98758E+01 2.93900E+00-6.00292E-03 5.54544E-01 6.97841E-13-5.34129E-13
 -1       482 2.05247E+01 2.36559E+00-5.56263E-03 7.71533E-01 7.70440E-13-2.81550E-13
 -1       483 2.11586E+01 5.68327E-01 5.33740E-03-3.36936E-01 4.45474E-13 9.00041E-14
 -1       484 2.10574E+01 1.12148E+00 2.91745E-03-1.41747E-01-4.90910E-13-5.29255E-13
 -1       485 3.03682E+01 2.52114E+00-1.17622E-01-1.92165E+00 8.45303E-13-5.81646E-13
 -1       486 2.10362E+01 7.21471E-01 2.61308E-03 4.55492E-01-3.76097E-13-4.96675E-13
 -1       487 2.10850E+01 4.57507E-01 1.25461E-03 8.82427E-01-2.81345E-13-4.45828E-13
 -1       488 2.12368E+01 2.21348E-01 2.76946E-04 1.16290E+00-2.05454E-13-4.04950E-13
 -1       489 2.15052E+01-5.71640E-02-6.64581E-04 1.29483E+00-1.28006E-13-3.09114E-13
 -1       490 2.19049E+01-4.20811E-01-1.74889E-03 1.24599E+00-8.67093E-14-1.96240E-13
 -1       491 2.24469E+01-8.70690E-01-2.79679E-03 9.60138E-01-2.17407E-14-1.65282E-13
 -1       492 2.31105E+01-1.32321E+00-3.82820E-03 3.77981E-01-5.15566E-14-6.41638E-14
 -1       493 2.37944E+01-1.55501E+00-3.82821E-03-5.03309E-01-3.06931E-14-1.27529E-14
 -1       494 2.42786E+01-1.21717E+00-5.12852E-03-1.51137E+00-1.18109E-13 5.55946E-14
 -1       495 2.43192E+01-5.75958E-02-1.20619E-02-2.17329E+00-3.21367E-13-1.53603E-14
 -1       496 2.39187E+01 1.62432E+00-2.37538E-02-1.86366E+00-5.19222E-13-2.26967E-13
 -1       497 2.35589E+01 2.73877E+00-3.18789E-02-4.09680E-01-6.02584E-13-4.11140E-13
 -1       498 2.37019E+01 2.37284E+00-2.73013E-02 1.36354E+00-4.73473E-13-6.78159E-13
 -1       499 2.41905E+01 8.26914E-01-1.79227E-02 2.32308E+00-2.29639E-13-8.32072E-13
 -1       500 2.44292E+01-6.86524E-01-1.19968E-02 2.11822E+00-2.49772E-14-8.71712E-13
 -1       501 2.41859E+01-1.45374E+00-4.70197E-03 1.21839E+00 1.11230E-13-6.89595E-13
 -1       502 2.35919E+01-1.47993E+00-3.99217E-03 2.35270E-01 3.21204E-13-5.80173E-13
 -1       503 2.29098E+01-1.11631E+00-3.27344E-03-5.14366E-01 3.49865E-13-5.53371E-13
 -1       504 2.22979E+01-6.67731E-01-2.27733E-03-9.66912E-01 2.40887E-13-4.21252E-13
 -1       505 2.18062E+01-2.90593E-01-1.29686E-03-1.17227E+00 1.15907E-13-4.93899E-13
 -1       506 2.14263E+01-2.98250E-02-4.96480E-04-1.20640E+00-4.06448E-14-5.85303E-13
 -1       507 2.11326E+01 1.24685E-01 3.32431E-05-1.13617E+00-5.78448E-14-6.70623E-13
 -1       508 2.09011E+01 2.00519E-01 3.27915E-04-1.01094E+00 6.06095E-14-6.80575E-13
 -1       509 2.07149E+01 2.25015E-01 4.58023E-04-8.63869E-01 8.69428E-14-5.22400E-13
 -1       510 2.05632E+01 2.19357E-01 4.85448E-04-7.15554E-01-7.59154E-14-4.60728E-13
 -1       511 2.04389E+01 1.98043E-01 4.55891E-04-5.77701E-01 4.51334E-14-3.70174E-13
 -1       512 2.03375E+01 1.70212E-01 3.99631E-04-4.56081E-01-5.23340E-15-3.59634E-13
 -1       513 2.02556E+01 1.41242E-01 3.34820E-04-3.52706E-01 3.02311E-14-1.92671E-13
 -1       514 2.01902E+01 1.14046E-01 2.71355E-04-2.67330E-01-1.11078E-13-9.03268E-14
 -1       515 2.01387E+01 9.00068E-02 2.14170E-04-1.98478E-01-2.89144E-13-6.61266E-14
 -1       516 2.00988E+01 6.95946E-02 1.65215E-04-1.44096E-01 1.06004E-13 6.85938E-14
 -1       517 2.00685E+01 5.27710E-02 1.24793E-04-1.01966E-01 2.24094E-13 2.42290E-13
 -1       518 2.00459E+01 3.92362E-02 9.23235E-05-6.99360E-02 2.13067E-13 4.74118E-13
 -1       519 2.00294E+01 2.85749E-02 6.68287E-05-4.60444E-02 1.86992E-13 3.99974E-13
 -1       520 2.00176E+01 2.03397E-02 4.72198E-05-2.85791E-02-1.42070E-15 1.31767E-13
 -1       521 2.00094E+01 1.40979E-02 3.24299E-05-1.60932E-02 1.42679E-13 2.18559E-15
 -1       522 2.00040E+01 9.45408E-03 2.14832E-05-7.39623E-03 1.15025E-13 2.38580E-13
 -1       523 2.00006E+01 6.06012E-03 1.35161E-05-1.53291E-03 1.88882E-14 6.20078E-13
 -1       524 1.99986E+01 3.61538E-03 7.75342E-06 2.24366E-03-1.23202E-13 6.31025E-13
 -1       525 1.99977E+01 1.86253E-03 3.63625E-06 4.49973E-03 1.67563E-13 3.41062E-13
 -1       526 1.99974E+01 5.80913E-04 5.44440E-07 5.64774E-03 1.27939E-13 3.15936E-13
 -1       527 1.99976E+01-4.21392E-04-1.57318E-06 5.96933E-03 2.61473E-13 4.10872E-13
 -1       528 1.99980E+01-1.31083E-03-3.66636E-06 5.63952E-03 1.99327E-14 4.22520E-13
 -1       529 1.07401E+01-3.70985E+00 1.30650E-01 6.32657E+00-6.14286E-13 3.00079E-13
 -1       530 2.13716E+01 1.67061E-01 7.12343E-04-9.91392E-01 2.69868E-13-5.68421E-14
 -1       531 2.16462E+01-3.82514E-02-6.99056E-04-1.09407E+00 1.74173E-13-8.69822E-14
 -1       532 2.20164E+01-3.00111E-01-1.95277E-03-1.02406E+00 8.51999E-14-6.73571E-14
 -1       533 2.24641E+01-6.19569E-01-2.98551E-03-7.37313E-01 2.57572E-14 1.34527E-14
 -1       534 2.29474E+01-9.37696E-01-4.08917E-03-1.97999E-01 4.36041E-14 1.55081E-13
 -1       535 2.33781E+01-1.10796E+00-4.42207E-03 5.72012E-01 9.08296E-14 1.52154E-13
 -1       536 2.36048E+01-8.98525E-01-3.90499E-03 1.41176E+00 8.88776E-14 2.24349E-13
 -1       537 2.34887E+01-1.43980E-01-3.91401E-03 1.95445E+00 1.35587E-13 2.82868E-13
 -1       538 2.30743E+01 9.79625E-01-7.76617E-03 1.74702E+00 2.94470E-13 1.07554E-13
 -1       539 2.26901E+01 1.85822E+00-8.83481E-03 6.35649E-01 3.15347E-13-1.40884E-13
 -1       540 2.27267E+01 1.83550E+00-6.47346E-03-8.62461E-01 3.71720E-13-3.82990E-13
 -1       541 2.31550E+01 9.25377E-01-8.45778E-03-1.93647E+00 3.90674E-13-6.08066E-13
 -1       542 2.36002E+01-1.97912E-01-4.92410E-03-2.09103E+00 2.55447E-13-5.30157E-13
 -1       543 2.37247E+01-9.09950E-01-2.59577E-03-1.52707E+00 7.32873E-14-4.26802E-13
 -1       544 2.35154E+01-1.09307E+00-3.88594E-03-6.92587E-01-4.69746E-14-5.15075E-13
 -1       545 2.31065E+01-9.15557E-01-4.34148E-03 6.46929E-02-1.76548E-14-5.61267E-13
 -1       546 2.26405E+01-6.05421E-01-3.67936E-03 5.96397E-01-1.28472E-13-5.59675E-13
 -1       547 2.21982E+01-3.10453E-01-2.33353E-03 8.93785E-01-1.61645E-14-4.63627E-13
 -1       548 2.18081E+01-9.01342E-02-1.10825E-03 1.00684E+00-6.20971E-14-2.89676E-13
 -1       549 2.14733E+01 4.96350E-02-2.03164E-04 9.96100E-01-4.07274E-16-2.97885E-13
 -1       550 2.11887E+01 1.24807E-01 3.54136E-04 9.13038E-01 1.28550E-14-2.01894E-13
 -1       551 2.09481E+01 1.55536E-01 6.38399E-04 7.95073E-01-1.56329E-13-1.54053E-13
 -1       552 2.07463E+01 1.58926E-01 7.37700E-04 6.66760E-01-2.10325E-13-4.27120E-13
 -1       553 2.05789E+01 1.47296E-01 7.25046E-04 5.42770E-01-3.28986E-13-3.26954E-13
 -1       554 2.04418E+01 1.28682E-01 6.53845E-04 4.30893E-01-6.39542E-14-2.30923E-13
 -1       555 2.03312E+01 1.07944E-01 5.58521E-04 3.34472E-01 1.77369E-13-7.73014E-14
 -1       556 2.02435E+01 8.78124E-02 4.59196E-04 2.54136E-01 1.13446E-13-1.30776E-13
 -1       557 2.01751E+01 6.96693E-02 3.66516E-04 1.88979E-01-9.36227E-14 9.33307E-14
 -1       558 2.01226E+01 5.40764E-02 2.85348E-04 1.37330E-01-5.95601E-14 1.28694E-13
 -1       559 2.00831E+01 4.11223E-02 2.17254E-04 9.72231E-02-8.76647E-14 3.25287E-13
 -1       560 2.00540E+01 3.06430E-02 1.61893E-04 6.66875E-02-1.36212E-13 1.90253E-13
 -1       561 2.00331E+01 2.23558E-02 1.18006E-04 4.38928E-02 5.85063E-16 1.12716E-13
 -1       562 2.00184E+01 1.59358E-02 8.39732E-05 2.72252E-02 7.71789E-14 5.72630E-14
 -1       563 2.00085E+01 1.10597E-02 5.81158E-05 1.53113E-02 1.23507E-13 1.99915E-13
 -1       564 2.00021E+01 7.42731E-03 3.88478E-05 7.01653E-03-3.03081E-13 2.40822E-14
 -1       565 1.99983E+01 4.77192E-03 2.47429E-05 1.42723E-03-1.76167E-13 1.11394E-13
 -1       566 1.99963E+01 2.86181E-03 1.45632E-05-2.17270E-03-8.50873E-14 1.44170E-13
 -1       567 1.99955E+01 1.49815E-03 7.23583E-06-4.32712E-03 9.33032E-14 1.17988E-14
 -1       568 1.99956E+01 5.10597E-04 1.82266E-06-5.43254E-03 2.13013E-13 2.93157E-13
 -1       569 1.99961E+01-2.50066E-04-2.43468E-06-5.76159E-03 3.84998E-14 5.28179E-13
 -1       570 1.99970E+01-9.21573E-04-7.96270E-06-5.49243E-03 1.16710E-13 1.87088E-13
 -1       571 1.99979E+01-1.59481E-03-1.01242E-05-4.70260E-03-2.14361E-13 5.40798E-13
 -1       572 2.00014E+01-4.40503E-03 3.23069E-06-4.02686E-03 1.69132E-13-5.30557E-13
 -1       573 2.00019E+01-4.87893E-03 4.33045E-06-2.85096E-03 1.65641E-13-3.56945E-13
 -1       574 1.99996E+01-2.90584E-03-2.24865E-06-5.18893E-03-2.46409E-13-3.90550E-13
 -1       575 2.00007E+01-3.74411E-03 1.93521E-06-4.85264E-03-2.17099E-13-8.64373E-13
 -1       576 2.00021E+01-5.15904E-03 5.24023E-06-1.46724E-03-2.31412E-13-3.61919E-13
 -1       577 2.00022E+01-5.25077E-03 5.55231E-06 1.09578E-05-4.56761E-13 7.94627E-14
 -1       578 2.00021E+01-5.15693E-03 5.18429E-06 1.48843E-03-3.39855E-13 2.89172E-14
 -1       579 2.00019E+01-4.88147E-03 4.36623E-06 2.84846E-03-2.41131E-13-2.08676E-13
 -1       580 2.00014E+01-4.40991E-03 3.08259E-06 4.02788E-03 4.09055E-14-5.60854E-14
 -1       581 2.00007E+01-3.73081E-03 1.42235E-06 4.86683E-03-4.89818E-14 1.14937E-12
 -1       582 1.99996E+01-2.87105E-03-2.76265E-06 5.16754E-03-1.09105E-13 4.22482E-13
 -1       583 4.99736E+00-1.61060E+00 1.86253E-01-2.27979E+00-2.26555E-13 1.03118E-12
 -1       584 2.12054E+01 3.49489E-01 2.58008E-03-7.40873E-01 3.21217E-13 1.26523E-14
 -1       585 1.77971E+01-5.40731E+00 7.03476E-02 6.61673E+00-4.58383E-13 2.00085E-13
 -1       586 1.03043E+01-3.44465E+00 1.45363E-01-6.21700E+00 3.03493E-13 7.27592E-13
 -1       587 2.09446E+01 1.86931E+00-6.16837E-03-8.23812E-01-5.98075E-13-6.57208E-13
 -1       588 2.50998E+01-5.23722E+00 1.12574E-02 3.91685E+00-2.16320E-13-2.88609E-13
 -1       589 6.44440E+00-2.14307E+00 1.60457E-01 4.04219E+00 2.17236E-13-1.39617E-12
 -1       590 1.86245E+01 3.82652E+00-3.38817E-03-8.77931E-02 1.13085E-13-1.01904E-12
 -1       591 2.71046E+01-4.52732E+00-2.13063E-02-2.61500E+00-1.83215E-13 1.46834E-13
 -1       592 3.05288E+01 6.10532E+00-1.64952E-01-1.40247E+00 1.20653E-12-3.00811E-13
 -1       593 3.06566E+01 3.75104E+00-1.46908E-01 1.71715E+00 9.21721E-13 3.67886E-13
 -1       594 3.02653E+01-4.82219E-01-8.33417E-02 5.34625E-01 4.58692E-13 3.79613E-13
 -1       595 2.06838E+01-5.71093E+00 4.61938E-02-6.00147E+00-6.00180E-13-6.08370E-13
 -1       596 1.46571E+01-4.48996E+00 1.38217E-01-6.92647E+00-6.54359E-13-1.07402E-12
 -1       597 6.88607E+00-2.19537E+00 1.53013E-01-4.40580E+00-3.51219E-13-1.42937E-12
 -1       598 4.59052E+00-1.40684E+00 1.81582E-01 2.37360E-01 3.60263E-14-1.66382E-12
 -1       599 1.35338E+01-3.96682E+00 1.47438E-01 6.67028E+00 3.98730E-13-9.84601E-13
 -1       600 3.05472E+01 7.21882E+00-1.72210E-01-2.66873E-01-1.35239E-12-3.73635E-13
 -1       601 3.05269E+01 5.08944E-01-1.00516E-01-1.13779E+00-9.25829E-13 5.87586E-14
 -1       602 3.05821E+01 4.71169E+00-1.57210E-01-1.77476E+00-1.34603E-12-6.52950E-15
 -1       603 3.02977E+01 6.03874E+00-1.53126E-01 1.58158E+00-9.57082E-13-5.94618E-13
 -1       604 3.03348E+01 1.38243E+00-1.26399E-01 1.73092E+00-4.38871E-13-8.56155E-13
 -1       605 2.88839E+01-3.00183E+00-5.94618E-02-1.03455E+00-3.68074E-14-8.62484E-13
 -1       606 2.42648E+01-5.41866E+00 1.35967E-02-4.45749E+00 3.13076E-13-6.05078E-13
 -1       607 1.69689E+01-5.36969E+00 7.61499E-02-6.72499E+00 4.53346E-13 2.67480E-13
 -1       608 2.13654E+01 1.34371E+00-8.80521E-04 9.27792E-01 7.58150E-13 3.10327E-13
 -1       609 2.90413E+01-2.69356E+00-7.53722E-02 6.54859E-01 1.52520E-13-6.88109E-13
 -1       610 1.98397E+01 2.97112E+00-8.00722E-03-5.36612E-01-3.44814E-13-9.57193E-13
 -1       611 8.55721E+00-1.84906E+00 1.62631E-01 4.59239E+00-7.37781E-13 4.72185E-13
 -1       612 1.99984E+01-1.89679E-03-6.28070E-06 5.09155E-03-1.11294E-13 7.10852E-13
 -1       613 2.46855E+01-5.32459E+00 6.55368E-03 3.83903E+00 5.17711E-14-6.44866E-14
 -1       614 2.84891E+01 5.30120E+00-1.64101E-01 1.60418E+00 1.00048E-12 2.24140E-13
 -1       615 2.84145E+01 6.46210E+00-1.58718E-01-6.20776E-01 1.21306E-12-7.78769E-14
 -1       616 1.88076E+01 3.19457E+00-1.06631E-03-3.74227E-02 3.51455E-13-7.95159E-13
 -1       617 1.85953E+01 3.34223E+00-9.85574E-04-2.44055E-02 2.53543E-13-8.75436E-13
 -1       618 1.97172E+01 2.51382E+00-1.42714E-03 5.98523E-02 5.58975E-13-5.50583E-13
 -1       619 2.03132E+01 1.98751E+00-1.75836E-03 1.47110E-01 6.30931E-13-3.77971E-13
 -1       620 2.08312E+01 1.24550E+00 2.67594E-03-3.80841E-02 5.70332E-13-1.72887E-13
 -1       621 2.23478E+01-5.07719E+00 3.25410E-02 4.38649E+00-5.70453E-13-3.61715E-13
 -1       622 2.08312E+01 8.33895E-01 1.27248E-03-5.87817E-01 4.15682E-13-2.16235E-13
 -1       623 2.78340E+01-2.93382E+00-5.17935E-02 2.65994E-01-2.17734E-14 3.67269E-13
 -1       624 1.58667E+01-3.73783E+00 1.02613E-01-6.05217E+00 6.02914E-13 3.82923E-14
 -1       625 2.06105E+01 9.75319E-01 7.58570E-04 7.15676E-01-2.92743E-13-5.33017E-13
 -1       626 2.06514E+01 6.22656E-01 3.13537E-04 1.13832E+00-1.83562E-13-4.45346E-13
 -1       627 2.07790E+01 2.56117E-01 4.27204E-07 1.44836E+00-6.64078E-14-3.51459E-13
 -1       628 2.10514E+01-2.03570E-01-4.09834E-04 1.63262E+00-2.79588E-14-3.05980E-13
 -1       629 2.15403E+01-8.08876E-01-9.91086E-04 1.64839E+00 1.79397E-14-2.00056E-13
 -1       630 2.23190E+01-1.54617E+00-1.04779E-03 1.41091E+00 7.28435E-14-5.74448E-14
 -1       631 2.34142E+01-2.25486E+00-2.29335E-03 7.90679E-01 6.76937E-14 8.06178E-14
 -1       632 2.46833E+01-2.50461E+00-7.00414E-03-3.03656E-01-2.02830E-14 1.84220E-13
 -1       633 2.57005E+01-1.53963E+00-2.94487E-02-1.68052E+00-2.35669E-13 2.50044E-13
 -1       634 2.59555E+01 8.84257E-01-7.48847E-02-2.47640E+00-5.60461E-13 2.21614E-13
 -1       635 2.56023E+01 3.71166E+00-1.05929E-01-1.61572E+00-8.29094E-13-5.90873E-14
 -1       636 2.54273E+01 4.61412E+00-1.10017E-01 6.74832E-01-8.23029E-13-4.29078E-13
 -1       637 2.58225E+01 2.51254E+00-1.05066E-01 2.48332E+00-4.73160E-13-5.79091E-13
 -1       638 2.59895E+01-3.90769E-01-3.31806E-02 2.42103E+00-8.66356E-14-5.66189E-13
 -1       639 2.52770E+01-2.18988E+00-1.28732E-02 1.17394E+00 2.43416E-13-4.43683E-13
 -1       640 2.40685E+01-2.45827E+00-3.56477E-03-1.00709E-01 3.34867E-13-3.12110E-13
 -1       641 2.28510E+01-1.93576E+00-8.50140E-04-9.62726E-01 2.90183E-13-2.87350E-13
 -1       642 2.18898E+01-1.20885E+00-4.23353E-04-1.39958E+00 2.98919E-13-5.01613E-13
 -1       643 2.12302E+01-5.75678E-01-3.64854E-04-1.54317E+00 7.67684E-14-5.02167E-13
 -1       644 2.08126E+01-1.24654E-01-1.38055E-04-1.51451E+00-1.14335E-14-5.44233E-13
 -1       645 2.05582E+01 1.53999E-01 3.98502E-05-1.39391E+00-1.34006E-13-5.48244E-13
 -1       646 2.04039E+01 3.01270E-01 1.29158E-04-1.23003E+00-1.26076E-14-3.91840E-13
 -1       647 2.03070E+01 3.59734E-01 1.61474E-04-1.05205E+00 6.20602E-14-4.25439E-13
 -1       648 2.02421E+01 3.63549E-01 1.61696E-04-8.77281E-01 7.60111E-14-4.59559E-13
 -1       649 2.01947E+01 3.36955E-01 1.45956E-04-7.15641E-01 6.61865E-14-4.45189E-13
 -1       650 2.01577E+01 2.95861E-01 1.24426E-04-5.72236E-01 4.11617E-14-4.19161E-13
 -1       651 2.01273E+01 2.50099E-01 1.02588E-04-4.49018E-01 1.21397E-13-2.32804E-13
 -1       652 2.01018E+01 2.05370E-01 8.24994E-05-3.45882E-01 1.66237E-13-7.51128E-14
 -1       653 2.00804E+01 1.64674E-01 6.48610E-05-2.61466E-01-7.96313E-14 1.57811E-13
 -1       654 2.00625E+01 1.29317E-01 4.97902E-05-1.93741E-01 1.41658E-13 5.27832E-13
 -1       655 2.00478E+01 9.95992E-02 3.73948E-05-1.40416E-01 5.49628E-14 5.65312E-13
 -1       656 2.00359E+01 7.52678E-02 2.75153E-05-9.91836E-02 2.18111E-13 4.00616E-13
 -1       657 2.00265E+01 5.57855E-02 1.98110E-05-6.78734E-02 7.55584E-14 3.25736E-13
 -1       658 2.00191E+01 4.04959E-02 1.39197E-05-4.45377E-02-9.51055E-14 3.01667E-13
 -1       659 2.00134E+01 2.87217E-02 9.49996E-06-2.74895E-02-9.46171E-15 1.99870E-13
 -1       660 2.00091E+01 1.98195E-02 6.24265E-06-1.53100E-02 1.64378E-13 3.00549E-13
 -1       661 2.00060E+01 1.32072E-02 3.88364E-06-6.83593E-03 1.04292E-13 1.53922E-13
 -1       662 2.00037E+01 8.37395E-03 2.18120E-06-1.13673E-03-3.57161E-14 9.91695E-14
 -1       663 2.00021E+01 4.87921E-03 8.29828E-07 2.51300E-03 3.47221E-14 4.53282E-13
 -1       664 2.00010E+01 2.34527E-03 2.42133E-08 4.66027E-03 1.91800E-13 4.40146E-13
 -1       665 2.00003E+01 4.54153E-04 1.97271E-07 5.70562E-03 1.40559E-13 6.11922E-13
 -1       666 1.99999E+01-1.07921E-03-2.42170E-06 5.91320E-03-7.43175E-14 4.17852E-13
 -1       667 2.74828E+01 5.20122E+00-1.46662E-01-1.41231E+00-1.11768E-12-8.44099E-14
 -1       668 2.83877E+01-1.59544E+00-6.67014E-02 1.41336E+00-7.33424E-14-8.29746E-13
 -1       669 2.10373E+01 2.03979E-01 1.82713E-05-1.26865E+00 2.20984E-13-2.27867E-13
 -1       670 2.24092E+01-1.22976E+00-2.60156E-04-1.03588E+00-7.88386E-14-1.05832E-13
 -1       671 2.32341E+01-1.74737E+00-2.23421E-03-4.06896E-01-1.30800E-14 3.05788E-14
 -1       672 2.41117E+01-1.91598E+00-6.46158E-03 5.66262E-01 1.08188E-14 2.56171E-13
 -1       673 2.47388E+01-1.26163E+00-1.20643E-02 1.65701E+00 7.73959E-14 3.46928E-13
 -1       674 2.47790E+01 4.47935E-01-2.26278E-02 2.25643E+00 3.49022E-13 2.65830E-13
 -1       675 2.43424E+01 2.54544E+00-4.51340E-02 1.65737E+00 5.35969E-13 1.75601E-13
 -1       676 2.39658E+01 3.54284E+00-7.34175E-02-1.44219E-01 6.08701E-13-1.95685E-13
 -1       677 2.44835E+01 2.39625E+00-3.21131E-02-1.94951E+00 5.40285E-13-5.97000E-13
 -1       678 2.47836E+01 3.69196E-01-2.30297E-02-2.48494E+00 2.13948E-13-6.36395E-13
 -1       679 2.47622E+01-1.30537E+00-5.92457E-03-1.78225E+00 9.16050E-14-5.56093E-13
 -1       680 2.41096E+01-1.89788E+00-2.06068E-03-6.81452E-01 1.02890E-14-5.37832E-13
 -1       681 2.32337E+01-1.71534E+00-1.57614E-03 2.70075E-01-5.24915E-14-4.18789E-13
 -1       682 2.24073E+01-1.20149E+00-1.96457E-03 8.90039E-01-1.72800E-13-4.07191E-13
 -1       683 2.17576E+01-6.69419E-01-1.18339E-03 1.20737E+00-6.55563E-14-5.36324E-13
 -1       684 2.12895E+01-2.51889E-01-6.13852E-04 1.30946E+00-1.58159E-13-2.56619E-13
 -1       685 2.09639E+01 2.64563E-02-1.81294E-04 1.27641E+00-6.50709E-14-1.42400E-13
 -1       686 2.07366E+01 1.86966E-01 6.64021E-05 1.16713E+00-6.68252E-14-7.49036E-14
 -1       687 2.05731E+01 2.62605E-01 1.91949E-04 1.02138E+00-1.27379E-13-8.53342E-14
 -1       688 2.04506E+01 2.83362E-01 2.44293E-04 8.64707E-01-1.07687E-15-2.09629E-13
 -1       689 2.03553E+01 2.71958E-01 2.50186E-04 7.12655E-01-2.61097E-13-1.49378E-13
 -1       690 2.02792E+01 2.43914E-01 2.30949E-04 5.73896E-01-1.22650E-13-5.38120E-13
 -1       691 2.02175E+01 2.09088E-01 2.00672E-04 4.52552E-01 1.96748E-14-7.31067E-13
 -1       692 2.01675E+01 1.73354E-01 1.67514E-04 3.49825E-01-6.25364E-14-4.35135E-13
 -1       693 2.01272E+01 1.39957E-01 1.35625E-04 2.65122E-01-1.31593E-14-2.15388E-13
 -1       694 2.00949E+01 1.10465E-01 1.06900E-04 1.96835E-01-1.09099E-13-1.60815E-13
 -1       695 2.00695E+01 8.54135E-02 8.23509E-05 1.42885E-01-1.88355E-13 1.16370E-13
 -1       696 2.00498E+01 6.47522E-02 6.21044E-05 1.01068E-01-3.90938E-14 1.13021E-13
 -1       697 2.00348E+01 4.81199E-02 4.58487E-05 6.92590E-02-2.07949E-14 1.17874E-14
 -1       698 2.00235E+01 3.50140E-02 3.30978E-05 4.55208E-02 1.46986E-13-1.53111E-13
 -1       699 2.00153E+01 2.48898E-02 2.33031E-05 2.81621E-02-7.84901E-14-2.54936E-13
 -1       700 2.00093E+01 1.72169E-02 1.59251E-05 1.57511E-02-5.63479E-14 2.62655E-13
 -1       701 2.00052E+01 1.15086E-02 1.04668E-05 7.10906E-03-2.53264E-13 2.50527E-13
 -1       702 2.00025E+01 7.33384E-03 6.48773E-06 1.28942E-03-7.35197E-14-3.32717E-14
 -1       703 2.00007E+01 4.31819E-03 3.64101E-06-2.44689E-03 1.49869E-13-8.38620E-14
 -1       704 1.99997E+01 2.14062E-03 1.48261E-06-4.65792E-03 1.62009E-13 7.63337E-15
 -1       705 1.99992E+01 5.30359E-04 1.99298E-07-5.75122E-03-2.48173E-14-2.08203E-13
 -1       706 1.99990E+01-7.59002E-04 8.47741E-07-6.00833E-03 5.53258E-14-2.87931E-13
 -1       707 1.99994E+01-1.77732E-03-1.47500E-06-5.76579E-03-2.28258E-13-3.11156E-13
 -1       708 2.00035E+01-2.28644E-03 1.74892E-06-7.71360E-04 1.63082E-13-4.48959E-13
 -1       709 1.99997E+01-1.99718E-03-4.52452E-06 5.67205E-03 2.48557E-13 3.87243E-13
 -1       710 2.00028E+01-2.27187E-03 4.43885E-07-3.70280E-03-3.27683E-14-3.78874E-13
 -1       711 2.00035E+01-2.28701E-03 1.82144E-06 7.93402E-04-1.77338E-13-4.70207E-14
 -1       712 2.00033E+01-2.29341E-03 1.12016E-06-2.30034E-03 8.20916E-14-4.68381E-13
 -1       713 1.61841E+01-3.68616E+00 8.80564E-02 5.90447E+00-6.94226E-13 2.19588E-13
 -1       714 2.00033E+01-2.29580E-03 7.33062E-07 2.29553E-03-2.53464E-13-5.60873E-14
 -1       715 2.00028E+01-2.27680E-03 4.85606E-07 3.70082E-03-8.95077E-14-1.07284E-13
 -1       716 2.00019E+01-2.17455E-03 1.24370E-06 4.86015E-03 9.32184E-14 6.91614E-13
 -1       717 2.08885E+01 5.18028E-01 7.32768E-04-9.94268E-01 3.19205E-13-2.73291E-13
 -1       718 7.02067E+00-3.17095E-01 1.72054E-01 8.54132E-01-5.41104E-13 8.97435E-13
 -1       719 2.16716E+01-5.24176E+00 4.53766E-02-4.91182E+00 5.50577E-13-5.33201E-13
 -1       720 8.14285E+00-3.03881E-01 1.54930E-01 2.01870E+00 2.20554E-13-1.33918E-12
 -1       721 2.05201E+01 1.93509E+00-1.96704E-04-3.12648E-01-4.37344E-13-7.19368E-13
 -1       722 1.28942E+01-2.01305E+00 1.24206E-01-5.34602E+00-5.20445E-13-9.84015E-13
 -1       723 2.83660E+01 8.48011E-01-1.08408E-01 2.04403E+00 4.85910E-13 4.40262E-13
 -1       724 2.17600E+01-6.57940E-01-7.02892E-04-1.34269E+00-1.71026E-14-1.24474E-13
 -1       725 2.13149E+01-1.75400E-01-4.25322E-04-1.39822E+00 1.09938E-13-1.94418E-13
 -1       726 2.05794E+01 1.37718E+00 4.64637E-05 2.42272E-01-3.75802E-13-6.17754E-13
 -1       727 1.91949E+01 2.91609E+00-1.36305E-03-1.09474E-02 4.56064E-13-6.97574E-13
 -1       728 1.20485E+01-1.85967E+00 1.25421E-01 5.13662E+00 4.65055E-13-1.03723E-12
 -1       729 1.91604E+01 2.94860E+00-1.18712E-03 6.75886E-03-8.94992E-14-8.78453E-13
 -1       730 2.76961E+01-2.60149E+00-6.10986E-02-7.65480E-01-2.60528E-13 3.67106E-13
 -1       731 1.92610E+01-4.44762E+00 6.16121E-02 5.63792E+00 4.00027E-13-3.29771E-13
 -1       732 1.93401E+01-4.48455E+00 7.19999E-02-5.62802E+00-7.23973E-13-5.90333E-13
 -1       733 2.77325E+01 3.01283E+00-1.16651E-01 2.55198E+00-5.29167E-13-6.09485E-13
 -1       734 2.76014E+01 3.68582E+00-1.40588E-01-2.33753E+00 8.43048E-13-4.78773E-13
 -1       735 2.74547E+01 5.86133E+00-1.66076E-01 5.82648E-01-1.03918E-12-3.98502E-13
 -1       736 8.31673E+00-1.60916E-01 1.44443E-01-1.89403E+00-1.65317E-13-1.27250E-12
 -1       737 2.43682E+01-5.14040E+00 6.02666E-03-3.42543E+00-5.01562E-13-1.09626E-14
 -1       738 2.80834E+01 1.74859E+00-1.08475E-01-2.38672E+00-8.15875E-13 2.73073E-13
 -1       739 1.01374E+01-9.72353E-01 1.35469E-01-3.98589E+00 1.98496E-13 4.32661E-13
 -1       740 2.67499E+01-4.21223E+00-1.78325E-02 1.09712E+00-1.70999E-13-7.35582E-13
 -1       741 2.64283E+01-4.53351E+00-1.92911E-02-1.73973E+00 2.99762E-13-8.55798E-13
 -1       742 2.80189E+01-9.69960E-01-8.94492E-02-1.86133E+00 1.77348E-13-6.73513E-13
 -1       743 1.96810E+01 2.55593E+00-9.76469E-04-5.92773E-02-2.20589E-13-8.68153E-13
 -1       744 1.85869E+01 3.34951E+00-1.00179E-03 6.61219E-03 1.36436E-13-9.14194E-13
 -1       745 1.35655E+01-2.11091E+00 1.09358E-01 5.20675E+00-7.20861E-13 4.55410E-13
 -1       746 1.00105E+01 3.02056E-01 1.06128E-01-1.55104E+00 6.37871E-14 4.75977E-13
 -1       747 2.00019E+01-2.17426E-03 8.26186E-07-4.84810E-03 3.98277E-14-5.40526E-13
 -1       748 2.00008E+01-2.06461E-03-2.09830E-07-5.50557E-03-9.83818E-14-6.13725E-13
 -1       749 1.69037E+01-2.83597E+00 7.66406E-02 5.19939E+00 5.45973E-13-5.65215E-13
 -1       750 2.00011E+01-1.56999E-03-2.37424E-07 5.51535E-03-2.84993E-14 7.41719E-13
 -1       751 2.70303E+01 2.63482E+00-1.13881E-01 2.38263E+00 6.26714E-13 4.40186E-13
 -1       752 2.62782E+01-4.05919E+00 2.41922E-03 9.40360E-01 6.30138E-15 2.73961E-13
 -1       753 1.87826E+01 3.21626E+00-1.14536E-03 2.50050E-02 3.08475E-14-8.77204E-13
 -1       754 2.66670E+01 5.34350E+00-1.48975E-01 7.80849E-01 9.82818E-13 1.64270E-13
 -1       755 2.24947E+01-4.81506E+00 9.19760E-03 4.10309E+00 3.95841E-13-3.76378E-14
 -1       756 2.00547E+01 1.74400E+00 2.15398E-04-3.47010E-01 4.69685E-13-4.22781E-13
 -1       757 1.17004E+01-2.23986E-01 8.83725E-02 3.16966E+00 3.40070E-13-9.97643E-13
 -1       758 2.00419E+01 7.54368E-01 1.00758E-04 1.37332E+00-8.32876E-14-4.63706E-13
 -1       759 2.01146E+01 2.71481E-01 6.91282E-05 1.74370E+00-2.89103E-14-4.20893E-13
 -1       760 2.03661E+01-3.64337E-01-8.53659E-05 2.05371E+00 6.48700E-14-3.95619E-13
 -1       761 2.09287E+01-1.22335E+00 6.00502E-05 2.25859E+00 1.50963E-13-3.06429E-13
 -1       762 2.19779E+01-2.29581E+00 5.78972E-03 2.23670E+00 2.15013E-13-1.77397E-13
 -1       763 2.36310E+01-3.33273E+00 4.93180E-03 1.71086E+00 1.94903E-13 4.36691E-14
 -1       764 2.67713E+01-2.66336E+00-2.95397E-02 9.20843E-01 1.40116E-13-7.14314E-13
 -1       765 2.47482E+01-3.43417E+00 5.66640E-03-7.06245E-01 3.56591E-13-5.67544E-13
 -1       766 2.28529E+01-2.80608E+00 4.27812E-03-1.67100E+00 2.80532E-13-6.39228E-13
 -1       767 2.14833E+01-1.78406E+00 2.09846E-03-1.99940E+00 2.39772E-13-4.66898E-13
 -1       768 2.06414E+01-8.85768E-01 3.34240E-04-1.98383E+00 2.05142E-13-5.29904E-13
 -1       769 2.01845E+01-2.43554E-01 7.33381E-05-1.82167E+00-3.54152E-14-3.98559E-13
 -1       770 1.99665E+01 1.60826E-01 1.07038E-04-1.60918E+00-1.30425E-13-4.37499E-13
 -1       771 1.98841E+01 3.83714E-01 1.32439E-04-1.38778E+00-6.31452E-14-3.66387E-13
 -1       772 1.98712E+01 4.82063E-01 1.29218E-04-1.17481E+00 7.80106E-15-4.79988E-13
 -1       773 1.98892E+01 5.01524E-01 1.12699E-04-9.77985E-01 3.51832E-14-5.27547E-13
 -1       774 1.99171E+01 4.75013E-01 9.07432E-05-8.00956E-01-6.08070E-14-4.88079E-13
 -1       775 1.99447E+01 4.24701E-01 7.05343E-05-6.45369E-01-4.54861E-14-4.89271E-13
 -1       776 1.99679E+01 3.64789E-01 5.53538E-05-5.11555E-01 2.24257E-13-4.42908E-13
 -1       777 1.99854E+01 3.03945E-01 4.44519E-05-3.98812E-01 2.20592E-13-3.45378E-13
 -1       778 1.99977E+01 2.47087E-01 3.59314E-05-3.05627E-01 2.00253E-13-3.34327E-13
 -1       779 2.00055E+01 1.96637E-01 2.80549E-05-2.29987E-01 1.91091E-13 1.07030E-13
 -1       780 2.00100E+01 1.53470E-01 2.12195E-05-1.69662E-01 7.29408E-14 1.73240E-13
 -1       781 2.00122E+01 1.17560E-01 1.57538E-05-1.22381E-01 1.36643E-13 1.17923E-13
 -1       782 2.00127E+01 8.83830E-02 1.14956E-05-8.59646E-02 5.73333E-14 1.01828E-13
 -1       783 2.00121E+01 6.51641E-02 8.22659E-06-5.84071E-02-6.63375E-14 2.07039E-14
 -1       784 2.00110E+01 4.70385E-02 5.74968E-06-3.79373E-02 2.87948E-14 8.85792E-14
 -1       785 2.00096E+01 3.31461E-02 3.90004E-06-2.30362E-02-6.80321E-15 1.04472E-13
 -1       786 2.00080E+01 2.26862E-02 2.51901E-06-1.24351E-02 5.11907E-14 9.53993E-15
 -1       787 2.00065E+01 1.49419E-02 1.50391E-06-5.09977E-03 1.36631E-14 2.03821E-13
 -1       788 2.00051E+01 9.28809E-03 6.42928E-07-2.07254E-04 4.82227E-14 3.41774E-13
 -1       789 2.00038E+01 5.18582E-03 1.23176E-07 2.88210E-03 8.33052E-15 6.40233E-13
 -1       790 2.00027E+01 2.17764E-03 1.69368E-06 4.63291E-03 2.69995E-13 9.30657E-13
 -1       791 2.00018E+01 1.31826E-04 4.84704E-07 5.36815E-03-1.42094E-13 6.90546E-13
 -1       792 2.23344E+01-1.97641E+00-1.10972E-03-1.60778E+00-1.62843E-13-1.26484E-13
 -1       793 2.63857E+01-1.44220E+00-5.69528E-02 1.76328E+00 1.08098E-13 4.17095E-13
 -1       794 2.62221E+01-1.44782E+00-7.11229E-02-1.78033E+00 1.06016E-13-6.44713E-13
 -1       795 2.50791E+01-2.81231E+00-5.45561E-03-3.61181E-01-8.06356E-14-4.65319E-13
 -1       796 2.35186E+01-2.70093E+00-4.20849E-03 8.34626E-01-1.82681E-13-3.81814E-13
 -1       797 2.21936E+01-1.91707E+00-1.28751E-03 1.46343E+00-7.05485E-14-2.65528E-13
 -1       798 2.12650E+01-1.10209E+00-3.92285E-04 1.68329E+00-9.40493E-14-1.63555E-13
 -1       799 2.06848E+01-4.55488E-01-2.95582E-04 1.67301E+00-2.66683E-13-6.43544E-14
 -1       800 2.03542E+01-1.72440E-02-1.11033E-05 1.55030E+00-1.69477E-13-1.97385E-13
 -1       801 2.01796E+01 2.44235E-01 8.05490E-05 1.37863E+00-1.78259E-13-1.21985E-13
 -1       802 2.00950E+01 3.76507E-01 9.37236E-05 1.19088E+00-9.92491E-16-1.39258E-13
 -1       803 2.00581E+01 4.22870E-01 9.82805E-05 1.00504E+00-5.35774E-14-1.42407E-13
 -1       804 2.00442E+01 4.16795E-01 9.13434E-05 8.31095E-01-2.01197E-13 1.70497E-14
 -1       805 2.00398E+01 3.81783E-01 7.91848E-05 6.74397E-01-7.02953E-14 2.12218E-14
 -1       806 2.00385E+01 3.33272E-01 6.59396E-05 5.37416E-01 9.55469E-14-1.75306E-13
 -1       807 2.00372E+01 2.80873E-01 5.41093E-05 4.20702E-01-1.21107E-13-2.50651E-13
 -1       808 2.00352E+01 2.30239E-01 4.40297E-05 3.23495E-01-2.09195E-13-1.60123E-13
 -1       809 2.00322E+01 1.84397E-01 3.47332E-05 2.44171E-01-2.07759E-13-1.25541E-13
 -1       810 2.00286E+01 1.44658E-01 2.67512E-05 1.80649E-01-2.00892E-13-1.41261E-13
 -1       811 2.00247E+01 1.11293E-01 2.01808E-05 1.30695E-01-2.32169E-13-1.05185E-13
 -1       812 2.00208E+01 8.39945E-02 1.49109E-05 9.21065E-02 9.44415E-15-1.56206E-13
 -1       813 2.00172E+01 6.21510E-02 1.07913E-05 6.28317E-02 6.73968E-15-1.88350E-13
 -1       814 2.00139E+01 4.50226E-02 7.63244E-06 4.10348E-02 8.64981E-15 7.85480E-14
 -1       815 2.00109E+01 3.18452E-02 5.24683E-06 2.51301E-02-1.96853E-13 1.15350E-13
 -1       816 2.00085E+01 2.18927E-02 3.46626E-06 1.37862E-02-1.39320E-13-1.48727E-13
 -1       817 2.00064E+01 1.45070E-02 2.14166E-06 5.91210E-03-2.95364E-14-2.63038E-13
 -1       818 2.00047E+01 9.10797E-03 1.20883E-06 6.35148E-04 2.60316E-14-3.65258E-13
 -1       819 2.00033E+01 5.19168E-03 9.03370E-07-2.72172E-03 7.58333E-14-3.41874E-13
 -1       820 2.00022E+01 2.33484E-03-4.32098E-08-4.65599E-03 2.62411E-13-3.58944E-13
 -1       821 2.00013E+01 1.77862E-04 6.46460E-07-5.54766E-03 1.53420E-13-5.82439E-13
 -1       822 2.00010E+01-9.50729E-04-3.63605E-06-5.65063E-03-5.83043E-14-5.63353E-13
 -1       823 2.40955E+01-4.65273E+00 3.96866E-03-2.70350E+00 4.20074E-13-7.54383E-13
 -1       824 1.86091E+01 2.81584E+00-3.02143E-04-1.75007E-01 2.62418E-13-7.44785E-13
 -1       825 2.00049E+01 8.82227E-04 1.34547E-06 9.36158E-06 9.30454E-14-2.59383E-13
 -1       826 2.00034E+01 1.00513E-04 4.25918E-06 4.17584E-03-2.07732E-14 4.34716E-13
 -1       827 2.00048E+01 7.70520E-04 8.18897E-07 1.44470E-03-5.53770E-14 1.40255E-13
 -1       828 2.05223E+01 1.96316E-01-6.54402E-05-1.56293E+00 1.31798E-13-3.19620E-13
 -1       829 2.13789E+01-1.09429E+00 9.34651E-04-1.83057E+00-1.14471E-13-2.31395E-13
 -1       830 1.97501E+01-3.51828E+00 1.95076E-02 4.35749E+00-6.07766E-13 1.95729E-14
 -1       831 2.00043E+01 4.79784E-04-1.83186E-07 2.85942E-03-3.31138E-14-2.24450E-13
 -1       832 2.52120E+01-2.82003E+00 4.42291E-03 2.13361E-01-1.09356E-13 2.20791E-13
 -1       833 2.35890E+01-2.71250E+00-8.35664E-03-9.69574E-01-1.99052E-13 2.70461E-14
 -1       834 2.22676E+01-4.18542E+00 2.10074E-02-3.72170E+00-5.35783E-13-1.75610E-13
 -1       835 2.00517E+01 1.17701E+00 1.58813E-04 9.49036E-01-1.47419E-13-5.23312E-13
 -1       836 1.24620E+01-3.33510E-02 7.54108E-02-3.06556E+00-2.43184E-13-8.92456E-13
 -1       837 2.08198E+01-3.67322E-01 2.60387E-04-1.77570E+00 7.04742E-15-3.04270E-13
 -1       838 1.03451E+01-3.26279E-01 1.10522E-01 3.05606E+00-6.10123E-13 5.21784E-13
 -1       839 2.55696E+01-3.78648E+00-1.12308E-02-7.82556E-01-2.67597E-13 2.34873E-13
 -1       840 1.97946E+01-3.97804E+00 4.34395E-02-4.76818E+00 6.34891E-13-3.24578E-13
 -1       841 2.04651E+01 1.26909E+00 1.59122E-04-4.70911E-01 4.72741E-13-3.27299E-13
 -1       842 1.05732E+01 6.52311E-01 8.05311E-02 2.30567E-01 5.65493E-14-1.05786E-12
 -1       843 2.43256E+01-4.07037E+00 1.31785E-02 1.86042E+00-2.49607E-13-4.48450E-13
 -1       844 1.73987E+01-2.56275E+00 3.67635E-02-4.84462E+00-5.55351E-13-6.95770E-13
 -1       845 1.48680E+01-1.71031E+00 6.49204E-02-4.64412E+00 3.67303E-13-1.20189E-13
 -1       846 1.84786E+01 2.90610E+00-2.90089E-04-1.67688E-02 1.68311E-13-8.10276E-13
 -1       847 1.94161E+01 2.24971E+00-6.84577E-04 3.45432E-01-1.10280E-13-7.74591E-13
 -1       848 1.76883E+01-2.49665E+00 4.43368E-02 4.52951E+00-5.98088E-13 8.72115E-14
 -1       849 1.11127E+01 6.58991E-01 6.45471E-02 6.73121E-01-7.93762E-14 3.04258E-13
 -1       850 2.00034E+01 7.15790E-05-1.73630E-06-4.17737E-03-1.09742E-14-4.46818E-13
 -1       851 1.32283E+01-2.63157E-01 5.59847E-02-3.23068E+00 3.25726E-13 1.79219E-13
 -1       852 1.57768E+01-6.93693E-01 3.02554E-02-3.66018E+00-2.84912E-13-6.56778E-13
 -1       853 1.89526E+01 2.57613E+00 2.49470E-04-2.88000E-01 3.47857E-13-6.85045E-13
 -1       854 2.00043E+01 4.71454E-04-9.28949E-07-2.87102E-03-1.15673E-13-6.18004E-14
 -1       855 2.04853E+01 8.61394E-01-3.20952E-05-9.37646E-01 3.50973E-13-3.32280E-13
 -1       856 2.00048E+01 7.71797E-04 4.23459E-07-1.44525E-03 6.02964E-15-4.44874E-13
 -1       857 1.99130E+01-3.74698E+00 3.99665E-02 4.62781E+00 4.58454E-13-2.56947E-13
 -1       858 2.04752E+01 5.56381E-01-1.29673E-04-1.27786E+00 2.31949E-13-3.34367E-13
 -1       859 1.89170E+01 2.60803E+00-4.04810E-04 2.76116E-01-2.08908E-15-8.01019E-13
 -1       860 2.00486E+01 1.59551E+00-3.08745E-04 5.19232E-01-2.21860E-13-6.29847E-13
 -1       861 1.94631E+01 2.20574E+00 3.98095E-04-3.44127E-01 4.37135E-13-5.42904E-13
 -1       862 2.00028E+01 1.22442E-04 4.78704E-07 4.83003E-03-8.51184E-14 8.15927E-13
 -1       863 1.51628E+01-1.17718E+00 5.05117E-02 4.20954E+00 4.60659E-13-7.36967E-13
 -1       864 1.91715E+01 3.30674E-01 5.56129E-05 2.01923E+00 7.59856E-14-4.83166E-13
 -1       865 1.92650E+01-4.32136E-01-5.05862E-04 2.54382E+00 1.65336E-13-4.09401E-13
 -1       866 1.97323E+01-1.51020E+00 4.48337E-03 3.08458E+00 2.89864E-13-3.27567E-13
 -1       867 1.84540E+01-2.42219E+00 2.63978E-02-4.13012E+00 4.43579E-13-4.48354E-13
 -1       868 2.03836E+01-2.30876E+00 1.05618E-02-3.06779E+00 2.76192E-13-2.85283E-13
 -1       869 1.94997E+01-1.09790E+00 5.27237E-03-2.65874E+00 1.77880E-13-4.13750E-13
 -1       870 1.91436E+01-2.76369E-01 2.97158E-04-2.20809E+00 2.61138E-13-4.75407E-13
 -1       871 1.90701E+01 2.32909E-01 2.27151E-05-1.81549E+00-2.05322E-14-2.37319E-13
 -1       872 1.91348E+01 5.14838E-01 2.37469E-05-1.49359E+00-1.71861E-13-2.36830E-14
 -1       873 1.92574E+01 6.43353E-01 4.50142E-05-1.22899E+00-1.95705E-13-5.52876E-14
 -1       874 1.93947E+01 6.73497E-01 4.88363E-05-1.00842E+00-6.11828E-14-1.07428E-13
 -1       875 1.95250E+01 6.44594E-01 3.48482E-05-8.22005E-01 3.51569E-14-3.06386E-13
 -1       876 1.96390E+01 5.83358E-01 1.50019E-05-6.63525E-01-7.79922E-14-1.68544E-13
 -1       877 1.97334E+01 5.07448E-01 4.67532E-06-5.29166E-01 9.46475E-14-4.09576E-13
 -1       878 1.98089E+01 4.28177E-01 4.09708E-06-4.16316E-01 2.20468E-13-4.12570E-13
 -1       879 1.98673E+01 3.52454E-01 7.23747E-06-3.22699E-01 1.58623E-13-2.32542E-13
 -1       880 1.99113E+01 2.84016E-01 6.80684E-06-2.46083E-01 3.11127E-13-2.97612E-13
 -1       881 1.99436E+01 2.24462E-01 4.46502E-06-1.84316E-01 2.58665E-13-2.50907E-13
 -1       882 1.99668E+01 1.74144E-01 2.74561E-06-1.35324E-01 9.74558E-15-5.92059E-14
 -1       883 1.99829E+01 1.32669E-01 1.74184E-06-9.71019E-02 1.05462E-13-9.58071E-14
 -1       884 1.99936E+01 9.92110E-02 1.13926E-06-6.77768E-02-1.35955E-13-2.33112E-14
 -1       885 2.00004E+01 7.27445E-02 7.48032E-07-4.56659E-02-4.09703E-14-2.36403E-14
 -1       886 2.00044E+01 5.21910E-02 4.82933E-07-2.93018E-02 3.70094E-14-7.90209E-15
 -1       887 2.00064E+01 3.65112E-02 2.92571E-07-1.74380E-02 3.70844E-14 1.76918E-13
 -1       888 2.00070E+01 2.47536E-02 1.01963E-07-9.03886E-03 1.14913E-13 4.12611E-13
 -1       889 2.00068E+01 1.60709E-02-1.15854E-07-3.26567E-03 2.82142E-14 4.38765E-13
 -1       890 2.00060E+01 9.73678E-03 3.69259E-07 5.40204E-04 2.84615E-13 3.37341E-13
 -1       891 2.00050E+01 5.05670E-03-1.20311E-05 2.91467E-03 3.13909E-13 7.14857E-13
 -1       892 2.04463E+01-1.50370E+00 2.96194E-03 2.41979E+00-2.11230E-13-7.29211E-14
 -1       893 1.98179E+01-6.14515E-01 3.75886E-04 2.14547E+00-1.23000E-13-1.30454E-13
 -1       894 1.95472E+01-2.71866E-02 3.79781E-04 1.83907E+00-1.07841E-13-2.25753E-13
 -1       895 1.94709E+01 3.25454E-01 2.07980E-04 1.55352E+00-1.83791E-13-3.11329E-13
 -1       896 1.94959E+01 5.09060E-01 7.24329E-05 1.30017E+00-1.82610E-13-3.11321E-13
 -1       897 1.95658E+01 5.79356E-01 4.67844E-05 1.07872E+00-6.05370E-14 6.29150E-14
 -1       898 1.96488E+01 5.78855E-01 2.91713E-05 8.86041E-01-2.21101E-13 1.03099E-13
 -1       899 1.97289E+01 5.37614E-01 1.75327E-05 7.19200E-01-1.62757E-13-4.69869E-14
 -1       900 1.97989E+01 4.75809E-01 1.16601E-05 5.76020E-01 1.45476E-13-1.10849E-13
 -1       901 1.98564E+01 4.06449E-01 8.08789E-06 4.54664E-01-6.06362E-14 1.23566E-13
 -1       902 1.99015E+01 3.37563E-01 7.04270E-06 3.53363E-01-6.68547E-14 1.05906E-13
 -1       903 1.99357E+01 2.73845E-01 4.86543E-06 2.70159E-01-1.43426E-13-2.56408E-13
 -1       904 1.99608E+01 2.17609E-01 3.21278E-06 2.02885E-01-2.26226E-13-1.76928E-13
 -1       905 1.99786E+01 1.69615E-01 2.04669E-06 1.49372E-01-2.25346E-13-2.30065E-13
 -1       906 1.99908E+01 1.29751E-01 1.27094E-06 1.07513E-01-1.59310E-13-1.83065E-13
 -1       907 1.99987E+01 9.73991E-02 8.15164E-07 7.53232E-02-1.54933E-14-3.78361E-14
 -1       908 2.00035E+01 7.16809E-02 5.48864E-07 5.09972E-02-1.65412E-13 1.65293E-13
 -1       909 2.00061E+01 5.16256E-02 3.84141E-07 3.29518E-02-1.17922E-13 2.39504E-13
 -1       910 2.00072E+01 3.62708E-02 2.51661E-07 1.98354E-02-1.87914E-14 1.14503E-13
 -1       911 2.00073E+01 2.47218E-02 1.23581E-07 1.05229E-02 2.49070E-13-4.73433E-14
 -1       912 2.00067E+01 1.61786E-02-1.92675E-07 4.09765E-03 2.85351E-13-4.44619E-13
 -1       913 2.00058E+01 9.92980E-03-7.35452E-07-1.71236E-04 8.24361E-14-6.84313E-13
 -1       914 2.00047E+01 5.35110E-03-8.38171E-06-2.85367E-03 1.60675E-13-7.17458E-13
 -1       915 2.00036E+01 2.06045E-03 4.66858E-06-4.35142E-03 1.64201E-13-7.11759E-13
 -1       916 1.28333E+01 6.65342E-01 4.00806E-02 1.68502E+00 1.91546E-13-8.74951E-13
 -1       917 1.97725E+01 2.01266E-01-9.70451E-05-1.87711E+00 5.98108E-14-3.30229E-13
 -1       918 2.00023E+01-5.33598E-04 1.04175E-06-5.02620E-03 7.79003E-14-5.18913E-13
 -1       919 2.21079E+01-3.69207E+00 1.16279E-02-3.09202E+00 4.80827E-13-5.93459E-13
 -1       920 2.00271E+01-5.36221E-01-5.33746E-04-2.26406E+00-8.50460E-14-3.44604E-13
 -1       921 2.00061E+01 4.54637E-03 2.67812E-08 5.69670E-04 1.03575E-13-2.34452E-13
 -1       922 2.34688E+01-3.69997E+00 1.09631E-02-2.25475E+00-3.64145E-13-3.64929E-14
 -1       923 2.03412E+01-2.70038E+00 4.25358E-03-3.59781E+00-4.36914E-13-3.70732E-13
 -1       924 2.06706E+01-1.51289E+00 6.79053E-03-2.59053E+00-2.16179E-13-3.42710E-13
 -1       925 2.16366E+01-2.65721E+00 1.12149E-02 2.49375E+00-2.42987E-13-1.72413E-13
 -1       926 1.93806E+01 1.34608E+00 3.61959E-04 1.10919E+00-4.69854E-14-6.28873E-13
 -1       927 1.85871E+01 2.83369E+00-5.57581E-04 1.46220E-01 6.48016E-14-8.31830E-13
 -1       928 1.43572E+01-8.99334E-01 5.50655E-02 3.93570E+00-4.61609E-13 3.80165E-13
 -1       929 1.92494E+01 8.85733E-01 3.91461E-04 1.55042E+00-3.08329E-14-5.46572E-13
 -1       930 1.32363E+01 9.54892E-01 3.50867E-02-1.04510E+00-2.07487E-14-8.32364E-13
 -1       931 2.00506E+01 1.25953E+00-4.37392E-05-8.30392E-01 3.74192E-13-3.85466E-13
 -1       932 1.34902E+01 3.57189E-01 3.19854E-02 2.29105E+00-1.82979E-13 2.28508E-13
 -1       933 1.51648E+01 5.89052E-01 1.18235E-02-2.18334E+00-1.14198E-13-7.06843E-13
 -1       934 1.25751E+01 6.60345E-01 3.92379E-02-1.45866E+00 9.90763E-14 2.25257E-13
 -1       935 1.62833E+01-1.09381E+00 3.36153E-02-3.74716E+00 3.76260E-13-3.40468E-13
 -1       936 2.08799E+01-3.00353E+00 1.46301E-02 3.55695E+00 3.33546E-13-2.32559E-13
 -1       937 1.49124E+01 3.86503E-02 1.56422E-02 2.93148E+00 2.88497E-13-7.35468E-13
 -1       938 2.00038E+01 2.35484E-03 4.72361E-06 4.08775E-03-9.75150E-14 8.09914E-13
 -1       939 1.93680E+01 1.78925E+00 2.13826E-04 7.30415E-01-8.45725E-14-6.88100E-13
 -1       940 2.00060E+01 4.53507E-03-5.83463E-07-6.05573E-04 8.48677E-14-4.23972E-13
 -1       941 1.87935E+01 2.16241E+00-1.07414E-04 5.67450E-01-1.13980E-14-7.09932E-13
 -1       942 1.97267E+01 7.46325E-01 4.39275E-04-1.47266E+00 1.71868E-13-3.69583E-13
 -1       943 2.00058E+01 4.07866E-03-1.90547E-06 1.78654E-03 8.88685E-14-1.89986E-13
 -1       944 1.84246E+01-2.07008E+00 4.96367E-02 4.13794E+00 4.44213E-13-3.98455E-13
 -1       945 1.84723E+01-1.22449E+00 1.44959E-02-3.39984E+00-3.11319E-13-5.05390E-13
 -1       946 2.00051E+01 3.20558E-03-2.13488E-06-3.00657E-03 9.00720E-14-3.59853E-13
 -1       947 1.83091E+01 2.48473E+00-2.57189E-04-1.84481E-01 1.68343E-13-7.09908E-13
 -1       948 1.85949E+01 2.29907E+00-3.86396E-04-4.63733E-01 2.55145E-13-6.39644E-13
 -1       949 2.00046E+01 2.48906E-03 4.89421E-06 3.53001E-03-1.27564E-13-4.74705E-14
 -1       950 1.78523E+01 5.05235E-01-3.75099E-04 2.16602E+00 1.37902E-13-5.25647E-13
 -1       951 1.82402E+01 1.05512E+00 2.41552E-05 1.58785E+00 7.13932E-14-5.38208E-13
 -1       952 1.75399E+01-2.60587E-01 8.21675E-03 2.93720E+00 2.64921E-13-5.41264E-13
 -1       953 1.92921E+01 1.70704E+00-6.11808E-04-8.08875E-01 3.34390E-13-5.03633E-13
 -1       954 1.76105E+01-1.21643E-01 3.13071E-03-2.50347E+00 2.47811E-13-1.51521E-13
 -1       955 1.78997E+01 4.08258E-01-3.54375E-05-1.90221E+00 2.28031E-13-2.09475E-13
 -1       956 1.82273E+01 6.97447E-01-1.71750E-04-1.47698E+00 6.46429E-14-9.31238E-14
 -1       957 1.85478E+01 8.27301E-01-2.88970E-05-1.16873E+00-1.39925E-13 4.50425E-14
 -1       958 1.88372E+01 8.53851E-01 5.99528E-06-9.36597E-01-1.17829E-13 1.80890E-13
 -1       959 1.90869E+01 8.17361E-01 1.15390E-05-7.54634E-01-1.51390E-13 2.69534E-13
 -1       960 1.92964E+01 7.44338E-01-1.76822E-05-6.07008E-01 3.51948E-14 1.77581E-13
 -1       961 1.94679E+01 6.53470E-01-2.89422E-05-4.85129E-01-4.64231E-14 2.10317E-13
 -1       962 1.96055E+01 5.57050E-01-2.43417E-05-3.83977E-01 1.89177E-13 1.84696E-13
 -1       963 1.97137E+01 4.63455E-01-7.37882E-06-3.00264E-01 3.79891E-14-9.02652E-14
 -1       964 1.97971E+01 3.77642E-01-2.02935E-06-2.31477E-01 1.57994E-13-3.35623E-13
 -1       965 1.98604E+01 3.01846E-01-5.91131E-06-1.75524E-01 2.60671E-13-5.99149E-13
 -1       966 1.99075E+01 2.36858E-01-6.63234E-06-1.30712E-01 2.69875E-13-8.28480E-13
 -1       967 1.99417E+01 1.82570E-01-5.81721E-06-9.53826E-02 1.35897E-13-5.74547E-13
 -1       968 1.99660E+01 1.38223E-01-4.60825E-06-6.79567E-02 2.78412E-14-4.39404E-13
 -1       969 1.99828E+01 1.02713E-01-3.47535E-06-4.70116E-02-6.95515E-14-2.92044E-13
 -1       970 1.99938E+01 7.48026E-02-2.52867E-06-3.12930E-02 2.28680E-14-1.31446E-13
 -1       971 2.00007E+01 5.32546E-02-1.75255E-06-1.97190E-02 1.23215E-13-2.31643E-13
 -1       972 2.00046E+01 3.69045E-02-1.13443E-06-1.13778E-02 6.68609E-14-1.04767E-13
 -1       973 2.00065E+01 2.47037E-02-1.59860E-07-5.51147E-03 9.86786E-14-1.77259E-13
 -1       974 2.00069E+01 1.57160E-02-4.03309E-07-1.52845E-03 1.84856E-14 2.34294E-13
 -1       975 2.00065E+01 9.15416E-03 3.82949E-06 1.10806E-03 2.22786E-13-1.55146E-13
 -1       976 1.85731E+01 4.66301E-01-1.64178E-05 1.65464E+00-2.03711E-13 1.31368E-13
 -1       977 1.84777E+01-6.16173E-01 1.91143E-03 2.66841E+00-2.08646E-13 1.74327E-13
 -1       978 1.87768E+01 6.73120E-01-4.32943E-05 1.32058E+00-1.74168E-13 1.46003E-13
 -1       979 1.89913E+01 7.51944E-01-3.24961E-06 1.06438E+00-1.95264E-13 6.26200E-15
 -1       980 1.91921E+01 7.50312E-01-5.06739E-05 8.60228E-01-9.28410E-14-1.68541E-13
 -1       981 1.93690E+01 7.00900E-01-5.66478E-05 6.93352E-01-1.78652E-13-2.52701E-13
 -1       982 1.95187E+01 6.25764E-01-4.52687E-05 5.55035E-01-1.08839E-13-1.79433E-13
 -1       983 1.96410E+01 5.40188E-01-1.65033E-05 4.39851E-01-1.14166E-13 1.75440E-13
 -1       984 1.97385E+01 4.53559E-01-7.64485E-06 3.44262E-01 8.46018E-15-1.27231E-14
 -1       985 1.98145E+01 3.72002E-01-1.62871E-05 2.65708E-01-1.01807E-13-1.24561E-13
 -1       986 1.98724E+01 2.98981E-01-1.62606E-05 2.01864E-01-3.33999E-13 2.17802E-13
 -1       987 1.99157E+01 2.35741E-01-1.37465E-05 1.50652E-01-2.45698E-13 3.06684E-14
 -1       988 1.99472E+01 1.82485E-01-1.09125E-05 1.10211E-01-1.45467E-13-6.91965E-14
 -1       989 1.99695E+01 1.38702E-01-8.17711E-06 7.87708E-02-1.45235E-13-1.64240E-13
 -1       990 1.99849E+01 1.03461E-01-5.82978E-06 5.47220E-02-2.43808E-13 2.13370E-14
 -1       991 1.99950E+01 7.56405E-02-3.96525E-06 3.66404E-02-2.83336E-13-1.78947E-14
 -1       992 2.00013E+01 5.40792E-02-2.54416E-06 2.32959E-02 9.06533E-14-1.63359E-14
 -1       993 2.00049E+01 3.76613E-02-1.53089E-06 1.36516E-02 2.04985E-13-2.28107E-13
 -1       994 2.00065E+01 2.53716E-02-1.07326E-06 6.85275E-03 4.99162E-13-1.54533E-13
 -1       995 2.00069E+01 1.63221E-02 1.97684E-06 2.21672E-03 2.95615E-13-1.49238E-13
 -1       996 2.00064E+01 9.67761E-03 8.81986E-06-8.54163E-04 1.64051E-13-5.08521E-13
 -1       997 1.82167E+01-1.18653E+00 1.13923E-02-3.23128E+00 2.40900E-13-4.09425E-13
 -1       998 1.88483E+01 8.74808E-01-1.03724E-03-1.62880E+00 8.47696E-14-4.38389E-13
 -1       999 1.87113E+01 2.79495E-01-1.28214E-03-2.17442E+00 1.54012E-14-4.60262E-13
 -1      1000 1.86800E+01 1.74793E+00 7.79783E-04 8.99620E-01 6.44209E-15-6.62496E-13
 -1      1001 1.85077E+01-3.55214E-01 8.46619E-04-2.71445E+00-1.09345E-13-4.84580E-13
 -1      1002 1.88880E+01-1.71452E+00 1.09527E-02 3.37420E+00-1.86609E-13 2.38514E-13
 -1      1003 1.44748E+01 1.18536E+00 1.29557E-02 5.98555E-01 1.07154E-13-7.42855E-13
 -1      1004 1.82963E+01 2.49605E+00 7.84465E-06 1.33500E-01 9.07085E-14-7.43994E-13
 -1      1005 1.84736E+01 2.37529E+00 1.73223E-04 3.70381E-01 4.47074E-14-7.75363E-13
 -1      1006 1.70457E+01-1.02707E+00 3.35260E-02 3.48043E+00-2.72841E-13 1.85135E-13
 -1      1007 1.98989E+01 1.01495E+00 1.54338E-04-1.15925E+00 2.84518E-13-3.85608E-13
 -1      1008 2.00058E+01 4.03976E-03 8.54859E-07-1.77655E-03-6.57026E-14-1.15639E-13
 -1      1009 1.84316E+01 6.48771E-02-1.53059E-04 2.09914E+00-5.38675E-14 1.13813E-13
 -1      1010 1.84679E+01 1.41524E+00-3.48315E-04 1.21735E+00 5.15971E-14-6.21239E-13
 -1      1011 1.58391E+01 5.45965E-02 7.86185E-03 2.61984E+00-1.82935E-13 1.36321E-13
 -1      1012 1.51786E+01 1.28047E+00 7.15774E-03-6.95054E-01-7.42474E-16-6.83582E-13
 -1      1013 1.32766E+01 9.55732E-01 2.44535E-02 4.31020E-01-1.20371E-13 1.33489E-13
 -1      1014 1.50266E+01 1.68288E-01 2.05284E-02-2.56036E+00 3.42590E-13-7.49728E-14
 -1      1015 2.00069E+01 9.27105E-03-2.86567E-06 2.76031E-05 2.29120E-13-1.91869E-13
 -1      1016 2.00068E+01 8.92941E-03-6.55282E-06 6.18227E-04 2.76554E-13-1.11694E-13
 -1      1017 1.91667E+01 1.15974E+00 5.82197E-04-1.31231E+00 1.55894E-13-4.41793E-13
 -1      1018 1.69295E+01 5.30937E-02 4.59292E-03-2.67637E+00-1.52416E-13-5.53590E-13
 -1      1019 1.79121E+01 2.18298E+00-1.99737E-04-3.75564E-02 1.57187E-13-6.75090E-13
 -1      1020 1.55118E+01 9.12397E-01 6.17791E-03 1.70680E+00 1.84115E-13-6.92548E-13
 -1      1021 2.00069E+01 1.16258E-02-6.83559E-06-3.00460E-04 1.91201E-13-2.73818E-13
 -1      1022 1.81066E+01 2.06470E+00 7.83839E-05-5.09157E-01 1.67814E-13-6.19588E-13
 -1      1023 1.70571E+01 1.26169E+00-2.10668E-04 1.33579E+00 1.05588E-13-6.25171E-13
 -1      1024 1.87000E+01 9.22560E-01-2.51295E-04 7.32728E-01 7.08858E-14-1.36362E-13
 -1      1025 1.64560E+01 7.12742E-01 3.69061E-03-1.69454E+00 2.45722E-13-1.57752E-13
 -1      1026 1.71858E+01 9.32102E-01 5.87239E-04-1.24396E+00 2.43233E-13-2.16545E-13
 -1      1027 1.77768E+01 1.02342E+00-2.47533E-04-9.41114E-01 5.47290E-14-1.92645E-13
 -1      1028 1.82530E+01 1.03046E+00 5.01937E-05-7.32234E-01-6.61824E-14-1.19389E-13
 -1      1029 1.86367E+01 9.79146E-01-7.91927E-05-5.81885E-01-3.04684E-14 4.23661E-14
 -1      1030 1.89458E+01 8.94690E-01-1.87096E-04-4.64449E-01-1.05156E-13 1.06105E-13
 -1      1031 1.91964E+01 7.90021E-01-1.25929E-04-3.71174E-01-1.21942E-13 5.69033E-14
 -1      1032 1.93957E+01 6.79461E-01-1.00396E-04-2.94802E-01-1.44420E-13 8.63593E-14
 -1      1033 1.95529E+01 5.70967E-01 8.72549E-06-2.32437E-01 6.16612E-14-1.58940E-13
 -1      1034 1.96754E+01 4.69683E-01-3.91735E-05-1.81036E-01-2.13244E-14-1.85165E-13
 -1      1035 1.97695E+01 3.79471E-01-6.28921E-05-1.38588E-01-2.34898E-14-4.10332E-13
 -1      1036 1.98411E+01 3.00803E-01-4.86676E-05-1.04412E-01 4.01584E-14-5.78467E-13
 -1      1037 1.98943E+01 2.34287E-01-3.98619E-05-7.72691E-02 1.04464E-13-5.50958E-13
 -1      1038 1.99329E+01 1.79320E-01-3.13875E-05-5.59694E-02 1.56762E-13-7.56939E-13
 -1      1039 1.99604E+01 1.34804E-01-2.41467E-05-3.95123E-02 2.10957E-13-5.70643E-13
 -1      1040 1.99793E+01 9.94262E-02-1.82231E-05-2.70093E-02 3.53716E-14-2.83660E-13
 -1      1041 1.99919E+01 7.18138E-02-1.34500E-05-1.76801E-02 4.33689E-14-2.94362E-13
 -1      1042 1.99998E+01 5.06343E-02-9.82963E-06-1.08538E-02 1.84714E-13-3.45183E-13
 -1      1043 2.00043E+01 3.46560E-02-4.66131E-06-5.98151E-03 3.55318E-14-3.28428E-13
 -1      1044 2.00065E+01 2.27670E-02-4.83733E-06-2.53688E-03 1.18622E-13-3.79607E-13
 -1      1045 2.00070E+01 1.41571E-02 1.09571E-05-2.67784E-04-5.28752E-14-4.80126E-13
 -1      1046 1.83565E+01 9.36331E-01-2.70181E-04 9.28863E-01 3.46569E-14-5.46014E-14
 -1      1047 1.49274E+01 8.35299E-01 7.85638E-03 1.40880E+00-1.37763E-13 2.19693E-13
 -1      1048 1.79475E+01 8.72191E-01-4.53934E-04 1.19565E+00-1.32349E-13 1.25208E-13
 -1      1049 1.89846E+01 8.61715E-01-3.15293E-04 5.82847E-01-8.74679E-14-2.28602E-13
 -1      1050 1.92200E+01 7.72425E-01-2.08232E-04 4.63381E-01-1.04456E-13-2.91439E-13
 -1      1051 1.94100E+01 6.72150E-01-3.76483E-05 3.67519E-01-2.35041E-13-2.37649E-13
 -1      1052 1.95617E+01 5.69254E-01 7.82539E-06 2.88791E-01-6.93302E-14-1.32726E-13
 -1      1053 1.96806E+01 4.71320E-01-6.70537E-05 2.24228E-01-1.67415E-13 8.71924E-14
 -1      1054 1.97724E+01 3.82724E-01-8.69367E-05 1.71835E-01-3.90060E-13 1.34603E-13
 -1      1055 1.98425E+01 3.04858E-01-6.83184E-05 1.29542E-01-2.01706E-13 1.58536E-15
 -1      1056 1.98948E+01 2.38455E-01-5.42903E-05 9.59689E-02 1.04824E-14-2.90944E-13
 -1      1057 1.99330E+01 1.83225E-01-4.21813E-05 6.96561E-02-1.64595E-13-2.45299E-13
 -1      1058 1.99603E+01 1.38264E-01-3.19565E-05 4.93314E-02-1.99486E-13-1.30791E-13
 -1      1059 1.99791E+01 1.02374E-01-2.36669E-05 3.38815E-02-1.56398E-13-1.72269E-13
 -1      1060 1.99916E+01 7.42514E-02-1.71145E-05 2.23385E-02-4.22523E-14-4.29383E-13
 -1      1061 1.99996E+01 5.26038E-02-1.23046E-05 1.38742E-02 1.56255E-13-3.36612E-13
 -1      1062 2.00041E+01 3.62106E-02-7.11025E-06 7.80171E-03 3.36882E-13-4.23026E-13
 -1      1063 2.00063E+01 2.40686E-02-2.20938E-06 3.60238E-03 2.77510E-13-4.30136E-13
 -1      1064 2.00069E+01 1.72155E-02-2.09112E-06 1.34640E-03 4.07550E-13-3.68525E-13
 -1      1065 1.64360E+01-2.24999E-02-7.69810E-04-2.61092E+00 3.04199E-13-1.43503E-13
 -1      1066 1.66041E+01 5.74525E-01 2.98215E-03 1.86774E+00-1.18486E-13 1.33396E-13
 -1      1067 1.77624E+01 1.06081E+00 3.73278E-04-1.56327E+00 6.73329E-14-5.55882E-13
 -1      1068 1.82571E+01 2.00149E+00 4.33046E-04 6.20221E-01 2.15588E-14-7.07940E-13
 -1      1069 1.85038E+01 1.67031E+00-6.50725E-04-9.63707E-01 1.87691E-13-5.22683E-13
 -1      1070 1.43946E+01 9.23271E-01 1.48995E-02-1.12380E+00 1.74918E-13-1.44602E-13
 -1      1071 2.00070E+01 1.08123E-02 2.85099E-08-2.91837E-04 1.45302E-13-3.44541E-13
 -1      1072 1.59232E+01 1.46985E+00 5.60753E-03 4.22197E-01 8.98638E-14-6.69331E-13
 -1      1073 1.61797E+01 1.01218E+00 3.47781E-03-1.60960E+00-3.28840E-14-6.20440E-13
 -1      1074 1.75454E+01 1.56564E+00-3.90712E-04 9.81267E-01 1.24000E-13-6.52155E-13
 -1      1075 1.81717E+01 1.37379E+00-9.39809E-04-1.25056E+00 1.20894E-13-5.47275E-13
 -1      1076 1.73689E+01 7.70935E-01 1.52509E-03 1.47491E+00-1.76829E-13 1.84147E-13
 -1      1077 1.79921E+01 2.14418E+00-1.03834E-03 3.09250E-01 7.35298E-14-6.78621E-13
 -1      1078 2.00070E+01 1.62923E-02 1.58219E-05 5.11354E-05 2.84166E-13-4.25390E-13
 -1      1079 1.74616E+01 1.86197E+00-1.76897E-03-4.11393E-01 1.25379E-13-6.67921E-13
 -1      1080 2.00071E+01 1.54639E-02 1.32615E-06-2.28725E-04 1.17957E-13-2.23381E-13
 -1      1081 1.74075E+01 1.90825E+00 3.62023E-03 9.64119E-02 1.14313E-13-6.12499E-13
 -1      1082 1.57223E+01 1.12879E+00-1.65178E-03-5.36115E-01 1.14206E-13-4.48930E-13
 -1      1083 1.62317E+01 1.49728E+00 2.64742E-03-4.78521E-01 5.06600E-14-6.37968E-13
 -1      1084 1.89227E+01 9.07843E-01 1.53235E-04 2.98883E-01-3.02321E-14-3.60583E-13
 -1      1085 1.70183E+01 1.20038E+00-5.28023E-04-4.86105E-01 2.24818E-13-5.25465E-13
 -1      1086 1.77182E+01 1.16380E+00 2.24812E-04-3.63097E-01 3.26212E-14-3.88736E-13
 -1      1087 1.82075E+01 1.11850E+00 7.75019E-04-2.82741E-01 3.97702E-14-3.48609E-13
 -1      1088 1.86187E+01 1.01963E+00-5.31603E-05-2.22846E-01 2.99604E-14-2.09306E-13
 -1      1089 1.89416E+01 9.05248E-01-3.09914E-04-1.81205E-01-5.77513E-14-2.07483E-13
 -1      1090 1.92057E+01 7.82954E-01 9.93606E-04-1.47316E-01-1.09186E-13-1.58275E-13
 -1      1091 1.94060E+01 6.62840E-01 4.01996E-06-1.17837E-01-2.36658E-13-2.29039E-13
 -1      1092 1.95568E+01 5.55610E-01 2.58296E-04-9.09165E-02-4.21511E-15-2.82626E-13
 -1      1093 1.96806E+01 4.51997E-01 1.33542E-05-6.94029E-02-1.01879E-14-2.37837E-13
 -1      1094 1.97748E+01 3.61489E-01-3.22779E-05-5.33265E-02-8.54516E-15-2.28969E-13
 -1      1095 1.98456E+01 2.84337E-01-2.04677E-05-4.00814E-02 6.81428E-16-4.43868E-13
 -1      1096 1.98980E+01 2.19833E-01-9.88719E-06-2.94782E-02-3.36060E-15-5.63848E-13
 -1      1097 1.99360E+01 1.67003E-01-2.98764E-06-2.11643E-02 1.33585E-14-5.59944E-13
 -1      1098 1.99629E+01 1.24566E-01 1.26248E-06-1.47660E-02 1.20060E-13-8.09212E-13
 -1      1099 1.99813E+01 9.10974E-02 3.67194E-06-9.93264E-03 1.73900E-13-7.61868E-13
 -1      1100 1.99933E+01 6.51660E-02 4.66034E-06-6.35378E-03 1.48842E-14-5.34936E-13
 -1      1101 2.00008E+01 4.54098E-02 3.83906E-06-3.76424E-03-1.24372E-13-6.49351E-13
 -1      1102 2.00050E+01 3.04988E-02 2.80606E-05-1.96118E-03 9.39062E-14-7.14664E-13
 -1      1103 1.82166E+01 1.07766E+00 1.47782E-03 4.78684E-01 1.47699E-13-1.97957E-13
 -1      1104 1.77217E+01 1.10451E+00-2.75544E-04 6.19103E-01 2.89308E-14-9.73972E-14
 -1      1105 1.91791E+01 7.96245E-01 8.00379E-04 2.34297E-01-1.81486E-13-4.26145E-13
 -1      1106 1.93921E+01 6.72938E-01 1.61616E-04 1.81265E-01-1.11507E-13-3.90835E-13
 -1      1107 1.95492E+01 5.64290E-01 5.04128E-04 1.41823E-01-1.34521E-13-3.68324E-13
 -1      1108 1.96697E+01 4.63429E-01-7.90111E-05 1.10187E-01-2.50105E-13-4.76580E-13
 -1      1109 1.97660E+01 3.72792E-01 1.79898E-05 8.40951E-02-1.80571E-13-6.37609E-13
 -1      1110 1.98388E+01 2.94417E-01 2.84430E-05 6.30955E-02-3.70973E-14-7.35580E-13
 -1      1111 1.98928E+01 2.28481E-01 2.56948E-05 4.64325E-02-9.53070E-14-4.77658E-13
 -1      1112 1.99321E+01 1.74213E-01 2.03495E-05 3.34294E-02-2.38670E-13-5.87809E-13
 -1      1113 1.99601E+01 1.30435E-01 1.52478E-05 2.34444E-02-2.32233E-13-6.31292E-13
 -1      1114 1.99793E+01 9.57744E-02 1.10076E-05 1.59032E-02 5.66356E-14-6.97935E-13
 -1      1115 1.99920E+01 6.88230E-02 7.76091E-06 1.03094E-02 1.03370E-13-8.80882E-13
 -1      1116 2.00000E+01 4.82401E-02 7.24526E-06 6.24799E-03 1.58470E-13-8.40006E-13
 -1      1117 2.00045E+01 3.27233E-02 2.43338E-06 3.25508E-03 4.16096E-13-3.77480E-13
 -1      1118 1.59728E+01 1.10706E+00 1.64631E-03 7.97800E-01-1.38666E-13 1.05741E-13
 -1      1119 2.00070E+01 1.71887E-02 3.60946E-06 6.18418E-04 2.50283E-13-2.88863E-13
 -1      1120 1.86011E+01 1.00758E+00-3.26830E-04 3.77061E-01 4.89998E-14-1.88959E-13
 -1      1121 1.50664E+01 1.12591E+00-1.31594E-03 3.15199E-01-6.79905E-14-1.01088E-14
 -1      1122 1.67305E+01 1.68106E+00 1.98523E-03 2.64208E-01 7.27547E-14-6.24193E-13
 -1      1123 1.72365E+01 1.45709E+00 6.97894E-04-1.05111E+00 9.07309E-14-6.07842E-13
 -1      1124 1.70570E+01 1.12677E+00 2.87423E-03 7.05434E-01-1.54317E-14-1.10537E-13
 -1      1125 2.00062E+01 2.41333E-02 2.97265E-05 1.71637E-03 2.37437E-13-4.22895E-13
 -1      1126 2.00062E+01 2.28007E-02-4.24318E-05 1.92091E-04 3.57313E-13-2.62321E-13
 -1      1127 1.79629E+01 1.59203E+00-4.28670E-05-1.00126E+00 1.40018E-13-5.63420E-13
 -1      1128 1.92398E+01 7.55160E-01-2.10291E-03 2.40571E-02-1.68015E-13-4.86331E-13
 -1      1129 1.79177E+01 1.15767E+00-4.81543E-03 1.34297E-01 1.43793E-13-4.93690E-13
 -1      1130 1.94698E+01 6.12811E-01-1.40479E-03 3.52095E-02-1.33650E-13-2.44388E-13
 -1      1131 1.73133E+01 1.20281E+00-4.84746E-03 1.87641E-01 5.53362E-14-5.14385E-13
 -1      1132 2.81222E+01 9.11978E+00 2.27687E+00-6.45674E+00-1.04250E-13 2.37366E-12
 -1      1133 2.10840E+01 6.40062E+00 2.51350E-01-3.49653E+00-5.00988E-14-8.60492E-14
 -1      1134 1.98986E+01 6.00017E+00 1.01926E-01-2.36097E+00-3.11695E-14-1.06901E-12
 -1      1135 1.92923E+01 5.80841E+00 6.90346E-02-1.65716E+00-1.96509E-14-1.47387E-12
 -1      1136 1.88613E+01 5.67379E+00 5.12686E-02-1.14150E+00-1.01655E-14-1.64640E-12
 -1      1137 1.85293E+01 5.56999E+00 3.73124E-02-7.53196E-01-4.66988E-15-1.69072E-12
 -1      1138 1.82836E+01 5.49310E+00 2.67646E-02-4.53752E-01-1.56125E-15-1.68024E-12
 -1      1139 1.81298E+01 5.44493E+00 1.99656E-02-2.10582E-01 3.20577E-15-1.63461E-12
 -1      1140 1.80792E+01 5.42909E+00 1.77775E-02 3.34760E-03 6.27796E-15-1.57934E-12
 -1      1141 1.81347E+01 5.44653E+00 2.03957E-02 2.18576E-01 1.04430E-14-1.51957E-12
 -1      1142 1.82923E+01 5.49598E+00 2.75801E-02 4.65570E-01 1.34406E-14-1.43310E-12
 -1      1143 1.85411E+01 5.57400E+00 3.88512E-02 7.71101E-01 1.80272E-14-1.28727E-12
 -1      1144 1.88734E+01 5.67788E+00 5.28057E-02 1.16720E+00 2.31065E-14-1.06439E-12
 -1      1145 1.93019E+01 5.81143E+00 6.95209E-02 1.69326E+00 2.99344E-14-6.83580E-13
 -1      1146 1.98967E+01 5.99794E+00 9.64238E-02 2.40622E+00 3.89272E-14-1.67383E-14
 -1      1147 2.09865E+01 6.35494E+00 1.96533E-01 3.48083E+00 4.16056E-14 1.20996E-12
 -1      1148 2.54720E+01 8.06569E+00 1.41349E+00 5.60431E+00 7.63833E-14 3.62899E-12
 -1      1149 2.88436E+01 3.49485E+00 1.14396E+00-4.06005E+00-4.06092E-13 3.90943E-12
 -1      1150 2.09547E+01-1.85719E-01-6.24659E-01-6.83986E-02-1.42580E-13 2.96027E-12
 -1      1151 2.00758E+01-9.95637E-02-2.32794E-01 7.31844E-02-5.62102E-14 1.68362E-12
 -1      1152 2.02008E+01-5.37769E-02-6.46347E-02 4.92001E-02-3.26648E-14 8.56815E-13
 -1      1153 2.06485E+01-3.17551E-02-2.50348E-02 3.80079E-02-2.61262E-14 3.01925E-13
 -1      1154 2.13033E+01-1.89734E-02-1.43736E-02 3.40663E-02-2.67503E-14-9.21832E-14
 -1      1155 2.20867E+01-7.69863E-03-4.43331E-03 3.28523E-02-1.44783E-14-4.33122E-13
 -1      1156 2.29137E+01 5.62436E-03 1.17967E-02 3.11816E-02-8.33773E-15-7.50486E-13
 -1      1157 2.36645E+01 2.27354E-02 3.64572E-02 2.53722E-02-1.07338E-14-9.91915E-13
 -1      1158 2.41671E+01 4.28813E-02 6.78905E-02 1.09437E-02-1.41592E-14-1.25551E-12
 -1      1159 2.42058E+01 6.09877E-02 9.71668E-02-1.59644E-02-9.41261E-15-1.54538E-12
 -1      1160 2.35792E+01 6.62916E-02 1.05664E-01-5.45820E-02 1.84930E-14-1.56297E-12
 -1      1161 2.22264E+01 4.54377E-02 7.08938E-02-9.39920E-02 3.03707E-15-1.66724E-12
 -1      1162 2.03843E+01-6.73740E-03-1.42068E-02-1.12135E-01 1.12681E-15-1.71664E-12
 -1      1163 1.86394E+01-7.26821E-02-1.19437E-01-8.74962E-02 7.10456E-15-1.83492E-12
 -1      1164 1.77214E+01-1.13564E-01-1.83767E-01-2.05489E-02-1.56221E-14-2.05464E-12
 -1      1165 1.80774E+01-1.00231E-01-1.62898E-01 5.76436E-02-2.36469E-14-2.15651E-12
 -1      1166 1.95622E+01-4.26811E-02-7.19334E-02 1.07068E-01 1.86717E-14-2.41296E-12
 -1      1167 2.15438E+01 2.04820E-02 2.97706E-02 1.10231E-01-1.47373E-14-2.59781E-12
 -1      1168 2.33181E+01 5.83382E-02 9.19284E-02 7.94964E-02 3.28782E-14-2.39252E-12
 -1      1169 2.44576E+01 6.55156E-02 1.03779E-01 3.91174E-02-4.01597E-14-2.24689E-12
 -1      1170 2.48840E+01 5.28576E-02 8.27358E-02 6.53724E-03 1.98270E-14-2.08578E-12
 -1      1171 2.47432E+01 3.36234E-02 5.11011E-02-1.26894E-02-6.16651E-15-1.88146E-12
 -1      1172 2.42514E+01 1.60683E-02 2.30963E-02-2.05273E-02-8.92710E-15-1.79468E-12
 -1      1173 2.35995E+01 3.35003E-03 3.73447E-03-2.12307E-02 7.17124E-15-1.57591E-12
 -1      1174 2.29199E+01-4.43568E-03-7.34638E-03-1.84710E-02 2.66357E-14-1.41265E-12
 -1      1175 2.22892E+01-8.39646E-03-1.24061E-02-1.45866E-02-2.44011E-15-1.27684E-12
 -1      1176 2.17432E+01-9.80649E-03-1.37432E-02-1.07879E-02 1.63931E-14-1.63465E-12
 -1      1177 2.12923E+01-9.70276E-03-1.30682E-02-7.57081E-03 1.72201E-14-1.41785E-12
 -1      1178 2.09327E+01-8.80776E-03-1.14726E-02-5.05266E-03 2.64623E-14-1.15054E-12
 -1      1179 2.06537E+01-7.57815E-03-9.58496E-03-3.18094E-03-3.56902E-14-1.00768E-12
 -1      1180 2.04426E+01-6.28087E-03-7.73539E-03-1.84419E-03 4.15059E-14-1.08496E-12
 -1      1181 2.02865E+01-5.05912E-03-6.07797E-03-9.23761E-04 1.47469E-14-1.52984E-12
 -1      1182 2.01739E+01-3.97997E-03-4.66869E-03-3.14501E-04 2.79931E-14-1.91775E-12
 -1      1183 2.00950E+01-3.06597E-03-3.51200E-03 6.92214E-05 6.29380E-14-1.70805E-12
 -1      1184 2.00413E+01-2.31523E-03-2.58753E-03 2.93893E-04 3.06543E-14-1.66705E-12
 -1      1185 2.00065E+01-1.71355E-03-1.86484E-03 4.09589E-04-1.88072E-14-1.92402E-12
 -1      1186 1.99852E+01-1.24153E-03-1.31121E-03 4.53218E-04 4.97729E-14-1.61821E-12
 -1      1187 1.99736E+01-8.78470E-04-8.95454E-04 4.51482E-04 4.65588E-14-1.30239E-12
 -1      1188 1.99686E+01-6.04526E-04-5.89607E-04 4.23332E-04-1.84993E-14-1.12873E-12
 -1      1189 1.99679E+01-4.01713E-04-3.69513E-04 3.81915E-04-2.55952E-14-1.39407E-12
 -1      1190 1.99701E+01-2.54270E-04-2.14743E-04 3.36079E-04-3.79029E-14-1.71744E-12
 -1      1191 1.99739E+01-1.48635E-04-1.08152E-04 2.91497E-04 3.24080E-14-1.97958E-12
 -1      1192 1.99786E+01-7.31985E-05-3.51405E-05 2.51435E-04 5.08948E-15-1.84897E-12
 -1      1193 1.99836E+01-1.79096E-05 1.74381E-05 2.17126E-04 6.15406E-14-1.48374E-12
 -1      1194 1.99885E+01 2.60971E-05 6.26966E-05 1.87544E-04-2.22013E-14-7.86197E-13
 -1      1195 1.99930E+01 6.64938E-05 1.14201E-04 1.57912E-04 2.84071E-15-7.14456E-13
 -1      1196 1.99968E+01 1.06973E-04 1.76436E-04 1.13594E-04 1.84803E-14-6.39387E-13
 -1      1197 1.99993E+01 1.53277E-04 2.03300E-04 2.42503E-05 2.75861E-14-4.51359E-13
 -1      1198 1.99999E+01-4.12581E-05-6.61418E-05-5.05850E-05 1.76349E-16-4.09266E-14
 -1      1199 2.78396E+01 5.15073E-01 2.75023E-01 1.92060E+00-7.08808E-14 5.58587E-12
 -1      1200 2.08378E+01-7.16623E-02-5.76648E-01 1.14036E-01 2.77313E-14 4.63046E-12
 -1      1201 2.01374E+01-4.64428E-02-1.92674E-01 1.42327E-02 3.18079E-14 3.59997E-12
 -1      1202 2.02096E+01-2.84321E-02-5.70492E-02-9.37091E-04 1.64014E-14 2.93628E-12
 -1      1203 2.06295E+01-1.92421E-02-2.38430E-02-7.19926E-03 1.31637E-14 2.51607E-12
 -1      1204 2.12586E+01-1.16494E-02-1.42491E-02-1.20130E-02 2.21175E-14 2.15045E-12
 -1      1205 2.20096E+01-2.49130E-03-4.76860E-03-1.78304E-02 9.34365E-15 1.91503E-12
 -1      1206 2.27941E+01 9.98123E-03 1.12299E-02-2.47873E-02-1.35547E-14 1.80148E-12
 -1      1207 2.34921E+01 2.59741E-02 3.55333E-02-3.12835E-02 1.28560E-14 1.59403E-12
 -1      1208 2.39371E+01 4.28119E-02 6.58558E-02-3.35106E-02 1.97034E-14 1.31912E-12
 -1      1209 2.39271E+01 5.35803E-02 9.28909E-02-2.55150E-02 1.09747E-14 1.06020E-12
 -1      1210 2.32822E+01 4.80589E-02 9.89422E-02-1.73156E-03 3.75307E-15 9.43461E-13
 -1      1211 2.19629E+01 1.92660E-02 6.48391E-02 3.68943E-02 2.79147E-14 8.45171E-13
 -1      1212 2.02084E+01-2.62176E-02-1.21137E-02 7.67325E-02-9.05417E-15 7.82804E-13
 -1      1213 1.85711E+01-6.55889E-02-1.02647E-01 9.42407E-02 1.32993E-14 6.19615E-13
 -1      1214 1.77178E+01-7.53285E-02-1.56506E-01 7.25582E-02-1.54772E-14 5.04072E-13
 -1      1215 1.80504E+01-5.17643E-02-1.40817E-01 1.86327E-02-3.43761E-14 6.79887E-13
 -1      1216 1.94394E+01-1.34767E-02-6.89256E-02-3.93866E-02 4.15657E-14 3.42060E-13
 -1      1217 2.13113E+01 1.70853E-02 1.27418E-02-7.38436E-02 4.64819E-14-2.94875E-13
 -1      1218 2.30166E+01 3.10125E-02 6.52611E-02-7.68772E-02-1.67501E-14-1.25316E-14
 -1      1219 2.41477E+01 3.09823E-02 7.89987E-02-5.86404E-02-4.00027E-15 2.43701E-13
 -1      1220 2.46125E+01 2.37928E-02 6.60381E-02-3.37617E-02 7.94070E-16 1.76836E-13
 -1      1221 2.45313E+01 1.49548E-02 4.31904E-02-1.22976E-02-2.09676E-14-4.75002E-14
 -1      1222 2.40999E+01 7.36877E-03 2.17808E-02 2.08575E-03-2.41740E-14-2.31192E-13
 -1      1223 2.34986E+01 1.93497E-03 6.33081E-03 9.78831E-03-4.28742E-15-2.67137E-13
 -1      1224 2.28566E+01-1.45901E-03-2.96450E-03 1.27214E-02 1.52516E-14-8.46302E-14
 -1      1225 2.22518E+01-3.28644E-03-7.59118E-03 1.28072E-02-9.18975E-15-1.58061E-13
 -1      1226 2.17226E+01-4.04754E-03-9.22422E-03 1.14643E-02 6.28065E-14-2.85419E-13
 -1      1227 2.12819E+01-4.14752E-03-9.16567E-03 9.57913E-03-5.08026E-14 2.15794E-13
 -1      1228 2.09282E+01-3.87541E-03-8.27289E-03 7.64068E-03 3.60491E-14 4.05776E-13
 -1      1229 2.06524E+01-3.42173E-03-7.05487E-03 5.88423E-03-1.30261E-14-2.81320E-14
 -1      1230 2.04428E+01-2.90477E-03-5.78990E-03 4.39942E-03-2.06253E-15-1.84570E-13
 -1      1231 2.02874E+01-2.39357E-03-4.61698E-03 3.19936E-03 7.18230E-16-1.09543E-13
 -1      1232 2.01750E+01-1.92508E-03-3.59556E-03 2.26077E-03-1.99666E-14 1.10025E-13
 -1      1233 2.00959E+01-1.51604E-03-2.74157E-03 1.54605E-03-2.94938E-14 5.81208E-14
 -1      1234 2.00421E+01-1.17113E-03-2.04848E-03 1.01476E-03 1.10959E-14-3.48197E-13
 -1      1235 2.00071E+01-8.88151E-04-1.49932E-03 6.29133E-04 1.94657E-14-5.96634E-13
 -1      1236 1.99857E+01-6.61334E-04-1.07337E-03 3.56329E-04-4.89932E-14-5.12807E-13
 -1      1237 1.99739E+01-4.83307E-04-7.49700E-04 1.68950E-04 1.74473E-14-1.95668E-13
 -1      1238 1.99688E+01-3.46284E-04-5.08807E-04 4.47582E-05 3.57929E-14-2.32545E-13
 -1      1239 1.99681E+01-2.42698E-04-3.33378E-04-3.39462E-05 6.28317E-14-2.87379E-13
 -1      1240 1.99702E+01-1.65497E-04-2.08395E-04-8.10451E-05-5.53848E-15 1.32867E-14
 -1      1241 1.99740E+01-1.08203E-04-1.20914E-04-1.07319E-04-6.31520E-14 3.30818E-13
 -1      1242 1.99786E+01-6.47739E-05-5.95032E-05-1.21106E-04-1.31664E-13 5.24166E-13
 -1      1243 1.99836E+01-2.92689E-05-1.31549E-05-1.28816E-04 4.23047E-14-1.20267E-13
 -1      1244 1.99885E+01 4.36894E-06 3.02102E-05-1.35039E-04 6.93170E-14-8.00856E-13
 -1      1245 1.99930E+01 4.25522E-05 8.41942E-05-1.41786E-04-7.83688E-15-1.20259E-12
 -1      1246 1.99968E+01 8.71938E-05 1.53707E-04-1.42573E-04-4.84317E-14-1.00538E-12
 -1      1247 1.99993E+01 1.08685E-04 1.82599E-04-1.02815E-04 1.59842E-14-5.84088E-13
 -1      1248 1.99999E+01-3.97766E-05-7.00245E-05 4.26371E-05-5.80702E-14-4.16819E-13
 -1      1249 1.99998E+01 1.15761E-04-6.81665E-05 3.43366E-05-3.33278E-13-8.48647E-14
 -1      1250 1.99999E+01-5.75690E-04 1.73365E-04-2.09567E-05 1.57311E-13 6.61786E-14
 -1      1251 1.99999E+01-2.95462E-03 1.23954E-04-1.14298E-04 6.78812E-13-1.26487E-13
 -1      1252 1.99998E+01-6.21382E-03 2.53120E-05-1.34704E-04 8.82353E-13 1.54412E-14
 -1      1253 1.99998E+01-9.61248E-03-5.21476E-05-1.23552E-04 1.29432E-13 6.95675E-15
 -1      1254 1.99997E+01-1.26255E-02-1.02294E-04-9.75654E-05-1.33508E-12-8.11380E-14
 -1      1255 1.99997E+01-1.49602E-02-1.30601E-04-6.79364E-05-1.59586E-12 1.03033E-13
 -1      1256 1.99997E+01-1.64404E-02-1.45600E-04-3.41656E-05-1.83263E-12-1.13185E-13
 -1      1257 1.99997E+01-1.69390E-02-1.50099E-04 2.61756E-07-1.58047E-12 7.14292E-14
 -1      1258 1.99997E+01-1.64251E-02-1.45465E-04 3.47026E-05-1.08952E-12 9.78228E-15
 -1      1259 1.99997E+01-1.49307E-02-1.30128E-04 6.84346E-05-9.55565E-13-2.41483E-13
 -1      1260 1.99997E+01-1.25825E-02-1.01168E-04 9.97197E-05-2.65623E-12-1.53287E-13
 -1      1261 1.99998E+01-9.56209E-03-5.16223E-05 1.24013E-04-2.03948E-12 1.15063E-13
 -1      1262 1.99998E+01-6.15618E-03 2.78591E-05 1.36756E-04-1.01923E-12 3.81190E-14
 -1      1263 1.99999E+01-2.85638E-03 1.42676E-04 1.35875E-04-6.31346E-13-3.55732E-15
 -1      1264 1.99999E+01-6.03456E-04 1.71508E-04 2.63336E-06 1.95891E-13-1.98338E-13
 -1      1265 1.99997E+01 1.22866E-04-7.60500E-05-3.35046E-05 1.66859E-13 1.00242E-13
 -1      1266-1.26892E+00-2.33836E+01-3.63078E+00-2.31041E+00 2.25420E-12 5.76976E-13
 -1      1267-1.79294E+00-1.44639E+01-3.02976E+00-4.00055E+00 3.74811E-12 1.42381E-12
 -1      1268 5.65149E-01-1.71059E+00-1.76079E+00 2.40457E-01 3.77387E-12 2.42106E-12
 -1      1269 9.74110E+00 8.03979E+00-2.26722E-01 8.75126E+00 3.32379E-12 3.22542E-12
 -1      1270 2.77654E+01 1.08498E+01 1.54735E+00 1.65927E+01 2.41607E-12 3.65619E-12
 -1      1271 4.87793E+01 7.36639E+00 3.08258E+00 1.71180E+01 1.11772E-12 2.57128E-12
 -1      1272 6.38336E+01 2.75553E+00 4.05186E+00 8.94392E+00 2.32189E-13 2.70894E-13
 -1      1273 6.60698E+01 2.24043E+00 4.16895E+00-4.21680E+00 3.85775E-13-2.70131E-12
 -1      1274 5.50607E+01 5.67560E+00 3.53329E+00-1.53564E+01 1.58973E-12-4.86700E-12
 -1      1275 3.50669E+01 1.03881E+01 2.15511E+00-1.79225E+01 3.33122E-12-5.87330E-12
 -1      1276 1.61982E+01 1.03608E+01 5.54127E-01-1.25430E+01 4.69935E-12-5.40412E-12
 -1      1277 3.53488E+00 3.25357E+00-1.10647E+00-3.62207E+00 5.13123E-12-3.95106E-12
 -1      1278-1.42071E+00-9.16879E+00-2.57566E+00 2.95764E+00 3.91331E-12-2.02482E-12
 -1      1279-1.56905E+00-2.06973E+01-3.49922E+00 3.70113E+00 1.49458E-12-5.51809E-13
 -1      1280-8.65538E-01-2.55502E+01-3.83704E+00-1.49855E-02-1.20787E-12-2.02602E-13
 -1      1281-1.45230E+00-2.08715E+01-3.48734E+00-3.83447E+00-3.90021E-12-1.07062E-12
 -1      1282-1.45795E+00-9.60865E+00-2.58631E+00-3.12859E+00-5.68079E-12-2.70484E-12
 -1      1283 4.15915E+00 3.06816E+00-1.05839E+00 3.89266E+00-5.84022E-12-4.48108E-12
 -1      1284 1.86537E+01 1.03740E+01 7.36810E-01 1.34221E+01-4.59788E-12-5.46940E-12
 -1      1285 3.88076E+01 9.65392E+00 2.40171E+00 1.82698E+01-2.70095E-12-5.10036E-12
 -1      1286 5.76617E+01 4.82885E+00 3.64921E+00 1.40590E+01-1.03365E-12-3.42038E-12
 -1      1287 6.71725E+01 1.63349E+00 4.24906E+00 2.51918E+00-2.22648E-13-6.90614E-13
 -1      1288 6.20791E+01 3.43678E+00 3.93566E+00-1.04066E+01-4.58675E-13 1.93989E-12
 -1      1289 4.54077E+01 8.21715E+00 2.89137E+00-1.76926E+01-1.55642E-12 3.54827E-12
 -1      1290 2.49060E+01 1.10056E+01 1.31225E+00-1.58666E+01-2.91500E-12 4.03722E-12
 -1      1291 8.60323E+00 7.43479E+00-3.64103E-01-7.92006E+00-3.95417E-12 3.69793E-12
 -1      1292 1.36552E-01-2.67211E+00-1.89914E+00 3.36948E-01-3.66307E-12 2.24731E-12
 -1      1293-1.77959E+00-1.53528E+01-3.06019E+00 4.09985E+00-2.51588E-12 9.76219E-13
 -1      1294-1.06311E+00-2.42625E+01-3.75837E+00 2.11256E+00-2.76779E-13 2.24192E-13
 -1      1295 2.27559E+01 1.87003E+00-7.11083E-01-2.58251E+00-1.57541E-13 1.78046E-12
 -1      1296 2.09518E+01 4.73197E+00-3.89593E-02-2.84879E+00-3.63501E-13-5.49630E-13
 -1      1297 2.14850E+01 4.84018E+00-8.99077E-02-3.75130E+00-4.92634E-13-3.70676E-14
 -1      1298 1.99796E+01 5.05014E+00-1.69780E-02-2.10417E+00-3.31443E-13-1.25177E-12
 -1      1299 2.03718E+01 5.17112E+00 1.65060E-02-2.53083E+00-3.80723E-13-9.60280E-13
 -1      1300 2.11364E+01 3.96106E+00-1.83193E-02-2.57326E+00-6.21912E-13-4.87804E-13
 -1      1301 1.93868E+01 5.13660E+00-6.78404E-03-1.49503E+00-2.42778E-13-1.55635E-12
 -1      1302 1.96674E+01 5.22942E+00 2.00186E-02-1.79242E+00-2.92273E-13-1.42999E-12
 -1      1303 2.01618E+01 4.42318E+00-1.99062E-02-1.92770E+00-5.11313E-13-1.06087E-12
 -1      1304 1.89373E+01 5.16798E+00-3.80371E-03-1.02617E+00-1.54793E-13-1.67649E-12
 -1      1305 1.91548E+01 5.23852E+00 1.67267E-02-1.25054E+00-1.84606E-13-1.62738E-12
 -1      1306 1.95169E+01 4.64986E+00-1.77212E-02-1.36883E+00-3.58023E-13-1.32508E-12
 -1      1307 1.85914E+01 5.18144E+00-2.93004E-03-6.70633E-01-7.53911E-14-1.70329E-12
 -1      1308 1.87572E+01 5.23452E+00 1.25793E-02-8.40825E-01-1.02730E-13-1.69537E-12
 -1      1309 1.90356E+01 4.78490E+00-1.45391E-02-9.35258E-01-2.16271E-13-1.41860E-12
 -1      1310 1.83384E+01 5.18822E+00-2.47375E-03-3.87261E-01-6.02816E-15-1.67391E-12
 -1      1311 1.84547E+01 5.22495E+00 8.10023E-03-5.24229E-01-2.70582E-14-1.69288E-12
 -1      1312 1.86689E+01 4.87131E+00-1.25271E-02-5.99826E-01-9.34947E-14-1.43876E-12
 -1      1313 1.81949E+01 5.19459E+00-1.23746E-03-1.54329E-01 6.46549E-14-1.63353E-12
 -1      1314 1.82539E+01 5.21310E+00 4.01809E-03-2.69739E-01 4.42389E-14-1.65655E-12
 -1      1315 1.84153E+01 4.92427E+00-1.14181E-02-3.30742E-01 2.73644E-14-1.40792E-12
 -1      1316 1.81688E+01 5.20263E+00 1.05082E-03 5.74761E-02 1.25352E-13-1.58275E-12
 -1      1317 1.81672E+01 5.20205E+00 7.80874E-04-5.11491E-02 1.06391E-13-1.61366E-12
 -1      1318 1.82871E+01 4.94896E+00-1.09416E-02-1.03744E-01 1.42762E-13-1.38076E-12
 -1      1319 1.82615E+01 5.21262E+00 4.39047E-03 2.77996E-01 1.85411E-13-1.50620E-12
 -1      1320 1.81995E+01 5.19305E+00-1.37353E-03 1.61289E-01 1.63539E-13-1.54983E-12
 -1      1321 1.82906E+01 4.94729E+00-1.09864E-02 1.09940E-01 2.34719E-13-1.32311E-12
 -1      1322 1.84668E+01 5.22299E+00 8.45433E-03 5.36805E-01 2.43989E-13-1.41073E-12
 -1      1323 1.83484E+01 5.18573E+00-2.44629E-03 3.97312E-01 2.26912E-13-1.47079E-12
 -1      1324 1.84254E+01 4.91935E+00-1.15475E-02 3.39413E-01 3.37640E-13-1.24848E-12
 -1      1325 1.87685E+01 5.23139E+00 1.29574E-02 8.56498E-01 3.05724E-13-1.25551E-12
 -1      1326 1.86021E+01 5.17788E+00-2.85685E-03 6.83292E-01 2.81393E-13-1.35058E-12
 -1      1327 1.86816E+01 4.86385E+00-1.25520E-02 6.10489E-01 4.31302E-13-1.14065E-12
 -1      1328 1.91705E+01 5.23355E+00 1.72165E-02 1.27738E+00 3.84054E-13-1.00536E-12
 -1      1329 1.89522E+01 5.16238E+00-3.70837E-03 1.04855E+00 3.50144E-13-1.15272E-12
 -1      1330 1.90506E+01 4.77421E+00-1.45634E-02 9.52329E-01 5.36805E-13-9.71955E-13
 -1      1331 1.96826E+01 5.22181E+00 1.97127E-02 1.83020E+00 4.58009E-13-5.94271E-13
 -1      1332 1.94025E+01 5.12773E+00-7.29013E-03 1.52708E+00 4.14196E-13-8.43384E-13
 -1      1333 1.95387E+01 4.63367E+00-1.76349E-02 1.39656E+00 6.47281E-13-6.98594E-13
 -1      1334 2.03962E+01 5.17794E+00 2.17890E-02 2.57449E+00 4.92134E-13 1.21722E-13
 -1      1335 1.99933E+01 5.04090E+00-1.75950E-02 2.15062E+00 4.46677E-13-3.10439E-13
 -1      1336 2.01860E+01 4.40081E+00-2.02814E-02 1.97052E+00 7.25520E-13-2.45699E-13
 -1      1337 2.16915E+01 4.93237E+00 2.39223E-02 3.66509E+00 3.97182E-13 1.42976E-12
 -1      1338 2.09277E+01 4.77303E+00-3.76854E-02 2.96056E+00 4.00097E-13 6.38080E-13
 -1      1339 2.11725E+01 3.92515E+00-1.43989E-02 2.67993E+00 7.15174E-13 5.48200E-13
 -1      1340 2.74744E+01 3.16809E+00 8.77225E-01 4.35361E+00 1.81230E-13 3.78436E-12
 -1      1341 2.25685E+01 3.53095E+00-1.71568E-01 3.57271E+00 1.92416E-13 2.16771E-12
 -1      1342 2.27680E+01 2.53781E+00-2.22285E-02 3.05203E+00 6.33327E-13 1.72767E-12
 -1      1343 2.20132E+01 3.39647E-01-7.56750E-01 9.90288E-01 3.30319E-13 3.67162E-12
 -1      1344 2.26711E+01 1.17010E-01-3.96576E-01-1.07062E+00-4.25340E-13 1.96279E-12
 -1      1345 2.15840E+01 2.92678E-01-1.55382E-01-6.21336E-01-3.79717E-13 1.45486E-12
 -1      1346 2.11311E+01 1.52995E-01-6.98199E-02-2.18824E-01-3.11761E-13 1.27101E-12
 -1      1347 2.08889E+01 9.27870E-02-1.12647E-02-1.49208E-01-2.89185E-13 8.19230E-13
 -1      1348 2.19000E+01 3.53766E-01-1.03132E-01-9.17515E-01-6.58598E-13 5.97113E-13
 -1      1349 2.07089E+01 7.08820E-02 3.93837E-03 5.46858E-02-2.32274E-13 6.65842E-13
 -1      1350 2.07916E+01 4.86649E-02 1.41307E-02 7.65242E-02-1.91328E-13 3.57728E-13
 -1      1351 2.11711E+01 1.36735E-01-3.71022E-02-1.40112E-01-4.99049E-13 3.21659E-13
 -1      1352 2.08298E+01 4.17441E-02 1.22046E-02 1.85013E-01-1.51970E-13 2.33511E-13
 -1      1353 2.10744E+01 2.85030E-02 1.05909E-02 2.00206E-01-1.54614E-13 1.41276E-14
 -1      1354 2.10608E+01 6.89850E-02-1.13813E-02 2.28514E-01-3.51847E-13 6.28889E-14
 -1      1355 2.12399E+01 2.63329E-02 6.81680E-03 2.64562E-01-1.28841E-13-6.20268E-14
 -1      1356 2.15765E+01 1.56882E-02 5.23662E-03 2.74635E-01-1.14863E-13-2.45089E-13
 -1      1357 2.12630E+01 4.01190E-02-6.84026E-03 4.36367E-01-2.64946E-13-1.32503E-13
 -1      1358 2.18162E+01 1.34014E-02 2.39875E-03 3.08058E-01-1.00149E-13-3.09017E-13
 -1      1359 2.21976E+01 2.06902E-03 2.09783E-03 3.12273E-01-9.10240E-14-4.55611E-13
 -1      1360 2.16599E+01 1.95646E-02-4.83666E-03 5.56256E-01-2.16000E-13-2.76037E-13
 -1      1361 2.24689E+01-2.69261E-03 6.68974E-04 3.11476E-01-8.54841E-14-5.07629E-13
 -1      1362 2.28423E+01-1.62585E-02 1.02754E-03 3.07102E-01-8.73378E-14-6.37834E-13
 -1      1363 2.21631E+01-5.18555E-03-1.67857E-03 5.98788E-01-1.63965E-13-3.89429E-13
 -1      1364 2.30996E+01-2.52082E-02 1.50258E-03 2.60669E-01-7.54913E-14-6.57504E-13
 -1      1365 2.33939E+01-4.08941E-02 1.91777E-03 2.43519E-01-7.09827E-14-7.58418E-13
 -1      1366 2.26889E+01-4.03819E-02 3.43194E-03 5.46517E-01-1.56337E-13-4.65592E-13
 -1      1367 2.35828E+01-5.45536E-02 4.90456E-03 1.38123E-01-7.32843E-14-7.84893E-13
 -1      1368 2.37066E+01-6.93919E-02 4.80910E-03 1.04108E-01-1.01774E-13-9.23702E-13
 -1      1369 2.31413E+01-8.73094E-02 1.07378E-02 3.69434E-01-1.29454E-13-4.88224E-13
 -1      1370 2.37650E+01-8.52588E-02 1.03156E-02-6.45127E-02-7.92951E-14-9.35320E-13
 -1      1371 2.36226E+01-9.20808E-02 8.83504E-03-1.15639E-01-2.22721E-14-1.03637E-12
 -1      1372 2.34065E+01-1.38012E-01 1.95092E-02 4.46646E-02-1.13774E-13-4.98098E-13
 -1      1373 2.34959E+01-1.02676E-01 1.52307E-02-3.25363E-01-3.69930E-15-1.08255E-12
 -1      1374 2.30299E+01-9.09459E-02 1.12028E-02-3.84110E-01-2.16042E-14-1.11637E-12
 -1      1375 2.33670E+01-1.69830E-01 2.68360E-02-4.10054E-01-6.32740E-14-6.00575E-13
 -1      1376 2.27008E+01-8.48161E-02 1.49776E-02-5.70823E-01-4.20722E-14-1.14477E-12
 -1      1377 2.19556E+01-4.69443E-02 7.56681E-03-6.13779E-01-3.91917E-14-1.17722E-12
 -1      1378 2.29437E+01-1.47855E-01 2.68657E-02-8.95094E-01-6.45595E-14-7.13110E-13
 -1      1379 2.14844E+01-1.71010E-02 5.30723E-03-6.79420E-01-2.52558E-14-1.24224E-12
 -1      1380 2.06525E+01 4.02901E-02-4.28846E-03-6.75915E-01-6.93976E-14-1.27919E-12
 -1      1381 2.21677E+01-4.61990E-02 1.30895E-02-1.21437E+00-8.42581E-14-8.11901E-13
 -1      1382 2.01953E+01 8.35658E-02-1.15534E-02-5.41694E-01-7.31949E-14-1.33412E-12
 -1      1383 1.95798E+01 1.34253E-01-1.95272E-02-4.76345E-01-7.29694E-14-1.39540E-12
 -1      1384 2.12468E+01 1.15001E-01-1.47388E-02-1.14430E+00-1.44004E-13-9.02278E-13
 -1      1385 1.93387E+01 1.62576E-01-2.51276E-02-1.59657E-01-6.40894E-14-1.51122E-12
 -1      1386 1.92101E+01 1.75437E-01-2.70182E-02-5.50646E-02-8.26440E-14-1.58895E-12
 -1      1387 2.05437E+01 2.58010E-01-4.26405E-02-5.97396E-01-1.45738E-13-1.03938E-12
 -1      1388 1.93122E+01 1.66292E-01-2.52465E-02 3.08834E-01-8.45018E-14-1.63041E-12
 -1      1389 1.97397E+01 1.32601E-01-1.98560E-02 4.00553E-01-5.14502E-14-1.72584E-12
 -1      1390 2.04018E+01 2.94646E-01-5.00273E-02 2.40409E-01-1.16802E-13-1.19825E-12
 -1      1391 2.01435E+01 9.38013E-02-1.28058E-02 6.43107E-01-6.73055E-14-1.81485E-12
 -1      1392 2.09488E+01 3.57058E-02-3.27357E-03 6.80029E-01-4.55851E-14-1.89863E-12
 -1      1393 2.09112E+01 2.00476E-01-3.09398E-02 9.83884E-01-1.14421E-13-1.31542E-12
 -1      1394 2.14761E+01-3.49161E-03 1.77300E-03 7.17125E-01-9.88185E-15-1.89831E-12
 -1      1395 2.23520E+01-5.40349E-02 1.08717E-02 6.95915E-01 2.72907E-14-1.87057E-12
 -1      1396 2.18408E+01 3.74035E-02-8.31987E-04 1.31570E+00-4.88934E-14-1.37053E-12
 -1      1397 2.28112E+01-7.22385E-02 9.68937E-03 5.63298E-01 2.39374E-14-1.88240E-12
 -1      1398 2.34956E+01-9.78189E-02 1.57199E-02 5.09955E-01 1.20320E-14-1.84320E-12
 -1      1399 2.28094E+01-1.01872E-01 2.09157E-02 1.18482E+00 3.38731E-14-1.36822E-12
 -1      1400 2.37746E+01-9.40926E-02 9.88948E-03 3.04704E-01 3.61881E-14-1.82177E-12
 -1      1401 2.41476E+01-9.62690E-02 1.28894E-02 2.48406E-01-1.64140E-14-1.75781E-12
 -1      1402 2.35154E+01-1.64231E-01 2.77757E-02 7.65307E-01 2.79551E-14-1.37093E-12
 -1      1403 2.42267E+01-8.14513E-02 6.12281E-03 5.57272E-02 2.27847E-14-1.62823E-12
 -1      1404 2.42997E+01-7.05625E-02 7.06122E-03 1.30597E-02 5.89416E-14-1.56558E-12
 -1      1405 2.38387E+01-1.56227E-01 2.36337E-02 2.82654E-01 7.24507E-14-1.31788E-12
 -1      1406 2.42168E+01-5.47499E-02 2.09921E-03-1.24735E-01 3.43649E-14-1.54869E-12
 -1      1407 2.40711E+01-4.02613E-02 2.04743E-03-1.49872E-01 4.45720E-14-1.46337E-12
 -1      1408 2.38076E+01-1.12069E-01 1.53407E-02-1.12105E-01 8.55331E-14-1.20192E-12
 -1      1409 2.38836E+01-2.84901E-02-3.97921E-04-2.26870E-01 9.04541E-14-1.36909E-12
 -1      1410 2.36132E+01-1.56795E-02-8.73831E-04-2.37478E-01 8.71156E-14-1.32318E-12
 -1      1411 2.35216E+01-6.25523E-02 7.47215E-03-3.65387E-01 1.21806E-13-1.08043E-12
 -1      1412 2.33744E+01-8.83985E-03-1.30512E-03-2.66059E-01 7.16869E-14-1.25026E-12
 -1      1413 2.30557E+01 5.23906E-04-1.97474E-03-2.67015E-01 1.02002E-13-1.13284E-12
 -1      1414 2.30901E+01-2.33064E-02 1.78341E-03-4.87815E-01 1.71422E-13-9.34332E-13
 -1      1415 2.28051E+01 3.44560E-03-1.21782E-03-2.63884E-01 3.00365E-14-1.10267E-12
 -1      1416 2.24885E+01 9.46496E-03-1.98943E-03-2.59467E-01 1.35963E-14-9.85968E-13
 -1      1417 2.26028E+01 2.05213E-03-1.64324E-03-5.15302E-01 1.22035E-13-7.51415E-13
 -1      1418 2.22512E+01 9.87800E-03-7.29374E-04-2.38890E-01-5.01905E-14-1.00677E-12
 -1      1419 2.19649E+01 1.33186E-02-1.54361E-03-2.32088E-01-2.43612E-14-1.09515E-12
 -1      1420 2.21211E+01 1.56979E-02-3.35569E-03-4.84994E-01-3.68858E-14-7.86719E-13
 -1      1421 2.17543E+01 1.23852E-02-2.07475E-04-2.04049E-01-4.71060E-14-1.08841E-12
 -1      1422 2.15102E+01 1.40671E-02-1.00822E-03-1.96679E-01-8.01215E-14-1.17102E-12
 -1      1423 2.16810E+01 2.13050E-02-3.96305E-03-4.25638E-01-1.02945E-13-7.56505E-13
 -1      1424 2.13317E+01 1.25636E-02 1.90755E-04-1.67296E-01 8.73496E-14-1.20639E-12
 -1      1425 2.11321E+01 1.31440E-02-5.49072E-04-1.60334E-01 1.30676E-13-1.04771E-12
 -1      1426 2.12996E+01 2.21095E-02-3.93600E-03-3.56209E-01-1.50190E-14-8.42095E-13
 -1      1427 2.09858E+01 1.15222E-02 4.34757E-04-1.32923E-01 7.32830E-14-1.01351E-12
 -1      1428 2.08278E+01 1.14637E-02-2.12995E-04-1.26815E-01 4.51785E-14-9.14100E-13
 -1      1429 2.09816E+01 2.04002E-02-3.58572E-03-2.87792E-01 1.66835E-13-8.74087E-13
 -1      1430 2.07112E+01 9.95457E-03 5.49410E-04-1.02890E-01-1.82056E-14-8.62570E-13
 -1      1431 2.05894E+01 9.55960E-03 7.43118E-06-9.77772E-02 2.69510E-14-7.92696E-13
 -1      1432 2.07244E+01 1.76075E-02-3.10011E-03-2.26041E-01 7.54219E-14-7.52899E-13
 -1      1433 2.04987E+01 8.26076E-03 5.73823E-04-7.77903E-02-2.26080E-14-8.71621E-13
 -1      1434 2.04070E+01 7.71678E-03 1.37397E-04-7.36505E-02-9.99353E-14-9.45506E-13
 -1      1435 2.05216E+01 1.45467E-02-2.58549E-03-1.73245E-01-1.35655E-13-7.49680E-13
 -1      1436 2.03380E+01 6.65269E-03 5.43253E-04-5.74791E-02-1.04798E-13-1.04737E-12
 -1      1437 2.02705E+01 6.07063E-03 2.03300E-04-5.42136E-02-1.42004E-13-1.24823E-12
 -1      1438 2.03652E+01 1.16409E-02-2.09810E-03-1.29771E-01-1.98435E-13-7.74823E-13
 -1      1439 2.02191E+01 5.22894E-03 4.83900E-04-4.14588E-02-4.81476E-14-1.31859E-12
 -1      1440 2.01708E+01 4.67059E-03 2.26958E-04-3.89396E-02 6.03362E-14-1.39228E-12
 -1      1441 2.02472E+01 9.08083E-03-1.66455E-03-9.49810E-02-1.49589E-13-8.56331E-13
 -1      1442 2.01334E+01 4.02308E-03 4.13199E-04-2.90988E-02 1.07701E-13-1.35053E-12
 -1      1443 2.00997E+01 3.51970E-03 2.24595E-04-2.71949E-02 1.18099E-13-1.27980E-12
 -1      1444 2.01602E+01 6.92790E-03-1.29433E-03-6.77915E-02 6.94891E-14-8.60502E-13
 -1      1445 2.00732E+01 3.03360E-03 3.41777E-04-1.97564E-02 5.33590E-15-1.28821E-12
 -1      1446 2.00506E+01 2.59804E-03 2.07515E-04-1.83465E-02-6.24384E-14-1.41089E-12
 -1      1447 2.00974E+01 5.17540E-03-9.87487E-04-4.69863E-02 7.31824E-14-1.04636E-12
 -1      1448 2.00323E+01 2.24171E-03 2.75498E-04-1.28373E-02 1.20476E-14-1.33521E-12
 -1      1449 2.00178E+01 1.87608E-03 1.83214E-04-1.18154E-02 9.19936E-14-1.28249E-12
 -1      1450 2.00534E+01 3.78461E-03-7.39191E-04-3.13857E-02 4.54718E-14-1.04339E-12
 -1      1451 2.00057E+01 1.62146E-03 2.17129E-04-7.82173E-03 1.87993E-13-1.40865E-12
 -1      1452 1.99971E+01 1.32186E-03 1.56440E-04-7.09843E-03 1.41987E-13-1.17501E-12
 -1      1453 2.00236E+01 2.70464E-03-5.42420E-04-1.99265E-02 1.33870E-13-8.23114E-13
 -1      1454 1.99895E+01 1.14527E-03 1.67537E-04-4.27132E-03 1.00449E-13-1.06996E-12
 -1      1455 1.99850E+01 9.04733E-04 1.30042E-04-3.77340E-03 1.09739E-13-1.02275E-12
 -1      1456 2.00042E+01 1.88291E-03-3.89472E-04-1.16939E-02 1.62689E-13-8.24049E-13
 -1      1457 1.99807E+01 7.86796E-04 1.26498E-04-1.82677E-03-4.28303E-14-9.84224E-13
 -1      1458 1.99790E+01 5.97045E-04 1.05590E-04-1.49553E-03-1.67759E-13-1.09709E-12
 -1      1459 1.99925E+01 1.27018E-03-2.72798E-04-5.92573E-03 5.83529E-14-8.21063E-13
 -1      1460 1.99769E+01 5.22250E-04 9.32064E-05-2.00460E-04-8.81705E-14-9.84056E-13
 -1      1461 1.99770E+01 3.74757E-04 8.38106E-05 1.01099E-05-5.13612E-14-1.08240E-12
 -1      1462 1.99862E+01 8.22825E-04-1.85451E-04-2.00342E-03-1.25871E-13-8.07279E-13
 -1      1463 1.99765E+01 3.30891E-04 6.65959E-05 8.32589E-04-2.03961E-13-1.11579E-12
 -1      1464 1.99778E+01 2.17435E-04 6.48916E-05 9.57704E-04-1.33287E-13-1.26691E-12
 -1      1465 1.99836E+01 5.03321E-04-1.21280E-04 5.63324E-04-1.85358E-13-7.34787E-13
 -1      1466 1.99783E+01 1.94938E-04 4.55453E-05 1.44373E-03 6.18525E-15-1.28944E-12
 -1      1467 1.99802E+01 1.07866E-04 4.87106E-05 1.50953E-03 2.44069E-14-1.34559E-12
 -1      1468 1.99835E+01 2.79983E-04-7.49646E-05 2.15358E-03-1.22194E-13-6.86920E-13
 -1      1469 1.99813E+01 9.91789E-05 2.90412E-05 1.75881E-03 2.85680E-14-1.26341E-12
 -1      1470 1.99836E+01 3.14534E-05 3.50868E-05 1.78375E-03 1.08165E-13-1.09618E-12
 -1      1471 1.99849E+01 1.26092E-04-4.19503E-05 3.05138E-03 6.80480E-14-6.28882E-13
 -1      1472 1.99850E+01 3.03302E-05 1.64397E-05 1.86465E-03 2.09781E-13-1.09632E-12
 -1      1473 1.99873E+01-2.45489E-05 2.41788E-05 1.86047E-03 1.88522E-13-7.35575E-13
 -1      1474 1.99873E+01 1.86066E-05-1.82876E-05 3.45955E-03 2.13584E-13-3.99517E-13
 -1      1475 1.99888E+01-2.38026E-05 7.94075E-06 1.81345E-03 2.05940E-13-7.43454E-13
 -1      1476 1.99911E+01-7.19452E-05 1.70692E-05 1.78558E-03 1.37858E-13-5.08345E-13
 -1      1477 1.99901E+01-6.34015E-05-3.32599E-07 3.51009E-03 3.52597E-13-2.28952E-13
 -1      1478 1.99925E+01-7.53107E-05 5.36870E-06 1.62488E-03-3.65300E-14-5.01840E-13
 -1      1479 1.99945E+01-1.22127E-04 1.61472E-05 1.57178E-03-3.30153E-14-5.13291E-13
 -1      1480 1.99929E+01-1.40980E-04 1.54748E-05 3.27089E-03 9.81381E-14-3.22612E-13
 -1      1481 1.99957E+01-1.36497E-04 1.16655E-05 1.28807E-03 6.33482E-14-4.78748E-13
 -1      1482 1.99973E+01-1.84277E-04 1.93297E-05 1.19938E-03 1.28632E-13-3.90142E-13
 -1      1483 1.99955E+01-2.37194E-04 3.11577E-05 2.74823E-03 5.08519E-14-3.04066E-13
 -1      1484 1.99982E+01-2.25371E-04 2.01902E-05 7.66638E-04 1.64839E-13-3.19701E-13
 -1      1485 1.99990E+01-2.35234E-04 1.15083E-05 6.42425E-04 5.24268E-14-1.12482E-13
 -1      1486 1.99977E+01-3.77677E-04 4.40156E-05 1.91440E-03 2.55876E-13-2.71129E-13
 -1      1487 1.99997E+01-1.20905E-04 1.49480E-05 2.66503E-05-2.10199E-14 4.24056E-14
 -1      1488 1.99993E+01-4.58072E-04 2.91571E-05 6.46214E-04 9.72383E-14-2.43237E-14
 -1      1489 2.12257E+01 7.24950E-02-1.43873E-01 3.25731E-01 3.18662E-13 2.97326E-12
 -1      1490 2.22523E+01 2.17666E-01-2.26885E-01 5.53109E-01 2.69021E-13 3.45068E-12
 -1      1491 2.24704E+01 8.43355E-01-9.24920E-02 1.75047E+00 5.25441E-13 2.29378E-12
 -1      1492 2.06895E+01 3.45264E-02-1.82656E-02 3.07853E-02 2.22570E-13 2.35263E-12
 -1      1493 2.08900E+01 1.17146E-01-5.76020E-02 8.43752E-02 2.27107E-13 2.72309E-12
 -1      1494 2.13699E+01 1.78853E-01-5.72165E-02 4.88747E-01 4.75037E-13 1.84211E-12
 -1      1495 2.07286E+01 1.96392E-02 5.44976E-03-1.15507E-01 1.34787E-13 1.93823E-12
 -1      1496 2.06374E+01 5.95828E-02 3.35279E-03-8.31475E-02 1.48190E-13 2.17319E-12
 -1      1497 2.09810E+01 7.54835E-02-1.52254E-02-1.07453E-02 3.40819E-13 1.44642E-12
 -1      1498 2.10868E+01 1.19164E-02 5.54576E-03-1.98991E-01 1.22942E-13 1.64637E-12
 -1      1499 2.08459E+01 3.59773E-02 1.16403E-02-1.76519E-01 1.05112E-13 1.82113E-12
 -1      1500 2.10390E+01 4.00159E-02-6.54978E-03-2.59176E-01 2.25544E-13 1.16216E-12
 -1      1501 2.16300E+01 5.72766E-03 3.61064E-03-2.47617E-01 9.27897E-14 1.41386E-12
 -1      1502 2.13032E+01 2.26517E-02 8.31038E-03-2.31825E-01 8.76825E-14 1.55521E-12
 -1      1503 2.13579E+01 2.19701E-02-5.76394E-03-4.01694E-01 1.73189E-13 9.97839E-13
 -1      1504 2.22644E+01-1.98825E-03 3.87676E-03-2.64467E-01 1.43362E-14 1.29600E-12
 -1      1505 2.18978E+01 1.00097E-02 5.02771E-03-2.56104E-01 4.01465E-14 1.36075E-12
 -1      1506 2.18266E+01 6.56161E-03-4.52011E-03-4.75505E-01 1.06703E-13 8.76426E-13
 -1      1507 2.28918E+01-1.28503E-02 6.80041E-03-2.40971E-01 6.18056E-14 1.16881E-12
 -1      1508 2.25378E+01-6.46886E-03 3.60316E-03-2.43452E-01 3.44837E-14 1.22516E-12
 -1      1509 2.23564E+01-1.28850E-02-1.05528E-03-4.79719E-01 8.13403E-14 7.36891E-13
 -1      1510 2.33888E+01-2.70832E-02 1.22916E-02-1.62911E-01 7.73951E-14 9.83821E-13
 -1      1511 2.31173E+01-2.90038E-02 3.96320E-03-1.81389E-01 8.54390E-14 1.12377E-12
 -1      1512 2.28542E+01-3.96936E-02 5.12150E-03-3.95549E-01 1.34486E-13 6.47727E-13
 -1      1513 2.36044E+01-4.22204E-02 1.92622E-02-1.85645E-02 7.07316E-14 8.28283E-13
 -1      1514 2.35034E+01-5.63601E-02 5.88132E-03-5.78291E-02 6.01828E-14 9.40077E-13
 -1      1515 2.32101E+01-7.32889E-02 1.37310E-02-1.99648E-01 1.21586E-13 5.72652E-13
 -1      1516 2.33848E+01-5.15165E-02 2.43511E-02 1.86735E-01 2.82621E-14 7.46223E-13
 -1      1517 2.35445E+01-8.12376E-02 8.53074E-03 1.26704E-01 2.41369E-14 8.04396E-13
 -1      1518 2.33015E+01-1.05681E-01 2.28714E-02 1.15639E-01 7.20118E-14 5.25042E-13
 -1      1519 2.26399E+01-4.43650E-02 2.14405E-02 4.11348E-01 4.64160E-14 6.69464E-13
 -1      1520 2.31116E+01-8.88232E-02 9.61379E-03 3.41696E-01 1.65961E-14 6.82173E-13
 -1      1521 2.30240E+01-1.18610E-01 2.80379E-02 5.11673E-01 3.83686E-14 4.97442E-13
 -1      1522 2.14426E+01-1.27046E-02 4.81358E-03 5.67848E-01 5.44406E-14 6.11733E-13
 -1      1523 2.21776E+01-6.19414E-02 5.53488E-03 5.14212E-01 4.91009E-14 6.40252E-13
 -1      1524 2.23503E+01-8.70254E-02 2.33817E-02 8.75039E-01 5.22950E-14 4.54695E-13
 -1      1525 2.01019E+01 3.74187E-02-2.34366E-02 5.50909E-01 2.49969E-14 5.20410E-13
 -1      1526 2.09098E+01 3.77075E-03-5.63545E-03 5.45077E-01 2.35558E-14 5.74402E-13
 -1      1527 2.14044E+01 2.45981E-03 6.49084E-03 1.02852E+00 6.55413E-14 4.26915E-13
 -1      1528 1.91087E+01 8.07809E-02-4.91171E-02 3.11159E-01 2.43416E-14 3.95080E-13
 -1      1529 1.96952E+01 8.45966E-02-1.99443E-02 3.68833E-01 2.98928E-14 4.68625E-13
 -1      1530 2.04855E+01 1.25535E-01-1.62021E-02 8.20090E-01 5.23991E-14 2.73219E-13
 -1      1531 1.89053E+01 8.89199E-02-5.39952E-02-7.63862E-02-6.34822E-14 3.47415E-13
 -1      1532 1.90127E+01 1.35647E-01-2.79829E-02 2.49984E-02 5.20764E-15 3.39019E-13
 -1      1533 1.99714E+01 2.16210E-01-3.18159E-02 2.58423E-01 4.08389E-14 2.07170E-13
 -1      1534 1.96080E+01 5.62383E-02-3.25615E-02-4.37641E-01 7.11931E-14 2.93501E-13
 -1      1535 1.91755E+01 1.25821E-01-2.25464E-02-3.39085E-01 8.16014E-15 3.03955E-13
 -1      1536 2.01084E+01 2.11793E-01-3.21563E-02-4.34182E-01 8.07861E-15 7.67875E-14
 -1      1537 2.09254E+01 5.20604E-03 1.30866E-03-6.15299E-01 2.12867E-13-1.15200E-13
 -1      1538 2.01315E+01 6.46748E-02-6.05519E-03-5.61181E-01 1.94873E-13 2.04552E-13
 -1      1539 2.08500E+01 1.12018E-01-1.98103E-02-9.47596E-01 2.56592E-13-9.50490E-14
 -1      1540 2.23520E+01-3.41885E-02 2.72372E-02-5.72949E-01-7.77069E-14-3.29507E-13
 -1      1541 2.14967E+01-6.81799E-03 1.08117E-02-5.72953E-01 8.55184E-14-1.84262E-13
 -1      1542 2.18885E+01-1.88000E-02-5.09150E-03-1.09173E+00 2.19978E-13-1.52593E-13
 -1      1543 2.34632E+01-4.92704E-02 3.56871E-02-3.87298E-01-6.42958E-14-7.93254E-14
 -1      1544 2.27967E+01-5.38998E-02 1.93431E-02-4.23362E-01-1.35580E-13-2.74024E-13
 -1      1545 2.28568E+01-1.09045E-01 5.03494E-03-8.95760E-01-1.22057E-13-3.09853E-13
 -1      1546 2.40663E+01-4.46995E-02 2.99884E-02-1.64459E-01 2.65933E-15-8.51333E-14
 -1      1547 2.37009E+01-6.79590E-02 1.83984E-02-2.11713E-01 1.85789E-15-7.88744E-14
 -1      1548 2.35081E+01-1.35259E-01 8.88665E-03-5.24395E-01-4.05995E-14-2.90990E-13
 -1      1549 2.41788E+01-3.10977E-02 1.86681E-02 2.18178E-02-5.83041E-15-1.62899E-13
 -1      1550 2.41019E+01-5.87832E-02 1.21506E-02-1.93044E-02 1.10658E-14-9.39665E-14
 -1      1551 2.37675E+01-1.14530E-01 8.46068E-03-1.44195E-01-6.77930E-15-3.09816E-13
 -1      1552 2.39290E+01-1.68714E-02 8.09141E-03 1.43749E-01 5.42001E-14-2.92466E-13
 -1      1553 2.40628E+01-4.01942E-02 5.32307E-03 1.15557E-01 5.39607E-14-1.55006E-13
 -1      1554 2.36862E+01-7.51875E-02 6.30589E-03 1.47702E-01 8.67665E-14-2.93448E-13
 -1      1555 2.34672E+01-5.91375E-03 8.70224E-04 2.04888E-01-2.56060E-14-3.90007E-13
 -1      1556 2.37222E+01-2.18100E-02 3.95781E-04 1.89386E-01-1.17484E-14-4.01616E-13
 -1      1557 2.33700E+01-3.74783E-02 3.99545E-03 3.25206E-01 6.84400E-14-4.97892E-13
 -1      1558 2.29178E+01 1.06616E-03-3.00176E-03 2.21478E-01-3.49355E-14-3.34698E-13
 -1      1559 2.32212E+01-7.79635E-03-2.18297E-03 2.15529E-01-4.45826E-14-3.68145E-13
 -1      1560 2.29270E+01-9.86249E-03 2.17007E-03 4.04015E-01-8.89978E-15-5.29237E-13
 -1      1561 2.23655E+01 4.79667E-03-4.49733E-03 2.10693E-01-2.26240E-15-2.15425E-13
 -1      1562 2.26686E+01 1.23176E-03-3.00601E-03 2.10838E-01 3.43551E-15-2.29912E-13
 -1      1563 2.24422E+01 6.93594E-03 9.25930E-04 4.13919E-01-4.47492E-14-4.32498E-13
 -1      1564 2.18594E+01 6.31818E-03-4.62663E-03 1.85908E-01 3.73257E-14-2.37236E-13
 -1      1565 2.21349E+01 6.19675E-03-2.84087E-03 1.89396E-01-2.05143E-14-2.16594E-13
 -1      1566 2.19720E+01 1.53391E-02 1.54664E-04 3.83146E-01 8.51597E-15-2.32945E-13
 -1      1567 2.14223E+01 6.51818E-03-4.11096E-03 1.55989E-01-1.18175E-13-1.28736E-13
 -1      1568 2.16582E+01 8.35256E-03-2.26978E-03 1.60951E-01-7.31208E-15-2.10303E-13
 -1      1569 2.15484E+01 1.82445E-02-2.88070E-04 3.32778E-01-4.99878E-14-1.64005E-13
 -1      1570 2.10604E+01 6.02002E-03-3.37524E-03 1.26137E-01-1.27669E-13 2.08317E-13
 -1      1571 2.12540E+01 8.77676E-03-1.62776E-03 1.31439E-01-1.85339E-13-1.02765E-13
 -1      1572 2.11855E+01 1.79861E-02-5.18334E-04 2.76465E-01-2.60938E-13-8.29458E-15
 -1      1573 2.07703E+01 5.21510E-03-2.63528E-03 9.90340E-02 9.89464E-14 1.60773E-13
 -1      1574 2.09240E+01 8.24407E-03-1.06662E-03 1.04052E-01 8.60865E-14 2.86006E-13
 -1      1575 2.08859E+01 1.61481E-02-6.15768E-04 2.22057E-01-5.24366E-14-1.38938E-14
 -1      1576 2.05440E+01 4.32930E-03-1.98338E-03 7.57955E-02 7.61706E-14-3.25998E-14
 -1      1577 2.06628E+01 7.25695E-03-6.32592E-04 8.02328E-02 9.28968E-14 1.51607E-13
 -1      1578 2.06458E+01 1.36966E-02-6.32002E-04 1.73480E-01 1.45184E-13 9.46287E-14
 -1      1579 2.03717E+01 3.48245E-03-1.44752E-03 5.66392E-02-7.27108E-14-1.02403E-13
 -1      1580 2.04613E+01 6.11762E-03-3.22057E-04 6.03925E-02-2.86323E-14-1.82531E-13
 -1      1581 2.04582E+01 1.11705E-02-6.00373E-04 1.32236E-01 8.13503E-14-4.28497E-14
 -1      1582 2.02435E+01 2.73077E-03-1.02574E-03 4.13124E-02 2.82093E-14-6.79491E-15
 -1      1583 2.03094E+01 4.99534E-03-1.13312E-04 4.43862E-02-4.23086E-14-3.80555E-14
 -1      1584 2.03151E+01 8.84163E-03-5.42723E-04 9.84534E-02-7.95100E-14-7.29248E-15
 -1      1585 2.01503E+01 2.09405E-03-7.04013E-04 2.93483E-02 5.80930E-14-6.24158E-14
 -1      1586 2.01976E+01 3.97611E-03 1.83725E-05 3.18020E-02 4.20067E-14-6.59015E-14
 -1      1587 2.02082E+01 6.82573E-03-4.73389E-04 7.15456E-02 4.33356E-14-2.20338E-13
 -1      1588 2.00845E+01 1.57232E-03-4.64860E-04 2.02123E-02-1.31663E-14-1.82112E-13
 -1      1589 2.01175E+01 3.09593E-03 9.48557E-05 2.21285E-02 5.70198E-14 2.03722E-15
 -1      1590 2.01303E+01 5.15160E-03-4.01573E-04 5.06147E-02 2.82290E-14-2.32618E-13
 -1      1591 2.00394E+01 1.15579E-03-2.91311E-04 1.33813E-02 3.77289E-14-2.33615E-13
 -1      1592 2.00616E+01 2.36221E-03 1.33511E-04 1.48483E-02 9.15354E-15-2.00368E-13
 -1      1593 2.00749E+01 3.80304E-03-3.32925E-04 3.46792E-02 5.73163E-14-2.26174E-13
 -1      1594 2.00098E+01 8.30567E-04-1.68512E-04 8.38253E-03 8.88493E-14-3.66092E-13
 -1      1595 2.00240E+01 1.76710E-03 1.47341E-04 9.48407E-03 4.99913E-14-2.61975E-13
 -1      1596 2.00368E+01 2.74316E-03-2.70652E-04 2.27979E-02 8.14114E-14-8.68475E-14
 -1      1597 1.99916E+01 5.81843E-04-8.41448E-05 4.80851E-03-1.35076E-13-1.50574E-13
 -1      1598 2.00000E+01 1.29542E-03 1.45683E-04 5.61965E-03-1.11350E-13-3.40747E-13
 -1      1599 2.00116E+01 1.92815E-03-2.16303E-04 1.41282E-02-9.18222E-14 2.47568E-14
 -1      1600 1.99813E+01 3.95472E-04-2.83140E-05 2.31977E-03 4.00207E-14-1.30206E-13
 -1      1601 1.99857E+01 9.29360E-04 1.35031E-04 2.90499E-03 9.34868E-15-1.20042E-13
 -1      1602 1.99958E+01 1.31442E-03-1.70320E-04 7.94860E-03-1.24692E-14-1.66635E-13
 -1      1603 1.99766E+01 2.58717E-04 6.76298E-06 6.40984E-04 1.32696E-13-1.09623E-13
 -1      1604 1.99783E+01 6.50927E-04 1.19765E-04 1.05399E-03 2.62182E-14-1.20158E-13
 -1      1605 1.99868E+01 8.61975E-04-1.32439E-04 3.66069E-03 5.38893E-14-7.98580E-14
 -1      1606 1.99757E+01 1.60503E-04 2.71090E-05-4.45858E-04-1.03304E-13-1.52791E-13
 -1      1607 1.99755E+01 4.43304E-04 1.02736E-04-1.61467E-04 2.62000E-14-1.28476E-13
 -1      1608 1.99825E+01 5.35860E-04-1.01962E-04 7.81132E-04 4.95117E-14 1.02765E-13
 -1      1609 1.99772E+01 9.13776E-05 3.73354E-05-1.10909E-03-1.21406E-13 1.37496E-13
 -1      1610 1.99759E+01 2.91373E-04 8.57103E-05-9.18882E-04-1.22834E-13-6.25102E-14
 -1      1611 1.99814E+01 3.06335E-04-7.79352E-05-1.07095E-03-2.19488E-13 1.27928E-13
 -1      1612 1.99801E+01 4.33163E-05 4.09783E-05-1.47468E-03-1.87730E-13 3.67608E-13
 -1      1613 1.99781E+01 1.81802E-04 6.96988E-05-1.35236E-03-8.48133E-14 2.31194E-13
 -1      1614 1.99824E+01 1.48507E-04-5.92449E-05-2.18764E-03-1.80657E-13 2.68977E-13
 -1      1615 1.99838E+01 9.39513E-06 4.09060E-05-1.63250E-03 1.92511E-13 3.38929E-13
 -1      1616 1.99815E+01 1.02792E-04 5.52470E-05-1.55907E-03 6.79193E-15 3.37664E-13
 -1      1617 1.99847E+01 4.15716E-05-4.46192E-05-2.78498E-03-5.95930E-14 2.98498E-13
 -1      1618 1.99878E+01-1.67432E-05 4.00030E-05-1.64084E-03 2.33317E-13-3.81001E-13
 -1      1619 1.99854E+01 4.34429E-05 4.28133E-05-1.60418E-03 2.32891E-13 6.27495E-14
 -1      1620 1.99876E+01-3.23007E-05-3.24315E-05-3.01354E-03 4.35431E-13 1.04947E-13
 -1      1621 1.99916E+01-4.12387E-05 4.21146E-05-1.52857E-03 9.31135E-14-5.14378E-13
 -1      1622 1.99894E+01-7.06712E-06 3.34564E-05-1.52373E-03 1.18587E-13-3.41433E-13
 -1      1623 1.99907E+01-8.94233E-05-2.01946E-05-2.96537E-03 2.38626E-13 9.61248E-15
 -1      1624 1.99951E+01-7.05241E-05 5.10367E-05-1.29585E-03-8.28508E-14-5.47372E-13
 -1      1625 1.99931E+01-6.01494E-05 2.93083E-05-1.32602E-03-1.13519E-14-5.20962E-13
 -1      1626 1.99937E+01-1.46363E-04-4.41886E-06-2.67791E-03 1.36533E-15 2.29651E-13
 -1      1627 1.99978E+01-1.11275E-04 6.05367E-05-9.12490E-04-2.06985E-13-4.58066E-13
 -1      1628 1.99963E+01-1.28398E-04 3.07397E-05-9.93942E-04-1.73950E-13-6.40271E-13
 -1      1629 1.99964E+01-2.22711E-04 1.61739E-05-2.13777E-03-9.88814E-14 1.33055E-13
 -1      1630 1.99993E+01-1.63397E-04 1.67952E-05-3.79429E-04-1.46854E-14-2.65656E-13
 -1      1631 1.99986E+01-2.00972E-04 2.75300E-05-5.07120E-04-4.74402E-14-3.78739E-13
 -1      1632 1.99984E+01-3.28248E-04 3.32920E-05-1.30514E-03-1.08719E-13 2.82743E-14
 -1      1633 1.99997E+01-1.37617E-04 6.07730E-06-5.16182E-05-1.06588E-13-1.12822E-13
 -1      1634 1.99996E+01-1.60120E-03 2.79586E-05-7.77044E-04 2.58608E-13 2.37353E-13
 -1      1635 1.99996E+01-8.07633E-04 1.74603E-06-6.35293E-04-1.10131E-13 3.65751E-13
 -1      1636 1.99997E+01-3.86479E-03 8.93163E-06-1.18292E-03 5.00262E-13-1.30318E-13
 -1      1637 1.99997E+01-2.50324E-03 1.74437E-05-1.12329E-03 4.27292E-13 1.61590E-14
 -1      1638 1.99995E+01-2.15998E-03 3.08512E-05-1.82981E-03 1.30759E-13 2.96014E-13
 -1      1639 1.99998E+01-6.53856E-03-3.82158E-06-1.32686E-03 2.49576E-13-1.20601E-13
 -1      1640 1.99998E+01-4.95315E-03 6.90697E-06-1.32012E-03 6.61556E-13-2.22307E-13
 -1      1641 1.99997E+01-4.12577E-03 1.49531E-05-2.40258E-03 3.78021E-13-6.77925E-14
 -1      1642 1.99999E+01-9.19563E-03-8.47437E-06-1.25746E-03-1.93476E-13-2.46691E-13
 -1      1643 1.99998E+01-7.66168E-03-4.16286E-07-1.28811E-03 7.68094E-14-7.05269E-14
 -1      1644 1.99998E+01-6.30621E-03-6.65252E-06-2.51222E-03-8.22703E-16-3.65070E-13
 -1      1645 1.99999E+01-1.14603E-02-8.32874E-06-1.04178E-03-1.00909E-12-3.43926E-13
 -1      1646 1.99999E+01-1.01892E-02-2.22544E-06-1.09453E-03-5.09420E-13-3.96902E-13
 -1      1647 1.99999E+01-8.38810E-03-2.29392E-05-2.26233E-03-3.23535E-13-6.85632E-13
 -1      1648 1.99999E+01-1.31777E-02-6.49257E-06-7.26003E-04-1.06487E-12-3.32883E-14
 -1      1649 1.99999E+01-1.22558E-02-2.69497E-06-7.94006E-04-1.08433E-12 3.41033E-14
 -1      1650 2.00000E+01-1.01422E-02-3.25114E-05-1.76791E-03-5.37303E-13-3.35495E-13
 -1      1651 1.99999E+01-1.41554E-02-4.41771E-06-3.54242E-04-1.16011E-12-8.76461E-15
 -1      1652 1.99999E+01-1.36795E-02-2.48659E-06-4.29472E-04-1.06756E-12-1.82589E-13
 -1      1653 2.00000E+01-1.14101E-02-3.82639E-05-1.11380E-03-6.49783E-13-1.56308E-13
 -1      1654 1.99999E+01-1.43215E-02-3.00524E-06 4.17316E-05-7.60708E-13 3.07099E-13
 -1      1655 1.99999E+01-1.43252E-02-3.02126E-06-3.56989E-05-1.14009E-12 3.02662E-13
 -1      1656 2.00000E+01-1.20665E-02-4.07729E-05-3.76055E-04-5.06317E-13 1.65831E-13
 -1      1657 1.99999E+01-1.36634E-02-2.41190E-06 4.35247E-04-8.75771E-13-8.14089E-14
 -1      1658 1.99999E+01-1.41466E-02-4.45343E-06 3.60125E-04-8.67771E-13 6.06901E-14
 -1      1659 2.00000E+01-1.20614E-02-4.07506E-05 3.87559E-04-5.34828E-13 1.89023E-13
 -1      1660 1.99999E+01-1.22286E-02-2.44781E-06 7.99085E-04-1.17758E-12-3.81925E-13
 -1      1661 1.99999E+01-1.31569E-02-6.74271E-06 7.31413E-04-8.59157E-13-1.22025E-13
 -1      1662 2.00000E+01-1.13954E-02-3.81165E-05 1.12468E-03-8.64815E-13-1.07261E-13
 -1      1663 1.99999E+01-1.01715E-02-2.59348E-06 1.09548E-03-1.57874E-12 8.64308E-14
 -1      1664 1.99999E+01-1.14463E-02-8.61055E-06 1.04332E-03-1.26465E-12-4.26757E-13
 -1      1665 2.00000E+01-1.01324E-02-3.25758E-05 1.77301E-03-8.75030E-13-5.71530E-13
 -1      1666 1.99998E+01-7.61927E-03-4.37901E-07 1.29021E-03-8.81885E-13 3.41632E-13
 -1      1667 1.99999E+01-9.15725E-03-8.73021E-06 1.26004E-03-1.45831E-12 5.74388E-13
 -1      1668 1.99999E+01-8.37348E-03-2.24927E-05 2.26599E-03-5.91451E-13 5.28397E-13
 -1      1669 1.99998E+01-4.91352E-03 6.05183E-06 1.32360E-03-5.10839E-13 1.47332E-13
 -1      1670 1.99998E+01-6.49663E-03-4.05417E-06 1.32732E-03-6.88619E-13 9.83738E-14
 -1      1671 1.99998E+01-6.27251E-03-6.45675E-06 2.51413E-03-3.05973E-13 4.07339E-13
 -1      1672 1.99997E+01-2.50998E-03 3.13409E-06 1.11688E-03-2.34892E-13 1.54188E-13
 -1      1673 1.99997E+01-3.83423E-03 7.40942E-06 1.17656E-03-3.47038E-13 1.61855E-13
 -1      1674 1.99997E+01-4.08943E-03 1.38138E-05 2.39812E-03-1.02833E-13 1.15038E-13
 -1      1675 1.99995E+01-1.01463E-03-1.75025E-05 9.04826E-04 1.00840E-13-9.44715E-15
 -1      1676 1.99995E+01-1.80492E-03 5.86438E-06 1.11303E-03-8.92244E-15-8.30553E-15
 -1      1677 1.99994E+01-2.29202E-03 4.16954E-05 2.12334E-03 1.00005E-13 2.25782E-13
 -1      1678 1.99988E+01-1.05468E-03 8.05039E-06 1.73768E-03 1.68113E-13-1.07945E-13
 -1      1679-3.75576E-01-1.33462E+01-1.45750E+00-5.95620E-01 1.67144E-12 9.55097E-13
 -1      1680-4.45016E-01-1.56074E+01-1.64100E+00 4.71127E-01 6.27706E-13 7.52315E-13
 -1      1681 1.36146E+00-7.64588E+00-1.19660E+00 4.22573E-01 2.51255E-12 1.20579E-12
 -1      1682 6.65961E-01-1.27265E+01-1.66809E+00-1.63058E-01 2.16516E-12 8.78950E-13
 -1      1683 7.44125E+00-2.50578E-01-5.16777E-01 4.79439E+00 2.40896E-12 1.82099E-12
 -1      1684 4.21061E+00-5.63905E+00-1.25925E+00 1.84968E+00 2.49378E-12 1.37007E-12
 -1      1685 1.78676E+01 5.18309E+00 2.77279E-01 9.84877E+00 2.14173E-12 2.32869E-12
 -1      1686 1.12637E+01 1.84943E+00-6.23462E-01 6.12894E+00 2.33924E-12 1.96931E-12
 -1      1687 3.35118E+01 6.46727E+00 1.12733E+00 1.27762E+01 1.49958E-12 2.23443E-12
 -1      1688 2.33802E+01 6.29567E+00 1.96838E-01 1.07752E+01 1.96143E-12 2.31082E-12
 -1      1689 4.72004E+01 4.82643E+00 1.66321E+00 1.01034E+01 1.00672E-12 9.49019E-13
 -1      1690 3.89066E+01 6.41501E+00 1.03847E+00 1.19554E+01 1.46000E-12 1.81899E-12
 -1      1691 5.46609E+01 3.43947E+00 1.83295E+00 2.96208E+00 6.39266E-13-6.52867E-13
 -1      1692 5.05334E+01 4.69611E+00 1.63009E+00 8.08046E+00 7.98708E-13 4.99600E-13
 -1      1693 5.16295E+01 4.44907E+00 1.54473E+00-5.09352E+00 1.07533E-12-2.24398E-12
 -1      1694 5.35627E+01 3.89488E+00 1.66254E+00 3.33057E-01 8.64087E-13-1.05731E-12
 -1      1695 4.30344E+01 6.14714E+00 1.25424E+00-1.14310E+01 1.86517E-12-3.61999E-12
 -1      1696 5.06741E+01 4.21960E+00 1.72978E+00-8.01444E+00 1.17584E-12-2.92999E-12
 -1      1697 2.90842E+01 6.56611E+00 4.92700E-01-1.15829E+01 2.79432E-12-3.90044E-12
 -1      1698 3.82763E+01 5.95334E+00 1.27834E+00-1.22208E+01 2.18725E-12-3.75400E-12
 -1      1699 1.58018E+01 4.17844E+00-3.06786E-01-8.28237E+00 3.43969E-12-3.52074E-12
 -1      1700 2.36794E+01 6.17290E+00 5.93347E-01-1.15369E+01 3.06222E-12-3.98259E-12
 -1      1701 6.53307E+00-2.19775E+00-1.04521E+00-3.43230E+00 3.23142E-12-2.51343E-12
 -1      1702 1.12039E+01 2.63462E+00-1.87802E-01-7.03244E+00 3.47433E-12-3.26050E-12
 -1      1703 1.68210E+00-1.01200E+01-1.58949E+00-2.25218E-01 1.98852E-12-1.44504E-12
 -1      1704 3.29295E+00-4.37794E+00-9.49061E-01-1.96657E+00 2.93521E-12-2.27984E-12
 -1      1705-1.06025E-01-1.55329E+01-1.78674E+00-4.71681E-02 2.63678E-13-8.24896E-13
 -1      1706 1.13514E-01-1.17189E+01-1.44322E+00 4.29248E-01 1.49358E-12-1.17917E-12
 -1      1707-7.77131E-01-1.68656E+01-1.88703E+00-8.26162E-01-1.53155E-12-8.16291E-13
 -1      1708-7.86017E-01-1.67966E+01-1.86630E+00 8.05117E-01-2.71810E-13-6.82981E-13
 -1      1709-1.40578E-01-1.22842E+01-1.55825E+00-8.50649E-01-3.16946E-12-1.60399E-12
 -1      1710-2.70918E-01-1.61388E+01-1.91800E+00-2.55503E-01-2.04814E-12-1.01608E-12
 -1      1711 3.31035E+00-4.74489E+00-9.56450E-01 2.04438E+00-3.93263E-12-2.49473E-12
 -1      1712 1.70456E+00-1.03553E+01-1.60253E+00 3.24472E-01-3.40372E-12-1.84275E-12
 -1      1713 1.29410E+01 1.94145E+00-1.28320E-01 7.46630E+00-3.60356E-12-3.28726E-12
 -1      1714 7.64567E+00-2.93691E+00-9.62205E-01 3.69793E+00-3.76543E-12-2.69851E-12
 -1      1715 2.65877E+01 5.31802E+00 6.72312E-01 1.11765E+01-2.88480E-12-3.40294E-12
 -1      1716 1.81517E+01 3.54615E+00-2.03766E-01 8.18164E+00-3.43348E-12-3.38718E-12
 -1      1717 4.09927E+01 5.95414E+00 1.48060E+00 1.21857E+01-1.93057E-12-3.21076E-12
 -1      1718 3.14998E+01 6.94229E+00 6.72063E-01 1.21455E+01-2.68974E-12-3.68194E-12
 -1      1719 5.24353E+01 4.00675E+00 1.89182E+00 7.07300E+00-1.07690E-12-1.83287E-12
 -1      1720 4.55944E+01 5.70640E+00 1.42246E+00 1.08270E+01-1.60237E-12-2.87881E-12
 -1      1721 5.55119E+01 3.43820E+00 1.89569E+00-1.25124E+00-7.07046E-13-5.26801E-14
 -1      1722 5.44893E+01 3.80648E+00 1.86253E+00 4.42608E+00-8.39051E-13-1.30751E-12
 -1      1723 4.84474E+01 5.02963E+00 1.46331E+00-8.48246E+00-9.28368E-13 1.29929E-12
 -1      1724 5.36767E+01 3.70578E+00 1.81977E+00-3.75591E+00-6.19782E-13 3.60489E-13
 -1      1725 3.61651E+01 6.65370E+00 8.88514E-01-1.21466E+01-1.49963E-12 2.27729E-12
 -1      1726 4.50848E+01 5.12621E+00 1.55781E+00-1.08524E+01-1.03348E-12 1.79523E-12
 -1      1727 2.18964E+01 5.88609E+00 9.37757E-02-1.03157E+01-2.26485E-12 2.46914E-12
 -1      1728 3.09158E+01 6.45108E+00 9.68620E-01-1.25410E+01-1.75027E-12 2.42295E-12
 -1      1729 1.04308E+01 1.25224E+00-7.02716E-01-5.66824E+00-2.55218E-12 2.20635E-12
 -1      1730 1.67139E+01 4.77254E+00 1.74434E-01-9.38401E+00-2.43539E-12 2.54674E-12
 -1      1731 3.58578E+00-6.13191E+00-1.34258E+00-1.44584E+00-2.13785E-12 1.53649E-12
 -1      1732 6.49425E+00-6.77953E-01-6.08011E-01-4.22757E+00-2.55485E-12 2.09477E-12
 -1      1733 5.21058E-01-1.34521E+01-1.74394E+00 2.27754E-01-1.11422E-12 8.21350E-13
 -1      1734 1.23678E+00-8.28934E+00-1.24328E+00-3.40297E-01-1.88949E-12 1.24659E-12
 -1      1735-6.58648E-01-1.68205E+01-1.85226E+00-3.56308E-01 3.78392E-13 5.67824E-13
 -1      1736-6.96255E-01-1.49479E+01-1.72032E+00 1.10918E+00-7.59282E-13 7.13929E-13
 -1      1737 2.49621E+01 1.35856E+00 2.93276E-01 7.54658E+00 1.28675E-12 1.29097E-12
 -1      1738 1.45086E+01-2.89995E+00-3.42308E-01 6.39062E+00 1.28453E-12 1.13898E-12
 -1      1739 1.99995E+01-3.33468E-04 3.40545E-05-3.79783E-04-2.08109E-13 3.22654E-15
 -1      1740 1.99992E+01-8.56093E-04 1.90831E-05-1.09290E-03-7.65314E-14 4.90595E-13
 -1      1741 8.49061E-01-9.58353E+00-1.08610E+00 2.49516E+00 7.47569E-13 1.05238E-12
 -1      1742 6.22774E+00-6.98716E+00-8.34863E-01 4.55069E+00 1.29907E-12 9.31491E-13
 -1      1743-1.17179E+00-1.06994E+01-1.17024E+00 3.35366E-01 2.36054E-13 1.19965E-12
 -1      1744 3.59803E+01 4.63050E+00 9.86264E-01 6.91682E+00 1.28350E-12 8.03246E-13
 -1      1745 4.41481E+01 6.47434E+00 1.43553E+00 4.45093E+00 1.27906E-12 1.05471E-14
 -1      1746 4.60084E+01 7.53061E+00 1.39061E+00 8.76185E-01 1.36807E-12-5.90944E-13
 -1      1747 4.44486E+01 7.15101E+00 1.32559E+00-3.06515E+00 1.41576E-12-1.38362E-12
 -1      1748 3.90252E+01 5.23805E+00 1.09221E+00-6.12745E+00 1.72092E-12-2.12419E-12
 -1      1749 2.93707E+01 2.60482E+00 5.74884E-01-7.43119E+00 1.92019E-12-2.35989E-12
 -1      1750 1.87539E+01-9.68146E-01-5.04590E-02-7.09088E+00 1.93567E-12-2.29605E-12
 -1      1751 9.32277E+00-5.33118E+00-6.73422E-01-5.36438E+00 1.54365E-12-2.09327E-12
 -1      1752 2.67540E+00-8.97960E+00-1.06904E+00-3.39164E+00 7.46736E-13-1.72801E-12
 -1      1753-8.18351E-01-1.11455E+01-1.26376E+00-1.25619E+00-8.19900E-14-1.48970E-12
 -1      1754-9.50590E-01-1.16919E+01-1.36193E+00 1.00351E+00-1.10634E-12-1.54221E-12
 -1      1755 2.59551E+00-9.19809E+00-1.06512E+00 3.33124E+00-1.85141E-12-1.82954E-12
 -1      1756 1.05064E+01-5.52800E+00-4.80226E-01 5.91947E+00-2.10376E-12-1.93950E-12
 -1      1757 2.11117E+01-2.18440E+00-8.95743E-03 6.74595E+00-2.03870E-12-1.94234E-12
 -1      1758 3.09367E+01 2.19225E+00 4.50045E-01 6.63048E+00-2.09116E-12-1.99385E-12
 -1      1759 4.06932E+01 5.66369E+00 1.20926E+00 6.04027E+00-1.82313E-12-1.95266E-12
 -1      1760 4.67746E+01 7.03967E+00 1.58605E+00 2.80350E+00-1.53449E-12-1.09723E-12
 -1      1761 4.69300E+01 7.27312E+00 1.52540E+00-9.63392E-01-1.15907E-12-3.17774E-13
 -1      1762 4.25654E+01 6.30707E+00 1.30585E+00-4.58742E+00-1.08852E-12 3.71703E-13
 -1      1763 3.44091E+01 4.12548E+00 8.73298E-01-7.10892E+00-1.17967E-12 1.01052E-12
 -1      1764 2.37647E+01 9.06718E-01 2.29465E-01-7.43613E+00-1.35492E-12 1.21958E-12
 -1      1765 1.35651E+01-3.13348E+00-3.94385E-01-6.20546E+00-1.37079E-12 1.56547E-12
 -1      1766 5.56233E+00-7.32173E+00-8.90871E-01-4.27323E+00-9.95537E-13 1.41845E-12
 -1      1767 3.74632E-01-1.04352E+01-1.21737E+00-2.15796E+00-4.50084E-13 1.19621E-12
 -1      1768 2.34447E+01 1.95249E+00-2.71312E-02-2.42095E+00-5.09766E-13 1.40538E-12
 -1      1769 2.01726E+01 3.78365E+00-3.80060E-02-1.55396E+00-5.21949E-13-9.30329E-13
 -1      1770 2.05535E+01 3.61396E+00-3.51784E-02-1.85729E+00-6.24906E-13-7.54421E-13
 -1      1771 2.09770E+01 3.18519E+00-4.69402E-02-2.03720E+00-6.50577E-13-5.07663E-13
 -1      1772 2.12976E+01 2.79274E+00-1.32454E-01-2.33931E+00-7.30844E-13-1.89529E-13
 -1      1773 2.10071E+01 2.73077E+00-1.79713E-03-1.62863E+00-6.74162E-13-5.75279E-13
 -1      1774 1.90663E+01 4.38665E+00-2.15246E-02-7.56382E-01-2.18258E-13-1.18047E-12
 -1      1775 1.92960E+01 4.33848E+00-1.28374E-02-9.40994E-01-2.94292E-13-1.15824E-12
 -1      1776 1.86957E+01 4.54397E+00-1.66590E-02-4.67610E-01-7.67103E-14-1.16918E-12
 -1      1777 1.88688E+01 4.51504E+00-9.31151E-03-6.15634E-01-1.46688E-13-1.18372E-12
 -1      1778 1.91193E+01 4.08511E+00-6.62984E-03-6.12046E-01-2.05390E-13-1.13999E-12
 -1      1779 1.84529E+01 4.64157E+00-1.30949E-02-2.36750E-01 6.91025E-14-1.15239E-12
 -1      1780 1.85594E+01 4.62590E+00-8.49763E-03-3.57846E-01-2.45073E-15-1.16824E-12
 -1      1781 1.87496E+01 4.27529E+00-5.71728E-03-3.66116E-01-4.01504E-14-1.14272E-12
 -1      1782 1.83496E+01 4.68544E+00-1.05068E-02-3.91846E-02 1.98789E-13-1.11935E-12
 -1      1783 1.83840E+01 4.68081E+00-9.12028E-03-1.46859E-01 1.40553E-13-1.14368E-12
 -1      1784 1.85228E+01 4.38441E+00-5.06103E-03-1.69365E-01 1.10085E-13-1.11880E-12
 -1      1785 1.83915E+01 4.67732E+00-8.85998E-03 1.52728E-01 3.06867E-13-1.06283E-12
 -1      1786 1.83520E+01 4.68314E+00-1.07996E-02 4.44095E-02 2.58324E-13-1.10149E-12
 -1      1787 1.84500E+01 4.41751E+00-4.86478E-03 2.03364E-03 2.41370E-13-1.08630E-12
 -1      1788 1.85755E+01 4.61655E+00-8.38521E-03 3.67126E-01 4.21174E-13-9.96833E-13
 -1      1789 1.84648E+01 4.63372E+00-1.33489E-02 2.44203E-01 3.67039E-13-1.03730E-12
 -1      1790 1.85347E+01 4.37592E+00-5.21969E-03 1.75070E-01 3.57606E-13-1.02345E-12
 -1      1791 1.88848E+01 4.50254E+00-9.33609E-03 6.25478E-01 5.37182E-13-8.88763E-13
 -1      1792 1.87124E+01 4.53228E+00-1.68610E-02 4.77593E-01 4.75713E-13-9.52039E-13
 -1      1793 1.87690E+01 4.26039E+00-5.88323E-03 3.74311E-01 4.80874E-13-9.41362E-13
 -1      1794 1.93187E+01 4.32020E+00-1.25970E-02 9.59503E-01 6.66475E-13-7.02577E-13
 -1      1795 1.90838E+01 4.37070E+00-2.17977E-02 7.68762E-01 5.94671E-13-8.09533E-13
 -1      1796 1.91413E+01 4.06546E+00-6.90368E-03 6.23222E-01 6.04749E-13-8.05606E-13
 -1      1797 1.98719E+01 4.03856E+00-2.07811E-02 1.38269E+00 7.79795E-13-4.33320E-13
 -1      1798 1.95753E+01 4.12683E+00-2.92396E-02 1.13872E+00 7.10910E-13-5.95260E-13
 -1      1799 1.96464E+01 3.77216E+00-7.30059E-03 9.37326E-01 7.30584E-13-6.00783E-13
 -1      1800 2.05758E+01 3.56906E+00-4.03783E-02 1.89183E+00 8.38876E-13 6.86257E-15
 -1      1801 2.01946E+01 3.74688E+00-4.17374E-02 1.58892E+00 8.03291E-13-2.57707E-13
 -1      1802 2.02857E+01 3.33790E+00-4.58898E-03 1.30819E+00 8.34642E-13-2.98418E-13
 -1      1803 2.16124E+01 2.66599E+00-5.26293E-02 2.35681E+00 7.79816E-13 8.18956E-13
 -1      1804 2.10284E+01 3.10104E+00-5.05519E-02 2.07280E+00 7.92777E-13 3.35787E-13
 -1      1805 2.10939E+01 2.64303E+00 3.41754E-03 1.65577E+00 8.46346E-13 1.89536E-13
 -1      1806 2.24661E+01 1.18548E+00-1.18210E-01 1.94127E+00 6.33639E-13 1.77705E-12
 -1      1807 2.20010E+01 2.23180E+00-8.06057E-04 2.28824E+00 7.06492E-13 1.15240E-12
 -1      1808 2.17118E+01 1.67656E+00-1.76323E-02 1.63219E+00 8.04289E-13 8.03968E-13
 -1      1809 2.18303E+01 7.65023E-01-5.53896E-02 1.13657E+00 6.57745E-13 1.57014E-12
 -1      1810 2.25047E+01 2.41195E+00 8.56569E-02-2.62491E+00-6.65192E-13 3.90105E-13
 -1      1811 2.12617E+01 3.10146E-01-4.13284E-03 2.61201E-01 5.00835E-13 1.23600E-12
 -1      1812 2.16423E+01 4.43247E-01-9.75126E-03 6.46157E-01 5.56916E-13 1.43321E-12
 -1      1813 2.16707E+01 8.38766E-01-7.16357E-04 9.46707E-01 6.63587E-13 9.88064E-13
 -1      1814 2.22504E+01 1.72311E+00 7.73732E-02-1.86702E+00-6.90656E-13 1.74666E-13
 -1      1815 2.15605E+01 5.20627E-01 3.34022E-02-4.44998E-01-5.62723E-13 9.66165E-14
 -1      1816 2.13055E+01 3.87295E-01 1.29841E-02-1.38266E-01-4.78529E-13-4.72105E-14
 -1      1817 2.12285E+01 3.01567E-01 2.75177E-02 1.35191E-01-4.14844E-13-5.62085E-14
 -1      1818 2.12325E+01 2.29498E-01 1.43224E-02 3.00301E-01-3.56685E-13-1.63806E-13
 -1      1819 2.12956E+01 5.41028E-01-8.88270E-03-8.19053E-02-5.22473E-13-2.53851E-13
 -1      1820 2.12528E+01 1.84904E-01 1.67222E-02 4.73581E-01-3.15928E-13-1.79010E-13
 -1      1821 2.13905E+01 1.42202E-01 9.37540E-03 5.73218E-01-2.63417E-13-2.60494E-13
 -1      1822 2.12364E+01 3.18690E-01-8.26709E-03 4.28877E-01-4.02074E-13-2.91759E-13
 -1      1823 2.14906E+01 1.08069E-01 8.87788E-03 6.80278E-01-2.31748E-13-2.80959E-13
 -1      1824 2.17057E+01 6.93347E-02 3.84097E-03 7.33607E-01-2.05585E-13-3.40037E-13
 -1      1825 2.13635E+01 1.87642E-01-7.16101E-03 7.48805E-01-3.04730E-13-3.43492E-13
 -1      1826 2.18655E+01 3.16320E-02 4.36586E-03 7.82274E-01-1.88367E-13-3.52566E-13
 -1      1827 2.21121E+01-1.66192E-02-2.20389E-03 7.86962E-01-1.49880E-13-4.01582E-13
 -1      1828 2.16278E+01 7.14431E-02-5.99148E-03 9.29333E-01-2.30663E-13-3.53909E-13
 -1      1829 2.23127E+01-6.63070E-02 1.78965E-03 7.67784E-01-1.44113E-13-3.95549E-13
 -1      1830 2.25442E+01-1.31453E-01-9.23671E-03 7.10155E-01-1.14674E-13-4.23002E-13
 -1      1831 2.19884E+01-6.92144E-02-4.67520E-03 9.70381E-01-1.80426E-13-3.74078E-13
 -1      1832 2.27652E+01-1.95883E-01 1.91623E-04 6.03774E-01-1.02321E-13-3.98740E-13
 -1      1833 2.29290E+01-2.76194E-01-1.65571E-02 4.67200E-01-9.37549E-14-3.91619E-13
 -1      1834 2.24051E+01-2.53441E-01-2.99818E-03 8.41506E-01-1.20546E-13-3.53757E-13
 -1      1835 2.31421E+01-3.47257E-01-1.24427E-03 2.55554E-01-1.15934E-13-3.43632E-13
 -1      1836 2.31834E+01-4.23602E-01-2.16147E-02 3.43358E-02-7.41907E-14-3.40099E-13
 -1      1837 2.28297E+01-4.72594E-01-2.36726E-04 5.01539E-01-8.55219E-14-2.87749E-13
 -1      1838 2.33438E+01-4.74137E-01-3.45437E-03-2.77985E-01-7.10309E-14-3.67874E-13
 -1      1839 2.32204E+01-5.03019E-01-2.01371E-02-5.56479E-01-8.49407E-14-4.04597E-13
 -1      1840 2.31935E+01-6.69077E-01 4.58741E-03-6.77459E-02-1.06612E-13-2.44367E-13
 -1      1841 2.32662E+01-4.85367E-01-7.37705E-03-9.10383E-01-8.22155E-14-4.09465E-13
 -1      1842 2.29753E+01-4.09196E-01-8.62730E-03-1.16431E+00-5.84238E-14-4.43777E-13
 -1      1843 2.33977E+01-7.21720E-01 1.13269E-02-8.04492E-01-8.74387E-14-1.97297E-13
 -1      1844 2.28537E+01-2.77129E-01-1.20250E-02-1.42374E+00-1.15280E-13-4.44236E-13
 -1      1845 2.24592E+01-7.01897E-02 1.00105E-02-1.52235E+00-1.73226E-13-5.13070E-13
 -1      1846 2.33333E+01-4.82671E-01 1.57563E-02-1.50251E+00-1.36860E-13-2.01135E-13
 -1      1847 2.21915E+01 1.64222E-01-1.33722E-02-1.50950E+00-1.90444E-13-5.80785E-13
 -1      1848 2.18251E+01 4.32535E-01 2.34370E-02-1.34051E+00-1.89918E-13-5.99631E-13
 -1      1849 2.29630E+01 9.39735E-02 8.68844E-03-1.80984E+00-2.31988E-13-2.52599E-13
 -1      1850 2.15604E+01 6.56906E-01-4.70163E-03-9.64074E-01-2.61038E-13-7.07445E-13
 -1      1851 2.13743E+01 8.25263E-01 2.05558E-02-5.42870E-01-2.71082E-13-7.78613E-13
 -1      1852 2.24435E+01 8.03330E-01-1.23065E-02-1.39924E+00-3.09223E-13-3.87736E-13
 -1      1853 2.13134E+01 8.84217E-01 1.24982E-02 6.52270E-02-2.55261E-13-9.39446E-13
 -1      1854 2.13972E+01 8.29320E-01 4.64961E-03 5.52431E-01-2.01700E-13-1.05850E-12
 -1      1855 2.21218E+01 1.23612E+00-2.91523E-02-2.90699E-01-3.77828E-13-7.15808E-13
 -1      1856 2.15985E+01 6.77880E-01 2.40603E-02 1.08442E+00-1.52940E-13-1.12601E-12
 -1      1857 2.19235E+01 4.42105E-01-9.49438E-03 1.40234E+00-1.17245E-13-1.12478E-12
 -1      1858 2.22617E+01 1.09567E+00-2.29232E-02 1.00277E+00-2.56892E-13-9.52839E-13
 -1      1859 2.22397E+01 1.93924E-01 1.81188E-02 1.61123E+00-1.03890E-13-1.19068E-12
 -1      1860 2.26773E+01-6.05719E-02-1.34775E-02 1.64885E+00-3.13405E-14-1.18723E-12
 -1      1861 2.27728E+01 4.84009E-01-1.01576E-03 1.82285E+00-1.51856E-13-1.02271E-12
 -1      1862 2.29116E+01-2.54487E-01-1.08921E-04 1.51662E+00 1.33561E-14-1.24773E-12
 -1      1863 2.33100E+01-4.00972E-01-1.01857E-02 1.33069E+00 3.72306E-14-1.23590E-12
 -1      1864 2.33063E+01-2.06156E-01 1.25331E-02 1.87609E+00-4.47616E-14-1.04803E-12
 -1      1865 2.33738E+01-4.75254E-01-1.61025E-02 1.00910E+00 7.16337E-14-1.16677E-12
 -1      1866 2.36312E+01-4.95041E-01-5.04095E-03 7.33272E-01 7.76263E-14-1.12516E-12
 -1      1867 2.35884E+01-6.29373E-01 1.38456E-02 1.34387E+00 6.20940E-14-1.14756E-12
 -1      1868 2.35465E+01-4.74431E-01-2.25582E-02 3.90025E-01 8.40855E-14-1.09898E-12
 -1      1869 2.36315E+01-4.17095E-01-2.10739E-03 1.34978E-01 1.48833E-13-1.07862E-12
 -1      1870 2.35639E+01-7.15345E-01 8.17831E-03 5.98352E-01 1.18103E-13-9.71668E-13
 -1      1871 2.34601E+01-3.53826E-01-2.05566E-02-1.32180E-01 1.60528E-13-9.92607E-13
 -1      1872 2.33959E+01-2.74131E-01-8.32149E-04-3.13480E-01 1.56292E-13-9.00732E-13
 -1      1873 2.33158E+01-5.79232E-01 2.62223E-03-7.13367E-02 2.03803E-13-8.02114E-13
 -1      1874 2.31892E+01-2.07592E-01-1.43860E-02-4.77951E-01 1.34265E-13-8.06690E-13
 -1      1875 2.30228E+01-1.37975E-01-2.82637E-04-5.78999E-01 2.14945E-13-7.19408E-13
 -1      1876 2.29499E+01-3.68391E-01-5.78208E-04-5.38350E-01 2.07685E-13-6.29058E-13
 -1      1877 2.28119E+01-8.61190E-02-7.69615E-03-6.54006E-01 1.33967E-13-7.80190E-13
 -1      1878 2.25912E+01-3.75430E-02 1.24362E-04-6.91126E-01 1.68631E-13-7.28824E-13
 -1      1879 2.25422E+01-1.76131E-01-1.97531E-03-7.94201E-01 1.92796E-13-5.32800E-13
 -1      1880 2.23919E+01-3.78175E-03-2.30874E-03-7.02931E-01 1.75265E-13-7.55611E-13
 -1      1881 2.21549E+01 2.47032E-02 5.37830E-04-6.97841E-01 8.58201E-14-7.19394E-13
 -1      1882 2.21374E+01-3.76283E-02-2.45174E-03-8.84159E-01 1.37346E-13-7.26030E-13
 -1      1883 2.19748E+01 4.34271E-02 1.29599E-03-6.71537E-01 2.06524E-14-7.45694E-13
 -1      1884 2.17466E+01 5.69566E-02 9.05663E-04-6.42903E-01-2.78388E-14-7.62969E-13
 -1      1885 2.17597E+01 4.64373E-02-2.55428E-03-8.64469E-01 3.63010E-14-8.29744E-13
 -1      1886 2.15888E+01 6.52346E-02 3.31809E-03-5.97470E-01-4.62427E-14-7.90077E-13
 -1      1887 2.13837E+01 6.91445E-02 1.16509E-03-5.58527E-01-8.96427E-14-7.40212E-13
 -1      1888 2.14209E+01 8.86875E-02-2.51215E-03-7.82904E-01-3.66995E-14-6.83330E-13
 -1      1889 2.12488E+01 7.09868E-02 4.18160E-03-5.06505E-01-1.05226E-13-6.63710E-13
 -1      1890 2.10732E+01 6.94122E-02 1.29536E-03-4.65506E-01 2.68837E-14-6.46145E-13
 -1      1891 2.11263E+01 1.03361E-01-2.39603E-03-6.73595E-01-7.58161E-15-6.14904E-13
 -1      1892 2.09605E+01 6.77051E-02 4.30169E-03-4.14337E-01 9.58550E-14-6.99197E-13
 -1      1893 2.08154E+01 6.34251E-02 1.31102E-03-3.75854E-01 2.11946E-13-6.70995E-13
 -1      1894 2.08766E+01 1.01880E-01-2.22610E-03-5.58236E-01 4.72105E-15-5.07507E-13
 -1      1895 2.07231E+01 6.00321E-02 4.00084E-03-3.29444E-01 1.40905E-13-7.03859E-13
 -1      1896 2.06065E+01 5.47465E-02 1.24270E-03-2.95636E-01 1.22339E-14-6.72090E-13
 -1      1897 2.06697E+01 9.20984E-02-2.01472E-03-4.49201E-01 8.12381E-14-6.30276E-13
 -1      1898 2.05325E+01 5.07809E-02 3.49938E-03-2.55649E-01-1.19163E-13-6.57136E-13
 -1      1899 2.04412E+01 4.54482E-02 1.12264E-03-2.27221E-01-2.00512E-13-6.74406E-13
 -1      1900 2.05019E+01 7.89103E-02-1.77678E-03-3.52599E-01-2.38173E-14-5.49304E-13
 -1      1901 2.03828E+01 4.15280E-02 2.93438E-03-1.93995E-01-1.34688E-13-6.42234E-13
 -1      1902 2.03129E+01 3.66375E-02 9.77480E-04-1.70847E-01-1.14879E-13-5.55325E-13
 -1      1903 2.03684E+01 6.51342E-02-1.52887E-03-2.70648E-01-9.64837E-14-3.81676E-13
 -1      1904 2.02678E+01 3.30734E-02 2.38392E-03-1.44001E-01-2.00574E-13-5.11261E-13
 -1      1905 2.02153E+01 2.88341E-02 8.26347E-04-1.25627E-01-7.30747E-14-5.24183E-13
 -1      1906 2.02642E+01 5.22535E-02-1.28594E-03-2.03319E-01-9.98643E-14-3.39739E-13
 -1      1907 2.01811E+01 2.57547E-02 1.88764E-03-1.04435E-01-6.26229E-14-5.39245E-13
 -1      1908 2.01427E+01 2.22171E-02 6.81609E-04-9.01671E-02-1.37027E-14-6.86094E-13
 -1      1909 2.01843E+01 4.09433E-02-1.05912E-03-1.49399E-01-1.25883E-13-4.02531E-13
 -1      1910 2.01173E+01 1.96483E-02 1.46160E-03-7.37811E-02 1.23971E-14-7.31065E-13
 -1      1911 2.00898E+01 1.67791E-02 5.50393E-04-6.29251E-02 3.53879E-14-8.34652E-13
 -1      1912 2.01244E+01 3.14131E-02-8.55337E-04-1.07157E-01-8.91816E-14-5.26365E-13
 -1      1913 2.00713E+01 1.46930E-02 1.10827E-03-5.05023E-02 1.54981E-13-8.08675E-13
 -1      1914 2.00522E+01 1.24196E-02 4.36083E-04-4.24054E-02 1.69847E-13-6.25801E-13
 -1      1915 2.00803E+01 2.36214E-02-6.77980E-04-7.47209E-02 7.61970E-14-3.89391E-13
 -1      1916 2.00391E+01 1.07631E-02 8.22990E-04-3.31713E-02 6.55344E-14-5.35232E-13
 -1      1917 2.00263E+01 8.99901E-03 3.39537E-04-2.72563E-02 5.79015E-14-6.19302E-13
 -1      1918 2.00487E+01 1.74037E-02-5.27760E-04-5.02969E-02 1.95189E-13-3.78117E-13
 -1      1919 2.00172E+01 7.70990E-03 5.97764E-04-2.05337E-02 1.51506E-13-5.77027E-13
 -1      1920 2.00091E+01 6.36793E-03 2.60026E-04-1.63093E-02 2.16427E-13-4.56256E-13
 -1      1921 2.00265E+01 1.25462E-02-4.03496E-04-3.22691E-02 1.66039E-13-2.48127E-13
 -1      1922 2.00032E+01 5.38376E-03 4.23496E-04-1.15264E-02 1.19548E-13-4.36802E-13
 -1      1923 1.99984E+01 4.38296E-03 1.95916E-04-8.58685E-03 1.75318E-14-5.05331E-13
 -1      1924 2.00116E+01 8.82563E-03-3.02829E-04-1.92439E-02 6.48177E-14-1.94040E-13
 -1      1925 1.99947E+01 3.64558E-03 2.91199E-04-5.27361E-03 1.37491E-14-3.29041E-13
 -1      1926 1.99922E+01 2.91426E-03 1.45106E-04-3.29191E-03-2.21884E-14-3.16557E-13
 -1      1927 2.00021E+01 6.03070E-03-2.22800E-04-1.00570E-02 8.78802E-14-4.68720E-14
 -1      1928 1.99902E+01 2.37183E-03 1.92623E-04-1.07177E-03-1.56882E-13-2.11955E-13
 -1      1929 1.99893E+01 1.84823E-03 1.05307E-04 2.09338E-04-1.66405E-13-2.59447E-13
 -1      1930 1.99963E+01 3.97149E-03-1.60256E-04-3.76027E-03-7.46735E-14 1.25975E-13
 -1      1931 1.99884E+01 1.45570E-03 1.20523E-04 1.63080E-03-1.72956E-13-2.26362E-13
 -1      1932 1.99886E+01 1.08742E-03 7.41863E-05 2.40831E-03-2.99480E-14-1.88161E-13
 -1      1933 1.99934E+01 2.48268E-03-1.12127E-04 3.98782E-04-9.28306E-14 1.82394E-13
 -1      1934 1.99884E+01 8.06043E-04 6.87628E-05 3.25451E-03 1.75732E-13-2.66990E-13
 -1      1935 1.99893E+01 5.48675E-04 4.94630E-05 3.67387E-03 2.22592E-13-9.67567E-14
 -1      1936 1.99923E+01 1.42266E-03-7.55804E-05 3.00205E-03 9.00562E-14 1.15556E-13
 -1      1937 1.99896E+01 3.44929E-04 3.22936E-05 4.10745E-03 2.05843E-13 1.02622E-13
 -1      1938 1.99908E+01 1.60201E-04 2.89862E-05 4.26979E-03 3.45303E-13 2.82189E-13
 -1      1939 1.99924E+01 6.70477E-04-4.81135E-05 4.48428E-03 3.54433E-13 2.93417E-13
 -1      1940 1.99914E+01 4.34175E-06 7.25610E-06 4.40122E-03 2.38872E-13 1.00900E-13
 -1      1941 1.99927E+01-1.41868E-04 1.09699E-05 4.36871E-03 2.55470E-13 6.98131E-14
 -1      1942 1.99933E+01 1.21032E-04-2.76756E-05 5.15425E-03 2.31218E-13 3.23835E-13
 -1      1943 1.99934E+01-2.77015E-04-8.91021E-06 4.26347E-03 1.26787E-13-2.04661E-14
 -1      1944 1.99948E+01-4.14680E-04-4.41087E-06 4.06294E-03-3.54374E-14-7.27321E-14
 -1      1945 1.99946E+01-3.18960E-04-1.24642E-05 5.21289E-03 7.49271E-14 3.21897E-14
 -1      1946 1.99955E+01-5.58981E-04-1.83325E-05 3.75437E-03 8.80139E-15-1.26150E-13
 -1      1947 1.99967E+01-7.10191E-04-1.68246E-05 3.37981E-03 1.15956E-13-8.94713E-14
 -1      1948 1.99961E+01-7.28948E-04-1.90116E-06 4.77115E-03-4.43638E-14 1.48791E-13
 -1      1949 1.99973E+01-8.32179E-04-1.87447E-05 2.90206E-03 3.50222E-13-1.23032E-13
 -1      1950 1.99982E+01-9.97194E-04-2.84938E-05 2.36235E-03 3.19058E-13-8.77173E-14
 -1      1951 1.99985E+01-1.46258E-03 5.61345E-06 2.74534E-03 2.60507E-13 1.31642E-13
 -1      1952 1.99974E+01-1.14323E-03 7.67106E-06 3.91223E-03 1.80029E-13 1.55551E-13
 -1      1953 2.11044E+01 1.69068E-01 1.08165E-02-1.73937E-01 3.60980E-13 9.39636E-13
 -1      1954 2.11882E+01 2.26775E-01 1.80027E-02 2.02261E-02 4.04628E-13 1.11359E-12
 -1      1955 2.12874E+01 3.73916E-01-4.30549E-03 1.47484E-01 5.16844E-13 7.64835E-13
 -1      1956 2.12307E+01 1.02119E-01 8.69075E-03-4.28378E-01 2.51641E-13 7.59288E-13
 -1      1957 2.11382E+01 1.33012E-01 1.51862E-02-3.12302E-01 2.75118E-13 8.81455E-13
 -1      1958 2.11992E+01 2.03331E-01-4.82376E-03-3.08966E-01 3.62160E-13 5.83465E-13
 -1      1959 2.15470E+01 5.50971E-02 4.66942E-03-5.78424E-01 1.70228E-13 6.58060E-13
 -1      1960 2.13524E+01 7.85457E-02 8.77161E-03-5.06919E-01 1.91869E-13 7.24035E-13
 -1      1961 2.13451E+01 1.15192E-01-5.61829E-03-5.81891E-01 2.52920E-13 4.57782E-13
 -1      1962 2.19726E+01 5.07546E-03 8.29464E-04-6.40953E-01 1.20246E-13 5.31250E-13
 -1      1963 2.17267E+01 2.98588E-02 3.79267E-03-6.08560E-01 1.39651E-13 6.09618E-13
 -1      1964 2.16461E+01 4.47271E-02-5.46317E-03-7.31577E-01 1.91386E-13 3.41826E-13
 -1      1965 2.24317E+01-6.01347E-02-3.08096E-03-6.02688E-01 1.24461E-13 4.08507E-13
 -1      1966 2.21807E+01-2.96455E-02 2.28130E-05-6.17696E-01 9.88684E-14 4.72636E-13
 -1      1967 2.20367E+01-3.64471E-02-4.33727E-03-7.65325E-01 1.50879E-13 2.43187E-13
 -1      1968 2.28413E+01-1.44279E-01-6.76842E-03-4.35199E-01 1.45861E-13 4.31211E-13
 -1      1969 2.26359E+01-1.08111E-01-3.15444E-03-5.13002E-01 1.28529E-13 4.41988E-13
 -1      1970 2.24536E+01-1.41610E-01-2.23801E-03-6.61541E-01 1.35924E-13 2.21853E-13
 -1      1971 2.31064E+01-2.36526E-01-9.01744E-03-1.13662E-01 1.29854E-13 4.31153E-13
 -1      1972 2.30025E+01-2.02145E-01-5.89015E-03-2.67748E-01 1.36355E-13 4.75820E-13
 -1      1973 2.28257E+01-2.67617E-01 1.13284E-03-3.88853E-01 1.27922E-13 3.02103E-13
 -1      1974 2.31288E+01-3.02662E-01-7.91832E-03 3.51713E-01 3.54413E-14 4.29112E-13
 -1      1975 2.31788E+01-2.88157E-01-7.76655E-03 1.25504E-01 9.24000E-14 4.55227E-13
 -1      1976 2.30690E+01-3.85079E-01 5.78450E-03 6.57140E-02 1.05363E-13 3.74301E-13
 -1      1977 2.28344E+01-2.84279E-01-2.66367E-03 8.72990E-01 6.84236E-14 4.14975E-13
 -1      1978 2.30665E+01-3.15820E-01-8.19078E-03 6.18050E-01 4.89903E-14 4.12433E-13
 -1      1979 2.30934E+01-4.28876E-01 1.09910E-02 6.54322E-01 8.09830E-14 3.64700E-13
 -1      1980 2.22255E+01-1.27078E-01 3.85883E-03 1.25822E+00 7.91294E-14 3.98771E-13
 -1      1981 2.26166E+01-2.21055E-01-6.56947E-03 1.06944E+00 6.36852E-14 3.80721E-13
 -1      1982 2.28309E+01-3.15780E-01 1.33609E-02 1.22250E+00 8.26778E-14 3.13335E-13
 -1      1983 2.14441E+01 1.55015E-01 5.59713E-03 1.26394E+00 1.27070E-13 2.99689E-13
 -1      1984 2.18985E+01 2.10855E-02-2.55490E-03 1.25857E+00 1.18536E-13 3.72997E-13
 -1      1985 2.23014E+01-7.82995E-03 8.40502E-03 1.50915E+00 1.52716E-13 2.81228E-13
 -1      1986 2.07846E+01 4.35460E-01-5.90652E-04 7.57751E-01 1.01809E-13 1.76586E-13
 -1      1987 2.11461E+01 3.31698E-01 4.03358E-03 9.93831E-01 1.04751E-13 2.20296E-13
 -1      1988 2.16796E+01 4.04864E-01-4.12573E-03 1.26305E+00 1.64964E-13 1.95613E-13
 -1      1989 2.05779E+01 5.36470E-01-9.21201E-03-1.11281E-01 2.53079E-14 6.24622E-14
 -1      1990 2.06899E+01 5.34818E-01 1.11187E-02 2.87394E-01 8.86652E-14 9.56522E-14
 -1      1991 2.12686E+01 7.06208E-01-1.50617E-02 4.56790E-01 1.48156E-13 1.67756E-14
 -1      1992 2.09624E+01 3.88804E-01-1.11914E-02-9.50632E-01 1.82600E-13-1.45632E-13
 -1      1993 2.07594E+01 4.94514E-01 1.37557E-02-5.72211E-01 6.47850E-14-1.52101E-14
 -1      1994 2.13158E+01 7.07235E-01-1.37529E-02-5.89244E-01 1.30410E-13-1.62857E-13
 -1      1995 2.17702E+01 9.42612E-02-3.93048E-03-1.38493E+00 2.88078E-13-2.45189E-13
 -1      1996 2.13273E+01 2.38737E-01 9.50459E-03-1.19065E+00 2.73892E-13-1.83683E-13
 -1      1997 2.18121E+01 4.03416E-01-3.12222E-03-1.38746E+00 3.29515E-13-2.87567E-13
 -1      1998 2.26450E+01-1.63912E-01 5.83269E-03-1.31218E+00 3.38735E-14-2.81867E-13
 -1      1999 2.21315E+01-6.17131E-02 6.95308E-04-1.33730E+00 2.58757E-13-2.18447E-13
 -1      2000 2.24946E+01-1.32167E-02 5.27698E-03-1.62020E+00 2.45753E-13-3.31242E-13
 -1      2001 2.32922E+01-2.86504E-01 1.07069E-02-8.97059E-01-1.25007E-13-5.15826E-13
 -1      2002 2.28708E+01-2.55238E-01-7.27072E-03-1.06761E+00-9.03054E-14-4.03809E-13
 -1      2003 2.30674E+01-3.20960E-01 5.94427E-03-1.32745E+00 5.91411E-14-4.77295E-13
 -1      2004 2.35916E+01-2.82574E-01 9.63019E-03-3.81364E-01 2.19330E-14-4.78714E-13
 -1      2005 2.33502E+01-3.04855E-01-1.14666E-02-5.95227E-01-4.76286E-14-4.82974E-13
 -1      2006 2.33725E+01-4.31997E-01 2.04834E-03-7.63682E-01-9.03791E-14-6.15613E-13
 -1      2007 2.35674E+01-2.10522E-01 5.80831E-03 6.04566E-02-6.61225E-14-5.27573E-13
 -1      2008 2.35147E+01-2.55235E-01-1.16227E-02-1.24187E-01-4.68740E-14-5.04366E-13
 -1      2009 2.33964E+01-3.85824E-01-1.36155E-03-1.83797E-01-2.96430E-14-6.40982E-13
 -1      2010 2.33106E+01-1.24117E-01 2.01256E-03 3.57611E-01 1.52951E-13-4.29911E-13
 -1      2011 2.34067E+01-1.68025E-01-9.13750E-03 2.31761E-01 6.04655E-14-4.21533E-13
 -1      2012 2.32038E+01-2.67701E-01-2.55418E-03 2.64299E-01 4.29344E-16-5.81092E-13
 -1      2013 2.29202E+01-5.23028E-02-4.75757E-04 5.12692E-01 1.69790E-14-4.49267E-13
 -1      2014 2.31100E+01-8.51387E-02-5.75241E-03 4.45193E-01 8.31861E-14-4.08445E-13
 -1      2015 2.28766E+01-1.44841E-01-2.22269E-03 5.40052E-01 1.00364E-13-4.35103E-13
 -1      2016 2.24762E+01-3.44999E-03-1.63738E-03 5.60202E-01-1.17457E-13-4.02284E-13
 -1      2017 2.27099E+01-2.37794E-02-2.61028E-03 5.37358E-01-7.13232E-14-4.73297E-13
 -1      2018 2.24851E+01-4.94141E-02-1.45104E-03 6.65357E-01-2.33945E-14-2.81663E-13
 -1      2019 2.20336E+01 2.47395E-02-1.89158E-03 5.39177E-01-3.71150E-14-3.26579E-13
 -1      2020 2.22747E+01 1.44662E-02-2.27797E-04 5.45181E-01-7.00307E-14-4.20424E-13
 -1      2021 2.20802E+01 1.22194E-02-8.23105E-04 6.83703E-01-4.41050E-14-2.53900E-13
 -1      2022 2.16253E+01 3.79148E-02-1.67761E-03 4.81334E-01-7.08139E-14-2.45257E-13
 -1      2023 2.18512E+01 3.44465E-02 1.31406E-03 5.03182E-01 2.17441E-14-2.89287E-13
 -1      2024 2.16951E+01 4.56737E-02-4.76879E-04 6.37219E-01-7.07127E-15-2.81244E-13
 -1      2025 2.12678E+01 4.15448E-02-1.29437E-03 4.08510E-01-2.32493E-13-2.69529E-14
 -1      2026 2.14668E+01 4.21224E-02 2.14339E-03 4.37148E-01-1.41709E-13-1.21354E-13
 -1      2027 2.13487E+01 5.95680E-02-3.53322E-04 5.58146E-01-1.34912E-13-1.92707E-13
 -1      2028 2.09667E+01 3.97655E-02-9.03057E-04 3.34055E-01-2.34629E-13-8.14095E-15
 -1      2029 2.11344E+01 4.24347E-02 2.45607E-03 3.63871E-01-2.68239E-13-3.04183E-14
 -1      2030 2.10497E+01 6.15053E-02-3.51070E-04 4.67968E-01-2.66312E-13-1.00798E-13
 -1      2031 2.07206E+01 3.53295E-02-5.72367E-04 2.65220E-01 1.51558E-14 1.25791E-13
 -1      2032 2.08573E+01 3.88498E-02 2.43715E-03 2.93106E-01-1.22161E-13 3.01029E-14
 -1      2033 2.07997E+01 5.69789E-02-3.91261E-04 3.79486E-01-1.42478E-13 4.50723E-14
 -1      2034 2.05246E+01 2.99147E-02-3.20130E-04 2.05306E-01 2.19425E-13 1.46953E-13
 -1      2035 2.06330E+01 3.35649E-02 2.23099E-03 2.29792E-01 1.10772E-13 1.15717E-13
 -1      2036 2.05963E+01 4.95287E-02-4.28671E-04 2.99423E-01 9.75168E-14 1.33295E-13
 -1      2037 2.03720E+01 2.44679E-02-1.41027E-04 1.55262E-01 8.77683E-15-2.70245E-14
 -1      2038 2.04559E+01 2.78666E-02 1.93761E-03 1.75867E-01 1.61750E-13 4.83544E-14
 -1      2039 2.04345E+01 4.12483E-02-4.44595E-04 2.30622E-01 2.30349E-13 1.17885E-13
 -1      2040 2.02558E+01 1.94751E-02-2.16962E-05 1.14735E-01-3.20016E-14-2.16417E-13
 -1      2041 2.03193E+01 2.24490E-02 1.62026E-03 1.31535E-01-5.54008E-14-1.02520E-13
 -1      2042 2.03087E+01 3.32760E-02-4.36340E-04 1.73630E-01 6.33766E-14-7.51095E-14
 -1      2043 2.01691E+01 1.51462E-02 5.22642E-05 8.27333E-02 2.91642E-14-2.54169E-13
 -1      2044 2.02160E+01 1.76426E-02 1.31553E-03 9.60852E-02 3.21671E-14-2.93808E-13
 -1      2045 2.02128E+01 2.61611E-02-4.08590E-04 1.27749E-01 5.37204E-14-2.43574E-13
 -1      2046 2.01060E+01 1.15328E-02 9.35778E-05 5.80150E-02-3.69316E-14-1.96103E-13
 -1      2047 2.01398E+01 1.35649E-02 1.04220E-03 6.83954E-02-5.67282E-15-2.04917E-13
 -1      2048 2.01412E+01 2.01084E-02-3.68091E-04 9.16825E-02 2.60436E-15-1.22023E-13
 -1      2049 2.00611E+01 8.60191E-03 1.12501E-04 3.93149E-02 4.62019E-14-7.32536E-14
 -1      2050 2.00849E+01 1.02156E-02 8.07832E-04 4.72217E-02-1.36794E-14-1.27566E-13
 -1      2051 2.00889E+01 1.51316E-02-3.21137E-04 6.39321E-02 6.92832E-15-5.79009E-14
 -1      2052 2.00302E+01 6.28039E-03 1.16815E-04 2.54575E-02-6.11930E-14 2.17611E-13
 -1      2053 2.00463E+01 7.53431E-03 6.13402E-04 3.13604E-02 3.80060E-14 8.25837E-14
 -1      2054 2.00518E+01 1.11467E-02-2.72710E-04 4.30121E-02-3.60524E-14 3.29924E-13
 -1      2055 2.00098E+01 4.48019E-03 1.12167E-04 1.54098E-02-1.08281E-13 9.70674E-14
 -1      2056 2.00202E+01 5.43481E-03 4.56288E-04 1.97263E-02-1.27095E-13 7.32153E-14
 -1      2057 2.00261E+01 8.02754E-03-2.26291E-04 2.75638E-02-2.64812E-14 3.63071E-13
 -1      2058 1.99970E+01 3.11222E-03 1.02502E-04 8.29805E-03 1.40987E-13 5.89769E-14
 -1      2059 2.00034E+01 3.82434E-03 3.32137E-04 1.13846E-02 1.45001E-14 7.56648E-14
 -1      2060 2.00091E+01 5.63648E-03-1.84010E-04 1.64038E-02-2.28006E-15 1.37581E-13
 -1      2061 1.99898E+01 2.09339E-03 9.04572E-05 3.40412E-03 7.26863E-14 2.06264E-14
 -1      2062 1.99932E+01 2.61357E-03 2.35985E-04 5.55576E-03 1.85148E-14-4.78916E-14
 -1      2063 1.99985E+01 3.84040E-03-1.46934E-04 8.53755E-03 6.30924E-14-4.13004E-15
 -1      2064 1.99863E+01 1.34975E-03 7.76817E-05 1.52707E-04-1.12957E-13 2.71213E-13
 -1      2065 1.99877E+01 1.72145E-03 1.62884E-04 1.60758E-03 6.91905E-14 2.58595E-13
 -1      2066 1.99924E+01 2.51859E-03-1.15376E-04 3.15195E-03-8.56584E-14 1.80442E-13
 -1      2067 1.99855E+01 8.17156E-04 6.50785E-05-1.90553E-03-2.71136E-13 2.91769E-13
 -1      2068 1.99856E+01 1.07696E-03 1.08234E-04-9.60317E-04-2.33557E-13 2.65239E-13
 -1      2069 1.99895E+01 1.56541E-03-8.91522E-05-4.00767E-04-2.13396E-13 5.06151E-13
 -1      2070 1.99864E+01 4.40681E-04 5.29830E-05-3.11108E-03-1.86301E-13 4.15417E-13
 -1      2071 1.99856E+01 6.19005E-04 6.79272E-05-2.53307E-03-1.85716E-13 3.56440E-13
 -1      2072 1.99887E+01 8.90335E-04-6.77664E-05-2.62287E-03-2.40787E-13 3.81574E-13
 -1      2073 1.99882E+01 1.73041E-04 4.13002E-05-3.71125E-03 2.66406E-13 1.91621E-13
 -1      2074 1.99869E+01 2.95284E-04 3.83966E-05-3.39680E-03-5.75212E-14 3.71143E-13
 -1      2075 1.99894E+01 4.16263E-04-5.05542E-05-3.89093E-03 4.55237E-14 3.54973E-13
 -1      2076 1.99906E+01-2.79502E-05 2.97057E-05-3.87276E-03 4.89328E-13 3.16913E-13
 -1      2077 1.99891E+01 6.01300E-05 1.66879E-05-3.75264E-03 4.73397E-13 3.63511E-13
 -1      2078 1.99909E+01 7.64844E-05-3.67777E-05-4.47355E-03 4.01933E-13 2.95840E-13
 -1      2079 1.99931E+01-2.01876E-04 1.85993E-05-3.68990E-03 3.21001E-15 3.99304E-13
 -1      2080 1.99916E+01-1.28527E-04 7.35291E-07-3.72722E-03 1.92059E-13 3.86385E-13
 -1      2081 1.99928E+01-1.89275E-04-2.54380E-05-4.54569E-03 1.73802E-13 6.61818E-13
 -1      2082 1.99955E+01-3.85013E-04 9.15517E-06-3.19276E-03-1.13819E-14 4.92297E-13
 -1      2083 1.99941E+01-3.09040E-04-9.86507E-06-3.38051E-03 1.13415E-14 5.12541E-13
 -1      2084 1.99948E+01-4.35063E-04-1.44873E-05-4.19799E-03-4.21955E-14 7.27064E-13
 -1      2085 1.99975E+01-6.10168E-04-2.78711E-06-2.35889E-03-9.36379E-14 3.91155E-13
 -1      2086 1.99964E+01-5.12195E-04-1.29455E-05-2.72238E-03-1.21810E-14 4.94663E-13
 -1      2087 1.99967E+01-7.11785E-04-4.74302E-06-3.46434E-03 5.20704E-15 5.63198E-13
 -1      2088 1.99988E+01-8.21491E-04-1.62995E-05-1.49756E-03-1.49783E-13 4.12710E-13
 -1      2089 1.99980E+01-7.24990E-04-1.22210E-05-2.01976E-03-1.20519E-13 4.76906E-13
 -1      2090 1.99981E+01-9.87754E-04 5.92066E-06-2.62034E-03-1.55877E-14 7.22788E-13
 -1      2091 1.99989E+01-1.26217E-03 5.61738E-06-1.83065E-03-9.65032E-14 6.88709E-13
 -1      2092 2.00000E+01-6.05348E-03 8.40319E-06-3.25765E-03-2.13681E-15-5.33143E-13
 -1      2093 1.99998E+01-5.01513E-03-5.18642E-06-3.31398E-03 1.26031E-13-3.02457E-13
 -1      2094 1.99996E+01-4.26088E-03 2.99294E-06-3.27131E-03 1.22839E-13-1.32521E-13
 -1      2095 1.99994E+01-3.25794E-03-1.54519E-05-3.08446E-03 1.79938E-13 9.80388E-14
 -1      2096 1.99997E+01-4.06348E-03-5.27237E-06-4.08386E-03-4.91686E-14-3.47289E-13
 -1      2097 1.99992E+01-2.70032E-03-1.37230E-06-2.76329E-03 9.43319E-14 2.67460E-13
 -1      2098 1.99990E+01-1.84018E-03-1.85171E-05-2.32537E-03-6.40658E-14 6.41115E-13
 -1      2099 1.99987E+01-1.71309E-03-1.50752E-05-2.78029E-03-7.40211E-14 5.66706E-13
 -1      2100 1.99991E+01-2.79912E-03-2.39298E-06-3.66911E-03-6.69482E-14 3.30791E-13
 -1      2101 2.00003E+01-7.64411E-03 1.50247E-05-2.84153E-03-3.89977E-13-9.43151E-13
 -1      2102 2.00001E+01-6.71456E-03 1.03767E-05-3.06436E-03-1.23125E-13-6.83236E-13
 -1      2103 2.00002E+01-5.46970E-03-9.81691E-06-3.90298E-03 6.02137E-14-8.84893E-13
 -1      2104 2.00004E+01-8.93993E-03 2.14795E-05-2.13413E-03-3.00244E-13-2.27481E-13
 -1      2105 2.00004E+01-8.19462E-03 2.11810E-05-2.47450E-03-3.30915E-13-4.68468E-13
 -1      2106 2.00006E+01-6.68687E-03-1.43550E-05-3.27769E-03-8.89571E-14-7.50629E-13
 -1      2107 2.00005E+01-9.79895E-03 2.65897E-05-1.24804E-03-3.60070E-13-9.81155E-14
 -1      2108 2.00005E+01-9.32563E-03 2.79684E-05-1.65620E-03-3.24488E-13-2.24135E-13
 -1      2109 2.00008E+01-7.62991E-03-1.75677E-05-2.33669E-03-1.38193E-13-2.66596E-13
 -1      2110 2.00006E+01-1.01572E-02 2.98333E-05-2.70884E-04-4.22281E-13 1.81402E-13
 -1      2111 2.00006E+01-9.99674E-03 3.05659E-05-7.09985E-04-3.64253E-13-1.34409E-14
 -1      2112 2.00009E+01-8.21953E-03-1.92169E-05-1.20724E-03-2.80026E-13-6.89411E-14
 -1      2113 2.00006E+01-9.99034E-03 3.06088E-05 7.24763E-04-5.75782E-13-8.01327E-14
 -1      2114 2.00006E+01-1.01558E-02 2.97855E-05 2.85891E-04-5.57764E-13 2.52426E-13
 -1      2115 2.00010E+01-8.41808E-03-1.97082E-05 9.23119E-06-4.44015E-13 1.39922E-14
 -1      2116 2.00005E+01-9.31191E-03 2.81542E-05 1.66976E-03-8.67747E-13-3.15817E-13
 -1      2117 2.00005E+01-9.78994E-03 2.63501E-05 1.26238E-03-7.32192E-13-2.13459E-13
 -1      2118 2.00009E+01-8.21387E-03-1.91374E-05 1.22518E-03-6.51928E-13-1.70711E-13
 -1      2119 2.00004E+01-8.19706E-03 2.12403E-05 2.47359E-03-6.55394E-13-3.98776E-13
 -1      2120 2.00004E+01-8.93227E-03 2.12468E-05 2.13962E-03-7.26705E-13-3.58092E-13
 -1      2121 2.00008E+01-7.62572E-03-1.75431E-05 2.34462E-03-5.39593E-13-3.18826E-13
 -1      2122 2.00001E+01-6.70213E-03 9.74981E-06 3.06767E-03-2.84810E-13 9.81872E-13
 -1      2123 2.00003E+01-7.64778E-03 1.49541E-05 2.84196E-03-5.39162E-13 4.95030E-13
 -1      2124 2.00006E+01-6.68961E-03-1.43722E-05 3.27727E-03-3.65174E-13 1.80480E-13
 -1      2125 1.99998E+01-4.98601E-03-5.63685E-06 3.31501E-03 8.47985E-14 5.38967E-13
 -1      2126 2.00000E+01-6.02586E-03 8.44700E-06 3.26221E-03-6.89314E-14 6.70494E-13
 -1      2127 2.00002E+01-5.45979E-03-9.72012E-06 3.90788E-03-1.36818E-13 9.02226E-13
 -1      2128 1.99993E+01-3.21442E-03-1.44601E-05 3.10649E-03 7.94600E-14 2.70909E-13
 -1      2129 1.99996E+01-4.23528E-03 6.85685E-06 3.26975E-03-3.48465E-14 2.56100E-13
 -1      2130 1.99997E+01-4.04086E-03-2.33282E-06 4.07939E-03 5.69973E-14 3.31947E-13
 -1      2131 1.05276E+01-5.13188E+00-1.55025E-01 6.38839E+00 5.58997E-13 5.12465E-13
 -1      2132 6.79101E+00-6.79365E+00-4.23403E-01 5.10722E+00 4.38094E-13 5.46896E-13
 -1      2133 4.06545E-01-6.46378E+00-3.10090E-01 7.66177E-01 4.79339E-14 1.18655E-12
 -1      2134 1.77030E-01-7.58610E+00-4.88664E-01-8.79983E-01-9.85323E-14 1.14142E-12
 -1      2135 4.00352E+00-6.57561E+00-3.29836E-01 4.41221E+00 4.45477E-13 7.98667E-13
 -1      2136 2.17680E+00-6.43313E+00-2.56361E-01 3.23388E+00 7.14429E-14 9.60731E-13
 -1      2137 7.38719E+00-5.53630E+00-1.65888E-01 5.86897E+00-1.84686E-13 4.78506E-13
 -1      2138 1.94535E+01-2.95086E+00 1.58756E-02 6.85027E+00 7.15095E-13 7.47014E-13
 -1      2139 1.48104E+01-4.95879E+00-3.00939E-01 6.11201E+00 6.36158E-13 6.12399E-13
 -1      2140 2.85100E+01 4.67144E-02 1.70273E-01 5.85720E+00 8.37830E-13 5.51781E-13
 -1      2141 2.31589E+01-1.90639E+00-1.73404E-01 5.67558E+00 7.73603E-13 6.87006E-13
 -1      2142 1.95537E+01 4.15312E+00-2.73080E-02-1.11488E+00-3.73331E-13-1.10518E-12
 -1      2143 1.98434E+01 4.06640E+00-2.04584E-02-1.35647E+00-4.69492E-13-1.03233E-12
 -1      2144 2.02334E+01 3.36077E+00-1.75898E-02-1.29508E+00-5.24737E-13-9.15571E-13
 -1      2145 1.96197E+01 3.80546E+00-5.20074E-03-9.21949E-01-3.58099E-13-1.07649E-12
 -1      2146 3.96435E+01 5.94216E+00 3.26687E-01 1.36171E+00 1.28331E-12-3.68150E-13
 -1      2147 3.71064E+01 5.10268E+00 1.83702E-01 2.34599E+00 1.27778E-12-1.03362E-13
 -1      2148 3.87143E+01 7.46063E+00 1.57782E-01-3.87652E-01 1.40493E-12-4.16642E-13
 -1      2149 4.01629E+01 7.07639E+00 4.20545E-01 7.51465E-01 1.35547E-12-3.01453E-13
 -1      2150 3.56534E+01 7.20618E+00 2.97978E-01-3.25326E-01 1.35786E-12-3.38535E-13
 -1      2151 3.86788E+01 5.92261E+00 3.61544E-01-1.95152E+00 1.36319E-12-9.84546E-13
 -1      2152 3.86146E+01 6.83017E+00 1.72020E-01-4.21286E-01 1.36252E-12-5.05956E-13
 -1      2153 3.37771E+01 3.08637E+00 8.81191E-02-3.44015E+00 1.39029E-12-1.11622E-12
 -1      2154 3.76916E+01 4.43521E+00 3.47838E-01-2.92655E+00 1.34032E-12-1.07214E-12
 -1      2155 3.50943E+01 5.25611E+00 2.94344E-01-1.18953E-01 1.24270E-12-2.82385E-13
 -1      2156 2.66696E+01-8.55916E-01-9.47450E-02-5.14230E+00 1.20559E-12-1.36169E-12
 -1      2157 3.13570E+01 8.56172E-01 1.96265E-01-4.82967E+00 1.25949E-12-1.14542E-12
 -1      2158 1.86160E+01-4.06437E+00-2.50791E-01-6.09838E+00 8.79241E-13-1.42458E-12
 -1      2159 2.35114E+01-2.13837E+00 7.63313E-02-6.54650E+00 1.07164E-12-1.48626E-12
 -1      2160 9.95317E+00-6.18310E+00-3.81943E-01-5.79224E+00 5.29021E-13-1.58801E-12
 -1      2161 1.41916E+01-4.30644E+00-9.27658E-02-6.84961E+00 8.81517E-13-1.60305E-12
 -1      2162 4.19169E+00-6.74421E+00-3.12975E-01-4.40756E+00 3.76921E-14-1.48570E-12
 -1      2163 6.93311E+00-5.95032E+00-2.15127E-01-5.62363E+00 4.50529E-13-1.63575E-12
 -1      2164 2.52392E-01-7.71534E+00-4.81439E-01-7.94355E-01-3.95198E-13-1.55631E-12
 -1      2165 1.24078E+00-6.68636E+00-3.25246E-01-2.49502E+00 1.16296E-13-1.59506E-12
 -1      2166 1.07247E+00-7.37388E+00-4.19659E-01 2.38755E+00-9.21208E-13-1.55298E-12
 -1      2167 1.49976E-01-7.90155E+00-4.89953E-01 9.19285E-01-4.60465E-13-1.52289E-12
 -1      2168 6.45267E+00-5.89521E+00-2.03684E-01 5.50276E+00-1.04722E-12-1.57566E-12
 -1      2169 3.57255E+00-7.18207E+00-4.22871E-01 4.00645E+00-7.82818E-13-1.55587E-12
 -1      2170 1.45880E+01-4.96738E+00-1.24451E-01 6.85225E+00-1.15075E-12-1.45585E-12
 -1      2171 9.75195E+00-6.40138E+00-3.84016E-01 5.84057E+00-1.12149E-12-1.50911E-12
 -1      2172 1.02974E+01-5.49432E+00-3.58318E-02 6.56193E+00-3.02425E-13-1.39480E-12
 -1      2173 2.48265E+01-2.57010E+00 2.63931E-02 5.83459E+00-1.33343E-12-1.12771E-12
 -1      2174 1.99729E+01-4.30145E+00-1.22626E-01 6.01565E+00-1.23046E-12-1.25383E-12
 -1      2175 3.32819E+01 2.02903E+00 3.92561E-01 4.67410E+00-1.65336E-12-1.29874E-12
 -1      2176 2.87205E+01-3.73541E-01 2.95855E-02 4.44725E+00-1.59017E-12-1.08286E-12
 -1      2177 3.85851E+01 4.86936E+00 3.97765E-01 2.84745E+00-1.59467E-12-1.06914E-12
 -1      2178 3.49707E+01 3.54383E+00 1.50046E-01 3.68791E+00-1.64074E-12-1.35314E-12
 -1      2179 3.31974E+01 1.83848E+00 2.16095E-01 1.52312E+00-1.35339E-12-6.08735E-13
 -1      2180 4.07176E+01 6.82892E+00 3.65882E-01 6.01505E-01-1.51523E-12-5.46188E-13
 -1      2181 3.92872E+01 6.34684E+00 3.03506E-01 1.70941E+00-1.60888E-12-8.80851E-13
 -1      2182 3.96417E+01 6.99263E+00 2.52985E-01-8.94081E-01-1.15724E-12-3.41782E-13
 -1      2183 4.12340E+01 7.15874E+00 4.28463E-01 1.93387E-01-1.32666E-12-6.01416E-13
 -1      2184 3.63308E+01 4.43856E+00 1.87824E-01-2.55487E+00-9.20958E-13 2.29816E-14
 -1      2185 3.85845E+01 5.59939E+00 2.66800E-01-1.34709E+00-9.99867E-13-3.22964E-13
 -1      2186 3.03970E+01 1.03962E+00-1.24679E-02-4.28658E+00-7.82485E-13 2.60125E-13
 -1      2187 3.47540E+01 2.60645E+00 2.56272E-01-3.80871E+00-8.11361E-13 6.46150E-14
 -1      2188 2.23421E+01-2.31401E+00-1.89586E-01-5.75857E+00-7.80875E-13 5.28189E-13
 -1      2189 2.74380E+01-4.24542E-01 1.46171E-01-5.98390E+00-8.46156E-13 3.81695E-13
 -1      2190 1.38373E+01-5.15147E+00-3.44195E-01-6.02646E+00-6.25611E-13 9.71362E-13
 -1      2191 1.84918E+01-3.19973E+00-1.56195E-02-6.85283E+00-7.41518E-13 8.34388E-13
 -1      2192 6.32048E+00-6.85090E+00-4.18420E-01-5.00204E+00-3.61988E-13 1.08380E-12
 -1      2193 9.84818E+00-5.30098E+00-1.97146E-01-6.15030E+00-6.46927E-13 1.23771E-12
 -1      2194 1.42918E+00-7.35606E+00-4.34920E-01-2.47986E+00-5.81479E-14 1.17129E-12
 -1      2195 3.36528E+00-6.32734E+00-2.76179E-01-4.08110E+00-3.88800E-13 1.19571E-12
 -1      2196 3.56359E+01 3.18129E+00 2.82913E-01 3.35452E+00 1.02660E-12-2.98650E-14
 -1      2197 3.13755E+01 1.59670E+00 1.54054E-02 3.98129E+00 9.33101E-13 2.49134E-13
 -1      2198 3.04509E+01-6.23993E-01 1.75290E-01 2.71127E+00 6.06223E-13-1.22014E-13
 -1      2199 2.16271E+01 1.10477E+00-1.73829E-02-1.14166E+00-6.51139E-13 1.84436E-14
 -1      2200 3.43041E+01 3.77511E+00 2.63125E-01 2.87329E-01 1.08646E-12-3.65041E-13
 -1      2201 2.14507E+01 1.35032E+00-2.11328E-02-1.09095E+00-6.80237E-13-2.70010E-13
 -1      2202 2.15985E+00-5.31445E+00-1.59792E-01 2.23365E+00-9.13991E-14 1.13204E-12
 -1      2203 2.47286E+00-3.44114E+00 7.35453E-03 1.20384E+00-2.67869E-13 1.17262E-12
 -1      2204 4.20677E+00-3.73117E+00-2.02527E-02 3.65292E+00-4.04399E-13 8.86458E-13
 -1      2205 1.50628E+01-5.62597E+00-7.79145E-02 6.73642E+00 3.81362E-14 3.31565E-13
 -1      2206 1.99991E+01-2.53617E-03-1.50779E-05 3.06141E-03 1.67304E-13 3.38457E-13
 -1      2207 2.22453E+00-4.81026E+00-1.63579E-01-2.28614E+00-8.25034E-14 1.26399E-12
 -1      2208 2.36159E+01-4.02375E+00 4.09526E-02 5.38180E+00 2.62346E-13 2.61013E-13
 -1      2209 6.67552E+00-5.49285E+00-1.58355E-01-5.47281E+00-3.18634E-14 1.13745E-12
 -1      2210 1.43247E+01-5.69413E+00-9.73761E-02-6.73174E+00-4.89608E-14 7.71237E-13
 -1      2211 2.27160E+01-4.30489E+00 3.23563E-02-5.61806E+00-2.65066E-13 1.52378E-13
 -1      2212 2.97605E+01-1.20059E+00 1.60398E-01-3.07684E+00-4.63934E-13-2.49134E-13
 -1      2213 3.38372E+01 2.94007E+00 2.47088E-01-5.51018E-01-6.91586E-13-5.42899E-13
 -1      2214 3.60359E+01 6.73394E+00 2.84379E-01 2.72353E-01-1.14725E-12-6.10845E-13
 -1      2215 3.59074E+01 5.82881E+00 3.31313E-01 3.09263E-01-1.59245E-12-4.74454E-13
 -1      2216 1.85741E+01-5.19698E+00-3.62076E-02 6.45190E+00-7.70217E-13-1.07944E-12
 -1      2217 1.74192E+01-5.48232E+00 1.52896E-01 6.75754E+00-1.57874E-13-7.75838E-13
 -1      2218 2.19369E+01-5.60302E+00-1.24255E-01 5.59988E+00-2.25292E-13-5.59053E-13
 -1      2219 3.90387E+00-5.19004E+00-1.67233E-01 4.18339E+00-3.10002E-13-1.59894E-12
 -1      2220 1.30316E+00-5.16722E+00-2.38447E-01 9.34438E-02-2.44402E-13-1.76903E-12
 -1      2221 4.35037E+00-5.03756E+00-1.31239E-01-4.28220E+00-1.54987E-13-1.66878E-12
 -1      2222 1.09235E+01-5.70984E+00-1.17884E-01-6.65025E+00-1.59484E-13-1.49276E-12
 -1      2223 1.90466E+01-5.34185E+00-7.78612E-03-6.54575E+00 1.38500E-13-1.15630E-12
 -1      2224 3.22927E+01 8.75806E-01 1.86730E-01-1.77501E+00 9.02053E-13-3.77087E-13
 -1      2225 3.31530E+01 7.00504E+00-1.76739E-02 4.20887E-01 1.37312E-12-5.43732E-14
 -1      2226 3.67257E+01 7.41713E+00 2.16695E-01-9.28692E-02 1.37695E-12-3.20619E-13
 -1      2227 3.30951E+01 7.62419E+00-5.88430E-02 9.38620E-02 1.37834E-12-1.29585E-13
 -1      2228 2.67630E+01-3.28329E+00 1.03238E-01-4.28804E+00 4.17971E-13-6.97831E-13
 -1      2229 2.74327E+01-2.39452E+00 4.25975E-02 4.11725E+00-1.16201E-12-7.44127E-13
 -1      2230 2.64168E+01-4.09329E+00 1.23047E-01 3.76839E+00-5.97855E-13-3.23797E-13
 -1      2231 2.91627E+01-2.51717E+00-2.08430E-01 2.14390E+00-8.67272E-13-2.02172E-13
 -1      2232 3.65689E+01 8.02372E+00 3.46031E-01-1.23812E-02-1.50668E-12-5.13367E-13
 -1      2233 2.12470E+01 5.73577E-01 7.26991E-03 5.39136E-02 5.26898E-13 4.10083E-13
 -1      2234 2.13741E+01 7.51810E-01 2.06772E-02 3.75743E-01 6.07106E-13 5.02522E-13
 -1      2235 1.87333E+01 3.99453E+00-1.11878E-02-2.31480E-01 1.34029E-15-1.08170E-12
 -1      2236 1.88952E+01 3.92342E+00-6.42796E-03-3.35068E-01-8.24157E-14-1.09121E-12
 -1      2237 1.90900E+01 3.77539E+00-1.40478E-02-4.16426E-01-1.47603E-13-1.08922E-12
 -1      2238 1.93217E+01 3.66012E+00-8.55327E-03-5.47781E-01-2.41352E-13-1.07582E-12
 -1      2239 1.90989E+01 3.53677E+00 2.30445E-03-2.69588E-01-1.14770E-13-1.01370E-12
 -1      2240 1.84957E+01 4.13979E+00-7.08930E-03 3.94429E-02 2.72340E-13-1.03219E-12
 -1      2241 1.84920E+01 4.14175E+00-7.29311E-03-4.01273E-02 1.97367E-13-1.05359E-12
 -1      2242 1.86299E+01 4.06894E+00-6.18310E-03 1.74329E-01 3.97812E-13-9.67003E-13
 -1      2243 1.85413E+01 4.10631E+00-9.05905E-03 8.73199E-02 3.26271E-13-1.00334E-12
 -1      2244 1.85954E+01 3.85722E+00 2.37688E-03 3.98667E-02 2.82893E-13-9.70593E-13
 -1      2245 1.89168E+01 3.90504E+00-6.46361E-03 3.39506E-01 5.20945E-13-8.78853E-13
 -1      2246 1.87536E+01 3.97779E+00-1.13565E-02 2.35077E-01 4.48126E-13-9.34007E-13
 -1      2247 1.87791E+01 3.74009E+00 2.18146E-03 1.38586E-01 4.08207E-13-8.96036E-13
 -1      2248 1.93476E+01 3.63555E+00-8.64454E-03 5.57774E-01 6.45915E-13-7.26985E-13
 -1      2249 1.91141E+01 3.75353E+00-1.41543E-02 4.24232E-01 5.70637E-13-8.17207E-13
 -1      2250 1.91238E+01 3.51266E+00 1.97865E-03 2.72956E-01 5.26169E-13-7.93720E-13
 -1      2251 1.98978E+01 3.23979E+00-1.40664E-02 8.28530E-01 7.60553E-13-5.16914E-13
 -1      2252 1.96074E+01 3.42010E+00-1.73188E-02 6.66711E-01 6.84118E-13-6.33012E-13
 -1      2253 1.96102E+01 3.16719E+00 2.60772E-03 4.52521E-01 6.34817E-13-6.27425E-13
 -1      2254 2.05502E+01 2.66958E+00-2.45455E-02 1.12025E+00 8.45797E-13-2.17711E-13
 -1      2255 2.02121E+01 2.94869E+00-1.98028E-02 9.47029E-01 7.81468E-13-3.83908E-13
 -1      2256 2.02045E+01 2.68825E+00 5.51322E-03 6.59476E-01 7.27487E-13-4.02761E-13
 -1      2257 2.12269E+01 3.49348E-01 7.68508E-03-4.17670E-01 3.67110E-13 2.96147E-13
 -1      2258 2.12251E+01 4.45174E-01 2.02909E-02-2.24573E-01 4.28254E-13 3.61677E-13
 -1      2259 2.11549E+01 7.32775E-01-5.19273E-03-4.80229E-02 5.46696E-13 1.43806E-13
 -1      2260 2.12572E+01 9.53755E-01 1.47129E-02-2.99814E-01-5.29871E-13-3.85450E-13
 -1      2261 2.11653E+01 7.42745E-01-3.49056E-04 4.92744E-02-4.58046E-13-4.03859E-13
 -1      2262 3.23698E+01 3.90012E+00-1.32739E-01-9.83413E-01 1.10117E-12-4.99933E-13
 -1      2263 3.14733E+01 1.94643E+00-4.24476E-02-6.73878E-01 8.30780E-13-5.02043E-13
 -1      2264 2.11725E+01 5.96006E-01 1.61655E-02 3.25098E-01-4.01108E-13-3.66961E-13
 -1      2265 2.11761E+01 4.73833E-01 3.32465E-03 5.44000E-01-3.53095E-13-3.97158E-13
 -1      2266 2.10258E+01 9.08555E-01-3.77943E-03 1.66103E-01-4.40409E-13-5.09458E-13
 -1      2267 2.12106E+01 3.80010E-01 1.16201E-02 7.40773E-01-3.12389E-13-3.66237E-13
 -1      2268 2.12955E+01 2.87210E-01 2.31486E-03 8.78211E-01-2.63788E-13-4.02175E-13
 -1      2269 2.10363E+01 5.78603E-01-6.21389E-03 6.75903E-01-3.39605E-13-4.68626E-13
 -1      2270 2.13802E+01 2.02157E-01 8.52717E-03 1.00618E+00-2.29087E-13-3.65787E-13
 -1      2271 2.15240E+01 1.04250E-01-4.66955E-04 1.07383E+00-1.91935E-13-3.74075E-13
 -1      2272 2.11388E+01 3.30952E-01-7.02023E-03 1.02879E+00-2.55415E-13-4.30947E-13
 -1      2273 2.16688E+01 2.64091E-03 7.69073E-03 1.13029E+00-1.60833E-13-3.40301E-13
 -1      2274 2.18488E+01-1.22841E-01-4.85082E-03 1.12024E+00-1.31751E-13-3.51145E-13
 -1      2275 2.13500E+01 7.42758E-02-7.96425E-03 1.23578E+00-1.66560E-13-3.69728E-13
 -1      2276 2.20635E+01-2.55946E-01 8.45959E-03 1.08791E+00-1.19360E-13-2.88712E-13
 -1      2277 2.22560E+01-4.18690E-01-1.07410E-02 9.80956E-01-7.28937E-14-2.71501E-13
 -1      2278 2.16829E+01-2.47324E-01-9.55529E-03 1.27949E+00-1.20828E-13-2.43433E-13
 -1      2279 2.25468E+01-5.82094E-01 9.72473E-03 8.31365E-01-3.85371E-14-2.45876E-13
 -1      2280 2.27230E+01-7.66806E-01-1.71608E-02 6.08309E-01-4.28928E-14-2.13785E-13
 -1      2281 2.21515E+01-6.55644E-01-1.12620E-02 1.11529E+00-5.72050E-14-1.79716E-13
 -1      2282 2.30766E+01-9.27479E-01 8.99760E-03 3.13652E-01-8.81044E-14-1.51034E-13
 -1      2283 2.31997E+01-1.07267E+00-2.09990E-02-2.39473E-02-6.28477E-14-1.44734E-13
 -1      2284 2.27553E+01-1.10795E+00-1.11195E-02 6.84207E-01-3.67004E-14-1.19543E-13
 -1      2285 2.35557E+01-1.14670E+00 2.89444E-03-4.59038E-01-4.03167E-14-1.08161E-13
 -1      2286 2.35837E+01-1.13453E+00-1.65767E-02-8.54695E-01-7.01461E-14-1.10320E-13
 -1      2287 2.34406E+01-1.44684E+00-5.82169E-03-4.87523E-02-4.81677E-14-6.03735E-14
 -1      2288 2.38189E+01-9.97334E-01-1.20707E-02-1.33637E+00-9.33914E-14-8.34828E-14
 -1      2289 2.37286E+01-6.98643E-01-1.68179E-04-1.64863E+00-1.46379E-13-7.18449E-14
 -1      2290 2.40515E+01-1.38260E+00 5.56122E-03-1.00706E+00-6.67561E-14-1.28782E-15
 -1      2291 2.37088E+01-2.66419E-01-3.26804E-02-1.94465E+00-2.43580E-13-9.66501E-14
 -1      2292 2.35302E+01 3.12385E-01 1.83866E-02-1.96590E+00-2.85402E-13-1.29611E-13
 -1      2293 2.43414E+01-6.18828E-01 1.12335E-02-1.87315E+00-2.25686E-13 5.09631E-14
 -1      2294 2.32712E+01 9.19353E-01-4.39208E-02-1.79092E+00-3.76011E-13-2.47038E-13
 -1      2295 2.31074E+01 1.49856E+00 1.82644E-02-1.38639E+00-4.57249E-13-3.63674E-13
 -1      2296 2.41663E+01 8.10882E-01 6.58974E-04-2.08575E+00-4.19106E-13-1.07738E-13
 -1      2297 2.28867E+01 1.89612E+00-2.70348E-02-6.82925E-01-5.07656E-13-4.88315E-13
 -1      2298 2.28549E+01 2.05083E+00-8.77576E-03 6.33052E-03-4.82048E-13-5.84951E-13
 -1      2299 2.37592E+01 2.18989E+00-2.89224E-02-1.18789E+00-5.72355E-13-3.65850E-13
 -1      2300 2.29390E+01 1.92012E+00 6.36974E-03 8.54993E-01-4.06598E-13-7.47284E-13
 -1      2301 2.30698E+01 1.52551E+00-3.69860E-02 1.45069E+00-3.11641E-13-8.14345E-13
 -1      2302 2.36405E+01 2.55301E+00-3.81773E-02 4.93432E-01-5.44613E-13-5.34053E-13
 -1      2303 2.33672E+01 9.73205E-01 2.20765E-02 1.92893E+00-2.21545E-13-9.17444E-13
 -1      2304 2.35800E+01 3.44513E-01-4.06723E-02 2.13132E+00-1.32542E-13-9.32894E-13
 -1      2305 2.39790E+01 1.62042E+00-1.38781E-02 1.91299E+00-3.47562E-13-8.10936E-13
 -1      2306 2.37540E+01-2.11540E-01 8.13201E-03 2.05954E+00-5.69987E-14-9.60342E-13
 -1      2307 2.39249E+01-6.75304E-01-2.52228E-02 1.87973E+00 6.08671E-15-9.13687E-13
 -1      2308 2.43580E+01 9.10523E-02 4.38373E-03 2.26960E+00-1.28644E-13-8.56945E-13
 -1      2309 2.38261E+01-9.67178E-01-1.08586E-02 1.46186E+00 2.33515E-14-8.58801E-13
 -1      2310 2.38852E+01-1.11841E+00-4.23473E-03 1.09085E+00 1.24833E-13-9.00459E-13
 -1      2311 2.43434E+01-1.05509E+00 1.04700E-02 1.68355E+00 3.52110E-14-7.91923E-13
 -1      2312 2.35836E+01-1.14078E+00-2.07079E-02 6.13079E-01 2.31427E-13-8.40892E-13
 -1      2313 2.35287E+01-1.06303E+00 6.47387E-03 2.35229E-01 2.30576E-13-7.61237E-13
 -1      2314 2.38920E+01-1.46930E+00 1.72645E-04 7.18596E-01 2.19809E-13-6.53437E-13
 -1      2315 2.31687E+01-9.37463E-01-2.02866E-02-1.38551E-01 2.34907E-13-6.81513E-13
 -1      2316 2.30346E+01-7.67609E-01 9.25172E-03-4.25876E-01 2.93892E-13-6.50613E-13
 -1      2317 2.32345E+01-1.30694E+00-8.14256E-03-1.54206E-01 3.28911E-13-5.81576E-13
 -1      2318 2.27079E+01-6.05797E-01-1.47263E-02-6.55981E-01 2.28380E-13-5.80873E-13
 -1      2319 2.25322E+01-4.37318E-01 7.90689E-03-8.30292E-01 2.56262E-13-5.32772E-13
 -1      2320 2.25831E+01-9.01075E-01-1.02308E-02-7.53720E-01 2.71549E-13-5.09170E-13
 -1      2321 2.22700E+01-2.98896E-01-8.46502E-03-9.37489E-01 1.78631E-13-5.34749E-13
 -1      2322 2.20798E+01-1.71105E-01 5.44473E-03-1.01508E+00 1.35742E-13-5.64538E-13
 -1      2323 2.20345E+01-4.86043E-01-8.67722E-03-1.07901E+00 2.03618E-13-4.46090E-13
 -1      2324 2.18794E+01-7.43979E-02-3.38275E-03-1.03624E+00 6.04275E-14-6.35056E-13
 -1      2325 2.16917E+01 7.20369E-03 3.30154E-03-1.04544E+00 1.10929E-14-6.85385E-13
 -1      2326 2.16035E+01-1.64979E-01-6.20130E-03-1.19533E+00 4.30096E-14-5.36994E-13
 -1      2327 2.15394E+01 6.50312E-02 1.14225E-04-1.01407E+00-1.26460E-14-7.61464E-13
 -1      2328 2.13642E+01 1.09105E-01 1.82581E-03-9.81646E-01-3.67870E-15-7.46738E-13
 -1      2329 2.12704E+01 4.40096E-02-4.13479E-03-1.17469E+00-5.75328E-14-6.54320E-13
 -1      2330 2.12465E+01 1.37931E-01 2.21484E-03-9.22664E-01 3.23260E-15-7.39062E-13
 -1      2331 2.10893E+01 1.56102E-01 9.41350E-04-8.69025E-01 2.11098E-14-6.40445E-13
 -1      2332 2.10100E+01 1.59901E-01-2.77894E-03-1.07517E+00 6.68329E-15-7.12633E-13
 -1      2333 2.09964E+01 1.65954E-01 3.27300E-03-7.99091E-01 6.33390E-14-6.00743E-13
 -1      2334 2.08598E+01 1.68195E-01 4.65658E-04-7.37972E-01 4.65378E-14-4.66348E-13
 -1      2335 2.08023E+01 2.10421E-01-1.99681E-03-9.37879E-01 7.84483E-14-5.82414E-13
 -1      2336 2.07852E+01 1.66888E-01 3.62821E-03-6.67341E-01-6.02554E-14-5.52412E-13
 -1      2337 2.06695E+01 1.60388E-01 2.34438E-04-6.07065E-01-1.67117E-14-5.52315E-13
 -1      2338 2.06340E+01 2.20038E-01-1.57148E-03-7.89508E-01-1.54819E-14-5.06225E-13
 -1      2339 2.06092E+01 1.53267E-01 3.55060E-03-5.41487E-01 3.68593E-14-5.34626E-13
 -1      2340 2.05136E+01 1.42704E-01 1.34253E-04-4.86546E-01 4.34729E-14-5.34804E-13
 -1      2341 2.04963E+01 2.06711E-01-1.33174E-03-6.46060E-01 1.01586E-14-3.89209E-13
 -1      2342 2.04648E+01 1.33127E-01 3.23433E-03-4.28809E-01 2.34846E-14-5.13178E-13
 -1      2343 2.03875E+01 1.21324E-01 9.73405E-05-3.81200E-01-4.60128E-14-4.74936E-13
 -1      2344 2.03839E+01 1.82309E-01-1.17238E-03-5.16165E-01 2.84470E-15-3.56489E-13
 -1      2345 2.03483E+01 1.11260E-01 2.80897E-03-3.32241E-01-4.58510E-14-4.02805E-13
 -1      2346 2.02869E+01 9.97928E-02 8.70419E-05-2.92448E-01-2.76092E-16-2.07925E-13
 -1      2347 2.02927E+01 1.54101E-01-1.04042E-03-4.03633E-01 3.19681E-14-2.43721E-13
 -1      2348 2.02558E+01 9.03075E-02 2.35572E-03-2.52115E-01-5.85935E-14-2.24056E-13
 -1      2349 2.02081E+01 7.99690E-02 8.51209E-05-2.19771E-01-8.15887E-14-1.31180E-13
 -1      2350 2.02194E+01 1.26224E-01-9.15181E-04-3.09296E-01-4.65555E-14-1.78603E-13
 -1      2351 2.01837E+01 7.15681E-02 1.92187E-03-1.87325E-01-1.68891E-13-2.30556E-13
 -1      2352 2.01473E+01 6.26769E-02 8.36207E-05-1.61640E-01-2.27275E-13-2.80665E-13
 -1      2353 2.01615E+01 1.00816E-01-7.91873E-04-2.32257E-01-2.02817E-13-6.26217E-14
 -1      2354 2.01285E+01 5.55358E-02 1.53195E-03-1.36078E-01-2.51173E-14-2.50385E-13
 -1      2355 2.01012E+01 4.81412E-02 7.99555E-05-1.16098E-01 4.66785E-14-1.76818E-13
 -1      2356 2.01163E+01 7.87909E-02-6.71999E-04-1.70730E-01-9.67417E-14-6.27731E-15
 -1      2357 2.00870E+01 4.22515E-02 1.19597E-03-9.63459E-02 8.23429E-14-8.86535E-14
 -1      2358 2.00670E+01 3.62602E-02 7.40262E-05-8.11041E-02 1.74270E-13-1.02093E-13
 -1      2359 2.00816E+01 6.03578E-02-5.58951E-04-1.22565E-01 1.75477E-13 1.66385E-13
 -1      2360 2.00564E+01 3.15194E-02 9.15369E-04-6.61263E-02 1.32110E-13-8.54039E-15
 -1      2361 2.00422E+01 2.67717E-02 6.65701E-05-5.47222E-02 2.22112E-13 4.94163E-14
 -1      2362 2.00555E+01 4.53425E-02-4.55926E-04-8.55713E-02 2.08267E-13 3.48595E-13
 -1      2363 2.00344E+01 2.30356E-02 6.86826E-04-4.35812E-02 1.97570E-13 4.64207E-14
 -1      2364 2.00245E+01 1.93484E-02 5.84154E-05-3.52189E-02 1.60659E-13 1.45316E-13
 -1      2365 2.00363E+01 3.33853E-02-3.64981E-04-5.76871E-02 2.14191E-13 4.19202E-13
 -1      2366 2.00191E+01 1.64611E-02 5.04670E-04-2.70994E-02 9.54916E-14-1.74592E-14
 -1      2367 2.00125E+01 1.36523E-02 5.02116E-05-2.11011E-02-6.73059E-16-4.67474E-14
 -1      2368 2.00224E+01 2.40553E-02-2.86886E-04-3.70744E-02 5.92029E-14 2.75792E-13
 -1      2369 2.00087E+01 1.14627E-02 3.62319E-04-1.53164E-02 1.40054E-13-8.42898E-14
 -1      2370 2.00045E+01 9.36345E-03 4.23543E-05-1.11213E-02 1.53953E-13 3.06456E-14
 -1      2371 2.00127E+01 1.69139E-02-2.21397E-04-2.21538E-02 9.17922E-14 3.88719E-14
 -1      2372 2.00020E+01 7.73335E-03 2.53157E-04-7.10824E-03 1.08222E-14 1.20758E-13
 -1      2373 1.99996E+01 6.19382E-03 3.49848E-05-4.26360E-03-4.46559E-14 3.30754E-13
 -1      2374 2.00061E+01 1.15492E-02-1.67599E-04-1.16070E-02 7.67587E-14 5.66397E-14
 -1      2375 1.99980E+01 5.00140E-03 1.71035E-04-1.57157E-03-5.32092E-14 4.27468E-13
 -1      2376 1.99968E+01 3.89189E-03 2.80084E-05 2.78578E-04 6.92047E-14 4.92418E-13
 -1      2377 2.00019E+01 7.59228E-03-1.24196E-04-4.36225E-03 8.95313E-14 4.54509E-13
 -1      2378 1.99959E+01 3.03180E-03 1.10505E-04 2.00096E-03-1.73466E-14 4.49110E-13
 -1      2379 1.99956E+01 2.24149E-03 2.11477E-05 3.12863E-03 7.11747E-14 3.95738E-13
 -1      2380 1.99993E+01 4.72133E-03-8.97587E-05 4.30387E-04-6.09201E-14 6.55146E-13
 -1      2381 1.99952E+01 1.62330E-03 6.69943E-05 4.14691E-03 1.82745E-13 2.82757E-13
 -1      2382 1.99953E+01 1.05760E-03 1.40514E-05 4.75193E-03 2.18140E-13 1.97582E-13
 -1      2383 1.99980E+01 2.65987E-03-6.28703E-05 3.42641E-03-1.37037E-15 5.75293E-13
 -1      2384 1.99952E+01 6.03211E-04 3.67008E-05 5.25861E-03 1.25705E-13 1.95081E-13
 -1      2385 1.99957E+01 1.80306E-04 6.24196E-06 5.47927E-03 1.83995E-13 2.07281E-13
 -1      2386 1.99974E+01 1.17154E-03-4.21725E-05 5.11401E-03 1.38582E-13 2.28866E-13
 -1      2387 1.99958E+01-1.79084E-04 1.67280E-05 5.60456E-03 2.94851E-13 2.50482E-13
 -1      2388 1.99965E+01-5.28438E-04-1.29406E-06 5.52618E-03 1.46022E-13 2.99868E-13
 -1      2389 1.99974E+01 5.07308E-05-2.70114E-05 5.84010E-03 2.07402E-13 3.82061E-13
 -1      2390 1.99967E+01-8.61181E-04 2.23061E-06 5.35256E-03-3.73562E-14 4.00934E-13
 -1      2391 1.99974E+01-1.18020E-03-7.94282E-06 5.01437E-03-5.84128E-14 3.85277E-13
 -1      2392 1.99978E+01-8.70695E-04-1.55966E-05 5.83333E-03 1.70160E-13 4.13073E-13
 -1      2393 1.05975E+01-4.67858E+00 3.41128E-02 6.67240E+00-4.02345E-13 2.12497E-13
 -1      2394 7.71834E+00-4.07444E+00 8.06232E-02 5.56392E+00-4.64795E-13 4.40648E-13
 -1      2395 2.16091E+01 7.74108E-02 5.87926E-04-8.87614E-01 2.05668E-13 9.43273E-14
 -1      2396 2.14463E+01 1.45595E-01 8.14015E-03-8.31691E-01 2.38056E-13 1.57695E-13
 -1      2397 2.19441E+01-7.77484E-02-4.36316E-03-9.19972E-01 1.45877E-13 4.82162E-14
 -1      2398 2.17530E+01 7.19409E-03 5.59789E-03-9.30569E-01 1.74368E-13 7.96440E-14
 -1      2399 2.14908E+01 5.73417E-02-6.67389E-03-1.04948E+00 2.26935E-13-8.32908E-14
 -1      2400 2.23229E+01-2.76697E-01-1.02330E-02-7.88105E-01 9.94673E-14 9.39270E-14
 -1      2401 2.21376E+01-1.67961E-01 4.49829E-03-8.80718E-01 1.15915E-13 6.89351E-14
 -1      2402 2.18175E+01-1.74630E-01-6.63162E-03-1.06763E+00 1.36608E-13-5.00508E-14
 -1      2403 2.26987E+01-5.09329E-01-1.60038E-02-4.55549E-01 7.69645E-14 1.63336E-13
 -1      2404 2.25572E+01-3.86926E-01 3.88797E-03-6.45126E-01 6.45968E-14 1.24594E-13
 -1      2405 2.22305E+01-4.64071E-01-6.17617E-03-8.91585E-01 5.40527E-14-4.33404E-14
 -1      2406 2.30088E+01-7.16166E-01-1.92271E-02 9.04727E-02 5.46056E-14 2.42171E-13
 -1      2407 2.29510E+01-6.18621E-01 2.10345E-03-1.92322E-01 7.85873E-14 2.28217E-13
 -1      2408 2.27023E+01-7.80348E-01-4.11818E-03-4.79698E-01 4.61391E-14 1.06992E-13
 -1      2409 2.31705E+01-7.72247E-01-1.54712E-02 7.89581E-01 9.41651E-14 2.18730E-13
 -1      2410 2.32300E+01-7.72654E-01-2.35176E-03 4.60852E-01 7.33675E-14 2.64960E-13
 -1      2411 2.31706E+01-1.02052E+00 4.87298E-04 1.77487E-01 7.39946E-14 1.83767E-13
 -1      2412 2.30949E+01-5.17035E-01-2.15285E-03 1.44725E+00 1.02255E-13 2.37816E-13
 -1      2413 2.32779E+01-6.95803E-01-1.06090E-02 1.18507E+00 1.04010E-13 2.67390E-13
 -1      2414 2.35163E+01-9.92351E-01 8.54815E-03 9.94349E-01 9.77263E-14 1.89213E-13
 -1      2415 2.27540E+01 1.08967E-01 1.49760E-02 1.72962E+00 1.70097E-13 2.39209E-13
 -1      2416 2.30132E+01-2.51058E-01-1.98814E-02 1.69100E+00 1.29211E-13 2.55508E-13
 -1      2417 2.35834E+01-5.00231E-01 1.43223E-02 1.70867E+00 1.03860E-13 2.39412E-13
 -1      2418 2.22832E+01 8.88467E-01 2.15521E-02 1.32817E+00 2.30658E-13 1.11706E-13
 -1      2419 2.25133E+01 5.00934E-01-2.25218E-02 1.61509E+00 2.24303E-13 1.90717E-13
 -1      2420 2.33069E+01 4.32909E-01 4.63150E-03 1.89811E+00 2.17472E-13 2.52105E-13
 -1      2421 2.19847E+01 1.35243E+00 8.76133E-03 2.57583E-01 2.13243E-13-4.46336E-14
 -1      2422 2.20683E+01 1.19332E+00-9.16340E-03 7.96003E-01 2.54616E-13 3.68941E-14
 -1      2423 2.28781E+01 1.41117E+00-1.67486E-02 1.23497E+00 3.04402E-13-4.18544E-14
 -1      2424 2.21197E+01 1.16883E+00-1.16628E-02-9.84892E-01 2.88655E-13-3.21887E-13
 -1      2425 2.20070E+01 1.34957E+00 1.27789E-02-4.53044E-01 2.28779E-13-1.79535E-13
 -1      2426 2.26893E+01 1.82739E+00-2.42526E-02-1.17290E-01 3.54052E-13-2.61786E-13
 -1      2427 2.26337E+01 4.58556E-01-2.34678E-02-1.77065E+00 3.45053E-13-4.54427E-13
 -1      2428 2.23700E+01 8.53010E-01 2.17954E-02-1.50298E+00 3.55682E-13-4.10251E-13
 -1      2429 2.29403E+01 1.38461E+00-1.11923E-02-1.44310E+00 3.74228E-13-5.35617E-13
 -1      2430 2.31769E+01-2.77210E-01-1.79327E-02-1.80849E+00 1.89169E-13-4.37293E-13
 -1      2431 2.28874E+01 6.75341E-02 1.24565E-02-1.86051E+00 3.12572E-13-4.27541E-13
 -1      2432 2.34072E+01 3.74857E-01 3.91743E-03-2.06256E+00 3.32409E-13-5.73435E-13
 -1      2433 2.34720E+01-6.93409E-01-6.71454E-03-1.29051E+00 2.88649E-14-4.98316E-13
 -1      2434 2.32591E+01-5.33162E-01-3.78839E-03-1.55040E+00 1.35928E-13-4.06068E-13
 -1      2435 2.36967E+01-5.32179E-01 1.41422E-02-1.83137E+00 1.36989E-13-4.94323E-13
 -1      2436 2.34556E+01-7.55021E-01 3.28325E-04-5.73491E-01-1.00312E-13-5.62812E-13
 -1      2437 2.33675E+01-7.63613E-01-1.58613E-02-8.90403E-01-4.85844E-14-5.39725E-13
 -1      2438 2.36437E+01-9.91446E-01 8.75278E-03-1.11129E+00 2.48603E-14-4.36536E-13
 -1      2439 2.32100E+01-5.99633E-01 3.13414E-03 6.74913E-02-5.54721E-14-6.03177E-13
 -1      2440 2.32413E+01-6.96767E-01-1.91133E-02-2.02357E-01-1.97654E-14-5.78694E-13
 -1      2441 2.33184E+01-1.00195E+00 2.65093E-04-3.04440E-01-3.19410E-14-5.46907E-13
 -1      2442 2.28457E+01-3.77900E-01 3.24193E-03 5.13973E-01-3.63212E-14-5.18286E-13
 -1      2443 2.29649E+01-4.92484E-01-1.59265E-02 3.31796E-01-9.89712E-14-6.06987E-13
 -1      2444 2.28714E+01-7.62126E-01-4.51849E-03 3.42030E-01-8.45623E-14-5.93066E-13
 -1      2445 2.24430E+01-1.79678E-01 2.52038E-03 7.59692E-01 1.34200E-14-3.39772E-13
 -1      2446 2.26143E+01-2.74611E-01-1.04105E-02 6.63448E-01-2.05218E-15-4.58486E-13
 -1      2447 2.24139E+01-4.60501E-01-5.40032E-03 7.54635E-01-5.83162E-14-5.35549E-13
 -1      2448 2.20476E+01-3.72116E-02 1.75603E-03 8.48129E-01-6.27490E-14-2.51659E-13
 -1      2449 2.22411E+01-1.02055E-01-5.16675E-03 8.17764E-01 2.28331E-14-2.51743E-13
 -1      2450 2.19971E+01-2.03004E-01-4.57732E-03 9.56999E-01-2.95582E-14-3.41437E-13
 -1      2451 2.16821E+01 4.99856E-02 1.24289E-03 8.32153E-01-2.16809E-14-2.19556E-13
 -1      2452 2.18763E+01 1.22372E-02-1.20677E-03 8.44700E-01-1.05408E-14-1.90323E-13
 -1      2453 2.16347E+01-2.29364E-02-3.46981E-03 1.00560E+00-4.27152E-14-3.28426E-13
 -1      2454 2.13567E+01 9.46158E-02 9.58496E-04 7.56544E-01-4.75972E-14-2.04226E-13
 -1      2455 2.15381E+01 7.67424E-02 1.36359E-03 7.92914E-01 1.35139E-14-2.08577E-13
 -1      2456 2.13249E+01 8.45117E-02-2.61193E-03 9.56782E-01 1.97017E-14-2.86597E-13
 -1      2457 2.10751E+01 1.10807E-01 8.15268E-04 6.53470E-01-1.29704E-13-1.51201E-13
 -1      2458 2.12361E+01 1.05759E-01 2.78537E-03 7.00149E-01-1.02542E-13-2.19182E-13
 -1      2459 2.10623E+01 1.37447E-01-2.06629E-03 8.54969E-01-8.75958E-14-1.47093E-13
 -1      2460 2.08369E+01 1.09996E-01 7.37211E-04 5.43618E-01-2.60061E-13-2.94087E-13
 -1      2461 2.09747E+01 1.12359E-01 3.38484E-03 5.92069E-01-2.11700E-13-2.37140E-13
 -1      2462 2.08411E+01 1.54553E-01-1.73862E-03 7.31023E-01-1.37478E-13-2.97152E-13
 -1      2463 2.06398E+01 1.00181E-01 6.78524E-04 4.38997E-01-1.73769E-13-7.17596E-14
 -1      2464 2.07541E+01 1.06282E-01 3.45489E-03 4.84392E-01-2.52278E-13-1.41857E-13
 -1      2465 2.06566E+01 1.50563E-01-1.52796E-03 6.04416E-01-2.92380E-13-4.15308E-13
 -1      2466 2.04799E+01 8.64605E-02 6.19147E-04 3.45713E-01 7.09678E-14 5.44714E-14
 -1      2467 2.05723E+01 9.40107E-02 3.21961E-03 3.85705E-01-1.85739E-14 3.58430E-14
 -1      2468 2.05047E+01 1.35645E-01-1.36551E-03 4.86260E-01-1.98422E-13-2.84120E-13
 -1      2469 2.03526E+01 7.18497E-02 5.53930E-04 2.66143E-01 1.78811E-13 2.29828E-14
 -1      2470 2.04257E+01 7.95254E-02 2.83367E-03 2.99924E-01 2.01479E-13 1.37099E-13
 -1      2471 2.03814E+01 1.16224E-01-1.21575E-03 3.82033E-01 4.04342E-14-1.70748E-13
 -1      2472 2.02532E+01 5.79972E-02 4.84458E-04 2.00464E-01 1.00530E-13-1.66368E-13
 -1      2473 2.03097E+01 6.50965E-02 2.39555E-03 2.28112E-01 1.18309E-13-5.94553E-14
 -1      2474 2.02829E+01 9.60685E-02-1.06646E-03 2.93662E-01 1.66738E-13-1.32204E-13
 -1      2475 2.01769E+01 4.56995E-02 4.14271E-04 1.47658E-01-9.30677E-14-8.91063E-14
 -1      2476 2.02198E+01 5.19036E-02 1.96358E-03 1.69718E-01 1.52286E-14-8.62642E-14
 -1      2477 2.02055E+01 7.72126E-02-9.17778E-04 2.20969E-01 4.62651E-15-6.42676E-14
 -1      2478 2.01196E+01 3.52441E-02 3.46802E-04 1.06150E-01 2.52829E-14 5.83866E-14
 -1      2479 2.01514E+01 4.04598E-02 1.56916E-03 1.23364E-01-5.96266E-14-1.54126E-14
 -1      2480 2.01457E+01 6.06108E-02-7.74150E-04 1.62641E-01-7.67020E-14 1.26595E-13
 -1      2481 2.00773E+01 2.66319E-02 2.84706E-04 7.41865E-02-8.27221E-14 1.92451E-13
 -1      2482 2.01004E+01 3.08903E-02 1.22637E-03 8.73469E-02 1.52934E-14 1.03976E-13
 -1      2483 2.01003E+01 4.65784E-02-6.40146E-04 1.16844E-01-8.12588E-14 2.22520E-13
 -1      2484 2.00470E+01 1.97157E-02 2.29608E-04 5.00576E-02-1.74922E-13 3.31304E-13
 -1      2485 2.00632E+01 2.31097E-02 9.38749E-04 5.99191E-02-1.20077E-13 2.04267E-13
 -1      2486 2.00665E+01 3.50725E-02-5.19235E-04 8.16006E-02-1.18681E-13 2.54206E-13
 -1      2487 2.00257E+01 1.42823E-02 1.82189E-04 3.22077E-02-8.12447E-16 2.79874E-13
 -1      2488 2.00368E+01 1.69301E-02 7.03964E-04 3.94460E-02-3.57699E-14 2.77234E-13
 -1      2489 2.00419E+01 2.58682E-02-4.13425E-04 5.50058E-02-9.01912E-14 9.74199E-14
 -1      2490 2.00114E+01 1.00997E-02 1.42399E-04 1.92845E-02 9.60828E-14 1.12056E-13
 -1      2491 2.00187E+01 1.21242E-02 5.16680E-04 2.44798E-02-1.75471E-14 2.06741E-13
 -1      2492 2.00245E+01 1.86630E-02-3.23279E-04 3.53357E-02 4.24986E-14 1.59485E-13
 -1      2493 2.00022E+01 6.94271E-03 1.09684E-04 1.01511E-02-6.75418E-15 1.19442E-13
 -1      2494 2.00066E+01 8.46034E-03 3.70339E-04 1.37864E-02 1.49499E-13 7.85550E-14
 -1      2495 2.00125E+01 1.31352E-02-2.48244E-04 2.10962E-02 1.20927E-13 3.09589E-14
 -1      2496 1.99967E+01 4.60584E-03 8.31616E-05 3.87814E-03-2.39535E-13 2.84817E-13
 -1      2497 1.99991E+01 5.72134E-03 2.58189E-04 6.34472E-03-1.86734E-13 7.73405E-14
 -1      2498 2.00046E+01 8.97678E-03-1.87043E-04 1.10338E-02-1.14010E-13 2.10032E-13
 -1      2499 1.99938E+01 2.90785E-03 6.17378E-05-2.75094E-04-2.58169E-13 4.07858E-13
 -1      2500 1.99949E+01 3.71274E-03 1.73863E-04 1.33160E-03-2.01444E-13 3.40267E-13
 -1      2501 1.99997E+01 5.90789E-03-1.38020E-04 4.12517E-03-2.47433E-13 1.18588E-14
 -1      2502 1.99928E+01 1.69216E-03 4.42040E-05-2.88258E-03-1.57353E-13 1.27130E-13
 -1      2503 1.99929E+01 2.26510E-03 1.11676E-04-1.89906E-03-1.83094E-13 3.01214E-13
 -1      2504 1.99969E+01 3.68299E-03-9.93730E-05-4.43613E-04-1.04556E-13 1.86276E-13
 -1      2505 1.99929E+01 8.24585E-04 2.93363E-05-4.37398E-03 1.83885E-13 9.73493E-14
 -1      2506 1.99924E+01 1.23283E-03 6.67272E-05-3.83930E-03-4.33853E-14 1.83313E-13
 -1      2507 1.99957E+01 2.09028E-03-6.93092E-05-3.30155E-03 1.09162E-14 8.46952E-14
 -1      2508 1.99937E+01 1.89088E-04 1.59278E-05-5.05544E-03 2.72083E-13 4.19993E-13
 -1      2509 1.99930E+01 4.91049E-04 3.49472E-05-4.84888E-03 2.71687E-13 2.09574E-13
 -1      2510 1.99954E+01 9.48302E-04-4.62313E-05-4.91779E-03 1.25371E-13 9.96732E-14
 -1      2511 1.99950E+01-3.17061E-04 3.85179E-06-5.12674E-03 2.07317E-15 6.39051E-13
 -1      2512 1.99940E+01-7.00686E-05 1.30472E-05-5.17493E-03 2.00772E-13 6.06700E-13
 -1      2513 1.99958E+01 9.97484E-05-2.89134E-05-5.62629E-03 1.35783E-13 5.14735E-13
 -1      2514 1.99964E+01-7.89277E-04-6.93236E-06-4.69793E-03 9.88878E-14 3.67750E-13
 -1      2515 1.99954E+01-5.54416E-04-2.66513E-06-4.96991E-03 4.15030E-14 5.54774E-13
 -1      2516 1.99965E+01-5.87252E-04-1.45105E-05-5.64847E-03 6.56695E-14 3.54815E-13
 -1      2517 1.99977E+01-1.28257E-03-1.80634E-05-3.81985E-03-7.59351E-14 5.09613E-13
 -1      2518 1.99968E+01-1.02463E-03-8.21800E-06-4.29443E-03-4.31768E-14 5.19168E-13
 -1      2519 1.99974E+01-1.25767E-03-2.50353E-06-5.11596E-03-2.22152E-15 3.34569E-13
 -1      2520 1.99982E+01-1.52083E-03-1.01180E-05-3.15333E-03-2.25370E-14 6.17540E-13
 -1      2521 2.00011E+01-5.76237E-03 1.64960E-05-3.42588E-03 9.82402E-14-3.92459E-13
 -1      2522 2.00009E+01-5.24303E-03 6.11568E-06-3.84967E-03 6.44394E-14-9.42892E-13
 -1      2523 2.00014E+01-6.38183E-03 1.73724E-05-2.30905E-03-4.88104E-14-2.04853E-13
 -1      2524 2.00013E+01-6.01279E-03 1.30527E-05-2.86115E-03 4.55694E-14-2.92661E-13
 -1      2525 2.00016E+01-4.66806E-03-7.97373E-06-3.45147E-03 1.70578E-13-4.21083E-13
 -1      2526 1.99999E+01-3.82216E-03 1.51925E-05-4.62197E-03-1.87816E-13-5.23702E-13
 -1      2527 1.99994E+01-3.12933E-03-1.99347E-05-4.59137E-03-1.07816E-13-1.59532E-13
 -1      2528 2.00006E+01-4.89043E-03 1.53221E-05-4.24526E-03-1.24594E-13-9.39947E-13
 -1      2529 2.00003E+01-4.27059E-03-3.69551E-06-4.46908E-03-1.25680E-13-7.86302E-13
 -1      2530 2.00002E+01-3.34066E-03-7.72618E-06-5.03495E-03-2.75239E-13-6.79358E-13
 -1      2531 2.00010E+01-4.09644E-03-7.55241E-06-4.45763E-03 1.74583E-15-7.48719E-13
 -1      2532 2.00016E+01-6.71942E-03 1.83077E-05-1.02222E-03-3.37400E-13-1.57165E-13
 -1      2533 2.00015E+01-6.52864E-03 1.71836E-05-1.64431E-03-2.62040E-13-1.68667E-13
 -1      2534 2.00020E+01-5.04788E-03-7.63453E-06-2.16564E-03-6.56801E-14-3.79645E-13
 -1      2535 2.00016E+01-6.76580E-03 1.86056E-05 3.32013E-04-5.05825E-13 1.61658E-13
 -1      2536 2.00016E+01-6.76723E-03 1.85860E-05-3.11872E-04-4.32272E-13 2.25313E-14
 -1      2537 2.00022E+01-5.23506E-03-7.17596E-06-7.30109E-04-3.21906E-13-1.82236E-13
 -1      2538 2.00015E+01-6.52335E-03 1.73885E-05 1.66343E-03-4.92464E-13-2.29534E-13
 -1      2539 2.00016E+01-6.71699E-03 1.81390E-05 1.04206E-03-4.98709E-13-3.80539E-14
 -1      2540 2.00022E+01-5.23406E-03-7.16087E-06 7.51858E-04-4.12621E-13 3.06422E-14
 -1      2541 2.00013E+01-6.01500E-03 1.32438E-05 2.85918E-03-2.46886E-13-2.93671E-13
 -1      2542 2.00014E+01-6.37939E-03 1.71694E-05 2.31690E-03-3.88310E-13-1.81843E-13
 -1      2543 2.00020E+01-5.04735E-03-7.60011E-06 2.17465E-03-3.06600E-13-2.12837E-14
 -1      2544 2.00009E+01-5.24666E-03 5.64335E-06 3.84971E-03-1.29934E-13 5.04705E-13
 -1      2545 2.00011E+01-5.76527E-03 1.63490E-05 3.42532E-03-1.28868E-13-3.68056E-13
 -1      2546 2.00016E+01-4.67112E-03-7.69390E-06 3.45006E-03-1.18461E-13-2.89687E-13
 -1      2547 2.00003E+01-4.26413E-03-6.20985E-06 4.47288E-03-1.88085E-15 9.46219E-13
 -1      2548 2.00006E+01-4.88875E-03 1.59138E-05 4.24804E-03-2.31118E-13 1.19438E-12
 -1      2549 2.00010E+01-4.08962E-03-3.86505E-06 4.46657E-03-7.41474E-14 6.75431E-13
 -1      2550 1.99994E+01-3.11292E-03-1.59025E-05 4.56719E-03-5.16718E-14 2.84369E-13
 -1      2551 1.99999E+01-3.80451E-03 1.14216E-05 4.62633E-03-3.75638E-14 4.00026E-13
 -1      2552 2.00002E+01-3.32324E-03-3.84062E-06 5.03408E-03-2.87558E-14 7.38377E-13
 -1      2553 1.99987E+01-2.28093E-03-5.77645E-06 3.74497E-03 2.68417E-13 3.98354E-13
 -1      2554 3.18725E+00-2.97034E+00 1.08439E-01-1.17005E+00-2.09791E-13 1.15219E-12
 -1      2555 4.23688E+00-3.05351E+00 5.76897E-02-3.31282E+00-1.59012E-13 9.97036E-13
 -1      2556 2.13575E+01 2.07275E-01 4.58637E-03-7.19162E-01 2.61687E-13 1.90763E-13
 -1      2557 2.12565E+01 2.75313E-01 1.30221E-02-6.01938E-01 3.01765E-13 2.52636E-13
 -1      2558 2.12647E+01 2.49046E-01-6.65974E-03-8.72264E-01 2.99026E-13-1.68754E-14
 -1      2559 1.84754E+01-5.43169E+00-3.33822E-02 6.62912E+00-1.52878E-13 2.86195E-13
 -1      2560 1.43325E+01-5.39735E+00 3.07681E-02 6.67518E+00-3.28515E-13 2.30739E-13
 -1      2561 7.05552E+00-3.86347E+00 8.12555E-02-5.20749E+00 1.20626E-13 8.93369E-13
 -1      2562 1.02000E+01-4.62247E+00 2.73283E-02-6.55806E+00 1.83298E-13 8.02497E-13
 -1      2563 2.11874E+01 2.01314E+00-1.05057E-02-1.26382E+00-6.50669E-13-5.30773E-13
 -1      2564 2.11812E+01 1.29055E+00-5.53123E-03-6.23110E-01-6.02179E-13-4.56074E-13
 -1      2565 2.09995E+01 1.50885E+00 3.81592E-03-4.82499E-01-5.52551E-13-5.70355E-13
 -1      2566 2.07797E+01 2.49064E+00-1.77460E-03-1.16611E+00-6.08490E-13-7.06430E-13
 -1      2567 2.59279E+01-4.17577E+00-6.68358E-02 4.13912E+00 7.31915E-14-1.48381E-13
 -1      2568 2.25030E+01-5.14978E+00 7.43375E-03 5.09396E+00-8.06299E-14 4.29656E-14
 -1      2569 6.38966E+00-3.48004E+00 4.43605E-02 4.99985E+00 1.13798E-14-1.38789E-12
 -1      2570 4.13690E+00-3.46417E+00 6.45265E-02 3.06381E+00-1.32117E-14-1.52706E-12
 -1      2571 1.85308E+01 4.11497E+00-8.86292E-03-8.69223E-02 1.52423E-13-1.06689E-12
 -1      2572 1.86128E+01 4.08155E+00-6.25509E-03-1.72318E-01 7.20397E-14-1.08072E-12
 -1      2573 1.87596E+01 3.75697E+00 2.27345E-03-1.40518E-01 3.39586E-14-1.01490E-12
 -1      2574 1.85876E+01 3.86361E+00 2.40040E-03-4.48084E-02 1.60135E-13-1.01192E-12
 -1      2575 2.53572E+01-4.55806E+00 2.17549E-02-3.98977E+00-2.91434E-14-3.09808E-13
 -1      2576 2.80506E+01-3.33971E+00-9.94928E-02-2.89336E+00 2.48079E-13-1.05249E-13
 -1      2577 3.25253E+01 6.91570E+00-1.53515E-01-7.58655E-01 1.26882E-12-2.50661E-13
 -1      2578 3.26905E+01 5.88985E+00-7.90090E-02-1.00361E+00 1.25561E-12-3.94407E-13
 -1      2579 3.22990E+01 3.51148E+00-6.51261E-02 7.35449E-01 9.62896E-13 4.16889E-14
 -1      2580 3.24373E+01 5.01564E+00-1.76301E-01 9.18874E-01 1.17095E-12 1.35614E-13
 -1      2581 3.00016E+01-1.03855E+00-3.23796E-02-1.07032E+00 5.20424E-13 1.74860E-14
 -1      2582 3.18510E+01 1.20872E+00-1.01881E-01-1.32458E-01 7.91506E-13 6.42264E-14
 -1      2583 1.77719E+01-5.63043E+00 3.06652E-02-6.50272E+00-3.31624E-13-9.72868E-13
 -1      2584 2.17052E+01-5.38349E+00-5.29436E-02-5.90594E+00-2.02588E-13-6.89851E-13
 -1      2585 1.13258E+01-4.58352E+00 1.23329E-01-6.55338E+00-4.80616E-13-1.28092E-12
 -1      2586 1.45376E+01-5.21680E+00 2.22899E-02-7.10220E+00-3.35065E-13-1.19914E-12
 -1      2587 1.77720E+01-5.15638E+00 1.11817E-01-6.42415E+00-6.18561E-13-9.08995E-13
 -1      2588 4.39829E+00-3.24664E+00 8.67381E-02-3.16210E+00-2.73642E-13-1.59067E-12
 -1      2589 7.00896E+00-3.61683E+00 2.11034E-02-5.38947E+00-2.82302E-13-1.43219E-12
 -1      2590 3.08984E+00-3.11159E+00 5.53838E-02 1.32403E+00-1.36863E-13-1.66517E-12
 -1      2591 3.07659E+00-2.86766E+00 6.30170E-02-9.62017E-01-5.41650E-14-1.70591E-12
 -1      2592 5.51704E+00-1.86668E+00 1.61771E-01 2.14436E+00 1.26496E-13-1.56886E-12
 -1      2593 1.35251E+01-4.80114E+00 6.58434E-02 7.05154E+00-8.88178E-16-1.06026E-12
 -1      2594 1.03653E+01-4.26164E+00 1.36076E-01 6.25396E+00 1.59539E-13-1.25153E-12
 -1      2595 3.31663E+01 7.49441E+00-1.09208E-01 1.29886E-01-1.36890E-12-4.81514E-13
 -1      2596 3.28788E+01 7.20749E+00-1.19270E-01-3.87047E-01-1.43519E-12-4.09159E-13
 -1      2597 3.22827E+01 1.88922E+00-1.01567E-01-8.56621E-02-1.23507E-12-2.34368E-13
 -1      2598 3.08218E+01 1.05791E-01-5.11822E-02 3.56556E-01-1.05013E-12-2.33924E-13
 -1      2599 3.27871E+01 5.83957E+00-1.55127E-01-8.92835E-01-1.49375E-12-2.10248E-13
 -1      2600 3.26225E+01 4.15847E+00-7.17674E-02-6.82575E-01-1.43843E-12-2.32037E-13
 -1      2601 3.08199E+01 2.71776E+00-4.00268E-02-1.51573E+00-1.14991E-12 4.16334E-15
 -1      2602 3.23150E+01 5.48584E+00-9.10149E-02 1.10322E+00-9.11438E-13-7.04631E-13
 -1      2603 3.29959E+01 6.84066E+00-1.20775E-01 7.58588E-01-1.14869E-12-5.76247E-13
 -1      2604 3.12431E+01 9.85214E-01-4.42974E-02 3.12268E-01-4.52111E-13-7.44460E-13
 -1      2605 3.20438E+01 2.88668E+00-1.66584E-01 9.04338E-01-6.37712E-13-7.92283E-13
 -1      2606 2.78268E+01-3.05635E+00-1.45780E-02-2.63408E+00-1.74166E-13-5.45453E-13
 -1      2607 3.01192E+01-1.42112E+00-1.30729E-01-1.33649E+00-2.99524E-13-7.34690E-13
 -1      2608 2.15614E+01-5.29617E+00 7.94848E-03-5.44451E+00 1.15269E-13-1.06470E-13
 -1      2609 2.51134E+01-4.45430E+00-6.82605E-02-4.56028E+00-3.76921E-14-3.95378E-13
 -1      2610 1.36673E+01-5.41483E+00 2.01840E-02-6.65999E+00 2.73226E-13 6.12108E-13
 -1      2611 1.75897E+01-5.44420E+00-2.61322E-02-6.75193E+00 2.17715E-13 3.23297E-13
 -1      2612 2.14153E+01 9.06148E-01-2.77332E-03 6.73305E-01 6.77649E-13 5.73944E-13
 -1      2613 2.16491E+01 1.26748E+00-4.52269E-03 1.19307E+00 7.40470E-13 6.81337E-13
 -1      2614 2.13871E+01 1.73355E+00-1.58329E-02 1.33789E+00 8.06428E-13 4.11872E-13
 -1      2615 2.12652E+01 1.12077E+00-1.02347E-02 5.80264E-01 7.04050E-13 2.52313E-13
 -1      2616 3.03841E+01-9.32355E-01-1.52111E-01 9.15674E-01 4.66641E-13-4.90996E-13
 -1      2617 2.83057E+01-2.70773E+00-1.80675E-02 2.30227E+00 2.55670E-13-3.17357E-13
 -1      2618 2.73049E+01-3.95011E+00 4.50732E-02 2.30093E+00-2.37033E-14-4.71456E-13
 -1      2619 2.89467E+01-2.52635E+00 8.00783E-03-9.71601E-01 1.20183E-13 2.35534E-13
 -1      2620 1.95819E+01 3.19610E+00 2.54322E-03-4.40539E-01-2.68100E-13-9.83344E-13
 -1      2621 1.95800E+01 3.44399E+00-1.82218E-02-6.53273E-01-3.03252E-13-1.04101E-12
 -1      2622 1.98679E+01 3.25966E+00-1.63085E-02-8.16246E-01-4.05041E-13-9.97239E-13
 -1      2623 2.11521E+01 4.46526E-01-6.12443E-03-5.46168E-01 3.87665E-13 5.47383E-14
 -1      2624 2.10304E+01 2.16796E+00-1.30496E-02 1.24951E+00 8.12173E-13 8.54056E-14
 -1      2625 3.00843E+01-6.54505E-02-2.87242E-02-6.66243E-01 4.82642E-13-6.51201E-13
 -1      2626 1.36813E+01-4.49805E+00 1.23106E-01-6.47687E+00 3.95795E-13 5.13881E-13
 -1      2627 2.07479E+01-5.47225E+00 7.33231E-02-5.68486E+00 3.55160E-13-1.53495E-13
 -1      2628 2.68121E+01-4.21498E+00 4.17048E-02-2.76689E+00 1.57124E-13-7.47624E-13
 -1      2629 6.85934E+00-3.26077E+00 1.07527E-01 4.75666E+00-5.54140E-13 5.42733E-13
 -1      2630 6.23425E+00-2.09981E+00 1.32107E-01 3.65638E+00-6.09207E-13 6.68576E-13
 -1      2631 9.55087E+00-2.84592E+00 1.05283E-01 5.37472E+00-7.09655E-13 3.78475E-13
 -1      2632 7.47149E+00-2.62146E+00 1.44148E-01-4.35436E+00 3.97460E-14 8.72580E-13
 -1      2633 1.42271E+01-4.64929E+00 9.83541E-02 6.57807E+00-4.80727E-13 3.18939E-13
 -1      2634 1.99984E+01-1.90186E-03-1.18143E-05-4.01679E-03-1.75408E-13 6.37979E-13
 -1      2635 1.99987E+01-2.41285E-03 6.36797E-06-4.34089E-03-1.66013E-13 2.86141E-13
 -1      2636 2.99277E+01-7.87433E-01-2.34367E-02 3.25259E-01-2.65427E-13-8.05855E-13
 -1      2637 1.99981E+01-1.65737E-03-2.01839E-05 4.23131E-03 1.10300E-13 4.41048E-13
 -1      2638 1.99989E+01-2.58379E-03 3.24417E-06 4.57785E-03 6.82191E-14 5.11238E-13
 -1      2639 1.99990E+01-2.35918E-03 1.07698E-06 5.14003E-03-9.60081E-14 5.86651E-13
 -1      2640 1.99976E+01-1.40773E-03-1.21247E-05 4.74073E-03-9.33363E-14 4.85063E-13
 -1      2641 3.08592E+01 6.16002E+00-6.21708E-02-1.06357E+00-1.36458E-12-1.92013E-13
 -1      2642 3.06621E+01 6.82516E+00-6.47135E-02 6.84159E-01-1.16018E-12-4.58217E-13
 -1      2643 4.28262E+00-2.13210E+00 1.34265E-01 1.09266E-01-3.52369E-13 1.15918E-12
 -1      2644 2.09747E+01 1.91254E+00 1.15720E-02 8.79520E-01 7.57828E-13 6.22332E-15
 -1      2645 2.16423E+01-5.42530E+00 7.59411E-02 5.36056E+00-3.35537E-13-5.89945E-14
 -1      2646 9.89994E+00-3.05948E+00 1.62275E-01 5.51387E+00 2.74919E-13-1.23995E-12
 -1      2647 1.06983E+01-3.43181E+00 1.48749E-01-5.85575E+00-5.02376E-13-1.29699E-12
 -1      2648 3.07346E+01 1.78332E+00-2.82860E-02 1.15736E+00 6.91669E-13 3.39784E-13
 -1      2649 2.04363E+01 2.75891E+00-8.56603E-03-1.00009E+00-5.24437E-13-8.52853E-13
 -1      2650 2.45489E+01-5.17555E+00 2.79747E-02 4.54286E+00-2.71450E-13-3.83138E-13
 -1      2651 2.28123E+01-5.38955E+00 1.22188E-01 5.11024E+00 2.31204E-14-2.69597E-13
 -1      2652 2.61879E+01-4.79019E+00-9.48300E-02 2.91025E+00-2.16688E-13-5.46369E-14
 -1      2653 1.68959E+01-5.10143E+00 6.68798E-02 6.44416E+00 2.47080E-13-7.43176E-13
 -1      2654 3.06550E+01 4.43620E+00-6.41045E-02-1.71485E+00 1.05591E-12-4.27131E-13
 -1      2655 3.16302E+01 5.85535E+00-6.07875E-02 1.03077E+00 1.19627E-12 1.01891E-13
 -1      2656 2.96647E+01 6.19682E+00-2.22577E-01 1.09975E+00 1.15907E-12 9.52849E-14
 -1      2657 2.97391E+01 4.64135E+00-8.55560E-02 1.61993E+00 9.91984E-13 3.00829E-13
 -1      2658 3.15786E+01 7.06744E+00-9.38254E-02-4.73250E-01 1.27559E-12-1.87642E-13
 -1      2659 2.95578E+01 6.51518E+00-8.56347E-02-1.01359E+00 1.21086E-12-2.14904E-13
 -1      2660 2.96961E+01 6.82222E+00-2.02681E-01-9.07452E-02 1.25339E-12-6.16885E-14
 -1      2661 2.96939E+01-1.74424E+00-2.03550E-02 5.89251E-01-7.51782E-13-1.48215E-14
 -1      2662 2.41012E+01-5.21565E+00 5.44001E-02-4.42651E+00-3.86191E-13-2.52506E-13
 -1      2663 5.65853E+00-1.83725E+00 1.72505E-01-2.10379E+00-1.53960E-13-1.59639E-12
 -1      2664 3.06146E+01 3.81441E+00-6.25050E-02 1.76313E+00-6.85230E-13-7.33302E-13
 -1      2665 1.99988E+01-2.24960E-03-9.31392E-06-4.99444E-03-2.46021E-13 9.83078E-14
 -1      2666 1.99982E+01-1.61095E-03-7.66791E-06 5.36354E-03-9.07308E-14 5.85819E-13
 -1      2667 1.88598E+01 3.41238E+00-3.52078E-03 7.70075E-02 4.22297E-13-8.20629E-13
 -1      2668 1.87170E+01 3.49476E+00-7.34681E-03 2.75298E-02 3.49570E-13-8.56200E-13
 -1      2669 1.86177E+01 3.57192E+00-4.26532E-03 2.67322E-02 3.05042E-13-9.03589E-13
 -1      2670 1.85645E+01 3.60190E+00-5.81440E-03-1.01145E-02 2.39694E-13-9.35334E-13
 -1      2671 1.87081E+01 3.28440E+00 6.30866E-03-3.24105E-02 2.94553E-13-8.43497E-13
 -1      2672 1.97945E+01 2.71558E+00-6.52735E-03 3.02037E-01 6.38256E-13-5.43848E-13
 -1      2673 1.95157E+01 2.92048E+00-9.24775E-03 2.12632E-01 5.70857E-13-6.36112E-13
 -1      2674 2.04090E+01 2.15926E+00-7.72257E-03 4.46098E-01 7.01407E-13-3.33376E-13
 -1      2675 2.00942E+01 2.45140E+00-7.67588E-03 3.60566E-01 6.60076E-13-4.51755E-13
 -1      2676 2.00232E+01 2.27295E+00 5.67443E-03 1.04572E-01 5.94960E-13-4.58588E-13
 -1      2677 2.09978E+01 8.90651E-01-1.50493E-04-1.93489E-01 5.10235E-13-4.35258E-14
 -1      2678 2.10437E+01 1.10052E+00 9.78458E-03 1.21047E-01 5.90977E-13-6.20164E-16
 -1      2679 2.33910E+01-5.32639E+00-8.49148E-02 4.23668E+00-3.66290E-13-3.32841E-13
 -1      2680 2.03066E+01-5.09862E+00 1.13332E-01 5.40520E+00-5.39985E-13-1.36581E-13
 -1      2681 2.10258E+01 5.76505E-01 8.72442E-04-6.67614E-01 3.72507E-13-9.44382E-14
 -1      2682 2.10108E+01 7.22126E-01 1.09150E-02-4.53061E-01 4.25406E-13-5.43039E-14
 -1      2683 2.08170E+01 1.03395E+00-1.85630E-03-3.20672E-01 4.95538E-13-1.89408E-13
 -1      2684 2.76571E+01-3.49258E+00 4.95146E-02-1.02522E+00-9.93233E-14 2.68216E-13
 -1      2685 2.87714E+01-1.95087E+00-1.76272E-01 2.92999E-01 2.32842E-13 3.52385E-13
 -1      2686 1.31874E+01-3.54130E+00 1.32660E-01-6.06938E+00 4.72025E-13 3.77295E-13
 -1      2687 1.62542E+01-4.63300E+00 2.35206E-02-6.43658E+00 4.85556E-13 1.81563E-13
 -1      2688 2.08359E+01 8.66380E-01 7.93343E-03 5.77678E-01-3.26923E-13-5.23306E-13
 -1      2689 2.08516E+01 7.03808E-01-1.54217E-04 8.02041E-01-2.73528E-13-5.01374E-13
 -1      2690 2.08831E+01 5.59102E-01 7.87185E-03 1.00266E+00-2.23636E-13-4.58516E-13
 -1      2691 2.09499E+01 4.10065E-01 4.29216E-04 1.15333E+00-1.89069E-13-4.50178E-13
 -1      2692 2.06164E+01 7.92532E-01-4.39021E-03 9.32269E-01-2.43384E-13-4.82630E-13
 -1      2693 2.10251E+01 2.59503E-01 8.35227E-03 1.29735E+00-1.31591E-13-3.74932E-13
 -1      2694 2.11493E+01 8.53732E-02-1.63575E-04 1.37480E+00-8.39060E-14-3.41302E-13
 -1      2695 2.06954E+01 4.32278E-01-7.03287E-03 1.29833E+00-1.33961E-13-3.87765E-13
 -1      2696 2.13001E+01-1.03991E-01 1.07258E-02 1.45325E+00-6.63332E-14-2.81120E-13
 -1      2697 2.14867E+01-3.31838E-01-2.40202E-03 1.44379E+00-4.38549E-14-2.55966E-13
 -1      2698 2.08868E+01 1.61904E-02-1.08203E-02 1.54644E+00-4.64567E-14-3.40596E-13
 -1      2699 2.17517E+01-5.78527E-01 1.50815E-02 1.43265E+00-3.80626E-14-1.87686E-13
 -1      2700 2.20025E+01-8.68295E-01-6.80081E-03 1.31065E+00-9.08865E-15-1.74168E-13
 -1      2701 2.12537E+01-5.21717E-01-1.62813E-02 1.64918E+00-1.46695E-14-2.56174E-13
 -1      2702 2.24191E+01-1.15991E+00 2.05224E-02 1.16598E+00 2.30981E-14-9.26466E-14
 -1      2703 2.27197E+01-1.47303E+00-1.39041E-02 9.02451E-01 2.72712E-14-5.43678E-14
 -1      2704 2.18703E+01-1.20136E+00-2.24031E-02 1.54337E+00 3.55833E-14-1.37512E-13
 -1      2705 2.32951E+01-1.73356E+00 2.18708E-02 5.64674E-01 1.16144E-14 1.25308E-14
 -1      2706 2.35997E+01-1.93770E+00-2.01688E-02 1.50397E-01 1.65185E-14 2.44149E-14
 -1      2707 2.27937E+01-1.93269E+00-2.60841E-02 1.12381E+00 6.97503E-14 5.65195E-16
 -1      2708 2.42412E+01-1.98754E+00 1.08631E-02-4.02503E-01-2.26783E-14 9.98403E-14
 -1      2709 2.44649E+01-1.84952E+00-1.87971E-02-8.92599E-01-9.42384E-14 8.87545E-14
 -1      2710 2.39677E+01-2.41176E+00-2.82713E-02 2.67030E-01 2.86722E-14 1.35829E-13
 -1      2711 2.49567E+01-1.43153E+00-2.11588E-02-1.56367E+00-1.82390E-13 1.59247E-13
 -1      2712 2.49822E+01-7.13993E-01-1.33488E-02-1.91195E+00-2.96417E-13 1.12791E-13
 -1      2713 2.51917E+01-2.05548E+00-1.33881E-02-9.99306E-01-1.34108E-13 1.94443E-13
 -1      2714 2.50703E+01 2.46867E-01-7.50035E-02-2.25588E+00-4.31322E-13 5.99273E-14
 -1      2715 2.49372E+01 1.41239E+00-8.09635E-03-2.15514E+00-5.40221E-13 2.12911E-14
 -1      2716 2.58786E+01-3.18977E-01-2.49486E-02-2.11908E+00-3.93612E-13 2.36606E-13
 -1      2717 2.46756E+01 2.49319E+00-1.03039E-01-1.68537E+00-6.38330E-13-1.70634E-13
 -1      2718 2.45672E+01 3.30937E+00-3.80471E-02-1.00005E+00-6.69721E-13-2.45963E-13
 -1      2719 2.58724E+01 2.39760E+00-3.87084E-02-2.14036E+00-7.07011E-13 1.14062E-13
 -1      2720 2.44465E+01 3.60282E+00-7.51933E-02 1.28497E-01-7.13526E-13-4.40028E-13
 -1      2721 2.45065E+01 3.33808E+00-9.11168E-02 9.81308E-01-6.51174E-13-5.20708E-13
 -1      2722 2.55904E+01 4.26893E+00-7.43786E-02-5.26574E-01-8.26270E-13-2.70423E-13
 -1      2723 2.47511E+01 2.57925E+00-1.67545E-02 1.88656E+00-5.05984E-13-6.65155E-13
 -1      2724 2.49325E+01 1.46818E+00-8.87800E-02 2.32084E+00-3.38802E-13-7.05283E-13
 -1      2725 2.57376E+01 3.71769E+00-4.20585E-02 1.65787E+00-6.79068E-13-5.23925E-13
 -1      2726 2.50471E+01 3.49484E-01-1.20032E-02 2.34684E+00-1.93866E-13-7.05686E-13
 -1      2727 2.51278E+01-6.43510E-01-5.22838E-02 2.21675E+00-6.14248E-14-7.29403E-13
 -1      2728 2.59510E+01 1.07457E+00-5.68995E-02 2.51966E+00-2.67182E-13-5.99021E-13
 -1      2729 2.48457E+01-1.39018E+00-1.96129E-02 1.65773E+00 8.69183E-14-6.74018E-13
 -1      2730 2.47224E+01-1.82176E+00-6.89281E-03 1.19327E+00 1.77140E-13-5.69744E-13
 -1      2731 2.56479E+01-1.33801E+00-1.56248E-02 1.81594E+00 1.00208E-13-5.03750E-13
 -1      2732 2.41271E+01-1.97669E+00-2.11100E-02 5.61017E-01 2.26972E-13-4.83181E-13
 -1      2733 2.38568E+01-1.92670E+00 1.59458E-02 8.42215E-02 3.47259E-13-4.20648E-13
 -1      2734 2.46487E+01-2.34616E+00-1.09291E-02 5.17784E-01 2.62226E-13-3.97883E-13
 -1      2735 2.32284E+01-1.74719E+00-1.67777E-02-3.68053E-01 3.02390E-13-3.57472E-13
 -1      2736 2.29171E+01-1.47851E+00 2.05251E-02-7.18249E-01 3.41171E-13-4.44568E-13
 -1      2737 2.34054E+01-2.22245E+00-1.82342E-02-5.54874E-01 3.15929E-13-2.62010E-13
 -1      2738 2.24097E+01-1.19610E+00-9.73525E-03-9.62836E-01 3.40161E-13-5.14091E-13
 -1      2739 2.21254E+01-9.01311E-01 1.64594E-02-1.16777E+00 2.89049E-13-4.71857E-13
 -1      2740 2.23154E+01-1.59415E+00-1.93714E-02-1.19744E+00 2.92395E-13-4.39521E-13
 -1      2741 2.17730E+01-6.44148E-01-4.20645E-03-1.25970E+00 1.75034E-13-4.44260E-13
 -1      2742 2.15402E+01-4.08749E-01 1.06608E-02-1.34802E+00 1.10772E-13-4.81384E-13
 -1      2743 2.15189E+01-9.07114E-01-1.54378E-02-1.48096E+00 1.95636E-13-5.08906E-13
 -1      2744 2.13158E+01-2.20829E-01-8.07389E-04-1.34651E+00 5.38710E-14-4.99261E-13
 -1      2745 2.11328E+01-6.27951E-02 5.97964E-03-1.35508E+00-1.35284E-14-5.20484E-13
 -1      2746 2.09953E+01-3.58947E-01-1.03066E-02-1.53407E+00 4.69092E-14-5.19266E-13
 -1      2747 2.09965E+01 5.53210E-02 1.09128E-03-1.30224E+00-9.19994E-14-5.37500E-13
 -1      2748 2.08529E+01 1.46956E-01 2.81242E-03-1.26235E+00-9.77614E-14-5.51418E-13
 -1      2749 2.06706E+01 9.84367E-03-6.13750E-03-1.45690E+00-7.42292E-14-5.51746E-13
 -1      2750 2.07712E+01 2.10465E-01 2.08580E-03-1.18468E+00-8.25458E-14-5.29407E-13
 -1      2751 2.06564E+01 2.54142E-01 8.91279E-04-1.11928E+00 2.18991E-14-5.30093E-13
 -1      2752 2.04732E+01 2.25077E-01-3.39654E-03-1.31316E+00-8.91272E-14-4.92144E-13
 -1      2753 2.06065E+01 2.80314E-01 2.55279E-03-1.03289E+00 1.08724E-13-5.53794E-13
 -1      2754 2.05129E+01 2.92987E-01-1.57664E-04-9.57490E-01 8.11425E-14-4.95646E-13
 -1      2755 2.03514E+01 3.29111E-01-1.81102E-03-1.14132E+00 5.69283E-14-4.11305E-13
 -1      2756 2.04807E+01 2.96084E-01 2.69716E-03-8.71944E-01 9.54788E-14-5.57342E-13
 -1      2757 2.04036E+01 2.90583E-01-6.55573E-04-7.96274E-01 9.32585E-15-4.46790E-13
 -1      2758 2.02723E+01 3.60778E-01-9.83101E-04-9.64401E-01 5.47034E-14-4.23969E-13
 -1      2759 2.03811E+01 2.80818E-01 2.63626E-03-7.16962E-01 2.42363E-15-3.88405E-13
 -1      2760 2.03173E+01 2.65883E-01-8.31830E-04-6.46643E-01 6.85178E-14-3.79605E-13
 -1      2761 2.02169E+01 3.49592E-01-5.92667E-04-7.95894E-01 6.81086E-14-4.34731E-13
 -1      2762 2.03005E+01 2.49964E-01 2.44720E-03-5.76300E-01 5.04298E-14-3.84455E-13
 -1      2763 2.02480E+01 2.31134E-01-8.34085E-04-5.14153E-01 1.20092E-14-2.93319E-13
 -1      2764 2.01749E+01 3.15814E-01-4.26706E-04-6.43224E-01 5.56724E-14-5.01535E-13
 -1      2765 2.02345E+01 2.13182E-01 2.18524E-03-4.53804E-01 9.73649E-14-2.60154E-13
 -1      2766 2.01917E+01 1.93753E-01-7.51477E-04-4.00844E-01 1.05479E-13-1.58442E-13
 -1      2767 2.01413E+01 2.72409E-01-3.61246E-04-5.09870E-01 8.82149E-14-2.75451E-13
 -1      2768 2.01807E+01 1.76141E-01 1.89105E-03-3.50436E-01 8.17250E-14-1.54144E-13
 -1      2769 2.01463E+01 1.57927E-01-6.35925E-04-3.06567E-01 2.81489E-14-9.81630E-14
 -1      2770 2.01134E+01 2.27184E-01-3.33208E-04-3.96718E-01 1.10108E-13-1.63503E-13
 -1      2771 2.01371E+01 1.41893E-01 1.59394E-03-2.65406E-01-1.02803E-13-1.09322E-14
 -1      2772 2.01098E+01 1.25769E-01-5.16046E-04-2.29916E-01-2.00546E-13 5.34891E-14
 -1      2773 2.00899E+01 1.84503E-01-3.14112E-04-3.03005E-01 6.08188E-14 9.68963E-15
 -1      2774 2.01022E+01 1.11847E-01 1.31320E-03-1.96975E-01-7.71765E-14 1.88661E-13
 -1      2775 2.00809E+01 9.81171E-02-4.05960E-04-1.68853E-01 1.50811E-13 2.46188E-13
 -1      2776 2.00704E+01 1.46520E-01-2.92499E-04-2.27015E-01-3.80253E-15 3.06767E-13
 -1      2777 2.00747E+01 8.64314E-02 1.05982E-03-1.42981E-01 9.43836E-14 3.59916E-13
 -1      2778 2.00584E+01 7.50764E-02-3.11129E-04-1.21122E-01 1.29631E-13 4.62182E-13
 -1      2779 2.00542E+01 1.14037E-01-2.65412E-04-1.66577E-01 1.61147E-13 6.00455E-13
 -1      2780 2.00534E+01 6.55233E-02 8.38916E-04-1.01169E-01 2.59715E-13 3.53829E-13
 -1      2781 2.00411E+01 5.63548E-02-2.32676E-04-8.44928E-02 2.77450E-13 5.11964E-13
 -1      2782 2.00410E+01 8.70706E-02-2.34154E-04-1.19383E-01 1.21413E-13 4.28152E-13
 -1      2783 2.00371E+01 4.87182E-02 6.51699E-04-6.93816E-02 1.93116E-13 3.99201E-13
 -1      2784 2.00281E+01 4.14691E-02-1.69710E-04-5.68971E-02 1.95735E-13 3.97505E-13
 -1      2785 2.00305E+01 6.52214E-02-2.01230E-04-8.31898E-02 1.36288E-13 3.17713E-13
 -1      2786 2.00250E+01 3.54860E-02 4.96829E-04-4.56667E-02 5.67026E-14 3.42186E-13
 -1      2787 2.00185E+01 2.98649E-02-1.20449E-04-3.65036E-02-8.77775E-14 2.16927E-13
 -1      2788 2.00222E+01 4.78895E-02-1.68837E-04-5.59358E-02 3.35987E-14 3.49412E-13
 -1      2789 2.00161E+01 2.52656E-02 3.71433E-04-2.83247E-02 4.22461E-15 1.44831E-13
 -1      2790 2.00116E+01 2.09876E-02-8.28243E-05-2.17443E-02 4.14012E-14 6.79229E-14
 -1      2791 2.00158E+01 3.44064E-02-1.38538E-04-3.58026E-02-6.63256E-14 2.71940E-13
 -1      2792 2.00097E+01 1.75166E-02 2.71891E-04-1.59218E-02 5.84281E-14 1.37026E-13
 -1      2793 2.00067E+01 1.43198E-02-5.48288E-05-1.13140E-02 1.65662E-13 2.36078E-13
 -1      2794 2.00109E+01 2.41108E-02-1.11284E-04-2.12376E-02 4.29234E-14 2.03870E-13
 -1      2795 2.00053E+01 1.17468E-02 1.94399E-04-7.27972E-03 1.93390E-13 1.86246E-13
 -1      2796 2.00034E+01 9.39919E-03-3.46784E-05-4.15307E-03 8.67877E-14 2.85339E-13
 -1      2797 2.00073E+01 1.63897E-02-8.75371E-05-1.09505E-02 1.57068E-13 2.97648E-13
 -1      2798 2.00024E+01 7.52226E-03 1.35296E-04-1.45373E-03-6.29847E-14 2.96304E-13
 -1      2799 2.00012E+01 5.82289E-03-2.09110E-05 5.77526E-04-7.01655E-14 2.85167E-13
 -1      2800 2.00046E+01 1.06971E-02-6.73792E-05-3.89517E-03 7.15880E-15 8.49271E-14
 -1      2801 2.00006E+01 4.46813E-03 9.12258E-05 2.29405E-03-6.42829E-14 4.53116E-13
 -1      2802 2.00000E+01 3.24470E-03-1.23315E-05 3.52361E-03 1.22976E-13 4.31221E-13
 -1      2803 2.00027E+01 6.55785E-03-5.07540E-05 7.55215E-04 4.40354E-14 2.88413E-13
 -1      2804 1.99995E+01 2.26290E-03 5.94545E-05 4.52202E-03 2.19450E-13 3.86881E-13
 -1      2805 1.99993E+01 1.36906E-03-7.48373E-06 5.16471E-03 2.12306E-13 5.16873E-13
 -1      2806 2.00014E+01 3.56357E-03-3.73377E-05 3.63623E-03 1.06917E-13 3.92575E-13
 -1      2807 1.99990E+01 6.33488E-04 3.72872E-05 5.63786E-03 1.77941E-13 5.23039E-13
 -1      2808 1.99990E+01-5.71429E-05-5.41343E-06 5.84411E-03 1.39528E-13 5.20012E-13
 -1      2809 2.00006E+01 1.36945E-03-2.63632E-05 5.21804E-03 2.17100E-13 6.01261E-13
 -1      2810 1.99988E+01-6.66210E-04 2.10704E-05 5.91902E-03 4.65180E-15 4.03912E-13
 -1      2811 1.99990E+01-1.23695E-03-2.10978E-06 5.77785E-03 9.75590E-15 3.26426E-13
 -1      2812 2.00000E+01-3.40204E-04-2.23824E-05 5.84376E-03-2.52129E-14 5.79681E-13
 -1      2813 2.88725E+01 6.08453E+00-2.04614E-01-7.73576E-01-1.24550E-12-2.29497E-13
 -1      2814 2.90255E+01 5.01306E+00-1.33445E-01-1.66270E+00-1.17911E-12-2.39808E-14
 -1      2815 2.87618E+01-2.20236E+00 2.47389E-03 2.55440E-01-4.73406E-14-8.50292E-13
 -1      2816 2.90320E+01-3.96550E-01-2.24499E-01 1.39863E+00-2.75419E-13-8.54219E-13
 -1      2817 2.13470E+01 6.60319E-02-1.38808E-03-1.18427E+00 1.88551E-13-1.45163E-13
 -1      2818 2.12209E+01 2.05930E-01 8.37480E-03-1.12293E+00 2.53119E-13-1.28975E-13
 -1      2819 2.26743E+01-1.11595E+00-1.42724E-02-6.18375E-01-6.71468E-15 2.03456E-14
 -1      2820 2.24596E+01-8.84886E-01 1.54005E-02-8.74003E-01-2.15756E-14-1.53160E-14
 -1      2821 2.32975E+01-1.45563E+00-1.90335E-02 8.26472E-02 4.84729E-14 1.20188E-13
 -1      2822 2.31101E+01-1.30585E+00 1.38967E-02-2.90804E-01 1.53847E-14 9.41179E-14
 -1      2823 2.27811E+01-1.50512E+00-1.39282E-02-7.35899E-01-4.42907E-14-7.52974E-14
 -1      2824 2.38452E+01-1.39758E+00-1.60835E-02 9.93204E-01 4.82845E-14 2.43006E-13
 -1      2825 2.37479E+01-1.49711E+00 3.54408E-03 5.69741E-01 6.29066E-14 1.76449E-13
 -1      2826 2.36495E+01-1.85168E+00-1.10893E-02 6.21152E-02 1.56964E-14 1.51012E-13
 -1      2827 2.41133E+01-6.20607E-01 1.37589E-03 1.81369E+00 1.03775E-13 3.27900E-13
 -1      2828 2.41411E+01-1.12056E+00-1.99373E-02 1.51471E+00 6.54568E-14 2.99307E-13
 -1      2829 2.44354E+01-1.58792E+00 3.38917E-04 1.11035E+00 4.35004E-14 3.28313E-13
 -1      2830 2.39528E+01 8.50460E-01 1.45553E-02 1.99402E+00 3.37740E-13 2.19738E-13
 -1      2831 2.40775E+01 4.33033E-02-5.06500E-02 2.06894E+00 2.32358E-13 2.86957E-13
 -1      2832 2.48125E+01-3.64068E-01 7.85796E-03 2.00996E+00 2.11229E-13 3.03632E-13
 -1      2833 2.35422E+01 2.29623E+00-1.00924E-03 1.13319E+00 4.17943E-13-1.05985E-14
 -1      2834 2.36746E+01 1.63092E+00-6.16927E-02 1.67717E+00 4.06980E-13 1.19641E-13
 -1      2835 2.46322E+01 1.48000E+00-2.18032E-02 2.03044E+00 4.34399E-13 2.33700E-13
 -1      2836 2.33652E+01 2.60079E+00-5.54637E-02-4.72968E-01 4.87010E-13-2.95772E-13
 -1      2837 2.34012E+01 2.62421E+00-3.62282E-02 2.51739E-01 4.57939E-13-2.21617E-13
 -1      2838 2.43080E+01 3.06548E+00-2.54103E-02 7.58291E-01 5.85611E-13-2.05187E-14
 -1      2839 2.37553E+01 1.54280E+00-5.85330E-02-1.90248E+00 4.51077E-13-5.83463E-13
 -1      2840 2.36054E+01 2.25223E+00 1.04262E-02-1.39746E+00 4.80133E-13-4.66406E-13
 -1      2841 2.42813E+01 3.15878E+00-2.59392E-02-1.11738E+00 6.17645E-13-4.08156E-13
 -1      2842 2.41421E+01-4.31044E-02-5.74577E-02-2.21190E+00 2.44844E-13-5.90179E-13
 -1      2843 2.40081E+01 7.59090E-01 7.37220E-03-2.16367E+00 3.34958E-13-5.99913E-13
 -1      2844 2.47043E+01 1.29238E+00-1.68852E-02-2.22025E+00 3.47849E-13-6.09162E-13
 -1      2845 2.42096E+01-1.14229E+00-1.55534E-02-1.63381E+00 5.23327E-14-4.84899E-13
 -1      2846 2.41759E+01-6.71506E-01 1.83481E-03-1.94000E+00 1.79431E-13-5.08588E-13
 -1      2847 2.48001E+01-4.68618E-01-1.23965E-02-2.17496E+00 1.58581E-13-5.84029E-13
 -1      2848 2.38143E+01-1.47962E+00 5.95835E-03-6.89166E-01-2.85206E-14-5.21893E-13
 -1      2849 2.39039E+01-1.39827E+00-1.46656E-02-1.10927E+00 3.52348E-14-4.76172E-13
 -1      2850 2.44455E+01-1.60387E+00 4.56964E-03-1.22839E+00 5.01746E-14-5.63796E-13
 -1      2851 2.31884E+01-1.27835E+00 1.40817E-02 1.56202E-01-4.49669E-14-5.08839E-13
 -1      2852 2.33647E+01-1.43048E+00-1.85106E-02-2.12852E-01-1.22393E-14-5.36600E-13
 -1      2853 2.36486E+01-1.81907E+00-6.43992E-03-1.90410E-01 2.93277E-15-4.91168E-13
 -1      2854 2.25449E+01-8.67182E-01 1.33409E-02 7.31915E-01-1.66960E-13-4.31729E-13
 -1      2855 2.27528E+01-1.09035E+00-1.52000E-02 4.78225E-01-9.91329E-14-4.51365E-13
 -1      2856 2.27831E+01-1.47657E+00-1.45821E-02 5.96371E-01-1.29550E-13-3.87490E-13
 -1      2857 2.19949E+01-4.62447E-01 9.92956E-03 1.04200E+00-2.61797E-14-5.07354E-13
 -1      2858 2.21987E+01-6.63060E-01-9.47013E-03 9.02963E-01-8.03212E-14-5.09731E-13
 -1      2859 2.20488E+01-9.49187E-01-1.39004E-02 1.06042E+00-9.27331E-14-4.90367E-13
 -1      2860 2.15605E+01-1.52937E-01 6.24244E-03 1.15246E+00-9.28521E-14-2.78575E-13
 -1      2861 2.17452E+01-2.98496E-01-4.55043E-03 1.10243E+00-5.70361E-14-3.71012E-13
 -1      2862 2.14993E+01-4.69888E-01-1.03464E-02 1.26590E+00-1.35801E-13-4.15229E-13
 -1      2863 2.12260E+01 4.86316E-02 3.42004E-03 1.13268E+00-4.30482E-14-2.96847E-13
 -1      2864 2.13881E+01-4.19915E-02-1.12230E-03 1.14232E+00-6.46675E-14-2.25915E-13
 -1      2865 2.11111E+01-1.18337E-01-6.76195E-03 1.29733E+00-1.12424E-13-1.44649E-13
 -1      2866 2.09671E+01 1.61246E-01 1.55520E-03 1.03782E+00-1.74846E-14-1.87483E-13
 -1      2867 2.11075E+01 1.13451E-01 1.03223E-03 1.08243E+00 7.22469E-15-2.19067E-13
 -1      2868 2.08407E+01 1.03286E-01-4.14636E-03 1.22409E+00-5.90742E-14-1.05245E-13
 -1      2869 2.07634E+01 2.11081E-01 4.59324E-04 9.06714E-01-1.62161E-13-4.37683E-14
 -1      2870 2.08838E+01 1.92457E-01 2.25300E-03 9.68250E-01-4.63604E-14-8.97649E-14
 -1      2871 2.06489E+01 2.22569E-01-2.51935E-03 1.09521E+00-1.22265E-13-6.86213E-14
 -1      2872 2.06003E+01 2.21170E-01-1.11723E-04 7.64639E-01-7.41196E-14-2.64855E-13
 -1      2873 2.07025E+01 2.20455E-01 2.83120E-03 8.31144E-01-8.75707E-14-1.61054E-13
 -1      2874 2.05077E+01 2.71373E-01-1.60108E-03 9.43149E-01-5.00763E-14-1.84248E-13
 -1      2875 2.04684E+01 2.08587E-01-3.63611E-04 6.26856E-01-3.21216E-13-2.79883E-13
 -1      2876 2.05540E+01 2.17718E-01 2.98328E-03 6.91095E-01-2.31421E-13-3.01079E-13
 -1      2877 2.03997E+01 2.76334E-01-1.12017E-03 7.88289E-01-1.33135E-13-1.82262E-13
 -1      2878 2.03615E+01 1.84771E-01-4.37237E-04 5.01688E-01-9.64137E-14-4.59833E-13
 -1      2879 2.04322E+01 1.98472E-01 2.86983E-03 5.59757E-01-2.40639E-13-4.20878E-13
 -1      2880 2.03144E+01 2.56757E-01-8.76842E-04 6.42622E-01-2.09811E-13-2.86319E-13
 -1      2881 2.02752E+01 1.56851E-01-4.20230E-04 3.92915E-01 9.68062E-14-4.63622E-13
 -1      2882 2.03327E+01 1.71899E-01 2.60634E-03 4.43101E-01-1.79902E-14-5.21628E-13
 -1      2883 2.02458E+01 2.25423E-01-7.46179E-04 5.12463E-01-3.37017E-14-6.50455E-13
 -1      2884 2.02062E+01 1.28978E-01-3.63262E-04 3.01475E-01 2.23121E-14-2.21583E-13
 -1      2885 2.02521E+01 1.43539E-01 2.27175E-03 3.43421E-01 8.28144E-14-3.34435E-13
 -1      2886 2.01902E+01 1.90238E-01-6.60283E-04 4.00419E-01 2.61392E-15-6.94411E-13
 -1      2887 2.01517E+01 1.03369E-01-2.94259E-04 2.26625E-01-5.81790E-14-7.90825E-14
 -1      2888 2.01877E+01 1.16501E-01 1.91793E-03 2.60759E-01 3.73677E-14-1.00524E-13
 -1      2889 2.01452E+01 1.55776E-01-5.88347E-04 3.06753E-01-5.40597E-14-2.18476E-13
 -1      2890 2.01093E+01 8.10288E-02-2.27667E-04 1.66729E-01-9.84010E-14-6.17929E-14
 -1      2891 2.01371E+01 9.23397E-02 1.57728E-03 1.93880E-01-1.02258E-13 9.97419E-15
 -1      2892 2.01092E+01 1.24441E-01-5.19530E-04 2.30337E-01-8.31597E-14-2.59128E-13
 -1      2893 2.00768E+01 6.22344E-02-1.69642E-04 1.19766E-01-1.19912E-13 2.11957E-13
 -1      2894 2.00978E+01 7.16593E-02 1.26815E-03 1.40924E-01-1.10249E-13 9.40560E-14
 -1      2895 2.00806E+01 9.72797E-02-4.50984E-04 1.69309E-01-1.45402E-13 1.70808E-14
 -1      2896 2.00523E+01 4.68597E-02-1.21960E-04 8.36464E-02-2.05178E-14 8.97074E-14
 -1      2897 2.00679E+01 5.45094E-02 9.98857E-04 9.98153E-02-2.52474E-14 2.12286E-13
 -1      2898 2.00583E+01 7.45307E-02-3.83617E-04 1.21517E-01-1.12494E-13 1.32210E-13
 -1      2899 2.00342E+01 3.45737E-02-8.43122E-05 5.63932E-02-2.29438E-14-2.13977E-14
 -1      2900 2.00455E+01 4.06443E-02 7.71411E-04 6.85109E-02-5.72296E-16 8.18657E-14
 -1      2901 2.00412E+01 5.59831E-02-3.19719E-04 8.47888E-02-9.92040E-15 6.34069E-14
 -1      2902 2.00212E+01 2.49592E-02-5.55296E-05 3.62313E-02 1.20814E-13-1.10184E-13
 -1      2903 2.00292E+01 2.96791E-02 5.84154E-04 4.51303E-02 9.53702E-14-9.55782E-15
 -1      2904 2.00282E+01 4.12026E-02-2.61266E-04 5.70907E-02 4.66355E-14-8.22687E-14
 -1      2905 2.00121E+01 1.75820E-02-3.41952E-05 2.16288E-02 6.49119E-14-1.38750E-14
 -1      2906 2.00175E+01 2.11807E-02 4.33367E-04 2.80209E-02 5.52027E-14-1.15399E-13
 -1      2907 2.00186E+01 2.96642E-02-2.09456E-04 3.66073E-02 3.80940E-14-2.44903E-13
 -1      2908 2.00059E+01 1.20284E-02-1.89402E-05 1.13035E-02-1.63841E-13 8.57809E-14
 -1      2909 2.00094E+01 1.47203E-02 3.14380E-04 1.57795E-02 6.83290E-14 2.10684E-13
 -1      2910 2.00117E+01 2.08304E-02-1.64753E-04 2.17767E-02-8.38646E-14-6.63259E-14
 -1      2911 2.00019E+01 7.92428E-03-8.60438E-06 4.20996E-03-2.29115E-13 6.89689E-14
 -1      2912 2.00041E+01 9.90097E-03 2.22303E-04 7.24734E-03-2.77968E-13 5.08642E-14
 -1      2913 2.00068E+01 1.41933E-02-1.27064E-04 1.12942E-02-1.34434E-13 3.41175E-13
 -1      2914 1.99995E+01 4.94067E-03-2.30538E-06-4.82112E-04-8.13123E-14 1.21235E-13
 -1      2915 2.00007E+01 6.36933E-03 1.52488E-04 1.49255E-03-6.10588E-14 5.02281E-14
 -1      2916 2.00035E+01 9.29539E-03-9.59581E-05 4.09832E-03-1.82707E-13 9.55798E-14
 -1      2917 1.99982E+01 2.79353E-03 6.24856E-07-3.41321E-03 1.75343E-13-2.14899E-14
 -1      2918 1.99987E+01 3.81774E-03 1.00772E-04-2.21458E-03 5.20158E-14 5.93010E-14
 -1      2919 2.00014E+01 5.73498E-03-7.07736E-05-6.52847E-04 1.41068E-14-8.83519E-14
 -1      2920 1.99977E+01 1.24011E-03 7.78424E-07-5.05985E-03 2.08786E-13 4.35792E-14
 -1      2921 1.99977E+01 1.98190E-03 6.34445E-05-4.42714E-03 1.38770E-13-7.58802E-15
 -1      2922 2.00000E+01 3.16615E-03-5.06609E-05-3.60681E-03 1.54735E-13 1.65787E-14
 -1      2923 1.99977E+01 7.31818E-05-1.18516E-06-5.76151E-03-3.63760E-14 1.11744E-13
 -1      2924 1.99975E+01 6.36541E-04 3.73855E-05-5.54849E-03 9.05483E-14 1.32446E-13
 -1      2925 1.99993E+01 1.29381E-03-3.50142E-05-5.24494E-03 6.84203E-14-4.94835E-14
 -1      2926 1.99980E+01-8.79121E-04-2.24668E-06-5.73262E-03 9.00222E-14 3.23136E-14
 -1      2927 1.99976E+01-4.26124E-04 1.59943E-05-5.85647E-03 4.31545E-14 1.06954E-13
 -1      2928 1.99990E+01-1.27747E-04-1.96091E-05-5.91429E-03 4.10822E-14-2.84369E-13
 -1      2929 1.99986E+01-1.74643E-03-1.15953E-05-5.24682E-03-2.68196E-13 1.94917E-13
 -1      2930 1.99982E+01-1.30837E-03-4.40529E-06-5.63521E-03-1.14567E-13-1.82328E-14
 -1      2931 1.99992E+01-1.26833E-03-2.17288E-06-5.89357E-03-1.03435E-13-3.30149E-13
 -1      2932 1.99995E+01-2.33110E-03 1.18256E-05-5.48035E-03-2.49033E-13-3.49294E-13
 -1      2933 2.00029E+01-3.76553E-03 5.42523E-06-3.79050E-04-1.46586E-13-1.66633E-13
 -1      2934 2.00028E+01-3.72182E-03 5.25187E-06-1.11889E-03 3.04847E-14-4.15623E-13
 -1      2935 1.99989E+01-1.62402E-03 6.20391E-06 5.64295E-03 1.80827E-13 4.04815E-13
 -1      2936 1.99990E+01-1.97962E-03-2.56638E-06 5.38063E-03 1.00426E-13 6.23430E-13
 -1      2937 1.99998E+01-1.56874E-03-1.83064E-05 5.80525E-03 8.65078E-14 3.74890E-13
 -1      2938 2.00024E+01-3.56447E-03 7.41243E-06-3.27105E-03 4.78998E-14-4.17179E-13
 -1      2939 2.00021E+01-3.34384E-03 1.18419E-06-3.86107E-03 7.89248E-14-4.38817E-13
 -1      2940 2.00028E+01-3.72125E-03 5.35857E-06 1.14066E-03-2.49016E-13 3.14486E-14
 -1      2941 2.00029E+01-3.76580E-03 5.38660E-06 4.01093E-04-3.24677E-13-1.94383E-14
 -1      2942 2.00035E+01-2.26770E-03 6.64923E-06 1.11625E-05-5.72064E-14-1.89724E-13
 -1      2943 2.00027E+01-3.71995E-03 5.74063E-06-1.88043E-03-4.41137E-14-4.50331E-13
 -1      2944 2.00026E+01-3.58784E-03 3.77670E-06-2.57383E-03 1.40502E-13-4.96894E-13
 -1      2945 2.00030E+01-2.27157E-03 1.78587E-06-3.01011E-03-4.87169E-14-4.09022E-13
 -1      2946 2.00034E+01-2.27303E-03 5.35110E-06-1.53903E-03 1.66253E-13-4.69905E-13
 -1      2947 1.67380E+01-4.61280E+00 1.51336E-02 6.32918E+00-5.59025E-13 1.97703E-13
 -1      2948 1.35535E+01-3.62844E+00 1.27344E-01 6.08869E+00-6.25444E-13 2.75086E-13
 -1      2949 2.00026E+01-3.59008E-03 3.78260E-06 2.57001E-03-2.99953E-13-2.13415E-13
 -1      2950 2.00027E+01-3.72048E-03 5.37198E-06 1.88892E-03-2.65292E-13 6.80899E-14
 -1      2951 2.00034E+01-2.27404E-03 5.31773E-06 1.54739E-03-1.86597E-13-5.81476E-16
 -1      2952 2.00021E+01-3.35083E-03 2.26312E-07 3.85968E-03-2.41868E-14-9.06510E-14
 -1      2953 2.00024E+01-3.56801E-03 7.32734E-06 3.26810E-03-2.26017E-13-2.42116E-13
 -1      2954 2.00030E+01-2.27494E-03 1.53473E-06 3.00653E-03-2.28975E-13-1.39595E-13
 -1      2955 2.00012E+01-2.98319E-03-5.57968E-06 4.84988E-03 2.53976E-14 9.20628E-13
 -1      2956 2.00017E+01-3.28009E-03 7.92266E-06 4.43175E-03 1.34490E-13 3.48497E-13
 -1      2957 2.00023E+01-2.21440E-03 2.99461E-06 4.29883E-03 5.76619E-14 2.92270E-13
 -1      2958 2.11366E+01 3.27685E-01 3.93260E-04-9.96222E-01 2.91140E-13-1.56191E-13
 -1      2959 2.10633E+01 4.52847E-01 9.11793E-03-8.60075E-01 3.17963E-13-1.13243E-13
 -1      2960 2.08443E+01 6.69834E-01-3.80947E-03-7.95708E-01 3.74351E-13-2.41454E-13
 -1      2961 2.09444E+01 3.54741E-01-5.77945E-03-1.13640E+00 2.75754E-13-2.55551E-13
 -1      2962 5.60021E+00-1.32700E+00 1.95117E-01 1.71748E+00-5.03569E-13 1.01216E-12
 -1      2963 5.85005E+00-9.68307E-01 1.36352E-01-6.04016E-01-3.70141E-13 1.00014E-12
 -1      2964 1.94883E+01-5.18149E+00 1.07918E-01-5.73485E+00 4.68528E-13-1.42632E-13
 -1      2965 2.26762E+01-5.49335E+00-7.28715E-02-4.76948E+00 4.16611E-13-5.88658E-13
 -1      2966 7.20157E+00-1.25782E+00 1.08139E-01 3.04398E+00 2.07209E-13-1.35836E-12
 -1      2967 6.39303E+00-8.66795E-01 1.47703E-01 1.09166E+00 1.48942E-13-1.47982E-12
 -1      2968 2.07202E+01 1.89588E+00-8.61600E-03-5.65939E-01-5.10005E-13-6.92398E-13
 -1      2969 2.07751E+01 1.53302E+00-2.95146E-03-2.21032E-01-4.70214E-13-6.37043E-13
 -1      2970 2.09083E+01 1.63347E+00-8.55181E-04 5.40513E-01 6.98811E-13-5.42253E-14
 -1      2971 1.00902E+01-1.99366E+00 1.92465E-01-4.87056E+00-4.50626E-13-1.16671E-12
 -1      2972 1.34192E+01-3.35918E+00 2.85219E-02-6.18775E+00-5.93234E-13-1.00213E-12
 -1      2973 2.93517E+01 3.55259E-01-5.70676E-02 1.41056E+00 4.84501E-13 4.12975E-13
 -1      2974 2.93232E+01 2.23775E+00-1.76244E-01 1.84711E+00 7.12541E-13 4.00194E-13
 -1      2975 2.21131E+01-6.67340E-01-9.00885E-03-1.04216E+00-1.28177E-14-8.86066E-14
 -1      2976 2.19099E+01-4.46532E-01 1.23614E-02-1.17259E+00 3.11524E-14-1.19664E-13
 -1      2977 2.20445E+01-9.59942E-01-1.48932E-02-1.20308E+00-5.91556E-14-1.01306E-13
 -1      2978 2.16691E+01-2.58819E-01-4.42963E-03-1.21316E+00 9.22220E-14-1.20107E-13
 -1      2979 2.14989E+01-8.11197E-02 9.67564E-03-1.23730E+00 1.40853E-13-1.15623E-13
 -1      2980 2.15063E+01-4.28375E-01-1.21541E-02-1.37965E+00 6.99918E-14-1.44604E-13
 -1      2981 2.08246E+01 1.26121E+00 4.85029E-03 4.60377E-02-4.18416E-13-5.76987E-13
 -1      2982 2.08080E+01 1.03922E+00-1.76278E-03 3.51602E-01-3.66529E-13-5.66118E-13
 -1      2983 2.05856E+01 1.17480E+00-1.18610E-03 4.83157E-01-3.44630E-13-5.75113E-13
 -1      2984 2.05416E+01 1.66338E+00 7.69032E-04-2.45066E-02-4.17513E-13-6.58045E-13
 -1      2985 1.92647E+01 3.12754E+00-4.11761E-03 1.68362E-01 5.37074E-13-7.15282E-13
 -1      2986 1.90423E+01 3.26780E+00-8.66249E-03 9.78016E-02 4.61159E-13-7.75325E-13
 -1      2987 1.90079E+01 3.07164E+00 5.87583E-03-2.62712E-02 3.99274E-13-7.46827E-13
 -1      2988 1.94626E+01 2.73292E+00 5.57544E-03 2.23477E-02 5.04483E-13-6.29666E-13
 -1      2989 1.25405E+01-2.96461E+00 5.87663E-02 5.87560E+00 4.17777E-13-9.97577E-13
 -1      2990 9.39824E+00-1.93932E+00 1.79753E-01 4.61470E+00 3.49040E-13-1.21161E-12
 -1      2991 1.00575E+01-1.05751E+00 1.73993E-01 3.66400E+00 3.43649E-13-1.19668E-12
 -1      2992 1.90141E+01 3.29424E+00-8.44605E-03-9.98514E-02-5.94355E-14-9.44699E-13
 -1      2993 1.92335E+01 3.15771E+00-3.92785E-03-1.66711E-01-1.48873E-13-9.41704E-13
 -1      2994 2.88306E+01-1.29356E+00-1.64070E-01-8.28835E-01-5.88668E-13 2.36172E-13
 -1      2995 2.79402E+01-3.15925E+00-3.35790E-02 6.66558E-01-3.66498E-13 1.94914E-13
 -1      2996 2.02423E+01 2.74269E+00-3.39496E-03-7.32165E-01-4.58031E-13-8.56596E-13
 -1      2997 1.97270E+01-5.13680E+00 3.11213E-02 5.87817E+00 2.49745E-13-3.72868E-13
 -1      2998 1.64985E+01-4.21173E+00 1.01977E-01 6.14342E+00 3.72993E-13-6.23696E-13
 -1      2999 1.71694E+01-4.38591E+00 1.45735E-01-6.14958E+00-6.88630E-13-8.15556E-13
 -1      3000 1.97711E+01-5.18285E+00-2.80575E-02-5.87113E+00-6.37893E-13-5.67310E-13
 -1      3001 2.91251E+01 2.35702E+00-4.60375E-02 2.28637E+00-4.85972E-13-7.00717E-13
 -1      3002 2.88144E+01 4.21496E+00-2.29096E-01 1.96903E+00-7.28334E-13-6.10345E-13
 -1      3003 2.90151E+01 4.63069E+00-2.35533E-01-1.74814E+00 1.01660E-12-4.10921E-13
 -1      3004 2.90869E+01 3.23650E+00-7.48939E-02-2.22799E+00 8.43298E-13-5.65881E-13
 -1      3005 2.88263E+01 6.08091E+00-1.31380E-01 1.15549E+00-1.04480E-12-5.05748E-13
 -1      3006 2.89138E+01 6.44490E+00-1.92091E-01 6.11162E-02-1.20884E-12-3.99515E-13
 -1      3007 2.75566E+01 5.66539E+00-9.96508E-02-4.72277E-01-1.09540E-12-2.42827E-13
 -1      3008 6.51277E+00-7.61859E-01 1.65982E-01-8.11611E-01-7.81649E-14-1.44929E-12
 -1      3009 7.42502E+00-1.21675E+00 7.47655E-02-3.14263E+00-2.35346E-13-1.32896E-12
 -1      3010 2.27208E+01-5.24384E+00 9.56790E-02-4.62494E+00-5.58956E-13-2.54682E-13
 -1      3011 2.54090E+01-5.06036E+00-1.29002E-01-3.14024E+00-3.34580E-13 6.07361E-14
 -1      3012 2.91071E+01 2.99326E+00-2.16805E-01-1.94863E+00-1.07714E-12 1.18544E-13
 -1      3013 2.93075E+01 1.23275E+00-6.65745E-02-1.89390E+00-8.52429E-13 2.07667E-13
 -1      3014 7.65478E+00-1.22752E+00 1.63556E-01-3.15321E+00 2.61180E-14 6.96360E-13
 -1      3015 1.00129E+01-2.19724E+00 1.02081E-01-5.12055E+00 2.04017E-13 5.78676E-13
 -1      3016 2.75195E+01-3.64087E+00-1.63885E-01 1.03810E+00-6.27276E-15-7.33483E-13
 -1      3017 2.60233E+01-4.57110E+00 4.66147E-02 2.41441E+00-2.01124E-13-5.43066E-13
 -1      3018 1.99996E+01-2.42858E-03-9.01700E-06 5.42867E-03 1.23737E-13 4.51759E-13
 -1      3019 2.55285E+01-4.82240E+00 6.60640E-02-2.98261E+00 3.19925E-13-7.83512E-13
 -1      3020 2.73035E+01-3.94313E+00-1.49095E-01-1.49392E+00 1.45828E-13-8.74634E-13
 -1      3021 2.89154E+01 4.97326E-01-2.21450E-01-1.76075E+00 4.81643E-13-6.00603E-13
 -1      3022 2.86998E+01-1.66279E+00-1.26072E-02-7.14373E-01 1.69101E-13-7.22700E-13
 -1      3023 1.94818E+01 2.95672E+00-8.81117E-03-2.07283E-01-1.97989E-13-9.23721E-13
 -1      3024 1.97603E+01 2.76981E+00-2.65198E-03-2.89729E-01-2.96304E-13-9.09166E-13
 -1      3025 1.94269E+01 2.77049E+00 6.31110E-03-2.32421E-02-1.54111E-13-8.69504E-13
 -1      3026 1.85978E+01 3.36189E+00 6.49899E-03-9.01094E-03 1.97615E-13-8.86403E-13
 -1      3027 1.85604E+01 3.60583E+00-5.70260E-03-1.89515E-03 1.84617E-13-9.44289E-13
 -1      3028 1.86056E+01 3.58163E+00-4.39726E-03-3.76709E-02 1.20596E-13-9.69654E-13
 -1      3029 2.82438E+01-1.09135E+00-6.67249E-02 1.23541E+00 2.22544E-13 3.74895E-13
 -1      3030 1.93583E+01-4.44722E+00 8.69308E-02 5.29926E+00-6.33993E-13-5.59483E-14
 -1      3031 2.80750E+01 1.30980E+00-6.36730E-02-2.21891E+00 4.90483E-13-6.08569E-13
 -1      3032 2.63412E+01-4.13692E+00 1.35443E-02-1.59237E+00-2.65850E-13 1.79190E-13
 -1      3033 1.88817E+01-4.50225E+00 1.17025E-01-5.51088E+00 5.65256E-13-1.82812E-13
 -1      3034 2.79518E+01 3.59245E+00-6.63038E-02-1.99745E+00-9.66213E-13 1.00309E-13
 -1      3035 1.23081E+01-2.90567E+00 1.31524E-01 5.76602E+00-6.77791E-13 3.82555E-13
 -1      3036 1.10358E+01-1.97119E+00 1.11731E-01 4.94782E+00-7.50677E-13 4.50223E-13
 -1      3037 1.48290E+01-2.87694E+00 9.78297E-02 5.47585E+00-6.86590E-13 3.79627E-13
 -1      3038 2.77630E+01-2.54204E+00 4.64748E-02-4.27442E-01 1.85095E-14-7.16358E-13
 -1      3039 7.82204E+00-5.57231E-01 1.82364E-01-1.91595E+00-6.05870E-14 7.64999E-13
 -1      3040 1.00050E+01-3.59840E-01 9.00463E-02-2.64278E+00 1.58247E-13 4.79020E-13
 -1      3041 8.46533E+00 1.23484E-02 1.13175E-01-4.58449E-01-2.10656E-13 6.36477E-13
 -1      3042 2.00023E+01-2.22104E-03-2.58035E-06-4.29197E-03 4.72869E-14-3.90738E-13
 -1      3043 2.00017E+01-3.27148E-03 9.76076E-06-4.43229E-03 9.39529E-14-5.40999E-13
 -1      3044 2.00012E+01-2.96495E-03 3.72629E-07-4.84385E-03-5.01103E-14-7.65379E-13
 -1      3045 1.05632E+01-1.02660E+00 1.79922E-01-3.72125E+00-3.27571E-13-1.14828E-12
 -1      3046 2.83434E+01 8.37723E-01-3.60202E-03 2.13595E+00-2.97803E-13-6.71616E-13
 -1      3047 2.11528E+01 4.96135E-03-8.88466E-03-1.34029E+00 1.65117E-13-2.18795E-13
 -1      3048 2.20058E+01-4.81545E+00 8.80247E-02-4.54862E+00-6.31092E-13-2.95436E-13
 -1      3049 2.76490E+01-3.08863E+00 2.95507E-02-1.59978E-01 1.41600E-13-8.52013E-13
 -1      3050 2.00008E+01-2.88859E-03 1.08476E-05-5.17356E-03-1.58487E-13-7.66560E-13
 -1      3051 2.00002E+01-2.50233E-03-3.36826E-06-5.33087E-03-1.80732E-13-5.35836E-13
 -1      3052 2.00000E+01-1.91767E-03-1.01008E-05-5.63681E-03-1.27691E-13-4.67682E-13
 -1      3053 2.00013E+01-2.12229E-03-6.02832E-06-5.18929E-03-2.31052E-14-6.60099E-13
 -1      3054 2.76704E+01 4.61690E+00-9.72909E-02 1.67028E+00-7.89785E-13-5.26676E-13
 -1      3055 1.54696E+01-3.36674E+00 1.36816E-01 5.84388E+00 4.59036E-13-7.52315E-13
 -1      3056 1.45448E+01-2.38373E+00 9.21016E-02 5.27265E+00 4.68237E-13-8.05703E-13
 -1      3057 1.79699E+01-3.69505E+00 3.33644E-02 5.37261E+00 4.93341E-13-4.54685E-13
 -1      3058 2.00003E+01-2.78850E-03 1.26565E-05 5.25937E-03 1.08031E-13 5.80412E-13
 -1      3059 2.80751E+01 5.31939E+00-1.10251E-01-1.55219E+00 1.06826E-12-3.11168E-13
 -1      3060 2.00004E+01-1.81268E-03-4.58604E-06 5.58695E-03 1.07529E-14 4.26856E-13
 -1      3061 2.00009E+01-2.64071E-03-4.34166E-06 5.21635E-03 4.45951E-15 8.49201E-13
 -1      3062 2.00015E+01-1.81180E-03 1.61986E-05 5.18717E-03 3.43321E-14 8.24850E-13
 -1      3063 2.00005E+01-1.24930E-03 2.23150E-05 5.68117E-03-7.74697E-14 5.35628E-13
 -1      3064 2.42179E+01-4.98581E+00 3.55890E-02-3.40084E+00 4.20608E-13-7.05436E-13
 -1      3065 8.24446E+00-1.95928E-01 1.88849E-01 4.87813E-02 2.28663E-14-1.34950E-12
 -1      3066 2.06784E+01 1.78035E+00-4.01487E-03 3.65758E-01 6.73618E-13-2.03105E-13
 -1      3067 2.78012E+01 1.91014E+00-3.70497E-02 2.20921E+00 5.70932E-13 4.49842E-13
 -1      3068 2.88239E+01 3.12878E+00-1.24779E-01 2.07179E+00 7.89577E-13 3.76532E-13
 -1      3069 2.76413E+01 3.87859E+00-2.09372E-01 1.93936E+00 8.19650E-13 3.08802E-13
 -1      3070 2.01901E+01 2.46361E+00 5.40114E-04-4.39457E-01-3.80834E-13-8.40827E-13
 -1      3071 2.70626E+01-4.12087E+00-5.34364E-02 1.57369E+00-2.24348E-13 1.86018E-13
 -1      3072 2.56481E+01-4.55423E+00 5.89734E-02 2.35392E+00 3.82437E-14 1.09870E-13
 -1      3073 2.69523E+01-3.32100E+00-1.77393E-02 6.53176E-02-1.10450E-13 3.03473E-13
 -1      3074 1.86969E+01 3.51223E+00-7.24119E-03-3.57463E-02 7.97751E-14-9.41866E-13
 -1      3075 1.88359E+01 3.43317E+00-3.62134E-03-8.29976E-02-1.14559E-14-9.39405E-13
 -1      3076 1.89782E+01 3.09874E+00 5.94674E-03 1.77757E-02-2.84869E-14-8.82155E-13
 -1      3077 1.86914E+01 3.29882E+00 6.24767E-03 1.69455E-02 8.06891E-14-9.08240E-13
 -1      3078 2.81598E+01-4.53515E-01-1.64133E-02-1.65351E+00-5.42781E-13 3.42018E-13
 -1      3079 2.88934E+01 6.17739E+00-1.56426E-01 6.11277E-01 1.13987E-12 1.31145E-15
 -1      3080 2.75719E+01 5.80299E+00-1.63499E-01 1.66043E-01 1.10625E-12 8.91370E-14
 -1      3081 2.76992E+01 5.41554E+00-1.16610E-01 1.16744E+00 9.79744E-13 1.44502E-13
 -1      3082 2.34100E+01-5.19222E+00-7.55820E-02 3.95472E+00 2.12504E-13-3.06092E-14
 -1      3083 2.16621E+01-5.12558E+00 7.56280E-02 4.96844E+00 2.55532E-13-2.02246E-13
 -1      3084 2.10057E+01-4.58464E+00 6.71182E-02 4.90580E+00 3.91132E-13-1.92305E-13
 -1      3085 7.63605E+00-1.13553E+00 1.64034E-01 2.68902E+00-6.54019E-13 7.30721E-13
 -1      3086 2.47397E+01-4.72922E+00 5.64530E-02 2.80260E+00-3.90819E-13-5.79828E-13
 -1      3087 2.05729E+01 1.62415E+00 2.41464E-03 5.84973E-02 6.05316E-13-2.75097E-13
 -1      3088 2.01817E+01 1.86109E+00-2.64936E-03-1.04475E-01 5.54509E-13-4.04061E-13
 -1      3089 1.98823E+01 2.12012E+00-3.82876E-03-1.38295E-01 5.08849E-13-4.83445E-13
 -1      3090 1.16893E+01-1.09180E+00 5.41629E-02 4.12236E+00 4.06508E-13-1.01599E-12
 -1      3091 9.95700E+00-2.63086E-01 1.23838E-01 2.61226E+00 2.90507E-13-1.14557E-12
 -1      3092 2.03578E+01 7.01355E-01 4.82027E-03 1.25039E+00-1.30733E-13-4.20621E-13
 -1      3093 2.04179E+01 4.98673E-01 2.38450E-03 1.41364E+00-7.61119E-14-4.03304E-13
 -1      3094 2.04643E+01 2.79658E-01 6.99320E-03 1.58795E+00-5.50766E-14-3.68016E-13
 -1      3095 2.05970E+01 2.65120E-02 4.10208E-03 1.69390E+00-3.29138E-14-3.72384E-13
 -1      3096 2.00595E+01 5.07006E-01-6.91271E-03 1.56058E+00-7.21000E-14-4.45052E-13
 -1      3097 2.07369E+01-2.59802E-01 1.16855E-02 1.82986E+00 1.34816E-14-3.41099E-13
 -1      3098 2.09752E+01-5.99187E-01 4.38607E-03 1.86155E+00 5.52867E-14-3.10071E-13
 -1      3099 2.02044E+01-5.80911E-02-1.33637E-02 1.90142E+00 1.97284E-14-4.11253E-13
 -1      3100 2.12798E+01-9.75751E-01 2.02837E-02 1.93118E+00 8.27704E-14-2.57760E-13
 -1      3101 2.16542E+01-1.41064E+00 1.98628E-03 1.85135E+00 1.06625E-13-1.93397E-13
 -1      3102 2.05836E+01-8.16634E-01-2.34182E-02 2.16188E+00 9.64824E-14-3.63296E-13
 -1      3103 2.22121E+01-1.85376E+00 3.46788E-02 1.78737E+00 1.39602E-13-1.04379E-13
 -1      3104 2.27317E+01-2.32304E+00-3.59001E-03 1.53656E+00 1.43141E-13-5.48257E-14
 -1      3105 2.13480E+01-1.80088E+00-3.48548E-02 2.26241E+00 1.78813E-13-2.36819E-13
 -1      3106 2.36026E+01-2.70435E+00 4.50604E-02 1.21837E+00 1.33121E-13 7.93480E-14
 -1      3107 2.42270E+01-2.97580E+00-1.37633E-03 7.41979E-01 1.01266E-13 1.19338E-13
 -1      3108 2.26438E+01-2.87514E+00-4.68292E-02 2.00402E+00 1.89531E-13-8.09179E-14
 -1      3109 2.54339E+01-3.18801E+00 8.68639E-03 2.22162E-01-4.74523E-15 2.57239E-13
 -1      3110 2.60436E+01-2.72142E+00-2.98463E-02-4.41811E-01-1.38259E-13 2.91153E-13
 -1      3111 2.69053E+01 1.15775E+00-1.62884E-01-2.39746E+00-6.66744E-13 2.22308E-13
 -1      3112 2.68274E+01 2.95175E+00-9.31935E-02-1.99281E+00-8.60131E-13 1.07879E-13
 -1      3113 2.64013E+01-1.48457E+00-3.03652E-02 1.66601E+00 2.32141E-14-5.94639E-13
 -1      3114 2.60229E+01-2.40333E+00 4.65623E-03 1.05285E+00 2.23684E-13-5.69118E-13
 -1      3115 2.49888E+01-2.85476E+00-3.02425E-02 2.01296E-01 2.92928E-13-5.11074E-13
 -1      3116 2.44417E+01-2.87065E+00 3.38402E-02-3.76965E-01 3.57197E-13-4.44601E-13
 -1      3117 2.56166E+01-3.19257E+00-6.29997E-02 6.12007E-02 2.46282E-13-6.67676E-13
 -1      3118 2.34579E+01-2.68553E+00-1.86882E-02-9.11332E-01 3.19387E-13-4.81902E-13
 -1      3119 2.29024E+01-2.29380E+00 3.60122E-02-1.28258E+00 3.07225E-13-4.70732E-13
 -1      3120 2.36653E+01-3.19265E+00-3.97642E-02-1.22481E+00 3.30135E-13-6.00456E-13
 -1      3121 2.21752E+01-1.89469E+00-6.53988E-03-1.50205E+00 2.52063E-13-4.37913E-13
 -1      3122 2.17259E+01-1.44386E+00 2.49351E-02-1.67478E+00 2.47946E-13-5.22346E-13
 -1      3123 2.20627E+01-2.33749E+00-3.31464E-02-1.85449E+00 2.56992E-13-5.54063E-13
 -1      3124 2.12774E+01-1.06422E+00 2.54095E-04-1.70424E+00 2.21757E-13-5.16912E-13
 -1      3125 2.09605E+01-7.01257E-01 1.35418E-02-1.74813E+00 1.31238E-13-5.09252E-13
 -1      3126 2.09915E+01-1.36132E+00-2.44960E-02-1.99996E+00 2.07076E-13-5.17197E-13
 -1      3127 2.07173E+01-4.16225E-01 2.84015E-03-1.68849E+00 1.30242E-14-4.57479E-13
 -1      3128 2.05115E+01-1.68939E-01 6.33301E-03-1.65926E+00-2.68498E-14-4.94767E-13
 -1      3129 2.03727E+01-5.78723E-01-1.51558E-02-1.90531E+00 9.25545E-14-4.72964E-13
 -1      3130 2.03966E+01 1.60303E-02 3.37809E-03-1.56400E+00-6.12365E-14-5.50494E-13
 -1      3131 2.02682E+01 1.64271E-01 2.23603E-03-1.49673E+00-8.52340E-14-5.00234E-13
 -1      3132 2.00551E+01-4.77438E-02-8.12142E-03-1.71607E+00-1.04005E-13-4.39151E-13
 -1      3133 2.02260E+01 2.68870E-01 3.17025E-03-1.39097E+00-1.10008E-13-5.04945E-13
 -1      3134 2.01457E+01 3.44749E-01 1.14277E-05-1.30636E+00-3.08765E-14-3.80293E-13
 -1      3135 1.99166E+01 2.69895E-01-3.74714E-03-1.49837E+00-8.49777E-14-3.75232E-13
 -1      3136 2.01409E+01 3.92769E-01 2.81593E-03-1.20169E+00 6.79810E-15-4.51696E-13
 -1      3137 2.00887E+01 4.20631E-01-1.11676E-03-1.11209E+00 4.55592E-14-4.68112E-13
 -1      3138 1.98752E+01 4.32521E-01-1.30868E-03-1.28086E+00-7.30621E-14-3.99569E-13
 -1      3139 2.01006E+01 4.32403E-01 2.50230E-03-1.01408E+00 3.86260E-14-4.44630E-13
 -1      3140 2.00642E+01 4.30928E-01-1.61207E-03-9.26905E-01 3.17049E-14-4.35953E-13
 -1      3141 1.98806E+01 4.92303E-01-8.43700E-05-1.07579E+00 7.75424E-14-5.18715E-13
 -1      3142 2.00816E+01 4.21488E-01 2.24435E-03-8.38287E-01-9.16473E-15-4.65733E-13
 -1      3143 2.00541E+01 4.03729E-01-1.74983E-03-7.57864E-01 3.15856E-14-4.53068E-13
 -1      3144 1.99046E+01 4.89045E-01 4.34722E-04-8.88766E-01-5.85077E-14-5.42198E-13
 -1      3145 2.00715E+01 3.83276E-01 2.01732E-03-6.79894E-01-3.66731E-14-4.89317E-13
 -1      3146 2.00494E+01 3.57797E-01-1.69037E-03-6.08507E-01-5.46835E-14-5.21612E-13
 -1      3147 1.99325E+01 4.50614E-01 5.81588E-04-7.22404E-01-3.31915E-14-4.58342E-13
 -1      3148 2.00644E+01 3.32844E-01 1.79921E-03-5.41515E-01 1.10034E-13-4.50333E-13
 -1      3149 2.00459E+01 3.04988E-01-1.52772E-03-4.80059E-01 1.49373E-13-3.66209E-13
 -1      3150 1.99577E+01 3.95369E-01 5.53257E-04-5.77691E-01 7.63655E-14-4.50902E-13
 -1      3151 2.00579E+01 2.79469E-01 1.58056E-03-4.23730E-01 1.56323E-13-2.97496E-13
 -1      3152 2.00422E+01 2.52382E-01-1.31996E-03-3.72156E-01 2.37933E-13-1.83242E-13
 -1      3153 1.99777E+01 3.34829E-01 4.56113E-04-4.54440E-01 2.06645E-13-3.89672E-13
 -1      3154 2.00511E+01 2.28499E-01 1.36300E-03-3.25717E-01 2.13344E-13-1.95924E-13
 -1      3155 2.00379E+01 2.03862E-01-1.10380E-03-2.83380E-01 1.00084E-13-9.33162E-15
 -1      3156 1.99922E+01 2.75826E-01 3.42527E-04-3.51533E-01 2.17125E-13-4.12755E-13
 -1      3157 2.00441E+01 1.82690E-01 1.15304E-03-2.45790E-01 6.91531E-14 2.10616E-13
 -1      3158 2.00331E+01 1.61243E-01-9.00429E-04-2.11719E-01 1.52370E-13 3.95414E-13
 -1      3159 2.00020E+01 2.22047E-01 2.37152E-04-2.67195E-01 1.82088E-13-8.67699E-14
 -1      3160 2.00373E+01 1.43163E-01 9.56888E-04-1.81826E-01 1.33093E-13 4.38693E-13
 -1      3161 2.00282E+01 1.25083E-01-7.18982E-04-1.54914E-01 9.35432E-14 3.39010E-13
 -1      3162 2.00079E+01 1.75147E-01 1.51311E-04-1.99292E-01 1.51658E-13 1.77563E-13
 -1      3163 2.00309E+01 1.10079E-01 7.79119E-04-1.31554E-01 8.31585E-14 3.12135E-13
 -1      3164 2.00235E+01 9.52257E-02-5.62627E-04-1.10677E-01 1.23922E-13 2.63743E-13
 -1      3165 2.00111E+01 1.35545E-01 8.66416E-05-1.45571E-01 1.11409E-13 7.27000E-14
 -1      3166 2.00250E+01 8.30676E-02 6.22670E-04-9.27386E-02 7.00900E-14 2.77812E-13
 -1      3167 2.00192E+01 7.11313E-02-4.31722E-04-7.68323E-02 1.32934E-14 1.43382E-13
 -1      3168 2.00123E+01 1.02960E-01 4.04780E-05-1.03800E-01 6.21498E-14 1.83637E-13
 -1      3169 2.00199E+01 6.14826E-02 4.88646E-04-6.33003E-02-1.94336E-14 2.24421E-13
 -1      3170 2.00153E+01 5.20801E-02-3.24820E-04-5.14025E-02-5.31910E-14 1.90648E-13
 -1      3171 2.00123E+01 7.67367E-02 9.37643E-06-7.18830E-02 1.91858E-14 3.94546E-14
 -1      3172 2.00155E+01 4.45694E-02 3.76531E-04-4.13847E-02-5.78372E-14 1.92392E-13
 -1      3173 2.00120E+01 3.73004E-02-2.39431E-04-3.26584E-02-4.45995E-15 2.01209E-13
 -1      3174 2.00114E+01 5.60519E-02-1.01256E-05-4.79311E-02-4.47838E-14-2.93272E-15
 -1      3175 2.00119E+01 3.15610E-02 2.84741E-04-2.53929E-02-6.40436E-15 1.90113E-13
 -1      3176 2.00092E+01 2.60422E-02-1.72638E-04-1.91311E-02 1.16503E-13 1.81769E-13
 -1      3177 2.00101E+01 4.00387E-02-2.11194E-05-3.02983E-02 9.17927E-15 1.66705E-13
 -1      3178 2.00089E+01 2.17347E-02 2.11115E-04-1.39839E-02 9.99594E-14 1.60349E-13
 -1      3179 2.00069E+01 1.76172E-02-1.21530E-04-9.60468E-03 6.14996E-14 1.38528E-13
 -1      3180 2.00086E+01 2.78639E-02-2.61571E-05-1.75908E-02-2.64399E-14 3.45592E-14
 -1      3181 2.00065E+01 1.44389E-02 1.53294E-04-6.06071E-03 1.59993E-14 1.83530E-13
 -1      3182 2.00050E+01 1.14148E-02-8.33612E-05-3.09688E-03-7.02031E-15 1.63277E-13
 -1      3183 2.00071E+01 1.87663E-02-2.72975E-05-8.65778E-03 6.07390E-14 1.16914E-13
 -1      3184 2.00046E+01 9.10274E-03 1.08880E-04-7.47750E-04 5.39812E-14 2.77301E-13
 -1      3185 2.00036E+01 6.90579E-03-5.58577E-05 1.16636E-03 8.74483E-14 3.91776E-13
 -1      3186 2.00057E+01 1.20736E-02-2.59550E-05-2.57167E-03 4.33926E-14 2.65249E-13
 -1      3187 2.00031E+01 5.23344E-03 7.54592E-05 2.63624E-03 1.82963E-14 5.61731E-13
 -1      3188 2.00024E+01 3.63557E-03-3.62398E-05 3.77748E-03 9.73713E-14 4.48782E-13
 -1      3189 2.00043E+01 7.20321E-03-2.34239E-05 1.39805E-03 2.67477E-14 4.52230E-13
 -1      3190 2.00019E+01 2.40658E-03 5.02128E-05 4.60245E-03 2.01998E-13 6.07038E-13
 -1      3191 2.00015E+01 1.22905E-03-1.92609E-05 5.16845E-03 2.71120E-13 6.27369E-13
 -1      3192 2.00032E+01 3.66112E-03-1.84986E-05 3.80345E-03 1.39561E-13 8.09654E-13
 -1      3193 2.00011E+01 4.00758E-04 3.38541E-05 5.50011E-03-4.32737E-15 6.24806E-13
 -1      3194 2.00008E+01-5.31520E-04-9.64348E-06 5.64253E-03-1.30156E-13 5.60717E-13
 -1      3195 2.00014E+01-7.66434E-04-2.27556E-05 5.45952E-03-1.23830E-13 7.10571E-13
 -1      3196 2.00022E+01 1.11391E-03-2.72421E-05 5.02928E-03 9.50566E-14 8.10115E-13
 -1      3197 2.28045E+01-1.89196E+00-3.67431E-03-1.03145E+00-1.02973E-13-6.34844E-14
 -1      3198 2.24013E+01-1.54558E+00 2.50334E-02-1.30959E+00-1.35840E-13-1.18563E-13
 -1      3199 2.55908E+01-3.14984E-01-9.15218E-03 2.01954E+00 2.56975E-13 3.44392E-13
 -1      3200 2.55346E+01-1.39123E+00-4.40297E-02 1.67604E+00 9.41296E-14 3.61542E-13
 -1      3201 2.56297E+01 2.76772E+00-4.81411E-02 1.99917E+00 5.82923E-13 3.17701E-13
 -1      3202 2.57885E+01 1.33477E+00-1.07800E-01 2.26569E+00 4.64802E-13 3.51261E-13
 -1      3203 2.52121E+01 4.47055E+00-8.89677E-02 2.76556E-01 7.87953E-13 2.26720E-14
 -1      3204 2.53639E+01 3.88411E+00-1.26963E-01 1.18723E+00 7.68691E-13 1.91135E-13
 -1      3205 2.58410E+01 3.03353E+00-1.05456E-01-2.09080E+00 6.86923E-13-5.04735E-13
 -1      3206 2.57024E+01 3.96725E+00-8.89041E-02-1.22686E+00 7.83873E-13-2.83325E-13
 -1      3207 2.59608E+01 1.75844E+00-1.20179E-01-2.40313E+00 4.79679E-13-5.35065E-13
 -1      3208 2.55355E+01-1.45422E+00-2.46706E-02-1.75683E+00 6.35013E-14-6.14099E-13
 -1      3209 2.57132E+01-3.91146E-01 2.54221E-02-2.18273E+00 1.43011E-13-6.69814E-13
 -1      3210 2.45973E+01-2.31642E+00 1.17690E-02-5.15566E-01-2.55512E-14-5.08847E-13
 -1      3211 2.49259E+01-2.04558E+00-1.31739E-02-1.05235E+00 3.39472E-14-5.44959E-13
 -1      3212 2.56682E+01-2.15405E+00-2.06678E-02-1.11536E+00 1.57582E-14-5.60420E-13
 -1      3213 2.34195E+01-2.13853E+00 2.74271E-02 5.30358E-01-1.38138E-13-3.83390E-13
 -1      3214 2.38209E+01-2.32760E+00-1.79116E-02 8.59483E-02-5.90283E-14-4.50248E-13
 -1      3215 2.42171E+01-2.77123E+00-2.25163E-02 2.43450E-01-1.27268E-13-4.16443E-13
 -1      3216 2.23427E+01-1.50617E+00 2.38666E-02 1.15434E+00-1.38121E-13-3.64465E-13
 -1      3217 2.27228E+01-1.85492E+00-1.22954E-02 8.81157E-01-8.38917E-14-2.78870E-13
 -1      3218 2.27598E+01-2.34967E+00-3.59995E-02 1.17839E+00-1.44513E-13-3.19539E-13
 -1      3219 2.15425E+01-8.50839E-01 1.62002E-02 1.42928E+00-6.81854E-14-3.41971E-13
 -1      3220 2.18496E+01-1.17734E+00-4.46028E-03 1.29695E+00-1.09074E-13-3.47993E-13
 -1      3221 2.16567E+01-1.53835E+00-2.67095E-02 1.58729E+00-6.64322E-14-2.57840E-13
 -1      3222 2.10068E+01-3.33302E-01 9.23732E-03 1.48170E+00-2.77172E-13-2.05954E-13
 -1      3223 2.12329E+01-5.76589E-01 5.98586E-05 1.44664E+00-2.18143E-13-2.96126E-13
 -1      3224 2.09273E+01-7.96475E-01-1.82243E-02 1.68470E+00-1.82771E-13-8.72874E-14
 -1      3225 2.06699E+01 1.53975E-02 4.53019E-03 1.40819E+00-1.26032E-13-2.04217E-13
 -1      3226 2.08301E+01-1.41483E-01 1.96949E-03 1.43335E+00-1.81092E-13-2.34787E-13
 -1      3227 2.04922E+01-2.45637E-01-1.08445E-02 1.61455E+00-2.24794E-13-1.52351E-13
 -1      3228 2.04634E+01 2.20475E-01 1.58562E-03 1.27030E+00-1.44699E-13-8.94046E-14
 -1      3229 2.05772E+01 1.32595E-01 2.58912E-03 1.32922E+00-1.17660E-13-1.56094E-13
 -1      3230 2.02529E+01 1.08907E-01-5.84826E-03 1.46564E+00-1.84695E-13-2.05599E-13
 -1      3231 2.03361E+01 3.20895E-01-9.87391E-05 1.10497E+00-1.17873E-13-1.34187E-13
 -1      3232 2.04194E+01 2.81502E-01 2.70285E-03 1.17982E+00-5.64156E-14-9.26309E-14
 -1      3233 2.01310E+01 3.08420E-01-2.84995E-03 1.28499E+00-7.73903E-14-1.15146E-13
 -1      3234 2.02547E+01 3.52439E-01-9.50361E-04 9.34423E-01-1.01715E-14-1.62831E-13
 -1      3235 2.03182E+01 3.44046E-01 2.64163E-03 1.01369E+00-6.24946E-14-1.49627E-13
 -1      3236 2.00743E+01 3.99072E-01-1.18862E-03 1.09767E+00-3.01426E-14-1.52015E-13
 -1      3237 2.01993E+01 3.42639E-01-1.30156E-03 7.71744E-01-2.18035E-13-4.55205E-14
 -1      3238 2.02495E+01 3.52298E-01 2.50385E-03 8.48315E-01-1.02476E-13-5.83229E-14
 -1      3239 2.00507E+01 4.19778E-01-3.60686E-04 9.17471E-01-1.55862E-13-8.41010E-14
 -1      3240 2.01588E+01 3.10641E-01-1.36742E-03 6.24136E-01-8.04137E-14-2.37648E-13
 -1      3241 2.01995E+01 3.29563E-01 2.31766E-03 6.93985E-01-1.49585E-13-7.89583E-14
 -1      3242 2.00422E+01 3.99407E-01-7.77185E-06 7.51988E-01-1.40061E-13 5.87232E-15
 -1      3243 2.01273E+01 2.68860E-01-1.28225E-03 4.95003E-01 2.24944E-14-3.91710E-13
 -1      3244 2.01607E+01 2.91449E-01 2.09671E-03 5.56178E-01-2.25799E-14-3.62485E-13
 -1      3245 2.00394E+01 3.57640E-01 9.98154E-05 6.05083E-01 1.94894E-14-7.02673E-14
 -1      3246 2.01018E+01 2.24894E-01-1.12609E-03 3.85276E-01-1.11747E-13-3.84672E-13
 -1      3247 2.01291E+01 2.47782E-01 1.85355E-03 4.37190E-01-4.43463E-14-4.73296E-13
 -1      3248 2.00380E+01 3.07115E-01 9.58161E-05 4.78236E-01 8.43243E-15-2.17883E-13
 -1      3249 2.00807E+01 1.83096E-01-9.45746E-04 2.94303E-01-7.57701E-14-2.11301E-13
 -1      3250 2.01029E+01 2.04401E-01 1.60101E-03 3.37229E-01-1.45251E-13-2.84183E-13
 -1      3251 2.00362E+01 2.55523E-01 5.33113E-05 3.71323E-01-2.06454E-13-2.02303E-13
 -1      3252 2.00632E+01 1.45696E-01-7.68839E-04 2.20480E-01-1.73984E-13-1.41870E-13
 -1      3253 2.00811E+01 1.64501E-01 1.35222E-03 2.55194E-01-1.06898E-13-1.98157E-13
 -1      3254 2.00335E+01 2.07223E-01 3.98759E-06 2.83135E-01-1.68335E-13-1.43389E-13
 -1      3255 2.00488E+01 1.13577E-01-6.08925E-04 1.61732E-01-2.39866E-13-3.67522E-14
 -1      3256 2.00630E+01 1.29570E-01 1.11875E-03 1.89245E-01-1.59496E-13-1.15827E-13
 -1      3257 2.00301E+01 1.64391E-01-3.72363E-05 2.11802E-01-1.99902E-13-1.48338E-13
 -1      3258 2.00371E+01 8.68262E-02-4.71248E-04 1.15840E-01-1.70407E-13 2.06805E-14
 -1      3259 2.00482E+01 1.00045E-01 9.07750E-04 1.37237E-01-2.05042E-13 3.35808E-16
 -1      3260 2.00263E+01 1.27820E-01-6.48719E-05 1.55156E-01-2.13999E-13-7.12770E-14
 -1      3261 2.00277E+01 6.50971E-02-3.56700E-04 8.06395E-02-4.60383E-14 2.68793E-14
 -1      3262 2.00362E+01 7.57653E-02 7.22703E-04 9.69724E-02-4.61056E-14 4.24530E-14
 -1      3263 2.00224E+01 9.74839E-02-7.99746E-05 1.10973E-01-1.19313E-13-1.79863E-13
 -1      3264 2.00203E+01 4.78275E-02-2.63975E-04 5.41345E-02 8.37648E-14-1.13891E-13
 -1      3265 2.00267E+01 5.62573E-02 5.64759E-04 6.63686E-02-2.61150E-15-5.75423E-14
 -1      3266 2.00186E+01 7.29196E-02-8.52184E-05 7.71222E-02 1.71266E-14-1.89863E-13
 -1      3267 2.00145E+01 3.43736E-02-1.90713E-04 3.45603E-02-1.84313E-14-5.19909E-14
 -1      3268 2.00193E+01 4.09050E-02 4.33152E-04 4.35432E-02 1.20952E-13-1.50136E-14
 -1      3269 2.00151E+01 5.34473E-02-8.34264E-05 5.16573E-02-6.67838E-15-1.15483E-13
 -1      3270 2.00101E+01 2.40895E-02-1.34138E-04 2.04074E-02-1.44076E-13 1.32602E-13
 -1      3271 2.00136E+01 2.90556E-02 3.25830E-04 2.68595E-02-1.57725E-13-5.83377E-14
 -1      3272 2.00121E+01 3.83115E-02-7.70944E-05 3.28670E-02-1.01726E-13 1.63632E-13
 -1      3273 2.00068E+01 1.63718E-02-9.14588E-05 1.04199E-02-2.14119E-13 8.12615E-14
 -1      3274 2.00093E+01 2.00792E-02 2.40053E-04 1.49370E-02-1.46343E-13 1.02071E-13
 -1      3275 2.00094E+01 2.67651E-02-6.81907E-05 1.92929E-02-1.52659E-13-9.79212E-14
 -1      3276 2.00044E+01 1.06793E-02-6.01556E-05 3.57862E-03-9.75842E-14-2.15639E-13
 -1      3277 2.00061E+01 1.34006E-02 1.72871E-04 6.64070E-03-1.31124E-13-1.82458E-14
 -1      3278 2.00072E+01 1.81142E-02-5.82010E-05 9.72443E-03-5.81465E-14-1.84837E-13
 -1      3279 2.00027E+01 6.53765E-03-3.81184E-05-9.22401E-04 7.03083E-14-2.01065E-13
 -1      3280 2.00038E+01 8.51049E-03 1.21486E-04 1.06112E-03 1.27303E-14-2.64026E-13
 -1      3281 2.00053E+01 1.17387E-02-4.82817E-05 3.18096E-03 1.56271E-14-3.68844E-13
 -1      3282 2.00015E+01 3.53777E-03-2.33409E-05-3.70037E-03 1.27340E-13-4.22099E-14
 -1      3283 2.00021E+01 4.96600E-03 8.32695E-05-2.51003E-03 8.09075E-14-1.16222E-13
 -1      3284 2.00038E+01 7.09640E-03-3.86994E-05-1.11145E-03 6.88157E-15-3.32974E-13
 -1      3285 2.00007E+01 1.33929E-03-1.38196E-05-5.21151E-03 1.19285E-13-2.57460E-13
 -1      3286 2.00010E+01 2.39013E-03 5.50975E-05-4.60439E-03 2.11373E-13-8.82248E-14
 -1      3287 2.00026E+01 3.72618E-03-2.87369E-05-3.73927E-03 2.11376E-13-3.75423E-13
 -1      3288 2.00001E+01-3.42162E-04-2.61832E-06-5.78117E-03 1.00788E-13-4.80348E-13
 -1      3289 2.00003E+01 4.55861E-04 3.28606E-05-5.61687E-03 1.22831E-13-4.80352E-13
 -1      3290 2.00016E+01 1.22622E-03-2.35678E-05-5.14837E-03 2.08367E-13-4.94989E-13
 -1      3291 2.00002E+01-1.38123E-03 1.37786E-06-5.69528E-03-7.39752E-14-5.20541E-13
 -1      3292 2.00000E+01-8.22633E-04 3.82662E-06-5.82733E-03-2.23969E-14-5.41754E-13
 -1      3293 2.00011E+01-3.84884E-04-1.15213E-05-5.60128E-03 2.36627E-14-5.87881E-13
 -1      3294 2.00009E+01-1.51322E-03 2.38206E-06-5.57180E-03-7.16223E-14-5.32134E-13
 -1      3295 2.30666E+01-4.75719E+00 1.10945E-01-3.70049E+00 4.91968E-13-6.94373E-13
 -1      3296 2.49987E+01-4.81171E+00-1.26287E-01-2.30872E+00 3.50414E-13-7.64933E-13
 -1      3297 1.87105E+01 2.99903E+00-2.35172E-03-1.09688E-01 3.09777E-13-7.73130E-13
 -1      3298 1.85952E+01 3.06887E+00-5.98445E-03-9.47000E-02 2.54216E-13-8.13627E-13
 -1      3299 2.00042E+01-7.23505E-04-4.38838E-06 3.89350E-04-7.70210E-14-1.83957E-13
 -1      3300 2.00042E+01-7.23537E-04-4.73819E-06-3.68288E-04 1.35492E-13-3.95353E-13
 -1      3301 2.00026E+01-1.08751E-03-3.20216E-06 4.51873E-03-4.96681E-14 5.36405E-13
 -1      3302 2.00031E+01-1.10631E-03-6.49622E-07 3.94336E-03-2.40646E-14 2.02900E-13
 -1      3303 2.00040E+01-7.83420E-04-4.12179E-06 1.85793E-03-1.26645E-13 8.34477E-14
 -1      3304 2.00042E+01-7.78167E-04-5.83858E-06 1.12908E-03-6.06244E-14 4.13576E-14
 -1      3305 2.00049E+01 8.94623E-04 2.34050E-05 7.26589E-04-1.04506E-14-6.22267E-14
 -1      3306 2.09272E+01-1.78048E-03 8.79774E-04-1.48626E+00 1.18064E-13-2.71162E-13
 -1      3307 2.07959E+01 2.18741E-01 7.36475E-03-1.40739E+00 1.82397E-13-2.68253E-13
 -1      3308 2.64371E+01 4.28077E+00-1.99178E-01-1.48016E+00-9.91943E-13-7.20222E-14
 -1      3309 2.19126E+01-1.19035E+00-1.90244E-03-1.44473E+00-1.04974E-13-1.69208E-13
 -1      3310 2.16060E+01-8.37827E-01 1.88852E-02-1.56831E+00-6.06348E-14-1.56833E-13
 -1      3311 2.17535E+01-1.55921E+00-2.97694E-02-1.74174E+00-1.34864E-13-1.83640E-13
 -1      3312 2.08318E+01-4.45851E+00-6.48302E-02 4.43897E+00-5.74388E-13-1.72345E-13
 -1      3313 1.81735E+01-3.51072E+00 1.05511E-01 5.08537E+00-6.71449E-13 6.22696E-14
 -1      3314 2.69895E+01-7.22616E-01-5.98435E-02-1.70083E+00-4.39711E-13 3.10238E-13
 -1      3315 2.00035E+01-9.30632E-04-6.23639E-06 3.27426E-03-4.45789E-14-2.05348E-13
 -1      3316 2.00038E+01-9.25887E-04-4.58324E-06 2.58680E-03-1.31253E-13-1.45724E-13
 -1      3317 2.00046E+01 6.81753E-04 1.81222E-05 2.15707E-03-8.08793E-14-6.87474E-14
 -1      3318 2.00039E+01 3.07232E-04 1.80701E-06 3.54005E-03 4.27316E-14 9.47728E-14
 -1      3319 2.49440E+01-2.03049E+00-2.64546E-02 9.36457E-01-6.70644E-15 2.72932E-13
 -1      3320 2.46749E+01-2.32460E+00 1.69759E-02 4.18395E-01-6.95494E-14 2.63241E-13
 -1      3321 2.57466E+01-2.20722E+00-4.78796E-02 9.41401E-01-1.69656E-14 3.12597E-13
 -1      3322 2.38733E+01-2.37970E+00-2.82884E-02-2.21728E-01-9.82062E-14 1.25221E-13
 -1      3323 2.34756E+01-2.18497E+00 2.29505E-02-6.69788E-01-1.01242E-13 2.11703E-14
 -1      3324 2.29268E+01-2.34602E+00-2.01700E-03-1.28850E+00-1.89502E-13-5.57401E-14
 -1      3325 2.43396E+01-2.85483E+00-3.03479E-02-4.21279E-01-1.54596E-13 1.29625E-13
 -1      3326 2.09794E+01-4.20701E+00 1.06402E-01-4.54797E+00-6.30711E-13-3.53519E-13
 -1      3327 2.30467E+01-4.79675E+00-8.98653E-02-3.64566E+00-5.09731E-13-1.15595E-13
 -1      3328 2.71672E+01-1.91851E+00 2.08801E-02 1.11819E+00 4.56787E-14 3.96530E-13
 -1      3329 2.72346E+01-5.51340E-01-1.60553E-01 1.85200E+00 2.75828E-13 4.22967E-13
 -1      3330 2.03374E+01 1.08605E+00 3.26643E-03 8.27832E-01-2.15889E-13-5.14366E-13
 -1      3331 2.03542E+01 8.92362E-01 4.49201E-04 1.04462E+00-1.61098E-13-4.85412E-13
 -1      3332 2.00378E+01 9.61896E-01-3.14969E-03 1.16393E+00-1.10360E-13-4.84959E-13
 -1      3333 1.05101E+01-5.76159E-02 1.40827E-01-2.52687E+00-2.19566E-13-1.04745E-12
 -1      3334 1.24657E+01-1.03699E+00 4.26236E-02-4.13281E+00-3.79398E-13-9.16489E-13
 -1      3335 2.13037E+01-5.30315E-01 2.89077E-04-1.56618E+00-6.14764E-15-1.93812E-13
 -1      3336 2.10925E+01-2.44280E-01 1.22907E-02-1.57442E+00 4.97943E-14-2.34046E-13
 -1      3337 2.10476E+01-7.50782E-01-1.86793E-02-1.81070E+00-4.64271E-14-2.70910E-13
 -1      3338 1.60759E+01-3.32580E+00 1.07762E-01-5.64491E+00-6.43749E-13-8.62900E-13
 -1      3339 2.00974E+01 2.26119E+00 4.60098E-06-1.86473E-01-3.25075E-13-8.12888E-13
 -1      3340 9.48236E+00-1.02815E+00 1.66796E-01 3.80828E+00-6.52908E-13 5.47146E-13
 -1      3341 8.56507E+00-3.61251E-01 1.00234E-01 2.02456E+00-5.81243E-13 6.88449E-13
 -1      3342 1.18767E+01-1.23700E+00 1.20804E-01 4.15579E+00-7.03354E-13 4.83280E-13
 -1      3343 1.28701E+01-2.36242E+00 1.40002E-01-5.15518E+00 4.14876E-13 2.51868E-13
 -1      3344 2.68215E+01-3.38995E+00 5.90781E-02-2.45918E-01 2.10148E-13-7.88980E-13
 -1      3345 2.73138E+01-2.24103E+00-1.17292E-01 1.05939E+00 1.17580E-14-7.86551E-13
 -1      3346 2.51546E+01-4.24981E+00 7.84731E-02-1.96483E+00-3.81392E-13 1.44867E-13
 -1      3347 2.64596E+01-3.54190E+00-1.18401E-01-3.48749E-01-1.53857E-13 3.00194E-13
 -1      3348 2.63120E+01 5.06855E+00-2.17249E-01 6.36926E-01-8.78991E-13-3.75328E-13
 -1      3349 2.64224E+01 5.05198E+00-1.08968E-01-3.26076E-01-9.74151E-13-2.53400E-13
 -1      3350 1.79296E+01-3.80208E+00 9.09226E-02-5.34101E+00 6.13690E-13-1.83707E-13
 -1      3351 2.05020E+01-4.71318E+00-4.14569E-02-4.89315E+00 6.06779E-13-4.16403E-13
 -1      3352 2.06466E+01 1.26093E+00 1.05279E-03-2.53059E-01 5.16412E-13-2.64901E-13
 -1      3353 2.03899E+01 1.62551E+00 7.89573E-04-1.62239E-01 5.50396E-13-3.41827E-13
 -1      3354 2.02625E+01 1.50705E+00 9.12859E-04-4.07725E-01 4.76939E-13-3.71355E-13
 -1      3355 2.06429E+01 1.04688E+00-2.25345E-03-5.31888E-01 4.44272E-13-2.83845E-13
 -1      3356 2.69315E+01-1.25698E+00-1.40086E-01-1.76019E+00 1.54314E-13-6.55795E-13
 -1      3357 2.66023E+01-2.70402E+00-4.55766E-02-4.94998E-01 2.61700E-14-6.53779E-13
 -1      3358 9.37323E+00 1.64953E-01 1.01831E-01 1.11639E+00 1.25837E-13-1.19303E-12
 -1      3359 9.33251E+00 1.80473E-01 4.64413E-02-7.95925E-01-5.03764E-14-1.15243E-12
 -1      3360 2.52852E+01-4.24753E+00-6.49377E-02 1.51771E+00-2.19075E-13-5.89730E-13
 -1      3361 2.35619E+01-4.43208E+00 9.55947E-02 2.99838E+00-4.07152E-13-4.00277E-13
 -1      3362 1.52746E+01-2.26180E+00 9.67624E-02-5.08790E+00-5.23581E-13-8.39807E-13
 -1      3363 1.81252E+01-3.60937E+00-1.60483E-02-5.30606E+00-6.29906E-13-6.70505E-13
 -1      3364 1.25479E+01-1.35117E+00 9.43547E-02-4.36526E+00 2.74412E-13 1.61177E-13
 -1      3365 1.52137E+01-2.72831E+00 5.13941E-02-5.37220E+00 4.82406E-13-7.73964E-14
 -1      3366 1.85351E+01 3.11610E+00-4.02814E-03-2.46468E-02 2.12137E-13-8.28202E-13
 -1      3367 1.85296E+01 3.11912E+00-4.56195E-03-9.49344E-04 1.47825E-13-8.51527E-13
 -1      3368 1.85517E+01 2.87918E+00 8.26326E-03-9.68917E-02 2.12433E-13-7.77056E-13
 -1      3369 1.11384E+01 2.70656E-01 1.26955E-01 1.71074E+00 2.09331E-13-1.04633E-12
 -1      3370 2.58906E+01-3.48404E+00-1.07040E-02 2.68822E-01-1.39075E-13-5.64382E-13
 -1      3371 1.92801E+01 2.58900E+00-5.81375E-03 1.69270E-01-9.08800E-14-8.16354E-13
 -1      3372 1.95497E+01 2.39079E+00-3.04710E-03 1.44092E-01-1.63222E-13-8.28419E-13
 -1      3373 1.69780E+01-3.11047E+00 4.58433E-02 5.19594E+00-6.57141E-13 1.44718E-13
 -1      3374 1.56443E+01-2.32087E+00 5.39039E-02 4.87505E+00-6.30121E-13 2.81386E-13
 -1      3375 1.86217E+01-2.98328E+00 1.79898E-02 4.43770E+00-6.06383E-13 4.71845E-14
 -1      3376 9.35320E+00 2.28275E-01 1.66110E-01 7.31498E-01-2.83056E-13 5.85532E-13
 -1      3377 1.04261E+01 4.19232E-01 4.15011E-02-3.55523E-01 1.34909E-14 3.72091E-13
 -1      3378 1.06417E+01 1.87692E-01 6.86301E-02 1.77700E+00-3.36346E-13 4.54331E-13
 -1      3379 2.00031E+01-1.09851E-03-9.17537E-07-3.94749E-03-4.71612E-15-4.23164E-13
 -1      3380 2.00026E+01-1.07162E-03-1.80587E-06-4.51186E-03 5.19623E-14-3.44046E-13
 -1      3381 2.46706E+01-3.78095E+00-5.72498E-02 1.37996E+00 9.60846E-14 1.48862E-13
 -1      3382 1.73211E+01-2.84038E+00 8.67746E-02-4.80082E+00 5.08614E-13-1.93949E-13
 -1      3383 2.67296E+01-2.08081E+00-5.11712E-02-1.23060E+00-2.38892E-13 3.09627E-13
 -1      3384 2.65502E+01 4.01375E+00-1.17966E-01 1.59072E+00-7.12291E-13-5.31047E-13
 -1      3385 2.66324E+01 2.63758E+00-1.96845E-01 2.47951E+00-4.80838E-13-5.79481E-13
 -1      3386 2.72721E+01 7.06942E-01-7.78124E-02 2.14530E+00-2.62762E-13-6.23709E-13
 -1      3387 2.71071E+01-9.23493E-01-6.63345E-02 1.98794E+00-7.06171E-14-6.57571E-13
 -1      3388 1.19221E+01-5.83898E-01 1.36236E-01-3.58827E+00 2.68185E-13 2.92912E-13
 -1      3389 1.39727E+01-9.72354E-01 4.51222E-02-3.86868E+00 3.45052E-13 4.99253E-14
 -1      3390 1.15356E+01-2.95638E-02 5.27287E-02-2.47525E+00 1.71172E-13 3.26114E-13
 -1      3391 1.45481E+01-1.32059E+00 9.26551E-02-4.41196E+00-3.86118E-13-8.25957E-13
 -1      3392 1.65112E+01-1.56906E+00 3.52053E-02-4.17325E+00-4.32545E-13-6.64101E-13
 -1      3393 1.41362E+01-4.10334E-01 3.11287E-02-3.44392E+00-2.43954E-13-7.94972E-13
 -1      3394 2.47446E+01-3.44334E+00-6.65429E-03 7.47827E-01-1.70826E-13-4.49430E-13
 -1      3395 2.59472E+01 4.79516E+00-1.84421E-01-3.07296E-01 8.97574E-13-9.02629E-14
 -1      3396 2.62401E+01-1.15253E-01-6.00518E-02-2.25149E+00 2.06828E-13-6.72642E-13
 -1      3397 2.20499E+01-4.30873E+00 6.45977E-02-3.77657E+00 5.32553E-13-5.56563E-13
 -1      3398 1.88716E+01 2.87319E+00-6.85426E-03-1.58407E-01 3.42182E-13-7.37515E-13
 -1      3399 1.87912E+01 2.71249E+00 8.18637E-03-2.34857E-01 2.98510E-13-7.15126E-13
 -1      3400 1.90777E+01 2.74117E+00-1.43690E-03-1.53032E-01 4.02911E-13-6.84139E-13
 -1      3401 2.00038E+01-9.25214E-04-5.35853E-06-2.59235E-03-5.16471E-14-2.07119E-13
 -1      3402 2.00035E+01-9.18265E-04-3.46600E-06-3.27689E-03-8.30009E-14-2.50528E-13
 -1      3403 2.00039E+01 3.16117E-04 9.03994E-06-3.53521E-03-9.87606E-14-4.13279E-13
 -1      3404 2.06643E+01 8.59143E-01 4.28069E-03-7.57609E-01 3.82019E-13-2.91244E-13
 -1      3405 2.04691E+01 1.06685E+00-1.34076E-04-7.06706E-01 4.15722E-13-3.26284E-13
 -1      3406 2.06878E+01 6.81881E-01-1.23410E-03-9.67287E-01 3.34648E-13-3.20478E-13
 -1      3407 2.40544E+01-4.02892E+00 2.07516E-02-2.25693E+00-4.22027E-13 2.60330E-14
 -1      3408 2.00042E+01-7.76269E-04-5.81674E-06-1.11895E-03 7.75335E-14-4.56523E-13
 -1      3409 2.00040E+01-7.80683E-04-3.37092E-06-1.86015E-03 8.28283E-14-4.32925E-13
 -1      3410 2.00046E+01 6.82131E-04 1.96314E-05-2.16015E-03-6.77355E-14-2.14155E-13
 -1      3411 2.00049E+01 8.96944E-04 2.37409E-05-7.18519E-04 8.58417E-14-3.48949E-13
 -1      3412 2.06368E+01-9.70237E-02-1.23872E-02-1.67527E+00 7.04339E-14-3.14165E-13
 -1      3413 1.96754E+01-4.10769E+00 6.45479E-02 5.09771E+00 4.46518E-13-3.01509E-13
 -1      3414 1.84260E+01-3.30640E+00 6.35363E-02 4.93225E+00 5.10508E-13-4.14190E-13
 -1      3415 2.09909E+01-4.35530E+00-3.42787E-02 4.45851E+00 4.12899E-13-1.29306E-13
 -1      3416 2.07626E+01 3.71413E-01 5.02304E-04-1.27429E+00 2.21311E-13-2.97987E-13
 -1      3417 2.06919E+01 5.52409E-01 5.26920E-03-1.12889E+00 2.74342E-13-3.14548E-13
 -1      3418 2.04706E+01 7.09424E-01-2.53399E-03-1.10989E+00 2.87949E-13-3.27136E-13
 -1      3419 2.04839E+01 3.69950E-01-6.22018E-03-1.42259E+00 1.90860E-13-3.21322E-13
 -1      3420 1.98884E+01-3.42087E+00 5.30128E-02-4.39018E+00-5.53613E-13-4.58753E-13
 -1      3421 2.22682E+01-3.95878E+00 3.56207E-02 3.21145E+00-4.11594E-13-2.06054E-13
 -1      3422 1.90411E+01 2.77051E+00-2.54535E-03 1.41876E-01-4.59520E-14-8.36952E-13
 -1      3423 1.91717E+01 2.44405E+00 5.61904E-03 3.12230E-01-6.08333E-14-7.84973E-13
 -1      3424 1.88415E+01 2.90297E+00-5.78931E-03 1.44417E-01 2.14096E-14-8.37306E-13
 -1      3425 2.03301E+01 1.28064E+00-6.48463E-04 6.17776E-01-2.68743E-13-5.86092E-13
 -1      3426 2.00462E+01 1.38530E+00-1.13376E-03 7.37019E-01-1.96293E-13-5.67069E-13
 -1      3427 2.03148E+01 1.48973E+00 9.67199E-05 3.76820E-01-3.02141E-13-6.32006E-13
 -1      3428 2.61088E+01-2.65084E+00-1.92968E-02 4.92963E-01-8.85787E-14 2.95087E-13
 -1      3429 2.56656E+01-3.75700E+00 2.00799E-03-8.54425E-01 2.96756E-13-7.13010E-13
 -1      3430 1.14943E+01 3.65660E-01 1.19486E-01-1.48925E+00-1.02585E-13-9.95939E-13
 -1      3431 2.01314E+01 1.96731E+00-9.95888E-04 8.25260E-02-3.02339E-13-7.54829E-13
 -1      3432 2.46900E+01-4.57915E+00 3.48873E-02 2.58341E+00 1.80002E-13 3.74839E-14
 -1      3433 1.95925E+01 2.35422E+00-1.93637E-03-1.45830E-01 4.97478E-13-5.57079E-13
 -1      3434 1.93201E+01 2.54910E+00-6.72687E-03-1.74064E-01 4.35846E-13-6.15237E-13
 -1      3435 1.92091E+01 2.40442E+00 4.73011E-03-3.20369E-01 3.86119E-13-6.08246E-13
 -1      3436 1.97598E+01 1.98800E+00 4.12243E-03-3.46413E-01 4.50195E-13-4.92632E-13
 -1      3437 2.00019E+01-7.75709E-04-7.20379E-06 5.16642E-03-5.27801E-14 8.67337E-13
 -1      3438 2.00023E+01-1.05314E-03-1.14999E-05 4.87208E-03-2.59254E-14 7.79164E-13
 -1      3439 2.00031E+01 1.62555E-04 2.15259E-05 4.48740E-03-5.38565E-14 5.79078E-13
 -1      3440 2.00023E+01 2.15378E-04 3.50902E-05 5.07244E-03-1.39883E-13 7.68772E-13
 -1      3441 1.58268E+01-2.04368E+00 1.26437E-02 4.69702E+00 5.21153E-13-6.42077E-13
 -1      3442 1.38085E+01-1.45000E+00 1.38480E-01 4.63997E+00 4.65003E-13-8.84751E-13
 -1      3443 1.34641E+01-7.04709E-01 7.87411E-02 3.78720E+00 3.78260E-13-8.91121E-13
 -1      3444 2.69471E+01 4.14103E+00-1.21616E-01 1.60421E+00 8.08811E-13 2.93598E-13
 -1      3445 2.32600E+01-3.96316E+00 5.06097E-02 2.79405E+00 2.80334E-13-3.36536E-16
 -1      3446 1.96574E+01 3.05599E-01 2.57397E-03 1.87552E+00 2.00296E-14-4.53996E-13
 -1      3447 1.97908E+01-1.12783E-02 1.12737E-02 2.04435E+00 6.87006E-14-4.41146E-13
 -1      3448 1.98482E+01-3.85019E-01 8.51272E-03 2.28511E+00 1.10402E-13-3.86976E-13
 -1      3449 2.01348E+01-8.28748E-01 1.41718E-02 2.41901E+00 1.67616E-13-3.60535E-13
 -1      3450 1.91850E+01-5.87282E-02-1.24166E-02 2.27703E+00 1.22068E-13-4.45967E-13
 -1      3451 2.03988E+01-1.32806E+00 2.60201E-02 2.64557E+00 2.22159E-13-2.88994E-13
 -1      3452 2.09089E+01-1.91602E+00 2.00592E-02 2.69331E+00 2.57810E-13-2.61925E-13
 -1      3453 1.94283E+01-1.01288E+00-2.85689E-02 2.82158E+00 2.23883E-13-3.67469E-13
 -1      3454 1.67213E+01-2.09060E+00 4.60271E-02-4.40606E+00 4.01661E-13-3.09544E-13
 -1      3455 1.89889E+01-3.23663E+00-5.04778E-03-4.47464E+00 5.19480E-13-3.70072E-13
 -1      3456 2.16988E+01-2.60022E+00 1.70541E-02-2.40260E+00 2.65394E-13-4.20737E-13
 -1      3457 2.10227E+01-1.99581E+00 3.62639E-02-2.49950E+00 2.69717E-13-3.47996E-13
 -1      3458 2.05409E+01-1.45129E+00 1.67412E-02-2.34830E+00 2.12548E-13-4.04288E-13
 -1      3459 2.01199E+01-9.71691E-01 1.66041E-02-2.30043E+00 2.04665E-13-4.61989E-13
 -1      3460 1.98413E+01-1.72315E+00-2.45651E-02-2.86982E+00 2.10469E-13-3.47034E-13
 -1      3461 1.99233E+01-5.78157E-01 1.31644E-02-2.10805E+00 2.49409E-13-4.89499E-13
 -1      3462 1.96860E+01-2.55043E-01 4.84817E-03-2.00711E+00 1.23512E-13-3.98716E-13
 -1      3463 1.92727E+01-7.09291E-01-1.84598E-02-2.43206E+00 2.26045E-13-5.01209E-13
 -1      3464 1.96441E+01 8.10472E-04 9.59280E-03-1.82472E+00-4.64569E-14-2.85491E-13
 -1      3465 1.95268E+01 1.95356E-01 1.25845E-04-1.71037E+00-1.24378E-13-2.79258E-13
 -1      3466 1.90846E+01-2.74253E-02-8.90496E-03-2.00803E+00 1.09612E-13-3.64886E-13
 -1      3467 1.95584E+01 3.43008E-01 6.31164E-03-1.55417E+00-1.85365E-13-2.14964E-13
 -1      3468 1.95113E+01 4.45683E-01-1.78598E-03-1.44130E+00-8.00497E-14-2.04704E-13
 -1      3469 1.90966E+01 3.73066E-01-3.08976E-03-1.65174E+00-1.09641E-13-9.74127E-14
 -1      3470 1.95736E+01 5.17473E-01 4.10873E-03-1.30942E+00-1.16560E-13-1.99363E-13
 -1      3471 1.95630E+01 5.58608E-01-2.48257E-03-1.20359E+00-1.12297E-13-2.11983E-13
 -1      3472 1.91979E+01 5.80544E-01-1.11226E-04-1.35923E+00-1.41889E-13-7.87464E-14
 -1      3473 1.96335E+01 5.80853E-01 2.74911E-03-1.09182E+00-2.01121E-14-2.85429E-13
 -1      3474 1.96394E+01 5.83457E-01-2.62408E-03-9.95183E-01 2.22701E-14-3.77077E-13
 -1      3475 1.93310E+01 6.60748E-01 1.27258E-03-1.11717E+00-1.35397E-13 2.70981E-14
 -1      3476 1.97067E+01 5.75653E-01 1.95510E-03-8.99905E-01 3.79301E-15-4.27155E-13
 -1      3477 1.97182E+01 5.55966E-01-2.51440E-03-8.13390E-01-2.75753E-14-3.39254E-13
 -1      3478 1.94656E+01 6.61471E-01 1.74769E-03-9.14017E-01-2.43895E-14-2.79453E-13
 -1      3479 1.97774E+01 5.31554E-01 1.50226E-03-7.32110E-01-1.13934E-13-2.44382E-13
 -1      3480 1.97891E+01 5.00473E-01-2.28779E-03-6.56133E-01-3.60563E-14-2.42750E-13
 -1      3481 1.95874E+01 6.16196E-01 1.77625E-03-7.41752E-01 9.50269E-16-2.05510E-13
 -1      3482 1.98386E+01 4.68323E-01 1.23508E-03-5.87202E-01 4.38625E-14-4.24827E-13
 -1      3483 1.98483E+01 4.32887E-01-2.00575E-03-5.21777E-01 1.67318E-13-3.55751E-13
 -1      3484 1.96909E+01 5.47280E-01 1.59627E-03-5.95441E-01-2.37076E-14-2.98489E-13
 -1      3485 1.98881E+01 3.98615E-01 1.05847E-03-4.63959E-01 2.27738E-13-4.92660E-13
 -1      3486 1.98952E+01 3.63194E-01-1.70488E-03-4.08710E-01 1.82946E-13-3.62028E-13
 -1      3487 1.97750E+01 4.69323E-01 1.34680E-03-4.71920E-01 1.91139E-13-4.47773E-13
 -1      3488 1.99263E+01 3.30179E-01 9.20892E-04-3.60859E-01 1.40605E-13-3.90500E-13
 -1      3489 1.99310E+01 2.97285E-01-1.41283E-03-3.15062E-01 1.57418E-13-3.59410E-13
 -1      3490 1.98410E+01 3.91479E-01 1.08617E-03-3.68772E-01 1.85118E-13-3.35512E-13
 -1      3491 1.99546E+01 2.67347E-01 7.99630E-04-2.76016E-01 2.53191E-13-3.08257E-13
 -1      3492 1.99572E+01 2.38212E-01-1.14952E-03-2.38724E-01 2.67295E-13-2.15730E-13
 -1      3493 1.98915E+01 3.19096E-01 8.42092E-04-2.83743E-01 2.39998E-13-2.00311E-13
 -1      3494 1.99748E+01 2.12141E-01 6.86265E-04-2.07345E-01 2.38401E-13-1.36106E-13
 -1      3495 1.99759E+01 1.87200E-01-9.19544E-04-1.77507E-01 1.60438E-13-2.71718E-14
 -1      3496 1.99290E+01 2.54861E-01 6.33557E-04-2.14634E-01 2.82750E-13-3.61672E-13
 -1      3497 1.99887E+01 1.65184E-01 5.78845E-04-1.52695E-01-1.14047E-14 1.55788E-14
 -1      3498 1.99888E+01 1.44405E-01-7.22245E-04-1.29234E-01 8.04698E-14-3.97535E-14
 -1      3499 1.99563E+01 1.99740E-01 4.64495E-04-1.59336E-01 1.23513E-13-1.02199E-13
 -1      3500 1.99979E+01 1.26277E-01 4.79195E-04-1.09938E-01 1.19513E-13 1.26589E-14
 -1      3501 1.99973E+01 1.09362E-01-5.56861E-04-9.18074E-02 6.56761E-14 1.08286E-14
 -1      3502 1.99756E+01 1.53701E-01 3.30735E-04-1.15809E-01 8.70889E-14-8.45029E-14
 -1      3503 2.00035E+01 9.47584E-02 3.89545E-04-7.70522E-02-3.35086E-14 3.12404E-15
 -1      3504 2.00025E+01 8.12688E-02-4.21422E-04-6.32837E-02-1.09165E-13-2.52768E-14
 -1      3505 1.99887E+01 1.16129E-01 2.28094E-04-8.21084E-02-2.96987E-14-5.35473E-14
 -1      3506 2.00066E+01 6.97336E-02 3.10979E-04-5.21973E-02-7.45478E-14-1.84666E-14
 -1      3507 2.00055E+01 5.91783E-02-3.12815E-04-4.19315E-02-9.91545E-17 7.82374E-15
 -1      3508 1.99973E+01 8.60912E-02 1.51483E-04-5.64551E-02-9.26057E-14 3.21066E-14
 -1      3509 2.00080E+01 5.02347E-02 2.43760E-04-3.37574E-02 9.19343E-15 5.58110E-14
 -1      3510 2.00068E+01 4.21244E-02-2.27419E-04-2.62537E-02-2.41726E-14 5.71612E-15
 -1      3511 2.00025E+01 6.25287E-02 9.57706E-05-3.72735E-02 2.23795E-15-3.51097E-14
 -1      3512 2.00082E+01 3.53133E-02 1.87541E-04-2.03520E-02-2.87633E-14 8.54182E-14
 -1      3513 2.00071E+01 2.91906E-02-1.61549E-04-1.49889E-02 3.94494E-14 5.67253E-14
 -1      3514 2.00054E+01 4.43769E-02 5.63681E-05-2.32064E-02 5.76197E-15 5.48997E-14
 -1      3515 2.00077E+01 2.40924E-02 1.41541E-04-1.08304E-02 1.28633E-13 2.08818E-13
 -1      3516 2.00067E+01 1.95463E-02-1.11895E-04-7.09922E-03 7.36535E-14 2.48772E-13
 -1      3517 2.00067E+01 3.06362E-02 2.94171E-05-1.31136E-02 9.57388E-14 3.22714E-13
 -1      3518 2.00068E+01 1.57887E-02 1.04797E-04-4.25696E-03 2.78018E-14 3.91692E-13
 -1      3519 2.00059E+01 1.24604E-02-7.53498E-05-1.75182E-03 1.65908E-14 4.01814E-13
 -1      3520 2.00069E+01 2.04027E-02 1.13883E-05-6.05808E-03 7.70787E-14 3.91213E-13
 -1      3521 2.00057E+01 9.72311E-03 7.59755E-05 1.10414E-04 8.26521E-14 3.72018E-13
 -1      3522 2.00049E+01 7.30865E-03-4.71419E-05 1.70531E-03 1.39416E-13 4.63912E-13
 -1      3523 2.00064E+01 1.28873E-02 3.69127E-07-1.29123E-03 1.23514E-13 3.52424E-13
 -1      3524 2.00045E+01 5.28571E-03 4.70903E-05 2.85978E-03 1.42657E-13 7.79268E-13
 -1      3525 2.00038E+01 3.54136E-03-1.88756E-05 3.75781E-03 2.78571E-13 9.79397E-13
 -1      3526 2.00054E+01 7.41819E-03-4.94743E-06 1.78369E-03 3.29509E-13 5.51989E-13
 -1      3527 2.67685E+01 5.07720E-01-7.25366E-02 2.14949E+00 3.64604E-13 4.50126E-13
 -1      3528 2.39731E+01-3.30276E+00 4.15580E-02 1.28790E+00-2.30088E-13-3.99234E-13
 -1      3529 1.97375E+01 1.93082E+00 3.83518E-03 4.29363E-01-1.66720E-13-7.19534E-13
 -1      3530 1.98649E+01 2.06650E+00-1.27717E-03 2.24896E-01-2.20176E-13-7.41327E-13
 -1      3531 2.09065E+01-1.26496E+00 2.21109E-02 2.02534E+00-1.54323E-13-1.35353E-13
 -1      3532 2.13625E+01-1.73574E+00 6.91713E-03 1.96296E+00-1.09760E-13-1.83329E-13
 -1      3533 2.02794E+01-5.19348E-01 9.66209E-03 1.89651E+00-1.46822E-13-1.03812E-13
 -1      3534 2.05715E+01-8.64801E-01 9.26893E-03 1.92760E+00-1.22184E-13-1.12170E-13
 -1      3535 2.00620E+01-1.08469E+00-2.44748E-02 2.28510E+00-1.78970E-13-5.49070E-14
 -1      3536 1.99638E+01-1.66453E-02 3.52394E-03 1.68893E+00-1.17986E-13-1.64364E-13
 -1      3537 2.01342E+01-2.39973E-01 8.18468E-03 1.76277E+00-1.25862E-13-1.04217E-13
 -1      3538 1.96481E+01-3.30726E-01-1.26780E-02 1.99050E+00-1.16057E-13-1.97029E-13
 -1      3539 1.98304E+01 2.85482E-01 3.03916E-04 1.46410E+00-2.17995E-13-2.10688E-13
 -1      3540 1.99225E+01 1.57028E-01 6.12303E-03 1.55513E+00-1.68047E-13-1.55240E-13
 -1      3541 1.94938E+01 1.45144E-01-6.07591E-03 1.69470E+00-1.08646E-13-2.47105E-13
 -1      3542 1.97963E+01 4.41066E-01-1.32407E-03 1.24543E+00-4.71061E-14-1.98660E-13
 -1      3543 1.98428E+01 3.79686E-01 4.38215E-03 1.34067E+00-1.29914E-13-1.66547E-13
 -1      3544 1.94788E+01 4.16381E-01-2.33409E-03 1.42541E+00-2.23372E-13-3.80610E-13
 -1      3545 1.98107E+01 4.98342E-01-2.00818E-03 1.04261E+00-9.05716E-14-3.70649E-14
 -1      3546 1.98327E+01 4.80793E-01 3.18239E-03 1.13510E+00-1.77096E-14-2.30690E-14
 -1      3547 1.95316E+01 5.45002E-01-2.68184E-04 1.18819E+00-1.24795E-13-1.29999E-13
 -1      3548 1.98444E+01 4.94655E-01-2.20312E-03 8.59571E-01-2.21104E-13-2.49421E-14
 -1      3549 1.98545E+01 5.03572E-01 2.42256E-03 9.45465E-01-1.29919E-13-1.61140E-14
 -1      3550 1.96103E+01 5.80513E-01 7.09462E-04 9.81281E-01-1.19407E-13 1.61368E-13
 -1      3551 1.98822E+01 4.56468E-01-2.14024E-03 6.97813E-01-1.40175E-13-9.69906E-15
 -1      3552 1.98871E+01 4.79831E-01 1.94852E-03 7.75005E-01-1.67712E-13-2.09881E-14
 -1      3553 1.96925E+01 5.59743E-01 1.06500E-03 8.01624E-01-2.16449E-13-5.81929E-15
 -1      3554 1.99166E+01 4.01445E-01-1.94672E-03 5.57622E-01 1.60988E-13-1.49341E-13
 -1      3555 1.99198E+01 4.31352E-01 1.63677E-03 6.25126E-01 4.19581E-14 1.58710E-14
 -1      3556 1.97673E+01 5.08093E-01 1.10849E-03 6.46685E-01-2.62194E-15-7.04193E-14
 -1      3557 1.99450E+01 3.40816E-01-1.69708E-03 4.38438E-01-1.00686E-13-1.14482E-13
 -1      3558 1.99479E+01 3.72314E-01 1.40778E-03 4.96058E-01 5.61358E-14-5.50203E-14
 -1      3559 1.98305E+01 4.42269E-01 9.92747E-04 5.14481E-01 5.33807E-14-2.69980E-14
 -1      3560 1.99669E+01 2.81379E-01-1.43109E-03 3.39032E-01-1.50007E-13-6.10633E-14
 -1      3561 1.99699E+01 3.11516E-01 1.21794E-03 3.87141E-01-8.79553E-14-2.05401E-14
 -1      3562 1.98812E+01 3.72892E-01 8.22679E-04 4.03220E-01-9.03968E-14 2.17196E-13
 -1      3563 1.99828E+01 2.26951E-01-1.17578E-03 2.57628E-01-1.79214E-13-1.83829E-13
 -1      3564 1.99860E+01 2.54127E-01 1.04500E-03 2.97000E-01-1.72306E-13-1.59648E-13
 -1      3565 1.99203E+01 3.06359E-01 6.44753E-04 3.11053E-01-9.04597E-14-1.00761E-13
 -1      3566 1.99938E+01 1.79306E-01-9.45310E-04 1.92113E-01-1.60374E-13-1.83795E-13
 -1      3567 1.99971E+01 2.02845E-01 8.85289E-04 2.23740E-01-1.69586E-13-1.55706E-13
 -1      3568 1.99494E+01 2.46187E-01 4.81917E-04 2.35904E-01-1.81453E-13-2.29529E-13
 -1      3569 2.00010E+01 1.38948E-01-7.44939E-04 1.40285E-01-2.40454E-13-1.94495E-13
 -1      3570 2.00042E+01 1.58726E-01 7.38766E-04 1.65236E-01-2.11132E-13-1.94638E-13
 -1      3571 1.99705E+01 1.93923E-01 3.47872E-04 1.75598E-01-2.35685E-13-1.80070E-13
 -1      3572 2.00053E+01 1.05657E-01-5.75587E-04 9.99879E-02-2.02877E-14-2.02938E-13
 -1      3573 2.00083E+01 1.21862E-01 6.05715E-04 1.19326E-01-1.38512E-13-2.06353E-13
 -1      3574 1.99852E+01 1.49881E-01 2.41510E-04 1.27998E-01-1.81729E-13-2.60699E-13
 -1      3575 2.00076E+01 7.88115E-02-4.36017E-04 6.91990E-02-3.36508E-14-8.88461E-14
 -1      3576 2.00102E+01 9.18015E-02 4.87848E-04 8.39212E-02 2.97943E-14-9.67941E-14
 -1      3577 1.99950E+01 1.13690E-01 1.60130E-04 9.10532E-02-6.91138E-14-9.44689E-14
 -1      3578 2.00084E+01 5.76019E-02-3.23609E-04 4.60957E-02-1.08491E-13 5.91735E-14
 -1      3579 2.00108E+01 6.78093E-02 3.85997E-04 5.70985E-02-4.76113E-14-2.21901E-14
 -1      3580 2.00012E+01 8.45974E-02 1.00068E-04 6.28660E-02-7.29250E-14 5.88857E-14
 -1      3581 2.00084E+01 4.11621E-02-2.35006E-04 2.90906E-02-1.64908E-13 1.92487E-13
 -1      3582 2.00103E+01 4.90332E-02 2.99959E-04 3.71522E-02-7.60884E-14 1.60835E-13
 -1      3583 2.00048E+01 6.16721E-02 5.72535E-05 4.17417E-02-1.49111E-13 1.89072E-13
 -1      3584 2.00077E+01 2.86510E-02-1.66614E-04 1.68395E-02-3.33990E-14-2.20155E-14
 -1      3585 2.00094E+01 3.46109E-02 2.28797E-04 2.26163E-02-6.52925E-14 7.74002E-14
 -1      3586 2.00066E+01 4.39427E-02 2.78462E-05 2.62125E-02-9.55396E-14 1.28555E-13
 -1      3587 2.00068E+01 1.92963E-02-1.14890E-04 8.23223E-03 1.12264E-13-8.99628E-14
 -1      3588 2.00081E+01 2.37310E-02 1.71102E-04 1.22638E-02 7.13985E-14-7.09361E-14
 -1      3589 2.00072E+01 3.04770E-02 8.61815E-06 1.50406E-02 1.15077E-13-5.84021E-15
 -1      3590 2.00057E+01 1.24121E-02-7.69214E-05 2.37165E-03 1.10488E-13-3.56655E-13
 -1      3591 2.00067E+01 1.56623E-02 1.25404E-04 5.09180E-03 1.46814E-13-2.98504E-13
 -1      3592 2.00069E+01 2.04240E-02-3.40280E-06 7.20591E-03 2.70139E-13-2.86740E-13
 -1      3593 2.00045E+01 7.39865E-03-4.89364E-05-1.44587E-03 7.23757E-14-5.66514E-13
 -1      3594 2.00054E+01 9.75938E-03 9.03964E-05 2.98390E-04 6.69647E-14-4.86540E-13
 -1      3595 2.00062E+01 1.30241E-02-1.22056E-05 1.88266E-03 1.91841E-13-6.22820E-13
 -1      3596 2.00034E+01 3.72729E-03-2.95925E-05-3.74574E-03 2.09485E-13-5.83652E-13
 -1      3597 2.00041E+01 5.44793E-03 6.04224E-05-2.73740E-03 9.60788E-14-6.35961E-13
 -1      3598 2.00052E+01 7.62258E-03-1.63474E-05-1.57712E-03 7.44332E-14-6.76962E-13
 -1      3599 2.00024E+01 1.03170E-03-1.06421E-05-4.95741E-03 1.36481E-13-5.25061E-13
 -1      3600 2.00029E+01 2.31401E-03 3.99984E-05-4.45582E-03 2.01399E-13-5.00723E-13
 -1      3601 2.00041E+01 3.72655E-03-6.10148E-06-3.61417E-03 1.94958E-13-7.28116E-13
 -1      3602 2.55287E+01-3.15932E+00 7.45678E-02-2.46093E-01-1.76624E-13 2.14176E-13
 -1      3603 1.22382E+01 1.86479E-01 4.42620E-02 2.40639E+00 2.64341E-13-9.28452E-13
 -1      3604 1.16114E+01 6.04719E-01 1.88768E-02 9.78556E-01 1.33862E-13-9.51822E-13
 -1      3605 2.03152E+01-8.64208E-02 7.20284E-03-1.83426E+00 3.79898E-14-3.38833E-13
 -1      3606 2.01653E+01 2.09780E-01 5.72595E-03-1.71245E+00 9.42925E-14-3.35481E-13
 -1      3607 2.00021E+01-1.36275E-03 3.40872E-06-4.92815E-03 5.94298E-14-5.78603E-13
 -1      3608 2.00015E+01-1.32907E-03 1.94197E-06-5.26099E-03-2.24287E-14-5.90517E-13
 -1      3609 2.00017E+01-7.55979E-04-4.52138E-06-5.32877E-03-3.10368E-14-4.58620E-13
 -1      3610 2.00029E+01-2.35432E-04-6.49438E-06-4.61988E-03 1.10674E-13-4.45569E-13
 -1      3611 2.10791E+01-3.74816E+00 6.96059E-02-3.85772E+00 5.80484E-13-4.72846E-13
 -1      3612 2.28501E+01-4.27891E+00-8.06765E-02-2.96292E+00 4.50567E-13-6.61634E-13
 -1      3613 2.07356E+01-8.22679E-01 9.38323E-03-2.05692E+00-1.16833E-13-2.93816E-13
 -1      3614 2.04553E+01-4.30309E-01 1.13720E-02-2.00488E+00-3.80641E-14-3.27065E-13
 -1      3615 1.98586E+01-1.76907E-01-1.46655E-02-2.07326E+00-1.11171E-14-3.35074E-13
 -1      3616 2.00054E+01 2.61820E-03-1.01670E-05 9.81001E-04-2.27894E-15-6.75062E-14
 -1      3617 2.00055E+01 2.66829E-03-1.62828E-05 3.15577E-04 6.14477E-14-2.83549E-13
 -1      3618 2.30189E+01-3.82661E+00 8.57885E-02-2.91114E+00-4.37657E-13-6.98643E-14
 -1      3619 2.43314E+01-3.88130E+00-8.23965E-02-1.59495E+00-3.06876E-13 1.05006E-13
 -1      3620 2.43944E+01-3.36581E+00-1.73059E-02-1.05518E+00-2.42374E-13 7.61856E-14
 -1      3621 1.89668E+01-2.60396E+00 4.12132E-02-4.22221E+00-4.91788E-13-5.34760E-13
 -1      3622 2.10563E+01-3.52130E+00-5.99762E-02-3.74185E+00-4.74072E-13-2.85147E-13
 -1      3623 2.15792E+01-1.74093E+00 2.07298E-02-2.08930E+00-1.93965E-13-2.16902E-13
 -1      3624 2.10708E+01-1.27061E+00 2.26381E-02-2.17443E+00-1.83095E-13-2.65918E-13
 -1      3625 2.02765E+01-1.03919E+00-1.70276E-02-2.43439E+00-1.48686E-13-3.71468E-13
 -1      3626 2.19960E+01-2.20294E+00 4.40230E-02 1.93459E+00-1.64795E-13-2.46917E-13
 -1      3627 2.26068E+01-2.73974E+00-3.04273E-03 1.71893E+00-2.02966E-13-3.11544E-13
 -1      3628 2.09175E+01-2.12900E+00-3.87728E-02 2.46456E+00-2.22400E-13-1.14038E-13
 -1      3629 2.27596E+01-3.46384E+00-4.49783E-02 2.24262E+00-2.60046E-13-2.71623E-13
 -1      3630 2.46152E+01-3.91520E+00 7.47375E-02-1.61561E+00 3.77884E-13-6.59781E-13
 -1      3631 1.97164E+01 1.26323E+00-2.35342E-04 1.02572E+00-9.67948E-14-5.74694E-13
 -1      3632 1.97127E+01 1.04961E+00 2.83761E-03 1.24067E+00-6.56166E-14-5.61717E-13
 -1      3633 1.85816E+01 3.08272E+00-5.22420E-03 7.16166E-02 1.05567E-13-8.74612E-13
 -1      3634 1.86855E+01 3.01724E+00-3.33044E-03 8.79820E-02 4.18677E-14-8.61060E-13
 -1      3635 1.87557E+01 2.73866E+00 6.67385E-03 2.12900E-01 2.37084E-14-8.27157E-13
 -1      3636 1.39482E+01-1.49744E+00 8.55275E-02 4.56255E+00-5.91339E-13 4.28151E-13
 -1      3637 1.23196E+01-6.71959E-01 4.96801E-02 3.57073E+00-5.45584E-13 4.47489E-13
 -1      3638 1.60436E+01-1.69573E+00 7.49116E-02 4.24565E+00-5.33087E-13 2.42684E-13
 -1      3639 1.96504E+01 8.23481E-01 6.04212E-04 1.45831E+00-6.14610E-14-5.28400E-13
 -1      3640 1.96907E+01 5.82062E-01 6.53799E-03 1.64967E+00-2.36818E-14-5.02953E-13
 -1      3641 1.91978E+01 6.05798E-01-4.54802E-03 1.78243E+00 1.64319E-14-5.09413E-13
 -1      3642 1.19896E+01 8.48231E-01 8.56488E-02-4.50679E-01 7.76722E-16-9.26516E-13
 -1      3643 1.27271E+01 4.26149E-01 1.33545E-02-1.99951E+00-1.37803E-13-8.68285E-13
 -1      3644 2.02621E+01 1.26919E+00 6.57161E-04-6.49648E-01 4.22564E-13-3.56498E-13
 -1      3645 2.00537E+01 1.50184E+00 1.02174E-03-5.90791E-01 4.25906E-13-4.01485E-13
 -1      3646 2.02690E+01 1.05733E+00-7.61548E-04-8.82968E-01 3.65437E-13-3.46361E-13
 -1      3647 2.08953E+01-3.02456E+00 6.04633E-02 3.37163E+00-4.25557E-13-2.11576E-14
 -1      3648 2.35715E+01-3.62894E+00 2.04315E-02-1.90929E+00 3.86302E-13-5.60137E-13
 -1      3649 1.93097E+01 1.11354E+00-2.32549E-03 1.32963E+00-4.54291E-14-5.87553E-13
 -1      3650 1.21296E+01 5.47107E-02 1.08615E-01 2.64653E+00-3.78175E-13 3.69198E-13
 -1      3651 1.22106E+01 4.56358E-01 1.21782E-02 1.57399E+00-1.38533E-13 3.14145E-13
 -1      3652 1.38714E+01-2.32626E-01 4.77039E-02 3.06777E+00-3.08420E-13 3.02883E-13
 -1      3653 1.41877E+01 7.30488E-01 2.64051E-03-1.67868E+00-5.99789E-14-7.73666E-13
 -1      3654 1.40154E+01 3.02847E-01 7.60874E-02-2.57628E+00-1.69646E-13-8.07496E-13
 -1      3655 1.53777E+01-5.83491E-02 3.81781E-03-2.88322E+00-2.10837E-13-6.83611E-13
 -1      3656 1.14751E+01 5.42837E-01 1.37037E-01-1.49818E+00 7.03413E-14 3.87454E-13
 -1      3657 1.27788E+01 1.77249E-01 1.61405E-02-2.31196E+00 2.04200E-13 1.81178E-13
 -1      3658 1.17338E+01 6.23409E-01 2.45425E-02-4.55748E-01-3.05832E-15 2.93668E-13
 -1      3659 2.03424E+01-3.06178E+00 4.88203E-02-3.66695E+00 5.08947E-13-4.93623E-13
 -1      3660 1.56880E+01-1.38404E+00 7.03150E-02-4.16758E+00 3.76831E-13-2.36741E-13
 -1      3661 1.73768E+01-1.72571E+00 4.61682E-02-3.90966E+00 4.03766E-13-4.05578E-13
 -1      3662 1.47114E+01-7.36884E-01 1.76423E-02-3.54282E+00 3.54560E-13-5.27946E-14
 -1      3663 2.15597E+01-2.57525E+00 5.33296E-02 2.84655E+00 2.84920E-13-1.98147E-13
 -1      3664 2.24177E+01-3.20418E+00 3.58892E-02 2.63411E+00 2.76043E-13-1.19671E-13
 -1      3665 1.85385E+01 2.88855E+00 7.72389E-03 6.54161E-02 1.19293E-13-8.16449E-13
 -1      3666 1.49495E+01-5.70063E-01 9.53702E-03 3.51088E+00 3.84658E-13-7.37257E-13
 -1      3667 1.34593E+01-6.41091E-02 7.69716E-02 3.04190E+00 3.16892E-13-8.56731E-13
 -1      3668 1.39660E+01 3.39081E-01 5.33473E-02 2.38594E+00 2.29546E-13-8.24854E-13
 -1      3669 2.26138E+01-3.15946E+00 5.90575E-02-2.32341E+00 3.32641E-13-6.04544E-13
 -1      3670 2.14899E+01-2.34683E+00 9.26743E-03-2.56414E+00-2.73625E-13-2.26693E-13
 -1      3671 2.05245E+01-2.11923E+00-6.06966E-03-3.05030E+00-3.20392E-13-3.51480E-13
 -1      3672 2.00033E+01 2.34664E-03 3.31250E-05 4.32369E-03 7.27045E-14 9.42937E-13
 -1      3673 2.00028E+01 1.16965E-03-6.71438E-06 4.73488E-03-1.06916E-13 7.88001E-13
 -1      3674 2.00032E+01 1.16939E-03-2.45589E-05 4.48475E-03-1.23776E-13 8.37711E-13
 -1      3675 2.00044E+01 3.68149E-03-1.58361E-05 3.49206E-03 9.66037E-14 7.74583E-13
 -1      3676 2.19748E+01-3.22238E+00 3.92354E-02-2.97327E+00-4.04378E-13-2.04690E-13
 -1      3677 2.00035E+01 1.06671E-03 1.64383E-06-4.25386E-03 7.32196E-14-5.98852E-13
 -1      3678 2.00029E+01 7.29995E-04-8.25060E-06-4.70835E-03 1.02446E-13-5.94405E-13
 -1      3679 1.93937E+01 2.01813E+00-2.89939E-04 5.35953E-01-9.69125E-14-7.19417E-13
 -1      3680 1.97061E+01 1.69232E+00-2.30205E-03 6.27070E-01-1.46563E-13-6.67553E-13
 -1      3681 1.97090E+01 1.48467E+00 1.56661E-03 8.40864E-01-1.22817E-13-6.25115E-13
 -1      3682 2.00061E+01 4.69121E-03 4.83548E-05-1.80268E-05 1.16887E-13-3.65886E-13
 -1      3683 2.00055E+01 2.68150E-03-1.27409E-05-3.10109E-04 1.13789E-13-2.46922E-13
 -1      3684 2.00054E+01 2.61561E-03-1.39667E-05-9.82340E-04 3.81316E-14-4.23011E-13
 -1      3685 2.00019E+01-1.08994E-04 1.79713E-05-5.25850E-03 7.35435E-14-5.23894E-13
 -1      3686 1.91026E+01 2.20344E+00-3.17200E-03 4.67025E-01-5.64369E-14-7.39809E-13
 -1      3687 1.90839E+01 1.98711E+00 4.97276E-03 6.51286E-01-5.09332E-14-6.95693E-13
 -1      3688 1.88586E+01 2.37750E+00-1.95170E-03 4.20570E-01-8.66006E-16-7.55889E-13
 -1      3689 2.10820E+01-3.05085E+00-3.84029E-02-3.11225E+00 3.77092E-13-4.06543E-13
 -1      3690 1.97314E+01 4.70809E-01-5.59567E-03-1.67515E+00 1.23959E-13-3.39928E-13
 -1      3691 2.01317E+01 4.69991E-01 4.43986E-03-1.52197E+00 1.45707E-13-3.52197E-13
 -1      3692 2.00053E+01 2.39037E-03-1.63815E-05 1.62534E-03-3.53861E-14-1.88963E-14
 -1      3693 2.00060E+01 4.44776E-03 4.82448E-05 1.17320E-03 8.74119E-14-5.02364E-14
 -1      3694 2.00050E+01 2.26499E-03-7.57474E-06 2.28245E-03-3.08814E-14-1.63879E-13
 -1      3695 2.35262E+01-3.13139E+00 1.14750E-02-1.58751E+00-2.83192E-13-4.55343E-15
 -1      3696 2.01081E+01 6.54763E-01 1.67874E-03-1.37496E+00 2.06905E-13-3.59660E-13
 -1      3697 1.77925E+01-2.34667E+00 1.14064E-01 4.62323E+00 5.19407E-13-4.77490E-13
 -1      3698 1.68135E+01-1.71246E+00 1.84245E-02 4.24057E+00 4.47135E-13-5.58737E-13
 -1      3699 1.80113E+01-1.85416E+00 3.73237E-02-4.07801E+00-4.31721E-13-5.97550E-13
 -1      3700 1.94041E+01-1.89050E+00 3.86512E-02-3.46755E+00-3.97826E-13-4.31176E-13
 -1      3701 1.70944E+01-1.01464E+00-4.36813E-03-3.57348E+00-2.89703E-13-5.69626E-13
 -1      3702 2.00047E+01 1.81860E-03-2.57183E-05-2.95215E-03-1.35460E-14-2.01297E-13
 -1      3703 2.00042E+01 1.65083E-03-8.60109E-06-3.56192E-03-2.92317E-15-5.13465E-13
 -1      3704 1.29551E+01 8.73061E-01 5.96845E-02 2.80720E-01 7.85630E-14-8.60621E-13
 -1      3705 1.91108E+01-2.81842E+00 7.70293E-02 4.37001E+00 4.78629E-13-3.39763E-13
 -1      3706 1.93683E+01 1.56287E+00-2.16981E-03 9.18498E-01-6.38892E-14-6.46469E-13
 -1      3707 2.15471E+01-3.84428E+00 1.57242E-02 3.83012E+00 3.72698E-13-1.34582E-13
 -1      3708 1.97457E+01 1.72481E+00-2.73459E-03-5.82823E-01 4.09750E-13-4.67025E-13
 -1      3709 1.84604E+01 2.64310E+00-2.75487E-03-1.83370E-01 2.19585E-13-7.22811E-13
 -1      3710 1.83874E+01 2.68502E+00-5.66320E-03-9.53474E-02 1.64728E-13-7.70297E-13
 -1      3711 1.87805E+01 2.43228E+00-2.30637E-04-3.79012E-01 3.08829E-13-6.72375E-13
 -1      3712 1.85910E+01 2.54460E+00-7.58868E-03-3.14889E-01 2.53167E-13-6.94548E-13
 -1      3713 1.84610E+01 2.41023E+00 8.67793E-03-3.26698E-01 2.08591E-13-6.72624E-13
 -1      3714 2.00037E+01 1.26284E-03-7.15220E-06 4.17028E-03-7.97142E-14 4.04183E-13
 -1      3715 2.00040E+01 1.27137E-03-1.32917E-05 3.85694E-03-1.08464E-14 2.24557E-13
 -1      3716 2.00042E+01 2.51339E-03 2.95063E-05 3.79562E-03-1.24307E-13 3.51012E-13
 -1      3717 2.00043E+01 2.71296E-03 5.81892E-07-3.68593E-03 1.66312E-13-6.42839E-13
 -1      3718 2.01580E+01-2.27955E+00-4.00999E-02 3.32908E+00 2.95016E-13-2.78623E-13
 -1      3719 2.00045E+01 1.49178E-03-7.01740E-06 3.18913E-03-3.10000E-14-1.04682E-13
 -1      3720 1.85149E+01 4.02268E-01-6.50943E-03 2.08837E+00 1.15090E-13-5.03411E-13
 -1      3721 1.85838E+01 5.74790E-02 1.85806E-02 2.35518E+00 1.58929E-13-4.83603E-13
 -1      3722 1.87429E+01 9.61302E-01-4.99770E-03 1.56912E+00 2.32994E-14-5.26872E-13
 -1      3723 1.87145E+01 7.07265E-01 1.01159E-02 1.80239E+00 7.97438E-14-5.06919E-13
 -1      3724 1.80601E+01 7.88498E-01 5.03672E-03 1.86714E+00 9.35395E-14-5.23583E-13
 -1      3725 1.84037E+01-3.42627E-01 4.15638E-03 2.72925E+00 2.18034E-13-4.71890E-13
 -1      3726 1.86135E+01-8.89154E-01 1.44602E-02 3.05618E+00 2.86540E-13-4.51990E-13
 -1      3727 1.76705E+01 1.05324E-01-5.85694E-03 2.54102E+00 2.02948E-13-5.30591E-13
 -1      3728 2.00052E+01 3.34809E-03 1.97800E-05 2.66982E-03-3.86081E-14-1.63453E-13
 -1      3729 1.94917E+01-2.33742E+00 3.75720E-02-3.56922E+00 3.70164E-13-3.73417E-13
 -1      3730 1.96702E+01 1.48646E+00-1.31834E-04-8.23612E-01 3.43367E-13-4.53866E-13
 -1      3731 1.93900E+01 1.95300E+00 2.28784E-03-5.73379E-01 3.99481E-13-5.17525E-13
 -1      3732 2.28152E+01-2.82916E+00-1.32130E-02-1.92265E+00-2.53064E-13-9.95194E-14
 -1      3733 1.85685E+01-5.96447E-01 1.84198E-02-2.60675E+00 2.13977E-13-3.13775E-13
 -1      3734 1.83949E+01-2.07017E-01-1.06425E-03-2.35457E+00 2.59344E-13-3.17652E-13
 -1      3735 1.85379E+01 8.63064E-02 1.51128E-02-2.06030E+00 2.26942E-13-3.17608E-13
 -1      3736 1.84838E+01 3.06195E-01-6.67002E-03-1.86084E+00 1.13534E-13-2.73342E-13
 -1      3737 1.77565E+01 1.38538E-01-3.64157E-03-2.19142E+00 2.30211E-13-1.25432E-13
 -1      3738 1.86551E+01 4.78540E-01 8.87787E-03-1.64693E+00 3.05565E-14-2.18475E-13
 -1      3739 1.86755E+01 5.93921E-01-6.51729E-03-1.48852E+00-7.16970E-14-9.19536E-14
 -1      3740 1.80737E+01 5.58132E-01 2.26008E-03-1.68339E+00 1.63626E-13-1.82811E-13
 -1      3741 1.88424E+01 6.79303E-01 5.07895E-03-1.33013E+00-1.84108E-13-2.57671E-14
 -1      3742 1.88958E+01 7.25907E-01-5.53753E-03-1.20231E+00-1.74784E-13-1.28691E-13
 -1      3743 1.84012E+01 7.68102E-01 3.79141E-03-1.31890E+00-6.07729E-14 2.07478E-15
 -1      3744 1.90460E+01 7.53666E-01 2.89784E-03-1.08111E+00-1.69780E-13 7.45694E-14
 -1      3745 1.91094E+01 7.56471E-01-4.58347E-03-9.75737E-01-8.72936E-14 4.67906E-14
 -1      3746 1.87058E+01 8.45975E-01 4.05936E-03-1.05010E+00-1.05808E-13 8.95767E-14
 -1      3747 1.92386E+01 7.48611E-01 1.67568E-03-8.79785E-01-1.40990E-13-3.21680E-14
 -1      3748 1.93001E+01 7.25277E-01-3.81238E-03-7.91101E-01-6.87153E-14-8.00598E-14
 -1      3749 1.89739E+01 8.40302E-01 3.79280E-03-8.43998E-01-1.38574E-13 1.30780E-13
 -1      3750 1.94085E+01 6.96726E-01 1.04119E-03-7.12944E-01 3.72863E-14-1.29300E-13
 -1      3751 1.94626E+01 6.59178E-01-3.20105E-03-6.37625E-01 2.10411E-14-7.04603E-14
 -1      3752 1.92017E+01 7.84791E-01 3.31628E-03-6.79644E-01-6.53387E-14 2.77281E-13
 -1      3753 1.95515E+01 6.20217E-01 7.17771E-04-5.73042E-01-6.53048E-14-1.01606E-13
 -1      3754 1.95965E+01 5.76515E-01-2.68373E-03-5.09085E-01 9.48100E-15-1.02607E-13
 -1      3755 1.93905E+01 7.02211E-01 2.83400E-03-5.45166E-01 4.92019E-15 1.84850E-13
 -1      3756 1.96680E+01 5.33848E-01 5.65036E-04-4.55565E-01 1.70701E-13-1.42836E-13
 -1      3757 1.97038E+01 4.89276E-01-2.22617E-03-4.01704E-01 2.30108E-13-8.10050E-14
 -1      3758 1.95435E+01 6.07941E-01 2.35746E-03-4.33778E-01 6.58800E-14 2.57026E-13
 -1      3759 1.97602E+01 4.47284E-01 4.89098E-04-3.57560E-01 1.36466E-13-2.00838E-13
 -1      3760 1.97877E+01 4.05153E-01-1.81984E-03-3.12717E-01 1.32798E-13-1.23337E-13
 -1      3761 1.96649E+01 5.12337E-01 1.90314E-03-3.41451E-01 1.25600E-13 7.19275E-14
 -1      3762 1.98314E+01 3.66387E-01 4.40986E-04-2.76586E-01 1.60109E-13-2.32307E-13
 -1      3763 1.98520E+01 3.28478E-01-1.47690E-03-2.39734E-01 2.16162E-13-3.01002E-13
 -1      3764 1.97595E+01 4.22163E-01 1.51389E-03-2.65307E-01 8.99888E-14-2.06833E-13
 -1      3765 1.98854E+01 2.94153E-01 3.99714E-04-2.10477E-01 2.58587E-13-3.97185E-13
 -1      3766 1.99003E+01 2.61195E-01-1.18886E-03-1.80654E-01 2.39329E-13-4.72555E-13
 -1      3767 1.98319E+01 3.40966E-01 1.17487E-03-2.03006E-01 2.11318E-13-4.31090E-13
 -1      3768 1.99253E+01 2.31755E-01 3.55567E-04-1.57314E-01 2.76634E-13-4.47268E-13
 -1      3769 1.99359E+01 2.03897E-01-9.41671E-04-1.33571E-01 1.86531E-13-3.68730E-13
 -1      3770 1.98863E+01 2.70273E-01 9.01205E-04-1.52688E-01 2.58465E-13-7.73790E-13
 -1      3771 1.99542E+01 1.79309E-01 3.08843E-04-1.15246E-01 7.24938E-14-2.12157E-13
 -1      3772 1.99613E+01 1.56328E-01-7.33045E-04-9.66507E-02 1.26074E-13-2.10737E-13
 -1      3773 1.99263E+01 2.10385E-01 6.76019E-04-1.12686E-01 1.83741E-13-7.67733E-13
 -1      3774 1.99744E+01 1.36255E-01 2.63311E-04-8.24865E-02 1.11203E-13-2.20211E-13
 -1      3775 1.99791E+01 1.17694E-01-5.60964E-04-6.81620E-02-3.56819E-14-1.55804E-13
 -1      3776 1.99551E+01 1.60875E-01 4.97032E-04-8.13712E-02 1.23212E-13-4.92662E-13
 -1      3777 1.99882E+01 1.01635E-01 2.20039E-04-5.73930E-02-8.65999E-14-1.06004E-13
 -1      3778 1.99911E+01 8.69315E-02-4.21751E-04-4.65473E-02-4.04604E-14-1.09370E-13
 -1      3779 1.99752E+01 1.20800E-01 3.57821E-04-5.72413E-02-5.97212E-14-3.14313E-13
 -1      3780 1.99972E+01 7.43232E-02 1.80134E-04-3.85034E-02-1.68156E-15-1.50970E-13
 -1      3781 1.99987E+01 6.28858E-02-3.11116E-04-3.04409E-02 1.00422E-13-3.30314E-14
 -1      3782 1.99888E+01 8.89810E-02 2.51470E-04-3.89581E-02-3.20029E-14-2.71378E-13
 -1      3783 2.00026E+01 5.31631E-02 1.44524E-04-2.45477E-02 8.79737E-14-1.03122E-13
 -1      3784 2.00033E+01 4.44222E-02-2.24788E-04-1.86739E-02 5.64524E-14 2.28351E-14
 -1      3785 1.99976E+01 6.41726E-02 1.71698E-04-2.53533E-02 9.92492E-14-1.91938E-13
 -1      3786 2.00056E+01 3.70541E-02 1.13646E-04-1.44505E-02 1.02608E-13 8.64659E-14
 -1      3787 2.00057E+01 3.04883E-02-1.58363E-04-1.02698E-02 9.99636E-14 1.84754E-13
 -1      3788 2.00029E+01 4.51667E-02 1.13063E-04-1.54302E-02 1.13734E-13-1.57604E-13
 -1      3789 2.00068E+01 2.49962E-02 8.75571E-05-7.31875E-03 1.15361E-13 1.34168E-13
 -1      3790 2.00065E+01 2.01377E-02-1.08588E-04-4.42578E-03 5.81527E-14 1.79718E-13
 -1      3791 2.00057E+01 3.08553E-02 7.19938E-05-8.35600E-03 7.25184E-14-2.20190E-13
 -1      3792 2.00069E+01 1.60978E-02 6.61570E-05-2.43523E-03-2.58558E-14 2.51320E-13
 -1      3793 2.00064E+01 1.25484E-02-7.12993E-05-5.11046E-04 1.61528E-13 2.45683E-13
 -1      3794 2.00068E+01 2.02358E-02 4.32497E-05-3.45339E-03 5.53619E-14 7.50607E-14
 -1      3795 2.00063E+01 9.60165E-03 4.96024E-05 7.68457E-04 3.36538E-13 8.08192E-14
 -1      3796 2.00057E+01 7.01503E-03-2.31218E-05 2.00702E-03 3.50049E-13 1.41278E-13
 -1      3797 2.00067E+01 1.24338E-02 1.54245E-05-1.84215E-04 1.35176E-13 1.41320E-13
 -1      3798 2.00050E+01 4.45966E-03 3.88296E-05-2.91483E-03 1.98361E-13-5.23980E-13
 -1      3799 1.91723E+01-1.72981E+00 4.88574E-02 3.52969E+00 3.55647E-13-3.66147E-13
 -1      3800 1.95944E+01-2.59324E+00 1.06681E-02 3.88902E+00 3.50504E-13-3.01051E-13
 -1      3801 1.90240E+01 3.86762E-01-3.83754E-03 1.60302E+00-1.35257E-13-9.66253E-14
 -1      3802 1.90753E+01 2.32150E-01 1.10326E-02 1.74724E+00-1.57781E-13-7.59613E-14
 -1      3803 1.95450E+01-1.41230E+00-1.28159E-02-3.00652E+00-2.52542E-13-4.09052E-13
 -1      3804 1.91679E+01-6.12472E-01 3.73371E-03 2.39322E+00-1.97570E-13 3.86360E-15
 -1      3805 1.94966E+01-1.04824E+00 2.12276E-02 2.55602E+00-2.40917E-13 1.95839E-14
 -1      3806 1.91335E+01 5.83568E-01-4.07149E-03 1.31218E+00-1.96172E-13-1.19832E-13
 -1      3807 1.91291E+01 5.07535E-01 6.41255E-03 1.43760E+00-1.49859E-13-1.04399E-13
 -1      3808 1.86814E+01 5.73565E-01 1.29381E-03 1.48366E+00-1.71153E-13 1.27845E-13
 -1      3809 1.92741E+01 6.59415E-01-3.83808E-03 1.07377E+00-1.44332E-13-6.93431E-15
 -1      3810 1.92449E+01 6.35989E-01 3.84650E-03 1.18169E+00-2.27031E-13-1.16072E-13
 -1      3811 1.88921E+01 7.16048E-01 2.08845E-03 1.18985E+00-2.03723E-13 9.36206E-14
 -1      3812 1.94158E+01 6.59343E-01-3.45823E-03 8.75332E-01-1.74456E-13 1.07852E-14
 -1      3813 1.93785E+01 6.68583E-01 2.38033E-03 9.68439E-01-4.72605E-14-4.59374E-14
 -1      3814 1.91002E+01 7.54630E-01 2.49114E-03 9.60519E-01-1.39026E-13-1.22747E-13
 -1      3815 1.95447E+01 6.14753E-01-3.03804E-03 7.08259E-01-1.75106E-13-1.15441E-13
 -1      3816 1.95079E+01 6.42646E-01 1.57240E-03 7.88627E-01-1.94682E-13-9.01486E-14
 -1      3817 1.92885E+01 7.28793E-01 2.46845E-03 7.75503E-01-1.18337E-13-2.14051E-13
 -1      3818 1.96550E+01 5.46903E-01-2.60889E-03 5.67232E-01-8.21560E-15-1.38812E-13
 -1      3819 1.96227E+01 5.83960E-01 1.13877E-03 6.36159E-01-1.10809E-13-1.57094E-13
 -1      3820 1.94509E+01 6.66146E-01 2.28766E-03 6.23151E-01-1.51873E-13-2.43401E-13
 -1      3821 1.97455E+01 4.69931E-01-2.20398E-03 4.48664E-01-6.67170E-14 1.50021E-13
 -1      3822 1.97190E+01 5.09968E-01 8.99731E-04 5.07186E-01-4.24453E-15 7.58467E-17
 -1      3823 1.95857E+01 5.85305E-01 2.00021E-03 4.96599E-01-1.42901E-13 4.61868E-14
 -1      3824 1.98175E+01 3.92648E-01-1.83823E-03 3.49941E-01-8.51793E-14 2.09045E-14
 -1      3825 1.97968E+01 4.31808E-01 7.57547E-04 3.98916E-01-3.75509E-14 7.81120E-14
 -1      3826 1.96945E+01 4.98767E-01 1.69011E-03 3.91299E-01-2.52223E-14 9.64272E-14
 -1      3827 1.98731E+01 3.20467E-01-1.51268E-03 2.68822E-01-9.63475E-14-1.37483E-13
 -1      3828 1.98576E+01 3.56433E-01 6.49721E-04 3.09169E-01-8.05401E-14-8.55501E-14
 -1      3829 1.97802E+01 4.14234E-01 1.34736E-03 3.04321E-01-5.40426E-14-1.38224E-13
 -1      3830 1.99150E+01 2.56236E-01-1.22459E-03 2.03058E-01-3.04903E-13-7.73331E-15
 -1      3831 1.99039E+01 2.87887E-01 5.61746E-04 2.35794E-01-2.06916E-13-4.92349E-14
 -1      3832 1.98463E+01 3.36596E-01 1.04820E-03 2.33224E-01-1.96343E-13 8.04399E-14
 -1      3833 1.99459E+01 2.00980E-01-9.74914E-04 1.50530E-01-2.05845E-13-6.90386E-14
 -1      3834 1.99382E+01 2.27979E-01 4.85869E-04 1.76656E-01-2.47299E-13-6.55681E-14
 -1      3835 1.98961E+01 2.68194E-01 8.07150E-04 1.75769E-01-3.11631E-13 1.55545E-13
 -1      3836 1.99680E+01 1.54742E-01-7.62496E-04 1.09246E-01-2.37357E-13-7.66809E-14
 -1      3837 1.99629E+01 1.77178E-01 4.13267E-04 1.29753E-01-2.03365E-13-1.08638E-13
 -1      3838 1.99329E+01 2.09721E-01 6.07493E-04 1.30018E-01-1.71574E-13-7.58089E-14
 -1      3839 1.99834E+01 1.16955E-01-5.85733E-04 7.73253E-02-9.04615E-14-1.00830E-13
 -1      3840 1.99802E+01 1.35180E-01 3.45662E-04 9.31529E-02-2.00669E-13-1.53065E-13
 -1      3841 1.99594E+01 1.61025E-01 4.46648E-04 9.41487E-02-1.66471E-13-1.68681E-13
 -1      3842 1.99937E+01 8.67130E-02-4.41740E-04 5.30563E-02-2.41824E-13 1.51049E-13
 -1      3843 1.99919E+01 1.01220E-01 2.84181E-04 6.50632E-02-1.04121E-13-5.53200E-14
 -1      3844 1.99780E+01 1.21378E-01 3.20680E-04 6.64678E-02-1.66803E-13-1.11176E-13
 -1      3845 2.00002E+01 6.29726E-02-3.26717E-04 3.49313E-02-1.54379E-13 1.81589E-13
 -1      3846 1.99994E+01 7.43029E-02 2.29473E-04 4.38750E-02-2.46287E-13 1.69924E-13
 -1      3847 1.99905E+01 8.97474E-02 2.24222E-04 4.54582E-02-2.98806E-13 5.43152E-14
 -1      3848 2.00040E+01 4.46748E-02-2.36676E-04 2.16553E-02 1.77954E-14 1.02223E-13
 -1      3849 2.00039E+01 5.33650E-02 1.81963E-04 2.81858E-02-8.52176E-15 1.45512E-13
 -1      3850 1.99985E+01 6.49842E-02 1.51882E-04 2.97927E-02-8.70873E-14-3.78387E-14
 -1      3851 2.00059E+01 3.08192E-02-1.67495E-04 1.21445E-02 2.93535E-13-1.68805E-13
 -1      3852 2.00062E+01 3.73683E-02 1.41670E-04 1.68049E-02 1.17316E-13-8.16564E-15
 -1      3853 2.00033E+01 4.59427E-02 9.86467E-05 1.83377E-02 1.20847E-13-3.10487E-14
 -1      3854 2.00065E+01 2.05012E-02-1.16211E-04 5.50837E-03 4.20989E-13-3.39763E-13
 -1      3855 2.00070E+01 2.53579E-02 1.08383E-04 8.74433E-03 4.35854E-13-9.62428E-14
 -1      3856 2.00058E+01 3.15545E-02 6.06670E-05 1.01490E-02 3.69677E-13-2.64031E-13
 -1      3857 2.00063E+01 1.29266E-02-7.88450E-05 1.01929E-03 1.95727E-13-4.46467E-13
 -1      3858 2.00069E+01 1.64977E-02 8.63120E-05 3.20283E-03 3.42415E-13-3.01681E-13
 -1      3859 2.00067E+01 2.08438E-02 2.80160E-05 4.45883E-03 3.91671E-13-1.38948E-13
 -1      3860 2.00055E+01 7.38417E-03-5.28502E-05-1.90038E-03 2.08875E-13-5.51527E-13
 -1      3861 2.00062E+01 1.00238E-02 7.26470E-05-4.54783E-04 1.09120E-13-5.50261E-13
 -1      3862 2.00066E+01 1.29304E-02-1.64689E-05 6.31675E-04 1.65264E-13-3.44305E-13
 -1      3863 1.82903E+01-1.81310E+00-2.21160E-03-3.67066E+00 3.25847E-13-4.38103E-13
 -1      3864 1.93404E+01-1.72992E+00 3.37049E-02-3.15764E+00 2.46455E-13-3.82179E-13
 -1      3865 1.88916E+01-1.12696E+00 1.88747E-02-2.92135E+00 1.95431E-13-4.09168E-13
 -1      3866 1.72597E+01-1.15417E+00 1.23033E-02-3.46475E+00 3.01285E-13-3.79542E-13
 -1      3867 1.93190E+01 5.44285E-01 6.76987E-03-1.75570E+00 6.74165E-14-3.91330E-13
 -1      3868 1.92928E+01 8.08283E-01-1.45936E-03-1.54862E+00 1.26202E-13-3.97222E-13
 -1      3869 1.93741E+01-1.14020E-01 1.05980E-02-2.21315E+00-3.53891E-14-3.94862E-13
 -1      3870 1.92518E+01 2.43452E-01 2.13418E-03-2.00368E+00 2.83172E-14-3.75471E-13
 -1      3871 1.87844E+01 5.85784E-01 4.97818E-03-1.89433E+00 5.10520E-14-4.57256E-13
 -1      3872 1.90264E+01 1.76477E+00-1.81856E-03 8.17902E-01-3.19159E-14-6.72014E-13
 -1      3873 1.90357E+01 1.55454E+00 4.67856E-03 1.00693E+00-1.69090E-14-6.56789E-13
 -1      3874 1.87313E+01 1.94801E+00-3.46639E-03 7.31566E-01 6.74948E-15-6.68314E-13
 -1      3875 1.95844E+01-9.17966E-01 1.88696E-02-2.69364E+00-1.70023E-13-4.24686E-13
 -1      3876 1.92835E+01-4.52874E-01-7.46517E-04-2.48091E+00-9.45650E-14-4.12247E-13
 -1      3877 1.85694E+01-4.94370E-02-2.07769E-02-2.42111E+00-4.37440E-14-4.74266E-13
 -1      3878 1.84796E+01-7.72187E-01 1.33755E-02-3.04616E+00-2.04046E-13-5.03892E-13
 -1      3879 1.97420E+01-1.57963E+00 2.71801E-02 2.86882E+00-2.26657E-13 8.46250E-14
 -1      3880 2.03699E+01-2.20371E+00 3.53753E-02 2.94494E+00-2.16162E-13 7.14893E-14
 -1      3881 1.86024E+01-1.17586E+00-2.50771E-02 2.99225E+00-2.11399E-13 1.75866E-13
 -1      3882 1.36776E+01 9.53683E-01 3.42760E-02 1.10404E+00 1.48540E-13-7.95738E-13
 -1      3883 1.37683E+01 1.03692E+00-4.88507E-03-1.75598E-01 3.98986E-14-7.96509E-13
 -1      3884 1.83839E+01 2.69323E+00-3.75495E-03 5.29976E-02 1.37984E-13-7.87446E-13
 -1      3885 1.84388E+01 2.65495E+00-4.69257E-03 1.42719E-01 7.83752E-14-7.81064E-13
 -1      3886 1.83075E+01 2.51056E+00 8.65545E-03-2.57014E-02 1.32267E-13-7.30067E-13
 -1      3887 1.85292E+01 2.59542E+00-3.52666E-03 2.55265E-01 6.11675E-14-7.98987E-13
 -1      3888 1.86906E+01 2.48435E+00-4.38602E-03 3.29659E-01 2.45420E-14-7.94671E-13
 -1      3889 1.86398E+01 2.28171E+00 6.56932E-03 4.67621E-01 9.29594E-15-7.54835E-13
 -1      3890 1.83962E+01 2.45015E+00 8.52730E-03 2.51430E-01 6.08512E-14-7.56710E-13
 -1      3891 1.73072E+01-1.68873E+00 6.27620E-02 3.98128E+00-4.34515E-13 1.37525E-13
 -1      3892 1.57152E+01-1.00684E+00 1.65581E-02 3.70811E+00-3.77285E-13 1.99889E-13
 -1      3893 2.01901E+01 7.83112E-01 1.43341E-03-1.21842E+00 2.56387E-13-3.60259E-13
 -1      3894 2.01974E+01 9.44356E-01 1.29872E-03-1.04675E+00 3.17532E-13-3.45989E-13
 -1      3895 1.99766E+01 1.14192E+00 1.46136E-03-9.96943E-01 3.33832E-13-3.80470E-13
 -1      3896 1.98118E+01 8.77758E-01-1.58603E-03-1.31529E+00 2.31824E-13-3.83612E-13
 -1      3897 1.91041E+01 2.13567E+00-5.12042E-03-5.36318E-01 3.48298E-13-5.95195E-13
 -1      3898 2.00053E+01 2.39805E-03-1.77683E-05-1.61817E-03-5.57573E-14-3.33708E-13
 -1      3899 2.00050E+01 2.25009E-03-6.70794E-06-2.27110E-03-7.80547E-14-4.78909E-14
 -1      3900 2.00056E+01 3.78273E-03 6.99740E-05-2.36818E-03 2.00689E-14-1.44556E-13
 -1      3901 2.00060E+01 4.47183E-03 6.40852E-05-1.18714E-03-2.87162E-14-3.28853E-13
 -1      3902 1.90012E+01 8.83872E-03-3.17746E-03 1.96169E+00-9.60809E-14-1.28605E-13
 -1      3903 1.91592E+01-2.58915E-01 1.72796E-02 2.12122E+00-5.16524E-14-5.00223E-14
 -1      3904 1.84391E+01-2.63758E-01 1.13080E-03 2.37758E+00-1.23576E-13 1.67470E-13
 -1      3905 1.85048E+01 2.74573E-01 1.40928E-03 1.86989E+00-1.48131E-13 9.43075E-14
 -1      3906 1.92106E+01-2.55998E+00 7.71187E-03 3.84489E+00-3.91102E-13 1.67977E-13
 -1      3907 1.89324E+01 1.37758E+00-1.80449E-03 1.17048E+00 7.20836E-15-6.32568E-13
 -1      3908 1.88664E+01 1.15334E+00 4.73190E-03 1.38593E+00 7.88204E-15-5.85241E-13
 -1      3909 1.83609E+01 1.23757E+00 2.21011E-03 1.39939E+00 6.29611E-14-5.74179E-13
 -1      3910 1.85778E+01 1.58463E+00 2.05836E-03 1.05385E+00 2.11683E-14-6.41865E-13
 -1      3911 2.00057E+01 6.25010E-03-4.80939E-05-2.05943E-03 1.80131E-13-4.11024E-13
 -1      3912 1.78504E+01-1.18692E+00-2.26694E-02 3.48763E+00 3.44199E-13-4.78388E-13
 -1      3913 1.79351E+01-1.38621E+00 1.24748E-02 3.46066E+00-2.12313E-13 2.17689E-13
 -1      3914 1.82075E+01-2.24388E+00 2.52239E-02 3.96376E+00-4.34340E-13 1.72848E-13
 -1      3915 1.64366E+01-4.93701E-01 1.40752E-02 3.03397E+00-2.38399E-13 1.41708E-13
 -1      3916 1.51719E+01-3.89461E-01 4.57579E-02 3.24826E+00-3.05029E-13 2.44289E-13
 -1      3917 1.46245E+01 1.54353E-01-1.18423E-02 2.46443E+00-1.73826E-13 1.72772E-13
 -1      3918 1.78801E+01-8.01937E-01 3.73774E-02 3.02610E+00-2.35441E-13 2.32950E-13
 -1      3919 1.71411E+01-3.33965E-01-1.52903E-02 2.69599E+00-1.78430E-13 2.09740E-13
 -1      3920 1.43587E+01 1.14514E+00 5.74946E-02-8.50363E-01-9.55941E-15-7.69204E-13
 -1      3921 1.51069E+01 9.23937E-01-3.75308E-03-1.41069E+00-6.06776E-14-7.01049E-13
 -1      3922 1.47721E+01 1.22998E+00-3.30722E-03-9.26628E-02 4.68638E-14-7.20212E-13
 -1      3923 1.23367E+01 8.77115E-01 1.00676E-01 5.51530E-01-1.20733E-13 1.79620E-13
 -1      3924 1.28020E+01 7.82082E-01-1.67074E-03-4.63722E-01-2.47922E-14 1.66964E-13
 -1      3925 1.33118E+01 6.53103E-01 2.22835E-02 1.33600E+00-1.43326E-13 2.13825E-13
 -1      3926 1.42598E+01 2.16853E-03 8.40242E-02-2.87804E+00 3.31160E-13 6.84695E-14
 -1      3927 1.55909E+01-4.43212E-01 2.66766E-02-3.15161E+00 3.54596E-13-1.72674E-13
 -1      3928 1.95904E+01 1.35721E+00-4.34833E-04-9.84341E-01 3.02398E-13-4.49565E-13
 -1      3929 2.00048E+01 3.76848E-03-3.89553E-06 3.21995E-03 2.50499E-14 1.95944E-13
 -1      3930 1.78467E+01-6.63950E-01-1.13856E-02-2.87238E+00 2.57243E-13-2.90814E-13
 -1      3931 2.00055E+01 5.64764E-03-4.88178E-06 2.35889E-03 2.95721E-14-9.28531E-14
 -1      3932 1.37315E+01 3.52863E-01-7.44755E-03-2.07626E+00 2.20747E-13 5.55354E-14
 -1      3933 2.01952E+01-3.49253E+00 2.56121E-02 4.25857E+00 4.44998E-13-2.02383E-13
 -1      3934 2.00065E+01 6.82598E-03-2.60542E-05 2.50156E-04 1.98194E-13-2.49673E-13
 -1      3935 2.00064E+01 6.76498E-03-4.84897E-05-2.86365E-04 1.68137E-13-3.44551E-13
 -1      3936 2.00061E+01 6.58236E-03-1.58725E-05 1.54958E-03 1.49154E-13-2.91937E-13
 -1      3937 1.65067E+01-6.80720E-01 5.29340E-02 3.49154E+00 3.57625E-13-6.15469E-13
 -1      3938 2.00063E+01 6.40545E-03-2.53673E-05 1.16617E-03 1.62871E-13-1.01341E-13
 -1      3939 2.00064E+01 6.62296E-03-3.68973E-05 6.23217E-04 2.41271E-13-9.41358E-14
 -1      3940 2.00069E+01 9.26801E-03 5.56167E-05 3.22979E-04 3.39612E-13-1.53207E-13
 -1      3941 1.90181E+01 1.01865E+00 1.92768E-03-1.46833E+00 1.22248E-13-4.32602E-13
 -1      3942 1.94527E+01 9.57115E-01 4.04743E-03-1.38567E+00 1.62561E-13-4.15192E-13
 -1      3943 1.95295E+01 1.08692E+00-2.05348E-03-1.23234E+00 2.17187E-13-4.17444E-13
 -1      3944 1.64094E+01-2.73805E-01 4.53720E-02-3.13980E+00-2.17082E-13-5.93085E-13
 -1      3945 1.76707E+01-5.73793E-01 1.61633E-02-3.03731E+00-2.31768E-13-5.36740E-13
 -1      3946 1.77465E+01-1.74033E-01 2.34269E-03-2.70557E+00-1.20366E-13-5.19407E-13
 -1      3947 1.59384E+01 2.79250E-01-3.00721E-02-2.46568E+00-1.34734E-13-6.27534E-13
 -1      3948 1.81114E+01 2.32832E+00-2.18291E-03-1.17199E-01 1.63528E-13-6.95281E-13
 -1      3949 1.80995E+01 2.32940E+00-5.19920E-03 5.26218E-02 1.17788E-13-7.09390E-13
 -1      3950 1.42771E+01 8.08454E-01 3.35702E-02 1.67386E+00 1.98059E-13-7.76773E-13
 -1      3951 1.50110E+01 1.03476E+00 1.15770E-02 1.16652E+00 1.46105E-13-7.03585E-13
 -1      3952 1.51375E+01 4.56282E-01-1.27427E-02 2.30305E+00 2.38498E-13-7.16323E-13
 -1      3953 1.89377E+01 2.02169E+00 5.06043E-03-6.40879E-01 2.97980E-13-5.67752E-13
 -1      3954 2.00063E+01 7.60690E-03-4.81361E-05-1.12396E-03 6.54565E-14-1.23683E-13
 -1      3955 2.00060E+01 7.13730E-03-3.17723E-05-1.63469E-03 1.10316E-13-2.26277E-13
 -1      3956 2.00068E+01 1.08748E-02 8.93254E-05-5.26338E-04 1.82649E-13-4.22933E-13
 -1      3957 1.83554E+01 2.17414E+00-2.57757E-03-4.85768E-01 2.16113E-13-6.32720E-13
 -1      3958 1.81967E+01 2.26119E+00-7.72633E-03-3.41966E-01 1.69650E-13-6.68543E-13
 -1      3959 1.80143E+01 2.14420E+00 9.26757E-03-2.78255E-01 1.67495E-13-6.55340E-13
 -1      3960 1.76216E+01 1.13499E+00-1.57564E-02 1.46516E+00 9.60141E-14-5.84442E-13
 -1      3961 1.74398E+01 9.01423E-01 3.63387E-03 1.73996E+00 1.20286E-13-5.76093E-13
 -1      3962 1.66842E+01 6.82750E-01-7.27552E-03 1.99569E+00 1.62073E-13-6.13827E-13
 -1      3963 1.64837E+01 3.39718E-01 1.97862E-02 2.37888E+00 2.34669E-13-6.37057E-13
 -1      3964 1.92334E+01 1.43114E+00-1.80382E-05-1.06176E+00 2.46970E-13-4.61545E-13
 -1      3965 1.89378E+01 8.28789E-01-5.12629E-03 8.00398E-01-3.58394E-14-1.80624E-13
 -1      3966 1.88421E+01 8.41772E-01 1.72158E-03 8.96163E-01-7.03403E-15-1.01644E-13
 -1      3967 1.70171E+01 3.21217E-01 1.61330E-02-2.10341E+00 2.20186E-13-1.58737E-13
 -1      3968 1.71499E+01 5.33428E-01-1.32896E-02-1.81360E+00 2.39428E-13-1.90963E-13
 -1      3969 1.62676E+01-1.35666E-01 6.69714E-03 2.95799E+00 2.72586E-13-6.33132E-13
 -1      3970 1.75385E+01 6.85249E-01 7.95456E-03-1.56555E+00 2.59913E-13-2.24932E-13
 -1      3971 1.76883E+01 7.89799E-01-1.28469E-02-1.36694E+00 1.85166E-13-1.16244E-13
 -1      3972 1.68471E+01 8.30385E-01 1.10955E-02-1.46696E+00 2.73083E-13-1.76024E-13
 -1      3973 1.79962E+01 8.69673E-01 3.61965E-03-1.20422E+00 4.52699E-14-8.53785E-14
 -1      3974 1.81478E+01 9.09783E-01-9.30524E-03-1.06179E+00-2.34038E-14 2.04012E-14
 -1      3975 1.75193E+01 9.90063E-01 1.25815E-02-1.08744E+00 1.30921E-13-2.05821E-13
 -1      3976 1.83942E+01 9.33975E-01 1.69089E-03-9.46612E-01-9.03489E-14 3.37564E-14
 -1      3977 1.85335E+01 9.31233E-01-6.74098E-03-8.40030E-01-9.76715E-14 9.87909E-14
 -1      3978 1.80423E+01 1.03706E+00 8.75323E-03-8.33635E-01 3.23507E-15-1.72514E-13
 -1      3979 1.87312E+01 9.19127E-01 4.86028E-04-7.55826E-01-1.01040E-13 1.10641E-13
 -1      3980 1.88525E+01 8.90935E-01-5.08056E-03-6.72472E-01-7.83101E-14 2.10272E-13
 -1      3981 1.84657E+01 1.01250E+00 6.86459E-03-6.54990E-01-4.32658E-14-9.45870E-14
 -1      3982 1.90116E+01 8.57278E-01-3.15658E-05-6.06766E-01-1.15342E-13 2.59238E-13
 -1      3983 1.91139E+01 8.13740E-01-4.00736E-03-5.39116E-01-4.49953E-14 1.65652E-13
 -1      3984 1.88070E+01 9.43267E-01 5.22776E-03-5.22193E-01-7.21852E-14 7.13111E-14
 -1      3985 1.92423E+01 7.68104E-01-2.01384E-04-4.86736E-01-7.00350E-14 1.41872E-13
 -1      3986 1.93262E+01 7.17497E-01-3.16813E-03-4.30855E-01-7.37907E-14 8.40785E-14
 -1      3987 1.90837E+01 8.47264E-01 4.17846E-03-4.16822E-01-1.32720E-13 1.29375E-13
 -1      3988 1.94286E+01 6.67099E-01-2.41475E-04-3.88121E-01-7.76745E-14 1.55540E-13
 -1      3989 1.94961E+01 6.14686E-01-2.52596E-03-3.41628E-01 3.33004E-14 1.45472E-13
 -1      3990 1.93059E+01 7.38700E-01 3.35300E-03-3.32511E-01-1.25548E-13 3.31454E-14
 -1      3991 1.95767E+01 5.64523E-01-1.78327E-04-3.06852E-01 9.15729E-14-2.66404E-14
 -1      3992 1.96296E+01 5.14263E-01-2.03111E-03-2.68063E-01 2.54397E-14-1.92367E-13
 -1      3993 1.94823E+01 6.28036E-01 2.72683E-03-2.63189E-01-2.19119E-14 8.81952E-15
 -1      3994 1.96927E+01 4.67173E-01-1.12193E-04-2.39587E-01 7.86392E-15-2.13799E-13
 -1      3995 1.97333E+01 4.21360E-01-1.64785E-03-2.07561E-01 8.05337E-14-2.57196E-13
 -1      3996 1.96202E+01 5.22729E-01 2.21298E-03-2.06215E-01 1.76406E-15-1.81319E-13
 -1      3997 1.97820E+01 3.79126E-01-6.17398E-05-1.84271E-01 5.79902E-14-3.89226E-13
 -1      3998 1.98127E+01 3.38694E-01-1.33487E-03-1.58090E-01 1.28458E-13-4.86613E-13
 -1      3999 1.97270E+01 4.26458E-01 1.66576E-03-1.59499E-01-3.74527E-14-3.28583E-13
 -1      4000 1.98498E+01 3.01906E-01-1.50360E-05-1.39408E-01 1.31613E-13-6.15920E-13
 -1      4001 1.98726E+01 2.67240E-01-1.06099E-03-1.18352E-01 1.15690E-13-7.21928E-13
 -1      4002 1.98089E+01 3.41553E-01 1.30626E-03-1.21178E-01 1.19426E-14-4.67198E-13
 -1      4003 1.99002E+01 2.36113E-01 1.25631E-05-1.03601E-01 1.49276E-13-7.46102E-13
 -1      4004 1.99167E+01 2.07159E-01-8.29609E-04-8.69167E-02 1.52716E-13-7.14851E-13
 -1      4005 1.98703E+01 2.68595E-01 9.93783E-04-9.05806E-02 7.20659E-14-5.44012E-13
 -1      4006 1.99369E+01 1.81436E-01 3.38140E-05-7.54147E-02 1.69307E-13-7.35019E-13
 -1      4007 1.99485E+01 1.57769E-01-6.38982E-04-6.23987E-02 9.33792E-14-7.12684E-13
 -1      4008 1.99155E+01 2.07575E-01 7.43596E-04-6.64030E-02 1.41396E-13-6.19811E-13
 -1      4009 1.99629E+01 1.36947E-01 4.58600E-05-5.35668E-02 2.60449E-14-5.74467E-13
 -1      4010 1.99708E+01 1.17978E-01-4.84353E-04-4.35772E-02 4.27971E-15-4.96957E-13
 -1      4011 1.99480E+01 1.57616E-01 5.47166E-04-4.75635E-02 1.70740E-13-7.61907E-13
 -1      4012 1.99809E+01 1.01442E-01 5.04189E-05-3.69097E-02 7.39400E-15-3.30301E-13
 -1      4013 1.99861E+01 8.65169E-02-3.60721E-04-2.93743E-02 3.24831E-15-2.43614E-13
 -1      4014 1.99708E+01 1.17504E-01 3.94766E-04-3.31179E-02 1.69512E-13-3.57515E-13
 -1      4015 1.99928E+01 7.36206E-02 4.98706E-05-2.44323E-02 2.03921E-14-1.92506E-13
 -1      4016 1.99959E+01 6.20842E-02-2.63368E-04-1.88533E-02 1.12840E-13-2.87960E-13
 -1      4017 1.99863E+01 8.58851E-02 2.78328E-04-2.22316E-02-2.60789E-14-3.56072E-13
 -1      4018 2.00002E+01 5.22009E-02 4.62495E-05-1.52635E-02 1.50740E-13-2.89321E-13
 -1      4019 2.00020E+01 4.34353E-02-1.88661E-04-1.12181E-02 8.21957E-14-3.04064E-13
 -1      4020 1.99963E+01 6.13985E-02 1.90808E-04-1.41791E-02 1.23604E-13-3.12235E-13
 -1      4021 2.00045E+01 3.59869E-02 4.06068E-05-8.67527E-03 9.05756E-15-2.43186E-13
 -1      4022 2.00052E+01 2.94499E-02-1.25851E-04-5.81730E-03 4.43752E-14-3.60613E-13
 -1      4023 2.00023E+01 4.27529E-02 1.26300E-04-8.34516E-03 1.14309E-13-3.59593E-13
 -1      4024 2.00065E+01 2.38986E-02 2.65365E-05-4.03946E-03 1.26129E-13-2.45581E-13
 -1      4025 2.00066E+01 1.90779E-02-7.95005E-05-2.09267E-03 8.40436E-14-9.14047E-14
 -1      4026 2.00056E+01 2.88458E-02 9.62453E-05-4.22445E-03 8.06832E-14-3.19421E-13
 -1      4027 2.00070E+01 1.50444E-02 2.46823E-05-9.33707E-04 1.43405E-14-9.24142E-14
 -1      4028 2.00067E+01 1.15379E-02-4.83523E-05 3.59911E-04 3.12946E-14-2.07919E-13
 -1      4029 2.00068E+01 1.84500E-02 3.82660E-05-1.40244E-03 1.67776E-14-4.87974E-13
 -1      4030 1.86643E+01 8.33429E-01-6.51027E-03 1.00113E+00-3.24399E-14 1.51635E-14
 -1      4031 1.85636E+01 8.11644E-01 3.10220E-03 1.12205E+00-6.40312E-14 1.29778E-13
 -1      4032 1.85454E+01 9.36176E-01 5.27172E-03 8.28070E-01 6.91326E-14-1.18214E-13
 -1      4033 1.53835E+01 4.70883E-01 2.58059E-02 1.98820E+00-1.58348E-13 1.43557E-13
 -1      4034 1.42627E+01 6.22852E-01 3.89177E-02 1.83742E+00-1.48092E-13 1.60469E-13
 -1      4035 1.40560E+01 8.56345E-01-1.11258E-02 9.52557E-01-9.51279E-14 1.65635E-13
 -1      4036 2.00067E+01 9.29373E-03 3.75141E-05 8.65347E-04 8.40125E-14-2.57526E-13
 -1      4037 1.83506E+01 7.57967E-01-8.83615E-03 1.26064E+00-1.72949E-13 1.57561E-13
 -1      4038 1.82519E+01 6.79983E-01 3.24017E-03 1.42175E+00-1.98739E-13 1.65569E-13
 -1      4039 1.81769E+01 9.12864E-01 7.29818E-03 1.05803E+00-4.41907E-14 8.32797E-15
 -1      4040 1.91702E+01 7.75225E-01-4.14165E-03 6.41199E-01-1.58066E-13-2.10124E-13
 -1      4041 1.90851E+01 8.08394E-01 7.43829E-04 7.19336E-01-9.71931E-14-1.74313E-13
 -1      4042 1.88563E+01 8.97722E-01 4.37587E-03 6.56472E-01-3.66870E-14-2.06963E-13
 -1      4043 1.93638E+01 6.94398E-01-3.32402E-03 5.11825E-01-9.94237E-14-2.56946E-13
 -1      4044 1.92914E+01 7.38433E-01 3.46376E-04 5.76486E-01-1.14934E-13-2.13720E-13
 -1      4045 1.91138E+01 8.21762E-01 3.67948E-03 5.21838E-01-7.20971E-14-1.85843E-13
 -1      4046 1.95211E+01 6.02222E-01-2.63321E-03 4.05713E-01-2.17567E-13-2.41082E-14
 -1      4047 1.94618E+01 6.50016E-01 1.77876E-04 4.59670E-01-1.94083E-13-1.64999E-13
 -1      4048 1.93245E+01 7.26149E-01 3.23544E-03 4.14813E-01-2.00055E-13-3.48779E-13
 -1      4049 1.96465E+01 5.08246E-01-2.12773E-03 3.18187E-01-5.84141E-14-9.71250E-14
 -1      4050 1.95993E+01 5.55779E-01 1.75951E-04 3.63034E-01-1.27865E-13-2.16006E-14
 -1      4051 1.94935E+01 6.23524E-01 2.65881E-03 3.27392E-01-1.45804E-13-2.12564E-13
 -1      4052 1.97446E+01 4.19121E-01-1.76830E-03 2.46302E-01-1.37722E-13-1.63031E-14
 -1      4053 1.97080E+01 4.63507E-01 1.31183E-04 2.83333E-01-1.20838E-15 3.43371E-14
 -1      4054 1.96268E+01 5.22488E-01 2.02786E-03 2.55864E-01-9.75609E-14-1.46191E-15
 -1      4055 1.98201E+01 3.38698E-01-1.44423E-03 1.87868E-01-3.53193E-13 2.26413E-13
 -1      4056 1.97924E+01 3.78249E-01 1.12509E-04 2.18104E-01-2.48614E-13 1.13222E-13
 -1      4057 1.97309E+01 4.28799E-01 1.56904E-03 1.97605E-01-2.72530E-13 9.36241E-14
 -1      4058 1.98773E+01 2.68534E-01-1.15455E-03 1.40882E-01-2.29190E-13 2.85418E-14
 -1      4059 1.98567E+01 3.02757E-01 1.25508E-04 1.65217E-01-2.50829E-13 1.58767E-13
 -1      4060 1.98109E+01 3.45184E-01 1.24357E-03 1.50258E-01-3.02962E-13 4.99334E-14
 -1      4061 1.99196E+01 2.09051E-01-9.07656E-04 1.03682E-01-4.55899E-14-1.56552E-13
 -1      4062 1.99047E+01 2.37854E-01 1.26144E-04 1.22975E-01-1.30705E-13-1.34604E-13
 -1      4063 1.98713E+01 2.72700E-01 9.55083E-04 1.12395E-01-7.62306E-14-2.16167E-13
 -1      4064 1.99502E+01 1.59838E-01-7.02218E-04 7.46521E-02-1.31160E-13-1.75550E-13
 -1      4065 1.99397E+01 1.83522E-01 1.23143E-04 8.97137E-02-1.21346E-13-1.35950E-13
 -1      4066 1.99158E+01 2.11609E-01 7.17787E-04 8.25144E-02-9.24431E-14-2.65793E-13
 -1      4067 1.99718E+01 1.19982E-01-5.34400E-04 5.23455E-02-2.24182E-13-1.21223E-13
 -1      4068 1.99647E+01 1.39058E-01 1.15892E-04 6.39160E-02-1.33494E-13-1.10535E-13
 -1      4069 1.99480E+01 1.61300E-01 5.29477E-04 5.92502E-02-1.77887E-13-2.39126E-13
 -1      4070 1.99865E+01 8.83299E-02-3.99550E-04 3.54875E-02-2.29535E-13-1.93270E-13
 -1      4071 1.99819E+01 1.03403E-01 1.05010E-04 4.42265E-02-1.80931E-13-5.14468E-14
 -1      4072 1.99706E+01 1.20711E-01 3.82699E-04 4.14106E-02-1.88434E-13-8.86346E-14
 -1      4073 1.99961E+01 6.36525E-02-2.92847E-04 2.29742E-02-1.57221E-14-3.10931E-13
 -1      4074 1.99933E+01 7.53469E-02 9.19828E-05 2.94549E-02-1.97427E-13-2.75589E-13
 -1      4075 1.99860E+01 8.85807E-02 2.70217E-04 2.79550E-02-9.52949E-14-3.30595E-13
 -1      4076 2.00020E+01 4.47496E-02-2.10517E-04 1.38678E-02 1.66538E-13-2.75570E-13
 -1      4077 2.00005E+01 5.36665E-02 7.83312E-05 1.85772E-02 1.47660E-13-2.35444E-13
 -1      4078 1.99960E+01 6.36049E-02 1.85490E-04 1.79862E-02 4.45036E-14-3.46632E-13
 -1      4079 2.00052E+01 3.05136E-02-1.46147E-04 7.39710E-03 3.60905E-13-3.26237E-13
 -1      4080 2.00045E+01 3.71983E-02 6.54857E-05 1.07361E-02 2.26878E-13-3.45447E-13
 -1      4081 2.00021E+01 4.45186E-02 1.21884E-04 1.07435E-02 2.43969E-13-3.13276E-13
 -1      4082 2.00065E+01 2.00041E-02-8.66570E-05 2.94858E-03 2.62920E-13-2.61881E-13
 -1      4083 2.00065E+01 2.49158E-02 5.91992E-05 5.22482E-03 3.73338E-13-2.07774E-13
 -1      4084 2.00054E+01 3.01837E-02 7.59953E-05 5.63249E-03 3.47525E-13-4.86774E-13
 -1      4085 2.00067E+01 1.32884E-02-3.63028E-05 3.39408E-04 2.83371E-13-4.14624E-13
 -1      4086 2.00070E+01 1.69686E-02 7.06932E-05 1.82838E-03 3.69117E-13-1.88894E-13
 -1      4087 2.00066E+01 2.06470E-02 5.92249E-06 2.40154E-03 3.02444E-13-4.27919E-13
 -1      4088 2.00069E+01 1.43543E-02-4.36600E-05 4.75901E-04 3.05483E-13-3.96151E-13
 -1      4089 1.63456E+01-5.44381E-01 1.47596E-02-3.16306E+00 3.16678E-13-2.38322E-13
 -1      4090 1.73299E+01-5.80005E-01 2.28860E-02-2.94163E+00 2.95455E-13-2.58944E-13
 -1      4091 1.70352E+01-7.40956E-02 3.86478E-03-2.54815E+00 2.87556E-13-1.81674E-13
 -1      4092 1.57097E+01 5.31712E-02-6.56632E-03-2.57698E+00 3.07760E-13-1.01755E-13
 -1      4093 1.74931E+01 2.21056E-03 1.11100E-02 2.31248E+00-1.18444E-13 1.93090E-13
 -1      4094 1.62571E+01 3.43379E-01 2.24018E-02 2.23109E+00-1.31761E-13 1.64728E-13
 -1      4095 1.74850E+01 2.81323E-01-1.80195E-02 2.01278E+00-8.99853E-14 1.44158E-13
 -1      4096 1.81744E+01 6.66948E-01-1.17195E-02-1.89129E+00 3.92835E-14-5.15012E-13
 -1      4097 1.82693E+01 9.61058E-01-1.26717E-02-1.59779E+00 7.53017E-14-5.00270E-13
 -1      4098 1.85240E+01 2.07583E+00-2.98078E-03 5.94533E-01 8.89138E-15-7.06447E-13
 -1      4099 1.84530E+01 1.88023E+00-2.05197E-04 7.60406E-01 1.03693E-14-6.94268E-13
 -1      4100 1.83653E+01 2.17747E+00-3.34843E-03 4.96346E-01 3.79391E-14-7.32003E-13
 -1      4101 1.89026E+01 1.68685E+00-2.76021E-03-8.91600E-01 2.58814E-13-5.16123E-13
 -1      4102 1.85412E+01 1.97876E+00-4.58162E-03-7.08307E-01 2.21624E-13-5.74431E-13
 -1      4103 1.83064E+01 1.88108E+00 6.59873E-03-7.38671E-01 1.75250E-13-5.74749E-13
 -1      4104 1.88327E+01 1.42012E+00 2.68496E-03-1.14089E+00 1.69262E-13-4.74364E-13
 -1      4105 1.36223E+01 8.47808E-01 7.52020E-02-1.28576E+00 1.38028E-13 4.92176E-14
 -1      4106 1.46583E+01 5.45305E-01 1.00243E-02-1.82829E+00 2.63413E-13-1.37581E-13
 -1      4107 1.37409E+01 9.12276E-01-7.86488E-03-3.91645E-01 1.32971E-14 2.86299E-14
 -1      4108 2.00065E+01 7.52072E-03-3.07478E-05-4.99787E-04 7.33966E-14-4.38068E-13
 -1      4109 2.00063E+01 7.18793E-03-5.65455E-05-1.02353E-03 1.81146E-14-2.15871E-13
 -1      4110 2.00071E+01 1.14721E-02 8.03986E-05-2.84289E-04 1.66162E-13-2.28068E-13
 -1      4111 2.00070E+01 1.02249E-02 6.34764E-05-1.34911E-04 1.81447E-13-2.81493E-13
 -1      4112 1.53020E+01 1.36917E+00 4.52240E-02 5.02400E-01 9.81003E-14-7.13525E-13
 -1      4113 1.55111E+01 1.34649E+00-1.12003E-02-1.10601E-01 4.74859E-14-6.64807E-13
 -1      4114 1.54043E+01 7.72556E-01-1.88816E-02-1.43850E+00 2.30475E-13-2.22840E-13
 -1      4115 1.58185E+01 4.49489E-01 2.11963E-02-2.09890E+00 2.69999E-13-1.18816E-13
 -1      4116 2.00069E+01 1.14714E-02-2.46654E-05 2.43185E-04 7.48811E-14-3.14680E-13
 -1      4117 1.56120E+01 1.10623E+00-2.00450E-02-1.15428E+00-1.40497E-14-6.68636E-13
 -1      4118 1.57656E+01 8.57518E-01 5.41579E-02-1.87134E+00-6.85240E-14-6.70006E-13
 -1      4119 1.64673E+01 5.35592E-01-1.22730E-02-2.15542E+00-9.47698E-14-5.84872E-13
 -1      4120 1.57270E+01 6.67014E-01-2.04566E-02 1.64568E+00-1.74514E-13 1.78767E-13
 -1      4121 1.80013E+01 1.47707E+00-7.21937E-03 1.11078E+00 9.23580E-14-6.26197E-13
 -1      4122 1.78916E+01 1.31588E+00 4.02696E-03 1.28859E+00 1.00919E-13-6.06127E-13
 -1      4123 1.73422E+01 1.43200E+00 1.72376E-02 1.15643E+00 1.22450E-13-6.43411E-13
 -1      4124 1.74495E+01 6.11706E-01-8.15156E-03-1.96789E+00-6.92155E-15-5.31562E-13
 -1      4125 1.70403E+01 1.04339E+00 1.38043E-02-1.60845E+00 1.44695E-14-5.63128E-13
 -1      4126 1.84976E+01 1.13024E+00-4.29311E-04-1.43789E+00 9.72566E-14-4.94290E-13
 -1      4127 1.86632E+01 1.25818E+00-5.15590E-03-1.28909E+00 1.23604E-13-4.89377E-13
 -1      4128 1.83477E+01 1.52050E+00 8.25232E-04-1.10600E+00 1.47874E-13-5.33101E-13
 -1      4129 1.79786E+01 1.22055E+00 3.91183E-03-1.40502E+00 1.03312E-13-5.60109E-13
 -1      4130 1.83440E+01 1.71522E+00-8.43125E-04 9.07494E-01 3.29060E-14-6.70152E-13
 -1      4131 1.63823E+01 1.09230E+00 2.18226E-02 1.51245E+00 1.28661E-13-6.45298E-13
 -1      4132 1.79509E+01 5.94062E-01-1.26837E-02 1.57315E+00-2.06623E-13 1.75539E-13
 -1      4133 1.78743E+01 4.34980E-01 4.24441E-03 1.79131E+00-1.26688E-13 1.63227E-13
 -1      4134 1.70455E+01 6.92132E-01 2.07576E-02 1.65922E+00-1.42372E-13 1.25737E-13
 -1      4135 1.77020E+01 8.34428E-01 1.39983E-02 1.32839E+00-1.71603E-13 1.59555E-13
 -1      4136 1.56595E+01 1.18431E+00-8.01739E-03 1.01568E+00 1.27872E-13-6.84627E-13
 -1      4137 1.81461E+01 2.31000E+00-3.63461E-03 2.21257E-01 8.45277E-14-7.09496E-13
 -1      4138 1.82301E+01 2.25373E+00-3.72923E-03 3.45663E-01 5.30751E-14-7.30340E-13
 -1      4139 1.81295E+01 2.08063E+00 3.88143E-03 4.72733E-01 4.17867E-14-6.95962E-13
 -1      4140 1.79693E+01 2.17577E+00 9.07192E-03 1.35401E-01 1.13630E-13-6.71070E-13
 -1      4141 2.00069E+01 1.26802E-02-2.64486E-06-3.13987E-06 2.26702E-13-2.54865E-13
 -1      4142 2.00069E+01 1.34325E-02-5.20938E-05-8.88055E-05 2.43056E-13-3.90295E-13
 -1      4143 1.77958E+01 1.96279E+00 1.78212E-03-4.61572E-01 1.57222E-13-6.36873E-13
 -1      4144 1.76736E+01 2.01381E+00-7.20035E-03-2.14937E-01 1.44742E-13-6.72915E-13
 -1      4145 2.00069E+01 1.21379E-02-2.28508E-05 1.57227E-04 2.48573E-13-1.08211E-13
 -1      4146 2.00069E+01 1.23043E-02-4.89446E-05-2.67997E-05 1.80823E-13-1.38506E-13
 -1      4147 2.00070E+01 1.60599E-02 4.76282E-05-1.53883E-04 2.22489E-13-3.19427E-13
 -1      4148 2.00070E+01 1.49605E-02 3.26297E-05-2.15715E-04-1.12296E-14-4.10157E-13
 -1      4149 1.76640E+01 2.02957E+00-4.00788E-03 3.87511E-02 1.49686E-13-6.35706E-13
 -1      4150 1.76909E+01 2.01315E+00-6.18458E-03 2.03241E-01 9.62291E-14-6.42630E-13
 -1      4151 1.74166E+01 1.88505E+00-2.38053E-03-1.53709E-01 1.14286E-13-6.38552E-13
 -1      4152 1.51334E+01 1.03873E+00 2.39831E-02-8.14868E-01 1.40988E-13-2.54339E-13
 -1      4153 1.60742E+01 9.40339E-01 1.04091E-02-1.12310E+00 2.01035E-13-2.69861E-13
 -1      4154 1.57777E+01 1.42703E+00 3.63845E-02-5.76654E-01 3.21297E-14-6.61291E-13
 -1      4155 1.61465E+01 1.25075E+00-9.10688E-03-1.00216E+00 9.65634E-15-6.45800E-13
 -1      4156 1.60303E+01 1.45699E+00-1.31147E-02-4.56938E-02 7.06805E-14-6.46541E-13
 -1      4157 1.90678E+01 8.31635E-01-4.60408E-03 3.82650E-01-5.70801E-14-2.90944E-13
 -1      4158 1.89536E+01 8.82578E-01-9.99334E-04 4.34315E-01-9.94343E-15-2.35842E-13
 -1      4159 1.64334E+01 1.01842E+00-1.25269E-02-9.32772E-01 1.67418E-13-3.46116E-13
 -1      4160 1.70857E+01 1.05921E+00-6.11425E-03-8.43347E-01 1.77811E-13-3.33878E-13
 -1      4161 1.73831E+01 1.08229E+00-1.36917E-02-7.17239E-01 1.29326E-13-2.72937E-13
 -1      4162 1.77297E+01 1.09622E+00-2.41347E-03-6.44144E-01 3.34243E-14-2.78389E-13
 -1      4163 1.79663E+01 1.08658E+00-8.22848E-03-5.56510E-01-1.83806E-14-2.55785E-13
 -1      4164 1.74289E+01 1.18932E+00 1.59506E-02-4.17533E-01 1.13310E-13-3.72726E-13
 -1      4165 1.82306E+01 1.06624E+00-2.05082E-03-5.04198E-01-2.47748E-14-2.10363E-13
 -1      4166 1.84163E+01 1.03196E+00-7.71734E-03-4.43208E-01 2.21957E-14-1.54167E-13
 -1      4167 1.80075E+01 1.14822E+00 1.20783E-02-3.22973E-01 4.35229E-14-3.15694E-13
 -1      4168 1.86244E+01 9.96462E-01-2.10250E-03-3.98853E-01-2.81091E-14-1.52443E-14
 -1      4169 1.87781E+01 9.48198E-01-5.02076E-03-3.50776E-01-5.24587E-14-1.61845E-14
 -1      4170 1.84497E+01 1.08219E+00 1.22834E-02-2.49449E-01 4.28762E-14-2.72932E-13
 -1      4171 1.89409E+01 8.97111E-01-2.14840E-03-3.18954E-01-1.14414E-13-3.07617E-14
 -1      4172 1.90660E+01 8.41117E-01-3.78216E-03-2.80353E-01-9.46557E-14-2.79405E-14
 -1      4173 1.88118E+01 9.74347E-01 1.07429E-02-2.01127E-01-3.35124E-14-2.15575E-13
 -1      4174 1.91947E+01 7.85782E-01-1.57820E-03-2.54757E-01-1.14649E-13-5.15412E-14
 -1      4175 1.92967E+01 7.28055E-01-2.01866E-03-2.21815E-01-1.62548E-13 1.50204E-14
 -1      4176 1.90903E+01 8.51465E-01 6.29860E-03-1.64157E-01-8.13300E-14-1.70074E-13
 -1      4177 1.93963E+01 6.69947E-01-1.28882E-03-2.04327E-01-1.98310E-13-8.96503E-14
 -1      4178 1.94746E+01 6.14518E-01-2.04081E-03-1.77285E-01-4.89230E-14-1.28430E-13
 -1      4179 1.93186E+01 7.24489E-01 3.81562E-03-1.33423E-01-1.62981E-13-1.59990E-13
 -1      4180 1.95547E+01 5.60658E-01-6.82994E-04-1.60670E-01 3.64337E-14-2.70971E-13
 -1      4181 1.96144E+01 5.07925E-01-2.07897E-03-1.38816E-01-1.74969E-14-2.53100E-13
 -1      4182 1.94923E+01 6.11400E-01 3.35524E-03-1.04131E-01-1.38325E-13-2.91689E-13
 -1      4183 1.96768E+01 4.59784E-01-7.08347E-04-1.24498E-01-5.36246E-14-2.57737E-13
 -1      4184 1.97238E+01 4.13039E-01-1.40399E-03-1.05974E-01-3.51696E-14-3.43263E-13
 -1      4185 1.96283E+01 5.07208E-01 3.47720E-03-7.95338E-02-1.05793E-14-3.10123E-13
 -1      4186 1.97712E+01 3.69504E-01-6.52855E-04-9.52545E-02-4.10758E-14-3.06854E-13
 -1      4187 1.98071E+01 3.28985E-01-1.10195E-03-8.02198E-02-1.28583E-14-4.46143E-13
 -1      4188 1.97363E+01 4.09839E-01 3.12803E-03-6.13078E-02 1.46580E-14-1.97054E-13
 -1      4189 1.98427E+01 2.91850E-01-4.80216E-04-7.17548E-02 3.14899E-14-5.01366E-13
 -1      4190 1.98693E+01 2.57604E-01-8.44353E-04-5.96627E-02 4.45587E-14-4.98502E-13
 -1      4191 1.98168E+01 3.25348E-01 2.42745E-03-4.66488E-02-1.97529E-14-3.01655E-13
 -1      4192 1.98956E+01 2.26556E-01-3.47644E-04-5.30455E-02 9.54749E-15-5.48131E-13
 -1      4193 1.99150E+01 1.98248E-01-6.37921E-04-4.34403E-02 5.82696E-14-5.69955E-13
 -1      4194 1.98767E+01 2.53859E-01 1.82893E-03-3.47583E-02 3.68813E-15-5.79126E-13
 -1      4195 1.99341E+01 1.72821E-01-2.47239E-04-3.83604E-02 7.30808E-14-5.99007E-13
 -1      4196 1.99478E+01 1.49888E-01-4.74173E-04-3.08484E-02 1.76834E-13-5.10404E-13
 -1      4197 1.99206E+01 1.94671E-01 1.34922E-03-2.53243E-02 1.17436E-14-5.60791E-13
 -1      4198 1.99613E+01 1.29465E-01-1.71756E-04-2.70195E-02 2.51594E-13-6.03326E-13
 -1      4199 1.99708E+01 1.11233E-01-3.45880E-04-2.12418E-02 1.17027E-13-5.18169E-13
 -1      4200 1.99520E+01 1.46642E-01 9.74390E-04-1.79835E-02 9.08596E-14-6.88919E-13
 -1      4201 1.99801E+01 9.51281E-02-1.15772E-04-1.84109E-02 7.15933E-14-5.61055E-13
 -1      4202 1.99864E+01 8.08929E-02-2.46921E-04-1.40444E-02 1.28537E-13-4.12191E-13
 -1      4203 1.99738E+01 1.08397E-01 6.87060E-04-1.23756E-02 9.56995E-14-9.40086E-13
 -1      4204 1.99925E+01 6.84174E-02-7.49103E-05-1.19949E-02 6.11768E-14-3.16644E-13
 -1      4205 1.99964E+01 5.74947E-02-1.71856E-04-8.75572E-03 1.19003E-13-3.60946E-13
 -1      4206 1.99885E+01 7.84855E-02 4.70197E-04-8.17247E-03 1.40160E-13-5.11408E-13
 -1      4207 2.00002E+01 4.79977E-02-4.55680E-05-7.30476E-03 8.39153E-14-4.75456E-13
 -1      4208 2.00024E+01 3.97549E-02-1.13372E-04-4.95016E-03 2.44434E-14-4.12309E-13
 -1      4209 1.99978E+01 5.54900E-02 3.05790E-04-5.08896E-03-9.36077E-14-6.47304E-13
 -1      4210 2.00045E+01 3.25782E-02-4.43699E-05-3.96031E-03 1.10407E-13-4.63621E-13
 -1      4211 2.00057E+01 2.65213E-02-4.06225E-05-2.27799E-03 1.45980E-13-5.03284E-13
 -1      4212 2.00032E+01 3.80583E-02 1.58794E-04-2.88313E-03-3.93738E-14-7.17080E-13
 -1      4213 2.00068E+01 1.90289E-02-3.27931E-05-1.25991E-03 5.87944E-14-3.53237E-13
 -1      4214 1.84428E+01 9.90206E-01-7.82921E-03 6.14211E-01 8.74430E-14-9.78597E-14
 -1      4215 1.82815E+01 1.01046E+00 8.81566E-04 7.02181E-01 4.66608E-14-1.02304E-13
 -1      4216 1.79301E+01 1.86681E-01 2.49641E-02-2.41576E+00-6.62934E-14-5.03615E-13
 -1      4217 1.80181E+01 1.00759E+00-9.93788E-03 7.82179E-01-4.47895E-15-8.07947E-14
 -1      4218 1.78113E+01 9.90024E-01-3.95310E-03 9.06031E-01-5.91884E-14-1.57380E-14
 -1      4219 1.80036E+01 1.09820E+00 9.75540E-03 5.43523E-01 7.61836E-14-1.03541E-13
 -1      4220 1.92944E+01 7.25580E-01-3.00021E-03 3.01986E-01-1.92830E-13-3.29518E-13
 -1      4221 1.91989E+01 7.79722E-01-1.49430E-03 3.43001E-01-1.47584E-13-3.74775E-13
 -1      4222 1.90748E+01 8.61476E-01 8.86679E-03 2.67488E-01-8.00455E-14-3.88936E-13
 -1      4223 1.94719E+01 6.17759E-01-2.31491E-03 2.37362E-01-8.99657E-14-2.44899E-13
 -1      4224 1.93967E+01 6.72882E-01-6.41216E-04 2.72257E-01-1.88035E-13-3.02197E-13
 -1      4225 1.93029E+01 7.36607E-01 4.84523E-03 2.07173E-01-1.93641E-13-4.47698E-13
 -1      4226 1.96104E+01 5.14917E-01-2.16987E-03 1.85305E-01-2.18417E-13-1.27207E-13
 -1      4227 1.95537E+01 5.66867E-01-7.12068E-05 2.14712E-01-5.41993E-14-2.40072E-13
 -1      4228 1.94799E+01 6.20158E-01 2.99380E-03 1.60689E-01-8.28864E-14-3.87462E-13
 -1      4229 1.97192E+01 4.19859E-01-1.84965E-03 1.41879E-01-3.55533E-13-1.92542E-13
 -1      4230 1.96750E+01 4.66741E-01-3.32665E-04 1.65489E-01-2.82155E-13-2.05421E-13
 -1      4231 1.96165E+01 5.17180E-01 2.97215E-03 1.25515E-01-1.94670E-13-4.62164E-13
 -1      4232 1.98029E+01 3.36013E-01-1.48017E-03 1.07221E-01-2.41549E-13-3.34339E-13
 -1      4233 1.97692E+01 3.77164E-01-2.66167E-04 1.26298E-01-3.18107E-13-2.97919E-13
 -1      4234 1.97268E+01 4.21743E-01 3.38513E-03 9.69063E-02-2.52060E-13-5.59710E-13
 -1      4235 1.98657E+01 2.64172E-01-1.16000E-03 7.97384E-02-2.41972E-14-4.68830E-13
 -1      4236 1.98407E+01 2.99217E-01-1.66209E-04 9.50139E-02-1.61987E-13-4.21576E-13
 -1      4237 1.98095E+01 3.36428E-01 2.76427E-03 7.33782E-02-9.24920E-14-7.88674E-13
 -1      4238 1.99121E+01 2.04076E-01-8.95680E-04 5.81448E-02-1.45060E-13-3.20544E-13
 -1      4239 1.98939E+01 2.33214E-01-9.00538E-05 7.02303E-02-2.41952E-14-3.67196E-13
 -1      4240 1.98712E+01 2.63561E-01 2.11413E-03 5.45263E-02-6.03477E-14-5.71350E-13
 -1      4241 1.99455E+01 1.54869E-01-6.81292E-04 4.14157E-02-2.27630E-13-3.68906E-13
 -1      4242 1.99327E+01 1.78589E-01-3.83543E-05 5.08411E-02-2.44154E-13-3.62440E-13
 -1      4243 1.99164E+01 2.02878E-01 1.57099E-03 3.96923E-02-1.94115E-13-4.92210E-13
 -1      4244 1.99690E+01 1.15366E-01-5.09680E-04 2.86578E-02-1.95074E-13-3.51318E-13
 -1      4245 1.99603E+01 1.34305E-01-4.65155E-06 3.58939E-02-1.95679E-13-2.94958E-13
 -1      4246 1.99489E+01 1.53405E-01 1.14090E-03 2.82117E-02-2.34714E-13-6.66002E-13
 -1      4247 1.99851E+01 8.42389E-02-3.74369E-04 1.90921E-02-2.39712E-14-6.07012E-13
 -1      4248 1.99793E+01 9.90853E-02 1.59616E-05 2.45548E-02-1.19780E-13-4.64516E-13
 -1      4249 1.99716E+01 1.13846E-01 8.08976E-04 1.94705E-02-8.78246E-14-6.94526E-13
 -1      4250 1.99955E+01 6.01486E-02-2.69426E-04 1.20510E-02 9.72516E-14-5.93573E-13
 -1      4251 1.99919E+01 7.15813E-02 2.71947E-05 1.61013E-02 9.37238E-14-6.05288E-13
 -1      4252 1.99870E+01 8.27879E-02 5.57777E-04 1.29288E-02 1.17467E-13-7.07562E-13
 -1      4253 2.00018E+01 4.18298E-02-1.83471E-04 6.97206E-03 2.55171E-13-5.64729E-13
 -1      4254 1.99998E+01 5.04831E-02 3.24959E-05 9.91580E-03 1.27667E-13-5.20915E-13
 -1      4255 1.99968E+01 5.88332E-02 3.70253E-04 8.12649E-03 5.40785E-14-8.92028E-13
 -1      4256 2.00054E+01 2.81553E-02-8.06837E-05 3.44281E-03 3.79240E-13-5.05683E-13
 -1      4257 2.00044E+01 3.45116E-02 2.30236E-05 5.45250E-03 4.35639E-13-5.10417E-13
 -1      4258 2.00027E+01 4.06667E-02 2.17489E-04 4.65701E-03 3.12211E-13-6.81175E-13
 -1      4259 1.64358E+01 3.61146E-01 1.92579E-03-2.12521E+00 2.54335E-13-1.08261E-13
 -1      4260 1.64403E+01 1.34910E+00-1.48584E-02 9.10086E-01 8.98175E-14-6.60302E-13
 -1      4261 1.62823E+01 8.37776E-01 3.96002E-03 1.32678E+00-1.56420E-13 1.65172E-13
 -1      4262 1.55174E+01 9.75261E-01 1.95522E-02 1.09875E+00-1.74762E-13 2.34723E-13
 -1      4263 2.00070E+01 1.39885E-02-2.72601E-08 1.03330E-04 2.14820E-13-2.92820E-13
 -1      4264 2.00069E+01 1.43299E-02-5.68130E-05 1.87141E-04 2.77169E-13-2.82729E-13
 -1      4265 2.00070E+01 1.73653E-02 4.96962E-05 1.02177E-03 3.38018E-13-3.48335E-13
 -1      4266 2.00070E+01 1.68544E-02 3.72068E-05 3.66949E-04 2.62777E-13-3.40093E-13
 -1      4267 1.87881E+01 9.24008E-01-6.22983E-03 4.83508E-01-1.45191E-14-2.03198E-13
 -1      4268 1.86509E+01 9.63716E-01-7.94331E-04 5.48626E-01 7.34570E-14-8.50052E-14
 -1      4269 1.84346E+01 1.05569E+00 1.02305E-02 4.26504E-01 1.12157E-13-1.83102E-13
 -1      4270 1.42938E+01 1.07186E+00 4.33227E-02 3.77113E-01-8.09029E-14 5.89442E-14
 -1      4271 1.46708E+01 1.02398E+00-4.41003E-03-3.60458E-01 7.14741E-14-9.71445E-14
 -1      4272 1.53148E+01 1.09235E+00-2.99107E-02-8.84808E-02 3.24174E-14-2.58236E-13
 -1      4273 1.50023E+01 9.77153E-01 5.90878E-03 8.24355E-01-1.06325E-13 1.61201E-13
 -1      4274 1.68393E+01 1.46858E+00-7.45882E-03 8.01381E-01 9.61698E-14-6.51598E-13
 -1      4275 1.63910E+01 1.60906E+00 3.11640E-02 3.43780E-01 8.32667E-14-6.41772E-13
 -1      4276 1.70816E+01 1.60171E+00-1.84751E-02 6.49507E-01 1.05999E-13-6.62414E-13
 -1      4277 1.79392E+01 1.77813E+00 3.93040E-03 7.86418E-01 6.33015E-14-6.59911E-13
 -1      4278 1.67264E+01 1.25137E+00 4.89643E-03-1.30669E+00 2.34977E-14-6.08258E-13
 -1      4279 1.75210E+01 1.25563E+00 6.35017E-03-1.30287E+00 7.94326E-14-5.80180E-13
 -1      4280 1.77107E+01 1.40424E+00-1.71567E-03-1.15848E+00 1.18836E-13-5.65211E-13
 -1      4281 1.67112E+01 1.47562E+00-6.38702E-03-7.83836E-01 7.24087E-14-6.29170E-13
 -1      4282 1.64607E+01 1.18736E+00 2.10063E-02-5.26787E-01 1.75140E-13-5.86240E-13
 -1      4283 1.74339E+01 1.12151E+00 1.20619E-02 6.57815E-01 5.16774E-15-1.17780E-13
 -1      4284 1.74747E+01 9.82153E-01-1.16526E-02 9.66587E-01-6.09839E-14 1.46992E-14
 -1      4285 1.71727E+01 9.50699E-01-7.24910E-03 1.08622E+00-9.28125E-14 5.02641E-14
 -1      4286 2.00064E+01 2.26552E-02 5.80867E-05-1.04966E-03 1.05937E-13-4.95698E-13
 -1      4287 1.64520E+01 1.57491E+00-1.09790E-02-9.36299E-02 5.01938E-14-6.18150E-13
 -1      4288 2.00065E+01 2.05472E-02-5.26247E-05 1.57282E-03 2.61604E-13-4.41887E-13
 -1      4289 2.00062E+01 2.42242E-02 2.53163E-05 2.73302E-03 2.43412E-13-4.67529E-13
 -1      4290 2.00055E+01 2.82772E-02 3.12233E-05 2.39022E-03 3.67869E-13-4.01810E-13
 -1      4291 2.00066E+01 2.06199E-02 2.36927E-05 1.12444E-03 2.07873E-13-3.74678E-13
 -1      4292 1.87955E+01 9.71271E-01 1.18919E-02 3.38192E-01-1.40159E-14-2.20625E-13
 -1      4293 2.00066E+01 1.95450E-02-8.59722E-06 1.64516E-04 3.46949E-13-4.15170E-13
 -1      4294 2.00066E+01 1.99385E-02-4.55167E-05 5.28288E-04 2.67094E-13-2.46264E-13
 -1      4295 2.00063E+01 2.36114E-02 4.55140E-05 9.36674E-04 2.76981E-13-2.25683E-13
 -1      4296 1.66526E+01 8.98818E-01-1.58036E-02 1.18000E+00-1.39452E-13 1.76897E-13
 -1      4297 1.70992E+01 1.76981E+00-1.86122E-03-1.05103E-01 9.24321E-14-6.38818E-13
 -1      4298 1.71086E+01 1.80745E+00 1.59239E-02 1.69434E-01 8.95198E-14-6.10254E-13
 -1      4299 1.55418E+01 1.11748E+00 7.45368E-03 5.51135E-01-1.64376E-13 7.41873E-14
 -1      4300 1.80171E+01 1.81931E+00-7.08725E-03-7.50863E-01 1.42828E-13-5.90660E-13
 -1      4301 1.77047E+01 1.73785E+00 4.28502E-03-7.13384E-01 1.36488E-13-6.20910E-13
 -1      4302 1.77675E+01 1.86240E+00-6.96680E-05 6.20719E-01 9.79325E-14-6.50616E-13
 -1      4303 2.00067E+01 1.91030E-02-2.04350E-05-1.50068E-04 3.07970E-13-3.22608E-13
 -1      4304 1.69173E+01 1.68216E+00 1.25306E-02-4.47489E-01 9.00400E-14-6.42019E-13
 -1      4305 1.74358E+01 1.75936E+00 1.98449E-03 5.31487E-01 1.09882E-13-6.44233E-13
 -1      4306 1.93143E+01 7.12912E-01-1.75539E-03 1.07029E-01-1.23190E-13-4.43001E-13
 -1      4307 1.92095E+01 7.80882E-01 1.58674E-03 1.26397E-01-1.90898E-13-4.58518E-13
 -1      4308 1.78080E+01 1.15583E+00-5.64426E-03-1.03056E-01 1.16343E-13-4.82802E-13
 -1      4309 1.80600E+01 1.14296E+00 1.88733E-05-8.08509E-02 1.06334E-13-3.93192E-13
 -1      4310 1.83645E+01 1.06094E+00-7.96265E-03 6.54216E-02 3.37466E-14-3.83565E-13
 -1      4311 1.85708E+01 1.01228E+00-7.32955E-03 7.39414E-02 5.12445E-14-3.20069E-13
 -1      4312 1.87354E+01 9.57733E-01-8.77297E-03 4.65094E-02-1.93368E-14-3.95737E-13
 -1      4313 1.89011E+01 9.05695E-01-5.89578E-03 5.63921E-02-3.92248E-14-3.75882E-13
 -1      4314 1.92167E+01 7.66443E-01-2.21092E-03-6.28608E-02-1.13153E-13-3.22192E-13
 -1      4315 1.93202E+01 7.07602E-01-2.47256E-03-5.07682E-02-1.99915E-13-3.42180E-13
 -1      4316 1.94371E+01 6.37807E-01-7.85974E-04-3.77200E-02-1.93673E-13-2.84879E-13
 -1      4317 1.95123E+01 5.85997E-01-1.08586E-05-3.03129E-02-8.62398E-14-2.55511E-13
 -1      4318 1.96032E+01 5.08931E-01-2.26122E-03 1.51711E-02-6.33818E-14-2.62825E-13
 -1      4319 1.96652E+01 4.58382E-01-1.91608E-03 1.97761E-02-8.67086E-14-2.59258E-13
 -1      4320 1.97141E+01 4.10712E-01-2.57889E-03 1.02871E-02-7.63970E-14-3.61159E-13
 -1      4321 1.97620E+01 3.67799E-01-1.67222E-03 1.49514E-02-1.77417E-14-3.95909E-13
 -1      4322 1.97995E+01 3.26673E-01-2.10556E-03 7.20771E-03 1.52828E-14-4.94433E-13
 -1      4323 1.98358E+01 2.90056E-01-1.28542E-03 1.12525E-02 1.11729E-14-5.50066E-13
 -1      4324 1.98638E+01 2.55426E-01-1.62069E-03 5.01758E-03-5.62007E-14-5.54334E-13
 -1      4325 1.98907E+01 2.24815E-01-9.46927E-04 8.34319E-03-4.58995E-14-5.52890E-13
 -1      4326 1.99111E+01 1.96281E-01-1.21536E-03 3.41919E-03-9.00446E-14-5.71552E-13
 -1      4327 1.99307E+01 1.71215E-01-6.78947E-04 6.07933E-03-9.63426E-14-5.97163E-13
 -1      4328 1.99453E+01 1.48168E-01-8.92764E-04 2.25434E-03-1.61690E-13-6.36778E-13
 -1      4329 1.99591E+01 1.28038E-01-4.73848E-04 4.33805E-03-7.46592E-14-6.99696E-13
 -1      4330 1.99692E+01 1.09769E-01-6.41849E-04 1.41464E-03 9.62225E-14-7.34298E-13
 -1      4331 1.99787E+01 9.38982E-02-3.20189E-04 3.01534E-03 1.58255E-13-7.90493E-13
 -1      4332 1.99854E+01 7.96741E-02-4.49726E-04 8.19658E-04 1.26958E-13-8.20653E-13
 -1      4333 1.99917E+01 6.73814E-02-2.06427E-04 2.02426E-03 3.70441E-14-8.19416E-13
 -1      4334 1.99959E+01 5.65024E-02-3.02262E-04 4.10488E-04 4.65474E-14-7.59331E-13
 -1      4335 1.99998E+01 4.71421E-02-1.18506E-04 1.29926E-03 2.65889E-14-7.44294E-13
 -1      4336 2.00022E+01 3.90052E-02-1.71259E-04 1.50592E-04 6.31859E-14-5.09936E-13
 -1      4337 2.00044E+01 3.20162E-02-3.84930E-05 6.79341E-04 1.44221E-13-4.56518E-13
 -1      4338 1.57673E+01 1.12988E+00-1.00313E-02 1.48883E-01-1.74648E-14-2.43590E-13
 -1      4339 1.65724E+01 1.12937E+00 1.61524E-02 7.47258E-01-3.58580E-14-2.42961E-14
 -1      4340 1.80525E+01 1.10616E+00-7.75106E-03 3.06483E-01 1.52985E-13-3.75711E-13
 -1      4341 1.78150E+01 1.13178E+00-3.57622E-03 3.64002E-01 8.85402E-14-2.92839E-13
 -1      4342 1.95053E+01 5.86310E-01-1.94893E-03 8.83169E-02-1.39638E-13-2.53295E-13
 -1      4343 1.94286E+01 6.42137E-01-1.49282E-03 1.05330E-01-7.99502E-14-2.97603E-13
 -1      4344 1.64383E+01 1.16606E+00-1.13600E-02 8.99825E-02 1.03289E-13-3.84130E-13
 -1      4345 1.73150E+01 1.65412E+00-1.06599E-02-7.10970E-01 1.08326E-13-6.43659E-13
 -1      4346 1.90350E+01 8.48702E-01-5.39373E-03 3.60188E-02-8.22909E-14-3.08537E-13
 -1      4347 1.69622E+01 1.17289E+00-6.87107E-03 1.15904E-01 1.10856E-13-4.03595E-13
 -1      4348 1.93666E+01 6.88076E-01 1.85507E-03 2.97674E-02-1.54166E-13-3.96527E-13
 -1      4349 1.91652E+01 7.91427E-01-3.65634E-03 4.13191E-02-1.41180E-13-3.12413E-13
 -1      4350 2.00054E+01 2.78931E-02 3.64604E-05 1.47319E-03 3.43730E-13-1.94753E-13
 -1      4351 2.00055E+01 2.65340E-02-6.51232E-05-8.50192E-04 2.06332E-13-5.21325E-13
 -1      4352 1.76226E+01 1.52396E+00 5.72863E-03-1.02819E+00 1.23274E-13-5.82218E-13
 -1      4353 1.95399E+01 5.62435E-01-1.42864E-03 2.43820E-02-7.44298E-14-2.02566E-13
 -1      4354 1.80667E+01 1.48214E+00-1.31614E-03-1.11965E+00 1.36459E-13-5.52958E-13
 -1      4355 1.82340E+01 1.62499E+00-3.09478E-03-9.79683E-01 1.65546E-13-5.46002E-13
 -1      4356 1.71494E+01 1.20979E+00-7.88695E-04-1.35569E-01 1.31625E-13-4.97910E-13
 -1      4357 1.75001E+01 1.17969E+00-7.29494E-03-1.02170E-01 5.39259E-14-4.74683E-13
 -1      4358 1.81602E+01 1.10364E+00-5.52950E-03 9.42634E-02 1.14592E-13-4.01655E-13
 -1      4359 1.76560E+01 1.19724E+00 8.40701E-03 1.58209E-01 9.99792E-14-5.00685E-13
 -1      4360 1.75164E+01 1.14485E+00-5.68179E-03 4.17821E-01 6.55279E-14-3.08613E-13
 -1      4361 1.71788E+01 1.15786E+00-2.89716E-03 4.42632E-01-1.18970E-15-3.32296E-13
 -3
    1PSTEP                         3           1           1          
  100CL  101 1.000000000        4361                     0    1           1
 -4  TOSTRAIN    6    1
 -5  EXX         1    4    1    1
 -5  EYY         1    4    2    2
 -5  EZZ         1    4    3    3
 -5  EXY         1    4    1    2
 -5  EYZ         1    4    2    3
 -5  EZX         1    4    3    1
 -1         1 1.14895E-04 1.04082E-05-4.89272E-05 1.05920E-04-2.25529E-17-3.33833E-17
 -1         2 3.59135E-05-1.10504E-04 2.01623E-05-1.69141E-06 5.69099E-18 1.00895E-18
 -1         3 9.52378E-05-2.85704E-05-2.85724E-05 8.99146E-10-1.90847E-18-2.42469E-18
 -1         4 9.52378E-05-2.85704E-05-2.85724E-05-7.96047E-10 1.39206E-18 1.80110E-19
 -1         5 1.42765E-04-2.11232E-05-4.28990E-05 3.77494E-05-4.81750E-19 3.39989E-17
 -1         6 1.44331E-04 2.61973E-10-4.45071E-05-5.22374E-05-2.20144E-18 2.78293E-17
 -1         7 9.30227E-05-7.08824E-07-3.97904E-05-2.72651E-05-3.14779E-19 2.23048E-18
 -1         8 8.74242E-05-2.00742E-10-3.71798E-05-1.73106E-05-3.02867E-19-4.95354E-18
 -1         9 8.44496E-05 3.38742E-08-3.59860E-05-1.21381E-05-2.82856E-19-8.60485E-18
 -1        10 8.24137E-05 2.67023E-08-3.51527E-05-8.47884E-06-1.46696E-19-1.00732E-17
 -1        11 8.08203E-05 2.91647E-08-3.45135E-05-5.72645E-06-9.25251E-20-1.06376E-17
 -1        12 7.95981E-05 3.45351E-08-3.40287E-05-3.65352E-06-1.91310E-20-1.06602E-17
 -1        13 7.87321E-05 4.08857E-08-3.36874E-05-2.00162E-06 2.10170E-20-1.04478E-17
 -1        14 7.82908E-05 4.44692E-08-3.35138E-05-6.24181E-07 7.24461E-20-1.01320E-17
 -1        15 7.83016E-05 4.42686E-08-3.35177E-05 6.66526E-07 1.20062E-19-9.78724E-18
 -1        16 7.87624E-05 4.02655E-08-3.36981E-05 2.05998E-06 1.70882E-19-9.34266E-18
 -1        17 7.96429E-05 3.25407E-08-3.40438E-05 3.74393E-06 2.03500E-19-8.69200E-18
 -1        18 8.08691E-05 2.69611E-08-3.45294E-05 5.85722E-06 2.60423E-19-7.60699E-18
 -1        19 8.24617E-05 2.53420E-08-3.51690E-05 8.66726E-06 3.48501E-19-5.90081E-18
 -1        20 8.44827E-05 3.85932E-08-3.60021E-05 1.23938E-05 4.43369E-19-2.93582E-18
 -1        21 8.73890E-05 7.69770E-08-3.72151E-05 1.75577E-05 4.81671E-19 2.36660E-18
 -1        22 9.37860E-05-2.68816E-07-3.94599E-05 2.60653E-05 6.09864E-20 1.24994E-17
 -1        23 1.15240E-04-3.89166E-05-3.61043E-05-3.82841E-06-1.56418E-18 2.03355E-17
 -1        24 9.76137E-05-2.91574E-05-3.04064E-05 4.78427E-07-4.10123E-19 1.36686E-17
 -1        25 9.61346E-05-2.89669E-05-2.90253E-05 4.21315E-07-2.23559E-19 7.40976E-18
 -1        26 9.73108E-05-2.92829E-05-2.91947E-05 2.60277E-07 9.17095E-21 3.32474E-18
 -1        27 9.98972E-05-3.00255E-05-2.99634E-05 2.18274E-07-1.66457E-19 5.61808E-19
 -1        28 1.03312E-04-3.10211E-05-3.09938E-05 2.05831E-07-4.57543E-20-1.73946E-18
 -1        29 1.07146E-04-3.21503E-05-3.21325E-05 2.02402E-07-2.89117E-20-3.67231E-18
 -1        30 1.10913E-04-3.32642E-05-3.32278E-05 1.87285E-07-3.75188E-20-5.38055E-18
 -1        31 1.13922E-04-3.41557E-05-3.40715E-05 1.34050E-07-4.45602E-21-6.81907E-18
 -1        32 1.15252E-04-3.45512E-05-3.43959E-05 1.18971E-08-3.48006E-19-8.69147E-18
 -1        33 1.13896E-04-3.41511E-05-3.39305E-05-1.98064E-07 2.55088E-19-9.70717E-18
 -1        34 1.09195E-04-3.27551E-05-3.25329E-05-4.67899E-07-4.40391E-21-9.87860E-18
 -1        35 1.01525E-04-3.04665E-05-3.03675E-05-6.88436E-07 1.87710E-19-1.02926E-17
 -1        36 9.28392E-05-2.78631E-05-2.80041E-05-6.93467E-07-7.37920E-20-1.08183E-17
 -1        37 8.63482E-05-2.59098E-05-2.62849E-05-3.84391E-07 4.95911E-20-1.17740E-17
 -1        38 8.49694E-05-2.54939E-05-2.59308E-05 1.31026E-07-3.12651E-19-1.27831E-17
 -1        39 8.94563E-05-2.68454E-05-2.71240E-05 5.78112E-07 6.44787E-20-1.41748E-17
 -1        40 9.78716E-05-2.93732E-05-2.93948E-05 7.40327E-07-2.43460E-20-1.54729E-17
 -1        41 1.06925E-04-3.20814E-05-3.19111E-05 6.16645E-07 1.27182E-19-1.53389E-17
 -1        42 1.13885E-04-3.41540E-05-3.39265E-05 3.58027E-07 1.15241E-19-1.42654E-17
 -1        43 1.17579E-04-3.52500E-05-3.50640E-05 1.14283E-07-3.42430E-19-1.32833E-17
 -1        44 1.18213E-04-3.54365E-05-3.53268E-05-4.58701E-08 1.33375E-20-1.22146E-17
 -1        45 1.16671E-04-3.49785E-05-3.49350E-05-1.21335E-07 4.45263E-20-1.10604E-17
 -1        46 1.13928E-04-3.41642E-05-3.41620E-05-1.38885E-07-8.18700E-20-1.04752E-17
 -1        47 1.10750E-04-3.32195E-05-3.32365E-05-1.26072E-07 1.39700E-19-9.22241E-18
 -1        48 1.07628E-04-3.22902E-05-3.23124E-05-1.01769E-07-5.52044E-20-7.58967E-18
 -1        49 1.04828E-04-3.14548E-05-3.14752E-05-7.62493E-08 2.69574E-19-8.93319E-18
 -1        50 1.02457E-04-3.07459E-05-3.07621E-05-5.40032E-08-1.17806E-19-1.00189E-17
 -1        51 1.00529E-04-3.01684E-05-3.01801E-05-3.63461E-08 2.51737E-19-7.58715E-18
 -1        52 9.90107E-05-2.97125E-05-2.97204E-05-2.31223E-08-2.63987E-19-6.50781E-18
 -1        53 9.78452E-05-2.93621E-05-2.93670E-05-1.36312E-08 5.23794E-19-6.10048E-18
 -1        54 9.69721E-05-2.90990E-05-2.91018E-05-7.06718E-09 2.81599E-20-7.71849E-18
 -1        55 9.63333E-05-2.89061E-05-2.89075E-05-2.69920E-09-3.04306E-19-1.08287E-17
 -1        56 9.58778E-05-2.87683E-05-2.87688E-05 7.37300E-11 5.96313E-19-1.16170E-17
 -1        57 9.55624E-05-2.86727E-05-2.86725E-05 1.71962E-09 4.90060E-19-9.91819E-18
 -1        58 9.53519E-05-2.86087E-05-2.86082E-05 2.59096E-09-4.63789E-19-1.12700E-17
 -1        59 9.52185E-05-2.85679E-05-2.85673E-05 2.94733E-09 4.33300E-19-1.16025E-17
 -1        60 9.51402E-05-2.85438E-05-2.85432E-05 2.97646E-09 3.04139E-19-8.79204E-18
 -1        61 9.51006E-05-2.85315E-05-2.85308E-05 2.81165E-09 2.80425E-19-6.96566E-18
 -1        62 9.50872E-05-2.85271E-05-2.85265E-05 2.54561E-09-6.05386E-19-7.99070E-18
 -1        63 9.50908E-05-2.85279E-05-2.85274E-05 2.24113E-09-3.26143E-19-9.10592E-18
 -1        64 9.51050E-05-2.85319E-05-2.85315E-05 1.93907E-09 5.90355E-20-1.18514E-17
 -1        65 9.51252E-05-2.85378E-05-2.85375E-05 1.66422E-09 8.32829E-20-1.22828E-17
 -1        66 9.51482E-05-2.85446E-05-2.85443E-05 1.42886E-09 4.89171E-19-1.08783E-17
 -1        67 9.51718E-05-2.85516E-05-2.85514E-05 1.23370E-09 2.65691E-19-6.98183E-18
 -1        68 9.51942E-05-2.85583E-05-2.85581E-05 1.06391E-09-1.40540E-19-4.08922E-18
 -1        69 9.52140E-05-2.85641E-05-2.85639E-05 8.70718E-10-1.28778E-19-4.49002E-18
 -1        70 9.52291E-05-2.85687E-05-2.85683E-05 4.78740E-10 6.05070E-19-3.30728E-18
 -1        71 9.52372E-05-2.85713E-05-2.85708E-05-1.54689E-10-7.00552E-19-9.11806E-19
 -1        72 1.04543E-04-3.12838E-05-3.49050E-05-2.11776E-06 3.43551E-19 3.16576E-17
 -1        73 9.73849E-05-2.89759E-05-3.03210E-05-3.82176E-07 2.88726E-19 2.47870E-17
 -1        74 9.60742E-05-2.88012E-05-2.90552E-05-1.51252E-07 1.49056E-19 1.96216E-17
 -1        75 9.72439E-05-2.92000E-05-2.92100E-05-1.23766E-07 1.89110E-20 1.65009E-17
 -1        76 9.97648E-05-2.99478E-05-2.99404E-05-1.23277E-07 1.34308E-19 1.41660E-17
 -1        77 1.03074E-04-3.09255E-05-3.09289E-05-1.39372E-07 1.61507E-19 1.21999E-17
 -1        78 1.06755E-04-3.20179E-05-3.20150E-05-1.65752E-07-1.78569E-19 1.13346E-17
 -1        79 1.10311E-04-3.30787E-05-3.30417E-05-1.91009E-07 1.05052E-19 1.05565E-17
 -1        80 1.13059E-04-3.39064E-05-3.38023E-05-1.93768E-07 2.70372E-20 8.76272E-18
 -1        81 1.14113E-04-3.42386E-05-3.40409E-05-1.40614E-07 1.13769E-19 7.09154E-18
 -1        82 1.12537E-04-3.37954E-05-3.35103E-05 4.03061E-09-1.54997E-20 5.97444E-18
 -1        83 1.07773E-04-3.23961E-05-3.20989E-05 2.45895E-07 2.00123E-19 5.62099E-18
 -1        84 1.00270E-04-3.01501E-05-2.99909E-05 5.14586E-07 1.03235E-19 4.92483E-18
 -1        85 9.19539E-05-2.76154E-05-2.77438E-05 6.56904E-07 7.58690E-21 4.42784E-18
 -1        86 8.58673E-05-2.57191E-05-2.61494E-05 5.29946E-07 1.21142E-19 3.26793E-18
 -1        87 8.47012E-05-2.53164E-05-2.58658E-05 1.48562E-07-4.33458E-19 3.69037E-18
 -1        88 8.91052E-05-2.66394E-05-2.70408E-05-2.91136E-07 9.79043E-20 3.91758E-18
 -1        89 9.72339E-05-2.91251E-05-2.92240E-05-5.59300E-07 6.67818E-19-4.67112E-19
 -1        90 1.05977E-04-3.17990E-05-3.16355E-05-5.75907E-07-5.98130E-19-1.97843E-18
 -1        91 1.12758E-04-3.38606E-05-3.35806E-05-4.23255E-07-4.74554E-21 1.10722E-18
 -1        92 1.16450E-04-3.49707E-05-3.47068E-05-2.25092E-07 8.17470E-20 1.19866E-18
 -1        93 1.17214E-04-3.51896E-05-3.50060E-05-6.28219E-08-1.93226E-19 4.25510E-19
 -1        94 1.15865E-04-3.47729E-05-3.46756E-05 3.81738E-08-1.39367E-19-1.25534E-18
 -1        95 1.13320E-04-3.40009E-05-3.39682E-05 8.60277E-08-2.09129E-19-1.55329E-18
 -1        96 1.10313E-04-3.30946E-05-3.31004E-05 9.89140E-08 1.63362E-19-8.59169E-19
 -1        97 1.07326E-04-3.21971E-05-3.22212E-05 9.29376E-08-1.27229E-19-8.32170E-19
 -1        98 1.04625E-04-3.13867E-05-3.14165E-05 7.88971E-08 4.83799E-19-1.47522E-18
 -1        99 1.02324E-04-3.06967E-05-3.07256E-05 6.29233E-08-3.52502E-19-1.13222E-18
 -1       100 1.00443E-04-3.01331E-05-3.01582E-05 4.80148E-08-5.44141E-20 3.33870E-18
 -1       101 9.89555E-05-2.96872E-05-2.97077E-05 3.53560E-08 1.16128E-19 1.28163E-18
 -1       102 9.78103E-05-2.93439E-05-2.93599E-05 2.51934E-08-7.83457E-20-1.29865E-18
 -1       103 9.69501E-05-2.90860E-05-2.90981E-05 1.73440E-08-3.02222E-19-6.94010E-19
 -1       104 9.63197E-05-2.88968E-05-2.89058E-05 1.14632E-08 1.37953E-19 3.33461E-19
 -1       105 9.58694E-05-2.87617E-05-2.87681E-05 7.17473E-09 1.39579E-19 9.31960E-19
 -1       106 9.55574E-05-2.86680E-05-2.86725E-05 4.13073E-09-4.24451E-19-1.17614E-18
 -1       107 9.53491E-05-2.86054E-05-2.86084E-05 2.03371E-09-1.10463E-19-2.67794E-18
 -1       108 9.52170E-05-2.85656E-05-2.85676E-05 6.40826E-10 2.36608E-19-4.40357E-18
 -1       109 9.51396E-05-2.85423E-05-2.85436E-05-2.40560E-10-4.18836E-19-1.13693E-18
 -1       110 9.51006E-05-2.85305E-05-2.85312E-05-7.60087E-10 4.73146E-20-1.35625E-18
 -1       111 9.50875E-05-2.85265E-05-2.85268E-05-1.03207E-09 9.78115E-19-1.62433E-18
 -1       112 9.50913E-05-2.85276E-05-2.85277E-05-1.14258E-09-6.25160E-20-1.76659E-18
 -1       113 9.51056E-05-2.85318E-05-2.85318E-05-1.15554E-09-1.31176E-19 1.11208E-18
 -1       114 9.51258E-05-2.85378E-05-2.85377E-05-1.11774E-09-1.25024E-18 2.59239E-18
 -1       115 9.51488E-05-2.85447E-05-2.85446E-05-1.06292E-09 1.26694E-19 2.58267E-18
 -1       116 9.51724E-05-2.85517E-05-2.85516E-05-1.01351E-09 5.43874E-19-3.73673E-18
 -1       117 9.51948E-05-2.85584E-05-2.85582E-05-9.78347E-10 3.31481E-19-7.13173E-18
 -1       118 9.52145E-05-2.85643E-05-2.85640E-05-9.40403E-10-6.44262E-19-7.59786E-18
 -1       119 9.52295E-05-2.85689E-05-2.85683E-05-7.72953E-10-6.66277E-19-4.82160E-18
 -1       120 9.52371E-05-2.85714E-05-2.85708E-05-8.07764E-11 6.43322E-19-2.61425E-18
 -1       121 9.52373E-05-2.85717E-05-2.85708E-05 1.10689E-10-1.66612E-18 7.58315E-19
 -1       122 9.52396E-05-2.85793E-05-2.85683E-05-5.69738E-10 3.62380E-18-2.57253E-19
 -1       123 9.52437E-05-2.85929E-05-2.85644E-05-8.34643E-10 5.90750E-18-1.14726E-18
 -1       124 9.52485E-05-2.86089E-05-2.85599E-05-8.28758E-10 2.11417E-18 1.15872E-18
 -1       125 9.52530E-05-2.86242E-05-2.85554E-05-6.94449E-10-2.73910E-18-3.12723E-19
 -1       126 9.52568E-05-2.86368E-05-2.85517E-05-5.19118E-10-1.04146E-17 5.98223E-20
 -1       127 9.52595E-05-2.86460E-05-2.85490E-05-3.15032E-10-9.71014E-18-4.73700E-19
 -1       128 9.52609E-05-2.86507E-05-2.85476E-05-1.04308E-10-1.19946E-17 6.76853E-19
 -1       129 9.52609E-05-2.86506E-05-2.85476E-05 1.07527E-10-7.05126E-18 7.92637E-19
 -1       130 9.52595E-05-2.86459E-05-2.85490E-05 3.17577E-10-5.27339E-18-7.44555E-19
 -1       131 9.52567E-05-2.86367E-05-2.85517E-05 5.27769E-10-1.09376E-17-2.35693E-18
 -1       132 9.52530E-05-2.86240E-05-2.85555E-05 6.98516E-10-1.66940E-17 1.86511E-18
 -1       133 9.52484E-05-2.86086E-05-2.85599E-05 8.29165E-10-7.92768E-18 2.91589E-20
 -1       134 9.52436E-05-2.85927E-05-2.85645E-05 8.89204E-10-4.87652E-18 5.97165E-19
 -1       135 9.52396E-05-2.85793E-05-2.85684E-05 7.93036E-10-1.85824E-18-5.48508E-19
 -1       136 9.52375E-05-2.85720E-05-2.85708E-05-4.26190E-10 6.99148E-19 1.75705E-19
 -1       137 2.45015E-05-8.40847E-05 1.49351E-05-2.30669E-05 2.02710E-17 5.42850E-18
 -1       138 6.86180E-06-3.03911E-05 2.35781E-06-1.70317E-05 2.38783E-17 1.09426E-17
 -1       139 1.28827E-05 1.67345E-05-1.61282E-05 2.64699E-05 2.20851E-17 1.73146E-17
 -1       140 6.36029E-05 2.64901E-05-3.69030E-05 8.26159E-05 1.81451E-17 2.18822E-17
 -1       141 1.65832E-04-1.26544E-05-5.84001E-05 1.13875E-04 1.06620E-17 2.10869E-17
 -1       142 2.58666E-04-6.46969E-05-7.22835E-05 8.84136E-05 3.21126E-18 9.38978E-18
 -1       143 3.07879E-04-9.44677E-05-7.88718E-05 1.55071E-05 6.87817E-19-7.36066E-18
 -1       144 2.84193E-04-7.96181E-05-7.58608E-05-6.53106E-05 4.81607E-18-2.43715E-17
 -1       145 1.96751E-04-2.86085E-05-6.35325E-05-1.12682E-04 1.50492E-17-3.39889E-17
 -1       146 9.88115E-05 1.67074E-05-4.55679E-05-1.00459E-04 2.51260E-17-3.57918E-17
 -1       147 2.84540E-05 2.70379E-05-2.49971E-05-5.10450E-05 3.17358E-17-2.90740E-17
 -1       148 4.70685E-06-6.97346E-06-5.10019E-06 2.08501E-06 2.96716E-17-1.78895E-17
 -1       149 1.66605E-05-6.41153E-05 1.05065E-05 2.55656E-05 1.73760E-17-6.09959E-18
 -1       150 3.40683E-05-1.06521E-04 1.92329E-05 1.41151E-05 7.91129E-19-4.76535E-19
 -1       151 3.44672E-05-1.06829E-04 1.92015E-05-1.42676E-05-1.58719E-17-2.17797E-18
 -1       152 1.70146E-05-6.54507E-05 1.08754E-05-2.66942E-05-3.06423E-17-1.08720E-17
 -1       153 5.35279E-06-9.87288E-06-4.32148E-06-2.98683E-06-3.66863E-17-2.16123E-17
 -1       154 3.56241E-05 2.49485E-05-2.67460E-05 5.57851E-05-3.26934E-17-3.15410E-17
 -1       155 2.15513E-04-3.89429E-05-6.62681E-05 1.09129E-04-1.07079E-17-2.72126E-17
 -1       156 2.94149E-04-8.58957E-05-7.69784E-05 5.58751E-05-2.53776E-18-1.31093E-17
 -1       157 3.06788E-04-9.37290E-05-7.86144E-05-2.64632E-05-8.01664E-19 4.54761E-18
 -1       158 2.45380E-04-5.66788E-05-7.04075E-05-9.53964E-05-5.61525E-18 1.79567E-17
 -1       159 1.46368E-04-3.49532E-06-5.49551E-05-1.12338E-04-1.32961E-17 2.39973E-17
 -1       160 5.70701E-05 2.72850E-05-3.49844E-05-7.73705E-05-2.18407E-17 2.44750E-17
 -1       161 1.04548E-05 1.40519E-05-1.43812E-05-2.14644E-05-2.45123E-17 1.82049E-17
 -1       162 7.90987E-06-3.45526E-05 3.32451E-06 1.86865E-05-1.97769E-17 9.21529E-18
 -1       163 2.65229E-05-8.94057E-05 1.59754E-05 2.40053E-05-9.37920E-18 2.58557E-18
 -1       164 9.81565E-05-1.35181E-05-3.64558E-05-1.94247E-05-4.56134E-18-1.21745E-18
 -1       165 9.17603E-05-9.10597E-06-3.55724E-05-1.40170E-05-3.76764E-18-5.53000E-18
 -1       166 8.77435E-05-6.54242E-06-3.49061E-05-1.00328E-05-2.82151E-18-7.81290E-18
 -1       167 8.49089E-05-4.95599E-06-3.43435E-05-6.97979E-06-1.83933E-18-8.72604E-18
 -1       168 8.27568E-05-3.84288E-06-3.38809E-05-4.65587E-06-9.70791E-19-9.01064E-18
 -1       169 8.11620E-05-3.06399E-06-3.35215E-05-2.80841E-06-2.16599E-19-8.87801E-18
 -1       170 8.01864E-05-2.60234E-06-3.32961E-05-1.30900E-06 5.89405E-19-8.70934E-18
 -1       171 7.98694E-05-2.45682E-06-3.32210E-05 1.78058E-08 1.25416E-18-8.46294E-18
 -1       172 8.02256E-05-2.62828E-06-3.33020E-05 1.35251E-06 1.85160E-18-8.01869E-18
 -1       173 8.12354E-05-3.11434E-06-3.35317E-05 2.87457E-06 2.49663E-18-7.53284E-18
 -1       174 8.28226E-05-3.90009E-06-3.38851E-05 4.72160E-06 3.13520E-18-6.74812E-18
 -1       175 8.50178E-05-5.04588E-06-3.43521E-05 7.12511E-06 3.88642E-18-5.42517E-18
 -1       176 8.78875E-05-6.67762E-06-3.49138E-05 1.02455E-05 4.57308E-18-3.38482E-18
 -1       177 9.19084E-05-9.25790E-06-3.55762E-05 1.42830E-05 4.84026E-18 1.28815E-19
 -1       178 9.89891E-05-1.47252E-05-3.63052E-05 1.90821E-05 4.36170E-18 6.41416E-18
 -1       179 1.08738E-04-2.72782E-05-3.60771E-05 1.66002E-05 3.12054E-18 1.44690E-17
 -1       180 1.07172E-04-2.85718E-05-3.36797E-05-9.92072E-06-4.08926E-18 4.52768E-18
 -1       181 1.02272E-04-2.98511E-05-3.10661E-05-2.53188E-06-3.53438E-18 2.69052E-18
 -1       182 1.00306E-04-2.96161E-05-3.02443E-05 5.60077E-07-2.48570E-18 1.05227E-18
 -1       183 1.00611E-04-2.99070E-05-3.02653E-05 2.19209E-06-1.82131E-18-3.42188E-19
 -1       184 1.02101E-04-3.04598E-05-3.06858E-05 3.16565E-06-1.37455E-18-1.30924E-18
 -1       185 1.04302E-04-3.12273E-05-3.13129E-05 3.67649E-06-1.15036E-18-2.11744E-18
 -1       186 1.06823E-04-3.21334E-05-3.20140E-05 3.67968E-06-9.57440E-19-2.62234E-18
 -1       187 1.09250E-04-3.30759E-05-3.26567E-05 3.00970E-06-7.94710E-19-2.94681E-18
 -1       188 1.11081E-04-3.38976E-05-3.30930E-05 1.47071E-06-8.57062E-19-2.96322E-18
 -1       189 1.11739E-04-3.43568E-05-3.31770E-05-1.00398E-06-4.18213E-19-3.09872E-18
 -1       190 1.10688E-04-3.41360E-05-3.28147E-05-4.09782E-06-4.06520E-19-4.02272E-18
 -1       191 1.07719E-04-3.29653E-05-3.20344E-05-6.87518E-06-4.13559E-19-4.45935E-18
 -1       192 1.03346E-04-3.09096E-05-3.10362E-05-7.88295E-06-7.49884E-19-5.23683E-18
 -1       193 9.90312E-05-2.86587E-05-3.01544E-05-5.92861E-06-8.70177E-19-5.80918E-18
 -1       194 9.67325E-05-2.73717E-05-2.97245E-05-1.24476E-06-8.63113E-19-6.74100E-18
 -1       195 9.77016E-05-2.78575E-05-2.99299E-05 4.14780E-06-6.50323E-19-7.79025E-18
 -1       196 1.01527E-04-2.98438E-05-3.07140E-05 7.72007E-06-6.13265E-19-8.32995E-18
 -1       197 1.06466E-04-3.22360E-05-3.18072E-05 8.23027E-06 1.04899E-19-8.20543E-18
 -1       198 1.10683E-04-3.40307E-05-3.28535E-05 6.23869E-06 1.23356E-19-8.42180E-18
 -1       199 1.13157E-04-3.48515E-05-3.35703E-05 3.19838E-06 2.87965E-19-8.35584E-18
 -1       200 1.13759E-04-3.48352E-05-3.38396E-05 3.61748E-07 5.91937E-19-7.57891E-18
 -1       201 1.12880E-04-3.42961E-05-3.36933E-05-1.65881E-06 5.27599E-19-7.07880E-18
 -1       202 1.11066E-04-3.35135E-05-3.32474E-05-2.78372E-06 1.09264E-18-6.00822E-18
 -1       203 1.08806E-04-3.26717E-05-3.26347E-05-3.19769E-06 1.14347E-18-5.00748E-18
 -1       204 1.06456E-04-3.18725E-05-3.19660E-05-3.14648E-06 1.60144E-19-4.47343E-18
 -1       205 1.04241E-04-3.11640E-05-3.13173E-05-2.83931E-06-4.55728E-19-5.03296E-18
 -1       206 1.02279E-04-3.05630E-05-3.07322E-05-2.42261E-06-9.52594E-19-4.64052E-18
 -1       207 1.00615E-04-3.00690E-05-3.02303E-05-1.98624E-06 8.60825E-19-5.44776E-18
 -1       208 9.92517E-05-2.96732E-05-2.98154E-05-1.57901E-06 1.05202E-18-4.90999E-18
 -1       209 9.81637E-05-2.93629E-05-2.94823E-05-1.22330E-06-2.06376E-19-4.38583E-18
 -1       210 9.73159E-05-2.91247E-05-2.92215E-05-9.25854E-07-1.22055E-18-4.99431E-18
 -1       211 9.66695E-05-2.89454E-05-2.90219E-05-6.84944E-07-1.36506E-18-4.82736E-18
 -1       212 9.61872E-05-2.88133E-05-2.88723E-05-4.94727E-07-5.65504E-20-5.12906E-18
 -1       213 9.58355E-05-2.87182E-05-2.87628E-05-3.47801E-07 8.15794E-19-5.78413E-18
 -1       214 9.55852E-05-2.86515E-05-2.86845E-05-2.36609E-07 3.12033E-20-6.94474E-18
 -1       215 9.54126E-05-2.86063E-05-2.86302E-05-1.54151E-07 4.95867E-19-4.82531E-18
 -1       216 9.52979E-05-2.85770E-05-2.85939E-05-9.42899E-08 1.08411E-18-5.89520E-18
 -1       217 9.52258E-05-2.85592E-05-2.85709E-05-5.18438E-08 1.14447E-18-4.64158E-18
 -1       218 9.51843E-05-2.85496E-05-2.85573E-05-2.25589E-08-6.85356E-19-5.35489E-18
 -1       219 9.51641E-05-2.85456E-05-2.85505E-05-3.02628E-09-6.14787E-19-4.26037E-18
 -1       220 9.51584E-05-2.85453E-05-2.85483E-05 9.42160E-09-1.60572E-18-4.61371E-18
 -1       221 9.51621E-05-2.85475E-05-2.85490E-05 1.68167E-08 2.22872E-19-4.23800E-18
 -1       222 9.51716E-05-2.85510E-05-2.85516E-05 2.06497E-08 5.37832E-19-2.89547E-18
 -1       223 9.51841E-05-2.85553E-05-2.85552E-05 2.19454E-08 2.07054E-18-1.41432E-18
 -1       224 9.51977E-05-2.85598E-05-2.85591E-05 2.13159E-08 2.07698E-18-1.69339E-18
 -1       225 9.52109E-05-2.85642E-05-2.85629E-05 1.89876E-08-2.97317E-19-1.85559E-18
 -1       226 9.52225E-05-2.85683E-05-2.85661E-05 1.48331E-08 1.20937E-18-1.87963E-18
 -1       227 9.52316E-05-2.85718E-05-2.85685E-05 8.66463E-09 1.18004E-18-9.76676E-19
 -1       228 1.03848E-04-2.99116E-05-3.18545E-05 5.33723E-06 3.40595E-18 1.24266E-17
 -1       229 1.00357E-04-2.95593E-05-3.03077E-05 8.90171E-07 2.49312E-18 9.84942E-18
 -1       230 9.98046E-05-2.96623E-05-3.00160E-05-1.08404E-06 1.67507E-18 7.76214E-18
 -1       231 1.00830E-04-3.00804E-05-3.02964E-05-2.18836E-06 1.26849E-18 6.40598E-18
 -1       232 1.02790E-04-3.07426E-05-3.08674E-05-2.83047E-06 8.81723E-19 5.62472E-18
 -1       233 1.05244E-04-3.15654E-05-3.15743E-05-3.07746E-06 3.91093E-19 4.86953E-18
 -1       234 1.07776E-04-3.24481E-05-3.22841E-05-2.84836E-06 6.88228E-19 4.02509E-18
 -1       235 1.09905E-04-3.32559E-05-3.28491E-05-1.99067E-06 9.14015E-19 3.73448E-18
 -1       236 1.11060E-04-3.37984E-05-3.31067E-05-3.74685E-07 7.37180E-19 3.24646E-18
 -1       237 1.10658E-04-3.38300E-05-3.29136E-05 1.94481E-06 1.70846E-19 3.14516E-18
 -1       238 1.08315E-04-3.31069E-05-3.22157E-05 4.51316E-06 3.01392E-19 2.82116E-18
 -1       239 1.04197E-04-3.15511E-05-3.11256E-05 6.35908E-06 4.04431E-19 2.80265E-18
 -1       240 9.93428E-05-2.94920E-05-2.99486E-05 6.28637E-06 3.50164E-19 2.05472E-18
 -1       241 9.55599E-05-2.77427E-05-2.90976E-05 3.69015E-06 3.40593E-19 1.52662E-18
 -1       242 9.46031E-05-2.72215E-05-2.89139E-05-6.44222E-07-2.25218E-19 1.12969E-18
 -1       243 9.70334E-05-2.82597E-05-2.94915E-05-4.77940E-06 8.68153E-19-2.04638E-19
 -1       244 1.01810E-04-3.03269E-05-3.06273E-05-6.90532E-06 2.15268E-18-9.03764E-19
 -1       245 1.07007E-04-3.24451E-05-3.19333E-05-6.54485E-06-2.17249E-19-1.51079E-18
 -1       246 1.11014E-04-3.39108E-05-3.30256E-05-4.50672E-06-8.31270E-19-2.12750E-18
 -1       247 1.13111E-04-3.45281E-05-3.36710E-05-1.97720E-06 8.59275E-21-1.98612E-18
 -1       248 1.13360E-04-3.44459E-05-3.38227E-05 1.86247E-07-2.19517E-20-2.10753E-18
 -1       249 1.12233E-04-3.39236E-05-3.35682E-05 1.63598E-06 8.19177E-19-2.23782E-18
 -1       250 1.10286E-04-3.31897E-05-3.30487E-05 2.38778E-06 5.39222E-20-3.52938E-18
 -1       251 1.07988E-04-3.24010E-05-3.24000E-05 2.61494E-06-4.00055E-19-3.04510E-18
 -1       252 1.05668E-04-3.16493E-05-3.17253E-05 2.51155E-06 1.00567E-19-1.96760E-18
 -1       253 1.03523E-04-3.09809E-05-3.10902E-05 2.23355E-06-9.02094E-20-1.43661E-18
 -1       254 1.01650E-04-3.04132E-05-3.05294E-05 1.88685E-06-1.16098E-18-4.57461E-19
 -1       255 1.00082E-04-2.99472E-05-3.00561E-05 1.53517E-06-1.51873E-18-4.43472E-19
 -1       256 9.88094E-05-2.95750E-05-2.96700E-05 1.21232E-06 6.49617E-19 4.99794E-19
 -1       257 9.78048E-05-2.92846E-05-2.93639E-05 9.33159E-07 1.16683E-18 6.84301E-19
 -1       258 9.70301E-05-2.90630E-05-2.91269E-05 7.01430E-07-4.45772E-19-5.17860E-19
 -1       259 9.64458E-05-2.88974E-05-2.89477E-05 5.14886E-07-1.10922E-19-6.66033E-19
 -1       260 9.60151E-05-2.87765E-05-2.88152E-05 3.68439E-07 3.47029E-19-1.59610E-18
 -1       261 9.57053E-05-2.86905E-05-2.87195E-05 2.55989E-07 1.59251E-19-1.40243E-18
 -1       262 9.54886E-05-2.86310E-05-2.86524E-05 1.71434E-07 6.24742E-19-1.12521E-18
 -1       263 9.53424E-05-2.85915E-05-2.86069E-05 1.09185E-07 4.11913E-20-2.61843E-19
 -1       264 9.52483E-05-2.85665E-05-2.85774E-05 6.43774E-08-9.58361E-19-1.38119E-19
 -1       265 9.51918E-05-2.85521E-05-2.85595E-05 3.29296E-08 3.79262E-19-5.72454E-19
 -1       266 9.51621E-05-2.85450E-05-2.85499E-05 1.15093E-08 8.84692E-19 2.35601E-19
 -1       267 9.51506E-05-2.85429E-05-2.85459E-05-2.53648E-09-8.35503E-19 4.50802E-19
 -1       268 9.51513E-05-2.85441E-05-2.85458E-05-1.12677E-08-1.38754E-18 1.06251E-18
 -1       269 9.51596E-05-2.85472E-05-2.85481E-05-1.62357E-08-1.43576E-18 2.18696E-18
 -1       270 9.51722E-05-2.85515E-05-2.85517E-05-1.85570E-08 1.99911E-18 1.40461E-18
 -1       271 9.51869E-05-2.85562E-05-2.85560E-05-1.89695E-08 2.66352E-18-1.13130E-19
 -1       272 9.52018E-05-2.85610E-05-2.85603E-05-1.78624E-08 6.35686E-19 7.15884E-19
 -1       273 9.52154E-05-2.85654E-05-2.85643E-05-1.52951E-08-2.13198E-19 1.38797E-18
 -1       274 9.52266E-05-2.85693E-05-2.85674E-05-1.10135E-08-1.28322E-18 1.23932E-19
 -1       275 9.52342E-05-2.85720E-05-2.85695E-05-4.95562E-09-5.63856E-19 3.88605E-20
 -1       276 9.52368E-05-2.85771E-05-2.85685E-05-8.70696E-09-6.22841E-20 4.11388E-18
 -1       277 9.52404E-05-2.85857E-05-2.85663E-05-1.37104E-08 1.99527E-18 2.69816E-19
 -1       278 9.52444E-05-2.85959E-05-2.85636E-05-1.57289E-08 1.52348E-18-1.42014E-18
 -1       279 9.52482E-05-2.86064E-05-2.85608E-05-1.51348E-08-9.02137E-19-2.68147E-18
 -1       280 9.52514E-05-2.86156E-05-2.85582E-05-1.27230E-08-3.05351E-18-4.71180E-18
 -1       281 9.52538E-05-2.86230E-05-2.85561E-05-9.05892E-09-3.52996E-18-7.04592E-19
 -1       282 9.52554E-05-2.86276E-05-2.85547E-05-4.67429E-09-3.22818E-18-5.76801E-19
 -1       283 9.52559E-05-2.86292E-05-2.85543E-05 3.59934E-11-3.07037E-18 2.95474E-18
 -1       284 9.52553E-05-2.86276E-05-2.85547E-05 4.74379E-09-4.02412E-18-4.68990E-19
 -1       285 9.52538E-05-2.86229E-05-2.85561E-05 9.12323E-09-5.80372E-18-2.22080E-18
 -1       286 9.52514E-05-2.86156E-05-2.85582E-05 1.27269E-08-4.43115E-18-1.63918E-18
 -1       287 9.52481E-05-2.86062E-05-2.85608E-05 1.51643E-08-2.48052E-18 4.66124E-18
 -1       288 9.52444E-05-2.85958E-05-2.85637E-05 1.57298E-08-7.33820E-19 1.26558E-18
 -1       289 9.52403E-05-2.85855E-05-2.85664E-05 1.34862E-08 1.06998E-19 1.39111E-18
 -1       290 9.52362E-05-2.85782E-05-2.85678E-05 1.27985E-08 8.30127E-19 5.66087E-19
 -1       291 1.19361E-05-4.04064E-05 9.98078E-06 1.07107E-05 1.89677E-18 7.50725E-18
 -1       292 2.72860E-05-4.29105E-05 3.90611E-06 2.12987E-05 7.10237E-18 5.33001E-18
 -1       293 5.58875E-05-3.66831E-05-9.84387E-06 3.55596E-05 7.78593E-18 5.85496E-18
 -1       294 9.20624E-05-3.02395E-05-2.68236E-05 4.45838E-05 7.94517E-18 7.82658E-18
 -1       295 1.39258E-04-2.97414E-05-4.55144E-05 4.72679E-05 7.42308E-18 6.76313E-18
 -1       296 1.81944E-04-3.35298E-05-6.08056E-05 3.61755E-05 8.25243E-18 2.22727E-18
 -1       297 2.07179E-04-3.61742E-05-6.97494E-05 1.68043E-05 7.49169E-18-2.23712E-18
 -1       298 1.95292E-04-2.79819E-05-6.93031E-05-5.21579E-06 8.89321E-18-4.70114E-18
 -1       299 1.92536E-04-3.43718E-05-6.46963E-05-3.16872E-05 9.23081E-18-1.18915E-17
 -1       300 1.55463E-04-3.21338E-05-5.11166E-05-4.21292E-05 1.11623E-17-1.28658E-17
 -1       301 1.11450E-04-2.99384E-05-3.45304E-05-4.72625E-05 1.21587E-17-1.46660E-17
 -1       302 6.96996E-05-3.30986E-05-1.68249E-05-4.00890E-05 1.10108E-17-1.28229E-17
 -1       303 3.74558E-05-4.03653E-05-1.22466E-06-2.73243E-05 7.21799E-18-1.16503E-17
 -1       304 1.75981E-05-4.41188E-05 8.58368E-06-1.61113E-05 2.05617E-18-9.41625E-18
 -1       305 1.14755E-05-5.06966E-05 1.31724E-05-1.07410E-08-3.74830E-18-8.48526E-18
 -1       306 1.75206E-05-4.75423E-05 9.51308E-06 1.31431E-05-9.40281E-18-1.00685E-17
 -1       307 3.81825E-05-4.07717E-05-1.12353E-06 2.91702E-05-1.24078E-17-1.12485E-17
 -1       308 8.13073E-05-4.15617E-05-1.77211E-05 4.21966E-05-1.17729E-17-1.14343E-17
 -1       309 1.25434E-04-3.96491E-05-3.64402E-05 3.98373E-05-1.22490E-17-1.05324E-17
 -1       310 1.62621E-04-3.15301E-05-5.40572E-05 4.33198E-05-1.22679E-17-1.31743E-17
 -1       311 1.98209E-04-3.51741E-05-6.64437E-05 2.84930E-05-1.02417E-17-9.39021E-18
 -1       312 2.13726E-04-3.73858E-05-7.17428E-05 5.28302E-06-8.23591E-18-4.07608E-18
 -1       313 1.98915E-04-3.30003E-05-6.81245E-05-1.61990E-05-6.55762E-18-3.76824E-19
 -1       314 1.75554E-04-3.30066E-05-5.85350E-05-3.88763E-05-6.54018E-18 4.56530E-18
 -1       315 1.33204E-04-3.01413E-05-4.30355E-05-4.69733E-05-7.66882E-18 6.52893E-18
 -1       316 8.84895E-05-3.06913E-05-2.52343E-05-4.38206E-05-8.18001E-18 8.33607E-18
 -1       317 5.13718E-05-3.60452E-05-8.44947E-06-3.31992E-05-7.69445E-18 9.51700E-18
 -1       318 2.59612E-05-4.31517E-05 4.60919E-06-2.13015E-05-4.35608E-18 7.34123E-18
 -1       319 1.25254E-05-4.90304E-05 1.21863E-05-6.05989E-06-4.87256E-19 6.74132E-18
 -1       320 9.36302E-05-1.46681E-05-3.39045E-05-9.16702E-06-3.83144E-18-4.87710E-18
 -1       321 9.90883E-05-2.01459E-05-3.38904E-05-1.11273E-05-4.57322E-18-2.29373E-18
 -1       322 8.64282E-05-8.76827E-06-3.33315E-05-4.66564E-06-1.73519E-18-6.95749E-18
 -1       323 8.40114E-05-7.01737E-06-3.30356E-05-2.95179E-06-7.43985E-19-7.07006E-18
 -1       324 8.23619E-05-5.87320E-06-3.28128E-05-1.60841E-06 2.34069E-19-6.98971E-18
 -1       325 8.15369E-05-5.31633E-06-3.26951E-05-5.02218E-07 1.14573E-18-6.80390E-18
 -1       326 8.15729E-05-5.34564E-06-3.26981E-05 5.28796E-07 1.91165E-18-6.52780E-18
 -1       327 8.24654E-05-5.95861E-06-3.28209E-05 1.65485E-06 2.65138E-18-6.11683E-18
 -1       328 8.41330E-05-7.12614E-06-3.30416E-05 3.00694E-06 3.42384E-18-5.50512E-18
 -1       329 8.65809E-05-8.91389E-06-3.33347E-05 4.74735E-06 4.24222E-18-4.43020E-18
 -1       330 8.97923E-05-1.14351E-05-3.36452E-05 6.89841E-06 4.97656E-18-2.99323E-18
 -1       331 9.39504E-05-1.50476E-05-3.38931E-05 9.31437E-06 5.47356E-18-8.33739E-19
 -1       332 9.91844E-05-2.04950E-05-3.38265E-05 1.09633E-05 5.25227E-18 3.15120E-18
 -1       333 1.02753E-04-2.57295E-05-3.30886E-05 9.06224E-06 4.59178E-18 6.79271E-18
 -1       334 1.01387E-04-2.82448E-05-3.13137E-05 2.74391E-06 3.69341E-18 5.27464E-18
 -1       335 1.01052E-04-2.72130E-05-3.15982E-05-2.60578E-06-3.64742E-18-1.46723E-18
 -1       336 1.00652E-04-2.84211E-05-3.09288E-05 1.37740E-06-2.72011E-18-1.67261E-18
 -1       337 1.01037E-04-2.92071E-05-3.07682E-05 3.83877E-06-2.09559E-18-1.92746E-18
 -1       338 1.02131E-04-3.00310E-05-3.08937E-05 5.36175E-06-1.54984E-18-2.18787E-18
 -1       339 1.03798E-04-3.10689E-05-3.11709E-05 6.07056E-06-1.21391E-18-2.24481E-18
 -1       340 1.05889E-04-3.24024E-05-3.15026E-05 5.84935E-06-8.84991E-19-2.29657E-18
 -1       341 1.08215E-04-3.40176E-05-3.18145E-05 4.44602E-06-4.90627E-19-2.01020E-18
 -1       342 1.10472E-04-3.57105E-05-3.20620E-05 1.62020E-06-6.30193E-19-1.42892E-18
 -1       343 1.12140E-04-3.69439E-05-3.22484E-05-2.57852E-06-4.69610E-19-1.31149E-18
 -1       344 1.12472E-04-3.68251E-05-3.24343E-05-7.38396E-06-5.66783E-19-1.15892E-18
 -1       345 1.10825E-04-3.45183E-05-3.27055E-05-1.09846E-05-1.22294E-18-1.20194E-18
 -1       346 1.07460E-04-3.02621E-05-3.30848E-05-1.09327E-05-1.50631E-18-1.78296E-18
 -1       347 1.04175E-04-2.61628E-05-3.34381E-05-5.87571E-06-2.40757E-18-3.22684E-18
 -1       348 1.03397E-04-2.51102E-05-3.35563E-05 2.41587E-06-2.11937E-18-5.22107E-18
 -1       349 1.05827E-04-2.79399E-05-3.33799E-05 9.64335E-06-1.17822E-18-6.06853E-18
 -1       350 1.09694E-04-3.25376E-05-3.30688E-05 1.23770E-05-6.18877E-19-6.44156E-18
 -1       351 1.12617E-04-3.60876E-05-3.28111E-05 1.04690E-05 3.95467E-20-6.71836E-18
 -1       352 1.13522E-04-3.73673E-05-3.26572E-05 6.05923E-06 7.90712E-19-6.60856E-18
 -1       353 1.12687E-04-3.67987E-05-3.25460E-05 1.41940E-06 8.81958E-19-5.46393E-18
 -1       354 1.10864E-04-3.53411E-05-3.23862E-05-2.16781E-06 1.46458E-18-4.43296E-18
 -1       355 1.08678E-04-3.37346E-05-3.21315E-05-4.36875E-06 1.42639E-18-3.22334E-18
 -1       356 1.06490E-04-3.23405E-05-3.17849E-05-5.36799E-06 8.47099E-19-3.90617E-18
 -1       357 1.04468E-04-3.12574E-05-3.13779E-05-5.51729E-06 5.38534E-19-4.85469E-18
 -1       358 1.02679E-04-3.04603E-05-3.09495E-05-5.15192E-06-3.61468E-20-4.76461E-18
 -1       359 1.01138E-04-2.98878E-05-3.05326E-05-4.52648E-06-1.00985E-19-4.32492E-18
 -1       360 9.98384E-05-2.94798E-05-3.01499E-05-3.81034E-06-1.76859E-19-2.91489E-18
 -1       361 9.87642E-05-2.91895E-05-2.98139E-05-3.10479E-06 4.97934E-19-3.53870E-18
 -1       362 9.78922E-05-2.89831E-05-2.95290E-05-2.46355E-06 3.58459E-19-3.87438E-18
 -1       363 9.71969E-05-2.88367E-05-2.92942E-05-1.90987E-06-8.60998E-19-3.29615E-18
 -1       364 9.66523E-05-2.87338E-05-2.91054E-05-1.44884E-06-2.25292E-19-2.04793E-18
 -1       365 9.62333E-05-2.86625E-05-2.89569E-05-1.07558E-06-6.94736E-19-1.79949E-18
 -1       366 9.59169E-05-2.86143E-05-2.88424E-05-7.80329E-07-9.61878E-19-3.00659E-18
 -1       367 9.56828E-05-2.85827E-05-2.87560E-05-5.51575E-07-2.80249E-19-2.71581E-18
 -1       368 9.55133E-05-2.85630E-05-2.86921E-05-3.77788E-07 1.13606E-18-2.47943E-18
 -1       369 9.53939E-05-2.85518E-05-2.86459E-05-2.48325E-07 8.96650E-19-1.97263E-18
 -1       370 9.53124E-05-2.85464E-05-2.86135E-05-1.53847E-07 1.20658E-18-1.08042E-18
 -1       371 9.52592E-05-2.85449E-05-2.85915E-05-8.64441E-08 1.15135E-19-1.15421E-18
 -1       372 9.52265E-05-2.85459E-05-2.85772E-05-3.96014E-08 2.62385E-19 5.38818E-19
 -1       373 9.52086E-05-2.85484E-05-2.85685E-05-8.08649E-09-1.04267E-18 1.28607E-18
 -1       374 9.52010E-05-2.85517E-05-2.85639E-05 1.21997E-08-2.47409E-19 1.43713E-18
 -1       375 9.52001E-05-2.85554E-05-2.85619E-05 2.43744E-08 1.66394E-18 8.38509E-19
 -1       376 9.52036E-05-2.85593E-05-2.85618E-05 3.07141E-08 1.83937E-18 2.65988E-18
 -1       377 9.52096E-05-2.85633E-05-2.85627E-05 3.27741E-08 1.28297E-18 9.17119E-19
 -1       378 9.52168E-05-2.85673E-05-2.85641E-05 3.14896E-08-4.76268E-19 9.15273E-19
 -1       379 9.52242E-05-2.85714E-05-2.85655E-05 2.73326E-08-1.08814E-19 9.75557E-19
 -1       380 9.52303E-05-2.85749E-05-2.85667E-05 2.10068E-08 2.16977E-18 8.96133E-19
 -1       381 1.00671E-04-2.90641E-05-3.06494E-05-8.39920E-07 2.64737E-18 3.94020E-18
 -1       382 1.01006E-04-2.96174E-05-3.05726E-05-2.95992E-06 1.83496E-18 3.14366E-18
 -1       383 1.02206E-04-3.02829E-05-3.08152E-05-4.22673E-06 1.29475E-18 2.43728E-18
 -1       384 1.03985E-04-3.11319E-05-3.12227E-05-4.80292E-06 1.01429E-18 1.72943E-18
 -1       385 1.06071E-04-3.21662E-05-3.16804E-05-4.61844E-06 8.16536E-19 1.13026E-18
 -1       386 1.08160E-04-3.33271E-05-3.20844E-05-3.48065E-06 7.81415E-19 1.53670E-18
 -1       387 1.09867E-04-3.44427E-05-3.23422E-05-1.20714E-06 8.11924E-19 2.11421E-18
 -1       388 1.10706E-04-3.51650E-05-3.23922E-05 2.15384E-06 3.87752E-19 2.32638E-18
 -1       389 1.10147E-04-3.49641E-05-3.22338E-05 6.01715E-06 5.73256E-19 2.02678E-18
 -1       390 1.07890E-04-3.33598E-05-3.19460E-05 9.03003E-06 6.32310E-19 1.79541E-18
 -1       391 1.04361E-04-3.04867E-05-3.16587E-05 9.37237E-06 1.09831E-18 1.56247E-18
 -1       392 1.01019E-04-2.75469E-05-3.14819E-05 5.91395E-06 1.04811E-18 7.61577E-19
 -1       393 9.97813E-05-2.63411E-05-3.14632E-05-4.22850E-07 5.45271E-19-2.47174E-19
 -1       394 1.01499E-04-2.77017E-05-3.16129E-05-6.74025E-06 1.50389E-18-1.53336E-18
 -1       395 1.05249E-04-3.07782E-05-3.19050E-05-1.01175E-05 2.06084E-18-2.12335E-18
 -1       396 1.09050E-04-3.37129E-05-3.22853E-05-9.68928E-06 9.65582E-19-2.15719E-18
 -1       397 1.11500E-04-3.53466E-05-3.26478E-05-6.66055E-06-4.51637E-19-3.70356E-18
 -1       398 1.12242E-04-3.55902E-05-3.28703E-05-2.83772E-06-1.91734E-19-3.76112E-18
 -1       399 1.11595E-04-3.49285E-05-3.28778E-05 4.67731E-07-5.44540E-19-4.02023E-18
 -1       400 1.10080E-04-3.38912E-05-3.26689E-05 2.71451E-06 6.46400E-19-2.95470E-18
 -1       401 1.08146E-04-3.28196E-05-3.22928E-05 3.90759E-06 4.43935E-19-1.91955E-18
 -1       402 1.06101E-04-3.18691E-05-3.18181E-05 4.29267E-06-5.85294E-19-1.58180E-18
 -1       403 1.04137E-04-3.10838E-05-3.13087E-05 4.15490E-06-1.63659E-19-1.71908E-18
 -1       404 1.02358E-04-3.04573E-05-3.08123E-05 3.72996E-06-3.88292E-19-1.72668E-18
 -1       405 1.00813E-04-2.99669E-05-3.03590E-05 3.18296E-06-1.36339E-18-3.81502E-19
 -1       406 9.95135E-05-2.95877E-05-2.99643E-05 2.61673E-06-1.52800E-18-3.77791E-19
 -1       407 9.84493E-05-2.92976E-05-2.96327E-05 2.08847E-06-7.06416E-20 8.68768E-19
 -1       408 9.75978E-05-2.90782E-05-2.93622E-05 1.62527E-06 1.35859E-18 1.37319E-18
 -1       409 9.69307E-05-2.89146E-05-2.91469E-05 1.23588E-06 7.71693E-19 2.31199E-19
 -1       410 9.64187E-05-2.87945E-05-2.89795E-05 9.18704E-07 3.22554E-19-1.30371E-18
 -1       411 9.60336E-05-2.87081E-05-2.88519E-05 6.66868E-07-9.69156E-20-1.50340E-18
 -1       412 9.57502E-05-2.86474E-05-2.87569E-05 4.71309E-07 2.76962E-19-6.37770E-19
 -1       413 9.55466E-05-2.86061E-05-2.86877E-05 3.22559E-07-4.26758E-20 4.87212E-19
 -1       414 9.54044E-05-2.85790E-05-2.86386E-05 2.11699E-07-3.59005E-19 2.73511E-18
 -1       415 9.53085E-05-2.85624E-05-2.86049E-05 1.30814E-07-4.63716E-19 1.34979E-18
 -1       416 9.52469E-05-2.85531E-05-2.85826E-05 7.31551E-08 9.79499E-19 9.27220E-19
 -1       417 9.52102E-05-2.85490E-05-2.85688E-05 3.31387E-08-2.55798E-19-2.42048E-19
 -1       418 9.51910E-05-2.85483E-05-2.85610E-05 6.26556E-09-7.92506E-19 2.86219E-18
 -1       419 9.51840E-05-2.85497E-05-2.85574E-05-1.09987E-08-1.88103E-18 2.98449E-18
 -1       420 9.51849E-05-2.85525E-05-2.85567E-05-2.13493E-08-1.07076E-18 2.33107E-18
 -1       421 9.51908E-05-2.85561E-05-2.85577E-05-2.67611E-08 1.75189E-18 1.19779E-18
 -1       422 9.51995E-05-2.85600E-05-2.85598E-05-2.85896E-08 2.73939E-18 3.35478E-18
 -1       423 9.52092E-05-2.85641E-05-2.85622E-05-2.76438E-08-3.89506E-19 4.62419E-18
 -1       424 9.52190E-05-2.85681E-05-2.85647E-05-2.42523E-08 1.12393E-20 4.14168E-18
 -1       425 9.52277E-05-2.85721E-05-2.85667E-05-1.84349E-08 5.02917E-20 3.97944E-18
 -1       426 9.52328E-05-2.85748E-05-2.85677E-05-1.39991E-08-7.06770E-19 4.24102E-18
 -1       427 9.52448E-05-2.85942E-05-2.85645E-05-2.53602E-08 2.75783E-19-3.96825E-18
 -1       428 9.52398E-05-2.85864E-05-2.85658E-05-2.47374E-08-1.82410E-19-5.40458E-20
 -1       429 9.52359E-05-2.85805E-05-2.85666E-05-2.05459E-08-6.57225E-19 3.63927E-18
 -1       430 9.52488E-05-2.86010E-05-2.85633E-05-2.27137E-08-5.37874E-19-6.83519E-18
 -1       431 9.52518E-05-2.86067E-05-2.85622E-05-1.76865E-08-4.03349E-19-1.58039E-18
 -1       432 9.52537E-05-2.86106E-05-2.85613E-05-1.11378E-08-1.19107E-18-8.94135E-19
 -1       433 9.52547E-05-2.86126E-05-2.85609E-05-3.76067E-09-2.14387E-18-3.20425E-19
 -1       434 9.52547E-05-2.86125E-05-2.85609E-05 3.87429E-09-3.51598E-18 3.61935E-19
 -1       435 9.52537E-05-2.86105E-05-2.85613E-05 1.12447E-08-4.28925E-18-2.12295E-18
 -1       436 9.52518E-05-2.86067E-05-2.85622E-05 1.76812E-08-2.44740E-18-2.85863E-18
 -1       437 9.52488E-05-2.86011E-05-2.85633E-05 2.27204E-08-1.96031E-18 6.63030E-18
 -1       438 9.52447E-05-2.85941E-05-2.85646E-05 2.53976E-08 7.35695E-19 3.97759E-18
 -1       439 9.52397E-05-2.85863E-05-2.85658E-05 2.49329E-08 7.38514E-19 1.95246E-18
 -1       440 5.86970E-05-4.20541E-05-7.37377E-06 4.22505E-05-1.09754E-18 1.20284E-18
 -1       441 1.17800E-05-2.27650E-05 4.46681E-06-2.02436E-06-9.85847E-19 7.74294E-18
 -1       442 2.89872E-05-2.92634E-05 4.43782E-08 3.02998E-05-1.57294E-18 4.45412E-18
 -1       443 1.00672E-04-5.27732E-05-2.06283E-05 4.01394E-05 8.99125E-19 2.26502E-18
 -1       444 1.33934E-04-5.21825E-05-3.50213E-05 2.62937E-05 2.37053E-18 3.71742E-19
 -1       445 8.96432E-05-1.12571E-05-3.36530E-05-6.86960E-06-2.86459E-18-6.33641E-18
 -1       446 1.58337E-04-2.30145E-05-5.78827E-05-2.01226E-06 8.19346E-18-2.82210E-18
 -1       447 1.55283E-04-1.25356E-05-6.12328E-05-2.36592E-06 8.70157E-18-1.39689E-18
 -1       448 1.56941E-04-1.89709E-05-5.91239E-05 2.41531E-06 8.48547E-18-8.92137E-19
 -1       449 1.57434E-04-3.34044E-05-5.29635E-05-3.60289E-06 6.70421E-18-1.75759E-18
 -1       450 1.43426E-04-5.09031E-05-3.96849E-05-1.81404E-05 3.99170E-18-2.47556E-18
 -1       451 1.18133E-04-5.63856E-05-2.64609E-05-3.49036E-05 1.04174E-18-5.18787E-18
 -1       452 7.72077E-05-4.79830E-05-1.26779E-05-4.41670E-05-1.20808E-19-8.27028E-18
 -1       453 4.32939E-05-3.45119E-05-3.72532E-06-3.89735E-05-1.53355E-18-9.32477E-18
 -1       454 1.43988E-05-2.40578E-05 3.88564E-06-1.27204E-05-9.88487E-19-1.09689E-17
 -1       455 1.45345E-05-2.59721E-05 4.50074E-06 1.39226E-05-2.02139E-18-1.03269E-17
 -1       456 3.91431E-05-3.27990E-05-2.68714E-06 3.67917E-05-9.85735E-19-9.18120E-18
 -1       457 7.31493E-05-4.62092E-05-1.15838E-05 4.41809E-05-2.38673E-18-7.16669E-18
 -1       458 1.20505E-04-5.64591E-05-2.75211E-05 3.23100E-05-3.88439E-18-3.90239E-18
 -1       459 1.47680E-04-4.55316E-05-4.36991E-05 1.39244E-05-7.65123E-18-3.08384E-18
 -1       460 1.59671E-04-3.21450E-05-5.43784E-05 5.17328E-06-9.23689E-18-3.49740E-18
 -1       461 1.59141E-04-1.63632E-05-6.10399E-05-1.43106E-06-9.95878E-18-2.49255E-18
 -1       462 1.61310E-04-1.42520E-05-6.27472E-05 1.23162E-06-8.43465E-18-3.66657E-18
 -1       463 1.57259E-04-2.63531E-05-5.60744E-05 1.98222E-06-5.45892E-18-4.03463E-18
 -1       464 1.51946E-04-4.34244E-05-4.64669E-05-8.96592E-06-3.12509E-18-3.27410E-18
 -1       465 1.30774E-04-5.30773E-05-3.33014E-05-2.80247E-05-2.29324E-18-9.62124E-19
 -1       466 9.61091E-05-5.19494E-05-1.90666E-05-4.09951E-05-4.82279E-19 2.53697E-18
 -1       467 5.64530E-05-4.15854E-05-6.64415E-06-4.15088E-05-2.23405E-20 6.07667E-18
 -1       468 2.39274E-05-2.68291E-05 1.11937E-06-2.62561E-05-2.63904E-19 7.37850E-18
 -1       469 1.52920E-04-4.06022E-05-4.81045E-05 5.81995E-06 4.81983E-18-2.29271E-18
 -1       470 2.24348E-05-1.76909E-05-1.59775E-06 1.59153E-05-2.76392E-18 6.61999E-18
 -1       471 1.06264E-04-5.72169E-05-2.07493E-05 3.80299E-05 6.58621E-19-2.72830E-18
 -1       472 1.37955E-04-9.54231E-06-5.56107E-05 3.02530E-06 8.31013E-18-1.18439E-19
 -1       473 1.39876E-04-5.92460E-05-3.47557E-05 1.31702E-05-3.14797E-18 1.19167E-19
 -1       474 9.97769E-05-2.59531E-05-3.16238E-05 1.64896E-06 3.91814E-18 1.06328E-18
 -1       475 8.47009E-05-9.53560E-06-3.22274E-05-1.21641E-06-2.65400E-19-6.27456E-18
 -1       476 8.70918E-05-1.14709E-05-3.24253E-05-2.14894E-06-1.17022E-18-6.25339E-18
 -1       477 8.27557E-05-8.01990E-06-3.20411E-05-1.82115E-08 1.37615E-18-6.15253E-18
 -1       478 8.33192E-05-8.46317E-06-3.20932E-05 5.20529E-07 2.17707E-18-5.75868E-18
 -1       479 8.48368E-05-9.66414E-06-3.22310E-05 1.21608E-06 2.92346E-18-5.30673E-18
 -1       480 8.72624E-05-1.16411E-05-3.24267E-05 2.19186E-06 3.68071E-18-4.49190E-18
 -1       481 9.04566E-05-1.43902E-05-3.26212E-05 3.43289E-06 4.31997E-18-3.30651E-18
 -1       482 9.43652E-05-1.80483E-05-3.27269E-05 4.77616E-06 4.76939E-18-1.74293E-18
 -1       483 9.99355E-05-2.75278E-05-3.10130E-05-2.08580E-06 2.75770E-18 5.57169E-19
 -1       484 9.86671E-05-2.47458E-05-3.16702E-05-8.77484E-07-3.03897E-18-3.27634E-18
 -1       485 1.41177E-04-3.12097E-05-4.75449E-05-1.18959E-05 5.23286E-18-3.60063E-18
 -1       486 9.91379E-05-2.66198E-05-3.10699E-05 2.81971E-06-2.32822E-18-3.07465E-18
 -1       487 9.97493E-05-2.79446E-05-3.07690E-05 5.46264E-06-1.74166E-18-2.75989E-18
 -1       488 1.00811E-04-2.92847E-05-3.06532E-05 7.19888E-06-1.27186E-18-2.50683E-18
 -1       489 1.02488E-04-3.09930E-05-3.06432E-05 8.01562E-06-7.92420E-19-1.91356E-18
 -1       490 1.04912E-04-3.32940E-05-3.06998E-05 7.71330E-06-5.36771E-19-1.21482E-18
 -1       491 1.08138E-04-3.62091E-05-3.08364E-05 5.94371E-06-1.34584E-19-1.02317E-18
 -1       492 1.11946E-04-3.93106E-05-3.11430E-05 2.33988E-06-3.19157E-19-3.97202E-19
 -1       493 1.15534E-04-4.13914E-05-3.17888E-05-3.11572E-06-1.90005E-19-7.89457E-20
 -1       494 1.17359E-04-4.04724E-05-3.29693E-05-9.35609E-06-7.31152E-19 3.44159E-19
 -1       495 1.15905E-04-3.49988E-05-3.47169E-05-1.34537E-05-1.98942E-18-9.50888E-20
 -1       496 1.11612E-04-2.64007E-05-3.66031E-05-1.15369E-05-3.21423E-18-1.40502E-18
 -1       497 1.08318E-04-2.05683E-05-3.77200E-05-2.53611E-06-3.73029E-18-2.54516E-18
 -1       498 1.09515E-04-2.25216E-05-3.73796E-05 8.44093E-06-2.93100E-18-4.19812E-18
 -1       499 1.14037E-04-3.05946E-05-3.58245E-05 1.43809E-05-1.42158E-18-5.15092E-18
 -1       500 1.17327E-04-3.81509E-05-3.39753E-05 1.31128E-05-1.54615E-19-5.39631E-18
 -1       501 1.17255E-04-4.14672E-05-3.24969E-05 7.54240E-06 6.88567E-19-4.26892E-18
 -1       502 1.14462E-04-4.07443E-05-3.16076E-05 1.45643E-06 1.98841E-18-3.59155E-18
 -1       503 1.10694E-04-3.80393E-05-3.11491E-05-3.18417E-06 2.16583E-18-3.42563E-18
 -1       504 1.07138E-04-3.50306E-05-3.09111E-05-5.98564E-06 1.49120E-18-2.60775E-18
 -1       505 1.04256E-04-3.25336E-05-3.07427E-05-7.25692E-06 7.17522E-19-3.05747E-18
 -1       506 1.02073E-04-3.07503E-05-3.05688E-05-7.46821E-06-2.51610E-19-3.62331E-18
 -1       507 1.00453E-04-2.95957E-05-3.03673E-05-7.03344E-06-3.58087E-19-4.15148E-18
 -1       508 9.92421E-05-2.89043E-05-3.01436E-05-6.25821E-06 3.75202E-19-4.21308E-18
 -1       509 9.83204E-05-2.85219E-05-2.99120E-05-5.34776E-06 5.38217E-19-3.23391E-18
 -1       510 9.76057E-05-2.83321E-05-2.96870E-05-4.42962E-06-4.69952E-19-2.85212E-18
 -1       511 9.70445E-05-2.82560E-05-2.94792E-05-3.57624E-06 2.79398E-19-2.29155E-18
 -1       512 9.66017E-05-2.82437E-05-2.92949E-05-2.82336E-06-3.23975E-20-2.22631E-18
 -1       513 9.62530E-05-2.82645E-05-2.91367E-05-2.18342E-06 1.87145E-19-1.19273E-18
 -1       514 9.59804E-05-2.83004E-05-2.90047E-05-1.65490E-06-6.87623E-19-5.59166E-19
 -1       515 9.57697E-05-2.83413E-05-2.88971E-05-1.22867E-06-1.78994E-18-4.09355E-19
 -1       516 9.56091E-05-2.83815E-05-2.88113E-05-8.92023E-07 6.56215E-19 4.24628E-19
 -1       517 9.54888E-05-2.84182E-05-2.87441E-05-6.31219E-07 1.38725E-18 1.49989E-18
 -1       518 9.54004E-05-2.84503E-05-2.86926E-05-4.32937E-07 1.31898E-18 2.93501E-18
 -1       519 9.53369E-05-2.84774E-05-2.86539E-05-2.85037E-07 1.15757E-18 2.47603E-18
 -1       520 9.52926E-05-2.84997E-05-2.86254E-05-1.76918E-07-8.79482E-21 8.15703E-19
 -1       521 9.52628E-05-2.85178E-05-2.86049E-05-9.96247E-08 8.83251E-19 1.35299E-20
 -1       522 9.52436E-05-2.85322E-05-2.85905E-05-4.57862E-08 7.12061E-19 1.47692E-18
 -1       523 9.52323E-05-2.85434E-05-2.85809E-05-9.48942E-09 1.16927E-19 3.83858E-18
 -1       524 9.52264E-05-2.85523E-05-2.85746E-05 1.38893E-08-7.62681E-19 3.90634E-18
 -1       525 9.52245E-05-2.85593E-05-2.85708E-05 2.78555E-08 1.03730E-18 2.11134E-18
 -1       526 9.52250E-05-2.85650E-05-2.85686E-05 3.49622E-08 7.92004E-19 1.95580E-18
 -1       527 9.52273E-05-2.85700E-05-2.85674E-05 3.69530E-08 1.61864E-18 2.54350E-18
 -1       528 9.52306E-05-2.85748E-05-2.85668E-05 3.49113E-08 1.23393E-19 2.61560E-18
 -1       529 5.62566E-05-3.31956E-05-9.42113E-06 3.91645E-05-3.80260E-18 1.85749E-18
 -1       530 1.01530E-04-2.97364E-05-3.07662E-05-6.13719E-06 1.67061E-18-3.51879E-19
 -1       531 1.03133E-04-3.11043E-05-3.08719E-05-6.77284E-06 1.07821E-18-5.38462E-19
 -1       532 1.05271E-04-3.28783E-05-3.10325E-05-6.33943E-06 5.27427E-19-4.16973E-19
 -1       533 1.07861E-04-3.50376E-05-3.12207E-05-4.56432E-06 1.59452E-19 8.32764E-20
 -1       534 1.10619E-04-3.72413E-05-3.14619E-05-1.22571E-06 2.69930E-19 9.60027E-19
 -1       535 1.12913E-04-3.86669E-05-3.18355E-05 3.54103E-06 5.62279E-19 9.41906E-19
 -1       536 1.13693E-04-3.79942E-05-3.24561E-05 8.73948E-06 5.50196E-19 1.38883E-18
 -1       537 1.12062E-04-3.42353E-05-3.33682E-05 1.20990E-05 8.39346E-19 1.75109E-18
 -1       538 1.08489E-04-2.82873E-05-3.43998E-05 1.08149E-05 1.82291E-18 6.65810E-19
 -1       539 1.05406E-04-2.35531E-05-3.51110E-05 3.93497E-06 1.95213E-18-8.72138E-19
 -1       540 1.05610E-04-2.37170E-05-3.51198E-05-5.33904E-06 2.30111E-18-2.37089E-18
 -1       541 1.08952E-04-2.86599E-05-3.44408E-05-1.19876E-05 2.41845E-18-3.76422E-18
 -1       542 1.12672E-04-3.46500E-05-3.34553E-05-1.29445E-05 1.58134E-18-3.28193E-18
 -1       543 1.14279E-04-3.82219E-05-3.26049E-05-9.45331E-06 4.53682E-19-2.64211E-18
 -1       544 1.13545E-04-3.87930E-05-3.20505E-05-4.28745E-06-2.90793E-19-3.18856E-18
 -1       545 1.11345E-04-3.73628E-05-3.17220E-05 4.00480E-07-1.09294E-19-3.47451E-18
 -1       546 1.08682E-04-3.52213E-05-3.14962E-05 3.69198E-06-7.95301E-19-3.46465E-18
 -1       547 1.06153E-04-3.31868E-05-3.12794E-05 5.53296E-06-1.00066E-19-2.87007E-18
 -1       548 1.03979E-04-3.15821E-05-3.10310E-05 6.23280E-06-3.84411E-19-1.79323E-18
 -1       549 1.02183E-04-3.04396E-05-3.07481E-05 6.16634E-06-2.52130E-21-1.84405E-18
 -1       550 1.00720E-04-2.96758E-05-3.04462E-05 5.65214E-06 7.95781E-20-1.24982E-18
 -1       551 9.95299E-05-2.91862E-05-3.01451E-05 4.92188E-06-9.67753E-19-9.53663E-19
 -1       552 9.85639E-05-2.88819E-05-2.98611E-05 4.12756E-06-1.30201E-18-2.64408E-18
 -1       553 9.77832E-05-2.86980E-05-2.96054E-05 3.36000E-06-2.03658E-18-2.02400E-18
 -1       554 9.71570E-05-2.85907E-05-2.93833E-05 2.66744E-06-3.95907E-19-1.42952E-18
 -1       555 9.66603E-05-2.85314E-05-2.91962E-05 2.07054E-06 1.09800E-18-4.78533E-19
 -1       556 9.62715E-05-2.85018E-05-2.90425E-05 1.57322E-06 7.02285E-19-8.09568E-19
 -1       557 9.59716E-05-2.84903E-05-2.89193E-05 1.16987E-06-5.79569E-19 5.77762E-19
 -1       558 9.57442E-05-2.84894E-05-2.88224E-05 8.50135E-07-3.68706E-19 7.96678E-19
 -1       559 9.55748E-05-2.84946E-05-2.87479E-05 6.01858E-07-5.42686E-19 2.01368E-18
 -1       560 9.54513E-05-2.85029E-05-2.86916E-05 4.12827E-07-8.43216E-19 1.17776E-18
 -1       561 9.53635E-05-2.85124E-05-2.86500E-05 2.71718E-07 3.62181E-21 6.97765E-19
 -1       562 9.53029E-05-2.85220E-05-2.86201E-05 1.68537E-07 4.77774E-19 3.54485E-19
 -1       563 9.52627E-05-2.85310E-05-2.85991E-05 9.47844E-08 7.64567E-19 1.23757E-18
 -1       564 9.52375E-05-2.85391E-05-2.85849E-05 4.34357E-08-1.87622E-18 1.49080E-19
 -1       565 9.52231E-05-2.85463E-05-2.85757E-05 8.83523E-09-1.09056E-18 6.89581E-19
 -1       566 9.52163E-05-2.85525E-05-2.85702E-05-1.34501E-08-5.26731E-19 8.92480E-19
 -1       567 9.52147E-05-2.85579E-05-2.85672E-05-2.67869E-08 5.77591E-19 7.30402E-20
 -1       568 9.52164E-05-2.85627E-05-2.85659E-05-3.36300E-08 1.31866E-18 1.81478E-18
 -1       569 9.52201E-05-2.85671E-05-2.85656E-05-3.56670E-08 2.38332E-19 3.26968E-18
 -1       570 9.52249E-05-2.85715E-05-2.85658E-05-3.40008E-08 7.22493E-19 1.15816E-18
 -1       571 9.52304E-05-2.85760E-05-2.85662E-05-2.91114E-08-1.32700E-18 3.34779E-18
 -1       572 9.52511E-05-2.85944E-05-2.85671E-05-2.49282E-08 1.04701E-18-3.28440E-18
 -1       573 9.52540E-05-2.85974E-05-2.85671E-05-1.76488E-08 1.02540E-18-2.20966E-18
 -1       574 9.52405E-05-2.85847E-05-2.85668E-05-3.21219E-08-1.52539E-18-2.41769E-18
 -1       575 9.52467E-05-2.85902E-05-2.85670E-05-3.00401E-08-1.34395E-18-5.35088E-18
 -1       576 9.52556E-05-2.85990E-05-2.85671E-05-9.08288E-09-1.43255E-18-2.24045E-18
 -1       577 9.52561E-05-2.85996E-05-2.85671E-05 6.78337E-11-2.82757E-18 4.91912E-19
 -1       578 9.52556E-05-2.85990E-05-2.85671E-05 9.21408E-09-2.10386E-18 1.79011E-19
 -1       579 9.52540E-05-2.85974E-05-2.85671E-05 1.76333E-08-1.49272E-18-1.29181E-18
 -1       580 9.52511E-05-2.85945E-05-2.85671E-05 2.49345E-08 2.53225E-19-3.47195E-19
 -1       581 9.52467E-05-2.85902E-05-2.85671E-05 3.01280E-08-3.03221E-19 7.11517E-18
 -1       582 9.52404E-05-2.85846E-05-2.85668E-05 3.19895E-08-6.75409E-19 2.61537E-18
 -1       583 2.58317E-05-1.50747E-05-3.95130E-06-1.41130E-05-1.40247E-18 6.38345E-18
 -1       584 1.00475E-04-2.86329E-05-3.07804E-05-4.58636E-06 1.98849E-18 7.83233E-20
 -1       585 9.23721E-05-5.12740E-05-1.73646E-05 4.09607E-05-2.83767E-18 1.23864E-18
 -1       586 5.37812E-05-3.13311E-05-9.10723E-06-3.84862E-05 1.87882E-18 4.50426E-18
 -1       587 9.70747E-05-2.10106E-05-3.26207E-05-5.09979E-06-3.70237E-18-4.06843E-18
 -1       588 1.26988E-04-6.08120E-05-2.83215E-05 2.42472E-05-1.33916E-18-1.78658E-18
 -1       589 3.35199E-05-1.96406E-05-5.38067E-06 2.50231E-05 1.34480E-18-8.64291E-18
 -1       590 8.32264E-05-8.38003E-06-3.20890E-05-5.43481E-07 7.00053E-19-6.30836E-18
 -1       591 1.35568E-04-6.02491E-05-3.23548E-05-1.61881E-05-1.13423E-18 9.08972E-19
 -1       592 1.36889E-04-1.43040E-05-5.31200E-05-8.68194E-06 7.46861E-18-1.86212E-18
 -1       593 1.40835E-04-2.57232E-05-4.98534E-05 1.06300E-05 5.70598E-18 2.27751E-18
 -1       594 1.44928E-04-4.54134E-05-4.29441E-05 3.30958E-06 2.83947E-18 2.35004E-18
 -1       595 1.06587E-04-5.68091E-05-2.11698E-05-3.71520E-05-3.71562E-18-3.76612E-18
 -1       596 7.60123E-05-4.25169E-05-1.38663E-05-4.28781E-05-4.05109E-18-6.64873E-18
 -1       597 3.57085E-05-2.05100E-05-5.97236E-06-2.72740E-05-2.17433E-18-8.84864E-18
 -1       598 2.36100E-05-1.35165E-05-3.68343E-06 1.46937E-06 2.23018E-19-1.02999E-17
 -1       599 6.99030E-05-3.84343E-05-1.29651E-05 4.12922E-05 2.46831E-18-6.09520E-18
 -1       600 1.35396E-04-9.01757E-06-5.47716E-05-1.65207E-06-8.37176E-18-2.31301E-18
 -1       601 1.44783E-04-4.10427E-05-4.48156E-05-7.04346E-06-5.73134E-18 3.63589E-19
 -1       602 1.39123E-04-2.10275E-05-5.11683E-05-1.09866E-05-8.33258E-18-4.02870E-20
 -1       603 1.35867E-04-1.43078E-05-5.26384E-05 9.79075E-06-5.92500E-18-3.68091E-18
 -1       604 1.42657E-04-3.65719E-05-4.59123E-05 1.07152E-05-2.71675E-18-5.30015E-18
 -1       605 1.41916E-04-5.54723E-05-3.72576E-05-6.40434E-06-2.27918E-19-5.33911E-18
 -1       606 1.23268E-04-6.04866E-05-2.68583E-05-2.75940E-05 1.93791E-18-3.74579E-18
 -1       607 8.83664E-05-4.99200E-05-1.62076E-05-4.16309E-05 2.80627E-18 1.65579E-18
 -1       608 9.98218E-05-2.41222E-05-3.24458E-05 5.74348E-06 4.69333E-18 1.92108E-18
 -1       609 1.42248E-04-5.42064E-05-3.79986E-05 4.05389E-06 9.44154E-19-4.25968E-18
 -1       610 9.02419E-05-1.41828E-05-3.26251E-05-3.32188E-06-2.13456E-18-5.92548E-18
 -1       611 4.31578E-05-2.12620E-05-8.80864E-06 2.84291E-05-4.56731E-18 2.92290E-18
 -1       612 9.52331E-05-2.85781E-05-2.85664E-05 3.15191E-08-6.88964E-19 4.40051E-18
 -1       613 1.25147E-04-6.06295E-05-2.76272E-05 2.37654E-05 3.20470E-19-3.99178E-19
 -1       614 1.28324E-04-1.52205E-05-4.90533E-05 9.93062E-06 6.19350E-18 1.38756E-18
 -1       615 1.26302E-04-9.59348E-06-5.05795E-05-3.84290E-06 7.50916E-18-4.82094E-19
 -1       616 8.49977E-05-1.16542E-05-3.14367E-05-2.31664E-07 2.17567E-18-4.92242E-18
 -1       617 8.37759E-05-1.06479E-05-3.13440E-05-1.51082E-07 1.56955E-18-5.41937E-18
 -1       618 9.03022E-05-1.61948E-05-3.17654E-05 3.70514E-07 3.46032E-18-3.40837E-18
 -1       619 9.38925E-05-1.95520E-05-3.18665E-05 9.10682E-07 3.90576E-18-2.33982E-18
 -1       620 9.74132E-05-2.38318E-05-3.15254E-05-2.35759E-07 3.53063E-18-1.07025E-18
 -1       621 1.13625E-04-5.61491E-05-2.45174E-05 2.71544E-05-3.53133E-18-2.23918E-18
 -1       622 9.80029E-05-2.57897E-05-3.09440E-05-3.63887E-06 2.57327E-18-1.33860E-18
 -1       623 1.36808E-04-5.36594E-05-3.58183E-05 1.64663E-06-1.34787E-19 2.27370E-18
 -1       624 8.07487E-05-4.06124E-05-1.68383E-05-3.74658E-05 3.73232E-18 2.37010E-19
 -1       625 9.67510E-05-2.48003E-05-3.08333E-05 4.43038E-06-1.81222E-18-3.29963E-18
 -1       626 9.74499E-05-2.65374E-05-3.03900E-05 7.04676E-06-1.13634E-18-2.75690E-18
 -1       627 9.85818E-05-2.84647E-05-3.00502E-05 8.96606E-06-4.11097E-19-2.17570E-18
 -1       628 1.00536E-04-3.10423E-05-2.97846E-05 1.01067E-05-1.73078E-19-1.89416E-18
 -1       629 1.03730E-04-3.46222E-05-2.96210E-05 1.02043E-05 1.11055E-19-1.23844E-18
 -1       630 1.08491E-04-3.92455E-05-2.96804E-05 8.73423E-06 4.50932E-19-3.55612E-19
 -1       631 1.14721E-04-4.41830E-05-3.02385E-05 4.89468E-06 4.19054E-19 4.99061E-19
 -1       632 1.21128E-04-4.71786E-05-3.17172E-05-1.87978E-06-1.25559E-19 1.14042E-18
 -1       633 1.24625E-04-4.40045E-05-3.46558E-05-1.04032E-05-1.45888E-18 1.54790E-18
 -1       634 1.22441E-04-3.27616E-05-3.86991E-05-1.53301E-05-3.46953E-18 1.37189E-18
 -1       635 1.16765E-04-1.87488E-05-4.23815E-05-1.00021E-05-5.13249E-18-3.65759E-19
 -1       636 1.14648E-04-1.41956E-05-4.34402E-05 4.17753E-06-5.09493E-18-2.65622E-18
 -1       637 1.19525E-04-2.47747E-05-4.09789E-05 1.53729E-05-2.92907E-18-3.58487E-18
 -1       638 1.24365E-04-3.89413E-05-3.67277E-05 1.49873E-05-5.36331E-19-3.50497E-18
 -1       639 1.23513E-04-4.65195E-05-3.30429E-05 7.26726E-06 1.50687E-18-2.74660E-18
 -1       640 1.18129E-04-4.60845E-05-3.08887E-05-6.23434E-07 2.07299E-18-1.93211E-18
 -1       641 1.11581E-04-4.18610E-05-2.98830E-05-5.95973E-06 1.79637E-18-1.77883E-18
 -1       642 1.05965E-04-3.70270E-05-2.95462E-05-8.66405E-06 1.85045E-18-3.10522E-18
 -1       643 1.01919E-04-3.30697E-05-2.95082E-05-9.55297E-06 4.75234E-19-3.10865E-18
 -1       644 9.92857E-05-3.03256E-05-2.95548E-05-9.37553E-06-7.07790E-20-3.36906E-18
 -1       645 9.76762E-05-2.86356E-05-2.95887E-05-8.62896E-06-8.29562E-19-3.39389E-18
 -1       646 9.67308E-05-2.77140E-05-2.95782E-05-7.61450E-06-7.80469E-20-2.42568E-18
 -1       647 9.61861E-05-2.72973E-05-2.95232E-05-6.51268E-06 3.84182E-19-2.63367E-18
 -1       648 9.58711E-05-2.71863E-05-2.94358E-05-5.43079E-06 4.70545E-19-2.84489E-18
 -1       649 9.56837E-05-2.72452E-05-2.93303E-05-4.43016E-06 4.09726E-19-2.75593E-18
 -1       650 9.55660E-05-2.73880E-05-2.92187E-05-3.54242E-06 2.54811E-19-2.59481E-18
 -1       651 9.54866E-05-2.75624E-05-2.91100E-05-2.77964E-06 7.51505E-19-1.44117E-18
 -1       652 9.54292E-05-2.77390E-05-2.90098E-05-2.14118E-06 1.02909E-18-4.64984E-19
 -1       653 9.53854E-05-2.79022E-05-2.89212E-05-1.61860E-06-4.92956E-19 9.76927E-19
 -1       654 9.53509E-05-2.80450E-05-2.88452E-05-1.19935E-06 8.76932E-19 3.26753E-18
 -1       655 9.53234E-05-2.81655E-05-2.87818E-05-8.69242E-07 3.40246E-19 3.49955E-18
 -1       656 9.53016E-05-2.82644E-05-2.87301E-05-6.13993E-07 1.35021E-18 2.48000E-18
 -1       657 9.52844E-05-2.83436E-05-2.86888E-05-4.20169E-07 4.67742E-19 2.01646E-18
 -1       658 9.52711E-05-2.84059E-05-2.86565E-05-2.75710E-07-5.88748E-19 1.86746E-18
 -1       659 9.52609E-05-2.84538E-05-2.86316E-05-1.70173E-07-5.85725E-20 1.23729E-18
 -1       660 9.52533E-05-2.84901E-05-2.86128E-05-9.47761E-08 1.01758E-18 1.86054E-18
 -1       661 9.52478E-05-2.85171E-05-2.85988E-05-4.23177E-08 6.45615E-19 9.52852E-19
 -1       662 9.52438E-05-2.85369E-05-2.85887E-05-7.03692E-09-2.21100E-19 6.13906E-19
 -1       663 9.52412E-05-2.85512E-05-2.85814E-05 1.55566E-08 2.14946E-19 2.80603E-18
 -1       664 9.52396E-05-2.85617E-05-2.85762E-05 2.88493E-08 1.18733E-18 2.72472E-18
 -1       665 9.52389E-05-2.85697E-05-2.85725E-05 3.53205E-08 8.70125E-19 3.78809E-18
 -1       666 9.52391E-05-2.85764E-05-2.85697E-05 3.66055E-08-4.60061E-19 2.58671E-18
 -1       667 1.23650E-04-1.42839E-05-4.73899E-05-8.74288E-06-6.91909E-18-5.22513E-19
 -1       668 1.37554E-04-4.80560E-05-3.85923E-05 8.74939E-06-4.54010E-19-5.13649E-18
 -1       669 9.98861E-05-2.90819E-05-3.03446E-05-7.85357E-06 1.36799E-18-1.41060E-18
 -1       670 1.08468E-04-3.78687E-05-3.02576E-05-6.41262E-06-4.88046E-19-6.55151E-19
 -1       671 1.13138E-04-4.15092E-05-3.07060E-05-2.51888E-06-8.09719E-20 1.89299E-19
 -1       672 1.17564E-04-4.35598E-05-3.17390E-05 3.50543E-06 6.69760E-20 1.58582E-18
 -1       673 1.19624E-04-4.13318E-05-3.35963E-05 1.02577E-05 4.79110E-19 2.14765E-18
 -1       674 1.17388E-04-3.32332E-05-3.61462E-05 1.39684E-05 2.16063E-18 1.64561E-18
 -1       675 1.12344E-04-2.25892E-05-3.86261E-05 1.02599E-05 3.31791E-18 1.08705E-18
 -1       676 1.09167E-04-1.72613E-05-3.96477E-05-8.92783E-07 3.76816E-18-1.21138E-18
 -1       677 1.13211E-04-2.35199E-05-3.85526E-05-1.20684E-05 3.34461E-18-3.69571E-18
 -1       678 1.17523E-04-3.36141E-05-3.60422E-05-1.53830E-05 1.32442E-18-3.93958E-18
 -1       679 1.19788E-04-4.15821E-05-3.35379E-05-1.10330E-05 5.67079E-19-3.44247E-18
 -1       680 1.17522E-04-4.34769E-05-3.17409E-05-4.21851E-06 6.36925E-20-3.32944E-18
 -1       681 1.13089E-04-4.13571E-05-3.07480E-05 1.67189E-06-3.24950E-19-2.59250E-18
 -1       682 1.08421E-04-3.77290E-05-3.03033E-05 5.50977E-06-1.06971E-18-2.52070E-18
 -1       683 1.04565E-04-3.42682E-05-3.01315E-05 7.47417E-06-4.05825E-19-3.32010E-18
 -1       684 1.01739E-04-3.16121E-05-3.00566E-05 8.10616E-06-9.79077E-19-1.58860E-18
 -1       685 9.97908E-05-2.98223E-05-2.99872E-05 7.90156E-06-4.02820E-19-8.81522E-19
 -1       686 9.84786E-05-2.87335E-05-2.98905E-05 7.22511E-06-4.13680E-19-4.63689E-19
 -1       687 9.75918E-05-2.81399E-05-2.97644E-05 6.32282E-06-7.88537E-19-5.28259E-19
 -1       688 9.69789E-05-2.78662E-05-2.96188E-05 5.35295E-06-6.66615E-21-1.29771E-18
 -1       689 9.65413E-05-2.77844E-05-2.94664E-05 4.41167E-06-1.61632E-18-9.24719E-19
 -1       690 9.62188E-05-2.78091E-05-2.93176E-05 3.55269E-06-7.59260E-19-3.33122E-18
 -1       691 9.59750E-05-2.78868E-05-2.91799E-05 2.80151E-06 1.21796E-19-4.52565E-18
 -1       692 9.57880E-05-2.79855E-05-2.90576E-05 2.16559E-06-3.87130E-19-2.69370E-18
 -1       693 9.56435E-05-2.80868E-05-2.89524E-05 1.64123E-06-8.14619E-20-1.33335E-18
 -1       694 9.55322E-05-2.81812E-05-2.88644E-05 1.21850E-06-6.75375E-19-9.95523E-19
 -1       695 9.54471E-05-2.82642E-05-2.87924E-05 8.84527E-07-1.16601E-18 7.20385E-19
 -1       696 9.53827E-05-2.83343E-05-2.87348E-05 6.25662E-07-2.42009E-19 6.99652E-19
 -1       697 9.53349E-05-2.83920E-05-2.86896E-05 4.28746E-07-1.28731E-19 7.29694E-20
 -1       698 9.53000E-05-2.84383E-05-2.86549E-05 2.81796E-07 9.09915E-19-9.47828E-19
 -1       699 9.52751E-05-2.84747E-05-2.86287E-05 1.74337E-07-4.85891E-19-1.57818E-18
 -1       700 9.52580E-05-2.85028E-05-2.86093E-05 9.75069E-08-3.48820E-19 1.62596E-18
 -1       701 9.52465E-05-2.85241E-05-2.85953E-05 4.40085E-08-1.56783E-18 1.55088E-18
 -1       702 9.52394E-05-2.85400E-05-2.85854E-05 7.98214E-09-4.55122E-19-2.05967E-19
 -1       703 9.52353E-05-2.85519E-05-2.85786E-05-1.51474E-08 9.27761E-19-5.19146E-19
 -1       704 9.52335E-05-2.85608E-05-2.85740E-05-2.88347E-08 1.00291E-18 4.72542E-20
 -1       705 9.52333E-05-2.85677E-05-2.85710E-05-3.56028E-08-1.53631E-19-1.28887E-18
 -1       706 9.52344E-05-2.85736E-05-2.85689E-05-3.71944E-08 3.42493E-19-1.78243E-18
 -1       707 9.52376E-05-2.85790E-05-2.85680E-05-3.56930E-08-1.41303E-18-1.92620E-18
 -1       708 9.52582E-05-2.85874E-05-2.85732E-05-4.77508E-09 1.00955E-18-2.77927E-18
 -1       709 9.52395E-05-2.85805E-05-2.85682E-05 3.51127E-08 1.53869E-18 2.39722E-18
 -1       710 9.52546E-05-2.85862E-05-2.85721E-05-2.29221E-08-2.02851E-19-2.34541E-18
 -1       711 9.52582E-05-2.85874E-05-2.85732E-05 4.91153E-09-1.09781E-18-2.91080E-19
 -1       712 9.52571E-05-2.85871E-05-2.85729E-05-1.42402E-08 5.08186E-19-2.89950E-18
 -1       713 8.22071E-05-4.07990E-05-1.74348E-05 3.65515E-05-4.29755E-18 1.35938E-18
 -1       714 9.52571E-05-2.85871E-05-2.85729E-05 1.42104E-08-1.56906E-18-3.47207E-19
 -1       715 9.52546E-05-2.85862E-05-2.85721E-05 2.29098E-08-5.54095E-19-6.64137E-19
 -1       716 9.52501E-05-2.85845E-05-2.85710E-05 3.00866E-08 5.77067E-19 4.28142E-18
 -1       717 9.87278E-05-2.73749E-05-3.05772E-05-6.15499E-06 1.97603E-18-1.69180E-18
 -1       718 3.36389E-05-1.17853E-05-8.75723E-06 5.28749E-06-3.34970E-18 5.55553E-18
 -1       719 1.10621E-04-5.59849E-05-2.32551E-05-3.04065E-05 3.40830E-18-3.30077E-18
 -1       720 3.89882E-05-1.33010E-05-1.04608E-05 1.24967E-05 1.36531E-18-8.29012E-18
 -1       721 9.49508E-05-2.00995E-05-3.20798E-05-1.93544E-06-2.70737E-18-4.45323E-18
 -1       722 6.40994E-05-2.81837E-05-1.49531E-05-3.30944E-05-3.22177E-18-6.09157E-18
 -1       723 1.34020E-04-3.63299E-05-4.22506E-05 1.26535E-05 3.00808E-18 2.72551E-18
 -1       724 1.04560E-04-3.42178E-05-3.01491E-05-8.31189E-06-1.05873E-19-7.70552E-19
 -1       725 1.01751E-04-3.12845E-05-3.02013E-05-8.65566E-06 6.80571E-19-1.20354E-18
 -1       726 9.60299E-05-2.28413E-05-3.13664E-05 1.49978E-06-2.32639E-18-3.82419E-18
 -1       727 8.72403E-05-1.35332E-05-3.15936E-05-6.77697E-08 2.82325E-18-4.31831E-18
 -1       728 5.98512E-05-2.62469E-05-1.39582E-05 3.17981E-05 2.87895E-18-6.42077E-18
 -1       729 8.70294E-05-1.33293E-05-3.15899E-05 4.18406E-08-5.54043E-19-5.43804E-18
 -1       730 1.35690E-04-5.18666E-05-3.61404E-05-4.73869E-06-1.61278E-18 2.27246E-18
 -1       731 9.79846E-05-4.87828E-05-2.08685E-05 3.49014E-05 2.47630E-18-2.04140E-18
 -1       732 9.83993E-05-4.90866E-05-2.08793E-05-3.48401E-05-4.48178E-18-3.65445E-18
 -1       733 1.27922E-04-2.51044E-05-4.44773E-05 1.57980E-05-3.27577E-18-3.77306E-18
 -1       734 1.26370E-04-2.16782E-05-4.53654E-05-1.44704E-05 5.21883E-18-2.96383E-18
 -1       735 1.22601E-04-1.10726E-05-4.83852E-05 3.60687E-06-6.43295E-18-2.46694E-18
 -1       736 3.96270E-05-1.28537E-05-1.09633E-05-1.17249E-05-1.02341E-18-7.87730E-18
 -1       737 1.23374E-04-5.92984E-05-2.74396E-05-2.12050E-05-3.10487E-18-6.78487E-20
 -1       738 1.31387E-04-3.16375E-05-4.31336E-05-1.47749E-05-5.05070E-18 1.69047E-18
 -1       739 4.94687E-05-1.93057E-05-1.24478E-05-2.46746E-05 1.22882E-18 2.67853E-18
 -1       740 1.33424E-04-5.82470E-05-3.22817E-05 6.79168E-06-1.05857E-18-4.55360E-18
 -1       741 1.32353E-04-5.93153E-05-3.13702E-05-1.07697E-05 1.85564E-18-5.29782E-18
 -1       742 1.34937E-04-4.45181E-05-3.90673E-05-1.15225E-05 1.09790E-18-4.16933E-18
 -1       743 9.00692E-05-1.59432E-05-3.17717E-05-3.66955E-07-1.36555E-18-5.37428E-18
 -1       744 8.37253E-05-1.06012E-05-3.13424E-05 4.09326E-08 8.44605E-19-5.65930E-18
 -1       745 6.74568E-05-2.95874E-05-1.58429E-05 3.22323E-05-4.46249E-18 2.81914E-18
 -1       746 4.70857E-05-1.30139E-05-1.42268E-05-9.60165E-06 3.94876E-19 2.94659E-18
 -1       747 9.52502E-05-2.85845E-05-2.85710E-05-3.00121E-08 2.46552E-19-3.34611E-18
 -1       748 9.52446E-05-2.85823E-05-2.85696E-05-3.40821E-08-6.09030E-19-3.79925E-18
 -1       749 8.44356E-05-3.77622E-05-1.97318E-05 3.21867E-05 3.37981E-18-3.49894E-18
 -1       750 9.52456E-05-2.85805E-05-2.85708E-05 3.41427E-08-1.76424E-19 4.59160E-18
 -1       751 1.25115E-04-2.59053E-05-4.29211E-05 1.47496E-05 3.87960E-18 2.72493E-18
 -1       752 1.30930E-04-5.68732E-05-3.17299E-05 5.82128E-06 3.90098E-20 1.69595E-18
 -1       753 8.48481E-05-1.15152E-05-3.14324E-05 1.54793E-07 1.90961E-19-5.43031E-18
 -1       754 1.19565E-04-1.24377E-05-4.64387E-05 4.83383E-06 6.08403E-18 1.01689E-18
 -1       755 1.13983E-04-5.50772E-05-2.52128E-05 2.54001E-05 2.45045E-18-2.33023E-19
 -1       756 9.30070E-05-2.03452E-05-3.11400E-05-2.14816E-06 2.90757E-18-2.61721E-18
 -1       757 5.59100E-05-1.79077E-05-1.59741E-05 1.96217E-05 2.10516E-18-6.17585E-18
 -1       758 9.43598E-05-2.50392E-05-2.97085E-05 8.50149E-06-5.15589E-19-2.87056E-18
 -1       759 9.53959E-05-2.74425E-05-2.91227E-05 1.07943E-05-1.78968E-19-2.60553E-18
 -1       760 9.75018E-05-3.08292E-05-2.85743E-05 1.27134E-05 4.01574E-19-2.44907E-18
 -1       761 1.01408E-04-3.57237E-05-2.81502E-05 1.39818E-05 9.34535E-19-1.89694E-18
 -1       762 1.07928E-04-4.23377E-05-2.80897E-05 1.38462E-05 1.33103E-18-1.09817E-18
 -1       763 1.17283E-04-4.96357E-05-2.89740E-05 1.05910E-05 1.20654E-18 2.70347E-19
 -1       764 1.31329E-04-5.08852E-05-3.45805E-05 5.70045E-06 8.67393E-19-4.42196E-18
 -1       765 1.22747E-04-5.17159E-05-3.04217E-05-4.37200E-06 2.20747E-18-3.51337E-18
 -1       766 1.12826E-04-4.60154E-05-2.86179E-05-1.03443E-05 1.73664E-18-3.95712E-18
 -1       767 1.04847E-04-3.91889E-05-2.81318E-05-1.23772E-05 1.48431E-18-2.89032E-18
 -1       768 9.95572E-05-3.37061E-05-2.82207E-05-1.22808E-05 1.26993E-18-3.28036E-18
 -1       769 9.64644E-05-2.99949E-05-2.84867E-05-1.12770E-05-2.19237E-19-2.46727E-18
 -1       770 9.48486E-05-2.77579E-05-2.87528E-05-9.96161E-06-8.07395E-19-2.70833E-18
 -1       771 9.41379E-05-2.65789E-05-2.89534E-05-8.59101E-06-3.90899E-19-2.26811E-18
 -1       772 9.39360E-05-2.60921E-05-2.90755E-05-7.27263E-06 4.82923E-20-2.97135E-18
 -1       773 9.39937E-05-2.60250E-05-2.91290E-05-6.05419E-06 2.17801E-19-3.26577E-18
 -1       774 9.41644E-05-2.61911E-05-2.91311E-05-4.95830E-06-3.76424E-19-3.02144E-18
 -1       775 9.43680E-05-2.64702E-05-2.90988E-05-3.99514E-06-2.81581E-19-3.02882E-18
 -1       776 9.45640E-05-2.67886E-05-2.90464E-05-3.16677E-06 1.38826E-18-2.74181E-18
 -1       777 9.47345E-05-2.71033E-05-2.89846E-05-2.46884E-06 1.36557E-18-2.13805E-18
 -1       778 9.48740E-05-2.73916E-05-2.89209E-05-1.89198E-06 1.23966E-18-2.06964E-18
 -1       779 9.49835E-05-2.76430E-05-2.88601E-05-1.42373E-06 1.18294E-18 6.62566E-19
 -1       780 9.50667E-05-2.78550E-05-2.88049E-05-1.05029E-06 4.51538E-19 1.07244E-18
 -1       781 9.51281E-05-2.80290E-05-2.87567E-05-7.57600E-07 8.45885E-19 7.30001E-19
 -1       782 9.51722E-05-2.81687E-05-2.87157E-05-5.32162E-07 3.54921E-19 6.30364E-19
 -1       783 9.52028E-05-2.82785E-05-2.86818E-05-3.61568E-07-4.10661E-19 1.28167E-19
 -1       784 9.52233E-05-2.83632E-05-2.86543E-05-2.34850E-07 1.78254E-19 5.48348E-19
 -1       785 9.52363E-05-2.84273E-05-2.86324E-05-1.42605E-07-4.21151E-20 6.46734E-19
 -1       786 9.52439E-05-2.84749E-05-2.86153E-05-7.69794E-08 3.16895E-19 5.90567E-20
 -1       787 9.52477E-05-2.85096E-05-2.86021E-05-3.15700E-08 8.45809E-20 1.26175E-18
 -1       788 9.52490E-05-2.85345E-05-2.85920E-05-1.28300E-09 2.98522E-19 2.11574E-18
 -1       789 9.52488E-05-2.85522E-05-2.85843E-05 1.78416E-08 5.15699E-20 3.96335E-18
 -1       790 9.52478E-05-2.85649E-05-2.85784E-05 2.86799E-08 1.67140E-18 5.76121E-18
 -1       791 9.52465E-05-2.85734E-05-2.85742E-05 3.32314E-08-8.79629E-19 4.27481E-18
 -1       792 1.09180E-04-4.13162E-05-2.90882E-05-9.95293E-06-1.00808E-18-7.82997E-19
 -1       793 1.27788E-04-4.44801E-05-3.59048E-05 1.09155E-05 6.69189E-19 2.58199E-18
 -1       794 1.27037E-04-4.42530E-05-3.57306E-05-1.10211E-05 6.56285E-19-3.99107E-18
 -1       795 1.23450E-04-4.92114E-05-3.18357E-05-2.23588E-06-4.99174E-19-2.88054E-18
 -1       796 1.15858E-04-4.64535E-05-2.97595E-05 5.16673E-06-1.13088E-18-2.36360E-18
 -1       797 1.08425E-04-4.08323E-05-2.89727E-05 9.05936E-06-4.36729E-19-1.64375E-18
 -1       798 1.02837E-04-3.56260E-05-2.88060E-05 1.04204E-05-5.82210E-19-1.01248E-18
 -1       799 9.91503E-05-3.17183E-05-2.89005E-05 1.03567E-05-1.65089E-18-3.98386E-19
 -1       800 9.69493E-05-2.91595E-05-2.90528E-05 9.59711E-06-1.04914E-18-1.22191E-18
 -1       801 9.57445E-05-2.76652E-05-2.91766E-05 8.53437E-06-1.10351E-18-7.55145E-19
 -1       802 9.51526E-05-2.69144E-05-2.92446E-05 7.37211E-06-6.14410E-21-8.62073E-19
 -1       803 9.49107E-05-2.66410E-05-2.92581E-05 6.22168E-06-3.31670E-19-8.81570E-19
 -1       804 9.48530E-05-2.66500E-05-2.92296E-05 5.14487E-06-1.24550E-18 1.05546E-19
 -1       805 9.48823E-05-2.68104E-05-2.91734E-05 4.17484E-06-4.35161E-19 1.31373E-19
 -1       806 9.49451E-05-2.70395E-05-2.91022E-05 3.32686E-06 5.91481E-19-1.08523E-18
 -1       807 9.50141E-05-2.72872E-05-2.90256E-05 2.60434E-06-7.49708E-19-1.55165E-18
 -1       808 9.50766E-05-2.75254E-05-2.89504E-05 2.00259E-06-1.29502E-18-9.91237E-19
 -1       809 9.51280E-05-2.77394E-05-2.88807E-05 1.51154E-06-1.28613E-18-7.77156E-19
 -1       810 9.51677E-05-2.79235E-05-2.88188E-05 1.11830E-06-1.24362E-18-8.74474E-19
 -1       811 9.51968E-05-2.80768E-05-2.87656E-05 8.09061E-07-1.43724E-18-6.51145E-19
 -1       812 9.52173E-05-2.82012E-05-2.87211E-05 5.70183E-07 5.84638E-20-9.66989E-19
 -1       813 9.52311E-05-2.83000E-05-2.86847E-05 3.88958E-07 4.17218E-20-1.16598E-18
 -1       814 9.52397E-05-2.83768E-05-2.86555E-05 2.54025E-07 5.35464E-20 4.86250E-19
 -1       815 9.52447E-05-2.84354E-05-2.86325E-05 1.55568E-07-1.21861E-18 7.14073E-19
 -1       816 9.52471E-05-2.84793E-05-2.86148E-05 8.53433E-08-8.62460E-19-9.20692E-19
 -1       817 9.52477E-05-2.85115E-05-2.86012E-05 3.65987E-08-1.82845E-19-1.62833E-18
 -1       818 9.52473E-05-2.85347E-05-2.85911E-05 3.93187E-09 1.61148E-19-2.26112E-18
 -1       819 9.52462E-05-2.85514E-05-2.85835E-05-1.68488E-08 4.69444E-19-2.11636E-18
 -1       820 9.52450E-05-2.85634E-05-2.85778E-05-2.88228E-08 1.62445E-18-2.22203E-18
 -1       821 9.52440E-05-2.85724E-05-2.85735E-05-3.43426E-08 9.49743E-19-3.60558E-18
 -1       822 9.52442E-05-2.85774E-05-2.85715E-05-3.49801E-08-3.60931E-19-3.48742E-18
 -1       823 1.21382E-04-5.65837E-05-2.77566E-05-1.67359E-05 2.60042E-18-4.66998E-18
 -1       824 8.45927E-05-1.31753E-05-3.06085E-05-1.08338E-06 1.62449E-18-4.61058E-18
 -1       825 9.52603E-05-2.85743E-05-2.85797E-05 5.79526E-11 5.75995E-19-1.60571E-18
 -1       826 9.52543E-05-2.85759E-05-2.85765E-05 2.58504E-08-1.28596E-19 2.69110E-18
 -1       827 9.52598E-05-2.85746E-05-2.85794E-05 8.94337E-09-3.42810E-19 8.68247E-19
 -1       828 9.74449E-05-2.83826E-05-2.95983E-05-9.67530E-06 8.15895E-19-1.97860E-18
 -1       829 1.03366E-04-3.57536E-05-2.89736E-05-1.13321E-05-7.08631E-19-1.43244E-18
 -1       830 9.90462E-05-4.49960E-05-2.30954E-05 2.69749E-05-3.76234E-18 1.21132E-19
 -1       831 9.52581E-05-2.85753E-05-2.85783E-05 1.77012E-08-2.04990E-19-1.38945E-18
 -1       832 1.24079E-04-4.94521E-05-3.19674E-05 1.32081E-06-6.76965E-19 1.36679E-18
 -1       833 1.16215E-04-4.66033E-05-2.98634E-05-6.00213E-06-1.23221E-18 1.67428E-19
 -1       834 1.11986E-04-5.17715E-05-2.57317E-05-2.30391E-05-3.31677E-18-1.08712E-18
 -1       835 9.38026E-05-2.30407E-05-3.03260E-05 5.87498E-06-9.12592E-19-3.23955E-18
 -1       836 5.92826E-05-1.80693E-05-1.73961E-05-1.89773E-05-1.50542E-18-5.52476E-18
 -1       837 9.96665E-05-3.14922E-05-2.92167E-05-1.09924E-05 4.36267E-20-1.88358E-18
 -1       838 4.95705E-05-1.64903E-05-1.37863E-05 1.89185E-05-3.77693E-18 3.23000E-18
 -1       839 1.27185E-04-5.45428E-05-3.11723E-05-4.84439E-06-1.65656E-18 1.45397E-18
 -1       840 9.98809E-05-4.72831E-05-2.23882E-05-2.95173E-05 3.93029E-18-2.00930E-18
 -1       841 9.56399E-05-2.31929E-05-3.10482E-05-2.91517E-06 2.92649E-18-2.02614E-18
 -1       842 4.93018E-05-1.21134E-05-1.56530E-05 1.42732E-06 3.50069E-19-6.54868E-18
 -1       843 1.21632E-04-5.41524E-05-2.88733E-05 1.15169E-05-1.54520E-18-2.77612E-18
 -1       844 8.64597E-05-3.71114E-05-2.10192E-05-2.99905E-05-3.43788E-18-4.30718E-18
 -1       845 7.31503E-05-2.94770E-05-1.84875E-05-2.87493E-05 2.27376E-18-7.44052E-19
 -1       846 8.38421E-05-1.25590E-05-3.05509E-05-1.03807E-07 1.04192E-18-5.01599E-18
 -1       847 8.92449E-05-1.70234E-05-3.09545E-05 2.13839E-06-6.82687E-19-4.79509E-18
 -1       848 8.77333E-05-3.72212E-05-2.14912E-05 2.80398E-05-3.70242E-18 5.39878E-19
 -1       849 5.18841E-05-1.28295E-05-1.65094E-05 4.16694E-06-4.91379E-19 1.88352E-18
 -1       850 9.52544E-05-2.85760E-05-2.85765E-05-2.58599E-08-6.79356E-20-2.76602E-18
 -1       851 6.32878E-05-2.02307E-05-1.82550E-05-1.99994E-05 2.01643E-18 1.10945E-18
 -1       852 7.60753E-05-2.58848E-05-2.14032E-05-2.26583E-05-1.76374E-18-4.06578E-18
 -1       853 8.65698E-05-1.48082E-05-3.07541E-05-1.78286E-06 2.15340E-18-4.24075E-18
 -1       854 9.52580E-05-2.85754E-05-2.85783E-05-1.77730E-08-7.16070E-19-3.82574E-19
 -1       855 9.63185E-05-2.51628E-05-3.04954E-05-5.80448E-06 2.17269E-18-2.05697E-18
 -1       856 9.52598E-05-2.85746E-05-2.85794E-05-8.94676E-09 3.73264E-20-2.75398E-18
 -1       857 1.00120E-04-4.63470E-05-2.29040E-05 2.86484E-05 2.83809E-18-1.59063E-18
 -1       858 9.67061E-05-2.66006E-05-3.00457E-05-7.91054E-06 1.43588E-18-2.06989E-18
 -1       859 8.63560E-05-1.46046E-05-3.07520E-05 1.70929E-06-1.29320E-20-4.95869E-18
 -1       860 9.31908E-05-2.10428E-05-3.09217E-05 3.21429E-06-1.37342E-18-3.89905E-18
 -1       861 8.95296E-05-1.73014E-05-3.09535E-05-2.13031E-06 2.70607E-18-3.36084E-18
 -1       862 9.52511E-05-2.85748E-05-2.85756E-05 2.99002E-08-5.26924E-19 5.05097E-18
 -1       863 7.38132E-05-2.73389E-05-1.97389E-05 2.60591E-05 2.85167E-18-4.56219E-18
 -1       864 9.08203E-05-2.58133E-05-2.78600E-05 1.25000E-05 4.70387E-19-2.99102E-18
 -1       865 9.23563E-05-2.95785E-05-2.69065E-05 1.57474E-05 1.02351E-18-2.53439E-18
 -1       866 9.61143E-05-3.53868E-05-2.60102E-05 1.90950E-05 1.79439E-18-2.02779E-18
 -1       867 9.12989E-05-3.79348E-05-2.27769E-05-2.55674E-05 2.74598E-18-2.77550E-18
 -1       868 1.00348E-04-4.01287E-05-2.57710E-05-1.89911E-05 1.70975E-18-1.76602E-18
 -1       869 9.44166E-05-3.30924E-05-2.62632E-05-1.64588E-05 1.10116E-18-2.56131E-18
 -1       870 9.15544E-05-2.86645E-05-2.69518E-05-1.36691E-05 1.61657E-18-2.94299E-18
 -1       871 9.04773E-05-2.61340E-05-2.75757E-05-1.12388E-05-1.27104E-19-1.46912E-18
 -1       872 9.03827E-05-2.48839E-05-2.80708E-05-9.24602E-06-1.06390E-18-1.46609E-19
 -1       873 9.07827E-05-2.44470E-05-2.84294E-05-7.60805E-06-1.21151E-18-3.42257E-19
 -1       874 9.13934E-05-2.44996E-05-2.86686E-05-6.24262E-06-3.78751E-19-6.65029E-19
 -1       875 9.20555E-05-2.48235E-05-2.88136E-05-5.08860E-06 2.17638E-19-1.89667E-18
 -1       876 9.26854E-05-2.52778E-05-2.88889E-05-4.10754E-06-4.82809E-19-1.04337E-18
 -1       877 9.32438E-05-2.57742E-05-2.89155E-05-3.27579E-06 5.85913E-19-2.53547E-18
 -1       878 9.37164E-05-2.62595E-05-2.89101E-05-2.57720E-06 1.36480E-18-2.55400E-18
 -1       879 9.41027E-05-2.67035E-05-2.88853E-05-1.99766E-06 9.81954E-19-1.43954E-18
 -1       880 9.44100E-05-2.70923E-05-2.88504E-05-1.52337E-06 1.92603E-18-1.84236E-18
 -1       881 9.46491E-05-2.74221E-05-2.88116E-05-1.14100E-06 1.60126E-18-1.55323E-18
 -1       882 9.48312E-05-2.76948E-05-2.87728E-05-8.37720E-07 6.03298E-20-3.66513E-19
 -1       883 9.49670E-05-2.79152E-05-2.87365E-05-6.01107E-07 6.52863E-19-5.93091E-19
 -1       884 9.50659E-05-2.80899E-05-2.87040E-05-4.19571E-07-8.41624E-19-1.44308E-19
 -1       885 9.51361E-05-2.82256E-05-2.86759E-05-2.82693E-07-2.53625E-19-1.46345E-19
 -1       886 9.51844E-05-2.83292E-05-2.86522E-05-1.81392E-07 2.29106E-19-4.89177E-20
 -1       887 9.52163E-05-2.84067E-05-2.86327E-05-1.07949E-07 2.29570E-19 1.09521E-18
 -1       888 9.52362E-05-2.84636E-05-2.86168E-05-5.59549E-08 7.11364E-19 2.55426E-18
 -1       889 9.52475E-05-2.85046E-05-2.86041E-05-2.02161E-08 1.74659E-19 2.71616E-18
 -1       890 9.52529E-05-2.85337E-05-2.85940E-05 3.34412E-09 1.76190E-18 2.08830E-18
 -1       891 9.52546E-05-2.85544E-05-2.85858E-05 1.80432E-08 1.94325E-18 4.42530E-18
 -1       892 9.95073E-05-3.63737E-05-2.70468E-05 1.49797E-05-1.30761E-18-4.51413E-19
 -1       893 9.52483E-05-3.12381E-05-2.74316E-05 1.32815E-05-7.61425E-19-8.07574E-19
 -1       894 9.31202E-05-2.80546E-05-2.78839E-05 1.13847E-05-6.67588E-19-1.39752E-18
 -1       895 9.22534E-05-2.62661E-05-2.82795E-05 9.61703E-06-1.13775E-18-1.92727E-18
 -1       896 9.21104E-05-2.54273E-05-2.85782E-05 8.04868E-06-1.13045E-18-1.92722E-18
 -1       897 9.23426E-05-2.51923E-05-2.87785E-05 6.67777E-06-3.74753E-19 3.89474E-19
 -1       898 9.27388E-05-2.53133E-05-2.88965E-05 5.48502E-06-1.36872E-18 6.38231E-19
 -1       899 9.31793E-05-2.56242E-05-2.89521E-05 4.45219E-06-1.00755E-18-2.90871E-19
 -1       900 9.36008E-05-2.60184E-05-2.89638E-05 3.56584E-06 9.00568E-19-6.86211E-19
 -1       901 9.39735E-05-2.64308E-05-2.89468E-05 2.81458E-06-3.75367E-19 7.64934E-19
 -1       902 9.42870E-05-2.68233E-05-2.89130E-05 2.18749E-06-4.13862E-19 6.55609E-19
 -1       903 9.45409E-05-2.71756E-05-2.88708E-05 1.67241E-06-8.87873E-19-1.58729E-18
 -1       904 9.47406E-05-2.74792E-05-2.88263E-05 1.25595E-06-1.40045E-18-1.09527E-18
 -1       905 9.48939E-05-2.77332E-05-2.87831E-05 9.24681E-07-1.39500E-18-1.42421E-18
 -1       906 9.50087E-05-2.79404E-05-2.87436E-05 6.65559E-07-9.86202E-19-1.13326E-18
 -1       907 9.50926E-05-2.81057E-05-2.87087E-05 4.66287E-07-9.59111E-20-2.34223E-19
 -1       908 9.51523E-05-2.82351E-05-2.86788E-05 3.15697E-07-1.02398E-18 1.02324E-18
 -1       909 9.51935E-05-2.83343E-05-2.86539E-05 2.03987E-07-7.29993E-19 1.48264E-18
 -1       910 9.52206E-05-2.84090E-05-2.86335E-05 1.22791E-07-1.16327E-19 7.08826E-19
 -1       911 9.52375E-05-2.84641E-05-2.86172E-05 6.51417E-08 1.54186E-18-2.93078E-19
 -1       912 9.52471E-05-2.85040E-05-2.86042E-05 2.53664E-08 1.76646E-18-2.75240E-18
 -1       913 9.52516E-05-2.85325E-05-2.85939E-05-1.06003E-09 5.10319E-19-4.23622E-18
 -1       914 9.52530E-05-2.85527E-05-2.85859E-05-1.76656E-08 9.94653E-19-4.44141E-18
 -1       915 9.52521E-05-2.85667E-05-2.85794E-05-2.69373E-08 1.01648E-18-4.40613E-18
 -1       916 6.01031E-05-1.52222E-05-1.90929E-05 1.04311E-05 1.18576E-18-5.41635E-18
 -1       917 9.38675E-05-2.72879E-05-2.85345E-05-1.16202E-05 3.70259E-19-2.04428E-18
 -1       918 9.52500E-05-2.85773E-05-2.85740E-05-3.11145E-08 4.82240E-19-3.21232E-18
 -1       919 1.10533E-04-4.91806E-05-2.62529E-05-1.91411E-05 2.97656E-18-3.67381E-18
 -1       920 9.61341E-05-3.11629E-05-2.78467E-05-1.40156E-05-5.26474E-19-2.13326E-18
 -1       921 9.52604E-05-2.85584E-05-2.85866E-05 3.52653E-09 6.41179E-19-1.45137E-18
 -1       922 1.17026E-04-5.11615E-05-2.81890E-05-1.39580E-05-2.25423E-18-2.25916E-19
 -1       923 1.00715E-04-4.19240E-05-2.51810E-05-2.22722E-05-2.70471E-18-2.29502E-18
 -1       924 1.00583E-04-3.67433E-05-2.73358E-05-1.60366E-05-1.33826E-18-2.12154E-18
 -1       925 1.06811E-04-4.35788E-05-2.70600E-05 1.54375E-05-1.50422E-18-1.06732E-18
 -1       926 9.03653E-05-2.12772E-05-2.96079E-05 6.86639E-06-2.90862E-19-3.89302E-18
 -1       927 8.44626E-05-1.30584E-05-3.06038E-05 9.05169E-07 4.01152E-19-5.14943E-18
 -1       928 6.95739E-05-2.48716E-05-1.89634E-05 2.43639E-05-2.85759E-18 2.35340E-18
 -1       929 9.03977E-05-2.32819E-05-2.87625E-05 9.59784E-06-1.90871E-19-3.38354E-18
 -1       930 6.16158E-05-1.44120E-05-2.01061E-05-6.46965E-06-1.28449E-19-5.15271E-18
 -1       931 9.36795E-05-2.26458E-05-3.04432E-05-5.14052E-06 2.31643E-18-2.38622E-18
 -1       932 6.36831E-05-1.76165E-05-1.96297E-05 1.41827E-05-1.13273E-18 1.41456E-18
 -1       933 7.13550E-05-1.88759E-05-2.24492E-05-1.35159E-05-7.06946E-19-4.37571E-18
 -1       934 5.88821E-05-1.48760E-05-1.87209E-05-9.02979E-06 6.13328E-19 1.39445E-18
 -1       935 7.90541E-05-2.85185E-05-2.15392E-05-2.31967E-05 2.32923E-18-2.10766E-18
 -1       936 1.03698E-04-4.41519E-05-2.54680E-05 2.20192E-05 2.06480E-18-1.43966E-18
 -1       937 7.09339E-05-2.11417E-05-2.12842E-05 1.81472E-05 1.78593E-18-4.55289E-18
 -1       938 9.52529E-05-2.85657E-05-2.85802E-05 2.53051E-08-6.03664E-19 5.01376E-18
 -1       939 8.96723E-05-1.91487E-05-3.02236E-05 4.52162E-06-5.23544E-19-4.25967E-18
 -1       940 9.52604E-05-2.85585E-05-2.85865E-05-3.74878E-09 5.25372E-19-2.62459E-18
 -1       941 8.64038E-05-1.65505E-05-2.99375E-05 3.51279E-06-7.05589E-20-4.39482E-18
 -1       942 9.28700E-05-2.46277E-05-2.92451E-05-9.11647E-06 1.06395E-18-2.28790E-18
 -1       943 9.52598E-05-2.85603E-05-2.85855E-05 1.10595E-08 5.50138E-19-1.17610E-18
 -1       944 9.06228E-05-3.62493E-05-2.31273E-05 2.56158E-05 2.74989E-18-2.46661E-18
 -1       945 8.96921E-05-3.22407E-05-2.45708E-05-2.10466E-05-1.92721E-18-3.12860E-18
 -1       946 9.52579E-05-2.85635E-05-2.85833E-05-1.86121E-08 5.57589E-19-2.22766E-18
 -1       947 8.36369E-05-1.43234E-05-2.97067E-05-1.14203E-06 1.04212E-18-4.39467E-18
 -1       948 8.52634E-05-1.56157E-05-2.98504E-05-2.87073E-06 1.57947E-18-3.95970E-18
 -1       949 9.52563E-05-2.85661E-05-2.85815E-05 2.18524E-08-7.89684E-19-2.93865E-19
 -1       950 8.42896E-05-2.30968E-05-2.62268E-05 1.34087E-05 8.53684E-19-3.25400E-18
 -1       951 8.53506E-05-2.10330E-05-2.75646E-05 9.82953E-06 4.41957E-19-3.33176E-18
 -1       952 8.38838E-05-2.63096E-05-2.46456E-05 1.81827E-05 1.63999E-18-3.35068E-18
 -1       953 8.94295E-05-1.94306E-05-3.00017E-05-5.00732E-06 2.07003E-18-3.11773E-18
 -1       954 8.40288E-05-2.57416E-05-2.49692E-05-1.54977E-05 1.53407E-18-9.37986E-19
 -1       955 8.46533E-05-2.36268E-05-2.61543E-05-1.17756E-05 1.41162E-18-1.29675E-18
 -1       956 8.58003E-05-2.27175E-05-2.70361E-05-9.14320E-06 4.00171E-19-5.76480E-19
 -1       957 8.71410E-05-2.25573E-05-2.76788E-05-7.23498E-06-8.66201E-19 2.78835E-19
 -1       958 8.84813E-05-2.28444E-05-2.81301E-05-5.79798E-06-7.29420E-19 1.11980E-18
 -1       959 8.97224E-05-2.33749E-05-2.84346E-05-4.67154E-06-9.37175E-19 1.66854E-18
 -1       960 9.08241E-05-2.40217E-05-2.86297E-05-3.75767E-06 2.17873E-19 1.09931E-18
 -1       961 9.17709E-05-2.46995E-05-2.87450E-05-3.00318E-06-2.87381E-19 1.30196E-18
 -1       962 9.25639E-05-2.53552E-05-2.88038E-05-2.37700E-06 1.17110E-18 1.14336E-18
 -1       963 9.32127E-05-2.59555E-05-2.88245E-05-1.85878E-06 2.35170E-19-5.58784E-19
 -1       964 9.37325E-05-2.64833E-05-2.88211E-05-1.43295E-06 9.78055E-19-2.07766E-18
 -1       965 9.41422E-05-2.69346E-05-2.88032E-05-1.08658E-06 1.61368E-18-3.70902E-18
 -1       966 9.44592E-05-2.73114E-05-2.87777E-05-8.09169E-07 1.67065E-18-5.12869E-18
 -1       967 9.46999E-05-2.76188E-05-2.87491E-05-5.90464E-07 8.41264E-19-3.55672E-18
 -1       968 9.48790E-05-2.78647E-05-2.87204E-05-4.20684E-07 1.72350E-19-2.72012E-18
 -1       969 9.50093E-05-2.80577E-05-2.86936E-05-2.91024E-07-4.30557E-19-1.80789E-18
 -1       970 9.51018E-05-2.82064E-05-2.86695E-05-1.93719E-07 1.41564E-19-8.13715E-19
 -1       971 9.51654E-05-2.83189E-05-2.86485E-05-1.22070E-07 7.62762E-19-1.43398E-18
 -1       972 9.52075E-05-2.84023E-05-2.86308E-05-7.04342E-08 4.13901E-19-6.48555E-19
 -1       973 9.52337E-05-2.84631E-05-2.86160E-05-3.41186E-08 6.10868E-19-1.09732E-18
 -1       974 9.52486E-05-2.85065E-05-2.86038E-05-9.46184E-09 1.14434E-19 1.45039E-18
 -1       975 9.52559E-05-2.85371E-05-2.85938E-05 6.85942E-09 1.37915E-18-9.60426E-19
 -1       976 8.77774E-05-2.43125E-05-2.71993E-05 1.02430E-05-1.26107E-18 8.13230E-19
 -1       977 8.88667E-05-2.93336E-05-2.55074E-05 1.65187E-05-1.29162E-18 1.07916E-18
 -1       978 8.84517E-05-2.36186E-05-2.77858E-05 8.17499E-06-1.07818E-18 9.03829E-19
 -1       979 8.93603E-05-2.35497E-05-2.82046E-05 6.58902E-06-1.20878E-18 3.87647E-20
 -1       980 9.03191E-05-2.38443E-05-2.84894E-05 5.32522E-06-5.74729E-19-1.04335E-18
 -1       981 9.12323E-05-2.43324E-05-2.86716E-05 4.29218E-06-1.10594E-18-1.56434E-18
 -1       982 9.20521E-05-2.49039E-05-2.87780E-05 3.43593E-06-6.73765E-19-1.11077E-18
 -1       983 9.27569E-05-2.54862E-05-2.88303E-05 2.72288E-06-7.06739E-19 1.08606E-18
 -1       984 9.33452E-05-2.60381E-05-2.88459E-05 2.13115E-06 5.23725E-20-7.87621E-20
 -1       985 9.38235E-05-2.65350E-05-2.88380E-05 1.64486E-06-6.30236E-19-7.71094E-19
 -1       986 9.42035E-05-2.69654E-05-2.88164E-05 1.24964E-06-2.06761E-18 1.34830E-18
 -1       987 9.44997E-05-2.73283E-05-2.87878E-05 9.32608E-07-1.52099E-18 1.89852E-19
 -1       988 9.47258E-05-2.76270E-05-2.87567E-05 6.82257E-07-9.00509E-19-4.28359E-19
 -1       989 9.48949E-05-2.78674E-05-2.87261E-05 4.87629E-07-8.99076E-19-1.01673E-18
 -1       990 9.50184E-05-2.80572E-05-2.86977E-05 3.38755E-07-1.50929E-18 1.32086E-19
 -1       991 9.51064E-05-2.82041E-05-2.86724E-05 2.26822E-07-1.75399E-18-1.10777E-19
 -1       992 9.51672E-05-2.83158E-05-2.86506E-05 1.44212E-07 5.61187E-19-1.01127E-19
 -1       993 9.52076E-05-2.83991E-05-2.86322E-05 8.45101E-08 1.26895E-18-1.41209E-18
 -1       994 9.52330E-05-2.84599E-05-2.86170E-05 4.24218E-08 3.09005E-18-9.56634E-19
 -1       995 9.52475E-05-2.85035E-05-2.86046E-05 1.37226E-08 1.83000E-18-9.23855E-19
 -1       996 9.52547E-05-2.85345E-05-2.85944E-05-5.28767E-09 1.01556E-18-3.14798E-18
 -1       997 8.84248E-05-3.16902E-05-2.42745E-05-2.00032E-05 1.49129E-18-2.53454E-18
 -1       998 8.85054E-05-2.27588E-05-2.81807E-05-1.00830E-05 5.24765E-19-2.71384E-18
 -1       999 8.87038E-05-2.53976E-05-2.71358E-05-1.34607E-05 9.53401E-20-2.84924E-18
 -1      1000 8.64542E-05-1.83633E-05-2.91791E-05 5.56907E-06 3.98802E-20-4.10117E-18
 -1      1001 8.86383E-05-2.81323E-05-2.59281E-05-1.68038E-05-6.76907E-19-2.99978E-18
 -1      1002 9.23768E-05-3.51629E-05-2.44815E-05 2.08879E-05-1.15519E-18 1.47652E-18
 -1      1003 6.72156E-05-1.50522E-05-2.23099E-05 3.70534E-06 6.63343E-19-4.59860E-18
 -1      1004 8.35596E-05-1.42517E-05-2.97034E-05 8.26430E-07 5.61528E-19-4.60568E-18
 -1      1005 8.45761E-05-1.50802E-05-2.97833E-05 2.29284E-06 2.76760E-19-4.79987E-18
 -1      1006 8.25892E-05-2.92897E-05-2.27241E-05 2.15455E-05-1.68901E-18 1.14608E-18
 -1      1007 9.33063E-05-2.35940E-05-2.98761E-05-7.17632E-06 1.76130E-18-2.38710E-18
 -1      1008 9.52598E-05-2.85604E-05-2.85854E-05-1.09977E-08-4.06730E-19-7.15861E-19
 -1      1009 8.76768E-05-2.60216E-05-2.64242E-05 1.29947E-05-3.33466E-19 7.04554E-19
 -1      1010 8.59210E-05-1.96429E-05-2.84061E-05 7.53598E-06 3.19411E-19-3.84577E-18
 -1      1011 7.53351E-05-2.23786E-05-2.26679E-05 1.62181E-05-1.13246E-18 8.43888E-19
 -1      1012 7.04395E-05-1.55964E-05-2.34788E-05-4.30272E-06-4.59623E-21-4.23170E-18
 -1      1013 6.18216E-05-1.44504E-05-2.02154E-05 2.66822E-06-7.45157E-19 8.26360E-19
 -1      1014 7.12854E-05-2.06945E-05-2.16092E-05-1.58499E-05 2.12079E-18-4.64113E-19
 -1      1015 9.52577E-05-2.85371E-05-2.85945E-05 1.70876E-10 1.41836E-18-1.18776E-18
 -1      1016 9.52576E-05-2.85386E-05-2.85939E-05 3.82712E-09 1.71200E-18-6.91437E-19
 -1      1017 8.96126E-05-2.18593E-05-2.90351E-05-8.12382E-06 9.65058E-19-2.73491E-18
 -1      1018 8.05342E-05-2.39387E-05-2.42390E-05-1.65680E-05-9.43526E-19-3.42699E-18
 -1      1019 8.21773E-05-1.51932E-05-2.87082E-05-2.32492E-07 9.73062E-19-4.17913E-18
 -1      1020 7.25533E-05-1.78237E-05-2.34337E-05 1.05659E-05 1.13976E-18-4.28720E-18
 -1      1021 9.52545E-05-2.85260E-05-2.85980E-05-1.85999E-09 1.18363E-18-1.69506E-18
 -1      1022 8.32722E-05-1.60347E-05-2.88158E-05-3.15192E-06 1.03885E-18-3.83555E-18
 -1      1023 7.94223E-05-1.83590E-05-2.61707E-05 8.26916E-06 6.53641E-19-3.87011E-18
 -1      1024 8.77302E-05-2.23208E-05-2.80335E-05 4.53593E-06 4.38816E-19-8.44147E-19
 -1      1025 7.73386E-05-2.01199E-05-2.45092E-05-1.04900E-05 1.52113E-18-9.76561E-19
 -1      1026 8.05047E-05-2.01134E-05-2.58799E-05-7.70072E-06 1.50573E-18-1.34051E-18
 -1      1027 8.31896E-05-2.05216E-05-2.68586E-05-5.82595E-06 3.38798E-19-1.19256E-18
 -1      1028 8.54467E-05-2.11688E-05-2.75475E-05-4.53288E-06-4.09701E-19-7.39072E-19
 -1      1029 8.73476E-05-2.19612E-05-2.80230E-05-3.60214E-06-1.88614E-19 2.62266E-19
 -1      1030 8.89403E-05-2.28048E-05-2.83445E-05-2.87516E-06-6.50967E-19 6.56837E-19
 -1      1031 9.02828E-05-2.36612E-05-2.85526E-05-2.29774E-06-7.54880E-19 3.52259E-19
 -1      1032 9.13901E-05-2.44725E-05-2.86793E-05-1.82496E-06-8.94026E-19 5.34605E-19
 -1      1033 9.22933E-05-2.52138E-05-2.87483E-05-1.43890E-06 3.81712E-19-9.83916E-19
 -1      1034 9.30216E-05-2.58711E-05-2.87789E-05-1.12070E-06-1.32008E-19-1.14626E-18
 -1      1035 9.35987E-05-2.64351E-05-2.87846E-05-8.57923E-07-1.45413E-19-2.54015E-18
 -1      1036 9.40519E-05-2.69120E-05-2.87744E-05-6.46359E-07 2.48600E-19-3.58099E-18
 -1      1037 9.43999E-05-2.73047E-05-2.87553E-05-4.78333E-07 6.46683E-19-3.41069E-18
 -1      1038 9.46625E-05-2.76216E-05-2.87319E-05-3.46477E-07 9.70433E-19-4.68581E-18
 -1      1039 9.48569E-05-2.78729E-05-2.87075E-05-2.44600E-07 1.30593E-18-3.53255E-18
 -1      1040 9.49977E-05-2.80684E-05-2.86840E-05-1.67201E-07 2.18967E-19-1.75599E-18
 -1      1041 9.50970E-05-2.82179E-05-2.86625E-05-1.09448E-07 2.68474E-19-1.82224E-18
 -1      1042 9.51648E-05-2.83300E-05-2.86435E-05-6.71900E-08 1.14347E-18-2.13685E-18
 -1      1043 9.52092E-05-2.84126E-05-2.86272E-05-3.70284E-08 2.19959E-19-2.03313E-18
 -1      1044 9.52365E-05-2.84723E-05-2.86132E-05-1.57045E-08 7.34328E-19-2.34995E-18
 -1      1045 9.52513E-05-2.85141E-05-2.86016E-05-1.65771E-09-3.27323E-19-2.97221E-18
 -1      1046 8.60745E-05-2.17644E-05-2.75624E-05 5.75011E-06 2.14543E-19-3.38009E-19
 -1      1047 6.98783E-05-1.73585E-05-2.24807E-05 8.72111E-06-8.52820E-19 1.36000E-18
 -1      1048 8.42189E-05-2.14853E-05-2.68874E-05 7.40163E-06-8.19304E-19 7.75099E-19
 -1      1049 8.91724E-05-2.30170E-05-2.83534E-05 3.60810E-06-5.41468E-19-1.41516E-18
 -1      1050 9.04207E-05-2.37786E-05-2.85616E-05 2.86855E-06-6.46633E-19-1.80415E-18
 -1      1051 9.14683E-05-2.45278E-05-2.86889E-05 2.27512E-06-1.45502E-18-1.47116E-18
 -1      1052 9.23378E-05-2.52346E-05-2.87585E-05 1.78775E-06-4.29187E-19-8.21635E-19
 -1      1053 9.30439E-05-2.58707E-05-2.87888E-05 1.38808E-06-1.03638E-18 5.39763E-19
 -1      1054 9.36077E-05-2.64237E-05-2.87935E-05 1.06374E-06-2.41466E-18 8.33256E-19
 -1      1055 9.40528E-05-2.68947E-05-2.87823E-05 8.01930E-07-1.24866E-18 9.81422E-21
 -1      1056 9.43967E-05-2.72856E-05-2.87621E-05 5.94093E-07 6.48908E-20-1.80108E-18
 -1      1057 9.46575E-05-2.76032E-05-2.87377E-05 4.31204E-07-1.01892E-18-1.51852E-18
 -1      1058 9.48513E-05-2.78562E-05-2.87123E-05 3.05385E-07-1.23491E-18-8.09657E-19
 -1      1059 9.49923E-05-2.80540E-05-2.86879E-05 2.09742E-07-9.68177E-19-1.06643E-18
 -1      1060 9.50923E-05-2.82059E-05-2.86656E-05 1.38286E-07-2.61562E-19-2.65809E-18
 -1      1061 9.51608E-05-2.83203E-05-2.86460E-05 8.58879E-08 9.67290E-19-2.08379E-18
 -1      1062 9.52061E-05-2.84049E-05-2.86291E-05 4.82963E-08 2.08546E-18-2.61873E-18
 -1      1063 9.52339E-05-2.84659E-05-2.86149E-05 2.23004E-08 1.71792E-18-2.66275E-18
 -1      1064 9.52465E-05-2.84993E-05-2.86059E-05 8.33483E-09 2.52293E-18-2.28134E-18
 -1      1065 7.82999E-05-2.35860E-05-2.34515E-05-1.61628E-05 1.88314E-18-8.88351E-19
 -1      1066 7.82422E-05-2.09886E-05-2.45267E-05 1.15622E-05-7.33485E-19 8.25787E-19
 -1      1067 8.30670E-05-2.03240E-05-2.68886E-05-9.67737E-06 4.16823E-19-3.44118E-18
 -1      1068 8.40785E-05-1.65512E-05-2.89387E-05 3.83946E-06 1.33460E-19-4.38248E-18
 -1      1069 8.57281E-05-1.84792E-05-2.88233E-05-5.96580E-06 1.16190E-18-3.23566E-18
 -1      1070 6.72055E-05-1.61885E-05-2.18117E-05-6.95687E-06 1.08282E-18-8.95155E-19
 -1      1071 9.52559E-05-2.85299E-05-2.85969E-05-1.80661E-09 8.99490E-19-2.13287E-18
 -1      1072 7.37171E-05-1.57562E-05-2.48205E-05 2.61360E-06 5.56297E-19-4.14348E-18
 -1      1073 7.55953E-05-1.82989E-05-2.45433E-05-9.96419E-06-2.03567E-19-3.84082E-18
 -1      1074 8.13134E-05-1.76089E-05-2.73033E-05 6.07451E-06 7.67618E-19-4.03715E-18
 -1      1075 8.45706E-05-1.94164E-05-2.79266E-05-7.74159E-06 7.48393E-19-3.38789E-18
 -1      1076 8.16055E-05-2.11438E-05-2.59068E-05 9.13038E-06-1.09466E-18 1.13996E-18
 -1      1077 8.26152E-05-1.54912E-05-2.87711E-05 1.91440E-06 4.55185E-19-4.20098E-18
 -1      1078 9.52479E-05-2.85038E-05-2.86046E-05 3.16553E-10 1.75912E-18-2.63337E-18
 -1      1079 8.04931E-05-1.60761E-05-2.76136E-05-2.54672E-06 7.76157E-19-4.13475E-18
 -1      1080 9.52498E-05-2.85079E-05-2.86037E-05-1.41592E-09 7.30213E-19-1.38283E-18
 -1      1081 8.01617E-05-1.57861E-05-2.75767E-05 5.96836E-07 7.07648E-19-3.79166E-18
 -1      1082 7.32580E-05-1.70829E-05-2.40809E-05-3.31881E-06 7.06982E-19-2.77909E-18
 -1      1083 7.51509E-05-1.60620E-05-2.53145E-05-2.96228E-06 3.13609E-19-3.94933E-18
 -1      1084 8.88109E-05-2.27096E-05-2.83286E-05 1.85023E-06-1.87152E-19-2.23218E-18
 -1      1085 7.93255E-05-1.85950E-05-2.60292E-05-3.00922E-06 1.39173E-18-3.25287E-18
 -1      1086 8.27093E-05-1.97701E-05-2.69732E-05-2.24774E-06 2.01940E-19-2.40646E-18
 -1      1087 8.51035E-05-2.06856E-05-2.76049E-05-1.75030E-06 2.46198E-19-2.15806E-18
 -1      1088 8.72040E-05-2.17427E-05-2.80550E-05-1.37953E-06 1.85469E-19-1.29571E-18
 -1      1089 8.89055E-05-2.27483E-05-2.83542E-05-1.12174E-06-3.57508E-19-1.28442E-18
 -1      1090 9.03356E-05-2.37097E-05-2.85504E-05-9.11954E-07-6.75911E-19-9.79801E-19
 -1      1091 9.14626E-05-2.45665E-05-2.86698E-05-7.29468E-07-1.46503E-18-1.41786E-18
 -1      1092 9.23335E-05-2.52929E-05-2.87308E-05-5.62816E-07-2.60932E-20-1.74959E-18
 -1      1093 9.30712E-05-2.59627E-05-2.87607E-05-4.29637E-07-6.30679E-20-1.47233E-18
 -1      1094 9.36493E-05-2.65283E-05-2.87663E-05-3.30116E-07-5.28987E-20-1.41743E-18
 -1      1095 9.40968E-05-2.69969E-05-2.87572E-05-2.48123E-07 4.21852E-21-2.74775E-18
 -1      1096 9.44385E-05-2.73789E-05-2.87399E-05-1.82484E-07-2.08038E-20-3.49049E-18
 -1      1097 9.46948E-05-2.76848E-05-2.87186E-05-1.31017E-07 8.26956E-20-3.46632E-18
 -1      1098 9.48833E-05-2.79252E-05-2.86963E-05-9.14085E-08 7.43229E-19-5.00941E-18
 -1      1099 9.50187E-05-2.81109E-05-2.86748E-05-6.14877E-08 1.07652E-18-4.71633E-18
 -1      1100 9.51132E-05-2.82516E-05-2.86550E-05-3.93329E-08 9.21405E-20-3.31151E-18
 -1      1101 9.51770E-05-2.83563E-05-2.86374E-05-2.33024E-08-7.69922E-19-4.01979E-18
 -1      1102 9.52185E-05-2.84334E-05-2.86221E-05-1.21407E-08 5.81324E-19-4.42411E-18
 -1      1103 8.52042E-05-2.08941E-05-2.75562E-05 2.96328E-06 9.14326E-19-1.22545E-18
 -1      1104 8.28113E-05-2.00567E-05-2.68958E-05 3.83254E-06 1.79095E-19-6.02936E-19
 -1      1105 9.01902E-05-2.36082E-05-2.85323E-05 1.45041E-06-1.12349E-18-2.63804E-18
 -1      1106 9.13816E-05-2.44987E-05-2.86635E-05 1.12212E-06-6.90283E-19-2.41945E-18
 -1      1107 9.22844E-05-2.52410E-05-2.87311E-05 8.77951E-07-8.32751E-19-2.28010E-18
 -1      1108 9.30032E-05-2.58926E-05-2.87619E-05 6.82109E-07-1.54827E-18-2.95026E-18
 -1      1109 9.35911E-05-2.64619E-05-2.87696E-05 5.20589E-07-1.11782E-18-3.94710E-18
 -1      1110 9.40496E-05-2.69391E-05-2.87615E-05 3.90591E-07-2.29650E-19-4.55359E-18
 -1      1111 9.44012E-05-2.73303E-05-2.87446E-05 2.87439E-07-5.89995E-19-2.95693E-18
 -1      1112 9.46660E-05-2.76449E-05-2.87232E-05 2.06944E-07-1.47748E-18-3.63882E-18
 -1      1113 9.48615E-05-2.78933E-05-2.87006E-05 1.45132E-07-1.43764E-18-3.90800E-18
 -1      1114 9.50026E-05-2.80858E-05-2.86786E-05 9.84482E-08 3.50601E-19-4.32055E-18
 -1      1115 9.51018E-05-2.82323E-05-2.86583E-05 6.38203E-08 6.39908E-19-5.45308E-18
 -1      1116 9.51690E-05-2.83417E-05-2.86403E-05 3.86780E-08 9.81003E-19-5.20004E-18
 -1      1117 9.52127E-05-2.84220E-05-2.86246E-05 2.01505E-08 2.57583E-18-2.33678E-18
 -1      1118 7.44770E-05-1.75489E-05-2.43919E-05 4.93876E-06-8.58408E-19 6.54591E-19
 -1      1119 9.52467E-05-2.84995E-05-2.86059E-05 3.82830E-09 1.54937E-18-1.78820E-18
 -1      1120 8.71378E-05-2.17745E-05-2.80140E-05 2.33418E-06 3.03333E-19-1.16975E-18
 -1      1121 7.01384E-05-1.61601E-05-2.31382E-05 1.95123E-06-4.20896E-19-6.25824E-20
 -1      1122 7.72646E-05-1.58985E-05-2.62927E-05 1.63557E-06 4.50385E-19-3.86405E-18
 -1      1123 7.99959E-05-1.76860E-05-2.67018E-05-6.50685E-06 5.61666E-19-3.76283E-18
 -1      1124 7.96098E-05-1.90056E-05-2.59631E-05 4.36697E-06-9.55319E-20-6.84278E-19
 -1      1125 9.52332E-05-2.84654E-05-2.86146E-05 1.06252E-08 1.46985E-18-2.61792E-18
 -1      1126 9.52352E-05-2.84717E-05-2.86131E-05 1.18914E-09 2.21194E-18-1.62389E-18
 -1      1127 8.32631E-05-1.80801E-05-2.79358E-05-6.19827E-06 8.66780E-19-3.48784E-18
 -1      1128 9.05421E-05-2.38864E-05-2.85742E-05 1.48925E-07-1.04009E-18-3.01062E-18
 -1      1129 8.36754E-05-2.00771E-05-2.72735E-05 8.31365E-07 8.90151E-19-3.05618E-18
 -1      1130 9.18400E-05-2.48939E-05-2.86962E-05 2.17963E-07-8.27356E-19-1.51288E-18
 -1      1131 8.07329E-05-1.89987E-05-2.64747E-05 1.16159E-06 3.42557E-19-3.18429E-18
 -1      1132 1.17634E-04 2.61973E-10-4.23606E-05-3.99703E-05-6.45863E-19 1.46937E-17
 -1      1133 9.08972E-05 7.85268E-11-3.80668E-05-2.16452E-05-3.10226E-19-5.32678E-19
 -1      1134 8.60380E-05 4.52831E-11-3.65129E-05-1.46155E-05-1.93018E-19-6.61774E-18
 -1      1135 8.34718E-05 3.24728E-11-3.55294E-05-1.02586E-05-1.21708E-19-9.12393E-18
 -1      1136 8.16373E-05 2.45540E-11-3.48061E-05-7.06640E-06-6.29451E-20-1.01920E-17
 -1      1137 8.02243E-05 1.89659E-11-3.42499E-05-4.66264E-06-2.89315E-20-1.04664E-17
 -1      1138 7.91790E-05 1.50415E-11-3.38392E-05-2.80894E-06-9.63500E-21-1.04015E-17
 -1      1139 7.85253E-05 1.26992E-11-3.35831E-05-1.30360E-06 1.98126E-20-1.01190E-17
 -1      1140 7.83101E-05 1.19607E-11-3.34986E-05 2.07232E-08 3.88609E-20-9.77687E-18
 -1      1141 7.85457E-05 1.28348E-11-3.35903E-05 1.35309E-06 6.46260E-20-9.40688E-18
 -1      1142 7.92156E-05 1.53042E-11-3.38520E-05 2.88210E-06 8.32210E-20-8.87156E-18
 -1      1143 8.02728E-05 1.92961E-11-3.42652E-05 4.77348E-06 1.11597E-19-7.96884E-18
 -1      1144 8.16869E-05 2.50286E-11-3.48219E-05 7.22553E-06 1.42990E-19-6.58908E-18
 -1      1145 8.35124E-05 3.30904E-11-3.55451E-05 1.04821E-05 1.85236E-19-4.23170E-18
 -1      1146 8.60399E-05 4.58055E-11-3.65332E-05 1.48957E-05 2.40981E-19-1.03616E-19
 -1      1147 9.05767E-05 7.36738E-11-3.81234E-05 2.15480E-05 2.57710E-19 7.49018E-18
 -1      1148 1.07754E-04 1.71123E-10-4.11801E-05 3.46934E-05 4.72856E-19 2.24649E-17
 -1      1149 1.30723E-04-2.61972E-05-4.07503E-05-2.51336E-05-2.51431E-18 2.42006E-17
 -1      1150 1.00942E-04-2.99272E-05-3.26445E-05-4.23420E-07-8.82661E-19 1.83255E-17
 -1      1151 9.60739E-05-2.88213E-05-2.96460E-05 4.53046E-07-3.47945E-19 1.04224E-17
 -1      1152 9.63634E-05-2.90220E-05-2.90892E-05 3.04572E-07-2.02216E-19 5.30412E-18
 -1      1153 9.84071E-05-2.96132E-05-2.95716E-05 2.35287E-07-1.61734E-19 1.86919E-18
 -1      1154 1.01492E-04-3.05031E-05-3.04746E-05 2.10886E-07-1.65595E-19-5.70636E-19
 -1      1155 1.05192E-04-3.15828E-05-3.15625E-05 2.03371E-07-8.96267E-20-2.68123E-18
 -1      1156 1.09088E-04-3.27240E-05-3.26858E-05 1.93029E-07-5.16136E-20-4.64587E-18
 -1      1157 1.12603E-04-3.37502E-05-3.36652E-05 1.57066E-07-6.64474E-20-6.14046E-18
 -1      1158 1.14923E-04-3.44172E-05-3.42624E-05 6.77467E-08-8.76547E-20-7.77223E-18
 -1      1159 1.15040E-04-3.44282E-05-3.42042E-05-9.88272E-08-5.82865E-20-9.56664E-18
 -1      1160 1.12036E-04-3.35198E-05-3.32761E-05-3.37889E-07 1.14485E-19-9.67550E-18
 -1      1161 1.05674E-04-3.16369E-05-3.14793E-05-5.81855E-07 1.88035E-20-1.03210E-17
 -1      1162 9.70978E-05-2.91322E-05-2.91784E-05-6.94170E-07 6.97644E-21-1.06270E-17
 -1      1163 8.90336E-05-2.68032E-05-2.70926E-05-5.41643E-07 4.39729E-20-1.13589E-17
 -1      1164 8.48122E-05-2.55945E-05-2.60291E-05-1.27207E-07-9.67007E-20-1.27192E-17
 -1      1165 8.64588E-05-2.60694E-05-2.64574E-05 3.56842E-07-1.46365E-19-1.33498E-17
 -1      1166 9.33172E-05-2.80465E-05-2.82276E-05 6.62799E-07 1.15587E-19-1.49374E-17
 -1      1167 1.02518E-04-3.07219E-05-3.06644E-05 6.82379E-07-9.12314E-20-1.60816E-17
 -1      1168 1.10824E-04-3.31651E-05-3.29572E-05 4.92120E-07 2.03533E-19-1.48110E-17
 -1      1169 1.16223E-04-3.47758E-05-3.45389E-05 2.42155E-07-2.48594E-19-1.39093E-17
 -1      1170 1.18301E-04-3.54150E-05-3.52301E-05 4.04686E-08 1.22737E-19-1.29120E-17
 -1      1171 1.17704E-04-3.52603E-05-3.51521E-05-7.85537E-08-3.81760E-20-1.16471E-17
 -1      1172 1.15427E-04-3.46014E-05-3.45579E-05-1.27074E-07-5.52672E-20-1.11099E-17
 -1      1173 1.12369E-04-3.37030E-05-3.37006E-05-1.31428E-07 4.43931E-20-9.75565E-18
 -1      1174 1.09159E-04-3.27534E-05-3.27714E-05-1.14344E-07 1.64887E-19-8.74495E-18
 -1      1175 1.06169E-04-3.18640E-05-3.18888E-05-9.02981E-08-1.51043E-20-7.90422E-18
 -1      1176 1.03573E-04-3.10888E-05-3.11132E-05-6.67823E-08 1.01481E-19-1.01193E-17
 -1      1177 1.01425E-04-3.04452E-05-3.04660E-05-4.68669E-08 1.06601E-19-8.77714E-18
 -1      1178 9.97084E-05-2.99294E-05-2.99459E-05-3.12784E-08 1.63815E-19-7.12238E-18
 -1      1179 9.83754E-05-2.95277E-05-2.95401E-05-1.96916E-08-2.20939E-19-6.23803E-18
 -1      1180 9.73656E-05-2.92225E-05-2.92315E-05-1.14164E-08 2.56941E-19-6.71640E-18
 -1      1181 9.66183E-05-2.89961E-05-2.90024E-05-5.71852E-09 9.12910E-20-9.47046E-18
 -1      1182 9.60788E-05-2.88322E-05-2.88365E-05-1.94691E-09 1.73291E-19-1.18718E-17
 -1      1183 9.56996E-05-2.87167E-05-2.87194E-05 4.28514E-10 3.89616E-19-1.05737E-17
 -1      1184 9.54419E-05-2.86378E-05-2.86395E-05 1.81934E-09 1.89764E-19-1.03198E-17
 -1      1185 9.52740E-05-2.85862E-05-2.85871E-05 2.53555E-09-1.16425E-19-1.19106E-17
 -1      1186 9.51713E-05-2.85543E-05-2.85548E-05 2.80563E-09 3.08118E-19-1.00175E-17
 -1      1187 9.51148E-05-2.85366E-05-2.85367E-05 2.79489E-09 2.88221E-19-8.06242E-18
 -1      1188 9.50901E-05-2.85286E-05-2.85285E-05 2.62063E-09-1.14520E-19-6.98737E-18
 -1      1189 9.50866E-05-2.85270E-05-2.85268E-05 2.36424E-09-1.58446E-19-8.62998E-18
 -1      1190 9.50964E-05-2.85296E-05-2.85294E-05 2.08049E-09-2.34637E-19-1.06318E-17
 -1      1191 9.51143E-05-2.85347E-05-2.85345E-05 1.80450E-09 2.00621E-19-1.22545E-17
 -1      1192 9.51363E-05-2.85412E-05-2.85409E-05 1.55650E-09 3.15063E-20-1.14460E-17
 -1      1193 9.51600E-05-2.85481E-05-2.85479E-05 1.34411E-09 3.80966E-19-9.18506E-18
 -1      1194 9.51832E-05-2.85550E-05-2.85548E-05 1.16099E-09-1.37437E-19-4.86694E-18
 -1      1195 9.52046E-05-2.85613E-05-2.85610E-05 9.77552E-10 1.75853E-20-4.42282E-18
 -1      1196 9.52224E-05-2.85666E-05-2.85661E-05 7.03199E-10 1.14402E-19-3.95811E-18
 -1      1197 9.52341E-05-2.85700E-05-2.85696E-05 1.50121E-10 1.70771E-19-2.79413E-18
 -1      1198 9.52379E-05-2.85714E-05-2.85716E-05-3.13145E-10 1.09169E-21-2.53355E-19
 -1      1199 1.31441E-04-3.77110E-05-3.91970E-05 1.18894E-05-4.38842E-19 3.45793E-17
 -1      1200 1.00154E-04-2.92857E-05-3.24118E-05 7.05934E-07 1.71736E-19 2.86648E-17
 -1      1201 9.62341E-05-2.87137E-05-2.96189E-05 8.81071E-08 1.96909E-19 2.22856E-17
 -1      1202 9.63582E-05-2.89247E-05-2.91019E-05-5.80104E-09 1.01531E-19 1.81771E-17
 -1      1203 9.82972E-05-2.95283E-05-2.95568E-05-4.45668E-08 8.14922E-20 1.55757E-17
 -1      1204 1.01268E-04-3.04045E-05-3.04206E-05-7.43663E-08 1.36919E-19 1.33123E-17
 -1      1205 1.04818E-04-3.14474E-05-3.14615E-05-1.10379E-07 5.78427E-20 1.18550E-17
 -1      1206 1.08513E-04-3.25315E-05-3.25238E-05-1.53445E-07-8.39092E-20 1.11520E-17
 -1      1207 1.11779E-04-3.34872E-05-3.34280E-05-1.93660E-07 7.95864E-20 9.86783E-18
 -1      1208 1.13831E-04-3.40860E-05-3.39434E-05-2.07447E-07 1.21979E-19 8.16600E-18
 -1      1209 1.13729E-04-3.40591E-05-3.38157E-05-1.57950E-07 6.79413E-20 6.56310E-18
 -1      1210 1.10658E-04-3.31728E-05-3.28578E-05-1.07192E-08 2.32239E-20 5.84040E-18
 -1      1211 1.04465E-04-3.13765E-05-3.10944E-05 2.28394E-07 1.72805E-19 5.23212E-18
 -1      1212 9.62854E-05-2.89767E-05-2.88894E-05 4.75011E-07-5.60510E-20 4.84619E-18
 -1      1213 8.86744E-05-2.66959E-05-2.69253E-05 5.83395E-07 8.23243E-20 3.83574E-18
 -1      1214 8.47015E-05-2.54462E-05-2.59487E-05 4.49170E-07-9.58206E-20 3.12044E-18
 -1      1215 8.62295E-05-2.58317E-05-2.63829E-05 1.15345E-07-2.12797E-19 4.20891E-18
 -1      1216 9.26862E-05-2.77362E-05-2.80795E-05-2.43822E-07 2.57323E-19 2.11748E-18
 -1      1217 1.01440E-04-3.03816E-05-3.04085E-05-4.57127E-07 2.87746E-19-1.82536E-18
 -1      1218 1.09465E-04-3.28264E-05-3.26144E-05-4.75907E-07-1.03695E-19-7.75035E-20
 -1      1219 1.14832E-04-3.44620E-05-3.41648E-05-3.63012E-07-2.47625E-20 1.50867E-18
 -1      1220 1.17074E-04-3.51417E-05-3.48802E-05-2.09001E-07 4.91345E-21 1.09471E-18
 -1      1221 1.16733E-04-3.50352E-05-3.48604E-05-7.61282E-08-1.29800E-19-2.94046E-19
 -1      1222 1.14720E-04-3.44245E-05-3.43353E-05 1.29118E-08-1.49647E-19-1.43118E-18
 -1      1223 1.11886E-04-3.35692E-05-3.35420E-05 6.05943E-08-2.65409E-20-1.65369E-18
 -1      1224 1.08847E-04-3.26550E-05-3.26643E-05 7.87514E-08 9.44145E-20-5.23877E-19
 -1      1225 1.05977E-04-3.17931E-05-3.18197E-05 7.92827E-08-5.68893E-20-9.78469E-19
 -1      1226 1.03460E-04-3.10384E-05-3.10704E-05 7.09693E-08 3.88802E-19-1.76688E-18
 -1      1227 1.01362E-04-3.04094E-05-3.04405E-05 5.92994E-08-3.14493E-19 1.33587E-18
 -1      1228 9.96753E-05-2.99040E-05-2.99312E-05 4.72995E-08 2.23162E-19 2.51195E-18
 -1      1229 9.83596E-05-2.95096E-05-2.95321E-05 3.64262E-08-8.06381E-20-1.74155E-19
 -1      1230 9.73592E-05-2.92096E-05-2.92274E-05 2.72345E-08-1.27684E-20-1.14258E-18
 -1      1231 9.66167E-05-2.89868E-05-2.90006E-05 1.98055E-08 4.44672E-21-6.78123E-19
 -1      1232 9.60793E-05-2.88255E-05-2.88358E-05 1.39952E-08-1.23603E-19 6.81105E-19
 -1      1233 9.57010E-05-2.87118E-05-2.87194E-05 9.57081E-09-1.82581E-19 3.59795E-19
 -1      1234 9.54433E-05-2.86343E-05-2.86397E-05 6.28185E-09 6.86889E-20-2.15551E-18
 -1      1235 9.52753E-05-2.85837E-05-2.85874E-05 3.89463E-09 1.20502E-19-3.69345E-18
 -1      1236 9.51724E-05-2.85526E-05-2.85551E-05 2.20585E-09-3.03291E-19-3.17452E-18
 -1      1237 9.51156E-05-2.85354E-05-2.85370E-05 1.04588E-09 1.08007E-19-1.21128E-18
 -1      1238 9.50907E-05-2.85278E-05-2.85288E-05 2.77074E-10 2.21575E-19-1.43957E-18
 -1      1239 9.50869E-05-2.85265E-05-2.85271E-05-2.10143E-10 3.88958E-19-1.77901E-18
 -1      1240 9.50967E-05-2.85293E-05-2.85296E-05-5.01707E-10-3.42858E-20 8.22503E-20
 -1      1241 9.51145E-05-2.85346E-05-2.85347E-05-6.64357E-10-3.90941E-19 2.04792E-18
 -1      1242 9.51364E-05-2.85411E-05-2.85411E-05-7.49706E-10-8.15063E-19 3.24484E-18
 -1      1243 9.51600E-05-2.85481E-05-2.85480E-05-7.97435E-10 2.61886E-19-7.44509E-19
 -1      1244 9.51833E-05-2.85550E-05-2.85549E-05-8.35958E-10 4.29105E-19-4.95768E-18
 -1      1245 9.52046E-05-2.85614E-05-2.85611E-05-8.77721E-10-4.85140E-20-7.44457E-18
 -1      1246 9.52224E-05-2.85666E-05-2.85662E-05-8.82594E-10-2.99815E-19-6.22378E-18
 -1      1247 9.52342E-05-2.85701E-05-2.85697E-05-6.36472E-10 9.89501E-20-3.61578E-18
 -1      1248 9.52379E-05-2.85714E-05-2.85716E-05 2.63944E-10-3.59482E-19-2.58031E-18
 -1      1249 9.52369E-05-2.85704E-05-2.85716E-05 2.12560E-10-2.06315E-18-5.25353E-19
 -1      1250 9.52382E-05-2.85743E-05-2.85697E-05-1.29732E-10 9.73830E-19 4.09677E-19
 -1      1251 9.52415E-05-2.85855E-05-2.85664E-05-7.07557E-10 4.20217E-18-7.83017E-19
 -1      1252 9.52460E-05-2.86008E-05-2.85622E-05-8.33879E-10 5.46219E-18 9.55885E-20
 -1      1253 9.52508E-05-2.86168E-05-2.85576E-05-7.64845E-10 8.01246E-19 4.30656E-20
 -1      1254 9.52550E-05-2.86310E-05-2.85535E-05-6.03976E-10-8.26478E-18-5.02283E-19
 -1      1255 9.52583E-05-2.86421E-05-2.85503E-05-4.20558E-10-9.87916E-18 6.37823E-19
 -1      1256 9.52603E-05-2.86491E-05-2.85482E-05-2.11502E-10-1.13448E-17-7.00668E-19
 -1      1257 9.52610E-05-2.86514E-05-2.85475E-05 1.62039E-12-9.78388E-18 4.42181E-19
 -1      1258 9.52603E-05-2.86490E-05-2.85482E-05 2.14825E-10-6.74468E-18 6.05570E-20
 -1      1259 9.52582E-05-2.86419E-05-2.85503E-05 4.23643E-10-5.91540E-18-1.49489E-18
 -1      1260 9.52549E-05-2.86308E-05-2.85535E-05 6.17312E-10-1.64433E-17-9.48918E-19
 -1      1261 9.52507E-05-2.86166E-05-2.85577E-05 7.67699E-10-1.26253E-17 7.12297E-19
 -1      1262 9.52460E-05-2.86005E-05-2.85622E-05 8.46587E-10-6.30950E-18 2.35975E-19
 -1      1263 9.52414E-05-2.85851E-05-2.85665E-05 8.41130E-10-3.90833E-18-2.20215E-20
 -1      1264 9.52385E-05-2.85745E-05-2.85697E-05 1.63018E-11 1.21266E-18-1.22781E-18
 -1      1265 9.52368E-05-2.85704E-05-2.85716E-05-2.07409E-10 1.03293E-18 6.20548E-19
 -1      1266 3.25495E-05-1.04351E-04 1.79284E-05-1.43026E-05 1.39553E-17 3.57194E-18
 -1      1267 1.64531E-05-6.19862E-05 8.79663E-06-2.47653E-05 2.32036E-17 8.81465E-18
 -1      1268 7.65030E-06-6.43761E-06-6.74838E-06 1.48855E-06 2.33646E-17 1.49882E-17
 -1      1269 3.52247E-05 2.46927E-05-2.64809E-05 5.41745E-05 2.05761E-17 1.99663E-17
 -1      1270 1.14506E-04 9.79049E-06-4.77963E-05 1.02717E-04 1.49569E-17 2.26327E-17
 -1      1271 2.17355E-04-3.90104E-05-6.55292E-05 1.05969E-04 6.91857E-18 1.59174E-17
 -1      1272 2.94244E-04-8.38576E-05-7.58327E-05 5.53671E-05 1.43726E-18 1.67543E-18
 -1      1273 3.05462E-04-8.96723E-05-7.77339E-05-2.61040E-05 2.38802E-18-1.67234E-17
 -1      1274 2.49038E-04-5.66791E-05-6.99410E-05-9.50634E-05 9.84062E-18-3.01281E-17
 -1      1275 1.49066E-04-3.70696E-06-5.46734E-05-1.10949E-04 2.06219E-17-3.63580E-17
 -1      1276 6.15416E-05 2.54052E-05-3.53027E-05-7.76469E-05 2.90905E-17-3.34527E-17
 -1      1277 1.37655E-05 1.20240E-05-1.49667E-05-2.24223E-05 3.17671E-17-2.44581E-17
 -1      1278 1.00125E-05-3.79518E-05 2.86283E-06 1.83092E-05 2.42260E-17-1.25344E-17
 -1      1279 2.70948E-05-9.13184E-05 1.51462E-05 2.29117E-05 9.25045E-18-3.41577E-18
 -1      1280 3.78602E-05-1.14950E-04 1.94652E-05-9.27676E-08-7.47676E-18-1.25422E-18
 -1      1281 2.78826E-05-9.23312E-05 1.52847E-05-2.37372E-05-2.41447E-17-6.62740E-18
 -1      1282 1.04788E-05-3.99780E-05 3.49368E-06-1.93674E-05-3.51688E-17-1.67446E-17
 -1      1283 1.69344E-05 1.01806E-05-1.53647E-05 2.40974E-05-3.61514E-17-2.77403E-17
 -1      1284 7.29546E-05 2.16993E-05-3.79596E-05 8.30890E-05-2.84637E-17-3.38593E-17
 -1      1285 1.67576E-04-1.28995E-05-5.77941E-05 1.13098E-04-1.67204E-17-3.15757E-17
 -1      1286 2.62468E-04-6.45925E-05-7.18951E-05 8.70316E-05-6.39870E-18-2.11750E-17
 -1      1287 3.11465E-04-9.42523E-05-7.80606E-05 1.55950E-05-1.37828E-18-4.27498E-18
 -1      1288 2.85083E-04-7.79412E-05-7.48529E-05-6.44215E-05-2.83925E-18 1.20092E-17
 -1      1289 2.00358E-04-2.98694E-05-6.28385E-05-1.09526E-04-9.63415E-18 2.19670E-17
 -1      1290 1.01003E-04 1.49529E-05-4.50535E-05-9.82216E-05-1.80443E-17 2.49892E-17
 -1      1291 3.08668E-05 2.36336E-05-2.46453E-05-4.90289E-05-2.44776E-17 2.28919E-17
 -1      1292 7.18060E-06-1.02063E-05-5.42129E-06 2.08587E-06-2.26734E-17 1.39108E-17
 -1      1293 1.78300E-05-6.61946E-05 9.90253E-06 2.53800E-05-1.55744E-17 6.04294E-18
 -1      1294 3.49675E-05-1.08648E-04 1.82825E-05 1.30777E-05-1.71312E-18 1.38776E-18
 -1      1295 1.06706E-04-2.25877E-05-3.85660E-05-1.59870E-05-9.75253E-19 1.10218E-17
 -1      1296 9.30661E-05-7.34229E-06-3.68766E-05-1.76353E-05-2.25014E-18-3.40243E-18
 -1      1297 9.55235E-05-7.51597E-06-3.80356E-05-2.32224E-05-3.04985E-18-2.29493E-19
 -1      1298 8.79508E-05-4.46978E-06-3.58376E-05-1.30258E-05-2.05188E-18-7.74900E-18
 -1      1299 8.95978E-05-4.50179E-06-3.64113E-05-1.56671E-05-2.35687E-18-5.94464E-18
 -1      1300 9.50168E-05-1.13064E-05-3.59407E-05-1.59297E-05-3.84990E-18-3.01967E-18
 -1      1301 8.49897E-05-3.22569E-06-3.50657E-05-9.25493E-06-1.50290E-18-9.63448E-18
 -1      1302 8.61551E-05-3.22289E-06-3.54716E-05-1.10960E-05-1.80937E-18-8.85231E-18
 -1      1303 8.97180E-05-7.71131E-06-3.52161E-05-1.19334E-05-3.16532E-18-6.56726E-18
 -1      1304 8.28002E-05-2.43842E-06-3.44542E-05-6.35248E-06-9.58259E-19-1.03783E-17
 -1      1305 8.37057E-05-2.44249E-06-3.47679E-05-7.74146E-06-1.14278E-18-1.00743E-17
 -1      1306 8.63201E-05-5.71373E-06-3.46083E-05-8.47369E-06-2.21634E-18-8.20283E-18
 -1      1307 8.11326E-05-1.88143E-06-3.39752E-05-4.15154E-06-4.66675E-19-1.05441E-17
 -1      1308 8.18242E-05-1.88769E-06-3.42140E-05-5.20511E-06-6.35963E-19-1.04951E-17
 -1      1309 8.38309E-05-4.38768E-06-3.40985E-05-5.78969E-06-1.33882E-18-8.78177E-18
 -1      1310 7.99174E-05-1.48833E-06-3.36212E-05-2.39733E-06-3.73092E-20-1.03623E-17
 -1      1311 8.04039E-05-1.49476E-06-3.37895E-05-3.24522E-06-1.67488E-19-1.04798E-17
 -1      1312 8.19583E-05-3.45521E-06-3.36885E-05-3.71321E-06-5.78788E-19-8.90660E-18
 -1      1313 7.92234E-05-1.25483E-06-3.34195E-05-9.55373E-07 4.00243E-19-1.01123E-17
 -1      1314 7.94705E-05-1.25854E-06-3.35052E-05-1.66981E-06 2.73843E-19-1.02548E-17
 -1      1315 8.06734E-05-2.84229E-06-3.33966E-05-2.04745E-06 1.69403E-19-8.71570E-18
 -1      1316 7.90844E-05-1.18254E-06-3.33828E-05 3.55805E-07 7.75988E-19-9.79800E-18
 -1      1317 7.90779E-05-1.18262E-06-3.33809E-05-3.16637E-07 6.58608E-19-9.98934E-18
 -1      1318 8.00269E-05-2.54228E-06-3.32464E-05-6.42226E-07 8.83768E-19-8.54756E-18
 -1      1319 7.95065E-05-1.27207E-06-3.35135E-05 1.72093E-06 1.14774E-18-9.32409E-18
 -1      1320 7.92475E-05-1.26848E-06-3.34244E-05 9.98453E-07 1.01238E-18-9.59416E-18
 -1      1321 8.00464E-05-2.55527E-06-3.32494E-05 6.80583E-07 1.45302E-18-8.19064E-18
 -1      1322 8.04636E-05-1.52184E-06-3.38023E-05 3.32308E-06 1.51045E-18-8.73311E-18
 -1      1323 7.99684E-05-1.51448E-06-3.36318E-05 2.45955E-06 1.40469E-18-9.10489E-18
 -1      1324 8.07287E-05-2.87998E-06-3.34046E-05 2.10113E-06 2.09015E-18-7.72866E-18
 -1      1325 8.18821E-05-1.91931E-06-3.42239E-05 5.30213E-06 1.89256E-18-7.77223E-18
 -1      1326 8.11886E-05-1.91380E-06-3.39850E-05 4.22990E-06 1.74196E-18-8.36074E-18
 -1      1327 8.20294E-05-3.50883E-06-3.36961E-05 3.77922E-06 2.66996E-18-7.06118E-18
 -1      1328 8.37870E-05-2.48937E-06-3.47809E-05 7.90762E-06 2.37746E-18-6.22360E-18
 -1      1329 8.28789E-05-2.48647E-06-3.44670E-05 6.49102E-06 2.16756E-18-7.13590E-18
 -1      1330 8.39174E-05-4.45993E-06-3.41047E-05 5.89537E-06 3.32308E-18-6.01687E-18
 -1      1331 8.62390E-05-3.28047E-06-3.54839E-05 1.13298E-05 2.83523E-18-3.67877E-18
 -1      1332 8.50778E-05-3.28964E-06-3.50779E-05 9.45337E-06 2.56413E-18-5.22093E-18
 -1      1333 8.64469E-05-5.82208E-06-3.46159E-05 8.64536E-06 4.00699E-18-4.32463E-18
 -1      1334 8.96966E-05-4.51170E-06-3.64307E-05 1.59373E-05 3.04646E-18 7.53489E-19
 -1      1335 8.80301E-05-4.53243E-06-3.58469E-05 1.33134E-05 2.76509E-18-1.92171E-18
 -1      1336 8.98658E-05-7.85191E-06-3.52205E-05 1.21985E-05 4.49131E-18-1.52098E-18
 -1      1337 9.62124E-05-7.53454E-06-3.79202E-05 2.26887E-05 2.45872E-18 8.85081E-18
 -1      1338 9.28910E-05-7.11419E-06-3.68948E-05 1.83273E-05 2.47672E-18 3.94993E-18
 -1      1339 9.52347E-05-1.15347E-05-3.59224E-05 1.65901E-05 4.42726E-18 3.39353E-18
 -1      1340 1.25051E-04-2.54161E-05-3.95977E-05 2.69509E-05 1.12168E-18 2.34268E-17
 -1      1341 1.02670E-04-1.51815E-05-3.81019E-05 2.21168E-05 1.19082E-18 1.34192E-17
 -1      1342 1.04825E-04-2.04091E-05-3.62570E-05 1.88935E-05 3.92053E-18 1.06951E-17
 -1      1343 1.05421E-04-2.87490E-05-3.55362E-05 6.13035E-06 2.04484E-18 2.27293E-17
 -1      1344 1.08357E-04-3.12635E-05-3.44429E-05-6.62767E-06-2.63311E-18 1.21503E-17
 -1      1345 1.02585E-04-2.92185E-05-3.19923E-05-3.84637E-06-2.35068E-18 9.00634E-18
 -1      1346 1.00505E-04-2.93590E-05-3.07383E-05-1.35463E-06-1.92994E-18 7.86816E-18
 -1      1347 9.93544E-05-2.93833E-05-3.00274E-05-9.23671E-07-1.79020E-18 5.07140E-18
 -1      1348 1.03928E-04-2.94538E-05-3.22822E-05-5.67986E-06-4.07698E-18 3.69643E-18
 -1      1349 9.85071E-05-2.92523E-05-2.96667E-05 3.38531E-07-1.43789E-18 4.12193E-18
 -1      1350 9.89178E-05-2.94907E-05-2.97045E-05 4.73721E-07-1.18440E-18 2.21451E-18
 -1      1351 1.00672E-04-2.95403E-05-3.06164E-05-8.67360E-07-3.08931E-18 1.99122E-18
 -1      1352 9.91123E-05-2.95755E-05-2.97583E-05 1.14532E-06-9.40776E-19 1.44557E-18
 -1      1353 1.00298E-04-2.99856E-05-3.00965E-05 1.23937E-06-9.57137E-19 8.74562E-20
 -1      1354 1.00207E-04-2.97421E-05-3.02396E-05 1.41461E-06-2.17809E-18 3.89291E-19
 -1      1355 1.01095E-04-3.02271E-05-3.03479E-05 1.63777E-06-7.97587E-19-3.83971E-19
 -1      1356 1.02715E-04-3.07564E-05-3.08211E-05 1.70012E-06-7.11054E-19-1.51722E-18
 -1      1357 1.01205E-04-3.01749E-05-3.04656E-05 2.70132E-06-1.64014E-18-8.20265E-19
 -1      1358 1.03864E-04-3.11057E-05-3.11738E-05 1.90703E-06-6.19967E-19-1.91297E-18
 -1      1359 1.05697E-04-3.17040E-05-3.17038E-05 1.93312E-06-5.63480E-19-2.82046E-18
 -1      1360 1.03122E-04-3.08427E-05-3.09938E-05 3.44349E-06-1.33714E-18-1.70880E-18
 -1      1361 1.06998E-04-3.21122E-05-3.20914E-05 1.92819E-06-5.29188E-19-3.14249E-18
 -1      1362 1.08794E-04-3.27107E-05-3.26037E-05 1.90111E-06-5.40663E-19-3.94850E-18
 -1      1363 1.05548E-04-3.16838E-05-3.16621E-05 3.70678E-06-1.01502E-18-2.41075E-18
 -1      1364 1.10032E-04-3.31216E-05-3.29563E-05 1.61367E-06-4.67327E-19-4.07028E-18
 -1      1365 1.11455E-04-3.36174E-05-3.33524E-05 1.50750E-06-4.39418E-19-4.69497E-18
 -1      1366 1.08095E-04-3.26099E-05-3.23387E-05 3.38320E-06-9.67795E-19-2.88223E-18
 -1      1367 1.12370E-04-3.39564E-05-3.35884E-05 8.55050E-07-4.53666E-19-4.85886E-18
 -1      1368 1.12981E-04-3.42039E-05-3.37445E-05 6.44475E-07-6.30027E-19-5.71816E-18
 -1      1369 1.10306E-04-3.34901E-05-3.28831E-05 2.28697E-06-8.01392E-19-3.02234E-18
 -1      1370 1.13274E-04-3.43708E-05-3.37791E-05-3.99364E-07-4.90882E-19-5.79008E-18
 -1      1371 1.12608E-04-3.41977E-05-3.35730E-05-7.15857E-07-1.37874E-19-6.41560E-18
 -1      1372 1.11629E-04-3.41230E-05-3.31479E-05 2.76495E-07-7.04308E-19-3.08347E-18
 -1      1373 1.12010E-04-3.40762E-05-3.33463E-05-2.01415E-06-2.28897E-20-6.70151E-18
 -1      1374 1.09780E-04-3.33489E-05-3.27165E-05-2.37783E-06-1.33758E-19-6.91086E-18
 -1      1375 1.11476E-04-3.42285E-05-3.30110E-05-2.53843E-06-3.91700E-19-3.71785E-18
 -1      1376 1.08199E-04-3.28549E-05-3.22372E-05-3.53367E-06-2.60456E-19-7.08665E-18
 -1      1377 1.04607E-04-3.15995E-05-3.12620E-05-3.79958E-06-2.42615E-19-7.28761E-18
 -1      1378 1.09428E-04-3.35191E-05-3.24375E-05-5.54106E-06-3.99654E-19-4.41450E-18
 -1      1379 1.02324E-04-3.07810E-05-3.06423E-05-4.20593E-06-1.56347E-19-7.69021E-18
 -1      1380 9.82936E-05-2.93055E-05-2.95815E-05-4.18423E-06-4.29603E-19-7.91881E-18
 -1      1381 1.05608E-04-3.19068E-05-3.15398E-05-7.51755E-06-5.21604E-19-5.02606E-18
 -1      1382 9.60650E-05-2.84359E-05-2.90248E-05-3.35334E-06-4.53110E-19-8.25878E-18
 -1      1383 9.30733E-05-2.73040E-05-2.82559E-05-2.94880E-06-4.51707E-19-8.63817E-18
 -1      1384 1.01032E-04-2.97840E-05-3.05871E-05-7.08375E-06-8.91449E-19-5.58552E-18
 -1      1385 9.18925E-05-2.68166E-05-2.79786E-05-9.88353E-07-3.96729E-19-9.35521E-18
 -1      1386 9.12645E-05-2.65689E-05-2.78222E-05-3.40876E-07-5.11595E-19-9.83640E-18
 -1      1387 9.75195E-05-2.80586E-05-2.99198E-05-3.69817E-06-9.02183E-19-6.43427E-18
 -1      1388 9.17614E-05-2.67609E-05-2.79466E-05 1.91183E-06-5.23096E-19-1.00930E-17
 -1      1389 9.38377E-05-2.75398E-05-2.84836E-05 2.47961E-06-3.18484E-19-1.06838E-17
 -1      1390 9.68020E-05-2.76709E-05-2.98046E-05 1.48824E-06-7.23048E-19-7.41774E-18
 -1      1391 9.58056E-05-2.83114E-05-2.89714E-05 3.98114E-06-4.16654E-19-1.12349E-17
 -1      1392 9.97099E-05-2.97522E-05-2.99935E-05 4.20970E-06-2.82194E-19-1.17534E-17
 -1      1393 9.93351E-05-2.88744E-05-3.03069E-05 6.09071E-06-7.08292E-19-8.14310E-18
 -1      1394 1.02270E-04-3.06993E-05-3.06667E-05 4.43934E-06-6.11700E-20-1.17515E-17
 -1      1395 1.06500E-04-3.22043E-05-3.18025E-05 4.30804E-06 1.68940E-19-1.15798E-17
 -1      1396 1.03952E-04-3.10219E-05-3.12586E-05 8.14482E-06-3.02670E-19-8.48420E-18
 -1      1397 1.08714E-04-3.29452E-05-3.24381E-05 3.48709E-06 1.48198E-19-1.16530E-17
 -1      1398 1.12001E-04-3.40534E-05-3.33506E-05 3.15686E-06 7.44860E-20-1.14103E-17
 -1      1399 1.08732E-04-3.30998E-05-3.23397E-05 7.33458E-06 2.09687E-19-8.46996E-18
 -1      1400 1.13333E-04-3.44259E-05-3.37822E-05 1.88626E-06 2.24014E-19-1.12776E-17
 -1      1401 1.15108E-04-3.49734E-05-3.42977E-05 1.53775E-06-1.01617E-19-1.08817E-17
 -1      1402 1.12173E-04-3.44152E-05-3.32265E-05 4.73761E-06 1.73066E-19-8.48672E-18
 -1      1403 1.15473E-04-3.50061E-05-3.44640E-05 3.44978E-07 1.41044E-19-1.00795E-17
 -1      1404 1.15804E-04-3.50599E-05-3.45794E-05 8.08458E-08 3.64886E-19-9.69170E-18
 -1      1405 1.13707E-04-3.48330E-05-3.37196E-05 1.74977E-06 4.48504E-19-8.15831E-18
 -1      1406 1.15393E-04-3.48591E-05-3.45072E-05-7.72169E-07 2.12738E-19-9.58714E-18
 -1      1407 1.14679E-04-3.45819E-05-3.43200E-05-9.27780E-07 2.75918E-19-9.05893E-18
 -1      1408 1.13508E-04-3.45665E-05-3.37778E-05-6.93986E-07 5.29488E-19-7.44047E-18
 -1      1409 1.13773E-04-3.42546E-05-3.40807E-05-1.40443E-06 5.59953E-19-8.47528E-18
 -1      1410 1.12468E-04-3.38066E-05-3.37150E-05-1.47010E-06 5.39282E-19-8.19113E-18
 -1      1411 1.12086E-04-3.39108E-05-3.34773E-05-2.26192E-06 7.54035E-19-6.68835E-18
 -1      1412 1.11321E-04-3.34322E-05-3.33856E-05-1.64703E-06 4.43775E-19-7.73970E-18
 -1      1413 1.09791E-04-3.29313E-05-3.29468E-05-1.65295E-06 6.31441E-19-7.01280E-18
 -1      1414 1.09984E-04-3.30994E-05-3.29441E-05-3.01981E-06 1.06118E-18-5.78396E-18
 -1      1415 1.08592E-04-3.25605E-05-3.25894E-05-1.63357E-06 1.85939E-19-6.82604E-18
 -1      1416 1.07077E-04-3.20785E-05-3.21494E-05-1.60622E-06 8.41673E-20-6.10361E-18
 -1      1417 1.07632E-04-3.22776E-05-3.23005E-05-3.18997E-06 7.55452E-19-4.65162E-18
 -1      1418 1.05945E-04-3.17394E-05-3.18051E-05-1.47884E-06-3.10702E-19-6.23240E-18
 -1      1419 1.04578E-04-3.13127E-05-3.14047E-05-1.43674E-06-1.50807E-19-6.77949E-18
 -1      1420 1.05321E-04-3.15220E-05-3.16400E-05-3.00235E-06-2.28339E-19-4.87016E-18
 -1      1421 1.03575E-04-3.10183E-05-3.10963E-05-1.26316E-06-2.91608E-19-6.73777E-18
 -1      1422 1.02411E-04-3.06604E-05-3.07537E-05-1.21754E-06-4.95991E-19-7.24918E-18
 -1      1423 1.03218E-04-3.08657E-05-3.10222E-05-2.63490E-06-6.37276E-19-4.68313E-18
 -1      1424 1.01561E-04-3.04143E-05-3.04909E-05-1.03564E-06 5.40737E-19-7.46812E-18
 -1      1425 1.00611E-04-3.01253E-05-3.02101E-05-9.92544E-07 8.08949E-19-6.48581E-18
 -1      1426 1.01401E-04-3.03171E-05-3.04783E-05-2.20511E-06-9.29751E-20-5.21297E-18
 -1      1427 9.99155E-05-2.99255E-05-2.99942E-05-8.22859E-07 4.53654E-19-6.27409E-18
 -1      1428 9.91638E-05-2.96991E-05-2.97714E-05-7.85046E-07 2.79675E-19-5.65871E-18
 -1      1429 9.98884E-05-2.98715E-05-3.00199E-05-1.78157E-06 1.03279E-18-5.41101E-18
 -1      1430 9.86099E-05-2.95409E-05-2.95991E-05-6.36941E-07-1.12701E-19-5.33972E-18
 -1      1431 9.80310E-05-2.93679E-05-2.94270E-05-6.05287E-07 1.66841E-19-4.90716E-18
 -1      1432 9.86669E-05-2.95180E-05-2.96462E-05-1.39930E-06 4.66897E-19-4.66080E-18
 -1      1433 9.76002E-05-2.92453E-05-2.92929E-05-4.81559E-07-1.39956E-19-5.39575E-18
 -1      1434 9.71649E-05-2.91163E-05-2.91632E-05-4.55931E-07-6.18647E-19-5.85313E-18
 -1      1435 9.77047E-05-2.92436E-05-2.93496E-05-1.07247E-06-8.39765E-19-4.64088E-18
 -1      1436 9.68371E-05-2.90233E-05-2.90611E-05-3.55823E-07-6.48747E-19-6.48372E-18
 -1      1437 9.65174E-05-2.89293E-05-2.89656E-05-3.35608E-07-8.79075E-19-7.72715E-18
 -1      1438 9.69636E-05-2.90347E-05-2.91198E-05-8.03345E-07-1.22840E-18-4.79652E-18
 -1      1439 9.62735E-05-2.88603E-05-2.88897E-05-2.56650E-07-2.98056E-19-8.16269E-18
 -1      1440 9.60445E-05-2.87935E-05-2.88210E-05-2.41055E-07 3.73509E-19-8.61885E-18
 -1      1441 9.64049E-05-2.88790E-05-2.89455E-05-5.87978E-07-9.26026E-19-5.30109E-18
 -1      1442 9.58671E-05-2.87435E-05-2.87658E-05-1.80136E-07 6.66722E-19-8.36042E-18
 -1      1443 9.57077E-05-2.86975E-05-2.87179E-05-1.68349E-07 7.31087E-19-7.92256E-18
 -1      1444 9.59928E-05-2.87654E-05-2.88163E-05-4.19661E-07 4.30170E-19-5.32692E-18
 -1      1445 9.55819E-05-2.86621E-05-2.86787E-05-1.22302E-07 3.30320E-20-7.97466E-18
 -1      1446 9.54749E-05-2.86316E-05-2.86464E-05-1.13573E-07-3.86524E-19-8.73407E-18
 -1      1447 9.56960E-05-2.86845E-05-2.87227E-05-2.90868E-07 4.53034E-19-6.47748E-18
 -1      1448 9.53884E-05-2.86073E-05-2.86195E-05-7.94692E-08 7.45805E-20-8.26557E-18
 -1      1449 9.53199E-05-2.85882E-05-2.85987E-05-7.31429E-08 5.69484E-19-7.93921E-18
 -1      1450 9.54880E-05-2.86286E-05-2.86566E-05-1.94292E-07 2.81492E-19-6.45907E-18
 -1      1451 9.52628E-05-2.85722E-05-2.85809E-05-4.84202E-08 1.16376E-18-8.72022E-18
 -1      1452 9.52220E-05-2.85612E-05-2.85684E-05-4.39427E-08 8.78967E-19-7.27388E-18
 -1      1453 9.53471E-05-2.85914E-05-2.86115E-05-1.23354E-07 8.28717E-19-5.09547E-18
 -1      1454 9.51864E-05-2.85513E-05-2.85573E-05-2.64415E-08 6.21826E-19-6.62354E-18
 -1      1455 9.51651E-05-2.85459E-05-2.85507E-05-2.33591E-08 6.79334E-19-6.33130E-18
 -1      1456 9.52560E-05-2.85679E-05-2.85820E-05-7.23908E-08 1.00712E-18-5.10125E-18
 -1      1457 9.51448E-05-2.85403E-05-2.85444E-05-1.13086E-08-2.65140E-19-6.09282E-18
 -1      1458 9.51369E-05-2.85387E-05-2.85417E-05-9.25806E-09-1.03851E-18-6.79151E-18
 -1      1459 9.52009E-05-2.85542E-05-2.85638E-05-3.66831E-08 3.61232E-19-5.08277E-18
 -1      1460 9.51273E-05-2.85361E-05-2.85388E-05-1.24094E-09-5.45818E-19-6.09177E-18
 -1      1461 9.51281E-05-2.85370E-05-2.85388E-05 6.25848E-11-3.17950E-19-6.70055E-18
 -1      1462 9.51713E-05-2.85475E-05-2.85537E-05-1.24021E-08-7.79204E-19-4.99744E-18
 -1      1463 9.51257E-05-2.85364E-05-2.85380E-05 5.15412E-09-1.26262E-18-6.90725E-18
 -1      1464 9.51320E-05-2.85388E-05-2.85397E-05 5.92864E-09-8.25109E-19-7.84279E-18
 -1      1465 9.51593E-05-2.85454E-05-2.85492E-05 3.48724E-09-1.14745E-18-4.54868E-18
 -1      1466 9.51343E-05-2.85395E-05-2.85405E-05 8.93738E-09 3.82896E-20-7.98223E-18
 -1      1467 9.51437E-05-2.85427E-05-2.85431E-05 9.34469E-09 1.51091E-19-8.32987E-18
 -1      1468 9.51590E-05-2.85464E-05-2.85485E-05 1.33317E-08-7.56440E-19-4.25236E-18
 -1      1469 9.51489E-05-2.85443E-05-2.85447E-05 1.08879E-08 1.76849E-19-7.82114E-18
 -1      1470 9.51598E-05-2.85479E-05-2.85478E-05 1.10422E-08 6.69594E-19-6.78585E-18
 -1      1471 9.51661E-05-2.85492E-05-2.85502E-05 1.88895E-08 4.21249E-19-3.89308E-18
 -1      1472 9.51664E-05-2.85498E-05-2.85499E-05 1.15431E-08 1.29864E-18-6.78672E-18
 -1      1473 9.51777E-05-2.85535E-05-2.85532E-05 1.15172E-08 1.16704E-18-4.55356E-18
 -1      1474 9.51775E-05-2.85531E-05-2.85534E-05 2.14163E-08 1.32218E-18-2.47320E-18
 -1      1475 9.51848E-05-2.85556E-05-2.85554E-05 1.12261E-08 1.27487E-18-4.60233E-18
 -1      1476 9.51956E-05-2.85590E-05-2.85585E-05 1.10536E-08 8.53408E-19-3.14690E-18
 -1      1477 9.51908E-05-2.85575E-05-2.85571E-05 2.17291E-08 2.18274E-18-1.41732E-18
 -1      1478 9.52025E-05-2.85611E-05-2.85606E-05 1.00588E-08-2.26138E-19-3.10663E-18
 -1      1479 9.52120E-05-2.85642E-05-2.85633E-05 9.73005E-09-2.04381E-19-3.17751E-18
 -1      1480 9.52045E-05-2.85620E-05-2.85610E-05 2.02484E-08 6.07522E-19-1.99712E-18
 -1      1481 9.52180E-05-2.85660E-05-2.85651E-05 7.97378E-09 3.92155E-19-2.96368E-18
 -1      1482 9.52252E-05-2.85684E-05-2.85671E-05 7.42472E-09 7.96296E-19-2.41517E-18
 -1      1483 9.52171E-05-2.85662E-05-2.85645E-05 1.70128E-08 3.14797E-19-1.88232E-18
 -1      1484 9.52298E-05-2.85700E-05-2.85684E-05 4.74586E-09 1.02043E-18-1.97910E-18
 -1      1485 9.52339E-05-2.85712E-05-2.85697E-05 3.97691E-09 3.24547E-19-6.96315E-19
 -1      1486 9.52275E-05-2.85700E-05-2.85674E-05 1.18511E-08 1.58399E-18-1.67842E-18
 -1      1487 9.52370E-05-2.85717E-05-2.85708E-05 1.64978E-10-1.30123E-19 2.62511E-19
 -1      1488 9.52355E-05-2.85727E-05-2.85697E-05 4.00037E-09 6.01951E-19-1.50575E-19
 -1      1489 1.01177E-04-2.97716E-05-3.11110E-05 2.01643E-06 1.97269E-18 1.84060E-17
 -1      1490 1.05977E-04-3.04284E-05-3.31804E-05 3.42401E-06 1.66543E-18 2.13613E-17
 -1      1491 1.05929E-04-2.79525E-05-3.37459E-05 1.08362E-05 3.25282E-18 1.41996E-17
 -1      1492 9.84983E-05-2.93660E-05-2.96928E-05 1.90576E-07 1.37780E-18 1.45639E-17
 -1      1493 9.93911E-05-2.92027E-05-3.02845E-05 5.22323E-07 1.40588E-18 1.68572E-17
 -1      1494 1.01588E-04-2.95950E-05-3.10564E-05 3.02558E-06 2.94069E-18 1.14035E-17
 -1      1495 9.86717E-05-2.95265E-05-2.96144E-05-7.15046E-07 8.34394E-19 1.19986E-17
 -1      1496 9.81833E-05-2.92030E-05-2.95511E-05-5.14722E-07 9.17357E-19 1.34531E-17
 -1      1497 9.98237E-05-2.95917E-05-3.01533E-05-6.65187E-08 2.10980E-18 8.95400E-18
 -1      1498 1.00388E-04-3.00751E-05-3.01146E-05-1.23185E-06 7.61069E-19 1.01918E-17
 -1      1499 9.91980E-05-2.96251E-05-2.97758E-05-1.09273E-06 6.50690E-19 1.12736E-17
 -1      1500 1.00138E-04-2.98559E-05-3.01441E-05-1.60443E-06 1.39622E-18 7.19434E-18
 -1      1501 1.02987E-04-3.08779E-05-3.08910E-05-1.53287E-06 5.74411E-19 8.75242E-18
 -1      1502 1.01400E-04-3.03372E-05-3.04259E-05-1.43511E-06 5.42798E-19 9.62759E-18
 -1      1503 1.01681E-04-3.03984E-05-3.05701E-05-2.48667E-06 1.07212E-18 6.17711E-18
 -1      1504 1.06018E-04-3.18213E-05-3.17850E-05-1.63718E-06 8.87478E-20 8.02287E-18
 -1      1505 1.04254E-04-3.12421E-05-3.12730E-05-1.58541E-06 2.48526E-19 8.42370E-18
 -1      1506 1.03933E-04-3.11431E-05-3.12117E-05-2.94360E-06 6.60544E-19 5.42550E-18
 -1      1507 1.09017E-04-3.27734E-05-3.26518E-05-1.49172E-06 3.82606E-19 7.23546E-18
 -1      1508 1.07327E-04-3.22328E-05-3.21704E-05-1.50708E-06 2.13467E-19 7.58436E-18
 -1      1509 1.06479E-04-3.19975E-05-3.19243E-05-2.96969E-06 5.03533E-19 4.56171E-18
 -1      1510 1.11397E-04-3.35592E-05-3.33154E-05-1.00850E-06 4.79110E-19 6.09033E-18
 -1      1511 1.10118E-04-3.31684E-05-3.29643E-05-1.12288E-06 5.28906E-19 6.95668E-18
 -1      1512 1.08879E-04-3.28453E-05-3.25678E-05-2.44863E-06 8.32534E-19 4.00973E-18
 -1      1513 1.12435E-04-3.39491E-05-3.35685E-05-1.14923E-07 4.37866E-19 5.12747E-18
 -1      1514 1.11993E-04-3.38530E-05-3.34677E-05-3.57990E-07 3.72556E-19 5.81952E-18
 -1      1515 1.10609E-04-3.35258E-05-3.29871E-05-1.23591E-06 7.52675E-19 3.54499E-18
 -1      1516 1.11395E-04-3.36869E-05-3.32172E-05 1.15598E-06 1.74959E-19 4.61948E-18
 -1      1517 1.12221E-04-3.40341E-05-3.34783E-05 7.84361E-07 1.49422E-19 4.97959E-18
 -1      1518 1.11078E-04-3.38238E-05-3.30280E-05 7.15863E-07 4.45764E-19 3.25026E-18
 -1      1519 1.07842E-04-3.25847E-05-3.21773E-05 2.54644E-06 2.87336E-19 4.14432E-18
 -1      1520 1.10168E-04-3.34532E-05-3.28438E-05 2.11526E-06 1.02729E-19 4.22296E-18
 -1      1521 1.09767E-04-3.34962E-05-3.25884E-05 3.16750E-06 2.37527E-19 3.07941E-18
 -1      1522 1.02119E-04-3.06997E-05-3.05913E-05 3.51525E-06 3.37013E-19 3.78687E-18
 -1      1523 1.05688E-04-3.19851E-05-3.15674E-05 3.18322E-06 3.03956E-19 3.96353E-18
 -1      1524 1.06521E-04-3.23769E-05-3.16934E-05 5.41691E-06 3.23739E-19 2.81481E-18
 -1      1525 9.57032E-05-2.85053E-05-2.88820E-05 3.41039E-06 1.54736E-19 3.22174E-18
 -1      1526 9.95733E-05-2.98452E-05-2.99034E-05 3.37429E-06 1.45819E-19 3.55579E-18
 -1      1527 1.01913E-04-3.05752E-05-3.05503E-05 6.36703E-06 4.05730E-19 2.64285E-18
 -1      1528 9.09486E-05-2.68433E-05-2.76474E-05 1.92623E-06 1.50692E-19 2.44570E-18
 -1      1529 9.36942E-05-2.77046E-05-2.83518E-05 2.28325E-06 1.85050E-19 2.90114E-18
 -1      1530 9.73937E-05-2.86440E-05-2.95215E-05 5.07675E-06 3.24361E-19 1.69138E-18
 -1      1531 8.99756E-05-2.65071E-05-2.73918E-05-4.72867E-07-3.92990E-19 2.15067E-18
 -1      1532 9.03827E-05-2.64750E-05-2.74880E-05 1.54752E-07 3.22402E-20 2.09868E-18
 -1      1533 9.48385E-05-2.74555E-05-2.89909E-05 1.59976E-06 2.52853E-19 1.28248E-18
 -1      1534 9.33375E-05-2.76971E-05-2.82468E-05-2.70921E-06 4.40715E-19 1.81689E-18
 -1      1535 9.11642E-05-2.67622E-05-2.76806E-05-2.09910E-06 5.05043E-20 1.88163E-18
 -1      1536 9.54975E-05-2.76718E-05-2.91819E-05-2.68780E-06 5.00411E-20 4.75344E-19
 -1      1537 9.96353E-05-2.98705E-05-2.98946E-05-3.80899E-06 1.31775E-18-7.13255E-19
 -1      1538 9.57805E-05-2.84426E-05-2.88805E-05-3.47398E-06 1.20637E-18 1.26621E-18
 -1      1539 9.91539E-05-2.92240E-05-3.00400E-05-5.86607E-06 1.58844E-18-5.88370E-19
 -1      1540 1.06448E-04-3.21332E-05-3.17529E-05-3.54683E-06-4.81045E-19-2.03976E-18
 -1      1541 1.02360E-04-3.07575E-05-3.06483E-05-3.54685E-06 5.29399E-19-1.14074E-18
 -1      1542 1.04265E-04-3.13516E-05-3.12667E-05-6.75836E-06 1.36176E-18-9.44653E-19
 -1      1543 1.11749E-04-3.38044E-05-3.32785E-05-2.39756E-06-3.98013E-19-4.91014E-19
 -1      1544 1.08605E-04-3.28511E-05-3.23977E-05-2.62081E-06-8.39304E-19-1.69618E-18
 -1      1545 1.08991E-04-3.31790E-05-3.24728E-05-5.54518E-06-7.55586E-19-1.91811E-18
 -1      1546 1.14622E-04-3.46361E-05-3.41737E-05-1.01808E-06 1.64642E-20-5.27013E-19
 -1      1547 1.12932E-04-3.42083E-05-3.36737E-05-1.31061E-06 1.15210E-20-4.88209E-19
 -1      1548 1.12124E-04-3.42398E-05-3.33475E-05-3.24625E-06-2.51331E-19-1.80136E-18
 -1      1549 1.15155E-04-3.47159E-05-3.44078E-05 1.35062E-07-3.60882E-20-1.00843E-18
 -1      1550 1.14837E-04-3.47285E-05-3.42894E-05-1.19503E-07 6.85038E-20-5.81700E-19
 -1      1551 1.13330E-04-3.45111E-05-3.37497E-05-8.92638E-07-4.19546E-20-1.91790E-18
 -1      1552 1.13960E-04-3.42762E-05-3.41217E-05 8.89875E-07 3.35524E-19-1.81049E-18
 -1      1553 1.14635E-04-3.45745E-05-3.42927E-05 7.15351E-07 3.34042E-19-9.59556E-19
 -1      1554 1.12890E-04-3.42044E-05-3.36999E-05 9.14344E-07 5.37138E-19-1.81659E-18
 -1      1555 1.11756E-04-3.35540E-05-3.35120E-05 1.26835E-06-1.58514E-19-2.41434E-18
 -1      1556 1.12994E-04-3.39933E-05-3.38559E-05 1.17239E-06-7.27274E-20-2.48620E-18
 -1      1557 1.11333E-04-3.35698E-05-3.33131E-05 2.01318E-06 4.23679E-19-3.08219E-18
 -1      1558 1.09135E-04-3.27304E-05-3.27555E-05 1.37105E-06-2.16267E-19-2.07195E-18
 -1      1559 1.10591E-04-3.32071E-05-3.31723E-05 1.33423E-06-2.75988E-19-2.27900E-18
 -1      1560 1.09187E-04-3.28029E-05-3.27284E-05 2.50104E-06-5.50927E-20-3.27622E-18
 -1      1561 1.06502E-04-3.19215E-05-3.19790E-05 1.30429E-06-1.40050E-20-1.33357E-18
 -1      1562 1.07948E-04-3.23736E-05-3.23998E-05 1.30519E-06 2.12676E-20-1.42325E-18
 -1      1563 1.06856E-04-3.20285E-05-3.20657E-05 2.56235E-06-2.77019E-19-2.67737E-18
 -1      1564 1.04090E-04-3.11910E-05-3.12588E-05 1.15086E-06 2.31064E-19-1.46861E-18
 -1      1565 1.05400E-04-3.15878E-05-3.16437E-05 1.17245E-06-1.26994E-19-1.34083E-18
 -1      1566 1.04607E-04-3.13158E-05-3.14098E-05 2.37186E-06 5.27179E-20-1.44204E-18
 -1      1567 1.02008E-04-3.05664E-05-3.06322E-05 9.65645E-07-7.31562E-19-7.96939E-19
 -1      1568 1.03126E-04-3.08973E-05-3.09630E-05 9.96366E-07-4.52658E-20-1.30188E-18
 -1      1569 1.02586E-04-3.06962E-05-3.08109E-05 2.06006E-06-3.09450E-19-1.01527E-18
 -1      1570 1.00284E-04-3.00528E-05-3.01110E-05 7.80847E-07-7.90331E-19 1.28958E-18
 -1      1571 1.01199E-04-3.03187E-05-3.03831E-05 8.13668E-07-1.14734E-18-6.36161E-19
 -1      1572 1.00858E-04-3.01786E-05-3.02931E-05 1.71145E-06-1.61533E-18-5.13497E-20
 -1      1573 9.89027E-05-2.96433E-05-2.96919E-05 6.13067E-07 6.12525E-19 9.95265E-19
 -1      1574 9.96281E-05-2.98507E-05-2.99083E-05 6.44132E-07 5.32918E-19 1.77051E-18
 -1      1575 9.94344E-05-2.97592E-05-2.98630E-05 1.37464E-06-3.24607E-19-8.60090E-20
 -1      1576 9.78253E-05-2.93251E-05-2.93642E-05 4.69210E-07 4.71533E-19-2.01806E-19
 -1      1577 9.83849E-05-2.94828E-05-2.95317E-05 4.96679E-07 5.75077E-19 9.38519E-19
 -1      1578 9.82947E-05-2.94279E-05-2.95166E-05 1.07392E-06 8.98758E-19 5.85797E-19
 -1      1579 9.70051E-05-2.90837E-05-2.91143E-05 3.50623E-07-4.50115E-19-6.33923E-19
 -1      1580 9.74263E-05-2.92008E-05-2.92406E-05 3.73858E-07-1.77248E-19-1.12995E-18
 -1      1581 9.74051E-05-2.91720E-05-2.92449E-05 8.18605E-07 5.03598E-19-2.65261E-19
 -1      1582 9.63949E-05-2.89047E-05-2.89280E-05 2.55743E-07 1.74629E-19-4.20642E-20
 -1      1583 9.67044E-05-2.89895E-05-2.90211E-05 2.74772E-07-2.61911E-19-2.35582E-19
 -1      1584 9.67265E-05-2.89786E-05-2.90367E-05 6.09473E-07-4.92204E-19-4.51442E-20
 -1      1585 9.59520E-05-2.87752E-05-2.87925E-05 1.81680E-07 3.59623E-19-3.86384E-19
 -1      1586 9.61735E-05-2.88349E-05-2.88594E-05 1.96869E-07 2.60042E-19-4.07962E-19
 -1      1587 9.62204E-05-2.88357E-05-2.88808E-05 4.42902E-07 2.68268E-19-1.36400E-18
 -1      1588 9.56389E-05-2.86840E-05-2.86966E-05 1.25123E-07-8.15058E-20-1.12736E-18
 -1      1589 9.57929E-05-2.87246E-05-2.87432E-05 1.36986E-07 3.52979E-19 1.26114E-20
 -1      1590 9.58516E-05-2.87324E-05-2.87668E-05 3.13329E-07 1.74753E-19-1.44001E-18
 -1      1591 9.54247E-05-2.86219E-05-2.86308E-05 8.28366E-08 2.33560E-19-1.44619E-18
 -1      1592 9.55279E-05-2.86484E-05-2.86622E-05 9.19179E-08 5.66648E-20-1.24037E-18
 -1      1593 9.55899E-05-2.86599E-05-2.86855E-05 2.14681E-07 3.54816E-19-1.40013E-18
 -1      1594 9.52841E-05-2.85813E-05-2.85875E-05 5.18919E-08 5.50019E-19-2.26628E-18
 -1      1595 9.53499E-05-2.85976E-05-2.86076E-05 5.87109E-08 3.09470E-19-1.62175E-18
 -1      1596 9.54098E-05-2.86105E-05-2.86292E-05 1.41130E-07 5.03976E-19-5.37627E-19
 -1      1597 9.51972E-05-2.85565E-05-2.85606E-05 2.97670E-08-8.36186E-19-9.32123E-19
 -1      1598 9.52360E-05-2.85655E-05-2.85726E-05 3.47883E-08-6.89309E-19-2.10939E-18
 -1      1599 9.52908E-05-2.85785E-05-2.85918E-05 8.74604E-08-5.68424E-19 1.53256E-19
 -1      1600 9.51485E-05-2.85428E-05-2.85454E-05 1.43605E-08 2.47747E-19-8.06035E-19
 -1      1601 9.51685E-05-2.85468E-05-2.85517E-05 1.79833E-08 5.78729E-20-7.43115E-19
 -1      1602 9.52165E-05-2.85589E-05-2.85681E-05 4.92056E-08-7.71904E-20-1.03155E-18
 -1      1603 9.51264E-05-2.85368E-05-2.85384E-05 3.96800E-09 8.21452E-19-6.78619E-19
 -1      1604 9.51335E-05-2.85375E-05-2.85407E-05 6.52472E-09 1.62303E-19-7.43836E-19
 -1      1605 9.51742E-05-2.85483E-05-2.85544E-05 2.26614E-08 3.33600E-19-4.94360E-19
 -1      1606 9.51221E-05-2.85360E-05-2.85368E-05-2.76007E-09-6.39499E-19-9.45851E-19
 -1      1607 9.51208E-05-2.85345E-05-2.85366E-05-9.99555E-10 1.62191E-19-7.95328E-19
 -1      1608 9.51543E-05-2.85438E-05-2.85477E-05 4.83558E-09 3.06501E-19 6.36162E-19
 -1      1609 9.51292E-05-2.85384E-05-2.85388E-05-6.86578E-09-7.51562E-19 8.51164E-19
 -1      1610 9.51226E-05-2.85357E-05-2.85370E-05-5.68832E-09-7.60402E-19-3.86968E-19
 -1      1611 9.51494E-05-2.85433E-05-2.85457E-05-6.62970E-09-1.35874E-18 7.91933E-19
 -1      1612 9.51432E-05-2.85428E-05-2.85428E-05-9.12894E-09-1.16214E-18 2.27567E-18
 -1      1613 9.51336E-05-2.85394E-05-2.85401E-05-8.37176E-09-5.25034E-19 1.43120E-18
 -1      1614 9.51543E-05-2.85455E-05-2.85468E-05-1.35426E-08-1.11836E-18 1.66510E-18
 -1      1615 9.51608E-05-2.85483E-05-2.85481E-05-1.01059E-08 1.19174E-18 2.09813E-18
 -1      1616 9.51498E-05-2.85446E-05-2.85449E-05-9.65137E-09 4.20453E-20 2.09030E-18
 -1      1617 9.51651E-05-2.85493E-05-2.85498E-05-1.72404E-08-3.68909E-19 1.84785E-18
 -1      1618 9.51797E-05-2.85541E-05-2.85537E-05-1.01576E-08 1.44434E-18-2.35858E-18
 -1      1619 9.51685E-05-2.85504E-05-2.85504E-05-9.93062E-09 1.44171E-18 3.88449E-19
 -1      1620 9.51790E-05-2.85538E-05-2.85538E-05-1.86552E-08 2.69552E-18 6.49669E-19
 -1      1621 9.51983E-05-2.85597E-05-2.85592E-05-9.46257E-09 5.76417E-19-3.18424E-18
 -1      1622 9.51875E-05-2.85563E-05-2.85561E-05-9.43261E-09 7.34110E-19-2.11364E-18
 -1      1623 9.51940E-05-2.85585E-05-2.85581E-05-1.83571E-08 1.47721E-18 5.95058E-20
 -1      1624 9.52148E-05-2.85648E-05-2.85641E-05-8.02195E-09-5.12886E-19-3.38849E-18
 -1      1625 9.52054E-05-2.85619E-05-2.85614E-05-8.20866E-09-7.02740E-20-3.22500E-18
 -1      1626 9.52085E-05-2.85632E-05-2.85623E-05-1.65776E-08 8.45205E-21 1.42165E-18
 -1      1627 9.52277E-05-2.85689E-05-2.85678E-05-5.64875E-09-1.28134E-18-2.83565E-18
 -1      1628 9.52206E-05-2.85668E-05-2.85658E-05-6.15297E-09-1.07683E-18-3.96358E-18
 -1      1629 9.52211E-05-2.85673E-05-2.85658E-05-1.32338E-08-6.12123E-19 8.23672E-19
 -1      1630 9.52352E-05-2.85713E-05-2.85702E-05-2.34885E-09-9.09096E-20-1.64454E-18
 -1      1631 9.52316E-05-2.85704E-05-2.85690E-05-3.13931E-09-2.93678E-19-2.34457E-18
 -1      1632 9.52307E-05-2.85707E-05-2.85685E-05-8.07943E-09-6.73021E-19 1.75031E-19
 -1      1633 9.52369E-05-2.85717E-05-2.85708E-05-3.19541E-10-6.59832E-19-6.98419E-19
 -1      1634 9.52385E-05-2.85785E-05-2.85685E-05-4.81027E-09 1.60091E-18 1.46933E-18
 -1      1635 9.52372E-05-2.85747E-05-2.85697E-05-3.93277E-09-6.81765E-19 2.26418E-18
 -1      1636 9.52423E-05-2.85894E-05-2.85655E-05-7.32284E-09 3.09686E-18-8.06728E-19
 -1      1637 9.52400E-05-2.85829E-05-2.85673E-05-6.95367E-09 2.64514E-18 1.00032E-19
 -1      1638 9.52386E-05-2.85810E-05-2.85674E-05-1.13274E-08 8.09459E-19 1.83247E-18
 -1      1639 9.52465E-05-2.86023E-05-2.85618E-05-8.21389E-09 1.54500E-18-7.46579E-19
 -1      1640 9.52440E-05-2.85947E-05-2.85640E-05-8.17218E-09 4.09535E-18-1.37619E-18
 -1      1641 9.52425E-05-2.85906E-05-2.85650E-05-1.48731E-08 2.34013E-18-4.19668E-19
 -1      1642 9.52506E-05-2.86150E-05-2.85581E-05-7.78430E-09-1.19771E-18-1.52713E-18
 -1      1643 9.52482E-05-2.86077E-05-2.85602E-05-7.97404E-09 4.75487E-19-4.36595E-19
 -1      1644 9.52463E-05-2.86012E-05-2.85622E-05-1.55518E-08-5.09291E-21-2.25996E-18
 -1      1645 9.52541E-05-2.86259E-05-2.85550E-05-6.44914E-09-6.24678E-18-2.12907E-18
 -1      1646 9.52521E-05-2.86198E-05-2.85567E-05-6.77566E-09-3.15355E-18-2.45701E-18
 -1      1647 9.52498E-05-2.86112E-05-2.85595E-05-1.40049E-08-2.00284E-18-4.24439E-18
 -1      1648 9.52566E-05-2.86341E-05-2.85525E-05-4.49430E-09-6.59204E-18-2.06071E-19
 -1      1649 9.52552E-05-2.86297E-05-2.85538E-05-4.91528E-09-6.71253E-18 2.11115E-19
 -1      1650 9.52526E-05-2.86197E-05-2.85571E-05-1.09442E-08-3.32616E-18-2.07687E-18
 -1      1651 9.52581E-05-2.86388E-05-2.85512E-05-2.19292E-09-7.18163E-18-5.42571E-20
 -1      1652 9.52573E-05-2.86365E-05-2.85518E-05-2.65864E-09-6.60870E-18-1.13031E-18
 -1      1653 9.52546E-05-2.86258E-05-2.85554E-05-6.89493E-09-4.02247E-18-9.67619E-19
 -1      1654 9.52583E-05-2.86395E-05-2.85509E-05 2.58339E-10-4.70914E-18 1.90109E-18
 -1      1655 9.52583E-05-2.86396E-05-2.85509E-05-2.20993E-10-7.05772E-18 1.87362E-18
 -1      1656 9.52556E-05-2.86289E-05-2.85545E-05-2.32796E-09-3.13434E-18 1.02657E-18
 -1      1657 9.52573E-05-2.86364E-05-2.85518E-05 2.69439E-09-5.42144E-18-5.03960E-19
 -1      1658 9.52581E-05-2.86387E-05-2.85512E-05 2.22934E-09-5.37192E-18 3.75701E-19
 -1      1659 9.52556E-05-2.86289E-05-2.85545E-05 2.39918E-09-3.31084E-18 1.17014E-18
 -1      1660 9.52552E-05-2.86295E-05-2.85539E-05 4.94672E-09-7.28976E-18-2.36430E-18
 -1      1661 9.52566E-05-2.86340E-05-2.85526E-05 4.52780E-09-5.31859E-18-7.55395E-19
 -1      1662 9.52546E-05-2.86257E-05-2.85554E-05 6.96229E-09-5.35362E-18-6.63999E-19
 -1      1663 9.52521E-05-2.86197E-05-2.85567E-05 6.78156E-09-9.77316E-18 5.35048E-19
 -1      1664 9.52540E-05-2.86258E-05-2.85550E-05 6.45864E-09-7.82877E-18-2.64183E-18
 -1      1665 9.52526E-05-2.86196E-05-2.85571E-05 1.09758E-08-5.41685E-18-3.53804E-18
 -1      1666 9.52482E-05-2.86075E-05-2.85603E-05 7.98698E-09-5.45929E-18 2.11487E-18
 -1      1667 9.52506E-05-2.86148E-05-2.85582E-05 7.80026E-09-9.02763E-18 3.55573E-18
 -1      1668 9.52498E-05-2.86112E-05-2.85595E-05 1.40276E-08-3.66136E-18 3.27103E-18
 -1      1669 9.52439E-05-2.85945E-05-2.85640E-05 8.19374E-09-3.16234E-18 9.12058E-19
 -1      1670 9.52465E-05-2.86021E-05-2.85619E-05 8.21676E-09-4.26288E-18 6.08981E-19
 -1      1671 9.52463E-05-2.86010E-05-2.85623E-05 1.55637E-08-1.89412E-18 2.52163E-18
 -1      1672 9.52400E-05-2.85829E-05-2.85673E-05 6.91401E-09-1.45409E-18 9.54496E-19
 -1      1673 9.52422E-05-2.85893E-05-2.85655E-05 7.28349E-09-2.14833E-18 1.00196E-18
 -1      1674 9.52424E-05-2.85905E-05-2.85651E-05 1.48455E-08-6.36588E-19 7.12143E-19
 -1      1675 9.52370E-05-2.85755E-05-2.85693E-05 5.60130E-09 6.24250E-19-5.84824E-20
 -1      1676 9.52383E-05-2.85793E-05-2.85681E-05 6.89020E-09-5.52342E-20-5.14152E-20
 -1      1677 9.52384E-05-2.85815E-05-2.85671E-05 1.31445E-08 6.19077E-19 1.39770E-18
 -1      1678 9.52338E-05-2.85747E-05-2.85681E-05 1.07571E-08 1.04070E-18-6.68230E-19
 -1      1679 1.93597E-05-6.09347E-05 1.26621E-05-3.68717E-06 1.03469E-17 5.91229E-18
 -1      1680 2.25214E-05-7.13409E-05 1.51177E-05 2.91650E-06 3.88566E-18 4.65720E-18
 -1      1681 1.91153E-05-3.66445E-05 3.27965E-06 2.61593E-06 1.55541E-17 7.46405E-18
 -1      1682 2.37350E-05-5.91709E-05 9.28609E-06-1.00941E-06 1.34034E-17 5.44113E-18
 -1      1683 3.65308E-05-1.10853E-05-1.27332E-05 2.96795E-05 1.49129E-17 1.12736E-17
 -1      1684 2.99053E-05-3.10689E-05-3.95579E-06 1.14504E-05 1.54380E-17 8.48134E-18
 -1      1685 7.72833E-05-1.23988E-06-3.16092E-05 6.09686E-05 1.32578E-17 1.44157E-17
 -1      1686 5.18853E-05-6.39351E-06-2.17019E-05 3.79410E-05 1.44817E-17 1.21913E-17
 -1      1687 1.48731E-04-1.86879E-05-5.17448E-05 7.90909E-05 9.28390E-18 1.38329E-17
 -1      1688 1.02059E-04-3.70209E-06-4.14568E-05 6.67037E-05 1.21414E-17 1.43047E-17
 -1      1689 2.15493E-04-4.68222E-05-6.64040E-05 6.25450E-05 6.23231E-18 5.87417E-18
 -1      1690 1.74622E-04-2.65167E-05-5.98001E-05 7.40094E-05 9.03805E-18 1.12613E-17
 -1      1691 2.52758E-04-6.43271E-05-7.42723E-05 1.83367E-05 3.95755E-18-4.04183E-18
 -1      1692 2.31598E-04-5.21568E-05-7.11369E-05 5.00219E-05 4.94424E-18 3.09252E-18
 -1      1693 2.37292E-04-5.47771E-05-7.27564E-05-3.15313E-05 6.65726E-18-1.38922E-17
 -1      1694 2.47121E-04-6.03462E-05-7.41654E-05 2.06178E-06 5.34859E-18-6.54524E-18
 -1      1695 1.94352E-04-3.39974E-05-6.42868E-05-7.07631E-05 1.15461E-17-2.24100E-17
 -1      1696 2.32806E-04-5.47694E-05-7.01826E-05-4.96132E-05 7.27903E-18-1.81375E-17
 -1      1697 1.28412E-04-1.09855E-05-4.85828E-05-7.17034E-05 1.72985E-17-2.41438E-17
 -1      1698 1.71937E-04-2.81574E-05-5.70978E-05-7.56528E-05 1.35402E-17-2.32392E-17
 -1      1699 6.97157E-05-2.23839E-06-3.00041E-05-5.12718E-05 2.12927E-17-2.17950E-17
 -1      1700 1.03093E-04-5.28065E-06-3.98207E-05-7.14187E-05 1.89583E-17-2.46529E-17
 -1      1701 3.57427E-05-1.83053E-05-1.11705E-05-2.12476E-05 2.00052E-17-1.55591E-17
 -1      1702 4.98562E-05-3.19140E-06-2.06636E-05-4.35341E-05 2.15079E-17-2.01831E-17
 -1      1703 2.47378E-05-4.83227E-05 4.48512E-06-1.39420E-06 1.23108E-17-8.94551E-18
 -1      1704 2.32907E-05-2.41958E-05-2.96936E-06-1.21740E-05 1.81697E-17-1.41133E-17
 -1      1705 2.42375E-05-7.12624E-05 1.38331E-05-2.91993E-07 1.63181E-18-5.10613E-18
 -1      1706 1.93435E-05-5.39046E-05 9.70662E-06 2.65725E-06 9.24621E-18-7.29931E-18
 -1      1707 2.30888E-05-7.65064E-05 1.62180E-05-5.11434E-06-9.48105E-18-5.05298E-18
 -1      1708 2.29183E-05-7.61946E-05 1.62308E-05 4.98406E-06-1.68263E-18-4.22775E-18
 -1      1709 1.91055E-05-5.60692E-05 1.03294E-05-5.26592E-06-1.96207E-17-9.92940E-18
 -1      1710 2.45053E-05-7.37244E-05 1.43091E-05-1.58169E-06-1.26797E-17-6.28996E-18
 -1      1711 2.39083E-05-2.59574E-05-2.50518E-06 1.26557E-05-2.43463E-17-1.54435E-17
 -1      1712 2.51996E-05-4.94568E-05 4.72711E-06 2.00864E-06-2.10708E-17-1.14074E-17
 -1      1713 5.90334E-05-9.05875E-06-2.18716E-05 4.62200E-05-2.23092E-17-2.03508E-17
 -1      1714 4.19781E-05-2.35331E-05-1.13087E-05 2.28919E-05-2.33120E-17-1.67056E-17
 -1      1715 1.18051E-04-1.36190E-05-4.23782E-05 6.91881E-05-1.78580E-17-2.10657E-17
 -1      1716 8.16621E-05-8.75353E-06-3.19673E-05 5.06483E-05-2.12554E-17-2.09691E-17
 -1      1717 1.84582E-04-3.23231E-05-6.00165E-05 7.54350E-05-1.19512E-17-1.98748E-17
 -1      1718 1.39121E-04-1.29013E-05-5.17169E-05 7.51864E-05-1.66501E-17-2.27920E-17
 -1      1719 2.41265E-04-5.85304E-05-7.16228E-05 4.37853E-05-6.66657E-18-1.13460E-17
 -1      1720 2.06932E-04-3.99935E-05-6.65132E-05 6.70244E-05-9.91944E-18-1.78216E-17
 -1      1721 2.56722E-04-6.56385E-05-7.51873E-05-7.74574E-06-4.37704E-18-3.26108E-19
 -1      1722 2.51375E-04-6.23766E-05-7.44106E-05 2.73995E-05-5.19443E-18-8.09361E-18
 -1      1723 2.21426E-04-4.73504E-05-6.94277E-05-5.25105E-05-5.74712E-18 8.04342E-18
 -1      1724 2.47710E-04-6.16341E-05-7.33094E-05-2.32509E-05-3.83706E-18 2.23193E-18
 -1      1725 1.61440E-04-2.12495E-05-5.69387E-05-7.51931E-05-9.28348E-18 1.40980E-17
 -1      1726 2.05141E-04-4.22217E-05-6.43118E-05-6.71817E-05-6.39785E-18 1.11131E-17
 -1      1727 9.57260E-05-3.38556E-06-3.92428E-05-6.38591E-05-1.40201E-17 1.52847E-17
 -1      1728 1.36619E-04-1.48298E-05-4.87688E-05-7.76350E-05-1.08357E-17 1.49993E-17
 -1      1729 4.88855E-05-7.93424E-06-2.00363E-05-3.50891E-05-1.57997E-17 1.36593E-17
 -1      1730 7.25231E-05-1.39987E-06-2.98643E-05-5.80915E-05-1.50755E-17 1.57667E-17
 -1      1731 2.77530E-05-3.24041E-05-2.75590E-06-8.95046E-06-1.32332E-17 9.51218E-18
 -1      1732 3.27621E-05-1.16373E-05-1.12043E-05-2.61707E-05-1.58158E-17 1.29677E-17
 -1      1733 2.41898E-05-6.23106E-05 1.01684E-05 1.40991E-06-6.89824E-18 5.08453E-18
 -1      1734 1.95074E-05-3.94638E-05 4.15474E-06-2.10660E-06-1.16958E-17 7.71711E-18
 -1      1735 2.35390E-05-7.65107E-05 1.61500E-05-2.20571E-06 2.34247E-18 3.51519E-18
 -1      1736 2.04963E-05-6.77283E-05 1.41568E-05 6.86634E-06-4.70103E-18 4.41961E-18
 -1      1737 1.16507E-04-2.96097E-05-3.62044E-05 4.67169E-05 7.96592E-18 7.99260E-18
 -1      1738 7.37205E-05-3.40469E-05-1.82139E-05 3.95610E-05 7.95195E-18 7.04986E-18
 -1      1739 9.52363E-05-2.85724E-05-2.85701E-05-2.35104E-09-1.28829E-18 1.99738E-20
 -1      1740 9.52355E-05-2.85744E-05-2.85690E-05-6.76559E-09-4.73766E-19 3.03702E-18
 -1      1741 1.92855E-05-4.52972E-05 7.30592E-06 1.54462E-05 4.62819E-18 6.51474E-18
 -1      1742 4.08302E-05-4.09763E-05-2.89065E-06 2.81709E-05 8.04088E-18 5.76639E-18
 -1      1743 1.13767E-05-4.76038E-05 1.13863E-05 2.07607E-06 1.46145E-18 7.42636E-18
 -1      1744 1.63311E-04-3.07594E-05-5.33190E-05 4.28184E-05 7.94580E-18 4.97378E-18
 -1      1745 1.98929E-04-3.42893E-05-6.54819E-05 2.75534E-05 7.91785E-18 6.43745E-20
 -1      1746 2.06343E-04-3.18528E-05-6.98623E-05 5.42400E-06 8.46906E-18-3.65834E-18
 -1      1747 1.99550E-04-3.13392E-05-6.74013E-05-1.89747E-05 8.76446E-18-8.56520E-18
 -1      1748 1.76791E-04-3.23675E-05-5.80323E-05-3.79318E-05 1.06533E-17-1.31493E-17
 -1      1749 1.35318E-04-3.03755E-05-4.29418E-05-4.60026E-05 1.18868E-17-1.46088E-17
 -1      1750 9.07592E-05-3.13294E-05-2.56484E-05-4.38960E-05 1.19821E-17-1.42132E-17
 -1      1751 5.29722E-05-3.77428E-05-8.90905E-06-3.32081E-05 9.55623E-18-1.29588E-17
 -1      1752 2.70952E-05-4.50548E-05 3.91535E-06-2.09959E-05 4.62353E-18-1.06971E-17
 -1      1753 1.38306E-05-5.00995E-05 1.10734E-05-7.77642E-06-5.08220E-19-9.22207E-18
 -1      1754 1.41217E-05-5.23722E-05 1.15753E-05 6.21220E-06-6.84932E-18-9.54733E-18
 -1      1755 2.70213E-05-4.59867E-05 4.36027E-06 2.06220E-05-1.14620E-17-1.13258E-17
 -1      1756 5.86135E-05-4.06469E-05-9.39875E-06 3.66443E-05-1.30240E-17-1.20063E-17
 -1      1757 1.03665E-04-4.05488E-05-2.70817E-05 4.17606E-05-1.26208E-17-1.20241E-17
 -1      1758 1.43543E-04-3.43990E-05-4.51841E-05 4.10458E-05-1.29454E-17-1.23430E-17
 -1      1759 1.83959E-04-3.28908E-05-6.04658E-05 3.73922E-05-1.12861E-17-1.20897E-17
 -1      1760 2.10414E-04-3.55644E-05-6.93248E-05 1.73550E-05-9.49905E-18-6.79236E-18
 -1      1761 2.10907E-04-3.45881E-05-7.01692E-05-5.96386E-06-7.17606E-18-1.96702E-18
 -1      1762 1.91817E-04-3.26396E-05-6.35995E-05-2.83983E-05-6.73899E-18 2.29969E-18
 -1      1763 1.56712E-04-3.07583E-05-5.08909E-05-4.40076E-05-7.30269E-18 6.25703E-18
 -1      1764 1.11542E-04-2.99597E-05-3.41522E-05-4.60332E-05-8.38774E-18 7.55045E-18
 -1      1765 6.96356E-05-3.37366E-05-1.67804E-05-3.84147E-05-8.48727E-18 9.69090E-18
 -1      1766 3.82196E-05-4.15389E-05-1.72882E-06-2.64533E-05-6.16301E-18 8.78074E-18
 -1      1767 1.84305E-05-4.84877E-05 8.57531E-06-1.33588E-05-2.78674E-18 7.40540E-18
 -1      1768 1.08891E-04-2.41561E-05-3.64108E-05-1.49868E-05-3.15573E-18 8.69988E-18
 -1      1769 9.07090E-05-1.07463E-05-3.44042E-05-9.61975E-06-3.23111E-18-5.75919E-18
 -1      1770 9.27611E-05-1.21025E-05-3.46924E-05-1.14975E-05-3.86848E-18-4.67017E-18
 -1      1771 9.54073E-05-1.47325E-05-3.47410E-05-1.26113E-05-4.02739E-18-3.14270E-18
 -1      1772 9.76169E-05-1.69372E-05-3.50455E-05-1.44814E-05-4.52424E-18-1.17335E-18
 -1      1773 9.61352E-05-1.70039E-05-3.39198E-05-1.00820E-05-4.17338E-18-3.56127E-18
 -1      1774 8.45558E-05-6.31794E-06-3.36066E-05-4.68237E-06-1.35112E-18-7.30770E-18
 -1      1775 8.57063E-05-6.88797E-06-3.38247E-05-5.82520E-06-1.82180E-18-7.17003E-18
 -1      1776 8.25596E-05-5.04640E-06-3.32789E-05-2.89473E-06-4.74874E-19-7.23777E-18
 -1      1777 8.34146E-05-5.44194E-06-3.34498E-05-3.81107E-06-9.08066E-19-7.32780E-18
 -1      1778 8.52177E-05-7.85082E-06-3.31807E-05-3.78886E-06-1.27146E-18-7.05707E-18
 -1      1779 8.12589E-05-4.23988E-06-3.30545E-05-1.46559E-06 4.27780E-19-7.13384E-18
 -1      1780 8.17816E-05-4.47313E-06-3.31623E-05-2.21523E-06-1.51705E-20-7.23195E-18
 -1      1781 8.31843E-05-6.41840E-06-3.29199E-05-2.26643E-06-2.48550E-19-7.07400E-18
 -1      1782 8.07005E-05-3.88708E-06-3.29572E-05-2.42571E-07 1.23060E-18-6.92934E-18
 -1      1783 8.08690E-05-3.96026E-06-3.29931E-05-9.09128E-07 8.70087E-19-7.07989E-18
 -1      1784 8.19478E-05-5.57586E-06-3.27487E-05-1.04845E-06 6.81481E-19-6.92590E-18
 -1      1785 8.09092E-05-3.98790E-06-3.29976E-05 9.45461E-07 1.89965E-18-6.57942E-18
 -1      1786 8.07155E-05-3.90098E-06-3.29587E-05 2.74916E-07 1.59915E-18-6.81877E-18
 -1      1787 8.15536E-05-5.31449E-06-3.26911E-05 1.25892E-08 1.49420E-18-6.72470E-18
 -1      1788 8.18716E-05-4.54084E-06-3.31714E-05 2.27269E-06 2.60727E-18-6.17086E-18
 -1      1789 8.13271E-05-4.29389E-06-3.30615E-05 1.51174E-06 2.27214E-18-6.42135E-18
 -1      1790 8.20166E-05-5.63297E-06-3.27543E-05 1.08377E-06 2.21375E-18-6.33563E-18
 -1      1791 8.35089E-05-5.52433E-06-3.34550E-05 3.87201E-06 3.32542E-18-5.50185E-18
 -1      1792 8.26561E-05-5.12565E-06-3.32870E-05 2.95653E-06 2.94489E-18-5.89359E-18
 -1      1793 8.32985E-05-6.51695E-06-3.29272E-05 2.31716E-06 2.97684E-18-5.82747E-18
 -1      1794 8.58401E-05-7.00779E-06-3.38298E-05 5.93978E-06 4.12579E-18-4.34928E-18
 -1      1795 8.46625E-05-6.41860E-06-3.36102E-05 4.75900E-06 3.68129E-18-5.01140E-18
 -1      1796 8.53512E-05-7.97557E-06-3.31854E-05 3.85804E-06 3.74368E-18-4.98710E-18
 -1      1797 8.88882E-05-9.12744E-06-3.42567E-05 8.55953E-06 4.82731E-18-2.68246E-18
 -1      1798 8.73620E-05-8.27138E-06-3.39994E-05 7.04922E-06 4.40088E-18-3.68492E-18
 -1      1799 8.81760E-05-1.00932E-05-3.34899E-05 5.80249E-06 4.52267E-18-3.71912E-18
 -1      1800 9.29388E-05-1.23407E-05-3.46849E-05 1.17113E-05 5.19304E-18 4.25105E-20
 -1      1801 9.08718E-05-1.09475E-05-3.44009E-05 9.83619E-06 4.97275E-18-1.59533E-18
 -1      1802 9.18369E-05-1.30783E-05-3.37699E-05 8.09835E-06 5.16683E-18-1.84734E-18
 -1      1803 9.91830E-05-1.81045E-05-3.49341E-05 1.45898E-05 4.82742E-18 5.06960E-18
 -1      1804 9.57774E-05-1.52015E-05-3.47114E-05 1.28316E-05 4.90766E-18 2.07867E-18
 -1      1805 9.66663E-05-1.75531E-05-3.38936E-05 1.02500E-05 5.23929E-18 1.17333E-18
 -1      1806 1.05457E-04-2.62805E-05-3.43509E-05 1.20174E-05 3.92256E-18 1.10006E-17
 -1      1807 1.01579E-04-2.08012E-05-3.46221E-05 1.41653E-05 4.37351E-18 7.13382E-18
 -1      1808 1.01020E-04-2.30081E-05-3.34960E-05 1.01040E-05 4.97893E-18 4.97695E-18
 -1      1809 1.02940E-04-2.74640E-05-3.25428E-05 7.03590E-06 4.07177E-18 9.71989E-18
 -1      1810 1.03597E-04-2.07865E-05-3.51874E-05-1.62494E-05-4.11784E-18 2.41468E-18
 -1      1811 1.00809E-04-2.88910E-05-3.08366E-05 1.61696E-06 3.10041E-18 7.65147E-18
 -1      1812 1.02439E-04-2.87930E-05-3.15972E-05 4.00002E-06 3.44756E-18 8.87225E-18
 -1      1813 1.01996E-04-2.69629E-05-3.21597E-05 5.86057E-06 4.10795E-18 6.11656E-18
 -1      1814 1.03382E-04-2.36915E-05-3.38794E-05-1.15577E-05-4.27545E-18 1.08124E-18
 -1      1815 1.01878E-04-2.83693E-05-3.13854E-05-2.75475E-06-3.48353E-18 5.98100E-19
 -1      1816 1.00883E-04-2.86108E-05-3.09279E-05-8.55930E-07-2.96233E-18-2.92253E-19
 -1      1817 1.00618E-04-2.89297E-05-3.06262E-05 8.36895E-07-2.56809E-18-3.47952E-19
 -1      1818 1.00759E-04-2.92598E-05-3.05919E-05 1.85901E-06-2.20805E-18-1.01404E-18
 -1      1819 1.00647E-04-2.78333E-05-3.12375E-05-5.07032E-07-3.23436E-18-1.57146E-18
 -1      1820 1.00916E-04-2.95045E-05-3.05456E-05 2.93169E-06-1.95575E-18-1.10815E-18
 -1      1821 1.01643E-04-2.98941E-05-3.07164E-05 3.54849E-06-1.63068E-18-1.61259E-18
 -1      1822 1.00682E-04-2.88083E-05-3.08323E-05 2.65495E-06-2.48904E-18-1.80613E-18
 -1      1823 1.02169E-04-3.01989E-05-3.08129E-05 4.21125E-06-1.43463E-18-1.73927E-18
 -1      1824 1.03256E-04-3.06835E-05-3.10890E-05 4.54138E-06-1.27267E-18-2.10499E-18
 -1      1825 1.01473E-04-2.96155E-05-3.08214E-05 4.63546E-06-1.88642E-18-2.12638E-18
 -1      1826 1.04070E-04-3.10921E-05-3.12608E-05 4.84265E-06-1.16608E-18-2.18256E-18
 -1      1827 1.05323E-04-3.16647E-05-3.15755E-05 4.87167E-06-9.27832E-19-2.48599E-18
 -1      1828 1.02896E-04-3.05481E-05-3.10274E-05 5.75301E-06-1.42791E-18-2.19087E-18
 -1      1829 1.06343E-04-3.21936E-05-3.17721E-05 4.75295E-06-8.92124E-19-2.44864E-18
 -1      1830 1.07554E-04-3.28187E-05-3.20621E-05 4.39620E-06-7.09886E-19-2.61858E-18
 -1      1831 1.04812E-04-3.17349E-05-3.13354E-05 6.00712E-06-1.11692E-18-2.31572E-18
 -1      1832 1.08685E-04-3.34548E-05-3.22410E-05 3.73765E-06-6.33422E-19-2.46839E-18
 -1      1833 1.09604E-04-3.40473E-05-3.24401E-05 2.89219E-06-5.80396E-19-2.42430E-18
 -1      1834 1.07057E-04-3.32099E-05-3.16595E-05 5.20932E-06-7.46233E-19-2.18993E-18
 -1      1835 1.10698E-04-3.47119E-05-3.25700E-05 1.58200E-06-7.17702E-19-2.12725E-18
 -1      1836 1.11033E-04-3.51055E-05-3.26170E-05 2.12555E-07-4.59277E-19-2.10537E-18
 -1      1837 1.09389E-04-3.48640E-05-3.19399E-05 3.10476E-06-5.29425E-19-1.78130E-18
 -1      1838 1.11843E-04-3.56011E-05-3.26874E-05-1.72086E-06-4.39709E-19-2.27732E-18
 -1      1839 1.11320E-04-3.55385E-05-3.25492E-05-3.44487E-06-5.25822E-19-2.50465E-18
 -1      1840 1.11395E-04-3.63262E-05-3.21559E-05-4.19379E-07-6.59981E-19-1.51275E-18
 -1      1841 1.11496E-04-3.55382E-05-3.25792E-05-5.63571E-06-5.08948E-19-2.53479E-18
 -1      1842 1.10003E-04-3.47581E-05-3.22784E-05-7.20766E-06-3.61670E-19-2.74719E-18
 -1      1843 1.12433E-04-3.68783E-05-3.23404E-05-4.98019E-06-5.41294E-19-1.22136E-18
 -1      1844 1.09240E-04-3.39507E-05-3.23095E-05-8.81361E-06-7.13638E-19-2.75003E-18
 -1      1845 1.07034E-04-3.24331E-05-3.19366E-05-9.42405E-06-1.07235E-18-3.17616E-18
 -1      1846 1.11778E-04-3.56542E-05-3.25687E-05-9.30127E-06-8.47228E-19-1.24512E-18
 -1      1847 1.05458E-04-3.09010E-05-3.20004E-05-9.34450E-06-1.17894E-18-3.59534E-18
 -1      1848 1.03278E-04-2.91526E-05-3.16851E-05-8.29839E-06-1.17569E-18-3.71201E-18
 -1      1849 1.09201E-04-3.23691E-05-3.28971E-05-1.12038E-05-1.43612E-18-1.56371E-18
 -1      1850 1.01737E-04-2.76657E-05-3.17614E-05-5.96808E-06-1.61593E-18-4.37942E-18
 -1      1851 1.00574E-04-2.66342E-05-3.16157E-05-3.36063E-06-1.67813E-18-4.81998E-18
 -1      1852 1.05744E-04-2.82192E-05-3.32684E-05-8.66196E-06-1.91424E-18-2.40027E-18
 -1      1853 1.00211E-04-2.62550E-05-3.16514E-05 4.03786E-07-1.58019E-18-5.81562E-18
 -1      1854 1.00700E-04-2.66249E-05-3.17300E-05 3.41981E-06-1.24859E-18-6.55259E-18
 -1      1855 1.03618E-04-2.56746E-05-3.35072E-05-1.79957E-06-2.33894E-18-4.43119E-18
 -1      1856 1.01847E-04-2.76614E-05-3.17089E-05 6.71306E-06-9.46758E-19-6.97055E-18
 -1      1857 1.03780E-04-2.92005E-05-3.19961E-05 8.68116E-06-7.25795E-19-6.96293E-18
 -1      1858 1.04476E-04-2.65522E-05-3.34768E-05 6.20762E-06-1.59028E-18-5.89853E-18
 -1      1859 1.05601E-04-3.08735E-05-3.19618E-05 9.97428E-06-6.43123E-19-7.37089E-18
 -1      1860 1.08093E-04-3.26653E-05-3.23737E-05 1.02072E-05-1.94015E-19-7.34949E-18
 -1      1861 1.07752E-04-3.02264E-05-3.32289E-05 1.12843E-05-9.40061E-19-6.33107E-18
 -1      1862 1.09467E-04-3.39425E-05-3.23678E-05 9.38862E-06 8.26850E-20-7.72405E-18
 -1      1863 1.11588E-04-3.51949E-05-3.27758E-05 8.23763E-06 2.30462E-19-7.65079E-18
 -1      1864 1.11259E-04-3.42943E-05-3.29405E-05 1.16139E-05-2.77099E-19-6.48781E-18
 -1      1865 1.12006E-04-3.56312E-05-3.27889E-05 6.24679E-06 4.43448E-19-7.22285E-18
 -1      1866 1.13244E-04-3.61089E-05-3.30756E-05 4.53931E-06 4.80546E-19-6.96530E-18
 -1      1867 1.13205E-04-3.67146E-05-3.27327E-05 8.31921E-06 3.84391E-19-7.10392E-18
 -1      1868 1.12836E-04-3.58649E-05-3.30676E-05 2.41444E-06 5.20541E-19-6.80318E-18
 -1      1869 1.13130E-04-3.57425E-05-3.31735E-05 8.35580E-07 9.21347E-19-6.67717E-18
 -1      1870 1.13219E-04-3.70808E-05-3.26018E-05 3.70408E-06 7.31099E-19-6.01509E-18
 -1      1871 1.12250E-04-3.51699E-05-3.31068E-05-8.18259E-07 9.93748E-19-6.14471E-18
 -1      1872 1.11802E-04-3.47269E-05-3.30350E-05-1.94059E-06 9.67517E-19-5.57596E-18
 -1      1873 1.11852E-04-3.60703E-05-3.24684E-05-4.41608E-07 1.26164E-18-4.96547E-18
 -1      1874 1.10742E-04-3.40954E-05-3.28994E-05-2.95874E-06 8.31158E-19-4.99380E-18
 -1      1875 1.09830E-04-3.35463E-05-3.26939E-05-3.58428E-06 1.33061E-18-4.45348E-18
 -1      1876 1.09812E-04-3.45389E-05-3.22620E-05-3.33265E-06 1.28567E-18-3.89417E-18
 -1      1877 1.08762E-04-3.29875E-05-3.25020E-05-4.04861E-06 8.29321E-19-4.82975E-18
 -1      1878 1.07631E-04-3.24521E-05-3.22189E-05-4.27840E-06 1.04390E-18-4.51177E-18
 -1      1879 1.07598E-04-3.30390E-05-3.19609E-05-4.91648E-06 1.19350E-18-3.29829E-18
 -1      1880 1.06637E-04-3.20032E-05-3.19941E-05-4.35148E-06 1.08498E-18-4.67759E-18
 -1      1881 1.05463E-04-3.15330E-05-3.16826E-05-4.31997E-06 5.31268E-19-4.45339E-18
 -1      1882 1.05474E-04-3.18006E-05-3.15828E-05-5.47336E-06 8.50239E-19-4.49447E-18
 -1      1883 1.04578E-04-3.11876E-05-3.14484E-05-4.15714E-06 1.27848E-19-4.61620E-18
 -1      1884 1.03473E-04-3.07967E-05-3.11437E-05-3.97988E-06-1.72335E-19-4.72314E-18
 -1      1885 1.03555E-04-3.08605E-05-3.11638E-05-5.35148E-06 2.24721E-19-5.13651E-18
 -1      1886 1.02706E-04-3.05352E-05-3.09185E-05-3.69862E-06-2.86263E-19-4.89095E-18
 -1      1887 1.01727E-04-3.02206E-05-3.06414E-05-3.45755E-06-5.54931E-19-4.58227E-18
 -1      1888 1.01881E-04-3.01754E-05-3.07400E-05-4.84655E-06-2.27188E-19-4.23014E-18
 -1      1889 1.01078E-04-3.00234E-05-3.04370E-05-3.13551E-06-6.51400E-19-4.10868E-18
 -1      1890 1.00248E-04-2.97759E-05-3.01976E-05-2.88171E-06 1.66425E-19-3.99995E-18
 -1      1891 1.00457E-04-2.96848E-05-3.03395E-05-4.16987E-06-4.69326E-20-3.80655E-18
 -1      1892 9.97089E-05-2.96273E-05-3.00198E-05-2.56495E-06 5.93389E-19-4.32836E-18
 -1      1893 9.90282E-05-2.94361E-05-2.98206E-05-2.32672E-06 1.31204E-18-4.15378E-18
 -1      1894 9.92700E-05-2.93354E-05-2.99799E-05-3.45575E-06 2.92259E-20-3.14171E-18
 -1      1895 9.85898E-05-2.93242E-05-2.96711E-05-2.03942E-06 8.72271E-19-4.35722E-18
 -1      1896 9.80464E-05-2.91790E-05-2.95102E-05-1.83013E-06 7.57350E-20-4.16055E-18
 -1      1897 9.82985E-05-2.90867E-05-2.96693E-05-2.78077E-06 5.02902E-19-3.90171E-18
 -1      1898 9.76962E-05-2.90953E-05-2.93880E-05-1.58259E-06-7.37672E-19-4.06798E-18
 -1      1899 9.72724E-05-2.89869E-05-2.92613E-05-1.40661E-06-1.24127E-18-4.17489E-18
 -1      1900 9.75177E-05-2.89101E-05-2.94096E-05-2.18275E-06-1.47439E-19-3.40045E-18
 -1      1901 9.69977E-05-2.89248E-05-2.91637E-05-1.20092E-06-8.33785E-19-3.97573E-18
 -1      1902 9.66743E-05-2.88453E-05-2.90661E-05-1.05762E-06-7.11157E-19-3.43773E-18
 -1      1903 9.69013E-05-2.87853E-05-2.91980E-05-1.67544E-06-5.97280E-19-2.36275E-18
 -1      1904 9.64627E-05-2.87999E-05-2.89899E-05-8.91435E-07-1.24165E-18-3.16495E-18
 -1      1905 9.62212E-05-2.87429E-05-2.89163E-05-7.77690E-07-4.52367E-19-3.24494E-18
 -1      1906 9.64232E-05-2.86981E-05-2.90296E-05-1.25864E-06-6.18207E-19-2.10315E-18
 -1      1907 9.60612E-05-2.87103E-05-2.88580E-05-6.46500E-07-3.87665E-19-3.33819E-18
 -1      1908 9.58848E-05-2.86704E-05-2.88038E-05-5.58177E-07-8.48257E-20-4.24725E-18
 -1      1909 9.60590E-05-2.86383E-05-2.88983E-05-9.24852E-07-7.79277E-19-2.49186E-18
 -1      1910 9.57663E-05-2.86475E-05-2.87601E-05-4.56740E-07 7.67446E-20-4.52564E-18
 -1      1911 9.56408E-05-2.86205E-05-2.87210E-05-3.89537E-07 2.19068E-19-5.16689E-18
 -1      1912 9.57869E-05-2.85983E-05-2.87981E-05-6.63350E-07-5.52077E-19-3.25845E-18
 -1      1913 9.55549E-05-2.86049E-05-2.86890E-05-3.12633E-07 9.59404E-19-5.00609E-18
 -1      1914 9.54681E-05-2.85874E-05-2.86616E-05-2.62510E-07 1.05143E-18-3.87401E-18
 -1      1915 9.55878E-05-2.85727E-05-2.87232E-05-4.62558E-07 4.71695E-19-2.41051E-18
 -1      1916 9.54075E-05-2.85771E-05-2.86387E-05-2.05346E-07 4.05689E-19-3.31334E-18
 -1      1917 9.53498E-05-2.85666E-05-2.86202E-05-1.68729E-07 3.58438E-19-3.83377E-18
 -1      1918 9.54457E-05-2.85573E-05-2.86683E-05-3.11362E-07 1.20831E-18-2.34073E-18
 -1      1919 9.53084E-05-2.85602E-05-2.86042E-05-1.27114E-07 9.37896E-19-3.57207E-18
 -1      1920 9.52719E-05-2.85545E-05-2.85923E-05-1.00963E-07 1.33979E-18-2.82444E-18
 -1      1921 9.53471E-05-2.85490E-05-2.86292E-05-1.99761E-07 1.02786E-18-1.53602E-18
 -1      1922 9.52448E-05-2.85509E-05-2.85816E-05-7.13539E-08 7.40057E-19-2.70401E-18
 -1      1923 9.52238E-05-2.85485E-05-2.85744E-05-5.31567E-08 1.08530E-19-3.12824E-18
 -1      1924 9.52813E-05-2.85456E-05-2.86021E-05-1.19129E-07 4.01252E-19-1.20120E-18
 -1      1925 9.52071E-05-2.85469E-05-2.85676E-05-3.26462E-08 8.51134E-20-2.03692E-18
 -1      1926 9.51967E-05-2.85467E-05-2.85638E-05-2.03785E-08-1.37357E-19-1.95964E-18
 -1      1927 9.52396E-05-2.85453E-05-2.85840E-05-6.22574E-08 5.44021E-19-2.90160E-19
 -1      1928 9.51875E-05-2.85463E-05-2.85598E-05-6.63476E-09-9.71177E-19-1.31210E-18
 -1      1929 9.51845E-05-2.85475E-05-2.85583E-05 1.29590E-09-1.03013E-18-1.60610E-18
 -1      1930 9.52153E-05-2.85471E-05-2.85727E-05-2.32779E-08-4.62264E-19 7.79844E-19
 -1      1931 9.51805E-05-2.85481E-05-2.85563E-05 1.00954E-08-1.07068E-18-1.40129E-18
 -1      1932 9.51822E-05-2.85501E-05-2.85563E-05 1.49086E-08-1.85392E-19-1.16481E-18
 -1      1933 9.52032E-05-2.85500E-05-2.85661E-05 2.46865E-09-5.74665E-19 1.12911E-18
 -1      1934 9.51816E-05-2.85511E-05-2.85557E-05 2.01470E-08 1.08786E-18-1.65280E-18
 -1      1935 9.51862E-05-2.85536E-05-2.85567E-05 2.27430E-08 1.37795E-18-5.98970E-19
 -1      1936 9.51995E-05-2.85535E-05-2.85628E-05 1.85841E-08 5.57491E-19 7.15350E-19
 -1      1937 9.51879E-05-2.85549E-05-2.85569E-05 2.54271E-08 1.27427E-18 6.35279E-19
 -1      1938 9.51940E-05-2.85576E-05-2.85584E-05 2.64321E-08 2.13759E-18 1.74688E-18
 -1      1939 9.52012E-05-2.85574E-05-2.85618E-05 2.77599E-08 2.19411E-18 1.81639E-18
 -1      1940 9.51970E-05-2.85591E-05-2.85591E-05 2.72456E-08 1.47873E-18 6.24621E-19
 -1      1941 9.52037E-05-2.85617E-05-2.85608E-05 2.70444E-08 1.58148E-18 4.32176E-19
 -1      1942 9.52062E-05-2.85613E-05-2.85622E-05 3.19073E-08 1.43135E-18 2.00469E-18
 -1      1943 9.52072E-05-2.85634E-05-2.85617E-05 2.63929E-08 7.84870E-19-1.26695E-19
 -1      1944 9.52138E-05-2.85659E-05-2.85634E-05 2.51515E-08-2.19374E-19-4.50246E-19
 -1      1945 9.52131E-05-2.85653E-05-2.85634E-05 3.22703E-08 4.63835E-19 1.99270E-19
 -1      1946 9.52175E-05-2.85676E-05-2.85643E-05 2.32414E-08 5.44848E-20-7.80931E-19
 -1      1947 9.52233E-05-2.85700E-05-2.85657E-05 2.09226E-08 7.17821E-19-5.53870E-19
 -1      1948 9.52205E-05-2.85693E-05-2.85648E-05 2.95357E-08-2.74633E-19 9.21090E-19
 -1      1949 9.52263E-05-2.85715E-05-2.85664E-05 1.79651E-08 2.16804E-18-7.61626E-19
 -1      1950 9.52309E-05-2.85735E-05-2.85675E-05 1.46241E-08 1.97512E-18-5.43012E-19
 -1      1951 9.52332E-05-2.85763E-05-2.85672E-05 1.69949E-08 1.61266E-18 8.14924E-19
 -1      1952 9.52274E-05-2.85732E-05-2.85661E-05 2.42186E-08 1.11447E-18 9.62937E-19
 -1      1953 1.00240E-04-2.93595E-05-3.03392E-05-1.07676E-06 2.23466E-18 5.81680E-18
 -1      1954 1.00547E-04-2.92147E-05-3.05071E-05 1.25209E-07 2.50485E-18 6.89370E-18
 -1      1955 1.00841E-04-2.86239E-05-3.09652E-05 9.12993E-07 3.19951E-18 4.73470E-18
 -1      1956 1.00940E-04-2.98557E-05-3.04341E-05-2.65187E-06 1.55777E-18 4.70035E-18
 -1      1957 1.00447E-04-2.95858E-05-3.03152E-05-1.93330E-06 1.70311E-18 5.45663E-18
 -1      1958 1.00665E-04-2.93095E-05-3.05981E-05-1.91265E-06 2.24194E-18 3.61193E-18
 -1      1959 1.02519E-04-3.05257E-05-3.08379E-05-3.58072E-06 1.05379E-18 4.07370E-18
 -1      1960 1.01553E-04-3.01419E-05-3.05738E-05-3.13807E-06 1.18776E-18 4.48211E-18
 -1      1961 1.01487E-04-2.99365E-05-3.06844E-05-3.60218E-06 1.56569E-18 2.83389E-18
 -1      1962 1.04623E-04-3.13664E-05-3.13927E-05-3.96781E-06 7.44379E-19 3.28870E-18
 -1      1963 1.03412E-04-3.09014E-05-3.10627E-05-3.76728E-06 8.64507E-19 3.77383E-18
 -1      1964 1.03021E-04-3.07023E-05-3.10130E-05-4.52881E-06 1.18477E-18 2.11606E-18
 -1      1965 1.06908E-04-3.23272E-05-3.19741E-05-3.73093E-06 7.70474E-19 2.52885E-18
 -1      1966 1.05665E-04-3.18279E-05-3.16443E-05-3.82383E-06 6.12043E-19 2.92584E-18
 -1      1967 1.04995E-04-3.16484E-05-3.14496E-05-4.73773E-06 9.34011E-19 1.50545E-18
 -1      1968 1.08984E-04-3.33078E-05-3.24566E-05-2.69409E-06 9.02950E-19 2.66940E-18
 -1      1969 1.07949E-04-3.28472E-05-3.21975E-05-3.17573E-06 7.95655E-19 2.73612E-18
 -1      1970 1.07127E-04-3.27477E-05-3.18850E-05-4.09525E-06 8.41435E-19 1.37338E-18
 -1      1971 1.10381E-04-3.41226E-05-3.27142E-05-7.03625E-07 8.03867E-19 2.66904E-18
 -1      1972 1.09833E-04-3.38149E-05-3.26000E-05-1.65749E-06 8.44108E-19 2.94555E-18
 -1      1973 1.09074E-04-3.38841E-05-3.22204E-05-2.40718E-06 7.91896E-19 1.87017E-18
 -1      1974 1.10581E-04-3.44710E-05-3.26464E-05 2.17727E-06 2.19395E-19 2.65641E-18
 -1      1975 1.10798E-04-3.44736E-05-3.27379E-05 7.76928E-07 5.71985E-19 2.81807E-18
 -1      1976 1.10394E-04-3.47977E-05-3.23781E-05 4.06801E-07 6.52248E-19 2.31710E-18
 -1      1977 1.09145E-04-3.39705E-05-3.22272E-05 5.40422E-06 4.23569E-19 2.56891E-18
 -1      1978 1.10304E-04-3.44444E-05-3.25400E-05 3.82602E-06 3.03264E-19 2.55315E-18
 -1      1979 1.10565E-04-3.50485E-05-3.23255E-05 4.05056E-06 5.01331E-19 2.25766E-18
 -1      1980 1.06012E-04-3.23613E-05-3.15508E-05 7.78896E-06 4.89843E-19 2.46860E-18
 -1      1981 1.08023E-04-3.33526E-05-3.20249E-05 6.62037E-06 3.94248E-19 2.35684E-18
 -1      1982 1.09151E-04-3.41384E-05-3.21009E-05 7.56785E-06 5.11813E-19 1.93970E-18
 -1      1983 1.01885E-04-2.99042E-05-3.08292E-05 7.82441E-06 7.86619E-19 1.85520E-18
 -1      1984 1.04252E-04-3.11795E-05-3.13258E-05 7.79114E-06 7.33796E-19 2.30904E-18
 -1      1985 1.06196E-04-3.19084E-05-3.18079E-05 9.34235E-06 9.45380E-19 1.74094E-18
 -1      1986 9.83531E-05-2.76178E-05-3.03172E-05 4.69084E-06 6.30252E-19 1.09315E-18
 -1      1987 1.00216E-04-2.86350E-05-3.06634E-05 6.15228E-06 6.48457E-19 1.36372E-18
 -1      1988 1.02664E-04-2.90370E-05-3.15688E-05 7.81888E-06 1.02122E-18 1.21095E-18
 -1      1989 9.72369E-05-2.68293E-05-3.02073E-05-6.88881E-07 1.56648E-19 3.86677E-19
 -1      1990 9.77432E-05-2.70261E-05-3.02680E-05 1.77911E-06 5.48904E-19 5.92137E-19
 -1      1991 1.00292E-04-2.69993E-05-3.14643E-05 2.82775E-06 9.17151E-19 1.03851E-19
 -1      1992 9.92814E-05-2.80788E-05-3.05550E-05-5.88486E-06 1.13040E-18-9.01521E-19
 -1      1993 9.81283E-05-2.73211E-05-3.02973E-05-3.54226E-06 4.01083E-19-9.41662E-20
 -1      1994 1.00513E-04-2.70638E-05-3.15270E-05-3.64770E-06 8.07302E-19-1.00815E-18
 -1      1995 1.03539E-04-3.06458E-05-3.12537E-05-8.57335E-06 1.78333E-18-1.51782E-18
 -1      1996 1.01204E-04-2.93443E-05-3.07633E-05-7.37067E-06 1.69552E-18-1.13712E-18
 -1      1997 1.03295E-04-2.92347E-05-3.17513E-05-8.58904E-06 2.03984E-18-1.78020E-18
 -1      1998 1.08059E-04-3.31388E-05-3.20880E-05-8.12301E-06 2.09694E-19-1.74489E-18
 -1      1999 1.05475E-04-3.19113E-05-3.15250E-05-8.27855E-06 1.60183E-18-1.35230E-18
 -1      2000 1.07129E-04-3.22057E-05-3.20912E-05-1.00298E-05 1.52133E-18-2.05055E-18
 -1      2001 1.11309E-04-3.46542E-05-3.28143E-05-5.55322E-06-7.73851E-19-3.19320E-18
 -1      2002 1.09283E-04-3.38775E-05-3.23425E-05-6.60903E-06-5.59035E-19-2.49977E-18
 -1      2003 1.10295E-04-3.44904E-05-3.24667E-05-8.21758E-06 3.66110E-19-2.95469E-18
 -1      2004 1.12731E-04-3.50616E-05-3.32527E-05-2.36083E-06 1.35770E-19-2.96347E-18
 -1      2005 1.11644E-04-3.47928E-05-3.29766E-05-3.68474E-06-2.94840E-19-2.98984E-18
 -1      2006 1.11912E-04-3.54493E-05-3.27624E-05-4.72756E-06-5.59485E-19-3.81094E-18
 -1      2007 1.12518E-04-3.46784E-05-3.33392E-05 3.74255E-07-4.09329E-19-3.26592E-18
 -1      2008 1.12356E-04-3.47912E-05-3.32831E-05-7.68774E-07-2.90155E-19-3.12226E-18
 -1      2009 1.11965E-04-3.52587E-05-3.28787E-05-1.13779E-06-1.83502E-19-3.96799E-18
 -1      2010 1.11177E-04-3.38947E-05-3.31139E-05 2.21378E-06 9.46841E-19-2.66136E-18
 -1      2011 1.11714E-04-3.42252E-05-3.32416E-05 1.43471E-06 3.74309E-19-2.60950E-18
 -1      2012 1.10880E-04-3.44194E-05-3.27780E-05 1.63614E-06 2.65360E-21-3.59723E-18
 -1      2013 1.09219E-04-3.29916E-05-3.26707E-05 3.17381E-06 1.05107E-19-2.78118E-18
 -1      2014 1.10177E-04-3.34114E-05-3.29200E-05 2.75596E-06 5.14966E-19-2.52847E-18
 -1      2015 1.09146E-04-3.33674E-05-3.24846E-05 3.34318E-06 6.21302E-19-2.69350E-18
 -1      2016 1.07037E-04-3.21230E-05-3.21118E-05 3.46792E-06-7.27112E-19-2.49033E-18
 -1      2017 1.08180E-04-3.25522E-05-3.24211E-05 3.32650E-06-4.41523E-19-2.92993E-18
 -1      2018 1.07144E-04-3.23547E-05-3.20578E-05 4.11888E-06-1.44823E-19-1.74363E-18
 -1      2019 1.04889E-04-3.13561E-05-3.15209E-05 3.33776E-06-2.29759E-19-2.02168E-18
 -1      2020 1.06050E-04-3.17518E-05-3.18428E-05 3.37493E-06-4.33523E-19-2.60262E-18
 -1      2021 1.05127E-04-3.14837E-05-3.15645E-05 4.23245E-06-2.73031E-19-1.57177E-18
 -1      2022 1.02926E-04-3.07103E-05-3.09554E-05 2.97968E-06-4.38371E-19-1.51826E-18
 -1      2023 1.04002E-04-3.10539E-05-3.12590E-05 3.11494E-06 1.34606E-19-1.79083E-18
 -1      2024 1.03245E-04-3.07748E-05-3.10605E-05 3.94469E-06-4.37752E-20-1.74103E-18
 -1      2025 1.01218E-04-3.01829E-05-3.04481E-05 2.52887E-06-1.43924E-18-1.66851E-19
 -1      2026 1.02160E-04-3.04694E-05-3.07169E-05 2.70615E-06-8.77247E-19-7.51242E-19
 -1      2027 1.01576E-04-3.02140E-05-3.05849E-05 3.45519E-06-8.35172E-19-1.19295E-18
 -1      2028 9.97857E-05-2.97617E-05-3.00135E-05 2.06796E-06-1.45246E-18-5.03964E-20
 -1      2029 1.00576E-04-2.99935E-05-3.02410E-05 2.25254E-06-1.66053E-18-1.88304E-19
 -1      2030 1.00149E-04-2.97776E-05-3.01605E-05 2.89694E-06-1.64860E-18-6.23989E-19
 -1      2031 9.86199E-05-2.94318E-05-2.96541E-05 1.64184E-06 9.38197E-20 7.78705E-19
 -1      2032 9.92617E-05-2.96147E-05-2.98401E-05 1.81447E-06-7.56230E-19 1.86352E-19
 -1      2033 9.89655E-05-2.94420E-05-2.97972E-05 2.34920E-06-8.82006E-19 2.79019E-19
 -1      2034 9.76940E-05-2.91780E-05-2.93651E-05 1.27094E-06 1.35835E-18 9.09711E-19
 -1      2035 9.82014E-05-2.93191E-05-2.95131E-05 1.42252E-06 6.85734E-19 7.16344E-19
 -1      2036 9.80074E-05-2.91868E-05-2.94961E-05 1.85357E-06 6.03676E-19 8.25157E-19
 -1      2037 9.69750E-05-2.89862E-05-2.91385E-05 9.61146E-07 5.43325E-20-1.67295E-19
 -1      2038 9.73666E-05-2.90928E-05-2.92533E-05 1.08870E-06 1.00131E-18 2.99337E-19
 -1      2039 9.72490E-05-2.89951E-05-2.92532E-05 1.42766E-06 1.42597E-18 7.29765E-19
 -1      2040 9.64284E-05-2.88441E-05-2.89648E-05 7.10267E-07-1.98105E-19-1.33972E-18
 -1      2041 9.67240E-05-2.89229E-05-2.90519E-05 8.14262E-07-3.42957E-19-6.34648E-19
 -1      2042 9.66611E-05-2.88533E-05-2.90620E-05 1.07485E-06 3.92331E-19-4.64963E-19
 -1      2043 9.60217E-05-2.87410E-05-2.88344E-05 5.12158E-07 1.80540E-19-1.57343E-18
 -1      2044 9.62398E-05-2.87979E-05-2.88990E-05 5.94813E-07 1.99129E-19-1.81881E-18
 -1      2045 9.62144E-05-2.87502E-05-2.89147E-05 7.90825E-07 3.32554E-19-1.50784E-18
 -1      2046 9.57260E-05-2.86680E-05-2.87388E-05 3.59141E-07-2.28623E-19-1.21397E-18
 -1      2047 9.58830E-05-2.87081E-05-2.87856E-05 4.23400E-07-3.51171E-20-1.26854E-18
 -1      2048 9.58821E-05-2.86768E-05-2.88036E-05 5.67558E-07 1.61226E-20-7.55381E-19
 -1      2049 9.55166E-05-2.86179E-05-2.86705E-05 2.43378E-07 2.86012E-19-4.53474E-19
 -1      2050 9.56265E-05-2.86452E-05-2.87034E-05 2.92325E-07-8.46818E-20-7.89694E-19
 -1      2051 9.56404E-05-2.86259E-05-2.87216E-05 3.95770E-07 4.28893E-20-3.58434E-19
 -1      2052 9.53728E-05-2.85849E-05-2.86230E-05 1.57594E-07-3.78814E-19 1.34712E-18
 -1      2053 9.54471E-05-2.86026E-05-2.86455E-05 1.94136E-07 2.35275E-19 5.11232E-19
 -1      2054 9.54691E-05-2.85919E-05-2.86626E-05 2.66266E-07-2.23182E-19 2.04239E-18
 -1      2055 9.52781E-05-2.85642E-05-2.85913E-05 9.53939E-08-6.70310E-19 6.00894E-19
 -1      2056 9.53261E-05-2.85751E-05-2.86059E-05 1.22115E-07-7.86778E-19 4.53238E-19
 -1      2057 9.53514E-05-2.85702E-05-2.86213E-05 1.70633E-07-1.63931E-19 2.24758E-18
 -1      2058 9.52194E-05-2.85525E-05-2.85711E-05 5.13688E-08 8.72778E-19 3.65095E-19
 -1      2059 9.52482E-05-2.85585E-05-2.85801E-05 7.04758E-08 8.97625E-20 4.68401E-19
 -1      2060 9.52738E-05-2.85574E-05-2.85934E-05 1.01547E-07-1.41147E-20 8.51693E-19
 -1      2061 9.51862E-05-2.85470E-05-2.85594E-05 2.10732E-08 4.49963E-19 1.27687E-19
 -1      2062 9.52015E-05-2.85496E-05-2.85643E-05 3.43928E-08 1.14615E-19-2.96472E-19
 -1      2063 9.52256E-05-2.85508E-05-2.85754E-05 5.28515E-08 3.90572E-19-2.55669E-20
 -1      2064 9.51710E-05-2.85456E-05-2.85535E-05 9.45331E-10-6.99257E-19 1.67894E-18
 -1      2065 9.51770E-05-2.85459E-05-2.85556E-05 9.95169E-09 4.28322E-19 1.60083E-18
 -1      2066 9.51984E-05-2.85484E-05-2.85647E-05 1.95121E-08-5.30266E-19 1.11702E-18
 -1      2067 9.51679E-05-2.85469E-05-2.85516E-05-1.17961E-08-1.67846E-18 1.80619E-18
 -1      2068 9.51677E-05-2.85458E-05-2.85518E-05-5.94482E-09-1.44583E-18 1.64196E-18
 -1      2069 9.51859E-05-2.85488E-05-2.85591E-05-2.48094E-09-1.32102E-18 3.13332E-18
 -1      2070 9.51725E-05-2.85499E-05-2.85523E-05-1.92591E-08-1.15329E-18 2.57163E-18
 -1      2071 9.51684E-05-2.85480E-05-2.85514E-05-1.56809E-08-1.14967E-18 2.20654E-18
 -1      2072 9.51833E-05-2.85510E-05-2.85569E-05-1.62368E-08-1.49059E-18 2.36213E-18
 -1      2073 9.51818E-05-2.85539E-05-2.85547E-05-2.29744E-08 1.64918E-18 1.18623E-18
 -1      2074 9.51755E-05-2.85514E-05-2.85530E-05-2.10278E-08-3.56084E-19 2.29755E-18
 -1      2075 9.51871E-05-2.85542E-05-2.85571E-05-2.40867E-08 2.81813E-19 2.19745E-18
 -1      2076 9.51934E-05-2.85582E-05-2.85578E-05-2.39742E-08 3.02917E-18 1.96185E-18
 -1      2077 9.51861E-05-2.85556E-05-2.85559E-05-2.32306E-08 2.93056E-18 2.25031E-18
 -1      2078 9.51946E-05-2.85580E-05-2.85587E-05-2.76934E-08 2.48816E-18 1.83139E-18
 -1      2079 9.52057E-05-2.85626E-05-2.85612E-05-2.28423E-08 1.98715E-20 2.47188E-18
 -1      2080 9.51982E-05-2.85600E-05-2.85592E-05-2.30733E-08 1.18894E-18 2.39191E-18
 -1      2081 9.52041E-05-2.85620E-05-2.85610E-05-2.81400E-08 1.07592E-18 4.09697E-18
 -1      2082 9.52173E-05-2.85669E-05-2.85644E-05-1.97647E-08-7.04592E-20 3.04755E-18
 -1      2083 9.52105E-05-2.85645E-05-2.85626E-05-2.09270E-08 7.02096E-20 3.17288E-18
 -1      2084 9.52140E-05-2.85661E-05-2.85635E-05-2.59875E-08-2.61210E-19 4.50087E-18
 -1      2085 9.52271E-05-2.85708E-05-2.85670E-05-1.46026E-08-5.79663E-19 2.42144E-18
 -1      2086 9.52216E-05-2.85687E-05-2.85656E-05-1.68528E-08-7.54062E-20 3.06220E-18
 -1      2087 9.52234E-05-2.85701E-05-2.85657E-05-2.14459E-08 3.22341E-20 3.48646E-18
 -1      2088 9.52335E-05-2.85736E-05-2.85686E-05-9.27061E-09-9.27229E-19 2.55487E-18
 -1      2089 9.52295E-05-2.85720E-05-2.85676E-05-1.25033E-08-7.46072E-19 2.95228E-18
 -1      2090 9.52303E-05-2.85734E-05-2.85672E-05-1.62212E-08-9.64951E-20 4.47440E-18
 -1      2091 9.52348E-05-2.85759E-05-2.85681E-05-1.13326E-08-5.97401E-19 4.26343E-18
 -1      2092 9.52467E-05-2.86003E-05-2.85627E-05-2.01664E-08-1.32279E-20-3.30041E-18
 -1      2093 9.52444E-05-2.85950E-05-2.85640E-05-2.05151E-08 7.80191E-19-1.87235E-18
 -1      2094 9.52423E-05-2.85912E-05-2.85648E-05-2.02510E-08 7.60432E-19-8.20370E-19
 -1      2095 9.52398E-05-2.85860E-05-2.85660E-05-1.90943E-08 1.11390E-18 6.06907E-19
 -1      2096 9.52423E-05-2.85903E-05-2.85652E-05-2.52810E-08-3.04377E-19-2.14988E-18
 -1      2097 9.52383E-05-2.85832E-05-2.85665E-05-1.71061E-08 5.83960E-19 1.65570E-18
 -1      2098 9.52361E-05-2.85788E-05-2.85675E-05-1.43951E-08-3.96598E-19 3.96881E-18
 -1      2099 9.52343E-05-2.85777E-05-2.85672E-05-1.72113E-08-4.58226E-19 3.50818E-18
 -1      2100 9.52380E-05-2.85835E-05-2.85662E-05-2.27136E-08-4.14441E-19 2.04776E-18
 -1      2101 9.52502E-05-2.86082E-05-2.85608E-05-1.75904E-08-2.41415E-18-5.83855E-18
 -1      2102 9.52483E-05-2.86036E-05-2.85620E-05-1.89699E-08-7.62202E-19-4.22955E-18
 -1      2103 9.52468E-05-2.85977E-05-2.85639E-05-2.41613E-08 3.72751E-19-5.47791E-18
 -1      2104 9.52529E-05-2.86147E-05-2.85592E-05-1.32113E-08-1.85865E-18-1.40821E-18
 -1      2105 9.52515E-05-2.86110E-05-2.85601E-05-1.53184E-08-2.04852E-18-2.90004E-18
 -1      2106 9.52503E-05-2.86040E-05-2.85627E-05-2.02905E-08-5.50686E-19-4.64675E-18
 -1      2107 9.52546E-05-2.86189E-05-2.85581E-05-7.72599E-09-2.22900E-18-6.07381E-19
 -1      2108 9.52537E-05-2.86166E-05-2.85587E-05-1.02527E-08-2.00874E-18-1.38750E-18
 -1      2109 9.52528E-05-2.86089E-05-2.85617E-05-1.44652E-08-8.55479E-19-1.65036E-18
 -1      2110 9.52553E-05-2.86207E-05-2.85576E-05-1.67690E-09-2.61412E-18 1.12296E-18
 -1      2111 9.52550E-05-2.86199E-05-2.85578E-05-4.39515E-09-2.25490E-18-8.32057E-20
 -1      2112 9.52542E-05-2.86118E-05-2.85611E-05-7.47339E-09-1.73349E-18-4.26778E-19
 -1      2113 9.52550E-05-2.86198E-05-2.85578E-05 4.48663E-09-3.56436E-18-4.96059E-19
 -1      2114 9.52553E-05-2.86206E-05-2.85576E-05 1.76980E-09-3.45282E-18 1.56264E-18
 -1      2115 9.52547E-05-2.86128E-05-2.85609E-05 5.71455E-11-2.74866E-18 8.66182E-20
 -1      2116 9.52537E-05-2.86165E-05-2.85587E-05 1.03366E-08-5.37177E-18-1.95506E-18
 -1      2117 9.52546E-05-2.86188E-05-2.85581E-05 7.81472E-09-4.53262E-18-1.32141E-18
 -1      2118 9.52542E-05-2.86118E-05-2.85611E-05 7.58447E-09-4.03575E-18-1.05678E-18
 -1      2119 9.52515E-05-2.86110E-05-2.85601E-05 1.53127E-08-4.05720E-18-2.46862E-18
 -1      2120 9.52529E-05-2.86146E-05-2.85592E-05 1.32453E-08-4.49865E-18-2.21676E-18
 -1      2121 9.52528E-05-2.86088E-05-2.85617E-05 1.45143E-08-3.34034E-18-1.97368E-18
 -1      2122 9.52483E-05-2.86036E-05-2.85620E-05 1.89903E-08-1.76311E-18 6.07825E-18
 -1      2123 9.52502E-05-2.86082E-05-2.85608E-05 1.75931E-08-3.33767E-18 3.06447E-18
 -1      2124 9.52503E-05-2.86041E-05-2.85627E-05 2.02879E-08-2.26060E-18 1.11726E-18
 -1      2125 9.52443E-05-2.85949E-05-2.85641E-05 2.05215E-08 5.24943E-19 3.33646E-18
 -1      2126 9.52466E-05-2.86001E-05-2.85628E-05 2.01946E-08-4.26718E-19 4.15067E-18
 -1      2127 9.52468E-05-2.85977E-05-2.85639E-05 2.41916E-08-8.46971E-19 5.58521E-18
 -1      2128 9.52396E-05-2.85858E-05-2.85660E-05 1.92306E-08 4.91896E-19 1.67705E-18
 -1      2129 9.52423E-05-2.85911E-05-2.85648E-05 2.02413E-08-2.15716E-19 1.58538E-18
 -1      2130 9.52422E-05-2.85902E-05-2.85652E-05 2.52534E-08 3.52840E-19 2.05491E-18
 -1      2131 5.76844E-05-3.92556E-05-8.44644E-06 3.95472E-05 3.46055E-18 3.17240E-18
 -1      2132 4.26482E-05-4.14473E-05-2.01242E-06 3.16161E-05 2.71220E-18 3.38559E-18
 -1      2133 1.16129E-05-3.09177E-05 7.17657E-06 4.74300E-06 2.96779E-19 7.34547E-18
 -1      2134 1.23784E-05-3.56791E-05 8.25742E-06-5.44752E-06-6.09652E-19 7.06510E-18
 -1      2135 2.89293E-05-3.65606E-05 2.10378E-06 2.73137E-05 2.75879E-18 4.94434E-18
 -1      2136 1.99222E-05-3.33775E-05 4.85970E-06 2.00192E-05 4.42575E-19 5.94702E-18
 -1      2137 4.33231E-05-3.66795E-05-3.43407E-06 3.63317E-05-1.14349E-18 2.96207E-18
 -1      2138 9.68287E-05-4.18651E-05-2.34996E-05 4.24064E-05 4.42702E-18 4.62395E-18
 -1      2139 7.80396E-05-4.43411E-05-1.55068E-05 3.78362E-05 3.93828E-18 3.79090E-18
 -1      2140 1.35452E-04-4.07494E-05-3.99845E-05 3.62589E-05 5.18617E-18 3.41608E-18
 -1      2141 1.13252E-04-4.19145E-05-3.11865E-05 3.51345E-05 4.78912E-18 4.25253E-18
 -1      2142 8.72190E-05-8.11812E-06-3.39970E-05-6.90165E-06-2.31110E-18-6.84155E-18
 -1      2143 8.87124E-05-8.95466E-06-3.42543E-05-8.39718E-06-2.90637E-18-6.39064E-18
 -1      2144 9.15734E-05-1.28760E-05-3.37897E-05-8.01715E-06-3.24837E-18-5.66782E-18
 -1      2145 8.79980E-05-9.89943E-06-3.34892E-05-5.70730E-06-2.21680E-18-6.66397E-18
 -1      2146 1.79823E-04-2.88043E-05-6.35667E-05 8.42964E-06 7.94432E-18-2.27915E-18
 -1      2147 1.69145E-04-2.89731E-05-5.94239E-05 1.45228E-05 7.91002E-18-6.39933E-19
 -1      2148 1.73471E-04-2.00048E-05-6.52129E-05-2.39975E-06 8.69691E-18-2.57911E-18
 -1      2149 1.80542E-04-2.42793E-05-6.54822E-05 4.65192E-06 8.39071E-18-1.86601E-18
 -1      2150 1.59058E-04-1.70439E-05-5.98090E-05-2.01392E-06 8.40511E-18-2.09619E-18
 -1      2151 1.75208E-04-2.75691E-05-6.19947E-05-1.20808E-05 8.43878E-18-6.09440E-18
 -1      2152 1.73876E-04-2.28849E-05-6.41020E-05-2.60796E-06 8.43433E-18-3.13233E-18
 -1      2153 1.56308E-04-3.36818E-05-5.22424E-05-2.12962E-05 8.60654E-18-6.91009E-18
 -1      2154 1.72651E-04-3.32220E-05-5.85248E-05-1.81167E-05 8.29701E-18-6.63693E-18
 -1      2155 1.59186E-04-2.55261E-05-5.62418E-05-7.36378E-07 7.69296E-18-1.74806E-18
 -1      2156 1.28356E-04-4.20399E-05-3.73279E-05-3.18333E-05 7.46236E-18-8.42882E-18
 -1      2157 1.47816E-04-4.09991E-05-4.50842E-05-2.98980E-05 7.79694E-18-7.08967E-18
 -1      2158 9.48120E-05-4.55901E-05-2.19823E-05-3.77519E-05 5.44219E-18-8.81888E-18
 -1      2159 1.14905E-04-4.38794E-05-3.01694E-05-4.05259E-05 6.63396E-18-9.20005E-18
 -1      2160 5.67747E-05-4.31165E-05-7.20459E-06-3.58567E-05 3.27505E-18-9.83045E-18
 -1      2161 7.38635E-05-4.06480E-05-1.45634E-05-4.24023E-05 5.45743E-18-9.92363E-18
 -1      2162 3.00421E-05-3.76563E-05 2.15609E-06-2.72849E-05 2.33781E-19-9.19687E-18
 -1      2163 4.18226E-05-3.79320E-05-2.42840E-06-3.48129E-05 2.78886E-18-1.01259E-17
 -1      2164 1.29116E-05-3.64125E-05 8.36879E-06-4.91744E-06-2.44644E-18-9.63415E-18
 -1      2165 1.59251E-05-3.31477E-05 6.23061E-06-1.54453E-05 7.19554E-19-9.87429E-18
 -1      2166 1.62406E-05-3.60463E-05 7.00364E-06 1.47801E-05-5.70286E-18-9.61340E-18
 -1      2167 1.27020E-05-3.71408E-05 8.74057E-06 5.69081E-06-2.85042E-18-9.42748E-18
 -1      2168 3.94397E-05-3.69995E-05-1.76630E-06 3.40647E-05-6.48234E-18-9.75422E-18
 -1      2169 2.78763E-05-3.86998E-05 3.14278E-06 2.48018E-05-4.84588E-18-9.63119E-18
 -1      2170 7.67408E-05-4.43164E-05-1.43364E-05 4.24187E-05-7.12355E-18-9.01254E-18
 -1      2171 5.61313E-05-4.38655E-05-6.61518E-06 3.61559E-05-6.94355E-18-9.34222E-18
 -1      2172 5.69355E-05-4.08228E-05-7.03221E-06 4.06215E-05-1.87321E-18-8.63434E-18
 -1      2173 1.21855E-04-4.77427E-05-3.16692E-05 3.61189E-05-8.25391E-18-6.98125E-18
 -1      2174 1.01429E-04-4.88406E-05-2.29717E-05 3.72397E-05-7.61737E-18-7.76179E-18
 -1      2175 1.55026E-04-3.84443E-05-4.85748E-05 2.89349E-05-1.02349E-17-8.03919E-18
 -1      2176 1.37256E-04-4.28504E-05-4.03548E-05 2.75306E-05-9.84401E-18-6.70300E-18
 -1      2177 1.76214E-04-3.25024E-05-6.01837E-05 1.76271E-05-9.87196E-18-6.61829E-18
 -1      2178 1.61250E-04-3.32971E-05-5.43063E-05 2.28299E-05-1.01571E-17-8.37716E-18
 -1      2179 1.55148E-04-3.89789E-05-4.90222E-05 9.42883E-06-8.37811E-18-3.76887E-18
 -1      2180 1.83615E-04-2.61721E-05-6.61814E-05 3.72360E-06-9.38004E-18-3.38136E-18
 -1      2181 1.77581E-04-2.63350E-05-6.37462E-05 1.05821E-05-9.95984E-18-5.45235E-18
 -1      2182 1.78419E-04-2.36941E-05-6.54158E-05-5.53479E-06-7.16420E-18-2.11589E-18
 -1      2183 1.85513E-04-2.54285E-05-6.70922E-05 1.19716E-06-8.21283E-18-3.72311E-18
 -1      2184 1.66395E-04-3.10335E-05-5.73476E-05-1.58158E-05-5.70117E-18 1.41455E-19
 -1      2185 1.75356E-04-2.88381E-05-6.18494E-05-8.33914E-06-6.19012E-18-2.00027E-18
 -1      2186 1.43280E-04-3.84559E-05-4.49689E-05-2.65359E-05-4.84365E-18 1.61063E-18
 -1      2187 1.61406E-04-3.76031E-05-5.21518E-05-2.35777E-05-5.02274E-18 4.00647E-19
 -1      2188 1.09968E-04-4.26656E-05-2.95144E-05-3.56483E-05-4.83359E-18 3.27039E-18
 -1      2189 1.31055E-04-4.14276E-05-3.78946E-05-3.70432E-05-5.23805E-18 2.36407E-18
 -1      2190 7.37429E-05-4.38067E-05-1.40474E-05-3.73066E-05-3.87391E-18 6.01266E-18
 -1      2191 9.26496E-05-4.16314E-05-2.19202E-05-4.24223E-05-4.59007E-18 5.16563E-18
 -1      2192 4.04823E-05-4.10549E-05-1.23473E-06-3.09650E-05-2.24083E-18 6.70924E-18
 -1      2193 5.47506E-05-3.90300E-05-7.43479E-06-3.80733E-05-4.00477E-18 7.66207E-18
 -1      2194 1.79356E-05-3.64492E-05 6.39593E-06-1.53515E-05-3.59989E-19 7.25145E-18
 -1      2195 2.54587E-05-3.45432E-05 2.91637E-06-2.52640E-05-2.40727E-18 7.40264E-18
 -1      2196 1.64746E-04-3.61636E-05-5.41059E-05 2.07661E-05 6.35508E-18-1.85077E-19
 -1      2197 1.47104E-04-3.72408E-05-4.70298E-05 2.46461E-05 5.77624E-18 1.54160E-18
 -1      2198 1.45645E-04-4.67231E-05-4.17752E-05 1.67840E-05 3.75267E-18-7.55977E-19
 -1      2199 1.01433E-04-2.56102E-05-3.25569E-05-7.06740E-06-4.03090E-18 1.14217E-19
 -1      2200 1.57584E-04-3.14050E-05-5.31459E-05 1.77871E-06 6.72587E-18-2.25988E-18
 -1      2201 1.00247E-04-2.41836E-05-3.26735E-05-6.75347E-06-4.21101E-18-1.67149E-18
 -1      2202 1.81053E-05-2.81641E-05 3.74567E-06 1.38274E-05-5.65606E-19 7.00835E-18
 -1      2203 1.66809E-05-1.99295E-05 1.41828E-06 7.45234E-06-1.65828E-18 7.25907E-18
 -1      2204 2.53914E-05-2.37482E-05-7.75869E-07 2.26133E-05-2.50351E-18 5.48793E-18
 -1      2205 7.98760E-05-4.81973E-05-1.38522E-05 4.17016E-05 2.35899E-19 2.05265E-18
 -1      2206 9.52377E-05-2.85823E-05-2.85667E-05 1.89516E-08 1.03569E-18 2.09521E-18
 -1      2207 1.76985E-05-2.58502E-05 2.91496E-06-1.41523E-05-5.10655E-19 7.82489E-18
 -1      2208 1.18147E-04-5.29563E-05-2.77938E-05 3.33159E-05 1.62461E-18 1.61572E-18
 -1      2209 3.98614E-05-3.54667E-05-2.44361E-06-3.38793E-05-1.97147E-19 7.04138E-18
 -1      2210 7.64863E-05-4.74396E-05-1.27930E-05-4.16727E-05-3.03238E-19 4.77441E-18
 -1      2211 1.14275E-04-5.29971E-05-2.61475E-05-3.47784E-05-1.64155E-18 9.43383E-19
 -1      2212 1.43203E-04-4.84613E-05-4.00361E-05-1.90471E-05-2.87197E-18-1.54245E-18
 -1      2213 1.56576E-04-3.46915E-05-5.13623E-05-3.41107E-06-4.28112E-18-3.36103E-18
 -1      2214 1.61573E-04-1.98198E-05-5.97456E-05 1.68600E-06-7.10237E-18-3.78158E-18
 -1      2215 1.62187E-04-2.40133E-05-5.80455E-05 1.91449E-06-9.85819E-18-2.93709E-18
 -1      2216 9.59241E-05-5.12302E-05-1.92826E-05 3.99404E-05-4.76837E-18-6.68235E-18
 -1      2217 9.05619E-05-5.12093E-05-1.63246E-05 4.18324E-05-9.77264E-19-4.80284E-18
 -1      2218 1.12643E-04-5.78420E-05-2.39258E-05 3.46659E-05-1.39464E-18-3.46076E-18
 -1      2219 2.62431E-05-3.00525E-05 1.04104E-06 2.58972E-05-1.91916E-18-9.89800E-18
 -1      2220 1.39279E-05-2.61268E-05 4.38463E-06 5.78462E-07-1.51280E-18-1.09513E-17
 -1      2221 2.81001E-05-3.00157E-05 3.56739E-07-2.65088E-05-9.59477E-19-1.03308E-17
 -1      2222 6.03420E-05-4.26263E-05-8.00946E-06-4.11682E-05-9.87217E-19-9.24092E-18
 -1      2223 9.83403E-05-5.26356E-05-1.96153E-05-4.05213E-05 8.58044E-19-7.15785E-18
 -1      2224 1.52257E-04-4.22287E-05-4.64945E-05-1.09881E-05 5.58409E-18-2.33442E-18
 -1      2225 1.47889E-04-1.39788E-05-5.74528E-05 2.60549E-06 8.49998E-18-3.36696E-19
 -1      2226 1.63979E-04-1.74552E-05-6.20293E-05-5.74904E-07 8.52369E-18-1.98481E-18
 -1      2227 1.46788E-04-1.08890E-05-5.84506E-05 5.81051E-07 8.53301E-18-8.02160E-19
 -1      2228 1.31986E-04-5.40150E-05-3.30508E-05-2.65450E-05 2.58705E-18-4.31987E-18
 -1      2229 1.33992E-04-5.06529E-05-3.55660E-05 2.54877E-05-7.19343E-18-4.60659E-18
 -1      2230 1.31466E-04-5.74059E-05-3.13048E-05 2.33282E-05-3.70069E-18-2.00429E-18
 -1      2231 1.42764E-04-5.33498E-05-3.90576E-05 1.32717E-05-5.36881E-18-1.25191E-18
 -1      2232 1.62181E-04-1.45274E-05-6.20559E-05-7.66453E-08-9.32710E-18-3.17812E-18
 -1      2233 1.00346E-04-2.76319E-05-3.11376E-05 3.33751E-07 3.26175E-18 2.53860E-18
 -1      2234 1.00678E-04-2.69839E-05-3.15099E-05 2.32603E-06 3.75829E-18 3.11085E-18
 -1      2235 8.35157E-05-7.72433E-06-3.25216E-05-1.43297E-06 8.29745E-21-6.69623E-18
 -1      2236 8.43817E-05-8.30106E-06-3.26287E-05-2.07423E-06-5.10192E-19-6.75509E-18
 -1      2237 8.55316E-05-9.27339E-06-3.27318E-05-2.57788E-06-9.13736E-19-6.74281E-18
 -1      2238 8.67915E-05-1.01610E-05-3.28719E-05-3.39103E-06-1.49408E-18-6.65982E-18
 -1      2239 8.58915E-05-1.04458E-05-3.23258E-05-1.66888E-06-7.10480E-19-6.27528E-18
 -1      2240 8.21708E-05-6.69900E-06-3.23701E-05 2.44170E-07 1.68591E-18-6.38977E-18
 -1      2241 8.21510E-05-6.68415E-06-3.23687E-05-2.48407E-07 1.22180E-18-6.52222E-18
 -1      2242 8.29096E-05-7.22935E-06-3.24563E-05 1.07918E-06 2.46264E-18-5.98621E-18
 -1      2243 8.24388E-05-6.92080E-06-3.23969E-05 5.40552E-07 2.01977E-18-6.21114E-18
 -1      2244 8.30357E-05-8.20050E-06-3.20638E-05 2.46794E-07 1.75124E-18-6.00843E-18
 -1      2245 8.45104E-05-8.41929E-06-3.26334E-05 2.10171E-06 3.22489E-18-5.44051E-18
 -1      2246 8.36363E-05-7.83272E-06-3.25274E-05 1.45524E-06 2.77411E-18-5.78195E-18
 -1      2247 8.40781E-05-9.02045E-06-3.21599E-05 8.57914E-07 2.52700E-18-5.54689E-18
 -1      2248 8.69502E-05-1.03149E-05-3.28742E-05 3.45288E-06 3.99852E-18-4.50040E-18
 -1      2249 8.56774E-05-9.41164E-06-3.27354E-05 2.62620E-06 3.53251E-18-5.05890E-18
 -1      2250 8.60446E-05-1.05955E-05-3.23283E-05 1.68973E-06 3.25724E-18-4.91350E-18
 -1      2251 9.01434E-05-1.29778E-05-3.31207E-05 5.12899E-06 4.70819E-18-3.19994E-18
 -1      2252 8.85075E-05-1.16997E-05-3.29789E-05 4.12726E-06 4.23502E-18-3.91865E-18
 -1      2253 8.88538E-05-1.29365E-05-3.25268E-05 2.80132E-06 3.92982E-18-3.88406E-18
 -1      2254 9.40795E-05-1.66101E-05-3.32880E-05 6.93490E-06 5.23589E-18-1.34772E-18
 -1      2255 9.20639E-05-1.48048E-05-3.31811E-05 5.86256E-06 4.83766E-18-2.37658E-18
 -1      2256 9.23639E-05-1.60703E-05-3.26777E-05 4.08247E-06 4.50349E-18-2.49328E-18
 -1      2257 1.00570E-04-2.86715E-05-3.07866E-05-2.58557E-06 2.27259E-18 1.83330E-18
 -1      2258 1.00407E-04-2.82306E-05-3.08608E-05-1.39021E-06 2.65109E-18 2.23895E-18
 -1      2259 9.96983E-05-2.67245E-05-3.12928E-05-2.97284E-07 3.38431E-18 8.90232E-19
 -1      2260 9.98414E-05-2.58468E-05-3.16599E-05-1.85599E-06-3.28015E-18-2.38612E-18
 -1      2261 9.97267E-05-2.66988E-05-3.12989E-05 3.05032E-07-2.83552E-18-2.50008E-18
 -1      2262 1.48760E-04-2.74810E-05-5.24463E-05-6.08780E-06 6.81713E-18-3.09485E-18
 -1      2263 1.47153E-04-3.56325E-05-4.79446E-05-4.17162E-06 5.14276E-18-3.10776E-18
 -1      2264 9.99469E-05-2.74314E-05-3.10209E-05 2.01251E-06-2.48305E-18-2.27166E-18
 -1      2265 1.00157E-04-2.80000E-05-3.09127E-05 3.36762E-06-2.18583E-18-2.45860E-18
 -1      2266 9.88303E-05-2.57050E-05-3.13528E-05 1.02825E-06-2.72634E-18-3.15379E-18
 -1      2267 1.00443E-04-2.85078E-05-3.07884E-05 4.58574E-06-1.93384E-18-2.26718E-18
 -1      2268 1.00994E-04-2.90578E-05-3.08215E-05 5.43654E-06-1.63297E-18-2.48966E-18
 -1      2269 9.93550E-05-2.72877E-05-3.09080E-05 4.18416E-06-2.10232E-18-2.90102E-18
 -1      2270 1.01509E-04-2.95926E-05-3.07913E-05 6.22871E-06-1.41816E-18-2.26440E-18
 -1      2271 1.02347E-04-3.02515E-05-3.08997E-05 6.64751E-06-1.18817E-18-2.31570E-18
 -1      2272 1.00198E-04-2.86122E-05-3.07044E-05 6.36868E-06-1.58114E-18-2.66777E-18
 -1      2273 1.03170E-04-3.09539E-05-3.09226E-05 6.99703E-06-9.95634E-19-2.10663E-18
 -1      2274 1.04224E-04-3.17906E-05-3.10602E-05 6.93482E-06-8.15599E-19-2.17376E-18
 -1      2275 1.01572E-04-3.01349E-05-3.06440E-05 7.65009E-06-1.03109E-18-2.28879E-18
 -1      2276 1.05418E-04-3.27502E-05-3.11134E-05 6.73471E-06-7.38897E-19-1.78727E-18
 -1      2277 1.06594E-04-3.37727E-05-3.12473E-05 6.07259E-06-4.51245E-19-1.68072E-18
 -1      2278 1.03619E-04-3.21396E-05-3.06677E-05 7.92065E-06-7.47980E-19-1.50696E-18
 -1      2279 1.08183E-04-3.49954E-05-3.13318E-05 5.14654E-06-2.38562E-19-1.52209E-18
 -1      2280 1.09325E-04-3.60884E-05-3.14478E-05 3.76572E-06-2.65525E-19-1.32343E-18
 -1      2281 1.06436E-04-3.47510E-05-3.07619E-05 6.90421E-06-3.54124E-19-1.11253E-18
 -1      2282 1.11201E-04-3.73960E-05-3.15988E-05 1.94166E-06-5.45406E-19-9.34972E-19
 -1      2283 1.12037E-04-3.82203E-05-3.17100E-05-1.48245E-07-3.89053E-19-8.95971E-19
 -1      2284 1.09957E-04-3.77677E-05-3.09778E-05 4.23557E-06-2.27188E-19-7.40028E-19
 -1      2285 1.13804E-04-3.91156E-05-3.19991E-05-2.84166E-06-2.49587E-19-6.69565E-19
 -1      2286 1.13948E-04-3.90698E-05-3.21491E-05-5.29097E-06-4.34237E-19-6.82934E-19
 -1      2287 1.13697E-04-4.03680E-05-3.14474E-05-3.01800E-07-2.98182E-19-3.73740E-19
 -1      2288 1.14865E-04-3.87590E-05-3.26597E-05-8.27277E-06-5.78133E-19-5.16798E-19
 -1      2289 1.13992E-04-3.72246E-05-3.29007E-05-1.02058E-05-9.06151E-19-4.44754E-19
 -1      2290 1.16498E-04-4.09510E-05-3.23576E-05-6.23418E-06-4.13253E-19-7.97154E-21
 -1      2291 1.13326E-04-3.50917E-05-3.36447E-05-1.20383E-05-1.50787E-18-5.98310E-19
 -1      2292 1.11576E-04-3.21533E-05-3.39733E-05-1.21699E-05-1.76678E-18-8.02362E-19
 -1      2293 1.16780E-04-3.77363E-05-3.38359E-05-1.15957E-05-1.39711E-18 3.15487E-19
 -1      2294 1.09565E-04-2.88040E-05-3.47671E-05-1.10867E-05-2.32769E-18-1.52929E-18
 -1      2295 1.07868E-04-2.59007E-05-3.50644E-05-8.58243E-06-2.83057E-18-2.25132E-18
 -1      2296 1.13918E-04-3.06629E-05-3.56786E-05-1.29118E-05-2.59448E-18-6.66952E-19
 -1      2297 1.06314E-04-2.36276E-05-3.55328E-05-4.22763E-06-3.14262E-18-3.02291E-18
 -1      2298 1.05916E-04-2.28714E-05-3.56214E-05 3.91889E-08-2.98412E-18-3.62113E-18
 -1      2299 1.10052E-04-2.34723E-05-3.72078E-05-7.35361E-06-3.54314E-18-2.26479E-18
 -1      2300 1.06481E-04-2.36357E-05-3.54827E-05 5.29282E-06-2.51702E-18-4.62604E-18
 -1      2301 1.07730E-04-2.56397E-05-3.53123E-05 8.98049E-06-1.92917E-18-5.04118E-18
 -1      2302 1.08981E-04-2.15604E-05-3.76011E-05 3.05458E-06-3.37140E-18-3.30604E-18
 -1      2303 1.09850E-04-2.87789E-05-3.46668E-05 1.19410E-05-1.37148E-18-5.67940E-18
 -1      2304 1.11852E-04-3.19871E-05-3.43716E-05 1.31939E-05-8.20502E-19-5.77505E-18
 -1      2305 1.11891E-04-2.65196E-05-3.66367E-05 1.18423E-05-2.15160E-18-5.02009E-18
 -1      2306 1.13405E-04-3.49533E-05-3.35934E-05 1.27495E-05-3.52849E-19-5.94498E-18
 -1      2307 1.14929E-04-3.73581E-05-3.33338E-05 1.16364E-05 3.76756E-20-5.65616E-18
 -1      2308 1.15854E-04-3.43698E-05-3.49063E-05 1.40499E-05-7.96363E-19-5.30490E-18
 -1      2309 1.14855E-04-3.86273E-05-3.27073E-05 9.04963E-06 1.44556E-19-5.31639E-18
 -1      2310 1.15343E-04-3.94414E-05-3.25441E-05 6.75288E-06 7.72779E-19-5.57427E-18
 -1      2311 1.17413E-04-3.98155E-05-3.32192E-05 1.04220E-05 2.17965E-19-4.90238E-18
 -1      2312 1.13962E-04-3.90936E-05-3.21598E-05 3.79525E-06 1.43264E-18-5.20552E-18
 -1      2313 1.13551E-04-3.86837E-05-3.20629E-05 1.45618E-06 1.42738E-18-4.71241E-18
 -1      2314 1.15870E-04-4.11283E-05-3.20316E-05 4.44845E-06 1.36072E-18-4.04509E-18
 -1      2315 1.11695E-04-3.75332E-05-3.18555E-05-8.57699E-07 1.45419E-18-4.21889E-18
 -1      2316 1.10772E-04-3.65751E-05-3.17660E-05-2.63637E-06 1.81934E-18-4.02761E-18
 -1      2317 1.12519E-04-3.94040E-05-3.13638E-05-9.54607E-07 2.03611E-18-3.60023E-18
 -1      2318 1.09020E-04-3.53036E-05-3.16446E-05-4.06083E-06 1.41378E-18-3.59588E-18
 -1      2319 1.07910E-04-3.42826E-05-3.15264E-05-5.13990E-06 1.58638E-18-3.29811E-18
 -1      2320 1.08840E-04-3.65377E-05-3.10230E-05-4.66589E-06 1.68102E-18-3.15201E-18
 -1      2321 1.06487E-04-3.32256E-05-3.14277E-05-5.80350E-06 1.10581E-18-3.31035E-18
 -1      2322 1.05378E-04-3.23651E-05-3.12722E-05-6.28384E-06 8.40306E-19-3.49476E-18
 -1      2323 1.05633E-04-3.37800E-05-3.08249E-05-6.67956E-06 1.26049E-18-2.76151E-18
 -1      2324 1.04299E-04-3.16057E-05-3.11661E-05-6.41482E-06 3.74074E-19-3.93130E-18
 -1      2325 1.03279E-04-3.09585E-05-3.09827E-05-6.47180E-06 6.86705E-20-4.24286E-18
 -1      2326 1.03119E-04-3.16389E-05-3.06560E-05-7.39965E-06 2.66250E-19-3.32425E-18
 -1      2327 1.02475E-04-3.04610E-05-3.08629E-05-6.27760E-06-7.82848E-20-4.71383E-18
 -1      2328 1.01576E-04-3.00033E-05-3.06674E-05-6.07686E-06-2.27729E-20-4.62266E-18
 -1      2329 1.01231E-04-3.01708E-05-3.04689E-05-7.27186E-06-3.56155E-19-4.05055E-18
 -1      2330 1.00974E-04-2.96985E-05-3.05386E-05-5.71173E-06 2.00107E-20-4.57515E-18
 -1      2331 1.00201E-04-2.93856E-05-3.03461E-05-5.37968E-06 1.30679E-19-3.96466E-18
 -1      2332 9.98231E-05-2.92489E-05-3.02559E-05-6.65583E-06 4.13727E-20-4.41154E-18
 -1      2333 9.97412E-05-2.92093E-05-3.02164E-05-4.94676E-06 3.92098E-19-3.71889E-18
 -1      2334 9.90912E-05-2.89994E-05-3.00377E-05-4.56840E-06 2.88090E-19-2.88691E-18
 -1      2335 9.87609E-05-2.87127E-05-3.00277E-05-5.80592E-06 4.85633E-19-3.60542E-18
 -1      2336 9.87336E-05-2.89036E-05-2.99143E-05-4.13116E-06-3.73009E-19-3.41969E-18
 -1      2337 9.81969E-05-2.87645E-05-2.97559E-05-3.75802E-06-1.03453E-19-3.41909E-18
 -1      2338 9.79448E-05-2.84270E-05-2.97989E-05-4.88743E-06-9.58400E-20-3.13378E-18
 -1      2339 9.79152E-05-2.87170E-05-2.96438E-05-3.35206E-06 2.28177E-19-3.30959E-18
 -1      2340 9.74797E-05-2.86258E-05-2.95084E-05-3.01195E-06 2.69119E-19-3.31069E-18
 -1      2341 9.73082E-05-2.82942E-05-2.95821E-05-3.99942E-06 6.28864E-20-2.40939E-18
 -1      2342 9.72569E-05-2.86062E-05-2.94103E-05-2.65453E-06 1.45381E-19-3.17681E-18
 -1      2343 9.69097E-05-2.85474E-05-2.92978E-05-2.35981E-06-2.84840E-19-2.94008E-18
 -1      2344 9.68074E-05-2.82500E-05-2.93859E-05-3.19530E-06 1.76101E-20-2.20683E-18
 -1      2345 9.67338E-05-2.85432E-05-2.92146E-05-2.05673E-06-2.83839E-19-2.49355E-18
 -1      2346 9.64618E-05-2.85063E-05-2.91235E-05-1.81039E-06-1.70854E-21-1.28715E-18
 -1      2347 9.64131E-05-2.82542E-05-2.92146E-05-2.49868E-06 1.97897E-19-1.50875E-18
 -1      2348 9.63240E-05-2.85102E-05-2.90547E-05-1.56071E-06-3.62722E-19-1.38701E-18
 -1      2349 9.61147E-05-2.84880E-05-2.89826E-05-1.36048E-06-5.05073E-19-8.12065E-19
 -1      2350 9.61040E-05-2.82825E-05-2.90696E-05-1.91469E-06-2.88200E-19-1.10564E-18
 -1      2351 9.60080E-05-2.84958E-05-2.89270E-05-1.15963E-06-1.04552E-18-1.42725E-18
 -1      2352 9.58499E-05-2.84835E-05-2.88710E-05-1.00063E-06-1.40694E-18-1.73745E-18
 -1      2353 9.58641E-05-2.83209E-05-2.89499E-05-1.43778E-06-1.25553E-18-3.87658E-19
 -1      2354 9.57684E-05-2.84927E-05-2.88270E-05-8.42388E-07-1.55488E-19-1.55000E-18
 -1      2355 9.56513E-05-2.84869E-05-2.87845E-05-7.18703E-07 2.88962E-19-1.09459E-18
 -1      2356 9.56802E-05-2.83614E-05-2.88533E-05-1.05690E-06-5.98878E-19-3.88596E-20
 -1      2357 9.55902E-05-2.84962E-05-2.87503E-05-5.96427E-07 5.09742E-19-5.48808E-19
 -1      2358 9.55054E-05-2.84946E-05-2.87186E-05-5.02073E-07 1.07881E-18-6.32002E-19
 -1      2359 9.55413E-05-2.83998E-05-2.87769E-05-7.58738E-07 1.08628E-18 1.03000E-18
 -1      2360 9.54604E-05-2.85032E-05-2.86927E-05-4.09353E-07 8.17825E-19-5.28691E-20
 -1      2361 9.54005E-05-2.85043E-05-2.86696E-05-3.38756E-07 1.37498E-18 3.05911E-19
 -1      2362 9.54384E-05-2.84342E-05-2.87177E-05-5.29727E-07 1.28927E-18 2.15797E-18
 -1      2363 9.53681E-05-2.85119E-05-2.86502E-05-2.69788E-07 1.22305E-18 2.87366E-19
 -1      2364 9.53273E-05-2.85144E-05-2.86339E-05-2.18022E-07 9.94555E-19 8.99573E-19
 -1      2365 9.53638E-05-2.84638E-05-2.86727E-05-3.57110E-07 1.32594E-18 2.59506E-18
 -1      2366 9.53046E-05-2.85210E-05-2.86198E-05-1.67758E-07 5.91139E-19-1.08081E-19
 -1      2367 9.52778E-05-2.85243E-05-2.86085E-05-1.30626E-07-4.16651E-21-2.89389E-19
 -1      2368 9.53109E-05-2.84885E-05-2.86392E-05-2.29508E-07 3.66494E-19 1.70729E-18
 -1      2369 9.52625E-05-2.85298E-05-2.85985E-05-9.48160E-08 8.67000E-19-5.21794E-19
 -1      2370 9.52461E-05-2.85333E-05-2.85910E-05-6.88460E-08 9.53042E-19 1.89711E-19
 -1      2371 9.52747E-05-2.85087E-05-2.86148E-05-1.37142E-07 5.68238E-19 2.40636E-19
 -1      2372 9.52362E-05-2.85378E-05-2.85841E-05-4.40034E-08 6.69948E-20 7.47547E-19
 -1      2373 9.52272E-05-2.85414E-05-2.85795E-05-2.63937E-08-2.76441E-19 2.04753E-18
 -1      2374 9.52510E-05-2.85249E-05-2.85975E-05-7.18529E-08 4.75173E-19 3.50626E-19
 -1      2375 9.52213E-05-2.85450E-05-2.85749E-05-9.72879E-09-3.29390E-19 2.64623E-18
 -1      2376 9.52174E-05-2.85484E-05-2.85723E-05 1.72453E-09 4.28410E-19 3.04830E-18
 -1      2377 9.52363E-05-2.85378E-05-2.85855E-05-2.70044E-08 5.54241E-19 2.81363E-18
 -1      2378 9.52143E-05-2.85514E-05-2.85694E-05 1.23869E-08-1.07384E-19 2.78020E-18
 -1      2379 9.52138E-05-2.85545E-05-2.85682E-05 1.93677E-08 4.40605E-19 2.44981E-18
 -1      2380 9.52282E-05-2.85478E-05-2.85776E-05 2.66430E-09-3.77125E-19 4.05567E-18
 -1      2381 9.52127E-05-2.85569E-05-2.85665E-05 2.56713E-08 1.13128E-18 1.75040E-18
 -1      2382 9.52143E-05-2.85597E-05-2.85662E-05 2.94167E-08 1.35039E-18 1.22312E-18
 -1      2383 9.52246E-05-2.85558E-05-2.85726E-05 2.12111E-08-8.48322E-21 3.56134E-18
 -1      2384 9.52145E-05-2.85618E-05-2.85653E-05 3.25533E-08 7.78175E-19 1.20765E-18
 -1      2385 9.52175E-05-2.85645E-05-2.85656E-05 3.39193E-08 1.13902E-18 1.28317E-18
 -1      2386 9.52242E-05-2.85621E-05-2.85696E-05 3.16582E-08 8.57888E-19 1.41679E-18
 -1      2387 9.52186E-05-2.85664E-05-2.85652E-05 3.46949E-08 1.82527E-18 1.55060E-18
 -1      2388 9.52221E-05-2.85689E-05-2.85657E-05 3.42097E-08 9.03945E-19 1.85633E-18
 -1      2389 9.52258E-05-2.85675E-05-2.85680E-05 3.61530E-08 1.28392E-18 2.36514E-18
 -1      2390 9.52237E-05-2.85709E-05-2.85655E-05 3.31349E-08-2.31253E-19 2.48197E-18
 -1      2391 9.52274E-05-2.85733E-05-2.85661E-05 3.10413E-08-3.61603E-19 2.38505E-18
 -1      2392 9.52287E-05-2.85724E-05-2.85671E-05 3.61111E-08 1.05337E-18 2.55712E-18
 -1      2393 5.70991E-05-3.74670E-05-8.29313E-06 4.13053E-05-2.49028E-18 1.31523E-18
 -1      2394 4.24594E-05-3.05435E-05-4.82166E-06 3.44433E-05-2.87716E-18 2.72723E-18
 -1      2395 1.02789E-04-3.05024E-05-3.09779E-05-5.49475E-06 1.27318E-18 5.83932E-19
 -1      2396 1.01906E-04-2.99559E-05-3.08068E-05-5.14857E-06 1.47368E-18 9.76207E-19
 -1      2397 1.04613E-04-3.17127E-05-3.12584E-05-5.69507E-06 9.03047E-19 2.98480E-19
 -1      2398 1.03568E-04-3.10495E-05-3.10594E-05-5.76066E-06 1.07942E-18 4.93033E-19
 -1      2399 1.02265E-04-3.04185E-05-3.08148E-05-6.49675E-06 1.40484E-18-5.15611E-19
 -1      2400 1.06709E-04-3.31928E-05-3.15433E-05-4.87875E-06 6.15752E-19 5.81455E-19
 -1      2401 1.05651E-04-3.24314E-05-3.13638E-05-5.45206E-06 7.17568E-19 4.26739E-19
 -1      2402 1.04152E-04-3.19899E-05-3.09499E-05-6.60912E-06 8.45666E-19-3.09839E-19
 -1      2403 1.08840E-04-3.48293E-05-3.17753E-05-2.82006E-06 4.76449E-19 1.01113E-18
 -1      2404 1.07962E-04-3.40726E-05-3.16533E-05-3.99364E-06 3.99879E-19 7.71300E-19
 -1      2405 1.06531E-04-3.39589E-05-3.11243E-05-5.51934E-06 3.34611E-19-2.68299E-19
 -1      2406 1.10616E-04-3.62525E-05-3.19382E-05 5.60069E-07 3.38036E-19 1.49915E-18
 -1      2407 1.10171E-04-3.57360E-05-3.18934E-05-1.19057E-06 4.86501E-19 1.41277E-18
 -1      2408 1.09227E-04-3.61420E-05-3.13367E-05-2.96956E-06 2.85621E-19 6.62328E-19
 -1      2409 1.11461E-04-3.67560E-05-3.20712E-05 4.88788E-06 5.82927E-19 1.35404E-18
 -1      2410 1.11726E-04-3.68617E-05-3.20931E-05 2.85289E-06 4.54182E-19 1.64023E-18
 -1      2411 1.11793E-04-3.79612E-05-3.16407E-05 1.09873E-06 4.58061E-19 1.13761E-18
 -1      2412 1.10717E-04-3.54517E-05-3.22643E-05 8.95919E-06 6.33007E-19 1.47220E-18
 -1      2413 1.11856E-04-3.65523E-05-3.23106E-05 7.33614E-06 6.43874E-19 1.65528E-18
 -1      2414 1.13388E-04-3.83324E-05-3.21364E-05 6.15550E-06 6.04973E-19 1.17132E-18
 -1      2415 1.08176E-04-3.20083E-05-3.25901E-05 1.07072E-05 1.05298E-18 1.48081E-18
 -1      2416 1.09974E-04-3.40431E-05-3.26120E-05 1.04681E-05 7.99875E-19 1.58171E-18
 -1      2417 1.12996E-04-3.60931E-05-3.29077E-05 1.05775E-05 6.42943E-19 1.48208E-18
 -1      2418 1.04810E-04-2.76331E-05-3.29997E-05 8.22199E-06 1.42789E-18 6.91516E-19
 -1      2419 1.06523E-04-2.97442E-05-3.29847E-05 9.99819E-06 1.38855E-18 1.18062E-18
 -1      2420 1.10360E-04-3.12407E-05-3.38920E-05 1.17502E-05 1.34626E-18 1.56065E-18
 -1      2421 1.02745E-04-2.49792E-05-3.32971E-05 1.59456E-06 1.32006E-18-2.76305E-19
 -1      2422 1.03395E-04-2.58306E-05-3.32745E-05 4.92764E-06 1.57621E-18 2.28408E-19
 -1      2423 1.06951E-04-2.59392E-05-3.47787E-05 7.64503E-06 1.88440E-18-2.59100E-19
 -1      2424 1.03679E-04-2.60170E-05-3.33248E-05-6.09695E-06 1.78690E-18-1.99263E-18
 -1      2425 1.02849E-04-2.50304E-05-3.33057E-05-2.80456E-06 1.41623E-18-1.11141E-18
 -1      2426 1.05468E-04-2.36767E-05-3.51393E-05-7.26079E-07 2.19174E-18-1.62058E-18
 -1      2427 1.07158E-04-3.01167E-05-3.31006E-05-1.09612E-05 2.13604E-18-2.81314E-18
 -1      2428 1.05274E-04-2.79264E-05-3.30720E-05-9.30414E-06 2.20185E-18-2.53964E-18
 -1      2429 1.07278E-04-2.61625E-05-3.48032E-05-8.93346E-06 2.31667E-18-3.31573E-18
 -1      2430 1.10788E-04-3.44043E-05-3.27992E-05-1.11954E-05 1.17104E-18-2.70704E-18
 -1      2431 1.08873E-04-3.23925E-05-3.27335E-05-1.15174E-05 1.93497E-18-2.64669E-18
 -1      2432 1.10922E-04-3.16594E-05-3.39557E-05-1.27682E-05 2.05777E-18-3.54983E-18
 -1      2433 1.12772E-04-3.68239E-05-3.25729E-05-7.98889E-06 1.78684E-19-3.08482E-18
 -1      2434 1.11525E-04-3.57607E-05-3.24836E-05-9.59774E-06 8.41454E-19-2.51376E-18
 -1      2435 1.13582E-04-3.64069E-05-3.30249E-05-1.13371E-05 8.48028E-19-3.06009E-18
 -1      2436 1.12771E-04-3.71038E-05-3.24278E-05-3.55018E-06-6.20981E-19-3.48407E-18
 -1      2437 1.12387E-04-3.69957E-05-3.23668E-05-5.51202E-06-3.00753E-19-3.34116E-18
 -1      2438 1.13993E-04-3.85105E-05-3.23187E-05-6.87944E-06 1.53897E-19-2.70236E-18
 -1      2439 1.11376E-04-3.60171E-05-3.22856E-05 4.17803E-07-3.43399E-19-3.73395E-18
 -1      2440 1.11696E-04-3.64925E-05-3.22975E-05-1.25269E-06-1.22350E-19-3.58239E-18
 -1      2441 1.12471E-04-3.80836E-05-3.18794E-05-1.88463E-06-1.97733E-19-3.38561E-18
 -1      2442 1.09324E-04-3.44408E-05-3.20814E-05 3.18174E-06-2.24841E-19-3.20844E-18
 -1      2443 1.10083E-04-3.51295E-05-3.21793E-05 2.05398E-06-6.12689E-19-3.75754E-18
 -1      2444 1.10007E-04-3.62962E-05-3.16062E-05 2.11733E-06-5.23485E-19-3.67136E-18
 -1      2445 1.07125E-04-3.29207E-05-3.17928E-05 4.70286E-06 8.30787E-20-2.10335E-18
 -1      2446 1.08094E-04-3.35990E-05-3.19635E-05 4.10706E-06-1.26989E-20-2.83825E-18
 -1      2447 1.07398E-04-3.42050E-05-3.13877E-05 4.67155E-06-3.61003E-19-3.31530E-18
 -1      2448 1.05039E-04-3.16763E-05-3.14351E-05 5.25033E-06-3.88446E-19-1.55789E-18
 -1      2449 1.06063E-04-3.22515E-05-3.16517E-05 5.06235E-06 1.41347E-19-1.55841E-18
 -1      2450 1.05045E-04-3.23846E-05-3.11562E-05 5.92428E-06-1.82979E-19-2.11366E-18
 -1      2451 1.03175E-04-3.07382E-05-3.10399E-05 5.15142E-06-1.34215E-19-1.35916E-18
 -1      2452 1.04157E-04-3.11918E-05-3.12751E-05 5.22910E-06-6.52523E-20-1.17819E-18
 -1      2453 1.03060E-04-3.10109E-05-3.08904E-05 6.22515E-06-2.64427E-19-2.03312E-18
 -1      2454 1.01562E-04-3.00605E-05-3.06402E-05 4.68337E-06-2.94650E-19-1.26426E-18
 -1      2455 1.02451E-04-3.04052E-05-3.08718E-05 4.90852E-06 8.36569E-20-1.29119E-18
 -1      2456 1.01430E-04-3.00580E-05-3.05974E-05 5.92293E-06 1.21963E-19-1.77417E-18
 -1      2457 1.00198E-04-2.95808E-05-3.02617E-05 4.04529E-06-8.02931E-19-9.36008E-19
 -1      2458 1.00969E-04-2.98377E-05-3.04752E-05 4.33426E-06-6.34783E-19-1.35684E-18
 -1      2459 1.00103E-04-2.94315E-05-3.02951E-05 5.29266E-06-5.42260E-19-9.10575E-19
 -1      2460 9.90653E-05-2.92443E-05-2.99207E-05 3.36525E-06-1.60990E-18-1.82054E-18
 -1      2461 9.97141E-05-2.94336E-05-3.01082E-05 3.66519E-06-1.31052E-18-1.46801E-18
 -1      2462 9.90249E-05-2.90345E-05-3.00020E-05 4.52538E-06-8.51055E-19-1.83951E-18
 -1      2463 9.81409E-05-2.90094E-05-2.96254E-05 2.71760E-06-1.07571E-18-4.44226E-19
 -1      2464 9.86723E-05-2.91476E-05-2.97841E-05 2.99862E-06-1.56172E-18-8.78163E-19
 -1      2465 9.81520E-05-2.87903E-05-2.97318E-05 3.74162E-06-1.80997E-18-2.57095E-18
 -1      2466 9.73990E-05-2.88462E-05-2.93776E-05 2.14013E-06 4.39324E-19 3.37204E-19
 -1      2467 9.78246E-05-2.89460E-05-2.95080E-05 2.38770E-06-1.14981E-19 2.21886E-19
 -1      2468 9.74498E-05-2.86446E-05-2.94928E-05 3.01018E-06-1.22833E-18-1.75884E-18
 -1      2469 9.68138E-05-2.87338E-05-2.91752E-05 1.64755E-06 1.10692E-18 1.42274E-19
 -1      2470 9.71474E-05-2.88049E-05-2.92796E-05 1.85667E-06 1.24725E-18 8.48710E-19
 -1      2471 9.68902E-05-2.85612E-05-2.92882E-05 2.36497E-06 2.50309E-19-1.05701E-18
 -1      2472 9.63601E-05-2.86576E-05-2.90136E-05 1.24097E-06 6.22329E-19-1.02990E-18
 -1      2473 9.66164E-05-2.87073E-05-2.90954E-05 1.41212E-06 7.32387E-19-3.68057E-19
 -1      2474 9.64496E-05-2.85166E-05-2.91179E-05 1.81791E-06 1.03219E-18-8.18403E-19
 -1      2475 9.60147E-05-2.86071E-05-2.88875E-05 9.14076E-07-5.76133E-19-5.51610E-19
 -1      2476 9.62076E-05-2.86410E-05-2.89502E-05 1.05063E-06 9.42721E-20-5.34016E-19
 -1      2477 9.61076E-05-2.84960E-05-2.89796E-05 1.36791E-06 2.86399E-20-3.97847E-19
 -1      2478 9.57566E-05-2.85749E-05-2.87909E-05 6.57120E-07 1.56514E-19 3.61441E-19
 -1      2479 9.58988E-05-2.85972E-05-2.88380E-05 7.63681E-07-3.69117E-19-9.54114E-20
 -1      2480 9.58462E-05-2.84898E-05-2.88698E-05 1.00683E-06-4.74822E-19 7.83681E-19
 -1      2481 9.55679E-05-2.85555E-05-2.87186E-05 4.59250E-07-5.12089E-19 1.19136E-18
 -1      2482 9.56702E-05-2.85695E-05-2.87531E-05 5.40719E-07 9.46733E-20 6.43658E-19
 -1      2483 9.56499E-05-2.84919E-05-2.87842E-05 7.23320E-07-5.03031E-19 1.37751E-18
 -1      2484 9.54333E-05-2.85450E-05-2.86656E-05 3.09880E-07-1.08285E-18 2.05093E-18
 -1      2485 9.55049E-05-2.85531E-05-2.86903E-05 3.70928E-07-7.43335E-19 1.26451E-18
 -1      2486 9.55054E-05-2.84987E-05-2.87190E-05 5.05146E-07-7.34694E-19 1.57366E-18
 -1      2487 9.53400E-05-2.85404E-05-2.86277E-05 1.99381E-07-5.02936E-21 1.73255E-18
 -1      2488 9.53883E-05-2.85444E-05-2.86449E-05 2.44190E-07-2.21432E-19 1.71621E-18
 -1      2489 9.54014E-05-2.85075E-05-2.86702E-05 3.40512E-07-5.58327E-19 6.03076E-19
 -1      2490 9.52778E-05-2.85398E-05-2.86015E-05 1.19380E-07 5.94798E-19 6.93681E-19
 -1      2491 9.53089E-05-2.85411E-05-2.86130E-05 1.51542E-07-1.08625E-19 1.27983E-18
 -1      2492 9.53285E-05-2.85171E-05-2.86346E-05 2.18745E-07 2.63087E-19 9.87288E-19
 -1      2493 9.52385E-05-2.85417E-05-2.85840E-05 6.28403E-08-4.18116E-20 7.39405E-19
 -1      2494 9.52571E-05-2.85412E-05-2.85912E-05 8.53447E-08 9.25473E-19 4.86293E-19
 -1      2495 9.52792E-05-2.85264E-05-2.86092E-05 1.30596E-07 7.48599E-19 1.91650E-19
 -1      2496 9.52156E-05-2.85449E-05-2.85729E-05 2.40075E-08-1.48284E-18 1.76316E-18
 -1      2497 9.52255E-05-2.85433E-05-2.85771E-05 3.92768E-08-1.15597E-18 4.78775E-19
 -1      2498 9.52475E-05-2.85350E-05-2.85917E-05 6.83047E-08-7.05778E-19 1.30020E-18
 -1      2499 9.52045E-05-2.85488E-05-2.85665E-05-1.70296E-09-1.59819E-18 2.52484E-18
 -1      2500 9.52082E-05-2.85467E-05-2.85686E-05 8.24327E-09-1.24704E-18 2.10642E-18
 -1      2501 9.52284E-05-2.85427E-05-2.85801E-05 2.55368E-08-1.53173E-18 7.34115E-20
 -1      2502 9.52012E-05-2.85531E-05-2.85633E-05-1.78445E-08-9.74090E-19 7.86997E-19
 -1      2503 9.52009E-05-2.85507E-05-2.85640E-05-1.17561E-08-1.13344E-18 1.86466E-18
 -1      2504 9.52184E-05-2.85494E-05-2.85728E-05-2.74618E-09-6.47250E-19 1.15314E-18
 -1      2505 9.52030E-05-2.85574E-05-2.85623E-05-2.70770E-08 1.13834E-18 6.02639E-19
 -1      2506 9.52002E-05-2.85548E-05-2.85621E-05-2.37671E-08-2.68575E-19 1.13480E-18
 -1      2507 9.52146E-05-2.85552E-05-2.85686E-05-2.04381E-08 6.75765E-20 5.24304E-19
 -1      2508 9.52080E-05-2.85616E-05-2.85627E-05-3.12956E-08 1.68432E-18 2.59996E-18
 -1      2509 9.52038E-05-2.85591E-05-2.85619E-05-3.00169E-08 1.68187E-18 1.29736E-18
 -1      2510 9.52149E-05-2.85603E-05-2.85664E-05-3.04435E-08 7.76104E-19 6.17024E-19
 -1      2511 9.52146E-05-2.85658E-05-2.85638E-05-3.17370E-08 1.28339E-20 3.95603E-18
 -1      2512 9.52098E-05-2.85633E-05-2.85628E-05-3.20353E-08 1.24288E-18 3.75576E-18
 -1      2513 9.52179E-05-2.85649E-05-2.85657E-05-3.48294E-08 8.40558E-19 3.18645E-18
 -1      2514 9.52219E-05-2.85700E-05-2.85651E-05-2.90824E-08 6.12162E-19 2.27655E-18
 -1      2515 9.52170E-05-2.85675E-05-2.85641E-05-3.07661E-08 2.56923E-19 3.43432E-18
 -1      2516 9.52224E-05-2.85692E-05-2.85657E-05-3.49667E-08 4.06525E-19 2.19647E-18
 -1      2517 9.52289E-05-2.85742E-05-2.85664E-05-2.36467E-08-4.70074E-19 3.15474E-18
 -1      2518 9.52245E-05-2.85718E-05-2.85655E-05-2.65846E-08-2.67285E-19 3.21390E-18
 -1      2519 9.52277E-05-2.85738E-05-2.85660E-05-3.16702E-08-1.37523E-20 2.07114E-18
 -1      2520 9.52317E-05-2.85761E-05-2.85667E-05-1.95206E-08-1.39515E-19 3.82287E-18
 -1      2521 9.52516E-05-2.86005E-05-2.85647E-05-2.12078E-08 6.08153E-19-2.42951E-18
 -1      2522 9.52498E-05-2.85977E-05-2.85652E-05-2.38313E-08 3.98911E-19-5.83695E-18
 -1      2523 9.52540E-05-2.86039E-05-2.85643E-05-1.42941E-08-3.02160E-19-1.26814E-18
 -1      2524 9.52528E-05-2.86019E-05-2.85646E-05-1.77119E-08 2.82096E-19-1.81171E-18
 -1      2525 9.52526E-05-2.85960E-05-2.85671E-05-2.13663E-08 1.05596E-18-2.60671E-18
 -1      2526 9.52430E-05-2.85895E-05-2.85657E-05-2.86122E-08-1.16267E-18-3.24197E-18
 -1      2527 9.52398E-05-2.85855E-05-2.85662E-05-2.84228E-08-6.67429E-19-9.87577E-19
 -1      2528 9.52480E-05-2.85956E-05-2.85652E-05-2.62802E-08-7.71298E-19-5.81872E-18
 -1      2529 9.52455E-05-2.85921E-05-2.85657E-05-2.76657E-08-7.78022E-19-4.86758E-18
 -1      2530 9.52436E-05-2.85875E-05-2.85669E-05-3.11687E-08-1.70386E-18-4.20555E-18
 -1      2531 9.52489E-05-2.85924E-05-2.85671E-05-2.75948E-08 1.08075E-20-4.63493E-18
 -1      2532 9.52552E-05-2.86057E-05-2.85640E-05-6.32801E-09-2.08867E-18-9.72929E-19
 -1      2533 9.52546E-05-2.86047E-05-2.85642E-05-1.01791E-08-1.62216E-18-1.04413E-18
 -1      2534 9.52548E-05-2.85983E-05-2.85671E-05-1.34063E-08-4.06591E-19-2.35019E-18
 -1      2535 9.52554E-05-2.86060E-05-2.85640E-05 2.05532E-09-3.13130E-18 1.00074E-18
 -1      2536 9.52554E-05-2.86060E-05-2.85640E-05-1.93064E-09-2.67597E-18 1.39480E-19
 -1      2537 9.52559E-05-2.85994E-05-2.85671E-05-4.51972E-09-1.99275E-18-1.12813E-18
 -1      2538 9.52546E-05-2.86047E-05-2.85642E-05 1.02975E-08-3.04859E-18-1.42092E-18
 -1      2539 9.52552E-05-2.86057E-05-2.85640E-05 6.45085E-09-3.08725E-18-2.35572E-19
 -1      2540 9.52559E-05-2.85994E-05-2.85671E-05 4.65436E-09-2.55432E-18 1.89690E-19
 -1      2541 9.52528E-05-2.86019E-05-2.85646E-05 1.76997E-08-1.52834E-18-1.81796E-18
 -1      2542 9.52540E-05-2.86039E-05-2.85643E-05 1.43427E-08-2.40383E-18-1.12570E-18
 -1      2543 9.52548E-05-2.85983E-05-2.85671E-05 1.34621E-08-1.89800E-18-1.31756E-19
 -1      2544 9.52498E-05-2.85977E-05-2.85652E-05 2.38315E-08-8.04354E-19 3.12436E-18
 -1      2545 9.52516E-05-2.86005E-05-2.85647E-05 2.12044E-08-7.97753E-19-2.27844E-18
 -1      2546 9.52526E-05-2.85960E-05-2.85671E-05 2.13575E-08-7.33328E-19-1.79330E-18
 -1      2547 9.52455E-05-2.85921E-05-2.85657E-05 2.76892E-08-1.16434E-20 5.85755E-18
 -1      2548 9.52480E-05-2.85956E-05-2.85652E-05 2.62974E-08-1.43073E-18 7.39377E-18
 -1      2549 9.52489E-05-2.85924E-05-2.85671E-05 2.76502E-08-4.59007E-19 4.18124E-18
 -1      2550 9.52398E-05-2.85854E-05-2.85662E-05 2.82731E-08-3.19873E-19 1.76038E-18
 -1      2551 9.52429E-05-2.85894E-05-2.85657E-05 2.86392E-08-2.32538E-19 2.47635E-18
 -1      2552 9.52437E-05-2.85875E-05-2.85670E-05 3.11633E-08-1.78012E-19 4.57091E-18
 -1      2553 9.52350E-05-2.85804E-05-2.85663E-05 2.31832E-08 1.66163E-18 2.46600E-18
 -1      2554 1.92658E-05-1.88526E-05 2.06499E-07-7.24317E-06-1.29871E-18 7.13244E-18
 -1      2555 2.44554E-05-2.06756E-05-1.41581E-06-2.05079E-05-9.84570E-19 6.17254E-18
 -1      2556 1.01400E-04-2.95303E-05-3.07850E-05-4.45196E-06 1.61996E-18 1.18091E-18
 -1      2557 1.00809E-04-2.90740E-05-3.06977E-05-3.72628E-06 1.86807E-18 1.56393E-18
 -1      2558 1.00914E-04-2.91827E-05-3.07657E-05-5.39973E-06 1.85111E-18-1.04465E-19
 -1      2559 9.57853E-05-5.22109E-05-1.87928E-05 4.10374E-05-9.46136E-19 1.77174E-18
 -1      2560 7.59166E-05-4.62206E-05-1.26180E-05 4.13225E-05-2.03394E-18 1.42836E-18
 -1      2561 3.90009E-05-2.85929E-05-4.17314E-06-3.22368E-05 7.47083E-19 5.53070E-18
 -1      2562 5.51357E-05-3.66221E-05-7.83771E-06-4.05975E-05 1.13524E-18 4.96806E-18
 -1      2563 9.80316E-05-2.06664E-05-3.31937E-05-7.82365E-06-4.02795E-18-3.28573E-18
 -1      2564 9.90271E-05-2.41055E-05-3.21288E-05-3.85735E-06-3.72779E-18-2.82331E-18
 -1      2565 9.78366E-05-2.28197E-05-3.21366E-05-2.98690E-06-3.42055E-18-3.53077E-18
 -1      2566 9.53955E-05-1.78226E-05-3.32518E-05-7.21875E-06-3.76684E-18-4.37315E-18
 -1      2567 1.29527E-04-5.68290E-05-3.13928E-05 2.56231E-05 4.53374E-19-9.18607E-19
 -1      2568 1.14503E-04-5.66806E-05-2.47549E-05 3.15340E-05-4.99114E-19 2.65968E-19
 -1      2569 3.53351E-05-2.57631E-05-3.94535E-06 3.09515E-05 7.09390E-20-8.59146E-18
 -1      2570 2.45562E-05-2.24981E-05-6.53774E-07 1.89665E-05-8.17387E-20-9.45289E-18
 -1      2571 8.23760E-05-6.86481E-06-3.23933E-05-5.38090E-07 9.43569E-19-6.60457E-18
 -1      2572 8.28105E-05-7.14480E-06-3.24503E-05-1.06673E-06 4.45960E-19-6.69017E-18
 -1      2573 8.39610E-05-8.91233E-06-3.21557E-05-8.69876E-07 2.10220E-19-6.28270E-18
 -1      2574 8.29893E-05-8.15897E-06-3.20617E-05-2.77385E-07 9.91311E-19-6.26427E-18
 -1      2575 1.27229E-04-5.79606E-05-2.96094E-05-2.46986E-05-1.80630E-19-1.91768E-18
 -1      2576 1.38487E-04-5.58334E-05-3.57750E-05-1.79113E-05 1.53567E-18-6.51792E-19
 -1      2577 1.45222E-04-1.33135E-05-5.70753E-05-4.69644E-06 7.85454E-18-1.55166E-18
 -1      2578 1.47368E-04-1.85409E-05-5.54910E-05-6.21279E-06 7.77301E-18-2.44200E-18
 -1      2579 1.48881E-04-2.93271E-05-5.14680E-05 4.55278E-06 5.96078E-18 2.58345E-19
 -1      2580 1.47550E-04-2.22032E-05-5.43438E-05 5.68827E-06 7.24848E-18 8.39621E-19
 -1      2581 1.44395E-04-4.77586E-05-4.15299E-05-6.62579E-06 3.22158E-18 1.08420E-19
 -1      2582 1.50090E-04-3.96001E-05-4.77134E-05-8.19975E-07 4.89977E-18 3.98105E-19
 -1      2583 9.26277E-05-5.22438E-05-1.71989E-05-4.02549E-05-2.05278E-18-6.02254E-18
 -1      2584 1.11124E-04-5.65674E-05-2.35688E-05-3.65606E-05-1.25403E-18-4.27063E-18
 -1      2585 6.03041E-05-3.81822E-05-9.04457E-06-4.05685E-05-2.97520E-18-7.92939E-18
 -1      2586 7.66475E-05-4.56418E-05-1.32093E-05-4.39660E-05-2.07396E-18-7.42318E-18
 -1      2587 9.18349E-05-5.01024E-05-1.74898E-05-3.97686E-05-3.82922E-18-5.62710E-18
 -1      2588 2.54584E-05-2.18673E-05-1.23218E-06-1.95749E-05-1.69417E-18-9.84676E-18
 -1      2589 3.85127E-05-2.72659E-05-4.74540E-06-3.33634E-05-1.74743E-18-8.86589E-18
 -1      2590 1.90796E-05-1.93103E-05 2.94802E-07 8.19637E-06-8.47086E-19-1.03084E-17
 -1      2591 1.86571E-05-1.81407E-05 1.61215E-09-5.95535E-06-3.35319E-19-1.05600E-17
 -1      2592 2.87072E-05-1.70015E-05-4.44446E-06 1.32746E-05 7.83135E-19-9.71208E-18
 -1      2593 7.11699E-05-4.22782E-05-1.21492E-05 4.36524E-05-5.29396E-21-6.56345E-18
 -1      2594 5.52520E-05-3.52954E-05-8.07148E-06 3.87150E-05 9.87640E-19-7.74760E-18
 -1      2595 1.47385E-04-1.15368E-05-5.86068E-05 8.04054E-07-8.47456E-18-2.98081E-18
 -1      2596 1.46440E-04-1.24780E-05-5.78341E-05-2.39601E-06-8.88411E-18-2.53284E-18
 -1      2597 1.51174E-04-3.69768E-05-4.93007E-05-5.30289E-07-7.64574E-18-1.45097E-18
 -1      2598 1.46692E-04-4.34542E-05-4.44260E-05 2.20725E-06-6.50092E-18-1.44821E-18
 -1      2599 1.48008E-04-1.88096E-05-5.59196E-05-5.52708E-06-9.24706E-18-1.30157E-18
 -1      2600 1.49507E-04-2.66988E-05-5.28860E-05-4.22546E-06-8.90443E-18-1.43614E-18
 -1      2601 1.42936E-04-3.10295E-05-4.81015E-05-9.38311E-06-7.11868E-18 2.56227E-20
 -1      2602 1.46174E-04-1.99112E-05-5.44346E-05 6.82947E-06-5.64209E-18-4.36222E-18
 -1      2603 1.47523E-04-1.43898E-05-5.74845E-05 4.69602E-06-7.11169E-18-3.56728E-18
 -1      2604 1.47432E-04-3.98782E-05-4.62514E-05 1.93309E-06-2.79870E-18-4.60913E-18
 -1      2605 1.48704E-04-3.17928E-05-5.06939E-05 5.59828E-06-3.94760E-18-4.90453E-18
 -1      2606 1.36896E-04-5.42858E-05-3.54558E-05-1.63062E-05-1.07806E-18-3.37691E-18
 -1      2607 1.45642E-04-4.96079E-05-4.16198E-05-8.27353E-06-1.85422E-18-4.54772E-18
 -1      2608 1.10228E-04-5.60332E-05-2.31982E-05-3.37041E-05 7.13413E-19-6.59098E-19
 -1      2609 1.26048E-04-5.69897E-05-2.98381E-05-2.82303E-05-2.33569E-19-2.44771E-18
 -1      2610 7.27889E-05-4.53384E-05-1.16931E-05-4.12285E-05 1.69152E-18 3.78915E-18
 -1      2611 9.15753E-05-5.10156E-05-1.74752E-05-4.17977E-05 1.34784E-18 2.00138E-18
 -1      2612 1.00687E-04-2.62744E-05-3.19010E-05 4.16808E-06 4.19496E-18 3.55299E-18
 -1      2613 1.01287E-04-2.48852E-05-3.27595E-05 7.38565E-06 4.58390E-18 4.21779E-18
 -1      2614 9.93893E-05-2.22753E-05-3.31048E-05 8.28219E-06 4.99217E-18 2.54966E-18
 -1      2615 9.96763E-05-2.50272E-05-3.20287E-05 3.59211E-06 4.35841E-18 1.56193E-18
 -1      2616 1.46235E-04-4.76283E-05-4.27982E-05 5.66846E-06 2.88870E-18-3.03937E-18
 -1      2617 1.38683E-04-5.33049E-05-3.66546E-05 1.42522E-05 1.58279E-18-1.96490E-18
 -1      2618 1.35602E-04-5.78814E-05-3.31493E-05 1.42438E-05-1.46643E-19-2.91845E-18
 -1      2619 1.41439E-04-5.33941E-05-3.77052E-05-6.01467E-06 7.43986E-19 1.45817E-18
 -1      2620 8.86776E-05-1.27582E-05-3.25279E-05-2.72715E-06-1.65967E-18-6.08737E-18
 -1      2621 8.83440E-05-1.15454E-05-3.29781E-05-4.04407E-06-1.87727E-18-6.44432E-18
 -1      2622 8.99758E-05-1.28373E-05-3.31171E-05-5.05295E-06-2.50740E-18-6.17339E-18
 -1      2623 1.00095E-04-2.80823E-05-3.08844E-05-3.38104E-06 2.39983E-18 3.38858E-19
 -1      2624 9.70663E-05-1.97012E-05-3.32027E-05 7.73503E-06 5.02774E-18 5.28694E-19
 -1      2625 1.43393E-04-4.32482E-05-4.30208E-05-4.12436E-06 2.98780E-18-4.03103E-18
 -1      2626 7.13990E-05-4.11399E-05-1.25327E-05-4.00949E-05 2.45004E-18 3.18114E-18
 -1      2627 1.06512E-04-5.58029E-05-2.14732E-05-3.51920E-05 2.19847E-18-9.50159E-19
 -1      2628 1.33639E-04-5.84339E-05-3.20830E-05-1.71284E-05 9.72500E-19-4.62840E-18
 -1      2629 3.71681E-05-2.54801E-05-4.62879E-06 2.94460E-05-3.43038E-18 3.35954E-18
 -1      2630 3.24979E-05-1.90939E-05-5.27726E-06 2.26347E-05-3.77131E-18 4.13881E-18
 -1      2631 4.93955E-05-2.73465E-05-9.07714E-06 3.32721E-05-4.39335E-18 2.34289E-18
 -1      2632 3.91175E-05-2.33626E-05-6.24219E-06-2.69556E-05 2.46063E-19 5.40153E-18
 -1      2633 7.42493E-05-4.26044E-05-1.32142E-05 4.07214E-05-2.97584E-18 1.97412E-18
 -1      2634 9.52331E-05-2.85781E-05-2.85664E-05-2.48658E-08-1.08586E-18 3.94939E-18
 -1      2635 9.52355E-05-2.85811E-05-2.85661E-05-2.68722E-08-1.02770E-18 1.77135E-18
 -1      2636 1.43671E-04-4.64700E-05-4.17405E-05 2.01351E-06-1.64309E-18-4.98860E-18
 -1      2637 9.52315E-05-2.85766E-05-2.85665E-05 2.61938E-08 6.82812E-19 2.73030E-18
 -1      2638 9.52367E-05-2.85822E-05-2.85662E-05 2.83391E-08 4.22309E-19 3.16481E-18
 -1      2639 9.52368E-05-2.85813E-05-2.85666E-05 3.18193E-08-5.94336E-19 3.63165E-18
 -1      2640 9.52285E-05-2.85746E-05-2.85660E-05 2.93474E-08-5.77796E-19 3.00277E-18
 -1      2641 1.38237E-04-1.46623E-05-5.31806E-05-6.58398E-06-8.44746E-18-1.18849E-18
 -1      2642 1.36352E-04-1.12098E-05-5.38614E-05 4.23527E-06-7.18220E-18-2.83650E-18
 -1      2643 2.32475E-05-1.64627E-05-2.43281E-06 6.76408E-07-2.18137E-18 7.17606E-18
 -1      2644 9.71308E-05-2.08730E-05-3.26409E-05 5.44465E-06 4.69132E-18 3.85268E-20
 -1      2645 1.10700E-04-5.68608E-05-2.28055E-05 3.31844E-05-2.07714E-18-3.65230E-19
 -1      2646 5.12814E-05-2.89435E-05-8.99935E-06 3.41335E-05 1.70190E-18-7.67581E-18
 -1      2647 5.56345E-05-3.18378E-05-9.67242E-06-3.62499E-05-3.11030E-18-8.02945E-18
 -1      2648 1.43848E-04-3.53742E-05-4.65889E-05 7.16463E-06 4.28165E-18 2.10339E-18
 -1      2649 9.33869E-05-1.60449E-05-3.31769E-05-6.19106E-06-3.24651E-18-5.27954E-18
 -1      2650 1.24253E-04-5.97553E-05-2.75429E-05 2.81225E-05-1.68051E-18-2.37180E-18
 -1      2651 1.16155E-04-5.84281E-05-2.43078E-05 3.16348E-05 1.43254E-19-1.66895E-18
 -1      2652 1.31683E-04-6.00862E-05-3.10197E-05 1.80158E-05-1.34144E-18-3.38178E-19
 -1      2653 8.76490E-05-4.85251E-05-1.65308E-05 3.98924E-05 1.52974E-18-4.60061E-18
 -1      2654 1.39730E-04-2.25765E-05-5.04355E-05-1.06157E-05 6.53655E-18-2.64423E-18
 -1      2655 1.42342E-04-1.72166E-05-5.38403E-05 6.38093E-06 7.40561E-18 6.30934E-19
 -1      2656 1.32726E-04-1.25516E-05-5.22907E-05 6.80797E-06 7.17522E-18 5.89800E-19
 -1      2657 1.35106E-04-2.02606E-05-4.95223E-05 1.00281E-05 6.14120E-18 1.86220E-18
 -1      2658 1.40412E-04-1.13237E-05-5.56554E-05-2.92964E-06 7.89646E-18-1.16160E-18
 -1      2659 1.31567E-04-1.10785E-05-5.19407E-05-6.27462E-06 7.49561E-18-1.33037E-18
 -1      2660 1.31954E-04-9.64672E-06-5.31342E-05-5.61756E-07 7.75882E-18-3.81846E-19
 -1      2661 1.43921E-04-5.06967E-05-4.00251E-05 3.64775E-06-4.65390E-18-9.19031E-20
 -1      2662 1.22141E-04-5.93445E-05-2.67204E-05-2.74022E-05-2.39086E-18-1.56320E-18
 -1      2663 2.93236E-05-1.70789E-05-4.63752E-06-1.30235E-05-9.53071E-19-9.88255E-18
 -1      2664 1.40424E-04-2.54820E-05-4.94820E-05 1.09146E-05-4.24215E-18-4.53946E-18
 -1      2665 9.52355E-05-2.85804E-05-2.85665E-05-3.09179E-08-1.52299E-18 6.08572E-19
 -1      2666 9.52318E-05-2.85765E-05-2.85666E-05 3.32029E-08-5.61667E-19 3.62650E-18
 -1      2667 8.49386E-05-1.06881E-05-3.18341E-05 4.76713E-07 2.61422E-18-5.08008E-18
 -1      2668 8.41467E-05-1.00864E-05-3.17661E-05 1.70423E-07 2.16400E-18-5.30029E-18
 -1      2669 8.35591E-05-9.58148E-06-3.17198E-05 1.65485E-07 1.88836E-18-5.59364E-18
 -1      2670 8.32652E-05-9.36054E-06-3.16940E-05-6.26138E-08 1.48382E-18-5.79016E-18
 -1      2671 8.43852E-05-1.10949E-05-3.13878E-05-2.00637E-07 1.82342E-18-5.22165E-18
 -1      2672 9.03895E-05-1.53372E-05-3.21884E-05 1.86975E-06 3.95111E-18-3.36668E-18
 -1      2673 8.87728E-05-1.39593E-05-3.20957E-05 1.31629E-06 3.53388E-18-3.93784E-18
 -1      2674 9.41121E-05-1.88625E-05-3.22771E-05 2.76156E-06 4.34204E-18-2.06375E-18
 -1      2675 9.21955E-05-1.70217E-05-3.22445E-05 2.23208E-06 4.08618E-18-2.79658E-18
 -1      2676 9.20934E-05-1.77891E-05-3.18246E-05 6.47349E-07 3.68309E-18-2.83888E-18
 -1      2677 9.87175E-05-2.57555E-05-3.12700E-05-1.19779E-06 3.15860E-18-2.69442E-19
 -1      2678 9.86221E-05-2.48359E-05-3.15881E-05 7.49338E-07 3.65843E-18-3.83688E-21
 -1      2679 1.19116E-04-5.86581E-05-2.62109E-05 2.62271E-05-2.26740E-18-2.06049E-18
 -1      2680 1.03820E-04-5.34505E-05-2.11861E-05 3.34607E-05-3.34271E-18-8.45511E-19
 -1      2681 9.92981E-05-2.72929E-05-3.08563E-05-4.13285E-06 2.30600E-18-5.84618E-19
 -1      2682 9.90041E-05-2.65923E-05-3.09950E-05-2.80466E-06 2.63347E-18-3.36167E-19
 -1      2683 9.76543E-05-2.48124E-05-3.12245E-05-1.98511E-06 3.06762E-18-1.17252E-18
 -1      2684 1.36619E-04-5.62123E-05-3.42850E-05-6.34662E-06-6.14840E-19 1.66050E-18
 -1      2685 1.40046E-04-5.01401E-05-3.91544E-05 1.81380E-06 1.44141E-18 2.18153E-18
 -1      2686 6.76666E-05-3.58920E-05-1.31484E-05-3.75723E-05 2.92226E-18 2.33559E-18
 -1      2687 8.39862E-05-4.53159E-05-1.64898E-05-3.98455E-05 3.00570E-18 1.12391E-18
 -1      2688 9.79693E-05-2.56512E-05-3.09654E-05 3.57610E-06-2.02381E-18-3.23952E-18
 -1      2689 9.82881E-05-2.64363E-05-3.07942E-05 4.96502E-06-1.69327E-18-3.10375E-18
 -1      2690 9.86335E-05-2.71819E-05-3.05943E-05 6.20693E-06-1.38441E-18-2.83843E-18
 -1      2691 9.91751E-05-2.79764E-05-3.05122E-05 7.13969E-06-1.17043E-18-2.78682E-18
 -1      2692 9.70473E-05-2.56717E-05-3.06051E-05 5.77119E-06-1.50666E-18-2.98771E-18
 -1      2693 9.97367E-05-2.88120E-05-3.03668E-05 8.03124E-06-8.14611E-19-2.32101E-18
 -1      2694 1.00589E-04-2.98065E-05-3.03360E-05 8.51064E-06-5.19418E-19-2.11282E-18
 -1      2695 9.79421E-05-2.74964E-05-3.02159E-05 8.03729E-06-8.29281E-19-2.40045E-18
 -1      2696 1.01562E-04-3.09393E-05-3.02291E-05 8.99629E-06-4.10634E-19-1.74027E-18
 -1      2697 1.02795E-04-3.22720E-05-3.02326E-05 8.93776E-06-2.71483E-19-1.58456E-18
 -1      2698 9.94533E-05-2.97457E-05-2.99130E-05 9.57323E-06-2.87590E-19-2.10845E-18
 -1      2699 1.04384E-04-3.38502E-05-3.01755E-05 8.86879E-06-2.35625E-19-1.16187E-18
 -1      2700 1.06024E-04-3.55572E-05-3.02241E-05 8.11355E-06-5.62648E-20-1.07818E-18
 -1      2701 1.01977E-04-3.28236E-05-2.96947E-05 1.02092E-05-9.08100E-20-1.58584E-18
 -1      2702 1.08385E-04-3.75799E-05-3.02725E-05 7.21799E-06 1.42991E-19-5.73527E-19
 -1      2703 1.10313E-04-3.94514E-05-3.04187E-05 5.58660E-06 1.68828E-19-3.36560E-19
 -1      2704 1.05893E-04-3.69321E-05-2.96337E-05 9.55417E-06 2.20277E-19-8.51265E-19
 -1      2705 1.13374E-04-4.15650E-05-3.06981E-05 3.49560E-06 7.18977E-20 7.75763E-20
 -1      2706 1.15177E-04-4.29122E-05-3.10418E-05 9.31027E-07 1.02256E-19 1.51142E-19
 -1      2707 1.11340E-04-4.17285E-05-2.99257E-05 6.95694E-06 4.31778E-19 3.49815E-21
 -1      2708 1.18258E-04-4.41103E-05-3.17393E-05-2.49169E-06-1.40387E-19 6.18063E-19
 -1      2709 1.19169E-04-4.37303E-05-3.23972E-05-5.52561E-06-5.83384E-19 5.49433E-19
 -1      2710 1.17618E-04-4.56837E-05-3.09288E-05 1.65304E-06 1.77502E-19 8.40852E-19
 -1      2711 1.20917E-04-4.24390E-05-3.37081E-05-9.67987E-06-1.12908E-18 9.85801E-19
 -1      2712 1.20002E-04-3.90697E-05-3.47324E-05-1.18359E-05-1.83494E-18 6.98235E-19
 -1      2713 1.22916E-04-4.57570E-05-3.31155E-05-6.18618E-06-8.30185E-19 1.20371E-18
 -1      2714 1.19137E-04-3.45320E-05-3.65246E-05-1.39650E-05-2.67007E-18 3.70981E-19
 -1      2715 1.16742E-04-2.88873E-05-3.76808E-05-1.33414E-05-3.34422E-18 1.31793E-19
 -1      2716 1.23723E-04-3.84527E-05-3.66326E-05-1.31181E-05-2.43662E-18 1.46469E-18
 -1      2717 1.14088E-04-2.32314E-05-3.93032E-05-1.04332E-05-3.95154E-18-1.05629E-18
 -1      2718 1.12313E-04-1.92827E-05-4.00048E-05-6.19081E-06-4.14596E-18-1.52263E-18
 -1      2719 1.19832E-04-2.54881E-05-4.05700E-05-1.32499E-05-4.37673E-18 7.06108E-19
 -1      2720 1.11372E-04-1.76598E-05-4.04285E-05 7.95460E-07-4.41707E-18-2.72399E-18
 -1      2721 1.12059E-04-1.89835E-05-4.02119E-05 6.07476E-06-4.03114E-18-3.22343E-18
 -1      2722 1.15867E-04-1.61233E-05-4.30104E-05-3.25974E-06-5.11518E-18-1.67405E-18
 -1      2723 1.14202E-04-2.30526E-05-3.91231E-05 1.16787E-05-3.13217E-18-4.11761E-18
 -1      2724 1.16756E-04-2.84997E-05-3.81380E-05 1.43671E-05-2.09735E-18-4.36604E-18
 -1      2725 1.17309E-04-1.90046E-05-4.22792E-05 1.02630E-05-4.20372E-18-3.24340E-18
 -1      2726 1.18790E-04-3.41002E-05-3.63379E-05 1.45280E-05-1.20014E-18-4.36853E-18
 -1      2727 1.20650E-04-3.88865E-05-3.52266E-05 1.37227E-05-3.80265E-19-4.51532E-18
 -1      2728 1.22122E-04-3.18745E-05-3.88788E-05 1.55979E-05-1.65399E-18-3.70823E-18
 -1      2729 1.20327E-04-4.20858E-05-3.36013E-05 1.02622E-05 5.38064E-19-4.17248E-18
 -1      2730 1.20338E-04-4.39829E-05-3.27480E-05 7.38690E-06 1.09658E-18-3.52699E-18
 -1      2731 1.24066E-04-4.29890E-05-3.48028E-05 1.12415E-05 6.20346E-19-3.11843E-18
 -1      2732 1.17745E-04-4.38500E-05-3.17440E-05 3.47296E-06 1.40507E-18-2.99112E-18
 -1      2733 1.16334E-04-4.32787E-05-3.12528E-05 5.21371E-07 2.14970E-18-2.60401E-18
 -1      2734 1.20742E-04-4.63690E-05-3.19128E-05 3.20533E-06 1.62331E-18-2.46309E-18
 -1      2735 1.13131E-04-4.14794E-05-3.07674E-05-2.27842E-06 1.87194E-18-2.21292E-18
 -1      2736 1.11212E-04-3.98085E-05-3.05288E-05-4.44631E-06 2.11201E-18-2.75209E-18
 -1      2737 1.14655E-04-4.39934E-05-3.03482E-05-3.43493E-06 1.95575E-18-1.62197E-18
 -1      2738 1.08436E-04-3.76957E-05-3.03515E-05-5.96041E-06 2.10576E-18-3.18247E-18
 -1      2739 1.06623E-04-3.59232E-05-3.02418E-05-7.22905E-06 1.78935E-18-2.92102E-18
 -1      2740 1.08569E-04-3.94426E-05-2.96940E-05-7.41272E-06 1.81006E-18-2.72085E-18
 -1      2741 1.04607E-04-3.41657E-05-3.02042E-05-7.79816E-06 1.08354E-18-2.75018E-18
 -1      2742 1.03141E-04-3.27333E-05-3.01370E-05-8.34491E-06 6.85731E-19-2.98000E-18
 -1      2743 1.03789E-04-3.50388E-05-2.95189E-05-9.16784E-06 1.21108E-18-3.15037E-18
 -1      2744 1.01820E-04-3.15016E-05-3.01395E-05-8.33554E-06 3.33487E-19-3.09067E-18
 -1      2745 1.00714E-04-3.04973E-05-3.00716E-05-8.38860E-06-8.37474E-20-3.22204E-18
 -1      2746 1.00505E-04-3.16879E-05-2.95297E-05-9.49661E-06 2.90390E-19-3.21450E-18
 -1      2747 9.99028E-05-2.97331E-05-3.00688E-05-8.06146E-06-5.69519E-19-3.32738E-18
 -1      2748 9.90854E-05-2.90940E-05-2.99863E-05-7.81454E-06-6.05190E-19-3.41354E-18
 -1      2749 9.84259E-05-2.94737E-05-2.95726E-05-9.01889E-06-4.59514E-19-3.41557E-18
 -1      2750 9.86067E-05-2.86739E-05-2.99638E-05-7.33371E-06-5.10998E-19-3.27728E-18
 -1      2751 9.79994E-05-2.83002E-05-2.98679E-05-6.92888E-06 1.35566E-19-3.28153E-18
 -1      2752 9.71746E-05-2.81707E-05-2.95851E-05-8.12906E-06-5.51740E-19-3.04660E-18
 -1      2753 9.77219E-05-2.81066E-05-2.98261E-05-6.39411E-06 6.73055E-19-3.42825E-18
 -1      2754 9.72622E-05-2.79088E-05-2.97235E-05-5.92732E-06 5.02311E-19-3.06828E-18
 -1      2755 9.64437E-05-2.75036E-05-2.95522E-05-7.06530E-06 3.52413E-19-2.54618E-18
 -1      2756 9.71004E-05-2.78521E-05-2.96683E-05-5.39775E-06 5.91059E-19-3.45021E-18
 -1      2757 9.67456E-05-2.77633E-05-2.95662E-05-4.92931E-06 5.77315E-20-2.76584E-18
 -1      2758 9.60206E-05-2.72410E-05-2.94805E-05-5.97010E-06 3.38639E-19-2.62457E-18
 -1      2759 9.66481E-05-2.77825E-05-2.95045E-05-4.43834E-06 1.50034E-20-2.40441E-18
 -1      2760 9.63705E-05-2.77575E-05-2.94086E-05-4.00303E-06 4.24158E-19-2.34993E-18
 -1      2761 9.57722E-05-2.72157E-05-2.93835E-05-4.92696E-06 4.21625E-19-2.69119E-18
 -1      2762 9.63083E-05-2.78139E-05-2.93461E-05-3.56757E-06 3.12185E-19-2.37996E-18
 -1      2763 9.60898E-05-2.78238E-05-2.92598E-05-3.18285E-06 7.43429E-20-1.81579E-18
 -1      2764 9.56205E-05-2.73168E-05-2.92745E-05-3.98187E-06 3.44638E-19-3.10474E-18
 -1      2765 9.60472E-05-2.78944E-05-2.92006E-05-2.80927E-06 6.02735E-19-1.61048E-18
 -1      2766 9.58754E-05-2.79216E-05-2.91257E-05-2.48141E-06 6.52966E-19-9.80831E-19
 -1      2767 9.55222E-05-2.74755E-05-2.91641E-05-3.15634E-06 5.46092E-19-1.70517E-18
 -1      2768 9.58441E-05-2.79935E-05-2.90722E-05-2.16937E-06 5.05917E-19-9.54222E-19
 -1      2769 9.57099E-05-2.80274E-05-2.90090E-05-1.89780E-06 1.74255E-19-6.07675E-19
 -1      2770 9.54538E-05-2.76511E-05-2.90595E-05-2.45587E-06 6.81623E-19-1.01216E-18
 -1      2771 9.56858E-05-2.80938E-05-2.89624E-05-1.64299E-06-6.36397E-19-6.76754E-20
 -1      2772 9.55821E-05-2.81287E-05-2.89104E-05-1.42329E-06-1.24148E-18 3.31123E-19
 -1      2773 9.54033E-05-2.78209E-05-2.89650E-05-1.87574E-06 3.76497E-19 5.99834E-20
 -1      2774 9.55630E-05-2.81867E-05-2.88709E-05-1.21937E-06-4.77759E-19 1.16790E-18
 -1      2775 9.54840E-05-2.82193E-05-2.88292E-05-1.04528E-06 9.33594E-19 1.52402E-18
 -1      2776 9.53643E-05-2.79738E-05-2.88827E-05-1.40533E-06-2.35394E-20 1.89903E-18
 -1      2777 9.54687E-05-2.82681E-05-2.87965E-05-8.85120E-07 5.84280E-19 2.22805E-18
 -1      2778 9.54095E-05-2.82969E-05-2.87636E-05-7.49804E-07 8.02475E-19 2.86113E-18
 -1      2779 9.53337E-05-2.81054E-05-2.88130E-05-1.03119E-06 9.97575E-19 3.71710E-18
 -1      2780 9.53974E-05-2.83368E-05-2.87373E-05-6.26283E-07 1.60776E-18 2.19037E-18
 -1      2781 9.53538E-05-2.83615E-05-2.87118E-05-5.23051E-07 1.71754E-18 3.16930E-18
 -1      2782 9.53094E-05-2.82151E-05-2.87555E-05-7.39038E-07 7.51605E-19 2.65047E-18
 -1      2783 9.53443E-05-2.83934E-05-2.86909E-05-4.29505E-07 1.19548E-18 2.47124E-18
 -1      2784 9.53129E-05-2.84139E-05-2.86716E-05-3.52220E-07 1.21169E-18 2.46074E-18
 -1      2785 9.52904E-05-2.83041E-05-2.87091E-05-5.14984E-07 8.43689E-19 1.96680E-18
 -1      2786 9.53055E-05-2.84388E-05-2.86554E-05-2.82698E-07 3.51016E-19 2.11829E-18
 -1      2787 9.52837E-05-2.84555E-05-2.86411E-05-2.25975E-07-5.43385E-19 1.34288E-18
 -1      2788 9.52755E-05-2.83748E-05-2.86723E-05-3.46269E-07 2.07992E-19 2.16303E-18
 -1      2789 9.52780E-05-2.84746E-05-2.86287E-05-1.75343E-07 2.61523E-20 8.96576E-19
 -1      2790 9.52632E-05-2.84879E-05-2.86183E-05-1.34608E-07 2.56293E-19 4.20475E-19
 -1      2791 9.52642E-05-2.84299E-05-2.86438E-05-2.21635E-07-4.10587E-19 1.68344E-18
 -1      2792 9.52590E-05-2.85023E-05-2.86091E-05-9.85636E-08 3.61697E-19 8.48254E-19
 -1      2793 9.52495E-05-2.85127E-05-2.86017E-05-7.00393E-08 1.02552E-18 1.46144E-18
 -1      2794 9.52557E-05-2.84720E-05-2.86220E-05-1.31471E-07 2.65716E-19 1.26205E-18
 -1      2795 9.52465E-05-2.85234E-05-2.85949E-05-4.50649E-08 1.19718E-18 1.15295E-18
 -1      2796 9.52408E-05-2.85315E-05-2.85899E-05-2.57095E-08 5.37257E-19 1.76639E-18
 -1      2797 9.52494E-05-2.85036E-05-2.86056E-05-6.77887E-08 9.72326E-19 1.84258E-18
 -1      2798 9.52386E-05-2.85392E-05-2.85850E-05-8.99926E-09-3.89905E-19 1.83426E-18
 -1      2799 9.52357E-05-2.85454E-05-2.85816E-05 3.57516E-09-4.34358E-19 1.76532E-18
 -1      2800 9.52449E-05-2.85270E-05-2.85936E-05-2.41130E-08 4.43163E-20 5.25739E-19
 -1      2801 9.52343E-05-2.85511E-05-2.85782E-05 1.42012E-08-3.97942E-19 2.80500E-18
 -1      2802 9.52332E-05-2.85559E-05-2.85761E-05 2.18128E-08 7.61283E-19 2.66946E-18
 -1      2803 9.52419E-05-2.85440E-05-2.85850E-05 4.67514E-09 2.72600E-19 1.78542E-18
 -1      2804 9.52323E-05-2.85600E-05-2.85736E-05 2.79935E-08 1.35850E-18 2.39498E-18
 -1      2805 9.52326E-05-2.85638E-05-2.85724E-05 3.19720E-08 1.31428E-18 3.19969E-18
 -1      2806 9.52399E-05-2.85565E-05-2.85788E-05 2.25100E-08 6.61869E-19 2.43022E-18
 -1      2807 9.52322E-05-2.85670E-05-2.85707E-05 3.49010E-08 1.10154E-18 3.23786E-18
 -1      2808 9.52333E-05-2.85702E-05-2.85699E-05 3.61778E-08 8.63746E-19 3.21912E-18
 -1      2809 9.52389E-05-2.85657E-05-2.85743E-05 3.23022E-08 1.34395E-18 3.72209E-18
 -1      2810 9.52333E-05-2.85729E-05-2.85687E-05 3.66416E-08 2.87968E-20 2.50041E-18
 -1      2811 9.52349E-05-2.85758E-05-2.85682E-05 3.57677E-08 6.03937E-20 2.02073E-18
 -1      2812 9.52388E-05-2.85731E-05-2.85711E-05 3.61756E-08-1.56080E-19 3.58850E-18
 -1      2813 1.29088E-04-1.19802E-05-5.09130E-05-4.78880E-06-7.70969E-18-1.42071E-18
 -1      2814 1.31246E-04-1.74027E-05-4.92620E-05-1.02929E-05-7.29931E-18-1.48337E-19
 -1      2815 1.40104E-04-5.15793E-05-3.79303E-05 1.58130E-06-2.93087E-19-5.26367E-18
 -1      2816 1.39135E-04-4.30419E-05-4.19768E-05 8.65821E-06-1.70492E-18-5.28803E-18
 -1      2817 1.01560E-04-3.01793E-05-3.05967E-05-7.33120E-06 1.16722E-18-8.98629E-19
 -1      2818 1.00746E-04-2.93469E-05-3.05699E-05-6.95145E-06 1.56693E-18-7.98415E-19
 -1      2819 1.09587E-04-3.76855E-05-3.08656E-05-3.82803E-06-4.15675E-20 1.25948E-19
 -1      2820 1.08192E-04-3.63208E-05-3.07476E-05-5.41049E-06-1.33567E-19-9.48164E-20
 -1      2821 1.13047E-04-4.01865E-05-3.12932E-05 5.11625E-07 3.00071E-19 7.44022E-19
 -1      2822 1.11894E-04-3.92527E-05-3.10828E-05-1.80021E-06 9.52391E-20 5.82633E-19
 -1      2823 1.10651E-04-3.96917E-05-3.04605E-05-4.55557E-06-2.74181E-19-4.66127E-19
 -1      2824 1.15568E-04-4.06967E-05-3.21446E-05 6.14841E-06 2.98907E-19 1.50432E-18
 -1      2825 1.15219E-04-4.10597E-05-3.17700E-05 3.52697E-06 3.89423E-19 1.09231E-18
 -1      2826 1.15278E-04-4.25867E-05-3.11926E-05 3.84523E-07 9.71689E-20 9.34835E-19
 -1      2827 1.15710E-04-3.74048E-05-3.35544E-05 1.12276E-05 6.42402E-19 2.02986E-18
 -1      2828 1.16587E-04-3.97948E-05-3.29814E-05 9.37676E-06 4.05208E-19 1.85286E-18
 -1      2829 1.18627E-04-4.24698E-05-3.26377E-05 6.87360E-06 2.69287E-19 2.03241E-18
 -1      2830 1.12825E-04-3.01893E-05-3.53639E-05 1.23439E-05 2.09077E-18 1.36029E-18
 -1      2831 1.14665E-04-3.41179E-05-3.46995E-05 1.28077E-05 1.43840E-18 1.77640E-18
 -1      2832 1.18664E-04-3.71914E-05-3.48890E-05 1.24426E-05 1.30759E-18 1.87963E-18
 -1      2833 1.08827E-04-2.26958E-05-3.69168E-05 7.01500E-06 2.58729E-18-6.56120E-20
 -1      2834 1.10494E-04-2.59664E-05-3.64445E-05 1.03825E-05 2.51939E-18 7.40634E-19
 -1      2835 1.15213E-04-2.81101E-05-3.74070E-05 1.25694E-05 2.68912E-18 1.44669E-18
 -1      2836 1.07626E-04-2.09148E-05-3.73583E-05-2.92790E-06 3.01480E-18-1.83096E-18
 -1      2837 1.07737E-04-2.08824E-05-3.73517E-05 1.55838E-06 2.83486E-18-1.37191E-18
 -1      2838 1.11409E-04-2.00919E-05-3.92260E-05 4.69418E-06 3.62525E-18-1.27024E-19
 -1      2839 1.11000E-04-2.65058E-05-3.64189E-05-1.17772E-05 2.79238E-18-3.61191E-18
 -1      2840 1.09174E-04-2.30120E-05-3.68898E-05-8.65093E-06 2.97229E-18-2.88727E-18
 -1      2841 1.11150E-04-1.96087E-05-3.93237E-05-6.91712E-06 3.82353E-18-2.52671E-18
 -1      2842 1.15106E-04-3.46119E-05-3.47008E-05-1.36927E-05 1.51571E-18-3.65349E-18
 -1      2843 1.13229E-04-3.06931E-05-3.53466E-05-1.33942E-05 2.07356E-18-3.71375E-18
 -1      2844 1.15817E-04-2.91135E-05-3.72185E-05-1.37444E-05 2.15336E-18-3.77098E-18
 -1      2845 1.16938E-04-4.00024E-05-3.30274E-05-1.01141E-05 3.23967E-19-3.00176E-18
 -1      2846 1.16080E-04-3.77372E-05-3.35689E-05-1.20095E-05 1.11076E-18-3.14840E-18
 -1      2847 1.18783E-04-3.76426E-05-3.48184E-05-1.34641E-05 9.81645E-19-3.61541E-18
 -1      2848 1.15507E-04-4.10748E-05-3.18783E-05-4.26627E-06-1.76554E-19-3.23077E-18
 -1      2849 1.15847E-04-4.07860E-05-3.22208E-05-6.86693E-06 2.18116E-19-2.94773E-18
 -1      2850 1.18692E-04-4.25661E-05-3.26091E-05-7.60431E-06 3.10604E-19-3.49017E-18
 -1      2851 1.12227E-04-3.92338E-05-3.12331E-05 9.66966E-07-2.78365E-19-3.14996E-18
 -1      2852 1.13330E-04-4.01635E-05-3.14227E-05-1.31766E-06-7.57664E-20-3.32181E-18
 -1      2853 1.15220E-04-4.24367E-05-3.12156E-05-1.17873E-06 1.81517E-20-3.04056E-18
 -1      2854 1.08576E-04-3.63555E-05-3.09046E-05 4.53090E-06-1.03356E-18-2.67261E-18
 -1      2855 1.09926E-04-3.76744E-05-3.10187E-05 2.96044E-06-6.13679E-19-2.79416E-18
 -1      2856 1.10621E-04-3.95578E-05-3.05074E-05 3.69182E-06-8.01976E-19-2.39874E-18
 -1      2857 1.05384E-04-3.36376E-05-3.07133E-05 6.45049E-06-1.62065E-19-3.14076E-18
 -1      2858 1.06669E-04-3.48563E-05-3.08102E-05 5.58977E-06-4.97227E-19-3.15548E-18
 -1      2859 1.06370E-04-3.59983E-05-3.02085E-05 6.56450E-06-5.74062E-19-3.03561E-18
 -1      2860 1.02879E-04-3.15379E-05-3.05525E-05 7.13429E-06-5.74799E-19-1.72451E-18
 -1      2861 1.03982E-04-3.24795E-05-3.06598E-05 6.82455E-06-3.53081E-19-2.29674E-18
 -1      2862 1.03063E-04-3.29360E-05-3.00912E-05 7.83655E-06-8.40674E-19-2.57047E-18
 -1      2863 1.01002E-04-3.00962E-05-3.03761E-05 7.01181E-06-2.66489E-19-1.83762E-18
 -1      2864 1.01910E-04-3.07528E-05-3.04998E-05 7.07148E-06-4.00323E-19-1.39852E-18
 -1      2865 1.00708E-04-3.07126E-05-3.00219E-05 8.03109E-06-6.95956E-19-8.95445E-19
 -1      2866 9.96110E-05-2.91874E-05-3.01760E-05 6.42460E-06-1.08238E-19-1.16061E-18
 -1      2867 1.00348E-04-2.96148E-05-3.03107E-05 6.70076E-06 4.47242E-20-1.35613E-18
 -1      2868 9.91000E-05-2.92747E-05-2.99398E-05 7.57768E-06-3.65698E-19-6.51518E-19
 -1      2869 9.85710E-05-2.86575E-05-2.99613E-05 5.61299E-06-1.00386E-18-2.70947E-19
 -1      2870 9.91683E-05-2.89207E-05-3.00982E-05 5.99393E-06-2.86993E-19-5.55687E-19
 -1      2871 9.80136E-05-2.84349E-05-2.98283E-05 6.77989E-06-7.56881E-19-4.24799E-19
 -1      2872 9.77808E-05-2.83756E-05-2.97455E-05 4.73348E-06-4.58836E-19-1.63958E-18
 -1      2873 9.82643E-05-2.85292E-05-2.98764E-05 5.14518E-06-5.42104E-19-9.97000E-19
 -1      2874 9.72705E-05-2.80022E-05-2.96921E-05 5.83854E-06-3.09996E-19-1.14058E-18
 -1      2875 9.71711E-05-2.82468E-05-2.95403E-05 3.88054E-06-1.98848E-18-1.73261E-18
 -1      2876 9.75611E-05-2.83304E-05-2.96597E-05 4.27821E-06-1.43260E-18-1.86382E-18
 -1      2877 9.67485E-05-2.78250E-05-2.95426E-05 4.87988E-06-8.24166E-19-1.12829E-18
 -1      2878 9.66962E-05-2.82074E-05-2.93539E-05 3.10569E-06-5.96847E-19-2.84658E-18
 -1      2879 9.70086E-05-2.82479E-05-2.94587E-05 3.46516E-06-1.48967E-18-2.60544E-18
 -1      2880 9.63699E-05-2.77967E-05-2.93916E-05 3.97814E-06-1.29883E-18-1.77245E-18
 -1      2881 9.63253E-05-2.82171E-05-2.91907E-05 2.43233E-06 5.99277E-19-2.87004E-18
 -1      2882 9.65729E-05-2.82318E-05-2.92798E-05 2.74301E-06-1.11367E-19-3.22912E-18
 -1      2883 9.60876E-05-2.78481E-05-2.92482E-05 3.17239E-06-2.08629E-19-4.02663E-18
 -1      2884 9.60365E-05-2.82514E-05-2.90521E-05 1.86627E-06 1.38123E-19-1.37170E-18
 -1      2885 9.62303E-05-2.82513E-05-2.91258E-05 2.12594E-06 5.12661E-19-2.07031E-18
 -1      2886 9.58729E-05-2.79363E-05-2.91180E-05 2.47878E-06 1.61814E-20-4.29873E-18
 -1      2887 9.58134E-05-2.82956E-05-2.89373E-05 1.40292E-06-3.60156E-19-4.89559E-19
 -1      2888 9.59630E-05-2.82876E-05-2.89969E-05 1.61422E-06 2.31324E-19-6.22291E-19
 -1      2889 9.57079E-05-2.80363E-05-2.90042E-05 1.89895E-06-3.34655E-19-1.35247E-18
 -1      2890 9.56431E-05-2.83414E-05-2.88444E-05 1.03213E-06-6.09149E-19-3.82527E-19
 -1      2891 9.57566E-05-2.83298E-05-2.88916E-05 1.20021E-06-6.33029E-19 6.17449E-20
 -1      2892 9.55809E-05-2.81341E-05-2.89076E-05 1.42590E-06-5.14798E-19-1.60413E-18
 -1      2893 9.55150E-05-2.83845E-05-2.87708E-05 7.41407E-07-7.42310E-19 1.31212E-18
 -1      2894 9.55995E-05-2.83717E-05-2.88075E-05 8.72386E-07-6.82491E-19 5.82251E-19
 -1      2895 9.54836E-05-2.82227E-05-2.88277E-05 1.04810E-06-9.00105E-19 1.05738E-19
 -1      2896 9.54203E-05-2.84228E-05-2.87137E-05 5.17811E-07-1.27015E-19 5.55331E-19
 -1      2897 9.54820E-05-2.84102E-05-2.87415E-05 6.17904E-07-1.56293E-19 1.31415E-18
 -1      2898 9.54098E-05-2.82993E-05-2.87630E-05 7.52247E-07-6.96394E-19 8.18445E-19
 -1      2899 9.53518E-05-2.84556E-05-2.86701E-05 3.49100E-07-1.42033E-19-1.32462E-19
 -1      2900 9.53957E-05-2.84440E-05-2.86909E-05 4.24115E-07-3.54281E-21 5.06788E-19
 -1      2901 9.53546E-05-2.83632E-05-2.87117E-05 5.24883E-07-6.14120E-20 3.92519E-19
 -1      2902 9.53035E-05-2.84828E-05-2.86376E-05 2.24289E-07 7.47897E-19-6.82088E-19
 -1      2903 9.53338E-05-2.84726E-05-2.86527E-05 2.79378E-07 5.90387E-19-5.91675E-20
 -1      2904 9.53140E-05-2.84152E-05-2.86718E-05 3.53419E-07 2.88696E-19-5.09283E-19
 -1      2905 9.52705E-05-2.85049E-05-2.86139E-05 1.33893E-07 4.01836E-19-8.58930E-20
 -1      2906 9.52906E-05-2.84962E-05-2.86246E-05 1.73463E-07 3.41731E-19-7.14377E-19
 -1      2907 9.52848E-05-2.84565E-05-2.86414E-05 2.26617E-07 2.35820E-19-1.51607E-18
 -1      2908 9.52489E-05-2.85225E-05-2.85971E-05 6.99741E-08-1.01425E-18 5.31025E-19
 -1      2909 9.52616E-05-2.85153E-05-2.86044E-05 9.76824E-08 4.22989E-19 1.30423E-18
 -1      2910 9.52644E-05-2.84887E-05-2.86187E-05 1.34808E-07-5.19162E-19-4.10589E-19
 -1      2911 9.52357E-05-2.85364E-05-2.85855E-05 2.60617E-08-1.41833E-18 4.26950E-19
 -1      2912 9.52429E-05-2.85304E-05-2.85903E-05 4.48645E-08-1.72076E-18 3.14873E-19
 -1      2913 9.52506E-05-2.85134E-05-2.86021E-05 6.99168E-08-8.32211E-19 2.11204E-18
 -1      2914 9.52285E-05-2.85471E-05-2.85777E-05-2.98450E-09-5.03362E-19 7.50501E-19
 -1      2915 9.52319E-05-2.85423E-05-2.85807E-05 9.23959E-09-3.77983E-19 3.10936E-19
 -1      2916 9.52417E-05-2.85321E-05-2.85902E-05 2.53706E-08-1.13104E-18 5.91684E-19
 -1      2917 9.52254E-05-2.85555E-05-2.85728E-05-2.11294E-08 1.08546E-18-1.33033E-19
 -1      2918 9.52263E-05-2.85515E-05-2.85746E-05-1.37093E-08 3.22003E-19 3.67101E-19
 -1      2919 9.52364E-05-2.85460E-05-2.85819E-05-4.04144E-09 8.73278E-20-5.46940E-19
 -1      2920 9.52252E-05-2.85622E-05-2.85699E-05-3.13229E-08 1.29248E-18 2.69776E-19
 -1      2921 9.52244E-05-2.85589E-05-2.85707E-05-2.74061E-08 8.59053E-19-4.69735E-20
 -1      2922 9.52338E-05-2.85563E-05-2.85762E-05-2.23279E-08 9.57882E-19 1.02630E-19
 -1      2923 9.52269E-05-2.85677E-05-2.85682E-05-3.56665E-08-2.25184E-19 6.91751E-19
 -1      2924 9.52251E-05-2.85648E-05-2.85685E-05-3.43478E-08 5.60537E-19 8.19902E-19
 -1      2925 9.52330E-05-2.85642E-05-2.85725E-05-3.24686E-08 4.23554E-19-3.06327E-19
 -1      2926 9.52297E-05-2.85727E-05-2.85673E-05-3.54876E-08 5.57281E-19 2.00037E-19
 -1      2927 9.52273E-05-2.85701E-05-2.85673E-05-3.62543E-08 2.67147E-19 6.62097E-19
 -1      2928 9.52335E-05-2.85706E-05-2.85699E-05-3.66123E-08 2.54318E-19-1.76038E-18
 -1      2929 9.52338E-05-2.85777E-05-2.85670E-05-3.24803E-08-1.66026E-18 1.20663E-18
 -1      2930 9.52313E-05-2.85750E-05-2.85670E-05-3.48846E-08-7.09224E-19-1.12870E-19
 -1      2931 9.52361E-05-2.85763E-05-2.85685E-05-3.64840E-08-6.40311E-19-2.04378E-18
 -1      2932 9.52392E-05-2.85819E-05-2.85674E-05-3.39260E-08-1.54163E-18-2.16230E-18
 -1      2933 9.52572E-05-2.85935E-05-2.85701E-05-2.34650E-09-9.07437E-19-1.03154E-18
 -1      2934 9.52569E-05-2.85932E-05-2.85701E-05-6.92648E-09 1.88715E-19-2.57290E-18
 -1      2935 9.52351E-05-2.85776E-05-2.85675E-05 3.49325E-08 1.11941E-18 2.50600E-18
 -1      2936 9.52363E-05-2.85795E-05-2.85672E-05 3.33087E-08 6.21683E-19 3.85933E-18
 -1      2937 9.52392E-05-2.85785E-05-2.85689E-05 3.59373E-08 5.35525E-19 2.32075E-18
 -1      2938 9.52544E-05-2.85918E-05-2.85697E-05-2.02493E-08 2.96522E-19-2.58254E-18
 -1      2939 9.52527E-05-2.85903E-05-2.85696E-05-2.39019E-08 4.88582E-19-2.71649E-18
 -1      2940 9.52569E-05-2.85932E-05-2.85701E-05 7.06121E-09-1.54153E-18 1.94681E-19
 -1      2941 9.52572E-05-2.85935E-05-2.85701E-05 2.48296E-09-2.00991E-18-1.20332E-19
 -1      2942 9.52582E-05-2.85873E-05-2.85732E-05 6.91009E-11-3.54135E-19-1.17448E-18
 -1      2943 9.52564E-05-2.85931E-05-2.85700E-05-1.16408E-08-2.73085E-19-2.78776E-18
 -1      2944 9.52555E-05-2.85922E-05-2.85700E-05-1.59332E-08 8.69773E-19-3.07601E-18
 -1      2945 9.52558E-05-2.85866E-05-2.85725E-05-1.86340E-08-3.01581E-19-2.53204E-18
 -1      2946 9.52577E-05-2.85872E-05-2.85731E-05-9.52735E-09 1.02919E-18-2.90893E-18
 -1      2947 8.62727E-05-4.58987E-05-1.72496E-05 3.91806E-05-3.46098E-18 1.22396E-18
 -1      2948 6.95422E-05-3.68224E-05-1.35723E-05 3.76919E-05-3.87189E-18 1.70296E-18
 -1      2949 9.52555E-05-2.85922E-05-2.85700E-05 1.59096E-08-1.85685E-18-1.32114E-18
 -1      2950 9.52564E-05-2.85931E-05-2.85700E-05 1.16933E-08-1.64228E-18 4.21509E-19
 -1      2951 9.52577E-05-2.85872E-05-2.85731E-05 9.57908E-09-1.15512E-18-3.59961E-21
 -1      2952 9.52527E-05-2.85903E-05-2.85696E-05 2.38932E-08-1.49728E-19-5.61173E-19
 -1      2953 9.52544E-05-2.85918E-05-2.85697E-05 2.02311E-08-1.39916E-18-1.49881E-18
 -1      2954 9.52559E-05-2.85866E-05-2.85725E-05 1.86119E-08-1.41746E-18-8.64161E-19
 -1      2955 9.52483E-05-2.85874E-05-2.85690E-05 3.00231E-08 1.57223E-19 5.69913E-18
 -1      2956 9.52508E-05-2.85895E-05-2.85691E-05 2.74347E-08 8.32560E-19 2.15736E-18
 -1      2957 9.52524E-05-2.85853E-05-2.85716E-05 2.66118E-08 3.56955E-19 1.80929E-18
 -1      2958 1.00182E-04-2.86352E-05-3.06613E-05-6.16709E-06 1.80230E-18-9.66894E-19
 -1      2959 9.96414E-05-2.79470E-05-3.06939E-05-5.32427E-06 1.96834E-18-7.01029E-19
 -1      2960 9.83070E-05-2.65824E-05-3.07526E-05-4.92581E-06 2.31741E-18-1.49471E-18
 -1      2961 9.92365E-05-2.82230E-05-3.04548E-05-7.03486E-06 1.70705E-18-1.58198E-18
 -1      2962 2.82847E-05-1.45981E-05-5.17546E-06 1.06320E-05-3.11735E-18 6.26593E-18
 -1      2963 2.90459E-05-1.31630E-05-6.32462E-06-3.73914E-06-2.29138E-18 6.19118E-18
 -1      2964 1.00049E-04-5.26683E-05-1.99244E-05-3.55015E-05 2.90045E-18-8.82992E-19
 -1      2965 1.15934E-04-5.84494E-05-2.48940E-05-2.95253E-05 2.57879E-18-3.64407E-18
 -1      2966 3.59356E-05-1.64321E-05-7.97613E-06 1.88437E-05 1.28278E-18-8.40892E-18
 -1      2967 3.14703E-05-1.34715E-05-7.19127E-06 6.75787E-06 9.21982E-19-9.16066E-18
 -1      2968 9.59715E-05-2.05600E-05-3.23497E-05-3.50343E-06-3.15718E-18-4.28627E-18
 -1      2969 9.67434E-05-2.23745E-05-3.18829E-05-1.36829E-06-2.91085E-18-3.94360E-18
 -1      2970 9.72311E-05-2.20894E-05-3.22066E-05 3.34603E-06 4.32597E-18-3.35683E-19
 -1      2971 5.06218E-05-2.41832E-05-1.06500E-05-3.01511E-05-2.78965E-18-7.22233E-18
 -1      2972 6.86590E-05-3.52071E-05-1.42356E-05-3.83051E-05-3.67252E-18-6.20356E-18
 -1      2973 1.39344E-04-4.01577E-05-4.27102E-05 8.73201E-06 2.99934E-18 2.55645E-18
 -1      2974 1.36689E-04-3.09825E-05-4.59263E-05 1.14345E-05 4.41114E-18 2.47747E-18
 -1      2975 1.06267E-04-3.47551E-05-3.06797E-05-6.45145E-06-7.93465E-20-5.48520E-19
 -1      2976 1.04953E-04-3.34438E-05-3.06030E-05-7.25891E-06 1.92849E-19-7.40775E-19
 -1      2977 1.06366E-04-3.60420E-05-3.01917E-05-7.44765E-06-3.66199E-19-6.27130E-19
 -1      2978 1.03562E-04-3.21819E-05-3.06071E-05-7.51002E-06 5.70898E-19-7.43522E-19
 -1      2979 1.02478E-04-3.11129E-05-3.05508E-05-7.65949E-06 8.71948E-19-7.15762E-19
 -1      2980 1.03040E-04-3.27458E-05-3.01692E-05-8.54069E-06 4.33284E-19-8.95165E-19
 -1      2981 9.73563E-05-2.37507E-05-3.15281E-05 2.84995E-07-2.59019E-18-3.57183E-18
 -1      2982 9.76036E-05-2.47745E-05-3.12187E-05 2.17658E-06-2.26898E-18-3.50454E-18
 -1      2983 9.63499E-05-2.38120E-05-3.10919E-05 2.99097E-06-2.13342E-18-3.56022E-18
 -1      2984 9.54396E-05-2.14253E-05-3.17177E-05-1.51707E-07-2.58461E-18-4.07361E-18
 -1      2985 8.72746E-05-1.26221E-05-3.20085E-05 1.04224E-06 3.32474E-18-4.42793E-18
 -1      2986 8.60217E-05-1.16299E-05-3.19128E-05 6.05438E-07 2.85479E-18-4.79963E-18
 -1      2987 8.61173E-05-1.25357E-05-3.15142E-05-1.62631E-07 2.47170E-18-4.62321E-18
 -1      2988 8.87670E-05-1.47978E-05-3.16814E-05 1.38343E-07 3.12299E-18-3.89793E-18
 -1      2989 6.38679E-05-3.21161E-05-1.34000E-05 3.63728E-05 2.58610E-18-6.17540E-18
 -1      2990 4.72672E-05-2.29177E-05-9.79964E-06 2.85672E-05 2.16073E-18-7.50048E-18
 -1      2991 4.91550E-05-1.96522E-05-1.20286E-05 2.26819E-05 2.12732E-18-7.40783E-18
 -1      2992 8.58496E-05-1.14642E-05-3.19093E-05-6.18128E-07-3.67934E-19-5.84814E-18
 -1      2993 8.70828E-05-1.24341E-05-3.20062E-05-1.03202E-06-9.21594E-19-5.82960E-18
 -1      2994 1.39371E-04-4.71120E-05-4.01199E-05-5.13088E-06-3.64420E-18 1.46208E-18
 -1      2995 1.37610E-04-5.49107E-05-3.55613E-05 4.12631E-06-2.26880E-18 1.20670E-18
 -1      2996 9.24785E-05-1.58523E-05-3.28518E-05-4.53245E-06-2.83543E-18-5.30273E-18
 -1      2997 1.01232E-04-5.26869E-05-2.06950E-05 3.63887E-05 1.54573E-18-2.30824E-18
 -1      2998 8.44352E-05-4.37708E-05-1.70669E-05 3.80307E-05 2.30891E-18-3.86099E-18
 -1      2999 8.78164E-05-4.56212E-05-1.75681E-05-3.80688E-05-4.26312E-18-5.04874E-18
 -1      3000 1.01592E-04-5.28845E-05-2.09739E-05-3.63451E-05-3.94897E-18-3.51190E-18
 -1      3001 1.35389E-04-3.03175E-05-4.51936E-05 1.41537E-05-3.00856E-18-4.33766E-18
 -1      3002 1.31517E-04-2.07649E-05-4.82757E-05 1.21892E-05-4.50876E-18-3.77840E-18
 -1      3003 1.31888E-04-1.90627E-05-4.91870E-05-1.08218E-05 6.29324E-18-2.54375E-18
 -1      3004 1.33993E-04-2.60338E-05-4.65329E-05-1.37923E-05 5.22005E-18-3.50301E-18
 -1      3005 1.28769E-04-1.20361E-05-5.04931E-05 7.15303E-06-6.46773E-18-3.13079E-18
 -1      3006 1.28752E-04-1.03411E-05-5.14272E-05 3.78339E-07-7.48269E-18-2.47320E-18
 -1      3007 1.23271E-04-1.22462E-05-4.79346E-05-2.92362E-06-6.78092E-18-1.50325E-18
 -1      3008 3.18645E-05-1.31690E-05-7.42520E-06-5.02426E-06-4.83877E-19-8.97220E-18
 -1      3009 3.69887E-05-1.65080E-05-8.51294E-06-1.94544E-05-1.45690E-18-8.22723E-18
 -1      3010 1.15549E-04-5.75656E-05-2.45114E-05-2.86306E-05-3.46013E-18-1.57662E-18
 -1      3011 1.28409E-04-6.02113E-05-2.96838E-05-1.94396E-05-2.07121E-18 3.75977E-19
 -1      3012 1.34639E-04-2.70182E-05-4.68900E-05-1.20630E-05-6.66784E-18 7.33954E-19
 -1      3013 1.37894E-04-3.59025E-05-4.39460E-05-1.17242E-05-5.27680E-18 1.28558E-18
 -1      3014 3.79713E-05-1.70144E-05-8.40295E-06-1.95199E-05 1.61783E-19 4.31097E-18
 -1      3015 5.06735E-05-2.49130E-05-1.06791E-05-3.16986E-05 1.26314E-18 3.58231E-18
 -1      3016 1.36481E-04-5.64170E-05-3.48928E-05 6.42630E-06-3.88312E-20-4.54052E-18
 -1      3017 1.30384E-04-5.90099E-05-3.04240E-05 1.49464E-05-1.24509E-18-3.36177E-18
 -1      3018 9.52399E-05-2.85825E-05-2.85675E-05 3.36061E-08 7.65991E-19 2.79660E-18
 -1      3019 1.28359E-04-5.95275E-05-2.92656E-05-1.84638E-05 1.98047E-18-4.85053E-18
 -1      3020 1.35863E-04-5.75689E-05-3.40820E-05-9.24810E-06 9.02672E-19-5.41434E-18
 -1      3021 1.37298E-04-3.86232E-05-4.30727E-05-1.08999E-05 2.98145E-18-3.71805E-18
 -1      3022 1.39059E-04-4.88998E-05-3.86843E-05-4.42231E-06 1.04688E-18-4.47382E-18
 -1      3023 8.85590E-05-1.37389E-05-3.20969E-05-1.28318E-06-1.22565E-18-5.71827E-18
 -1      3024 9.01438E-05-1.50357E-05-3.21986E-05-1.79356E-06-1.83427E-18-5.62817E-18
 -1      3025 8.85424E-05-1.45690E-05-3.16806E-05-1.43880E-07-9.54022E-19-5.38264E-18
 -1      3026 8.37492E-05-1.05686E-05-3.13401E-05-5.57820E-08 1.22333E-18-5.48725E-18
 -1      3027 8.32396E-05-9.33606E-06-3.16931E-05-1.17319E-08 1.14287E-18-5.84560E-18
 -1      3028 8.34877E-05-9.51773E-06-3.17170E-05-2.33201E-07 7.46545E-19-6.00262E-18
 -1      3029 1.36149E-04-4.54499E-05-3.91070E-05 7.64776E-06 1.37765E-18 2.32087E-18
 -1      3030 9.84114E-05-4.89561E-05-2.08876E-05 3.28050E-05-3.92462E-18-3.46304E-19
 -1      3031 1.31910E-04-3.37791E-05-4.22815E-05-1.37361E-05 3.03635E-18-3.76728E-18
 -1      3032 1.31325E-04-5.73493E-05-3.16560E-05-9.85753E-06-1.64568E-18 1.10940E-18
 -1      3033 9.61775E-05-4.85804E-05-1.99848E-05-3.41150E-05 3.49930E-18-1.13177E-18
 -1      3034 1.28067E-04-2.27296E-05-4.53790E-05-1.23652E-05-5.98122E-18 6.20928E-19
 -1      3035 6.25731E-05-3.16074E-05-1.28057E-05 3.56944E-05-4.19588E-18 2.36820E-18
 -1      3036 5.52078E-05-2.53117E-05-1.24174E-05 3.06294E-05-4.64703E-18 2.78716E-18
 -1      3037 7.45843E-05-3.50237E-05-1.66085E-05 3.38981E-05-4.25025E-18 2.34993E-18
 -1      3038 1.35770E-04-5.18327E-05-3.58086E-05-2.64607E-06 1.14581E-19-4.43443E-18
 -1      3039 3.77834E-05-1.40883E-05-9.50991E-06-1.18606E-05-3.74997E-19 4.73576E-18
 -1      3040 4.80284E-05-1.61351E-05-1.33501E-05-1.63600E-05 9.79620E-19 2.96536E-18
 -1      3041 4.01318E-05-1.21962E-05-1.15720E-05-2.83802E-06-1.30406E-18 3.94008E-18
 -1      3042 9.52524E-05-2.85853E-05-2.85716E-05-2.65693E-08 2.92729E-19-2.41885E-18
 -1      3043 9.52508E-05-2.85894E-05-2.85691E-05-2.74380E-08 5.81613E-19-3.34904E-18
 -1      3044 9.52483E-05-2.85873E-05-2.85690E-05-2.99857E-08-3.10207E-19-4.73806E-18
 -1      3045 5.15105E-05-2.02359E-05-1.27670E-05-2.30363E-05-2.02785E-18-7.10883E-18
 -1      3046 1.33777E-04-3.64962E-05-4.17044E-05 1.32225E-05-1.84336E-18-4.15745E-18
 -1      3047 1.00733E-04-3.01819E-05-3.02677E-05-8.29705E-06 1.02215E-18-1.35444E-18
 -1      3048 1.11543E-04-5.44933E-05-2.41385E-05-2.81581E-05-3.90678E-18-1.82890E-18
 -1      3049 1.36032E-04-5.42486E-05-3.49455E-05-9.90339E-07 8.76534E-19-5.27437E-18
 -1      3050 9.52458E-05-2.85863E-05-2.85683E-05-3.20268E-08-9.81107E-19-4.74537E-18
 -1      3051 9.52424E-05-2.85836E-05-2.85681E-05-3.30006E-08-1.11882E-18-3.31708E-18
 -1      3052 9.52410E-05-2.85806E-05-2.85688E-05-3.48946E-08-7.90470E-19-2.89518E-18
 -1      3053 9.52474E-05-2.85834E-05-2.85703E-05-3.21241E-08-1.43032E-19-4.08633E-18
 -1      3054 1.25307E-04-1.74049E-05-4.65880E-05 1.03398E-05-4.88897E-18-3.26044E-18
 -1      3055 7.82789E-05-3.83270E-05-1.66383E-05 3.61764E-05 2.84164E-18-4.65715E-18
 -1      3056 7.25347E-05-3.22610E-05-1.69344E-05 3.26402E-05 2.89860E-18-4.98759E-18
 -1      3057 9.08021E-05-4.33145E-05-2.02338E-05 3.32590E-05 3.05403E-18-2.81474E-18
 -1      3058 9.52433E-05-2.85851E-05-2.85678E-05 3.25580E-08 6.68761E-19 3.59303E-18
 -1      3059 1.26249E-04-1.46194E-05-4.82314E-05-9.60879E-06 6.61236E-18-1.92626E-18
 -1      3060 9.52427E-05-2.85807E-05-2.85695E-05 3.45859E-08 6.65655E-20 2.64244E-18
 -1      3061 9.52462E-05-2.85853E-05-2.85690E-05 3.22917E-08 2.76065E-20 5.25696E-18
 -1      3062 9.52479E-05-2.85822E-05-2.85709E-05 3.21110E-08 2.12532E-19 5.10621E-18
 -1      3063 9.52424E-05-2.85782E-05-2.85703E-05 3.51691E-08-4.79574E-19 3.31579E-18
 -1      3064 1.22395E-04-5.83899E-05-2.73050E-05-2.10528E-05 2.60378E-18-4.36704E-18
 -1      3065 3.92695E-05-1.29806E-05-1.05986E-05 3.01979E-07 1.41521E-19-8.35386E-18
 -1      3066 9.59311E-05-2.10570E-05-3.21031E-05 2.26422E-06 4.17002E-18-1.25732E-18
 -1      3067 1.29711E-04-3.05672E-05-4.26213E-05 1.36760E-05 3.53424E-18 2.78473E-18
 -1      3068 1.32965E-04-2.60999E-05-4.62409E-05 1.28253E-05 4.88802E-18 2.33082E-18
 -1      3069 1.26383E-04-2.07190E-05-4.60254E-05 1.20056E-05 5.07426E-18 1.91165E-18
 -1      3070 9.26230E-05-1.71123E-05-3.23598E-05-2.72045E-06-2.35754E-18-5.20511E-18
 -1      3071 1.34833E-04-5.82077E-05-3.30284E-05 9.74188E-06-1.38898E-18 1.15159E-18
 -1      3072 1.28556E-04-5.84113E-05-2.98533E-05 1.45719E-05 2.36799E-19 6.80141E-19
 -1      3073 1.33114E-04-5.42922E-05-3.38435E-05 4.04347E-07-6.83721E-19 1.87872E-18
 -1      3074 8.40259E-05-9.97469E-06-3.17619E-05-2.21286E-07 4.93846E-19-5.83060E-18
 -1      3075 8.47955E-05-1.05548E-05-3.18302E-05-5.13795E-07-7.09172E-20-5.81536E-18
 -1      3076 8.59370E-05-1.23643E-05-3.15101E-05 1.10040E-07-1.76348E-19-5.46096E-18
 -1      3077 8.42851E-05-1.10023E-05-3.13849E-05 1.04901E-07 4.99505E-19-5.62244E-18
 -1      3078 1.34766E-04-4.23645E-05-3.96586E-05-1.02360E-05-3.36013E-18 2.11716E-18
 -1      3079 1.28986E-04-1.16367E-05-5.08460E-05 3.78410E-06 7.05663E-18 8.09975E-21
 -1      3080 1.23238E-04-1.15215E-05-4.84570E-05 1.02789E-06 6.84805E-18 5.51802E-19
 -1      3081 1.24331E-04-1.36154E-05-4.78621E-05 7.22700E-06 6.06518E-18 8.94493E-19
 -1      3082 1.19002E-04-5.80598E-05-2.63853E-05 2.44816E-05 1.31544E-18-1.89491E-19
 -1      3083 1.10367E-04-5.54614E-05-2.32635E-05 3.07570E-05 1.58199E-18-1.25203E-18
 -1      3084 1.06481E-04-5.19356E-05-2.31390E-05 3.03692E-05 2.42135E-18-1.19040E-18
 -1      3085 3.77500E-05-1.65503E-05-8.50533E-06 1.66463E-05-4.04866E-18 4.52358E-18
 -1      3086 1.24483E-04-5.79432E-05-2.83176E-05 1.73494E-05-2.41928E-18-3.58946E-18
 -1      3087 9.56425E-05-2.16593E-05-3.16986E-05 3.62126E-07 3.74719E-18-1.70298E-18
 -1      3088 9.34484E-05-1.99649E-05-3.15023E-05-6.46749E-07 3.43267E-18-2.50133E-18
 -1      3089 9.16545E-05-1.83021E-05-3.14503E-05-8.56112E-07 3.15002E-18-2.99275E-18
 -1      3090 5.71454E-05-2.19754E-05-1.48813E-05 2.55194E-05 2.51648E-18-6.28922E-18
 -1      3091 4.76132E-05-1.56540E-05-1.32587E-05 1.61712E-05 1.79834E-18-7.09157E-18
 -1      3092 9.59329E-05-2.57496E-05-3.00615E-05 7.74050E-06-8.09296E-19-2.60384E-18
 -1      3093 9.65124E-05-2.67972E-05-2.98695E-05 8.75111E-06-4.71169E-19-2.49664E-18
 -1      3094 9.70394E-05-2.79130E-05-2.96009E-05 9.83019E-06-3.40951E-19-2.27820E-18
 -1      3095 9.80374E-05-2.93039E-05-2.94427E-05 1.04860E-05-2.03752E-19-2.30523E-18
 -1      3096 9.48072E-05-2.62323E-05-2.94137E-05 9.66072E-06-4.46334E-19-2.75508E-18
 -1      3097 9.91018E-05-3.08781E-05-2.91974E-05 1.13277E-05 8.34588E-20-2.11156E-18
 -1      3098 1.00732E-04-3.28242E-05-2.90878E-05 1.15239E-05 3.42253E-19-1.91949E-18
 -1      3099 9.63137E-05-2.91210E-05-2.88441E-05 1.17707E-05 1.22129E-19-2.54586E-18
 -1      3100 1.02697E-04-3.50752E-05-2.89092E-05 1.19549E-05 5.12390E-19-1.59566E-18
 -1      3101 1.05128E-04-3.76548E-05-2.89100E-05 1.14608E-05 6.60054E-19-1.19722E-18
 -1      3102 9.92171E-05-3.32604E-05-2.83500E-05 1.33831E-05 5.97269E-19-2.24898E-18
 -1      3103 1.08370E-04-4.06085E-05-2.89181E-05 1.10647E-05 8.64194E-19-6.46160E-19
 -1      3104 1.11570E-04-4.35309E-05-2.91724E-05 9.51205E-06 8.86102E-19-3.39399E-19
 -1      3105 1.04280E-04-3.90230E-05-2.80904E-05 1.40054E-05 1.10694E-18-1.46602E-18
 -1      3106 1.16192E-04-4.66602E-05-2.96401E-05 7.54228E-06 8.24084E-19 4.91203E-19
 -1      3107 1.19620E-04-4.87785E-05-3.03654E-05 4.59320E-06 6.26884E-19 7.38762E-19
 -1      3108 1.12002E-04-4.59725E-05-2.84639E-05 1.24058E-05 1.17328E-18-5.00921E-19
 -1      3109 1.25656E-04-5.15275E-05-3.17384E-05 1.37529E-06-2.93748E-20 1.59244E-18
 -1      3110 1.27947E-04-5.01216E-05-3.34595E-05-2.73502E-06-8.55900E-19 1.80238E-18
 -1      3111 1.26699E-04-3.26903E-05-4.08656E-05-1.48414E-05-4.12749E-18 1.37638E-18
 -1      3112 1.23666E-04-2.41358E-05-4.29854E-05-1.23365E-05-5.32477E-18 6.67806E-19
 -1      3113 1.27885E-04-4.47422E-05-3.57399E-05 1.03134E-05 1.43704E-19-3.68113E-18
 -1      3114 1.27345E-04-4.86266E-05-3.37200E-05 6.51765E-06 1.38472E-18-3.52310E-18
 -1      3115 1.23116E-04-4.92492E-05-3.17641E-05 1.24612E-06 1.81337E-18-3.16379E-18
 -1      3116 1.20442E-04-4.86348E-05-3.06547E-05-2.33359E-06 2.21122E-18-2.75229E-18
 -1      3117 1.26635E-04-5.17079E-05-3.23343E-05 3.78861E-07 1.52461E-18-4.13323E-18
 -1      3118 1.15568E-04-4.62728E-05-2.97638E-05-5.64158E-06 1.97716E-18-2.98320E-18
 -1      3119 1.12284E-04-4.36919E-05-2.92693E-05-7.93980E-06 1.90186E-18-2.91405E-18
 -1      3120 1.17310E-04-4.89539E-05-2.94360E-05-7.58218E-06 2.04371E-18-3.71711E-18
 -1      3121 1.08312E-04-4.06918E-05-2.90032E-05-9.29843E-06 1.56039E-18-2.71088E-18
 -1      3122 1.05484E-04-3.79481E-05-2.88556E-05-1.03677E-05 1.53490E-18-3.23357E-18
 -1      3123 1.08447E-04-4.26017E-05-2.83368E-05-1.14802E-05 1.59091E-18-3.42991E-18
 -1      3124 1.02841E-04-3.54643E-05-2.88747E-05-1.05500E-05 1.37278E-18-3.19993E-18
 -1      3125 1.00794E-04-3.33022E-05-2.88773E-05-1.08218E-05 8.12430E-19-3.15251E-18
 -1      3126 1.01939E-04-3.64353E-05-2.81598E-05-1.23807E-05 1.28190E-18-3.20170E-18
 -1      3127 9.92444E-05-3.15822E-05-2.89880E-05-1.04526E-05 8.06261E-20-2.83201E-18
 -1      3128 9.79061E-05-3.01157E-05-2.90306E-05-1.02716E-05-1.66213E-19-3.06284E-18
 -1      3129 9.78614E-05-3.18381E-05-2.83493E-05-1.17948E-05 5.72955E-19-2.92787E-18
 -1      3130 9.70992E-05-2.90666E-05-2.91449E-05-9.68189E-06-3.79083E-19-3.40782E-18
 -1      3131 9.62773E-05-2.81755E-05-2.91786E-05-9.26547E-06-5.27639E-19-3.09669E-18
 -1      3132 9.55801E-05-2.88658E-05-2.86205E-05-1.06233E-05-6.43842E-19-2.71855E-18
 -1      3133 9.59255E-05-2.76184E-05-2.92632E-05-8.61075E-06-6.81001E-19-3.12585E-18
 -1      3134 9.54395E-05-2.71379E-05-2.92720E-05-8.08700E-06-1.91141E-19-2.35420E-18
 -1      3135 9.44609E-05-2.71618E-05-2.88557E-05-9.27560E-06-5.26053E-19-2.32287E-18
 -1      3136 9.53437E-05-2.69064E-05-2.93204E-05-7.43904E-06 4.20832E-20-2.79622E-18
 -1      3137 9.50611E-05-2.66935E-05-2.93043E-05-6.88438E-06 2.82033E-19-2.89784E-18
 -1      3138 9.40278E-05-2.63316E-05-2.90173E-05-7.92913E-06-4.52289E-19-2.47352E-18
 -1      3139 9.50958E-05-2.66596E-05-2.93209E-05-6.27763E-06 2.39113E-19-2.75247E-18
 -1      3140 9.49303E-05-2.66087E-05-2.92864E-05-5.73798E-06 1.96268E-19-2.69876E-18
 -1      3141 9.39665E-05-2.60565E-05-2.91046E-05-6.65967E-06 4.80025E-19-3.21110E-18
 -1      3142 9.50214E-05-2.66841E-05-2.92794E-05-5.18940E-06-5.67340E-20-2.88311E-18
 -1      3143 9.49214E-05-2.67237E-05-2.92338E-05-4.69154E-06 1.95530E-19-2.80471E-18
 -1      3144 9.40846E-05-2.61070E-05-2.91317E-05-5.50189E-06-3.62191E-19-3.35647E-18
 -1      3145 9.50283E-05-2.68514E-05-2.92116E-05-4.20887E-06-2.27024E-19-3.02910E-18
 -1      3146 9.49645E-05-2.69358E-05-2.91612E-05-3.76695E-06-3.38517E-19-3.22903E-18
 -1      3147 9.42723E-05-2.63301E-05-2.91160E-05-4.47202E-06-2.05471E-19-2.83736E-18
 -1      3148 9.50669E-05-2.70811E-05-2.91304E-05-3.35224E-06 6.81160E-19-2.78777E-18
 -1      3149 9.50233E-05-2.71825E-05-2.90800E-05-2.97180E-06 9.24692E-19-2.26701E-18
 -1      3150 9.44712E-05-2.66291E-05-2.90732E-05-3.57618E-06 4.72739E-19-2.79130E-18
 -1      3151 9.51122E-05-2.73256E-05-2.90458E-05-2.62309E-06 9.67711E-19-1.84164E-18
 -1      3152 9.50804E-05-2.74280E-05-2.89985E-05-2.30382E-06 1.47292E-18-1.13435E-18
 -1      3153 9.46530E-05-2.69458E-05-2.90158E-05-2.81320E-06 1.27923E-18-2.41225E-18
 -1      3154 9.51530E-05-2.75583E-05-2.89644E-05-2.01635E-06 1.32070E-18-1.21287E-18
 -1      3155 9.51287E-05-2.76532E-05-2.89220E-05-1.75426E-06 6.19565E-19-5.77672E-20
 -1      3156 9.48066E-05-2.72474E-05-2.89528E-05-2.17616E-06 1.34411E-18-2.55515E-18
 -1      3157 9.51857E-05-2.77662E-05-2.88900E-05-1.52156E-06 4.28091E-19 1.30382E-18
 -1      3158 9.51666E-05-2.78496E-05-2.88533E-05-1.31064E-06 9.43240E-19 2.44780E-18
 -1      3159 9.49300E-05-2.75172E-05-2.88903E-05-1.65406E-06 1.12721E-18-5.37147E-19
 -1      3160 9.52099E-05-2.79444E-05-2.88247E-05-1.12559E-06 8.23909E-19 2.71572E-18
 -1      3161 9.51947E-05-2.80151E-05-2.87938E-05-9.58990E-07 5.79077E-19 2.09864E-18
 -1      3162 9.50255E-05-2.77490E-05-2.88323E-05-1.23371E-06 9.38837E-19 1.09920E-18
 -1      3163 9.52267E-05-2.80925E-05-2.87691E-05-8.14382E-07 5.14791E-19 1.93226E-18
 -1      3164 9.52147E-05-2.81507E-05-2.87437E-05-6.85145E-07 7.67138E-19 1.63270E-18
 -1      3165 9.50973E-05-2.79420E-05-2.87805E-05-9.01151E-07 6.89677E-19 4.50048E-19
 -1      3166 9.52377E-05-2.82125E-05-2.87229E-05-5.74096E-07 4.33891E-19 1.71979E-18
 -1      3167 9.52283E-05-2.82595E-05-2.87025E-05-4.75628E-07 8.22925E-20 8.87600E-19
 -1      3168 9.51497E-05-2.80988E-05-2.87359E-05-6.42569E-07 3.84737E-19 1.13680E-18
 -1      3169 9.52443E-05-2.83078E-05-2.86854E-05-3.91859E-07-1.20303E-19 1.38927E-18
 -1      3170 9.52371E-05-2.83448E-05-2.86692E-05-3.18206E-07-3.29277E-19 1.18020E-18
 -1      3171 9.51868E-05-2.82235E-05-2.86985E-05-4.44990E-07 1.18769E-19 2.44243E-19
 -1      3172 9.52477E-05-2.83819E-05-2.86555E-05-2.56191E-07-3.58040E-19 1.19100E-18
 -1      3173 9.52422E-05-2.84106E-05-2.86430E-05-2.02171E-07-2.76092E-20 1.24558E-18
 -1      3174 9.52123E-05-2.83208E-05-2.86678E-05-2.96717E-07-2.77233E-19-1.81549E-20
 -1      3175 9.52490E-05-2.84385E-05-2.86321E-05-1.57194E-07-3.96461E-20 1.17689E-18
 -1      3176 9.52450E-05-2.84603E-05-2.86226E-05-1.18431E-07 7.21211E-19 1.12524E-18
 -1      3177 9.52291E-05-2.83952E-05-2.86432E-05-1.87561E-07 5.68241E-20 1.03198E-18
 -1      3178 9.52489E-05-2.84809E-05-2.86141E-05-8.65668E-08 6.18797E-19 9.92636E-19
 -1      3179 9.52460E-05-2.84972E-05-2.86070E-05-5.94575E-08 3.80712E-19 8.57553E-19
 -1      3180 9.52394E-05-2.84510E-05-2.86237E-05-1.08895E-07-1.63676E-19 2.13938E-19
 -1      3181 9.52480E-05-2.85121E-05-2.86006E-05-3.75187E-08 9.90435E-20 1.13614E-18
 -1      3182 9.52459E-05-2.85242E-05-2.85953E-05-1.91711E-08-4.34591E-20 1.01076E-18
 -1      3183 9.52452E-05-2.84922E-05-2.86085E-05-5.35958E-08 3.76004E-19 7.23753E-19
 -1      3184 9.52466E-05-2.85347E-05-2.85904E-05-4.62893E-09 3.34169E-19 1.71662E-18
 -1      3185 9.52452E-05-2.85435E-05-2.85866E-05 7.22031E-09 5.41346E-19 2.42528E-18
 -1      3186 9.52479E-05-2.85220E-05-2.85969E-05-1.59199E-08 2.68621E-19 1.64202E-18
 -1      3187 9.52451E-05-2.85510E-05-2.85829E-05 1.63196E-08 1.13263E-19 3.47738E-18
 -1      3188 9.52443E-05-2.85575E-05-2.85802E-05 2.33844E-08 6.02774E-19 2.77817E-18
 -1      3189 9.52485E-05-2.85433E-05-2.85880E-05 8.65461E-09 1.65581E-19 2.79952E-18
 -1      3190 9.52438E-05-2.85628E-05-2.85774E-05 2.84914E-08 1.25046E-18 3.75786E-18
 -1      3191 9.52434E-05-2.85677E-05-2.85754E-05 3.19952E-08 1.67836E-18 3.88371E-18
 -1      3192 9.52480E-05-2.85585E-05-2.85813E-05 2.35452E-08 8.63948E-19 5.01214E-18
 -1      3193 9.52428E-05-2.85712E-05-2.85734E-05 3.40483E-08-2.67885E-20 3.86785E-18
 -1      3194 9.52428E-05-2.85751E-05-2.85719E-05 3.49300E-08-8.05727E-19 3.47111E-18
 -1      3195 9.52460E-05-2.85771E-05-2.85725E-05 3.37970E-08-7.66565E-19 4.39877E-18
 -1      3196 9.52469E-05-2.85692E-05-2.85763E-05 3.11336E-08 5.88446E-19 5.01500E-18
 -1      3197 1.11301E-04-4.15819E-05-2.98925E-05-6.38515E-06-6.37465E-19-3.93000E-19
 -1      3198 1.08845E-04-3.93976E-05-2.96747E-05-8.10701E-06-8.40912E-19-7.33956E-19
 -1      3199 1.22324E-04-3.80451E-05-3.61518E-05 1.25019E-05 1.59083E-18 2.13194E-18
 -1      3200 1.23644E-04-4.30400E-05-3.47002E-05 1.03755E-05 5.82699E-19 2.23811E-18
 -1      3201 1.18161E-04-2.33654E-05-4.07969E-05 1.23758E-05 3.60847E-18 1.96676E-18
 -1      3202 1.21049E-04-3.03307E-05-3.92608E-05 1.40257E-05 2.87732E-18 2.17447E-18
 -1      3203 1.13798E-04-1.46018E-05-4.28274E-05 1.71201E-06 4.87775E-18 1.40349E-19
 -1      3204 1.15413E-04-1.75570E-05-4.23874E-05 7.34953E-06 4.75858E-18 1.18317E-18
 -1      3205 1.18870E-04-2.23197E-05-4.17516E-05-1.29430E-05 4.25232E-18-3.12453E-18
 -1      3206 1.16852E-04-1.76991E-05-4.28086E-05-7.59484E-06 4.85244E-18-1.75391E-18
 -1      3207 1.21282E-04-2.85416E-05-4.01712E-05-1.48765E-05 2.96949E-18-3.31231E-18
 -1      3208 1.23710E-04-4.33689E-05-3.45193E-05-1.08756E-05 3.93111E-19-3.80156E-18
 -1      3209 1.22966E-04-3.86320E-05-3.60533E-05-1.35121E-05 8.85255E-19-4.14646E-18
 -1      3210 1.20423E-04-4.61864E-05-3.17739E-05-3.19160E-06-1.58177E-19-3.15000E-18
 -1      3211 1.21636E-04-4.53304E-05-3.27489E-05-6.51456E-06 2.10149E-19-3.37355E-18
 -1      3212 1.25336E-04-4.68967E-05-3.36901E-05-6.90459E-06 9.75676E-20-3.46927E-18
 -1      3213 1.14537E-04-4.36790E-05-3.02708E-05 3.28317E-06-8.55139E-19-2.37337E-18
 -1      3214 1.16784E-04-4.50881E-05-3.07900E-05 5.32061E-07-3.65415E-19-2.78725E-18
 -1      3215 1.19311E-04-4.77601E-05-3.07442E-05 1.50707E-06-7.87853E-19-2.57797E-18
 -1      3216 1.08511E-04-3.91244E-05-2.96528E-05 7.14594E-06-8.55037E-19-2.25621E-18
 -1      3217 1.10871E-04-4.12765E-05-2.98698E-05 5.45478E-06-5.19327E-19-1.72634E-18
 -1      3218 1.11788E-04-4.36515E-05-2.93288E-05 7.29478E-06-8.94606E-19-1.97809E-18
 -1      3219 1.03776E-04-3.48498E-05-2.94824E-05 8.84794E-06-4.22100E-19-2.11697E-18
 -1      3220 1.05734E-04-3.68137E-05-2.95530E-05 8.02877E-06-6.75223E-19-2.15424E-18
 -1      3221 1.05363E-04-3.82254E-05-2.88676E-05 9.82605E-06-4.11248E-19-1.59615E-18
 -1      3222 1.00495E-04-3.16100E-05-2.94895E-05 9.17244E-06-1.71583E-18-1.27495E-18
 -1      3223 1.01933E-04-3.30785E-05-2.95088E-05 8.95537E-06-1.35041E-18-1.83317E-18
 -1      3224 1.00818E-04-3.36629E-05-2.88451E-05 1.04291E-05-1.13144E-18-5.40353E-19
 -1      3225 9.83997E-05-2.94616E-05-2.95289E-05 8.71735E-06-7.80196E-19-1.26420E-18
 -1      3226 9.93902E-05-3.04338E-05-2.95458E-05 8.87312E-06-1.12104E-18-1.45344E-18
 -1      3227 9.79483E-05-3.04288E-05-2.89753E-05 9.99483E-06-1.39158E-18-9.43124E-19
 -1      3228 9.71274E-05-2.81858E-05-2.95408E-05 7.86378E-06-8.95753E-19-5.53457E-19
 -1      3229 9.77934E-05-2.87682E-05-2.95730E-05 8.22848E-06-7.28372E-19-9.66293E-19
 -1      3230 9.62950E-05-2.84057E-05-2.91161E-05 9.07300E-06-1.14335E-18-1.27276E-18
 -1      3231 9.63802E-05-2.75233E-05-2.95104E-05 6.84028E-06-7.29690E-19-8.30681E-19
 -1      3232 9.68291E-05-2.78339E-05-2.95598E-05 7.30367E-06-3.49239E-19-5.73429E-19
 -1      3233 9.54253E-05-2.72858E-05-2.92127E-05 7.95473E-06-4.79083E-19-7.12809E-19
 -1      3234 9.59489E-05-2.72557E-05-2.94433E-05 5.78452E-06-6.29664E-20-1.00800E-18
 -1      3235 9.62581E-05-2.73915E-05-2.95049E-05 6.27520E-06-3.86871E-19-9.26262E-19
 -1      3236 9.50234E-05-2.67755E-05-2.92533E-05 6.79507E-06-1.86597E-19-9.41046E-19
 -1      3237 9.56996E-05-2.72227E-05-2.93519E-05 4.77746E-06-1.34974E-18-2.81794E-19
 -1      3238 9.59195E-05-2.72539E-05-2.94193E-05 5.25147E-06-6.34373E-19-3.61046E-19
 -1      3239 9.48804E-05-2.66444E-05-2.92453E-05 5.67958E-06-9.64859E-19-5.20625E-19
 -1      3240 9.55525E-05-2.73171E-05-2.92486E-05 3.86370E-06-4.97799E-19-1.47115E-18
 -1      3241 9.57141E-05-2.72904E-05-2.93162E-05 4.29610E-06-9.26005E-19-4.88790E-19
 -1      3242 9.48685E-05-2.67298E-05-2.92023E-05 4.65516E-06-8.67045E-19 3.63525E-20
 -1      3243 9.54619E-05-2.74711E-05-2.91434E-05 3.06430E-06 1.39251E-19-2.42487E-18
 -1      3244 9.55838E-05-2.74161E-05-2.92073E-05 3.44301E-06-1.39780E-19-2.24395E-18
 -1      3245 9.49148E-05-2.69248E-05-2.91382E-05 3.74575E-06 1.20649E-19-4.34988E-19
 -1      3246 9.54030E-05-2.76443E-05-2.90434E-05 2.38504E-06-6.91766E-19-2.38130E-18
 -1      3247 9.54963E-05-2.75786E-05-2.91010E-05 2.70641E-06-2.74524E-19-2.92992E-18
 -1      3248 9.49801E-05-2.71634E-05-2.90640E-05 2.96051E-06 5.22008E-20-1.34880E-18
 -1      3249 9.53620E-05-2.78134E-05-2.89527E-05 1.82187E-06-4.69053E-19-1.30806E-18
 -1      3250 9.54340E-05-2.77474E-05-2.90029E-05 2.08761E-06-8.99173E-19-1.75923E-18
 -1      3251 9.50451E-05-2.74064E-05-2.89879E-05 2.29867E-06-1.27805E-18-1.25235E-18
 -1      3252 9.53320E-05-2.79668E-05-2.88735E-05 1.36488E-06-1.07704E-18-8.78244E-19
 -1      3253 9.53875E-05-2.79059E-05-2.89159E-05 1.57977E-06-6.61746E-19-1.22668E-18
 -1      3254 9.51015E-05-2.76325E-05-2.89153E-05 1.75274E-06-1.04208E-18-8.87649E-19
 -1      3255 9.53091E-05-2.80994E-05-2.88063E-05 1.00120E-06-1.48488E-18-2.27514E-19
 -1      3256 9.53516E-05-2.80461E-05-2.88413E-05 1.17152E-06-9.87358E-19-7.17024E-19
 -1      3257 9.51465E-05-2.78315E-05-2.88494E-05 1.31116E-06-1.23749E-18-9.18283E-19
 -1      3258 9.52914E-05-2.82103E-05-2.87507E-05 7.17105E-07-1.05490E-18 1.28022E-19
 -1      3259 9.53235E-05-2.81652E-05-2.87789E-05 8.49560E-07-1.26931E-18 2.07886E-21
 -1      3260 9.51807E-05-2.80002E-05-2.87919E-05 9.60488E-07-1.32475E-18-4.41238E-19
 -1      3261 9.52775E-05-2.83005E-05-2.87057E-05 4.99197E-07-2.84999E-19 1.66395E-19
 -1      3262 9.53014E-05-2.82634E-05-2.87280E-05 6.00305E-07-2.85416E-19 2.62804E-19
 -1      3263 9.52055E-05-2.81391E-05-2.87430E-05 6.86975E-07-7.38605E-19-1.11344E-18
 -1      3264 9.52667E-05-2.83723E-05-2.86700E-05 3.35118E-07 5.18544E-19-7.05040E-19
 -1      3265 9.52842E-05-2.83425E-05-2.86873E-05 4.10853E-07-1.61664E-20-3.56214E-19
 -1      3266 9.52226E-05-2.82506E-05-2.87026E-05 4.77423E-07 1.06022E-19-1.17534E-18
 -1      3267 9.52584E-05-2.84282E-05-2.86422E-05 2.13945E-07-1.14099E-19-3.21849E-19
 -1      3268 9.52709E-05-2.84048E-05-2.86553E-05 2.69553E-07 7.48750E-19-9.29415E-20
 -1      3269 9.52340E-05-2.83384E-05-2.86698E-05 3.19784E-07-4.13423E-20-7.14895E-19
 -1      3270 9.52521E-05-2.84710E-05-2.86210E-05 1.26331E-07-8.91902E-19 8.20869E-19
 -1      3271 9.52607E-05-2.84529E-05-2.86308E-05 1.66273E-07-9.76394E-19-3.61138E-19
 -1      3272 9.52409E-05-2.84061E-05-2.86438E-05 2.03462E-07-6.29730E-19 1.01296E-18
 -1      3273 9.52474E-05-2.85031E-05-2.86050E-05 6.45040E-08-1.32550E-18 5.03047E-19
 -1      3274 9.52532E-05-2.84894E-05-2.86122E-05 9.24670E-08-9.05931E-19 6.31868E-19
 -1      3275 9.52448E-05-2.84573E-05-2.86234E-05 1.19432E-07-9.45032E-19-6.06179E-19
 -1      3276 9.52440E-05-2.85268E-05-2.85933E-05 2.21534E-08-6.04093E-19-1.33491E-18
 -1      3277 9.52476E-05-2.85165E-05-2.85984E-05 4.11091E-08-8.11722E-19-1.12950E-19
 -1      3278 9.52465E-05-2.84953E-05-2.86078E-05 6.01989E-08-3.59954E-19-1.14423E-18
 -1      3279 9.52417E-05-2.85441E-05-2.85848E-05-5.71010E-09 4.35242E-19-1.24469E-18
 -1      3280 9.52437E-05-2.85365E-05-2.85884E-05 6.56882E-09 7.88064E-20-1.63445E-18
 -1      3281 9.52468E-05-2.85231E-05-2.85960E-05 1.96917E-08 9.67391E-20-2.28332E-18
 -1      3282 9.52402E-05-2.85567E-05-2.85787E-05-2.29071E-08 7.88296E-19-2.61299E-19
 -1      3283 9.52411E-05-2.85510E-05-2.85812E-05-1.55383E-08 5.00856E-19-7.19468E-19
 -1      3284 9.52462E-05-2.85430E-05-2.85872E-05-6.88040E-09 4.26002E-20-2.06127E-18
 -1      3285 9.52394E-05-2.85660E-05-2.85744E-05-3.22617E-08 7.38431E-19-1.59380E-18
 -1      3286 9.52395E-05-2.85616E-05-2.85761E-05-2.85034E-08 1.30850E-18-5.46154E-19
 -1      3287 9.52452E-05-2.85574E-05-2.85806E-05-2.31479E-08 1.30852E-18-2.32405E-18
 -1      3288 9.52393E-05-2.85733E-05-2.85712E-05-3.57882E-08 6.23925E-19-2.97358E-18
 -1      3289 9.52388E-05-2.85697E-05-2.85723E-05-3.47711E-08 7.60381E-19-2.97361E-18
 -1      3290 9.52442E-05-2.85679E-05-2.85756E-05-3.18709E-08 1.28989E-18-3.06422E-18
 -1      3291 9.52409E-05-2.85782E-05-2.85697E-05-3.52565E-08-4.57942E-19-3.22239E-18
 -1      3292 9.52393E-05-2.85754E-05-2.85702E-05-3.60739E-08-1.38648E-19-3.35372E-18
 -1      3293 9.52440E-05-2.85749E-05-2.85725E-05-3.46746E-08 1.46483E-19-3.63927E-18
 -1      3294 9.52445E-05-2.85799E-05-2.85705E-05-3.44921E-08-4.43376E-19-3.29416E-18
 -1      3295 1.16479E-04-5.57641E-05-2.56280E-05-2.29078E-05 3.04551E-18-4.29849E-18
 -1      3296 1.26096E-04-5.84450E-05-2.94400E-05-1.42921E-05 2.16920E-18-4.73526E-18
 -1      3297 8.48166E-05-1.24448E-05-3.10248E-05-6.79018E-07 1.91766E-18-4.78604E-18
 -1      3298 8.41729E-05-1.19423E-05-3.09771E-05-5.86238E-07 1.57372E-18-5.03674E-18
 -1      3299 9.52592E-05-2.85809E-05-2.85764E-05 2.41026E-09-4.76797E-19-1.13878E-18
 -1      3300 9.52592E-05-2.85809E-05-2.85764E-05-2.27988E-09 8.38760E-19-2.44742E-18
 -1      3301 9.52522E-05-2.85804E-05-2.85737E-05 2.79731E-08-3.07469E-19 3.32060E-18
 -1      3302 9.52546E-05-2.85812E-05-2.85743E-05 2.44113E-08-1.48971E-19 1.25605E-18
 -1      3303 9.52584E-05-2.85809E-05-2.85761E-05 1.15015E-08-7.83992E-19 5.16581E-19
 -1      3304 9.52590E-05-2.85811E-05-2.85763E-05 6.98953E-09-3.75294E-19 2.56023E-19
 -1      3305 9.52600E-05-2.85742E-05-2.85796E-05 4.49793E-09-6.46941E-20-3.85213E-19
 -1      3306 9.96547E-05-2.99057E-05-2.98893E-05-9.20063E-06 7.30870E-19-1.67862E-18
 -1      3307 9.87052E-05-2.86774E-05-2.99859E-05-8.71240E-06 1.12912E-18-1.66061E-18
 -1      3308 1.20060E-04-1.70982E-05-4.48312E-05-9.16289E-06-6.14067E-18-4.45804E-19
 -1      3309 1.06049E-04-3.69693E-05-2.96122E-05-8.94358E-06-6.49838E-19-1.04747E-18
 -1      3310 1.04055E-04-3.48823E-05-2.95788E-05-9.70860E-06-3.75357E-19-9.70868E-19
 -1      3311 1.05858E-04-3.84588E-05-2.89908E-05-1.07822E-05-8.34873E-19-1.13682E-18
 -1      3312 1.05661E-04-5.08981E-05-2.36991E-05 2.74794E-05-3.55569E-18-1.06694E-18
 -1      3313 9.14050E-05-4.28306E-05-2.04444E-05 3.14809E-05-4.15663E-18 3.85506E-19
 -1      3314 1.29639E-04-4.19119E-05-3.78091E-05-1.05289E-05-2.72194E-18 1.92046E-18
 -1      3315 9.52562E-05-2.85809E-05-2.85752E-05 2.02692E-08-2.75964E-19-1.27120E-18
 -1      3316 9.52576E-05-2.85813E-05-2.85756E-05 1.60135E-08-8.12517E-19-9.02099E-19
 -1      3317 9.52589E-05-2.85747E-05-2.85789E-05 1.33533E-08-5.00681E-19-4.25579E-19
 -1      3318 9.52562E-05-2.85755E-05-2.85774E-05 2.19146E-08 2.64529E-19 5.86689E-19
 -1      3319 1.21720E-04-4.52656E-05-3.28596E-05 5.79712E-06-4.15145E-20 1.68958E-18
 -1      3320 1.20796E-04-4.63437E-05-3.18482E-05 2.59007E-06-4.30534E-19 1.62958E-18
 -1      3321 1.25824E-04-4.72230E-05-3.38557E-05 5.82772E-06-1.05032E-19 1.93513E-18
 -1      3322 1.17122E-04-4.53962E-05-3.08398E-05-1.37260E-06-6.07938E-19 7.75171E-19
 -1      3323 1.14877E-04-4.39740E-05-3.03059E-05-4.14630E-06-6.26738E-19 1.31053E-19
 -1      3324 1.12530E-04-4.39212E-05-2.94107E-05-7.97644E-06-1.17311E-18-3.45047E-19
 -1      3325 1.20025E-04-4.83220E-05-3.08371E-05-2.60792E-06-9.57005E-19 8.02435E-19
 -1      3326 1.05760E-04-5.01560E-05-2.34539E-05-2.81541E-05-3.90448E-18-2.18847E-18
 -1      3327 1.16727E-04-5.56372E-05-2.64993E-05-2.25684E-05-3.15549E-18-7.15610E-19
 -1      3328 1.32079E-04-4.79759E-05-3.59702E-05 6.92213E-06 2.82803E-19 2.45481E-18
 -1      3329 1.30705E-04-4.13026E-05-3.88835E-05 1.14648E-05 1.70749E-18 2.61844E-18
 -1      3330 9.52885E-05-2.38864E-05-3.05893E-05 5.12467E-06-1.33646E-18-3.18417E-18
 -1      3331 9.56493E-05-2.48287E-05-3.03501E-05 6.46670E-06-9.97270E-19-3.00493E-18
 -1      3332 9.40486E-05-2.40405E-05-3.00146E-05 7.20531E-06-6.83182E-19-3.00213E-18
 -1      3333 4.99292E-05-1.54900E-05-1.42615E-05-1.56425E-05-1.35920E-18-6.48414E-18
 -1      3334 6.07810E-05-2.28071E-05-1.61238E-05-2.55841E-05-2.34864E-18-5.67364E-18
 -1      3335 1.02203E-04-3.29596E-05-2.96749E-05-9.69540E-06-3.80553E-20-1.19978E-18
 -1      3336 1.00772E-04-3.13130E-05-2.97247E-05-9.74644E-06 3.08252E-19-1.44886E-18
 -1      3337 1.01326E-04-3.36164E-05-2.90844E-05-1.12091E-05-2.87406E-19-1.67706E-18
 -1      3338 8.11493E-05-3.89567E-05-1.77013E-05-3.49447E-05-3.98518E-18-5.34165E-18
 -1      3339 9.24716E-05-1.79430E-05-3.19408E-05-1.15436E-06-2.01237E-18-5.03216E-18
 -1      3340 4.63846E-05-1.86804E-05-1.12832E-05 2.35751E-05-4.04183E-18 3.38707E-18
 -1      3341 4.11589E-05-1.40993E-05-1.12424E-05 1.25330E-05-3.59809E-18 4.26206E-18
 -1      3342 5.81502E-05-2.30297E-05-1.46243E-05 2.57263E-05-4.35412E-18 2.99161E-18
 -1      3343 6.44612E-05-2.98355E-05-1.43443E-05-3.19130E-05 2.56831E-18 1.55918E-18
 -1      3344 1.32480E-04-5.45435E-05-3.31923E-05-1.52235E-06 1.30094E-18-4.88415E-18
 -1      3345 1.33435E-04-4.95237E-05-3.63768E-05 6.55816E-06 7.28184E-20-4.86909E-18
 -1      3346 1.25743E-04-5.62845E-05-2.94903E-05-1.21632E-05-2.36101E-18 8.96796E-19
 -1      3347 1.31227E-04-5.44964E-05-3.33033E-05-2.15893E-06-9.52462E-19 1.85839E-18
 -1      3348 1.18365E-04-1.31423E-05-4.58639E-05 3.94287E-06-5.44155E-18-2.32348E-18
 -1      3349 1.18760E-04-1.35336E-05-4.54823E-05-2.01857E-06-6.03066E-18-1.56869E-18
 -1      3350 9.06806E-05-4.38487E-05-1.97492E-05-3.30634E-05 3.79905E-18-1.13719E-18
 -1      3351 1.04421E-04-5.16731E-05-2.27529E-05-3.02910E-05 3.75622E-18-2.57776E-18
 -1      3352 9.65143E-05-2.34922E-05-3.12914E-05-1.56655E-06 3.19684E-18-1.63986E-18
 -1      3353 9.47713E-05-2.13890E-05-3.14468E-05-1.00434E-06 3.40721E-18-2.11607E-18
 -1      3354 9.43341E-05-2.17714E-05-3.10951E-05-2.52401E-06 2.95248E-18-2.29886E-18
 -1      3355 9.68073E-05-2.45015E-05-3.09962E-05-3.29264E-06 2.75026E-18-1.75713E-18
 -1      3356 1.30241E-04-4.42591E-05-3.73450E-05-1.08964E-05 9.55268E-19-4.05964E-18
 -1      3357 1.30605E-04-5.08144E-05-3.43574E-05-3.06427E-06 1.61995E-19-4.04720E-18
 -1      3358 4.42533E-05-1.27503E-05-1.31411E-05 6.91098E-06 7.78992E-19-7.38539E-18
 -1      3359 4.41164E-05-1.25391E-05-1.33688E-05-4.92715E-06-3.11860E-19-7.13413E-18
 -1      3360 1.26566E-04-5.62552E-05-3.03630E-05 9.39536E-06-1.35621E-18-3.65076E-18
 -1      3361 1.18394E-04-5.49015E-05-2.68731E-05 1.85614E-05-2.52045E-18-2.47792E-18
 -1      3362 7.58289E-05-3.27295E-05-1.81289E-05-3.14965E-05-3.24130E-18-5.19877E-18
 -1      3363 9.14895E-05-4.30576E-05-2.08133E-05-3.28470E-05-3.89942E-18-4.15078E-18
 -1      3364 6.15473E-05-2.44945E-05-1.55460E-05-2.70230E-05 1.69872E-18 9.97805E-19
 -1      3365 7.62703E-05-3.47992E-05-1.75915E-05-3.32565E-05 2.98637E-18-4.79209E-19
 -1      3366 8.38165E-05-1.16344E-05-3.09495E-05-1.52575E-07 1.31323E-18-5.12696E-18
 -1      3367 8.37869E-05-1.16114E-05-3.09485E-05-5.87689E-09 9.15109E-19-5.27136E-18
 -1      3368 8.42164E-05-1.28038E-05-3.05762E-05-5.99806E-07 1.31506E-18-4.81035E-18
 -1      3369 5.24721E-05-1.48046E-05-1.56941E-05 1.05903E-05 1.29586E-18-6.47726E-18
 -1      3370 1.28281E-04-5.35619E-05-3.20603E-05 1.66414E-06-8.60944E-19-3.49383E-18
 -1      3371 8.81197E-05-1.52061E-05-3.12693E-05 1.04786E-06-5.62590E-19-5.05362E-18
 -1      3372 8.96828E-05-1.65391E-05-3.13581E-05 8.92000E-07-1.01042E-18-5.12831E-18
 -1      3373 8.52255E-05-3.91315E-05-1.95924E-05 3.21653E-05-4.06798E-18 8.95790E-19
 -1      3374 7.77354E-05-3.34778E-05-1.87769E-05 3.01789E-05-3.90069E-18 1.74182E-18
 -1      3375 9.29108E-05-4.08342E-05-2.22549E-05 2.74715E-05-3.75381E-18 2.92094E-19
 -1      3376 4.39757E-05-1.25120E-05-1.28968E-05 4.52832E-06-1.75226E-18 3.62488E-18
 -1      3377 4.89897E-05-1.29573E-05-1.52957E-05-2.20086E-06 8.35188E-20 2.30345E-18
 -1      3378 5.03084E-05-1.44067E-05-1.51437E-05 1.10005E-05-2.08213E-18 2.81257E-18
 -1      3379 9.52546E-05-2.85811E-05-2.85743E-05-2.44368E-08-2.91950E-20-2.61958E-18
 -1      3380 9.52522E-05-2.85803E-05-2.85737E-05-2.79305E-08 3.21671E-19-2.12981E-18
 -1      3381 1.22962E-04-5.31664E-05-3.01149E-05 8.54260E-06 5.94789E-19 9.21572E-19
 -1      3382 8.64151E-05-3.83940E-05-2.02735E-05-2.97194E-05 3.14858E-18-1.20072E-18
 -1      3383 1.30329E-04-4.80206E-05-3.54562E-05-7.61797E-06-1.47881E-18 1.91673E-18
 -1      3384 1.20864E-04-1.86473E-05-4.42246E-05 9.84732E-06-4.40944E-18-3.28751E-18
 -1      3385 1.23334E-04-2.52052E-05-4.27516E-05 1.53493E-05-2.97674E-18-3.58734E-18
 -1      3386 1.28969E-04-3.54826E-05-4.03406E-05 1.32804E-05-1.62652E-18-3.86104E-18
 -1      3387 1.30495E-04-4.30272E-05-3.77210E-05 1.23063E-05-4.37175E-19-4.07079E-18
 -1      3388 5.74112E-05-2.00066E-05-1.55486E-05-2.22131E-05 1.66024E-18 1.81334E-18
 -1      3389 6.78612E-05-2.46557E-05-1.83570E-05-2.39490E-05 2.13605E-18 3.08955E-19
 -1      3390 5.48985E-05-1.66956E-05-1.61862E-05-1.53230E-05 1.05966E-18 2.01890E-18
 -1      3391 7.10307E-05-2.72038E-05-1.84552E-05-2.73122E-05-2.39027E-18-5.11306E-18
 -1      3392 8.08160E-05-3.11095E-05-2.11783E-05-2.58344E-05-2.67767E-18-4.11115E-18
 -1      3393 6.78570E-05-2.21930E-05-1.94601E-05-2.13195E-05-1.51019E-18-4.92126E-18
 -1      3394 1.22760E-04-5.17368E-05-3.04621E-05 4.62941E-06-1.05750E-18-2.78218E-18
 -1      3395 1.16971E-04-1.39699E-05-4.47959E-05-1.90231E-06 5.55622E-18-5.58731E-19
 -1      3396 1.25203E-04-3.79488E-05-3.76071E-05-1.39378E-05 1.28040E-18-4.16391E-18
 -1      3397 1.11063E-04-5.21099E-05-2.50370E-05-2.33788E-05 3.29676E-18-3.44537E-18
 -1      3398 8.57699E-05-1.32677E-05-3.10966E-05-9.80618E-07 2.11827E-18-4.56557E-18
 -1      3399 8.55954E-05-1.39397E-05-3.06806E-05-1.45388E-06 1.84792E-18-4.42697E-18
 -1      3400 8.69321E-05-1.41985E-05-3.11766E-05-9.47339E-07 2.49421E-18-4.23514E-18
 -1      3401 9.52576E-05-2.85813E-05-2.85756E-05-1.60479E-08-3.19720E-19-1.28217E-18
 -1      3402 9.52562E-05-2.85808E-05-2.85752E-05-2.02855E-08-5.13815E-19-1.55089E-18
 -1      3403 9.52562E-05-2.85755E-05-2.85774E-05-2.18847E-08-6.11375E-19-2.55840E-18
 -1      3404 9.71681E-05-2.54354E-05-3.07274E-05-4.68996E-06 2.36488E-18-1.80294E-18
 -1      3405 9.59480E-05-2.41611E-05-3.07663E-05-4.37485E-06 2.57352E-18-2.01985E-18
 -1      3406 9.75410E-05-2.63052E-05-3.05340E-05-5.98797E-06 2.07163E-18-1.98391E-18
 -1      3407 1.20271E-04-5.35784E-05-2.85091E-05-1.39715E-05-2.61257E-18 1.61148E-19
 -1      3408 9.52590E-05-2.85811E-05-2.85763E-05-6.92686E-09 4.79969E-19-2.82610E-18
 -1      3409 9.52584E-05-2.85809E-05-2.85761E-05-1.15152E-08 5.12747E-19-2.68001E-18
 -1      3410 9.52589E-05-2.85748E-05-2.85789E-05-1.33724E-08-4.19315E-19-1.32572E-18
 -1      3411 9.52600E-05-2.85742E-05-2.85796E-05-4.44798E-09 5.31401E-19-2.16016E-18
 -1      3412 9.84269E-05-2.99255E-05-2.94016E-05-1.03707E-05 4.36020E-19-1.94483E-18
 -1      3413 9.94684E-05-4.77604E-05-2.19322E-05 3.15573E-05 2.76419E-18-1.86644E-18
 -1      3414 9.23755E-05-4.21584E-05-2.12969E-05 3.05330E-05 3.16028E-18-2.56400E-18
 -1      3415 1.06227E-04-5.06775E-05-2.39284E-05 2.76003E-05 2.55608E-18-8.00473E-19
 -1      3416 9.83384E-05-2.78930E-05-3.01891E-05-7.88844E-06 1.37002E-18-1.84468E-18
 -1      3417 9.77360E-05-2.69368E-05-3.03239E-05-6.98836E-06 1.69831E-18-1.94720E-18
 -1      3418 9.64690E-05-2.58618E-05-3.02692E-05-6.87074E-06 1.78254E-18-2.02513E-18
 -1      3419 9.70230E-05-2.74922E-05-2.98209E-05-8.80649E-06 1.18151E-18-1.98914E-18
 -1      3420 9.95178E-05-4.47776E-05-2.32726E-05-2.71773E-05-3.42717E-18-2.83992E-18
 -1      3421 1.11644E-04-5.07139E-05-2.59867E-05 1.98804E-05-2.54793E-18-1.27559E-18
 -1      3422 8.67178E-05-1.40051E-05-3.11716E-05 8.78280E-07-2.84464E-19-5.18113E-18
 -1      3423 8.77945E-05-1.57579E-05-3.08530E-05 1.93285E-06-3.76587E-19-4.85935E-18
 -1      3424 8.55828E-05-1.30845E-05-3.10912E-05 8.94009E-07 1.32535E-19-5.18333E-18
 -1      3425 9.49813E-05-2.29437E-05-3.08755E-05 3.82433E-06-1.66365E-18-3.62819E-18
 -1      3426 9.34805E-05-2.20391E-05-3.06218E-05 4.56250E-06-1.21515E-18-3.51043E-18
 -1      3427 9.46091E-05-2.19274E-05-3.11489E-05 2.33270E-06-1.87040E-18-3.91242E-18
 -1      3428 1.28142E-04-4.98938E-05-3.36033E-05 3.05168E-06-5.48341E-19 1.82671E-18
 -1      3429 1.27582E-04-5.45585E-05-3.12885E-05-5.28930E-06 1.83703E-18-4.41392E-18
 -1      3430 5.40416E-05-1.48499E-05-1.63738E-05-9.21914E-06-6.35050E-19-6.16534E-18
 -1      3431 9.30548E-05-1.93896E-05-3.15743E-05 5.10875E-07-1.87162E-18-4.67275E-18
 -1      3432 1.24063E-04-5.71267E-05-2.85636E-05 1.59925E-05 1.11427E-18 2.32061E-19
 -1      3433 8.99372E-05-1.67759E-05-3.13617E-05-9.02756E-07 3.07963E-18-3.44858E-18
 -1      3434 8.83685E-05-1.54520E-05-3.12737E-05-1.07754E-06 2.69809E-18-3.80861E-18
 -1      3435 8.80301E-05-1.59987E-05-3.08539E-05-1.98324E-06 2.39026E-18-3.76533E-18
 -1      3436 9.12485E-05-1.87675E-05-3.10487E-05-2.14446E-06 2.78692E-18-3.04963E-18
 -1      3437 9.52484E-05-2.85779E-05-2.85731E-05 3.19826E-08-3.26734E-19 5.36923E-18
 -1      3438 9.52506E-05-2.85797E-05-2.85733E-05 3.01605E-08-1.60490E-19 4.82340E-18
 -1      3439 9.52527E-05-2.85751E-05-2.85760E-05 2.77792E-08-3.33397E-19 3.58477E-18
 -1      3440 9.52489E-05-2.85738E-05-2.85749E-05 3.14008E-08-8.65943E-19 4.75906E-18
 -1      3441 7.82670E-05-3.23596E-05-1.96299E-05 2.90768E-05 3.22615E-18-3.97478E-18
 -1      3442 6.76284E-05-2.68290E-05-1.69956E-05 2.87236E-05 2.87859E-18-5.47702E-18
 -1      3443 6.50092E-05-2.27027E-05-1.78528E-05 2.34446E-05 2.34157E-18-5.51646E-18
 -1      3444 1.22577E-04-1.86029E-05-4.49907E-05 9.93081E-06 5.00681E-18 1.81752E-18
 -1      3445 1.16351E-04-5.21731E-05-2.73259E-05 1.72965E-05 1.73539E-18-2.06464E-21
 -1      3446 9.31666E-05-2.66305E-05-2.85064E-05 1.16104E-05 1.23994E-19-2.81046E-18
 -1      3447 9.42420E-05-2.83424E-05-2.82028E-05 1.26555E-05 4.25289E-19-2.73090E-18
 -1      3448 9.50529E-05-3.02001E-05-2.77639E-05 1.41459E-05 6.83436E-19-2.39556E-18
 -1      3449 9.70436E-05-3.27306E-05-2.75126E-05 1.49748E-05 1.03762E-18-2.23188E-18
 -1      3450 9.14590E-05-2.76691E-05-2.73824E-05 1.40959E-05 7.55661E-19-2.76074E-18
 -1      3451 9.89973E-05-3.55024E-05-2.71200E-05 1.63773E-05 1.37527E-18-1.78900E-18
 -1      3452 1.02275E-04-3.90224E-05-2.70372E-05 1.66729E-05 1.59597E-18-1.62144E-18
 -1      3453 9.40037E-05-3.25372E-05-2.64438E-05 1.74669E-05 1.38594E-18-2.27481E-18
 -1      3454 8.25459E-05-3.39085E-05-2.06818E-05-2.72756E-05 2.48647E-18-1.91623E-18
 -1      3455 9.50545E-05-4.25324E-05-2.25273E-05-2.77001E-05 3.21581E-18-2.29091E-18
 -1      3456 1.07018E-04-4.34047E-05-2.72025E-05-1.48732E-05 1.64293E-18-2.60456E-18
 -1      3457 1.02908E-04-3.95881E-05-2.70086E-05-1.54731E-05 1.66968E-18-2.15426E-18
 -1      3458 9.98631E-05-3.62789E-05-2.71911E-05-1.45371E-05 1.31578E-18-2.50274E-18
 -1      3459 9.71734E-05-3.33935E-05-2.72755E-05-1.42407E-05 1.26698E-18-2.85993E-18
 -1      3460 9.69789E-05-3.65150E-05-2.60000E-05-1.77656E-05 1.30290E-18-2.14831E-18
 -1      3461 9.56800E-05-3.12338E-05-2.75732E-05-1.30498E-05 1.54396E-18-3.03023E-18
 -1      3462 9.41005E-05-2.93443E-05-2.77355E-05-1.24250E-05 7.64597E-19-2.46824E-18
 -1      3463 9.28145E-05-3.08837E-05-2.66071E-05-1.50556E-05 1.39933E-18-3.10272E-18
 -1      3464 9.35285E-05-2.80729E-05-2.80185E-05-1.12959E-05-2.87590E-19-1.76733E-18
 -1      3465 9.27055E-05-2.69653E-05-2.81739E-05-1.05880E-05-7.69962E-19-1.72874E-18
 -1      3466 9.09307E-05-2.73815E-05-2.72669E-05-1.24307E-05 6.78551E-19-2.25882E-18
 -1      3467 9.26363E-05-2.63162E-05-2.84006E-05-9.62102E-06-1.14749E-18-1.33073E-18
 -1      3468 9.22766E-05-2.57484E-05-2.85184E-05-8.92233E-06-4.95546E-19-1.26722E-18
 -1      3469 9.04079E-05-2.55000E-05-2.78286E-05-1.02250E-05-6.78731E-19-6.03031E-19
 -1      3470 9.24626E-05-2.55040E-05-2.86820E-05-8.10592E-06-7.21559E-19-1.23415E-18
 -1      3471 9.23625E-05-2.52835E-05-2.87569E-05-7.45080E-06-6.95171E-19-1.31228E-18
 -1      3472 9.05896E-05-2.46610E-05-2.82555E-05-8.41425E-06-8.78362E-19-4.87477E-19
 -1      3473 9.26589E-05-2.52858E-05-2.88645E-05-6.75888E-06-1.24503E-19-1.76694E-18
 -1      3474 9.26910E-05-2.52741E-05-2.89022E-05-6.16066E-06 1.37863E-19-2.33428E-18
 -1      3475 9.11067E-05-2.44711E-05-2.85536E-05-6.91584E-06-8.38171E-19 1.67750E-19
 -1      3476 9.30161E-05-2.54140E-05-2.89654E-05-5.57084E-06 2.34807E-20-2.64429E-18
 -1      3477 9.31055E-05-2.55178E-05-2.89751E-05-5.03527E-06-1.70705E-19-2.10014E-18
 -1      3478 9.17460E-05-2.46607E-05-2.87447E-05-5.65820E-06-1.50983E-19-1.72995E-18
 -1      3479 9.34165E-05-2.57243E-05-2.90056E-05-4.53211E-06-7.05307E-19-1.51284E-18
 -1      3480 9.35223E-05-2.58837E-05-2.89961E-05-4.06178E-06-2.23206E-19-1.50274E-18
 -1      3481 9.23907E-05-2.50503E-05-2.88539E-05-4.59180E-06 5.88260E-21-1.27221E-18
 -1      3482 9.37986E-05-2.61125E-05-2.90040E-05-3.63506E-06 2.71529E-19-2.62988E-18
 -1      3483 9.39003E-05-2.62905E-05-2.89827E-05-3.23005E-06 1.03578E-18-2.20227E-18
 -1      3484 9.29820E-05-2.55260E-05-2.89040E-05-3.68607E-06-1.46761E-19-1.84779E-18
 -1      3485 9.41344E-05-2.65149E-05-2.89760E-05-2.87213E-06 1.40981E-18-3.04980E-18
 -1      3486 9.42228E-05-2.66898E-05-2.89487E-05-2.53011E-06 1.13253E-18-2.24113E-18
 -1      3487 9.34941E-05-2.60170E-05-2.89140E-05-2.92141E-06 1.18324E-18-2.77193E-18
 -1      3488 9.44142E-05-2.68952E-05-2.89335E-05-2.23389E-06 8.70410E-19-2.41738E-18
 -1      3489 9.44866E-05-2.70551E-05-2.89042E-05-1.95038E-06 9.74489E-19-2.22492E-18
 -1      3490 9.39203E-05-2.64817E-05-2.88984E-05-2.28288E-06 1.14597E-18-2.07698E-18
 -1      3491 9.46389E-05-2.72346E-05-2.88847E-05-1.70867E-06 1.56737E-18-1.90826E-18
 -1      3492 9.46958E-05-2.73743E-05-2.88561E-05-1.47781E-06 1.65468E-18-1.33547E-18
 -1      3493 9.42642E-05-2.68981E-05-2.88682E-05-1.75650E-06 1.48570E-18-1.24002E-18
 -1      3494 9.48142E-05-2.75263E-05-2.88353E-05-1.28356E-06 1.47581E-18-8.42563E-19
 -1      3495 9.48575E-05-2.76443E-05-2.88089E-05-1.09885E-06 9.93190E-19-1.68207E-19
 -1      3496 9.45352E-05-2.72573E-05-2.88311E-05-1.32868E-06 1.75036E-18-2.23892E-18
 -1      3497 9.49476E-05-2.77696E-05-2.87886E-05-9.45256E-07-7.06005E-20 9.64400E-20
 -1      3498 9.49796E-05-2.78668E-05-2.87652E-05-8.00021E-07 4.98146E-19-2.46093E-19
 -1      3499 9.47440E-05-2.75585E-05-2.87921E-05-9.86367E-07 7.64607E-19-6.32663E-19
 -1      3500 9.50468E-05-2.79677E-05-2.87465E-05-6.80572E-07 7.39845E-19 7.83648E-20
 -1      3501 9.50698E-05-2.80460E-05-2.87265E-05-5.68331E-07 4.06566E-19 6.70344E-20
 -1      3502 9.49017E-05-2.78051E-05-2.87545E-05-7.16912E-07 5.39122E-19-5.23113E-19
 -1      3503 9.51187E-05-2.81257E-05-2.87099E-05-4.76990E-07-2.07434E-19 1.93393E-20
 -1      3504 9.51347E-05-2.81875E-05-2.86932E-05-3.91756E-07-6.75785E-19-1.56475E-19
 -1      3505 9.50181E-05-2.80026E-05-2.87201E-05-5.08290E-07-1.83849E-19-3.31483E-19
 -1      3506 9.51694E-05-2.82492E-05-2.86790E-05-3.23126E-07-4.61486E-19-1.14317E-19
 -1      3507 9.51801E-05-2.82970E-05-2.86653E-05-2.59576E-07-6.13816E-22 4.84326E-20
 -1      3508 9.51019E-05-2.81578E-05-2.86898E-05-3.49484E-07-5.73273E-19 1.98755E-19
 -1      3509 9.52039E-05-2.83439E-05-2.86534E-05-2.08975E-07 5.69117E-20 3.45496E-19
 -1      3510 9.52107E-05-2.83803E-05-2.86424E-05-1.62523E-07-1.49640E-19 3.53855E-20
 -1      3511 9.51607E-05-2.82774E-05-2.86639E-05-2.30741E-07 1.38540E-20-2.17346E-19
 -1      3512 9.52264E-05-2.84153E-05-2.86327E-05-1.25989E-07-1.78059E-19 5.28779E-19
 -1      3513 9.52305E-05-2.84423E-05-2.86240E-05-9.27886E-08 2.44211E-19 3.51156E-19
 -1      3514 9.52005E-05-2.83680E-05-2.86423E-05-1.43659E-07 3.56693E-20 3.39855E-19
 -1      3515 9.52402E-05-2.84679E-05-2.86162E-05-6.70455E-08 7.96302E-19 1.29268E-18
 -1      3516 9.52423E-05-2.84878E-05-2.86095E-05-4.39475E-08 4.55950E-19 1.54002E-18
 -1      3517 9.52262E-05-2.84352E-05-2.86246E-05-8.11796E-08 5.92668E-19 1.99775E-18
 -1      3518 9.52478E-05-2.85061E-05-2.86032E-05-2.63526E-08 1.72106E-19 2.42476E-18
 -1      3519 9.52485E-05-2.85204E-05-2.85980E-05-1.08446E-08 1.02705E-19 2.48742E-18
 -1      3520 9.52417E-05-2.84841E-05-2.86103E-05-3.75024E-08 4.77154E-19 2.42180E-18
 -1      3521 9.52512E-05-2.85334E-05-2.85931E-05 6.83516E-10 5.11656E-19 2.30297E-18
 -1      3522 9.52511E-05-2.85436E-05-2.85891E-05 1.05567E-08 8.63054E-19 2.87184E-18
 -1      3523 9.52500E-05-2.85192E-05-2.85989E-05-7.99331E-09 7.64613E-19 2.18167E-18
 -1      3524 9.52518E-05-2.85527E-05-2.85852E-05 1.77034E-08 8.83114E-19 4.82404E-18
 -1      3525 9.52514E-05-2.85600E-05-2.85821E-05 2.32626E-08 1.72449E-18 6.06293E-18
 -1      3526 9.52534E-05-2.85439E-05-2.85898E-05 1.10419E-08 2.03982E-18 3.41707E-18
 -1      3527 1.26848E-04-3.57194E-05-3.93115E-05 1.33064E-05 2.25703E-18 2.78647E-18
 -1      3528 1.18816E-04-5.00340E-05-2.93311E-05 7.97272E-06-1.42436E-18-2.47144E-18
 -1      3529 9.12245E-05-1.90076E-05-3.09365E-05 2.65796E-06-1.03207E-18-4.45426E-18
 -1      3530 9.16444E-05-1.85361E-05-3.13366E-05 1.39222E-06-1.36299E-18-4.58917E-18
 -1      3531 1.01330E-04-3.59216E-05-2.79540E-05 1.25378E-05-9.55332E-19-8.37901E-19
 -1      3532 1.04196E-04-3.87931E-05-2.80053E-05 1.21516E-05-6.79463E-19-1.13489E-18
 -1      3533 9.72965E-05-3.14574E-05-2.81826E-05 1.17403E-05-9.08899E-19-6.42647E-19
 -1      3534 9.91818E-05-3.35192E-05-2.81083E-05 1.19328E-05-7.56377E-19-6.94388E-19
 -1      3535 9.71181E-05-3.37903E-05-2.72271E-05 1.41459E-05-1.10791E-18-3.39902E-19
 -1      3536 9.50846E-05-2.86041E-05-2.84792E-05 1.04553E-05-7.30391E-19-1.01749E-18
 -1      3537 9.62083E-05-2.99176E-05-2.83813E-05 1.09124E-05-7.79145E-19-6.45154E-19
 -1      3538 9.40531E-05-2.96255E-05-2.76566E-05 1.23222E-05-7.18451E-19-1.21971E-18
 -1      3539 9.40224E-05-2.69702E-05-2.87356E-05 9.06345E-06-1.34949E-18-1.30426E-18
 -1      3540 9.46360E-05-2.77217E-05-2.86559E-05 9.62697E-06-1.04029E-18-9.61010E-19
 -1      3541 9.26288E-05-2.71484E-05-2.80845E-05 1.04910E-05-6.72570E-19-1.52970E-18
 -1      3542 9.36400E-05-2.61782E-05-2.89169E-05 7.70984E-06-2.91609E-19-1.22980E-18
 -1      3543 9.39409E-05-2.65451E-05-2.88684E-05 8.29937E-06-8.04230E-19-1.03101E-18
 -1      3544 9.21649E-05-2.58408E-05-2.84329E-05 8.82399E-06-1.38278E-18-2.35616E-18
 -1      3545 9.36277E-05-2.59251E-05-2.90225E-05 6.45424E-06-5.60681E-19-2.29449E-19
 -1      3546 9.37502E-05-2.60475E-05-2.90042E-05 7.02679E-06-1.09631E-19-1.42808E-19
 -1      3547 9.22295E-05-2.53067E-05-2.86822E-05 7.35546E-06-7.72538E-19-8.04757E-19
 -1      3548 9.37938E-05-2.59905E-05-2.90663E-05 5.32115E-06-1.36874E-18-1.54403E-19
 -1      3549 9.38225E-05-2.59691E-05-2.90715E-05 5.85288E-06-8.04261E-19-9.97536E-20
 -1      3550 9.25520E-05-2.52514E-05-2.88406E-05 6.07460E-06-7.39189E-19 9.98942E-19
 -1      3551 9.40279E-05-2.62264E-05-2.90654E-05 4.31979E-06-8.67748E-19-6.00417E-20
 -1      3552 9.40123E-05-2.61281E-05-2.90864E-05 4.79765E-06-1.03821E-18-1.29926E-19
 -1      3553 9.29725E-05-2.54682E-05-2.89266E-05 4.96244E-06-1.33992E-18-3.60240E-20
 -1      3554 9.42703E-05-2.65379E-05-2.90351E-05 3.45195E-06 9.96589E-19-9.24493E-19
 -1      3555 9.42377E-05-2.64052E-05-2.90653E-05 3.86983E-06 2.59740E-19 9.82489E-20
 -1      3556 9.34026E-05-2.58211E-05-2.89596E-05 4.00329E-06-1.62312E-20-4.35929E-19
 -1      3557 9.44918E-05-2.68675E-05-2.89878E-05 2.71414E-06-6.23293E-19-7.08699E-19
 -1      3558 9.44560E-05-2.67261E-05-2.90222E-05 3.07084E-06 3.47507E-19-3.40602E-19
 -1      3559 9.37977E-05-2.62247E-05-2.89564E-05 3.18488E-06 3.30452E-19-1.67131E-19
 -1      3560 9.46805E-05-2.71822E-05-2.89329E-05 2.09877E-06-9.28612E-19-3.78011E-19
 -1      3561 9.46481E-05-2.70468E-05-2.89677E-05 2.39659E-06-5.44486E-19-1.27153E-19
 -1      3562 9.41385E-05-2.66272E-05-2.89305E-05 2.49613E-06-5.59599E-19 1.34455E-18
 -1      3563 9.48337E-05-2.74645E-05-2.88767E-05 1.59484E-06-1.10942E-18-1.13799E-18
 -1      3564 9.48071E-05-2.73428E-05-2.89095E-05 1.83857E-06-1.06665E-18-9.88295E-19
 -1      3565 9.44200E-05-2.69996E-05-2.88922E-05 1.92557E-06-5.59989E-19-6.23757E-19
 -1      3566 9.49539E-05-2.77074E-05-2.88233E-05 1.18927E-06-9.92793E-19-1.13778E-18
 -1      3567 9.49333E-05-2.76026E-05-2.88529E-05 1.38506E-06-1.04982E-18-9.63897E-19
 -1      3568 9.46450E-05-2.73276E-05-2.88486E-05 1.46036E-06-1.12328E-18-1.42089E-18
 -1      3569 9.50454E-05-2.79101E-05-2.87749E-05 8.68430E-07-1.48853E-18-1.20402E-18
 -1      3570 9.50302E-05-2.78226E-05-2.88006E-05 1.02289E-06-1.30701E-18-1.20490E-18
 -1      3571 9.48200E-05-2.76063E-05-2.88046E-05 1.08704E-06-1.45900E-18-1.11472E-18
 -1      3572 9.51133E-05-2.80751E-05-2.87327E-05 6.18973E-07-1.25591E-19-1.25628E-18
 -1      3573 9.51026E-05-2.80038E-05-2.87545E-05 7.38684E-07-8.57452E-19-1.27742E-18
 -1      3574 9.49530E-05-2.78369E-05-2.87632E-05 7.92368E-07-1.12499E-18-1.61385E-18
 -1      3575 9.51622E-05-2.82063E-05-2.86969E-05 4.28375E-07-2.08314E-19-5.49999E-19
 -1      3576 9.51550E-05-2.81496E-05-2.87149E-05 5.19512E-07 1.84441E-19-5.99202E-19
 -1      3577 9.50516E-05-2.80231E-05-2.87259E-05 5.63663E-07-4.27847E-19-5.84807E-19
 -1      3578 9.51964E-05-2.83087E-05-2.86673E-05 2.85355E-07-6.71608E-19 3.66312E-19
 -1      3579 9.51919E-05-2.82644E-05-2.86818E-05 3.53467E-07-2.94736E-19-1.37368E-19
 -1      3580 9.51229E-05-2.81705E-05-2.86935E-05 3.89171E-07-4.51441E-19 3.64530E-19
 -1      3581 9.52195E-05-2.83870E-05-2.86433E-05 1.80084E-07-1.02086E-18 1.19158E-18
 -1      3582 9.52168E-05-2.83531E-05-2.86548E-05 2.29990E-07-4.71023E-19 9.95648E-19
 -1      3583 9.51730E-05-2.82847E-05-2.86662E-05 2.58401E-07-9.23065E-19 1.17045E-18
 -1      3584 9.52342E-05-2.84458E-05-2.86242E-05 1.04245E-07-2.06756E-19-1.36287E-19
 -1      3585 9.52329E-05-2.84203E-05-2.86332E-05 1.40005E-07-4.04191E-19 4.79144E-19
 -1      3586 9.52069E-05-2.83717E-05-2.86435E-05 1.62268E-07-5.91436E-19 7.95819E-19
 -1      3587 9.52429E-05-2.84891E-05-2.86092E-05 5.09614E-08 6.94966E-19-5.56913E-19
 -1      3588 9.52426E-05-2.84703E-05-2.86161E-05 7.59190E-08 4.41991E-19-4.39128E-19
 -1      3589 9.52288E-05-2.84366E-05-2.86252E-05 9.31082E-08 7.12381E-19-3.61537E-20
 -1      3590 9.52474E-05-2.85203E-05-2.85976E-05 1.46817E-08 6.83975E-19-2.20786E-18
 -1      3591 9.52476E-05-2.85067E-05-2.86028E-05 3.15206E-08 9.08849E-19-1.84788E-18
 -1      3592 9.52420E-05-2.84841E-05-2.86105E-05 4.46080E-08 1.67229E-18-1.77506E-18
 -1      3593 9.52491E-05-2.85426E-05-2.85887E-05-8.95065E-09 4.48040E-19-3.50699E-18
 -1      3594 9.52496E-05-2.85328E-05-2.85926E-05 1.84717E-09 4.14543E-19-3.01191E-18
 -1      3595 9.52490E-05-2.85182E-05-2.85989E-05 1.16546E-08 1.18759E-18-3.85556E-18
 -1      3596 9.52492E-05-2.85586E-05-2.85818E-05-2.31879E-08 1.29681E-18-3.61308E-18
 -1      3597 9.52498E-05-2.85514E-05-2.85848E-05-1.69458E-08 5.94773E-19-3.93690E-18
 -1      3598 9.52519E-05-2.85425E-05-2.85898E-05-9.76315E-09 4.60777E-19-4.19072E-18
 -1      3599 9.52482E-05-2.85700E-05-2.85764E-05-3.06887E-08 8.44879E-19-3.25038E-18
 -1      3600 9.52487E-05-2.85646E-05-2.85787E-05-2.75836E-08 1.24676E-18-3.09971E-18
 -1      3601 9.52522E-05-2.85595E-05-2.85826E-05-2.23734E-08 1.20688E-18-4.50738E-18
 -1      3602 1.25972E-04-5.16205E-05-3.16012E-05-1.52343E-06-1.09339E-18 1.32587E-18
 -1      3603 5.79477E-05-1.66584E-05-1.75388E-05 1.48967E-05 1.63639E-18-5.74754E-18
 -1      3604 5.44016E-05-1.37351E-05-1.73617E-05 6.05773E-06 8.28673E-19-5.89223E-18
 -1      3605 9.68523E-05-2.94436E-05-2.88640E-05-1.13550E-05 2.35176E-19-2.09754E-18
 -1      3606 9.57174E-05-2.78168E-05-2.90800E-05-1.06009E-05 5.83716E-19-2.07679E-18
 -1      3607 9.52501E-05-2.85810E-05-2.85725E-05-3.05076E-08 3.67899E-19-3.58183E-18
 -1      3608 9.52473E-05-2.85799E-05-2.85717E-05-3.25680E-08-1.38844E-19-3.65558E-18
 -1      3609 9.52472E-05-2.85774E-05-2.85728E-05-3.29876E-08-1.92133E-19-2.83908E-18
 -1      3610 9.52521E-05-2.85766E-05-2.85752E-05-2.85993E-08 6.85125E-19-2.75828E-18
 -1      3611 1.05632E-04-4.80608E-05-2.44270E-05-2.38811E-05 3.59346E-18-2.92713E-18
 -1      3612 1.15038E-04-5.29036E-05-2.69145E-05-1.83419E-05 2.78923E-18-4.09584E-18
 -1      3613 9.99028E-05-3.35532E-05-2.84023E-05-1.27333E-05-7.23250E-19-1.81886E-18
 -1      3614 9.80048E-05-3.12872E-05-2.85530E-05-1.24112E-05-2.35636E-19-2.02469E-18
 -1      3615 9.48384E-05-2.91909E-05-2.81865E-05-1.28345E-05-6.88189E-20-2.07427E-18
 -1      3616 9.52601E-05-2.85667E-05-2.85829E-05 6.07286E-09-1.41077E-20-4.17895E-19
 -1      3617 9.52603E-05-2.85665E-05-2.85831E-05 1.95357E-09 3.80391E-19-1.75531E-18
 -1      3618 1.14958E-04-5.12287E-05-2.70091E-05-1.80213E-05-2.70933E-18-4.32513E-19
 -1      3619 1.21526E-04-5.31238E-05-2.96067E-05-9.87351E-06-1.89970E-18 6.50045E-19
 -1      3620 1.20997E-04-5.08521E-05-3.01233E-05-6.53206E-06-1.50041E-18 4.71612E-19
 -1      3621 9.39791E-05-3.95541E-05-2.31792E-05-2.61375E-05-3.04437E-18-3.31044E-18
 -1      3622 1.05384E-04-4.67629E-05-2.53356E-05-2.31638E-05-2.93476E-18-1.76516E-18
 -1      3623 1.05215E-04-3.91471E-05-2.82416E-05-1.29338E-05-1.20074E-18-1.34273E-18
 -1      3624 1.02120E-04-3.61841E-05-2.81782E-05-1.34608E-05-1.13345E-18-1.64617E-18
 -1      3625 9.80636E-05-3.38906E-05-2.75629E-05-1.50700E-05-9.20434E-19-2.29957E-18
 -1      3626 1.07827E-04-4.19759E-05-2.80661E-05 1.19760E-05-1.02016E-18-1.52853E-18
 -1      3627 1.11570E-04-4.53375E-05-2.83960E-05 1.06410E-05-1.25647E-18-1.92860E-18
 -1      3628 1.02704E-04-3.99648E-05-2.70253E-05 1.52568E-05-1.37675E-18-7.05949E-19
 -1      3629 1.13392E-04-4.89440E-05-2.77796E-05 1.38829E-05-1.60983E-18-1.68149E-18
 -1      3630 1.22702E-04-5.39152E-05-2.92155E-05-1.00014E-05 2.33927E-18-4.08437E-18
 -1      3631 9.20833E-05-2.21505E-05-2.99720E-05 6.34968E-06-5.99205E-19-3.55763E-18
 -1      3632 9.23664E-05-2.31669E-05-2.96469E-05 7.68036E-06-4.06198E-19-3.47730E-18
 -1      3633 8.40872E-05-1.18580E-05-3.09738E-05 4.43341E-07 6.53513E-19-5.41427E-18
 -1      3634 8.46730E-05-1.23210E-05-3.10198E-05 5.44650E-07 2.59181E-19-5.33037E-18
 -1      3635 8.53911E-05-1.37622E-05-3.06745E-05 1.31795E-06 1.46766E-19-5.12050E-18
 -1      3636 6.84371E-05-2.71789E-05-1.73796E-05 2.82444E-05-3.66066E-18 2.65047E-18
 -1      3637 5.95536E-05-2.08702E-05-1.64029E-05 2.21045E-05-3.37739E-18 2.77012E-18
 -1      3638 7.87136E-05-3.11014E-05-2.01403E-05 2.62826E-05-3.30004E-18 1.50232E-18
 -1      3639 9.23959E-05-2.41515E-05-2.92455E-05 9.02766E-06-3.80474E-19-3.27105E-18
 -1      3640 9.29244E-05-2.53672E-05-2.89300E-05 1.02123E-05-1.46603E-19-3.11352E-18
 -1      3641 9.05591E-05-2.45342E-05-2.83125E-05 1.10341E-05 1.01720E-19-3.15351E-18
 -1      3642 5.57590E-05-1.32111E-05-1.79318E-05-2.78992E-06 4.80344E-21-5.73552E-18
 -1      3643 5.99773E-05-1.61713E-05-1.87267E-05-1.23779E-05-8.53075E-19-5.37509E-18
 -1      3644 9.46723E-05-2.29031E-05-3.07559E-05-4.02163E-06 2.61587E-18-2.20689E-18
 -1      3645 9.33471E-05-2.14981E-05-3.07888E-05-3.65728E-06 2.63656E-18-2.48539E-18
 -1      3646 9.50099E-05-2.39198E-05-3.04699E-05-5.46599E-06 2.26223E-18-2.14414E-18
 -1      3647 1.03736E-04-4.43395E-05-2.52417E-05 2.08720E-05-2.63441E-18-1.30992E-19
 -1      3648 1.17400E-04-5.09834E-05-2.83921E-05-1.18194E-05 2.39141E-18-3.46753E-18
 -1      3649 9.03634E-05-2.22794E-05-2.91871E-05 8.23102E-06-2.81228E-19-3.63723E-18
 -1      3650 5.75269E-05-1.72227E-05-1.68890E-05 1.63833E-05-2.34105E-18 2.28561E-18
 -1      3651 5.74763E-05-1.52880E-05-1.80377E-05 9.74374E-06-8.57594E-19 1.94473E-18
 -1      3652 6.63182E-05-2.09921E-05-1.92567E-05 1.89909E-05-1.90928E-18 1.87499E-18
 -1      3653 6.65130E-05-1.67934E-05-2.12991E-05-1.03919E-05-3.71305E-19-4.78934E-18
 -1      3654 6.61988E-05-1.86886E-05-2.00924E-05-1.59484E-05-1.05019E-18-4.99878E-18
 -1      3655 7.33050E-05-2.22514E-05-2.18666E-05-1.78485E-05-1.30519E-18-4.23186E-18
 -1      3656 5.36723E-05-1.40039E-05-1.65160E-05-9.27445E-06 4.35454E-19 2.39859E-18
 -1      3657 6.05752E-05-1.74344E-05-1.84318E-05-1.43122E-05 1.26410E-18 1.12160E-18
 -1      3658 5.49498E-05-1.38291E-05-1.75364E-05-2.82130E-06-1.89391E-20 1.81797E-18
 -1      3659 1.01173E-04-4.37103E-05-2.44541E-05-2.27001E-05 3.15064E-18-3.05574E-18
 -1      3660 7.65815E-05-2.91025E-05-2.00994E-05-2.57993E-05 2.33276E-18-1.46547E-18
 -1      3661 8.51460E-05-3.31076E-05-2.21388E-05-2.42026E-05 2.49951E-18-2.51070E-18
 -1      3662 7.10818E-05-2.45505E-05-1.98796E-05-2.19317E-05 2.19491E-18-3.26822E-19
 -1      3663 1.06268E-04-4.31388E-05-2.68667E-05 1.76215E-05 1.76377E-18-1.22663E-18
 -1      3664 1.11277E-04-4.73346E-05-2.72770E-05 1.63064E-05 1.70882E-18-7.40823E-19
 -1      3665 8.41409E-05-1.27396E-05-3.05732E-05 4.04957E-07 7.38478E-19-5.05421E-18
 -1      3666 7.19886E-05-2.40846E-05-2.04966E-05 2.17340E-05 2.38121E-18-4.56397E-18
 -1      3667 6.40735E-05-1.96428E-05-1.87694E-05 1.88308E-05 1.96168E-18-5.30351E-18
 -1      3668 6.59444E-05-1.84130E-05-2.01819E-05 1.47701E-05 1.42099E-18-5.10627E-18
 -1      3669 1.12114E-04-4.74349E-05-2.75108E-05-1.43830E-05 2.05922E-18-3.74242E-18
 -1      3670 1.05672E-04-4.18885E-05-2.73032E-05-1.58732E-05-1.69387E-18-1.40335E-18
 -1      3671 1.00772E-04-3.94036E-05-2.63221E-05-1.88828E-05-1.98338E-18-2.17584E-18
 -1      3672 9.52505E-05-2.85650E-05-2.85794E-05 2.67657E-08 4.50076E-19 5.83723E-18
 -1      3673 9.52499E-05-2.85699E-05-2.85772E-05 2.93112E-08-6.61858E-19 4.87810E-18
 -1      3674 9.52519E-05-2.85705E-05-2.85779E-05 2.77627E-08-7.66229E-19 5.18583E-18
 -1      3675 9.52536E-05-2.85601E-05-2.85830E-05 2.16175E-08 5.98023E-19 4.79504E-18
 -1      3676 1.09189E-04-4.67933E-05-2.66023E-05-1.84059E-05-2.50329E-18-1.26713E-18
 -1      3677 9.52534E-05-2.85714E-05-2.85780E-05-2.63334E-08 4.53264E-19-3.70718E-18
 -1      3678 9.52509E-05-2.85721E-05-2.85767E-05-2.91469E-08 6.34192E-19-3.67965E-18
 -1      3679 8.94683E-05-1.80947E-05-3.05897E-05 3.31780E-06-5.99935E-19-4.45353E-18
 -1      3680 9.14244E-05-2.00897E-05-3.05802E-05 3.88186E-06-9.07293E-19-4.13247E-18
 -1      3681 9.17291E-05-2.10881E-05-3.02692E-05 5.20535E-06-7.60297E-19-3.86976E-18
 -1      3682 9.52604E-05-2.85579E-05-2.85866E-05-1.11595E-10 7.23588E-19-2.26501E-18
 -1      3683 9.52603E-05-2.85664E-05-2.85831E-05-1.91972E-09 7.04407E-19-1.52856E-18
 -1      3684 9.52601E-05-2.85667E-05-2.85829E-05-6.08115E-09 2.36053E-19-2.61864E-18
 -1      3685 9.52471E-05-2.85746E-05-2.85739E-05-3.25526E-08 4.55269E-19-3.24315E-18
 -1      3686 8.78216E-05-1.67923E-05-3.04523E-05 2.89111E-06-3.49372E-19-4.57977E-18
 -1      3687 8.80299E-05-1.78074E-05-3.00778E-05 4.03177E-06-3.15301E-19-4.30667E-18
 -1      3688 8.64092E-05-1.56166E-05-3.03466E-05 2.60353E-06-5.36075E-21-4.67931E-18
 -1      3689 1.04804E-04-4.45902E-05-2.59417E-05-1.92663E-05 2.33438E-18-2.51668E-18
 -1      3690 9.32947E-05-2.59378E-05-2.88870E-05-1.03700E-05 7.67368E-19-2.10432E-18
 -1      3691 9.51875E-05-2.65279E-05-2.94098E-05-9.42173E-06 9.01996E-19-2.18027E-18
 -1      3692 9.52597E-05-2.85675E-05-2.85824E-05 1.00616E-08-2.19057E-19-1.16977E-19
 -1      3693 9.52601E-05-2.85588E-05-2.85861E-05 7.26268E-09 5.41121E-19-3.10987E-19
 -1      3694 9.52588E-05-2.85678E-05-2.85819E-05 1.41295E-08-1.91170E-19-1.01449E-18
 -1      3695 1.16487E-04-4.85367E-05-2.90808E-05-9.82746E-06-1.75308E-18-2.81903E-20
 -1      3696 9.48150E-05-2.56103E-05-2.96532E-05-8.51163E-06 1.28084E-18-2.22647E-18
 -1      3697 8.79155E-05-3.67554E-05-2.15223E-05 2.86200E-05 3.21540E-18-2.95591E-18
 -1      3698 8.24842E-05-3.22001E-05-2.14851E-05 2.62511E-05 2.76793E-18-3.45886E-18
 -1      3699 8.83634E-05-3.46130E-05-2.29038E-05-2.52448E-05-2.67255E-18-3.69913E-18
 -1      3700 9.50460E-05-3.67777E-05-2.48354E-05-2.14658E-05-2.46274E-18-2.66920E-18
 -1      3701 8.28578E-05-2.92460E-05-2.29919E-05-2.21216E-05-1.79339E-18-3.52626E-18
 -1      3702 9.52579E-05-2.85694E-05-2.85809E-05-1.82752E-08-8.38561E-20-1.24612E-18
 -1      3703 9.52559E-05-2.85696E-05-2.85799E-05-2.20500E-08-1.80958E-20-3.17859E-18
 -1      3704 6.03582E-05-1.44351E-05-1.94702E-05 1.73779E-06 4.86349E-19-5.32763E-18
 -1      3705 9.49200E-05-4.08322E-05-2.29080E-05 2.70525E-05 2.96295E-18-2.10332E-18
 -1      3706 9.00003E-05-2.02236E-05-2.99120E-05 5.68594E-06-3.95505E-19-4.00195E-18
 -1      3707 1.08075E-04-4.91101E-05-2.52149E-05 2.37103E-05 2.30721E-18-8.33136E-19
 -1      3708 9.15669E-05-1.99908E-05-3.06852E-05-3.60795E-06 2.53655E-18-2.89111E-18
 -1      3709 8.41349E-05-1.37820E-05-3.01610E-05-1.13515E-06 1.35933E-18-4.47454E-18
 -1      3710 8.37315E-05-1.34739E-05-3.01305E-05-5.90246E-07 1.01974E-18-4.76850E-18
 -1      3711 8.59567E-05-1.52467E-05-3.03051E-05-2.34627E-06 1.91180E-18-4.16232E-18
 -1      3712 8.49043E-05-1.44306E-05-3.02299E-05-1.94931E-06 1.56723E-18-4.29958E-18
 -1      3713 8.44541E-05-1.49080E-05-2.97748E-05-2.02242E-06 1.29128E-18-4.16386E-18
 -1      3714 9.52537E-05-2.85706E-05-2.85785E-05 2.58160E-08-4.93469E-19 2.50208E-18
 -1      3715 9.52551E-05-2.85710E-05-2.85790E-05 2.38763E-08-6.71445E-20 1.39011E-18
 -1      3716 9.52545E-05-2.85655E-05-2.85809E-05 2.34967E-08-7.69521E-19 2.17293E-18
 -1      3717 9.52549E-05-2.85647E-05-2.85815E-05-2.28177E-08 1.02955E-18-3.97948E-18
 -1      3718 9.93041E-05-3.95948E-05-2.57315E-05 2.06086E-05 1.82626E-18-1.72481E-18
 -1      3719 9.52574E-05-2.85707E-05-2.85800E-05 1.97422E-08-1.91905E-19-6.48033E-19
 -1      3720 8.76009E-05-2.45250E-05-2.70555E-05 1.29280E-05 7.12463E-19-3.11635E-18
 -1      3721 8.83858E-05-2.63012E-05-2.65420E-05 1.45797E-05 9.83846E-19-2.99373E-18
 -1      3722 8.78858E-05-2.21908E-05-2.81727E-05 9.71363E-06 1.44234E-19-3.26159E-18
 -1      3723 8.80919E-05-2.33815E-05-2.76972E-05 1.11577E-05 4.93652E-19-3.13807E-18
 -1      3724 8.48669E-05-2.20526E-05-2.69026E-05 1.15585E-05 5.79053E-19-3.24123E-18
 -1      3725 8.81201E-05-2.79285E-05-2.57817E-05 1.68954E-05 1.34973E-18-2.92122E-18
 -1      3726 8.98853E-05-3.08455E-05-2.52517E-05 1.89192E-05 1.77382E-18-2.79803E-18
 -1      3727 8.40031E-05-2.47336E-05-2.54219E-05 1.57301E-05 1.25635E-18-3.28461E-18
 -1      3728 9.52582E-05-2.85630E-05-2.85836E-05 1.65275E-08-2.39002E-19-1.01185E-18
 -1      3729 9.61029E-05-3.90295E-05-2.43271E-05-2.20952E-05 2.29150E-18-2.31162E-18
 -1      3730 9.15442E-05-2.10217E-05-3.02244E-05-5.09855E-06 2.12560E-18-2.80965E-18
 -1      3731 8.95399E-05-1.84032E-05-3.04791E-05-3.54949E-06 2.47298E-18-3.20372E-18
 -1      3732 1.12704E-04-4.60464E-05-2.86144E-05-1.19021E-05-1.56659E-18-6.16078E-19
 -1      3733 8.92470E-05-2.93929E-05-2.55866E-05-1.61370E-05 1.32462E-18-1.94242E-18
 -1      3734 8.78921E-05-2.72627E-05-2.59878E-05-1.45759E-05 1.60546E-18-1.96642E-18
 -1      3735 8.81306E-05-2.60933E-05-2.65340E-05-1.27542E-05 1.40488E-18-1.96614E-18
 -1      3736 8.75903E-05-2.49379E-05-2.68746E-05-1.15195E-05 7.02831E-19-1.69212E-18
 -1      3737 8.43621E-05-2.47015E-05-2.55817E-05-1.35659E-05 1.42512E-18-7.76486E-19
 -1      3738 8.81376E-05-2.43841E-05-2.72915E-05-1.01953E-05 1.89159E-19-1.35246E-18
 -1      3739 8.80918E-05-2.38418E-05-2.75588E-05-9.21463E-06-4.43839E-19-5.69237E-19
 -1      3740 8.52649E-05-2.31651E-05-2.66062E-05-1.04210E-05 1.01293E-18-1.13169E-18
 -1      3741 8.87478E-05-2.36901E-05-2.78639E-05-8.23415E-06-1.13972E-18-1.59511E-19
 -1      3742 8.89508E-05-2.35294E-05-2.80573E-05-7.44287E-06-1.08200E-18-7.96662E-19
 -1      3743 8.65222E-05-2.26353E-05-2.73667E-05-8.16459E-06-3.76213E-19 1.28440E-20
 -1      3744 8.96143E-05-2.36238E-05-2.82714E-05-6.69259E-06-1.05102E-18 4.61620E-19
 -1      3745 8.99229E-05-2.36903E-05-2.84016E-05-6.04028E-06-5.40389E-19 2.89656E-19
 -1      3746 8.78611E-05-2.27000E-05-2.79118E-05-6.50064E-06-6.55004E-19 5.54522E-19
 -1      3747 9.05407E-05-2.39213E-05-2.85452E-05-5.44629E-06-8.72798E-19-1.99135E-19
 -1      3748 9.08746E-05-2.41124E-05-2.86258E-05-4.89729E-06-4.25380E-19-4.95608E-19
 -1      3749 8.91462E-05-2.31096E-05-2.82880E-05-5.22475E-06-8.57840E-19 8.09592E-19
 -1      3750 9.14246E-05-2.44102E-05-2.87168E-05-4.41347E-06 2.30820E-19-8.00427E-19
 -1      3751 9.17420E-05-2.46602E-05-2.87607E-05-3.94720E-06 1.30254E-19-4.36183E-19
 -1      3752 9.03108E-05-2.36987E-05-2.85364E-05-4.20732E-06-4.04477E-19 1.71650E-18
 -1      3753 9.22154E-05-2.49783E-05-2.88133E-05-3.54741E-06-4.04268E-19-6.28989E-19
 -1      3754 9.24968E-05-2.52458E-05-2.88313E-05-3.15148E-06 5.86917E-20-6.35187E-19
 -1      3755 9.13285E-05-2.43609E-05-2.86904E-05-3.37484E-06 3.04583E-20 1.14431E-18
 -1      3756 9.28935E-05-2.55558E-05-2.88570E-05-2.82017E-06 1.05672E-18-8.84224E-19
 -1      3757 9.31317E-05-2.58152E-05-2.88578E-05-2.48674E-06 1.42448E-18-5.01460E-19
 -1      3758 9.21924E-05-2.50277E-05-2.87766E-05-2.68529E-06 4.07829E-19 1.59111E-18
 -1      3759 9.34564E-05-2.60996E-05-2.88655E-05-2.21347E-06 8.44788E-19-1.24328E-18
 -1      3760 9.36511E-05-2.63363E-05-2.88556E-05-1.93587E-06 8.22083E-19-7.63514E-19
 -1      3761 9.29079E-05-2.56558E-05-2.88156E-05-2.11375E-06 7.77526E-19 4.45266E-19
 -1      3762 9.39114E-05-2.65866E-05-2.88519E-05-1.71220E-06 9.91154E-19-1.43809E-18
 -1      3763 9.40664E-05-2.67938E-05-2.88363E-05-1.48407E-06 1.33815E-18-1.86334E-18
 -1      3764 9.34876E-05-2.62197E-05-2.88237E-05-1.64237E-06 5.57073E-19-1.28040E-18
 -1      3765 9.42715E-05-2.70075E-05-2.88260E-05-1.30295E-06 1.60078E-18-2.45876E-18
 -1      3766 9.43921E-05-2.71836E-05-2.88078E-05-1.11833E-06 1.48156E-18-2.92534E-18
 -1      3767 9.39486E-05-2.67093E-05-2.88127E-05-1.25671E-06 1.30816E-18-2.66865E-18
 -1      3768 9.45508E-05-2.73616E-05-2.87941E-05-9.73847E-07 1.71249E-18-2.76880E-18
 -1      3769 9.46427E-05-2.75075E-05-2.87756E-05-8.26870E-07 1.15472E-18-2.28262E-18
 -1      3770 9.43091E-05-2.71232E-05-2.87908E-05-9.45214E-07 1.60002E-18-4.79013E-18
 -1      3771 9.47632E-05-2.76525E-05-2.87606E-05-7.13430E-07 4.48771E-19-1.31335E-18
 -1      3772 9.48317E-05-2.77707E-05-2.87430E-05-5.98314E-07 7.80459E-19-1.30456E-18
 -1      3773 9.45857E-05-2.74653E-05-2.87635E-05-6.97582E-07 1.13744E-18-4.75263E-18
 -1      3774 9.49213E-05-2.78865E-05-2.87283E-05-5.10631E-07 6.88402E-19-1.36321E-18
 -1      3775 9.49713E-05-2.79803E-05-2.87124E-05-4.21956E-07-2.20888E-19-9.64503E-19
 -1      3776 9.47937E-05-2.77419E-05-2.87347E-05-5.03726E-07 7.62739E-19-3.04981E-18
 -1      3777 9.50365E-05-2.80709E-05-2.86988E-05-3.55290E-07-5.36095E-19-6.56214E-19
 -1      3778 9.50720E-05-2.81441E-05-2.86849E-05-2.88150E-07-2.50469E-19-6.77051E-19
 -1      3779 9.49471E-05-2.79613E-05-2.87069E-05-3.54351E-07-3.69703E-19-1.94575E-18
 -1      3780 9.51183E-05-2.82137E-05-2.86727E-05-2.38354E-07-1.04097E-20-9.34576E-19
 -1      3781 9.51427E-05-2.82697E-05-2.86609E-05-1.88444E-07 6.21659E-19-2.04480E-19
 -1      3782 9.50575E-05-2.81321E-05-2.86814E-05-2.41169E-07-1.98113E-19-1.67996E-18
 -1      3783 9.51745E-05-2.83223E-05-2.86505E-05-1.51962E-07 5.44599E-19-6.38373E-19
 -1      3784 9.51907E-05-2.83643E-05-2.86407E-05-1.15601E-07 3.49467E-19 1.41360E-19
 -1      3785 9.51348E-05-2.82627E-05-2.86589E-05-1.56949E-07 6.14400E-19-1.18819E-18
 -1      3786 9.52117E-05-2.84032E-05-2.86318E-05-8.94556E-08 6.35190E-19 5.35265E-19
 -1      3787 9.52218E-05-2.84341E-05-2.86238E-05-6.35749E-08 6.18822E-19 1.14371E-18
 -1      3788 9.51872E-05-2.83606E-05-2.86395E-05-9.55201E-08 7.04066E-19-9.75642E-19
 -1      3789 9.52349E-05-2.84623E-05-2.86165E-05-4.53066E-08 7.14138E-19 8.30566E-19
 -1      3790 9.52406E-05-2.84847E-05-2.86101E-05-2.73977E-08 3.59993E-19 1.11254E-18
 -1      3791 9.52210E-05-2.84327E-05-2.86233E-05-5.17276E-08 4.48923E-19-1.36308E-18
 -1      3792 9.52481E-05-2.85048E-05-2.86040E-05-1.50752E-08-1.60060E-19 1.55579E-18
 -1      3793 9.52508E-05-2.85207E-05-2.85989E-05-3.16362E-09 9.99938E-19 1.52090E-18
 -1      3794 9.52413E-05-2.84848E-05-2.86098E-05-2.13781E-08 3.42716E-19 4.64662E-19
 -1      3795 9.52544E-05-2.85348E-05-2.85939E-05 4.75711E-09 2.08333E-18 5.00310E-19
 -1      3796 9.52553E-05-2.85462E-05-2.85897E-05 1.24244E-08 2.16697E-18 8.74578E-19
 -1      3797 9.52522E-05-2.85218E-05-2.85987E-05-1.14038E-09 8.36806E-19 8.74840E-19
 -1      3798 9.52556E-05-2.85574E-05-2.85848E-05-1.80442E-08 1.22795E-18-3.24368E-18
 -1      3799 9.36980E-05-3.56960E-05-2.46852E-05 2.18505E-05 2.20162E-18-2.26662E-18
 -1      3800 9.69962E-05-4.03560E-05-2.42366E-05 2.40749E-05 2.16978E-18-1.86366E-18
 -1      3801 9.00437E-05-2.53300E-05-2.77480E-05 9.92349E-06-8.37305E-19-5.98156E-19
 -1      3802 9.04874E-05-2.61607E-05-2.75296E-05 1.08163E-05-9.76740E-19-4.70236E-19
 -1      3803 9.51072E-05-3.46283E-05-2.59649E-05-1.86118E-05-1.56334E-18-2.53223E-18
 -1      3804 9.21454E-05-3.03046E-05-2.64900E-05 1.48151E-05-1.22305E-18 2.39194E-20
 -1      3805 9.43079E-05-3.28742E-05-2.62537E-05 1.58230E-05-1.49140E-18 1.21233E-19
 -1      3806 9.02838E-05-2.45488E-05-2.81866E-05 8.12305E-06-1.21440E-18-7.41818E-19
 -1      3807 9.03569E-05-2.49196E-05-2.80218E-05 8.89940E-06-9.27700E-19-6.46280E-19
 -1      3808 8.81379E-05-2.39583E-05-2.75010E-05 9.18454E-06-1.05952E-18 7.91422E-19
 -1      3809 9.08447E-05-2.43888E-05-2.84947E-05 6.64717E-06-8.93487E-19-4.29272E-20
 -1      3810 9.07281E-05-2.44696E-05-2.83829E-05 7.31522E-06-1.40543E-18-7.18544E-19
 -1      3811 8.89363E-05-2.35819E-05-2.80017E-05 7.36573E-06-1.26114E-18 5.79556E-19
 -1      3812 9.15194E-05-2.45923E-05-2.86953E-05 5.41872E-06-1.07997E-18 6.67658E-20
 -1      3813 9.13200E-05-2.45032E-05-2.86273E-05 5.99510E-06-2.92564E-19-2.84374E-19
 -1      3814 8.98716E-05-2.36960E-05-2.83521E-05 5.94607E-06-8.60638E-19-7.59862E-19
 -1      3815 9.21962E-05-2.49893E-05-2.88137E-05 4.38446E-06-1.08399E-18-7.14634E-19
 -1      3816 9.19744E-05-2.48104E-05-2.87790E-05 4.88198E-06-1.20517E-18-5.58062E-19
 -1      3817 9.08055E-05-2.40881E-05-2.85844E-05 4.80073E-06-7.32565E-19-1.32507E-18
 -1      3818 9.28179E-05-2.54706E-05-2.88723E-05 3.51144E-06-5.08586E-20-8.59312E-19
 -1      3819 9.26055E-05-2.52533E-05-2.88612E-05 3.93813E-06-6.85958E-19-9.72490E-19
 -1      3820 9.16682E-05-2.46181E-05-2.87277E-05 3.85760E-06-9.40165E-19-1.50677E-18
 -1      3821 9.33581E-05-2.59670E-05-2.88897E-05 2.77745E-06-4.13010E-19 9.28700E-19
 -1      3822 9.31703E-05-2.57429E-05-2.88943E-05 3.13973E-06-2.62758E-20 4.69864E-22
 -1      3823 9.24262E-05-2.51953E-05-2.88062E-05 3.07418E-06-8.84625E-19 2.85919E-19
 -1      3824 9.38105E-05-2.64383E-05-2.88803E-05 2.16630E-06-5.27301E-19 1.29409E-19
 -1      3825 9.36524E-05-2.62260E-05-2.88944E-05 2.46948E-06-2.32458E-19 4.83551E-19
 -1      3826 9.30685E-05-2.57624E-05-2.88395E-05 2.42233E-06-1.56138E-19 5.96930E-19
 -1      3827 9.41780E-05-2.68619E-05-2.88551E-05 1.66414E-06-5.96437E-19-8.51086E-19
 -1      3828 9.40499E-05-2.66716E-05-2.88741E-05 1.91391E-06-4.98582E-19-5.29596E-19
 -1      3829 9.35979E-05-2.62869E-05-2.88428E-05 1.88389E-06-3.34549E-19-8.55671E-19
 -1      3830 9.44690E-05-2.72281E-05-2.88219E-05 1.25703E-06-1.88750E-18-4.78728E-20
 -1      3831 9.43682E-05-2.70640E-05-2.88427E-05 1.45968E-06-1.28091E-18-3.04788E-19
 -1      3832 9.40238E-05-2.67505E-05-2.88277E-05 1.44377E-06-1.21546E-18 4.97961E-19
 -1      3833 9.46947E-05-2.75357E-05-2.87859E-05 9.31853E-07-1.27428E-18-4.27382E-19
 -1      3834 9.46173E-05-2.73982E-05-2.88065E-05 1.09358E-06-1.53090E-18-4.05898E-19
 -1      3835 9.43592E-05-2.71471E-05-2.88023E-05 1.08809E-06-1.92915E-18 9.62898E-19
 -1      3836 9.48658E-05-2.77878E-05-2.87504E-05 6.76286E-07-1.46935E-18-4.74691E-19
 -1      3837 9.48078E-05-2.76753E-05-2.87696E-05 8.03230E-07-1.25892E-18-6.72519E-19
 -1      3838 9.46183E-05-2.74778E-05-2.87723E-05 8.04875E-07-1.06212E-18-4.69293E-19
 -1      3839 9.49929E-05-2.79900E-05-2.87176E-05 4.78680E-07-5.60000E-19-6.24183E-19
 -1      3840 9.49504E-05-2.79000E-05-2.87347E-05 5.76661E-07-1.24223E-18-9.47543E-19
 -1      3841 9.48142E-05-2.77473E-05-2.87414E-05 5.82825E-07-1.03053E-18-1.04421E-18
 -1      3842 9.50848E-05-2.81489E-05-2.86884E-05 3.28444E-07-1.49700E-18 9.35064E-19
 -1      3843 9.50547E-05-2.80783E-05-2.87031E-05 4.02772E-07-6.44561E-19-3.42457E-19
 -1      3844 9.49593E-05-2.79624E-05-2.87118E-05 4.11468E-07-1.03259E-18-6.88231E-19
 -1      3845 9.51497E-05-2.82714E-05-2.86633E-05 2.16241E-07-9.55680E-19 1.12412E-18
 -1      3846 9.51289E-05-2.82171E-05-2.86757E-05 2.71607E-07-1.52463E-18 1.05191E-18
 -1      3847 9.50641E-05-2.81307E-05-2.86849E-05 2.81408E-07-1.84975E-18 3.36237E-19
 -1      3848 9.51938E-05-2.83641E-05-2.86421E-05 1.34057E-07 1.10162E-19 6.32812E-19
 -1      3849 9.51801E-05-2.83231E-05-2.86523E-05 1.74484E-07-5.27537E-20 9.00790E-19
 -1      3850 9.51379E-05-2.82600E-05-2.86614E-05 1.84431E-07-5.39112E-19-2.34239E-19
 -1      3851 9.52226E-05-2.84329E-05-2.86247E-05 7.51803E-08 1.81712E-18-1.04498E-18
 -1      3852 9.52140E-05-2.84025E-05-2.86330E-05 1.04030E-07 7.26245E-19-5.05492E-20
 -1      3853 9.51880E-05-2.83575E-05-2.86413E-05 1.13519E-07 7.48099E-19-1.92206E-19
 -1      3854 9.52401E-05-2.84830E-05-2.86106E-05 3.40995E-08 2.60612E-18-2.10330E-18
 -1      3855 9.52352E-05-2.84609E-05-2.86172E-05 5.41315E-08 2.69814E-18-5.95789E-19
 -1      3856 9.52206E-05-2.84295E-05-2.86245E-05 6.28271E-08 2.28848E-18-1.63448E-18
 -1      3857 9.52496E-05-2.85187E-05-2.85992E-05 6.30990E-09 1.21164E-18-2.76384E-18
 -1      3858 9.52473E-05-2.85029E-05-2.86045E-05 1.98270E-08 2.11971E-18-1.86755E-18
 -1      3859 9.52403E-05-2.84818E-05-2.86107E-05 2.76023E-08 2.42463E-18-8.60152E-19
 -1      3860 9.52538E-05-2.85441E-05-2.85901E-05-1.17643E-08 1.29304E-18-3.41421E-18
 -1      3861 9.52532E-05-2.85326E-05-2.85942E-05-2.81532E-09 6.75506E-19-3.40638E-18
 -1      3862 9.52510E-05-2.85192E-05-2.85994E-05 3.91037E-09 1.02306E-18-2.13141E-18
 -1      3863 8.96898E-05-3.47596E-05-2.35493E-05-2.27232E-05 2.01715E-18-2.71205E-18
 -1      3864 9.45204E-05-3.59150E-05-2.49974E-05-1.95473E-05 1.52567E-18-2.36586E-18
 -1      3865 9.15429E-05-3.23814E-05-2.52881E-05-1.80846E-05 1.20981E-18-2.53294E-18
 -1      3866 8.38204E-05-3.01704E-05-2.29493E-05-2.14485E-05 1.86510E-18-2.34955E-18
 -1      3867 9.12080E-05-2.50164E-05-2.83439E-05-1.08686E-05 4.17341E-19-2.42252E-18
 -1      3868 9.07179E-05-2.37101E-05-2.87228E-05-9.58669E-06 7.81248E-19-2.45900E-18
 -1      3869 9.24055E-05-2.82354E-05-2.74640E-05-1.37005E-05-2.19076E-19-2.44438E-18
 -1      3870 9.13245E-05-2.63463E-05-2.78402E-05-1.24038E-05 1.75299E-19-2.32435E-18
 -1      3871 8.86057E-05-2.40526E-05-2.76480E-05-1.17268E-05 3.16037E-19-2.83063E-18
 -1      3872 8.80835E-05-1.87743E-05-2.97104E-05 5.06320E-06-1.97574E-19-4.16008E-18
 -1      3873 8.84185E-05-1.97979E-05-2.93923E-05 6.23339E-06-1.04673E-19-4.06583E-18
 -1      3874 8.64189E-05-1.74778E-05-2.95584E-05 4.52874E-06 4.17825E-20-4.13718E-18
 -1      3875 9.45437E-05-3.23760E-05-2.65765E-05-1.66749E-05-1.05253E-18-2.62901E-18
 -1      3876 9.24743E-05-2.97034E-05-2.69045E-05-1.53580E-05-5.85404E-19-2.55201E-18
 -1      3877 8.85262E-05-2.67335E-05-2.65561E-05-1.49878E-05-2.70800E-19-2.93593E-18
 -1      3878 8.90822E-05-3.00957E-05-2.52326E-05-1.88572E-05-1.26314E-18-3.11934E-18
 -1      3879 9.62275E-05-3.57638E-05-2.58169E-05 1.77593E-05-1.40312E-18 5.23877E-19
 -1      3880 1.00097E-04-3.96442E-05-2.57832E-05 1.82306E-05-1.33817E-18 4.42558E-19
 -1      3881 9.02984E-05-3.21383E-05-2.50144E-05 1.85234E-05-1.30866E-18 1.08871E-18
 -1      3882 6.37201E-05-1.50471E-05-2.07386E-05 6.83455E-06 9.19539E-19-4.92600E-18
 -1      3883 6.40889E-05-1.47243E-05-2.11736E-05-1.08703E-06 2.46990E-19-4.93071E-18
 -1      3884 8.37002E-05-1.34324E-05-3.01280E-05 3.28080E-07 8.54185E-19-4.87466E-18
 -1      3885 8.40178E-05-1.36919E-05-3.01563E-05 8.83496E-07 4.85180E-19-4.83516E-18
 -1      3886 8.35795E-05-1.42108E-05-2.96988E-05-1.59104E-07 8.18798E-19-4.51947E-18
 -1      3887 8.45315E-05-1.41061E-05-3.01948E-05 1.58021E-06 3.78656E-19-4.94611E-18
 -1      3888 8.54601E-05-1.48644E-05-3.02708E-05 2.04074E-06 1.51927E-19-4.91939E-18
 -1      3889 8.54920E-05-1.57724E-05-2.98566E-05 2.89480E-06 5.75464E-20-4.67279E-18
 -1      3890 8.40885E-05-1.46250E-05-2.97399E-05 1.55647E-06 3.76698E-19-4.68440E-18
 -1      3891 8.47383E-05-3.28559E-05-2.20133E-05 2.46460E-05-2.68986E-18 8.51334E-19
 -1      3892 7.62488E-05-2.72684E-05-2.09330E-05 2.29550E-05-2.33558E-18 1.23738E-18
 -1      3893 9.50223E-05-2.51159E-05-2.99548E-05-7.54259E-06 1.58716E-18-2.23018E-18
 -1      3894 9.48270E-05-2.43583E-05-3.01963E-05-6.47990E-06 1.96568E-18-2.14184E-18
 -1      3895 9.34933E-05-2.31024E-05-3.01624E-05-6.17155E-06 2.06658E-18-2.35529E-18
 -1      3896 9.30903E-05-2.41205E-05-2.95641E-05-8.14228E-06 1.43510E-18-2.37474E-18
 -1      3897 8.79283E-05-1.71144E-05-3.03669E-05-3.32007E-06 2.15613E-18-3.68454E-18
 -1      3898 9.52597E-05-2.85675E-05-2.85824E-05-1.00172E-08-3.45164E-19-2.06581E-18
 -1      3899 9.52589E-05-2.85679E-05-2.85819E-05-1.40592E-08-4.83196E-19-2.96467E-19
 -1      3900 9.52590E-05-2.85615E-05-2.85844E-05-1.46602E-08 1.24236E-19-8.94869E-19
 -1      3901 9.52601E-05-2.85588E-05-2.85861E-05-7.34897E-09-1.77767E-19-2.03576E-18
 -1      3902 9.04736E-05-2.70979E-05-2.71723E-05 1.21438E-05-5.94785E-19-7.96129E-19
 -1      3903 9.15795E-05-2.86279E-05-2.69181E-05 1.31314E-05-3.19753E-19-3.09661E-19
 -1      3904 8.81806E-05-2.75992E-05-2.59594E-05 1.47183E-05-7.64996E-19 1.03672E-18
 -1      3905 8.77240E-05-2.51300E-05-2.68210E-05 1.15755E-05-9.17002E-19 5.83808E-19
 -1      3906 9.51249E-05-3.96450E-05-2.37498E-05 2.38017E-05-2.42112E-18 1.03983E-18
 -1      3907 8.81890E-05-2.04838E-05-2.90229E-05 7.24584E-06 4.46234E-20-3.91590E-18
 -1      3908 8.81858E-05-2.14667E-05-2.85772E-05 8.57954E-06 4.87937E-20-3.62292E-18
 -1      3909 8.56619E-05-2.03398E-05-2.79873E-05 8.66292E-06 3.89759E-19-3.55444E-18
 -1      3910 8.61992E-05-1.89968E-05-2.87937E-05 6.52386E-06 1.31043E-19-3.97345E-18
 -1      3911 9.52563E-05-2.85497E-05-2.85887E-05-1.27488E-08 1.11510E-18-2.54443E-18
 -1      3912 8.67299E-05-3.11202E-05-2.39129E-05 2.15901E-05 2.13076E-18-2.96143E-18
 -1      3913 8.73676E-05-3.22404E-05-2.35818E-05 2.14231E-05-1.31431E-18 1.34762E-18
 -1      3914 8.98718E-05-3.67319E-05-2.26850E-05 2.45376E-05-2.68876E-18 1.06999E-18
 -1      3915 7.89549E-05-2.58520E-05-2.27086E-05 1.87817E-05-1.47580E-18 8.77255E-19
 -1      3916 7.27381E-05-2.35941E-05-2.08999E-05 2.01083E-05-1.88828E-18 1.51224E-18
 -1      3917 6.94370E-05-2.01403E-05-2.11691E-05 1.52560E-05-1.07607E-18 1.06951E-18
 -1      3918 8.62354E-05-2.94151E-05-2.42193E-05 1.87330E-05-1.45749E-18 1.44207E-18
 -1      3919 8.21231E-05-2.60557E-05-2.40830E-05 1.66894E-05-1.10456E-18 1.29839E-18
 -1      3920 6.66569E-05-1.51416E-05-2.18746E-05-5.26415E-06-5.91798E-20-4.76173E-18
 -1      3921 7.06232E-05-1.71763E-05-2.29191E-05-8.73287E-06-3.75623E-19-4.33984E-18
 -1      3922 6.85911E-05-1.52413E-05-2.28759E-05-5.73627E-07 2.90110E-19-4.45844E-18
 -1      3923 5.73492E-05-1.35909E-05-1.83974E-05 3.41423E-06-7.47394E-19 1.11194E-18
 -1      3924 5.98472E-05-1.45621E-05-1.94139E-05-2.87066E-06-1.53488E-19 1.03357E-18
 -1      3925 6.24245E-05-1.59386E-05-1.98437E-05 8.27045E-06-8.87254E-19 1.32369E-18
 -1      3926 6.77807E-05-2.04809E-05-1.99741E-05-1.78164E-05 2.05005E-18 4.23861E-19
 -1      3927 7.48373E-05-2.44213E-05-2.15125E-05-1.95099E-05 2.19511E-18-1.06896E-18
 -1      3928 9.13496E-05-2.15228E-05-2.99273E-05-6.09354E-06 1.87199E-18-2.78302E-18
 -1      3929 9.52554E-05-2.85603E-05-2.85836E-05 1.99330E-08 1.55071E-19 1.21299E-18
 -1      3930 8.59492E-05-2.86407E-05-2.46011E-05-1.77814E-05 1.59245E-18-1.80028E-18
 -1      3931 9.52563E-05-2.85524E-05-2.85874E-05 1.46027E-08 1.83065E-19-5.74805E-19
 -1      3932 6.48948E-05-1.79255E-05-2.01560E-05-1.28530E-05 1.36652E-18 3.43803E-19
 -1      3933 1.01120E-04-4.55179E-05-2.37390E-05 2.63626E-05 2.75476E-18-1.25284E-18
 -1      3934 9.52591E-05-2.85481E-05-2.85905E-05 1.54858E-09 1.22692E-18-1.54560E-18
 -1      3935 9.52591E-05-2.85483E-05-2.85905E-05-1.77274E-09 1.04085E-18-2.13293E-18
 -1      3936 9.52580E-05-2.85488E-05-2.85897E-05 9.59262E-09 9.23334E-19-1.80723E-18
 -1      3937 7.95001E-05-2.68981E-05-2.23565E-05 2.16143E-05 2.21387E-18-3.81003E-18
 -1      3938 9.52589E-05-2.85499E-05-2.85897E-05 7.21915E-09 1.00825E-18-6.27347E-19
 -1      3939 9.52591E-05-2.85490E-05-2.85902E-05 3.85801E-09 1.49358E-18-5.82746E-19
 -1      3940 9.52576E-05-2.85372E-05-2.85943E-05 1.99939E-09 2.10236E-18-9.48422E-19
 -1      3941 8.91042E-05-2.23207E-05-2.86147E-05-9.08965E-06 7.56774E-19-2.67801E-18
 -1      3942 9.12586E-05-2.32376E-05-2.91375E-05-8.57796E-06 1.00633E-18-2.57023E-18
 -1      3943 9.14477E-05-2.27205E-05-2.94618E-05-7.62878E-06 1.34449E-18-2.58418E-18
 -1      3944 7.84662E-05-2.48106E-05-2.28347E-05-1.94369E-05-1.34384E-18-3.67147E-18
 -1      3945 8.49426E-05-2.79992E-05-2.43471E-05-1.88024E-05-1.43475E-18-3.32269E-18
 -1      3946 8.47524E-05-2.61842E-05-2.50924E-05-1.67488E-05-7.45131E-19-3.21538E-18
 -1      3947 7.55410E-05-2.13964E-05-2.33112E-05-1.52637E-05-8.34069E-19-3.88474E-18
 -1      3948 8.29218E-05-1.47831E-05-2.92100E-05-7.25518E-07 1.01232E-18-4.30412E-18
 -1      3949 8.28679E-05-1.47566E-05-2.92089E-05 3.25754E-07 7.29162E-19-4.39146E-18
 -1      3950 6.67834E-05-1.65941E-05-2.13910E-05 1.03620E-05 1.22609E-18-4.80859E-18
 -1      3951 6.99861E-05-1.65334E-05-2.28674E-05 7.22131E-06 9.04486E-19-4.35552E-18
 -1      3952 7.14497E-05-1.94340E-05-2.23375E-05 1.42570E-05 1.47642E-18-4.43435E-18
 -1      3953 8.72842E-05-1.74340E-05-2.99179E-05-3.96734E-06 1.84464E-18-3.51466E-18
 -1      3954 9.52574E-05-2.85442E-05-2.85916E-05-6.95782E-09 4.05207E-19-7.65654E-19
 -1      3955 9.52567E-05-2.85460E-05-2.85904E-05-1.01195E-08 6.82907E-19-1.40076E-18
 -1      3956 9.52548E-05-2.85295E-05-2.85962E-05-3.25828E-09 1.13068E-18-2.61816E-18
 -1      3957 8.43045E-05-1.58653E-05-2.93402E-05-3.00714E-06 1.33784E-18-3.91684E-18
 -1      3958 8.34316E-05-1.52166E-05-2.92623E-05-2.11693E-06 1.05021E-18-4.13860E-18
 -1      3959 8.27061E-05-1.55375E-05-2.87538E-05-1.72253E-06 1.03687E-18-4.05687E-18
 -1      3960 8.23133E-05-1.97464E-05-2.68701E-05 9.07004E-06 5.94372E-19-3.61797E-18
 -1      3961 8.17538E-05-2.06267E-05-2.61845E-05 1.07712E-05 7.44623E-19-3.56629E-18
 -1      3962 7.84838E-05-2.05730E-05-2.48446E-05 1.23543E-05 1.00331E-18-3.79988E-18
 -1      3963 7.79800E-05-2.19586E-05-2.39392E-05 1.47264E-05 1.45271E-18-3.94368E-18
 -1      3964 8.95430E-05-2.06612E-05-2.95208E-05-6.57281E-06 1.52886E-18-2.85719E-18
 -1      3965 8.90031E-05-2.31000E-05-2.82623E-05 4.95485E-06-2.21863E-19-1.11815E-18
 -1      3966 8.85193E-05-2.29113E-05-2.81116E-05 5.54767E-06-4.35444E-20-6.29222E-19
 -1      3967 8.05517E-05-2.28035E-05-2.46921E-05-1.30211E-05 1.36306E-18-9.82659E-19
 -1      3968 8.09233E-05-2.19408E-05-2.53252E-05-1.12271E-05 1.48218E-18-1.18215E-18
 -1      3969 7.76492E-05-2.38951E-05-2.30138E-05 1.83114E-05 1.68744E-18-3.91936E-18
 -1      3970 8.25264E-05-2.18033E-05-2.59960E-05-9.69151E-06 1.60899E-18-1.39244E-18
 -1      3971 8.31199E-05-2.14896E-05-2.64584E-05-8.46199E-06 1.14627E-18-7.19607E-19
 -1      3972 7.90221E-05-2.01289E-05-2.52007E-05-9.08115E-06 1.69051E-18-1.08967E-18
 -1      3973 8.44484E-05-2.15727E-05-2.69339E-05-7.45468E-06 2.80242E-19-5.28532E-19
 -1      3974 8.51317E-05-2.15798E-05-2.72694E-05-6.57297E-06-1.44880E-19 1.26293E-19
 -1      3975 8.19931E-05-2.03310E-05-2.63821E-05-6.73179E-06 8.10465E-19-1.27413E-18
 -1      3976 8.62549E-05-2.18324E-05-2.76037E-05-5.85998E-06-5.59303E-19 2.08968E-19
 -1      3977 8.69341E-05-2.20324E-05-2.78389E-05-5.20019E-06-6.04634E-19 6.11563E-19
 -1      3978 8.44215E-05-2.08488E-05-2.72145E-05-5.16060E-06 2.00256E-20-1.06794E-18
 -1      3979 8.78824E-05-2.23827E-05-2.80696E-05-4.67893E-06-6.25485E-19 6.84920E-19
 -1      3980 8.85081E-05-2.26823E-05-2.82290E-05-4.16292E-06-4.84776E-19 1.30168E-18
 -1      3981 8.64755E-05-2.15679E-05-2.77932E-05-4.05470E-06-2.67837E-19-5.85539E-19
 -1      3982 8.93068E-05-2.30771E-05-2.83843E-05-3.75617E-06-7.14024E-19 1.60481E-18
 -1      3983 8.98619E-05-2.34249E-05-2.84872E-05-3.33739E-06-2.78542E-19 1.02546E-18
 -1      3984 8.82022E-05-2.23829E-05-2.81898E-05-3.23262E-06-4.46862E-19 4.41450E-19
 -1      3985 9.05329E-05-2.38310E-05-2.85872E-05-3.01313E-06-4.33550E-19 8.78257E-19
 -1      3986 9.10092E-05-2.41877E-05-2.86490E-05-2.66720E-06-4.56799E-19 5.20486E-19
 -1      3987 8.96584E-05-2.32338E-05-2.84529E-05-2.58033E-06-8.21602E-19 8.00892E-19
 -1      3988 9.15645E-05-2.45781E-05-2.87093E-05-2.40265E-06-4.80842E-19 9.62867E-19
 -1      3989 9.19639E-05-2.49209E-05-2.87417E-05-2.11484E-06 2.06145E-19 9.00543E-19
 -1      3990 9.08727E-05-2.40670E-05-2.86191E-05-2.05840E-06-7.77203E-19 2.05185E-19
 -1      3991 9.24162E-05-2.52783E-05-2.87740E-05-1.89956E-06 5.66880E-19-1.64917E-19
 -1      3992 9.27425E-05-2.55905E-05-2.87866E-05-1.65944E-06 1.57484E-19-1.19084E-18
 -1      3993 9.18716E-05-2.48451E-05-2.87160E-05-1.62926E-06-1.35645E-19 5.45971E-20
 -1      3994 9.31073E-05-2.59076E-05-2.88003E-05-1.48316E-06 4.86815E-20-1.32352E-18
 -1      3995 9.33686E-05-2.61816E-05-2.88002E-05-1.28490E-06 4.98542E-19-1.59217E-18
 -1      3996 9.26796E-05-2.55428E-05-2.87651E-05-1.27657E-06 1.09204E-20-1.12245E-18
 -1      3997 9.36583E-05-2.64545E-05-2.88019E-05-1.14072E-06 3.58987E-19-2.40950E-18
 -1      3998 9.38644E-05-2.66892E-05-2.87941E-05-9.78653E-07 7.95213E-19-3.01237E-18
 -1      3999 9.33266E-05-2.61531E-05-2.87828E-05-9.87372E-07-2.31850E-19-2.03409E-18
 -1      4000 9.40914E-05-2.69191E-05-2.87882E-05-8.63005E-07 8.14745E-19-3.81284E-18
 -1      4001 9.42510E-05-2.71153E-05-2.87762E-05-7.32652E-07 7.16175E-19-4.46908E-18
 -1      4002 9.38383E-05-2.66739E-05-2.87801E-05-7.50151E-07 7.39304E-20-2.89217E-18
 -1      4003 9.44254E-05-2.73045E-05-2.87661E-05-6.41340E-07 9.24089E-19-4.61873E-18
 -1      4004 9.45466E-05-2.74647E-05-2.87523E-05-5.38056E-07 9.45386E-19-4.42527E-18
 -1      4005 9.42356E-05-2.71086E-05-2.87652E-05-5.60737E-07 4.46122E-19-3.36769E-18
 -1      4006 9.46782E-05-2.76173E-05-2.87403E-05-4.66853E-07 1.04809E-18-4.55012E-18
 -1      4007 9.47683E-05-2.77457E-05-2.87263E-05-3.86277E-07 5.78062E-19-4.41185E-18
 -1      4008 9.45383E-05-2.74634E-05-2.87438E-05-4.11066E-07 8.75307E-19-3.83692E-18
 -1      4009 9.48658E-05-2.78664E-05-2.87139E-05-3.31604E-07 1.61230E-19-3.55622E-18
 -1      4010 9.49314E-05-2.79673E-05-2.87006E-05-2.69763E-07 2.64935E-20-3.07640E-18
 -1      4011 9.47648E-05-2.77474E-05-2.87198E-05-2.94441E-07 1.05696E-18-4.71656E-18
 -1      4012 9.50020E-05-2.80611E-05-2.86888E-05-2.28489E-07 4.57724E-20-2.04472E-18
 -1      4013 9.50486E-05-2.81390E-05-2.86768E-05-1.81841E-07 2.01086E-20-1.50809E-18
 -1      4014 9.49308E-05-2.79708E-05-2.86958E-05-2.05016E-07 1.04936E-18-2.21319E-18
 -1      4015 9.50984E-05-2.82106E-05-2.86660E-05-1.51248E-07 1.26237E-19-1.19170E-18
 -1      4016 9.51305E-05-2.82696E-05-2.86556E-05-1.16711E-07 6.98535E-19-1.78261E-18
 -1      4017 9.50497E-05-2.81433E-05-2.86732E-05-1.37624E-07-1.61441E-19-2.20426E-18
 -1      4018 9.51645E-05-2.83232E-05-2.86461E-05-9.44883E-08 9.33151E-19-1.79104E-18
 -1      4019 9.51857E-05-2.83671E-05-2.86372E-05-6.94453E-08 5.08830E-19-1.88230E-18
 -1      4020 9.51325E-05-2.82740E-05-2.86529E-05-8.77752E-08 7.65166E-19-1.93288E-18
 -1      4021 9.52079E-05-2.84065E-05-2.86290E-05-5.37041E-08 5.60706E-20-1.50543E-18
 -1      4022 9.52212E-05-2.84385E-05-2.86216E-05-3.60119E-08 2.74704E-19-2.23237E-18
 -1      4023 9.51880E-05-2.83714E-05-2.86352E-05-5.16605E-08 7.07626E-19-2.22605E-18
 -1      4024 9.52348E-05-2.84669E-05-2.86147E-05-2.50062E-08 7.80801E-19-1.52027E-18
 -1      4025 9.52425E-05-2.84899E-05-2.86085E-05-1.29546E-08 5.20270E-19-5.65838E-19
 -1      4026 9.52232E-05-2.84421E-05-2.86201E-05-2.61514E-08 4.99467E-19-1.97737E-18
 -1      4027 9.52498E-05-2.85098E-05-2.86028E-05-5.78009E-09 8.87746E-20-5.72088E-19
 -1      4028 9.52536E-05-2.85260E-05-2.85977E-05 2.22802E-09 1.93728E-19-1.28712E-18
 -1      4029 9.52442E-05-2.84934E-05-2.86074E-05-8.68175E-09 1.03862E-19-3.02079E-18
 -1      4030 8.76963E-05-2.26853E-05-2.78849E-05 6.19749E-06-2.00818E-19 9.38697E-20
 -1      4031 8.72342E-05-2.26589E-05-2.76641E-05 6.94601E-06-3.96383E-19 8.03385E-19
 -1      4032 8.69664E-05-2.20429E-05-2.78057E-05 5.12615E-06 4.27963E-19-7.31803E-19
 -1      4033 7.25450E-05-1.97709E-05-2.25262E-05 1.23079E-05-9.80251E-19 8.88683E-19
 -1      4034 6.69724E-05-1.74650E-05-2.10798E-05 1.13745E-05-9.16758E-19 9.93358E-19
 -1      4035 6.57258E-05-1.59862E-05-2.13563E-05 5.89678E-06-5.88893E-19 1.02535E-18
 -1      4036 9.52565E-05-2.85367E-05-2.85940E-05 5.35691E-09 5.20078E-19-1.59421E-18
 -1      4037 8.63137E-05-2.25932E-05-2.73401E-05 7.80398E-06-1.07064E-18 9.75377E-19
 -1      4038 8.59376E-05-2.28407E-05-2.70301E-05 8.80132E-06-1.23029E-18 1.02495E-18
 -1      4039 8.52420E-05-2.16304E-05-2.72363E-05 6.54970E-06-2.73561E-19 5.15549E-20
 -1      4040 9.01850E-05-2.36885E-05-2.85131E-05 3.96933E-06-9.78505E-19-1.30077E-18
 -1      4041 8.97255E-05-2.34160E-05-2.84157E-05 4.45303E-06-6.01672E-19-1.07908E-18
 -1      4042 8.85033E-05-2.26690E-05-2.81992E-05 4.06387E-06-2.27110E-19-1.28120E-18
 -1      4043 9.12211E-05-2.43511E-05-2.86703E-05 3.16844E-06-6.15480E-19-1.59062E-18
 -1      4044 9.08085E-05-2.40433E-05-2.86124E-05 3.56872E-06-7.11497E-19-1.32303E-18
 -1      4045 8.98389E-05-2.33975E-05-2.84618E-05 3.23043E-06-4.46315E-19-1.15046E-18
 -1      4046 9.21008E-05-2.50157E-05-2.87601E-05 2.51156E-06-1.34684E-18-1.49241E-19
 -1      4047 9.17463E-05-2.47075E-05-2.87303E-05 2.84558E-06-1.20146E-18-1.02142E-18
 -1      4048 9.09795E-05-2.41532E-05-2.86284E-05 2.56789E-06-1.23844E-18-2.15911E-18
 -1      4049 9.28316E-05-2.56431E-05-2.88026E-05 1.96973E-06-3.61611E-19-6.01250E-19
 -1      4050 9.25359E-05-2.53527E-05-2.87922E-05 2.24735E-06-7.91545E-19-1.33719E-19
 -1      4051 9.19317E-05-2.48825E-05-2.87260E-05 2.02671E-06-9.02594E-19-1.31587E-18
 -1      4052 9.34256E-05-2.62082E-05-2.88137E-05 1.52472E-06-8.52566E-19-1.00924E-19
 -1      4053 9.31851E-05-2.59472E-05-2.88158E-05 1.75397E-06-7.48050E-21 2.12563E-19
 -1      4054 9.27119E-05-2.55532E-05-2.87751E-05 1.58392E-06-6.03948E-19-9.04977E-21
 -1      4055 9.38998E-05-2.66996E-05-2.88052E-05 1.16299E-06-2.18643E-18 1.40160E-18
 -1      4056 9.37088E-05-2.64738E-05-2.88146E-05 1.35017E-06-1.53904E-18 7.00898E-19
 -1      4057 9.33418E-05-2.61473E-05-2.87921E-05 1.22327E-06-1.68709E-18 5.79578E-19
 -1      4058 9.42718E-05-2.71158E-05-2.87853E-05 8.72129E-07-1.41879E-18 1.76687E-19
 -1      4059 9.41230E-05-2.69252E-05-2.87986E-05 1.02277E-06-1.55275E-18 9.82841E-19
 -1      4060 9.38428E-05-2.66594E-05-2.87885E-05 9.30166E-07-1.87548E-18 3.09112E-19
 -1      4061 9.45580E-05-2.74598E-05-2.87596E-05 6.41840E-07-2.82223E-19-9.69132E-19
 -1      4062 9.44443E-05-2.73028E-05-2.87745E-05 7.61273E-07-8.09127E-19-8.33266E-19
 -1      4063 9.42342E-05-2.70903E-05-2.87726E-05 6.95779E-07-4.71904E-19-1.33817E-18
 -1      4064 9.47739E-05-2.77382E-05-2.87320E-05 4.62132E-07-8.11944E-19-1.08674E-18
 -1      4065 9.46888E-05-2.76116E-05-2.87469E-05 5.55370E-07-7.51187E-19-8.41597E-19
 -1      4066 9.45340E-05-2.74445E-05-2.87501E-05 5.10804E-07-5.72267E-19-1.64538E-18
 -1      4067 9.49333E-05-2.79591E-05-2.87051E-05 3.24043E-07-1.38779E-18-7.50426E-19
 -1      4068 9.48711E-05-2.78590E-05-2.87191E-05 3.95671E-07-8.26390E-19-6.84265E-19
 -1      4069 9.47593E-05-2.77298E-05-2.87251E-05 3.66787E-07-1.10120E-18-1.48030E-18
 -1      4070 9.50483E-05-2.81310E-05-2.86803E-05 2.19685E-07-1.42093E-18-1.19643E-18
 -1      4071 9.50040E-05-2.80533E-05-2.86928E-05 2.73783E-07-1.12005E-18-3.18480E-19
 -1      4072 9.49252E-05-2.79552E-05-2.87001E-05 2.56351E-07-1.16650E-18-5.48691E-19
 -1      4073 9.51290E-05-2.82623E-05-2.86582E-05 1.42221E-07-9.73272E-20-1.92481E-18
 -1      4074 9.50984E-05-2.82032E-05-2.86691E-05 1.82340E-07-1.22217E-18-1.70603E-18
 -1      4075 9.50446E-05-2.81300E-05-2.86767E-05 1.73055E-07-5.89921E-19-2.04654E-18
 -1      4076 9.51838E-05-2.83608E-05-2.86392E-05 8.58483E-08 1.03095E-18-1.70591E-18
 -1      4077 9.51635E-05-2.83166E-05-2.86484E-05 1.15002E-07 9.14088E-19-1.45751E-18
 -1      4078 9.51280E-05-2.82631E-05-2.86557E-05 1.11343E-07 2.75498E-19-2.14582E-18
 -1      4079 9.52193E-05-2.84333E-05-2.86231E-05 4.57915E-08 2.23417E-18-2.01956E-18
 -1      4080 9.52065E-05-2.84009E-05-2.86307E-05 6.64617E-08 1.40448E-18-2.13848E-18
 -1      4081 9.51843E-05-2.83626E-05-2.86375E-05 6.65071E-08 1.51028E-18-1.93933E-18
 -1      4082 9.52407E-05-2.84854E-05-2.86097E-05 1.82531E-08 1.62760E-18-1.62117E-18
 -1      4083 9.52333E-05-2.84621E-05-2.86160E-05 3.23442E-08 2.31114E-18-1.28622E-18
 -1      4084 9.52205E-05-2.84355E-05-2.86219E-05 3.48678E-08 2.15134E-18-3.01336E-18
 -1      4085 9.52509E-05-2.85176E-05-2.86001E-05 2.10109E-09 1.75420E-18-2.56672E-18
 -1      4086 9.52471E-05-2.85007E-05-2.86053E-05 1.13186E-08 2.28501E-18-1.16934E-18
 -1      4087 9.52402E-05-2.84826E-05-2.86104E-05 1.48666E-08 1.87227E-18-2.64902E-18
 -1      4088 9.52504E-05-2.85128E-05-2.86020E-05 2.94605E-09 1.89109E-18-2.45237E-18
 -1      4089 7.85930E-05-2.59643E-05-2.25030E-05-1.95808E-05 1.96039E-18-1.47532E-18
 -1      4090 8.33192E-05-2.75516E-05-2.38194E-05-1.82101E-05 1.82900E-18-1.60299E-18
 -1      4091 8.12205E-05-2.46944E-05-2.42118E-05-1.57743E-05 1.78011E-18-1.12465E-18
 -1      4092 7.47413E-05-2.21798E-05-2.25496E-05-1.59527E-05 1.90518E-18-6.29908E-19
 -1      4093 8.32815E-05-2.49955E-05-2.49404E-05 1.43153E-05-7.33224E-19 1.19532E-18
 -1      4094 7.68922E-05-2.16213E-05-2.36083E-05 1.38115E-05-8.15670E-19 1.01974E-18
 -1      4095 8.28857E-05-2.36132E-05-2.54663E-05 1.24600E-05-5.57050E-19 8.92405E-19
 -1      4096 8.56086E-05-2.27707E-05-2.69720E-05-1.17080E-05 2.43180E-19-3.18817E-18
 -1      4097 8.56418E-05-2.15044E-05-2.75323E-05-9.89106E-06 4.66154E-19-3.09691E-18
 -1      4098 8.52481E-05-1.65736E-05-2.94425E-05 3.68044E-06 5.50418E-20-4.37324E-18
 -1      4099 8.51855E-05-1.74076E-05-2.90484E-05 4.70728E-06 6.41913E-20-4.29785E-18
 -1      4100 8.43481E-05-1.58625E-05-2.93628E-05 3.07262E-06 2.34861E-19-4.53144E-18
 -1      4101 8.76067E-05-1.89672E-05-2.94267E-05-5.51943E-06 1.60218E-18-3.19505E-18
 -1      4102 8.54712E-05-1.70582E-05-2.93361E-05-4.38476E-06 1.37196E-18-3.55600E-18
 -1      4103 8.44768E-05-1.72040E-05-2.88079E-05-4.57273E-06 1.08488E-18-3.55797E-18
 -1      4104 8.76469E-05-2.01452E-05-2.89198E-05-7.06262E-06 1.04781E-18-2.93654E-18
 -1      4105 6.35495E-05-1.55307E-05-2.03135E-05-7.95946E-06 8.54458E-19 3.04687E-19
 -1      4106 6.90081E-05-1.83581E-05-2.16717E-05-1.13180E-05 1.63065E-18-8.51678E-19
 -1      4107 6.41409E-05-1.52745E-05-2.09706E-05-2.42447E-06 8.23210E-20 1.77242E-19
 -1      4108 9.52584E-05-2.85449E-05-2.85916E-05-3.09392E-09 4.54360E-19-2.71185E-18
 -1      4109 9.52581E-05-2.85462E-05-2.85910E-05-6.33615E-09 1.12138E-19-1.33635E-18
 -1      4110 9.52552E-05-2.85270E-05-2.85975E-05-1.75989E-09 1.02862E-18-1.41185E-18
 -1      4111 9.52568E-05-2.85328E-05-2.85957E-05-8.35163E-10 1.12324E-18-1.74258E-18
 -1      4112 7.08461E-05-1.54047E-05-2.36006E-05 3.11009E-06 6.07291E-19-4.41705E-18
 -1      4113 7.19550E-05-1.57309E-05-2.41357E-05-6.84672E-07 2.93960E-19-4.11548E-18
 -1      4114 7.22773E-05-1.83004E-05-2.31998E-05-8.90500E-06 1.42675E-18-1.37949E-18
 -1      4115 7.46539E-05-2.04878E-05-2.31391E-05-1.29932E-05 1.67142E-18-7.35527E-19
 -1      4116 9.52545E-05-2.85266E-05-2.85978E-05 1.50543E-09 4.63550E-19-1.94802E-18
 -1      4117 7.27911E-05-1.70065E-05-2.39786E-05-7.14554E-06-8.69747E-20-4.13918E-18
 -1      4118 7.37721E-05-1.85163E-05-2.34895E-05-1.15845E-05-4.24197E-19-4.14766E-18
 -1      4119 7.76681E-05-2.09567E-05-2.43483E-05-1.33431E-05-5.86668E-19-3.62064E-18
 -1      4120 7.39669E-05-1.92617E-05-2.35175E-05 1.01876E-05-1.08033E-18 1.10665E-18
 -1      4121 8.36206E-05-1.86721E-05-2.78606E-05 6.87628E-06 5.71739E-19-3.87645E-18
 -1      4122 8.33123E-05-1.92990E-05-2.74200E-05 7.97700E-06 6.24736E-19-3.75221E-18
 -1      4123 8.05114E-05-1.79801E-05-2.67382E-05 7.15883E-06 7.58023E-19-3.98302E-18
 -1      4124 8.22308E-05-2.20034E-05-2.58406E-05-1.21822E-05-4.28513E-20-3.29061E-18
 -1      4125 7.96340E-05-1.93945E-05-2.57681E-05-9.95710E-06 8.95721E-20-3.48603E-18
 -1      4126 8.64697E-05-2.10424E-05-2.80418E-05-8.90121E-06 6.02065E-19-3.05989E-18
 -1      4127 8.70826E-05-2.06631E-05-2.84837E-05-7.98005E-06 7.65172E-19-3.02948E-18
 -1      4128 8.51969E-05-1.89718E-05-2.83793E-05-6.84669E-06 9.15411E-19-3.30015E-18
 -1      4129 8.38632E-05-1.98772E-05-2.74087E-05-8.69771E-06 6.39550E-19-3.46735E-18
 -1      4130 8.49033E-05-1.80368E-05-2.86601E-05 5.61782E-06 2.03708E-19-4.14856E-18
 -1      4131 7.64196E-05-1.82331E-05-2.48599E-05 9.36279E-06 7.96476E-19-3.99470E-18
 -1      4132 8.46500E-05-2.27972E-05-2.65532E-05 9.73852E-06-1.27910E-18 1.08667E-18
 -1      4133 8.44885E-05-2.34695E-05-2.61360E-05 1.10891E-05-7.84258E-19 1.01045E-18
 -1      4134 8.01506E-05-2.10845E-05-2.52406E-05 1.02713E-05-8.81355E-19 7.78369E-19
 -1      4135 8.30830E-05-2.13350E-05-2.64139E-05 8.22335E-06-1.06230E-18 9.87721E-19
 -1      4136 7.28885E-05-1.67197E-05-2.41007E-05 6.28755E-06 7.91592E-19-4.23816E-18
 -1      4137 8.31154E-05-1.49179E-05-2.92404E-05 1.36969E-06 5.23266E-19-4.39212E-18
 -1      4138 8.35959E-05-1.53057E-05-2.92804E-05 2.13982E-06 3.28560E-19-4.52115E-18
 -1      4139 8.33529E-05-1.59970E-05-2.88531E-05 2.92644E-06 2.58680E-19-4.30833E-18
 -1      4140 8.24468E-05-1.53226E-05-2.87354E-05 8.38198E-07 7.03421E-19-4.15424E-18
 -1      4141 9.52531E-05-2.85210E-05-2.85995E-05-1.94373E-11 1.40339E-18-1.57773E-18
 -1      4142 9.52518E-05-2.85172E-05-2.86007E-05-5.49748E-10 1.50463E-18-2.41611E-18
 -1      4143 8.19356E-05-1.60786E-05-2.82181E-05-2.85735E-06 9.73283E-19-3.94255E-18
 -1      4144 8.12932E-05-1.56481E-05-2.81591E-05-1.33056E-06 8.96023E-19-4.16566E-18
 -1      4145 9.52536E-05-2.85234E-05-2.85987E-05 9.73310E-10 1.53878E-18-6.69878E-19
 -1      4146 9.52534E-05-2.85226E-05-2.85991E-05-1.65903E-10 1.11938E-18-8.57416E-19
 -1      4147 9.52486E-05-2.85051E-05-2.86042E-05-9.52609E-10 1.37732E-18-1.97741E-18
 -1      4148 9.52502E-05-2.85103E-05-2.86027E-05-1.33538E-09-6.95163E-20-2.53907E-18
 -1      4149 8.12206E-05-1.55639E-05-2.81527E-05 2.39888E-07 9.26629E-19-3.93532E-18
 -1      4150 8.13751E-05-1.56774E-05-2.81780E-05 1.25816E-06 5.95705E-19-3.97818E-18
 -1      4151 8.02468E-05-1.59010E-05-2.75852E-05-9.51534E-07 7.07486E-19-3.95294E-18
 -1      4152 7.05457E-05-1.67071E-05-2.29888E-05-5.04442E-06 8.72780E-19-1.57448E-18
 -1      4153 7.51856E-05-1.85002E-05-2.42569E-05-6.95250E-06 1.24450E-18-1.67057E-18
 -1      4154 7.30413E-05-1.57962E-05-2.44049E-05-3.56977E-06 1.98896E-19-4.09371E-18
 -1      4155 7.51143E-05-1.70975E-05-2.48966E-05-6.20386E-06 5.97770E-20-3.99781E-18
 -1      4156 7.42721E-05-1.59436E-05-2.50443E-05-2.82867E-07 4.37547E-19-4.00240E-18
 -1      4157 8.96178E-05-2.32730E-05-2.84497E-05 2.36879E-06-3.53353E-19-1.80108E-18
 -1      4158 8.89959E-05-2.28724E-05-2.83422E-05 2.68862E-06-6.15546E-20-1.45997E-18
 -1      4159 7.68175E-05-1.86088E-05-2.49909E-05-5.77430E-06 1.03640E-18-2.14262E-18
 -1      4160 7.98563E-05-1.93556E-05-2.59505E-05-5.22072E-06 1.10074E-18-2.06686E-18
 -1      4161 8.12503E-05-1.96597E-05-2.64444E-05-4.44005E-06 8.00587E-19-1.68961E-18
 -1      4162 8.28645E-05-2.01046E-05-2.69057E-05-3.98756E-06 2.06913E-19-1.72336E-18
 -1      4163 8.40134E-05-2.04802E-05-2.72576E-05-3.44506E-06-1.13786E-19-1.58343E-18
 -1      4164 8.12731E-05-1.92578E-05-2.65216E-05-2.58473E-06 7.01444E-19-2.30735E-18
 -1      4165 8.52919E-05-2.09634E-05-2.75766E-05-3.12123E-06-1.53367E-19-1.30224E-18
 -1      4166 8.62333E-05-2.13838E-05-2.78199E-05-2.74367E-06 1.37402E-19-9.54365E-19
 -1      4167 8.40924E-05-2.02745E-05-2.73078E-05-1.99936E-06 2.69428E-19-1.95430E-18
 -1      4168 8.72669E-05-2.18582E-05-2.80398E-05-2.46909E-06-1.74008E-19-9.43695E-20
 -1      4169 8.80721E-05-2.23034E-05-2.82043E-05-2.17147E-06-3.24744E-19-1.00190E-19
 -1      4170 8.62919E-05-2.12209E-05-2.78441E-05-1.54421E-06 2.65426E-19-1.68958E-18
 -1      4171 8.89160E-05-2.27833E-05-2.83502E-05-1.97448E-06-7.08279E-19-1.90430E-19
 -1      4172 8.95943E-05-2.32264E-05-2.84568E-05-1.73552E-06-5.85964E-19-1.72966E-19
 -1      4173 8.81727E-05-2.22496E-05-2.82148E-05-1.24507E-06-2.07457E-19-1.33451E-18
 -1      4174 9.02830E-05-2.36769E-05-2.85511E-05-1.57707E-06-7.09730E-19-3.19064E-19
 -1      4175 9.08518E-05-2.40969E-05-2.86164E-05-1.37314E-06-1.00625E-18 9.29832E-20
 -1      4176 8.96808E-05-2.32262E-05-2.84582E-05-1.01621E-06-5.03471E-19-1.05284E-18
 -1      4177 9.14082E-05-2.45170E-05-2.86722E-05-1.26488E-06-1.22763E-18-5.54978E-19
 -1      4178 9.18614E-05-2.48917E-05-2.87085E-05-1.09748E-06-3.02857E-19-7.95041E-19
 -1      4179 9.09527E-05-2.41535E-05-2.86148E-05-8.25954E-07-1.00893E-18-9.90416E-19
 -1      4180 9.23179E-05-2.52646E-05-2.87395E-05-9.94621E-07 2.25542E-19-1.67744E-18
 -1      4181 9.26793E-05-2.55989E-05-2.87561E-05-8.59338E-07-1.08314E-19-1.56681E-18
 -1      4182 9.19422E-05-2.49395E-05-2.87036E-05-6.44623E-07-8.56298E-19-1.80570E-18
 -1      4183 9.30431E-05-2.59192E-05-2.87699E-05-7.70702E-07-3.31962E-19-1.59551E-18
 -1      4184 9.33349E-05-2.62080E-05-2.87736E-05-6.56029E-07-2.17716E-19-2.12496E-18
 -1      4185 9.27384E-05-2.56301E-05-2.87484E-05-4.92352E-07-6.54914E-20-1.91981E-18
 -1      4186 9.36218E-05-2.64841E-05-2.87756E-05-5.89670E-07-2.54279E-19-1.89957E-18
 -1      4187 9.38511E-05-2.67277E-05-2.87711E-05-4.96599E-07-7.95989E-20-2.76184E-18
 -1      4188 9.33923E-05-2.62475E-05-2.87653E-05-3.79525E-07 9.07394E-20-1.21986E-18
 -1      4189 9.40728E-05-2.69563E-05-2.87659E-05-4.44196E-07 1.94938E-19-3.10370E-18
 -1      4190 9.42489E-05-2.71568E-05-2.87567E-05-3.69341E-07 2.75840E-19-3.08596E-18
 -1      4191 9.38973E-05-2.67638E-05-2.87629E-05-2.88778E-07-1.22280E-19-1.86739E-18
 -1      4192 9.44179E-05-2.73430E-05-2.87476E-05-3.28377E-07 5.91036E-20-3.39319E-18
 -1      4193 9.45510E-05-2.75050E-05-2.87362E-05-2.68916E-07 3.60717E-19-3.52829E-18
 -1      4194 9.42857E-05-2.71890E-05-2.87492E-05-2.15171E-07 2.28315E-20-3.58507E-18
 -1      4195 9.46776E-05-2.76539E-05-2.87253E-05-2.37469E-07 4.52405E-19-3.70814E-18
 -1      4196 9.47762E-05-2.77825E-05-2.87133E-05-1.90966E-07 1.09468E-18-3.15965E-18
 -1      4197 9.45798E-05-2.75329E-05-2.87296E-05-1.56770E-07 7.26982E-20-3.47156E-18
 -1      4198 9.48693E-05-2.78994E-05-2.87020E-05-1.67264E-07 1.55749E-18-3.73488E-18
 -1      4199 9.49407E-05-2.79996E-05-2.86903E-05-1.31497E-07 7.24452E-19-3.20771E-18
 -1      4200 9.47984E-05-2.78059E-05-2.87076E-05-1.11326E-07 5.62464E-19-4.26474E-18
 -1      4201 9.50075E-05-2.80898E-05-2.86794E-05-1.13972E-07 4.43196E-19-3.47320E-18
 -1      4202 9.50580E-05-2.81664E-05-2.86687E-05-8.69415E-08 7.95706E-19-2.55166E-18
 -1      4203 9.49575E-05-2.80188E-05-2.86856E-05-7.66112E-08 5.92425E-19-5.81958E-18
 -1      4204 9.51046E-05-2.82348E-05-2.86588E-05-7.42538E-08 3.78713E-19-1.96018E-18
 -1      4205 9.51391E-05-2.82923E-05-2.86493E-05-5.42021E-08 7.36684E-19-2.23443E-18
 -1      4206 9.50703E-05-2.81819E-05-2.86648E-05-5.05915E-08 8.67658E-19-3.16586E-18
 -1      4207 9.51704E-05-2.83430E-05-2.86405E-05-4.52199E-08 5.19476E-19-2.94330E-18
 -1      4208 9.51931E-05-2.83854E-05-2.86323E-05-3.06438E-08 1.51316E-19-2.55239E-18
 -1      4209 9.51479E-05-2.83045E-05-2.86461E-05-3.15031E-08-5.79476E-19-4.00712E-18
 -1      4210 9.52132E-05-2.84227E-05-2.86247E-05-2.45162E-08 6.83474E-19-2.87004E-18
 -1      4211 9.52274E-05-2.84532E-05-2.86177E-05-1.41018E-08 9.03685E-19-3.11557E-18
 -1      4212 9.51989E-05-2.83951E-05-2.86297E-05-1.78479E-08-2.43743E-19-4.43907E-18
 -1      4213 9.52432E-05-2.84904E-05-2.86084E-05-7.79946E-09 3.63965E-19-2.18671E-18
 -1      4214 8.64192E-05-2.16203E-05-2.77987E-05 3.80226E-06 5.41314E-19-6.05798E-19
 -1      4215 8.56102E-05-2.13061E-05-2.75558E-05 4.34683E-06 2.88853E-19-6.33312E-19
 -1      4216 8.50791E-05-2.47611E-05-2.57622E-05-1.49547E-05-4.10387E-19-3.11761E-18
 -1      4217 8.43755E-05-2.09279E-05-2.72269E-05 4.84206E-06-2.77263E-20-5.00159E-19
 -1      4218 8.34071E-05-2.07247E-05-2.68779E-05 5.60876E-06-3.66405E-19-9.74253E-20
 -1      4219 8.41486E-05-2.05039E-05-2.72418E-05 3.36467E-06 4.71612E-19-6.40972E-19
 -1      4220 9.08458E-05-2.41040E-05-2.86142E-05 1.86944E-06-1.19371E-18-2.03987E-18
 -1      4221 9.03113E-05-2.37118E-05-2.85479E-05 2.12334E-06-9.13611E-19-2.32004E-18
 -1      4222 8.95892E-05-2.31602E-05-2.84382E-05 1.65588E-06-4.95518E-19-2.40770E-18
 -1      4223 9.18443E-05-2.48720E-05-2.87106E-05 1.46938E-06-5.56931E-19-1.51604E-18
 -1      4224 9.14049E-05-2.45045E-05-2.86739E-05 1.68540E-06-1.16403E-18-1.87074E-18
 -1      4225 9.08595E-05-2.40749E-05-2.86048E-05 1.28250E-06-1.19873E-18-2.77146E-18
 -1      4226 9.26503E-05-2.55597E-05-2.87608E-05 1.14713E-06-1.35211E-18-7.87475E-19
 -1      4227 9.23032E-05-2.52344E-05-2.87440E-05 1.32917E-06-3.35520E-19-1.48616E-18
 -1      4228 9.18712E-05-2.48796E-05-2.87001E-05 9.94744E-07-5.13106E-19-2.39858E-18
 -1      4229 9.33040E-05-2.61684E-05-2.87789E-05 8.78297E-07-2.20092E-18-1.19193E-18
 -1      4230 9.30240E-05-2.58840E-05-2.87755E-05 1.02445E-06-1.74667E-18-1.27165E-18
 -1      4231 9.26689E-05-2.55651E-05-2.87483E-05 7.76996E-07-1.20510E-18-2.86102E-18
 -1      4232 9.38215E-05-2.66877E-05-2.87769E-05 6.63750E-07-1.49530E-18-2.06972E-18
 -1      4233 9.36005E-05-2.64453E-05-2.87817E-05 7.81842E-07-1.96923E-18-1.84426E-18
 -1      4234 9.33300E-05-2.61777E-05-2.87676E-05 5.99896E-07-1.56037E-18-3.46487E-18
 -1      4235 9.42229E-05-2.71200E-05-2.87625E-05 4.93619E-07-1.49792E-19-2.90228E-18
 -1      4236 9.40524E-05-2.69188E-05-2.87721E-05 5.88181E-07-1.00277E-18-2.60976E-18
 -1      4237 9.38465E-05-2.67012E-05-2.87668E-05 4.54246E-07-5.72569E-19-4.88227E-18
 -1      4238 9.45291E-05-2.74727E-05-2.87416E-05 3.59944E-07-8.97990E-19-1.98432E-18
 -1      4239 9.43999E-05-2.73092E-05-2.87535E-05 4.34759E-07-1.49780E-19-2.27312E-18
 -1      4240 9.42450E-05-2.71353E-05-2.87538E-05 3.37543E-07-3.73581E-19-3.53693E-18
 -1      4241 9.47584E-05-2.77552E-05-2.87181E-05 2.56383E-07-1.40914E-18-2.28370E-18
 -1      4242 9.46625E-05-2.76248E-05-2.87306E-05 3.14731E-07-1.51143E-18-2.24368E-18
 -1      4243 9.45479E-05-2.74882E-05-2.87343E-05 2.45714E-07-1.20166E-18-3.04702E-18
 -1      4244 9.49266E-05-2.79771E-05-2.86944E-05 1.77405E-07-1.20760E-18-2.17483E-18
 -1      4245 9.48570E-05-2.78751E-05-2.87065E-05 2.22200E-07-1.21134E-18-1.82593E-18
 -1      4246 9.47740E-05-2.77696E-05-2.87121E-05 1.74644E-07-1.45299E-18-4.12287E-18
 -1      4247 9.50472E-05-2.81484E-05-2.86722E-05 1.18189E-07-1.48393E-19-3.75769E-18
 -1      4248 9.49979E-05-2.80700E-05-2.86833E-05 1.52006E-07-7.41497E-19-2.87557E-18
 -1      4249 9.49392E-05-2.79899E-05-2.86897E-05 1.20532E-07-5.43676E-19-4.29945E-18
 -1      4250 9.51310E-05-2.82782E-05-2.86522E-05 7.46015E-08 6.02034E-19-3.67450E-18
 -1      4251 9.50973E-05-2.82190E-05-2.86620E-05 9.96749E-08 5.80195E-19-3.74702E-18
 -1      4252 9.50570E-05-2.81594E-05-2.86684E-05 8.00357E-08 7.27175E-19-4.38015E-18
 -1      4253 9.51873E-05-2.83746E-05-2.86347E-05 4.31604E-08 1.57963E-18-3.49594E-18
 -1      4254 9.51651E-05-2.83308E-05-2.86431E-05 6.13835E-08 7.90318E-19-3.22471E-18
 -1      4255 9.51384E-05-2.82873E-05-2.86492E-05 5.03068E-08 3.34771E-19-5.52208E-18
 -1      4256 9.52235E-05-2.84449E-05-2.86197E-05 2.13126E-08 2.34768E-18-3.13042E-18
 -1      4257 9.52095E-05-2.84133E-05-2.86268E-05 3.37536E-08 2.69681E-18-3.15972E-18
 -1      4258 9.51924E-05-2.83819E-05-2.86323E-05 2.88291E-08 1.93274E-18-4.21680E-18
 -1      4259 7.77470E-05-2.17627E-05-2.39865E-05-1.31561E-05 1.57445E-18-6.70182E-19
 -1      4260 7.63810E-05-1.70406E-05-2.54842E-05 5.63386E-06 5.56011E-19-4.08758E-18
 -1      4261 7.63321E-05-1.92766E-05-2.44384E-05 8.21338E-06-9.68315E-19 1.02249E-18
 -1      4262 7.24714E-05-1.75516E-05-2.34679E-05 6.80176E-06-1.08186E-18 1.45305E-18
 -1      4263 9.52512E-05-2.85148E-05-2.86013E-05 6.39663E-10 1.32984E-18-1.81269E-18
 -1      4264 9.52504E-05-2.85129E-05-2.86020E-05 1.15849E-09 1.71581E-18-1.75023E-18
 -1      4265 9.52465E-05-2.84988E-05-2.86060E-05 6.32526E-09 2.09249E-18-2.15636E-18
 -1      4266 9.52472E-05-2.85012E-05-2.86053E-05 2.27159E-09 1.62672E-18-2.10534E-18
 -1      4267 8.81559E-05-2.24312E-05-2.81898E-05 2.99315E-06-8.98797E-20-1.25789E-18
 -1      4268 8.74380E-05-2.20538E-05-2.80246E-05 3.39626E-06 4.54734E-19-5.26223E-19
 -1      4269 8.62610E-05-2.13226E-05-2.77945E-05 2.64027E-06 6.94304E-19-1.13349E-18
 -1      4270 6.64726E-05-1.53775E-05-2.17446E-05 2.33451E-06-5.00825E-19 3.64886E-19
 -1      4271 6.84044E-05-1.60759E-05-2.24421E-05-2.23140E-06 4.42456E-19-6.01374E-19
 -1      4272 7.14099E-05-1.66339E-05-2.35812E-05-5.47738E-07 2.00674E-19-1.59861E-18
 -1      4273 7.00353E-05-1.67872E-05-2.27997E-05 5.10315E-06-6.58200E-19 9.97907E-19
 -1      4274 7.80996E-05-1.70522E-05-2.61896E-05 4.96093E-06 5.95336E-19-4.03370E-18
 -1      4275 7.57092E-05-1.57980E-05-2.55660E-05 2.12816E-06 5.15456E-19-3.97287E-18
 -1      4276 7.90790E-05-1.67487E-05-2.67783E-05 4.02076E-06 6.56181E-19-4.10066E-18
 -1      4277 8.28791E-05-1.71658E-05-2.81489E-05 4.86830E-06 3.91867E-19-4.08517E-18
 -1      4278 7.78547E-05-1.79429E-05-2.56592E-05-8.08902E-06 1.45461E-19-3.76541E-18
 -1      4279 8.16307E-05-1.90599E-05-2.67936E-05-8.06539E-06 4.91725E-19-3.59160E-18
 -1      4280 8.23331E-05-1.86117E-05-2.73152E-05-7.17154E-06 7.35655E-19-3.49893E-18
 -1      4281 7.74782E-05-1.68373E-05-2.60116E-05-4.85232E-06 4.48241E-19-3.89486E-18
 -1      4282 7.66579E-05-1.78912E-05-2.51114E-05-3.26106E-06 1.08420E-18-3.62910E-18
 -1      4283 8.13990E-05-1.95822E-05-2.64502E-05 4.07219E-06 3.19908E-20-7.29113E-19
 -1      4284 8.18265E-05-2.02703E-05-2.64224E-05 5.98363E-06-3.77521E-19 9.09932E-20
 -1      4285 8.04268E-05-1.99949E-05-2.59250E-05 6.72423E-06-5.74553E-19 3.11158E-19
 -1      4286 9.52359E-05-2.84727E-05-2.86126E-05-6.49788E-09 6.55798E-19-3.06860E-18
 -1      4287 7.61087E-05-1.59876E-05-2.58050E-05-5.79613E-07 3.10720E-19-3.82664E-18
 -1      4288 9.52397E-05-2.84828E-05-2.86103E-05 9.73652E-09 1.61946E-18-2.73549E-18
 -1      4289 9.52332E-05-2.84650E-05-2.86148E-05 1.69187E-08 1.50684E-18-2.89423E-18
 -1      4290 9.52237E-05-2.84446E-05-2.86195E-05 1.47966E-08 2.27728E-18-2.48739E-18
 -1      4291 9.52401E-05-2.84827E-05-2.86102E-05 6.96080E-09 1.28683E-18-2.31943E-18
 -1      4292 8.80977E-05-2.22426E-05-2.81816E-05 2.09357E-06-8.67646E-20-1.36578E-18
 -1      4293 9.52415E-05-2.84877E-05-2.86088E-05 1.01843E-09 2.14778E-18-2.57010E-18
 -1      4294 9.52410E-05-2.84858E-05-2.86095E-05 3.27035E-09 1.65344E-18-1.52449E-18
 -1      4295 9.52342E-05-2.84680E-05-2.86139E-05 5.79846E-09 1.71464E-18-1.39709E-18
 -1      4296 7.80369E-05-1.94868E-05-2.51488E-05 7.30474E-06-8.63285E-19 1.09508E-18
 -1      4297 7.88989E-05-1.59970E-05-2.69645E-05-6.50635E-07 5.72199E-19-3.95459E-18
 -1      4298 7.88649E-05-1.58568E-05-2.69472E-05 1.04888E-06 5.54169E-19-3.77776E-18
 -1      4299 7.24017E-05-1.68920E-05-2.37635E-05 3.41179E-06-1.01757E-18 4.59249E-19
 -1      4300 8.32067E-05-1.70652E-05-2.83714E-05-4.64820E-06 8.84177E-19-3.65647E-18
 -1      4301 8.18192E-05-1.70230E-05-2.77546E-05-4.41618E-06 8.44929E-19-3.84373E-18
 -1      4302 8.19465E-05-1.65134E-05-2.80430E-05 3.84255E-06 6.06249E-19-4.02762E-18
 -1      4303 9.52426E-05-2.84900E-05-2.86083E-05-9.28993E-10 1.90648E-18-1.99710E-18
 -1      4304 7.81375E-05-1.61752E-05-2.65110E-05-2.77017E-06 5.57392E-19-3.97441E-18
 -1      4305 8.05115E-05-1.65332E-05-2.74122E-05 3.29016E-06 6.80219E-19-3.98811E-18
 -1      4306 9.09571E-05-2.41946E-05-2.86187E-05 6.62559E-07-7.62605E-19-2.74239E-18
 -1      4307 9.03561E-05-2.37260E-05-2.85502E-05 7.82457E-07-1.18175E-18-2.83844E-18
 -1      4308 8.31570E-05-1.99280E-05-2.71181E-05-6.37967E-07 7.20216E-19-2.98877E-18
 -1      4309 8.43674E-05-2.03574E-05-2.74328E-05-5.00505E-07 6.58262E-19-2.43405E-18
 -1      4310 8.59456E-05-2.11715E-05-2.77885E-05 4.04991E-07 2.08908E-19-2.37445E-18
 -1      4311 8.69967E-05-2.16988E-05-2.80107E-05 4.57732E-07 3.17227E-19-1.98138E-18
 -1      4312 8.78605E-05-2.21917E-05-2.81748E-05 2.87915E-07-1.19705E-19-2.44980E-18
 -1      4313 8.87199E-05-2.26804E-05-2.83235E-05 3.49094E-07-2.42821E-19-2.32689E-18
 -1      4314 9.04161E-05-2.37995E-05-2.85578E-05-3.89138E-07-7.00471E-19-1.99452E-18
 -1      4315 9.09939E-05-2.42273E-05-2.86230E-05-3.14280E-07-1.23757E-18-2.11826E-18
 -1      4316 9.16478E-05-2.47290E-05-2.86822E-05-2.33505E-07-1.19893E-18-1.76353E-18
 -1      4317 9.20787E-05-2.50843E-05-2.87119E-05-1.87651E-07-5.33864E-19-1.58173E-18
 -1      4318 9.26249E-05-2.55779E-05-2.87424E-05 9.39161E-08-3.92363E-19-1.62701E-18
 -1      4319 9.29915E-05-2.59076E-05-2.87570E-05 1.22423E-07-5.36768E-19-1.60493E-18
 -1      4320 9.32936E-05-2.62035E-05-2.87620E-05 6.36823E-08-4.72934E-19-2.23574E-18
 -1      4321 9.35816E-05-2.64776E-05-2.87648E-05 9.25564E-08-1.09830E-19-2.45086E-18
 -1      4322 9.38196E-05-2.67264E-05-2.87617E-05 4.46191E-08 9.46073E-20-3.06078E-18
 -1      4323 9.40435E-05-2.69538E-05-2.87573E-05 6.96580E-08 6.91653E-20-3.40517E-18
 -1      4324 9.42268E-05-2.71582E-05-2.87494E-05 3.10612E-08-3.47909E-19-3.43159E-18
 -1      4325 9.43978E-05-2.73434E-05-2.87410E-05 5.16483E-08-2.84140E-19-3.42265E-18
 -1      4326 9.45363E-05-2.75081E-05-2.87307E-05 2.11664E-08-5.57419E-19-3.53818E-18
 -1      4327 9.46645E-05-2.76561E-05-2.87203E-05 3.76339E-08-5.96406E-19-3.69672E-18
 -1      4328 9.47671E-05-2.77864E-05-2.87092E-05 1.39554E-08-1.00094E-18-3.94196E-18
 -1      4329 9.48612E-05-2.79026E-05-2.86982E-05 2.68546E-08-4.62176E-19-4.33145E-18
 -1      4330 9.49355E-05-2.80038E-05-2.86873E-05 8.75730E-09 5.95663E-19-4.54566E-18
 -1      4331 9.50030E-05-2.80934E-05-2.86767E-05 1.86664E-08 9.79673E-19-4.89353E-18
 -1      4332 9.50554E-05-2.81705E-05-2.86665E-05 5.07408E-09 7.85930E-19-5.08024E-18
 -1      4333 9.51024E-05-2.82384E-05-2.86568E-05 1.25312E-08 2.29321E-19-5.07258E-18
 -1      4334 9.51382E-05-2.82961E-05-2.86477E-05 2.54112E-09 2.88150E-19-4.70062E-18
 -1      4335 9.51699E-05-2.83465E-05-2.86390E-05 8.04304E-09 1.64598E-19-4.60753E-18
 -1      4336 9.51932E-05-2.83886E-05-2.86312E-05 9.32238E-10 3.91151E-19-3.15675E-18
 -1      4337 9.52133E-05-2.84252E-05-2.86236E-05 4.20544E-09 8.92799E-19-2.82606E-18
 -1      4338 7.34827E-05-1.71300E-05-2.41866E-05 9.21659E-07-1.08115E-19-1.50794E-18
 -1      4339 7.72796E-05-1.83199E-05-2.52113E-05 4.62588E-06-2.21979E-19-1.50405E-19
 -1      4340 8.43949E-05-2.05107E-05-2.74064E-05 1.89728E-06 9.47051E-19-2.32583E-18
 -1      4341 8.32215E-05-2.00554E-05-2.70838E-05 2.25334E-06 5.48106E-19-1.81282E-18
 -1      4342 9.20477E-05-2.50700E-05-2.87116E-05 5.46724E-07-8.64423E-19-1.56802E-18
 -1      4343 9.16017E-05-2.46951E-05-2.86795E-05 6.52040E-07-4.94930E-19-1.84230E-18
 -1      4344 7.66280E-05-1.79144E-05-2.52032E-05 5.57035E-07 6.39407E-19-2.37794E-18
 -1      4345 8.01048E-05-1.68438E-05-2.71496E-05-4.40124E-06 6.70590E-19-3.98455E-18
 -1      4346 8.94379E-05-2.31437E-05-2.84309E-05 2.22974E-07-5.09420E-19-1.90999E-18
 -1      4347 7.91067E-05-1.86367E-05-2.59400E-05 7.17503E-07 6.86253E-19-2.49844E-18
 -1      4348 9.12364E-05-2.43927E-05-2.86407E-05 1.84274E-07-9.54364E-19-2.45469E-18
 -1      4349 9.01375E-05-2.36050E-05-2.85269E-05 2.55785E-07-8.73968E-19-1.93398E-18
 -1      4350 9.52239E-05-2.84464E-05-2.86188E-05 9.11975E-09 2.12785E-18-1.20561E-18
 -1      4351 9.52267E-05-2.84529E-05-2.86176E-05-5.26309E-09 1.27729E-18-3.22725E-18
 -1      4352 8.17320E-05-1.79264E-05-2.73250E-05-6.36496E-06 7.63125E-19-3.60421E-18
 -1      4353 9.22458E-05-2.52339E-05-2.87245E-05 1.50936E-07-4.60755E-19-1.25398E-18
 -1      4354 8.39162E-05-1.87498E-05-2.79331E-05-6.93119E-06 8.44747E-19-3.42307E-18
 -1      4355 8.45118E-05-1.83062E-05-2.83848E-05-6.06471E-06 1.02481E-18-3.38001E-18
 -1      4356 7.99368E-05-1.87371E-05-2.62312E-05-8.39235E-07 8.14820E-19-3.08230E-18
 -1      4357 8.16590E-05-1.93722E-05-2.67202E-05-6.32481E-07 3.33825E-19-2.93851E-18
 -1      4358 8.49082E-05-2.06798E-05-2.75460E-05 5.83535E-07 7.09378E-19-2.48644E-18
 -1      4359 8.23537E-05-1.95337E-05-2.68931E-05 9.79389E-07 6.18919E-19-3.09948E-18
 -1      4360 8.17838E-05-1.95636E-05-2.66859E-05 2.58651E-06 4.05649E-19-1.91046E-18
 -1      4361 8.01538E-05-1.90234E-05-2.62090E-05 2.74011E-06-7.36522E-21-2.05707E-18
 -3
    1PSTEP                         4           1           1          
  100CL  101 1.000000000        4361                     0    1           1
 -4  ERROR       1    1
 -5  STR(%)      1    1    0    0
 -1         1 1.34558E+01
 -1         2 2.66088E+01
 -1         3 4.87137E-04
 -1         4 5.34872E-04
 -1         5 1.33985E+01
 -1         6 1.24908E+01
 -1         7 1.24908E+01
 -1         8 3.53656E+00
 -1         9 1.94551E+00
 -1        10 1.42513E+00
 -1        11 1.13196E+00
 -1        12 9.05214E-01
 -1        13 7.20254E-01
 -1        14 5.75054E-01
 -1        15 5.82983E-01
 -1        16 7.30752E-01
 -1        17 9.05554E-01
 -1        18 1.14191E+00
 -1        19 1.44495E+00
 -1        20 1.95428E+00
 -1        21 3.38671E+00
 -1        22 8.14141E+00
 -1        23 1.24908E+01
 -1        24 3.98940E+00
 -1        25 2.76510E+00
 -1        26 1.70967E+00
 -1        27 1.14051E+00
 -1        28 8.24138E-01
 -1        29 9.16049E-01
 -1        30 1.19329E+00
 -1        31 1.27868E+00
 -1        32 1.27868E+00
 -1        33 1.25795E+00
 -1        34 1.63497E+00
 -1        35 2.55485E+00
 -1        36 3.84883E+00
 -1        37 4.10506E+00
 -1        38 4.17519E+00
 -1        39 4.17519E+00
 -1        40 3.33111E+00
 -1        41 1.89878E+00
 -1        42 1.46493E+00
 -1        43 1.42034E+00
 -1        44 1.39189E+00
 -1        45 1.39189E+00
 -1        46 1.28848E+00
 -1        47 1.08348E+00
 -1        48 8.64038E-01
 -1        49 6.85926E-01
 -1        50 5.42645E-01
 -1        51 4.59373E-01
 -1        52 3.74564E-01
 -1        53 2.96070E-01
 -1        54 2.27698E-01
 -1        55 1.70657E-01
 -1        56 1.24627E-01
 -1        57 1.00470E-01
 -1        58 8.27325E-02
 -1        59 6.66249E-02
 -1        60 5.25487E-02
 -1        61 4.05963E-02
 -1        62 3.06710E-02
 -1        63 2.30326E-02
 -1        64 1.90562E-02
 -1        65 1.53001E-02
 -1        66 1.18410E-02
 -1        67 8.68008E-03
 -1        68 5.99921E-03
 -1        69 4.84724E-03
 -1        70 3.93167E-03
 -1        71 2.77335E-03
 -1        72 1.33985E+01
 -1        73 3.21841E+00
 -1        74 2.09590E+00
 -1        75 1.50207E+00
 -1        76 1.19799E+00
 -1        77 8.98122E-01
 -1        78 7.90221E-01
 -1        79 8.23942E-01
 -1        80 9.87508E-01
 -1        81 1.18293E+00
 -1        82 1.36813E+00
 -1        83 1.58159E+00
 -1        84 1.88960E+00
 -1        85 2.89764E+00
 -1        86 3.38857E+00
 -1        87 3.88643E+00
 -1        88 3.88643E+00
 -1        89 3.45063E+00
 -1        90 2.19921E+00
 -1        91 1.40905E+00
 -1        92 1.09242E+00
 -1        93 1.24736E+00
 -1        94 1.27514E+00
 -1        95 1.27514E+00
 -1        96 1.16019E+00
 -1        97 9.81260E-01
 -1        98 8.24052E-01
 -1        99 6.60485E-01
 -1       100 5.08676E-01
 -1       101 3.77539E-01
 -1       102 2.91249E-01
 -1       103 2.24996E-01
 -1       104 1.69287E-01
 -1       105 1.24055E-01
 -1       106 8.83719E-02
 -1       107 6.09248E-02
 -1       108 4.68487E-02
 -1       109 3.88256E-02
 -1       110 3.14380E-02
 -1       111 2.48951E-02
 -1       112 1.96429E-02
 -1       113 1.74407E-02
 -1       114 1.49300E-02
 -1       115 1.23221E-02
 -1       116 9.71512E-03
 -1       117 7.27075E-03
 -1       118 5.07692E-03
 -1       119 3.87899E-03
 -1       120 2.17831E-03
 -1       121 1.01445E-03
 -1       122 9.48249E-04
 -1       123 5.43194E-04
 -1       124 2.69402E-04
 -1       125 4.72945E-04
 -1       126 5.95373E-04
 -1       127 6.55695E-04
 -1       128 6.69494E-04
 -1       129 6.69494E-04
 -1       130 6.55090E-04
 -1       131 5.89276E-04
 -1       132 4.71684E-04
 -1       133 2.66361E-04
 -1       134 5.57194E-04
 -1       135 1.25598E-03
 -1       136 1.66115E-03
 -1       137 2.66088E+01
 -1       138 4.66690E+01
 -1       139 4.66690E+01
 -1       140 1.94454E+01
 -1       141 1.18773E+01
 -1       142 1.21790E+01
 -1       143 1.31600E+01
 -1       144 1.31600E+01
 -1       145 1.23536E+01
 -1       146 1.37152E+01
 -1       147 3.51863E+01
 -1       148 3.51863E+01
 -1       149 2.66820E+01
 -1       150 2.54720E+01
 -1       151 2.43397E+01
 -1       152 2.53668E+01
 -1       153 3.52273E+01
 -1       154 3.52273E+01
 -1       155 1.20015E+01
 -1       156 1.20015E+01
 -1       157 1.26944E+01
 -1       158 1.26944E+01
 -1       159 1.19508E+01
 -1       160 2.11140E+01
 -1       161 4.81151E+01
 -1       162 4.81151E+01
 -1       163 2.48215E+01
 -1       164 5.78062E+00
 -1       165 2.41641E+00
 -1       166 1.67531E+00
 -1       167 1.27919E+00
 -1       168 1.00950E+00
 -1       169 8.01196E-01
 -1       170 6.33298E-01
 -1       171 5.14896E-01
 -1       172 6.42317E-01
 -1       173 8.05773E-01
 -1       174 1.02185E+00
 -1       175 1.29633E+00
 -1       176 1.69580E+00
 -1       177 2.40431E+00
 -1       178 3.77494E+00
 -1       179 1.33985E+01
 -1       180 3.98940E+00
 -1       181 2.76510E+00
 -1       182 1.70967E+00
 -1       183 1.14051E+00
 -1       184 8.19905E-01
 -1       185 8.24138E-01
 -1       186 9.16049E-01
 -1       187 1.19329E+00
 -1       188 1.27868E+00
 -1       189 1.25795E+00
 -1       190 1.19852E+00
 -1       191 1.63497E+00
 -1       192 2.55485E+00
 -1       193 3.84883E+00
 -1       194 4.10506E+00
 -1       195 4.17519E+00
 -1       196 3.33111E+00
 -1       197 2.06083E+00
 -1       198 1.46493E+00
 -1       199 1.42034E+00
 -1       200 1.35239E+00
 -1       201 1.39189E+00
 -1       202 1.28848E+00
 -1       203 1.08348E+00
 -1       204 9.05566E-01
 -1       205 7.82307E-01
 -1       206 6.49671E-01
 -1       207 5.15356E-01
 -1       208 3.92956E-01
 -1       209 2.96070E-01
 -1       210 2.30588E-01
 -1       211 1.78741E-01
 -1       212 1.35324E-01
 -1       213 1.00470E-01
 -1       214 8.27325E-02
 -1       215 6.66249E-02
 -1       216 5.25487E-02
 -1       217 4.05963E-02
 -1       218 3.06710E-02
 -1       219 2.36769E-02
 -1       220 1.90562E-02
 -1       221 1.53001E-02
 -1       222 1.18410E-02
 -1       223 8.86597E-03
 -1       224 6.40477E-03
 -1       225 4.84724E-03
 -1       226 3.93167E-03
 -1       227 2.77335E-03
 -1       228 3.21841E+00
 -1       229 2.09590E+00
 -1       230 1.50207E+00
 -1       231 1.19799E+00
 -1       232 8.98122E-01
 -1       233 7.90221E-01
 -1       234 7.47301E-01
 -1       235 8.23942E-01
 -1       236 9.87508E-01
 -1       237 1.18293E+00
 -1       238 1.36813E+00
 -1       239 1.58159E+00
 -1       240 2.03803E+00
 -1       241 2.89764E+00
 -1       242 3.38857E+00
 -1       243 3.88643E+00
 -1       244 3.45063E+00
 -1       245 2.19921E+00
 -1       246 1.40905E+00
 -1       247 9.84080E-01
 -1       248 1.09242E+00
 -1       249 1.24736E+00
 -1       250 1.27514E+00
 -1       251 1.16019E+00
 -1       252 9.81260E-01
 -1       253 8.24052E-01
 -1       254 6.78394E-01
 -1       255 5.37734E-01
 -1       256 4.11056E-01
 -1       257 3.03603E-01
 -1       258 2.24996E-01
 -1       259 1.69287E-01
 -1       260 1.24206E-01
 -1       261 9.08218E-02
 -1       262 6.46251E-02
 -1       263 4.68487E-02
 -1       264 3.88256E-02
 -1       265 3.14380E-02
 -1       266 2.48951E-02
 -1       267 1.96429E-02
 -1       268 1.74407E-02
 -1       269 1.49300E-02
 -1       270 1.23221E-02
 -1       271 9.71512E-03
 -1       272 7.27075E-03
 -1       273 5.07692E-03
 -1       274 3.87899E-03
 -1       275 2.22373E-03
 -1       276 1.01396E-03
 -1       277 9.67822E-04
 -1       278 6.73799E-04
 -1       279 7.82193E-04
 -1       280 1.02949E-03
 -1       281 1.16015E-03
 -1       282 1.20654E-03
 -1       283 1.20654E-03
 -1       284 1.20613E-03
 -1       285 1.15513E-03
 -1       286 1.02904E-03
 -1       287 7.89868E-04
 -1       288 6.50487E-04
 -1       289 6.50487E-04
 -1       290 1.61369E-03
 -1       291 2.91586E+01
 -1       292 2.84314E+01
 -1       293 4.66690E+01
 -1       294 2.04189E+01
 -1       295 1.18773E+01
 -1       296 1.18466E+01
 -1       297 1.21790E+01
 -1       298 1.31600E+01
 -1       299 1.23536E+01
 -1       300 1.13913E+01
 -1       301 1.37152E+01
 -1       302 3.51863E+01
 -1       303 3.42205E+01
 -1       304 2.73706E+01
 -1       305 2.73706E+01
 -1       306 2.60423E+01
 -1       307 3.42852E+01
 -1       308 3.52273E+01
 -1       309 1.34558E+01
 -1       310 1.15087E+01
 -1       311 1.20015E+01
 -1       312 1.16362E+01
 -1       313 1.26944E+01
 -1       314 1.19508E+01
 -1       315 1.14955E+01
 -1       316 2.27548E+01
 -1       317 4.81151E+01
 -1       318 2.98809E+01
 -1       319 2.91586E+01
 -1       320 1.25355E+00
 -1       321 2.42701E+00
 -1       322 9.14241E-01
 -1       323 7.42819E-01
 -1       324 5.99543E-01
 -1       325 4.72848E-01
 -1       326 4.83804E-01
 -1       327 6.07646E-01
 -1       328 7.57488E-01
 -1       329 9.18189E-01
 -1       330 1.09594E+00
 -1       331 1.35394E+00
 -1       332 1.45332E+00
 -1       333 1.83456E+00
 -1       334 1.45611E+00
 -1       335 1.16911E+00
 -1       336 6.48617E-01
 -1       337 4.72835E-01
 -1       338 5.70376E-01
 -1       339 6.86372E-01
 -1       340 7.97400E-01
 -1       341 8.51258E-01
 -1       342 7.86529E-01
 -1       343 8.97909E-01
 -1       344 1.15464E+00
 -1       345 1.71634E+00
 -1       346 2.23712E+00
 -1       347 2.50933E+00
 -1       348 2.45691E+00
 -1       349 2.47560E+00
 -1       350 1.90853E+00
 -1       351 1.41482E+00
 -1       352 8.70616E-01
 -1       353 8.42123E-01
 -1       354 9.41052E-01
 -1       355 1.05768E+00
 -1       356 1.01957E+00
 -1       357 9.10895E-01
 -1       358 8.17186E-01
 -1       359 7.13529E-01
 -1       360 5.93671E-01
 -1       361 4.75103E-01
 -1       362 3.67744E-01
 -1       363 2.76075E-01
 -1       364 2.01104E-01
 -1       365 1.41862E-01
 -1       366 1.00071E-01
 -1       367 7.21714E-02
 -1       368 5.23617E-02
 -1       369 4.11007E-02
 -1       370 3.38975E-02
 -1       371 2.72837E-02
 -1       372 2.14192E-02
 -1       373 1.63469E-02
 -1       374 1.29117E-02
 -1       375 1.07064E-02
 -1       376 8.45391E-03
 -1       377 6.29980E-03
 -1       378 4.59647E-03
 -1       379 3.19012E-03
 -1       380 2.44909E-03
 -1       381 7.92275E-01
 -1       382 6.26017E-01
 -1       383 5.42048E-01
 -1       384 5.78321E-01
 -1       385 6.67742E-01
 -1       386 6.67742E-01
 -1       387 6.12803E-01
 -1       388 5.72504E-01
 -1       389 8.58343E-01
 -1       390 1.51350E+00
 -1       391 1.93553E+00
 -1       392 1.96867E+00
 -1       393 1.91694E+00
 -1       394 2.18655E+00
 -1       395 2.20353E+00
 -1       396 1.62820E+00
 -1       397 9.55034E-01
 -1       398 6.21295E-01
 -1       399 7.95284E-01
 -1       400 9.10067E-01
 -1       401 9.43747E-01
 -1       402 9.21463E-01
 -1       403 8.27612E-01
 -1       404 7.40226E-01
 -1       405 6.26750E-01
 -1       406 5.08251E-01
 -1       407 3.97445E-01
 -1       408 3.00788E-01
 -1       409 2.20539E-01
 -1       410 1.65682E-01
 -1       411 1.24206E-01
 -1       412 9.08218E-02
 -1       413 6.46251E-02
 -1       414 4.45347E-02
 -1       415 2.94618E-02
 -1       416 2.51718E-02
 -1       417 2.10579E-02
 -1       418 1.70952E-02
 -1       419 1.34441E-02
 -1       420 1.01937E-02
 -1       421 8.69157E-03
 -1       422 7.21629E-03
 -1       423 5.74106E-03
 -1       424 4.43674E-03
 -1       425 3.11855E-03
 -1       426 2.22373E-03
 -1       427 1.10719E-03
 -1       428 1.89664E-03
 -1       429 1.89664E-03
 -1       430 1.35058E-03
 -1       431 1.50560E-03
 -1       432 1.55797E-03
 -1       433 1.55797E-03
 -1       434 1.55414E-03
 -1       435 1.55414E-03
 -1       436 1.50527E-03
 -1       437 1.35194E-03
 -1       438 1.09778E-03
 -1       439 1.91594E-03
 -1       440 2.84314E+01
 -1       441 3.04760E+01
 -1       442 2.26219E+01
 -1       443 1.62132E+01
 -1       444 9.60076E+00
 -1       445 1.22828E+00
 -1       446 1.04284E+01
 -1       447 1.07615E+01
 -1       448 9.38954E+00
 -1       449 8.71418E+00
 -1       450 6.91224E+00
 -1       451 1.29751E+01
 -1       452 2.30450E+01
 -1       453 2.67573E+01
 -1       454 3.74113E+01
 -1       455 3.74113E+01
 -1       456 2.62741E+01
 -1       457 2.16252E+01
 -1       458 1.21778E+01
 -1       459 7.82515E+00
 -1       460 9.21673E+00
 -1       461 1.09175E+01
 -1       462 1.07417E+01
 -1       463 9.59368E+00
 -1       464 7.42647E+00
 -1       465 9.91893E+00
 -1       466 1.73259E+01
 -1       467 2.98809E+01
 -1       468 3.04760E+01
 -1       469 8.16224E+00
 -1       470 2.89986E+01
 -1       471 1.19878E+01
 -1       472 9.30480E+00
 -1       473 5.80100E+00
 -1       474 9.80177E-01
 -1       475 5.43945E-01
 -1       476 6.79557E-01
 -1       477 3.05856E-01
 -1       478 4.19852E-01
 -1       479 5.50780E-01
 -1       480 6.79379E-01
 -1       481 7.78893E-01
 -1       482 1.08580E+00
 -1       483 5.42530E-01
 -1       484 7.63891E-01
 -1       485 5.43502E+00
 -1       486 6.20154E-01
 -1       487 6.39249E-01
 -1       488 7.43679E-01
 -1       489 8.80543E-01
 -1       490 1.02025E+00
 -1       491 1.12379E+00
 -1       492 1.30341E+00
 -1       493 1.58173E+00
 -1       494 1.85337E+00
 -1       495 1.92661E+00
 -1       496 2.66828E+00
 -1       497 3.31999E+00
 -1       498 3.14718E+00
 -1       499 2.12789E+00
 -1       500 1.82524E+00
 -1       501 1.64235E+00
 -1       502 1.48594E+00
 -1       503 1.25998E+00
 -1       504 1.22350E+00
 -1       505 1.10474E+00
 -1       506 9.61771E-01
 -1       507 8.71551E-01
 -1       508 7.66116E-01
 -1       509 6.46149E-01
 -1       510 5.27069E-01
 -1       511 4.17910E-01
 -1       512 3.23040E-01
 -1       513 2.43763E-01
 -1       514 1.79545E-01
 -1       515 1.28876E-01
 -1       516 8.98294E-02
 -1       517 6.04130E-02
 -1       518 3.87619E-02
 -1       519 2.62682E-02
 -1       520 1.97347E-02
 -1       521 1.71262E-02
 -1       522 1.43244E-02
 -1       523 1.15548E-02
 -1       524 8.95237E-03
 -1       525 7.17464E-03
 -1       526 5.78264E-03
 -1       527 4.34009E-03
 -1       528 3.19012E-03
 -1       529 1.95795E+01
 -1       530 6.34726E-01
 -1       531 7.41133E-01
 -1       532 8.31382E-01
 -1       533 8.62798E-01
 -1       534 9.92636E-01
 -1       535 1.18089E+00
 -1       536 1.45484E+00
 -1       537 1.68431E+00
 -1       538 2.12141E+00
 -1       539 2.49262E+00
 -1       540 2.49405E+00
 -1       541 2.14550E+00
 -1       542 1.66460E+00
 -1       543 1.37483E+00
 -1       544 1.15417E+00
 -1       545 9.95134E-01
 -1       546 1.00600E+00
 -1       547 9.92734E-01
 -1       548 9.12127E-01
 -1       549 8.38499E-01
 -1       550 7.55408E-01
 -1       551 6.53223E-01
 -1       552 5.41683E-01
 -1       553 4.33955E-01
 -1       554 3.37361E-01
 -1       555 2.55078E-01
 -1       556 1.87643E-01
 -1       557 1.34093E-01
 -1       558 9.27187E-02
 -1       559 6.15630E-02
 -1       560 4.25842E-02
 -1       561 3.01246E-02
 -1       562 2.51718E-02
 -1       563 2.10579E-02
 -1       564 1.70952E-02
 -1       565 1.34441E-02
 -1       566 1.01937E-02
 -1       567 8.60944E-03
 -1       568 6.87101E-03
 -1       569 5.12270E-03
 -1       570 3.77376E-03
 -1       571 2.70375E-03
 -1       572 1.80157E-03
 -1       573 1.82395E-03
 -1       574 2.39073E-03
 -1       575 1.65699E-03
 -1       576 1.82395E-03
 -1       577 1.76946E-03
 -1       578 1.81756E-03
 -1       579 1.81756E-03
 -1       580 1.80189E-03
 -1       581 1.62776E-03
 -1       582 1.52696E-03
 -1       583 3.04760E+01
 -1       584 5.45676E-01
 -1       585 1.33859E+01
 -1       586 2.17519E+01
 -1       587 1.22828E+00
 -1       588 8.94730E+00
 -1       589 2.62741E+01
 -1       590 4.15145E-01
 -1       591 7.66553E+00
 -1       592 6.83824E+00
 -1       593 5.84256E+00
 -1       594 4.03413E+00
 -1       595 1.02730E+01
 -1       596 1.68363E+01
 -1       597 2.67573E+01
 -1       598 3.74113E+01
 -1       599 1.74258E+01
 -1       600 8.10529E+00
 -1       601 4.41014E+00
 -1       602 6.63910E+00
 -1       603 7.60991E+00
 -1       604 4.86162E+00
 -1       605 5.68505E+00
 -1       606 9.25942E+00
 -1       607 1.36540E+01
 -1       608 1.08580E+00
 -1       609 4.99534E+00
 -1       610 9.41408E-01
 -1       611 2.02175E+01
 -1       612 1.99430E-03
 -1       613 6.71502E+00
 -1       614 7.33241E+00
 -1       615 7.51278E+00
 -1       616 5.11737E-01
 -1       617 3.15453E-01
 -1       618 7.05638E-01
 -1       619 7.51880E-01
 -1       620 8.29943E-01
 -1       621 8.02077E+00
 -1       622 5.45676E-01
 -1       623 4.72766E+00
 -1       624 1.09993E+01
 -1       625 7.00607E-01
 -1       626 7.98923E-01
 -1       627 9.33688E-01
 -1       628 1.14333E+00
 -1       629 1.43656E+00
 -1       630 1.77093E+00
 -1       631 2.03814E+00
 -1       632 2.73198E+00
 -1       633 2.51563E+00
 -1       634 2.66828E+00
 -1       635 3.47464E+00
 -1       636 3.75401E+00
 -1       637 3.14718E+00
 -1       638 2.25174E+00
 -1       639 2.74827E+00
 -1       640 2.33136E+00
 -1       641 1.77136E+00
 -1       642 1.50330E+00
 -1       643 1.22350E+00
 -1       644 1.10474E+00
 -1       645 9.61771E-01
 -1       646 8.21985E-01
 -1       647 6.78131E-01
 -1       648 5.44077E-01
 -1       649 4.26189E-01
 -1       650 3.26503E-01
 -1       651 2.45378E-01
 -1       652 1.82693E-01
 -1       653 1.33133E-01
 -1       654 9.46772E-02
 -1       655 6.59774E-02
 -1       656 4.54485E-02
 -1       657 3.02065E-02
 -1       658 1.91327E-02
 -1       659 1.25723E-02
 -1       660 9.81610E-03
 -1       661 9.07087E-03
 -1       662 7.88901E-03
 -1       663 6.49883E-03
 -1       664 5.05900E-03
 -1       665 4.04478E-03
 -1       666 3.04470E-03
 -1       667 5.16700E+00
 -1       668 3.46369E+00
 -1       669 7.71805E-01
 -1       670 1.34575E+00
 -1       671 1.53581E+00
 -1       672 2.04303E+00
 -1       673 2.02838E+00
 -1       674 2.14023E+00
 -1       675 3.85939E+00
 -1       676 5.63273E+00
 -1       677 3.29023E+00
 -1       678 3.77886E+00
 -1       679 1.95243E+00
 -1       680 1.96293E+00
 -1       681 1.59158E+00
 -1       682 1.39963E+00
 -1       683 1.25167E+00
 -1       684 1.06357E+00
 -1       685 9.13807E-01
 -1       686 8.11630E-01
 -1       687 6.93456E-01
 -1       688 5.74515E-01
 -1       689 4.63778E-01
 -1       690 3.65844E-01
 -1       691 2.82425E-01
 -1       692 2.13454E-01
 -1       693 1.57849E-01
 -1       694 1.14015E-01
 -1       695 8.01745E-02
 -1       696 5.45850E-02
 -1       697 3.56503E-02
 -1       698 2.19713E-02
 -1       699 1.47647E-02
 -1       700 1.27572E-02
 -1       701 1.11884E-02
 -1       702 9.36757E-03
 -1       703 7.48743E-03
 -1       704 5.75109E-03
 -1       705 4.59682E-03
 -1       706 3.44659E-03
 -1       707 3.05328E-03
 -1       708 1.89296E-03
 -1       709 2.14911E-03
 -1       710 2.06235E-03
 -1       711 1.89381E-03
 -1       712 2.02958E-03
 -1       713 1.07268E+01
 -1       714 2.01937E-03
 -1       715 2.07056E-03
 -1       716 2.07056E-03
 -1       717 6.34726E-01
 -1       718 1.35301E+01
 -1       719 7.57405E+00
 -1       720 1.44852E+01
 -1       721 1.09695E+00
 -1       722 1.40822E+01
 -1       723 2.90461E+00
 -1       724 1.15957E+00
 -1       725 9.72878E-01
 -1       726 1.09695E+00
 -1       727 6.37807E-01
 -1       728 1.39197E+01
 -1       729 6.36816E-01
 -1       730 2.72614E+00
 -1       731 9.44484E+00
 -1       732 9.65140E+00
 -1       733 3.93399E+00
 -1       734 5.47324E+00
 -1       735 5.40099E+00
 -1       736 1.46889E+01
 -1       737 6.19849E+00
 -1       738 3.47464E+00
 -1       739 1.68326E+01
 -1       740 5.45055E+00
 -1       741 6.00828E+00
 -1       742 3.77886E+00
 -1       743 1.09695E+00
 -1       744 3.07597E-01
 -1       745 1.17058E+01
 -1       746 1.24143E+01
 -1       747 2.09007E-03
 -1       748 2.17028E-03
 -1       749 8.65473E+00
 -1       750 2.26957E-03
 -1       751 4.54943E+00
 -1       752 4.79007E+00
 -1       753 5.00121E-01
 -1       754 5.63273E+00
 -1       755 5.13011E+00
 -1       756 7.66257E-01
 -1       757 9.34822E+00
 -1       758 1.00088E+00
 -1       759 1.27918E+00
 -1       760 1.62061E+00
 -1       761 2.02092E+00
 -1       762 2.87936E+00
 -1       763 3.48210E+00
 -1       764 4.09334E+00
 -1       765 3.59941E+00
 -1       766 3.12098E+00
 -1       767 2.48045E+00
 -1       768 1.82139E+00
 -1       769 1.50468E+00
 -1       770 1.20088E+00
 -1       771 9.45871E-01
 -1       772 7.50593E-01
 -1       773 5.87330E-01
 -1       774 4.65014E-01
 -1       775 3.62534E-01
 -1       776 2.76365E-01
 -1       777 2.08857E-01
 -1       778 1.55122E-01
 -1       779 1.12782E-01
 -1       780 8.00231E-02
 -1       781 5.57932E-02
 -1       782 3.83646E-02
 -1       783 2.54925E-02
 -1       784 1.61807E-02
 -1       785 9.61179E-03
 -1       786 5.81041E-03
 -1       787 5.10351E-03
 -1       788 4.81228E-03
 -1       789 4.19464E-03
 -1       790 3.45192E-03
 -1       791 2.92715E-03
 -1       792 2.96065E+00
 -1       793 2.53862E+00
 -1       794 2.58610E+00
 -1       795 2.81710E+00
 -1       796 3.11862E+00
 -1       797 2.19722E+00
 -1       798 1.75142E+00
 -1       799 1.34535E+00
 -1       800 1.14844E+00
 -1       801 9.48145E-01
 -1       802 7.73229E-01
 -1       803 6.21335E-01
 -1       804 4.89991E-01
 -1       805 3.80099E-01
 -1       806 2.93334E-01
 -1       807 2.23572E-01
 -1       808 1.67839E-01
 -1       809 1.23869E-01
 -1       810 8.96435E-02
 -1       811 6.33918E-02
 -1       812 4.35905E-02
 -1       813 2.89321E-02
 -1       814 1.83106E-02
 -1       815 1.08080E-02
 -1       816 6.92394E-03
 -1       817 6.82726E-03
 -1       818 6.23715E-03
 -1       819 5.32423E-03
 -1       820 4.25970E-03
 -1       821 3.39384E-03
 -1       822 2.77369E-03
 -1       823 5.21648E+00
 -1       824 5.27539E-01
 -1       825 1.75125E-03
 -1       826 2.13558E-03
 -1       827 1.89498E-03
 -1       828 1.05663E+00
 -1       829 1.61569E+00
 -1       830 6.09357E+00
 -1       831 2.01937E-03
 -1       832 2.87740E+00
 -1       833 2.04303E+00
 -1       834 5.95416E+00
 -1       835 8.37267E-01
 -1       836 1.03631E+01
 -1       837 1.28789E+00
 -1       838 1.18209E+01
 -1       839 4.18408E+00
 -1       840 6.52050E+00
 -1       841 5.98312E-01
 -1       842 1.03631E+01
 -1       843 5.55780E+00
 -1       844 7.97942E+00
 -1       845 1.01381E+01
 -1       846 4.62565E-01
 -1       847 7.84738E-01
 -1       848 6.55867E+00
 -1       849 9.91112E+00
 -1       850 2.14109E-03
 -1       851 8.32295E+00
 -1       852 6.22588E+00
 -1       853 7.97029E-01
 -1       854 2.14109E-03
 -1       855 6.72676E-01
 -1       856 1.89296E-03
 -1       857 4.94515E+00
 -1       858 8.93009E-01
 -1       859 7.65156E-01
 -1       860 1.01978E+00
 -1       861 8.21611E-01
 -1       862 2.59496E-03
 -1       863 7.06472E+00
 -1       864 1.74320E+00
 -1       865 2.54090E+00
 -1       866 3.12270E+00
 -1       867 6.18836E+00
 -1       868 3.52103E+00
 -1       869 2.48045E+00
 -1       870 2.17114E+00
 -1       871 1.52149E+00
 -1       872 1.15251E+00
 -1       873 9.05208E-01
 -1       874 7.35650E-01
 -1       875 5.86906E-01
 -1       876 4.61059E-01
 -1       877 3.56758E-01
 -1       878 2.71710E-01
 -1       879 2.03454E-01
 -1       880 1.49562E-01
 -1       881 1.07673E-01
 -1       882 7.55847E-02
 -1       883 5.23386E-02
 -1       884 3.53638E-02
 -1       885 2.29048E-02
 -1       886 1.39687E-02
 -1       887 7.87444E-03
 -1       888 3.74589E-03
 -1       889 3.38821E-03
 -1       890 3.65568E-03
 -1       891 3.45192E-03
 -1       892 2.50670E+00
 -1       893 2.02549E+00
 -1       894 1.53108E+00
 -1       895 1.13850E+00
 -1       896 8.90057E-01
 -1       897 7.09998E-01
 -1       898 5.80159E-01
 -1       899 4.63147E-01
 -1       900 3.62310E-01
 -1       901 2.78024E-01
 -1       902 2.09230E-01
 -1       903 1.54197E-01
 -1       904 1.11089E-01
 -1       905 7.79695E-02
 -1       906 5.43169E-02
 -1       907 3.65826E-02
 -1       908 2.35646E-02
 -1       909 1.43530E-02
 -1       910 7.96493E-03
 -1       911 4.36261E-03
 -1       912 4.06292E-03
 -1       913 4.19545E-03
 -1       914 3.86876E-03
 -1       915 3.25455E-03
 -1       916 6.54062E+00
 -1       917 1.48237E+00
 -1       918 2.63745E-03
 -1       919 4.32033E+00
 -1       920 2.32174E+00
 -1       921 1.79577E-03
 -1       922 3.61434E+00
 -1       923 4.55204E+00
 -1       924 2.73368E+00
 -1       925 3.52316E+00
 -1       926 1.13912E+00
 -1       927 5.89746E-01
 -1       928 7.99117E+00
 -1       929 1.28654E+00
 -1       930 6.54062E+00
 -1       931 9.35412E-01
 -1       932 6.25017E+00
 -1       933 4.34481E+00
 -1       934 5.94098E+00
 -1       935 5.58478E+00
 -1       936 5.13011E+00
 -1       937 5.59700E+00
 -1       938 2.92715E-03
 -1       939 8.67550E-01
 -1       940 1.80122E-03
 -1       941 8.67550E-01
 -1       942 1.10628E+00
 -1       943 2.65120E-03
 -1       944 5.40516E+00
 -1       945 4.09279E+00
 -1       946 3.09605E-03
 -1       947 7.20006E-01
 -1       948 1.00374E+00
 -1       949 2.67894E-03
 -1       950 3.18558E+00
 -1       951 1.66458E+00
 -1       952 3.96887E+00
 -1       953 1.00374E+00
 -1       954 2.46971E+00
 -1       955 2.04738E+00
 -1       956 1.49652E+00
 -1       957 1.15251E+00
 -1       958 8.87939E-01
 -1       959 6.84841E-01
 -1       960 5.28713E-01
 -1       961 4.06644E-01
 -1       962 3.10383E-01
 -1       963 2.34626E-01
 -1       964 1.75156E-01
 -1       965 1.28854E-01
 -1       966 9.30016E-02
 -1       967 6.55603E-02
 -1       968 4.49323E-02
 -1       969 3.05918E-02
 -1       970 2.01261E-02
 -1       971 1.25636E-02
 -1       972 7.23405E-03
 -1       973 3.69724E-03
 -1       974 2.00423E-03
 -1       975 2.67894E-03
 -1       976 1.61702E+00
 -1       977 3.87487E+00
 -1       978 1.11371E+00
 -1       979 8.90057E-01
 -1       980 7.02222E-01
 -1       981 5.50387E-01
 -1       982 4.27741E-01
 -1       983 3.28794E-01
 -1       984 2.49920E-01
 -1       985 1.87168E-01
 -1       986 1.37955E-01
 -1       987 9.97583E-02
 -1       988 7.04284E-02
 -1       989 4.83176E-02
 -1       990 3.29830E-02
 -1       991 2.16681E-02
 -1       992 1.34952E-02
 -1       993 7.74155E-03
 -1       994 3.92042E-03
 -1       995 2.35174E-03
 -1       996 3.09605E-03
 -1       997 3.13585E+00
 -1       998 1.49298E+00
 -1       999 3.92749E+00
 -1      1000 1.13912E+00
 -1      1001 2.47667E+00
 -1      1002 3.99540E+00
 -1      1003 4.90732E+00
 -1      1004 6.87394E-01
 -1      1005 7.20889E-01
 -1      1006 4.68330E+00
 -1      1007 9.35412E-01
 -1      1008 2.21431E-03
 -1      1009 2.68239E+00
 -1      1010 1.28654E+00
 -1      1011 3.95051E+00
 -1      1012 3.35183E+00
 -1      1013 4.59970E+00
 -1      1014 5.08878E+00
 -1      1015 1.80122E-03
 -1      1016 1.63002E-03
 -1      1017 1.26824E+00
 -1      1018 3.92749E+00
 -1      1019 9.96751E-01
 -1      1020 4.90732E+00
 -1      1021 3.09605E-03
 -1      1022 9.96751E-01
 -1      1023 3.01775E+00
 -1      1024 8.04733E-01
 -1      1025 3.49479E+00
 -1      1026 2.39869E+00
 -1      1027 1.38320E+00
 -1      1028 1.00184E+00
 -1      1029 7.38950E-01
 -1      1030 5.55571E-01
 -1      1031 4.21694E-01
 -1      1032 3.19506E-01
 -1      1033 2.41321E-01
 -1      1034 1.82339E-01
 -1      1035 1.35886E-01
 -1      1036 9.96818E-02
 -1      1037 7.16459E-02
 -1      1038 5.04324E-02
 -1      1039 3.45287E-02
 -1      1040 2.33697E-02
 -1      1041 1.55304E-02
 -1      1042 1.01820E-02
 -1      1043 6.27202E-03
 -1      1044 3.30974E-03
 -1      1045 1.45827E-03
 -1      1046 1.06293E+00
 -1      1047 3.82833E+00
 -1      1048 1.52251E+00
 -1      1049 6.10429E-01
 -1      1050 4.66289E-01
 -1      1051 3.54519E-01
 -1      1052 2.68782E-01
 -1      1053 2.02640E-01
 -1      1054 1.51505E-01
 -1      1055 1.11453E-01
 -1      1056 8.03285E-02
 -1      1057 5.66613E-02
 -1      1058 3.88948E-02
 -1      1059 2.63232E-02
 -1      1060 1.74288E-02
 -1      1061 1.09776E-02
 -1      1062 6.51705E-03
 -1      1063 3.63448E-03
 -1      1064 1.72232E-03
 -1      1065 2.53718E+00
 -1      1066 3.31585E+00
 -1      1067 2.92167E+00
 -1      1068 1.12756E+00
 -1      1069 1.21366E+00
 -1      1070 3.98819E+00
 -1      1071 2.21431E-03
 -1      1072 2.41952E+00
 -1      1073 3.92749E+00
 -1      1074 1.62070E+00
 -1      1075 1.37093E+00
 -1      1076 2.30603E+00
 -1      1077 9.32594E-01
 -1      1078 1.58140E-03
 -1      1079 1.83854E+00
 -1      1080 2.81852E-03
 -1      1081 1.04691E+00
 -1      1082 3.29607E+00
 -1      1083 1.83854E+00
 -1      1084 6.04461E-01
 -1      1085 2.11647E+00
 -1      1086 9.74979E-01
 -1      1087 7.64386E-01
 -1      1088 6.04461E-01
 -1      1089 4.51925E-01
 -1      1090 3.28905E-01
 -1      1091 2.95150E-01
 -1      1092 2.01054E-01
 -1      1093 1.53820E-01
 -1      1094 1.15060E-01
 -1      1095 8.43475E-02
 -1      1096 6.09612E-02
 -1      1097 4.33833E-02
 -1      1098 3.00211E-02
 -1      1099 2.07341E-02
 -1      1100 1.39085E-02
 -1      1101 8.83562E-03
 -1      1102 5.11005E-03
 -1      1103 8.20512E-01
 -1      1104 1.12963E+00
 -1      1105 4.51925E-01
 -1      1106 2.79114E-01
 -1      1107 2.04914E-01
 -1      1108 1.92481E-01
 -1      1109 1.52653E-01
 -1      1110 1.15060E-01
 -1      1111 8.43475E-02
 -1      1112 6.04018E-02
 -1      1113 4.26224E-02
 -1      1114 2.96582E-02
 -1      1115 1.99409E-02
 -1      1116 1.27583E-02
 -1      1117 7.37465E-03
 -1      1118 2.59524E+00
 -1      1119 1.65075E-03
 -1      1120 7.64386E-01
 -1      1121 3.19324E+00
 -1      1122 1.83854E+00
 -1      1123 2.33518E+00
 -1      1124 1.82076E+00
 -1      1125 2.57181E-03
 -1      1126 2.81852E-03
 -1      1127 1.17574E+00
 -1      1128 2.95150E-01
 -1      1129 8.69934E-01
 -1      1130 2.95150E-01
 -1      1131 9.80276E-01
 -1      1132 1.24908E+01
 -1      1133 8.01367E+00
 -1      1134 2.74103E+00
 -1      1135 1.68532E+00
 -1      1136 1.27854E+00
 -1      1137 1.01858E+00
 -1      1138 8.12734E-01
 -1      1139 6.47654E-01
 -1      1140 5.79019E-01
 -1      1141 6.56867E-01
 -1      1142 8.18153E-01
 -1      1143 1.02373E+00
 -1      1144 1.29343E+00
 -1      1145 1.69961E+00
 -1      1146 2.67049E+00
 -1      1147 5.76406E+00
 -1      1148 1.07700E+01
 -1      1149 1.24908E+01
 -1      1150 8.24009E+00
 -1      1151 3.37725E+00
 -1      1152 2.23738E+00
 -1      1153 1.42509E+00
 -1      1154 9.82326E-01
 -1      1155 8.70093E-01
 -1      1156 1.05467E+00
 -1      1157 1.23599E+00
 -1      1158 1.27868E+00
 -1      1159 1.26832E+00
 -1      1160 1.44646E+00
 -1      1161 2.09491E+00
 -1      1162 3.20184E+00
 -1      1163 3.97695E+00
 -1      1164 4.14012E+00
 -1      1165 4.17519E+00
 -1      1166 3.75315E+00
 -1      1167 2.61494E+00
 -1      1168 1.68185E+00
 -1      1169 1.44263E+00
 -1      1170 1.40612E+00
 -1      1171 1.39189E+00
 -1      1172 1.34019E+00
 -1      1173 1.18598E+00
 -1      1174 9.73760E-01
 -1      1175 7.74982E-01
 -1      1176 6.14286E-01
 -1      1177 5.01009E-01
 -1      1178 4.16968E-01
 -1      1179 3.35317E-01
 -1      1180 2.61884E-01
 -1      1181 1.99178E-01
 -1      1182 1.47642E-01
 -1      1183 1.12548E-01
 -1      1184 9.16013E-02
 -1      1185 7.46787E-02
 -1      1186 5.95868E-02
 -1      1187 4.65725E-02
 -1      1188 3.56336E-02
 -1      1189 2.68518E-02
 -1      1190 2.10444E-02
 -1      1191 1.71782E-02
 -1      1192 1.35705E-02
 -1      1193 1.02605E-02
 -1      1194 7.33965E-03
 -1      1195 5.42322E-03
 -1      1196 4.38945E-03
 -1      1197 3.35251E-03
 -1      1198 1.65411E-03
 -1      1199 1.33985E+01
 -1      1200 8.30845E+00
 -1      1201 2.65715E+00
 -1      1202 1.79898E+00
 -1      1203 1.35003E+00
 -1      1204 1.04806E+00
 -1      1205 8.44171E-01
 -1      1206 8.07081E-01
 -1      1207 9.05725E-01
 -1      1208 1.08522E+00
 -1      1209 1.27553E+00
 -1      1210 1.47486E+00
 -1      1211 1.73559E+00
 -1      1212 2.39362E+00
 -1      1213 3.14311E+00
 -1      1214 3.63750E+00
 -1      1215 3.88643E+00
 -1      1216 3.66853E+00
 -1      1217 2.82492E+00
 -1      1218 1.80413E+00
 -1      1219 1.25073E+00
 -1      1220 1.16989E+00
 -1      1221 1.26125E+00
 -1      1222 1.27514E+00
 -1      1223 1.21766E+00
 -1      1224 1.07072E+00
 -1      1225 9.02656E-01
 -1      1226 7.42269E-01
 -1      1227 5.84581E-01
 -1      1228 4.43107E-01
 -1      1229 3.34394E-01
 -1      1230 2.58123E-01
 -1      1231 1.97141E-01
 -1      1232 1.46671E-01
 -1      1233 1.06213E-01
 -1      1234 7.46483E-02
 -1      1235 5.38868E-02
 -1      1236 4.28371E-02
 -1      1237 3.51318E-02
 -1      1238 2.81666E-02
 -1      1239 2.22690E-02
 -1      1240 1.85418E-02
 -1      1241 1.61853E-02
 -1      1242 1.36261E-02
 -1      1243 1.10186E-02
 -1      1244 8.49293E-03
 -1      1245 6.17383E-03
 -1      1246 4.47795E-03
 -1      1247 3.02865E-03
 -1      1248 1.33272E-03
 -1      1249 7.50794E-04
 -1      1250 9.81350E-04
 -1      1251 7.45722E-04
 -1      1252 4.06298E-04
 -1      1253 3.71173E-04
 -1      1254 5.34159E-04
 -1      1255 6.25534E-04
 -1      1256 6.62594E-04
 -1      1257 6.69494E-04
 -1      1258 6.62292E-04
 -1      1259 6.22183E-04
 -1      1260 5.30480E-04
 -1      1261 3.69022E-04
 -1      1262 4.11777E-04
 -1      1263 9.06585E-04
 -1      1264 1.45856E-03
 -1      1265 1.09801E-03
 -1      1266 2.66088E+01
 -1      1267 3.66389E+01
 -1      1268 4.66690E+01
 -1      1269 3.30572E+01
 -1      1270 1.56613E+01
 -1      1271 1.20281E+01
 -1      1272 1.26695E+01
 -1      1273 1.31600E+01
 -1      1274 1.27568E+01
 -1      1275 1.30344E+01
 -1      1276 2.44508E+01
 -1      1277 3.51863E+01
 -1      1278 3.09341E+01
 -1      1279 2.60770E+01
 -1      1280 2.49059E+01
 -1      1281 2.48533E+01
 -1      1282 3.02971E+01
 -1      1283 3.52273E+01
 -1      1284 2.43415E+01
 -1      1285 1.27287E+01
 -1      1286 1.20015E+01
 -1      1287 1.23480E+01
 -1      1288 1.26944E+01
 -1      1289 1.23226E+01
 -1      1290 1.65324E+01
 -1      1291 3.46146E+01
 -1      1292 4.81151E+01
 -1      1293 3.64683E+01
 -1      1294 2.57151E+01
 -1      1295 1.24908E+01
 -1      1296 4.65859E+00
 -1      1297 9.13570E+00
 -1      1298 2.18096E+00
 -1      1299 2.97648E+00
 -1      1300 4.09852E+00
 -1      1301 1.55022E+00
 -1      1302 1.81041E+00
 -1      1303 2.04586E+00
 -1      1304 1.20557E+00
 -1      1305 1.35216E+00
 -1      1306 1.47725E+00
 -1      1307 9.57358E-01
 -1      1308 1.07073E+00
 -1      1309 1.14435E+00
 -1      1310 7.60725E-01
 -1      1311 8.53205E-01
 -1      1312 9.05349E-01
 -1      1313 6.04176E-01
 -1      1314 6.76776E-01
 -1      1315 7.17247E-01
 -1      1316 5.48940E-01
 -1      1317 5.44975E-01
 -1      1318 5.74097E-01
 -1      1319 6.86535E-01
 -1      1320 6.12650E-01
 -1      1321 5.78607E-01
 -1      1322 8.55663E-01
 -1      1323 7.68262E-01
 -1      1324 7.24045E-01
 -1      1325 1.08188E+00
 -1      1326 9.63702E-01
 -1      1327 9.13811E-01
 -1      1328 1.37064E+00
 -1      1329 1.21912E+00
 -1      1330 1.15909E+00
 -1      1331 1.82504E+00
 -1      1332 1.57038E+00
 -1      1333 1.49607E+00
 -1      1334 2.89551E+00
 -1      1335 2.17930E+00
 -1      1336 2.05006E+00
 -1      1337 5.95817E+00
 -1      1338 3.58082E+00
 -1      1339 3.08963E+00
 -1      1340 1.33985E+01
 -1      1341 1.07700E+01
 -1      1342 8.58672E+00
 -1      1343 1.33985E+01
 -1      1344 8.24009E+00
 -1      1345 3.98940E+00
 -1      1346 3.37725E+00
 -1      1347 2.76510E+00
 -1      1348 3.37725E+00
 -1      1349 2.23738E+00
 -1      1350 1.70967E+00
 -1      1351 2.23738E+00
 -1      1352 1.42509E+00
 -1      1353 1.14051E+00
 -1      1354 1.42509E+00
 -1      1355 9.80209E-01
 -1      1356 8.22021E-01
 -1      1357 9.80209E-01
 -1      1358 8.24138E-01
 -1      1359 8.70093E-01
 -1      1360 8.22021E-01
 -1      1361 9.16049E-01
 -1      1362 1.05467E+00
 -1      1363 8.70093E-01
 -1      1364 1.19329E+00
 -1      1365 1.23599E+00
 -1      1366 1.05467E+00
 -1      1367 1.27868E+00
 -1      1368 1.27868E+00
 -1      1369 1.23599E+00
 -1      1370 1.26832E+00
 -1      1371 1.25795E+00
 -1      1372 1.26832E+00
 -1      1373 1.22824E+00
 -1      1374 1.41675E+00
 -1      1375 1.22824E+00
 -1      1376 1.63497E+00
 -1      1377 2.09491E+00
 -1      1378 1.41675E+00
 -1      1379 2.55485E+00
 -1      1380 3.20184E+00
 -1      1381 2.09491E+00
 -1      1382 3.84883E+00
 -1      1383 3.97695E+00
 -1      1384 3.20184E+00
 -1      1385 4.10506E+00
 -1      1386 4.14012E+00
 -1      1387 3.97695E+00
 -1      1388 4.17519E+00
 -1      1389 4.17519E+00
 -1      1390 4.14012E+00
 -1      1391 3.75315E+00
 -1      1392 3.33111E+00
 -1      1393 3.75315E+00
 -1      1394 2.69597E+00
 -1      1395 1.97980E+00
 -1      1396 2.69597E+00
 -1      1397 1.68185E+00
 -1      1398 1.46493E+00
 -1      1399 1.76288E+00
 -1      1400 1.44263E+00
 -1      1401 1.42034E+00
 -1      1402 1.44263E+00
 -1      1403 1.38636E+00
 -1      1404 1.37214E+00
 -1      1405 1.38636E+00
 -1      1406 1.39189E+00
 -1      1407 1.39189E+00
 -1      1408 1.37214E+00
 -1      1409 1.34019E+00
 -1      1410 1.28848E+00
 -1      1411 1.34019E+00
 -1      1412 1.18598E+00
 -1      1413 1.08348E+00
 -1      1414 1.18598E+00
 -1      1415 9.94524E-01
 -1      1416 8.84802E-01
 -1      1417 9.94524E-01
 -1      1418 8.23173E-01
 -1      1419 7.34116E-01
 -1      1420 8.43936E-01
 -1      1421 6.67799E-01
 -1      1422 5.96158E-01
 -1      1423 7.15989E-01
 -1      1424 5.29001E-01
 -1      1425 4.87365E-01
 -1      1426 5.82514E-01
 -1      1427 4.26165E-01
 -1      1428 3.83760E-01
 -1      1429 4.54156E-01
 -1      1430 3.35317E-01
 -1      1431 2.96070E-01
 -1      1432 3.44513E-01
 -1      1433 2.63329E-01
 -1      1434 2.29143E-01
 -1      1435 2.63329E-01
 -1      1436 2.03219E-01
 -1      1437 1.74699E-01
 -1      1438 2.04664E-01
 -1      1439 1.52991E-01
 -1      1440 1.29975E-01
 -1      1441 1.57032E-01
 -1      1442 1.12548E-01
 -1      1443 1.00470E-01
 -1      1444 1.17897E-01
 -1      1445 9.16013E-02
 -1      1446 8.27325E-02
 -1      1447 9.16013E-02
 -1      1448 7.46787E-02
 -1      1449 6.66249E-02
 -1      1450 7.46787E-02
 -1      1451 5.95868E-02
 -1      1452 5.25487E-02
 -1      1453 5.95868E-02
 -1      1454 4.65725E-02
 -1      1455 4.05963E-02
 -1      1456 4.65725E-02
 -1      1457 3.56336E-02
 -1      1458 3.06710E-02
 -1      1459 3.56336E-02
 -1      1460 2.71739E-02
 -1      1461 2.33547E-02
 -1      1462 2.71739E-02
 -1      1463 2.10444E-02
 -1      1464 1.90562E-02
 -1      1465 2.13666E-02
 -1      1466 1.71782E-02
 -1      1467 1.53001E-02
 -1      1468 1.71782E-02
 -1      1469 1.35705E-02
 -1      1470 1.18410E-02
 -1      1471 1.35705E-02
 -1      1472 1.03535E-02
 -1      1473 8.77302E-03
 -1      1474 1.03535E-02
 -1      1475 7.54243E-03
 -1      1476 6.20199E-03
 -1      1477 7.63537E-03
 -1      1478 5.42322E-03
 -1      1479 4.84724E-03
 -1      1480 5.62601E-03
 -1      1481 4.38945E-03
 -1      1482 3.93167E-03
 -1      1483 4.38945E-03
 -1      1484 3.35251E-03
 -1      1485 2.77335E-03
 -1      1486 3.35251E-03
 -1      1487 2.21725E-03
 -1      1488 2.21725E-03
 -1      1489 3.21841E+00
 -1      1490 8.30845E+00
 -1      1491 8.30845E+00
 -1      1492 2.09590E+00
 -1      1493 2.65715E+00
 -1      1494 2.65715E+00
 -1      1495 1.50207E+00
 -1      1496 1.79898E+00
 -1      1497 1.79898E+00
 -1      1498 1.19799E+00
 -1      1499 1.35003E+00
 -1      1500 1.35003E+00
 -1      1501 8.98122E-01
 -1      1502 1.04806E+00
 -1      1503 1.04806E+00
 -1      1504 7.90221E-01
 -1      1505 8.44171E-01
 -1      1506 8.44171E-01
 -1      1507 7.85621E-01
 -1      1508 7.68761E-01
 -1      1509 7.68761E-01
 -1      1510 9.05725E-01
 -1      1511 8.23942E-01
 -1      1512 7.85621E-01
 -1      1513 1.08522E+00
 -1      1514 9.87508E-01
 -1      1515 9.05725E-01
 -1      1516 1.27553E+00
 -1      1517 1.18293E+00
 -1      1518 1.08522E+00
 -1      1519 1.47486E+00
 -1      1520 1.36813E+00
 -1      1521 1.27553E+00
 -1      1522 1.73559E+00
 -1      1523 1.58159E+00
 -1      1524 1.47486E+00
 -1      1525 2.46784E+00
 -1      1526 1.96381E+00
 -1      1527 1.80981E+00
 -1      1528 3.14311E+00
 -1      1529 2.89764E+00
 -1      1530 2.46784E+00
 -1      1531 3.63750E+00
 -1      1532 3.38857E+00
 -1      1533 3.14311E+00
 -1      1534 3.88643E+00
 -1      1535 3.88643E+00
 -1      1536 3.63750E+00
 -1      1537 3.45063E+00
 -1      1538 3.66853E+00
 -1      1539 3.66853E+00
 -1      1540 2.19921E+00
 -1      1541 2.82492E+00
 -1      1542 2.82492E+00
 -1      1543 1.40905E+00
 -1      1544 1.80413E+00
 -1      1545 1.80413E+00
 -1      1546 1.03825E+00
 -1      1547 1.19656E+00
 -1      1548 1.19656E+00
 -1      1549 1.16989E+00
 -1      1550 1.09242E+00
 -1      1551 1.03825E+00
 -1      1552 1.26125E+00
 -1      1553 1.24736E+00
 -1      1554 1.16989E+00
 -1      1555 1.27514E+00
 -1      1556 1.27514E+00
 -1      1557 1.26125E+00
 -1      1558 1.16019E+00
 -1      1559 1.21766E+00
 -1      1560 1.21766E+00
 -1      1561 9.81260E-01
 -1      1562 1.07072E+00
 -1      1563 1.07072E+00
 -1      1564 8.24052E-01
 -1      1565 9.02656E-01
 -1      1566 9.02656E-01
 -1      1567 6.69440E-01
 -1      1568 7.51223E-01
 -1      1569 7.51223E-01
 -1      1570 5.23205E-01
 -1      1571 5.99110E-01
 -1      1572 6.08064E-01
 -1      1573 3.94297E-01
 -1      1574 4.59866E-01
 -1      1575 4.74395E-01
 -1      1576 2.97426E-01
 -1      1577 3.40571E-01
 -1      1578 3.57330E-01
 -1      1579 2.24996E-01
 -1      1580 2.58123E-01
 -1      1581 2.64300E-01
 -1      1582 1.69287E-01
 -1      1583 1.97141E-01
 -1      1584 1.97141E-01
 -1      1585 1.24130E-01
 -1      1586 1.46746E-01
 -1      1587 1.46746E-01
 -1      1588 8.95968E-02
 -1      1589 1.07438E-01
 -1      1590 1.07514E-01
 -1      1591 6.27749E-02
 -1      1592 7.64985E-02
 -1      1593 7.77234E-02
 -1      1594 4.68487E-02
 -1      1595 5.38868E-02
 -1      1596 5.57369E-02
 -1      1597 3.88256E-02
 -1      1598 4.28371E-02
 -1      1599 4.28371E-02
 -1      1600 3.14380E-02
 -1      1601 3.51318E-02
 -1      1602 3.51318E-02
 -1      1603 2.48951E-02
 -1      1604 2.81666E-02
 -1      1605 2.81666E-02
 -1      1606 1.96429E-02
 -1      1607 2.22690E-02
 -1      1608 2.22690E-02
 -1      1609 1.74407E-02
 -1      1610 1.85418E-02
 -1      1611 1.85418E-02
 -1      1612 1.49300E-02
 -1      1613 1.61853E-02
 -1      1614 1.61853E-02
 -1      1615 1.23221E-02
 -1      1616 1.36261E-02
 -1      1617 1.36261E-02
 -1      1618 9.71512E-03
 -1      1619 1.10186E-02
 -1      1620 1.10186E-02
 -1      1621 7.27075E-03
 -1      1622 8.49293E-03
 -1      1623 8.49293E-03
 -1      1624 5.07692E-03
 -1      1625 6.17383E-03
 -1      1626 6.17383E-03
 -1      1627 3.87899E-03
 -1      1628 4.47795E-03
 -1      1629 4.47795E-03
 -1      1630 2.20102E-03
 -1      1631 3.05136E-03
 -1      1632 3.05136E-03
 -1      1633 1.59638E-03
 -1      1634 9.81105E-04
 -1      1635 1.01421E-03
 -1      1636 7.55508E-04
 -1      1637 9.58035E-04
 -1      1638 9.90892E-04
 -1      1639 4.71601E-04
 -1      1640 6.08497E-04
 -1      1641 8.20811E-04
 -1      1642 6.27569E-04
 -1      1643 5.25798E-04
 -1      1644 7.27996E-04
 -1      1645 8.12433E-04
 -1      1646 7.51219E-04
 -1      1647 9.05843E-04
 -1      1648 9.07925E-04
 -1      1649 8.77764E-04
 -1      1650 1.09482E-03
 -1      1651 9.38016E-04
 -1      1652 9.31117E-04
 -1      1653 1.18335E-03
 -1      1654 9.38016E-04
 -1      1655 9.38016E-04
 -1      1656 1.20654E-03
 -1      1657 9.30612E-04
 -1      1658 9.37814E-04
 -1      1659 1.20634E-03
 -1      1660 8.72202E-04
 -1      1661 9.05109E-04
 -1      1662 1.18063E-03
 -1      1663 7.50362E-04
 -1      1664 8.09158E-04
 -1      1665 1.09208E-03
 -1      1666 5.28114E-04
 -1      1667 6.30776E-04
 -1      1668 9.09454E-04
 -1      1669 6.03840E-04
 -1      1670 4.58424E-04
 -1      1671 7.20177E-04
 -1      1672 9.53231E-04
 -1      1673 6.03840E-04
 -1      1674 6.50487E-04
 -1      1675 1.63742E-03
 -1      1676 1.43483E-03
 -1      1677 1.13209E-03
 -1      1678 2.19352E-03
 -1      1679 2.78837E+01
 -1      1680 2.78837E+01
 -1      1681 3.75502E+01
 -1      1682 2.75201E+01
 -1      1683 4.66690E+01
 -1      1684 4.66690E+01
 -1      1685 1.99322E+01
 -1      1686 3.35440E+01
 -1      1687 1.18773E+01
 -1      1688 1.56613E+01
 -1      1689 1.20128E+01
 -1      1690 1.18619E+01
 -1      1691 1.26695E+01
 -1      1692 1.21790E+01
 -1      1693 1.31600E+01
 -1      1694 1.31600E+01
 -1      1695 1.23536E+01
 -1      1696 1.27568E+01
 -1      1697 1.25532E+01
 -1      1698 1.18724E+01
 -1      1699 2.44508E+01
 -1      1700 1.37152E+01
 -1      1701 3.51863E+01
 -1      1702 3.51863E+01
 -1      1703 3.04512E+01
 -1      1704 3.47034E+01
 -1      1705 2.64213E+01
 -1      1706 2.70263E+01
 -1      1707 2.58552E+01
 -1      1708 2.64213E+01
 -1      1709 2.57045E+01
 -1      1710 2.51910E+01
 -1      1711 3.47562E+01
 -1      1712 2.98260E+01
 -1      1713 3.52273E+01
 -1      1714 3.52273E+01
 -1      1715 1.34558E+01
 -1      1716 2.43415E+01
 -1      1717 1.17551E+01
 -1      1718 1.24823E+01
 -1      1719 1.20015E+01
 -1      1720 1.20015E+01
 -1      1721 1.21653E+01
 -1      1722 1.18189E+01
 -1      1723 1.26944E+01
 -1      1724 1.26944E+01
 -1      1725 1.19508E+01
 -1      1726 1.23226E+01
 -1      1727 1.63048E+01
 -1      1728 1.17231E+01
 -1      1729 3.54350E+01
 -1      1730 2.19344E+01
 -1      1731 4.81151E+01
 -1      1732 4.81151E+01
 -1      1733 2.73512E+01
 -1      1734 3.89980E+01
 -1      1735 2.78837E+01
 -1      1736 2.69900E+01
 -1      1737 1.61481E+01
 -1      1738 3.35440E+01
 -1      1739 1.61909E-03
 -1      1740 1.61885E-03
 -1      1741 2.87950E+01
 -1      1742 3.75502E+01
 -1      1743 2.91586E+01
 -1      1744 1.18619E+01
 -1      1745 1.20128E+01
 -1      1746 1.26695E+01
 -1      1747 1.27568E+01
 -1      1748 1.18724E+01
 -1      1749 1.25532E+01
 -1      1750 2.44508E+01
 -1      1751 3.47034E+01
 -1      1752 3.07956E+01
 -1      1753 2.73706E+01
 -1      1754 2.67064E+01
 -1      1755 3.01637E+01
 -1      1756 3.47562E+01
 -1      1757 2.43415E+01
 -1      1758 1.24823E+01
 -1      1759 1.17551E+01
 -1      1760 1.18189E+01
 -1      1761 1.21653E+01
 -1      1762 1.23226E+01
 -1      1763 1.17231E+01
 -1      1764 1.71252E+01
 -1      1765 3.54350E+01
 -1      1766 3.89980E+01
 -1      1767 2.95197E+01
 -1      1768 9.13570E+00
 -1      1769 1.46443E+00
 -1      1770 1.83498E+00
 -1      1771 2.42171E+00
 -1      1772 4.10382E+00
 -1      1773 1.84028E+00
 -1      1774 9.61871E-01
 -1      1775 1.09672E+00
 -1      1776 7.72008E-01
 -1      1777 8.76160E-01
 -1      1778 8.28530E-01
 -1      1779 6.16421E-01
 -1      1780 7.00369E-01
 -1      1781 6.71181E-01
 -1      1782 4.93872E-01
 -1      1783 5.53073E-01
 -1      1784 5.36196E-01
 -1      1785 5.63061E-01
 -1      1786 4.99350E-01
 -1      1787 4.78326E-01
 -1      1788 7.06710E-01
 -1      1789 6.24982E-01
 -1      1790 5.45725E-01
 -1      1791 8.89669E-01
 -1      1792 7.81630E-01
 -1      1793 6.82567E-01
 -1      1794 1.10726E+00
 -1      1795 9.70019E-01
 -1      1796 8.37838E-01
 -1      1797 1.39587E+00
 -1      1798 1.19614E+00
 -1      1799 1.00707E+00
 -1      1800 1.87913E+00
 -1      1801 1.52487E+00
 -1      1802 1.22494E+00
 -1      1803 2.61413E+00
 -1      1804 1.92882E+00
 -1      1805 1.40363E+00
 -1      1806 7.61653E+00
 -1      1807 2.80475E+00
 -1      1808 1.64394E+00
 -1      1809 2.52649E+00
 -1      1810 4.88501E+00
 -1      1811 1.77600E+00
 -1      1812 2.33726E+00
 -1      1813 1.64533E+00
 -1      1814 3.20820E+00
 -1      1815 1.96710E+00
 -1      1816 1.43939E+00
 -1      1817 1.17914E+00
 -1      1818 8.94565E-01
 -1      1819 9.08861E-01
 -1      1820 8.06675E-01
 -1      1821 6.46370E-01
 -1      1822 5.60726E-01
 -1      1823 6.95140E-01
 -1      1824 6.97257E-01
 -1      1825 5.21606E-01
 -1      1826 7.55255E-01
 -1      1827 8.01211E-01
 -1      1828 6.28374E-01
 -1      1829 8.56724E-01
 -1      1830 9.95347E-01
 -1      1831 7.41886E-01
 -1      1832 1.02228E+00
 -1      1833 1.06497E+00
 -1      1834 8.24329E-01
 -1      1835 1.03260E+00
 -1      1836 1.02224E+00
 -1      1837 8.18894E-01
 -1      1838 1.07793E+00
 -1      1839 1.04822E+00
 -1      1840 8.42219E-01
 -1      1841 1.17658E+00
 -1      1842 1.39481E+00
 -1      1843 1.02628E+00
 -1      1844 1.67566E+00
 -1      1845 2.13560E+00
 -1      1846 1.43549E+00
 -1      1847 2.39599E+00
 -1      1848 3.04298E+00
 -1      1849 1.97673E+00
 -1      1850 3.17908E+00
 -1      1851 3.30719E+00
 -1      1852 2.37322E+00
 -1      1853 3.28098E+00
 -1      1854 3.31605E+00
 -1      1855 2.48312E+00
 -1      1856 3.32540E+00
 -1      1857 2.90335E+00
 -1      1858 2.46626E+00
 -1      1859 2.61982E+00
 -1      1860 1.98468E+00
 -1      1861 2.19206E+00
 -1      1862 1.73782E+00
 -1      1863 1.43987E+00
 -1      1864 1.66167E+00
 -1      1865 1.16777E+00
 -1      1866 1.14548E+00
 -1      1867 1.14272E+00
 -1      1868 1.13123E+00
 -1      1869 1.09725E+00
 -1      1870 8.56370E-01
 -1      1871 1.14672E+00
 -1      1872 1.16647E+00
 -1      1873 8.91587E-01
 -1      1874 1.22479E+00
 -1      1875 1.17308E+00
 -1      1876 9.99365E-01
 -1      1877 1.15402E+00
 -1      1878 1.05152E+00
 -1      1879 1.03862E+00
 -1      1880 9.97188E-01
 -1      1881 9.08231E-01
 -1      1882 9.65231E-01
 -1      1883 8.61376E-01
 -1      1884 7.99747E-01
 -1      1885 8.64041E-01
 -1      1886 7.47918E-01
 -1      1887 6.81600E-01
 -1      1888 7.65358E-01
 -1      1889 6.21671E-01
 -1      1890 5.54514E-01
 -1      1891 6.53600E-01
 -1      1892 4.95230E-01
 -1      1893 4.34030E-01
 -1      1894 5.34387E-01
 -1      1895 3.80350E-01
 -1      1896 3.31907E-01
 -1      1897 4.21424E-01
 -1      1898 2.86072E-01
 -1      1899 2.53332E-01
 -1      1900 3.21910E-01
 -1      1901 2.15846E-01
 -1      1902 1.89923E-01
 -1      1903 2.38590E-01
 -1      1904 1.60301E-01
 -1      1905 1.38593E-01
 -1      1906 1.71483E-01
 -1      1907 1.17698E-01
 -1      1908 1.00271E-01
 -1      1909 1.20967E-01
 -1      1910 8.63207E-02
 -1      1911 7.74520E-02
 -1      1912 8.61214E-02
 -1      1913 6.75471E-02
 -1      1914 5.94933E-02
 -1      1915 6.22666E-02
 -1      1916 5.38628E-02
 -1      1917 4.68247E-02
 -1      1918 4.67312E-02
 -1      1919 4.32231E-02
 -1      1920 3.72469E-02
 -1      1921 3.74991E-02
 -1      1922 3.39400E-02
 -1      1923 2.89773E-02
 -1      1924 3.05906E-02
 -1      1925 2.60451E-02
 -1      1926 2.25481E-02
 -1      1927 2.43515E-02
 -1      1928 2.00119E-02
 -1      1929 1.77016E-02
 -1      1930 1.88831E-02
 -1      1931 1.59840E-02
 -1      1932 1.41059E-02
 -1      1933 1.46293E-02
 -1      1934 1.30032E-02
 -1      1935 1.12737E-02
 -1      1936 1.18090E-02
 -1      1937 1.01474E-02
 -1      1938 8.65994E-03
 -1      1939 9.58015E-03
 -1      1940 7.58288E-03
 -1      1941 6.35228E-03
 -1      1942 7.37685E-03
 -1      1943 5.50062E-03
 -1      1944 4.72186E-03
 -1      1945 5.44814E-03
 -1      1946 4.01868E-03
 -1      1947 3.56089E-03
 -1      1948 3.89329E-03
 -1      1949 3.19038E-03
 -1      1950 2.61122E-03
 -1      1951 2.03139E-03
 -1      1952 2.81960E-03
 -1      1953 1.14717E+00
 -1      1954 1.44409E+00
 -1      1955 1.12419E+00
 -1      1956 9.12003E-01
 -1      1957 1.06404E+00
 -1      1958 7.09146E-01
 -1      1959 7.20085E-01
 -1      1960 8.70018E-01
 -1      1961 5.84032E-01
 -1      1962 6.84271E-01
 -1      1963 7.38221E-01
 -1      1964 5.60184E-01
 -1      1965 7.07521E-01
 -1      1966 7.28981E-01
 -1      1967 6.23031E-01
 -1      1968 7.45842E-01
 -1      1969 7.07521E-01
 -1      1970 6.67742E-01
 -1      1971 8.00155E-01
 -1      1972 7.18372E-01
 -1      1973 6.40272E-01
 -1      1974 8.77716E-01
 -1      1975 7.80006E-01
 -1      1976 5.92653E-01
 -1      1977 1.11324E+00
 -1      1978 1.02064E+00
 -1      1979 7.15424E-01
 -1      1980 1.54755E+00
 -1      1981 1.44082E+00
 -1      1982 1.18592E+00
 -1      1983 1.98678E+00
 -1      1984 1.75856E+00
 -1      1985 1.72452E+00
 -1      1986 2.43316E+00
 -1      1987 2.00335E+00
 -1      1988 1.95210E+00
 -1      1989 2.65276E+00
 -1      1990 2.40729E+00
 -1      1991 1.94280E+00
 -1      1992 3.03649E+00
 -1      1993 2.78756E+00
 -1      1994 2.05174E+00
 -1      1995 2.82708E+00
 -1      1996 3.04498E+00
 -1      1997 2.19504E+00
 -1      1998 1.91371E+00
 -1      1999 2.53942E+00
 -1      2000 1.91587E+00
 -1      2001 1.18204E+00
 -1      2002 1.57712E+00
 -1      2003 1.29162E+00
 -1      2004 8.02688E-01
 -1      2005 1.01517E+00
 -1      2006 7.88164E-01
 -1      2007 9.43850E-01
 -1      2008 8.89682E-01
 -1      2009 7.08290E-01
 -1      2010 1.07872E+00
 -1      2011 1.00124E+00
 -1      2012 8.52676E-01
 -1      2013 1.10944E+00
 -1      2014 1.09555E+00
 -1      2015 9.26907E-01
 -1      2016 1.04082E+00
 -1      2017 1.09830E+00
 -1      2018 9.32605E-01
 -1      2019 9.04436E-01
 -1      2020 9.93899E-01
 -1      2021 8.74538E-01
 -1      2022 7.82139E-01
 -1      2023 8.60743E-01
 -1      2024 7.83919E-01
 -1      2025 6.52572E-01
 -1      2026 7.25401E-01
 -1      2027 6.83488E-01
 -1      2028 5.22993E-01
 -1      2029 5.93323E-01
 -1      2030 5.67500E-01
 -1      2031 4.04251E-01
 -1      2032 4.67590E-01
 -1      2033 4.52848E-01
 -1      2034 3.02196E-01
 -1      2035 3.55922E-01
 -1      2036 3.49117E-01
 -1      2037 2.22767E-01
 -1      2038 2.62071E-01
 -1      2039 2.60664E-01
 -1      2040 1.67484E-01
 -1      2041 1.95339E-01
 -1      2042 1.93110E-01
 -1      2043 1.24206E-01
 -1      2044 1.46746E-01
 -1      2045 1.44944E-01
 -1      2046 9.08218E-02
 -1      2047 1.07514E-01
 -1      2048 1.07514E-01
 -1      2049 6.46251E-02
 -1      2050 7.77234E-02
 -1      2051 7.77234E-02
 -1      2052 4.56917E-02
 -1      2053 5.45799E-02
 -1      2054 5.45799E-02
 -1      2055 3.41437E-02
 -1      2056 3.81552E-02
 -1      2057 3.69982E-02
 -1      2058 2.83049E-02
 -1      2059 3.19987E-02
 -1      2060 2.73168E-02
 -1      2061 2.29765E-02
 -1      2062 2.62479E-02
 -1      2063 2.31149E-02
 -1      2064 1.83690E-02
 -1      2065 2.09952E-02
 -1      2066 1.90765E-02
 -1      2067 1.54424E-02
 -1      2068 1.65435E-02
 -1      2069 1.52696E-02
 -1      2070 1.25618E-02
 -1      2071 1.38172E-02
 -1      2072 1.18189E-02
 -1      2073 1.05069E-02
 -1      2074 1.18108E-02
 -1      2075 9.44262E-03
 -1      2076 8.46570E-03
 -1      2077 9.76921E-03
 -1      2078 7.95393E-03
 -1      2079 6.50591E-03
 -1      2080 7.72809E-03
 -1      2081 6.47868E-03
 -1      2082 4.75683E-03
 -1      2083 5.85375E-03
 -1      2084 5.08890E-03
 -1      2085 3.49877E-03
 -1      2086 4.09773E-03
 -1      2087 3.77765E-03
 -1      2088 2.22373E-03
 -1      2089 3.05136E-03
 -1      2090 2.67114E-03
 -1      2091 1.61885E-03
 -1      2092 9.44689E-04
 -1      2093 8.90492E-04
 -1      2094 1.28522E-03
 -1      2095 1.43223E-03
 -1      2096 1.50191E-03
 -1      2097 1.43223E-03
 -1      2098 1.45530E-03
 -1      2099 2.06018E-03
 -1      2100 1.89664E-03
 -1      2101 1.19004E-03
 -1      2102 1.06639E-03
 -1      2103 1.22888E-03
 -1      2104 1.33288E-03
 -1      2105 1.26755E-03
 -1      2106 1.42809E-03
 -1      2107 1.38225E-03
 -1      2108 1.35906E-03
 -1      2109 1.53178E-03
 -1      2110 1.38225E-03
 -1      2111 1.38225E-03
 -1      2112 1.55797E-03
 -1      2113 1.38014E-03
 -1      2114 1.38034E-03
 -1      2115 1.55606E-03
 -1      2116 1.35463E-03
 -1      2117 1.38014E-03
 -1      2118 1.55414E-03
 -1      2119 1.26716E-03
 -1      2120 1.33020E-03
 -1      2121 1.52971E-03
 -1      2122 1.07090E-03
 -1      2123 1.19049E-03
 -1      2124 1.42860E-03
 -1      2125 8.74131E-04
 -1      2126 9.43822E-04
 -1      2127 1.22486E-03
 -1      2128 1.28321E-03
 -1      2129 1.28321E-03
 -1      2130 1.50686E-03
 -1      2131 3.75502E+01
 -1      2132 2.84314E+01
 -1      2133 2.98173E+01
 -1      2134 2.98173E+01
 -1      2135 2.55266E+01
 -1      2136 2.58902E+01
 -1      2137 2.55266E+01
 -1      2138 1.83160E+01
 -1      2139 3.14411E+01
 -1      2140 1.07390E+01
 -1      2141 1.50098E+01
 -1      2142 1.25373E+00
 -1      2143 1.45179E+00
 -1      2144 1.24092E+00
 -1      2145 1.07126E+00
 -1      2146 1.13037E+01
 -1      2147 1.11375E+01
 -1      2148 1.19608E+01
 -1      2149 1.14702E+01
 -1      2150 1.05949E+01
 -1      2151 1.08716E+01
 -1      2152 1.12748E+01
 -1      2153 1.00527E+01
 -1      2154 1.05339E+01
 -1      2155 9.05186E+00
 -1      2156 1.03137E+01
 -1      2157 9.15175E+00
 -1      2158 2.40807E+01
 -1      2159 1.33452E+01
 -1      2160 2.86328E+01
 -1      2161 2.91157E+01
 -1      2162 2.70640E+01
 -1      2163 3.04889E+01
 -1      2164 3.23909E+01
 -1      2165 3.23909E+01
 -1      2166 3.17268E+01
 -1      2167 3.23909E+01
 -1      2168 3.02796E+01
 -1      2169 2.61582E+01
 -1      2170 2.84262E+01
 -1      2171 2.79552E+01
 -1      2172 2.39496E+01
 -1      2173 1.28168E+01
 -1      2174 2.37025E+01
 -1      2175 9.66695E+00
 -1      2176 1.06405E+01
 -1      2177 1.06091E+01
 -1      2178 1.03627E+01
 -1      2179 8.52094E+00
 -1      2180 1.12769E+01
 -1      2181 1.14595E+01
 -1      2182 1.17181E+01
 -1      2183 1.11890E+01
 -1      2184 1.07722E+01
 -1      2185 1.11440E+01
 -1      2186 9.46098E+00
 -1      2187 9.68862E+00
 -1      2188 1.63369E+01
 -1      2189 1.07072E+01
 -1      2190 3.27205E+01
 -1      2191 2.00404E+01
 -1      2192 2.98809E+01
 -1      2193 3.89980E+01
 -1      2194 2.98173E+01
 -1      2195 3.01784E+01
 -1      2196 1.00044E+01
 -1      2197 1.00198E+01
 -1      2198 8.88150E+00
 -1      2199 2.59605E+00
 -1      2200 9.29533E+00
 -1      2201 1.79806E+00
 -1      2202 2.90786E+01
 -1      2203 2.97373E+01
 -1      2204 2.58102E+01
 -1      2205 2.23223E+01
 -1      2206 1.76481E-03
 -1      2207 3.04760E+01
 -1      2208 1.29070E+01
 -1      2209 3.01784E+01
 -1      2210 2.36034E+01
 -1      2211 1.36224E+01
 -1      2212 8.67270E+00
 -1      2213 8.51008E+00
 -1      2214 1.01677E+01
 -1      2215 1.00671E+01
 -1      2216 2.36075E+01
 -1      2217 1.68065E+01
 -1      2218 1.20828E+01
 -1      2219 3.18427E+01
 -1      2220 3.74113E+01
 -1      2221 3.20843E+01
 -1      2222 2.49012E+01
 -1      2223 1.80101E+01
 -1      2224 7.81321E+00
 -1      2225 9.34717E+00
 -1      2226 1.12324E+01
 -1      2227 1.00331E+01
 -1      2228 9.94368E+00
 -1      2229 9.62839E+00
 -1      2230 8.98939E+00
 -1      2231 6.81308E+00
 -1      2232 1.08296E+01
 -1      2233 8.86226E-01
 -1      2234 1.21814E+00
 -1      2235 5.71744E-01
 -1      2236 6.43382E-01
 -1      2237 7.11188E-01
 -1      2238 7.96899E-01
 -1      2239 6.11751E-01
 -1      2240 3.94830E-01
 -1      2241 3.89352E-01
 -1      2242 5.13749E-01
 -1      2243 4.51828E-01
 -1      2244 3.62854E-01
 -1      2245 6.54134E-01
 -1      2246 5.79213E-01
 -1      2247 4.85316E-01
 -1      2248 7.98784E-01
 -1      2249 7.18433E-01
 -1      2250 6.15079E-01
 -1      2251 9.37419E-01
 -1      2252 8.48541E-01
 -1      2253 7.29136E-01
 -1      2254 1.21987E+00
 -1      2255 1.09087E+00
 -1      2256 9.32344E-01
 -1      2257 5.84273E-01
 -1      2258 6.67402E-01
 -1      2259 7.61353E-01
 -1      2260 9.66498E-01
 -1      2261 7.06254E-01
 -1      2262 7.93171E+00
 -1      2263 6.79863E+00
 -1      2264 6.34385E-01
 -1      2265 5.46495E-01
 -1      2266 6.92023E-01
 -1      2267 5.56042E-01
 -1      2268 6.04812E-01
 -1      2269 6.29701E-01
 -1      2270 6.57027E-01
 -1      2271 7.15026E-01
 -1      2272 6.91464E-01
 -1      2273 7.83458E-01
 -1      2274 8.38971E-01
 -1      2275 8.12111E-01
 -1      2276 9.08824E-01
 -1      2277 9.35753E-01
 -1      2278 9.50395E-01
 -1      2279 9.87526E-01
 -1      2280 9.55162E-01
 -1      2281 1.07202E+00
 -1      2282 1.04497E+00
 -1      2283 1.10066E+00
 -1      2284 1.21360E+00
 -1      2285 1.23982E+00
 -1      2286 1.36819E+00
 -1      2287 1.44257E+00
 -1      2288 1.50400E+00
 -1      2289 1.78486E+00
 -1      2290 1.71755E+00
 -1      2291 1.82147E+00
 -1      2292 2.08186E+00
 -1      2293 1.88999E+00
 -1      2294 2.45270E+00
 -1      2295 2.58881E+00
 -1      2296 2.29744E+00
 -1      2297 2.91466E+00
 -1      2298 2.88845E+00
 -1      2299 2.99414E+00
 -1      2300 2.80204E+00
 -1      2301 2.81139E+00
 -1      2302 3.23359E+00
 -1      2303 2.30175E+00
 -1      2304 2.01821E+00
 -1      2305 2.63753E+00
 -1      2306 1.86688E+00
 -1      2307 1.62003E+00
 -1      2308 1.97657E+00
 -1      2309 1.52859E+00
 -1      2310 1.25649E+00
 -1      2311 1.73380E+00
 -1      2312 1.17828E+00
 -1      2313 1.16403E+00
 -1      2314 1.56415E+00
 -1      2315 1.05105E+00
 -1      2316 1.10051E+00
 -1      2317 1.37296E+00
 -1      2318 1.08228E+00
 -1      2319 1.14059E+00
 -1      2320 1.24174E+00
 -1      2321 1.08121E+00
 -1      2322 1.06215E+00
 -1      2323 1.16412E+00
 -1      2324 9.90669E-01
 -1      2325 9.36333E-01
 -1      2326 1.03325E+00
 -1      2327 8.91223E-01
 -1      2328 8.44369E-01
 -1      2329 9.16661E-01
 -1      2330 7.91651E-01
 -1      2331 7.39822E-01
 -1      2332 8.18834E-01
 -1      2333 6.79839E-01
 -1      2334 6.19910E-01
 -1      2335 7.06133E-01
 -1      2336 5.60370E-01
 -1      2337 5.01086E-01
 -1      2338 5.86609E-01
 -1      2339 4.46506E-01
 -1      2340 3.92827E-01
 -1      2341 4.72489E-01
 -1      2342 3.45392E-01
 -1      2343 2.99558E-01
 -1      2344 3.70475E-01
 -1      2345 2.59919E-01
 -1      2346 2.22434E-01
 -1      2347 2.83401E-01
 -1      2348 1.90325E-01
 -1      2349 1.60704E-01
 -1      2350 2.11654E-01
 -1      2351 1.35369E-01
 -1      2352 1.14474E-01
 -1      2353 1.54211E-01
 -1      2354 9.49503E-02
 -1      2355 8.10004E-02
 -1      2356 1.09353E-01
 -1      2357 6.62922E-02
 -1      2358 5.63874E-02
 -1      2359 7.51212E-02
 -1      2360 4.55618E-02
 -1      2361 3.99313E-02
 -1      2362 4.95874E-02
 -1      2363 3.36845E-02
 -1      2364 3.00828E-02
 -1      2365 3.25150E-02
 -1      2366 2.68161E-02
 -1      2367 2.35092E-02
 -1      2368 2.30015E-02
 -1      2369 2.22049E-02
 -1      2370 1.92727E-02
 -1      2371 1.84304E-02
 -1      2372 1.78718E-02
 -1      2373 1.53357E-02
 -1      2374 1.57253E-02
 -1      2375 1.39509E-02
 -1      2376 1.22332E-02
 -1      2377 1.29396E-02
 -1      2378 1.09320E-02
 -1      2379 9.82938E-03
 -1      2380 1.02536E-02
 -1      2381 8.94052E-03
 -1      2382 7.81427E-03
 -1      2383 8.06351E-03
 -1      2384 7.11827E-03
 -1      2385 6.04122E-03
 -1      2386 6.47864E-03
 -1      2387 5.31994E-03
 -1      2388 4.46828E-03
 -1      2389 5.06137E-03
 -1      2390 3.89329E-03
 -1      2391 3.19012E-03
 -1      2392 3.76510E-03
 -1      2393 2.40054E+01
 -1      2394 2.11007E+01
 -1      2395 6.06523E-01
 -1      2396 5.88387E-01
 -1      2397 7.04437E-01
 -1      2398 6.59727E-01
 -1      2399 6.87930E-01
 -1      2400 7.49562E-01
 -1      2401 7.49562E-01
 -1      2402 7.86257E-01
 -1      2403 7.37801E-01
 -1      2404 7.65270E-01
 -1      2405 8.47090E-01
 -1      2406 7.82570E-01
 -1      2407 8.02719E-01
 -1      2408 9.27717E-01
 -1      2409 1.01962E+00
 -1      2410 8.76697E-01
 -1      2411 1.08676E+00
 -1      2412 1.48417E+00
 -1      2413 1.15659E+00
 -1      2414 1.31787E+00
 -1      2415 1.80992E+00
 -1      2416 1.59891E+00
 -1      2417 1.56958E+00
 -1      2418 2.04504E+00
 -1      2419 2.02847E+00
 -1      2420 1.90286E+00
 -1      2421 2.20478E+00
 -1      2422 2.23065E+00
 -1      2423 2.30702E+00
 -1      2424 2.34030E+00
 -1      2425 2.20549E+00
 -1      2426 2.49333E+00
 -1      2427 2.17452E+00
 -1      2428 2.16603E+00
 -1      2429 2.31977E+00
 -1      2430 1.64640E+00
 -1      2431 1.93407E+00
 -1      2432 1.90505E+00
 -1      2433 1.16493E+00
 -1      2434 1.50152E+00
 -1      2435 1.51971E+00
 -1      2436 8.87733E-01
 -1      2437 1.05460E+00
 -1      2438 1.26450E+00
 -1      2439 8.95209E-01
 -1      2440 8.08215E-01
 -1      2441 1.07465E+00
 -1      2442 9.58034E-01
 -1      2443 9.00642E-01
 -1      2444 1.00057E+00
 -1      2445 9.68240E-01
 -1      2446 9.51401E-01
 -1      2447 9.99367E-01
 -1      2448 9.16795E-01
 -1      2449 9.27937E-01
 -1      2450 9.52431E-01
 -1      2451 8.33055E-01
 -1      2452 8.79981E-01
 -1      2453 8.75313E-01
 -1      2454 7.47817E-01
 -1      2455 7.91510E-01
 -1      2456 7.96953E-01
 -1      2457 6.39986E-01
 -1      2458 6.96724E-01
 -1      2459 7.04315E-01
 -1      2460 5.24967E-01
 -1      2461 5.84216E-01
 -1      2462 5.97453E-01
 -1      2463 4.15700E-01
 -1      2464 4.71103E-01
 -1      2465 4.87819E-01
 -1      2466 3.19075E-01
 -1      2467 3.67403E-01
 -1      2468 3.85658E-01
 -1      2469 2.37808E-01
 -1      2470 2.77933E-01
 -1      2471 2.96220E-01
 -1      2472 1.76663E-01
 -1      2473 2.04091E-01
 -1      2474 2.21361E-01
 -1      2475 1.29149E-01
 -1      2476 1.49887E-01
 -1      2477 1.60868E-01
 -1      2478 9.17702E-02
 -1      2479 1.08462E-01
 -1      2480 1.13406E-01
 -1      2481 6.30940E-02
 -1      2482 7.61924E-02
 -1      2483 7.71408E-02
 -1      2484 4.35595E-02
 -1      2485 5.36046E-02
 -1      2486 5.20736E-02
 -1      2487 2.97932E-02
 -1      2488 3.73297E-02
 -1      2489 3.63544E-02
 -1      2490 2.51718E-02
 -1      2491 2.73168E-02
 -1      2492 2.76482E-02
 -1      2493 2.10579E-02
 -1      2494 2.31149E-02
 -1      2495 2.31149E-02
 -1      2496 1.70952E-02
 -1      2497 1.90765E-02
 -1      2498 1.90765E-02
 -1      2499 1.34441E-02
 -1      2500 1.52696E-02
 -1      2501 1.52696E-02
 -1      2502 1.01937E-02
 -1      2503 1.18189E-02
 -1      2504 1.18189E-02
 -1      2505 8.65051E-03
 -1      2506 9.40155E-03
 -1      2507 9.40155E-03
 -1      2508 7.04365E-03
 -1      2509 7.78129E-03
 -1      2510 7.74023E-03
 -1      2511 5.43188E-03
 -1      2512 6.16949E-03
 -1      2513 5.99686E-03
 -1      2514 4.10525E-03
 -1      2515 4.75741E-03
 -1      2516 4.44823E-03
 -1      2517 2.91115E-03
 -1      2518 3.57025E-03
 -1      2519 3.23876E-03
 -1      2520 2.50760E-03
 -1      2521 1.65358E-03
 -1      2522 1.57608E-03
 -1      2523 1.69096E-03
 -1      2524 1.66477E-03
 -1      2525 1.81276E-03
 -1      2526 1.74896E-03
 -1      2527 2.14368E-03
 -1      2528 1.50378E-03
 -1      2529 1.38209E-03
 -1      2530 2.02386E-03
 -1      2531 1.72928E-03
 -1      2532 1.69096E-03
 -1      2533 1.69096E-03
 -1      2534 1.82395E-03
 -1      2535 1.66180E-03
 -1      2536 1.66371E-03
 -1      2537 1.79670E-03
 -1      2538 1.68585E-03
 -1      2539 1.68585E-03
 -1      2540 1.79351E-03
 -1      2541 1.66142E-03
 -1      2542 1.68585E-03
 -1      2543 1.81756E-03
 -1      2544 1.57691E-03
 -1      2545 1.65358E-03
 -1      2546 1.80973E-03
 -1      2547 1.36277E-03
 -1      2548 1.48985E-03
 -1      2549 1.71482E-03
 -1      2550 1.72145E-03
 -1      2551 1.31237E-03
 -1      2552 1.57736E-03
 -1      2553 2.18251E-03
 -1      2554 3.04760E+01
 -1      2555 3.04760E+01
 -1      2556 5.43862E-01
 -1      2557 5.85846E-01
 -1      2558 5.90201E-01
 -1      2559 1.47995E+01
 -1      2560 2.09086E+01
 -1      2561 2.61139E+01
 -1      2562 2.58164E+01
 -1      2563 1.82764E+00
 -1      2564 1.19869E+00
 -1      2565 9.96085E-01
 -1      2566 1.24092E+00
 -1      2567 9.27403E+00
 -1      2568 1.25802E+01
 -1      2569 2.62741E+01
 -1      2570 3.18427E+01
 -1      2571 4.43997E-01
 -1      2572 5.07344E-01
 -1      2573 4.79545E-01
 -1      2574 3.60501E-01
 -1      2575 1.03203E+01
 -1      2576 7.28888E+00
 -1      2577 8.79986E+00
 -1      2578 8.63332E+00
 -1      2579 7.27837E+00
 -1      2580 7.61605E+00
 -1      2581 5.47319E+00
 -1      2582 6.37415E+00
 -1      2583 1.66590E+01
 -1      2584 1.16241E+01
 -1      2585 2.17968E+01
 -1      2586 1.99407E+01
 -1      2587 1.35547E+01
 -1      2588 3.20843E+01
 -1      2589 2.67573E+01
 -1      2590 3.74113E+01
 -1      2591 3.74113E+01
 -1      2592 3.18427E+01
 -1      2593 1.95255E+01
 -1      2594 2.18500E+01
 -1      2595 9.42352E+00
 -1      2596 9.51142E+00
 -1      2597 6.81343E+00
 -1      2598 6.11764E+00
 -1      2599 8.77832E+00
 -1      2600 7.92791E+00
 -1      2601 5.52462E+00
 -1      2602 8.60180E+00
 -1      2603 9.17583E+00
 -1      2604 6.14404E+00
 -1      2605 7.22765E+00
 -1      2606 7.80199E+00
 -1      2607 6.55576E+00
 -1      2608 1.32927E+01
 -1      2609 9.58918E+00
 -1      2610 2.17675E+01
 -1      2611 1.54900E+01
 -1      2612 1.27095E+00
 -1      2613 1.46018E+00
 -1      2614 1.26956E+00
 -1      2615 1.03299E+00
 -1      2616 6.57879E+00
 -1      2617 7.29805E+00
 -1      2618 6.97132E+00
 -1      2619 5.84983E+00
 -1      2620 8.10483E-01
 -1      2621 9.27825E-01
 -1      2622 1.08484E+00
 -1      2623 5.44103E-01
 -1      2624 1.21987E+00
 -1      2625 5.21518E+00
 -1      2626 1.77029E+01
 -1      2627 1.14567E+01
 -1      2628 7.47224E+00
 -1      2629 2.14197E+01
 -1      2630 2.46080E+01
 -1      2631 1.98985E+01
 -1      2632 2.61139E+01
 -1      2633 1.64827E+01
 -1      2634 2.30020E-03
 -1      2635 2.30020E-03
 -1      2636 5.27333E+00
 -1      2637 2.22169E-03
 -1      2638 1.95512E-03
 -1      2639 1.76063E-03
 -1      2640 2.59221E-03
 -1      2641 7.37219E+00
 -1      2642 7.85760E+00
 -1      2643 2.97373E+01
 -1      2644 1.08580E+00
 -1      2645 1.11666E+01
 -1      2646 2.18500E+01
 -1      2647 2.17968E+01
 -1      2648 4.93835E+00
 -1      2649 1.22828E+00
 -1      2650 9.44640E+00
 -1      2651 9.35141E+00
 -1      2652 6.25801E+00
 -1      2653 1.47068E+01
 -1      2654 6.13663E+00
 -1      2655 8.36097E+00
 -1      2656 8.31861E+00
 -1      2657 6.58748E+00
 -1      2658 9.13713E+00
 -1      2659 7.17551E+00
 -1      2660 8.40879E+00
 -1      2661 5.10557E+00
 -1      2662 8.96926E+00
 -1      2663 3.20843E+01
 -1      2664 6.23576E+00
 -1      2665 2.54724E-03
 -1      2666 2.59221E-03
 -1      2667 5.31258E-01
 -1      2668 4.65794E-01
 -1      2669 3.67653E-01
 -1      2670 3.10655E-01
 -1      2671 4.13595E-01
 -1      2672 7.42266E-01
 -1      2673 6.92509E-01
 -1      2674 9.18837E-01
 -1      2675 7.65387E-01
 -1      2676 7.28759E-01
 -1      2677 6.86237E-01
 -1      2678 9.05060E-01
 -1      2679 8.48403E+00
 -1      2680 1.07033E+01
 -1      2681 5.45676E-01
 -1      2682 5.44103E-01
 -1      2683 6.87810E-01
 -1      2684 6.19660E+00
 -1      2685 4.38090E+00
 -1      2686 1.63756E+01
 -1      2687 1.23266E+01
 -1      2688 6.60380E-01
 -1      2689 6.69928E-01
 -1      2690 7.19086E-01
 -1      2691 7.71301E-01
 -1      2692 7.49765E-01
 -1      2693 8.38683E-01
 -1      2694 9.07115E-01
 -1      2695 8.66305E-01
 -1      2696 1.01194E+00
 -1      2697 1.08179E+00
 -1      2698 1.03851E+00
 -1      2699 1.22841E+00
 -1      2700 1.28018E+00
 -1      2701 1.28995E+00
 -1      2702 1.44736E+00
 -1      2703 1.53717E+00
 -1      2704 1.60375E+00
 -1      2705 1.67077E+00
 -1      2706 1.80993E+00
 -1      2707 1.90453E+00
 -1      2708 2.15685E+00
 -1      2709 2.29267E+00
 -1      2710 2.38506E+00
 -1      2711 2.18450E+00
 -1      2712 2.22112E+00
 -1      2713 2.62381E+00
 -1      2714 2.29744E+00
 -1      2715 2.66828E+00
 -1      2716 2.59196E+00
 -1      2717 3.07146E+00
 -1      2718 3.39732E+00
 -1      2719 3.07146E+00
 -1      2720 3.53700E+00
 -1      2721 3.45060E+00
 -1      2722 3.61433E+00
 -1      2723 3.14718E+00
 -1      2724 2.63753E+00
 -1      2725 3.45060E+00
 -1      2726 2.18981E+00
 -1      2727 2.03849E+00
 -1      2728 2.69946E+00
 -1      2729 2.28676E+00
 -1      2730 2.19531E+00
 -1      2731 2.50000E+00
 -1      2732 1.98686E+00
 -1      2733 1.90865E+00
 -1      2734 2.53982E+00
 -1      2735 1.62865E+00
 -1      2736 1.51567E+00
 -1      2737 2.05136E+00
 -1      2738 1.38164E+00
 -1      2739 1.36340E+00
 -1      2740 1.63733E+00
 -1      2741 1.22350E+00
 -1      2742 1.16412E+00
 -1      2743 1.36340E+00
 -1      2744 1.10474E+00
 -1      2745 1.03325E+00
 -1      2746 1.16412E+00
 -1      2747 9.61771E-01
 -1      2748 9.16661E-01
 -1      2749 1.03325E+00
 -1      2750 8.46768E-01
 -1      2751 7.94051E-01
 -1      2752 8.91878E-01
 -1      2753 7.22124E-01
 -1      2754 6.62140E-01
 -1      2755 7.50058E-01
 -1      2756 5.95113E-01
 -1      2757 5.35573E-01
 -1      2758 6.11104E-01
 -1      2759 4.76629E-01
 -1      2760 4.22049E-01
 -1      2761 4.85133E-01
 -1      2762 3.72207E-01
 -1      2763 3.24772E-01
 -1      2764 3.76346E-01
 -1      2765 2.84209E-01
 -1      2766 2.44571E-01
 -1      2767 2.85941E-01
 -1      2768 2.13228E-01
 -1      2769 1.81119E-01
 -1      2770 2.14036E-01
 -1      2771 1.56339E-01
 -1      2772 1.31005E-01
 -1      2773 1.57913E-01
 -1      2774 1.11777E-01
 -1      2775 9.22533E-02
 -1      2776 1.13905E-01
 -1      2777 7.79034E-02
 -1      2778 6.31952E-02
 -1      2779 8.03273E-02
 -1      2780 5.29307E-02
 -1      2781 4.21052E-02
 -1      2782 5.57129E-02
 -1      2783 3.44842E-02
 -1      2784 2.82374E-02
 -1      2785 3.78275E-02
 -1      2786 2.27005E-02
 -1      2787 1.94337E-02
 -1      2788 2.46696E-02
 -1      2789 1.61535E-02
 -1      2790 1.48492E-02
 -1      2791 1.58525E-02
 -1      2792 1.34712E-02
 -1      2793 1.20703E-02
 -1      2794 1.11942E-02
 -1      2795 1.16977E-02
 -1      2796 1.03128E-02
 -1      2797 9.44349E-03
 -1      2798 9.72191E-03
 -1      2799 8.42069E-03
 -1      2800 8.47994E-03
 -1      2801 7.72560E-03
 -1      2802 6.83673E-03
 -1      2803 7.19392E-03
 -1      2804 6.11682E-03
 -1      2805 5.42082E-03
 -1      2806 5.77891E-03
 -1      2807 4.91371E-03
 -1      2808 4.19243E-03
 -1      2809 4.55189E-03
 -1      2810 3.69239E-03
 -1      2811 3.11741E-03
 -1      2812 3.54474E-03
 -1      2813 6.63614E+00
 -1      2814 5.90305E+00
 -1      2815 4.57437E+00
 -1      2816 4.16265E+00
 -1      2817 7.56469E-01
 -1      2818 7.03265E-01
 -1      2819 1.16920E+00
 -1      2820 1.10428E+00
 -1      2821 1.35835E+00
 -1      2822 1.26422E+00
 -1      2823 1.44078E+00
 -1      2824 1.74893E+00
 -1      2825 1.61196E+00
 -1      2826 1.78942E+00
 -1      2827 1.85634E+00
 -1      2828 1.74161E+00
 -1      2829 2.03570E+00
 -1      2830 2.13082E+00
 -1      2831 1.91227E+00
 -1      2832 2.08430E+00
 -1      2833 3.17601E+00
 -1      2834 2.99040E+00
 -1      2835 2.99981E+00
 -1      2836 4.06339E+00
 -1      2837 4.06267E+00
 -1      2838 4.74606E+00
 -1      2839 2.71787E+00
 -1      2840 2.89214E+00
 -1      2841 4.46148E+00
 -1      2842 2.72173E+00
 -1      2843 2.96218E+00
 -1      2844 3.53455E+00
 -1      2845 1.66363E+00
 -1      2846 1.80852E+00
 -1      2847 2.86565E+00
 -1      2848 1.55855E+00
 -1      2849 1.66888E+00
 -1      2850 1.95768E+00
 -1      2851 1.29336E+00
 -1      2852 1.37288E+00
 -1      2853 1.77726E+00
 -1      2854 1.20282E+00
 -1      2855 1.19738E+00
 -1      2856 1.49561E+00
 -1      2857 1.12220E+00
 -1      2858 1.12884E+00
 -1      2859 1.32565E+00
 -1      2860 9.87847E-01
 -1      2861 1.02815E+00
 -1      2862 1.15762E+00
 -1      2863 8.76153E-01
 -1      2864 9.12967E-01
 -1      2865 9.88687E-01
 -1      2866 7.83519E-01
 -1      2867 8.25064E-01
 -1      2868 8.62718E-01
 -1      2869 6.73339E-01
 -1      2870 7.24432E-01
 -1      2871 7.52543E-01
 -1      2872 5.58099E-01
 -1      2873 6.13869E-01
 -1      2874 6.33986E-01
 -1      2875 4.48866E-01
 -1      2876 5.02730E-01
 -1      2877 5.19147E-01
 -1      2878 3.51603E-01
 -1      2879 3.99900E-01
 -1      2880 4.14811E-01
 -1      2881 2.68751E-01
 -1      2882 3.09893E-01
 -1      2883 3.24134E-01
 -1      2884 2.00549E-01
 -1      2885 2.34266E-01
 -1      2886 2.47939E-01
 -1      2887 1.45971E-01
 -1      2888 1.72746E-01
 -1      2889 1.85652E-01
 -1      2890 1.03367E-01
 -1      2891 1.24054E-01
 -1      2892 1.35932E-01
 -1      2893 7.08687E-02
 -1      2894 8.64466E-02
 -1      2895 9.70946E-02
 -1      2896 4.85846E-02
 -1      2897 5.80740E-02
 -1      2898 6.73798E-02
 -1      2899 3.28875E-02
 -1      2900 3.91173E-02
 -1      2901 4.51177E-02
 -1      2902 2.35716E-02
 -1      2903 2.60480E-02
 -1      2904 2.88108E-02
 -1      2905 1.79113E-02
 -1      2906 1.99683E-02
 -1      2907 1.83680E-02
 -1      2908 1.49262E-02
 -1      2909 1.69075E-02
 -1      2910 1.37610E-02
 -1      2911 1.23162E-02
 -1      2912 1.41418E-02
 -1      2913 1.19728E-02
 -1      2914 9.78061E-03
 -1      2915 1.14058E-02
 -1      2916 1.02780E-02
 -1      2917 8.04844E-03
 -1      2918 8.84055E-03
 -1      2919 8.42750E-03
 -1      2920 6.31105E-03
 -1      2921 7.18027E-03
 -1      2922 6.61926E-03
 -1      2923 4.85976E-03
 -1      2924 5.73392E-03
 -1      2925 5.17395E-03
 -1      2926 3.61018E-03
 -1      2927 4.28464E-03
 -1      2928 4.02170E-03
 -1      2929 2.87851E-03
 -1      2930 3.41352E-03
 -1      2931 3.24993E-03
 -1      2932 2.72200E-03
 -1      2933 1.83121E-03
 -1      2934 1.85846E-03
 -1      2935 2.66961E-03
 -1      2936 2.07171E-03
 -1      2937 2.59690E-03
 -1      2938 1.94315E-03
 -1      2939 1.93196E-03
 -1      2940 1.85569E-03
 -1      2941 1.83163E-03
 -1      2942 1.89339E-03
 -1      2943 1.92676E-03
 -1      2944 1.92676E-03
 -1      2945 2.04597E-03
 -1      2946 1.96127E-03
 -1      2947 1.20563E+01
 -1      2948 1.51531E+01
 -1      2949 1.91846E-03
 -1      2950 1.91846E-03
 -1      2951 1.95659E-03
 -1      2952 1.93622E-03
 -1      2953 1.94406E-03
 -1      2954 2.04496E-03
 -1      2955 1.84916E-03
 -1      2956 1.93622E-03
 -1      2957 2.07056E-03
 -1      2958 6.34726E-01
 -1      2959 5.90201E-01
 -1      2960 5.90201E-01
 -1      2961 7.03265E-01
 -1      2962 2.12643E+01
 -1      2963 2.20030E+01
 -1      2964 1.06140E+01
 -1      2965 8.41674E+00
 -1      2966 2.03797E+01
 -1      2967 2.59483E+01
 -1      2968 1.16261E+00
 -1      2969 9.30421E-01
 -1      2970 1.03299E+00
 -1      2971 2.04198E+01
 -1      2972 1.54593E+01
 -1      2973 3.46937E+00
 -1      2974 4.37358E+00
 -1      2975 1.01118E+00
 -1      2976 9.95476E-01
 -1      2977 1.25266E+00
 -1      2978 9.02130E-01
 -1      2979 8.57005E-01
 -1      2980 1.06622E+00
 -1      2981 9.30421E-01
 -1      2982 8.58552E-01
 -1      2983 8.98778E-01
 -1      2984 1.09695E+00
 -1      2985 6.58593E-01
 -1      2986 5.94293E-01
 -1      2987 5.74772E-01
 -1      2988 6.71723E-01
 -1      2989 1.56727E+01
 -1      2990 2.00969E+01
 -1      2991 1.42025E+01
 -1      2992 5.90380E-01
 -1      2993 6.58186E-01
 -1      2994 3.56814E+00
 -1      2995 4.26357E+00
 -1      2996 1.16261E+00
 -1      2997 1.07163E+01
 -1      2998 1.34353E+01
 -1      2999 1.32439E+01
 -1      3000 9.96220E+00
 -1      3001 4.39780E+00
 -1      3002 5.77195E+00
 -1      3003 6.15574E+00
 -1      3004 5.45413E+00
 -1      3005 6.50545E+00
 -1      3006 6.75314E+00
 -1      3007 5.28400E+00
 -1      3008 2.60501E+01
 -1      3009 2.07231E+01
 -1      3010 8.23575E+00
 -1      3011 6.93201E+00
 -1      3012 5.05687E+00
 -1      3013 3.94239E+00
 -1      3014 2.36543E+01
 -1      3015 1.92922E+01
 -1      3016 5.22294E+00
 -1      3017 7.19892E+00
 -1      3018 1.83804E-03
 -1      3019 7.63385E+00
 -1      3020 5.84667E+00
 -1      3021 4.60694E+00
 -1      3022 4.38710E+00
 -1      3023 8.88253E-01
 -1      3024 1.01918E+00
 -1      3025 8.66883E-01
 -1      3026 3.11525E-01
 -1      3027 3.06726E-01
 -1      3028 3.61371E-01
 -1      3029 3.81614E+00
 -1      3030 9.37378E+00
 -1      3031 4.62605E+00
 -1      3032 5.46308E+00
 -1      3033 9.28665E+00
 -1      3034 4.32082E+00
 -1      3035 1.56426E+01
 -1      3036 1.59617E+01
 -1      3037 1.12163E+01
 -1      3038 4.61471E+00
 -1      3039 2.14451E+01
 -1      3040 1.46235E+01
 -1      3041 1.29722E+01
 -1      3042 2.07621E-03
 -1      3043 1.94582E-03
 -1      3044 1.87353E-03
 -1      3045 1.43856E+01
 -1      3046 3.69884E+00
 -1      3047 8.72341E-01
 -1      3048 7.92495E+00
 -1      3049 4.73599E+00
 -1      3050 1.91363E-03
 -1      3051 2.28050E-03
 -1      3052 2.61178E-03
 -1      3053 2.13017E-03
 -1      3054 4.66749E+00
 -1      3055 1.30403E+01
 -1      3056 1.12872E+01
 -1      3057 9.04978E+00
 -1      3058 1.88843E-03
 -1      3059 6.49301E+00
 -1      3060 2.20934E-03
 -1      3061 1.94867E-03
 -1      3062 2.17007E-03
 -1      3063 2.65714E-03
 -1      3064 6.79117E+00
 -1      3065 1.45871E+01
 -1      3066 9.57869E-01
 -1      3067 3.72702E+00
 -1      3068 5.19599E+00
 -1      3069 5.94092E+00
 -1      3070 1.01918E+00
 -1      3071 5.29554E+00
 -1      3072 5.75255E+00
 -1      3073 3.75811E+00
 -1      3074 4.57633E-01
 -1      3075 5.22033E-01
 -1      3076 5.68468E-01
 -1      3077 4.03859E-01
 -1      3078 3.10039E+00
 -1      3079 7.46876E+00
 -1      3080 6.57275E+00
 -1      3081 6.48257E+00
 -1      3082 5.92256E+00
 -1      3083 8.55895E+00
 -1      3084 7.28747E+00
 -1      3085 1.68738E+01
 -1      3086 6.73566E+00
 -1      3087 7.90912E-01
 -1      3088 7.59068E-01
 -1      3089 7.35948E-01
 -1      3090 1.16340E+01
 -1      3091 1.19167E+01
 -1      3092 8.99902E-01
 -1      3093 9.67285E-01
 -1      3094 1.10644E+00
 -1      3095 1.21126E+00
 -1      3096 1.14003E+00
 -1      3097 1.38197E+00
 -1      3098 1.52859E+00
 -1      3099 1.44990E+00
 -1      3100 1.72874E+00
 -1      3101 1.89592E+00
 -1      3102 1.82076E+00
 -1      3103 2.32514E+00
 -1      3104 2.45875E+00
 -1      3105 2.45014E+00
 -1      3106 2.76012E+00
 -1      3107 3.10704E+00
 -1      3108 3.18073E+00
 -1      3109 3.76103E+00
 -1      3110 3.65285E+00
 -1      3111 3.07146E+00
 -1      3112 3.47464E+00
 -1      3113 3.17254E+00
 -1      3114 3.42081E+00
 -1      3115 3.17384E+00
 -1      3116 2.96538E+00
 -1      3117 3.84638E+00
 -1      3118 2.72617E+00
 -1      3119 2.44617E+00
 -1      3120 3.36019E+00
 -1      3121 2.12591E+00
 -1      3122 1.99188E+00
 -1      3123 2.80071E+00
 -1      3124 1.66235E+00
 -1      3125 1.52245E+00
 -1      3126 2.15092E+00
 -1      3127 1.36409E+00
 -1      3128 1.30471E+00
 -1      3129 1.66304E+00
 -1      3130 1.15281E+00
 -1      3131 1.08133E+00
 -1      3132 1.35278E+00
 -1      3133 9.53821E-01
 -1      3134 8.83928E-01
 -1      3135 1.07337E+00
 -1      3136 7.86289E-01
 -1      3137 7.14362E-01
 -1      3138 8.48232E-01
 -1      3139 6.32731E-01
 -1      3140 5.65704E-01
 -1      3141 6.68962E-01
 -1      3142 5.04546E-01
 -1      3143 4.45602E-01
 -1      3144 5.26172E-01
 -1      3145 3.94362E-01
 -1      3146 3.44519E-01
 -1      3147 4.13774E-01
 -1      3148 3.01434E-01
 -1      3149 2.60872E-01
 -1      3150 3.19450E-01
 -1      3151 2.27118E-01
 -1      3152 1.95775E-01
 -1      3153 2.42611E-01
 -1      3154 1.68908E-01
 -1      3155 1.44128E-01
 -1      3156 1.81990E-01
 -1      3157 1.22957E-01
 -1      3158 1.03729E-01
 -1      3159 1.33952E-01
 -1      3160 8.73502E-02
 -1      3161 7.30003E-02
 -1      3162 9.64024E-02
 -1      3163 6.08853E-02
 -1      3164 5.06208E-02
 -1      3165 6.79082E-02
 -1      3166 4.19065E-02
 -1      3167 3.42856E-02
 -1      3168 4.70789E-02
 -1      3169 2.78495E-02
 -1      3170 2.23126E-02
 -1      3171 3.19285E-02
 -1      3172 1.76567E-02
 -1      3173 1.43765E-02
 -1      3174 2.08366E-02
 -1      3175 1.10920E-02
 -1      3176 9.71394E-03
 -1      3177 1.28962E-02
 -1      3178 7.81326E-03
 -1      3179 7.44064E-03
 -1      3180 7.71110E-03
 -1      3181 7.08719E-03
 -1      3182 6.49626E-03
 -1      3183 5.45696E-03
 -1      3184 6.35064E-03
 -1      3185 5.65555E-03
 -1      3186 4.95789E-03
 -1      3187 5.34673E-03
 -1      3188 4.62682E-03
 -1      3189 4.50346E-03
 -1      3190 4.25546E-03
 -1      3191 3.74835E-03
 -1      3192 3.82328E-03
 -1      3193 3.48596E-03
 -1      3194 2.98592E-03
 -1      3195 2.59836E-03
 -1      3196 3.18953E-03
 -1      3197 2.24823E+00
 -1      3198 2.15320E+00
 -1      3199 2.33942E+00
 -1      3200 2.28350E+00
 -1      3201 4.20441E+00
 -1      3202 3.34483E+00
 -1      3203 5.63273E+00
 -1      3204 4.74606E+00
 -1      3205 4.38174E+00
 -1      3206 5.55298E+00
 -1      3207 4.62605E+00
 -1      3208 2.26926E+00
 -1      3209 3.18248E+00
 -1      3210 2.39001E+00
 -1      3211 2.38477E+00
 -1      3212 2.70160E+00
 -1      3213 2.35510E+00
 -1      3214 2.54078E+00
 -1      3215 2.96786E+00
 -1      3216 1.79843E+00
 -1      3217 1.89440E+00
 -1      3218 2.65792E+00
 -1      3219 1.50155E+00
 -1      3220 1.57553E+00
 -1      3221 1.97432E+00
 -1      3222 1.20446E+00
 -1      3223 1.29851E+00
 -1      3224 1.54839E+00
 -1      3225 1.03112E+00
 -1      3226 1.10600E+00
 -1      3227 1.24690E+00
 -1      3228 8.79887E-01
 -1      3229 9.30976E-01
 -1      3230 1.04829E+00
 -1      3231 7.33343E-01
 -1      3232 7.92429E-01
 -1      3233 8.60687E-01
 -1      3234 5.97925E-01
 -1      3235 6.57396E-01
 -1      3236 6.97282E-01
 -1      3237 4.76884E-01
 -1      3238 5.32253E-01
 -1      3239 5.55663E-01
 -1      3240 3.72971E-01
 -1      3241 4.21938E-01
 -1      3242 4.35045E-01
 -1      3243 2.87879E-01
 -1      3244 3.29589E-01
 -1      3245 3.36716E-01
 -1      3246 2.18513E-01
 -1      3247 2.52998E-01
 -1      3248 2.58453E-01
 -1      3249 1.62844E-01
 -1      3250 1.90646E-01
 -1      3251 1.95706E-01
 -1      3252 1.18942E-01
 -1      3253 1.40859E-01
 -1      3254 1.45854E-01
 -1      3255 8.49090E-02
 -1      3256 1.01829E-01
 -1      3257 1.06756E-01
 -1      3258 5.89884E-02
 -1      3259 7.17831E-02
 -1      3260 7.65176E-02
 -1      3261 3.96204E-02
 -1      3262 4.90878E-02
 -1      3263 5.34912E-02
 -1      3264 2.54517E-02
 -1      3265 3.22912E-02
 -1      3266 3.62613E-02
 -1      3267 1.65376E-02
 -1      3268 2.01409E-02
 -1      3269 2.36213E-02
 -1      3270 1.17826E-02
 -1      3271 1.27864E-02
 -1      3272 1.45593E-02
 -1      3273 9.05617E-03
 -1      3274 9.84058E-03
 -1      3275 8.86596E-03
 -1      3276 8.09742E-03
 -1      3277 9.00783E-03
 -1      3278 6.87560E-03
 -1      3279 6.86229E-03
 -1      3280 7.80236E-03
 -1      3281 6.53221E-03
 -1      3282 5.53766E-03
 -1      3283 6.40583E-03
 -1      3284 5.78069E-03
 -1      3285 4.42826E-03
 -1      3286 5.00539E-03
 -1      3287 4.79196E-03
 -1      3288 3.42022E-03
 -1      3289 3.99533E-03
 -1      3290 3.82677E-03
 -1      3291 2.91348E-03
 -1      3292 3.11014E-03
 -1      3293 3.08377E-03
 -1      3294 2.47198E-03
 -1      3295 6.39527E+00
 -1      3296 5.61238E+00
 -1      3297 5.19638E-01
 -1      3298 4.21496E-01
 -1      3299 1.82253E-03
 -1      3300 1.82211E-03
 -1      3301 2.10307E-03
 -1      3302 2.10307E-03
 -1      3303 1.95717E-03
 -1      3304 1.89440E-03
 -1      3305 1.82312E-03
 -1      3306 1.01475E+00
 -1      3307 9.14217E-01
 -1      3308 4.32082E+00
 -1      3309 1.48072E+00
 -1      3310 1.38763E+00
 -1      3311 2.28817E+00
 -1      3312 7.05717E+00
 -1      3313 8.41018E+00
 -1      3314 2.69721E+00
 -1      3315 2.04496E-03
 -1      3316 2.01937E-03
 -1      3317 1.95717E-03
 -1      3318 2.07747E-03
 -1      3319 2.45289E+00
 -1      3320 2.46021E+00
 -1      3321 2.70801E+00
 -1      3322 2.04303E+00
 -1      3323 1.78942E+00
 -1      3324 2.50184E+00
 -1      3325 2.46021E+00
 -1      3326 7.80278E+00
 -1      3327 6.07632E+00
 -1      3328 3.63314E+00
 -1      3329 2.72162E+00
 -1      3330 7.68937E-01
 -1      3331 8.18095E-01
 -1      3332 9.19075E-01
 -1      3333 1.25260E+01
 -1      3334 1.22226E+01
 -1      3335 1.22373E+00
 -1      3336 1.13038E+00
 -1      3337 1.45179E+00
 -1      3338 1.18668E+01
 -1      3339 1.09695E+00
 -1      3340 1.60192E+01
 -1      3341 1.26755E+01
 -1      3342 1.17634E+01
 -1      3343 1.39159E+01
 -1      3344 5.05081E+00
 -1      3345 3.77852E+00
 -1      3346 5.19128E+00
 -1      3347 4.45587E+00
 -1      3348 4.57750E+00
 -1      3349 4.46051E+00
 -1      3350 8.75987E+00
 -1      3351 7.04728E+00
 -1      3352 7.14128E-01
 -1      3353 6.75096E-01
 -1      3354 6.82285E-01
 -1      3355 5.71994E-01
 -1      3356 3.18248E+00
 -1      3357 4.01832E+00
 -1      3358 1.24242E+01
 -1      3359 1.25260E+01
 -1      3360 5.50418E+00
 -1      3361 6.78929E+00
 -1      3362 1.10308E+01
 -1      3363 8.81541E+00
 -1      3364 1.34854E+01
 -1      3365 1.05687E+01
 -1      3366 3.89009E-01
 -1      3367 3.85081E-01
 -1      3368 4.95052E-01
 -1      3369 9.85565E+00
 -1      3370 4.13382E+00
 -1      3371 7.10777E-01
 -1      3372 9.40844E-01
 -1      3373 8.64273E+00
 -1      3374 9.13226E+00
 -1      3375 6.32612E+00
 -1      3376 1.17206E+01
 -1      3377 1.11627E+01
 -1      3378 1.08660E+01
 -1      3379 2.10172E-03
 -1      3380 2.11558E-03
 -1      3381 4.13609E+00
 -1      3382 8.32929E+00
 -1      3383 2.62089E+00
 -1      3384 3.84400E+00
 -1      3385 3.54058E+00
 -1      3386 3.30544E+00
 -1      3387 2.85772E+00
 -1      3388 1.25778E+01
 -1      3389 9.23051E+00
 -1      3390 1.03686E+01
 -1      3391 1.01540E+01
 -1      3392 7.10265E+00
 -1      3393 8.29448E+00
 -1      3394 4.18745E+00
 -1      3395 6.57275E+00
 -1      3396 3.77886E+00
 -1      3397 5.86849E+00
 -1      3398 6.54383E-01
 -1      3399 6.62284E-01
 -1      3400 7.17418E-01
 -1      3401 2.08533E-03
 -1      3402 2.10172E-03
 -1      3403 2.14109E-03
 -1      3404 6.09176E-01
 -1      3405 6.35494E-01
 -1      3406 6.53701E-01
 -1      3407 5.06912E+00
 -1      3408 1.89296E-03
 -1      3409 1.96127E-03
 -1      3410 2.01703E-03
 -1      3411 1.82211E-03
 -1      3412 1.17226E+00
 -1      3413 7.19499E+00
 -1      3414 6.79994E+00
 -1      3415 5.03763E+00
 -1      3416 8.32407E-01
 -1      3417 7.63867E-01
 -1      3418 7.82843E-01
 -1      3419 9.74819E-01
 -1      3420 6.96679E+00
 -1      3421 5.82569E+00
 -1      3422 7.00986E-01
 -1      3423 7.74947E-01
 -1      3424 6.32638E-01
 -1      3425 8.60196E-01
 -1      3426 9.28526E-01
 -1      3427 1.05837E+00
 -1      3428 3.36135E+00
 -1      3429 4.65491E+00
 -1      3430 1.03631E+01
 -1      3431 1.09695E+00
 -1      3432 4.96009E+00
 -1      3433 7.63625E-01
 -1      3434 7.29709E-01
 -1      3435 8.09320E-01
 -1      3436 7.93934E-01
 -1      3437 2.43227E-03
 -1      3438 2.33276E-03
 -1      3439 2.36527E-03
 -1      3440 2.76105E-03
 -1      3441 7.85973E+00
 -1      3442 1.04922E+01
 -1      3443 8.20647E+00
 -1      3444 5.09108E+00
 -1      3445 4.30610E+00
 -1      3446 1.51119E+00
 -1      3447 1.68191E+00
 -1      3448 2.08076E+00
 -1      3449 2.28091E+00
 -1      3450 2.14205E+00
 -1      3451 2.57181E+00
 -1      3452 3.00103E+00
 -1      3453 2.83180E+00
 -1      3454 8.16322E+00
 -1      3455 6.35443E+00
 -1      3456 3.32100E+00
 -1      3457 3.00074E+00
 -1      3458 2.48045E+00
 -1      3459 2.15092E+00
 -1      3460 3.00074E+00
 -1      3461 1.99626E+00
 -1      3462 1.83791E+00
 -1      3463 2.32579E+00
 -1      3464 1.51309E+00
 -1      3465 1.36118E+00
 -1      3466 1.84631E+00
 -1      3467 1.17669E+00
 -1      3468 1.04919E+00
 -1      3469 1.33700E+00
 -1      3470 9.25539E-01
 -1      3471 8.27900E-01
 -1      3472 1.02886E+00
 -1      3473 7.43122E-01
 -1      3474 6.61490E-01
 -1      3475 8.20429E-01
 -1      3476 5.87118E-01
 -1      3477 5.25960E-01
 -1      3478 6.61278E-01
 -1      3479 4.63037E-01
 -1      3480 4.11797E-01
 -1      3481 5.23983E-01
 -1      3482 3.59646E-01
 -1      3483 3.16561E-01
 -1      3484 4.08909E-01
 -1      3485 2.74037E-01
 -1      3486 2.40284E-01
 -1      3487 3.14234E-01
 -1      3488 2.06156E-01
 -1      3489 1.79288E-01
 -1      3490 2.37582E-01
 -1      3491 1.52342E-01
 -1      3492 1.31172E-01
 -1      3493 1.76508E-01
 -1      3494 1.10228E-01
 -1      3495 9.38483E-02
 -1      3496 1.28618E-01
 -1      3497 7.78039E-02
 -1      3498 6.56890E-02
 -1      3499 9.16291E-02
 -1      3500 5.40659E-02
 -1      3501 4.53516E-02
 -1      3502 6.39617E-02
 -1      3503 3.68642E-02
 -1      3504 3.04281E-02
 -1      3505 4.38512E-02
 -1      3506 2.41986E-02
 -1      3507 1.95427E-02
 -1      3508 2.91343E-02
 -1      3509 1.50747E-02
 -1      3510 1.17903E-02
 -1      3511 1.84368E-02
 -1      3512 8.74311E-03
 -1      3513 6.84242E-03
 -1      3514 1.09216E-02
 -1      3515 4.77815E-03
 -1      3516 4.42470E-03
 -1      3517 5.81016E-03
 -1      3518 4.24586E-03
 -1      3519 4.10024E-03
 -1      3520 3.56705E-03
 -1      3521 4.23398E-03
 -1      3522 3.92516E-03
 -1      3523 3.52194E-03
 -1      3524 3.82328E-03
 -1      3525 3.45192E-03
 -1      3526 3.55380E-03
 -1      3527 3.54402E+00
 -1      3528 4.33821E+00
 -1      3529 9.02261E-01
 -1      3530 1.05837E+00
 -1      3531 2.12906E+00
 -1      3532 2.35196E+00
 -1      3533 1.68542E+00
 -1      3534 1.88845E+00
 -1      3535 2.26610E+00
 -1      3536 1.33976E+00
 -1      3537 1.43822E+00
 -1      3538 1.77829E+00
 -1      3539 1.04332E+00
 -1      3540 1.14347E+00
 -1      3541 1.33479E+00
 -1      3542 8.31643E-01
 -1      3543 9.19101E-01
 -1      3544 1.01428E+00
 -1      3545 6.65667E-01
 -1      3546 7.41614E-01
 -1      3547 8.00028E-01
 -1      3548 5.35075E-01
 -1      3549 6.00747E-01
 -1      3550 6.45079E-01
 -1      3551 4.21623E-01
 -1      3552 4.76569E-01
 -1      3553 5.21653E-01
 -1      3554 3.27822E-01
 -1      3555 3.71205E-01
 -1      3556 4.12729E-01
 -1      3557 2.50798E-01
 -1      3558 2.85679E-01
 -1      3559 3.20167E-01
 -1      3560 1.88534E-01
 -1      3561 2.16401E-01
 -1      3562 2.43627E-01
 -1      3563 1.39033E-01
 -1      3564 1.61018E-01
 -1      3565 1.81713E-01
 -1      3566 1.00366E-01
 -1      3567 1.17479E-01
 -1      3568 1.32643E-01
 -1      3569 7.06807E-02
 -1      3570 8.38065E-02
 -1      3571 9.45294E-02
 -1      3572 4.89537E-02
 -1      3573 5.88544E-02
 -1      3574 6.61432E-02
 -1      3575 3.27574E-02
 -1      3576 4.00866E-02
 -1      3577 4.54498E-02
 -1      3578 2.09376E-02
 -1      3579 2.62483E-02
 -1      3580 3.00736E-02
 -1      3581 1.25805E-02
 -1      3582 1.63318E-02
 -1      3583 1.89588E-02
 -1      3584 7.44444E-03
 -1      3585 9.38645E-03
 -1      3586 1.11590E-02
 -1      3587 5.59494E-03
 -1      3588 5.64328E-03
 -1      3589 6.16377E-03
 -1      3590 5.15004E-03
 -1      3591 5.44509E-03
 -1      3592 4.21277E-03
 -1      3593 4.75984E-03
 -1      3594 5.21630E-03
 -1      3595 4.12918E-03
 -1      3596 4.06423E-03
 -1      3597 4.59650E-03
 -1      3598 4.03210E-03
 -1      3599 3.32419E-03
 -1      3600 3.75712E-03
 -1      3601 3.56165E-03
 -1      3602 3.53074E+00
 -1      3603 7.94442E+00
 -1      3604 8.45185E+00
 -1      3605 1.38513E+00
 -1      3606 1.26950E+00
 -1      3607 2.36376E-03
 -1      3608 2.40386E-03
 -1      3609 2.70557E-03
 -1      3610 2.38927E-03
 -1      3611 5.42041E+00
 -1      3612 4.76840E+00
 -1      3613 1.96872E+00
 -1      3614 1.80481E+00
 -1      3615 1.90205E+00
 -1      3616 1.84537E-03
 -1      3617 1.77351E-03
 -1      3618 4.78425E+00
 -1      3619 3.89921E+00
 -1      3620 3.24587E+00
 -1      3621 6.26573E+00
 -1      3622 5.25310E+00
 -1      3623 2.84717E+00
 -1      3624 2.17469E+00
 -1      3625 2.52771E+00
 -1      3626 2.86019E+00
 -1      3627 3.32089E+00
 -1      3628 3.01493E+00
 -1      3629 4.54048E+00
 -1      3630 4.40794E+00
 -1      3631 9.88194E-01
 -1      3632 1.07000E+00
 -1      3633 4.48671E-01
 -1      3634 5.44933E-01
 -1      3635 6.77451E-01
 -1      3636 9.84850E+00
 -1      3637 9.90606E+00
 -1      3638 7.27492E+00
 -1      3639 1.14371E+00
 -1      3640 1.28286E+00
 -1      3641 1.51487E+00
 -1      3642 8.45185E+00
 -1      3643 8.45185E+00
 -1      3644 7.66862E-01
 -1      3645 8.50834E-01
 -1      3646 8.04044E-01
 -1      3647 4.80837E+00
 -1      3648 3.95987E+00
 -1      3649 1.21283E+00
 -1      3650 9.03556E+00
 -1      3651 8.08065E+00
 -1      3652 7.12067E+00
 -1      3653 5.44271E+00
 -1      3654 7.35395E+00
 -1      3655 5.28534E+00
 -1      3656 9.17763E+00
 -1      3657 7.13197E+00
 -1      3658 7.92605E+00
 -1      3659 5.25434E+00
 -1      3660 7.86143E+00
 -1      3661 5.88657E+00
 -1      3662 6.95386E+00
 -1      3663 4.00473E+00
 -1      3664 4.30610E+00
 -1      3665 5.26156E-01
 -1      3666 6.33086E+00
 -1      3667 7.47261E+00
 -1      3668 6.06881E+00
 -1      3669 3.72065E+00
 -1      3670 3.75635E+00
 -1      3671 3.64286E+00
 -1      3672 3.18953E-03
 -1      3673 2.92715E-03
 -1      3674 2.76105E-03
 -1      3675 3.18953E-03
 -1      3676 4.08319E+00
 -1      3677 2.69782E-03
 -1      3678 2.94600E-03
 -1      3679 8.26144E-01
 -1      3680 9.43667E-01
 -1      3681 8.52408E-01
 -1      3682 1.79849E-03
 -1      3683 1.77623E-03
 -1      3684 1.84709E-03
 -1      3685 3.01565E-03
 -1      3686 8.26144E-01
 -1      3687 8.67550E-01
 -1      3688 8.16353E-01
 -1      3689 3.92068E+00
 -1      3690 1.29432E+00
 -1      3691 1.08146E+00
 -1      3692 2.27309E-03
 -1      3693 2.22348E-03
 -1      3694 2.33528E-03
 -1      3695 2.82869E+00
 -1      3696 9.99646E-01
 -1      3697 7.02995E+00
 -1      3698 6.23494E+00
 -1      3699 6.03611E+00
 -1      3700 4.32242E+00
 -1      3701 5.15934E+00
 -1      3702 2.61857E-03
 -1      3703 2.61857E-03
 -1      3704 6.54062E+00
 -1      3705 5.17516E+00
 -1      3706 1.00333E+00
 -1      3707 5.13011E+00
 -1      3708 8.78511E-01
 -1      3709 6.23772E-01
 -1      3710 5.91285E-01
 -1      3711 9.00383E-01
 -1      3712 7.65638E-01
 -1      3713 8.61871E-01
 -1      3714 2.63695E-03
 -1      3715 2.40726E-03
 -1      3716 2.80304E-03
 -1      3717 3.17530E-03
 -1      3718 4.12640E+00
 -1      3719 2.34915E-03
 -1      3720 2.46439E+00
 -1      3721 2.86324E+00
 -1      3722 1.47556E+00
 -1      3723 1.70389E+00
 -1      3724 2.42508E+00
 -1      3725 3.25488E+00
 -1      3726 3.54578E+00
 -1      3727 3.57722E+00
 -1      3728 2.66507E-03
 -1      3729 4.85469E+00
 -1      3730 9.69574E-01
 -1      3731 9.12674E-01
 -1      3732 3.28750E+00
 -1      3733 2.47508E+00
 -1      3734 2.32042E+00
 -1      3735 2.10926E+00
 -1      3736 1.78444E+00
 -1      3737 2.25854E+00
 -1      3738 1.50901E+00
 -1      3739 1.32452E+00
 -1      3740 1.77195E+00
 -1      3741 1.15251E+00
 -1      3742 1.02886E+00
 -1      3743 1.32452E+00
 -1      3744 8.96574E-01
 -1      3745 8.11795E-01
 -1      3746 1.02022E+00
 -1      3747 7.10245E-01
 -1      3748 6.35874E-01
 -1      3749 7.86390E-01
 -1      3750 5.57810E-01
 -1      3751 4.94886E-01
 -1      3752 6.06777E-01
 -1      3753 4.33851E-01
 -1      3754 3.81701E-01
 -1      3755 4.67679E-01
 -1      3756 3.33570E-01
 -1      3757 2.91046E-01
 -1      3758 3.58513E-01
 -1      3759 2.53168E-01
 -1      3760 2.19040E-01
 -1      3761 2.72504E-01
 -1      3762 1.89305E-01
 -1      3763 1.62359E-01
 -1      3764 2.04891E-01
 -1      3765 1.39208E-01
 -1      3766 1.18264E-01
 -1      3767 1.52005E-01
 -1      3768 1.00338E-01
 -1      3769 8.42931E-02
 -1      3770 1.10928E-01
 -1      3771 7.05725E-02
 -1      3772 5.89495E-02
 -1      3773 7.92810E-02
 -1      3774 4.86354E-02
 -1      3775 4.01481E-02
 -1      3776 5.52463E-02
 -1      3777 3.29778E-02
 -1      3778 2.67483E-02
 -1      3779 3.77620E-02
 -1      3780 2.15154E-02
 -1      3781 1.70474E-02
 -1      3782 2.53589E-02
 -1      3783 1.32662E-02
 -1      3784 1.02190E-02
 -1      3785 1.63448E-02
 -1      3786 7.55424E-03
 -1      3787 5.48997E-03
 -1      3788 9.89883E-03
 -1      3789 3.72157E-03
 -1      3790 3.54272E-03
 -1      3791 5.46565E-03
 -1      3792 2.69622E-03
 -1      3793 2.82996E-03
 -1      3794 2.85074E-03
 -1      3795 3.16731E-03
 -1      3796 3.06543E-03
 -1      3797 2.34159E-03
 -1      3798 3.48241E-03
 -1      3799 4.26393E+00
 -1      3800 5.26763E+00
 -1      3801 1.37776E+00
 -1      3802 1.57405E+00
 -1      3803 3.41324E+00
 -1      3804 2.95018E+00
 -1      3805 3.19078E+00
 -1      3806 1.00188E+00
 -1      3807 1.12610E+00
 -1      3808 1.36537E+00
 -1      3809 8.00028E-01
 -1      3810 8.90057E-01
 -1      3811 1.00188E+00
 -1      3812 6.41190E-01
 -1      3813 7.06110E-01
 -1      3814 7.96139E-01
 -1      3815 5.06767E-01
 -1      3816 5.65273E-01
 -1      3817 6.26304E-01
 -1      3818 3.95026E-01
 -1      3819 4.45444E-01
 -1      3820 4.89064E-01
 -1      3821 3.03409E-01
 -1      3822 3.45552E-01
 -1      3823 3.78268E-01
 -1      3824 2.29575E-01
 -1      3825 2.63972E-01
 -1      3826 2.89357E-01
 -1      3827 1.70682E-01
 -1      3828 1.98199E-01
 -1      3829 2.18544E-01
 -1      3830 1.24522E-01
 -1      3831 1.46076E-01
 -1      3832 1.62561E-01
 -1      3833 8.88639E-02
 -1      3834 1.05424E-01
 -1      3835 1.18857E-01
 -1      3836 6.23727E-02
 -1      3837 7.41990E-02
 -1      3838 8.50934E-02
 -1      3839 4.24501E-02
 -1      3840 5.13173E-02
 -1      3841 5.93730E-02
 -1      3842 2.82738E-02
 -1      3843 3.47828E-02
 -1      3844 4.06503E-02
 -1      3845 1.80106E-02
 -1      3846 2.26163E-02
 -1      3847 2.73256E-02
 -1      3848 1.07300E-02
 -1      3849 1.39241E-02
 -1      3850 1.75816E-02
 -1      3851 6.05208E-03
 -1      3852 7.85324E-03
 -1      3853 1.06184E-02
 -1      3854 3.99167E-03
 -1      3855 4.14151E-03
 -1      3856 5.83098E-03
 -1      3857 3.27359E-03
 -1      3858 3.20733E-03
 -1      3859 3.13608E-03
 -1      3860 3.48241E-03
 -1      3861 3.64575E-03
 -1      3862 2.72389E-03
 -1      3863 4.66211E+00
 -1      3864 3.32844E+00
 -1      3865 2.80815E+00
 -1      3866 4.36032E+00
 -1      3867 1.48767E+00
 -1      3868 1.29963E+00
 -1      3869 3.12462E+00
 -1      3870 2.70493E+00
 -1      3871 2.71024E+00
 -1      3872 1.00333E+00
 -1      3873 1.13912E+00
 -1      3874 1.00333E+00
 -1      3875 2.60517E+00
 -1      3876 2.39920E+00
 -1      3877 3.20208E+00
 -1      3878 3.28473E+00
 -1      3879 3.25105E+00
 -1      3880 3.75928E+00
 -1      3881 3.93513E+00
 -1      3882 5.72397E+00
 -1      3883 5.72397E+00
 -1      3884 5.74980E-01
 -1      3885 6.38570E-01
 -1      3886 7.03700E-01
 -1      3887 6.55318E-01
 -1      3888 7.43023E-01
 -1      3889 7.94219E-01
 -1      3890 7.04142E-01
 -1      3891 5.62099E+00
 -1      3892 6.33723E+00
 -1      3893 9.14210E-01
 -1      3894 8.04044E-01
 -1      3895 9.35412E-01
 -1      3896 1.02085E+00
 -1      3897 9.00383E-01
 -1      3898 2.05364E-03
 -1      3899 2.17770E-03
 -1      3900 2.65518E-03
 -1      3901 2.00776E-03
 -1      3902 2.10674E+00
 -1      3903 2.35394E+00
 -1      3904 3.27863E+00
 -1      3905 2.14971E+00
 -1      3906 5.04449E+00
 -1      3907 1.21283E+00
 -1      3908 1.28654E+00
 -1      3909 1.47556E+00
 -1      3910 1.21283E+00
 -1      3911 3.09605E-03
 -1      3912 4.68702E+00
 -1      3913 4.33935E+00
 -1      3914 5.38844E+00
 -1      3915 4.31691E+00
 -1      3916 5.97084E+00
 -1      3917 5.10034E+00
 -1      3918 4.27908E+00
 -1      3919 3.91269E+00
 -1      3920 4.94623E+00
 -1      3921 3.84832E+00
 -1      3922 4.12957E+00
 -1      3923 7.25541E+00
 -1      3924 5.27034E+00
 -1      3925 5.42494E+00
 -1      3926 6.70586E+00
 -1      3927 5.33678E+00
 -1      3928 9.69574E-01
 -1      3929 3.06543E-03
 -1      3930 2.80278E+00
 -1      3931 2.67894E-03
 -1      3932 5.51488E+00
 -1      3933 5.26763E+00
 -1      3934 1.79849E-03
 -1      3935 1.80122E-03
 -1      3936 2.66507E-03
 -1      3937 5.51680E+00
 -1      3938 2.14061E-03
 -1      3939 1.71289E-03
 -1      3940 1.71562E-03
 -1      3941 1.38061E+00
 -1      3942 1.18726E+00
 -1      3943 1.10183E+00
 -1      3944 5.07669E+00
 -1      3945 4.01014E+00
 -1      3946 3.20208E+00
 -1      3947 4.13615E+00
 -1      3948 8.58379E-01
 -1      3949 8.42073E-01
 -1      3950 5.72397E+00
 -1      3951 4.90732E+00
 -1      3952 5.25216E+00
 -1      3953 1.00374E+00
 -1      3954 2.65518E-03
 -1      3955 3.09605E-03
 -1      3956 3.09605E-03
 -1      3957 1.00024E+00
 -1      3958 8.58379E-01
 -1      3959 9.96751E-01
 -1      3960 2.34116E+00
 -1      3961 3.10166E+00
 -1      3962 4.04645E+00
 -1      3963 4.43809E+00
 -1      3964 1.13599E+00
 -1      3965 7.53477E-01
 -1      3966 8.47395E-01
 -1      3967 2.98225E+00
 -1      3968 2.77109E+00
 -1      3969 4.78294E+00
 -1      3970 2.22304E+00
 -1      3971 1.94761E+00
 -1      3972 2.94674E+00
 -1      3973 1.43986E+00
 -1      3974 1.26785E+00
 -1      3975 1.89095E+00
 -1      3976 1.07717E+00
 -1      3977 9.44889E-01
 -1      3978 1.19252E+00
 -1      3979 8.13445E-01
 -1      3980 7.11895E-01
 -1      3981 8.70394E-01
 -1      3982 6.20206E-01
 -1      3983 5.42142E-01
 -1      3984 6.47260E-01
 -1      3985 4.75204E-01
 -1      3986 4.14169E-01
 -1      3987 4.88632E-01
 -1      3988 3.63075E-01
 -1      3989 3.14944E-01
 -1      3990 3.70600E-01
 -1      3991 2.75852E-01
 -1      3992 2.37973E-01
 -1      3993 2.80414E-01
 -1      3994 2.08482E-01
 -1      3995 1.78747E-01
 -1      3996 2.11830E-01
 -1      3997 1.55521E-01
 -1      3998 1.32370E-01
 -1      3999 1.59112E-01
 -1      4000 1.14268E-01
 -1      4001 9.63417E-02
 -1      4002 1.17784E-01
 -1      4003 8.23238E-02
 -1      4004 6.86031E-02
 -1      4005 8.56639E-02
 -1      4006 5.79963E-02
 -1      4007 4.76823E-02
 -1      4008 6.10392E-02
 -1      4009 3.97305E-02
 -1      4010 3.25602E-02
 -1      4011 4.24805E-02
 -1      4012 2.69807E-02
 -1      4013 2.17479E-02
 -1      4014 2.89492E-02
 -1      4015 1.78283E-02
 -1      4016 1.40470E-02
 -1      4017 1.94501E-02
 -1      4018 1.13728E-02
 -1      4019 8.70804E-03
 -1      4020 1.28562E-02
 -1      4021 6.75304E-03
 -1      4022 4.98463E-03
 -1      4023 8.22702E-03
 -1      4024 3.50349E-03
 -1      4025 2.65699E-03
 -1      4026 4.79088E-03
 -1      4027 1.73125E-03
 -1      4028 2.06861E-03
 -1      4029 2.38401E-03
 -1      4030 9.76495E-01
 -1      4031 1.08832E+00
 -1      4032 9.33833E-01
 -1      4033 3.88942E+00
 -1      4034 5.03925E+00
 -1      4035 4.21402E+00
 -1      4036 2.15448E-03
 -1      4037 1.31811E+00
 -1      4038 1.56977E+00
 -1      4039 1.29272E+00
 -1      4040 5.80408E-01
 -1      4041 6.56325E-01
 -1      4042 7.07581E-01
 -1      4043 4.47015E-01
 -1      4044 5.08338E-01
 -1      4045 5.38359E-01
 -1      4046 3.41656E-01
 -1      4047 3.91130E-01
 -1      4048 4.10404E-01
 -1      4049 2.59351E-01
 -1      4050 2.98788E-01
 -1      4051 3.11651E-01
 -1      4052 1.94904E-01
 -1      4053 2.26280E-01
 -1      4054 2.35711E-01
 -1      4055 1.44730E-01
 -1      4056 1.69337E-01
 -1      4057 1.77073E-01
 -1      4058 1.05606E-01
 -1      4059 1.24704E-01
 -1      4060 1.31479E-01
 -1      4061 7.53785E-02
 -1      4062 9.00434E-02
 -1      4063 9.58910E-02
 -1      4064 5.24895E-02
 -1      4065 6.35449E-02
 -1      4066 6.84949E-02
 -1      4067 3.59389E-02
 -1      4068 4.36062E-02
 -1      4069 4.77780E-02
 -1      4070 2.39957E-02
 -1      4071 2.96531E-02
 -1      4072 3.26090E-02
 -1      4073 1.54620E-02
 -1      4074 1.95485E-02
 -1      4075 2.18760E-02
 -1      4076 9.35958E-03
 -1      4077 1.22364E-02
 -1      4078 1.42032E-02
 -1      4079 5.21873E-03
 -1      4080 7.12930E-03
 -1      4081 8.74733E-03
 -1      4082 2.99311E-03
 -1      4083 3.77745E-03
 -1      4084 5.07577E-03
 -1      4085 2.40918E-03
 -1      4086 2.03703E-03
 -1      4087 2.67840E-03
 -1      4088 2.40918E-03
 -1      4089 4.06098E+00
 -1      4090 2.83651E+00
 -1      4091 2.50344E+00
 -1      4092 3.81298E+00
 -1      4093 3.59536E+00
 -1      4094 3.63318E+00
 -1      4095 2.99912E+00
 -1      4096 3.42458E+00
 -1      4097 2.20732E+00
 -1      4098 9.97556E-01
 -1      4099 1.13334E+00
 -1      4100 9.24226E-01
 -1      4101 1.10870E+00
 -1      4102 1.10870E+00
 -1      4103 1.10521E+00
 -1      4104 1.24095E+00
 -1      4105 4.96459E+00
 -1      4106 4.53849E+00
 -1      4107 4.29395E+00
 -1      4108 2.00776E-03
 -1      4109 2.21431E-03
 -1      4110 2.65518E-03
 -1      4111 2.00776E-03
 -1      4112 3.66342E+00
 -1      4113 2.88568E+00
 -1      4114 3.74149E+00
 -1      4115 4.29179E+00
 -1      4116 1.54414E-03
 -1      4117 3.63966E+00
 -1      4118 4.13615E+00
 -1      4119 3.92749E+00
 -1      4120 3.57209E+00
 -1      4121 1.45362E+00
 -1      4122 1.64264E+00
 -1      4123 2.31923E+00
 -1      4124 3.92749E+00
 -1      4125 3.42458E+00
 -1      4126 1.43196E+00
 -1      4127 1.31959E+00
 -1      4128 1.29230E+00
 -1      4129 2.14630E+00
 -1      4130 1.20705E+00
 -1      4131 3.96253E+00
 -1      4132 1.96153E+00
 -1      4133 2.49421E+00
 -1      4134 2.81094E+00
 -1      4135 1.91427E+00
 -1      4136 3.66342E+00
 -1      4137 8.09994E-01
 -1      4138 8.26742E-01
 -1      4139 1.03008E+00
 -1      4140 9.64673E-01
 -1      4141 1.69131E-03
 -1      4142 1.89785E-03
 -1      4143 1.41764E+00
 -1      4144 1.41764E+00
 -1      4145 2.22427E-03
 -1      4146 2.30987E-03
 -1      4147 2.19996E-03
 -1      4148 2.13840E-03
 -1      4149 1.02183E+00
 -1      4150 9.89752E-01
 -1      4151 1.44272E+00
 -1      4152 3.64213E+00
 -1      4153 3.39543E+00
 -1      4154 2.59518E+00
 -1      4155 2.88301E+00
 -1      4156 2.12903E+00
 -1      4157 5.35375E-01
 -1      4158 6.07445E-01
 -1      4159 2.84738E+00
 -1      4160 2.25758E+00
 -1      4161 1.74984E+00
 -1      4162 1.17909E+00
 -1      4163 9.88409E-01
 -1      4164 1.54572E+00
 -1      4165 8.83112E-01
 -1      4166 7.51668E-01
 -1      4167 8.69682E-01
 -1      4168 6.71705E-01
 -1      4169 5.80016E-01
 -1      4170 6.84423E-01
 -1      4171 5.03748E-01
 -1      4172 4.36809E-01
 -1      4173 5.28193E-01
 -1      4174 3.75300E-01
 -1      4175 3.24206E-01
 -1      4176 3.90415E-01
 -1      4177 3.07328E-01
 -1      4178 2.68235E-01
 -1      4179 3.12027E-01
 -1      4180 2.21188E-01
 -1      4181 1.91697E-01
 -1      4182 2.48102E-01
 -1      4183 1.68079E-01
 -1      4184 1.44853E-01
 -1      4185 1.77437E-01
 -1      4186 1.25473E-01
 -1      4187 1.07371E-01
 -1      4188 1.34440E-01
 -1      4189 9.20147E-02
 -1      4190 7.79967E-02
 -1      4191 9.97036E-02
 -1      4192 6.63036E-02
 -1      4193 5.56968E-02
 -1      4194 7.26544E-02
 -1      4195 4.69078E-02
 -1      4196 3.89560E-02
 -1      4197 5.21722E-02
 -1      4198 3.22749E-02
 -1      4199 2.66954E-02
 -1      4200 3.67022E-02
 -1      4201 2.20519E-02
 -1      4202 1.81323E-02
 -1      4203 2.53776E-02
 -1      4204 1.47195E-02
 -1      4205 1.20453E-02
 -1      4206 1.73213E-02
 -1      4207 9.50883E-03
 -1      4208 7.55382E-03
 -1      4209 1.13721E-02
 -1      4210 5.69104E-03
 -1      4211 4.20990E-03
 -1      4212 6.97284E-03
 -1      4213 3.06413E-03
 -1      4214 8.12623E-01
 -1      4215 9.41722E-01
 -1      4216 3.92749E+00
 -1      4217 1.09628E+00
 -1      4218 1.32607E+00
 -1      4219 9.75071E-01
 -1      4220 4.03222E-01
 -1      4221 4.59107E-01
 -1      4222 5.28193E-01
 -1      4223 2.73948E-01
 -1      4224 3.16816E-01
 -1      4225 3.65519E-01
 -1      4226 2.03777E-01
 -1      4227 2.36848E-01
 -1      4228 2.42014E-01
 -1      4229 1.71993E-01
 -1      4230 1.97560E-01
 -1      4231 1.98697E-01
 -1      4232 1.32053E-01
 -1      4233 1.52079E-01
 -1      4234 1.72567E-01
 -1      4235 9.76940E-02
 -1      4236 1.13257E-01
 -1      4237 1.33856E-01
 -1      4238 7.05044E-02
 -1      4239 8.23380E-02
 -1      4240 9.97036E-02
 -1      4241 4.96483E-02
 -1      4242 5.85315E-02
 -1      4243 7.23747E-02
 -1      4244 3.44728E-02
 -1      4245 4.07586E-02
 -1      4246 5.15121E-02
 -1      4247 2.35435E-02
 -1      4248 2.79907E-02
 -1      4249 3.61403E-02
 -1      4250 1.54593E-02
 -1      4251 1.86849E-02
 -1      4252 2.47995E-02
 -1      4253 9.63765E-03
 -1      4254 1.18679E-02
 -1      4255 1.63496E-02
 -1      4256 5.50457E-03
 -1      4257 6.94585E-03
 -1      4258 1.00665E-02
 -1      4259 3.01599E+00
 -1      4260 2.71864E+00
 -1      4261 2.95554E+00
 -1      4262 3.21179E+00
 -1      4263 1.93253E-03
 -1      4264 2.37340E-03
 -1      4265 1.68653E-03
 -1      4266 1.61607E-03
 -1      4267 6.87407E-01
 -1      4268 7.84560E-01
 -1      4269 7.92449E-01
 -1      4270 3.89647E+00
 -1      4271 3.59071E+00
 -1      4272 3.24465E+00
 -1      4273 3.51078E+00
 -1      4274 2.42814E+00
 -1      4275 2.12903E+00
 -1      4276 1.72962E+00
 -1      4277 1.37413E+00
 -1      4278 3.13134E+00
 -1      4279 2.62843E+00
 -1      4280 1.85306E+00
 -1      4281 2.08686E+00
 -1      4282 2.70627E+00
 -1      4283 1.47520E+00
 -1      4284 1.67164E+00
 -1      4285 2.06340E+00
 -1      4286 3.96429E-03
 -1      4287 1.83854E+00
 -1      4288 2.14706E-03
 -1      4289 3.10315E-03
 -1      4290 4.97323E-03
 -1      4291 2.11128E-03
 -1      4292 6.84423E-01
 -1      4293 2.19996E-03
 -1      4294 2.23464E-03
 -1      4295 2.69517E-03
 -1      4296 2.45064E+00
 -1      4297 1.83854E+00
 -1      4298 1.44272E+00
 -1      4299 2.89424E+00
 -1      4300 1.08624E+00
 -1      4301 1.50714E+00
 -1      4302 1.27665E+00
 -1      4303 2.81852E-03
 -1      4304 1.83854E+00
 -1      4305 1.33381E+00
 -1      4306 2.87132E-01
 -1      4307 3.73537E-01
 -1      4308 9.22456E-01
 -1      4309 8.17160E-01
 -1      4310 7.64386E-01
 -1      4311 6.84423E-01
 -1      4312 6.04461E-01
 -1      4313 5.28193E-01
 -1      4314 3.12027E-01
 -1      4315 2.95150E-01
 -1      4316 2.95150E-01
 -1      4317 2.48102E-01
 -1      4318 1.96768E-01
 -1      4319 1.73150E-01
 -1      4320 1.53236E-01
 -1      4321 1.33856E-01
 -1      4322 1.15060E-01
 -1      4323 9.97036E-02
 -1      4324 8.43475E-02
 -1      4325 7.26544E-02
 -1      4326 6.06815E-02
 -1      4327 5.18925E-02
 -1      4328 4.30028E-02
 -1      4329 3.63218E-02
 -1      4330 2.98396E-02
 -1      4331 2.51961E-02
 -1      4332 2.03375E-02
 -1      4333 1.69247E-02
 -1      4334 1.33334E-02
 -1      4335 1.07969E-02
 -1      4336 8.10514E-03
 -1      4337 6.24235E-03
 -1      4338 2.94565E+00
 -1      4339 2.20800E+00
 -1      4340 8.45223E-01
 -1      4341 9.99782E-01
 -1      4342 2.50032E-01
 -1      4343 2.87132E-01
 -1      4344 2.35586E+00
 -1      4345 2.08686E+00
 -1      4346 4.51925E-01
 -1      4347 1.96862E+00
 -1      4348 2.95150E-01
 -1      4349 3.90415E-01
 -1      4350 5.09659E-03
 -1      4351 3.96429E-03
 -1      4352 1.75546E+00
 -1      4353 2.02984E-01
 -1      4354 1.27334E+00
 -1      4355 1.19470E+00
 -1      4356 1.54837E+00
 -1      4357 9.77627E-01
 -1      4358 7.92449E-01
 -1      4359 9.25105E-01
 -1      4360 1.05495E+00
 -1      4361 1.40052E+00
 -3
 9999
