    1C
    1UUSER                                                              
    1UDATE              27.october.2022                                 
    1UTIME              00:48:58                                        
    1UHOST                                                              
    1UPGM               CalculiX                                        
    1UVERSION           Version 2.17                             
    1UCOMPILETIME       Thu Jul 23 21:43:50 CEST 2020                    
    1UDIR                                                               
    1UDBN                                                               
    1UMAT    1SOLIDMATERIAL                                             
    2C                          4372                                     1
 -1         1 5.71825E+01 4.26842E+01 0.00000E+00
 -1         2 6.07939E+01 3.65591E+01 0.00000E+00
 -1         3 1.50000E+02 0.00000E+00 0.00000E+00
 -1         4 1.50000E+02 5.00000E+01 0.00000E+00
 -1         5 0.00000E+00 0.00000E+00 0.00000E+00
 -1         6 0.00000E+00 5.00000E+01 0.00000E+00
 -1         7 0.00000E+00 4.70500E+01 0.00000E+00
 -1         8 0.00000E+00 4.41000E+01 0.00000E+00
 -1         9 0.00000E+00 4.11500E+01 0.00000E+00
 -1        10 0.00000E+00 3.82000E+01 0.00000E+00
 -1        11 0.00000E+00 3.52500E+01 0.00000E+00
 -1        12 0.00000E+00 3.23500E+01 0.00000E+00
 -1        13 0.00000E+00 2.94000E+01 0.00000E+00
 -1        14 0.00000E+00 2.64500E+01 0.00000E+00
 -1        15 0.00000E+00 2.35000E+01 0.00000E+00
 -1        16 0.00000E+00 2.05500E+01 0.00000E+00
 -1        17 0.00000E+00 1.76000E+01 0.00000E+00
 -1        18 0.00000E+00 1.47000E+01 0.00000E+00
 -1        19 0.00000E+00 1.17500E+01 0.00000E+00
 -1        20 0.00000E+00 8.80000E+00 0.00000E+00
 -1        21 0.00000E+00 5.85000E+00 0.00000E+00
 -1        22 0.00000E+00 2.90000E+00 0.00000E+00
 -1        23 3.00000E+00 5.00000E+01 0.00000E+00
 -1        24 6.00000E+00 5.00000E+01 0.00000E+00
 -1        25 9.00000E+00 5.00000E+01 0.00000E+00
 -1        26 1.20000E+01 5.00000E+01 0.00000E+00
 -1        27 1.50000E+01 5.00000E+01 0.00000E+00
 -1        28 1.78500E+01 5.00000E+01 0.00000E+00
 -1        29 2.08500E+01 5.00000E+01 0.00000E+00
 -1        30 2.38500E+01 5.00000E+01 0.00000E+00
 -1        31 2.68500E+01 5.00000E+01 0.00000E+00
 -1        32 2.98500E+01 5.00000E+01 0.00000E+00
 -1        33 3.28500E+01 5.00000E+01 0.00000E+00
 -1        34 3.57000E+01 5.00000E+01 0.00000E+00
 -1        35 3.87000E+01 5.00000E+01 0.00000E+00
 -1        36 4.17000E+01 5.00000E+01 0.00000E+00
 -1        37 4.47000E+01 5.00000E+01 0.00000E+00
 -1        38 4.74000E+01 5.00000E+01 0.00000E+00
 -1        39 4.98000E+01 5.00000E+01 0.00000E+00
 -1        40 5.26500E+01 5.00000E+01 0.00000E+00
 -1        41 5.52000E+01 5.00000E+01 0.00000E+00
 -1        42 5.80500E+01 5.00000E+01 0.00000E+00
 -1        43 6.09000E+01 5.00000E+01 0.00000E+00
 -1        44 6.39000E+01 5.00000E+01 0.00000E+00
 -1        45 6.67500E+01 5.00000E+01 0.00000E+00
 -1        46 6.97500E+01 5.00000E+01 0.00000E+00
 -1        47 7.27500E+01 5.00000E+01 0.00000E+00
 -1        48 7.57500E+01 5.00000E+01 0.00000E+00
 -1        49 7.87500E+01 5.00000E+01 0.00000E+00
 -1        50 8.17500E+01 5.00000E+01 0.00000E+00
 -1        51 8.46000E+01 5.00000E+01 0.00000E+00
 -1        52 8.76000E+01 5.00000E+01 0.00000E+00
 -1        53 9.06000E+01 5.00000E+01 0.00000E+00
 -1        54 9.36000E+01 5.00000E+01 0.00000E+00
 -1        55 9.66000E+01 5.00000E+01 0.00000E+00
 -1        56 9.94500E+01 5.00000E+01 0.00000E+00
 -1        57 1.02450E+02 5.00000E+01 0.00000E+00
 -1        58 1.05450E+02 5.00000E+01 0.00000E+00
 -1        59 1.08450E+02 5.00000E+01 0.00000E+00
 -1        60 1.11450E+02 5.00000E+01 0.00000E+00
 -1        61 1.14450E+02 5.00000E+01 0.00000E+00
 -1        62 1.17300E+02 5.00000E+01 0.00000E+00
 -1        63 1.20300E+02 5.00000E+01 0.00000E+00
 -1        64 1.23300E+02 5.00000E+01 0.00000E+00
 -1        65 1.26300E+02 5.00000E+01 0.00000E+00
 -1        66 1.29300E+02 5.00000E+01 0.00000E+00
 -1        67 1.32300E+02 5.00000E+01 0.00000E+00
 -1        68 1.35150E+02 5.00000E+01 0.00000E+00
 -1        69 1.38150E+02 5.00000E+01 0.00000E+00
 -1        70 1.41150E+02 5.00000E+01 0.00000E+00
 -1        71 1.44150E+02 5.00000E+01 0.00000E+00
 -1        72 1.47150E+02 5.00000E+01 0.00000E+00
 -1        73 3.15000E+00 0.00000E+00 0.00000E+00
 -1        74 6.15000E+00 0.00000E+00 0.00000E+00
 -1        75 9.15000E+00 0.00000E+00 0.00000E+00
 -1        76 1.21500E+01 0.00000E+00 0.00000E+00
 -1        77 1.51500E+01 0.00000E+00 0.00000E+00
 -1        78 1.81500E+01 0.00000E+00 0.00000E+00
 -1        79 2.11500E+01 0.00000E+00 0.00000E+00
 -1        80 2.41500E+01 0.00000E+00 0.00000E+00
 -1        81 2.71500E+01 0.00000E+00 0.00000E+00
 -1        82 3.01500E+01 0.00000E+00 0.00000E+00
 -1        83 3.31500E+01 0.00000E+00 0.00000E+00
 -1        84 3.61500E+01 0.00000E+00 0.00000E+00
 -1        85 3.91500E+01 0.00000E+00 0.00000E+00
 -1        86 4.21500E+01 0.00000E+00 0.00000E+00
 -1        87 4.51500E+01 0.00000E+00 0.00000E+00
 -1        88 4.81500E+01 0.00000E+00 0.00000E+00
 -1        89 5.11500E+01 0.00000E+00 0.00000E+00
 -1        90 5.41500E+01 0.00000E+00 0.00000E+00
 -1        91 5.71500E+01 0.00000E+00 0.00000E+00
 -1        92 6.01500E+01 0.00000E+00 0.00000E+00
 -1        93 6.31500E+01 0.00000E+00 0.00000E+00
 -1        94 6.61500E+01 0.00000E+00 0.00000E+00
 -1        95 6.91500E+01 0.00000E+00 0.00000E+00
 -1        96 7.21500E+01 0.00000E+00 0.00000E+00
 -1        97 7.51500E+01 0.00000E+00 0.00000E+00
 -1        98 7.81500E+01 0.00000E+00 0.00000E+00
 -1        99 8.11500E+01 0.00000E+00 0.00000E+00
 -1       100 8.41500E+01 0.00000E+00 0.00000E+00
 -1       101 8.71500E+01 0.00000E+00 0.00000E+00
 -1       102 9.01500E+01 0.00000E+00 0.00000E+00
 -1       103 9.31500E+01 0.00000E+00 0.00000E+00
 -1       104 9.61500E+01 0.00000E+00 0.00000E+00
 -1       105 9.91500E+01 0.00000E+00 0.00000E+00
 -1       106 1.02150E+02 0.00000E+00 0.00000E+00
 -1       107 1.05150E+02 0.00000E+00 0.00000E+00
 -1       108 1.08150E+02 0.00000E+00 0.00000E+00
 -1       109 1.11150E+02 0.00000E+00 0.00000E+00
 -1       110 1.14150E+02 0.00000E+00 0.00000E+00
 -1       111 1.17150E+02 0.00000E+00 0.00000E+00
 -1       112 1.20150E+02 0.00000E+00 0.00000E+00
 -1       113 1.23150E+02 0.00000E+00 0.00000E+00
 -1       114 1.26150E+02 0.00000E+00 0.00000E+00
 -1       115 1.29150E+02 0.00000E+00 0.00000E+00
 -1       116 1.32150E+02 0.00000E+00 0.00000E+00
 -1       117 1.35150E+02 0.00000E+00 0.00000E+00
 -1       118 1.38150E+02 0.00000E+00 0.00000E+00
 -1       119 1.41150E+02 0.00000E+00 0.00000E+00
 -1       120 1.44150E+02 0.00000E+00 0.00000E+00
 -1       121 1.47150E+02 0.00000E+00 0.00000E+00
 -1       122 1.50000E+02 2.95000E+00 0.00000E+00
 -1       123 1.50000E+02 5.90000E+00 0.00000E+00
 -1       124 1.50000E+02 8.85000E+00 0.00000E+00
 -1       125 1.50000E+02 1.18000E+01 0.00000E+00
 -1       126 1.50000E+02 1.47500E+01 0.00000E+00
 -1       127 1.50000E+02 1.76500E+01 0.00000E+00
 -1       128 1.50000E+02 2.06000E+01 0.00000E+00
 -1       129 1.50000E+02 2.35500E+01 0.00000E+00
 -1       130 1.50000E+02 2.65000E+01 0.00000E+00
 -1       131 1.50000E+02 2.94500E+01 0.00000E+00
 -1       132 1.50000E+02 3.24000E+01 0.00000E+00
 -1       133 1.50000E+02 3.53000E+01 0.00000E+00
 -1       134 1.50000E+02 3.82500E+01 0.00000E+00
 -1       135 1.50000E+02 4.12000E+01 0.00000E+00
 -1       136 1.50000E+02 4.41500E+01 0.00000E+00
 -1       137 1.50000E+02 4.71000E+01 0.00000E+00
 -1       138 6.06416E+01 3.51066E+01 0.00000E+00
 -1       139 6.01376E+01 3.35996E+01 0.00000E+00
 -1       140 5.94251E+01 3.24009E+01 0.00000E+00
 -1       141 5.83433E+01 3.12390E+01 0.00000E+00
 -1       142 5.70864E+01 3.03817E+01 0.00000E+00
 -1       143 5.57245E+01 2.98306E+01 0.00000E+00
 -1       144 5.41577E+01 2.95685E+01 0.00000E+00
 -1       145 5.27245E+01 2.96412E+01 0.00000E+00
 -1       146 5.11823E+01 3.00645E+01 0.00000E+00
 -1       147 4.97958E+01 3.08132E+01 0.00000E+00
 -1       148 4.87374E+01 3.17185E+01 0.00000E+00
 -1       149 4.77327E+01 3.30574E+01 0.00000E+00
 -1       150 4.71298E+01 3.44169E+01 0.00000E+00
 -1       151 4.68153E+01 3.60126E+01 0.00000E+00
 -1       152 4.68494E+01 3.74381E+01 0.00000E+00
 -1       153 4.72094E+01 3.89348E+01 0.00000E+00
 -1       154 4.78659E+01 4.02817E+01 0.00000E+00
 -1       155 4.88055E+01 4.14699E+01 0.00000E+00
 -1       156 4.99459E+01 4.24065E+01 0.00000E+00
 -1       157 5.12875E+01 4.30950E+01 0.00000E+00
 -1       158 5.27138E+01 4.34752E+01 0.00000E+00
 -1       159 5.43643E+01 4.35358E+01 0.00000E+00
 -1       160 5.58357E+01 4.32547E+01 0.00000E+00
 -1       161 5.83661E+01 4.18596E+01 0.00000E+00
 -1       162 5.94039E+01 4.07458E+01 0.00000E+00
 -1       163 6.01630E+01 3.94635E+01 0.00000E+00
 -1       164 6.06451E+01 3.79950E+01 0.00000E+00
 -1       165 2.59800E+00 4.55750E+01 0.00000E+00
 -1       166 2.59800E+00 4.26250E+01 0.00000E+00
 -1       167 2.59800E+00 3.96750E+01 0.00000E+00
 -1       168 2.59800E+00 3.67250E+01 0.00000E+00
 -1       169 2.59800E+00 3.38250E+01 0.00000E+00
 -1       170 2.59800E+00 3.08750E+01 0.00000E+00
 -1       171 2.59800E+00 2.79250E+01 0.00000E+00
 -1       172 2.59800E+00 2.49750E+01 0.00000E+00
 -1       173 2.59800E+00 2.20250E+01 0.00000E+00
 -1       174 2.59800E+00 1.90750E+01 0.00000E+00
 -1       175 2.59800E+00 1.61750E+01 0.00000E+00
 -1       176 2.59800E+00 1.32250E+01 0.00000E+00
 -1       177 2.59800E+00 1.02750E+01 0.00000E+00
 -1       178 2.59800E+00 7.32500E+00 0.00000E+00
 -1       179 2.59800E+00 4.37500E+00 0.00000E+00
 -1       180 2.87400E+00 2.18750E+00 0.00000E+00
 -1       181 4.50000E+00 4.74020E+01 0.00000E+00
 -1       182 7.50000E+00 4.74020E+01 0.00000E+00
 -1       183 1.05000E+01 4.74020E+01 0.00000E+00
 -1       184 1.35000E+01 4.74020E+01 0.00000E+00
 -1       185 1.63500E+01 4.74020E+01 0.00000E+00
 -1       186 1.93500E+01 4.74020E+01 0.00000E+00
 -1       187 2.23500E+01 4.74020E+01 0.00000E+00
 -1       188 2.53500E+01 4.74020E+01 0.00000E+00
 -1       189 2.83500E+01 4.74020E+01 0.00000E+00
 -1       190 3.13500E+01 4.74020E+01 0.00000E+00
 -1       191 3.42000E+01 4.74020E+01 0.00000E+00
 -1       192 3.72000E+01 4.74020E+01 0.00000E+00
 -1       193 4.02000E+01 4.74020E+01 0.00000E+00
 -1       194 4.32000E+01 4.74020E+01 0.00000E+00
 -1       195 4.59000E+01 4.74020E+01 0.00000E+00
 -1       196 4.83000E+01 4.74020E+01 0.00000E+00
 -1       197 5.11500E+01 4.74020E+01 0.00000E+00
 -1       198 5.37000E+01 4.74020E+01 0.00000E+00
 -1       199 5.65500E+01 4.74020E+01 0.00000E+00
 -1       200 5.94000E+01 4.74020E+01 0.00000E+00
 -1       201 6.24000E+01 4.74020E+01 0.00000E+00
 -1       202 6.52500E+01 4.74020E+01 0.00000E+00
 -1       203 6.82500E+01 4.74020E+01 0.00000E+00
 -1       204 7.12500E+01 4.74020E+01 0.00000E+00
 -1       205 7.42500E+01 4.74020E+01 0.00000E+00
 -1       206 7.72500E+01 4.74020E+01 0.00000E+00
 -1       207 8.02500E+01 4.74020E+01 0.00000E+00
 -1       208 8.31000E+01 4.74020E+01 0.00000E+00
 -1       209 8.61000E+01 4.74020E+01 0.00000E+00
 -1       210 8.91000E+01 4.74020E+01 0.00000E+00
 -1       211 9.21000E+01 4.74020E+01 0.00000E+00
 -1       212 9.51000E+01 4.74020E+01 0.00000E+00
 -1       213 9.79500E+01 4.74020E+01 0.00000E+00
 -1       214 1.00950E+02 4.74020E+01 0.00000E+00
 -1       215 1.03950E+02 4.74020E+01 0.00000E+00
 -1       216 1.06950E+02 4.74020E+01 0.00000E+00
 -1       217 1.09950E+02 4.74020E+01 0.00000E+00
 -1       218 1.12950E+02 4.74020E+01 0.00000E+00
 -1       219 1.15800E+02 4.74020E+01 0.00000E+00
 -1       220 1.18800E+02 4.74020E+01 0.00000E+00
 -1       221 1.21800E+02 4.74020E+01 0.00000E+00
 -1       222 1.24800E+02 4.74020E+01 0.00000E+00
 -1       223 1.27800E+02 4.74020E+01 0.00000E+00
 -1       224 1.30800E+02 4.74020E+01 0.00000E+00
 -1       225 1.33650E+02 4.74020E+01 0.00000E+00
 -1       226 1.36650E+02 4.74020E+01 0.00000E+00
 -1       227 1.39650E+02 4.74020E+01 0.00000E+00
 -1       228 1.42650E+02 4.74020E+01 0.00000E+00
 -1       229 1.45650E+02 4.74020E+01 0.00000E+00
 -1       230 5.87400E+00 2.18750E+00 0.00000E+00
 -1       231 8.87400E+00 2.18750E+00 0.00000E+00
 -1       232 1.18740E+01 2.18750E+00 0.00000E+00
 -1       233 1.48740E+01 2.18750E+00 0.00000E+00
 -1       234 1.78740E+01 2.18750E+00 0.00000E+00
 -1       235 2.08740E+01 2.18750E+00 0.00000E+00
 -1       236 2.38740E+01 2.18750E+00 0.00000E+00
 -1       237 2.68740E+01 2.18750E+00 0.00000E+00
 -1       238 2.98740E+01 2.18750E+00 0.00000E+00
 -1       239 3.28740E+01 2.18750E+00 0.00000E+00
 -1       240 3.58740E+01 2.18750E+00 0.00000E+00
 -1       241 3.88740E+01 2.18750E+00 0.00000E+00
 -1       242 4.18740E+01 2.18750E+00 0.00000E+00
 -1       243 4.48740E+01 2.18750E+00 0.00000E+00
 -1       244 4.78740E+01 2.18750E+00 0.00000E+00
 -1       245 5.08740E+01 2.18750E+00 0.00000E+00
 -1       246 5.38740E+01 2.18750E+00 0.00000E+00
 -1       247 5.68740E+01 2.18750E+00 0.00000E+00
 -1       248 5.98740E+01 2.18750E+00 0.00000E+00
 -1       249 6.28740E+01 2.18750E+00 0.00000E+00
 -1       250 6.58740E+01 2.18750E+00 0.00000E+00
 -1       251 6.88740E+01 2.18750E+00 0.00000E+00
 -1       252 7.18740E+01 2.18750E+00 0.00000E+00
 -1       253 7.48740E+01 2.18750E+00 0.00000E+00
 -1       254 7.78740E+01 2.18750E+00 0.00000E+00
 -1       255 8.08740E+01 2.18750E+00 0.00000E+00
 -1       256 8.38740E+01 2.18750E+00 0.00000E+00
 -1       257 8.68740E+01 2.18750E+00 0.00000E+00
 -1       258 8.98740E+01 2.18750E+00 0.00000E+00
 -1       259 9.28740E+01 2.18750E+00 0.00000E+00
 -1       260 9.58740E+01 2.18750E+00 0.00000E+00
 -1       261 9.88740E+01 2.18750E+00 0.00000E+00
 -1       262 1.01874E+02 2.18750E+00 0.00000E+00
 -1       263 1.04874E+02 2.18750E+00 0.00000E+00
 -1       264 1.07874E+02 2.18750E+00 0.00000E+00
 -1       265 1.10874E+02 2.18750E+00 0.00000E+00
 -1       266 1.13874E+02 2.18750E+00 0.00000E+00
 -1       267 1.16874E+02 2.18750E+00 0.00000E+00
 -1       268 1.19874E+02 2.18750E+00 0.00000E+00
 -1       269 1.22874E+02 2.18750E+00 0.00000E+00
 -1       270 1.25874E+02 2.18750E+00 0.00000E+00
 -1       271 1.28874E+02 2.18750E+00 0.00000E+00
 -1       272 1.31874E+02 2.18750E+00 0.00000E+00
 -1       273 1.34874E+02 2.18750E+00 0.00000E+00
 -1       274 1.37874E+02 2.18750E+00 0.00000E+00
 -1       275 1.40874E+02 2.18750E+00 0.00000E+00
 -1       276 1.43874E+02 2.18750E+00 0.00000E+00
 -1       277 1.46874E+02 2.18750E+00 0.00000E+00
 -1       278 1.47402E+02 4.42500E+00 0.00000E+00
 -1       279 1.47402E+02 7.37500E+00 0.00000E+00
 -1       280 1.47402E+02 1.03250E+01 0.00000E+00
 -1       281 1.47402E+02 1.32750E+01 0.00000E+00
 -1       282 1.47402E+02 1.61750E+01 0.00000E+00
 -1       283 1.47402E+02 1.91250E+01 0.00000E+00
 -1       284 1.47402E+02 2.20750E+01 0.00000E+00
 -1       285 1.47402E+02 2.50250E+01 0.00000E+00
 -1       286 1.47402E+02 2.79750E+01 0.00000E+00
 -1       287 1.47402E+02 3.09250E+01 0.00000E+00
 -1       288 1.47402E+02 3.38250E+01 0.00000E+00
 -1       289 1.47402E+02 3.67750E+01 0.00000E+00
 -1       290 1.47402E+02 3.97250E+01 0.00000E+00
 -1       291 1.47402E+02 4.26750E+01 0.00000E+00
 -1       292 6.19235E+01 3.57063E+01 0.00000E+00
 -1       293 6.16983E+01 3.39154E+01 0.00000E+00
 -1       294 6.08235E+01 3.23808E+01 0.00000E+00
 -1       295 5.99555E+01 3.08225E+01 0.00000E+00
 -1       296 5.83980E+01 2.98088E+01 0.00000E+00
 -1       297 5.68917E+01 2.89046E+01 0.00000E+00
 -1       298 5.51964E+01 2.81732E+01 0.00000E+00
 -1       299 5.33797E+01 2.83940E+01 0.00000E+00
 -1       300 5.15882E+01 2.85221E+01 0.00000E+00
 -1       301 4.97537E+01 2.90772E+01 0.00000E+00
 -1       302 4.84785E+01 3.03445E+01 0.00000E+00
 -1       303 4.69972E+01 3.14591E+01 0.00000E+00
 -1       304 4.62464E+01 3.32116E+01 0.00000E+00
 -1       305 4.55364E+01 3.49317E+01 0.00000E+00
 -1       306 4.56203E+01 3.67543E+01 0.00000E+00
 -1       307 4.56877E+01 3.85093E+01 0.00000E+00
 -1       308 4.64478E+01 4.01394E+01 0.00000E+00
 -1       309 4.73848E+01 4.16279E+01 0.00000E+00
 -1       310 4.86062E+01 4.28750E+01 0.00000E+00
 -1       311 5.00632E+01 4.38294E+01 0.00000E+00
 -1       312 5.16668E+01 4.45375E+01 0.00000E+00
 -1       313 5.34916E+01 4.48008E+01 0.00000E+00
 -1       314 5.53275E+01 4.45861E+01 0.00000E+00
 -1       315 5.69819E+01 4.40859E+01 0.00000E+00
 -1       316 5.84674E+01 4.32667E+01 0.00000E+00
 -1       317 5.98946E+01 4.22434E+01 0.00000E+00
 -1       318 6.08988E+01 4.07649E+01 0.00000E+00
 -1       319 6.16355E+01 3.91335E+01 0.00000E+00
 -1       320 6.19254E+01 3.74020E+01 0.00000E+00
 -1       321 1.47402E+02 4.56250E+01 0.00000E+00
 -1       322 5.19600E+00 4.11500E+01 0.00000E+00
 -1       323 5.19600E+00 4.41000E+01 0.00000E+00
 -1       324 5.19600E+00 3.52750E+01 0.00000E+00
 -1       325 5.19600E+00 3.23250E+01 0.00000E+00
 -1       326 5.19600E+00 2.93750E+01 0.00000E+00
 -1       327 5.19600E+00 2.64250E+01 0.00000E+00
 -1       328 5.19600E+00 2.34750E+01 0.00000E+00
 -1       329 5.19600E+00 2.05250E+01 0.00000E+00
 -1       330 5.19600E+00 1.76250E+01 0.00000E+00
 -1       331 5.19600E+00 1.46750E+01 0.00000E+00
 -1       332 5.19600E+00 1.17250E+01 0.00000E+00
 -1       333 5.19600E+00 8.77500E+00 0.00000E+00
 -1       334 5.19600E+00 5.82500E+00 0.00000E+00
 -1       335 5.53500E+00 4.00625E+00 0.00000E+00
 -1       336 8.53500E+00 4.00625E+00 0.00000E+00
 -1       337 9.00000E+00 4.48040E+01 0.00000E+00
 -1       338 1.20000E+01 4.48040E+01 0.00000E+00
 -1       339 1.48500E+01 4.48040E+01 0.00000E+00
 -1       340 1.78500E+01 4.48040E+01 0.00000E+00
 -1       341 2.08500E+01 4.48040E+01 0.00000E+00
 -1       342 2.38500E+01 4.48040E+01 0.00000E+00
 -1       343 2.68500E+01 4.48040E+01 0.00000E+00
 -1       344 2.98500E+01 4.48040E+01 0.00000E+00
 -1       345 3.27000E+01 4.48040E+01 0.00000E+00
 -1       346 3.57000E+01 4.48040E+01 0.00000E+00
 -1       347 3.87000E+01 4.48040E+01 0.00000E+00
 -1       348 4.17000E+01 4.48040E+01 0.00000E+00
 -1       349 4.44000E+01 4.48040E+01 0.00000E+00
 -1       350 5.79750E+01 4.53517E+01 0.00000E+00
 -1       351 6.09000E+01 4.51842E+01 0.00000E+00
 -1       352 6.37500E+01 4.51842E+01 0.00000E+00
 -1       353 6.67500E+01 4.51842E+01 0.00000E+00
 -1       354 6.97500E+01 4.51842E+01 0.00000E+00
 -1       355 7.27500E+01 4.51842E+01 0.00000E+00
 -1       356 7.57500E+01 4.51842E+01 0.00000E+00
 -1       357 7.87500E+01 4.51842E+01 0.00000E+00
 -1       358 8.16000E+01 4.51842E+01 0.00000E+00
 -1       359 8.46000E+01 4.51842E+01 0.00000E+00
 -1       360 8.76000E+01 4.51842E+01 0.00000E+00
 -1       361 9.06000E+01 4.51842E+01 0.00000E+00
 -1       362 9.36000E+01 4.51842E+01 0.00000E+00
 -1       363 9.64500E+01 4.51842E+01 0.00000E+00
 -1       364 9.94500E+01 4.51842E+01 0.00000E+00
 -1       365 1.02450E+02 4.51842E+01 0.00000E+00
 -1       366 1.05450E+02 4.51842E+01 0.00000E+00
 -1       367 1.08450E+02 4.51842E+01 0.00000E+00
 -1       368 1.11450E+02 4.51842E+01 0.00000E+00
 -1       369 1.14300E+02 4.51842E+01 0.00000E+00
 -1       370 1.17300E+02 4.51842E+01 0.00000E+00
 -1       371 1.20300E+02 4.51842E+01 0.00000E+00
 -1       372 1.23300E+02 4.51842E+01 0.00000E+00
 -1       373 1.26300E+02 4.51842E+01 0.00000E+00
 -1       374 1.29300E+02 4.51842E+01 0.00000E+00
 -1       375 1.32150E+02 4.51842E+01 0.00000E+00
 -1       376 1.35150E+02 4.51842E+01 0.00000E+00
 -1       377 1.38150E+02 4.51842E+01 0.00000E+00
 -1       378 1.41150E+02 4.51842E+01 0.00000E+00
 -1       379 1.44150E+02 4.51842E+01 0.00000E+00
 -1       380 1.15350E+01 4.00625E+00 0.00000E+00
 -1       381 6.26053E+01 3.23817E+01 0.00000E+00
 -1       382 1.45350E+01 4.00625E+00 0.00000E+00
 -1       383 1.75350E+01 4.00625E+00 0.00000E+00
 -1       384 2.05350E+01 4.00625E+00 0.00000E+00
 -1       385 2.35350E+01 4.00625E+00 0.00000E+00
 -1       386 2.65350E+01 4.00625E+00 0.00000E+00
 -1       387 2.95350E+01 4.00625E+00 0.00000E+00
 -1       388 3.25350E+01 4.00625E+00 0.00000E+00
 -1       389 3.55350E+01 4.00625E+00 0.00000E+00
 -1       390 3.85350E+01 4.00625E+00 0.00000E+00
 -1       391 4.15350E+01 4.00625E+00 0.00000E+00
 -1       392 4.45350E+01 4.00625E+00 0.00000E+00
 -1       393 4.75350E+01 4.00625E+00 0.00000E+00
 -1       394 5.05350E+01 4.00625E+00 0.00000E+00
 -1       395 5.35350E+01 4.00625E+00 0.00000E+00
 -1       396 5.65350E+01 4.00625E+00 0.00000E+00
 -1       397 5.95350E+01 4.00625E+00 0.00000E+00
 -1       398 6.25350E+01 4.00625E+00 0.00000E+00
 -1       399 6.55350E+01 4.00625E+00 0.00000E+00
 -1       400 6.85350E+01 4.00625E+00 0.00000E+00
 -1       401 7.15350E+01 4.00625E+00 0.00000E+00
 -1       402 7.45350E+01 4.00625E+00 0.00000E+00
 -1       403 7.75350E+01 4.00625E+00 0.00000E+00
 -1       404 8.05350E+01 4.00625E+00 0.00000E+00
 -1       405 8.35350E+01 4.00625E+00 0.00000E+00
 -1       406 8.65350E+01 4.00625E+00 0.00000E+00
 -1       407 8.95350E+01 4.00625E+00 0.00000E+00
 -1       408 9.25350E+01 4.00625E+00 0.00000E+00
 -1       409 9.55350E+01 4.00625E+00 0.00000E+00
 -1       410 9.85350E+01 4.00625E+00 0.00000E+00
 -1       411 1.01535E+02 4.00625E+00 0.00000E+00
 -1       412 1.04535E+02 4.00625E+00 0.00000E+00
 -1       413 1.07535E+02 4.00625E+00 0.00000E+00
 -1       414 1.10535E+02 4.00625E+00 0.00000E+00
 -1       415 1.13535E+02 4.00625E+00 0.00000E+00
 -1       416 1.16535E+02 4.00625E+00 0.00000E+00
 -1       417 1.19535E+02 4.00625E+00 0.00000E+00
 -1       418 1.22535E+02 4.00625E+00 0.00000E+00
 -1       419 1.25535E+02 4.00625E+00 0.00000E+00
 -1       420 1.28535E+02 4.00625E+00 0.00000E+00
 -1       421 1.31535E+02 4.00625E+00 0.00000E+00
 -1       422 1.34535E+02 4.00625E+00 0.00000E+00
 -1       423 1.37535E+02 4.00625E+00 0.00000E+00
 -1       424 1.40535E+02 4.00625E+00 0.00000E+00
 -1       425 1.43535E+02 4.00625E+00 0.00000E+00
 -1       426 1.45469E+02 4.21562E+00 0.00000E+00
 -1       427 1.44804E+02 1.18000E+01 0.00000E+00
 -1       428 1.44804E+02 8.85000E+00 0.00000E+00
 -1       429 1.45136E+02 6.53281E+00 0.00000E+00
 -1       430 1.44804E+02 1.47000E+01 0.00000E+00
 -1       431 1.44804E+02 1.76500E+01 0.00000E+00
 -1       432 1.44804E+02 2.06000E+01 0.00000E+00
 -1       433 1.44804E+02 2.35500E+01 0.00000E+00
 -1       434 1.44804E+02 2.65000E+01 0.00000E+00
 -1       435 1.44804E+02 2.94500E+01 0.00000E+00
 -1       436 1.44804E+02 3.23500E+01 0.00000E+00
 -1       437 1.44804E+02 3.53000E+01 0.00000E+00
 -1       438 1.44804E+02 3.82500E+01 0.00000E+00
 -1       439 1.44804E+02 4.12000E+01 0.00000E+00
 -1       440 6.17374E+01 3.08235E+01 0.00000E+00
 -1       441 6.32207E+01 3.65527E+01 0.00000E+00
 -1       442 5.19600E+00 3.82125E+01 0.00000E+00
 -1       443 6.00667E+01 2.89484E+01 0.00000E+00
 -1       444 5.85604E+01 2.80443E+01 0.00000E+00
 -1       445 5.65575E+01 2.73488E+01 0.00000E+00
 -1       446 5.41114E+01 2.68306E+01 0.00000E+00
 -1       447 5.23199E+01 2.69586E+01 0.00000E+00
 -1       448 5.02227E+01 2.73184E+01 0.00000E+00
 -1       449 4.79662E+01 2.85538E+01 0.00000E+00
 -1       450 4.64849E+01 2.96684E+01 0.00000E+00
 -1       451 4.51993E+01 3.17259E+01 0.00000E+00
 -1       452 4.44894E+01 3.34460E+01 0.00000E+00
 -1       453 4.41998E+01 3.59064E+01 0.00000E+00
 -1       454 4.42673E+01 3.76614E+01 0.00000E+00
 -1       455 4.48930E+01 3.98721E+01 0.00000E+00
 -1       456 4.58193E+01 4.15742E+01 0.00000E+00
 -1       457 4.68898E+01 4.33342E+01 0.00000E+00
 -1       458 4.86245E+01 4.44365E+01 0.00000E+00
 -1       459 5.02398E+01 4.55991E+01 0.00000E+00
 -1       460 5.23582E+01 4.62009E+01 0.00000E+00
 -1       461 5.45698E+01 4.60641E+01 0.00000E+00
 -1       462 5.65541E+01 4.56569E+01 0.00000E+00
 -1       463 6.00339E+01 4.39447E+01 0.00000E+00
 -1       464 6.16769E+01 4.23737E+01 0.00000E+00
 -1       465 6.26012E+01 4.05517E+01 0.00000E+00
 -1       466 6.33894E+01 3.85372E+01 0.00000E+00
 -1       467 6.31801E+01 3.46386E+01 0.00000E+00
 -1       468 4.69256E+01 4.50779E+01 0.00000E+00
 -1       469 4.34726E+01 3.90242E+01 0.00000E+00
 -1       470 4.31528E+01 3.44207E+01 0.00000E+00
 -1       471 5.54725E+01 2.60061E+01 0.00000E+00
 -1       472 7.79400E+00 3.08500E+01 0.00000E+00
 -1       473 7.79400E+00 3.38000E+01 0.00000E+00
 -1       474 7.79400E+00 2.49500E+01 0.00000E+00
 -1       475 7.79400E+00 2.20000E+01 0.00000E+00
 -1       476 7.79400E+00 1.91000E+01 0.00000E+00
 -1       477 7.79400E+00 1.61500E+01 0.00000E+00
 -1       478 7.79400E+00 1.32000E+01 0.00000E+00
 -1       479 7.79400E+00 1.02500E+01 0.00000E+00
 -1       480 7.79400E+00 7.30000E+00 0.00000E+00
 -1       481 8.16450E+00 5.65312E+00 0.00000E+00
 -1       482 1.05000E+01 4.22060E+01 0.00000E+00
 -1       483 6.21826E+01 2.87450E+01 0.00000E+00
 -1       484 6.45145E+01 4.01388E+01 0.00000E+00
 -1       485 6.47172E+01 3.30456E+01 0.00000E+00
 -1       486 1.33500E+01 4.22060E+01 0.00000E+00
 -1       487 1.63500E+01 4.22060E+01 0.00000E+00
 -1       488 1.93500E+01 4.22060E+01 0.00000E+00
 -1       489 2.23500E+01 4.22060E+01 0.00000E+00
 -1       490 2.53500E+01 4.22060E+01 0.00000E+00
 -1       491 2.83500E+01 4.22060E+01 0.00000E+00
 -1       492 3.12000E+01 4.22060E+01 0.00000E+00
 -1       493 3.42000E+01 4.22060E+01 0.00000E+00
 -1       494 3.72000E+01 4.22060E+01 0.00000E+00
 -1       495 4.02000E+01 4.22060E+01 0.00000E+00
 -1       496 4.29000E+01 4.22060E+01 0.00000E+00
 -1       497 5.09954E+01 2.55307E+01 0.00000E+00
 -1       498 6.50140E+01 3.73996E+01 0.00000E+00
 -1       499 1.11645E+01 5.65312E+00 0.00000E+00
 -1       500 6.52500E+01 4.27988E+01 0.00000E+00
 -1       501 6.82500E+01 4.27988E+01 0.00000E+00
 -1       502 7.12500E+01 4.27988E+01 0.00000E+00
 -1       503 7.42500E+01 4.27988E+01 0.00000E+00
 -1       504 7.72500E+01 4.27988E+01 0.00000E+00
 -1       505 8.01000E+01 4.27988E+01 0.00000E+00
 -1       506 8.31000E+01 4.27988E+01 0.00000E+00
 -1       507 8.61000E+01 4.27988E+01 0.00000E+00
 -1       508 8.91000E+01 4.27988E+01 0.00000E+00
 -1       509 9.21000E+01 4.27988E+01 0.00000E+00
 -1       510 9.49500E+01 4.27988E+01 0.00000E+00
 -1       511 9.79500E+01 4.27988E+01 0.00000E+00
 -1       512 1.00950E+02 4.27988E+01 0.00000E+00
 -1       513 1.03950E+02 4.27988E+01 0.00000E+00
 -1       514 1.06950E+02 4.27988E+01 0.00000E+00
 -1       515 1.09950E+02 4.27988E+01 0.00000E+00
 -1       516 1.12800E+02 4.27988E+01 0.00000E+00
 -1       517 1.15800E+02 4.27988E+01 0.00000E+00
 -1       518 1.18800E+02 4.27988E+01 0.00000E+00
 -1       519 1.21800E+02 4.27988E+01 0.00000E+00
 -1       520 1.24800E+02 4.27988E+01 0.00000E+00
 -1       521 1.27800E+02 4.27988E+01 0.00000E+00
 -1       522 1.30650E+02 4.27988E+01 0.00000E+00
 -1       523 1.33650E+02 4.27988E+01 0.00000E+00
 -1       524 1.36650E+02 4.27988E+01 0.00000E+00
 -1       525 1.39650E+02 4.27988E+01 0.00000E+00
 -1       526 1.42227E+02 4.19994E+01 0.00000E+00
 -1       527 1.60350E+01 6.60425E+00 0.00000E+00
 -1       528 1.35997E+01 6.12869E+00 0.00000E+00
 -1       529 2.20350E+01 6.60425E+00 0.00000E+00
 -1       530 2.50350E+01 6.60425E+00 0.00000E+00
 -1       531 2.80350E+01 6.60425E+00 0.00000E+00
 -1       532 3.10350E+01 6.60425E+00 0.00000E+00
 -1       533 3.40350E+01 6.60425E+00 0.00000E+00
 -1       534 3.70350E+01 6.60425E+00 0.00000E+00
 -1       535 4.00350E+01 6.60425E+00 0.00000E+00
 -1       536 4.30350E+01 6.60425E+00 0.00000E+00
 -1       537 4.60350E+01 6.60425E+00 0.00000E+00
 -1       538 4.90350E+01 6.60425E+00 0.00000E+00
 -1       539 5.20350E+01 6.60425E+00 0.00000E+00
 -1       540 5.50350E+01 6.60425E+00 0.00000E+00
 -1       541 5.80350E+01 6.60425E+00 0.00000E+00
 -1       542 6.10350E+01 6.60425E+00 0.00000E+00
 -1       543 6.40350E+01 6.60425E+00 0.00000E+00
 -1       544 6.70350E+01 6.60425E+00 0.00000E+00
 -1       545 7.00350E+01 6.60425E+00 0.00000E+00
 -1       546 7.30350E+01 6.60425E+00 0.00000E+00
 -1       547 7.60350E+01 6.60425E+00 0.00000E+00
 -1       548 7.90350E+01 6.60425E+00 0.00000E+00
 -1       549 8.20350E+01 6.60425E+00 0.00000E+00
 -1       550 8.50350E+01 6.60425E+00 0.00000E+00
 -1       551 8.80350E+01 6.60425E+00 0.00000E+00
 -1       552 9.10350E+01 6.60425E+00 0.00000E+00
 -1       553 9.40350E+01 6.60425E+00 0.00000E+00
 -1       554 9.70350E+01 6.60425E+00 0.00000E+00
 -1       555 1.00035E+02 6.60425E+00 0.00000E+00
 -1       556 1.03035E+02 6.60425E+00 0.00000E+00
 -1       557 1.06035E+02 6.60425E+00 0.00000E+00
 -1       558 1.09035E+02 6.60425E+00 0.00000E+00
 -1       559 1.12035E+02 6.60425E+00 0.00000E+00
 -1       560 1.15035E+02 6.60425E+00 0.00000E+00
 -1       561 1.18035E+02 6.60425E+00 0.00000E+00
 -1       562 1.21035E+02 6.60425E+00 0.00000E+00
 -1       563 1.24035E+02 6.60425E+00 0.00000E+00
 -1       564 1.27035E+02 6.60425E+00 0.00000E+00
 -1       565 1.30035E+02 6.60425E+00 0.00000E+00
 -1       566 1.33035E+02 6.60425E+00 0.00000E+00
 -1       567 1.36035E+02 6.60425E+00 0.00000E+00
 -1       568 1.39035E+02 6.60425E+00 0.00000E+00
 -1       569 1.42035E+02 6.60425E+00 0.00000E+00
 -1       570 1.42206E+02 1.61750E+01 0.00000E+00
 -1       571 1.42206E+02 1.91250E+01 0.00000E+00
 -1       572 1.42206E+02 1.03250E+01 0.00000E+00
 -1       573 1.42206E+02 1.32500E+01 0.00000E+00
 -1       574 1.42206E+02 2.20750E+01 0.00000E+00
 -1       575 1.42206E+02 2.50250E+01 0.00000E+00
 -1       576 1.42206E+02 2.79750E+01 0.00000E+00
 -1       577 1.42206E+02 3.08750E+01 0.00000E+00
 -1       578 1.42206E+02 3.38250E+01 0.00000E+00
 -1       579 1.42206E+02 3.67750E+01 0.00000E+00
 -1       580 1.42217E+02 3.93872E+01 0.00000E+00
 -1       581 6.39625E+01 3.06049E+01 0.00000E+00
 -1       582 7.84800E+00 4.16780E+01 0.00000E+00
 -1       583 1.90350E+01 6.60425E+00 0.00000E+00
 -1       584 7.79400E+00 2.79000E+01 0.00000E+00
 -1       585 6.01962E+01 2.70258E+01 0.00000E+00
 -1       586 4.81904E+01 2.62847E+01 0.00000E+00
 -1       587 5.27869E+01 2.54026E+01 0.00000E+00
 -1       588 4.39969E+01 4.14629E+01 0.00000E+00
 -1       589 4.62951E+01 2.78745E+01 0.00000E+00
 -1       590 4.45297E+01 2.98772E+01 0.00000E+00
 -1       591 4.32590E+01 3.19316E+01 0.00000E+00
 -1       592 4.25197E+01 3.68498E+01 0.00000E+00
 -1       593 5.81216E+01 2.60763E+01 0.00000E+00
 -1       594 6.38180E+01 4.23144E+01 0.00000E+00
 -1       595 6.49734E+01 3.54855E+01 0.00000E+00
 -1       596 7.79400E+00 3.67375E+01 0.00000E+00
 -1       597 4.25765E+01 4.06150E+01 0.00000E+00
 -1       598 4.46879E+01 4.24478E+01 0.00000E+00
 -1       599 7.82100E+00 3.92077E+01 0.00000E+00
 -1       600 5.41481E+01 2.45782E+01 0.00000E+00
 -1       601 4.15761E+01 3.31066E+01 0.00000E+00
 -1       602 1.03920E+01 2.05500E+01 0.00000E+00
 -1       603 1.03920E+01 2.35000E+01 0.00000E+00
 -1       604 1.03920E+01 1.46750E+01 0.00000E+00
 -1       605 1.03920E+01 1.17250E+01 0.00000E+00
 -1       606 1.03920E+01 8.77500E+00 0.00000E+00
 -1       607 1.07782E+01 7.21406E+00 0.00000E+00
 -1       608 1.48500E+01 3.96080E+01 0.00000E+00
 -1       609 1.78500E+01 3.96080E+01 0.00000E+00
 -1       610 2.08500E+01 3.96080E+01 0.00000E+00
 -1       611 2.38500E+01 3.96080E+01 0.00000E+00
 -1       612 2.68500E+01 3.96080E+01 0.00000E+00
 -1       613 2.97000E+01 3.96080E+01 0.00000E+00
 -1       614 3.27000E+01 3.96080E+01 0.00000E+00
 -1       615 3.57000E+01 3.96080E+01 0.00000E+00
 -1       616 3.87000E+01 3.96080E+01 0.00000E+00
 -1       617 2.65350E+01 9.20225E+00 0.00000E+00
 -1       618 1.03920E+01 3.23250E+01 0.00000E+00
 -1       619 1.20000E+01 3.96080E+01 0.00000E+00
 -1       620 6.67812E+01 3.91370E+01 0.00000E+00
 -1       621 1.39206E+02 1.03250E+01 0.00000E+00
 -1       622 6.97500E+01 4.05810E+01 0.00000E+00
 -1       623 7.27500E+01 4.05810E+01 0.00000E+00
 -1       624 7.57500E+01 4.05810E+01 0.00000E+00
 -1       625 7.86000E+01 4.05810E+01 0.00000E+00
 -1       626 8.16000E+01 4.05810E+01 0.00000E+00
 -1       627 8.46000E+01 4.05810E+01 0.00000E+00
 -1       628 8.76000E+01 4.05810E+01 0.00000E+00
 -1       629 9.06000E+01 4.05810E+01 0.00000E+00
 -1       630 9.34500E+01 4.05810E+01 0.00000E+00
 -1       631 9.64500E+01 4.05810E+01 0.00000E+00
 -1       632 9.94500E+01 4.05810E+01 0.00000E+00
 -1       633 1.02450E+02 4.05810E+01 0.00000E+00
 -1       634 1.05450E+02 4.05810E+01 0.00000E+00
 -1       635 1.08450E+02 4.05810E+01 0.00000E+00
 -1       636 1.11300E+02 4.05810E+01 0.00000E+00
 -1       637 1.14300E+02 4.05810E+01 0.00000E+00
 -1       638 1.17300E+02 4.05810E+01 0.00000E+00
 -1       639 1.20300E+02 4.05810E+01 0.00000E+00
 -1       640 1.23300E+02 4.05810E+01 0.00000E+00
 -1       641 1.26300E+02 4.05810E+01 0.00000E+00
 -1       642 1.29150E+02 4.05810E+01 0.00000E+00
 -1       643 1.32150E+02 4.05810E+01 0.00000E+00
 -1       644 1.35150E+02 4.05810E+01 0.00000E+00
 -1       645 1.38150E+02 4.05810E+01 0.00000E+00
 -1       646 1.40183E+02 3.99841E+01 0.00000E+00
 -1       647 2.95350E+01 9.20225E+00 0.00000E+00
 -1       648 2.35350E+01 9.20225E+00 0.00000E+00
 -1       649 3.25350E+01 9.20225E+00 0.00000E+00
 -1       650 3.55350E+01 9.20225E+00 0.00000E+00
 -1       651 3.85350E+01 9.20225E+00 0.00000E+00
 -1       652 4.15350E+01 9.20225E+00 0.00000E+00
 -1       653 4.45350E+01 9.20225E+00 0.00000E+00
 -1       654 4.75350E+01 9.20225E+00 0.00000E+00
 -1       655 5.05350E+01 9.20225E+00 0.00000E+00
 -1       656 5.35350E+01 9.20225E+00 0.00000E+00
 -1       657 5.65350E+01 9.20225E+00 0.00000E+00
 -1       658 5.95350E+01 9.20225E+00 0.00000E+00
 -1       659 6.25350E+01 9.20225E+00 0.00000E+00
 -1       660 6.55350E+01 9.20225E+00 0.00000E+00
 -1       661 6.85350E+01 9.20225E+00 0.00000E+00
 -1       662 7.15350E+01 9.20225E+00 0.00000E+00
 -1       663 7.45350E+01 9.20225E+00 0.00000E+00
 -1       664 7.75350E+01 9.20225E+00 0.00000E+00
 -1       665 8.05350E+01 9.20225E+00 0.00000E+00
 -1       666 8.35350E+01 9.20225E+00 0.00000E+00
 -1       667 8.65350E+01 9.20225E+00 0.00000E+00
 -1       668 8.95350E+01 9.20225E+00 0.00000E+00
 -1       669 9.25350E+01 9.20225E+00 0.00000E+00
 -1       670 9.55350E+01 9.20225E+00 0.00000E+00
 -1       671 9.85350E+01 9.20225E+00 0.00000E+00
 -1       672 1.01535E+02 9.20225E+00 0.00000E+00
 -1       673 1.04535E+02 9.20225E+00 0.00000E+00
 -1       674 1.07535E+02 9.20225E+00 0.00000E+00
 -1       675 1.10535E+02 9.20225E+00 0.00000E+00
 -1       676 1.13535E+02 9.20225E+00 0.00000E+00
 -1       677 1.16535E+02 9.20225E+00 0.00000E+00
 -1       678 1.19535E+02 9.20225E+00 0.00000E+00
 -1       679 1.22535E+02 9.20225E+00 0.00000E+00
 -1       680 1.25535E+02 9.20225E+00 0.00000E+00
 -1       681 1.28535E+02 9.20225E+00 0.00000E+00
 -1       682 1.31535E+02 9.20225E+00 0.00000E+00
 -1       683 1.34535E+02 9.20225E+00 0.00000E+00
 -1       684 1.36870E+02 9.76363E+00 0.00000E+00
 -1       685 1.39608E+02 2.35500E+01 0.00000E+00
 -1       686 6.32646E+01 4.43252E+01 0.00000E+00
 -1       687 1.39608E+02 1.76500E+01 0.00000E+00
 -1       688 1.39608E+02 2.65000E+01 0.00000E+00
 -1       689 1.39608E+02 2.06000E+01 0.00000E+00
 -1       690 1.39608E+02 2.94000E+01 0.00000E+00
 -1       691 1.39608E+02 3.23500E+01 0.00000E+00
 -1       692 1.39608E+02 3.53000E+01 0.00000E+00
 -1       693 6.47959E+01 2.80257E+01 0.00000E+00
 -1       694 4.12717E+01 3.86926E+01 0.00000E+00
 -1       695 6.65510E+01 3.40864E+01 0.00000E+00
 -1       696 5.17689E+01 2.37559E+01 0.00000E+00
 -1       697 6.60156E+01 4.09679E+01 0.00000E+00
 -1       698 6.28096E+01 2.63065E+01 0.00000E+00
 -1       699 5.68403E+01 2.44105E+01 0.00000E+00
 -1       700 4.24357E+01 3.00022E+01 0.00000E+00
 -1       701 4.09430E+01 3.55356E+01 0.00000E+00
 -1       702 4.59251E+01 2.55088E+01 0.00000E+00
 -1       703 4.38744E+01 2.75201E+01 0.00000E+00
 -1       704 1.03920E+01 1.76125E+01 0.00000E+00
 -1       705 9.91050E+00 3.94079E+01 0.00000E+00
 -1       706 6.64587E+01 3.11700E+01 0.00000E+00
 -1       707 4.90172E+01 2.37659E+01 0.00000E+00
 -1       708 5.98727E+01 2.49915E+01 0.00000E+00
 -1       709 6.68760E+01 3.64027E+01 0.00000E+00
 -1       710 1.03920E+01 2.64500E+01 0.00000E+00
 -1       711 2.05350E+01 9.20225E+00 0.00000E+00
 -1       712 1.03920E+01 3.52625E+01 0.00000E+00
 -1       713 1.03920E+01 2.93875E+01 0.00000E+00
 -1       714 1.43194E+01 8.91630E+00 0.00000E+00
 -1       715 1.39608E+02 1.47250E+01 0.00000E+00
 -1       716 5.85913E+01 2.33257E+01 0.00000E+00
 -1       717 1.39896E+02 3.76420E+01 0.00000E+00
 -1       718 3.96950E+01 3.73785E+01 0.00000E+00
 -1       719 5.31300E+01 2.29315E+01 0.00000E+00
 -1       720 4.07528E+01 3.11772E+01 0.00000E+00
 -1       721 1.75350E+01 9.20225E+00 0.00000E+00
 -1       722 1.29900E+01 1.02500E+01 0.00000E+00
 -1       723 1.29900E+01 1.32000E+01 0.00000E+00
 -1       724 1.63500E+01 3.70100E+01 0.00000E+00
 -1       725 3.10350E+01 1.18003E+01 0.00000E+00
 -1       726 1.93500E+01 3.70100E+01 0.00000E+00
 -1       727 2.23500E+01 3.70100E+01 0.00000E+00
 -1       728 2.53500E+01 3.70100E+01 0.00000E+00
 -1       729 2.82000E+01 3.70100E+01 0.00000E+00
 -1       730 3.12000E+01 3.70100E+01 0.00000E+00
 -1       731 3.42000E+01 3.70100E+01 0.00000E+00
 -1       732 1.35000E+01 3.70100E+01 0.00000E+00
 -1       733 2.80350E+01 1.18003E+01 0.00000E+00
 -1       734 7.42500E+01 3.79830E+01 0.00000E+00
 -1       735 7.71000E+01 3.79830E+01 0.00000E+00
 -1       736 8.01000E+01 3.79830E+01 0.00000E+00
 -1       737 8.31000E+01 3.79830E+01 0.00000E+00
 -1       738 8.61000E+01 3.79830E+01 0.00000E+00
 -1       739 8.91000E+01 3.79830E+01 0.00000E+00
 -1       740 9.19500E+01 3.79830E+01 0.00000E+00
 -1       741 9.49500E+01 3.79830E+01 0.00000E+00
 -1       742 9.79500E+01 3.79830E+01 0.00000E+00
 -1       743 1.00950E+02 3.79830E+01 0.00000E+00
 -1       744 1.03950E+02 3.79830E+01 0.00000E+00
 -1       745 1.06950E+02 3.79830E+01 0.00000E+00
 -1       746 1.09800E+02 3.79830E+01 0.00000E+00
 -1       747 1.12800E+02 3.79830E+01 0.00000E+00
 -1       748 1.15800E+02 3.79830E+01 0.00000E+00
 -1       749 1.18800E+02 3.79830E+01 0.00000E+00
 -1       750 1.21800E+02 3.79830E+01 0.00000E+00
 -1       751 1.24800E+02 3.79830E+01 0.00000E+00
 -1       752 1.27650E+02 3.79830E+01 0.00000E+00
 -1       753 1.30650E+02 3.79830E+01 0.00000E+00
 -1       754 1.33650E+02 3.79830E+01 0.00000E+00
 -1       755 1.36650E+02 3.79830E+01 0.00000E+00
 -1       756 1.37010E+02 3.38250E+01 0.00000E+00
 -1       757 6.87439E+01 3.49597E+01 0.00000E+00
 -1       758 2.50350E+01 1.18003E+01 0.00000E+00
 -1       759 3.70350E+01 1.18003E+01 0.00000E+00
 -1       760 4.00350E+01 1.18003E+01 0.00000E+00
 -1       761 4.30350E+01 1.18003E+01 0.00000E+00
 -1       762 4.60350E+01 1.18003E+01 0.00000E+00
 -1       763 4.90350E+01 1.18003E+01 0.00000E+00
 -1       764 5.20350E+01 1.18003E+01 0.00000E+00
 -1       765 5.50350E+01 1.18003E+01 0.00000E+00
 -1       766 5.80350E+01 1.18003E+01 0.00000E+00
 -1       767 6.10350E+01 1.18003E+01 0.00000E+00
 -1       768 6.40350E+01 1.18003E+01 0.00000E+00
 -1       769 6.70350E+01 1.18003E+01 0.00000E+00
 -1       770 7.00350E+01 1.18003E+01 0.00000E+00
 -1       771 7.30350E+01 1.18003E+01 0.00000E+00
 -1       772 7.60350E+01 1.18003E+01 0.00000E+00
 -1       773 7.90350E+01 1.18003E+01 0.00000E+00
 -1       774 8.20350E+01 1.18003E+01 0.00000E+00
 -1       775 8.50350E+01 1.18003E+01 0.00000E+00
 -1       776 8.80350E+01 1.18003E+01 0.00000E+00
 -1       777 9.10350E+01 1.18003E+01 0.00000E+00
 -1       778 9.40350E+01 1.18003E+01 0.00000E+00
 -1       779 9.70350E+01 1.18003E+01 0.00000E+00
 -1       780 1.00035E+02 1.18003E+01 0.00000E+00
 -1       781 1.03035E+02 1.18003E+01 0.00000E+00
 -1       782 1.06035E+02 1.18003E+01 0.00000E+00
 -1       783 1.09035E+02 1.18003E+01 0.00000E+00
 -1       784 1.12035E+02 1.18003E+01 0.00000E+00
 -1       785 1.15035E+02 1.18003E+01 0.00000E+00
 -1       786 1.18035E+02 1.18003E+01 0.00000E+00
 -1       787 1.21035E+02 1.18003E+01 0.00000E+00
 -1       788 1.24035E+02 1.18003E+01 0.00000E+00
 -1       789 1.27035E+02 1.18003E+01 0.00000E+00
 -1       790 1.30035E+02 1.18003E+01 0.00000E+00
 -1       791 1.33035E+02 1.18003E+01 0.00000E+00
 -1       792 1.37010E+02 2.50250E+01 0.00000E+00
 -1       793 3.40350E+01 1.18003E+01 0.00000E+00
 -1       794 6.78841E+01 2.84044E+01 0.00000E+00
 -1       795 1.01512E+01 3.73352E+01 0.00000E+00
 -1       796 4.12362E+01 2.76490E+01 0.00000E+00
 -1       797 1.37010E+02 3.08750E+01 0.00000E+00
 -1       798 6.55029E+01 2.52017E+01 0.00000E+00
 -1       799 5.03856E+01 2.17107E+01 0.00000E+00
 -1       800 6.86515E+01 3.20433E+01 0.00000E+00
 -1       801 7.12500E+01 3.79830E+01 0.00000E+00
 -1       802 3.94377E+01 3.38463E+01 0.00000E+00
 -1       803 5.53928E+01 2.28662E+01 0.00000E+00
 -1       804 4.33468E+01 2.49310E+01 0.00000E+00
 -1       805 6.22474E+01 2.36248E+01 0.00000E+00
 -1       806 4.63822E+01 2.27053E+01 0.00000E+00
 -1       807 1.29900E+01 2.20250E+01 0.00000E+00
 -1       808 1.37010E+02 2.79500E+01 0.00000E+00
 -1       809 6.90630E+01 3.71928E+01 0.00000E+00
 -1       810 1.29900E+01 1.61375E+01 0.00000E+00
 -1       811 2.20350E+01 1.18003E+01 0.00000E+00
 -1       812 3.72000E+01 3.70550E+01 0.00000E+00
 -1       813 1.29900E+01 3.37938E+01 0.00000E+00
 -1       814 1.29900E+01 2.49750E+01 0.00000E+00
 -1       815 1.56971E+01 1.16471E+01 0.00000E+00
 -1       816 1.37298E+02 3.61670E+01 0.00000E+00
 -1       817 1.35370E+02 1.23616E+01 0.00000E+00
 -1       818 1.37010E+02 1.91250E+01 0.00000E+00
 -1       819 1.37273E+02 1.41636E+01 0.00000E+00
 -1       820 3.83189E+01 3.54507E+01 0.00000E+00
 -1       821 1.37141E+02 1.66443E+01 0.00000E+00
 -1       822 1.37010E+02 2.20750E+01 0.00000E+00
 -1       823 1.29900E+01 3.08563E+01 0.00000E+00
 -1       824 5.71438E+01 2.17814E+01 0.00000E+00
 -1       825 4.77506E+01 2.06501E+01 0.00000E+00
 -1       826 1.29900E+01 1.90875E+01 0.00000E+00
 -1       827 3.95533E+01 2.88240E+01 0.00000E+00
 -1       828 5.17468E+01 2.08862E+01 0.00000E+00
 -1       829 6.09661E+01 2.19590E+01 0.00000E+00
 -1       830 1.90350E+01 1.18003E+01 0.00000E+00
 -1       831 1.78500E+01 3.44120E+01 0.00000E+00
 -1       832 2.08500E+01 3.44120E+01 0.00000E+00
 -1       833 2.38500E+01 3.44120E+01 0.00000E+00
 -1       834 2.67000E+01 3.44120E+01 0.00000E+00
 -1       835 2.97000E+01 3.44120E+01 0.00000E+00
 -1       836 3.27000E+01 3.44120E+01 0.00000E+00
 -1       837 7.56750E+01 3.53850E+01 0.00000E+00
 -1       838 2.95350E+01 1.43982E+01 0.00000E+00
 -1       839 1.29900E+01 2.79188E+01 0.00000E+00
 -1       840 3.82383E+01 3.14931E+01 0.00000E+00
 -1       841 7.86750E+01 3.53850E+01 0.00000E+00
 -1       842 8.16750E+01 3.53850E+01 0.00000E+00
 -1       843 8.46750E+01 3.53850E+01 0.00000E+00
 -1       844 8.76750E+01 3.53850E+01 0.00000E+00
 -1       845 9.05250E+01 3.53850E+01 0.00000E+00
 -1       846 9.35250E+01 3.53850E+01 0.00000E+00
 -1       847 9.65250E+01 3.53850E+01 0.00000E+00
 -1       848 9.95250E+01 3.53850E+01 0.00000E+00
 -1       849 1.02525E+02 3.53850E+01 0.00000E+00
 -1       850 1.05525E+02 3.53850E+01 0.00000E+00
 -1       851 1.08375E+02 3.53850E+01 0.00000E+00
 -1       852 1.11375E+02 3.53850E+01 0.00000E+00
 -1       853 1.14375E+02 3.53850E+01 0.00000E+00
 -1       854 1.17375E+02 3.53850E+01 0.00000E+00
 -1       855 1.20375E+02 3.53850E+01 0.00000E+00
 -1       856 1.23375E+02 3.53850E+01 0.00000E+00
 -1       857 1.26225E+02 3.53850E+01 0.00000E+00
 -1       858 1.29225E+02 3.53850E+01 0.00000E+00
 -1       859 1.32225E+02 3.53850E+01 0.00000E+00
 -1       860 4.15350E+01 1.43982E+01 0.00000E+00
 -1       861 3.85350E+01 1.43982E+01 0.00000E+00
 -1       862 4.75350E+01 1.43982E+01 0.00000E+00
 -1       863 5.05350E+01 1.43982E+01 0.00000E+00
 -1       864 5.35350E+01 1.43982E+01 0.00000E+00
 -1       865 5.65350E+01 1.43982E+01 0.00000E+00
 -1       866 5.95350E+01 1.43982E+01 0.00000E+00
 -1       867 6.25350E+01 1.43982E+01 0.00000E+00
 -1       868 6.55350E+01 1.43982E+01 0.00000E+00
 -1       869 6.85350E+01 1.43982E+01 0.00000E+00
 -1       870 7.15350E+01 1.43982E+01 0.00000E+00
 -1       871 7.45350E+01 1.43982E+01 0.00000E+00
 -1       872 7.75350E+01 1.43982E+01 0.00000E+00
 -1       873 8.05350E+01 1.43982E+01 0.00000E+00
 -1       874 8.35350E+01 1.43982E+01 0.00000E+00
 -1       875 8.65350E+01 1.43982E+01 0.00000E+00
 -1       876 8.95350E+01 1.43982E+01 0.00000E+00
 -1       877 9.25350E+01 1.43982E+01 0.00000E+00
 -1       878 9.55350E+01 1.43982E+01 0.00000E+00
 -1       879 9.85350E+01 1.43982E+01 0.00000E+00
 -1       880 1.01535E+02 1.43982E+01 0.00000E+00
 -1       881 1.04535E+02 1.43982E+01 0.00000E+00
 -1       882 1.07535E+02 1.43982E+01 0.00000E+00
 -1       883 1.10535E+02 1.43982E+01 0.00000E+00
 -1       884 1.13535E+02 1.43982E+01 0.00000E+00
 -1       885 1.16535E+02 1.43982E+01 0.00000E+00
 -1       886 1.19535E+02 1.43982E+01 0.00000E+00
 -1       887 1.22535E+02 1.43982E+01 0.00000E+00
 -1       888 1.25535E+02 1.43982E+01 0.00000E+00
 -1       889 1.28535E+02 1.43982E+01 0.00000E+00
 -1       890 1.31535E+02 1.43982E+01 0.00000E+00
 -1       891 3.55350E+01 1.43982E+01 0.00000E+00
 -1       892 1.72469E+01 1.43189E+01 0.00000E+00
 -1       893 7.09309E+01 3.57499E+01 0.00000E+00
 -1       894 7.08099E+01 2.96878E+01 0.00000E+00
 -1       895 3.25350E+01 1.43982E+01 0.00000E+00
 -1       896 7.08385E+01 3.28335E+01 0.00000E+00
 -1       897 4.04075E+01 2.48270E+01 0.00000E+00
 -1       898 6.87784E+01 2.52529E+01 0.00000E+00
 -1       899 6.49150E+01 2.22664E+01 0.00000E+00
 -1       900 3.57000E+01 3.44571E+01 0.00000E+00
 -1       901 4.45350E+01 1.43982E+01 0.00000E+00
 -1       902 2.65350E+01 1.43982E+01 0.00000E+00
 -1       903 1.34412E+02 3.23500E+01 0.00000E+00
 -1       904 4.33549E+01 2.17594E+01 0.00000E+00
 -1       905 7.33029E+01 3.55674E+01 0.00000E+00
 -1       906 5.40095E+01 2.08209E+01 0.00000E+00
 -1       907 1.51185E+01 1.52282E+01 0.00000E+00
 -1       908 5.95186E+01 2.04147E+01 0.00000E+00
 -1       909 2.35350E+01 1.43982E+01 0.00000E+00
 -1       910 1.35330E+02 3.59040E+01 0.00000E+00
 -1       911 1.55880E+01 2.35000E+01 0.00000E+00
 -1       912 3.71194E+01 3.30974E+01 0.00000E+00
 -1       913 1.33870E+02 1.49596E+01 0.00000E+00
 -1       914 1.34412E+02 2.06000E+01 0.00000E+00
 -1       915 1.34543E+02 1.81193E+01 0.00000E+00
 -1       916 2.02594E+01 1.45635E+01 0.00000E+00
 -1       917 5.57606E+01 1.97361E+01 0.00000E+00
 -1       918 4.47233E+01 1.97042E+01 0.00000E+00
 -1       919 1.78500E+01 3.14745E+01 0.00000E+00
 -1       920 7.17042E+01 2.65363E+01 0.00000E+00
 -1       921 1.34412E+02 2.94250E+01 0.00000E+00
 -1       922 6.81905E+01 2.23177E+01 0.00000E+00
 -1       923 4.91117E+01 1.98256E+01 0.00000E+00
 -1       924 6.36337E+01 2.06006E+01 0.00000E+00
 -1       925 3.87246E+01 2.60020E+01 0.00000E+00
 -1       926 1.55880E+01 2.05625E+01 0.00000E+00
 -1       927 1.34412E+02 2.35500E+01 0.00000E+00
 -1       928 1.34412E+02 2.64875E+01 0.00000E+00
 -1       929 1.31814E+02 2.20750E+01 0.00000E+00
 -1       930 2.80350E+01 1.69963E+01 0.00000E+00
 -1       931 2.23500E+01 3.18140E+01 0.00000E+00
 -1       932 2.52000E+01 3.18140E+01 0.00000E+00
 -1       933 2.82000E+01 3.18140E+01 0.00000E+00
 -1       934 3.12000E+01 3.18140E+01 0.00000E+00
 -1       935 5.28093E+01 1.84692E+01 0.00000E+00
 -1       936 1.78500E+01 2.85370E+01 0.00000E+00
 -1       937 5.50350E+01 1.69963E+01 0.00000E+00
 -1       938 7.71750E+01 3.27870E+01 0.00000E+00
 -1       939 8.01750E+01 3.27870E+01 0.00000E+00
 -1       940 8.31750E+01 3.27870E+01 0.00000E+00
 -1       941 8.61750E+01 3.27870E+01 0.00000E+00
 -1       942 8.90250E+01 3.27870E+01 0.00000E+00
 -1       943 9.20250E+01 3.27870E+01 0.00000E+00
 -1       944 9.50250E+01 3.27870E+01 0.00000E+00
 -1       945 9.80250E+01 3.27870E+01 0.00000E+00
 -1       946 1.01025E+02 3.27870E+01 0.00000E+00
 -1       947 1.04025E+02 3.27870E+01 0.00000E+00
 -1       948 1.06875E+02 3.27870E+01 0.00000E+00
 -1       949 1.09875E+02 3.27870E+01 0.00000E+00
 -1       950 1.12875E+02 3.27870E+01 0.00000E+00
 -1       951 1.15875E+02 3.27870E+01 0.00000E+00
 -1       952 1.18875E+02 3.27870E+01 0.00000E+00
 -1       953 1.21875E+02 3.27870E+01 0.00000E+00
 -1       954 1.24725E+02 3.27870E+01 0.00000E+00
 -1       955 1.27725E+02 3.27870E+01 0.00000E+00
 -1       956 1.30725E+02 3.27870E+01 0.00000E+00
 -1       957 4.00350E+01 1.69963E+01 0.00000E+00
 -1       958 5.80350E+01 1.69963E+01 0.00000E+00
 -1       959 6.10350E+01 1.69963E+01 0.00000E+00
 -1       960 6.40350E+01 1.69963E+01 0.00000E+00
 -1       961 6.70350E+01 1.69963E+01 0.00000E+00
 -1       962 7.00350E+01 1.69963E+01 0.00000E+00
 -1       963 7.30350E+01 1.69963E+01 0.00000E+00
 -1       964 7.60350E+01 1.69963E+01 0.00000E+00
 -1       965 7.90350E+01 1.69963E+01 0.00000E+00
 -1       966 8.20350E+01 1.69963E+01 0.00000E+00
 -1       967 8.50350E+01 1.69963E+01 0.00000E+00
 -1       968 8.80350E+01 1.69963E+01 0.00000E+00
 -1       969 9.10350E+01 1.69963E+01 0.00000E+00
 -1       970 9.40350E+01 1.69963E+01 0.00000E+00
 -1       971 9.70350E+01 1.69963E+01 0.00000E+00
 -1       972 1.00035E+02 1.69963E+01 0.00000E+00
 -1       973 1.03035E+02 1.69963E+01 0.00000E+00
 -1       974 1.06035E+02 1.69963E+01 0.00000E+00
 -1       975 1.09035E+02 1.69963E+01 0.00000E+00
 -1       976 1.12035E+02 1.69963E+01 0.00000E+00
 -1       977 1.15035E+02 1.69963E+01 0.00000E+00
 -1       978 1.18035E+02 1.69963E+01 0.00000E+00
 -1       979 1.21035E+02 1.69963E+01 0.00000E+00
 -1       980 1.24035E+02 1.69963E+01 0.00000E+00
 -1       981 1.27035E+02 1.69963E+01 0.00000E+00
 -1       982 1.30035E+02 1.69963E+01 0.00000E+00
 -1       983 3.70350E+01 1.69963E+01 0.00000E+00
 -1       984 3.69063E+01 2.91783E+01 0.00000E+00
 -1       985 3.10350E+01 1.69963E+01 0.00000E+00
 -1       986 7.34221E+01 3.12370E+01 0.00000E+00
 -1       987 3.42000E+01 3.18591E+01 0.00000E+00
 -1       988 3.40350E+01 1.69963E+01 0.00000E+00
 -1       989 1.67190E+01 2.60185E+01 0.00000E+00
 -1       990 4.00078E+01 2.14932E+01 0.00000E+00
 -1       991 1.53532E+01 1.78954E+01 0.00000E+00
 -1       992 1.85429E+01 1.70307E+01 0.00000E+00
 -1       993 2.01000E+01 3.16443E+01 0.00000E+00
 -1       994 2.50350E+01 1.69963E+01 0.00000E+00
 -1       995 4.30350E+01 1.69963E+01 0.00000E+00
 -1       996 3.57875E+01 3.07827E+01 0.00000E+00
 -1       997 4.13762E+01 1.94380E+01 0.00000E+00
 -1       998 1.31814E+02 2.50125E+01 0.00000E+00
 -1       999 3.83248E+01 2.26682E+01 0.00000E+00
 -1      1000 7.12849E+01 2.35155E+01 0.00000E+00
 -1      1001 1.30725E+02 2.98620E+01 0.00000E+00
 -1      1002 6.65934E+01 1.96944E+01 0.00000E+00
 -1      1003 7.43164E+01 2.80855E+01 0.00000E+00
 -1      1004 1.85235E+01 2.36949E+01 0.00000E+00
 -1      1005 2.15338E+01 1.72808E+01 0.00000E+00
 -1      1006 1.30924E+02 1.95356E+01 0.00000E+00
 -1      1007 1.85235E+01 2.07574E+01 0.00000E+00
 -1      1008 6.19827E+01 1.95555E+01 0.00000E+00
 -1      1009 2.67000E+01 2.92160E+01 0.00000E+00
 -1      1010 2.97000E+01 2.92160E+01 0.00000E+00
 -1      1011 2.01000E+01 2.87068E+01 0.00000E+00
 -1      1012 3.55607E+01 2.62995E+01 0.00000E+00
 -1      1013 8.16750E+01 3.01890E+01 0.00000E+00
 -1      1014 8.46750E+01 3.01890E+01 0.00000E+00
 -1      1015 8.75250E+01 3.01890E+01 0.00000E+00
 -1      1016 9.05250E+01 3.01890E+01 0.00000E+00
 -1      1017 9.35250E+01 3.01890E+01 0.00000E+00
 -1      1018 9.65250E+01 3.01890E+01 0.00000E+00
 -1      1019 9.95250E+01 3.01890E+01 0.00000E+00
 -1      1020 1.02525E+02 3.01890E+01 0.00000E+00
 -1      1021 1.05375E+02 3.01890E+01 0.00000E+00
 -1      1022 1.08375E+02 3.01890E+01 0.00000E+00
 -1      1023 1.11375E+02 3.01890E+01 0.00000E+00
 -1      1024 1.14375E+02 3.01890E+01 0.00000E+00
 -1      1025 1.17375E+02 3.01890E+01 0.00000E+00
 -1      1026 1.20375E+02 3.01890E+01 0.00000E+00
 -1      1027 1.23225E+02 3.01890E+01 0.00000E+00
 -1      1028 1.26225E+02 3.01890E+01 0.00000E+00
 -1      1029 1.28475E+02 3.00255E+01 0.00000E+00
 -1      1030 6.95934E+01 1.96944E+01 0.00000E+00
 -1      1031 7.25934E+01 1.96944E+01 0.00000E+00
 -1      1032 7.55934E+01 1.96944E+01 0.00000E+00
 -1      1033 7.85934E+01 1.96944E+01 0.00000E+00
 -1      1034 8.15934E+01 1.96944E+01 0.00000E+00
 -1      1035 8.45934E+01 1.96944E+01 0.00000E+00
 -1      1036 8.75934E+01 1.96944E+01 0.00000E+00
 -1      1037 9.05934E+01 1.96944E+01 0.00000E+00
 -1      1038 9.35934E+01 1.96944E+01 0.00000E+00
 -1      1039 9.65934E+01 1.96944E+01 0.00000E+00
 -1      1040 9.95934E+01 1.96944E+01 0.00000E+00
 -1      1041 1.02593E+02 1.96944E+01 0.00000E+00
 -1      1042 1.05593E+02 1.96944E+01 0.00000E+00
 -1      1043 1.08593E+02 1.96944E+01 0.00000E+00
 -1      1044 1.11593E+02 1.96944E+01 0.00000E+00
 -1      1045 1.14593E+02 1.96944E+01 0.00000E+00
 -1      1046 1.17593E+02 1.96944E+01 0.00000E+00
 -1      1047 1.20593E+02 1.96944E+01 0.00000E+00
 -1      1048 1.23593E+02 1.96944E+01 0.00000E+00
 -1      1049 1.26593E+02 1.96944E+01 0.00000E+00
 -1      1050 1.28759E+02 1.96150E+01 0.00000E+00
 -1      1051 3.27000E+01 2.92611E+01 0.00000E+00
 -1      1052 3.85350E+01 1.95942E+01 0.00000E+00
 -1      1053 1.96545E+01 2.62134E+01 0.00000E+00
 -1      1054 3.25350E+01 1.95942E+01 0.00000E+00
 -1      1055 2.95350E+01 1.95942E+01 0.00000E+00
 -1      1056 4.70118E+01 1.76974E+01 0.00000E+00
 -1      1057 3.55350E+01 1.95942E+01 0.00000E+00
 -1      1058 7.86750E+01 3.01890E+01 0.00000E+00
 -1      1059 1.98219E+01 1.97447E+01 0.00000E+00
 -1      1060 7.40679E+01 2.46687E+01 0.00000E+00
 -1      1061 7.64957E+01 2.91372E+01 0.00000E+00
 -1      1062 2.38500E+01 2.92160E+01 0.00000E+00
 -1      1063 1.31270E+02 2.74372E+01 0.00000E+00
 -1      1064 2.11215E+01 2.22262E+01 0.00000E+00
 -1      1065 2.65350E+01 1.95942E+01 0.00000E+00
 -1      1066 2.22525E+01 2.47447E+01 0.00000E+00
 -1      1067 1.29216E+02 2.35438E+01 0.00000E+00
 -1      1068 7.36710E+01 2.16920E+01 0.00000E+00
 -1      1069 2.19750E+01 2.89614E+01 0.00000E+00
 -1      1070 2.31784E+01 1.96695E+01 0.00000E+00
 -1      1071 3.40350E+01 2.21922E+01 0.00000E+00
 -1      1072 8.31750E+01 2.75910E+01 0.00000E+00
 -1      1073 3.22618E+01 2.59753E+01 0.00000E+00
 -1      1074 7.62472E+01 2.57204E+01 0.00000E+00
 -1      1075 8.01750E+01 2.75910E+01 0.00000E+00
 -1      1076 8.60250E+01 2.75910E+01 0.00000E+00
 -1      1077 8.90250E+01 2.75910E+01 0.00000E+00
 -1      1078 9.20250E+01 2.75910E+01 0.00000E+00
 -1      1079 9.50250E+01 2.75910E+01 0.00000E+00
 -1      1080 9.80250E+01 2.75910E+01 0.00000E+00
 -1      1081 1.01025E+02 2.75910E+01 0.00000E+00
 -1      1082 1.03875E+02 2.75910E+01 0.00000E+00
 -1      1083 1.06875E+02 2.75910E+01 0.00000E+00
 -1      1084 1.09875E+02 2.75910E+01 0.00000E+00
 -1      1085 1.12875E+02 2.75910E+01 0.00000E+00
 -1      1086 1.15875E+02 2.75910E+01 0.00000E+00
 -1      1087 1.18875E+02 2.75910E+01 0.00000E+00
 -1      1088 1.21725E+02 2.75910E+01 0.00000E+00
 -1      1089 1.24725E+02 2.75910E+01 0.00000E+00
 -1      1090 7.70934E+01 2.22924E+01 0.00000E+00
 -1      1091 8.00934E+01 2.22924E+01 0.00000E+00
 -1      1092 8.30934E+01 2.22924E+01 0.00000E+00
 -1      1093 8.60934E+01 2.22924E+01 0.00000E+00
 -1      1094 8.90934E+01 2.22924E+01 0.00000E+00
 -1      1095 9.20934E+01 2.22924E+01 0.00000E+00
 -1      1096 9.50934E+01 2.22924E+01 0.00000E+00
 -1      1097 9.80934E+01 2.22924E+01 0.00000E+00
 -1      1098 1.01093E+02 2.22924E+01 0.00000E+00
 -1      1099 1.04093E+02 2.22924E+01 0.00000E+00
 -1      1100 1.07093E+02 2.22924E+01 0.00000E+00
 -1      1101 1.10093E+02 2.22924E+01 0.00000E+00
 -1      1102 1.13093E+02 2.22924E+01 0.00000E+00
 -1      1103 1.16093E+02 2.22924E+01 0.00000E+00
 -1      1104 1.19093E+02 2.22924E+01 0.00000E+00
 -1      1105 1.22093E+02 2.22924E+01 0.00000E+00
 -1      1106 1.25093E+02 2.22924E+01 0.00000E+00
 -1      1107 3.10350E+01 2.21922E+01 0.00000E+00
 -1      1108 1.28671E+02 2.59685E+01 0.00000E+00
 -1      1109 2.82000E+01 2.66180E+01 0.00000E+00
 -1      1110 2.21137E+01 2.68530E+01 0.00000E+00
 -1      1111 2.53500E+01 2.66180E+01 0.00000E+00
 -1      1112 1.26975E+02 2.74275E+01 0.00000E+00
 -1      1113 7.82111E+01 2.66557E+01 0.00000E+00
 -1      1114 1.27155E+02 2.29181E+01 0.00000E+00
 -1      1115 2.43094E+01 2.21880E+01 0.00000E+00
 -1      1116 2.80350E+01 2.21922E+01 0.00000E+00
 -1      1117 8.45934E+01 2.48904E+01 0.00000E+00
 -1      1118 1.28462E+02 2.80804E+01 0.00000E+00
 -1      1119 9.05250E+01 2.49930E+01 0.00000E+00
 -1      1120 9.35250E+01 2.49930E+01 0.00000E+00
 -1      1121 9.65250E+01 2.49930E+01 0.00000E+00
 -1      1122 9.95250E+01 2.49930E+01 0.00000E+00
 -1      1123 1.02375E+02 2.49930E+01 0.00000E+00
 -1      1124 1.05375E+02 2.49930E+01 0.00000E+00
 -1      1125 1.08375E+02 2.49930E+01 0.00000E+00
 -1      1126 1.11375E+02 2.49930E+01 0.00000E+00
 -1      1127 1.14375E+02 2.49930E+01 0.00000E+00
 -1      1128 1.17375E+02 2.49930E+01 0.00000E+00
 -1      1129 1.20225E+02 2.49930E+01 0.00000E+00
 -1      1130 1.23225E+02 2.49930E+01 0.00000E+00
 -1      1131 7.91523E+01 2.44740E+01 0.00000E+00
 -1      1132 8.14023E+01 2.57730E+01 0.00000E+00
 -1      1133 1.25948E+02 2.54807E+01 0.00000E+00
 -1      1134 8.75250E+01 2.49930E+01 0.00000E+00
 -1      1135 0.00000E+00 4.85250E+01 0.00000E+00
 -1      1136 0.00000E+00 4.55750E+01 0.00000E+00
 -1      1137 0.00000E+00 4.26250E+01 0.00000E+00
 -1      1138 0.00000E+00 3.96750E+01 0.00000E+00
 -1      1139 0.00000E+00 3.67250E+01 0.00000E+00
 -1      1140 0.00000E+00 3.38000E+01 0.00000E+00
 -1      1141 0.00000E+00 3.08750E+01 0.00000E+00
 -1      1142 0.00000E+00 2.79250E+01 0.00000E+00
 -1      1143 0.00000E+00 2.49750E+01 0.00000E+00
 -1      1144 0.00000E+00 2.20250E+01 0.00000E+00
 -1      1145 0.00000E+00 1.90750E+01 0.00000E+00
 -1      1146 0.00000E+00 1.61500E+01 0.00000E+00
 -1      1147 0.00000E+00 1.32250E+01 0.00000E+00
 -1      1148 0.00000E+00 1.02750E+01 0.00000E+00
 -1      1149 0.00000E+00 7.32500E+00 0.00000E+00
 -1      1150 0.00000E+00 4.37500E+00 0.00000E+00
 -1      1151 0.00000E+00 1.45000E+00 0.00000E+00
 -1      1152 1.50000E+00 5.00000E+01 0.00000E+00
 -1      1153 4.50000E+00 5.00000E+01 0.00000E+00
 -1      1154 7.50000E+00 5.00000E+01 0.00000E+00
 -1      1155 1.05000E+01 5.00000E+01 0.00000E+00
 -1      1156 1.35000E+01 5.00000E+01 0.00000E+00
 -1      1157 1.64250E+01 5.00000E+01 0.00000E+00
 -1      1158 1.93500E+01 5.00000E+01 0.00000E+00
 -1      1159 2.23500E+01 5.00000E+01 0.00000E+00
 -1      1160 2.53500E+01 5.00000E+01 0.00000E+00
 -1      1161 2.83500E+01 5.00000E+01 0.00000E+00
 -1      1162 3.13500E+01 5.00000E+01 0.00000E+00
 -1      1163 3.42750E+01 5.00000E+01 0.00000E+00
 -1      1164 3.72000E+01 5.00000E+01 0.00000E+00
 -1      1165 4.02000E+01 5.00000E+01 0.00000E+00
 -1      1166 4.32000E+01 5.00000E+01 0.00000E+00
 -1      1167 4.60500E+01 5.00000E+01 0.00000E+00
 -1      1168 4.86000E+01 5.00000E+01 0.00000E+00
 -1      1169 5.12250E+01 5.00000E+01 0.00000E+00
 -1      1170 5.39250E+01 5.00000E+01 0.00000E+00
 -1      1171 5.66250E+01 5.00000E+01 0.00000E+00
 -1      1172 5.94750E+01 5.00000E+01 0.00000E+00
 -1      1173 6.24000E+01 5.00000E+01 0.00000E+00
 -1      1174 6.53250E+01 5.00000E+01 0.00000E+00
 -1      1175 6.82500E+01 5.00000E+01 0.00000E+00
 -1      1176 7.12500E+01 5.00000E+01 0.00000E+00
 -1      1177 7.42500E+01 5.00000E+01 0.00000E+00
 -1      1178 7.72500E+01 5.00000E+01 0.00000E+00
 -1      1179 8.02500E+01 5.00000E+01 0.00000E+00
 -1      1180 8.31750E+01 5.00000E+01 0.00000E+00
 -1      1181 8.61000E+01 5.00000E+01 0.00000E+00
 -1      1182 8.91000E+01 5.00000E+01 0.00000E+00
 -1      1183 9.21000E+01 5.00000E+01 0.00000E+00
 -1      1184 9.51000E+01 5.00000E+01 0.00000E+00
 -1      1185 9.80250E+01 5.00000E+01 0.00000E+00
 -1      1186 1.00950E+02 5.00000E+01 0.00000E+00
 -1      1187 1.03950E+02 5.00000E+01 0.00000E+00
 -1      1188 1.06950E+02 5.00000E+01 0.00000E+00
 -1      1189 1.09950E+02 5.00000E+01 0.00000E+00
 -1      1190 1.12950E+02 5.00000E+01 0.00000E+00
 -1      1191 1.15875E+02 5.00000E+01 0.00000E+00
 -1      1192 1.18800E+02 5.00000E+01 0.00000E+00
 -1      1193 1.21800E+02 5.00000E+01 0.00000E+00
 -1      1194 1.24800E+02 5.00000E+01 0.00000E+00
 -1      1195 1.27800E+02 5.00000E+01 0.00000E+00
 -1      1196 1.30800E+02 5.00000E+01 0.00000E+00
 -1      1197 1.33725E+02 5.00000E+01 0.00000E+00
 -1      1198 1.36650E+02 5.00000E+01 0.00000E+00
 -1      1199 1.39650E+02 5.00000E+01 0.00000E+00
 -1      1200 1.42650E+02 5.00000E+01 0.00000E+00
 -1      1201 1.45650E+02 5.00000E+01 0.00000E+00
 -1      1202 1.48575E+02 5.00000E+01 0.00000E+00
 -1      1203 1.57500E+00 0.00000E+00 0.00000E+00
 -1      1204 4.65000E+00 0.00000E+00 0.00000E+00
 -1      1205 7.65000E+00 0.00000E+00 0.00000E+00
 -1      1206 1.06500E+01 0.00000E+00 0.00000E+00
 -1      1207 1.36500E+01 0.00000E+00 0.00000E+00
 -1      1208 1.66500E+01 0.00000E+00 0.00000E+00
 -1      1209 1.96500E+01 0.00000E+00 0.00000E+00
 -1      1210 2.26500E+01 0.00000E+00 0.00000E+00
 -1      1211 2.56500E+01 0.00000E+00 0.00000E+00
 -1      1212 2.86500E+01 0.00000E+00 0.00000E+00
 -1      1213 3.16500E+01 0.00000E+00 0.00000E+00
 -1      1214 3.46500E+01 0.00000E+00 0.00000E+00
 -1      1215 3.76500E+01 0.00000E+00 0.00000E+00
 -1      1216 4.06500E+01 0.00000E+00 0.00000E+00
 -1      1217 4.36500E+01 0.00000E+00 0.00000E+00
 -1      1218 4.66500E+01 0.00000E+00 0.00000E+00
 -1      1219 4.96500E+01 0.00000E+00 0.00000E+00
 -1      1220 5.26500E+01 0.00000E+00 0.00000E+00
 -1      1221 5.56500E+01 0.00000E+00 0.00000E+00
 -1      1222 5.86500E+01 0.00000E+00 0.00000E+00
 -1      1223 6.16500E+01 0.00000E+00 0.00000E+00
 -1      1224 6.46500E+01 0.00000E+00 0.00000E+00
 -1      1225 6.76500E+01 0.00000E+00 0.00000E+00
 -1      1226 7.06500E+01 0.00000E+00 0.00000E+00
 -1      1227 7.36500E+01 0.00000E+00 0.00000E+00
 -1      1228 7.66500E+01 0.00000E+00 0.00000E+00
 -1      1229 7.96500E+01 0.00000E+00 0.00000E+00
 -1      1230 8.26500E+01 0.00000E+00 0.00000E+00
 -1      1231 8.56500E+01 0.00000E+00 0.00000E+00
 -1      1232 8.86500E+01 0.00000E+00 0.00000E+00
 -1      1233 9.16500E+01 0.00000E+00 0.00000E+00
 -1      1234 9.46500E+01 0.00000E+00 0.00000E+00
 -1      1235 9.76500E+01 0.00000E+00 0.00000E+00
 -1      1236 1.00650E+02 0.00000E+00 0.00000E+00
 -1      1237 1.03650E+02 0.00000E+00 0.00000E+00
 -1      1238 1.06650E+02 0.00000E+00 0.00000E+00
 -1      1239 1.09650E+02 0.00000E+00 0.00000E+00
 -1      1240 1.12650E+02 0.00000E+00 0.00000E+00
 -1      1241 1.15650E+02 0.00000E+00 0.00000E+00
 -1      1242 1.18650E+02 0.00000E+00 0.00000E+00
 -1      1243 1.21650E+02 0.00000E+00 0.00000E+00
 -1      1244 1.24650E+02 0.00000E+00 0.00000E+00
 -1      1245 1.27650E+02 0.00000E+00 0.00000E+00
 -1      1246 1.30650E+02 0.00000E+00 0.00000E+00
 -1      1247 1.33650E+02 0.00000E+00 0.00000E+00
 -1      1248 1.36650E+02 0.00000E+00 0.00000E+00
 -1      1249 1.39650E+02 0.00000E+00 0.00000E+00
 -1      1250 1.42650E+02 0.00000E+00 0.00000E+00
 -1      1251 1.45650E+02 0.00000E+00 0.00000E+00
 -1      1252 1.48575E+02 0.00000E+00 0.00000E+00
 -1      1253 1.50000E+02 1.47500E+00 0.00000E+00
 -1      1254 1.50000E+02 4.42500E+00 0.00000E+00
 -1      1255 1.50000E+02 7.37500E+00 0.00000E+00
 -1      1256 1.50000E+02 1.03250E+01 0.00000E+00
 -1      1257 1.50000E+02 1.32750E+01 0.00000E+00
 -1      1258 1.50000E+02 1.62000E+01 0.00000E+00
 -1      1259 1.50000E+02 1.91250E+01 0.00000E+00
 -1      1260 1.50000E+02 2.20750E+01 0.00000E+00
 -1      1261 1.50000E+02 2.50250E+01 0.00000E+00
 -1      1262 1.50000E+02 2.79750E+01 0.00000E+00
 -1      1263 1.50000E+02 3.09250E+01 0.00000E+00
 -1      1264 1.50000E+02 3.38500E+01 0.00000E+00
 -1      1265 1.50000E+02 3.67750E+01 0.00000E+00
 -1      1266 1.50000E+02 3.97250E+01 0.00000E+00
 -1      1267 1.50000E+02 4.26750E+01 0.00000E+00
 -1      1268 1.50000E+02 4.56250E+01 0.00000E+00
 -1      1269 1.50000E+02 4.85500E+01 0.00000E+00
 -1      1270 6.07557E+01 3.58288E+01 0.00000E+00
 -1      1271 6.04325E+01 3.43387E+01 0.00000E+00
 -1      1272 5.98112E+01 3.29825E+01 0.00000E+00
 -1      1273 5.89173E+01 3.17892E+01 0.00000E+00
 -1      1274 5.77382E+01 3.07761E+01 0.00000E+00
 -1      1275 5.64200E+01 3.00703E+01 0.00000E+00
 -1      1276 5.49486E+01 2.96549E+01 0.00000E+00
 -1      1277 5.34392E+01 2.95681E+01 0.00000E+00
 -1      1278 5.19413E+01 2.98087E+01 0.00000E+00
 -1      1279 5.04679E+01 3.03997E+01 0.00000E+00
 -1      1280 4.92440E+01 3.12395E+01 0.00000E+00
 -1      1281 4.81949E+01 3.23578E+01 0.00000E+00
 -1      1282 4.73950E+01 3.37211E+01 0.00000E+00
 -1      1283 4.69260E+01 3.52056E+01 0.00000E+00
 -1      1284 4.67959E+01 3.67262E+01 0.00000E+00
 -1      1285 4.69881E+01 3.81964E+01 0.00000E+00
 -1      1286 4.75015E+01 3.96259E+01 0.00000E+00
 -1      1287 4.83035E+01 4.09013E+01 0.00000E+00
 -1      1288 4.93510E+01 4.19683E+01 0.00000E+00
 -1      1289 5.05981E+01 4.27870E+01 0.00000E+00
 -1      1290 5.19906E+01 4.33228E+01 0.00000E+00
 -1      1291 5.35373E+01 4.35544E+01 0.00000E+00
 -1      1292 5.51075E+01 4.34347E+01 0.00000E+00
 -1      1293 5.65240E+01 4.30047E+01 0.00000E+00
 -1      1294 5.77956E+01 4.23025E+01 0.00000E+00
 -1      1295 5.89153E+01 4.13310E+01 0.00000E+00
 -1      1296 5.98176E+01 4.01249E+01 0.00000E+00
 -1      1297 6.04447E+01 3.87426E+01 0.00000E+00
 -1      1298 6.07566E+01 3.72809E+01 0.00000E+00
 -1      1299 1.50000E+00 4.85250E+01 0.00000E+00
 -1      1300 1.29900E+00 4.48375E+01 0.00000E+00
 -1      1301 1.29900E+00 4.63125E+01 0.00000E+00
 -1      1302 1.29900E+00 4.18875E+01 0.00000E+00
 -1      1303 1.29900E+00 4.33625E+01 0.00000E+00
 -1      1304 2.59800E+00 4.41000E+01 0.00000E+00
 -1      1305 1.29900E+00 3.89375E+01 0.00000E+00
 -1      1306 1.29900E+00 4.04125E+01 0.00000E+00
 -1      1307 2.59800E+00 4.11500E+01 0.00000E+00
 -1      1308 1.29900E+00 3.59875E+01 0.00000E+00
 -1      1309 1.29900E+00 3.74625E+01 0.00000E+00
 -1      1310 2.59800E+00 3.82000E+01 0.00000E+00
 -1      1311 1.29900E+00 3.30875E+01 0.00000E+00
 -1      1312 1.29900E+00 3.45375E+01 0.00000E+00
 -1      1313 2.59800E+00 3.52750E+01 0.00000E+00
 -1      1314 1.29900E+00 3.01375E+01 0.00000E+00
 -1      1315 1.29900E+00 3.16125E+01 0.00000E+00
 -1      1316 2.59800E+00 3.23500E+01 0.00000E+00
 -1      1317 1.29900E+00 2.71875E+01 0.00000E+00
 -1      1318 1.29900E+00 2.86625E+01 0.00000E+00
 -1      1319 2.59800E+00 2.94000E+01 0.00000E+00
 -1      1320 1.29900E+00 2.42375E+01 0.00000E+00
 -1      1321 1.29900E+00 2.57125E+01 0.00000E+00
 -1      1322 2.59800E+00 2.64500E+01 0.00000E+00
 -1      1323 1.29900E+00 2.12875E+01 0.00000E+00
 -1      1324 1.29900E+00 2.27625E+01 0.00000E+00
 -1      1325 2.59800E+00 2.35000E+01 0.00000E+00
 -1      1326 1.29900E+00 1.83375E+01 0.00000E+00
 -1      1327 1.29900E+00 1.98125E+01 0.00000E+00
 -1      1328 2.59800E+00 2.05500E+01 0.00000E+00
 -1      1329 1.29900E+00 1.54375E+01 0.00000E+00
 -1      1330 1.29900E+00 1.68875E+01 0.00000E+00
 -1      1331 2.59800E+00 1.76250E+01 0.00000E+00
 -1      1332 1.29900E+00 1.24875E+01 0.00000E+00
 -1      1333 1.29900E+00 1.39625E+01 0.00000E+00
 -1      1334 2.59800E+00 1.47000E+01 0.00000E+00
 -1      1335 1.29900E+00 9.53750E+00 0.00000E+00
 -1      1336 1.29900E+00 1.10125E+01 0.00000E+00
 -1      1337 2.59800E+00 1.17500E+01 0.00000E+00
 -1      1338 1.29900E+00 6.58750E+00 0.00000E+00
 -1      1339 1.29900E+00 8.06250E+00 0.00000E+00
 -1      1340 2.59800E+00 8.80000E+00 0.00000E+00
 -1      1341 1.29900E+00 3.63750E+00 0.00000E+00
 -1      1342 1.29900E+00 5.11250E+00 0.00000E+00
 -1      1343 2.59800E+00 5.85000E+00 0.00000E+00
 -1      1344 1.43700E+00 1.09375E+00 0.00000E+00
 -1      1345 1.43700E+00 2.54375E+00 0.00000E+00
 -1      1346 2.73600E+00 3.28125E+00 0.00000E+00
 -1      1347 3.01200E+00 1.09375E+00 0.00000E+00
 -1      1348 3.75000E+00 4.87010E+01 0.00000E+00
 -1      1349 5.25000E+00 4.87010E+01 0.00000E+00
 -1      1350 6.75000E+00 4.87010E+01 0.00000E+00
 -1      1351 8.25000E+00 4.87010E+01 0.00000E+00
 -1      1352 6.00000E+00 4.74020E+01 0.00000E+00
 -1      1353 9.75000E+00 4.87010E+01 0.00000E+00
 -1      1354 1.12500E+01 4.87010E+01 0.00000E+00
 -1      1355 9.00000E+00 4.74020E+01 0.00000E+00
 -1      1356 1.27500E+01 4.87010E+01 0.00000E+00
 -1      1357 1.42500E+01 4.87010E+01 0.00000E+00
 -1      1358 1.20000E+01 4.74020E+01 0.00000E+00
 -1      1359 1.56750E+01 4.87010E+01 0.00000E+00
 -1      1360 1.71000E+01 4.87010E+01 0.00000E+00
 -1      1361 1.49250E+01 4.74020E+01 0.00000E+00
 -1      1362 1.86000E+01 4.87010E+01 0.00000E+00
 -1      1363 2.01000E+01 4.87010E+01 0.00000E+00
 -1      1364 1.78500E+01 4.74020E+01 0.00000E+00
 -1      1365 2.16000E+01 4.87010E+01 0.00000E+00
 -1      1366 2.31000E+01 4.87010E+01 0.00000E+00
 -1      1367 2.08500E+01 4.74020E+01 0.00000E+00
 -1      1368 2.46000E+01 4.87010E+01 0.00000E+00
 -1      1369 2.61000E+01 4.87010E+01 0.00000E+00
 -1      1370 2.38500E+01 4.74020E+01 0.00000E+00
 -1      1371 2.76000E+01 4.87010E+01 0.00000E+00
 -1      1372 2.91000E+01 4.87010E+01 0.00000E+00
 -1      1373 2.68500E+01 4.74020E+01 0.00000E+00
 -1      1374 3.06000E+01 4.87010E+01 0.00000E+00
 -1      1375 3.21000E+01 4.87010E+01 0.00000E+00
 -1      1376 2.98500E+01 4.74020E+01 0.00000E+00
 -1      1377 3.35250E+01 4.87010E+01 0.00000E+00
 -1      1378 3.49500E+01 4.87010E+01 0.00000E+00
 -1      1379 3.27750E+01 4.74020E+01 0.00000E+00
 -1      1380 3.64500E+01 4.87010E+01 0.00000E+00
 -1      1381 3.79500E+01 4.87010E+01 0.00000E+00
 -1      1382 3.57000E+01 4.74020E+01 0.00000E+00
 -1      1383 3.94500E+01 4.87010E+01 0.00000E+00
 -1      1384 4.09500E+01 4.87010E+01 0.00000E+00
 -1      1385 3.87000E+01 4.74020E+01 0.00000E+00
 -1      1386 4.24500E+01 4.87010E+01 0.00000E+00
 -1      1387 4.39500E+01 4.87010E+01 0.00000E+00
 -1      1388 4.17000E+01 4.74020E+01 0.00000E+00
 -1      1389 4.53000E+01 4.87010E+01 0.00000E+00
 -1      1390 4.66500E+01 4.87010E+01 0.00000E+00
 -1      1391 4.45500E+01 4.74020E+01 0.00000E+00
 -1      1392 4.78500E+01 4.87010E+01 0.00000E+00
 -1      1393 4.90500E+01 4.87010E+01 0.00000E+00
 -1      1394 4.71000E+01 4.74020E+01 0.00000E+00
 -1      1395 5.04750E+01 4.87010E+01 0.00000E+00
 -1      1396 5.19000E+01 4.87010E+01 0.00000E+00
 -1      1397 4.97250E+01 4.74020E+01 0.00000E+00
 -1      1398 5.31750E+01 4.87010E+01 0.00000E+00
 -1      1399 5.44500E+01 4.87010E+01 0.00000E+00
 -1      1400 5.24250E+01 4.74020E+01 0.00000E+00
 -1      1401 5.58750E+01 4.87010E+01 0.00000E+00
 -1      1402 5.73000E+01 4.87010E+01 0.00000E+00
 -1      1403 5.51250E+01 4.74020E+01 0.00000E+00
 -1      1404 5.87250E+01 4.87010E+01 0.00000E+00
 -1      1405 6.01500E+01 4.87010E+01 0.00000E+00
 -1      1406 5.79750E+01 4.74020E+01 0.00000E+00
 -1      1407 6.16500E+01 4.87010E+01 0.00000E+00
 -1      1408 6.31500E+01 4.87010E+01 0.00000E+00
 -1      1409 6.09000E+01 4.74020E+01 0.00000E+00
 -1      1410 6.45750E+01 4.87010E+01 0.00000E+00
 -1      1411 6.60000E+01 4.87010E+01 0.00000E+00
 -1      1412 6.38250E+01 4.74020E+01 0.00000E+00
 -1      1413 6.75000E+01 4.87010E+01 0.00000E+00
 -1      1414 6.90000E+01 4.87010E+01 0.00000E+00
 -1      1415 6.67500E+01 4.74020E+01 0.00000E+00
 -1      1416 7.05000E+01 4.87010E+01 0.00000E+00
 -1      1417 7.20000E+01 4.87010E+01 0.00000E+00
 -1      1418 6.97500E+01 4.74020E+01 0.00000E+00
 -1      1419 7.35000E+01 4.87010E+01 0.00000E+00
 -1      1420 7.50000E+01 4.87010E+01 0.00000E+00
 -1      1421 7.27500E+01 4.74020E+01 0.00000E+00
 -1      1422 7.65000E+01 4.87010E+01 0.00000E+00
 -1      1423 7.80000E+01 4.87010E+01 0.00000E+00
 -1      1424 7.57500E+01 4.74020E+01 0.00000E+00
 -1      1425 7.95000E+01 4.87010E+01 0.00000E+00
 -1      1426 8.10000E+01 4.87010E+01 0.00000E+00
 -1      1427 7.87500E+01 4.74020E+01 0.00000E+00
 -1      1428 8.24250E+01 4.87010E+01 0.00000E+00
 -1      1429 8.38500E+01 4.87010E+01 0.00000E+00
 -1      1430 8.16750E+01 4.74020E+01 0.00000E+00
 -1      1431 8.53500E+01 4.87010E+01 0.00000E+00
 -1      1432 8.68500E+01 4.87010E+01 0.00000E+00
 -1      1433 8.46000E+01 4.74020E+01 0.00000E+00
 -1      1434 8.83500E+01 4.87010E+01 0.00000E+00
 -1      1435 8.98500E+01 4.87010E+01 0.00000E+00
 -1      1436 8.76000E+01 4.74020E+01 0.00000E+00
 -1      1437 9.13500E+01 4.87010E+01 0.00000E+00
 -1      1438 9.28500E+01 4.87010E+01 0.00000E+00
 -1      1439 9.06000E+01 4.74020E+01 0.00000E+00
 -1      1440 9.43500E+01 4.87010E+01 0.00000E+00
 -1      1441 9.58500E+01 4.87010E+01 0.00000E+00
 -1      1442 9.36000E+01 4.74020E+01 0.00000E+00
 -1      1443 9.72750E+01 4.87010E+01 0.00000E+00
 -1      1444 9.87000E+01 4.87010E+01 0.00000E+00
 -1      1445 9.65250E+01 4.74020E+01 0.00000E+00
 -1      1446 1.00200E+02 4.87010E+01 0.00000E+00
 -1      1447 1.01700E+02 4.87010E+01 0.00000E+00
 -1      1448 9.94500E+01 4.74020E+01 0.00000E+00
 -1      1449 1.03200E+02 4.87010E+01 0.00000E+00
 -1      1450 1.04700E+02 4.87010E+01 0.00000E+00
 -1      1451 1.02450E+02 4.74020E+01 0.00000E+00
 -1      1452 1.06200E+02 4.87010E+01 0.00000E+00
 -1      1453 1.07700E+02 4.87010E+01 0.00000E+00
 -1      1454 1.05450E+02 4.74020E+01 0.00000E+00
 -1      1455 1.09200E+02 4.87010E+01 0.00000E+00
 -1      1456 1.10700E+02 4.87010E+01 0.00000E+00
 -1      1457 1.08450E+02 4.74020E+01 0.00000E+00
 -1      1458 1.12200E+02 4.87010E+01 0.00000E+00
 -1      1459 1.13700E+02 4.87010E+01 0.00000E+00
 -1      1460 1.11450E+02 4.74020E+01 0.00000E+00
 -1      1461 1.15125E+02 4.87010E+01 0.00000E+00
 -1      1462 1.16550E+02 4.87010E+01 0.00000E+00
 -1      1463 1.14375E+02 4.74020E+01 0.00000E+00
 -1      1464 1.18050E+02 4.87010E+01 0.00000E+00
 -1      1465 1.19550E+02 4.87010E+01 0.00000E+00
 -1      1466 1.17300E+02 4.74020E+01 0.00000E+00
 -1      1467 1.21050E+02 4.87010E+01 0.00000E+00
 -1      1468 1.22550E+02 4.87010E+01 0.00000E+00
 -1      1469 1.20300E+02 4.74020E+01 0.00000E+00
 -1      1470 1.24050E+02 4.87010E+01 0.00000E+00
 -1      1471 1.25550E+02 4.87010E+01 0.00000E+00
 -1      1472 1.23300E+02 4.74020E+01 0.00000E+00
 -1      1473 1.27050E+02 4.87010E+01 0.00000E+00
 -1      1474 1.28550E+02 4.87010E+01 0.00000E+00
 -1      1475 1.26300E+02 4.74020E+01 0.00000E+00
 -1      1476 1.30050E+02 4.87010E+01 0.00000E+00
 -1      1477 1.31550E+02 4.87010E+01 0.00000E+00
 -1      1478 1.29300E+02 4.74020E+01 0.00000E+00
 -1      1479 1.32975E+02 4.87010E+01 0.00000E+00
 -1      1480 1.34400E+02 4.87010E+01 0.00000E+00
 -1      1481 1.32225E+02 4.74020E+01 0.00000E+00
 -1      1482 1.35900E+02 4.87010E+01 0.00000E+00
 -1      1483 1.37400E+02 4.87010E+01 0.00000E+00
 -1      1484 1.35150E+02 4.74020E+01 0.00000E+00
 -1      1485 1.38900E+02 4.87010E+01 0.00000E+00
 -1      1486 1.40400E+02 4.87010E+01 0.00000E+00
 -1      1487 1.38150E+02 4.74020E+01 0.00000E+00
 -1      1488 1.41900E+02 4.87010E+01 0.00000E+00
 -1      1489 1.43400E+02 4.87010E+01 0.00000E+00
 -1      1490 1.41150E+02 4.74020E+01 0.00000E+00
 -1      1491 1.44900E+02 4.87010E+01 0.00000E+00
 -1      1492 1.46400E+02 4.87010E+01 0.00000E+00
 -1      1493 1.44150E+02 4.74020E+01 0.00000E+00
 -1      1494 1.48575E+02 4.85500E+01 0.00000E+00
 -1      1495 6.01200E+00 1.09375E+00 0.00000E+00
 -1      1496 4.51200E+00 1.09375E+00 0.00000E+00
 -1      1497 4.37400E+00 2.18750E+00 0.00000E+00
 -1      1498 9.01200E+00 1.09375E+00 0.00000E+00
 -1      1499 7.51200E+00 1.09375E+00 0.00000E+00
 -1      1500 7.37400E+00 2.18750E+00 0.00000E+00
 -1      1501 1.20120E+01 1.09375E+00 0.00000E+00
 -1      1502 1.05120E+01 1.09375E+00 0.00000E+00
 -1      1503 1.03740E+01 2.18750E+00 0.00000E+00
 -1      1504 1.50120E+01 1.09375E+00 0.00000E+00
 -1      1505 1.35120E+01 1.09375E+00 0.00000E+00
 -1      1506 1.33740E+01 2.18750E+00 0.00000E+00
 -1      1507 1.80120E+01 1.09375E+00 0.00000E+00
 -1      1508 1.65120E+01 1.09375E+00 0.00000E+00
 -1      1509 1.63740E+01 2.18750E+00 0.00000E+00
 -1      1510 2.10120E+01 1.09375E+00 0.00000E+00
 -1      1511 1.95120E+01 1.09375E+00 0.00000E+00
 -1      1512 1.93740E+01 2.18750E+00 0.00000E+00
 -1      1513 2.40120E+01 1.09375E+00 0.00000E+00
 -1      1514 2.25120E+01 1.09375E+00 0.00000E+00
 -1      1515 2.23740E+01 2.18750E+00 0.00000E+00
 -1      1516 2.70120E+01 1.09375E+00 0.00000E+00
 -1      1517 2.55120E+01 1.09375E+00 0.00000E+00
 -1      1518 2.53740E+01 2.18750E+00 0.00000E+00
 -1      1519 3.00120E+01 1.09375E+00 0.00000E+00
 -1      1520 2.85120E+01 1.09375E+00 0.00000E+00
 -1      1521 2.83740E+01 2.18750E+00 0.00000E+00
 -1      1522 3.30120E+01 1.09375E+00 0.00000E+00
 -1      1523 3.15120E+01 1.09375E+00 0.00000E+00
 -1      1524 3.13740E+01 2.18750E+00 0.00000E+00
 -1      1525 3.60120E+01 1.09375E+00 0.00000E+00
 -1      1526 3.45120E+01 1.09375E+00 0.00000E+00
 -1      1527 3.43740E+01 2.18750E+00 0.00000E+00
 -1      1528 3.90120E+01 1.09375E+00 0.00000E+00
 -1      1529 3.75120E+01 1.09375E+00 0.00000E+00
 -1      1530 3.73740E+01 2.18750E+00 0.00000E+00
 -1      1531 4.20120E+01 1.09375E+00 0.00000E+00
 -1      1532 4.05120E+01 1.09375E+00 0.00000E+00
 -1      1533 4.03740E+01 2.18750E+00 0.00000E+00
 -1      1534 4.50120E+01 1.09375E+00 0.00000E+00
 -1      1535 4.35120E+01 1.09375E+00 0.00000E+00
 -1      1536 4.33740E+01 2.18750E+00 0.00000E+00
 -1      1537 4.80120E+01 1.09375E+00 0.00000E+00
 -1      1538 4.65120E+01 1.09375E+00 0.00000E+00
 -1      1539 4.63740E+01 2.18750E+00 0.00000E+00
 -1      1540 5.10120E+01 1.09375E+00 0.00000E+00
 -1      1541 4.95120E+01 1.09375E+00 0.00000E+00
 -1      1542 4.93740E+01 2.18750E+00 0.00000E+00
 -1      1543 5.40120E+01 1.09375E+00 0.00000E+00
 -1      1544 5.25120E+01 1.09375E+00 0.00000E+00
 -1      1545 5.23740E+01 2.18750E+00 0.00000E+00
 -1      1546 5.70120E+01 1.09375E+00 0.00000E+00
 -1      1547 5.55120E+01 1.09375E+00 0.00000E+00
 -1      1548 5.53740E+01 2.18750E+00 0.00000E+00
 -1      1549 6.00120E+01 1.09375E+00 0.00000E+00
 -1      1550 5.85120E+01 1.09375E+00 0.00000E+00
 -1      1551 5.83740E+01 2.18750E+00 0.00000E+00
 -1      1552 6.30120E+01 1.09375E+00 0.00000E+00
 -1      1553 6.15120E+01 1.09375E+00 0.00000E+00
 -1      1554 6.13740E+01 2.18750E+00 0.00000E+00
 -1      1555 6.60120E+01 1.09375E+00 0.00000E+00
 -1      1556 6.45120E+01 1.09375E+00 0.00000E+00
 -1      1557 6.43740E+01 2.18750E+00 0.00000E+00
 -1      1558 6.90120E+01 1.09375E+00 0.00000E+00
 -1      1559 6.75120E+01 1.09375E+00 0.00000E+00
 -1      1560 6.73740E+01 2.18750E+00 0.00000E+00
 -1      1561 7.20120E+01 1.09375E+00 0.00000E+00
 -1      1562 7.05120E+01 1.09375E+00 0.00000E+00
 -1      1563 7.03740E+01 2.18750E+00 0.00000E+00
 -1      1564 7.50120E+01 1.09375E+00 0.00000E+00
 -1      1565 7.35120E+01 1.09375E+00 0.00000E+00
 -1      1566 7.33740E+01 2.18750E+00 0.00000E+00
 -1      1567 7.80120E+01 1.09375E+00 0.00000E+00
 -1      1568 7.65120E+01 1.09375E+00 0.00000E+00
 -1      1569 7.63740E+01 2.18750E+00 0.00000E+00
 -1      1570 8.10120E+01 1.09375E+00 0.00000E+00
 -1      1571 7.95120E+01 1.09375E+00 0.00000E+00
 -1      1572 7.93740E+01 2.18750E+00 0.00000E+00
 -1      1573 8.40120E+01 1.09375E+00 0.00000E+00
 -1      1574 8.25120E+01 1.09375E+00 0.00000E+00
 -1      1575 8.23740E+01 2.18750E+00 0.00000E+00
 -1      1576 8.70120E+01 1.09375E+00 0.00000E+00
 -1      1577 8.55120E+01 1.09375E+00 0.00000E+00
 -1      1578 8.53740E+01 2.18750E+00 0.00000E+00
 -1      1579 9.00120E+01 1.09375E+00 0.00000E+00
 -1      1580 8.85120E+01 1.09375E+00 0.00000E+00
 -1      1581 8.83740E+01 2.18750E+00 0.00000E+00
 -1      1582 9.30120E+01 1.09375E+00 0.00000E+00
 -1      1583 9.15120E+01 1.09375E+00 0.00000E+00
 -1      1584 9.13740E+01 2.18750E+00 0.00000E+00
 -1      1585 9.60120E+01 1.09375E+00 0.00000E+00
 -1      1586 9.45120E+01 1.09375E+00 0.00000E+00
 -1      1587 9.43740E+01 2.18750E+00 0.00000E+00
 -1      1588 9.90120E+01 1.09375E+00 0.00000E+00
 -1      1589 9.75120E+01 1.09375E+00 0.00000E+00
 -1      1590 9.73740E+01 2.18750E+00 0.00000E+00
 -1      1591 1.02012E+02 1.09375E+00 0.00000E+00
 -1      1592 1.00512E+02 1.09375E+00 0.00000E+00
 -1      1593 1.00374E+02 2.18750E+00 0.00000E+00
 -1      1594 1.05012E+02 1.09375E+00 0.00000E+00
 -1      1595 1.03512E+02 1.09375E+00 0.00000E+00
 -1      1596 1.03374E+02 2.18750E+00 0.00000E+00
 -1      1597 1.08012E+02 1.09375E+00 0.00000E+00
 -1      1598 1.06512E+02 1.09375E+00 0.00000E+00
 -1      1599 1.06374E+02 2.18750E+00 0.00000E+00
 -1      1600 1.11012E+02 1.09375E+00 0.00000E+00
 -1      1601 1.09512E+02 1.09375E+00 0.00000E+00
 -1      1602 1.09374E+02 2.18750E+00 0.00000E+00
 -1      1603 1.14012E+02 1.09375E+00 0.00000E+00
 -1      1604 1.12512E+02 1.09375E+00 0.00000E+00
 -1      1605 1.12374E+02 2.18750E+00 0.00000E+00
 -1      1606 1.17012E+02 1.09375E+00 0.00000E+00
 -1      1607 1.15512E+02 1.09375E+00 0.00000E+00
 -1      1608 1.15374E+02 2.18750E+00 0.00000E+00
 -1      1609 1.20012E+02 1.09375E+00 0.00000E+00
 -1      1610 1.18512E+02 1.09375E+00 0.00000E+00
 -1      1611 1.18374E+02 2.18750E+00 0.00000E+00
 -1      1612 1.23012E+02 1.09375E+00 0.00000E+00
 -1      1613 1.21512E+02 1.09375E+00 0.00000E+00
 -1      1614 1.21374E+02 2.18750E+00 0.00000E+00
 -1      1615 1.26012E+02 1.09375E+00 0.00000E+00
 -1      1616 1.24512E+02 1.09375E+00 0.00000E+00
 -1      1617 1.24374E+02 2.18750E+00 0.00000E+00
 -1      1618 1.29012E+02 1.09375E+00 0.00000E+00
 -1      1619 1.27512E+02 1.09375E+00 0.00000E+00
 -1      1620 1.27374E+02 2.18750E+00 0.00000E+00
 -1      1621 1.32012E+02 1.09375E+00 0.00000E+00
 -1      1622 1.30512E+02 1.09375E+00 0.00000E+00
 -1      1623 1.30374E+02 2.18750E+00 0.00000E+00
 -1      1624 1.35012E+02 1.09375E+00 0.00000E+00
 -1      1625 1.33512E+02 1.09375E+00 0.00000E+00
 -1      1626 1.33374E+02 2.18750E+00 0.00000E+00
 -1      1627 1.38012E+02 1.09375E+00 0.00000E+00
 -1      1628 1.36512E+02 1.09375E+00 0.00000E+00
 -1      1629 1.36374E+02 2.18750E+00 0.00000E+00
 -1      1630 1.41012E+02 1.09375E+00 0.00000E+00
 -1      1631 1.39512E+02 1.09375E+00 0.00000E+00
 -1      1632 1.39374E+02 2.18750E+00 0.00000E+00
 -1      1633 1.44012E+02 1.09375E+00 0.00000E+00
 -1      1634 1.42512E+02 1.09375E+00 0.00000E+00
 -1      1635 1.42374E+02 2.18750E+00 0.00000E+00
 -1      1636 1.47012E+02 1.09375E+00 0.00000E+00
 -1      1637 1.45512E+02 1.09375E+00 0.00000E+00
 -1      1638 1.45374E+02 2.18750E+00 0.00000E+00
 -1      1639 1.48575E+02 1.47500E+00 0.00000E+00
 -1      1640 1.48701E+02 5.16250E+00 0.00000E+00
 -1      1641 1.48701E+02 3.68750E+00 0.00000E+00
 -1      1642 1.48701E+02 8.11250E+00 0.00000E+00
 -1      1643 1.48701E+02 6.63750E+00 0.00000E+00
 -1      1644 1.47402E+02 5.90000E+00 0.00000E+00
 -1      1645 1.48701E+02 1.10625E+01 0.00000E+00
 -1      1646 1.48701E+02 9.58750E+00 0.00000E+00
 -1      1647 1.47402E+02 8.85000E+00 0.00000E+00
 -1      1648 1.48701E+02 1.40125E+01 0.00000E+00
 -1      1649 1.48701E+02 1.25375E+01 0.00000E+00
 -1      1650 1.47402E+02 1.18000E+01 0.00000E+00
 -1      1651 1.48701E+02 1.69125E+01 0.00000E+00
 -1      1652 1.48701E+02 1.54625E+01 0.00000E+00
 -1      1653 1.47402E+02 1.47250E+01 0.00000E+00
 -1      1654 1.48701E+02 1.98625E+01 0.00000E+00
 -1      1655 1.48701E+02 1.83875E+01 0.00000E+00
 -1      1656 1.47402E+02 1.76500E+01 0.00000E+00
 -1      1657 1.48701E+02 2.28125E+01 0.00000E+00
 -1      1658 1.48701E+02 2.13375E+01 0.00000E+00
 -1      1659 1.47402E+02 2.06000E+01 0.00000E+00
 -1      1660 1.48701E+02 2.57625E+01 0.00000E+00
 -1      1661 1.48701E+02 2.42875E+01 0.00000E+00
 -1      1662 1.47402E+02 2.35500E+01 0.00000E+00
 -1      1663 1.48701E+02 2.87125E+01 0.00000E+00
 -1      1664 1.48701E+02 2.72375E+01 0.00000E+00
 -1      1665 1.47402E+02 2.65000E+01 0.00000E+00
 -1      1666 1.48701E+02 3.16625E+01 0.00000E+00
 -1      1667 1.48701E+02 3.01875E+01 0.00000E+00
 -1      1668 1.47402E+02 2.94500E+01 0.00000E+00
 -1      1669 1.48701E+02 3.45625E+01 0.00000E+00
 -1      1670 1.48701E+02 3.31125E+01 0.00000E+00
 -1      1671 1.47402E+02 3.23750E+01 0.00000E+00
 -1      1672 1.48701E+02 3.75125E+01 0.00000E+00
 -1      1673 1.48701E+02 3.60375E+01 0.00000E+00
 -1      1674 1.47402E+02 3.53000E+01 0.00000E+00
 -1      1675 1.48701E+02 4.04625E+01 0.00000E+00
 -1      1676 1.48701E+02 3.89875E+01 0.00000E+00
 -1      1677 1.47402E+02 3.82500E+01 0.00000E+00
 -1      1678 1.48701E+02 4.34125E+01 0.00000E+00
 -1      1679 1.48701E+02 4.19375E+01 0.00000E+00
 -1      1680 1.47402E+02 4.12000E+01 0.00000E+00
 -1      1681 6.12826E+01 3.54065E+01 0.00000E+00
 -1      1682 6.13587E+01 3.61327E+01 0.00000E+00
 -1      1683 6.09179E+01 3.37575E+01 0.00000E+00
 -1      1684 6.11699E+01 3.45110E+01 0.00000E+00
 -1      1685 6.01243E+01 3.23909E+01 0.00000E+00
 -1      1686 6.04805E+01 3.29902E+01 0.00000E+00
 -1      1687 5.91494E+01 3.10308E+01 0.00000E+00
 -1      1688 5.96903E+01 3.16117E+01 0.00000E+00
 -1      1689 5.77422E+01 3.00952E+01 0.00000E+00
 -1      1690 5.83707E+01 3.05239E+01 0.00000E+00
 -1      1691 5.63081E+01 2.93676E+01 0.00000E+00
 -1      1692 5.69891E+01 2.96432E+01 0.00000E+00
 -1      1693 5.46770E+01 2.88709E+01 0.00000E+00
 -1      1694 5.54604E+01 2.90019E+01 0.00000E+00
 -1      1695 5.30521E+01 2.90176E+01 0.00000E+00
 -1      1696 5.37687E+01 2.89813E+01 0.00000E+00
 -1      1697 5.13852E+01 2.92933E+01 0.00000E+00
 -1      1698 5.21563E+01 2.90817E+01 0.00000E+00
 -1      1699 4.97747E+01 2.99452E+01 0.00000E+00
 -1      1700 5.04680E+01 2.95709E+01 0.00000E+00
 -1      1701 4.86080E+01 3.10315E+01 0.00000E+00
 -1      1702 4.91371E+01 3.05789E+01 0.00000E+00
 -1      1703 4.73650E+01 3.22583E+01 0.00000E+00
 -1      1704 4.78673E+01 3.15888E+01 0.00000E+00
 -1      1705 4.66881E+01 3.38143E+01 0.00000E+00
 -1      1706 4.69896E+01 3.31345E+01 0.00000E+00
 -1      1707 4.61759E+01 3.54721E+01 0.00000E+00
 -1      1708 4.63331E+01 3.46743E+01 0.00000E+00
 -1      1709 4.62348E+01 3.70962E+01 0.00000E+00
 -1      1710 4.62178E+01 3.63834E+01 0.00000E+00
 -1      1711 4.64486E+01 3.87220E+01 0.00000E+00
 -1      1712 4.62685E+01 3.79737E+01 0.00000E+00
 -1      1713 4.71568E+01 4.02106E+01 0.00000E+00
 -1      1714 4.68286E+01 3.95371E+01 0.00000E+00
 -1      1715 4.80951E+01 4.15489E+01 0.00000E+00
 -1      1716 4.76253E+01 4.09548E+01 0.00000E+00
 -1      1717 4.92760E+01 4.26408E+01 0.00000E+00
 -1      1718 4.87059E+01 4.21725E+01 0.00000E+00
 -1      1719 5.06754E+01 4.34622E+01 0.00000E+00
 -1      1720 5.00045E+01 4.31179E+01 0.00000E+00
 -1      1721 5.21903E+01 4.40064E+01 0.00000E+00
 -1      1722 5.14772E+01 4.38162E+01 0.00000E+00
 -1      1723 5.39279E+01 4.41683E+01 0.00000E+00
 -1      1724 5.31027E+01 4.41380E+01 0.00000E+00
 -1      1725 5.55816E+01 4.39204E+01 0.00000E+00
 -1      1726 5.48459E+01 4.40609E+01 0.00000E+00
 -1      1727 5.70822E+01 4.33851E+01 0.00000E+00
 -1      1728 5.64088E+01 4.36703E+01 0.00000E+00
 -1      1729 5.84167E+01 4.25631E+01 0.00000E+00
 -1      1730 5.78249E+01 4.29755E+01 0.00000E+00
 -1      1731 5.96492E+01 4.14946E+01 0.00000E+00
 -1      1732 5.91303E+01 4.20515E+01 0.00000E+00
 -1      1733 6.05309E+01 4.01142E+01 0.00000E+00
 -1      1734 6.01513E+01 4.07554E+01 0.00000E+00
 -1      1735 6.11403E+01 3.85642E+01 0.00000E+00
 -1      1736 6.08993E+01 3.92985E+01 0.00000E+00
 -1      1737 6.13597E+01 3.69805E+01 0.00000E+00
 -1      1738 6.12853E+01 3.76985E+01 0.00000E+00
 -1      1739 1.47825E+02 4.72510E+01 0.00000E+00
 -1      1740 6.12609E+01 3.31481E+01 0.00000E+00
 -1      1741 1.48437E+02 2.56875E+00 0.00000E+00
 -1      1742 1.47138E+02 3.30625E+00 0.00000E+00
 -1      1743 6.19245E+01 3.65542E+01 0.00000E+00
 -1      1744 6.18109E+01 3.48109E+01 0.00000E+00
 -1      1745 1.48701E+02 4.63625E+01 0.00000E+00
 -1      1746 1.48701E+02 4.48875E+01 0.00000E+00
 -1      1747 1.47402E+02 4.41500E+01 0.00000E+00
 -1      1748 6.03895E+01 3.16017E+01 0.00000E+00
 -1      1749 5.91768E+01 3.03156E+01 0.00000E+00
 -1      1750 5.76449E+01 2.93567E+01 0.00000E+00
 -1      1751 5.60440E+01 2.85389E+01 0.00000E+00
 -1      1752 5.42880E+01 2.82836E+01 0.00000E+00
 -1      1753 5.24839E+01 2.84581E+01 0.00000E+00
 -1      1754 5.06709E+01 2.87997E+01 0.00000E+00
 -1      1755 4.91161E+01 2.97108E+01 0.00000E+00
 -1      1756 4.77379E+01 3.09018E+01 0.00000E+00
 -1      1757 4.66218E+01 3.23354E+01 0.00000E+00
 -1      1758 4.58914E+01 3.40717E+01 0.00000E+00
 -1      1759 4.55783E+01 3.58430E+01 0.00000E+00
 -1      1760 4.56540E+01 3.76318E+01 0.00000E+00
 -1      1761 4.60678E+01 3.93243E+01 0.00000E+00
 -1      1762 4.69163E+01 4.08836E+01 0.00000E+00
 -1      1763 4.79955E+01 4.22514E+01 0.00000E+00
 -1      1764 4.93347E+01 4.33522E+01 0.00000E+00
 -1      1765 5.08650E+01 4.41835E+01 0.00000E+00
 -1      1766 5.25792E+01 4.46692E+01 0.00000E+00
 -1      1767 5.44095E+01 4.46935E+01 0.00000E+00
 -1      1768 5.61547E+01 4.43360E+01 0.00000E+00
 -1      1769 5.77247E+01 4.36763E+01 0.00000E+00
 -1      1770 5.91810E+01 4.27551E+01 0.00000E+00
 -1      1771 6.03967E+01 4.15042E+01 0.00000E+00
 -1      1772 6.12672E+01 3.99492E+01 0.00000E+00
 -1      1773 6.17805E+01 3.82678E+01 0.00000E+00
 -1      1774 2.79900E+00 4.77875E+01 0.00000E+00
 -1      1775 3.89700E+00 4.04125E+01 0.00000E+00
 -1      1776 3.89700E+00 4.18875E+01 0.00000E+00
 -1      1777 3.89700E+00 4.33625E+01 0.00000E+00
 -1      1778 3.89700E+00 4.48375E+01 0.00000E+00
 -1      1779 5.19600E+00 4.26250E+01 0.00000E+00
 -1      1780 3.89700E+00 3.45500E+01 0.00000E+00
 -1      1781 3.89700E+00 3.60000E+01 0.00000E+00
 -1      1782 3.89700E+00 3.16000E+01 0.00000E+00
 -1      1783 3.89700E+00 3.30750E+01 0.00000E+00
 -1      1784 5.19600E+00 3.38000E+01 0.00000E+00
 -1      1785 3.89700E+00 2.86500E+01 0.00000E+00
 -1      1786 3.89700E+00 3.01250E+01 0.00000E+00
 -1      1787 5.19600E+00 3.08500E+01 0.00000E+00
 -1      1788 3.89700E+00 2.57000E+01 0.00000E+00
 -1      1789 3.89700E+00 2.71750E+01 0.00000E+00
 -1      1790 5.19600E+00 2.79000E+01 0.00000E+00
 -1      1791 3.89700E+00 2.27500E+01 0.00000E+00
 -1      1792 3.89700E+00 2.42250E+01 0.00000E+00
 -1      1793 5.19600E+00 2.49500E+01 0.00000E+00
 -1      1794 3.89700E+00 1.98000E+01 0.00000E+00
 -1      1795 3.89700E+00 2.12750E+01 0.00000E+00
 -1      1796 5.19600E+00 2.20000E+01 0.00000E+00
 -1      1797 3.89700E+00 1.69000E+01 0.00000E+00
 -1      1798 3.89700E+00 1.83500E+01 0.00000E+00
 -1      1799 5.19600E+00 1.90750E+01 0.00000E+00
 -1      1800 3.89700E+00 1.39500E+01 0.00000E+00
 -1      1801 3.89700E+00 1.54250E+01 0.00000E+00
 -1      1802 5.19600E+00 1.61500E+01 0.00000E+00
 -1      1803 3.89700E+00 1.10000E+01 0.00000E+00
 -1      1804 3.89700E+00 1.24750E+01 0.00000E+00
 -1      1805 5.19600E+00 1.32000E+01 0.00000E+00
 -1      1806 3.89700E+00 8.05000E+00 0.00000E+00
 -1      1807 3.89700E+00 9.52500E+00 0.00000E+00
 -1      1808 5.19600E+00 1.02500E+01 0.00000E+00
 -1      1809 3.89700E+00 5.10000E+00 0.00000E+00
 -1      1810 3.89700E+00 6.57500E+00 0.00000E+00
 -1      1811 5.19600E+00 7.30000E+00 0.00000E+00
 -1      1812 4.20450E+00 3.09687E+00 0.00000E+00
 -1      1813 4.06650E+00 4.19063E+00 0.00000E+00
 -1      1814 5.36550E+00 4.91563E+00 0.00000E+00
 -1      1815 5.70450E+00 3.09687E+00 0.00000E+00
 -1      1816 3.54900E+00 4.64885E+01 0.00000E+00
 -1      1817 8.70450E+00 3.09687E+00 0.00000E+00
 -1      1818 7.20450E+00 3.09687E+00 0.00000E+00
 -1      1819 7.03500E+00 4.00625E+00 0.00000E+00
 -1      1820 8.25000E+00 4.61030E+01 0.00000E+00
 -1      1821 9.75000E+00 4.61030E+01 0.00000E+00
 -1      1822 1.12500E+01 4.61030E+01 0.00000E+00
 -1      1823 1.27500E+01 4.61030E+01 0.00000E+00
 -1      1824 1.05000E+01 4.48040E+01 0.00000E+00
 -1      1825 1.41750E+01 4.61030E+01 0.00000E+00
 -1      1826 1.56000E+01 4.61030E+01 0.00000E+00
 -1      1827 1.34250E+01 4.48040E+01 0.00000E+00
 -1      1828 1.71000E+01 4.61030E+01 0.00000E+00
 -1      1829 1.86000E+01 4.61030E+01 0.00000E+00
 -1      1830 1.63500E+01 4.48040E+01 0.00000E+00
 -1      1831 2.01000E+01 4.61030E+01 0.00000E+00
 -1      1832 2.16000E+01 4.61030E+01 0.00000E+00
 -1      1833 1.93500E+01 4.48040E+01 0.00000E+00
 -1      1834 2.31000E+01 4.61030E+01 0.00000E+00
 -1      1835 2.46000E+01 4.61030E+01 0.00000E+00
 -1      1836 2.23500E+01 4.48040E+01 0.00000E+00
 -1      1837 2.61000E+01 4.61030E+01 0.00000E+00
 -1      1838 2.76000E+01 4.61030E+01 0.00000E+00
 -1      1839 2.53500E+01 4.48040E+01 0.00000E+00
 -1      1840 2.91000E+01 4.61030E+01 0.00000E+00
 -1      1841 3.06000E+01 4.61030E+01 0.00000E+00
 -1      1842 2.83500E+01 4.48040E+01 0.00000E+00
 -1      1843 3.20250E+01 4.61030E+01 0.00000E+00
 -1      1844 3.34500E+01 4.61030E+01 0.00000E+00
 -1      1845 3.12750E+01 4.48040E+01 0.00000E+00
 -1      1846 3.49500E+01 4.61030E+01 0.00000E+00
 -1      1847 3.64500E+01 4.61030E+01 0.00000E+00
 -1      1848 3.42000E+01 4.48040E+01 0.00000E+00
 -1      1849 3.79500E+01 4.61030E+01 0.00000E+00
 -1      1850 3.94500E+01 4.61030E+01 0.00000E+00
 -1      1851 3.72000E+01 4.48040E+01 0.00000E+00
 -1      1852 4.09500E+01 4.61030E+01 0.00000E+00
 -1      1853 4.24500E+01 4.61030E+01 0.00000E+00
 -1      1854 4.02000E+01 4.48040E+01 0.00000E+00
 -1      1855 4.38000E+01 4.61030E+01 0.00000E+00
 -1      1856 4.51500E+01 4.61030E+01 0.00000E+00
 -1      1857 4.30500E+01 4.48040E+01 0.00000E+00
 -1      1858 5.72625E+01 4.63769E+01 0.00000E+00
 -1      1859 5.86875E+01 4.63769E+01 0.00000E+00
 -1      1860 6.01500E+01 4.62931E+01 0.00000E+00
 -1      1861 6.16500E+01 4.62931E+01 0.00000E+00
 -1      1862 6.30750E+01 4.62931E+01 0.00000E+00
 -1      1863 6.45000E+01 4.62931E+01 0.00000E+00
 -1      1864 6.23250E+01 4.51842E+01 0.00000E+00
 -1      1865 6.60000E+01 4.62931E+01 0.00000E+00
 -1      1866 6.75000E+01 4.62931E+01 0.00000E+00
 -1      1867 6.52500E+01 4.51842E+01 0.00000E+00
 -1      1868 6.90000E+01 4.62931E+01 0.00000E+00
 -1      1869 7.05000E+01 4.62931E+01 0.00000E+00
 -1      1870 6.82500E+01 4.51842E+01 0.00000E+00
 -1      1871 7.20000E+01 4.62931E+01 0.00000E+00
 -1      1872 7.35000E+01 4.62931E+01 0.00000E+00
 -1      1873 7.12500E+01 4.51842E+01 0.00000E+00
 -1      1874 7.50000E+01 4.62931E+01 0.00000E+00
 -1      1875 7.65000E+01 4.62931E+01 0.00000E+00
 -1      1876 7.42500E+01 4.51842E+01 0.00000E+00
 -1      1877 7.80000E+01 4.62931E+01 0.00000E+00
 -1      1878 7.95000E+01 4.62931E+01 0.00000E+00
 -1      1879 7.72500E+01 4.51842E+01 0.00000E+00
 -1      1880 8.09250E+01 4.62931E+01 0.00000E+00
 -1      1881 8.23500E+01 4.62931E+01 0.00000E+00
 -1      1882 8.01750E+01 4.51842E+01 0.00000E+00
 -1      1883 8.38500E+01 4.62931E+01 0.00000E+00
 -1      1884 8.53500E+01 4.62931E+01 0.00000E+00
 -1      1885 8.31000E+01 4.51842E+01 0.00000E+00
 -1      1886 8.68500E+01 4.62931E+01 0.00000E+00
 -1      1887 8.83500E+01 4.62931E+01 0.00000E+00
 -1      1888 8.61000E+01 4.51842E+01 0.00000E+00
 -1      1889 8.98500E+01 4.62931E+01 0.00000E+00
 -1      1890 9.13500E+01 4.62931E+01 0.00000E+00
 -1      1891 8.91000E+01 4.51842E+01 0.00000E+00
 -1      1892 9.28500E+01 4.62931E+01 0.00000E+00
 -1      1893 9.43500E+01 4.62931E+01 0.00000E+00
 -1      1894 9.21000E+01 4.51842E+01 0.00000E+00
 -1      1895 9.57750E+01 4.62931E+01 0.00000E+00
 -1      1896 9.72000E+01 4.62931E+01 0.00000E+00
 -1      1897 9.50250E+01 4.51842E+01 0.00000E+00
 -1      1898 9.87000E+01 4.62931E+01 0.00000E+00
 -1      1899 1.00200E+02 4.62931E+01 0.00000E+00
 -1      1900 9.79500E+01 4.51842E+01 0.00000E+00
 -1      1901 1.01700E+02 4.62931E+01 0.00000E+00
 -1      1902 1.03200E+02 4.62931E+01 0.00000E+00
 -1      1903 1.00950E+02 4.51842E+01 0.00000E+00
 -1      1904 1.04700E+02 4.62931E+01 0.00000E+00
 -1      1905 1.06200E+02 4.62931E+01 0.00000E+00
 -1      1906 1.03950E+02 4.51842E+01 0.00000E+00
 -1      1907 1.07700E+02 4.62931E+01 0.00000E+00
 -1      1908 1.09200E+02 4.62931E+01 0.00000E+00
 -1      1909 1.06950E+02 4.51842E+01 0.00000E+00
 -1      1910 1.10700E+02 4.62931E+01 0.00000E+00
 -1      1911 1.12200E+02 4.62931E+01 0.00000E+00
 -1      1912 1.09950E+02 4.51842E+01 0.00000E+00
 -1      1913 1.13625E+02 4.62931E+01 0.00000E+00
 -1      1914 1.15050E+02 4.62931E+01 0.00000E+00
 -1      1915 1.12875E+02 4.51842E+01 0.00000E+00
 -1      1916 1.16550E+02 4.62931E+01 0.00000E+00
 -1      1917 1.18050E+02 4.62931E+01 0.00000E+00
 -1      1918 1.15800E+02 4.51842E+01 0.00000E+00
 -1      1919 1.19550E+02 4.62931E+01 0.00000E+00
 -1      1920 1.21050E+02 4.62931E+01 0.00000E+00
 -1      1921 1.18800E+02 4.51842E+01 0.00000E+00
 -1      1922 1.22550E+02 4.62931E+01 0.00000E+00
 -1      1923 1.24050E+02 4.62931E+01 0.00000E+00
 -1      1924 1.21800E+02 4.51842E+01 0.00000E+00
 -1      1925 1.25550E+02 4.62931E+01 0.00000E+00
 -1      1926 1.27050E+02 4.62931E+01 0.00000E+00
 -1      1927 1.24800E+02 4.51842E+01 0.00000E+00
 -1      1928 1.28550E+02 4.62931E+01 0.00000E+00
 -1      1929 1.30050E+02 4.62931E+01 0.00000E+00
 -1      1930 1.27800E+02 4.51842E+01 0.00000E+00
 -1      1931 1.31475E+02 4.62931E+01 0.00000E+00
 -1      1932 1.32900E+02 4.62931E+01 0.00000E+00
 -1      1933 1.30725E+02 4.51842E+01 0.00000E+00
 -1      1934 1.34400E+02 4.62931E+01 0.00000E+00
 -1      1935 1.35900E+02 4.62931E+01 0.00000E+00
 -1      1936 1.33650E+02 4.51842E+01 0.00000E+00
 -1      1937 1.37400E+02 4.62931E+01 0.00000E+00
 -1      1938 1.38900E+02 4.62931E+01 0.00000E+00
 -1      1939 1.36650E+02 4.51842E+01 0.00000E+00
 -1      1940 1.40400E+02 4.62931E+01 0.00000E+00
 -1      1941 1.41900E+02 4.62931E+01 0.00000E+00
 -1      1942 1.39650E+02 4.51842E+01 0.00000E+00
 -1      1943 1.43400E+02 4.62931E+01 0.00000E+00
 -1      1944 1.44900E+02 4.62931E+01 0.00000E+00
 -1      1945 1.42650E+02 4.51842E+01 0.00000E+00
 -1      1946 1.17045E+01 3.09687E+00 0.00000E+00
 -1      1947 1.02045E+01 3.09687E+00 0.00000E+00
 -1      1948 1.00350E+01 4.00625E+00 0.00000E+00
 -1      1949 6.17144E+01 3.23812E+01 0.00000E+00
 -1      1950 6.21518E+01 3.31485E+01 0.00000E+00
 -1      1951 1.47045E+01 3.09687E+00 0.00000E+00
 -1      1952 1.32045E+01 3.09687E+00 0.00000E+00
 -1      1953 1.30350E+01 4.00625E+00 0.00000E+00
 -1      1954 1.77045E+01 3.09687E+00 0.00000E+00
 -1      1955 1.62045E+01 3.09687E+00 0.00000E+00
 -1      1956 1.60350E+01 4.00625E+00 0.00000E+00
 -1      1957 2.07045E+01 3.09687E+00 0.00000E+00
 -1      1958 1.92045E+01 3.09687E+00 0.00000E+00
 -1      1959 1.90350E+01 4.00625E+00 0.00000E+00
 -1      1960 2.37045E+01 3.09687E+00 0.00000E+00
 -1      1961 2.22045E+01 3.09687E+00 0.00000E+00
 -1      1962 2.20350E+01 4.00625E+00 0.00000E+00
 -1      1963 2.67045E+01 3.09687E+00 0.00000E+00
 -1      1964 2.52045E+01 3.09687E+00 0.00000E+00
 -1      1965 2.50350E+01 4.00625E+00 0.00000E+00
 -1      1966 2.97045E+01 3.09687E+00 0.00000E+00
 -1      1967 2.82045E+01 3.09687E+00 0.00000E+00
 -1      1968 2.80350E+01 4.00625E+00 0.00000E+00
 -1      1969 3.27045E+01 3.09687E+00 0.00000E+00
 -1      1970 3.12045E+01 3.09687E+00 0.00000E+00
 -1      1971 3.10350E+01 4.00625E+00 0.00000E+00
 -1      1972 3.57045E+01 3.09687E+00 0.00000E+00
 -1      1973 3.42045E+01 3.09687E+00 0.00000E+00
 -1      1974 3.40350E+01 4.00625E+00 0.00000E+00
 -1      1975 3.87045E+01 3.09687E+00 0.00000E+00
 -1      1976 3.72045E+01 3.09687E+00 0.00000E+00
 -1      1977 3.70350E+01 4.00625E+00 0.00000E+00
 -1      1978 4.17045E+01 3.09687E+00 0.00000E+00
 -1      1979 4.02045E+01 3.09687E+00 0.00000E+00
 -1      1980 4.00350E+01 4.00625E+00 0.00000E+00
 -1      1981 4.47045E+01 3.09687E+00 0.00000E+00
 -1      1982 4.32045E+01 3.09687E+00 0.00000E+00
 -1      1983 4.30350E+01 4.00625E+00 0.00000E+00
 -1      1984 4.77045E+01 3.09687E+00 0.00000E+00
 -1      1985 4.62045E+01 3.09687E+00 0.00000E+00
 -1      1986 4.60350E+01 4.00625E+00 0.00000E+00
 -1      1987 5.07045E+01 3.09687E+00 0.00000E+00
 -1      1988 4.92045E+01 3.09687E+00 0.00000E+00
 -1      1989 4.90350E+01 4.00625E+00 0.00000E+00
 -1      1990 5.37045E+01 3.09687E+00 0.00000E+00
 -1      1991 5.22045E+01 3.09687E+00 0.00000E+00
 -1      1992 5.20350E+01 4.00625E+00 0.00000E+00
 -1      1993 5.67045E+01 3.09687E+00 0.00000E+00
 -1      1994 5.52045E+01 3.09687E+00 0.00000E+00
 -1      1995 5.50350E+01 4.00625E+00 0.00000E+00
 -1      1996 5.97045E+01 3.09687E+00 0.00000E+00
 -1      1997 5.82045E+01 3.09687E+00 0.00000E+00
 -1      1998 5.80350E+01 4.00625E+00 0.00000E+00
 -1      1999 6.27045E+01 3.09687E+00 0.00000E+00
 -1      2000 6.12045E+01 3.09687E+00 0.00000E+00
 -1      2001 6.10350E+01 4.00625E+00 0.00000E+00
 -1      2002 6.57045E+01 3.09687E+00 0.00000E+00
 -1      2003 6.42045E+01 3.09687E+00 0.00000E+00
 -1      2004 6.40350E+01 4.00625E+00 0.00000E+00
 -1      2005 6.87045E+01 3.09687E+00 0.00000E+00
 -1      2006 6.72045E+01 3.09687E+00 0.00000E+00
 -1      2007 6.70350E+01 4.00625E+00 0.00000E+00
 -1      2008 7.17045E+01 3.09687E+00 0.00000E+00
 -1      2009 7.02045E+01 3.09687E+00 0.00000E+00
 -1      2010 7.00350E+01 4.00625E+00 0.00000E+00
 -1      2011 7.47045E+01 3.09687E+00 0.00000E+00
 -1      2012 7.32045E+01 3.09687E+00 0.00000E+00
 -1      2013 7.30350E+01 4.00625E+00 0.00000E+00
 -1      2014 7.77045E+01 3.09687E+00 0.00000E+00
 -1      2015 7.62045E+01 3.09687E+00 0.00000E+00
 -1      2016 7.60350E+01 4.00625E+00 0.00000E+00
 -1      2017 8.07045E+01 3.09687E+00 0.00000E+00
 -1      2018 7.92045E+01 3.09687E+00 0.00000E+00
 -1      2019 7.90350E+01 4.00625E+00 0.00000E+00
 -1      2020 8.37045E+01 3.09687E+00 0.00000E+00
 -1      2021 8.22045E+01 3.09687E+00 0.00000E+00
 -1      2022 8.20350E+01 4.00625E+00 0.00000E+00
 -1      2023 8.67045E+01 3.09687E+00 0.00000E+00
 -1      2024 8.52045E+01 3.09687E+00 0.00000E+00
 -1      2025 8.50350E+01 4.00625E+00 0.00000E+00
 -1      2026 8.97045E+01 3.09687E+00 0.00000E+00
 -1      2027 8.82045E+01 3.09687E+00 0.00000E+00
 -1      2028 8.80350E+01 4.00625E+00 0.00000E+00
 -1      2029 9.27045E+01 3.09687E+00 0.00000E+00
 -1      2030 9.12045E+01 3.09687E+00 0.00000E+00
 -1      2031 9.10350E+01 4.00625E+00 0.00000E+00
 -1      2032 9.57045E+01 3.09687E+00 0.00000E+00
 -1      2033 9.42045E+01 3.09687E+00 0.00000E+00
 -1      2034 9.40350E+01 4.00625E+00 0.00000E+00
 -1      2035 9.87045E+01 3.09687E+00 0.00000E+00
 -1      2036 9.72045E+01 3.09687E+00 0.00000E+00
 -1      2037 9.70350E+01 4.00625E+00 0.00000E+00
 -1      2038 1.01704E+02 3.09687E+00 0.00000E+00
 -1      2039 1.00204E+02 3.09687E+00 0.00000E+00
 -1      2040 1.00035E+02 4.00625E+00 0.00000E+00
 -1      2041 1.04704E+02 3.09687E+00 0.00000E+00
 -1      2042 1.03204E+02 3.09687E+00 0.00000E+00
 -1      2043 1.03035E+02 4.00625E+00 0.00000E+00
 -1      2044 1.07704E+02 3.09687E+00 0.00000E+00
 -1      2045 1.06204E+02 3.09687E+00 0.00000E+00
 -1      2046 1.06035E+02 4.00625E+00 0.00000E+00
 -1      2047 1.10704E+02 3.09687E+00 0.00000E+00
 -1      2048 1.09204E+02 3.09687E+00 0.00000E+00
 -1      2049 1.09035E+02 4.00625E+00 0.00000E+00
 -1      2050 1.13704E+02 3.09687E+00 0.00000E+00
 -1      2051 1.12204E+02 3.09687E+00 0.00000E+00
 -1      2052 1.12035E+02 4.00625E+00 0.00000E+00
 -1      2053 1.16704E+02 3.09687E+00 0.00000E+00
 -1      2054 1.15204E+02 3.09687E+00 0.00000E+00
 -1      2055 1.15035E+02 4.00625E+00 0.00000E+00
 -1      2056 1.19704E+02 3.09687E+00 0.00000E+00
 -1      2057 1.18204E+02 3.09687E+00 0.00000E+00
 -1      2058 1.18035E+02 4.00625E+00 0.00000E+00
 -1      2059 1.22704E+02 3.09687E+00 0.00000E+00
 -1      2060 1.21204E+02 3.09687E+00 0.00000E+00
 -1      2061 1.21035E+02 4.00625E+00 0.00000E+00
 -1      2062 1.25704E+02 3.09687E+00 0.00000E+00
 -1      2063 1.24204E+02 3.09687E+00 0.00000E+00
 -1      2064 1.24035E+02 4.00625E+00 0.00000E+00
 -1      2065 1.28704E+02 3.09687E+00 0.00000E+00
 -1      2066 1.27204E+02 3.09687E+00 0.00000E+00
 -1      2067 1.27035E+02 4.00625E+00 0.00000E+00
 -1      2068 1.31704E+02 3.09687E+00 0.00000E+00
 -1      2069 1.30204E+02 3.09687E+00 0.00000E+00
 -1      2070 1.30035E+02 4.00625E+00 0.00000E+00
 -1      2071 1.34704E+02 3.09687E+00 0.00000E+00
 -1      2072 1.33204E+02 3.09687E+00 0.00000E+00
 -1      2073 1.33035E+02 4.00625E+00 0.00000E+00
 -1      2074 1.37704E+02 3.09687E+00 0.00000E+00
 -1      2075 1.36204E+02 3.09687E+00 0.00000E+00
 -1      2076 1.36035E+02 4.00625E+00 0.00000E+00
 -1      2077 1.40704E+02 3.09687E+00 0.00000E+00
 -1      2078 1.39204E+02 3.09687E+00 0.00000E+00
 -1      2079 1.39035E+02 4.00625E+00 0.00000E+00
 -1      2080 1.43704E+02 3.09687E+00 0.00000E+00
 -1      2081 1.42204E+02 3.09687E+00 0.00000E+00
 -1      2082 1.42035E+02 4.00625E+00 0.00000E+00
 -1      2083 1.46171E+02 3.20156E+00 0.00000E+00
 -1      2084 1.44671E+02 3.20156E+00 0.00000E+00
 -1      2085 1.44502E+02 4.11094E+00 0.00000E+00
 -1      2086 1.46435E+02 4.32031E+00 0.00000E+00
 -1      2087 1.46103E+02 1.25375E+01 0.00000E+00
 -1      2088 1.46103E+02 1.10625E+01 0.00000E+00
 -1      2089 1.46103E+02 9.58750E+00 0.00000E+00
 -1      2090 1.46103E+02 8.11250E+00 0.00000E+00
 -1      2091 1.44804E+02 1.03250E+01 0.00000E+00
 -1      2092 1.46269E+02 6.95391E+00 0.00000E+00
 -1      2093 1.46269E+02 5.47891E+00 0.00000E+00
 -1      2094 1.45302E+02 5.37422E+00 0.00000E+00
 -1      2095 1.44970E+02 7.69141E+00 0.00000E+00
 -1      2096 1.46103E+02 1.54375E+01 0.00000E+00
 -1      2097 1.46103E+02 1.39875E+01 0.00000E+00
 -1      2098 1.44804E+02 1.32500E+01 0.00000E+00
 -1      2099 1.46103E+02 1.83875E+01 0.00000E+00
 -1      2100 1.46103E+02 1.69125E+01 0.00000E+00
 -1      2101 1.44804E+02 1.61750E+01 0.00000E+00
 -1      2102 1.46103E+02 2.13375E+01 0.00000E+00
 -1      2103 1.46103E+02 1.98625E+01 0.00000E+00
 -1      2104 1.44804E+02 1.91250E+01 0.00000E+00
 -1      2105 1.46103E+02 2.42875E+01 0.00000E+00
 -1      2106 1.46103E+02 2.28125E+01 0.00000E+00
 -1      2107 1.44804E+02 2.20750E+01 0.00000E+00
 -1      2108 1.46103E+02 2.72375E+01 0.00000E+00
 -1      2109 1.46103E+02 2.57625E+01 0.00000E+00
 -1      2110 1.44804E+02 2.50250E+01 0.00000E+00
 -1      2111 1.46103E+02 3.01875E+01 0.00000E+00
 -1      2112 1.46103E+02 2.87125E+01 0.00000E+00
 -1      2113 1.44804E+02 2.79750E+01 0.00000E+00
 -1      2114 1.46103E+02 3.30875E+01 0.00000E+00
 -1      2115 1.46103E+02 3.16375E+01 0.00000E+00
 -1      2116 1.44804E+02 3.09000E+01 0.00000E+00
 -1      2117 1.46103E+02 3.60375E+01 0.00000E+00
 -1      2118 1.46103E+02 3.45625E+01 0.00000E+00
 -1      2119 1.44804E+02 3.38250E+01 0.00000E+00
 -1      2120 1.46103E+02 3.89875E+01 0.00000E+00
 -1      2121 1.46103E+02 3.75125E+01 0.00000E+00
 -1      2122 1.44804E+02 3.67750E+01 0.00000E+00
 -1      2123 1.46103E+02 4.19375E+01 0.00000E+00
 -1      2124 1.46103E+02 4.04625E+01 0.00000E+00
 -1      2125 1.44804E+02 3.97250E+01 0.00000E+00
 -1      2126 6.08464E+01 3.08230E+01 0.00000E+00
 -1      2127 6.12804E+01 3.16021E+01 0.00000E+00
 -1      2128 6.21714E+01 3.16026E+01 0.00000E+00
 -1      2129 1.46526E+02 4.65135E+01 0.00000E+00
 -1      2130 4.84800E+00 4.57510E+01 0.00000E+00
 -1      2131 6.25721E+01 3.61295E+01 0.00000E+00
 -1      2132 6.25731E+01 3.69774E+01 0.00000E+00
 -1      2133 3.89700E+00 3.74688E+01 0.00000E+00
 -1      2134 3.89700E+00 3.89437E+01 0.00000E+00
 -1      2135 5.19600E+00 3.96813E+01 0.00000E+00
 -1      2136 5.19600E+00 3.67438E+01 0.00000E+00
 -1      2137 5.92324E+01 2.93786E+01 0.00000E+00
 -1      2138 6.00111E+01 2.98855E+01 0.00000E+00
 -1      2139 5.77261E+01 2.84745E+01 0.00000E+00
 -1      2140 5.84792E+01 2.89265E+01 0.00000E+00
 -1      2141 5.93136E+01 2.84964E+01 0.00000E+00
 -1      2142 5.58769E+01 2.77610E+01 0.00000E+00
 -1      2143 5.67246E+01 2.81267E+01 0.00000E+00
 -1      2144 5.37455E+01 2.76123E+01 0.00000E+00
 -1      2145 5.46539E+01 2.75019E+01 0.00000E+00
 -1      2146 5.19540E+01 2.77404E+01 0.00000E+00
 -1      2147 5.28498E+01 2.76763E+01 0.00000E+00
 -1      2148 5.32156E+01 2.68946E+01 0.00000E+00
 -1      2149 4.99882E+01 2.81978E+01 0.00000E+00
 -1      2150 5.09055E+01 2.79203E+01 0.00000E+00
 -1      2151 4.82224E+01 2.94491E+01 0.00000E+00
 -1      2152 4.88599E+01 2.88155E+01 0.00000E+00
 -1      2153 4.67411E+01 3.05638E+01 0.00000E+00
 -1      2154 4.74817E+01 3.00064E+01 0.00000E+00
 -1      2155 4.72255E+01 2.91111E+01 0.00000E+00
 -1      2156 4.57229E+01 3.24688E+01 0.00000E+00
 -1      2157 4.60983E+01 3.15925E+01 0.00000E+00
 -1      2158 4.50129E+01 3.41888E+01 0.00000E+00
 -1      2159 4.53679E+01 3.33288E+01 0.00000E+00
 -1      2160 4.48444E+01 3.25860E+01 0.00000E+00
 -1      2161 4.49101E+01 3.63303E+01 0.00000E+00
 -1      2162 4.48681E+01 3.54191E+01 0.00000E+00
 -1      2163 4.49775E+01 3.80853E+01 0.00000E+00
 -1      2164 4.49438E+01 3.72078E+01 0.00000E+00
 -1      2165 4.42335E+01 3.67839E+01 0.00000E+00
 -1      2166 4.56704E+01 4.00058E+01 0.00000E+00
 -1      2167 4.52903E+01 3.91907E+01 0.00000E+00
 -1      2168 4.66020E+01 4.16010E+01 0.00000E+00
 -1      2169 4.61336E+01 4.08568E+01 0.00000E+00
 -1      2170 4.77480E+01 4.31046E+01 0.00000E+00
 -1      2171 4.71373E+01 4.24810E+01 0.00000E+00
 -1      2172 4.93438E+01 4.41330E+01 0.00000E+00
 -1      2173 4.86153E+01 4.36558E+01 0.00000E+00
 -1      2174 5.09533E+01 4.50683E+01 0.00000E+00
 -1      2175 5.01515E+01 4.47143E+01 0.00000E+00
 -1      2176 5.29249E+01 4.55008E+01 0.00000E+00
 -1      2177 5.20125E+01 4.53692E+01 0.00000E+00
 -1      2178 5.49487E+01 4.53251E+01 0.00000E+00
 -1      2179 5.40307E+01 4.54325E+01 0.00000E+00
 -1      2180 5.67680E+01 4.48714E+01 0.00000E+00
 -1      2181 5.59408E+01 4.51215E+01 0.00000E+00
 -1      2182 5.82212E+01 4.43092E+01 0.00000E+00
 -1      2183 5.74785E+01 4.47188E+01 0.00000E+00
 -1      2184 5.99642E+01 4.30940E+01 0.00000E+00
 -1      2185 5.92506E+01 4.36057E+01 0.00000E+00
 -1      2186 6.12879E+01 4.15693E+01 0.00000E+00
 -1      2187 6.07857E+01 4.23086E+01 0.00000E+00
 -1      2188 6.21184E+01 3.98426E+01 0.00000E+00
 -1      2189 6.17500E+01 4.06583E+01 0.00000E+00
 -1      2190 6.26574E+01 3.79696E+01 0.00000E+00
 -1      2191 6.25125E+01 3.88353E+01 0.00000E+00
 -1      2192 6.24392E+01 3.42770E+01 0.00000E+00
 -1      2193 6.25518E+01 3.51725E+01 0.00000E+00
 -1      2194 1.45776E+02 4.54046E+01 0.00000E+00
 -1      2195 6.33050E+01 3.75449E+01 0.00000E+00
 -1      2196 4.56628E+01 4.49409E+01 0.00000E+00
 -1      2197 4.64128E+01 4.62399E+01 0.00000E+00
 -1      2198 5.94375E+01 4.52680E+01 0.00000E+00
 -1      2199 6.28927E+01 3.35102E+01 0.00000E+00
 -1      2200 6.34800E+00 4.57510E+01 0.00000E+00
 -1      2201 7.09800E+00 4.44520E+01 0.00000E+00
 -1      2202 6.09020E+01 2.98859E+01 0.00000E+00
 -1      2203 4.76128E+01 4.62399E+01 0.00000E+00
 -1      2204 4.92699E+01 4.65006E+01 0.00000E+00
 -1      2205 5.06949E+01 4.65006E+01 0.00000E+00
 -1      2206 5.17541E+01 4.68014E+01 0.00000E+00
 -1      2207 5.30291E+01 4.68014E+01 0.00000E+00
 -1      2208 5.41349E+01 4.67330E+01 0.00000E+00
 -1      2209 5.55599E+01 4.67330E+01 0.00000E+00
 -1      2210 5.12713E+01 2.71385E+01 0.00000E+00
 -1      2211 1.45776E+02 4.39296E+01 0.00000E+00
 -1      2212 6.32004E+01 3.55957E+01 0.00000E+00
 -1      2213 5.12990E+01 4.59000E+01 0.00000E+00
 -1      2214 6.29953E+01 3.95444E+01 0.00000E+00
 -1      2215 6.21390E+01 4.14627E+01 0.00000E+00
 -1      2216 6.08554E+01 4.31592E+01 0.00000E+00
 -1      2217 5.55620E+01 4.58605E+01 0.00000E+00
 -1      2218 5.34640E+01 4.61325E+01 0.00000E+00
 -1      2219 4.94321E+01 4.50178E+01 0.00000E+00
 -1      2220 4.77571E+01 4.38854E+01 0.00000E+00
 -1      2221 4.63546E+01 4.24542E+01 0.00000E+00
 -1      2222 4.45801E+01 3.87667E+01 0.00000E+00
 -1      2223 4.38699E+01 3.83428E+01 0.00000E+00
 -1      2224 4.41828E+01 3.94482E+01 0.00000E+00
 -1      2225 4.43446E+01 3.46762E+01 0.00000E+00
 -1      2226 4.38211E+01 3.39333E+01 0.00000E+00
 -1      2227 4.36763E+01 3.51636E+01 0.00000E+00
 -1      2228 4.58421E+01 3.06972E+01 0.00000E+00
 -1      2229 5.75590E+01 2.76965E+01 0.00000E+00
 -1      2230 5.53344E+01 2.70897E+01 0.00000E+00
 -1      2231 5.60150E+01 2.66774E+01 0.00000E+00
 -1      2232 5.47919E+01 2.64183E+01 0.00000E+00
 -1      2233 4.90945E+01 2.79361E+01 0.00000E+00
 -1      2234 4.53562E+01 4.07231E+01 0.00000E+00
 -1      2235 4.84622E+01 4.59193E+01 0.00000E+00
 -1      2236 1.44477E+02 4.31921E+01 0.00000E+00
 -1      2237 6.49500E+00 3.01125E+01 0.00000E+00
 -1      2238 6.49500E+00 3.15875E+01 0.00000E+00
 -1      2239 6.49500E+00 3.30625E+01 0.00000E+00
 -1      2240 6.49500E+00 3.45375E+01 0.00000E+00
 -1      2241 7.79400E+00 3.23250E+01 0.00000E+00
 -1      2242 6.49500E+00 2.42125E+01 0.00000E+00
 -1      2243 6.49500E+00 2.56875E+01 0.00000E+00
 -1      2244 6.49500E+00 2.12625E+01 0.00000E+00
 -1      2245 6.49500E+00 2.27375E+01 0.00000E+00
 -1      2246 7.79400E+00 2.34750E+01 0.00000E+00
 -1      2247 6.49500E+00 1.83625E+01 0.00000E+00
 -1      2248 6.49500E+00 1.98125E+01 0.00000E+00
 -1      2249 7.79400E+00 2.05500E+01 0.00000E+00
 -1      2250 6.49500E+00 1.54125E+01 0.00000E+00
 -1      2251 6.49500E+00 1.68875E+01 0.00000E+00
 -1      2252 7.79400E+00 1.76250E+01 0.00000E+00
 -1      2253 6.49500E+00 1.24625E+01 0.00000E+00
 -1      2254 6.49500E+00 1.39375E+01 0.00000E+00
 -1      2255 7.79400E+00 1.46750E+01 0.00000E+00
 -1      2256 6.49500E+00 9.51250E+00 0.00000E+00
 -1      2257 6.49500E+00 1.09875E+01 0.00000E+00
 -1      2258 7.79400E+00 1.17250E+01 0.00000E+00
 -1      2259 6.49500E+00 6.56250E+00 0.00000E+00
 -1      2260 6.49500E+00 8.03750E+00 0.00000E+00
 -1      2261 7.79400E+00 8.77500E+00 0.00000E+00
 -1      2262 6.84975E+00 4.82969E+00 0.00000E+00
 -1      2263 6.68025E+00 5.73906E+00 0.00000E+00
 -1      2264 7.97925E+00 6.47656E+00 0.00000E+00
 -1      2265 8.34975E+00 4.82969E+00 0.00000E+00
 -1      2266 9.75000E+00 4.35050E+01 0.00000E+00
 -1      2267 1.12500E+01 4.35050E+01 0.00000E+00
 -1      2268 6.11246E+01 2.88467E+01 0.00000E+00
 -1      2269 6.19600E+01 2.97842E+01 0.00000E+00
 -1      2270 6.39520E+01 3.93380E+01 0.00000E+00
 -1      2271 6.35579E+01 4.03452E+01 0.00000E+00
 -1      2272 6.36613E+01 3.27136E+01 0.00000E+00
 -1      2273 6.39486E+01 3.38421E+01 0.00000E+00
 -1      2274 1.26750E+01 4.35050E+01 0.00000E+00
 -1      2275 1.41000E+01 4.35050E+01 0.00000E+00
 -1      2276 1.19250E+01 4.22060E+01 0.00000E+00
 -1      2277 1.56000E+01 4.35050E+01 0.00000E+00
 -1      2278 1.71000E+01 4.35050E+01 0.00000E+00
 -1      2279 1.48500E+01 4.22060E+01 0.00000E+00
 -1      2280 1.86000E+01 4.35050E+01 0.00000E+00
 -1      2281 2.01000E+01 4.35050E+01 0.00000E+00
 -1      2282 1.78500E+01 4.22060E+01 0.00000E+00
 -1      2283 2.16000E+01 4.35050E+01 0.00000E+00
 -1      2284 2.31000E+01 4.35050E+01 0.00000E+00
 -1      2285 2.08500E+01 4.22060E+01 0.00000E+00
 -1      2286 2.46000E+01 4.35050E+01 0.00000E+00
 -1      2287 2.61000E+01 4.35050E+01 0.00000E+00
 -1      2288 2.38500E+01 4.22060E+01 0.00000E+00
 -1      2289 2.76000E+01 4.35050E+01 0.00000E+00
 -1      2290 2.91000E+01 4.35050E+01 0.00000E+00
 -1      2291 2.68500E+01 4.22060E+01 0.00000E+00
 -1      2292 3.05250E+01 4.35050E+01 0.00000E+00
 -1      2293 3.19500E+01 4.35050E+01 0.00000E+00
 -1      2294 2.97750E+01 4.22060E+01 0.00000E+00
 -1      2295 3.34500E+01 4.35050E+01 0.00000E+00
 -1      2296 3.49500E+01 4.35050E+01 0.00000E+00
 -1      2297 3.27000E+01 4.22060E+01 0.00000E+00
 -1      2298 3.64500E+01 4.35050E+01 0.00000E+00
 -1      2299 3.79500E+01 4.35050E+01 0.00000E+00
 -1      2300 3.57000E+01 4.22060E+01 0.00000E+00
 -1      2301 3.94500E+01 4.35050E+01 0.00000E+00
 -1      2302 4.09500E+01 4.35050E+01 0.00000E+00
 -1      2303 3.87000E+01 4.22060E+01 0.00000E+00
 -1      2304 4.23000E+01 4.35050E+01 0.00000E+00
 -1      2305 4.36500E+01 4.35050E+01 0.00000E+00
 -1      2306 4.15500E+01 4.22060E+01 0.00000E+00
 -1      2307 5.65521E+01 4.65295E+01 0.00000E+00
 -1      2308 5.72646E+01 4.55043E+01 0.00000E+00
 -1      2309 5.06091E+01 2.64246E+01 0.00000E+00
 -1      2310 5.16577E+01 2.62447E+01 0.00000E+00
 -1      2311 6.41173E+01 3.69762E+01 0.00000E+00
 -1      2312 6.42017E+01 3.79684E+01 0.00000E+00
 -1      2313 1.13497E+01 4.82969E+00 0.00000E+00
 -1      2314 9.84975E+00 4.82969E+00 0.00000E+00
 -1      2315 9.66450E+00 5.65312E+00 0.00000E+00
 -1      2316 6.45000E+01 4.39915E+01 0.00000E+00
 -1      2317 6.60000E+01 4.39915E+01 0.00000E+00
 -1      2318 6.75000E+01 4.39915E+01 0.00000E+00
 -1      2319 6.90000E+01 4.39915E+01 0.00000E+00
 -1      2320 6.67500E+01 4.27988E+01 0.00000E+00
 -1      2321 7.05000E+01 4.39915E+01 0.00000E+00
 -1      2322 7.20000E+01 4.39915E+01 0.00000E+00
 -1      2323 6.97500E+01 4.27988E+01 0.00000E+00
 -1      2324 7.35000E+01 4.39915E+01 0.00000E+00
 -1      2325 7.50000E+01 4.39915E+01 0.00000E+00
 -1      2326 7.27500E+01 4.27988E+01 0.00000E+00
 -1      2327 7.65000E+01 4.39915E+01 0.00000E+00
 -1      2328 7.80000E+01 4.39915E+01 0.00000E+00
 -1      2329 7.57500E+01 4.27988E+01 0.00000E+00
 -1      2330 7.94250E+01 4.39915E+01 0.00000E+00
 -1      2331 8.08500E+01 4.39915E+01 0.00000E+00
 -1      2332 7.86750E+01 4.27988E+01 0.00000E+00
 -1      2333 8.23500E+01 4.39915E+01 0.00000E+00
 -1      2334 8.38500E+01 4.39915E+01 0.00000E+00
 -1      2335 8.16000E+01 4.27988E+01 0.00000E+00
 -1      2336 8.53500E+01 4.39915E+01 0.00000E+00
 -1      2337 8.68500E+01 4.39915E+01 0.00000E+00
 -1      2338 8.46000E+01 4.27988E+01 0.00000E+00
 -1      2339 8.83500E+01 4.39915E+01 0.00000E+00
 -1      2340 8.98500E+01 4.39915E+01 0.00000E+00
 -1      2341 8.76000E+01 4.27988E+01 0.00000E+00
 -1      2342 9.13500E+01 4.39915E+01 0.00000E+00
 -1      2343 9.28500E+01 4.39915E+01 0.00000E+00
 -1      2344 9.06000E+01 4.27988E+01 0.00000E+00
 -1      2345 9.42750E+01 4.39915E+01 0.00000E+00
 -1      2346 9.57000E+01 4.39915E+01 0.00000E+00
 -1      2347 9.35250E+01 4.27988E+01 0.00000E+00
 -1      2348 9.72000E+01 4.39915E+01 0.00000E+00
 -1      2349 9.87000E+01 4.39915E+01 0.00000E+00
 -1      2350 9.64500E+01 4.27988E+01 0.00000E+00
 -1      2351 1.00200E+02 4.39915E+01 0.00000E+00
 -1      2352 1.01700E+02 4.39915E+01 0.00000E+00
 -1      2353 9.94500E+01 4.27988E+01 0.00000E+00
 -1      2354 1.03200E+02 4.39915E+01 0.00000E+00
 -1      2355 1.04700E+02 4.39915E+01 0.00000E+00
 -1      2356 1.02450E+02 4.27988E+01 0.00000E+00
 -1      2357 1.06200E+02 4.39915E+01 0.00000E+00
 -1      2358 1.07700E+02 4.39915E+01 0.00000E+00
 -1      2359 1.05450E+02 4.27988E+01 0.00000E+00
 -1      2360 1.09200E+02 4.39915E+01 0.00000E+00
 -1      2361 1.10700E+02 4.39915E+01 0.00000E+00
 -1      2362 1.08450E+02 4.27988E+01 0.00000E+00
 -1      2363 1.12125E+02 4.39915E+01 0.00000E+00
 -1      2364 1.13550E+02 4.39915E+01 0.00000E+00
 -1      2365 1.11375E+02 4.27988E+01 0.00000E+00
 -1      2366 1.15050E+02 4.39915E+01 0.00000E+00
 -1      2367 1.16550E+02 4.39915E+01 0.00000E+00
 -1      2368 1.14300E+02 4.27988E+01 0.00000E+00
 -1      2369 1.18050E+02 4.39915E+01 0.00000E+00
 -1      2370 1.19550E+02 4.39915E+01 0.00000E+00
 -1      2371 1.17300E+02 4.27988E+01 0.00000E+00
 -1      2372 1.21050E+02 4.39915E+01 0.00000E+00
 -1      2373 1.22550E+02 4.39915E+01 0.00000E+00
 -1      2374 1.20300E+02 4.27988E+01 0.00000E+00
 -1      2375 1.24050E+02 4.39915E+01 0.00000E+00
 -1      2376 1.25550E+02 4.39915E+01 0.00000E+00
 -1      2377 1.23300E+02 4.27988E+01 0.00000E+00
 -1      2378 1.27050E+02 4.39915E+01 0.00000E+00
 -1      2379 1.28550E+02 4.39915E+01 0.00000E+00
 -1      2380 1.26300E+02 4.27988E+01 0.00000E+00
 -1      2381 1.29975E+02 4.39915E+01 0.00000E+00
 -1      2382 1.31400E+02 4.39915E+01 0.00000E+00
 -1      2383 1.29225E+02 4.27988E+01 0.00000E+00
 -1      2384 1.32900E+02 4.39915E+01 0.00000E+00
 -1      2385 1.34400E+02 4.39915E+01 0.00000E+00
 -1      2386 1.32150E+02 4.27988E+01 0.00000E+00
 -1      2387 1.35900E+02 4.39915E+01 0.00000E+00
 -1      2388 1.37400E+02 4.39915E+01 0.00000E+00
 -1      2389 1.35150E+02 4.27988E+01 0.00000E+00
 -1      2390 1.38900E+02 4.39915E+01 0.00000E+00
 -1      2391 1.40400E+02 4.39915E+01 0.00000E+00
 -1      2392 1.38150E+02 4.27988E+01 0.00000E+00
 -1      2393 1.41689E+02 4.35918E+01 0.00000E+00
 -1      2394 1.43189E+02 4.35918E+01 0.00000E+00
 -1      2395 1.43516E+02 4.15997E+01 0.00000E+00
 -1      2396 1.40939E+02 4.23991E+01 0.00000E+00
 -1      2397 1.67850E+01 5.30525E+00 0.00000E+00
 -1      2398 1.52850E+01 5.30525E+00 0.00000E+00
 -1      2399 1.40674E+01 5.06747E+00 0.00000E+00
 -1      2400 1.25674E+01 5.06747E+00 0.00000E+00
 -1      2401 1.23821E+01 5.89091E+00 0.00000E+00
 -1      2402 1.48174E+01 6.36647E+00 0.00000E+00
 -1      2403 2.27850E+01 5.30525E+00 0.00000E+00
 -1      2404 2.12850E+01 5.30525E+00 0.00000E+00
 -1      2405 2.57850E+01 5.30525E+00 0.00000E+00
 -1      2406 2.42850E+01 5.30525E+00 0.00000E+00
 -1      2407 2.35350E+01 6.60425E+00 0.00000E+00
 -1      2408 2.87850E+01 5.30525E+00 0.00000E+00
 -1      2409 2.72850E+01 5.30525E+00 0.00000E+00
 -1      2410 2.65350E+01 6.60425E+00 0.00000E+00
 -1      2411 3.17850E+01 5.30525E+00 0.00000E+00
 -1      2412 3.02850E+01 5.30525E+00 0.00000E+00
 -1      2413 2.95350E+01 6.60425E+00 0.00000E+00
 -1      2414 3.47850E+01 5.30525E+00 0.00000E+00
 -1      2415 3.32850E+01 5.30525E+00 0.00000E+00
 -1      2416 3.25350E+01 6.60425E+00 0.00000E+00
 -1      2417 3.77850E+01 5.30525E+00 0.00000E+00
 -1      2418 3.62850E+01 5.30525E+00 0.00000E+00
 -1      2419 3.55350E+01 6.60425E+00 0.00000E+00
 -1      2420 4.07850E+01 5.30525E+00 0.00000E+00
 -1      2421 3.92850E+01 5.30525E+00 0.00000E+00
 -1      2422 3.85350E+01 6.60425E+00 0.00000E+00
 -1      2423 4.37850E+01 5.30525E+00 0.00000E+00
 -1      2424 4.22850E+01 5.30525E+00 0.00000E+00
 -1      2425 4.15350E+01 6.60425E+00 0.00000E+00
 -1      2426 4.67850E+01 5.30525E+00 0.00000E+00
 -1      2427 4.52850E+01 5.30525E+00 0.00000E+00
 -1      2428 4.45350E+01 6.60425E+00 0.00000E+00
 -1      2429 4.97850E+01 5.30525E+00 0.00000E+00
 -1      2430 4.82850E+01 5.30525E+00 0.00000E+00
 -1      2431 4.75350E+01 6.60425E+00 0.00000E+00
 -1      2432 5.27850E+01 5.30525E+00 0.00000E+00
 -1      2433 5.12850E+01 5.30525E+00 0.00000E+00
 -1      2434 5.05350E+01 6.60425E+00 0.00000E+00
 -1      2435 5.57850E+01 5.30525E+00 0.00000E+00
 -1      2436 5.42850E+01 5.30525E+00 0.00000E+00
 -1      2437 5.35350E+01 6.60425E+00 0.00000E+00
 -1      2438 5.87850E+01 5.30525E+00 0.00000E+00
 -1      2439 5.72850E+01 5.30525E+00 0.00000E+00
 -1      2440 5.65350E+01 6.60425E+00 0.00000E+00
 -1      2441 6.17850E+01 5.30525E+00 0.00000E+00
 -1      2442 6.02850E+01 5.30525E+00 0.00000E+00
 -1      2443 5.95350E+01 6.60425E+00 0.00000E+00
 -1      2444 6.47850E+01 5.30525E+00 0.00000E+00
 -1      2445 6.32850E+01 5.30525E+00 0.00000E+00
 -1      2446 6.25350E+01 6.60425E+00 0.00000E+00
 -1      2447 6.77850E+01 5.30525E+00 0.00000E+00
 -1      2448 6.62850E+01 5.30525E+00 0.00000E+00
 -1      2449 6.55350E+01 6.60425E+00 0.00000E+00
 -1      2450 7.07850E+01 5.30525E+00 0.00000E+00
 -1      2451 6.92850E+01 5.30525E+00 0.00000E+00
 -1      2452 6.85350E+01 6.60425E+00 0.00000E+00
 -1      2453 7.37850E+01 5.30525E+00 0.00000E+00
 -1      2454 7.22850E+01 5.30525E+00 0.00000E+00
 -1      2455 7.15350E+01 6.60425E+00 0.00000E+00
 -1      2456 7.67850E+01 5.30525E+00 0.00000E+00
 -1      2457 7.52850E+01 5.30525E+00 0.00000E+00
 -1      2458 7.45350E+01 6.60425E+00 0.00000E+00
 -1      2459 7.97850E+01 5.30525E+00 0.00000E+00
 -1      2460 7.82850E+01 5.30525E+00 0.00000E+00
 -1      2461 7.75350E+01 6.60425E+00 0.00000E+00
 -1      2462 8.27850E+01 5.30525E+00 0.00000E+00
 -1      2463 8.12850E+01 5.30525E+00 0.00000E+00
 -1      2464 8.05350E+01 6.60425E+00 0.00000E+00
 -1      2465 8.57850E+01 5.30525E+00 0.00000E+00
 -1      2466 8.42850E+01 5.30525E+00 0.00000E+00
 -1      2467 8.35350E+01 6.60425E+00 0.00000E+00
 -1      2468 8.87850E+01 5.30525E+00 0.00000E+00
 -1      2469 8.72850E+01 5.30525E+00 0.00000E+00
 -1      2470 8.65350E+01 6.60425E+00 0.00000E+00
 -1      2471 9.17850E+01 5.30525E+00 0.00000E+00
 -1      2472 9.02850E+01 5.30525E+00 0.00000E+00
 -1      2473 8.95350E+01 6.60425E+00 0.00000E+00
 -1      2474 9.47850E+01 5.30525E+00 0.00000E+00
 -1      2475 9.32850E+01 5.30525E+00 0.00000E+00
 -1      2476 9.25350E+01 6.60425E+00 0.00000E+00
 -1      2477 9.77850E+01 5.30525E+00 0.00000E+00
 -1      2478 9.62850E+01 5.30525E+00 0.00000E+00
 -1      2479 9.55350E+01 6.60425E+00 0.00000E+00
 -1      2480 1.00785E+02 5.30525E+00 0.00000E+00
 -1      2481 9.92850E+01 5.30525E+00 0.00000E+00
 -1      2482 9.85350E+01 6.60425E+00 0.00000E+00
 -1      2483 1.03785E+02 5.30525E+00 0.00000E+00
 -1      2484 1.02285E+02 5.30525E+00 0.00000E+00
 -1      2485 1.01535E+02 6.60425E+00 0.00000E+00
 -1      2486 1.06785E+02 5.30525E+00 0.00000E+00
 -1      2487 1.05285E+02 5.30525E+00 0.00000E+00
 -1      2488 1.04535E+02 6.60425E+00 0.00000E+00
 -1      2489 1.09785E+02 5.30525E+00 0.00000E+00
 -1      2490 1.08285E+02 5.30525E+00 0.00000E+00
 -1      2491 1.07535E+02 6.60425E+00 0.00000E+00
 -1      2492 1.12785E+02 5.30525E+00 0.00000E+00
 -1      2493 1.11285E+02 5.30525E+00 0.00000E+00
 -1      2494 1.10535E+02 6.60425E+00 0.00000E+00
 -1      2495 1.15785E+02 5.30525E+00 0.00000E+00
 -1      2496 1.14285E+02 5.30525E+00 0.00000E+00
 -1      2497 1.13535E+02 6.60425E+00 0.00000E+00
 -1      2498 1.18785E+02 5.30525E+00 0.00000E+00
 -1      2499 1.17285E+02 5.30525E+00 0.00000E+00
 -1      2500 1.16535E+02 6.60425E+00 0.00000E+00
 -1      2501 1.21785E+02 5.30525E+00 0.00000E+00
 -1      2502 1.20285E+02 5.30525E+00 0.00000E+00
 -1      2503 1.19535E+02 6.60425E+00 0.00000E+00
 -1      2504 1.24785E+02 5.30525E+00 0.00000E+00
 -1      2505 1.23285E+02 5.30525E+00 0.00000E+00
 -1      2506 1.22535E+02 6.60425E+00 0.00000E+00
 -1      2507 1.27785E+02 5.30525E+00 0.00000E+00
 -1      2508 1.26285E+02 5.30525E+00 0.00000E+00
 -1      2509 1.25535E+02 6.60425E+00 0.00000E+00
 -1      2510 1.30785E+02 5.30525E+00 0.00000E+00
 -1      2511 1.29285E+02 5.30525E+00 0.00000E+00
 -1      2512 1.28535E+02 6.60425E+00 0.00000E+00
 -1      2513 1.33785E+02 5.30525E+00 0.00000E+00
 -1      2514 1.32285E+02 5.30525E+00 0.00000E+00
 -1      2515 1.31535E+02 6.60425E+00 0.00000E+00
 -1      2516 1.36785E+02 5.30525E+00 0.00000E+00
 -1      2517 1.35285E+02 5.30525E+00 0.00000E+00
 -1      2518 1.34535E+02 6.60425E+00 0.00000E+00
 -1      2519 1.39785E+02 5.30525E+00 0.00000E+00
 -1      2520 1.38285E+02 5.30525E+00 0.00000E+00
 -1      2521 1.37535E+02 6.60425E+00 0.00000E+00
 -1      2522 1.42785E+02 5.30525E+00 0.00000E+00
 -1      2523 1.41285E+02 5.30525E+00 0.00000E+00
 -1      2524 1.40535E+02 6.60425E+00 0.00000E+00
 -1      2525 1.44336E+02 5.26953E+00 0.00000E+00
 -1      2526 1.43505E+02 1.69125E+01 0.00000E+00
 -1      2527 1.43505E+02 1.54375E+01 0.00000E+00
 -1      2528 1.43505E+02 1.98625E+01 0.00000E+00
 -1      2529 1.43505E+02 1.83875E+01 0.00000E+00
 -1      2530 1.42206E+02 1.76500E+01 0.00000E+00
 -1      2531 1.43505E+02 1.10625E+01 0.00000E+00
 -1      2532 1.43505E+02 9.58750E+00 0.00000E+00
 -1      2533 1.43505E+02 1.39750E+01 0.00000E+00
 -1      2534 1.43505E+02 1.25250E+01 0.00000E+00
 -1      2535 1.42206E+02 1.17875E+01 0.00000E+00
 -1      2536 1.42206E+02 1.47125E+01 0.00000E+00
 -1      2537 1.43505E+02 2.28125E+01 0.00000E+00
 -1      2538 1.43505E+02 2.13375E+01 0.00000E+00
 -1      2539 1.42206E+02 2.06000E+01 0.00000E+00
 -1      2540 1.43505E+02 2.57625E+01 0.00000E+00
 -1      2541 1.43505E+02 2.42875E+01 0.00000E+00
 -1      2542 1.42206E+02 2.35500E+01 0.00000E+00
 -1      2543 1.43505E+02 2.87125E+01 0.00000E+00
 -1      2544 1.43505E+02 2.72375E+01 0.00000E+00
 -1      2545 1.42206E+02 2.65000E+01 0.00000E+00
 -1      2546 1.43505E+02 3.16125E+01 0.00000E+00
 -1      2547 1.43505E+02 3.01625E+01 0.00000E+00
 -1      2548 1.42206E+02 2.94250E+01 0.00000E+00
 -1      2549 1.43505E+02 3.45625E+01 0.00000E+00
 -1      2550 1.43505E+02 3.30875E+01 0.00000E+00
 -1      2551 1.42206E+02 3.23500E+01 0.00000E+00
 -1      2552 1.43505E+02 3.75125E+01 0.00000E+00
 -1      2553 1.43505E+02 3.60375E+01 0.00000E+00
 -1      2554 1.42206E+02 3.53000E+01 0.00000E+00
 -1      2555 1.43510E+02 4.02936E+01 0.00000E+00
 -1      2556 1.43510E+02 3.88186E+01 0.00000E+00
 -1      2557 1.42211E+02 3.80811E+01 0.00000E+00
 -1      2558 1.42222E+02 4.06933E+01 0.00000E+00
 -1      2559 6.28499E+01 3.07142E+01 0.00000E+00
 -1      2560 6.32839E+01 3.14933E+01 0.00000E+00
 -1      2561 4.77750E+01 4.47572E+01 0.00000E+00
 -1      2562 6.52200E+00 4.28890E+01 0.00000E+00
 -1      2563 8.42400E+00 4.32410E+01 0.00000E+00
 -1      2564 9.17400E+00 4.19420E+01 0.00000E+00
 -1      2565 6.52200E+00 4.14140E+01 0.00000E+00
 -1      2566 5.90044E+01 4.46482E+01 0.00000E+00
 -1      2567 1.97850E+01 5.30525E+00 0.00000E+00
 -1      2568 1.82850E+01 5.30525E+00 0.00000E+00
 -1      2569 1.75350E+01 6.60425E+00 0.00000E+00
 -1      2570 2.05350E+01 6.60425E+00 0.00000E+00
 -1      2571 6.49500E+00 2.71625E+01 0.00000E+00
 -1      2572 6.49500E+00 2.86375E+01 0.00000E+00
 -1      2573 7.79400E+00 2.93750E+01 0.00000E+00
 -1      2574 7.79400E+00 2.64250E+01 0.00000E+00
 -1      2575 5.93783E+01 2.75351E+01 0.00000E+00
 -1      2576 6.01315E+01 2.79871E+01 0.00000E+00
 -1      2577 4.80783E+01 2.74192E+01 0.00000E+00
 -1      2578 4.92066E+01 2.68016E+01 0.00000E+00
 -1      2579 5.25534E+01 2.61806E+01 0.00000E+00
 -1      2580 5.34492E+01 2.61166E+01 0.00000E+00
 -1      2581 5.18912E+01 2.54667E+01 0.00000E+00
 -1      2582 4.49081E+01 4.15185E+01 0.00000E+00
 -1      2583 4.44449E+01 4.06675E+01 0.00000E+00
 -1      2584 4.63900E+01 2.87715E+01 0.00000E+00
 -1      2585 4.71306E+01 2.82141E+01 0.00000E+00
 -1      2586 4.48645E+01 3.08015E+01 0.00000E+00
 -1      2587 4.55073E+01 2.97728E+01 0.00000E+00
 -1      2588 4.38742E+01 3.26888E+01 0.00000E+00
 -1      2589 4.42292E+01 3.18288E+01 0.00000E+00
 -1      2590 4.33935E+01 3.72556E+01 0.00000E+00
 -1      2591 4.33598E+01 3.63781E+01 0.00000E+00
 -1      2592 4.69077E+01 4.42060E+01 0.00000E+00
 -1      2593 5.73396E+01 2.67125E+01 0.00000E+00
 -1      2594 5.83410E+01 2.70603E+01 0.00000E+00
 -1      2595 6.32096E+01 4.14331E+01 0.00000E+00
 -1      2596 6.27475E+01 4.23441E+01 0.00000E+00
 -1      2597 6.40768E+01 3.50621E+01 0.00000E+00
 -1      2598 6.40970E+01 3.60191E+01 0.00000E+00
 -1      2599 6.49937E+01 3.64426E+01 0.00000E+00
 -1      2600 4.56449E+01 4.40691E+01 0.00000E+00
 -1      2601 7.79400E+00 3.52687E+01 0.00000E+00
 -1      2602 6.49500E+00 3.60062E+01 0.00000E+00
 -1      2603 6.49500E+00 3.74750E+01 0.00000E+00
 -1      2604 4.29961E+01 3.79370E+01 0.00000E+00
 -1      2605 6.43398E+01 3.18252E+01 0.00000E+00
 -1      2606 6.11894E+01 2.78854E+01 0.00000E+00
 -1      2607 6.30725E+01 2.96749E+01 0.00000E+00
 -1      2608 6.04669E+01 4.45644E+01 0.00000E+00
 -1      2609 6.41663E+01 4.12266E+01 0.00000E+00
 -1      2610 6.48453E+01 3.42656E+01 0.00000E+00
 -1      2611 4.32867E+01 4.10390E+01 0.00000E+00
 -1      2612 4.37347E+01 4.02436E+01 0.00000E+00
 -1      2613 4.30245E+01 3.98196E+01 0.00000E+00
 -1      2614 4.45439E+01 4.36259E+01 0.00000E+00
 -1      2615 4.57888E+01 4.28910E+01 0.00000E+00
 -1      2616 6.47643E+01 3.87692E+01 0.00000E+00
 -1      2617 6.37840E+01 4.37493E+01 0.00000E+00
 -1      2618 6.45340E+01 4.25566E+01 0.00000E+00
 -1      2619 1.43586E+02 6.56853E+00 0.00000E+00
 -1      2620 1.43419E+02 7.72713E+00 0.00000E+00
 -1      2621 1.42120E+02 8.46463E+00 0.00000E+00
 -1      2622 6.12884E+01 4.37789E+01 0.00000E+00
 -1      2623 5.91589E+01 2.65511E+01 0.00000E+00
 -1      2624 6.50850E+00 3.87101E+01 0.00000E+00
 -1      2625 6.50850E+00 4.01789E+01 0.00000E+00
 -1      2626 7.83450E+00 4.04429E+01 0.00000E+00
 -1      2627 7.80750E+00 3.79726E+01 0.00000E+00
 -1      2628 4.32059E+01 3.31762E+01 0.00000E+00
 -1      2629 4.54124E+01 2.88758E+01 0.00000E+00
 -1      2630 4.28363E+01 3.56352E+01 0.00000E+00
 -1      2631 4.72427E+01 2.70796E+01 0.00000E+00
 -1      2632 5.41297E+01 2.57044E+01 0.00000E+00
 -1      2633 5.48103E+01 2.52922E+01 0.00000E+00
 -1      2634 5.34675E+01 2.49904E+01 0.00000E+00
 -1      2635 5.67971E+01 2.60412E+01 0.00000E+00
 -1      2636 4.95929E+01 2.59077E+01 0.00000E+00
 -1      2637 4.52536E+01 4.20110E+01 0.00000E+00
 -1      2638 4.43424E+01 4.19554E+01 0.00000E+00
 -1      2639 4.38943E+01 3.09044E+01 0.00000E+00
 -1      2640 4.23644E+01 3.37637E+01 0.00000E+00
 -1      2641 4.24175E+01 3.25191E+01 0.00000E+00
 -1      2642 9.09300E+00 1.98250E+01 0.00000E+00
 -1      2643 9.09300E+00 2.12750E+01 0.00000E+00
 -1      2644 9.09300E+00 2.27500E+01 0.00000E+00
 -1      2645 9.09300E+00 2.42250E+01 0.00000E+00
 -1      2646 1.03920E+01 2.20250E+01 0.00000E+00
 -1      2647 9.09300E+00 1.39375E+01 0.00000E+00
 -1      2648 9.09300E+00 1.54125E+01 0.00000E+00
 -1      2649 9.09300E+00 1.09875E+01 0.00000E+00
 -1      2650 9.09300E+00 1.24625E+01 0.00000E+00
 -1      2651 1.03920E+01 1.32000E+01 0.00000E+00
 -1      2652 9.09300E+00 8.03750E+00 0.00000E+00
 -1      2653 9.09300E+00 9.51250E+00 0.00000E+00
 -1      2654 1.03920E+01 1.02500E+01 0.00000E+00
 -1      2655 9.47138E+00 6.43359E+00 0.00000E+00
 -1      2656 9.28613E+00 7.25703E+00 0.00000E+00
 -1      2657 1.05851E+01 7.99453E+00 0.00000E+00
 -1      2658 1.09714E+01 6.43359E+00 0.00000E+00
 -1      2659 4.37939E+01 4.23269E+01 0.00000E+00
 -1      2660 1.41000E+01 4.09070E+01 0.00000E+00
 -1      2661 1.56000E+01 4.09070E+01 0.00000E+00
 -1      2662 1.71000E+01 4.09070E+01 0.00000E+00
 -1      2663 1.86000E+01 4.09070E+01 0.00000E+00
 -1      2664 1.63500E+01 3.96080E+01 0.00000E+00
 -1      2665 2.01000E+01 4.09070E+01 0.00000E+00
 -1      2666 2.16000E+01 4.09070E+01 0.00000E+00
 -1      2667 1.93500E+01 3.96080E+01 0.00000E+00
 -1      2668 2.31000E+01 4.09070E+01 0.00000E+00
 -1      2669 2.46000E+01 4.09070E+01 0.00000E+00
 -1      2670 2.23500E+01 3.96080E+01 0.00000E+00
 -1      2671 2.61000E+01 4.09070E+01 0.00000E+00
 -1      2672 2.76000E+01 4.09070E+01 0.00000E+00
 -1      2673 2.53500E+01 3.96080E+01 0.00000E+00
 -1      2674 2.90250E+01 4.09070E+01 0.00000E+00
 -1      2675 3.04500E+01 4.09070E+01 0.00000E+00
 -1      2676 2.82750E+01 3.96080E+01 0.00000E+00
 -1      2677 3.19500E+01 4.09070E+01 0.00000E+00
 -1      2678 3.34500E+01 4.09070E+01 0.00000E+00
 -1      2679 3.12000E+01 3.96080E+01 0.00000E+00
 -1      2680 3.49500E+01 4.09070E+01 0.00000E+00
 -1      2681 3.64500E+01 4.09070E+01 0.00000E+00
 -1      2682 3.42000E+01 3.96080E+01 0.00000E+00
 -1      2683 3.79500E+01 4.09070E+01 0.00000E+00
 -1      2684 3.94500E+01 4.09070E+01 0.00000E+00
 -1      2685 3.72000E+01 3.96080E+01 0.00000E+00
 -1      2686 2.72850E+01 7.90325E+00 0.00000E+00
 -1      2687 2.57850E+01 7.90325E+00 0.00000E+00
 -1      2688 9.09300E+00 3.15875E+01 0.00000E+00
 -1      2689 9.09300E+00 3.30625E+01 0.00000E+00
 -1      2690 1.12500E+01 4.09070E+01 0.00000E+00
 -1      2691 1.26750E+01 4.09070E+01 0.00000E+00
 -1      2692 1.34250E+01 3.96080E+01 0.00000E+00
 -1      2693 6.58976E+01 3.82683E+01 0.00000E+00
 -1      2694 6.56479E+01 3.96379E+01 0.00000E+00
 -1      2695 4.34484E+01 4.18345E+01 0.00000E+00
 -1      2696 1.40706E+02 1.03250E+01 0.00000E+00
 -1      2697 1.40620E+02 8.46463E+00 0.00000E+00
 -1      2698 1.39120E+02 8.46463E+00 0.00000E+00
 -1      2699 6.90000E+01 4.16899E+01 0.00000E+00
 -1      2700 7.05000E+01 4.16899E+01 0.00000E+00
 -1      2701 7.20000E+01 4.16899E+01 0.00000E+00
 -1      2702 7.35000E+01 4.16899E+01 0.00000E+00
 -1      2703 7.12500E+01 4.05810E+01 0.00000E+00
 -1      2704 7.50000E+01 4.16899E+01 0.00000E+00
 -1      2705 7.65000E+01 4.16899E+01 0.00000E+00
 -1      2706 7.42500E+01 4.05810E+01 0.00000E+00
 -1      2707 7.79250E+01 4.16899E+01 0.00000E+00
 -1      2708 7.93500E+01 4.16899E+01 0.00000E+00
 -1      2709 7.71750E+01 4.05810E+01 0.00000E+00
 -1      2710 8.08500E+01 4.16899E+01 0.00000E+00
 -1      2711 8.23500E+01 4.16899E+01 0.00000E+00
 -1      2712 8.01000E+01 4.05810E+01 0.00000E+00
 -1      2713 8.38500E+01 4.16899E+01 0.00000E+00
 -1      2714 8.53500E+01 4.16899E+01 0.00000E+00
 -1      2715 8.31000E+01 4.05810E+01 0.00000E+00
 -1      2716 8.68500E+01 4.16899E+01 0.00000E+00
 -1      2717 8.83500E+01 4.16899E+01 0.00000E+00
 -1      2718 8.61000E+01 4.05810E+01 0.00000E+00
 -1      2719 8.98500E+01 4.16899E+01 0.00000E+00
 -1      2720 9.13500E+01 4.16899E+01 0.00000E+00
 -1      2721 8.91000E+01 4.05810E+01 0.00000E+00
 -1      2722 9.27750E+01 4.16899E+01 0.00000E+00
 -1      2723 9.42000E+01 4.16899E+01 0.00000E+00
 -1      2724 9.20250E+01 4.05810E+01 0.00000E+00
 -1      2725 9.57000E+01 4.16899E+01 0.00000E+00
 -1      2726 9.72000E+01 4.16899E+01 0.00000E+00
 -1      2727 9.49500E+01 4.05810E+01 0.00000E+00
 -1      2728 9.87000E+01 4.16899E+01 0.00000E+00
 -1      2729 1.00200E+02 4.16899E+01 0.00000E+00
 -1      2730 9.79500E+01 4.05810E+01 0.00000E+00
 -1      2731 1.01700E+02 4.16899E+01 0.00000E+00
 -1      2732 1.03200E+02 4.16899E+01 0.00000E+00
 -1      2733 1.00950E+02 4.05810E+01 0.00000E+00
 -1      2734 1.04700E+02 4.16899E+01 0.00000E+00
 -1      2735 1.06200E+02 4.16899E+01 0.00000E+00
 -1      2736 1.03950E+02 4.05810E+01 0.00000E+00
 -1      2737 1.07700E+02 4.16899E+01 0.00000E+00
 -1      2738 1.09200E+02 4.16899E+01 0.00000E+00
 -1      2739 1.06950E+02 4.05810E+01 0.00000E+00
 -1      2740 1.10625E+02 4.16899E+01 0.00000E+00
 -1      2741 1.12050E+02 4.16899E+01 0.00000E+00
 -1      2742 1.09875E+02 4.05810E+01 0.00000E+00
 -1      2743 1.13550E+02 4.16899E+01 0.00000E+00
 -1      2744 1.15050E+02 4.16899E+01 0.00000E+00
 -1      2745 1.12800E+02 4.05810E+01 0.00000E+00
 -1      2746 1.16550E+02 4.16899E+01 0.00000E+00
 -1      2747 1.18050E+02 4.16899E+01 0.00000E+00
 -1      2748 1.15800E+02 4.05810E+01 0.00000E+00
 -1      2749 1.19550E+02 4.16899E+01 0.00000E+00
 -1      2750 1.21050E+02 4.16899E+01 0.00000E+00
 -1      2751 1.18800E+02 4.05810E+01 0.00000E+00
 -1      2752 1.22550E+02 4.16899E+01 0.00000E+00
 -1      2753 1.24050E+02 4.16899E+01 0.00000E+00
 -1      2754 1.21800E+02 4.05810E+01 0.00000E+00
 -1      2755 1.25550E+02 4.16899E+01 0.00000E+00
 -1      2756 1.27050E+02 4.16899E+01 0.00000E+00
 -1      2757 1.24800E+02 4.05810E+01 0.00000E+00
 -1      2758 1.28475E+02 4.16899E+01 0.00000E+00
 -1      2759 1.29900E+02 4.16899E+01 0.00000E+00
 -1      2760 1.27725E+02 4.05810E+01 0.00000E+00
 -1      2761 1.31400E+02 4.16899E+01 0.00000E+00
 -1      2762 1.32900E+02 4.16899E+01 0.00000E+00
 -1      2763 1.30650E+02 4.05810E+01 0.00000E+00
 -1      2764 1.34400E+02 4.16899E+01 0.00000E+00
 -1      2765 1.35900E+02 4.16899E+01 0.00000E+00
 -1      2766 1.33650E+02 4.05810E+01 0.00000E+00
 -1      2767 1.37400E+02 4.16899E+01 0.00000E+00
 -1      2768 1.38900E+02 4.16899E+01 0.00000E+00
 -1      2769 1.36650E+02 4.05810E+01 0.00000E+00
 -1      2770 1.39917E+02 4.13914E+01 0.00000E+00
 -1      2771 1.41205E+02 4.09917E+01 0.00000E+00
 -1      2772 1.41200E+02 3.96856E+01 0.00000E+00
 -1      2773 1.39167E+02 4.02825E+01 0.00000E+00
 -1      2774 3.02850E+01 7.90325E+00 0.00000E+00
 -1      2775 2.87850E+01 7.90325E+00 0.00000E+00
 -1      2776 2.80350E+01 9.20225E+00 0.00000E+00
 -1      2777 2.42850E+01 7.90325E+00 0.00000E+00
 -1      2778 2.27850E+01 7.90325E+00 0.00000E+00
 -1      2779 2.50350E+01 9.20225E+00 0.00000E+00
 -1      2780 3.32850E+01 7.90325E+00 0.00000E+00
 -1      2781 3.17850E+01 7.90325E+00 0.00000E+00
 -1      2782 3.10350E+01 9.20225E+00 0.00000E+00
 -1      2783 3.62850E+01 7.90325E+00 0.00000E+00
 -1      2784 3.47850E+01 7.90325E+00 0.00000E+00
 -1      2785 3.40350E+01 9.20225E+00 0.00000E+00
 -1      2786 3.92850E+01 7.90325E+00 0.00000E+00
 -1      2787 3.77850E+01 7.90325E+00 0.00000E+00
 -1      2788 3.70350E+01 9.20225E+00 0.00000E+00
 -1      2789 4.22850E+01 7.90325E+00 0.00000E+00
 -1      2790 4.07850E+01 7.90325E+00 0.00000E+00
 -1      2791 4.00350E+01 9.20225E+00 0.00000E+00
 -1      2792 4.52850E+01 7.90325E+00 0.00000E+00
 -1      2793 4.37850E+01 7.90325E+00 0.00000E+00
 -1      2794 4.30350E+01 9.20225E+00 0.00000E+00
 -1      2795 4.82850E+01 7.90325E+00 0.00000E+00
 -1      2796 4.67850E+01 7.90325E+00 0.00000E+00
 -1      2797 4.60350E+01 9.20225E+00 0.00000E+00
 -1      2798 5.12850E+01 7.90325E+00 0.00000E+00
 -1      2799 4.97850E+01 7.90325E+00 0.00000E+00
 -1      2800 4.90350E+01 9.20225E+00 0.00000E+00
 -1      2801 5.42850E+01 7.90325E+00 0.00000E+00
 -1      2802 5.27850E+01 7.90325E+00 0.00000E+00
 -1      2803 5.20350E+01 9.20225E+00 0.00000E+00
 -1      2804 5.72850E+01 7.90325E+00 0.00000E+00
 -1      2805 5.57850E+01 7.90325E+00 0.00000E+00
 -1      2806 5.50350E+01 9.20225E+00 0.00000E+00
 -1      2807 6.02850E+01 7.90325E+00 0.00000E+00
 -1      2808 5.87850E+01 7.90325E+00 0.00000E+00
 -1      2809 5.80350E+01 9.20225E+00 0.00000E+00
 -1      2810 6.32850E+01 7.90325E+00 0.00000E+00
 -1      2811 6.17850E+01 7.90325E+00 0.00000E+00
 -1      2812 6.10350E+01 9.20225E+00 0.00000E+00
 -1      2813 6.62850E+01 7.90325E+00 0.00000E+00
 -1      2814 6.47850E+01 7.90325E+00 0.00000E+00
 -1      2815 6.40350E+01 9.20225E+00 0.00000E+00
 -1      2816 6.92850E+01 7.90325E+00 0.00000E+00
 -1      2817 6.77850E+01 7.90325E+00 0.00000E+00
 -1      2818 6.70350E+01 9.20225E+00 0.00000E+00
 -1      2819 7.22850E+01 7.90325E+00 0.00000E+00
 -1      2820 7.07850E+01 7.90325E+00 0.00000E+00
 -1      2821 7.00350E+01 9.20225E+00 0.00000E+00
 -1      2822 7.52850E+01 7.90325E+00 0.00000E+00
 -1      2823 7.37850E+01 7.90325E+00 0.00000E+00
 -1      2824 7.30350E+01 9.20225E+00 0.00000E+00
 -1      2825 7.82850E+01 7.90325E+00 0.00000E+00
 -1      2826 7.67850E+01 7.90325E+00 0.00000E+00
 -1      2827 7.60350E+01 9.20225E+00 0.00000E+00
 -1      2828 8.12850E+01 7.90325E+00 0.00000E+00
 -1      2829 7.97850E+01 7.90325E+00 0.00000E+00
 -1      2830 7.90350E+01 9.20225E+00 0.00000E+00
 -1      2831 8.42850E+01 7.90325E+00 0.00000E+00
 -1      2832 8.27850E+01 7.90325E+00 0.00000E+00
 -1      2833 8.20350E+01 9.20225E+00 0.00000E+00
 -1      2834 8.72850E+01 7.90325E+00 0.00000E+00
 -1      2835 8.57850E+01 7.90325E+00 0.00000E+00
 -1      2836 8.50350E+01 9.20225E+00 0.00000E+00
 -1      2837 9.02850E+01 7.90325E+00 0.00000E+00
 -1      2838 8.87850E+01 7.90325E+00 0.00000E+00
 -1      2839 8.80350E+01 9.20225E+00 0.00000E+00
 -1      2840 9.32850E+01 7.90325E+00 0.00000E+00
 -1      2841 9.17850E+01 7.90325E+00 0.00000E+00
 -1      2842 9.10350E+01 9.20225E+00 0.00000E+00
 -1      2843 9.62850E+01 7.90325E+00 0.00000E+00
 -1      2844 9.47850E+01 7.90325E+00 0.00000E+00
 -1      2845 9.40350E+01 9.20225E+00 0.00000E+00
 -1      2846 9.92850E+01 7.90325E+00 0.00000E+00
 -1      2847 9.77850E+01 7.90325E+00 0.00000E+00
 -1      2848 9.70350E+01 9.20225E+00 0.00000E+00
 -1      2849 1.02285E+02 7.90325E+00 0.00000E+00
 -1      2850 1.00785E+02 7.90325E+00 0.00000E+00
 -1      2851 1.00035E+02 9.20225E+00 0.00000E+00
 -1      2852 1.05285E+02 7.90325E+00 0.00000E+00
 -1      2853 1.03785E+02 7.90325E+00 0.00000E+00
 -1      2854 1.03035E+02 9.20225E+00 0.00000E+00
 -1      2855 1.08285E+02 7.90325E+00 0.00000E+00
 -1      2856 1.06785E+02 7.90325E+00 0.00000E+00
 -1      2857 1.06035E+02 9.20225E+00 0.00000E+00
 -1      2858 1.11285E+02 7.90325E+00 0.00000E+00
 -1      2859 1.09785E+02 7.90325E+00 0.00000E+00
 -1      2860 1.09035E+02 9.20225E+00 0.00000E+00
 -1      2861 1.14285E+02 7.90325E+00 0.00000E+00
 -1      2862 1.12785E+02 7.90325E+00 0.00000E+00
 -1      2863 1.12035E+02 9.20225E+00 0.00000E+00
 -1      2864 1.17285E+02 7.90325E+00 0.00000E+00
 -1      2865 1.15785E+02 7.90325E+00 0.00000E+00
 -1      2866 1.15035E+02 9.20225E+00 0.00000E+00
 -1      2867 1.20285E+02 7.90325E+00 0.00000E+00
 -1      2868 1.18785E+02 7.90325E+00 0.00000E+00
 -1      2869 1.18035E+02 9.20225E+00 0.00000E+00
 -1      2870 1.23285E+02 7.90325E+00 0.00000E+00
 -1      2871 1.21785E+02 7.90325E+00 0.00000E+00
 -1      2872 1.21035E+02 9.20225E+00 0.00000E+00
 -1      2873 1.26285E+02 7.90325E+00 0.00000E+00
 -1      2874 1.24785E+02 7.90325E+00 0.00000E+00
 -1      2875 1.24035E+02 9.20225E+00 0.00000E+00
 -1      2876 1.29285E+02 7.90325E+00 0.00000E+00
 -1      2877 1.27785E+02 7.90325E+00 0.00000E+00
 -1      2878 1.27035E+02 9.20225E+00 0.00000E+00
 -1      2879 1.32285E+02 7.90325E+00 0.00000E+00
 -1      2880 1.30785E+02 7.90325E+00 0.00000E+00
 -1      2881 1.30035E+02 9.20225E+00 0.00000E+00
 -1      2882 1.35285E+02 7.90325E+00 0.00000E+00
 -1      2883 1.33785E+02 7.90325E+00 0.00000E+00
 -1      2884 1.33035E+02 9.20225E+00 0.00000E+00
 -1      2885 1.37953E+02 8.18394E+00 0.00000E+00
 -1      2886 1.36453E+02 8.18394E+00 0.00000E+00
 -1      2887 1.35703E+02 9.48294E+00 0.00000E+00
 -1      2888 1.38038E+02 1.00443E+01 0.00000E+00
 -1      2889 1.40907E+02 2.42875E+01 0.00000E+00
 -1      2890 1.40907E+02 2.28125E+01 0.00000E+00
 -1      2891 6.24707E+01 4.33494E+01 0.00000E+00
 -1      2892 6.20823E+01 4.47547E+01 0.00000E+00
 -1      2893 1.40907E+02 1.83875E+01 0.00000E+00
 -1      2894 1.40907E+02 1.69125E+01 0.00000E+00
 -1      2895 1.40907E+02 2.72375E+01 0.00000E+00
 -1      2896 1.40907E+02 2.57625E+01 0.00000E+00
 -1      2897 1.39608E+02 2.50250E+01 0.00000E+00
 -1      2898 1.40907E+02 2.13375E+01 0.00000E+00
 -1      2899 1.40907E+02 1.98625E+01 0.00000E+00
 -1      2900 1.39608E+02 1.91250E+01 0.00000E+00
 -1      2901 1.39608E+02 2.20750E+01 0.00000E+00
 -1      2902 1.40907E+02 3.01375E+01 0.00000E+00
 -1      2903 1.40907E+02 2.86875E+01 0.00000E+00
 -1      2904 1.39608E+02 2.79500E+01 0.00000E+00
 -1      2905 1.40907E+02 3.30875E+01 0.00000E+00
 -1      2906 1.40907E+02 3.16125E+01 0.00000E+00
 -1      2907 1.39608E+02 3.08750E+01 0.00000E+00
 -1      2908 1.40907E+02 3.60375E+01 0.00000E+00
 -1      2909 1.40907E+02 3.45625E+01 0.00000E+00
 -1      2910 1.39608E+02 3.38250E+01 0.00000E+00
 -1      2911 6.34892E+01 2.83853E+01 0.00000E+00
 -1      2912 6.43792E+01 2.93153E+01 0.00000E+00
 -1      2913 4.23721E+01 3.88584E+01 0.00000E+00
 -1      2914 4.18957E+01 3.77712E+01 0.00000E+00
 -1      2915 6.56341E+01 3.35660E+01 0.00000E+00
 -1      2916 6.57622E+01 3.47860E+01 0.00000E+00
 -1      2917 5.13822E+01 2.46433E+01 0.00000E+00
 -1      2918 5.22779E+01 2.45793E+01 0.00000E+00
 -1      2919 6.52651E+01 4.05534E+01 0.00000E+00
 -1      2920 6.49168E+01 4.16412E+01 0.00000E+00
 -1      2921 6.56328E+01 4.18833E+01 0.00000E+00
 -1      2922 6.63984E+01 4.00525E+01 0.00000E+00
 -1      2923 6.71328E+01 4.18833E+01 0.00000E+00
 -1      2924 6.15029E+01 2.66662E+01 0.00000E+00
 -1      2925 6.24961E+01 2.75257E+01 0.00000E+00
 -1      2926 6.38027E+01 2.71661E+01 0.00000E+00
 -1      2927 5.61564E+01 2.52083E+01 0.00000E+00
 -1      2928 5.74809E+01 2.52434E+01 0.00000E+00
 -1      2929 4.28473E+01 3.09669E+01 0.00000E+00
 -1      2930 4.34827E+01 2.99397E+01 0.00000E+00
 -1      2931 4.17313E+01 3.61927E+01 0.00000E+00
 -1      2932 4.20479E+01 3.49782E+01 0.00000E+00
 -1      2933 4.12595E+01 3.43211E+01 0.00000E+00
 -1      2934 4.61101E+01 2.66916E+01 0.00000E+00
 -1      2935 4.70578E+01 2.58967E+01 0.00000E+00
 -1      2936 4.42020E+01 2.86986E+01 0.00000E+00
 -1      2937 4.50847E+01 2.76973E+01 0.00000E+00
 -1      2938 9.09300E+00 1.68813E+01 0.00000E+00
 -1      2939 9.09300E+00 1.83563E+01 0.00000E+00
 -1      2940 1.03920E+01 1.90812E+01 0.00000E+00
 -1      2941 1.03920E+01 1.61437E+01 0.00000E+00
 -1      2942 8.87925E+00 4.05429E+01 0.00000E+00
 -1      2943 1.02052E+01 4.08069E+01 0.00000E+00
 -1      2944 1.09552E+01 3.95079E+01 0.00000E+00
 -1      2945 8.86575E+00 3.93078E+01 0.00000E+00
 -1      2946 6.52106E+01 3.08875E+01 0.00000E+00
 -1      2947 6.55879E+01 3.21078E+01 0.00000E+00
 -1      2948 4.86038E+01 2.50253E+01 0.00000E+00
 -1      2949 5.00063E+01 2.46483E+01 0.00000E+00
 -1      2950 5.89971E+01 2.55339E+01 0.00000E+00
 -1      2951 6.00344E+01 2.60087E+01 0.00000E+00
 -1      2952 6.59247E+01 3.59441E+01 0.00000E+00
 -1      2953 6.59450E+01 3.69011E+01 0.00000E+00
 -1      2954 4.27382E+01 4.14105E+01 0.00000E+00
 -1      2955 1.03920E+01 2.49750E+01 0.00000E+00
 -1      2956 9.09300E+00 2.57000E+01 0.00000E+00
 -1      2957 9.09300E+00 2.71750E+01 0.00000E+00
 -1      2958 6.78828E+01 4.07744E+01 0.00000E+00
 -1      2959 2.20350E+01 9.20225E+00 0.00000E+00
 -1      2960 2.12850E+01 7.90325E+00 0.00000E+00
 -1      2961 1.97850E+01 7.90325E+00 0.00000E+00
 -1      2962 4.13882E+01 4.14105E+01 0.00000E+00
 -1      2963 3.99859E+01 3.91503E+01 0.00000E+00
 -1      2964 4.07359E+01 4.04493E+01 0.00000E+00
 -1      2965 1.03920E+01 3.37938E+01 0.00000E+00
 -1      2966 9.09300E+00 3.45313E+01 0.00000E+00
 -1      2967 9.09300E+00 3.60000E+01 0.00000E+00
 -1      2968 6.68286E+01 3.77698E+01 0.00000E+00
 -1      2969 1.40706E+02 1.17875E+01 0.00000E+00
 -1      2970 9.09300E+00 2.86437E+01 0.00000E+00
 -1      2971 9.09300E+00 3.01187E+01 0.00000E+00
 -1      2972 1.03920E+01 3.08563E+01 0.00000E+00
 -1      2973 1.03920E+01 2.79188E+01 0.00000E+00
 -1      2974 1.51772E+01 7.76028E+00 0.00000E+00
 -1      2975 1.39596E+01 7.52250E+00 0.00000E+00
 -1      2976 6.67135E+01 3.52445E+01 0.00000E+00
 -1      2977 1.39608E+02 1.61875E+01 0.00000E+00
 -1      2978 1.40907E+02 1.54500E+01 0.00000E+00
 -1      2979 1.40907E+02 1.39875E+01 0.00000E+00
 -1      2980 4.19241E+01 3.96538E+01 0.00000E+00
 -1      2981 6.56273E+01 2.95979E+01 0.00000E+00
 -1      2982 5.77158E+01 2.38681E+01 0.00000E+00
 -1      2983 5.83565E+01 2.47010E+01 0.00000E+00
 -1      2984 5.92320E+01 2.41586E+01 0.00000E+00
 -1      2985 1.41056E+02 3.85146E+01 0.00000E+00
 -1      2986 1.41051E+02 3.72085E+01 0.00000E+00
 -1      2987 1.39752E+02 3.64710E+01 0.00000E+00
 -1      2988 1.40039E+02 3.88131E+01 0.00000E+00
 -1      2989 4.04834E+01 3.80356E+01 0.00000E+00
 -1      2990 4.11074E+01 3.71141E+01 0.00000E+00
 -1      2991 4.03190E+01 3.64571E+01 0.00000E+00
 -1      2992 6.65048E+01 3.26282E+01 0.00000E+00
 -1      2993 4.31550E+01 2.87611E+01 0.00000E+00
 -1      2994 5.24495E+01 2.33437E+01 0.00000E+00
 -1      2995 5.29585E+01 2.41671E+01 0.00000E+00
 -1      2996 5.36391E+01 2.37548E+01 0.00000E+00
 -1      2997 5.03931E+01 2.37609E+01 0.00000E+00
 -1      2998 4.74712E+01 2.46373E+01 0.00000E+00
 -1      2999 6.13411E+01 2.56490E+01 0.00000E+00
 -1      3000 4.11644E+01 3.21419E+01 0.00000E+00
 -1      3001 4.20059E+01 3.15544E+01 0.00000E+00
 -1      3002 4.15942E+01 3.05897E+01 0.00000E+00
 -1      3003 5.54942E+01 2.44943E+01 0.00000E+00
 -1      3004 4.48998E+01 2.65144E+01 0.00000E+00
 -1      3005 1.82850E+01 7.90325E+00 0.00000E+00
 -1      3006 1.67850E+01 7.90325E+00 0.00000E+00
 -1      3007 1.90350E+01 9.20225E+00 0.00000E+00
 -1      3008 1.59272E+01 9.05928E+00 0.00000E+00
 -1      3009 1.16910E+01 9.51250E+00 0.00000E+00
 -1      3010 1.16910E+01 1.09875E+01 0.00000E+00
 -1      3011 1.16910E+01 1.24625E+01 0.00000E+00
 -1      3012 1.16910E+01 1.39375E+01 0.00000E+00
 -1      3013 1.29900E+01 1.17250E+01 0.00000E+00
 -1      3014 1.56000E+01 3.83090E+01 0.00000E+00
 -1      3015 1.71000E+01 3.83090E+01 0.00000E+00
 -1      3016 1.21890E+01 6.67137E+00 0.00000E+00
 -1      3017 1.25488E+01 8.06518E+00 0.00000E+00
 -1      3018 3.17850E+01 1.05013E+01 0.00000E+00
 -1      3019 3.02850E+01 1.05013E+01 0.00000E+00
 -1      3020 1.86000E+01 3.83090E+01 0.00000E+00
 -1      3021 2.01000E+01 3.83090E+01 0.00000E+00
 -1      3022 1.78500E+01 3.70100E+01 0.00000E+00
 -1      3023 2.16000E+01 3.83090E+01 0.00000E+00
 -1      3024 2.31000E+01 3.83090E+01 0.00000E+00
 -1      3025 2.08500E+01 3.70100E+01 0.00000E+00
 -1      3026 2.46000E+01 3.83090E+01 0.00000E+00
 -1      3027 2.61000E+01 3.83090E+01 0.00000E+00
 -1      3028 2.38500E+01 3.70100E+01 0.00000E+00
 -1      3029 2.75250E+01 3.83090E+01 0.00000E+00
 -1      3030 2.89500E+01 3.83090E+01 0.00000E+00
 -1      3031 2.67750E+01 3.70100E+01 0.00000E+00
 -1      3032 3.04500E+01 3.83090E+01 0.00000E+00
 -1      3033 3.19500E+01 3.83090E+01 0.00000E+00
 -1      3034 2.97000E+01 3.70100E+01 0.00000E+00
 -1      3035 3.34500E+01 3.83090E+01 0.00000E+00
 -1      3036 3.49500E+01 3.83090E+01 0.00000E+00
 -1      3037 3.27000E+01 3.70100E+01 0.00000E+00
 -1      3038 3.91975E+01 3.84933E+01 0.00000E+00
 -1      3039 1.27500E+01 3.83090E+01 0.00000E+00
 -1      3040 1.41750E+01 3.83090E+01 0.00000E+00
 -1      3041 1.49250E+01 3.70100E+01 0.00000E+00
 -1      3042 2.87850E+01 1.05013E+01 0.00000E+00
 -1      3043 2.72850E+01 1.05013E+01 0.00000E+00
 -1      3044 2.95350E+01 1.18003E+01 0.00000E+00
 -1      3045 7.35000E+01 3.92820E+01 0.00000E+00
 -1      3046 7.50000E+01 3.92820E+01 0.00000E+00
 -1      3047 7.64250E+01 3.92820E+01 0.00000E+00
 -1      3048 7.78500E+01 3.92820E+01 0.00000E+00
 -1      3049 7.56750E+01 3.79830E+01 0.00000E+00
 -1      3050 7.93500E+01 3.92820E+01 0.00000E+00
 -1      3051 8.08500E+01 3.92820E+01 0.00000E+00
 -1      3052 7.86000E+01 3.79830E+01 0.00000E+00
 -1      3053 8.23500E+01 3.92820E+01 0.00000E+00
 -1      3054 8.38500E+01 3.92820E+01 0.00000E+00
 -1      3055 8.16000E+01 3.79830E+01 0.00000E+00
 -1      3056 8.53500E+01 3.92820E+01 0.00000E+00
 -1      3057 8.68500E+01 3.92820E+01 0.00000E+00
 -1      3058 8.46000E+01 3.79830E+01 0.00000E+00
 -1      3059 8.83500E+01 3.92820E+01 0.00000E+00
 -1      3060 8.98500E+01 3.92820E+01 0.00000E+00
 -1      3061 8.76000E+01 3.79830E+01 0.00000E+00
 -1      3062 9.12750E+01 3.92820E+01 0.00000E+00
 -1      3063 9.27000E+01 3.92820E+01 0.00000E+00
 -1      3064 9.05250E+01 3.79830E+01 0.00000E+00
 -1      3065 9.42000E+01 3.92820E+01 0.00000E+00
 -1      3066 9.57000E+01 3.92820E+01 0.00000E+00
 -1      3067 9.34500E+01 3.79830E+01 0.00000E+00
 -1      3068 9.72000E+01 3.92820E+01 0.00000E+00
 -1      3069 9.87000E+01 3.92820E+01 0.00000E+00
 -1      3070 9.64500E+01 3.79830E+01 0.00000E+00
 -1      3071 1.00200E+02 3.92820E+01 0.00000E+00
 -1      3072 1.01700E+02 3.92820E+01 0.00000E+00
 -1      3073 9.94500E+01 3.79830E+01 0.00000E+00
 -1      3074 1.03200E+02 3.92820E+01 0.00000E+00
 -1      3075 1.04700E+02 3.92820E+01 0.00000E+00
 -1      3076 1.02450E+02 3.79830E+01 0.00000E+00
 -1      3077 1.06200E+02 3.92820E+01 0.00000E+00
 -1      3078 1.07700E+02 3.92820E+01 0.00000E+00
 -1      3079 1.05450E+02 3.79830E+01 0.00000E+00
 -1      3080 1.09125E+02 3.92820E+01 0.00000E+00
 -1      3081 1.10550E+02 3.92820E+01 0.00000E+00
 -1      3082 1.08375E+02 3.79830E+01 0.00000E+00
 -1      3083 1.12050E+02 3.92820E+01 0.00000E+00
 -1      3084 1.13550E+02 3.92820E+01 0.00000E+00
 -1      3085 1.11300E+02 3.79830E+01 0.00000E+00
 -1      3086 1.15050E+02 3.92820E+01 0.00000E+00
 -1      3087 1.16550E+02 3.92820E+01 0.00000E+00
 -1      3088 1.14300E+02 3.79830E+01 0.00000E+00
 -1      3089 1.18050E+02 3.92820E+01 0.00000E+00
 -1      3090 1.19550E+02 3.92820E+01 0.00000E+00
 -1      3091 1.17300E+02 3.79830E+01 0.00000E+00
 -1      3092 1.21050E+02 3.92820E+01 0.00000E+00
 -1      3093 1.22550E+02 3.92820E+01 0.00000E+00
 -1      3094 1.20300E+02 3.79830E+01 0.00000E+00
 -1      3095 1.24050E+02 3.92820E+01 0.00000E+00
 -1      3096 1.25550E+02 3.92820E+01 0.00000E+00
 -1      3097 1.23300E+02 3.79830E+01 0.00000E+00
 -1      3098 1.26975E+02 3.92820E+01 0.00000E+00
 -1      3099 1.28400E+02 3.92820E+01 0.00000E+00
 -1      3100 1.26225E+02 3.79830E+01 0.00000E+00
 -1      3101 1.29900E+02 3.92820E+01 0.00000E+00
 -1      3102 1.31400E+02 3.92820E+01 0.00000E+00
 -1      3103 1.29150E+02 3.79830E+01 0.00000E+00
 -1      3104 1.32900E+02 3.92820E+01 0.00000E+00
 -1      3105 1.34400E+02 3.92820E+01 0.00000E+00
 -1      3106 1.32150E+02 3.79830E+01 0.00000E+00
 -1      3107 1.35900E+02 3.92820E+01 0.00000E+00
 -1      3108 1.37400E+02 3.92820E+01 0.00000E+00
 -1      3109 1.35150E+02 3.79830E+01 0.00000E+00
 -1      3110 1.38309E+02 3.45625E+01 0.00000E+00
 -1      3111 1.38309E+02 3.30875E+01 0.00000E+00
 -1      3112 6.76474E+01 3.45231E+01 0.00000E+00
 -1      3113 6.78099E+01 3.56812E+01 0.00000E+00
 -1      3114 2.57850E+01 1.05013E+01 0.00000E+00
 -1      3115 2.42850E+01 1.05013E+01 0.00000E+00
 -1      3116 2.65350E+01 1.18003E+01 0.00000E+00
 -1      3117 3.77850E+01 1.05013E+01 0.00000E+00
 -1      3118 3.62850E+01 1.05013E+01 0.00000E+00
 -1      3119 4.07850E+01 1.05013E+01 0.00000E+00
 -1      3120 3.92850E+01 1.05013E+01 0.00000E+00
 -1      3121 3.85350E+01 1.18003E+01 0.00000E+00
 -1      3122 4.37850E+01 1.05013E+01 0.00000E+00
 -1      3123 4.22850E+01 1.05013E+01 0.00000E+00
 -1      3124 4.15350E+01 1.18003E+01 0.00000E+00
 -1      3125 4.67850E+01 1.05013E+01 0.00000E+00
 -1      3126 4.52850E+01 1.05013E+01 0.00000E+00
 -1      3127 4.45350E+01 1.18003E+01 0.00000E+00
 -1      3128 4.97850E+01 1.05013E+01 0.00000E+00
 -1      3129 4.82850E+01 1.05013E+01 0.00000E+00
 -1      3130 4.75350E+01 1.18003E+01 0.00000E+00
 -1      3131 5.27850E+01 1.05013E+01 0.00000E+00
 -1      3132 5.12850E+01 1.05013E+01 0.00000E+00
 -1      3133 5.05350E+01 1.18003E+01 0.00000E+00
 -1      3134 5.57850E+01 1.05013E+01 0.00000E+00
 -1      3135 5.42850E+01 1.05013E+01 0.00000E+00
 -1      3136 5.35350E+01 1.18003E+01 0.00000E+00
 -1      3137 5.87850E+01 1.05013E+01 0.00000E+00
 -1      3138 5.72850E+01 1.05013E+01 0.00000E+00
 -1      3139 5.65350E+01 1.18003E+01 0.00000E+00
 -1      3140 6.17850E+01 1.05013E+01 0.00000E+00
 -1      3141 6.02850E+01 1.05013E+01 0.00000E+00
 -1      3142 5.95350E+01 1.18003E+01 0.00000E+00
 -1      3143 6.47850E+01 1.05013E+01 0.00000E+00
 -1      3144 6.32850E+01 1.05013E+01 0.00000E+00
 -1      3145 6.25350E+01 1.18003E+01 0.00000E+00
 -1      3146 6.77850E+01 1.05013E+01 0.00000E+00
 -1      3147 6.62850E+01 1.05013E+01 0.00000E+00
 -1      3148 6.55350E+01 1.18003E+01 0.00000E+00
 -1      3149 7.07850E+01 1.05013E+01 0.00000E+00
 -1      3150 6.92850E+01 1.05013E+01 0.00000E+00
 -1      3151 6.85350E+01 1.18003E+01 0.00000E+00
 -1      3152 7.37850E+01 1.05013E+01 0.00000E+00
 -1      3153 7.22850E+01 1.05013E+01 0.00000E+00
 -1      3154 7.15350E+01 1.18003E+01 0.00000E+00
 -1      3155 7.67850E+01 1.05013E+01 0.00000E+00
 -1      3156 7.52850E+01 1.05013E+01 0.00000E+00
 -1      3157 7.45350E+01 1.18003E+01 0.00000E+00
 -1      3158 7.97850E+01 1.05013E+01 0.00000E+00
 -1      3159 7.82850E+01 1.05013E+01 0.00000E+00
 -1      3160 7.75350E+01 1.18003E+01 0.00000E+00
 -1      3161 8.27850E+01 1.05013E+01 0.00000E+00
 -1      3162 8.12850E+01 1.05013E+01 0.00000E+00
 -1      3163 8.05350E+01 1.18003E+01 0.00000E+00
 -1      3164 8.57850E+01 1.05013E+01 0.00000E+00
 -1      3165 8.42850E+01 1.05013E+01 0.00000E+00
 -1      3166 8.35350E+01 1.18003E+01 0.00000E+00
 -1      3167 8.87850E+01 1.05013E+01 0.00000E+00
 -1      3168 8.72850E+01 1.05013E+01 0.00000E+00
 -1      3169 8.65350E+01 1.18003E+01 0.00000E+00
 -1      3170 9.17850E+01 1.05013E+01 0.00000E+00
 -1      3171 9.02850E+01 1.05013E+01 0.00000E+00
 -1      3172 8.95350E+01 1.18003E+01 0.00000E+00
 -1      3173 9.47850E+01 1.05013E+01 0.00000E+00
 -1      3174 9.32850E+01 1.05013E+01 0.00000E+00
 -1      3175 9.25350E+01 1.18003E+01 0.00000E+00
 -1      3176 9.77850E+01 1.05013E+01 0.00000E+00
 -1      3177 9.62850E+01 1.05013E+01 0.00000E+00
 -1      3178 9.55350E+01 1.18003E+01 0.00000E+00
 -1      3179 1.00785E+02 1.05013E+01 0.00000E+00
 -1      3180 9.92850E+01 1.05013E+01 0.00000E+00
 -1      3181 9.85350E+01 1.18003E+01 0.00000E+00
 -1      3182 1.03785E+02 1.05013E+01 0.00000E+00
 -1      3183 1.02285E+02 1.05013E+01 0.00000E+00
 -1      3184 1.01535E+02 1.18003E+01 0.00000E+00
 -1      3185 1.06785E+02 1.05013E+01 0.00000E+00
 -1      3186 1.05285E+02 1.05013E+01 0.00000E+00
 -1      3187 1.04535E+02 1.18003E+01 0.00000E+00
 -1      3188 1.09785E+02 1.05013E+01 0.00000E+00
 -1      3189 1.08285E+02 1.05013E+01 0.00000E+00
 -1      3190 1.07535E+02 1.18003E+01 0.00000E+00
 -1      3191 1.12785E+02 1.05013E+01 0.00000E+00
 -1      3192 1.11285E+02 1.05013E+01 0.00000E+00
 -1      3193 1.10535E+02 1.18003E+01 0.00000E+00
 -1      3194 1.15785E+02 1.05013E+01 0.00000E+00
 -1      3195 1.14285E+02 1.05013E+01 0.00000E+00
 -1      3196 1.13535E+02 1.18003E+01 0.00000E+00
 -1      3197 1.18785E+02 1.05013E+01 0.00000E+00
 -1      3198 1.17285E+02 1.05013E+01 0.00000E+00
 -1      3199 1.16535E+02 1.18003E+01 0.00000E+00
 -1      3200 1.21785E+02 1.05013E+01 0.00000E+00
 -1      3201 1.20285E+02 1.05013E+01 0.00000E+00
 -1      3202 1.19535E+02 1.18003E+01 0.00000E+00
 -1      3203 1.24785E+02 1.05013E+01 0.00000E+00
 -1      3204 1.23285E+02 1.05013E+01 0.00000E+00
 -1      3205 1.22535E+02 1.18003E+01 0.00000E+00
 -1      3206 1.27785E+02 1.05013E+01 0.00000E+00
 -1      3207 1.26285E+02 1.05013E+01 0.00000E+00
 -1      3208 1.25535E+02 1.18003E+01 0.00000E+00
 -1      3209 1.30785E+02 1.05013E+01 0.00000E+00
 -1      3210 1.29285E+02 1.05013E+01 0.00000E+00
 -1      3211 1.28535E+02 1.18003E+01 0.00000E+00
 -1      3212 1.33785E+02 1.05013E+01 0.00000E+00
 -1      3213 1.32285E+02 1.05013E+01 0.00000E+00
 -1      3214 1.31535E+02 1.18003E+01 0.00000E+00
 -1      3215 6.35413E+01 4.33198E+01 0.00000E+00
 -1      3216 1.38309E+02 2.57625E+01 0.00000E+00
 -1      3217 1.38309E+02 2.42875E+01 0.00000E+00
 -1      3218 3.47850E+01 1.05013E+01 0.00000E+00
 -1      3219 3.32850E+01 1.05013E+01 0.00000E+00
 -1      3220 3.55350E+01 1.18003E+01 0.00000E+00
 -1      3221 6.63400E+01 2.82150E+01 0.00000E+00
 -1      3222 6.71714E+01 2.97872E+01 0.00000E+00
 -1      3223 8.97262E+00 3.70363E+01 0.00000E+00
 -1      3224 8.98612E+00 3.82715E+01 0.00000E+00
 -1      3225 1.00309E+01 3.83715E+01 0.00000E+00
 -1      3226 1.02716E+01 3.62988E+01 0.00000E+00
 -1      3227 6.82656E+01 3.98590E+01 0.00000E+00
 -1      3228 4.18360E+01 2.88256E+01 0.00000E+00
 -1      3229 4.25553E+01 2.75845E+01 0.00000E+00
 -1      3230 1.38309E+02 3.16125E+01 0.00000E+00
 -1      3231 1.38309E+02 3.01375E+01 0.00000E+00
 -1      3232 1.37010E+02 3.23500E+01 0.00000E+00
 -1      3233 6.41562E+01 2.57541E+01 0.00000E+00
 -1      3234 6.51494E+01 2.66137E+01 0.00000E+00
 -1      3235 4.97014E+01 2.27383E+01 0.00000E+00
 -1      3236 5.10773E+01 2.27333E+01 0.00000E+00
 -1      3237 6.75551E+01 3.16067E+01 0.00000E+00
 -1      3238 6.76013E+01 3.30649E+01 0.00000E+00
 -1      3239 6.86977E+01 3.35015E+01 0.00000E+00
 -1      3240 7.05000E+01 3.92820E+01 0.00000E+00
 -1      3241 7.20000E+01 3.92820E+01 0.00000E+00
 -1      3242 7.27500E+01 3.79830E+01 0.00000E+00
 -1      3243 4.01904E+01 3.46910E+01 0.00000E+00
 -1      3244 4.05069E+01 3.34765E+01 0.00000E+00
 -1      3245 5.47704E+01 2.37222E+01 0.00000E+00
 -1      3246 5.61165E+01 2.36383E+01 0.00000E+00
 -1      3247 4.36106E+01 2.62255E+01 0.00000E+00
 -1      3248 4.46360E+01 2.52199E+01 0.00000E+00
 -1      3249 6.10600E+01 2.43082E+01 0.00000E+00
 -1      3250 6.25285E+01 2.49657E+01 0.00000E+00
 -1      3251 4.61537E+01 2.41070E+01 0.00000E+00
 -1      3252 4.76997E+01 2.32356E+01 0.00000E+00
 -1      3253 1.16910E+01 2.12875E+01 0.00000E+00
 -1      3254 1.16910E+01 2.27625E+01 0.00000E+00
 -1      3255 1.38309E+02 2.86750E+01 0.00000E+00
 -1      3256 1.38309E+02 2.72250E+01 0.00000E+00
 -1      3257 1.37010E+02 2.64875E+01 0.00000E+00
 -1      3258 1.37010E+02 2.94125E+01 0.00000E+00
 -1      3259 1.39407E+02 1.25250E+01 0.00000E+00
 -1      3260 6.79221E+01 3.81649E+01 0.00000E+00
 -1      3261 6.94065E+01 3.88869E+01 0.00000E+00
 -1      3262 7.01565E+01 3.75879E+01 0.00000E+00
 -1      3263 6.79695E+01 3.67977E+01 0.00000E+00
 -1      3264 1.10756E+01 3.84716E+01 0.00000E+00
 -1      3265 1.29900E+01 1.46687E+01 0.00000E+00
 -1      3266 1.16910E+01 1.54063E+01 0.00000E+00
 -1      3267 1.16910E+01 1.68750E+01 0.00000E+00
 -1      3268 6.82678E+01 3.02239E+01 0.00000E+00
 -1      3269 6.66935E+01 2.68030E+01 0.00000E+00
 -1      3270 3.25350E+01 1.18003E+01 0.00000E+00
 -1      3271 2.27850E+01 1.05013E+01 0.00000E+00
 -1      3272 2.12850E+01 1.05013E+01 0.00000E+00
 -1      3273 2.35350E+01 1.18003E+01 0.00000E+00
 -1      3274 3.64500E+01 3.83315E+01 0.00000E+00
 -1      3275 3.79500E+01 3.83315E+01 0.00000E+00
 -1      3276 1.16910E+01 3.30594E+01 0.00000E+00
 -1      3277 1.16910E+01 3.45281E+01 0.00000E+00
 -1      3278 1.18256E+01 3.71726E+01 0.00000E+00
 -1      3279 1.16910E+01 2.42375E+01 0.00000E+00
 -1      3280 1.16910E+01 2.57125E+01 0.00000E+00
 -1      3281 1.29900E+01 2.35000E+01 0.00000E+00
 -1      3282 6.35073E+01 4.47547E+01 0.00000E+00
 -1      3283 1.66160E+01 1.04247E+01 0.00000E+00
 -1      3284 1.50083E+01 1.02817E+01 0.00000E+00
 -1      3285 4.00952E+01 3.25118E+01 0.00000E+00
 -1      3286 1.38453E+02 3.57335E+01 0.00000E+00
 -1      3287 1.37154E+02 3.49960E+01 0.00000E+00
 -1      3288 1.38597E+02 3.69045E+01 0.00000E+00
 -1      3289 1.39023E+02 3.91115E+01 0.00000E+00
 -1      3290 6.89034E+01 3.60763E+01 0.00000E+00
 -1      3291 3.84475E+01 3.72168E+01 0.00000E+00
 -1      3292 1.36547E+01 9.58315E+00 0.00000E+00
 -1      3293 1.18841E+01 8.73203E+00 0.00000E+00
 -1      3294 1.43435E+01 1.09485E+01 0.00000E+00
 -1      3295 1.34953E+02 1.07819E+01 0.00000E+00
 -1      3296 1.34203E+02 1.20809E+01 0.00000E+00
 -1      3297 1.36120E+02 1.10626E+01 0.00000E+00
 -1      3298 1.38309E+02 1.98625E+01 0.00000E+00
 -1      3299 1.38309E+02 1.83875E+01 0.00000E+00
 -1      3300 1.38239E+02 1.22443E+01 0.00000E+00
 -1      3301 1.37072E+02 1.19636E+01 0.00000E+00
 -1      3302 1.38440E+02 1.44443E+01 0.00000E+00
 -1      3303 3.90069E+01 3.64146E+01 0.00000E+00
 -1      3304 3.96309E+01 3.54932E+01 0.00000E+00
 -1      3305 3.88783E+01 3.46485E+01 0.00000E+00
 -1      3306 3.77594E+01 3.62529E+01 0.00000E+00
 -1      3307 1.38375E+02 1.71472E+01 0.00000E+00
 -1      3308 1.38375E+02 1.56847E+01 0.00000E+00
 -1      3309 1.37207E+02 1.54040E+01 0.00000E+00
 -1      3310 1.37076E+02 1.78847E+01 0.00000E+00
 -1      3311 1.38309E+02 2.28125E+01 0.00000E+00
 -1      3312 1.38309E+02 2.13375E+01 0.00000E+00
 -1      3313 1.37010E+02 2.35500E+01 0.00000E+00
 -1      3314 1.16910E+01 3.01219E+01 0.00000E+00
 -1      3315 1.16910E+01 3.15906E+01 0.00000E+00
 -1      3316 1.29900E+01 3.23250E+01 0.00000E+00
 -1      3317 5.69920E+01 2.30959E+01 0.00000E+00
 -1      3318 5.78676E+01 2.25535E+01 0.00000E+00
 -1      3319 5.62683E+01 2.23238E+01 0.00000E+00
 -1      3320 4.83839E+01 2.22080E+01 0.00000E+00
 -1      3321 4.90681E+01 2.11804E+01 0.00000E+00
 -1      3322 4.70664E+01 2.16777E+01 0.00000E+00
 -1      3323 1.16910E+01 1.98188E+01 0.00000E+00
 -1      3324 1.29900E+01 2.05562E+01 0.00000E+00
 -1      3325 1.16910E+01 1.83500E+01 0.00000E+00
 -1      3326 4.09945E+01 2.94131E+01 0.00000E+00
 -1      3327 4.03948E+01 2.82365E+01 0.00000E+00
 -1      3328 4.01530E+01 3.00006E+01 0.00000E+00
 -1      3329 4.48645E+01 2.38182E+01 0.00000E+00
 -1      3330 5.17578E+01 2.23211E+01 0.00000E+00
 -1      3331 5.24384E+01 2.19089E+01 0.00000E+00
 -1      3332 5.10662E+01 2.12985E+01 0.00000E+00
 -1      3333 6.04194E+01 2.34753E+01 0.00000E+00
 -1      3334 6.16068E+01 2.27919E+01 0.00000E+00
 -1      3335 5.97787E+01 2.26423E+01 0.00000E+00
 -1      3336 4.22915E+01 2.62900E+01 0.00000E+00
 -1      3337 5.42614E+01 2.28988E+01 0.00000E+00
 -1      3338 6.38752E+01 2.44133E+01 0.00000E+00
 -1      3339 3.57000E+01 3.70325E+01 0.00000E+00
 -1      3340 1.97850E+01 1.05013E+01 0.00000E+00
 -1      3341 1.82850E+01 1.05013E+01 0.00000E+00
 -1      3342 2.05350E+01 1.18003E+01 0.00000E+00
 -1      3343 1.73660E+01 1.17237E+01 0.00000E+00
 -1      3344 1.71000E+01 3.57110E+01 0.00000E+00
 -1      3345 1.86000E+01 3.57110E+01 0.00000E+00
 -1      3346 2.01000E+01 3.57110E+01 0.00000E+00
 -1      3347 2.16000E+01 3.57110E+01 0.00000E+00
 -1      3348 1.93500E+01 3.44120E+01 0.00000E+00
 -1      3349 2.31000E+01 3.57110E+01 0.00000E+00
 -1      3350 2.46000E+01 3.57110E+01 0.00000E+00
 -1      3351 2.23500E+01 3.44120E+01 0.00000E+00
 -1      3352 2.60250E+01 3.57110E+01 0.00000E+00
 -1      3353 2.74500E+01 3.57110E+01 0.00000E+00
 -1      3354 2.52750E+01 3.44120E+01 0.00000E+00
 -1      3355 2.89500E+01 3.57110E+01 0.00000E+00
 -1      3356 3.04500E+01 3.57110E+01 0.00000E+00
 -1      3357 2.82000E+01 3.44120E+01 0.00000E+00
 -1      3358 3.19500E+01 3.57110E+01 0.00000E+00
 -1      3359 3.34500E+01 3.57110E+01 0.00000E+00
 -1      3360 3.12000E+01 3.44120E+01 0.00000E+00
 -1      3361 7.49625E+01 3.66840E+01 0.00000E+00
 -1      3362 7.63875E+01 3.66840E+01 0.00000E+00
 -1      3363 1.19460E+01 3.61362E+01 0.00000E+00
 -1      3364 3.02850E+01 1.30992E+01 0.00000E+00
 -1      3365 2.87850E+01 1.30992E+01 0.00000E+00
 -1      3366 1.16910E+01 2.71844E+01 0.00000E+00
 -1      3367 1.16910E+01 2.86531E+01 0.00000E+00
 -1      3368 1.29900E+01 2.93875E+01 0.00000E+00
 -1      3369 3.88380E+01 3.26697E+01 0.00000E+00
 -1      3370 3.94955E+01 3.13351E+01 0.00000E+00
 -1      3371 3.88958E+01 3.01585E+01 0.00000E+00
 -1      3372 1.38273E+02 3.78125E+01 0.00000E+00
 -1      3373 7.78875E+01 3.66840E+01 0.00000E+00
 -1      3374 7.93875E+01 3.66840E+01 0.00000E+00
 -1      3375 7.71750E+01 3.53850E+01 0.00000E+00
 -1      3376 8.08875E+01 3.66840E+01 0.00000E+00
 -1      3377 8.23875E+01 3.66840E+01 0.00000E+00
 -1      3378 8.01750E+01 3.53850E+01 0.00000E+00
 -1      3379 8.38875E+01 3.66840E+01 0.00000E+00
 -1      3380 8.53875E+01 3.66840E+01 0.00000E+00
 -1      3381 8.31750E+01 3.53850E+01 0.00000E+00
 -1      3382 8.68875E+01 3.66840E+01 0.00000E+00
 -1      3383 8.83875E+01 3.66840E+01 0.00000E+00
 -1      3384 8.61750E+01 3.53850E+01 0.00000E+00
 -1      3385 8.98125E+01 3.66840E+01 0.00000E+00
 -1      3386 9.12375E+01 3.66840E+01 0.00000E+00
 -1      3387 8.91000E+01 3.53850E+01 0.00000E+00
 -1      3388 9.27375E+01 3.66840E+01 0.00000E+00
 -1      3389 9.42375E+01 3.66840E+01 0.00000E+00
 -1      3390 9.20250E+01 3.53850E+01 0.00000E+00
 -1      3391 9.57375E+01 3.66840E+01 0.00000E+00
 -1      3392 9.72375E+01 3.66840E+01 0.00000E+00
 -1      3393 9.50250E+01 3.53850E+01 0.00000E+00
 -1      3394 9.87375E+01 3.66840E+01 0.00000E+00
 -1      3395 1.00238E+02 3.66840E+01 0.00000E+00
 -1      3396 9.80250E+01 3.53850E+01 0.00000E+00
 -1      3397 1.01738E+02 3.66840E+01 0.00000E+00
 -1      3398 1.03238E+02 3.66840E+01 0.00000E+00
 -1      3399 1.01025E+02 3.53850E+01 0.00000E+00
 -1      3400 1.04738E+02 3.66840E+01 0.00000E+00
 -1      3401 1.06238E+02 3.66840E+01 0.00000E+00
 -1      3402 1.04025E+02 3.53850E+01 0.00000E+00
 -1      3403 1.07662E+02 3.66840E+01 0.00000E+00
 -1      3404 1.09088E+02 3.66840E+01 0.00000E+00
 -1      3405 1.06950E+02 3.53850E+01 0.00000E+00
 -1      3406 1.10588E+02 3.66840E+01 0.00000E+00
 -1      3407 1.12088E+02 3.66840E+01 0.00000E+00
 -1      3408 1.09875E+02 3.53850E+01 0.00000E+00
 -1      3409 1.13588E+02 3.66840E+01 0.00000E+00
 -1      3410 1.15088E+02 3.66840E+01 0.00000E+00
 -1      3411 1.12875E+02 3.53850E+01 0.00000E+00
 -1      3412 1.16588E+02 3.66840E+01 0.00000E+00
 -1      3413 1.18088E+02 3.66840E+01 0.00000E+00
 -1      3414 1.15875E+02 3.53850E+01 0.00000E+00
 -1      3415 1.19588E+02 3.66840E+01 0.00000E+00
 -1      3416 1.21088E+02 3.66840E+01 0.00000E+00
 -1      3417 1.18875E+02 3.53850E+01 0.00000E+00
 -1      3418 1.22588E+02 3.66840E+01 0.00000E+00
 -1      3419 1.24088E+02 3.66840E+01 0.00000E+00
 -1      3420 1.21875E+02 3.53850E+01 0.00000E+00
 -1      3421 1.25512E+02 3.66840E+01 0.00000E+00
 -1      3422 1.26938E+02 3.66840E+01 0.00000E+00
 -1      3423 1.24800E+02 3.53850E+01 0.00000E+00
 -1      3424 1.28438E+02 3.66840E+01 0.00000E+00
 -1      3425 1.29938E+02 3.66840E+01 0.00000E+00
 -1      3426 1.27725E+02 3.53850E+01 0.00000E+00
 -1      3427 1.31438E+02 3.66840E+01 0.00000E+00
 -1      3428 1.32938E+02 3.66840E+01 0.00000E+00
 -1      3429 1.30725E+02 3.53850E+01 0.00000E+00
 -1      3430 1.43435E+01 1.24235E+01 0.00000E+00
 -1      3431 4.22850E+01 1.30992E+01 0.00000E+00
 -1      3432 4.07850E+01 1.30992E+01 0.00000E+00
 -1      3433 3.92850E+01 1.30992E+01 0.00000E+00
 -1      3434 3.77850E+01 1.30992E+01 0.00000E+00
 -1      3435 4.00350E+01 1.43982E+01 0.00000E+00
 -1      3436 4.82850E+01 1.30992E+01 0.00000E+00
 -1      3437 4.67850E+01 1.30992E+01 0.00000E+00
 -1      3438 5.12850E+01 1.30992E+01 0.00000E+00
 -1      3439 4.97850E+01 1.30992E+01 0.00000E+00
 -1      3440 4.90350E+01 1.43982E+01 0.00000E+00
 -1      3441 5.42850E+01 1.30992E+01 0.00000E+00
 -1      3442 5.27850E+01 1.30992E+01 0.00000E+00
 -1      3443 5.20350E+01 1.43982E+01 0.00000E+00
 -1      3444 5.72850E+01 1.30992E+01 0.00000E+00
 -1      3445 5.57850E+01 1.30992E+01 0.00000E+00
 -1      3446 5.50350E+01 1.43982E+01 0.00000E+00
 -1      3447 6.02850E+01 1.30992E+01 0.00000E+00
 -1      3448 5.87850E+01 1.30992E+01 0.00000E+00
 -1      3449 5.80350E+01 1.43982E+01 0.00000E+00
 -1      3450 6.32850E+01 1.30992E+01 0.00000E+00
 -1      3451 6.17850E+01 1.30992E+01 0.00000E+00
 -1      3452 6.10350E+01 1.43982E+01 0.00000E+00
 -1      3453 6.62850E+01 1.30992E+01 0.00000E+00
 -1      3454 6.47850E+01 1.30992E+01 0.00000E+00
 -1      3455 6.40350E+01 1.43982E+01 0.00000E+00
 -1      3456 6.92850E+01 1.30992E+01 0.00000E+00
 -1      3457 6.77850E+01 1.30992E+01 0.00000E+00
 -1      3458 6.70350E+01 1.43982E+01 0.00000E+00
 -1      3459 7.22850E+01 1.30992E+01 0.00000E+00
 -1      3460 7.07850E+01 1.30992E+01 0.00000E+00
 -1      3461 7.00350E+01 1.43982E+01 0.00000E+00
 -1      3462 7.52850E+01 1.30992E+01 0.00000E+00
 -1      3463 7.37850E+01 1.30992E+01 0.00000E+00
 -1      3464 7.30350E+01 1.43982E+01 0.00000E+00
 -1      3465 7.82850E+01 1.30992E+01 0.00000E+00
 -1      3466 7.67850E+01 1.30992E+01 0.00000E+00
 -1      3467 7.60350E+01 1.43982E+01 0.00000E+00
 -1      3468 8.12850E+01 1.30992E+01 0.00000E+00
 -1      3469 7.97850E+01 1.30992E+01 0.00000E+00
 -1      3470 7.90350E+01 1.43982E+01 0.00000E+00
 -1      3471 8.42850E+01 1.30992E+01 0.00000E+00
 -1      3472 8.27850E+01 1.30992E+01 0.00000E+00
 -1      3473 8.20350E+01 1.43982E+01 0.00000E+00
 -1      3474 8.72850E+01 1.30992E+01 0.00000E+00
 -1      3475 8.57850E+01 1.30992E+01 0.00000E+00
 -1      3476 8.50350E+01 1.43982E+01 0.00000E+00
 -1      3477 9.02850E+01 1.30992E+01 0.00000E+00
 -1      3478 8.87850E+01 1.30992E+01 0.00000E+00
 -1      3479 8.80350E+01 1.43982E+01 0.00000E+00
 -1      3480 9.32850E+01 1.30992E+01 0.00000E+00
 -1      3481 9.17850E+01 1.30992E+01 0.00000E+00
 -1      3482 9.10350E+01 1.43982E+01 0.00000E+00
 -1      3483 9.62850E+01 1.30992E+01 0.00000E+00
 -1      3484 9.47850E+01 1.30992E+01 0.00000E+00
 -1      3485 9.40350E+01 1.43982E+01 0.00000E+00
 -1      3486 9.92850E+01 1.30992E+01 0.00000E+00
 -1      3487 9.77850E+01 1.30992E+01 0.00000E+00
 -1      3488 9.70350E+01 1.43982E+01 0.00000E+00
 -1      3489 1.02285E+02 1.30992E+01 0.00000E+00
 -1      3490 1.00785E+02 1.30992E+01 0.00000E+00
 -1      3491 1.00035E+02 1.43982E+01 0.00000E+00
 -1      3492 1.05285E+02 1.30992E+01 0.00000E+00
 -1      3493 1.03785E+02 1.30992E+01 0.00000E+00
 -1      3494 1.03035E+02 1.43982E+01 0.00000E+00
 -1      3495 1.08285E+02 1.30992E+01 0.00000E+00
 -1      3496 1.06785E+02 1.30992E+01 0.00000E+00
 -1      3497 1.06035E+02 1.43982E+01 0.00000E+00
 -1      3498 1.11285E+02 1.30992E+01 0.00000E+00
 -1      3499 1.09785E+02 1.30992E+01 0.00000E+00
 -1      3500 1.09035E+02 1.43982E+01 0.00000E+00
 -1      3501 1.14285E+02 1.30992E+01 0.00000E+00
 -1      3502 1.12785E+02 1.30992E+01 0.00000E+00
 -1      3503 1.12035E+02 1.43982E+01 0.00000E+00
 -1      3504 1.17285E+02 1.30992E+01 0.00000E+00
 -1      3505 1.15785E+02 1.30992E+01 0.00000E+00
 -1      3506 1.15035E+02 1.43982E+01 0.00000E+00
 -1      3507 1.20285E+02 1.30992E+01 0.00000E+00
 -1      3508 1.18785E+02 1.30992E+01 0.00000E+00
 -1      3509 1.18035E+02 1.43982E+01 0.00000E+00
 -1      3510 1.23285E+02 1.30992E+01 0.00000E+00
 -1      3511 1.21785E+02 1.30992E+01 0.00000E+00
 -1      3512 1.21035E+02 1.43982E+01 0.00000E+00
 -1      3513 1.26285E+02 1.30992E+01 0.00000E+00
 -1      3514 1.24785E+02 1.30992E+01 0.00000E+00
 -1      3515 1.24035E+02 1.43982E+01 0.00000E+00
 -1      3516 1.29285E+02 1.30992E+01 0.00000E+00
 -1      3517 1.27785E+02 1.30992E+01 0.00000E+00
 -1      3518 1.27035E+02 1.43982E+01 0.00000E+00
 -1      3519 1.32285E+02 1.30992E+01 0.00000E+00
 -1      3520 1.30785E+02 1.30992E+01 0.00000E+00
 -1      3521 1.30035E+02 1.43982E+01 0.00000E+00
 -1      3522 1.37010E+02 2.06000E+01 0.00000E+00
 -1      3523 3.62850E+01 1.30992E+01 0.00000E+00
 -1      3524 3.47850E+01 1.30992E+01 0.00000E+00
 -1      3525 3.70350E+01 1.43982E+01 0.00000E+00
 -1      3526 1.81410E+01 1.30596E+01 0.00000E+00
 -1      3527 1.64720E+01 1.29830E+01 0.00000E+00
 -1      3528 6.98374E+01 3.53548E+01 0.00000E+00
 -1      3529 6.99969E+01 3.64713E+01 0.00000E+00
 -1      3530 7.10904E+01 3.68664E+01 0.00000E+00
 -1      3531 6.93470E+01 2.90461E+01 0.00000E+00
 -1      3532 6.97307E+01 3.08656E+01 0.00000E+00
 -1      3533 3.32850E+01 1.30992E+01 0.00000E+00
 -1      3534 3.17850E+01 1.30992E+01 0.00000E+00
 -1      3535 3.10350E+01 1.43982E+01 0.00000E+00
 -1      3536 1.36974E+02 3.70750E+01 0.00000E+00
 -1      3537 6.97450E+01 3.24384E+01 0.00000E+00
 -1      3538 6.97912E+01 3.38966E+01 0.00000E+00
 -1      3539 7.08847E+01 3.42917E+01 0.00000E+00
 -1      3540 4.08219E+01 2.62380E+01 0.00000E+00
 -1      3541 4.18772E+01 2.48790E+01 0.00000E+00
 -1      3542 6.71407E+01 2.52273E+01 0.00000E+00
 -1      3543 6.83313E+01 2.68287E+01 0.00000E+00
 -1      3544 6.35812E+01 2.29456E+01 0.00000E+00
 -1      3545 6.52090E+01 2.37340E+01 0.00000E+00
 -1      3546 3.49500E+01 3.57335E+01 0.00000E+00
 -1      3547 3.64500E+01 3.57561E+01 0.00000E+00
 -1      3548 3.42000E+01 3.44345E+01 0.00000E+00
 -1      3549 4.52850E+01 1.30992E+01 0.00000E+00
 -1      3550 4.37850E+01 1.30992E+01 0.00000E+00
 -1      3551 4.30350E+01 1.43982E+01 0.00000E+00
 -1      3552 4.60350E+01 1.43982E+01 0.00000E+00
 -1      3553 2.72850E+01 1.30992E+01 0.00000E+00
 -1      3554 2.57850E+01 1.30992E+01 0.00000E+00
 -1      3555 2.80350E+01 1.43982E+01 0.00000E+00
 -1      3556 1.35711E+02 3.30875E+01 0.00000E+00
 -1      3557 1.35711E+02 3.16125E+01 0.00000E+00
 -1      3558 4.33509E+01 2.33452E+01 0.00000E+00
 -1      3559 4.48685E+01 2.22323E+01 0.00000E+00
 -1      3560 7.22765E+01 3.67752E+01 0.00000E+00
 -1      3561 7.37765E+01 3.67752E+01 0.00000E+00
 -1      3562 7.44890E+01 3.54762E+01 0.00000E+00
 -1      3563 7.21169E+01 3.56586E+01 0.00000E+00
 -1      3564 5.35698E+01 2.18762E+01 0.00000E+00
 -1      3565 5.47011E+01 2.18435E+01 0.00000E+00
 -1      3566 5.28781E+01 2.08536E+01 0.00000E+00
 -1      3567 1.32450E+01 3.54019E+01 0.00000E+00
 -1      3568 1.54078E+01 1.34376E+01 0.00000E+00
 -1      3569 1.40542E+01 1.42141E+01 0.00000E+00
 -1      3570 1.40542E+01 1.56829E+01 0.00000E+00
 -1      3571 1.61827E+01 1.47736E+01 0.00000E+00
 -1      3572 1.46700E+01 3.54019E+01 0.00000E+00
 -1      3573 1.54200E+01 3.41029E+01 0.00000E+00
 -1      3574 5.83312E+01 2.10980E+01 0.00000E+00
 -1      3575 5.90550E+01 2.18702E+01 0.00000E+00
 -1      3576 6.02423E+01 2.11868E+01 0.00000E+00
 -1      3577 2.50350E+01 1.43982E+01 0.00000E+00
 -1      3578 2.42850E+01 1.30992E+01 0.00000E+00
 -1      3579 2.27850E+01 1.30992E+01 0.00000E+00
 -1      3580 1.35990E+02 3.69435E+01 0.00000E+00
 -1      3581 1.36314E+02 3.60355E+01 0.00000E+00
 -1      3582 1.36170E+02 3.48645E+01 0.00000E+00
 -1      3583 1.34490E+02 3.69435E+01 0.00000E+00
 -1      3584 1.42890E+01 2.27625E+01 0.00000E+00
 -1      3585 1.42890E+01 2.42375E+01 0.00000E+00
 -1      3586 3.82786E+01 3.34719E+01 0.00000E+00
 -1      3587 3.76788E+01 3.22953E+01 0.00000E+00
 -1      3588 3.77191E+01 3.42741E+01 0.00000E+00
 -1      3589 1.34620E+02 1.36606E+01 0.00000E+00
 -1      3590 1.33453E+02 1.33799E+01 0.00000E+00
 -1      3591 1.32703E+02 1.46789E+01 0.00000E+00
 -1      3592 1.35711E+02 2.13375E+01 0.00000E+00
 -1      3593 1.35711E+02 1.98625E+01 0.00000E+00
 -1      3594 1.34478E+02 1.93597E+01 0.00000E+00
 -1      3595 1.35777E+02 1.86222E+01 0.00000E+00
 -1      3596 1.35842E+02 1.73818E+01 0.00000E+00
 -1      3597 4.18812E+01 2.32932E+01 0.00000E+00
 -1      3598 1.96472E+01 1.31819E+01 0.00000E+00
 -1      3599 1.87532E+01 1.44412E+01 0.00000E+00
 -1      3600 3.70094E+01 3.49539E+01 0.00000E+00
 -1      3601 5.48850E+01 2.02785E+01 0.00000E+00
 -1      3602 5.55767E+01 2.13011E+01 0.00000E+00
 -1      3603 5.64522E+01 2.07588E+01 0.00000E+00
 -1      3604 4.55527E+01 2.12047E+01 0.00000E+00
 -1      3605 4.62369E+01 2.01771E+01 0.00000E+00
 -1      3606 4.40391E+01 2.07318E+01 0.00000E+00
 -1      3607 1.54200E+01 3.26341E+01 0.00000E+00
 -1      3608 1.78500E+01 3.29432E+01 0.00000E+00
 -1      3609 1.54200E+01 3.11654E+01 0.00000E+00
 -1      3610 6.97942E+01 2.74704E+01 0.00000E+00
 -1      3611 7.12571E+01 2.81121E+01 0.00000E+00
 -1      3612 7.02413E+01 2.58946E+01 0.00000E+00
 -1      3613 1.35711E+02 3.01500E+01 0.00000E+00
 -1      3614 1.35711E+02 2.86875E+01 0.00000E+00
 -1      3615 1.34412E+02 3.08875E+01 0.00000E+00
 -1      3616 6.68467E+01 2.37597E+01 0.00000E+00
 -1      3617 6.84845E+01 2.37853E+01 0.00000E+00
 -1      3618 6.65528E+01 2.22921E+01 0.00000E+00
 -1      3619 1.29900E+01 1.76125E+01 0.00000E+00
 -1      3620 7.08242E+01 3.12606E+01 0.00000E+00
 -1      3621 4.97487E+01 2.07682E+01 0.00000E+00
 -1      3622 5.04293E+01 2.03559E+01 0.00000E+00
 -1      3623 4.84312E+01 2.02379E+01 0.00000E+00
 -1      3624 6.29406E+01 2.21127E+01 0.00000E+00
 -1      3625 6.42743E+01 2.14335E+01 0.00000E+00
 -1      3626 6.22999E+01 2.12798E+01 0.00000E+00
 -1      3627 3.40350E+01 1.43982E+01 0.00000E+00
 -1      3628 1.29900E+01 2.64469E+01 0.00000E+00
 -1      3629 2.11472E+01 1.31819E+01 0.00000E+00
 -1      3630 3.99804E+01 2.68255E+01 0.00000E+00
 -1      3631 3.95660E+01 2.54145E+01 0.00000E+00
 -1      3632 3.91389E+01 2.74130E+01 0.00000E+00
 -1      3633 1.42890E+01 2.12938E+01 0.00000E+00
 -1      3634 1.55880E+01 2.20313E+01 0.00000E+00
 -1      3635 1.42890E+01 1.98250E+01 0.00000E+00
 -1      3636 1.34871E+02 3.41270E+01 0.00000E+00
 -1      3637 1.33777E+02 3.56445E+01 0.00000E+00
 -1      3638 1.35711E+02 2.42875E+01 0.00000E+00
 -1      3639 1.35711E+02 2.28125E+01 0.00000E+00
 -1      3640 1.34412E+02 2.20750E+01 0.00000E+00
 -1      3641 1.35711E+02 2.72188E+01 0.00000E+00
 -1      3642 1.35711E+02 2.57563E+01 0.00000E+00
 -1      3643 1.34412E+02 2.50187E+01 0.00000E+00
 -1      3644 1.34412E+02 2.79562E+01 0.00000E+00
 -1      3645 1.33113E+02 2.28125E+01 0.00000E+00
 -1      3646 1.33113E+02 2.13375E+01 0.00000E+00
 -1      3647 1.33318E+02 3.38675E+01 0.00000E+00
 -1      3648 2.87850E+01 1.56973E+01 0.00000E+00
 -1      3649 2.72850E+01 1.56973E+01 0.00000E+00
 -1      3650 2.16000E+01 3.31130E+01 0.00000E+00
 -1      3651 2.31000E+01 3.31130E+01 0.00000E+00
 -1      3652 2.45250E+01 3.31130E+01 0.00000E+00
 -1      3653 2.59500E+01 3.31130E+01 0.00000E+00
 -1      3654 2.37750E+01 3.18140E+01 0.00000E+00
 -1      3655 2.74500E+01 3.31130E+01 0.00000E+00
 -1      3656 2.89500E+01 3.31130E+01 0.00000E+00
 -1      3657 2.67000E+01 3.18140E+01 0.00000E+00
 -1      3658 3.04500E+01 3.31130E+01 0.00000E+00
 -1      3659 3.19500E+01 3.31130E+01 0.00000E+00
 -1      3660 2.97000E+01 3.18140E+01 0.00000E+00
 -1      3661 5.22780E+01 1.96777E+01 0.00000E+00
 -1      3662 5.34094E+01 1.96451E+01 0.00000E+00
 -1      3663 1.54200E+01 2.82279E+01 0.00000E+00
 -1      3664 1.54200E+01 2.96966E+01 0.00000E+00
 -1      3665 1.78500E+01 3.00058E+01 0.00000E+00
 -1      3666 5.57850E+01 1.56973E+01 0.00000E+00
 -1      3667 5.42850E+01 1.56973E+01 0.00000E+00
 -1      3668 7.20707E+01 3.42004E+01 0.00000E+00
 -1      3669 7.64250E+01 3.40860E+01 0.00000E+00
 -1      3670 7.79250E+01 3.40860E+01 0.00000E+00
 -1      3671 7.94250E+01 3.40860E+01 0.00000E+00
 -1      3672 8.09250E+01 3.40860E+01 0.00000E+00
 -1      3673 7.86750E+01 3.27870E+01 0.00000E+00
 -1      3674 8.24250E+01 3.40860E+01 0.00000E+00
 -1      3675 8.39250E+01 3.40860E+01 0.00000E+00
 -1      3676 8.16750E+01 3.27870E+01 0.00000E+00
 -1      3677 8.54250E+01 3.40860E+01 0.00000E+00
 -1      3678 8.69250E+01 3.40860E+01 0.00000E+00
 -1      3679 8.46750E+01 3.27870E+01 0.00000E+00
 -1      3680 8.83500E+01 3.40860E+01 0.00000E+00
 -1      3681 8.97750E+01 3.40860E+01 0.00000E+00
 -1      3682 8.76000E+01 3.27870E+01 0.00000E+00
 -1      3683 9.12750E+01 3.40860E+01 0.00000E+00
 -1      3684 9.27750E+01 3.40860E+01 0.00000E+00
 -1      3685 9.05250E+01 3.27870E+01 0.00000E+00
 -1      3686 9.42750E+01 3.40860E+01 0.00000E+00
 -1      3687 9.57750E+01 3.40860E+01 0.00000E+00
 -1      3688 9.35250E+01 3.27870E+01 0.00000E+00
 -1      3689 9.72750E+01 3.40860E+01 0.00000E+00
 -1      3690 9.87750E+01 3.40860E+01 0.00000E+00
 -1      3691 9.65250E+01 3.27870E+01 0.00000E+00
 -1      3692 1.00275E+02 3.40860E+01 0.00000E+00
 -1      3693 1.01775E+02 3.40860E+01 0.00000E+00
 -1      3694 9.95250E+01 3.27870E+01 0.00000E+00
 -1      3695 1.03275E+02 3.40860E+01 0.00000E+00
 -1      3696 1.04775E+02 3.40860E+01 0.00000E+00
 -1      3697 1.02525E+02 3.27870E+01 0.00000E+00
 -1      3698 1.06200E+02 3.40860E+01 0.00000E+00
 -1      3699 1.07625E+02 3.40860E+01 0.00000E+00
 -1      3700 1.05450E+02 3.27870E+01 0.00000E+00
 -1      3701 1.09125E+02 3.40860E+01 0.00000E+00
 -1      3702 1.10625E+02 3.40860E+01 0.00000E+00
 -1      3703 1.08375E+02 3.27870E+01 0.00000E+00
 -1      3704 1.12125E+02 3.40860E+01 0.00000E+00
 -1      3705 1.13625E+02 3.40860E+01 0.00000E+00
 -1      3706 1.11375E+02 3.27870E+01 0.00000E+00
 -1      3707 1.15125E+02 3.40860E+01 0.00000E+00
 -1      3708 1.16625E+02 3.40860E+01 0.00000E+00
 -1      3709 1.14375E+02 3.27870E+01 0.00000E+00
 -1      3710 1.18125E+02 3.40860E+01 0.00000E+00
 -1      3711 1.19625E+02 3.40860E+01 0.00000E+00
 -1      3712 1.17375E+02 3.27870E+01 0.00000E+00
 -1      3713 1.21125E+02 3.40860E+01 0.00000E+00
 -1      3714 1.22625E+02 3.40860E+01 0.00000E+00
 -1      3715 1.20375E+02 3.27870E+01 0.00000E+00
 -1      3716 1.24050E+02 3.40860E+01 0.00000E+00
 -1      3717 1.25475E+02 3.40860E+01 0.00000E+00
 -1      3718 1.23300E+02 3.27870E+01 0.00000E+00
 -1      3719 1.26975E+02 3.40860E+01 0.00000E+00
 -1      3720 1.28475E+02 3.40860E+01 0.00000E+00
 -1      3721 1.26225E+02 3.27870E+01 0.00000E+00
 -1      3722 1.29975E+02 3.40860E+01 0.00000E+00
 -1      3723 1.31475E+02 3.40860E+01 0.00000E+00
 -1      3724 1.29225E+02 3.27870E+01 0.00000E+00
 -1      3725 4.07850E+01 1.56973E+01 0.00000E+00
 -1      3726 3.92850E+01 1.56973E+01 0.00000E+00
 -1      3727 5.31721E+01 1.64337E+01 0.00000E+00
 -1      3728 5.16721E+01 1.64337E+01 0.00000E+00
 -1      3729 5.87850E+01 1.56973E+01 0.00000E+00
 -1      3730 5.72850E+01 1.56973E+01 0.00000E+00
 -1      3731 5.65350E+01 1.69963E+01 0.00000E+00
 -1      3732 6.17850E+01 1.56973E+01 0.00000E+00
 -1      3733 6.02850E+01 1.56973E+01 0.00000E+00
 -1      3734 5.95350E+01 1.69963E+01 0.00000E+00
 -1      3735 6.47850E+01 1.56973E+01 0.00000E+00
 -1      3736 6.32850E+01 1.56973E+01 0.00000E+00
 -1      3737 6.25350E+01 1.69963E+01 0.00000E+00
 -1      3738 6.77850E+01 1.56973E+01 0.00000E+00
 -1      3739 6.62850E+01 1.56973E+01 0.00000E+00
 -1      3740 6.55350E+01 1.69963E+01 0.00000E+00
 -1      3741 7.07850E+01 1.56973E+01 0.00000E+00
 -1      3742 6.92850E+01 1.56973E+01 0.00000E+00
 -1      3743 6.85350E+01 1.69963E+01 0.00000E+00
 -1      3744 7.37850E+01 1.56973E+01 0.00000E+00
 -1      3745 7.22850E+01 1.56973E+01 0.00000E+00
 -1      3746 7.15350E+01 1.69963E+01 0.00000E+00
 -1      3747 7.67850E+01 1.56973E+01 0.00000E+00
 -1      3748 7.52850E+01 1.56973E+01 0.00000E+00
 -1      3749 7.45350E+01 1.69963E+01 0.00000E+00
 -1      3750 7.97850E+01 1.56973E+01 0.00000E+00
 -1      3751 7.82850E+01 1.56973E+01 0.00000E+00
 -1      3752 7.75350E+01 1.69963E+01 0.00000E+00
 -1      3753 8.27850E+01 1.56973E+01 0.00000E+00
 -1      3754 8.12850E+01 1.56973E+01 0.00000E+00
 -1      3755 8.05350E+01 1.69963E+01 0.00000E+00
 -1      3756 8.57850E+01 1.56973E+01 0.00000E+00
 -1      3757 8.42850E+01 1.56973E+01 0.00000E+00
 -1      3758 8.35350E+01 1.69963E+01 0.00000E+00
 -1      3759 8.87850E+01 1.56973E+01 0.00000E+00
 -1      3760 8.72850E+01 1.56973E+01 0.00000E+00
 -1      3761 8.65350E+01 1.69963E+01 0.00000E+00
 -1      3762 9.17850E+01 1.56973E+01 0.00000E+00
 -1      3763 9.02850E+01 1.56973E+01 0.00000E+00
 -1      3764 8.95350E+01 1.69963E+01 0.00000E+00
 -1      3765 9.47850E+01 1.56973E+01 0.00000E+00
 -1      3766 9.32850E+01 1.56973E+01 0.00000E+00
 -1      3767 9.25350E+01 1.69963E+01 0.00000E+00
 -1      3768 9.77850E+01 1.56973E+01 0.00000E+00
 -1      3769 9.62850E+01 1.56973E+01 0.00000E+00
 -1      3770 9.55350E+01 1.69963E+01 0.00000E+00
 -1      3771 1.00785E+02 1.56973E+01 0.00000E+00
 -1      3772 9.92850E+01 1.56973E+01 0.00000E+00
 -1      3773 9.85350E+01 1.69963E+01 0.00000E+00
 -1      3774 1.03785E+02 1.56973E+01 0.00000E+00
 -1      3775 1.02285E+02 1.56973E+01 0.00000E+00
 -1      3776 1.01535E+02 1.69963E+01 0.00000E+00
 -1      3777 1.06785E+02 1.56973E+01 0.00000E+00
 -1      3778 1.05285E+02 1.56973E+01 0.00000E+00
 -1      3779 1.04535E+02 1.69963E+01 0.00000E+00
 -1      3780 1.09785E+02 1.56973E+01 0.00000E+00
 -1      3781 1.08285E+02 1.56973E+01 0.00000E+00
 -1      3782 1.07535E+02 1.69963E+01 0.00000E+00
 -1      3783 1.12785E+02 1.56973E+01 0.00000E+00
 -1      3784 1.11285E+02 1.56973E+01 0.00000E+00
 -1      3785 1.10535E+02 1.69963E+01 0.00000E+00
 -1      3786 1.15785E+02 1.56973E+01 0.00000E+00
 -1      3787 1.14285E+02 1.56973E+01 0.00000E+00
 -1      3788 1.13535E+02 1.69963E+01 0.00000E+00
 -1      3789 1.18785E+02 1.56973E+01 0.00000E+00
 -1      3790 1.17285E+02 1.56973E+01 0.00000E+00
 -1      3791 1.16535E+02 1.69963E+01 0.00000E+00
 -1      3792 1.21785E+02 1.56973E+01 0.00000E+00
 -1      3793 1.20285E+02 1.56973E+01 0.00000E+00
 -1      3794 1.19535E+02 1.69963E+01 0.00000E+00
 -1      3795 1.24785E+02 1.56973E+01 0.00000E+00
 -1      3796 1.23285E+02 1.56973E+01 0.00000E+00
 -1      3797 1.22535E+02 1.69963E+01 0.00000E+00
 -1      3798 1.27785E+02 1.56973E+01 0.00000E+00
 -1      3799 1.26285E+02 1.56973E+01 0.00000E+00
 -1      3800 1.25535E+02 1.69963E+01 0.00000E+00
 -1      3801 1.30785E+02 1.56973E+01 0.00000E+00
 -1      3802 1.29285E+02 1.56973E+01 0.00000E+00
 -1      3803 1.28535E+02 1.69963E+01 0.00000E+00
 -1      3804 1.36322E+02 1.32626E+01 0.00000E+00
 -1      3805 3.77850E+01 1.56973E+01 0.00000E+00
 -1      3806 3.62850E+01 1.56973E+01 0.00000E+00
 -1      3807 3.85350E+01 1.69963E+01 0.00000E+00
 -1      3808 3.64097E+01 3.37772E+01 0.00000E+00
 -1      3809 3.75723E+01 3.03357E+01 0.00000E+00
 -1      3810 3.82298E+01 2.90012E+01 0.00000E+00
 -1      3811 3.17850E+01 1.56973E+01 0.00000E+00
 -1      3812 3.02850E+01 1.56973E+01 0.00000E+00
 -1      3813 2.95350E+01 1.69963E+01 0.00000E+00
 -1      3814 7.21160E+01 3.04624E+01 0.00000E+00
 -1      3815 7.21303E+01 3.20352E+01 0.00000E+00
 -1      3816 3.34500E+01 3.31355E+01 0.00000E+00
 -1      3817 3.49500E+01 3.31581E+01 0.00000E+00
 -1      3818 3.27000E+01 3.18365E+01 0.00000E+00
 -1      3819 3.47850E+01 1.56973E+01 0.00000E+00
 -1      3820 3.32850E+01 1.56973E+01 0.00000E+00
 -1      3821 3.55350E+01 1.69963E+01 0.00000E+00
 -1      3822 1.48545E+01 2.54967E+01 0.00000E+00
 -1      3823 1.48545E+01 2.69686E+01 0.00000E+00
 -1      3824 1.72845E+01 2.72778E+01 0.00000E+00
 -1      3825 1.61535E+01 2.47593E+01 0.00000E+00
 -1      3826 4.02076E+01 2.31601E+01 0.00000E+00
 -1      3827 4.16813E+01 2.16263E+01 0.00000E+00
 -1      3828 1.41716E+01 1.70164E+01 0.00000E+00
 -1      3829 1.41716E+01 1.84914E+01 0.00000E+00
 -1      3830 1.54706E+01 1.92289E+01 0.00000E+00
 -1      3831 1.52359E+01 1.65618E+01 0.00000E+00
 -1      3832 1.94012E+01 1.57971E+01 0.00000E+00
 -1      3833 1.78949E+01 1.56748E+01 0.00000E+00
 -1      3834 2.18972E+01 1.44809E+01 0.00000E+00
 -1      3835 1.89750E+01 3.30281E+01 0.00000E+00
 -1      3836 2.04750E+01 3.30281E+01 0.00000E+00
 -1      3837 2.12250E+01 3.17291E+01 0.00000E+00
 -1      3838 1.89750E+01 3.15594E+01 0.00000E+00
 -1      3839 1.32568E+02 3.25685E+01 0.00000E+00
 -1      3840 1.35572E+02 1.45616E+01 0.00000E+00
 -1      3841 2.57850E+01 1.56973E+01 0.00000E+00
 -1      3842 2.42850E+01 1.56973E+01 0.00000E+00
 -1      3843 2.65350E+01 1.69963E+01 0.00000E+00
 -1      3844 4.37850E+01 1.56973E+01 0.00000E+00
 -1      3845 4.22850E+01 1.56973E+01 0.00000E+00
 -1      3846 4.15350E+01 1.69963E+01 0.00000E+00
 -1      3847 7.33625E+01 3.34022E+01 0.00000E+00
 -1      3848 5.42849E+01 1.91027E+01 0.00000E+00
 -1      3849 3.25350E+01 1.69963E+01 0.00000E+00
 -1      3850 5.09605E+01 1.91474E+01 0.00000E+00
 -1      3851 1.68307E+01 1.61295E+01 0.00000E+00
 -1      3852 3.78154E+01 2.75902E+01 0.00000E+00
 -1      3853 3.64534E+01 3.19401E+01 0.00000E+00
 -1      3854 3.70129E+01 3.11379E+01 0.00000E+00
 -1      3855 3.63469E+01 2.99805E+01 0.00000E+00
 -1      3856 3.56597E+01 3.24782E+01 0.00000E+00
 -1      3857 4.98234E+01 1.71119E+01 0.00000E+00
 -1      3858 4.06920E+01 2.04656E+01 0.00000E+00
 -1      3859 4.23655E+01 2.05987E+01 0.00000E+00
 -1      3860 4.30497E+01 1.95711E+01 0.00000E+00
 -1      3861 1.33113E+02 2.57500E+01 0.00000E+00
 -1      3862 1.33113E+02 2.42813E+01 0.00000E+00
 -1      3863 1.31814E+02 2.35438E+01 0.00000E+00
 -1      3864 5.76396E+01 2.00754E+01 0.00000E+00
 -1      3865 4.83234E+01 1.71119E+01 0.00000E+00
 -1      3866 1.33039E+02 1.62588E+01 0.00000E+00
 -1      3867 1.32289E+02 1.75578E+01 0.00000E+00
 -1      3868 3.85247E+01 2.43351E+01 0.00000E+00
 -1      3869 3.93662E+01 2.37476E+01 0.00000E+00
 -1      3870 3.91663E+01 2.20807E+01 0.00000E+00
 -1      3871 7.00317E+01 2.43842E+01 0.00000E+00
 -1      3872 7.14946E+01 2.50259E+01 0.00000E+00
 -1      3873 1.32568E+02 3.11060E+01 0.00000E+00
 -1      3874 1.32568E+02 2.96435E+01 0.00000E+00
 -1      3875 1.30725E+02 3.13245E+01 0.00000E+00
 -1      3876 6.57542E+01 2.09804E+01 0.00000E+00
 -1      3877 6.73920E+01 2.10061E+01 0.00000E+00
 -1      3878 7.25632E+01 2.88867E+01 0.00000E+00
 -1      3879 7.38693E+01 2.96613E+01 0.00000E+00
 -1      3880 7.30103E+01 2.73109E+01 0.00000E+00
 -1      3881 1.70557E+01 2.35975E+01 0.00000E+00
 -1      3882 1.76212E+01 2.48567E+01 0.00000E+00
 -1      3883 2.08966E+01 1.59222E+01 0.00000E+00
 -1      3884 2.00384E+01 1.71558E+01 0.00000E+00
 -1      3885 6.97377E+01 2.29166E+01 0.00000E+00
 -1      3886 6.51136E+01 2.01475E+01 0.00000E+00
 -1      3887 1.32668E+02 2.00678E+01 0.00000E+00
 -1      3888 1.32734E+02 1.88275E+01 0.00000E+00
 -1      3889 1.30480E+02 1.82659E+01 0.00000E+00
 -1      3890 1.31369E+02 2.08053E+01 0.00000E+00
 -1      3891 2.25344E+01 1.58395E+01 0.00000E+00
 -1      3892 1.70557E+01 2.06600E+01 0.00000E+00
 -1      3893 1.70557E+01 2.21287E+01 0.00000E+00
 -1      3894 1.85235E+01 2.22262E+01 0.00000E+00
 -1      3895 1.35506E+02 1.58020E+01 0.00000E+00
 -1      3896 6.07507E+01 1.99851E+01 0.00000E+00
 -1      3897 6.14744E+01 2.07573E+01 0.00000E+00
 -1      3898 2.59500E+01 3.05150E+01 0.00000E+00
 -1      3899 2.74500E+01 3.05150E+01 0.00000E+00
 -1      3900 2.89500E+01 3.05150E+01 0.00000E+00
 -1      3901 3.04500E+01 3.05150E+01 0.00000E+00
 -1      3902 2.82000E+01 2.92160E+01 0.00000E+00
 -1      3903 1.89750E+01 2.86219E+01 0.00000E+00
 -1      3904 1.89750E+01 3.00906E+01 0.00000E+00
 -1      3905 2.01000E+01 3.01755E+01 0.00000E+00
 -1      3906 3.62335E+01 2.77389E+01 0.00000E+00
 -1      3907 3.71426E+01 2.61507E+01 0.00000E+00
 -1      3908 7.45486E+01 3.33110E+01 0.00000E+00
 -1      3909 7.52986E+01 3.20120E+01 0.00000E+00
 -1      3910 8.09250E+01 3.14880E+01 0.00000E+00
 -1      3911 8.24250E+01 3.14880E+01 0.00000E+00
 -1      3912 8.39250E+01 3.14880E+01 0.00000E+00
 -1      3913 8.54250E+01 3.14880E+01 0.00000E+00
 -1      3914 8.31750E+01 3.01890E+01 0.00000E+00
 -1      3915 8.68500E+01 3.14880E+01 0.00000E+00
 -1      3916 8.82750E+01 3.14880E+01 0.00000E+00
 -1      3917 8.61000E+01 3.01890E+01 0.00000E+00
 -1      3918 8.97750E+01 3.14880E+01 0.00000E+00
 -1      3919 9.12750E+01 3.14880E+01 0.00000E+00
 -1      3920 8.90250E+01 3.01890E+01 0.00000E+00
 -1      3921 9.27750E+01 3.14880E+01 0.00000E+00
 -1      3922 9.42750E+01 3.14880E+01 0.00000E+00
 -1      3923 9.20250E+01 3.01890E+01 0.00000E+00
 -1      3924 9.57750E+01 3.14880E+01 0.00000E+00
 -1      3925 9.72750E+01 3.14880E+01 0.00000E+00
 -1      3926 9.50250E+01 3.01890E+01 0.00000E+00
 -1      3927 9.87750E+01 3.14880E+01 0.00000E+00
 -1      3928 1.00275E+02 3.14880E+01 0.00000E+00
 -1      3929 9.80250E+01 3.01890E+01 0.00000E+00
 -1      3930 1.01775E+02 3.14880E+01 0.00000E+00
 -1      3931 1.03275E+02 3.14880E+01 0.00000E+00
 -1      3932 1.01025E+02 3.01890E+01 0.00000E+00
 -1      3933 1.04700E+02 3.14880E+01 0.00000E+00
 -1      3934 1.06125E+02 3.14880E+01 0.00000E+00
 -1      3935 1.03950E+02 3.01890E+01 0.00000E+00
 -1      3936 1.07625E+02 3.14880E+01 0.00000E+00
 -1      3937 1.09125E+02 3.14880E+01 0.00000E+00
 -1      3938 1.06875E+02 3.01890E+01 0.00000E+00
 -1      3939 1.10625E+02 3.14880E+01 0.00000E+00
 -1      3940 1.12125E+02 3.14880E+01 0.00000E+00
 -1      3941 1.09875E+02 3.01890E+01 0.00000E+00
 -1      3942 1.13625E+02 3.14880E+01 0.00000E+00
 -1      3943 1.15125E+02 3.14880E+01 0.00000E+00
 -1      3944 1.12875E+02 3.01890E+01 0.00000E+00
 -1      3945 1.16625E+02 3.14880E+01 0.00000E+00
 -1      3946 1.18125E+02 3.14880E+01 0.00000E+00
 -1      3947 1.15875E+02 3.01890E+01 0.00000E+00
 -1      3948 1.19625E+02 3.14880E+01 0.00000E+00
 -1      3949 1.21125E+02 3.14880E+01 0.00000E+00
 -1      3950 1.18875E+02 3.01890E+01 0.00000E+00
 -1      3951 1.22550E+02 3.14880E+01 0.00000E+00
 -1      3952 1.23975E+02 3.14880E+01 0.00000E+00
 -1      3953 1.21800E+02 3.01890E+01 0.00000E+00
 -1      3954 1.25475E+02 3.14880E+01 0.00000E+00
 -1      3955 1.26975E+02 3.14880E+01 0.00000E+00
 -1      3956 1.24725E+02 3.01890E+01 0.00000E+00
 -1      3957 1.28100E+02 3.14062E+01 0.00000E+00
 -1      3958 1.29600E+02 3.14062E+01 0.00000E+00
 -1      3959 1.29600E+02 2.99437E+01 0.00000E+00
 -1      3960 1.27350E+02 3.01072E+01 0.00000E+00
 -1      3961 6.68142E+01 1.83453E+01 0.00000E+00
 -1      3962 6.53142E+01 1.83453E+01 0.00000E+00
 -1      3963 6.98142E+01 1.83453E+01 0.00000E+00
 -1      3964 6.83142E+01 1.83453E+01 0.00000E+00
 -1      3965 6.80934E+01 1.96944E+01 0.00000E+00
 -1      3966 7.28142E+01 1.83453E+01 0.00000E+00
 -1      3967 7.13142E+01 1.83453E+01 0.00000E+00
 -1      3968 7.10934E+01 1.96944E+01 0.00000E+00
 -1      3969 7.58142E+01 1.83453E+01 0.00000E+00
 -1      3970 7.43142E+01 1.83453E+01 0.00000E+00
 -1      3971 7.40934E+01 1.96944E+01 0.00000E+00
 -1      3972 7.88142E+01 1.83453E+01 0.00000E+00
 -1      3973 7.73142E+01 1.83453E+01 0.00000E+00
 -1      3974 7.70934E+01 1.96944E+01 0.00000E+00
 -1      3975 8.18142E+01 1.83453E+01 0.00000E+00
 -1      3976 8.03142E+01 1.83453E+01 0.00000E+00
 -1      3977 8.00934E+01 1.96944E+01 0.00000E+00
 -1      3978 8.48142E+01 1.83453E+01 0.00000E+00
 -1      3979 8.33142E+01 1.83453E+01 0.00000E+00
 -1      3980 8.30934E+01 1.96944E+01 0.00000E+00
 -1      3981 8.78142E+01 1.83453E+01 0.00000E+00
 -1      3982 8.63142E+01 1.83453E+01 0.00000E+00
 -1      3983 8.60934E+01 1.96944E+01 0.00000E+00
 -1      3984 9.08142E+01 1.83453E+01 0.00000E+00
 -1      3985 8.93142E+01 1.83453E+01 0.00000E+00
 -1      3986 8.90934E+01 1.96944E+01 0.00000E+00
 -1      3987 9.38142E+01 1.83453E+01 0.00000E+00
 -1      3988 9.23142E+01 1.83453E+01 0.00000E+00
 -1      3989 9.20934E+01 1.96944E+01 0.00000E+00
 -1      3990 9.68142E+01 1.83453E+01 0.00000E+00
 -1      3991 9.53142E+01 1.83453E+01 0.00000E+00
 -1      3992 9.50934E+01 1.96944E+01 0.00000E+00
 -1      3993 9.98142E+01 1.83453E+01 0.00000E+00
 -1      3994 9.83142E+01 1.83453E+01 0.00000E+00
 -1      3995 9.80934E+01 1.96944E+01 0.00000E+00
 -1      3996 1.02814E+02 1.83453E+01 0.00000E+00
 -1      3997 1.01314E+02 1.83453E+01 0.00000E+00
 -1      3998 1.01093E+02 1.96944E+01 0.00000E+00
 -1      3999 1.05814E+02 1.83453E+01 0.00000E+00
 -1      4000 1.04314E+02 1.83453E+01 0.00000E+00
 -1      4001 1.04093E+02 1.96944E+01 0.00000E+00
 -1      4002 1.08814E+02 1.83453E+01 0.00000E+00
 -1      4003 1.07314E+02 1.83453E+01 0.00000E+00
 -1      4004 1.07093E+02 1.96944E+01 0.00000E+00
 -1      4005 1.11814E+02 1.83453E+01 0.00000E+00
 -1      4006 1.10314E+02 1.83453E+01 0.00000E+00
 -1      4007 1.10093E+02 1.96944E+01 0.00000E+00
 -1      4008 1.14814E+02 1.83453E+01 0.00000E+00
 -1      4009 1.13314E+02 1.83453E+01 0.00000E+00
 -1      4010 1.13093E+02 1.96944E+01 0.00000E+00
 -1      4011 1.17814E+02 1.83453E+01 0.00000E+00
 -1      4012 1.16314E+02 1.83453E+01 0.00000E+00
 -1      4013 1.16093E+02 1.96944E+01 0.00000E+00
 -1      4014 1.20814E+02 1.83453E+01 0.00000E+00
 -1      4015 1.19314E+02 1.83453E+01 0.00000E+00
 -1      4016 1.19093E+02 1.96944E+01 0.00000E+00
 -1      4017 1.23814E+02 1.83453E+01 0.00000E+00
 -1      4018 1.22314E+02 1.83453E+01 0.00000E+00
 -1      4019 1.22093E+02 1.96944E+01 0.00000E+00
 -1      4020 1.26814E+02 1.83453E+01 0.00000E+00
 -1      4021 1.25314E+02 1.83453E+01 0.00000E+00
 -1      4022 1.25093E+02 1.96944E+01 0.00000E+00
 -1      4023 1.29397E+02 1.83056E+01 0.00000E+00
 -1      4024 1.27897E+02 1.83056E+01 0.00000E+00
 -1      4025 1.27676E+02 1.96547E+01 0.00000E+00
 -1      4026 1.29842E+02 1.95753E+01 0.00000E+00
 -1      4027 3.19500E+01 3.05375E+01 0.00000E+00
 -1      4028 3.34500E+01 3.05601E+01 0.00000E+00
 -1      4029 3.12000E+01 2.92385E+01 0.00000E+00
 -1      4030 1.34207E+02 1.65395E+01 0.00000E+00
 -1      4031 6.38343E+01 1.87984E+01 0.00000E+00
 -1      4032 3.92850E+01 1.82952E+01 0.00000E+00
 -1      4033 3.77850E+01 1.82952E+01 0.00000E+00
 -1      4034 3.49937E+01 3.13209E+01 0.00000E+00
 -1      4035 1.81867E+01 2.61160E+01 0.00000E+00
 -1      4036 1.87522E+01 2.73752E+01 0.00000E+00
 -1      4037 1.90890E+01 2.49542E+01 0.00000E+00
 -1      4038 3.32850E+01 1.82952E+01 0.00000E+00
 -1      4039 3.17850E+01 1.82952E+01 0.00000E+00
 -1      4040 3.02850E+01 1.82952E+01 0.00000E+00
 -1      4041 2.87850E+01 1.82952E+01 0.00000E+00
 -1      4042 3.10350E+01 1.95942E+01 0.00000E+00
 -1      4043 4.58675E+01 1.87008E+01 0.00000E+00
 -1      4044 4.73812E+01 1.91737E+01 0.00000E+00
 -1      4045 5.39221E+01 1.77327E+01 0.00000E+00
 -1      4046 4.80617E+01 1.87615E+01 0.00000E+00
 -1      4047 6.28082E+01 2.00780E+01 0.00000E+00
 -1      4048 1.69481E+01 1.74630E+01 0.00000E+00
 -1      4049 3.62850E+01 1.82952E+01 0.00000E+00
 -1      4050 3.47850E+01 1.82952E+01 0.00000E+00
 -1      4051 3.70350E+01 1.95942E+01 0.00000E+00
 -1      4052 7.79250E+01 3.14880E+01 0.00000E+00
 -1      4053 7.94250E+01 3.14880E+01 0.00000E+00
 -1      4054 8.01750E+01 3.01890E+01 0.00000E+00
 -1      4055 2.06778E+01 1.85128E+01 0.00000E+00
 -1      4056 1.91824E+01 1.83877E+01 0.00000E+00
 -1      4057 7.26764E+01 2.40921E+01 0.00000E+00
 -1      4058 7.28860E+01 2.56025E+01 0.00000E+00
 -1      4059 2.32844E+01 1.71385E+01 0.00000E+00
 -1      4060 7.49589E+01 3.01871E+01 0.00000E+00
 -1      4061 7.68354E+01 3.09621E+01 0.00000E+00
 -1      4062 7.75854E+01 2.96631E+01 0.00000E+00
 -1      4063 7.54061E+01 2.86114E+01 0.00000E+00
 -1      4064 4.38791E+01 1.83502E+01 0.00000E+00
 -1      4065 4.50234E+01 1.73468E+01 0.00000E+00
 -1      4066 5.53978E+01 1.83662E+01 0.00000E+00
 -1      4067 4.72734E+01 1.60478E+01 0.00000E+00
 -1      4068 4.57734E+01 1.60478E+01 0.00000E+00
 -1      4069 2.31000E+01 3.05150E+01 0.00000E+00
 -1      4070 2.45250E+01 3.05150E+01 0.00000E+00
 -1      4071 2.52750E+01 2.92160E+01 0.00000E+00
 -1      4072 5.68978E+01 1.83662E+01 0.00000E+00
 -1      4073 5.87768E+01 1.87055E+01 0.00000E+00
 -1      4074 1.32841E+02 2.84311E+01 0.00000E+00
 -1      4075 1.32841E+02 2.69624E+01 0.00000E+00
 -1      4076 1.31542E+02 2.62249E+01 0.00000E+00
 -1      4077 1.30997E+02 2.86496E+01 0.00000E+00
 -1      4078 6.88920E+01 2.10061E+01 0.00000E+00
 -1      4079 6.02768E+01 1.87055E+01 0.00000E+00
 -1      4080 6.30089E+01 1.82759E+01 0.00000E+00
 -1      4081 6.15089E+01 1.82759E+01 0.00000E+00
 -1      4082 1.98772E+01 2.74601E+01 0.00000E+00
 -1      4083 3.48032E+01 2.92197E+01 0.00000E+00
 -1      4084 3.41304E+01 2.77803E+01 0.00000E+00
 -1      4085 1.98225E+01 2.14918E+01 0.00000E+00
 -1      4086 1.98225E+01 2.29606E+01 0.00000E+00
 -1      4087 7.41921E+01 2.63771E+01 0.00000E+00
 -1      4088 3.92714E+01 2.05437E+01 0.00000E+00
 -1      4089 3.99556E+01 1.95161E+01 0.00000E+00
 -1      4090 3.69428E+01 2.44838E+01 0.00000E+00
 -1      4091 2.72850E+01 1.82952E+01 0.00000E+00
 -1      4092 2.57850E+01 1.82952E+01 0.00000E+00
 -1      4093 2.80350E+01 1.95942E+01 0.00000E+00
 -1      4094 3.84299E+01 2.11312E+01 0.00000E+00
 -1      4095 4.07056E+01 1.82171E+01 0.00000E+00
 -1      4096 4.22056E+01 1.82171E+01 0.00000E+00
 -1      4097 2.03880E+01 2.42198E+01 0.00000E+00
 -1      4098 2.09535E+01 2.54791E+01 0.00000E+00
 -1      4099 2.16870E+01 2.34854E+01 0.00000E+00
 -1      4100 3.40350E+01 1.95942E+01 0.00000E+00
 -1      4101 1.30515E+02 2.42781E+01 0.00000E+00
 -1      4102 1.30515E+02 2.28094E+01 0.00000E+00
 -1      4103 7.04392E+01 2.16049E+01 0.00000E+00
 -1      4104 7.24780E+01 2.26037E+01 0.00000E+00
 -1      4105 7.38694E+01 2.31804E+01 0.00000E+00
 -1      4106 2.10375E+01 3.03028E+01 0.00000E+00
 -1      4107 2.21625E+01 3.03877E+01 0.00000E+00
 -1      4108 2.29125E+01 2.90887E+01 0.00000E+00
 -1      4109 2.10375E+01 2.88341E+01 0.00000E+00
 -1      4110 1.30070E+02 2.15397E+01 0.00000E+00
 -1      4111 2.41067E+01 1.83329E+01 0.00000E+00
 -1      4112 2.23561E+01 1.84752E+01 0.00000E+00
 -1      4113 2.15001E+01 1.97071E+01 0.00000E+00
 -1      4114 2.48567E+01 1.96319E+01 0.00000E+00
 -1      4115 1.69384E+01 1.93264E+01 0.00000E+00
 -1      4116 3.42437E+01 3.00219E+01 0.00000E+00
 -1      4117 3.47850E+01 2.08932E+01 0.00000E+00
 -1      4118 3.32850E+01 2.08932E+01 0.00000E+00
 -1      4119 8.24250E+01 2.88900E+01 0.00000E+00
 -1      4120 8.39250E+01 2.88900E+01 0.00000E+00
 -1      4121 3.24809E+01 2.76182E+01 0.00000E+00
 -1      4122 3.39112E+01 2.61374E+01 0.00000E+00
 -1      4123 7.51575E+01 2.51946E+01 0.00000E+00
 -1      4124 7.52818E+01 2.69030E+01 0.00000E+00
 -1      4125 7.63714E+01 2.74288E+01 0.00000E+00
 -1      4126 7.94250E+01 2.88900E+01 0.00000E+00
 -1      4127 8.09250E+01 2.88900E+01 0.00000E+00
 -1      4128 8.16750E+01 2.75910E+01 0.00000E+00
 -1      4129 8.53500E+01 2.88900E+01 0.00000E+00
 -1      4130 8.67750E+01 2.88900E+01 0.00000E+00
 -1      4131 8.46000E+01 2.75910E+01 0.00000E+00
 -1      4132 8.82750E+01 2.88900E+01 0.00000E+00
 -1      4133 8.97750E+01 2.88900E+01 0.00000E+00
 -1      4134 8.75250E+01 2.75910E+01 0.00000E+00
 -1      4135 9.12750E+01 2.88900E+01 0.00000E+00
 -1      4136 9.27750E+01 2.88900E+01 0.00000E+00
 -1      4137 9.05250E+01 2.75910E+01 0.00000E+00
 -1      4138 9.42750E+01 2.88900E+01 0.00000E+00
 -1      4139 9.57750E+01 2.88900E+01 0.00000E+00
 -1      4140 9.35250E+01 2.75910E+01 0.00000E+00
 -1      4141 9.72750E+01 2.88900E+01 0.00000E+00
 -1      4142 9.87750E+01 2.88900E+01 0.00000E+00
 -1      4143 9.65250E+01 2.75910E+01 0.00000E+00
 -1      4144 1.00275E+02 2.88900E+01 0.00000E+00
 -1      4145 1.01775E+02 2.88900E+01 0.00000E+00
 -1      4146 9.95250E+01 2.75910E+01 0.00000E+00
 -1      4147 1.03200E+02 2.88900E+01 0.00000E+00
 -1      4148 1.04625E+02 2.88900E+01 0.00000E+00
 -1      4149 1.02450E+02 2.75910E+01 0.00000E+00
 -1      4150 1.06125E+02 2.88900E+01 0.00000E+00
 -1      4151 1.07625E+02 2.88900E+01 0.00000E+00
 -1      4152 1.05375E+02 2.75910E+01 0.00000E+00
 -1      4153 1.09125E+02 2.88900E+01 0.00000E+00
 -1      4154 1.10625E+02 2.88900E+01 0.00000E+00
 -1      4155 1.08375E+02 2.75910E+01 0.00000E+00
 -1      4156 1.12125E+02 2.88900E+01 0.00000E+00
 -1      4157 1.13625E+02 2.88900E+01 0.00000E+00
 -1      4158 1.11375E+02 2.75910E+01 0.00000E+00
 -1      4159 1.15125E+02 2.88900E+01 0.00000E+00
 -1      4160 1.16625E+02 2.88900E+01 0.00000E+00
 -1      4161 1.14375E+02 2.75910E+01 0.00000E+00
 -1      4162 1.18125E+02 2.88900E+01 0.00000E+00
 -1      4163 1.19625E+02 2.88900E+01 0.00000E+00
 -1      4164 1.17375E+02 2.75910E+01 0.00000E+00
 -1      4165 1.21050E+02 2.88900E+01 0.00000E+00
 -1      4166 1.22475E+02 2.88900E+01 0.00000E+00
 -1      4167 1.20300E+02 2.75910E+01 0.00000E+00
 -1      4168 1.23975E+02 2.88900E+01 0.00000E+00
 -1      4169 1.25475E+02 2.88900E+01 0.00000E+00
 -1      4170 1.23225E+02 2.75910E+01 0.00000E+00
 -1      4171 7.46322E+01 2.06932E+01 0.00000E+00
 -1      4172 7.31322E+01 2.06932E+01 0.00000E+00
 -1      4173 3.47979E+01 2.42459E+01 0.00000E+00
 -1      4174 3.61799E+01 2.24302E+01 0.00000E+00
 -1      4175 7.78434E+01 2.09934E+01 0.00000E+00
 -1      4176 7.63434E+01 2.09934E+01 0.00000E+00
 -1      4177 8.08434E+01 2.09934E+01 0.00000E+00
 -1      4178 7.93434E+01 2.09934E+01 0.00000E+00
 -1      4179 7.85934E+01 2.22924E+01 0.00000E+00
 -1      4180 8.38434E+01 2.09934E+01 0.00000E+00
 -1      4181 8.23434E+01 2.09934E+01 0.00000E+00
 -1      4182 8.15934E+01 2.22924E+01 0.00000E+00
 -1      4183 8.68434E+01 2.09934E+01 0.00000E+00
 -1      4184 8.53434E+01 2.09934E+01 0.00000E+00
 -1      4185 8.45934E+01 2.22924E+01 0.00000E+00
 -1      4186 8.98434E+01 2.09934E+01 0.00000E+00
 -1      4187 8.83434E+01 2.09934E+01 0.00000E+00
 -1      4188 8.75934E+01 2.22924E+01 0.00000E+00
 -1      4189 9.28434E+01 2.09934E+01 0.00000E+00
 -1      4190 9.13434E+01 2.09934E+01 0.00000E+00
 -1      4191 9.05934E+01 2.22924E+01 0.00000E+00
 -1      4192 9.58434E+01 2.09934E+01 0.00000E+00
 -1      4193 9.43434E+01 2.09934E+01 0.00000E+00
 -1      4194 9.35934E+01 2.22924E+01 0.00000E+00
 -1      4195 9.88434E+01 2.09934E+01 0.00000E+00
 -1      4196 9.73434E+01 2.09934E+01 0.00000E+00
 -1      4197 9.65934E+01 2.22924E+01 0.00000E+00
 -1      4198 1.01843E+02 2.09934E+01 0.00000E+00
 -1      4199 1.00343E+02 2.09934E+01 0.00000E+00
 -1      4200 9.95934E+01 2.22924E+01 0.00000E+00
 -1      4201 1.04843E+02 2.09934E+01 0.00000E+00
 -1      4202 1.03343E+02 2.09934E+01 0.00000E+00
 -1      4203 1.02593E+02 2.22924E+01 0.00000E+00
 -1      4204 1.07843E+02 2.09934E+01 0.00000E+00
 -1      4205 1.06343E+02 2.09934E+01 0.00000E+00
 -1      4206 1.05593E+02 2.22924E+01 0.00000E+00
 -1      4207 1.10843E+02 2.09934E+01 0.00000E+00
 -1      4208 1.09343E+02 2.09934E+01 0.00000E+00
 -1      4209 1.08593E+02 2.22924E+01 0.00000E+00
 -1      4210 1.13843E+02 2.09934E+01 0.00000E+00
 -1      4211 1.12343E+02 2.09934E+01 0.00000E+00
 -1      4212 1.11593E+02 2.22924E+01 0.00000E+00
 -1      4213 1.16843E+02 2.09934E+01 0.00000E+00
 -1      4214 1.15343E+02 2.09934E+01 0.00000E+00
 -1      4215 1.14593E+02 2.22924E+01 0.00000E+00
 -1      4216 1.19843E+02 2.09934E+01 0.00000E+00
 -1      4217 1.18343E+02 2.09934E+01 0.00000E+00
 -1      4218 1.17593E+02 2.22924E+01 0.00000E+00
 -1      4219 1.22843E+02 2.09934E+01 0.00000E+00
 -1      4220 1.21343E+02 2.09934E+01 0.00000E+00
 -1      4221 1.20593E+02 2.22924E+01 0.00000E+00
 -1      4222 1.25843E+02 2.09934E+01 0.00000E+00
 -1      4223 1.24343E+02 2.09934E+01 0.00000E+00
 -1      4224 1.23593E+02 2.22924E+01 0.00000E+00
 -1      4225 3.09809E+01 2.75956E+01 0.00000E+00
 -1      4226 3.17850E+01 2.08932E+01 0.00000E+00
 -1      4227 3.02850E+01 2.08932E+01 0.00000E+00
 -1      4228 3.25350E+01 2.21922E+01 0.00000E+00
 -1      4229 1.30243E+02 2.54905E+01 0.00000E+00
 -1      4230 1.28944E+02 2.47561E+01 0.00000E+00
 -1      4231 1.29971E+02 2.67029E+01 0.00000E+00
 -1      4232 3.69299E+01 2.11312E+01 0.00000E+00
 -1      4233 7.19392E+01 2.16049E+01 0.00000E+00
 -1      4234 1.91727E+01 2.02511E+01 0.00000E+00
 -1      4235 2.04717E+01 2.09855E+01 0.00000E+00
 -1      4236 2.74500E+01 2.79170E+01 0.00000E+00
 -1      4237 2.89500E+01 2.79170E+01 0.00000E+00
 -1      4238 2.08841E+01 2.65332E+01 0.00000E+00
 -1      4239 2.11069E+01 2.77799E+01 0.00000E+00
 -1      4240 2.20444E+01 2.79072E+01 0.00000E+00
 -1      4241 2.21831E+01 2.57989E+01 0.00000E+00
 -1      4242 2.21500E+01 2.09478E+01 0.00000E+00
 -1      4243 1.75875E+01 1.88200E+01 0.00000E+00
 -1      4244 2.46000E+01 2.79170E+01 0.00000E+00
 -1      4245 2.60250E+01 2.79170E+01 0.00000E+00
 -1      4246 2.67750E+01 2.66180E+01 0.00000E+00
 -1      4247 7.53822E+01 2.19922E+01 0.00000E+00
 -1      4248 1.28987E+02 2.15794E+01 0.00000E+00
 -1      4249 7.55807E+01 2.34806E+01 0.00000E+00
 -1      4250 1.25850E+02 2.75092E+01 0.00000E+00
 -1      4251 1.26600E+02 2.88082E+01 0.00000E+00
 -1      4252 1.27725E+02 2.87265E+01 0.00000E+00
 -1      4253 3.31484E+01 2.40838E+01 0.00000E+00
 -1      4254 7.73534E+01 2.78965E+01 0.00000E+00
 -1      4255 7.84430E+01 2.84223E+01 0.00000E+00
 -1      4256 7.91930E+01 2.71233E+01 0.00000E+00
 -1      4257 7.72291E+01 2.61881E+01 0.00000E+00
 -1      4258 3.02309E+01 2.62966E+01 0.00000E+00
 -1      4259 1.27957E+02 2.12665E+01 0.00000E+00
 -1      4260 1.26874E+02 2.13062E+01 0.00000E+00
 -1      4261 1.26124E+02 2.26052E+01 0.00000E+00
 -1      4262 1.28185E+02 2.32309E+01 0.00000E+00
 -1      4263 7.66703E+01 2.40064E+01 0.00000E+00
 -1      4264 2.27155E+01 2.22071E+01 0.00000E+00
 -1      4265 2.32810E+01 2.34663E+01 0.00000E+00
 -1      4266 2.37439E+01 2.09287E+01 0.00000E+00
 -1      4267 2.29819E+01 2.80345E+01 0.00000E+00
 -1      4268 2.37319E+01 2.67355E+01 0.00000E+00
 -1      4269 2.87850E+01 2.08932E+01 0.00000E+00
 -1      4270 2.72850E+01 2.08932E+01 0.00000E+00
 -1      4271 2.95350E+01 2.21922E+01 0.00000E+00
 -1      4272 1.27913E+02 2.44433E+01 0.00000E+00
 -1      4273 2.96175E+01 2.44051E+01 0.00000E+00
 -1      4274 3.16484E+01 2.40838E+01 0.00000E+00
 -1      4275 8.53434E+01 2.35914E+01 0.00000E+00
 -1      4276 8.38434E+01 2.35914E+01 0.00000E+00
 -1      4277 1.29594E+02 2.89712E+01 0.00000E+00
 -1      4278 1.29866E+02 2.77588E+01 0.00000E+00
 -1      4279 1.28469E+02 2.90529E+01 0.00000E+00
 -1      4280 8.38842E+01 2.62407E+01 0.00000E+00
 -1      4281 8.53092E+01 2.62407E+01 0.00000E+00
 -1      4282 8.97750E+01 2.62920E+01 0.00000E+00
 -1      4283 9.12750E+01 2.62920E+01 0.00000E+00
 -1      4284 9.27750E+01 2.62920E+01 0.00000E+00
 -1      4285 9.42750E+01 2.62920E+01 0.00000E+00
 -1      4286 9.20250E+01 2.49930E+01 0.00000E+00
 -1      4287 9.57750E+01 2.62920E+01 0.00000E+00
 -1      4288 9.72750E+01 2.62920E+01 0.00000E+00
 -1      4289 9.50250E+01 2.49930E+01 0.00000E+00
 -1      4290 9.87750E+01 2.62920E+01 0.00000E+00
 -1      4291 1.00275E+02 2.62920E+01 0.00000E+00
 -1      4292 9.80250E+01 2.49930E+01 0.00000E+00
 -1      4293 1.01700E+02 2.62920E+01 0.00000E+00
 -1      4294 1.03125E+02 2.62920E+01 0.00000E+00
 -1      4295 1.00950E+02 2.49930E+01 0.00000E+00
 -1      4296 1.04625E+02 2.62920E+01 0.00000E+00
 -1      4297 1.06125E+02 2.62920E+01 0.00000E+00
 -1      4298 1.03875E+02 2.49930E+01 0.00000E+00
 -1      4299 1.07625E+02 2.62920E+01 0.00000E+00
 -1      4300 1.09125E+02 2.62920E+01 0.00000E+00
 -1      4301 1.06875E+02 2.49930E+01 0.00000E+00
 -1      4302 1.10625E+02 2.62920E+01 0.00000E+00
 -1      4303 1.12125E+02 2.62920E+01 0.00000E+00
 -1      4304 1.09875E+02 2.49930E+01 0.00000E+00
 -1      4305 1.13625E+02 2.62920E+01 0.00000E+00
 -1      4306 1.15125E+02 2.62920E+01 0.00000E+00
 -1      4307 1.12875E+02 2.49930E+01 0.00000E+00
 -1      4308 1.16625E+02 2.62920E+01 0.00000E+00
 -1      4309 1.18125E+02 2.62920E+01 0.00000E+00
 -1      4310 1.15875E+02 2.49930E+01 0.00000E+00
 -1      4311 1.19550E+02 2.62920E+01 0.00000E+00
 -1      4312 1.20975E+02 2.62920E+01 0.00000E+00
 -1      4313 1.18800E+02 2.49930E+01 0.00000E+00
 -1      4314 1.22475E+02 2.62920E+01 0.00000E+00
 -1      4315 1.23975E+02 2.62920E+01 0.00000E+00
 -1      4316 1.21725E+02 2.49930E+01 0.00000E+00
 -1      4317 7.81228E+01 2.33832E+01 0.00000E+00
 -1      4318 7.76997E+01 2.50972E+01 0.00000E+00
 -1      4319 7.86817E+01 2.55649E+01 0.00000E+00
 -1      4320 7.96228E+01 2.33832E+01 0.00000E+00
 -1      4321 2.38012E+01 2.56813E+01 0.00000E+00
 -1      4322 2.48297E+01 2.44030E+01 0.00000E+00
 -1      4323 9.13092E+01 2.36427E+01 0.00000E+00
 -1      4324 8.98092E+01 2.36427E+01 0.00000E+00
 -1      4325 9.43092E+01 2.36427E+01 0.00000E+00
 -1      4326 9.28092E+01 2.36427E+01 0.00000E+00
 -1      4327 9.73092E+01 2.36427E+01 0.00000E+00
 -1      4328 9.58092E+01 2.36427E+01 0.00000E+00
 -1      4329 1.00309E+02 2.36427E+01 0.00000E+00
 -1      4330 9.88092E+01 2.36427E+01 0.00000E+00
 -1      4331 1.03234E+02 2.36427E+01 0.00000E+00
 -1      4332 1.01734E+02 2.36427E+01 0.00000E+00
 -1      4333 1.06234E+02 2.36427E+01 0.00000E+00
 -1      4334 1.04734E+02 2.36427E+01 0.00000E+00
 -1      4335 1.09234E+02 2.36427E+01 0.00000E+00
 -1      4336 1.07734E+02 2.36427E+01 0.00000E+00
 -1      4337 1.12234E+02 2.36427E+01 0.00000E+00
 -1      4338 1.10734E+02 2.36427E+01 0.00000E+00
 -1      4339 1.15234E+02 2.36427E+01 0.00000E+00
 -1      4340 1.13734E+02 2.36427E+01 0.00000E+00
 -1      4341 1.18234E+02 2.36427E+01 0.00000E+00
 -1      4342 1.16734E+02 2.36427E+01 0.00000E+00
 -1      4343 1.21159E+02 2.36427E+01 0.00000E+00
 -1      4344 1.19659E+02 2.36427E+01 0.00000E+00
 -1      4345 1.24159E+02 2.36427E+01 0.00000E+00
 -1      4346 1.22659E+02 2.36427E+01 0.00000E+00
 -1      4347 1.28567E+02 2.70244E+01 0.00000E+00
 -1      4348 8.07886E+01 2.66820E+01 0.00000E+00
 -1      4349 8.22886E+01 2.66820E+01 0.00000E+00
 -1      4350 8.29978E+01 2.53317E+01 0.00000E+00
 -1      4351 7.98067E+01 2.62144E+01 0.00000E+00
 -1      4352 1.26551E+02 2.41994E+01 0.00000E+00
 -1      4353 1.25521E+02 2.38866E+01 0.00000E+00
 -1      4354 1.24587E+02 2.52368E+01 0.00000E+00
 -1      4355 1.27310E+02 2.57246E+01 0.00000E+00
 -1      4356 2.81175E+01 2.44051E+01 0.00000E+00
 -1      4357 2.54222E+01 2.08911E+01 0.00000E+00
 -1      4358 8.22478E+01 2.40327E+01 0.00000E+00
 -1      4359 8.07478E+01 2.40327E+01 0.00000E+00
 -1      4360 2.66925E+01 2.44051E+01 0.00000E+00
 -1      4361 1.27205E+02 2.67805E+01 0.00000E+00
 -1      4362 8.67750E+01 2.62920E+01 0.00000E+00
 -1      4363 8.82750E+01 2.62920E+01 0.00000E+00
 -1      4364 1.25337E+02 2.65358E+01 0.00000E+00
 -1      4365 8.90250E+01 2.49930E+01 0.00000E+00
 -1      4366 8.83092E+01 2.36427E+01 0.00000E+00
 -1      4367 8.68092E+01 2.36427E+01 0.00000E+00
 -1      4368 8.60592E+01 2.49417E+01 0.00000E+00
 -1      4369 2.61722E+01 2.21901E+01 0.00000E+00
 -1      4370 1.27719E+02 2.77539E+01 0.00000E+00
 -1      4371 8.02773E+01 2.51235E+01 0.00000E+00
 -1      4372 1.26462E+02 2.64541E+01 0.00000E+00
 -3
    3C                          2104                                     1
 -1       165    8    0    1
 -2         6         7        23      1135      1299      1152
 -1       166    8    0    1
 -2         7         8       165      1136      1300      1301
 -1       167    8    0    1
 -2         8         9       166      1137      1302      1303
 -1       168    8    0    1
 -2         8       166       165      1303      1304      1300
 -1       169    8    0    1
 -2         9        10       167      1138      1305      1306
 -1       170    8    0    1
 -2         9       167       166      1306      1307      1302
 -1       171    8    0    1
 -2        10        11       168      1139      1308      1309
 -1       172    8    0    1
 -2        10       168       167      1309      1310      1305
 -1       173    8    0    1
 -2        11        12       169      1140      1311      1312
 -1       174    8    0    1
 -2        11       169       168      1312      1313      1308
 -1       175    8    0    1
 -2        12        13       170      1141      1314      1315
 -1       176    8    0    1
 -2        12       170       169      1315      1316      1311
 -1       177    8    0    1
 -2        13        14       171      1142      1317      1318
 -1       178    8    0    1
 -2        13       171       170      1318      1319      1314
 -1       179    8    0    1
 -2        14        15       172      1143      1320      1321
 -1       180    8    0    1
 -2        14       172       171      1321      1322      1317
 -1       181    8    0    1
 -2        15        16       173      1144      1323      1324
 -1       182    8    0    1
 -2        15       173       172      1324      1325      1320
 -1       183    8    0    1
 -2        16        17       174      1145      1326      1327
 -1       184    8    0    1
 -2        16       174       173      1327      1328      1323
 -1       185    8    0    1
 -2        17        18       175      1146      1329      1330
 -1       186    8    0    1
 -2        17       175       174      1330      1331      1326
 -1       187    8    0    1
 -2        18        19       176      1147      1332      1333
 -1       188    8    0    1
 -2        18       176       175      1333      1334      1329
 -1       189    8    0    1
 -2        19        20       177      1148      1335      1336
 -1       190    8    0    1
 -2        19       177       176      1336      1337      1332
 -1       191    8    0    1
 -2        20        21       178      1149      1338      1339
 -1       192    8    0    1
 -2        20       178       177      1339      1340      1335
 -1       193    8    0    1
 -2        21        22       179      1150      1341      1342
 -1       194    8    0    1
 -2        21       179       178      1342      1343      1338
 -1       195    8    0    1
 -2        22         5       180      1151      1344      1345
 -1       196    8    0    1
 -2       179        22       180      1341      1345      1346
 -1       197    8    0    1
 -2         5        73       180      1203      1347      1344
 -1       198    8    0    1
 -2        24        23       181      1153      1348      1349
 -1       199    8    0    1
 -2        25        24       182      1154      1350      1351
 -1       200    8    0    1
 -2        24       181       182      1349      1352      1350
 -1       201    8    0    1
 -2        26        25       183      1155      1353      1354
 -1       202    8    0    1
 -2        25       182       183      1351      1355      1353
 -1       203    8    0    1
 -2        27        26       184      1156      1356      1357
 -1       204    8    0    1
 -2        26       183       184      1354      1358      1356
 -1       205    8    0    1
 -2        28        27       185      1157      1359      1360
 -1       206    8    0    1
 -2        27       184       185      1357      1361      1359
 -1       207    8    0    1
 -2        29        28       186      1158      1362      1363
 -1       208    8    0    1
 -2        28       185       186      1360      1364      1362
 -1       209    8    0    1
 -2        30        29       187      1159      1365      1366
 -1       210    8    0    1
 -2        29       186       187      1363      1367      1365
 -1       211    8    0    1
 -2        31        30       188      1160      1368      1369
 -1       212    8    0    1
 -2        30       187       188      1366      1370      1368
 -1       213    8    0    1
 -2        32        31       189      1161      1371      1372
 -1       214    8    0    1
 -2        31       188       189      1369      1373      1371
 -1       215    8    0    1
 -2        33        32       190      1162      1374      1375
 -1       216    8    0    1
 -2        32       189       190      1372      1376      1374
 -1       217    8    0    1
 -2        34        33       191      1163      1377      1378
 -1       218    8    0    1
 -2        33       190       191      1375      1379      1377
 -1       219    8    0    1
 -2        35        34       192      1164      1380      1381
 -1       220    8    0    1
 -2        34       191       192      1378      1382      1380
 -1       221    8    0    1
 -2        36        35       193      1165      1383      1384
 -1       222    8    0    1
 -2        35       192       193      1381      1385      1383
 -1       223    8    0    1
 -2        37        36       194      1166      1386      1387
 -1       224    8    0    1
 -2        36       193       194      1384      1388      1386
 -1       225    8    0    1
 -2        38        37       195      1167      1389      1390
 -1       226    8    0    1
 -2        37       194       195      1387      1391      1389
 -1       227    8    0    1
 -2        39        38       196      1168      1392      1393
 -1       228    8    0    1
 -2        38       195       196      1390      1394      1392
 -1       229    8    0    1
 -2        40        39       197      1169      1395      1396
 -1       230    8    0    1
 -2        39       196       197      1393      1397      1395
 -1       231    8    0    1
 -2        41        40       198      1170      1398      1399
 -1       232    8    0    1
 -2        40       197       198      1396      1400      1398
 -1       233    8    0    1
 -2        42        41       199      1171      1401      1402
 -1       234    8    0    1
 -2        41       198       199      1399      1403      1401
 -1       235    8    0    1
 -2        43        42       200      1172      1404      1405
 -1       236    8    0    1
 -2        42       199       200      1402      1406      1404
 -1       237    8    0    1
 -2        44        43       201      1173      1407      1408
 -1       238    8    0    1
 -2        43       200       201      1405      1409      1407
 -1       239    8    0    1
 -2        45        44       202      1174      1410      1411
 -1       240    8    0    1
 -2        44       201       202      1408      1412      1410
 -1       241    8    0    1
 -2        46        45       203      1175      1413      1414
 -1       242    8    0    1
 -2        45       202       203      1411      1415      1413
 -1       243    8    0    1
 -2        47        46       204      1176      1416      1417
 -1       244    8    0    1
 -2        46       203       204      1414      1418      1416
 -1       245    8    0    1
 -2        48        47       205      1177      1419      1420
 -1       246    8    0    1
 -2        47       204       205      1417      1421      1419
 -1       247    8    0    1
 -2        49        48       206      1178      1422      1423
 -1       248    8    0    1
 -2        48       205       206      1420      1424      1422
 -1       249    8    0    1
 -2        50        49       207      1179      1425      1426
 -1       250    8    0    1
 -2        49       206       207      1423      1427      1425
 -1       251    8    0    1
 -2        51        50       208      1180      1428      1429
 -1       252    8    0    1
 -2        50       207       208      1426      1430      1428
 -1       253    8    0    1
 -2        52        51       209      1181      1431      1432
 -1       254    8    0    1
 -2        51       208       209      1429      1433      1431
 -1       255    8    0    1
 -2        53        52       210      1182      1434      1435
 -1       256    8    0    1
 -2        52       209       210      1432      1436      1434
 -1       257    8    0    1
 -2        54        53       211      1183      1437      1438
 -1       258    8    0    1
 -2        53       210       211      1435      1439      1437
 -1       259    8    0    1
 -2        55        54       212      1184      1440      1441
 -1       260    8    0    1
 -2        54       211       212      1438      1442      1440
 -1       261    8    0    1
 -2        56        55       213      1185      1443      1444
 -1       262    8    0    1
 -2        55       212       213      1441      1445      1443
 -1       263    8    0    1
 -2        57        56       214      1186      1446      1447
 -1       264    8    0    1
 -2        56       213       214      1444      1448      1446
 -1       265    8    0    1
 -2        58        57       215      1187      1449      1450
 -1       266    8    0    1
 -2        57       214       215      1447      1451      1449
 -1       267    8    0    1
 -2        59        58       216      1188      1452      1453
 -1       268    8    0    1
 -2        58       215       216      1450      1454      1452
 -1       269    8    0    1
 -2        60        59       217      1189      1455      1456
 -1       270    8    0    1
 -2        59       216       217      1453      1457      1455
 -1       271    8    0    1
 -2        61        60       218      1190      1458      1459
 -1       272    8    0    1
 -2        60       217       218      1456      1460      1458
 -1       273    8    0    1
 -2        62        61       219      1191      1461      1462
 -1       274    8    0    1
 -2        61       218       219      1459      1463      1461
 -1       275    8    0    1
 -2        63        62       220      1192      1464      1465
 -1       276    8    0    1
 -2        62       219       220      1462      1466      1464
 -1       277    8    0    1
 -2        64        63       221      1193      1467      1468
 -1       278    8    0    1
 -2        63       220       221      1465      1469      1467
 -1       279    8    0    1
 -2        65        64       222      1194      1470      1471
 -1       280    8    0    1
 -2        64       221       222      1468      1472      1470
 -1       281    8    0    1
 -2        66        65       223      1195      1473      1474
 -1       282    8    0    1
 -2        65       222       223      1471      1475      1473
 -1       283    8    0    1
 -2        67        66       224      1196      1476      1477
 -1       284    8    0    1
 -2        66       223       224      1474      1478      1476
 -1       285    8    0    1
 -2        68        67       225      1197      1479      1480
 -1       286    8    0    1
 -2        67       224       225      1477      1481      1479
 -1       287    8    0    1
 -2        69        68       226      1198      1482      1483
 -1       288    8    0    1
 -2        68       225       226      1480      1484      1482
 -1       289    8    0    1
 -2        70        69       227      1199      1485      1486
 -1       290    8    0    1
 -2        69       226       227      1483      1487      1485
 -1       291    8    0    1
 -2        71        70       228      1200      1488      1489
 -1       292    8    0    1
 -2        70       227       228      1486      1490      1488
 -1       293    8    0    1
 -2        72        71       229      1201      1491      1492
 -1       294    8    0    1
 -2        71       228       229      1489      1493      1491
 -1       295    8    0    1
 -2         4        72       137      1202      1494      1269
 -1       296    8    0    1
 -2        73        74       230      1204      1495      1496
 -1       297    8    0    1
 -2        73       230       180      1496      1497      1347
 -1       298    8    0    1
 -2        74        75       231      1205      1498      1499
 -1       299    8    0    1
 -2        74       231       230      1499      1500      1495
 -1       300    8    0    1
 -2        75        76       232      1206      1501      1502
 -1       301    8    0    1
 -2        75       232       231      1502      1503      1498
 -1       302    8    0    1
 -2        76        77       233      1207      1504      1505
 -1       303    8    0    1
 -2        76       233       232      1505      1506      1501
 -1       304    8    0    1
 -2        77        78       234      1208      1507      1508
 -1       305    8    0    1
 -2        77       234       233      1508      1509      1504
 -1       306    8    0    1
 -2        78        79       235      1209      1510      1511
 -1       307    8    0    1
 -2        78       235       234      1511      1512      1507
 -1       308    8    0    1
 -2        79        80       236      1210      1513      1514
 -1       309    8    0    1
 -2        79       236       235      1514      1515      1510
 -1       310    8    0    1
 -2        80        81       237      1211      1516      1517
 -1       311    8    0    1
 -2        80       237       236      1517      1518      1513
 -1       312    8    0    1
 -2        81        82       238      1212      1519      1520
 -1       313    8    0    1
 -2        81       238       237      1520      1521      1516
 -1       314    8    0    1
 -2        82        83       239      1213      1522      1523
 -1       315    8    0    1
 -2        82       239       238      1523      1524      1519
 -1       316    8    0    1
 -2        83        84       240      1214      1525      1526
 -1       317    8    0    1
 -2        83       240       239      1526      1527      1522
 -1       318    8    0    1
 -2        84        85       241      1215      1528      1529
 -1       319    8    0    1
 -2        84       241       240      1529      1530      1525
 -1       320    8    0    1
 -2        85        86       242      1216      1531      1532
 -1       321    8    0    1
 -2        85       242       241      1532      1533      1528
 -1       322    8    0    1
 -2        86        87       243      1217      1534      1535
 -1       323    8    0    1
 -2        86       243       242      1535      1536      1531
 -1       324    8    0    1
 -2        87        88       244      1218      1537      1538
 -1       325    8    0    1
 -2        87       244       243      1538      1539      1534
 -1       326    8    0    1
 -2        88        89       245      1219      1540      1541
 -1       327    8    0    1
 -2        88       245       244      1541      1542      1537
 -1       328    8    0    1
 -2        89        90       246      1220      1543      1544
 -1       329    8    0    1
 -2        89       246       245      1544      1545      1540
 -1       330    8    0    1
 -2        90        91       247      1221      1546      1547
 -1       331    8    0    1
 -2        90       247       246      1547      1548      1543
 -1       332    8    0    1
 -2        91        92       248      1222      1549      1550
 -1       333    8    0    1
 -2        91       248       247      1550      1551      1546
 -1       334    8    0    1
 -2        92        93       249      1223      1552      1553
 -1       335    8    0    1
 -2        92       249       248      1553      1554      1549
 -1       336    8    0    1
 -2        93        94       250      1224      1555      1556
 -1       337    8    0    1
 -2        93       250       249      1556      1557      1552
 -1       338    8    0    1
 -2        94        95       251      1225      1558      1559
 -1       339    8    0    1
 -2        94       251       250      1559      1560      1555
 -1       340    8    0    1
 -2        95        96       252      1226      1561      1562
 -1       341    8    0    1
 -2        95       252       251      1562      1563      1558
 -1       342    8    0    1
 -2        96        97       253      1227      1564      1565
 -1       343    8    0    1
 -2        96       253       252      1565      1566      1561
 -1       344    8    0    1
 -2        97        98       254      1228      1567      1568
 -1       345    8    0    1
 -2        97       254       253      1568      1569      1564
 -1       346    8    0    1
 -2        98        99       255      1229      1570      1571
 -1       347    8    0    1
 -2        98       255       254      1571      1572      1567
 -1       348    8    0    1
 -2        99       100       256      1230      1573      1574
 -1       349    8    0    1
 -2        99       256       255      1574      1575      1570
 -1       350    8    0    1
 -2       100       101       257      1231      1576      1577
 -1       351    8    0    1
 -2       100       257       256      1577      1578      1573
 -1       352    8    0    1
 -2       101       102       258      1232      1579      1580
 -1       353    8    0    1
 -2       101       258       257      1580      1581      1576
 -1       354    8    0    1
 -2       102       103       259      1233      1582      1583
 -1       355    8    0    1
 -2       102       259       258      1583      1584      1579
 -1       356    8    0    1
 -2       103       104       260      1234      1585      1586
 -1       357    8    0    1
 -2       103       260       259      1586      1587      1582
 -1       358    8    0    1
 -2       104       105       261      1235      1588      1589
 -1       359    8    0    1
 -2       104       261       260      1589      1590      1585
 -1       360    8    0    1
 -2       105       106       262      1236      1591      1592
 -1       361    8    0    1
 -2       105       262       261      1592      1593      1588
 -1       362    8    0    1
 -2       106       107       263      1237      1594      1595
 -1       363    8    0    1
 -2       106       263       262      1595      1596      1591
 -1       364    8    0    1
 -2       107       108       264      1238      1597      1598
 -1       365    8    0    1
 -2       107       264       263      1598      1599      1594
 -1       366    8    0    1
 -2       108       109       265      1239      1600      1601
 -1       367    8    0    1
 -2       108       265       264      1601      1602      1597
 -1       368    8    0    1
 -2       109       110       266      1240      1603      1604
 -1       369    8    0    1
 -2       109       266       265      1604      1605      1600
 -1       370    8    0    1
 -2       110       111       267      1241      1606      1607
 -1       371    8    0    1
 -2       110       267       266      1607      1608      1603
 -1       372    8    0    1
 -2       111       112       268      1242      1609      1610
 -1       373    8    0    1
 -2       111       268       267      1610      1611      1606
 -1       374    8    0    1
 -2       112       113       269      1243      1612      1613
 -1       375    8    0    1
 -2       112       269       268      1613      1614      1609
 -1       376    8    0    1
 -2       113       114       270      1244      1615      1616
 -1       377    8    0    1
 -2       113       270       269      1616      1617      1612
 -1       378    8    0    1
 -2       114       115       271      1245      1618      1619
 -1       379    8    0    1
 -2       114       271       270      1619      1620      1615
 -1       380    8    0    1
 -2       115       116       272      1246      1621      1622
 -1       381    8    0    1
 -2       115       272       271      1622      1623      1618
 -1       382    8    0    1
 -2       116       117       273      1247      1624      1625
 -1       383    8    0    1
 -2       116       273       272      1625      1626      1621
 -1       384    8    0    1
 -2       117       118       274      1248      1627      1628
 -1       385    8    0    1
 -2       117       274       273      1628      1629      1624
 -1       386    8    0    1
 -2       118       119       275      1249      1630      1631
 -1       387    8    0    1
 -2       118       275       274      1631      1632      1627
 -1       388    8    0    1
 -2       119       120       276      1250      1633      1634
 -1       389    8    0    1
 -2       119       276       275      1634      1635      1630
 -1       390    8    0    1
 -2       120       121       277      1251      1636      1637
 -1       391    8    0    1
 -2       120       277       276      1637      1638      1633
 -1       392    8    0    1
 -2       121         3       122      1252      1253      1639
 -1       393    8    0    1
 -2       122       123       278      1254      1640      1641
 -1       394    8    0    1
 -2       123       124       279      1255      1642      1643
 -1       395    8    0    1
 -2       123       279       278      1643      1644      1640
 -1       396    8    0    1
 -2       124       125       280      1256      1645      1646
 -1       397    8    0    1
 -2       124       280       279      1646      1647      1642
 -1       398    8    0    1
 -2       125       126       281      1257      1648      1649
 -1       399    8    0    1
 -2       125       281       280      1649      1650      1645
 -1       400    8    0    1
 -2       126       127       282      1258      1651      1652
 -1       401    8    0    1
 -2       126       282       281      1652      1653      1648
 -1       402    8    0    1
 -2       127       128       283      1259      1654      1655
 -1       403    8    0    1
 -2       127       283       282      1655      1656      1651
 -1       404    8    0    1
 -2       128       129       284      1260      1657      1658
 -1       405    8    0    1
 -2       128       284       283      1658      1659      1654
 -1       406    8    0    1
 -2       129       130       285      1261      1660      1661
 -1       407    8    0    1
 -2       129       285       284      1661      1662      1657
 -1       408    8    0    1
 -2       130       131       286      1262      1663      1664
 -1       409    8    0    1
 -2       130       286       285      1664      1665      1660
 -1       410    8    0    1
 -2       131       132       287      1263      1666      1667
 -1       411    8    0    1
 -2       131       287       286      1667      1668      1663
 -1       412    8    0    1
 -2       132       133       288      1264      1669      1670
 -1       413    8    0    1
 -2       132       288       287      1670      1671      1666
 -1       414    8    0    1
 -2       133       134       289      1265      1672      1673
 -1       415    8    0    1
 -2       133       289       288      1673      1674      1669
 -1       416    8    0    1
 -2       134       135       290      1266      1675      1676
 -1       417    8    0    1
 -2       134       290       289      1676      1677      1672
 -1       418    8    0    1
 -2       135       136       291      1267      1678      1679
 -1       419    8    0    1
 -2       135       291       290      1679      1680      1675
 -1       420    8    0    1
 -2         2       138       292      1270      1681      1682
 -1       421    8    0    1
 -2       138       139       293      1271      1683      1684
 -1       422    8    0    1
 -2       139       140       294      1272      1685      1686
 -1       423    8    0    1
 -2       140       141       295      1273      1687      1688
 -1       424    8    0    1
 -2       141       142       296      1274      1689      1690
 -1       425    8    0    1
 -2       142       143       297      1275      1691      1692
 -1       426    8    0    1
 -2       143       144       298      1276      1693      1694
 -1       427    8    0    1
 -2       144       145       299      1277      1695      1696
 -1       428    8    0    1
 -2       145       146       300      1278      1697      1698
 -1       429    8    0    1
 -2       146       147       301      1279      1699      1700
 -1       430    8    0    1
 -2       147       148       302      1280      1701      1702
 -1       431    8    0    1
 -2       148       149       303      1281      1703      1704
 -1       432    8    0    1
 -2       149       150       304      1282      1705      1706
 -1       433    8    0    1
 -2       150       151       305      1283      1707      1708
 -1       434    8    0    1
 -2       151       152       306      1284      1709      1710
 -1       435    8    0    1
 -2       152       153       307      1285      1711      1712
 -1       436    8    0    1
 -2       153       154       308      1286      1713      1714
 -1       437    8    0    1
 -2       154       155       309      1287      1715      1716
 -1       438    8    0    1
 -2       155       156       310      1288      1717      1718
 -1       439    8    0    1
 -2       156       157       311      1289      1719      1720
 -1       440    8    0    1
 -2       157       158       312      1290      1721      1722
 -1       441    8    0    1
 -2       158       159       313      1291      1723      1724
 -1       442    8    0    1
 -2       159       160       314      1292      1725      1726
 -1       443    8    0    1
 -2       160         1       315      1293      1727      1728
 -1       444    8    0    1
 -2         1       161       316      1294      1729      1730
 -1       445    8    0    1
 -2       161       162       317      1295      1731      1732
 -1       446    8    0    1
 -2       162       163       318      1296      1733      1734
 -1       447    8    0    1
 -2       163       164       319      1297      1735      1736
 -1       448    8    0    1
 -2       164         2       320      1298      1737      1738
 -1       449    8    0    1
 -2       137        72       229      1494      1492      1739
 -1       450    8    0    1
 -2       293       139       294      1683      1686      1740
 -1       451    8    0    1
 -2       121       122       277      1639      1741      1636
 -1       452    8    0    1
 -2       122       278       277      1641      1742      1741
 -1       453    8    0    1
 -2         2       292       320      1682      1743      1737
 -1       454    8    0    1
 -2       292       138       293      1681      1684      1744
 -1       455    8    0    1
 -2       136       137       321      1268      1745      1746
 -1       456    8    0    1
 -2       136       321       291      1746      1747      1678
 -1       457    8    0    1
 -2       140       295       294      1688      1748      1685
 -1       458    8    0    1
 -2       141       296       295      1690      1749      1687
 -1       459    8    0    1
 -2       142       297       296      1692      1750      1689
 -1       460    8    0    1
 -2       143       298       297      1694      1751      1691
 -1       461    8    0    1
 -2       144       299       298      1696      1752      1693
 -1       462    8    0    1
 -2       145       300       299      1698      1753      1695
 -1       463    8    0    1
 -2       146       301       300      1700      1754      1697
 -1       464    8    0    1
 -2       147       302       301      1702      1755      1699
 -1       465    8    0    1
 -2       148       303       302      1704      1756      1701
 -1       466    8    0    1
 -2       149       304       303      1706      1757      1703
 -1       467    8    0    1
 -2       150       305       304      1708      1758      1705
 -1       468    8    0    1
 -2       151       306       305      1710      1759      1707
 -1       469    8    0    1
 -2       152       307       306      1712      1760      1709
 -1       470    8    0    1
 -2       153       308       307      1714      1761      1711
 -1       471    8    0    1
 -2       154       309       308      1716      1762      1713
 -1       472    8    0    1
 -2       155       310       309      1718      1763      1715
 -1       473    8    0    1
 -2       156       311       310      1720      1764      1717
 -1       474    8    0    1
 -2       157       312       311      1722      1765      1719
 -1       475    8    0    1
 -2       158       313       312      1724      1766      1721
 -1       476    8    0    1
 -2       159       314       313      1726      1767      1723
 -1       477    8    0    1
 -2       160       315       314      1728      1768      1725
 -1       478    8    0    1
 -2         1       316       315      1730      1769      1727
 -1       479    8    0    1
 -2       161       317       316      1732      1770      1729
 -1       480    8    0    1
 -2       162       318       317      1734      1771      1731
 -1       481    8    0    1
 -2       163       319       318      1736      1772      1733
 -1       482    8    0    1
 -2       164       320       319      1738      1773      1735
 -1       483    8    0    1
 -2        23         7       165      1299      1301      1774
 -1       484    8    0    1
 -2       166       167       322      1307      1775      1776
 -1       485    8    0    1
 -2       165       166       323      1304      1777      1778
 -1       486    8    0    1
 -2       166       322       323      1776      1779      1777
 -1       487    8    0    1
 -2       168       169       324      1313      1780      1781
 -1       488    8    0    1
 -2       169       170       325      1316      1782      1783
 -1       489    8    0    1
 -2       169       325       324      1783      1784      1780
 -1       490    8    0    1
 -2       170       171       326      1319      1785      1786
 -1       491    8    0    1
 -2       170       326       325      1786      1787      1782
 -1       492    8    0    1
 -2       171       172       327      1322      1788      1789
 -1       493    8    0    1
 -2       171       327       326      1789      1790      1785
 -1       494    8    0    1
 -2       172       173       328      1325      1791      1792
 -1       495    8    0    1
 -2       172       328       327      1792      1793      1788
 -1       496    8    0    1
 -2       173       174       329      1328      1794      1795
 -1       497    8    0    1
 -2       173       329       328      1795      1796      1791
 -1       498    8    0    1
 -2       174       175       330      1331      1797      1798
 -1       499    8    0    1
 -2       174       330       329      1798      1799      1794
 -1       500    8    0    1
 -2       175       176       331      1334      1800      1801
 -1       501    8    0    1
 -2       175       331       330      1801      1802      1797
 -1       502    8    0    1
 -2       176       177       332      1337      1803      1804
 -1       503    8    0    1
 -2       176       332       331      1804      1805      1800
 -1       504    8    0    1
 -2       177       178       333      1340      1806      1807
 -1       505    8    0    1
 -2       177       333       332      1807      1808      1803
 -1       506    8    0    1
 -2       178       179       334      1343      1809      1810
 -1       507    8    0    1
 -2       178       334       333      1810      1811      1806
 -1       508    8    0    1
 -2       179       180       335      1346      1812      1813
 -1       509    8    0    1
 -2       334       179       335      1809      1813      1814
 -1       510    8    0    1
 -2       180       230       335      1497      1815      1812
 -1       511    8    0    1
 -2       181        23       165      1348      1774      1816
 -1       512    8    0    1
 -2       230       231       336      1500      1817      1818
 -1       513    8    0    1
 -2       230       336       335      1818      1819      1815
 -1       514    8    0    1
 -2       183       182       337      1355      1820      1821
 -1       515    8    0    1
 -2       184       183       338      1358      1822      1823
 -1       516    8    0    1
 -2       183       337       338      1821      1824      1822
 -1       517    8    0    1
 -2       185       184       339      1361      1825      1826
 -1       518    8    0    1
 -2       184       338       339      1823      1827      1825
 -1       519    8    0    1
 -2       186       185       340      1364      1828      1829
 -1       520    8    0    1
 -2       185       339       340      1826      1830      1828
 -1       521    8    0    1
 -2       187       186       341      1367      1831      1832
 -1       522    8    0    1
 -2       186       340       341      1829      1833      1831
 -1       523    8    0    1
 -2       188       187       342      1370      1834      1835
 -1       524    8    0    1
 -2       187       341       342      1832      1836      1834
 -1       525    8    0    1
 -2       189       188       343      1373      1837      1838
 -1       526    8    0    1
 -2       188       342       343      1835      1839      1837
 -1       527    8    0    1
 -2       190       189       344      1376      1840      1841
 -1       528    8    0    1
 -2       189       343       344      1838      1842      1840
 -1       529    8    0    1
 -2       191       190       345      1379      1843      1844
 -1       530    8    0    1
 -2       190       344       345      1841      1845      1843
 -1       531    8    0    1
 -2       192       191       346      1382      1846      1847
 -1       532    8    0    1
 -2       191       345       346      1844      1848      1846
 -1       533    8    0    1
 -2       193       192       347      1385      1849      1850
 -1       534    8    0    1
 -2       192       346       347      1847      1851      1849
 -1       535    8    0    1
 -2       194       193       348      1388      1852      1853
 -1       536    8    0    1
 -2       193       347       348      1850      1854      1852
 -1       537    8    0    1
 -2       195       194       349      1391      1855      1856
 -1       538    8    0    1
 -2       194       348       349      1853      1857      1855
 -1       539    8    0    1
 -2       200       199       350      1406      1858      1859
 -1       540    8    0    1
 -2       201       200       351      1409      1860      1861
 -1       541    8    0    1
 -2       202       201       352      1412      1862      1863
 -1       542    8    0    1
 -2       201       351       352      1861      1864      1862
 -1       543    8    0    1
 -2       203       202       353      1415      1865      1866
 -1       544    8    0    1
 -2       202       352       353      1863      1867      1865
 -1       545    8    0    1
 -2       204       203       354      1418      1868      1869
 -1       546    8    0    1
 -2       203       353       354      1866      1870      1868
 -1       547    8    0    1
 -2       205       204       355      1421      1871      1872
 -1       548    8    0    1
 -2       204       354       355      1869      1873      1871
 -1       549    8    0    1
 -2       206       205       356      1424      1874      1875
 -1       550    8    0    1
 -2       205       355       356      1872      1876      1874
 -1       551    8    0    1
 -2       207       206       357      1427      1877      1878
 -1       552    8    0    1
 -2       206       356       357      1875      1879      1877
 -1       553    8    0    1
 -2       208       207       358      1430      1880      1881
 -1       554    8    0    1
 -2       207       357       358      1878      1882      1880
 -1       555    8    0    1
 -2       209       208       359      1433      1883      1884
 -1       556    8    0    1
 -2       208       358       359      1881      1885      1883
 -1       557    8    0    1
 -2       210       209       360      1436      1886      1887
 -1       558    8    0    1
 -2       209       359       360      1884      1888      1886
 -1       559    8    0    1
 -2       211       210       361      1439      1889      1890
 -1       560    8    0    1
 -2       210       360       361      1887      1891      1889
 -1       561    8    0    1
 -2       212       211       362      1442      1892      1893
 -1       562    8    0    1
 -2       211       361       362      1890      1894      1892
 -1       563    8    0    1
 -2       213       212       363      1445      1895      1896
 -1       564    8    0    1
 -2       212       362       363      1893      1897      1895
 -1       565    8    0    1
 -2       214       213       364      1448      1898      1899
 -1       566    8    0    1
 -2       213       363       364      1896      1900      1898
 -1       567    8    0    1
 -2       215       214       365      1451      1901      1902
 -1       568    8    0    1
 -2       214       364       365      1899      1903      1901
 -1       569    8    0    1
 -2       216       215       366      1454      1904      1905
 -1       570    8    0    1
 -2       215       365       366      1902      1906      1904
 -1       571    8    0    1
 -2       217       216       367      1457      1907      1908
 -1       572    8    0    1
 -2       216       366       367      1905      1909      1907
 -1       573    8    0    1
 -2       218       217       368      1460      1910      1911
 -1       574    8    0    1
 -2       217       367       368      1908      1912      1910
 -1       575    8    0    1
 -2       219       218       369      1463      1913      1914
 -1       576    8    0    1
 -2       218       368       369      1911      1915      1913
 -1       577    8    0    1
 -2       220       219       370      1466      1916      1917
 -1       578    8    0    1
 -2       219       369       370      1914      1918      1916
 -1       579    8    0    1
 -2       221       220       371      1469      1919      1920
 -1       580    8    0    1
 -2       220       370       371      1917      1921      1919
 -1       581    8    0    1
 -2       222       221       372      1472      1922      1923
 -1       582    8    0    1
 -2       221       371       372      1920      1924      1922
 -1       583    8    0    1
 -2       223       222       373      1475      1925      1926
 -1       584    8    0    1
 -2       222       372       373      1923      1927      1925
 -1       585    8    0    1
 -2       224       223       374      1478      1928      1929
 -1       586    8    0    1
 -2       223       373       374      1926      1930      1928
 -1       587    8    0    1
 -2       225       224       375      1481      1931      1932
 -1       588    8    0    1
 -2       224       374       375      1929      1933      1931
 -1       589    8    0    1
 -2       226       225       376      1484      1934      1935
 -1       590    8    0    1
 -2       225       375       376      1932      1936      1934
 -1       591    8    0    1
 -2       227       226       377      1487      1937      1938
 -1       592    8    0    1
 -2       226       376       377      1935      1939      1937
 -1       593    8    0    1
 -2       228       227       378      1490      1940      1941
 -1       594    8    0    1
 -2       227       377       378      1938      1942      1940
 -1       595    8    0    1
 -2       229       228       379      1493      1943      1944
 -1       596    8    0    1
 -2       228       378       379      1941      1945      1943
 -1       597    8    0    1
 -2       231       232       380      1503      1946      1947
 -1       598    8    0    1
 -2       231       380       336      1947      1948      1817
 -1       599    8    0    1
 -2       293       294       381      1740      1949      1950
 -1       600    8    0    1
 -2       232       233       382      1506      1951      1952
 -1       601    8    0    1
 -2       232       382       380      1952      1953      1946
 -1       602    8    0    1
 -2       233       234       383      1509      1954      1955
 -1       603    8    0    1
 -2       233       383       382      1955      1956      1951
 -1       604    8    0    1
 -2       234       235       384      1512      1957      1958
 -1       605    8    0    1
 -2       234       384       383      1958      1959      1954
 -1       606    8    0    1
 -2       235       236       385      1515      1960      1961
 -1       607    8    0    1
 -2       235       385       384      1961      1962      1957
 -1       608    8    0    1
 -2       236       237       386      1518      1963      1964
 -1       609    8    0    1
 -2       236       386       385      1964      1965      1960
 -1       610    8    0    1
 -2       237       238       387      1521      1966      1967
 -1       611    8    0    1
 -2       237       387       386      1967      1968      1963
 -1       612    8    0    1
 -2       238       239       388      1524      1969      1970
 -1       613    8    0    1
 -2       238       388       387      1970      1971      1966
 -1       614    8    0    1
 -2       239       240       389      1527      1972      1973
 -1       615    8    0    1
 -2       239       389       388      1973      1974      1969
 -1       616    8    0    1
 -2       240       241       390      1530      1975      1976
 -1       617    8    0    1
 -2       240       390       389      1976      1977      1972
 -1       618    8    0    1
 -2       241       242       391      1533      1978      1979
 -1       619    8    0    1
 -2       241       391       390      1979      1980      1975
 -1       620    8    0    1
 -2       242       243       392      1536      1981      1982
 -1       621    8    0    1
 -2       242       392       391      1982      1983      1978
 -1       622    8    0    1
 -2       243       244       393      1539      1984      1985
 -1       623    8    0    1
 -2       243       393       392      1985      1986      1981
 -1       624    8    0    1
 -2       244       245       394      1542      1987      1988
 -1       625    8    0    1
 -2       244       394       393      1988      1989      1984
 -1       626    8    0    1
 -2       245       246       395      1545      1990      1991
 -1       627    8    0    1
 -2       245       395       394      1991      1992      1987
 -1       628    8    0    1
 -2       246       247       396      1548      1993      1994
 -1       629    8    0    1
 -2       246       396       395      1994      1995      1990
 -1       630    8    0    1
 -2       247       248       397      1551      1996      1997
 -1       631    8    0    1
 -2       247       397       396      1997      1998      1993
 -1       632    8    0    1
 -2       248       249       398      1554      1999      2000
 -1       633    8    0    1
 -2       248       398       397      2000      2001      1996
 -1       634    8    0    1
 -2       249       250       399      1557      2002      2003
 -1       635    8    0    1
 -2       249       399       398      2003      2004      1999
 -1       636    8    0    1
 -2       250       251       400      1560      2005      2006
 -1       637    8    0    1
 -2       250       400       399      2006      2007      2002
 -1       638    8    0    1
 -2       251       252       401      1563      2008      2009
 -1       639    8    0    1
 -2       251       401       400      2009      2010      2005
 -1       640    8    0    1
 -2       252       253       402      1566      2011      2012
 -1       641    8    0    1
 -2       252       402       401      2012      2013      2008
 -1       642    8    0    1
 -2       253       254       403      1569      2014      2015
 -1       643    8    0    1
 -2       253       403       402      2015      2016      2011
 -1       644    8    0    1
 -2       254       255       404      1572      2017      2018
 -1       645    8    0    1
 -2       254       404       403      2018      2019      2014
 -1       646    8    0    1
 -2       255       256       405      1575      2020      2021
 -1       647    8    0    1
 -2       255       405       404      2021      2022      2017
 -1       648    8    0    1
 -2       256       257       406      1578      2023      2024
 -1       649    8    0    1
 -2       256       406       405      2024      2025      2020
 -1       650    8    0    1
 -2       257       258       407      1581      2026      2027
 -1       651    8    0    1
 -2       257       407       406      2027      2028      2023
 -1       652    8    0    1
 -2       258       259       408      1584      2029      2030
 -1       653    8    0    1
 -2       258       408       407      2030      2031      2026
 -1       654    8    0    1
 -2       259       260       409      1587      2032      2033
 -1       655    8    0    1
 -2       259       409       408      2033      2034      2029
 -1       656    8    0    1
 -2       260       261       410      1590      2035      2036
 -1       657    8    0    1
 -2       260       410       409      2036      2037      2032
 -1       658    8    0    1
 -2       261       262       411      1593      2038      2039
 -1       659    8    0    1
 -2       261       411       410      2039      2040      2035
 -1       660    8    0    1
 -2       262       263       412      1596      2041      2042
 -1       661    8    0    1
 -2       262       412       411      2042      2043      2038
 -1       662    8    0    1
 -2       263       264       413      1599      2044      2045
 -1       663    8    0    1
 -2       263       413       412      2045      2046      2041
 -1       664    8    0    1
 -2       264       265       414      1602      2047      2048
 -1       665    8    0    1
 -2       264       414       413      2048      2049      2044
 -1       666    8    0    1
 -2       265       266       415      1605      2050      2051
 -1       667    8    0    1
 -2       265       415       414      2051      2052      2047
 -1       668    8    0    1
 -2       266       267       416      1608      2053      2054
 -1       669    8    0    1
 -2       266       416       415      2054      2055      2050
 -1       670    8    0    1
 -2       267       268       417      1611      2056      2057
 -1       671    8    0    1
 -2       267       417       416      2057      2058      2053
 -1       672    8    0    1
 -2       268       269       418      1614      2059      2060
 -1       673    8    0    1
 -2       268       418       417      2060      2061      2056
 -1       674    8    0    1
 -2       269       270       419      1617      2062      2063
 -1       675    8    0    1
 -2       269       419       418      2063      2064      2059
 -1       676    8    0    1
 -2       270       271       420      1620      2065      2066
 -1       677    8    0    1
 -2       270       420       419      2066      2067      2062
 -1       678    8    0    1
 -2       271       272       421      1623      2068      2069
 -1       679    8    0    1
 -2       271       421       420      2069      2070      2065
 -1       680    8    0    1
 -2       272       273       422      1626      2071      2072
 -1       681    8    0    1
 -2       272       422       421      2072      2073      2068
 -1       682    8    0    1
 -2       273       274       423      1629      2074      2075
 -1       683    8    0    1
 -2       273       423       422      2075      2076      2071
 -1       684    8    0    1
 -2       274       275       424      1632      2077      2078
 -1       685    8    0    1
 -2       274       424       423      2078      2079      2074
 -1       686    8    0    1
 -2       275       276       425      1635      2080      2081
 -1       687    8    0    1
 -2       275       425       424      2081      2082      2077
 -1       688    8    0    1
 -2       276       277       426      1638      2083      2084
 -1       689    8    0    1
 -2       425       276       426      2080      2084      2085
 -1       690    8    0    1
 -2       277       278       426      1742      2086      2083
 -1       691    8    0    1
 -2       280       281       427      1650      2087      2088
 -1       692    8    0    1
 -2       279       280       428      1647      2089      2090
 -1       693    8    0    1
 -2       280       427       428      2088      2091      2089
 -1       694    8    0    1
 -2       278       279       429      1644      2092      2093
 -1       695    8    0    1
 -2       426       278       429      2086      2093      2094
 -1       696    8    0    1
 -2       279       428       429      2090      2095      2092
 -1       697    8    0    1
 -2       281       282       430      1653      2096      2097
 -1       698    8    0    1
 -2       281       430       427      2097      2098      2087
 -1       699    8    0    1
 -2       282       283       431      1656      2099      2100
 -1       700    8    0    1
 -2       282       431       430      2100      2101      2096
 -1       701    8    0    1
 -2       283       284       432      1659      2102      2103
 -1       702    8    0    1
 -2       283       432       431      2103      2104      2099
 -1       703    8    0    1
 -2       284       285       433      1662      2105      2106
 -1       704    8    0    1
 -2       284       433       432      2106      2107      2102
 -1       705    8    0    1
 -2       285       286       434      1665      2108      2109
 -1       706    8    0    1
 -2       285       434       433      2109      2110      2105
 -1       707    8    0    1
 -2       286       287       435      1668      2111      2112
 -1       708    8    0    1
 -2       286       435       434      2112      2113      2108
 -1       709    8    0    1
 -2       287       288       436      1671      2114      2115
 -1       710    8    0    1
 -2       287       436       435      2115      2116      2111
 -1       711    8    0    1
 -2       288       289       437      1674      2117      2118
 -1       712    8    0    1
 -2       288       437       436      2118      2119      2114
 -1       713    8    0    1
 -2       289       290       438      1677      2120      2121
 -1       714    8    0    1
 -2       289       438       437      2121      2122      2117
 -1       715    8    0    1
 -2       290       291       439      1680      2123      2124
 -1       716    8    0    1
 -2       290       439       438      2124      2125      2120
 -1       717    8    0    1
 -2       294       295       440      1748      2126      2127
 -1       718    8    0    1
 -2       294       440       381      2127      2128      1949
 -1       719    8    0    1
 -2       321       137       229      1745      1739      2129
 -1       720    8    0    1
 -2       181       165       323      1816      1778      2130
 -1       721    8    0    1
 -2       320       292       441      1743      2131      2132
 -1       722    8    0    1
 -2       167       168       442      1310      2133      2134
 -1       723    8    0    1
 -2       322       167       442      1775      2134      2135
 -1       724    8    0    1
 -2       168       324       442      1781      2136      2133
 -1       725    8    0    1
 -2       295       296       443      1749      2137      2138
 -1       726    8    0    1
 -2       296       297       444      1750      2139      2140
 -1       727    8    0    1
 -2       296       444       443      2140      2141      2137
 -1       728    8    0    1
 -2       297       298       445      1751      2142      2143
 -1       729    8    0    1
 -2       298       299       446      1752      2144      2145
 -1       730    8    0    1
 -2       299       300       447      1753      2146      2147
 -1       731    8    0    1
 -2       299       447       446      2147      2148      2144
 -1       732    8    0    1
 -2       300       301       448      1754      2149      2150
 -1       733    8    0    1
 -2       301       302       449      1755      2151      2152
 -1       734    8    0    1
 -2       302       303       450      1756      2153      2154
 -1       735    8    0    1
 -2       302       450       449      2154      2155      2151
 -1       736    8    0    1
 -2       303       304       451      1757      2156      2157
 -1       737    8    0    1
 -2       304       305       452      1758      2158      2159
 -1       738    8    0    1
 -2       304       452       451      2159      2160      2156
 -1       739    8    0    1
 -2       305       306       453      1759      2161      2162
 -1       740    8    0    1
 -2       306       307       454      1760      2163      2164
 -1       741    8    0    1
 -2       306       454       453      2164      2165      2161
 -1       742    8    0    1
 -2       307       308       455      1761      2166      2167
 -1       743    8    0    1
 -2       308       309       456      1762      2168      2169
 -1       744    8    0    1
 -2       309       310       457      1763      2170      2171
 -1       745    8    0    1
 -2       310       311       458      1764      2172      2173
 -1       746    8    0    1
 -2       311       312       459      1765      2174      2175
 -1       747    8    0    1
 -2       312       313       460      1766      2176      2177
 -1       748    8    0    1
 -2       313       314       461      1767      2178      2179
 -1       749    8    0    1
 -2       314       315       462      1768      2180      2181
 -1       750    8    0    1
 -2       315       316       350      1769      2182      2183
 -1       751    8    0    1
 -2       316       317       463      1770      2184      2185
 -1       752    8    0    1
 -2       317       318       464      1771      2186      2187
 -1       753    8    0    1
 -2       318       319       465      1772      2188      2189
 -1       754    8    0    1
 -2       319       320       466      1773      2190      2191
 -1       755    8    0    1
 -2       292       293       467      1744      2192      2193
 -1       756    8    0    1
 -2       321       229       379      2129      1944      2194
 -1       757    8    0    1
 -2       320       441       466      2132      2195      2190
 -1       758    8    0    1
 -2       195       349       468      1856      2196      2197
 -1       759    8    0    1
 -2       351       200       350      1860      1859      2198
 -1       760    8    0    1
 -2       293       381       467      1950      2199      2192
 -1       761    8    0    1
 -2       337       182       323      1820      2200      2201
 -1       762    8    0    1
 -2       182       181       323      1352      2130      2200
 -1       763    8    0    1
 -2       295       443       440      2138      2202      2126
 -1       764    8    0    1
 -2       196       195       468      1394      2197      2203
 -1       765    8    0    1
 -2       197       196       459      1397      2204      2205
 -1       766    8    0    1
 -2       198       197       460      1400      2206      2207
 -1       767    8    0    1
 -2       199       198       461      1403      2208      2209
 -1       768    8    0    1
 -2       447       300       448      2146      2150      2210
 -1       769    8    0    1
 -2       291       321       379      1747      2194      2211
 -1       770    8    0    1
 -2       441       292       467      2131      2193      2212
 -1       771    8    0    1
 -2       197       459       460      2205      2213      2206
 -1       772    8    0    1
 -2       465       319       466      2188      2191      2214
 -1       773    8    0    1
 -2       464       318       465      2186      2189      2215
 -1       774    8    0    1
 -2       463       317       464      2184      2187      2216
 -1       775    8    0    1
 -2       461       314       462      2178      2181      2217
 -1       776    8    0    1
 -2       460       313       461      2176      2179      2218
 -1       777    8    0    1
 -2       459       312       460      2174      2177      2213
 -1       778    8    0    1
 -2       458       311       459      2172      2175      2219
 -1       779    8    0    1
 -2       457       310       458      2170      2173      2220
 -1       780    8    0    1
 -2       456       309       457      2168      2171      2221
 -1       781    8    0    1
 -2       454       307       469      2163      2222      2223
 -1       782    8    0    1
 -2       307       455       469      2167      2224      2222
 -1       783    8    0    1
 -2       452       305       470      2158      2225      2226
 -1       784    8    0    1
 -2       305       453       470      2162      2227      2225
 -1       785    8    0    1
 -2       450       303       451      2153      2157      2228
 -1       786    8    0    1
 -2       461       198       460      2208      2207      2218
 -1       787    8    0    1
 -2       297       445       444      2143      2229      2139
 -1       788    8    0    1
 -2       445       298       471      2142      2230      2231
 -1       789    8    0    1
 -2       298       446       471      2145      2232      2230
 -1       790    8    0    1
 -2       448       301       449      2149      2152      2233
 -1       791    8    0    1
 -2       455       308       456      2166      2169      2234
 -1       792    8    0    1
 -2       459       196       458      2204      2235      2219
 -1       793    8    0    1
 -2       291       379       439      2211      2236      2123
 -1       794    8    0    1
 -2       325       326       472      1787      2237      2238
 -1       795    8    0    1
 -2       324       325       473      1784      2239      2240
 -1       796    8    0    1
 -2       325       472       473      2238      2241      2239
 -1       797    8    0    1
 -2       327       328       474      1793      2242      2243
 -1       798    8    0    1
 -2       328       329       475      1796      2244      2245
 -1       799    8    0    1
 -2       328       475       474      2245      2246      2242
 -1       800    8    0    1
 -2       329       330       476      1799      2247      2248
 -1       801    8    0    1
 -2       329       476       475      2248      2249      2244
 -1       802    8    0    1
 -2       330       331       477      1802      2250      2251
 -1       803    8    0    1
 -2       330       477       476      2251      2252      2247
 -1       804    8    0    1
 -2       331       332       478      1805      2253      2254
 -1       805    8    0    1
 -2       331       478       477      2254      2255      2250
 -1       806    8    0    1
 -2       332       333       479      1808      2256      2257
 -1       807    8    0    1
 -2       332       479       478      2257      2258      2253
 -1       808    8    0    1
 -2       333       334       480      1811      2259      2260
 -1       809    8    0    1
 -2       333       480       479      2260      2261      2256
 -1       810    8    0    1
 -2       334       335       481      1814      2262      2263
 -1       811    8    0    1
 -2       480       334       481      2259      2263      2264
 -1       812    8    0    1
 -2       335       336       481      1819      2265      2262
 -1       813    8    0    1
 -2       338       337       482      1824      2266      2267
 -1       814    8    0    1
 -2       440       443       483      2202      2268      2269
 -1       815    8    0    1
 -2       465       466       484      2214      2270      2271
 -1       816    8    0    1
 -2       467       381       485      2199      2272      2273
 -1       817    8    0    1
 -2       339       338       486      1827      2274      2275
 -1       818    8    0    1
 -2       338       482       486      2267      2276      2274
 -1       819    8    0    1
 -2       340       339       487      1830      2277      2278
 -1       820    8    0    1
 -2       339       486       487      2275      2279      2277
 -1       821    8    0    1
 -2       341       340       488      1833      2280      2281
 -1       822    8    0    1
 -2       340       487       488      2278      2282      2280
 -1       823    8    0    1
 -2       342       341       489      1836      2283      2284
 -1       824    8    0    1
 -2       341       488       489      2281      2285      2283
 -1       825    8    0    1
 -2       343       342       490      1839      2286      2287
 -1       826    8    0    1
 -2       342       489       490      2284      2288      2286
 -1       827    8    0    1
 -2       344       343       491      1842      2289      2290
 -1       828    8    0    1
 -2       343       490       491      2287      2291      2289
 -1       829    8    0    1
 -2       345       344       492      1845      2292      2293
 -1       830    8    0    1
 -2       344       491       492      2290      2294      2292
 -1       831    8    0    1
 -2       346       345       493      1848      2295      2296
 -1       832    8    0    1
 -2       345       492       493      2293      2297      2295
 -1       833    8    0    1
 -2       347       346       494      1851      2298      2299
 -1       834    8    0    1
 -2       346       493       494      2296      2300      2298
 -1       835    8    0    1
 -2       348       347       495      1854      2301      2302
 -1       836    8    0    1
 -2       347       494       495      2299      2303      2301
 -1       837    8    0    1
 -2       349       348       496      1857      2304      2305
 -1       838    8    0    1
 -2       348       495       496      2302      2306      2304
 -1       839    8    0    1
 -2       350       199       462      1858      2307      2308
 -1       840    8    0    1
 -2       199       461       462      2209      2217      2307
 -1       841    8    0    1
 -2       447       448       497      2210      2309      2310
 -1       842    8    0    1
 -2       466       441       498      2195      2311      2312
 -1       843    8    0    1
 -2       336       380       499      1948      2313      2314
 -1       844    8    0    1
 -2       336       499       481      2314      2315      2265
 -1       845    8    0    1
 -2       353       352       500      1867      2316      2317
 -1       846    8    0    1
 -2       354       353       501      1870      2318      2319
 -1       847    8    0    1
 -2       353       500       501      2317      2320      2318
 -1       848    8    0    1
 -2       355       354       502      1873      2321      2322
 -1       849    8    0    1
 -2       354       501       502      2319      2323      2321
 -1       850    8    0    1
 -2       356       355       503      1876      2324      2325
 -1       851    8    0    1
 -2       355       502       503      2322      2326      2324
 -1       852    8    0    1
 -2       357       356       504      1879      2327      2328
 -1       853    8    0    1
 -2       356       503       504      2325      2329      2327
 -1       854    8    0    1
 -2       358       357       505      1882      2330      2331
 -1       855    8    0    1
 -2       357       504       505      2328      2332      2330
 -1       856    8    0    1
 -2       359       358       506      1885      2333      2334
 -1       857    8    0    1
 -2       358       505       506      2331      2335      2333
 -1       858    8    0    1
 -2       360       359       507      1888      2336      2337
 -1       859    8    0    1
 -2       359       506       507      2334      2338      2336
 -1       860    8    0    1
 -2       361       360       508      1891      2339      2340
 -1       861    8    0    1
 -2       360       507       508      2337      2341      2339
 -1       862    8    0    1
 -2       362       361       509      1894      2342      2343
 -1       863    8    0    1
 -2       361       508       509      2340      2344      2342
 -1       864    8    0    1
 -2       363       362       510      1897      2345      2346
 -1       865    8    0    1
 -2       362       509       510      2343      2347      2345
 -1       866    8    0    1
 -2       364       363       511      1900      2348      2349
 -1       867    8    0    1
 -2       363       510       511      2346      2350      2348
 -1       868    8    0    1
 -2       365       364       512      1903      2351      2352
 -1       869    8    0    1
 -2       364       511       512      2349      2353      2351
 -1       870    8    0    1
 -2       366       365       513      1906      2354      2355
 -1       871    8    0    1
 -2       365       512       513      2352      2356      2354
 -1       872    8    0    1
 -2       367       366       514      1909      2357      2358
 -1       873    8    0    1
 -2       366       513       514      2355      2359      2357
 -1       874    8    0    1
 -2       368       367       515      1912      2360      2361
 -1       875    8    0    1
 -2       367       514       515      2358      2362      2360
 -1       876    8    0    1
 -2       369       368       516      1915      2363      2364
 -1       877    8    0    1
 -2       368       515       516      2361      2365      2363
 -1       878    8    0    1
 -2       370       369       517      1918      2366      2367
 -1       879    8    0    1
 -2       369       516       517      2364      2368      2366
 -1       880    8    0    1
 -2       371       370       518      1921      2369      2370
 -1       881    8    0    1
 -2       370       517       518      2367      2371      2369
 -1       882    8    0    1
 -2       372       371       519      1924      2372      2373
 -1       883    8    0    1
 -2       371       518       519      2370      2374      2372
 -1       884    8    0    1
 -2       373       372       520      1927      2375      2376
 -1       885    8    0    1
 -2       372       519       520      2373      2377      2375
 -1       886    8    0    1
 -2       374       373       521      1930      2378      2379
 -1       887    8    0    1
 -2       373       520       521      2376      2380      2378
 -1       888    8    0    1
 -2       375       374       522      1933      2381      2382
 -1       889    8    0    1
 -2       374       521       522      2379      2383      2381
 -1       890    8    0    1
 -2       376       375       523      1936      2384      2385
 -1       891    8    0    1
 -2       375       522       523      2382      2386      2384
 -1       892    8    0    1
 -2       377       376       524      1939      2387      2388
 -1       893    8    0    1
 -2       376       523       524      2385      2389      2387
 -1       894    8    0    1
 -2       378       377       525      1942      2390      2391
 -1       895    8    0    1
 -2       377       524       525      2388      2392      2390
 -1       896    8    0    1
 -2       379       378       526      1945      2393      2394
 -1       897    8    0    1
 -2       439       379       526      2236      2394      2395
 -1       898    8    0    1
 -2       378       525       526      2391      2396      2393
 -1       899    8    0    1
 -2       382       383       527      1956      2397      2398
 -1       900    8    0    1
 -2       380       382       528      1953      2399      2400
 -1       901    8    0    1
 -2       499       380       528      2313      2400      2401
 -1       902    8    0    1
 -2       382       527       528      2398      2402      2399
 -1       903    8    0    1
 -2       384       385       529      1962      2403      2404
 -1       904    8    0    1
 -2       385       386       530      1965      2405      2406
 -1       905    8    0    1
 -2       385       530       529      2406      2407      2403
 -1       906    8    0    1
 -2       386       387       531      1968      2408      2409
 -1       907    8    0    1
 -2       386       531       530      2409      2410      2405
 -1       908    8    0    1
 -2       387       388       532      1971      2411      2412
 -1       909    8    0    1
 -2       387       532       531      2412      2413      2408
 -1       910    8    0    1
 -2       388       389       533      1974      2414      2415
 -1       911    8    0    1
 -2       388       533       532      2415      2416      2411
 -1       912    8    0    1
 -2       389       390       534      1977      2417      2418
 -1       913    8    0    1
 -2       389       534       533      2418      2419      2414
 -1       914    8    0    1
 -2       390       391       535      1980      2420      2421
 -1       915    8    0    1
 -2       390       535       534      2421      2422      2417
 -1       916    8    0    1
 -2       391       392       536      1983      2423      2424
 -1       917    8    0    1
 -2       391       536       535      2424      2425      2420
 -1       918    8    0    1
 -2       392       393       537      1986      2426      2427
 -1       919    8    0    1
 -2       392       537       536      2427      2428      2423
 -1       920    8    0    1
 -2       393       394       538      1989      2429      2430
 -1       921    8    0    1
 -2       393       538       537      2430      2431      2426
 -1       922    8    0    1
 -2       394       395       539      1992      2432      2433
 -1       923    8    0    1
 -2       394       539       538      2433      2434      2429
 -1       924    8    0    1
 -2       395       396       540      1995      2435      2436
 -1       925    8    0    1
 -2       395       540       539      2436      2437      2432
 -1       926    8    0    1
 -2       396       397       541      1998      2438      2439
 -1       927    8    0    1
 -2       396       541       540      2439      2440      2435
 -1       928    8    0    1
 -2       397       398       542      2001      2441      2442
 -1       929    8    0    1
 -2       397       542       541      2442      2443      2438
 -1       930    8    0    1
 -2       398       399       543      2004      2444      2445
 -1       931    8    0    1
 -2       398       543       542      2445      2446      2441
 -1       932    8    0    1
 -2       399       400       544      2007      2447      2448
 -1       933    8    0    1
 -2       399       544       543      2448      2449      2444
 -1       934    8    0    1
 -2       400       401       545      2010      2450      2451
 -1       935    8    0    1
 -2       400       545       544      2451      2452      2447
 -1       936    8    0    1
 -2       401       402       546      2013      2453      2454
 -1       937    8    0    1
 -2       401       546       545      2454      2455      2450
 -1       938    8    0    1
 -2       402       403       547      2016      2456      2457
 -1       939    8    0    1
 -2       402       547       546      2457      2458      2453
 -1       940    8    0    1
 -2       403       404       548      2019      2459      2460
 -1       941    8    0    1
 -2       403       548       547      2460      2461      2456
 -1       942    8    0    1
 -2       404       405       549      2022      2462      2463
 -1       943    8    0    1
 -2       404       549       548      2463      2464      2459
 -1       944    8    0    1
 -2       405       406       550      2025      2465      2466
 -1       945    8    0    1
 -2       405       550       549      2466      2467      2462
 -1       946    8    0    1
 -2       406       407       551      2028      2468      2469
 -1       947    8    0    1
 -2       406       551       550      2469      2470      2465
 -1       948    8    0    1
 -2       407       408       552      2031      2471      2472
 -1       949    8    0    1
 -2       407       552       551      2472      2473      2468
 -1       950    8    0    1
 -2       408       409       553      2034      2474      2475
 -1       951    8    0    1
 -2       408       553       552      2475      2476      2471
 -1       952    8    0    1
 -2       409       410       554      2037      2477      2478
 -1       953    8    0    1
 -2       409       554       553      2478      2479      2474
 -1       954    8    0    1
 -2       410       411       555      2040      2480      2481
 -1       955    8    0    1
 -2       410       555       554      2481      2482      2477
 -1       956    8    0    1
 -2       411       412       556      2043      2483      2484
 -1       957    8    0    1
 -2       411       556       555      2484      2485      2480
 -1       958    8    0    1
 -2       412       413       557      2046      2486      2487
 -1       959    8    0    1
 -2       412       557       556      2487      2488      2483
 -1       960    8    0    1
 -2       413       414       558      2049      2489      2490
 -1       961    8    0    1
 -2       413       558       557      2490      2491      2486
 -1       962    8    0    1
 -2       414       415       559      2052      2492      2493
 -1       963    8    0    1
 -2       414       559       558      2493      2494      2489
 -1       964    8    0    1
 -2       415       416       560      2055      2495      2496
 -1       965    8    0    1
 -2       415       560       559      2496      2497      2492
 -1       966    8    0    1
 -2       416       417       561      2058      2498      2499
 -1       967    8    0    1
 -2       416       561       560      2499      2500      2495
 -1       968    8    0    1
 -2       417       418       562      2061      2501      2502
 -1       969    8    0    1
 -2       417       562       561      2502      2503      2498
 -1       970    8    0    1
 -2       418       419       563      2064      2504      2505
 -1       971    8    0    1
 -2       418       563       562      2505      2506      2501
 -1       972    8    0    1
 -2       419       420       564      2067      2507      2508
 -1       973    8    0    1
 -2       419       564       563      2508      2509      2504
 -1       974    8    0    1
 -2       420       421       565      2070      2510      2511
 -1       975    8    0    1
 -2       420       565       564      2511      2512      2507
 -1       976    8    0    1
 -2       421       422       566      2073      2513      2514
 -1       977    8    0    1
 -2       421       566       565      2514      2515      2510
 -1       978    8    0    1
 -2       422       423       567      2076      2516      2517
 -1       979    8    0    1
 -2       422       567       566      2517      2518      2513
 -1       980    8    0    1
 -2       423       424       568      2079      2519      2520
 -1       981    8    0    1
 -2       423       568       567      2520      2521      2516
 -1       982    8    0    1
 -2       424       425       569      2082      2522      2523
 -1       983    8    0    1
 -2       424       569       568      2523      2524      2519
 -1       984    8    0    1
 -2       425       426       429      2085      2094      2525
 -1       985    8    0    1
 -2       430       431       570      2101      2526      2527
 -1       986    8    0    1
 -2       431       432       571      2104      2528      2529
 -1       987    8    0    1
 -2       431       571       570      2529      2530      2526
 -1       988    8    0    1
 -2       428       427       572      2091      2531      2532
 -1       989    8    0    1
 -2       427       430       573      2098      2533      2534
 -1       990    8    0    1
 -2       572       427       573      2531      2534      2535
 -1       991    8    0    1
 -2       430       570       573      2527      2536      2533
 -1       992    8    0    1
 -2       432       433       574      2107      2537      2538
 -1       993    8    0    1
 -2       432       574       571      2538      2539      2528
 -1       994    8    0    1
 -2       433       434       575      2110      2540      2541
 -1       995    8    0    1
 -2       433       575       574      2541      2542      2537
 -1       996    8    0    1
 -2       434       435       576      2113      2543      2544
 -1       997    8    0    1
 -2       434       576       575      2544      2545      2540
 -1       998    8    0    1
 -2       435       436       577      2116      2546      2547
 -1       999    8    0    1
 -2       435       577       576      2547      2548      2543
 -1      1000    8    0    1
 -2       436       437       578      2119      2549      2550
 -1      1001    8    0    1
 -2       436       578       577      2550      2551      2546
 -1      1002    8    0    1
 -2       437       438       579      2122      2552      2553
 -1      1003    8    0    1
 -2       437       579       578      2553      2554      2549
 -1      1004    8    0    1
 -2       438       439       580      2125      2555      2556
 -1      1005    8    0    1
 -2       579       438       580      2552      2556      2557
 -1      1006    8    0    1
 -2       439       526       580      2395      2558      2555
 -1      1007    8    0    1
 -2       381       440       581      2128      2559      2560
 -1      1008    8    0    1
 -2       196       468       458      2203      2561      2235
 -1      1009    8    0    1
 -2       337       323       582      2201      2562      2563
 -1      1010    8    0    1
 -2       482       337       582      2266      2563      2564
 -1      1011    8    0    1
 -2       323       322       582      1779      2565      2562
 -1      1012    8    0    1
 -2       350       316       463      2182      2185      2566
 -1      1013    8    0    1
 -2       462       315       350      2180      2183      2308
 -1      1014    8    0    1
 -2       383       384       583      1959      2567      2568
 -1      1015    8    0    1
 -2       527       383       583      2397      2568      2569
 -1      1016    8    0    1
 -2       384       529       583      2404      2570      2567
 -1      1017    8    0    1
 -2       326       327       584      1790      2571      2572
 -1      1018    8    0    1
 -2       472       326       584      2237      2572      2573
 -1      1019    8    0    1
 -2       327       474       584      2243      2574      2571
 -1      1020    8    0    1
 -2       443       444       585      2141      2575      2576
 -1      1021    8    0    1
 -2       448       449       586      2233      2577      2578
 -1      1022    8    0    1
 -2       446       447       587      2148      2579      2580
 -1      1023    8    0    1
 -2       447       497       587      2310      2581      2579
 -1      1024    8    0    1
 -2       455       456       588      2234      2582      2583
 -1      1025    8    0    1
 -2       449       450       589      2155      2584      2585
 -1      1026    8    0    1
 -2       450       451       590      2228      2586      2587
 -1      1027    8    0    1
 -2       451       452       591      2160      2588      2589
 -1      1028    8    0    1
 -2       453       454       592      2165      2590      2591
 -1      1029    8    0    1
 -2       457       458       468      2220      2561      2592
 -1      1030    8    0    1
 -2       444       445       593      2229      2593      2594
 -1      1031    8    0    1
 -2       464       465       594      2215      2595      2596
 -1      1032    8    0    1
 -2       441       467       595      2212      2597      2598
 -1      1033    8    0    1
 -2       441       595       498      2598      2599      2311
 -1      1034    8    0    1
 -2       457       468       349      2592      2196      2600
 -1      1035    8    0    1
 -2       324       473       596      2240      2601      2602
 -1      1036    8    0    1
 -2       324       596       442      2602      2603      2136
 -1      1037    8    0    1
 -2       592       454       469      2590      2223      2604
 -1      1038    8    0    1
 -2       381       581       485      2560      2605      2272
 -1      1039    8    0    1
 -2       483       443       585      2268      2576      2606
 -1      1040    8    0    1
 -2       440       483       581      2269      2607      2559
 -1      1041    8    0    1
 -2       351       350       463      2198      2566      2608
 -1      1042    8    0    1
 -2       465       484       594      2271      2609      2595
 -1      1043    8    0    1
 -2       467       485       595      2273      2610      2597
 -1      1044    8    0    1
 -2       455       588       597      2583      2611      2612
 -1      1045    8    0    1
 -2       455       597       469      2612      2613      2224
 -1      1046    8    0    1
 -2       457       349       598      2600      2614      2615
 -1      1047    8    0    1
 -2       466       498       484      2312      2616      2270
 -1      1048    8    0    1
 -2       500       352       594      2316      2617      2618
 -1      1049    8    0    1
 -2       425       429       569      2525      2619      2522
 -1      1050    8    0    1
 -2       429       428       569      2095      2620      2619
 -1      1051    8    0    1
 -2       569       428       572      2620      2532      2621
 -1      1052    8    0    1
 -2       351       463       464      2608      2216      2622
 -1      1053    8    0    1
 -2       444       593       585      2594      2623      2575
 -1      1054    8    0    1
 -2       322       442       599      2135      2624      2625
 -1      1055    8    0    1
 -2       582       322       599      2565      2625      2626
 -1      1056    8    0    1
 -2       442       596       599      2603      2627      2624
 -1      1057    8    0    1
 -2       591       452       470      2588      2226      2628
 -1      1058    8    0    1
 -2       589       450       590      2584      2587      2629
 -1      1059    8    0    1
 -2       470       453       592      2227      2591      2630
 -1      1060    8    0    1
 -2       586       449       589      2577      2585      2631
 -1      1061    8    0    1
 -2       471       446       600      2232      2632      2633
 -1      1062    8    0    1
 -2       446       587       600      2580      2634      2632
 -1      1063    8    0    1
 -2       445       471       593      2231      2635      2593
 -1      1064    8    0    1
 -2       448       586       497      2578      2636      2309
 -1      1065    8    0    1
 -2       588       456       598      2582      2637      2638
 -1      1066    8    0    1
 -2       451       591       590      2589      2639      2586
 -1      1067    8    0    1
 -2       456       457       598      2221      2615      2637
 -1      1068    8    0    1
 -2       591       470       601      2628      2640      2641
 -1      1069    8    0    1
 -2       475       476       602      2249      2642      2643
 -1      1070    8    0    1
 -2       474       475       603      2246      2644      2645
 -1      1071    8    0    1
 -2       475       602       603      2643      2646      2644
 -1      1072    8    0    1
 -2       477       478       604      2255      2647      2648
 -1      1073    8    0    1
 -2       478       479       605      2258      2649      2650
 -1      1074    8    0    1
 -2       478       605       604      2650      2651      2647
 -1      1075    8    0    1
 -2       479       480       606      2261      2652      2653
 -1      1076    8    0    1
 -2       479       606       605      2653      2654      2649
 -1      1077    8    0    1
 -2       480       481       607      2264      2655      2656
 -1      1078    8    0    1
 -2       606       480       607      2652      2656      2657
 -1      1079    8    0    1
 -2       481       499       607      2315      2658      2655
 -1      1080    8    0    1
 -2       349       496       598      2305      2659      2614
 -1      1081    8    0    1
 -2       487       486       608      2279      2660      2661
 -1      1082    8    0    1
 -2       488       487       609      2282      2662      2663
 -1      1083    8    0    1
 -2       487       608       609      2661      2664      2662
 -1      1084    8    0    1
 -2       489       488       610      2285      2665      2666
 -1      1085    8    0    1
 -2       488       609       610      2663      2667      2665
 -1      1086    8    0    1
 -2       490       489       611      2288      2668      2669
 -1      1087    8    0    1
 -2       489       610       611      2666      2670      2668
 -1      1088    8    0    1
 -2       491       490       612      2291      2671      2672
 -1      1089    8    0    1
 -2       490       611       612      2669      2673      2671
 -1      1090    8    0    1
 -2       492       491       613      2294      2674      2675
 -1      1091    8    0    1
 -2       491       612       613      2672      2676      2674
 -1      1092    8    0    1
 -2       493       492       614      2297      2677      2678
 -1      1093    8    0    1
 -2       492       613       614      2675      2679      2677
 -1      1094    8    0    1
 -2       494       493       615      2300      2680      2681
 -1      1095    8    0    1
 -2       493       614       615      2678      2682      2680
 -1      1096    8    0    1
 -2       495       494       616      2303      2683      2684
 -1      1097    8    0    1
 -2       494       615       616      2681      2685      2683
 -1      1098    8    0    1
 -2       530       531       617      2410      2686      2687
 -1      1099    8    0    1
 -2       473       472       618      2241      2688      2689
 -1      1100    8    0    1
 -2       486       482       619      2276      2690      2691
 -1      1101    8    0    1
 -2       486       619       608      2691      2692      2660
 -1      1102    8    0    1
 -2       484       498       620      2616      2693      2694
 -1      1103    8    0    1
 -2       598       496       588      2659      2695      2638
 -1      1104    8    0    1
 -2       569       572       621      2621      2696      2697
 -1      1105    8    0    1
 -2       569       621       568      2697      2698      2524
 -1      1106    8    0    1
 -2       502       501       622      2323      2699      2700
 -1      1107    8    0    1
 -2       503       502       623      2326      2701      2702
 -1      1108    8    0    1
 -2       502       622       623      2700      2703      2701
 -1      1109    8    0    1
 -2       504       503       624      2329      2704      2705
 -1      1110    8    0    1
 -2       503       623       624      2702      2706      2704
 -1      1111    8    0    1
 -2       505       504       625      2332      2707      2708
 -1      1112    8    0    1
 -2       504       624       625      2705      2709      2707
 -1      1113    8    0    1
 -2       506       505       626      2335      2710      2711
 -1      1114    8    0    1
 -2       505       625       626      2708      2712      2710
 -1      1115    8    0    1
 -2       507       506       627      2338      2713      2714
 -1      1116    8    0    1
 -2       506       626       627      2711      2715      2713
 -1      1117    8    0    1
 -2       508       507       628      2341      2716      2717
 -1      1118    8    0    1
 -2       507       627       628      2714      2718      2716
 -1      1119    8    0    1
 -2       509       508       629      2344      2719      2720
 -1      1120    8    0    1
 -2       508       628       629      2717      2721      2719
 -1      1121    8    0    1
 -2       510       509       630      2347      2722      2723
 -1      1122    8    0    1
 -2       509       629       630      2720      2724      2722
 -1      1123    8    0    1
 -2       511       510       631      2350      2725      2726
 -1      1124    8    0    1
 -2       510       630       631      2723      2727      2725
 -1      1125    8    0    1
 -2       512       511       632      2353      2728      2729
 -1      1126    8    0    1
 -2       511       631       632      2726      2730      2728
 -1      1127    8    0    1
 -2       513       512       633      2356      2731      2732
 -1      1128    8    0    1
 -2       512       632       633      2729      2733      2731
 -1      1129    8    0    1
 -2       514       513       634      2359      2734      2735
 -1      1130    8    0    1
 -2       513       633       634      2732      2736      2734
 -1      1131    8    0    1
 -2       515       514       635      2362      2737      2738
 -1      1132    8    0    1
 -2       514       634       635      2735      2739      2737
 -1      1133    8    0    1
 -2       516       515       636      2365      2740      2741
 -1      1134    8    0    1
 -2       515       635       636      2738      2742      2740
 -1      1135    8    0    1
 -2       517       516       637      2368      2743      2744
 -1      1136    8    0    1
 -2       516       636       637      2741      2745      2743
 -1      1137    8    0    1
 -2       518       517       638      2371      2746      2747
 -1      1138    8    0    1
 -2       517       637       638      2744      2748      2746
 -1      1139    8    0    1
 -2       519       518       639      2374      2749      2750
 -1      1140    8    0    1
 -2       518       638       639      2747      2751      2749
 -1      1141    8    0    1
 -2       520       519       640      2377      2752      2753
 -1      1142    8    0    1
 -2       519       639       640      2750      2754      2752
 -1      1143    8    0    1
 -2       521       520       641      2380      2755      2756
 -1      1144    8    0    1
 -2       520       640       641      2753      2757      2755
 -1      1145    8    0    1
 -2       522       521       642      2383      2758      2759
 -1      1146    8    0    1
 -2       521       641       642      2756      2760      2758
 -1      1147    8    0    1
 -2       523       522       643      2386      2761      2762
 -1      1148    8    0    1
 -2       522       642       643      2759      2763      2761
 -1      1149    8    0    1
 -2       524       523       644      2389      2764      2765
 -1      1150    8    0    1
 -2       523       643       644      2762      2766      2764
 -1      1151    8    0    1
 -2       525       524       645      2392      2767      2768
 -1      1152    8    0    1
 -2       524       644       645      2765      2769      2767
 -1      1153    8    0    1
 -2       526       525       646      2396      2770      2771
 -1      1154    8    0    1
 -2       580       526       646      2558      2771      2772
 -1      1155    8    0    1
 -2       525       645       646      2768      2773      2770
 -1      1156    8    0    1
 -2       531       532       647      2413      2774      2775
 -1      1157    8    0    1
 -2       531       647       617      2775      2776      2686
 -1      1158    8    0    1
 -2       529       530       648      2407      2777      2778
 -1      1159    8    0    1
 -2       530       617       648      2687      2779      2777
 -1      1160    8    0    1
 -2       532       533       649      2416      2780      2781
 -1      1161    8    0    1
 -2       532       649       647      2781      2782      2774
 -1      1162    8    0    1
 -2       533       534       650      2419      2783      2784
 -1      1163    8    0    1
 -2       533       650       649      2784      2785      2780
 -1      1164    8    0    1
 -2       534       535       651      2422      2786      2787
 -1      1165    8    0    1
 -2       534       651       650      2787      2788      2783
 -1      1166    8    0    1
 -2       535       536       652      2425      2789      2790
 -1      1167    8    0    1
 -2       535       652       651      2790      2791      2786
 -1      1168    8    0    1
 -2       536       537       653      2428      2792      2793
 -1      1169    8    0    1
 -2       536       653       652      2793      2794      2789
 -1      1170    8    0    1
 -2       537       538       654      2431      2795      2796
 -1      1171    8    0    1
 -2       537       654       653      2796      2797      2792
 -1      1172    8    0    1
 -2       538       539       655      2434      2798      2799
 -1      1173    8    0    1
 -2       538       655       654      2799      2800      2795
 -1      1174    8    0    1
 -2       539       540       656      2437      2801      2802
 -1      1175    8    0    1
 -2       539       656       655      2802      2803      2798
 -1      1176    8    0    1
 -2       540       541       657      2440      2804      2805
 -1      1177    8    0    1
 -2       540       657       656      2805      2806      2801
 -1      1178    8    0    1
 -2       541       542       658      2443      2807      2808
 -1      1179    8    0    1
 -2       541       658       657      2808      2809      2804
 -1      1180    8    0    1
 -2       542       543       659      2446      2810      2811
 -1      1181    8    0    1
 -2       542       659       658      2811      2812      2807
 -1      1182    8    0    1
 -2       543       544       660      2449      2813      2814
 -1      1183    8    0    1
 -2       543       660       659      2814      2815      2810
 -1      1184    8    0    1
 -2       544       545       661      2452      2816      2817
 -1      1185    8    0    1
 -2       544       661       660      2817      2818      2813
 -1      1186    8    0    1
 -2       545       546       662      2455      2819      2820
 -1      1187    8    0    1
 -2       545       662       661      2820      2821      2816
 -1      1188    8    0    1
 -2       546       547       663      2458      2822      2823
 -1      1189    8    0    1
 -2       546       663       662      2823      2824      2819
 -1      1190    8    0    1
 -2       547       548       664      2461      2825      2826
 -1      1191    8    0    1
 -2       547       664       663      2826      2827      2822
 -1      1192    8    0    1
 -2       548       549       665      2464      2828      2829
 -1      1193    8    0    1
 -2       548       665       664      2829      2830      2825
 -1      1194    8    0    1
 -2       549       550       666      2467      2831      2832
 -1      1195    8    0    1
 -2       549       666       665      2832      2833      2828
 -1      1196    8    0    1
 -2       550       551       667      2470      2834      2835
 -1      1197    8    0    1
 -2       550       667       666      2835      2836      2831
 -1      1198    8    0    1
 -2       551       552       668      2473      2837      2838
 -1      1199    8    0    1
 -2       551       668       667      2838      2839      2834
 -1      1200    8    0    1
 -2       552       553       669      2476      2840      2841
 -1      1201    8    0    1
 -2       552       669       668      2841      2842      2837
 -1      1202    8    0    1
 -2       553       554       670      2479      2843      2844
 -1      1203    8    0    1
 -2       553       670       669      2844      2845      2840
 -1      1204    8    0    1
 -2       554       555       671      2482      2846      2847
 -1      1205    8    0    1
 -2       554       671       670      2847      2848      2843
 -1      1206    8    0    1
 -2       555       556       672      2485      2849      2850
 -1      1207    8    0    1
 -2       555       672       671      2850      2851      2846
 -1      1208    8    0    1
 -2       556       557       673      2488      2852      2853
 -1      1209    8    0    1
 -2       556       673       672      2853      2854      2849
 -1      1210    8    0    1
 -2       557       558       674      2491      2855      2856
 -1      1211    8    0    1
 -2       557       674       673      2856      2857      2852
 -1      1212    8    0    1
 -2       558       559       675      2494      2858      2859
 -1      1213    8    0    1
 -2       558       675       674      2859      2860      2855
 -1      1214    8    0    1
 -2       559       560       676      2497      2861      2862
 -1      1215    8    0    1
 -2       559       676       675      2862      2863      2858
 -1      1216    8    0    1
 -2       560       561       677      2500      2864      2865
 -1      1217    8    0    1
 -2       560       677       676      2865      2866      2861
 -1      1218    8    0    1
 -2       561       562       678      2503      2867      2868
 -1      1219    8    0    1
 -2       561       678       677      2868      2869      2864
 -1      1220    8    0    1
 -2       562       563       679      2506      2870      2871
 -1      1221    8    0    1
 -2       562       679       678      2871      2872      2867
 -1      1222    8    0    1
 -2       563       564       680      2509      2873      2874
 -1      1223    8    0    1
 -2       563       680       679      2874      2875      2870
 -1      1224    8    0    1
 -2       564       565       681      2512      2876      2877
 -1      1225    8    0    1
 -2       564       681       680      2877      2878      2873
 -1      1226    8    0    1
 -2       565       566       682      2515      2879      2880
 -1      1227    8    0    1
 -2       565       682       681      2880      2881      2876
 -1      1228    8    0    1
 -2       566       567       683      2518      2882      2883
 -1      1229    8    0    1
 -2       566       683       682      2883      2884      2879
 -1      1230    8    0    1
 -2       567       568       684      2521      2885      2886
 -1      1231    8    0    1
 -2       683       567       684      2882      2886      2887
 -1      1232    8    0    1
 -2       568       621       684      2698      2888      2885
 -1      1233    8    0    1
 -2       574       575       685      2542      2889      2890
 -1      1234    8    0    1
 -2       351       464       686      2622      2891      2892
 -1      1235    8    0    1
 -2       570       571       687      2530      2893      2894
 -1      1236    8    0    1
 -2       575       576       688      2545      2895      2896
 -1      1237    8    0    1
 -2       575       688       685      2896      2897      2889
 -1      1238    8    0    1
 -2       571       574       689      2539      2898      2899
 -1      1239    8    0    1
 -2       687       571       689      2893      2899      2900
 -1      1240    8    0    1
 -2       574       685       689      2890      2901      2898
 -1      1241    8    0    1
 -2       576       577       690      2548      2902      2903
 -1      1242    8    0    1
 -2       576       690       688      2903      2904      2895
 -1      1243    8    0    1
 -2       577       578       691      2551      2905      2906
 -1      1244    8    0    1
 -2       577       691       690      2906      2907      2902
 -1      1245    8    0    1
 -2       578       579       692      2554      2908      2909
 -1      1246    8    0    1
 -2       578       692       691      2909      2910      2905
 -1      1247    8    0    1
 -2       581       483       693      2607      2911      2912
 -1      1248    8    0    1
 -2       592       469       694      2604      2913      2914
 -1      1249    8    0    1
 -2       595       485       695      2610      2915      2916
 -1      1250    8    0    1
 -2       587       497       696      2581      2917      2918
 -1      1251    8    0    1
 -2       594       484       697      2609      2919      2920
 -1      1252    8    0    1
 -2       500       594       697      2618      2920      2921
 -1      1253    8    0    1
 -2       484       620       697      2694      2922      2919
 -1      1254    8    0    1
 -2       501       500       697      2320      2921      2923
 -1      1255    8    0    1
 -2       483       585       698      2606      2924      2925
 -1      1256    8    0    1
 -2       483       698       693      2925      2926      2911
 -1      1257    8    0    1
 -2       593       471       699      2635      2927      2928
 -1      1258    8    0    1
 -2       590       591       700      2639      2929      2930
 -1      1259    8    0    1
 -2       470       592       701      2630      2931      2932
 -1      1260    8    0    1
 -2       470       701       601      2932      2933      2640
 -1      1261    8    0    1
 -2       586       589       702      2631      2934      2935
 -1      1262    8    0    1
 -2       589       590       703      2629      2936      2937
 -1      1263    8    0    1
 -2       476       477       704      2252      2938      2939
 -1      1264    8    0    1
 -2       602       476       704      2642      2939      2940
 -1      1265    8    0    1
 -2       477       604       704      2648      2941      2938
 -1      1266    8    0    1
 -2       482       582       705      2564      2942      2943
 -1      1267    8    0    1
 -2       619       482       705      2690      2943      2944
 -1      1268    8    0    1
 -2       582       599       705      2626      2945      2942
 -1      1269    8    0    1
 -2       485       581       706      2605      2946      2947
 -1      1270    8    0    1
 -2       497       586       707      2636      2948      2949
 -1      1271    8    0    1
 -2       585       593       708      2623      2950      2951
 -1      1272    8    0    1
 -2       498       595       709      2599      2952      2953
 -1      1273    8    0    1
 -2       588       496       597      2695      2954      2611
 -1      1274    8    0    1
 -2       474       603       710      2645      2955      2956
 -1      1275    8    0    1
 -2       474       710       584      2956      2957      2574
 -1      1276    8    0    1
 -2       501       697       622      2923      2958      2699
 -1      1277    8    0    1
 -2       529       648       711      2778      2959      2960
 -1      1278    8    0    1
 -2       529       711       583      2960      2961      2570
 -1      1279    8    0    1
 -2       496       495       597      2306      2962      2954
 -1      1280    8    0    1
 -2       495       616       694      2684      2963      2964
 -1      1281    8    0    1
 -2       473       618       712      2689      2965      2966
 -1      1282    8    0    1
 -2       473       712       596      2966      2967      2601
 -1      1283    8    0    1
 -2       620       498       709      2693      2953      2968
 -1      1284    8    0    1
 -2       621       572       573      2696      2535      2969
 -1      1285    8    0    1
 -2       472       584       713      2573      2970      2971
 -1      1286    8    0    1
 -2       618       472       713      2688      2971      2972
 -1      1287    8    0    1
 -2       584       710       713      2957      2973      2970
 -1      1288    8    0    1
 -2       528       527       714      2402      2974      2975
 -1      1289    8    0    1
 -2       709       595       695      2952      2916      2976
 -1      1290    8    0    1
 -2       570       687       715      2894      2977      2978
 -1      1291    8    0    1
 -2       570       715       573      2978      2979      2536
 -1      1292    8    0    1
 -2       694       469       597      2913      2613      2980
 -1      1293    8    0    1
 -2       581       693       706      2912      2981      2946
 -1      1294    8    0    1
 -2       593       699       716      2928      2982      2983
 -1      1295    8    0    1
 -2       593       716       708      2983      2984      2950
 -1      1296    8    0    1
 -2       579       580       717      2557      2985      2986
 -1      1297    8    0    1
 -2       692       579       717      2908      2986      2987
 -1      1298    8    0    1
 -2       580       646       717      2772      2988      2985
 -1      1299    8    0    1
 -2       592       694       718      2914      2989      2990
 -1      1300    8    0    1
 -2       592       718       701      2990      2991      2931
 -1      1301    8    0    1
 -2       485       706       695      2947      2992      2915
 -1      1302    8    0    1
 -2       703       590       700      2936      2930      2993
 -1      1303    8    0    1
 -2       587       696       719      2918      2994      2995
 -1      1304    8    0    1
 -2       587       719       600      2995      2996      2634
 -1      1305    8    0    1
 -2       696       497       707      2917      2949      2997
 -1      1306    8    0    1
 -2       586       702       707      2935      2998      2948
 -1      1307    8    0    1
 -2       698       585       708      2924      2951      2999
 -1      1308    8    0    1
 -2       591       601       720      2641      3000      3001
 -1      1309    8    0    1
 -2       591       720       700      3001      3002      2929
 -1      1310    8    0    1
 -2       699       471       600      2927      2633      3003
 -1      1311    8    0    1
 -2       702       589       703      2934      2937      3004
 -1      1312    8    0    1
 -2       597       495       694      2962      2964      2980
 -1      1313    8    0    1
 -2       527       583       721      2569      3005      3006
 -1      1314    8    0    1
 -2       583       711       721      2961      3007      3005
 -1      1315    8    0    1
 -2       714       527       721      2974      3006      3008
 -1      1316    8    0    1
 -2       605       606       722      2654      3009      3010
 -1      1317    8    0    1
 -2       604       605       723      2651      3011      3012
 -1      1318    8    0    1
 -2       605       722       723      3010      3013      3011
 -1      1319    8    0    1
 -2       609       608       724      2664      3014      3015
 -1      1320    8    0    1
 -2       607       499       528      2658      2401      3016
 -1      1321    8    0    1
 -2       528       714       607      2975      3017      3016
 -1      1322    8    0    1
 -2       647       649       725      2782      3018      3019
 -1      1323    8    0    1
 -2       610       609       726      2667      3020      3021
 -1      1324    8    0    1
 -2       609       724       726      3015      3022      3020
 -1      1325    8    0    1
 -2       611       610       727      2670      3023      3024
 -1      1326    8    0    1
 -2       610       726       727      3021      3025      3023
 -1      1327    8    0    1
 -2       612       611       728      2673      3026      3027
 -1      1328    8    0    1
 -2       611       727       728      3024      3028      3026
 -1      1329    8    0    1
 -2       613       612       729      2676      3029      3030
 -1      1330    8    0    1
 -2       612       728       729      3027      3031      3029
 -1      1331    8    0    1
 -2       614       613       730      2679      3032      3033
 -1      1332    8    0    1
 -2       613       729       730      3030      3034      3032
 -1      1333    8    0    1
 -2       615       614       731      2682      3035      3036
 -1      1334    8    0    1
 -2       614       730       731      3033      3037      3035
 -1      1335    8    0    1
 -2       694       616       718      2963      3038      2989
 -1      1336    8    0    1
 -2       608       619       732      2692      3039      3040
 -1      1337    8    0    1
 -2       608       732       724      3040      3041      3014
 -1      1338    8    0    1
 -2       617       647       733      2776      3042      3043
 -1      1339    8    0    1
 -2       647       725       733      3019      3044      3042
 -1      1340    8    0    1
 -2       624       623       734      2706      3045      3046
 -1      1341    8    0    1
 -2       625       624       735      2709      3047      3048
 -1      1342    8    0    1
 -2       624       734       735      3046      3049      3047
 -1      1343    8    0    1
 -2       626       625       736      2712      3050      3051
 -1      1344    8    0    1
 -2       625       735       736      3048      3052      3050
 -1      1345    8    0    1
 -2       627       626       737      2715      3053      3054
 -1      1346    8    0    1
 -2       626       736       737      3051      3055      3053
 -1      1347    8    0    1
 -2       628       627       738      2718      3056      3057
 -1      1348    8    0    1
 -2       627       737       738      3054      3058      3056
 -1      1349    8    0    1
 -2       629       628       739      2721      3059      3060
 -1      1350    8    0    1
 -2       628       738       739      3057      3061      3059
 -1      1351    8    0    1
 -2       630       629       740      2724      3062      3063
 -1      1352    8    0    1
 -2       629       739       740      3060      3064      3062
 -1      1353    8    0    1
 -2       631       630       741      2727      3065      3066
 -1      1354    8    0    1
 -2       630       740       741      3063      3067      3065
 -1      1355    8    0    1
 -2       632       631       742      2730      3068      3069
 -1      1356    8    0    1
 -2       631       741       742      3066      3070      3068
 -1      1357    8    0    1
 -2       633       632       743      2733      3071      3072
 -1      1358    8    0    1
 -2       632       742       743      3069      3073      3071
 -1      1359    8    0    1
 -2       634       633       744      2736      3074      3075
 -1      1360    8    0    1
 -2       633       743       744      3072      3076      3074
 -1      1361    8    0    1
 -2       635       634       745      2739      3077      3078
 -1      1362    8    0    1
 -2       634       744       745      3075      3079      3077
 -1      1363    8    0    1
 -2       636       635       746      2742      3080      3081
 -1      1364    8    0    1
 -2       635       745       746      3078      3082      3080
 -1      1365    8    0    1
 -2       637       636       747      2745      3083      3084
 -1      1366    8    0    1
 -2       636       746       747      3081      3085      3083
 -1      1367    8    0    1
 -2       638       637       748      2748      3086      3087
 -1      1368    8    0    1
 -2       637       747       748      3084      3088      3086
 -1      1369    8    0    1
 -2       639       638       749      2751      3089      3090
 -1      1370    8    0    1
 -2       638       748       749      3087      3091      3089
 -1      1371    8    0    1
 -2       640       639       750      2754      3092      3093
 -1      1372    8    0    1
 -2       639       749       750      3090      3094      3092
 -1      1373    8    0    1
 -2       641       640       751      2757      3095      3096
 -1      1374    8    0    1
 -2       640       750       751      3093      3097      3095
 -1      1375    8    0    1
 -2       642       641       752      2760      3098      3099
 -1      1376    8    0    1
 -2       641       751       752      3096      3100      3098
 -1      1377    8    0    1
 -2       643       642       753      2763      3101      3102
 -1      1378    8    0    1
 -2       642       752       753      3099      3103      3101
 -1      1379    8    0    1
 -2       644       643       754      2766      3104      3105
 -1      1380    8    0    1
 -2       643       753       754      3102      3106      3104
 -1      1381    8    0    1
 -2       645       644       755      2769      3107      3108
 -1      1382    8    0    1
 -2       644       754       755      3105      3109      3107
 -1      1383    8    0    1
 -2       691       692       756      2910      3110      3111
 -1      1384    8    0    1
 -2       709       695       757      2976      3112      3113
 -1      1385    8    0    1
 -2       648       617       758      2779      3114      3115
 -1      1386    8    0    1
 -2       617       733       758      3043      3116      3114
 -1      1387    8    0    1
 -2       650       651       759      2788      3117      3118
 -1      1388    8    0    1
 -2       651       652       760      2791      3119      3120
 -1      1389    8    0    1
 -2       651       760       759      3120      3121      3117
 -1      1390    8    0    1
 -2       652       653       761      2794      3122      3123
 -1      1391    8    0    1
 -2       652       761       760      3123      3124      3119
 -1      1392    8    0    1
 -2       653       654       762      2797      3125      3126
 -1      1393    8    0    1
 -2       653       762       761      3126      3127      3122
 -1      1394    8    0    1
 -2       654       655       763      2800      3128      3129
 -1      1395    8    0    1
 -2       654       763       762      3129      3130      3125
 -1      1396    8    0    1
 -2       655       656       764      2803      3131      3132
 -1      1397    8    0    1
 -2       655       764       763      3132      3133      3128
 -1      1398    8    0    1
 -2       656       657       765      2806      3134      3135
 -1      1399    8    0    1
 -2       656       765       764      3135      3136      3131
 -1      1400    8    0    1
 -2       657       658       766      2809      3137      3138
 -1      1401    8    0    1
 -2       657       766       765      3138      3139      3134
 -1      1402    8    0    1
 -2       658       659       767      2812      3140      3141
 -1      1403    8    0    1
 -2       658       767       766      3141      3142      3137
 -1      1404    8    0    1
 -2       659       660       768      2815      3143      3144
 -1      1405    8    0    1
 -2       659       768       767      3144      3145      3140
 -1      1406    8    0    1
 -2       660       661       769      2818      3146      3147
 -1      1407    8    0    1
 -2       660       769       768      3147      3148      3143
 -1      1408    8    0    1
 -2       661       662       770      2821      3149      3150
 -1      1409    8    0    1
 -2       661       770       769      3150      3151      3146
 -1      1410    8    0    1
 -2       662       663       771      2824      3152      3153
 -1      1411    8    0    1
 -2       662       771       770      3153      3154      3149
 -1      1412    8    0    1
 -2       663       664       772      2827      3155      3156
 -1      1413    8    0    1
 -2       663       772       771      3156      3157      3152
 -1      1414    8    0    1
 -2       664       665       773      2830      3158      3159
 -1      1415    8    0    1
 -2       664       773       772      3159      3160      3155
 -1      1416    8    0    1
 -2       665       666       774      2833      3161      3162
 -1      1417    8    0    1
 -2       665       774       773      3162      3163      3158
 -1      1418    8    0    1
 -2       666       667       775      2836      3164      3165
 -1      1419    8    0    1
 -2       666       775       774      3165      3166      3161
 -1      1420    8    0    1
 -2       667       668       776      2839      3167      3168
 -1      1421    8    0    1
 -2       667       776       775      3168      3169      3164
 -1      1422    8    0    1
 -2       668       669       777      2842      3170      3171
 -1      1423    8    0    1
 -2       668       777       776      3171      3172      3167
 -1      1424    8    0    1
 -2       669       670       778      2845      3173      3174
 -1      1425    8    0    1
 -2       669       778       777      3174      3175      3170
 -1      1426    8    0    1
 -2       670       671       779      2848      3176      3177
 -1      1427    8    0    1
 -2       670       779       778      3177      3178      3173
 -1      1428    8    0    1
 -2       671       672       780      2851      3179      3180
 -1      1429    8    0    1
 -2       671       780       779      3180      3181      3176
 -1      1430    8    0    1
 -2       672       673       781      2854      3182      3183
 -1      1431    8    0    1
 -2       672       781       780      3183      3184      3179
 -1      1432    8    0    1
 -2       673       674       782      2857      3185      3186
 -1      1433    8    0    1
 -2       673       782       781      3186      3187      3182
 -1      1434    8    0    1
 -2       674       675       783      2860      3188      3189
 -1      1435    8    0    1
 -2       674       783       782      3189      3190      3185
 -1      1436    8    0    1
 -2       675       676       784      2863      3191      3192
 -1      1437    8    0    1
 -2       675       784       783      3192      3193      3188
 -1      1438    8    0    1
 -2       676       677       785      2866      3194      3195
 -1      1439    8    0    1
 -2       676       785       784      3195      3196      3191
 -1      1440    8    0    1
 -2       677       678       786      2869      3197      3198
 -1      1441    8    0    1
 -2       677       786       785      3198      3199      3194
 -1      1442    8    0    1
 -2       678       679       787      2872      3200      3201
 -1      1443    8    0    1
 -2       678       787       786      3201      3202      3197
 -1      1444    8    0    1
 -2       679       680       788      2875      3203      3204
 -1      1445    8    0    1
 -2       679       788       787      3204      3205      3200
 -1      1446    8    0    1
 -2       680       681       789      2878      3206      3207
 -1      1447    8    0    1
 -2       680       789       788      3207      3208      3203
 -1      1448    8    0    1
 -2       681       682       790      2881      3209      3210
 -1      1449    8    0    1
 -2       681       790       789      3210      3211      3206
 -1      1450    8    0    1
 -2       682       683       791      2884      3212      3213
 -1      1451    8    0    1
 -2       682       791       790      3213      3214      3209
 -1      1452    8    0    1
 -2       686       464       594      2891      2596      3215
 -1      1453    8    0    1
 -2       685       688       792      2897      3216      3217
 -1      1454    8    0    1
 -2       649       650       793      2785      3218      3219
 -1      1455    8    0    1
 -2       650       759       793      3118      3220      3218
 -1      1456    8    0    1
 -2       706       693       794      2981      3221      3222
 -1      1457    8    0    1
 -2       599       596       795      2627      3223      3224
 -1      1458    8    0    1
 -2       705       599       795      2945      3224      3225
 -1      1459    8    0    1
 -2       596       712       795      2967      3226      3223
 -1      1460    8    0    1
 -2       697       620       622      2922      3227      2958
 -1      1461    8    0    1
 -2       703       700       796      2993      3228      3229
 -1      1462    8    0    1
 -2       690       691       797      2907      3230      3231
 -1      1463    8    0    1
 -2       691       756       797      3111      3232      3230
 -1      1464    8    0    1
 -2       693       698       798      2926      3233      3234
 -1      1465    8    0    1
 -2       696       707       799      2997      3235      3236
 -1      1466    8    0    1
 -2       695       706       800      2992      3237      3238
 -1      1467    8    0    1
 -2       695       800       757      3238      3239      3112
 -1      1468    8    0    1
 -2       623       622       801      2703      3240      3241
 -1      1469    8    0    1
 -2       623       801       734      3241      3242      3045
 -1      1470    8    0    1
 -2       601       701       802      2933      3243      3244
 -1      1471    8    0    1
 -2       699       600       803      3003      3245      3246
 -1      1472    8    0    1
 -2       702       703       804      3004      3247      3248
 -1      1473    8    0    1
 -2       698       708       805      2999      3249      3250
 -1      1474    8    0    1
 -2       707       702       806      2998      3251      3252
 -1      1475    8    0    1
 -2       603       602       807      2646      3253      3254
 -1      1476    8    0    1
 -2       688       690       808      2904      3255      3256
 -1      1477    8    0    1
 -2       792       688       808      3216      3256      3257
 -1      1478    8    0    1
 -2       690       797       808      3231      3258      3255
 -1      1479    8    0    1
 -2       621       573       715      2969      2979      3259
 -1      1480    8    0    1
 -2       622       620       809      3227      3260      3261
 -1      1481    8    0    1
 -2       801       622       809      3240      3261      3262
 -1      1482    8    0    1
 -2       620       709       809      2968      3263      3260
 -1      1483    8    0    1
 -2       619       705       795      2944      3225      3264
 -1      1484    8    0    1
 -2       604       723       810      3012      3265      3266
 -1      1485    8    0    1
 -2       604       810       704      3266      3267      2941
 -1      1486    8    0    1
 -2       706       794       800      3222      3268      3237
 -1      1487    8    0    1
 -2       693       798       794      3234      3269      3221
 -1      1488    8    0    1
 -2       725       649       793      3018      3219      3270
 -1      1489    8    0    1
 -2       711       648       811      2959      3271      3272
 -1      1490    8    0    1
 -2       648       758       811      3115      3273      3271
 -1      1491    8    0    1
 -2       616       615       812      2685      3274      3275
 -1      1492    8    0    1
 -2       712       618       813      2965      3276      3277
 -1      1493    8    0    1
 -2       732       619       795      3039      3264      3278
 -1      1494    8    0    1
 -2       710       603       814      2955      3279      3280
 -1      1495    8    0    1
 -2       603       807       814      3254      3281      3279
 -1      1496    8    0    1
 -2       594       352       686      2617      3282      3215
 -1      1497    8    0    1
 -2       714       721       815      3008      3283      3284
 -1      1498    8    0    1
 -2       601       802       720      3244      3285      3000
 -1      1499    8    0    1
 -2       756       692       816      3110      3286      3287
 -1      1500    8    0    1
 -2       692       717       816      2987      3288      3286
 -1      1501    8    0    1
 -2       646       645       717      2773      3289      2988
 -1      1502    8    0    1
 -2       709       757       809      3113      3290      3263
 -1      1503    8    0    1
 -2       616       812       718      3275      3291      3038
 -1      1504    8    0    1
 -2       607       714       722      3017      3292      3293
 -1      1505    8    0    1
 -2       714       815       722      3284      3294      3292
 -1      1506    8    0    1
 -2       791       683       817      3212      3295      3296
 -1      1507    8    0    1
 -2       683       684       817      2887      3297      3295
 -1      1508    8    0    1
 -2       687       689       818      2900      3298      3299
 -1      1509    8    0    1
 -2       684       621       819      2888      3300      3301
 -1      1510    8    0    1
 -2       621       715       819      3259      3302      3300
 -1      1511    8    0    1
 -2       701       718       820      2991      3303      3304
 -1      1512    8    0    1
 -2       802       701       820      3243      3304      3305
 -1      1513    8    0    1
 -2       718       812       820      3291      3306      3303
 -1      1514    8    0    1
 -2       715       687       821      2977      3307      3308
 -1      1515    8    0    1
 -2       819       715       821      3302      3308      3309
 -1      1516    8    0    1
 -2       687       818       821      3299      3310      3307
 -1      1517    8    0    1
 -2       351       686       352      2892      3282      1864
 -1      1518    8    0    1
 -2       689       685       822      2901      3311      3312
 -1      1519    8    0    1
 -2       685       792       822      3217      3313      3311
 -1      1520    8    0    1
 -2       618       713       823      2972      3314      3315
 -1      1521    8    0    1
 -2       618       823       813      3315      3316      3276
 -1      1522    8    0    1
 -2       716       699       824      2982      3317      3318
 -1      1523    8    0    1
 -2       699       803       824      3246      3319      3317
 -1      1524    8    0    1
 -2       799       707       825      3235      3320      3321
 -1      1525    8    0    1
 -2       707       806       825      3252      3322      3320
 -1      1526    8    0    1
 -2       807       602       826      3253      3323      3324
 -1      1527    8    0    1
 -2       602       704       826      2940      3325      3323
 -1      1528    8    0    1
 -2       796       700       827      3228      3326      3327
 -1      1529    8    0    1
 -2       700       720       827      3002      3328      3326
 -1      1530    8    0    1
 -2       806       702       804      3251      3248      3329
 -1      1531    8    0    1
 -2       719       696       828      2994      3330      3331
 -1      1532    8    0    1
 -2       696       799       828      3236      3332      3330
 -1      1533    8    0    1
 -2       805       708       829      3249      3333      3334
 -1      1534    8    0    1
 -2       708       716       829      2984      3335      3333
 -1      1535    8    0    1
 -2       804       703       796      3247      3229      3336
 -1      1536    8    0    1
 -2       803       600       719      3245      2996      3337
 -1      1537    8    0    1
 -2       798       698       805      3233      3250      3338
 -1      1538    8    0    1
 -2       615       731       812      3036      3339      3274
 -1      1539    8    0    1
 -2       721       711       830      3007      3340      3341
 -1      1540    8    0    1
 -2       711       811       830      3272      3342      3340
 -1      1541    8    0    1
 -2       721       830       815      3341      3343      3283
 -1      1542    8    0    1
 -2       726       724       831      3022      3344      3345
 -1      1543    8    0    1
 -2       727       726       832      3025      3346      3347
 -1      1544    8    0    1
 -2       726       831       832      3345      3348      3346
 -1      1545    8    0    1
 -2       728       727       833      3028      3349      3350
 -1      1546    8    0    1
 -2       727       832       833      3347      3351      3349
 -1      1547    8    0    1
 -2       729       728       834      3031      3352      3353
 -1      1548    8    0    1
 -2       728       833       834      3350      3354      3352
 -1      1549    8    0    1
 -2       730       729       835      3034      3355      3356
 -1      1550    8    0    1
 -2       729       834       835      3353      3357      3355
 -1      1551    8    0    1
 -2       731       730       836      3037      3358      3359
 -1      1552    8    0    1
 -2       730       835       836      3356      3360      3358
 -1      1553    8    0    1
 -2       735       734       837      3049      3361      3362
 -1      1554    8    0    1
 -2       732       795       712      3278      3226      3363
 -1      1555    8    0    1
 -2       733       725       838      3044      3364      3365
 -1      1556    8    0    1
 -2       713       710       839      2973      3366      3367
 -1      1557    8    0    1
 -2       713       839       823      3367      3368      3314
 -1      1558    8    0    1
 -2       720       802       840      3285      3369      3370
 -1      1559    8    0    1
 -2       720       840       827      3370      3371      3328
 -1      1560    8    0    1
 -2       645       755       717      3108      3372      3289
 -1      1561    8    0    1
 -2       736       735       841      3052      3373      3374
 -1      1562    8    0    1
 -2       735       837       841      3362      3375      3373
 -1      1563    8    0    1
 -2       737       736       842      3055      3376      3377
 -1      1564    8    0    1
 -2       736       841       842      3374      3378      3376
 -1      1565    8    0    1
 -2       738       737       843      3058      3379      3380
 -1      1566    8    0    1
 -2       737       842       843      3377      3381      3379
 -1      1567    8    0    1
 -2       739       738       844      3061      3382      3383
 -1      1568    8    0    1
 -2       738       843       844      3380      3384      3382
 -1      1569    8    0    1
 -2       740       739       845      3064      3385      3386
 -1      1570    8    0    1
 -2       739       844       845      3383      3387      3385
 -1      1571    8    0    1
 -2       741       740       846      3067      3388      3389
 -1      1572    8    0    1
 -2       740       845       846      3386      3390      3388
 -1      1573    8    0    1
 -2       742       741       847      3070      3391      3392
 -1      1574    8    0    1
 -2       741       846       847      3389      3393      3391
 -1      1575    8    0    1
 -2       743       742       848      3073      3394      3395
 -1      1576    8    0    1
 -2       742       847       848      3392      3396      3394
 -1      1577    8    0    1
 -2       744       743       849      3076      3397      3398
 -1      1578    8    0    1
 -2       743       848       849      3395      3399      3397
 -1      1579    8    0    1
 -2       745       744       850      3079      3400      3401
 -1      1580    8    0    1
 -2       744       849       850      3398      3402      3400
 -1      1581    8    0    1
 -2       746       745       851      3082      3403      3404
 -1      1582    8    0    1
 -2       745       850       851      3401      3405      3403
 -1      1583    8    0    1
 -2       747       746       852      3085      3406      3407
 -1      1584    8    0    1
 -2       746       851       852      3404      3408      3406
 -1      1585    8    0    1
 -2       748       747       853      3088      3409      3410
 -1      1586    8    0    1
 -2       747       852       853      3407      3411      3409
 -1      1587    8    0    1
 -2       749       748       854      3091      3412      3413
 -1      1588    8    0    1
 -2       748       853       854      3410      3414      3412
 -1      1589    8    0    1
 -2       750       749       855      3094      3415      3416
 -1      1590    8    0    1
 -2       749       854       855      3413      3417      3415
 -1      1591    8    0    1
 -2       751       750       856      3097      3418      3419
 -1      1592    8    0    1
 -2       750       855       856      3416      3420      3418
 -1      1593    8    0    1
 -2       752       751       857      3100      3421      3422
 -1      1594    8    0    1
 -2       751       856       857      3419      3423      3421
 -1      1595    8    0    1
 -2       753       752       858      3103      3424      3425
 -1      1596    8    0    1
 -2       752       857       858      3422      3426      3424
 -1      1597    8    0    1
 -2       754       753       859      3106      3427      3428
 -1      1598    8    0    1
 -2       753       858       859      3425      3429      3427
 -1      1599    8    0    1
 -2       722       815       723      3294      3430      3013
 -1      1600    8    0    1
 -2       760       761       860      3124      3431      3432
 -1      1601    8    0    1
 -2       759       760       861      3121      3433      3434
 -1      1602    8    0    1
 -2       760       860       861      3432      3435      3433
 -1      1603    8    0    1
 -2       762       763       862      3130      3436      3437
 -1      1604    8    0    1
 -2       763       764       863      3133      3438      3439
 -1      1605    8    0    1
 -2       763       863       862      3439      3440      3436
 -1      1606    8    0    1
 -2       764       765       864      3136      3441      3442
 -1      1607    8    0    1
 -2       764       864       863      3442      3443      3438
 -1      1608    8    0    1
 -2       765       766       865      3139      3444      3445
 -1      1609    8    0    1
 -2       765       865       864      3445      3446      3441
 -1      1610    8    0    1
 -2       766       767       866      3142      3447      3448
 -1      1611    8    0    1
 -2       766       866       865      3448      3449      3444
 -1      1612    8    0    1
 -2       767       768       867      3145      3450      3451
 -1      1613    8    0    1
 -2       767       867       866      3451      3452      3447
 -1      1614    8    0    1
 -2       768       769       868      3148      3453      3454
 -1      1615    8    0    1
 -2       768       868       867      3454      3455      3450
 -1      1616    8    0    1
 -2       769       770       869      3151      3456      3457
 -1      1617    8    0    1
 -2       769       869       868      3457      3458      3453
 -1      1618    8    0    1
 -2       770       771       870      3154      3459      3460
 -1      1619    8    0    1
 -2       770       870       869      3460      3461      3456
 -1      1620    8    0    1
 -2       771       772       871      3157      3462      3463
 -1      1621    8    0    1
 -2       771       871       870      3463      3464      3459
 -1      1622    8    0    1
 -2       772       773       872      3160      3465      3466
 -1      1623    8    0    1
 -2       772       872       871      3466      3467      3462
 -1      1624    8    0    1
 -2       773       774       873      3163      3468      3469
 -1      1625    8    0    1
 -2       773       873       872      3469      3470      3465
 -1      1626    8    0    1
 -2       774       775       874      3166      3471      3472
 -1      1627    8    0    1
 -2       774       874       873      3472      3473      3468
 -1      1628    8    0    1
 -2       775       776       875      3169      3474      3475
 -1      1629    8    0    1
 -2       775       875       874      3475      3476      3471
 -1      1630    8    0    1
 -2       776       777       876      3172      3477      3478
 -1      1631    8    0    1
 -2       776       876       875      3478      3479      3474
 -1      1632    8    0    1
 -2       777       778       877      3175      3480      3481
 -1      1633    8    0    1
 -2       777       877       876      3481      3482      3477
 -1      1634    8    0    1
 -2       778       779       878      3178      3483      3484
 -1      1635    8    0    1
 -2       778       878       877      3484      3485      3480
 -1      1636    8    0    1
 -2       779       780       879      3181      3486      3487
 -1      1637    8    0    1
 -2       779       879       878      3487      3488      3483
 -1      1638    8    0    1
 -2       780       781       880      3184      3489      3490
 -1      1639    8    0    1
 -2       780       880       879      3490      3491      3486
 -1      1640    8    0    1
 -2       781       782       881      3187      3492      3493
 -1      1641    8    0    1
 -2       781       881       880      3493      3494      3489
 -1      1642    8    0    1
 -2       782       783       882      3190      3495      3496
 -1      1643    8    0    1
 -2       782       882       881      3496      3497      3492
 -1      1644    8    0    1
 -2       783       784       883      3193      3498      3499
 -1      1645    8    0    1
 -2       783       883       882      3499      3500      3495
 -1      1646    8    0    1
 -2       784       785       884      3196      3501      3502
 -1      1647    8    0    1
 -2       784       884       883      3502      3503      3498
 -1      1648    8    0    1
 -2       785       786       885      3199      3504      3505
 -1      1649    8    0    1
 -2       785       885       884      3505      3506      3501
 -1      1650    8    0    1
 -2       786       787       886      3202      3507      3508
 -1      1651    8    0    1
 -2       786       886       885      3508      3509      3504
 -1      1652    8    0    1
 -2       787       788       887      3205      3510      3511
 -1      1653    8    0    1
 -2       787       887       886      3511      3512      3507
 -1      1654    8    0    1
 -2       788       789       888      3208      3513      3514
 -1      1655    8    0    1
 -2       788       888       887      3514      3515      3510
 -1      1656    8    0    1
 -2       789       790       889      3211      3516      3517
 -1      1657    8    0    1
 -2       789       889       888      3517      3518      3513
 -1      1658    8    0    1
 -2       790       791       890      3214      3519      3520
 -1      1659    8    0    1
 -2       790       890       889      3520      3521      3516
 -1      1660    8    0    1
 -2       818       689       822      3298      3312      3522
 -1      1661    8    0    1
 -2       793       759       891      3220      3523      3524
 -1      1662    8    0    1
 -2       759       861       891      3434      3525      3523
 -1      1663    8    0    1
 -2       815       830       892      3343      3526      3527
 -1      1664    8    0    1
 -2       809       757       893      3290      3528      3529
 -1      1665    8    0    1
 -2       809       893       801      3529      3530      3262
 -1      1666    8    0    1
 -2       800       794       894      3268      3531      3532
 -1      1667    8    0    1
 -2       725       793       895      3270      3533      3534
 -1      1668    8    0    1
 -2       725       895       838      3534      3535      3364
 -1      1669    8    0    1
 -2       717       755       816      3372      3536      3288
 -1      1670    8    0    1
 -2       757       800       896      3239      3537      3538
 -1      1671    8    0    1
 -2       757       896       893      3538      3539      3528
 -1      1672    8    0    1
 -2       804       796       897      3336      3540      3541
 -1      1673    8    0    1
 -2       794       798       898      3269      3542      3543
 -1      1674    8    0    1
 -2       798       805       899      3338      3544      3545
 -1      1675    8    0    1
 -2       812       731       900      3339      3546      3547
 -1      1676    8    0    1
 -2       731       836       900      3359      3548      3546
 -1      1677    8    0    1
 -2       761       762       901      3127      3549      3550
 -1      1678    8    0    1
 -2       860       761       901      3431      3550      3551
 -1      1679    8    0    1
 -2       762       862       901      3437      3552      3549
 -1      1680    8    0    1
 -2       606       607       722      2657      3293      3009
 -1      1681    8    0    1
 -2       758       733       902      3116      3553      3554
 -1      1682    8    0    1
 -2       733       838       902      3365      3555      3553
 -1      1683    8    0    1
 -2       797       756       903      3232      3556      3557
 -1      1684    8    0    1
 -2       806       804       904      3329      3558      3559
 -1      1685    8    0    1
 -2       734       801       905      3242      3560      3561
 -1      1686    8    0    1
 -2       837       734       905      3361      3561      3562
 -1      1687    8    0    1
 -2       801       893       905      3530      3563      3560
 -1      1688    8    0    1
 -2       803       719       906      3337      3564      3565
 -1      1689    8    0    1
 -2       719       828       906      3331      3566      3564
 -1      1690    8    0    1
 -2       732       712       813      3363      3277      3567
 -1      1691    8    0    1
 -2       723       815       907      3430      3568      3569
 -1      1692    8    0    1
 -2       810       723       907      3265      3569      3570
 -1      1693    8    0    1
 -2       815       892       907      3527      3571      3568
 -1      1694    8    0    1
 -2       732       813       724      3567      3572      3041
 -1      1695    8    0    1
 -2       724       813       831      3572      3573      3344
 -1      1696    8    0    1
 -2       716       824       908      3318      3574      3575
 -1      1697    8    0    1
 -2       716       908       829      3575      3576      3335
 -1      1698    8    0    1
 -2       758       902       909      3554      3577      3578
 -1      1699    8    0    1
 -2       758       909       811      3578      3579      3273
 -1      1700    8    0    1
 -2       816       755       910      3536      3580      3581
 -1      1701    8    0    1
 -2       756       816       910      3287      3581      3582
 -1      1702    8    0    1
 -2       755       754       910      3109      3583      3580
 -1      1703    8    0    1
 -2       814       807       911      3281      3584      3585
 -1      1704    8    0    1
 -2       840       802       912      3369      3586      3587
 -1      1705    8    0    1
 -2       802       820       912      3305      3588      3586
 -1      1706    8    0    1
 -2       791       817       913      3296      3589      3590
 -1      1707    8    0    1
 -2       791       913       890      3590      3591      3519
 -1      1708    8    0    1
 -2       818       822       914      3522      3592      3593
 -1      1709    8    0    1
 -2       818       914       915      3593      3594      3595
 -1      1710    8    0    1
 -2       818       915       821      3595      3596      3310
 -1      1711    8    0    1
 -2       804       897       904      3541      3597      3558
 -1      1712    8    0    1
 -2       892       830       916      3526      3598      3599
 -1      1713    8    0    1
 -2       820       812       900      3306      3547      3600
 -1      1714    8    0    1
 -2       803       906       917      3565      3601      3602
 -1      1715    8    0    1
 -2       803       917       824      3602      3603      3319
 -1      1716    8    0    1
 -2       825       806       918      3322      3604      3605
 -1      1717    8    0    1
 -2       806       904       918      3559      3606      3604
 -1      1718    8    0    1
 -2       831       813       919      3573      3607      3608
 -1      1719    8    0    1
 -2       813       823       919      3316      3609      3607
 -1      1720    8    0    1
 -2       894       794       920      3531      3610      3611
 -1      1721    8    0    1
 -2       794       898       920      3543      3612      3610
 -1      1722    8    0    1
 -2       808       797       921      3258      3613      3614
 -1      1723    8    0    1
 -2       797       903       921      3557      3615      3613
 -1      1724    8    0    1
 -2       898       798       922      3542      3616      3617
 -1      1725    8    0    1
 -2       798       899       922      3545      3618      3616
 -1      1726    8    0    1
 -2       704       810       826      3267      3619      3325
 -1      1727    8    0    1
 -2       896       800       894      3537      3532      3620
 -1      1728    8    0    1
 -2       828       799       923      3332      3621      3622
 -1      1729    8    0    1
 -2       799       825       923      3321      3623      3621
 -1      1730    8    0    1
 -2       899       805       924      3544      3624      3625
 -1      1731    8    0    1
 -2       805       829       924      3334      3626      3624
 -1      1732    8    0    1
 -2       895       793       891      3533      3524      3627
 -1      1733    8    0    1
 -2       839       710       814      3366      3280      3628
 -1      1734    8    0    1
 -2       830       811       916      3342      3629      3598
 -1      1735    8    0    1
 -2       897       796       925      3540      3630      3631
 -1      1736    8    0    1
 -2       796       827       925      3327      3632      3630
 -1      1737    8    0    1
 -2       911       807       926      3584      3633      3634
 -1      1738    8    0    1
 -2       807       826       926      3324      3635      3633
 -1      1739    8    0    1
 -2       903       756       910      3556      3582      3636
 -1      1740    8    0    1
 -2       754       859       910      3428      3637      3583
 -1      1741    8    0    1
 -2       822       792       927      3313      3638      3639
 -1      1742    8    0    1
 -2       822       927       914      3639      3640      3592
 -1      1743    8    0    1
 -2       792       808       928      3257      3641      3642
 -1      1744    8    0    1
 -2       927       792       928      3638      3642      3643
 -1      1745    8    0    1
 -2       808       921       928      3614      3644      3641
 -1      1746    8    0    1
 -2       914       927       929      3640      3645      3646
 -1      1747    8    0    1
 -2       910       859       903      3637      3647      3636
 -1      1748    8    0    1
 -2       902       838       930      3555      3648      3649
 -1      1749    8    0    1
 -2       833       832       931      3351      3650      3651
 -1      1750    8    0    1
 -2       834       833       932      3354      3652      3653
 -1      1751    8    0    1
 -2       833       931       932      3651      3654      3652
 -1      1752    8    0    1
 -2       835       834       933      3357      3655      3656
 -1      1753    8    0    1
 -2       834       932       933      3653      3657      3655
 -1      1754    8    0    1
 -2       836       835       934      3360      3658      3659
 -1      1755    8    0    1
 -2       835       933       934      3656      3660      3658
 -1      1756    8    0    1
 -2       906       828       935      3566      3661      3662
 -1      1757    8    0    1
 -2       823       839       936      3368      3663      3664
 -1      1758    8    0    1
 -2       823       936       919      3664      3665      3609
 -1      1759    8    0    1
 -2       864       865       937      3446      3666      3667
 -1      1760    8    0    1
 -2       893       896       905      3539      3668      3563
 -1      1761    8    0    1
 -2       841       837       938      3375      3669      3670
 -1      1762    8    0    1
 -2       842       841       939      3378      3671      3672
 -1      1763    8    0    1
 -2       841       938       939      3670      3673      3671
 -1      1764    8    0    1
 -2       843       842       940      3381      3674      3675
 -1      1765    8    0    1
 -2       842       939       940      3672      3676      3674
 -1      1766    8    0    1
 -2       844       843       941      3384      3677      3678
 -1      1767    8    0    1
 -2       843       940       941      3675      3679      3677
 -1      1768    8    0    1
 -2       845       844       942      3387      3680      3681
 -1      1769    8    0    1
 -2       844       941       942      3678      3682      3680
 -1      1770    8    0    1
 -2       846       845       943      3390      3683      3684
 -1      1771    8    0    1
 -2       845       942       943      3681      3685      3683
 -1      1772    8    0    1
 -2       847       846       944      3393      3686      3687
 -1      1773    8    0    1
 -2       846       943       944      3684      3688      3686
 -1      1774    8    0    1
 -2       848       847       945      3396      3689      3690
 -1      1775    8    0    1
 -2       847       944       945      3687      3691      3689
 -1      1776    8    0    1
 -2       849       848       946      3399      3692      3693
 -1      1777    8    0    1
 -2       848       945       946      3690      3694      3692
 -1      1778    8    0    1
 -2       850       849       947      3402      3695      3696
 -1      1779    8    0    1
 -2       849       946       947      3693      3697      3695
 -1      1780    8    0    1
 -2       851       850       948      3405      3698      3699
 -1      1781    8    0    1
 -2       850       947       948      3696      3700      3698
 -1      1782    8    0    1
 -2       852       851       949      3408      3701      3702
 -1      1783    8    0    1
 -2       851       948       949      3699      3703      3701
 -1      1784    8    0    1
 -2       853       852       950      3411      3704      3705
 -1      1785    8    0    1
 -2       852       949       950      3702      3706      3704
 -1      1786    8    0    1
 -2       854       853       951      3414      3707      3708
 -1      1787    8    0    1
 -2       853       950       951      3705      3709      3707
 -1      1788    8    0    1
 -2       855       854       952      3417      3710      3711
 -1      1789    8    0    1
 -2       854       951       952      3708      3712      3710
 -1      1790    8    0    1
 -2       856       855       953      3420      3713      3714
 -1      1791    8    0    1
 -2       855       952       953      3711      3715      3713
 -1      1792    8    0    1
 -2       857       856       954      3423      3716      3717
 -1      1793    8    0    1
 -2       856       953       954      3714      3718      3716
 -1      1794    8    0    1
 -2       858       857       955      3426      3719      3720
 -1      1795    8    0    1
 -2       857       954       955      3717      3721      3719
 -1      1796    8    0    1
 -2       859       858       956      3429      3722      3723
 -1      1797    8    0    1
 -2       858       955       956      3720      3724      3722
 -1      1798    8    0    1
 -2       861       860       957      3435      3725      3726
 -1      1799    8    0    1
 -2       863       864       935      3443      3727      3728
 -1      1800    8    0    1
 -2       865       866       958      3449      3729      3730
 -1      1801    8    0    1
 -2       865       958       937      3730      3731      3666
 -1      1802    8    0    1
 -2       866       867       959      3452      3732      3733
 -1      1803    8    0    1
 -2       866       959       958      3733      3734      3729
 -1      1804    8    0    1
 -2       867       868       960      3455      3735      3736
 -1      1805    8    0    1
 -2       867       960       959      3736      3737      3732
 -1      1806    8    0    1
 -2       868       869       961      3458      3738      3739
 -1      1807    8    0    1
 -2       868       961       960      3739      3740      3735
 -1      1808    8    0    1
 -2       869       870       962      3461      3741      3742
 -1      1809    8    0    1
 -2       869       962       961      3742      3743      3738
 -1      1810    8    0    1
 -2       870       871       963      3464      3744      3745
 -1      1811    8    0    1
 -2       870       963       962      3745      3746      3741
 -1      1812    8    0    1
 -2       871       872       964      3467      3747      3748
 -1      1813    8    0    1
 -2       871       964       963      3748      3749      3744
 -1      1814    8    0    1
 -2       872       873       965      3470      3750      3751
 -1      1815    8    0    1
 -2       872       965       964      3751      3752      3747
 -1      1816    8    0    1
 -2       873       874       966      3473      3753      3754
 -1      1817    8    0    1
 -2       873       966       965      3754      3755      3750
 -1      1818    8    0    1
 -2       874       875       967      3476      3756      3757
 -1      1819    8    0    1
 -2       874       967       966      3757      3758      3753
 -1      1820    8    0    1
 -2       875       876       968      3479      3759      3760
 -1      1821    8    0    1
 -2       875       968       967      3760      3761      3756
 -1      1822    8    0    1
 -2       876       877       969      3482      3762      3763
 -1      1823    8    0    1
 -2       876       969       968      3763      3764      3759
 -1      1824    8    0    1
 -2       877       878       970      3485      3765      3766
 -1      1825    8    0    1
 -2       877       970       969      3766      3767      3762
 -1      1826    8    0    1
 -2       878       879       971      3488      3768      3769
 -1      1827    8    0    1
 -2       878       971       970      3769      3770      3765
 -1      1828    8    0    1
 -2       879       880       972      3491      3771      3772
 -1      1829    8    0    1
 -2       879       972       971      3772      3773      3768
 -1      1830    8    0    1
 -2       880       881       973      3494      3774      3775
 -1      1831    8    0    1
 -2       880       973       972      3775      3776      3771
 -1      1832    8    0    1
 -2       881       882       974      3497      3777      3778
 -1      1833    8    0    1
 -2       881       974       973      3778      3779      3774
 -1      1834    8    0    1
 -2       882       883       975      3500      3780      3781
 -1      1835    8    0    1
 -2       882       975       974      3781      3782      3777
 -1      1836    8    0    1
 -2       883       884       976      3503      3783      3784
 -1      1837    8    0    1
 -2       883       976       975      3784      3785      3780
 -1      1838    8    0    1
 -2       884       885       977      3506      3786      3787
 -1      1839    8    0    1
 -2       884       977       976      3787      3788      3783
 -1      1840    8    0    1
 -2       885       886       978      3509      3789      3790
 -1      1841    8    0    1
 -2       885       978       977      3790      3791      3786
 -1      1842    8    0    1
 -2       886       887       979      3512      3792      3793
 -1      1843    8    0    1
 -2       886       979       978      3793      3794      3789
 -1      1844    8    0    1
 -2       887       888       980      3515      3795      3796
 -1      1845    8    0    1
 -2       887       980       979      3796      3797      3792
 -1      1846    8    0    1
 -2       888       889       981      3518      3798      3799
 -1      1847    8    0    1
 -2       888       981       980      3799      3800      3795
 -1      1848    8    0    1
 -2       889       890       982      3521      3801      3802
 -1      1849    8    0    1
 -2       889       982       981      3802      3803      3798
 -1      1850    8    0    1
 -2       817       684       819      3297      3301      3804
 -1      1851    8    0    1
 -2       891       861       983      3525      3805      3806
 -1      1852    8    0    1
 -2       861       957       983      3726      3807      3805
 -1      1853    8    0    1
 -2       820       900       912      3600      3808      3588
 -1      1854    8    0    1
 -2       827       840       984      3371      3809      3810
 -1      1855    8    0    1
 -2       838       895       985      3535      3811      3812
 -1      1856    8    0    1
 -2       838       985       930      3812      3813      3648
 -1      1857    8    0    1
 -2       896       894       986      3620      3814      3815
 -1      1858    8    0    1
 -2       900       836       987      3548      3816      3817
 -1      1859    8    0    1
 -2       836       934       987      3659      3818      3816
 -1      1860    8    0    1
 -2       895       891       988      3627      3819      3820
 -1      1861    8    0    1
 -2       891       983       988      3806      3821      3819
 -1      1862    8    0    1
 -2       839       814       989      3628      3822      3823
 -1      1863    8    0    1
 -2       936       839       989      3663      3823      3824
 -1      1864    8    0    1
 -2       814       911       989      3585      3825      3822
 -1      1865    8    0    1
 -2       904       897       990      3597      3826      3827
 -1      1866    8    0    1
 -2       826       810       991      3619      3828      3829
 -1      1867    8    0    1
 -2       926       826       991      3635      3829      3830
 -1      1868    8    0    1
 -2       810       907       991      3570      3831      3828
 -1      1869    8    0    1
 -2       892       916       992      3599      3832      3833
 -1      1870    8    0    1
 -2       916       811       909      3629      3579      3834
 -1      1871    8    0    1
 -2       832       831       993      3348      3835      3836
 -1      1872    8    0    1
 -2       931       832       993      3650      3836      3837
 -1      1873    8    0    1
 -2       831       919       993      3608      3838      3835
 -1      1874    8    0    1
 -2       903       859       956      3647      3723      3839
 -1      1875    8    0    1
 -2       817       819       913      3804      3840      3589
 -1      1876    8    0    1
 -2       909       902       994      3577      3841      3842
 -1      1877    8    0    1
 -2       902       930       994      3649      3843      3841
 -1      1878    8    0    1
 -2       860       901       995      3551      3844      3845
 -1      1879    8    0    1
 -2       860       995       957      3845      3846      3725
 -1      1880    8    0    1
 -2       896       986       905      3815      3847      3668
 -1      1881    8    0    1
 -2       906       935       917      3662      3848      3601
 -1      1882    8    0    1
 -2       895       988       985      3820      3849      3811
 -1      1883    8    0    1
 -2       935       828       923      3661      3622      3850
 -1      1884    8    0    1
 -2       907       892       992      3571      3833      3851
 -1      1885    8    0    1
 -2       827       984       925      3810      3852      3632
 -1      1886    8    0    1
 -2       840       912       996      3587      3853      3854
 -1      1887    8    0    1
 -2       840       996       984      3854      3855      3809
 -1      1888    8    0    1
 -2       912       900       987      3808      3817      3856
 -1      1889    8    0    1
 -2       863       935       923      3728      3850      3857
 -1      1890    8    0    1
 -2       904       990       997      3827      3858      3859
 -1      1891    8    0    1
 -2       904       997       918      3859      3860      3606
 -1      1892    8    0    1
 -2       927       928       998      3643      3861      3862
 -1      1893    8    0    1
 -2       927       998       929      3862      3863      3645
 -1      1894    8    0    1
 -2       908       824       917      3574      3603      3864
 -1      1895    8    0    1
 -2       862       863       923      3440      3857      3865
 -1      1896    8    0    1
 -2       982       890       915      3801      3866      3867
 -1      1897    8    0    1
 -2       897       925       999      3631      3868      3869
 -1      1898    8    0    1
 -2       897       999       990      3869      3870      3826
 -1      1899    8    0    1
 -2       920       898      1000      3612      3871      3872
 -1      1900    8    0    1
 -2       921       903      1001      3615      3873      3874
 -1      1901    8    0    1
 -2       903       956      1001      3839      3875      3873
 -1      1902    8    0    1
 -2       922       899      1002      3618      3876      3877
 -1      1903    8    0    1
 -2       986       894      1003      3814      3878      3879
 -1      1904    8    0    1
 -2       894       920      1003      3611      3880      3878
 -1      1905    8    0    1
 -2       989       911      1004      3825      3881      3882
 -1      1906    8    0    1
 -2       992       916      1005      3832      3883      3884
 -1      1907    8    0    1
 -2       898       922      1000      3617      3885      3871
 -1      1908    8    0    1
 -2       899       924      1002      3625      3886      3876
 -1      1909    8    0    1
 -2       915       914      1006      3594      3887      3888
 -1      1910    8    0    1
 -2       982       915      1006      3867      3888      3889
 -1      1911    8    0    1
 -2       914       929      1006      3646      3890      3887
 -1      1912    8    0    1
 -2       916       909      1005      3834      3891      3883
 -1      1913    8    0    1
 -2       911       926      1007      3634      3892      3893
 -1      1914    8    0    1
 -2       911      1007      1004      3893      3894      3881
 -1      1915    8    0    1
 -2       819       821       913      3309      3895      3840
 -1      1916    8    0    1
 -2       829       908      1008      3576      3896      3897
 -1      1917    8    0    1
 -2       933       932      1009      3657      3898      3899
 -1      1918    8    0    1
 -2       934       933      1010      3660      3900      3901
 -1      1919    8    0    1
 -2       933      1009      1010      3899      3902      3900
 -1      1920    8    0    1
 -2       919       936      1011      3665      3903      3904
 -1      1921    8    0    1
 -2       919      1011       993      3904      3905      3838
 -1      1922    8    0    1
 -2       925       984      1012      3852      3906      3907
 -1      1923    8    0    1
 -2       938       837       986      3669      3908      3909
 -1      1924    8    0    1
 -2       940       939      1013      3676      3910      3911
 -1      1925    8    0    1
 -2       941       940      1014      3679      3912      3913
 -1      1926    8    0    1
 -2       940      1013      1014      3911      3914      3912
 -1      1927    8    0    1
 -2       942       941      1015      3682      3915      3916
 -1      1928    8    0    1
 -2       941      1014      1015      3913      3917      3915
 -1      1929    8    0    1
 -2       943       942      1016      3685      3918      3919
 -1      1930    8    0    1
 -2       942      1015      1016      3916      3920      3918
 -1      1931    8    0    1
 -2       944       943      1017      3688      3921      3922
 -1      1932    8    0    1
 -2       943      1016      1017      3919      3923      3921
 -1      1933    8    0    1
 -2       945       944      1018      3691      3924      3925
 -1      1934    8    0    1
 -2       944      1017      1018      3922      3926      3924
 -1      1935    8    0    1
 -2       946       945      1019      3694      3927      3928
 -1      1936    8    0    1
 -2       945      1018      1019      3925      3929      3927
 -1      1937    8    0    1
 -2       947       946      1020      3697      3930      3931
 -1      1938    8    0    1
 -2       946      1019      1020      3928      3932      3930
 -1      1939    8    0    1
 -2       948       947      1021      3700      3933      3934
 -1      1940    8    0    1
 -2       947      1020      1021      3931      3935      3933
 -1      1941    8    0    1
 -2       949       948      1022      3703      3936      3937
 -1      1942    8    0    1
 -2       948      1021      1022      3934      3938      3936
 -1      1943    8    0    1
 -2       950       949      1023      3706      3939      3940
 -1      1944    8    0    1
 -2       949      1022      1023      3937      3941      3939
 -1      1945    8    0    1
 -2       951       950      1024      3709      3942      3943
 -1      1946    8    0    1
 -2       950      1023      1024      3940      3944      3942
 -1      1947    8    0    1
 -2       952       951      1025      3712      3945      3946
 -1      1948    8    0    1
 -2       951      1024      1025      3943      3947      3945
 -1      1949    8    0    1
 -2       953       952      1026      3715      3948      3949
 -1      1950    8    0    1
 -2       952      1025      1026      3946      3950      3948
 -1      1951    8    0    1
 -2       954       953      1027      3718      3951      3952
 -1      1952    8    0    1
 -2       953      1026      1027      3949      3953      3951
 -1      1953    8    0    1
 -2       955       954      1028      3721      3954      3955
 -1      1954    8    0    1
 -2       954      1027      1028      3952      3956      3954
 -1      1955    8    0    1
 -2       956       955      1029      3724      3957      3958
 -1      1956    8    0    1
 -2      1001       956      1029      3875      3958      3959
 -1      1957    8    0    1
 -2       955      1028      1029      3955      3960      3957
 -1      1958    8    0    1
 -2       960       961      1002      3740      3961      3962
 -1      1959    8    0    1
 -2       961       962      1030      3743      3963      3964
 -1      1960    8    0    1
 -2       961      1030      1002      3964      3965      3961
 -1      1961    8    0    1
 -2       962       963      1031      3746      3966      3967
 -1      1962    8    0    1
 -2       962      1031      1030      3967      3968      3963
 -1      1963    8    0    1
 -2       963       964      1032      3749      3969      3970
 -1      1964    8    0    1
 -2       963      1032      1031      3970      3971      3966
 -1      1965    8    0    1
 -2       964       965      1033      3752      3972      3973
 -1      1966    8    0    1
 -2       964      1033      1032      3973      3974      3969
 -1      1967    8    0    1
 -2       965       966      1034      3755      3975      3976
 -1      1968    8    0    1
 -2       965      1034      1033      3976      3977      3972
 -1      1969    8    0    1
 -2       966       967      1035      3758      3978      3979
 -1      1970    8    0    1
 -2       966      1035      1034      3979      3980      3975
 -1      1971    8    0    1
 -2       967       968      1036      3761      3981      3982
 -1      1972    8    0    1
 -2       967      1036      1035      3982      3983      3978
 -1      1973    8    0    1
 -2       968       969      1037      3764      3984      3985
 -1      1974    8    0    1
 -2       968      1037      1036      3985      3986      3981
 -1      1975    8    0    1
 -2       969       970      1038      3767      3987      3988
 -1      1976    8    0    1
 -2       969      1038      1037      3988      3989      3984
 -1      1977    8    0    1
 -2       970       971      1039      3770      3990      3991
 -1      1978    8    0    1
 -2       970      1039      1038      3991      3992      3987
 -1      1979    8    0    1
 -2       971       972      1040      3773      3993      3994
 -1      1980    8    0    1
 -2       971      1040      1039      3994      3995      3990
 -1      1981    8    0    1
 -2       972       973      1041      3776      3996      3997
 -1      1982    8    0    1
 -2       972      1041      1040      3997      3998      3993
 -1      1983    8    0    1
 -2       973       974      1042      3779      3999      4000
 -1      1984    8    0    1
 -2       973      1042      1041      4000      4001      3996
 -1      1985    8    0    1
 -2       974       975      1043      3782      4002      4003
 -1      1986    8    0    1
 -2       974      1043      1042      4003      4004      3999
 -1      1987    8    0    1
 -2       975       976      1044      3785      4005      4006
 -1      1988    8    0    1
 -2       975      1044      1043      4006      4007      4002
 -1      1989    8    0    1
 -2       976       977      1045      3788      4008      4009
 -1      1990    8    0    1
 -2       976      1045      1044      4009      4010      4005
 -1      1991    8    0    1
 -2       977       978      1046      3791      4011      4012
 -1      1992    8    0    1
 -2       977      1046      1045      4012      4013      4008
 -1      1993    8    0    1
 -2       978       979      1047      3794      4014      4015
 -1      1994    8    0    1
 -2       978      1047      1046      4015      4016      4011
 -1      1995    8    0    1
 -2       979       980      1048      3797      4017      4018
 -1      1996    8    0    1
 -2       979      1048      1047      4018      4019      4014
 -1      1997    8    0    1
 -2       980       981      1049      3800      4020      4021
 -1      1998    8    0    1
 -2       980      1049      1048      4021      4022      4017
 -1      1999    8    0    1
 -2       981       982      1050      3803      4023      4024
 -1      2000    8    0    1
 -2      1049       981      1050      4020      4024      4025
 -1      2001    8    0    1
 -2       982      1006      1050      3889      4026      4023
 -1      2002    8    0    1
 -2       987       934      1051      3818      4027      4028
 -1      2003    8    0    1
 -2       934      1010      1051      3901      4029      4027
 -1      2004    8    0    1
 -2       821       915       913      3596      4030      3895
 -1      2005    8    0    1
 -2      1002       924       960      3886      4031      3962
 -1      2006    8    0    1
 -2       983       957      1052      3807      4032      4033
 -1      2007    8    0    1
 -2       912       987       996      3856      4034      3853
 -1      2008    8    0    1
 -2       936       989      1053      3824      4035      4036
 -1      2009    8    0    1
 -2       989      1004      1053      3882      4037      4035
 -1      2010    8    0    1
 -2       985       988      1054      3849      4038      4039
 -1      2011    8    0    1
 -2       930       985      1055      3813      4040      4041
 -1      2012    8    0    1
 -2       985      1054      1055      4039      4042      4040
 -1      2013    8    0    1
 -2       825       918      1056      3605      4043      4044
 -1      2014    8    0    1
 -2       864       937       935      3667      4045      3727
 -1      2015    8    0    1
 -2       923       825      1056      3623      4044      4046
 -1      2016    8    0    1
 -2       924       829      1008      3626      3897      4047
 -1      2017    8    0    1
 -2       907       992       991      3851      4048      3831
 -1      2018    8    0    1
 -2       988       983      1057      3821      4049      4050
 -1      2019    8    0    1
 -2       983      1052      1057      4033      4051      4049
 -1      2020    8    0    1
 -2       939       938      1058      3673      4052      4053
 -1      2021    8    0    1
 -2       939      1058      1013      4053      4054      3910
 -1      2022    8    0    1
 -2       992      1005      1059      3884      4055      4056
 -1      2023    8    0    1
 -2       920      1000      1060      3872      4057      4058
 -1      2024    8    0    1
 -2      1005       909       994      3891      3842      4059
 -1      2025    8    0    1
 -2       938       986      1061      3909      4060      4061
 -1      2026    8    0    1
 -2      1058       938      1061      4052      4061      4062
 -1      2027    8    0    1
 -2       986      1003      1061      3879      4063      4060
 -1      2028    8    0    1
 -2      1056       918       995      4043      4064      4065
 -1      2029    8    0    1
 -2       935       937       917      4045      4066      3848
 -1      2030    8    0    1
 -2       986       837       905      3908      3562      3847
 -1      2031    8    0    1
 -2       901       862      1056      3552      4067      4068
 -1      2032    8    0    1
 -2       932       931      1062      3654      4069      4070
 -1      2033    8    0    1
 -2       932      1062      1009      4070      4071      3898
 -1      2034    8    0    1
 -2       908       917       958      3864      4072      4073
 -1      2035    8    0    1
 -2       928       921      1063      3644      4074      4075
 -1      2036    8    0    1
 -2       998       928      1063      3861      4075      4076
 -1      2037    8    0    1
 -2       921      1001      1063      3874      4077      4074
 -1      2038    8    0    1
 -2       922      1002      1030      3877      3965      4078
 -1      2039    8    0    1
 -2       901      1056       995      4068      4065      3844
 -1      2040    8    0    1
 -2       917       937       958      4066      3731      4072
 -1      2041    8    0    1
 -2       908       958       959      4073      3734      4079
 -1      2042    8    0    1
 -2       924      1008       960      4047      4080      4031
 -1      2043    8    0    1
 -2      1008       908       959      3896      4079      4081
 -1      2044    8    0    1
 -2       960      1008       959      4080      4081      3737
 -1      2045    8    0    1
 -2      1011       936      1053      3903      4036      4082
 -1      2046    8    0    1
 -2      1012       984      1051      3906      4083      4084
 -1      2047    8    0    1
 -2      1004      1007      1064      3894      4085      4086
 -1      2048    8    0    1
 -2      1003       920      1060      3880      4058      4087
 -1      2049    8    0    1
 -2       997       990      1052      3858      4088      4089
 -1      2050    8    0    1
 -2       999       925      1012      3868      3907      4090
 -1      2051    8    0    1
 -2       915       890       913      3866      3591      4030
 -1      2052    8    0    1
 -2       994       930      1065      3843      4091      4092
 -1      2053    8    0    1
 -2       930      1055      1065      4041      4093      4091
 -1      2054    8    0    1
 -2       990       999      1052      3870      4094      4088
 -1      2055    8    0    1
 -2      1052       957       997      4032      4095      4089
 -1      2056    8    0    1
 -2       918       997       995      3860      4096      4064
 -1      2057    8    0    1
 -2      1053      1004      1066      4037      4097      4098
 -1      2058    8    0    1
 -2      1004      1064      1066      4086      4099      4097
 -1      2059    8    0    1
 -2      1054       988      1057      4038      4050      4100
 -1      2060    8    0    1
 -2       929       998      1067      3863      4101      4102
 -1      2061    8    0    1
 -2       922      1030      1000      4078      4103      3885
 -1      2062    8    0    1
 -2      1060      1000      1068      4057      4104      4105
 -1      2063    8    0    1
 -2       931       993      1069      3837      4106      4107
 -1      2064    8    0    1
 -2      1062       931      1069      4069      4107      4108
 -1      2065    8    0    1
 -2       993      1011      1069      3905      4109      4106
 -1      2066    8    0    1
 -2       929      1067      1006      4102      4110      3890
 -1      2067    8    0    1
 -2      1005       994      1070      4059      4111      4112
 -1      2068    8    0    1
 -2      1059      1005      1070      4055      4112      4113
 -1      2069    8    0    1
 -2       994      1065      1070      4092      4114      4111
 -1      2070    8    0    1
 -2       926       991      1007      3830      4115      3892
 -1      2071    8    0    1
 -2       957       995       997      3846      4096      4095
 -1      2072    8    0    1
 -2      1051       984       996      4083      3855      4116
 -1      2073    8    0    1
 -2      1054      1057      1071      4100      4117      4118
 -1      2074    8    0    1
 -2      1014      1013      1072      3914      4119      4120
 -1      2075    8    0    1
 -2      1012      1051      1073      4084      4121      4122
 -1      2076    8    0    1
 -2      1003      1060      1074      4087      4123      4124
 -1      2077    8    0    1
 -2      1003      1074      1061      4124      4125      4063
 -1      2078    8    0    1
 -2      1051       996       987      4116      4034      4028
 -1      2079    8    0    1
 -2      1013      1058      1075      4054      4126      4127
 -1      2080    8    0    1
 -2      1013      1075      1072      4127      4128      4119
 -1      2081    8    0    1
 -2      1015      1014      1076      3917      4129      4130
 -1      2082    8    0    1
 -2      1014      1072      1076      4120      4131      4129
 -1      2083    8    0    1
 -2      1016      1015      1077      3920      4132      4133
 -1      2084    8    0    1
 -2      1015      1076      1077      4130      4134      4132
 -1      2085    8    0    1
 -2      1017      1016      1078      3923      4135      4136
 -1      2086    8    0    1
 -2      1016      1077      1078      4133      4137      4135
 -1      2087    8    0    1
 -2      1018      1017      1079      3926      4138      4139
 -1      2088    8    0    1
 -2      1017      1078      1079      4136      4140      4138
 -1      2089    8    0    1
 -2      1019      1018      1080      3929      4141      4142
 -1      2090    8    0    1
 -2      1018      1079      1080      4139      4143      4141
 -1      2091    8    0    1
 -2      1020      1019      1081      3932      4144      4145
 -1      2092    8    0    1
 -2      1019      1080      1081      4142      4146      4144
 -1      2093    8    0    1
 -2      1021      1020      1082      3935      4147      4148
 -1      2094    8    0    1
 -2      1020      1081      1082      4145      4149      4147
 -1      2095    8    0    1
 -2      1022      1021      1083      3938      4150      4151
 -1      2096    8    0    1
 -2      1021      1082      1083      4148      4152      4150
 -1      2097    8    0    1
 -2      1023      1022      1084      3941      4153      4154
 -1      2098    8    0    1
 -2      1022      1083      1084      4151      4155      4153
 -1      2099    8    0    1
 -2      1024      1023      1085      3944      4156      4157
 -1      2100    8    0    1
 -2      1023      1084      1085      4154      4158      4156
 -1      2101    8    0    1
 -2      1025      1024      1086      3947      4159      4160
 -1      2102    8    0    1
 -2      1024      1085      1086      4157      4161      4159
 -1      2103    8    0    1
 -2      1026      1025      1087      3950      4162      4163
 -1      2104    8    0    1
 -2      1025      1086      1087      4160      4164      4162
 -1      2105    8    0    1
 -2      1027      1026      1088      3953      4165      4166
 -1      2106    8    0    1
 -2      1026      1087      1088      4163      4167      4165
 -1      2107    8    0    1
 -2      1028      1027      1089      3956      4168      4169
 -1      2108    8    0    1
 -2      1027      1088      1089      4166      4170      4168
 -1      2109    8    0    1
 -2      1031      1032      1068      3971      4171      4172
 -1      2110    8    0    1
 -2       999      1012      1071      4090      4173      4174
 -1      2111    8    0    1
 -2      1032      1033      1090      3974      4175      4176
 -1      2112    8    0    1
 -2      1033      1034      1091      3977      4177      4178
 -1      2113    8    0    1
 -2      1033      1091      1090      4178      4179      4175
 -1      2114    8    0    1
 -2      1034      1035      1092      3980      4180      4181
 -1      2115    8    0    1
 -2      1034      1092      1091      4181      4182      4177
 -1      2116    8    0    1
 -2      1035      1036      1093      3983      4183      4184
 -1      2117    8    0    1
 -2      1035      1093      1092      4184      4185      4180
 -1      2118    8    0    1
 -2      1036      1037      1094      3986      4186      4187
 -1      2119    8    0    1
 -2      1036      1094      1093      4187      4188      4183
 -1      2120    8    0    1
 -2      1037      1038      1095      3989      4189      4190
 -1      2121    8    0    1
 -2      1037      1095      1094      4190      4191      4186
 -1      2122    8    0    1
 -2      1038      1039      1096      3992      4192      4193
 -1      2123    8    0    1
 -2      1038      1096      1095      4193      4194      4189
 -1      2124    8    0    1
 -2      1039      1040      1097      3995      4195      4196
 -1      2125    8    0    1
 -2      1039      1097      1096      4196      4197      4192
 -1      2126    8    0    1
 -2      1040      1041      1098      3998      4198      4199
 -1      2127    8    0    1
 -2      1040      1098      1097      4199      4200      4195
 -1      2128    8    0    1
 -2      1041      1042      1099      4001      4201      4202
 -1      2129    8    0    1
 -2      1041      1099      1098      4202      4203      4198
 -1      2130    8    0    1
 -2      1042      1043      1100      4004      4204      4205
 -1      2131    8    0    1
 -2      1042      1100      1099      4205      4206      4201
 -1      2132    8    0    1
 -2      1043      1044      1101      4007      4207      4208
 -1      2133    8    0    1
 -2      1043      1101      1100      4208      4209      4204
 -1      2134    8    0    1
 -2      1044      1045      1102      4010      4210      4211
 -1      2135    8    0    1
 -2      1044      1102      1101      4211      4212      4207
 -1      2136    8    0    1
 -2      1045      1046      1103      4013      4213      4214
 -1      2137    8    0    1
 -2      1045      1103      1102      4214      4215      4210
 -1      2138    8    0    1
 -2      1046      1047      1104      4016      4216      4217
 -1      2139    8    0    1
 -2      1046      1104      1103      4217      4218      4213
 -1      2140    8    0    1
 -2      1047      1048      1105      4019      4219      4220
 -1      2141    8    0    1
 -2      1047      1105      1104      4220      4221      4216
 -1      2142    8    0    1
 -2      1048      1049      1106      4022      4222      4223
 -1      2143    8    0    1
 -2      1048      1106      1105      4223      4224      4219
 -1      2144    8    0    1
 -2      1051      1010      1073      4029      4225      4121
 -1      2145    8    0    1
 -2      1055      1054      1107      4042      4226      4227
 -1      2146    8    0    1
 -2      1054      1071      1107      4118      4228      4226
 -1      2147    8    0    1
 -2      1067       998      1108      4101      4229      4230
 -1      2148    8    0    1
 -2       998      1063      1108      4076      4231      4229
 -1      2149    8    0    1
 -2      1052       999      1057      4094      4232      4051
 -1      2150    8    0    1
 -2      1000      1030      1031      4103      3968      4233
 -1      2151    8    0    1
 -2      1068      1000      1031      4104      4233      4172
 -1      2152    8    0    1
 -2      1064      1007      1059      4085      4234      4235
 -1      2153    8    0    1
 -2      1010      1009      1109      3902      4236      4237
 -1      2154    8    0    1
 -2      1011      1053      1110      4082      4238      4239
 -1      2155    8    0    1
 -2      1069      1011      1110      4109      4239      4240
 -1      2156    8    0    1
 -2      1053      1066      1110      4098      4241      4238
 -1      2157    8    0    1
 -2      1064      1059      1070      4235      4113      4242
 -1      2158    8    0    1
 -2       992      1059       991      4056      4243      4048
 -1      2159    8    0    1
 -2       862       923      1056      3865      4046      4067
 -1      2160    8    0    1
 -2      1009      1062      1111      4071      4244      4245
 -1      2161    8    0    1
 -2      1009      1111      1109      4245      4246      4236
 -1      2162    8    0    1
 -2      1057       999      1071      4232      4174      4117
 -1      2163    8    0    1
 -2      1068      1032      1090      4171      4176      4247
 -1      2164    8    0    1
 -2      1006      1067      1050      4110      4248      4026
 -1      2165    8    0    1
 -2      1068      1090      1060      4247      4249      4105
 -1      2166    8    0    1
 -2      1028      1089      1112      4169      4250      4251
 -1      2167    8    0    1
 -2      1028      1112      1029      4251      4252      3960
 -1      2168    8    0    1
 -2      1012      1073      1071      4122      4253      4173
 -1      2169    8    0    1
 -2      1058      1061      1113      4062      4254      4255
 -1      2170    8    0    1
 -2      1075      1058      1113      4126      4255      4256
 -1      2171    8    0    1
 -2      1061      1074      1113      4125      4257      4254
 -1      2172    8    0    1
 -2      1073      1010      1109      4225      4237      4258
 -1      2173    8    0    1
 -2      1049      1050      1114      4025      4259      4260
 -1      2174    8    0    1
 -2      1106      1049      1114      4222      4260      4261
 -1      2175    8    0    1
 -2      1050      1067      1114      4248      4262      4259
 -1      2176    8    0    1
 -2      1060      1090      1074      4249      4263      4123
 -1      2177    8    0    1
 -2      1066      1064      1115      4099      4264      4265
 -1      2178    8    0    1
 -2      1064      1070      1115      4242      4266      4264
 -1      2179    8    0    1
 -2      1062      1069      1110      4108      4240      4267
 -1      2180    8    0    1
 -2      1062      1110      1111      4267      4268      4244
 -1      2181    8    0    1
 -2      1065      1055      1116      4093      4269      4270
 -1      2182    8    0    1
 -2      1055      1107      1116      4227      4271      4269
 -1      2183    8    0    1
 -2      1067      1108      1114      4230      4272      4262
 -1      2184    8    0    1
 -2      1073      1109      1107      4258      4273      4274
 -1      2185    8    0    1
 -2      1092      1093      1117      4185      4275      4276
 -1      2186    8    0    1
 -2      1063      1001      1118      4077      4277      4278
 -1      2187    8    0    1
 -2      1001      1029      1118      3959      4279      4277
 -1      2188    8    0    1
 -2      1076      1072      1117      4131      4280      4281
 -1      2189    8    0    1
 -2      1078      1077      1119      4137      4282      4283
 -1      2190    8    0    1
 -2      1079      1078      1120      4140      4284      4285
 -1      2191    8    0    1
 -2      1078      1119      1120      4283      4286      4284
 -1      2192    8    0    1
 -2      1080      1079      1121      4143      4287      4288
 -1      2193    8    0    1
 -2      1079      1120      1121      4285      4289      4287
 -1      2194    8    0    1
 -2      1081      1080      1122      4146      4290      4291
 -1      2195    8    0    1
 -2      1080      1121      1122      4288      4292      4290
 -1      2196    8    0    1
 -2      1082      1081      1123      4149      4293      4294
 -1      2197    8    0    1
 -2      1081      1122      1123      4291      4295      4293
 -1      2198    8    0    1
 -2      1083      1082      1124      4152      4296      4297
 -1      2199    8    0    1
 -2      1082      1123      1124      4294      4298      4296
 -1      2200    8    0    1
 -2      1084      1083      1125      4155      4299      4300
 -1      2201    8    0    1
 -2      1083      1124      1125      4297      4301      4299
 -1      2202    8    0    1
 -2      1085      1084      1126      4158      4302      4303
 -1      2203    8    0    1
 -2      1084      1125      1126      4300      4304      4302
 -1      2204    8    0    1
 -2      1086      1085      1127      4161      4305      4306
 -1      2205    8    0    1
 -2      1085      1126      1127      4303      4307      4305
 -1      2206    8    0    1
 -2      1087      1086      1128      4164      4308      4309
 -1      2207    8    0    1
 -2      1086      1127      1128      4306      4310      4308
 -1      2208    8    0    1
 -2      1088      1087      1129      4167      4311      4312
 -1      2209    8    0    1
 -2      1087      1128      1129      4309      4313      4311
 -1      2210    8    0    1
 -2      1089      1088      1130      4170      4314      4315
 -1      2211    8    0    1
 -2      1088      1129      1130      4312      4316      4314
 -1      2212    8    0    1
 -2      1071      1073      1107      4253      4274      4228
 -1      2213    8    0    1
 -2      1074      1090      1131      4263      4317      4318
 -1      2214    8    0    1
 -2      1113      1074      1131      4257      4318      4319
 -1      2215    8    0    1
 -2      1090      1091      1131      4179      4320      4317
 -1      2216    8    0    1
 -2      1110      1066      1111      4241      4321      4268
 -1      2217    8    0    1
 -2      1111      1066      1115      4321      4265      4322
 -1      2218    8    0    1
 -2      1094      1095      1119      4191      4323      4324
 -1      2219    8    0    1
 -2      1095      1096      1120      4194      4325      4326
 -1      2220    8    0    1
 -2      1096      1097      1121      4197      4327      4328
 -1      2221    8    0    1
 -2      1097      1098      1122      4200      4329      4330
 -1      2222    8    0    1
 -2      1098      1099      1123      4203      4331      4332
 -1      2223    8    0    1
 -2      1099      1100      1124      4206      4333      4334
 -1      2224    8    0    1
 -2      1100      1101      1125      4209      4335      4336
 -1      2225    8    0    1
 -2      1101      1102      1126      4212      4337      4338
 -1      2226    8    0    1
 -2      1102      1103      1127      4215      4339      4340
 -1      2227    8    0    1
 -2      1103      1104      1128      4218      4341      4342
 -1      2228    8    0    1
 -2      1104      1105      1129      4221      4343      4344
 -1      2229    8    0    1
 -2      1105      1106      1130      4224      4345      4346
 -1      2230    8    0    1
 -2      1108      1063      1118      4231      4278      4347
 -1      2231    8    0    1
 -2      1072      1075      1132      4128      4348      4349
 -1      2232    8    0    1
 -2      1117      1072      1132      4280      4349      4350
 -1      2233    8    0    1
 -2      1075      1113      1132      4256      4351      4348
 -1      2234    8    0    1
 -2      1106      1114      1133      4261      4352      4353
 -1      2235    8    0    1
 -2      1130      1106      1133      4345      4353      4354
 -1      2236    8    0    1
 -2      1114      1108      1133      4272      4355      4352
 -1      2237    8    0    1
 -2      1107      1109      1116      4273      4356      4271
 -1      2238    8    0    1
 -2      1070      1065      1115      4114      4357      4266
 -1      2239    8    0    1
 -2      1091      1092      1132      4182      4358      4359
 -1      2240    8    0    1
 -2      1109      1111      1116      4246      4360      4356
 -1      2241    8    0    1
 -2      1108      1118      1133      4347      4361      4355
 -1      2242    8    0    1
 -2      1007       991      1059      4115      4243      4234
 -1      2243    8    0    1
 -2      1129      1105      1130      4343      4346      4316
 -1      2244    8    0    1
 -2      1121      1097      1122      4327      4330      4292
 -1      2245    8    0    1
 -2      1092      1117      1132      4276      4350      4358
 -1      2246    8    0    1
 -2      1128      1104      1129      4341      4344      4313
 -1      2247    8    0    1
 -2      1124      1100      1125      4333      4336      4301
 -1      2248    8    0    1
 -2      1077      1076      1134      4134      4362      4363
 -1      2249    8    0    1
 -2      1089      1130      1133      4315      4354      4364
 -1      2250    8    0    1
 -2      1077      1134      1119      4363      4365      4282
 -1      2251    8    0    1
 -2      1125      1101      1126      4335      4338      4304
 -1      2252    8    0    1
 -2      1123      1099      1124      4331      4334      4298
 -1      2253    8    0    1
 -2      1122      1098      1123      4329      4332      4295
 -1      2254    8    0    1
 -2      1120      1096      1121      4325      4328      4289
 -1      2255    8    0    1
 -2      1119      1095      1120      4323      4326      4286
 -1      2256    8    0    1
 -2      1093      1094      1134      4188      4366      4367
 -1      2257    8    0    1
 -2      1134      1094      1119      4366      4324      4365
 -1      2258    8    0    1
 -2      1134      1076      1117      4362      4281      4368
 -1      2259    8    0    1
 -2      1102      1127      1126      4340      4307      4337
 -1      2260    8    0    1
 -2      1103      1128      1127      4342      4310      4339
 -1      2261    8    0    1
 -2      1093      1134      1117      4367      4368      4275
 -1      2262    8    0    1
 -2      1111      1115      1116      4322      4369      4360
 -1      2263    8    0    1
 -2      1115      1065      1116      4357      4270      4369
 -1      2264    8    0    1
 -2      1118      1029      1112      4279      4252      4370
 -1      2265    8    0    1
 -2      1131      1091      1132      4320      4359      4371
 -1      2266    8    0    1
 -2      1113      1131      1132      4319      4371      4351
 -1      2267    8    0    1
 -2      1112      1089      1133      4250      4364      4372
 -1      2268    8    0    1
 -2      1118      1112      1133      4370      4372      4361
 -3
    1PSTEP                         1           1           1          
  100CL  101 1.000000000        4372                     0    1           1
 -4  DISP        4    1
 -5  D1          1    2    1    0
 -5  D2          1    2    2    0
 -5  D3          1    2    3    0
 -5  ALL         1    2    0    0    1ALL
 -1         1 7.50576E-03-2.06059E-03-1.76595E-14
 -1         2 8.45150E-03-1.08096E-03-2.00197E-14
 -1         3 1.37833E-02-5.22507E-03-1.01555E-13
 -1         4 1.68759E-02-6.65456E-03-1.04061E-13
 -1         5 0.00000E+00 0.00000E+00 0.00000E+00
 -1         6 0.00000E+00 0.00000E+00 0.00000E+00
 -1         7 0.00000E+00 0.00000E+00 0.00000E+00
 -1         8 0.00000E+00 0.00000E+00 0.00000E+00
 -1         9 0.00000E+00 0.00000E+00 0.00000E+00
 -1        10 0.00000E+00 0.00000E+00 0.00000E+00
 -1        11 0.00000E+00 0.00000E+00 0.00000E+00
 -1        12 0.00000E+00 0.00000E+00 0.00000E+00
 -1        13 0.00000E+00 0.00000E+00 0.00000E+00
 -1        14 0.00000E+00 0.00000E+00 0.00000E+00
 -1        15 0.00000E+00 0.00000E+00 0.00000E+00
 -1        16 0.00000E+00 0.00000E+00 0.00000E+00
 -1        17 0.00000E+00 0.00000E+00 0.00000E+00
 -1        18 0.00000E+00 0.00000E+00 0.00000E+00
 -1        19 0.00000E+00 0.00000E+00 0.00000E+00
 -1        20 0.00000E+00 0.00000E+00 0.00000E+00
 -1        21 0.00000E+00 0.00000E+00 0.00000E+00
 -1        22 0.00000E+00 0.00000E+00 0.00000E+00
 -1        23 3.93792E-04-2.48592E-04 2.66172E-17
 -1        24 6.88859E-04-3.87168E-04-5.87638E-17
 -1        25 9.61846E-04-4.81206E-04-2.56770E-16
 -1        26 1.23061E-03-5.45579E-04-5.65110E-16
 -1        27 1.50056E-03-5.89591E-04-9.81322E-16
 -1        28 1.76106E-03-6.17574E-04-1.47400E-15
 -1        29 2.04212E-03-6.36267E-04-2.09259E-15
 -1        30 2.33320E-03-6.47267E-04-2.81225E-15
 -1        31 2.63843E-03-6.54204E-04-3.63090E-15
 -1        32 2.96381E-03-6.62065E-04-4.55116E-15
 -1        33 3.31806E-03-6.79034E-04-5.56305E-15
 -1        34 3.69208E-03-7.16884E-04-6.60908E-15
 -1        35 4.13765E-03-8.03694E-04-7.79853E-15
 -1        36 4.64309E-03-9.77534E-04-9.07925E-15
 -1        37 5.19083E-03-1.28495E-03-1.04584E-14
 -1        38 5.66720E-03-1.68744E-03-1.18036E-14
 -1        39 6.01496E-03-2.08807E-03-1.30988E-14
 -1        40 6.30000E-03-2.44577E-03-1.47527E-14
 -1        41 6.49969E-03-2.50622E-03-1.63417E-14
 -1        42 6.79951E-03-2.29494E-03-1.82316E-14
 -1        43 7.23868E-03-1.99219E-03-2.02320E-14
 -1        44 7.78631E-03-1.76908E-03-2.24253E-14
 -1        45 8.30263E-03-1.69773E-03-2.45801E-14
 -1        46 8.79575E-03-1.74085E-03-2.69116E-14
 -1        47 9.23050E-03-1.85917E-03-2.93003E-14
 -1        48 9.61746E-03-2.01802E-03-3.17402E-14
 -1        49 9.97009E-03-2.19682E-03-3.42194E-14
 -1        50 1.02995E-02-2.38462E-03-3.67454E-14
 -1        51 1.05981E-02-2.56635E-03-3.91913E-14
 -1        52 1.09026E-02-2.75856E-03-4.18056E-14
 -1        53 1.12004E-02-2.95055E-03-4.44696E-14
 -1        54 1.14939E-02-3.14183E-03-4.71865E-14
 -1        55 1.17846E-02-3.33227E-03-4.99416E-14
 -1        56 1.20590E-02-3.51242E-03-5.25882E-14
 -1        57 1.23466E-02-3.70132E-03-5.54067E-14
 -1        58 1.26334E-02-3.88958E-03-5.82631E-14
 -1        59 1.29197E-02-4.07729E-03-6.11471E-14
 -1        60 1.32056E-02-4.26455E-03-6.40533E-14
 -1        61 1.34914E-02-4.45143E-03-6.70028E-14
 -1        62 1.37627E-02-4.62870E-03-6.98388E-14
 -1        63 1.40483E-02-4.81505E-03-7.28712E-14
 -1        64 1.43338E-02-5.00121E-03-7.59610E-14
 -1        65 1.46193E-02-5.18722E-03-7.90836E-14
 -1        66 1.49049E-02-5.37311E-03-8.22476E-14
 -1        67 1.51905E-02-5.55892E-03-8.54330E-14
 -1        68 1.54618E-02-5.73538E-03-8.84478E-14
 -1        69 1.57474E-02-5.92109E-03-9.16189E-14
 -1        70 1.60331E-02-6.10677E-03-9.48006E-14
 -1        71 1.63188E-02-6.29245E-03-9.79519E-14
 -1        72 1.66045E-02-6.47814E-03-1.01078E-13
 -1        73 4.13128E-04 2.58937E-04 5.22247E-17
 -1        74 7.03529E-04 3.98308E-04 4.23855E-18
 -1        75 9.76443E-04 4.92092E-04-1.43860E-16
 -1        76 1.24430E-03 5.58641E-04-3.92563E-16
 -1        77 1.51190E-03 6.06632E-04-7.42560E-16
 -1        78 1.78132E-03 6.41718E-04-1.19347E-15
 -1        79 2.05328E-03 6.67969E-04-1.74462E-15
 -1        80 2.32768E-03 6.88451E-04-2.39709E-15
 -1        81 2.60372E-03 7.05433E-04-3.15100E-15
 -1        82 2.87996E-03 7.20374E-04-4.00489E-15
 -1        83 3.15445E-03 7.33771E-04-4.95841E-15
 -1        84 3.42478E-03 7.44933E-04-6.00603E-15
 -1        85 3.68844E-03 7.51757E-04-7.14616E-15
 -1        86 3.94329E-03 7.50661E-04-8.38620E-15
 -1        87 4.18812E-03 7.36809E-04-9.72710E-15
 -1        88 4.42324E-03 7.04756E-04-1.11668E-14
 -1        89 4.65078E-03 6.49459E-04-1.27022E-14
 -1        90 4.87450E-03 5.67426E-04-1.43315E-14
 -1        91 5.09907E-03 4.57612E-04-1.60516E-14
 -1        92 5.32911E-03 3.21715E-04-1.78693E-14
 -1        93 5.56815E-03 1.63756E-04-1.97888E-14
 -1        94 5.81806E-03-1.08855E-05-2.18014E-14
 -1        95 6.07901E-03-1.96590E-04-2.39062E-14
 -1        96 6.34977E-03-3.88407E-04-2.60925E-14
 -1        97 6.62833E-03-5.82569E-04-2.83546E-14
 -1        98 6.91248E-03-7.76604E-04-3.06904E-14
 -1        99 7.20014E-03-9.69169E-04-3.30995E-14
 -1       100 7.48967E-03-1.15976E-03-3.55748E-14
 -1       101 7.77987E-03-1.34839E-03-3.81148E-14
 -1       102 8.06999E-03-1.53538E-03-4.07207E-14
 -1       103 8.35960E-03-1.72113E-03-4.33790E-14
 -1       104 8.64850E-03-1.90603E-03-4.60750E-14
 -1       105 8.93668E-03-2.09044E-03-4.88178E-14
 -1       106 9.22420E-03-2.27460E-03-5.16086E-14
 -1       107 9.51115E-03-2.45872E-03-5.44472E-14
 -1       108 9.79765E-03-2.64291E-03-5.73384E-14
 -1       109 1.00838E-02-2.82724E-03-6.02862E-14
 -1       110 1.03698E-02-3.01174E-03-6.32712E-14
 -1       111 1.06555E-02-3.19642E-03-6.63052E-14
 -1       112 1.09412E-02-3.38126E-03-6.93878E-14
 -1       113 1.12268E-02-3.56626E-03-7.25136E-14
 -1       114 1.15124E-02-3.75138E-03-7.56788E-14
 -1       115 1.17980E-02-3.93660E-03-7.88739E-14
 -1       116 1.20836E-02-4.12190E-03-8.20844E-14
 -1       117 1.23692E-02-4.30726E-03-8.53101E-14
 -1       118 1.26548E-02-4.49266E-03-8.85387E-14
 -1       119 1.29405E-02-4.67808E-03-9.17901E-14
 -1       120 1.32262E-02-4.86351E-03-9.50827E-14
 -1       121 1.35119E-02-5.04893E-03-9.84087E-14
 -1       122 1.39656E-02-5.30936E-03-1.01662E-13
 -1       123 1.41480E-02-5.39365E-03-1.01770E-13
 -1       124 1.43303E-02-5.47796E-03-1.01864E-13
 -1       125 1.45126E-02-5.56228E-03-1.01967E-13
 -1       126 1.46949E-02-5.64663E-03-1.02084E-13
 -1       127 1.48741E-02-5.72956E-03-1.02226E-13
 -1       128 1.50565E-02-5.81394E-03-1.02367E-13
 -1       129 1.52389E-02-5.89833E-03-1.02508E-13
 -1       130 1.54214E-02-5.98272E-03-1.02648E-13
 -1       131 1.56039E-02-6.06711E-03-1.02769E-13
 -1       132 1.57864E-02-6.15149E-03-1.02922E-13
 -1       133 1.59659E-02-6.23442E-03-1.03089E-13
 -1       134 1.61485E-02-6.31877E-03-1.03255E-13
 -1       135 1.63312E-02-6.40310E-03-1.03422E-13
 -1       136 1.65138E-02-6.48741E-03-1.03622E-13
 -1       137 1.66964E-02-6.57170E-03-1.03837E-13
 -1       138 8.31556E-03-8.91838E-04-1.99156E-14
 -1       139 8.06277E-03-6.93515E-04-1.95718E-14
 -1       140 7.76155E-03-5.27616E-04-1.90947E-14
 -1       141 7.34381E-03-3.55744E-04-1.83843E-14
 -1       142 6.88444E-03-2.14464E-04-1.75762E-14
 -1       143 6.40473E-03-1.06806E-04-1.67230E-14
 -1       144 5.87296E-03-2.73488E-05-1.57718E-14
 -1       145 5.39139E-03 6.71555E-06-1.49296E-14
 -1       146 4.88480E-03 9.08237E-07-1.40507E-14
 -1       147 4.43718E-03-4.93660E-05-1.32815E-14
 -1       148 4.09647E-03-1.27429E-04-1.27057E-14
 -1       149 3.77798E-03-2.59523E-04-1.21653E-14
 -1       150 3.58938E-03-4.08645E-04-1.18417E-14
 -1       151 3.49519E-03-5.98439E-04-1.16705E-14
 -1       152 3.51448E-03-7.89580E-04-1.16810E-14
 -1       153 3.64454E-03-1.01523E-03-1.18591E-14
 -1       154 3.87937E-03-1.25739E-03-1.21975E-14
 -1       155 4.22353E-03-1.51825E-03-1.26941E-14
 -1       156 4.65602E-03-1.77573E-03-1.33130E-14
 -1       157 5.18430E-03-2.01377E-03-1.40654E-14
 -1       158 5.75964E-03-2.18246E-03-1.48944E-14
 -1       159 6.42769E-03-2.25170E-03-1.58899E-14
 -1       160 7.00713E-03-2.19641E-03-1.68048E-14
 -1       161 7.90768E-03-1.88276E-03-1.84277E-14
 -1       162 8.22036E-03-1.67887E-03-1.91129E-14
 -1       163 8.41057E-03-1.47697E-03-1.96134E-14
 -1       164 8.48727E-03-1.27094E-03-1.99249E-14
 -1       165 2.41376E-04-1.22123E-04-2.43979E-17
 -1       166 2.26338E-04-9.08179E-05-3.93938E-17
 -1       167 2.20170E-04-6.89567E-05-4.71730E-17
 -1       168 2.16753E-04-5.17093E-05-5.11608E-17
 -1       169 2.14686E-04-3.73883E-05-5.27532E-17
 -1       170 2.13421E-04-2.44353E-05-5.31191E-17
 -1       171 2.12792E-04-1.23622E-05-5.28718E-17
 -1       172 2.12686E-04-5.83067E-07-5.21942E-17
 -1       173 2.13033E-04 1.13890E-05-5.09812E-17
 -1       174 2.13811E-04 2.39930E-05-4.90297E-17
 -1       175 2.15052E-04 3.74436E-05-4.63937E-17
 -1       176 2.17011E-04 5.27849E-05-4.21856E-17
 -1       177 2.20233E-04 7.07417E-05-3.55991E-17
 -1       178 2.26235E-04 9.31969E-05-2.45572E-17
 -1       179 2.40138E-04 1.25159E-04-6.12235E-18
 -1       180 2.98241E-04 1.83080E-04 1.39930E-17
 -1       181 4.54875E-04-2.50559E-04-5.90822E-17
 -1       182 7.55711E-04-3.66040E-04-2.22624E-16
 -1       183 1.04332E-03-4.44709E-04-4.90310E-16
 -1       184 1.32591E-03-4.98165E-04-8.62517E-16
 -1       185 1.59380E-03-5.32064E-04-1.31159E-15
 -1       186 1.87820E-03-5.54484E-04-1.88419E-15
 -1       187 2.16768E-03-5.66839E-04-2.55637E-15
 -1       188 2.46499E-03-5.72357E-04-3.32753E-15
 -1       189 2.77336E-03-5.74845E-04-4.19612E-15
 -1       190 3.09691E-03-5.80101E-04-5.15992E-15
 -1       191 3.42309E-03-5.97010E-04-6.16088E-15
 -1       192 3.79201E-03-6.45086E-04-7.30182E-15
 -1       193 4.19328E-03-7.56045E-04-8.53349E-15
 -1       194 4.63104E-03-9.77964E-04-9.85855E-15
 -1       195 5.05432E-03-1.31223E-03-1.11408E-14
 -1       196 5.44304E-03-1.71111E-03-1.23663E-14
 -1       197 5.90226E-03-2.19411E-03-1.39370E-14
 -1       198 6.29782E-03-2.43134E-03-1.54520E-14
 -1       199 6.74056E-03-2.33800E-03-1.72617E-14
 -1       200 7.20139E-03-2.02080E-03-1.91896E-14
 -1       201 7.68860E-03-1.72239E-03-2.13224E-14
 -1       202 8.12980E-03-1.58739E-03-2.34283E-14
 -1       203 8.55986E-03-1.58954E-03-2.57128E-14
 -1       204 8.95503E-03-1.68820E-03-2.80568E-14
 -1       205 9.32066E-03-1.83978E-03-3.04566E-14
 -1       206 9.66324E-03-2.01729E-03-3.29038E-14
 -1       207 9.98870E-03-2.20625E-03-3.53935E-14
 -1       208 1.02865E-02-2.38976E-03-3.78059E-14
 -1       209 1.05914E-02-2.58388E-03-4.03928E-14
 -1       210 1.08902E-02-2.77753E-03-4.30263E-14
 -1       211 1.11848E-02-2.97018E-03-4.57092E-14
 -1       212 1.14765E-02-3.16169E-03-4.84390E-14
 -1       213 1.17518E-02-3.34265E-03-5.10660E-14
 -1       214 1.20402E-02-3.53222E-03-5.38623E-14
 -1       215 1.23276E-02-3.72099E-03-5.66916E-14
 -1       216 1.26144E-02-3.90909E-03-5.95579E-14
 -1       217 1.29008E-02-4.09665E-03-6.24565E-14
 -1       218 1.31868E-02-4.28377E-03-6.53832E-14
 -1       219 1.34584E-02-4.46120E-03-6.81970E-14
 -1       220 1.37442E-02-4.64769E-03-7.12055E-14
 -1       221 1.40298E-02-4.83395E-03-7.42639E-14
 -1       222 1.43155E-02-5.02004E-03-7.73604E-14
 -1       223 1.46011E-02-5.20598E-03-8.04980E-14
 -1       224 1.48867E-02-5.39183E-03-8.36605E-14
 -1       225 1.51581E-02-5.56831E-03-8.66725E-14
 -1       226 1.54438E-02-5.75403E-03-8.98428E-14
 -1       227 1.57294E-02-5.93971E-03-9.30219E-14
 -1       228 1.60151E-02-6.12539E-03-9.61897E-14
 -1       229 1.63008E-02-6.31107E-03-9.93309E-14
 -1       230 6.06237E-04 3.25577E-04-5.14285E-17
 -1       231 8.97182E-04 4.24316E-04-2.09786E-16
 -1       232 1.17862E-03 4.93683E-04-4.65563E-16
 -1       233 1.45620E-03 5.43200E-04-8.19647E-16
 -1       234 1.73282E-03 5.79032E-04-1.27323E-15
 -1       235 2.00990E-03 6.05568E-04-1.82595E-15
 -1       236 2.28787E-03 6.26122E-04-2.47805E-15
 -1       237 2.56653E-03 6.43173E-04-3.23141E-15
 -1       238 2.84508E-03 6.58383E-04-4.08360E-15
 -1       239 3.12227E-03 6.72455E-04-5.03381E-15
 -1       240 3.39651E-03 6.84884E-04-6.07828E-15
 -1       241 3.66613E-03 6.93701E-04-7.21688E-15
 -1       242 3.92963E-03 6.95346E-04-8.45255E-15
 -1       243 4.18618E-03 6.84850E-04-9.78717E-15
 -1       244 4.43594E-03 6.56455E-04-1.12211E-14
 -1       245 4.68030E-03 6.04673E-04-1.27500E-14
 -1       246 4.92179E-03 5.25546E-04-1.43743E-14
 -1       247 5.16364E-03 4.17677E-04-1.60906E-14
 -1       248 5.40908E-03 2.82632E-04-1.79031E-14
 -1       249 5.66067E-03 1.24532E-04-1.98157E-14
 -1       250 5.91985E-03-5.09732E-05-2.18227E-14
 -1       251 6.18688E-03-2.37926E-04-2.39204E-14
 -1       252 6.46104E-03-4.31074E-04-2.60980E-14
 -1       253 6.74101E-03-6.26435E-04-2.83524E-14
 -1       254 7.02525E-03-8.21424E-04-3.06845E-14
 -1       255 7.31229E-03-1.01467E-03-3.30865E-14
 -1       256 7.60090E-03-1.20568E-03-3.55548E-14
 -1       257 7.89018E-03-1.39453E-03-3.80870E-14
 -1       258 8.17950E-03-1.58159E-03-4.06822E-14
 -1       259 8.46850E-03-1.76731E-03-4.33327E-14
 -1       260 8.75700E-03-1.95213E-03-4.60251E-14
 -1       261 9.04494E-03-2.13643E-03-4.87622E-14
 -1       262 9.33235E-03-2.32049E-03-5.15454E-14
 -1       263 9.61929E-03-2.50450E-03-5.43819E-14
 -1       264 9.90585E-03-2.68860E-03-5.72641E-14
 -1       265 1.01921E-02-2.87286E-03-6.01960E-14
 -1       266 1.04781E-02-3.05730E-03-6.31703E-14
 -1       267 1.07640E-02-3.24193E-03-6.61942E-14
 -1       268 1.10498E-02-3.42674E-03-6.92650E-14
 -1       269 1.13355E-02-3.61171E-03-7.23781E-14
 -1       270 1.16211E-02-3.79682E-03-7.55274E-14
 -1       271 1.19068E-02-3.98203E-03-7.87112E-14
 -1       272 1.21924E-02-4.16733E-03-8.19086E-14
 -1       273 1.24781E-02-4.35269E-03-8.51190E-14
 -1       274 1.27637E-02-4.53809E-03-8.83422E-14
 -1       275 1.30494E-02-4.72352E-03-9.15885E-14
 -1       276 1.33351E-02-4.90895E-03-9.48707E-14
 -1       277 1.36208E-02-5.09437E-03-9.81812E-14
 -1       278 1.38094E-02-5.19094E-03-9.88477E-14
 -1       279 1.39917E-02-5.27524E-03-9.89590E-14
 -1       280 1.41740E-02-5.35955E-03-9.90704E-14
 -1       281 1.43563E-02-5.44387E-03-9.91860E-14
 -1       282 1.45355E-02-5.52678E-03-9.93146E-14
 -1       283 1.47179E-02-5.61112E-03-9.94596E-14
 -1       284 1.49003E-02-5.69548E-03-9.96098E-14
 -1       285 1.50827E-02-5.77983E-03-9.97665E-14
 -1       286 1.52652E-02-5.86419E-03-9.99241E-14
 -1       287 1.54477E-02-5.94854E-03-1.00088E-13
 -1       288 1.56272E-02-6.03146E-03-1.00262E-13
 -1       289 1.58098E-02-6.11580E-03-1.00441E-13
 -1       290 1.59924E-02-6.20013E-03-1.00625E-13
 -1       291 1.61750E-02-6.28444E-03-1.00821E-13
 -1       292 8.41202E-03-1.08619E-03-2.08357E-14
 -1       293 8.15844E-03-9.73367E-04-2.06609E-14
 -1       294 7.80755E-03-7.94586E-04-2.00399E-14
 -1       295 7.36038E-03-6.15569E-04-1.94376E-14
 -1       296 6.91535E-03-3.65252E-04-1.84034E-14
 -1       297 6.45865E-03-1.60707E-04-1.74326E-14
 -1       298 6.00867E-03 5.18833E-06-1.63775E-14
 -1       299 5.61775E-03 7.33480E-05-1.53027E-14
 -1       300 5.21773E-03 6.65180E-05-1.42823E-14
 -1       301 4.80951E-03-2.99434E-05-1.32842E-14
 -1       302 4.40199E-03-1.60444E-04-1.26086E-14
 -1       303 4.04295E-03-3.22706E-04-1.18598E-14
 -1       304 3.71461E-03-4.48677E-04-1.14741E-14
 -1       305 3.51323E-03-5.63597E-04-1.11259E-14
 -1       306 3.46381E-03-6.64139E-04-1.11428E-14
 -1       307 3.56551E-03-7.71054E-04-1.11669E-14
 -1       308 3.81790E-03-9.53182E-04-1.15179E-14
 -1       309 4.19628E-03-1.18910E-03-1.19746E-14
 -1       310 4.65965E-03-1.49231E-03-1.25963E-14
 -1       311 5.16197E-03-1.83408E-03-1.33735E-14
 -1       312 5.66876E-03-2.14421E-03-1.42734E-14
 -1       313 6.15670E-03-2.33289E-03-1.53513E-14
 -1       314 6.63534E-03-2.31064E-03-1.64862E-14
 -1       315 7.09128E-03-2.13236E-03-1.75473E-14
 -1       316 7.53055E-03-1.88837E-03-1.85291E-14
 -1       317 7.92773E-03-1.63489E-03-1.94965E-14
 -1       318 8.26313E-03-1.44146E-03-2.01780E-14
 -1       319 8.46646E-03-1.29701E-03-2.06755E-14
 -1       320 8.51377E-03-1.18890E-03-2.08558E-14
 -1       321 1.63577E-02-6.36874E-03-1.01029E-13
 -1       322 4.57085E-04-1.57001E-04-1.59357E-16
 -1       323 4.76838E-04-2.05369E-04-1.35305E-16
 -1       324 4.39399E-04-8.83430E-05-1.80303E-16
 -1       325 4.35246E-04-6.12263E-05-1.83250E-16
 -1       326 4.32934E-04-3.64854E-05-1.83948E-16
 -1       327 4.32090E-04-1.28357E-05-1.82864E-16
 -1       328 4.32478E-04 1.07543E-05-1.80164E-16
 -1       329 4.33973E-04 3.51707E-05-1.75631E-16
 -1       330 4.36543E-04 6.08096E-05-1.69085E-16
 -1       331 4.40577E-04 8.95312E-05-1.59571E-16
 -1       332 4.46876E-04 1.22312E-04-1.45381E-16
 -1       333 4.57514E-04 1.61501E-04-1.24212E-16
 -1       334 4.77782E-04 2.11587E-04-9.21978E-17
 -1       335 5.33976E-04 2.64528E-04-7.74120E-17
 -1       336 8.28139E-04 3.65044E-04-2.41852E-16
 -1       337 8.54272E-04-3.38949E-04-4.04516E-16
 -1       338 1.14390E-03-4.02697E-04-7.36621E-16
 -1       339 1.41675E-03-4.44077E-04-1.14526E-15
 -1       340 1.70331E-03-4.72308E-04-1.67368E-15
 -1       341 1.99080E-03-4.88685E-04-2.30111E-15
 -1       342 2.28051E-03-4.96491E-04-3.02630E-15
 -1       343 2.57352E-03-4.99071E-04-3.84771E-15
 -1       344 2.87069E-03-5.00805E-04-4.76240E-15
 -1       345 3.15765E-03-5.08008E-04-5.71833E-15
 -1       346 3.46591E-03-5.32919E-04-6.81297E-15
 -1       347 3.78429E-03-5.96186E-04-7.99679E-15
 -1       348 4.12308E-03-7.32500E-04-9.26923E-15
 -1       349 4.46370E-03-9.61365E-04-1.04933E-14
 -1       350 7.11462E-03-2.07779E-03-1.82152E-14
 -1       351 7.63288E-03-1.71320E-03-2.02390E-14
 -1       352 8.05033E-03-1.51870E-03-2.22963E-14
 -1       353 8.43054E-03-1.47886E-03-2.45379E-14
 -1       354 8.77547E-03-1.55156E-03-2.68400E-14
 -1       355 9.10214E-03-1.68845E-03-2.92005E-14
 -1       356 9.41840E-03-1.85865E-03-3.16129E-14
 -1       357 9.72750E-03-2.04462E-03-3.40682E-14
 -1       358 1.00160E-02-2.22742E-03-3.64477E-14
 -1       359 1.03153E-02-2.42186E-03-3.90021E-14
 -1       360 1.06111E-02-2.61627E-03-4.16074E-14
 -1       361 1.09042E-02-2.80977E-03-4.42570E-14
 -1       362 1.11953E-02-3.00209E-03-4.69602E-14
 -1       363 1.14703E-02-3.18372E-03-4.95666E-14
 -1       364 1.17587E-02-3.37388E-03-5.23411E-14
 -1       365 1.20463E-02-3.56314E-03-5.51498E-14
 -1       366 1.23333E-02-3.75163E-03-5.79948E-14
 -1       367 1.26198E-02-3.93950E-03-6.08745E-14
 -1       368 1.29060E-02-4.12687E-03-6.37868E-14
 -1       369 1.31777E-02-4.30448E-03-6.65827E-14
 -1       370 1.34636E-02-4.49112E-03-6.95683E-14
 -1       371 1.37494E-02-4.67750E-03-7.25987E-14
 -1       372 1.40351E-02-4.86367E-03-7.56729E-14
 -1       373 1.43208E-02-5.04968E-03-7.87830E-14
 -1       374 1.46065E-02-5.23557E-03-8.19255E-14
 -1       375 1.48779E-02-5.41208E-03-8.49295E-14
 -1       376 1.51636E-02-5.59782E-03-8.80961E-14
 -1       377 1.54493E-02-5.78351E-03-9.12733E-14
 -1       378 1.57350E-02-5.96919E-03-9.44437E-14
 -1       379 1.60207E-02-6.15486E-03-9.76006E-14
 -1       380 1.11580E-03 4.36805E-04-5.00508E-16
 -1       381 7.92135E-03-1.00104E-03-2.12761E-14
 -1       382 1.39932E-03 4.88085E-04-8.54860E-16
 -1       383 1.68094E-03 5.25003E-04-1.30722E-15
 -1       384 1.96204E-03 5.52110E-04-1.85805E-15
 -1       385 2.24336E-03 5.72896E-04-2.50706E-15
 -1       386 2.52503E-03 5.90013E-04-3.25589E-15
 -1       387 2.80668E-03 6.05311E-04-4.10370E-15
 -1       388 3.08756E-03 6.19711E-04-5.04812E-15
 -1       389 3.36655E-03 6.32946E-04-6.08685E-15
 -1       390 3.64233E-03 6.43274E-04-7.21930E-15
 -1       391 3.91366E-03 6.47287E-04-8.44816E-15
 -1       392 4.17963E-03 6.40010E-04-9.77513E-15
 -1       393 4.44013E-03 6.15456E-04-1.11999E-14
 -1       394 4.69605E-03 5.67701E-04-1.27204E-14
 -1       395 4.94932E-03 4.92248E-04-1.43368E-14
 -1       396 5.20258E-03 3.87232E-04-1.60463E-14
 -1       397 5.45851E-03 2.53976E-04-1.78523E-14
 -1       398 5.71927E-03 9.66275E-05-1.97570E-14
 -1       399 5.98602E-03-7.89304E-05-2.17556E-14
 -1       400 6.25891E-03-2.66427E-04-2.38442E-14
 -1       401 6.53726E-03-4.60321E-04-2.60142E-14
 -1       402 6.81996E-03-6.56425E-04-2.82612E-14
 -1       403 7.10574E-03-8.52038E-04-3.05860E-14
 -1       404 7.39348E-03-1.04574E-03-3.29787E-14
 -1       405 7.68224E-03-1.23706E-03-3.54397E-14
 -1       406 7.97135E-03-1.42608E-03-3.79636E-14
 -1       407 8.26038E-03-1.61320E-03-4.05491E-14
 -1       408 8.54905E-03-1.79891E-03-4.31918E-14
 -1       409 8.83727E-03-1.98368E-03-4.58794E-14
 -1       410 9.12499E-03-2.16791E-03-4.86098E-14
 -1       411 9.41225E-03-2.35189E-03-5.13881E-14
 -1       412 9.69911E-03-2.53582E-03-5.42156E-14
 -1       413 9.98564E-03-2.71985E-03-5.70896E-14
 -1       414 1.02719E-02-2.90405E-03-6.00107E-14
 -1       415 1.05580E-02-3.08844E-03-6.29753E-14
 -1       416 1.08439E-02-3.27303E-03-6.59873E-14
 -1       417 1.11297E-02-3.45781E-03-6.90474E-14
 -1       418 1.14154E-02-3.64276E-03-7.21479E-14
 -1       419 1.17011E-02-3.82785E-03-7.52844E-14
 -1       420 1.19868E-02-4.01305E-03-7.84578E-14
 -1       421 1.22725E-02-4.19834E-03-8.16455E-14
 -1       422 1.25582E-02-4.38370E-03-8.48424E-14
 -1       423 1.28438E-02-4.56910E-03-8.80600E-14
 -1       424 1.31295E-02-4.75452E-03-9.12992E-14
 -1       425 1.34152E-02-4.93996E-03-9.45719E-14
 -1       426 1.36123E-02-5.06545E-03-9.67070E-14
 -1       427 1.40177E-02-5.24111E-03-9.62925E-14
 -1       428 1.38354E-02-5.15681E-03-9.61654E-14
 -1       429 1.37238E-02-5.11113E-03-9.64338E-14
 -1       430 1.41969E-02-5.32400E-03-9.64203E-14
 -1       431 1.43792E-02-5.40832E-03-9.65635E-14
 -1       432 1.45616E-02-5.49265E-03-9.67162E-14
 -1       433 1.47440E-02-5.57698E-03-9.68756E-14
 -1       434 1.49265E-02-5.66131E-03-9.70527E-14
 -1       435 1.51090E-02-5.74564E-03-9.72360E-14
 -1       436 1.52885E-02-5.82854E-03-9.74209E-14
 -1       437 1.54710E-02-5.91286E-03-9.76089E-14
 -1       438 1.56537E-02-5.99718E-03-9.77973E-14
 -1       439 1.58363E-02-6.08149E-03-9.80012E-14
 -1       440 7.54423E-03-8.43060E-04-2.06442E-14
 -1       441 8.49587E-03-1.18479E-03-2.17854E-14
 -1       442 4.46100E-04-1.19403E-04-1.72961E-16
 -1       443 6.97290E-03-5.50170E-04-1.94804E-14
 -1       444 6.59557E-03-3.23793E-04-1.84774E-14
 -1       445 6.17573E-03-8.28990E-05-1.71976E-14
 -1       446 5.71917E-03 9.05385E-05-1.57140E-14
 -1       447 5.41775E-03 1.17056E-04-1.46846E-14
 -1       448 5.05646E-03 5.19342E-05-1.35362E-14
 -1       449 4.59709E-03-1.25862E-04-1.23669E-14
 -1       450 4.26061E-03-2.72071E-04-1.16357E-14
 -1       451 3.85205E-03-4.35656E-04-1.10162E-14
 -1       452 3.60776E-03-5.22610E-04-1.06775E-14
 -1       453 3.44761E-03-5.98216E-04-1.05243E-14
 -1       454 3.47856E-03-6.46751E-04-1.05372E-14
 -1       455 3.71284E-03-7.60668E-04-1.08001E-14
 -1       456 4.06057E-03-9.37863E-04-1.12173E-14
 -1       457 4.54365E-03-1.19934E-03-1.17200E-14
 -1       458 5.04356E-03-1.58626E-03-1.25955E-14
 -1       459 5.54064E-03-1.96352E-03-1.34540E-14
 -1       460 6.00812E-03-2.30150E-03-1.46603E-14
 -1       461 6.42162E-03-2.39949E-03-1.60046E-14
 -1       462 6.82050E-03-2.26082E-03-1.72735E-14
 -1       463 7.64962E-03-1.72011E-03-1.96190E-14
 -1       464 8.08877E-03-1.46116E-03-2.07630E-14
 -1       465 8.38012E-03-1.32132E-03-2.14020E-14
 -1       466 8.53158E-03-1.24198E-03-2.19421E-14
 -1       467 8.31287E-03-1.12696E-03-2.17234E-14
 -1       468 4.87798E-03-1.32479E-03-1.17119E-14
 -1       469 3.56336E-03-6.40843E-04-1.01707E-14
 -1       470 3.47902E-03-5.44470E-04-1.00780E-14
 -1       471 5.89486E-03 2.82423E-05-1.65102E-14
 -1       472 6.60711E-04-7.18331E-05-3.90465E-16
 -1       473 6.66218E-04-1.09263E-04-3.86626E-16
 -1       474 6.57845E-04-2.04593E-06-3.86877E-16
 -1       475 6.59643E-04 3.31580E-05-3.80070E-16
 -1       476 6.63268E-04 6.95010E-05-3.69608E-16
 -1       477 6.69037E-04 1.09382E-04-3.54554E-16
 -1       478 6.77664E-04 1.53587E-04-3.33324E-16
 -1       479 6.90956E-04 2.04024E-04-3.03214E-16
 -1       480 7.12697E-04 2.63406E-04-2.61137E-16
 -1       481 7.66911E-04 3.12107E-04-2.55929E-16
 -1       482 9.66654E-04-3.08383E-04-6.06001E-16
 -1       483 7.22614E-03-7.71631E-04-2.09000E-14
 -1       484 8.50881E-03-1.28993E-03-2.27934E-14
 -1       485 8.15895E-03-1.16430E-03-2.27895E-14
 -1       486 1.23974E-03-3.55983E-04-9.76365E-16
 -1       487 1.52644E-03-3.90402E-04-1.46206E-15
 -1       488 1.81207E-03-4.12195E-04-2.04596E-15
 -1       489 2.09644E-03-4.24648E-04-2.72697E-15
 -1       490 2.37897E-03-4.30997E-04-3.50323E-15
 -1       491 2.65841E-03-4.34964E-04-4.37244E-15
 -1       492 2.91913E-03-4.41089E-04-5.28345E-15
 -1       493 3.18594E-03-4.57194E-04-6.33121E-15
 -1       494 3.44274E-03-4.94560E-04-7.46823E-15
 -1       495 3.69182E-03-5.71802E-04-8.69220E-15
 -1       496 3.91730E-03-7.02547E-04-9.86459E-15
 -1       497 5.22386E-03 1.19967E-04-1.39385E-14
 -1       498 8.56120E-03-1.25307E-03-2.31086E-14
 -1       499 1.05615E-03 3.84698E-04-5.15040E-16
 -1       500 8.39727E-03-1.37828E-03-2.33782E-14
 -1       501 8.66977E-03-1.43282E-03-2.56391E-14
 -1       502 8.93712E-03-1.55380E-03-2.79578E-14
 -1       503 9.20947E-03-1.71186E-03-3.03334E-14
 -1       504 9.48835E-03-1.88977E-03-3.27568E-14
 -1       505 9.75775E-03-2.06801E-03-3.51020E-14
 -1       506 1.00441E-02-2.25990E-03-3.76196E-14
 -1       507 1.03319E-02-2.45317E-03-4.01919E-14
 -1       508 1.06200E-02-2.64632E-03-4.28142E-14
 -1       509 1.09081E-02-2.83872E-03-4.54821E-14
 -1       510 1.11814E-02-3.02058E-03-4.80651E-14
 -1       511 1.14688E-02-3.21106E-03-5.08179E-14
 -1       512 1.17558E-02-3.40064E-03-5.36042E-14
 -1       513 1.20425E-02-3.58944E-03-5.64282E-14
 -1       514 1.23289E-02-3.77757E-03-5.92874E-14
 -1       515 1.26151E-02-3.96515E-03-6.21827E-14
 -1       516 1.28869E-02-4.14294E-03-6.49632E-14
 -1       517 1.31728E-02-4.32973E-03-6.79276E-14
 -1       518 1.34586E-02-4.51622E-03-7.09349E-14
 -1       519 1.37444E-02-4.70248E-03-7.39842E-14
 -1       520 1.40302E-02-4.88856E-03-7.70649E-14
 -1       521 1.43159E-02-5.07450E-03-8.01875E-14
 -1       522 1.45873E-02-5.25105E-03-8.31776E-14
 -1       523 1.48730E-02-5.43681E-03-8.63383E-14
 -1       524 1.51587E-02-5.62252E-03-8.95104E-14
 -1       525 1.54444E-02-5.80820E-03-9.26850E-14
 -1       526 1.56403E-02-5.94485E-03-9.53493E-14
 -1       527 1.51011E-03 4.35881E-04-1.17312E-15
 -1       528 1.28314E-03 4.15678E-04-8.10458E-16
 -1       529 2.08175E-03 4.89085E-04-2.30051E-15
 -1       530 2.36788E-03 5.06938E-04-3.01026E-15
 -1       531 2.65458E-03 5.22285E-04-3.81759E-15
 -1       532 2.94171E-03 5.36688E-04-4.72131E-15
 -1       533 3.22874E-03 5.50721E-04-5.72065E-15
 -1       534 3.51480E-03 5.63645E-04-6.81365E-15
 -1       535 3.79867E-03 5.73056E-04-8.00055E-15
 -1       536 4.07908E-03 5.74674E-04-9.28382E-15
 -1       537 4.35505E-03 5.62546E-04-1.06640E-14
 -1       538 4.62644E-03 5.29863E-04-1.21396E-14
 -1       539 4.89428E-03 4.70432E-04-1.37115E-14
 -1       540 5.16071E-03 3.80378E-04-1.53798E-14
 -1       541 5.42835E-03 2.59356E-04-1.71437E-14
 -1       542 5.69953E-03 1.10691E-04-1.90051E-14
 -1       543 5.97551E-03-5.96518E-05-2.09620E-14
 -1       544 6.25641E-03-2.44710E-04-2.30099E-14
 -1       545 6.54142E-03-4.38039E-04-2.51423E-14
 -1       546 6.82931E-03-6.34634E-04-2.73542E-14
 -1       547 7.11887E-03-8.31191E-04-2.96414E-14
 -1       548 7.40911E-03-1.02591E-03-3.20009E-14
 -1       549 7.69936E-03-1.21812E-03-3.44280E-14
 -1       550 7.98922E-03-1.40782E-03-3.69192E-14
 -1       551 8.27851E-03-1.59541E-03-3.94741E-14
 -1       552 8.56717E-03-1.78139E-03-4.20872E-14
 -1       553 8.85525E-03-1.96628E-03-4.47520E-14
 -1       554 9.14280E-03-2.15050E-03-4.74606E-14
 -1       555 9.42990E-03-2.33441E-03-5.02131E-14
 -1       556 9.71664E-03-2.51823E-03-5.30152E-14
 -1       557 1.00031E-02-2.70213E-03-5.58635E-14
 -1       558 1.02893E-02-2.88618E-03-5.87576E-14
 -1       559 1.05754E-02-3.07044E-03-6.16957E-14
 -1       560 1.08613E-02-3.25492E-03-6.46732E-14
 -1       561 1.11472E-02-3.43960E-03-6.77013E-14
 -1       562 1.14329E-02-3.62447E-03-7.07720E-14
 -1       563 1.17187E-02-3.80949E-03-7.38825E-14
 -1       564 1.20044E-02-3.99464E-03-7.70244E-14
 -1       565 1.22901E-02-4.17989E-03-8.01915E-14
 -1       566 1.25758E-02-4.36523E-03-8.33728E-14
 -1       567 1.28615E-02-4.55061E-03-8.65751E-14
 -1       568 1.31472E-02-4.73603E-03-8.97964E-14
 -1       569 1.34329E-02-4.92147E-03-9.30466E-14
 -1       570 1.40406E-02-5.20553E-03-9.36746E-14
 -1       571 1.42230E-02-5.28984E-03-9.38267E-14
 -1       572 1.36791E-02-5.03836E-03-9.34029E-14
 -1       573 1.38599E-02-5.12194E-03-9.35349E-14
 -1       574 1.44054E-02-5.37414E-03-9.39914E-14
 -1       575 1.45878E-02-5.45845E-03-9.41699E-14
 -1       576 1.47703E-02-5.54276E-03-9.43593E-14
 -1       577 1.49497E-02-5.62564E-03-9.45532E-14
 -1       578 1.51323E-02-5.70994E-03-9.47504E-14
 -1       579 1.53149E-02-5.79425E-03-9.49518E-14
 -1       580 1.54776E-02-5.86955E-03-9.51491E-14
 -1       581 7.72698E-03-1.02195E-03-2.21858E-14
 -1       582 7.08627E-04-2.37763E-04-3.46850E-16
 -1       583 1.79598E-03 4.66398E-04-1.68808E-15
 -1       584 6.58088E-04-3.66126E-05-3.90367E-16
 -1       585 6.70430E-03-4.67760E-04-1.95201E-14
 -1       586 4.79488E-03-8.43634E-06-1.24758E-14
 -1       587 5.47941E-03 1.33962E-04-1.49302E-14
 -1       588 3.89947E-03-7.50652E-04-1.03728E-14
 -1       589 4.41975E-03-1.78645E-04-1.15474E-14
 -1       590 4.00337E-03-3.55671E-04-1.07192E-14
 -1       591 3.67766E-03-4.68053E-04-1.01407E-14
 -1       592 3.41847E-03-5.68655E-04-9.77872E-15
 -1       593 6.29495E-03-2.04735E-04-1.81522E-14
 -1       594 8.30191E-03-1.36916E-03-2.23132E-14
 -1       595 8.45080E-03-1.22811E-03-2.30365E-14
 -1       596 6.75348E-04-1.50642E-04-3.77275E-16
 -1       597 3.69235E-03-6.32753E-04-9.75088E-15
 -1       598 4.11924E-03-8.58356E-04-1.06751E-14
 -1       599 6.89325E-04-1.90914E-04-3.65959E-16
 -1       600 5.64441E-03 1.07437E-04-1.56985E-14
 -1       601 3.47985E-03-4.84251E-04-9.40308E-15
 -1       602 8.94409E-04 6.49376E-05-6.46652E-16
 -1       603 8.90142E-04 1.85532E-05-6.60259E-16
 -1       604 9.11487E-04 1.66830E-04-5.99523E-16
 -1       605 9.26057E-04 2.25302E-04-5.62122E-16
 -1       606 9.47460E-04 2.90610E-04-5.11882E-16
 -1       607 9.99943E-04 3.36375E-04-5.16890E-16
 -1       608 1.35428E-03-3.10476E-04-1.25178E-15
 -1       609 1.63774E-03-3.37167E-04-1.79302E-15
 -1       610 1.91887E-03-3.54747E-04-2.43035E-15
 -1       611 2.19595E-03-3.66288E-04-3.16261E-15
 -1       612 2.46658E-03-3.75240E-04-3.98734E-15
 -1       613 2.71454E-03-3.85131E-04-4.85506E-15
 -1       614 2.96128E-03-4.02168E-04-5.85661E-15
 -1       615 3.18709E-03-4.32797E-04-6.94773E-15
 -1       616 3.38451E-03-4.85997E-04-8.12665E-15
 -1       617 2.49777E-03 4.37181E-04-3.52722E-15
 -1       618 8.96168E-04-1.16273E-04-6.68255E-16
 -1       619 1.08436E-03-2.74162E-04-8.27575E-16
 -1       620 8.63993E-03-1.32155E-03-2.44550E-14
 -1       621 1.33934E-02-4.85291E-03-9.01597E-14
 -1       622 8.81328E-03-1.44798E-03-2.67393E-14
 -1       623 9.03582E-03-1.59044E-03-2.90746E-14
 -1       624 9.27928E-03-1.75556E-03-3.14631E-14
 -1       625 9.52525E-03-1.92494E-03-3.37771E-14
 -1       626 9.79476E-03-2.11063E-03-3.62605E-14
 -1       627 1.00713E-02-2.30011E-03-3.87974E-14
 -1       628 1.03521E-02-2.49108E-03-4.13885E-14
 -1       629 1.06355E-02-2.68231E-03-4.40288E-14
 -1       630 1.09059E-02-2.86365E-03-4.65788E-14
 -1       631 1.11914E-02-3.05392E-03-4.93111E-14
 -1       632 1.14772E-02-3.24348E-03-5.20765E-14
 -1       633 1.17631E-02-3.43236E-03-5.48804E-14
 -1       634 1.20491E-02-3.62062E-03-5.77183E-14
 -1       635 1.23350E-02-3.80833E-03-6.05911E-14
 -1       636 1.26066E-02-3.98624E-03-6.33564E-14
 -1       637 1.28925E-02-4.17315E-03-6.63034E-14
 -1       638 1.31783E-02-4.35974E-03-6.92900E-14
 -1       639 1.34641E-02-4.54608E-03-7.23134E-14
 -1       640 1.37499E-02-4.73222E-03-7.53741E-14
 -1       641 1.40356E-02-4.91821E-03-7.84687E-14
 -1       642 1.43071E-02-5.09479E-03-8.14412E-14
 -1       643 1.45928E-02-5.28058E-03-8.45964E-14
 -1       644 1.48785E-02-5.46631E-03-8.77609E-14
 -1       645 1.51642E-02-5.65200E-03-9.09357E-14
 -1       646 1.53209E-02-5.76078E-03-9.30440E-14
 -1       647 2.79024E-03 4.50491E-04-4.39091E-15
 -1       648 2.20688E-03 4.22463E-04-2.75934E-15
 -1       649 3.08431E-03 4.63749E-04-5.35038E-15
 -1       650 3.37956E-03 4.77318E-04-6.40372E-15
 -1       651 3.67500E-03 4.90109E-04-7.54987E-15
 -1       652 3.96903E-03 4.99068E-04-8.79151E-15
 -1       653 4.25983E-03 4.98844E-04-1.01279E-14
 -1       654 4.54600E-03 4.82071E-04-1.15589E-14
 -1       655 4.82738E-03 4.40628E-04-1.30852E-14
 -1       656 5.10559E-03 3.67903E-04-1.47099E-14
 -1       657 5.38353E-03 2.61019E-04-1.64338E-14
 -1       658 5.66425E-03 1.21989E-04-1.82529E-14
 -1       659 5.94966E-03-4.30560E-05-2.01677E-14
 -1       660 6.23995E-03-2.26008E-04-2.21766E-14
 -1       661 6.53390E-03-4.19050E-04-2.42707E-14
 -1       662 6.82973E-03-6.16108E-04-2.64468E-14
 -1       663 7.12577E-03-8.13256E-04-2.87001E-14
 -1       664 7.42087E-03-1.00844E-03-3.10260E-14
 -1       665 7.71445E-03-1.20091E-03-3.34196E-14
 -1       666 8.00639E-03-1.39073E-03-3.58782E-14
 -1       667 8.29680E-03-1.57831E-03-3.84023E-14
 -1       668 8.58594E-03-1.76422E-03-4.09875E-14
 -1       669 8.87410E-03-1.94900E-03-4.36278E-14
 -1       670 9.16151E-03-2.13310E-03-4.63133E-14
 -1       671 9.44838E-03-2.31687E-03-4.90451E-14
 -1       672 9.73488E-03-2.50055E-03-5.18218E-14
 -1       673 1.00211E-02-2.68431E-03-5.46451E-14
 -1       674 1.03072E-02-2.86824E-03-5.75148E-14
 -1       675 1.05931E-02-3.05239E-03-6.04266E-14
 -1       676 1.08790E-02-3.23677E-03-6.33760E-14
 -1       677 1.11648E-02-3.42137E-03-6.63731E-14
 -1       678 1.14505E-02-3.60616E-03-6.94147E-14
 -1       679 1.17363E-02-3.79113E-03-7.24962E-14
 -1       680 1.20220E-02-3.97623E-03-7.56076E-14
 -1       681 1.23077E-02-4.16145E-03-7.87504E-14
 -1       682 1.25934E-02-4.34676E-03-8.19157E-14
 -1       683 1.28792E-02-4.53213E-03-8.51006E-14
 -1       684 1.31363E-02-4.69251E-03-8.76261E-14
 -1       685 1.42492E-02-5.25561E-03-9.12895E-14
 -1       686 8.05730E-03-1.49040E-03-2.19332E-14
 -1       687 1.38844E-02-5.08705E-03-9.09554E-14
 -1       688 1.44316E-02-5.33990E-03-9.14762E-14
 -1       689 1.40667E-02-5.17133E-03-9.11154E-14
 -1       690 1.46110E-02-5.42276E-03-9.16715E-14
 -1       691 1.47936E-02-5.50704E-03-9.18825E-14
 -1       692 1.49762E-02-5.59134E-03-9.20907E-14
 -1       693 7.44687E-03-9.44130E-04-2.26865E-14
 -1       694 3.45891E-03-5.47043E-04-9.21653E-15
 -1       695 8.37865E-03-1.26612E-03-2.41518E-14
 -1       696 5.31660E-03 1.53151E-04-1.43349E-14
 -1       697 8.55699E-03-1.33181E-03-2.39186E-14
 -1       698 6.98611E-03-6.88820E-04-2.12486E-14
 -1       699 5.99402E-03-4.99827E-05-1.73091E-14
 -1       700 3.77082E-03-3.80128E-04-9.78082E-15
 -1       701 3.36570E-03-5.10254E-04-9.11627E-15
 -1       702 4.50361E-03-6.32710E-05-1.13541E-14
 -1       703 4.12155E-03-2.32683E-04-1.04151E-14
 -1       704 9.01375E-04 1.13905E-04-6.26855E-16
 -1       705 8.85663E-04-2.35540E-04-5.73777E-16
 -1       706 8.02889E-03-1.18666E-03-2.39872E-14
 -1       707 4.96037E-03 1.10448E-04-1.28694E-14
 -1       708 6.44975E-03-3.42382E-04-1.92480E-14
 -1       709 8.57455E-03-1.30356E-03-2.44588E-14
 -1       710 8.88705E-04-2.62310E-05-6.68390E-16
 -1       711 1.91727E-03 4.04298E-04-2.08688E-15
 -1       712 9.06449E-04-1.65193E-04-6.58097E-16
 -1       713 8.90511E-04-7.05786E-05-6.71253E-16
 -1       714 1.32235E-03 3.51698E-04-9.91388E-16
 -1       715 1.37036E-02-5.00347E-03-9.08057E-14
 -1       716 6.15956E-03-1.69441E-04-1.83731E-14
 -1       717 1.51485E-02-5.67606E-03-9.25682E-14
 -1       718 3.33524E-03-4.91470E-04-8.57224E-15
 -1       719 5.46690E-03 1.46720E-04-1.50788E-14
 -1       720 3.53795E-03-4.12013E-04-9.05756E-15
 -1       721 1.62854E-03 3.80142E-04-1.51050E-15
 -1       722 1.18328E-03 2.99345E-04-8.43140E-16
 -1       723 1.16287E-03 2.29461E-04-8.99502E-16
 -1       724 1.47125E-03-2.64387E-04-1.54458E-15
 -1       725 2.93159E-03 3.73528E-04-4.97855E-15
 -1       726 1.75033E-03-2.85791E-04-2.13835E-15
 -1       727 2.02557E-03-3.01867E-04-2.82651E-15
 -1       728 2.29414E-03-3.15798E-04-3.60686E-15
 -1       729 2.53985E-03-3.30438E-04-4.43229E-15
 -1       730 2.78394E-03-3.51660E-04-5.38900E-15
 -1       731 3.00664E-03-3.83961E-04-6.43545E-15
 -1       732 1.20469E-03-2.36862E-04-1.06882E-15
 -1       733 2.63259E-03 3.62717E-04-4.05923E-15
 -1       734 9.06597E-03-1.63495E-03-3.01680E-14
 -1       735 9.28563E-03-1.78998E-03-3.24477E-14
 -1       736 9.53522E-03-1.96439E-03-3.48966E-14
 -1       737 9.79767E-03-2.14599E-03-3.73977E-14
 -1       738 1.00687E-02-2.33175E-03-3.99536E-14
 -1       739 1.03452E-02-2.51966E-03-4.25654E-14
 -1       740 1.06113E-02-2.69901E-03-4.50880E-14
 -1       741 1.08935E-02-2.88802E-03-4.77900E-14
 -1       742 1.11772E-02-3.07686E-03-5.05339E-14
 -1       743 1.14617E-02-3.26535E-03-5.33170E-14
 -1       744 1.17468E-02-3.45341E-03-5.61369E-14
 -1       745 1.20321E-02-3.64106E-03-5.89849E-14
 -1       746 1.23034E-02-3.81895E-03-6.17296E-14
 -1       747 1.25890E-02-4.00587E-03-6.46608E-14
 -1       748 1.28747E-02-4.19250E-03-6.76296E-14
 -1       749 1.31604E-02-4.37888E-03-7.06292E-14
 -1       750 1.34461E-02-4.56506E-03-7.36652E-14
 -1       751 1.37319E-02-4.75108E-03-7.67350E-14
 -1       752 1.40033E-02-4.92769E-03-7.96840E-14
 -1       753 1.42891E-02-5.11350E-03-8.28227E-14
 -1       754 1.45748E-02-5.29924E-03-8.59836E-14
 -1       755 1.48605E-02-5.48493E-03-8.91554E-14
 -1       756 1.46374E-02-5.38843E-03-8.92276E-14
 -1       757 8.56363E-03-1.35924E-03-2.58089E-14
 -1       758 2.33674E-03 3.51607E-04-3.23461E-15
 -1       759 3.53913E-03 3.98771E-04-7.09756E-15
 -1       760 3.84577E-03 4.12367E-04-8.29687E-15
 -1       761 4.15140E-03 4.22387E-04-9.59033E-15
 -1       762 4.45321E-03 4.21813E-04-1.09769E-14
 -1       763 4.74917E-03 4.00891E-04-1.24590E-14
 -1       764 5.03961E-03 3.49322E-04-1.40395E-14
 -1       765 5.32746E-03 2.60107E-04-1.57186E-14
 -1       766 5.61699E-03 1.32603E-04-1.74985E-14
 -1       767 5.91155E-03-2.71686E-05-1.93731E-14
 -1       768 6.21193E-03-2.09215E-04-2.13415E-14
 -1       769 6.51648E-03-4.03327E-04-2.33991E-14
 -1       770 6.82244E-03-6.01678E-04-2.55397E-14
 -1       771 7.12723E-03-7.99537E-04-2.77605E-14
 -1       772 7.42922E-03-9.94730E-04-3.00545E-14
 -1       773 7.72775E-03-1.18672E-03-3.24158E-14
 -1       774 8.02292E-03-1.37582E-03-3.48445E-14
 -1       775 8.31523E-03-1.56266E-03-3.73355E-14
 -1       776 8.60529E-03-1.74790E-03-3.98931E-14
 -1       777 8.89374E-03-1.93214E-03-4.25067E-14
 -1       778 9.18107E-03-2.11583E-03-4.51716E-14
 -1       779 9.46768E-03-2.29929E-03-4.78793E-14
 -1       780 9.75384E-03-2.48275E-03-5.06357E-14
 -1       781 1.00398E-02-2.66635E-03-5.34354E-14
 -1       782 1.03255E-02-2.85016E-03-5.62798E-14
 -1       783 1.06112E-02-3.03421E-03-5.91688E-14
 -1       784 1.08969E-02-3.21852E-03-6.20933E-14
 -1       785 1.11826E-02-3.40305E-03-6.50624E-14
 -1       786 1.14683E-02-3.58780E-03-6.80758E-14
 -1       787 1.17540E-02-3.77272E-03-7.11286E-14
 -1       788 1.20397E-02-3.95780E-03-7.42121E-14
 -1       789 1.23254E-02-4.14299E-03-7.73246E-14
 -1       790 1.26111E-02-4.32828E-03-8.04694E-14
 -1       791 1.28968E-02-4.51364E-03-8.36437E-14
 -1       792 1.40929E-02-5.13706E-03-8.86072E-14
 -1       793 3.23393E-03 3.85408E-04-5.99116E-15
 -1       794 7.82962E-03-1.14847E-03-2.49152E-14
 -1       795 8.94716E-04-1.99260E-04-6.17860E-16
 -1       796 3.79726E-03-2.61954E-04-9.25118E-15
 -1       797 1.44548E-02-5.30416E-03-8.90117E-14
 -1       798 7.21596E-03-8.43421E-04-2.30686E-14
 -1       799 5.11376E-03 1.78476E-04-1.35455E-14
 -1       800 8.29640E-03-1.30694E-03-2.56326E-14
 -1       801 8.86090E-03-1.48812E-03-2.78205E-14
 -1       802 3.32707E-03-4.50600E-04-8.50116E-15
 -1       803 5.73772E-03 6.37151E-05-1.63938E-14
 -1       804 4.18055E-03-9.76752E-05-1.01511E-14
 -1       805 6.65765E-03-5.02398E-04-2.07675E-14
 -1       806 4.62225E-03 7.88884E-05-1.15325E-14
 -1       807 1.12912E-03 4.79019E-05-9.98347E-16
 -1       808 1.42739E-02-5.22061E-03-8.88025E-14
 -1       809 8.70742E-03-1.38925E-03-2.61223E-14
 -1       810 1.14788E-03 1.64979E-04-9.42693E-16
 -1       811 2.04353E-03 3.38302E-04-2.50451E-15
 -1       812 3.19953E-03-4.33109E-04-7.56985E-15
 -1       813 1.13872E-03-1.66707E-04-1.01382E-15
 -1       814 1.12481E-03-6.41442E-06-1.01370E-15
 -1       815 1.43187E-03 2.96809E-04-1.26888E-15
 -1       816 1.48098E-02-5.47313E-03-8.97048E-14
 -1       817 1.31539E-02-4.67401E-03-8.61561E-14
 -1       818 1.37281E-02-4.96855E-03-8.82558E-14
 -1       819 1.34464E-02-4.84305E-03-8.82766E-14
 -1       820 3.24436E-03-4.43642E-04-8.03363E-15
 -1       821 1.35873E-02-4.90580E-03-8.82645E-14
 -1       822 1.39105E-02-5.05280E-03-8.84259E-14
 -1       823 1.12881E-03-1.11995E-04-1.02202E-15
 -1       824 5.90157E-03-2.68225E-05-1.74209E-14
 -1       825 4.78636E-03 1.75995E-04-1.21600E-14
 -1       826 1.13680E-03 1.04568E-04-9.75189E-16
 -1       827 3.55924E-03-3.05615E-04-8.55073E-15
 -1       828 5.25431E-03 1.88371E-04-1.42585E-14
 -1       829 6.37735E-03-3.25170E-04-1.98525E-14
 -1       830 1.75244E-03 3.20595E-04-1.86879E-15
 -1       831 1.59104E-03-2.18171E-04-1.85310E-15
 -1       832 1.86635E-03-2.36643E-04-2.49676E-15
 -1       833 2.13672E-03-2.53698E-04-3.23281E-15
 -1       834 2.38623E-03-2.71516E-04-4.01554E-15
 -1       835 2.63772E-03-2.95656E-04-4.92757E-15
 -1       836 2.87340E-03-3.29540E-04-5.92988E-15
 -1       837 9.04228E-03-1.67386E-03-3.11908E-14
 -1       838 2.77083E-03 2.82611E-04-4.60588E-15
 -1       839 1.12446E-03-5.92082E-05-1.02169E-15
 -1       840 3.32467E-03-3.74679E-04-8.02229E-15
 -1       841 9.27908E-03-1.83463E-03-3.36056E-14
 -1       842 9.53095E-03-2.00584E-03-3.60728E-14
 -1       843 9.79370E-03-2.18412E-03-3.85940E-14
 -1       844 1.00640E-02-2.36684E-03-4.11728E-14
 -1       845 1.03257E-02-2.54284E-03-4.36700E-14
 -1       846 1.06046E-02-2.72950E-03-4.63480E-14
 -1       847 1.08858E-02-2.91682E-03-4.90692E-14
 -1       848 1.11686E-02-3.10434E-03-5.18342E-14
 -1       849 1.14525E-02-3.29181E-03-5.46325E-14
 -1       850 1.17371E-02-3.47908E-03-5.74628E-14
 -1       851 1.20078E-02-3.65677E-03-6.01873E-14
 -1       852 1.22930E-02-3.84357E-03-6.30981E-14
 -1       853 1.25785E-02-4.03012E-03-6.60494E-14
 -1       854 1.28640E-02-4.21647E-03-6.90277E-14
 -1       855 1.31497E-02-4.40264E-03-7.20432E-14
 -1       856 1.34354E-02-4.58866E-03-7.50913E-14
 -1       857 1.37068E-02-4.76527E-03-7.80198E-14
 -1       858 1.39925E-02-4.95108E-03-8.11391E-14
 -1       859 1.42782E-02-5.13683E-03-8.42861E-14
 -1       860 4.02500E-03 3.31314E-04-9.05281E-15
 -1       861 3.70539E-03 3.14880E-04-7.80212E-15
 -1       862 4.65699E-03 3.46684E-04-1.18323E-14
 -1       863 4.96215E-03 3.21342E-04-1.33679E-14
 -1       864 5.26160E-03 2.56052E-04-1.50034E-14
 -1       865 5.56006E-03 1.44468E-04-1.67402E-14
 -1       866 5.86360E-03-9.16423E-06-1.85769E-14
 -1       867 6.17464E-03-1.92130E-04-2.05071E-14
 -1       868 6.49137E-03-3.89968E-04-2.25286E-14
 -1       869 6.80958E-03-5.91615E-04-2.46342E-14
 -1       870 7.12523E-03-7.91024E-04-2.68210E-14
 -1       871 7.43582E-03-9.86045E-04-2.90842E-14
 -1       872 7.74053E-03-1.17675E-03-3.14165E-14
 -1       873 8.03973E-03-1.36411E-03-3.38155E-14
 -1       874 8.33437E-03-1.54920E-03-3.62767E-14
 -1       875 8.62557E-03-1.73295E-03-3.88028E-14
 -1       876 8.91436E-03-1.91602E-03-4.13896E-14
 -1       877 9.20158E-03-2.09885E-03-4.40301E-14
 -1       878 9.48783E-03-2.28173E-03-4.67212E-14
 -1       879 9.77354E-03-2.46482E-03-4.94543E-14
 -1       880 1.00590E-02-2.64818E-03-5.22340E-14
 -1       881 1.03444E-02-2.83185E-03-5.50567E-14
 -1       882 1.06297E-02-3.01583E-03-5.79207E-14
 -1       883 1.09152E-02-3.20008E-03-6.08221E-14
 -1       884 1.12006E-02-3.38459E-03-6.37671E-14
 -1       885 1.14862E-02-3.56932E-03-6.67546E-14
 -1       886 1.17718E-02-3.75424E-03-6.97799E-14
 -1       887 1.20574E-02-3.93930E-03-7.28377E-14
 -1       888 1.23431E-02-4.12449E-03-7.59212E-14
 -1       889 1.26288E-02-4.30977E-03-7.90423E-14
 -1       890 1.29145E-02-4.49513E-03-8.21930E-14
 -1       891 3.38864E-03 3.00846E-04-6.64484E-15
 -1       892 1.56265E-03 2.40752E-04-1.59459E-15
 -1       893 8.73838E-03-1.45453E-03-2.74962E-14
 -1       894 8.23576E-03-1.33564E-03-2.71462E-14
 -1       895 3.07693E-03 2.90386E-04-5.57845E-15
 -1       896 8.52375E-03-1.41271E-03-2.73091E-14
 -1       897 3.82064E-03-1.21881E-04-8.86729E-15
 -1       898 7.60401E-03-1.05905E-03-2.54212E-14
 -1       899 6.89030E-03-6.54576E-04-2.25241E-14
 -1       900 3.08741E-03-3.77828E-04-7.02071E-15
 -1       901 4.34356E-03 3.45224E-04-1.03952E-14
 -1       902 2.46990E-03 2.75754E-04-3.72577E-15
 -1       903 1.42987E-02-5.18552E-03-8.63686E-14
 -1       904 4.24859E-03 5.98259E-05-1.00973E-14
 -1       905 8.88162E-03-1.55926E-03-2.93260E-14
 -1       906 5.50677E-03 1.41836E-04-1.55267E-14
 -1       907 1.35363E-03 2.02835E-04-1.24871E-15
 -1       908 6.11757E-03-1.63203E-04-1.88555E-14
 -1       909 2.17327E-03 2.67803E-04-2.94003E-15
 -1       910 1.46061E-02-5.34384E-03-8.76018E-14
 -1       911 1.36664E-03 2.05077E-05-1.42311E-15
 -1       912 3.19856E-03-3.85719E-04-7.57517E-15
 -1       913 1.31716E-02-4.65550E-03-8.46958E-14
 -1       914 1.35719E-02-4.85003E-03-8.55814E-14
 -1       915 1.34310E-02-4.78731E-03-8.55795E-14
 -1       916 1.85225E-03 2.50887E-04-2.19305E-15
 -1       917 5.66375E-03 8.41729E-05-1.65148E-14
 -1       918 4.41980E-03 1.65526E-04-1.06726E-14
 -1       919 1.57708E-03-1.55077E-04-1.86624E-15
 -1       920 8.02811E-03-1.27347E-03-2.76661E-14
 -1       921 1.41177E-02-5.10200E-03-8.61571E-14
 -1       922 7.28462E-03-8.88493E-04-2.48463E-14
 -1       923 4.93382E-03 2.11241E-04-1.28284E-14
 -1       924 6.61920E-03-4.83995E-04-2.15678E-14
 -1       925 3.59042E-03-1.76425E-04-8.18764E-15
 -1       926 1.37473E-03 8.35128E-05-1.39813E-15
 -1       927 1.37543E-02-4.93426E-03-8.57600E-14
 -1       928 1.39360E-02-5.01812E-03-8.59522E-14
 -1       929 1.34156E-02-4.73149E-03-8.29342E-14
 -1       930 2.60419E-03 1.94257E-04-4.23286E-15
 -1       931 1.98946E-03-1.88694E-04-2.86569E-15
 -1       932 2.24498E-03-2.07071E-04-3.60573E-15
 -1       933 2.50723E-03-2.31181E-04-4.47308E-15
 -1       934 2.76056E-03-2.63383E-04-5.43076E-15
 -1       935 5.30691E-03 2.05112E-04-1.47696E-14
 -1       936 1.57166E-03-9.24034E-05-1.86654E-15
 -1       937 5.49415E-03 1.58263E-04-1.59804E-14
 -1       938 9.00047E-03-1.70762E-03-3.22646E-14
 -1       939 9.24898E-03-1.86799E-03-3.46969E-14
 -1       940 9.50784E-03-2.03775E-03-3.71852E-14
 -1       941 9.77436E-03-2.21411E-03-3.97261E-14
 -1       942 1.00328E-02-2.38573E-03-4.21937E-14
 -1       943 1.03089E-02-2.56912E-03-4.48427E-14
 -1       944 1.05880E-02-2.75419E-03-4.75439E-14
 -1       945 1.08691E-02-2.94019E-03-5.02861E-14
 -1       946 1.11518E-02-3.12664E-03-5.30677E-14
 -1       947 1.14354E-02-3.31324E-03-5.58794E-14
 -1       948 1.17055E-02-3.49051E-03-5.85803E-14
 -1       949 1.19903E-02-3.67701E-03-6.14688E-14
 -1       950 1.22754E-02-3.86338E-03-6.43996E-14
 -1       951 1.25607E-02-4.04961E-03-6.73625E-14
 -1       952 1.28462E-02-4.23571E-03-7.03557E-14
 -1       953 1.31318E-02-4.42168E-03-7.33845E-14
 -1       954 1.34032E-02-4.59827E-03-7.62954E-14
 -1       955 1.36888E-02-4.78407E-03-7.93907E-14
 -1       956 1.39746E-02-4.96980E-03-8.25194E-14
 -1       957 3.87522E-03 2.25838E-04-8.51640E-15
 -1       958 5.80758E-03 1.44035E-05-1.77769E-14
 -1       959 6.13013E-03-1.71328E-04-1.96708E-14
 -1       960 6.46117E-03-3.77064E-04-2.16571E-14
 -1       961 6.79410E-03-5.85551E-04-2.37293E-14
 -1       962 7.12290E-03-7.88361E-04-2.58853E-14
 -1       963 7.44362E-03-9.83438E-04-2.81160E-14
 -1       964 7.75524E-03-1.17206E-03-3.04208E-14
 -1       965 8.05866E-03-1.35646E-03-3.27923E-14
 -1       966 8.35553E-03-1.53858E-03-3.52250E-14
 -1       967 8.64762E-03-1.71977E-03-3.77211E-14
 -1       968 8.93647E-03-1.90087E-03-4.02785E-14
 -1       969 9.22329E-03-2.08230E-03-4.28945E-14
 -1       970 9.50895E-03-2.26423E-03-4.55640E-14
 -1       971 9.79402E-03-2.44673E-03-4.82782E-14
 -1       972 1.00789E-02-2.62976E-03-5.10383E-14
 -1       973 1.03637E-02-2.81326E-03-5.38410E-14
 -1       974 1.06486E-02-2.99716E-03-5.66804E-14
 -1       975 1.09337E-02-3.18140E-03-5.95601E-14
 -1       976 1.12189E-02-3.36593E-03-6.24818E-14
 -1       977 1.15043E-02-3.55069E-03-6.54448E-14
 -1       978 1.17897E-02-3.73563E-03-6.84481E-14
 -1       979 1.20753E-02-3.92072E-03-7.14832E-14
 -1       980 1.23609E-02-4.10592E-03-7.45418E-14
 -1       981 1.26465E-02-4.29122E-03-7.76387E-14
 -1       982 1.29322E-02-4.47659E-03-8.07650E-14
 -1       983 3.54520E-03 2.09436E-04-7.30869E-15
 -1       984 3.29423E-03-2.82727E-04-7.49177E-15
 -1       985 2.90986E-03 1.96039E-04-5.16666E-15
 -1       986 8.58786E-03-1.49391E-03-2.92235E-14
 -1       987 3.00268E-03-3.07397E-04-6.47720E-15
 -1       988 3.22321E-03 2.00173E-04-6.19200E-15
 -1       989 1.46771E-03-3.44793E-05-1.64072E-15
 -1       990 3.84804E-03 3.54929E-05-8.63619E-15
 -1       991 1.36290E-03 1.42304E-04-1.32708E-15
 -1       992 1.67148E-03 1.77420E-04-1.89378E-15
 -1       993 1.78410E-03-1.71805E-04-2.33995E-15
 -1       994 2.30468E-03 1.92314E-04-3.39262E-15
 -1       995 4.21000E-03 2.48602E-04-9.81416E-15
 -1       996 3.15082E-03-3.10445E-04-7.06703E-15
 -1       997 4.02589E-03 1.37128E-04-9.16395E-15
 -1       998 1.35973E-02-4.81532E-03-8.31204E-14
 -1       999 3.63425E-03-2.47878E-05-7.97269E-15
 -1      1000 7.72589E-03-1.13227E-03-2.71918E-14
 -1      1001 1.37936E-02-4.88632E-03-8.23127E-14
 -1      1002 6.91003E-03-6.63186E-04-2.35695E-14
 -1      1003 8.40833E-03-1.45596E-03-2.97578E-14
 -1      1004 1.64073E-03 1.33943E-05-1.97784E-15
 -1      1005 1.95936E-03 1.79133E-04-2.53614E-15
 -1      1006 1.31739E-02-4.60403E-03-8.18494E-14
 -1      1007 1.65141E-03 8.35687E-05-1.94726E-15
 -1      1008 6.36231E-03-3.19255E-04-2.04146E-14
 -1      1009 2.38203E-03-1.59746E-04-4.02712E-15
 -1      1010 2.65104E-03-1.87219E-04-4.93898E-15
 -1      1011 1.77940E-03-1.06833E-04-2.34052E-15
 -1      1012 3.24939E-03-1.65019E-04-6.95443E-15
 -1      1013 9.21198E-03-1.89392E-03-3.57876E-14
 -1      1014 9.47901E-03-2.06429E-03-3.82949E-14
 -1      1015 9.73681E-03-2.23138E-03-4.07277E-14
 -1      1016 1.00117E-02-2.41113E-03-4.33475E-14
 -1      1017 1.02895E-02-2.59352E-03-4.60232E-14
 -1      1018 1.05695E-02-2.77759E-03-4.87474E-14
 -1      1019 1.08511E-02-2.96267E-03-5.15091E-14
 -1      1020 1.11339E-02-3.14831E-03-5.43021E-14
 -1      1021 1.14034E-02-3.32494E-03-5.69864E-14
 -1      1022 1.16877E-02-3.51098E-03-5.98504E-14
 -1      1023 1.19725E-02-3.69702E-03-6.27570E-14
 -1      1024 1.22576E-02-3.88303E-03-6.56997E-14
 -1      1025 1.25429E-02-4.06897E-03-6.86798E-14
 -1      1026 1.28283E-02-4.25485E-03-7.16916E-14
 -1      1027 1.30996E-02-4.43137E-03-7.45885E-14
 -1      1028 1.33853E-02-4.61712E-03-7.76642E-14
 -1      1029 1.35894E-02-4.75173E-03-7.99794E-14
 -1      1030 7.25062E-03-8.67249E-04-2.57249E-14
 -1      1031 7.57813E-03-1.05845E-03-2.79545E-14
 -1      1032 7.89205E-03-1.24115E-03-3.02554E-14
 -1      1033 8.19547E-03-1.41963E-03-3.26220E-14
 -1      1034 8.49102E-03-1.59678E-03-3.50509E-14
 -1      1035 8.78132E-03-1.77423E-03-3.75413E-14
 -1      1036 9.06836E-03-1.95274E-03-4.00924E-14
 -1      1037 9.35356E-03-2.13251E-03-4.26988E-14
 -1      1038 9.63785E-03-2.31349E-03-4.53620E-14
 -1      1039 9.92183E-03-2.49551E-03-4.80763E-14
 -1      1040 1.02058E-02-2.67837E-03-5.08335E-14
 -1      1041 1.04900E-02-2.86188E-03-5.36283E-14
 -1      1042 1.07745E-02-3.04591E-03-5.64584E-14
 -1      1043 1.10592E-02-3.23031E-03-5.93312E-14
 -1      1044 1.13441E-02-3.41501E-03-6.22434E-14
 -1      1045 1.16293E-02-3.59992E-03-6.52001E-14
 -1      1046 1.19146E-02-3.78500E-03-6.81915E-14
 -1      1047 1.22001E-02-3.97020E-03-7.12165E-14
 -1      1048 1.24857E-02-4.15549E-03-7.42698E-14
 -1      1049 1.27713E-02-4.34086E-03-7.73548E-14
 -1      1050 1.29726E-02-4.47244E-03-7.95944E-14
 -1      1051 2.91683E-03-2.23633E-04-5.94046E-15
 -1      1052 3.69856E-03 1.10494E-04-7.98315E-15
 -1      1053 1.74048E-03-4.80755E-05-2.23324E-15
 -1      1054 3.04572E-03 1.02363E-04-5.74206E-15
 -1      1055 2.73650E-03 1.06765E-04-4.75589E-15
 -1      1056 4.66198E-03 2.55490E-04-1.17045E-14
 -1      1057 3.36575E-03 1.02022E-04-6.81813E-15
 -1      1058 8.95018E-03-1.73110E-03-3.33361E-14
 -1      1059 1.78013E-03 1.10123E-04-2.20223E-15
 -1      1060 8.10692E-03-1.33213E-03-2.93749E-14
 -1      1061 8.68488E-03-1.59314E-03-3.15318E-14
 -1      1062 2.12344E-03-1.39468E-04-3.24486E-15
 -1      1063 1.36954E-02-4.85082E-03-8.27104E-14
 -1      1064 1.89245E-03 4.54895E-05-2.52384E-15
 -1      1065 2.43542E-03 1.11697E-04-3.86284E-15
 -1      1066 1.98862E-03-2.20140E-05-2.81773E-15
 -1      1067 1.32591E-02-4.61274E-03-8.03145E-14
 -1      1068 7.83634E-03-1.20052E-03-2.88957E-14
 -1      1069 1.95200E-03-1.22461E-04-2.77486E-15
 -1      1070 2.10499E-03 1.12848E-04-2.97514E-15
 -1      1071 3.17266E-03 1.33216E-06-6.32928E-15
 -1      1072 9.17474E-03-1.91413E-03-3.68791E-14
 -1      1073 2.93096E-03-1.22140E-04-5.76381E-15
 -1      1074 8.40160E-03-1.48390E-03-3.11384E-14
 -1      1075 8.90219E-03-1.74743E-03-3.44027E-14
 -1      1076 9.43512E-03-2.07776E-03-3.92805E-14
 -1      1077 9.71113E-03-2.25432E-03-4.18649E-14
 -1      1078 9.98909E-03-2.43412E-03-4.45066E-14
 -1      1079 1.02688E-02-2.61618E-03-4.72063E-14
 -1      1080 1.05499E-02-2.79974E-03-4.99510E-14
 -1      1081 1.08323E-02-2.98425E-03-5.27278E-14
 -1      1082 1.11013E-02-3.16007E-03-5.53968E-14
 -1      1083 1.13852E-02-3.34549E-03-5.82391E-14
 -1      1084 1.16697E-02-3.53109E-03-6.11231E-14
 -1      1085 1.19545E-02-3.71677E-03-6.40465E-14
 -1      1086 1.22396E-02-3.90248E-03-6.70105E-14
 -1      1087 1.25250E-02-4.08819E-03-7.00098E-14
 -1      1088 1.27962E-02-4.26459E-03-7.28865E-14
 -1      1089 1.30817E-02-4.45026E-03-7.59503E-14
 -1      1090 8.22868E-03-1.41928E-03-3.15982E-14
 -1      1091 8.52256E-03-1.59042E-03-3.40011E-14
 -1      1092 8.81064E-03-1.76312E-03-3.64660E-14
 -1      1093 9.09534E-03-1.93820E-03-3.89897E-14
 -1      1094 9.37847E-03-2.11569E-03-4.15705E-14
 -1      1095 9.66103E-03-2.29525E-03-4.42073E-14
 -1      1096 9.94362E-03-2.47648E-03-4.69008E-14
 -1      1097 1.02265E-02-2.65896E-03-4.96411E-14
 -1      1098 1.05099E-02-2.84236E-03-5.24193E-14
 -1      1099 1.07937E-02-3.02642E-03-5.52307E-14
 -1      1100 1.10780E-02-3.21094E-03-5.80779E-14
 -1      1101 1.13626E-02-3.39578E-03-6.09674E-14
 -1      1102 1.16476E-02-3.58083E-03-6.38999E-14
 -1      1103 1.19327E-02-3.76604E-03-6.68703E-14
 -1      1104 1.22181E-02-3.95135E-03-6.98748E-14
 -1      1105 1.25036E-02-4.13673E-03-7.29112E-14
 -1      1106 1.27891E-02-4.32217E-03-7.59758E-14
 -1      1107 2.86264E-03 1.34210E-05-5.29304E-15
 -1      1108 1.33572E-02-4.64820E-03-7.99077E-14
 -1      1109 2.53691E-03-1.05469E-04-4.45650E-15
 -1      1110 1.96823E-03-7.35826E-05-2.80012E-15
 -1      1111 2.27066E-03-8.54649E-05-3.63317E-15
 -1      1112 1.32859E-02-4.58483E-03-7.82528E-14
 -1      1113 8.65570E-03-1.61616E-03-3.27577E-14
 -1      1114 1.30241E-02-4.46743E-03-7.81385E-14
 -1      1115 2.19884E-03 3.94870E-05-3.30500E-15
 -1      1116 2.56254E-03 2.62459E-05-4.34900E-15
 -1      1117 9.12591E-03-1.92336E-03-3.78948E-14
 -1      1118 1.34679E-02-4.69548E-03-7.98339E-14
 -1      1119 9.68561E-03-2.27489E-03-4.30068E-14
 -1      1120 9.96616E-03-2.45528E-03-4.56728E-14
 -1      1121 1.02476E-02-2.63743E-03-4.83947E-14
 -1      1122 1.05299E-02-2.82081E-03-5.11551E-14
 -1      1123 1.07988E-02-2.99578E-03-5.38077E-14
 -1      1124 1.10825E-02-3.18050E-03-5.66344E-14
 -1      1125 1.13668E-02-3.36556E-03-5.94974E-14
 -1      1126 1.16514E-02-3.55084E-03-6.24026E-14
 -1      1127 1.19364E-02-3.73624E-03-6.53479E-14
 -1      1128 1.22216E-02-3.92172E-03-6.83336E-14
 -1      1129 1.24928E-02-4.09797E-03-7.11967E-14
 -1      1130 1.27783E-02-4.28351E-03-7.42420E-14
 -1      1131 8.58609E-03-1.60401E-03-3.33795E-14
 -1      1132 8.88871E-03-1.76631E-03-3.52947E-14
 -1      1133 1.30677E-02-4.46584E-03-7.70636E-14
 -1      1134 9.40582E-03-2.09694E-03-4.03970E-14
 -1      1135 0.00000E+00 0.00000E+00 0.00000E+00
 -1      1136 0.00000E+00 0.00000E+00 0.00000E+00
 -1      1137 0.00000E+00 0.00000E+00 0.00000E+00
 -1      1138 0.00000E+00 0.00000E+00 0.00000E+00
 -1      1139 0.00000E+00 0.00000E+00 0.00000E+00
 -1      1140 0.00000E+00 0.00000E+00 0.00000E+00
 -1      1141 0.00000E+00 0.00000E+00 0.00000E+00
 -1      1142 0.00000E+00 0.00000E+00 0.00000E+00
 -1      1143 0.00000E+00 0.00000E+00 0.00000E+00
 -1      1144 0.00000E+00 0.00000E+00 0.00000E+00
 -1      1145 0.00000E+00 0.00000E+00 0.00000E+00
 -1      1146 0.00000E+00 0.00000E+00 0.00000E+00
 -1      1147 0.00000E+00 0.00000E+00 0.00000E+00
 -1      1148 0.00000E+00 0.00000E+00 0.00000E+00
 -1      1149 0.00000E+00 0.00000E+00 0.00000E+00
 -1      1150 0.00000E+00 0.00000E+00 0.00000E+00
 -1      1151 0.00000E+00 0.00000E+00 0.00000E+00
 -1      1152 2.01921E-04-1.41662E-04 1.02322E-17
 -1      1153 5.36060E-04-3.24821E-04-3.11030E-17
 -1      1154 8.20550E-04-4.43685E-04-1.70559E-16
 -1      1155 1.09381E-03-5.21478E-04-4.24289E-16
 -1      1156 1.36473E-03-5.73824E-04-7.87239E-16
 -1      1157 1.63092E-03-6.08010E-04-1.24325E-15
 -1      1158 1.90224E-03-6.29995E-04-1.79784E-15
 -1      1159 2.18885E-03-6.43208E-04-2.46736E-15
 -1      1160 2.48752E-03-6.50064E-04-3.23618E-15
 -1      1161 2.80329E-03-6.54289E-04-4.10567E-15
 -1      1162 3.14332E-03-6.61637E-04-5.07188E-15
 -1      1163 3.50763E-03-6.81710E-04-6.10173E-15
 -1      1164 3.91560E-03-7.32578E-04-7.21877E-15
 -1      1165 4.38965E-03-8.50488E-04-8.45491E-15
 -1      1166 4.91801E-03-1.08576E-03-9.78525E-15
 -1      1167 5.43703E-03-1.45886E-03-1.11489E-14
 -1      1168 5.85479E-03-1.89833E-03-1.24736E-14
 -1      1169 6.17480E-03-2.33157E-03-1.39438E-14
 -1      1170 6.39899E-03-2.55697E-03-1.55685E-14
 -1      1171 6.63122E-03-2.45866E-03-1.73042E-14
 -1      1172 7.00251E-03-2.14561E-03-1.92486E-14
 -1      1173 7.50660E-03-1.84285E-03-2.13419E-14
 -1      1174 8.04454E-03-1.68883E-03-2.35157E-14
 -1      1175 8.54980E-03-1.68199E-03-2.57570E-14
 -1      1176 9.01207E-03-1.77527E-03-2.81170E-14
 -1      1177 9.42190E-03-1.92395E-03-3.05306E-14
 -1      1178 9.79154E-03-2.09937E-03-3.29884E-14
 -1      1179 1.01329E-02-2.28655E-03-3.54879E-14
 -1      1180 1.04471E-02-2.47345E-03-3.79747E-14
 -1      1181 1.07492E-02-2.66152E-03-4.05055E-14
 -1      1182 1.10507E-02-2.85423E-03-4.31438E-14
 -1      1183 1.13466E-02-3.04617E-03-4.58327E-14
 -1      1184 1.16388E-02-3.23716E-03-4.85700E-14
 -1      1185 1.19215E-02-3.42250E-03-5.12705E-14
 -1      1186 1.22026E-02-3.60705E-03-5.40023E-14
 -1      1187 1.24899E-02-3.79562E-03-5.68417E-14
 -1      1188 1.27764E-02-3.98359E-03-5.97124E-14
 -1      1189 1.30626E-02-4.17105E-03-6.26060E-14
 -1      1190 1.33485E-02-4.35810E-03-6.55344E-14
 -1      1191 1.36270E-02-4.54016E-03-6.84302E-14
 -1      1192 1.39055E-02-4.72195E-03-7.13630E-14
 -1      1193 1.41910E-02-4.90819E-03-7.44203E-14
 -1      1194 1.44766E-02-5.09427E-03-7.75265E-14
 -1      1195 1.47621E-02-5.28021E-03-8.06677E-14
 -1      1196 1.50477E-02-5.46604E-03-8.38403E-14
 -1      1197 1.53261E-02-5.64717E-03-8.69470E-14
 -1      1198 1.56046E-02-5.82825E-03-9.00348E-14
 -1      1199 1.58903E-02-6.01394E-03-9.32092E-14
 -1      1200 1.61759E-02-6.19961E-03-9.63772E-14
 -1      1201 1.64616E-02-6.38530E-03-9.95147E-14
 -1      1202 1.67402E-02-6.56635E-03-1.02571E-13
 -1      1203 2.27895E-04 1.59606E-04 2.65901E-17
 -1      1204 5.53655E-04 3.38222E-04 1.71304E-17
 -1      1205 8.35855E-04 4.54325E-04-8.12610E-17
 -1      1206 1.10800E-03 5.32999E-04-2.81052E-16
 -1      1207 1.37689E-03 5.88389E-04-5.81349E-16
 -1      1208 1.64603E-03 6.28322E-04-9.82057E-16
 -1      1209 1.91703E-03 6.57744E-04-1.48353E-15
 -1      1210 2.19032E-03 6.80187E-04-2.08533E-15
 -1      1211 2.46554E-03 6.98304E-04-2.78900E-15
 -1      1212 2.74162E-03 7.13991E-04-3.59264E-15
 -1      1213 3.01689E-03 7.28287E-04-4.49567E-15
 -1      1214 3.28921E-03 7.41157E-04-5.49606E-15
 -1      1215 3.55614E-03 7.51233E-04-6.59063E-15
 -1      1216 3.81539E-03 7.55620E-04-7.78098E-15
 -1      1217 4.06527E-03 7.49943E-04-9.07199E-15
 -1      1218 4.30535E-03 7.28777E-04-1.04624E-14
 -1      1219 4.53683E-03 6.86524E-04-1.19484E-14
 -1      1220 4.76262E-03 6.18594E-04-1.35303E-14
 -1      1221 4.98693E-03 5.22530E-04-1.52054E-14
 -1      1222 5.21440E-03 3.98683E-04-1.69761E-14
 -1      1223 5.44908E-03 2.50133E-04-1.88432E-14
 -1      1224 5.69366E-03 8.19140E-05-2.08085E-14
 -1      1225 5.94914E-03-1.00140E-04-2.28648E-14
 -1      1226 6.21498E-03-2.90497E-04-2.50089E-14
 -1      1227 6.48957E-03-4.84679E-04-2.72361E-14
 -1      1228 6.77083E-03-6.79556E-04-2.95350E-14
 -1      1229 7.05662E-03-8.73284E-04-3.19050E-14
 -1      1230 7.34510E-03-1.06503E-03-3.43449E-14
 -1      1231 7.63488E-03-1.25465E-03-3.68544E-14
 -1      1232 7.92497E-03-1.44238E-03-3.94269E-14
 -1      1233 8.21479E-03-1.62863E-03-4.20588E-14
 -1      1234 8.50401E-03-1.81383E-03-4.47348E-14
 -1      1235 8.79254E-03-1.99839E-03-4.74515E-14
 -1      1236 9.08038E-03-2.18259E-03-5.02215E-14
 -1      1237 9.36762E-03-2.36668E-03-5.30358E-14
 -1      1238 9.65435E-03-2.55080E-03-5.58951E-14
 -1      1239 9.94070E-03-2.73503E-03-5.88170E-14
 -1      1240 1.02268E-02-2.91944E-03-6.17916E-14
 -1      1241 1.05126E-02-3.10402E-03-6.47948E-14
 -1      1242 1.07983E-02-3.28879E-03-6.78505E-14
 -1      1243 1.10840E-02-3.47371E-03-7.09532E-14
 -1      1244 1.13696E-02-3.65878E-03-7.41026E-14
 -1      1245 1.16552E-02-3.84395E-03-7.72823E-14
 -1      1246 1.19408E-02-4.02922E-03-8.04783E-14
 -1      1247 1.22264E-02-4.21456E-03-8.36979E-14
 -1      1248 1.25120E-02-4.39995E-03-8.69293E-14
 -1      1249 1.27977E-02-4.58537E-03-9.01693E-14
 -1      1250 1.30833E-02-4.77080E-03-9.34425E-14
 -1      1251 1.33690E-02-4.95622E-03-9.67475E-14
 -1      1252 1.36476E-02-5.13701E-03-9.99872E-14
 -1      1253 1.38745E-02-5.26722E-03-1.01606E-13
 -1      1254 1.40568E-02-5.35150E-03-1.01720E-13
 -1      1255 1.42391E-02-5.43580E-03-1.01821E-13
 -1      1256 1.44214E-02-5.52012E-03-1.01920E-13
 -1      1257 1.46037E-02-5.60446E-03-1.02032E-13
 -1      1258 1.47845E-02-5.68810E-03-1.02159E-13
 -1      1259 1.49653E-02-5.77175E-03-1.02304E-13
 -1      1260 1.51477E-02-5.85613E-03-1.02441E-13
 -1      1261 1.53302E-02-5.94052E-03-1.02589E-13
 -1      1262 1.55126E-02-6.02491E-03-1.02709E-13
 -1      1263 1.56952E-02-6.10929E-03-1.02842E-13
 -1      1264 1.58762E-02-6.19295E-03-1.03008E-13
 -1      1265 1.60572E-02-6.27660E-03-1.03174E-13
 -1      1266 1.62398E-02-6.36094E-03-1.03340E-13
 -1      1267 1.64225E-02-6.44526E-03-1.03525E-13
 -1      1268 1.66051E-02-6.52956E-03-1.03725E-13
 -1      1269 1.67862E-02-6.61313E-03-1.03958E-13
 -1      1270 8.44019E-03-1.00295E-03-1.99976E-14
 -1      1271 8.22496E-03-8.30651E-04-1.97816E-14
 -1      1272 7.91594E-03-6.54204E-04-1.93704E-14
 -1      1273 7.53065E-03-4.73080E-04-1.87847E-14
 -1      1274 7.07524E-03-2.90329E-04-1.80267E-14
 -1      1275 6.60713E-03-1.37315E-04-1.71951E-14
 -1      1276 6.11845E-03-2.26521E-05-1.62901E-14
 -1      1277 5.63708E-03 3.95387E-05-1.53905E-14
 -1      1278 5.16585E-03 4.01632E-05-1.45218E-14
 -1      1279 4.69886E-03-1.53688E-05-1.36883E-14
 -1      1280 4.29900E-03-1.07035E-04-1.30097E-14
 -1      1281 3.94294E-03-2.30774E-04-1.24347E-14
 -1      1282 3.66002E-03-3.74728E-04-1.19946E-14
 -1      1283 3.48997E-03-5.27778E-04-1.17353E-14
 -1      1284 3.44286E-03-6.90651E-04-1.16592E-14
 -1      1285 3.52206E-03-8.69393E-04-1.17544E-14
 -1      1286 3.72734E-03-1.08396E-03-1.20234E-14
 -1      1287 4.04757E-03-1.33546E-03-1.24539E-14
 -1      1288 4.46355E-03-1.61847E-03-1.30271E-14
 -1      1289 4.95585E-03-1.90773E-03-1.37250E-14
 -1      1290 5.50123E-03-2.15229E-03-1.45233E-14
 -1      1291 6.09985E-03-2.29629E-03-1.54346E-14
 -1      1292 6.69744E-03-2.28959E-03-1.63926E-14
 -1      1293 7.22268E-03-2.15677E-03-1.72797E-14
 -1      1294 7.67776E-03-1.95753E-03-1.80850E-14
 -1      1295 8.05832E-03-1.73596E-03-1.88051E-14
 -1      1296 8.33985E-03-1.52457E-03-1.93914E-14
 -1      1297 8.50038E-03-1.33425E-03-1.97967E-14
 -1      1298 8.53152E-03-1.16352E-03-1.99963E-14
 -1      1299 1.58745E-04-1.03775E-04-5.24483E-18
 -1      1300 1.13066E-04-5.53153E-05-2.37847E-17
 -1      1301 1.18005E-04-6.60398E-05-1.86889E-17
 -1      1302 1.08935E-04-4.15525E-05-3.20382E-17
 -1      1303 1.10841E-04-4.77541E-05-2.96258E-17
 -1      1304 2.27530E-04-1.04036E-04-6.94974E-17
 -1      1305 1.07154E-04-3.16371E-05-3.62530E-17
 -1      1306 1.08114E-04-3.63293E-05-3.50875E-17
 -1      1307 2.20066E-04-7.85461E-05-8.40528E-17
 -1      1308 1.06104E-04-2.35990E-05-3.87467E-17
 -1      1309 1.06674E-04-2.74738E-05-3.82181E-17
 -1      1310 2.16303E-04-5.94922E-05-9.21707E-17
 -1      1311 1.05450E-04-1.67958E-05-3.97089E-17
 -1      1312 1.05797E-04-2.01155E-05-3.95869E-17
 -1      1313 2.14030E-04-4.40142E-05-9.65347E-17
 -1      1314 1.05052E-04-1.05485E-05-4.01426E-17
 -1      1315 1.05253E-04-1.36291E-05-4.01968E-17
 -1      1316 2.12598E-04-3.05759E-05-9.84049E-17
 -1      1317 1.04873E-04-4.64712E-06-4.01019E-17
 -1      1318 1.04951E-04-7.58964E-06-4.02239E-17
 -1      1319 2.11776E-04-1.82254E-05-9.90283E-17
 -1      1320 1.04878E-04 1.18112E-06-3.96818E-17
 -1      1321 1.04854E-04-1.75403E-06-3.99393E-17
 -1      1322 2.11460E-04-6.43464E-06-9.86488E-17
 -1      1323 1.05048E-04 7.16767E-06-3.87467E-17
 -1      1324 1.04931E-04 4.12768E-06-3.90177E-17
 -1      1325 2.11574E-04 5.32336E-06-9.71310E-17
 -1      1326 1.05377E-04 1.35231E-05-3.73237E-17
 -1      1327 1.05166E-04 1.02722E-05-3.76760E-17
 -1      1328 2.12072E-04 1.75002E-05-9.45289E-17
 -1      1329 1.05885E-04 2.03452E-05-3.52501E-17
 -1      1330 1.05559E-04 1.68306E-05-3.59006E-17
 -1      1331 2.12946E-04 3.04094E-05-9.07071E-17
 -1      1332 1.06687E-04 2.81570E-05-3.21466E-17
 -1      1333 1.06159E-04 2.40913E-05-3.32037E-17
 -1      1334 2.14286E-04 4.46271E-05-8.52725E-17
 -1      1335 1.08035E-04 3.73364E-05-2.75929E-17
 -1      1336 1.07113E-04 3.24914E-05-2.94225E-17
 -1      1337 2.16382E-04 6.09913E-05-7.74120E-17
 -1      1338 1.10659E-04 4.89769E-05-2.00442E-17
 -1      1339 1.08795E-04 4.26908E-05-2.32561E-17
 -1      1340 2.19936E-04 8.06915E-05-6.55265E-17
 -1      1341 1.17281E-04 6.65498E-05-8.13152E-18
 -1      1342 1.12584E-04 5.65556E-05-1.39456E-17
 -1      1343 2.27186E-04 1.06809E-04-4.75694E-17
 -1      1344 1.57601E-04 1.08920E-04 1.05168E-17
 -1      1345 1.35979E-04 8.50375E-05-1.01644E-18
 -1      1346 2.56853E-04 1.49723E-04-2.58582E-17
 -1      1347 3.35318E-04 2.18384E-04 5.12286E-18
 -1      1348 4.06441E-04-2.49178E-04-4.29751E-17
 -1      1349 5.60715E-04-3.23313E-04-8.95280E-17
 -1      1350 7.09341E-04-3.82524E-04-1.65856E-16
 -1      1351 8.54193E-04-4.30090E-04-2.69682E-16
 -1      1352 5.99807E-04-3.16552E-04-1.56356E-16
 -1      1353 9.96194E-04-4.69100E-04-3.99664E-16
 -1      1354 1.13639E-03-5.00771E-04-5.56589E-16
 -1      1355 8.96330E-04-4.13518E-04-3.71543E-16
 -1      1356 1.27571E-03-5.26943E-04-7.40171E-16
 -1      1357 1.41475E-03-5.48147E-04-9.50534E-16
 -1      1358 1.18337E-03-4.78086E-04-6.91328E-16
 -1      1359 1.54714E-03-5.64597E-04-1.17427E-15
 -1      1360 1.68016E-03-5.77807E-04-1.42106E-15
 -1      1361 1.45972E-03-5.19999E-04-1.10347E-15
 -1      1362 1.82131E-03-5.88734E-04-1.70587E-15
 -1      1363 1.96394E-03-5.97024E-04-2.01620E-15
 -1      1364 1.73654E-03-5.46903E-04-1.61344E-15
 -1      1365 2.10848E-03-6.02983E-04-2.35139E-15
 -1      1366 2.25533E-03-6.07117E-04-2.71201E-15
 -1      1367 2.02405E-03-5.62810E-04-2.23571E-15
 -1      1368 2.40496E-03-6.09625E-04-3.09692E-15
 -1      1369 2.55791E-03-6.11167E-04-3.50636E-15
 -1      1370 2.31802E-03-5.69985E-04-2.95758E-15
 -1      1371 2.71476E-03-6.11986E-04-3.94068E-15
 -1      1372 2.87625E-03-6.13039E-04-4.39920E-15
 -1      1373 2.62150E-03-5.71524E-04-3.77710E-15
 -1      1374 3.04314E-03-6.14885E-04-4.88196E-15
 -1      1375 3.21640E-03-6.19041E-04-5.38743E-15
 -1      1376 2.93808E-03-5.71582E-04-4.69352E-15
 -1      1377 3.38771E-03-6.26375E-04-5.88832E-15
 -1      1378 3.56658E-03-6.39136E-04-6.41044E-15
 -1      1379 3.26358E-03-5.76998E-04-5.67686E-15
 -1      1380 3.76385E-03-6.61421E-04-6.98172E-15
 -1      1381 3.97129E-03-6.96815E-04-7.57520E-15
 -1      1382 3.61044E-03-6.00158E-04-6.74638E-15
 -1      1383 4.18951E-03-7.50931E-04-8.19264E-15
 -1      1384 4.41842E-03-8.30424E-04-8.83366E-15
 -1      1385 3.99398E-03-6.67008E-04-7.93336E-15
 -1      1386 4.65762E-03-9.42970E-04-9.49825E-15
 -1      1387 4.90414E-03-1.09620E-03-1.01882E-14
 -1      1388 4.41164E-03-8.20707E-04-9.21270E-15
 -1      1389 5.13049E-03-1.27225E-03-1.08344E-14
 -1      1390 5.35432E-03-1.48478E-03-1.15048E-14
 -1      1391 4.84399E-03-1.10091E-03-1.05206E-14
 -1      1392 5.55009E-03-1.69724E-03-1.21239E-14
 -1      1393 5.73517E-03-1.92095E-03-1.27659E-14
 -1      1394 5.25624E-03-1.49123E-03-1.17782E-14
 -1      1395 5.93902E-03-2.17627E-03-1.35584E-14
 -1      1396 6.12525E-03-2.38199E-03-1.43800E-14
 -1      1397 5.68595E-03-1.98430E-03-1.31737E-14
 -1      1398 6.27793E-03-2.50068E-03-1.51419E-14
 -1      1399 6.42888E-03-2.53472E-03-1.59308E-14
 -1      1400 6.10711E-03-2.39630E-03-1.47202E-14
 -1      1401 6.60014E-03-2.47861E-03-1.68399E-14
 -1      1402 6.78958E-03-2.34836E-03-1.77784E-14
 -1      1403 6.51204E-03-2.47583E-03-1.63783E-14
 -1      1404 6.99786E-03-2.17414E-03-1.87430E-14
 -1      1405 7.22230E-03-1.99716E-03-1.97345E-14
 -1      1406 6.95801E-03-2.20651E-03-1.82436E-14
 -1      1407 7.47184E-03-1.83453E-03-2.08042E-14
 -1      1408 7.72390E-03-1.71291E-03-2.18958E-14
 -1      1409 7.43943E-03-1.84003E-03-2.02720E-14
 -1      1410 7.96231E-03-1.64106E-03-2.29492E-14
 -1      1411 8.19405E-03-1.60799E-03-2.40208E-14
 -1      1412 7.90930E-03-1.60651E-03-2.23887E-14
 -1      1413 8.42941E-03-1.60880E-03-2.51665E-14
 -1      1414 8.65420E-03-1.63841E-03-2.63282E-14
 -1      1415 8.34510E-03-1.54482E-03-2.45808E-14
 -1      1416 8.86846E-03-1.68943E-03-2.75039E-14
 -1      1417 9.07253E-03-1.75609E-03-2.86930E-14
 -1      1418 8.75570E-03-1.60872E-03-2.68953E-14
 -1      1419 9.26723E-03-1.83356E-03-2.98951E-14
 -1      1420 9.45365E-03-1.91843E-03-3.11099E-14
 -1      1421 9.13493E-03-1.74551E-03-2.92659E-14
 -1      1422 9.63277E-03-2.00827E-03-3.23369E-14
 -1      1423 9.80571E-03-2.10121E-03-3.35732E-14
 -1      1424 9.48894E-03-1.91800E-03-3.16881E-14
 -1      1425 9.97335E-03-2.19625E-03-3.48221E-14
 -1      1426 1.01366E-02-2.29234E-03-3.60817E-14
 -1      1427 9.82344E-03-2.10607E-03-3.41573E-14
 -1      1428 1.02883E-02-2.38433E-03-3.72906E-14
 -1      1429 1.04372E-02-2.47644E-03-3.85103E-14
 -1      1430 1.01355E-02-2.29505E-03-3.66091E-14
 -1      1431 1.05914E-02-2.57356E-03-3.98050E-14
 -1      1432 1.07436E-02-2.67048E-03-4.11116E-14
 -1      1433 1.04375E-02-2.48534E-03-3.91069E-14
 -1      1434 1.08941E-02-2.76728E-03-4.24301E-14
 -1      1435 1.10431E-02-2.86376E-03-4.37604E-14
 -1      1436 1.07398E-02-2.68007E-03-4.17170E-14
 -1      1437 1.11910E-02-2.96003E-03-4.51034E-14
 -1      1438 1.13379E-02-3.05596E-03-4.64573E-14
 -1      1439 1.10368E-02-2.87366E-03-4.43746E-14
 -1      1440 1.14841E-02-3.15166E-03-4.78226E-14
 -1      1441 1.16296E-02-3.24705E-03-4.91999E-14
 -1      1442 1.13302E-02-3.06596E-03-4.70798E-14
 -1      1443 1.17674E-02-3.33747E-03-5.05136E-14
 -1      1444 1.19047E-02-3.42765E-03-5.18340E-14
 -1      1445 1.16138E-02-3.25228E-03-4.97568E-14
 -1      1446 1.20490E-02-3.52238E-03-5.32338E-14
 -1      1447 1.21930E-02-3.61690E-03-5.46423E-14
 -1      1448 1.18957E-02-3.43759E-03-5.24675E-14
 -1      1449 1.23367E-02-3.71124E-03-5.60598E-14
 -1      1450 1.24802E-02-3.80541E-03-5.74871E-14
 -1      1451 1.21837E-02-3.62676E-03-5.52806E-14
 -1      1452 1.26236E-02-3.89943E-03-5.89214E-14
 -1      1453 1.27669E-02-3.99331E-03-6.03611E-14
 -1      1454 1.24709E-02-3.81519E-03-5.81296E-14
 -1      1455 1.29100E-02-4.08706E-03-6.18092E-14
 -1      1456 1.30531E-02-4.18070E-03-6.32656E-14
 -1      1457 1.27575E-02-4.00301E-03-6.10119E-14
 -1      1458 1.31961E-02-4.27424E-03-6.47299E-14
 -1      1459 1.33390E-02-4.36769E-03-6.62027E-14
 -1      1460 1.30437E-02-4.19033E-03-6.39246E-14
 -1      1461 1.34748E-02-4.45639E-03-6.76124E-14
 -1      1462 1.36105E-02-4.54502E-03-6.90336E-14
 -1      1463 1.33226E-02-4.37259E-03-6.67981E-14
 -1      1464 1.37534E-02-4.63826E-03-7.05393E-14
 -1      1465 1.38962E-02-4.73143E-03-7.20517E-14
 -1      1466 1.36013E-02-4.55453E-03-6.97118E-14
 -1      1467 1.40390E-02-4.82455E-03-7.35794E-14
 -1      1468 1.41818E-02-4.91763E-03-7.51215E-14
 -1      1469 1.38870E-02-4.74089E-03-7.27422E-14
 -1      1470 1.43246E-02-5.01067E-03-7.66723E-14
 -1      1471 1.44674E-02-5.10367E-03-7.82308E-14
 -1      1472 1.41727E-02-4.92705E-03-7.58184E-14
 -1      1473 1.46102E-02-5.19663E-03-7.97986E-14
 -1      1474 1.47530E-02-5.28958E-03-8.13743E-14
 -1      1475 1.44583E-02-5.11305E-03-7.89312E-14
 -1      1476 1.48958E-02-5.38249E-03-8.29571E-14
 -1      1477 1.50386E-02-5.47539E-03-8.45434E-14
 -1      1478 1.47439E-02-5.29894E-03-8.20781E-14
 -1      1479 1.51743E-02-5.56363E-03-8.60532E-14
 -1      1480 1.53100E-02-5.65186E-03-8.75637E-14
 -1      1481 1.50224E-02-5.48009E-03-8.51668E-14
 -1      1482 1.54528E-02-5.74471E-03-8.91526E-14
 -1      1483 1.55956E-02-5.83756E-03-9.07344E-14
 -1      1484 1.53009E-02-5.66118E-03-8.82617E-14
 -1      1485 1.57384E-02-5.93041E-03-9.23197E-14
 -1      1486 1.58813E-02-6.02325E-03-9.39057E-14
 -1      1487 1.55866E-02-5.84688E-03-9.14351E-14
 -1      1488 1.60241E-02-6.11608E-03-9.54875E-14
 -1      1489 1.61670E-02-6.20892E-03-9.70636E-14
 -1      1490 1.58723E-02-6.03256E-03-9.46004E-14
 -1      1491 1.63098E-02-6.30176E-03-9.86354E-14
 -1      1492 1.64527E-02-6.39460E-03-1.00203E-13
 -1      1493 1.61580E-02-6.21823E-03-9.77553E-14
 -1      1494 1.66504E-02-6.52492E-03-1.02464E-13
 -1      1495 6.44402E-04 3.66561E-04-5.00359E-17
 -1      1496 4.93620E-04 2.99785E-04-1.00560E-17
 -1      1497 4.46043E-04 2.61981E-04-3.30953E-17
 -1      1498 9.31960E-04 4.63638E-04-2.04792E-16
 -1      1499 7.90007E-04 4.19538E-04-1.15156E-16
 -1      1500 7.47427E-04 3.83682E-04-1.43630E-16
 -1      1501 1.20962E-03 5.30717E-04-4.57913E-16
 -1      1502 1.07147E-03 5.00129E-04-3.18850E-16
 -1      1503 1.03567E-03 4.66384E-04-3.51607E-16
 -1      1504 1.48369E-03 5.78379E-04-8.10306E-16
 -1      1505 1.34679E-03 5.56568E-04-6.21614E-16
 -1      1506 1.31645E-03 5.24116E-04-6.57121E-16
 -1      1507 1.75735E-03 6.12910E-04-1.26258E-15
 -1      1508 1.62041E-03 5.97027E-04-1.02381E-15
 -1      1509 1.59416E-03 5.65286E-04-1.06101E-15
 -1      1510 2.03203E-03 6.38590E-04-1.81463E-15
 -1      1511 1.89450E-03 6.26667E-04-1.52607E-15
 -1      1512 1.87126E-03 5.95270E-04-1.56427E-15
 -1      1513 2.30808E-03 6.58602E-04-2.46760E-15
 -1      1514 2.16988E-03 6.49166E-04-2.12868E-15
 -1      1515 2.14885E-03 6.17905E-04-2.16714E-15
 -1      1516 2.58504E-03 6.75335E-04-3.22070E-15
 -1      1517 2.44648E-03 6.67292E-04-2.83145E-15
 -1      1518 2.42712E-03 6.36082E-04-2.87001E-15
 -1      1519 2.86188E-03 6.90383E-04-4.07314E-15
 -1      1520 2.72355E-03 6.83045E-04-3.63483E-15
 -1      1521 2.70561E-03 6.51906E-04-3.67234E-15
 -1      1522 3.13705E-03 7.04388E-04-5.02385E-15
 -1      1523 2.99978E-03 6.97567E-04-4.53634E-15
 -1      1524 2.98333E-03 6.66621E-04-4.57299E-15
 -1      1525 3.40868E-03 7.16776E-04-6.06982E-15
 -1      1526 3.27343E-03 7.10923E-04-5.53503E-15
 -1      1527 3.25888E-03 6.80392E-04-5.57024E-15
 -1      1528 3.67480E-03 7.25498E-04-7.21073E-15
 -1      1529 3.54255E-03 7.21827E-04-6.62834E-15
 -1      1530 3.53068E-03 6.92018E-04-6.66189E-15
 -1      1531 3.93376E-03 7.26903E-04-8.44916E-15
 -1      1532 3.80527E-03 7.27427E-04-7.81748E-15
 -1      1533 3.79718E-03 6.98700E-04-7.84950E-15
 -1      1534 4.18466E-03 7.15938E-04-9.78685E-15
 -1      1535 4.06025E-03 7.23322E-04-9.10527E-15
 -1      1536 4.05723E-03 6.96031E-04-9.13470E-15
 -1      1537 4.42779E-03 6.86793E-04-1.12216E-14
 -1      1538 4.30714E-03 7.03974E-04-1.04921E-14
 -1      1539 4.31051E-03 6.78379E-04-1.05185E-14
 -1      1540 4.66485E-03 6.33984E-04-1.27542E-14
 -1      1541 4.54693E-03 6.63589E-04-1.19765E-14
 -1      1542 4.55777E-03 6.39775E-04-1.19993E-14
 -1      1543 4.89878E-03 5.53621E-04-1.43793E-14
 -1      1544 4.78199E-03 5.97333E-04-1.35549E-14
 -1      1545 4.80096E-03 5.75159E-04-1.35761E-14
 -1      1546 5.13328E-03 4.44425E-04-1.61004E-14
 -1      1547 5.01571E-03 5.02529E-04-1.52281E-14
 -1      1548 5.04292E-03 4.81642E-04-1.52464E-14
 -1      1549 5.37201E-03 3.08101E-04-1.79170E-14
 -1      1550 5.25189E-03 3.79393E-04-1.69962E-14
 -1      1551 5.28683E-03 3.59301E-04-1.70127E-14
 -1      1552 5.61786E-03 1.48889E-04-1.98290E-14
 -1      1553 5.49389E-03 2.30993E-04-1.88604E-14
 -1      1554 5.53556E-03 2.11179E-04-1.88738E-14
 -1      1555 5.87247E-03-2.74784E-05-2.18397E-14
 -1      1556 5.74400E-03 6.24616E-05-2.08227E-14
 -1      1557 5.79107E-03 4.24893E-05-2.08333E-14
 -1      1558 6.13612E-03-2.15020E-04-2.39342E-14
 -1      1559 6.00318E-03-1.20200E-04-2.28766E-14
 -1      1560 6.05421E-03-1.40624E-04-2.28838E-14
 -1      1561 6.40800E-03-4.08503E-04-2.61171E-14
 -1      1562 6.27111E-03-3.11287E-04-2.50160E-14
 -1      1563 6.32475E-03-3.32299E-04-2.50201E-14
 -1      1564 6.68659E-03-6.03999E-04-2.83792E-14
 -1      1565 6.54657E-03-5.06177E-04-2.72390E-14
 -1      1566 6.60170E-03-5.27786E-04-2.72387E-14
 -1      1567 6.97014E-03-7.98985E-04-3.07087E-14
 -1      1568 6.82786E-03-7.01654E-04-2.95338E-14
 -1      1569 6.88365E-03-7.23783E-04-2.95318E-14
 -1      1570 7.25694E-03-9.92148E-04-3.31116E-14
 -1      1571 7.11324E-03-8.95833E-04-3.19025E-14
 -1      1572 7.16913E-03-9.18365E-04-3.18960E-14
 -1      1573 7.54560E-03-1.18305E-03-3.55826E-14
 -1      1574 7.40112E-03-1.08788E-03-3.43389E-14
 -1      1575 7.45682E-03-1.11069E-03-3.43302E-14
 -1      1576 7.83507E-03-1.37180E-03-3.81205E-14
 -1      1577 7.69029E-03-1.27768E-03-3.68432E-14
 -1      1578 7.74565E-03-1.30066E-03-3.68305E-14
 -1      1579 8.12462E-03-1.55878E-03-4.07172E-14
 -1      1580 7.97987E-03-1.46548E-03-3.94114E-14
 -1      1581 8.03487E-03-1.48855E-03-3.93935E-14
 -1      1582 8.41384E-03-1.74444E-03-4.33686E-14
 -1      1583 8.26929E-03-1.65174E-03-4.20369E-14
 -1      1584 8.32398E-03-1.67483E-03-4.20147E-14
 -1      1585 8.70251E-03-1.92923E-03-4.60630E-14
 -1      1586 8.55825E-03-1.83692E-03-4.47105E-14
 -1      1587 8.61270E-03-1.85998E-03-4.46846E-14
 -1      1588 8.99058E-03-2.11352E-03-4.88023E-14
 -1      1589 8.84662E-03-2.02142E-03-4.74275E-14
 -1      1590 8.90091E-03-2.04444E-03-4.73995E-14
 -1      1591 9.27807E-03-2.29759E-03-5.15945E-14
 -1      1592 9.13439E-03-2.20557E-03-5.01908E-14
 -1      1593 9.18858E-03-2.22854E-03-5.01616E-14
 -1      1594 9.56505E-03-2.48162E-03-5.44272E-14
 -1      1595 9.42162E-03-2.38960E-03-5.30056E-14
 -1      1596 9.47576E-03-2.41252E-03-5.29713E-14
 -1      1597 9.85162E-03-2.66574E-03-5.73125E-14
 -1      1598 9.70838E-03-2.57367E-03-5.58643E-14
 -1      1599 9.76252E-03-2.59654E-03-5.58291E-14
 -1      1600 1.01379E-02-2.85002E-03-6.02563E-14
 -1      1601 9.99478E-03-2.75786E-03-5.87771E-14
 -1      1602 1.00489E-02-2.78069E-03-5.87374E-14
 -1      1603 1.04239E-02-3.03449E-03-6.32384E-14
 -1      1604 1.02809E-02-2.94223E-03-6.17424E-14
 -1      1605 1.03351E-02-2.96503E-03-6.16936E-14
 -1      1606 1.07097E-02-3.21914E-03-6.62637E-14
 -1      1607 1.05668E-02-3.12679E-03-6.47448E-14
 -1      1608 1.06211E-02-3.14956E-03-6.46907E-14
 -1      1609 1.09955E-02-3.40397E-03-6.93352E-14
 -1      1610 1.08526E-02-3.31153E-03-6.77952E-14
 -1      1611 1.09069E-02-3.33428E-03-6.77370E-14
 -1      1612 1.12811E-02-3.58895E-03-7.24580E-14
 -1      1613 1.11383E-02-3.49644E-03-7.08912E-14
 -1      1614 1.11926E-02-3.51918E-03-7.08280E-14
 -1      1615 1.15668E-02-3.77407E-03-7.56154E-14
 -1      1616 1.14239E-02-3.68150E-03-7.40314E-14
 -1      1617 1.14783E-02-3.70423E-03-7.39595E-14
 -1      1618 1.18524E-02-3.95929E-03-7.87942E-14
 -1      1619 1.17096E-02-3.86667E-03-7.72021E-14
 -1      1620 1.17640E-02-3.88939E-03-7.71242E-14
 -1      1621 1.21380E-02-4.14460E-03-8.19987E-14
 -1      1622 1.19952E-02-4.05194E-03-8.03968E-14
 -1      1623 1.20496E-02-4.07466E-03-8.03105E-14
 -1      1624 1.24236E-02-4.32996E-03-8.52186E-14
 -1      1625 1.22808E-02-4.23728E-03-8.36067E-14
 -1      1626 1.23352E-02-4.25999E-03-8.35166E-14
 -1      1627 1.27093E-02-4.51537E-03-8.84493E-14
 -1      1628 1.25665E-02-4.42266E-03-8.68320E-14
 -1      1629 1.26209E-02-4.44538E-03-8.67353E-14
 -1      1630 1.29950E-02-4.70080E-03-9.17028E-14
 -1      1631 1.28521E-02-4.60808E-03-9.00715E-14
 -1      1632 1.29066E-02-4.63080E-03-8.99724E-14
 -1      1633 1.32807E-02-4.88623E-03-9.49864E-14
 -1      1634 1.31378E-02-4.79351E-03-9.33405E-14
 -1      1635 1.31923E-02-4.81623E-03-9.32367E-14
 -1      1636 1.35664E-02-5.07165E-03-9.82951E-14
 -1      1637 1.34235E-02-4.97894E-03-9.66384E-14
 -1      1638 1.34780E-02-5.00166E-03-9.65299E-14
 -1      1639 1.37388E-02-5.17915E-03-1.00036E-13
 -1      1640 1.39787E-02-5.29230E-03-1.00313E-13
 -1      1641 1.38875E-02-5.25015E-03-1.00258E-13
 -1      1642 1.41610E-02-5.37660E-03-1.00416E-13
 -1      1643 1.40698E-02-5.33445E-03-1.00365E-13
 -1      1644 1.39005E-02-5.23309E-03-9.89067E-14
 -1      1645 1.43433E-02-5.46092E-03-1.00525E-13
 -1      1646 1.42521E-02-5.41876E-03-1.00468E-13
 -1      1647 1.40828E-02-5.31739E-03-9.90171E-14
 -1      1648 1.45256E-02-5.54525E-03-1.00643E-13
 -1      1649 1.44344E-02-5.50309E-03-1.00584E-13
 -1      1650 1.42651E-02-5.40171E-03-9.91333E-14
 -1      1651 1.47048E-02-5.62817E-03-1.00777E-13
 -1      1652 1.46152E-02-5.58671E-03-1.00707E-13
 -1      1653 1.44459E-02-5.48533E-03-9.92589E-14
 -1      1654 1.48872E-02-5.71253E-03-1.00921E-13
 -1      1655 1.47960E-02-5.67035E-03-1.00850E-13
 -1      1656 1.46267E-02-5.56895E-03-9.93979E-14
 -1      1657 1.50696E-02-5.79690E-03-1.01066E-13
 -1      1658 1.49784E-02-5.75471E-03-1.00991E-13
 -1      1659 1.48091E-02-5.65330E-03-9.95437E-14
 -1      1660 1.52520E-02-5.88127E-03-1.01215E-13
 -1      1661 1.51608E-02-5.83908E-03-1.01142E-13
 -1      1662 1.49915E-02-5.73765E-03-9.96946E-14
 -1      1663 1.54345E-02-5.96564E-03-1.01351E-13
 -1      1664 1.53433E-02-5.92346E-03-1.01284E-13
 -1      1665 1.51739E-02-5.82201E-03-9.98497E-14
 -1      1666 1.56171E-02-6.05001E-03-1.01508E-13
 -1      1667 1.55258E-02-6.00783E-03-1.01423E-13
 -1      1668 1.53564E-02-5.90637E-03-1.00005E-13
 -1      1669 1.57965E-02-6.13293E-03-1.01674E-13
 -1      1670 1.57068E-02-6.09147E-03-1.01594E-13
 -1      1671 1.55374E-02-5.99000E-03-1.00172E-13
 -1      1672 1.59792E-02-6.21728E-03-1.01850E-13
 -1      1673 1.58878E-02-6.17511E-03-1.01759E-13
 -1      1674 1.57185E-02-6.07363E-03-1.00349E-13
 -1      1675 1.61618E-02-6.30161E-03-1.02028E-13
 -1      1676 1.60705E-02-6.25945E-03-1.01937E-13
 -1      1677 1.59011E-02-6.15796E-03-1.00527E-13
 -1      1678 1.63444E-02-6.38592E-03-1.02222E-13
 -1      1679 1.62531E-02-6.34377E-03-1.02121E-13
 -1      1680 1.60837E-02-6.24228E-03-1.00717E-13
 -1      1681 8.40763E-03-1.03289E-03-2.03793E-14
 -1      1682 8.48683E-03-1.08552E-03-2.04348E-14
 -1      1683 8.12143E-03-9.00805E-04-2.01246E-14
 -1      1684 8.27209E-03-9.70692E-04-2.02991E-14
 -1      1685 7.76337E-03-7.20978E-04-1.95849E-14
 -1      1686 7.93430E-03-8.00360E-04-1.98250E-14
 -1      1687 7.30074E-03-5.24047E-04-1.89346E-14
 -1      1688 7.51854E-03-6.29264E-04-1.92930E-14
 -1      1689 6.84850E-03-2.87210E-04-1.80224E-14
 -1      1690 7.06361E-03-3.88071E-04-1.84261E-14
 -1      1691 6.39683E-03-9.70625E-05-1.71151E-14
 -1      1692 6.59680E-03-1.80619E-04-1.75426E-14
 -1      1693 5.94333E-03 4.81772E-05-1.61171E-14
 -1      1694 6.14306E-03-9.19179E-06-1.65904E-14
 -1      1695 5.54297E-03 9.17707E-05-1.51594E-14
 -1      1696 5.72483E-03 7.99316E-05-1.55786E-14
 -1      1697 5.12366E-03 5.84716E-05-1.42088E-14
 -1      1698 5.32108E-03 8.72685E-05-1.46442E-14
 -1      1699 4.70523E-03-5.54958E-05-1.33197E-14
 -1      1700 4.89717E-03 4.81978E-06-1.37002E-14
 -1      1701 4.30386E-03-1.85841E-04-1.26882E-14
 -1      1702 4.47212E-03-1.22922E-04-1.29722E-14
 -1      1703 3.93292E-03-3.54640E-04-1.20363E-14
 -1      1704 4.11141E-03-2.80639E-04-1.23020E-14
 -1      1705 3.63052E-03-4.77315E-04-1.16700E-14
 -1      1706 3.74916E-03-4.20859E-04-1.18312E-14
 -1      1707 3.45296E-03-5.97648E-04-1.14040E-14
 -1      1708 3.51905E-03-5.46724E-04-1.14889E-14
 -1      1709 3.43292E-03-7.03910E-04-1.14156E-14
 -1      1710 3.42444E-03-6.54800E-04-1.14110E-14
 -1      1711 3.56468E-03-8.31700E-04-1.15194E-14
 -1      1712 3.48293E-03-7.65687E-04-1.14321E-14
 -1      1713 3.84138E-03-1.02933E-03-1.18727E-14
 -1      1714 3.69671E-03-9.35345E-04-1.17046E-14
 -1      1715 4.23955E-03-1.28710E-03-1.23604E-14
 -1      1716 4.04178E-03-1.15814E-03-1.21137E-14
 -1      1717 4.71186E-03-1.60448E-03-1.29925E-14
 -1      1718 4.48790E-03-1.45159E-03-1.26840E-14
 -1      1719 5.22382E-03-1.94811E-03-1.37664E-14
 -1      1720 4.98398E-03-1.78913E-03-1.33910E-14
 -1      1721 5.73443E-03-2.23201E-03-1.46331E-14
 -1      1722 5.50690E-03-2.11405E-03-1.42218E-14
 -1      1723 6.25606E-03-2.37347E-03-1.56652E-14
 -1      1724 6.01098E-03-2.33275E-03-1.51708E-14
 -1      1725 6.75017E-03-2.30383E-03-1.66883E-14
 -1      1726 6.52832E-03-2.35782E-03-1.62277E-14
 -1      1727 7.21899E-03-2.09788E-03-1.76442E-14
 -1      1728 7.00502E-03-2.20472E-03-1.72135E-14
 -1      1729 7.65997E-03-1.84291E-03-1.85061E-14
 -1      1730 7.46106E-03-1.96239E-03-1.81235E-14
 -1      1731 8.05085E-03-1.58969E-03-1.93195E-14
 -1      1732 7.87266E-03-1.69959E-03-1.89776E-14
 -1      1733 8.35781E-03-1.40036E-03-1.99034E-14
 -1      1734 8.23413E-03-1.48209E-03-1.96525E-14
 -1      1735 8.52758E-03-1.25582E-03-2.03021E-14
 -1      1736 8.46739E-03-1.31744E-03-2.01455E-14
 -1      1737 8.54046E-03-1.14411E-03-2.04381E-14
 -1      1738 8.55309E-03-1.19321E-03-2.03906E-14
 -1      1739 1.64986E-02-6.44138E-03-1.01584E-13
 -1      1740 8.00085E-03-9.32280E-04-2.03631E-14
 -1      1741 1.37932E-02-5.20187E-03-9.99244E-14
 -1      1742 1.37151E-02-5.14266E-03-9.85171E-14
 -1      1743 8.52370E-03-1.14027E-03-2.08475E-14
 -1      1744 8.33228E-03-1.05922E-03-2.07560E-14
 -1      1745 1.65270E-02-6.47022E-03-1.02431E-13
 -1      1746 1.64357E-02-6.42807E-03-1.02326E-13
 -1      1747 1.62663E-02-6.32659E-03-1.00919E-13
 -1      1748 7.56947E-03-7.48909E-04-1.97608E-14
 -1      1749 7.10319E-03-5.12929E-04-1.89460E-14
 -1      1750 6.64089E-03-2.56560E-04-1.79495E-14
 -1      1751 6.19476E-03-4.36263E-05-1.69397E-14
 -1      1752 5.81379E-03 9.00438E-05-1.58769E-14
 -1      1753 5.43513E-03 1.15487E-04-1.48281E-14
 -1      1754 5.05118E-03 4.06287E-05-1.38145E-14
 -1      1755 4.65391E-03-1.06319E-04-1.29764E-14
 -1      1756 4.24743E-03-2.77705E-04-1.22552E-14
 -1      1757 3.87453E-03-4.33037E-04-1.16830E-14
 -1      1758 3.57639E-03-5.48441E-04-1.13074E-14
 -1      1759 3.42959E-03-6.25352E-04-1.11390E-14
 -1      1760 3.45259E-03-7.02638E-04-1.11603E-14
 -1      1761 3.64458E-03-8.13373E-04-1.13520E-14
 -1      1762 3.98888E-03-1.01140E-03-1.17656E-14
 -1      1763 4.44251E-03-1.29044E-03-1.23153E-14
 -1      1764 4.94838E-03-1.64752E-03-1.30236E-14
 -1      1765 5.45891E-03-2.02087E-03-1.38664E-14
 -1      1766 5.93466E-03-2.31278E-03-1.48542E-14
 -1      1767 6.38225E-03-2.40308E-03-1.59565E-14
 -1      1768 6.82601E-03-2.26933E-03-1.70524E-14
 -1      1769 7.26857E-03-2.01024E-03-1.80683E-14
 -1      1770 7.70474E-03-1.72037E-03-1.90312E-14
 -1      1771 8.10114E-03-1.47887E-03-1.98477E-14
 -1      1772 8.40264E-03-1.31562E-03-2.04310E-14
 -1      1773 8.54815E-03-1.21508E-03-2.07653E-14
 -1      1774 2.78274E-04-1.68970E-04-4.07118E-17
 -1      1775 3.33407E-04-1.10945E-04-1.33086E-16
 -1      1776 3.37895E-04-1.27152E-04-1.25347E-16
 -1      1777 3.44118E-04-1.46308E-04-1.15657E-16
 -1      1778 3.53716E-04-1.68605E-04-1.01779E-16
 -1      1779 4.60785E-04-1.80239E-04-1.81672E-16
 -1      1780 3.23839E-04-6.11666E-05-1.48427E-16
 -1      1781 3.25455E-04-7.18320E-05-1.46394E-16
 -1      1782 3.21581E-04-4.12608E-05-1.50636E-16
 -1      1783 3.22575E-04-5.09137E-05-1.49823E-16
 -1      1784 4.34909E-04-7.43915E-05-2.19985E-16
 -1      1785 3.20381E-04-2.29346E-05-1.51138E-16
 -1      1786 3.20870E-04-3.19426E-05-1.51165E-16
 -1      1787 4.31948E-04-4.86215E-05-2.22411E-16
 -1      1788 3.20046E-04-5.24779E-06-1.50162E-16
 -1      1789 3.20117E-04-1.40457E-05-1.50840E-16
 -1      1790 4.30508E-04-2.45720E-05-2.22695E-16
 -1      1791 3.20450E-04 1.25619E-05-1.47492E-16
 -1      1792 3.20160E-04 3.61403E-06-1.49146E-16
 -1      1793 4.30324E-04-1.07881E-06-2.20635E-16
 -1      1794 3.21529E-04 3.11620E-05-1.43128E-16
 -1      1795 3.20899E-04 2.17405E-05-1.45554E-16
 -1      1796 4.31224E-04 2.28164E-05-2.16312E-16
 -1      1797 3.23283E-04 5.08644E-05-1.37124E-16
 -1      1798 3.22299E-04 4.08189E-05-1.40513E-16
 -1      1799 4.33119E-04 4.77564E-05-2.09739E-16
 -1      1800 3.26005E-04 7.31581E-05-1.28329E-16
 -1      1801 3.24479E-04 6.17077E-05-1.33357E-16
 -1      1802 4.36119E-04 7.48286E-05-2.00510E-16
 -1      1803 3.30311E-04 9.89850E-05-1.15590E-16
 -1      1804 3.27864E-04 8.56004E-05-1.22745E-16
 -1      1805 4.40717E-04 1.05461E-04-1.87120E-16
 -1      1806 3.37856E-04 1.30751E-04-9.61823E-17
 -1      1807 3.33483E-04 1.14050E-04-1.07187E-16
 -1      1808 4.48067E-04 1.41298E-04-1.67591E-16
 -1      1809 3.53671E-04 1.73669E-04-6.72341E-17
 -1      1810 3.44159E-04 1.50567E-04-8.34023E-17
 -1      1811 4.61122E-04 1.85743E-04-1.38968E-16
 -1      1812 4.09028E-04 2.29804E-04-4.63361E-17
 -1      1813 3.79517E-04 1.98738E-04-5.99022E-17
 -1      1814 4.97935E-04 2.38554E-04-1.12798E-16
 -1      1815 5.60575E-04 2.97026E-04-9.10052E-17
 -1      1816 3.34008E-04-1.82724E-04-7.18555E-17
 -1      1817 8.57393E-04 3.98580E-04-2.53608E-16
 -1      1818 7.10025E-04 3.52320E-04-1.60408E-16
 -1      1819 6.76332E-04 3.21757E-04-1.74326E-16
 -1      1820 7.97762E-04-3.56745E-04-3.40372E-16
 -1      1821 9.44809E-04-3.95719E-04-4.77550E-16
 -1      1822 1.08970E-03-4.27897E-04-6.40411E-16
 -1      1823 1.23381E-03-4.54015E-04-8.28954E-16
 -1      1824 9.96817E-04-3.76908E-04-5.87760E-16
 -1      1825 1.36989E-03-4.74427E-04-1.03171E-15
 -1      1826 1.50581E-03-4.90831E-04-1.25773E-15
 -1      1827 1.27927E-03-4.28163E-04-9.58977E-16
 -1      1828 1.64886E-03-5.04611E-04-1.51981E-15
 -1      1829 1.79238E-03-5.15082E-04-1.80727E-15
 -1      1830 1.55982E-03-4.61959E-04-1.42578E-15
 -1      1831 1.93647E-03-5.22813E-04-2.11987E-15
 -1      1832 2.08163E-03-5.28102E-04-2.45688E-15
 -1      1833 1.84745E-03-4.82939E-04-2.00370E-15
 -1      1834 2.22783E-03-5.31370E-04-2.81848E-15
 -1      1835 2.37572E-03-5.32954E-04-3.20456E-15
 -1      1836 2.13654E-03-4.93506E-04-2.67975E-15
 -1      1837 2.52504E-03-5.33303E-04-3.61446E-15
 -1      1838 2.67674E-03-5.32854E-04-4.04833E-15
 -1      1839 2.42833E-03-4.96707E-04-3.45267E-15
 -1      1840 2.83027E-03-5.32321E-04-4.50626E-15
 -1      1841 2.98696E-03-5.32375E-04-4.98770E-15
 -1      1842 2.72372E-03-4.95971E-04-4.32075E-15
 -1      1843 3.13788E-03-5.34213E-04-5.46652E-15
 -1      1844 3.29244E-03-5.38763E-04-5.96567E-15
 -1      1845 3.01583E-03-4.96282E-04-5.25747E-15
 -1      1846 3.45799E-03-5.48958E-04-6.51333E-15
 -1      1847 3.62846E-03-5.66941E-04-7.08308E-15
 -1      1848 3.31262E-03-5.05624E-04-6.28172E-15
 -1      1849 3.80348E-03-5.96898E-04-7.67444E-15
 -1      1850 3.98474E-03-6.43882E-04-8.29062E-15
 -1      1851 3.62405E-03-5.39736E-04-7.41948E-15
 -1      1852 4.17459E-03-7.13367E-04-8.92925E-15
 -1      1853 4.37285E-03-8.15460E-04-9.59137E-15
 -1      1854 3.95003E-03-6.26077E-04-8.64817E-15
 -1      1855 4.56503E-03-9.37742E-04-1.02078E-14
 -1      1856 4.76521E-03-1.10133E-03-1.08470E-14
 -1      1857 4.29093E-03-7.98722E-04-9.89984E-15
 -1      1858 6.88189E-03-2.23975E-03-1.77734E-14
 -1      1859 7.13073E-03-2.04970E-03-1.87307E-14
 -1      1860 7.39352E-03-1.85129E-03-1.97402E-14
 -1      1861 7.63984E-03-1.68873E-03-2.08039E-14
 -1      1862 7.86743E-03-1.58348E-03-2.18348E-14
 -1      1863 8.07530E-03-1.51865E-03-2.28814E-14
 -1      1864 7.83778E-03-1.56225E-03-2.12818E-14
 -1      1865 8.28495E-03-1.49526E-03-2.40018E-14
 -1      1866 8.48137E-03-1.50474E-03-2.51408E-14
 -1      1867 8.24407E-03-1.44940E-03-2.34295E-14
 -1      1868 8.67033E-03-1.54175E-03-2.62949E-14
 -1      1869 8.85217E-03-1.59835E-03-2.74634E-14
 -1      1870 8.60550E-03-1.48014E-03-2.56990E-14
 -1      1871 9.02815E-03-1.66912E-03-2.86469E-14
 -1      1872 9.20009E-03-1.74996E-03-2.98421E-14
 -1      1873 8.93883E-03-1.59748E-03-2.80307E-14
 -1      1874 9.36739E-03-1.83727E-03-3.10498E-14
 -1      1875 9.53191E-03-1.92921E-03-3.22704E-14
 -1      1876 9.25885E-03-1.75998E-03-3.04169E-14
 -1      1877 9.69277E-03-2.02384E-03-3.35021E-14
 -1      1878 9.85151E-03-2.12026E-03-3.47444E-14
 -1      1879 9.57115E-03-1.94380E-03-3.28511E-14
 -1      1880 9.99972E-03-2.21269E-03-3.59364E-14
 -1      1881 1.01465E-02-2.30554E-03-3.71404E-14
 -1      1882 9.87003E-03-2.13165E-03-3.52685E-14
 -1      1883 1.02989E-02-2.40342E-03-3.84194E-14
 -1      1884 1.04500E-02-2.50119E-03-3.97110E-14
 -1      1885 1.01643E-02-2.32224E-03-3.77355E-14
 -1      1886 1.05997E-02-2.59876E-03-4.10121E-14
 -1      1887 1.07484E-02-2.69601E-03-4.23283E-14
 -1      1888 1.04622E-02-2.51785E-03-4.03129E-14
 -1      1889 1.08960E-02-2.79296E-03-4.36580E-14
 -1      1890 1.10430E-02-2.88954E-03-4.49965E-14
 -1      1891 1.07570E-02-2.71246E-03-4.29410E-14
 -1      1892 1.11892E-02-2.98580E-03-4.63470E-14
 -1      1893 1.13348E-02-3.08171E-03-4.77092E-14
 -1      1894 1.10492E-02-2.90573E-03-4.56165E-14
 -1      1895 1.14728E-02-3.17256E-03-4.90108E-14
 -1      1896 1.16103E-02-3.26313E-03-5.03217E-14
 -1      1897 1.13324E-02-3.09287E-03-4.82686E-14
 -1      1898 1.17548E-02-3.35823E-03-5.17131E-14
 -1      1899 1.18990E-02-3.45307E-03-5.31092E-14
 -1      1900 1.16143E-02-3.27887E-03-5.09577E-14
 -1      1901 1.20429E-02-3.54770E-03-5.45139E-14
 -1      1902 1.21866E-02-3.64212E-03-5.59289E-14
 -1      1903 1.19023E-02-3.46862E-03-5.37495E-14
 -1      1904 1.23302E-02-3.73636E-03-5.73532E-14
 -1      1905 1.24736E-02-3.83043E-03-5.87854E-14
 -1      1906 1.21896E-02-3.65751E-03-5.65777E-14
 -1      1907 1.26169E-02-3.92436E-03-6.02259E-14
 -1      1908 1.27601E-02-4.01815E-03-6.16747E-14
 -1      1909 1.24764E-02-3.84569E-03-5.94410E-14
 -1      1910 1.29033E-02-4.11183E-03-6.31306E-14
 -1      1911 1.30463E-02-4.20539E-03-6.45944E-14
 -1      1912 1.27628E-02-4.03329E-03-6.23366E-14
 -1      1913 1.31822E-02-4.29419E-03-6.59949E-14
 -1      1914 1.33180E-02-4.38290E-03-6.74041E-14
 -1      1915 1.30418E-02-4.21577E-03-6.51922E-14
 -1      1916 1.34609E-02-4.47622E-03-6.88962E-14
 -1      1917 1.36039E-02-4.56946E-03-7.04015E-14
 -1      1918 1.33207E-02-4.39788E-03-6.80838E-14
 -1      1919 1.37467E-02-4.66264E-03-7.19167E-14
 -1      1920 1.38896E-02-4.75577E-03-7.34410E-14
 -1      1921 1.36065E-02-4.58438E-03-7.10909E-14
 -1      1922 1.40325E-02-4.84885E-03-7.49792E-14
 -1      1923 1.41753E-02-4.94189E-03-7.65259E-14
 -1      1924 1.38923E-02-4.77064E-03-7.41428E-14
 -1      1925 1.43181E-02-5.03489E-03-7.80821E-14
 -1      1926 1.44610E-02-5.12786E-03-7.96460E-14
 -1      1927 1.41780E-02-4.95672E-03-7.72322E-14
 -1      1928 1.46038E-02-5.22080E-03-8.12153E-14
 -1      1929 1.47466E-02-5.31372E-03-8.27934E-14
 -1      1930 1.44637E-02-5.14266E-03-8.03572E-14
 -1      1931 1.48823E-02-5.40197E-03-8.42974E-14
 -1      1932 1.50180E-02-5.49021E-03-8.58012E-14
 -1      1933 1.47422E-02-5.32385E-03-8.34287E-14
 -1      1934 1.51608E-02-5.58307E-03-8.73865E-14
 -1      1935 1.53037E-02-5.67593E-03-8.89762E-14
 -1      1936 1.50207E-02-5.50497E-03-8.65138E-14
 -1      1937 1.54465E-02-5.76878E-03-9.05613E-14
 -1      1938 1.55894E-02-5.86162E-03-9.21428E-14
 -1      1939 1.53064E-02-5.69068E-03-8.96846E-14
 -1      1940 1.57322E-02-5.95446E-03-9.37304E-14
 -1      1941 1.58750E-02-6.04729E-03-9.53112E-14
 -1      1942 1.55921E-02-5.87636E-03-9.28568E-14
 -1      1943 1.60179E-02-6.14013E-03-9.68878E-14
 -1      1944 1.61607E-02-6.23296E-03-9.84620E-14
 -1      1945 1.58778E-02-6.06203E-03-9.60221E-14
 -1      1946 1.14480E-03 4.69007E-04-5.11350E-16
 -1      1947 1.00178E-03 4.36973E-04-3.70269E-16
 -1      1948 9.69353E-04 4.07470E-04-3.86044E-16
 -1      1949 7.85871E-03-9.57569E-04-2.06724E-14
 -1      1950 8.04844E-03-1.03286E-03-2.09834E-14
 -1      1951 1.42685E-03 5.18713E-04-8.66101E-16
 -1      1952 1.28615E-03 4.96045E-04-6.76542E-16
 -1      1953 1.25625E-03 4.67755E-04-6.92710E-16
 -1      1954 1.70669E-03 5.54382E-04-1.31900E-15
 -1      1955 1.56687E-03 5.38040E-04-1.08012E-15
 -1      1956 1.53948E-03 5.10568E-04-1.09639E-15
 -1      1957 1.98606E-03 5.80623E-04-1.87071E-15
 -1      1958 1.84635E-03 5.68491E-04-1.58258E-15
 -1      1959 1.82116E-03 5.41500E-04-1.59780E-15
 -1      1960 2.26571E-03 6.00870E-04-2.52226E-15
 -1      1961 2.12583E-03 5.91355E-04-2.18388E-15
 -1      1962 2.10250E-03 5.64594E-04-2.19803E-15
 -1      1963 2.54568E-03 6.17722E-04-3.27273E-15
 -1      1964 2.40569E-03 6.09626E-04-2.88518E-15
 -1      1965 2.38401E-03 5.82941E-04-2.89718E-15
 -1      1966 2.82546E-03 6.32972E-04-4.12187E-15
 -1      1967 2.68566E-03 6.25505E-04-3.68477E-15
 -1      1968 2.66562E-03 5.98837E-04-3.69495E-15
 -1      1969 3.10408E-03 6.47466E-04-5.06808E-15
 -1      1970 2.96502E-03 6.40336E-04-4.58292E-15
 -1      1971 2.94681E-03 6.13730E-04-4.58997E-15
 -1      1972 3.38029E-03 6.60839E-04-6.10944E-15
 -1      1973 3.24261E-03 6.54396E-04-5.57719E-15
 -1      1974 3.22667E-03 6.28015E-04-5.58136E-15
 -1      1975 3.65267E-03 6.71220E-04-7.24636E-15
 -1      1976 3.51708E-03 6.66597E-04-6.66597E-15
 -1      1977 3.50403E-03 6.40732E-04-6.66722E-15
 -1      1978 3.91995E-03 6.75055E-04-8.47945E-15
 -1      1979 3.78705E-03 6.74235E-04-7.85055E-15
 -1      1980 3.77760E-03 6.49286E-04-7.84885E-15
 -1      1981 4.18134E-03 6.67239E-04-9.80986E-15
 -1      1982 4.05143E-03 6.72939E-04-9.13205E-15
 -1      1983 4.04633E-03 6.49358E-04-9.12679E-15
 -1      1984 4.43691E-03 6.41724E-04-1.12373E-14
 -1      1985 4.30981E-03 6.57028E-04-1.05120E-14
 -1      1986 4.30967E-03 6.35217E-04-1.05025E-14
 -1      1987 4.68774E-03 5.92615E-04-1.27636E-14
 -1      1988 4.56278E-03 6.20375E-04-1.19881E-14
 -1      1989 4.56799E-03 6.00568E-04-1.19745E-14
 -1      1990 4.93597E-03 5.15547E-04-1.43818E-14
 -1      1991 4.81196E-03 5.57686E-04-1.35612E-14
 -1      1992 4.82269E-03 5.39860E-04-1.35436E-14
 -1      1993 5.18436E-03 4.08834E-04-1.60969E-14
 -1      1994 5.05990E-03 4.65824E-04-1.52270E-14
 -1      1995 5.07604E-03 4.49686E-04-1.52058E-14
 -1      1996 5.43573E-03 2.73974E-04-1.79074E-14
 -1      1997 5.30945E-03 3.44685E-04-1.69902E-14
 -1      1998 5.33072E-03 3.29755E-04-1.69651E-14
 -1      1999 5.69232E-03 1.15233E-04-1.98136E-14
 -1      2000 5.56322E-03 1.97246E-04-1.88487E-14
 -1      2001 5.58918E-03 1.82985E-04-1.88200E-14
 -1      2002 5.95539E-03-6.14413E-05-2.18165E-14
 -1      2003 5.82297E-03 2.87690E-05-2.08035E-14
 -1      2004 5.85306E-03 1.47098E-05-2.07718E-14
 -1      2005 6.22518E-03-2.49770E-04-2.39045E-14
 -1      2006 6.08946E-03-1.54477E-04-2.28500E-14
 -1      2007 6.12297E-03-1.68661E-04-2.28134E-14
 -1      2008 6.50107E-03-4.44236E-04-2.60780E-14
 -1      2009 6.36243E-03-3.46484E-04-2.49816E-14
 -1      2010 6.39863E-03-3.60965E-04-2.49418E-14
 -1      2011 6.78195E-03-6.40694E-04-2.83323E-14
 -1      2012 6.64099E-03-5.42375E-04-2.71945E-14
 -1      2013 6.67913E-03-5.57206E-04-2.71508E-14
 -1      2014 7.06651E-03-8.36493E-04-3.06554E-14
 -1      2015 6.92388E-03-7.38757E-04-2.94851E-14
 -1      2016 6.96330E-03-7.53912E-04-2.94361E-14
 -1      2017 7.35350E-03-1.03027E-03-3.30523E-14
 -1      2018 7.20980E-03-9.33659E-04-3.18458E-14
 -1      2019 7.24996E-03-9.49072E-04-3.17935E-14
 -1      2020 7.64187E-03-1.22158E-03-3.55148E-14
 -1      2021 7.49759E-03-1.12622E-03-3.42750E-14
 -1      2022 7.53810E-03-1.14182E-03-3.42192E-14
 -1      2023 7.93084E-03-1.41056E-03-3.80440E-14
 -1      2024 7.78634E-03-1.31634E-03-3.67718E-14
 -1      2025 7.82694E-03-1.33205E-03-3.67114E-14
 -1      2026 8.21987E-03-1.59764E-03-4.06323E-14
 -1      2027 8.07538E-03-1.50431E-03-3.93310E-14
 -1      2028 8.11593E-03-1.52008E-03-3.92662E-14
 -1      2029 8.50863E-03-1.78331E-03-4.32741E-14
 -1      2030 8.36430E-03-1.69062E-03-4.19463E-14
 -1      2031 8.40472E-03-1.70641E-03-4.18778E-14
 -1      2032 8.79696E-03-1.96805E-03-4.59636E-14
 -1      2033 8.65286E-03-1.87578E-03-4.46134E-14
 -1      2034 8.69313E-03-1.89156E-03-4.45417E-14
 -1      2035 9.08479E-03-2.15227E-03-4.87000E-14
 -1      2036 8.94093E-03-2.06021E-03-4.73268E-14
 -1      2037 8.98108E-03-2.07596E-03-4.72516E-14
 -1      2038 9.37214E-03-2.33624E-03-5.14829E-14
 -1      2039 9.22852E-03-2.24427E-03-5.00851E-14
 -1      2040 9.26857E-03-2.25999E-03-5.00078E-14
 -1      2041 9.65907E-03-2.52018E-03-5.43127E-14
 -1      2042 9.51565E-03-2.42821E-03-5.28928E-14
 -1      2043 9.55563E-03-2.44389E-03-5.28123E-14
 -1      2044 9.94563E-03-2.70423E-03-5.71916E-14
 -1      2045 9.80239E-03-2.61219E-03-5.57466E-14
 -1      2046 9.84233E-03-2.62783E-03-5.56620E-14
 -1      2047 1.02319E-02-2.88844E-03-6.01180E-14
 -1      2048 1.00888E-02-2.79631E-03-5.86478E-14
 -1      2049 1.01287E-02-2.81192E-03-5.85600E-14
 -1      2050 1.05180E-02-3.07284E-03-6.30887E-14
 -1      2051 1.03750E-02-2.98061E-03-6.15986E-14
 -1      2052 1.04149E-02-2.99620E-03-6.15039E-14
 -1      2053 1.08039E-02-3.25745E-03-6.61066E-14
 -1      2054 1.06610E-02-3.16512E-03-6.45914E-14
 -1      2055 1.07009E-02-3.18069E-03-6.44916E-14
 -1      2056 1.10897E-02-3.44225E-03-6.91681E-14
 -1      2057 1.09468E-02-3.34983E-03-6.76329E-14
 -1      2058 1.09868E-02-3.36537E-03-6.75278E-14
 -1      2059 1.13754E-02-3.62721E-03-7.22762E-14
 -1      2060 1.12326E-02-3.53471E-03-7.07167E-14
 -1      2061 1.12725E-02-3.55024E-03-7.06069E-14
 -1      2062 1.16611E-02-3.81231E-03-7.54194E-14
 -1      2063 1.15183E-02-3.71974E-03-7.38420E-14
 -1      2064 1.15583E-02-3.73526E-03-7.37254E-14
 -1      2065 1.19468E-02-3.99752E-03-7.85861E-14
 -1      2066 1.18040E-02-3.90490E-03-7.70001E-14
 -1      2067 1.18440E-02-3.92041E-03-7.68759E-14
 -1      2068 1.22325E-02-4.18282E-03-8.17806E-14
 -1      2069 1.20896E-02-4.09016E-03-8.01820E-14
 -1      2070 1.21296E-02-4.10567E-03-8.00535E-14
 -1      2071 1.25181E-02-4.36818E-03-8.49879E-14
 -1      2072 1.23753E-02-4.27549E-03-8.33826E-14
 -1      2073 1.24153E-02-4.29100E-03-8.32479E-14
 -1      2074 1.28038E-02-4.55359E-03-8.82097E-14
 -1      2075 1.26609E-02-4.46088E-03-8.65955E-14
 -1      2076 1.27010E-02-4.47638E-03-8.64584E-14
 -1      2077 1.30895E-02-4.73902E-03-9.14583E-14
 -1      2078 1.29466E-02-4.64630E-03-8.98308E-14
 -1      2079 1.29867E-02-4.66180E-03-8.96887E-14
 -1      2080 1.33752E-02-4.92445E-03-9.47338E-14
 -1      2081 1.32323E-02-4.83174E-03-9.30922E-14
 -1      2082 1.32724E-02-4.84724E-03-9.29465E-14
 -1      2083 1.36166E-02-5.07991E-03-9.74475E-14
 -1      2084 1.34737E-02-4.98720E-03-9.57983E-14
 -1      2085 1.35138E-02-5.00271E-03-9.56506E-14
 -1      2086 1.37108E-02-5.12820E-03-9.77828E-14
 -1      2087 1.41870E-02-5.34249E-03-9.77503E-14
 -1      2088 1.40958E-02-5.30034E-03-9.76861E-14
 -1      2089 1.40047E-02-5.25818E-03-9.76247E-14
 -1      2090 1.39135E-02-5.21603E-03-9.75654E-14
 -1      2091 1.39265E-02-5.19896E-03-9.62387E-14
 -1      2092 1.38578E-02-5.19319E-03-9.77030E-14
 -1      2093 1.37666E-02-5.15104E-03-9.76445E-14
 -1      2094 1.36681E-02-5.08829E-03-9.65786E-14
 -1      2095 1.37796E-02-5.13397E-03-9.63080E-14
 -1      2096 1.43662E-02-5.42539E-03-9.78781E-14
 -1      2097 1.42766E-02-5.38394E-03-9.78110E-14
 -1      2098 1.41073E-02-5.28256E-03-9.63664E-14
 -1      2099 1.45486E-02-5.50972E-03-9.80210E-14
 -1      2100 1.44574E-02-5.46755E-03-9.79469E-14
 -1      2101 1.42881E-02-5.36616E-03-9.64994E-14
 -1      2102 1.47309E-02-5.59406E-03-9.81696E-14
 -1      2103 1.46397E-02-5.55189E-03-9.80960E-14
 -1      2104 1.44704E-02-5.45048E-03-9.66464E-14
 -1      2105 1.49134E-02-5.67840E-03-9.83317E-14
 -1      2106 1.48221E-02-5.63623E-03-9.82497E-14
 -1      2107 1.46528E-02-5.53481E-03-9.68047E-14
 -1      2108 1.50958E-02-5.76274E-03-9.84958E-14
 -1      2109 1.50046E-02-5.72057E-03-9.84132E-14
 -1      2110 1.48353E-02-5.61914E-03-9.69725E-14
 -1      2111 1.52784E-02-5.84709E-03-9.86639E-14
 -1      2112 1.51871E-02-5.80491E-03-9.85790E-14
 -1      2113 1.50177E-02-5.70347E-03-9.71468E-14
 -1      2114 1.54578E-02-5.92999E-03-9.88416E-14
 -1      2115 1.53681E-02-5.88854E-03-9.87483E-14
 -1      2116 1.51987E-02-5.78709E-03-9.73252E-14
 -1      2117 1.56404E-02-6.01432E-03-9.90239E-14
 -1      2118 1.55491E-02-5.97216E-03-9.89342E-14
 -1      2119 1.53797E-02-5.87070E-03-9.75093E-14
 -1      2120 1.58230E-02-6.09865E-03-9.92135E-14
 -1      2121 1.57317E-02-6.05649E-03-9.91175E-14
 -1      2122 1.55623E-02-5.95502E-03-9.77011E-14
 -1      2123 1.60057E-02-6.18296E-03-9.94116E-14
 -1      2124 1.59143E-02-6.14080E-03-9.93107E-14
 -1      2125 1.57450E-02-6.03933E-03-9.78977E-14
 -1      2126 7.42439E-03-7.77318E-04-2.00606E-14
 -1      2127 7.65027E-03-8.71847E-04-2.03650E-14
 -1      2128 7.73127E-03-9.65560E-04-2.09771E-14
 -1      2129 1.63292E-02-6.33990E-03-1.00176E-13
 -1      2130 4.54075E-04-2.26723E-04-1.28668E-16
 -1      2131 8.49919E-03-1.15591E-03-2.13155E-14
 -1      2132 8.55171E-03-1.17485E-03-2.13254E-14
 -1      2133 3.27473E-04-8.36384E-05-1.43115E-16
 -1      2134 3.30089E-04-9.64765E-05-1.38656E-16
 -1      2135 4.47630E-04-1.37486E-04-2.01838E-16
 -1      2136 4.39825E-04-1.03323E-04-2.13723E-16
 -1      2137 6.89340E-03-4.79465E-04-1.89680E-14
 -1      2138 7.11345E-03-6.17974E-04-1.94870E-14
 -1      2139 6.48480E-03-2.32377E-04-1.79850E-14
 -1      2140 6.68769E-03-3.54340E-04-1.84723E-14
 -1      2141 6.74408E-03-4.45926E-04-1.90029E-14
 -1      2142 6.07152E-03-4.11049E-06-1.68250E-14
 -1      2143 6.26049E-03-1.01739E-04-1.73530E-14
 -1      2144 5.68310E-03 1.28232E-04-1.55492E-14
 -1      2145 5.83614E-03 9.04694E-05-1.60832E-14
 -1      2146 5.36279E-03 1.26632E-04-1.45230E-14
 -1      2147 5.52090E-03 1.40735E-04-1.50309E-14
 -1      2148 5.57681E-03 1.47253E-04-1.52320E-14
 -1      2149 4.99551E-03 1.83970E-05-1.34468E-14
 -1      2150 5.17059E-03 8.44115E-05-1.39429E-14
 -1      2151 4.56415E-03-1.69926E-04-1.25209E-14
 -1      2152 4.74718E-03-8.62086E-05-1.28527E-14
 -1      2153 4.19165E-03-3.42942E-04-1.17754E-14
 -1      2154 4.37570E-03-2.56177E-04-1.21446E-14
 -1      2155 4.46188E-03-2.22087E-04-1.20268E-14
 -1      2156 3.78939E-03-4.93781E-04-1.12635E-14
 -1      2157 3.96061E-03-4.34349E-04-1.14543E-14
 -1      2158 3.53366E-03-5.75931E-04-1.09136E-14
 -1      2159 3.64936E-03-5.41624E-04-1.10871E-14
 -1      2160 3.71469E-03-5.21709E-04-1.08628E-14
 -1      2161 3.41207E-03-6.30975E-04-1.08410E-14
 -1      2162 3.43937E-03-6.10805E-04-1.08327E-14
 -1      2163 3.47785E-03-6.76475E-04-1.08600E-14
 -1      2164 3.42520E-03-6.55628E-04-1.08494E-14
 -1      2165 3.41140E-03-6.21214E-04-1.05415E-14
 -1      2166 3.74444E-03-7.95199E-04-1.11727E-14
 -1      2167 3.60233E-03-7.31162E-04-1.09976E-14
 -1      2168 4.13649E-03-9.95485E-04-1.16182E-14
 -1      2169 3.93179E-03-8.89349E-04-1.13907E-14
 -1      2170 4.63909E-03-1.29398E-03-1.21894E-14
 -1      2171 4.40134E-03-1.13625E-03-1.18807E-14
 -1      2172 5.14865E-03-1.70091E-03-1.30241E-14
 -1      2173 4.90745E-03-1.50768E-03-1.26373E-14
 -1      2174 5.63755E-03-2.09083E-03-1.39072E-14
 -1      2175 5.42034E-03-1.90874E-03-1.34605E-14
 -1      2176 6.08006E-03-2.38500E-03-1.50497E-14
 -1      2177 5.88982E-03-2.27573E-03-1.45131E-14
 -1      2178 6.48743E-03-2.41677E-03-1.62856E-14
 -1      2179 6.30363E-03-2.43637E-03-1.57184E-14
 -1      2180 6.89196E-03-2.22348E-03-1.74492E-14
 -1      2181 6.70377E-03-2.33577E-03-1.69144E-14
 -1      2182 7.25066E-03-1.97025E-03-1.84059E-14
 -1      2183 7.05002E-03-2.11514E-03-1.79164E-14
 -1      2184 7.74808E-03-1.62921E-03-1.95784E-14
 -1      2185 7.54564E-03-1.76681E-03-1.90959E-14
 -1      2186 8.16743E-03-1.39118E-03-2.04857E-14
 -1      2187 7.98901E-03-1.48210E-03-2.01435E-14
 -1      2188 8.44952E-03-1.26476E-03-2.10475E-14
 -1      2189 8.33352E-03-1.31362E-03-2.07994E-14
 -1      2190 8.56671E-03-1.20223E-03-2.14033E-14
 -1      2191 8.53569E-03-1.22220E-03-2.13134E-14
 -1      2192 8.26304E-03-1.09664E-03-2.12004E-14
 -1      2193 8.39883E-03-1.12822E-03-2.12903E-14
 -1      2194 1.61892E-02-6.26180E-03-9.93144E-14
 -1      2195 8.56961E-03-1.20438E-03-2.18720E-14
 -1      2196 4.67724E-03-1.09397E-03-1.11233E-14
 -1      2197 4.99018E-03-1.29496E-03-1.14633E-14
 -1      2198 7.35515E-03-1.87140E-03-1.92431E-14
 -1      2199 8.15067E-03-1.10297E-03-2.15126E-14
 -1      2200 6.04070E-04-2.86020E-04-2.09630E-16
 -1      2201 6.60461E-04-2.79006E-04-2.82245E-16
 -1      2202 7.23391E-03-7.29548E-04-2.00816E-14
 -1      2203 5.18954E-03-1.50576E-03-1.20720E-14
 -1      2204 5.51365E-03-1.84677E-03-1.29464E-14
 -1      2205 5.75972E-03-2.11466E-03-1.37366E-14
 -1      2206 5.96208E-03-2.29791E-03-1.43392E-14
 -1      2207 6.17326E-03-2.43279E-03-1.50930E-14
 -1      2208 6.34611E-03-2.47711E-03-1.57663E-14
 -1      2209 6.58390E-03-2.43233E-03-1.66632E-14
 -1      2210 5.26489E-03 1.18017E-04-1.41386E-14
 -1      2211 1.60978E-02-6.21965E-03-9.92076E-14
 -1      2212 8.45465E-03-1.17163E-03-2.17644E-14
 -1      2213 5.80521E-03-2.18916E-03-1.40911E-14
 -1      2214 8.50362E-03-1.23923E-03-2.16831E-14
 -1      2215 8.25372E-03-1.33490E-03-2.10980E-14
 -1      2216 7.86151E-03-1.53706E-03-2.02086E-14
 -1      2217 6.59612E-03-2.39739E-03-1.66694E-14
 -1      2218 6.21463E-03-2.43672E-03-1.53647E-14
 -1      2219 5.33377E-03-1.77974E-03-1.30608E-14
 -1      2220 4.81662E-03-1.35536E-03-1.21882E-14
 -1      2221 4.30297E-03-1.01321E-03-1.14958E-14
 -1      2222 3.53473E-03-6.68893E-04-1.06801E-14
 -1      2223 3.48302E-03-6.26370E-04-1.03691E-14
 -1      2224 3.60525E-03-6.59560E-04-1.04997E-14
 -1      2225 3.47308E-03-5.89547E-04-1.06110E-14
 -1      2226 3.51675E-03-5.67522E-04-1.03903E-14
 -1      2227 3.43012E-03-5.85867E-04-1.03131E-14
 -1      2228 4.06712E-03-3.95250E-04-1.13467E-14
 -1      2229 6.34726E-03-1.84747E-04-1.78645E-14
 -1      2230 5.92381E-03 5.34861E-05-1.64846E-14
 -1      2231 6.00044E-03 2.48902E-06-1.68895E-14
 -1      2232 5.80231E-03 9.52776E-05-1.61478E-14
 -1      2233 4.86914E-03-2.93097E-05-1.29767E-14
 -1      2234 3.85802E-03-7.94871E-04-1.10275E-14
 -1      2235 5.29385E-03-1.64383E-03-1.25248E-14
 -1      2236 1.59285E-02-6.11818E-03-9.77973E-14
 -1      2237 5.43875E-04-5.29089E-05-3.16058E-16
 -1      2238 5.45357E-04-6.81801E-05-3.15123E-16
 -1      2239 5.47417E-04-8.41105E-05-3.13605E-16
 -1      2240 5.50079E-04-1.00803E-04-3.10922E-16
 -1      2241 6.60887E-04-9.03229E-05-4.25983E-16
 -1      2242 5.42543E-04 5.82802E-06-3.11911E-16
 -1      2243 5.42259E-04-8.78687E-06-3.14093E-16
 -1      2244 5.44194E-04 3.58095E-05-3.05433E-16
 -1      2245 5.43195E-04 2.06746E-05-3.09174E-16
 -1      2246 6.56504E-04 1.54530E-05-4.20820E-16
 -1      2247 5.47202E-04 6.70425E-05-2.95757E-16
 -1      2248 5.45526E-04 5.11669E-05-3.00947E-16
 -1      2249 6.59146E-04 5.11717E-05-4.11482E-16
 -1      2250 5.51904E-04 1.01710E-04-2.81947E-16
 -1      2251 5.49326E-04 8.39635E-05-2.89523E-16
 -1      2252 6.63623E-04 8.92394E-05-3.97699E-16
 -1      2253 5.59033E-04 1.40777E-04-2.62526E-16
 -1      2254 5.55111E-04 1.20623E-04-2.73246E-16
 -1      2255 6.70397E-04 1.31285E-04-3.78522E-16
 -1      2256 5.70458E-04 1.86525E-04-2.34635E-16
 -1      2257 5.64086E-04 1.62692E-04-2.49949E-16
 -1      2258 6.80586E-04 1.78681E-04-3.51634E-16
 -1      2259 5.90544E-04 2.42536E-04-1.94669E-16
 -1      2260 5.79123E-04 2.13032E-04-2.16637E-16
 -1      2261 6.96758E-04 2.33829E-04-3.14107E-16
 -1      2262 6.45006E-04 2.94305E-04-1.82322E-16
 -1      2263 6.17152E-04 2.66806E-04-1.90887E-16
 -1      2264 7.34833E-04 2.89344E-04-2.87761E-16
 -1      2265 7.92309E-04 3.41191E-04-2.77109E-16
 -1      2266 9.06512E-04-3.26697E-04-5.33373E-16
 -1      2267 1.05190E-03-3.57497E-04-7.01885E-16
 -1      2268 7.07197E-03-6.90154E-04-2.02091E-14
 -1      2269 7.35175E-03-8.40833E-04-2.07969E-14
 -1      2270 8.54980E-03-1.23925E-03-2.23799E-14
 -1      2271 8.46732E-03-1.25746E-03-2.21110E-14
 -1      2272 8.05494E-03-1.12633E-03-2.20444E-14
 -1      2273 8.25262E-03-1.17355E-03-2.22735E-14
 -1      2274 1.18935E-03-3.81927E-04-8.85143E-16
 -1      2275 1.32660E-03-4.02013E-04-1.09107E-15
 -1      2276 1.10119E-03-3.36203E-04-8.10888E-16
 -1      2277 1.47056E-03-4.19271E-04-1.33162E-15
 -1      2278 1.61439E-03-4.32804E-04-1.59710E-15
 -1      2279 1.38206E-03-3.76704E-04-1.23717E-15
 -1      2280 1.75796E-03-4.43296E-04-1.88750E-15
 -1      2281 1.90159E-03-4.50977E-04-2.20261E-15
 -1      2282 1.66893E-03-4.03787E-04-1.77167E-15
 -1      2283 2.04508E-03-4.56411E-04-2.54134E-15
 -1      2284 2.18881E-03-4.59802E-04-2.90477E-15
 -1      2285 1.95444E-03-4.19672E-04-2.40343E-15
 -1      2286 2.33237E-03-4.61727E-04-3.29152E-15
 -1      2287 2.47622E-03-4.62384E-04-3.70208E-15
 -1      2288 2.23825E-03-4.27517E-04-3.13119E-15
 -1      2289 2.61968E-03-4.62544E-04-4.13672E-15
 -1      2290 2.76338E-03-4.62433E-04-4.59399E-15
 -1      2291 2.51939E-03-4.30566E-04-3.95365E-15
 -1      2292 2.89913E-03-4.63216E-04-5.05028E-15
 -1      2293 3.03500E-03-4.65114E-04-5.52728E-15
 -1      2294 2.78916E-03-4.32768E-04-4.84451E-15
 -1      2295 3.17671E-03-4.70254E-04-6.05152E-15
 -1      2296 3.31855E-03-4.79324E-04-6.59795E-15
 -1      2297 3.05201E-03-4.39563E-04-5.82316E-15
 -1      2298 3.45895E-03-4.95308E-04-7.16629E-15
 -1      2299 3.60057E-03-5.20281E-04-7.75638E-15
 -1      2300 3.31147E-03-4.59855E-04-6.91443E-15
 -1      2301 3.74246E-03-5.57991E-04-8.36901E-15
 -1      2302 3.88946E-03-6.14138E-04-9.00502E-15
 -1      2303 3.56024E-03-5.07166E-04-8.09457E-15
 -1      2304 4.02731E-03-6.83488E-04-9.59496E-15
 -1      2305 4.17610E-03-7.82303E-04-1.02036E-14
 -1      2306 3.79372E-03-5.98336E-04-9.29461E-15
 -1      2307 6.75201E-03-2.33512E-03-1.73051E-14
 -1      2308 6.93388E-03-2.19322E-03-1.77753E-14
 -1      2309 5.18159E-03 1.07549E-04-1.37733E-14
 -1      2310 5.33720E-03 1.47025E-04-1.43448E-14
 -1      2311 8.56387E-03-1.21975E-03-2.24561E-14
 -1      2312 8.58517E-03-1.22563E-03-2.25372E-14
 -1      2313 1.08310E-03 4.13745E-04-5.36002E-16
 -1      2314 9.38127E-04 3.80530E-04-3.94704E-16
 -1      2315 9.08437E-04 3.53991E-04-4.01236E-16
 -1      2316 8.23668E-03-1.40271E-03-2.28593E-14
 -1      2317 8.40598E-03-1.39636E-03-2.39749E-14
 -1      2318 8.56433E-03-1.42164E-03-2.51077E-14
 -1      2319 8.71704E-03-1.46770E-03-2.62558E-14
 -1      2320 8.54280E-03-1.36707E-03-2.45213E-14
 -1      2321 8.86565E-03-1.53009E-03-2.74169E-14
 -1      2322 9.01375E-03-1.60406E-03-2.85946E-14
 -1      2323 8.80850E-03-1.46860E-03-2.68096E-14
 -1      2324 9.16061E-03-1.68585E-03-2.97835E-14
 -1      2325 9.30823E-03-1.77379E-03-3.09857E-14
 -1      2326 9.07482E-03-1.61754E-03-2.91548E-14
 -1      2327 9.45526E-03-1.86535E-03-3.22002E-14
 -1      2328 9.60296E-03-1.95981E-03-3.34257E-14
 -1      2329 9.34868E-03-1.79141E-03-3.15535E-14
 -1      2330 9.74275E-03-2.05088E-03-3.46018E-14
 -1      2331 9.88283E-03-2.14299E-03-3.57888E-14
 -1      2332 9.62221E-03-1.97329E-03-3.39381E-14
 -1      2333 1.00297E-02-2.24036E-03-3.70531E-14
 -1      2334 1.01766E-02-2.33800E-03-3.83279E-14
 -1      2335 9.89993E-03-2.16061E-03-3.63722E-14
 -1      2336 1.03230E-02-2.43557E-03-3.96139E-14
 -1      2337 1.04692E-02-2.53300E-03-4.09118E-14
 -1      2338 1.01871E-02-2.35465E-03-3.89173E-14
 -1      2339 1.06149E-02-2.63017E-03-4.22233E-14
 -1      2340 1.07605E-02-2.72705E-03-4.35497E-14
 -1      2341 1.04752E-02-2.54873E-03-4.15124E-14
 -1      2342 1.09056E-02-2.82361E-03-4.48878E-14
 -1      2343 1.10505E-02-2.91984E-03-4.62339E-14
 -1      2344 1.07635E-02-2.74201E-03-4.41580E-14
 -1      2345 1.11878E-02-3.01098E-03-4.75247E-14
 -1      2346 1.13250E-02-3.10184E-03-4.88243E-14
 -1      2347 1.10443E-02-2.92942E-03-4.67824E-14
 -1      2348 1.14692E-02-3.19722E-03-5.02000E-14
 -1      2349 1.16132E-02-3.29232E-03-5.15878E-14
 -1      2350 1.13248E-02-3.11576E-03-4.94480E-14
 -1      2351 1.17570E-02-3.38719E-03-5.29843E-14
 -1      2352 1.19006E-02-3.48183E-03-5.43872E-14
 -1      2353 1.16121E-02-3.30588E-03-5.22178E-14
 -1      2354 1.20442E-02-3.57628E-03-5.57984E-14
 -1      2355 1.21876E-02-3.67053E-03-5.72216E-14
 -1      2356 1.18990E-02-3.49511E-03-5.50234E-14
 -1      2357 1.23309E-02-3.76462E-03-5.86522E-14
 -1      2358 1.24741E-02-3.85856E-03-6.00921E-14
 -1      2359 1.21856E-02-3.68359E-03-5.78648E-14
 -1      2360 1.26173E-02-3.95237E-03-6.15388E-14
 -1      2361 1.27604E-02-4.04605E-03-6.29938E-14
 -1      2362 1.24719E-02-3.87145E-03-6.07418E-14
 -1      2363 1.28963E-02-4.13494E-03-6.43860E-14
 -1      2364 1.30322E-02-4.22375E-03-6.57861E-14
 -1      2365 1.27509E-02-4.05413E-03-6.35809E-14
 -1      2366 1.31752E-02-4.31715E-03-6.72675E-14
 -1      2367 1.33181E-02-4.41046E-03-6.87609E-14
 -1      2368 1.30298E-02-4.23641E-03-6.64526E-14
 -1      2369 1.34611E-02-4.50371E-03-7.02645E-14
 -1      2370 1.36040E-02-4.59690E-03-7.17780E-14
 -1      2371 1.33157E-02-4.42304E-03-6.94393E-14
 -1      2372 1.37469E-02-4.69003E-03-7.33031E-14
 -1      2373 1.38898E-02-4.78311E-03-7.48374E-14
 -1      2374 1.36015E-02-4.60941E-03-7.24656E-14
 -1      2375 1.40326E-02-4.87615E-03-7.63797E-14
 -1      2376 1.41755E-02-4.96915E-03-7.79331E-14
 -1      2377 1.38873E-02-4.79557E-03-7.55310E-14
 -1      2378 1.43183E-02-5.06211E-03-7.94951E-14
 -1      2379 1.44612E-02-5.15505E-03-8.10604E-14
 -1      2380 1.41730E-02-4.98157E-03-7.86320E-14
 -1      2381 1.45969E-02-5.24333E-03-8.25548E-14
 -1      2382 1.47326E-02-5.33158E-03-8.40560E-14
 -1      2383 1.44516E-02-5.16280E-03-8.16858E-14
 -1      2384 1.48755E-02-5.42446E-03-8.56358E-14
 -1      2385 1.50183E-02-5.51732E-03-8.72197E-14
 -1      2386 1.47302E-02-5.34395E-03-8.47606E-14
 -1      2387 1.51611E-02-5.61018E-03-8.88073E-14
 -1      2388 1.53040E-02-5.70302E-03-9.03929E-14
 -1      2389 1.50159E-02-5.52968E-03-8.79262E-14
 -1      2390 1.54468E-02-5.79586E-03-9.19779E-14
 -1      2391 1.55897E-02-5.88870E-03-9.35642E-14
 -1      2392 1.53016E-02-5.71537E-03-9.11014E-14
 -1      2393 1.56877E-02-5.95702E-03-9.48935E-14
 -1      2394 1.58305E-02-6.04985E-03-9.64709E-14
 -1      2395 1.57383E-02-6.01317E-03-9.66733E-14
 -1      2396 1.55424E-02-5.87653E-03-9.40160E-14
 -1      2397 1.59489E-03 4.82774E-04-1.26932E-15
 -1      2398 1.45248E-03 4.64909E-04-1.03955E-15
 -1      2399 1.33966E-03 4.54567E-04-8.61900E-16
 -1      2400 1.19640E-03 4.30283E-04-6.76501E-16
 -1      2401 1.16756E-03 4.04366E-04-6.81990E-16
 -1      2402 1.39517E-03 4.29219E-04-1.01160E-15
 -1      2403 2.16277E-03 5.32512E-04-2.43309E-15
 -1      2404 2.02089E-03 5.22540E-04-2.10517E-15
 -1      2405 2.44674E-03 5.49792E-04-3.16176E-15
 -1      2406 2.30476E-03 5.41537E-04-2.78503E-15
 -1      2407 2.22439E-03 4.99675E-04-2.67157E-15
 -1      2408 2.73088E-03 5.65136E-04-3.98841E-15
 -1      2409 2.58884E-03 5.57621E-04-3.56301E-15
 -1      2410 2.51088E-03 5.15866E-04-3.42953E-15
 -1      2411 3.01480E-03 5.79835E-04-4.91171E-15
 -1      2412 2.87295E-03 5.72535E-04-4.43788E-15
 -1      2413 2.79784E-03 5.30617E-04-4.28460E-15
 -1      2414 3.29774E-03 5.94073E-04-5.93033E-15
 -1      2415 3.15651E-03 5.87054E-04-5.40946E-15
 -1      2416 3.08500E-03 5.45069E-04-5.23602E-15
 -1      2417 3.57866E-03 6.06597E-04-7.04356E-15
 -1      2418 3.43858E-03 6.00686E-04-6.47469E-15
 -1      2419 3.37167E-03 5.59212E-04-6.28181E-15
 -1      2420 3.85636E-03 6.14419E-04-8.25174E-15
 -1      2421 3.71803E-03 6.11340E-04-7.63543E-15
 -1      2422 3.65681E-03 5.71513E-04-7.42159E-15
 -1      2423 4.12976E-03 6.12757E-04-9.55673E-15
 -1      2424 3.99366E-03 6.15116E-04-8.89218E-15
 -1      2425 3.93916E-03 5.78586E-04-8.65683E-15
 -1      2426 4.39832E-03 5.95434E-04-1.09581E-14
 -1      2427 4.26462E-03 6.06450E-04-1.02456E-14
 -1      2428 4.21751E-03 5.75146E-04-9.98838E-15
 -1      2429 4.66241E-03 5.55880E-04-1.24568E-14
 -1      2430 4.53080E-03 5.78806E-04-1.16953E-14
 -1      2431 4.49123E-03 5.54506E-04-1.14164E-14
 -1      2432 4.92347E-03 4.88618E-04-1.40506E-14
 -1      2433 4.79310E-03 5.25958E-04-1.32421E-14
 -1      2434 4.76070E-03 5.09773E-04-1.29398E-14
 -1      2435 5.18382E-03 3.90759E-04-1.57400E-14
 -1      2436 5.05347E-03 4.43562E-04-1.48830E-14
 -1      2437 5.02756E-03 4.35567E-04-1.45600E-14
 -1      2438 5.44604E-03 2.62880E-04-1.75262E-14
 -1      2439 5.31446E-03 3.30408E-04-1.66209E-14
 -1      2440 5.29432E-03 3.29621E-04-1.62770E-14
 -1      2441 5.71227E-03 1.08860E-04-1.94089E-14
 -1      2442 5.57850E-03 1.88808E-04-1.84559E-14
 -1      2443 5.56356E-03 1.93527E-04-1.80903E-14
 -1      2444 5.98367E-03-6.52122E-05-2.13854E-14
 -1      2445 5.84727E-03 2.39278E-05-2.03851E-14
 -1      2446 5.83713E-03 3.22410E-05-1.99995E-14
 -1      2447 6.26035E-03-2.52585E-04-2.34491E-14
 -1      2448 6.12139E-03-1.57624E-04-2.24063E-14
 -1      2449 6.11572E-03-1.47388E-04-2.19996E-14
 -1      2450 6.54163E-03-4.47166E-04-2.56005E-14
 -1      2451 6.40051E-03-3.49288E-04-2.45145E-14
 -1      2452 6.39887E-03-3.38337E-04-2.40884E-14
 -1      2453 6.82643E-03-6.44302E-04-2.78303E-14
 -1      2454 6.68371E-03-5.45632E-04-2.67051E-14
 -1      2455 6.68550E-03-5.34698E-04-2.62606E-14
 -1      2456 7.11359E-03-8.40974E-04-3.01332E-14
 -1      2457 6.96982E-03-7.42824E-04-2.89733E-14
 -1      2458 6.97433E-03-7.32263E-04-2.85097E-14
 -1      2459 7.40211E-03-1.03559E-03-3.25098E-14
 -1      2460 7.25776E-03-9.38596E-04-3.13131E-14
 -1      2461 7.26427E-03-9.28521E-04-3.08337E-14
 -1      2462 7.69123E-03-1.22759E-03-3.49508E-14
 -1      2463 7.54666E-03-1.13193E-03-3.37224E-14
 -1      2464 7.55449E-03-1.12231E-03-3.32261E-14
 -1      2465 7.98044E-03-1.41708E-03-3.74594E-14
 -1      2466 7.83586E-03-1.32264E-03-3.61968E-14
 -1      2467 7.84449E-03-1.31339E-03-3.56841E-14
 -1      2468 8.26940E-03-1.60448E-03-4.00288E-14
 -1      2469 8.12497E-03-1.51102E-03-3.87370E-14
 -1      2470 8.13400E-03-1.50204E-03-3.82078E-14
 -1      2471 8.55797E-03-1.79032E-03-4.26528E-14
 -1      2472 8.41375E-03-1.69757E-03-4.13344E-14
 -1      2473 8.42292E-03-1.68876E-03-4.07914E-14
 -1      2474 8.84606E-03-1.97512E-03-4.53267E-14
 -1      2475 8.70208E-03-1.88283E-03-4.39823E-14
 -1      2476 8.71124E-03-1.87411E-03-4.34279E-14
 -1      2477 9.13369E-03-2.15931E-03-4.80492E-14
 -1      2478 8.98993E-03-2.06728E-03-4.66822E-14
 -1      2479 8.99902E-03-2.05858E-03-4.61138E-14
 -1      2480 9.42088E-03-2.34322E-03-5.08162E-14
 -1      2481 9.27733E-03-2.25129E-03-4.94260E-14
 -1      2482 9.28633E-03-2.24257E-03-4.88466E-14
 -1      2483 9.70771E-03-2.52707E-03-5.36295E-14
 -1      2484 9.56433E-03-2.43514E-03-5.22174E-14
 -1      2485 9.57324E-03-2.42638E-03-5.16236E-14
 -1      2486 9.99423E-03-2.71100E-03-5.64913E-14
 -1      2487 9.85100E-03-2.61902E-03-5.50542E-14
 -1      2488 9.85983E-03-2.61019E-03-5.44493E-14
 -1      2489 1.02805E-02-2.89511E-03-5.93974E-14
 -1      2490 1.01374E-02-2.80303E-03-5.79387E-14
 -1      2491 1.01462E-02-2.79414E-03-5.73205E-14
 -1      2492 1.05666E-02-3.07943E-03-6.23480E-14
 -1      2493 1.04236E-02-2.98724E-03-6.08673E-14
 -1      2494 1.04323E-02-2.97828E-03-6.02362E-14
 -1      2495 1.08525E-02-3.26395E-03-6.53458E-14
 -1      2496 1.07096E-02-3.17166E-03-6.38419E-14
 -1      2497 1.07183E-02-3.16264E-03-6.31940E-14
 -1      2498 1.11384E-02-3.44868E-03-6.83879E-14
 -1      2499 1.09955E-02-3.35629E-03-6.68618E-14
 -1      2500 1.10042E-02-3.34722E-03-6.61991E-14
 -1      2501 1.14242E-02-3.63359E-03-7.14727E-14
 -1      2502 1.12813E-02-3.54111E-03-6.99236E-14
 -1      2503 1.12900E-02-3.53199E-03-6.92478E-14
 -1      2504 1.17099E-02-3.81864E-03-7.45931E-14
 -1      2505 1.15670E-02-3.72610E-03-7.30280E-14
 -1      2506 1.15758E-02-3.71694E-03-7.23355E-14
 -1      2507 1.19956E-02-4.00383E-03-7.77423E-14
 -1      2508 1.18527E-02-3.91122E-03-7.61656E-14
 -1      2509 1.18615E-02-3.90203E-03-7.54578E-14
 -1      2510 1.22813E-02-4.18910E-03-8.09210E-14
 -1      2511 1.21384E-02-4.09645E-03-7.93299E-14
 -1      2512 1.21472E-02-4.08724E-03-7.86109E-14
 -1      2513 1.25670E-02-4.37445E-03-8.41157E-14
 -1      2514 1.24241E-02-4.28177E-03-8.25171E-14
 -1      2515 1.24329E-02-4.27254E-03-8.17875E-14
 -1      2516 1.28527E-02-4.55985E-03-8.73258E-14
 -1      2517 1.27098E-02-4.46714E-03-8.57183E-14
 -1      2518 1.27186E-02-4.45790E-03-8.49817E-14
 -1      2519 1.31384E-02-4.74527E-03-9.05580E-14
 -1      2520 1.29955E-02-4.65256E-03-8.89370E-14
 -1      2521 1.30043E-02-4.64331E-03-8.81942E-14
 -1      2522 1.34241E-02-4.93071E-03-9.38213E-14
 -1      2523 1.32812E-02-4.83799E-03-9.21871E-14
 -1      2524 1.32900E-02-4.82875E-03-9.14302E-14
 -1      2525 1.35695E-02-5.02554E-03-9.55148E-14
 -1      2526 1.42099E-02-5.30692E-03-9.51276E-14
 -1      2527 1.41188E-02-5.26477E-03-9.50573E-14
 -1      2528 1.43923E-02-5.39124E-03-9.52816E-14
 -1      2529 1.43011E-02-5.34908E-03-9.52027E-14
 -1      2530 1.41318E-02-5.24768E-03-9.37627E-14
 -1      2531 1.38484E-02-5.13974E-03-9.48575E-14
 -1      2532 1.37572E-02-5.09758E-03-9.47897E-14
 -1      2533 1.40284E-02-5.22297E-03-9.49875E-14
 -1      2534 1.39388E-02-5.18153E-03-9.49210E-14
 -1      2535 1.37695E-02-5.08015E-03-9.34790E-14
 -1      2536 1.39502E-02-5.16374E-03-9.36154E-14
 -1      2537 1.45747E-02-5.47556E-03-9.54439E-14
 -1      2538 1.44835E-02-5.43340E-03-9.53593E-14
 -1      2539 1.43142E-02-5.33199E-03-9.39197E-14
 -1      2540 1.47571E-02-5.55987E-03-9.56194E-14
 -1      2541 1.46659E-02-5.51772E-03-9.55302E-14
 -1      2542 1.44966E-02-5.41630E-03-9.40872E-14
 -1      2543 1.49396E-02-5.64419E-03-9.57997E-14
 -1      2544 1.48484E-02-5.60203E-03-9.57084E-14
 -1      2545 1.46790E-02-5.50060E-03-9.42677E-14
 -1      2546 1.51191E-02-5.72708E-03-9.59867E-14
 -1      2547 1.50294E-02-5.68564E-03-9.58934E-14
 -1      2548 1.48600E-02-5.58420E-03-9.44552E-14
 -1      2549 1.53017E-02-5.81140E-03-9.61815E-14
 -1      2550 1.52104E-02-5.76924E-03-9.60841E-14
 -1      2551 1.50410E-02-5.66779E-03-9.46524E-14
 -1      2552 1.54843E-02-5.89571E-03-9.63778E-14
 -1      2553 1.53930E-02-5.85356E-03-9.62770E-14
 -1      2554 1.52236E-02-5.75210E-03-9.48513E-14
 -1      2555 1.56569E-02-5.97552E-03-9.65739E-14
 -1      2556 1.55656E-02-5.93336E-03-9.64705E-14
 -1      2557 1.53963E-02-5.83190E-03-9.50467E-14
 -1      2558 1.55590E-02-5.90720E-03-9.52446E-14
 -1      2559 7.62456E-03-9.76371E-04-2.14314E-14
 -1      2560 7.81297E-03-1.05058E-03-2.17498E-14
 -1      2561 4.99025E-03-1.42704E-03-1.21865E-14
 -1      2562 5.88264E-04-2.26765E-04-2.62133E-16
 -1      2563 7.75136E-04-2.88291E-04-4.09259E-16
 -1      2564 8.34092E-04-2.76206E-04-4.99153E-16
 -1      2565 5.78035E-04-1.99100E-04-2.77258E-16
 -1      2566 7.34954E-03-1.88206E-03-1.89397E-14
 -1      2567 1.87896E-03 5.11143E-04-1.80209E-15
 -1      2568 1.73702E-03 4.98100E-04-1.52352E-15
 -1      2569 1.65218E-03 4.54227E-04-1.44694E-15
 -1      2570 1.93828E-03 4.80036E-04-2.01053E-15
 -1      2571 5.42364E-04-2.33732E-05-3.15435E-16
 -1      2572 5.42887E-04-3.80030E-05-3.16140E-16
 -1      2573 6.57029E-04-5.41167E-05-4.27975E-16
 -1      2574 6.55705E-04-1.93388E-05-4.26227E-16
 -1      2575 6.61222E-03-4.02514E-04-1.90235E-14
 -1      2576 6.79098E-03-5.22505E-04-1.95270E-14
 -1      2577 4.74947E-03-7.09478E-05-1.24560E-14
 -1      2578 4.95669E-03 2.78197E-05-1.30327E-14
 -1      2579 5.46848E-03 1.57722E-04-1.48453E-14
 -1      2580 5.59368E-03 1.49260E-04-1.53565E-14
 -1      2581 5.36721E-03 1.58461E-04-1.44651E-14
 -1      2582 3.97293E-03-7.86283E-04-1.08149E-14
 -1      2583 3.79132E-03-7.13029E-04-1.06079E-14
 -1      2584 4.37844E-03-2.49774E-04-1.16217E-14
 -1      2585 4.54284E-03-1.71584E-04-1.19839E-14
 -1      2586 3.94568E-03-4.33653E-04-1.08915E-14
 -1      2587 4.14882E-03-3.51569E-04-1.11981E-14
 -1      2588 3.63697E-03-5.29776E-04-1.04271E-14
 -1      2589 3.76209E-03-4.94858E-04-1.05944E-14
 -1      2590 3.41298E-03-5.95735E-04-1.01695E-14
 -1      2591 3.39751E-03-5.91345E-04-1.01631E-14
 -1      2592 4.74247E-03-1.22608E-03-1.17516E-14
 -1      2593 6.20662E-03-1.26953E-04-1.77074E-14
 -1      2594 6.39471E-03-2.55954E-04-1.83456E-14
 -1      2595 8.34472E-03-1.29940E-03-2.18754E-14
 -1      2596 8.19755E-03-1.35586E-03-2.15540E-14
 -1      2597 8.41382E-03-1.20246E-03-2.23894E-14
 -1      2598 8.50685E-03-1.21068E-03-2.24215E-14
 -1      2599 8.54932E-03-1.24246E-03-2.30875E-14
 -1      2600 4.52942E-03-1.02683E-03-1.11318E-14
 -1      2601 6.67830E-04-1.29651E-04-4.18705E-16
 -1      2602 5.53495E-04-1.18575E-04-3.06734E-16
 -1      2603 5.57712E-04-1.37616E-04-3.00988E-16
 -1      2604 3.43995E-03-5.85502E-04-9.99011E-15
 -1      2605 7.95791E-03-1.12754E-03-2.25062E-14
 -1      2606 6.93594E-03-6.35618E-04-2.02273E-14
 -1      2607 7.47028E-03-9.30933E-04-2.15597E-14
 -1      2608 7.60981E-03-1.68321E-03-1.99513E-14
 -1      2609 8.43288E-03-1.28706E-03-2.25737E-14
 -1      2610 8.34326E-03-1.21878E-03-2.29295E-14
 -1      2611 3.77488E-03-6.49039E-04-1.00821E-14
 -1      2612 3.68964E-03-6.52110E-04-1.02916E-14
 -1      2613 3.60360E-03-6.08091E-04-9.98135E-15
 -1      2614 4.30234E-03-8.67769E-04-1.06147E-14
 -1      2615 4.32830E-03-9.65263E-04-1.12182E-14
 -1      2616 8.59012E-03-1.24685E-03-2.29688E-14
 -1      2617 8.17207E-03-1.40258E-03-2.23294E-14
 -1      2618 8.35425E-03-1.33468E-03-2.28649E-14
 -1      2619 1.35784E-02-5.01630E-03-9.47476E-14
 -1      2620 1.36341E-02-5.03914E-03-9.46160E-14
 -1      2621 1.35560E-02-4.97991E-03-9.32366E-14
 -1      2622 7.83922E-03-1.54128E-03-2.05241E-14
 -1      2623 6.46663E-03-3.29499E-04-1.88578E-14
 -1      2624 5.63378E-04-1.55304E-04-2.95811E-16
 -1      2625 5.69792E-04-1.77813E-04-2.86311E-16
 -1      2626 6.94825E-04-2.14471E-04-3.90787E-16
 -1      2627 6.78988E-04-1.70715E-04-4.07131E-16
 -1      2628 3.55123E-03-5.36014E-04-1.01276E-14
 -1      2629 4.23069E-03-2.95093E-04-1.11567E-14
 -1      2630 3.39775E-03-5.69804E-04-9.94364E-15
 -1      2631 4.64222E-03-9.81092E-05-1.20375E-14
 -1      2632 5.67801E-03 1.31201E-04-1.57455E-14
 -1      2633 5.75341E-03 1.00565E-04-1.61385E-14
 -1      2634 5.56836E-03 1.52644E-04-1.53484E-14
 -1      2635 6.07357E-03-5.69181E-05-1.73546E-14
 -1      2636 5.03938E-03 7.76379E-05-1.32285E-14
 -1      2637 4.09522E-03-8.45626E-04-1.09714E-14
 -1      2638 3.99990E-03-7.57681E-04-1.05479E-14
 -1      2639 3.83508E-03-4.48562E-04-1.04504E-14
 -1      2640 3.46439E-03-5.34661E-04-9.75611E-15
 -1      2641 3.55950E-03-5.05361E-04-9.78900E-15
 -1      2642 7.76264E-04 6.90094E-05-5.33536E-16
 -1      2643 7.74050E-04 4.81065E-05-5.40868E-16
 -1      2644 7.72333E-04 2.73950E-05-5.46668E-16
 -1      2645 7.71195E-04 7.14764E-06-5.51235E-16
 -1      2646 8.89946E-04 4.16068E-05-6.88821E-16
 -1      2647 7.91741E-04 1.62918E-04-4.89355E-16
 -1      2648 7.86730E-04 1.37708E-04-5.03232E-16
 -1      2649 8.05406E-04 2.18108E-04-4.53915E-16
 -1      2650 7.97932E-04 1.89657E-04-4.73173E-16
 -1      2651 9.15672E-04 1.96182E-04-6.14024E-16
 -1      2652 8.26580E-04 2.81359E-04-4.05668E-16
 -1      2653 8.14873E-04 2.48593E-04-4.31811E-16
 -1      2654 9.32987E-04 2.58427E-04-5.69328E-16
 -1      2655 8.79785E-04 3.29250E-04-4.03784E-16
 -1      2656 8.52818E-04 3.04352E-04-4.06454E-16
 -1      2657 9.70467E-04 3.15121E-04-5.44175E-16
 -1      2658 1.02492E-03 3.62838E-04-5.44649E-16
 -1      2659 4.01007E-03-7.32083E-04-1.02912E-14
 -1      2660 1.29516E-03-3.34893E-04-1.14287E-15
 -1      2661 1.43836E-03-3.51352E-04-1.38716E-15
 -1      2662 1.58110E-03-3.64721E-04-1.65605E-15
 -1      2663 1.72350E-03-3.75212E-04-1.94938E-15
 -1      2664 1.49499E-03-3.26084E-04-1.54125E-15
 -1      2665 1.86522E-03-3.83413E-04-2.26640E-15
 -1      2666 2.00635E-03-3.89489E-04-2.60741E-15
 -1      2667 1.77785E-03-3.47328E-04-2.13001E-15
 -1      2668 2.14647E-03-3.94080E-04-2.97189E-15
 -1      2669 2.28566E-03-3.97301E-04-3.35987E-15
 -1      2670 2.05733E-03-3.60734E-04-2.81361E-15
 -1      2671 2.42325E-03-3.99958E-04-3.77142E-15
 -1      2672 2.55933E-03-4.02086E-04-4.20630E-15
 -1      2673 2.33132E-03-3.69493E-04-3.59105E-15
 -1      2674 2.68632E-03-4.04700E-04-4.64053E-15
 -1      2675 2.81118E-03-4.07777E-04-5.09555E-15
 -1      2676 2.59025E-03-3.77075E-04-4.43778E-15
 -1      2677 2.93900E-03-4.13203E-04-5.59669E-15
 -1      2678 3.06340E-03-4.20619E-04-6.12002E-15
 -1      2679 2.83683E-03-3.87995E-04-5.37163E-15
 -1      2680 3.18249E-03-4.32602E-04-6.66585E-15
 -1      2681 3.29719E-03-4.48655E-04-7.23307E-15
 -1      2682 3.07096E-03-4.08398E-04-6.41810E-15
 -1      2683 3.40502E-03-4.72378E-04-7.82152E-15
 -1      2684 3.50853E-03-5.03387E-04-8.43197E-15
 -1      2685 3.27849E-03-4.45231E-04-7.55196E-15
 -1      2686 2.57647E-03 4.80888E-04-3.70110E-15
 -1      2687 2.43185E-03 4.73609E-04-3.29564E-15
 -1      2688 7.75410E-04-9.32753E-05-5.56833E-16
 -1      2689 7.78665E-04-1.14606E-04-5.54068E-16
 -1      2690 1.02278E-03-2.93327E-04-7.45890E-16
 -1      2691 1.15906E-03-3.15862E-04-9.33552E-16
 -1      2692 1.21753E-03-2.95014E-04-1.06044E-15
 -1      2693 8.62764E-03-1.27474E-03-2.37945E-14
 -1      2694 8.60188E-03-1.27483E-03-2.36379E-14
 -1      2695 3.90196E-03-6.86764E-04-1.01421E-14
 -1      2696 1.35362E-02-4.94563E-03-9.17877E-14
 -1      2697 1.34131E-02-4.88719E-03-9.16091E-14
 -1      2698 1.32703E-02-4.79447E-03-8.99883E-14
 -1      2699 8.76199E-03-1.41656E-03-2.62075E-14
 -1      2700 8.87873E-03-1.48364E-03-2.73622E-14
 -1      2701 8.99846E-03-1.55775E-03-2.85334E-14
 -1      2702 9.12321E-03-1.63907E-03-2.97169E-14
 -1      2703 8.92975E-03-1.50421E-03-2.79158E-14
 -1      2704 9.25101E-03-1.72469E-03-3.09128E-14
 -1      2705 9.38275E-03-1.81439E-03-3.21221E-14
 -1      2706 9.15935E-03-1.66325E-03-3.02766E-14
 -1      2707 9.51006E-03-1.90165E-03-3.32814E-14
 -1      2708 9.63984E-03-1.99086E-03-3.44523E-14
 -1      2709 9.40260E-03-1.83402E-03-3.26283E-14
 -1      2710 9.77791E-03-2.08574E-03-3.56985E-14
 -1      2711 9.91770E-03-2.18160E-03-3.69567E-14
 -1      2712 9.65951E-03-2.01375E-03-3.50282E-14
 -1      2713 1.00584E-02-2.27779E-03-3.82271E-14
 -1      2714 1.02000E-02-2.37430E-03-3.95093E-14
 -1      2715 9.93235E-03-2.20290E-03-3.75395E-14
 -1      2716 1.03421E-02-2.47078E-03-4.08058E-14
 -1      2717 1.04848E-02-2.56723E-03-4.21141E-14
 -1      2718 1.02111E-02-2.39413E-03-4.01023E-14
 -1      2719 1.06277E-02-2.66351E-03-4.34357E-14
 -1      2720 1.07708E-02-2.75961E-03-4.47698E-14
 -1      2721 1.04932E-02-2.58586E-03-4.27179E-14
 -1      2722 1.09068E-02-2.85069E-03-4.60480E-14
 -1      2723 1.10429E-02-2.94156E-03-4.73338E-14
 -1      2724 1.07703E-02-2.77252E-03-4.53132E-14
 -1      2725 1.11862E-02-3.03698E-03-4.86975E-14
 -1      2726 1.13295E-02-3.13217E-03-5.00724E-14
 -1      2727 1.10483E-02-2.95856E-03-4.79522E-14
 -1      2728 1.14728E-02-3.22713E-03-5.14578E-14
 -1      2729 1.16161E-02-3.32188E-03-5.28530E-14
 -1      2730 1.13340E-02-3.14861E-03-5.07003E-14
 -1      2731 1.17593E-02-3.41644E-03-5.42559E-14
 -1      2732 1.19025E-02-3.51081E-03-5.56659E-14
 -1      2733 1.16199E-02-3.33791E-03-5.34876E-14
 -1      2734 1.20456E-02-3.60501E-03-5.70853E-14
 -1      2735 1.21888E-02-3.69906E-03-5.85145E-14
 -1      2736 1.19060E-02-3.52652E-03-5.63096E-14
 -1      2737 1.23319E-02-3.79297E-03-5.99523E-14
 -1      2738 1.24749E-02-3.88674E-03-6.13982E-14
 -1      2739 1.21920E-02-3.71453E-03-5.91637E-14
 -1      2740 1.26108E-02-3.97572E-03-6.27809E-14
 -1      2741 1.27466E-02-4.06460E-03-6.41726E-14
 -1      2742 1.24708E-02-3.89735E-03-6.19839E-14
 -1      2743 1.28896E-02-4.15808E-03-6.56460E-14
 -1      2744 1.30326E-02-4.25146E-03-6.71297E-14
 -1      2745 1.27495E-02-4.07976E-03-6.48394E-14
 -1      2746 1.31755E-02-4.34477E-03-6.86225E-14
 -1      2747 1.33184E-02-4.43800E-03-7.01247E-14
 -1      2748 1.30354E-02-4.26650E-03-6.78079E-14
 -1      2749 1.34613E-02-4.53118E-03-7.16344E-14
 -1      2750 1.36042E-02-4.62430E-03-7.31569E-14
 -1      2751 1.33212E-02-4.45296E-03-7.08081E-14
 -1      2752 1.37471E-02-4.71738E-03-7.46905E-14
 -1      2753 1.38900E-02-4.81041E-03-7.62292E-14
 -1      2754 1.36070E-02-4.63919E-03-7.38502E-14
 -1      2755 1.40329E-02-4.90341E-03-7.77797E-14
 -1      2756 1.41757E-02-4.99638E-03-7.93379E-14
 -1      2757 1.38927E-02-4.82525E-03-7.69287E-14
 -1      2758 1.43115E-02-5.08467E-03-8.08238E-14
 -1      2759 1.44472E-02-5.17294E-03-8.23156E-14
 -1      2760 1.41713E-02-5.00653E-03-7.99630E-14
 -1      2761 1.45900E-02-5.26583E-03-8.38907E-14
 -1      2762 1.47329E-02-5.35871E-03-8.54718E-14
 -1      2763 1.44499E-02-5.18771E-03-8.30223E-14
 -1      2764 1.48758E-02-5.45157E-03-8.70538E-14
 -1      2765 1.50186E-02-5.54442E-03-8.86397E-14
 -1      2766 1.47357E-02-5.37346E-03-8.61819E-14
 -1      2767 1.51615E-02-5.63727E-03-9.02272E-14
 -1      2768 1.53043E-02-5.73010E-03-9.18128E-14
 -1      2769 1.50214E-02-5.55916E-03-8.93505E-14
 -1      2770 1.53827E-02-5.78449E-03-9.28627E-14
 -1      2771 1.54806E-02-5.85281E-03-9.41939E-14
 -1      2772 1.53993E-02-5.81517E-03-9.40922E-14
 -1      2773 1.52426E-02-5.70639E-03-9.19895E-14
 -1      2774 2.86653E-03 4.94958E-04-4.58397E-15
 -1      2775 2.72143E-03 4.87962E-04-4.13043E-15
 -1      2776 2.64355E-03 4.44857E-04-3.97572E-15
 -1      2777 2.28739E-03 4.65862E-04-2.91359E-15
 -1      2778 2.14319E-03 4.57455E-04-2.55628E-15
 -1      2779 2.35172E-03 4.31103E-04-3.16004E-15
 -1      2780 3.15735E-03 5.09097E-04-5.56281E-15
 -1      2781 3.01193E-03 5.01997E-04-5.06158E-15
 -1      2782 2.93701E-03 4.58153E-04-4.88682E-15
 -1      2783 3.44830E-03 5.23142E-04-6.63562E-15
 -1      2784 3.30293E-03 5.16197E-04-6.08752E-15
 -1      2785 3.23194E-03 4.71941E-04-5.89219E-15
 -1      2786 3.73824E-03 5.35311E-04-7.80261E-15
 -1      2787 3.59353E-03 5.29647E-04-7.20748E-15
 -1      2788 3.52766E-03 4.85954E-04-6.99214E-15
 -1      2789 4.02569E-03 5.41813E-04-9.06482E-15
 -1      2790 3.88240E-03 5.39597E-04-8.42173E-15
 -1      2791 3.82283E-03 4.98179E-04-8.18577E-15
 -1      2792 4.30919E-03 5.36781E-04-1.04224E-14
 -1      2793 4.16800E-03 5.41187E-04-9.73155E-15
 -1      2794 4.11564E-03 5.04363E-04-9.47442E-15
 -1      2795 4.58795E-03 5.12879E-04-1.18760E-14
 -1      2796 4.44912E-03 5.27685E-04-1.11371E-14
 -1      2797 4.40428E-03 4.97916E-04-1.08578E-14
 -1      2798 4.86247E-03 4.62774E-04-1.34253E-14
 -1      2799 4.72557E-03 4.91520E-04-1.26390E-14
 -1      2800 4.68782E-03 4.70676E-04-1.23373E-14
 -1      2801 5.13467E-03 3.81168E-04-1.50731E-14
 -1      2802 4.99858E-03 4.26110E-04-1.42376E-14
 -1      2803 4.96700E-03 4.14760E-04-1.39139E-14
 -1      2804 5.40741E-03 2.66560E-04-1.68162E-14
 -1      2805 5.27068E-03 3.27904E-04-1.59318E-14
 -1      2806 5.24427E-03 3.25050E-04-1.55875E-14
 -1      2807 5.68338E-03 1.21779E-04-1.86571E-14
 -1      2808 5.54479E-03 1.97593E-04-1.77246E-14
 -1      2809 5.52292E-03 2.01064E-04-1.73581E-14
 -1      2810 5.96410E-03-4.69447E-05-2.05921E-14
 -1      2811 5.82307E-03 3.99259E-05-1.96135E-14
 -1      2812 5.80567E-03 4.71929E-05-1.92259E-14
 -1      2813 6.24966E-03-2.31960E-04-2.26169E-14
 -1      2814 6.10633E-03-1.37904E-04-2.15931E-14
 -1      2815 6.09360E-03-1.28939E-04-2.11865E-14
 -1      2816 6.53902E-03-4.26062E-04-2.47288E-14
 -1      2817 6.39399E-03-3.28270E-04-2.36624E-14
 -1      2818 6.38606E-03-3.18927E-04-2.32365E-14
 -1      2819 6.83067E-03-6.23669E-04-2.69235E-14
 -1      2820 6.68470E-03-5.24694E-04-2.58169E-14
 -1      2821 6.68137E-03-5.15567E-04-2.53721E-14
 -1      2822 7.12321E-03-8.21148E-04-2.91916E-14
 -1      2823 6.97695E-03-7.22572E-04-2.80472E-14
 -1      2824 6.97765E-03-7.13788E-04-2.75867E-14
 -1      2825 7.41561E-03-1.01657E-03-3.15327E-14
 -1      2826 7.26952E-03-9.19176E-04-3.03530E-14
 -1      2827 7.27344E-03-9.10653E-04-2.98743E-14
 -1      2828 7.70728E-03-1.20924E-03-3.39425E-14
 -1      2829 7.56159E-03-1.11325E-03-3.27295E-14
 -1      2830 7.56789E-03-1.10486E-03-3.22336E-14
 -1      2831 7.99798E-03-1.39921E-03-3.64178E-14
 -1      2832 7.85278E-03-1.30454E-03-3.51732E-14
 -1      2833 7.86067E-03-1.29617E-03-3.46615E-14
 -1      2834 8.28768E-03-1.58691E-03-3.89571E-14
 -1      2835 8.14296E-03-1.49331E-03-3.76787E-14
 -1      2836 8.15181E-03-1.48490E-03-3.71523E-14
 -1      2837 8.57648E-03-1.77291E-03-4.15531E-14
 -1      2838 8.43219E-03-1.68009E-03-4.02479E-14
 -1      2839 8.44153E-03-1.67161E-03-3.97056E-14
 -1      2840 8.86454E-03-1.95776E-03-4.42019E-14
 -1      2841 8.72060E-03-1.86545E-03-4.28727E-14
 -1      2842 8.73012E-03-1.85689E-03-4.23164E-14
 -1      2843 9.15199E-03-2.14191E-03-4.69015E-14
 -1      2844 9.00833E-03-2.04990E-03-4.55450E-14
 -1      2845 9.01785E-03-2.04125E-03-4.49799E-14
 -1      2846 9.43898E-03-2.32572E-03-4.96443E-14
 -1      2847 9.29553E-03-2.23384E-03-4.82668E-14
 -1      2848 9.30496E-03-2.22511E-03-4.76883E-14
 -1      2849 9.72561E-03-2.50945E-03-5.24323E-14
 -1      2850 9.58233E-03-2.41759E-03-5.10326E-14
 -1      2851 9.59162E-03-2.40878E-03-5.04425E-14
 -1      2852 1.00120E-02-2.69326E-03-5.52691E-14
 -1      2853 9.86882E-03-2.60134E-03-5.38454E-14
 -1      2854 9.87798E-03-2.59246E-03-5.32438E-14
 -1      2855 1.02981E-02-2.87723E-03-5.81506E-14
 -1      2856 1.01551E-02-2.78522E-03-5.67041E-14
 -1      2857 1.01641E-02-2.77627E-03-5.60893E-14
 -1      2858 1.05842E-02-3.06142E-03-6.10724E-14
 -1      2859 1.04412E-02-2.96930E-03-5.96068E-14
 -1      2860 1.04501E-02-2.96030E-03-5.89803E-14
 -1      2861 1.08701E-02-3.24584E-03-6.40413E-14
 -1      2862 1.07271E-02-3.15360E-03-6.25516E-14
 -1      2863 1.07360E-02-3.14455E-03-6.19114E-14
 -1      2864 1.11559E-02-3.43047E-03-6.70513E-14
 -1      2865 1.10130E-02-3.33813E-03-6.55397E-14
 -1      2866 1.10219E-02-3.32903E-03-6.48864E-14
 -1      2867 1.14417E-02-3.61530E-03-7.01052E-14
 -1      2868 1.12988E-02-3.52286E-03-6.85742E-14
 -1      2869 1.13076E-02-3.51373E-03-6.79043E-14
 -1      2870 1.17275E-02-3.80029E-03-7.31971E-14
 -1      2871 1.15846E-02-3.70778E-03-7.16464E-14
 -1      2872 1.15934E-02-3.69861E-03-7.09630E-14
 -1      2873 1.20132E-02-3.98542E-03-7.63211E-14
 -1      2874 1.18703E-02-3.89284E-03-7.47565E-14
 -1      2875 1.18791E-02-3.88365E-03-7.40582E-14
 -1      2876 1.22989E-02-4.17066E-03-7.94764E-14
 -1      2877 1.21561E-02-4.07803E-03-7.78964E-14
 -1      2878 1.21649E-02-4.06881E-03-7.71842E-14
 -1      2879 1.25846E-02-4.35598E-03-8.26524E-14
 -1      2880 1.24418E-02-4.26331E-03-8.10600E-14
 -1      2881 1.24506E-02-4.25408E-03-8.03390E-14
 -1      2882 1.28703E-02-4.54136E-03-8.58482E-14
 -1      2883 1.27275E-02-4.44867E-03-8.42481E-14
 -1      2884 1.27363E-02-4.43943E-03-8.35164E-14
 -1      2885 1.31417E-02-4.71427E-03-8.87170E-14
 -1      2886 1.29989E-02-4.62155E-03-8.71089E-14
 -1      2887 1.30077E-02-4.61231E-03-8.63712E-14
 -1      2888 1.32648E-02-4.77270E-03-8.88990E-14
 -1      2889 1.44185E-02-5.35703E-03-9.27386E-14
 -1      2890 1.43273E-02-5.31488E-03-9.26491E-14
 -1      2891 8.05010E-03-1.42690E-03-2.13674E-14
 -1      2892 7.84431E-03-1.55021E-03-2.11038E-14
 -1      2893 1.40537E-02-5.18844E-03-9.24028E-14
 -1      2894 1.39625E-02-5.14629E-03-9.23256E-14
 -1      2895 1.46009E-02-5.44132E-03-9.29246E-14
 -1      2896 1.45097E-02-5.39918E-03-9.28327E-14
 -1      2897 1.43404E-02-5.29776E-03-9.13942E-14
 -1      2898 1.42360E-02-5.27273E-03-9.25643E-14
 -1      2899 1.41449E-02-5.23059E-03-9.24827E-14
 -1      2900 1.39755E-02-5.12919E-03-9.10474E-14
 -1      2901 1.41579E-02-5.21347E-03-9.12140E-14
 -1      2902 1.47804E-02-5.52419E-03-9.31179E-14
 -1      2903 1.46906E-02-5.48276E-03-9.30205E-14
 -1      2904 1.45213E-02-5.38133E-03-9.15856E-14
 -1      2905 1.49629E-02-5.60849E-03-9.33207E-14
 -1      2906 1.48716E-02-5.56634E-03-9.32177E-14
 -1      2907 1.47023E-02-5.46490E-03-9.17848E-14
 -1      2908 1.51455E-02-5.69279E-03-9.35249E-14
 -1      2909 1.50542E-02-5.65064E-03-9.34228E-14
 -1      2910 1.48848E-02-5.54919E-03-9.19907E-14
 -1      2911 7.32237E-03-8.85557E-04-2.18111E-14
 -1      2912 7.56885E-03-1.00707E-03-2.24609E-14
 -1      2913 3.48674E-03-5.68693E-04-9.70775E-15
 -1      2914 3.40479E-03-5.49485E-04-9.51534E-15
 -1      2915 8.29131E-03-1.23836E-03-2.34850E-14
 -1      2916 8.43589E-03-1.25854E-03-2.36094E-14
 -1      2917 5.29246E-03 1.60619E-04-1.41727E-14
 -1      2918 5.40526E-03 1.68499E-04-1.46672E-14
 -1      2919 8.54773E-03-1.28074E-03-2.33714E-14
 -1      2920 8.45564E-03-1.30306E-03-2.31331E-14
 -1      2921 8.49756E-03-1.32026E-03-2.36677E-14
 -1      2922 8.62696E-03-1.30164E-03-2.42044E-14
 -1      2923 8.61496E-03-1.35416E-03-2.47926E-14
 -1      2924 6.82361E-03-5.93645E-04-2.04022E-14
 -1      2925 7.07236E-03-7.46304E-04-2.11001E-14
 -1      2926 7.20387E-03-8.34716E-04-2.19855E-14
 -1      2927 5.93058E-03 1.29690E-05-1.69438E-14
 -1      2928 6.11280E-03-1.05579E-04-1.77600E-14
 -1      2929 3.72841E-03-4.50547E-04-9.98341E-15
 -1      2930 3.89076E-03-3.99133E-04-1.02690E-14
 -1      2931 3.36392E-03-5.39563E-04-9.46299E-15
 -1      2932 3.39380E-03-5.44254E-04-9.60991E-15
 -1      2933 3.38820E-03-5.14165E-04-9.28046E-15
 -1      2934 4.49820E-03-1.29825E-04-1.14831E-14
 -1      2935 4.67258E-03-4.13063E-05-1.19386E-14
 -1      2936 4.08797E-03-3.17294E-04-1.05947E-14
 -1      2937 4.28830E-03-2.29077E-04-1.10016E-14
 -1      2938 7.82540E-04 1.13823E-04-5.14982E-16
 -1      2939 7.79100E-04 9.09409E-05-5.25160E-16
 -1      2940 8.95472E-04 8.92968E-05-6.71365E-16
 -1      2941 9.03771E-04 1.40318E-04-6.47065E-16
 -1      2942 7.93998E-04-2.39606E-04-4.86834E-16
 -1      2943 9.22226E-04-2.72157E-04-6.23620E-16
 -1      2944 9.82443E-04-2.56795E-04-7.27486E-16
 -1      2945 7.84311E-04-2.14875E-04-4.97649E-16
 -1      2946 7.88554E-03-1.13477E-03-2.30998E-14
 -1      2947 8.09580E-03-1.19878E-03-2.34093E-14
 -1      2948 4.91547E-03 6.34952E-05-1.27069E-14
 -1      2949 5.10997E-03 1.29360E-04-1.34322E-14
 -1      2950 6.34797E-03-2.68469E-04-1.87272E-14
 -1      2951 6.54042E-03-4.03611E-04-1.94109E-14
 -1      2952 8.53974E-03-1.27202E-03-2.37584E-14
 -1      2953 8.59536E-03-1.27244E-03-2.37985E-14
 -1      2954 3.78582E-03-6.32001E-04-9.83178E-15
 -1      2955 8.87083E-04-3.93696E-06-7.00137E-16
 -1      2956 7.70646E-04-1.28444E-05-5.54678E-16
 -1      2957 7.70733E-04-3.26931E-05-5.56955E-16
 -1      2958 8.69851E-03-1.35892E-03-2.53360E-14
 -1      2959 2.06129E-03 4.15114E-04-2.44015E-15
 -1      2960 1.99912E-03 4.48005E-04-2.22344E-15
 -1      2961 1.85519E-03 4.37280E-04-1.91402E-15
 -1      2962 3.68789E-03-5.71367E-04-9.24063E-15
 -1      2963 3.41026E-03-4.98895E-04-8.68751E-15
 -1      2964 3.55021E-03-5.34043E-04-8.97965E-15
 -1      2965 8.98523E-04-1.40584E-04-6.99012E-16
 -1      2966 7.82960E-04-1.36837E-04-5.49663E-16
 -1      2967 7.88303E-04-1.60276E-04-5.43145E-16
 -1      2968 8.64887E-03-1.30330E-03-2.44753E-14
 -1      2969 1.36266E-02-4.98742E-03-9.18556E-14
 -1      2970 7.71516E-04-5.25432E-05-5.57971E-16
 -1      2971 7.73040E-04-7.27050E-05-5.57958E-16
 -1      2972 8.90769E-04-9.33484E-05-7.05626E-16
 -1      2973 8.87183E-04-4.84231E-05-7.05653E-16
 -1      2974 1.41448E-03 3.95610E-04-1.11051E-15
 -1      2975 1.30003E-03 3.85703E-04-9.30178E-16
 -1      2976 8.51108E-03-1.29381E-03-2.43228E-14
 -1      2977 1.37940E-02-5.04526E-03-9.08940E-14
 -1      2978 1.38721E-02-5.10450E-03-9.22513E-14
 -1      2979 1.37817E-02-5.06271E-03-9.21785E-14
 -1      2980 3.54045E-03-5.60871E-04-9.50340E-15
 -1      2981 7.74426E-03-1.09471E-03-2.33551E-14
 -1      2982 6.06139E-03-9.50036E-05-1.78690E-14
 -1      2983 6.19551E-03-1.75920E-04-1.82952E-14
 -1      2984 6.27830E-03-2.43786E-04-1.88356E-14
 -1      2985 1.53131E-02-5.77280E-03-9.38576E-14
 -1      2986 1.52317E-02-5.73516E-03-9.37595E-14
 -1      2987 1.50623E-02-5.63370E-03-9.23315E-14
 -1      2988 1.52347E-02-5.71842E-03-9.28041E-14
 -1      2989 3.37118E-03-5.07043E-04-8.91309E-15
 -1      2990 3.35840E-03-5.24084E-04-9.18702E-15
 -1      2991 3.32165E-03-5.01123E-04-8.86441E-15
 -1      2992 8.22549E-03-1.24855E-03-2.40908E-14
 -1      2993 3.95358E-03-3.31682E-04-1.01215E-14
 -1      2994 5.40078E-03 1.74935E-04-1.47402E-14
 -1      2995 5.48277E-03 1.65276E-04-1.50430E-14
 -1      2996 5.55333E-03 1.52399E-04-1.54235E-14
 -1      2997 5.15428E-03 1.56229E-04-1.36241E-14
 -1      2998 4.76168E-03 3.47583E-05-1.21295E-14
 -1      2999 6.69492E-03-5.20107E-04-2.02616E-14
 -1      3000 3.49965E-03-4.67765E-04-9.25230E-15
 -1      3001 3.60634E-03-4.65876E-04-9.61449E-15
 -1      3002 3.64571E-03-4.19973E-04-9.43951E-15
 -1      3003 5.81000E-03 6.48205E-05-1.65277E-14
 -1      3004 4.33424E-03-1.60059E-04-1.09078E-14
 -1      3005 1.71128E-03 4.24785E-04-1.62899E-15
 -1      3006 1.56736E-03 4.10258E-04-1.36815E-15
 -1      3007 1.77185E-03 3.94530E-04-1.81607E-15
 -1      3008 1.47389E-03 3.69193E-04-1.26606E-15
 -1      3009 1.06274E-03 2.98574E-04-6.96966E-16
 -1      3010 1.05148E-03 2.63624E-04-7.26321E-16
 -1      3011 1.04195E-03 2.30335E-04-7.52287E-16
 -1      3012 1.03401E-03 1.98556E-04-7.74473E-16
 -1      3013 1.17023E-03 2.64963E-04-9.03208E-16
 -1      3014 1.41099E-03-2.88336E-04-1.42734E-15
 -1      3015 1.55216E-03-3.01074E-04-1.69894E-15
 -1      3016 1.13938E-03 3.79833E-04-6.83495E-16
 -1      3017 1.15859E-03 3.49434E-04-7.64363E-16
 -1      3018 3.00906E-03 4.19912E-04-5.19234E-15
 -1      3019 2.86025E-03 4.13617E-04-4.71124E-15
 -1      3020 1.69265E-03-3.11694E-04-1.99435E-15
 -1      3021 1.83242E-03-3.20334E-04-2.31378E-15
 -1      3022 1.60973E-03-2.76386E-04-1.86037E-15
 -1      3023 1.97098E-03-3.27609E-04-2.65631E-15
 -1      3024 2.10821E-03-3.33640E-04-3.02212E-15
 -1      3025 1.88730E-03-2.94322E-04-2.50018E-15
 -1      3026 2.24355E-03-3.39197E-04-3.41147E-15
 -1      3027 2.37674E-03-3.44308E-04-3.82349E-15
 -1      3028 2.15940E-03-3.08318E-04-3.23331E-15
 -1      3029 2.50062E-03-3.49734E-04-4.23644E-15
 -1      3030 2.62157E-03-3.55571E-04-4.67007E-15
 -1      3031 2.41626E-03-3.21469E-04-4.03658E-15
 -1      3032 2.74480E-03-3.63613E-04-5.14847E-15
 -1      3033 2.86325E-03-3.73187E-04-5.64918E-15
 -1      3034 2.66064E-03-3.37994E-04-4.92657E-15
 -1      3035 2.97561E-03-3.86494E-04-6.17227E-15
 -1      3036 3.08107E-03-4.02429E-04-6.71783E-15
 -1      3037 2.89245E-03-3.63277E-04-5.92839E-15
 -1      3038 3.33698E-03-4.77489E-04-8.37264E-15
 -1      3039 1.14228E-03-2.56891E-04-9.78276E-16
 -1      3040 1.27668E-03-2.73854E-04-1.19204E-15
 -1      3041 1.33629E-03-2.52245E-04-1.32799E-15
 -1      3042 2.71196E-03 4.07512E-04-4.25372E-15
 -1      3043 2.56436E-03 4.01429E-04-3.82025E-15
 -1      3044 2.78161E-03 3.68828E-04-4.53552E-15
 -1      3045 9.06419E-03-1.60513E-03-2.96384E-14
 -1      3046 9.17742E-03-1.68722E-03-3.08273E-14
 -1      3047 9.29008E-03-1.76777E-03-3.19703E-14
 -1      3048 9.40744E-03-1.85153E-03-3.31256E-14
 -1      3049 9.17787E-03-1.70688E-03-3.13162E-14
 -1      3050 9.53466E-03-1.94136E-03-3.43522E-14
 -1      3051 9.66541E-03-2.03328E-03-3.55933E-14
 -1      3052 9.41088E-03-1.87312E-03-3.36807E-14
 -1      3053 9.79865E-03-2.12615E-03-3.68465E-14
 -1      3054 9.93417E-03-2.22011E-03-3.81128E-14
 -1      3055 9.66628E-03-2.05243E-03-3.61552E-14
 -1      3056 1.00713E-02-2.31452E-03-3.93938E-14
 -1      3057 1.02098E-02-2.40942E-03-4.06859E-14
 -1      3058 9.93276E-03-2.23707E-03-3.86859E-14
 -1      3059 1.03493E-02-2.50446E-03-4.19903E-14
 -1      3060 1.04897E-02-2.59965E-03-4.33095E-14
 -1      3061 1.02065E-02-2.42457E-03-4.12677E-14
 -1      3062 1.06236E-02-2.69006E-03-4.45724E-14
 -1      3063 1.07580E-02-2.78044E-03-4.58471E-14
 -1      3064 1.04779E-02-2.60865E-03-4.38346E-14
 -1      3065 1.08998E-02-2.87547E-03-4.71992E-14
 -1      3066 1.10419E-02-2.97040E-03-4.85589E-14
 -1      3067 1.07520E-02-2.79311E-03-4.64459E-14
 -1      3068 1.11843E-02-3.06517E-03-4.99325E-14
 -1      3069 1.13268E-02-3.15981E-03-5.13164E-14
 -1      3070 1.10351E-02-2.98222E-03-4.91691E-14
 -1      3071 1.14694E-02-3.25429E-03-5.27085E-14
 -1      3072 1.16121E-02-3.34863E-03-5.41114E-14
 -1      3073 1.13192E-02-3.17101E-03-5.19324E-14
 -1      3074 1.17549E-02-3.44283E-03-5.55210E-14
 -1      3075 1.18977E-02-3.53688E-03-5.69379E-14
 -1      3076 1.16041E-02-3.35935E-03-5.47342E-14
 -1      3077 1.20405E-02-3.63081E-03-5.83659E-14
 -1      3078 1.21834E-02-3.72462E-03-5.98026E-14
 -1      3079 1.18893E-02-3.54725E-03-5.75699E-14
 -1      3080 1.23191E-02-3.81364E-03-6.11749E-14
 -1      3081 1.24549E-02-3.90256E-03-6.25575E-14
 -1      3082 1.21677E-02-3.73003E-03-6.03688E-14
 -1      3083 1.25978E-02-3.99607E-03-6.40217E-14
 -1      3084 1.27407E-02-4.08950E-03-6.54969E-14
 -1      3085 1.24461E-02-3.91245E-03-6.32062E-14
 -1      3086 1.28836E-02-4.18284E-03-6.69796E-14
 -1      3087 1.30264E-02-4.27612E-03-6.84715E-14
 -1      3088 1.27318E-02-4.09923E-03-6.61543E-14
 -1      3089 1.31693E-02-4.36933E-03-6.99722E-14
 -1      3090 1.33122E-02-4.46249E-03-7.14796E-14
 -1      3091 1.30175E-02-4.28573E-03-6.91356E-14
 -1      3092 1.34551E-02-4.55559E-03-7.29986E-14
 -1      3093 1.35980E-02-4.64865E-03-7.45285E-14
 -1      3094 1.33032E-02-4.47201E-03-7.21523E-14
 -1      3095 1.37409E-02-4.74167E-03-7.60681E-14
 -1      3096 1.38837E-02-4.83466E-03-7.76140E-14
 -1      3097 1.35890E-02-4.65811E-03-7.52075E-14
 -1      3098 1.40195E-02-4.92297E-03-7.90909E-14
 -1      3099 1.41552E-02-5.01125E-03-8.05737E-14
 -1      3100 1.38676E-02-4.83941E-03-7.82199E-14
 -1      3101 1.42981E-02-5.10416E-03-8.21407E-14
 -1      3102 1.44409E-02-5.19705E-03-8.37151E-14
 -1      3103 1.41462E-02-5.02062E-03-8.12619E-14
 -1      3104 1.45838E-02-5.28992E-03-8.52925E-14
 -1      3105 1.47266E-02-5.38278E-03-8.68757E-14
 -1      3106 1.44319E-02-5.20639E-03-8.44065E-14
 -1      3107 1.48695E-02-5.47563E-03-8.84607E-14
 -1      3108 1.50124E-02-5.56847E-03-9.00473E-14
 -1      3109 1.47176E-02-5.39210E-03-8.75700E-14
 -1      3110 1.48068E-02-5.48988E-03-9.06635E-14
 -1      3111 1.47155E-02-5.44774E-03-9.05581E-14
 -1      3112 8.48967E-03-1.32123E-03-2.49918E-14
 -1      3113 8.58809E-03-1.33281E-03-2.51489E-14
 -1      3114 2.41728E-03 3.95174E-04-3.41015E-15
 -1      3115 2.27078E-03 3.88522E-04-3.02346E-15
 -1      3116 2.48394E-03 3.58053E-04-3.66382E-15
 -1      3117 3.60944E-03 4.47435E-04-7.35126E-15
 -1      3118 3.45891E-03 4.40374E-04-6.77653E-15
 -1      3119 3.91030E-03 4.60047E-04-8.57155E-15
 -1      3120 3.76007E-03 4.54177E-04-7.94960E-15
 -1      3121 3.69354E-03 4.07819E-04-7.71305E-15
 -1      3122 4.20878E-03 4.66379E-04-9.88506E-15
 -1      3123 4.06002E-03 4.64447E-04-9.21650E-15
 -1      3124 4.00043E-03 4.21313E-04-8.95871E-15
 -1      3125 4.50261E-03 4.58915E-04-1.12945E-14
 -1      3126 4.35636E-03 4.64983E-04-1.05783E-14
 -1      3127 4.30469E-03 4.28338E-04-1.02981E-14
 -1      3128 4.79072E-03 4.28367E-04-1.28004E-14
 -1      3129 4.64729E-03 4.47166E-04-1.20353E-14
 -1      3130 4.60356E-03 4.20151E-04-1.17334E-14
 -1      3131 5.07427E-03 3.66182E-04-1.44039E-14
 -1      3132 4.93280E-03 4.01700E-04-1.35897E-14
 -1      3133 4.89598E-03 3.86001E-04-1.32654E-14
 -1      3134 5.35638E-03 2.67474E-04-1.61046E-14
 -1      3135 5.21511E-03 3.21481E-04-1.52427E-14
 -1      3136 5.18370E-03 3.16581E-04-1.48957E-14
 -1      3137 5.64102E-03 1.33141E-04-1.79038E-14
 -1      3138 5.49807E-03 2.04412E-04-1.69914E-14
 -1      3139 5.47093E-03 2.07557E-04-1.66248E-14
 -1      3140 5.93077E-03-3.03931E-05-1.97982E-14
 -1      3141 5.78511E-03 5.44238E-05-1.88393E-14
 -1      3142 5.76205E-03 6.19096E-05-1.84522E-14
 -1      3143 6.22607E-03-2.13942E-04-2.17849E-14
 -1      3144 6.07778E-03-1.20317E-04-2.07806E-14
 -1      3145 6.05935E-03-1.11597E-04-2.03736E-14
 -1      3146 6.52537E-03-4.08434E-04-2.38582E-14
 -1      3147 6.37539E-03-3.10347E-04-2.28110E-14
 -1      3148 6.36225E-03-3.02154E-04-2.23861E-14
 -1      3149 6.82629E-03-6.06906E-04-2.60181E-14
 -1      3150 6.67582E-03-5.07510E-04-2.49276E-14
 -1      3151 6.66821E-03-5.00312E-04-2.44843E-14
 -1      3152 7.12671E-03-8.05036E-04-2.82523E-14
 -1      3153 6.97672E-03-7.06182E-04-2.71262E-14
 -1      3154 6.97425E-03-6.99698E-04-2.66647E-14
 -1      3155 7.42521E-03-1.00072E-03-3.05597E-14
 -1      3156 7.27630E-03-9.03233E-04-2.93969E-14
 -1      3157 7.27812E-03-8.96968E-04-2.89204E-14
 -1      3158 7.72121E-03-1.19332E-03-3.29371E-14
 -1      3159 7.57357E-03-1.09739E-03-3.17399E-14
 -1      3160 7.57865E-03-1.09093E-03-3.12472E-14
 -1      3161 8.01470E-03-1.38303E-03-3.53809E-14
 -1      3162 7.86828E-03-1.28850E-03-3.41508E-14
 -1      3163 7.87562E-03-1.28162E-03-3.36425E-14
 -1      3164 8.30599E-03-1.57042E-03-3.78902E-14
 -1      3165 8.16061E-03-1.47697E-03-3.66281E-14
 -1      3166 8.16937E-03-1.46960E-03-3.61036E-14
 -1      3167 8.59555E-03-1.75609E-03-4.04565E-14
 -1      3168 8.45097E-03-1.66343E-03-3.91649E-14
 -1      3169 8.46051E-03-1.65560E-03-3.86271E-14
 -1      3170 8.88381E-03-1.94065E-03-4.30822E-14
 -1      3171 8.73982E-03-1.84848E-03-4.17630E-14
 -1      3172 8.74970E-03-1.84028E-03-4.12097E-14
 -1      3173 9.17116E-03-2.12456E-03-4.57559E-14
 -1      3174 9.02758E-03-2.03266E-03-4.44133E-14
 -1      3175 9.03752E-03-2.02417E-03-4.38488E-14
 -1      3176 9.45790E-03-2.30817E-03-4.84775E-14
 -1      3177 9.31459E-03-2.21638E-03-4.71107E-14
 -1      3178 9.32444E-03-2.20768E-03-4.65346E-14
 -1      3179 9.74423E-03-2.49173E-03-5.12431E-14
 -1      3180 9.60111E-03-2.39994E-03-4.98544E-14
 -1      3181 9.61078E-03-2.39109E-03-4.92679E-14
 -1      3182 1.00303E-02-2.67539E-03-5.40545E-14
 -1      3183 9.88730E-03-2.58354E-03-5.26427E-14
 -1      3184 9.89679E-03-2.57458E-03-5.20444E-14
 -1      3185 1.03162E-02-2.85924E-03-5.69110E-14
 -1      3186 1.01733E-02-2.76729E-03-5.54769E-14
 -1      3187 1.01826E-02-2.75825E-03-5.48664E-14
 -1      3188 1.06021E-02-3.04333E-03-5.98089E-14
 -1      3189 1.04592E-02-2.95125E-03-5.83551E-14
 -1      3190 1.04684E-02-2.94217E-03-5.77326E-14
 -1      3191 1.08879E-02-3.22765E-03-6.27501E-14
 -1      3192 1.07450E-02-3.13546E-03-6.12738E-14
 -1      3193 1.07540E-02-3.12634E-03-6.06395E-14
 -1      3194 1.11736E-02-3.41221E-03-6.57314E-14
 -1      3195 1.10308E-02-3.31991E-03-6.42358E-14
 -1      3196 1.10397E-02-3.31075E-03-6.35872E-14
 -1      3197 1.14594E-02-3.59698E-03-6.87568E-14
 -1      3198 1.13165E-02-3.50457E-03-6.72385E-14
 -1      3199 1.13254E-02-3.49539E-03-6.65772E-14
 -1      3200 1.17451E-02-3.78192E-03-7.18208E-14
 -1      3201 1.16022E-02-3.68943E-03-7.02854E-14
 -1      3202 1.16111E-02-3.68023E-03-6.96095E-14
 -1      3203 1.20308E-02-3.96701E-03-7.49169E-14
 -1      3204 1.18880E-02-3.87444E-03-7.33659E-14
 -1      3205 1.18968E-02-3.86523E-03-7.26782E-14
 -1      3206 1.23165E-02-4.15221E-03-7.80474E-14
 -1      3207 1.21737E-02-4.05960E-03-7.64796E-14
 -1      3208 1.21825E-02-4.05037E-03-7.57778E-14
 -1      3209 1.26023E-02-4.33751E-03-8.12024E-14
 -1      3210 1.24594E-02-4.24485E-03-7.96200E-14
 -1      3211 1.24682E-02-4.23561E-03-7.89081E-14
 -1      3212 1.28880E-02-4.52288E-03-8.43830E-14
 -1      3213 1.27451E-02-4.43019E-03-8.27878E-14
 -1      3214 1.27540E-02-4.42094E-03-8.20650E-14
 -1      3215 8.18287E-03-1.38572E-03-2.21468E-14
 -1      3216 1.42623E-02-5.23848E-03-9.00547E-14
 -1      3217 1.41710E-02-5.19634E-03-8.99589E-14
 -1      3218 3.30849E-03 4.33320E-04-6.22492E-15
 -1      3219 3.15857E-03 4.26466E-04-5.69680E-15
 -1      3220 3.38693E-03 3.93327E-04-6.56091E-15
 -1      3221 7.64068E-03-1.06711E-03-2.38140E-14
 -1      3222 7.92255E-03-1.18337E-03-2.44760E-14
 -1      3223 7.81838E-04-1.75793E-04-5.25066E-16
 -1      3224 7.89327E-04-1.97822E-04-5.18194E-16
 -1      3225 8.87308E-04-2.17996E-04-6.29827E-16
 -1      3226 8.97976E-04-1.82609E-04-6.72639E-16
 -1      3227 8.73282E-03-1.36478E-03-2.56048E-14
 -1      3228 3.79728E-03-3.38505E-04-9.54111E-15
 -1      3229 3.96398E-03-2.67835E-04-9.85068E-15
 -1      3230 1.46242E-02-5.40560E-03-9.04527E-14
 -1      3231 1.45329E-02-5.36346E-03-9.03483E-14
 -1      3232 1.45461E-02-5.34629E-03-8.91266E-14
 -1      3233 7.08958E-03-7.79780E-04-2.21785E-14
 -1      3234 7.31231E-03-9.04824E-04-2.29061E-14
 -1      3235 5.05801E-03 1.62931E-04-1.32389E-14
 -1      3236 5.22411E-03 1.81785E-04-1.39724E-14
 -1      3237 8.17506E-03-1.26363E-03-2.48247E-14
 -1      3238 8.34475E-03-1.29901E-03-2.49106E-14
 -1      3239 8.45288E-03-1.34506E-03-2.57405E-14
 -1      3240 8.86004E-03-1.45570E-03-2.72979E-14
 -1      3241 8.95824E-03-1.52846E-03-2.84608E-14
 -1      3242 8.96775E-03-1.55362E-03-2.90023E-14
 -1      3243 3.32810E-03-4.87727E-04-8.82812E-15
 -1      3244 3.38584E-03-4.82679E-04-8.96895E-15
 -1      3245 5.68942E-03 1.09864E-04-1.60810E-14
 -1      3246 5.84841E-03 3.19287E-05-1.68815E-14
 -1      3247 4.17398E-03-1.74875E-04-1.03114E-14
 -1      3248 4.35562E-03-9.08138E-05-1.07717E-14
 -1      3249 6.53643E-03-4.25741E-04-2.00298E-14
 -1      3250 6.79417E-03-5.97504E-04-2.10331E-14
 -1      3251 4.59157E-03 1.17505E-05-1.14755E-14
 -1      3252 4.80563E-03 9.87304E-05-1.22217E-14
 -1      3253 1.00942E-03 5.80104E-05-8.47114E-16
 -1      3254 1.00687E-03 3.24077E-05-8.55639E-16
 -1      3255 1.44424E-02-5.32168E-03-9.02467E-14
 -1      3256 1.43527E-02-5.28026E-03-9.01495E-14
 -1      3257 1.41834E-02-5.17883E-03-8.87172E-14
 -1      3258 1.43643E-02-5.26238E-03-8.89163E-14
 -1      3259 1.35485E-02-4.92819E-03-9.04949E-14
 -1      3260 8.70098E-03-1.34158E-03-2.53035E-14
 -1      3261 8.78813E-03-1.40585E-03-2.64482E-14
 -1      3262 8.79445E-03-1.43093E-03-2.69827E-14
 -1      3263 8.65831E-03-1.34246E-03-2.53020E-14
 -1      3264 9.85975E-04-2.36752E-04-7.53222E-16
 -1      3265 1.15280E-03 1.97419E-04-9.54220E-16
 -1      3266 1.02726E-03 1.68293E-04-7.93609E-16
 -1      3267 1.02159E-03 1.39263E-04-8.10278E-16
 -1      3268 8.07331E-03-1.24784E-03-2.52962E-14
 -1      3269 7.51948E-03-1.01506E-03-2.40104E-14
 -1      3270 3.08263E-03 3.80244E-04-5.50121E-15
 -1      3271 2.12471E-03 3.81181E-04-2.66093E-15
 -1      3272 1.97908E-03 3.72901E-04-2.32265E-15
 -1      3273 2.18919E-03 3.46191E-04-2.88680E-15
 -1      3274 3.17862E-03-4.24365E-04-7.28375E-15
 -1      3275 3.26605E-03-4.49452E-04-7.87108E-15
 -1      3276 1.01461E-03-1.41292E-04-8.66874E-16
 -1      3277 1.02040E-03-1.67845E-04-8.60762E-16
 -1      3278 1.04732E-03-2.20645E-04-8.61575E-16
 -1      3279 1.00509E-03 7.33065E-06-8.62388E-16
 -1      3280 1.00414E-03-1.73527E-05-8.67430E-16
 -1      3281 1.12464E-03 2.05691E-05-1.04060E-15
 -1      3282 8.04844E-03-1.46838E-03-2.21382E-14
 -1      3283 1.52840E-03 3.39447E-04-1.41888E-15
 -1      3284 1.37479E-03 3.26173E-04-1.15785E-15
 -1      3285 3.40683E-03-4.51400E-04-8.80218E-15
 -1      3286 1.48930E-02-5.53224E-03-9.09011E-14
 -1      3287 1.47236E-02-5.43078E-03-8.94705E-14
 -1      3288 1.49791E-02-5.57460E-03-9.11387E-14
 -1      3289 1.51564E-02-5.66403E-03-9.17530E-14
 -1      3290 8.66047E-03-1.37468E-03-2.59817E-14
 -1      3291 3.25478E-03-4.55408E-04-8.08717E-15
 -1      3292 1.25065E-03 3.27063E-04-9.45275E-16
 -1      3293 1.08821E-03 3.21192E-04-7.01641E-16
 -1      3294 1.30553E-03 3.01093E-04-1.07531E-15
 -1      3295 1.30165E-02-4.60306E-03-8.56389E-14
 -1      3296 1.30254E-02-4.59381E-03-8.49088E-14
 -1      3297 1.31451E-02-4.68325E-03-8.68958E-14
 -1      3298 1.38974E-02-5.06993E-03-8.96972E-14
 -1      3299 1.38062E-02-5.02780E-03-8.96175E-14
 -1      3300 1.34199E-02-4.84798E-03-8.92242E-14
 -1      3301 1.32913E-02-4.76778E-03-8.79568E-14
 -1      3302 1.35750E-02-4.92326E-03-8.95501E-14
 -1      3303 3.26695E-03-4.65378E-04-8.32385E-15
 -1      3304 3.29146E-03-4.78683E-04-8.58890E-15
 -1      3305 3.26541E-03-4.52899E-04-8.28924E-15
 -1      3306 3.20433E-03-4.36693E-04-7.82457E-15
 -1      3307 1.37358E-02-4.99642E-03-8.96196E-14
 -1      3308 1.36454E-02-4.95464E-03-8.95432E-14
 -1      3309 1.35168E-02-4.87443E-03-8.82774E-14
 -1      3310 1.36577E-02-4.93717E-03-8.82699E-14
 -1      3311 1.40798E-02-5.15421E-03-8.98700E-14
 -1      3312 1.39886E-02-5.11207E-03-8.97839E-14
 -1      3313 1.40017E-02-5.09493E-03-8.85320E-14
 -1      3314 1.00702E-03-9.06894E-05-8.72471E-16
 -1      3315 1.01015E-03-1.15659E-04-8.70709E-16
 -1      3316 1.13108E-03-1.39353E-04-1.05254E-15
 -1      3317 5.93104E-03-2.29006E-05-1.73992E-14
 -1      3318 6.01277E-03-8.06058E-05-1.79227E-14
 -1      3319 5.81265E-03 3.70712E-05-1.69365E-14
 -1      3320 4.88983E-03 1.49925E-04-1.25471E-14
 -1      3321 4.95914E-03 1.89144E-04-1.28736E-14
 -1      3322 4.72197E-03 1.37149E-04-1.18751E-14
 -1      3323 1.01272E-03 8.42019E-05-8.36869E-16
 -1      3324 1.13068E-03 7.61062E-05-1.02088E-15
 -1      3325 1.01673E-03 1.11191E-04-8.24576E-16
 -1      3326 3.66973E-03-3.61414E-04-9.18137E-15
 -1      3327 3.67661E-03-2.99570E-04-8.92288E-15
 -1      3328 3.55069E-03-3.74207E-04-8.82808E-15
 -1      3329 4.42246E-03-9.99236E-06-1.08579E-14
 -1      3330 5.29600E-03 1.87539E-04-1.43344E-14
 -1      3331 5.36277E-03 1.85803E-04-1.47012E-14
 -1      3332 5.19332E-03 2.00512E-04-1.39326E-14
 -1      3333 6.38927E-03-3.30421E-04-1.95802E-14
 -1      3334 6.49916E-03-4.09019E-04-2.03337E-14
 -1      3335 6.25547E-03-2.41795E-04-1.91355E-14
 -1      3336 3.99996E-03-1.95090E-04-9.72307E-15
 -1      3337 5.60041E-03 1.34318E-04-1.57633E-14
 -1      3338 6.92418E-03-6.81885E-04-2.19311E-14
 -1      3339 3.09725E-03-4.02644E-04-7.01740E-15
 -1      3340 1.83378E-03 3.63310E-04-2.00789E-15
 -1      3341 1.68878E-03 3.52159E-04-1.71669E-15
 -1      3342 1.89679E-03 3.31111E-04-2.20436E-15
 -1      3343 1.59052E-03 3.11169E-04-1.58443E-15
 -1      3344 1.52915E-03-2.41795E-04-1.72837E-15
 -1      3345 1.66814E-03-2.52045E-04-2.02549E-15
 -1      3346 1.80627E-03-2.61131E-04-2.34605E-15
 -1      3347 1.94325E-03-2.69257E-04-2.69004E-15
 -1      3348 1.72757E-03-2.27934E-04-2.19363E-15
 -1      3349 2.07866E-03-2.77039E-04-3.05703E-15
 -1      3350 2.21211E-03-2.84582E-04-3.44673E-15
 -1      3351 2.00063E-03-2.45068E-04-2.88239E-15
 -1      3352 2.33663E-03-2.92337E-04-3.83855E-15
 -1      3353 2.45849E-03-3.00631E-04-4.25075E-15
 -1      3354 2.26044E-03-2.61858E-04-3.64204E-15
 -1      3355 2.58337E-03-3.11097E-04-4.70622E-15
 -1      3356 2.70397E-03-3.23151E-04-5.18495E-15
 -1      3357 2.51064E-03-2.82108E-04-4.48803E-15
 -1      3358 2.81971E-03-3.38455E-04-5.68545E-15
 -1      3359 2.92925E-03-3.56349E-04-6.20886E-15
 -1      3360 2.75319E-03-3.10668E-04-5.44454E-15
 -1      3361 9.06422E-03-1.65219E-03-3.06957E-14
 -1      3362 9.17074E-03-1.72817E-03-3.18327E-14
 -1      3363 1.05225E-03-2.01453E-04-8.85712E-16
 -1      3364 2.85216E-03 3.28577E-04-4.82039E-15
 -1      3365 2.70130E-03 3.23995E-04-4.35929E-15
 -1      3366 1.00409E-03-4.17852E-05-8.70669E-16
 -1      3367 1.00500E-03-6.61409E-05-8.72363E-16
 -1      3368 1.12406E-03-8.57024E-05-1.05643E-15
 -1      3369 3.31545E-03-4.23261E-04-8.28429E-15
 -1      3370 3.42221E-03-4.07430E-04-8.55618E-15
 -1      3371 3.43016E-03-3.56747E-04-8.31052E-15
 -1      3372 1.50045E-02-5.58050E-03-9.08614E-14
 -1      3373 9.28835E-03-1.81058E-03-3.30418E-14
 -1      3374 9.41060E-03-1.89627E-03-3.42647E-14
 -1      3375 9.16230E-03-1.75118E-03-3.24070E-14
 -1      3376 9.53667E-03-1.98380E-03-3.55013E-14
 -1      3377 9.66595E-03-2.07338E-03-3.67501E-14
 -1      3378 9.40552E-03-1.91774E-03-3.48490E-14
 -1      3379 9.79781E-03-2.16410E-03-3.80133E-14
 -1      3380 9.93184E-03-2.25604E-03-3.92912E-14
 -1      3381 9.66231E-03-2.09315E-03-3.73447E-14
 -1      3382 1.00676E-02-2.34862E-03-4.05808E-14
 -1      3383 1.02048E-02-2.44187E-03-4.18827E-14
 -1      3384 9.92864E-03-2.27420E-03-3.98948E-14
 -1      3385 1.03361E-02-2.53075E-03-4.31322E-14
 -1      3386 1.04684E-02-2.61994E-03-4.43938E-14
 -1      3387 1.01946E-02-2.45400E-03-4.24326E-14
 -1      3388 1.06083E-02-2.71394E-03-4.57313E-14
 -1      3389 1.07488E-02-2.80808E-03-4.70807E-14
 -1      3390 1.04648E-02-2.63561E-03-4.50179E-14
 -1      3391 1.08899E-02-2.90222E-03-4.84431E-14
 -1      3392 1.10313E-02-2.99638E-03-4.98149E-14
 -1      3393 1.07449E-02-2.82282E-03-4.77183E-14
 -1      3394 1.11730E-02-3.09048E-03-5.11938E-14
 -1      3395 1.13150E-02-3.18454E-03-5.25868E-14
 -1      3396 1.10270E-02-3.01038E-03-5.04598E-14
 -1      3397 1.14571E-02-3.27851E-03-5.39858E-14
 -1      3398 1.15995E-02-3.37241E-03-5.53934E-14
 -1      3399 1.13104E-02-3.19797E-03-5.32402E-14
 -1      3400 1.17419E-02-3.46622E-03-5.68121E-14
 -1      3401 1.18844E-02-3.55994E-03-5.82384E-14
 -1      3402 1.15946E-02-3.38540E-03-5.60557E-14
 -1      3403 1.20199E-02-3.64890E-03-5.96035E-14
 -1      3404 1.21555E-02-3.73778E-03-6.09747E-14
 -1      3405 1.18723E-02-3.56792E-03-5.88371E-14
 -1      3406 1.22982E-02-3.83127E-03-6.24285E-14
 -1      3407 1.24409E-02-3.92467E-03-6.38944E-14
 -1      3408 1.21503E-02-3.75018E-03-6.16545E-14
 -1      3409 1.25837E-02-4.01801E-03-6.53657E-14
 -1      3410 1.27265E-02-4.11129E-03-6.68475E-14
 -1      3411 1.24357E-02-3.93687E-03-6.45809E-14
 -1      3412 1.28693E-02-4.20450E-03-6.83407E-14
 -1      3413 1.30122E-02-4.29767E-03-6.98390E-14
 -1      3414 1.27212E-02-4.12333E-03-6.75453E-14
 -1      3415 1.31550E-02-4.39078E-03-7.13473E-14
 -1      3416 1.32979E-02-4.48385E-03-7.28636E-14
 -1      3417 1.30068E-02-4.30958E-03-7.05442E-14
 -1      3418 1.34407E-02-4.57688E-03-7.43896E-14
 -1      3419 1.35836E-02-4.66987E-03-7.59267E-14
 -1      3420 1.32925E-02-4.49568E-03-7.35769E-14
 -1      3421 1.37193E-02-4.75819E-03-7.73931E-14
 -1      3422 1.38550E-02-4.84648E-03-7.88664E-14
 -1      3423 1.35710E-02-4.67699E-03-7.65689E-14
 -1      3424 1.39979E-02-4.93940E-03-8.04253E-14
 -1      3425 1.41408E-02-5.03230E-03-8.19914E-14
 -1      3426 1.38496E-02-4.85819E-03-7.95911E-14
 -1      3427 1.42836E-02-5.12518E-03-8.35652E-14
 -1      3428 1.44265E-02-5.21804E-03-8.51411E-14
 -1      3429 1.41353E-02-5.04397E-03-8.27227E-14
 -1      3430 1.29486E-03 2.64219E-04-1.10799E-15
 -1      3431 4.09296E-03 3.81924E-04-9.34775E-15
 -1      3432 3.93646E-03 3.74774E-04-8.70109E-15
 -1      3433 3.77955E-03 3.66906E-04-8.07695E-15
 -1      3434 3.62298E-03 3.59100E-04-7.47617E-15
 -1      3435 3.86729E-03 3.25105E-04-8.44287E-15
 -1      3436 4.70730E-03 3.82082E-04-1.21733E-14
 -1      3437 4.55625E-03 3.89276E-04-1.14308E-14
 -1      3438 5.00370E-03 3.44058E-04-1.37326E-14
 -1      3439 4.85614E-03 3.67546E-04-1.29408E-14
 -1      3440 4.81298E-03 3.45102E-04-1.26158E-14
 -1      3441 5.29551E-03 2.66312E-04-1.53905E-14
 -1      3442 5.14967E-03 3.10694E-04-1.45489E-14
 -1      3443 5.11321E-03 3.02351E-04-1.42020E-14
 -1      3444 5.58818E-03 1.45293E-04-1.71480E-14
 -1      3445 5.44125E-03 2.10930E-04-1.62571E-14
 -1      3446 5.40966E-03 2.14110E-04-1.58883E-14
 -1      3447 5.88641E-03-1.28993E-05-1.90038E-14
 -1      3448 5.73630E-03 7.00997E-05-1.80641E-14
 -1      3449 5.70870E-03 7.92463E-05-1.76756E-14
 -1      3450 6.19187E-03-1.96733E-04-2.09518E-14
 -1      3451 6.03827E-03-1.02543E-04-1.99660E-14
 -1      3452 6.01522E-03-9.24727E-05-1.95581E-14
 -1      3453 6.50262E-03-3.93771E-04-2.29892E-14
 -1      3454 6.34684E-03-2.94367E-04-2.19596E-14
 -1      3455 6.32956E-03-2.86307E-04-2.15335E-14
 -1      3456 6.81495E-03-5.94587E-04-2.51126E-14
 -1      3457 6.65890E-03-4.94162E-04-2.40409E-14
 -1      3458 6.64811E-03-4.88631E-04-2.35974E-14
 -1      3459 7.12545E-03-7.93846E-04-2.73148E-14
 -1      3460 6.97067E-03-6.94598E-04-2.62041E-14
 -1      3461 6.96614E-03-6.90717E-04-2.57438E-14
 -1      3462 7.43198E-03-9.89431E-04-2.95894E-14
 -1      3463 7.27934E-03-8.92118E-04-2.84427E-14
 -1      3464 7.28010E-03-8.88696E-04-2.79660E-14
 -1      3465 7.73377E-03-1.18114E-03-3.19369E-14
 -1      3466 7.58351E-03-1.08572E-03-3.07547E-14
 -1      3467 7.58825E-03-1.08184E-03-3.02634E-14
 -1      3468 8.03107E-03-1.36964E-03-3.43488E-14
 -1      3469 7.88297E-03-1.27572E-03-3.31346E-14
 -1      3470 7.89044E-03-1.27091E-03-3.26287E-14
 -1      3471 8.32462E-03-1.55579E-03-3.68287E-14
 -1      3472 8.17828E-03-1.46294E-03-3.55808E-14
 -1      3473 8.18742E-03-1.45706E-03-3.50594E-14
 -1      3474 8.61529E-03-1.74040E-03-3.93641E-14
 -1      3475 8.47027E-03-1.64823E-03-3.80887E-14
 -1      3476 8.48031E-03-1.64139E-03-3.75519E-14
 -1      3477 8.90393E-03-1.92413E-03-4.19636E-14
 -1      3478 8.75982E-03-1.83234E-03-4.06579E-14
 -1      3479 8.77023E-03-1.82471E-03-4.01063E-14
 -1      3480 9.19121E-03-2.10742E-03-4.46157E-14
 -1      3481 9.04770E-03-2.01580E-03-4.32831E-14
 -1      3482 9.05816E-03-2.00759E-03-4.27197E-14
 -1      3483 9.47764E-03-2.29060E-03-4.73144E-14
 -1      3484 9.33450E-03-2.19901E-03-4.59588E-14
 -1      3485 9.34481E-03-2.19039E-03-4.53851E-14
 -1      3486 9.76359E-03-2.47387E-03-5.00602E-14
 -1      3487 9.62066E-03-2.38221E-03-4.86828E-14
 -1      3488 9.63074E-03-2.37332E-03-4.80971E-14
 -1      3489 1.00493E-02-2.65733E-03-5.28481E-14
 -1      3490 9.90645E-03-2.56557E-03-5.14483E-14
 -1      3491 9.91629E-03-2.55651E-03-5.08539E-14
 -1      3492 1.03349E-02-2.84106E-03-5.56800E-14
 -1      3493 1.01921E-02-2.74916E-03-5.42590E-14
 -1      3494 1.02017E-02-2.74001E-03-5.36539E-14
 -1      3495 1.06204E-02-3.02506E-03-5.85541E-14
 -1      3496 1.04776E-02-2.93302E-03-5.71124E-14
 -1      3497 1.04870E-02-2.92382E-03-5.64943E-14
 -1      3498 1.09060E-02-3.20933E-03-6.14710E-14
 -1      3499 1.07632E-02-3.11716E-03-6.00079E-14
 -1      3500 1.07724E-02-3.10793E-03-5.93787E-14
 -1      3501 1.11916E-02-3.39384E-03-6.44292E-14
 -1      3502 1.10488E-02-3.30155E-03-6.29446E-14
 -1      3503 1.10579E-02-3.29231E-03-6.23042E-14
 -1      3504 1.14772E-02-3.57857E-03-6.74247E-14
 -1      3505 1.13344E-02-3.48618E-03-6.59212E-14
 -1      3506 1.13434E-02-3.47693E-03-6.52696E-14
 -1      3507 1.17628E-02-3.76348E-03-7.04642E-14
 -1      3508 1.16200E-02-3.67100E-03-6.89403E-14
 -1      3509 1.16290E-02-3.66175E-03-6.82743E-14
 -1      3510 1.20485E-02-3.94855E-03-7.35334E-14
 -1      3511 1.19057E-02-3.85600E-03-7.19951E-14
 -1      3512 1.19146E-02-3.84674E-03-7.13178E-14
 -1      3513 1.23342E-02-4.13374E-03-7.66364E-14
 -1      3514 1.21914E-02-4.04113E-03-7.50799E-14
 -1      3515 1.22002E-02-4.03187E-03-7.43895E-14
 -1      3516 1.26199E-02-4.31902E-03-7.97686E-14
 -1      3517 1.24771E-02-4.22637E-03-7.81989E-14
 -1      3518 1.24859E-02-4.21711E-03-7.74944E-14
 -1      3519 1.29056E-02-4.50438E-03-8.29282E-14
 -1      3520 1.27628E-02-4.41169E-03-8.13448E-14
 -1      3521 1.27716E-02-4.40244E-03-8.06291E-14
 -1      3522 1.38193E-02-5.01067E-03-8.83546E-14
 -1      3523 3.46681E-03 3.51701E-04-6.89876E-15
 -1      3524 3.31161E-03 3.44934E-04-6.34420E-15
 -1      3525 3.54798E-03 3.08617E-04-7.23931E-15
 -1      3526 1.65582E-03 2.80995E-04-1.76087E-15
 -1      3527 1.49536E-03 2.70431E-04-1.45930E-15
 -1      3528 8.66382E-03-1.40681E-03-2.66642E-14
 -1      3529 8.73745E-03-1.41883E-03-2.68241E-14
 -1      3530 8.81668E-03-1.46776E-03-2.76747E-14
 -1      3531 8.04206E-03-1.25577E-03-2.60448E-14
 -1      3532 8.26540E-03-1.33031E-03-2.64101E-14
 -1      3533 3.15730E-03 3.38889E-04-5.81314E-15
 -1      3534 3.00421E-03 3.33458E-04-5.30487E-15
 -1      3535 2.92343E-03 2.86722E-04-5.10876E-15
 -1      3536 1.48351E-02-5.47904E-03-8.94329E-14
 -1      3537 8.42094E-03-1.36736E-03-2.64856E-14
 -1      3538 8.55328E-03-1.39103E-03-2.65766E-14
 -1      3539 8.64965E-03-1.43809E-03-2.74228E-14
 -1      3540 3.82318E-03-2.00666E-04-9.08701E-15
 -1      3541 4.00562E-03-1.20955E-04-9.52438E-15
 -1      3542 7.40905E-03-9.63780E-04-2.42600E-14
 -1      3543 7.70590E-03-1.11249E-03-2.51955E-14
 -1      3544 6.76400E-03-5.83513E-04-2.16672E-14
 -1      3545 7.03569E-03-7.51388E-04-2.28260E-14
 -1      3546 3.03229E-03-3.79409E-04-6.75311E-15
 -1      3547 3.12653E-03-4.05630E-04-7.31883E-15
 -1      3548 2.97614E-03-3.52180E-04-6.49006E-15
 -1      3549 4.40335E-03 3.90453E-04-1.07130E-14
 -1      3550 4.24881E-03 3.87668E-04-1.00184E-14
 -1      3551 4.18757E-03 3.42585E-04-9.73931E-15
 -1      3552 4.50416E-03 3.53389E-04-1.11285E-14
 -1      3553 2.55143E-03 3.19552E-04-3.92133E-15
 -1      3554 2.40257E-03 3.14959E-04-3.50695E-15
 -1      3555 2.61956E-03 2.79619E-04-4.18277E-15
 -1      3556 1.44680E-02-5.28698E-03-8.78028E-14
 -1      3557 1.43767E-02-5.24485E-03-8.76968E-14
 -1      3558 4.23463E-03-1.92505E-05-1.01536E-14
 -1      3559 4.44457E-03 6.61362E-05-1.08307E-14
 -1      3560 8.88506E-03-1.52042E-03-2.85884E-14
 -1      3561 8.98451E-03-1.59331E-03-2.97622E-14
 -1      3562 8.96619E-03-1.61416E-03-3.02705E-14
 -1      3563 8.81686E-03-1.50436E-03-2.84224E-14
 -1      3564 5.49010E-03 1.63311E-04-1.53378E-14
 -1      3565 5.61484E-03 1.23688E-04-1.59908E-14
 -1      3566 5.38322E-03 1.87145E-04-1.49172E-14
 -1      3567 1.16861E-03-2.01368E-04-1.07600E-15
 -1      3568 1.39014E-03 2.49667E-04-1.29297E-15
 -1      3569 1.25615E-03 2.18296E-04-1.09874E-15
 -1      3570 1.24845E-03 1.84504E-04-1.12245E-15
 -1      3571 1.45622E-03 2.22566E-04-1.44757E-15
 -1      3572 1.30106E-03-2.15040E-04-1.29989E-15
 -1      3573 1.36296E-03-1.94044E-04-1.43539E-15
 -1      3574 6.00135E-03-8.31201E-05-1.81616E-14
 -1      3575 6.12326E-03-1.58021E-04-1.86451E-14
 -1      3576 6.23284E-03-2.34106E-04-1.93779E-14
 -1      3577 2.32053E-03 2.72544E-04-3.35025E-15
 -1      3578 2.25454E-03 3.09994E-04-3.11662E-15
 -1      3579 2.10730E-03 3.04376E-04-2.74924E-15
 -1      3580 1.47333E-02-5.41439E-03-8.83811E-14
 -1      3581 1.47079E-02-5.40850E-03-8.86565E-14
 -1      3582 1.46217E-02-5.36614E-03-8.84183E-14
 -1      3583 1.45904E-02-5.32155E-03-8.67950E-14
 -1      3584 1.24578E-03 3.54952E-05-1.23466E-15
 -1      3585 1.24318E-03 6.28589E-06-1.24369E-15
 -1      3586 3.25466E-03-4.23830E-04-8.05533E-15
 -1      3587 3.24845E-03-3.88685E-04-7.82143E-15
 -1      3588 3.20564E-03-4.19562E-04-7.82735E-15
 -1      3589 1.31628E-02-4.66475E-03-8.54334E-14
 -1      3590 1.30342E-02-4.58456E-03-8.41800E-14
 -1      3591 1.30431E-02-4.57530E-03-8.34534E-14
 -1      3592 1.37412E-02-4.95141E-03-8.70173E-14
 -1      3593 1.36500E-02-4.90929E-03-8.69311E-14
 -1      3594 1.35014E-02-4.81867E-03-8.55952E-14
 -1      3595 1.35795E-02-4.87792E-03-8.69306E-14
 -1      3596 1.35091E-02-4.84656E-03-8.69304E-14
 -1      3597 4.04892E-03-3.73722E-05-9.50067E-15
 -1      3598 1.80087E-03 2.87022E-04-2.05979E-15
 -1      3599 1.70584E-03 2.47473E-04-1.91203E-15
 -1      3600 3.15782E-03-4.10808E-04-7.54305E-15
 -1      3601 5.58399E-03 1.30502E-04-1.60492E-14
 -1      3602 5.69448E-03 8.82536E-05-1.64908E-14
 -1      3603 5.77229E-03 4.60970E-05-1.69960E-14
 -1      3604 4.53364E-03 1.23833E-04-1.11309E-14
 -1      3605 4.61067E-03 1.74954E-04-1.14329E-14
 -1      3606 4.34681E-03 1.16078E-04-1.04113E-14
 -1      3607 1.35582E-03-1.63819E-04-1.44240E-15
 -1      3608 1.58126E-03-1.86683E-04-1.89295E-15
 -1      3609 1.35067E-03-1.34116E-04-1.44635E-15
 -1      3610 7.92443E-03-1.21767E-03-2.63038E-14
 -1      3611 8.12993E-03-1.31222E-03-2.74311E-14
 -1      3612 7.81916E-03-1.17580E-03-2.65589E-14
 -1      3613 1.42862E-02-5.20308E-03-8.75914E-14
 -1      3614 1.41958E-02-5.16131E-03-8.74881E-14
 -1      3615 1.42082E-02-5.14376E-03-8.62698E-14
 -1      3616 7.23936E-03-8.70730E-04-2.39807E-14
 -1      3617 7.43516E-03-9.79002E-04-2.51602E-14
 -1      3618 7.08354E-03-7.77492E-04-2.37003E-14
 -1      3619 1.13997E-03 1.34756E-04-9.92506E-16
 -1      3620 8.38989E-03-1.38468E-03-2.72508E-14
 -1      3621 5.03179E-03 2.05388E-04-1.32177E-14
 -1      3622 5.09970E-03 2.15587E-04-1.35657E-14
 -1      3623 4.87005E-03 2.04546E-04-1.25227E-14
 -1      3624 6.62264E-03-4.92661E-04-2.11969E-14
 -1      3625 6.74310E-03-5.68280E-04-2.20736E-14
 -1      3626 6.48972E-03-4.04284E-04-2.07319E-14
 -1      3627 3.23290E-03 2.95872E-04-6.12779E-15
 -1      3628 1.12220E-03-3.29734E-05-1.05225E-15
 -1      3629 1.94675E-03 2.94795E-04-2.37751E-15
 -1      3630 3.70031E-03-2.29271E-04-8.73801E-15
 -1      3631 3.70804E-03-1.58179E-04-8.54996E-15
 -1      3632 3.58120E-03-2.50941E-04-8.39540E-15
 -1      3633 1.24932E-03 6.52155E-05-1.22371E-15
 -1      3634 1.36848E-03 5.18098E-05-1.44446E-15
 -1      3635 1.25370E-03 9.56782E-05-1.21005E-15
 -1      3636 1.44524E-02-5.26468E-03-8.69895E-14
 -1      3637 1.44421E-02-5.24035E-03-8.59496E-14
 -1      3638 1.39236E-02-5.03565E-03-8.71975E-14
 -1      3639 1.38324E-02-4.99353E-03-8.71056E-14
 -1      3640 1.36631E-02-4.89214E-03-8.56848E-14
 -1      3641 1.41049E-02-5.11936E-03-8.73888E-14
 -1      3642 1.40144E-02-5.07760E-03-8.72926E-14
 -1      3643 1.38451E-02-4.97619E-03-8.58703E-14
 -1      3644 1.40268E-02-5.06006E-03-8.60652E-14
 -1      3645 1.35849E-02-4.83286E-03-8.43598E-14
 -1      3646 1.34937E-02-4.79076E-03-8.42697E-14
 -1      3647 1.42884E-02-5.16119E-03-8.53346E-14
 -1      3648 2.68789E-03 2.38127E-04-4.44816E-15
 -1      3649 2.53673E-03 2.35985E-04-4.00643E-15
 -1      3650 1.92510E-03-2.12693E-04-2.70979E-15
 -1      3651 2.06028E-03-2.21429E-04-3.07714E-15
 -1      3652 2.18721E-03-2.30272E-04-3.44730E-15
 -1      3653 2.31225E-03-2.39754E-04-3.83802E-15
 -1      3654 2.11594E-03-1.97600E-04-3.25488E-15
 -1      3655 2.44166E-03-2.51243E-04-4.27127E-15
 -1      3656 2.56810E-03-2.64309E-04-4.72728E-15
 -1      3657 2.37468E-03-2.18522E-04-4.05658E-15
 -1      3658 2.69154E-03-2.80034E-04-5.20567E-15
 -1      3659 2.81094E-03-2.98289E-04-5.70647E-15
 -1      3660 2.63184E-03-2.46699E-04-4.96852E-15
 -1      3661 5.28628E-03 2.11519E-04-1.45470E-14
 -1      3662 5.40564E-03 1.87867E-04-1.51787E-14
 -1      3663 1.34551E-03-7.55053E-05-1.44660E-15
 -1      3664 1.34726E-03-1.04793E-04-1.44780E-15
 -1      3665 1.57160E-03-1.23966E-04-1.89997E-15
 -1      3666 5.52695E-03 1.60153E-04-1.63909E-14
 -1      3667 5.37585E-03 2.17467E-04-1.55206E-14
 -1      3668 8.71923E-03-1.48748E-03-2.83292E-14
 -1      3669 9.02733E-03-1.69120E-03-3.17450E-14
 -1      3670 9.14549E-03-1.76986E-03-3.29491E-14
 -1      3671 9.26785E-03-1.85126E-03-3.41667E-14
 -1      3672 9.39334E-03-1.93549E-03-3.53999E-14
 -1      3673 9.12580E-03-1.78612E-03-3.34909E-14
 -1      3674 9.52181E-03-2.02158E-03-3.66466E-14
 -1      3675 9.65264E-03-2.10959E-03-3.79064E-14
 -1      3676 9.37888E-03-1.95137E-03-3.59510E-14
 -1      3677 9.78555E-03-2.19885E-03-3.91809E-14
 -1      3678 9.92016E-03-2.28934E-03-4.04672E-14
 -1      3679 9.64119E-03-2.12472E-03-3.84683E-14
 -1      3680 1.00494E-02-2.37602E-03-4.17008E-14
 -1      3681 1.01797E-02-2.46339E-03-4.29472E-14
 -1      3682 9.90355E-03-2.29906E-03-4.09727E-14
 -1      3683 1.03179E-02-2.55579E-03-4.42729E-14
 -1      3684 1.04569E-02-2.64863E-03-4.56100E-14
 -1      3685 1.01707E-02-2.47678E-03-4.35294E-14
 -1      3686 1.05966E-02-2.74170E-03-4.69580E-14
 -1      3687 1.07369E-02-2.83500E-03-4.83200E-14
 -1      3688 1.04483E-02-2.66122E-03-4.62032E-14
 -1      3689 1.08777E-02-2.92841E-03-4.96914E-14
 -1      3690 1.10188E-02-3.02191E-03-5.10708E-14
 -1      3691 1.07284E-02-2.84691E-03-4.89231E-14
 -1      3692 1.11603E-02-3.11543E-03-5.24617E-14
 -1      3693 1.13020E-02-3.20897E-03-5.38591E-14
 -1      3694 1.10103E-02-3.03324E-03-5.16848E-14
 -1      3695 1.14440E-02-3.30249E-03-5.52659E-14
 -1      3696 1.15861E-02-3.39599E-03-5.66828E-14
 -1      3697 1.12934E-02-3.21985E-03-5.44814E-14
 -1      3698 1.17213E-02-3.48478E-03-5.80358E-14
 -1      3699 1.18565E-02-3.57352E-03-5.94003E-14
 -1      3700 1.15703E-02-3.40183E-03-5.72388E-14
 -1      3701 1.19990E-02-3.66689E-03-6.08440E-14
 -1      3702 1.21416E-02-3.76021E-03-6.22981E-14
 -1      3703 1.18478E-02-3.58374E-03-6.00344E-14
 -1      3704 1.22842E-02-3.85348E-03-6.37632E-14
 -1      3705 1.24269E-02-3.94671E-03-6.52334E-14
 -1      3706 1.21327E-02-3.77020E-03-6.29433E-14
 -1      3707 1.25696E-02-4.03988E-03-6.67142E-14
 -1      3708 1.27123E-02-4.13301E-03-6.82056E-14
 -1      3709 1.24180E-02-3.95651E-03-6.58887E-14
 -1      3710 1.28551E-02-4.22611E-03-6.97065E-14
 -1      3711 1.29979E-02-4.31916E-03-7.12131E-14
 -1      3712 1.27034E-02-4.14268E-03-6.88684E-14
 -1      3713 1.31407E-02-4.41218E-03-7.27275E-14
 -1      3714 1.32835E-02-4.50516E-03-7.42536E-14
 -1      3715 1.29890E-02-4.32871E-03-7.18834E-14
 -1      3716 1.34192E-02-4.59348E-03-7.57087E-14
 -1      3717 1.35549E-02-4.68177E-03-7.71733E-14
 -1      3718 1.32674E-02-4.50999E-03-7.48539E-14
 -1      3719 1.36978E-02-4.77468E-03-7.87228E-14
 -1      3720 1.38406E-02-4.86757E-03-8.02781E-14
 -1      3721 1.35460E-02-4.69118E-03-7.78571E-14
 -1      3722 1.39835E-02-4.96045E-03-8.18418E-14
 -1      3723 1.41264E-02-5.05331E-03-8.34139E-14
 -1      3724 1.38317E-02-4.87694E-03-8.09664E-14
 -1      3725 3.95627E-03 2.82114E-04-8.81077E-15
 -1      3726 3.79267E-03 2.72325E-04-8.18499E-15
 -1      3727 5.28647E-03 2.39104E-04-1.49229E-14
 -1      3728 5.13352E-03 2.71776E-04-1.40953E-14
 -1      3729 5.83311E-03 9.02520E-06-1.82056E-14
 -1      3730 5.67866E-03 8.98828E-05-1.72852E-14
 -1      3731 5.64749E-03 1.02020E-04-1.68957E-14
 -1      3732 6.14908E-03-1.77313E-04-2.01171E-14
 -1      3733 5.98980E-03-8.11124E-05-1.91501E-14
 -1      3734 5.96306E-03-6.75098E-05-1.87406E-14
 -1      3735 6.47298E-03-3.80635E-04-2.21195E-14
 -1      3736 6.31046E-03-2.78060E-04-2.11070E-14
 -1      3737 6.29009E-03-2.68556E-04-2.06800E-14
 -1      3738 6.79907E-03-5.86723E-04-2.42080E-14
 -1      3739 6.63629E-03-4.84017E-04-2.31529E-14
 -1      3740 6.62373E-03-4.79625E-04-2.27089E-14
 -1      3741 7.12191E-03-7.88489E-04-2.63769E-14
 -1      3742 6.96131E-03-6.88384E-04-2.52825E-14
 -1      3743 6.95637E-03-6.87364E-04-2.48224E-14
 -1      3744 7.43816E-03-9.83962E-04-2.86226E-14
 -1      3745 7.28107E-03-8.86974E-04-2.74917E-14
 -1      3746 7.28244E-03-8.86987E-04-2.70159E-14
 -1      3747 7.74682E-03-1.17392E-03-3.09402E-14
 -1      3748 7.59348E-03-1.07949E-03-2.97721E-14
 -1      3749 7.59940E-03-1.07881E-03-2.92836E-14
 -1      3750 8.04850E-03-1.36002E-03-3.33230E-14
 -1      3751 7.89849E-03-1.26731E-03-3.21241E-14
 -1      3752 7.90730E-03-1.26507E-03-3.16199E-14
 -1      3753 8.34450E-03-1.54377E-03-3.57722E-14
 -1      3754 8.19713E-03-1.45207E-03-3.45391E-14
 -1      3755 8.20756E-03-1.44807E-03-3.40216E-14
 -1      3756 8.63631E-03-1.72634E-03-3.82797E-14
 -1      3757 8.49085E-03-1.63513E-03-3.70194E-14
 -1      3758 8.50201E-03-1.62951E-03-3.64858E-14
 -1      3759 8.92523E-03-1.90849E-03-4.08518E-14
 -1      3760 8.78106E-03-1.81742E-03-3.95587E-14
 -1      3761 8.79239E-03-1.81051E-03-3.90137E-14
 -1      3762 9.21231E-03-2.09065E-03-4.34789E-14
 -1      3763 9.06894E-03-1.99954E-03-4.21579E-14
 -1      3764 9.08013E-03-1.99167E-03-4.15980E-14
 -1      3765 9.49829E-03-2.27307E-03-4.61564E-14
 -1      3766 9.35539E-03-2.18181E-03-4.48110E-14
 -1      3767 9.36628E-03-2.17330E-03-4.42398E-14
 -1      3768 9.78370E-03-2.45586E-03-4.88820E-14
 -1      3769 9.64104E-03-2.36442E-03-4.75134E-14
 -1      3770 9.65157E-03-2.35548E-03-4.69313E-14
 -1      3771 1.00689E-02-2.63905E-03-5.16492E-14
 -1      3772 9.92629E-03-2.54740E-03-5.02598E-14
 -1      3773 9.93647E-03-2.53823E-03-4.96667E-14
 -1      3774 1.03540E-02-2.82262E-03-5.44609E-14
 -1      3775 1.02114E-02-2.73079E-03-5.30509E-14
 -1      3776 1.02213E-02-2.72148E-03-5.24484E-14
 -1      3777 1.06391E-02-3.00654E-03-5.73113E-14
 -1      3778 1.04965E-02-2.91454E-03-5.58813E-14
 -1      3779 1.05061E-02-2.90518E-03-5.52681E-14
 -1      3780 1.09244E-02-3.19078E-03-6.02043E-14
 -1      3781 1.07817E-02-3.09863E-03-5.87515E-14
 -1      3782 1.07911E-02-3.08925E-03-5.81288E-14
 -1      3783 1.12097E-02-3.37529E-03-6.31375E-14
 -1      3784 1.10670E-02-3.28301E-03-6.16652E-14
 -1      3785 1.10763E-02-3.27364E-03-6.10296E-14
 -1      3786 1.14952E-02-3.56002E-03-6.61103E-14
 -1      3787 1.13524E-02-3.46763E-03-6.46197E-14
 -1      3788 1.13615E-02-3.45828E-03-6.39700E-14
 -1      3789 1.17807E-02-3.74494E-03-6.91241E-14
 -1      3790 1.16379E-02-3.65246E-03-6.76123E-14
 -1      3791 1.16470E-02-3.64313E-03-6.69534E-14
 -1      3792 1.20663E-02-3.93002E-03-7.21687E-14
 -1      3793 1.19235E-02-3.83746E-03-7.06428E-14
 -1      3794 1.19325E-02-3.82815E-03-6.99719E-14
 -1      3795 1.23520E-02-4.11521E-03-7.52459E-14
 -1      3796 1.22091E-02-4.02260E-03-7.37043E-14
 -1      3797 1.22180E-02-4.01330E-03-7.30236E-14
 -1      3798 1.26376E-02-4.30050E-03-7.83530E-14
 -1      3799 1.24948E-02-4.20784E-03-7.67940E-14
 -1      3800 1.25037E-02-4.19856E-03-7.61015E-14
 -1      3801 1.29233E-02-4.48586E-03-8.14904E-14
 -1      3802 1.27805E-02-4.39317E-03-7.99194E-14
 -1      3803 1.27894E-02-4.38389E-03-7.92136E-14
 -1      3804 1.33002E-02-4.75852E-03-8.72237E-14
 -1      3805 3.62977E-03 2.63768E-04-7.58286E-15
 -1      3806 3.46852E-03 2.56619E-04-7.00301E-15
 -1      3807 3.71198E-03 2.17403E-04-7.92820E-15
 -1      3808 3.13054E-03-3.85003E-04-7.32047E-15
 -1      3809 3.30787E-03-3.37416E-04-7.78034E-15
 -1      3810 3.42162E-03-3.04921E-04-8.03802E-15
 -1      3811 2.99484E-03 2.43076E-04-5.40052E-15
 -1      3812 2.84058E-03 2.40350E-04-4.91263E-15
 -1      3813 2.75614E-03 1.95000E-04-4.71682E-15
 -1      3814 8.42122E-03-1.42134E-03-2.81981E-14
 -1      3815 8.55830E-03-1.45648E-03-2.82811E-14
 -1      3816 2.92655E-03-3.20781E-04-6.22901E-15
 -1      3817 3.03670E-03-3.46624E-04-6.77350E-15
 -1      3818 2.87845E-03-2.85737E-04-5.96941E-15
 -1      3819 3.30876E-03 2.50941E-04-6.44576E-15
 -1      3820 3.15095E-03 2.46463E-04-5.91159E-15
 -1      3821 3.38463E-03 2.04132E-04-6.76690E-15
 -1      3822 1.29387E-03-1.93532E-05-1.34219E-15
 -1      3823 1.29313E-03-4.84082E-05-1.34728E-15
 -1      3824 1.51749E-03-6.31880E-05-1.78514E-15
 -1      3825 1.41512E-03-6.53731E-06-1.56331E-15
 -1      3826 3.84788E-03-4.54029E-05-8.78182E-15
 -1      3827 4.05233E-03 4.20573E-05-9.37919E-15
 -1      3828 1.25336E-03 1.55570E-04-1.15911E-15
 -1      3829 1.24740E-03 1.23461E-04-1.17735E-15
 -1      3830 1.36682E-03 1.13056E-04-1.39584E-15
 -1      3831 1.35623E-03 1.72921E-04-1.32063E-15
 -1      3832 1.76015E-03 2.13980E-04-2.07252E-15
 -1      3833 1.61542E-03 2.10222E-04-1.77306E-15
 -1      3834 2.01138E-03 2.60497E-04-2.58223E-15
 -1      3835 1.68510E-03-1.95474E-04-2.12260E-15
 -1      3836 1.82239E-03-2.04298E-04-2.44966E-15
 -1      3837 1.88532E-03-1.80291E-04-2.62674E-15
 -1      3838 1.67902E-03-1.63640E-04-2.12795E-15
 -1      3839 1.41366E-02-5.07767E-03-8.44493E-14
 -1      3840 1.33090E-02-4.74927E-03-8.64908E-14
 -1      3841 2.38686E-03 2.33752E-04-3.58834E-15
 -1      3842 2.23818E-03 2.31076E-04-3.19377E-15
 -1      3843 2.45327E-03 1.93560E-04-3.83068E-15
 -1      3844 4.28417E-03 3.03140E-04-1.01311E-14
 -1      3845 4.12051E-03 2.92755E-04-9.45931E-15
 -1      3846 4.04623E-03 2.38649E-04-9.18056E-15
 -1      3847 8.75272E-03-1.53284E-03-2.92964E-14
 -1      3848 5.48183E-03 1.66466E-04-1.56600E-14
 -1      3849 3.06612E-03 1.97579E-04-5.69563E-15
 -1      3850 5.13003E-03 2.33397E-04-1.38117E-14
 -1      3851 1.51061E-03 1.92877E-04-1.58575E-15
 -1      3852 3.43701E-03-2.43742E-04-7.86345E-15
 -1      3853 3.16798E-03-3.54488E-04-7.34515E-15
 -1      3854 3.23402E-03-3.48420E-04-7.56190E-15
 -1      3855 3.21547E-03-3.04179E-04-7.30359E-15
 -1      3856 3.09770E-03-3.49118E-04-7.04145E-15
 -1      3857 4.96016E-03 2.79365E-04-1.31376E-14
 -1      3858 3.94487E-03 8.57633E-05-8.92597E-15
 -1      3859 4.14449E-03 9.77980E-05-9.65406E-15
 -1      3860 4.22817E-03 1.51301E-04-9.93126E-15
 -1      3861 1.37666E-02-4.91672E-03-8.45503E-14
 -1      3862 1.36758E-02-4.87479E-03-8.44557E-14
 -1      3863 1.35064E-02-4.77340E-03-8.30440E-14
 -1      3864 5.87958E-03-1.55923E-05-1.76945E-14
 -1      3865 4.80005E-03 2.83085E-04-1.23663E-14
 -1      3866 1.31727E-02-4.64120E-03-8.38980E-14
 -1      3867 1.31816E-02-4.63193E-03-8.31802E-14
 -1      3868 3.62082E-03-1.05564E-04-8.10872E-15
 -1      3869 3.73415E-03-7.74286E-05-8.44221E-15
 -1      3870 3.74534E-03 1.51385E-06-8.32769E-15
 -1      3871 7.66095E-03-1.09984E-03-2.63262E-14
 -1      3872 7.87383E-03-1.20866E-03-2.74529E-14
 -1      3873 1.40461E-02-5.03592E-03-8.43442E-14
 -1      3874 1.39556E-02-4.99417E-03-8.42410E-14
 -1      3875 1.38840E-02-4.92806E-03-8.24294E-14
 -1      3876 6.89127E-03-6.59172E-04-2.30745E-14
 -1      3877 7.08794E-03-7.76935E-04-2.42314E-14
 -1      3878 8.32050E-03-1.39878E-03-2.84639E-14
 -1      3879 8.50106E-03-1.48037E-03-2.95115E-14
 -1      3880 8.22339E-03-1.37063E-03-2.87263E-14
 -1      3881 1.50169E-03 1.74897E-05-1.72140E-15
 -1      3882 1.55172E-03-1.14403E-05-1.83859E-15
 -1      3883 1.90456E-03 2.15990E-04-2.39325E-15
 -1      3884 1.81379E-03 1.79428E-04-2.23370E-15
 -1      3885 7.50469E-03-1.01691E-03-2.60326E-14
 -1      3886 6.75980E-03-5.74858E-04-2.25875E-14
 -1      3887 1.33729E-02-4.72702E-03-8.37269E-14
 -1      3888 1.33024E-02-4.69567E-03-8.37227E-14
 -1      3889 1.30531E-02-4.54030E-03-8.13230E-14
 -1      3890 1.32948E-02-4.66775E-03-8.24076E-14
 -1      3891 2.06506E-03 2.22985E-04-2.76614E-15
 -1      3892 1.51104E-03 8.43966E-05-1.69320E-15
 -1      3893 1.50590E-03 5.05461E-05-1.70843E-15
 -1      3894 1.64407E-03 4.81333E-05-1.99511E-15
 -1      3895 1.33794E-02-4.78064E-03-8.64860E-14
 -1      3896 6.23219E-03-2.35083E-04-1.96571E-14
 -1      3897 6.35836E-03-3.18132E-04-2.01627E-14
 -1      3898 2.30925E-03-1.84277E-04-3.84413E-15
 -1      3899 2.44200E-03-1.96604E-04-4.27746E-15
 -1      3900 2.57338E-03-2.10968E-04-4.73331E-15
 -1      3901 2.70285E-03-2.27457E-04-5.21148E-15
 -1      3902 2.51462E-03-1.73518E-04-4.50031E-15
 -1      3903 1.67384E-03-9.96667E-05-2.12891E-15
 -1      3904 1.67534E-03-1.31823E-04-2.12992E-15
 -1      3905 1.77888E-03-1.39713E-04-2.37297E-15
 -1      3906 3.27472E-03-2.30248E-04-7.24869E-15
 -1      3907 3.41696E-03-1.78666E-04-7.58481E-15
 -1      3908 8.83387E-03-1.58686E-03-3.02219E-14
 -1      3909 8.80012E-03-1.60005E-03-3.07509E-14
 -1      3910 9.23247E-03-1.88159E-03-3.52596E-14
 -1      3911 9.36271E-03-1.96557E-03-3.65024E-14
 -1      3912 9.49482E-03-2.05129E-03-3.77584E-14
 -1      3913 9.62838E-03-2.13868E-03-3.90281E-14
 -1      3914 9.34595E-03-1.97823E-03-3.70529E-14
 -1      3915 9.75658E-03-2.22283E-03-4.02493E-14
 -1      3916 9.88583E-03-2.30800E-03-4.14797E-14
 -1      3917 9.60813E-03-2.14711E-03-3.95257E-14
 -1      3918 1.00229E-02-2.39844E-03-4.27879E-14
 -1      3919 1.01609E-02-2.48962E-03-4.41133E-14
 -1      3920 9.87428E-03-2.32063E-03-4.20529E-14
 -1      3921 1.02996E-02-2.58130E-03-4.54489E-14
 -1      3922 1.04390E-02-2.67343E-03-4.67973E-14
 -1      3923 1.01505E-02-2.50186E-03-4.46954E-14
 -1      3924 1.05790E-02-2.76586E-03-4.81572E-14
 -1      3925 1.07194E-02-2.85856E-03-4.95286E-14
 -1      3926 1.04294E-02-2.68523E-03-4.73933E-14
 -1      3927 1.08603E-02-2.95141E-03-5.09085E-14
 -1      3928 1.10015E-02-3.04440E-03-5.22974E-14
 -1      3929 1.07102E-02-2.86991E-03-5.01336E-14
 -1      3930 1.11429E-02-3.13747E-03-5.36947E-14
 -1      3931 1.12846E-02-3.23059E-03-5.50998E-14
 -1      3932 1.09924E-02-3.05536E-03-5.29105E-14
 -1      3933 1.14194E-02-3.31909E-03-5.64439E-14
 -1      3934 1.15544E-02-3.40759E-03-5.77969E-14
 -1      3935 1.12686E-02-3.23655E-03-5.56506E-14
 -1      3936 1.16966E-02-3.50075E-03-5.92287E-14
 -1      3937 1.18389E-02-3.59390E-03-6.06718E-14
 -1      3938 1.15455E-02-3.41791E-03-5.84258E-14
 -1      3939 1.19814E-02-3.68703E-03-6.21265E-14
 -1      3940 1.21239E-02-3.78014E-03-6.35897E-14
 -1      3941 1.18300E-02-3.60398E-03-6.13105E-14
 -1      3942 1.22664E-02-3.87322E-03-6.50618E-14
 -1      3943 1.24091E-02-3.96628E-03-6.65415E-14
 -1      3944 1.21150E-02-3.79002E-03-6.42358E-14
 -1      3945 1.25518E-02-4.05931E-03-6.80319E-14
 -1      3946 1.26945E-02-4.15231E-03-6.95330E-14
 -1      3947 1.24002E-02-3.97601E-03-6.71997E-14
 -1      3948 1.28372E-02-4.24529E-03-7.10384E-14
 -1      3949 1.29800E-02-4.33825E-03-7.25537E-14
 -1      3950 1.26856E-02-4.16192E-03-7.01971E-14
 -1      3951 1.31157E-02-4.42654E-03-7.40003E-14
 -1      3952 1.32514E-02-4.51481E-03-7.54556E-14
 -1      3953 1.29639E-02-4.34311E-03-7.31502E-14
 -1      3954 1.33942E-02-4.60770E-03-7.69947E-14
 -1      3955 1.35370E-02-4.70058E-03-7.85409E-14
 -1      3956 1.32424E-02-4.52425E-03-7.61354E-14
 -1      3957 1.36391E-02-4.76790E-03-7.97008E-14
 -1      3958 1.37820E-02-4.86076E-03-8.12591E-14
 -1      3959 1.36915E-02-4.81903E-03-8.11582E-14
 -1      3960 1.34873E-02-4.68443E-03-7.88329E-14
 -1      3961 6.84532E-03-6.22467E-04-2.36783E-14
 -1      3962 6.67437E-03-5.15841E-04-2.26314E-14
 -1      3963 7.18180E-03-8.27146E-04-2.58298E-14
 -1      3964 7.01494E-03-7.26227E-04-2.47432E-14
 -1      3965 7.07759E-03-7.67340E-04-2.46623E-14
 -1      3966 7.50742E-03-1.02098E-03-2.80617E-14
 -1      3967 7.34618E-03-9.25177E-04-2.69369E-14
 -1      3968 7.41363E-03-9.65249E-04-2.68543E-14
 -1      3969 7.82149E-03-1.20691E-03-3.03610E-14
 -1      3970 7.66584E-03-1.11459E-03-2.92025E-14
 -1      3971 7.73527E-03-1.15153E-03-2.91191E-14
 -1      3972 8.12579E-03-1.38847E-03-3.27287E-14
 -1      3973 7.97473E-03-1.29801E-03-3.15369E-14
 -1      3974 8.04438E-03-1.33154E-03-3.14516E-14
 -1      3975 8.42258E-03-1.56810E-03-3.51603E-14
 -1      3976 8.27496E-03-1.47837E-03-3.39370E-14
 -1      3977 8.34391E-03-1.50887E-03-3.38507E-14
 -1      3978 8.71414E-03-1.74737E-03-3.76533E-14
 -1      3979 8.56888E-03-1.65769E-03-3.63985E-14
 -1      3980 8.63674E-03-1.68584E-03-3.63097E-14
 -1      3981 9.00228E-03-1.92711E-03-4.02071E-14
 -1      3982 8.85853E-03-1.83714E-03-3.89234E-14
 -1      3983 8.92527E-03-1.86362E-03-3.88318E-14
 -1      3984 9.28839E-03-2.10764E-03-4.28161E-14
 -1      3985 9.14552E-03-2.01726E-03-4.15044E-14
 -1      3986 9.21125E-03-2.04265E-03-4.14095E-14
 -1      3987 9.57341E-03-2.28905E-03-4.54798E-14
 -1      3988 9.43099E-03-2.19823E-03-4.41413E-14
 -1      3989 9.49588E-03-2.22297E-03-4.40424E-14
 -1      3990 9.85795E-03-2.47126E-03-4.81935E-14
 -1      3991 9.71571E-03-2.38006E-03-4.68310E-14
 -1      3992 9.77993E-03-2.40445E-03-4.67299E-14
 -1      3993 1.01424E-02-2.65417E-03-5.09490E-14
 -1      3994 1.00001E-02-2.56263E-03-4.95654E-14
 -1      3995 1.00639E-02-2.58688E-03-4.94630E-14
 -1      3996 1.04269E-02-2.83765E-03-5.37479E-14
 -1      3997 1.02846E-02-2.74584E-03-5.23443E-14
 -1      3998 1.03479E-02-2.77008E-03-5.22392E-14
 -1      3999 1.07115E-02-3.02159E-03-5.65836E-14
 -1      4000 1.05692E-02-2.92957E-03-5.51605E-14
 -1      4001 1.06322E-02-2.95385E-03-5.50534E-14
 -1      4002 1.09964E-02-3.20590E-03-5.94594E-14
 -1      4003 1.08540E-02-3.11370E-03-5.80166E-14
 -1      4004 1.09168E-02-3.13807E-03-5.79038E-14
 -1      4005 1.12815E-02-3.39049E-03-6.23764E-14
 -1      4006 1.11389E-02-3.29816E-03-6.09132E-14
 -1      4007 1.12016E-02-3.32263E-03-6.07959E-14
 -1      4008 1.15668E-02-3.57532E-03-6.53350E-14
 -1      4009 1.14241E-02-3.48288E-03-6.38508E-14
 -1      4010 1.14867E-02-3.50744E-03-6.37301E-14
 -1      4011 1.18522E-02-3.76032E-03-6.83306E-14
 -1      4012 1.17094E-02-3.66780E-03-6.68285E-14
 -1      4013 1.17719E-02-3.69244E-03-6.67039E-14
 -1      4014 1.21377E-02-3.94546E-03-7.13600E-14
 -1      4015 1.19949E-02-3.85288E-03-6.98411E-14
 -1      4016 1.20573E-02-3.87758E-03-6.97100E-14
 -1      4017 1.24233E-02-4.13071E-03-7.44185E-14
 -1      4018 1.22805E-02-4.03808E-03-7.28846E-14
 -1      4019 1.23429E-02-4.06283E-03-7.27496E-14
 -1      4020 1.27089E-02-4.31604E-03-7.75100E-14
 -1      4021 1.25661E-02-4.22337E-03-7.59621E-14
 -1      4022 1.26285E-02-4.24816E-03-7.58187E-14
 -1      4023 1.29524E-02-4.47451E-03-8.01916E-14
 -1      4024 1.28096E-02-4.38182E-03-7.86299E-14
 -1      4025 1.28719E-02-4.40664E-03-7.84853E-14
 -1      4026 1.30732E-02-4.53823E-03-8.07351E-14
 -1      4027 2.83081E-03-2.47095E-04-5.71163E-15
 -1      4028 2.95659E-03-2.69578E-04-6.23415E-15
 -1      4029 2.78134E-03-2.06452E-04-5.45558E-15
 -1      4030 1.33013E-02-4.72140E-03-8.51489E-14
 -1      4031 6.52934E-03-4.25921E-04-2.16439E-14
 -1      4032 3.79357E-03 1.69048E-04-8.27530E-15
 -1      4033 3.62535E-03 1.60705E-04-7.67167E-15
 -1      4034 3.06930E-03-3.13236E-04-6.79497E-15
 -1      4035 1.60225E-03-4.10052E-05-1.95770E-15
 -1      4036 1.65348E-03-7.11048E-05-2.07875E-15
 -1      4037 1.68879E-03-1.72003E-05-2.13601E-15
 -1      4038 3.13640E-03 1.50089E-04-5.99487E-15
 -1      4039 2.97888E-03 1.49672E-04-5.48086E-15
 -1      4040 2.82366E-03 1.50205E-04-4.98962E-15
 -1      4041 2.67059E-03 1.51019E-04-4.52167E-15
 -1      4042 2.89008E-03 1.03626E-04-5.26640E-15
 -1      4043 4.55280E-03 2.19682E-04-1.12120E-14
 -1      4044 4.73319E-03 2.22340E-04-1.19646E-14
 -1      4045 5.40240E-03 1.96914E-04-1.54007E-14
 -1      4046 4.80307E-03 2.40188E-04-1.22924E-14
 -1      4047 6.48099E-03-3.97560E-04-2.10172E-14
 -1      4048 1.51491E-03 1.60497E-04-1.62956E-15
 -1      4049 3.45946E-03 1.55184E-04-7.09017E-15
 -1      4050 3.29663E-03 1.51671E-04-6.53098E-15
 -1      4051 3.53300E-03 1.04050E-04-7.41586E-15
 -1      4052 8.97777E-03-1.72076E-03-3.28165E-14
 -1      4053 9.10399E-03-1.79996E-03-3.40300E-14
 -1      4054 9.08201E-03-1.81177E-03-3.45710E-14
 -1      4055 1.86793E-03 1.44028E-04-2.39824E-15
 -1      4056 1.72432E-03 1.44594E-04-2.07724E-15
 -1      4057 7.91832E-03-1.23728E-03-2.82966E-14
 -1      4058 8.06535E-03-1.30537E-03-2.85398E-14
 -1      4059 2.13040E-03 1.86372E-04-2.97878E-15
 -1      4060 8.63581E-03-1.54512E-03-3.03892E-14
 -1      4061 8.85014E-03-1.65414E-03-3.19163E-14
 -1      4062 8.82069E-03-1.66306E-03-3.24442E-14
 -1      4063 8.55050E-03-1.52713E-03-3.06574E-14
 -1      4064 4.32069E-03 2.09466E-04-1.02696E-14
 -1      4065 4.44079E-03 2.57183E-04-1.07664E-14
 -1      4066 5.57506E-03 1.32973E-04-1.62803E-14
 -1      4067 4.66632E-03 3.08770E-04-1.18008E-14
 -1      4068 4.50520E-03 3.03951E-04-1.10733E-14
 -1      4069 2.05312E-03-1.64620E-04-3.08418E-15
 -1      4070 2.18170E-03-1.73888E-04-3.45408E-15
 -1      4071 2.25115E-03-1.49455E-04-3.65518E-15
 -1      4072 5.73357E-03 5.97312E-05-1.71735E-14
 -1      4073 5.94945E-03-6.03816E-05-1.83431E-14
 -1      4074 1.39065E-02-4.97641E-03-8.44446E-14
 -1      4075 1.38157E-02-4.93448E-03-8.43449E-14
 -1      4076 1.36463E-02-4.83307E-03-8.29348E-14
 -1      4077 1.37445E-02-4.86858E-03-8.25288E-14
 -1      4078 7.26129E-03-8.78557E-04-2.53104E-14
 -1      4079 6.11684E-03-1.62069E-04-1.92933E-14
 -1      4080 6.40634E-03-3.45700E-04-2.10615E-14
 -1      4081 6.23607E-03-2.37502E-04-2.00713E-14
 -1      4082 1.75775E-03-7.77614E-05-2.31889E-15
 -1      4083 3.10084E-03-2.56909E-04-6.72060E-15
 -1      4084 3.07345E-03-2.03309E-04-6.46683E-15
 -1      4085 1.77047E-03 6.55807E-05-2.25731E-15
 -1      4086 1.76432E-03 2.89639E-05-2.27468E-15
 -1      4087 8.25808E-03-1.39960E-03-2.95877E-14
 -1      4088 3.77814E-03 7.18987E-05-8.33438E-15
 -1      4089 3.86544E-03 1.22031E-04-8.58986E-15
 -1      4090 3.44117E-03-1.06254E-04-7.48480E-15
 -1      4091 2.51931E-03 1.51982E-04-4.07737E-15
 -1      4092 2.36963E-03 1.52616E-04-3.65589E-15
 -1      4093 2.58466E-03 1.08941E-04-4.32765E-15
 -1      4094 3.67394E-03 4.17844E-05-8.00664E-15
 -1      4095 3.95531E-03 1.82806E-04-8.86663E-15
 -1      4096 4.12705E-03 1.96560E-04-9.51459E-15
 -1      4097 1.81310E-03-3.16649E-06-2.41080E-15
 -1      4098 1.86217E-03-3.56427E-05-2.54881E-15
 -1      4099 1.93906E-03 1.17657E-05-2.70075E-15
 -1      4100 3.20529E-03 1.00523E-04-6.29627E-15
 -1      4101 1.34282E-02-4.71402E-03-8.17314E-14
 -1      4102 1.33373E-02-4.67212E-03-8.16356E-14
 -1      4103 7.48062E-03-1.00360E-03-2.64780E-14
 -1      4104 7.77892E-03-1.16788E-03-2.80630E-14
 -1      4105 7.96938E-03-1.26965E-03-2.91577E-14
 -1      4106 1.86499E-03-1.47735E-04-2.58535E-15
 -1      4107 1.96780E-03-1.56070E-04-2.85190E-15
 -1      4108 2.03612E-03-1.31006E-04-3.03575E-15
 -1      4109 1.86410E-03-1.14701E-04-2.58414E-15
 -1      4110 1.32165E-02-4.60839E-03-8.10938E-14
 -1      4111 2.20351E-03 1.51676E-04-3.21229E-15
 -1      4112 2.03116E-03 1.46818E-04-2.78273E-15
 -1      4113 1.94076E-03 1.12190E-04-2.60500E-15
 -1      4114 2.26857E-03 1.12562E-04-3.43494E-15
 -1      4115 1.50532E-03 1.15515E-04-1.65479E-15
 -1      4116 3.03360E-03-2.69454E-04-6.51862E-15
 -1      4117 3.27149E-03 4.87854E-05-6.59984E-15
 -1      4118 3.11140E-03 5.13348E-05-6.06175E-15
 -1      4119 9.19416E-03-1.90477E-03-3.63506E-14
 -1      4120 9.32892E-03-1.98954E-03-3.76028E-14
 -1      4121 2.92198E-03-1.77503E-04-5.88211E-15
 -1      4122 3.08820E-03-1.46468E-04-6.37304E-15
 -1      4123 8.25631E-03-1.41129E-03-3.02722E-14
 -1      4124 8.40378E-03-1.47208E-03-3.04665E-14
 -1      4125 8.54567E-03-1.54307E-03-3.13536E-14
 -1      4126 8.92688E-03-1.74069E-03-3.38855E-14
 -1      4127 9.06007E-03-1.82176E-03-3.51125E-14
 -1      4128 9.03921E-03-1.83052E-03-3.56515E-14
 -1      4129 9.45780E-03-2.07144E-03-3.88066E-14
 -1      4130 9.58733E-03-2.15455E-03-4.00237E-14
 -1      4131 9.30539E-03-1.99552E-03-3.80913E-14
 -1      4132 9.72448E-03-2.24307E-03-4.13173E-14
 -1      4133 9.86229E-03-2.33254E-03-4.26235E-14
 -1      4134 9.57333E-03-2.16556E-03-4.05844E-14
 -1      4135 1.00008E-02-2.42274E-03-4.39473E-14
 -1      4136 1.01398E-02-2.51359E-03-4.52822E-14
 -1      4137 9.85017E-03-2.34381E-03-4.31995E-14
 -1      4138 1.02794E-02-2.60491E-03-4.66289E-14
 -1      4139 1.04194E-02-2.69666E-03-4.79899E-14
 -1      4140 1.01289E-02-2.52483E-03-4.58677E-14
 -1      4141 1.05599E-02-2.78870E-03-4.93600E-14
 -1      4142 1.07007E-02-2.88100E-03-5.07395E-14
 -1      4143 1.04093E-02-2.70773E-03-4.85860E-14
 -1      4144 1.08418E-02-2.97349E-03-5.21270E-14
 -1      4145 1.09832E-02-3.06612E-03-5.35225E-14
 -1      4146 1.06910E-02-2.89183E-03-5.13445E-14
 -1      4147 1.11177E-02-3.15421E-03-5.48588E-14
 -1      4148 1.12524E-02-3.24238E-03-5.62032E-14
 -1      4149 1.09667E-02-3.07206E-03-5.40673E-14
 -1      4150 1.13943E-02-3.33524E-03-5.76262E-14
 -1      4151 1.15365E-02-3.42814E-03-5.90565E-14
 -1      4152 1.12432E-02-3.25271E-03-5.68249E-14
 -1      4153 1.16787E-02-3.52105E-03-6.04998E-14
 -1      4154 1.18210E-02-3.61398E-03-6.19532E-14
 -1      4155 1.15274E-02-3.43825E-03-5.96902E-14
 -1      4156 1.19635E-02-3.70692E-03-6.34141E-14
 -1      4157 1.21060E-02-3.79985E-03-6.48862E-14
 -1      4158 1.18120E-02-3.62391E-03-6.25957E-14
 -1      4159 1.22486E-02-3.89277E-03-6.63676E-14
 -1      4160 1.23912E-02-3.98569E-03-6.78595E-14
 -1      4161 1.20970E-02-3.80961E-03-6.55390E-14
 -1      4162 1.25339E-02-4.07860E-03-6.93571E-14
 -1      4163 1.26766E-02-4.17149E-03-7.08635E-14
 -1      4164 1.23822E-02-3.99533E-03-6.85198E-14
 -1      4165 1.28122E-02-4.25973E-03-7.23024E-14
 -1      4166 1.29479E-02-4.34796E-03-7.37484E-14
 -1      4167 1.26605E-02-4.17639E-03-7.14571E-14
 -1      4168 1.30907E-02-4.44082E-03-7.52800E-14
 -1      4169 1.32335E-02-4.53368E-03-7.68179E-14
 -1      4170 1.29389E-02-4.35743E-03-7.44263E-14
 -1      4171 7.86249E-03-1.22135E-03-2.95957E-14
 -1      4172 7.70488E-03-1.13155E-03-2.84474E-14
 -1      4173 3.21775E-03-8.45660E-05-6.66997E-15
 -1      4174 3.40121E-03-1.66970E-05-7.15485E-15
 -1      4175 8.21054E-03-1.41997E-03-3.21301E-14
 -1      4176 8.05968E-03-1.33270E-03-3.09462E-14
 -1      4177 8.50593E-03-1.59398E-03-3.45469E-14
 -1      4178 8.35912E-03-1.50688E-03-3.33307E-14
 -1      4179 8.37656E-03-1.50577E-03-3.28126E-14
 -1      4180 8.79550E-03-1.76897E-03-3.70228E-14
 -1      4181 8.65126E-03-1.68125E-03-3.57768E-14
 -1      4182 8.66733E-03-1.67714E-03-3.52460E-14
 -1      4183 9.08162E-03-1.94569E-03-3.95601E-14
 -1      4184 8.93887E-03-1.85708E-03-3.82846E-14
 -1      4185 8.95351E-03-1.85072E-03-3.77401E-14
 -1      4186 9.36591E-03-2.12427E-03-4.21536E-14
 -1      4187 9.22391E-03-2.03475E-03-4.08504E-14
 -1      4188 9.23725E-03-2.02686E-03-4.02925E-14
 -1      4189 9.64940E-03-2.30451E-03-4.48017E-14
 -1      4190 9.50771E-03-2.21420E-03-4.34720E-14
 -1      4191 9.51995E-03-2.20533E-03-4.29020E-14
 -1      4192 9.93271E-03-2.48611E-03-4.75053E-14
 -1      4193 9.79105E-03-2.39516E-03-4.61466E-14
 -1      4194 9.80243E-03-2.38573E-03-4.55655E-14
 -1      4195 1.02162E-02-2.66876E-03-5.02486E-14
 -1      4196 1.00744E-02-2.57732E-03-4.88705E-14
 -1      4197 1.00851E-02-2.56760E-03-4.82796E-14
 -1      4198 1.04999E-02-2.85220E-03-5.30347E-14
 -1      4199 1.03580E-02-2.76039E-03-5.16364E-14
 -1      4200 1.03682E-02-2.75057E-03-5.10364E-14
 -1      4201 1.07841E-02-3.03623E-03-5.58566E-14
 -1      4202 1.06420E-02-2.94415E-03-5.44419E-14
 -1      4203 1.06518E-02-2.93432E-03-5.38312E-14
 -1      4204 1.10686E-02-3.22067E-03-5.87178E-14
 -1      4205 1.09263E-02-3.12841E-03-5.72838E-14
 -1      4206 1.09358E-02-3.11863E-03-5.66627E-14
 -1      4207 1.13534E-02-3.40543E-03-6.16202E-14
 -1      4208 1.12109E-02-3.31302E-03-6.01640E-14
 -1      4209 1.12203E-02-3.30332E-03-5.95335E-14
 -1      4210 1.16384E-02-3.59040E-03-6.45627E-14
 -1      4211 1.14958E-02-3.49789E-03-6.30858E-14
 -1      4212 1.15050E-02-3.48827E-03-6.24445E-14
 -1      4213 1.19237E-02-3.77554E-03-6.75406E-14
 -1      4214 1.17810E-02-3.68295E-03-6.60478E-14
 -1      4215 1.17901E-02-3.67341E-03-6.53936E-14
 -1      4216 1.22091E-02-3.96079E-03-7.05551E-14
 -1      4217 1.20663E-02-3.86815E-03-6.90426E-14
 -1      4218 1.20754E-02-3.85868E-03-6.83793E-14
 -1      4219 1.24946E-02-4.14612E-03-7.35979E-14
 -1      4220 1.23518E-02-4.05345E-03-7.20739E-14
 -1      4221 1.23608E-02-4.04403E-03-7.13995E-14
 -1      4222 1.27802E-02-4.33152E-03-7.66748E-14
 -1      4223 1.26374E-02-4.23882E-03-7.51312E-14
 -1      4224 1.26463E-02-4.22944E-03-7.44492E-14
 -1      4225 2.78338E-03-1.59831E-04-5.37439E-15
 -1      4226 2.95449E-03 5.53714E-05-5.54628E-15
 -1      4227 2.80044E-03 5.98578E-05-5.05237E-15
 -1      4228 3.01639E-03 5.25590E-06-5.82787E-15
 -1      4229 1.34772E-02-4.73176E-03-8.15275E-14
 -1      4230 1.33081E-02-4.63047E-03-8.01247E-14
 -1      4231 1.35263E-02-4.74951E-03-8.13237E-14
 -1      4232 3.50421E-03 3.83329E-05-7.41442E-15
 -1      4233 7.64459E-03-1.09589E-03-2.75998E-14
 -1      4234 1.71412E-03 9.68225E-05-2.10385E-15
 -1      4235 1.83493E-03 7.82886E-05-2.39218E-15
 -1      4236 2.45542E-03-1.34656E-04-4.27001E-15
 -1      4237 2.59273E-03-1.47938E-04-4.72491E-15
 -1      4238 1.85286E-03-6.05981E-05-2.53969E-15
 -1      4239 1.87135E-03-9.08457E-05-2.59699E-15
 -1      4240 1.95788E-03-9.85573E-05-2.81871E-15
 -1      4241 1.97645E-03-4.84048E-05-2.84022E-15
 -1      4242 1.99655E-03 7.80596E-05-2.77718E-15
 -1      4243 1.56939E-03 1.29565E-04-1.76919E-15
 -1      4244 2.19363E-03-1.13733E-04-3.46811E-15
 -1      4245 2.32459E-03-1.23532E-04-3.85847E-15
 -1      4246 2.40199E-03-9.57477E-05-4.06392E-15
 -1      4247 8.03425E-03-1.31247E-03-3.02580E-14
 -1      4248 1.31158E-02-4.54258E-03-7.99665E-14
 -1      4249 8.16572E-03-1.37623E-03-3.05021E-14
 -1      4250 1.31838E-02-4.51755E-03-7.71118E-14
 -1      4251 1.33355E-02-4.60098E-03-7.79713E-14
 -1      4252 1.34376E-02-4.66827E-03-7.91281E-14
 -1      4253 3.05067E-03-6.68483E-05-6.07409E-15
 -1      4254 8.67032E-03-1.60658E-03-3.21611E-14
 -1      4255 8.80640E-03-1.67699E-03-3.30640E-14
 -1      4256 8.78082E-03-1.68290E-03-3.35946E-14
 -1      4257 8.53068E-03-1.55206E-03-3.19626E-14
 -1      4258 2.73024E-03-1.15082E-04-5.11790E-15
 -1      4259 1.29983E-02-4.46994E-03-7.88769E-14
 -1      4260 1.28977E-02-4.40414E-03-7.77603E-14
 -1      4261 1.29066E-02-4.39479E-03-7.70691E-14
 -1      4262 1.31415E-02-4.54008E-03-7.92383E-14
 -1      4263 8.31316E-03-1.45394E-03-3.13896E-14
 -1      4264 2.04392E-03 4.28762E-05-2.93216E-15
 -1      4265 2.09108E-03 7.36230E-06-3.08866E-15
 -1      4266 2.15104E-03 7.63030E-05-3.16958E-15
 -1      4267 2.04416E-03-1.06695E-04-3.04975E-15
 -1      4268 2.11768E-03-7.93848E-05-3.23344E-15
 -1      4269 2.64875E-03 6.46399E-05-4.58121E-15
 -1      4270 2.49894E-03 6.90251E-05-4.13417E-15
 -1      4271 2.71114E-03 1.89612E-05-4.83900E-15
 -1      4272 1.31906E-02-4.55780E-03-7.90374E-14
 -1      4273 2.69449E-03-5.25271E-05-4.89990E-15
 -1      4274 2.89902E-03-5.65855E-05-5.55860E-15
 -1      4275 9.11050E-03-1.93116E-03-3.84611E-14
 -1      4276 8.96933E-03-1.84431E-03-3.71975E-14
 -1      4277 1.36307E-02-4.79090E-03-8.10852E-14
 -1      4278 1.35816E-02-4.77316E-03-8.12871E-14
 -1      4279 1.35286E-02-4.72361E-03-7.99228E-14
 -1      4280 9.15055E-03-1.91940E-03-3.74034E-14
 -1      4281 9.28195E-03-2.00119E-03-3.86060E-14
 -1      4282 9.69858E-03-2.26483E-03-4.24543E-14
 -1      4283 9.83801E-03-2.35454E-03-4.37756E-14
 -1      4284 9.97780E-03-2.44484E-03-4.51108E-14
 -1      4285 1.01179E-02-2.53567E-03-4.64559E-14
 -1      4286 9.82598E-03-2.36483E-03-4.43529E-14
 -1      4287 1.02583E-02-2.62690E-03-4.78120E-14
 -1      4288 1.03990E-02-2.71849E-03-4.91827E-14
 -1      4289 1.01069E-02-2.54615E-03-4.70436E-14
 -1      4290 1.05400E-02-2.81034E-03-5.05631E-14
 -1      4291 1.06812E-02-2.90242E-03-5.19501E-14
 -1      4292 1.03887E-02-2.72896E-03-4.97814E-14
 -1      4293 1.08156E-02-2.99006E-03-5.32768E-14
 -1      4294 1.09502E-02-3.07783E-03-5.46125E-14
 -1      4295 1.06643E-02-2.90819E-03-5.24884E-14
 -1      4296 1.10920E-02-3.17033E-03-5.60257E-14
 -1      4297 1.12339E-02-3.26291E-03-5.74487E-14
 -1      4298 1.09406E-02-3.08806E-03-5.52277E-14
 -1      4299 1.13760E-02-3.35556E-03-5.88811E-14
 -1      4300 1.15182E-02-3.44826E-03-6.03245E-14
 -1      4301 1.12246E-02-3.27297E-03-5.80744E-14
 -1      4302 1.16605E-02-3.54099E-03-6.17774E-14
 -1      4303 1.18030E-02-3.63375E-03-6.32387E-14
 -1      4304 1.15090E-02-3.45816E-03-6.09596E-14
 -1      4305 1.19454E-02-3.72653E-03-6.47108E-14
 -1      4306 1.20880E-02-3.81932E-03-6.61936E-14
 -1      4307 1.17939E-02-3.64352E-03-6.38842E-14
 -1      4308 1.22306E-02-3.91212E-03-6.76827E-14
 -1      4309 1.23733E-02-4.00492E-03-6.91820E-14
 -1      4310 1.20790E-02-3.82897E-03-6.68491E-14
 -1      4311 1.25088E-02-4.09309E-03-7.06142E-14
 -1      4312 1.26444E-02-4.18126E-03-7.20520E-14
 -1      4313 1.23572E-02-4.00984E-03-6.97715E-14
 -1      4314 1.27872E-02-4.27406E-03-7.35763E-14
 -1      4315 1.29300E-02-4.36687E-03-7.51068E-14
 -1      4316 1.26355E-02-4.19073E-03-7.27277E-14
 -1      4317 8.40891E-03-1.51417E-03-3.25053E-14
 -1      4318 8.49376E-03-1.54454E-03-3.22729E-14
 -1      4319 8.62094E-03-1.61158E-03-3.30877E-14
 -1      4320 8.55401E-03-1.59820E-03-3.37109E-14
 -1      4321 2.12879E-03-5.31057E-05-3.24366E-15
 -1      4322 2.23338E-03-2.42377E-05-3.50170E-15
 -1      4323 9.67335E-03-2.28526E-03-4.36255E-14
 -1      4324 9.53270E-03-2.19563E-03-4.23074E-14
 -1      4325 9.95494E-03-2.46602E-03-4.63053E-14
 -1      4326 9.81407E-03-2.37542E-03-4.49594E-14
 -1      4327 1.02371E-02-2.64830E-03-4.90281E-14
 -1      4328 1.00959E-02-2.55700E-03-4.76604E-14
 -1      4329 1.05199E-02-2.83167E-03-5.17968E-14
 -1      4330 1.03784E-02-2.73988E-03-5.04082E-14
 -1      4331 1.07963E-02-3.01117E-03-5.45295E-14
 -1      4332 1.06545E-02-2.91905E-03-5.31237E-14
 -1      4333 1.10803E-02-3.19577E-03-5.73691E-14
 -1      4334 1.09382E-02-3.10342E-03-5.59434E-14
 -1      4335 1.13647E-02-3.38071E-03-6.02461E-14
 -1      4336 1.12224E-02-3.28821E-03-5.88028E-14
 -1      4337 1.16495E-02-3.56587E-03-6.31632E-14
 -1      4338 1.15070E-02-3.47327E-03-6.17004E-14
 -1      4339 1.19345E-02-3.75117E-03-6.61216E-14
 -1      4340 1.17920E-02-3.65850E-03-6.46381E-14
 -1      4341 1.22198E-02-3.93656E-03-6.91118E-14
 -1      4342 1.20772E-02-3.84385E-03-6.76116E-14
 -1      4343 1.24981E-02-4.11737E-03-7.20619E-14
 -1      4344 1.23554E-02-4.02464E-03-7.05462E-14
 -1      4345 1.27837E-02-4.30285E-03-7.51182E-14
 -1      4346 1.26409E-02-4.21011E-03-7.35867E-14
 -1      4347 1.34125E-02-4.67184E-03-7.98869E-14
 -1      4348 8.89582E-03-1.75770E-03-3.48677E-14
 -1      4349 9.03340E-03-1.84094E-03-3.61030E-14
 -1      4350 9.00747E-03-1.84453E-03-3.66070E-14
 -1      4351 8.77246E-03-1.69125E-03-3.40372E-14
 -1      4352 1.30459E-02-4.46664E-03-7.76129E-14
 -1      4353 1.29284E-02-4.39399E-03-7.65293E-14
 -1      4354 1.29230E-02-4.37467E-03-7.56624E-14
 -1      4355 1.32124E-02-4.55702E-03-7.84973E-14
 -1      4356 2.54870E-03-4.25665E-05-4.43650E-15
 -1      4357 2.31521E-03 7.40161E-05-3.61052E-15
 -1      4358 8.84884E-03-1.76557E-03-3.59000E-14
 -1      4359 8.70699E-03-1.68078E-03-3.46676E-14
 -1      4360 2.41157E-03-3.40067E-05-4.01789E-15
 -1      4361 1.32678E-02-4.58064E-03-7.84608E-14
 -1      4362 9.42069E-03-2.08772E-03-3.98573E-14
 -1      4363 9.55946E-03-2.17586E-03-4.11483E-14
 -1      4364 1.30747E-02-4.45806E-03-7.65173E-14
 -1      4365 9.54594E-03-2.18563E-03-4.17136E-14
 -1      4366 9.39211E-03-2.10659E-03-4.10020E-14
 -1      4367 9.25144E-03-2.01822E-03-3.97112E-14
 -1      4368 9.26632E-03-2.00994E-03-3.91576E-14
 -1      4369 2.37887E-03 3.30261E-05-3.83916E-15
 -1      4370 1.33768E-02-4.64016E-03-7.90579E-14
 -1      4371 8.73905E-03-1.68624E-03-3.43532E-14
 -1      4372 1.31768E-02-4.52533E-03-7.76701E-14
 -3
    1PSTEP                         2           1           1          
  100CL  101 1.000000000        4372                     0    1           1
 -4  STRESS      6    1
 -5  SXX         1    4    1    1
 -5  SYY         1    4    2    2
 -5  SZZ         1    4    3    3
 -5  SXY         1    4    1    2
 -5  SYZ         1    4    2    3
 -5  SZX         1    4    3    1
 -1         1 3.62301E+01 9.91249E+00 1.55185E+00-1.86822E+01-1.36935E-12 2.43161E-12
 -1         2-6.62329E-01-2.74198E+01-3.49579E+00 1.46383E-01 1.75158E-12 8.94979E-14
 -1         3 1.99999E+01 7.17728E-05-4.97314E-05 6.98057E-05-6.21640E-13-6.42132E-13
 -1         4 1.99999E+01 6.64334E-05-6.60109E-05-6.59535E-05-2.45221E-13 3.54791E-13
 -1         5 3.26722E+01 6.12705E+00 2.71445E+00 6.19334E+00-3.12458E-14 2.37832E-12
 -1         6 3.57258E+01 1.22628E+01 5.15005E+00-8.68644E+00-1.31728E-13 2.04814E-12
 -1         7 2.07856E+01 6.12057E+00-1.31521E-01-4.62001E+00-2.01228E-14 2.85740E-13
 -1         8 1.97625E+01 5.96113E+00 5.79704E-02-3.16580E+00-2.60625E-14-2.28852E-13
 -1         9 1.92160E+01 5.79410E+00 5.21935E-02-2.40330E+00-2.15730E-14-4.95003E-13
 -1        10 1.89384E+01 5.70371E+00 5.06522E-02-1.82952E+00-1.06148E-14-6.18489E-13
 -1        11 1.87722E+01 5.64988E+00 4.68564E-02-1.35307E+00-9.13158E-15-6.73808E-13
 -1        12 1.86701E+01 5.61685E+00 4.33470E-02-9.43445E-01-5.45787E-15-6.81990E-13
 -1        13 1.86104E+01 5.59776E+00 4.12115E-02-5.62737E-01-2.16298E-15-6.69396E-13
 -1        14 1.85863E+01 5.59011E+00 4.07361E-02-1.98843E-01 4.89626E-15-6.57857E-13
 -1        15 1.85926E+01 5.59212E+00 4.17694E-02 1.64338E-01 7.43947E-15-6.36196E-13
 -1        16 1.86261E+01 5.60287E+00 4.40002E-02 5.40628E-01 5.83778E-15-6.10745E-13
 -1        17 1.86874E+01 5.62254E+00 4.70621E-02 9.42981E-01 1.19258E-14-5.75004E-13
 -1        18 1.87818E+01 5.65339E+00 5.03071E-02 1.37723E+00 1.63272E-14-5.10787E-13
 -1        19 1.89340E+01 5.70338E+00 5.26963E-02 1.87733E+00 2.30024E-14-4.07016E-13
 -1        20 1.91985E+01 5.79053E+00 5.18543E-02 2.46875E+00 2.70704E-14-2.14588E-13
 -1        21 1.97312E+01 5.96726E+00 5.06771E-02 3.22939E+00 3.34940E-14 1.43732E-13
 -1        22 2.12437E+01 6.39040E+00 1.44501E-01 4.46700E+00 5.50948E-15 8.49119E-13
 -1        23 2.32534E+01-1.30892E+00-9.21114E-01-8.12274E-01-9.11250E-14 1.58215E-12
 -1        24 1.95430E+01-1.09652E-01-3.28192E-01 6.65414E-02-3.08711E-14 1.16904E-12
 -1        25 1.89241E+01-6.05995E-02-7.58155E-02 6.18792E-02-1.69795E-14 7.17029E-13
 -1        26 1.88434E+01-2.71349E-02-1.15543E-02 3.34117E-02-6.50912E-15 4.06187E-13
 -1        27 1.90405E+01-1.79356E-02-5.29048E-03 2.45071E-02-9.64474E-15 1.89213E-13
 -1        28 1.94162E+01-1.64277E-02-9.46164E-03 1.86208E-02 2.52207E-15 1.86960E-14
 -1        29 2.00022E+01-1.74180E-02-1.65006E-02 1.81322E-02-4.07725E-15-8.83685E-14
 -1        30 2.08338E+01-2.16769E-02-2.76998E-02 2.20669E-02-6.50857E-15-1.02422E-13
 -1        31 2.20114E+01-2.83364E-02-4.53149E-02 3.34242E-02-1.79746E-14-1.58184E-13
 -1        32 2.36949E+01-3.64350E-02-7.00329E-02 5.70042E-02 3.85564E-15-2.12177E-13
 -1        33 2.60878E+01-3.76162E-02-9.27117E-02 1.04548E-01 2.73349E-15-1.28404E-13
 -1        34 2.92029E+01-2.77233E-02-8.52581E-02 1.63941E-01-1.68624E-14-1.82833E-13
 -1        35 3.32672E+01 1.55890E-02 2.79823E-02 2.36404E-01 3.19510E-14-3.03368E-14
 -1        36 3.72455E+01 1.01262E-01 3.24780E-01 2.11033E-01 1.05072E-14 1.68195E-13
 -1        37 3.85601E+01 1.56259E-01 6.27104E-01-1.88181E-01-2.30579E-14 1.76179E-13
 -1        38 3.44939E+01 9.83664E-02 3.73010E-01-9.37702E-01-9.00929E-14-2.57433E-13
 -1        39 2.58641E+01-8.87093E-02-6.88524E-01-1.34708E+00 2.24525E-14-6.44651E-13
 -1        40 1.67837E+01-1.42370E-01-2.01140E+00-5.92842E-01-4.22093E-14-1.07721E-12
 -1        41 1.73076E+01-2.11899E-01-1.99381E+00 8.07945E-01 2.52853E-14-1.57604E-12
 -1        42 2.72034E+01-6.58937E-02-5.04423E-01 1.35423E+00-2.96690E-14-1.85901E-12
 -1        43 3.64221E+01 1.23155E-01 5.65778E-01 6.71667E-01 3.77545E-14-1.86404E-12
 -1        44 3.89470E+01 1.37689E-01 5.50691E-01-3.50115E-02-5.79979E-14-1.61401E-12
 -1        45 3.65214E+01 6.98706E-02 2.10819E-01-2.39531E-01-1.96978E-14-1.73853E-12
 -1        46 3.23946E+01-3.96179E-03-2.67951E-02-2.17712E-01 7.21252E-14-1.58377E-12
 -1        47 2.86150E+01-3.51173E-02-9.76601E-02-1.40292E-01-5.21497E-14-1.19681E-12
 -1        48 2.57639E+01-3.95546E-02-8.92223E-02-7.86326E-02 1.52671E-14-1.00802E-12
 -1        49 2.37862E+01-3.35052E-02-6.29261E-02-4.11072E-02 4.96558E-14-4.54003E-13
 -1        50 2.24702E+01-2.40391E-02-3.95694E-02-1.91570E-02-2.24141E-14-6.75256E-13
 -1        51 2.16366E+01-1.88503E-02-2.59553E-02-1.02477E-02-2.00439E-14-6.42460E-13
 -1        52 2.10595E+01-1.24086E-02-1.56884E-02-4.43925E-03-2.48201E-14-7.28102E-13
 -1        53 2.06832E+01-8.45409E-03-9.68316E-03-1.66849E-03-6.00179E-14-7.32801E-13
 -1        54 2.04371E+01-5.74642E-03-6.05213E-03-3.80413E-04-3.80334E-14-7.28750E-13
 -1        55 2.02760E+01-3.73838E-03-3.75053E-03 3.96444E-04 1.27342E-13-5.43945E-13
 -1        56 2.01740E+01-2.76834E-03-2.55014E-03 3.86629E-04-3.85603E-14-5.20269E-13
 -1        57 2.01029E+01-1.82496E-03-1.62164E-03 4.93727E-04-6.80207E-15-6.44044E-13
 -1        58 2.00567E+01-1.25154E-03-1.05657E-03 4.82477E-04-1.95725E-14-6.82735E-13
 -1        59 2.00269E+01-8.60025E-04-6.92352E-04 4.39013E-04-8.95558E-16-1.57955E-13
 -1        60 2.00083E+01-5.95249E-04-4.53907E-04 3.84311E-04-5.18524E-14-2.12360E-13
 -1        61 1.99971E+01-3.93509E-04-2.89616E-04 3.52226E-04-4.07792E-14-4.47584E-13
 -1        62 1.99911E+01-2.88919E-04-1.95138E-04 2.78844E-04-9.01632E-14-1.17224E-13
 -1        63 1.99880E+01-1.91008E-04-1.19946E-04 2.40270E-04-6.26172E-15 1.44969E-13
 -1        64 1.99872E+01-1.26867E-04-7.09559E-05 2.01850E-04 1.78904E-13-5.82945E-13
 -1        65 1.99878E+01-8.17784E-05-3.85055E-05 1.69678E-04-5.34522E-14-3.46544E-13
 -1        66 1.99892E+01-5.04644E-05-1.71461E-05 1.43122E-04 5.66207E-14-5.22644E-13
 -1        67 1.99911E+01-2.70158E-05-2.91569E-06 1.23626E-04-3.74294E-14-7.27485E-13
 -1        68 1.99932E+01-9.76075E-06 8.44191E-06 1.05650E-04 1.78695E-13-7.82614E-14
 -1        69 1.99953E+01 4.10295E-06 2.01841E-05 9.27801E-05-1.86060E-14 5.53504E-13
 -1        70 1.99973E+01 1.82357E-05 3.86887E-05 7.85846E-05 1.26311E-13 8.72588E-14
 -1        71 1.99989E+01 2.69272E-05 6.13399E-05 5.14631E-05-7.71882E-14 6.92056E-13
 -1        72 1.99998E+01-2.45714E-07 4.25907E-05-7.22316E-07 1.26946E-13 9.89763E-13
 -1        73 2.10713E+01-4.04428E-01-9.81164E-01-3.15902E-01 2.46088E-14 2.20648E-12
 -1        74 1.94461E+01-6.56624E-02-2.89176E-01-5.57592E-02 2.76311E-14 1.68780E-12
 -1        75 1.88710E+01-2.01359E-02-6.31557E-02-2.16289E-02 1.91482E-14 1.27937E-12
 -1        76 1.87314E+01-9.36265E-03-8.47265E-03-1.70505E-02-5.18720E-15 1.05749E-12
 -1        77 1.87999E+01-4.18681E-03 1.56742E-03-1.45584E-02 6.91043E-15 8.71806E-13
 -1        78 1.89584E+01-8.82926E-04 3.54447E-03-1.30940E-02-7.94273E-15 7.38753E-13
 -1        79 1.91368E+01 1.59738E-03 5.52761E-03-1.20670E-02 1.38682E-14 6.34173E-13
 -1        80 1.92829E+01 3.63386E-03 8.26277E-03-1.09502E-02 1.41280E-14 5.86168E-13
 -1        81 1.93511E+01 5.26588E-03 1.14123E-02-9.16174E-03-2.15739E-14 4.80357E-13
 -1        82 1.92991E+01 6.29114E-03 1.43686E-02-6.08847E-03 2.61624E-14 4.38730E-13
 -1        83 1.90914E+01 6.34720E-03 1.61961E-02-1.20950E-03-1.91015E-14 3.62490E-13
 -1        84 1.87079E+01 5.05216E-03 1.56596E-02 5.62987E-03-2.91824E-15 3.96311E-13
 -1        85 1.81554E+01 2.22487E-03 1.15677E-02 1.38523E-02-1.21469E-14 3.10283E-13
 -1        86 1.74797E+01-1.87333E-03 3.43497E-03 2.18963E-02 1.68318E-14 2.39647E-13
 -1        87 1.67697E+01-6.42292E-03-7.79935E-03 2.73844E-02-5.81024E-15 1.99439E-13
 -1        88 1.61469E+01-1.02129E-02-1.95300E-02 2.79165E-02-3.97088E-14 2.63474E-13
 -1        89 1.57377E+01-1.20898E-02-2.81898E-02 2.22802E-02-1.17018E-15 1.40026E-13
 -1        90 1.56362E+01-1.14726E-02-3.07728E-02 1.13578E-02 3.06064E-14 3.35677E-14
 -1        91 1.58720E+01-8.62795E-03-2.63646E-02-1.96762E-03-2.14738E-14-2.13119E-14
 -1        92 1.64005E+01-4.51487E-03-1.66451E-02-1.40221E-02 2.13096E-14 1.09949E-13
 -1        93 1.71195E+01-3.26826E-04-5.00049E-03-2.19518E-02-1.90613E-14-2.22131E-14
 -1        94 1.79043E+01 2.98430E-03 5.18056E-03-2.47273E-02-1.63043E-14 4.38989E-14
 -1        95 1.86435E+01 4.95761E-03 1.18008E-02-2.30782E-02 4.88802E-14-6.04699E-14
 -1        96 1.92620E+01 5.61314E-03 1.44396E-02-1.86998E-02-1.38433E-14-2.80432E-13
 -1        97 1.97263E+01 5.27369E-03 1.39059E-02-1.33645E-02 1.62237E-14 4.83663E-14
 -1        98 2.00377E+01 4.35887E-03 1.14966E-02-8.37001E-03-3.72867E-14 9.53903E-14
 -1        99 2.02188E+01 3.23820E-03 8.40894E-03-4.39521E-03-3.58848E-14 9.17901E-14
 -1       100 2.03012E+01 2.16558E-03 5.46206E-03-1.61624E-03 3.42039E-14-1.62010E-13
 -1       101 2.03167E+01 1.27592E-03 3.07182E-03 9.28812E-05-1.90179E-14 3.76138E-14
 -1       102 2.02921E+01 6.13129E-04 1.35284E-03 9.84036E-04-3.50937E-14-2.32145E-13
 -1       103 2.02475E+01 1.65091E-04 2.45474E-04 1.32141E-03-1.47567E-14 8.67915E-15
 -1       104 2.01964E+01-1.06970E-04-3.82949E-04 1.32596E-03 2.62629E-15 1.87594E-13
 -1       105 2.01472E+01-2.48888E-04-6.75310E-04 1.15889E-03 7.13852E-14-9.30926E-14
 -1       106 2.01043E+01-3.02736E-04-7.54102E-04 9.25727E-04-8.06749E-14-1.13898E-13
 -1       107 2.00692E+01-3.02284E-04-7.11556E-04 6.88433E-04-6.22179E-14 1.30532E-13
 -1       108 2.00422E+01-2.72199E-04-6.10762E-04 4.78571E-04 1.20645E-13-6.51535E-13
 -1       109 2.00224E+01-2.29119E-04-4.91263E-04 3.08387E-04-7.54933E-14-7.29272E-13
 -1       110 2.00086E+01-1.83383E-04-3.75510E-04 1.78999E-04-9.68761E-14 2.18037E-13
 -1       111 1.99996E+01-1.40783E-04-2.74523E-04 8.59099E-05 7.01621E-14 1.05001E-13
 -1       112 1.99942E+01-1.04047E-04-1.92231E-04 2.23950E-05 2.57274E-14-1.52873E-13
 -1       113 1.99915E+01-7.39647E-05-1.28512E-04-1.85746E-05-4.52257E-15-5.32888E-13
 -1       114 1.99907E+01-5.01896E-05-8.11648E-05-4.33763E-05-6.65559E-14-4.29275E-13
 -1       115 1.99911E+01-3.17559E-05-4.70843E-05-5.73582E-05-1.69069E-14-1.76020E-13
 -1       116 1.99923E+01-1.73533E-05-2.27578E-05-6.47989E-05 1.20158E-13-9.54162E-13
 -1       117 1.99939E+01-5.59078E-06-4.19491E-06-6.88939E-05-8.39952E-14-7.27793E-13
 -1       118 1.99958E+01 4.94653E-06 1.33431E-05-7.15240E-05-8.51973E-14-8.10037E-13
 -1       119 1.99975E+01 1.50643E-05 3.49391E-05-7.28534E-05 3.93529E-14-1.20743E-12
 -1       120 1.99990E+01 2.33577E-05 5.94123E-05-6.56459E-05 1.15930E-15-1.43899E-12
 -1       121 1.99998E+01-1.71273E-05 3.10102E-05-2.01109E-05 1.88334E-13-1.32334E-12
 -1       122 1.99998E+01-9.30149E-05 2.74357E-05-8.55270E-06-9.49111E-13 6.37159E-14
 -1       123 1.99998E+01-8.78649E-04 4.50533E-05-5.10429E-05 9.75382E-14 6.25276E-14
 -1       124 1.99998E+01-2.19193E-03 1.34922E-05-6.33724E-05 8.80251E-13 2.08272E-13
 -1       125 1.99998E+01-3.63775E-03-1.00540E-05-5.83483E-05 5.44429E-13 1.67677E-13
 -1       126 1.99998E+01-4.98208E-03-2.25618E-05-4.70303E-05 6.24563E-13-1.19658E-13
 -1       127 1.99998E+01-6.07710E-03-2.89045E-05-3.49012E-05 2.31973E-13 3.29598E-14
 -1       128 1.99998E+01-6.88214E-03-3.18253E-05-2.21608E-05 6.99960E-13 1.17739E-13
 -1       129 1.99998E+01-7.33462E-03-3.38559E-05-9.45048E-06 6.70443E-13-6.27036E-16
 -1       130 1.99998E+01-7.40724E-03-3.55722E-05 3.77136E-06 1.92240E-12 2.35814E-13
 -1       131 1.99998E+01-7.08194E-03-3.65466E-05 1.80876E-05 1.69805E-12-2.86451E-13
 -1       132 1.99998E+01-6.35489E-03-3.50873E-05 3.42288E-05 5.50907E-13-6.54591E-14
 -1       133 1.99998E+01-5.27100E-03-2.90669E-05 4.93585E-05 4.28431E-13 2.99384E-13
 -1       134 1.99998E+01-3.87049E-03-1.40464E-05 6.35001E-05 4.48194E-13-5.78465E-14
 -1       135 1.99998E+01-2.32614E-03 1.45896E-05 7.08458E-05-5.34613E-16-1.22717E-13
 -1       136 1.99998E+01-9.13011E-04 5.06191E-05 5.22900E-05 2.09943E-13-2.70854E-13
 -1       137 1.99998E+01-1.00204E-04 2.80374E-05 2.53265E-06-9.93926E-13-3.54096E-13
 -1       138-1.36473E+00-1.99231E+01-2.96817E+00-3.75247E+00 2.28401E-12 5.05138E-13
 -1       139-8.38839E-01-6.01647E+00-1.98005E+00-1.79031E+00 2.53397E-12 1.20501E-12
 -1       140 4.60810E+00 5.98197E+00-7.50616E-01 5.47284E+00 2.02655E-12 1.52595E-12
 -1       141 1.91245E+01 1.25773E+01 7.08672E-01 1.53596E+01 1.35586E-12 1.59001E-12
 -1       142 3.98616E+01 1.08910E+01 2.08695E+00 2.02201E+01 5.51031E-13 8.61144E-13
 -1       143 5.91297E+01 5.22220E+00 3.05317E+00 1.58738E+01 5.51711E-14 1.18849E-13
 -1       144 6.99554E+01 1.14788E+00 3.54003E+00 3.87059E+00 4.19109E-15-6.67674E-13
 -1       145 6.67492E+01 2.38696E+00 3.41859E+00-1.01544E+01 2.92644E-13-1.71907E-12
 -1       146 4.99924E+01 8.20099E+00 2.63790E+00-1.91055E+01 9.86183E-13-2.43583E-12
 -1       147 2.84573E+01 1.22984E+01 1.40220E+00-1.82794E+01 1.84691E-12-2.66226E-12
 -1       148 1.13862E+01 1.03335E+01 1.21272E-02-1.08178E+01 2.51660E-12-2.33735E-12
 -1       149 6.16003E-01-6.17704E-01-1.48521E+00-7.64025E-01 2.68630E-12-1.59045E-12
 -1       150-1.56875E+00-1.46688E+01-2.62302E+00 3.71802E+00 1.84563E-12-6.22433E-13
 -1       151-8.96915E-01-2.57746E+01-3.36500E+00 1.90174E+00 1.20820E-13-8.82506E-14
 -1       152-1.20790E+00-2.74041E+01-3.59401E+00-3.48926E+00-1.36310E-12-1.61246E-13
 -1       153-2.85502E+00-1.97942E+01-3.41373E+00-6.38758E+00-2.50905E-12-9.83547E-13
 -1       154-2.24453E+00-6.73614E+00-2.76791E+00-3.31605E+00-2.90151E-12-1.83420E-12
 -1       155 6.67862E+00 5.10758E+00-1.46225E+00 6.16564E+00-2.38931E-12-2.25964E-12
 -1       156 2.69003E+01 1.01892E+01 6.65967E-01 1.64532E+01-1.38128E-12-2.09033E-12
 -1       157 5.56645E+01 7.85301E+00 3.47788E+00 1.97456E+01-5.12423E-13-1.09768E-12
 -1       158 7.94101E+01 2.93603E+00 5.82319E+00 1.13627E+01-2.51379E-14-1.05749E-13
 -1       159 8.38035E+01 1.78852E+00 6.26339E+00-6.13454E+00-1.29098E-13 9.64950E-13
 -1       160 6.44568E+01 6.08344E+00 4.31658E+00-1.82970E+01-6.19615E-13 1.96310E-12
 -1       161 1.29026E+01 7.52077E+00-8.21225E-01-1.00884E+01-1.73095E-12 2.02194E-12
 -1       162-2.08454E-01-2.29343E+00-2.42772E+00 4.66084E-01-1.70675E-12 1.25899E-12
 -1       163-3.29095E+00-1.54200E+01-3.29552E+00 6.21938E+00-1.32627E-12 6.13287E-13
 -1       164-1.81423E+00-2.56702E+01-3.61593E+00 5.18252E+00-1.95177E-13 9.33134E-14
 -1       165 2.11157E+01 3.68799E+00-5.02550E-02-3.51057E+00-3.12682E-13 2.85223E-14
 -1       166 2.00908E+01 4.21876E+00-4.42555E-02-2.68150E+00-2.88831E-13-2.86843E-13
 -1       167 1.95693E+01 4.50684E+00-3.04680E-02-2.06650E+00-2.28666E-13-4.58453E-13
 -1       168 1.92702E+01 4.66207E+00-2.27316E-02-1.55964E+00-1.59888E-13-5.39508E-13
 -1       169 1.90867E+01 4.75334E+00-1.86946E-02-1.13236E+00-1.10463E-13-5.70967E-13
 -1       170 1.89737E+01 4.80653E+00-1.65428E-02-7.43258E-01-5.93554E-14-5.64861E-13
 -1       171 1.89178E+01 4.83008E+00-1.55356E-02-3.78932E-01 1.70201E-15-5.44625E-13
 -1       172 1.89089E+01 4.82993E+00-1.53194E-02-2.19491E-02 5.13853E-14-5.36433E-13
 -1       173 1.89407E+01 4.80957E+00-1.57841E-02 3.42085E-01 9.64074E-14-5.26021E-13
 -1       174 1.90110E+01 4.76970E+00-1.70036E-02 7.25718E-01 1.42018E-13-4.93276E-13
 -1       175 1.91218E+01 4.70863E+00-1.93412E-02 1.13399E+00 1.94867E-13-4.47768E-13
 -1       176 1.92948E+01 4.61457E+00-2.37584E-02 1.59560E+00 2.51804E-13-3.67061E-13
 -1       177 1.95751E+01 4.46260E+00-3.23463E-02 2.12553E+00 3.01593E-13-2.41805E-13
 -1       178 2.00860E+01 4.18074E+00-4.66057E-02 2.75591E+00 3.36414E-13 2.96638E-15
 -1       179 2.12108E+01 3.45290E+00-5.92078E-02 3.45810E+00 3.06829E-13 4.31336E-13
 -1       180 2.24792E+01 1.13406E+00-3.35027E-01 2.95674E+00 2.23577E-13 9.86891E-13
 -1       181 2.21372E+01 9.16575E-01-3.78414E-05-1.94981E+00-2.75106E-13 4.19508E-13
 -1       182 2.06794E+01 2.12193E-01-1.01757E-02-7.09992E-01-2.60156E-13 2.79335E-13
 -1       183 1.99875E+01 1.17888E-01 1.43947E-02-1.86944E-01-1.93281E-13 1.60393E-13
 -1       184 1.97781E+01 7.09932E-02 1.18751E-02 8.46268E-02-1.47642E-13 3.85503E-14
 -1       185 1.98346E+01 5.87406E-02 7.73774E-03 2.61851E-01-1.21788E-13-6.90947E-14
 -1       186 2.00983E+01 6.42259E-02 6.02420E-03 4.31191E-01-6.59746E-14-1.22426E-13
 -1       187 2.05542E+01 8.48059E-02 5.78440E-03 6.27578E-01-2.79293E-14-1.42205E-13
 -1       188 2.12225E+01 1.21646E-01 6.05720E-03 8.89326E-01-1.05337E-14-1.49977E-13
 -1       189 2.21504E+01 1.75223E-01 5.61510E-03 1.25456E+00 1.35334E-14-6.41637E-14
 -1       190 2.34000E+01 2.36612E-01 2.93233E-03 1.75064E+00 4.55950E-14-2.81487E-14
 -1       191 2.49377E+01 2.71022E-01-1.75331E-03 2.32198E+00-1.56927E-14-4.33681E-16
 -1       192 2.69330E+01 1.83760E-01-2.81493E-03 2.85799E+00 6.69051E-14-2.09867E-14
 -1       193 2.92177E+01-2.39671E-01 1.27823E-02 2.84949E+00 1.57028E-13 3.41879E-14
 -1       194 3.15281E+01-1.18691E+00 4.05815E-02 1.39743E+00 3.33761E-14 1.27722E-13
 -1       195 3.32343E+01-2.05121E+00 2.11065E-02-1.70384E+00-1.30408E-13 1.98310E-13
 -1       196 3.39449E+01-1.70299E+00-1.20805E-01-5.06220E+00-3.24955E-13 1.47642E-13
 -1       197 3.34484E+01 1.53698E+00-2.56373E-01-5.08973E+00-3.49193E-13-2.70454E-13
 -1       198 3.33085E+01 3.66913E+00-2.27769E-01-6.85898E-02-3.31235E-13-4.34966E-13
 -1       199 3.35446E+01 1.41360E+00-2.69551E-01 5.37461E+00-3.21354E-13-8.26963E-13
 -1       200 3.39298E+01-1.77884E+00-9.54876E-02 4.75517E+00 1.55119E-14-8.79262E-13
 -1       201 3.29580E+01-1.92593E+00 3.39486E-02 7.32041E-01 1.23401E-13-9.56706E-13
 -1       202 3.10608E+01-8.43397E-01 3.60813E-02-2.01741E+00 9.41539E-14-6.33474E-13
 -1       203 2.87805E+01-4.90148E-02 6.13600E-03-2.89883E+00 9.08093E-14-5.50421E-13
 -1       204 2.66287E+01 2.44800E-01-3.76761E-03-2.64199E+00 1.95715E-13-4.29490E-13
 -1       205 2.48213E+01 2.77562E-01-3.76513E-04-2.03343E+00 1.23452E-13-4.00916E-13
 -1       206 2.34166E+01 2.23946E-01 3.73679E-03-1.44622E+00 2.97411E-13-3.84520E-13
 -1       207 2.23817E+01 1.59845E-01 5.49908E-03-9.89235E-01-1.36730E-13-3.16702E-13
 -1       208 2.16720E+01 1.10523E-01 4.95625E-03-6.77108E-01 2.68067E-14-2.32255E-13
 -1       209 2.11430E+01 7.33124E-02 4.16353E-03-4.51614E-01-1.52031E-14-2.17933E-13
 -1       210 2.07773E+01 4.80295E-02 3.05348E-03-3.00357E-01 5.87145E-14-1.06186E-13
 -1       211 2.05254E+01 3.14464E-02 2.15255E-03-2.00008E-01-1.41604E-13-2.36367E-13
 -1       212 2.03525E+01 2.06391E-02 1.50261E-03-1.33404E-01-2.53528E-14-3.46617E-13
 -1       213 2.02385E+01 1.39239E-02 1.00788E-03-9.08395E-02 1.76257E-14-3.04800E-13
 -1       214 2.01554E+01 9.30292E-03 7.13381E-04-6.06217E-02-1.03564E-13-3.37954E-13
 -1       215 2.00988E+01 6.23820E-03 4.87369E-04-4.01939E-02-8.17490E-14-6.48629E-13
 -1       216 2.00604E+01 4.20763E-03 3.35215E-04-2.63634E-02 1.39124E-13-6.24950E-13
 -1       217 2.00346E+01 2.84489E-03 2.31577E-04-1.69565E-02 4.23664E-14-2.75014E-13
 -1       218 2.00176E+01 1.91897E-03 1.60975E-04-1.05463E-02-1.11919E-13-2.19235E-13
 -1       219 2.00071E+01 1.31201E-03 1.09581E-04-6.37326E-03 2.12262E-14-1.38928E-13
 -1       220 2.00003E+01 8.74161E-04 7.76665E-05-3.39036E-03 3.28662E-13-2.36516E-13
 -1       221 1.99964E+01 5.68941E-04 5.27129E-05-1.39706E-03-3.39564E-13 4.79090E-14
 -1       222 1.99945E+01 3.58933E-04 3.53840E-05-1.00560E-04-9.99501E-14 9.43799E-14
 -1       223 1.99940E+01 2.14165E-04 2.31073E-05 7.13998E-04 9.12825E-14-2.66418E-14
 -1       224 1.99943E+01 1.13415E-04 1.41331E-05 1.19328E-03-2.57695E-14-4.24022E-14
 -1       225 1.99950E+01 4.39226E-05 7.41728E-06 1.42645E-03 3.21362E-13-1.07061E-13
 -1       226 1.99961E+01-1.47018E-05 2.63551E-06 1.49471E-03 3.04974E-13-8.80209E-14
 -1       227 1.99972E+01-7.31944E-05-8.52198E-07 1.40730E-03-1.63629E-13 2.49703E-13
 -1       228 1.99983E+01-1.44396E-04-1.85873E-06 1.15516E-03 1.18364E-13 3.70433E-14
 -1       229 1.99992E+01-2.55855E-04-1.39869E-06 7.22285E-04 2.15712E-13-3.85402E-14
 -1       230 2.10677E+01 2.75481E-01-5.01351E-02 1.11605E+00 2.50553E-13 8.44902E-13
 -1       231 2.00227E+01 1.27227E-01 8.98753E-03 4.00882E-01 1.87753E-13 6.84171E-13
 -1       232 1.95648E+01 5.72412E-02 1.27391E-02 1.09772E-01 1.21356E-13 5.16265E-13
 -1       233 1.93992E+01 2.55514E-02 7.29269E-03-2.47514E-02 1.07247E-13 3.99826E-13
 -1       234 1.93826E+01 8.40879E-03 3.39266E-03-8.27422E-02 7.15096E-14 3.10078E-13
 -1       235 1.94305E+01-3.72861E-03 1.41711E-03-9.35768E-02 4.26634E-14 2.54924E-13
 -1       236 1.94862E+01-1.40291E-02 4.98694E-04-6.86108E-02 2.92925E-14 2.45885E-13
 -1       237 1.95058E+01-2.35346E-02 7.75826E-05-1.26322E-02 1.96486E-14 2.35211E-13
 -1       238 1.94532E+01-3.18507E-02-5.16260E-05 7.05989E-02 5.05232E-14 1.74256E-13
 -1       239 1.93008E+01-3.73936E-02 1.81053E-05 1.74445E-01 2.62702E-15 1.68924E-13
 -1       240 1.90330E+01-3.76435E-02 1.94666E-04 2.86221E-01 4.09312E-14 1.59610E-13
 -1       241 1.86537E+01-2.98952E-02 3.54445E-04 3.85601E-01 5.57548E-14 1.10710E-13
 -1       242 1.81926E+01-1.26658E-02 3.73449E-04 4.46267E-01 1.22798E-14 8.33452E-14
 -1       243 1.77078E+01 1.26104E-02 2.06042E-04 4.42183E-01-2.26838E-14 1.59706E-13
 -1       244 1.72790E+01 4.06399E-02-5.88399E-05 3.57756E-01 2.92589E-14 1.19326E-13
 -1       245 1.69901E+01 6.33406E-02-2.27661E-04 1.97727E-01 1.27954E-13-2.18484E-14
 -1       246 1.69060E+01 7.30976E-02-1.26504E-04-9.58512E-03 7.52501E-14-1.10661E-13
 -1       247 1.70505E+01 6.65029E-02 2.55852E-04-2.19625E-01 1.16194E-14-1.78105E-13
 -1       248 1.73987E+01 4.62160E-02 7.38563E-04-3.87309E-01-1.72839E-14-1.08994E-13
 -1       249 1.78862E+01 1.94744E-02 1.05765E-03-4.83020E-01-3.13205E-14-1.42633E-13
 -1       250 1.84310E+01-5.61708E-03 1.05553E-03-5.00469E-01-2.25485E-14-7.95412E-14
 -1       251 1.89566E+01-2.34535E-02 7.42334E-04-4.53807E-01 7.73522E-14-1.56515E-13
 -1       252 1.94082E+01-3.22139E-02 2.65008E-04-3.67947E-01 4.64581E-16-2.62588E-13
 -1       253 1.97582E+01-3.31400E-02-1.98710E-04-2.68300E-01-9.67508E-14-1.75582E-13
 -1       254 2.00024E+01-2.89376E-02-5.27221E-04-1.74151E-01-3.87183E-14-1.09151E-13
 -1       255 2.01528E+01-2.23738E-02-6.81008E-04-9.65356E-02 6.41327E-15-1.85628E-13
 -1       256 2.02289E+01-1.55188E-02-6.83727E-04-3.92833E-02 4.96292E-14-1.60070E-13
 -1       257 2.02520E+01-9.57087E-03-5.88146E-04-1.38397E-03-1.78617E-13-1.66036E-13
 -1       258 2.02413E+01-5.00995E-03-4.48099E-04 2.06447E-02 7.22979E-14 8.45145E-14
 -1       259 2.02119E+01-1.85343E-03-3.04016E-04 3.10097E-02-7.38603E-14-3.84648E-14
 -1       260 2.01745E+01 1.15409E-04-1.79493E-04 3.36140E-02 7.70142E-15 4.03654E-14
 -1       261 2.01364E+01 1.18980E-03-8.41320E-05 3.15962E-02 1.60105E-13 1.56445E-14
 -1       262 2.01014E+01 1.65072E-03-1.83554E-05 2.72355E-02-9.67804E-14 8.29605E-14
 -1       263 2.00718E+01 1.72791E-03 2.21983E-05 2.20445E-02 4.66403E-15 1.26669E-14
 -1       264 2.00479E+01 1.59069E-03 4.35689E-05 1.69349E-02 4.15056E-13-1.20792E-13
 -1       265 2.00297E+01 1.35391E-03 5.16560E-05 1.23890E-02-2.25836E-13-5.05013E-14
 -1       266 2.00163E+01 1.08941E-03 5.13711E-05 8.60531E-03-3.14138E-13-2.44489E-14
 -1       267 2.00070E+01 8.37909E-04 4.63975E-05 5.61052E-03 9.92522E-14 1.08165E-13
 -1       268 2.00009E+01 6.19288E-04 3.92712E-05 3.33765E-03 8.96742E-14 4.59424E-13
 -1       269 1.99972E+01 4.40297E-04 3.15932E-05 1.67807E-03 1.50961E-13 3.27480E-13
 -1       270 1.99954E+01 3.00034E-04 2.42671E-05 5.13267E-04-1.78644E-14 1.27305E-13
 -1       271 1.99947E+01 1.93529E-04 1.77120E-05-2.67008E-04 2.38491E-14 5.21027E-15
 -1       272 1.99950E+01 1.13868E-04 1.20620E-05-7.55322E-04 4.29773E-13 1.93217E-14
 -1       273 1.99957E+01 5.29127E-05 7.45080E-06-1.02199E-03-1.03969E-13-1.65851E-13
 -1       274 1.99967E+01 2.01413E-06 4.36461E-06-1.11194E-03 7.08871E-14-1.22028E-13
 -1       275 1.99978E+01-4.79570E-05 3.78117E-06-1.04476E-03 2.07258E-13-2.91376E-13
 -1       276 1.99988E+01-1.13287E-04 4.21598E-06-8.12029E-04 1.14733E-13-3.00550E-13
 -1       277 1.99995E+01-1.81737E-04 3.05400E-06-4.05938E-04-1.05617E-13-1.92502E-13
 -1       278 1.99996E+01-6.28085E-04-1.58900E-06-6.66641E-04-1.12983E-13 5.42120E-13
 -1       279 1.99997E+01-1.37014E-03-1.36399E-06-9.79377E-04 2.67499E-13 4.79656E-13
 -1       280 1.99998E+01-2.23225E-03-8.92185E-07-1.07298E-03 4.06261E-13-2.12135E-13
 -1       281 1.99999E+01-3.09709E-03 6.36614E-07-1.00407E-03 2.90266E-13 1.25717E-13
 -1       282 1.99999E+01-3.85529E-03 2.32491E-06-8.36578E-04 8.59335E-14-1.77828E-13
 -1       283 1.99999E+01-4.46628E-03 3.67932E-06-6.07104E-04 9.17959E-14 1.27079E-13
 -1       284 1.99999E+01-4.87152E-03 4.52655E-06-3.42579E-04 2.33760E-13 2.46457E-13
 -1       285 1.99999E+01-5.04465E-03 4.89236E-06-5.60955E-05 3.78674E-13 5.05920E-13
 -1       286 1.99999E+01-4.96938E-03 4.77361E-06 2.43881E-04 5.49916E-14-1.32209E-13
 -1       287 1.99999E+01-4.64010E-03 4.07916E-06 5.45536E-04 2.05589E-13-3.90000E-13
 -1       288 1.99999E+01-4.07935E-03 2.74145E-06 8.21602E-04 9.77829E-14-2.48961E-13
 -1       289 1.99999E+01-3.30394E-03 1.03236E-06 1.04229E-03-1.20862E-14-1.15500E-13
 -1       290 1.99998E+01-2.39680E-03-9.38373E-07 1.14535E-03-2.15721E-13-6.21817E-14
 -1       291 1.99997E+01-1.46882E-03-2.85933E-06 1.05752E-03-9.85031E-14-1.33632E-15
 -1       292-7.88131E-01-1.17430E+01-9.76210E-01 2.49406E+00 7.41990E-13 4.42729E-13
 -1       293 3.98682E+00-7.91607E+00-6.20173E-01 5.16963E+00 7.80404E-13 4.11442E-13
 -1       294 1.09234E+01-3.89085E+00-3.97287E-01 6.82937E+00 1.02390E-12 4.50709E-13
 -1       295 2.18495E+01-6.44241E-01-8.77659E-03 8.17993E+00 6.13676E-13 3.68178E-13
 -1       296 3.20479E+01 4.00428E+00 4.13142E-01 8.87213E+00 7.05200E-13 1.54099E-13
 -1       297 4.15419E+01 6.01761E+00 7.02037E-01 6.74018E+00 4.73642E-13 6.24778E-14
 -1       298 4.53523E+01 7.64370E+00 6.39205E-01 2.33297E+00 4.04204E-13-1.26885E-13
 -1       299 4.99462E+01 7.24916E+00 1.01422E+00-1.11283E+00 5.12368E-13-4.37470E-13
 -1       300 4.47324E+01 6.75226E+00 7.42651E-01-4.52145E+00 6.32175E-13-6.54921E-13
 -1       301 3.64874E+01 4.08910E+00 3.97251E-01-6.31219E+00 6.75526E-13-7.20257E-13
 -1       302 2.64011E+01 2.13317E+00 1.90072E-01-8.72133E+00 9.62758E-13-1.02837E-12
 -1       303 1.71747E+01-3.05458E+00-1.51034E-01-7.82323E+00 7.86066E-13-7.74242E-13
 -1       304 6.72756E+00-6.63209E+00-5.38054E-01-5.80272E+00 7.22145E-13-9.56072E-13
 -1       305 1.01792E+00-9.33585E+00-6.40504E-01-4.06264E+00 2.63983E-13-9.48380E-13
 -1       306-1.73663E+00-1.27084E+01-1.05048E+00-1.24531E+00-1.96725E-13-7.31998E-13
 -1       307-1.30425E-01-1.09370E+01-8.73491E-01 1.22485E+00-5.31103E-13-7.72951E-13
 -1       308 4.58787E+00-9.38709E+00-1.00766E+00 2.86860E+00-8.74467E-13-7.19438E-13
 -1       309 1.40900E+01-5.62459E+00-7.23069E-01 5.15234E+00-9.21319E-13-6.56808E-13
 -1       310 2.72693E+01-2.05103E+00-1.70725E-01 6.10535E+00-8.75078E-13-4.46920E-13
 -1       311 4.12663E+01 1.56103E+00 6.57840E-01 5.00506E+00-7.25850E-13-2.92544E-13
 -1       312 5.11684E+01 4.99829E+00 1.38883E+00 1.93385E+00-4.50057E-13-3.31957E-14
 -1       313 5.58068E+01 7.31813E+00 1.89311E+00 3.18030E-01-4.34763E-13 3.10800E-13
 -1       314 5.43371E+01 5.95978E+00 1.75844E+00-1.70192E+00-5.94774E-13 4.09756E-13
 -1       315 4.54968E+01 2.54760E+00 9.54704E-01-4.01227E+00-7.00100E-13 7.45959E-13
 -1       316 3.24751E+01-8.96973E-01 9.69691E-02-5.73219E+00-5.53640E-13 1.06876E-12
 -1       317 1.97388E+01-5.09885E+00-5.03805E-01-5.58392E+00-3.19966E-13 6.76070E-13
 -1       318 8.08680E+00-8.03761E+00-8.36420E-01-4.01436E+00-2.56128E-13 6.57030E-13
 -1       319 1.01938E+00-1.08696E+01-9.91679E-01-1.63432E+00-1.62925E-14 4.58647E-13
 -1       320-1.72666E+00-1.27337E+01-1.08749E+00 7.09862E-01 3.62595E-13 8.27366E-13
 -1       321 1.99996E+01-6.69290E-04-5.85390E-06 7.24938E-04-2.44619E-13-6.95365E-13
 -1       322 2.02219E+01 3.04289E+00-2.17796E-02-1.94056E+00-3.05292E-13-2.72149E-13
 -1       323 2.08828E+01 2.21709E+00-1.71857E-02-2.22235E+00-3.37519E-13-9.20809E-14
 -1       324 1.95285E+01 3.79982E+00-1.49851E-02-1.20036E+00-1.76596E-13-4.35052E-13
 -1       325 1.93496E+01 3.97181E+00-1.28858E-02-8.51103E-01-1.14995E-13-4.46190E-13
 -1       326 1.92497E+01 4.06252E+00-1.18108E-02-5.20766E-01-2.84405E-14-4.16040E-13
 -1       327 1.92149E+01 4.09099E+00-1.14228E-02-1.96868E-01 3.39606E-14-4.09015E-13
 -1       328 1.92350E+01 4.06836E+00-1.15572E-02 1.32321E-01 8.84510E-14-4.09679E-13
 -1       329 1.93034E+01 3.99926E+00-1.21771E-02 4.75879E-01 1.44370E-13-4.04448E-13
 -1       330 1.94171E+01 3.88313E+00-1.33881E-02 8.33888E-01 2.05514E-13-3.55675E-13
 -1       331 1.95894E+01 3.70113E+00-1.55044E-02 1.22156E+00 2.65699E-13-2.97708E-13
 -1       332 1.98465E+01 3.41733E+00-1.90299E-02 1.62842E+00 3.16934E-13-2.01081E-13
 -1       333 2.02460E+01 2.94841E+00-2.33954E-02 2.02102E+00 3.62896E-13-5.23080E-14
 -1       334 2.08518E+01 2.09742E+00-2.92451E-02 2.21735E+00 3.57115E-13 2.09527E-13
 -1       335 2.11924E+01 1.17857E+00-2.36433E-02 1.84058E+00 3.17591E-13 4.73733E-13
 -1       336 2.05110E+01 4.88148E-01 8.39022E-03 8.48446E-01 2.72222E-13 3.84121E-13
 -1       337 2.06769E+01 7.40551E-01 1.26186E-02-8.84428E-01-2.86389E-13-3.28459E-14
 -1       338 2.03318E+01 4.19135E-01 8.33870E-03-2.40752E-01-2.42970E-13-7.64536E-14
 -1       339 2.01818E+01 2.99274E-01 5.80693E-03 1.58049E-01-1.74448E-13-1.00533E-13
 -1       340 2.01766E+01 2.66872E-01 4.45308E-03 4.85110E-01-1.25117E-13-1.11198E-13
 -1       341 2.02966E+01 2.99849E-01 4.36911E-03 7.97081E-01-5.86921E-14-1.70533E-13
 -1       342 2.05179E+01 3.89946E-01 5.23452E-03 1.15399E+00 4.15878E-15-1.49347E-13
 -1       343 2.08216E+01 5.35403E-01 6.47385E-03 1.60773E+00 7.16458E-14-1.08371E-13
 -1       344 2.11889E+01 7.21421E-01 7.47745E-03 2.20061E+00 6.34260E-14-1.02657E-13
 -1       345 2.15872E+01 8.81363E-01 7.27954E-03 2.90656E+00-3.98689E-14-1.68541E-13
 -1       346 2.20913E+01 8.56841E-01 8.81011E-03 3.73779E+00 3.13633E-14-1.42270E-13
 -1       347 2.28472E+01 2.47715E-01 1.81620E-02 4.44208E+00 1.49315E-13-7.75161E-14
 -1       348 2.44403E+01-1.59002E+00 4.13582E-02 4.48439E+00 1.95167E-13-2.36373E-14
 -1       349 2.75084E+01-4.37185E+00 6.55476E-02 3.22800E+00 1.01849E-13 1.38190E-13
 -1       350 3.90031E+01-1.33815E+00 7.83569E-02 3.07092E+00-2.65551E-13-3.80501E-13
 -1       351 3.20409E+01-5.27026E+00-4.31715E-02-1.52895E-01 1.72778E-13-1.37911E-13
 -1       352 2.75748E+01-3.41708E+00 4.58761E-02-3.15386E+00 2.53023E-13 1.04692E-13
 -1       353 2.48496E+01-8.20158E-01 3.34433E-02-4.26326E+00 1.09621E-13-4.50360E-14
 -1       354 2.34704E+01 4.76331E-01 9.86075E-03-4.02270E+00 2.13969E-13 5.07247E-15
 -1       355 2.26752E+01 8.28248E-01 6.61230E-03-3.25733E+00 8.48802E-14-4.01081E-14
 -1       356 2.20928E+01 7.66057E-01 7.05600E-03-2.43588E+00 1.83645E-13 8.00945E-14
 -1       357 2.16161E+01 5.90832E-01 7.18367E-03-1.74350E+00 9.15878E-14-2.11029E-15
 -1       358 2.12391E+01 4.29476E-01 6.04875E-03-1.23891E+00-5.48129E-15-1.01380E-13
 -1       359 2.09191E+01 2.94717E-01 4.64172E-03-8.53339E-01-4.56594E-14-2.75284E-13
 -1       360 2.06713E+01 1.98587E-01 3.28659E-03-5.84036E-01 1.42748E-13-3.66259E-13
 -1       361 2.04837E+01 1.32822E-01 2.23682E-03-3.98730E-01-8.59281E-14-3.53131E-13
 -1       362 2.03444E+01 8.87284E-02 1.51694E-03-2.72138E-01-1.17044E-13-8.82762E-14
 -1       363 2.02462E+01 6.07697E-02 1.00637E-03-1.89222E-01 1.03809E-13-2.22979E-13
 -1       364 2.01705E+01 4.09359E-02 6.86274E-04-1.28928E-01-2.46170E-13-2.13246E-13
 -1       365 2.01161E+01 2.77542E-02 4.59479E-04-8.75502E-02-3.08076E-13-3.60834E-13
 -1       366 2.00773E+01 1.89134E-02 3.09445E-04-5.90287E-02 1.46421E-13-3.86117E-13
 -1       367 2.00499E+01 1.29341E-02 2.09739E-04-3.93066E-02 3.30017E-13-3.52063E-13
 -1       368 2.00309E+01 8.84555E-03 1.43717E-04-2.56477E-02-1.60027E-13-3.47187E-13
 -1       369 2.00184E+01 6.15918E-03 9.64788E-05-1.65908E-02 3.96034E-14-1.46338E-13
 -1       370 2.00095E+01 4.17373E-03 6.69466E-05-9.95875E-03 9.79785E-14 1.25914E-13
 -1       371 2.00037E+01 2.79285E-03 4.46404E-05-5.42907E-03 2.29668E-13 7.25842E-14
 -1       372 2.00002E+01 1.83050E-03 2.94430E-05-2.37922E-03 2.17124E-14 1.27962E-13
 -1       373 1.99983E+01 1.15973E-03 1.89556E-05-3.72104E-04-2.15845E-13 1.87441E-13
 -1       374 1.99974E+01 6.89951E-04 1.15473E-05 8.99887E-04 3.09808E-14 2.01279E-13
 -1       375 1.99972E+01 3.70875E-04 5.97238E-06 1.62108E-03 2.73981E-14 2.13539E-14
 -1       376 1.99974E+01 1.17038E-04 2.14779E-06 2.00478E-03 2.55550E-13-1.08434E-13
 -1       377 1.99979E+01-9.73668E-05-1.41449E-06 2.08825E-03 2.92691E-14-7.20100E-14
 -1       378 1.99984E+01-3.13863E-04-5.41641E-06 1.91970E-03 2.80892E-14-1.27399E-13
 -1       379 1.99991E+01-5.56140E-04-5.70992E-06 1.51146E-03-2.06335E-13-3.77502E-13
 -1       380 2.00508E+01 2.33374E-01 1.08982E-02 3.32636E-01 2.04776E-13 2.79287E-13
 -1       381 1.27418E+01-5.24441E+00 3.32377E-02 8.46739E+00 9.24122E-14 4.17964E-14
 -1       382 1.98071E+01 1.12250E-01 6.07781E-03 6.26179E-02 1.53735E-13 1.99319E-13
 -1       383 1.97063E+01 4.12159E-02 2.17356E-03-6.98643E-02 1.24421E-13 1.25351E-13
 -1       384 1.96846E+01-4.52027E-03 4.10239E-04-1.12894E-01 7.30156E-14 6.89650E-14
 -1       385 1.96952E+01-4.18859E-02-5.80343E-04-9.06476E-02 2.07304E-14 3.23761E-14
 -1       386 1.96995E+01-7.50602E-02-1.22484E-03-1.42205E-02 3.93739E-14 7.85812E-14
 -1       387 1.96659E+01-1.03314E-01-1.64142E-03 1.08552E-01 7.54481E-14 9.62412E-14
 -1       388 1.95688E+01-1.21883E-01-1.80430E-03 2.66440E-01 2.99955E-14 1.24879E-13
 -1       389 1.93912E+01-1.22940E-01-1.64732E-03 4.39643E-01 6.75788E-14-7.51677E-16
 -1       390 1.91289E+01-9.79796E-02-1.12667E-03 5.96910E-01 4.19970E-14 4.17057E-14
 -1       391 1.87970E+01-4.22350E-02-2.76077E-04 6.97388E-01 9.81182E-14 1.14977E-13
 -1       392 1.84336E+01 3.99325E-02 7.82640E-04 6.99543E-01-4.73356E-14 5.90314E-14
 -1       393 1.80979E+01 1.31840E-01 1.87463E-03 5.76570E-01 8.33161E-14-2.51882E-15
 -1       394 1.78582E+01 2.07456E-01 2.77329E-03 3.32522E-01 1.83682E-13-4.35717E-14
 -1       395 1.77717E+01 2.41639E-01 3.27785E-03 9.00895E-03 1.59453E-13-1.15881E-13
 -1       396 1.78636E+01 2.22326E-01 3.25077E-03-3.24870E-01 5.99661E-14-1.24601E-13
 -1       397 1.81178E+01 1.57140E-01 2.67133E-03-5.96790E-01-5.22390E-14-1.85211E-13
 -1       398 1.84831E+01 6.92086E-02 1.65705E-03-7.57403E-01-1.52968E-14-1.17325E-13
 -1       399 1.88929E+01-1.47365E-02 4.81164E-04-7.94107E-01-5.12415E-14-9.66274E-14
 -1       400 1.92864E+01-7.56213E-02-5.87124E-04-7.27373E-01 1.34275E-13-1.55831E-13
 -1       401 1.96214E+01-1.06675E-01-1.34326E-03-5.95722E-01 1.07814E-14-1.94051E-13
 -1       402 1.98781E+01-1.11410E-01-1.71013E-03-4.39330E-01-2.62046E-13-1.80287E-13
 -1       403 2.00549E+01-9.84922E-02-1.73144E-03-2.89264E-01 1.86434E-14-1.06338E-13
 -1       404 2.01617E+01-7.70738E-02-1.51661E-03-1.63821E-01 6.88024E-15-1.91264E-13
 -1       405 2.02136E+01-5.41725E-02-1.18571E-03-6.99126E-02 6.90358E-14-1.29531E-13
 -1       406 2.02265E+01-3.39730E-02-8.34737E-04-6.63359E-03-1.06420E-13-2.29576E-13
 -1       407 2.02145E+01-1.82572E-02-5.23501E-04 3.10716E-02-1.04687E-13-7.78617E-14
 -1       408 2.01886E+01-7.21659E-03-2.79277E-04 4.96415E-02 3.83557E-14 6.22445E-14
 -1       409 2.01569E+01-2.06645E-04-1.06267E-04 5.52160E-02 4.88989E-15-1.00244E-13
 -1       410 2.01246E+01 3.71793E-03 4.29385E-06 5.28417E-02 8.33025E-14-1.47136E-13
 -1       411 2.00949E+01 5.49200E-03 6.63492E-05 4.62594E-02-2.08972E-13 3.62456E-15
 -1       412 2.00693E+01 5.89583E-03 9.41888E-05 3.80085E-02 4.40930E-14 5.08640E-14
 -1       413 2.00484E+01 5.51466E-03 1.00023E-04 2.96630E-02 3.12170E-13 1.54167E-13
 -1       414 2.00320E+01 4.75212E-03 9.31670E-05 2.20910E-02-7.12057E-14 5.74137E-13
 -1       415 2.00197E+01 3.86532E-03 8.01302E-05 1.56829E-02-2.65071E-13 1.71600E-13
 -1       416 2.00108E+01 3.00372E-03 6.50973E-05 1.05315E-02-8.25659E-14 1.13634E-14
 -1       417 2.00047E+01 2.24316E-03 5.05124E-05 6.56083E-03-5.16339E-14 9.09139E-14
 -1       418 2.00007E+01 1.61243E-03 3.76104E-05 3.61379E-03 3.03768E-13 3.11152E-13
 -1       419 1.99984E+01 1.11224E-03 2.68370E-05 1.50745E-03-3.86854E-14 3.36553E-13
 -1       420 1.99972E+01 7.27907E-04 1.81576E-05 6.55847E-05 1.32547E-13 5.18359E-13
 -1       421 1.99969E+01 4.37266E-04 1.12391E-05-8.63818E-04 3.82946E-13 3.18330E-13
 -1       422 1.99971E+01 2.14116E-04 5.77958E-06-1.40049E-03 1.27707E-13 2.79515E-13
 -1       423 1.99976E+01 3.06723E-05 1.76395E-06-1.62586E-03-1.21322E-13 2.31008E-13
 -1       424 1.99982E+01-1.39593E-04-1.04862E-06-1.58604E-03 3.40098E-13 3.15013E-13
 -1       425 1.99989E+01-3.26389E-04-2.61422E-06-1.29970E-03 6.05370E-14 4.37948E-13
 -1       426 1.99993E+01-4.83885E-04-3.73787E-06-1.02553E-03 1.91359E-15 5.05714E-13
 -1       427 1.99999E+01-1.77786E-03 2.53278E-07-1.64719E-03-1.06664E-13-1.08004E-13
 -1       428 1.99997E+01-1.27180E-03-2.68785E-06-1.65685E-03-7.15819E-14 1.46458E-13
 -1       429 1.99995E+01-8.95496E-04-5.27873E-06-1.43227E-03-2.19644E-14 7.29043E-13
 -1       430 2.00001E+01-2.22281E-03 2.08877E-06-1.45233E-03-3.01479E-13-4.15472E-13
 -1       431 2.00002E+01-2.59447E-03 3.58741E-06-1.13837E-03-2.79391E-13 2.49795E-13
 -1       432 2.00002E+01-2.86891E-03 4.37459E-06-7.53431E-04-7.19367E-14 2.32740E-13
 -1       433 2.00002E+01-3.03421E-03 4.83710E-06-3.24448E-04-2.28657E-13 2.59447E-14
 -1       434 2.00003E+01-3.08055E-03 5.00489E-06 1.33615E-04-4.94521E-13-5.44329E-14
 -1       435 2.00003E+01-2.99860E-03 4.79573E-06 6.06192E-04-4.71441E-13-2.80978E-13
 -1       436 2.00002E+01-2.78666E-03 4.06638E-06 1.05962E-03-2.24427E-13-2.53196E-13
 -1       437 2.00001E+01-2.43790E-03 2.84208E-06 1.46304E-03-1.54869E-16 1.70316E-13
 -1       438 2.00000E+01-1.97097E-03 8.19592E-07 1.73837E-03-1.04729E-13-2.95662E-13
 -1       439 1.99997E+01-1.41067E-03-2.32141E-06 1.79901E-03-2.56954E-13-7.70999E-14
 -1       440 2.04930E+01-5.09473E+00-1.15128E-02 7.78553E+00 2.31301E-13-8.25520E-14
 -1       441 4.17475E-01-5.12072E+00-9.36767E-02 1.98549E+00 6.83377E-14 8.68500E-13
 -1       442 1.98066E+01 3.51261E+00-1.83401E-02-1.57261E+00-2.45364E-13-3.71576E-13
 -1       443 2.96577E+01-2.18649E+00 2.44310E-02 4.46439E+00 3.63168E-13-3.45710E-13
 -1       444 3.37561E+01 1.58170E+00-1.55045E-02 2.06643E+00 3.87537E-13-1.91694E-13
 -1       445 3.70129E+01 6.20824E+00 1.51772E-02 5.99951E-01 4.66557E-13-5.74124E-14
 -1       446 3.73822E+01 9.06729E+00-1.15901E-02 2.65587E-02 5.39818E-13-2.13064E-13
 -1       447 3.74479E+01 8.18946E+00 7.83434E-03 8.29931E-02 5.45772E-13-6.97428E-14
 -1       448 3.54452E+01 4.47035E+00-1.00255E-02-3.84313E-01 4.42410E-13-2.85882E-15
 -1       449 3.11608E+01-1.37946E+00-4.70640E-02-3.30895E+00 3.09256E-13-1.06457E-13
 -1       450 2.57691E+01-4.42007E+00 2.54798E-02-6.02607E+00 1.04833E-13-1.45522E-13
 -1       451 1.58214E+01-5.54419E+00 5.91482E-03-8.36615E+00 1.72085E-15-4.58046E-13
 -1       452 8.22191E+00-4.89754E+00 4.49533E-02-7.54043E+00-6.17284E-14-8.50611E-13
 -1       453 1.28497E+00-4.48547E+00-3.24557E-02-3.20486E+00 3.57700E-14-9.88737E-13
 -1       454 1.02208E+00-4.67817E+00-4.63910E-02 7.62607E-01 1.32127E-13-7.65360E-13
 -1       455 6.49724E+00-5.96273E+00-9.57701E-02 5.06152E+00 4.72677E-14-3.90812E-13
 -1       456 1.49794E+01-6.90836E+00-1.72197E-01 6.18101E+00-5.80369E-14-9.50091E-14
 -1       457 2.67063E+01-6.72966E+00-1.02011E-01 4.07474E+00-2.12635E-13 6.01463E-14
 -1       458 3.57076E+01-3.78989E+00 4.04054E-03 1.97923E-01-5.18426E-13 1.13992E-13
 -1       459 3.98565E+01 5.68900E-01 1.13148E-01-3.62933E+00-5.51115E-13 1.34143E-13
 -1       460 4.01866E+01 5.07838E+00 1.27136E-01-2.66520E+00-4.25299E-13-1.69170E-13
 -1       461 4.15695E+01 6.24186E+00 3.09989E-01 1.51334E+00-4.79450E-13-2.75426E-13
 -1       462 4.13000E+01 2.61613E+00 1.94453E-01 3.62846E+00-5.10661E-13-2.79443E-13
 -1       463 3.11493E+01-5.97913E+00-4.58409E-02-2.22181E+00 2.57128E-13 2.88936E-13
 -1       464 1.99959E+01-6.93528E+00-9.72635E-02-5.86407E+00 2.91017E-13 1.34769E-13
 -1       465 9.43492E+00-5.94402E+00-5.89279E-02-5.80069E+00 3.12445E-13 4.12947E-13
 -1       466 2.61761E+00-4.24977E+00 1.40976E-03-2.59919E+00 2.23835E-13 6.85618E-13
 -1       467 3.90409E+00-4.90822E+00-4.30462E-02 6.00084E+00 9.56735E-14 3.32151E-13
 -1       468 3.21928E+01-5.07573E+00-5.54585E-02-1.11096E-02-2.55074E-13 2.00208E-13
 -1       469 5.51496E+00-2.47296E+00 1.41746E-01 3.74053E+00 3.34933E-13-6.05183E-13
 -1       470 6.51755E+00-2.43940E+00 1.60175E-01-6.13937E+00-1.17975E-13-8.81337E-13
 -1       471 3.34859E+01 7.85327E+00-1.24897E-01-9.36744E-01 4.87360E-13-2.26749E-13
 -1       472 1.95527E+01 3.29628E+00-5.01857E-03-5.87787E-01-6.67593E-14-3.95227E-13
 -1       473 1.96970E+01 3.11614E+00-5.67467E-03-8.39649E-01-1.21982E-13-3.84536E-13
 -1       474 1.94897E+01 3.37462E+00-4.69572E-03-5.97116E-02 5.65521E-14-3.64365E-13
 -1       475 1.95480E+01 3.30431E+00-4.82688E-03 2.25713E-01 1.10285E-13-3.64969E-13
 -1       476 1.96527E+01 3.17064E+00-5.21352E-03 5.21307E-01 1.73222E-13-3.37060E-13
 -1       477 1.98061E+01 2.96054E+00-5.84877E-03 8.30320E-01 2.21104E-13-2.96559E-13
 -1       478 2.00131E+01 2.65060E+00-6.67401E-03 1.12899E+00 2.57184E-13-2.19283E-13
 -1       479 2.02824E+01 2.19493E+00-6.73290E-03 1.37046E+00 3.05720E-13-8.91631E-14
 -1       480 2.05803E+01 1.52970E+00-3.60454E-03 1.43220E+00 3.24876E-13 4.44375E-14
 -1       481 2.06505E+01 9.80865E-01 4.07123E-03 1.20470E+00 3.12724E-13 1.80351E-13
 -1       482 2.04896E+01 1.11555E+00 2.93952E-03-7.19859E-01-2.67905E-13-1.72074E-13
 -1       483 2.61797E+01-4.94529E+00-2.77283E-03 4.89342E+00-1.09746E-13-4.94625E-13
 -1       484 9.48460E+00-2.06413E+00 1.92250E-01-5.12294E+00 2.92100E-13 3.09752E-13
 -1       485 1.10008E+01-2.81699E+00 1.59591E-01 7.60373E+00-3.01273E-13-1.00336E-14
 -1       486 2.03538E+01 7.55061E-01 2.57789E-03-1.70266E-01-2.18549E-13-1.53045E-13
 -1       487 2.02295E+01 5.92342E-01 1.95426E-03 2.75778E-01-1.54040E-13-1.72449E-13
 -1       488 2.01383E+01 5.72328E-01 1.72266E-03 6.52691E-01-1.17172E-13-1.42837E-13
 -1       489 2.00579E+01 6.62007E-01 1.96622E-03 1.01976E+00-4.53806E-14-1.20473E-13
 -1       490 1.99439E+01 8.51226E-01 2.48236E-03 1.42623E+00 3.91899E-14-1.54344E-13
 -1       491 1.97333E+01 1.12724E+00 3.33488E-03 1.91280E+00 1.26430E-14-2.72926E-13
 -1       492 1.93753E+01 1.42812E+00 4.04069E-03 2.48048E+00 3.33786E-14-2.70853E-13
 -1       493 1.87724E+01 1.64757E+00 8.45075E-03 3.21129E+00 3.65609E-14-2.33659E-13
 -1       494 1.79495E+01 1.42755E+00 2.45746E-02 4.11623E+00 1.60695E-13-1.62572E-13
 -1       495 1.72449E+01 1.31872E-01 8.91589E-02 5.23472E+00 2.66492E-13-1.50862E-13
 -1       496 1.74631E+01-2.86350E+00 1.32265E-01 6.06286E+00 2.66426E-13-5.39152E-14
 -1       497 3.17272E+01 5.92539E+00-1.57904E-01 1.58557E+00 3.85275E-13 1.81528E-13
 -1       498 4.35683E+00-5.22427E-01 2.02128E-01-7.48019E-02 3.11149E-14 6.62401E-13
 -1       499 2.03137E+01 4.98965E-01 6.52264E-03 5.58856E-01 2.56151E-13 1.58330E-13
 -1       500 1.92444E+01-2.18041E+00 1.17497E-01-5.56984E+00 8.53068E-14 4.58671E-13
 -1       501 1.87769E+01 5.25930E-01 4.92841E-02-4.73203E+00 1.24674E-13 5.04522E-13
 -1       502 1.91916E+01 1.44695E+00 1.61182E-02-3.77364E+00 6.03898E-14 3.13427E-13
 -1       503 1.97163E+01 1.49099E+00 6.47933E-03-2.88479E+00 9.57544E-14 1.57323E-13
 -1       504 2.00689E+01 1.23078E+00 4.35088E-03-2.15027E+00 1.24592E-13 6.79808E-14
 -1       505 2.02442E+01 9.36937E-01 3.58651E-03-1.59334E+00-1.61161E-13-2.10513E-14
 -1       506 2.03098E+01 6.68542E-01 2.73902E-03-1.14434E+00-1.01939E-13-8.31791E-14
 -1       507 2.03066E+01 4.64331E-01 1.98620E-03-8.13634E-01 5.02440E-14 5.94604E-14
 -1       508 2.02703E+01 3.18258E-01 1.35450E-03-5.74693E-01 8.50806E-14-9.31537E-14
 -1       509 2.02231E+01 2.17036E-01 9.21526E-04-4.04399E-01 1.29883E-14-7.40292E-14
 -1       510 2.01782E+01 1.50900E-01 6.07012E-04-2.88698E-01-2.55995E-13-1.50744E-13
 -1       511 2.01361E+01 1.03147E-01 4.10972E-04-2.01870E-01-1.45528E-13-3.45948E-13
 -1       512 2.01011E+01 7.08187E-02 2.74601E-04-1.40617E-01-2.40285E-13-5.17766E-13
 -1       513 2.00733E+01 4.88297E-02 1.83703E-04-9.73378E-02 3.60146E-14-1.08450E-13
 -1       514 2.00517E+01 3.37803E-02 1.23569E-04-6.67281E-02 2.83180E-13 2.74860E-14
 -1       515 2.00356E+01 2.34004E-02 8.53358E-05-4.50859E-02-1.66975E-13-2.17076E-13
 -1       516 2.00241E+01 1.64962E-02 5.60331E-05-3.04318E-02-2.88177E-14-3.11541E-13
 -1       517 2.00154E+01 1.13608E-02 3.93221E-05-1.94767E-02 3.23226E-13-4.71169E-14
 -1       518 2.00092E+01 7.75514E-03 2.61773E-05-1.18231E-02 2.52665E-13-1.10804E-13
 -1       519 2.00050E+01 5.21608E-03 1.72530E-05-6.53300E-03 1.78909E-13 5.49251E-14
 -1       520 2.00023E+01 3.42743E-03 1.11732E-05-2.93556E-03-8.12902E-14-3.25531E-14
 -1       521 2.00006E+01 2.16600E-03 7.05924E-06-5.51181E-04 9.80950E-14 2.95311E-13
 -1       522 1.99997E+01 1.30854E-03 3.71105E-06 9.05373E-04-1.99044E-13 9.55635E-14
 -1       523 1.99992E+01 6.45811E-04 1.74428E-06 1.81790E-03 3.39585E-13 7.63076E-14
 -1       524 1.99990E+01 1.30728E-04-1.11965E-07 2.25343E-03 5.83596E-14 1.18981E-13
 -1       525 1.99991E+01-3.21222E-04-1.36199E-06 2.31482E-03-1.99305E-13 4.67792E-14
 -1       526 1.99995E+01-8.02633E-04-2.18928E-06 2.16817E-03-3.28855E-13-1.61281E-13
 -1       527 2.01111E+01 2.16821E-01 1.27610E-03 8.10607E-02 2.04456E-13 3.29833E-14
 -1       528 2.01770E+01 3.38419E-01 3.65400E-03 2.74930E-01 2.02445E-13 9.37941E-14
 -1       529 2.00061E+01-3.74638E-02-2.01307E-04-1.08720E-01 5.63813E-14-1.27584E-14
 -1       530 2.00114E+01-1.30296E-01-6.73170E-04-6.33356E-02-9.17829E-15-3.31622E-14
 -1       531 2.00238E+01-2.10901E-01-1.00457E-03 5.62262E-02 1.61983E-14 2.22530E-14
 -1       532 2.00206E+01-2.73261E-01-1.19799E-03 2.38096E-01 4.58419E-14 2.14335E-14
 -1       533 1.99791E+01-3.02277E-01-1.19966E-03 4.62882E-01 1.14724E-13 1.13048E-14
 -1       534 1.98799E+01-2.77302E-01-9.50652E-04 6.97016E-01 6.71072E-14 1.29008E-15
 -1       535 1.97116E+01-1.80242E-01-4.31761E-04 8.89897E-01-2.76409E-14-1.27582E-14
 -1       536 1.94808E+01-8.33690E-03 2.60615E-04 9.79289E-01-2.59666E-14 4.06133E-14
 -1       537 1.92193E+01 2.13310E-01 9.70100E-04 9.08545E-01 5.08732E-14 2.73992E-14
 -1       538 1.89843E+01 4.29274E-01 1.63658E-03 6.53039E-01 1.30392E-13 1.07879E-13
 -1       539 1.88417E+01 5.70831E-01 2.09891E-03 2.43177E-01 2.61741E-13 7.21972E-14
 -1       540 1.88388E+01 5.87494E-01 2.25136E-03-2.35768E-01 1.24411E-13 9.76350E-14
 -1       541 1.89805E+01 4.73906E-01 2.00577E-03-6.71740E-01-2.95002E-14 3.02587E-14
 -1       542 1.92272E+01 2.73480E-01 1.36498E-03-9.70891E-01-4.11258E-14 1.29126E-14
 -1       543 1.95149E+01 5.37962E-02 5.81414E-04-1.09129E+00 5.92157E-14-6.54729E-14
 -1       544 1.97838E+01-1.26144E-01-1.98226E-04-1.04727E+00-1.72662E-14-2.14801E-13
 -1       545 1.99965E+01-2.35925E-01-8.02873E-04-8.89579E-01 6.80638E-14-1.21205E-13
 -1       546 2.01407E+01-2.74731E-01-1.13434E-03-6.78375E-01-7.27633E-14-1.58812E-13
 -1       547 2.02224E+01-2.60114E-01-1.20321E-03-4.63504E-01-1.37269E-13-2.28897E-13
 -1       548 2.02558E+01-2.15064E-01-1.08403E-03-2.76535E-01 4.15542E-14-9.15236E-14
 -1       549 2.02563E+01-1.59377E-01-8.66383E-04-1.31569E-01 5.92354E-16-8.00353E-14
 -1       550 2.02372E+01-1.06246E-01-6.23792E-04-3.01394E-02 7.39926E-14-8.49607E-14
 -1       551 2.02079E+01-6.24292E-02-4.02404E-04 3.33638E-02-2.50429E-13-1.34259E-13
 -1       552 2.01750E+01-2.99710E-02-2.25026E-04 6.74274E-02-1.27491E-13-8.30907E-14
 -1       553 2.01426E+01-8.13686E-03-9.69356E-05 8.07097E-02 4.28663E-14 3.49707E-14
 -1       554 2.01129E+01 5.07169E-03-1.32119E-05 8.06535E-02 7.91874E-14 5.19529E-14
 -1       555 2.00869E+01 1.19459E-02 3.53737E-05 7.29938E-02-2.10552E-13 2.31108E-13
 -1       556 2.00652E+01 1.45558E-02 5.87331E-05 6.17831E-02-6.06829E-14 1.61474E-13
 -1       557 2.00475E+01 1.45458E-02 6.55561E-05 4.96565E-02 6.22951E-15 1.60625E-13
 -1       558 2.00335E+01 1.31089E-02 6.25952E-05 3.81690E-02-2.29627E-14 4.31032E-13
 -1       559 2.00227E+01 1.10460E-02 5.46436E-05 2.81149E-02 9.93984E-14 2.36058E-13
 -1       560 2.00147E+01 8.85362E-03 4.48351E-05 1.97899E-02 5.55747E-14 1.05032E-14
 -1       561 2.00088E+01 6.80971E-03 3.50413E-05 1.31895E-02-6.69551E-14-1.87851E-14
 -1       562 2.00047E+01 5.04596E-03 2.62467E-05 8.14763E-03 7.68267E-14-2.74628E-14
 -1       563 2.00020E+01 3.60193E-03 1.88498E-05 4.42872E-03-7.59390E-14 3.79695E-13
 -1       564 2.00003E+01 2.46321E-03 1.28836E-05 1.78475E-03 9.85508E-14 1.45995E-13
 -1       565 1.99993E+01 1.58649E-03 8.16343E-06-1.18663E-05 4.55374E-13 1.76121E-14
 -1       566 1.99988E+01 9.15674E-04 4.65573E-06-1.15091E-03 1.68702E-13 3.38539E-13
 -1       567 1.99988E+01 3.89046E-04 1.85154E-06-1.78347E-03 5.29568E-14 5.52320E-13
 -1       568 1.99989E+01-7.33219E-05-2.13154E-06-2.01973E-03-4.67437E-14 5.40775E-13
 -1       569 1.99991E+01-4.92566E-04-2.23780E-06-1.90103E-03 1.72161E-13 8.21430E-13
 -1       570 2.00004E+01-1.09094E-03 1.47595E-06-1.51050E-03-9.45450E-15-1.01376E-14
 -1       571 2.00006E+01-1.16781E-03 1.86439E-06-1.10245E-03-1.73785E-13 5.30045E-13
 -1       572 1.99998E+01-8.09016E-04-1.95984E-06-2.00668E-03 1.78184E-13-3.85727E-13
 -1       573 2.00002E+01-9.73243E-04 2.01747E-07-1.82191E-03-2.65516E-14-3.58126E-13
 -1       574 2.00006E+01-1.23039E-03 2.06328E-06-6.41521E-04-2.74564E-13 1.59249E-13
 -1       575 2.00007E+01-1.28690E-03 2.20455E-06-1.41866E-04-4.20476E-13-1.96421E-13
 -1       576 2.00007E+01-1.33405E-03 2.19508E-06 3.88791E-04-2.92881E-13 1.52961E-13
 -1       577 2.00007E+01-1.35561E-03 1.90924E-06 9.26108E-04 2.11695E-14-2.47743E-14
 -1       578 2.00006E+01-1.32711E-03 1.63837E-06 1.45192E-03 7.55598E-14-2.96446E-13
 -1       579 2.00004E+01-1.22419E-03 1.05789E-06 1.89203E-03-4.07824E-13-4.00558E-13
 -1       580 2.00000E+01-1.05555E-03-2.76612E-07 2.13446E-03-5.29007E-13-1.48450E-13
 -1       581 1.91809E+01-4.81636E+00 8.58322E-02 7.63765E+00-2.26694E-13-2.51224E-13
 -1       582 2.04935E+01 1.85880E+00-5.03195E-03-1.34495E+00-2.95326E-13-2.27296E-13
 -1       583 2.00315E+01 7.22023E-02 5.23932E-04-6.79297E-02 1.35602E-13 1.99702E-14
 -1       584 1.94876E+01 3.37578E+00-4.74878E-03-3.29585E-01 1.07964E-14-3.56036E-13
 -1       585 3.05310E+01-1.58820E+00-7.40801E-02 8.81777E-01 1.61836E-13-4.30114E-13
 -1       586 3.10472E+01 2.18418E-01-1.16208E-01 6.34181E-01 2.35229E-13 2.41265E-13
 -1       587 3.17794E+01 8.09117E+00-1.98677E-01 7.27951E-01 3.48513E-13 7.19910E-14
 -1       588 1.45332E+01-4.22551E+00 1.33206E-01 6.24612E+00 2.34396E-13-6.71962E-14
 -1       589 2.87728E+01-3.89519E+00-2.83465E-02-2.93586E+00-4.27505E-14 6.99441E-14
 -1       590 2.22631E+01-5.49844E+00 3.59594E-02-6.79663E+00-2.10894E-13-1.40398E-13
 -1       591 1.46753E+01-4.05802E+00 1.38519E-01-8.05199E+00-3.48305E-13-3.87641E-13
 -1       592 4.39123E+00-5.15227E-01 2.36263E-01-9.63636E-01 1.76873E-13-7.11611E-13
 -1       593 3.18226E+01 3.03351E+00-1.49399E-01-1.27752E+00 2.77979E-13-2.74829E-13
 -1       594 1.79970E+01-4.05308E+00 1.09319E-01-6.16913E+00 3.22874E-13 3.29556E-13
 -1       595 5.23369E+00-9.98398E-01 2.04615E-01 4.11371E+00-3.16119E-13 4.50362E-13
 -1       596 1.99254E+01 2.80918E+00-6.61689E-03-1.07936E+00-2.02462E-13-3.54545E-13
 -1       597 1.18527E+01-1.67656E+00 1.76327E-01 5.41994E+00 3.67012E-13-2.42049E-13
 -1       598 1.91345E+01-5.49894E+00 1.94994E-02 5.93648E+00 1.45675E-13-1.89432E-15
 -1       599 2.01865E+01 2.41336E+00-6.20721E-03-1.24933E+00-2.55641E-13-3.12058E-13
 -1       600 2.98223E+01 7.94575E+00-1.82639E-01-3.16996E-01 3.39645E-13-2.31846E-14
 -1       601 1.16091E+01-1.53052E+00 1.35399E-01-6.38359E+00-2.56496E-13-5.25073E-13
 -1       602 1.98332E+01 2.55736E+00-1.51112E-03 2.38076E-01 1.31100E-13-3.06358E-13
 -1       603 1.97371E+01 2.68708E+00-1.45204E-03 6.74854E-03 7.89648E-14-3.26077E-13
 -1       604 2.01235E+01 2.07156E+00-1.71707E-03 6.96952E-01 2.19459E-13-2.33463E-13
 -1       605 2.02971E+01 1.68678E+00-1.08951E-03 8.60876E-01 2.52374E-13-1.23075E-13
 -1       606 2.04336E+01 1.19109E+00 3.16424E-05 8.94178E-01 2.69192E-13-9.62826E-15
 -1       607 2.04329E+01 8.26521E-01 5.79388E-03 7.54609E-01 2.60671E-13 6.75560E-14
 -1       608 2.02125E+01 1.03410E+00 4.15195E-04-4.46189E-02-1.69869E-13-1.66331E-13
 -1       609 2.00556E+01 8.89626E-01 5.21565E-04 3.45527E-01-1.25716E-13-1.52007E-13
 -1       610 1.98357E+01 9.04651E-01 4.73444E-04 6.80717E-01-4.05229E-14-1.06615E-13
 -1       611 1.95152E+01 1.05673E+00 5.18862E-04 9.88358E-01-3.97323E-14-7.22256E-14
 -1       612 1.90239E+01 1.33083E+00 8.16840E-04 1.29089E+00-4.31950E-14-1.72573E-13
 -1       613 1.83070E+01 1.67767E+00 9.06359E-04 1.58928E+00 1.22690E-15-2.53917E-13
 -1       614 1.71626E+01 2.05629E+00 4.12931E-03 1.92981E+00 9.69036E-15-3.02029E-13
 -1       615 1.54522E+01 2.25933E+00 1.92309E-02 2.34429E+00 1.18509E-13-3.08954E-13
 -1       616 1.30415E+01 1.85095E+00 8.00037E-02 2.95184E+00 2.37937E-13-3.15649E-13
 -1       617 2.03372E+01-2.74055E-01-3.24488E-04-4.51168E-02 9.14921E-15 4.80697E-15
 -1       618 1.97905E+01 2.57436E+00-1.60973E-03-5.47528E-01-6.45047E-14-3.29612E-13
 -1       619 2.03001E+01 1.36711E+00-3.46006E-04-4.95815E-01-2.07762E-13-2.21129E-13
 -1       620 9.75251E+00 1.05994E+00 1.51850E-01-2.81051E+00 2.83674E-13 5.19584E-13
 -1       621 2.00000E+01 2.32732E-05 6.34315E-07-2.03356E-03-1.17473E-13-2.65520E-13
 -1       622 1.50950E+01 1.95666E+00 5.02638E-02-3.34970E+00 1.17124E-13 5.36675E-13
 -1       623 1.69017E+01 2.11645E+00 1.06924E-02-2.55384E+00-9.88589E-14 5.24926E-13
 -1       624 1.81619E+01 1.84716E+00 3.14505E-03-1.98187E+00-9.93141E-14 2.67478E-13
 -1       625 1.89493E+01 1.46881E+00 1.79945E-03-1.55079E+00 1.56109E-15-1.36321E-13
 -1       626 1.94646E+01 1.08897E+00 1.19098E-03-1.17945E+00-2.40709E-13-1.07485E-13
 -1       627 1.97633E+01 7.80969E-01 9.49652E-04-8.84297E-01-7.78686E-15 1.01947E-14
 -1       628 1.99260E+01 5.49818E-01 6.76137E-04-6.54509E-01-1.24110E-13-2.25281E-13
 -1       629 2.00078E+01 3.83496E-01 4.72212E-04-4.79822E-01 2.01010E-14-3.86827E-13
 -1       630 2.00424E+01 2.71472E-01 3.27729E-04-3.54430E-01-2.23903E-13-3.32878E-13
 -1       631 2.00540E+01 1.88577E-01 2.15957E-04-2.55865E-01-2.85292E-13-2.98232E-13
 -1       632 2.00528E+01 1.31320E-01 1.46282E-04-1.83527E-01-3.13218E-13-4.62930E-13
 -1       633 2.00460E+01 9.17084E-02 9.80790E-05-1.30611E-01 4.01770E-15-9.18527E-14
 -1       634 2.00375E+01 6.42103E-02 6.55429E-05-9.20434E-02 2.07860E-13-1.54115E-13
 -1       635 2.00291E+01 4.50156E-02 4.60034E-05-6.40444E-02-1.81790E-13-4.06662E-13
 -1       636 2.00221E+01 3.21118E-02 2.94900E-05-4.46277E-02-9.94665E-14-2.67200E-13
 -1       637 2.00160E+01 2.24148E-02 2.09405E-05-2.97775E-02 3.31921E-13 5.78183E-14
 -1       638 2.00112E+01 1.55436E-02 1.40498E-05-1.91736E-02 2.90753E-13 2.03992E-13
 -1       639 2.00075E+01 1.06571E-02 9.29572E-06-1.16704E-02 2.20831E-13 2.00073E-13
 -1       640 2.00049E+01 7.18056E-03 6.08101E-06-6.43424E-03-9.08584E-14-1.32846E-13
 -1       641 2.00030E+01 4.70735E-03 4.02982E-06-2.85186E-03-5.43565E-14 8.07392E-14
 -1       642 2.00017E+01 3.02031E-03 2.03941E-06-5.65345E-04-2.45648E-13-3.93773E-13
 -1       643 2.00008E+01 1.72725E-03 1.14041E-06 9.79664E-04-9.43417E-14-2.17282E-13
 -1       644 2.00003E+01 7.65587E-04 2.61370E-07 1.86876E-03 3.07399E-13-4.38910E-13
 -1       645 2.00000E+01-4.48579E-06 4.56163E-07 2.25532E-03-2.68632E-13-3.51897E-14
 -1       646 2.00000E+01-4.91525E-04-1.44598E-06 2.26717E-03-4.97500E-13-7.08699E-14
 -1       647 2.04118E+01-4.09336E-01-4.26183E-04 1.08426E-01 2.20974E-14-4.82587E-14
 -1       648 2.02841E+01-1.15713E-01-1.77336E-04-1.12872E-01 4.90081E-14 1.04657E-14
 -1       649 2.04878E+01-5.04074E-01-4.70251E-04 3.36227E-01 7.30982E-14-8.38320E-14
 -1       650 2.05372E+01-5.25943E-01-4.19548E-04 6.14290E-01 7.49471E-14 1.91132E-14
 -1       651 2.05278E+01-4.35913E-01-2.49987E-04 8.96858E-01 1.99620E-14 2.44865E-14
 -1       652 2.04334E+01-2.06505E-01 3.31908E-05 1.11218E+00-6.47654E-14 8.38246E-14
 -1       653 2.02519E+01 1.51267E-01 1.92251E-04 1.17216E+00-6.26535E-15 7.81330E-14
 -1       654 2.00219E+01 5.66946E-01 1.32048E-04 1.00299E+00 5.20688E-14 6.26670E-14
 -1       655 1.98225E+01 9.15118E-01 2.85767E-04 5.90576E-01 1.69329E-13 3.79051E-14
 -1       656 1.97359E+01 1.07188E+00 7.46856E-04 1.11653E-02 1.37567E-13 1.50143E-13
 -1       657 1.98037E+01 9.74293E-01 9.94232E-04-5.87037E-01 1.01871E-13 2.29542E-13
 -1       658 1.99967E+01 6.64915E-01 7.23959E-04-1.04767E+00-1.52406E-14 7.12798E-14
 -1       659 2.02364E+01 2.62663E-01 5.37250E-04-1.27812E+00 9.58198E-14 5.48964E-14
 -1       660 2.04409E+01-1.04948E-01 2.38675E-04-1.27549E+00 6.17798E-14 5.77892E-14
 -1       661 2.05623E+01-3.56637E-01-1.01875E-04-1.10346E+00 1.33505E-13-1.42816E-13
 -1       662 2.05947E+01-4.72832E-01-3.38884E-04-8.47269E-01 9.19477E-14-2.22033E-13
 -1       663 2.05592E+01-4.77886E-01-4.35077E-04-5.78912E-01-1.66386E-13-1.52703E-13
 -1       664 2.04851E+01-4.13369E-01-4.21138E-04-3.43490E-01-1.27070E-13-3.30935E-13
 -1       665 2.03974E+01-3.18503E-01-3.49389E-04-1.60741E-01-1.07727E-13-1.37628E-13
 -1       666 2.03127E+01-2.21220E-01-2.60821E-04-3.28935E-02 6.42894E-14 6.96066E-14
 -1       667 2.02391E+01-1.37166E-01-1.74990E-04 4.72612E-02-6.99085E-14 2.90052E-13
 -1       668 2.01795E+01-7.24352E-02-1.03978E-04 9.04869E-02-1.74846E-13 1.25433E-13
 -1       669 2.01330E+01-2.71380E-02-5.14830E-05 1.07618E-01-8.31808E-14 8.62122E-14
 -1       670 2.00978E+01 1.62842E-03-1.60505E-05 1.07897E-01 8.81891E-14 1.45174E-13
 -1       671 2.00715E+01 1.77771E-02 5.54930E-06 9.84310E-02-3.92987E-14 1.43774E-13
 -1       672 2.00520E+01 2.50983E-02 1.69586E-05 8.42661E-02-8.55640E-14-8.03525E-14
 -1       673 2.00375E+01 2.67443E-02 2.14804E-05 6.87193E-02-2.22013E-15 1.55171E-14
 -1       674 2.00269E+01 2.50913E-02 2.17502E-05 5.37884E-02-2.98510E-15-1.04961E-13
 -1       675 2.00190E+01 2.17954E-02 1.96901E-05 4.05330E-02 1.53771E-13-3.04544E-13
 -1       676 2.00132E+01 1.79283E-02 1.65928E-05 2.93886E-02 1.17448E-13-1.04954E-13
 -1       677 2.00089E+01 1.41268E-02 1.32598E-05 2.04043E-02-5.81776E-14 1.64815E-14
 -1       678 2.00058E+01 1.07255E-02 1.01406E-05 1.34127E-02-1.03754E-13 1.47286E-13
 -1       679 2.00036E+01 7.86165E-03 7.44701E-06 8.14445E-03-1.75778E-13 3.16680E-13
 -1       680 2.00021E+01 5.55175E-03 5.23503E-06 4.30061E-03 1.97032E-13 4.38138E-14
 -1       681 2.00011E+01 3.74366E-03 3.44506E-06 1.59592E-03 4.90347E-13-8.32546E-14
 -1       682 2.00004E+01 2.35021E-03 2.19138E-06-2.16000E-04 1.03547E-13-2.82242E-13
 -1       683 2.00000E+01 1.27650E-03 1.73198E-06-1.33579E-03-2.05498E-13-2.69161E-14
 -1       684 2.00000E+01 6.66290E-04-3.22733E-07-1.80528E-03 1.49913E-13 1.23526E-13
 -1       685 2.00011E+01 5.23289E-04 6.59403E-07-4.26112E-04-3.02438E-13 8.73758E-15
 -1       686 2.62109E+01-4.41567E+00 1.41029E-01-3.70796E+00 2.82399E-13 3.86628E-13
 -1       687 2.00009E+01 3.46699E-04 9.99809E-08-1.27410E-03 3.46378E-13 2.61986E-14
 -1       688 2.00012E+01 4.56556E-04 7.10854E-07 4.72383E-05-1.94861E-13 6.99849E-14
 -1       689 2.00010E+01 4.81457E-04 5.43808E-07-8.64234E-04-1.70787E-13-1.64553E-14
 -1       690 2.00012E+01 2.96756E-04 5.25670E-07 5.55818E-04-2.82240E-13 2.08674E-13
 -1       691 2.00012E+01 7.68625E-05 1.39384E-07 1.10553E-03-2.35577E-13-3.59308E-13
 -1       692 2.00009E+01-1.49486E-04 1.76752E-08 1.64669E-03-3.26611E-13-3.51016E-13
 -1       693 2.37229E+01-4.55205E+00 3.98796E-02 4.85093E+00-3.45316E-13-5.40801E-13
 -1       694 8.46895E+00 7.02560E-01 1.76982E-01 2.67127E+00 2.86212E-13-4.82475E-13
 -1       695 1.00171E+01-2.56411E-01 1.44846E-01 5.32181E+00-3.24671E-13 1.82736E-13
 -1       696 2.83008E+01 6.20676E+00-1.55681E-01 1.49983E+00 3.53467E-13-3.01495E-14
 -1       697 1.34382E+01-4.90710E-01 1.44906E-01-5.04983E+00 1.75911E-13 3.56291E-13
 -1       698 2.73323E+01-3.83345E+00-3.36090E-02 1.80584E+00-2.34185E-13-5.83760E-13
 -1       699 2.93100E+01 5.35325E+00-1.73416E-01-1.83427E+00 3.39312E-13-1.93914E-13
 -1       700 1.98189E+01-4.27064E+00 5.99061E-02-6.66155E+00-2.76525E-13-2.28905E-13
 -1       701 8.06295E+00 6.62961E-01 1.74947E-01-3.03595E+00 6.65874E-15-5.82021E-13
 -1       702 2.85170E+01-2.57872E+00-5.88729E-02-1.51989E-01 5.54938E-15 2.01783E-13
 -1       703 2.56717E+01-4.80223E+00 8.93180E-03-3.82296E+00-1.41512E-13 2.78935E-14
 -1       704 1.99650E+01 2.35529E+00-1.63079E-03 4.75799E-01 1.74399E-13-2.84110E-13
 -1       705 2.02856E+01 1.81734E+00 6.63946E-04-8.69690E-01-2.37227E-13-2.56260E-13
 -1       706 1.64498E+01-2.57429E+00 8.06392E-02 6.79636E+00-4.56083E-13-3.09166E-13
 -1       707 2.83855E+01 2.48762E+00-1.04979E-01 2.21925E+00 2.10248E-13 1.07067E-13
 -1       708 2.92688E+01 1.67596E-01-8.69273E-02-1.29863E+00 2.52402E-14-3.79811E-13
 -1       709 7.88310E+00 1.23489E+00 1.76954E-01 1.68987E+00-1.45887E-13 3.82541E-13
 -1       710 1.96889E+01 2.74125E+00-1.54590E-03-2.04102E-01 2.44524E-14-3.22085E-13
 -1       711 2.02653E+01 6.48103E-02 2.45957E-05-8.66295E-02 1.10529E-13-1.98103E-15
 -1       712 1.99644E+01 2.31034E+00-5.26916E-04-6.76472E-01-1.28971E-13-3.04939E-13
 -1       713 1.97024E+01 2.70909E+00-1.67860E-03-3.88741E-01-2.32531E-14-3.14662E-13
 -1       714 2.03353E+01 5.83105E-01 2.09482E-03 3.15600E-01 2.23731E-13-3.32988E-14
 -1       715 2.00006E+01 1.62414E-04-1.77640E-06-1.64848E-03 4.08489E-13-1.98758E-13
 -1       716 2.77048E+01 2.61830E+00-9.56808E-02-2.17229E+00 1.35194E-13-3.50223E-13
 -1       717 2.00005E+01-3.83940E-04-1.28378E-06 2.03007E-03-1.68219E-13-5.56585E-13
 -1       718 9.68386E+00 1.81490E+00 1.22952E-01 2.72431E-01 1.36248E-13-4.20393E-13
 -1       719 2.70252E+01 6.60945E+00-1.31857E-01 5.11916E-01 3.40519E-13-9.13239E-14
 -1       720 1.63776E+01-2.31026E+00 8.11095E-02-6.36851E+00-2.42924E-13-3.15428E-13
 -1       721 2.02865E+01 2.84797E-01 4.98722E-04 4.47236E-02 1.68727E-13 7.75499E-15
 -1       722 2.03790E+01 9.36039E-01 6.58302E-04 5.09100E-01 2.44834E-13-7.28026E-14
 -1       723 2.03218E+01 1.30123E+00 1.85667E-04 4.68325E-01 2.01224E-13-1.29099E-13
 -1       724 2.00017E+01 1.23799E+00-1.29660E-03 1.03171E-02-1.15924E-13-1.17582E-13
 -1       725 2.08578E+01-6.62209E-01-1.87770E-04 9.96620E-02 8.57822E-14-6.20057E-14
 -1       726 1.97734E+01 1.13159E+00 1.09985E-04 2.95796E-01-7.94161E-14-9.78504E-14
 -1       727 1.94170E+01 1.17345E+00-4.29576E-05 5.01090E-01-2.84248E-14-1.22514E-13
 -1       728 1.88778E+01 1.35309E+00 3.74055E-05 6.31345E-01-9.08656E-14-1.75657E-13
 -1       729 1.81214E+01 1.62535E+00-2.19151E-04 6.75801E-01-8.72294E-14-2.35093E-13
 -1       730 1.69523E+01 1.96875E+00 1.33564E-03 6.14367E-01-5.03148E-14-2.57792E-13
 -1       731 1.52184E+01 2.26886E+00 1.11635E-02 4.10777E-01 5.59942E-14-2.66285E-13
 -1       732 2.01073E+01 1.53521E+00 2.57763E-04-3.16117E-01-1.32897E-13-1.86775E-13
 -1       733 2.06815E+01-4.70214E-01-1.60001E-04-7.91050E-02 4.23442E-14-4.29114E-14
 -1       734 1.59939E+01 2.26449E+00 4.34909E-03-8.77614E-01-1.76304E-13-5.68369E-14
 -1       735 1.74003E+01 1.90569E+00 7.77135E-04-8.58366E-01-3.00873E-13 2.01183E-14
 -1       736 1.83929E+01 1.47989E+00-1.06773E-04-7.77767E-01-1.47071E-13 4.24232E-14
 -1       737 1.90269E+01 1.10768E+00 2.19045E-05-6.70017E-01-5.05921E-14 1.81012E-14
 -1       738 1.94264E+01 8.09506E-01 7.89866E-05-5.52386E-01-2.09990E-13 3.13925E-15
 -1       739 1.96727E+01 5.83229E-01 7.19863E-05-4.41333E-01-1.94647E-13-9.50626E-14
 -1       740 1.98156E+01 4.23922E-01 8.40697E-05-3.48480E-01-7.09033E-16-1.31215E-13
 -1       741 1.99053E+01 3.01793E-01 4.17045E-05-2.66655E-01-3.12250E-13-1.62169E-13
 -1       742 1.99566E+01 2.14717E-01 3.33291E-05-2.00942E-01-2.96305E-13-2.07321E-13
 -1       743 1.99846E+01 1.52842E-01 2.30547E-05-1.49255E-01 1.51739E-13-2.82741E-14
 -1       744 1.99991E+01 1.08887E-01 1.50086E-05-1.09302E-01 5.83785E-14 1.36342E-13
 -1       745 2.00059E+01 7.75957E-02 1.16003E-05-7.88603E-02-1.71317E-13-6.46922E-14
 -1       746 2.00083E+01 5.61754E-02 7.62043E-06-5.68699E-02-1.35937E-13-3.46657E-14
 -1       747 2.00086E+01 3.98394E-02 5.51010E-06-3.94579E-02 2.91367E-13 1.18610E-15
 -1       748 2.00078E+01 2.80903E-02 3.90168E-06-2.66239E-02 2.55500E-13-1.53199E-13
 -1       749 2.00066E+01 1.96193E-02 2.61288E-06-1.72703E-02 2.93296E-13-2.21113E-13
 -1       750 2.00053E+01 1.35124E-02 1.69322E-06-1.05508E-02 7.29275E-16-1.00017E-13
 -1       751 2.00042E+01 9.11669E-03 1.31690E-06-5.81189E-03-9.69939E-14-2.64460E-13
 -1       752 2.00031E+01 6.08972E-03 5.56742E-07-2.67497E-03-3.22616E-13-2.18498E-13
 -1       753 2.00023E+01 3.76820E-03 5.75637E-07-4.45987E-04-1.90985E-13-1.00265E-13
 -1       754 2.00015E+01 2.06497E-03 7.28927E-07 9.58107E-04 2.10956E-14-1.11033E-13
 -1       755 2.00009E+01 7.69426E-04 1.18204E-06 1.74949E-03 1.12387E-13-5.42634E-13
 -1       756 2.00016E+01 1.37738E-03 8.85491E-07 1.03603E-03-3.26017E-13-5.91923E-13
 -1       757 1.13089E+01 1.43495E+00 7.89529E-02 2.97730E+00-3.21827E-13 9.17877E-14
 -1       758 2.05452E+01-2.42903E-01-1.13955E-04-1.61691E-01 2.65779E-14-5.12876E-14
 -1       759 2.12179E+01-7.73659E-01-1.51339E-04 7.05840E-01 2.31355E-14-1.76853E-14
 -1       760 2.13038E+01-5.68980E-01-6.07803E-05 1.04985E+00-6.65172E-14 4.43936E-14
 -1       761 2.12598E+01-1.32309E-01 1.75400E-04 1.29781E+00-2.14876E-14-3.66653E-14
 -1       762 2.10798E+01 4.90590E-01-3.82193E-04 1.32012E+00 4.57432E-14 8.56826E-15
 -1       763 2.08304E+01 1.14446E+00-1.22777E-03 1.01265E+00 1.08860E-13-5.97249E-15
 -1       764 2.06396E+01 1.59352E+00 1.86345E-04 4.00941E-01 1.21245E-13 5.79374E-14
 -1       765 2.06230E+01 1.64051E+00 1.32908E-03-3.58360E-01 1.10848E-13 1.66319E-14
 -1       766 2.07805E+01 1.27577E+00 2.10149E-04-1.02103E+00 7.87828E-14 2.90678E-14
 -1       767 2.10219E+01 6.60773E-01 3.30309E-04-1.40037E+00 1.55431E-14 2.79295E-14
 -1       768 2.12160E+01 2.94931E-02 3.87525E-04-1.45190E+00 8.32566E-14 5.73001E-14
 -1       769 2.12800E+01-4.41066E-01 1.49055E-04-1.25599E+00 9.17390E-14 1.15017E-13
 -1       770 2.12064E+01-6.88035E-01-8.67440E-05-9.40150E-01 9.51491E-14 2.08007E-13
 -1       771 2.10377E+01-7.39379E-01-1.94433E-04-6.11097E-01-3.04163E-14 2.83198E-13
 -1       772 2.08285E+01-6.61968E-01-1.89632E-04-3.30994E-01-2.21361E-15 1.76534E-13
 -1       773 2.06224E+01-5.23242E-01-1.45662E-04-1.22563E-01-1.07062E-13 3.90254E-14
 -1       774 2.04447E+01-3.72411E-01-1.06428E-04 1.59263E-02-2.31937E-13-1.00895E-13
 -1       775 2.03047E+01-2.37920E-01-6.79363E-05 9.71475E-02-8.86404E-14-2.36367E-14
 -1       776 2.02016E+01-1.31846E-01-3.78028E-05 1.36404E-01-1.63548E-13 4.82382E-14
 -1       777 2.01296E+01-5.58539E-02-1.80439E-05 1.47518E-01 9.36784E-14 6.52288E-14
 -1       778 2.00816E+01-6.21503E-03-5.78803E-06 1.41408E-01-7.13337E-14-1.06348E-13
 -1       779 2.00508E+01 2.28292E-02 1.29442E-06 1.25988E-01-1.44377E-14-6.36110E-14
 -1       780 2.00316E+01 3.71227E-02 4.89324E-06 1.06605E-01-4.01128E-15 7.55811E-14
 -1       781 2.00200E+01 4.16676E-02 6.27543E-06 8.66283E-02-6.90641E-14 2.31747E-14
 -1       782 2.00131E+01 4.03258E-02 6.34245E-06 6.80008E-02 5.17571E-14-1.32688E-14
 -1       783 2.00090E+01 3.58549E-02 5.71855E-06 5.16936E-02 2.05119E-13 2.48493E-15
 -1       784 2.00065E+01 3.00889E-02 4.79981E-06 3.80511E-02 2.57202E-14 1.25730E-14
 -1       785 2.00049E+01 2.41581E-02 3.81969E-06 2.70399E-02-5.68018E-14 6.50485E-14
 -1       786 2.00038E+01 1.86915E-02 2.90785E-06 1.84198E-02-3.39627E-13 2.66924E-13
 -1       787 2.00030E+01 1.39822E-02 2.12493E-06 1.18579E-02-9.89308E-14 2.06701E-13
 -1       788 2.00023E+01 1.01120E-02 1.49244E-06 6.99881E-03 1.51955E-13-6.61858E-14
 -1       789 2.00018E+01 7.03815E-03 1.01441E-06 3.50616E-03 2.07680E-13 1.03044E-13
 -1       790 2.00013E+01 4.65031E-03 1.02188E-06 1.08546E-03 3.30793E-13 3.29953E-13
 -1       791 2.00009E+01 2.81673E-03 1.21061E-06-4.89239E-04-1.92665E-14 3.64449E-13
 -1       792 2.00015E+01 2.47981E-03 2.81199E-07-2.61371E-04-4.87894E-14-1.38494E-13
 -1       793 2.10506E+01-7.82876E-01-1.92243E-04 3.69391E-01 1.60057E-14-8.79711E-14
 -1       794 2.05816E+01-2.89090E+00 2.88175E-02 4.89110E+00-3.65338E-13-4.34530E-13
 -1       795 2.01162E+01 2.09799E+00 1.14439E-04-7.81026E-01-2.00496E-13-2.82097E-13
 -1       796 2.27041E+01-3.95380E+00 1.26876E-02-4.41836E+00-2.10364E-13-7.73643E-14
 -1       797 2.00017E+01 1.88835E-03-2.68445E-07 5.27802E-04-5.75870E-13 4.15408E-14
 -1       798 2.50210E+01-3.66232E+00 2.46528E-03 2.13179E+00-2.49959E-13-4.17317E-13
 -1       799 2.59756E+01 3.97245E+00-7.84572E-02 1.84298E+00 1.90712E-13-1.29388E-14
 -1       800 1.49553E+01-5.17473E-01 4.39293E-02 5.20423E+00-4.39863E-13-3.04281E-13
 -1       801 1.37740E+01 2.46495E+00 3.38000E-02-8.53779E-01-1.31166E-13 4.47932E-14
 -1       802 1.20096E+01 4.38387E-01 9.65172E-02-4.27305E+00-7.43173E-14-4.86392E-13
 -1       803 2.69971E+01 6.13841E+00-1.31756E-01-1.09954E+00 2.61645E-13-7.27560E-14
 -1       804 2.62381E+01-3.60770E+00-1.27191E-02-1.33089E+00-9.84920E-14 8.28521E-14
 -1       805 2.70190E+01-1.71004E+00-2.25876E-02-6.80232E-01-1.87707E-13-4.03851E-13
 -1       806 2.69295E+01-4.68303E-01-2.95022E-02 1.55766E+00 1.42893E-13 5.07754E-14
 -1       807 1.99566E+01 2.03493E+00-3.80856E-04-4.47940E-03 8.34715E-14-2.71678E-13
 -1       808 2.00016E+01 2.28206E-03 9.63173E-08 9.01955E-05-2.41613E-13 9.34521E-14
 -1       809 1.10659E+01 2.24725E+00 8.70544E-02 6.87352E-02-1.04605E-13 1.34687E-13
 -1       810 2.02060E+01 1.60899E+00-3.75856E-04 3.41193E-01 1.61610E-13-2.27084E-13
 -1       811 2.04566E+01 7.55777E-03-1.01214E-04-1.48530E-01 9.27695E-14-3.47019E-14
 -1       812 1.26440E+01 2.30709E+00 4.70463E-02 1.05292E-01 1.57989E-13-2.94062E-13
 -1       813 1.99392E+01 1.93589E+00-9.15473E-04-3.86884E-01-7.36162E-14-2.68906E-13
 -1       814 1.98614E+01 2.15102E+00-3.08294E-04-1.61533E-01 4.64906E-14-2.72116E-13
 -1       815 2.03851E+01 6.81710E-01 1.71278E-04 2.06705E-01 1.65550E-13-6.52641E-14
 -1       816 2.00012E+01 8.20107E-04 1.23980E-06 1.52614E-03-8.97846E-14-2.96033E-14
 -1       817 2.00008E+01 1.80679E-03-1.69537E-06-1.21031E-03-1.01206E-13 2.94479E-13
 -1       818 2.00013E+01 2.17645E-03-3.65093E-07-8.56756E-04 2.52622E-13-1.87718E-13
 -1       819 2.00008E+01 1.25360E-03 3.15814E-06-1.44711E-03 3.24275E-13-1.66981E-13
 -1       820 1.16986E+01 1.69569E+00 7.28191E-02-1.98341E+00 2.99986E-14-4.62647E-13
 -1       821 2.00011E+01 1.73412E-03-3.72649E-07-1.14397E-03 3.50704E-13-5.46893E-14
 -1       822 2.00014E+01 2.44386E-03 2.84825E-07-5.63204E-04 8.05164E-14-1.40807E-13
 -1       823 1.98384E+01 2.12164E+00-2.71963E-04-3.49031E-01-2.97481E-14-3.05766E-13
 -1       824 2.59762E+01 4.20051E+00-6.12669E-02-1.87054E+00 8.48696E-14-1.71596E-13
 -1       825 2.53873E+01 1.33739E+00-2.51484E-02 2.05041E+00 1.06700E-13 1.49577E-14
 -1       826 2.00780E+01 1.85257E+00-4.25649E-04 1.71740E-01 1.17776E-13-2.69118E-13
 -1       827 2.00224E+01-2.70738E+00 2.72546E-02-4.96442E+00-2.11240E-13-2.05382E-13
 -1       828 2.50379E+01 4.75968E+00-4.80445E-02 1.24853E+00 1.64941E-13 6.91123E-14
 -1       829 2.62152E+01 1.63101E-01-3.85231E-02-1.78558E+00-5.41754E-14-3.19388E-13
 -1       830 2.04083E+01 2.95385E-01 1.00044E-04-3.84020E-02 1.31718E-13-4.19569E-14
 -1       831 1.97917E+01 1.36094E+00 7.69551E-04-2.32827E-02-7.21569E-14-1.70227E-13
 -1       832 1.95016E+01 1.25271E+00-8.02119E-04 9.12994E-02-8.42686E-14-1.43692E-13
 -1       833 1.90567E+01 1.28102E+00-1.77196E-04 1.00238E-01-9.07154E-14-1.96099E-13
 -1       834 1.84446E+01 1.40143E+00-2.43085E-04-1.93783E-02-1.42820E-13-2.16515E-13
 -1       835 1.75380E+01 1.57662E+00 2.04531E-04-3.29721E-01-6.01577E-14-1.89598E-13
 -1       836 1.62679E+01 1.71633E+00 4.52923E-03-9.06717E-01-1.12297E-14-2.39298E-13
 -1       837 1.63498E+01 1.93071E+00 1.46277E-02 4.39247E-01-1.62792E-13-3.43684E-13
 -1       838 2.10353E+01-7.10769E-01-1.45584E-04-2.00347E-01 5.43722E-14-1.67151E-13
 -1       839 1.98168E+01 2.18585E+00 3.83630E-05-2.77969E-01-1.95732E-15-2.95517E-13
 -1       840 1.60065E+01-6.07274E-01 3.56751E-02-4.70909E+00-7.86489E-14-3.27598E-13
 -1       841 1.75907E+01 1.58481E+00-3.04285E-04 5.11576E-02-1.35023E-13-1.64627E-13
 -1       842 1.84101E+01 1.26540E+00-2.80362E-04-1.48890E-01-1.22070E-13-2.46711E-13
 -1       843 1.89679E+01 9.73300E-01-9.69217E-05-2.33896E-01-6.61423E-14-3.10476E-13
 -1       844 1.93390E+01 7.32304E-01-5.79026E-05-2.53180E-01-2.65857E-13-2.25394E-13
 -1       845 1.95733E+01 5.51420E-01 8.29267E-06-2.38713E-01-1.89612E-13-2.23801E-13
 -1       846 1.97350E+01 4.05453E-01-2.24708E-05-2.07746E-01-8.05185E-14-3.26930E-13
 -1       847 1.98384E+01 2.96709E-01-8.80645E-06-1.72049E-01-2.34616E-13-1.05498E-13
 -1       848 1.99038E+01 2.16497E-01-5.54103E-06-1.37431E-01 1.42557E-13-3.06684E-14
 -1       849 1.99447E+01 1.57666E-01-4.75069E-06-1.06700E-01 1.53853E-13-1.32317E-13
 -1       850 1.99698E+01 1.14618E-01-2.20731E-06-8.08574E-02-1.82866E-13-3.01351E-13
 -1       851 1.99844E+01 8.44352E-02-2.23358E-07-6.07693E-02-2.24397E-14-4.13493E-14
 -1       852 1.99936E+01 6.09287E-02-1.15539E-06-4.39208E-02 1.33294E-13 1.80979E-13
 -1       853 1.99988E+01 4.37004E-02-4.06122E-07-3.09047E-02 1.08314E-13 1.50496E-13
 -1       854 2.00016E+01 3.10615E-02-2.99245E-07-2.10320E-02 1.33935E-13-7.81195E-15
 -1       855 2.00029E+01 2.18044E-02-3.38036E-07-1.36881E-02 3.35358E-13-2.54938E-13
 -1       856 2.00033E+01 1.50458E-02-5.31676E-08-8.33931E-03-1.94244E-13-2.24017E-13
 -1       857 2.00032E+01 1.03366E-02-3.87897E-07-4.68350E-03-4.69330E-15-1.02556E-13
 -1       858 2.00028E+01 6.69356E-03-4.64420E-07-1.98483E-03-2.15669E-13 1.35817E-13
 -1       859 2.00023E+01 4.02211E-03-3.47225E-06-1.88837E-04-2.45030E-14 4.42377E-13
 -1       860 2.22109E+01-6.63263E-01-3.32343E-04 1.17549E+00-1.58968E-14 4.25201E-14
 -1       861 2.20163E+01-1.04519E+00-2.78171E-04 7.30586E-01-5.26171E-14-9.60581E-15
 -1       862 2.19702E+01 1.05392E+00 6.29698E-03 1.44275E+00 5.92005E-14 7.42871E-15
 -1       863 2.16304E+01 2.00518E+00-1.57662E-03 9.38159E-01 1.20201E-13-2.41747E-14
 -1       864 2.15148E+01 2.40504E+00 2.93230E-03 5.44184E-02 3.79842E-14 8.28330E-16
 -1       865 2.16136E+01 2.14451E+00-1.04045E-03-8.76432E-01 1.06089E-13-2.11593E-14
 -1       866 2.18818E+01 1.31356E+00-1.07991E-03-1.48081E+00 4.58394E-14-1.71824E-14
 -1       867 2.21139E+01 3.22782E-01-1.61826E-04-1.61628E+00 1.46195E-14 5.50205E-15
 -1       868 2.21526E+01-4.76146E-01-3.29418E-04-1.37475E+00 4.70902E-14 1.22338E-13
 -1       869 2.19691E+01-9.21673E-01-5.18088E-04-9.60541E-01 3.80535E-14 1.72079E-13
 -1       870 2.16414E+01-1.04681E+00-4.11777E-04-5.42601E-01 4.15797E-14 2.64228E-13
 -1       871 2.12629E+01-9.57451E-01-2.13453E-04-2.09760E-01-2.27327E-14 2.53435E-13
 -1       872 2.09070E+01-7.64848E-01-6.77412E-05 1.48239E-02-8.14720E-14 3.48842E-13
 -1       873 2.06117E+01-5.48545E-01-1.59195E-05 1.45235E-01-1.03231E-13 3.65924E-13
 -1       874 2.03878E+01-3.53560E-01 2.02164E-05 2.06422E-01-1.30370E-13 2.87987E-13
 -1       875 2.02298E+01-1.98864E-01 3.91315E-05 2.22532E-01-1.05602E-13 3.22783E-13
 -1       876 2.01253E+01-8.73093E-02 4.03674E-05 2.12312E-01 6.36284E-14-1.05551E-13
 -1       877 2.00605E+01-1.37437E-02 3.39002E-05 1.88675E-01 1.01276E-13-1.26819E-13
 -1       878 2.00231E+01 2.99886E-02 2.60528E-05 1.59857E-01-2.05875E-13-9.21527E-14
 -1       879 2.00036E+01 5.22007E-02 1.89130E-05 1.30702E-01-1.05523E-13 1.98168E-14
 -1       880 1.99950E+01 6.00333E-02 1.31658E-05 1.03808E-01-1.64805E-13 2.80927E-13
 -1       881 1.99925E+01 5.90318E-02 8.82603E-06 8.03622E-02-3.46547E-14 3.82582E-13
 -1       882 1.99930E+01 5.31918E-02 5.72823E-06 6.07110E-02 1.67516E-13 3.71650E-13
 -1       883 1.99948E+01 4.52053E-02 3.60271E-06 4.47307E-02 2.03099E-15 2.42505E-13
 -1       884 1.99969E+01 3.67625E-02 2.17947E-06 3.20586E-02-7.04957E-14 3.29704E-13
 -1       885 1.99986E+01 2.88330E-02 1.24941E-06 2.22329E-02-3.18633E-13 2.09005E-13
 -1       886 2.00000E+01 2.18963E-02 6.58271E-07 1.47751E-02-3.26534E-13 8.32502E-14
 -1       887 2.00009E+01 1.61179E-02 2.99232E-07 9.23598E-03 4.03014E-14 4.04841E-13
 -1       888 2.00013E+01 1.14756E-02 1.08392E-07 5.21875E-03 2.98923E-14 2.62708E-13
 -1       889 2.00015E+01 7.84098E-03 4.19902E-07 2.38725E-03 1.46389E-13 4.45576E-13
 -1       890 2.00014E+01 5.03609E-03-3.99805E-06 4.62171E-04 2.97818E-13 4.41866E-13
 -1       891 2.16973E+01-1.10942E+00-1.57550E-04 3.10955E-01-4.07436E-14-7.83855E-14
 -1       892 2.04115E+01 6.85789E-01 3.36934E-04 3.79169E-02 1.31467E-13-1.18469E-13
 -1       893 1.31878E+01 2.08802E+00 4.07115E-02 1.28243E+00-2.44803E-13-1.41538E-13
 -1       894 1.80981E+01-8.48632E-01 2.06939E-02 4.06117E+00-3.82715E-13-3.41402E-13
 -1       895 2.13483E+01-9.64911E-01-1.34641E-04-5.77650E-03 5.18878E-14-1.03588E-13
 -1       896 1.47859E+01 8.32691E-01 1.49029E-02 3.45938E+00-4.31706E-13-8.94024E-14
 -1       897 2.39882E+01-3.36188E+00-1.25117E-03-2.26985E+00-1.91942E-13 4.50793E-14
 -1       898 2.24888E+01-2.75565E+00-3.51182E-03 2.74133E+00-1.49018E-13-1.48279E-13
 -1       899 2.51137E+01-2.29238E+00-1.14439E-02-1.67829E-02-9.93872E-14-6.56645E-14
 -1       900 1.44913E+01 1.67918E+00 2.18904E-02-1.81541E+00 6.43294E-14-3.38123E-13
 -1       901 2.21947E+01 7.67590E-02 2.43480E-03 1.47796E+00 1.28810E-14 1.57805E-14
 -1       902 2.07901E+01-4.10494E-01-1.03118E-04-2.82358E-01 4.50593E-14-1.30627E-13
 -1       903 2.00021E+01 3.45807E-03-1.52603E-06 1.73924E-04-7.11029E-13-2.07694E-14
 -1       904 2.54568E+01-2.03692E+00-1.64187E-03 4.99969E-01-9.79624E-14 1.43908E-13
 -1       905 1.49635E+01 2.13552E+00 2.29856E-02 8.16691E-01-1.96514E-13-2.95039E-13
 -1       906 2.48581E+01 5.30326E+00-6.85754E-02-1.32910E-01 2.62252E-13-4.85063E-14
 -1       907 2.03312E+01 1.10584E+00-3.22687E-04 1.83148E-01 1.54662E-13-1.73537E-13
 -1       908 2.50822E+01 1.77468E+00-3.45617E-02-2.09980E+00-2.25332E-14-1.73172E-13
 -1       909 2.06171E+01-9.14309E-02-7.00275E-05-2.68340E-01 6.93611E-14-1.16855E-13
 -1       910 2.00016E+01 1.84722E-03 4.77140E-07 1.04990E-03-1.79278E-13 5.90201E-14
 -1       911 2.00178E+01 1.59468E+00-3.40991E-04-1.98582E-01 6.99043E-14-2.42358E-13
 -1       912 1.46037E+01 7.79296E-01 3.89057E-02-3.36430E+00 8.76035E-17-3.69481E-13
 -1       913 2.00013E+01 3.53397E-03 5.10108E-06-5.13290E-04 3.35534E-13 2.44499E-13
 -1       914 2.00015E+01 4.52575E-03-9.35893E-08-4.02966E-04 4.72027E-13-4.00649E-13
 -1       915 2.00014E+01 3.90641E-03-3.06670E-06-5.37029E-04 3.48858E-13-1.61075E-13
 -1       916 2.04937E+01 2.95966E-01 2.09894E-05-1.59954E-01 1.07385E-13-1.38997E-13
 -1       917 2.41663E+01 4.27468E+00-3.45534E-02-1.06516E+00 1.12963E-13 4.24541E-15
 -1       918 2.47087E+01-6.64483E-01-1.22532E-02 1.45755E+00-4.15045E-14 2.01712E-13
 -1       919 1.97592E+01 1.45211E+00-3.69558E-05-2.00350E-01-2.24766E-14-2.42646E-13
 -1       920 2.04547E+01-1.59318E+00 3.17431E-03 3.02357E+00-1.60060E-13-1.43591E-13
 -1       921 2.00020E+01 4.23594E-03-4.97729E-07-1.52586E-04-7.26970E-13-1.15292E-13
 -1       922 2.35886E+01-2.53356E+00 1.40335E-04 1.00760E+00-2.41975E-14-3.89968E-14
 -1       923 2.45778E+01 2.50980E+00-3.55388E-02 1.89248E+00 1.95671E-13 1.50034E-13
 -1       924 2.48945E+01-1.16657E+00-1.08390E-02-1.13876E+00 4.27965E-14-8.31423E-14
 -1       925 2.22755E+01-2.85402E+00 7.94459E-03-3.21738E+00-1.99236E-13 5.05905E-15
 -1       926 2.01494E+01 1.43172E+00 6.57720E-04-8.34209E-02 8.74869E-14-2.36902E-13
 -1       927 2.00016E+01 4.82003E-03-8.75953E-07-3.60146E-04-2.00914E-13-4.43791E-13
 -1       928 2.00018E+01 4.71749E-03-1.49338E-06-3.02476E-04-3.73562E-13 1.47625E-13
 -1       929 2.00014E+01 7.56438E-03 6.15870E-07-2.03550E-05 1.22995E-13-9.13497E-13
 -1       930 2.09949E+01-6.01968E-01-1.76514E-04-4.99730E-01 4.26254E-14-1.39559E-13
 -1       931 1.93563E+01 1.20145E+00-6.62736E-04-2.44880E-01-1.18892E-13-1.50086E-13
 -1       932 1.89527E+01 1.14809E+00-2.95571E-04-4.36744E-01-1.15395E-13-1.57275E-13
 -1       933 1.83815E+01 1.12184E+00 2.31132E-05-8.29845E-01-6.63309E-14-1.55279E-13
 -1       934 1.76519E+01 1.04049E+00 1.35215E-03-1.49141E+00-7.33253E-14-1.67272E-13
 -1       935 2.33064E+01 3.94136E+00-3.40211E-02 4.62345E-01 1.77264E-13 8.53397E-14
 -1       936 1.98297E+01 1.43162E+00 8.90526E-04-3.16292E-01 2.77427E-16-2.37587E-13
 -1       937 2.26046E+01 3.27202E+00-9.63185E-03-5.57241E-01 1.03618E-13 2.53599E-14
 -1       938 1.73006E+01 1.28629E+00-3.73101E-03 1.16127E+00-4.92384E-14-7.47182E-14
 -1       939 1.81179E+01 1.15189E+00 1.27702E-03 5.88577E-01-1.71686E-13-2.75960E-13
 -1       940 1.86862E+01 9.65316E-01 1.17246E-04 2.55128E-01-1.34815E-13-2.71433E-13
 -1       941 1.90964E+01 7.76836E-01-1.38223E-05 6.49833E-02-2.29022E-13-3.79194E-13
 -1       942 1.93749E+01 6.16129E-01 1.81254E-05-3.16060E-02-1.92069E-13-4.16981E-13
 -1       943 1.95809E+01 4.74215E-01-2.65862E-05-7.88338E-02-1.15002E-13-3.05113E-13
 -1       944 1.97224E+01 3.60653E-01-1.16364E-05-9.37643E-02 1.51187E-14-2.75163E-13
 -1       945 1.98185E+01 2.71979E-01-7.04783E-06-9.12893E-02-1.21312E-13-1.55619E-13
 -1       946 1.98832E+01 2.03812E-01-5.50645E-06-8.05503E-02 5.38723E-14-4.58727E-13
 -1       947 1.99264E+01 1.51932E-01-3.07805E-06-6.68664E-02 5.11789E-14-4.16549E-13
 -1       948 1.99538E+01 1.14324E-01 1.13277E-06-5.37130E-02 1.23373E-13-3.12033E-13
 -1       949 1.99729E+01 8.41970E-02-1.31932E-06-4.11181E-02-4.47329E-15-2.23176E-13
 -1       950 1.99852E+01 6.15497E-02-1.10945E-07-3.04359E-02 3.08992E-14-2.94476E-13
 -1       951 1.99930E+01 4.45622E-02 1.22553E-10-2.17542E-02 2.73110E-14-4.06192E-13
 -1       952 1.99977E+01 3.18729E-02-1.35596E-07-1.49409E-02 2.32072E-13-5.06937E-13
 -1       953 2.00004E+01 2.24470E-02 5.28994E-08-9.75614E-03 2.07542E-13-1.02564E-13
 -1       954 2.00018E+01 1.57782E-02-2.75092E-07-6.07277E-03-7.09537E-14 9.21723E-14
 -1       955 2.00024E+01 1.05761E-02 1.06013E-06-3.26340E-03 1.68846E-14 5.03982E-13
 -1       956 2.00025E+01 6.74141E-03 3.20713E-06-1.30084E-03-9.91874E-14 3.92541E-13
 -1       957 2.29532E+01-1.36058E+00-1.00120E-03 6.80791E-01-7.66662E-14-1.11556E-14
 -1       958 2.28544E+01 2.34113E+00-8.28719E-03-1.50956E+00-2.26416E-14 1.05915E-13
 -1       959 2.31827E+01 8.45638E-01-4.30766E-04-1.80066E+00-2.41484E-15 1.27850E-13
 -1       960 2.32142E+01-4.37636E-01-4.15121E-03-1.50148E+00 8.92180E-14 4.15725E-14
 -1       961 2.29187E+01-1.18603E+00 1.72937E-03-9.15849E-01 8.65871E-15-5.16974E-14
 -1       962 2.23702E+01-1.41641E+00 1.20554E-03-3.47246E-01-1.35357E-13 2.46188E-14
 -1       963 2.17654E+01-1.30742E+00 8.93831E-04 6.01664E-02-4.74279E-14 2.41268E-13
 -1       964 2.12152E+01-1.03767E+00 4.86605E-04 2.90203E-01-1.11142E-13 3.27293E-13
 -1       965 2.07773E+01-7.36780E-01 1.87978E-04 3.87280E-01-1.26106E-13 3.99271E-13
 -1       966 2.04572E+01-4.68706E-01 1.26226E-05 3.99301E-01-1.44804E-13 4.07774E-13
 -1       967 2.02403E+01-2.59099E-01-2.73389E-05 3.65713E-01-1.51827E-13 3.75782E-13
 -1       968 2.01034E+01-1.09795E-01-4.63939E-05 3.13019E-01 4.39312E-14 2.87517E-13
 -1       969 2.00237E+01-1.23226E-02-4.88994E-05 2.56375E-01 9.19182E-14 3.45450E-13
 -1       970 1.99822E+01 4.51024E-02-4.31796E-05 2.03666E-01 5.76541E-14 2.76204E-13
 -1       971 1.99647E+01 7.39753E-02-3.45352E-05 1.58143E-01-2.66729E-13 1.81929E-13
 -1       972 1.99611E+01 8.39023E-02-2.57821E-05 1.20546E-01-3.47793E-13 3.18405E-13
 -1       973 1.99647E+01 8.22219E-02-1.82442E-05 9.03952E-02-8.19473E-14 2.07854E-13
 -1       974 1.99713E+01 7.41819E-02-1.23142E-05 6.67120E-02-8.11444E-14 4.10382E-13
 -1       975 1.99785E+01 6.33044E-02-7.80376E-06 4.84009E-02 1.00503E-13 5.82833E-13
 -1       976 1.99851E+01 5.18050E-02-4.55640E-06 3.44316E-02 4.96498E-14 3.76932E-13
 -1       977 1.99906E+01 4.09641E-02-2.33378E-06 2.39062E-02-4.29026E-14 2.46387E-13
 -1       978 1.99948E+01 3.14268E-02-8.64097E-07 1.60755E-02-1.70525E-13-5.51691E-15
 -1       979 1.99977E+01 2.34276E-02 2.97110E-08 1.03299E-02-8.83152E-14-4.71813E-13
 -1       980 1.99997E+01 1.69532E-02-2.39599E-07 6.18253E-03 1.04634E-14-3.66963E-13
 -1       981 2.00008E+01 1.18565E-02-9.51121E-07 3.25757E-03-2.45963E-13-1.50349E-13
 -1       982 2.00013E+01 7.89512E-03-2.25393E-07 1.23002E-03 2.48917E-13 6.29387E-14
 -1       983 2.24204E+01-1.49832E+00-1.59454E-06 1.29652E-01-8.27285E-14-4.44132E-14
 -1       984 1.87587E+01-1.23038E+00 7.77861E-03-3.99453E+00-1.50808E-13-1.61201E-13
 -1       985 2.13701E+01-9.85649E-01-2.11924E-04-4.43514E-01 1.45352E-14-1.01986E-13
 -1       986 1.69054E+01 6.05301E-01 6.70541E-03 2.78834E+00-3.40814E-13-3.76212E-14
 -1       987 1.67848E+01 7.66496E-01 5.96045E-03-2.49015E+00-4.67968E-14-1.83306E-13
 -1       988 2.18600E+01-1.32024E+00-6.60744E-06-2.46266E-01-3.30265E-14-9.02403E-14
 -1       989 1.99376E+01 1.50958E+00-1.27760E-04-3.02071E-01 4.56824E-14-2.18397E-13
 -1       990 2.39514E+01-2.42459E+00-9.35628E-04-5.48856E-01-1.39923E-13 9.73518E-14
 -1       991 2.02534E+01 1.28064E+00 1.73580E-04 5.26286E-02 1.32166E-13-2.11924E-13
 -1       992 2.04067E+01 6.81169E-01 7.77899E-05-1.42898E-01 1.11585E-13-1.78179E-13
 -1       993 1.95909E+01 1.29827E+00-4.13116E-04-1.98938E-01-5.04339E-14-1.90382E-13
 -1       994 2.07302E+01-2.11587E-01-3.39736E-05-4.57314E-01 5.20840E-14-1.65060E-13
 -1       995 2.32882E+01-7.19336E-01-5.89618E-04 1.29917E+00-2.67436E-14 3.55054E-14
 -1       996 1.72760E+01-5.90205E-02 2.31052E-02-3.43316E+00-1.12235E-13-1.76868E-13
 -1       997 2.39730E+01-1.76639E+00-4.65174E-03 5.18780E-01-8.48573E-14 9.12832E-14
 -1       998 2.00015E+01 7.72513E-03-6.04417E-07-4.34114E-04-9.90692E-17-3.81970E-13
 -1       999 2.32655E+01-2.54444E+00 7.37665E-03-1.45207E+00-1.29845E-13 4.07211E-14
 -1      1000 2.19732E+01-2.05847E+00-2.97197E-04 1.89534E+00-6.18690E-14-2.55026E-14
 -1      1001 2.00020E+01 8.05851E-03-4.93472E-06-1.25237E-03-3.71049E-13 3.54173E-13
 -1      1002 2.38099E+01-1.76371E+00-8.24652E-04-4.42866E-01 1.01747E-14 1.15515E-13
 -1      1003 1.90148E+01-4.22401E-01-2.41790E-03 2.62962E+00-1.72174E-13-2.87699E-13
 -1      1004 2.00839E+01 1.12407E+00 1.86365E-04-3.64929E-01 4.44734E-14-2.05317E-13
 -1      1005 2.05244E+01 2.64485E-01 2.30274E-04-3.31972E-01 6.65628E-14-1.64326E-13
 -1      1006 2.00013E+01 7.99881E-03 2.55441E-06 5.48625E-04 2.04868E-13-5.76949E-13
 -1      1007 2.02560E+01 9.31463E-01-5.05232E-04-2.82424E-01 9.16301E-14-2.23712E-13
 -1      1008 2.45652E+01 3.67726E-02-1.18695E-02-1.72852E+00 4.94244E-14-1.37834E-13
 -1      1009 1.91615E+01 7.57113E-01 1.21949E-04-9.87221E-01-1.01279E-13-7.34659E-14
 -1      1010 1.88484E+01 4.97409E-01 3.12626E-04-1.57277E+00-1.00047E-13-1.24705E-13
 -1      1011 1.97295E+01 1.20866E+00 4.39626E-04-3.96791E-01 4.17349E-15-1.91542E-13
 -1      1012 2.07057E+01-1.63394E+00-1.68580E-03-2.89262E+00-7.79471E-14-3.89660E-14
 -1      1013 1.87216E+01 7.23488E-01 8.96016E-04 8.06428E-01-5.29112E-14-3.60091E-13
 -1      1014 1.90445E+01 6.63261E-01 1.65695E-04 4.53092E-01-1.25482E-13-3.49860E-13
 -1      1015 1.92909E+01 5.75321E-01 5.88840E-05 2.41037E-01-2.37207E-13-1.45739E-13
 -1      1016 1.94915E+01 4.75801E-01-8.17317E-06 1.05436E-01-2.52471E-14-7.73268E-14
 -1      1017 1.96410E+01 3.83027E-01-5.64581E-06 2.85419E-02-4.80384E-14-8.87263E-14
 -1      1018 1.97503E+01 3.02586E-01-5.08510E-06-1.14801E-02-4.66577E-15-2.20923E-13
 -1      1019 1.98288E+01 2.35694E-01-4.78144E-06-2.93308E-02-1.51868E-13-3.74632E-13
 -1      1020 1.98846E+01 1.81547E-01-3.51496E-06-3.45633E-02 4.82361E-14-4.05541E-13
 -1      1021 1.99222E+01 1.40314E-01 1.91038E-06-3.32719E-02 1.92737E-13-4.08043E-13
 -1      1022 1.99500E+01 1.05924E-01-1.98975E-06-2.88219E-02 1.78680E-14-5.43470E-13
 -1      1023 1.99691E+01 7.91558E-02-4.19301E-07-2.33204E-02 5.61496E-14-6.41930E-13
 -1      1024 1.99820E+01 5.84780E-02-2.28797E-07-1.78904E-02 1.16624E-13-6.45645E-13
 -1      1025 1.99905E+01 4.26398E-02-3.48910E-07-1.30859E-02 1.85138E-13-3.19318E-13
 -1      1026 1.99959E+01 3.06209E-02-1.04107E-07-9.11645E-03 3.14544E-13-3.66341E-13
 -1      1027 1.99991E+01 2.19619E-02-8.76330E-08-6.11708E-03 1.90793E-13-2.89451E-13
 -1      1028 2.00010E+01 1.51209E-02-1.30051E-06-3.71715E-03 3.61234E-13 8.46995E-14
 -1      1029 2.00017E+01 1.12411E-02 3.14396E-06-2.33056E-03 4.71115E-14 3.23711E-13
 -1      1030 2.29055E+01-1.90624E+00 4.20035E-04 2.57974E-01-6.08308E-14 5.63784E-14
 -1      1031 2.19791E+01-1.60590E+00-2.28108E-03 6.43218E-01-1.29984E-13-7.19634E-15
 -1      1032 2.12438E+01-1.18317E+00 1.08422E-03 7.85902E-01-1.76676E-13 5.39947E-15
 -1      1033 2.07079E+01-7.79411E-01-1.65745E-04 7.61484E-01-1.71604E-13 4.35391E-14
 -1      1034 2.03480E+01-4.50295E-01-1.54123E-04 6.59813E-01-1.17871E-13 2.00887E-14
 -1      1035 2.01251E+01-2.12335E-01-4.57678E-05 5.35127E-01-2.19204E-14 5.87789E-14
 -1      1036 1.99979E+01-5.35389E-02-3.37646E-05 4.15660E-01 3.48392E-14 6.36233E-14
 -1      1037 1.99347E+01 4.26490E-02-1.05792E-05 3.13133E-01-3.55774E-14 2.95214E-13
 -1      1038 1.99107E+01 9.39660E-02-1.43283E-06 2.30937E-01 1.18525E-13 2.40812E-13
 -1      1039 1.99091E+01 1.15153E-01 2.98891E-06 1.67668E-01-2.09674E-13 2.23325E-13
 -1      1040 1.99190E+01 1.17463E-01 4.48045E-06 1.20284E-01-2.64947E-13 1.02015E-13
 -1      1041 1.99334E+01 1.08958E-01 3.11181E-06 8.54326E-02-2.35290E-13 2.13146E-13
 -1      1042 1.99486E+01 9.51481E-02 2.51109E-06 6.01123E-02-2.70439E-13 3.48126E-13
 -1      1043 1.99624E+01 7.95337E-02 1.90409E-06 4.18596E-02 1.90488E-13 3.10498E-13
 -1      1044 1.99740E+01 6.42241E-02 1.17346E-06 2.87730E-02 8.05162E-14 2.85279E-14
 -1      1045 1.99831E+01 5.03615E-02 5.08450E-07 1.94303E-02 7.70105E-14 2.89561E-14
 -1      1046 1.99899E+01 3.84534E-02-1.55936E-07 1.27908E-02 1.51037E-13-1.19551E-13
 -1      1047 1.99947E+01 2.86122E-02-6.21903E-07 8.09763E-03 1.45268E-14-3.47688E-13
 -1      1048 1.99980E+01 2.07222E-02-8.25987E-07 4.80945E-03 1.87347E-14-4.38804E-13
 -1      1049 1.99999E+01 1.45743E-02 1.68624E-06 2.55650E-03-1.24028E-13-5.66740E-13
 -1      1050 2.00008E+01 1.09935E-02 1.72971E-06 1.44465E-03-2.05531E-13-7.45051E-13
 -1      1051 1.85770E+01 7.30678E-02 3.23459E-04-2.40294E+00-2.16356E-14-1.33444E-13
 -1      1052 2.32047E+01-1.98134E+00-2.42046E-03-2.25913E-01-8.23788E-14 3.61404E-14
 -1      1053 1.99179E+01 1.11877E+00 1.91584E-05-4.44863E-01 1.87238E-14-2.09025E-13
 -1      1054 2.16330E+01-1.28428E+00-1.64975E-04-8.49251E-01-3.21743E-14 8.65777E-15
 -1      1055 2.11074E+01-7.89872E-01-1.62905E-05-8.37992E-01 2.08147E-14 5.97153E-15
 -1      1056 2.35543E+01 9.77392E-01-2.13424E-03 1.78440E+00 2.46120E-14 1.87126E-13
 -1      1057 2.23486E+01-1.74300E+00-1.13302E-03-6.70405E-01-1.41332E-13 2.55010E-14
 -1      1058 1.83343E+01 6.88777E-01-1.18726E-03 1.35451E+00-2.51556E-13-3.39338E-13
 -1      1059 2.03565E+01 6.63831E-01 4.58934E-04-3.34314E-01 8.88478E-14-1.76886E-13
 -1      1060 2.06416E+01-1.23131E+00 8.16572E-04 2.06470E+00-1.60683E-13-7.04027E-16
 -1      1061 1.84855E+01 2.71223E-01-1.62381E-03 1.99214E+00-1.76406E-13-3.53623E-13
 -1      1062 1.94330E+01 9.44448E-01-1.63499E-04-6.30008E-01-1.16193E-13-1.22012E-13
 -1      1063 2.00017E+01 8.10817E-03 2.35253E-07-8.28603E-04-3.97800E-13-3.68670E-13
 -1      1064 2.02433E+01 6.42085E-01-1.80296E-04-5.09311E-01-1.40387E-15-1.81053E-13
 -1      1065 2.07571E+01-3.25757E-01 4.05191E-06-7.27734E-01-7.47896E-16-1.39563E-14
 -1      1066 2.00438E+01 6.82961E-01 1.19493E-03-6.40719E-01-2.20678E-14-1.95441E-13
 -1      1067 2.00008E+01 1.14316E-02 1.17771E-06-2.72385E-06 1.31413E-13-8.22047E-13
 -1      1068 2.15097E+01-1.50996E+00 1.46510E-03 1.26871E+00-1.22988E-13 4.64822E-14
 -1      1069 1.96037E+01 1.06204E+00 9.44489E-04-4.89939E-01-4.06586E-14-1.48199E-13
 -1      1070 2.05112E+01 1.66474E-01 2.28144E-04-5.46503E-01 3.30311E-14-1.33295E-13
 -1      1071 2.17340E+01-1.58586E+00 2.42059E-03-1.48447E+00-7.33512E-14 2.07267E-14
 -1      1072 1.92355E+01 3.84724E-01 5.75650E-04 8.06152E-01-1.25132E-13-2.93761E-13
 -1      1073 2.01553E+01-7.17528E-01 4.37061E-04-2.14254E+00-7.55702E-14-2.49336E-14
 -1      1074 1.98493E+01-5.79159E-01 3.35344E-04 1.90416E+00-2.43242E-13-5.42410E-14
 -1      1075 1.91138E+01 2.60110E-01-1.51740E-03 1.23945E+00-9.57534E-14-3.29720E-13
 -1      1076 1.93669E+01 4.13217E-01-2.27814E-05 5.15563E-01 7.12128E-14-1.06923E-13
 -1      1077 1.95041E+01 3.92692E-01 2.97269E-05 3.07582E-01-4.62192E-14-8.08783E-15
 -1      1078 1.96226E+01 3.48153E-01 3.91296E-06 1.73482E-01-5.95192E-14 6.42906E-14
 -1      1079 1.97197E+01 2.95540E-01-6.84567E-07 9.03913E-02-2.17690E-13-6.70864E-14
 -1      1080 1.97962E+01 2.43456E-01-2.54124E-06 4.11132E-02-1.94749E-13-2.81252E-13
 -1      1081 1.98548E+01 1.96107E-01-4.45259E-06 1.34892E-02-1.11488E-13-2.37230E-13
 -1      1082 1.98970E+01 1.56974E-01 5.10688E-07-2.78852E-04-4.06066E-14-4.85023E-13
 -1      1083 1.99300E+01 1.22234E-01-3.45909E-06-6.92268E-03 1.69210E-13-7.74914E-13
 -1      1084 1.99538E+01 9.37882E-02-1.42198E-06-9.01896E-03 8.28097E-14-4.48918E-13
 -1      1085 1.99708E+01 7.09065E-02-9.48005E-07-8.75553E-03 8.82002E-15-2.44947E-13
 -1      1086 1.99826E+01 5.27927E-02-8.00556E-07-7.43682E-03 8.01052E-14-5.51544E-13
 -1      1087 1.99906E+01 3.86672E-02-4.84792E-07-5.80218E-03 4.33663E-13-4.43757E-13
 -1      1088 1.99956E+01 2.82631E-02 1.74896E-07-4.28655E-03 2.83317E-13-3.57681E-13
 -1      1089 1.99989E+01 1.98751E-02 3.16848E-07-2.91367E-03 3.46076E-13-4.37382E-13
 -1      1090 2.06130E+01-8.66993E-01-8.32990E-04 1.25115E+00-1.71642E-13-9.42505E-14
 -1      1091 2.01999E+01-4.49335E-01 4.11179E-04 1.01046E+00-1.46556E-13 6.66575E-14
 -1      1092 1.99736E+01-1.69095E-01-2.82954E-04 7.65033E-01-1.23556E-13-3.74249E-14
 -1      1093 1.98605E+01 8.81358E-03 5.97026E-05 5.58447E-01-5.28920E-14 6.03646E-14
 -1      1094 1.98209E+01 1.06898E-01 7.19314E-05 3.96034E-01-1.39756E-13 2.85724E-14
 -1      1095 1.98200E+01 1.53353E-01 4.98688E-05 2.74613E-01 1.10284E-13-5.16740E-15
 -1      1096 1.98391E+01 1.66721E-01 3.46548E-05 1.87021E-01 2.75334E-14 1.43386E-13
 -1      1097 1.98661E+01 1.60606E-01 2.25128E-05 1.25575E-01-2.69597E-13-2.95617E-14
 -1      1098 1.98943E+01 1.44186E-01 1.44384E-05 8.33782E-02-3.79677E-13-7.84922E-14
 -1      1099 1.99200E+01 1.23442E-01 1.09435E-05 5.48297E-02-1.39826E-13-1.37519E-13
 -1      1100 1.99419E+01 1.01969E-01 7.26721E-06 3.57407E-02-1.38856E-13-3.74600E-13
 -1      1101 1.99595E+01 8.18164E-02 4.36794E-06 2.30756E-02 3.62420E-13-3.52090E-14
 -1      1102 1.99731E+01 6.40097E-02 2.54124E-06 1.47152E-02 1.63558E-13-1.26523E-13
 -1      1103 1.99832E+01 4.89269E-02 1.24180E-06 9.21156E-03 5.34616E-14-6.39116E-14
 -1      1104 1.99904E+01 3.65575E-02-2.41910E-08 5.60236E-03 1.18462E-13 5.47141E-14
 -1      1105 1.99954E+01 2.66755E-02 1.71183E-07 3.23342E-03 1.01197E-13-1.61911E-13
 -1      1106 1.99985E+01 1.89911E-02 1.81339E-06 1.69120E-03 6.30453E-14-3.65870E-13
 -1      1107 2.10503E+01-9.51993E-01-4.33926E-04-1.34291E+00-1.82713E-14-3.79773E-14
 -1      1108 2.00009E+01 1.22616E-02 2.34913E-06-9.44911E-04 6.48334E-14-9.01188E-13
 -1      1109 1.97029E+01 1.55726E-01-8.83953E-05-1.39923E+00-1.15876E-13-8.80441E-14
 -1      1110 1.98074E+01 8.82263E-01-4.98782E-04-6.02694E-01-1.82333E-14-2.07583E-13
 -1      1111 1.97497E+01 5.07930E-01-1.05249E-03-9.60456E-01-6.25431E-14-1.63332E-13
 -1      1112 2.00004E+01 1.50688E-02 6.94615E-06-1.96899E-03 4.14130E-13-7.43390E-13
 -1      1113 1.93763E+01-9.51066E-02-4.38848E-04 1.59876E+00-2.21395E-13-2.23525E-13
 -1      1114 1.99999E+01 1.49336E-02 1.98141E-06 6.11108E-04 1.23959E-13-6.96582E-13
 -1      1115 2.03634E+01 1.81051E-01-1.40124E-04-7.63337E-01-3.14474E-14-1.22026E-13
 -1      1116 2.06309E+01-3.98448E-01-2.24193E-04-1.09783E+00 7.40006E-15-1.17824E-13
 -1      1117 1.96235E+01 1.40619E-01 1.02744E-04 7.08764E-01-1.24346E-14-3.11208E-14
 -1      1118 2.00012E+01 1.20819E-02-4.71872E-06-1.78267E-03 3.23245E-14-7.52282E-13
 -1      1119 1.96823E+01 2.52752E-01-6.63554E-06 3.09027E-01-6.49726E-14-2.83598E-13
 -1      1120 1.97408E+01 2.45112E-01-2.60488E-06 1.94482E-01-5.74992E-14-2.33038E-13
 -1      1121 1.97970E+01 2.21071E-01-2.99163E-06 1.18872E-01-1.63168E-13-1.29070E-15
 -1      1122 1.98461E+01 1.90263E-01 1.55915E-06 7.04252E-02-2.80840E-13 6.24215E-14
 -1      1123 1.98850E+01 1.59807E-01-3.78006E-07 4.13941E-02-1.00788E-13-1.39882E-13
 -1      1124 1.99177E+01 1.29587E-01-3.25749E-06 2.26271E-02 3.61780E-14-6.86361E-14
 -1      1125 1.99430E+01 1.02745E-01-1.49365E-06 1.16273E-02 5.29575E-14-2.96500E-13
 -1      1126 1.99620E+01 7.98315E-02-8.73720E-07 5.42493E-03 3.34261E-13-3.91331E-13
 -1      1127 1.99759E+01 6.08513E-02-3.57057E-07 2.09539E-03 1.84990E-16-5.53277E-14
 -1      1128 1.99857E+01 4.55159E-02 8.62315E-07 4.30831E-04 1.50734E-13-1.28491E-13
 -1      1129 1.99921E+01 3.39024E-02 1.24630E-06-2.83914E-04 3.83367E-13-5.07677E-13
 -1      1130 1.99967E+01 2.43298E-02 2.26727E-06-5.62411E-04 9.89039E-14-6.78174E-13
 -1      1131 1.98848E+01-3.27929E-01-9.83707E-04 1.30882E+00-1.57007E-13 7.70239E-14
 -1      1132 1.95145E+01 6.13212E-02-1.22605E-03 1.06814E+00-1.36120E-13-2.63953E-14
 -1      1133 1.99993E+01 1.75714E-02-4.53190E-06-9.90559E-04 9.17462E-14-8.51231E-13
 -1      1134 1.96316E+01 2.28088E-01-9.28602E-05 4.77279E-01 7.94712E-14-2.37989E-13
 -1      1135 2.78643E+01 9.05109E+00 2.30578E+00-6.64638E+00-3.35842E-14 1.14020E-12
 -1      1136 2.06115E+01 6.24835E+00 2.16245E-01-3.80405E+00-2.20379E-14 8.58827E-14
 -1      1137 1.95202E+01 5.88041E+00 8.12002E-02-2.77125E+00-1.47105E-14-3.49196E-13
 -1      1138 1.90877E+01 5.74499E+00 6.22734E-02-2.11175E+00-8.72219E-15-5.41022E-13
 -1      1139 1.88612E+01 5.67516E+00 5.59604E-02-1.58824E+00-5.07580E-15-6.35002E-13
 -1      1140 1.87255E+01 5.63291E+00 5.08755E-02-1.14627E+00-3.02015E-15-6.66356E-13
 -1      1141 1.86439E+01 5.60743E+00 4.74781E-02-7.51979E-01-2.59775E-15-6.65409E-13
 -1      1142 1.86016E+01 5.59422E+00 4.57891E-02-3.80455E-01 4.19803E-16-6.49873E-13
 -1      1143 1.85925E+01 5.59153E+00 4.59604E-02-1.75865E-02 2.05760E-15-6.35397E-13
 -1      1144 1.86124E+01 5.59803E+00 4.77375E-02 3.51575E-01 3.14809E-15-6.16189E-13
 -1      1145 1.86600E+01 5.61323E+00 5.07607E-02 7.40332E-01 4.77656E-15-5.79282E-13
 -1      1146 1.87389E+01 5.63809E+00 5.47330E-02 1.15818E+00 6.80705E-15-5.28782E-13
 -1      1147 1.88635E+01 5.67670E+00 5.87772E-02 1.62457E+00 8.73260E-15-4.47272E-13
 -1      1148 1.90764E+01 5.74180E+00 6.29179E-02 2.16896E+00 1.20945E-14-2.97306E-13
 -1      1149 1.94921E+01 5.86984E+00 7.40357E-02 2.84088E+00 1.66395E-14-2.11029E-14
 -1      1150 2.05087E+01 6.20044E+00 1.59348E-01 3.81035E+00 1.71252E-14 5.00711E-13
 -1      1151 2.52078E+01 7.98949E+00 1.42367E+00 5.79870E+00 3.53606E-14 1.55764E-12
 -1      1152 2.89965E+01 3.70519E+00 1.33409E+00-4.32204E+00-1.52905E-13 1.82859E-12
 -1      1153 2.04393E+01-1.72798E-01-6.25901E-01-1.40644E-01-5.42899E-14 1.47291E-12
 -1      1154 1.90320E+01-1.00731E-01-2.50764E-01 6.36465E-02-2.82760E-14 9.44030E-13
 -1      1155 1.87947E+01-5.47882E-02-6.90584E-02 4.14332E-02-1.44693E-14 5.66783E-13
 -1      1156 1.88887E+01-3.31811E-02-2.60618E-02 2.78914E-02-1.38982E-14 2.93449E-13
 -1      1157 1.91873E+01-2.75809E-02-2.17430E-02 2.20254E-02 1.47148E-15 1.08170E-13
 -1      1158 1.96640E+01-2.66093E-02-2.74003E-02 1.93109E-02-1.30551E-14-4.29518E-14
 -1      1159 2.03610E+01-3.18226E-02-3.97382E-02 2.13622E-02-2.09555E-15-1.15873E-13
 -1      1160 2.13432E+01-4.20789E-02-6.03422E-02 2.95664E-02-1.20082E-14-1.12525E-13
 -1      1161 2.27424E+01-5.64576E-02-9.01760E-02 4.77600E-02-1.39949E-14-2.19727E-13
 -1      1162 2.47498E+01-6.89984E-02-1.22914E-01 8.21752E-02 1.08238E-14-1.62523E-13
 -1      1163 2.75009E+01-7.78688E-02-1.34262E-01 1.35767E-01-2.17370E-14-1.52350E-13
 -1      1164 3.11526E+01-4.84584E-02-6.00507E-02 2.01439E-01 7.24160E-15-9.91984E-14
 -1      1165 3.54458E+01 5.69445E-02 2.12350E-01 2.23662E-01 1.30278E-14 6.17006E-14
 -1      1166 3.85972E+01 2.48211E-01 6.55994E-01 2.45298E-02-1.91791E-14 2.12233E-13
 -1      1167 3.74022E+01 3.84784E-01 7.80025E-01-5.45577E-01-5.93275E-14 1.53766E-14
 -1      1168 3.05258E+01 3.04211E-01-1.42631E-02-1.13823E+00-3.22069E-14-5.28466E-13
 -1      1169 2.04006E+01-3.37026E-01-1.62307E+00-1.08607E+00 3.97737E-14-8.73634E-13
 -1      1170 1.53803E+01-8.32719E-01-2.57905E+00 1.43560E-01-1.76248E-14-1.38058E-12
 -1      1171 2.15362E+01-3.40681E-01-1.47125E+00 1.18218E+00-2.51188E-15-1.72440E-12
 -1      1172 3.25579E+01 3.32690E-01 2.81247E-01 1.03801E+00 3.02883E-15-1.94478E-12
 -1      1173 3.87059E+01 4.02386E-01 8.48874E-01 3.13341E-01 4.07660E-15-1.75615E-12
 -1      1174 3.82439E+01 2.12844E-01 5.18356E-01-1.49815E-01-5.65260E-14-1.70867E-12
 -1      1175 3.45390E+01 1.34897E-02 1.00467E-01-2.31302E-01 3.79744E-14-1.70922E-12
 -1      1176 3.03818E+01-6.55571E-02-1.03130E-01-1.80701E-01-1.33600E-14-1.35422E-12
 -1      1177 2.70287E+01-7.94367E-02-1.41217E-01-1.12347E-01-3.57613E-15-1.15338E-12
 -1      1178 2.46383E+01-6.81519E-02-1.16066E-01-6.28023E-02 1.75788E-14-7.00093E-13
 -1      1179 2.30258E+01-5.07346E-02-8.09986E-02-3.29941E-02 1.68372E-14-5.36328E-13
 -1      1180 2.19836E+01-3.89862E-02-5.49687E-02-1.50817E-02 3.03455E-14-6.50067E-13
 -1      1181 2.13004E+01-2.54375E-02-3.50303E-02-8.48802E-03-5.94286E-14-7.16861E-13
 -1      1182 2.08399E+01-1.72289E-02-2.23420E-02-3.86263E-03-4.90992E-15-6.58874E-13
 -1      1183 2.05394E+01-1.15978E-02-1.43093E-02-1.54649E-03-1.87422E-14-7.96036E-13
 -1      1184 2.03427E+01-7.69315E-03-9.20208E-03-3.99949E-04 4.67422E-14-6.29749E-13
 -1      1185 2.02159E+01-5.62295E-03-6.20212E-03 3.27843E-04-2.02255E-14-4.40913E-13
 -1      1186 2.01322E+01-3.65654E-03-4.06122E-03 3.25453E-04 1.22853E-14-5.98463E-13
 -1      1187 2.00756E+01-2.49242E-03-2.68933E-03 4.00796E-04-1.25784E-14-7.46325E-13
 -1      1188 2.00390E+01-1.70751E-03-1.79469E-03 4.05718E-04 3.74077E-14-3.42435E-13
 -1      1189 2.00157E+01-1.17166E-03-1.20098E-03 3.78602E-04-1.02751E-13-1.40269E-13
 -1      1190 2.00014E+01-7.88944E-04-7.97998E-04 3.39760E-04-2.21136E-14-4.31022E-13
 -1      1191 1.99932E+01-5.80104E-04-5.44629E-04 3.13518E-04-4.21140E-14-3.28359E-13
 -1      1192 1.99890E+01-3.80086E-04-3.57601E-04 2.56635E-04-9.38837E-14 1.18038E-13
 -1      1193 1.99872E+01-2.52973E-04-2.28011E-04 2.17802E-04 9.95598E-15-2.58976E-13
 -1      1194 1.99873E+01-1.64613E-04-1.40245E-04 1.84692E-04 1.19799E-13-4.90120E-13
 -1      1195 1.99884E+01-1.02648E-04-8.04552E-05 1.56795E-04-8.61808E-15-4.77652E-13
 -1      1196 1.99901E+01-5.70931E-05-3.89515E-05 1.33733E-04 4.77687E-14-7.47005E-13
 -1      1197 1.99921E+01-2.88646E-05-9.62424E-06 1.14834E-04-2.57931E-14-3.72753E-13
 -1      1198 1.99942E+01-3.27968E-06 1.35448E-05 1.01177E-04 8.60390E-14 4.83773E-13
 -1      1199 1.99963E+01 1.99217E-05 4.15290E-05 8.66417E-05 1.66183E-14 2.12818E-13
 -1      1200 1.99982E+01 4.33796E-05 7.64466E-05 6.72367E-05 1.08853E-14 4.88162E-13
 -1      1201 1.99994E+01 7.39049E-05 1.01811E-04 2.44216E-05-1.92928E-14 7.36195E-13
 -1      1202 1.99998E+01-9.58608E-06-1.48019E-05-1.93100E-05 8.00679E-14 7.67112E-13
 -1      1203 2.77396E+01 5.23102E-01 3.59118E-01 1.95594E+00-2.87964E-14 2.41995E-12
 -1      1204 2.01571E+01-6.69292E-02-5.73362E-01 1.26478E-01 1.64972E-14 1.98502E-12
 -1      1205 1.90566E+01-4.11291E-02-1.92032E-01 1.77468E-02 1.90299E-14 1.48105E-12
 -1      1206 1.87426E+01-2.10474E-02-4.96614E-02 9.70086E-05 5.98003E-15 1.17615E-12
 -1      1207 1.87323E+01-1.13763E-02-1.22963E-02-5.84183E-03 1.99341E-15 9.84560E-13
 -1      1208 1.88605E+01-5.19586E-03-2.53129E-03-8.12407E-03 2.45973E-15 8.02771E-13
 -1      1209 1.90395E+01-2.39086E-04 2.57743E-03-9.39913E-03 8.64928E-15 7.09731E-13
 -1      1210 1.92110E+01 4.22241E-03 7.79095E-03-1.02233E-02 1.23276E-15 6.25364E-13
 -1      1211 1.93272E+01 8.37733E-03 1.34998E-02-1.04968E-02 2.49106E-15 5.28572E-13
 -1      1212 1.93442E+01 1.19595E-02 1.91927E-02-9.79975E-03-7.48403E-15 4.89218E-13
 -1      1213 1.92223E+01 1.42939E-02 2.37913E-02-7.55179E-03 1.96915E-14 3.73632E-13
 -1      1214 1.89321E+01 1.44299E-02 2.56668E-02-3.21725E-03-1.72440E-14 3.74048E-13
 -1      1215 1.84645E+01 1.14749E-02 2.29575E-02 3.36046E-03-2.80461E-15 3.87211E-13
 -1      1216 1.78441E+01 5.12496E-03 1.43426E-02 1.15660E-02-8.88200E-15 2.83377E-13
 -1      1217 1.71376E+01-3.81159E-03 8.69652E-05 1.97868E-02 1.20036E-14 2.13760E-13
 -1      1218 1.64521E+01-1.32911E-02-1.72343E-02 2.56516E-02-1.88048E-14 2.34080E-13
 -1      1219 1.59161E+01-2.06198E-02-3.30723E-02 2.68627E-02-1.84158E-14 1.89668E-13
 -1      1220 1.56453E+01-2.35894E-02-4.25436E-02 2.23196E-02 2.67247E-14 9.06436E-14
 -1      1221 1.57059E+01-2.15248E-02-4.26620E-02 1.28584E-02 1.83534E-15 6.02296E-15
 -1      1222 1.60916E+01-1.55522E-02-3.38081E-02 1.05687E-03-7.69437E-15 5.43697E-14
 -1      1223 1.67266E+01-7.91025E-03-1.94493E-02-9.88177E-03 1.93504E-14 4.37601E-14
 -1      1224 1.74931E+01-8.32603E-04-4.29814E-03-1.74673E-02-8.33822E-15 1.23755E-14
 -1      1225 1.82687E+01 4.25871E-03 7.77959E-03-2.07224E-02-1.67871E-14 5.18231E-14
 -1      1226 1.89574E+01 6.96103E-03 1.49266E-02-2.01222E-02 4.25362E-14-2.06033E-13
 -1      1227 1.95044E+01 7.62120E-03 1.72602E-02-1.69775E-02-2.29046E-14-1.87137E-13
 -1      1228 1.98940E+01 6.91794E-03 1.60828E-02-1.27342E-02-4.81505E-15 1.28404E-13
 -1      1229 2.01395E+01 5.53204E-03 1.30026E-02-8.51615E-03-3.66602E-14 1.05285E-13
 -1      1230 2.02692E+01 3.97776E-03 9.35582E-03-4.97522E-03 3.94368E-15-4.50871E-14
 -1      1231 2.03157E+01 2.56583E-03 5.99368E-03-2.35114E-03-5.40637E-15-8.99521E-14
 -1      1232 2.03088E+01 1.43772E-03 3.31625E-03-6.13069E-04 1.78514E-15-9.43184E-14
 -1      1233 2.02723E+01 6.21814E-04 1.40927E-03 4.02794E-04 4.51460E-15-2.12788E-13
 -1      1234 2.02231E+01 8.47589E-05 1.86017E-04 8.96279E-04-4.09108E-15 1.29939E-13
 -1      1235 2.01721E+01-2.31870E-04-5.07550E-04 1.04941E-03 1.56095E-14 9.53374E-14
 -1      1236 2.01255E+01-3.89485E-04-8.30316E-04 1.00467E-03-3.93532E-15-2.24529E-13
 -1      1237 2.00862E+01-4.41523E-04-9.16554E-04 8.62223E-04-6.70913E-14 8.49778E-14
 -1      1238 2.00550E+01-4.29597E-04-8.67120E-04 6.86136E-04 8.45698E-15-1.42841E-13
 -1      1239 2.00316E+01-3.83545E-04-7.51333E-04 5.13385E-04 7.22872E-14-8.91469E-13
 -1      1240 2.00148E+01-3.23258E-04-6.13108E-04 3.62393E-04-8.55606E-14-2.47714E-13
 -1      1241 2.00035E+01-2.60989E-04-4.77821E-04 2.39911E-04 1.46750E-14 2.05683E-13
 -1      1242 1.99964E+01-2.03542E-04-3.58304E-04 1.45978E-04 5.77244E-15-2.41940E-14
 -1      1243 1.99925E+01-1.54050E-04-2.59458E-04 7.72302E-05 2.68293E-14-3.79624E-13
 -1      1244 1.99908E+01-1.13295E-04-1.81508E-04 2.89458E-05-2.94229E-14-4.52044E-13
 -1      1245 1.99907E+01-8.06349E-05-1.22127E-04-3.80041E-06-7.29643E-14-2.55661E-13
 -1      1246 1.99915E+01-5.45505E-05-7.76389E-05-2.55722E-05 7.83113E-14-5.41534E-13
 -1      1247 1.99930E+01-3.28421E-05-4.33894E-05-4.03226E-05-4.46062E-14-9.07956E-13
 -1      1248 1.99948E+01-1.29641E-05-1.36899E-05-5.11875E-05 2.11100E-14-7.17225E-13
 -1      1249 1.99966E+01 8.16661E-06 1.81988E-05-6.02323E-05-1.50674E-14-9.98133E-13
 -1      1250 1.99983E+01 3.26235E-05 5.68842E-05-6.61345E-05 1.30553E-15-1.22069E-12
 -1      1251 1.99995E+01 5.04007E-05 8.33854E-05-5.49207E-05 9.97894E-14-1.49124E-12
 -1      1252 1.99998E+01-1.23406E-05-1.31848E-05 1.36060E-05-7.54560E-14-9.79656E-13
 -1      1253 1.99998E+01 3.48843E-05-1.41442E-05 9.10542E-06-9.92110E-13-6.97523E-14
 -1      1254 1.99998E+01-3.61008E-04 7.57625E-05-2.15684E-05-4.89470E-13 2.14178E-14
 -1      1255 1.99998E+01-1.48220E-03 4.42273E-05-5.75500E-05 6.18823E-13 9.24172E-15
 -1      1256 1.99998E+01-2.91295E-03 1.68965E-06-6.11470E-05 7.75643E-13 3.58703E-14
 -1      1257 1.99998E+01-4.34246E-03-2.64499E-05-5.31259E-05 7.08929E-13 5.69035E-14
 -1      1258 1.99998E+01-5.58190E-03-4.21927E-05-4.09732E-05 1.17611E-13-8.07703E-14
 -1      1259 1.99998E+01-6.54347E-03-5.00565E-05-2.89052E-05 5.45771E-13-1.58719E-14
 -1      1260 1.99998E+01-7.17943E-03-5.48348E-05-1.59803E-05 8.32666E-13 1.77841E-14
 -1      1261 1.99998E+01-7.44648E-03-5.81305E-05-2.79817E-06 1.21470E-12-1.69408E-14
 -1      1262 1.99998E+01-7.32223E-03-6.01279E-05 1.12086E-05 2.09778E-12 1.57830E-15
 -1      1263 1.99998E+01-6.79368E-03-5.91519E-05 2.63848E-05 1.03552E-12-3.51948E-13
 -1      1264 1.99998E+01-5.87738E-03-5.24607E-05 4.23070E-05 5.29874E-13 1.00501E-13
 -1      1265 1.99998E+01-4.61404E-03-3.52194E-05 5.68652E-05 4.74111E-13 6.89562E-14
 -1      1266 1.99998E+01-3.10071E-03-1.53406E-06 6.68441E-05 3.90179E-13 3.56507E-15
 -1      1267 1.99998E+01-1.56088E-03 4.99442E-05 6.33156E-05-1.13942E-13-1.51657E-13
 -1      1268 1.99999E+01-3.65918E-04 8.27741E-05 1.98774E-05-3.01279E-13-4.01281E-13
 -1      1269 1.99998E+01 3.25440E-05-2.49312E-05-4.58304E-06-8.18943E-13 1.15127E-16
 -1      1270-1.00421E+00-2.54047E+01-3.69663E+00-2.15617E+00 2.21889E-12 2.54477E-13
 -1      1271-1.47487E+00-1.38717E+01-2.80655E+00-3.44223E+00 2.48401E-12 9.05775E-13
 -1      1272 1.33627E+00-5.54528E-02-1.52323E+00 1.30960E+00 2.35678E-12 1.39333E-12
 -1      1273 1.14535E+01 9.97975E+00 6.95428E-02 1.04214E+01 1.76348E-12 1.60538E-12
 -1      1274 2.98474E+01 1.25753E+01 1.72462E+00 1.85838E+01 9.60454E-13 1.25300E-12
 -1      1275 5.11929E+01 8.73343E+00 3.24882E+00 1.90236E+01 2.74780E-13 5.00266E-13
 -1      1276 6.67745E+01 3.61229E+00 4.01931E+00 1.03699E+01 3.97044E-14-2.40252E-13
 -1      1277 7.12760E+01 1.77379E+00 4.30753E+00-3.31593E+00 1.12813E-13-1.21014E-12
 -1      1278 6.05162E+01 5.66371E+00 3.71087E+00-1.55225E+01 6.32772E-13-2.13385E-12
 -1      1279 4.00950E+01 1.12407E+01 2.54655E+00-1.94984E+01 1.45906E-12-2.62368E-12
 -1      1280 1.99482E+01 1.22603E+01 9.85472E-01-1.50948E+01 2.25420E-12-2.61391E-12
 -1      1281 5.36793E+00 5.29839E+00-7.81487E-01-5.51330E+00 2.69229E-12-2.08744E-12
 -1      1282-9.80028E-01-8.35845E+00-2.38511E+00 2.29068E+00 2.43405E-12-1.18838E-12
 -1      1283-1.43770E+00-2.17281E+01-3.43690E+00 3.36426E+00 9.87765E-13-3.71619E-13
 -1      1284-9.97283E-01-2.87235E+01-4.05691E+00-8.01940E-01-6.80817E-13-1.00850E-13
 -1      1285-2.24706E+00-2.52424E+01-3.99360E+00-5.45979E+00-1.94678E-12-5.95995E-13
 -1      1286-3.08483E+00-1.43395E+01-3.52398E+00-5.75455E+00-2.86970E-12-1.45683E-12
 -1      1287 1.36518E+00-8.93670E-01-2.35451E+00 7.92711E-01-2.73204E-12-2.17981E-12
 -1      1288 1.61134E+01 8.21768E+00-4.17120E-01 1.13752E+01-1.91980E-12-2.25797E-12
 -1      1289 4.18960E+01 9.83991E+00 2.47316E+00 1.90647E+01-9.67004E-13-1.67111E-12
 -1      1290 7.00962E+01 6.05289E+00 5.55246E+00 1.66620E+01-2.07390E-13-5.86642E-13
 -1      1291 8.58792E+01 2.38088E+00 7.19170E+00 2.87750E+00-5.32907E-14 4.07896E-13
 -1      1292 7.73262E+01 4.26317E+00 6.26737E+00-1.32377E+01-3.70926E-13 1.44951E-12
 -1      1293 5.13571E+01 8.72126E+00 3.41521E+00-1.95376E+01-1.03895E-12 2.32836E-12
 -1      1294 2.41309E+01 9.39596E+00 4.32341E-01-1.47237E+01-1.63691E-12 2.38032E-12
 -1      1295 5.37793E+00 2.78560E+00-1.83387E+00-4.38691E+00-1.69753E-12 1.64135E-12
 -1      1296-2.51029E+00-9.57794E+00-3.25583E+00 4.24374E+00-1.57563E-12 1.01752E-12
 -1      1297-2.84437E+00-2.20525E+01-3.92878E+00 6.43917E+00-9.08940E-13 3.26628E-13
 -1      1298-1.23869E+00-2.83942E+01-4.05941E+00 2.87124E+00 8.56398E-13 6.51215E-14
 -1      1299 2.23549E+01 1.89491E+00-7.12427E-01-2.80217E+00-5.55667E-14 9.10050E-13
 -1      1300 2.04534E+01 4.69885E+00-4.45027E-02-3.20508E+00-1.60663E-13-1.17316E-13
 -1      1301 2.09391E+01 4.84748E+00-9.29720E-02-4.06988E+00-2.09888E-13 1.11994E-13
 -1      1302 1.96184E+01 5.00749E+00-1.87050E-02-2.53103E+00-1.58790E-13-4.36293E-13
 -1      1303 1.99274E+01 5.10770E+00 5.12847E-03-2.92718E+00-1.81695E-13-3.02439E-13
 -1      1304 2.06306E+01 3.95548E+00-2.28413E-02-2.96006E+00-2.80633E-13-9.88376E-14
 -1      1305 1.92334E+01 5.10343E+00-4.30478E-03-1.94620E+00-1.21257E-13-5.86108E-13
 -1      1306 1.94040E+01 5.16513E+00 1.31453E-02-2.23757E+00-1.43656E-13-5.19845E-13
 -1      1307 1.98356E+01 4.38932E+00-2.21331E-02-2.36191E+00-2.48574E-13-3.66783E-13
 -1      1308 1.90080E+01 5.15312E+00 1.58894E-03-1.45609E+00-8.63233E-14-6.54971E-13
 -1      1309 1.91116E+01 5.19025E+00 1.38117E-02-1.69621E+00-9.92123E-14-6.23931E-13
 -1      1310 1.94243E+01 4.59517E+00-1.82548E-02-1.80849E+00-1.85405E-13-4.92557E-13
 -1      1311 1.88696E+01 5.18283E+00 4.36021E-03-1.03797E+00-5.63083E-14-6.71664E-13
 -1      1312 1.89335E+01 5.20544E+00 1.24118E-02-1.24384E+00-7.00950E-14-6.63671E-13
 -1      1313 1.91820E+01 4.71389E+00-1.49923E-02-1.34338E+00-1.31887E-13-5.48585E-13
 -1      1314 1.87864E+01 5.20050E+00 6.11467E-03-6.52907E-01-2.85640E-14-6.63818E-13
 -1      1315 1.88233E+01 5.21331E+00 1.06006E-02-8.43990E-01-3.85655E-14-6.70543E-13
 -1      1316 1.90329E+01 4.78449E+00-1.30706E-02-9.36280E-01-8.06774E-14-5.69308E-13
 -1      1317 1.87489E+01 5.20919E+00 7.66452E-03-2.88597E-01 7.43958E-15-6.51892E-13
 -1      1318 1.87631E+01 5.21411E+00 9.03245E-03-4.71200E-01-3.59131E-15-6.56112E-13
 -1      1319 1.89479E+01 4.82183E+00-1.21711E-02-5.60440E-01-2.72907E-14-5.46698E-13
 -1      1320 1.87495E+01 5.21078E+00 9.19337E-03 7.16629E-02 3.22804E-14-6.33108E-13
 -1      1321 1.87447E+01 5.20909E+00 7.91378E-03-1.10554E-01 2.62750E-14-6.44094E-13
 -1      1322 1.89152E+01 4.83295E+00-1.19160E-02-2.00473E-01 2.71864E-14-5.35950E-13
 -1      1323 1.87838E+01 5.20666E+00 1.07357E-02 4.41980E-01 5.72116E-14-6.15527E-13
 -1      1324 1.87618E+01 5.19896E+00 7.14799E-03 2.53207E-01 5.28414E-14-6.28577E-13
 -1      1325 1.89266E+01 4.82253E+00-1.21183E-02 1.59463E-01 6.81526E-14-5.29535E-13
 -1      1326 1.88511E+01 5.19748E+00 1.21883E-02 8.35111E-01 8.83668E-14-5.77566E-13
 -1      1327 1.88117E+01 5.18367E+00 6.45766E-03 6.33234E-01 7.53312E-14-5.98643E-13
 -1      1328 1.89778E+01 4.79270E+00-1.27542E-02 5.32763E-01 1.09837E-13-5.06019E-13
 -1      1329 1.89556E+01 5.18419E+00 1.34257E-02 1.25667E+00 1.18437E-13-5.22190E-13
 -1      1330 1.88954E+01 5.16232E+00 5.29655E-03 1.03853E+00 1.04940E-13-5.55009E-13
 -1      1331 1.90690E+01 4.74305E+00-1.38575E-02 9.28201E-01 1.59957E-13-4.63449E-13
 -1      1332 1.91212E+01 5.16612E+00 1.38784E-02 1.73809E+00 1.56083E-13-4.24272E-13
 -1      1333 1.90252E+01 5.13090E+00 2.56122E-03 1.48594E+00 1.36431E-13-4.80518E-13
 -1      1334 1.92114E+01 4.66728E+00-1.60210E-02 1.36223E+00 2.09195E-13-4.02772E-13
 -1      1335 1.93980E+01 5.14212E+00 1.19632E-02 2.29984E+00 1.85678E-13-2.67349E-13
 -1      1336 1.92346E+01 5.08171E+00-4.11653E-03 1.99930E+00 1.68823E-13-3.66894E-13
 -1      1337 1.94396E+01 4.54886E+00-1.96469E-02 1.85634E+00 2.65959E-13-2.98837E-13
 -1      1338 1.99237E+01 5.10511E+00 8.35797E-03 2.99810E+00 2.12497E-13 3.60822E-14
 -1      1339 1.96067E+01 4.98929E+00-1.93728E-02 2.60434E+00 1.87142E-13-1.42959E-13
 -1      1340 1.98365E+01 4.34668E+00-2.40793E-02 2.43215E+00 3.00928E-13-1.09857E-13
 -1      1341 2.11628E+01 4.90255E+00 1.01333E-02 3.98602E+00 1.75970E-13 5.94552E-13
 -1      1342 2.04028E+01 4.73444E+00-4.62463E-02 3.33862E+00 1.72098E-13 2.54234E-13
 -1      1343 2.06383E+01 3.91080E+00-2.16844E-02 3.09370E+00 3.11338E-13 2.24737E-13
 -1      1344 2.71903E+01 3.19320E+00 9.18052E-01 4.53819E+00 7.92144E-14 1.62281E-12
 -1      1345 2.20671E+01 3.51844E+00-1.80183E-01 3.82946E+00 8.46823E-14 9.12020E-13
 -1      1346 2.21800E+01 2.55361E+00-3.11407E-02 3.38688E+00 2.83565E-13 7.26030E-13
 -1      1347 2.14742E+01 3.56056E-01-7.61672E-01 1.15126E+00 1.46390E-13 1.57496E-12
 -1      1348 2.21828E+01 1.92704E-01-4.00413E-01-1.31780E+00-1.73209E-13 9.81715E-13
 -1      1349 2.08532E+01 3.26152E-01-1.75782E-01-8.03899E-01-1.61877E-13 7.82152E-13
 -1      1350 2.02933E+01 1.62420E-01-7.90016E-02-3.74864E-01-1.37449E-13 6.95798E-13
 -1      1351 1.98569E+01 9.70494E-02-1.70506E-02-2.99735E-01-1.32224E-13 4.95437E-13
 -1      1352 2.11738E+01 4.14136E-01-1.02639E-01-1.24667E+00-2.86132E-13 3.55486E-13
 -1      1353 1.95398E+01 7.25001E-02 2.20078E-03-8.72025E-02-1.06973E-13 4.27349E-13
 -1      1354 1.94470E+01 4.99986E-02 1.41154E-02-6.58538E-02-9.60967E-14 2.80102E-13
 -1      1355 2.01879E+01 1.46858E-01-3.81687E-02-4.27872E-01-2.30850E-13 2.39132E-13
 -1      1356 1.93518E+01 4.15342E-02 1.35719E-02 4.61223E-02-8.01043E-14 2.17121E-13
 -1      1357 1.94279E+01 3.25933E-02 1.28584E-02 6.10201E-02-8.06369E-14 1.09704E-13
 -1      1358 1.98128E+01 7.18564E-02-1.11642E-02-4.53548E-02-1.72855E-13 1.08283E-13
 -1      1359 1.94655E+01 3.19401E-02 9.43591E-03 1.34514E-01-6.37155E-14 6.05557E-14
 -1      1360 1.96421E+01 2.87304E-02 8.71198E-03 1.46605E-01-5.32408E-14-2.97245E-14
 -1      1361 1.97595E+01 4.74908E-02-7.24443E-03 1.75174E-01-1.32884E-13-1.39446E-14
 -1      1362 1.97828E+01 3.16961E-02 5.09649E-03 2.16736E-01-3.32208E-14-6.98799E-14
 -1      1363 2.00709E+01 3.19181E-02 5.91647E-03 2.31850E-01-3.59556E-14-1.03558E-13
 -1      1364 1.99259E+01 4.77187E-02-7.18997E-03 3.46442E-01-9.66033E-14-1.14327E-13
 -1      1365 2.03081E+01 3.95914E-02 1.86721E-03 3.13772E-01-1.21951E-14-1.13918E-13
 -1      1366 2.07222E+01 4.25872E-02 3.93925E-03 3.34031E-01-1.85451E-14-1.29230E-13
 -1      1367 2.02852E+01 5.94713E-02-8.79018E-03 5.27781E-01-4.74291E-14-1.16097E-13
 -1      1368 2.10681E+01 5.49824E-02-1.84603E-03 4.44060E-01 2.94036E-16-1.09125E-13
 -1      1369 2.16559E+01 6.03206E-02 1.00609E-03 4.73723E-01-6.44450E-15-1.44169E-13
 -1      1370 2.08401E+01 8.49996E-02-1.16467E-02 7.55180E-01-1.90785E-14-1.52927E-13
 -1      1371 2.21374E+01 7.86145E-02-7.95109E-03 6.28093E-01-7.44543E-15-1.16004E-13
 -1      1372 2.29732E+01 8.44204E-02-4.37195E-03 6.71825E-01 6.93369E-15-1.26767E-13
 -1      1373 2.16264E+01 1.24822E-01-1.64454E-02 1.06721E+00-3.06873E-15-1.29450E-13
 -1      1374 2.36259E+01 1.06123E-01-1.85268E-02 8.81912E-01 2.84807E-14-1.17177E-13
 -1      1375 2.47973E+01 1.09661E-01-1.25055E-02 9.43634E-01 2.46383E-14-9.44800E-14
 -1      1376 2.27029E+01 1.76531E-01-2.31709E-02 1.49740E+00 2.97019E-14-4.12335E-14
 -1      1377 2.56056E+01 1.28264E-01-3.00834E-02 1.18856E+00 1.43635E-15-6.68493E-14
 -1      1378 2.70981E+01 1.10564E-01-1.69290E-02 1.25727E+00-1.38015E-14-1.07053E-13
 -1      1379 2.40974E+01 2.18066E-01-2.87221E-02 2.03364E+00 1.53419E-14-1.77809E-14
 -1      1380 2.81550E+01 1.10683E-01-2.87082E-02 1.48283E+00 2.55950E-14-9.20375E-14
 -1      1381 3.00428E+01 3.60529E-02 3.55045E-03 1.54361E+00 4.85766E-14-3.25989E-14
 -1      1382 2.58734E+01 1.95524E-01-2.81483E-02 2.60077E+00 1.64946E-14-4.53110E-15
 -1      1383 3.12458E+01-3.47757E-02 2.02407E-02 1.52775E+00 1.06285E-13 6.14786E-15
 -1      1384 3.30008E+01-2.00441E-01 7.85194E-02 1.48201E+00 6.77375E-14 9.32865E-14
 -1      1385 2.80651E+01-4.22730E-02-1.79625E-03 2.90342E+00 1.22740E-13-2.19824E-14
 -1      1386 3.41707E+01-4.05853E-01 1.45531E-01 8.35198E-01 3.64500E-14 1.36842E-13
 -1      1387 3.46810E+01-6.45137E-01 1.62863E-01 5.07116E-01-1.80619E-14 1.23249E-13
 -1      1388 3.04493E+01-6.71007E-01 6.32535E-02 2.23169E+00 8.91578E-14 9.22682E-14
 -1      1389 3.54042E+01-8.08350E-01 2.52085E-01-8.87616E-01-6.23321E-14 1.49880E-13
 -1      1390 3.36419E+01-9.17755E-01 7.29658E-02-1.42026E+00-1.55133E-13-1.14353E-14
 -1      1391 3.25020E+01-1.55180E+00 1.04335E-01-6.50224E-02-4.59910E-14 1.58052E-13
 -1      1392 3.37701E+01-7.76149E-01 7.76366E-02-2.83739E+00-1.85359E-13-4.38538E-14
 -1      1393 3.02856E+01-4.21046E-01-2.69744E-01-3.15300E+00-1.59955E-13-2.46247E-13
 -1      1394 3.34995E+01-1.82081E+00-4.27937E-02-3.33376E+00-2.57031E-13 2.08005E-13
 -1      1395 2.96013E+01 3.23549E-01-4.40946E-01-3.26283E+00-1.51407E-13-4.42757E-13
 -1      1396 2.58796E+01 1.07073E+00-8.27097E-01-2.71408E+00-1.82077E-13-6.39822E-13
 -1      1397 3.37306E+01-1.94713E-01-1.59331E-01-5.41511E+00-3.47944E-13-1.53794E-13
 -1      1398 2.55760E+01 1.56068E+00-9.11472E-01-4.79275E-01-1.99396E-13-7.66387E-13
 -1      1399 2.57765E+01 1.56320E+00-8.99876E-01 5.37045E-01-1.53100E-13-9.80327E-13
 -1      1400 3.31385E+01 2.54099E+00-3.94064E-01-2.78094E+00-3.05533E-13-3.65985E-13
 -1      1401 2.60939E+01 9.29311E-01-8.53461E-01 2.96418E+00-1.51157E-13-1.15066E-12
 -1      1402 3.01867E+01 2.22437E-01-3.77787E-01 3.36042E+00-1.50602E-13-1.28642E-12
 -1      1403 3.31813E+01 2.53339E+00-3.67439E-01 2.82794E+00-3.44946E-13-6.14286E-13
 -1      1404 3.07326E+01-4.91082E-01-2.38703E-01 3.09947E+00-3.13083E-14-1.28891E-12
 -1      1405 3.45790E+01-9.05775E-01 1.27710E-01 2.59040E+00 5.03503E-14-1.33749E-12
 -1      1406 3.38104E+01-3.43746E-01-1.84449E-01 5.44710E+00-1.67755E-13-8.11365E-13
 -1      1407 3.44128E+01-8.41130E-01 1.56747E-01 8.35761E-01 7.99499E-14-1.37210E-12
 -1      1408 3.55406E+01-7.81868E-01 2.09055E-01 2.78968E-01 5.83977E-14-1.23727E-12
 -1      1409 3.36436E+01-1.75334E+00 7.60200E-02 2.75884E+00 7.68205E-14-9.56400E-13
 -1      1410 3.46570E+01-4.79580E-01 1.46092E-01-9.36966E-01 2.09555E-15-1.12267E-12
 -1      1411 3.36569E+01-2.82472E-01 9.38410E-02-1.13693E+00 1.01898E-14-1.14991E-12
 -1      1412 3.21706E+01-1.26316E+00 1.24987E-01-7.68083E-01 1.40291E-13-8.57370E-13
 -1      1413 3.24830E+01-1.00229E-01 4.82371E-02-1.54415E+00 4.13801E-14-1.13178E-12
 -1      1414 3.06356E+01 3.52272E-02-1.49331E-03-1.54098E+00 9.67837E-14-1.08344E-12
 -1      1415 2.99775E+01-4.18747E-01 4.52213E-02-2.54631E+00 6.44484E-14-5.85181E-13
 -1      1416 2.94877E+01 7.30907E-02-1.04305E-02-1.44112E+00 1.26434E-13-1.01305E-12
 -1      1417 2.77263E+01 1.32498E-01-2.99131E-02-1.36754E+00 7.00447E-14-8.16430E-13
 -1      1418 2.76730E+01 7.63357E-02-1.38748E-02-2.80426E+00 1.44131E-13-5.23318E-13
 -1      1419 2.67592E+01 1.14687E-01-2.02012E-02-1.10994E+00 4.72417E-14-7.96418E-13
 -1      1420 2.53915E+01 1.31143E-01-2.43789E-02-1.03545E+00 6.25333E-14-7.23338E-13
 -1      1421 2.56545E+01 2.24096E-01-3.17145E-02-2.34362E+00 1.59261E-13-3.92172E-13
 -1      1422 2.46451E+01 1.01809E-01-1.25945E-02-7.84757E-01 1.85917E-13-7.20174E-13
 -1      1423 2.36769E+01 1.01325E-01-1.32738E-02-7.28077E-01 2.03903E-13-4.51698E-13
 -1      1424 2.40439E+01 2.15435E-01-2.84103E-02-1.73662E+00 1.87734E-13-4.52395E-13
 -1      1425 2.31310E+01 7.59226E-02-4.83120E-03-5.32942E-01-2.30900E-14-3.90233E-13
 -1      1426 2.24779E+01 7.16469E-02-4.96296E-03-4.93806E-01-9.97041E-14-5.22299E-13
 -1      1427 2.28342E+01 1.64226E-01-2.02164E-02-1.21287E+00 9.37132E-14-3.20681E-13
 -1      1428 2.21096E+01 5.49641E-02 8.33118E-05-3.60684E-01 1.78763E-14-4.20518E-13
 -1      1429 2.16906E+01 4.90889E-02-1.62433E-03-3.36179E-01 3.28817E-14-4.58299E-13
 -1      1430 2.19771E+01 1.12984E-01-1.46364E-02-8.28864E-01-7.58352E-14-2.56482E-13
 -1      1431 2.14159E+01 3.63933E-02 1.17932E-03-2.40048E-01-5.09055E-14-4.69315E-13
 -1      1432 2.11245E+01 3.21024E-02 2.07683E-06-2.22793E-01-3.02315E-14-5.22123E-13
 -1      1433 2.13706E+01 7.78227E-02-8.79654E-03-5.61494E-01-1.75120E-14-3.07456E-13
 -1      1434 2.09365E+01 2.43937E-02 1.70467E-03-1.58607E-01 6.80489E-14-4.03044E-13
 -1      1435 2.07454E+01 2.09838E-02 6.00617E-04-1.47518E-01-4.56753E-15-4.32313E-13
 -1      1436 2.09346E+01 5.06216E-02-5.83364E-03-3.73931E-01 5.77086E-14-1.18058E-13
 -1      1437 2.06166E+01 1.61493E-02 1.54825E-03-1.05029E-01-5.91467E-14-4.65830E-13
 -1      1438 2.04910E+01 1.37458E-02 7.11513E-04-9.78425E-02-4.69546E-15-4.35881E-13
 -1      1439 2.06336E+01 3.28801E-02-3.87803E-03-2.48829E-01-8.33986E-14-1.98497E-13
 -1      1440 2.04030E+01 1.06153E-02 1.20631E-03-6.97195E-02-3.24922E-14-5.14269E-13
 -1      1441 2.03205E+01 9.12401E-03 7.00059E-04-6.50255E-02 4.88585E-14-4.31562E-13
 -1      1442 2.04266E+01 2.14388E-02-2.58760E-03-1.65806E-01-4.67764E-14-3.43698E-13
 -1      1443 2.02631E+01 7.31662E-03 9.64665E-04-4.70589E-02 9.96070E-14-4.64383E-13
 -1      1444 2.02105E+01 6.18412E-03 5.33512E-04-4.41403E-02-1.22644E-14-4.26671E-13
 -1      1445 2.02872E+01 1.37924E-02-1.92238E-03-1.11502E-01-3.14419E-16-3.16894E-13
 -1      1446 2.01686E+01 4.83627E-03 6.66579E-04-3.14210E-02-4.26972E-14-4.93191E-13
 -1      1447 2.01320E+01 4.06113E-03 4.00484E-04-2.93046E-02-5.26808E-14-5.47011E-13
 -1      1448 2.01910E+01 9.46281E-03-1.22220E-03-7.53364E-02-5.29875E-14-2.34608E-13
 -1      1449 2.01036E+01 3.30226E-03 4.94921E-04-2.07432E-02-7.54841E-14-6.63541E-13
 -1      1450 2.00796E+01 2.72007E-03 3.04058E-04-1.93402E-02-6.42017E-14-7.04805E-13
 -1      1451 2.01231E+01 6.22713E-03-8.54885E-04-5.01328E-02-1.18349E-13-5.12042E-13
 -1      1452 2.00604E+01 2.24418E-03 3.54804E-04-1.35517E-02 6.33258E-14-5.84166E-13
 -1      1453 2.00449E+01 1.83065E-03 2.28078E-04-1.26075E-02 5.90230E-14-3.77131E-13
 -1      1454 2.00768E+01 4.15593E-03-5.93339E-04-3.30964E-02 1.00737E-13-6.39585E-13
 -1      1455 2.00320E+01 1.53049E-03 2.52962E-04-8.67776E-03 5.25805E-14-3.49815E-13
 -1      1456 2.00222E+01 1.23538E-03 1.71650E-04-8.04195E-03-1.24548E-15-2.43798E-13
 -1      1457 2.00455E+01 2.78642E-03-4.12139E-04-2.15332E-02 1.17960E-13-5.21778E-13
 -1      1458 2.00138E+01 1.03175E-03 1.76180E-04-5.36966E-03-8.47790E-14-2.65210E-13
 -1      1459 2.00079E+01 8.39699E-04 1.32133E-04-4.94282E-03-6.52614E-14-3.27237E-13
 -1      1460 2.00247E+01 1.87913E-03-2.83293E-04-1.36632E-02-1.19797E-13-2.04643E-13
 -1      1461 2.00027E+01 7.21583E-04 1.28860E-04-3.19854E-03 3.02784E-14-2.53362E-13
 -1      1462 1.99995E+01 5.74830E-04 9.78240E-05-2.93104E-03 1.06324E-14-1.89981E-13
 -1      1463 2.00115E+01 1.23057E-03-2.08936E-04-8.39559E-03 3.17070E-15-1.33972E-13
 -1      1464 1.99961E+01 4.83382E-04 9.06770E-05-1.69064E-03 9.59978E-14-1.51385E-13
 -1      1465 1.99944E+01 3.69219E-04 7.12708E-05-1.49570E-03 1.91472E-13 2.87578E-14
 -1      1466 2.00031E+01 8.54922E-04-1.36268E-04-4.83596E-03 1.11181E-13-2.59259E-13
 -1      1467 1.99925E+01 3.26680E-04 6.57906E-05-6.70511E-04-1.98641E-13 1.01787E-13
 -1      1468 1.99919E+01 2.36066E-04 5.27221E-05-5.46197E-04-1.78705E-13-1.47347E-13
 -1      1469 1.99979E+01 5.52064E-04-9.34642E-05-2.35938E-03 5.67178E-14-1.23426E-13
 -1      1470 1.99911E+01 2.13237E-04 4.61937E-05-1.02425E-05 7.04559E-14-2.56598E-13
 -1      1471 1.99912E+01 1.44697E-04 3.87545E-05 6.72073E-05-7.27099E-14-1.56717E-13
 -1      1472 1.99952E+01 3.51015E-04-6.18688E-05-7.24590E-04-1.95857E-13 1.56641E-13
 -1      1473 1.99910E+01 1.34292E-04 3.17655E-05 4.02844E-04 1.64972E-15-2.52350E-13
 -1      1474 1.99916E+01 8.22086E-05 2.82665E-05 4.47975E-04 9.23489E-14-2.73861E-13
 -1      1475 1.99941E+01 2.13482E-04-3.95189E-05 3.24614E-04-3.18527E-14-6.46352E-14
 -1      1476 1.99918E+01 7.73441E-05 2.04650E-05 6.44714E-04 1.18659E-14-2.16593E-13
 -1      1477 1.99927E+01 3.96659E-05 1.97579E-05 6.67284E-04 7.61147E-15-3.65794E-13
 -1      1478 1.99940E+01 1.20426E-04-2.35230E-05 9.66847E-04 3.97400E-14-6.27276E-14
 -1      1479 1.99931E+01 3.84603E-05 1.21683E-05 7.63044E-04 1.16554E-13-4.48249E-13
 -1      1480 1.99941E+01 9.48580E-06 1.35953E-05 7.69416E-04 2.71066E-13-1.19186E-13
 -1      1481 1.99946E+01 5.13945E-05-1.26314E-05 1.31884E-03 1.03684E-13-1.57888E-13
 -1      1482 1.99947E+01 9.20520E-06 7.55148E-06 7.95410E-04 2.69639E-13-3.53848E-14
 -1      1483 1.99957E+01-1.93863E-05 9.12686E-06 7.90588E-04 1.37305E-13 2.78176E-13
 -1      1484 1.99955E+01 5.71626E-06-4.50991E-06 1.46940E-03 3.69041E-13-1.24499E-14
 -1      1485 1.99963E+01-1.90644E-05 5.03117E-06 7.51312E-04-8.57113E-14 3.18041E-13
 -1      1486 1.99972E+01-4.68639E-05 8.03676E-06 7.33019E-04-6.85576E-15 2.16264E-13
 -1      1487 1.99967E+01-4.12573E-05 2.84176E-06 1.45939E-03 3.46634E-14 3.88206E-14
 -1      1488 1.99978E+01-5.21594E-05 7.08600E-06 6.24883E-04 1.92227E-13-1.81751E-14
 -1      1489 1.99985E+01-7.96017E-05 1.04405E-05 5.87941E-04 4.86490E-14 3.64129E-13
 -1      1490 1.99978E+01-9.36701E-05 1.14399E-05 1.29041E-03 1.59038E-15 1.52590E-13
 -1      1491 1.99990E+01-1.05410E-04 1.06011E-05 3.98845E-04 7.92328E-14 2.43496E-13
 -1      1492 1.99994E+01-1.14831E-04 9.79223E-06 3.35578E-04 1.12024E-13 4.58779E-13
 -1      1493 1.99988E+01-1.67684E-04 1.88584E-05 9.50393E-04 1.66757E-13-2.94632E-14
 -1      1494 1.99997E+01-7.24775E-05 1.42281E-05 3.38065E-05-3.90554E-13 3.99208E-13
 -1      1495 2.03683E+01 7.50887E-02-1.50387E-01 4.58177E-01 1.49353E-13 1.25658E-12
 -1      1496 2.15984E+01 2.15759E-01-2.28838E-01 6.93700E-01 1.21375E-13 1.47703E-12
 -1      1497 2.18051E+01 8.74902E-01-8.61829E-02 2.01228E+00 2.38830E-13 9.72333E-13
 -1      1498 1.94985E+01 3.23205E-02-2.06188E-02 1.63812E-01 1.13203E-13 9.72278E-13
 -1      1499 1.98868E+01 1.13082E-01-6.16841E-02 2.15491E-01 1.12691E-13 1.14847E-12
 -1      1500 2.04312E+01 1.85845E-01-5.47678E-02 7.40936E-01 2.20136E-13 7.83051E-13
 -1      1501 1.91725E+01 1.44716E-02 5.95738E-03 3.25158E-02 5.28995E-14 7.81146E-13
 -1      1502 1.92811E+01 5.14664E-02 1.59553E-03 5.86570E-02 6.44311E-14 8.85261E-13
 -1      1503 1.97356E+01 7.25900E-02-1.15079E-02 2.57454E-01 1.52692E-13 6.13808E-13
 -1      1504 1.91122E+01 6.04365E-03 7.09316E-03-2.73183E-02 6.14344E-14 6.31020E-13
 -1      1505 1.90996E+01 2.51058E-02 1.12696E-02-1.33230E-02 4.92629E-14 7.10855E-13
 -1      1506 1.94469E+01 3.02986E-02-2.28753E-03 4.54638E-02 1.08646E-13 4.60278E-13
 -1      1507 1.91763E+01 1.16494E-03 5.05727E-03-5.17046E-02 2.61319E-14 5.15197E-13
 -1      1508 1.91117E+01 1.16440E-02 8.34417E-03-4.47511E-02 3.69826E-14 5.72379E-13
 -1      1509 1.93700E+01 1.05961E-02-1.36357E-03-5.18010E-02 9.42714E-14 3.67654E-13
 -1      1510 1.92847E+01-2.62233E-03 4.06256E-03-5.36333E-02 3.58296E-14 4.46724E-13
 -1      1511 1.92064E+01 2.76521E-03 5.08561E-03-5.19096E-02 1.91558E-14 4.88430E-13
 -1      1512 1.93957E+01-7.42616E-04-7.69276E-04-8.73025E-02 5.39603E-14 2.87393E-13
 -1      1513 1.93816E+01-6.02476E-03 4.00099E-03-3.79594E-02 2.45231E-14 4.16305E-13
 -1      1514 1.93169E+01-4.40785E-03 3.20904E-03-4.08445E-02 1.28595E-14 4.24503E-13
 -1      1515 1.94554E+01-9.29430E-03 4.48571E-04-8.13137E-02 2.60769E-14 2.65657E-13
 -1      1516 1.94219E+01-9.19870E-03 4.42026E-03-6.62850E-03-1.67921E-15 3.44707E-13
 -1      1517 1.93937E+01-1.09626E-02 2.22983E-03-1.40036E-02 2.82266E-14 3.93898E-13
 -1      1518 1.95001E+01-1.68138E-02 2.10630E-03-4.18461E-02 4.38961E-14 2.46053E-13
 -1      1519 1.93666E+01-1.18589E-02 4.97132E-03 3.86678E-02 3.80368E-14 3.20607E-13
 -1      1520 1.93955E+01-1.69494E-02 1.73545E-03 2.69309E-02 1.19321E-14 3.40668E-13
 -1      1521 1.94902E+01-2.35718E-02 3.94806E-03 2.68691E-02 1.86335E-14 2.15616E-13
 -1      1522 1.91845E+01-1.33383E-02 5.27585E-03 9.45157E-02-8.52638E-15 2.66777E-13
 -1      1523 1.92873E+01-2.16591E-02 1.47331E-03 7.90578E-02 2.23181E-14 2.93365E-13
 -1      1524 1.93934E+01-2.87735E-02 5.68369E-03 1.19778E-01 3.97581E-14 1.53722E-13
 -1      1525 1.88585E+01-1.27067E-02 4.85653E-03 1.54141E-01 1.66620E-14 2.69685E-13
 -1      1526 1.90443E+01-2.37484E-02 1.23289E-03 1.36593E-01-3.53623E-15 2.65085E-13
 -1      1527 1.91872E+01-3.07363E-02 6.89239E-03 2.27426E-01 1.04335E-14 1.73483E-13
 -1      1528 1.83947E+01-9.09003E-03 3.22459E-03 2.06608E-01 3.15093E-14 2.04633E-13
 -1      1529 1.86595E+01-2.15853E-02 7.86700E-04 1.89872E-01 2.68776E-14 2.20995E-13
 -1      1530 1.88645E+01-2.72672E-02 7.05254E-03 3.33504E-01 5.32517E-14 1.21638E-13
 -1      1531 1.78313E+01-2.20418E-03 1.28414E-04 2.37803E-01 7.09898E-15 1.59829E-13
 -1      1532 1.81526E+01-1.39567E-02-6.72610E-05 2.25838E-01 3.95127E-15 1.78368E-13
 -1      1533 1.84410E+01-1.65319E-02 5.71617E-03 4.14745E-01 4.90797E-14 1.15795E-13
 -1      1534 1.72411E+01 7.09056E-03-4.12809E-03 2.33913E-01-1.41125E-14 1.81284E-13
 -1      1535 1.75767E+01-1.01976E-03-1.37749E-03 2.30803E-01 3.41567E-15 1.84477E-13
 -1      1536 1.79603E+01 1.63258E-03 2.78996E-03 4.44770E-01-1.37158E-14 1.15025E-13
 -1      1537 1.67232E+01 1.66204E-02-8.52973E-03 1.86956E-01-2.15093E-14 1.82368E-13
 -1      1538 1.70161E+01 1.49868E-02-2.90698E-03 1.95361E-01 4.20063E-15 1.75008E-13
 -1      1539 1.74923E+01 2.45128E-02-1.23358E-03 4.02287E-01-3.20577E-15 1.89341E-13
 -1      1540 1.63807E+01 2.34942E-02-1.16007E-02 1.00038E-01 5.29759E-14 7.13925E-14
 -1      1541 1.65722E+01 2.99557E-02-4.13240E-03 1.19696E-01 4.54276E-14 1.27374E-13
 -1      1542 1.71213E+01 4.63968E-02-5.32262E-03 2.81289E-01 8.50708E-14 1.19427E-14
 -1      1543 1.62910E+01 2.53562E-02-1.20594E-02-1.11168E-02 4.92618E-14-3.28660E-14
 -1      1544 1.63376E+01 3.93474E-02-4.45381E-03 1.61194E-02 4.14894E-14 9.24521E-15
 -1      1545 1.69250E+01 6.03384E-02-8.28654E-03 9.79293E-02 9.49327E-14-6.23499E-14
 -1      1546 1.64801E+01 2.15817E-02-9.53579E-03-1.22378E-01-1.17259E-14-1.14877E-13
 -1      1547 1.63680E+01 4.02327E-02-3.53540E-03-9.35973E-02 3.14939E-14-9.63604E-14
 -1      1548 1.69500E+01 6.12588E-02-9.32753E-03-1.11332E-01 7.24377E-14-1.46863E-13
 -1      1549 1.69139E+01 1.36273E-02-4.84209E-03-2.09791E-01 1.11538E-14 1.37911E-15
 -1      1550 1.66639E+01 3.27259E-02-1.55487E-03-1.85640E-01-2.72234E-14-6.92398E-14
 -1      1551 1.71966E+01 4.86212E-02-8.40300E-03-3.01279E-01-3.41654E-14-1.29569E-13
 -1      1552 1.75108E+01 4.22977E-03 4.23682E-04-2.58098E-01 5.87095E-15-8.38669E-14
 -1      1553 1.71701E+01 1.98229E-02 8.43016E-04-2.42702E-01 2.23281E-14-9.18016E-15
 -1      1554 1.76195E+01 2.68379E-02-6.15553E-03-4.34070E-01-4.04104E-15-7.72238E-14
 -1      1555 1.81692E+01-3.93195E-03 4.71341E-03-2.64690E-01 1.12008E-14-3.64951E-14
 -1      1556 1.77961E+01 5.78738E-03 2.87967E-03-2.59099E-01-1.53298E-14-7.43537E-14
 -1      1557 1.81431E+01 2.99338E-03-3.49292E-03-4.91431E-01-2.60768E-14-1.35796E-13
 -1      1558 1.87966E+01-9.25721E-03 7.14532E-03-2.37753E-01 6.33722E-14-9.04502E-14
 -1      1559 1.84435E+01-5.76377E-03 4.02766E-03-2.40366E-01 6.33998E-15-2.54623E-14
 -1      1560 1.86860E+01-1.65150E-02-1.16816E-03-4.77234E-01 5.00403E-15-5.44790E-14
 -1      1561 1.93288E+01-1.14543E-02 7.66684E-03-1.90903E-01-5.52661E-15-2.34382E-13
 -1      1562 1.90314E+01-1.29770E-02 4.17480E-03-1.98736E-01 4.33436E-14-1.59234E-13
 -1      1563 1.91810E+01-2.82436E-02 4.32580E-04-4.11112E-01 8.18182E-14-2.30671E-13
 -1      1564 1.97350E+01-1.11607E-02 6.79332E-03-1.37679E-01-5.61153E-14-7.99569E-14
 -1      1565 1.95100E+01-1.57843E-02 3.55944E-03-1.47663E-01-8.46059E-14-2.20643E-13
 -1      1566 1.95861E+01-3.20127E-02 1.27288E-03-3.18362E-01-5.67363E-14-2.28816E-13
 -1      1567 2.00132E+01-9.37085E-03 5.21597E-03-8.81180E-02-2.84954E-14-7.08721E-15
 -1      1568 1.98608E+01-1.52385E-02 2.56640E-03-9.79127E-02-1.10792E-14-6.10016E-15
 -1      1569 1.98855E+01-2.97866E-02 1.52050E-03-2.21427E-01-7.54800E-14-1.03764E-13
 -1      1570 2.01801E+01-7.00030E-03 3.51508E-03-4.77748E-02-1.33313E-14 7.08645E-15
 -1      1571 2.00902E+01-1.27412E-02 1.54128E-03-5.60151E-02-3.22357E-14-2.58977E-14
 -1      1572 2.00834E+01-2.42136E-02 1.40211E-03-1.35507E-01-2.87921E-14-1.57127E-13
 -1      1573 2.02609E+01-4.68384E-03 2.04553E-03-1.83937E-02 4.74431E-14-1.33506E-13
 -1      1574 2.02186E+01-9.51464E-03 6.98924E-04-2.45606E-02 3.21323E-14-4.40483E-14
 -1      1575 2.01961E+01-1.75893E-02 1.11369E-03-6.80425E-02 7.42943E-14-1.55036E-13
 -1      1576 2.02816E+01-2.75742E-03 9.50867E-04 7.69648E-04-1.28303E-13-3.52385E-14
 -1      1577 2.02722E+01-6.38407E-03 1.19111E-04-3.37140E-03-8.71347E-14-1.39365E-13
 -1      1578 2.02447E+01-1.14256E-02 7.87755E-04-2.04389E-02-7.63103E-14-1.33910E-13
 -1      1579 2.02651E+01-1.33014E-03 2.32826E-04 1.16791E-02 2.72400E-15-8.14062E-15
 -1      1580 2.02756E+01-3.78032E-03-2.11933E-04 9.22412E-03 4.19117E-14 7.41388E-14
 -1      1581 2.02498E+01-6.46373E-03 4.96287E-04 9.55271E-03-7.13661E-14-9.51130E-14
 -1      1582 2.02289E+01-3.74983E-04-1.77247E-04 1.66072E-02-6.35064E-14-1.56364E-15
 -1      1583 2.02496E+01-1.84192E-03-3.52698E-04 1.54056E-02-5.83601E-14-1.43958E-13
 -1      1584 2.02286E+01-2.88729E-03 2.67834E-04 2.57771E-02 2.37822E-14 7.80626E-18
 -1      1585 2.01853E+01 1.97267E-04-3.67569E-04 1.76157E-02 1.67630E-14 1.19712E-13
 -1      1586 2.02096E+01-5.33211E-04-3.70443E-04 1.72585E-02 7.39499E-15 3.22702E-15
 -1      1587 2.01944E+01-5.61558E-04 1.05380E-04 3.22875E-02-7.85288E-15-1.87706E-14
 -1      1588 2.01420E+01 4.90473E-04-4.18334E-04 1.63355E-02 9.71697E-14 8.15710E-15
 -1      1589 2.01656E+01 2.61700E-04-3.21981E-04 1.64904E-02 6.10899E-14 1.25256E-13
 -1      1590 2.01559E+01 7.80834E-04-2.17474E-07 3.26028E-02 6.08212E-14 7.27825E-14
 -1      1591 2.01032E+01 5.98160E-04-3.91123E-04 1.39336E-02-3.35222E-14-6.95247E-14
 -1      1592 2.01241E+01 6.78468E-04-2.47381E-04 1.43569E-02 3.68765E-14-2.13289E-14
 -1      1593 2.01189E+01 1.42528E-03-6.20055E-05 2.94305E-02 5.32738E-14 7.50296E-14
 -1      1594 2.00709E+01 5.93872E-04-3.27990E-04 1.11726E-02-2.94614E-14 6.21510E-14
 -1      1595 2.00881E+01 8.40397E-04-1.70924E-04 1.17008E-02-7.70469E-14 3.42705E-15
 -1      1596 2.00864E+01 1.61828E-03-9.26735E-05 2.46661E-02-9.92833E-14 4.60107E-14
 -1      1597 2.00455E+01 5.30193E-04-2.54824E-04 8.50360E-03 2.63961E-13-3.21905E-13
 -1      1598 2.00588E+01 8.45601E-04-1.04910E-04 9.03652E-03 1.91159E-13-2.29149E-14
 -1      1599 2.00595E+01 1.54817E-03-1.02785E-04 1.95223E-02 2.37577E-13-7.10511E-14
 -1      1600 2.00264E+01 4.41786E-04-1.85794E-04 6.15831E-03-1.65607E-13-3.70353E-13
 -1      1601 2.00362E+01 7.65246E-04-5.37940E-05 6.64139E-03-6.58284E-15-4.38402E-13
 -1      1602 2.00384E+01 1.34628E-03-1.00363E-04 1.46970E-02 1.36581E-13-9.49496E-14
 -1      1603 2.00127E+01 3.49642E-04-1.27375E-04 4.22560E-03-2.15712E-13 8.47928E-14
 -1      1604 2.00197E+01 6.47069E-04-1.75561E-05 4.63475E-03-2.64447E-13-3.13440E-13
 -1      1605 2.00226E+01 1.09693E-03-9.11098E-05 1.05317E-02-3.39223E-13 8.35882E-15
 -1      1606 2.00035E+01 2.65148E-04-8.14317E-05 2.70934E-03 1.09487E-13 1.30567E-13
 -1      1607 2.00081E+01 5.20633E-04 5.95736E-06 3.03926E-03 2.03188E-14 1.63814E-13
 -1      1608 2.00113E+01 8.49504E-04-7.88418E-05 7.14012E-03-4.34679E-14 2.24090E-14
 -1      1609 1.99977E+01 1.93400E-04-4.73469E-05 1.56839E-03 7.71183E-14 1.48064E-13
 -1      1610 2.00005E+01 4.02494E-04 1.95940E-05 1.82429E-03 5.36189E-14 2.38737E-13
 -1      1611 2.00036E+01 6.29458E-04-6.59590E-05 4.50279E-03 4.85470E-14 2.73879E-13
 -1      1612 1.99945E+01 1.35645E-04-2.33748E-05 7.42647E-04 5.40261E-14-9.20523E-14
 -1      1613 1.99959E+01 3.00503E-04 2.61158E-05 9.34696E-04 8.93366E-14 2.94432E-14
 -1      1614 1.99988E+01 4.46921E-04-5.38460E-05 2.53263E-03 1.85421E-13 3.63398E-13
 -1      1615 1.99931E+01 9.09526E-05-7.42674E-06 1.68754E-04-7.60709E-14-1.00416E-13
 -1      1616 1.99936E+01 2.17023E-04 2.78475E-05 3.08620E-04-4.14980E-14-1.51596E-13
 -1      1617 1.99961E+01 3.02942E-04-4.31876E-05 1.11647E-03 1.71320E-14 2.26209E-13
 -1      1618 1.99930E+01 5.72859E-05 2.52507E-06-2.11118E-04-1.30614E-14-1.24921E-13
 -1      1619 1.99929E+01 1.51178E-04 2.65759E-05-1.12313E-04-5.59874E-14-2.13780E-13
 -1      1620 1.99949E+01 1.93662E-04-3.41951E-05 1.40155E-04 1.24708E-14 1.02569E-13
 -1      1621 1.99937E+01 3.21017E-05 8.33536E-06-4.44837E-04 2.57700E-13-4.65596E-13
 -1      1622 1.99932E+01 1.00279E-04 2.35960E-05-3.77664E-04 2.75520E-13-1.45810E-13
 -1      1623 1.99947E+01 1.12886E-04-2.67463E-05-4.97681E-04 3.07901E-13-6.42825E-14
 -1      1624 1.99949E+01 1.25078E-05 1.18988E-05-5.68135E-04-1.65644E-13-4.75364E-13
 -1      1625 1.99941E+01 6.04993E-05 1.99104E-05-5.25632E-04-3.00288E-14-6.00015E-13
 -1      1626 1.99953E+01 5.34377E-05-2.03469E-05-8.78620E-04 9.52631E-14-7.06945E-14
 -1      1627 1.99963E+01-4.45347E-06 1.54064E-05-6.03149E-04 2.60445E-14-4.33384E-13
 -1      1628 1.99954E+01 2.72125E-05 1.65677E-05-5.81448E-04 4.39759E-14-4.87082E-13
 -1      1629 1.99962E+01 7.48538E-06-1.39825E-05-1.06062E-03 6.09128E-15-2.52812E-13
 -1      1630 1.99977E+01-2.21408E-05 2.09892E-05-5.58164E-04 1.00031E-13-7.95098E-13
 -1      1631 1.99968E+01-4.84852E-06 1.48564E-05-5.57065E-04 2.24772E-14-6.30764E-13
 -1      1632 1.99972E+01-3.31800E-05-6.18036E-06-1.07642E-03 1.47485E-13-1.42332E-13
 -1      1633 1.99988E+01-4.45656E-05 2.73844E-05-4.24928E-04 1.19052E-14-8.66883E-13
 -1      1634 1.99982E+01-4.25088E-05 1.55381E-05-4.50580E-04 5.24555E-14-8.09903E-13
 -1      1635 1.99983E+01-7.86618E-05 4.14345E-06-9.32566E-04 1.33678E-13-2.85909E-13
 -1      1636 1.99996E+01-7.52133E-05 1.30950E-05-2.00141E-04-4.64281E-14-7.62021E-13
 -1      1637 1.99992E+01-8.52371E-05 1.54598E-05-2.52388E-04-1.41465E-15-8.38541E-13
 -1      1638 1.99991E+01-1.41142E-04 1.39977E-05-6.16389E-04 9.40472E-14-1.96792E-13
 -1      1639 1.99997E+01-7.71740E-05 1.20412E-05-3.96930E-05-4.47038E-13-4.93169E-13
 -1      1640 1.99997E+01-7.82828E-04 1.14593E-05-3.69283E-04-2.94066E-14 3.76096E-13
 -1      1641 1.99997E+01-3.95202E-04 3.68945E-06-3.08831E-04-4.32741E-13 2.32238E-13
 -1      1642 1.99998E+01-1.78472E-03 1.53698E-06-5.22808E-04 5.55871E-13 3.58447E-13
 -1      1643 1.99997E+01-1.17171E-03 6.88580E-06-5.02903E-04 1.66727E-13 2.76297E-13
 -1      1644 1.99997E+01-9.61253E-04 1.21623E-05-8.33076E-04 3.07671E-14 5.13897E-13
 -1      1645 1.99998E+01-2.91682E-03-3.66939E-06-5.60200E-04 5.40494E-13-6.10768E-14
 -1      1646 1.99998E+01-2.23660E-03 1.62149E-06-5.62213E-04 5.94749E-13 6.34580E-14
 -1      1647 1.99998E+01-1.78768E-03 3.61371E-06-1.03654E-03 3.58439E-13 1.37303E-13
 -1      1648 1.99998E+01-4.00945E-03-4.79871E-06-5.16686E-04 5.29575E-13 1.62928E-14
 -1      1649 1.99998E+01-3.37051E-03-1.03260E-06-5.31629E-04 4.22056E-13 2.64990E-13
 -1      1650 1.99998E+01-2.67405E-03-4.25734E-06-1.04562E-03 4.17354E-13-5.52486E-14
 -1      1651 1.99998E+01-4.92973E-03-4.11247E-06-4.25039E-04 1.51534E-13 8.56110E-15
 -1      1652 1.99998E+01-4.40551E-03-1.19030E-06-4.46378E-04 3.32195E-13-2.36547E-13
 -1      1653 1.99999E+01-3.50374E-03-9.49751E-06-9.24303E-04 1.44630E-13-2.42582E-13
 -1      1654 1.99999E+01-5.63585E-03-2.89389E-06-3.03056E-04 3.09445E-13 8.49909E-14
 -1      1655 1.99998E+01-5.24913E-03-1.03293E-06-3.28626E-04 1.95390E-13 7.16790E-14
 -1      1656 1.99999E+01-4.20007E-03-1.19575E-05-7.24530E-04 2.37080E-14 1.38355E-13
 -1      1657 1.99999E+01-6.06433E-03-1.84294E-06-1.64123E-04 4.71708E-13 9.94079E-14
 -1      1658 1.99999E+01-5.84712E-03-8.44880E-07-1.91924E-04 4.53154E-13 2.78241E-13
 -1      1659 1.99999E+01-4.71539E-03-1.34873E-05-4.76448E-04 1.64429E-13 2.50154E-13
 -1      1660 1.99999E+01-6.18818E-03-1.28513E-06-1.43152E-05 1.10095E-12 4.21583E-13
 -1      1661 1.99999E+01-6.15450E-03-1.21925E-06-4.38018E-05 4.98622E-13 2.81157E-13
 -1      1662 1.99999E+01-5.00914E-03-1.45203E-05-2.00318E-04 2.83112E-13 2.57096E-13
 -1      1663 1.99999E+01-5.99067E-03-1.24738E-06 1.42275E-04 8.67372E-13-2.24419E-13
 -1      1664 1.99999E+01-6.14887E-03-2.17108E-06 1.11636E-04 9.89882E-13 1.27419E-13
 -1      1665 1.99999E+01-5.06043E-03-1.53336E-05 9.35373E-05 2.96254E-13 2.80262E-13
 -1      1666 1.99999E+01-5.46852E-03-1.61490E-06 2.99331E-04 4.38171E-13-2.57458E-13
 -1      1667 1.99999E+01-5.81883E-03-3.63744E-06 2.68852E-04 8.74087E-13-3.05720E-13
 -1      1668 1.99999E+01-4.85776E-03-1.56940E-05 3.95326E-04 1.35391E-13-3.23232E-13
 -1      1669 1.99998E+01-4.65722E-03-2.07287E-06 4.42208E-04 3.38016E-13 6.64720E-14
 -1      1670 1.99999E+01-5.17524E-03-5.01667E-06 4.15421E-04 3.84486E-13-7.09309E-14
 -1      1671 1.99999E+01-4.40697E-03-1.50713E-05 6.85760E-04 1.05628E-13-3.44230E-13
 -1      1672 1.99998E+01-3.58687E-03-1.46953E-06 5.54457E-04 1.48831E-13-2.34265E-13
 -1      1673 1.99998E+01-4.25089E-03-5.65072E-06 5.34692E-04 1.19091E-13 2.06243E-13
 -1      1674 1.99999E+01-3.72792E-03-1.23592E-05 9.36664E-04 1.00124E-13 2.29622E-14
 -1      1675 1.99998E+01-2.38704E-03 1.59609E-06 6.01637E-04-1.35812E-13-1.08609E-13
 -1      1676 1.99998E+01-3.11040E-03-3.94731E-06 5.97321E-04-4.51436E-14-4.19384E-14
 -1      1677 1.99998E+01-2.86570E-03-6.34545E-06 1.10198E-03-1.10918E-13-2.09229E-13
 -1      1678 1.99997E+01-1.24534E-03 7.16659E-06 5.36641E-04 8.32481E-15-8.94919E-14
 -1      1679 1.99998E+01-1.89902E-03 2.52151E-06 5.62853E-04-2.95935E-14-6.34210E-14
 -1      1680 1.99998E+01-1.91628E-03 4.65274E-06 1.11601E-03-1.41487E-13-3.43769E-15
 -1      1681-5.28777E-01-1.53646E+01-1.64234E+00-3.34176E-01 1.49902E-12 3.92880E-13
 -1      1682-6.44709E-01-1.87648E+01-1.97866E+00 1.04671E+00 1.21808E-12 3.32373E-13
 -1      1683 2.30698E+00-6.89731E+00-1.00578E+00 1.80787E+00 1.61648E-12 7.88952E-13
 -1      1684 1.16296E+00-1.30322E+01-1.60965E+00 8.19583E-01 1.45373E-12 5.16767E-13
 -1      1685 8.05345E+00 1.15140E+00-4.08004E-01 5.84922E+00 1.54565E-12 9.88210E-13
 -1      1686 4.69471E+00-4.43500E+00-1.17870E+00 2.75090E+00 1.70064E-12 8.50209E-13
 -1      1687 2.04997E+01 5.85071E+00 3.93141E-01 1.12061E+01 9.98202E-13 9.63007E-13
 -1      1688 1.32968E+01 2.45392E+00-4.91810E-01 7.34345E+00 1.23435E-12 9.08384E-13
 -1      1689 3.51878E+01 7.74948E+00 1.14696E+00 1.42844E+01 6.41154E-13 5.33129E-13
 -1      1690 2.53388E+01 7.78466E+00 2.80284E-01 1.23769E+01 9.80660E-13 8.54206E-13
 -1      1691 4.89779E+01 5.57279E+00 1.49000E+00 1.12468E+01 2.93710E-13 5.18474E-14
 -1      1692 4.03724E+01 7.51124E+00 9.68900E-01 1.32601E+01 5.16309E-13 4.12115E-13
 -1      1693 5.62836E+01 4.29581E+00 1.64793E+00 3.41348E+00 2.13329E-13-3.64819E-13
 -1      1694 5.15792E+01 5.62960E+00 1.35794E+00 8.53355E+00 2.26930E-13-3.44169E-14
 -1      1695 5.74355E+01 4.24537E+00 1.75799E+00-5.14486E+00 3.87745E-13-1.00620E-12
 -1      1696 5.88099E+01 3.73943E+00 1.79616E+00 9.84166E-01 2.74697E-13-5.80896E-13
 -1      1697 4.68706E+01 6.50375E+00 1.20534E+00-1.14353E+01 7.40061E-13-1.46860E-12
 -1      1698 5.45038E+01 4.63001E+00 1.74405E+00-7.50164E+00 4.82087E-13-1.16473E-12
 -1      1699 3.24890E+01 7.16965E+00 5.32752E-01-1.22398E+01 1.19971E-12-1.64913E-12
 -1      1700 4.20360E+01 6.17804E+00 1.22542E+00-1.23012E+01 8.64947E-13-1.58407E-12
 -1      1701 1.85439E+01 6.01772E+00-1.22579E-01-1.01072E+01 1.67666E-12-1.66711E-12
 -1      1702 2.67656E+01 7.43267E+00 6.99837E-01-1.31120E+01 1.42775E-12-1.82410E-12
 -1      1703 8.91749E+00-1.62792E+00-8.24290E-01-4.90796E+00 1.64468E-12-1.21125E-12
 -1      1704 1.46308E+01 3.43731E+00 5.13429E-02-8.87410E+00 1.63380E-12-1.46572E-12
 -1      1705 2.29125E+00-9.82322E+00-1.45606E+00-1.14671E+00 1.29685E-12-8.13294E-13
 -1      1706 4.21107E+00-3.49444E+00-7.59238E-01-3.14619E+00 1.69353E-12-1.17373E-12
 -1      1707 5.03124E-03-1.65341E+01-1.71979E+00-9.17055E-01 2.49578E-13-5.11285E-13
 -1      1708 4.00794E-01-1.17538E+01-1.28965E+00-4.34105E-01 9.90763E-13-6.98760E-13
 -1      1709-1.14823E+00-1.92551E+01-1.98476E+00-1.99487E+00-7.60027E-13-4.07119E-13
 -1      1710-9.49864E-01-1.84881E+01-1.86013E+00 1.52150E-02-5.72875E-14-3.87135E-13
 -1      1711-7.84174E-01-1.49464E+01-1.76209E+00-2.24462E+00-1.46883E-12-8.17429E-13
 -1      1712-6.50080E-01-1.81970E+01-1.93002E+00-1.31667E+00-9.64978E-13-4.70235E-13
 -1      1713 1.98131E+00-7.81310E+00-1.52788E+00-1.79838E-01-1.88916E-12-1.20320E-12
 -1      1714 7.04912E-01-1.36584E+01-2.01016E+00-1.61847E+00-1.68066E-12-8.92203E-13
 -1      1715 1.08898E+01-1.01668E-01-8.27804E-01 5.35932E+00-1.67910E-12-1.41720E-12
 -1      1716 5.68995E+00-5.70613E+00-1.71903E+00 1.37866E+00-1.84963E-12-1.27676E-12
 -1      1717 2.68545E+01 4.23981E+00 3.01792E-01 1.07962E+01-1.14397E-12-1.24656E-12
 -1      1718 1.68923E+01 1.39208E+00-9.47795E-01 6.67000E+00-1.54254E-12-1.32672E-12
 -1      1719 4.71285E+01 4.88503E+00 1.78734E+00 1.21595E+01-6.53033E-13-7.05214E-13
 -1      1720 3.40464E+01 5.16571E+00 3.70318E-01 1.10117E+01-9.75664E-13-1.12710E-12
 -1      1721 6.32848E+01 3.89091E+00 3.02641E+00 6.94741E+00-2.19935E-13-6.60583E-14
 -1      1722 5.30273E+01 5.34512E+00 1.92799E+00 1.04174E+01-4.35180E-13-5.34017E-13
 -1      1723 6.83840E+01 4.02891E+00 3.46625E+00-2.10967E+00-3.09308E-13 5.90611E-13
 -1      1724 6.63987E+01 4.37053E+00 3.22506E+00 5.00133E+00-2.41696E-13 1.35114E-13
 -1      1725 5.87789E+01 5.06296E+00 2.51189E+00-9.50133E+00-5.53307E-13 1.10401E-12
 -1      1726 6.72101E+01 3.70522E+00 3.42615E+00-4.45802E+00-3.85691E-13 7.09321E-13
 -1      1727 4.06487E+01 5.45308E+00 8.94211E-01-1.13827E+01-9.38805E-13 1.54632E-12
 -1      1728 5.35379E+01 4.57382E+00 2.34633E+00-1.10165E+01-6.62692E-13 1.36979E-12
 -1      1729 2.25722E+01 3.04687E+00-5.26205E-01-8.40764E+00-1.09779E-12 1.54388E-12
 -1      1730 3.37927E+01 4.76977E+00 8.21175E-01-1.17831E+01-1.01241E-12 1.71507E-12
 -1      1731 9.81793E+00-3.42670E+00-1.43542E+00-3.18352E+00-9.85656E-13 9.27258E-13
 -1      1732 1.67779E+01 1.25934E+00-4.30280E-01-7.38717E+00-1.01408E-12 1.31384E-12
 -1      1733 2.16614E+00-1.09217E+01-1.92985E+00 8.05004E-01-7.61835E-13 6.85452E-13
 -1      1734 4.71745E+00-4.96496E+00-1.28268E+00-1.69226E+00-9.77440E-13 9.25371E-13
 -1      1735-4.77394E-01-1.73297E+01-2.05953E+00 1.86815E+00-1.65645E-13 2.86576E-13
 -1      1736-3.05166E-01-1.27803E+01-1.74915E+00 2.04726E+00-6.61804E-13 4.80657E-13
 -1      1737-9.43952E-01-1.93487E+01-1.99237E+00 7.09177E-01 1.00595E-12 4.80060E-13
 -1      1738-1.25694E+00-1.85402E+01-1.99255E+00 2.53095E+00 1.53155E-13 5.02876E-13
 -1      1739 1.99996E+01-2.33892E-04 1.84642E-05 3.51558E-04-1.79602E-13-1.73249E-13
 -1      1740 7.15439E+00-6.51333E+00-7.31466E-01 5.82143E+00 9.30478E-13 4.58938E-13
 -1      1741 1.99997E+01-1.75164E-04 1.98929E-05-2.03797E-04-4.77840E-13-1.17696E-13
 -1      1742 1.99995E+01-3.84397E-04 1.10355E-05-5.32452E-04-1.87419E-13 1.49546E-13
 -1      1743-1.74054E+00-1.32728E+01-1.43725E+00 1.60738E+00 5.92165E-13 7.19980E-13
 -1      1744 1.13065E+00-1.04788E+01-1.10055E+00 3.78730E+00 8.57425E-13 3.92603E-13
 -1      1745 1.99997E+01-4.21007E-04 2.83420E-06 3.28500E-04-5.50959E-13-5.76688E-13
 -1      1746 1.99997E+01-8.23844E-04 1.31801E-05 3.97065E-04-7.94593E-15-5.69763E-13
 -1      1747 1.99997E+01-1.03437E-03 1.29340E-05 9.01919E-04-2.71392E-13-4.82123E-13
 -1      1748 1.64603E+01-2.13723E+00-1.65711E-01 7.73057E+00 8.58980E-13 4.13669E-13
 -1      1749 2.70837E+01 1.87550E+00 3.23978E-01 8.42531E+00 7.04492E-13 2.91211E-13
 -1      1750 3.77606E+01 5.63491E+00 9.92021E-01 8.10122E+00 5.93303E-13 1.69531E-13
 -1      1751 4.49407E+01 7.41405E+00 1.21810E+00 4.74363E+00 4.12059E-13-7.46070E-14
 -1      1752 4.89855E+01 8.12007E+00 1.37140E+00 7.53022E-01 4.69624E-13-2.77445E-13
 -1      1753 4.87468E+01 7.75259E+00 1.47568E+00-3.00216E+00 5.74152E-13-5.77094E-13
 -1      1754 4.15280E+01 6.08743E+00 1.02091E+00-5.52342E+00 6.77181E-13-7.43960E-13
 -1      1755 3.24331E+01 3.63429E+00 6.81653E-01-7.92081E+00 8.37774E-13-9.02056E-13
 -1      1756 2.17656E+01-4.96810E-01 4.99931E-02-8.06459E+00 9.29701E-13-9.33031E-13
 -1      1757 1.17823E+01-4.92439E+00-4.32013E-01-6.97536E+00 8.06688E-13-9.30034E-13
 -1      1758 3.37991E+00-8.96957E+00-9.54289E-01-4.73636E+00 4.99711E-13-9.91041E-13
 -1      1759-9.15420E-01-1.18301E+01-1.19748E+00-2.58153E+00 9.43134E-14-8.79574E-13
 -1      1760-1.50215E+00-1.27950E+01-1.36145E+00-9.67116E-02-4.39065E-13-7.37077E-13
 -1      1761 1.68217E+00-1.11547E+01-1.32681E+00 1.82508E+00-7.15983E-13-8.32834E-13
 -1      1762 8.86402E+00-7.98689E+00-1.11379E+00 3.88722E+00-9.59899E-13-7.43738E-13
 -1      1763 2.05690E+01-3.94300E+00-4.97019E-01 5.65786E+00-9.28591E-13-5.85532E-13
 -1      1764 3.47925E+01-1.21308E-02 4.58068E-01 5.75137E+00-8.03468E-13-4.23217E-13
 -1      1765 4.77019E+01 3.93058E+00 1.61339E+00 3.58178E+00-6.72420E-13-2.10498E-13
 -1      1766 5.53090E+01 7.21021E+00 2.42945E+00 1.08352E+00-3.97349E-13 1.60760E-13
 -1      1767 5.70713E+01 7.69590E+00 2.65407E+00-6.33865E-01-5.49560E-13 3.78031E-13
 -1      1768 5.13501E+01 4.91805E+00 1.94168E+00-3.00935E+00-6.73184E-13 6.06626E-13
 -1      1769 3.95902E+01 1.14829E+00 7.72927E-01-4.94921E+00-6.80123E-13 9.78995E-13
 -1      1770 2.59229E+01-3.11940E+00-2.48434E-01-5.55495E+00-3.98681E-13 9.92095E-13
 -1      1771 1.36082E+01-6.89541E+00-8.46150E-01-4.80387E+00-3.31291E-13 5.95357E-13
 -1      1772 4.00621E+00-1.02140E+01-1.25576E+00-2.65368E+00-1.57097E-13 6.09429E-13
 -1      1773-9.44096E-01-1.27238E+01-1.44541E+00-3.43401E-01 1.48659E-13 6.77680E-13
 -1      1774 2.29698E+01 1.99709E+00-2.77900E-02-2.70765E+00-2.06737E-13 7.32553E-13
 -1      1775 1.98912E+01 3.75251E+00-3.57395E-02-2.01341E+00-2.64529E-13-3.21836E-13
 -1      1776 2.01470E+01 3.58772E+00-4.06688E-02-2.30012E+00-2.99176E-13-2.40183E-13
 -1      1777 2.04781E+01 3.18757E+00-4.51991E-02-2.45289E+00-3.03212E-13-1.38202E-13
 -1      1778 2.07046E+01 2.81531E+00-1.36334E-01-2.73815E+00-3.20605E-13 7.67442E-15
 -1      1779 2.05409E+01 2.71478E+00-2.26268E-03-2.07122E+00-3.18404E-13-1.73892E-13
 -1      1780 1.93004E+01 4.26994E+00-2.04863E-02-1.16942E+00-1.46161E-13-4.59114E-13
 -1      1781 1.94034E+01 4.22679E+00-1.60640E-02-1.37901E+00-1.69304E-13-4.41421E-13
 -1      1782 1.91573E+01 4.38498E+00-1.65134E-02-7.99275E-01-8.64957E-14-4.57929E-13
 -1      1783 1.92210E+01 4.36040E+00-1.35084E-02-9.90725E-01-1.15072E-13-4.64335E-13
 -1      1784 1.94445E+01 3.90041E+00-7.77728E-03-1.02446E+00-1.48738E-13-4.43623E-13
 -1      1785 1.90819E+01 4.44388E+00-1.39870E-02-4.51199E-01-1.55193E-14-4.32390E-13
 -1      1786 1.91128E+01 4.43284E+00-1.27555E-02-6.31051E-01-4.63376E-14-4.43454E-13
 -1      1787 1.93038E+01 4.02762E+00-7.73003E-03-6.85325E-01-6.42867E-14-4.31244E-13
 -1      1788 1.90621E+01 4.45927E+00-1.25031E-02-1.10220E-01 4.81187E-14-4.25571E-13
 -1      1789 1.90657E+01 4.45875E+00-1.29006E-02-2.86852E-01 1.71013E-14-4.31377E-13
 -1      1790 1.92356E+01 4.08486E+00-7.93566E-03-3.58814E-01 9.54613E-16-4.17714E-13
 -1      1791 1.90896E+01 4.43851E+00-1.18733E-02 2.36729E-01 9.48492E-14-4.23295E-13
 -1      1792 1.90698E+01 4.44702E+00-1.36277E-02 5.64001E-02 7.15144E-14-4.27868E-13
 -1      1793 1.92278E+01 4.08665E+00-8.29181E-03-3.27432E-02 6.10291E-14-4.10443E-13
 -1      1794 1.91600E+01 4.38413E+00-1.21122E-02 6.00468E-01 1.45099E-13-4.02955E-13
 -1      1795 1.91185E+01 4.40175E+00-1.49267E-02 4.10475E-01 1.21319E-13-4.18502E-13
 -1      1796 1.92719E+01 4.04084E+00-8.72051E-03 3.03292E-01 1.13540E-13-4.08716E-13
 -1      1797 1.92730E+01 4.29487E+00-1.34058E-02 9.83470E-01 2.03595E-13-3.58710E-13
 -1      1798 1.92090E+01 4.32256E+00-1.70771E-02 7.81722E-01 1.73656E-13-3.80383E-13
 -1      1799 1.93636E+01 3.94963E+00-9.03736E-03 6.53829E-01 1.71738E-13-3.79360E-13
 -1      1800 1.94458E+01 4.15412E+00-1.66819E-02 1.40762E+00 2.61100E-13-2.96263E-13
 -1      1801 1.93487E+01 4.19932E+00-2.06894E-02 1.18037E+00 2.32169E-13-3.32900E-13
 -1      1802 1.95075E+01 3.80450E+00-9.32995E-03 1.02647E+00 2.32893E-13-3.27224E-13
 -1      1803 1.97118E+01 3.92682E+00-2.47743E-02 1.87424E+00 3.13808E-13-1.83468E-13
 -1      1804 1.95614E+01 4.00601E+00-2.71210E-02 1.61581E+00 2.83690E-13-2.49370E-13
 -1      1805 1.97246E+01 3.58022E+00-9.03593E-03 1.42373E+00 2.82782E-13-2.52076E-13
 -1      1806 2.01518E+01 3.51965E+00-4.37173E-02 2.37827E+00 3.50995E-13 2.78944E-15
 -1      1807 1.99016E+01 3.68335E+00-3.80722E-02 2.07993E+00 3.27478E-13-1.09492E-13
 -1      1808 2.00570E+01 3.22316E+00-6.74996E-03 1.82482E+00 3.36531E-13-1.25415E-13
 -1      1809 2.10034E+01 2.66046E+00-6.14144E-02 2.77164E+00 3.33802E-13 3.44925E-13
 -1      1810 2.04944E+01 3.09345E+00-4.95595E-02 2.52255E+00 3.39427E-13 1.42553E-13
 -1      1811 2.05792E+01 2.60277E+00-1.00468E-03 2.14158E+00 3.55885E-13 8.40161E-14
 -1      1812 2.18090E+01 1.20413E+00-1.22731E-01 2.26397E+00 2.81573E-13 7.55354E-13
 -1      1813 2.13619E+01 2.26297E+00 3.27824E-03 2.66582E+00 3.03769E-13 4.93480E-13
 -1      1814 2.10548E+01 1.68102E+00-1.31808E-02 2.06286E+00 3.41206E-13 3.45814E-13
 -1      1815 2.10621E+01 7.73752E-01-5.95409E-02 1.46106E+00 2.95881E-13 6.62170E-13
 -1      1816 2.19202E+01 2.47761E+00 9.11086E-02-2.98470E+00-2.78836E-13 2.66898E-13
 -1      1817 2.02509E+01 2.93795E-01-7.75108E-03 6.00928E-01 2.34607E-13 5.33627E-13
 -1      1818 2.07680E+01 4.34899E-01-1.44823E-02 9.74766E-01 2.55150E-13 6.15574E-13
 -1      1819 2.08642E+01 8.44557E-01 6.59986E-03 1.33697E+00 2.89220E-13 4.38703E-13
 -1      1820 2.07464E+01 5.43517E-01 3.16159E-02-8.27681E-01-2.69090E-13 1.27766E-13
 -1      1821 2.03626E+01 3.95660E-01 1.04170E-02-5.07861E-01-2.32394E-13 5.97890E-14
 -1      1822 2.02044E+01 3.04752E-01 2.83120E-02-2.35400E-01-2.16056E-13 4.70188E-14
 -1      1823 2.00819E+01 2.37000E-01 1.55202E-02-6.55338E-02-1.91904E-13-1.74470E-14
 -1      1824 2.04502E+01 5.53573E-01-7.45041E-03-5.44242E-01-2.65362E-13-4.70253E-14
 -1      1825 2.00101E+01 2.03510E-01 1.81794E-02 1.08045E-01-1.59071E-13-3.00628E-14
 -1      1826 2.00300E+01 1.80734E-01 1.42549E-02 2.19506E-01-1.48213E-13-7.81480E-14
 -1      1827 2.02135E+01 3.42161E-01-7.62781E-03-3.51876E-02-2.09484E-13-9.16355E-14
 -1      1828 2.00267E+01 1.70140E-01 1.02927E-02 3.63636E-01-1.32512E-13-8.31397E-14
 -1      1829 2.01572E+01 1.73592E-01 1.43466E-02 4.67675E-01-9.01406E-14-1.14802E-13
 -1      1830 2.01448E+01 2.70895E-01-5.97114E-03 3.23642E-01-1.56721E-13-1.06978E-13
 -1      1831 2.02140E+01 1.82554E-01 5.94496E-03 6.06309E-01-6.13763E-14-1.30906E-13
 -1      1832 2.04463E+01 2.06409E-01 1.67165E-02 7.22598E-01-4.21113E-14-1.43712E-13
 -1      1833 2.02090E+01 2.73023E-01-4.79452E-03 6.40272E-01-9.29964E-14-1.44289E-13
 -1      1834 2.05507E+01 2.31896E-01 3.08447E-03 8.83516E-01-1.94627E-14-1.48508E-13
 -1      1835 2.08940E+01 2.76347E-01 2.09140E-02 1.03367E+00-5.04631E-15-1.42591E-13
 -1      1836 2.03837E+01 3.35596E-01-3.23155E-03 9.72250E-01-3.60450E-14-1.76824E-13
 -1      1837 2.10360E+01 3.17895E-01 3.83501E-04 1.24119E+00 1.85529E-14-1.35663E-13
 -1      1838 2.15130E+01 3.81762E-01 2.58369E-02 1.44528E+00 5.32118E-14-9.38343E-14
 -1      1839 2.06497E+01 4.53972E-01-1.36752E-03 1.37535E+00 2.73418E-14-1.36634E-13
 -1      1840 2.16838E+01 4.34429E-01-3.39352E-03 1.71993E+00 2.96959E-14-6.74910E-14
 -1      1841 2.23208E+01 5.07708E-01 2.91037E-02 1.99059E+00 5.23540E-14-6.53613E-14
 -1      1842 2.09905E+01 6.21143E-01 7.75898E-04 1.89704E+00 6.40980E-14-8.17118E-14
 -1      1843 2.25016E+01 5.48735E-01-8.13956E-03 2.32373E+00-3.60996E-15-7.49305E-14
 -1      1844 2.32879E+01 5.91673E-01 2.82038E-02 2.62545E+00-3.25764E-14-9.65079E-14
 -1      1845 2.13835E+01 7.98418E-01 4.47272E-03 2.54621E+00 2.30978E-14-1.44029E-13
 -1      1846 2.35312E+01 5.77318E-01-6.68416E-03 3.02062E+00-6.63879E-15-8.09561E-14
 -1      1847 2.45335E+01 4.93853E-01 2.41270E-02 3.30392E+00 5.67484E-14-6.83672E-14
 -1      1848 2.18347E+01 8.70488E-01 3.88266E-03 3.31967E+00-1.90993E-14-1.76094E-13
 -1      1849 2.49305E+01 2.89950E-01 1.70202E-02 3.63296E+00 1.08408E-13-4.65392E-14
 -1      1850 2.60625E+01-1.22319E-01 1.73224E-02 3.64732E+00 1.49231E-13-4.97206E-14
 -1      1851 2.24433E+01 5.56480E-01 2.13765E-03 4.10245E+00 1.07601E-13-9.72473E-14
 -1      1852 2.69306E+01-7.39356E-01 7.94385E-02 3.61972E+00 1.79745E-13-9.96599E-15
 -1      1853 2.80897E+01-1.61775E+00 1.99661E-02 2.93598E+00 1.13798E-13 5.07368E-14
 -1      1854 2.35105E+01-6.71357E-01-8.60736E-03 4.52577E+00 1.61808E-13-8.02032E-14
 -1      1855 2.96938E+01-2.54278E+00 1.42099E-01 2.17622E+00 7.17898E-14 1.55421E-13
 -1      1856 3.06248E+01-3.35318E+00 2.37664E-02 7.32135E-01-1.43635E-14 2.00567E-13
 -1      1857 2.56268E+01-3.01032E+00-3.81051E-02 3.95557E+00 1.43358E-13 7.75699E-14
 -1      1858 3.65122E+01 6.68688E-01-2.53842E-02 4.30920E+00-3.05422E-13-6.24278E-13
 -1      1859 3.63834E+01-2.02866E+00-4.49583E-02 4.05605E+00-7.94365E-14-6.87644E-13
 -1      1860 3.32026E+01-3.39133E+00-7.69638E-02 2.36493E+00 7.41629E-14-6.15008E-13
 -1      1861 3.27533E+01-3.61086E+00 8.75291E-02 4.36059E-01 1.29008E-13-5.90542E-13
 -1      1862 3.03211E+01-2.90132E+00-2.09442E-02-1.20901E+00 1.74333E-13-4.36901E-13
 -1      1863 2.94500E+01-1.89789E+00 1.27304E-01-2.49703E+00 2.18145E-13-2.96022E-13
 -1      1864 2.95524E+01-4.42815E+00 1.08166E-02-1.75562E+00 2.26472E-13-1.39194E-14
 -1      1865 2.79722E+01-1.05057E+00-8.94388E-04-3.14376E+00 1.16941E-13-2.92395E-13
 -1      1866 2.68851E+01-2.73040E-01 6.42552E-02-3.54429E+00 1.05797E-13-2.82741E-13
 -1      1867 2.60182E+01-2.08686E+00 4.45761E-03-3.79865E+00 1.87003E-13-3.87607E-14
 -1      1868 2.61333E+01 1.11861E-01 5.51072E-03-3.45545E+00 1.48551E-13-2.41002E-13
 -1      1869 2.50731E+01 4.30026E-01 1.08158E-02-3.30819E+00 2.34721E-13-1.71176E-13
 -1      1870 2.40832E+01-1.78652E-01-6.44958E-03-4.18742E+00 1.39600E-13-7.52072E-14
 -1      1871 2.46687E+01 5.17650E-01 1.75546E-02-2.94966E+00 1.42802E-13-1.81051E-13
 -1      1872 2.37549E+01 5.69711E-01-4.58340E-03-2.62532E+00 1.15243E-13-1.71496E-13
 -1      1873 2.30522E+01 6.50122E-01-1.86219E-03-3.65111E+00 1.60188E-13-2.11038E-14
 -1      1874 2.34804E+01 5.38450E-01 2.45328E-02-2.24083E+00 1.45410E-13-1.51960E-13
 -1      1875 2.27583E+01 4.91120E-01-4.64920E-03-1.92447E+00 2.22100E-13-1.12220E-13
 -1      1876 2.23727E+01 7.92618E-01 9.15835E-04-2.84424E+00 1.09929E-13-3.65866E-14
 -1      1877 2.25391E+01 4.32811E-01 2.45592E-02-1.60367E+00 1.35314E-13-1.54282E-13
 -1      1878 2.20031E+01 3.67152E-01-1.12975E-03-1.35311E+00-3.10568E-14-1.73076E-13
 -1      1879 2.18399E+01 6.71504E-01 1.21074E-03-2.08338E+00 1.27716E-13 5.15856E-14
 -1      1880 2.18333E+01 3.18635E-01 2.12661E-02-1.12344E+00-7.92300E-14-1.36945E-13
 -1      1881 2.14606E+01 2.61697E-01 4.87882E-04-9.48774E-01 3.85976E-16-9.87704E-14
 -1      1882 2.14103E+01 5.01355E-01-3.81203E-04-1.48517E+00 5.96172E-14-6.78904E-14
 -1      1883 2.13109E+01 2.20732E-01 1.59269E-02-7.72884E-01-2.82942E-14-2.31040E-13
 -1      1884 2.10347E+01 1.77744E-01 1.06524E-03-6.45420E-01-5.77637E-14-2.41722E-13
 -1      1885 2.10636E+01 3.55760E-01 1.32657E-04-1.04122E+00-2.02529E-15-1.77940E-13
 -1      1886 2.09192E+01 1.49441E-01 1.16138E-02-5.23693E-01 9.09008E-14-2.19748E-13
 -1      1887 2.07274E+01 1.18893E-01 1.20806E-03-4.37192E-01 7.96537E-14-2.34418E-13
 -1      1888 2.07821E+01 2.41418E-01-4.88201E-04-7.15070E-01 2.83319E-14-2.82830E-13
 -1      1889 2.06392E+01 9.99439E-02 8.08484E-03-3.53936E-01-7.73982E-14-2.12955E-13
 -1      1890 2.05070E+01 7.92173E-02 1.10565E-03-2.95865E-01-2.34717E-13-2.81144E-13
 -1      1891 2.05669E+01 1.61606E-01-7.83739E-04-4.88838E-01 3.06786E-15-3.74387E-13
 -1      1892 2.04409E+01 6.66255E-02 5.50200E-03-2.39242E-01-1.75083E-13-1.92615E-13
 -1      1893 2.03504E+01 5.29378E-02 1.01239E-03-2.00347E-01-5.51375E-14-2.47163E-13
 -1      1894 2.04057E+01 1.07724E-01-8.46732E-04-3.33645E-01-1.16381E-13-2.23946E-13
 -1      1895 2.03039E+01 4.52825E-02 3.79750E-03-1.63625E-01 1.48302E-14-2.20447E-13
 -1      1896 2.02439E+01 3.62064E-02 7.93313E-04-1.38410E-01 6.30253E-14-2.25428E-13
 -1      1897 2.02890E+01 7.21151E-02-9.80018E-04-2.29494E-01-1.59573E-14-1.88839E-13
 -1      1898 2.02075E+01 3.04890E-02 2.54348E-03-1.11566E-01-1.35664E-13-2.52489E-13
 -1      1899 2.01641E+01 2.43496E-02 5.77005E-04-9.35804E-02-1.87139E-13-2.47689E-13
 -1      1900 2.02037E+01 4.91887E-02-6.63072E-04-1.58248E-01-4.59432E-14-2.95840E-13
 -1      1901 2.01379E+01 2.06890E-02 1.74952E-03-7.52782E-02-1.88475E-13-3.96553E-13
 -1      1902 2.01082E+01 1.64874E-02 4.32235E-04-6.30415E-02-1.67338E-13-4.99962E-13
 -1      1903 2.01399E+01 3.30983E-02-5.51998E-04-1.07680E-01-2.84349E-13-2.58790E-13
 -1      1904 2.00895E+01 1.40696E-02 1.18908E-03-5.04658E-02 4.66424E-14-4.72951E-13
 -1      1905 2.00694E+01 1.12299E-02 3.25712E-04-4.21185E-02 1.47447E-13-5.19564E-13
 -1      1906 2.00942E+01 2.24216E-02-4.37911E-04-7.29083E-02-8.35731E-14-4.03259E-13
 -1      1907 2.00562E+01 9.60720E-03 8.09331E-04-3.34452E-02 2.30410E-13-4.62760E-13
 -1      1908 2.00427E+01 7.67301E-03 2.44689E-04-2.77300E-02 1.97170E-13-2.49521E-13
 -1      1909 2.00618E+01 1.52618E-02-3.38401E-04-4.89036E-02 2.37023E-13-4.07263E-13
 -1      1910 2.00334E+01 6.55796E-03 5.47122E-04-2.17356E-02-1.32274E-13-2.43270E-13
 -1      1911 2.00246E+01 5.25180E-03 1.90699E-04-1.78257E-02-1.54665E-13-2.84991E-13
 -1      1912 2.00391E+01 1.04221E-02-2.55012E-04-3.22906E-02 6.23965E-14-4.16374E-13
 -1      1913 2.00185E+01 4.54581E-03 3.77496E-04-1.38727E-02 1.22053E-14-1.36604E-13
 -1      1914 2.00130E+01 3.64716E-03 1.41949E-04-1.12990E-02 2.34246E-14-1.55175E-13
 -1      1915 2.00237E+01 7.11552E-03-2.11359E-04-2.09902E-02-6.31453E-14-1.74955E-13
 -1      1916 2.00087E+01 3.09260E-03 2.54764E-04-8.39233E-03-6.01163E-16 1.12815E-14
 -1      1917 2.00050E+01 2.45252E-03 1.00997E-04-6.54216E-03 1.69227E-13-7.18589E-14
 -1      1918 2.00132E+01 4.92420E-03-1.42508E-04-1.31802E-02 5.92739E-14-7.98213E-14
 -1      1919 2.00023E+01 2.08772E-03 1.74777E-04-4.56958E-03 3.16959E-13-9.97399E-14
 -1      1920 2.00002E+01 1.62652E-03 7.25797E-05-3.32490E-03 7.52465E-15-4.27567E-14
 -1      1921 2.00061E+01 3.30568E-03-1.05644E-04-7.62663E-03 1.91396E-13 1.37837E-13
 -1      1922 1.99985E+01 1.37798E-03 1.15847E-04-2.00114E-03-9.67270E-14 3.73121E-14
 -1      1923 1.99975E+01 1.05404E-03 5.23336E-05-1.18290E-03-1.19282E-14 2.35006E-13
 -1      1924 2.00016E+01 2.18665E-03-7.63731E-05-3.85631E-03 9.27468E-14 4.40512E-14
 -1      1925 1.99965E+01 8.83329E-04 7.46576E-05-3.14840E-04-1.61859E-13 1.38856E-13
 -1      1926 1.99962E+01 6.55833E-04 3.72180E-05 2.05916E-04 4.13448E-14 1.47203E-13
 -1      1927 1.99990E+01 1.40909E-03-5.40355E-05-1.34115E-03-1.80345E-13 1.67661E-13
 -1      1928 1.99957E+01 5.35886E-04 4.52388E-05 7.53923E-04 4.04188E-14 1.25541E-13
 -1      1929 1.99959E+01 3.78692E-04 2.60678E-05 1.06464E-03-1.64657E-15 7.93066E-15
 -1      1930 1.99977E+01 8.69183E-04-3.69850E-05 2.88988E-04-4.20273E-14 2.26969E-13
 -1      1931 1.99958E+01 2.98638E-04 2.52547E-05 1.37343E-03-2.00505E-14-6.60503E-15
 -1      1932 1.99961E+01 1.87127E-04 1.63878E-05 1.53093E-03 1.46651E-13 9.74604E-15
 -1      1933 1.99972E+01 4.88811E-04-2.61230E-05 1.27748E-03-2.71229E-14 6.59261E-14
 -1      1934 1.99962E+01 1.21037E-04 1.23260E-05 1.69353E-03 3.13272E-13-3.81177E-14
 -1      1935 1.99968E+01 2.76493E-05 7.29900E-06 1.74923E-03 2.69582E-13-4.68449E-14
 -1      1936 1.99972E+01 2.23433E-04-1.59195E-05 1.82754E-03 1.95690E-13-6.44799E-14
 -1      1937 1.99970E+01-2.51814E-05 3.51309E-06 1.77960E-03 1.83114E-13-1.05199E-13
 -1      1938 1.99976E+01-1.12517E-04-6.55984E-07 1.73991E-03-4.29720E-14 2.50277E-14
 -1      1939 1.99976E+01 2.95315E-07-9.15585E-06 2.05849E-03 9.83597E-14-6.79821E-14
 -1      1940 1.99979E+01-1.70568E-04-2.39831E-06 1.65746E-03-3.71428E-14 6.54914E-14
 -1      1941 1.99984E+01-2.63128E-04-6.78011E-06 1.52101E-03 9.54123E-15 3.67333E-15
 -1      1942 1.99982E+01-2.01385E-04-2.71641E-06 2.01352E-03 1.12940E-13-1.27454E-13
 -1      1943 1.99987E+01-3.27813E-04-2.22699E-06 1.32503E-03-1.06115E-13-4.87533E-14
 -1      1944 1.99991E+01-4.34540E-04-8.63766E-06 1.09851E-03-3.18289E-14-2.13747E-13
 -1      1945 1.99988E+01-4.28325E-04 2.31869E-06 1.72187E-03-1.14003E-13-1.50624E-13
 -1      1946 1.98078E+01 1.36278E-01 7.26028E-03 2.04710E-01 1.72395E-13 4.00926E-13
 -1      1947 2.00492E+01 2.03043E-01 1.50827E-02 3.76377E-01 1.79249E-13 4.81042E-13
 -1      1948 2.02608E+01 3.60723E-01 5.87863E-03 5.88224E-01 2.38214E-13 3.30964E-13
 -1      1949 1.21129E+01-4.64803E+00-8.55492E-02 7.77546E+00 5.31575E-13 2.15938E-13
 -1      1950 8.35047E+00-6.34449E+00-2.90719E-01 6.77876E+00 4.11282E-13 2.29844E-13
 -1      1951 1.96046E+01 6.52371E-02 6.10617E-03 8.58665E-03 1.31609E-13 2.96948E-13
 -1      1952 1.96956E+01 9.84327E-02 1.33111E-02 9.47647E-02 1.35834E-13 3.50907E-13
 -1      1953 1.99043E+01 1.65401E-01 9.52790E-04 1.96955E-01 1.75075E-13 2.47941E-13
 -1      1954 1.95453E+01 2.44249E-02 3.34379E-03-8.11986E-02 1.09013E-13 2.13494E-13
 -1      1955 1.95600E+01 4.31427E-02 7.68372E-03-4.05571E-02 1.13432E-13 2.72405E-13
 -1      1956 1.97373E+01 6.88234E-02-2.51706E-03-5.80176E-03 1.40734E-13 1.75343E-13
 -1      1957 1.95575E+01-5.02357E-03 1.20153E-03-1.05294E-01 5.92297E-14 1.62648E-13
 -1      1958 1.95380E+01 7.92857E-03 3.37230E-03-9.39022E-02 7.66457E-14 2.00065E-13
 -1      1959 1.96827E+01 1.50583E-02-2.65917E-03-9.30387E-02 1.01043E-13 9.88098E-14
 -1      1960 1.95891E+01-2.95305E-02-3.39193E-04-7.93396E-02 2.61331E-14 1.41614E-13
 -1      1961 1.95647E+01-1.94013E-02 7.06769E-04-9.06504E-02 2.88552E-14 1.54115E-13
 -1      1962 1.96848E+01-2.43628E-02-1.65179E-03-1.03497E-01 4.28061E-14 6.31595E-14
 -1      1963 1.95992E+01-5.13928E-02-1.54904E-03-1.10313E-02 3.03256E-14 1.67149E-13
 -1      1964 1.95921E+01-4.32352E-02-1.02668E-03-4.22496E-02 3.78480E-14 1.63790E-13
 -1      1965 1.96985E+01-5.75516E-02-4.31935E-04-5.44290E-02 3.26946E-14 3.91000E-14
 -1      1966 1.95544E+01-6.97987E-02-2.41025E-03 9.38405E-02 5.40512E-14 1.06196E-13
 -1      1967 1.95825E+01-6.41465E-02-2.22948E-03 4.49204E-02 3.28392E-14 1.56010E-13
 -1      1968 1.96891E+01-8.62859E-02 8.31187E-04 4.49581E-02 5.39731E-14 1.03355E-13
 -1      1969 1.94286E+01-8.13352E-02-2.77427E-03 2.26146E-01 7.29473E-15 1.28730E-13
 -1      1970 1.95053E+01-7.97700E-02-2.98592E-03 1.63491E-01 4.27900E-14 1.30111E-13
 -1      1971 1.96279E+01-1.07940E-01 2.03944E-03 1.85383E-01 6.11343E-14 1.25901E-13
 -1      1972 1.92060E+01-8.06894E-02-2.50051E-03 3.69282E-01 4.38187E-14 9.43195E-14
 -1      1973 1.93383E+01-8.53764E-02-3.22530E-03 3.00558E-01 2.47528E-14 9.60497E-14
 -1      1974 1.94931E+01-1.16509E-01 3.03338E-03 3.51582E-01 5.04267E-14 5.67400E-14
 -1      1975 1.88867E+01-6.23722E-02-1.59208E-03 4.97049E-01 4.88845E-14 1.06620E-13
 -1      1976 1.90723E+01-7.51065E-02-2.81787E-03 4.34612E-01 5.69865E-14 9.69806E-14
 -1      1977 1.92733E+01-1.04279E-01 3.54330E-03 5.18168E-01 4.89608E-14 2.98980E-15
 -1      1978 1.84928E+01-2.37490E-02-2.93734E-04 5.75610E-01 6.97666E-14 1.00844E-13
 -1      1979 1.87172E+01-4.45280E-02-1.66591E-03 5.35508E-01 7.87478E-14 1.31875E-13
 -1      1980 1.89733E+01-6.51047E-02 3.23988E-03 6.48965E-01 8.00900E-14 7.48167E-14
 -1      1981 1.80716E+01 3.14840E-02 9.45852E-04 5.71328E-01-3.56775E-14 7.02945E-14
 -1      1982 1.83072E+01 5.79412E-03 2.04636E-04 5.69486E-01-4.30395E-14 6.71867E-14
 -1      1983 1.86195E+01 9.55492E-04 1.90284E-03 7.02258E-01 3.83260E-15 1.04415E-13
 -1      1984 1.76915E+01 9.15679E-02 1.68644E-03 4.63702E-01 6.40187E-14 4.86317E-14
 -1      1985 1.79009E+01 6.73969E-02 2.56667E-03 5.09744E-01 1.80906E-14 8.84032E-14
 -1      1986 1.82613E+01 8.37032E-02-3.23327E-04 6.43049E-01 2.42853E-14 4.36552E-14
 -1      1987 1.74279E+01 1.39193E-01 1.76106E-03 2.58202E-01 1.43937E-13-5.27423E-14
 -1      1988 1.75714E+01 1.24363E-01 4.93652E-03 3.49533E-01 1.08891E-13-1.17606E-14
 -1      1989 1.79647E+01 1.62952E-01-2.78387E-03 4.59226E-01 1.32712E-13-6.34365E-14
 -1      1990 1.73420E+01 1.58506E-01 1.40354E-03-9.21459E-03 1.00683E-13-1.24414E-13
 -1      1991 1.73883E+01 1.58731E-01 6.66865E-03 1.10830E-01 1.37297E-13-5.97571E-14
 -1      1992 1.77951E+01 2.14697E-01-4.57187E-03 1.73528E-01 1.80873E-13-2.20002E-14
 -1      1993 1.74591E+01 1.42860E-01 1.07574E-03-2.81260E-01 4.95983E-14-1.35792E-13
 -1      1994 1.73951E+01 1.58688E-01 7.18612E-03-1.58504E-01 9.18987E-14-1.23666E-13
 -1      1995 1.77956E+01 2.21555E-01-4.99709E-03-1.57964E-01 1.04665E-13-1.39806E-13
 -1      1996 1.77598E+01 9.84319E-02 1.12510E-03-4.99490E-01-5.21783E-14-1.81491E-13
 -1      1997 1.75953E+01 1.24712E-01 6.25600E-03-4.00096E-01-4.55799E-14-1.46088E-13
 -1      1998 1.79712E+01 1.81378E-01-4.04048E-03-4.63320E-01 9.99201E-16-1.24464E-13
 -1      1999 1.81867E+01 4.08105E-02 1.53913E-03-6.25149E-01-3.93695E-14-1.29481E-13
 -1      2000 1.79508E+01 6.92869E-02 4.14040E-03-5.66093E-01-2.08661E-14-1.10232E-13
 -1      2001 1.82867E+01 1.08393E-01-2.36354E-03-6.80762E-01-4.19131E-14-1.66779E-13
 -1      2002 1.86652E+01-1.28693E-02 2.04949E-03-6.49590E-01-3.70534E-14-1.05553E-13
 -1      2003 1.83969E+01 1.02996E-02 1.48444E-03-6.34525E-01-5.60033E-14-1.51226E-13
 -1      2004 1.86810E+01 2.60592E-02-7.54464E-04-7.79147E-01-1.00565E-14-1.07576E-13
 -1      2005 1.91258E+01-5.09078E-02 2.34212E-03-5.90703E-01 9.77699E-14-1.80174E-13
 -1      2006 1.88631E+01-3.71145E-02-9.94403E-04-6.11854E-01 1.50028E-14-7.84789E-14
 -1      2007 1.90887E+01-4.37674E-02 2.91049E-04-7.62912E-01 1.28249E-14-8.57298E-14
 -1      2008 1.95198E+01-6.95924E-02 2.27486E-03-4.80470E-01-2.05196E-15-2.70570E-13
 -1      2009 1.92909E+01-6.54083E-02-2.78996E-03-5.24137E-01 7.84537E-14-2.35427E-13
 -1      2010 1.94571E+01-8.84383E-02 7.08953E-04-6.62267E-01 1.20750E-13-2.04626E-13
 -1      2011 1.98231E+01-7.16078E-02 1.90060E-03-3.51695E-01-1.58719E-13-2.01684E-13
 -1      2012 1.96432E+01-7.47079E-02-3.71610E-03-4.03914E-01-1.56695E-13-2.74659E-13
 -1      2013 1.97553E+01-1.06066E-01 7.07459E-04-5.17083E-01-1.56947E-13-1.90118E-13
 -1      2014 2.00329E+01-6.26797E-02 1.37330E-03-2.29412E-01-4.19118E-14-9.00076E-14
 -1      2015 1.99055E+01-6.98858E-02-3.86118E-03-2.79531E-01-6.24067E-14-1.10056E-13
 -1      2016 1.99727E+01-1.02314E-01 5.29932E-04-3.63184E-01-1.05237E-13-9.72971E-14
 -1      2017 2.01605E+01-4.86571E-02 8.46665E-04-1.28091E-01-4.26308E-16-2.43324E-13
 -1      2018 2.00805E+01-5.71758E-02-3.46009E-03-1.69905E-01 3.64639E-15-1.71662E-13
 -1      2019 2.01141E+01-8.57336E-02 3.34828E-04-2.25212E-01 3.06474E-14-1.48868E-13
 -1      2020 2.02235E+01-3.39355E-02 4.18568E-04-5.29141E-02 5.48485E-14-1.80081E-13
 -1      2021 2.01816E+01-4.18933E-02-2.77298E-03-8.41201E-02 6.10115E-14-2.12957E-13
 -1      2022 2.01925E+01-6.41855E-02 1.86103E-04-1.15624E-01 2.82161E-14-1.69722E-13
 -1      2023 2.02407E+01-2.10854E-02 1.23889E-04-2.78417E-03-1.52390E-13-1.82510E-13
 -1      2024 2.02263E+01-2.75377E-02-2.01180E-03-2.37219E-02-7.62163E-14-2.30979E-13
 -1      2025 2.02237E+01-4.31639E-02 8.96591E-05-3.72684E-02-4.91176E-15-2.17635E-13
 -1      2026 2.02286E+01-1.11634E-02-4.64809E-05 2.66569E-02-3.86896E-14-2.55973E-14
 -1      2027 2.02322E+01-1.58541E-02-1.31427E-03 1.42598E-02-1.35560E-13-1.76046E-13
 -1      2028 2.02230E+01-2.56174E-02 3.04431E-05 1.29468E-02-1.31090E-13-1.86334E-13
 -1      2029 2.02005E+01-4.23979E-03-1.22467E-04 4.07762E-02-2.38903E-14-4.78010E-14
 -1      2030 2.02142E+01-7.31760E-03-7.48984E-04 3.47431E-02 6.01790E-14 2.38748E-14
 -1      2031 2.02031E+01-1.25350E-02-7.37166E-06 4.08338E-02-1.87532E-14-4.31859E-15
 -1      2032 2.01657E+01 1.23892E-04-1.37464E-04 4.46074E-02 1.25024E-14-5.17149E-14
 -1      2033 2.01839E+01-1.66776E-03-3.33916E-04 4.28761E-02-4.13978E-14-8.05034E-14
 -1      2034 2.01735E+01-3.70764E-03-3.37345E-05 5.27089E-02 4.18479E-14-1.96399E-14
 -1      2035 2.01303E+01 2.54130E-03-1.19358E-04 4.22371E-02 1.22193E-13-1.44757E-13
 -1      2036 2.01493E+01 1.67590E-03-5.66890E-05 4.31215E-02 2.97699E-14-8.80982E-14
 -1      2037 2.01409E+01 1.63842E-03-5.30774E-05 5.41690E-02 5.02039E-14-1.20285E-13
 -1      2038 2.00980E+01 3.60994E-03-8.77575E-05 3.66597E-02-1.77784E-13 1.21830E-13
 -1      2039 2.01155E+01 3.35296E-03 1.09082E-04 3.89165E-02-3.80016E-15 5.06776E-15
 -1      2040 2.01095E+01 4.42301E-03-6.67541E-05 4.96002E-02-6.67816E-14-4.24299E-14
 -1      2041 2.00703E+01 3.82434E-03-5.45796E-05 2.98841E-02 3.11049E-14 2.00747E-14
 -1      2042 2.00854E+01 3.92816E-03 1.92926E-04 3.26734E-02-1.13197E-13 8.99805E-14
 -1      2043 2.00817E+01 5.48650E-03-7.50555E-05 4.21306E-02-7.42790E-14 6.52572E-14
 -1      2044 2.00480E+01 3.55326E-03-2.59209E-05 2.31370E-02 3.62956E-13-1.19479E-14
 -1      2045 2.00601E+01 3.84188E-03 2.21528E-04 2.59414E-02 2.10206E-13 1.73247E-14
 -1      2046 2.00583E+01 5.49799E-03-7.82894E-05 3.38057E-02 1.71686E-13 5.22854E-14
 -1      2047 2.00307E+01 3.04976E-03-4.05915E-06 1.70806E-02-1.25208E-13 2.11949E-13
 -1      2048 2.00401E+01 3.40793E-03 2.16224E-04 1.96170E-02 1.90570E-13 2.14088E-13
 -1      2049 2.00397E+01 4.94161E-03-7.71276E-05 2.58369E-02 1.63126E-13 3.83421E-13
 -1      2050 2.00179E+01 2.47430E-03 1.09250E-05 1.19997E-02-2.67679E-13 1.45796E-14
 -1      2051 2.00248E+01 2.83293E-03 1.92613E-04 1.41427E-02-3.10214E-13 5.38232E-14
 -1      2052 2.00254E+01 4.14032E-03-7.25513E-05 1.88466E-02-2.16808E-13 3.68279E-13
 -1      2053 2.00088E+01 1.91953E-03 2.00121E-05 7.94723E-03 2.63141E-14 3.37935E-14
 -1      2054 2.00137E+01 2.24192E-03 1.61233E-04 9.66919E-03-1.33788E-13-2.43000E-14
 -1      2055 2.00148E+01 3.29237E-03-6.56612E-05 1.30716E-02-1.52362E-13 4.58717E-14
 -1      2056 2.00028E+01 1.43196E-03 2.45353E-05 4.84740E-03-1.73540E-14 2.90374E-13
 -1      2057 2.00059E+01 1.70258E-03 1.28642E-04 6.17576E-03-4.47755E-14 9.58425E-14
 -1      2058 2.00074E+01 2.50721E-03-5.74974E-05 8.51727E-03-8.40887E-14 4.34184E-14
 -1      2059 1.99990E+01 1.02869E-03 2.57836E-05 2.56485E-03 2.60833E-13 3.72145E-13
 -1      2060 2.00009E+01 1.24488E-03 9.85008E-05 3.55313E-03 2.08988E-13 3.99400E-13
 -1      2061 2.00024E+01 1.83532E-03-4.89226E-05 5.06532E-03 1.50081E-13 1.30153E-13
 -1      2062 1.99969E+01 7.09353E-04 2.48100E-05 9.47623E-04-8.27392E-15 1.69600E-13
 -1      2063 1.99979E+01 8.75572E-04 7.25015E-05 1.65729E-03 5.95195E-14 3.24260E-13
 -1      2064 1.99993E+01 1.29057E-03-4.05743E-05 2.54482E-03 1.21243E-13 3.25251E-13
 -1      2065 1.99960E+01 4.63988E-04 2.23660E-05-1.47912E-04 7.80218E-14 2.79239E-13
 -1      2066 1.99964E+01 5.88182E-04 5.10803E-05 3.41868E-04 7.54744E-14 2.90037E-13
 -1      2067 1.99976E+01 8.65775E-04-3.28640E-05 7.75718E-04 3.43038E-14 4.17194E-13
 -1      2068 1.99959E+01 2.77942E-04 1.88836E-05-8.43860E-04 3.48193E-13 1.92765E-13
 -1      2069 1.99959E+01 3.69404E-04 3.39241E-05-5.23827E-04 2.19174E-13 1.26835E-13
 -1      2070 1.99969E+01 5.42765E-04-2.59998E-05-4.06252E-04 2.97767E-13 3.55348E-13
 -1      2071 1.99964E+01 1.33983E-04 1.46445E-05-1.23472E-03 5.51950E-14 8.78612E-14
 -1      2072 1.99961E+01 2.02564E-04 2.03747E-05-1.04583E-03 2.26920E-13 2.53861E-13
 -1      2073 1.99969E+01 2.98153E-04-2.00015E-05-1.13703E-03 2.00669E-13 3.92420E-13
 -1      2074 1.99972E+01 1.36727E-05 1.01531E-05-1.38286E-03-1.89973E-14 5.88861E-14
 -1      2075 1.99967E+01 6.86662E-05 9.88234E-06-1.30059E-03-1.04797E-13 8.91360E-14
 -1      2076 1.99973E+01 1.05013E-04-1.45680E-05-1.51712E-03-3.17563E-14 1.62548E-13
 -1      2077 1.99980E+01-1.01272E-04 5.71263E-06-1.32053E-03 3.31136E-13 2.75256E-14
 -1      2078 1.99975E+01-5.03593E-05 2.34787E-06-1.33416E-03 1.83301E-13 2.08851E-13
 -1      2079 1.99979E+01-6.28467E-05-9.12806E-06-1.61044E-03 1.85768E-13 2.97371E-13
 -1      2080 1.99988E+01-2.31239E-04 6.11174E-07-1.04924E-03 9.52402E-14 9.46881E-14
 -1      2081 1.99984E+01-1.72973E-04-1.54570E-06-1.16743E-03 1.30663E-13 1.07988E-13
 -1      2082 1.99986E+01-2.33464E-04-4.41997E-06-1.45266E-03 1.49957E-13 3.33008E-13
 -1      2083 1.99994E+01-3.54162E-04-5.27041E-06-7.01580E-04-1.05785E-13 1.91330E-13
 -1      2084 1.99990E+01-2.90880E-04-3.04925E-06-9.16726E-04 2.87816E-14 1.79952E-13
 -1      2085 1.99991E+01-3.89276E-04 1.60344E-06-1.16321E-03 6.92313E-14 4.84323E-13
 -1      2086 1.99994E+01-5.51539E-04 2.96762E-06-8.45834E-04-7.63569E-14 5.00534E-13
 -1      2087 1.99999E+01-2.42881E-03 1.50145E-06-1.32053E-03 1.27890E-13 6.40195E-14
 -1      2088 1.99998E+01-2.00801E-03 1.62477E-07-1.35902E-03 1.53495E-13-1.80781E-13
 -1      2089 1.99998E+01-1.74564E-03 2.30387E-07-1.36569E-03 1.38348E-13-9.81892E-14
 -1      2090 1.99997E+01-1.33179E-03-4.59604E-06-1.31207E-03 1.74043E-13 3.91749E-13
 -1      2091 1.99998E+01-1.52545E-03-1.80206E-06-1.66529E-03-1.27225E-13-1.51136E-13
 -1      2092 1.99996E+01-1.13832E-03-5.33038E-07-1.20357E-03 6.05216E-14 6.22223E-13
 -1      2093 1.99995E+01-7.74766E-04-6.94571E-06-1.03507E-03-8.64094E-14 6.42299E-13
 -1      2094 1.99994E+01-6.95377E-04-6.07313E-06-1.22457E-03 8.43467E-14 5.54587E-13
 -1      2095 1.99996E+01-1.09029E-03-2.91321E-06-1.55219E-03-5.58710E-14 5.58382E-13
 -1      2096 2.00000E+01-3.02604E-03 3.70554E-06-1.13742E-03-1.43026E-13-3.52172E-13
 -1      2097 2.00000E+01-2.65317E-03 6.01838E-06-1.23173E-03-6.73648E-14-1.39666E-13
 -1      2098 2.00000E+01-2.01070E-03-3.42717E-06-1.55647E-03-1.66490E-13-2.17233E-13
 -1      2099 2.00000E+01-3.51428E-03 6.38386E-06-8.64080E-04-3.20043E-14 1.94266E-13
 -1      2100 2.00000E+01-3.21302E-03 9.49928E-06-9.94428E-04-1.78287E-13 1.26956E-13
 -1      2101 2.00001E+01-2.42533E-03-3.91531E-06-1.29954E-03-3.03087E-13-1.20376E-13
 -1      2102 2.00001E+01-3.85151E-03 8.95931E-06-5.38180E-04 1.21392E-13 2.46147E-13
 -1      2103 2.00001E+01-3.65133E-03 1.11007E-05-6.88963E-04 1.56484E-14 1.61760E-13
 -1      2104 2.00002E+01-2.75315E-03-4.29981E-06-9.48401E-04-2.02201E-13 2.62892E-13
 -1      2105 2.00001E+01-4.01891E-03 1.12966E-05-1.79562E-04 3.96205E-14 1.50298E-13
 -1      2106 2.00001E+01-3.93436E-03 1.11845E-05-3.43253E-04 5.98667E-15 5.56135E-14
 -1      2107 2.00002E+01-2.97617E-03-4.68215E-06-5.40580E-04-8.08277E-14 1.32821E-13
 -1      2108 2.00001E+01-4.00375E-03 1.29665E-05 1.99943E-04-1.72613E-13-1.12768E-13
 -1      2109 2.00001E+01-4.04304E-03 1.03821E-05 2.84298E-05-9.54202E-14 2.24357E-13
 -1      2110 2.00002E+01-3.08418E-03-5.16171E-06-9.65026E-05-4.46531E-13 8.74767E-14
 -1      2111 2.00001E+01-3.79942E-03 1.33182E-05 5.86622E-04-9.20253E-14-3.17287E-13
 -1      2112 2.00001E+01-3.96429E-03 9.03262E-06 4.14420E-04-2.77342E-13-1.45945E-13
 -1      2113 2.00003E+01-3.06754E-03-5.73528E-06 3.69657E-04-4.19907E-13-1.94139E-13
 -1      2114 2.00001E+01-3.41687E-03 1.15036E-05 9.49499E-04-1.89589E-13-3.37889E-13
 -1      2115 2.00001E+01-3.69482E-03 7.42896E-06 7.92523E-04-1.85021E-13-2.79897E-13
 -1      2116 2.00002E+01-2.91935E-03-6.17410E-06 8.34193E-04-3.35792E-13-2.86408E-13
 -1      2117 2.00000E+01-2.86218E-03 7.32237E-06 1.25809E-03 7.29290E-14 1.31885E-13
 -1      2118 2.00000E+01-3.24221E-03 5.56101E-06 1.13283E-03-1.25326E-14-2.82949E-14
 -1      2119 2.00002E+01-2.63604E-03-6.18287E-06 1.26544E-03-9.14993E-14-3.53611E-14
 -1      2120 1.99999E+01-2.18469E-03 2.60666E-07 1.44138E-03-5.43482E-14-1.83959E-13
 -1      2121 1.99999E+01-2.62519E-03 3.37893E-06 1.38293E-03-2.69930E-14-2.93200E-13
 -1      2122 2.00001E+01-2.22102E-03-5.15109E-06 1.60822E-03 2.85026E-14-6.20068E-14
 -1      2123 1.99997E+01-1.45092E-03-1.06869E-05 1.42418E-03-2.61363E-13 7.45534E-14
 -1      2124 1.99998E+01-1.90268E-03 1.51232E-06 1.46338E-03-1.33805E-13-6.93030E-14
 -1      2125 1.99998E+01-1.69892E-03-3.36128E-06 1.77481E-03-1.72618E-13-1.87330E-13
 -1      2126 2.10059E+01-2.82822E+00 1.34307E-02 7.98909E+00 4.51472E-13 1.60649E-13
 -1      2127 1.58112E+01-4.59037E+00-2.68688E-01 7.35100E+00 5.93969E-13 1.54210E-13
 -1      2128 1.67011E+01-5.28134E+00 5.85753E-03 8.12922E+00 1.56708E-13 6.63705E-15
 -1      2129 1.99994E+01-4.50444E-04 3.51936E-06 7.25156E-04 5.01909E-14-2.83054E-13
 -1      2130 2.16504E+01 1.76931E+00 7.81626E-02-2.25340E+00-2.98161E-13 1.60469E-13
 -1      2131-6.75296E-02-8.14513E+00-4.15008E-01 2.47723E+00 3.86136E-13 6.10456E-13
 -1      2132-5.29433E-01-8.59188E+00-4.74093E-01 1.11988E+00 1.89680E-13 7.82319E-13
 -1      2133 1.95295E+01 4.07717E+00-2.64210E-02-1.57071E+00-2.00144E-13-4.14641E-13
 -1      2134 1.96909E+01 3.99750E+00-2.28887E-02-1.81763E+00-2.40839E-13-3.71037E-13
 -1      2135 2.00251E+01 3.31560E+00-7.00906E-03-1.75606E+00-2.75010E-13-3.21189E-13
 -1      2136 1.96747E+01 3.67868E+00-8.07971E-03-1.38478E+00-2.03807E-13-4.07103E-13
 -1      2137 3.07458E+01 7.78295E-01 2.18691E-01 6.52168E+00 5.49838E-13-1.43552E-13
 -1      2138 2.57296E+01-1.55387E+00-1.11600E-01 6.24237E+00 4.75897E-13 3.03091E-14
 -1      2139 3.70779E+01 3.78550E+00 2.42731E-01 4.43036E+00 4.13572E-13-2.69784E-14
 -1      2140 3.28695E+01 2.26133E+00-2.67997E-03 5.20438E+00 5.30992E-13-6.42819E-14
 -1      2141 3.20400E+01-1.06882E-01 1.61570E-01 3.23116E+00 4.13794E-13-2.89990E-13
 -1      2142 4.06997E+01 6.88284E+00 2.12122E-01 1.64254E+00 4.51861E-13-1.06859E-13
 -1      2143 3.92869E+01 5.88088E+00 2.75810E-01 3.29167E+00 4.50529E-13-1.83187E-15
 -1      2144 4.34474E+01 8.12805E+00 4.43011E-01-1.53715E-01 5.27800E-13-3.06005E-13
 -1      2145 4.10317E+01 8.16574E+00 1.51303E-01 9.77353E-01 4.90552E-13-1.63952E-13
 -1      2146 4.06412E+01 7.14487E+00 1.33785E-01-1.88622E+00 5.66769E-13-3.51830E-13
 -1      2147 4.31673E+01 7.67438E+00 3.77080E-01-8.16419E-01 5.34184E-13-2.68424E-13
 -1      2148 3.81128E+01 9.08823E+00 2.97231E-01 3.22842E-03 5.48062E-13-2.00118E-13
 -1      2149 3.57691E+01 4.02020E+00 2.48685E-02-3.08220E+00 5.34212E-13-3.42171E-13
 -1      2150 3.96332E+01 5.61847E+00 2.99532E-01-2.59811E+00 5.60302E-13-3.18745E-13
 -1      2151 2.89904E+01-7.22548E-02-3.51598E-02-5.85937E+00 5.81035E-13-5.19917E-13
 -1      2152 3.32699E+01 1.32277E+00 7.13657E-02-4.85866E+00 4.91093E-13-3.76588E-13
 -1      2153 2.14811E+01-3.80385E+00-1.47260E-01-6.84559E+00 4.21441E-13-4.35763E-13
 -1      2154 2.60993E+01-1.46463E+00 1.07152E-01-7.22164E+00 5.34073E-13-5.42066E-13
 -1      2155 2.87347E+01-2.78579E+00 1.22271E-01-4.61192E+00 2.06529E-13-1.69531E-13
 -1      2156 1.13639E+01-6.02093E+00-2.92896E-01-7.09762E+00 3.37064E-13-7.27002E-13
 -1      2157 1.63570E+01-4.21036E+00-3.41055E-02-8.12449E+00 4.00568E-13-5.96120E-13
 -1      2158 4.59722E+00-6.67708E+00-2.36317E-01-5.81181E+00 1.11300E-13-9.12770E-13
 -1      2159 7.68702E+00-5.74630E+00-1.42356E-01-6.92078E+00 3.22187E-13-8.90579E-13
 -1      2160 1.19734E+01-5.43364E+00-2.65798E-02-7.98780E+00 1.42109E-14-6.80567E-13
 -1      2161-1.43649E-01-8.52968E+00-5.30469E-01-1.99629E+00-6.43791E-14-8.60700E-13
 -1      2162 1.19302E+00-6.85201E+00-2.99996E-01-3.71349E+00 1.07692E-13-9.57234E-13
 -1      2163 5.40518E-01-7.63825E+00-3.93429E-01 1.16387E+00-1.73583E-13-7.14984E-13
 -1      2164-3.50151E-01-8.52789E+00-5.16125E-01-4.97141E-01-2.99587E-14-7.42795E-13
 -1      2165 9.86712E-01-5.02227E+00-1.79303E-01-1.25997E+00 9.73874E-14-9.06275E-13
 -1      2166 5.82803E+00-7.67711E+00-4.36295E-01 4.16929E+00-4.28546E-13-5.19584E-13
 -1      2167 3.10427E+00-8.04895E+00-4.20331E-01 3.10219E+00-2.47025E-13-6.53699E-13
 -1      2168 1.48024E+01-6.21422E+00-3.22762E-01 5.73360E+00-4.86389E-13-3.35454E-13
 -1      2169 9.64846E+00-7.95043E+00-6.33717E-01 4.51852E+00-4.30544E-13-3.69905E-13
 -1      2170 2.70813E+01-4.45406E+00-5.66550E-02 5.02721E+00-5.46896E-13-1.39555E-13
 -1      2171 2.05398E+01-6.19942E+00-4.78634E-01 4.69005E+00-4.88720E-13-2.35589E-13
 -1      2172 3.77910E+01-1.16986E+00 1.93419E-01 2.72944E+00-6.31162E-13-8.58202E-14
 -1      2173 3.13101E+01-3.06998E+00-2.37600E-01 3.18408E+00-7.19647E-13-1.71196E-13
 -1      2174 4.45723E+01 2.43824E+00 4.71732E-01-7.08338E-01-5.45342E-13 4.99600E-14
 -1      2175 4.05611E+01 6.93017E-01 2.09039E-01 1.11585E-01-6.45969E-13-7.83817E-14
 -1      2176 4.70929E+01 5.97931E+00 7.46250E-01-7.80234E-01-4.12559E-13 8.52096E-14
 -1      2177 4.52032E+01 4.95694E+00 5.64831E-01-9.62069E-01-4.46643E-13-6.01741E-14
 -1      2178 4.74818E+01 5.94347E+00 8.30418E-01 4.89459E-01-5.26357E-13 6.23945E-14
 -1      2179 4.79217E+01 6.55111E+00 8.33856E-01 5.29711E-01-4.18554E-13 6.11698E-14
 -1      2180 4.29878E+01 2.32568E+00 3.35101E-01 8.00165E-02-6.17839E-13 1.90514E-13
 -1      2181 4.71056E+01 4.17869E+00 8.23719E-01 6.99358E-01-5.83034E-13 6.81677E-14
 -1      2182 3.62595E+01-1.39483E+00-1.94910E-02-1.14489E+00-4.18721E-13 3.07643E-13
 -1      2183 4.21132E+01 4.67977E-01 5.02934E-01-4.85815E-01-5.27890E-13 1.48659E-13
 -1      2184 2.50970E+01-5.52817E+00-4.37649E-01-3.82402E+00 7.77156E-15 4.92162E-13
 -1      2185 3.19161E+01-3.47944E+00 1.12423E-01-3.95068E+00-1.29230E-13 6.01741E-13
 -1      2186 1.40043E+01-7.33821E+00-4.89588E-01-4.92560E+00 1.28786E-14 2.90171E-13
 -1      2187 2.00237E+01-5.93381E+00-1.53974E-01-5.77788E+00-3.08642E-14 3.06394E-13
 -1      2188 5.12782E+00-8.04980E+00-4.97130E-01-3.68370E+00 1.45217E-13 4.14835E-13
 -1      2189 9.08361E+00-6.88743E+00-2.97391E-01-5.06245E+00 3.31957E-14 5.37501E-13
 -1      2190 4.53381E-01-8.01334E+00-4.43698E-01-7.80354E-01 2.75530E-13 6.73406E-13
 -1      2191 2.14897E+00-7.25632E+00-3.15408E-01-2.40665E+00 1.32061E-13 5.36626E-13
 -1      2192 4.05484E+00-6.22175E+00-2.18404E-01 5.73136E+00 4.68070E-13 3.23797E-13
 -1      2193 1.59273E+00-8.08068E+00-4.74885E-01 4.06872E+00 4.10616E-13 3.91909E-13
 -1      2194 1.99993E+01-6.01732E-04-4.16437E-06 1.10911E-03-2.61485E-13-5.33456E-13
 -1      2195 1.21944E+00-5.09775E+00-2.15363E-01-3.38099E-01 1.41734E-13 7.99472E-13
 -1      2196 2.95041E+01-4.97050E+00-8.99359E-02 1.55032E+00-7.13318E-14 1.45065E-13
 -1      2197 3.32185E+01-3.63569E+00 1.16350E-01-9.34838E-01-1.58429E-13 2.33966E-13
 -1      2198 3.49988E+01-3.60338E+00-7.58621E-02 1.62200E+00-2.13579E-14-2.82441E-13
 -1      2199 8.14644E+00-5.34581E+00-8.53265E-02 7.37031E+00 1.39777E-13 1.51268E-13
 -1      2200 2.09063E+01 1.12918E+00-2.20899E-02-1.51391E+00-3.01380E-13 8.27099E-14
 -1      2201 2.07924E+01 1.37280E+00-1.93249E-02-1.53948E+00-3.20289E-13-4.67473E-14
 -1      2202 2.53629E+01-3.72216E+00 5.98347E-02 6.27765E+00 2.96818E-13-1.75610E-13
 -1      2203 3.38366E+01-3.22543E+00 2.55225E-02-2.48067E+00-3.05738E-13 2.42820E-13
 -1      2204 3.61234E+01-1.30142E+00-2.55870E-01-4.23977E+00-4.08923E-13 6.71962E-14
 -1      2205 3.64929E+01 1.59160E+00-4.45477E-02-4.41495E+00-4.47253E-13-6.77791E-14
 -1      2206 3.65532E+01 2.88619E+00-2.27131E-01-3.65007E+00-3.77032E-13-2.29927E-13
 -1      2207 3.65751E+01 4.66774E+00-6.23671E-02-1.43058E+00-3.33289E-13-3.29486E-13
 -1      2208 3.72475E+01 4.99785E+00-2.41408E-02 8.52755E-01-4.17222E-13-3.79377E-13
 -1      2209 3.70696E+01 3.55924E+00-1.06491E-01 3.27670E+00-4.31655E-13-6.20698E-13
 -1      2210 3.70005E+01 6.69860E+00 2.33298E-01-1.37037E-01 4.96159E-13-3.75255E-14
 -1      2211 1.99994E+01-9.90100E-04 1.21364E-06 1.30100E-03-2.20892E-13-3.10214E-13
 -1      2212 1.89011E+00-5.38009E+00-2.18421E-01 4.02453E+00 8.69027E-14 6.49147E-13
 -1      2213 4.08479E+01 3.20100E+00 4.08142E-01-3.35137E+00-5.11147E-13 7.77156E-15
 -1      2214 5.76788E+00-5.50163E+00-1.60899E-01-4.17648E+00 2.19713E-13 5.33462E-13
 -1      2215 1.45828E+01-6.56754E+00-1.15363E-01-5.88083E+00 3.10252E-13 2.60625E-13
 -1      2216 2.53475E+01-6.65756E+00-1.70997E-01-4.07980E+00 2.97262E-13 2.81164E-13
 -1      2217 4.22533E+01 4.72854E+00 5.53714E-01 2.61642E+00-5.46119E-13-2.55462E-13
 -1      2218 4.15299E+01 6.17871E+00 5.02530E-01-5.80997E-01-3.97904E-13-1.95594E-13
 -1      2219 3.87434E+01-1.33243E+00 3.70685E-01-1.78773E+00-5.53536E-13 1.45106E-13
 -1      2220 3.14740E+01-5.34597E+00 2.68225E-02 2.21450E+00-3.80251E-13-1.05471E-14
 -1      2221 2.08078E+01-6.84891E+00-1.70600E-01 5.37058E+00-1.61648E-13-3.53884E-15
 -1      2222 2.99467E+00-6.26005E+00-2.45116E-01 2.65237E+00-4.25215E-14-6.88505E-13
 -1      2223 3.22421E+00-3.54835E+00 3.68037E-02 2.31770E+00 2.06113E-13-6.83009E-13
 -1      2224 5.84248E+00-4.32341E+00-6.00158E-02 4.34711E+00 2.37421E-13-5.16864E-13
 -1      2225 4.15843E+00-5.42426E+00-9.80137E-02-5.30136E+00 3.76921E-14-9.23539E-13
 -1      2226 7.08127E+00-3.93617E+00-5.95271E-02-6.84188E+00-1.11966E-13-8.60867E-13
 -1      2227 3.99012E+00-3.22412E+00 1.37800E-01-4.73574E+00-3.82749E-14-9.38416E-13
 -1      2228 2.09741E+01-5.07608E+00 4.04370E-02-7.39136E+00 7.79377E-14-3.08573E-13
 -1      2229 3.59809E+01 4.23370E+00 2.38145E-01 1.35496E+00 4.12753E-13-7.84928E-14
 -1      2230 3.88870E+01 7.76075E+00 1.95990E-01 5.27713E-01 4.62852E-13-1.72973E-13
 -1      2231 3.53334E+01 7.20460E+00 8.32296E-03-2.15971E-01 4.61964E-13-1.72473E-13
 -1      2232 3.53837E+01 8.44522E+00-7.02651E-02-4.62471E-01 5.29132E-13-1.87711E-13
 -1      2233 3.39177E+01 1.68675E+00 1.42702E-01-1.90174E+00 3.88169E-13-8.11018E-14
 -1      2234 1.03869E+01-6.81435E+00-2.88368E-01 5.59269E+00-2.78666E-14-2.30177E-13
 -1      2235 3.52199E+01-2.74444E+00-2.02774E-02-2.91909E+00-3.92804E-13 1.84908E-13
 -1      2236 1.99994E+01-9.62021E-04-6.74059E-07 1.68509E-03-2.51040E-13-3.16027E-13
 -1      2237 1.93990E+01 3.67319E+00-1.07472E-02-5.57251E-01-4.50481E-14-4.01718E-13
 -1      2238 1.94498E+01 3.62712E+00-1.03820E-02-7.16116E-01-9.00799E-14-4.22227E-13
 -1      2239 1.95194E+01 3.53511E+00-1.30906E-02-8.49500E-01-1.19284E-13-4.21510E-13
 -1      2240 1.96106E+01 3.44799E+00-1.23469E-02-1.01548E+00-1.54178E-13-4.10864E-13
 -1      2241 1.96319E+01 3.22475E+00 1.75993E-03-7.13650E-01-9.16383E-14-3.90404E-13
 -1      2242 1.93629E+01 3.71801E+00-8.42718E-03 3.45533E-02 7.29683E-14-3.89817E-13
 -1      2243 1.93496E+01 3.72770E+00-9.90765E-03-1.25841E-01 4.35195E-14-3.86954E-13
 -1      2244 1.94266E+01 3.64817E+00-8.48119E-03 3.49058E-01 1.27026E-13-3.90155E-13
 -1      2245 1.93882E+01 3.68115E+00-1.04200E-02 1.81437E-01 9.84208E-14-3.93602E-13
 -1      2246 1.95229E+01 3.35024E+00-6.11011E-04 8.22442E-02 8.49660E-14-3.69037E-13
 -1      2247 1.95353E+01 3.52182E+00-9.52248E-03 6.75255E-01 1.92231E-13-3.49384E-13
 -1      2248 1.94744E+01 3.57882E+00-1.14213E-02 5.01144E-01 1.54341E-13-3.75932E-13
 -1      2249 1.96048E+01 3.24891E+00-6.40617E-04 3.72849E-01 1.32502E-13-3.51444E-13
 -1      2250 1.96958E+01 3.32193E+00-1.21424E-02 1.02207E+00 2.48226E-13-2.97599E-13
 -1      2251 1.96080E+01 3.41407E+00-1.30308E-02 8.35362E-01 2.10386E-13-3.29139E-13
 -1      2252 1.97346E+01 3.08034E+00-1.54578E-04 6.75542E-01 1.93919E-13-3.17489E-13
 -1      2253 1.99212E+01 3.01650E+00-1.77639E-02 1.37124E+00 2.92819E-13-2.11958E-13
 -1      2254 1.97991E+01 3.16445E+00-1.53755E-02 1.17987E+00 2.58863E-13-2.65361E-13
 -1      2255 1.99171E+01 2.82696E+00 1.38720E-03 9.80367E-01 2.38248E-13-2.66016E-13
 -1      2256 2.02382E+01 2.53843E+00-2.76034E-02 1.67944E+00 3.37736E-13-8.06352E-14
 -1      2257 2.00692E+01 2.78849E+00-1.72420E-02 1.50699E+00 3.07989E-13-1.47830E-13
 -1      2258 2.01591E+01 2.45551E+00 4.59247E-03 1.25334E+00 2.77601E-13-1.44428E-13
 -1      2259 2.06808E+01 1.78308E+00-2.79665E-02 1.79472E+00 3.38372E-13 1.17562E-13
 -1      2260 2.04467E+01 2.22153E+00-1.11944E-02 1.74836E+00 3.41239E-13-3.68108E-15
 -1      2261 2.04558E+01 1.90671E+00 9.43894E-03 1.41782E+00 3.20803E-13-2.37015E-14
 -1      2262 2.08989E+01 1.05874E+00-1.85198E-02 1.51079E+00 3.06498E-13 3.21286E-13
 -1      2263 2.07831E+01 1.53291E+00 2.49999E-03 1.70418E+00 3.28754E-13 1.95682E-13
 -1      2264 2.06182E+01 1.27219E+00 2.76979E-03 1.32615E+00 3.20469E-13 1.17006E-13
 -1      2265 2.05689E+01 7.34927E-01-3.07795E-03 1.02733E+00 2.94036E-13 2.82828E-13
 -1      2266 2.05855E+01 9.54493E-01 1.25070E-02-8.18999E-01-2.71410E-13-1.05794E-13
 -1      2267 2.04142E+01 7.44983E-01-8.32133E-04-4.71140E-01-2.52531E-13-1.23953E-13
 -1      2268 2.75646E+01-3.75208E+00-9.24683E-02 4.77782E+00 1.12188E-13-4.14835E-13
 -1      2269 2.35350E+01-4.86303E+00 3.78850E-02 6.24763E+00 5.66214E-14-3.59768E-13
 -1      2270 6.11238E+00-3.05477E+00 1.18298E-01-3.79221E+00 2.37338E-13 5.02487E-13
 -1      2271 9.47635E+00-4.06639E+00 4.67715E-02-5.55367E+00 2.70006E-13 3.13555E-13
 -1      2272 1.15965E+01-4.11190E+00 3.31998E-02 8.09687E+00-8.29614E-14-2.53408E-14
 -1      2273 7.65911E+00-3.64350E+00 1.24718E-01 6.76646E+00-1.12688E-13 1.65562E-13
 -1      2274 2.03640E+01 6.12673E-01 1.55671E-02-2.18677E-01-2.24963E-13-1.20673E-13
 -1      2275 2.02792E+01 5.17545E-01 4.68441E-03-9.81247E-06-1.85846E-13-1.23216E-13
 -1      2276 2.04055E+01 9.21795E-01-2.49526E-03-4.35658E-01-2.51595E-13-1.65206E-13
 -1      2277 2.02221E+01 4.59257E-01 9.42153E-03 2.07894E-01-1.64853E-13-1.30538E-13
 -1      2278 2.02138E+01 4.29142E-01 7.01651E-03 3.86012E-01-1.32143E-13-1.39114E-13
 -1      2279 2.02729E+01 6.65008E-01-3.09868E-03 5.75649E-02-1.89224E-13-1.58767E-13
 -1      2280 2.01676E+01 4.23797E-01 3.96497E-03 5.63017E-01-1.30377E-13-1.26072E-13
 -1      2281 2.02272E+01 4.42288E-01 9.26900E-03 7.29553E-01-9.49124E-14-1.48548E-13
 -1      2282 2.01703E+01 5.76620E-01-2.04460E-03 4.65831E-01-1.34462E-13-1.67121E-13
 -1      2283 2.01809E+01 4.76789E-01-6.87717E-04 9.05382E-01-5.16831E-14-1.44495E-13
 -1      2284 2.02958E+01 5.37722E-01 1.19523E-02 1.09042E+00-5.61964E-15-1.46792E-13
 -1      2285 2.00927E+01 6.14522E-01 6.26102E-04 8.35434E-01-8.69339E-14-1.22837E-13
 -1      2286 2.02274E+01 6.08766E-01-5.17780E-03 1.29008E+00 1.34068E-14-1.43382E-13
 -1      2287 2.03875E+01 7.09434E-01 1.48641E-02 1.51862E+00 5.52627E-14-1.35582E-13
 -1      2288 2.00068E+01 7.57852E-01 4.69088E-03 1.22019E+00-5.81913E-15-1.40294E-13
 -1      2289 2.02663E+01 8.12687E-01-1.00069E-02 1.76416E+00 5.20881E-14-1.67571E-13
 -1      2290 2.04591E+01 9.43058E-01 1.73555E-02 2.05517E+00 4.31877E-14-1.84688E-13
 -1      2291 1.98609E+01 9.95846E-01 1.03194E-02 1.66524E+00 3.06118E-14-2.09162E-13
 -1      2292 2.02574E+01 1.04992E+00-1.56262E-02 2.35038E+00 5.51577E-14-1.90488E-13
 -1      2293 2.04755E+01 1.17070E+00 1.98236E-02 2.68532E+00 1.25429E-14-2.23771E-13
 -1      2294 1.95984E+01 1.29482E+00 1.93057E-02 2.19051E+00 2.25460E-14-2.64013E-13
 -1      2295 2.01581E+01 1.24029E+00-1.64858E-02 3.07206E+00-8.68652E-15-1.98348E-13
 -1      2296 2.04299E+01 1.26095E+00 2.86627E-02 3.46179E+00 2.68474E-14-1.48099E-13
 -1      2297 1.91411E+01 1.56378E+00 2.72458E-02 2.83895E+00 3.38210E-14-2.93788E-13
 -1      2298 2.00228E+01 1.13074E+00-1.69821E-03 3.93608E+00 9.99721E-14-1.27881E-13
 -1      2299 2.04256E+01 8.17698E-01 4.89929E-02 4.26814E+00 1.79726E-13-9.81923E-14
 -1      2300 1.84393E+01 1.57874E+00 4.03040E-02 3.65241E+00 8.89479E-14-1.73652E-13
 -1      2301 2.01357E+01 2.08486E-01 5.98612E-02 4.78401E+00 2.03837E-13-1.02359E-13
 -1      2302 2.08797E+01-8.19551E-01 8.49844E-02 4.86691E+00 2.18839E-13-7.31602E-14
 -1      2303 1.76769E+01 8.15097E-01 7.79211E-02 4.66290E+00 2.15446E-13-1.75800E-13
 -1      2304 2.11659E+01-2.13366E+00 1.39694E-01 5.24022E+00 2.40072E-13-5.46785E-15
 -1      2305 2.25351E+01-3.74208E+00 1.00036E-01 4.86491E+00 1.91902E-13 4.25701E-14
 -1      2306 1.71361E+01-1.37616E+00 2.11860E-02 5.63528E+00 2.48773E-13-9.63118E-14
 -1      2307 3.75065E+01 1.94808E+00-6.85662E-02 4.57606E+00-3.97959E-13-6.03184E-13
 -1      2308 4.02573E+01 9.17786E-01 2.33038E-01 3.42380E+00-3.80196E-13-3.47389E-13
 -1      2309 3.34915E+01 5.27932E+00-1.06424E-01 7.88497E-01 4.11005E-13 1.07386E-13
 -1      2310 3.43671E+01 6.90646E+00-1.43461E-01 6.97381E-01 4.75731E-13 6.92779E-14
 -1      2311 2.51397E+00-2.67294E+00 9.18680E-02 1.07852E+00 5.25760E-14 7.83262E-13
 -1      2312 3.42067E+00-2.29522E+00 1.03799E-01-1.38069E+00 1.15102E-13 7.35856E-13
 -1      2313 2.01853E+01 3.58282E-01 4.34558E-03 4.40624E-01 2.36868E-13 2.12728E-13
 -1      2314 2.04132E+01 5.03925E-01 8.51725E-03 7.05721E-01 2.58038E-13 2.67977E-13
 -1      2315 2.04865E+01 7.48499E-01 1.16610E-02 8.79062E-01 2.81311E-13 1.73173E-13
 -1      2316 2.34719E+01-2.94486E+00 6.96520E-02-4.47188E+00 1.55154E-13 2.56305E-13
 -1      2317 2.21890E+01-1.38106E+00 1.18576E-01-4.85721E+00 1.11057E-13 1.63911E-13
 -1      2318 2.18222E+01-2.33431E-01 5.10883E-02-4.54133E+00 1.07865E-13 2.35745E-13
 -1      2319 2.11794E+01 5.55441E-01 4.62336E-02-4.37670E+00 1.88256E-13 2.10471E-13
 -1      2320 1.88323E+01-8.18676E-01 2.11616E-02-5.21572E+00 9.72278E-14 4.52798E-13
 -1      2321 2.13327E+01 9.31701E-01 2.72073E-02-3.90027E+00 1.35275E-13 1.51716E-13
 -1      2322 2.09388E+01 1.14081E+00 1.35961E-03-3.52579E+00 8.93461E-14 9.49475E-14
 -1      2323 1.89884E+01 9.69876E-01 2.22870E-02-4.26860E+00 1.05659E-13 4.03207E-13
 -1      2324 2.11910E+01 1.16450E+00 2.13609E-02-3.06722E+00 7.96602E-14 8.66678E-14
 -1      2325 2.08928E+01 1.11418E+00-9.67760E-03-2.67123E+00 1.55178E-13 1.31243E-13
 -1      2326 1.94999E+01 1.48747E+00 2.26319E-02-3.32096E+00 7.32703E-14 2.43195E-13
 -1      2327 2.10788E+01 1.01409E+00 1.84974E-02-2.29280E+00 1.33706E-13 1.20384E-13
 -1      2328 2.08332E+01 8.93561E-01-8.17927E-03-1.95315E+00 1.12469E-13 8.66748E-14
 -1      2329 1.99294E+01 1.37401E+00 1.63319E-02-2.51179E+00 1.10133E-13 5.22325E-14
 -1      2330 2.09357E+01 7.81566E-01 1.66256E-02-1.67259E+00 1.77532E-14-2.46648E-14
 -1      2331 2.07369E+01 6.66958E-01-5.70474E-03-1.41979E+00-6.47425E-14-1.54302E-13
 -1      2332 2.01767E+01 1.08980E+00 1.02262E-02-1.86702E+00-1.08988E-14 5.65268E-14
 -1      2333 2.07795E+01 5.64907E-01 1.34111E-02-1.19539E+00-7.80365E-14-1.92044E-13
 -1      2334 2.06119E+01 4.68832E-01-3.78395E-03-1.00041E+00-5.42283E-14-2.44067E-13
 -1      2335 2.02884E+01 8.05542E-01 7.00029E-03-1.36402E+00-1.69326E-13-1.00643E-13
 -1      2336 2.06192E+01 3.92404E-01 1.03279E-02-8.37340E-01 1.84726E-14-1.78618E-13
 -1      2337 2.04884E+01 3.22130E-01-2.22550E-03-6.99176E-01 1.19419E-13-1.68452E-13
 -1      2338 2.03126E+01 5.67070E-01 3.95580E-03-9.75280E-01-1.37724E-14-2.06533E-14
 -1      2339 2.04767E+01 2.68246E-01 7.61047E-03-5.82706E-01 1.02665E-13-3.05916E-13
 -1      2340 2.03775E+01 2.19009E-01-1.27071E-03-4.86488E-01 5.53203E-14-2.37097E-13
 -1      2341 2.02888E+01 3.90794E-01 1.94863E-03-6.91342E-01 4.32499E-14-2.62792E-14
 -1      2342 2.03583E+01 1.82154E-01 5.45636E-03-4.04203E-01 8.57047E-14-2.26849E-13
 -1      2343 2.02847E+01 1.48614E-01-5.65566E-04-3.37792E-01-3.74591E-14-7.47103E-14
 -1      2344 2.02451E+01 2.66687E-01 7.63564E-04-4.87411E-01 8.57603E-14-9.29650E-14
 -1      2345 2.02657E+01 1.25068E-01 3.91751E-03-2.82662E-01-1.66085E-13-1.06937E-13
 -1      2346 2.02134E+01 1.02886E-01-2.62448E-04-2.38541E-01-1.59992E-14-1.65601E-13
 -1      2347 2.01982E+01 1.82689E-01-5.77070E-05-3.45142E-01-1.56101E-13-1.66150E-13
 -1      2348 2.01942E+01 8.56575E-02 2.72283E-03-1.97126E-01-8.86894E-15-3.00569E-13
 -1      2349 2.01542E+01 6.99830E-02-1.53664E-04-1.64964E-01-1.84971E-13-3.27064E-13
 -1      2350 2.01549E+01 1.26108E-01-1.25290E-04-2.44199E-01-1.66894E-13-2.43585E-13
 -1      2351 2.01382E+01 5.85458E-02 1.91877E-03-1.35964E-01-1.98312E-13-3.35732E-13
 -1      2352 2.01094E+01 4.78935E-02-5.16336E-05-1.13708E-01-2.85231E-13-3.37672E-13
 -1      2353 2.01166E+01 8.61965E-02-2.46896E-04-1.70501E-01-2.09864E-13-4.77377E-13
 -1      2354 2.00965E+01 4.01846E-02 1.34123E-03-9.33210E-02-2.14478E-13-2.17930E-13
 -1      2355 2.00759E+01 3.29281E-02 2.05164E-06-7.78771E-02 7.96721E-14-2.10375E-13
 -1      2356 2.00856E+01 5.91803E-02-2.75289E-04-1.18456E-01-1.60445E-13-2.79203E-13
 -1      2357 2.00658E+01 2.76912E-02 9.37266E-04-6.35200E-02 2.11865E-13-1.52172E-13
 -1      2358 2.00513E+01 2.27148E-02 2.70711E-05-5.27751E-02 2.76448E-13-1.75515E-13
 -1      2359 2.00612E+01 4.07948E-02-2.58110E-04-8.16634E-02 1.93274E-13-1.31591E-14
 -1      2360 2.00437E+01 1.91167E-02 6.52570E-04-4.26571E-02 1.12764E-13-2.90772E-13
 -1      2361 2.00336E+01 1.57056E-02 4.90679E-05-3.51820E-02-1.02791E-13-2.32911E-13
 -1      2362 2.00426E+01 2.82004E-02-2.21366E-04-5.56378E-02 6.83619E-14-1.46719E-13
 -1      2363 2.00282E+01 1.33538E-02 4.62075E-04-2.83829E-02-2.62544E-14-3.12774E-13
 -1      2364 2.00215E+01 1.10360E-02 4.64031E-05-2.33764E-02 2.93989E-14-1.46328E-13
 -1      2365 2.00290E+01 1.95974E-02-2.09335E-04-3.75773E-02-1.36525E-13-3.04575E-13
 -1      2366 2.00174E+01 9.24539E-03 3.21057E-04-1.82802E-02 1.42601E-13-1.62726E-13
 -1      2367 2.00126E+01 7.54801E-03 3.24557E-05-1.46101E-02 2.09765E-13-5.04267E-16
 -1      2368 2.00191E+01 1.37052E-02-1.45008E-04-2.48134E-02 1.24810E-13-1.35600E-13
 -1      2369 2.00097E+01 6.32145E-03 2.26058E-04-1.10692E-02 1.85985E-13-3.22600E-15
 -1      2370 2.00066E+01 5.11716E-03 2.62413E-05-8.54680E-03 2.30461E-13-3.50478E-14
 -1      2371 2.00119E+01 9.38651E-03-1.13359E-04-1.55501E-02 2.79595E-13-7.02898E-14
 -1      2372 2.00047E+01 4.26024E-03 1.55638E-04-6.10779E-03 1.78201E-13-1.83993E-14
 -1      2373 2.00027E+01 3.41111E-03 2.09316E-05-4.39864E-03 8.05908E-14 4.13339E-14
 -1      2374 2.00068E+01 6.35944E-03-8.62107E-05-9.10635E-03 2.39951E-13-7.87391E-14
 -1      2375 2.00014E+01 2.81149E-03 1.05506E-04-2.74623E-03-1.38650E-14-3.43507E-14
 -1      2376 2.00004E+01 2.21298E-03 1.62378E-05-1.61309E-03-2.36039E-13 1.46255E-14
 -1      2377 2.00034E+01 4.23067E-03-6.41375E-05-4.68219E-03 3.11748E-14 1.05847E-13
 -1      2378 1.99996E+01 1.79067E-03 6.92756E-05-5.21810E-04-6.33253E-14 2.01041E-13
 -1      2379 1.99990E+01 1.37253E-03 1.31539E-05 2.01342E-04 1.17697E-13 2.56044E-13
 -1      2380 2.00013E+01 2.73396E-03-4.63626E-05-1.70502E-03-4.33160E-14 8.18631E-14
 -1      2381 1.99986E+01 1.08889E-03 4.44067E-05 8.62313E-04-5.30693E-14 2.05349E-13
 -1      2382 1.99984E+01 7.97921E-04 8.72019E-06 1.28032E-03-1.27089E-13 1.13690E-13
 -1      2383 2.00000E+01 1.68607E-03-3.58109E-05 2.02912E-04 1.07034E-15 2.11339E-13
 -1      2384 1.99982E+01 5.73753E-04 2.75401E-05 1.69316E-03 2.17939E-13 1.98030E-14
 -1      2385 1.99983E+01 3.44088E-04 3.04211E-06 1.92182E-03 2.58291E-13-3.25513E-14
 -1      2386 1.99993E+01 9.49077E-04-2.30016E-05 1.38306E-03 4.42624E-14 2.91831E-14
 -1      2387 1.99983E+01 1.73908E-04 1.61261E-05 2.11280E-03 1.50308E-13-8.08009E-14
 -1      2388 1.99985E+01-1.66044E-05-1.85242E-06 2.17442E-03 9.29593E-15 1.70017E-15
 -1      2389 1.99990E+01 3.70384E-04-1.54705E-05 2.05223E-03 2.16451E-13 1.29618E-13
 -1      2390 1.99985E+01-1.73224E-04 5.71592E-06 2.19066E-03-1.11706E-13 2.96756E-14
 -1      2391 1.99988E+01-3.40881E-04-6.08751E-06 2.10742E-03-6.04542E-14-1.20502E-13
 -1      2392 1.99990E+01-9.69734E-05-7.20933E-06 2.29848E-03-1.56800E-13 1.45818E-13
 -1      2393 1.99990E+01-5.35301E-04-3.98369E-06 2.05045E-03-2.02357E-13-1.80815E-13
 -1      2394 1.99992E+01-7.13274E-04-1.11470E-05 1.83866E-03-2.58584E-13-2.54037E-13
 -1      2395 1.99996E+01-1.09711E-03 6.22507E-06 1.99014E-03-3.16849E-13-1.43583E-13
 -1      2396 1.99993E+01-5.53467E-04 2.28051E-06 2.24456E-03-1.77108E-13-1.18759E-13
 -1      2397 1.99148E+01 1.19360E-01 1.77659E-03 1.25079E-04 1.55856E-13 7.75553E-14
 -1      2398 1.99738E+01 1.80357E-01 9.53007E-03 7.94773E-02 1.75910E-13 1.12852E-13
 -1      2399 2.00034E+01 2.18924E-01 5.59160E-03 1.63142E-01 1.79847E-13 1.48182E-13
 -1      2400 2.01248E+01 3.03556E-01 1.17300E-02 3.13735E-01 2.03837E-13 1.83991E-13
 -1      2401 2.02303E+01 4.10521E-01-1.94506E-03 4.15091E-01 2.25465E-13 1.25420E-13
 -1      2402 2.01268E+01 2.67272E-01-5.67303E-03 1.73137E-01 2.10762E-13 5.77882E-14
 -1      2403 1.98490E+01-4.71265E-02-1.97803E-03-9.94766E-02 3.11952E-14-7.01110E-15
 -1      2404 1.98513E+01-1.10507E-02 3.69596E-03-1.08210E-01 6.36449E-14 6.26940E-15
 -1      2405 1.98508E+01-1.09832E-01-3.59303E-03-3.66372E-02 7.97799E-15 1.53493E-14
 -1      2406 1.98549E+01-7.82322E-02 1.72883E-03-7.55675E-02-2.37288E-15-8.15998E-15
 -1      2407 2.00041E+01-8.54320E-02-1.85617E-03-8.94118E-02 2.58930E-14-2.63737E-14
 -1      2408 1.98382E+01-1.63593E-01-4.88139E-03 8.61987E-02 4.80011E-14 6.55232E-14
 -1      2409 1.98600E+01-1.36914E-01 3.53617E-04 2.15423E-02 2.27789E-14 4.30366E-14
 -1      2410 2.00177E+01-1.70264E-01-5.58208E-04-6.52831E-03 1.00495E-15-9.97943E-15
 -1      2411 1.97873E+01-2.02182E-01-5.49969E-03 2.57259E-01 4.53591E-14 6.76816E-14
 -1      2412 1.98389E+01-1.84479E-01-7.71006E-04 1.73091E-01 7.32483E-14 7.45267E-14
 -1      2413 2.00264E+01-2.40040E-01 7.46644E-04 1.44774E-01 3.94500E-14 4.54975E-14
 -1      2414 1.96787E+01-2.13484E-01-5.02051E-03 4.56588E-01 9.88183E-14 5.95709E-15
 -1      2415 1.97678E+01-2.11611E-01-1.81134E-03 3.63663E-01 8.32875E-14 6.66493E-14
 -1      2416 2.00074E+01-2.84217E-01 2.03530E-03 3.49202E-01 8.69776E-14 8.54308E-15
 -1      2417 1.95010E+01-1.82809E-01-3.11735E-03 6.51375E-01 3.03193E-14 8.06278E-15
 -1      2418 1.96284E+01-2.04318E-01-2.76108E-03 5.66576E-01 7.34209E-14-1.53306E-16
 -1      2419 1.99391E+01-2.85135E-01 3.13814E-03 5.80538E-01 9.64131E-14 2.16705E-16
 -1      2420 1.92561E+01-9.96261E-02 1.52523E-04 7.95646E-01 3.88049E-14 3.05437E-14
 -1      2421 1.94137E+01-1.48813E-01-3.39600E-03 7.41078E-01 1.57667E-14 9.55627E-15
 -1      2422 1.98053E+01-2.23879E-01 3.65717E-03 7.96712E-01 1.49179E-14-5.79333E-15
 -1      2423 1.89657E+01 3.31367E-02 4.10348E-03 8.37732E-01-2.21587E-14 6.08181E-14
 -1      2424 1.91350E+01-3.98696E-02-3.29324E-03 8.35987E-01 3.40629E-14 1.10691E-13
 -1      2425 1.96025E+01-9.06514E-02 3.01890E-03 9.40824E-01-2.89237E-14 1.75384E-14
 -1      2426 1.86733E+01 1.91776E-01 7.48613E-03 7.36789E-01 8.50834E-14 3.79362E-14
 -1      2427 1.88274E+01 1.09999E-01-1.96391E-03 8.02596E-01 2.91041E-14 8.53816E-14
 -1      2428 1.93495E+01 1.02959E-01 8.07911E-04 9.52359E-01 7.12321E-15 3.07794E-14
 -1      2429 1.84395E+01 3.33617E-01 9.02840E-03 4.84013E-01 1.60621E-13 3.65588E-14
 -1      2430 1.85486E+01 2.66660E-01 8.25122E-04 6.15288E-01 1.13674E-13 4.71042E-14
 -1      2431 1.90920E+01 3.16979E-01-2.65177E-03 7.89292E-01 9.47824E-14 3.79249E-14
 -1      2432 1.83243E+01 4.12302E-01 8.13911E-03 1.16639E-01 2.20657E-13-3.07450E-15
 -1      2433 1.83639E+01 3.82821E-01 4.50701E-03 2.90690E-01 2.26309E-13 4.55770E-14
 -1      2434 1.88948E+01 4.91261E-01-5.90015E-03 4.53770E-01 1.85762E-13 8.73592E-14
 -1      2435 1.83640E+01 3.99834E-01 5.32946E-03-2.87859E-01 6.53744E-14-4.69870E-14
 -1      2436 1.83231E+01 4.18366E-01 7.79261E-03-1.08700E-01 1.55910E-13-2.30936E-14
 -1      2437 1.88181E+01 5.68171E-01-7.40484E-03 4.32475E-03 2.06524E-13 1.18969E-13
 -1      2438 1.85547E+01 3.01753E-01 1.93355E-03-6.38327E-01-9.73006E-15-8.27784E-14
 -1      2439 1.84397E+01 3.60772E-01 9.22342E-03-4.93198E-01 2.02048E-14-3.81604E-14
 -1      2440 1.88901E+01 5.21154E-01-6.25458E-03-4.58411E-01 2.79624E-14 4.11849E-14
 -1      2441 1.88536E+01 1.54152E-01-7.76082E-04-8.64755E-01-5.58275E-14-6.36804E-14
 -1      2442 1.86856E+01 2.32352E-01 8.08317E-03-7.79816E-01-5.41305E-14-7.27874E-14
 -1      2443 1.90919E+01 3.68224E-01-3.23165E-03-8.29288E-01-3.24995E-14 1.53704E-14
 -1      2444 1.91972E+01 4.22869E-03-2.14287E-03-9.41010E-01-2.20700E-15-9.53001E-14
 -1      2445 1.90050E+01 7.76941E-02 4.88597E-03-9.22286E-01 3.47859E-14-1.03185E-13
 -1      2446 1.93682E+01 1.62904E-01 1.52885E-04-1.03951E+00 4.94255E-15-5.15013E-14
 -1      2447 1.95258E+01-1.11058E-01-2.33361E-03-8.84737E-01 5.94868E-14-2.00099E-13
 -1      2448 1.93372E+01-5.88041E-02 9.08406E-04-9.20651E-01-3.70971E-14-1.68771E-13
 -1      2449 1.96539E+01-3.34060E-02 2.52395E-03-1.07585E+00 3.01083E-14-1.41584E-13
 -1      2450 1.97993E+01-1.75686E-01-1.85378E-03-7.40177E-01 5.11828E-14-1.34437E-13
 -1      2451 1.96349E+01-1.49953E-01-2.56195E-03-8.09955E-01 1.29026E-13-1.67027E-13
 -1      2452 1.98987E+01-1.76615E-01 3.41270E-03-9.72176E-01 2.92359E-14-1.82616E-13
 -1      2453 2.00009E+01-1.92795E-01-1.17730E-03-5.56946E-01-1.81402E-13-2.11279E-13
 -1      2454 1.98716E+01-1.89967E-01-4.76818E-03-6.39353E-01-4.80902E-14-1.70861E-13
 -1      2455 2.00782E+01-2.50744E-01 3.17182E-03-7.85111E-01 1.33779E-14-1.10776E-13
 -1      2456 2.01319E+01-1.76178E-01-5.87334E-04-3.75109E-01-1.61936E-14-1.91398E-13
 -1      2457 2.00402E+01-1.88425E-01-5.59781E-03-4.53941E-01-1.97118E-13-1.92339E-13
 -1      2458 2.01902E+01-2.63502E-01 2.39796E-03-5.70248E-01-1.49327E-13-2.23504E-13
 -1      2459 2.02039E+01-1.41771E-01-1.81094E-04-2.19418E-01 2.60100E-15-1.44177E-13
 -1      2460 2.01463E+01-1.61088E-01-5.35638E-03-2.85228E-01 4.50516E-14-1.39570E-13
 -1      2461 2.02460E+01-2.34619E-01 1.55008E-03-3.68375E-01-2.02538E-14-1.22422E-13
 -1      2462 2.02318E+01-1.02479E-01 5.33706E-05-1.00343E-01 1.89534E-14-6.54352E-14
 -1      2463 2.02017E+01-1.22840E-01-4.48581E-03-1.49607E-01-1.88168E-14-9.74430E-14
 -1      2464 2.02611E+01-1.85176E-01 8.56745E-04-2.02133E-01 2.89081E-14-7.07691E-14
 -1      2465 2.02300E+01-6.64541E-02 1.66327E-04-1.82248E-02 8.63665E-15-1.13017E-13
 -1      2466 2.02201E+01-8.43158E-02-3.37780E-03-5.14500E-02 5.96628E-14-7.90154E-14
 -1      2467 2.02501E+01-1.31539E-01 3.72642E-04-7.90784E-02 3.91632E-14-1.25145E-13
 -1      2468 2.02104E+01-3.75579E-02 2.07385E-04 3.22313E-02-2.37249E-13-8.95915E-14
 -1      2469 2.02137E+01-5.14366E-02-2.29924E-03 1.24042E-02-1.80744E-13-1.23232E-13
 -1      2470 2.02245E+01-8.36533E-02 6.98001E-05 3.04940E-03-4.36907E-14-9.80843E-14
 -1      2471 2.01816E+01-1.66578E-02 2.11089E-04 5.84572E-02-6.12679E-14 8.99329E-14
 -1      2472 2.01928E+01-2.64196E-02-1.39252E-03 4.86761E-02-1.20919E-13 5.14188E-15
 -1      2473 2.01924E+01-4.59344E-02-1.03275E-04 5.14475E-02-2.30646E-13-1.56568E-13
 -1      2474 2.01500E+01-2.94347E-03 1.97743E-04 6.78324E-02 6.94410E-14 1.73880E-15
 -1      2475 2.01647E+01-9.16038E-03-7.06837E-04 6.48969E-02 4.21956E-14 9.50324E-14
 -1      2476 2.01590E+01-1.90676E-02-1.92744E-04 7.47708E-02-4.70810E-14-2.68380E-14
 -1      2477 2.01192E+01 5.09216E-03 1.77856E-04 6.65893E-02 6.21512E-14-8.31032E-14
 -1      2478 2.01347E+01 1.59476E-03-2.34327E-04 6.78611E-02 3.25714E-14-4.25062E-14
 -1      2479 2.01275E+01-1.71738E-03-2.31260E-04 8.11040E-02 1.05943E-13 5.62510E-14
 -1      2480 2.00914E+01 9.05050E-03 1.56284E-04 5.94584E-02-1.96985E-13 7.55218E-14
 -1      2481 2.01060E+01 7.45715E-03 6.05879E-05 6.29736E-02-6.48292E-14 7.68240E-14
 -1      2482 2.00994E+01 8.23268E-03-2.39618E-04 7.70420E-02-9.75441E-14 1.31632E-13
 -1      2483 2.00678E+01 1.03254E-02 1.35088E-04 4.97301E-02 1.77055E-14 1.10294E-13
 -1      2484 2.00805E+01 9.95314E-03 2.21742E-04 5.41486E-02-1.03868E-13 3.52461E-14
 -1      2485 2.00754E+01 1.29393E-02-2.30436E-04 6.74696E-02-9.16533E-14 2.19381E-13
 -1      2486 2.00484E+01 9.99635E-03 1.15121E-04 3.95049E-02 1.05753E-13 2.04811E-13
 -1      2487 2.00590E+01 1.03302E-02 2.90359E-04 4.39903E-02 9.42307E-15 1.11578E-13
 -1      2488 2.00556E+01 1.42406E-02-2.11360E-04 5.57165E-02-2.39373E-14 1.57641E-13
 -1      2489 2.00332E+01 8.83045E-03 9.67648E-05 2.99911E-02-4.70064E-14 5.69234E-13
 -1      2490 2.00415E+01 9.51253E-03 3.00234E-04 3.40775E-02 1.31052E-13 4.05348E-13
 -1      2491 2.00398E+01 1.35408E-02-1.87187E-04 4.38632E-02-2.01932E-15 2.41676E-13
 -1      2492 2.00215E+01 7.33198E-03 8.02141E-05 2.17785E-02-7.95845E-14 3.27871E-13
 -1      2493 2.00279E+01 8.13225E-03 2.76600E-04 2.52524E-02-8.61593E-14 4.96810E-13
 -1      2494 2.00275E+01 1.18262E-02-1.61061E-04 3.30719E-02 1.14525E-14 3.21555E-13
 -1      2495 2.00130E+01 5.80598E-03 6.55644E-05 1.50592E-02-3.79585E-14 4.05673E-14
 -1      2496 2.00176E+01 6.58911E-03 2.36898E-04 1.78659E-02-8.03325E-14 1.50339E-13
 -1      2497 2.00182E+01 9.73822E-03-1.35085E-04 2.38779E-02 9.79362E-14 9.97899E-14
 -1      2498 2.00070E+01 4.41731E-03 5.28187E-05 9.79181E-03-8.04331E-14 6.12369E-14
 -1      2499 2.00102E+01 5.11335E-03 1.92305E-04 1.19673E-02-9.93425E-14-5.91704E-15
 -1      2500 2.00113E+01 7.65928E-03-1.10639E-04 1.64198E-02 8.21195E-16-6.42254E-15
 -1      2501 2.00029E+01 3.23846E-03 4.18798E-05 5.81385E-03 2.04082E-13 1.44091E-13
 -1      2502 2.00050E+01 3.81973E-03 1.49367E-04 7.43886E-03 3.08590E-14 7.16634E-14
 -1      2503 2.00064E+01 5.79150E-03-8.85518E-05 1.06077E-02-1.14759E-14 3.60044E-14
 -1      2504 2.00003E+01 2.28498E-03 3.25403E-05 2.91577E-03-9.13944E-14 4.16650E-13
 -1      2505 2.00016E+01 2.74936E-03 1.11438E-04 4.08592E-03 1.28709E-13 3.78575E-13
 -1      2506 2.00031E+01 4.21914E-03-6.92348E-05 6.23784E-03 2.56698E-14 1.16359E-13
 -1      2507 1.99988E+01 1.53972E-03 2.44817E-05 8.85396E-04 9.16515E-14 3.70420E-13
 -1      2508 1.99995E+01 1.89938E-03 7.98085E-05 1.69375E-03 1.93836E-15 2.98220E-13
 -1      2509 2.00009E+01 2.95435E-03-5.27951E-05 3.06655E-03-1.94340E-14 3.64532E-13
 -1      2510 1.99981E+01 9.68680E-04 1.72680E-05-4.66781E-04 5.15405E-13 2.47937E-13
 -1      2511 1.99984E+01 1.24285E-03 5.45241E-05 6.05994E-05 3.50056E-13 3.54991E-13
 -1      2512 1.99996E+01 1.96848E-03-3.91234E-05 8.55059E-04 2.47241E-13-1.87728E-14
 -1      2513 1.99980E+01 5.31391E-04 1.11763E-05-1.29497E-03 1.35931E-13 3.99317E-13
 -1      2514 1.99979E+01 7.41353E-04 3.49068E-05-9.84823E-04 2.63896E-13 3.96098E-13
 -1      2515 1.99990E+01 1.21250E-03-2.78682E-05-6.06051E-04 3.24051E-13 1.68053E-13
 -1      2516 1.99982E+01 1.79817E-04 5.80354E-06-1.71566E-03-7.86024E-14 3.44108E-13
 -1      2517 1.99980E+01 3.48893E-04 1.91002E-05-1.57900E-03 7.89674E-14 3.88168E-13
 -1      2518 1.99987E+01 6.32195E-04-1.84598E-05-1.48518E-03 1.65033E-13 4.72728E-13
 -1      2519 1.99986E+01-1.31448E-04-3.37990E-07-1.79944E-03 2.12485E-13 4.12435E-13
 -1      2520 1.99983E+01 2.02104E-05 8.21648E-06-1.80992E-03-2.84920E-14 3.88346E-13
 -1      2521 1.99988E+01 1.41463E-04-1.38620E-05-1.91807E-03-7.91888E-14 4.97845E-13
 -1      2522 1.99990E+01-4.31838E-04-6.89393E-06-1.59221E-03 4.58174E-14 5.75906E-13
 -1      2523 1.99987E+01-2.75379E-04 4.15279E-06-1.72937E-03 1.75120E-13 5.25857E-13
 -1      2524 1.99990E+01-3.00457E-04-9.01447E-06-1.97486E-03 9.43410E-14 6.59134E-13
 -1      2525 1.99992E+01-5.84660E-04-7.06019E-07-1.36587E-03 7.61509E-14 5.46936E-13
 -1      2526 2.00003E+01-1.83657E-03 2.96360E-06-1.32047E-03-1.17251E-13 2.88041E-14
 -1      2527 2.00002E+01-1.65585E-03 3.90773E-06-1.48152E-03-1.28461E-13-2.60608E-13
 -1      2528 2.00004E+01-2.01245E-03 3.85469E-06-9.24401E-04-1.33674E-13 3.29534E-13
 -1      2529 2.00003E+01-1.87739E-03 5.85158E-06-1.12160E-03-2.37770E-13 3.82494E-13
 -1      2530 2.00005E+01-1.12963E-03 1.01094E-06-1.30908E-03-7.44836E-14 2.24107E-13
 -1      2531 1.99999E+01-1.29067E-03 2.21615E-06-1.81756E-03 5.09485E-14-2.05294E-13
 -1      2532 1.99997E+01-1.03970E-03-3.53167E-06-1.82405E-03 1.39368E-14-1.11628E-13
 -1      2533 2.00001E+01-1.59363E-03 3.06643E-06-1.63309E-03-2.22146E-13-3.66017E-13
 -1      2534 2.00000E+01-1.38184E-03 5.24852E-07-1.73256E-03-1.22642E-13-1.95284E-13
 -1      2535 2.00000E+01-9.02995E-04-2.86902E-06-1.91997E-03 1.94167E-13-4.01844E-13
 -1      2536 2.00003E+01-1.03328E-03-1.45478E-08-1.67382E-03-7.61190E-14-1.82025E-13
 -1      2537 2.00004E+01-2.12554E-03 5.48144E-06-4.79363E-04-1.73042E-13 8.62509E-14
 -1      2538 2.00004E+01-2.04503E-03 5.69835E-06-6.99447E-04-1.53582E-13 2.06801E-13
 -1      2539 2.00006E+01-1.19886E-03 1.71083E-06-8.73971E-04-2.32529E-13 3.76074E-13
 -1      2540 2.00005E+01-2.17593E-03 7.28922E-06-2.88531E-07-4.78786E-13-4.76420E-14
 -1      2541 2.00005E+01-2.15551E-03 4.88075E-06-2.35673E-04-3.91963E-13 6.66562E-15
 -1      2542 2.00007E+01-1.25865E-03 1.93987E-06-3.93282E-04-3.59790E-13-6.89949E-14
 -1      2543 2.00005E+01-2.15819E-03 8.46855E-06 5.01338E-04-3.51956E-13-1.82985E-13
 -1      2544 2.00005E+01-2.20173E-03 3.97664E-06 2.58016E-04-4.22543E-13-7.87367E-15
 -1      2545 2.00007E+01-1.31186E-03 1.37367E-06 1.22237E-04-3.29128E-13 4.13590E-14
 -1      2546 2.00005E+01-2.06384E-03 8.05310E-06 9.95942E-04-4.42655E-14-1.47506E-13
 -1      2547 2.00005E+01-2.17082E-03 3.50994E-06 7.62250E-04-2.91624E-13-1.88119E-13
 -1      2548 2.00007E+01-1.34816E-03 1.93995E-07 6.57147E-04-1.04820E-13-3.73325E-15
 -1      2549 2.00004E+01-1.87826E-03 5.91131E-06 1.45918E-03 3.15028E-14 1.07041E-15
 -1      2550 2.00004E+01-2.04894E-03 3.89366E-06 1.25061E-03 5.95003E-14-2.29702E-13
 -1      2551 2.00007E+01-1.34744E-03-1.52781E-06 1.19118E-03 1.30851E-13-2.30781E-13
 -1      2552 2.00001E+01-1.59625E-03 2.49816E-06 1.81316E-03-2.64405E-13-3.15758E-13
 -1      2553 2.00003E+01-1.82043E-03 4.46851E-06 1.67248E-03-1.96155E-13-1.34759E-13
 -1      2554 2.00005E+01-1.28367E-03-3.03474E-06 1.67839E-03-1.49000E-13-2.80786E-13
 -1      2555 1.99998E+01-1.24444E-03-3.89937E-06 1.95953E-03-3.31975E-13-1.56213E-13
 -1      2556 2.00000E+01-1.50466E-03 4.56992E-06 1.93343E-03-3.23460E-13-2.40669E-13
 -1      2557 2.00002E+01-1.14436E-03-3.98656E-06 2.02008E-03-4.93609E-13-2.64425E-13
 -1      2558 1.99997E+01-9.29553E-04-5.52969E-06 2.15736E-03-4.39993E-13-1.60685E-13
 -1      2559 1.96088E+01-5.05647E+00-2.28575E-02 7.80778E+00-1.29063E-14-1.55858E-13
 -1      2560 1.62258E+01-4.89781E+00 1.06880E-01 7.94969E+00-8.48210E-14-9.96911E-14
 -1      2561 3.36567E+01-4.69104E+00-1.23746E-01 7.49867E-02-3.58213E-13 1.17795E-13
 -1      2562 2.06657E+01 2.01013E+00-1.34764E-02-1.74301E+00-3.11084E-13-1.61336E-13
 -1      2563 2.05740E+01 1.30494E+00-4.35805E-03-1.12574E+00-2.98818E-13-1.33064E-13
 -1      2564 2.04939E+01 1.49573E+00 2.43194E-03-1.03321E+00-2.84968E-13-1.93859E-13
 -1      2565 2.03764E+01 2.43438E+00-9.62365E-03-1.65921E+00-2.90249E-13-2.47798E-13
 -1      2566 3.55016E+01-3.72179E+00 6.52297E-02 2.42250E-01-3.72202E-14 3.33067E-16
 -1      2567 1.98602E+01 2.55636E-02-2.08783E-04-9.23331E-02 9.76282E-14 2.53936E-14
 -1      2568 1.98805E+01 6.98714E-02 6.78688E-03-6.45391E-02 1.21999E-13 5.73355E-14
 -1      2569 2.00543E+01 1.38376E-01-4.23966E-03-1.53475E-05 1.69588E-13 2.78536E-14
 -1      2570 2.00085E+01 1.36841E-02-3.12583E-03-9.23202E-02 1.01827E-13 3.87450E-15
 -1      2571 1.93507E+01 3.72900E+00-9.20216E-03-2.65396E-01 2.18931E-14-3.85129E-13
 -1      2572 1.93667E+01 3.71357E+00-9.82349E-03-4.22455E-01-1.20806E-14-3.89913E-13
 -1      2573 1.95256E+01 3.35022E+00 6.67534E-04-4.59057E-01-2.99745E-14-3.69935E-13
 -1      2574 1.94932E+01 3.38690E+00-1.32166E-04-1.95286E-01 3.45626E-14-3.61815E-13
 -1      2575 3.18869E+01-1.55106E-01-1.20321E-01 1.58539E+00 2.90296E-13-2.90434E-13
 -1      2576 3.01424E+01-1.79980E+00-1.83441E-02 2.48436E+00 2.77434E-13-3.71370E-13
 -1      2577 3.12986E+01-4.51753E-01-3.97342E-02-1.21156E+00 2.63699E-13 7.13041E-14
 -1      2578 3.28799E+01 2.10031E+00-1.76804E-01 1.85482E-02 3.41005E-13 1.11022E-13
 -1      2579 3.44722E+01 8.04284E+00-1.54088E-01 5.34607E-01 4.38538E-13 8.25728E-15
 -1      2580 3.43983E+01 8.54933E+00-1.71328E-01 2.22631E-01 4.23828E-13-9.82166E-14
 -1      2581 3.20293E+01 7.17629E+00-7.08919E-02 1.11444E+00 3.78669E-13 1.07359E-13
 -1      2582 1.47520E+01-5.53269E+00 1.67454E-02 6.27161E+00 9.03722E-14-1.04472E-13
 -1      2583 1.05673E+01-4.94351E+00 3.93229E-02 5.69718E+00 1.39222E-13-1.85352E-13
 -1      2584 2.73852E+01-3.98756E+00 4.49714E-02-4.31133E+00 1.15880E-14-8.11018E-14
 -1      2585 2.96431E+01-2.77273E+00-1.30912E-01-3.25822E+00 1.68296E-13-3.82194E-14
 -1      2586 1.92762E+01-5.35177E+00 8.79157E-02-7.48931E+00-1.32783E-13-2.77924E-13
 -1      2587 2.36184E+01-5.11219E+00-8.79168E-02-6.52453E+00-3.26128E-14-1.25830E-13
 -1      2588 1.16976E+01-4.40961E+00 1.45395E-01-7.68983E+00-2.03365E-13-6.27193E-13
 -1      2589 1.50022E+01-4.87383E+00 6.72422E-03-8.29258E+00-1.72862E-13-3.88994E-13
 -1      2590 2.86299E+00-2.52633E+00 1.45574E-01 7.57341E-03 1.48048E-13-7.48845E-13
 -1      2591 2.84808E+00-2.44616E+00 1.19675E-01-2.24076E+00 1.06970E-13-8.48599E-13
 -1      2592 2.94120E+01-5.79504E+00-9.53141E-02 1.96156E+00-2.58127E-13 6.36990E-14
 -1      2593 3.42383E+01 4.51594E+00-1.15070E-01-1.60987E-01 3.39173E-13-1.18544E-13
 -1      2594 3.28483E+01 2.34554E+00-9.26169E-02 2.93521E-01 3.12694E-13-1.86517E-13
 -1      2595 1.39153E+01-4.85589E+00 6.14639E-02-5.88134E+00 4.29656E-13 3.31818E-13
 -1      2596 1.87277E+01-5.45535E+00-1.41140E-02-5.99878E+00 3.29292E-13 1.87975E-13
 -1      2597 4.46128E+00-2.82970E+00 8.41450E-02 5.14030E+00-1.20681E-13 4.01179E-13
 -1      2598 2.94138E+00-2.86029E+00 9.90617E-02 2.96425E+00-1.27148E-13 6.65579E-13
 -1      2599 4.79839E+00-9.11433E-01 1.70734E-01 2.02727E+00-1.53454E-13 5.63105E-13
 -1      2600 2.72577E+01-5.73372E+00 2.08561E-02 3.54182E+00-6.76681E-14 6.91669E-14
 -1      2601 1.98201E+01 2.98689E+00 2.52837E-03-9.60419E-01-1.59155E-13-3.70772E-13
 -1      2602 1.97252E+01 3.29178E+00-1.55766E-02-1.14706E+00-1.84505E-13-4.02402E-13
 -1      2603 1.98616E+01 3.14333E+00-1.63281E-02-1.32053E+00-2.28113E-13-3.67443E-13
 -1      2604 4.67993E+00-1.64116E+00 1.40275E-01 1.30648E+00 2.59751E-13-6.90781E-13
 -1      2605 1.51805E+01-3.91862E+00 1.35161E-01 7.80402E+00-2.42029E-13-1.63522E-13
 -1      2606 2.86174E+01-3.36136E+00-8.40092E-04 2.94580E+00 4.46726E-14-4.55885E-13
 -1      2607 2.28720E+01-4.97918E+00 9.70995E-02 6.25496E+00-1.50546E-13-3.50782E-13
 -1      2608 3.19202E+01-5.63313E+00 4.22968E-02-1.08301E+00 1.89487E-13 1.40166E-13
 -1      2609 1.36924E+01-3.24266E+00 1.06838E-01-5.74126E+00 3.45668E-13 2.74891E-13
 -1      2610 8.00043E+00-1.98126E+00 1.69413E-01 5.96590E+00-2.99621E-13 2.80248E-13
 -1      2611 1.30094E+01-3.10356E+00 6.87896E-02 5.81513E+00 3.15775E-13-1.09912E-13
 -1      2612 9.47628E+00-3.69334E+00 9.91275E-02 5.25203E+00 2.33924E-13-2.99816E-13
 -1      2613 8.60614E+00-1.94498E+00 1.57048E-01 4.68367E+00 3.38882E-13-4.23273E-13
 -1      2614 2.36221E+01-4.79199E+00 1.39715E-01 4.68149E+00 1.14048E-13 6.52256E-14
 -1      2615 2.25937E+01-6.17554E+00-5.79537E-02 4.99525E+00-4.75731E-14 2.65343E-14
 -1      2616 6.60209E+00-1.37942E+00 1.64386E-01-2.67555E+00 1.68254E-13 5.78537E-13
 -1      2617 2.31417E+01-3.88903E+00 7.08468E-02-4.73145E+00 2.08694E-13 2.72060E-13
 -1      2618 1.87203E+01-3.07500E+00 1.55224E-01-5.77386E+00 1.73278E-13 4.57606E-13
 -1      2619 1.99993E+01-6.79069E-04-6.40130E-06-1.67210E-03 9.20975E-14 7.50995E-13
 -1      2620 1.99995E+01-8.56836E-04 9.74793E-07-1.77483E-03 1.19635E-13 5.22836E-13
 -1      2621 1.99995E+01-6.45326E-04 3.23829E-06-1.96583E-03 1.57793E-13 2.30831E-13
 -1      2622 2.65755E+01-6.05469E+00-3.36695E-02-3.19927E+00 2.43472E-13 1.93873E-13
 -1      2623 3.14674E+01 8.01357E-01-2.67510E-02-2.37520E-01 2.16119E-13-3.39673E-13
 -1      2624 2.00023E+01 2.94231E+00-1.64227E-02-1.42069E+00-2.43863E-13-3.37083E-13
 -1      2625 2.01888E+01 2.70056E+00-2.12007E-02-1.58183E+00-2.79755E-13-3.00950E-13
 -1      2626 2.03456E+01 2.16970E+00 3.17514E-03-1.30091E+00-2.77507E-13-2.71796E-13
 -1      2627 2.00687E+01 2.63903E+00 3.79662E-03-1.16519E+00-2.30382E-13-3.26918E-13
 -1      2628 1.05796E+01-3.25644E+00 1.60412E-01-7.24587E+00-2.02172E-13-6.73683E-13
 -1      2629 2.57297E+01-4.80832E+00 3.90971E-02-4.95720E+00-1.29147E-13-6.57391E-14
 -1      2630 5.17624E+00-1.67801E+00 1.48829E-01-3.50547E+00 1.09773E-14-8.34166E-13
 -1      2631 3.02323E+01-1.84274E+00-1.01382E-02-1.14297E+00 1.10080E-13 1.43330E-13
 -1      2632 3.34820E+01 8.38378E+00-1.01568E-01-1.77189E-01 4.24161E-13-1.12018E-13
 -1      2633 3.15662E+01 7.98235E+00-1.62770E-01-5.61999E-01 4.28657E-13-1.39701E-13
 -1      2634 3.09076E+01 8.08974E+00-1.36601E-01 2.01933E-01 3.28543E-13 1.19202E-14
 -1      2635 3.28186E+01 5.49549E+00-1.21869E-01-1.17014E+00 3.87829E-13-2.69007E-13
 -1      2636 3.16820E+01 3.16022E+00-5.96636E-02 1.23643E+00 3.28709E-13 2.26930E-13
 -1      2637 1.72538E+01-6.20372E+00-4.26978E-02 5.94993E+00 6.49480E-14-7.12902E-14
 -1      2638 1.69145E+01-4.98961E+00 6.54391E-02 6.12647E+00 1.78690E-13-4.82669E-14
 -1      2639 1.85131E+01-4.88468E+00 1.01475E-01-7.50385E+00-2.84939E-13-2.58887E-13
 -1      2640 9.27502E+00-1.91116E+00 1.89166E-01-6.20023E+00-1.88294E-13-6.92058E-13
 -1      2641 1.28921E+01-2.80904E+00 8.44443E-02-7.17531E+00-3.12556E-13-4.65961E-13
 -1      2642 1.97417E+01 2.85757E+00-5.02809E-03 3.76839E-01 1.52580E-13-3.19688E-13
 -1      2643 1.96868E+01 2.92361E+00-6.36207E-03 2.35046E-01 1.18961E-13-3.34486E-13
 -1      2644 1.96425E+01 2.99048E+00-4.32432E-03 1.13700E-01 9.81266E-14-3.47121E-13
 -1      2645 1.96088E+01 3.02347E+00-6.41307E-03-2.32161E-02 6.77623E-14-3.49742E-13
 -1      2646 1.97899E+01 2.63514E+00 3.28219E-03 1.21678E-01 1.07756E-13-3.17312E-13
 -1      2647 2.00574E+01 2.34627E+00-1.01911E-02 9.05832E-01 2.38882E-13-2.31411E-13
 -1      2648 1.99654E+01 2.50691E+00-6.42351E-03 7.67841E-01 2.20019E-13-2.71258E-13
 -1      2649 2.02674E+01 1.91862E+00-1.46038E-02 1.10385E+00 2.77343E-13-1.13086E-13
 -1      2650 2.01621E+01 2.15798E+00-5.06778E-03 1.00064E+00 2.51312E-13-1.67871E-13
 -1      2651 2.02191E+01 1.90232E+00 6.48633E-03 7.82543E-01 2.37102E-13-1.73838E-13
 -1      2652 2.04869E+01 1.34450E+00-9.12870E-03 1.14765E+00 2.94344E-13 1.01731E-14
 -1      2653 2.03810E+01 1.68435E+00 7.17835E-04 1.14351E+00 2.84854E-13-4.72196E-14
 -1      2654 2.03819E+01 1.46338E+00 8.49296E-03 8.87707E-01 2.64267E-13-6.23153E-14
 -1      2655 2.05319E+01 8.94873E-01-4.13158E-04 9.73780E-01 2.86543E-13 1.26970E-13
 -1      2656 2.05134E+01 1.17281E+00 6.04788E-03 1.08632E+00 2.84154E-13 6.79912E-14
 -1      2657 2.04343E+01 1.01383E+00 3.19838E-03 8.26417E-01 2.62440E-13 3.45883E-14
 -1      2658 2.03748E+01 6.65360E-01 5.74467E-03 6.58265E-01 2.66238E-13 1.10847E-13
 -1      2659 1.81184E+01-4.28868E+00-1.10934E-03 6.07334E+00 1.90181E-13-1.31839E-14
 -1      2660 2.02904E+01 9.08254E-01 5.62837E-03-1.12758E-01-1.96560E-13-1.57741E-13
 -1      2661 2.02212E+01 8.05067E-01-8.24697E-04 1.16856E-01-1.60394E-13-1.76401E-13
 -1      2662 2.01474E+01 7.48741E-01 2.58410E-03 3.06877E-01-1.33953E-13-1.65088E-13
 -1      2663 2.00968E+01 7.27543E-01 1.18003E-03 4.99793E-01-1.11709E-13-1.56367E-13
 -1      2664 2.01337E+01 9.60362E-01 1.51877E-03 1.53534E-01-1.45818E-13-1.61922E-13
 -1      2665 1.99859E+01 7.39358E-01-1.54170E-03 6.65982E-01-6.82951E-14-1.11435E-13
 -1      2666 1.99434E+01 7.83386E-01 2.34371E-03 8.48861E-01-4.68772E-14-1.06916E-13
 -1      2667 1.99516E+01 8.98815E-01 3.62616E-03 5.14947E-01-8.80881E-14-1.29687E-13
 -1      2668 1.97769E+01 8.53203E-01-6.26428E-03 1.00724E+00-4.58491E-14-9.14981E-14
 -1      2669 1.97196E+01 9.55759E-01 2.60861E-03 1.20248E+00 9.49154E-15-1.24511E-13
 -1      2670 1.96936E+01 9.86642E-01 7.59710E-03 8.35071E-01-4.72325E-14-8.27682E-14
 -1      2671 1.94635E+01 1.07820E+00-1.15830E-02 1.36740E+00-1.08312E-16-1.70557E-13
 -1      2672 1.93574E+01 1.23087E+00 1.90620E-03 1.59213E+00-2.44561E-14-2.44751E-13
 -1      2673 1.93068E+01 1.20598E+00 1.37161E-02 1.13963E+00-3.88350E-14-1.17563E-13
 -1      2674 1.89811E+01 1.38039E+00-1.87330E-02 1.76654E+00 1.96034E-14-2.66522E-13
 -1      2675 1.88069E+01 1.55296E+00 8.72824E-04 2.01646E+00 2.43330E-14-2.65612E-13
 -1      2676 1.87288E+01 1.52810E+00 2.36757E-02 1.43858E+00-1.13487E-14-2.15646E-13
 -1      2677 1.82160E+01 1.71052E+00-2.51415E-02 2.23097E+00 1.09569E-15-2.98086E-13
 -1      2678 1.79157E+01 1.85402E+00 5.43402E-03 2.54149E+00 2.63656E-14-3.01708E-13
 -1      2679 1.78381E+01 1.90209E+00 3.62146E-02 1.75816E+00-1.91615E-14-2.92722E-13
 -1      2680 1.70334E+01 1.90597E+00-2.78377E-02 2.81692E+00 8.93018E-14-2.72560E-13
 -1      2681 1.66211E+01 1.85614E+00 2.43511E-02 3.19169E+00 1.38959E-13-2.54399E-13
 -1      2682 1.64610E+01 2.21332E+00 6.02232E-02 2.13153E+00 8.26826E-14-3.09491E-13
 -1      2683 1.53414E+01 1.58975E+00-1.35284E-02 3.58358E+00 1.78014E-13-2.60819E-13
 -1      2684 1.48689E+01 9.59387E-01 4.75630E-02 4.11407E+00 2.60656E-13-2.59195E-13
 -1      2685 1.44506E+01 2.13858E+00 1.08533E-01 2.62809E+00 1.62247E-13-3.04690E-13
 -1      2686 2.01781E+01-2.51517E-01-4.09446E-03 6.40108E-03 1.67666E-15 8.90538E-15
 -1      2687 2.01803E+01-1.91529E-01 3.91420E-03-5.15113E-02-2.00106E-15-1.08137E-14
 -1      2688 1.96704E+01 2.92624E+00-6.36804E-03-5.71889E-01-6.36879E-14-3.70166E-13
 -1      2689 1.97379E+01 2.83321E+00-8.09166E-03-6.87392E-01-9.80331E-14-3.52674E-13
 -1      2690 2.03976E+01 1.25325E+00 4.27920E-03-6.10649E-01-2.33184E-13-2.02050E-13
 -1      2691 2.03235E+01 1.05157E+00-3.52790E-03-3.32098E-01-2.14242E-13-1.85259E-13
 -1      2692 2.02543E+01 1.20112E+00 1.56417E-03-2.65383E-01-1.93355E-13-1.81562E-13
 -1      2693 7.07754E+00 3.73617E-01 2.02430E-01-1.49471E+00 1.78454E-13 5.31186E-13
 -1      2694 9.46871E+00-4.91873E-01 1.31005E-01-3.97335E+00 3.05853E-13 4.24050E-13
 -1      2695 1.61373E+01-3.43025E+00 2.01544E-01 5.99788E+00 2.54935E-13-7.33302E-14
 -1      2696 1.99999E+01-3.91826E-04-4.02959E-06-2.03399E-03 4.64249E-14-4.39881E-13
 -1      2697 1.99995E+01-2.89960E-04-1.90619E-06-1.98997E-03 4.14250E-14 2.58719E-13
 -1      2698 1.99994E+01-3.68559E-06 7.79815E-06-2.02889E-03-1.41172E-13 1.78284E-13
 -1      2699 1.69038E+01 1.18144E+00 4.81000E-02-4.02104E+00 9.08180E-14 5.34579E-13
 -1      2700 1.71355E+01 1.67863E+00 1.74058E-02-3.56321E+00 9.40047E-14 4.57925E-13
 -1      2701 1.80322E+01 1.77798E+00 2.19591E-02-3.12182E+00-8.67362E-18 4.67615E-13
 -1      2702 1.82729E+01 1.76936E+00-1.91633E-02-2.73834E+00-6.08714E-15 3.86058E-13
 -1      2703 1.61839E+01 2.05645E+00 7.81180E-02-2.92799E+00 6.92883E-14 5.30714E-13
 -1      2704 1.89244E+01 1.67215E+00 1.03365E-02-2.40638E+00-6.18863E-15 1.93600E-13
 -1      2705 1.90850E+01 1.51275E+00-1.79078E-02-2.07919E+00 3.70835E-14 1.41400E-13
 -1      2706 1.76403E+01 2.02402E+00 4.21420E-02-2.26089E+00-1.25919E-13 3.99954E-13
 -1      2707 1.95009E+01 1.35312E+00 7.06229E-03-1.83615E+00 7.52692E-14-1.51058E-14
 -1      2708 1.95753E+01 1.18146E+00-1.35668E-02-1.58006E+00-5.91088E-14-2.50684E-14
 -1      2709 1.86255E+01 1.68488E+00 2.68535E-02-1.76512E+00-6.56438E-14 7.89334E-14
 -1      2710 1.98494E+01 1.01955E+00 6.50711E-03-1.37656E+00-2.38034E-13-4.55806E-14
 -1      2711 1.98721E+01 8.62362E-01-9.84462E-03-1.16651E+00-1.39622E-13-2.42926E-14
 -1      2712 1.92541E+01 1.29543E+00 1.77732E-02-1.36234E+00-1.51051E-13-1.81930E-13
 -1      2713 2.00357E+01 7.31596E-01 5.73763E-03-1.00936E+00-4.41942E-14 4.00352E-14
 -1      2714 2.00252E+01 6.10495E-01-6.69859E-03-8.51123E-01 7.14674E-15 7.79169E-14
 -1      2715 1.96420E+01 9.44906E-01 1.12159E-02-1.02954E+00-1.05152E-13-3.45725E-14
 -1      2716 2.01175E+01 5.13621E-01 4.86830E-03-7.31788E-01-6.28052E-14-5.23445E-14
 -1      2717 2.00921E+01 4.25188E-01-4.53512E-03-6.15418E-01-1.13850E-14-8.51855E-14
 -1      2718 1.98605E+01 6.71008E-01 6.78241E-03-7.67261E-01-7.00362E-14-1.31316E-13
 -1      2719 2.01411E+01 3.56604E-01 3.93759E-03-5.26344E-01 9.66091E-14-1.82500E-13
 -1      2720 2.01119E+01 2.94176E-01-2.90035E-03-4.42132E-01 1.80579E-14-1.88185E-13
 -1      2721 1.99753E+01 4.69505E-01 3.87248E-03-5.65266E-01-1.71636E-14-3.13625E-13
 -1      2722 2.01352E+01 2.48914E-01 3.07902E-03-3.79627E-01-1.82679E-13-2.18953E-13
 -1      2723 2.01083E+01 2.06796E-01-1.92705E-03-3.21423E-01-2.72807E-13-2.15979E-13
 -1      2724 2.00288E+01 3.28908E-01 1.99001E-03-4.15776E-01-1.39606E-13-4.08015E-13
 -1      2725 2.01180E+01 1.73357E-01 2.29672E-03-2.72459E-01-3.15273E-13-2.11311E-13
 -1      2726 2.00937E+01 1.42764E-01-1.32516E-03-2.28608E-01-1.84518E-13-3.08726E-13
 -1      2727 2.00500E+01 2.30636E-01 1.15276E-03-3.03988E-01-2.38892E-13-2.55284E-13
 -1      2728 2.00961E+01 1.20004E-01 1.70773E-03-1.93056E-01-2.39748E-13-3.78469E-13
 -1      2729 2.00762E+01 9.89221E-02-8.63848E-04-1.61785E-01-3.23812E-13-4.37069E-13
 -1      2730 2.00540E+01 1.60166E-01 5.50009E-04-2.18860E-01-2.41263E-13-4.59775E-13
 -1      2731 2.00749E+01 8.33493E-02 1.25593E-03-1.35990E-01-1.15696E-13-3.12310E-13
 -1      2732 2.00592E+01 6.87819E-02-5.61619E-04-1.13710E-01 5.88293E-14-7.33023E-14
 -1      2733 2.00493E+01 1.11492E-01 2.12724E-04-1.56444E-01-2.03781E-13-2.55990E-13
 -1      2734 2.00564E+01 5.80771E-02 9.16778E-04-9.50352E-02 1.75192E-13-1.47064E-13
 -1      2735 2.00444E+01 4.79618E-02-3.65018E-04-7.91613E-02 2.45338E-13-2.91673E-14
 -1      2736 2.00413E+01 7.78306E-02 3.59867E-05-1.10865E-01 1.04478E-13-1.07554E-13
 -1      2737 2.00412E+01 4.05506E-02 6.65068E-04-6.56708E-02 5.70182E-14-2.06039E-13
 -1      2738 2.00322E+01 3.35166E-02-2.19179E-04-5.43801E-02-1.83238E-13-4.40262E-13
 -1      2739 2.00328E+01 5.44456E-02-5.06558E-05-7.76926E-02-2.29168E-15-2.52430E-13
 -1      2740 2.00295E+01 2.86145E-02 4.87173E-04-4.51214E-02-1.99655E-13-2.63427E-13
 -1      2741 2.00231E+01 2.38111E-02-1.41851E-04-3.73947E-02-1.18525E-13-2.75069E-13
 -1      2742 2.00251E+01 3.83538E-02-1.14095E-04-5.40942E-02-1.51950E-13-4.03374E-13
 -1      2743 2.00205E+01 2.00872E-02 3.49231E-04-3.02961E-02 1.43995E-13-4.02984E-14
 -1      2744 2.00156E+01 1.65233E-02-1.01088E-04-2.45198E-02 3.69319E-13 7.53745E-14
 -1      2745 2.00186E+01 2.71175E-02-8.72732E-05-3.70081E-02 1.35310E-13-1.02341E-13
 -1      2746 2.00136E+01 1.39265E-02 2.53476E-04-1.94804E-02 3.21529E-13 1.32652E-13
 -1      2747 2.00102E+01 1.13880E-02-6.61630E-05-1.54187E-02 2.76769E-13 1.70759E-13
 -1      2748 2.00132E+01 1.88554E-02-8.21814E-05-2.43364E-02 2.94417E-13 5.63009E-14
 -1      2749 2.00086E+01 9.55502E-03 1.80557E-04-1.18674E-02 2.50457E-13 1.12893E-13
 -1      2750 2.00063E+01 7.74965E-03-4.25996E-05-9.04422E-03 2.21940E-13 1.42650E-13
 -1      2751 2.00091E+01 1.29994E-02-7.11187E-05-1.53198E-02 2.60027E-13 2.98371E-13
 -1      2752 2.00051E+01 6.45367E-03 1.27077E-04-6.57575E-03 5.31568E-14 4.58576E-14
 -1      2753 2.00036E+01 5.17012E-03-2.69923E-05-4.64450E-03-6.16160E-14 3.22292E-14
 -1      2754 2.00060E+01 8.83939E-03-5.83900E-05-8.97709E-03 3.76423E-14-2.18399E-14
 -1      2755 2.00028E+01 4.25134E-03 8.74830E-05-2.96170E-03-2.17775E-14 4.21746E-14
 -1      2756 2.00018E+01 3.34494E-03-1.47165E-05-1.67496E-03 1.54307E-14 2.93950E-13
 -1      2757 2.00037E+01 5.88433E-03-4.61344E-05-4.58676E-03-4.71159E-14-1.18778E-13
 -1      2758 2.00012E+01 2.72607E-03 5.99003E-05-6.11171E-04-3.70316E-15-3.00083E-14
 -1      2759 2.00007E+01 2.09710E-03-9.17430E-06 1.85988E-04-1.95433E-13-1.51147E-13
 -1      2760 2.00022E+01 3.81018E-03-3.95629E-05-1.67034E-03-1.39296E-13-1.03774E-13
 -1      2761 2.00003E+01 1.61530E-03 4.02400E-05 9.04918E-04-1.40236E-13-1.82534E-13
 -1      2762 2.00000E+01 1.13198E-03-7.81214E-06 1.40816E-03 1.95258E-13-2.99169E-14
 -1      2763 2.00012E+01 2.34180E-03-2.64839E-05 2.38421E-04-2.84997E-13-3.80409E-13
 -1      2764 1.99998E+01 7.79350E-04 2.70893E-05 1.81547E-03 2.77634E-13-1.52566E-13
 -1      2765 1.99996E+01 4.03897E-04-6.95222E-06 2.06519E-03 1.82309E-13-5.05632E-14
 -1      2766 2.00005E+01 1.22404E-03-1.92265E-05 1.44683E-03 1.27982E-13-2.71680E-13
 -1      2767 1.99995E+01 1.11545E-04 1.56369E-05 2.23673E-03-1.70041E-13 5.17633E-14
 -1      2768 1.99995E+01-1.90939E-04-3.86208E-06 2.28317E-03-2.92665E-13 1.71615E-13
 -1      2769 2.00001E+01 3.63771E-04-1.30615E-05 2.08498E-03 3.62941E-14-3.00449E-13
 -1      2770 1.99995E+01-3.90798E-04-1.26463E-07 2.29604E-03-3.66217E-13 3.67358E-14
 -1      2771 1.99997E+01-6.57233E-04-2.43358E-06 2.20992E-03-4.30994E-13-6.02400E-14
 -1      2772 2.00000E+01-7.73335E-04 3.49958E-06 2.19533E-03-5.13467E-13-1.02191E-13
 -1      2773 2.00000E+01-2.40730E-04-2.98495E-06 2.26310E-03-3.61863E-13 2.58110E-14
 -1      2774 2.02124E+01-3.49230E-01-4.78945E-03 1.74725E-01 3.00843E-14-2.40239E-14
 -1      2775 2.02216E+01-3.01519E-01 2.98270E-03 8.38896E-02 3.16426E-14-2.65779E-16
 -1      2776 2.03700E+01-3.43464E-01-1.69635E-03 2.81025E-02 1.60844E-14-6.48583E-15
 -1      2777 2.01469E+01-1.32461E-01-3.20530E-03-8.79980E-02 2.55887E-14-1.45523E-15
 -1      2778 2.01533E+01-6.40417E-02 4.97066E-03-1.06874E-01 5.53765E-14 2.61233E-14
 -1      2779 2.03033E+01-1.97714E-01-2.62560E-03-8.28514E-02 2.91512E-14 4.10804E-15
 -1      2780 2.02291E+01-4.08259E-01-4.79466E-03 4.01394E-01 9.90360E-14-1.51655E-14
 -1      2781 2.02554E+01-3.83292E-01 1.76621E-03 2.87376E-01 5.53709E-14-2.39578E-14
 -1      2782 2.04486E+01-4.57138E-01-3.86313E-04 2.19410E-01 4.24433E-14-8.97209E-14
 -1      2783 2.02048E+01-4.01204E-01-3.55070E-03 6.57406E-01 7.62960E-14 1.93637E-14
 -1      2784 2.02563E+01-4.14047E-01-5.25606E-05 5.37094E-01 1.01558E-13-5.54504E-15
 -1      2785 2.05152E+01-5.13715E-01 1.35401E-03 4.73757E-01 9.08465E-14-4.91880E-14
 -1      2786 2.01186E+01-2.99368E-01-6.84151E-04 8.94269E-01-5.87768E-15 2.64885E-14
 -1      2787 2.01984E+01-3.64237E-01-2.51482E-03 7.93476E-01 5.36978E-14 3.67529E-14
 -1      2788 2.05393E+01-4.77657E-01 3.28295E-03 7.56676E-01 4.78171E-14 3.75211E-14
 -1      2789 1.99605E+01-8.91844E-02 3.51018E-03 1.04470E+00-5.37405E-14 4.67499E-14
 -1      2790 2.00639E+01-2.09974E-01-5.12926E-03 9.95892E-01-3.55211E-14 2.52992E-14
 -1      2791 2.04901E+01-3.16381E-01 4.66773E-03 1.00946E+00-1.17196E-14 1.98391E-14
 -1      2792 1.97445E+01 2.07706E-01 7.71638E-03 1.03660E+00-2.03765E-15 2.95102E-14
 -1      2793 1.98566E+01 4.75700E-02-6.86762E-03 1.07019E+00-4.13785E-14 3.81548E-14
 -1      2794 2.03511E+01-2.29470E-02 4.29946E-03 1.15134E+00-4.67216E-14 8.23064E-14
 -1      2795 1.95159E+01 5.23674E-01 9.92172E-03 8.21531E-01 8.50012E-14 6.15468E-14
 -1      2796 1.96133E+01 3.64812E-01-6.37981E-03 9.52033E-01 4.35787E-14 3.10786E-14
 -1      2797 2.01396E+01 3.61186E-01 1.40108E-03 1.09953E+00 4.07875E-14 8.33802E-14
 -1      2798 1.93447E+01 7.59659E-01 8.80281E-03 4.09651E-01 2.20865E-13 4.18446E-14
 -1      2799 1.94022E+01 6.54476E-01-2.71458E-03 6.21917E-01 1.45168E-13 7.89655E-14
 -1      2800 1.99156E+01 7.37640E-01-3.43876E-03 8.07314E-01 1.03113E-13 1.90403E-14
 -1      2801 1.92952E+01 8.30526E-01 4.53556E-03-1.17512E-01 1.38631E-13 1.39502E-13
 -1      2802 1.92951E+01 8.18221E-01 2.99240E-03 1.31669E-01 2.08570E-13 1.07419E-13
 -1      2803 1.97653E+01 9.85835E-01-6.87729E-03 3.05855E-01 1.51038E-13 1.12104E-13
 -1      2804 1.93926E+01 7.09335E-01-9.08733E-04-6.30496E-01 2.35884E-14 1.56897E-13
 -1      2805 1.93330E+01 7.94111E-01 8.10420E-03-4.04397E-01 1.16267E-13 1.78883E-13
 -1      2806 1.97553E+01 1.01538E+00-6.73329E-03-2.91154E-01 1.15193E-13 1.84569E-13
 -1      2807 1.96059E+01 4.45407E-01-5.06109E-03-1.00627E+00-2.01746E-14 6.44785E-14
 -1      2808 1.95014E+01 5.93320E-01 9.99210E-03-8.53016E-01-4.14327E-14 6.88665E-14
 -1      2809 1.98921E+01 8.15371E-01-3.57460E-03-8.26985E-01 4.21165E-14 1.27797E-13
 -1      2810 1.98664E+01 1.34218E-01-6.26491E-03-1.17940E+00 6.46241E-14 1.14171E-14
 -1      2811 1.97413E+01 2.93584E-01 8.24366E-03-1.12017E+00 5.98590E-14 1.95657E-14
 -1      2812 2.01176E+01 4.64749E-01 9.32617E-04-1.17463E+00 5.70027E-14 4.75577E-14
 -1      2813 2.01035E+01-1.33270E-01-5.01653E-03-1.15601E+00 1.55241E-15-5.53539E-15
 -1      2814 1.99821E+01-5.97568E-03 4.18447E-03-1.18190E+00 5.72752E-14 1.84395E-14
 -1      2815 2.03465E+01 8.32516E-02 4.18980E-03-1.28654E+00 6.90031E-14 2.76396E-14
 -1      2816 2.02730E+01-3.05432E-01-2.64522E-03-9.92529E-01 8.52289E-14-1.56083E-13
 -1      2817 2.01724E+01-2.30893E-01-1.89868E-04-1.07601E+00 6.20618E-14-1.29275E-13
 -1      2818 2.05116E+01-2.25735E-01 4.97408E-03-1.19520E+00 1.22001E-13-6.18812E-15
 -1      2819 2.03645E+01-3.75439E-01-3.45604E-04-7.60578E-01 3.12855E-14-1.92684E-13
 -1      2820 2.02918E+01-3.52230E-01-3.38290E-03-8.70185E-01 7.28235E-14-1.90636E-13
 -1      2821 2.05868E+01-4.10856E-01 3.91396E-03-9.77226E-01 9.12463E-14-2.15444E-13
 -1      2822 2.03901E+01-3.65738E-01 1.24396E-03-5.20403E-01-1.69838E-13-2.28245E-13
 -1      2823 2.03449E+01-3.79803E-01-4.93637E-03-6.30729E-01-1.04336E-13-1.43763E-13
 -1      2824 2.05821E+01-4.73184E-01 2.20335E-03-7.12299E-01-1.78660E-14-1.52389E-13
 -1      2825 2.03713E+01-3.08629E-01 2.01269E-03-3.10115E-01-2.23626E-14-2.18536E-13
 -1      2826 2.03488E+01-3.42988E-01-5.12512E-03-4.05441E-01-1.11273E-13-2.62259E-13
 -1      2827 2.05242E+01-4.44894E-01 6.79965E-04-4.59067E-01-1.73528E-13-2.53071E-13
 -1      2828 2.03284E+01-2.32926E-01 2.14389E-03-1.46698E-01-2.92337E-14-7.38629E-14
 -1      2829 2.03225E+01-2.73598E-01-4.47959E-03-2.20238E-01-9.93129E-16-9.55930E-14
 -1      2830 2.04412E+01-3.66101E-01-3.14891E-04-2.49619E-01-1.08260E-13-2.47563E-13
 -1      2831 2.02766E+01-1.58387E-01 1.89856E-03-3.21899E-02 5.39845E-14-3.49326E-14
 -1      2832 2.02814E+01-1.96395E-01-3.48080E-03-8.34349E-02 5.43533E-14-3.52286E-14
 -1      2833 2.03539E+01-2.70458E-01-8.03450E-04-9.45239E-02 7.97067E-15-2.82918E-15
 -1      2834 2.02250E+01-9.55754E-02 1.49851E-03 3.96732E-02-1.06358E-13 7.60027E-14
 -1      2835 2.02361E+01-1.26524E-01-2.44862E-03 7.73043E-03 1.18343E-14 7.15548E-14
 -1      2836 2.02744E+01-1.79916E-01-9.36188E-04 9.02801E-03-2.70489E-14 1.37311E-13
 -1      2837 2.01784E+01-4.81606E-02 1.08484E-03 7.84178E-02-1.74089E-13-6.16939E-14
 -1      2838 2.01924E+01-7.08820E-02-1.55284E-03 6.14117E-02-1.94227E-13 7.73630E-15
 -1      2839 2.02078E+01-1.05492E-01-8.72561E-04 7.02205E-02-8.76615E-14 2.57936E-13
 -1      2840 2.01387E+01-1.56226E-02 7.29060E-04 9.37363E-02-5.18570E-14 1.36568E-14
 -1      2841 2.01534E+01-3.07950E-02-8.57138E-04 8.72592E-02-6.56797E-14-3.95821E-14
 -1      2842 2.01549E+01-5.03867E-02-7.29927E-04 9.99538E-02-1.40802E-13 9.43139E-14
 -1      2843 2.01060E+01 4.56430E-03 4.55589E-04 9.39463E-02 1.04028E-13 1.36651E-13
 -1      2844 2.01200E+01-4.54176E-03-3.62503E-04 9.42235E-02 5.69083E-14 9.44935E-14
 -1      2845 2.01143E+01-1.32528E-02-5.75412E-04 1.08305E-01-9.10786E-15 1.10955E-13
 -1      2846 2.00797E+01 1.55026E-02 2.62241E-04 8.54627E-02-1.61059E-13 1.35238E-13
 -1      2847 2.00923E+01 1.08246E-02-3.99628E-05 8.95878E-02 1.28918E-14 1.77982E-13
 -1      2848 2.00837E+01 9.29574E-03-4.39928E-04 1.03453E-01 3.97078E-14 1.80191E-13
 -1      2849 2.00589E+01 2.00880E-02 1.35105E-04 7.28351E-02-1.04736E-13 5.40351E-14
 -1      2850 2.00697E+01 1.83791E-02 1.49384E-04 7.87524E-02-1.35744E-13 1.36679E-13
 -1      2851 2.00610E+01 2.11052E-02-3.32723E-04 9.14624E-02-6.42024E-14 1.23757E-15
 -1      2852 2.00428E+01 2.06737E-02 5.73992E-05 5.90432E-02 3.57755E-14 8.49250E-14
 -1      2853 2.00517E+01 2.07832E-02 2.43479E-04 6.54134E-02-4.96322E-14 1.02335E-13
 -1      2854 2.00441E+01 2.56483E-02-2.52346E-04 7.64971E-02-4.49206E-14-4.88022E-14
 -1      2855 2.00304E+01 1.90015E-02 1.38526E-05 4.58675E-02-2.77338E-14 1.08008E-13
 -1      2856 2.00376E+01 2.00968E-02 2.74345E-04 5.18976E-02-1.17234E-14 5.85328E-14
 -1      2857 2.00317E+01 2.56926E-02-1.93456E-04 6.11967E-02-1.90181E-14-2.47747E-14
 -1      2858 2.00210E+01 1.62645E-02-7.65822E-06 3.42380E-02 1.50526E-13-7.40677E-14
 -1      2859 2.00266E+01 1.77874E-02 2.66650E-04 3.95214E-02 4.56124E-14 1.01416E-13
 -1      2860 2.00225E+01 2.32574E-02-1.50300E-04 4.70747E-02 9.96293E-14-2.46575E-13
 -1      2861 2.00140E+01 1.32200E-02-1.59420E-05 2.45228E-02 9.67645E-14-1.22576E-13
 -1      2862 2.00183E+01 1.48244E-02 2.38087E-04 2.89068E-02 1.86392E-13-1.76235E-14
 -1      2863 2.00157E+01 1.97088E-02-1.18117E-04 3.48667E-02 1.44426E-13-2.20251E-13
 -1      2864 2.00090E+01 1.03067E-02-1.69760E-05 1.67456E-02-4.85058E-14-1.82748E-14
 -1      2865 2.00121E+01 1.17986E-02 2.00545E-04 2.02314E-02 7.79878E-15 5.24105E-14
 -1      2866 2.00107E+01 1.59027E-02-9.34551E-05 2.48063E-02 3.18363E-14-2.55858E-14
 -1      2867 2.00053E+01 7.74510E-03-1.45779E-05 1.07410E-02 1.51730E-15 4.51819E-14
 -1      2868 2.00076E+01 9.03273E-03 1.61465E-04 1.34130E-02-4.36769E-14 5.27997E-14
 -1      2869 2.00071E+01 1.23255E-02-7.40029E-05 1.68287E-02-8.82749E-14 5.16002E-14
 -1      2870 2.00029E+01 5.61572E-03-1.10484E-05 6.25728E-03-1.55103E-13 2.51511E-13
 -1      2871 2.00044E+01 6.67168E-03 1.25103E-04 8.23628E-03-7.40225E-14 1.34357E-13
 -1      2872 2.00045E+01 9.21374E-03-5.82857E-05 1.07114E-02-1.48250E-13 2.67499E-13
 -1      2873 2.00012E+01 3.91499E-03-7.71058E-06 3.02142E-03 2.01205E-13 1.61945E-14
 -1      2874 2.00022E+01 4.74979E-03 9.35614E-05 4.43528E-03 4.44380E-14 1.81790E-13
 -1      2875 2.00027E+01 6.64458E-03-4.53923E-05 6.16819E-03-3.82749E-14 2.34393E-13
 -1      2876 2.00002E+01 2.59258E-03-5.32513E-06 7.77448E-04 4.16161E-13-1.75637E-13
 -1      2877 2.00008E+01 3.23711E-03 6.75747E-05 1.74405E-03 3.30635E-13-1.29648E-13
 -1      2878 2.00015E+01 4.60051E-03-3.47798E-05 2.90547E-03 3.67214E-13-6.43541E-14
 -1      2879 1.99996E+01 1.57746E-03-3.36268E-06-6.92420E-04 1.45442E-13-3.26348E-14
 -1      2880 1.99999E+01 2.06995E-03 4.69956E-05-7.46344E-05 2.30562E-13-1.58882E-13
 -1      2881 2.00006E+01 3.01236E-03-2.59937E-05 6.56113E-04 2.89596E-13-1.38477E-13
 -1      2882 1.99994E+01 8.00649E-04 3.63026E-06-1.55486E-03 2.99985E-14 3.53010E-13
 -1      2883 1.99995E+01 1.16451E-03 2.94067E-05-1.21807E-03 5.47182E-14 1.87690E-13
 -1      2884 2.00001E+01 1.79208E-03-1.79437E-05-8.04583E-04-2.34828E-14-2.08254E-13
 -1      2885 1.99994E+01 2.66727E-04 4.42348E-06-1.91430E-03-4.34788E-14 3.41093E-13
 -1      2886 1.99994E+01 5.65580E-04 1.38429E-05-1.78144E-03 7.95735E-14 4.11048E-13
 -1      2887 1.99999E+01 9.53315E-04-1.40732E-05-1.58509E-03-8.07058E-15 4.28224E-15
 -1      2888 2.00000E+01 3.19143E-04-9.24462E-06-1.93213E-03-1.82863E-14-7.40562E-14
 -1      2889 2.00009E+01-3.86492E-04 4.12426E-07-2.86811E-04-3.69268E-13-1.73361E-13
 -1      2890 2.00009E+01-3.60761E-04-9.21235E-07-5.29535E-04-3.17144E-13 9.07804E-14
 -1      2891 2.34741E+01-5.64642E+00 6.81651E-02-4.69639E+00 2.86771E-13 3.24463E-13
 -1      2892 2.87962E+01-5.06347E+00-6.68579E-02-2.22519E+00 2.60125E-13 1.56278E-13
 -1      2893 2.00007E+01-4.14525E-04-2.19395E-06-1.19060E-03 9.74765E-14 2.73047E-13
 -1      2894 2.00006E+01-3.75930E-04 2.03826E-06-1.38868E-03 1.41282E-13 3.84897E-14
 -1      2895 2.00009E+01-4.41979E-04 2.51139E-06 2.15766E-04-2.75827E-13 1.62178E-13
 -1      2896 2.00009E+01-4.22832E-04-2.52702E-06-4.31560E-05-2.05309E-13-1.19821E-13
 -1      2897 2.00011E+01 5.15056E-04 9.60303E-06-1.91331E-04-2.00872E-13-3.45861E-14
 -1      2898 2.00008E+01-3.79943E-04-1.41073E-06-7.55678E-04-2.69778E-13 7.07419E-14
 -1      2899 2.00008E+01-3.49248E-04 7.87969E-07-9.79585E-04-1.80573E-13 3.09932E-13
 -1      2900 2.00009E+01 4.34735E-04 7.05932E-06-1.07054E-03 1.40202E-13 4.84171E-14
 -1      2901 2.00011E+01 5.26819E-04 9.31759E-06-6.46523E-04-2.52735E-13 2.24431E-14
 -1      2902 2.00010E+01-5.31105E-04 3.77308E-06 7.39175E-04-1.67302E-13 1.37235E-14
 -1      2903 2.00010E+01-5.25613E-04-3.29074E-06 4.75478E-04-2.72107E-13 1.79374E-13
 -1      2904 2.00012E+01 3.98689E-04 8.24794E-06 2.99405E-04-2.10680E-13 1.14378E-13
 -1      2905 2.00009E+01-6.25971E-04 4.00223E-06 1.27742E-03-6.56269E-14-3.46461E-13
 -1      2906 2.00009E+01-6.42715E-04-2.46989E-06 1.01727E-03-9.56570E-14-5.00064E-14
 -1      2907 2.00012E+01 2.03083E-04 4.95567E-06 8.29927E-04-3.40802E-13-1.57599E-14
 -1      2908 2.00006E+01-6.88119E-04 3.27322E-06 1.76904E-03-2.92910E-13-3.58047E-13
 -1      2909 2.00008E+01-7.34039E-04-7.18740E-08 1.54934E-03-1.71776E-13-3.99797E-13
 -1      2910 2.00010E+01-2.80982E-05 5.39872E-07 1.37904E-03-2.37208E-13-4.44973E-13
 -1      2911 2.46222E+01-4.90224E+00-8.79948E-02 4.95975E+00-2.39572E-13-4.84085E-13
 -1      2912 2.17495E+01-4.50911E+00 1.51027E-01 6.12320E+00-2.79242E-13-3.98234E-13
 -1      2913 7.23107E+00-7.84599E-01 2.49763E-01 3.19902E+00 2.92308E-13-5.47534E-13
 -1      2914 6.36663E+00 9.29414E-02 1.87429E-01 9.01678E-01 2.22201E-13-5.83394E-13
 -1      2915 1.01742E+01-1.62040E+00 4.76223E-02 6.45969E+00-3.28196E-13 7.44682E-14
 -1      2916 7.76423E+00-5.75413E-01 2.08015E-01 4.66814E+00-3.04042E-13 3.06311E-13
 -1      2917 2.99266E+01 6.17820E+00-1.52878E-01 1.57962E+00 3.50497E-13 1.05804E-13
 -1      2918 2.99226E+01 7.06150E+00-2.21559E-01 1.03112E+00 3.54439E-13 5.41858E-14
 -1      2919 1.16876E+01-1.14883E+00 2.45307E-01-4.96048E+00 2.77334E-13 3.19633E-13
 -1      2920 1.53807E+01-2.29665E+00 1.00069E-01-5.60846E+00 2.60070E-13 3.43864E-13
 -1      2921 1.62149E+01-1.45468E+00 9.65595E-02-5.41058E+00 9.20930E-14 4.38594E-13
 -1      2922 1.17043E+01 1.30281E-01 1.38825E-01-3.98008E+00 2.29754E-13 3.95101E-13
 -1      2923 1.62322E+01 1.78519E-01 1.23243E-01-4.81636E+00 1.19543E-13 4.99489E-13
 -1      2924 2.86213E+01-2.97835E+00-1.66658E-01 1.45973E+00-4.11598E-14-4.90011E-13
 -1      2925 2.69031E+01-4.18024E+00 4.28160E-02 3.21305E+00-1.80182E-13-5.18752E-13
 -1      2926 2.56934E+01-4.20903E+00 4.96761E-02 3.28015E+00-3.16747E-13-5.74804E-13
 -1      2927 3.13745E+01 6.47859E+00-1.75299E-01-1.25822E+00 4.05287E-13-1.91097E-13
 -1      2928 3.06298E+01 4.35958E+00-1.25444E-01-1.55688E+00 3.09530E-13-2.65968E-13
 -1      2929 1.73650E+01-4.06781E+00 1.28510E-01-7.27394E+00-3.06727E-13-2.93654E-13
 -1      2930 2.07509E+01-5.00941E+00-4.00650E-02-6.83042E+00-2.38032E-13-1.95996E-13
 -1      2931 6.21383E+00 1.01623E-01 1.87361E-01-2.00552E+00 1.01006E-13-6.38267E-13
 -1      2932 7.06721E+00-8.70573E-01 1.30386E-01-4.53223E+00-4.39093E-14-7.18287E-13
 -1      2933 9.80601E+00-4.85906E-01 1.78946E-01-4.81770E+00-1.20307E-13-5.73541E-13
 -1      2934 2.88229E+01-3.00466E+00 5.48049E-02-1.37278E+00-5.44599E-14 1.60927E-13
 -1      2935 2.94392E+01-1.45446E+00-2.23477E-01 1.15746E-01 1.08913E-13 2.00978E-13
 -1      2936 2.42504E+01-4.93593E+00 1.18146E-01-5.18344E+00-1.88377E-13-6.02018E-14
 -1      2937 2.68514E+01-4.58634E+00-1.37645E-01-3.48145E+00-1.24789E-13 5.34087E-14
 -1      2938 1.98810E+01 2.64852E+00-6.84916E-03 6.48742E-01 1.99502E-13-2.90900E-13
 -1      2939 1.98064E+01 2.75529E+00-6.44812E-03 5.02036E-01 1.80051E-13-3.05913E-13
 -1      2940 1.99043E+01 2.47044E+00 3.51775E-03 3.56949E-01 1.50461E-13-2.94011E-13
 -1      2941 2.00509E+01 2.23113E+00 4.57839E-03 5.87627E-01 1.94456E-13-2.59229E-13
 -1      2942 2.03770E+01 1.83290E+00-6.79634E-03-1.09622E+00-2.60804E-13-2.46542E-13
 -1      2943 2.03811E+01 1.47338E+00-9.17516E-04-7.98329E-01-2.53425E-13-2.18162E-13
 -1      2944 2.02925E+01 1.59521E+00 1.16404E-03-6.81595E-01-2.27905E-13-2.43802E-13
 -1      2945 2.02395E+01 2.10936E+00-2.59374E-03-1.06372E+00-2.44604E-13-2.81601E-13
 -1      2946 1.73650E+01-3.85675E+00-6.50403E-02 7.28257E+00-3.51136E-13-2.86604E-13
 -1      2947 1.40976E+01-2.52319E+00 2.25201E-01 7.08966E+00-3.98598E-13-1.74846E-13
 -1      2948 2.98300E+01 1.62847E+00-3.39916E-02 1.57719E+00 2.32731E-13 2.10110E-13
 -1      2949 2.98235E+01 3.96918E+00-2.24104E-01 1.81402E+00 3.15026E-13 1.51976E-13
 -1      2950 3.02992E+01 1.45365E+00-1.98167E-01-1.17878E+00 1.48756E-13-2.92891E-13
 -1      2951 2.99938E+01-5.07748E-01-2.40013E-02-3.42622E-01 5.59969E-14-3.94171E-13
 -1      2952 6.51524E+00 1.23619E-01 1.61169E-01 2.91938E+00-2.44235E-13 4.39981E-13
 -1      2953 6.15568E+00 3.53455E-01 1.63421E-01 7.48635E-01-5.97569E-14 4.72122E-13
 -1      2954 1.47179E+01-2.31214E+00 1.72201E-01 5.78437E+00 3.05034E-13-1.42386E-13
 -1      2955 1.97179E+01 2.72775E+00 3.60591E-03-9.98718E-02 5.15988E-14-3.24560E-13
 -1      2956 1.95894E+01 3.05257E+00-4.47233E-03-1.34621E-01 4.46647E-14-3.41291E-13
 -1      2957 1.95834E+01 3.05032E+00-6.66916E-03-2.63170E-01 2.02540E-14-3.41942E-13
 -1      2958 1.42547E+01 8.47038E-01 7.03645E-02-4.16983E+00 1.03730E-13 4.20289E-13
 -1      2959 2.02648E+01-2.92601E-02-3.29939E-03-1.03950E-01 8.34720E-14 5.30652E-15
 -1      2960 2.01364E+01 3.54951E-03-2.49619E-03-9.83857E-02 8.00544E-14 9.41684E-15
 -1      2961 2.01593E+01 8.37076E-02 6.58997E-03-7.19794E-02 1.22883E-13 2.53145E-14
 -1      2962 1.48918E+01-5.95116E-01 2.33769E-01 5.26485E+00 3.11140E-13-2.10484E-13
 -1      2963 1.10980E+01 1.39001E+00 2.15387E-01 2.79625E+00 2.72921E-13-3.96766E-13
 -1      2964 1.27711E+01 3.06991E-01 9.15362E-02 4.18756E+00 2.95583E-13-3.11653E-13
 -1      2965 1.98857E+01 2.46933E+00 8.19348E-03-6.13993E-01-9.70566E-14-3.13703E-13
 -1      2966 1.98275E+01 2.70429E+00-7.03205E-03-7.64398E-01-1.19641E-13-3.48186E-13
 -1      2967 1.99357E+01 2.54725E+00-8.68060E-03-8.68858E-01-1.66915E-13-3.26851E-13
 -1      2968 8.66212E+00 1.15345E+00 1.74794E-01-6.23875E-01 1.05057E-13 4.36040E-13
 -1      2969 2.00001E+01-4.33383E-04 3.51367E-06-1.92270E-03 5.92990E-14-3.07842E-13
 -1      2970 1.95946E+01 3.03579E+00-5.23714E-03-3.62499E-01-3.45596E-15-3.22953E-13
 -1      2971 1.96226E+01 2.99302E+00-7.15405E-03-4.83793E-01-4.83973E-14-3.55438E-13
 -1      2972 1.97541E+01 2.66028E+00 5.58647E-03-4.69536E-01-4.24585E-14-3.38554E-13
 -1      2973 1.97016E+01 2.74069E+00 4.33699E-03-2.97854E-01 4.50296E-16-3.12787E-13
 -1      2974 2.02316E+01 3.87850E-01 6.41987E-04 1.99047E-01 2.19285E-13 2.39723E-15
 -1      2975 2.02664E+01 4.75885E-01 8.23421E-03 3.01619E-01 2.15026E-13 3.93111E-14
 -1      2976 8.92820E+00 4.99859E-01 1.91330E-01 3.52108E+00-2.44089E-13 3.24435E-13
 -1      2977 2.00007E+01 2.71344E-04 5.69147E-06-1.45761E-03 3.06049E-13-5.99916E-14
 -1      2978 2.00005E+01-4.67548E-04-1.15764E-06-1.57814E-03 1.72713E-13-3.82661E-14
 -1      2979 2.00004E+01-4.03772E-04-1.66698E-06-1.73472E-03 2.61304E-13-2.72909E-13
 -1      2980 9.80276E+00-5.70297E-01 9.36550E-02 4.02622E+00 3.36675E-13-4.04315E-13
 -1      2981 2.02257E+01-3.69940E+00 8.39104E-02 5.98739E+00-3.88439E-13-4.17841E-13
 -1      2982 2.84002E+01 3.94554E+00-1.57632E-01-2.02665E+00 2.28817E-13-2.78375E-13
 -1      2983 2.97203E+01 2.80791E+00-1.10754E-01-1.77485E+00 2.17215E-13-3.38701E-13
 -1      2984 2.85809E+01 1.51475E+00-5.51187E-02-1.71253E+00 1.03154E-13-3.69885E-13
 -1      2985 2.00002E+01-7.28031E-04 4.56444E-07 2.07480E-03-4.15395E-13-2.87142E-13
 -1      2986 2.00004E+01-8.02351E-04 1.92567E-06 1.95401E-03-2.91588E-13-4.46391E-13
 -1      2987 2.00007E+01-2.63576E-04 4.84138E-07 1.84264E-03-2.21071E-13-3.66212E-13
 -1      2988 2.00003E+01-4.44876E-04-4.02505E-06 2.14090E-03-3.07068E-13-3.76989E-13
 -1      2989 8.88840E+00 1.24809E+00 8.22994E-02 1.32594E+00 2.03802E-13-4.41480E-13
 -1      2990 7.35909E+00 7.40993E-01 2.15347E-01-3.40478E-01 1.61303E-13-5.36682E-13
 -1      2991 8.83506E+00 1.19077E+00 1.26502E-01-1.26148E+00 6.57261E-14-5.10814E-13
 -1      2992 1.32966E+01-1.36997E+00 1.55019E-01 6.20884E+00-4.13114E-13-8.49043E-14
 -1      2993 2.29007E+01-4.64704E+00 5.14915E-02-5.38307E+00-1.86073E-13-1.16308E-13
 -1      2994 2.77703E+01 6.47158E+00-9.74326E-02 9.62936E-01 3.47528E-13-9.35588E-14
 -1      2995 2.93482E+01 7.28578E+00-1.57119E-01 6.50548E-01 3.27904E-13-4.92661E-16
 -1      2996 2.83139E+01 7.26182E+00-1.80678E-01 1.13570E-01 3.30236E-13-7.93809E-15
 -1      2997 2.84338E+01 4.43640E+00-1.03708E-01 1.90671E+00 2.83079E-13 7.28723E-14
 -1      2998 2.87368E+01 6.73674E-03-3.61172E-02 1.17204E+00 1.31443E-13 1.58942E-13
 -1      2999 2.85448E+01-1.89800E+00-9.98376E-03 1.98048E-01-1.00205E-13-4.70290E-13
 -1      3000 1.39957E+01-1.90522E+00 9.64436E-02-6.42569E+00-2.50439E-13-4.09922E-13
 -1      3001 1.56665E+01-3.19423E+00 1.11108E-01-7.16185E+00-2.90781E-13-3.53245E-13
 -1      3002 1.80540E+01-3.25738E+00 8.10577E-02-6.42376E+00-2.66377E-13-2.69708E-13
 -1      3003 2.97209E+01 6.74987E+00-1.61929E-01-1.15651E+00 3.67539E-13-1.07164E-13
 -1      3004 2.72809E+01-3.77895E+00 4.11925E-03-2.02220E+00-8.81482E-14 8.93383E-14
 -1      3005 2.01610E+01 1.66946E-01-2.14770E-03-1.27736E-02 1.52389E-13 2.75215E-14
 -1      3006 2.02122E+01 2.69449E-01 8.86432E-03 6.91643E-02 1.86870E-13 3.16580E-14
 -1      3007 2.02634E+01 1.70092E-01-3.73049E-03-2.57572E-02 1.43766E-13-5.23160E-15
 -1      3008 2.02961E+01 4.24971E-01-4.01364E-03 1.74688E-01 1.96065E-13-1.52428E-14
 -1      3009 2.03875E+01 1.06350E+00-4.75034E-03 6.95045E-01 2.59280E-13-3.62438E-14
 -1      3010 2.03528E+01 1.30598E+00 3.07228E-03 6.88984E-01 2.48019E-13-8.36013E-14
 -1      3011 2.02934E+01 1.47878E+00-8.29396E-03 6.56241E-01 2.33175E-13-1.19412E-13
 -1      3012 2.02282E+01 1.67918E+00-8.57929E-04 5.85544E-01 2.10467E-13-1.76651E-13
 -1      3013 2.03610E+01 1.13160E+00 5.79431E-03 4.93091E-01 2.27402E-13-9.29007E-14
 -1      3014 2.01095E+01 1.14736E+00 2.03110E-03-1.76879E-02-1.43958E-13-1.38593E-13
 -1      3015 2.00190E+01 1.05952E+00-4.15633E-03 1.76814E-01-1.19632E-13-1.35353E-13
 -1      3016 2.03130E+01 5.71154E-01 6.41905E-03 5.07916E-01 2.29034E-13 7.70797E-14
 -1      3017 2.03632E+01 7.02068E-01-1.45110E-03 5.25275E-01 2.43218E-13 1.60180E-14
 -1      3018 2.06705E+01-5.91830E-01-4.63687E-03 2.18143E-01 6.21724E-14-8.70006E-14
 -1      3019 2.06418E+01-5.24426E-01 5.12032E-03 1.07429E-01 4.05380E-14-5.13939E-14
 -1      3020 1.99115E+01 1.01637E+00-5.44882E-04 3.21431E-01-9.97114E-14-1.25499E-13
 -1      3021 1.97941E+01 1.00895E+00-4.09172E-03 4.83793E-01-5.99078E-14-1.04048E-13
 -1      3022 1.98973E+01 1.19682E+00 6.34402E-03 1.57946E-01-9.35971E-14-1.13277E-13
 -1      3023 1.96164E+01 1.04042E+00-4.00995E-03 5.94592E-01-3.16987E-14-1.12517E-13
 -1      3024 1.94489E+01 1.10499E+00-5.40707E-03 7.36931E-01-3.38648E-14-9.48684E-14
 -1      3025 1.96169E+01 1.15972E+00 8.49638E-03 4.01275E-01-5.66195E-14-9.88204E-14
 -1      3026 1.91772E+01 1.20274E+00-7.78119E-03 8.18624E-01-7.35733E-14-1.18509E-13
 -1      3027 1.89220E+01 1.32871E+00-8.26490E-03 9.48336E-01-6.87588E-14-1.65344E-13
 -1      3028 1.91843E+01 1.27574E+00 1.32477E-02 5.69793E-01-6.00874E-14-1.34223E-13
 -1      3029 1.85369E+01 1.47009E+00-1.32390E-02 9.97007E-01-5.78925E-14-1.83876E-13
 -1      3030 1.81687E+01 1.63218E+00-1.32376E-02 1.11121E+00-4.51843E-14-2.31968E-13
 -1      3031 1.85577E+01 1.51079E+00 2.09529E-02 6.56715E-01-9.11558E-14-2.16362E-13
 -1      3032 1.75761E+01 1.81006E+00-1.90554E-02 1.12691E+00-4.62616E-14-2.48305E-13
 -1      3033 1.69848E+01 1.98645E+00-1.75344E-02 1.23749E+00-1.41961E-14-2.59382E-13
 -1      3034 1.76318E+01 1.82888E+00 3.20936E-02 6.51111E-01-7.05150E-14-2.62870E-13
 -1      3035 1.60990E+01 2.13587E+00-2.52323E-02 1.21266E+00 4.30741E-14-2.60984E-13
 -1      3036 1.52273E+01 2.23975E+00-9.79292E-03 1.32287E+00 8.11621E-14-2.84685E-13
 -1      3037 1.62328E+01 2.16797E+00 5.36119E-02 5.20579E-01 1.30276E-14-2.53803E-13
 -1      3038 1.12306E+01 1.76076E+00 5.31857E-02 1.73501E+00 1.93307E-13-3.51136E-13
 -1      3039 2.02062E+01 1.46432E+00 3.83090E-03-4.04603E-01-1.71433E-13-1.98028E-13
 -1      3040 2.01496E+01 1.27748E+00-5.53446E-03-1.77597E-01-1.48690E-13-1.69399E-13
 -1      3041 2.00567E+01 1.37654E+00-2.33488E-03-1.46753E-01-1.31386E-13-1.52473E-13
 -1      3042 2.05457E+01-4.49537E-01-3.97386E-03 1.43086E-02 1.59511E-14-3.78671E-14
 -1      3043 2.05180E+01-3.59322E-01 5.66836E-03-5.79461E-02 2.66956E-14-2.61216E-14
 -1      3044 2.07598E+01-5.70465E-01-3.33627E-03 6.08288E-03 5.74162E-14-4.14938E-14
 -1      3045 1.63485E+01 2.18707E+00-8.52771E-03-1.68345E+00-1.65795E-13 1.55526E-13
 -1      3046 1.69983E+01 2.03680E+00-2.53114E-02-1.46972E+00-1.43764E-13 1.18821E-13
 -1      3047 1.77192E+01 1.86035E+00-1.18451E-02-1.39952E+00-2.30719E-13 1.10641E-13
 -1      3048 1.81280E+01 1.66788E+00-1.91043E-02-1.22842E+00-1.69000E-13-3.96775E-14
 -1      3049 1.68201E+01 2.13602E+00 4.56923E-02-8.74755E-01-2.41649E-13 1.50635E-14
 -1      3050 1.86307E+01 1.46781E+00-7.37017E-03-1.14909E+00-1.09032E-13-1.02572E-13
 -1      3051 1.88974E+01 1.27148E+00-1.36485E-02-9.94763E-01-2.33762E-13-6.01278E-14
 -1      3052 1.79847E+01 1.72134E+00 2.91399E-02-8.18265E-01-2.23048E-13 3.99975E-14
 -1      3053 1.92214E+01 1.09499E+00-4.07857E-03-9.16321E-01-1.41266E-13-5.82893E-14
 -1      3054 1.93756E+01 9.34355E-01-9.36394E-03-7.87217E-01-1.74786E-14 2.61255E-15
 -1      3055 1.87644E+01 1.31269E+00 1.88417E-02-7.24885E-01-1.07821E-13 4.23062E-14
 -1      3056 1.95810E+01 7.95050E-01-1.52171E-03-7.13804E-01-1.25362E-13-7.20142E-15
 -1      3057 1.96642E+01 6.71770E-01-6.48864E-03-6.09708E-01-1.95125E-13-1.78730E-13
 -1      3058 1.92607E+01 9.70549E-01 1.21786E-02-6.11123E-01-1.11664E-13 9.33574E-15
 -1      3059 1.97921E+01 5.68105E-01-5.59016E-05-5.45615E-01-1.47546E-13-2.03735E-13
 -1      3060 1.98331E+01 4.77375E-01-4.38093E-03-4.64270E-01-8.81705E-14-3.04026E-13
 -1      3061 1.95705E+01 7.03419E-01 7.63720E-03-4.96236E-01-1.93814E-13-5.11304E-14
 -1      3062 1.99083E+01 4.05897E-01 5.89823E-04-4.13660E-01-1.66786E-14-3.18086E-13
 -1      3063 1.99248E+01 3.43031E-01-3.01074E-03-3.53807E-01-8.46936E-14-2.73713E-13
 -1      3064 1.97562E+01 5.08274E-01 4.72472E-03-3.94273E-01-1.01136E-13-1.26255E-13
 -1      3065 1.99722E+01 2.88847E-01 8.04545E-04-3.10219E-01-2.45813E-13-2.04104E-13
 -1      3066 1.99771E+01 2.41713E-01-2.09439E-03-2.62703E-01-3.31510E-13-1.69399E-13
 -1      3067 1.98680E+01 3.65329E-01 2.91403E-03-3.06824E-01-1.42011E-13-1.25519E-13
 -1      3068 2.00048E+01 2.03606E-01 8.03870E-04-2.28505E-01-3.38161E-13-2.74567E-13
 -1      3069 2.00032E+01 1.70473E-01-1.40555E-03-1.93078E-01-2.85869E-13-4.16345E-13
 -1      3070 1.99352E+01 2.59760E-01 1.74126E-03-2.33173E-01-3.80165E-13-1.89261E-13
 -1      3071 2.00189E+01 1.43745E-01 7.34234E-04-1.66636E-01-1.11846E-13-2.53577E-13
 -1      3072 2.00145E+01 1.20418E-01-9.43326E-04-1.40419E-01-4.50313E-15-1.12796E-13
 -1      3073 1.99729E+01 1.84598E-01 9.98826E-04-1.74562E-01-5.39257E-15-1.50114E-13
 -1      3074 2.00230E+01 1.01656E-01 6.24995E-04-1.20241E-01 2.51995E-14 1.93682E-15
 -1      3075 2.00179E+01 8.51973E-02-6.33461E-04-1.00944E-01 1.24272E-13-3.85158E-14
 -1      3076 1.99931E+01 1.31280E-01 5.49052E-04-1.28844E-01 9.21141E-14 3.85333E-14
 -1      3077 2.00221E+01 7.19869E-02 5.13309E-04-8.57115E-02 1.33509E-14-1.25343E-13
 -1      3078 2.00173E+01 6.03594E-02-4.04691E-04-7.15882E-02-2.03243E-13-1.56924E-13
 -1      3079 2.00030E+01 9.34081E-02 2.78377E-04-9.37219E-02-4.62998E-14 2.58096E-14
 -1      3080 2.00192E+01 5.14469E-02 4.11539E-04-6.07381E-02-1.57084E-13-1.65169E-13
 -1      3081 2.00151E+01 4.34448E-02-2.71653E-04-5.08295E-02-1.11993E-13-2.23189E-13
 -1      3082 2.00072E+01 6.69231E-02 1.01738E-04-6.76071E-02-1.80283E-13-9.24191E-15
 -1      3083 2.00157E+01 3.66315E-02 3.16956E-04-4.22365E-02 1.06212E-13-1.44123E-13
 -1      3084 2.00123E+01 3.06034E-02-1.92878E-04-3.46528E-02 3.15702E-13-5.54764E-14
 -1      3085 2.00084E+01 4.79983E-02 4.97019E-05-4.79456E-02 7.11315E-14-5.65823E-14
 -1      3086 2.00122E+01 2.57586E-02 2.42563E-04-2.83650E-02 3.01985E-13-6.85294E-14
 -1      3087 2.00095E+01 2.14358E-02-1.29137E-04-2.29099E-02 2.96282E-13-8.09308E-14
 -1      3088 2.00081E+01 3.39320E-02 6.31342E-06-3.28794E-02 2.79456E-13-1.00929E-13
 -1      3089 2.00092E+01 1.79650E-02 1.82388E-04-1.83514E-02 3.09858E-13-5.19154E-14
 -1      3090 2.00071E+01 1.48618E-02-8.57571E-05-1.44694E-02 2.86512E-13 1.57059E-14
 -1      3091 2.00071E+01 2.38102E-02-1.56493E-05-2.18245E-02 2.48193E-13-2.00644E-13
 -1      3092 2.00067E+01 1.23729E-02 1.34968E-04-1.12104E-02 1.19989E-13 8.13268E-15
 -1      3093 2.00051E+01 1.01466E-02-5.63389E-05-8.48584E-03-9.39088E-14-1.05200E-13
 -1      3094 2.00059E+01 1.65201E-02-2.44197E-05-1.38181E-02 1.98496E-13-1.29057E-13
 -1      3095 2.00047E+01 8.36182E-03 9.80890E-05-6.19627E-03-7.64218E-14-1.57288E-13
 -1      3096 2.00036E+01 6.77407E-03-3.35375E-05-4.32317E-03-2.89335E-14-1.26689E-13
 -1      3097 2.00046E+01 1.12722E-02-2.63850E-05-8.11039E-03-1.51361E-13-1.70358E-13
 -1      3098 2.00032E+01 5.55570E-03 7.08017E-05-2.82297E-03-2.31829E-13-7.45984E-14
 -1      3099 2.00025E+01 4.45458E-03-2.11208E-05-1.61316E-03-3.36901E-13-2.31375E-13
 -1      3100 2.00035E+01 7.56000E-03-2.92742E-05-4.19468E-03-1.00249E-13-3.11685E-13
 -1      3101 2.00021E+01 3.51054E-03 5.00935E-05-5.45977E-04-2.91792E-13-3.17131E-13
 -1      3102 2.00016E+01 2.66987E-03-1.52911E-05 2.73650E-04-1.95017E-13-1.78199E-13
 -1      3103 2.00026E+01 4.90068E-03-2.05089E-05-1.52076E-03-3.50558E-13-1.76209E-13
 -1      3104 2.00013E+01 1.98311E-03 3.48682E-05 9.38125E-04-7.26687E-14-1.74536E-13
 -1      3105 2.00009E+01 1.35865E-03-9.66450E-06 1.41625E-03 1.51936E-13-3.33030E-13
 -1      3106 2.00018E+01 2.89616E-03-1.58931E-05 2.85414E-04-3.58513E-14-7.66629E-14
 -1      3107 2.00007E+01 8.32634E-04 2.33694E-05 1.78867E-03 2.65083E-13-5.83385E-13
 -1      3108 2.00005E+01 3.37943E-04-6.32186E-06 2.01145E-03-1.82200E-14-4.56224E-13
 -1      3109 2.00012E+01 1.41000E-03-9.69366E-06 1.37034E-03 1.15459E-14-2.27721E-13
 -1      3110 2.00012E+01 5.97393E-04 1.25287E-06 1.34480E-03-3.03605E-13-4.51363E-13
 -1      3111 2.00013E+01 7.14869E-04-6.55060E-06 1.07975E-03-3.31212E-13-5.51341E-13
 -1      3112 1.05062E+01 5.57250E-01 5.04929E-02 4.11910E+00-3.26628E-13 1.72334E-13
 -1      3113 9.59023E+00 1.33372E+00 1.04441E-01 2.32429E+00-2.35512E-13 2.45998E-13
 -1      3114 2.04413E+01-2.68369E-01-3.25949E-03-1.04120E-01 1.58656E-14-2.36951E-14
 -1      3115 2.04242E+01-1.65701E-01 5.93592E-03-1.32641E-01 2.59846E-14-3.56425E-14
 -1      3116 2.06020E+01-3.61251E-01-3.96504E-03-1.24519E-01 3.60794E-14-4.84874E-14
 -1      3117 2.08698E+01-6.02634E-01-3.03822E-03 8.02650E-01 2.22074E-14 1.70162E-14
 -1      3118 2.08768E+01-6.49227E-01 8.57549E-04 6.59326E-01 4.48991E-14 2.40491E-14
 -1      3119 2.08682E+01-3.73980E-01 7.16205E-04 1.08197E+00-8.09819E-14 7.83028E-14
 -1      3120 2.09087E+01-5.13224E-01-3.45021E-03 9.69053E-01-2.49636E-14 3.19556E-14
 -1      3121 2.12684E+01-6.67869E-01 4.43206E-03 8.79192E-01-1.14193E-14 6.91239E-15
 -1      3122 2.07604E+01 3.62035E-02 5.98166E-03 1.23389E+00-1.23610E-15 4.50194E-14
 -1      3123 2.08332E+01-1.93630E-01-8.20316E-03 1.19725E+00-5.20497E-14 6.80846E-14
 -1      3124 2.12958E+01-3.43337E-01 7.22323E-03 1.18096E+00-5.00279E-14 1.54924E-14
 -1      3125 2.05618E+01 5.63930E-01 1.04764E-02 1.15770E+00 4.92047E-14 5.50321E-14
 -1      3126 2.06500E+01 2.86433E-01-1.15668E-02 1.23698E+00 3.02522E-14 7.73333E-14
 -1      3127 2.11848E+01 1.86764E-01 6.63158E-03 1.32223E+00 1.24761E-14-4.45193E-14
 -1      3128 2.03401E+01 1.05923E+00 1.07409E-02 7.95196E-01 1.45193E-13 6.23400E-15
 -1      3129 2.04129E+01 8.22063E-01-1.10495E-02 1.00226E+00 7.91256E-14 2.26433E-14
 -1      3130 2.09621E+01 8.23552E-01 1.76160E-03 1.18364E+00 7.78382E-14-9.96989E-15
 -1      3131 2.01972E+01 1.34182E+00 6.36101E-03 1.99932E-01 1.16175E-13 1.19036E-13
 -1      3132 2.02286E+01 1.23360E+00-4.26148E-03 4.96023E-01 1.21602E-13 7.15882E-14
 -1      3133 2.07331E+01 1.36436E+00-4.64879E-03 7.20799E-01 1.02451E-13 3.83567E-14
 -1      3134 2.02122E+01 1.29338E+00-1.25538E-03-4.73878E-01 9.72182E-14 1.35482E-13
 -1      3135 2.01862E+01 1.36138E+00 5.11387E-03-1.68571E-01 1.27777E-13 1.01355E-13
 -1      3136 2.06235E+01 1.61141E+00-5.84280E-03 2.12971E-02 1.42680E-13 2.24509E-14
 -1      3137 2.03778E+01 9.38886E-01-8.67223E-03-1.02926E+00 2.50960E-14 7.39986E-14
 -1      3138 2.03047E+01 1.15109E+00 1.06685E-02-7.97317E-01 1.02330E-13 1.07739E-13
 -1      3139 2.06965E+01 1.45406E+00-4.48673E-03-7.00161E-01 9.03697E-14-1.41645E-14
 -1      3140 2.06135E+01 4.26807E-01-1.09081E-02-1.33060E+00 3.46687E-14 5.54786E-14
 -1      3141 2.05204E+01 6.96665E-01 1.09210E-02-1.21935E+00-6.79014E-15 6.38404E-14
 -1      3142 2.09072E+01 9.71207E-01 1.45140E-03-1.22684E+00 3.38112E-14 5.15770E-14
 -1      3143 2.08143E+01-6.42324E-02-8.54574E-03-1.35545E+00 6.68565E-14 2.85637E-14
 -1      3144 2.07317E+01 1.74281E-01 6.86933E-03-1.36364E+00 7.84691E-14 5.26789E-14
 -1      3145 2.11337E+01 3.53054E-01 6.79397E-03-1.44046E+00 5.61191E-14 3.69264E-14
 -1      3146 2.09124E+01-4.12312E-01-4.10170E-03-1.17451E+00 1.13084E-13-2.43932E-16
 -1      3147 2.08603E+01-2.57135E-01 1.39386E-03-1.26660E+00 1.15194E-13 7.01194E-14
 -1      3148 2.12636E+01-1.97855E-01 7.89472E-03-1.36224E+00 1.16255E-13 7.31256E-14
 -1      3149 2.08979E+01-5.82476E-01 1.03444E-04-8.91914E-01 8.61697E-14 1.65756E-14
 -1      3150 2.08811E+01-5.18268E-01-2.75505E-03-1.02330E+00 1.15980E-13 3.11751E-14
 -1      3151 2.12533E+01-5.59985E-01 5.48498E-03-1.10043E+00 9.17166E-14 1.61163E-13
 -1      3152 2.08003E+01-6.03461E-01 2.88706E-03-5.95720E-01-1.20012E-13 1.19275E-13
 -1      3153 2.08122E+01-6.09749E-01-4.67706E-03-7.30417E-01 1.47377E-14 6.15629E-14
 -1      3154 2.11248E+01-7.12792E-01 2.10591E-03-7.74223E-01 2.74771E-14 2.37241E-13
 -1      3155 2.06611E+01-5.29398E-01 4.10389E-03-3.39261E-01-1.04900E-13-7.84281E-14
 -1      3156 2.06906E+01-5.77068E-01-4.83347E-03-4.55626E-01-1.13642E-13 9.42849E-15
 -1      3157 2.09300E+01-7.02379E-01-6.51219E-04-4.67976E-01-1.78208E-14 2.24267E-13
 -1      3158 2.05149E+01-4.12309E-01 4.15698E-03-1.44019E-01-1.31286E-13-1.58233E-13
 -1      3159 2.05516E+01-4.75968E-01-4.03971E-03-2.33241E-01-9.57815E-14-1.68193E-13
 -1      3160 2.07192E+01-5.95516E-01-2.20326E-03-2.23497E-01-4.02602E-14 1.42323E-13
 -1      3161 2.03833E+01-2.89434E-01 3.56144E-03-1.06457E-02-1.13470E-13-2.23086E-14
 -1      3162 2.04200E+01-3.52101E-01-2.96167E-03-7.23485E-02-2.10829E-13-1.83300E-13
 -1      3163 2.05265E+01-4.50933E-01-2.73306E-03-5.05085E-02-1.62219E-13-7.10783E-14
 -1      3164 2.02757E+01-1.81861E-01 2.73564E-03 7.04768E-02-1.07671E-13 1.42010E-13
 -1      3165 2.03083E+01-2.34653E-01-1.95089E-03 3.23100E-02-4.08590E-14 5.49853E-14
 -1      3166 2.03682E+01-3.07898E-01-2.60603E-03 5.86599E-02-1.63858E-13-4.51695E-14
 -1      3167 2.01933E+01-9.81344E-02 1.92644E-03 1.12183E-01-1.30948E-13 8.75336E-14
 -1      3168 2.02204E+01-1.38037E-01-1.14500E-03 9.20509E-02-9.88610E-14 1.73704E-13
 -1      3169 2.02479E+01-1.87032E-01-2.16294E-03 1.18241E-01-1.08598E-13 4.38709E-15
 -1      3170 2.01332E+01-3.88946E-02 1.24950E-03 1.26706E-01-2.65100E-14 3.56417E-14
 -1      3171 2.01548E+01-6.63739E-02-5.64734E-04 1.19217E-01-6.51134E-14 8.26187E-14
 -1      3172 2.01617E+01-9.54196E-02-1.64294E-03 1.42891E-01-4.20331E-14 1.26894E-13
 -1      3173 2.00909E+01-7.58494E-04 7.38785E-04 1.24096E-01-5.05946E-14-4.03924E-14
 -1      3174 2.01077E+01-1.79180E-02-1.78180E-04 1.24713E-01-9.99694E-14-2.40312E-14
 -1      3175 2.01029E+01-3.21182E-02-1.16969E-03 1.44995E-01 4.89503E-14-3.74964E-14
 -1      3176 2.00619E+01 2.10884E-02 3.83506E-04 1.11869E-01 1.66329E-14 5.71224E-14
 -1      3177 2.00747E+01 1.16816E-02 5.96903E-05 1.17126E-01 6.25214E-14 5.17632E-14
 -1      3178 2.00644E+01 7.58896E-03-7.91882E-04 1.33955E-01-5.83028E-14-6.22995E-14
 -1      3179 2.00422E+01 3.14050E-02 1.54362E-04 9.52368E-02-2.90626E-14-2.70124E-14
 -1      3180 2.00520E+01 2.73562E-02 1.91248E-04 1.02688E-01-1.56722E-14 1.20651E-13
 -1      3181 2.00400E+01 2.95132E-02-5.15181E-04 1.16375E-01-1.94037E-14-4.71425E-14
 -1      3182 2.00290E+01 3.42039E-02 1.85658E-05 7.75633E-02-3.84130E-14 2.60749E-15
 -1      3183 2.00364E+01 3.35604E-02 2.50952E-04 8.56050E-02-7.50298E-14-6.54522E-14
 -1      3184 2.00250E+01 3.91010E-02-3.25177E-04 9.65888E-02-3.39286E-14 2.72072E-14
 -1      3185 2.00201E+01 3.25460E-02-5.30154E-05 6.08359E-02 3.78159E-14-6.94124E-14
 -1      3186 2.00257E+01 3.38542E-02 2.64762E-04 6.85057E-02 3.43422E-14-2.89505E-14
 -1      3187 2.00160E+01 4.08088E-02-2.01371E-04 7.72293E-02 2.05445E-14 4.08815E-14
 -1      3188 2.00140E+01 2.85917E-02-8.33625E-05 4.60833E-02 2.18335E-13-1.62824E-13
 -1      3189 2.00182E+01 3.08472E-02 2.51306E-04 5.28736E-02 1.36178E-13-5.95683E-14
 -1      3190 2.00107E+01 3.79670E-02-1.24240E-04 5.97371E-02 1.03592E-13-3.96727E-14
 -1      3191 2.00098E+01 2.37594E-02-8.91973E-05 3.37046E-02 4.56332E-14-6.67659E-15
 -1      3192 2.00130E+01 2.63169E-02 2.23403E-04 3.94106E-02 9.12568E-14-8.59618E-14
 -1      3193 2.00075E+01 3.28870E-02-7.79705E-05 4.47579E-02 1.40111E-13 4.82182E-14
 -1      3194 2.00069E+01 1.89085E-02-8.19228E-05 2.37138E-02-1.64767E-14 1.17749E-14
 -1      3195 2.00093E+01 2.13877E-02 1.89501E-04 2.83179E-02 3.85153E-14 2.37382E-14
 -1      3196 2.00055E+01 2.70614E-02-5.10109E-05 3.24382E-02-9.31908E-15-1.52042E-14
 -1      3197 2.00048E+01 1.45046E-02-6.88535E-05 1.59110E-02-2.26120E-13 2.19373E-13
 -1      3198 2.00066E+01 1.67083E-02 1.54895E-04 1.95006E-02-1.91656E-13 1.61039E-13
 -1      3199 2.00042E+01 2.13767E-02-3.55096E-05 2.26355E-02-2.01507E-13 2.17250E-13
 -1      3200 2.00033E+01 1.07530E-02-5.43727E-05 9.99709E-03-1.50993E-13 2.42011E-13
 -1      3201 2.00046E+01 1.26031E-02 1.22665E-04 1.27092E-02-1.37282E-13 2.18674E-13
 -1      3202 2.00033E+01 1.62980E-02-2.64494E-05 1.50596E-02-2.07691E-13 2.40448E-13
 -1      3203 2.00022E+01 7.69694E-03-4.08817E-05 5.64625E-03 1.56910E-13 2.77182E-14
 -1      3204 2.00031E+01 9.18778E-03 9.43987E-05 7.63193E-03 3.80209E-14 1.17405E-13
 -1      3205 2.00026E+01 1.20151E-02-2.08039E-05 9.36392E-03 5.85644E-15 2.42518E-14
 -1      3206 2.00014E+01 5.28564E-03-2.96242E-05 2.54823E-03 3.33764E-13 9.40025E-14
 -1      3207 2.00020E+01 6.45284E-03 7.07412E-05 3.95150E-03 2.23301E-13 6.36650E-14
 -1      3208 2.00020E+01 8.54867E-03-1.68982E-05 5.20153E-03 1.99953E-13-5.22277E-14
 -1      3209 2.00008E+01 3.41933E-03-2.03788E-05 4.32757E-04 2.71752E-13 9.70596E-14
 -1      3210 2.00013E+01 4.31861E-03 5.16833E-05 1.37857E-03 4.32322E-13 1.85809E-13
 -1      3211 2.00015E+01 5.82285E-03-1.36971E-05 2.25609E-03 2.55001E-13 2.16258E-13
 -1      3212 2.00004E+01 1.99841E-03-7.72817E-06-9.14068E-04-2.12554E-13 1.67396E-13
 -1      3213 2.00007E+01 2.66717E-03 3.45656E-05-3.30317E-04 3.74168E-14 2.87417E-14
 -1      3214 2.00011E+01 3.71775E-03-1.01943E-05 2.62826E-04 1.91031E-13 3.51544E-13
 -1      3215 2.22909E+01-4.29322E+00 1.38014E-01-5.03772E+00 2.24237E-13 3.63466E-13
 -1      3216 2.00013E+01 1.45218E-03-3.32774E-06-1.16093E-04-1.96271E-13-6.76829E-14
 -1      3217 2.00013E+01 1.48126E-03-7.40675E-06-3.32546E-04-1.45890E-13-1.22584E-13
 -1      3218 2.07906E+01-6.59621E-01-4.60346E-03 4.92687E-01 3.66062E-14-5.14940E-14
 -1      3219 2.07732E+01-6.35720E-01 3.69047E-03 3.54670E-01 4.89409E-14-8.55013E-14
 -1      3220 2.11339E+01-7.78605E-01 9.69818E-04 5.35406E-01 1.36135E-14-7.75651E-14
 -1      3221 2.17493E+01-3.91426E+00-1.05704E-01 4.97588E+00-3.50636E-13-4.91426E-13
 -1      3222 1.88571E+01-2.57615E+00 1.64910E-01 5.74161E+00-3.42216E-13-3.37220E-13
 -1      3223 2.00196E+01 2.43844E+00-7.59012E-03-9.33889E-01-1.98707E-13-3.15145E-13
 -1      3224 2.01396E+01 2.24576E+00-8.24806E-03-1.00524E+00-2.30133E-13-3.02044E-13
 -1      3225 2.02035E+01 1.97572E+00 5.76038E-03-8.26777E-01-2.21099E-13-2.67445E-13
 -1      3226 2.00556E+01 2.22211E+00 9.32303E-03-7.28180E-01-1.67980E-13-2.88368E-13
 -1      3227 1.27306E+01 1.66807E+00 1.68076E-01-3.02498E+00 1.50081E-13 5.55195E-13
 -1      3228 2.14357E+01-3.99990E+00 8.81015E-02-5.47374E+00-2.34351E-13-1.65094E-13
 -1      3229 2.38743E+01-4.54419E+00-9.52018E-02-4.23240E+00-1.57714E-13-3.34281E-15
 -1      3230 2.00014E+01 9.73975E-04 1.50216E-06 8.11808E-04-4.50466E-13-2.14695E-13
 -1      3231 2.00014E+01 1.07412E-03-1.00937E-05 5.50501E-04-4.37809E-13 2.78723E-13
 -1      3232 2.00016E+01 1.66232E-03 7.11014E-06 7.81291E-04-4.89309E-13-2.68430E-13
 -1      3233 2.59098E+01-3.91592E+00-1.23126E-01 2.09219E+00-2.65534E-13-5.31249E-13
 -1      3234 2.45561E+01-3.89474E+00 1.06311E-01 3.33569E+00-2.69263E-13-5.35969E-13
 -1      3235 2.71349E+01 3.41869E+00-6.75512E-02 2.01040E+00 1.93762E-13 4.18762E-14
 -1      3236 2.70803E+01 5.00577E+00-1.38073E-01 1.66097E+00 2.84162E-13-1.54286E-14
 -1      3237 1.53251E+01-1.68324E+00-8.02629E-02 6.01840E+00-4.78943E-13-3.49311E-13
 -1      3238 1.27503E+01-2.84391E-01 1.59366E-01 5.22658E+00-3.80633E-13-1.01072E-13
 -1      3239 1.31753E+01 5.24640E-01 1.14953E-01 4.15026E+00-3.87662E-13-9.11354E-14
 -1      3240 1.42029E+01 2.13273E+00-6.76185E-03-2.08718E+00 2.27288E-14 2.92429E-13
 -1      3241 1.51962E+01 2.26652E+00-2.50110E-02-1.77304E+00-1.04798E-13 2.42716E-13
 -1      3242 1.50707E+01 2.42473E+00 7.00220E-02-8.53408E-01-1.47276E-13-1.02483E-13
 -1      3243 1.00603E+01 5.71493E-01 1.30519E-01-3.67699E+00-2.75752E-14-5.20931E-13
 -1      3244 1.17248E+01-5.43577E-01 1.03117E-01-5.35191E+00-1.45495E-13-4.92786E-13
 -1      3245 2.83886E+01 7.00528E+00-1.73780E-01-6.69581E-01 3.24768E-13-2.80678E-14
 -1      3246 2.81779E+01 5.85546E+00-1.38589E-01-1.48802E+00 3.38868E-13-9.03583E-14
 -1      3247 2.61637E+01-3.95304E+00 1.10803E-01-2.44672E+00-1.29920E-13 5.34399E-14
 -1      3248 2.70483E+01-3.33508E+00-1.68367E-01-8.78434E-01-3.46069E-14 1.39062E-13
 -1      3249 2.79700E+01-9.55749E-01-1.25706E-01-9.40698E-01-8.86478E-14-4.02033E-13
 -1      3250 2.72926E+01-2.57636E+00 2.54563E-02 4.65872E-01-1.89983E-13-5.04492E-13
 -1      3251 2.79128E+01-1.26925E+00 4.99336E-02 8.46305E-01 8.86652E-14 1.29785E-13
 -1      3252 2.74989E+01 8.30904E-01-1.37461E-01 1.83382E+00 1.76012E-13 3.16448E-14
 -1      3253 1.98942E+01 2.29018E+00-2.56535E-03 1.14048E-01 1.13538E-13-2.91079E-13
 -1      3254 1.98415E+01 2.35304E+00-4.67795E-03 4.78265E-03 7.72072E-14-2.94069E-13
 -1      3255 2.00014E+01 1.27764E-03 5.35291E-09 3.15322E-04-2.38622E-13 6.00504E-14
 -1      3256 2.00014E+01 1.34830E-03-9.74820E-06 7.96595E-05-2.48835E-13 1.27689E-13
 -1      3257 2.00016E+01 2.43182E-03 1.86215E-05-8.87936E-05-1.30834E-13 4.38624E-14
 -1      3258 2.00016E+01 2.12905E-03 1.54839E-05 3.04089E-04-3.96467E-13 2.76941E-14
 -1      3259 2.00003E+01 1.21829E-04 4.20879E-06-1.83844E-03 2.11542E-13-1.92069E-13
 -1      3260 1.01779E+01 1.67365E+00 6.19856E-02-1.32395E+00 1.06016E-13 3.58935E-13
 -1      3261 1.29133E+01 2.06282E+00 4.77102E-02-1.77983E+00 3.74423E-14 3.27863E-13
 -1      3262 1.25945E+01 2.44293E+00 1.25002E-01-4.11894E-01-1.30445E-13 1.31263E-13
 -1      3263 9.61241E+00 1.76716E+00 1.58172E-01 9.01585E-01-9.51166E-14 2.07223E-13
 -1      3264 2.02027E+01 1.72391E+00-5.16733E-03-6.43385E-01-2.05788E-13-2.52561E-13
 -1      3265 2.02677E+01 1.46905E+00 3.87181E-03 4.06622E-01 1.84971E-13-1.85953E-13
 -1      3266 2.01563E+01 1.82890E+00-5.88344E-03 5.14277E-01 1.97358E-13-2.27995E-13
 -1      3267 2.00871E+01 1.97425E+00-2.62883E-03 4.12005E-01 1.62944E-13-2.49134E-13
 -1      3268 1.78515E+01-1.72200E+00 6.57052E-02 5.16786E+00-3.80005E-13-3.13902E-13
 -1      3269 2.28945E+01-3.39975E+00 2.03356E-02 3.61559E+00-3.27526E-13-4.54274E-13
 -1      3270 2.09478E+01-7.25461E-01-1.74484E-03 2.30733E-01 5.36199E-14-7.17128E-14
 -1      3271 2.03706E+01-6.35069E-02-2.84350E-03-1.31489E-01 6.61006E-14-1.86419E-14
 -1      3272 2.03714E+01 5.14508E-02 6.52210E-03-1.12088E-01 1.02415E-13-1.32139E-14
 -1      3273 2.04886E+01-1.21825E-01-4.06936E-03-1.59295E-01 5.57626E-14-4.70253E-14
 -1      3274 1.38964E+01 2.24187E+00-1.83379E-02 1.31248E+00 1.26591E-13-2.75162E-13
 -1      3275 1.26881E+01 2.06231E+00 3.99663E-02 1.47443E+00 2.02467E-13-2.82420E-13
 -1      3276 1.98594E+01 2.25339E+00-3.81782E-03-4.76122E-01-6.07538E-14-2.95718E-13
 -1      3277 1.99360E+01 2.11536E+00-7.79451E-03-5.28197E-01-9.94009E-14-2.90853E-13
 -1      3278 2.01128E+01 1.80240E+00-1.83820E-03-5.44704E-01-1.67047E-13-2.34283E-13
 -1      3279 1.98003E+01 2.41495E+00-1.69068E-03-7.92869E-02 6.23944E-14-2.96652E-13
 -1      3280 1.97673E+01 2.43613E+00-6.08670E-03-1.78305E-01 2.82041E-14-2.99727E-13
 -1      3281 1.99130E+01 2.10772E+00 4.62956E-03-8.44061E-02 6.27789E-14-2.65951E-13
 -1      3282 2.68737E+01-3.85487E+00 1.20832E-01-3.37586E+00 2.89616E-13 2.79242E-13
 -1      3283 2.03365E+01 4.69939E-01-2.86918E-03 1.23505E-01 1.66872E-13-3.47071E-14
 -1      3284 2.03665E+01 6.53818E-01 7.87518E-03 2.66681E-01 1.95978E-13-5.84619E-14
 -1      3285 1.40668E+01-9.49647E-01 9.89358E-02-5.43188E+00-1.66402E-13-3.96766E-13
 -1      3286 2.00011E+01 3.19212E-04-3.43685E-06 1.58410E-03-2.27820E-13-1.67787E-13
 -1      3287 2.00014E+01 1.09887E-03-1.57077E-06 1.28718E-03-1.58182E-13-2.97800E-13
 -1      3288 2.00009E+01 1.87391E-04-1.84025E-06 1.78280E-03-1.04306E-13-3.19882E-13
 -1      3289 2.00003E+01-1.45200E-04 9.68593E-06 2.13241E-03-1.85971E-13-4.08820E-13
 -1      3290 1.12461E+01 1.81443E+00 1.05947E-01 1.50805E+00-2.04931E-13 7.88536E-14
 -1      3291 1.13902E+01 2.15402E+00 1.65352E-01 1.72453E-01 1.46621E-13-3.60809E-13
 -1      3292 2.03603E+01 7.51987E-01 2.39336E-04 4.11262E-01 2.31765E-13-6.12516E-14
 -1      3293 2.03993E+01 9.04810E-01 4.82446E-03 6.38716E-01 2.48732E-13-9.21572E-16
 -1      3294 2.03669E+01 8.01080E-01-5.59911E-03 3.50262E-01 2.10985E-13-7.42823E-14
 -1      3295 2.00004E+01 1.60024E-03 1.47658E-05-1.25617E-03-2.41440E-13 9.70266E-14
 -1      3296 2.00008E+01 2.29762E-03-1.22020E-05-8.71939E-04-3.58556E-14 3.97189E-13
 -1      3297 2.00004E+01 1.23903E-03 1.51498E-06-1.48791E-03 3.18596E-14 1.66852E-13
 -1      3298 2.00011E+01 1.31448E-03-7.92651E-06-8.70669E-04 6.07296E-14-1.33482E-13
 -1      3299 2.00010E+01 1.24957E-03-6.79245E-07-1.05933E-03 3.54193E-13-2.16155E-14
 -1      3300 2.00004E+01 5.98481E-04-1.53020E-06-1.72826E-03 1.47301E-13-2.34545E-13
 -1      3301 2.00004E+01 9.93297E-04 6.01644E-06-1.61696E-03 2.31575E-13 5.33886E-14
 -1      3302 2.00007E+01 6.80170E-04-7.63673E-06-1.55676E-03 4.13747E-13-2.77199E-13
 -1      3303 1.05913E+01 1.73835E+00 7.75636E-02-9.50004E-01 9.02750E-14-4.30239E-13
 -1      3304 1.01077E+01 1.23337E+00 1.63819E-01-2.49445E+00 1.94463E-15-5.13839E-13
 -1      3305 1.17889E+01 1.04467E+00 6.15787E-02-3.03109E+00-3.35487E-14-4.80033E-13
 -1      3306 1.20181E+01 1.94085E+00 3.67072E-03-8.95978E-01 1.04722E-13-3.76942E-13
 -1      3307 2.00010E+01 1.02342E-03-9.14959E-06-1.21253E-03 3.22213E-13-2.45318E-14
 -1      3308 2.00008E+01 9.31230E-04-1.26931E-06-1.38240E-03 3.48837E-13-1.18641E-13
 -1      3309 2.00010E+01 1.51800E-03 7.25411E-06-1.28981E-03 3.38032E-13-2.01232E-13
 -1      3310 2.00012E+01 1.99621E-03 1.49553E-05-9.97814E-04 2.94473E-13-1.40673E-14
 -1      3311 2.00012E+01 1.46586E-03-6.35623E-06-5.04292E-04-1.12051E-13 4.93310E-14
 -1      3312 2.00012E+01 1.44580E-03-3.96384E-06-7.03732E-04-6.44642E-14-1.13518E-13
 -1      3313 2.00015E+01 2.51402E-03 1.89743E-05-4.13503E-04 9.03386E-14-6.43049E-14
 -1      3314 1.97704E+01 2.41353E+00-1.83627E-03-3.76297E-01-1.90686E-14-3.19618E-13
 -1      3315 1.98035E+01 2.33545E+00-7.86580E-03-4.46958E-01-4.32075E-14-3.22659E-13
 -1      3316 1.98985E+01 2.06001E+00 1.01842E-02-3.70501E-01-6.02417E-14-2.85877E-13
 -1      3317 2.76130E+01 4.67694E+00-1.17060E-01-1.87951E+00 2.21240E-13-1.76595E-13
 -1      3318 2.68915E+01 3.44839E+00-6.83213E-02-1.95820E+00 1.05471E-13-2.00026E-13
 -1      3319 2.64700E+01 5.17123E+00-9.25065E-02-1.54742E+00 1.69503E-13-1.07990E-13
 -1      3320 2.67944E+01 1.83468E+00-6.66612E-02 2.11866E+00 1.43770E-13 1.88183E-14
 -1      3321 2.56860E+01 2.64919E+00-4.60817E-02 2.01193E+00 1.72733E-13-4.09880E-14
 -1      3322 2.60967E+01 5.03096E-01-3.27340E-02 1.74626E+00 1.31620E-13 3.17598E-14
 -1      3323 1.99533E+01 2.19752E+00-3.68759E-03 2.08317E-01 1.20135E-13-2.86094E-13
 -1      3324 2.00224E+01 1.95558E+00 3.99547E-03 8.31837E-02 1.01646E-13-2.71735E-13
 -1      3325 2.00176E+01 2.09611E+00-3.86547E-03 3.20357E-01 1.47087E-13-2.81181E-13
 -1      3326 1.98983E+01-3.47725E+00 2.52897E-02-5.80457E+00-2.40481E-13-2.09548E-13
 -1      3327 2.13555E+01-3.26052E+00 4.55789E-02-4.61488E+00-2.17003E-13-1.69411E-13
 -1      3328 1.82594E+01-2.48653E+00 5.18028E-02-5.65222E+00-2.21882E-13-2.42972E-13
 -1      3329 2.67989E+01-2.08311E+00 4.05915E-03 2.16306E-01 3.01495E-14 6.93438E-14
 -1      3330 2.66029E+01 5.42594E+00-9.89932E-02 1.37277E+00 2.54269E-13-4.59355E-14
 -1      3331 2.59498E+01 5.64210E+00-1.10356E-01 8.75145E-01 2.51910E-13-4.33403E-14
 -1      3332 2.55627E+01 4.42259E+00-3.29489E-02 1.51440E+00 1.57978E-13 5.55589E-14
 -1      3333 2.77109E+01 2.26026E-01-3.69014E-02-1.59910E+00 1.20043E-15-3.93484E-13
 -1      3334 2.66708E+01-7.39491E-01-1.77532E-02-1.21611E+00-1.07145E-13-3.35469E-13
 -1      3335 2.68524E+01 1.33147E+00-9.69765E-02-1.99549E+00 2.96499E-14-3.65777E-13
 -1      3336 2.45863E+01-3.90208E+00 4.69331E-03-2.99494E+00-1.63709E-13 1.62405E-14
 -1      3337 2.71382E+01 6.43347E+00-1.15628E-01-3.19713E-01 3.11098E-13-9.00200E-14
 -1      3338 2.61680E+01-2.75927E+00 1.62627E-02 6.95575E-01-2.45832E-13-4.41008E-13
 -1      3339 1.41406E+01 2.36684E+00 9.30937E-02 2.62529E-01 9.84113E-14-2.90884E-13
 -1      3340 2.03375E+01 1.68627E-01-3.19086E-03-6.36058E-02 1.18865E-13-2.30274E-14
 -1      3341 2.03588E+01 3.07290E-01 7.55536E-03 8.55485E-03 1.48914E-13-1.61261E-14
 -1      3342 2.04210E+01 1.45427E-01-4.23277E-03-9.79920E-02 1.17193E-13-2.82138E-14
 -1      3343 2.03857E+01 4.81552E-01-3.13273E-03 7.76516E-02 1.52822E-13-6.28878E-14
 -1      3344 1.98917E+01 1.30801E+00 3.76218E-04-7.58082E-03-9.44449E-14-1.58582E-13
 -1      3345 1.97689E+01 1.23423E+00-6.59331E-03 1.31455E-01-7.80453E-14-1.55562E-13
 -1      3346 1.96290E+01 1.19791E+00-2.04810E-03 1.96307E-01-8.21300E-14-1.23205E-13
 -1      3347 1.94425E+01 1.19710E+00-8.69690E-03 2.88515E-01-5.40119E-14-1.37813E-13
 -1      3348 1.96683E+01 1.31423E+00 8.35175E-03 3.94698E-02-7.37802E-14-1.57045E-13
 -1      3349 1.92235E+01 1.23353E+00-2.92471E-03 3.07002E-01-5.59017E-14-1.66474E-13
 -1      3350 1.89402E+01 1.29534E+00-1.23539E-02 3.53665E-01-7.94948E-14-1.82454E-13
 -1      3351 1.93099E+01 1.27525E+00 1.02597E-02 1.01132E-01-8.10347E-14-1.66682E-13
 -1      3352 1.86381E+01 1.38312E+00-4.87640E-03 3.14642E-01-1.09271E-13-2.20031E-13
 -1      3353 1.82420E+01 1.48290E+00-1.83327E-02 3.09614E-01-1.09780E-13-2.29077E-13
 -1      3354 1.87921E+01 1.35650E+00 1.48899E-02 4.63960E-02-1.24754E-13-2.09830E-13
 -1      3355 1.77949E+01 1.60954E+00-6.62400E-03 1.90100E-01-7.65340E-14-2.23601E-13
 -1      3356 1.71816E+01 1.72828E+00-2.66421E-02 1.13062E-01-5.95032E-14-2.37247E-13
 -1      3357 1.80553E+01 1.51153E+00 2.16170E-02-1.64560E-01-9.90646E-14-1.87247E-13
 -1      3358 1.65499E+01 1.85101E+00-8.14488E-03-1.18454E-01-3.13079E-14-2.52507E-13
 -1      3359 1.56495E+01 1.93484E+00-3.05349E-02-2.93866E-01 3.22637E-14-2.49148E-13
 -1      3360 1.69972E+01 1.67941E+00 3.32304E-02-6.03302E-01-4.38111E-14-2.13024E-13
 -1      3361 1.60868E+01 2.03688E+00-2.90295E-02-1.66179E-01-1.61623E-13-1.45447E-13
 -1      3362 1.68341E+01 1.89505E+00-1.28252E-02-2.32460E-01-1.99671E-13-1.18649E-13
 -1      3363 2.00385E+01 1.90673E+00-3.12724E-03-5.06531E-01-1.29404E-13-2.44487E-13
 -1      3364 2.09475E+01-6.97373E-01-3.96606E-03-5.21206E-02 6.85078E-14-1.05871E-13
 -1      3365 2.08703E+01-5.74981E-01 7.40603E-03-1.33714E-01 4.31000E-14-9.25723E-14
 -1      3366 1.97538E+01 2.46121E+00-1.38387E-03-2.44522E-01 1.02617E-14-3.02917E-13
 -1      3367 1.97491E+01 2.43511E+00-7.59901E-03-3.29879E-01-1.62416E-14-3.03059E-13
 -1      3368 1.98326E+01 2.17749E+00 7.66104E-03-3.18106E-01-1.35745E-14-3.03653E-13
 -1      3369 1.40203E+01-1.04044E-01 5.53082E-02-4.53790E+00-7.98771E-14-4.03233E-13
 -1      3370 1.60822E+01-1.45590E+00 3.74810E-02-5.54452E+00-1.58686E-13-3.24921E-13
 -1      3371 1.80283E+01-1.67992E+00 5.24624E-02-4.92991E+00-1.50775E-13-2.79908E-13
 -1      3372 2.00007E+01 1.81210E-04-8.34106E-06 1.90890E-03-2.07046E-15-5.71542E-13
 -1      3373 1.74348E+01 1.71450E+00-2.23185E-02-3.73999E-01-2.09935E-13-6.85340E-14
 -1      3374 1.79526E+01 1.53223E+00-1.07209E-02-3.80602E-01-1.10809E-13-8.99232E-15
 -1      3375 1.71042E+01 1.77223E+00 3.91430E-02 2.29964E-01-1.69224E-13-2.74891E-13
 -1      3376 1.83647E+01 1.35106E+00-1.41918E-02-4.45919E-01-9.21251E-14-6.03137E-14
 -1      3377 1.86939E+01 1.18474E+00-7.77284E-03-4.20534E-01-8.09964E-14-8.08032E-14
 -1      3378 1.80636E+01 1.44991E+00 2.20219E-02-5.59726E-02-1.42172E-13-1.65967E-13
 -1      3379 1.89740E+01 1.02773E+00-8.50336E-03-4.40792E-01-7.18460E-14-1.43128E-13
 -1      3380 1.91807E+01 8.88880E-01-5.81499E-03-4.00292E-01-1.30924E-13-1.35198E-13
 -1      3381 1.87325E+01 1.13508E+00 1.50635E-02-1.94930E-01-8.92922E-14-2.73050E-13
 -1      3382 1.93685E+01 7.64053E-01-4.76676E-03-3.95864E-01-2.25602E-13-7.45270E-14
 -1      3383 1.94950E+01 6.54914E-01-4.36932E-03-3.51669E-01-2.34920E-13-1.20062E-13
 -1      3384 1.91824E+01 8.62878E-01 1.01287E-02-2.45453E-01-1.97014E-13-2.93976E-13
 -1      3385 1.96142E+01 5.64032E-01-2.59033E-03-3.36330E-01-2.17725E-13-1.40678E-13
 -1      3386 1.96872E+01 4.84872E-01-3.24753E-03-2.96447E-01-9.83681E-14-1.45596E-13
 -1      3387 1.94744E+01 6.49398E-01 6.94500E-03-2.46876E-01-2.22370E-13-2.10325E-13
 -1      3388 1.97701E+01 4.13393E-01-1.25584E-03-2.75586E-01-4.24933E-14-1.84232E-13
 -1      3389 1.98153E+01 3.51288E-01-2.37712E-03-2.39090E-01-1.37964E-13-2.12120E-13
 -1      3390 1.96665E+01 4.82668E-01 4.48118E-03-2.23570E-01-1.49085E-13-3.23672E-13
 -1      3391 1.98689E+01 2.98974E-01-5.42735E-04-2.17993E-01-2.93074E-13-2.46817E-13
 -1      3392 1.98944E+01 2.53776E-01-1.70567E-03-1.87672E-01-2.65649E-13-1.02233E-13
 -1      3393 1.97944E+01 3.53937E-01 2.92208E-03-1.89932E-01-1.74606E-13-2.33066E-13
 -1      3394 1.99286E+01 2.15914E-01-1.17198E-04-1.68470E-01-1.12675E-15-9.59482E-14
 -1      3395 1.99422E+01 1.83102E-01-1.22187E-03-1.44073E-01 2.08982E-13-8.54977E-15
 -1      3396 1.98759E+01 2.58391E-01 1.86164E-03-1.54601E-01-4.00012E-14-1.49954E-14
 -1      3397 1.99639E+01 1.55810E-01 9.49094E-05-1.27639E-01 1.77080E-13 2.07502E-14
 -1      3398 1.99706E+01 1.32035E-01-8.72355E-04-1.08448E-01 9.14033E-14 6.77863E-14
 -1      3399 1.99272E+01 1.88181E-01 1.16695E-03-1.21866E-01 1.43649E-13-3.22124E-14
 -1      3400 1.99842E+01 1.12384E-01 1.93260E-04-9.49375E-02-9.83717E-14-4.65660E-15
 -1      3401 1.99870E+01 9.51654E-02-6.04122E-04-8.01132E-02-1.53310E-13-1.41004E-13
 -1      3402 1.99590E+01 1.36770E-01 7.12304E-04-9.35535E-02-5.65189E-14-2.97675E-13
 -1      3403 1.99951E+01 8.16256E-02 2.16172E-04-6.98569E-02-4.48307E-14-6.86288E-14
 -1      3404 1.99958E+01 6.95681E-02-4.29373E-04-5.89852E-02-6.11273E-14 9.29501E-14
 -1      3405 1.99780E+01 9.99338E-02 4.18256E-04-7.06253E-02-7.82422E-14-2.95416E-13
 -1      3406 2.00010E+01 5.90806E-02 2.01347E-04-5.04205E-02 1.65906E-14 1.09110E-13
 -1      3407 2.00007E+01 4.98166E-02-3.12300E-04-4.17890E-02 2.25960E-13 1.90552E-13
 -1      3408 1.99896E+01 7.28908E-02 2.63806E-04-5.21653E-02 3.85512E-14 8.50220E-14
 -1      3409 2.00038E+01 4.22130E-02 1.74049E-04-3.52430E-02 1.98855E-13 1.22639E-13
 -1      3410 2.00031E+01 3.54676E-02-2.19028E-04-2.88208E-02 2.04616E-13-1.68380E-14
 -1      3411 1.99965E+01 5.24406E-02 1.55659E-04-3.72690E-02 1.19349E-13 2.41397E-13
 -1      3412 2.00048E+01 2.99367E-02 1.44581E-04-2.38951E-02 1.62585E-13-8.33629E-14
 -1      3413 2.00040E+01 2.50205E-02-1.52718E-04-1.91820E-02 2.04974E-13-1.70780E-13
 -1      3414 2.00004E+01 3.74444E-02 8.70080E-05-2.58512E-02 1.06485E-13 3.37117E-14
 -1      3415 2.00049E+01 2.09987E-02 1.15635E-04-1.55426E-02 3.35088E-13-2.45498E-13
 -1      3416 2.00040E+01 1.74211E-02-1.05628E-04-1.21348E-02 2.11853E-13-2.16464E-13
 -1      3417 2.00023E+01 2.64598E-02 4.53891E-05-1.72673E-02 2.75907E-13-1.36174E-13
 -1      3418 2.00044E+01 1.45021E-02 9.01321E-05-9.49781E-03-1.20151E-13-2.05531E-13
 -1      3419 2.00037E+01 1.19129E-02-6.89052E-05-7.08104E-03-2.07168E-13-2.93652E-13
 -1      3420 2.00031E+01 1.84289E-02 2.00567E-05-1.09391E-02 5.96191E-14-2.80647E-13
 -1      3421 2.00038E+01 9.89864E-03 6.89104E-05-5.30042E-03-4.06189E-14-1.89835E-13
 -1      3422 2.00032E+01 8.08890E-03-4.64025E-05-3.68197E-03-6.64743E-14-1.95086E-13
 -1      3423 2.00032E+01 1.26816E-02 1.25446E-06-6.45855E-03-1.05408E-13-1.56912E-13
 -1      3424 2.00031E+01 6.52369E-03 5.12857E-05-2.36498E-03-2.89930E-13-9.58686E-14
 -1      3425 2.00025E+01 5.13829E-03-3.28237E-05-1.21540E-03-2.06842E-13 1.11096E-13
 -1      3426 2.00030E+01 8.50377E-03-1.86850E-06-3.28846E-03-1.28658E-13-1.00151E-13
 -1      3427 2.00023E+01 3.99812E-03 3.67943E-05-3.47968E-04-8.29145E-14 1.54272E-13
 -1      3428 2.00019E+01 2.97212E-03-2.48355E-05 3.85231E-04 5.89705E-14 1.77935E-13
 -1      3429 2.00025E+01 5.35043E-03-5.12653E-06-1.05233E-03-1.24806E-13 3.20902E-13
 -1      3430 2.03615E+01 9.87880E-01 2.30237E-03 3.39633E-01 1.79240E-13-8.57475E-14
 -1      3431 2.17347E+01-3.76754E-01 1.69599E-03 1.23919E+00-2.84849E-14 1.03245E-14
 -1      3432 2.17461E+01-6.31219E-01-5.55684E-03 1.10607E+00-5.07305E-14 2.85400E-14
 -1      3433 2.16556E+01-8.04275E-01-4.10905E-03 8.92167E-01-5.04420E-14 1.87879E-16
 -1      3434 2.16167E+01-9.07126E-01 1.52817E-03 7.17884E-01-1.21003E-14-2.32596E-14
 -1      3435 2.21246E+01-8.49452E-01 6.41884E-03 9.54080E-01-3.58643E-14-1.47308E-14
 -1      3436 2.14201E+01 1.16776E+00 1.72041E-02 1.22967E+00 7.59891E-14 2.59482E-14
 -1      3437 2.15034E+01 7.34785E-01-1.75200E-02 1.37568E+00 5.11293E-14 2.88920E-14
 -1      3438 2.11701E+01 1.82201E+00 1.01856E-02 6.59099E-01 1.20134E-13 2.27993E-14
 -1      3439 2.12195E+01 1.51769E+00-2.25476E-02 9.58578E-01 9.17313E-14-1.08056E-14
 -1      3440 2.18199E+01 1.54733E+00 7.80759E-03 1.22639E+00 8.54622E-14-1.39680E-14
 -1      3441 2.10713E+01 2.02021E+00 9.09687E-04-1.56381E-01 7.24763E-14 2.77070E-14
 -1      3442 2.10791E+01 1.99143E+00-1.16791E-03 2.22390E-01 1.09973E-13-5.19940E-15
 -1      3443 2.16067E+01 2.19124E+00 1.90257E-03 5.02034E-01 9.29677E-14-3.08243E-14
 -1      3444 2.11828E+01 1.67036E+00-1.17953E-02-9.42424E-01 7.22687E-14 3.36888E-14
 -1      3445 2.11299E+01 1.91679E+00 1.09232E-02-6.11075E-01 9.77653E-14 1.51342E-14
 -1      3446 2.15651E+01 2.28379E+00-4.36981E-03-4.18590E-01 5.76984E-14-4.67681E-15
 -1      3447 2.14274E+01 9.36957E-01-1.73383E-02-1.42737E+00 3.75214E-14 5.01422E-15
 -1      3448 2.13441E+01 1.33945E+00 1.37831E-02-1.24522E+00 6.28790E-14-5.23594E-15
 -1      3449 2.17588E+01 1.73172E+00-7.69110E-04-1.20089E+00 9.01458E-14-3.37873E-14
 -1      3450 2.16422E+01 1.36694E-01-1.40270E-02-1.52080E+00 3.29266E-14 4.90729E-14
 -1      3451 2.15747E+01 5.33440E-01 1.01171E-02-1.50776E+00 4.35518E-14 8.59545E-15
 -1      3452 2.20220E+01 8.31535E-01 9.07289E-03-1.57096E+00 2.59514E-14 1.95031E-14
 -1      3453 2.17023E+01-4.76184E-01-6.56308E-03-1.30726E+00 5.16076E-14 1.54000E-13
 -1      3454 2.16826E+01-1.98382E-01 2.43341E-03-1.41608E+00 7.07809E-14 1.15251E-13
 -1      3455 2.21574E+01-6.35448E-02 1.13833E-02-1.50903E+00 2.32901E-14 4.25292E-14
 -1      3456 2.15847E+01-8.05033E-01 4.34789E-04-9.48161E-01 6.06151E-14 1.64960E-13
 -1      3457 2.16191E+01-6.75038E-01-3.64592E-03-1.11071E+00 5.60344E-14 1.41855E-13
 -1      3458 2.20730E+01-6.93457E-01 6.57597E-03-1.16966E+00 4.68344E-14 1.38697E-13
 -1      3459 2.13441E+01-8.83226E-01 4.80703E-03-5.78962E-01 2.08872E-16 2.60469E-13
 -1      3460 2.14189E+01-8.72311E-01-5.92695E-03-7.42370E-01 3.43130E-14 2.32050E-13
 -1      3461 2.18048E+01-9.85815E-01 9.87589E-04-7.48103E-01 4.40750E-14 2.08591E-13
 -1      3462 2.10540E+01-7.96590E-01 6.48880E-03-2.74618E-01-2.97553E-14 2.19422E-13
 -1      3463 2.11478E+01-8.57703E-01-5.54613E-03-4.09962E-01-2.95133E-15 2.50519E-13
 -1      3464 2.14422E+01-1.00759E+00-3.06908E-03-3.70867E-01 2.01746E-14 2.54547E-13
 -1      3465 2.07738E+01-6.31753E-01 6.31052E-03-5.84219E-02-9.38607E-14 2.58506E-13
 -1      3466 2.08676E+01-7.22551E-01-3.98561E-03-1.56745E-01-2.09438E-14 2.88780E-13
 -1      3467 2.10706E+01-8.67800E-01-5.01039E-03-9.26623E-02-7.79951E-14 3.19032E-13
 -1      3468 2.05363E+01-4.50698E-01 5.19860E-03 7.66111E-02-1.50340E-13 1.58999E-13
 -1      3469 2.06185E+01-5.43088E-01-2.38508E-03 1.29600E-02-1.09859E-13 2.53546E-13
 -1      3470 2.07449E+01-6.62991E-01-5.32374E-03 8.36253E-02-5.67277E-14 3.39428E-13
 -1      3471 2.03526E+01-2.88748E-01 3.85413E-03 1.48726E-01-1.14371E-13 9.02313E-14
 -1      3472 2.04183E+01-3.67920E-01-1.15270E-03 1.12709E-01-1.52807E-13 1.07026E-13
 -1      3473 2.04874E+01-4.56205E-01-4.70103E-03 1.78190E-01-1.37936E-13 2.93140E-13
 -1      3474 2.02203E+01-1.60769E-01 2.62556E-03 1.77311E-01-1.52038E-13 1.48862E-13
 -1      3475 2.02694E+01-2.21414E-01-3.46676E-04 1.61104E-01-7.74773E-14 1.42671E-13
 -1      3476 2.02993E+01-2.80044E-01-3.69461E-03 2.15868E-01-1.24972E-13 3.30929E-13
 -1      3477 2.01305E+01-6.88303E-02 1.64361E-03 1.78500E-01 4.83238E-14-1.87999E-14
 -1      3478 2.01653E+01-1.11208E-01 1.08075E-04 1.75315E-01-9.24927E-14-2.15592E-14
 -1      3479 2.01708E+01-1.45747E-01-2.67785E-03 2.18151E-01-3.58341E-15 1.07900E-13
 -1      3480 2.00729E+01-8.51659E-03 9.28350E-04 1.64179E-01 1.14066E-13-6.65755E-14
 -1      3481 2.00965E+01-3.54968E-02 3.27610E-04 1.68781E-01 1.39251E-13 1.38321E-14
 -1      3482 2.00884E+01-5.22564E-02-1.81550E-03 2.00797E-01 2.40785E-14-1.32580E-13
 -1      3483 2.00380E+01 2.70276E-02 4.45417E-04 1.42439E-01-1.70992E-13-3.81370E-14
 -1      3484 2.00535E+01 1.17669E-02 4.06330E-04 1.51104E-01-1.18939E-13-7.52602E-14
 -1      3485 2.00390E+01 7.06594E-03-1.15656E-03 1.74320E-01 1.96183E-14-1.60067E-13
 -1      3486 2.00181E+01 4.47650E-02 1.42358E-04 1.18413E-01-4.67621E-14 9.38118E-14
 -1      3487 2.00280E+01 3.77263E-02 4.09083E-04 1.28665E-01-7.00165E-14 1.11104E-14
 -1      3488 2.00117E+01 4.04929E-02-6.90024E-04 1.45198E-01-1.64098E-13-2.58726E-14
 -1      3489 2.00077E+01 5.06663E-02-3.18916E-05 9.51234E-02-1.08814E-13 1.39517E-13
 -1      3490 2.00139E+01 4.89578E-02 3.75322E-04 1.05425E-01-5.96336E-14 1.88501E-13
 -1      3491 1.99984E+01 5.58035E-02-3.80420E-04 1.17110E-01-1.35714E-13 1.23096E-13
 -1      3492 2.00028E+01 4.93570E-02-1.19631E-04 7.41662E-02-2.90664E-14 2.71978E-13
 -1      3493 2.00067E+01 5.07952E-02 3.27119E-04 8.36491E-02-4.44645E-14 2.41008E-13
 -1      3494 1.99933E+01 5.93902E-02-1.87401E-04 9.19185E-02-1.06860E-13 3.06537E-13
 -1      3495 2.00009E+01 4.41568E-02-1.52848E-04 5.62253E-02 1.66144E-13 1.66146E-13
 -1      3496 2.00034E+01 4.72082E-02 2.76013E-04 6.44691E-02 5.46377E-14 1.96540E-13
 -1      3497 1.99926E+01 5.60629E-02-7.52575E-05 7.03721E-02-3.20764E-15 3.87857E-13
 -1      3498 2.00005E+01 3.72897E-02-1.54205E-04 4.14280E-02 4.58706E-15 8.60894E-14
 -1      3499 2.00021E+01 4.09484E-02 2.27598E-04 4.83000E-02 8.88130E-14 8.43455E-14
 -1      3500 1.99939E+01 4.91951E-02-1.56800E-05 5.25709E-02 1.25564E-13 2.84410E-13
 -1      3501 2.00008E+01 3.01400E-02-1.38888E-04 2.95873E-02-1.30182E-13 1.50850E-13
 -1      3502 2.00019E+01 3.37957E-02 1.84228E-04 3.51261E-02-4.97872E-14 8.74492E-14
 -1      3503 1.99958E+01 4.09982E-02 1.17585E-05 3.82646E-02-3.95230E-14 2.92652E-13
 -1      3504 2.00011E+01 2.34904E-02-1.16531E-04 2.03594E-02-3.26690E-13 2.17754E-13
 -1      3505 2.00019E+01 2.68107E-02 1.46660E-04 2.46959E-02-2.34842E-13 1.86784E-13
 -1      3506 1.99978E+01 3.28152E-02 2.09439E-05 2.70368E-02-1.90947E-13 3.13889E-13
 -1      3507 2.00014E+01 1.77176E-02-9.28661E-05 1.33424E-02-1.80162E-13 1.61644E-13
 -1      3508 2.00020E+01 2.05546E-02 1.14888E-04 1.66478E-02-3.12879E-13 1.05495E-13
 -1      3509 1.99993E+01 2.53787E-02 2.07633E-05 1.84152E-02-3.09760E-13 9.57633E-14
 -1      3510 2.00016E+01 1.29396E-02-7.09933E-05 8.13635E-03 7.26179E-14 2.70227E-13
 -1      3511 2.00020E+01 1.52606E-02 8.85451E-05 1.05895E-02-1.19331E-14 2.93531E-13
 -1      3512 2.00004E+01 1.90156E-02 1.65792E-05 1.19347E-02-1.26886E-13 2.53729E-13
 -1      3513 2.00015E+01 9.12158E-03-5.24224E-05 4.37534E-03 4.36920E-14 1.83124E-13
 -1      3514 2.00019E+01 1.09603E-02 6.71834E-05 6.14419E-03 1.06216E-13 1.58867E-13
 -1      3515 2.00011E+01 1.37997E-02 1.13064E-05 7.17200E-03 9.18365E-14 4.34908E-13
 -1      3516 2.00014E+01 6.14580E-03-3.64847E-05 1.74465E-03 2.08329E-13 4.08829E-13
 -1      3517 2.00017E+01 7.56991E-03 5.04742E-05 2.97462E-03 1.60933E-13 3.41689E-13
 -1      3518 2.00014E+01 9.65581E-03 5.98273E-06 3.75857E-03 1.90519E-14 2.42943E-13
 -1      3519 2.00011E+01 3.85591E-03-2.11681E-05 3.12556E-06 2.05386E-13 3.09846E-13
 -1      3520 2.00014E+01 4.92889E-03 3.39112E-05 7.92253E-04 3.09976E-13 3.33719E-13
 -1      3521 2.00014E+01 6.43390E-03 2.64885E-06 1.38326E-03 2.52914E-13 4.72105E-13
 -1      3522 2.00013E+01 2.35875E-03 1.68723E-05-7.09843E-04 1.09120E-13-2.96482E-13
 -1      3523 2.14540E+01-9.48793E-01-5.79238E-03 5.08793E-01-1.47466E-14-6.21352E-14
 -1      3524 2.13811E+01-9.34253E-01 5.75367E-03 3.43885E-01-6.72352E-15-8.56454E-14
 -1      3525 2.18538E+01-1.07936E+00 5.77324E-04 5.16801E-01-5.70616E-14-1.51742E-14
 -1      3526 2.04105E+01 4.79628E-01-2.67770E-03-2.47245E-03 1.28494E-13-9.60221E-14
 -1      3527 2.04025E+01 6.90658E-01 2.34074E-03 1.25963E-01 1.43104E-13-9.97826E-14
 -1      3528 1.22274E+01 1.72389E+00 3.31650E-02 2.13651E+00-2.63707E-13-3.74215E-14
 -1      3529 1.20675E+01 2.10184E+00 1.36712E-02 6.95332E-01-2.25439E-13 3.66027E-14
 -1      3530 1.34517E+01 2.26458E+00 3.19559E-02 1.47237E-01-1.96048E-13-2.30441E-14
 -1      3531 1.90773E+01-1.88074E+00-3.23290E-02 4.48055E+00-3.72787E-13-3.54303E-13
 -1      3532 1.67579E+01-5.94796E-01 1.03106E-01 4.62158E+00-4.22395E-13-2.48375E-13
 -1      3533 2.11983E+01-8.84727E-01-5.25586E-03 1.80855E-01 3.98159E-14-7.87022E-14
 -1      3534 2.11139E+01-7.98151E-01 7.38240E-03 5.25707E-02 8.93076E-14-6.28732E-14
 -1      3535 2.11748E+01-8.45385E-01-5.76532E-03-1.08377E-01 5.38728E-14-1.36209E-13
 -1      3536 2.00011E+01 8.29944E-04 1.41305E-05 1.62635E-03-2.79385E-14-2.65850E-13
 -1      3537 1.46955E+01 6.46511E-02-4.93230E-02 4.31013E+00-3.91145E-13-1.48395E-13
 -1      3538 1.31756E+01 1.17356E+00 7.74964E-02 3.23181E+00-4.11152E-13-6.53644E-15
 -1      3539 1.38859E+01 1.47788E+00 2.08645E-02 2.43117E+00-3.47410E-13-1.12174E-13
 -1      3540 2.34809E+01-3.52873E+00 6.35203E-02-3.28338E+00-2.10425E-13-1.45977E-14
 -1      3541 2.48806E+01-3.66527E+00-1.01147E-01-1.91074E+00-1.51072E-13 6.45074E-14
 -1      3542 2.35997E+01-3.28211E+00-4.23296E-02 2.50776E+00-1.97861E-13-2.16487E-13
 -1      3543 2.16814E+01-2.79233E+00 3.83103E-02 3.74831E+00-3.25032E-13-3.63086E-13
 -1      3544 2.59725E+01-2.10074E+00-5.09746E-02-3.09049E-01-1.57398E-13-2.41304E-13
 -1      3545 2.51228E+01-2.89842E+00 1.00769E-02 9.79176E-01-1.71991E-13-2.48375E-13
 -1      3546 1.47459E+01 1.97204E+00-4.45071E-03-6.48229E-01 6.84522E-14-2.93357E-13
 -1      3547 1.34967E+01 1.94146E+00 5.22329E-03-9.37954E-01 1.21462E-13-3.17621E-13
 -1      3548 1.55010E+01 1.75442E+00 5.57920E-02-1.34080E+00 2.62290E-14-2.84691E-13
 -1      3549 2.16448E+01 3.25440E-01 9.31852E-03 1.39674E+00 1.29697E-14 1.16565E-14
 -1      3550 2.17050E+01-5.91221E-02-1.30287E-02 1.37630E+00-1.99775E-14-3.84235E-14
 -1      3551 2.22241E+01-2.73504E-01 1.19257E-02 1.34099E+00 2.34703E-14 4.60086E-14
 -1      3552 2.21067E+01 5.58756E-01 4.57223E-03 1.48652E+00 2.15544E-14 6.98096E-15
 -1      3553 2.07379E+01-4.50179E-01-2.83461E-03-1.82714E-01 4.63107E-14-9.48303E-14
 -1      3554 2.06791E+01-3.12221E-01 6.83304E-03-2.16297E-01 4.07727E-14-9.36706E-14
 -1      3555 2.08954E+01-5.67916E-01-6.09645E-03-2.45845E-01 4.29432E-14-1.48228E-13
 -1      3556 2.00018E+01 2.41870E-03-5.85719E-07 6.04299E-04-5.70693E-13-2.60021E-13
 -1      3557 2.00018E+01 2.65288E-03-1.91561E-05 3.73646E-04-6.88075E-13-9.06560E-14
 -1      3558 2.60359E+01-2.62474E+00 8.00062E-02-2.93376E-01-7.42600E-14 1.16501E-13
 -1      3559 2.60395E+01-1.40313E+00-8.06075E-02 9.72021E-01 2.58786E-14 1.09826E-13
 -1      3560 1.43415E+01 2.24766E+00-4.80518E-04 3.74470E-02-1.83218E-13-1.23464E-13
 -1      3561 1.54090E+01 2.16406E+00-1.80073E-02-8.92983E-02-1.80128E-13-1.60771E-13
 -1      3562 1.57817E+01 2.12853E+00 7.92338E-02 6.17913E-01-1.68193E-13-3.43762E-13
 -1      3563 1.42687E+01 2.19700E+00 1.04028E-01 1.04106E+00-2.04405E-13-2.23125E-13
 -1      3564 2.59269E+01 5.94350E+00-1.04383E-01 2.02707E-01 3.26045E-13-8.60752E-14
 -1      3565 2.58888E+01 5.74800E+00-9.95619E-02-6.08109E-01 2.59681E-13-1.17343E-13
 -1      3566 2.50331E+01 5.01463E+00-5.68044E-02 5.54638E-01 2.21358E-13 4.25545E-14
 -1      3567 2.00283E+01 1.77109E+00 9.95377E-03-3.62895E-01-9.89674E-14-2.28470E-13
 -1      3568 2.03666E+01 8.97849E-01 1.23962E-03 2.00465E-01 1.60721E-13-1.18383E-13
 -1      3569 2.03185E+01 1.19889E+00-3.88353E-03 3.24252E-01 1.74849E-13-1.69789E-13
 -1      3570 2.02711E+01 1.35703E+00 6.39539E-04 2.66460E-01 1.54571E-13-2.05945E-13
 -1      3571 2.03714E+01 8.95549E-01 5.92536E-05 1.11493E-01 1.46168E-13-1.37722E-13
 -1      3572 1.99753E+01 1.56958E+00-3.79254E-03-2.05930E-01-9.14496E-14-1.94044E-13
 -1      3573 1.98862E+01 1.61972E+00 4.07586E-04-2.01195E-01-8.09623E-14-2.16121E-13
 -1      3574 2.54869E+01 2.92936E+00-7.53010E-02-2.00253E+00 2.86438E-14-2.29178E-13
 -1      3575 2.63725E+01 2.14014E+00-6.15166E-02-2.12529E+00 5.74644E-14-2.89761E-13
 -1      3576 2.57071E+01 1.00180E+00-2.09473E-02-1.89973E+00-3.05259E-14-2.38271E-13
 -1      3577 2.06875E+01-2.56629E-01-5.56451E-03-2.78927E-01 6.18707E-14-1.26468E-13
 -1      3578 2.05830E+01-1.75398E-01-2.27174E-03-2.16284E-01 5.94332E-14-8.29390E-14
 -1      3579 2.05485E+01-2.69905E-02 6.87912E-03-2.02683E-01 8.08653E-14-7.87470E-14
 -1      3580 2.00013E+01 1.26849E-03-1.13732E-05 1.39697E-03-6.51511E-14-1.61193E-13
 -1      3581 2.00014E+01 1.33389E-03-3.63425E-06 1.29245E-03-1.25268E-13 9.29721E-14
 -1      3582 2.00016E+01 1.62268E-03 1.07249E-06 1.02644E-03-2.28578E-13-3.44216E-13
 -1      3583 2.00016E+01 2.01992E-03 2.51389E-05 9.87793E-04-1.08155E-13 4.47969E-15
 -1      3584 1.99895E+01 1.80980E+00-1.04073E-03-1.04868E-01 7.71244E-14-2.59697E-13
 -1      3585 1.99329E+01 1.86295E+00-4.91357E-03-1.78600E-01 6.06871E-14-2.61257E-13
 -1      3586 1.34724E+01 6.44464E-01 1.03227E-01-3.81319E+00-4.73614E-14-4.41168E-13
 -1      3587 1.52357E+01 1.02807E-01 3.04060E-02-3.98459E+00-5.16922E-14-3.32796E-13
 -1      3588 1.31147E+01 1.20222E+00 4.21436E-02-2.74870E+00 1.76942E-14-4.33931E-13
 -1      3589 2.00010E+01 2.62468E-03-4.36053E-06-8.58883E-04 1.62565E-13 2.92317E-13
 -1      3590 2.00011E+01 3.24648E-03 2.18582E-05-4.66209E-04 2.16805E-13 2.53709E-13
 -1      3591 2.00013E+01 4.31671E-03 2.65125E-06-1.88770E-05 3.27563E-13 3.46884E-13
 -1      3592 2.00014E+01 3.46522E-03-1.23757E-05-4.92258E-04 3.02478E-13-3.18801E-13
 -1      3593 2.00014E+01 3.33081E-03-5.37410E-06-6.04957E-04 3.79723E-13-3.00992E-13
 -1      3594 2.00015E+01 4.29464E-03 3.75902E-05-4.50281E-04 3.80540E-13-3.22644E-13
 -1      3595 2.00013E+01 3.00325E-03-1.81311E-05-6.84041E-04 2.96786E-13-1.54282E-13
 -1      3596 2.00012E+01 2.79609E-03-6.44303E-06-8.11788E-04 3.66563E-13 5.90523E-15
 -1      3597 2.48914E+01-2.81808E+00 2.98387E-03-8.88049E-01-1.37335E-13 1.04370E-13
 -1      3598 2.04617E+01 3.10611E-01 6.39801E-03-9.37967E-02 1.20891E-13-8.85644E-14
 -1      3599 2.04434E+01 4.85624E-01-3.05390E-03-6.57266E-02 1.18728E-13-1.28892E-13
 -1      3600 1.32979E+01 1.74053E+00 1.06453E-01-1.90415E+00 5.61703E-14-4.05932E-13
 -1      3601 2.45217E+01 4.82433E+00-3.66868E-02-6.02914E-01 1.81834E-13-3.91111E-14
 -1      3602 2.55230E+01 5.05555E+00-9.68934E-02-1.06890E+00 1.58741E-13-1.08383E-13
 -1      3603 2.51065E+01 4.31061E+00-2.37702E-02-1.47823E+00 9.11771E-14-1.58359E-13
 -1      3604 2.57714E+01-5.66711E-01-1.32711E-02 1.50409E+00 4.66051E-14 1.36537E-13
 -1      3605 2.50418E+01 3.41542E-01-1.61063E-02 1.76518E+00 1.21118E-14 1.26215E-13
 -1      3606 2.50288E+01-1.32600E+00-1.98332E-02 9.50204E-01-6.88312E-14 1.76643E-13
 -1      3607 1.98442E+01 1.66782E+00-8.51731E-03-2.66889E-01-5.54568E-14-2.58206E-13
 -1      3608 1.97711E+01 1.42093E+00 2.99181E-03-1.17032E-01-4.73135E-14-1.99628E-13
 -1      3609 1.98172E+01 1.75927E+00-1.14170E-03-2.67823E-01-3.07877E-14-2.69597E-13
 -1      3610 2.05480E+01-2.17675E+00 2.72435E-02 3.88354E+00-3.07062E-13-3.18206E-13
 -1      3611 1.92364E+01-1.27079E+00-2.30094E-02 3.57093E+00-2.96712E-13-3.16421E-13
 -1      3612 2.14741E+01-2.14963E+00 1.62331E-02 2.85858E+00-1.67984E-13-1.34588E-13
 -1      3613 2.00018E+01 3.05583E-03 1.15436E-06 1.67349E-04-6.58628E-13-1.55563E-13
 -1      3614 2.00017E+01 3.23733E-03-1.72295E-05-1.59437E-05-4.84847E-13-4.96697E-14
 -1      3615 2.00021E+01 3.93987E-03 3.87592E-05-9.23810E-06-7.39252E-13-1.06924E-13
 -1      3616 2.42937E+01-3.01895E+00 1.72770E-02 1.49843E+00-1.58388E-13-1.47360E-13
 -1      3617 2.30221E+01-2.70429E+00-3.05175E-02 1.91373E+00-6.45139E-14-7.41750E-14
 -1      3618 2.43355E+01-2.40620E+00 1.56043E-03 4.85270E-01-6.54476E-14-1.85190E-14
 -1      3619 2.01472E+01 1.74308E+00 3.89928E-03 2.57027E-01 1.35540E-13-2.44915E-13
 -1      3620 1.65697E+01-6.52340E-02 3.95952E-02 3.85777E+00-3.90157E-13-1.94083E-13
 -1      3621 2.53049E+01 3.09599E+00-8.28319E-02 1.86974E+00 1.83915E-13 2.18003E-14
 -1      3622 2.48208E+01 3.67010E+00-4.54981E-02 1.60576E+00 1.83742E-13 9.07885E-14
 -1      3623 2.50698E+01 1.94471E+00-1.07574E-02 1.93431E+00 1.72116E-13 4.68167E-14
 -1      3624 2.59336E+01-1.36094E+00 2.66146E-03-9.34084E-01-5.91280E-14-2.34486E-13
 -1      3625 2.50449E+01-1.77345E+00-1.75005E-02-5.58500E-01-4.26122E-14-8.15209E-14
 -1      3626 2.54842E+01-5.44236E-01-4.56185E-02-1.44410E+00-7.40900E-15-1.90417E-13
 -1      3627 2.15102E+01-1.04310E+00-3.60234E-03 1.47033E-01 1.17095E-14-1.11072E-13
 -1      3628 1.98425E+01 2.18747E+00 5.91837E-03-2.22480E-01 2.02331E-14-2.89726E-13
 -1      3629 2.04774E+01 1.41139E-01-2.49891E-03-1.56146E-01 1.04784E-13-8.77655E-14
 -1      3630 2.24246E+01-3.39764E+00-1.59052E-02-3.81592E+00-1.93133E-13-3.10212E-14
 -1      3631 2.31132E+01-3.01495E+00 2.70223E-02-2.67540E+00-2.06743E-13 1.46055E-14
 -1      3632 2.12323E+01-2.75633E+00 3.57508E-02-4.05982E+00-2.01498E-13-8.54195E-14
 -1      3633 2.00494E+01 1.72541E+00-2.92653E-03-4.09786E-02 8.58898E-14-2.63888E-13
 -1      3634 2.00845E+01 1.52050E+00 2.04714E-03-1.40957E-01 7.74709E-14-2.33048E-13
 -1      3635 2.01135E+01 1.63590E+00-1.43807E-03 4.13074E-02 1.03200E-13-2.56786E-13
 -1      3636 2.00019E+01 2.65562E-03-7.02676E-06 6.08954E-04-4.62681E-13 5.41537E-14
 -1      3637 2.00019E+01 2.93688E-03 2.86099E-07 4.51132E-04-1.08405E-13 3.07575E-13
 -1      3638 2.00015E+01 3.62053E-03-1.09937E-05-3.27040E-04-1.61823E-13-2.05320E-13
 -1      3639 2.00015E+01 3.60218E-03-1.06065E-05-4.44260E-04-3.13641E-14-3.00636E-13
 -1      3640 2.00016E+01 4.76886E-03 3.14621E-05-3.81990E-04 1.54524E-13-4.52764E-13
 -1      3641 2.00017E+01 3.47601E-03-6.31525E-06-1.25723E-04-2.88411E-13 1.94513E-13
 -1      3642 2.00016E+01 3.57141E-03-1.35225E-05-2.67609E-04-1.79019E-13 9.45678E-14
 -1      3643 2.00017E+01 4.86066E-03 3.10292E-05-3.32919E-04-2.51351E-13-1.10193E-13
 -1      3644 2.00019E+01 4.57862E-03 3.56150E-05-2.35842E-04-5.43914E-13 6.00627E-14
 -1      3645 2.00015E+01 6.12429E-03-2.23166E-05-2.21788E-04-4.15559E-14-7.23612E-13
 -1      3646 2.00014E+01 5.95647E-03-2.70609E-05-2.15728E-04 2.78829E-13-6.33723E-13
 -1      3647 2.00022E+01 3.83578E-03 2.55435E-05-2.84661E-05-3.64870E-13 2.68065E-13
 -1      3648 2.10204E+01-6.66074E-01-2.00692E-03-3.53827E-01 6.60388E-14-1.47881E-13
 -1      3649 2.09070E+01-4.90325E-01 7.90385E-03-3.83711E-01 4.96801E-14-1.30977E-13
 -1      3650 1.94184E+01 1.23363E+00-2.24882E-03-7.34256E-02-1.08302E-13-1.37430E-13
 -1      3651 1.91882E+01 1.21975E+00-1.13076E-02-8.08914E-02-1.19596E-13-1.68575E-13
 -1      3652 1.89944E+01 1.22748E+00 1.06827E-03-1.64132E-01-1.09690E-13-1.84497E-13
 -1      3653 1.86698E+01 1.24331E+00-1.68856E-02-2.41301E-01-1.28696E-13-1.83263E-13
 -1      3654 1.91830E+01 1.18219E+00 9.21185E-03-3.33448E-01-1.28763E-13-1.59034E-13
 -1      3655 1.83992E+01 1.28218E+00 3.29764E-03-4.16375E-01-1.04102E-13-1.72302E-13
 -1      3656 1.79182E+01 1.30455E+00-2.38866E-02-5.99474E-01-6.31934E-14-1.65269E-13
 -1      3657 1.87003E+01 1.14711E+00 1.11069E-02-6.22986E-01-8.44261E-14-1.45131E-13
 -1      3658 1.75740E+01 1.33556E+00 6.44908E-03-8.99588E-01-5.86081E-14-1.78135E-13
 -1      3659 1.69047E+01 1.31719E+00-3.01659E-02-1.22643E+00-3.90668E-14-2.06700E-13
 -1      3660 1.80586E+01 1.09712E+00 1.44759E-02-1.14705E+00-7.87238E-14-1.64223E-13
 -1      3661 2.42005E+01 4.37030E+00-3.70105E-02 8.59665E-01 1.84859E-13 9.07737E-14
 -1      3662 2.40699E+01 4.56798E+00-6.70316E-02 1.48500E-01 1.98945E-13 2.66523E-14
 -1      3663 1.98402E+01 1.78464E+00-2.74844E-04-2.90032E-01 7.58169E-15-2.66434E-13
 -1      3664 1.98219E+01 1.75222E+00-9.01412E-03-3.12177E-01-1.60534E-14-2.68917E-13
 -1      3665 1.97919E+01 1.45783E+00 3.98422E-03-2.66200E-01-1.96338E-14-2.32279E-13
 -1      3666 2.20945E+01 2.67422E+00-1.44471E-02-7.05501E-01 9.84590E-14-3.90549E-14
 -1      3667 2.20519E+01 2.87081E+00 8.96795E-03-2.37459E-01 6.96622E-14 2.18777E-14
 -1      3668 1.46355E+01 1.47016E+00-3.77701E-02 2.10262E+00-3.24253E-13-1.92638E-13
 -1      3669 1.67609E+01 1.56649E+00-2.25014E-02 7.97356E-01-1.59366E-13-2.15947E-13
 -1      3670 1.74262E+01 1.45364E+00-1.07733E-03 5.70066E-01-1.06870E-13-1.73940E-13
 -1      3671 1.78134E+01 1.33381E+00-1.95419E-02 3.37135E-01-1.59965E-13-2.04615E-13
 -1      3672 1.82427E+01 1.21993E+00-1.06916E-03 2.09026E-01-1.92411E-13-2.99443E-13
 -1      3673 1.77622E+01 1.23695E+00 1.34983E-02 8.56744E-01-9.92888E-14-1.41962E-13
 -1      3674 1.85193E+01 1.09085E+00-1.41792E-02 6.63874E-02-1.18572E-13-2.76854E-13
 -1      3675 1.88129E+01 9.75456E-01-1.85296E-03 3.40548E-03-6.14354E-14-2.94937E-13
 -1      3676 1.84408E+01 1.07235E+00 1.35999E-02 4.13978E-01-1.74882E-13-3.29290E-13
 -1      3677 1.90133E+01 8.59685E-01-8.99639E-03-7.56684E-02-1.20722E-13-4.21604E-13
 -1      3678 1.92076E+01 7.57197E-01-2.15231E-03-9.89993E-02-2.18754E-13-3.56276E-13
 -1      3679 1.89198E+01 8.81354E-01 9.85729E-03 1.55296E-01-1.82310E-13-3.30315E-13
 -1      3680 1.93441E+01 6.64883E-01-5.70415E-03-1.36889E-01-2.29046E-13-3.32305E-13
 -1      3681 1.94668E+01 5.84538E-01-1.99153E-03-1.38475E-01-1.98544E-13-2.76343E-13
 -1      3682 1.92553E+01 7.04939E-01 7.43854E-03 1.38664E-02-2.12410E-13-4.09207E-13
 -1      3683 1.95690E+01 5.07305E-01-3.43308E-03-1.54970E-01-1.89512E-13-2.85786E-13
 -1      3684 1.96530E+01 4.39813E-01-1.64273E-03-1.45674E-01-1.50418E-13-3.15810E-13
 -1      3685 1.94920E+01 5.50125E-01 5.00923E-03-5.69929E-02-1.66863E-13-3.74882E-13
 -1      3686 1.97235E+01 3.79885E-01-2.06227E-03-1.48406E-01-3.83410E-14-2.74974E-13
 -1      3687 1.97770E+01 3.28143E-01-1.33359E-03-1.34511E-01-8.38406E-14-1.71713E-13
 -1      3688 1.96612E+01 4.21002E-01 3.50275E-03-8.72722E-02-2.31069E-14-2.75161E-13
 -1      3689 1.98253E+01 2.82735E-01-1.14272E-03-1.30228E-01-1.72554E-13-6.64688E-14
 -1      3690 1.98588E+01 2.43481E-01-1.06086E-03-1.15437E-01-9.02600E-15-1.35249E-13
 -1      3691 1.97768E+01 3.18710E-01 2.39324E-03-9.30011E-02-5.07797E-14-2.38898E-13
 -1      3692 1.98917E+01 2.09465E-01-5.84979E-04-1.08135E-01 8.08796E-14-2.79460E-13
 -1      3693 1.99123E+01 1.79942E-01-8.26561E-04-9.43441E-02 1.11041E-13-3.69720E-13
 -1      3694 1.98551E+01 2.39479E-01 1.61166E-03-8.61153E-02-6.97057E-15-2.69323E-13
 -1      3695 1.99345E+01 1.54640E-01-2.46340E-04-8.62804E-02 1.07410E-13-3.62098E-13
 -1      3696 1.99470E+01 1.32541E-01-6.24102E-04-7.43214E-02-5.22055E-14-3.85897E-13
 -1      3697 1.99076E+01 1.78859E-01 1.06380E-03-7.37362E-02 3.68803E-14-4.79972E-13
 -1      3698 1.99612E+01 1.14590E-01-7.04547E-05-6.70801E-02-4.97735E-14-2.74160E-13
 -1      3699 1.99684E+01 9.87309E-02-4.72092E-04-5.75565E-02-3.53012E-15-1.91439E-13
 -1      3700 1.99418E+01 1.33862E-01 7.07246E-04-6.02482E-02 8.16084E-14-3.94264E-13
 -1      3701 1.99783E+01 8.45353E-02 1.95524E-05-5.07908E-02-6.10044E-14-6.27856E-14
 -1      3702 1.99827E+01 7.20284E-02-3.57105E-04-4.27350E-02 6.16443E-14-7.79288E-14
 -1      3703 1.99645E+01 9.96649E-02 4.67783E-04-4.73346E-02 5.62162E-14-2.39367E-13
 -1      3704 1.99893E+01 6.14889E-02 5.65556E-05-3.71196E-02 1.20318E-13-9.72005E-14
 -1      3705 1.99917E+01 5.21952E-02-2.61931E-04-3.08112E-02 9.09333E-14-1.19862E-13
 -1      3706 1.99798E+01 7.31506E-02 3.07761E-04-3.56910E-02 6.75844E-14-2.71197E-13
 -1      3707 1.99959E+01 4.43773E-02 7.17718E-05-2.63148E-02 5.22140E-14-1.57499E-13
 -1      3708 1.99970E+01 3.74728E-02-1.90805E-04-2.14849E-02 1.21525E-13-1.68091E-13
 -1      3709 1.99895E+01 5.32278E-02 1.97940E-04-2.60106E-02-2.23574E-14-3.51721E-13
 -1      3710 1.99997E+01 3.16882E-02 7.15259E-05-1.79951E-02 1.65201E-13-1.97549E-13
 -1      3711 2.00001E+01 2.65760E-02-1.37619E-04-1.43732E-02 2.59637E-13-2.76865E-13
 -1      3712 1.99956E+01 3.83211E-02 1.25191E-04-1.82729E-02 1.35028E-13-5.58920E-13
 -1      3713 2.00017E+01 2.23136E-02 6.49380E-05-1.17385E-02 1.97594E-13-1.51509E-13
 -1      3714 2.00018E+01 1.85521E-02-9.46822E-05-9.08267E-03-3.33402E-14-9.95204E-14
 -1      3715 1.99992E+01 2.72144E-02 7.61996E-05-1.22831E-02 2.33549E-13-2.76420E-13
 -1      3716 2.00026E+01 1.55683E-02 5.48058E-05-7.23869E-03-1.68468E-13 4.47634E-14
 -1      3717 2.00025E+01 1.29086E-02-6.71192E-05-5.40097E-03-6.95848E-14-5.66679E-15
 -1      3718 2.00012E+01 1.91443E-02 4.12393E-05-7.86599E-03 5.23745E-14-8.61186E-15
 -1      3719 2.00029E+01 1.05868E-02 4.71159E-05-3.99064E-03-4.40441E-14 1.76239E-13
 -1      3720 2.00026E+01 8.52181E-03-4.90251E-05-2.62411E-03-9.30006E-14 2.41512E-13
 -1      3721 2.00021E+01 1.31784E-02 2.28146E-05-4.62583E-03-3.70031E-15 2.35122E-13
 -1      3722 2.00027E+01 6.83335E-03 4.05652E-05-1.66505E-03-1.74757E-13 3.17238E-13
 -1      3723 2.00023E+01 5.30442E-03-3.50554E-05-7.23460E-04-8.21096E-14 3.71071E-13
 -1      3724 2.00024E+01 8.62168E-03-5.70196E-06-2.24824E-03-5.12945E-14 5.08102E-13
 -1      3725 2.25743E+01-1.00854E+00-6.62948E-03 9.31794E-01-5.22933E-14-1.41495E-14
 -1      3726 2.24845E+01-1.19654E+00 2.49184E-03 7.05837E-01-7.20548E-14-2.45569E-14
 -1      3727 2.23932E+01 3.12861E+00-6.19602E-03 2.62530E-01 1.16017E-13 4.47008E-14
 -1      3728 2.24206E+01 2.92715E+00-2.21138E-02 7.09430E-01 1.59079E-13 4.57724E-14
 -1      3729 2.23377E+01 1.74908E+00-2.93578E-02-1.47238E+00 6.39918E-15 2.15735E-14
 -1      3730 2.22523E+01 2.29197E+00 1.19576E-02-1.17733E+00 7.79012E-14-1.18705E-14
 -1      3731 2.27506E+01 2.78525E+00-1.49507E-02-1.04012E+00 4.09265E-14 4.54983E-14
 -1      3732 2.26144E+01 5.26381E-01-2.34433E-02-1.69214E+00 1.38177E-14 4.90966E-14
 -1      3733 2.25422E+01 1.15028E+00 1.44006E-02-1.64248E+00 8.92949E-15 3.00778E-14
 -1      3734 2.30582E+01 1.61714E+00 9.11001E-03-1.69785E+00-3.13308E-14 1.09184E-13
 -1      3735 2.26684E+01-4.81142E-01-9.02083E-03-1.42377E+00 1.20071E-14 5.10699E-14
 -1      3736 2.26652E+01-1.57288E-02 4.78360E-03-1.55507E+00 6.32415E-15 2.81568E-14
 -1      3737 2.32398E+01 2.05508E-01 1.11269E-02-1.66347E+00 5.69189E-14 1.33017E-13
 -1      3738 2.24382E+01-1.04340E+00 5.00086E-03-9.39506E-01 3.48887E-14 1.02276E-13
 -1      3739 2.25137E+01-8.19134E-01-6.26692E-03-1.14113E+00 7.19095E-14 2.47016E-14
 -1      3740 2.30613E+01-8.30648E-01-6.17131E-03-1.20437E+00 4.59880E-14-4.64758E-14
 -1      3741 2.20135E+01-1.20796E+00 1.04685E-02-4.54490E-01-4.33461E-14 1.33655E-13
 -1      3742 2.21562E+01-1.17690E+00-9.15764E-03-6.50090E-01-5.44209E-14 1.10274E-13
 -1      3743 2.26214E+01-1.33170E+00-9.90081E-03-6.16125E-01-4.71256E-14 6.24582E-15
 -1      3744 2.15259E+01-1.10752E+00 1.09202E-02-8.63426E-02-2.28341E-14 2.50113E-13
 -1      3745 2.16989E+01-1.18983E+00-7.08842E-03-2.38053E-01 1.02201E-14 2.34396E-13
 -1      3746 2.20351E+01-1.39170E+00-1.37916E-02-1.32524E-01-1.14198E-13 1.29383E-13
 -1      3747 2.10742E+01-8.81707E-01 9.31925E-03 1.42235E-01-1.08163E-13 3.44392E-13
 -1      3748 2.12416E+01-1.00851E+00-3.74410E-03 4.30017E-02-4.19038E-14 3.17504E-13
 -1      3749 2.14573E+01-1.19106E+00-1.21082E-02 1.84137E-01-7.03095E-14 3.07622E-13
 -1      3750 2.07057E+01-6.29283E-01 6.79296E-03 2.58352E-01-1.03600E-13 3.70466E-13
 -1      3751 2.08478E+01-7.58247E-01-1.23238E-03 2.03271E-01-1.02198E-13 3.85880E-13
 -1      3752 2.09692E+01-9.00214E-01-1.00144E-02 3.43804E-01-9.65184E-14 3.30988E-13
 -1      3753 2.04311E+01-4.03093E-01 4.48128E-03 2.97346E-01-1.32274E-13 3.24883E-13
 -1      3754 2.05410E+01-5.12760E-01 3.28853E-04 2.73904E-01-1.33670E-13 3.96380E-13
 -1      3755 2.05971E+01-6.10168E-01-7.26010E-03 3.95883E-01-1.64081E-13 3.99753E-13
 -1      3756 2.02411E+01-2.24728E-01 2.71105E-03 2.90580E-01-1.58017E-13 3.41360E-13
 -1      3757 2.03201E+01-3.08078E-01 1.09696E-03 2.87201E-01-1.34530E-13 3.83133E-13
 -1      3758 2.03350E+01-3.67714E-01-4.84049E-03 3.83462E-01-1.32123E-13 4.19744E-13
 -1      3759 2.01182E+01-9.67307E-02 1.46092E-03 2.60562E-01 1.13831E-13 1.29547E-13
 -1      3760 2.01715E+01-1.54686E-01 1.30737E-03 2.68517E-01-2.98781E-14 3.12474E-13
 -1      3761 2.01632E+01-1.86141E-01-2.99542E-03 3.39442E-01-6.92460E-14 3.03185E-13
 -1      3762 2.00444E+01-1.26369E-02 6.49042E-04 2.21403E-01 4.13201E-14 1.10405E-13
 -1      3763 2.00781E+01-4.94323E-02 1.23029E-03 2.34797E-01 1.20012E-13 1.42095E-13
 -1      3764 2.00585E+01-6.14880E-02-1.69117E-03 2.84342E-01 1.01560E-13 3.03216E-13
 -1      3765 2.00040E+01 3.71916E-02 1.61034E-04 1.81259E-01-5.87342E-14 1.05976E-13
 -1      3766 2.00239E+01 1.63737E-02 1.03046E-03 1.96431E-01 5.13056E-14 4.63420E-14
 -1      3767 2.00003E+01 1.65925E-02-8.40479E-04 2.29514E-01 6.49011E-14 2.76989E-13
 -1      3768 1.99848E+01 6.23972E-02-1.06427E-04 1.44285E-01-1.91079E-13 2.56085E-14
 -1      3769 1.99957E+01 5.27510E-02 8.08190E-04 1.59141E-01-2.12363E-13 3.69483E-14
 -1      3770 1.99724E+01 6.00158E-02-3.17788E-04 1.80390E-01-9.05331E-14 2.10420E-13
 -1      3771 1.99782E+01 7.11767E-02-2.32979E-04 1.12235E-01-2.55211E-13 3.30214E-13
 -1      3772 1.99835E+01 6.87796E-02 6.08814E-04 1.25697E-01-2.50426E-13 2.20258E-13
 -1      3773 1.99627E+01 7.94873E-02-2.09651E-05 1.38887E-01-3.42352E-13 2.99530E-13
 -1      3774 1.99785E+01 6.98616E-02-2.74435E-04 8.55254E-02-5.15079E-14 3.19125E-13
 -1      3775 1.99805E+01 7.17684E-02 4.47614E-04 9.71402E-02-1.75382E-13 2.85365E-13
 -1      3776 1.99631E+01 8.35795E-02 1.29259E-04 1.05091E-01-1.85542E-13 2.05450E-13
 -1      3777 1.99820E+01 6.30062E-02-2.68424E-04 6.38847E-02 3.62793E-14 4.03587E-13
 -1      3778 1.99823E+01 6.71480E-02 3.24621E-04 7.35614E-02-2.63553E-14 3.52143E-13
 -1      3779 1.99684E+01 7.86410E-02 1.88689E-04 7.82525E-02-7.26319E-14 3.51607E-13
 -1      3780 1.99865E+01 5.36795E-02-2.38724E-04 4.67319E-02 8.58656E-14 4.57845E-13
 -1      3781 1.99860E+01 5.86945E-02 2.34352E-04 5.45767E-02 1.69158E-13 5.22732E-13
 -1      3782 1.99753E+01 6.90923E-02 1.96746E-04 5.73241E-02-2.48765E-14 5.48508E-13
 -1      3783 1.99908E+01 4.38142E-02-1.99824E-04 3.33885E-02-1.77735E-14 3.88528E-13
 -1      3784 1.99901E+01 4.88677E-02 1.69349E-04 3.96029E-02-3.45594E-15 3.44018E-13
 -1      3785 1.99822E+01 5.78182E-02 1.78285E-04 4.12407E-02 9.80291E-14 4.41097E-13
 -1      3786 1.99945E+01 3.45253E-02-1.59999E-04 2.31851E-02-1.82170E-13 1.87674E-13
 -1      3787 1.99938E+01 3.91544E-02 1.22911E-04 2.80063E-02 4.51982E-16 3.13795E-13
 -1      3788 1.99882E+01 4.65746E-02 1.48705E-04 2.90383E-02 1.82376E-14 3.12778E-13
 -1      3789 1.99973E+01 2.63712E-02-1.23607E-04 1.55137E-02-2.81985E-13 7.50265E-14
 -1      3790 1.99968E+01 3.03612E-02 8.97033E-05 1.91796E-02-2.55656E-13 1.59680E-13
 -1      3791 1.99930E+01 3.63263E-02 1.16889E-04 1.98951E-02-1.20284E-13 1.85886E-13
 -1      3792 1.99992E+01 1.95511E-02-9.24780E-05 9.84769E-03-6.35051E-14-1.28846E-13
 -1      3793 1.99989E+01 2.28442E-02 6.58049E-05 1.25782E-02-2.45607E-13-1.48900E-13
 -1      3794 1.99964E+01 2.75131E-02 8.75593E-05 1.31332E-02-1.29218E-13-2.59140E-13
 -1      3795 2.00004E+01 1.40471E-02-6.77514E-05 5.74550E-03 1.34898E-13-7.51135E-14
 -1      3796 2.00003E+01 1.66783E-02 4.83940E-05 7.73370E-03 7.45427E-14-4.02654E-14
 -1      3797 1.99988E+01 2.02435E-02 6.23780E-05 8.20668E-03-4.53178E-14-3.82522E-13
 -1      3798 2.00011E+01 9.72367E-03-4.95047E-05 2.84224E-03-8.46526E-14 5.08945E-14
 -1      3799 2.00011E+01 1.17827E-02 3.81237E-05 4.25743E-03-6.62147E-14-9.11895E-15
 -1      3800 2.00003E+01 1.44216E-02 3.70696E-05 4.68270E-03-1.09851E-13-2.64361E-13
 -1      3801 2.00013E+01 6.38750E-03-3.58344E-05 8.34992E-04 2.96053E-13 2.65891E-13
 -1      3802 2.00014E+01 7.98280E-03 3.56432E-05 1.83327E-03 2.60057E-13 2.27393E-13
 -1      3803 2.00011E+01 9.86635E-03 1.35079E-05 2.22792E-03-4.84050E-14-8.77162E-14
 -1      3804 2.00008E+01 1.53917E-03 9.86844E-07-1.33134E-03 8.27933E-14 1.28202E-13
 -1      3805 2.22136E+01-1.28463E+00-8.63947E-03 4.30150E-01-6.59147E-14-4.37375E-14
 -1      3806 2.20706E+01-1.28468E+00 9.00799E-03 2.27226E-01-5.79792E-14-6.68823E-14
 -1      3807 2.26795E+01-1.43451E+00-3.33864E-04 3.97024E-01-7.56188E-14-3.63935E-14
 -1      3808 1.44472E+01 1.20830E+00-4.12563E-04-2.56581E+00 2.93717E-14-3.57200E-13
 -1      3809 1.74566E+01-9.15038E-01 3.19130E-02-4.34431E+00-1.05190E-13-2.39463E-13
 -1      3810 1.92469E+01-2.03044E+00-2.72482E-02-4.49993E+00-1.74877E-13-1.93057E-13
 -1      3811 2.13628E+01-9.88591E-01-4.11284E-03-2.28353E-01 1.63435E-14-9.76414E-14
 -1      3812 2.12194E+01-8.28543E-01 9.66921E-03-3.13164E-01 4.19755E-14-1.19563E-13
 -1      3813 2.11563E+01-8.04915E-01-9.45368E-03-4.76595E-01 3.62164E-14-1.12419E-13
 -1      3814 1.73792E+01-1.70573E-01-3.15674E-02 3.39656E+00-3.34392E-13-1.98678E-13
 -1      3815 1.60751E+01 8.14782E-01 9.15545E-02 3.11945E+00-3.92253E-13-9.48902E-14
 -1      3816 1.64804E+01 1.26796E+00 1.09539E-02-1.68525E+00-2.89825E-14-2.17942E-13
 -1      3817 1.55992E+01 1.15492E+00-1.92772E-02-2.20494E+00-9.15414E-15-2.80163E-13
 -1      3818 1.72556E+01 9.34738E-01 2.24441E-02-1.97203E+00-4.97133E-14-1.70338E-13
 -1      3819 2.17787E+01-1.23033E+00-6.67525E-03 3.01576E-02-3.05161E-14-1.08976E-13
 -1      3820 2.16208E+01-1.12027E+00 1.07097E-02-1.16939E-01 1.71683E-14-9.06127E-14
 -1      3821 2.21182E+01-1.41925E+00-6.20650E-03-6.65932E-02-6.98943E-14-6.70797E-14
 -1      3822 1.99084E+01 1.81904E+00-2.10082E-04-2.32202E-01 5.16060E-14-2.40425E-13
 -1      3823 1.98677E+01 1.83217E+00-6.45694E-03-2.81485E-01 1.68493E-14-2.60168E-13
 -1      3824 1.98853E+01 1.47609E+00 2.07437E-03-3.16068E-01 2.04608E-14-2.33622E-13
 -1      3825 1.99811E+01 1.55516E+00 1.20922E-03-2.54669E-01 6.19604E-14-2.33560E-13
 -1      3826 2.40961E+01-2.84086E+00 3.28093E-02-1.36690E+00-1.55041E-13 8.77631E-14
 -1      3827 2.46374E+01-2.35200E+00-3.81975E-02-6.64903E-02-1.41285E-13 1.30379E-13
 -1      3828 2.02238E+01 1.44165E+00-2.79144E-03 1.94576E-01 1.44499E-13-2.29338E-13
 -1      3829 2.01634E+01 1.56229E+00-2.09248E-03 1.16478E-01 1.23713E-13-2.42755E-13
 -1      3830 2.02051E+01 1.36411E+00 2.85108E-03-1.60378E-02 1.06880E-13-2.12879E-13
 -1      3831 2.02951E+01 1.20420E+00 3.45182E-03 1.18486E-01 1.48502E-13-1.96125E-13
 -1      3832 2.04525E+01 4.82759E-01-1.34039E-03-1.51575E-01 1.08991E-13-1.69171E-13
 -1      3833 2.04141E+01 6.94137E-01 4.02897E-03-5.02128E-02 1.31513E-13-1.56952E-13
 -1      3834 2.05420E+01 9.47692E-02-4.81748E-03-2.19070E-01 8.71188E-14-1.23952E-13
 -1      3835 1.96792E+01 1.32719E+00-5.38220E-03-1.04080E-01-5.42234E-14-1.63215E-13
 -1      3836 1.95319E+01 1.26546E+00-7.40920E-03-5.98789E-02-7.27404E-14-1.64323E-13
 -1      3837 1.94981E+01 1.26454E+00 1.09117E-02-2.18414E-01-7.99152E-14-1.60203E-13
 -1      3838 1.96901E+01 1.39304E+00 8.84165E-03-2.01697E-01-3.06446E-14-2.17861E-13
 -1      3839 2.00022E+01 5.02185E-03-2.51179E-05-5.05500E-04-3.26568E-13 1.09698E-13
 -1      3840 2.00010E+01 2.35079E-03-3.14646E-07-9.94782E-04 2.90478E-13 1.07210E-13
 -1      3841 2.07658E+01-3.18320E-01-9.59085E-04-3.72475E-01 5.24892E-14-1.55028E-13
 -1      3842 2.06869E+01-1.37599E-01 6.97616E-03-3.56675E-01 6.25306E-14-1.38830E-13
 -1      3843 2.08416E+01-4.15421E-01-7.75201E-03-4.81426E-01 3.16388E-14-1.54889E-13
 -1      3844 2.27399E+01-2.85083E-01 5.78344E-03 1.39583E+00 3.05463E-14 1.33136E-14
 -1      3845 2.27320E+01-7.15204E-01-1.11761E-02 1.22498E+00-2.21009E-15 4.33190E-14
 -1      3846 2.31374E+01-1.02860E+00 9.08000E-03 9.87961E-01-4.56915E-14 9.49392E-15
 -1      3847 1.57915E+01 1.31807E+00-1.70974E-02 1.92195E+00-3.04753E-13-2.12365E-13
 -1      3848 2.37433E+01 4.18287E+00-3.48413E-02-2.67639E-01 1.54311E-13 7.99508E-14
 -1      3849 2.15873E+01-1.16539E+00-9.55563E-03-3.52273E-01-2.33781E-15-9.13614E-14
 -1      3850 2.39852E+01 3.36505E+00-2.32957E-02 1.24427E+00 1.71984E-13 1.11348E-13
 -1      3851 2.03637E+01 8.88367E-01-2.07733E-03 1.55010E-02 1.35232E-13-1.72414E-13
 -1      3852 2.05738E+01-2.08759E+00 2.85498E-02-3.71336E+00-1.75759E-13-8.24948E-14
 -1      3853 1.59205E+01 3.10692E-01 7.77386E-03-3.42791E+00-5.53984E-14-2.65052E-13
 -1      3854 1.66899E+01-3.38761E-01 3.03033E-02-4.05914E+00-9.05231E-14-2.49911E-13
 -1      3855 1.80334E+01-6.23967E-01 2.93417E-02-3.68960E+00-1.35712E-13-1.58797E-13
 -1      3856 1.58349E+01 7.87006E-01 5.10387E-02-2.90439E+00-2.55507E-14-2.69108E-13
 -1      3857 2.30271E+01 2.36317E+00-4.55400E-03 1.40805E+00 1.65045E-13 1.08533E-13
 -1      3858 2.39388E+01-2.13490E+00-2.03404E-02-5.95781E-02-1.12534E-13 9.43152E-14
 -1      3859 2.47059E+01-1.86516E+00 1.54483E-02 5.09768E-01-1.22471E-13 1.30685E-13
 -1      3860 2.43562E+01-1.21641E+00 1.88365E-03 9.91224E-01-7.51476E-14 1.52795E-13
 -1      3861 2.00016E+01 6.14427E-03-2.78435E-05-3.84659E-04-2.25581E-13-7.88526E-14
 -1      3862 2.00015E+01 6.22397E-03-1.80911E-05-3.74770E-04-1.36917E-13-3.24503E-13
 -1      3863 2.00015E+01 7.75872E-03 3.84596E-05-2.29793E-04 4.96494E-15-6.20107E-13
 -1      3864 2.46856E+01 3.12518E+00-2.94733E-02-1.67765E+00 3.16362E-14-7.84164E-14
 -1      3865 2.31788E+01 1.70593E+00-2.03042E-02 1.61421E+00 1.29570E-13 1.21118E-13
 -1      3866 2.00014E+01 4.58693E-03 1.73549E-05-5.80138E-05 2.55164E-13 1.19615E-13
 -1      3867 2.00014E+01 5.84494E-03-8.42708E-06 2.68754E-04 3.18426E-13-3.35049E-14
 -1      3868 2.28686E+01-2.66494E+00 3.43988E-02-2.28129E+00-1.77597E-13 2.41474E-15
 -1      3869 2.35529E+01-2.96855E+00-2.85477E-02-1.87198E+00-1.52525E-13 4.90246E-14
 -1      3870 2.36237E+01-2.44888E+00 1.32911E-02-9.54255E-01-1.31248E-13 7.52818E-14
 -1      3871 2.22768E+01-2.35202E+00 2.87636E-02 2.31315E+00-6.79868E-14-1.03015E-13
 -1      3872 2.11842E+01-1.87388E+00-1.92159E-02 2.48302E+00-5.77489E-14-4.77964E-14
 -1      3873 2.00021E+01 5.65251E-03-1.54168E-05-5.58046E-04-4.75564E-13 1.29383E-13
 -1      3874 2.00020E+01 6.04627E-03-2.98462E-05-6.59587E-04-5.50658E-13 1.01832E-13
 -1      3875 2.00023E+01 7.53485E-03 5.29861E-05-1.31590E-03-1.61028E-13 3.23078E-13
 -1      3876 2.44998E+01-1.98367E+00 2.18596E-02-2.45275E-01-2.30939E-14 2.69285E-14
 -1      3877 2.37041E+01-2.18537E+00-1.47184E-02 2.91512E-01 2.67965E-14 2.95150E-14
 -1      3878 1.86522E+01-5.82646E-01 3.94195E-02 3.29539E+00-2.38577E-13-3.75156E-13
 -1      3879 1.80070E+01 3.45077E-02-1.03406E-02 2.72986E+00-2.51267E-13-1.81170E-13
 -1      3880 1.96573E+01-9.95375E-01-1.12204E-02 2.82235E+00-1.69925E-13-2.29896E-13
 -1      3881 2.00541E+01 1.36457E+00 2.77971E-03-2.81775E-01 6.01390E-14-2.21916E-13
 -1      3882 2.00043E+01 1.31907E+00-1.47841E-03-3.33188E-01 4.82271E-14-2.18420E-13
 -1      3883 2.05197E+01 2.92226E-01 5.70139E-03-2.41215E-01 9.12903E-14-1.41615E-13
 -1      3884 2.04566E+01 4.70667E-01-2.73339E-03-2.39602E-01 9.10304E-14-1.58471E-13
 -1      3885 2.27399E+01-2.31814E+00-1.06410E-02 1.48111E+00-4.38939E-14-9.56422E-14
 -1      3886 2.43052E+01-1.49357E+00-2.10116E-02-7.70864E-01 3.83413E-14 3.10706E-14
 -1      3887 2.00014E+01 6.16791E-03-2.24266E-05 4.02020E-05 3.45203E-13-4.32106E-13
 -1      3888 2.00013E+01 5.81709E-03-2.40916E-05-1.45325E-06 3.15257E-13-2.88517E-13
 -1      3889 2.00014E+01 8.03135E-03 3.63519E-05 8.78889E-04 1.86508E-13-1.51158E-13
 -1      3890 2.00013E+01 7.84064E-03 9.42279E-06 2.84134E-04 1.48244E-13-7.21591E-13
 -1      3891 2.05743E+01 7.74446E-02-1.44016E-03-3.03999E-01 7.09177E-14-1.40481E-13
 -1      3892 2.02019E+01 1.18032E+00 1.45421E-05-1.81684E-01 9.39025E-14-2.21234E-13
 -1      3893 2.01331E+01 1.26296E+00-1.14407E-03-2.35966E-01 8.23489E-14-2.29124E-13
 -1      3894 2.01678E+01 1.03245E+00-4.16748E-05-3.26162E-01 6.96258E-14-2.11840E-13
 -1      3895 2.00012E+01 2.61091E-03-8.00604E-06-8.55589E-04 3.29599E-13 4.97191E-15
 -1      3896 2.48432E+01 8.97808E-01-1.22737E-02-1.91422E+00 2.07473E-15-1.68482E-13
 -1      3897 2.54085E+01 1.00737E-01-1.87525E-02-1.74790E+00 3.19536E-15-2.83542E-13
 -1      3898 1.90560E+01 9.74012E-01 7.14573E-03-7.09691E-01-1.04187E-13-1.22375E-13
 -1      3899 1.87494E+01 9.04941E-01-1.68245E-02-9.18145E-01-8.01418E-14-1.30097E-13
 -1      3900 1.86219E+01 8.36930E-01 1.22917E-02-1.19739E+00-7.68408E-14-1.49521E-13
 -1      3901 1.82232E+01 7.23320E-01-2.26123E-02-1.54311E+00-9.19722E-14-1.51861E-13
 -1      3902 1.90155E+01 6.26617E-01 9.70873E-04-1.26681E+00-1.05312E-13-9.88933E-14
 -1      3903 1.97882E+01 1.33635E+00 7.42726E-03-3.60571E-01-2.49377E-15-2.16949E-13
 -1      3904 1.97244E+01 1.33057E+00-6.19040E-03-2.98570E-01-3.17576E-15-2.17032E-13
 -1      3905 1.96465E+01 1.24779E+00-5.43405E-03-3.04033E-01-1.96488E-14-1.99793E-13
 -1      3906 1.97992E+01-1.39547E+00 2.45142E-02-3.41856E+00-1.18676E-13-1.08507E-13
 -1      3907 2.13301E+01-2.33652E+00-5.66058E-02-3.09101E+00-1.51097E-13-2.23866E-14
 -1      3908 1.64196E+01 1.29925E+00-1.04680E-02 1.63023E+00-2.52738E-13-2.28565E-13
 -1      3909 1.70820E+01 9.94473E-01 8.36763E-03 1.92938E+00-1.76008E-13-5.27035E-14
 -1      3910 1.83967E+01 9.07285E-01-1.40922E-02 7.09444E-01-1.23445E-13-2.99726E-13
 -1      3911 1.86972E+01 8.60714E-01 4.73863E-03 5.25884E-01-1.26962E-13-2.83271E-13
 -1      3912 1.88466E+01 7.92483E-01-1.12065E-02 3.63041E-01-1.59096E-13-2.67564E-13
 -1      3913 1.90646E+01 7.29674E-01 1.82927E-03 2.55693E-01-1.83085E-13-3.04417E-13
 -1      3914 1.89007E+01 7.00188E-01 6.16582E-03 6.22464E-01-9.14601E-14-3.67029E-13
 -1      3915 1.91794E+01 6.61455E-01-7.82722E-03 1.59465E-01-2.44421E-13-2.02498E-13
 -1      3916 1.93278E+01 6.01451E-01 5.11333E-04 1.02279E-01-1.97504E-13-2.51379E-13
 -1      3917 1.91825E+01 6.26137E-01 5.60440E-03 3.42672E-01-1.46286E-13-2.64188E-13
 -1      3918 1.94236E+01 5.36343E-01-5.18254E-03 4.14243E-02-8.61832E-14-2.88991E-13
 -1      3919 1.95324E+01 4.78453E-01-2.25063E-05 1.13140E-02-8.68509E-14-2.04508E-13
 -1      3920 1.94031E+01 5.29943E-01 4.10467E-03 1.70148E-01-1.50946E-13-1.21781E-13
 -1      3921 1.96043E+01 4.22382E-01-3.43614E-03-2.20691E-02-6.13242E-14-1.97794E-13
 -1      3922 1.96788E+01 3.73621E-01-3.48869E-04-3.40763E-02-2.55199E-14-1.83304E-13
 -1      3923 1.95751E+01 4.32849E-01 3.18382E-03 6.50600E-02-7.21212E-14-4.21070E-14
 -1      3924 1.97319E+01 3.27805E-01-2.16812E-03-5.05716E-02 4.34765E-15-2.64910E-13
 -1      3925 1.97822E+01 2.88033E-01-4.82746E-04-5.24508E-02-3.22226E-14-2.02972E-13
 -1      3926 1.97021E+01 3.45316E-01 2.37964E-03 7.36889E-03 6.03711E-16-1.66984E-13
 -1      3927 1.98208E+01 2.51604E-01-1.32514E-03-5.89756E-02-1.05885E-13-2.01537E-13
 -1      3928 1.98544E+01 2.19913E-01-5.01026E-04-5.57081E-02-2.07551E-14-2.66553E-13
 -1      3929 1.97942E+01 2.70933E-01 1.73533E-03-2.10809E-02-7.55949E-14-2.93475E-13
 -1      3930 1.98821E+01 1.91469E-01-7.65413E-04-5.66999E-02 1.96191E-14-3.44751E-13
 -1      3931 1.99043E+01 1.66569E-01-4.65244E-04-5.12452E-02 2.35683E-14-3.36026E-13
 -1      3932 1.98600E+01 2.09828E-01 1.23541E-03-3.23099E-02-6.78088E-14-3.86857E-13
 -1      3933 1.99232E+01 1.45545E-01-4.33288E-04-4.95895E-02 1.00558E-13-4.46232E-13
 -1      3934 1.99371E+01 1.27012E-01-3.98994E-04-4.38717E-02 1.82011E-13-4.23601E-13
 -1      3935 1.99057E+01 1.61923E-01 9.03629E-04-3.40829E-02 1.28069E-13-4.54991E-13
 -1      3936 1.99512E+01 1.09870E-01-2.28214E-04-4.09222E-02 1.21291E-13-4.87607E-13
 -1      3937 1.99608E+01 9.47419E-02-3.23476E-04-3.52490E-02 7.12386E-15-4.54471E-13
 -1      3938 1.99378E+01 1.23690E-01 6.20556E-04-3.11183E-02 1.35447E-13-4.50669E-13
 -1      3939 1.99706E+01 8.16093E-02-1.14269E-04-3.20213E-02 1.43042E-15-5.02982E-13
 -1      3940 1.99767E+01 7.00471E-02-2.54938E-04-2.70723E-02 4.56306E-14-4.77689E-13
 -1      3941 1.99607E+01 9.29595E-02 4.36317E-04-2.60820E-02 1.43704E-14-6.54848E-13
 -1      3942 1.99833E+01 6.00540E-02-4.28201E-05-2.40503E-02-3.81914E-14-4.33569E-13
 -1      3943 1.99871E+01 5.12487E-02-1.97498E-04-1.99566E-02-4.13628E-15-4.93171E-13
 -1      3944 1.99763E+01 6.91000E-02 3.00920E-04-2.05831E-02 7.05121E-14-6.54509E-13
 -1      3945 1.99916E+01 4.36897E-02-4.50481E-06-1.73604E-02 3.17443E-14-3.32547E-13
 -1      3946 1.99939E+01 3.70279E-02-1.50051E-04-1.41049E-02 2.22672E-13-4.13388E-13
 -1      3947 1.99867E+01 5.07468E-02 2.05001E-04-1.54533E-02 1.18228E-13-5.08408E-13
 -1      3948 1.99968E+01 3.13518E-02 1.58560E-05-1.19981E-02 3.00047E-13-3.15007E-13
 -1      3949 1.99980E+01 2.63528E-02-1.09208E-04-9.49507E-03 2.56370E-13-1.77902E-13
 -1      3950 1.99935E+01 3.67446E-02 1.36222E-04-1.10612E-02 3.21848E-13-3.25562E-13
 -1      3951 1.99998E+01 2.23107E-02 2.28157E-05-7.93924E-03 2.90747E-13-2.03296E-13
 -1      3952 2.00004E+01 1.87255E-02-7.99195E-05-6.13571E-03 1.20593E-13-7.03195E-14
 -1      3953 1.99977E+01 2.63759E-02 8.79107E-05-7.58289E-03 2.41617E-13-3.79842E-13
 -1      3954 2.00014E+01 1.55395E-02 2.74569E-05-4.88301E-03 1.30151E-13 1.07070E-13
 -1      3955 2.00016E+01 1.27387E-02-5.43897E-05-3.51437E-03 2.06016E-13 3.63466E-13
 -1      3956 2.00002E+01 1.85654E-02 5.45789E-05-4.88162E-03 2.01696E-13-1.17092E-13
 -1      3957 2.00021E+01 1.10202E-02 4.09625E-05-2.81600E-03 2.94196E-14 4.03017E-13
 -1      3958 2.00021E+01 8.89757E-03-2.46391E-05-1.85636E-03-7.68650E-14 3.98684E-13
 -1      3959 2.00018E+01 9.56963E-03-3.63328E-05-1.75653E-03-2.17110E-13 3.95433E-13
 -1      3960 2.00014E+01 1.31939E-02 1.06370E-05-2.98205E-03 2.91240E-13 2.00810E-13
 -1      3961 2.34133E+01-1.42938E+00 2.28518E-02-6.95091E-01-4.91399E-14 8.82064E-15
 -1      3962 2.35610E+01-1.11088E+00-5.29997E-03-1.00541E+00 7.33983E-14 4.83793E-14
 -1      3963 2.26883E+01-1.60900E+00 2.86442E-02-6.80873E-02-7.20988E-14 2.82872E-14
 -1      3964 2.29325E+01-1.57758E+00-6.39630E-03-3.40528E-01-5.40961E-14 1.95813E-14
 -1      3965 2.32903E+01-1.86072E+00-2.12776E-02-6.61523E-02-4.16425E-14 1.24992E-13
 -1      3966 2.19133E+01-1.42972E+00 1.80996E-02 3.46354E-01-1.16693E-13 9.81408E-14
 -1      3967 2.22054E+01-1.54309E+00-1.24015E-03 1.58998E-01-1.64450E-13-2.05735E-14
 -1      3968 2.23885E+01-1.80105E+00-2.56025E-02 4.74340E-01-9.27710E-14 2.59775E-16
 -1      3969 2.12630E+01-1.09531E+00 1.30715E-02 5.26579E-01-1.65331E-13 1.40046E-13
 -1      3970 2.15321E+01-1.25552E+00 5.45947E-03 4.28521E-01-8.77686E-14 9.14995E-14
 -1      3971 2.15529E+01-1.40905E+00-1.81120E-02 7.26334E-01-1.27723E-13-7.64840E-15
 -1      3972 2.07632E+01-7.50832E-01 7.24540E-03 5.68385E-01-1.55640E-13 2.12925E-13
 -1      3973 2.09799E+01-9.11067E-01 5.28254E-03 5.35541E-01-1.28809E-13 1.88882E-13
 -1      3974 2.09365E+01-1.00333E+00-1.64034E-02 7.81235E-01-1.53725E-13 1.63175E-14
 -1      3975 2.04142E+01-4.58133E-01 3.25730E-03 5.26512E-01-1.34403E-13 2.05848E-13
 -1      3976 2.05753E+01-5.90392E-01 5.29683E-03 5.32556E-01-1.68919E-13 2.65371E-13
 -1      3977 2.04987E+01-6.26893E-01-1.16559E-02 7.13028E-01-1.74666E-13 4.73000E-14
 -1      3978 2.01882E+01-2.37040E-01 9.71260E-04 4.49113E-01-1.05387E-13 2.14952E-13
 -1      3979 2.02988E+01-3.35211E-01 4.33384E-03 4.74538E-01-1.08259E-13 2.55264E-13
 -1      3980 2.02181E+01-3.38143E-01-7.35266E-03 5.97320E-01-7.35330E-14 4.69174E-14
 -1      3981 2.00526E+01-8.42159E-02-2.63006E-04 3.63993E-01-2.81008E-14 1.80119E-13
 -1      3982 2.01234E+01-1.51137E-01 3.22001E-03 3.96150E-01-6.72494E-14 1.35485E-13
 -1      3983 2.00507E+01-1.36477E-01-4.28075E-03 4.74471E-01 6.11835E-14-1.40977E-15
 -1      3984 1.99792E+01 1.24702E-02-8.04575E-04 2.84910E-01 1.57405E-14 2.99449E-13
 -1      3985 2.00212E+01-2.90873E-02 2.25732E-03 3.16864E-01 3.79608E-15 2.77268E-13
 -1      3986 1.99607E+01-6.90344E-03-2.20289E-03 3.63029E-01 7.84474E-15 2.15007E-13
 -1      3987 1.99455E+01 6.71522E-02-9.55535E-04 2.17667E-01 1.31352E-13 2.90208E-13
 -1      3988 1.99680E+01 4.43021E-02 1.47982E-03 2.46131E-01 1.14650E-13 3.61948E-13
 -1      3989 1.99203E+01 6.79994E-02-9.37496E-04 2.70724E-01 2.34133E-14 3.05129E-13
 -1      3990 1.99356E+01 9.26464E-02-9.10058E-04 1.63325E-01-2.51083E-13 2.32214E-13
 -1      3991 1.99457E+01 8.26604E-02 9.16247E-04 1.87184E-01-3.05710E-14 3.11021E-13
 -1      3992 1.99093E+01 1.04844E-01-2.12813E-04 1.98189E-01-1.35535E-14 1.67454E-13
 -1      3993 1.99387E+01 9.92314E-02-7.82072E-04 1.20808E-01-3.22822E-13 9.92535E-14
 -1      3994 1.99415E+01 9.74710E-02 5.29676E-04 1.40073E-01-3.20465E-13 2.01998E-13
 -1      3995 1.99144E+01 1.16843E-01 1.65140E-04 1.43099E-01-3.20714E-13 1.65746E-13
 -1      3996 1.99478E+01 9.45424E-02-6.32548E-04 8.82497E-02-1.22385E-13 2.70415E-14
 -1      3997 1.99468E+01 9.75940E-02 2.78903E-04 1.03421E-01-2.29696E-13 8.51684E-14
 -1      3998 1.99270E+01 1.13802E-01 3.29211E-04 1.02199E-01-1.64057E-13 1.45285E-13
 -1      3999 1.99589E+01 8.39342E-02-4.91303E-04 6.36807E-02-1.18126E-13 2.64709E-13
 -1      4000 1.99561E+01 8.94242E-02 1.24676E-04 7.54263E-02-1.53436E-13 2.45631E-13
 -1      4001 1.99419E+01 1.02603E-01 3.72745E-04 7.22984E-02-2.94414E-13 3.88510E-13
 -1      4002 1.99696E+01 7.09252E-02-3.70430E-04 4.53344E-02 1.22742E-13 3.26184E-13
 -1      4003 1.99664E+01 7.73090E-02 3.66670E-05 5.43103E-02 1.95988E-14 3.69895E-13
 -1      4004 1.99563E+01 8.78134E-02 3.55752E-04 5.06523E-02-4.12383E-14 3.71466E-13
 -1      4005 1.99789E+01 5.76912E-02-2.72665E-04 3.17511E-02 1.38042E-13 2.02252E-13
 -1      4006 1.99759E+01 6.40278E-02-9.03713E-06 3.85365E-02 1.24702E-13 3.31299E-13
 -1      4007 1.99689E+01 7.22613E-02 3.08939E-04 3.50868E-02 1.32197E-13 1.54854E-13
 -1      4008 1.99864E+01 4.54579E-02-1.96513E-04 2.17725E-02-4.39340E-14 1.32996E-13
 -1      4009 1.99838E+01 5.12296E-02-2.89579E-05 2.68500E-02 2.74203E-14 2.31308E-13
 -1      4010 1.99791E+01 5.75893E-02 2.52326E-04 2.39469E-02 5.90420E-14 5.10466E-16
 -1      4011 1.99920E+01 3.48154E-02-1.38824E-04 1.45029E-02-8.17831E-15-1.63519E-13
 -1      4012 1.99900E+01 3.97854E-02-3.42397E-05 1.82623E-02 7.63120E-15 1.83403E-14
 -1      4013 1.99869E+01 4.46293E-02 1.96753E-04 1.60081E-02 1.21990E-13-4.34615E-14
 -1      4014 1.99960E+01 2.59477E-02-9.60101E-05 9.25834E-03 3.15843E-15-4.65093E-13
 -1      4015 1.99946E+01 3.00572E-02-3.18670E-05 1.20085E-02-4.79640E-14-3.33395E-13
 -1      4016 1.99926E+01 3.36931E-02 1.47156E-04 1.03775E-02 9.22183E-14-2.42559E-13
 -1      4017 1.99986E+01 1.87977E-02-6.54748E-05 5.52204E-03-2.32565E-14-3.98034E-13
 -1      4018 1.99977E+01 2.20915E-02-2.62222E-05 7.50554E-03 1.09444E-14-4.42127E-13
 -1      4019 1.99966E+01 2.47794E-02 1.06351E-04 6.41195E-03 1.92577E-14-3.62689E-13
 -1      4020 2.00003E+01 1.31831E-02-4.64576E-05 2.91519E-03-2.16137E-13-3.83397E-13
 -1      4021 1.99998E+01 1.57709E-02-1.41105E-05 4.31247E-03-1.20976E-13-5.11452E-13
 -1      4022 1.99991E+01 1.76996E-02 7.10296E-05 3.65098E-03-5.20604E-14-5.70062E-13
 -1      4023 2.00010E+01 9.34901E-03-4.45081E-05 1.35963E-03-7.99867E-14-3.58771E-13
 -1      4024 2.00008E+01 1.14567E-02 4.40245E-06 2.33868E-03-1.92518E-13-4.18662E-13
 -1      4025 2.00004E+01 1.28425E-02 4.43188E-05 1.98361E-03-1.31606E-13-5.97006E-13
 -1      4026 2.00011E+01 9.52855E-03 1.72203E-05 9.60156E-04-6.81845E-14-7.72798E-13
 -1      4027 1.81334E+01 5.79613E-01 1.79551E-02-1.94237E+00-5.06003E-14-1.51389E-13
 -1      4028 1.76751E+01 3.52251E-01-2.34788E-02-2.45990E+00-2.26338E-14-1.59435E-13
 -1      4029 1.87314E+01 2.92473E-01 7.30875E-03-1.97172E+00-5.87481E-14-1.29230E-13
 -1      4030 2.00013E+01 3.77827E-03-6.27493E-07-5.22088E-04 3.37284E-13 2.69090E-14
 -1      4031 2.40675E+01-7.27446E-01 1.05040E-02-1.33663E+00 1.15618E-13-3.36940E-14
 -1      4032 2.30813E+01-1.69740E+00-1.31819E-02 2.28051E-01-8.77037E-14 3.15817E-14
 -1      4033 2.28346E+01-1.71230E+00 1.31291E-02-3.89958E-02-1.04273E-13 1.60127E-14
 -1      4034 1.69868E+01 3.69225E-01 8.61348E-03-2.94656E+00-7.91082E-14-1.71181E-13
 -1      4035 1.99337E+01 1.32539E+00 4.83755E-03-3.73612E-01 3.66909E-14-2.17985E-13
 -1      4036 1.98626E+01 1.27840E+00-2.33103E-03-3.83809E-01 1.77410E-14-2.31947E-13
 -1      4037 1.99990E+01 1.11870E+00-1.80377E-03-4.08221E-01 2.21156E-14-2.06274E-13
 -1      4038 2.17537E+01-1.31894E+00-4.01957E-03-5.55003E-01-5.34704E-14-3.52328E-14
 -1      4039 2.15252E+01-1.10782E+00 1.31560E-02-6.34076E-01-1.55397E-14-6.78169E-14
 -1      4040 2.12493E+01-8.97831E-01-4.23934E-04-6.47705E-01 2.17681E-14-6.72478E-14
 -1      4041 2.10701E+01-6.78974E-01 9.16079E-03-6.59153E-01 2.82035E-14-8.35125E-14
 -1      4042 2.13301E+01-1.05394E+00-1.45544E-02-8.50408E-01 1.91963E-15-7.68190E-15
 -1      4043 2.41604E+01 2.01041E-01-6.04884E-03 1.64072E+00-2.00014E-15 1.91765E-13
 -1      4044 2.44512E+01 1.14435E+00-2.54790E-02 1.92073E+00 5.16687E-14 1.39283E-13
 -1      4045 2.29626E+01 3.64772E+00-1.33931E-02-7.10082E-02 1.45758E-13 7.67563E-14
 -1      4046 2.40581E+01 1.72021E+00-1.11582E-02 1.83993E+00 1.17184E-13 2.03336E-13
 -1      4047 2.47814E+01-5.79157E-01-5.16952E-03-1.43506E+00 5.02541E-14-1.61540E-13
 -1      4048 2.03287E+01 9.73001E-01-1.32184E-03-4.33070E-02 1.15632E-13-1.91174E-13
 -1      4049 2.23894E+01-1.64174E+00-8.11968E-03-2.74311E-01-1.24770E-13 3.89402E-15
 -1      4050 2.21314E+01-1.49783E+00 1.56296E-02-4.46078E-01-9.67004E-14-2.82238E-14
 -1      4051 2.27511E+01-1.85486E+00-2.84294E-03-4.53613E-01-1.13667E-13 3.29908E-14
 -1      4052 1.78383E+01 9.67206E-01-3.36460E-03 1.27602E+00-1.32050E-13-1.50228E-13
 -1      4053 1.82293E+01 9.45882E-01 1.05865E-02 9.54980E-01-2.03341E-13-2.08078E-13
 -1      4054 1.85369E+01 7.16476E-01 2.80446E-03 1.06697E+00-2.04887E-13-3.40095E-13
 -1      4055 2.04427E+01 4.60120E-01-3.53775E-04-3.33510E-01 7.60799E-14-1.66417E-13
 -1      4056 2.03881E+01 6.79863E-01 3.65399E-03-2.38204E-01 9.79368E-14-1.64105E-13
 -1      4057 2.12491E+01-1.62992E+00-4.01539E-03 1.99755E+00-8.33624E-14 7.75530E-15
 -1      4058 2.06109E+01-1.35782E+00 3.47092E-02 2.52669E+00-1.38915E-13-5.12439E-14
 -1      4059 2.06106E+01 1.92169E-02-5.31648E-03-3.98950E-01 6.86352E-14-1.56492E-13
 -1      4060 1.78200E+01 4.43529E-01 2.00696E-02 2.33745E+00-2.66590E-13-1.47453E-13
 -1      4061 1.79047E+01 7.87569E-01 9.69054E-03 1.60956E+00-9.06822E-14-1.74165E-13
 -1      4062 1.83602E+01 4.52696E-01-2.05945E-02 1.67107E+00-1.91039E-13-3.44006E-13
 -1      4063 1.86618E+01-1.00429E-01-3.38778E-02 2.31170E+00-1.94532E-13-3.25930E-13
 -1      4064 2.39841E+01-7.11373E-01-1.30197E-02 1.36588E+00-4.88249E-14 1.50200E-13
 -1      4065 2.34690E+01 9.83119E-02 7.51762E-03 1.57107E+00-3.40353E-15 9.25219E-14
 -1      4066 2.33691E+01 3.77820E+00-1.86020E-02-7.98945E-01 1.14807E-13 7.07056E-14
 -1      4067 2.27416E+01 1.05389E+00 1.32286E-02 1.57147E+00 5.12012E-14 7.37648E-14
 -1      4068 2.28582E+01 4.51210E-01-1.18965E-02 1.60043E+00 2.09351E-14 9.13462E-14
 -1      4069 1.93853E+01 1.08148E+00-1.36601E-04-4.36829E-01-1.18851E-13-1.47760E-13
 -1      4070 1.91735E+01 1.02433E+00-1.21932E-02-5.40402E-01-1.27581E-13-1.31120E-13
 -1      4071 1.93096E+01 8.56035E-01 4.50186E-03-7.99349E-01-1.07888E-13-7.80735E-14
 -1      4072 2.34603E+01 3.25127E+00-3.94627E-02-1.30251E+00 2.60555E-14 9.80602E-14
 -1      4073 2.39606E+01 2.19052E+00 6.28211E-04-1.81693E+00-1.93248E-14 3.08104E-14
 -1      4074 2.00018E+01 6.07076E-03-2.79356E-05-5.04580E-04-6.00455E-13-1.63343E-13
 -1      4075 2.00017E+01 6.34264E-03-2.04609E-05-5.37346E-04-4.25415E-13-1.40120E-13
 -1      4076 2.00017E+01 8.03774E-03 4.80963E-05-6.30965E-04-1.11549E-13-3.93732E-13
 -1      4077 2.00019E+01 8.23311E-03 5.43909E-05-1.05163E-03-4.81049E-13-4.53646E-14
 -1      4078 2.33018E+01-2.15121E+00 3.31948E-02 6.19367E-01-2.69129E-14-6.57460E-16
 -1      4079 2.40744E+01 1.22847E+00-3.69190E-02-1.89460E+00-3.62932E-14-3.81552E-15
 -1      4080 2.38225E+01-2.44517E-01-3.18445E-02-1.57758E+00 9.65866E-14 9.49197E-15
 -1      4081 2.38530E+01 4.91918E-01-1.43513E-03-1.75540E+00 2.07777E-14 7.01409E-14
 -1      4082 1.98200E+01 1.15738E+00-2.99051E-03-4.25302E-01 5.41049E-15-2.02150E-13
 -1      4083 1.85751E+01-5.36379E-01-1.37311E-02-3.17050E+00-8.87196E-14-1.34127E-13
 -1      4084 1.96297E+01-7.15891E-01 3.15294E-02-2.69203E+00-5.73816E-14-8.71919E-14
 -1      4085 2.02530E+01 7.88107E-01 5.55102E-04-3.96949E-01 4.70971E-14-2.03196E-13
 -1      4086 2.01592E+01 8.82034E-01-1.18353E-03-4.34069E-01 1.84871E-14-1.91610E-13
 -1      4087 1.98264E+01-8.75207E-01-1.31904E-02 2.37213E+00-1.84908E-13-1.09672E-13
 -1      4088 2.35768E+01-2.18973E+00 1.78878E-03-3.90979E-01-9.17825E-14 4.12298E-14
 -1      4089 2.35776E+01-1.88434E+00-5.16783E-03 1.32464E-01-7.15641E-14 3.21130E-14
 -1      4090 2.20719E+01-2.16064E+00 1.55581E-02-2.25596E+00-1.09956E-13-3.77732E-14
 -1      4091 2.08871E+01-4.68482E-01 1.45513E-03-6.18358E-01 1.24157E-14-9.38115E-14
 -1      4092 2.07579E+01-2.55812E-01 6.58512E-03-5.84618E-01 2.28681E-14-1.04334E-13
 -1      4093 2.09044E+01-5.70350E-01-1.05718E-02-7.84633E-01 5.19289E-15 1.02713E-14
 -1      4094 2.32322E+01-2.24345E+00-2.16614E-03-8.06934E-01-9.31013E-14 4.15108E-14
 -1      4095 2.34682E+01-1.54722E+00 1.48620E-03 6.01280E-01-6.19655E-14 5.23202E-14
 -1      4096 2.36304E+01-1.23156E+00-9.02063E-03 9.13765E-01-5.62289E-14 8.59357E-14
 -1      4097 2.00715E+01 8.99708E-01 2.18427E-03-4.97841E-01 9.18281E-15-1.88585E-13
 -1      4098 1.99720E+01 8.98664E-01-1.83900E-03-5.39353E-01-1.07776E-14-1.98558E-13
 -1      4099 2.01397E+01 6.61062E-01-1.34441E-03-5.74384E-01-1.55038E-14-1.82211E-13
 -1      4100 2.19434E+01-1.53634E+00-1.78861E-02-7.72113E-01-8.83846E-14 2.85205E-14
 -1      4101 2.00011E+01 9.48021E-03-3.05883E-05-2.49106E-04 1.17922E-13-6.44471E-13
 -1      4102 2.00011E+01 9.45562E-03 1.94739E-06 1.20052E-05 1.72522E-13-8.48342E-13
 -1      4103 2.24882E+01-2.03880E+00-9.69163E-03 1.08091E+00-8.01477E-14-4.34171E-14
 -1      4104 2.17238E+01-1.75844E+00 1.56256E-03 1.56571E+00-1.05855E-13 4.04139E-14
 -1      4105 2.10507E+01-1.39622E+00-1.42554E-02 1.67422E+00-8.28647E-14-2.27544E-14
 -1      4106 1.95808E+01 1.18006E+00-4.29243E-03-3.43482E-01-4.11673E-14-1.75946E-13
 -1      4107 1.94617E+01 1.12105E+00-7.90625E-03-3.74382E-01-7.08929E-14-1.53044E-13
 -1      4108 1.95309E+01 1.00555E+00 4.42873E-03-5.57778E-01-8.74368E-14-1.39549E-13
 -1      4109 1.96821E+01 1.14385E+00 7.74392E-03-4.42122E-01-8.96435E-15-1.60977E-13
 -1      4110 2.00010E+01 9.72199E-03-1.18485E-05 3.42160E-04 1.22550E-13-8.08914E-13
 -1      4111 2.06263E+01-2.74354E-02 4.67169E-04-5.06853E-01 4.52956E-14-1.47710E-13
 -1      4112 2.05270E+01 2.24134E-01 4.63982E-03-4.34451E-01 3.79960E-14-1.66550E-13
 -1      4113 2.04231E+01 4.13957E-01-2.33280E-03-4.40021E-01 6.84453E-14-1.70812E-13
 -1      4114 2.06150E+01-8.54250E-02-5.92210E-03-6.39370E-01 1.47943E-14-6.57751E-14
 -1      4115 2.02575E+01 1.10703E+00 6.15039E-04-1.17591E-01 1.08722E-13-2.03882E-13
 -1      4116 1.79729E+01 2.68455E-02 2.03656E-02-2.86582E+00-6.29457E-14-1.57556E-13
 -1      4117 2.20441E+01-1.68597E+00-2.59554E-03-1.09879E+00-1.16678E-13 2.95504E-14
 -1      4118 2.17118E+01-1.39003E+00 2.06526E-02-1.14279E+00-4.61483E-14 3.54613E-14
 -1      4119 1.89703E+01 5.32969E-01-8.13706E-03 8.13356E-01-3.65556E-14-3.43354E-13
 -1      4120 1.91418E+01 5.38006E-01 6.17252E-03 6.29820E-01-1.02657E-13-3.05382E-13
 -1      4121 1.93370E+01-3.65021E-01-1.73793E-02-2.29388E+00-4.49345E-14-9.65976E-14
 -1      4122 2.03495E+01-1.19237E+00-2.93566E-02-2.50941E+00-6.61747E-14-1.58220E-14
 -1      4123 2.01959E+01-9.09781E-01-1.32614E-02 1.99028E+00-2.23641E-13-1.06535E-14
 -1      4124 1.95080E+01-4.67261E-01 2.88728E-02 2.25467E+00-1.96916E-13-1.57085E-13
 -1      4125 1.91887E+01-1.62502E-01 5.61018E-03 1.97315E+00-2.11014E-13-2.60901E-13
 -1      4126 1.87441E+01 4.65024E-01 4.98483E-05 1.30996E+00-1.84361E-13-4.15077E-13
 -1      4127 1.89307E+01 5.09637E-01 1.05810E-02 1.02418E+00-7.63733E-14-3.24534E-13
 -1      4128 1.91747E+01 3.28032E-01 3.79587E-04 1.01628E+00-1.20938E-13-2.86039E-13
 -1      4129 1.91949E+01 5.21767E-01-7.76464E-03 4.89621E-01-1.57893E-14-2.68256E-13
 -1      4130 1.93287E+01 5.04448E-01 3.55440E-03 3.77591E-01-5.42852E-14-1.53465E-13
 -1      4131 1.93048E+01 4.01169E-01 1.42621E-03 6.55908E-01-3.37551E-14-2.43636E-13
 -1      4132 1.93892E+01 4.72208E-01-5.69467E-03 2.78246E-01-1.74820E-13-1.12946E-13
 -1      4133 1.94969E+01 4.41153E-01 2.09809E-03 2.05590E-01-3.64060E-14-2.16782E-14
 -1      4134 1.94411E+01 4.05324E-01 1.67337E-03 4.07868E-01 2.29106E-14-5.89324E-14
 -1      4135 1.95506E+01 4.03632E-01-4.13117E-03 1.42494E-01-5.03082E-14-2.16137E-14
 -1      4136 1.96306E+01 3.69903E-01 1.05713E-03 1.00138E-01-8.00666E-14-5.01300E-14
 -1      4137 1.95686E+01 3.72633E-01 1.79916E-03 2.37924E-01-6.27330E-14 1.37948E-14
 -1      4138 1.96756E+01 3.33694E-01-2.84130E-03 6.16766E-02-1.07225E-13-1.28367E-13
 -1      4139 1.97337E+01 3.01603E-01 4.29019E-04 3.86946E-02-1.37726E-13-2.29316E-13
 -1      4140 1.96758E+01 3.23761E-01 1.65156E-03 1.30214E-01-1.04479E-13 5.05717E-14
 -1      4141 1.97699E+01 2.69391E-01-1.89989E-03 1.63771E-02-1.26787E-13-2.35397E-13
 -1      4142 1.98114E+01 2.40963E-01 7.58731E-05 5.26478E-03-1.91204E-13-3.57307E-13
 -1      4143 1.97618E+01 2.71044E-01 1.39286E-03 6.46367E-02-2.22174E-13-1.88686E-13
 -1      4144 1.98396E+01 2.13642E-01-1.22322E-03-6.84653E-03-1.75870E-13-2.78097E-13
 -1      4145 1.98687E+01 1.89454E-01-1.25223E-04-1.10258E-02-9.24118E-15-3.16222E-13
 -1      4146 1.98286E+01 2.20931E-01 1.10822E-03 2.66027E-02-2.00676E-13-2.54832E-13
 -1      4147 1.98892E+01 1.67927E-01-7.85227E-04-1.67172E-02 5.62777E-14-4.40388E-13
 -1      4148 1.99088E+01 1.48868E-01-1.96851E-04-1.71477E-02 1.10238E-13-4.04415E-13
 -1      4149 1.98782E+01 1.77597E-01 9.08097E-04 6.21534E-03-7.70675E-14-3.87103E-13
 -1      4150 1.99251E+01 1.30471E-01-4.88730E-04-1.95944E-02 1.71296E-13-5.48442E-13
 -1      4151 1.99394E+01 1.14120E-01-1.97978E-04-1.81704E-02 7.68174E-14-6.07522E-13
 -1      4152 1.99152E+01 1.40238E-01 6.54106E-04-3.85140E-03 8.94602E-14-6.52390E-13
 -1      4153 1.99512E+01 9.93975E-02-3.06364E-04-1.85929E-02-1.57563E-14-4.83762E-13
 -1      4154 1.99610E+01 8.63967E-02-1.84700E-04-1.63911E-02 7.65078E-14-4.42216E-13
 -1      4155 1.99432E+01 1.08508E-01 4.92633E-04-8.10313E-03 8.39566E-14-7.40287E-13
 -1      4156 1.99695E+01 7.47985E-02-1.80774E-04-1.58259E-02 7.71824E-14-3.97936E-13
 -1      4157 1.99760E+01 6.45660E-02-1.60940E-04-1.34851E-02 1.29717E-13-4.45207E-13
 -1      4158 1.99632E+01 8.27048E-02 3.61832E-04-8.94871E-03 1.05941E-13-2.72878E-13
 -1      4159 1.99820E+01 5.55359E-02-1.02282E-04-1.25301E-02 1.33382E-13-6.52623E-13
 -1      4160 1.99863E+01 4.75776E-02-1.33146E-04-1.03777E-02 1.45376E-13-5.22596E-13
 -1      4161 1.99774E+01 6.21024E-02 2.61432E-04-8.11930E-03-1.60876E-14-4.42165E-13
 -1      4162 1.99904E+01 4.06306E-02-5.19407E-05-9.35964E-03 3.20136E-13-4.20360E-13
 -1      4163 1.99931E+01 3.45149E-02-1.04617E-04-7.53813E-03 3.72842E-13-4.57818E-13
 -1      4164 1.99871E+01 4.58946E-02 1.84092E-04-6.61960E-03 2.81116E-13-5.13660E-13
 -1      4165 1.99957E+01 2.94641E-02-2.44416E-05-6.66531E-03 2.91241E-13-3.84118E-13
 -1      4166 1.99972E+01 2.50005E-02-7.99674E-05-5.25778E-03 1.74178E-13-4.19389E-13
 -1      4167 1.99934E+01 3.35990E-02 1.29341E-04-5.03539E-03 3.62643E-13-2.77695E-13
 -1      4168 1.99990E+01 2.09520E-02-6.58566E-06-4.47535E-03 2.65646E-13-3.63422E-13
 -1      4169 1.99999E+01 1.74176E-02-5.36700E-05-3.35536E-03 4.07689E-13-2.45547E-13
 -1      4170 1.99975E+01 2.41306E-02 8.45598E-05-3.58597E-03 2.64059E-13-4.65920E-13
 -1      4171 2.14027E+01-1.31643E+00 1.77931E-02 1.01422E+00-1.69517E-13 8.86942E-14
 -1      4172 2.17698E+01-1.55338E+00 5.79293E-03 9.41926E-01-1.03699E-13 4.93195E-14
 -1      4173 2.13311E+01-1.58542E+00 2.32210E-02-2.15405E+00-6.26200E-14-2.04613E-14
 -1      4174 2.23655E+01-2.11359E+00-3.09149E-02-1.50713E+00-1.04577E-13 2.27817E-14
 -1      4175 2.06787E+01-8.04133E-01 9.13777E-03 9.91852E-01-2.06832E-13-6.89379E-14
 -1      4176 2.09280E+01-1.03521E+00-1.74653E-03 1.02917E+00-1.87945E-13-3.61486E-14
 -1      4177 2.02863E+01-4.45355E-01 3.61018E-03 8.23306E-01-1.06495E-13 4.79201E-14
 -1      4178 2.04684E+01-6.10705E-01 5.44576E-03 8.86641E-01-1.53173E-13 6.87838E-14
 -1      4179 2.03731E+01-6.60301E-01-9.10683E-03 1.13381E+00-2.09995E-13-2.08187E-14
 -1      4180 2.00547E+01-1.90149E-01 9.77483E-04 6.45710E-01-8.09874E-14 2.57902E-14
 -1      4181 2.01743E+01-3.02275E-01 6.34780E-03 7.15487E-01-1.14765E-13 2.96605E-15
 -1      4182 2.00670E+01-3.20097E-01-8.81639E-03 8.85992E-01-1.22374E-13 5.47567E-14
 -1      4183 1.99322E+01-2.51007E-02-3.32453E-04 4.84803E-01 2.13906E-14 9.13811E-14
 -1      4184 2.00023E+01-9.56023E-02 4.88149E-03 5.48393E-01 5.90040E-15 2.16943E-14
 -1      4185 1.99024E+01-8.33206E-02-5.23369E-03 6.59593E-01-6.78759E-14-5.68084E-14
 -1      4186 1.98786E+01 7.14122E-02-9.50258E-04 3.53791E-01-9.77043E-14 2.17188E-13
 -1      4187 1.99157E+01 3.19886E-02 3.66122E-03 4.06645E-01-4.94360E-14 1.05839E-13
 -1      4188 1.98341E+01 5.51393E-02-2.82555E-03 4.75202E-01-1.02647E-13-3.78622E-15
 -1      4189 1.98652E+01 1.20355E-01-1.12000E-03 2.52741E-01 8.12079E-14 1.59563E-13
 -1      4190 1.98816E+01 1.02037E-01 2.59935E-03 2.94216E-01 2.37453E-14 2.02097E-13
 -1      4191 1.98173E+01 1.28997E-01-1.36360E-03 3.33661E-01-1.74558E-14 2.11687E-14
 -1      4192 1.98735E+01 1.38087E-01-1.06204E-03 1.77676E-01-9.61360E-14 1.31068E-13
 -1      4193 1.98775E+01 1.33273E-01 1.76348E-03 2.09057E-01 3.04388E-14 6.16484E-14
 -1      4194 1.98286E+01 1.59734E-01-4.82019E-04 2.29513E-01 4.71214E-14 6.33046E-14
 -1      4195 1.98918E+01 1.36746E-01-9.09337E-04 1.23397E-01-3.20950E-13-3.42707E-14
 -1      4196 1.98892E+01 1.39914E-01 1.14432E-03 1.46569E-01-2.85896E-13 1.09356E-13
 -1      4197 1.98528E+01 1.63790E-01-8.06349E-07 1.55338E-01-1.03389E-13 1.53230E-13
 -1      4198 1.99131E+01 1.24839E-01-7.29626E-04 8.48541E-02-3.39826E-13 1.43958E-13
 -1      4199 1.99075E+01 1.32224E-01 7.16968E-04 1.01718E-01-2.97080E-13 4.74317E-14
 -1      4200 1.98809E+01 1.52738E-01 2.33481E-04 1.03798E-01-3.15053E-13-1.42029E-13
 -1      4201 1.99336E+01 1.08019E-01-5.65691E-04 5.78795E-02-2.25968E-13 2.24678E-13
 -1      4202 1.99271E+01 1.17116E-01 4.26722E-04 7.00263E-02-2.40232E-13 1.83493E-13
 -1      4203 1.99080E+01 1.34094E-01 2.76702E-04 6.86479E-02-2.78252E-13-1.12589E-13
 -1      4204 1.99516E+01 8.98193E-02-4.29750E-04 3.91426E-02 5.45453E-14 1.01273E-13
 -1      4205 1.99454E+01 9.91449E-02 2.42195E-04 4.78240E-02-2.36860E-13 2.98770E-14
 -1      4206 1.99318E+01 1.13017E-01 3.03915E-04 4.49660E-02-1.47348E-13-2.42459E-13
 -1      4207 1.99663E+01 7.23497E-02-3.19863E-04 2.61978E-02 1.74883E-13 2.58936E-14
 -1      4208 1.99610E+01 8.10448E-02 1.28543E-04 3.23806E-02 2.95954E-13 1.55711E-13
 -1      4209 1.99515E+01 9.21802E-02 2.85405E-04 2.91935E-02 1.13006E-13-2.07097E-13
 -1      4210 1.99778E+01 5.67091E-02-2.34012E-04 1.72830E-02 1.33530E-13-4.83114E-14
 -1      4211 1.99735E+01 6.43486E-02 6.20375E-05 2.16767E-02 4.58118E-14-1.15800E-13
 -1      4212 1.99670E+01 7.31567E-02 2.45824E-04 1.87523E-02 2.59814E-13-6.07128E-14
 -1      4213 1.99863E+01 4.33536E-02-1.69095E-04 1.11573E-02 9.15596E-14-2.46307E-15
 -1      4214 1.99831E+01 4.97901E-02 2.53640E-05 1.42728E-02 1.47765E-13-9.64967E-14
 -1      4215 1.99787E+01 5.66634E-02 1.99925E-04 1.18687E-02 1.82245E-13-1.55361E-13
 -1      4216 1.99924E+01 3.23533E-02-1.19791E-04 6.95759E-03 8.57397E-14-3.15189E-15
 -1      4217 1.99901E+01 3.76038E-02 8.12953E-06 9.16365E-03 1.42418E-13 6.80948E-14
 -1      4218 1.99872E+01 4.28876E-02 1.54104E-04 7.34369E-03 2.78367E-14 6.49232E-14
 -1      4219 1.99965E+01 2.35384E-02-8.42407E-05 4.09630E-03 9.30771E-14-2.33369E-13
 -1      4220 1.99950E+01 2.77092E-02-3.47032E-08 5.64562E-03 6.77036E-14-1.25139E-13
 -1      4221 1.99932E+01 3.17130E-02 1.11438E-04 4.37535E-03 1.75548E-13-4.68446E-14
 -1      4222 1.99991E+01 1.66653E-02-5.85938E-05 2.17958E-03-4.72635E-14-4.84561E-13
 -1      4223 1.99982E+01 1.98922E-02 6.71326E-07 3.23361E-03 1.96201E-14-3.38989E-13
 -1      4224 1.99971E+01 2.28828E-02 7.98815E-05 2.42928E-03 8.77779E-14-2.07974E-13
 -1      4225 1.94877E+01-6.82298E-02 1.73612E-02-1.88198E+00-8.63310E-14-8.72475E-14
 -1      4226 2.13600E+01-1.12002E+00 4.48706E-03-1.10052E+00-6.77946E-15-8.62239E-15
 -1      4227 2.10970E+01-8.43610E-01 1.06735E-02-1.06919E+00 1.14440E-14-2.05422E-14
 -1      4228 2.13034E+01-1.31370E+00-3.55718E-02-1.41557E+00-4.28451E-14 1.34528E-15
 -1      4229 2.00012E+01 9.91913E-03-9.26446E-06-6.56124E-04 1.03335E-13-7.26381E-13
 -1      4230 2.00008E+01 1.18842E-02 2.53121E-06-4.86649E-04 4.60733E-14-7.21732E-13
 -1      4231 2.00013E+01 1.00825E-02-3.41837E-05-8.88658E-04-5.28542E-14-6.40260E-13
 -1      4232 2.27917E+01-2.08238E+00 1.67853E-02-1.00868E+00-1.27112E-13 2.93942E-14
 -1      4233 2.20374E+01-1.79347E+00 1.55156E-02 1.22043E+00-8.36995E-14-1.72516E-14
 -1      4234 2.03051E+01 7.97524E-01-4.37767E-04-3.08216E-01 8.00432E-14-2.03452E-13
 -1      4235 2.03043E+01 6.55567E-01 1.30181E-03-4.20864E-01 5.03365E-14-1.83166E-13
 -1      4236 1.94563E+01 4.84598E-01 1.57082E-02-1.17778E+00-1.05050E-13-9.19477E-14
 -1      4237 1.92680E+01 3.03596E-01-1.07278E-02-1.47104E+00-1.09581E-13-9.70842E-14
 -1      4238 1.98726E+01 1.00553E+00 4.27668E-03-5.22595E-01-5.04252E-15-2.09366E-13
 -1      4239 1.97606E+01 1.04550E+00-1.97278E-03-4.97357E-01-9.99049E-15-2.03191E-13
 -1      4240 1.97064E+01 9.72320E-01 3.72304E-04-5.48815E-01-2.56913E-14-1.83726E-13
 -1      4241 1.99286E+01 7.83642E-01 1.29134E-03-6.26844E-01-2.36392E-14-1.98848E-13
 -1      4242 2.03814E+01 4.06891E-01 2.42633E-03-5.30391E-01 2.84617E-14-1.50439E-13
 -1      4243 2.03041E+01 9.64241E-01-8.96158E-04-1.43735E-01 1.02861E-13-1.86333E-13
 -1      4244 1.95923E+01 7.45157E-01 6.28710E-03-7.90490E-01-8.09630E-14-1.30846E-13
 -1      4245 1.94411E+01 6.15334E-01-1.03274E-02-9.73278E-01-8.86354E-14-1.09470E-13
 -1      4246 1.97165E+01 3.31305E-01-4.53885E-03-1.16974E+00-9.35492E-14-1.42285E-13
 -1      4247 2.10185E+01-1.18870E+00-7.68924E-03 1.26894E+00-1.09264E-13-6.85944E-14
 -1      4248 2.00008E+01 1.13100E-02 1.04441E-05 7.47676E-04-4.41949E-14-8.17390E-13
 -1      4249 2.06673E+01-1.02476E+00 1.47084E-02 1.62413E+00-1.21982E-13-6.36925E-15
 -1      4250 1.99997E+01 1.75274E-02 4.82338E-05-2.42753E-03 3.76805E-13-5.50208E-13
 -1      4251 2.00007E+01 1.51736E-02 1.31950E-05-2.86294E-03 5.07024E-13-2.32330E-13
 -1      4252 2.00010E+01 1.30921E-02-3.80667E-05-2.17390E-03 3.54375E-13-2.68585E-13
 -1      4253 2.10640E+01-1.14612E+00 3.34891E-02-1.81473E+00-7.00811E-14-5.93666E-15
 -1      4254 1.89833E+01 1.03866E-01 1.70613E-02 1.79519E+00-2.13397E-13-3.43977E-13
 -1      4255 1.88724E+01 2.97745E-01 7.42493E-03 1.50557E+00-2.04843E-13-3.06617E-13
 -1      4256 1.92319E+01 7.76086E-02-5.00907E-03 1.41827E+00-1.24086E-13-2.64075E-13
 -1      4257 1.95739E+01-3.48884E-01-1.27761E-02 1.75283E+00-2.79249E-13-2.18181E-13
 -1      4258 1.98517E+01-2.77072E-01-1.84598E-02-1.77043E+00-9.55731E-14-4.22318E-14
 -1      4259 2.00003E+01 1.28967E-02-3.44876E-05 1.10882E-03 1.05209E-14-6.85660E-13
 -1      4260 1.99999E+01 1.48228E-02 8.42368E-06 1.62200E-03 3.77795E-14-5.52386E-13
 -1      4261 1.99993E+01 1.70405E-02 4.98825E-05 1.10333E-03 7.62452E-14-6.28706E-13
 -1      4262 2.00004E+01 1.32273E-02 3.00511E-05 2.73690E-04 8.18419E-14-7.92228E-13
 -1      4263 2.02379E+01-7.45633E-01-8.90805E-03 1.57610E+00-1.75790E-13 3.67021E-14
 -1      4264 2.02938E+01 4.13900E-01-1.51030E-03-6.36109E-01-1.46534E-14-1.57761E-13
 -1      4265 2.02014E+01 4.37583E-01 1.60999E-03-7.05284E-01-1.92465E-14-1.79371E-13
 -1      4266 2.04439E+01 1.75474E-01 1.55011E-03-6.50617E-01-4.92960E-15-1.05489E-13
 -1      4267 1.96212E+01 9.00269E-01-4.41485E-03-6.20500E-01-5.65660E-14-1.68151E-13
 -1      4268 1.97712E+01 6.96433E-01-2.55617E-03-7.66564E-01-4.57768E-14-1.63647E-13
 -1      4269 2.08918E+01-5.92719E-01 6.60917E-03-9.66051E-01 1.03001E-14-5.12239E-14
 -1      4270 2.07038E+01-3.55276E-01 2.69673E-03-8.98332E-01 2.29009E-15-5.56078E-14
 -1      4271 2.08005E+01-6.85882E-01-1.32335E-02-1.21782E+00 1.78677E-15-8.90564E-14
 -1      4272 2.00003E+01 1.36151E-02-9.37130E-06-2.08310E-04 1.73274E-14-7.27902E-13
 -1      4273 2.04089E+01-3.83526E-01 1.82791E-02-1.41500E+00-7.47809E-14-6.15032E-14
 -1      4274 2.06821E+01-8.37838E-01 1.41273E-02-1.72773E+00-5.84899E-14-2.31129E-14
 -1      4275 1.97431E+01 6.83297E-02-1.76461E-03 6.31978E-01-4.26009E-14 3.54963E-14
 -1      4276 1.98092E+01-3.01051E-03 6.87510E-03 7.38324E-01-8.76522E-14-2.17675E-14
 -1      4277 2.00016E+01 1.00117E-02-3.13808E-05-1.50565E-03-1.64655E-13-4.41939E-14
 -1      4278 2.00014E+01 1.00454E-02-1.74346E-05-1.24837E-03-1.73805E-13-5.17246E-13
 -1      4279 2.00015E+01 1.17923E-02 4.64842E-05-2.08436E-03 6.29088E-14-1.70077E-13
 -1      4280 1.94217E+01 2.46677E-01-7.13455E-03 7.60056E-01-6.67425E-14-1.63855E-13
 -1      4281 1.94985E+01 2.89413E-01 5.75680E-03 6.16331E-01 3.24285E-14-8.82989E-14
 -1      4282 1.95887E+01 3.14282E-01-3.75809E-03 3.10258E-01-4.55956E-14-1.32900E-13
 -1      4283 1.96537E+01 3.06794E-01 2.51617E-03 2.41329E-01-2.20393E-14-5.98904E-14
 -1      4284 1.96779E+01 2.90424E-01-2.87437E-03 1.85684E-01-1.48593E-14-9.97141E-14
 -1      4285 1.97306E+01 2.74490E-01 1.46902E-03 1.42249E-01-1.36797E-13-1.02931E-13
 -1      4286 1.97126E+01 2.49462E-01 2.04512E-04 2.49790E-01-1.35392E-14-2.64051E-13
 -1      4287 1.97553E+01 2.53914E-01-2.10040E-03 1.05989E-01-2.44521E-13-4.91376E-14
 -1      4288 1.97964E+01 2.34884E-01 7.95904E-04 7.96924E-02-1.70292E-13-1.88671E-13
 -1      4289 1.97707E+01 2.33843E-01 5.43362E-04 1.55299E-01-1.39192E-13-1.12037E-13
 -1      4290 1.98188E+01 2.13889E-01-1.47235E-03 5.67873E-02-2.56395E-13-1.47204E-13
 -1      4291 1.98500E+01 1.94676E-01 3.44747E-04 4.16561E-02-2.05084E-13-1.39328E-13
 -1      4292 1.98235E+01 2.06428E-01 6.43241E-04 9.36865E-02-1.88511E-13 2.16025E-14
 -1      4293 1.98681E+01 1.76046E-01-1.02036E-03 2.81807E-02-1.07824E-13-2.12514E-13
 -1      4294 1.98905E+01 1.59276E-01 1.18333E-04 2.02847E-02-1.18907E-13-3.18988E-13
 -1      4295 1.98672E+01 1.75763E-01 6.25794E-04 5.53369E-02-2.21493E-13-4.72150E-14
 -1      4296 1.99061E+01 1.41999E-01-6.94468E-04 1.17023E-02-8.16963E-15-2.48371E-13
 -1      4297 1.99234E+01 1.26423E-01 1.58218E-05 7.59607E-03 1.63323E-13-3.04040E-13
 -1      4298 1.99028E+01 1.45191E-01 5.02451E-04 3.16070E-02-5.69750E-14-1.15027E-13
 -1      4299 1.99356E+01 1.11657E-01-4.76184E-04 2.72970E-03 1.62869E-13-4.60777E-13
 -1      4300 1.99481E+01 9.85150E-02-4.77622E-05 1.09246E-03 1.19365E-13-3.69786E-13
 -1      4301 1.99315E+01 1.16601E-01 4.28816E-04 1.68808E-02 7.44743E-14-1.27804E-13
 -1      4302 1.99573E+01 8.62926E-02-3.15256E-04-1.53445E-03 2.74902E-13-3.69939E-13
 -1      4303 1.99661E+01 7.54617E-02-7.47665E-05-1.83318E-03 1.62740E-13-2.15339E-13
 -1      4304 1.99534E+01 9.16312E-02 3.46908E-04 8.37787E-03 1.79835E-13-4.32837E-13
 -1      4305 1.99729E+01 6.55667E-02-2.05858E-04-3.15157E-03-5.40353E-14-1.63915E-13
 -1      4306 1.99790E+01 5.68322E-02-7.89144E-05-2.79971E-03 3.75682E-14-2.03153E-13
 -1      4307 1.99696E+01 7.06022E-02 2.70932E-04 3.67230E-03 1.48324E-13-2.92074E-13
 -1      4308 1.99839E+01 4.89741E-02-1.30526E-04-3.38357E-03 1.69446E-13-2.79386E-13
 -1      4309 1.99880E+01 4.20552E-02-7.33702E-05-2.78010E-03 3.38558E-13-3.71218E-13
 -1      4310 1.99813E+01 5.33721E-02 2.05804E-04 1.21137E-03 7.53133E-14-2.17371E-14
 -1      4311 1.99912E+01 3.61985E-02-8.22455E-05-2.98201E-03 4.19407E-13-4.58366E-13
 -1      4312 1.99938E+01 3.10386E-02-5.89262E-05-2.35458E-03 3.54452E-13-3.97376E-13
 -1      4313 1.99893E+01 3.98634E-02 1.51669E-04 4.58692E-05 2.82600E-13-2.92207E-13
 -1      4314 1.99960E+01 2.62435E-02-4.89760E-05-2.36897E-03 2.15756E-13-4.92398E-13
 -1      4315 1.99977E+01 2.20768E-02-3.06110E-05-1.79249E-03 1.94490E-13-4.89450E-13
 -1      4316 1.99947E+01 2.91888E-02 1.04067E-04-4.35965E-04 2.04623E-13-6.16626E-13
 -1      4317 2.02553E+01-5.92773E-01 4.45794E-03 1.29056E+00-1.99698E-13 2.72130E-14
 -1      4318 1.98769E+01-4.47329E-01 2.71944E-03 1.58908E+00-2.15337E-13 5.90782E-14
 -1      4319 1.96142E+01-2.17323E-01-8.64237E-03 1.45215E+00-1.69304E-13-5.79716E-14
 -1      4320 2.00559E+01-3.85568E-01 4.83791E-03 1.15951E+00-1.75811E-13 2.95773E-14
 -1      4321 1.99103E+01 5.87938E-01-4.03374E-04-7.93597E-01-3.87189E-14-1.93567E-13
 -1      4322 2.00789E+01 3.28624E-01-9.51751E-04-8.73274E-01-3.50542E-14-1.56867E-13
 -1      4323 1.97500E+01 1.97766E-01-1.91966E-03 2.92752E-01 2.45210E-14-2.24910E-13
 -1      4324 1.97557E+01 1.86278E-01 3.49288E-03 3.54040E-01-1.02362E-13-1.51563E-13
 -1      4325 1.97884E+01 2.01730E-01-1.65405E-03 1.91739E-01-2.10552E-14-3.57996E-15
 -1      4326 1.97827E+01 2.03903E-01 2.28290E-03 2.35319E-01 3.40258E-14-1.05692E-13
 -1      4327 1.98300E+01 1.87694E-01-1.32811E-03 1.23117E-01-1.68803E-13 6.08353E-14
 -1      4328 1.98191E+01 1.97126E-01 1.42593E-03 1.53285E-01-1.05694E-14 1.34959E-13
 -1      4329 1.98689E+01 1.64966E-01-9.99127E-04 7.76690E-02-3.15065E-13-4.85706E-16
 -1      4330 1.98565E+01 1.77550E-01 8.39341E-04 9.80687E-02-2.13740E-13 4.26361E-14
 -1      4331 1.99015E+01 1.40016E-01-7.23468E-04 4.87080E-02-8.68332E-14-2.51885E-13
 -1      4332 1.98897E+01 1.53339E-01 4.88246E-04 6.23902E-02-2.06969E-13-9.51212E-14
 -1      4333 1.99290E+01 1.14638E-01-5.42943E-04 2.96628E-02-4.76007E-14-3.56122E-13
 -1      4334 1.99188E+01 1.27397E-01 2.78103E-04 3.86457E-02-4.56575E-14-2.10306E-13
 -1      4335 1.99506E+01 9.14902E-02-3.96210E-04 1.77150E-02 1.48729E-13-2.54159E-13
 -1      4336 1.99423E+01 1.02912E-01 1.34981E-04 2.35838E-02-5.20469E-14-3.80900E-13
 -1      4337 1.99671E+01 7.13783E-02-2.85124E-04 1.03391E-02 2.53742E-13-2.77362E-13
 -1      4338 1.99606E+01 8.11641E-02 5.17620E-05 1.41556E-02 3.24883E-13-2.28214E-13
 -1      4339 1.99792E+01 5.45205E-02-2.02708E-04 5.84917E-03 5.38807E-14-5.70525E-14
 -1      4340 1.99743E+01 6.26361E-02 8.30328E-06 8.32530E-03 1.19179E-13-1.48661E-13
 -1      4341 1.99878E+01 4.07846E-02-1.43083E-04 3.15700E-03 6.40252E-14-4.67531E-14
 -1      4342 1.99843E+01 4.73428E-02-1.06647E-05 4.75623E-03 3.16936E-14-4.45801E-14
 -1      4343 1.99936E+01 3.01056E-02-9.90102E-05 1.58436E-03 2.38546E-13-3.60068E-13
 -1      4344 1.99912E+01 3.53182E-02-1.30977E-05 2.62642E-03 2.50278E-13-3.07649E-13
 -1      4345 1.99975E+01 2.15237E-02-7.21522E-05 6.44841E-04 1.05216E-13-5.58147E-13
 -1      4346 1.99959E+01 2.55663E-02-8.78291E-06 1.30981E-03 1.85555E-14-4.87299E-13
 -1      4347 2.00011E+01 1.22605E-02 2.94341E-05-1.36112E-03 5.57189E-14-9.28935E-13
 -1      4348 1.93037E+01 1.53972E-01-7.51228E-03 1.14960E+00-1.14131E-13-1.71875E-13
 -1      4349 1.93804E+01 2.41281E-01 7.62086E-03 9.33137E-01-1.85120E-13-1.69974E-13
 -1      4350 1.95696E+01 9.83905E-02-2.38073E-03 8.81409E-01-1.13636E-13 2.07319E-14
 -1      4351 1.94530E+01-1.15917E-02 1.00298E-03 1.31544E+00-1.11962E-13-9.74461E-14
 -1      4352 1.99995E+01 1.61947E-02-4.24625E-05-1.62004E-04 1.88076E-13-7.49835E-13
 -1      4353 1.99988E+01 1.83765E-02 4.65453E-06 3.58531E-04 1.48163E-13-6.58510E-13
 -1      4354 1.99981E+01 2.09957E-02 5.95630E-05-7.90575E-04 1.20825E-13-7.04216E-13
 -1      4355 2.00002E+01 1.48977E-02 2.32238E-05-9.74982E-04 6.77325E-14-9.39239E-13
 -1      4356 2.01959E+01-1.43547E-01-6.82982E-04-1.26936E+00-5.70767E-14-1.05488E-13
 -1      4357 2.05725E+01-6.74208E-02 6.15950E-03-7.49687E-01-2.47266E-14-5.98301E-14
 -1      4358 1.97583E+01-6.42875E-02-9.98484E-04 9.18908E-01-1.46897E-13-1.42938E-14
 -1      4359 1.98638E+01-1.91652E-01 4.14453E-03 1.05624E+00-1.33994E-13-6.99733E-15
 -1      4360 2.02011E+01 6.81414E-02 9.58237E-03-1.06075E+00-2.42723E-14-1.42499E-13
 -1      4361 2.00002E+01 1.47895E-02-1.50814E-05-1.46607E-03-9.23312E-15-9.52028E-13
 -1      4362 1.94948E+01 3.10082E-01-4.65285E-03 4.98450E-01 8.88017E-14-1.10986E-13
 -1      4363 1.95709E+01 3.19562E-01 4.02375E-03 3.92985E-01 5.13965E-14-1.05014E-13
 -1      4364 1.99990E+01 1.86752E-02-4.00290E-05-1.92300E-03 1.88756E-13-6.36959E-13
 -1      4365 1.96561E+01 2.40449E-01-6.18853E-04 3.90399E-01-2.15217E-14-3.11732E-13
 -1      4366 1.97264E+01 1.61423E-01-1.98390E-03 4.37157E-01-3.51861E-14-1.53623E-13
 -1      4367 1.97526E+01 1.26658E-01 4.80907E-03 5.20505E-01-5.65738E-15-3.20736E-14
 -1      4368 1.96231E+01 1.83388E-01-1.69804E-03 5.90495E-01 4.36404E-14-1.55703E-13
 -1      4369 2.04712E+01-1.05637E-01-5.43293E-03-9.28537E-01-1.40338E-14-1.12178E-13
 -1      4370 2.00008E+01 1.35111E-02-1.71588E-05-1.88403E-03 2.04714E-13-8.96204E-13
 -1      4371 1.96804E+01-1.33733E-01-5.45959E-03 1.19498E+00-8.43964E-14-1.92521E-14
 -1      4372 1.99998E+01 1.63643E-02 6.46768E-06-1.50602E-03 1.28939E-13-8.79035E-13
 -3
    1PSTEP                         3           1           1          
  100CL  101 1.000000000        4372                     0    1           1
 -4  TOSTRAIN    6    1
 -5  EXX         1    4    1    1
 -5  EYY         1    4    2    2
 -5  EZZ         1    4    3    3
 -5  EXY         1    4    1    2
 -5  EYZ         1    4    2    3
 -5  EZX         1    4    3    1
 -1         1 1.56147E-04-6.77197E-06-5.85283E-05-1.15652E-04-8.47838E-18 1.50543E-17
 -1         2 4.10111E-05-1.24630E-04 2.34706E-05 9.06182E-07 1.08436E-17 5.54171E-19
 -1         3 9.52374E-05-2.85708E-05-2.85716E-05 4.32131E-10-3.84825E-18-3.97510E-18
 -1         4 9.52374E-05-2.85708E-05-2.85716E-05-4.08283E-10-1.51803E-18 2.19632E-18
 -1         5 1.42951E-04-2.13760E-05-4.25016E-05 3.83397E-05-1.93388E-19 1.47226E-17
 -1         6 1.45247E-04 2.56858E-10-4.40312E-05-5.37732E-05-8.15269E-19 1.26788E-17
 -1         7 9.04231E-05-3.60209E-07-3.90636E-05-2.86001E-05-1.23984E-19 1.76900E-18
 -1         8 8.55083E-05 7.14076E-08-3.64720E-05-1.95978E-05-1.61333E-19-1.41670E-18
 -1         9 8.31531E-05 6.49265E-08-3.54802E-05-1.48776E-05-1.33500E-19-3.06431E-18
 -1        10 8.19622E-05 3.33630E-08-3.49618E-05-1.13256E-05-6.57178E-20-3.82874E-18
 -1        11 8.12531E-05 1.98631E-08-3.46655E-05-8.37613E-06-5.65394E-20-4.17120E-18
 -1        12 8.08194E-05 1.33672E-08-3.44893E-05-5.84038E-06-3.37920E-20-4.22183E-18
 -1        13 8.05652E-05 1.08613E-08-3.43868E-05-3.48361E-06-1.33904E-20-4.14388E-18
 -1        14 8.04623E-05 9.44035E-09-3.43438E-05-1.23093E-06 3.03096E-20-4.07245E-18
 -1        15 8.04878E-05 8.59550E-09-3.43507E-05 1.01733E-06 4.60533E-20-3.93835E-18
 -1        16 8.06288E-05 8.73695E-09-3.44033E-05 3.34674E-06 3.61312E-20-3.78081E-18
 -1        17 8.08884E-05 1.04303E-08-3.45045E-05 5.83750E-06 7.38308E-20-3.55954E-18
 -1        18 8.12888E-05 1.79782E-08-3.46678E-05 8.52571E-06 1.01075E-19-3.16201E-18
 -1        19 8.19389E-05 3.51235E-08-3.49453E-05 1.16216E-05 1.42381E-19-2.51963E-18
 -1        20 8.30753E-05 7.34034E-08-3.54517E-05 1.52828E-05 1.67580E-19-1.32840E-18
 -1        21 8.53613E-05 1.55620E-07-3.64708E-05 1.99915E-05 2.07497E-19 8.89801E-19
 -1        22 9.18250E-05-1.24115E-07-3.87892E-05 2.76529E-05 3.39872E-20 5.25647E-18
 -1        23 1.13916E-04-3.81363E-05-3.57356E-05-5.02836E-06-5.64097E-19 9.79414E-18
 -1        24 9.36876E-05-2.79719E-05-2.93248E-05 4.11923E-07-1.91118E-19 7.23693E-18
 -1        25 9.03096E-05-2.72147E-05-2.73089E-05 3.83061E-07-1.05107E-19 4.43876E-18
 -1        26 8.97860E-05-2.70319E-05-2.69355E-05 2.06834E-07-4.02969E-20 2.51444E-18
 -1        27 9.07023E-05-2.72786E-05-2.72003E-05 1.51710E-07-5.97034E-20 1.17132E-18
 -1        28 9.24952E-05-2.78022E-05-2.77590E-05 1.15271E-07 1.56089E-20 1.15719E-19
 -1        29 9.52972E-05-2.86340E-05-2.86283E-05 1.12247E-07-2.52431E-20-5.47024E-19
 -1        30 9.92790E-05-2.98262E-05-2.98635E-05 1.36604E-07-4.02895E-20-6.34044E-19
 -1        31 1.04921E-04-3.15150E-05-3.16201E-05 2.06911E-07-1.11276E-19-9.79276E-19
 -1        32 1.12985E-04-3.39233E-05-3.41313E-05 3.52883E-07 2.38724E-20-1.31356E-18
 -1        33 1.24414E-04-3.73149E-05-3.76560E-05 6.47205E-07 1.69158E-20-7.94887E-19
 -1        34 1.39223E-04-4.17286E-05-4.20848E-05 1.01487E-06-1.04389E-19-1.13185E-18
 -1        35 1.58353E-04-4.74903E-05-4.74136E-05 1.46345E-06 1.97795E-19-1.87935E-19
 -1        36 1.76751E-04-5.31896E-05-5.18059E-05 1.30640E-06 6.50528E-20 1.04129E-18
 -1        37 1.82500E-04-5.52376E-05-5.23229E-05-1.16493E-06-1.42752E-19 1.09077E-18
 -1        38 1.63583E-04-4.93415E-05-4.76414E-05-5.80482E-06-5.57692E-19-1.59327E-18
 -1        39 1.24273E-04-3.63875E-05-4.01007E-05-8.33906E-06 1.39092E-19-3.98910E-18
 -1        40 8.29991E-05-2.17812E-05-3.33514E-05-3.66997E-06-2.61336E-19-6.66890E-18
 -1        41 8.55680E-05-2.28859E-05-3.39167E-05 5.00157E-06 1.56436E-19-9.75613E-18
 -1        42 1.30355E-04-3.84552E-05-4.11699E-05 8.38330E-06-1.83611E-19-1.15084E-17
 -1        43 1.72454E-04-5.22534E-05-4.95133E-05 4.15794E-06 2.33688E-19-1.15400E-17
 -1        44 1.84479E-04-5.57696E-05-5.32129E-05-2.16738E-07-3.59043E-19-9.99157E-18
 -1        45 1.73510E-04-5.21418E-05-5.12693E-05-1.48281E-06-1.21943E-19-1.07624E-17
 -1        46 1.54304E-04-4.62586E-05-4.64000E-05-1.34774E-06 4.46491E-19-9.80435E-18
 -1        47 1.36452E-04-4.09063E-05-4.12935E-05-8.68473E-07-3.22829E-19-7.40873E-18
 -1        48 1.22869E-04-3.68664E-05-3.71739E-05-4.86773E-07 9.45103E-20-6.24017E-18
 -1        49 1.13405E-04-3.40499E-05-3.42321E-05-2.54473E-07 3.07387E-19-2.81052E-18
 -1        50 1.07092E-04-3.21582E-05-3.22543E-05-1.18591E-07-1.38755E-19-4.18013E-18
 -1        51 1.03095E-04-3.09621E-05-3.10060E-05-6.34380E-08-1.24084E-19-3.97712E-18
 -1        52 1.00323E-04-3.01216E-05-3.01419E-05-2.74810E-08-1.53650E-19-4.50731E-18
 -1        53 9.85172E-05-2.95738E-05-2.95814E-05-1.03288E-08-3.71537E-19-4.53639E-18
 -1        54 9.73363E-05-2.92146E-05-2.92164E-05-2.35494E-09-2.35444E-19-4.51131E-18
 -1        55 9.65629E-05-2.89781E-05-2.89782E-05 2.45418E-09 7.88309E-19-3.36728E-18
 -1        56 9.60744E-05-2.88296E-05-2.88282E-05 2.39342E-09-2.38706E-19-3.22071E-18
 -1        57 9.57332E-05-2.87249E-05-2.87236E-05 3.05640E-09-4.21086E-20-3.98694E-18
 -1        58 9.55112E-05-2.86568E-05-2.86556E-05 2.98676E-09-1.21163E-19-4.22646E-18
 -1        59 9.53685E-05-2.86130E-05-2.86119E-05 2.71770E-09-5.54376E-21-9.77815E-19
 -1        60 9.52789E-05-2.85854E-05-2.85845E-05 2.37907E-09-3.20991E-19-1.31461E-18
 -1        61 9.52251E-05-2.85687E-05-2.85681E-05 2.18045E-09-2.52443E-19-2.77076E-18
 -1        62 9.51963E-05-2.85598E-05-2.85592E-05 1.72618E-09-5.58153E-19-7.25671E-19
 -1        63 9.51816E-05-2.85551E-05-2.85546E-05 1.48739E-09-3.87631E-20 8.97425E-19
 -1        64 9.51775E-05-2.85537E-05-2.85533E-05 1.24955E-09 1.10750E-18-3.60871E-18
 -1        65 9.51802E-05-2.85543E-05-2.85541E-05 1.05038E-09-3.30895E-19-2.14527E-18
 -1        66 9.51870E-05-2.85563E-05-2.85561E-05 8.85993E-10 3.50509E-19-3.23542E-18
 -1        67 9.51960E-05-2.85589E-05-2.85588E-05 7.65303E-10-2.31706E-19-4.50348E-18
 -1        68 9.52056E-05-2.85617E-05-2.85616E-05 6.54027E-10 1.10621E-18-4.84475E-19
 -1        69 9.52157E-05-2.85647E-05-2.85646E-05 5.74353E-10-1.15180E-19 3.42646E-18
 -1        70 9.52250E-05-2.85675E-05-2.85674E-05 4.86476E-10 7.81925E-19 5.40174E-19
 -1        71 9.52325E-05-2.85698E-05-2.85695E-05 3.18581E-10-4.77831E-19 4.28415E-18
 -1        72 9.52369E-05-2.85711E-05-2.85709E-05-4.47148E-12 7.85858E-19 6.12711E-18
 -1        73 1.02319E-04-3.06260E-05-3.41963E-05-1.95558E-06 1.52439E-19 1.36594E-17
 -1        74 9.31072E-05-2.76797E-05-2.90633E-05-3.45176E-07 1.71061E-19 1.04482E-17
 -1        75 8.99810E-05-2.69643E-05-2.72306E-05-1.33893E-07 1.18532E-19 7.91992E-18
 -1        76 8.92225E-05-2.67916E-05-2.67861E-05-1.05550E-07-3.21107E-20 6.54639E-18
 -1        77 8.95272E-05-2.68792E-05-2.68436E-05-9.01233E-08 4.27793E-20 5.39686E-18
 -1        78 9.02742E-05-2.70927E-05-2.70652E-05-8.10583E-08-4.91698E-20 4.57320E-18
 -1        79 9.11174E-05-2.73386E-05-2.73142E-05-7.47006E-08 8.58504E-20 3.92584E-18
 -1        80 9.18065E-05-2.75416E-05-2.75129E-05-6.77867E-08 8.74599E-20 3.62866E-18
 -1        81 9.21242E-05-2.76356E-05-2.75976E-05-5.67155E-08-1.33554E-19 2.97364E-18
 -1        82 9.18709E-05-2.75607E-05-2.75107E-05-3.76905E-08 1.61958E-19 2.71595E-18
 -1        83 9.08795E-05-2.72664E-05-2.72054E-05-7.48738E-09-1.18246E-19 2.24398E-18
 -1        84 8.90556E-05-2.67239E-05-2.66582E-05 3.48516E-08-1.80660E-20 2.45336E-18
 -1        85 8.64344E-05-2.59422E-05-2.58843E-05 8.57522E-08-7.51946E-20 1.92083E-18
 -1        86 8.32343E-05-2.49848E-05-2.49519E-05 1.35549E-07 1.04197E-19 1.48353E-18
 -1        87 7.98760E-05-2.39762E-05-2.39847E-05 1.69522E-07-3.59683E-20 1.23462E-18
 -1        88 7.69324E-05-2.30877E-05-2.31454E-05 1.72816E-07-2.45818E-19 1.63105E-18
 -1        89 7.49990E-05-2.24997E-05-2.25994E-05 1.37925E-07-7.24279E-21 8.66819E-19
 -1        90 7.45183E-05-2.23480E-05-2.24675E-05 7.03101E-08 1.89469E-19 2.07799E-19
 -1        91 7.56308E-05-2.26777E-05-2.27875E-05-1.21805E-08-1.32934E-19-1.31929E-19
 -1        92 7.81278E-05-2.34270E-05-2.35021E-05-8.68034E-08 1.31915E-19 6.80637E-19
 -1        93 8.15291E-05-2.44508E-05-2.44798E-05-1.35892E-07-1.17998E-19-1.37524E-19
 -1        94 8.52470E-05-2.55708E-05-2.55572E-05-1.53074E-07-1.00931E-19 2.71745E-19
 -1        95 8.87548E-05-2.66269E-05-2.65845E-05-1.42865E-07 3.02590E-19-3.74322E-19
 -1        96 9.16950E-05-2.75110E-05-2.74564E-05-1.15761E-07-8.56955E-20-1.73603E-18
 -1        97 9.39074E-05-2.81752E-05-2.81217E-05-8.27327E-08 1.00433E-19 2.99390E-19
 -1        98 9.53948E-05-2.86209E-05-2.85767E-05-5.18144E-08-2.30822E-19 5.90511E-19
 -1        99 9.62631E-05-2.88805E-05-2.88485E-05-2.72084E-08-2.22145E-19 5.68225E-19
 -1       100 9.66615E-05-2.89992E-05-2.89788E-05-1.00053E-08 2.11738E-19-1.00292E-18
 -1       101 9.67402E-05-2.90222E-05-2.90111E-05 5.74979E-10-1.17730E-19 2.32846E-19
 -1       102 9.66264E-05-2.89878E-05-2.89832E-05 6.09165E-09-2.17247E-19-1.43709E-18
 -1       103 9.64160E-05-2.89245E-05-2.89240E-05 8.18016E-09-9.13507E-20 5.37270E-20
 -1       104 9.61742E-05-2.88520E-05-2.88537E-05 8.20835E-09 1.62580E-20 1.16130E-18
 -1       105 9.59406E-05-2.87820E-05-2.87846E-05 7.17411E-09 4.41909E-19-5.76287E-19
 -1       106 9.57362E-05-2.87208E-05-2.87236E-05 5.73069E-09-4.99416E-19-7.05085E-19
 -1       107 9.55693E-05-2.86708E-05-2.86733E-05 4.26173E-09-3.85158E-19 8.08057E-19
 -1       108 9.54403E-05-2.86321E-05-2.86342E-05 2.96258E-09 7.46848E-19-4.03331E-18
 -1       109 9.53456E-05-2.86038E-05-2.86054E-05 1.90906E-09-4.67340E-19-4.51454E-18
 -1       110 9.52796E-05-2.85840E-05-2.85852E-05 1.10809E-09-5.99709E-19 1.34975E-18
 -1       111 9.52366E-05-2.85711E-05-2.85719E-05 5.31823E-10 4.34337E-19 6.50005E-19
 -1       112 9.52109E-05-2.85634E-05-2.85639E-05 1.38636E-10 1.59265E-19-9.46360E-19
 -1       113 9.51979E-05-2.85595E-05-2.85598E-05-1.14986E-10-2.79968E-20-3.29883E-18
 -1       114 9.51938E-05-2.85582E-05-2.85584E-05-2.68520E-10-4.12013E-19-2.65741E-18
 -1       115 9.51957E-05-2.85588E-05-2.85589E-05-3.55074E-10-1.04662E-19-1.08965E-18
 -1       116 9.52014E-05-2.85605E-05-2.85605E-05-4.01136E-10 7.43837E-19-5.90672E-18
 -1       117 9.52092E-05-2.85628E-05-2.85628E-05-4.26486E-10-5.19970E-19-4.50539E-18
 -1       118 9.52178E-05-2.85654E-05-2.85653E-05-4.42768E-10-5.27412E-19-5.01451E-18
 -1       119 9.52262E-05-2.85679E-05-2.85677E-05-4.50997E-10 2.43613E-19-7.47457E-18
 -1       120 9.52330E-05-2.85699E-05-2.85697E-05-4.06379E-10 7.17660E-21-8.90803E-18
 -1       121 9.52369E-05-2.85712E-05-2.85709E-05-1.24496E-10 1.16588E-18-8.19211E-18
 -1       122 9.52373E-05-2.85716E-05-2.85709E-05-5.29453E-11-5.87545E-18 3.94432E-19
 -1       123 9.52384E-05-2.85754E-05-2.85697E-05-3.15980E-10 6.03808E-19 3.87076E-19
 -1       124 9.52403E-05-2.85816E-05-2.85680E-05-3.92306E-10 5.44917E-18 1.28930E-18
 -1       125 9.52423E-05-2.85884E-05-2.85660E-05-3.61204E-10 3.37027E-18 1.03800E-18
 -1       126 9.52442E-05-2.85948E-05-2.85641E-05-2.91140E-10 3.86634E-18-7.40739E-19
 -1       127 9.52458E-05-2.86000E-05-2.85626E-05-2.16055E-10 1.43603E-18 2.04037E-19
 -1       128 9.52469E-05-2.86038E-05-2.85614E-05-1.37186E-10 4.33308E-18 7.28858E-19
 -1       129 9.52476E-05-2.86060E-05-2.85608E-05-5.85030E-11 4.15036E-18-3.88165E-21
 -1       130 9.52477E-05-2.86063E-05-2.85607E-05 2.33465E-11 1.19006E-17 1.45980E-18
 -1       131 9.52472E-05-2.86048E-05-2.85612E-05 1.11971E-10 1.05118E-17-1.77327E-18
 -1       132 9.52462E-05-2.86013E-05-2.85622E-05 2.11892E-10 3.41038E-18-4.05223E-19
 -1       133 9.52446E-05-2.85962E-05-2.85637E-05 3.05552E-10 2.65219E-18 1.85333E-18
 -1       134 9.52427E-05-2.85895E-05-2.85657E-05 3.93096E-10 2.77454E-18-3.58097E-19
 -1       135 9.52405E-05-2.85823E-05-2.85678E-05 4.38569E-10-3.30952E-21-7.59680E-19
 -1       136 9.52385E-05-2.85756E-05-2.85696E-05 3.23700E-10 1.29965E-18-1.67671E-18
 -1       137 9.52374E-05-2.85717E-05-2.85709E-05 1.56783E-11-6.15288E-18-2.19203E-18
 -1       138 2.62031E-05-8.86822E-05 1.62771E-05-2.32296E-05 1.41383E-17 3.12714E-18
 -1       139 7.42913E-06-2.46229E-05 3.64477E-07-1.10829E-05 1.56862E-17 7.45918E-18
 -1       140 1.44700E-05 2.29749E-05-1.87030E-05 3.38795E-05 1.25471E-17 9.44569E-18
 -1       141 7.20889E-05 3.15589E-05-4.19136E-05 9.50832E-05 8.39367E-18 9.84506E-18
 -1       142 1.71277E-04-8.06473E-06-6.25658E-05 1.25172E-04 3.41185E-18 5.33123E-18
 -1       143 2.69748E-04-6.39650E-05-7.73924E-05 9.82664E-05 3.41566E-19 7.36919E-19
 -1       144 3.26424E-04-9.95273E-05-8.47188E-05 2.39608E-05 2.58874E-20-4.13310E-18
 -1       145 3.09560E-04-8.88732E-05-8.24869E-05-6.28606E-05 1.81163E-18-1.06413E-17
 -1       146 2.22575E-04-3.61338E-05-7.05720E-05-1.18272E-04 6.10594E-18-1.50785E-17
 -1       147 1.15939E-04 1.59074E-05-5.15453E-05-1.13158E-04 1.14320E-17-1.64816E-17
 -1       148 3.94405E-05 3.29239E-05-3.09704E-05-6.69676E-05 1.55774E-17-1.44703E-17
 -1       149 5.93750E-06-1.69973E-06-7.06998E-06-4.72968E-06 1.66302E-17-9.84485E-18
 -1       150 1.72324E-05-6.38632E-05 1.07060E-05 2.30163E-05 1.14265E-17-3.85326E-18
 -1       151 3.73569E-05-1.16648E-04 2.20783E-05 1.17727E-05 7.48142E-19-5.46482E-19
 -1       152 3.85312E-05-1.23636E-04 2.37600E-05-2.16002E-05-8.43809E-18-9.98228E-19
 -1       153 1.95588E-05-8.53026E-05 1.61001E-05-3.95422E-05-1.55320E-17-6.08837E-18
 -1       154 2.88895E-06-2.49162E-05-3.50974E-07-2.05279E-05-1.79626E-17-1.13547E-17
 -1       155 2.65953E-05 1.68698E-05-2.38005E-05 3.81683E-05-1.47909E-17-1.39883E-17
 -1       156 1.12590E-04 9.13934E-06-4.98137E-05 1.01853E-04-8.54826E-18-1.29393E-17
 -1       157 2.48882E-04-4.70938E-05-7.41780E-05 1.22235E-04-3.17256E-18-6.79490E-18
 -1       158 3.65630E-04-1.07781E-04-8.99078E-05 7.03405E-05-1.55596E-19-6.54756E-19
 -1       159 3.87562E-04-1.20150E-04-9.24487E-05-3.79758E-05-7.99202E-19 5.97328E-18
 -1       160 2.92080E-04-6.92790E-05-8.02167E-05-1.13267E-04-3.83537E-18 1.21541E-17
 -1       161 5.18703E-05 1.85540E-05-3.30869E-05-6.24518E-05-1.07158E-17 1.25179E-17
 -1       162 5.75186E-06-7.15513E-06-7.98645E-06 2.88528E-06-1.05667E-17 7.79270E-18
 -1       163 1.10653E-05-6.40195E-05 1.10370E-05 3.85009E-05-8.21071E-18 3.79608E-18
 -1       164 3.31981E-05-1.14482E-04 2.20448E-05 3.20823E-05-1.20797E-18 5.77676E-19
 -1       165 9.53542E-05-1.25317E-05-3.56732E-05-2.17321E-05-1.93567E-18 1.76553E-19
 -1       166 8.97067E-05-8.54851E-06-3.49386E-05-1.65997E-05-1.78803E-18-1.77575E-18
 -1       167 8.67923E-05-6.45144E-06-3.45396E-05-1.27926E-05-1.41555E-18-2.83804E-18
 -1       168 8.51351E-05-5.29600E-06-3.42972E-05-9.65490E-06-9.89780E-19-3.33982E-18
 -1       169 8.41253E-05-4.60505E-06-3.41462E-05-7.00986E-06-6.83822E-19-3.53456E-18
 -1       170 8.35081E-05-4.19343E-06-3.40505E-05-4.60112E-06-3.67437E-19-3.49674E-18
 -1       171 8.32066E-05-4.00281E-06-3.39995E-05-2.34577E-06 1.05372E-20-3.37147E-18
 -1       172 8.31643E-05-3.99113E-06-3.39855E-05-1.35875E-07 3.18099E-19-3.32076E-18
 -1       173 8.33457E-05-4.13295E-06-3.40042E-05 2.11767E-06 5.96808E-19-3.25633E-18
 -1       174 8.37390E-05-4.42141E-06-3.40534E-05 4.49254E-06 8.79157E-19-3.05363E-18
 -1       175 8.43574E-05-4.86722E-06-3.41356E-05 7.01995E-06 1.20632E-18-2.77190E-18
 -1       176 8.53215E-05-5.55584E-06-3.42693E-05 9.87749E-06 1.55879E-18-2.27230E-18
 -1       177 8.68860E-05-6.66781E-06-3.44937E-05 1.31580E-05 1.86700E-18-1.49691E-18
 -1       178 8.97417E-05-8.71942E-06-3.48887E-05 1.70604E-05 2.08258E-18 1.83171E-20
 -1       179 9.61559E-05-1.37742E-05-3.55159E-05 2.14073E-05 1.89939E-18 2.67032E-18
 -1       180 1.05902E-04-2.62342E-05-3.53286E-05 1.83036E-05 1.38403E-18 6.10949E-18
 -1       181 1.04106E-04-2.72599E-05-3.29342E-05-1.20703E-05-1.70299E-18 2.59692E-18
 -1       182 9.81849E-05-2.85171E-05-2.98936E-05-4.39519E-06-1.61050E-18 1.72921E-18
 -1       183 9.49895E-05-2.80127E-05-2.86534E-05-1.15727E-06-1.19650E-18 9.92908E-19
 -1       184 9.40630E-05-2.79333E-05-2.82993E-05 5.23880E-07-9.13977E-19 2.38638E-19
 -1       185 9.43556E-05-2.80665E-05-2.83822E-05 1.62098E-06-7.53929E-19-4.27730E-19
 -1       186 9.56060E-05-2.84147E-05-2.87750E-05 2.66928E-06-4.08417E-19-7.57874E-19
 -1       187 9.77479E-05-2.89676E-05-2.94568E-05 3.88501E-06-1.72894E-19-8.80322E-19
 -1       188 1.00877E-04-2.97472E-05-3.04628E-05 5.50535E-06-6.52149E-20-9.28430E-19
 -1       189 1.05220E-04-3.08171E-05-3.18671E-05 7.76633E-06 8.37901E-20-3.97198E-19
 -1       190 1.11086E-04-3.23060E-05-3.37526E-05 1.08373E-05 2.82260E-19-1.74246E-19
 -1       191 1.18366E-04-3.43322E-05-3.60208E-05 1.43742E-05-9.71408E-20-2.68007E-21
 -1       192 1.27994E-04-3.75966E-05-3.87516E-05 1.76923E-05 4.14173E-19-1.29940E-19
 -1       193 1.39456E-04-4.28992E-05-4.13364E-05 1.76397E-05 9.72070E-19 2.11639E-19
 -1       194 1.51771E-04-5.07500E-05-4.31513E-05 8.65074E-06 2.06623E-19 7.90685E-19
 -1       195 1.61159E-04-5.72754E-05-4.44467E-05-1.05476E-05-8.07289E-19 1.22761E-18
 -1       196 1.64248E-04-5.64296E-05-4.66351E-05-3.13374E-05-2.01170E-18 9.13963E-19
 -1       197 1.57449E-04-4.00982E-05-5.12000E-05-3.15078E-05-2.16173E-18-1.67435E-18
 -1       198 1.53696E-04-2.97861E-05-5.39097E-05-4.24604E-07-2.05046E-18-2.69261E-18
 -1       199 1.58102E-04-4.08043E-05-5.12238E-05 3.32714E-05-1.98894E-18-5.11933E-18
 -1       200 1.64248E-04-5.68053E-05-4.63846E-05 2.94368E-05 9.60059E-20-5.44291E-18
 -1       201 1.59646E-04-5.63025E-05-4.41699E-05 4.53168E-06 7.63944E-19-5.92246E-18
 -1       202 1.49062E-04-4.84403E-05-4.29959E-05-1.24887E-05 5.82825E-19-3.92152E-18
 -1       203 1.37111E-04-4.13572E-05-4.10158E-05-1.79451E-05 5.62152E-19-3.40738E-18
 -1       204 1.26459E-04-3.68699E-05-3.84087E-05-1.63552E-05 1.21157E-18-2.65872E-18
 -1       205 1.17801E-04-3.41367E-05-3.58573E-05-1.25879E-05 7.64229E-19-2.48185E-18
 -1       206 1.11183E-04-3.23913E-05-3.37545E-05-8.95278E-06 1.84110E-18-2.38036E-18
 -1       207 1.06343E-04-3.12206E-05-3.21760E-05-6.12384E-06-8.46427E-19-1.96053E-18
 -1       208 1.03035E-04-3.04409E-05-3.10944E-05-4.19162E-06 1.65946E-19-1.43777E-18
 -1       209 1.00570E-04-2.98612E-05-3.02892E-05-2.79571E-06-9.41183E-20-1.34911E-18
 -1       210 9.88666E-05-2.94575E-05-2.97359E-05-1.85935E-06 3.63468E-19-6.57340E-19
 -1       211 9.76919E-05-2.91753E-05-2.93566E-05-1.23814E-06-8.76590E-19-1.46322E-18
 -1       212 9.68849E-05-2.89788E-05-2.90973E-05-8.25833E-07-1.56947E-19-2.14572E-18
 -1       213 9.63524E-05-2.88473E-05-2.89272E-05-5.62340E-07 1.09112E-19-1.88685E-18
 -1       214 9.59639E-05-2.87502E-05-2.88033E-05-3.75277E-07-6.41108E-19-2.09209E-18
 -1       215 9.56988E-05-2.86835E-05-2.87191E-05-2.48819E-07-5.06065E-19-4.01532E-18
 -1       216 9.55190E-05-2.86381E-05-2.86621E-05-1.63202E-07 8.61246E-19-3.86874E-18
 -1       217 9.53984E-05-2.86076E-05-2.86238E-05-1.04969E-07 2.62268E-19-1.70247E-18
 -1       218 9.53190E-05-2.85877E-05-2.85986E-05-6.52869E-08-6.92830E-19-1.35717E-18
 -1       219 9.52701E-05-2.85756E-05-2.85830E-05-3.94535E-08 1.31400E-19-8.60032E-19
 -1       220 9.52382E-05-2.85678E-05-2.85727E-05-2.09879E-08 2.03457E-18-1.46415E-18
 -1       221 9.52201E-05-2.85637E-05-2.85669E-05-8.64844E-09-2.10207E-18 2.96579E-19
 -1       222 9.52115E-05-2.85620E-05-2.85640E-05-6.22512E-10-6.18739E-19 5.84256E-19
 -1       223 9.52091E-05-2.85618E-05-2.85630E-05 4.41999E-09 5.65082E-19-1.64926E-19
 -1       224 9.52106E-05-2.85627E-05-2.85633E-05 7.38697E-09-1.59526E-19-2.62490E-19
 -1       225 9.52144E-05-2.85641E-05-2.85644E-05 8.83038E-09 1.98939E-18-6.62761E-19
 -1       226 9.52195E-05-2.85659E-05-2.85658E-05 9.25299E-09 1.88794E-18-5.44891E-19
 -1       227 9.52251E-05-2.85678E-05-2.85674E-05 8.71185E-09-1.01294E-18 1.54578E-18
 -1       228 9.52302E-05-2.85697E-05-2.85688E-05 7.15099E-09 7.32729E-19 2.29316E-19
 -1       229 9.52345E-05-2.85715E-05-2.85699E-05 4.47129E-09 1.33536E-18-2.38582E-19
 -1       230 1.00000E-04-2.87132E-05-3.07289E-05 6.90891E-06 1.55110E-18 5.23037E-18
 -1       231 9.51515E-05-2.80108E-05-2.87428E-05 2.48165E-06 1.16228E-18 4.23535E-18
 -1       232 9.30659E-05-2.76954E-05-2.79709E-05 6.79543E-07 7.51262E-19 3.19591E-18
 -1       233 9.23302E-05-2.76019E-05-2.77149E-05-1.53223E-07 6.63913E-19 2.47511E-18
 -1       234 9.22813E-05-2.76542E-05-2.76853E-05-5.12213E-07 4.42678E-19 1.91954E-18
 -1       235 9.25297E-05-2.77777E-05-2.77458E-05-5.79285E-07 2.64106E-19 1.57810E-18
 -1       236 9.28108E-05-2.79050E-05-2.78150E-05-4.24733E-07 1.81335E-19 1.52214E-18
 -1       237 9.29180E-05-2.79775E-05-2.78314E-05-7.81991E-08 1.21636E-19 1.45607E-18
 -1       238 9.26800E-05-2.79419E-05-2.77451E-05 4.37041E-07 3.12764E-19 1.07873E-18
 -1       239 9.19620E-05-2.77507E-05-2.75191E-05 1.07990E-06 1.62649E-20 1.04572E-18
 -1       240 9.06869E-05-2.73696E-05-2.71353E-05 1.77185E-06 2.53385E-19 9.88066E-19
 -1       241 8.88693E-05-2.67910E-05-2.66037E-05 2.38705E-06 3.45148E-19 6.85351E-19
 -1       242 8.66491E-05-2.60503E-05-2.59696E-05 2.76261E-06 7.60183E-20 5.15942E-19
 -1       243 8.43046E-05-2.52371E-05-2.53139E-05 2.73732E-06-1.40424E-19 9.88655E-19
 -1       244 8.22228E-05-2.44906E-05-2.47426E-05 2.21468E-06 1.81122E-19 7.38681E-19
 -1       245 8.08153E-05-2.39697E-05-2.43632E-05 1.22402E-06 7.92093E-19-1.35249E-19
 -1       246 8.04005E-05-2.38032E-05-2.42565E-05-5.93364E-08 4.65832E-19-6.85041E-19
 -1       247 8.10973E-05-2.40415E-05-2.44516E-05-1.35959E-06 7.19250E-20-1.10255E-18
 -1       248 8.27837E-05-2.46362E-05-2.49177E-05-2.39762E-06-1.06996E-19-6.74735E-19
 -1       249 8.51432E-05-2.54605E-05-2.55746E-05-2.99012E-06-1.93889E-19-8.82966E-19
 -1       250 8.77733E-05-2.63583E-05-2.63170E-05-3.09814E-06-1.39585E-19-4.92397E-19
 -1       251 9.03019E-05-2.71936E-05-2.70438E-05-2.80928E-06 4.78846E-19-9.68903E-19
 -1       252 9.24657E-05-2.78798E-05-2.76787E-05-2.27777E-06 2.87363E-21-1.62554E-18
 -1       253 9.41342E-05-2.83835E-05-2.81796E-05-1.66090E-06-5.98933E-19-1.08693E-18
 -1       254 9.52918E-05-2.87119E-05-2.85361E-05-1.07807E-06-2.39684E-19-6.75699E-19
 -1       255 9.59985E-05-2.88952E-05-2.87609E-05-5.97601E-07 3.97005E-20-1.14913E-18
 -1       256 9.63510E-05-2.89713E-05-2.88795E-05-2.43183E-07 3.07227E-19-9.90907E-19
 -1       257 9.64527E-05-2.89762E-05-2.89206E-05-8.56741E-09-1.10573E-18-1.02784E-18
 -1       258 9.63951E-05-2.89394E-05-2.89112E-05 1.27800E-07 4.47558E-19 5.23185E-19
 -1       259 9.62501E-05-2.88825E-05-2.88729E-05 1.91965E-07-4.57230E-19-2.38115E-19
 -1       260 9.60693E-05-2.88200E-05-2.88218E-05 2.08087E-07 4.76755E-20 2.49881E-19
 -1       261 9.58858E-05-2.87604E-05-2.87683E-05 1.95596E-07 9.91125E-19 9.68477E-20
 -1       262 9.57188E-05-2.87085E-05-2.87188E-05 1.68601E-07-5.99117E-19 5.13565E-19
 -1       263 9.55774E-05-2.86658E-05-2.86763E-05 1.36466E-07 2.88727E-20 7.84140E-20
 -1       264 9.54640E-05-2.86324E-05-2.86420E-05 1.04835E-07 2.56940E-18-7.47758E-19
 -1       265 9.53773E-05-2.86074E-05-2.86155E-05 7.66935E-08-1.39803E-18-3.12627E-19
 -1       266 9.53140E-05-2.85896E-05-2.85960E-05 5.32710E-08-1.94467E-18-1.51350E-19
 -1       267 9.52701E-05-2.85775E-05-2.85824E-05 3.47318E-08 6.14418E-19 6.69596E-19
 -1       268 9.52413E-05-2.85698E-05-2.85734E-05 2.06616E-08 5.55126E-19 2.84405E-18
 -1       269 9.52242E-05-2.85654E-05-2.85679E-05 1.03881E-08 9.34523E-19 2.02726E-18
 -1       270 9.52155E-05-2.85634E-05-2.85651E-05 3.17737E-09-1.10589E-19 7.88082E-19
 -1       271 9.52127E-05-2.85630E-05-2.85641E-05-1.65291E-09 1.47638E-19 3.22540E-20
 -1       272 9.52140E-05-2.85637E-05-2.85643E-05-4.67580E-09 2.66050E-18 1.19610E-19
 -1       273 9.52176E-05-2.85651E-05-2.85654E-05-6.32661E-09-6.43620E-19-1.02670E-18
 -1       274 9.52226E-05-2.85668E-05-2.85668E-05-6.88346E-09 4.38825E-19-7.55412E-19
 -1       275 9.52278E-05-2.85685E-05-2.85682E-05-6.46759E-09 1.28302E-18-1.80376E-18
 -1       276 9.52324E-05-2.85702E-05-2.85695E-05-5.02685E-09 7.10250E-19-1.86054E-18
 -1       277 9.52358E-05-2.85715E-05-2.85704E-05-2.51295E-09-6.53820E-19-1.19168E-18
 -1       278 9.52371E-05-2.85738E-05-2.85700E-05-4.12682E-09-6.99420E-19 3.35598E-18
 -1       279 9.52387E-05-2.85775E-05-2.85691E-05-6.06281E-09 1.65595E-18 2.96930E-18
 -1       280 9.52403E-05-2.85818E-05-2.85680E-05-6.64225E-09 2.51495E-18-1.31322E-18
 -1       281 9.52418E-05-2.85860E-05-2.85668E-05-6.21568E-09 1.79689E-18 7.78246E-19
 -1       282 9.52431E-05-2.85896E-05-2.85657E-05-5.17882E-09 5.31969E-19-1.10084E-18
 -1       283 9.52440E-05-2.85926E-05-2.85649E-05-3.75826E-09 5.68260E-19 7.86677E-19
 -1       284 9.52446E-05-2.85945E-05-2.85643E-05-2.12072E-09 1.44709E-18 1.52569E-18
 -1       285 9.52449E-05-2.85953E-05-2.85641E-05-3.47258E-10 2.34417E-18 3.13189E-18
 -1       286 9.52448E-05-2.85950E-05-2.85642E-05 1.50974E-09 3.40424E-19-8.18438E-19
 -1       287 9.52443E-05-2.85934E-05-2.85647E-05 3.37713E-09 1.27270E-18-2.41429E-18
 -1       288 9.52435E-05-2.85907E-05-2.85655E-05 5.08611E-09 6.05323E-19-1.54119E-18
 -1       289 9.52422E-05-2.85870E-05-2.85665E-05 6.45227E-09-7.48196E-20-7.15001E-19
 -1       290 9.52406E-05-2.85826E-05-2.85677E-05 7.09025E-09-1.33542E-18-3.84935E-19
 -1       291 9.52389E-05-2.85780E-05-2.85689E-05 6.54653E-09-6.09781E-19-8.27243E-21
 -1       292 1.44173E-05-5.33987E-05 1.32531E-05 1.54394E-05 4.59314E-18 2.74047E-18
 -1       293 3.11795E-05-4.25051E-05 2.66001E-06 3.20025E-05 4.83021E-18 2.54676E-18
 -1       294 5.81421E-05-3.35652E-05-1.19384E-05 4.22770E-05 6.33835E-18 2.78991E-18
 -1       295 1.04978E-04-3.42689E-05-3.03350E-05 5.06377E-05 3.79915E-18 2.27958E-18
 -1       296 1.46298E-04-2.73049E-05-4.95357E-05 5.49227E-05 4.36603E-18 9.54394E-19
 -1       297 1.88219E-04-3.16932E-05-6.45991E-05 4.17249E-05 2.93216E-18 3.86671E-19
 -1       298 2.04131E-04-2.93036E-05-7.26648E-05 1.44422E-05 2.50277E-18-7.85411E-19
 -1       299 2.26034E-04-3.82807E-05-7.68780E-05-6.88896E-06 3.17150E-18-2.70826E-18
 -1       300 2.02304E-04-3.28107E-05-7.00130E-05-2.79900E-05 3.91319E-18-4.05432E-18
 -1       301 1.67340E-04-3.32204E-05-5.60747E-05-3.90755E-05 4.18200E-18-4.45899E-18
 -1       302 1.22400E-04-2.78294E-05-3.98581E-05-5.39892E-05 5.95994E-18-6.36503E-18
 -1       303 8.63635E-05-3.88651E-05-2.08907E-05-4.84295E-05 4.86684E-18-4.79325E-18
 -1       304 4.22790E-05-4.04235E-05-2.69854E-06-3.59216E-05 4.47170E-18-5.91862E-18
 -1       305 1.90992E-05-4.49956E-05 8.83273E-06-2.51497E-05 1.63446E-18-5.87110E-18
 -1       306 1.13858E-05-5.65344E-05 1.56334E-05-7.70907E-06-1.21787E-18-4.53163E-18
 -1       307 1.62511E-05-5.06468E-05 1.16511E-05 7.58241E-06-3.28829E-18-4.78499E-18
 -1       308 3.66966E-05-4.98150E-05 2.05767E-06 1.77580E-05-5.41296E-18-4.45355E-18
 -1       309 7.61635E-05-4.58794E-05-1.55367E-05 3.18955E-05-5.70328E-18-4.06576E-18
 -1       310 1.33028E-04-4.84791E-05-3.68391E-05 3.77950E-05-5.41699E-18-2.76599E-18
 -1       311 1.93336E-04-5.24581E-05-5.80493E-05 3.09837E-05-4.49298E-18-1.81180E-18
 -1       312 2.34534E-04-5.12803E-05-7.36246E-05 1.19715E-05-2.78568E-18-2.05405E-19
 -1       313 2.52588E-04-4.75803E-05-8.11637E-05 1.96876E-06-2.69166E-18 1.92366E-18
 -1       314 2.47722E-04-5.17566E-05-7.77649E-05-1.05357E-05-3.68184E-18 2.53602E-18
 -1       315 2.11648E-04-5.42279E-05-6.40887E-05-2.48379E-05-4.33374E-18 4.61887E-18
 -1       316 1.55786E-04-5.08028E-05-4.46498E-05-3.54850E-05-3.42710E-18 6.61575E-18
 -1       317 1.01998E-04-5.17589E-05-2.33134E-05-3.45671E-05-1.98057E-18 4.18561E-18
 -1       318 5.11858E-05-4.86320E-05-4.05323E-06-2.48508E-05-1.58501E-18 4.06729E-18
 -1       319 2.17988E-05-5.17994E-05 9.34941E-06-1.01172E-05-1.01432E-19 2.83894E-18
 -1       320 1.15224E-05-5.66164E-05 1.54791E-05 4.39438E-06 2.24464E-18 5.12180E-18
 -1       321 9.52370E-05-2.85740E-05-2.85699E-05 4.48771E-09-1.51431E-18-4.30464E-18
 -1       322 9.19788E-05-1.43673E-05-3.33391E-05-1.20130E-05-1.88990E-18-1.68474E-18
 -1       323 9.62990E-05-1.92504E-05-3.30816E-05-1.37574E-05-2.08940E-18-5.70047E-19
 -1       324 8.75862E-05-9.78212E-06-3.33976E-05-7.43077E-06-1.09322E-18-2.69317E-18
 -1       325 8.64852E-05-8.71047E-06-3.33776E-05-5.26874E-06-7.11873E-19-2.76214E-18
 -1       326 8.58784E-05-8.13730E-06-3.33594E-05-3.22379E-06-1.76060E-19-2.57548E-18
 -1       327 8.56717E-05-7.95268E-06-3.33486E-05-1.21871E-06 2.10232E-19-2.53200E-18
 -1       328 8.57998E-05-8.08894E-06-3.33455E-05 8.19129E-07 5.47554E-19-2.53611E-18
 -1       329 8.62250E-05-8.51477E-06-3.33475E-05 2.94592E-06 8.93718E-19-2.50373E-18
 -1       330 8.69340E-05-9.22845E-06-3.33497E-05 5.16216E-06 1.27223E-18-2.20179E-18
 -1       331 8.80178E-05-1.03383E-05-3.33461E-05 7.56202E-06 1.64480E-18-1.84296E-18
 -1       332 8.96524E-05-1.20519E-05-3.33247E-05 1.00807E-05 1.96197E-18-1.24480E-18
 -1       333 9.22311E-05-1.48494E-05-3.32463E-05 1.25111E-05 2.24650E-18-3.23805E-19
 -1       334 9.63398E-05-1.97588E-05-3.29239E-05 1.37265E-05 2.21070E-18 1.29705E-18
 -1       335 9.92663E-05-2.46288E-05-3.20711E-05 1.13941E-05 1.96606E-18 2.93264E-18
 -1       336 9.69619E-05-2.69888E-05-2.99588E-05 5.25229E-06 1.68520E-18 2.37790E-18
 -1       337 9.73854E-05-2.60300E-05-3.05362E-05-5.47503E-06-1.77287E-18-2.03329E-19
 -1       338 9.62075E-05-2.70615E-05-2.96045E-05-1.49037E-06-1.50410E-18-4.73283E-19
 -1       339 9.56679E-05-2.74143E-05-2.92310E-05 9.78398E-07-1.07992E-18-6.22345E-19
 -1       340 9.56913E-05-2.75592E-05-2.91837E-05 3.00306E-06-7.74532E-19-6.88369E-19
 -1       341 9.62157E-05-2.75735E-05-2.94026E-05 4.93431E-06-3.63333E-19-1.05568E-18
 -1       342 9.71396E-05-2.74618E-05-2.98434E-05 7.14375E-06 2.57419E-20-9.24527E-19
 -1       343 9.83763E-05-2.72048E-05-3.04792E-05 9.95261E-06 4.43521E-19-6.70872E-19
 -1       344 9.98584E-05-2.68452E-05-3.12649E-05 1.36229E-05 3.92638E-19-6.35497E-19
 -1       345 1.01527E-04-2.66522E-05-3.20632E-05 1.79930E-05-2.46806E-19-1.04335E-18
 -1       346 1.03960E-04-2.74914E-05-3.27411E-05 2.31387E-05 1.94155E-19-8.80716E-19
 -1       347 1.08416E-04-3.14852E-05-3.29062E-05 2.74986E-05 9.24338E-19-4.79884E-19
 -1       348 1.18595E-04-4.25453E-05-3.24463E-05 2.77605E-05 1.20817E-18-1.46298E-19
 -1       349 1.37144E-04-6.02096E-05-3.27401E-05 1.99829E-05 6.30510E-19 8.55477E-19
 -1       350 1.87529E-04-6.22028E-05-5.34339E-05 1.90105E-05-1.64393E-18-2.35560E-18
 -1       351 1.60166E-04-7.08076E-05-3.84494E-05-9.46491E-07 1.06943E-18-8.53624E-19
 -1       352 1.36125E-04-5.57300E-05-3.42926E-05-1.95239E-05 1.56646E-18 6.48066E-19
 -1       353 1.19455E-04-3.94528E-05-3.41686E-05-2.63916E-05 6.78593E-19-2.78793E-19
 -1       354 1.11069E-04-3.12750E-05-3.41626E-05-2.49024E-05 1.32457E-18 3.14074E-20
 -1       355 1.06784E-04-2.84585E-05-3.35448E-05-2.01644E-05 5.25448E-19-2.48282E-19
 -1       356 1.04099E-04-2.79233E-05-3.26218E-05-1.50792E-05 1.13685E-18 4.95825E-19
 -1       357 1.02079E-04-2.80769E-05-3.16899E-05-1.07931E-05 5.66963E-19-1.30643E-20
 -1       358 1.00516E-04-2.83051E-05-3.09263E-05-7.66945E-06-3.39260E-20-6.27589E-19
 -1       359 9.91873E-05-2.84877E-05-3.02834E-05-5.28258E-06-2.82656E-19-1.70414E-18
 -1       360 9.81465E-05-2.85895E-05-2.97985E-05-3.61546E-06 8.83677E-19-2.26732E-18
 -1       361 9.73484E-05-2.86331E-05-2.94415E-05-2.46833E-06-5.31937E-19-2.18605E-18
 -1       362 9.67491E-05-2.86430E-05-2.91829E-05-1.68467E-06-7.24557E-19-5.46472E-19
 -1       363 9.63223E-05-2.86352E-05-2.90052E-05-1.17137E-06 6.42627E-19-1.38035E-18
 -1       364 9.59907E-05-2.86211E-05-2.88703E-05-7.98123E-07-1.52391E-18-1.32010E-18
 -1       365 9.57507E-05-2.86058E-05-2.87748E-05-5.41978E-07-1.90714E-18-2.23373E-18
 -1       366 9.55788E-05-2.85922E-05-2.87074E-05-3.65416E-07 9.06415E-19-2.39025E-18
 -1       367 9.54571E-05-2.85815E-05-2.86602E-05-2.43326E-07 2.04296E-18-2.17944E-18
 -1       368 9.53723E-05-2.85736E-05-2.86275E-05-1.58771E-07-9.90641E-19-2.14926E-18
 -1       369 9.53166E-05-2.85685E-05-2.86060E-05-1.02705E-07 2.45164E-19-9.05902E-19
 -1       370 9.52771E-05-2.85652E-05-2.85906E-05-6.16494E-08 6.06534E-19 7.79469E-19
 -1       371 9.52518E-05-2.85635E-05-2.85805E-05-3.36085E-08 1.42175E-18 4.49331E-19
 -1       372 9.52365E-05-2.85631E-05-2.85742E-05-1.47285E-08 1.34410E-19 7.92147E-19
 -1       373 9.52281E-05-2.85634E-05-2.85705E-05-2.30350E-09-1.33618E-18 1.16035E-18
 -1       374 9.52246E-05-2.85644E-05-2.85686E-05 5.57073E-09 1.91786E-19 1.24601E-18
 -1       375 9.52241E-05-2.85656E-05-2.85679E-05 1.00352E-08 1.69607E-19 1.32191E-19
 -1       376 9.52255E-05-2.85672E-05-2.85679E-05 1.24105E-08 1.58198E-18-6.71258E-19
 -1       377 9.52281E-05-2.85688E-05-2.85683E-05 1.29273E-08 1.81190E-19-4.45776E-19
 -1       378 9.52312E-05-2.85707E-05-2.85688E-05 1.18838E-08 1.73886E-19-7.88662E-19
 -1       379 9.52344E-05-2.85727E-05-2.85693E-05 9.35666E-09-1.27731E-18-2.33692E-18
 -1       380 9.51313E-05-2.75483E-05-2.89256E-05 2.05917E-06 1.26766E-18 1.72892E-18
 -1       381 6.81198E-05-4.32234E-05-1.05523E-05 5.24172E-05 5.72065E-19 2.58663E-19
 -1       382 9.41503E-05-2.77700E-05-2.84272E-05 3.87635E-07 9.51693E-19 1.23388E-18
 -1       383 9.37775E-05-2.79587E-05-2.82004E-05-4.32493E-07 7.70228E-19 7.75981E-19
 -1       384 9.37421E-05-2.81430E-05-2.81124E-05-6.98870E-07 4.52001E-19 4.26926E-19
 -1       385 9.38473E-05-2.83346E-05-2.80789E-05-5.61152E-07 1.28331E-19 2.00421E-19
 -1       386 9.39162E-05-2.84978E-05-2.80408E-05-8.80318E-08 2.43742E-19 4.86454E-19
 -1       387 9.37971E-05-2.85838E-05-2.79544E-05 6.71987E-07 4.67062E-19 5.95779E-19
 -1       388 9.33616E-05-2.85333E-05-2.77900E-05 1.64939E-06 1.85689E-19 7.73058E-19
 -1       389 9.25170E-05-2.82848E-05-2.75339E-05 2.72160E-06 4.18344E-19-4.65289E-21
 -1       390 9.12317E-05-2.77920E-05-2.71924E-05 3.69515E-06 2.59981E-19 2.58178E-19
 -1       391 8.95703E-05-2.70536E-05-2.67938E-05 4.31717E-06 6.07398E-19 7.11767E-19
 -1       392 8.77208E-05-2.61447E-05-2.63870E-05 4.33050E-06-2.93030E-19 3.65437E-19
 -1       393 8.59893E-05-2.52290E-05-2.60335E-05 3.56924E-06 5.15768E-19-1.55948E-20
 -1       394 8.47386E-05-2.45278E-05-2.57948E-05 2.05847E-06 1.13708E-18-2.69729E-19
 -1       395 8.42770E-05-2.42421E-05-2.57177E-05 5.57697E-08 9.87091E-19-7.17355E-19
 -1       396 8.47427E-05-2.44654E-05-2.58216E-05-2.01110E-06 3.71215E-19-7.71339E-19
 -1       397 8.60470E-05-2.51381E-05-2.60944E-05-3.69441E-06-3.23385E-19-1.14655E-18
 -1       398 8.79134E-05-2.60772E-05-2.64954E-05-4.68869E-06-9.46940E-20-7.26292E-19
 -1       399 8.99866E-05-2.70607E-05-2.69665E-05-4.91590E-06-3.17210E-19-5.98170E-19
 -1       400 9.19487E-05-2.79112E-05-2.74467E-05-4.50279E-06 8.31223E-19-9.64670E-19
 -1       401 9.35895E-05-2.85366E-05-2.78845E-05-3.68780E-06 6.67427E-20-1.20127E-18
 -1       402 9.48193E-05-2.89254E-05-2.82463E-05-2.71966E-06-1.62219E-18-1.11606E-18
 -1       403 9.56427E-05-2.91164E-05-2.85174E-05-1.79068E-06 1.15413E-19-6.58283E-19
 -1       404 9.61202E-05-2.91672E-05-2.86995E-05-1.01413E-06 4.25907E-20-1.18401E-18
 -1       405 9.63342E-05-2.91328E-05-2.88048E-05-4.32792E-07 4.27365E-19-8.01856E-19
 -1       406 9.63664E-05-2.90556E-05-2.88504E-05-4.10651E-08-6.58793E-19-1.42118E-18
 -1       407 9.62862E-05-2.89640E-05-2.88542E-05 1.92348E-07-6.48059E-19-4.82001E-19
 -1       408 9.61469E-05-2.88748E-05-2.88319E-05 3.07305E-07 2.37440E-19 3.85324E-19
 -1       409 9.59855E-05-2.87964E-05-2.87957E-05 3.41813E-07 3.02707E-20-6.20556E-19
 -1       410 9.58260E-05-2.87317E-05-2.87547E-05 3.27115E-07 5.15682E-19-9.10842E-19
 -1       411 9.56818E-05-2.86809E-05-2.87145E-05 2.86368E-07-1.29363E-18 2.24378E-20
 -1       412 9.55594E-05-2.86425E-05-2.86784E-05 2.35291E-07 2.72957E-19 3.14872E-19
 -1       413 9.54604E-05-2.86144E-05-2.86479E-05 1.83628E-07 1.93248E-18 9.54367E-19
 -1       414 9.53835E-05-2.85946E-05-2.86235E-05 1.36754E-07-4.40797E-19 3.55418E-18
 -1       415 9.53262E-05-2.85812E-05-2.86047E-05 9.70849E-08-1.64092E-18 1.06228E-18
 -1       416 9.52851E-05-2.85726E-05-2.85908E-05 6.51952E-08-5.11122E-19 7.03449E-20
 -1       417 9.52571E-05-2.85675E-05-2.85811E-05 4.06147E-08-3.19638E-19 5.62800E-19
 -1       418 9.52392E-05-2.85648E-05-2.85746E-05 2.23711E-08 1.88047E-18 1.92618E-18
 -1       419 9.52288E-05-2.85639E-05-2.85706E-05 9.33186E-09-2.39481E-19 2.08342E-18
 -1       420 9.52238E-05-2.85640E-05-2.85684E-05 4.06001E-10 8.20531E-19 3.20889E-18
 -1       421 9.52226E-05-2.85649E-05-2.85676E-05-5.34744E-09 2.37062E-18 1.97061E-18
 -1       422 9.52239E-05-2.85662E-05-2.85675E-05-8.66969E-09 7.90566E-19 1.73033E-18
 -1       423 9.52266E-05-2.85678E-05-2.85680E-05-1.00649E-08-7.51042E-19 1.43005E-18
 -1       424 9.52299E-05-2.85696E-05-2.85687E-05-9.81833E-09 2.10537E-18 1.95008E-18
 -1       425 9.52333E-05-2.85714E-05-2.85694E-05-8.04579E-09 3.74753E-19 2.71111E-18
 -1       426 9.52353E-05-2.85727E-05-2.85697E-05-6.34850E-09 1.18460E-20 3.13061E-18
 -1       427 9.52402E-05-2.85798E-05-2.85688E-05-1.01969E-08-6.60302E-19-6.68594E-19
 -1       428 9.52384E-05-2.85770E-05-2.85692E-05-1.02567E-08-4.43126E-19 9.06646E-19
 -1       429 9.52368E-05-2.85749E-05-2.85694E-05-8.86645E-09-1.35970E-19 4.51312E-18
 -1       430 9.52416E-05-2.85821E-05-2.85683E-05-8.99063E-09-1.86630E-18-2.57197E-18
 -1       431 9.52425E-05-2.85840E-05-2.85679E-05-7.04707E-09-1.72956E-18 1.54635E-18
 -1       432 9.52432E-05-2.85854E-05-2.85676E-05-4.66410E-09-4.45322E-19 1.44077E-18
 -1       433 9.52436E-05-2.85862E-05-2.85674E-05-2.00849E-09-1.41550E-18 1.60610E-19
 -1       434 9.52437E-05-2.85865E-05-2.85674E-05 8.27143E-10-3.06132E-18-3.36966E-19
 -1       435 9.52436E-05-2.85861E-05-2.85675E-05 3.75262E-09-2.91845E-18-1.73938E-18
 -1       436 9.52432E-05-2.85850E-05-2.85678E-05 6.55958E-09-1.38931E-18-1.56740E-18
 -1       437 9.52423E-05-2.85833E-05-2.85681E-05 9.05693E-09-9.58711E-22 1.05434E-18
 -1       438 9.52408E-05-2.85808E-05-2.85686E-05 1.07613E-08-6.48322E-19-1.83029E-18
 -1       439 9.52386E-05-2.85777E-05-2.85690E-05 1.11367E-08-1.59067E-18-4.77285E-19
 -1       440 1.04881E-04-5.35199E-05-2.20524E-05 4.81961E-05 1.43191E-18-5.10999E-19
 -1       441 9.43711E-06-2.48469E-05 6.27284E-06 1.22911E-05 4.22961E-19 5.37612E-18
 -1       442 8.93253E-05-1.15422E-05-3.34005E-05-9.73518E-06-1.51892E-18-2.30024E-18
 -1       443 1.44316E-04-5.28150E-05-3.91283E-05 2.76367E-05 2.24824E-18-2.14003E-18
 -1       444 1.58506E-04-4.06689E-05-5.05564E-05 1.27922E-05 2.39896E-18-1.18659E-18
 -1       445 1.67361E-04-2.33342E-05-6.16722E-05 3.71398E-06 2.88796E-18-3.55436E-19
 -1       446 1.65074E-04-1.02091E-05-6.64116E-05 1.64411E-07 3.34154E-18-1.31894E-18
 -1       447 1.66613E-04-1.45107E-05-6.51589E-05 5.13767E-07 3.37839E-18-4.31775E-19
 -1       448 1.62415E-04-2.93342E-05-5.70699E-05-2.37908E-06 2.73883E-18-1.76818E-20
 -1       449 1.50423E-04-5.10170E-05-4.27689E-05-2.04840E-05 1.91453E-18-6.58992E-19
 -1       450 1.28988E-04-5.78973E-05-3.03773E-05-3.73042E-05 6.49039E-19-9.00820E-19
 -1       451 8.32517E-05-4.90113E-05-1.46535E-05-5.17904E-05 1.00585E-20-2.83554E-18
 -1       452 4.60842E-05-3.51314E-05-4.53504E-06-4.66789E-05-3.81906E-19-5.26616E-18
 -1       453 1.25731E-05-2.31487E-05 4.41760E-06-1.98396E-05 2.21552E-19-6.12055E-18
 -1       454 1.16164E-05-2.36708E-05 5.00207E-06 4.72090E-06 8.17890E-19-4.73788E-18
 -1       455 3.95943E-05-3.75389E-05-1.21964E-06 3.13332E-05 2.92438E-19-2.41913E-18
 -1       456 8.14458E-05-5.40501E-05-1.23501E-05 3.82634E-05-3.58507E-19-5.88132E-19
 -1       457 1.36932E-04-7.00521E-05-2.90238E-05 2.52246E-05-1.31618E-18 3.72271E-19
 -1       458 1.75445E-04-6.90638E-05-4.55775E-05 1.22524E-06-3.20946E-18 7.04943E-19
 -1       459 1.88819E-04-5.43905E-05-5.72118E-05-2.24673E-05-3.41158E-18 8.31363E-19
 -1       460 1.83928E-04-3.34082E-05-6.40588E-05-1.64989E-05-2.63364E-18-1.04704E-18
 -1       461 1.88590E-04-3.01048E-05-6.68259E-05 9.36832E-06-2.96843E-18-1.70518E-18
 -1       462 1.92651E-04-4.68200E-05-6.18113E-05 2.24619E-05-3.16134E-18-1.73006E-18
 -1       463 1.56937E-04-7.29055E-05-3.61756E-05-1.37541E-05 1.59200E-18 1.78862E-18
 -1       464 1.05265E-04-6.14518E-05-1.91212E-05-3.63014E-05 1.80111E-18 8.34321E-19
 -1       465 5.35038E-05-4.16991E-05-5.26761E-06-3.59090E-05 1.93431E-18 2.55645E-18
 -1       466 1.85339E-05-2.39784E-05 2.33836E-06-1.60902E-05 1.38596E-18 4.24416E-18
 -1       467 2.56642E-05-2.88883E-05 1.22949E-06 3.71480E-05 5.92288E-19 2.05617E-18
 -1       468 1.60629E-04-7.00806E-05-3.90027E-05-6.87736E-08-1.57890E-18 1.23953E-18
 -1       469 2.95920E-05-1.98570E-05-3.67073E-06 2.31557E-05 2.07332E-18-3.74621E-18
 -1       470 3.42920E-05-2.11558E-05-5.06318E-06-3.80056E-05-7.30407E-19-5.45553E-18
 -1       471 1.48416E-04-1.02620E-05-5.96507E-05-5.79889E-06 3.01724E-18-1.40364E-18
 -1       472 8.84065E-05-1.22287E-05-3.26654E-05-3.63868E-06-4.13272E-19-2.44664E-18
 -1       473 8.93517E-05-1.32917E-05-3.26172E-05-5.19783E-06-7.55125E-19-2.38046E-18
 -1       474 8.79937E-05-1.17661E-05-3.26856E-05-3.69643E-07 3.50085E-19-2.25560E-18
 -1       475 8.83721E-05-1.21840E-05-3.26691E-05 1.39727E-06 6.82714E-19-2.25933E-18
 -1       476 8.90623E-05-1.29696E-05-3.26296E-05 3.22714E-06 1.07233E-18-2.08657E-18
 -1       477 9.00939E-05-1.41883E-05-3.25517E-05 5.14007E-06 1.36874E-18-1.83584E-18
 -1       478 9.15233E-05-1.59587E-05-3.24085E-05 6.98899E-06 1.59209E-18-1.35746E-18
 -1       479 9.34567E-05-1.85131E-05-3.21425E-05 8.48380E-06 1.89255E-18-5.51963E-19
 -1       480 9.58213E-05-2.21110E-05-3.16029E-05 8.86598E-06 2.01114E-18 2.75086E-19
 -1       481 9.69285E-05-2.48357E-05-3.08825E-05 7.45764E-06 1.93590E-18 1.11646E-18
 -1       482 9.59719E-05-2.39630E-05-3.08506E-05-4.45627E-06-1.65846E-18-1.06522E-18
 -1       483 1.31734E-04-6.09446E-05-3.03481E-05 3.02926E-05-6.79373E-19-3.06189E-18
 -1       484 4.78389E-05-2.36532E-05-9.68521E-06-3.17134E-05 1.80804E-18 1.91768E-18
 -1       485 5.61812E-05-2.93577E-05-1.09312E-05 4.70707E-05-1.86501E-18-6.21510E-20
 -1       486 9.58404E-05-2.54850E-05-3.01432E-05-1.05403E-06-1.35292E-18-9.47420E-19
 -1       487 9.54820E-05-2.60814E-05-2.97362E-05 1.70720E-06-9.53582E-19-1.06754E-18
 -1       488 9.50768E-05-2.60462E-05-2.95785E-05 4.04047E-06-7.25349E-19-8.84229E-19
 -1       489 9.45653E-05-2.55045E-05-2.95905E-05 6.31280E-06-2.80928E-19-7.45784E-19
 -1       490 9.37515E-05-2.44414E-05-2.96955E-05 8.82903E-06 2.42605E-19-9.55462E-19
 -1       491 9.23531E-05-2.28274E-05-2.97849E-05 1.18412E-05 7.82703E-20-1.68954E-18
 -1       492 9.02174E-05-2.08842E-05-2.96999E-05 1.53554E-05 2.06628E-19-1.67671E-18
 -1       493 8.70266E-05-1.89842E-05-2.91311E-05 1.98794E-05 2.26323E-19-1.44646E-18
 -1       494 8.33993E-05-1.88794E-05-2.75645E-05 2.54814E-05 9.94777E-19-1.00640E-18
 -1       495 8.18029E-05-2.41350E-05-2.43994E-05 3.24054E-05 1.64965E-18-9.33867E-19
 -1       496 8.70593E-05-3.87719E-05-2.02267E-05 3.75320E-05 1.64933E-18-3.33757E-19
 -1       497 1.42843E-04-1.68829E-05-5.45414E-05 9.81545E-06 2.38503E-18 1.12375E-18
 -1       498 2.12044E-05-9.00055E-06-4.51520E-06-4.63059E-07 1.92604E-19 4.10049E-18
 -1       499 9.60097E-05-2.66529E-05-2.97013E-05 3.45959E-06 1.58570E-18 9.80136E-19
 -1       500 9.45868E-05-3.80427E-05-2.38176E-05-3.44799E-05 5.28072E-19 2.83933E-18
 -1       501 8.85922E-05-2.43902E-05-2.73408E-05-2.92935E-05 7.71796E-19 3.12322E-18
 -1       502 8.92983E-05-2.05493E-05-2.94069E-05-2.33606E-05 3.73836E-19 1.94026E-18
 -1       503 9.17480E-05-2.10755E-05-3.02653E-05-1.78582E-05 5.92770E-19 9.73905E-19
 -1       504 9.38018E-05-2.28152E-05-3.04074E-05-1.33112E-05 7.71281E-19 4.20832E-19
 -1       505 9.50572E-05-2.44638E-05-3.02416E-05-9.86352E-06-9.97666E-19-1.30316E-19
 -1       506 9.57545E-05-2.58344E-05-2.99561E-05-7.08403E-06-6.31048E-19-5.14918E-19
 -1       507 9.60319E-05-2.68012E-05-2.96633E-05-5.03678E-06 3.11034E-19 3.68088E-19
 -1       508 9.60688E-05-2.74440E-05-2.94058E-05-3.55762E-06 5.26690E-19-5.76666E-19
 -1       509 9.59892E-05-2.78580E-05-2.91958E-05-2.50342E-06 8.04038E-20-4.58276E-19
 -1       510 9.58703E-05-2.81083E-05-2.90387E-05-1.78718E-06-1.58473E-18-9.33178E-19
 -1       511 9.57381E-05-2.82752E-05-2.89112E-05-1.24967E-06-9.00886E-19-2.14158E-18
 -1       512 9.56180E-05-2.83790E-05-2.88157E-05-8.70487E-07-1.48748E-18-3.20522E-18
 -1       513 9.55169E-05-2.84438E-05-2.87450E-05-6.02567E-07 2.22948E-19-6.71359E-19
 -1       514 9.54361E-05-2.84847E-05-2.86930E-05-4.13079E-07 1.75302E-18 1.70151E-19
 -1       515 9.53739E-05-2.85109E-05-2.86553E-05-2.79103E-07-1.03366E-18-1.34380E-18
 -1       516 9.53293E-05-2.85274E-05-2.86292E-05-1.88387E-07-1.78395E-19-1.92858E-18
 -1       517 9.52950E-05-2.85394E-05-2.86094E-05-1.20570E-07 2.00092E-18-2.91676E-19
 -1       518 9.52709E-05-2.85477E-05-2.85956E-05-7.31903E-08 1.56411E-18-6.85927E-19
 -1       519 9.52546E-05-2.85538E-05-2.85860E-05-4.04424E-08 1.10753E-18 3.40013E-19
 -1       520 9.52441E-05-2.85584E-05-2.85796E-05-1.81725E-08-5.03225E-19-2.01519E-19
 -1       521 9.52378E-05-2.85620E-05-2.85753E-05-3.41207E-09 6.07255E-19 1.82812E-18
 -1       522 9.52346E-05-2.85647E-05-2.85728E-05 5.60469E-09-1.23218E-18 5.91584E-19
 -1       523 9.52332E-05-2.85672E-05-2.85712E-05 1.12536E-08 2.10219E-18 4.72381E-19
 -1       524 9.52333E-05-2.85694E-05-2.85702E-05 1.39498E-08 3.61274E-19 7.36552E-19
 -1       525 9.52343E-05-2.85717E-05-2.85697E-05 1.43299E-08-1.23379E-18 2.89586E-19
 -1       526 9.52367E-05-2.85745E-05-2.85695E-05 1.34220E-08-2.03577E-18-9.98406E-19
 -1       527 9.54556E-05-2.76995E-05-2.90338E-05 5.01804E-07 1.26568E-18 2.04183E-19
 -1       528 9.55923E-05-2.72180E-05-2.92903E-05 1.70195E-06 1.25323E-18 5.80630E-19
 -1       529 9.53211E-05-2.87583E-05-2.85276E-05-6.73026E-07 3.49027E-19-7.89805E-20
 -1       530 9.54794E-05-2.92072E-05-2.84048E-05-3.92077E-07-5.68177E-20-2.05290E-19
 -1       531 9.56543E-05-2.96083E-05-2.83090E-05 3.48067E-07 1.00274E-19 1.37757E-19
 -1       532 9.57282E-05-2.99004E-05-2.82162E-05 1.47393E-06 2.83784E-19 1.32684E-19
 -1       533 9.55723E-05-2.99793E-05-2.81155E-05 2.86546E-06 7.10199E-19 6.99819E-20
 -1       534 9.50636E-05-2.97189E-05-2.80082E-05 4.31486E-06 4.15425E-19 7.98633E-21
 -1       535 9.41230E-05-2.90171E-05-2.79040E-05 5.50889E-06-1.71111E-19-7.89791E-20
 -1       536 9.27771E-05-2.78698E-05-2.78165E-05 6.06227E-06-1.60746E-19 2.51415E-19
 -1       537 9.12143E-05-2.64417E-05-2.77562E-05 5.62433E-06 3.14930E-19 1.69614E-19
 -1       538 8.97859E-05-2.50786E-05-2.77259E-05 4.04262E-06 8.07189E-19 6.67823E-19
 -1       539 8.89041E-05-2.42015E-05-2.77223E-05 1.50538E-06 1.62031E-18 4.46934E-19
 -1       540 8.88659E-05-2.41181E-05-2.77411E-05-1.45952E-06 7.70168E-19 6.04407E-19
 -1       541 8.97035E-05-2.48612E-05-2.77825E-05-4.15839E-06-1.82621E-19 1.87315E-19
 -1       542 9.11653E-05-2.61671E-05-2.78516E-05-6.01028E-06-2.54588E-19 7.99350E-20
 -1       543 9.28505E-05-2.76231E-05-2.79525E-05-6.75564E-06 3.66574E-19-4.05309E-19
 -1       544 9.43893E-05-2.88630E-05-2.80834E-05-6.48310E-06-1.06886E-19-1.32972E-18
 -1       545 9.55595E-05-2.96887E-05-2.82332E-05-5.50692E-06 4.21348E-19-7.50314E-19
 -1       546 9.63022E-05-3.00790E-05-2.83853E-05-4.19946E-06-4.50439E-19-9.83121E-19
 -1       547 9.66704E-05-3.01261E-05-2.85233E-05-2.86931E-06-8.49760E-19-1.41698E-18
 -1       548 9.67649E-05-2.99594E-05-2.86348E-05-1.71188E-06 2.57240E-19-5.66575E-19
 -1       549 9.66877E-05-2.96953E-05-2.87141E-05-8.14475E-07 3.66751E-21-4.95457E-19
 -1       550 9.65201E-05-2.94153E-05-2.87614E-05-1.86577E-07 4.58050E-19-5.25947E-19
 -1       551 9.63178E-05-2.91651E-05-2.87811E-05 2.06538E-07-1.55028E-18-8.31125E-19
 -1       552 9.61147E-05-2.89639E-05-2.87797E-05 4.17408E-07-7.89230E-19-5.14371E-19
 -1       553 9.59288E-05-2.88137E-05-2.87640E-05 4.99632E-07 2.65363E-19 2.16485E-19
 -1       554 9.57683E-05-2.87085E-05-2.87400E-05 4.99283E-07 4.90208E-19 3.21613E-19
 -1       555 9.56349E-05-2.86388E-05-2.87125E-05 4.51866E-07-1.30342E-18 1.43067E-18
 -1       556 9.55276E-05-2.85953E-05-2.86850E-05 3.82467E-07-3.75656E-19 9.99600E-19
 -1       557 9.54433E-05-2.85701E-05-2.86597E-05 3.07397E-07 3.85637E-20 9.94345E-19
 -1       558 9.53787E-05-2.85569E-05-2.86377E-05 2.36284E-07-1.42150E-19 2.66829E-18
 -1       559 9.53304E-05-2.85514E-05-2.86194E-05 1.74045E-07 6.15324E-19 1.46131E-18
 -1       560 9.52952E-05-2.85503E-05-2.86048E-05 1.22509E-07 3.44034E-19 6.50198E-20
 -1       561 9.52703E-05-2.85516E-05-2.85936E-05 8.16494E-08-4.14484E-19-1.16288E-19
 -1       562 9.52533E-05-2.85542E-05-2.85853E-05 5.04377E-08 4.75594E-19-1.70008E-19
 -1       563 9.52424E-05-2.85571E-05-2.85793E-05 2.74159E-08-4.70099E-19 2.35049E-18
 -1       564 9.52358E-05-2.85601E-05-2.85753E-05 1.10485E-08 6.10077E-19 9.03781E-19
 -1       565 9.52325E-05-2.85629E-05-2.85726E-05-7.34581E-11 2.81898E-18 1.09027E-19
 -1       566 9.52313E-05-2.85654E-05-2.85711E-05-7.12468E-09 1.04435E-18 2.09572E-18
 -1       567 9.52316E-05-2.85678E-05-2.85702E-05-1.10405E-08 3.27828E-19 3.41913E-18
 -1       568 9.52329E-05-2.85702E-05-2.85697E-05-1.25031E-08-2.89366E-19 3.34765E-18
 -1       569 9.52347E-05-2.85726E-05-2.85695E-05-1.17683E-08 1.06576E-18 5.08504E-18
 -1       570 9.52417E-05-2.85772E-05-2.85705E-05-9.35074E-09-5.85278E-20-6.27563E-20
 -1       571 9.52424E-05-2.85778E-05-2.85705E-05-6.82471E-09-1.07581E-18 3.28123E-18
 -1       572 9.52385E-05-2.85750E-05-2.85700E-05-1.24223E-08 1.10305E-18-2.38783E-18
 -1       573 9.52405E-05-2.85764E-05-2.85703E-05-1.12785E-08-1.64367E-19-2.21697E-18
 -1       574 9.52429E-05-2.85782E-05-2.85706E-05-3.97132E-09-1.69968E-18 9.85826E-19
 -1       575 9.52432E-05-2.85785E-05-2.85706E-05-8.78218E-10-2.60295E-18-1.21594E-18
 -1       576 9.52434E-05-2.85788E-05-2.85705E-05 2.40680E-09-1.81307E-18 9.46902E-19
 -1       577 9.52434E-05-2.85789E-05-2.85705E-05 5.73305E-09 1.31049E-19-1.53365E-19
 -1       578 9.52429E-05-2.85786E-05-2.85704E-05 8.98805E-09 4.67751E-19-1.83514E-18
 -1       579 9.52415E-05-2.85778E-05-2.85702E-05 1.17126E-08-2.52463E-18-2.47964E-18
 -1       580 9.52395E-05-2.85764E-05-2.85699E-05 1.32133E-08-3.27481E-18-9.18975E-19
 -1       581 9.80957E-05-5.04590E-05-2.01121E-05 4.72807E-05-1.40348E-18-1.55523E-18
 -1       582 9.49399E-05-2.04178E-05-3.19558E-05-8.32588E-06-1.82820E-18-1.40707E-18
 -1       583 9.52843E-05-2.82734E-05-2.87171E-05-4.20517E-07 8.39440E-19 1.23625E-19
 -1       584 8.79822E-05-1.17574E-05-3.26846E-05-2.04029E-06 6.68349E-20-2.20403E-18
 -1       585 1.47760E-04-5.10728E-05-4.16997E-05 5.45862E-06 1.00188E-18-2.66270E-18
 -1       586 1.47698E-04-4.31470E-05-4.52185E-05 3.92588E-06 1.45623E-18 1.49353E-18
 -1       587 1.40055E-04-6.58592E-06-5.79040E-05 4.50636E-06 2.15782E-18 4.45672E-19
 -1       588 7.50519E-05-4.10735E-05-1.40910E-05 3.86665E-05 1.45086E-18-4.15946E-19
 -1       589 1.42619E-04-5.96121E-05-3.56745E-05-1.81744E-05-2.64685E-19 4.33099E-19
 -1       590 1.13818E-04-5.80388E-05-2.37782E-05-4.20744E-05-1.30554E-18-8.69135E-19
 -1       591 7.54815E-05-4.04864E-05-1.45079E-05-4.98456E-05-2.15618E-18-2.39972E-18
 -1       592 2.13091E-05-9.06416E-06-4.41208E-06-5.96537E-06 1.09494E-18-4.40574E-18
 -1       593 1.47416E-04-3.08021E-05-5.05059E-05-7.90846E-06 1.72080E-18-1.70116E-18
 -1       594 9.13340E-05-4.51666E-05-1.93993E-05-3.81899E-05 1.99873E-18 2.03992E-18
 -1       595 2.60563E-05-1.25233E-05-5.07606E-06 2.54658E-05-1.95688E-18 2.78811E-18
 -1       596 9.08791E-05-1.50783E-05-3.25095E-05-6.68174E-06-1.25334E-18-2.19481E-18
 -1       597 5.85844E-05-2.51679E-05-1.36976E-05 3.35520E-05 2.27198E-18-1.49835E-18
 -1       598 9.89445E-05-5.35483E-05-1.93865E-05 3.67496E-05 9.01614E-19-1.17791E-20
 -1       599 9.26873E-05-1.73368E-05-3.23150E-05-7.73397E-06-1.58254E-18-1.93179E-18
 -1       600 1.30921E-04-4.50547E-06-5.48240E-05-1.96235E-06 2.10244E-18-1.43565E-19
 -1       601 5.72744E-05-2.40660E-05-1.37532E-05-3.95175E-05-1.58783E-18-3.25049E-18
 -1       602 9.07927E-05-1.61531E-05-3.19938E-05 1.47380E-06 8.11569E-19-1.89650E-18
 -1       603 9.01496E-05-1.53981E-05-3.20415E-05 4.17767E-08 4.88830E-19-2.01857E-18
 -1       604 9.28692E-05-1.88808E-05-3.17154E-05 4.31447E-06 1.35856E-18-1.44525E-18
 -1       605 9.42448E-05-2.09620E-05-3.14108E-05 5.32923E-06 1.56232E-18-7.61890E-19
 -1       606 9.56013E-05-2.35190E-05-3.08923E-05 5.53539E-06 1.66643E-18-5.96050E-20
 -1       607 9.61105E-05-2.52623E-05-3.03430E-05 4.67139E-06 1.61368E-18 4.18202E-19
 -1       608 9.47720E-05-2.39513E-05-3.03503E-05-2.76212E-07-1.05157E-18-1.02967E-18
 -1       609 9.42313E-05-2.44153E-05-2.99193E-05 2.13898E-06-7.78241E-19-9.40994E-19
 -1       610 9.31625E-05-2.40295E-05-2.96268E-05 4.21397E-06-2.50857E-19-6.59995E-19
 -1       611 9.14189E-05-2.28475E-05-2.93859E-05 6.11841E-06-2.45962E-19-4.47110E-19
 -1       612 8.86876E-05-2.08409E-05-2.90743E-05 7.99125E-06-2.67397E-19-1.06831E-18
 -1       613 8.47782E-05-1.81652E-05-2.85452E-05 9.83837E-06 7.60060E-21-1.57187E-18
 -1       614 7.87834E-05-1.47321E-05-2.74359E-05 1.19464E-05 5.99832E-20-1.86970E-18
 -1       615 7.03267E-05-1.13433E-05-2.52106E-05 1.45123E-05 7.33631E-19-1.91257E-18
 -1       616 5.93440E-05-9.93099E-06-2.08940E-05 1.82733E-05 1.47293E-18-1.95405E-18
 -1       617 9.72360E-05-3.03578E-05-2.86632E-05-2.79294E-07 5.66381E-20 2.97576E-20
 -1       618 9.05649E-05-1.60109E-05-3.19574E-05-3.38946E-06-3.99315E-19-2.04045E-18
 -1       619 9.47146E-05-2.24896E-05-3.09548E-05-3.06933E-06-1.28615E-18-1.36889E-18
 -1       620 4.47094E-05-9.10175E-06-1.47233E-05-1.73984E-05 1.75607E-18 3.21640E-18
 -1       621 9.52380E-05-2.85713E-05-2.85714E-05-1.25887E-08-7.27215E-19-1.64370E-18
 -1       622 6.90139E-05-1.23187E-05-2.41202E-05-2.07362E-05 7.25034E-19 3.32226E-18
 -1       623 7.74455E-05-1.40822E-05-2.71179E-05-1.58095E-05-6.11982E-19 3.24953E-18
 -1       624 8.38421E-05-1.71541E-05-2.85694E-05-1.22687E-05-6.14802E-19 1.65582E-18
 -1       625 8.81340E-05-2.00787E-05-2.91602E-05-9.60010E-06 9.66354E-21-8.43890E-19
 -1       626 9.11314E-05-2.26227E-05-2.93566E-05-7.30134E-06-1.49010E-18-6.65385E-19
 -1       627 9.29940E-05-2.45158E-05-2.93445E-05-5.47422E-06-4.82042E-20 6.31090E-20
 -1       628 9.40994E-05-2.58485E-05-2.92480E-05-4.05172E-06-7.68297E-19-1.39459E-18
 -1       629 9.47268E-05-2.67571E-05-2.91282E-05-2.97033E-06 1.24435E-19-2.39465E-18
 -1       630 9.50516E-05-2.73397E-05-2.90182E-05-2.19409E-06-1.38606E-18-2.06068E-18
 -1       631 9.52256E-05-2.77509E-05-2.89170E-05-1.58392E-06-1.76609E-18-1.84620E-18
 -1       632 9.53019E-05-2.80218E-05-2.88338E-05-1.13612E-06-1.93897E-18-2.86576E-18
 -1       633 9.53262E-05-2.82006E-05-2.87677E-05-8.08543E-07 2.48716E-20-5.68612E-19
 -1       634 9.53247E-05-2.83193E-05-2.87164E-05-5.69792E-07 1.28675E-18-9.54048E-19
 -1       635 9.53123E-05-2.83987E-05-2.86771E-05-3.96466E-07-1.12537E-18-2.51743E-18
 -1       636 9.52972E-05-2.84501E-05-2.86487E-05-2.76267E-07-6.15745E-19-1.65410E-18
 -1       637 9.52820E-05-2.84875E-05-2.86261E-05-1.84337E-07 2.05475E-18 3.57923E-19
 -1       638 9.52690E-05-2.85134E-05-2.86095E-05-1.18694E-07 1.79990E-18 1.26281E-18
 -1       639 9.52587E-05-2.85315E-05-2.85974E-05-7.22456E-08 1.36705E-18 1.23855E-18
 -1       640 9.52510E-05-2.85442E-05-2.85886E-05-3.98310E-08-5.62457E-19-8.22378E-19
 -1       641 9.52455E-05-2.85533E-05-2.85824E-05-1.76544E-08-3.36492E-19 4.99814E-19
 -1       642 9.52419E-05-2.85595E-05-2.85782E-05-3.49976E-09-1.52068E-18-2.43764E-18
 -1       643 9.52396E-05-2.85644E-05-2.85751E-05 6.06458E-09-5.84020E-19-1.34508E-18
 -1       644 9.52383E-05-2.85682E-05-2.85729E-05 1.15685E-08 1.90294E-18-2.71706E-18
 -1       645 9.52379E-05-2.85714E-05-2.85713E-05 1.39615E-08-1.66296E-18-2.17841E-19
 -1       646 9.52387E-05-2.85737E-05-2.85707E-05 1.40349E-08-3.07976E-18-4.38718E-19
 -1       647 9.77845E-05-3.11083E-05-2.85770E-05 6.71206E-07 1.36793E-19-2.98744E-19
 -1       648 9.67565E-05-2.95281E-05-2.88128E-05-6.98730E-07 3.03383E-19 6.47876E-20
 -1       649 9.82816E-05-3.16679E-05-2.85504E-05 2.08141E-06 4.52513E-19-5.18960E-19
 -1       650 9.85483E-05-3.18428E-05-2.85896E-05 3.80275E-06 4.63958E-19 1.18320E-19
 -1       651 9.83748E-05-3.14009E-05-2.87040E-05 5.55198E-06 1.23574E-19 1.51583E-19
 -1       652 9.75968E-05-3.01740E-05-2.88954E-05 6.88490E-06-4.00928E-19 5.18915E-19
 -1       653 9.62210E-05-2.82112E-05-2.91464E-05 7.25624E-06-3.87861E-20 4.83680E-19
 -1       654 9.45321E-05-2.59031E-05-2.94120E-05 6.20899E-06 3.22331E-19 3.87939E-19
 -1       655 9.30851E-05-2.39606E-05-2.96238E-05 3.65594E-06 1.04823E-18 2.34650E-19
 -1       656 9.24480E-05-2.30910E-05-2.97218E-05 6.91182E-08 8.51607E-19 9.29454E-19
 -1       657 9.29101E-05-2.36529E-05-2.96781E-05-3.63404E-06 6.30630E-19 1.42097E-18
 -1       658 9.42713E-05-2.54014E-05-2.95131E-05-6.48557E-06-9.43475E-20 4.41256E-19
 -1       659 9.59877E-05-2.76591E-05-2.92818E-05-7.91215E-06 5.93171E-19 3.39835E-19
 -1       660 9.74871E-05-2.97013E-05-2.90502E-05-7.89588E-06 3.82446E-19 3.57743E-19
 -1       661 9.84254E-05-3.10729E-05-2.88657E-05-6.83093E-06 8.26458E-19-8.84100E-19
 -1       662 9.87462E-05-3.16722E-05-2.87472E-05-5.24500E-06 5.69200E-19-1.37449E-18
 -1       663 9.85845E-05-3.16454E-05-2.86897E-05-3.58374E-06-1.03001E-18-9.45304E-19
 -1       664 9.81391E-05-3.12322E-05-2.86759E-05-2.12637E-06-7.86624E-19-2.04864E-18
 -1       665 9.75860E-05-3.06553E-05-2.86858E-05-9.95065E-07-6.66879E-19-8.51983E-19
 -1       666 9.70434E-05-3.00711E-05-2.87033E-05-2.03627E-07 3.97982E-19 4.30898E-19
 -1       667 9.65731E-05-2.95660E-05-2.87179E-05 2.92570E-07-4.32767E-19 1.79556E-18
 -1       668 9.61963E-05-2.91726E-05-2.87248E-05 5.60157E-07-1.08238E-18 7.76490E-19
 -1       669 9.59103E-05-2.88906E-05-2.87229E-05 6.66209E-07-5.14929E-19 5.33695E-19
 -1       670 9.57015E-05-2.87034E-05-2.87135E-05 6.67932E-07 5.45933E-19 8.98696E-19
 -1       671 9.55531E-05-2.85889E-05-2.86989E-05 6.09335E-07-2.43278E-19 8.90030E-19
 -1       672 9.54497E-05-2.85262E-05-2.86815E-05 5.21647E-07-5.29682E-19-4.97420E-19
 -1       673 9.53787E-05-2.84977E-05-2.86632E-05 4.25405E-07-1.37437E-20 9.60584E-20
 -1       674 9.53302E-05-2.84904E-05-2.86456E-05 3.32976E-07-1.84792E-20-6.49758E-19
 -1       675 9.52974E-05-2.84948E-05-2.86296E-05 2.50919E-07 9.51914E-19-1.88527E-18
 -1       676 9.52752E-05-2.85049E-05-2.86158E-05 1.81930E-07 7.27061E-19-6.49712E-19
 -1       677 9.52604E-05-2.85169E-05-2.86043E-05 1.26312E-07-3.60147E-19 1.02028E-19
 -1       678 9.52506E-05-2.85287E-05-2.85950E-05 8.30310E-08-6.42287E-19 9.11769E-19
 -1       679 9.52442E-05-2.85392E-05-2.85878E-05 5.04180E-08-1.08815E-18 1.96040E-18
 -1       680 9.52401E-05-2.85480E-05-2.85823E-05 2.66228E-08 1.21972E-18 2.71228E-19
 -1       681 9.52378E-05-2.85551E-05-2.85783E-05 9.87953E-09 3.03548E-18-5.15386E-19
 -1       682 9.52365E-05-2.85608E-05-2.85753E-05-1.33714E-09 6.41007E-19-1.74721E-18
 -1       683 9.52361E-05-2.85653E-05-2.85732E-05-8.26920E-09-1.27213E-18-1.66624E-19
 -1       684 9.52370E-05-2.85682E-05-2.85723E-05-1.11755E-08 9.28035E-19 7.64686E-19
 -1       685 9.52425E-05-2.85705E-05-2.85737E-05-2.63784E-09-1.87223E-18 5.40898E-20
 -1       686 1.30920E-04-5.86726E-05-3.04645E-05-2.29540E-05 1.74838E-18 2.39342E-18
 -1       687 9.52417E-05-2.85710E-05-2.85731E-05-7.88726E-09 2.14425E-18 1.62182E-19
 -1       688 9.52430E-05-2.85709E-05-2.85737E-05 2.92427E-10-1.20628E-18 4.33240E-19
 -1       689 9.52421E-05-2.85706E-05-2.85735E-05-5.35002E-09-1.05725E-18-1.01866E-19
 -1       690 9.52434E-05-2.85717E-05-2.85736E-05 3.44078E-09-1.74720E-18 1.29179E-18
 -1       691 9.52435E-05-2.85727E-05-2.85732E-05 6.84377E-09-1.45833E-18-2.22429E-18
 -1       692 9.52427E-05-2.85735E-05-2.85725E-05 1.01938E-08-2.02188E-18-2.17296E-18
 -1       693 1.19412E-04-5.56233E-05-2.71971E-05 3.00296E-05-2.13765E-18-3.34784E-18
 -1       694 3.90719E-05-9.00581E-06-1.22594E-05 1.65364E-05 1.77179E-18-2.98659E-18
 -1       695 4.78597E-05-1.57380E-05-1.32541E-05 3.29445E-05-2.00986E-18 1.13105E-18
 -1       696 1.26121E-04-1.06513E-05-5.00378E-05 9.28463E-06 2.18810E-18-1.86665E-19
 -1       697 6.44857E-05-2.17412E-05-1.78065E-05-3.12608E-05 1.08891E-18 2.20567E-18
 -1       698 1.35678E-04-5.72526E-05-3.37298E-05 1.11790E-05-1.44971E-18-3.61376E-18
 -1       699 1.32172E-04-1.61320E-05-5.03447E-05-1.13550E-05 2.10054E-18-1.20046E-18
 -1       700 1.00391E-04-4.87346E-05-2.19265E-05-4.12382E-05-1.71185E-18-1.41707E-18
 -1       701 3.71980E-05-8.61147E-06-1.16325E-05-1.87940E-05 4.12333E-20-3.60323E-18
 -1       702 1.39563E-04-5.29341E-05-3.73350E-05-9.40884E-07 3.43611E-20 1.24914E-18
 -1       703 1.29094E-04-5.95544E-05-2.97711E-05-2.36659E-05-8.75991E-19 1.72682E-19
 -1       704 9.17088E-05-1.73033E-05-3.18938E-05 2.94542E-06 1.07962E-18-1.75878E-18
 -1       705 9.40009E-05-2.03264E-05-3.15725E-05-5.38379E-06-1.46855E-18-1.58637E-18
 -1       706 8.18947E-05-3.58734E-05-1.94382E-05 4.20727E-05-2.82335E-18-1.91391E-18
 -1       707 1.31765E-04-2.85550E-05-4.46044E-05 1.37382E-05 1.30160E-18 6.62843E-19
 -1       708 1.39260E-04-4.08903E-05-4.24659E-05-8.03916E-06 1.56357E-19-2.35123E-18
 -1       709 3.55217E-05-5.63395E-06-1.21831E-05 1.04611E-05-9.03109E-19 2.36804E-18
 -1       710 8.98426E-05-1.50712E-05-3.20504E-05-1.26349E-06 1.51372E-19-1.99386E-18
 -1       711 9.64088E-05-2.86418E-05-2.90429E-05-5.36278E-07 6.84227E-19-1.22630E-20
 -1       712 9.17690E-05-1.75182E-05-3.18236E-05-4.18768E-06-7.98390E-19-1.88772E-18
 -1       713 8.99534E-05-1.52435E-05-3.20245E-05-2.40649E-06-1.43948E-19-1.94791E-18
 -1       714 9.59989E-05-2.62768E-05-2.98735E-05 1.95371E-06 1.38500E-18-2.06137E-19
 -1       715 9.52408E-05-2.85715E-05-2.85726E-05-1.02049E-08 2.52874E-18-1.23041E-18
 -1       716 1.28324E-04-2.69735E-05-4.37743E-05-1.34475E-05 8.36948E-19-2.16802E-18
 -1       717 9.52411E-05-2.85740E-05-2.85716E-05 1.25671E-08-1.04136E-18-3.44553E-18
 -1       718 4.33452E-05-5.36732E-06-1.58413E-05 1.68648E-06 8.43438E-19-2.60232E-18
 -1       719 1.19438E-04-6.94545E-06-4.86773E-05 3.16901E-06 2.10784E-18-5.65337E-19
 -1       720 8.11729E-05-3.45136E-05-1.97099E-05-3.94241E-05-1.50379E-18-1.95268E-18
 -1       721 9.61948E-05-2.76252E-05-2.93852E-05 2.76860E-07 1.04450E-18 4.80066E-20
 -1       722 9.57048E-05-2.46565E-05-3.04470E-05 3.15157E-06 1.51564E-18-4.50683E-19
 -1       723 9.49113E-05-2.28351E-05-3.08892E-05 2.89916E-06 1.24567E-18-7.99183E-19
 -1       724 9.34793E-05-2.26768E-05-3.03485E-05 6.38676E-08-7.17624E-19-7.27890E-19
 -1       725 1.00269E-04-3.29499E-05-2.88517E-05 6.16955E-07 5.31033E-19-3.83845E-19
 -1       726 9.25424E-05-2.28594E-05-2.98638E-05 1.83112E-06-4.91624E-19-6.05741E-19
 -1       727 9.07855E-05-2.21506E-05-2.94151E-05 3.10199E-06-1.75962E-19-7.58420E-19
 -1       728 8.79610E-05-2.05250E-05-2.89010E-05 3.90833E-06-5.62503E-19-1.08740E-18
 -1       729 8.39708E-05-1.81476E-05-2.82107E-05 4.18353E-06-5.39992E-19-1.45534E-18
 -1       730 7.79111E-05-1.48445E-05-2.70238E-05 3.80323E-06-3.11471E-19-1.59586E-18
 -1       731 6.92116E-05-1.09525E-05-2.49287E-05 2.54291E-06 3.46635E-19-1.64844E-18
 -1       732 9.35557E-05-2.14146E-05-3.09167E-05-1.95692E-06-8.22695E-19-1.15622E-18
 -1       733 9.91554E-05-3.17839E-05-2.88740E-05-4.89698E-07 2.62131E-19-2.65642E-19
 -1       734 7.29202E-05-1.20713E-05-2.60627E-05-5.43285E-06-1.09141E-18-3.51848E-19
 -1       735 8.01352E-05-1.57840E-05-2.75763E-05-5.31369E-06-1.86254E-18 1.24543E-19
 -1       736 8.54715E-05-1.92284E-05-2.83903E-05-4.81475E-06-9.10436E-19 2.62622E-19
 -1       737 8.90219E-05-2.19067E-05-2.87636E-05-4.14772E-06-3.13188E-19 1.12055E-19
 -1       738 9.13500E-05-2.38973E-05-2.89080E-05-3.41953E-06-1.29994E-18 1.94336E-20
 -1       739 9.28460E-05-2.53266E-05-2.89366E-05-2.73206E-06-1.20496E-18-5.88482E-19
 -1       740 9.37545E-05-2.62895E-05-2.89133E-05-2.15726E-06-4.38923E-21-8.12281E-19
 -1       741 9.43561E-05-2.69992E-05-2.88671E-05-1.65072E-06-1.93298E-18-1.00390E-18
 -1       742 9.47245E-05-2.74870E-05-2.88160E-05-1.24393E-06-1.83427E-18-1.28342E-18
 -1       743 9.49466E-05-2.78217E-05-2.87677E-05-9.23961E-07 9.39335E-19-1.75030E-19
 -1       744 9.50784E-05-2.80517E-05-2.87257E-05-6.76633E-07 3.61391E-19 8.44025E-19
 -1       745 9.51552E-05-2.82103E-05-2.86906E-05-4.88182E-07-1.06053E-18-4.00475E-19
 -1       746 9.51972E-05-2.83158E-05-2.86635E-05-3.52052E-07-8.41518E-19-2.14597E-19
 -1       747 9.52221E-05-2.83940E-05-2.86406E-05-2.44263E-07 1.80370E-18 7.34256E-21
 -1       748 9.52352E-05-2.84489E-05-2.86227E-05-1.64815E-07 1.58167E-18-9.48373E-19
 -1       749 9.52416E-05-2.84875E-05-2.86089E-05-1.06911E-07 1.81564E-18-1.36879E-18
 -1       750 9.52442E-05-2.85147E-05-2.85984E-05-6.53148E-08 4.51456E-21-6.19151E-19
 -1       751 9.52448E-05-2.85339E-05-2.85904E-05-3.59783E-08-6.00439E-19-1.63713E-18
 -1       752 9.52444E-05-2.85469E-05-2.85846E-05-1.65594E-08-1.99715E-18-1.35261E-18
 -1       753 9.52435E-05-2.85567E-05-2.85800E-05-2.76087E-09-1.18229E-18-6.20686E-19
 -1       754 9.52424E-05-2.85638E-05-2.85766E-05 5.93114E-09 1.30592E-19-6.87345E-19
 -1       755 9.52415E-05-2.85691E-05-2.85739E-05 1.08302E-08 6.95727E-19-3.35916E-18
 -1       756 9.52435E-05-2.85671E-05-2.85756E-05 6.41351E-09-2.01820E-18-3.66428E-18
 -1       757 5.16891E-05-9.43527E-06-1.78295E-05 1.84309E-05-1.99226E-18 5.68227E-19
 -1       758 9.81813E-05-3.05068E-05-2.90038E-05-1.00094E-06 1.64529E-19-3.17495E-19
 -1       759 1.02143E-04-3.39951E-05-2.92067E-05 4.36949E-06 1.43220E-19-1.09480E-19
 -1       760 1.02260E-04-3.31434E-05-2.96215E-05 6.49906E-06-4.11773E-19 2.74817E-19
 -1       761 1.01426E-04-3.10014E-05-3.01813E-05 8.03409E-06-1.33018E-19-2.26975E-19
 -1       762 9.96797E-05-2.77773E-05-3.08167E-05 8.17220E-06 2.83173E-19 5.30424E-20
 -1       763 9.75592E-05-2.43062E-05-3.13985E-05 6.26876E-06 6.73893E-19-3.69725E-20
 -1       764 9.60071E-05-2.18972E-05-3.17607E-05 2.48201E-06 7.50568E-19 3.58659E-19
 -1       765 9.58592E-05-2.16514E-05-3.17987E-05-2.21842E-06 6.86202E-19 1.02961E-19
 -1       766 9.71321E-05-2.36117E-05-3.15080E-05-6.32065E-06 4.87703E-19 1.79944E-19
 -1       767 9.91597E-05-2.68852E-05-3.09736E-05-8.66896E-06 9.62202E-20 1.72897E-19
 -1       768 1.00986E-04-3.01686E-05-3.03488E-05-8.98793E-06 5.15398E-19 3.54715E-19
 -1       769 1.01963E-04-3.25005E-05-2.97691E-05-7.77516E-06 5.67908E-19 7.12012E-19
 -1       770 1.01966E-04-3.35711E-05-2.93123E-05-5.81998E-06 5.89018E-19 1.28767E-18
 -1       771 1.01236E-04-3.35744E-05-2.89985E-05-3.78298E-06-1.88291E-19 1.75313E-18
 -1       772 1.00129E-04-3.29069E-05-2.88102E-05-2.04901E-06-1.37038E-20 1.09283E-18
 -1       773 9.89496E-05-3.19520E-05-2.87138E-05-7.58726E-07-6.62767E-19 2.41586E-19
 -1       774 9.78878E-05-3.09799E-05-2.86752E-05 9.85913E-08-1.43580E-18-6.24589E-19
 -1       775 9.70288E-05-3.01395E-05-2.86671E-05 6.01389E-07-5.48726E-19-1.46322E-19
 -1       776 9.63863E-05-2.94872E-05-2.86712E-05 8.44407E-07-1.01244E-18 2.98617E-19
 -1       777 9.59351E-05-2.90225E-05-2.86769E-05 9.13209E-07 5.79914E-19 4.03797E-19
 -1       778 9.56356E-05-2.87176E-05-2.86791E-05 8.75384E-07-4.41590E-19-6.58347E-19
 -1       779 9.54472E-05-2.85352E-05-2.86766E-05 7.79926E-07-8.93763E-20-3.93783E-19
 -1       780 9.53355E-05-2.84398E-05-2.86696E-05 6.59936E-07-2.48317E-20 4.67883E-19
 -1       781 9.52737E-05-2.84016E-05-2.86595E-05 5.36271E-07-4.27540E-19 1.43462E-19
 -1       782 9.52427E-05-2.83981E-05-2.86477E-05 4.20957E-07 3.20401E-19-8.21403E-20
 -1       783 9.52295E-05-2.84135E-05-2.86354E-05 3.20008E-07 1.26978E-18 1.53829E-20
 -1       784 9.52259E-05-2.84374E-05-2.86236E-05 2.35555E-07 1.59220E-19 7.78329E-20
 -1       785 9.52269E-05-2.84634E-05-2.86129E-05 1.67390E-07-3.51630E-19 4.02681E-19
 -1       786 9.52295E-05-2.84879E-05-2.86036E-05 1.14028E-07-2.10246E-18 1.65239E-18
 -1       787 9.52324E-05-2.85091E-05-2.85957E-05 7.34062E-08-6.12428E-19 1.27957E-18
 -1       788 9.52348E-05-2.85266E-05-2.85892E-05 4.33259E-08 9.40673E-19-4.09722E-19
 -1       789 9.52366E-05-2.85405E-05-2.85840E-05 2.17048E-08 1.28564E-18 6.37894E-19
 -1       790 9.52377E-05-2.85512E-05-2.85800E-05 6.71954E-09 2.04777E-18 2.04256E-18
 -1       791 9.52384E-05-2.85593E-05-2.85767E-05-3.02862E-09-1.19269E-19 2.25611E-18
 -1       792 9.52416E-05-2.85617E-05-2.85771E-05-1.61801E-09-3.02030E-19-8.57347E-19
 -1       793 1.01360E-04-3.38000E-05-2.89548E-05 2.28671E-06 9.90832E-20-5.44583E-19
 -1       794 1.02096E-04-4.32097E-05-2.51353E-05 3.02782E-05-2.26164E-18-2.68997E-18
 -1       795 9.27940E-05-1.87471E-05-3.17340E-05-4.83492E-06-1.24117E-18-1.74632E-18
 -1       796 1.13745E-04-5.12801E-05-2.67257E-05-2.73517E-05-1.30226E-18-4.78914E-19
 -1       797 9.52433E-05-2.85648E-05-2.85765E-05 3.26735E-09-3.56491E-18 2.57158E-19
 -1       798 1.24376E-04-5.31874E-05-3.05006E-05 1.31968E-05-1.54735E-18-2.58339E-18
 -1       799 1.18131E-04-1.80795E-05-4.31566E-05 1.14090E-05 1.18063E-18-8.01106E-20
 -1       800 7.18923E-05-2.38916E-05-2.04163E-05 3.22166E-05-2.72291E-18-1.88366E-18
 -1       801 6.20209E-05-7.98759E-06-2.30376E-05-5.28530E-06-8.11985E-19 2.77278E-19
 -1       802 5.64243E-05-1.52069E-05-1.73232E-05-2.64522E-05-4.60038E-19-3.01099E-18
 -1       803 1.19977E-04-9.14861E-06-4.79639E-05-6.80669E-06 1.61977E-18-4.50390E-19
 -1       804 1.30115E-04-5.46443E-05-3.23896E-05-8.23881E-06-6.09736E-19 5.12915E-19
 -1       805 1.31137E-04-4.67093E-05-3.62632E-05-4.21096E-06-1.16199E-18-2.50004E-18
 -1       806 1.28947E-04-4.06587E-05-3.79423E-05 9.64267E-06 8.84534E-19 3.14348E-19
 -1       807 9.21249E-05-1.88187E-05-3.14183E-05-2.77296E-08 5.16728E-19-1.68182E-18
 -1       808 9.52425E-05-2.85629E-05-2.85770E-05 5.58353E-10-1.49570E-18 5.78513E-19
 -1       809 4.93601E-05-5.23164E-06-1.86043E-05 4.25503E-07-6.47567E-19 8.33851E-19
 -1       810 9.39210E-05-2.12033E-05-3.11661E-05 2.11215E-06 1.00044E-18-1.40576E-18
 -1       811 9.74016E-05-2.91876E-05-2.92350E-05-9.19473E-07 5.74287E-19-2.14821E-19
 -1       812 5.68465E-05-7.14390E-06-2.11347E-05 6.51806E-07 9.78028E-19-1.82040E-18
 -1       813 9.21842E-05-1.92647E-05-3.12545E-05-2.39500E-06-4.55719E-19-1.66465E-18
 -1       814 9.15057E-05-1.81301E-05-3.14478E-05-9.99964E-07 2.87799E-19-1.68453E-18
 -1       815 9.60977E-05-2.58755E-05-3.00946E-05 1.27960E-06 1.02483E-18-4.04016E-19
 -1       816 9.52426E-05-2.85692E-05-2.85743E-05 9.44754E-09-5.55809E-19-1.83258E-19
 -1       817 9.52391E-05-2.85639E-05-2.85751E-05-7.49242E-09-6.26515E-19 1.82297E-18
 -1       818 9.52409E-05-2.85629E-05-2.85763E-05-5.30373E-09 1.56385E-18-1.16207E-18
 -1       819 9.52403E-05-2.85667E-05-2.85744E-05-8.95828E-09 2.00742E-18-1.03369E-18
 -1       820 5.31813E-05-8.74164E-06-1.87880E-05-1.22782E-05 1.85692E-19-2.86402E-18
 -1       821 9.52408E-05-2.85647E-05-2.85755E-05-7.08171E-09 2.17102E-18-3.38553E-19
 -1       822 9.52412E-05-2.85618E-05-2.85769E-05-3.48650E-09 4.98435E-19-8.71660E-19
 -1       823 9.14378E-05-1.82371E-05-3.13727E-05-2.16067E-06-1.84154E-19-1.89284E-18
 -1       824 1.17783E-04-1.70190E-05-4.34014E-05-1.15795E-05 5.25346E-19-1.06227E-18
 -1       825 1.19017E-04-2.98631E-05-3.82979E-05 1.26930E-05 6.60510E-19 9.25946E-20
 -1       826 9.29638E-05-1.98606E-05-3.13315E-05 1.06315E-06 7.29088E-19-1.66597E-18
 -1       827 9.91735E-05-4.15346E-05-2.46060E-05-3.07321E-05-1.30769E-18-1.27142E-18
 -1       828 1.12497E-04-1.30347E-05-4.27968E-05 7.72897E-06 1.02107E-18 4.27831E-19
 -1       829 1.24656E-04-3.66186E-05-3.78667E-05-1.10536E-05-3.35385E-19-1.97716E-18
 -1       830 9.67602E-05-2.77482E-05-2.95762E-05-2.37727E-07 8.15395E-19-2.59733E-19
 -1       831 9.23010E-05-2.17943E-05-3.02144E-05-1.44131E-07-4.46686E-19-1.05379E-18
 -1       832 9.10764E-05-2.18930E-05-2.96529E-05 5.65187E-07-5.21663E-19-8.89524E-19
 -1       833 8.89162E-05-2.11234E-05-2.90547E-05 6.20523E-07-5.61571E-19-1.21395E-18
 -1       834 8.58297E-05-1.96756E-05-2.83526E-05-1.19961E-07-8.84120E-19-1.34033E-18
 -1       835 8.12619E-05-1.75469E-05-2.73057E-05-2.04113E-06-3.72407E-19-1.17370E-18
 -1       836 7.50080E-05-1.50734E-05-2.56702E-05-5.61301E-06-6.95204E-20-1.48137E-18
 -1       837 7.50770E-05-1.41839E-05-2.60453E-05 2.71915E-06-1.00776E-18-2.12758E-18
 -1       838 1.01184E-04-3.34349E-05-2.90358E-05-1.24024E-06 3.36590E-19-1.03474E-18
 -1       839 9.12429E-05-1.79009E-05-3.14321E-05-1.72076E-06-1.21176E-20-1.82939E-18
 -1       840 7.70382E-05-2.58092E-05-2.18291E-05-2.91515E-05-4.86879E-19-2.02798E-18
 -1       841 8.15015E-05-1.75824E-05-2.73950E-05 3.16690E-07-8.35854E-19-1.01912E-18
 -1       842 8.58599E-05-2.02740E-05-2.81092E-05-9.21699E-07-7.55670E-19-1.52726E-18
 -1       843 8.89332E-05-2.24621E-05-2.84879E-05-1.44793E-06-4.09453E-19-1.92200E-18
 -1       844 9.10446E-05-2.41400E-05-2.86736E-05-1.56730E-06-1.64578E-18-1.39530E-18
 -1       845 9.24186E-05-2.53361E-05-2.87496E-05-1.47775E-06-1.17379E-18-1.38544E-18
 -1       846 9.33969E-05-2.62621E-05-2.87722E-05-1.28604E-06-4.98448E-19-2.02385E-18
 -1       847 9.40448E-05-2.69277E-05-2.87645E-05-1.06507E-06-1.45238E-18-6.53086E-19
 -1       848 9.44709E-05-2.74031E-05-2.87434E-05-8.50765E-07 8.82498E-19-1.89852E-19
 -1       849 9.47494E-05-2.77416E-05-2.87176E-05-6.60524E-07 9.52421E-19-8.19103E-19
 -1       850 9.49305E-05-2.79825E-05-2.86920E-05-5.00546E-07-1.13203E-18-1.86551E-18
 -1       851 9.50432E-05-2.81471E-05-2.86698E-05-3.76191E-07-1.38912E-19-2.55972E-19
 -1       852 9.51206E-05-2.82721E-05-2.86493E-05-2.71891E-07 8.25152E-19 1.12035E-18
 -1       853 9.51701E-05-2.83617E-05-2.86322E-05-1.91314E-07 6.70517E-19 9.31641E-19
 -1       854 9.52014E-05-2.84258E-05-2.86181E-05-1.30198E-07 8.29119E-19-4.83597E-20
 -1       855 9.52207E-05-2.84717E-05-2.86067E-05-8.47359E-08 2.07603E-18-1.57818E-18
 -1       856 9.52323E-05-2.85045E-05-2.85976E-05-5.16243E-08-1.20246E-18-1.38677E-18
 -1       857 9.52386E-05-2.85268E-05-2.85908E-05-2.89931E-08-2.90537E-20-6.34870E-19
 -1       858 9.52420E-05-2.85436E-05-2.85850E-05-1.22871E-08-1.33510E-18 8.40769E-19
 -1       859 9.52433E-05-2.85556E-05-2.85805E-05-1.16899E-09-1.51685E-19 2.73853E-18
 -1       860 1.06714E-04-3.48877E-05-3.07839E-05 7.27681E-06-9.84076E-20 2.63218E-19
 -1       861 1.06333E-04-3.64286E-05-2.99601E-05 4.52267E-06-3.25725E-19-5.94648E-20
 -1       862 1.03105E-04-2.63763E-05-3.28616E-05 8.93130E-06 3.66486E-19 4.59888E-20
 -1       863 1.00140E-04-2.13499E-05-3.37726E-05 5.80765E-06 7.44097E-19-1.49654E-19
 -1       864 9.90114E-05-1.92870E-05-3.41572E-05 3.36876E-07 2.35141E-19 5.12356E-21
 -1       865 9.98597E-05-2.06631E-05-3.39451E-05-5.42553E-06 6.56736E-19-1.30987E-19
 -1       866 1.02324E-04-2.50032E-05-3.31414E-05-9.16693E-06 2.83767E-19-1.06371E-19
 -1       867 1.04843E-04-3.00540E-05-3.20531E-05-1.00055E-05 9.05039E-20 3.40587E-20
 -1       868 1.06169E-04-3.39134E-05-3.09679E-05-8.51036E-06 2.91510E-19 7.57333E-19
 -1       869 1.05932E-04-3.57726E-05-3.00702E-05-5.94621E-06 2.35569E-19 1.06525E-18
 -1       870 1.04550E-04-3.59006E-05-2.94229E-05-3.35896E-06 2.57398E-19 1.63570E-18
 -1       871 1.02620E-04-3.49346E-05-2.90088E-05-1.29852E-06-1.40726E-19 1.56888E-18
 -1       872 1.00650E-04-3.35091E-05-2.87748E-05 9.17670E-08-5.04350E-19 2.15950E-18
 -1       873 9.89345E-05-3.20574E-05-2.86617E-05 8.99073E-07-6.39048E-19 2.26524E-18
 -1       874 9.75898E-05-3.08091E-05-2.86202E-05 1.27785E-06-8.07051E-19 1.78278E-18
 -1       875 9.66166E-05-2.98468E-05-2.86155E-05 1.37758E-06-6.53725E-19 1.99818E-18
 -1       876 9.59595E-05-2.91663E-05-2.86255E-05 1.31431E-06 3.93890E-19-6.53409E-19
 -1       877 9.55457E-05-2.87233E-05-2.86380E-05 1.16799E-06 6.26948E-19-7.85069E-19
 -1       878 9.53053E-05-2.84617E-05-2.86472E-05 9.89588E-07-1.27446E-18-5.70469E-19
 -1       879 9.51807E-05-2.83280E-05-2.86511E-05 8.09109E-07-6.53240E-19 1.22675E-19
 -1       880 9.51284E-05-2.82784E-05-2.86499E-05 6.42623E-07-1.02022E-18 1.73907E-18
 -1       881 9.51178E-05-2.82796E-05-2.86449E-05 4.97480E-07-2.14529E-19 2.36836E-18
 -1       882 9.51288E-05-2.83081E-05-2.86374E-05 3.75830E-07 1.03700E-18 2.30069E-18
 -1       883 9.51488E-05-2.83488E-05-2.86286E-05 2.76904E-07 1.25728E-20 1.50122E-18
 -1       884 9.51706E-05-2.83919E-05-2.86194E-05 1.98458E-07-4.36402E-19 2.04103E-18
 -1       885 9.51904E-05-2.84322E-05-2.86107E-05 1.37632E-07-1.97249E-18 1.29384E-18
 -1       886 9.52068E-05-2.84671E-05-2.86027E-05 9.14646E-08-2.02140E-18 5.15358E-19
 -1       887 9.52192E-05-2.84959E-05-2.85957E-05 5.71751E-08 2.49485E-19 2.50616E-18
 -1       888 9.52280E-05-2.85187E-05-2.85897E-05 3.23066E-08 1.85048E-19 1.62629E-18
 -1       889 9.52339E-05-2.85362E-05-2.85847E-05 1.47782E-08 9.06219E-19 2.75833E-18
 -1       890 9.52375E-05-2.85494E-05-2.85806E-05 2.86106E-09 1.84364E-18 2.73536E-18
 -1       891 1.04906E-04-3.62789E-05-2.94120E-05 1.92496E-06-2.52223E-19-4.85243E-19
 -1       892 9.62175E-05-2.58941E-05-3.01374E-05 2.34723E-07 8.13844E-19-7.33377E-19
 -1       893 5.97581E-05-8.95493E-06-2.16288E-05 7.93884E-06-1.51544E-18-8.76176E-19
 -1       894 8.73644E-05-2.99252E-05-2.45436E-05 2.51406E-05-2.36917E-18-2.11344E-18
 -1       895 1.03037E-04-3.50922E-05-2.91197E-05-3.57593E-08 3.21210E-19-6.41256E-19
 -1       896 6.91981E-05-1.71788E-05-2.22413E-05 2.14152E-05-2.67246E-18-5.53457E-19
 -1       897 1.19034E-04-5.02760E-05-2.94721E-05-1.40514E-05-1.18819E-18 2.79072E-19
 -1       898 1.11031E-04-4.52440E-05-2.82070E-05 1.69701E-05-9.22498E-19-9.17912E-19
 -1       899 1.22880E-04-4.67765E-05-3.26564E-05-1.03894E-07-6.15259E-19-4.06500E-19
 -1       900 6.65762E-05-1.27370E-05-2.29965E-05-1.12382E-05 3.98223E-19-2.09316E-18
 -1       901 1.05576E-04-3.13446E-05-3.18047E-05 9.14931E-06 7.97402E-20 9.76880E-20
 -1       902 9.95868E-05-3.16547E-05-2.91142E-05-1.74793E-06 2.78939E-19-8.08643E-19
 -1       903 9.52430E-05-2.85579E-05-2.85793E-05 1.07667E-09-4.40161E-18-1.28572E-19
 -1       904 1.24135E-04-4.60642E-05-3.34649E-05 3.09505E-06-6.06438E-19 8.90869E-19
 -1       905 6.81711E-05-1.12401E-05-2.43177E-05 5.05571E-06-1.21652E-18-1.82643E-18
 -1       906 1.10894E-04-1.01601E-05-4.34142E-05-8.22773E-07 1.62346E-18-3.00273E-19
 -1       907 9.52359E-05-2.37782E-05-3.06259E-05 1.13377E-06 9.57430E-19-1.07428E-18
 -1       908 1.16953E-04-2.73315E-05-3.85315E-05-1.29988E-05-1.39496E-19-1.07202E-18
 -1       909 9.83073E-05-2.98883E-05-2.93227E-05-1.66116E-06 4.29378E-19-7.23388E-19
 -1       910 9.52433E-05-2.85650E-05-2.85764E-05 6.49940E-09-1.10982E-18 3.65362E-19
 -1       911 9.30452E-05-2.10026E-05-3.08766E-05-1.22932E-06 4.32741E-19-1.50031E-18
 -1       912 6.83726E-05-1.72071E-05-2.17904E-05-2.08266E-05 5.36013E-22-2.28725E-18
 -1       913 9.52390E-05-2.85564E-05-2.85783E-05-3.17751E-09 2.07712E-18 1.51356E-18
 -1       914 9.52387E-05-2.85520E-05-2.85800E-05-2.49455E-09 2.92207E-18-2.48021E-18
 -1       915 9.52392E-05-2.85548E-05-2.85790E-05-3.32446E-09 2.15960E-18-9.97130E-19
 -1       916 9.71663E-05-2.78674E-05-2.96995E-05-9.90189E-07 6.64766E-19-8.60460E-19
 -1       917 1.09020E-04-1.41183E-05-4.07945E-05-6.59388E-06 6.99305E-19 2.62725E-20
 -1       918 1.18627E-04-3.84448E-05-3.44072E-05 9.02292E-06-2.56930E-19 1.24870E-18
 -1       919 9.20173E-05-2.13126E-05-3.03021E-05-1.24026E-06-1.39141E-19-1.50210E-18
 -1       920 9.96747E-05-3.68120E-05-2.69299E-05 1.87173E-05-9.90846E-19-8.88894E-19
 -1       921 9.52413E-05-2.85540E-05-2.85803E-05-9.44579E-10-4.50029E-18-7.13714E-19
 -1       922 1.15946E-04-4.57627E-05-3.00779E-05 6.23754E-06-1.49795E-19-2.41411E-19
 -1       923 1.13503E-04-2.31090E-05-3.88658E-05 1.17154E-05 1.21129E-18 9.28772E-19
 -1       924 1.20227E-04-4.11032E-05-3.39487E-05-7.04944E-06 2.64936E-19-5.14688E-19
 -1       925 1.10140E-04-4.54241E-05-2.77072E-05-1.99171E-05-1.23337E-18 3.13201E-20
 -1       926 9.39031E-05-2.19680E-05-3.08270E-05-5.16415E-07 5.41585E-19-1.46654E-18
 -1       927 9.52388E-05-2.85507E-05-2.85806E-05-2.22947E-09-1.24375E-18-2.74728E-18
 -1       928 9.52397E-05-2.85515E-05-2.85807E-05-1.87247E-09-2.31253E-18 9.13871E-19
 -1       929 9.52338E-05-2.85374E-05-2.85842E-05-1.26007E-10 7.61395E-19-5.65498E-18
 -1       930 1.00836E-04-3.28590E-05-2.91336E-05-3.09357E-06 2.63871E-19-8.63938E-19
 -1       931 9.04573E-05-2.19297E-05-2.93713E-05-1.51592E-06-7.35995E-19-9.29104E-19
 -1       932 8.86113E-05-2.16078E-05-2.87168E-05-2.70366E-06-7.14346E-19-9.73609E-19
 -1       933 8.59281E-05-2.09171E-05-2.78617E-05-5.13713E-06-4.10618E-19-9.61249E-19
 -1       934 8.25681E-05-2.02642E-05-2.66969E-05-9.23253E-06-4.53918E-19-1.03550E-18
 -1       935 1.05401E-04-1.44779E-05-3.90874E-05 2.86214E-06 1.09733E-18 5.28295E-19
 -1       936 9.23805E-05-2.15121E-05-3.03690E-05-1.95800E-06 1.71743E-21-1.47078E-18
 -1       937 1.02980E-04-1.66974E-05-3.70124E-05-3.44959E-06 6.41444E-19 1.56986E-19
 -1       938 8.05518E-05-1.85847E-05-2.65705E-05 7.18880E-06-3.04813E-19-4.62543E-19
 -1       939 8.46283E-05-2.03993E-05-2.75222E-05 3.64357E-06-1.06282E-18-1.70832E-18
 -1       940 8.76026E-05-2.20980E-05-2.80730E-05 1.57936E-06-8.34566E-19-1.68030E-18
 -1       941 8.98255E-05-2.35813E-05-2.83904E-05 4.02277E-07-1.41776E-18-2.34739E-18
 -1       942 9.13810E-05-2.47444E-05-2.85585E-05-1.95656E-07-1.18900E-18-2.58131E-18
 -1       943 9.25650E-05-2.57145E-05-2.86503E-05-4.88019E-07-7.11917E-19-1.88879E-18
 -1       944 9.34010E-05-2.64575E-05-2.86901E-05-5.80446E-07 9.35919E-20-1.70339E-18
 -1       945 9.39854E-05-2.70170E-05-2.87008E-05-5.65124E-07-7.50978E-19-9.63357E-19
 -1       946 9.43909E-05-2.74341E-05-2.86958E-05-4.98645E-07 3.33495E-19-2.83974E-18
 -1       947 9.46705E-05-2.77428E-05-2.86833E-05-4.13935E-07 3.16822E-19-2.57864E-18
 -1       948 9.48547E-05-2.79610E-05-2.86687E-05-3.32509E-07 7.63739E-19-1.93163E-18
 -1       949 9.49886E-05-2.81317E-05-2.86530E-05-2.54540E-07-2.76918E-20-1.38157E-18
 -1       950 9.50796E-05-2.82572E-05-2.86382E-05-1.88413E-07 1.91281E-19-1.82294E-18
 -1       951 9.51409E-05-2.83492E-05-2.86250E-05-1.34669E-07 1.69068E-19-2.51452E-18
 -1       952 9.51816E-05-2.84164E-05-2.86137E-05-9.24911E-08 1.43664E-18-3.13818E-18
 -1       953 9.52081E-05-2.84652E-05-2.86041E-05-6.03952E-08 1.28478E-18-6.34919E-19
 -1       954 9.52242E-05-2.84989E-05-2.85966E-05-3.75933E-08-4.39237E-19 5.70591E-19
 -1       955 9.52345E-05-2.85245E-05-2.85900E-05-2.02020E-08 1.04524E-19 3.11989E-18
 -1       956 9.52402E-05-2.85428E-05-2.85846E-05-8.05283E-09-6.14017E-19 2.43002E-18
 -1       957 1.11246E-04-3.92678E-05-3.08513E-05 4.21442E-06-4.74602E-19-6.90591E-20
 -1       958 1.05498E-04-2.14891E-05-3.60331E-05-9.34489E-06-1.40167E-19 6.55667E-19
 -1       959 1.09186E-04-2.90907E-05-3.43282E-05-1.11469E-05-1.49496E-20 7.91458E-19
 -1       960 1.11175E-04-3.52412E-05-3.25577E-05-9.29491E-06 5.52302E-19 2.57355E-19
 -1       961 1.10829E-04-3.83913E-05-3.10385E-05-5.66954E-06 5.36019E-20-3.20030E-19
 -1       962 1.08547E-04-3.87040E-05-2.99283E-05-2.14962E-06-8.37922E-19 1.52402E-19
 -1       963 1.05511E-04-3.73205E-05-2.92214E-05 3.72458E-07-2.93602E-19 1.49356E-18
 -1       964 1.02507E-04-3.52495E-05-2.88228E-05 1.79650E-06-6.88022E-19 2.02610E-18
 -1       965 9.99918E-05-3.31906E-05-2.86284E-05 2.39745E-06-7.80653E-19 2.47168E-18
 -1       966 9.80847E-05-3.14565E-05-2.85549E-05 2.47186E-06-8.96408E-19 2.52432E-18
 -1       967 9.67528E-05-3.01485E-05-2.85448E-05 2.26394E-06-9.39883E-19 2.32627E-18
 -1       968 9.58874E-05-2.92419E-05-2.85625E-05 1.93774E-06 2.71955E-19 1.77986E-18
 -1       969 9.53686E-05-2.86639E-05-2.85879E-05 1.58708E-06 5.69017E-19 2.13850E-18
 -1       970 9.50892E-05-2.83312E-05-2.86107E-05 1.26079E-06 3.56906E-19 1.70983E-18
 -1       971 9.49645E-05-2.81687E-05-2.86269E-05 9.78979E-07-1.65118E-18 1.12623E-18
 -1       972 9.49330E-05-2.81163E-05-2.86358E-05 7.46238E-07-2.15300E-18 1.97108E-18
 -1       973 9.49524E-05-2.81294E-05-2.86385E-05 5.59589E-07-5.07293E-19 1.28672E-18
 -1       974 9.49953E-05-2.81771E-05-2.86364E-05 4.12979E-07-5.02323E-19 2.54046E-18
 -1       975 9.50453E-05-2.82393E-05-2.86312E-05 2.99625E-07 6.22162E-19 3.60801E-18
 -1       976 9.50933E-05-2.83035E-05-2.86242E-05 2.13148E-07 3.07356E-19 2.33339E-18
 -1       977 9.51348E-05-2.83629E-05-2.86165E-05 1.47991E-07-2.65587E-19 1.52525E-18
 -1       978 9.51683E-05-2.84143E-05-2.86089E-05 9.95149E-08-1.05563E-18-3.41523E-20
 -1       979 9.51938E-05-2.84566E-05-2.86017E-05 6.39468E-08-5.46713E-19-2.92075E-18
 -1       980 9.52123E-05-2.84902E-05-2.85952E-05 3.82728E-08 6.47736E-20-2.27167E-18
 -1       981 9.52249E-05-2.85161E-05-2.85895E-05 2.01659E-08-1.52263E-18-9.30732E-19
 -1       982 9.52331E-05-2.85357E-05-2.85846E-05 7.61440E-09 1.54092E-18 3.89621E-19
 -1       983 1.08904E-04-3.91640E-05-2.98887E-05 8.02608E-07-5.12129E-19-2.74939E-19
 -1       984 9.10735E-05-3.26681E-05-2.50034E-05-2.47280E-05-9.33589E-19-9.97921E-19
 -1       985 1.03171E-04-3.52220E-05-2.91216E-05-2.74556E-06 8.99805E-20-6.31343E-19
 -1       986 7.96277E-05-2.12778E-05-2.49834E-05 1.72611E-05-2.10980E-18-2.32884E-19
 -1       987 7.88239E-05-2.03368E-05-2.50448E-05-1.54152E-05-2.89699E-19-1.13475E-18
 -1       988 1.05981E-04-3.75155E-05-2.93426E-05-1.52450E-06-2.04449E-19-5.58631E-19
 -1       989 9.27845E-05-2.12936E-05-3.06394E-05-1.86996E-06 2.82796E-19-1.35198E-18
 -1       990 1.17519E-04-4.57607E-05-3.07571E-05-3.39768E-06-8.66181E-19 6.02659E-19
 -1       991 9.46153E-05-2.28355E-05-3.07621E-05 3.25796E-07 8.18170E-19-1.31191E-18
 -1       992 9.62016E-05-2.59089E-05-3.01252E-05-8.84608E-07 6.90763E-19-1.10301E-18
 -1       993 9.14357E-05-2.18041E-05-2.98436E-05-1.23152E-06-3.12209E-19-1.17856E-18
 -1       994 9.90176E-05-3.06221E-05-2.93125E-05-2.83099E-06 3.22425E-19-1.02180E-18
 -1       995 1.11925E-04-3.66934E-05-3.22440E-05 8.04247E-06-1.65554E-19 2.19794E-19
 -1       996 8.23179E-05-2.49940E-05-2.44856E-05-2.12529E-05-6.94789E-19-1.09490E-18
 -1       997 1.16687E-04-4.26519E-05-3.17459E-05 3.21149E-06-5.25308E-19 5.65085E-19
 -1       998 9.52343E-05-2.85368E-05-2.85847E-05-2.68737E-09-6.13285E-22-2.36457E-18
 -1       999 1.14413E-04-4.53634E-05-2.95664E-05-8.98899E-06-8.03806E-19 2.52084E-19
 -1      1000 1.07576E-04-4.11922E-05-2.84511E-05 1.17331E-05-3.82996E-19-1.57875E-19
 -1      1001 9.52363E-05-2.85360E-05-2.85859E-05-7.75277E-09-2.29697E-18 2.19250E-18
 -1      1002 1.15901E-04-4.24115E-05-3.14984E-05-2.74155E-06 6.29881E-20 7.15095E-19
 -1      1003 9.11534E-05-2.91719E-05-2.65720E-05 1.62786E-05-1.06584E-18-1.78099E-18
 -1      1004 9.40315E-05-2.33388E-05-3.02962E-05-2.25908E-06 2.75312E-19-1.27101E-18
 -1      1005 9.73573E-05-2.80615E-05-2.96974E-05-2.05507E-06 4.12056E-19-1.01726E-18
 -1      1006 9.52328E-05-2.85352E-05-2.85847E-05 3.39625E-09 1.26823E-18-3.57159E-18
 -1      1007 9.51272E-05-2.45009E-05-3.02702E-05-1.74834E-06 5.67234E-19-1.38488E-18
 -1      1008 1.16942E-04-3.49011E-05-3.52022E-05-1.07004E-05 3.05959E-19-8.53258E-19
 -1      1009 9.01634E-05-2.37684E-05-2.84546E-05-6.11137E-06-6.26964E-19-4.54789E-19
 -1      1010 8.90434E-05-2.45582E-05-2.76354E-05-9.73617E-06-6.19342E-19-7.71980E-19
 -1      1011 9.22225E-05-2.24300E-05-2.99095E-05-2.45632E-06 2.58360E-20-1.18574E-18
 -1      1012 1.00935E-04-3.73578E-05-2.72534E-05-1.79067E-05-4.82528E-19-2.41220E-19
 -1      1013 8.81154E-05-2.33012E-05-2.77744E-05 4.99217E-06-3.27546E-19-2.22914E-18
 -1      1014 8.97402E-05-2.40482E-05-2.81531E-05 2.80485E-06-7.76795E-19-2.16580E-18
 -1      1015 9.10394E-05-2.48189E-05-2.83800E-05 1.49213E-06-1.46842E-18-9.02196E-19
 -1      1016 9.21370E-05-2.55793E-05-2.85248E-05 6.52700E-07-1.56292E-19-4.78690E-19
 -1      1017 9.29815E-05-2.62347E-05-2.86058E-05 1.76688E-07-2.97380E-19-5.49258E-19
 -1      1018 9.36166E-05-2.67738E-05-2.86469E-05-7.10671E-08-2.88832E-20-1.36762E-18
 -1      1019 9.40863E-05-2.72046E-05-2.86636E-05-1.81572E-07-9.40133E-19-2.31915E-18
 -1      1020 9.44294E-05-2.75421E-05-2.86660E-05-2.13963E-07 2.98604E-19-2.51049E-18
 -1      1021 9.46674E-05-2.77922E-05-2.86608E-05-2.05969E-07 1.19314E-18-2.52598E-18
 -1      1022 9.48489E-05-2.79957E-05-2.86514E-05-1.78421E-07 1.10611E-19-3.36434E-18
 -1      1023 9.49779E-05-2.81504E-05-2.86404E-05-1.44365E-07 3.47593E-19-3.97385E-18
 -1      1024 9.50688E-05-2.82672E-05-2.86292E-05-1.10750E-07 7.21959E-19-3.99685E-18
 -1      1025 9.51319E-05-2.83548E-05-2.86188E-05-8.10077E-08 1.14609E-18-1.97673E-18
 -1      1026 9.51750E-05-2.84198E-05-2.86094E-05-5.64352E-08 1.94718E-18-2.26783E-18
 -1      1027 9.52025E-05-2.84656E-05-2.86015E-05-3.78676E-08 1.18110E-18-1.79184E-18
 -1      1028 9.52213E-05-2.85009E-05-2.85945E-05-2.30109E-08 2.23621E-18 5.24330E-19
 -1      1029 9.52302E-05-2.85204E-05-2.85899E-05-1.44273E-08 2.91643E-19 2.00392E-18
 -1      1030 1.11797E-04-4.18001E-05-2.99970E-05 1.59698E-06-3.76574E-19 3.49007E-19
 -1      1031 1.06960E-04-3.90426E-05-2.91155E-05 3.98182E-06-8.04664E-19-4.45495E-20
 -1      1032 1.02849E-04-3.59839E-05-2.86528E-05 4.86511E-06-1.09371E-18 3.34240E-20
 -1      1033 9.97226E-05-3.32939E-05-2.84700E-05 4.71395E-06-1.06231E-18 2.69528E-19
 -1      1034 9.75389E-05-3.12127E-05-2.84261E-05 4.08455E-06-7.29674E-19 1.24359E-19
 -1      1035 9.61374E-05-2.97613E-05-2.84471E-05 3.31269E-06-1.35699E-19 3.63869E-19
 -1      1036 9.53046E-05-2.88233E-05-2.84921E-05 2.57313E-06 2.15671E-19 3.93859E-19
 -1      1037 9.48663E-05-2.82750E-05-2.85391E-05 1.93844E-06-2.20241E-19 1.82751E-18
 -1      1038 9.46787E-05-2.79964E-05-2.85781E-05 1.42961E-06 7.33723E-19 1.49074E-18
 -1      1039 9.46409E-05-2.78933E-05-2.86061E-05 1.03794E-06-1.29798E-18 1.38249E-18
 -1      1040 9.46844E-05-2.78963E-05-2.86234E-05 7.44615E-07-1.64015E-18 6.31520E-19
 -1      1041 9.47654E-05-2.79575E-05-2.86320E-05 5.28868E-07-1.45656E-18 1.31947E-18
 -1      1042 9.48573E-05-2.80449E-05-2.86339E-05 3.72124E-07-1.67415E-18 2.15506E-18
 -1      1043 9.49454E-05-2.81390E-05-2.86313E-05 2.59131E-07 1.17921E-18 1.92213E-18
 -1      1044 9.50223E-05-2.82284E-05-2.86260E-05 1.78118E-07 4.98434E-19 1.76601E-19
 -1      1045 9.50855E-05-2.83074E-05-2.86192E-05 1.20283E-07 4.76732E-19 1.79252E-19
 -1      1046 9.51350E-05-2.83739E-05-2.86119E-05 7.91813E-08 9.34994E-19-7.40078E-19
 -1      1047 9.51721E-05-2.84276E-05-2.86048E-05 5.01282E-08 8.99278E-20-2.15235E-18
 -1      1048 9.51988E-05-2.84698E-05-2.85981E-05 2.97728E-08 1.15977E-19-2.71640E-18
 -1      1049 9.52170E-05-2.85019E-05-2.85922E-05 1.58260E-08-7.67794E-19-3.50839E-18
 -1      1050 9.52262E-05-2.85202E-05-2.85883E-05 8.94309E-09-1.27233E-18-4.61222E-18
 -1      1051 8.83572E-05-2.61911E-05-2.66414E-05-1.48753E-05-1.33931E-19-8.26085E-19
 -1      1052 1.13333E-04-4.25811E-05-3.03306E-05-1.39851E-06-5.09968E-19 2.23727E-19
 -1      1053 9.32486E-05-2.31266E-05-3.00522E-05-2.75391E-06 1.15909E-19-1.29397E-18
 -1      1054 1.04849E-04-3.70196E-05-2.90703E-05-5.25727E-06-1.99174E-19 5.35954E-20
 -1      1055 1.01640E-04-3.39147E-05-2.90251E-05-5.18757E-06 1.28854E-19 3.69663E-20
 -1      1056 1.10770E-04-2.89917E-05-3.50555E-05 1.10463E-05 1.52363E-19 1.15840E-18
 -1      1057 1.08914E-04-4.02250E-05-2.94420E-05-4.15013E-06-8.74913E-19 1.57862E-19
 -1      1058 8.63238E-05-2.29102E-05-2.71814E-05 8.38509E-06-1.55725E-18-2.10067E-18
 -1      1059 9.59867E-05-2.59203E-05-3.00268E-05-2.06956E-06 5.50010E-19-1.09501E-18
 -1      1060 1.00051E-04-3.53525E-05-2.77251E-05 1.27815E-05-9.94702E-19-4.35717E-21
 -1      1061 8.76410E-05-2.51140E-05-2.68030E-05 1.23323E-05-1.09204E-18-2.18909E-18
 -1      1062 9.11893E-05-2.32639E-05-2.91115E-05-3.90005E-06-7.19292E-19-7.55312E-19
 -1      1063 9.52347E-05-2.85353E-05-2.85855E-05-5.12945E-09-2.46257E-18-2.28224E-18
 -1      1064 9.54799E-05-2.58613E-05-2.98372E-05-3.15288E-06-8.69062E-21-1.12080E-18
 -1      1065 9.93088E-05-3.12043E-05-2.91877E-05-4.50502E-06-4.62988E-21-8.63960E-20
 -1      1066 9.44691E-05-2.53834E-05-2.96039E-05-3.96636E-06-1.36610E-19-1.20987E-18
 -1      1067 9.52256E-05-2.85181E-05-2.85889E-05-1.68619E-11 8.13508E-19-5.08886E-18
 -1      1068 1.04582E-04-3.79205E-05-2.85640E-05 7.85392E-06-7.61355E-19 2.87746E-19
 -1      1069 9.18323E-05-2.29493E-05-2.95180E-05-3.03296E-06-2.51696E-19-9.17420E-19
 -1      1070 9.74340E-05-2.85092E-05-2.95384E-05-3.38311E-06 2.04478E-19-8.25158E-19
 -1      1071 1.05758E-04-3.86038E-05-2.87716E-05-9.18959E-06-4.54085E-19 1.28308E-19
 -1      1072 9.10474E-05-2.56481E-05-2.80262E-05 4.99047E-06-7.74628E-19-1.81852E-18
 -1      1073 9.70020E-05-3.22107E-05-2.77662E-05-1.32634E-05-4.67817E-19-1.54351E-19
 -1      1074 9.53475E-05-3.11146E-05-2.75272E-05 1.17876E-05-1.50578E-18-3.35779E-19
 -1      1075 9.06485E-05-2.60646E-05-2.76842E-05 7.67279E-06-5.92758E-19-2.04112E-18
 -1      1076 9.16329E-05-2.56992E-05-2.82574E-05 3.19158E-06 4.40841E-19-6.61903E-19
 -1      1077 9.23155E-05-2.59930E-05-2.84238E-05 1.90408E-06-2.86119E-19-5.00678E-20
 -1      1078 9.29434E-05-2.63744E-05-2.85296E-05 1.07393E-06-3.68452E-19 3.97990E-19
 -1      1079 9.34810E-05-2.67636E-05-2.85932E-05 5.59565E-07-1.34760E-18-4.15297E-19
 -1      1080 9.39199E-05-2.71210E-05-2.86281E-05 2.54510E-07-1.20559E-18-1.74109E-18
 -1      1081 9.42667E-05-2.74302E-05-2.86442E-05 8.35044E-08-6.90162E-19-1.46857E-18
 -1      1082 9.45233E-05-2.76768E-05-2.86485E-05-1.72623E-09-2.51374E-19-3.00253E-18
 -1      1083 9.47300E-05-2.78893E-05-2.86460E-05-4.28547E-08 1.04749E-18-4.79709E-18
 -1      1084 9.48843E-05-2.80589E-05-2.86395E-05-5.58316E-08 5.12631E-19-2.77901E-18
 -1      1085 9.49978E-05-2.81921E-05-2.86310E-05-5.42009E-08 5.46002E-20-1.51634E-18
 -1      1086 9.50799E-05-2.82952E-05-2.86220E-05-4.60375E-08 4.95889E-19-3.41432E-18
 -1      1087 9.51382E-05-2.83739E-05-2.86133E-05-3.59182E-08 2.68458E-18-2.74707E-18
 -1      1088 9.51769E-05-2.84306E-05-2.86056E-05-2.65358E-08 1.75387E-18-2.21421E-18
 -1      1089 9.52046E-05-2.84753E-05-2.85983E-05-1.80370E-08 2.14237E-18-2.70760E-18
 -1      1090 9.93967E-05-3.35744E-05-2.82125E-05 7.74522E-06-1.06255E-18-5.83454E-19
 -1      1091 9.68313E-05-3.09973E-05-2.82131E-05 6.25526E-06-9.07252E-19 4.12641E-19
 -1      1092 9.53542E-05-2.93385E-05-2.82935E-05 4.73592E-06-7.64868E-19-2.31678E-19
 -1      1093 9.45613E-05-2.83303E-05-2.83845E-05 3.45705E-06-3.27426E-19 3.73685E-19
 -1      1094 9.42322E-05-2.78066E-05-2.84679E-05 2.45164E-06-8.65155E-19 1.76877E-19
 -1      1095 9.41620E-05-2.75841E-05-2.85332E-05 1.69998E-06 6.82712E-19-3.19886E-20
 -1      1096 9.42338E-05-2.75477E-05-2.85796E-05 1.15775E-06 1.70445E-19 8.87629E-19
 -1      1097 9.43711E-05-2.76154E-05-2.86095E-05 7.77371E-07-1.66893E-18-1.83001E-19
 -1      1098 9.45286E-05-2.77338E-05-2.86263E-05 5.16151E-07-2.35038E-18-4.85904E-19
 -1      1099 9.46809E-05-2.78694E-05-2.86335E-05 3.39422E-07-8.65588E-19-8.51311E-19
 -1      1100 9.48157E-05-2.80029E-05-2.86341E-05 2.21252E-07-8.59585E-19-2.31895E-18
 -1      1101 9.49285E-05-2.81240E-05-2.86305E-05 1.42849E-07 2.24355E-18-2.17961E-19
 -1      1102 9.50187E-05-2.82282E-05-2.86245E-05 9.10942E-08 1.01250E-18-7.83236E-19
 -1      1103 9.50883E-05-2.83145E-05-2.86174E-05 5.70239E-08 3.30953E-19-3.95643E-19
 -1      1104 9.51404E-05-2.83837E-05-2.86100E-05 3.46813E-08 7.33334E-19 3.38706E-19
 -1      1105 9.51779E-05-2.84378E-05-2.86029E-05 2.00164E-08 6.26460E-19-1.00231E-18
 -1      1106 9.52038E-05-2.84788E-05-2.85964E-05 1.04693E-08 3.90281E-19-2.26491E-18
 -1      1107 1.01600E-04-3.46045E-05-2.87139E-05-8.31324E-06-1.13109E-19-2.35099E-19
 -1      1108 9.52247E-05-2.85143E-05-2.85902E-05-5.84945E-09 4.01350E-19-5.57878E-18
 -1      1109 9.36012E-05-2.74054E-05-2.83699E-05-8.66189E-06-7.17327E-19-5.45036E-19
 -1      1110 9.30614E-05-2.40943E-05-2.95591E-05-3.73097E-06-1.12873E-19-1.28504E-18
 -1      1111 9.33220E-05-2.57936E-05-2.89445E-05-5.94568E-06-3.87171E-19-1.01111E-18
 -1      1112 9.52184E-05-2.85002E-05-2.85935E-05-1.21890E-08 2.56366E-18-4.60194E-18
 -1      1113 9.24048E-05-2.81328E-05-2.75467E-05 9.89711E-06-1.37054E-18-1.38373E-18
 -1      1114 9.52161E-05-2.85001E-05-2.85925E-05 3.78305E-09 7.67364E-19-4.31218E-18
 -1      1115 9.67103E-05-2.82283E-05-2.93499E-05-4.72542E-06-1.94675E-19-7.55398E-19
 -1      1116 9.88120E-05-3.13698E-05-2.89046E-05-6.79606E-06 4.58093E-20-7.29388E-19
 -1      1117 9.32440E-05-2.73640E-05-2.82339E-05 4.38759E-06-7.69753E-20-1.92653E-19
 -1      1118 9.52266E-05-2.85156E-05-2.85904E-05-1.10356E-08 2.00104E-19-4.65698E-18
 -1      1119 9.33640E-05-2.69139E-05-2.84786E-05 1.91302E-06-4.02212E-19-1.75561E-18
 -1      1120 9.36537E-05-2.70340E-05-2.85513E-05 1.20393E-06-3.55948E-19-1.44261E-18
 -1      1121 9.39554E-05-2.72286E-05-2.85972E-05 7.35873E-07-1.01009E-18-7.99003E-21
 -1      1122 9.42334E-05-2.74455E-05-2.86234E-05 4.35966E-07-1.73853E-18 3.86419E-19
 -1      1123 9.44620E-05-2.76461E-05-2.86354E-05 2.56249E-07-6.23924E-19-8.65935E-19
 -1      1124 9.46613E-05-2.78368E-05-2.86391E-05 1.40073E-07 2.23959E-19-4.24890E-19
 -1      1125 9.48200E-05-2.80008E-05-2.86368E-05 7.19788E-08 3.27832E-19-1.83548E-18
 -1      1126 9.49431E-05-2.81370E-05-2.86312E-05 3.35829E-08 2.06924E-18-2.42252E-18
 -1      1127 9.50362E-05-2.82472E-05-2.86239E-05 1.29715E-08 1.14516E-21-3.42505E-19
 -1      1128 9.51049E-05-2.83342E-05-2.86160E-05 2.66705E-09 9.33114E-19-7.95421E-19
 -1      1129 9.51523E-05-2.83988E-05-2.86086E-05-1.75756E-09 2.37323E-18-3.14277E-18
 -1      1130 9.51874E-05-2.84508E-05-2.86014E-05-3.48159E-09 6.12262E-19-4.19822E-18
 -1      1131 9.51594E-05-2.99670E-05-2.79431E-05 8.10219E-06-9.71950E-19 4.76814E-19
 -1      1132 9.28403E-05-2.75841E-05-2.79713E-05 6.61229E-06-8.42647E-19-1.63399E-19
 -1      1133 9.52095E-05-2.84867E-05-2.85955E-05-6.13203E-09 5.67952E-19-5.26952E-18
 -1      1134 9.31582E-05-2.69589E-05-2.83715E-05 2.95458E-06 4.91965E-19-1.47326E-18
 -1      1135 1.16463E-04 2.56858E-10-4.17564E-05-4.11443E-05-2.07523E-19 7.05854E-18
 -1      1136 8.89150E-05 7.27087E-11-3.73415E-05-2.35489E-05-1.36055E-19 5.31698E-19
 -1      1137 8.44365E-05 4.20451E-11-3.58999E-05-1.71554E-05-9.10560E-20-2.16168E-18
 -1      1138 8.25975E-05 3.18121E-11-3.51787E-05-1.30727E-05-5.39984E-20-3.34919E-18
 -1      1139 8.16280E-05 2.62696E-11-3.47855E-05-9.83195E-06-3.14461E-20-3.93098E-18
 -1      1140 8.10492E-05 2.28946E-11-3.45554E-05-7.09594E-06-1.87141E-20-4.12507E-18
 -1      1141 8.07022E-05 2.08858E-11-3.44187E-05-4.65511E-06-1.60738E-20-4.11918E-18
 -1      1142 8.05218E-05 1.99493E-11-3.43474E-05-2.35520E-06 2.59404E-21-4.02301E-18
 -1      1143 8.04820E-05 1.98993E-11-3.43297E-05-1.08869E-07 1.27378E-20-3.93340E-18
 -1      1144 8.05649E-05 2.06101E-11-3.43590E-05 2.17642E-06 1.94917E-20-3.81450E-18
 -1      1145 8.07657E-05 2.20402E-11-3.44343E-05 4.58301E-06 2.95667E-20-3.58602E-18
 -1      1146 8.11002E-05 2.42386E-11-3.45636E-05 7.16970E-06 4.21399E-20-3.27342E-18
 -1      1147 8.16329E-05 2.75643E-11-3.47776E-05 1.00569E-05 5.40778E-20-2.76882E-18
 -1      1148 8.25476E-05 3.28475E-11-3.51550E-05 1.34269E-05 7.48830E-20-1.84047E-18
 -1      1149 8.43282E-05 4.26176E-11-3.58788E-05 1.75864E-05 1.02967E-19-1.30602E-19
 -1      1150 8.85752E-05 6.77568E-11-3.73971E-05 2.35879E-05 1.06091E-19 3.09966E-18
 -1      1151 1.06590E-04 1.64709E-10-4.06454E-05 3.58967E-05 2.18746E-19 9.64231E-18
 -1      1152 1.30880E-04-2.56857E-05-4.03639E-05-2.67555E-05-9.46453E-19 1.13202E-17
 -1      1153 9.84708E-05-2.91276E-05-3.19326E-05-8.70653E-07-3.36034E-19 9.11810E-18
 -1      1154 9.11306E-05-2.73100E-05-2.82388E-05 3.94002E-07-1.75058E-19 5.84400E-18
 -1      1155 8.96753E-05-2.70118E-05-2.71001E-05 2.56491E-07-8.95737E-20 3.50868E-18
 -1      1156 9.00310E-05-2.71047E-05-2.70606E-05 1.72661E-07-8.60301E-20 1.81659E-18
 -1      1157 9.14385E-05-2.75107E-05-2.74745E-05 1.36348E-07 9.10560E-21 6.69606E-19
 -1      1158 9.37155E-05-2.81791E-05-2.81840E-05 1.19544E-07-8.08189E-20-2.65889E-19
 -1      1159 9.70593E-05-2.91819E-05-2.92309E-05 1.32242E-07-1.29735E-20-7.17305E-19
 -1      1160 1.01781E-04-3.06045E-05-3.07175E-05 1.83030E-07-7.43338E-20-6.96605E-19
 -1      1161 1.08507E-04-3.26292E-05-3.28379E-05 2.95657E-07-8.66290E-20-1.36033E-18
 -1      1162 1.18130E-04-3.55098E-05-3.58436E-05 5.08704E-07 6.70016E-20-1.00606E-18
 -1      1163 1.31260E-04-3.94660E-05-3.98151E-05 8.40462E-07-1.34566E-19-9.43065E-19
 -1      1164 1.48501E-04-4.46487E-05-4.47205E-05 1.24700E-06 4.48266E-20-6.13887E-19
 -1      1165 1.68405E-04-5.06690E-05-4.97070E-05 1.38458E-06 8.06534E-20 3.81906E-19
 -1      1166 1.82505E-04-5.48941E-05-5.23697E-05 1.51851E-07-1.18690E-19 1.31407E-18
 -1      1167 1.76442E-04-5.27138E-05-5.02670E-05-3.37738E-06-3.67295E-19 9.65618E-20
 -1      1168 1.44947E-04-4.21393E-05-4.41108E-05-7.04622E-06-1.99251E-19-3.26955E-18
 -1      1169 9.99458E-05-2.84299E-05-3.63911E-05-6.72326E-06 2.46275E-19-5.40746E-18
 -1      1170 7.81133E-05-2.22528E-05-3.30634E-05 8.88706E-07-1.09479E-19-8.54667E-18
 -1      1171 1.05142E-04-3.02865E-05-3.72853E-05 7.31824E-06-1.52995E-20-1.06756E-17
 -1      1172 1.54160E-04-4.53288E-05-4.56472E-05 6.42578E-06 1.88200E-20-1.20380E-17
 -1      1173 1.82526E-04-5.45907E-05-5.18267E-05 1.93973E-06 2.52257E-20-1.08717E-17
 -1      1174 1.81069E-04-5.43611E-05-5.24699E-05-9.27426E-07-3.49944E-19-1.05774E-17
 -1      1175 1.64309E-04-4.94207E-05-4.88823E-05-1.43187E-06 2.35085E-19-1.05811E-17
 -1      1176 1.44916E-04-4.35674E-05-4.37999E-05-1.11863E-06-8.27015E-20-8.38330E-18
 -1      1177 1.29023E-04-3.87890E-05-3.91715E-05-6.95479E-07-2.21420E-20-7.13996E-18
 -1      1178 1.17588E-04-3.53563E-05-3.56529E-05-3.88776E-07 1.08830E-19-4.33395E-18
 -1      1179 1.09835E-04-3.30198E-05-3.32072E-05-2.04249E-07 1.04225E-19-3.32013E-18
 -1      1180 1.04818E-04-3.15123E-05-3.16112E-05-9.33629E-08 1.87853E-19-4.02424E-18
 -1      1181 1.01517E-04-3.05002E-05-3.05596E-05-5.25449E-08-3.67894E-19-4.43770E-18
 -1      1182 9.92940E-05-2.98214E-05-2.98530E-05-2.39115E-08-3.03939E-20-4.07874E-18
 -1      1183 9.78437E-05-2.93768E-05-2.93936E-05-9.57352E-09-1.16023E-19-4.92784E-18
 -1      1184 9.68941E-05-2.90845E-05-2.90938E-05-2.47587E-09 2.89356E-19-3.89844E-18
 -1      1185 9.62832E-05-2.88978E-05-2.89014E-05 2.02951E-09-1.25205E-19-2.72946E-18
 -1      1186 9.58788E-05-2.87719E-05-2.87744E-05 2.01471E-09 7.60514E-20-3.70477E-18
 -1      1187 9.56056E-05-2.86875E-05-2.86887E-05 2.48112E-09-7.78664E-20-4.62010E-18
 -1      1188 9.54286E-05-2.86327E-05-2.86332E-05 2.51159E-09 2.31572E-19-2.11983E-18
 -1      1189 9.53161E-05-2.85977E-05-2.85979E-05 2.34373E-09-6.36076E-19-8.68330E-19
 -1      1190 9.52468E-05-2.85760E-05-2.85760E-05 2.10327E-09-1.36894E-19-2.66823E-18
 -1      1191 9.52074E-05-2.85637E-05-2.85635E-05 1.94082E-09-2.60706E-19-2.03270E-18
 -1      1192 9.51866E-05-2.85570E-05-2.85568E-05 1.58869E-09-5.81185E-19 7.30709E-19
 -1      1193 9.51780E-05-2.85541E-05-2.85539E-05 1.34830E-09 6.16323E-20-1.60318E-18
 -1      1194 9.51779E-05-2.85538E-05-2.85537E-05 1.14333E-09 7.41614E-19-3.03407E-18
 -1      1195 9.51830E-05-2.85552E-05-2.85551E-05 9.70633E-10-5.33500E-20-2.95689E-18
 -1      1196 9.51911E-05-2.85575E-05-2.85574E-05 8.27871E-10 2.95711E-19-4.62432E-18
 -1      1197 9.52007E-05-2.85603E-05-2.85602E-05 7.10880E-10-1.59671E-19-2.30752E-18
 -1      1198 9.52106E-05-2.85632E-05-2.85631E-05 6.26334E-10 5.32623E-19 2.99479E-18
 -1      1199 9.52205E-05-2.85662E-05-2.85660E-05 5.36354E-10 1.02875E-19 1.31744E-18
 -1      1200 9.52292E-05-2.85687E-05-2.85685E-05 4.16227E-10 6.73855E-20 3.02196E-18
 -1      1201 9.52352E-05-2.85704E-05-2.85703E-05 1.51181E-10-1.19432E-19 4.55740E-18
 -1      1202 9.52374E-05-2.85712E-05-2.85713E-05-1.19538E-10 4.95659E-19 4.74879E-18
 -1      1203 1.30833E-04-3.76501E-05-3.86653E-05 1.21082E-05-1.78247E-19 1.49802E-17
 -1      1204 9.69008E-05-2.82955E-05-3.14305E-05 7.82959E-07 1.02226E-19 1.22883E-17
 -1      1205 9.10788E-05-2.71452E-05-2.80794E-05 1.09861E-07 1.17804E-19 9.16840E-18
 -1      1206 8.93513E-05-2.68044E-05-2.69815E-05 6.00529E-10 3.70213E-20 7.28086E-18
 -1      1207 8.92351E-05-2.67970E-05-2.68027E-05-3.61637E-08 1.23399E-20 6.09485E-18
 -1      1208 8.98227E-05-2.69646E-05-2.69481E-05-5.02918E-08 1.52259E-20 4.96949E-18
 -1      1209 9.06610E-05-2.72041E-05-2.71867E-05-5.81851E-08 5.35434E-20 4.39356E-18
 -1      1210 9.14640E-05-2.74354E-05-2.74133E-05-6.32868E-08 7.63115E-21 3.87131E-18
 -1      1211 9.20031E-05-2.75897E-05-2.75580E-05-6.49802E-08 1.54228E-20 3.27211E-18
 -1      1212 9.20707E-05-2.76050E-05-2.75602E-05-6.06651E-08-4.63304E-20 3.02849E-18
 -1      1213 9.14805E-05-2.74264E-05-2.73676E-05-4.67492E-08 1.21899E-19 2.31296E-18
 -1      1214 9.00955E-05-2.70138E-05-2.69442E-05-1.99163E-08-1.06748E-19 2.31551E-18
 -1      1215 8.78772E-05-2.63561E-05-2.62850E-05 2.08028E-08-1.73617E-20 2.39708E-18
 -1      1216 8.49442E-05-2.54877E-05-2.54306E-05 7.15990E-08-5.49835E-20 1.75428E-18
 -1      1217 8.16130E-05-2.45006E-05-2.44764E-05 1.22490E-07 7.43074E-20 1.32328E-18
 -1      1218 7.83870E-05-2.35417E-05-2.35661E-05 1.58795E-07-1.16412E-19 1.44906E-18
 -1      1219 7.58675E-05-2.27882E-05-2.28653E-05 1.66293E-07-1.14004E-19 1.17415E-18
 -1      1220 7.45957E-05-2.24019E-05-2.25193E-05 1.38169E-07 1.65441E-19 5.61133E-19
 -1      1221 7.48817E-05-2.24785E-05-2.26094E-05 7.95999E-08 1.13622E-20 3.72827E-20
 -1      1222 7.66972E-05-2.30138E-05-2.31268E-05 6.54252E-09-4.76307E-20 3.36603E-19
 -1      1223 7.96896E-05-2.39050E-05-2.39765E-05-6.11729E-08 1.19787E-19 2.70892E-19
 -1      1224 8.33076E-05-2.49879E-05-2.50094E-05-1.08131E-07-5.16177E-20 7.66035E-20
 -1      1225 8.69764E-05-2.60889E-05-2.60671E-05-1.28281E-07-1.03920E-19 3.20787E-19
 -1      1226 9.02423E-05-2.70702E-05-2.70209E-05-1.24566E-07 2.63316E-19-1.27545E-18
 -1      1227 9.28425E-05-2.78518E-05-2.77921E-05-1.05099E-07-1.41789E-19-1.15849E-18
 -1      1228 9.47006E-05-2.84101E-05-2.83533E-05-7.88309E-08-2.98075E-20 7.94868E-19
 -1      1229 9.58759E-05-2.87629E-05-2.87167E-05-5.27190E-08-2.26944E-19 6.51772E-19
 -1      1230 9.65008E-05-2.89504E-05-2.89171E-05-3.07990E-08 2.44126E-20-2.79111E-19
 -1      1231 9.67291E-05-2.90187E-05-2.89975E-05-1.45547E-08-3.34686E-20-5.56848E-19
 -1      1232 9.67019E-05-2.90105E-05-2.89989E-05-3.79519E-09 1.10507E-20-5.83879E-19
 -1      1233 9.65320E-05-2.89595E-05-2.89547E-05 2.49348E-09 2.79475E-20-1.31726E-18
 -1      1234 9.63002E-05-2.88900E-05-2.88894E-05 5.54839E-09-2.53257E-20 8.04380E-19
 -1      1235 9.60586E-05-2.88176E-05-2.88193E-05 6.49638E-09 9.66302E-20 5.90187E-19
 -1      1236 9.58373E-05-2.87513E-05-2.87541E-05 6.21941E-09-2.43615E-20-1.38994E-18
 -1      1237 9.56504E-05-2.86953E-05-2.86983E-05 5.33757E-09-4.15327E-19 5.26053E-19
 -1      1238 9.55020E-05-2.86508E-05-2.86536E-05 4.24751E-09 5.23528E-20-8.84257E-19
 -1      1239 9.53901E-05-2.86173E-05-2.86196E-05 3.17810E-09 4.47492E-19-5.51862E-18
 -1      1240 9.53101E-05-2.85933E-05-2.85951E-05 2.24339E-09-5.29661E-19-1.53347E-18
 -1      1241 9.52559E-05-2.85770E-05-2.85784E-05 1.48516E-09 9.08451E-20 1.27327E-18
 -1      1242 9.52219E-05-2.85668E-05-2.85678E-05 9.03672E-10 3.57342E-20-1.49773E-19
 -1      1243 9.52030E-05-2.85611E-05-2.85617E-05 4.78092E-10 1.66086E-19-2.35005E-18
 -1      1244 9.51948E-05-2.85586E-05-2.85590E-05 1.79188E-10-1.82142E-19-2.79837E-18
 -1      1245 9.51940E-05-2.85583E-05-2.85586E-05-2.35263E-11-4.51684E-19-1.58266E-18
 -1      1246 9.51980E-05-2.85595E-05-2.85596E-05-1.58304E-10 4.84785E-19-3.35236E-18
 -1      1247 9.52049E-05-2.85615E-05-2.85616E-05-2.49616E-10-2.76133E-19-5.62068E-18
 -1      1248 9.52133E-05-2.85640E-05-2.85640E-05-3.16875E-10 1.30681E-19-4.43996E-18
 -1      1249 9.52219E-05-2.85666E-05-2.85665E-05-3.72867E-10-9.32744E-20-6.17892E-18
 -1      1250 9.52297E-05-2.85689E-05-2.85687E-05-4.09404E-10 8.08187E-21-7.55665E-18
 -1      1251 9.52353E-05-2.85705E-05-2.85703E-05-3.39985E-10 6.17744E-19-9.23149E-18
 -1      1252 9.52374E-05-2.85712E-05-2.85712E-05 8.42275E-11-4.67108E-19-6.06454E-18
 -1      1253 9.52370E-05-2.85709E-05-2.85712E-05 5.63669E-11-6.14163E-18-4.31800E-19
 -1      1254 9.52378E-05-2.85730E-05-2.85703E-05-1.33519E-10-3.03005E-18 1.32586E-19
 -1      1255 9.52393E-05-2.85783E-05-2.85689E-05-3.56262E-10 3.83081E-18 5.72106E-20
 -1      1256 9.52413E-05-2.85850E-05-2.85670E-05-3.78529E-10 4.80160E-18 2.22054E-19
 -1      1257 9.52433E-05-2.85918E-05-2.85650E-05-3.28875E-10 4.38861E-18 3.52260E-19
 -1      1258 9.52450E-05-2.85976E-05-2.85633E-05-2.53644E-10 7.28070E-19-5.00007E-19
 -1      1259 9.52464E-05-2.86022E-05-2.85620E-05-1.78937E-10 3.37858E-18-9.82546E-20
 -1      1260 9.52473E-05-2.86052E-05-2.85611E-05-9.89256E-11 5.15460E-18 1.10092E-19
 -1      1261 9.52477E-05-2.86065E-05-2.85607E-05-1.73220E-11 7.51958E-18-1.04872E-19
 -1      1262 9.52475E-05-2.86059E-05-2.85609E-05 6.93865E-11 1.29862E-17 9.77043E-21
 -1      1263 9.52467E-05-2.86034E-05-2.85617E-05 1.63335E-10 6.41034E-18-2.17873E-18
 -1      1264 9.52454E-05-2.85990E-05-2.85629E-05 2.61900E-10 3.28017E-18 6.22151E-19
 -1      1265 9.52437E-05-2.85930E-05-2.85647E-05 3.52023E-10 2.93497E-18 4.26871E-19
 -1      1266 9.52416E-05-2.85859E-05-2.85667E-05 4.13797E-10 2.41539E-18 2.20695E-20
 -1      1267 9.52394E-05-2.85787E-05-2.85687E-05 3.91954E-10-7.05358E-19-9.38830E-19
 -1      1268 9.52378E-05-2.85731E-05-2.85703E-05 1.23051E-10-1.86506E-18-2.48412E-18
 -1      1269 9.52370E-05-2.85709E-05-2.85713E-05-2.83712E-11-5.06964E-18 7.12684E-22
 -1      1270 3.67914E-05-1.14259E-04 2.01240E-05-1.33477E-05 1.37363E-17 1.57543E-18
 -1      1271 1.68029E-05-5.99394E-05 8.55916E-06-2.13090E-05 1.53770E-17 5.60651E-18
 -1      1272 8.61848E-06 3.02049E-09-9.08323E-06 8.10707E-06 1.45927E-17 8.62449E-18
 -1      1273 4.01843E-05 3.10612E-05-3.02878E-05 6.45136E-05 1.09183E-17 9.94078E-18
 -1      1274 1.21702E-04 1.47793E-05-5.23914E-05 1.15043E-04 5.94617E-18 7.75882E-18
 -1      1275 2.26658E-04-3.61862E-05-7.01386E-05 1.17765E-04 1.70169E-18 3.09845E-18
 -1      1276 3.07071E-04-8.39326E-05-8.14130E-05 6.41949E-05 2.45798E-19-1.48612E-18
 -1      1277 3.30722E-04-9.95298E-05-8.38447E-05-2.05272E-05 6.98326E-19-7.49095E-18
 -1      1278 2.74780E-04-6.47829E-05-7.68719E-05-9.60916E-05 3.91753E-18-1.32103E-17
 -1      1279 1.71233E-04-7.38929E-06-6.12103E-05-1.20704E-04 9.03276E-18-1.62376E-17
 -1      1280 7.60691E-05 2.84771E-05-4.13195E-05-9.34438E-05 1.39523E-17-1.61868E-17
 -1      1281 1.91088E-05 1.86784E-05-1.89590E-05-3.41300E-05 1.66679E-17-1.29232E-17
 -1      1282 1.06811E-05-3.49948E-05 1.98301E-06 1.41804E-05 1.50687E-17-7.35690E-18
 -1      1283 2.91039E-05-9.65036E-05 1.67278E-05 2.08264E-05 6.11558E-18-2.30044E-18
 -1      1284 4.20803E-05-1.29559E-04 2.31397E-05-4.96439E-06-4.21526E-18-6.24422E-19
 -1      1285 3.10654E-05-1.11287E-04 2.02535E-05-3.37987E-05-1.20503E-17-3.68936E-18
 -1      1286 1.08296E-05-5.88423E-05 8.11110E-06-3.56234E-05-1.77665E-17-9.01836E-18
 -1      1287 1.11411E-05-2.84224E-06-1.18855E-05 4.90726E-06-1.69152E-17-1.34949E-17
 -1      1288 6.55866E-05 1.67086E-05-3.67449E-05 7.04181E-05-1.18839E-17-1.39777E-17
 -1      1289 1.81914E-04-1.65277E-05-6.21314E-05 1.18020E-04-5.98513E-18-1.03457E-17
 -1      1290 3.17212E-04-7.92462E-05-8.23441E-05 1.03146E-04-1.28410E-18-3.63208E-18
 -1      1291 3.95273E-04-1.21621E-04-9.18396E-05 1.78131E-05-3.29708E-19 2.52606E-18
 -1      1292 3.53176E-04-9.91185E-05-8.67115E-05-8.19474E-05-2.29588E-18 8.97347E-18
 -1      1293 2.27220E-04-3.67164E-05-6.95633E-05-1.20947E-04-6.43322E-18 1.44131E-17
 -1      1294 1.00869E-04 9.65234E-06-4.58367E-05-9.11469E-05-1.01339E-17 1.47350E-17
 -1      1295 2.42496E-05 8.20180E-06-2.03949E-05-2.71571E-05-1.05100E-17 1.01593E-17
 -1      1296 6.38021E-06-3.73719E-05 1.76493E-06 2.62708E-05-9.75613E-18 6.29684E-18
 -1      1297 2.35715E-05-9.53359E-05 1.68585E-05 3.98615E-05-5.62769E-18 2.02166E-18
 -1      1298 4.04638E-05-1.27642E-04 2.30022E-05 1.77743E-05 5.30116E-18 4.03214E-19
 -1      1299 1.04763E-04-2.18944E-05-3.80351E-05-1.73468E-05-3.43472E-19 5.63404E-18
 -1      1300 9.07478E-05-6.78001E-06-3.61436E-05-1.98410E-05-9.94628E-19-7.26278E-19
 -1      1301 9.29177E-05-6.69693E-06-3.72806E-05-2.51945E-05-1.29924E-18 6.93349E-19
 -1      1302 8.62940E-05-4.15432E-06-3.52689E-05-1.56683E-05-9.83008E-19-2.70087E-18
 -1      1303 8.75883E-05-4.15264E-06-3.57400E-05-1.81206E-05-1.12481E-18-1.87223E-18
 -1      1304 9.26230E-05-1.06040E-05-3.52318E-05-1.83242E-05-1.73721E-18-6.11875E-19
 -1      1305 8.43030E-05-3.16805E-06-3.47874E-05-1.20479E-05-7.50656E-19-3.62829E-18
 -1      1306 8.50025E-05-3.14292E-06-3.50362E-05-1.38516E-05-8.89279E-19-3.21812E-18
 -1      1307 8.82165E-05-7.40349E-06-3.47125E-05-1.46213E-05-1.53879E-18-2.27060E-18
 -1      1308 8.31502E-05-2.61784E-06-3.45083E-05-9.01387E-06-5.34385E-19-4.05457E-18
 -1      1309 8.35735E-05-2.60660E-06-3.46512E-05-1.05003E-05-6.14192E-19-3.86243E-18
 -1      1310 8.59582E-05-5.84116E-06-3.44005E-05-1.11954E-05-1.14774E-18-3.04919E-18
 -1      1311 8.24449E-05-2.28264E-06-3.43398E-05-6.42555E-06-3.48574E-19-4.15791E-18
 -1      1312 8.27054E-05-2.27777E-06-3.44251E-05-7.69999E-06-4.33919E-19-4.10844E-18
 -1      1313 8.46301E-05-4.93433E-06-3.42084E-05-8.31618E-06-8.16447E-19-3.39605E-18
 -1      1314 8.20210E-05-2.08219E-06-3.42379E-05-4.04180E-06-1.76821E-19-4.10937E-18
 -1      1315 8.21719E-05-2.08026E-06-3.42875E-05-5.22470E-06-2.38744E-19-4.15098E-18
 -1      1316 8.38164E-05-4.38783E-06-3.40870E-05-5.79602E-06-4.99432E-19-3.52427E-18
 -1      1317 8.18277E-05-1.98941E-06-3.41893E-05-1.78656E-06 4.60541E-20-4.03550E-18
 -1      1318 8.18867E-05-1.98829E-06-3.42102E-05-2.91695E-06-2.22280E-20-4.06163E-18
 -1      1319 8.33573E-05-4.09000E-06-3.40147E-05-3.46939E-06-1.68941E-19-3.38428E-18
 -1      1320 8.18263E-05-1.98491E-06-3.41852E-05 4.43627E-07 1.99830E-19-3.91923E-18
 -1      1321 8.18075E-05-1.98422E-06-3.41820E-05-6.84380E-07 1.62654E-19-3.98722E-18
 -1      1322 8.31853E-05-3.99068E-06-3.39827E-05-1.24103E-06 1.68296E-19-3.31778E-18
 -1      1323 8.19933E-05-2.05574E-06-3.42210E-05 2.73607E-06 3.54166E-19-3.81040E-18
 -1      1324 8.19047E-05-2.05586E-06-3.41957E-05 1.56747E-06 3.27112E-19-3.89119E-18
 -1      1325 8.32549E-05-4.05634E-06-3.39851E-05 9.87151E-07 4.21896E-19-3.27806E-18
 -1      1326 8.23247E-05-2.19761E-06-3.42971E-05 5.16974E-06 5.47024E-19-3.57543E-18
 -1      1327 8.21651E-05-2.19896E-06-3.42484E-05 3.92002E-06 4.66331E-19-3.70589E-18
 -1      1328 8.35419E-05-4.27053E-06-3.40186E-05 3.29806E-06 6.79948E-19-3.13251E-18
 -1      1329 8.28396E-05-2.41197E-06-3.44215E-05 7.77940E-06 7.33167E-19-3.23262E-18
 -1      1330 8.25959E-05-2.41858E-06-3.43430E-05 6.42898E-06 6.49641E-19-3.43578E-18
 -1      1331 8.40489E-05-4.63573E-06-3.40832E-05 5.74601E-06 9.90208E-19-2.86899E-18
 -1      1332 8.36532E-05-2.73521E-06-3.46301E-05 1.07596E-05 9.66240E-19-2.62649E-18
 -1      1333 8.32627E-05-2.74966E-06-3.44965E-05 9.19867E-06 8.44584E-19-2.97463E-18
 -1      1334 8.48383E-05-5.19686E-06-3.41887E-05 8.43283E-06 1.29502E-18-2.49340E-18
 -1      1335 8.50085E-05-3.24225E-06-3.50004E-05 1.42371E-05 1.14942E-18-1.65500E-18
 -1      1336 8.43395E-05-3.27347E-06-3.47572E-05 1.23766E-05 1.04505E-18-2.27125E-18
 -1      1337 8.60991E-05-6.08150E-06-3.43628E-05 1.14916E-05 1.64642E-18-1.84995E-18
 -1      1338 8.75696E-05-4.16428E-06-3.57156E-05 1.85597E-05 1.31550E-18 2.23299E-19
 -1      1339 8.62655E-05-4.22340E-06-3.52294E-05 1.61221E-05 1.15850E-18-8.84991E-19
 -1      1340 8.82843E-05-7.60493E-06-3.46620E-05 1.50562E-05 1.86288E-18-6.80035E-19
 -1      1341 9.37570E-05-6.90151E-06-3.71879E-05 2.46754E-05 1.08928E-18 3.68068E-18
 -1      1342 9.04588E-05-6.53583E-06-3.61306E-05 2.06677E-05 1.06546E-18 1.57389E-18
 -1      1343 9.27219E-05-1.08295E-05-3.51734E-05 1.91515E-05 1.92732E-18 1.39130E-18
 -1      1344 1.23604E-04-2.49491E-05-3.90333E-05 2.80935E-05 4.90432E-19 1.00462E-17
 -1      1345 1.00313E-04-1.45126E-05-3.74088E-05 2.37062E-05 5.24208E-19 5.64600E-18
 -1      1346 1.02016E-04-1.94812E-05-3.54821E-05 2.09664E-05 1.75540E-18 4.49478E-18
 -1      1347 1.02838E-04-2.78938E-05-3.48131E-05 7.12686E-06 9.06219E-19 9.74998E-18
 -1      1348 1.05929E-04-3.02001E-05-3.38718E-05-8.15780E-06-1.07224E-18 6.07725E-18
 -1      1349 9.90859E-05-2.79860E-05-3.10932E-05-4.97652E-06-1.00209E-18 4.84191E-18
 -1      1350 9.65157E-05-2.81042E-05-2.95987E-05-2.32058E-06-8.50898E-19 4.30732E-18
 -1      1351 9.44422E-05-2.78804E-05-2.85868E-05-1.85550E-06-8.18551E-19 3.06703E-18
 -1      1352 1.00382E-04-2.81295E-05-3.13286E-05-7.71748E-06-1.77125E-18 2.20062E-18
 -1      1353 9.29400E-05-2.75719E-05-2.80071E-05-5.39825E-07-6.62194E-19 2.64555E-18
 -1      1354 9.25130E-05-2.75635E-05-2.77856E-05-4.07666E-07-5.94875E-19 1.73396E-18
 -1      1355 9.59777E-05-2.80860E-05-2.92315E-05-2.64873E-06-1.42905E-18 1.48034E-18
 -1      1356 9.20726E-05-2.74670E-05-2.76401E-05 2.85519E-07-4.95885E-19 1.34403E-18
 -1      1357 9.24486E-05-2.76172E-05-2.77394E-05 3.77744E-07-4.99180E-19 6.79148E-19
 -1      1358 9.42602E-05-2.79459E-05-2.84599E-05-2.80768E-07-1.07004E-18 6.70321E-19
 -1      1359 9.26337E-05-2.76692E-05-2.78085E-05 8.32706E-07-3.94433E-19 3.74865E-19
 -1      1360 9.34801E-05-2.79357E-05-2.80596E-05 9.07552E-07-3.29588E-19-1.84031E-19
 -1      1361 9.40355E-05-2.79914E-05-2.83303E-05 1.08441E-06-8.22615E-19-8.63180E-20
 -1      1362 9.41512E-05-2.81175E-05-2.82821E-05 1.34170E-06-2.05654E-19-4.32596E-19
 -1      1363 9.55218E-05-2.85292E-05-2.86902E-05 1.43526E-06-2.22581E-19-6.41078E-19
 -1      1364 9.48274E-05-2.82281E-05-2.85680E-05 2.14464E-06-5.98018E-19-7.07732E-19
 -1      1365 9.66459E-05-2.88257E-05-2.90592E-05 1.94240E-06-7.55017E-20-7.05195E-19
 -1      1366 9.86106E-05-2.94060E-05-2.96452E-05 2.06781E-06-1.14796E-19-8.00023E-19
 -1      1367 9.65238E-05-2.86831E-05-2.91057E-05 3.26722E-06-2.93603E-19-7.18701E-19
 -1      1368 1.00248E-04-2.98328E-05-3.01846E-05 2.74894E-06 1.82641E-21-6.75522E-19
 -1      1369 1.03036E-04-3.06512E-05-3.10184E-05 2.93257E-06-3.99032E-20-8.92508E-19
 -1      1370 9.91336E-05-2.93501E-05-2.99484E-05 4.67493E-06-1.18108E-19-9.46692E-19
 -1      1371 1.05315E-04-3.12391E-05-3.17750E-05 3.88819E-06-4.60839E-20-7.18099E-19
 -1      1372 1.09282E-04-3.24106E-05-3.29603E-05 4.15892E-06 4.29207E-20-7.84750E-19
 -1      1373 1.02828E-04-3.02770E-05-3.11515E-05 6.60656E-06-1.89987E-20-8.01358E-19
 -1      1374 1.12379E-04-3.32194E-05-3.39911E-05 5.45946E-06 1.76315E-19-7.25378E-19
 -1      1375 1.17944E-04-3.48846E-05-3.56409E-05 5.84154E-06 1.52525E-19-5.84717E-19
 -1      1376 1.07890E-04-3.15591E-05-3.27953E-05 9.26960E-06 1.83859E-19-2.55245E-19
 -1      1377 1.21791E-04-3.59256E-05-3.69059E-05 7.35778E-06 8.89385E-21-4.13881E-19
 -1      1378 1.28905E-04-3.81609E-05-3.89501E-05 7.78311E-06-8.54312E-20-6.62592E-19
 -1      1379 1.14479E-04-3.33455E-05-3.48732E-05 1.25892E-05 9.49603E-20-1.10061E-19
 -1      1380 1.33954E-04-3.96533E-05-4.05162E-05 9.17940E-06 1.58445E-19-5.69736E-19
 -1      1381 1.43004E-04-4.27517E-05-4.29529E-05 9.55570E-06 3.00712E-19-2.01806E-19
 -1      1382 1.22968E-04-3.59908E-05-3.73754E-05 1.61000E-05 1.02114E-19-2.80844E-20
 -1      1383 1.48810E-04-4.48314E-05-4.44908E-05 9.45752E-06 6.57946E-19 3.79047E-20
 -1      1384 1.57321E-04-4.82106E-05-4.64837E-05 9.17433E-06 4.19334E-19 5.77624E-19
 -1      1385 1.33707E-04-4.02918E-05-4.00412E-05 1.79735E-05 7.59841E-19-1.36055E-19
 -1      1386 1.63089E-04-5.09558E-05-4.75424E-05 5.17028E-06 2.25628E-19 8.47245E-19
 -1      1387 1.65836E-04-5.28490E-05-4.78471E-05 3.13929E-06-1.11808E-19 7.63177E-19
 -1      1388 1.45865E-04-4.67846E-05-4.22392E-05 1.38152E-05 5.51895E-19 5.71178E-19
 -1      1389 1.69386E-04-5.47868E-05-4.82222E-05-5.49477E-06-3.85876E-19 9.27925E-19
 -1      1390 1.61406E-04-5.25343E-05-4.64013E-05-8.79207E-06-9.60350E-19-7.09390E-20
 -1      1391 1.56839E-04-5.39700E-05-4.37178E-05-4.02520E-07-2.84709E-19 9.78429E-19
 -1      1392 1.61808E-04-5.20499E-05-4.67645E-05-1.75648E-05-1.14746E-18-2.71898E-19
 -1      1393 1.45204E-04-4.48847E-05-4.39481E-05-1.95186E-05-9.90182E-19-1.52424E-18
 -1      1394 1.62184E-04-5.64658E-05-4.54590E-05-2.06375E-05-1.59110E-18 1.28762E-18
 -1      1395 1.41126E-04-4.01170E-05-4.48496E-05-2.01985E-05-9.36818E-19-2.74058E-18
 -1      1396 1.22888E-04-3.06906E-05-4.24391E-05-1.68015E-05-1.12719E-18-3.96073E-18
 -1      1397 1.61127E-04-4.88861E-05-4.86671E-05-3.35221E-05-2.15358E-18-9.52065E-19
 -1      1398 1.20863E-04-2.78033E-05-4.31071E-05-2.96694E-06-1.23413E-18-4.74466E-18
 -1      1399 1.21798E-04-2.80943E-05-4.33419E-05 3.32457E-06-9.48253E-19-6.06878E-18
 -1      1400 1.54735E-04-3.46779E-05-5.28472E-05-1.72154E-05-1.89015E-18-2.26571E-18
 -1      1401 1.24148E-04-3.16324E-05-4.26686E-05 1.83497E-05-9.35336E-19-7.12334E-18
 -1      1402 1.43968E-04-4.15249E-05-4.52406E-05 2.08026E-05-9.32160E-19-7.96465E-18
 -1      1403 1.54912E-04-3.48132E-05-5.27707E-05 1.75063E-05-2.13537E-18-3.80260E-18
 -1      1404 1.47388E-04-4.59012E-05-4.43389E-05 1.91872E-05-1.93812E-19-7.97905E-18
 -1      1405 1.65773E-04-5.38942E-05-4.74964E-05 1.60358E-05 3.11695E-19-8.28017E-18
 -1      1406 1.61757E-04-4.96740E-05-4.86878E-05 3.37202E-05-1.03804E-18-5.02291E-18
 -1      1407 1.64848E-04-5.33905E-05-4.72132E-05 5.17376E-06 4.94932E-19-8.49447E-18
 -1      1408 1.70059E-04-5.47941E-05-4.86598E-05 1.72695E-06 3.61471E-19-7.65930E-18
 -1      1409 1.62604E-04-5.65201E-05-4.51955E-05 1.70785E-05 4.75549E-19-5.92054E-18
 -1      1410 1.65510E-04-5.20024E-05-4.81292E-05-5.80027E-06 1.29702E-20-6.94991E-18
 -1      1411 1.60540E-04-4.95604E-05-4.72308E-05-7.03812E-06 6.30510E-20-7.11841E-18
 -1      1412 1.54819E-04-5.21516E-05-4.35583E-05-4.75480E-06 8.68526E-19-5.30752E-18
 -1      1413 1.54755E-04-4.69505E-05-4.60314E-05-9.55899E-06 2.56148E-19-7.00623E-18
 -1      1414 1.45836E-04-4.35952E-05-4.38226E-05-9.53941E-06 5.99124E-19-6.70712E-18
 -1      1415 1.43284E-04-4.48837E-05-4.20115E-05-1.57629E-05 3.98979E-19-3.62255E-18
 -1      1416 1.40328E-04-4.17623E-05-4.22794E-05-8.92121E-06 7.82705E-19-6.27133E-18
 -1      1417 1.31883E-04-3.89353E-05-3.99407E-05-8.46572E-06 4.33615E-19-5.05403E-18
 -1      1418 1.31687E-04-3.91496E-05-3.97080E-05-1.73597E-05 8.92237E-19-3.23953E-18
 -1      1419 1.27290E-04-3.76525E-05-3.84875E-05-6.87104E-06 2.92465E-19-4.93016E-18
 -1      1420 1.20759E-04-3.56142E-05-3.65770E-05-6.40993E-06 3.87114E-19-4.47784E-18
 -1      1421 1.21890E-04-3.55369E-05-3.71205E-05-1.45081E-05 9.85920E-19-2.42774E-18
 -1      1422 1.17230E-04-3.47045E-05-3.54127E-05-4.85802E-06 1.15092E-18-4.45820E-18
 -1      1423 1.12621E-04-3.33227E-05-3.40321E-05-4.50715E-06 1.26226E-18-2.79621E-18
 -1      1424 1.14228E-04-3.32819E-05-3.47915E-05-1.07505E-05 1.16214E-18-2.80053E-18
 -1      1425 1.10046E-04-3.26759E-05-3.31758E-05-3.29917E-06-1.42950E-19-2.41574E-18
 -1      1426 1.06942E-04-3.17630E-05-3.22373E-05-3.05689E-06-6.17216E-19-3.23327E-18
 -1      1427 1.08529E-04-3.18094E-05-3.29512E-05-7.50823E-06 5.80112E-19-1.98517E-18
 -1      1428 1.05205E-04-3.13235E-05-3.16633E-05-2.23281E-06 1.10664E-19-2.60320E-18
 -1      1429 1.03221E-04-3.07505E-05-3.10645E-05-2.08111E-06 2.03546E-19-2.83708E-18
 -1      1430 1.04512E-04-3.08369E-05-3.16269E-05-5.13106E-06-4.69455E-19-1.58775E-18
 -1      1431 1.01927E-04-3.04225E-05-3.06405E-05-1.48601E-06-3.15129E-19-2.90527E-18
 -1      1432 1.00547E-04-3.00250E-05-3.02237E-05-1.37919E-06-1.87151E-19-3.23219E-18
 -1      1433 1.01666E-04-3.01462E-05-3.06824E-05-3.47591E-06-1.08420E-19-1.90330E-18
 -1      1434 9.96605E-05-2.97956E-05-2.99361E-05-9.81852E-07 4.21248E-19-2.49504E-18
 -1      1435 9.87566E-05-2.95372E-05-2.96633E-05-9.13205E-07-2.82780E-20-2.67623E-18
 -1      1436 9.96246E-05-2.96572E-05-3.00067E-05-2.31481E-06 3.57243E-19-7.30834E-19
 -1      1437 9.81492E-05-2.93776E-05-2.94680E-05-6.50181E-07-3.66147E-19-2.88371E-18
 -1      1438 9.75557E-05-2.92085E-05-2.92892E-05-6.05692E-07-2.90688E-20-2.69831E-18
 -1      1439 9.82140E-05-2.93145E-05-2.95421E-05-1.54037E-06-5.16270E-19-1.22879E-18
 -1      1440 9.71404E-05-2.90984E-05-2.91566E-05-4.31597E-07-2.01139E-19-3.18357E-18
 -1      1441 9.67505E-05-2.89869E-05-2.90391E-05-4.02539E-07 3.02456E-19-2.67158E-18
 -1      1442 9.72428E-05-2.90751E-05-2.92239E-05-1.02642E-06-2.89569E-19-2.12766E-18
 -1      1443 9.64791E-05-2.89138E-05-2.89531E-05-2.91317E-07 6.16615E-19-2.87475E-18
 -1      1444 9.62310E-05-2.88435E-05-2.88785E-05-2.73249E-07-7.59219E-20-2.64129E-18
 -1      1445 9.65885E-05-2.89132E-05-2.90105E-05-6.90253E-07-1.94553E-21-1.96173E-18
 -1      1446 9.60333E-05-2.87903E-05-2.88161E-05-1.94511E-07-2.64316E-19-3.05309E-18
 -1      1447 9.58602E-05-2.87412E-05-2.87639E-05-1.81409E-07-3.26120E-19-3.38626E-18
 -1      1448 9.61360E-05-2.87975E-05-2.88637E-05-4.66368E-07-3.28018E-19-1.45233E-18
 -1      1449 9.57259E-05-2.87044E-05-2.87217E-05-1.28410E-07-4.67283E-19-4.10763E-18
 -1      1450 9.56127E-05-2.86726E-05-2.86875E-05-1.19725E-07-3.97439E-19-4.36308E-18
 -1      1451 9.58164E-05-2.87164E-05-2.87602E-05-3.10346E-07-7.32640E-19-3.16978E-18
 -1      1452 9.55219E-05-2.86475E-05-2.86592E-05-8.38912E-08 3.92017E-19-3.61626E-18
 -1      1453 9.54488E-05-2.86271E-05-2.86370E-05-7.80464E-08 3.65380E-19-2.33462E-18
 -1      1454 9.55986E-05-2.86605E-05-2.86899E-05-2.04882E-07 6.23611E-19-3.95934E-18
 -1      1455 9.53882E-05-2.86103E-05-2.86182E-05-5.37195E-08 3.25498E-19-2.16552E-18
 -1      1456 9.53419E-05-2.85975E-05-2.86041E-05-4.97835E-08-7.71015E-21-1.50923E-18
 -1      1457 9.54515E-05-2.86226E-05-2.86424E-05-1.33300E-07 7.30228E-19-3.23005E-18
 -1      1458 9.53022E-05-2.85865E-05-2.85918E-05-3.32407E-08-5.24822E-19-1.64178E-18
 -1      1459 9.52742E-05-2.85789E-05-2.85832E-05-3.05984E-08-4.03999E-19-2.02575E-18
 -1      1460 9.53537E-05-2.85974E-05-2.86108E-05-8.45819E-08-7.41600E-19-1.26684E-18
 -1      1461 9.52499E-05-2.85721E-05-2.85758E-05-1.98005E-08 1.87438E-19-1.56843E-18
 -1      1462 9.52346E-05-2.85681E-05-2.85710E-05-1.81445E-08 6.58196E-20-1.17608E-18
 -1      1463 9.52913E-05-2.85817E-05-2.85906E-05-5.19727E-08 1.96281E-20-8.29352E-19
 -1      1464 9.52189E-05-2.85637E-05-2.85662E-05-1.04658E-08 5.94272E-19-9.37147E-19
 -1      1465 9.52108E-05-2.85618E-05-2.85636E-05-9.25910E-09 1.18530E-18 1.78024E-19
 -1      1466 9.52517E-05-2.85715E-05-2.85777E-05-2.99369E-08 6.88263E-19-1.60494E-18
 -1      1467 9.52020E-05-2.85593E-05-2.85609E-05-4.15079E-09-1.22968E-18 6.30111E-19
 -1      1468 9.51993E-05-2.85589E-05-2.85600E-05-3.38122E-09-1.10627E-18-9.12146E-19
 -1      1469 9.52275E-05-2.85657E-05-2.85697E-05-1.46057E-08 3.51110E-19-7.64067E-19
 -1      1470 9.51953E-05-2.85577E-05-2.85588E-05-6.34059E-11 4.36155E-19-1.58846E-18
 -1      1471 9.51961E-05-2.85583E-05-2.85589E-05 4.16045E-10-4.50109E-19-9.70155E-19
 -1      1472 9.52147E-05-2.85628E-05-2.85653E-05-4.48556E-09-1.21245E-18 9.69685E-19
 -1      1473 9.51952E-05-2.85580E-05-2.85587E-05 2.49380E-09 1.02126E-20-1.56217E-18
 -1      1474 9.51981E-05-2.85591E-05-2.85595E-05 2.77318E-09 5.71684E-19-1.69533E-18
 -1      1475 9.52096E-05-2.85619E-05-2.85634E-05 2.00952E-09-1.97184E-19-4.00123E-19
 -1      1476 9.51991E-05-2.85594E-05-2.85598E-05 3.99108E-09 7.34555E-20-1.34082E-18
 -1      1477 9.52033E-05-2.85609E-05-2.85610E-05 4.13081E-09 4.71187E-20-2.26444E-18
 -1      1478 9.52094E-05-2.85623E-05-2.85631E-05 5.98524E-09 2.46009E-19-3.88314E-19
 -1      1479 9.52054E-05-2.85615E-05-2.85616E-05 4.72361E-09 7.21525E-19-2.77487E-18
 -1      1480 9.52099E-05-2.85629E-05-2.85629E-05 4.76305E-09 1.67803E-18-7.37821E-19
 -1      1481 9.52123E-05-2.85634E-05-2.85638E-05 8.16424E-09 6.41855E-19-9.77401E-19
 -1      1482 9.52127E-05-2.85638E-05-2.85638E-05 4.92396E-09 1.66919E-18-2.19049E-19
 -1      1483 9.52175E-05-2.85653E-05-2.85652E-05 4.89411E-09 8.49983E-19 1.72204E-18
 -1      1484 9.52168E-05-2.85650E-05-2.85651E-05 9.09631E-09 2.28454E-18-7.70706E-20
 -1      1485 9.52204E-05-2.85662E-05-2.85661E-05 4.65098E-09-5.30594E-19 1.96882E-18
 -1      1486 9.52248E-05-2.85677E-05-2.85673E-05 4.53773E-09-4.24404E-20 1.33878E-18
 -1      1487 9.52223E-05-2.85669E-05-2.85666E-05 9.03430E-09 2.14583E-19 2.40318E-19
 -1      1488 9.52275E-05-2.85685E-05-2.85681E-05 3.86833E-09 1.18998E-18-1.12513E-19
 -1      1489 9.52311E-05-2.85697E-05-2.85691E-05 3.63964E-09 3.01160E-19 2.25413E-18
 -1      1490 9.52277E-05-2.85687E-05-2.85681E-05 7.98824E-09 9.84518E-21 9.44607E-19
 -1      1491 9.52333E-05-2.85705E-05-2.85697E-05 2.46904E-09 4.90489E-19 1.50736E-18
 -1      1492 9.52354E-05-2.85711E-05-2.85704E-05 2.07739E-09 6.93482E-19 2.84006E-18
 -1      1493 9.52325E-05-2.85705E-05-2.85693E-05 5.88338E-09 1.03230E-18-1.82391E-19
 -1      1494 9.52370E-05-2.85714E-05-2.85709E-05 2.09278E-10-2.41771E-18 2.47129E-18
 -1      1495 9.70993E-05-2.85251E-05-2.99209E-05 2.83633E-06 9.24536E-19 7.77878E-18
 -1      1496 1.02868E-04-2.95005E-05-3.22528E-05 4.29433E-06 7.51477E-19 9.14361E-18
 -1      1497 1.02707E-04-2.68608E-05-3.28104E-05 1.24570E-05 1.47855E-18 6.01923E-18
 -1      1498 9.28334E-05-2.76717E-05-2.79994E-05 1.01407E-06 7.00761E-19 6.01883E-18
 -1      1499 9.46255E-05-2.77831E-05-2.88650E-05 1.33399E-06 6.97585E-19 7.10958E-18
 -1      1500 9.71040E-05-2.82242E-05-2.97137E-05 4.58675E-06 1.36274E-18 4.84747E-18
 -1      1501 9.12686E-05-2.73289E-05-2.73816E-05 2.01288E-07 3.27484E-19 4.83566E-18
 -1      1502 9.17391E-05-2.73017E-05-2.76104E-05 3.63115E-07 3.98866E-19 5.48017E-18
 -1      1503 9.38916E-05-2.78316E-05-2.83522E-05 1.59376E-06 9.45236E-19 3.79975E-18
 -1      1504 9.09919E-05-2.72845E-05-2.72781E-05-1.69113E-07 3.80308E-19 3.90629E-18
 -1      1505 9.08987E-05-2.71818E-05-2.72674E-05-8.24754E-08 3.04960E-19 4.40052E-18
 -1      1506 9.25645E-05-2.76338E-05-2.78355E-05 2.81443E-07 6.72571E-19 2.84933E-18
 -1      1507 9.13069E-05-2.73964E-05-2.73723E-05-3.20076E-07 1.61767E-19 3.18930E-18
 -1      1508 9.09795E-05-2.72589E-05-2.72793E-05-2.77031E-07 2.28939E-19 3.54327E-18
 -1      1509 9.22251E-05-2.76191E-05-2.76931E-05-3.20673E-07 5.83586E-19 2.27594E-18
 -1      1510 9.18297E-05-2.75678E-05-2.75264E-05-3.32016E-07 2.21802E-19 2.76542E-18
 -1      1511 9.14479E-05-2.74318E-05-2.74175E-05-3.21345E-07 1.18584E-19 3.02362E-18
 -1      1512 9.23625E-05-2.77105E-05-2.77107E-05-5.40444E-07 3.34040E-19 1.77910E-18
 -1      1513 9.22961E-05-2.77224E-05-2.76603E-05-2.34987E-07 1.51809E-19 2.57712E-18
 -1      1514 9.19869E-05-2.76211E-05-2.75740E-05-2.52847E-07 7.96062E-20 2.62788E-18
 -1      1515 9.26575E-05-2.78384E-05-2.77781E-05-5.03370E-07 1.61429E-19 1.64454E-18
 -1      1516 9.24918E-05-2.77956E-05-2.77113E-05-4.10336E-08-1.03977E-20 2.13390E-18
 -1      1517 9.23635E-05-2.77607E-05-2.76790E-05-8.66889E-08 1.74737E-19 2.43841E-18
 -1      1518 9.28788E-05-2.79404E-05-2.78233E-05-2.59047E-07 2.71740E-19 1.52319E-18
 -1      1519 9.22315E-05-2.77301E-05-2.76259E-05 2.39372E-07 2.35467E-19 1.98471E-18
 -1      1520 9.23813E-05-2.77911E-05-2.76754E-05 1.66715E-07 7.38656E-20 2.10890E-18
 -1      1521 9.28386E-05-2.79610E-05-2.77907E-05 1.66333E-07 1.15347E-19 1.33477E-18
 -1      1522 9.13662E-05-2.74775E-05-2.73622E-05 5.85097E-07-5.27824E-20 1.65148E-18
 -1      1523 9.18732E-05-2.76585E-05-2.75153E-05 4.89406E-07 1.38159E-19 1.81607E-18
 -1      1524 9.23826E-05-2.78500E-05-2.76367E-05 7.41481E-07 2.46126E-19 9.51611E-19
 -1      1525 8.98136E-05-2.70082E-05-2.68994E-05 9.54204E-07 1.03144E-19 1.66947E-18
 -1      1526 9.07194E-05-2.73210E-05-2.71664E-05 8.45574E-07-2.18889E-20 1.64100E-18
 -1      1527 9.14017E-05-2.75665E-05-2.73336E-05 1.40788E-06 6.45929E-20 1.07395E-18
 -1      1528 8.76024E-05-2.63261E-05-2.62499E-05 1.27900E-06 1.95059E-19 1.26682E-18
 -1      1529 8.88844E-05-2.67603E-05-2.66218E-05 1.17540E-06 1.66382E-19 1.36809E-18
 -1      1530 8.98597E-05-2.70892E-05-2.68767E-05 2.06455E-06 3.29651E-19 7.52996E-19
 -1      1531 8.49140E-05-2.54840E-05-2.54696E-05 1.47211E-06 4.39465E-20 9.89427E-19
 -1      1532 8.64610E-05-2.59987E-05-2.59127E-05 1.39805E-06 2.44597E-20 1.10419E-18
 -1      1533 8.78296E-05-2.64311E-05-2.62934E-05 2.56747E-06 3.03827E-19 7.16821E-19
 -1      1534 8.20963E-05-2.45905E-05-2.46600E-05 1.44803E-06-8.73627E-20 1.12224E-18
 -1      1535 8.37021E-05-2.51125E-05-2.51147E-05 1.42878E-06 2.11436E-20 1.14199E-18
 -1      1536 8.55187E-05-2.56537E-05-2.56465E-05 2.75334E-06-8.49076E-20 7.12064E-19
 -1      1537 7.96227E-05-2.37989E-05-2.39546E-05 1.15735E-06-1.33153E-19 1.12895E-18
 -1      1538 8.10120E-05-2.42333E-05-2.43440E-05 1.20938E-06 2.60016E-20 1.08336E-18
 -1      1539 8.32632E-05-2.48704E-05-2.50298E-05 2.49035E-06-1.98490E-20 1.17210E-18
 -1      1540 7.79863E-05-2.32725E-05-2.34898E-05 6.19283E-07 3.27944E-19 4.41959E-19
 -1      1541 7.88783E-05-2.35260E-05-2.37370E-05 7.40976E-07 2.81215E-19 7.88495E-19
 -1      1542 8.14715E-05-2.42305E-05-2.45507E-05 1.74131E-06 5.26616E-19 7.39400E-20
 -1      1543 7.75573E-05-2.31349E-05-2.33665E-05-6.88181E-08 3.04955E-19-2.03457E-19
 -1      1544 7.77481E-05-2.31456E-05-2.34168E-05 9.97868E-08 2.56846E-19 5.72310E-20
 -1      1545 8.05208E-05-2.38794E-05-2.43042E-05 6.06229E-07 5.87675E-19-3.85972E-19
 -1      1546 7.84597E-05-2.34267E-05-2.36193E-05-7.57575E-07-7.25868E-20-7.11137E-19
 -1      1547 7.78907E-05-2.31863E-05-2.34572E-05-5.79412E-07 1.94966E-19-5.96513E-19
 -1      1548 8.06399E-05-2.39092E-05-2.43461E-05-6.89200E-07 4.48418E-19-9.09149E-19
 -1      1549 8.05300E-05-2.40910E-05-2.42053E-05-1.29871E-06 6.90481E-20 8.53650E-21
 -1      1550 7.93072E-05-2.36475E-05-2.38597E-05-1.14920E-06-1.68526E-19-4.28625E-19
 -1      1551 8.18313E-05-2.43231E-05-2.46761E-05-1.86506E-06-2.11513E-19-8.02100E-19
 -1      1552 8.33781E-05-2.49959E-05-2.50195E-05-1.59775E-06 3.63438E-20-5.19191E-19
 -1      1553 8.17329E-05-2.44356E-05-2.45530E-05-1.50244E-06 1.38220E-19-5.68439E-20
 -1      1554 8.38726E-05-2.50341E-05-2.52383E-05-2.68710E-06-2.50173E-20-4.78057E-19
 -1      1555 8.65189E-05-2.59815E-05-2.59279E-05-1.63856E-06 6.93381E-20-2.25933E-19
 -1      1556 8.47308E-05-2.53995E-05-2.54175E-05-1.60395E-06-9.48988E-20-4.60296E-19
 -1      1557 8.63964E-05-2.58995E-05-2.59396E-05-3.04219E-06-1.61427E-19-8.40640E-19
 -1      1558 8.95109E-05-2.69066E-05-2.68051E-05-1.47180E-06 3.92304E-19-5.59942E-19
 -1      1559 8.78285E-05-2.63810E-05-2.63204E-05-1.48798E-06 3.92472E-20-1.57641E-19
 -1      1560 8.90062E-05-2.67713E-05-2.66763E-05-2.95430E-06 3.09779E-20-3.37255E-19
 -1      1561 9.20472E-05-2.76780E-05-2.75597E-05-1.18178E-06-3.42122E-20-1.45095E-18
 -1      1562 9.06385E-05-2.72555E-05-2.71494E-05-1.23027E-06 2.68314E-19-9.85735E-19
 -1      1563 9.13778E-05-2.75365E-05-2.73590E-05-2.54498E-06 5.06491E-19-1.42797E-18
 -1      1564 9.39823E-05-2.82557E-05-2.81445E-05-8.52297E-07-3.47381E-19-4.94985E-19
 -1      1565 9.29222E-05-2.79517E-05-2.78319E-05-9.14104E-07-5.23749E-19-1.36589E-18
 -1      1566 9.33113E-05-2.81345E-05-2.79284E-05-1.97081E-06-3.51228E-19-1.41648E-18
 -1      1567 9.53069E-05-2.86424E-05-2.85521E-05-5.45492E-07-1.76400E-19-4.38770E-20
 -1      1568 9.45934E-05-2.84488E-05-2.83386E-05-6.06126E-07-6.85832E-20-3.77624E-20
 -1      1569 9.47333E-05-2.85519E-05-2.83581E-05-1.37074E-06-4.67254E-19-6.42350E-19
 -1      1570 9.61007E-05-2.88671E-05-2.88020E-05-2.95749E-07-8.25278E-20 4.38687E-20
 -1      1571 9.56834E-05-2.87631E-05-2.86747E-05-3.46760E-07-1.99554E-19-1.60318E-19
 -1      1572 9.56678E-05-2.88079E-05-2.86493E-05-8.38855E-07-1.78241E-19-9.72690E-19
 -1      1573 9.64840E-05-2.89693E-05-2.89276E-05-1.13866E-07 2.93695E-19-8.26464E-19
 -1      1574 9.62919E-05-2.89301E-05-2.88669E-05-1.52042E-07 1.98912E-19-2.72680E-19
 -1      1575 9.61956E-05-2.89370E-05-2.88212E-05-4.21216E-07 4.59917E-19-9.59747E-19
 -1      1576 9.65816E-05-2.89882E-05-2.89652E-05 4.76449E-09-7.94256E-19-2.18145E-19
 -1      1577 9.65431E-05-2.89908E-05-2.89505E-05-2.08706E-08-5.39406E-19-8.62734E-19
 -1      1578 9.64188E-05-2.89766E-05-2.89010E-05-1.26526E-07-4.72399E-19-8.28970E-19
 -1      1579 9.65020E-05-2.89568E-05-2.89471E-05 7.22991E-08 1.68629E-20-5.03918E-20
 -1      1580 9.65563E-05-2.89829E-05-2.89608E-05 5.71017E-08 2.59453E-19 4.58955E-19
 -1      1581 9.64362E-05-2.89598E-05-2.89167E-05 5.91358E-08-4.41791E-19-5.88795E-19
 -1      1582 9.63289E-05-2.89000E-05-2.88987E-05 1.02807E-07-3.93135E-19-9.67884E-21
 -1      1583 9.64300E-05-2.89363E-05-2.89271E-05 9.53680E-08-3.61277E-19-8.91166E-19
 -1      1584 9.63306E-05-2.89122E-05-2.88927E-05 1.59573E-07 1.47223E-19 4.88037E-23
 -1      1585 9.61206E-05-2.88347E-05-2.88381E-05 1.09050E-07 1.03771E-19 7.41073E-19
 -1      1586 9.62373E-05-2.88728E-05-2.88718E-05 1.06838E-07 4.57785E-20 1.99772E-20
 -1      1587 9.61642E-05-2.88519E-05-2.88478E-05 1.99875E-07-4.86130E-20-1.16199E-19
 -1      1588 9.59140E-05-2.87713E-05-2.87769E-05 1.01125E-07 6.01526E-19 5.04969E-20
 -1      1589 9.60269E-05-2.88063E-05-2.88100E-05 1.02083E-07 3.78176E-19 7.75396E-19
 -1      1590 9.59795E-05-2.87905E-05-2.87953E-05 2.01827E-07 3.76512E-19 4.50558E-19
 -1      1591 9.57292E-05-2.87154E-05-2.87216E-05 8.62556E-08-2.07518E-19-4.30391E-19
 -1      1592 9.58283E-05-2.87451E-05-2.87508E-05 8.88759E-08 2.28283E-19-1.32037E-19
 -1      1593 9.58025E-05-2.87345E-05-2.87437E-05 1.82189E-07 3.29790E-19 4.64469E-19
 -1      1594 9.55754E-05-2.86694E-05-2.86751E-05 6.91635E-08-1.82380E-19 3.84744E-19
 -1      1595 9.56566E-05-2.86930E-05-2.86993E-05 7.24334E-08-4.76957E-19 2.12139E-20
 -1      1596 9.56472E-05-2.86870E-05-2.86976E-05 1.52695E-07-6.14611E-19 2.84828E-19
 -1      1597 9.54542E-05-2.86335E-05-2.86383E-05 5.26413E-08 1.63405E-18-1.99275E-18
 -1      1598 9.55171E-05-2.86513E-05-2.86571E-05 5.59404E-08 1.18337E-18-1.41854E-19
 -1      1599 9.55193E-05-2.86489E-05-2.86591E-05 1.20852E-07 1.47072E-18-4.39840E-19
 -1      1600 9.53633E-05-2.86067E-05-2.86106E-05 3.81229E-08-1.02519E-18-2.29266E-18
 -1      1601 9.54096E-05-2.86195E-05-2.86245E-05 4.11133E-08-4.07509E-20-2.71392E-18
 -1      1602 9.54190E-05-2.86197E-05-2.86286E-05 9.09815E-08 8.45500E-19-5.87783E-19
 -1      1603 9.52984E-05-2.85878E-05-2.85907E-05 2.61585E-08-1.33536E-18 5.24908E-19
 -1      1604 9.53308E-05-2.85964E-05-2.86005E-05 2.86913E-08-1.63705E-18-1.94034E-18
 -1      1605 9.53441E-05-2.85983E-05-2.86057E-05 6.51965E-08-2.09995E-18 5.17451E-20
 -1      1606 9.52546E-05-2.85751E-05-2.85772E-05 1.67721E-08 6.77777E-19 8.08274E-19
 -1      1607 9.52758E-05-2.85805E-05-2.85837E-05 1.88144E-08 1.25783E-19 1.01408E-18
 -1      1608 9.52906E-05-2.85834E-05-2.85891E-05 4.42007E-08-2.69087E-19 1.38722E-19
 -1      1609 9.52271E-05-2.85672E-05-2.85687E-05 9.70906E-09 4.77399E-19 9.16586E-19
 -1      1610 9.52399E-05-2.85703E-05-2.85726E-05 1.12932E-08 3.31927E-19 1.47790E-18
 -1      1611 9.52545E-05-2.85735E-05-2.85778E-05 2.78744E-08 3.00529E-19 1.69544E-18
 -1      1612 9.52118E-05-2.85629E-05-2.85639E-05 4.59734E-09 3.34448E-19-5.69847E-19
 -1      1613 9.52183E-05-2.85642E-05-2.85659E-05 5.78621E-09 5.53036E-19 1.82267E-19
 -1      1614 9.52317E-05-2.85675E-05-2.85706E-05 1.56782E-08 1.14784E-18 2.24961E-18
 -1      1615 9.52052E-05-2.85612E-05-2.85618E-05 1.04467E-09-4.70915E-19-6.21625E-19
 -1      1616 9.52074E-05-2.85613E-05-2.85625E-05 1.91050E-09-2.56892E-19-9.38453E-19
 -1      1617 9.52190E-05-2.85643E-05-2.85665E-05 6.91149E-09 1.06055E-19 1.40034E-18
 -1      1618 9.52046E-05-2.85611E-05-2.85615E-05-1.30692E-09-8.08566E-20-7.73319E-19
 -1      1619 9.52038E-05-2.85605E-05-2.85613E-05-6.95269E-10-3.46589E-19-1.32340E-18
 -1      1620 9.52135E-05-2.85631E-05-2.85645E-05 8.67624E-10 7.72000E-20 6.34952E-19
 -1      1621 9.52079E-05-2.85623E-05-2.85624E-05-2.75375E-09 1.59528E-18-2.88226E-18
 -1      1622 9.52053E-05-2.85612E-05-2.85617E-05-2.33792E-09 1.70560E-18-9.02631E-19
 -1      1623 9.52129E-05-2.85633E-05-2.85642E-05-3.08088E-09 1.90605E-18-3.97939E-19
 -1      1624 9.52136E-05-2.85640E-05-2.85640E-05-3.51703E-09-1.02542E-18-2.94273E-18
 -1      1625 9.52099E-05-2.85627E-05-2.85630E-05-3.25392E-09-1.85892E-19-3.71438E-18
 -1      1626 9.52154E-05-2.85644E-05-2.85648E-05-5.43908E-09 5.89724E-19-4.37633E-19
 -1      1627 9.52203E-05-2.85661E-05-2.85660E-05-3.73378E-09 1.61228E-19-2.68285E-18
 -1      1628 9.52162E-05-2.85648E-05-2.85648E-05-3.59944E-09 2.72232E-19-3.01527E-18
 -1      1629 9.52198E-05-2.85659E-05-2.85660E-05-6.56572E-09 3.77079E-20-1.56503E-18
 -1      1630 9.52269E-05-2.85682E-05-2.85679E-05-3.45530E-09 6.19238E-19-4.92203E-18
 -1      1631 9.52230E-05-2.85669E-05-2.85668E-05-3.44850E-09 1.39145E-19-3.90473E-18
 -1      1632 9.52250E-05-2.85676E-05-2.85675E-05-6.66357E-09 9.13002E-19-8.81101E-19
 -1      1633 9.52326E-05-2.85700E-05-2.85696E-05-2.63050E-09 7.36992E-20-5.36642E-18
 -1      1634 9.52294E-05-2.85690E-05-2.85687E-05-2.78930E-09 3.24725E-19-5.01368E-18
 -1      1635 9.52301E-05-2.85694E-05-2.85689E-05-5.77303E-09 8.27533E-19-1.76991E-18
 -1      1636 9.52361E-05-2.85712E-05-2.85706E-05-1.23897E-09-2.87412E-19-4.71727E-18
 -1      1637 9.52344E-05-2.85707E-05-2.85701E-05-1.56240E-09-8.75737E-21-5.19097E-18
 -1      1638 9.52342E-05-2.85709E-05-2.85699E-05-3.81574E-09 5.82197E-19-1.21824E-18
 -1      1639 9.52370E-05-2.85715E-05-2.85709E-05-2.45719E-10-2.76738E-18-3.05295E-18
 -1      1640 9.52379E-05-2.85748E-05-2.85699E-05-2.28604E-09-1.82041E-19 2.32821E-18
 -1      1641 9.52372E-05-2.85729E-05-2.85704E-05-1.91181E-09-2.67887E-18 1.43766E-18
 -1      1642 9.52396E-05-2.85796E-05-2.85686E-05-3.23643E-09 3.44111E-18 2.21896E-18
 -1      1643 9.52386E-05-2.85767E-05-2.85694E-05-3.11321E-09 1.03212E-18 1.71041E-18
 -1      1644 9.52379E-05-2.85756E-05-2.85695E-05-5.15714E-09 1.90463E-19 3.18127E-18
 -1      1645 9.52414E-05-2.85850E-05-2.85670E-05-3.46790E-09 3.34592E-18-3.78094E-19
 -1      1646 9.52403E-05-2.85818E-05-2.85679E-05-3.48037E-09 3.68178E-18 3.92835E-19
 -1      1647 9.52395E-05-2.85796E-05-2.85685E-05-6.41668E-09 2.21891E-18 8.49970E-19
 -1      1648 9.52430E-05-2.85903E-05-2.85655E-05-3.19853E-09 3.27832E-18 1.00860E-19
 -1      1649 9.52420E-05-2.85872E-05-2.85664E-05-3.29103E-09 2.61273E-18 1.64041E-18
 -1      1650 9.52411E-05-2.85839E-05-2.85674E-05-6.47291E-09 2.58362E-18-3.42015E-19
 -1      1651 9.52444E-05-2.85947E-05-2.85642E-05-2.63119E-09 9.38067E-19 5.29973E-20
 -1      1652 9.52436E-05-2.85922E-05-2.85649E-05-2.76329E-09 2.05644E-18-1.46434E-18
 -1      1653 9.52424E-05-2.85879E-05-2.85663E-05-5.72187E-09 8.95327E-19-1.50170E-18
 -1      1654 9.52454E-05-2.85980E-05-2.85632E-05-1.87606E-09 1.91561E-18 5.26134E-19
 -1      1655 9.52449E-05-2.85962E-05-2.85637E-05-2.03435E-09 1.20956E-18 4.43727E-19
 -1      1656 9.52435E-05-2.85912E-05-2.85653E-05-4.48519E-09 1.46764E-19 8.56484E-19
 -1      1657 9.52461E-05-2.86001E-05-2.85626E-05-1.01600E-09 2.92010E-18 6.15383E-19
 -1      1658 9.52457E-05-2.85991E-05-2.85629E-05-1.18810E-09 2.80524E-18 1.72245E-18
 -1      1659 9.52443E-05-2.85937E-05-2.85646E-05-2.94944E-09 1.01790E-18 1.54857E-18
 -1      1660 9.52463E-05-2.86007E-05-2.85624E-05-8.86180E-11 6.81542E-18 2.60980E-18
 -1      1661 9.52462E-05-2.86005E-05-2.85624E-05-2.71154E-10 3.08671E-18 1.74050E-18
 -1      1662 9.52448E-05-2.85951E-05-2.85642E-05-1.24006E-09 1.75260E-18 1.59155E-18
 -1      1663 9.52460E-05-2.85998E-05-2.85627E-05 8.80751E-10 5.36944E-18-1.38926E-18
 -1      1664 9.52462E-05-2.86005E-05-2.85625E-05 6.91081E-10 6.12784E-18 7.88785E-19
 -1      1665 9.52449E-05-2.85954E-05-2.85641E-05 5.79040E-10 1.83395E-18 1.73496E-18
 -1      1666 9.52452E-05-2.85973E-05-2.85634E-05 1.85300E-09 2.71249E-18-1.59379E-18
 -1      1667 9.52457E-05-2.85989E-05-2.85629E-05 1.66432E-09 5.41102E-18-1.89255E-18
 -1      1668 9.52446E-05-2.85944E-05-2.85644E-05 2.44726E-09 8.38136E-19-2.00096E-18
 -1      1669 9.52440E-05-2.85934E-05-2.85646E-05 2.73748E-09 2.09248E-18 4.11493E-19
 -1      1670 9.52448E-05-2.85959E-05-2.85639E-05 2.57166E-09 2.38015E-18-4.39096E-19
 -1      1671 9.52439E-05-2.85922E-05-2.85651E-05 4.24518E-09 6.53890E-19-2.13095E-18
 -1      1672 9.52424E-05-2.85883E-05-2.85661E-05 3.43235E-09 9.21332E-19-1.45021E-18
 -1      1673 9.52434E-05-2.85914E-05-2.85652E-05 3.31000E-09 7.37229E-19 1.27674E-18
 -1      1674 9.52428E-05-2.85890E-05-2.85660E-05 5.79840E-09 6.19813E-19 1.42147E-19
 -1      1675 9.52405E-05-2.85825E-05-2.85677E-05 3.72442E-09-8.40739E-19-6.72341E-19
 -1      1676 9.52417E-05-2.85860E-05-2.85667E-05 3.69770E-09-2.79460E-19-2.59619E-19
 -1      1677 9.52414E-05-2.85848E-05-2.85671E-05 6.82178E-09-6.86632E-19-1.29523E-18
 -1      1678 9.52386E-05-2.85770E-05-2.85692E-05 3.32206E-09 5.15345E-20-5.53998E-19
 -1      1679 9.52397E-05-2.85802E-05-2.85684E-05 3.48433E-09-1.83198E-19-3.92606E-19
 -1      1680 9.52397E-05-2.85802E-05-2.85683E-05 6.90861E-09-8.75872E-19-2.12809E-20
 -1      1681 2.17777E-05-7.00632E-05 1.48842E-05-2.06871E-06 9.28094E-18 2.43204E-18
 -1      1682 2.65634E-05-8.56083E-05 1.83056E-05 6.47961E-06 7.54029E-18 2.05765E-18
 -1      1683 2.22758E-05-3.47032E-05 1.76820E-06 1.11916E-05 1.00052E-17 4.88357E-18
 -1      1684 2.64548E-05-6.14200E-05 9.29106E-06 5.07361E-06 8.99888E-18 3.19908E-18
 -1      1685 3.72878E-05-5.43922E-06-1.50927E-05 3.62095E-05 9.56978E-18 6.11642E-18
 -1      1686 3.03753E-05-2.61419E-05-5.98387E-06 1.70294E-05 1.05261E-17 5.26304E-18
 -1      1687 8.86978E-05-1.98638E-06-3.57713E-05 6.93712E-05 6.17995E-18 5.96311E-18
 -1      1688 6.05152E-05-6.60754E-06-2.48430E-05 4.54594E-05 7.64193E-18 5.62430E-18
 -1      1689 1.54852E-04-1.50045E-05-5.58772E-05 8.84270E-05 3.96962E-18 3.29919E-18
 -1      1690 1.09139E-04 4.71164E-07-4.59845E-05 7.66190E-05 6.06984E-18 5.28887E-18
 -1      1691 2.23138E-04-4.55599E-05-7.08343E-05 6.96230E-05 1.81837E-18 3.20178E-19
 -1      1692 1.80135E-04-2.32912E-05-6.37914E-05 8.20862E-05 3.19628E-18 2.55211E-18
 -1      1693 2.59526E-04-6.23031E-05-7.86947E-05 2.11311E-05 1.32074E-18-2.25840E-18
 -1      1694 2.35633E-04-4.88169E-05-7.52605E-05 5.28267E-05 1.40491E-18-2.12182E-19
 -1      1695 2.64926E-04-6.43460E-05-7.97441E-05-3.18492E-05 2.40049E-18-6.22908E-18
 -1      1696 2.72139E-04-6.87733E-05-8.08031E-05 6.09246E-06 1.70084E-18-3.59589E-18
 -1      1697 2.12180E-04-3.77096E-05-7.05093E-05-7.07902E-05 4.58160E-18-9.09290E-18
 -1      1698 2.50436E-04-5.83064E-05-7.61718E-05-4.64387E-05 2.98452E-18-7.20952E-18
 -1      1699 1.43706E-04-1.30328E-05-5.41184E-05-7.57702E-05 7.42636E-18-1.02084E-17
 -1      1700 1.89595E-04-3.23828E-05-6.30418E-05-7.61501E-05 5.35537E-18-9.80441E-18
 -1      1701 7.98827E-05 2.33961E-06-3.56718E-05-6.25681E-05 1.03778E-17-1.03202E-17
 -1      1702 1.15838E-04-3.84276E-06-4.55222E-05-8.11694E-05 8.83794E-18-1.12943E-17
 -1      1703 4.59674E-05-1.93137E-05-1.43389E-05-3.03826E-05 1.01822E-17-7.49921E-18
 -1      1704 6.46868E-05-4.60637E-06-2.55671E-05-5.49349E-05 1.01144E-17-9.07342E-18
 -1      1705 2.70240E-05-4.79704E-05 3.82636E-06-7.09869E-06 8.02903E-18-5.03519E-18
 -1      1706 2.61294E-05-2.15714E-05-4.63917E-06-1.94764E-05 1.04846E-17-7.26585E-18
 -1      1707 2.61009E-05-7.62841E-05 1.54235E-05-5.67700E-06 1.54456E-18-3.16515E-18
 -1      1708 2.05420E-05-5.47005E-05 1.00773E-05-2.68732E-06 6.13421E-18-4.32585E-18
 -1      1709 2.48749E-05-8.72153E-05 1.96964E-05-1.23492E-05-4.70498E-18-2.52056E-18
 -1      1710 2.45457E-05-8.40241E-05 1.89107E-05 9.41879E-08-3.55330E-19-2.39668E-18
 -1      1711 2.01352E-05-6.75359E-05 1.40814E-05-1.38953E-05-9.09205E-18-5.06017E-18
 -1      1712 2.56573E-05-8.29667E-05 1.77339E-05-8.15080E-06-5.97370E-18-2.91125E-18
 -1      1713 2.27791E-05-3.78530E-05 1.05551E-06-1.11328E-06-1.16958E-17-7.44838E-18
 -1      1714 2.57404E-05-6.31754E-05 8.93281E-06-1.00191E-05-1.04041E-17-5.52297E-18
 -1      1715 5.31840E-05-1.48584E-05-1.93535E-05 3.31767E-05-1.03948E-17-8.77357E-18
 -1      1716 3.77024E-05-3.28448E-05-8.16275E-06 8.53456E-06-1.14510E-17-7.90366E-18
 -1      1717 1.21391E-04-1.86051E-05-4.29833E-05 6.68338E-05-7.07950E-18-7.71478E-18
 -1      1718 7.98050E-05-1.61490E-05-3.06339E-05 4.12905E-05-9.55114E-18-8.21283E-18
 -1      1719 2.14889E-04-4.66177E-05-6.57938E-05 7.52733E-05-4.04204E-18-4.36730E-18
 -1      1720 1.54217E-04-2.45682E-05-5.42539E-05 6.81676E-05-6.03850E-18-6.97616E-18
 -1      1721 2.91474E-04-7.62022E-05-8.15539E-05 4.30078E-05-1.36139E-18-4.09117E-19
 -1      1722 2.42121E-04-5.30546E-05-7.42082E-05 6.44888E-05-2.69420E-18-3.30682E-18
 -1      1723 3.14931E-04-8.34579E-05-8.69411E-05-1.30598E-05-1.91514E-18 3.65622E-18
 -1      1724 3.05333E-04-7.86505E-05-8.57415E-05 3.09606E-05-1.49628E-18 8.36022E-19
 -1      1725 2.69078E-04-6.34489E-05-7.92412E-05-5.88178E-05-3.42508E-18 6.83386E-18
 -1      1726 3.09860E-04-8.32650E-05-8.49925E-05-2.75972E-05-2.38779E-18 4.39102E-18
 -1      1727 1.84498E-04-3.33800E-05-6.16015E-05-7.04642E-05-5.81234E-18 9.57147E-18
 -1      1728 2.45057E-04-5.80546E-05-7.18438E-05-6.81975E-05-4.10239E-18 8.48388E-18
 -1      1729 1.03886E-04-1.69854E-05-3.91044E-05-5.20473E-05-6.79744E-18 9.55623E-18
 -1      1730 1.52931E-04-2.67352E-05-5.11789E-05-7.29432E-05-6.26635E-18 1.06167E-17
 -1      1731 5.36980E-05-2.82926E-05-1.59657E-05-1.97075E-05-6.10287E-18 5.73950E-18
 -1      1732 7.87102E-05-1.73569E-05-2.78164E-05-4.57301E-05-6.27821E-18 8.13321E-18
 -1      1733 2.86743E-05-5.23458E-05 3.31823E-06 4.98336E-06-4.71628E-18 4.24342E-18
 -1      1734 3.13892E-05-2.85495E-05-5.75441E-06-1.04759E-05-6.05120E-18 5.72721E-18
 -1      1735 2.54257E-05-7.88984E-05 1.56315E-05 1.15647E-05-1.02491E-18 1.77369E-18
 -1      1736 1.93032E-05-5.79239E-05 1.03643E-05 1.26735E-05-4.09710E-18 2.97541E-18
 -1      1737 2.59923E-05-8.79420E-05 1.95020E-05 4.39014E-06 6.22728E-18 2.97203E-18
 -1      1738 2.33470E-05-8.36445E-05 1.87933E-05 1.56678E-05 9.48253E-19 3.11327E-18
 -1      1739 9.52364E-05-2.85720E-05-2.85704E-05 2.17631E-09-1.11182E-18-1.07249E-18
 -1      1740 4.44183E-05-4.01915E-05-4.39897E-06 3.60375E-05 5.75898E-18 2.84063E-18
 -1      1741 9.52368E-05-2.85718E-05-2.85706E-05-1.26160E-09-2.95806E-18-7.28595E-19
 -1      1742 9.52364E-05-2.85726E-05-2.85702E-05-3.29613E-09-1.16021E-18 9.25763E-19
 -1      1743 1.27261E-05-5.86641E-05 1.46036E-05 9.95046E-06 3.66617E-18 4.45709E-18
 -1      1744 2.19259E-05-4.99419E-05 8.11377E-06 2.34452E-05 5.30793E-18 2.43014E-18
 -1      1745 9.52373E-05-2.85730E-05-2.85704E-05 2.03357E-09-3.41070E-18-3.56997E-18
 -1      1746 9.52379E-05-2.85750E-05-2.85698E-05 2.45802E-09-4.91891E-20-3.52710E-18
 -1      1747 9.52380E-05-2.85759E-05-2.85694E-05 5.58331E-09-1.68004E-18-2.98457E-18
 -1      1748 8.16723E-05-3.34553E-05-2.12506E-05 4.78559E-05 5.31767E-18 2.56100E-18
 -1      1749 1.25828E-04-3.02229E-05-3.98275E-05 5.21567E-05 4.36180E-18 1.80418E-18
 -1      1750 1.70346E-04-2.85281E-05-5.72697E-05 5.01504E-05 3.67284E-18 1.05032E-18
 -1      1751 2.01672E-04-3.06361E-05-6.89920E-05 2.93653E-05 2.55126E-18-4.62056E-19
 -1      1752 2.19705E-04-3.32715E-05-7.50489E-05 4.66156E-06 2.90744E-18-1.71715E-18
 -1      1753 2.18944E-04-3.48293E-05-7.36863E-05-1.85848E-05 3.55415E-18-3.57278E-18
 -1      1754 1.87597E-04-3.17963E-05-6.31605E-05-3.41926E-05 4.19186E-18-4.60617E-18
 -1      1755 1.48278E-04-3.00006E-05-4.82788E-05-4.90336E-05 5.18617E-18-5.58364E-18
 -1      1756 1.04284E-04-3.35308E-05-3.01459E-05-4.99237E-05 5.75728E-18-5.77507E-18
 -1      1757 6.37580E-05-3.96641E-05-1.18542E-05-4.31808E-05 4.99411E-18-5.75771E-18
 -1      1758 3.02717E-05-4.61774E-05 3.44100E-06-2.93204E-05 3.09252E-18-6.13517E-18
 -1      1759 1.42516E-05-5.33151E-05 1.25055E-05-1.59809E-05 5.84453E-19-5.44515E-18
 -1      1760 1.30705E-05-5.68379E-05 1.39415E-05-5.98691E-07-2.71834E-18-4.56254E-18
 -1      1761 2.58410E-05-5.36252E-05 7.21400E-06 1.12981E-05-4.43210E-18-5.15589E-18
 -1      1762 5.52106E-05-4.91046E-05-6.55678E-06 2.40637E-05-5.94278E-18-4.60405E-18
 -1      1763 1.04290E-04-4.74504E-05-2.61182E-05 3.50248E-05-5.74797E-18-3.62445E-18
 -1      1764 1.65041E-04-5.04157E-05-4.75049E-05 3.56037E-05-4.97378E-18-2.62072E-18
 -1      1765 2.19232E-04-5.17334E-05-6.60779E-05 2.21729E-05-4.16243E-18-1.30274E-18
 -1      1766 2.49605E-04-4.81492E-05-7.77444E-05 6.70751E-06-2.46021E-18 9.94840E-19
 -1      1767 2.56982E-04-4.86748E-05-7.98861E-05-3.92392E-06-3.40253E-18 2.33993E-18
 -1      1768 2.34725E-04-5.27118E-05-7.11370E-05-1.86293E-05-4.16740E-18 3.75490E-18
 -1      1769 1.85780E-04-5.21935E-05-5.45172E-05-3.06380E-05-4.20975E-18 6.06052E-18
 -1      1770 1.28254E-04-5.15321E-05-3.37594E-05-3.43878E-05-2.46825E-18 6.14099E-18
 -1      1771 7.58603E-05-5.10668E-05-1.36190E-05-2.97383E-05-2.05067E-18 3.68629E-18
 -1      1772 3.54626E-05-5.25674E-05 2.88850E-06-1.64276E-05-9.73241E-19 3.77268E-18
 -1      1773 1.57460E-05-5.71759E-05 1.26427E-05-2.12582E-06 9.19878E-19 4.19493E-18
 -1      1774 1.06567E-04-2.32643E-05-3.57993E-05-1.67617E-05-1.27979E-18 4.53480E-18
 -1      1775 8.94102E-05-1.04958E-05-3.39469E-05-1.24640E-05-1.63757E-18-1.99227E-18
 -1      1776 9.08708E-05-1.16389E-05-3.41004E-05-1.42389E-05-1.85204E-18-1.48683E-18
 -1      1777 9.30257E-05-1.40110E-05-3.40233E-05-1.51845E-05-1.87704E-18-8.55556E-19
 -1      1778 9.47662E-05-1.59770E-05-3.42491E-05-1.69505E-05-1.98468E-18 4.75397E-20
 -1      1779 9.39388E-05-1.64134E-05-3.32332E-05-1.28218E-05-1.97107E-18-1.07650E-18
 -1      1780 8.58362E-05-7.20973E-06-3.37695E-05-7.23927E-06-9.04805E-19-2.84214E-18
 -1      1781 8.63817E-05-7.56858E-06-3.38339E-05-8.53673E-06-1.04807E-18-2.73262E-18
 -1      1782 8.49847E-05-6.46315E-06-3.37105E-05-4.94789E-06-5.35451E-19-2.83478E-18
 -1      1783 8.53186E-05-6.67542E-06-3.37520E-05-6.13306E-06-7.12348E-19-2.87445E-18
 -1      1784 8.70320E-05-9.19338E-06-3.33869E-05-6.34190E-06-9.20760E-19-2.74623E-18
 -1      1785 8.45378E-05-6.07855E-06-3.36749E-05-2.79314E-06-9.60708E-20-2.67669E-18
 -1      1786 8.46989E-05-6.17699E-06-3.36974E-05-3.90651E-06-2.86851E-19-2.74519E-18
 -1      1787 8.61802E-05-8.38670E-06-3.33674E-05-4.24249E-06-3.97965E-19-2.66960E-18
 -1      1788 8.44193E-05-5.97905E-06-3.36615E-05-6.82312E-07 2.97878E-19-2.63450E-18
 -1      1789 8.44381E-05-5.98620E-06-3.36679E-05-1.77575E-06 1.05865E-19-2.67044E-18
 -1      1790 8.57740E-05-8.01638E-06-3.33527E-05-2.22123E-06 5.90938E-21-2.58585E-18
 -1      1791 8.45789E-05-6.11808E-06-3.36681E-05 1.46546E-06 5.87162E-19-2.62040E-18
 -1      1792 8.44753E-05-6.04686E-06-3.36604E-05 3.49143E-07 4.42708E-19-2.64870E-18
 -1      1793 8.57347E-05-7.99621E-06-3.33458E-05-2.02696E-07 3.77799E-19-2.54085E-18
 -1      1794 8.49922E-05-6.47728E-06-3.36921E-05 3.71719E-06 8.98231E-19-2.49449E-18
 -1      1795 8.47738E-05-6.33017E-06-3.36715E-05 2.54104E-06 7.51022E-19-2.59073E-18
 -1      1796 8.60107E-05-8.27673E-06-3.33454E-05 1.87752E-06 7.02864E-19-2.53013E-18
 -1      1797 8.56598E-05-7.06194E-06-3.37322E-05 6.08815E-06 1.26035E-18-2.22058E-18
 -1      1798 8.53210E-05-6.83346E-06-3.36979E-05 4.83923E-06 1.07501E-18-2.35475E-18
 -1      1799 8.65782E-05-8.84163E-06-3.33477E-05 4.04751E-06 1.06314E-18-2.34842E-18
 -1      1800 8.66886E-05-7.97440E-06-3.37937E-05 8.71382E-06 1.61633E-18-1.83401E-18
 -1      1801 8.61670E-05-7.61464E-06-3.37385E-05 7.30704E-06 1.43724E-18-2.06080E-18
 -1      1802 8.74712E-05-9.73786E-06-3.33473E-05 6.35432E-06 1.44172E-18-2.02568E-18
 -1      1803 8.82916E-05-9.42526E-06-3.38875E-05 1.16024E-05 1.94262E-18-1.13577E-18
 -1      1804 8.74653E-05-8.82984E-06-3.37969E-05 1.00026E-05 1.75618E-18-1.54374E-18
 -1      1805 8.88249E-05-1.11164E-05-3.33356E-05 8.81357E-06 1.75056E-18-1.56047E-18
 -1      1806 9.09954E-05-1.19656E-05-3.40246E-05 1.47226E-05 2.17281E-18 1.72318E-20
 -1      1807 8.95621E-05-1.08367E-05-3.38741E-05 1.28758E-05 2.02725E-18-6.77865E-19
 -1      1808 9.09147E-05-1.32948E-05-3.32895E-05 1.12965E-05 2.08328E-18-7.76398E-19
 -1      1809 9.63034E-05-1.72483E-05-3.40980E-05 1.71578E-05 2.06638E-18 2.13532E-18
 -1      1810 9.32442E-05-1.44763E-05-3.39330E-05 1.56158E-05 2.10121E-18 8.82450E-19
 -1      1811 9.42795E-05-1.70033E-05-3.31219E-05 1.32574E-05 2.20310E-18 5.20131E-19
 -1      1812 1.02307E-04-2.52464E-05-3.34603E-05 1.40150E-05 1.74314E-18 4.67594E-18
 -1      1813 9.84856E-05-1.97456E-05-3.37341E-05 1.65027E-05 1.88046E-18 3.05493E-18
 -1      1814 9.78784E-05-2.20546E-05-3.25425E-05 1.27701E-05 2.11224E-18 2.14077E-18
 -1      1815 9.92756E-05-2.63192E-05-3.14777E-05 9.04466E-06 1.83168E-18 4.09916E-18
 -1      1816 1.00712E-04-1.96466E-05-3.44201E-05-1.84767E-05-1.72615E-18 1.65214E-18
 -1      1817 9.60241E-05-2.75197E-05-2.93864E-05 3.72003E-06 1.45233E-18 3.30344E-18
 -1      1818 9.82948E-05-2.75770E-05-3.03589E-05 6.03426E-06 1.57950E-18 3.81070E-18
 -1      1819 9.81373E-05-2.57937E-05-3.09810E-05 8.27647E-06 1.79044E-18 2.71577E-18
 -1      1820 9.79706E-05-2.70947E-05-3.02636E-05-5.12374E-06-1.66580E-18 7.90936E-19
 -1      1821 9.63847E-05-2.72202E-05-2.96051E-05-3.14390E-06-1.43865E-18 3.70114E-19
 -1      1822 9.57358E-05-2.74527E-05-2.91640E-05-1.45724E-06-1.33748E-18 2.91068E-19
 -1      1823 9.52675E-05-2.75821E-05-2.89531E-05-4.05685E-07-1.18797E-18-1.08010E-19
 -1      1824 9.66016E-05-2.65678E-05-3.00408E-05-3.36912E-06-1.64271E-18-2.91108E-19
 -1      1825 9.49694E-05-2.76427E-05-2.87900E-05 6.68853E-07-9.84732E-19-1.86099E-19
 -1      1826 9.51023E-05-2.77740E-05-2.88046E-05 1.35885E-06-9.17512E-19-4.83777E-19
 -1      1827 9.57767E-05-2.72362E-05-2.94015E-05-2.17828E-07-1.29681E-18-5.67264E-19
 -1      1828 9.51073E-05-2.78140E-05-2.88036E-05 2.25108E-06-8.20315E-19-5.14673E-19
 -1      1829 9.57184E-05-2.79899E-05-2.89757E-05 2.89513E-06-5.58019E-19-7.10679E-19
 -1      1830 9.55493E-05-2.74798E-05-2.91937E-05 2.00350E-06-9.70177E-19-6.62241E-19
 -1      1831 9.59877E-05-2.80163E-05-2.91096E-05 3.75334E-06-3.79954E-19-8.10369E-19
 -1      1832 9.70445E-05-2.82499E-05-2.94242E-05 4.47322E-06-2.60691E-19-8.89644E-19
 -1      1833 9.58500E-05-2.75630E-05-2.92828E-05 3.96359E-06-5.75698E-19-8.93220E-19
 -1      1834 9.75246E-05-2.82582E-05-2.96747E-05 5.46938E-06-1.20487E-19-9.19338E-19
 -1      1835 9.90704E-05-2.85624E-05-3.01437E-05 6.39890E-06-3.12476E-20-8.82705E-19
 -1      1836 9.65906E-05-2.75169E-05-2.96144E-05 6.01869E-06-2.23140E-19-1.09462E-18
 -1      1837 9.97167E-05-2.85382E-05-3.05037E-05 7.68355E-06 1.14852E-19-8.39815E-19
 -1      1838 1.01861E-04-2.89519E-05-3.11552E-05 8.94698E-06 3.29403E-19-5.80881E-19
 -1      1839 9.76853E-05-2.73358E-05-3.01546E-05 8.51405E-06 1.69264E-19-8.45829E-19
 -1      1840 1.02640E-04-2.89033E-05-3.16136E-05 1.06472E-05 1.83839E-19-4.17802E-19
 -1      1841 1.05523E-04-2.95108E-05-3.24736E-05 1.23227E-05 3.24083E-19-4.04624E-19
 -1      1842 9.90665E-05-2.70298E-05-3.08701E-05 1.17436E-05 3.96795E-19-5.05835E-19
 -1      1843 1.06378E-04-2.95205E-05-3.29678E-05 1.43850E-05-2.23537E-20-4.63855E-19
 -1      1844 1.10009E-04-3.04912E-05-3.39794E-05 1.62528E-05-2.01680E-19-5.97430E-19
 -1      1845 1.00679E-04-2.67522E-05-3.16671E-05 1.57623E-05 1.42990E-19-8.91608E-19
 -1      1846 1.11238E-04-3.08573E-05-3.44725E-05 1.86991E-05-4.10943E-20-5.01146E-19
 -1      1847 1.16086E-04-3.27306E-05-3.56384E-05 2.04529E-05 3.51300E-19-4.23212E-19
 -1      1848 1.02725E-04-2.70527E-05-3.24174E-05 2.05503E-05-1.18231E-19-1.09011E-18
 -1      1849 1.18278E-04-3.42586E-05-3.59482E-05 2.24898E-05 6.71095E-19-2.88097E-19
 -1      1850 1.24257E-04-3.78393E-05-3.69749E-05 2.25787E-05 9.23822E-19-3.07817E-19
 -1      1851 1.06075E-04-2.94150E-05-3.28467E-05 2.53961E-05 6.66099E-19-6.02006E-19
 -1      1852 1.29184E-04-4.21065E-05-3.70377E-05 2.24078E-05 1.11274E-18-6.17011E-20
 -1      1853 1.36043E-04-4.78603E-05-3.77221E-05 1.81751E-05 7.04520E-19 3.14110E-19
 -1      1854 1.12926E-04-3.67710E-05-3.26683E-05 2.80167E-05 1.00164E-18-4.96494E-19
 -1      1855 1.44829E-04-5.47311E-05-3.81105E-05 1.34718E-05 4.44322E-19 9.62176E-19
 -1      1856 1.50589E-04-5.97512E-05-3.88463E-05 4.53227E-06-8.89385E-20 1.24159E-18
 -1      1857 1.26387E-04-5.08901E-05-3.24907E-05 2.44868E-05 8.87479E-19 4.80162E-19
 -1      1858 1.72949E-04-4.89398E-05-5.32365E-05 2.66760E-05-1.89037E-18-3.86459E-18
 -1      1859 1.76217E-04-6.15724E-05-4.92924E-05 2.51089E-05-4.91703E-19-4.25676E-18
 -1      1860 1.63063E-04-6.34716E-05-4.29541E-05 1.46400E-05 4.59145E-19-3.80699E-18
 -1      1861 1.61002E-04-6.41101E-05-4.12153E-05 2.69941E-06 7.98540E-19-3.65564E-18
 -1      1862 1.48561E-04-5.71017E-05-3.92708E-05-7.48437E-06 1.07923E-18-2.70466E-18
 -1      1863 1.42767E-04-5.12908E-05-3.87539E-05-1.54578E-05 1.35038E-18-1.83253E-18
 -1      1864 1.47036E-04-6.33196E-05-3.58403E-05-1.08681E-05 1.40195E-18-8.62385E-20
 -1      1865 1.34703E-04-4.49618E-05-3.84638E-05-1.94614E-05 7.24001E-19-1.81006E-18
 -1      1866 1.28322E-04-3.97992E-05-3.77112E-05-2.19408E-05 6.54942E-19-1.75031E-18
 -1      1867 1.26871E-04-4.71126E-05-3.41664E-05-2.35155E-05 1.15779E-18-2.39922E-19
 -1      1868 1.24277E-04-3.68085E-05-3.74669E-05-2.13909E-05 9.19600E-19-1.49192E-18
 -1      1869 1.18766E-04-3.37864E-05-3.63815E-05-2.04793E-05 1.45304E-18-1.05964E-18
 -1      1870 1.14946E-04-3.52461E-05-3.41801E-05-2.59221E-05 8.64132E-19-4.65550E-19
 -1      1871 1.16706E-04-3.28011E-05-3.58969E-05-1.82598E-05 8.84018E-19-1.12078E-18
 -1      1872 1.12311E-04-3.12161E-05-3.47713E-05-1.62520E-05 7.13407E-19-1.06164E-18
 -1      1873 1.08846E-04-2.98333E-05-3.38694E-05-2.26021E-05 9.91647E-19-1.30642E-19
 -1      1874 1.11007E-04-3.10144E-05-3.41958E-05-1.38718E-05 9.00158E-19-9.40709E-19
 -1      1875 1.07678E-04-3.01665E-05-3.32356E-05-1.19134E-05 1.37491E-18-6.94698E-19
 -1      1876 1.05403E-04-2.81880E-05-3.30890E-05-1.76072E-05 6.80512E-19-2.26485E-19
 -1      1877 1.06676E-04-3.01727E-05-3.27000E-05-9.92746E-06 8.37649E-19-9.55081E-19
 -1      1878 1.04254E-04-2.96830E-05-3.19629E-05-8.37642E-06-1.92263E-19-1.07142E-18
 -1      1879 1.03039E-04-2.80040E-05-3.21534E-05-1.28971E-05 7.90619E-19 3.19339E-19
 -1      1880 1.03483E-04-2.97036E-05-3.15444E-05-6.95466E-06-4.90465E-19-8.47754E-19
 -1      1881 1.01819E-04-2.94126E-05-3.10296E-05-5.87337E-06 2.40213E-21-6.11439E-19
 -1      1882 1.01238E-04-2.81981E-05-3.13041E-05-9.19390E-06 3.69055E-19-4.20272E-19
 -1      1883 1.01142E-04-2.94158E-05-3.06837E-05-4.78452E-06-1.75157E-19-1.43025E-18
 -1      1884 9.99099E-05-2.92047E-05-3.02984E-05-3.99546E-06-3.57590E-19-1.49637E-18
 -1      1885 9.97945E-05-2.83970E-05-3.05985E-05-6.44565E-06-1.25367E-20-1.10153E-18
 -1      1886 9.93851E-05-2.91895E-05-3.00427E-05-3.24191E-06 5.62714E-19-1.36034E-18
 -1      1887 9.85303E-05-2.90461E-05-2.97747E-05-2.70643E-06 4.93099E-19-1.45116E-18
 -1      1888 9.86183E-05-2.85384E-05-3.00359E-05-4.42662E-06 1.75382E-19-1.75085E-18
 -1      1889 9.81275E-05-2.90202E-05-2.95888E-05-2.19103E-06-4.79129E-19-1.31829E-18
 -1      1890 9.75375E-05-2.89200E-05-2.94036E-05-1.83155E-06-1.45301E-18-1.74042E-18
 -1      1891 9.77081E-05-2.86107E-05-2.96159E-05-3.02614E-06 1.89904E-20-2.31764E-18
 -1      1892 9.72344E-05-2.88918E-05-2.92702E-05-1.48102E-06-1.08385E-18-1.19238E-18
 -1      1893 9.68294E-05-2.88213E-05-2.91428E-05-1.24024E-06-3.41329E-19-1.53006E-18
 -1      1894 9.70175E-05-2.86369E-05-2.93090E-05-2.06542E-06-7.20449E-19-1.38633E-18
 -1      1895 9.66153E-05-2.87954E-05-2.90522E-05-1.01292E-06 9.18046E-20-1.36467E-18
 -1      1896 9.63469E-05-2.87486E-05-2.89679E-05-8.56824E-07 3.90157E-19-1.39551E-18
 -1      1897 9.65129E-05-2.86395E-05-2.90920E-05-1.42068E-06-9.87836E-20-1.16901E-18
 -1      1898 9.61789E-05-2.87263E-05-2.88993E-05-6.90648E-07-8.39823E-19-1.56303E-18
 -1      1899 9.59837E-05-2.86907E-05-2.88378E-05-5.79307E-07-1.15848E-18-1.53331E-18
 -1      1900 9.61388E-05-2.86273E-05-2.89359E-05-9.79630E-07-2.84410E-19-1.83139E-18
 -1      1901 9.58627E-05-2.86724E-05-2.87896E-05-4.66008E-07-1.16675E-18-2.45485E-18
 -1      1902 9.57294E-05-2.86482E-05-2.87476E-05-3.90257E-07-1.03590E-18-3.09500E-18
 -1      1903 9.58580E-05-2.86129E-05-2.88213E-05-6.66590E-07-1.76025E-18-1.60203E-18
 -1      1904 9.56426E-05-2.86340E-05-2.87138E-05-3.12407E-07 2.88738E-19-2.92779E-18
 -1      1905 9.55522E-05-2.86176E-05-2.86851E-05-2.60734E-07 9.12765E-19-3.21635E-18
 -1      1906 9.56555E-05-2.85987E-05-2.87402E-05-4.51337E-07-5.17357E-19-2.49636E-18
 -1      1907 9.54907E-05-2.86071E-05-2.86616E-05-2.07042E-07 1.42635E-18-2.86470E-18
 -1      1908 9.54300E-05-2.85962E-05-2.86422E-05-1.71662E-07 1.22057E-18-1.54465E-18
 -1      1909 9.55112E-05-2.85866E-05-2.86832E-05-3.02737E-07 1.46729E-18-2.52115E-18
 -1      1910 9.53872E-05-2.85888E-05-2.86260E-05-1.34554E-07-8.18838E-19-1.50596E-18
 -1      1911 9.53473E-05-2.85818E-05-2.86131E-05-1.10350E-07-9.57449E-19-1.76423E-18
 -1      1912 9.54098E-05-2.85773E-05-2.86434E-05-1.99894E-07 3.86264E-19-2.57755E-18
 -1      1913 9.53192E-05-2.85768E-05-2.86026E-05-8.58785E-08 7.55565E-20-8.45644E-19
 -1      1914 9.52945E-05-2.85728E-05-2.85945E-05-6.99460E-08 1.45009E-19-9.60609E-19
 -1      1915 9.53411E-05-2.85711E-05-2.86165E-05-1.29939E-07-3.90899E-19-1.08306E-18
 -1      1916 9.52745E-05-2.85694E-05-2.85870E-05-5.19525E-08-3.72164E-21 6.98382E-20
 -1      1917 9.52585E-05-2.85671E-05-2.85817E-05-4.04991E-08 1.04760E-18-4.44841E-19
 -1      1918 9.52943E-05-2.85667E-05-2.85980E-05-8.15917E-08 3.66934E-19-4.94132E-19
 -1      1919 9.52456E-05-2.85650E-05-2.85768E-05-2.82879E-08 1.96213E-18-6.17437E-19
 -1      1920 9.52365E-05-2.85640E-05-2.85737E-05-2.05827E-08 4.65812E-20-2.64684E-19
 -1      1921 9.52626E-05-2.85643E-05-2.85854E-05-4.72125E-08 1.18483E-18 8.53279E-19
 -1      1922 9.52287E-05-2.85629E-05-2.85707E-05-1.23880E-08-5.98786E-19 2.30980E-19
 -1      1923 9.52244E-05-2.85628E-05-2.85690E-05-7.32274E-09-7.38411E-20 1.45480E-18
 -1      1924 9.52429E-05-2.85632E-05-2.85772E-05-2.38724E-08 5.74147E-19 2.72698E-19
 -1      1925 9.52201E-05-2.85623E-05-2.85673E-05-1.94901E-09-1.00199E-18 8.59585E-19
 -1      1926 9.52189E-05-2.85629E-05-2.85667E-05 1.27472E-09 2.55944E-19 9.11256E-19
 -1      1927 9.52314E-05-2.85632E-05-2.85723E-05-8.30236E-09-1.11642E-18 1.03790E-18
 -1      1928 9.52170E-05-2.85629E-05-2.85659E-05 4.66714E-09 2.50212E-19 7.77158E-19
 -1      1929 9.52178E-05-2.85637E-05-2.85659E-05 6.59064E-09-1.01930E-20 4.90945E-20
 -1      1930 9.52257E-05-2.85639E-05-2.85695E-05 1.78898E-09-2.60169E-19 1.40504E-18
 -1      1931 9.52175E-05-2.85640E-05-2.85657E-05 8.50218E-09-1.24122E-19-4.08883E-20
 -1      1932 9.52193E-05-2.85650E-05-2.85661E-05 9.47722E-09 9.07837E-19 6.03326E-20
 -1      1933 9.52240E-05-2.85650E-05-2.85682E-05 7.90821E-09-1.67904E-19 4.08114E-19
 -1      1934 9.52200E-05-2.85655E-05-2.85662E-05 1.04838E-08 1.93930E-18-2.35967E-19
 -1      1935 9.52226E-05-2.85667E-05-2.85668E-05 1.08285E-08 1.66884E-18-2.89992E-19
 -1      1936 9.52246E-05-2.85664E-05-2.85679E-05 1.13133E-08 1.21141E-18-3.99162E-19
 -1      1937 9.52238E-05-2.85673E-05-2.85671E-05 1.10165E-08 1.13357E-18-6.51231E-19
 -1      1938 9.52266E-05-2.85685E-05-2.85678E-05 1.07709E-08-2.66017E-19 1.54933E-19
 -1      1939 9.52267E-05-2.85680E-05-2.85680E-05 1.27431E-08 6.08893E-19-4.20842E-19
 -1      1940 9.52281E-05-2.85692E-05-2.85681E-05 1.02604E-08-2.29931E-19 4.05423E-19
 -1      1941 9.52307E-05-2.85703E-05-2.85688E-05 9.41576E-09 5.90648E-20 2.27397E-20
 -1      1942 9.52296E-05-2.85697E-05-2.85685E-05 1.24647E-08 6.99152E-19-7.89000E-19
 -1      1943 9.52322E-05-2.85711E-05-2.85691E-05 8.20258E-09-6.56902E-19-3.01806E-19
 -1      1944 9.52344E-05-2.85722E-05-2.85696E-05 6.80029E-09-1.97036E-19-1.32319E-18
 -1      1945 9.52328E-05-2.85717E-05-2.85690E-05 1.06592E-08-7.05730E-19-9.32437E-19
 -1      1946 9.41176E-05-2.76582E-05-2.84569E-05 1.26725E-06 1.06720E-18 2.48191E-18
 -1      1947 9.51606E-05-2.76963E-05-2.88599E-05 2.32995E-06 1.10964E-18 2.97789E-18
 -1      1948 9.59561E-05-2.72346E-05-2.94313E-05 3.64138E-06 1.47467E-18 2.04883E-18
 -1      1949 6.44427E-05-3.93154E-05-1.10715E-05 4.81338E-05 3.29115E-18 1.33683E-18
 -1      1950 4.92430E-05-4.17258E-05-4.25006E-06 4.19637E-05 2.54533E-18 1.42280E-18
 -1      1951 9.32534E-05-2.77047E-05-2.80707E-05 5.31555E-08 8.14720E-19 1.83825E-18
 -1      1952 9.36291E-05-2.76869E-05-2.82138E-05 5.86639E-07 8.40879E-19 2.17228E-18
 -1      1953 9.45448E-05-2.76485E-05-2.86665E-05 1.21924E-06 1.08379E-18 1.53488E-18
 -1      1954 9.30334E-05-2.78104E-05-2.79409E-05-5.02658E-07 6.74842E-19 1.32163E-18
 -1      1955 9.30702E-05-2.77484E-05-2.79679E-05-2.51068E-07 7.02197E-19 1.68633E-18
 -1      1956 9.38922E-05-2.78648E-05-2.83064E-05-3.59157E-08 8.71210E-19 1.08546E-18
 -1      1957 9.31365E-05-2.79650E-05-2.79264E-05-6.51819E-07 3.66660E-19 1.00687E-18
 -1      1958 9.30220E-05-2.78785E-05-2.79067E-05-5.81299E-07 4.74472E-19 1.23849E-18
 -1      1959 9.37096E-05-2.80427E-05-2.81524E-05-5.75954E-07 6.25503E-19 6.11680E-19
 -1      1960 9.33240E-05-2.81245E-05-2.79438E-05-4.91150E-07 1.61777E-19 8.76659E-19
 -1      1961 9.31917E-05-2.80429E-05-2.79184E-05-5.61169E-07 1.78626E-19 9.54045E-19
 -1      1962 9.37742E-05-2.82348E-05-2.80942E-05-6.40697E-07 2.64990E-19 3.90986E-19
 -1      1963 9.34050E-05-2.82413E-05-2.79328E-05-6.82887E-08 1.87731E-19 1.03474E-18
 -1      1964 9.33589E-05-2.81931E-05-2.79318E-05-2.61545E-07 2.34296E-19 1.01394E-18
 -1      1965 9.38851E-05-2.84141E-05-2.80605E-05-3.36941E-07 2.02395E-19 2.42047E-19
 -1      1966 9.32194E-05-2.82638E-05-2.78466E-05 5.80918E-07 3.34604E-19 6.57407E-19
 -1      1967 9.33449E-05-2.82773E-05-2.78940E-05 2.78079E-07 2.03291E-19 9.65780E-19
 -1      1968 9.38795E-05-2.85393E-05-2.80000E-05 2.78312E-07 3.34121E-19 6.39818E-19
 -1      1969 9.26375E-05-2.81386E-05-2.76522E-05 1.39995E-06 4.51624E-20 7.96898E-19
 -1      1970 9.30007E-05-2.82403E-05-2.77650E-05 1.01209E-06 2.64893E-19 8.05450E-19
 -1      1971 9.36174E-05-2.85567E-05-2.78759E-05 1.14761E-06 3.78455E-19 7.79386E-19
 -1      1972 9.15761E-05-2.78179E-05-2.73338E-05 2.28603E-06 2.71261E-19 5.83880E-19
 -1      1973 9.22138E-05-2.80281E-05-2.75196E-05 1.86060E-06 1.53230E-19 5.94592E-19
 -1      1974 9.29864E-05-2.84064E-05-2.76664E-05 2.17646E-06 3.12165E-19 3.51248E-19
 -1      1975 9.00281E-05-2.72758E-05-2.68995E-05 3.07697E-06 3.02617E-19 6.60031E-19
 -1      1976 9.09317E-05-2.75997E-05-2.71522E-05 2.69045E-06 3.52776E-19 6.00356E-19
 -1      1977 9.19218E-05-2.80350E-05-2.73675E-05 3.20771E-06 3.03091E-19 1.85106E-20
 -1      1978 8.80954E-05-2.65310E-05-2.63858E-05 3.56330E-06 4.31889E-19 6.24267E-19
 -1      1979 8.91953E-05-2.69485E-05-2.66831E-05 3.31505E-06 4.87487E-19 8.16371E-19
 -1      1980 9.04377E-05-2.74194E-05-2.69963E-05 4.01740E-06 4.95794E-19 4.63152E-19
 -1      1981 8.60091E-05-2.56680E-05-2.58571E-05 3.53679E-06-2.20861E-19 4.35160E-19
 -1      1982 8.71687E-05-2.61259E-05-2.61605E-05 3.52539E-06-2.66435E-19 4.15913E-19
 -1      1983 8.86602E-05-2.65974E-05-2.65916E-05 4.34731E-06 2.37256E-20 6.46382E-19
 -1      1984 8.41120E-05-2.48399E-05-2.53963E-05 2.87054E-06 3.96307E-19 3.01047E-19
 -1      1985 8.51424E-05-2.52554E-05-2.56568E-05 3.15556E-06 1.11989E-19 5.47253E-19
 -1      1986 8.68396E-05-2.56886E-05-2.62087E-05 3.98078E-06 1.50338E-19 2.70247E-19
 -1      1987 8.27888E-05-2.42368E-05-2.50875E-05 1.59839E-06 8.91036E-19-3.26498E-19
 -1      1988 8.34888E-05-2.45169E-05-2.52562E-05 2.16378E-06 6.74089E-19-7.27969E-20
 -1      1989 8.53176E-05-2.48840E-05-2.59100E-05 2.84283E-06 8.21552E-19-3.92702E-19
 -1      1990 8.23524E-05-2.40215E-05-2.49940E-05-5.70427E-08 6.23284E-19-7.70184E-19
 -1      1991 8.25649E-05-2.40940E-05-2.50354E-05 6.86089E-07 8.49945E-19-3.69921E-19
 -1      1992 8.44384E-05-2.43927E-05-2.57500E-05 1.07422E-06 1.11969E-18-1.36193E-19
 -1      1993 8.29330E-05-2.42628E-05-2.51406E-05-1.74113E-06 3.07033E-19-8.40614E-19
 -1      1994 8.25971E-05-2.41048E-05-2.50427E-05-9.81215E-07 5.68895E-19-7.65551E-19
 -1      1995 8.44317E-05-2.43602E-05-2.57626E-05-9.77869E-07 6.47934E-19-8.65464E-19
 -1      1996 8.44282E-05-2.49040E-05-2.55064E-05-3.09208E-06-3.23011E-19-1.12352E-18
 -1      1997 8.35999E-05-2.45512E-05-2.52845E-05-2.47678E-06-2.82168E-19-9.04357E-19
 -1      1998 8.53237E-05-2.48036E-05-2.59515E-05-2.86817E-06 6.18731E-21-7.70491E-19
 -1      1999 8.65428E-05-2.57888E-05-2.60320E-05-3.86997E-06-2.43714E-19-8.01545E-19
 -1      2000 8.53750E-05-2.53199E-05-2.57232E-05-3.50438E-06-1.29173E-19-6.82384E-19
 -1      2001 8.69278E-05-2.56043E-05-2.62899E-05-4.21424E-06-2.59463E-19-1.03244E-18
 -1      2002 8.88971E-05-2.67287E-05-2.66364E-05-4.02127E-06-2.29378E-19-6.53416E-19
 -1      2003 8.75876E-05-2.62344E-05-2.62890E-05-3.92801E-06-3.46686E-19-9.36157E-19
 -1      2004 8.89210E-05-2.65620E-05-2.67280E-05-4.82329E-06-6.22540E-20-6.65952E-19
 -1      2005 9.11448E-05-2.75684E-05-2.72387E-05-3.65673E-06 6.05242E-19-1.11537E-18
 -1      2006 8.98790E-05-2.71227E-05-2.68991E-05-3.78767E-06 9.28742E-20-4.85820E-19
 -1      2007 9.09605E-05-2.74783E-05-2.72056E-05-4.72279E-06 7.93920E-20-5.30709E-19
 -1      2008 9.30476E-05-2.82201E-05-2.77752E-05-2.97434E-06-1.27005E-20-1.67496E-18
 -1      2009 9.19587E-05-2.78659E-05-2.74782E-05-3.24466E-06 4.85663E-19-1.45741E-18
 -1      2010 9.27782E-05-2.82180E-05-2.76661E-05-4.09975E-06 7.47500E-19-1.26673E-18
 -1      2011 9.44952E-05-2.86624E-05-2.82073E-05-2.17716E-06-9.82547E-19-1.24852E-18
 -1      2012 9.36510E-05-2.84121E-05-2.79727E-05-2.50042E-06-9.70018E-19-1.70027E-18
 -1      2013 9.42232E-05-2.87279E-05-2.80669E-05-3.20099E-06-9.71578E-19-1.17692E-18
 -1      2014 9.54825E-05-2.89189E-05-2.85224E-05-1.42017E-06-2.59452E-19-5.57190E-19
 -1      2015 9.48933E-05-2.87637E-05-2.83549E-05-1.73043E-06-3.86325E-19-6.81299E-19
 -1      2016 9.52536E-05-2.90204E-05-2.83838E-05-2.24828E-06-6.51466E-19-6.02315E-19
 -1      2017 9.60708E-05-2.90337E-05-2.87272E-05-7.92942E-07-2.63871E-21-1.50629E-18
 -1      2018 9.57082E-05-2.89538E-05-2.86213E-05-1.05180E-06 2.25721E-20-1.06267E-18
 -1      2019 9.59036E-05-2.91432E-05-2.86104E-05-1.39417E-06 1.89722E-19-9.21567E-19
 -1      2020 9.63504E-05-2.90529E-05-2.88403E-05-3.27563E-07 3.39539E-19-1.11479E-18
 -1      2021 9.61667E-05-2.90264E-05-2.87842E-05-5.20743E-07 3.77694E-19-1.31830E-18
 -1      2022 9.62462E-05-2.91523E-05-2.87539E-05-7.15766E-07 1.74669E-19-1.05066E-18
 -1      2023 9.64141E-05-2.90158E-05-2.88845E-05-1.72353E-08-9.43368E-19-1.12982E-18
 -1      2024 9.63580E-05-2.90230E-05-2.88650E-05-1.46850E-07-4.71815E-19-1.42987E-18
 -1      2025 9.63650E-05-2.90967E-05-2.88290E-05-2.30709E-07-3.04055E-20-1.34726E-18
 -1      2026 9.63429E-05-2.89512E-05-2.88823E-05 1.65019E-07-2.39508E-19-1.58460E-19
 -1      2027 9.63683E-05-2.89768E-05-2.88868E-05 8.82750E-08-8.39183E-19-1.08981E-18
 -1      2028 9.63366E-05-2.90120E-05-2.88533E-05 8.01469E-08-8.11508E-19-1.15349E-18
 -1      2029 9.61992E-05-2.88779E-05-2.88524E-05 2.52424E-07-1.47892E-19-2.95911E-19
 -1      2030 9.62698E-05-2.89112E-05-2.88706E-05 2.15076E-07 3.72537E-19 1.47796E-19
 -1      2031 9.62230E-05-2.89212E-05-2.88436E-05 2.52781E-07-1.16091E-19-2.67345E-20
 -1      2032 9.60272E-05-2.88074E-05-2.88090E-05 2.76141E-07 7.73956E-20-3.20140E-19
 -1      2033 9.61168E-05-2.88416E-05-2.88334E-05 2.65423E-07-2.56272E-19-4.98355E-19
 -1      2034 9.60695E-05-2.88369E-05-2.88141E-05 3.26293E-07 2.59059E-19-1.21580E-19
 -1      2035 9.58553E-05-2.87454E-05-2.87618E-05 2.61467E-07 7.56432E-19-8.96118E-19
 -1      2036 9.59468E-05-2.87767E-05-2.87874E-05 2.66943E-07 1.84290E-19-5.45370E-19
 -1      2037 9.59068E-05-2.87648E-05-2.87753E-05 3.35332E-07 3.10786E-19-7.44623E-19
 -1      2038 9.56996E-05-2.86941E-05-2.87170E-05 2.26941E-07-1.10057E-18 7.54186E-19
 -1      2039 9.57833E-05-2.87207E-05-2.87407E-05 2.40912E-07-2.35247E-20 3.13719E-20
 -1      2040 9.57535E-05-2.87068E-05-2.87345E-05 3.07049E-07-4.13410E-19-2.62662E-19
 -1      2041 9.55677E-05-2.86536E-05-2.86776E-05 1.84997E-07 1.92554E-19 1.24272E-19
 -1      2042 9.56388E-05-2.86750E-05-2.86981E-05 2.02264E-07-7.00742E-19 5.57022E-19
 -1      2043 9.56193E-05-2.86619E-05-2.86963E-05 2.60809E-07-4.59823E-19 4.03973E-19
 -1      2044 9.54616E-05-2.86230E-05-2.86452E-05 1.43229E-07 2.24687E-18-7.39630E-20
 -1      2045 9.55187E-05-2.86394E-05-2.86618E-05 1.60590E-07 1.30127E-18 1.07248E-19
 -1      2046 9.55082E-05-2.86285E-05-2.86630E-05 2.09273E-07 1.06282E-18 3.23672E-19
 -1      2047 9.53799E-05-2.86008E-05-2.86197E-05 1.05737E-07-7.75100E-19 1.31207E-18
 -1      2048 9.54237E-05-2.86127E-05-2.86325E-05 1.21438E-07 1.17972E-18 1.32531E-18
 -1      2049 9.54201E-05-2.86045E-05-2.86355E-05 1.59943E-07 1.00983E-18 2.37356E-18
 -1      2050 9.53198E-05-2.85852E-05-2.86005E-05 7.42840E-08-1.65706E-18 9.02546E-20
 -1      2051 9.53518E-05-2.85936E-05-2.86100E-05 8.75499E-08-1.92037E-18 3.33191E-19
 -1      2052 9.53531E-05-2.85878E-05-2.86139E-05 1.16669E-07-1.34215E-18 2.27982E-18
 -1      2053 9.52774E-05-2.85749E-05-2.85867E-05 4.91972E-08 1.62897E-19 2.09198E-19
 -1      2054 9.52997E-05-2.85805E-05-2.85934E-05 5.98569E-08-8.28213E-19-1.50429E-19
 -1      2055 9.53041E-05-2.85768E-05-2.85976E-05 8.09195E-08-9.43195E-19 2.83968E-19
 -1      2056 9.52491E-05-2.85686E-05-2.85773E-05 3.00077E-08-1.07430E-19 1.79755E-18
 -1      2057 9.52637E-05-2.85720E-05-2.85817E-05 3.82309E-08-2.77182E-19 5.93311E-19
 -1      2058 9.52698E-05-2.85700E-05-2.85858E-05 5.27260E-08-5.20549E-19 2.68781E-19
 -1      2059 9.52317E-05-2.85651E-05-2.85713E-05 1.58777E-08 1.61468E-18 2.30376E-18
 -1      2060 9.52404E-05-2.85669E-05-2.85740E-05 2.19956E-08 1.29374E-18 2.47248E-18
 -1      2061 9.52471E-05-2.85661E-05-2.85777E-05 3.13568E-08 9.29075E-19 8.05707E-19
 -1      2062 9.52222E-05-2.85636E-05-2.85679E-05 5.86624E-09-5.12196E-20 1.04990E-18
 -1      2063 9.52266E-05-2.85643E-05-2.85693E-05 1.02594E-08 3.68454E-19 2.00732E-18
 -1      2064 9.52331E-05-2.85643E-05-2.85725E-05 1.57537E-08 7.50552E-19 2.01346E-18
 -1      2065 9.52184E-05-2.85635E-05-2.85663E-05-9.15644E-10 4.82992E-19 1.72862E-18
 -1      2066 9.52198E-05-2.85635E-05-2.85668E-05 2.11632E-09 4.67223E-19 1.79547E-18
 -1      2067 9.52257E-05-2.85639E-05-2.85694E-05 4.80206E-09 2.12357E-19 2.58263E-18
 -1      2068 9.52184E-05-2.85643E-05-2.85659E-05-5.22390E-09 2.15548E-18 1.19331E-18
 -1      2069 9.52178E-05-2.85638E-05-2.85659E-05-3.24274E-09 1.35679E-18 7.85169E-19
 -1      2070 9.52228E-05-2.85644E-05-2.85679E-05-2.51489E-09 1.84332E-18 2.19977E-18
 -1      2071 9.52208E-05-2.85657E-05-2.85664E-05-7.64350E-09 3.41683E-19 5.43903E-19
 -1      2072 9.52190E-05-2.85649E-05-2.85660E-05-6.47421E-09 1.40474E-18 1.57152E-18
 -1      2073 9.52229E-05-2.85655E-05-2.85675E-05-7.03877E-09 1.24223E-18 2.42927E-18
 -1      2074 9.52246E-05-2.85673E-05-2.85674E-05-8.56053E-09-1.17603E-19 3.64533E-19
 -1      2075 9.52222E-05-2.85664E-05-2.85667E-05-8.05125E-09-6.48744E-19 5.51794E-19
 -1      2076 9.52250E-05-2.85670E-05-2.85678E-05-9.39172E-09-1.96586E-19 1.00625E-18
 -1      2077 9.52289E-05-2.85691E-05-2.85684E-05-8.17471E-09 2.04989E-18 1.70397E-19
 -1      2078 9.52263E-05-2.85681E-05-2.85678E-05-8.25910E-09 1.13472E-18 1.29289E-18
 -1      2079 9.52281E-05-2.85687E-05-2.85684E-05-9.96937E-09 1.14999E-18 1.84087E-18
 -1      2080 9.52328E-05-2.85709E-05-2.85694E-05-6.49530E-09 5.89582E-19 5.86164E-19
 -1      2081 9.52305E-05-2.85699E-05-2.85688E-05-7.22697E-09 8.08869E-19 6.68496E-19
 -1      2082 9.52315E-05-2.85705E-05-2.85690E-05-8.99265E-09 9.28303E-19 2.06148E-18
 -1      2083 9.52355E-05-2.85722E-05-2.85700E-05-4.34311E-09-6.54857E-19 1.18442E-18
 -1      2084 9.52338E-05-2.85714E-05-2.85696E-05-5.67497E-09 1.78172E-19 1.11399E-18
 -1      2085 9.52343E-05-2.85720E-05-2.85696E-05-7.20084E-09 4.28575E-19 2.99819E-18
 -1      2086 9.52362E-05-2.85733E-05-2.85698E-05-5.23612E-09-4.72686E-19 3.09855E-18
 -1      2087 9.52411E-05-2.85829E-05-2.85678E-05-8.17473E-09 7.91702E-19 3.96311E-19
 -1      2088 9.52402E-05-2.85808E-05-2.85683E-05-8.41300E-09 9.50206E-19-1.11912E-18
 -1      2089 9.52395E-05-2.85794E-05-2.85686E-05-8.45426E-09 8.56440E-19-6.07838E-19
 -1      2090 9.52384E-05-2.85773E-05-2.85691E-05-8.12237E-09 1.07741E-18 2.42511E-18
 -1      2091 9.52393E-05-2.85784E-05-2.85690E-05-1.03089E-08-7.87585E-19-9.35603E-19
 -1      2092 9.52378E-05-2.85763E-05-2.85692E-05-7.45066E-09 3.74657E-19 3.85186E-18
 -1      2093 9.52368E-05-2.85744E-05-2.85696E-05-6.40755E-09-5.34915E-19 3.97614E-18
 -1      2094 9.52361E-05-2.85738E-05-2.85696E-05-7.58066E-09 5.22146E-19 3.43316E-18
 -1      2095 9.52377E-05-2.85760E-05-2.85693E-05-9.60882E-09-3.45868E-19 3.45665E-18
 -1      2096 9.52424E-05-2.85858E-05-2.85671E-05-7.04116E-09-8.85398E-19-2.18011E-18
 -1      2097 9.52416E-05-2.85840E-05-2.85675E-05-7.62498E-09-4.17020E-19-8.64599E-19
 -1      2098 9.52409E-05-2.85810E-05-2.85686E-05-9.63530E-09-1.03065E-18-1.34478E-18
 -1      2099 9.52433E-05-2.85882E-05-2.85664E-05-5.34907E-09-1.98122E-19 1.20260E-18
 -1      2100 9.52428E-05-2.85868E-05-2.85668E-05-6.15598E-09-1.10368E-18 7.85919E-19
 -1      2101 9.52421E-05-2.85831E-05-2.85681E-05-8.04476E-09-1.87625E-18-7.45187E-19
 -1      2102 9.52439E-05-2.85899E-05-2.85660E-05-3.33159E-09 7.51475E-19 1.52377E-18
 -1      2103 9.52436E-05-2.85889E-05-2.85662E-05-4.26501E-09 9.68711E-20 1.00137E-18
 -1      2104 9.52429E-05-2.85848E-05-2.85678E-05-5.87105E-09-1.25172E-18 1.62743E-18
 -1      2105 9.52442E-05-2.85907E-05-2.85658E-05-1.11158E-09 2.45270E-19 9.30418E-19
 -1      2106 9.52441E-05-2.85903E-05-2.85659E-05-2.12490E-09 3.70603E-20 3.44274E-19
 -1      2107 9.52434E-05-2.85859E-05-2.85675E-05-3.34645E-09-5.00362E-19 8.22224E-19
 -1      2108 9.52443E-05-2.85907E-05-2.85658E-05 1.23774E-09-1.06856E-18-6.98086E-19
 -1      2109 9.52443E-05-2.85908E-05-2.85657E-05 1.75994E-10-5.90696E-19 1.38888E-18
 -1      2110 9.52437E-05-2.85865E-05-2.85674E-05-5.97397E-10-2.76424E-18 5.41523E-19
 -1      2111 9.52440E-05-2.85897E-05-2.85661E-05 3.63147E-09-5.69680E-19-1.96415E-18
 -1      2112 9.52442E-05-2.85905E-05-2.85659E-05 2.56546E-09-1.71688E-18-9.03470E-19
 -1      2113 9.52437E-05-2.85864E-05-2.85674E-05 2.28835E-09-2.59942E-18-1.20181E-18
 -1      2114 9.52433E-05-2.85878E-05-2.85666E-05 5.87785E-09-1.17364E-18-2.09169E-18
 -1      2115 9.52438E-05-2.85892E-05-2.85662E-05 4.90609E-09-1.14537E-18-1.73270E-18
 -1      2116 9.52434E-05-2.85857E-05-2.85676E-05 5.16405E-09-2.07871E-18-1.77300E-18
 -1      2117 9.52422E-05-2.85851E-05-2.85673E-05 7.78817E-09 4.51465E-19 8.16432E-19
 -1      2118 9.52429E-05-2.85869E-05-2.85668E-05 7.01277E-09-7.75827E-20-1.75159E-19
 -1      2119 9.52427E-05-2.85842E-05-2.85680E-05 7.83368E-09-5.66424E-19-2.18902E-19
 -1      2120 9.52406E-05-2.85816E-05-2.85681E-05 8.92280E-09-3.36441E-19-1.13879E-18
 -1      2121 9.52416E-05-2.85839E-05-2.85676E-05 8.56097E-09-1.67099E-19-1.81505E-18
 -1      2122 9.52415E-05-2.85821E-05-2.85684E-05 9.95563E-09 1.76445E-19-3.83852E-19
 -1      2123 9.52386E-05-2.85778E-05-2.85689E-05 8.81636E-09-1.61796E-18 4.61521E-19
 -1      2124 9.52398E-05-2.85802E-05-2.85684E-05 9.05899E-09-8.28317E-19-4.29019E-19
 -1      2125 9.52397E-05-2.85793E-05-2.85688E-05 1.09869E-08-1.06859E-18-1.15966E-18
 -1      2126 1.04049E-04-4.34954E-05-2.59042E-05 4.94562E-05 2.79521E-18 9.94840E-19
 -1      2127 8.22328E-05-4.40625E-05-1.73092E-05 4.55062E-05 3.67697E-18 9.54606E-19
 -1      2128 8.70653E-05-4.90163E-05-1.62860E-05 5.03238E-05 9.69853E-19 4.12134E-20
 -1      2129 9.52358E-05-2.85727E-05-2.85699E-05 4.48906E-09 3.10706E-19-1.75224E-18
 -1      2130 1.00458E-04-2.26156E-05-3.30846E-05-1.39496E-05-1.84571E-18 9.93358E-19
 -1      2131 1.19072E-05-3.80970E-05 9.75615E-06 1.53352E-05 2.39054E-18 3.77946E-18
 -1      2132 1.04303E-05-3.94801E-05 1.07729E-05 6.93257E-06 1.17417E-18 4.84249E-18
 -1      2133 8.72109E-05-8.44650E-06-3.38497E-05-9.72342E-06-1.23898E-18-2.56681E-18
 -1      2134 8.80883E-05-9.06148E-06-3.39496E-05-1.12520E-05-1.49091E-18-2.29692E-18
 -1      2135 9.06311E-05-1.28087E-05-3.33772E-05-1.08708E-05-1.70245E-18-1.98832E-18
 -1      2136 8.84456E-05-1.05777E-05-3.34005E-05-8.57248E-06-1.26166E-18-2.52016E-18
 -1      2137 1.44985E-04-4.05289E-05-4.39931E-05 4.03723E-05 3.40401E-18-8.88538E-19
 -1      2138 1.24901E-04-4.39966E-05-3.50682E-05 3.86432E-05 2.94598E-18 1.88041E-19
 -1      2139 1.70807E-04-3.52889E-05-5.72204E-05 2.74261E-05 2.56021E-18-1.67289E-19
 -1      2140 1.53295E-04-3.61843E-05-5.01996E-05 3.22176E-05 3.28712E-18-3.97258E-19
 -1      2141 1.52493E-04-4.65112E-05-4.48493E-05 2.00024E-05 2.56153E-18-1.79529E-18
 -1      2142 1.83673E-04-2.56701E-05-6.69650E-05 1.01681E-05 2.79775E-18-6.61321E-19
 -1      2143 1.78285E-04-2.85140E-05-6.32120E-05 2.03770E-05 2.78928E-18-1.10114E-20
 -1      2144 1.94648E-04-2.39955E-05-7.15696E-05-9.51568E-07 3.26658E-18-1.89447E-18
 -1      2145 1.83507E-04-1.99483E-05-6.95615E-05 6.05028E-06 3.03746E-18-1.01475E-18
 -1      2146 1.83132E-04-2.42268E-05-6.76288E-05-1.16766E-05 3.50799E-18-2.17730E-18
 -1      2147 1.94056E-04-2.56616E-05-7.08353E-05-5.05402E-06 3.30639E-18-1.66167E-18
 -1      2148 1.68082E-04-1.15942E-05-6.60146E-05 1.99854E-08 3.39194E-18-1.23889E-18
 -1      2149 1.64550E-04-3.19904E-05-5.67234E-05-1.90803E-05 3.30713E-18-2.11801E-18
 -1      2150 1.80275E-04-3.02921E-05-6.32189E-05-1.60835E-05 3.46796E-18-1.97316E-18
 -1      2151 1.38203E-04-4.17088E-05-4.14791E-05-3.62723E-05 3.59735E-18-3.21788E-18
 -1      2152 1.56436E-04-4.13315E-05-4.90782E-05-3.00774E-05 3.04011E-18-2.33146E-18
 -1      2153 1.07935E-04-4.85905E-05-2.59544E-05-4.23775E-05 2.60928E-18-2.69716E-18
 -1      2154 1.26222E-04-4.44122E-05-3.46821E-05-4.47054E-05 3.30639E-18-3.35552E-18
 -1      2155 1.40637E-04-5.44900E-05-3.64877E-05-2.85500E-05 1.27860E-18-1.04947E-18
 -1      2156 6.31337E-05-4.44868E-05-9.02758E-06-4.39377E-05 2.08624E-18-4.50044E-18
 -1      2157 8.39539E-05-4.33677E-05-1.75147E-05-5.02944E-05 2.47969E-18-3.69031E-18
 -1      2158 3.17678E-05-3.80255E-05 1.84591E-06-3.59779E-05 6.88638E-19-5.65077E-18
 -1      2159 4.50172E-05-3.81414E-05-3.45035E-06-4.28429E-05 1.99392E-18-5.51334E-18
 -1      2160 6.48165E-05-4.29413E-05-9.46907E-06-4.94483E-05 8.80914E-20-4.21314E-18
 -1      2161 1.22590E-05-3.96545E-05 9.86443E-06-1.23580E-05-3.98635E-19-5.32741E-18
 -1      2162 1.58982E-05-3.39044E-05 6.65571E-06-2.29883E-05 6.67038E-19-5.92584E-18
 -1      2163 1.40477E-05-3.65827E-05 8.26614E-06 7.20489E-06-1.07467E-18-4.42659E-18
 -1      2164 1.12526E-05-3.93714E-05 1.02252E-05-3.07754E-06-1.85527E-19-4.59812E-18
 -1      2165 1.21295E-05-2.50690E-05 4.91126E-06-7.79983E-06 6.02796E-19-5.61075E-18
 -1      2166 3.93431E-05-4.42601E-05 5.63955E-07 2.58099E-05-2.65164E-18-3.21640E-18
 -1      2167 2.68812E-05-4.21625E-05 5.06225E-06 1.92041E-05-1.52974E-18-4.04670E-18
 -1      2168 7.98260E-05-5.02767E-05-1.38057E-05 3.54937E-05-3.01036E-18-2.07629E-18
 -1      2169 5.82081E-05-5.07374E-05-5.44345E-06 2.79718E-05-2.66519E-18-2.28990E-18
 -1      2170 1.35402E-04-5.98164E-05-3.25944E-05 3.11208E-05-3.38559E-18-8.63974E-19
 -1      2171 1.07349E-04-5.81799E-05-2.27655E-05 2.90337E-05-3.02475E-18-1.45817E-18
 -1      2172 1.81352E-04-5.98341E-05-5.13948E-05 1.68965E-05-3.90757E-18-5.31937E-19
 -1      2173 1.53821E-04-5.90082E-05-4.14744E-05 1.97110E-05-4.45497E-18-1.06049E-18
 -1      2174 2.08092E-04-5.27380E-05-6.49116E-05-4.38495E-06-3.37585E-18 3.09167E-19
 -1      2175 1.91859E-04-5.49429E-05-5.79390E-05 6.90766E-07-3.99895E-18-4.85350E-19
 -1      2176 2.14644E-04-3.98688E-05-7.22639E-05-4.83002E-06-2.55380E-18 5.27278E-19
 -1      2177 2.07365E-04-4.17785E-05-6.89677E-05-5.95567E-06-2.76344E-18-3.72271E-19
 -1      2178 2.16427E-04-4.07152E-05-7.23675E-05 3.02998E-06-3.25854E-18 3.85824E-19
 -1      2179 2.17649E-04-3.84550E-05-7.38475E-05 3.27916E-06-2.59107E-18 3.78571E-19
 -1      2180 2.00903E-04-5.08152E-05-6.31378E-05 4.95340E-07-3.82435E-18 1.17992E-18
 -1      2181 2.17166E-04-4.85719E-05-6.93407E-05 4.32936E-06-3.60921E-18 4.21822E-19
 -1      2182 1.74685E-04-5.84134E-05-4.98994E-05-7.08740E-06-2.59171E-18 1.90582E-18
 -1      2183 1.99152E-04-5.86517E-05-5.84353E-05-3.00743E-06-3.26785E-18 9.20725E-19
 -1      2184 1.28032E-04-6.15523E-05-3.00395E-05-2.36725E-05 4.82809E-20 3.04678E-18
 -1      2185 1.56791E-04-6.23237E-05-4.00884E-05-2.44566E-05-7.99599E-19 3.72440E-18
 -1      2186 7.78700E-05-5.42507E-05-1.18544E-05-3.04918E-05 8.04681E-20 1.79635E-18
 -1      2187 1.04048E-04-5.66415E-05-2.08616E-05-3.57678E-05-1.90582E-19 1.89693E-18
 -1      2188 3.66281E-05-4.49477E-05 1.80697E-06-2.28038E-05 8.98702E-19 2.56820E-18
 -1      2189 5.35193E-05-4.53490E-05-4.55355E-06-3.13390E-05 2.06253E-19 3.32736E-18
 -1      2190 1.42404E-05-3.81726E-05 8.68710E-06-4.83076E-06 1.70571E-18 4.16825E-18
 -1      2191 2.10500E-05-3.71733E-05 5.79427E-06-1.48983E-05 8.17387E-19 3.32206E-18
 -1      2192 2.85090E-05-3.51080E-05 2.05556E-06 3.54799E-05 2.89728E-18 2.00429E-18
 -1      2193 1.98067E-05-4.00763E-05 7.00714E-06 2.51873E-05 2.54195E-18 2.42590E-18
 -1      2194 9.52356E-05-2.85733E-05-2.85696E-05 6.86593E-09-1.61872E-18-3.30235E-18
 -1      2195 1.33970E-05-2.57094E-05 4.51490E-06-2.09300E-06 8.77526E-19 4.94879E-18
 -1      2196 1.47725E-04-6.56892E-05-3.54762E-05 9.59723E-06-4.41516E-19 8.98014E-19
 -1      2197 1.63211E-04-6.49341E-05-4.17072E-05-5.78709E-06-9.80652E-19 1.44864E-18
 -1      2198 1.71917E-04-6.70488E-05-4.52118E-05 1.00409E-05-1.32190E-19-1.74828E-18
 -1      2199 4.65514E-05-3.69721E-05-4.40722E-06 4.56257E-05 8.64821E-19 9.35971E-19
 -1      2200 9.79723E-05-2.44575E-05-3.15845E-05-9.37182E-06-1.86567E-18 5.11992E-19
 -1      2201 9.70780E-05-2.31387E-05-3.17566E-05-9.53009E-06-1.98275E-18-2.89394E-19
 -1      2202 1.26008E-04-5.40427E-05-3.06304E-05 3.88616E-05 1.83764E-18-1.08717E-18
 -1      2203 1.65698E-04-6.37337E-05-4.36087E-05-1.53565E-05-1.89264E-18 1.50327E-18
 -1      2204 1.74241E-04-5.74366E-05-5.09642E-05-2.62462E-05-2.53125E-18 4.16317E-19
 -1      2205 1.71566E-04-4.44900E-05-5.46186E-05-2.73306E-05-2.76895E-18-4.18858E-19
 -1      2206 1.70264E-04-3.81505E-05-5.74235E-05-2.25957E-05-2.33485E-18-1.42333E-18
 -1      2207 1.67588E-04-2.99337E-05-5.92153E-05-8.85595E-06-2.06337E-18-2.03955E-18
 -1      2208 1.70264E-04-2.93769E-05-6.04655E-05 5.27896E-06-2.58176E-18-2.34850E-18
 -1      2209 1.71590E-04-3.58557E-05-5.85484E-05 2.02843E-05-2.67239E-18-3.84225E-18
 -1      2210 1.66290E-04-2.12931E-05-6.13164E-05-8.48323E-07 3.07198E-18-2.32087E-19
 -1      2211 9.52368E-05-2.85753E-05-2.85692E-05 8.05383E-09-1.36743E-18-1.92037E-18
 -1      2212 1.69984E-05-2.80076E-05 3.94558E-06 2.49137E-05 5.38078E-19 4.01748E-18
 -1      2213 1.89358E-04-4.36943E-05-6.09834E-05-2.07466E-05-3.16452E-18 4.82809E-20
 -1      2214 3.55554E-05-3.42082E-05-1.14654E-06-2.58544E-05 1.35991E-18 3.30216E-18
 -1      2215 7.89888E-05-5.19418E-05-1.19997E-05-3.64051E-05 1.92065E-18 1.61339E-18
 -1      2216 1.30457E-04-6.76691E-05-2.75142E-05-2.52559E-05 1.84060E-18 1.74023E-18
 -1      2217 1.93660E-04-3.86360E-05-6.44801E-05 1.61969E-05-3.38093E-18-1.58226E-18
 -1      2218 1.88217E-04-3.06239E-05-6.57621E-05-3.59665E-06-2.46402E-18-1.21083E-18
 -1      2219 1.85866E-04-6.22222E-05-5.16791E-05-1.10669E-05-3.42667E-18 8.99125E-19
 -1      2220 1.57475E-04-7.04582E-05-3.71980E-05 1.37088E-05-2.35433E-18-6.52215E-20
 -1      2221 1.09112E-04-6.20955E-05-2.07536E-05 3.32464E-05-1.00077E-18-2.18111E-20
 -1      2222 2.35534E-05-3.37377E-05 3.49762E-06 1.64194E-05-2.63427E-19-4.26185E-18
 -1      2223 2.03699E-05-2.15555E-05 6.38326E-07 1.43477E-05 1.27616E-18-4.22839E-18
 -1      2224 3.40834E-05-2.88483E-05-2.45590E-06 2.69107E-05 1.47003E-18-3.19967E-18
 -1      2225 2.76910E-05-3.16304E-05 1.34159E-06-3.28180E-05 2.33569E-19-5.71684E-18
 -1      2226 3.94285E-05-2.87747E-05-4.77646E-06-4.23545E-05-6.93296E-19-5.32974E-18
 -1      2227 2.34096E-05-2.12500E-05-4.38099E-07-2.93165E-05-2.36957E-19-5.80895E-18
 -1      2228 1.07070E-04-5.41926E-05-2.25189E-05-4.57560E-05 4.81962E-19-1.91038E-18
 -1      2229 1.64949E-04-3.15810E-05-5.63154E-05 8.38787E-06 2.55507E-18-4.86197E-19
 -1      2230 1.73810E-04-1.88769E-05-6.57064E-05 3.26679E-06 2.86551E-18-1.07086E-18
 -1      2231 1.57950E-04-1.61805E-05-6.07289E-05-1.33696E-06 2.86001E-18-1.06769E-18
 -1      2232 1.56529E-04-1.02324E-05-6.29473E-05-2.86292E-06 3.27505E-18-1.16202E-18
 -1      2233 1.58899E-04-4.06256E-05-5.01839E-05-1.17727E-05 2.40319E-18-5.02291E-19
 -1      2234 5.96082E-05-4.68758E-05-6.47685E-06 3.46214E-05-1.72795E-19-1.42492E-18
 -1      2235 1.71664E-04-6.33540E-05-4.64901E-05-1.80706E-05-2.43178E-18 1.14455E-18
 -1      2236 9.52365E-05-2.85751E-05-2.85692E-05 1.04315E-08-1.55406E-18-1.95636E-18
 -1      2237 8.71442E-05-1.02062E-05-3.30115E-05-3.44965E-06-2.78869E-19-2.48682E-18
 -1      2238 8.74514E-05-1.04986E-05-3.30165E-05-4.43310E-06-5.57638E-19-2.61380E-18
 -1      2239 8.79179E-05-1.10322E-05-3.29973E-05-5.25881E-06-7.38428E-19-2.60934E-18
 -1      2240 8.84756E-05-1.15785E-05-3.29996E-05-6.28633E-06-9.54437E-19-2.54344E-18
 -1      2241 8.88757E-05-1.26921E-05-3.26439E-05-4.41783E-06-5.67285E-19-2.41679E-18
 -1      2242 8.69050E-05-9.94445E-06-3.30129E-05 2.13901E-07 4.51709E-19-2.41316E-18
 -1      2243 8.68296E-05-9.87711E-06-3.30147E-05-7.79014E-07 2.69407E-19-2.39543E-18
 -1      2244 8.73081E-05-1.03680E-05-3.30043E-05 2.16083E-06 7.86353E-19-2.41525E-18
 -1      2245 8.70807E-05-1.01532E-05-3.30058E-05 1.12318E-06 6.09272E-19-2.43659E-18
 -1      2246 8.81809E-05-1.19354E-05-3.26788E-05 5.09131E-07 5.25980E-19-2.28452E-18
 -1      2247 8.80074E-05-1.11233E-05-3.29840E-05 4.18015E-06 1.19000E-18-2.16284E-18
 -1      2248 8.76391E-05-1.07623E-05-3.29876E-05 3.10232E-06 9.55443E-19-2.32720E-18
 -1      2249 8.87157E-05-1.25349E-05-3.26512E-05 2.30811E-06 8.20252E-19-2.17561E-18
 -1      2250 8.90615E-05-1.23008E-05-3.29404E-05 6.32711E-06 1.53664E-18-1.84228E-18
 -1      2251 8.85128E-05-1.17353E-05-3.29507E-05 5.17129E-06 1.30239E-18-2.03753E-18
 -1      2252 8.95740E-05-1.35237E-05-3.25935E-05 4.18193E-06 1.20045E-18-1.96540E-18
 -1      2253 9.05789E-05-1.40692E-05-3.28527E-05 8.48864E-06 1.81269E-18-1.31213E-18
 -1      2254 8.97829E-05-1.31937E-05-3.28783E-05 7.30396E-06 1.60249E-18-1.64271E-18
 -1      2255 9.08026E-05-1.49932E-05-3.24849E-05 6.06894E-06 1.47487E-18-1.64677E-18
 -1      2256 9.27857E-05-1.67846E-05-3.26696E-05 1.03965E-05 2.09075E-18-4.99167E-19
 -1      2257 9.16088E-05-1.53672E-05-3.27360E-05 9.32897E-06 1.90660E-18-9.15153E-19
 -1      2258 9.24814E-05-1.71124E-05-3.22848E-05 7.75878E-06 1.71848E-18-8.94076E-19
 -1      2259 9.59728E-05-2.10132E-05-3.22245E-05 1.11102E-05 2.09466E-18 7.27747E-19
 -1      2260 9.42074E-05-1.86148E-05-3.24364E-05 1.08232E-05 2.11243E-18-2.27905E-20
 -1      2261 9.46712E-05-2.01565E-05-3.19015E-05 8.77699E-06 1.98592E-18-1.46722E-19
 -1      2262 9.80327E-05-2.47876E-05-3.14563E-05 9.35252E-06 1.89733E-18 1.98891E-18
 -1      2263 9.67738E-05-2.23942E-05-3.18681E-05 1.05497E-05 2.03510E-18 1.21135E-18
 -1      2264 9.63607E-05-2.34005E-05-3.12588E-05 8.20952E-06 1.98384E-18 7.24320E-19
 -1      2265 9.69016E-05-2.58801E-05-3.04487E-05 6.35968E-06 1.82023E-18 1.75084E-18
 -1      2266 9.66446E-05-2.48805E-05-3.07118E-05-5.07000E-06-1.68016E-18-6.54917E-19
 -1      2267 9.61476E-05-2.56145E-05-3.02314E-05-2.91658E-06-1.56328E-18-7.67324E-19
 -1      2268 1.36752E-04-5.71130E-05-3.44582E-05 2.95770E-05 6.94144E-19-2.56799E-18
 -1      2269 1.18964E-04-5.68328E-05-2.64938E-05 3.86758E-05 3.50672E-19-2.22727E-18
 -1      2270 3.33015E-05-2.34475E-05-3.80469E-06-2.34756E-05 1.46939E-18 3.11115E-18
 -1      2271 5.08678E-05-3.29682E-05-7.50579E-06-3.43798E-05 1.67120E-18 1.94119E-18
 -1      2272 6.10483E-05-3.61944E-05-1.05342E-05 5.01235E-05-5.13514E-19-1.56913E-19
 -1      2273 4.14988E-05-2.84698E-05-5.14269E-06 4.18876E-05-6.97743E-19 1.02512E-18
 -1      2274 9.60739E-05-2.61962E-05-2.98925E-05-1.35371E-06-1.39262E-18-7.47024E-19
 -1      2275 9.58215E-05-2.65125E-05-2.96873E-05-6.07439E-11-1.15047E-18-7.62768E-19
 -1      2276 9.58558E-05-2.47577E-05-3.04795E-05-2.69693E-06-1.55749E-18-1.02270E-18
 -1      2277 9.56261E-05-2.67152E-05-2.94999E-05 1.28696E-06-1.02052E-18-8.08093E-19
 -1      2278 9.56333E-05-2.68434E-05-2.94566E-05 2.38960E-06-8.18027E-19-8.61185E-19
 -1      2279 9.55920E-05-2.57902E-05-2.99260E-05 3.56354E-07-1.17139E-18-9.82843E-19
 -1      2280 9.54250E-05-2.67984E-05-2.93974E-05 3.48535E-06-8.07100E-19-7.80444E-19
 -1      2281 9.56749E-05-2.68031E-05-2.94837E-05 4.51628E-06-5.87555E-19-9.19582E-19
 -1      2282 9.52281E-05-2.60659E-05-2.96482E-05 2.88372E-06-8.32384E-19-1.03456E-18
 -1      2283 9.54193E-05-2.65584E-05-2.95142E-05 5.60475E-06-3.19944E-19-8.94493E-19
 -1      2284 9.58615E-05-2.64505E-05-2.97053E-05 6.75024E-06-3.47912E-20-9.08709E-19
 -1      2285 9.48008E-05-2.57785E-05-2.95788E-05 5.17174E-06-5.38163E-19-7.60420E-19
 -1      2286 9.54588E-05-2.59900E-05-2.97906E-05 7.98623E-06 8.29927E-20-8.87606E-19
 -1      2287 9.60487E-05-2.57680E-05-3.00677E-05 9.40097E-06 3.42099E-19-8.39315E-19
 -1      2288 9.41811E-05-2.49790E-05-2.96414E-05 7.55358E-06-3.60188E-20-8.68487E-19
 -1      2289 9.53597E-05-2.50677E-05-3.01605E-05 1.09210E-05 3.22448E-19-1.03735E-18
 -1      2290 9.60524E-05-2.47614E-05-3.04919E-05 1.27225E-05 2.67358E-19-1.14331E-18
 -1      2291 9.31385E-05-2.36454E-05-2.97462E-05 1.03086E-05 1.89502E-19-1.29481E-18
 -1      2292 9.49861E-05-2.39172E-05-3.05134E-05 1.45500E-05 3.41454E-19-1.17921E-18
 -1      2293 9.58017E-05-2.37043E-05-3.08288E-05 1.66234E-05 7.76425E-20-1.38525E-18
 -1      2294 9.14484E-05-2.18595E-05-2.97555E-05 1.35603E-05 1.39572E-19-1.63437E-18
 -1      2295 9.42427E-05-2.28676E-05-3.06476E-05 1.90175E-05-5.37725E-20-1.22787E-18
 -1      2296 9.54431E-05-2.32221E-05-3.08505E-05 2.14302E-05 1.66200E-19-9.16804E-19
 -1      2297 8.88754E-05-1.99368E-05-2.94487E-05 1.75745E-05 2.09366E-19-1.81869E-18
 -1      2298 9.37337E-05-2.32171E-05-3.02274E-05 2.43662E-05 6.18877E-19-7.91638E-19
 -1      2299 9.60267E-05-2.53556E-05-3.01143E-05 2.64218E-05 1.11259E-18-6.07865E-19
 -1      2300 8.54932E-05-1.88816E-05-2.84052E-05 2.26101E-05 5.50621E-19-1.07499E-18
 -1      2301 9.55009E-05-2.78580E-05-2.87781E-05 2.96153E-05 1.26187E-18-6.33660E-19
 -1      2302 1.00476E-04-3.38521E-05-2.82526E-05 3.01285E-05 1.35467E-18-4.52898E-19
 -1      2303 8.29001E-05-2.14827E-05-2.60461E-05 2.88656E-05 1.33368E-18-1.08828E-18
 -1      2304 1.03639E-04-4.05968E-05-2.65237E-05 3.24395E-05 1.48612E-18-3.38284E-20
 -1      2305 1.12513E-04-5.01554E-05-2.63708E-05 3.01161E-05 1.18796E-18 2.63560E-19
 -1      2306 8.35363E-05-3.10636E-05-2.24134E-05 3.48851E-05 1.53991E-18-5.96311E-19
 -1      2307 1.75918E-04-4.42063E-05-5.66903E-05 2.83280E-05-2.46402E-18-3.73414E-18
 -1      2308 1.90058E-04-5.34730E-05-5.77119E-05 2.11950E-05-2.35348E-18-2.15062E-18
 -1      2309 1.52094E-04-2.25534E-05-5.58937E-05 4.88117E-06 2.54449E-18 6.64497E-19
 -1      2310 1.53991E-04-1.60030E-05-5.96454E-05 4.31712E-06 2.94492E-18 4.28810E-19
 -1      2311 1.56585E-05-1.64509E-05 6.64556E-07 6.67658E-06 3.25472E-19 4.84969E-18
 -1      2312 1.94195E-05-1.59646E-05-1.11350E-06-8.54715E-06 7.12672E-19 4.55534E-18
 -1      2313 9.56022E-05-2.71362E-05-2.93272E-05 2.72767E-06 1.46632E-18 1.31688E-18
 -1      2314 9.64739E-05-2.67743E-05-2.98411E-05 4.36875E-06 1.59739E-18 1.65890E-18
 -1      2315 9.64687E-05-2.57188E-05-3.02801E-05 5.44181E-06 1.74145E-18 1.07202E-18
 -1      2316 1.15878E-04-4.76539E-05-2.89926E-05-2.76831E-05 9.60429E-19 1.58661E-18
 -1      2317 1.07465E-04-3.84445E-05-2.91610E-05-3.00684E-05 6.87473E-19 1.01472E-18
 -1      2318 1.04175E-04-3.23591E-05-3.05978E-05-2.81130E-05 6.67727E-19 1.45937E-18
 -1      2319 9.99949E-05-2.76774E-05-3.08297E-05-2.70939E-05 1.16537E-18 1.30292E-18
 -1      2320 9.08168E-05-3.08319E-05-2.56330E-05-3.22878E-05 6.01764E-19 2.80304E-18
 -1      2321 1.00214E-04-2.60775E-05-3.16767E-05-2.41445E-05 8.37418E-19 9.39197E-19
 -1      2322 9.80769E-05-2.44821E-05-3.15358E-05-2.18263E-05 5.53093E-19 5.87771E-19
 -1      2323 8.90037E-05-2.25397E-05-2.84057E-05-2.64247E-05 6.54068E-19 2.49603E-18
 -1      2324 9.92154E-05-2.47581E-05-3.18347E-05-1.89876E-05 4.93132E-19 5.36516E-19
 -1      2325 9.79115E-05-2.45273E-05-3.14846E-05-1.65362E-05 9.60628E-19 8.12455E-19
 -1      2326 9.06995E-05-2.08062E-05-2.98742E-05-2.05583E-05 4.53578E-19 1.50549E-18
 -1      2327 9.89002E-05-2.53100E-05-3.14732E-05-1.41936E-05 8.27710E-19 7.45237E-19
 -1      2328 9.79409E-05-2.54950E-05-3.10772E-05-1.20910E-05 6.96241E-19 5.36557E-19
 -1      2329 9.29157E-05-2.19510E-05-3.03557E-05-1.55492E-05 6.81775E-19 3.23345E-19
 -1      2330 9.85536E-05-2.62102E-05-3.09455E-05-1.03541E-05 1.09896E-19-1.52686E-19
 -1      2331 9.78025E-05-2.64400E-05-3.06041E-05-8.78920E-06-4.00786E-19-9.55203E-19
 -1      2332 9.45080E-05-2.36489E-05-3.03320E-05-1.15577E-05-6.74682E-20 3.49928E-19
 -1      2333 9.81237E-05-2.70141E-05-3.04281E-05-7.40001E-06-4.83083E-19-1.18884E-18
 -1      2334 9.74874E-05-2.72076E-05-3.01333E-05-6.19304E-06-3.35700E-19-1.51089E-18
 -1      2335 9.54508E-05-2.51576E-05-3.01009E-05-8.44390E-06-1.04821E-18-6.23026E-19
 -1      2336 9.76111E-05-2.76021E-05-2.99673E-05-5.18353E-06 1.14353E-19-1.10573E-18
 -1      2337 9.71068E-05-2.77320E-05-2.97399E-05-4.32823E-06 7.39261E-19-1.04280E-18
 -1      2338 9.59108E-05-2.63233E-05-2.98092E-05-6.03745E-06-8.52575E-20-1.27854E-19
 -1      2339 9.71142E-05-2.79860E-05-2.95994E-05-3.60723E-06 6.35549E-19-1.89377E-18
 -1      2340 9.67245E-05-2.80659E-05-2.94296E-05-3.01160E-06 3.42458E-19-1.46774E-18
 -1      2341 9.60522E-05-2.71258E-05-2.95330E-05-4.27974E-06 2.67737E-19-1.62681E-19
 -1      2342 9.66763E-05-2.82237E-05-2.93175E-05-2.50221E-06 5.30552E-19-1.40430E-18
 -1      2343 9.63824E-05-2.82697E-05-2.91932E-05-2.09109E-06-2.31889E-19-4.62493E-19
 -1      2344 9.60233E-05-2.76528E-05-2.92990E-05-3.01730E-06 5.30897E-19-5.75498E-19
 -1      2345 9.63189E-05-2.83610E-05-2.91110E-05-1.74981E-06-1.02815E-18-6.61993E-19
 -1      2346 9.61076E-05-2.83859E-05-2.90245E-05-1.47668E-06-9.90437E-20-1.02515E-18
 -1      2347 9.59210E-05-2.79846E-05-2.91158E-05-2.13659E-06-9.66340E-19-1.02855E-18
 -1      2348 9.60366E-05-2.84448E-05-2.89582E-05-1.22031E-06-5.49029E-20-1.86067E-18
 -1      2349 9.58726E-05-2.84582E-05-2.88924E-05-1.02121E-06-1.14506E-18-2.02468E-18
 -1      2350 9.57957E-05-2.81920E-05-2.89735E-05-1.51171E-06-1.03315E-18-1.50791E-18
 -1      2351 9.58097E-05-2.84928E-05-2.88433E-05-8.41680E-07-1.22764E-18-2.07834E-18
 -1      2352 9.56905E-05-2.84995E-05-2.87963E-05-7.03909E-07-1.76571E-18-2.09035E-18
 -1      2353 9.56708E-05-2.83273E-05-2.88624E-05-1.05548E-06-1.29916E-18-2.95519E-18
 -1      2354 9.56381E-05-2.85198E-05-2.87602E-05-5.77702E-07-1.32772E-18-1.34909E-18
 -1      2355 9.55524E-05-2.85230E-05-2.87269E-05-4.82097E-07 4.93208E-19-1.30232E-18
 -1      2356 9.55614E-05-2.84115E-05-2.87795E-05-7.33298E-07-9.93234E-19-1.72840E-18
 -1      2357 9.55107E-05-2.85350E-05-2.87006E-05-3.93219E-07 1.31155E-18-9.42017E-19
 -1      2358 9.54499E-05-2.85366E-05-2.86771E-05-3.26703E-07 1.71135E-18-1.08652E-18
 -1      2359 9.54716E-05-2.84642E-05-2.87184E-05-5.05535E-07 1.19646E-18-8.14613E-20
 -1      2360 9.54179E-05-2.85437E-05-2.86580E-05-2.64068E-07 6.98060E-19-1.80001E-18
 -1      2361 9.53756E-05-2.85447E-05-2.86416E-05-2.17793E-07-6.36324E-19-1.44183E-18
 -1      2362 9.54010E-05-2.84977E-05-2.86736E-05-3.44425E-07 4.23193E-19-9.08260E-19
 -1      2363 9.53528E-05-2.85488E-05-2.86286E-05-1.75704E-07-1.62527E-19-1.93622E-18
 -1      2364 9.53248E-05-2.85497E-05-2.86177E-05-1.44711E-07 1.81993E-19-9.05841E-19
 -1      2365 9.53487E-05-2.85193E-05-2.86419E-05-2.32621E-07-8.45156E-19-1.88547E-18
 -1      2366 9.53072E-05-2.85527E-05-2.86079E-05-1.13163E-07 8.82771E-19-1.00735E-18
 -1      2367 9.52874E-05-2.85536E-05-2.86001E-05-9.04435E-08 1.29855E-18-3.12166E-21
 -1      2368 9.53098E-05-2.85333E-05-2.86190E-05-1.53606E-07 7.72635E-19-8.39431E-19
 -1      2369 9.52751E-05-2.85555E-05-2.85933E-05-6.85235E-08 1.15133E-18-1.99705E-20
 -1      2370 9.52623E-05-2.85566E-05-2.85881E-05-5.29087E-08 1.42666E-18-2.16962E-19
 -1      2371 9.52813E-05-2.85435E-05-2.86023E-05-9.62622E-08 1.73082E-18-4.35127E-19
 -1      2372 9.52540E-05-2.85580E-05-2.85834E-05-3.78101E-08 1.10315E-18-1.13900E-19
 -1      2373 9.52462E-05-2.85591E-05-2.85801E-05-2.72297E-08 4.98896E-19 2.55877E-19
 -1      2374 9.52615E-05-2.85507E-05-2.85906E-05-5.63727E-08 1.48541E-18-4.87433E-19
 -1      2375 9.52408E-05-2.85603E-05-2.85770E-05-1.70005E-08-8.58309E-20-2.12647E-19
 -1      2376 9.52366E-05-2.85614E-05-2.85750E-05-9.98577E-09-1.46119E-18 9.05391E-20
 -1      2377 9.52485E-05-2.85561E-05-2.85827E-05-2.89850E-08 1.92987E-19 6.55241E-19
 -1      2378 9.52333E-05-2.85624E-05-2.85730E-05-3.23026E-09-3.92014E-19 1.24454E-18
 -1      2379 9.52315E-05-2.85635E-05-2.85719E-05 1.24640E-09 7.28599E-19 1.58503E-18
 -1      2380 9.52403E-05-2.85602E-05-2.85774E-05-1.05549E-08-2.68147E-19 5.06771E-19
 -1      2381 9.52298E-05-2.85643E-05-2.85708E-05 5.33813E-09-3.28524E-19 1.27121E-18
 -1      2382 9.52295E-05-2.85654E-05-2.85703E-05 7.92581E-09-7.86744E-19 7.03793E-19
 -1      2383 9.52358E-05-2.85634E-05-2.85740E-05 1.25612E-09 6.62595E-21 1.30829E-18
 -1      2384 9.52288E-05-2.85662E-05-2.85696E-05 1.04814E-08 1.34914E-18 1.22590E-19
 -1      2385 9.52295E-05-2.85674E-05-2.85695E-05 1.18970E-08 1.59894E-18-2.01508E-19
 -1      2386 9.52336E-05-2.85659E-05-2.85719E-05 8.56180E-09 2.74005E-19 1.80657E-19
 -1      2387 9.52295E-05-2.85681E-05-2.85691E-05 1.30792E-08 9.30479E-19-5.00196E-19
 -1      2388 9.52308E-05-2.85693E-05-2.85692E-05 1.34607E-08 5.75462E-20 1.05248E-20
 -1      2389 9.52331E-05-2.85683E-05-2.85707E-05 1.27043E-08 1.33993E-18 8.02399E-19
 -1      2390 9.52312E-05-2.85701E-05-2.85690E-05 1.35612E-08-6.91515E-19 1.83706E-19
 -1      2391 9.52327E-05-2.85713E-05-2.85692E-05 1.30459E-08-3.74240E-19-7.45967E-19
 -1      2392 9.52337E-05-2.85705E-05-2.85700E-05 1.42287E-08-9.70666E-19 9.02680E-19
 -1      2393 9.52339E-05-2.85725E-05-2.85692E-05 1.26933E-08-1.25269E-18-1.11933E-18
 -1      2394 9.52354E-05-2.85737E-05-2.85693E-05 1.13822E-08-1.60076E-18-1.57261E-18
 -1      2395 9.52377E-05-2.85761E-05-2.85693E-05 1.23199E-08-1.96144E-18-8.88844E-19
 -1      2396 9.52356E-05-2.85731E-05-2.85696E-05 1.38949E-08-1.09639E-18-7.35175E-19
 -1      2397 9.46593E-05-2.78839E-05-2.86118E-05 7.74301E-10 9.64827E-19 4.80103E-19
 -1      2398 9.48421E-05-2.76888E-05-2.87463E-05 4.92002E-07 1.08896E-18 6.98609E-19
 -1      2399 9.49338E-05-2.75418E-05-2.88625E-05 1.00993E-06 1.11333E-18 9.17320E-19
 -1      2400 9.53819E-05-2.73209E-05-2.91275E-05 1.94217E-06 1.26185E-18 1.13899E-18
 -1      2401 9.57510E-05-2.69428E-05-2.94961E-05 2.56961E-06 1.39574E-18 7.76408E-19
 -1      2402 9.54683E-05-2.74718E-05-2.91615E-05 1.07180E-06 1.30471E-18 3.57736E-19
 -1      2403 9.45893E-05-2.85773E-05-2.82978E-05-6.15807E-07 1.93113E-19-4.34022E-20
 -1      2404 9.45406E-05-2.84169E-05-2.83256E-05-6.69870E-07 3.93992E-19 3.88097E-20
 -1      2405 9.46899E-05-2.88762E-05-2.82186E-05-2.26802E-07 4.93885E-20 9.50191E-20
 -1      2406 9.46565E-05-2.87392E-05-2.82442E-05-4.67799E-07-1.46882E-20-5.05143E-20
 -1      2407 9.53823E-05-2.89814E-05-2.84641E-05-5.53502E-07 1.60290E-19-1.63266E-19
 -1      2408 9.47085E-05-2.91124E-05-2.81299E-05 5.33611E-07 2.97151E-19 4.05620E-19
 -1      2409 9.47664E-05-2.90239E-05-2.81741E-05 1.33357E-07 1.41011E-19 2.66416E-19
 -1      2410 9.55666E-05-2.94067E-05-2.83562E-05-4.04133E-08 6.22081E-21-6.17778E-20
 -1      2411 9.45219E-05-2.92225E-05-2.80049E-05 1.59255E-06 2.80795E-19 4.18981E-19
 -1      2412 9.47357E-05-2.92187E-05-2.80815E-05 1.07152E-06 4.53444E-19 4.61355E-19
 -1      2413 9.57058E-05-2.97533E-05-2.82627E-05 8.96217E-07 2.44214E-19 2.81651E-19
 -1      2414 9.40201E-05-2.91218E-05-2.78313E-05 2.82650E-06 6.11733E-19 3.68774E-20
 -1      2415 9.44372E-05-2.92448E-05-2.79460E-05 2.25125E-06 5.15592E-19 4.12591E-19
 -1      2416 9.56765E-05-2.99383E-05-2.81663E-05 2.16173E-06 5.38433E-19 5.28859E-20
 -1      2417 9.31274E-05-2.87246E-05-2.76122E-05 4.03232E-06 1.87691E-19 4.99137E-20
 -1      2418 9.37644E-05-2.90096E-05-2.77618E-05 3.50738E-06 4.54509E-19-9.48776E-22
 -1      2419 9.53511E-05-2.98467E-05-2.80622E-05 3.59381E-06 5.96843E-19 1.34148E-21
 -1      2420 9.18380E-05-2.79834E-05-2.73657E-05 4.92543E-06 2.40222E-19 1.89081E-19
 -1      2421 9.26637E-05-2.84377E-05-2.75375E-05 4.58763E-06 9.76032E-20 5.91591E-20
 -1      2422 9.46255E-05-2.93646E-05-2.79560E-05 4.93202E-06 9.23489E-20-3.58632E-20
 -1      2423 9.02594E-05-2.69419E-05-2.71216E-05 5.18596E-06-1.37172E-19 3.76493E-19
 -1      2424 9.11805E-05-2.75208E-05-2.72944E-05 5.17516E-06 2.10865E-19 6.85236E-19
 -1      2425 9.34703E-05-2.84395E-05-2.78597E-05 5.82415E-06-1.79052E-19 1.08571E-19
 -1      2426 8.86357E-05-2.57736E-05-2.69144E-05 4.56107E-06 5.26709E-19 2.34843E-19
 -1      2427 8.95000E-05-2.63697E-05-2.70628E-05 4.96845E-06 1.80168E-19 5.28555E-19
 -1      2428 9.19920E-05-2.71530E-05-2.77853E-05 5.89555E-06 4.40966E-20 1.90539E-19
 -1      2429 8.73177E-05-2.47664E-05-2.67758E-05 2.99627E-06 9.94322E-19 2.26318E-19
 -1      2430 8.79445E-05-2.52294E-05-2.68750E-05 3.80893E-06 7.03701E-19 2.91597E-19
 -1      2431 9.04650E-05-2.57610E-05-2.77397E-05 4.88609E-06 5.86748E-19 2.34773E-19
 -1      2432 8.66579E-05-2.42259E-05-2.67278E-05 7.22053E-07 1.36597E-18-1.90328E-20
 -1      2433 8.68938E-05-2.44176E-05-2.67595E-05 1.79951E-06 1.40097E-18 2.82145E-19
 -1      2434 8.92819E-05-2.46448E-05-2.77225E-05 2.80905E-06 1.14996E-18 5.40795E-19
 -1      2435 8.68686E-05-2.43379E-05-2.67800E-05-1.78199E-06 4.04696E-19-2.90873E-19
 -1      2436 8.66440E-05-2.41947E-05-2.67364E-05-6.72908E-07 9.65154E-19-1.42960E-19
 -1      2437 8.88091E-05-2.41669E-05-2.77300E-05 2.67722E-08 1.27848E-18 7.36475E-19
 -1      2438 8.79220E-05-2.50726E-05-2.69286E-05-3.95155E-06-6.02369E-20-5.12438E-19
 -1      2439 8.72793E-05-2.46376E-05-2.68138E-05-3.05313E-06 1.25075E-19-2.36232E-19
 -1      2440 8.92171E-05-2.44952E-05-2.77601E-05-2.83778E-06 1.73102E-19 2.54954E-19
 -1      2441 8.95598E-05-2.61985E-05-2.71576E-05-5.35324E-06-3.45599E-19-3.94213E-19
 -1      2442 8.86354E-05-2.55988E-05-2.69871E-05-4.82743E-06-3.35096E-19-4.50587E-19
 -1      2443 9.03922E-05-2.55160E-05-2.78155E-05-5.13368E-06-2.01189E-19 9.51506E-20
 -1      2444 9.14122E-05-2.74013E-05-2.74408E-05-5.82530E-06-1.36623E-20-5.89953E-19
 -1      2445 9.03821E-05-2.67870E-05-2.72378E-05-5.70939E-06 2.15342E-19-6.38764E-19
 -1      2446 9.19965E-05-2.68933E-05-2.79008E-05-6.43508E-06 3.05978E-20-3.18819E-19
 -1      2447 9.31420E-05-2.84195E-05-2.77464E-05-5.47694E-06 3.68252E-19-1.23871E-18
 -1      2448 9.21648E-05-2.79059E-05-2.75363E-05-5.69927E-06-2.29648E-19-1.04477E-18
 -1      2449 9.36340E-05-2.82396E-05-2.80172E-05-6.66005E-06 1.86385E-19-8.76474E-19
 -1      2450 9.45360E-05-2.91187E-05-2.80426E-05-4.58205E-06 3.16846E-19-8.32229E-19
 -1      2451 9.37172E-05-2.87602E-05-2.78478E-05-5.01400E-06 7.98733E-19-1.03398E-18
 -1      2452 9.50032E-05-2.92726E-05-2.81582E-05-6.01823E-06 1.80984E-19-1.13048E-18
 -1      2453 9.55195E-05-2.94891E-05-2.83029E-05-3.44776E-06-1.12296E-18-1.30791E-18
 -1      2454 9.49049E-05-2.92858E-05-2.81393E-05-3.95790E-06-2.97701E-19-1.05771E-18
 -1      2455 9.59640E-05-2.98817E-05-2.83098E-05-4.86021E-06 8.28157E-20-6.85759E-19
 -1      2456 9.61189E-05-2.95980E-05-2.85110E-05-2.32211E-06-1.00246E-19-1.18485E-18
 -1      2457 9.57068E-05-2.95182E-05-2.83864E-05-2.81011E-06-1.22026E-18-1.19067E-18
 -1      2458 9.65170E-05-3.01014E-05-2.84554E-05-3.53011E-06-9.24406E-19-1.38360E-18
 -1      2459 9.64119E-05-2.95376E-05-2.86611E-05-1.35830E-06 1.61019E-20-8.92526E-19
 -1      2460 9.61725E-05-2.95399E-05-2.85758E-05-1.76570E-06 2.78891E-19-8.64005E-19
 -1      2461 9.67427E-05-3.00424E-05-2.85804E-05-2.28042E-06-1.25380E-19-7.57853E-19
 -1      2462 9.64884E-05-2.93907E-05-2.87560E-05-6.21171E-07 1.17331E-19-4.05074E-19
 -1      2463 9.63807E-05-2.94382E-05-2.87055E-05-9.26140E-07-1.16485E-19-6.03219E-19
 -1      2464 9.67448E-05-2.98275E-05-2.86758E-05-1.25130E-06 1.78954E-19-4.38095E-19
 -1      2465 9.64282E-05-2.92167E-05-2.88043E-05-1.12820E-07 5.34648E-20-6.99632E-19
 -1      2466 9.64114E-05-2.92825E-05-2.87815E-05-3.18500E-07 3.69340E-19-4.89142E-19
 -1      2467 9.66165E-05-2.95556E-05-2.87390E-05-4.89533E-07 2.42439E-19-7.74707E-19
 -1      2468 9.62932E-05-2.90511E-05-2.88173E-05 1.99527E-07-1.46868E-18-5.54614E-19
 -1      2469 9.63326E-05-2.91184E-05-2.88142E-05 7.67880E-08-1.11889E-18-7.62863E-19
 -1      2470 9.64266E-05-2.92906E-05-2.87723E-05 1.88772E-08-2.70466E-19-6.07189E-19
 -1      2471 9.61265E-05-2.89105E-05-2.88061E-05 3.61878E-07-3.79277E-19 5.56727E-19
 -1      2472 9.61957E-05-2.89706E-05-2.88157E-05 3.01328E-07-7.48545E-19 3.18304E-20
 -1      2473 9.62201E-05-2.90649E-05-2.87812E-05 3.18485E-07-1.42781E-18-9.69231E-19
 -1      2474 9.59561E-05-2.88000E-05-2.87805E-05 4.19915E-07 4.29872E-19 1.07640E-20
 -1      2475 9.60364E-05-2.88493E-05-2.87970E-05 4.01743E-07 2.61211E-19 5.88296E-19
 -1      2476 9.60229E-05-2.88891E-05-2.87723E-05 4.62867E-07-2.91453E-19-1.66140E-19
 -1      2477 9.57980E-05-2.87177E-05-2.87481E-05 4.12220E-07 3.84746E-19-5.14448E-19
 -1      2478 9.58775E-05-2.87559E-05-2.87672E-05 4.20093E-07 2.01632E-19-2.63133E-19
 -1      2479 9.58479E-05-2.87614E-05-2.87522E-05 5.02072E-07 6.55840E-19 3.48220E-19
 -1      2480 9.56603E-05-2.86592E-05-2.87142E-05 3.68076E-07-1.21943E-18 4.67516E-19
 -1      2481 9.57322E-05-2.86875E-05-2.87332E-05 3.89837E-07-4.01324E-19 4.75577E-19
 -1      2482 9.56999E-05-2.86738E-05-2.87263E-05 4.76926E-07-6.03844E-19 8.14865E-19
 -1      2483 9.55458E-05-2.86193E-05-2.86823E-05 3.07853E-07 1.09605E-19 6.82772E-19
 -1      2484 9.56069E-05-2.86394E-05-2.86996E-05 3.35206E-07-6.42994E-19 2.18190E-19
 -1      2485 9.55790E-05-2.86172E-05-2.86987E-05 4.17669E-07-5.67378E-19 1.35807E-18
 -1      2486 9.54542E-05-2.85932E-05-2.86543E-05 2.44554E-07 6.54664E-19 1.26788E-18
 -1      2487 9.55037E-05-2.86069E-05-2.86690E-05 2.72321E-07 5.83332E-20 6.90723E-19
 -1      2488 9.54830E-05-2.85828E-05-2.86722E-05 3.44912E-07-1.48183E-19 9.75870E-19
 -1      2489 9.53832E-05-2.85769E-05-2.86310E-05 1.85660E-07-2.90992E-19 3.52383E-18
 -1      2490 9.54217E-05-2.85858E-05-2.86429E-05 2.10956E-07 8.11276E-19 2.50930E-18
 -1      2491 9.54086E-05-2.85636E-05-2.86485E-05 2.71534E-07-1.25006E-20 1.49609E-18
 -1      2492 9.53301E-05-2.85674E-05-2.86123E-05 1.34819E-07-4.92666E-19 2.02968E-18
 -1      2493 9.53588E-05-2.85729E-05-2.86216E-05 1.56324E-07-5.33367E-19 3.07549E-18
 -1      2494 9.53524E-05-2.85542E-05-2.86284E-05 2.04731E-07 7.08965E-20 1.99058E-18
 -1      2495 9.52916E-05-2.85625E-05-2.85980E-05 9.32239E-08-2.34981E-19 2.51131E-19
 -1      2496 9.53122E-05-2.85656E-05-2.86049E-05 1.10598E-07-4.97296E-19 9.30669E-19
 -1      2497 9.53109E-05-2.85508E-05-2.86119E-05 1.47815E-07 6.06272E-19 6.17747E-19
 -1      2498 9.52649E-05-2.85604E-05-2.85874E-05 6.06159E-08-4.97919E-19 3.79086E-19
 -1      2499 9.52789E-05-2.85619E-05-2.85923E-05 7.40835E-08-6.14977E-19-3.66293E-20
 -1      2500 9.52812E-05-2.85510E-05-2.85991E-05 1.01647E-07 5.08357E-21-3.97586E-20
 -1      2501 9.52471E-05-2.85602E-05-2.85800E-05 3.59905E-08 1.26336E-18 8.91991E-19
 -1      2502 9.52562E-05-2.85606E-05-2.85833E-05 4.60501E-08 1.91032E-19 4.43631E-19
 -1      2503 9.52605E-05-2.85529E-05-2.85893E-05 6.56670E-08-7.10412E-20 2.22885E-19
 -1      2504 9.52362E-05-2.85610E-05-2.85750E-05 1.80500E-08-5.65775E-19 2.57926E-18
 -1      2505 9.52415E-05-2.85607E-05-2.85771E-05 2.52938E-08 7.96771E-19 2.34356E-18
 -1      2506 9.52469E-05-2.85556E-05-2.85822E-05 3.86152E-08 1.58908E-19 7.20318E-19
 -1      2507 9.52303E-05-2.85625E-05-2.85718E-05 5.48102E-09 5.67366E-19 2.29308E-18
 -1      2508 9.52328E-05-2.85618E-05-2.85730E-05 1.04851E-08 1.19994E-20 1.84612E-18
 -1      2509 9.52383E-05-2.85586E-05-2.85772E-05 1.89834E-08-1.20306E-19 2.25663E-18
 -1      2510 9.52278E-05-2.85642E-05-2.85701E-05-2.88960E-09 3.19060E-18 1.53485E-18
 -1      2511 9.52285E-05-2.85633E-05-2.85706E-05 3.75139E-10 2.16701E-18 2.19756E-18
 -1      2512 9.52336E-05-2.85615E-05-2.85739E-05 5.29322E-09 1.53054E-18-1.16213E-19
 -1      2513 9.52277E-05-2.85660E-05-2.85693E-05-8.01650E-09 8.41477E-19 2.47196E-18
 -1      2514 9.52272E-05-2.85650E-05-2.85694E-05-6.09653E-09 1.63364E-18 2.45203E-18
 -1      2515 9.52315E-05-2.85641E-05-2.85718E-05-3.75174E-09 2.00603E-18 1.04033E-18
 -1      2516 9.52292E-05-2.85680E-05-2.85691E-05-1.06208E-08-4.86587E-19 2.13019E-18
 -1      2517 9.52278E-05-2.85669E-05-2.85689E-05-9.77478E-09 4.88846E-19 2.40294E-18
 -1      2518 9.52312E-05-2.85666E-05-2.85706E-05-9.19395E-09 1.02163E-18 2.92641E-18
 -1      2519 9.52314E-05-2.85700E-05-2.85692E-05-1.11394E-08 1.31538E-18 2.55317E-18
 -1      2520 9.52297E-05-2.85689E-05-2.85689E-05-1.12043E-08-1.76379E-19 2.40405E-18
 -1      2521 9.52321E-05-2.85690E-05-2.85700E-05-1.18737E-08-4.90216E-19 3.08190E-18
 -1      2522 9.52340E-05-2.85720E-05-2.85694E-05-9.85654E-09 2.83632E-19 3.56514E-18
 -1      2523 9.52323E-05-2.85709E-05-2.85691E-05-1.07056E-08 1.08407E-18 3.25530E-18
 -1      2524 9.52338E-05-2.85714E-05-2.85696E-05-1.22253E-08 5.84016E-19 4.08035E-18
 -1      2525 9.52350E-05-2.85730E-05-2.85694E-05-8.45536E-09 4.71410E-19 3.38580E-18
 -1      2526 9.52421E-05-2.85806E-05-2.85692E-05-8.17433E-09-7.25843E-19 1.78311E-19
 -1      2527 9.52416E-05-2.85797E-05-2.85694E-05-9.17129E-09-7.95235E-19-1.61329E-18
 -1      2528 9.52428E-05-2.85816E-05-2.85691E-05-5.72248E-09-8.27503E-19 2.03997E-18
 -1      2529 9.52424E-05-2.85809E-05-2.85692E-05-6.94327E-09-1.47191E-18 2.36782E-18
 -1      2530 9.52420E-05-2.85775E-05-2.85705E-05-8.10386E-09-4.61089E-19 1.38733E-18
 -1      2531 9.52395E-05-2.85774E-05-2.85694E-05-1.12515E-08 3.15396E-19-1.27087E-18
 -1      2532 9.52383E-05-2.85760E-05-2.85696E-05-1.12918E-08 8.62752E-20-6.91033E-19
 -1      2533 9.52411E-05-2.85792E-05-2.85694E-05-1.01096E-08-1.37519E-18-2.26582E-18
 -1      2534 9.52403E-05-2.85781E-05-2.85695E-05-1.07254E-08-7.59214E-19-1.20890E-18
 -1      2535 9.52396E-05-2.85758E-05-2.85702E-05-1.18855E-08 1.20198E-18-2.48760E-18
 -1      2536 9.52410E-05-2.85768E-05-2.85704E-05-1.03617E-08-4.71213E-19-1.12682E-18
 -1      2537 9.52432E-05-2.85822E-05-2.85690E-05-2.96748E-09-1.07121E-18 5.33934E-19
 -1      2538 9.52430E-05-2.85818E-05-2.85691E-05-4.32991E-09-9.50745E-19 1.28020E-18
 -1      2539 9.52426E-05-2.85780E-05-2.85706E-05-5.41030E-09-1.43946E-18 2.32808E-18
 -1      2540 9.52435E-05-2.85825E-05-2.85690E-05-1.78615E-12-2.96391E-18-2.94926E-19
 -1      2541 9.52434E-05-2.85824E-05-2.85690E-05-1.45893E-09-2.42644E-18 4.12634E-20
 -1      2542 9.52430E-05-2.85784E-05-2.85706E-05-2.43461E-09-2.22727E-18-4.27111E-19
 -1      2543 9.52435E-05-2.85824E-05-2.85690E-05 3.10352E-09-2.17877E-18-1.13276E-18
 -1      2544 9.52436E-05-2.85826E-05-2.85690E-05 1.59724E-09-2.61574E-18-4.87418E-20
 -1      2545 9.52433E-05-2.85787E-05-2.85706E-05 7.56704E-10-2.03746E-18 2.56032E-19
 -1      2546 9.52433E-05-2.85819E-05-2.85691E-05 6.16536E-09-2.74024E-19-9.13130E-19
 -1      2547 9.52435E-05-2.85825E-05-2.85690E-05 4.71869E-09-1.80529E-18-1.16455E-18
 -1      2548 9.52434E-05-2.85789E-05-2.85705E-05 4.06805E-09-6.48885E-19-2.31106E-20
 -1      2549 9.52425E-05-2.85809E-05-2.85692E-05 9.03304E-09 1.95017E-19 6.62635E-21
 -1      2550 9.52431E-05-2.85818E-05-2.85691E-05 7.74186E-09 3.68335E-19-1.42196E-18
 -1      2551 9.52431E-05-2.85788E-05-2.85704E-05 7.37400E-09 8.10027E-19-1.42864E-18
 -1      2552 9.52411E-05-2.85792E-05-2.85693E-05 1.12243E-08-1.63679E-18-1.95470E-18
 -1      2553 9.52420E-05-2.85805E-05-2.85692E-05 1.03534E-08-1.21429E-18-8.34221E-19
 -1      2554 9.52422E-05-2.85782E-05-2.85703E-05 1.03901E-08-9.22378E-19-1.73820E-18
 -1      2555 9.52389E-05-2.85771E-05-2.85694E-05 1.21304E-08-2.05508E-18-9.67034E-19
 -1      2556 9.52402E-05-2.85786E-05-2.85693E-05 1.19689E-08-2.00237E-18-1.48985E-18
 -1      2557 9.52405E-05-2.85771E-05-2.85700E-05 1.25052E-08-3.05568E-18-1.63692E-18
 -1      2558 9.52380E-05-2.85754E-05-2.85697E-05 1.33551E-08-2.72376E-18-9.94719E-19
 -1      2559 1.00632E-04-5.20584E-05-2.08979E-05 4.83339E-05-7.98329E-20-9.64890E-19
 -1      2560 8.41099E-05-4.66553E-05-1.56739E-05 4.92123E-05-5.25160E-19-6.17328E-19
 -1      2561 1.67148E-04-7.02425E-05-4.19688E-05 4.64203E-07-2.21753E-18 7.29295E-19
 -1      2562 9.55556E-05-1.99311E-05-3.24582E-05-1.07900E-05-1.92576E-18-9.98731E-19
 -1      2563 9.61133E-05-2.31712E-05-3.12763E-05-6.96888E-06-1.84982E-18-8.23725E-19
 -1      2564 9.54498E-05-2.21579E-05-3.14022E-05-6.39605E-06-1.76409E-18-1.20008E-18
 -1      2565 9.35666E-05-1.75031E-05-3.26327E-05-1.02713E-05-1.79678E-18-1.53400E-18
 -1      2566 1.74279E-04-6.85326E-05-4.50891E-05 1.49964E-06-2.29969E-19 2.54110E-21
 -1      2567 9.45361E-05-2.82497E-05-2.84092E-05-5.71586E-07 6.04365E-19 1.57198E-19
 -1      2568 9.45596E-05-2.80777E-05-2.84682E-05-3.99528E-07 7.55235E-19 3.54934E-19
 -1      2569 9.53052E-05-2.79841E-05-2.88669E-05-9.50083E-11 1.04983E-18 1.72427E-19
 -1      2570 9.52636E-05-2.85140E-05-2.86180E-05-5.71506E-07 6.30358E-19 2.39858E-20
 -1      2571 8.68323E-05-9.87362E-06-3.30148E-05-1.64293E-06 1.35529E-19-2.38413E-18
 -1      2572 8.69311E-05-9.96896E-06-3.30185E-05-2.61520E-06-7.47850E-20-2.41375E-18
 -1      2573 8.81922E-05-1.19413E-05-3.26766E-05-2.84178E-06-1.85557E-19-2.29007E-18
 -1      2574 8.79863E-05-1.17191E-05-3.26864E-05-1.20891E-06 2.13959E-19-2.23981E-18
 -1      2575 1.52236E-04-4.61195E-05-4.59041E-05 9.81430E-06 1.79703E-18-1.79783E-18
 -1      2576 1.46133E-04-5.16048E-05-4.05768E-05 1.53794E-05 1.71749E-18-2.29906E-18
 -1      2577 1.49743E-04-4.68067E-05-4.42561E-05-7.50016E-06 1.63250E-18 4.41304E-19
 -1      2578 1.53823E-04-3.67173E-05-5.08137E-05 1.14822E-07 2.11123E-18 6.87155E-19
 -1      2579 1.52884E-04-1.07266E-05-6.14695E-05 3.30947E-06 2.71516E-18 5.11396E-20
 -1      2580 1.51833E-04-8.18453E-06-6.21696E-05 1.37819E-06 2.62368E-18-6.07984E-19
 -1      2581 1.42370E-04-1.14821E-05-5.63456E-05 6.89890E-06 2.34416E-18 6.64603E-19
 -1      2582 7.81276E-05-4.74444E-05-1.30907E-05 3.88243E-05 5.59889E-19-6.46710E-19
 -1      2583 5.73266E-05-3.86929E-05-7.84677E-06 3.52682E-05 8.61433E-19-1.14731E-18
 -1      2584 1.36038E-04-5.81744E-05-3.32111E-05-2.66892E-05 7.16802E-20-5.02079E-19
 -1      2585 1.45306E-04-5.53638E-05-3.90097E-05-2.01699E-05 1.04185E-18-2.36534E-19
 -1      2586 9.93111E-05-5.31476E-05-1.94734E-05-4.63624E-05-8.22257E-19-1.72043E-18
 -1      2587 1.19897E-04-5.79588E-05-2.68561E-05-4.03899E-05-2.02017E-19-7.78953E-19
 -1      2588 6.17948E-05-3.79168E-05-9.71912E-06-4.76037E-05-1.25869E-18-3.88259E-18
 -1      2589 7.83918E-05-4.46500E-05-1.44370E-05-5.13350E-05-1.07065E-18-2.40811E-18
 -1      2590 1.70344E-05-1.63281E-05 2.12266E-07 4.68830E-08 9.16437E-19-4.63581E-18
 -1      2591 1.68858E-05-1.58880E-05-4.29668E-09-1.38714E-05 6.62062E-19-5.25245E-18
 -1      2592 1.48472E-04-6.94764E-05-3.41924E-05 1.21430E-05-1.59793E-18 3.94294E-19
 -1      2593 1.56753E-04-2.72430E-05-5.59112E-05-9.96586E-07 2.09958E-18-7.33531E-19
 -1      2594 1.53202E-04-3.56245E-05-5.07179E-05 1.81704E-06 1.93568E-18-1.15493E-18
 -1      2595 7.31127E-05-4.30901E-05-1.26494E-05-3.64083E-05 2.65968E-18 2.05405E-18
 -1      2596 9.69929E-05-5.27115E-05-1.90277E-05-3.71353E-05 2.03796E-18 1.16361E-18
 -1      2597 2.51664E-05-1.99682E-05-1.93014E-06 3.18209E-05-7.47295E-19 2.48350E-18
 -1      2598 1.79512E-05-1.79639E-05 3.55887E-07 1.83501E-05-7.87105E-19 4.12082E-18
 -1      2599 2.39076E-05-1.14389E-05-4.73978E-06 1.25498E-05-9.49947E-19 3.48575E-18
 -1      2600 1.37960E-04-6.62728E-05-3.06493E-05 2.19255E-05-4.18646E-19 4.28281E-19
 -1      2601 9.01106E-05-1.40947E-05-3.25693E-05-5.94545E-06-9.85244E-19-2.29526E-18
 -1      2602 8.92491E-05-1.24814E-05-3.29555E-05-7.10087E-06-1.14217E-18-2.49106E-18
 -1      2603 9.01118E-05-1.33821E-05-3.29419E-05-8.17472E-06-1.41213E-18-2.27465E-18
 -1      2604 2.44295E-05-1.47011E-05-3.67312E-06 8.08772E-06 1.60804E-18-4.27667E-18
 -1      2605 7.76932E-05-4.05396E-05-1.54448E-05 4.83106E-05-1.49840E-18-1.01242E-18
 -1      2606 1.41077E-04-5.68873E-05-3.60841E-05 1.82359E-05 2.76450E-19-2.82231E-18
 -1      2607 1.15889E-04-5.65234E-05-2.50988E-05 3.87212E-05-9.31948E-19-2.17147E-18
 -1      2608 1.59988E-04-7.24851E-05-3.73515E-05-6.70434E-06 1.17272E-18 8.67362E-19
 -1      2609 6.96814E-05-3.51543E-05-1.44194E-05-3.55411E-05 2.13961E-18 1.70190E-18
 -1      2610 4.06856E-05-2.11058E-05-7.79208E-06 3.69318E-05-1.85468E-18 1.73494E-18
 -1      2611 6.62848E-05-3.34619E-05-1.38236E-05 3.59984E-05 1.95485E-18-6.80167E-19
 -1      2612 5.02597E-05-3.12665E-05-7.78930E-06 3.25126E-05 1.44779E-18-1.85543E-18
 -1      2613 4.35358E-05-2.17807E-05-8.76810E-06 2.89942E-05 2.09768E-18-2.62030E-18
 -1      2614 1.19132E-04-5.67644E-05-2.62348E-05 2.89807E-05 7.06425E-19 4.03664E-19
 -1      2615 1.16494E-04-6.16012E-05-2.37304E-05 3.09230E-05-2.94344E-19 1.64271E-19
 -1      2616 3.31743E-05-1.62351E-05-6.67817E-06-1.65629E-05 1.04153E-18 3.58104E-18
 -1      2617 1.15653E-04-5.16799E-05-2.71664E-05-2.92899E-05 1.29183E-18 1.68411E-18
 -1      2618 9.33156E-05-4.16079E-05-2.16113E-05-3.57429E-05 1.07298E-18 2.83269E-18
 -1      2619 9.52357E-05-2.85736E-05-2.85695E-05-1.03511E-08 5.70127E-19 4.64902E-18
 -1      2620 9.52367E-05-2.85747E-05-2.85694E-05-1.09870E-08 7.40595E-19 3.23660E-18
 -1      2621 9.52367E-05-2.85738E-05-2.85698E-05-1.21694E-08 9.76815E-19 1.42895E-18
 -1      2622 1.35248E-04-6.67487E-05-2.94758E-05-1.98050E-05 1.50730E-18 1.20025E-18
 -1      2623 1.48738E-04-4.10993E-05-4.62256E-05-1.47036E-06 1.33789E-18-2.10276E-18
 -1      2624 9.10694E-05-1.45403E-05-3.28563E-05-8.79473E-06-1.50963E-18-2.08671E-18
 -1      2625 9.23093E-05-1.59510E-05-3.28000E-05-9.79229E-06-1.73181E-18-1.86302E-18
 -1      2626 9.37796E-05-1.87378E-05-3.21495E-05-8.05324E-06-1.71790E-18-1.68254E-18
 -1      2627 9.17896E-05-1.61081E-05-3.24215E-05-7.21309E-06-1.42617E-18-2.02378E-18
 -1      2628 5.48021E-05-3.08498E-05-9.69784E-06-4.48554E-05-1.25149E-18-4.17058E-18
 -1      2629 1.29336E-04-5.97093E-05-2.97015E-05-3.06874E-05-7.99599E-19-4.06999E-19
 -1      2630 2.68333E-05-1.55978E-05-4.28875E-06-2.17005E-05 6.79744E-20-5.16351E-18
 -1      2631 1.46610E-04-5.19495E-05-4.06048E-05-7.07553E-06 6.81412E-19 8.87479E-19
 -1      2632 1.47606E-04-7.76351E-06-6.02918E-05-1.09689E-06 2.62580E-18-6.93429E-19
 -1      2633 1.39144E-04-6.85079E-06-5.72730E-05-3.47904E-06 2.65333E-18-8.64821E-19
 -1      2634 1.35818E-04-5.43602E-06-5.63610E-05 1.25006E-06 2.03373E-18 7.37514E-20
 -1      2635 1.48602E-04-2.05406E-05-5.53148E-05-7.24374E-06 2.40091E-18-1.66548E-18
 -1      2636 1.46437E-04-3.01261E-05-5.00587E-05 7.65408E-06 2.03478E-18 1.40480E-18
 -1      2637 9.10844E-05-5.41288E-05-1.59891E-05 3.68329E-05 4.01917E-19-4.41410E-19
 -1      2638 8.75797E-05-4.80171E-05-1.67239E-05 3.79258E-05 1.10580E-18-2.99003E-19
 -1      2639 9.49906E-05-4.98526E-05-1.89859E-05-4.64524E-05-1.76395E-18-1.60253E-18
 -1      2640 4.66268E-05-2.26210E-05-9.61901E-06-3.83824E-05-1.16562E-18-4.28408E-18
 -1      2641 6.52832E-05-3.19143E-05-1.40022E-05-4.44186E-05-1.93494E-18-2.88457E-18
 -1      2642 8.99328E-05-1.45877E-05-3.23085E-05 2.33282E-06 9.44541E-19-1.97902E-18
 -1      2643 8.95791E-05-1.41929E-05-3.23309E-05 1.45504E-06 7.36425E-19-2.07062E-18
 -1      2644 8.92696E-05-1.38141E-05-3.23533E-05 7.03855E-07 6.07451E-19-2.14885E-18
 -1      2645 8.90653E-05-1.36060E-05-3.23624E-05-1.43719E-07 4.19480E-19-2.16507E-18
 -1      2646 9.04683E-05-1.57276E-05-3.20201E-05 7.53246E-07 6.67063E-19-1.96431E-18
 -1      2647 9.21743E-05-1.74662E-05-3.20538E-05 5.60753E-06 1.47879E-18-1.43254E-18
 -1      2648 9.15012E-05-1.65752E-05-3.21339E-05 4.75330E-06 1.36202E-18-1.67921E-18
 -1      2649 9.37916E-05-1.97964E-05-3.17639E-05 6.83338E-06 1.71689E-18-7.00059E-19
 -1      2650 9.29346E-05-1.85197E-05-3.19100E-05 6.19443E-06 1.55574E-18-1.03920E-18
 -1      2651 9.35546E-05-1.98351E-05-3.15712E-05 4.84432E-06 1.46778E-18-1.07614E-18
 -1      2652 9.56492E-05-2.28516E-05-3.12313E-05 7.10448E-06 1.82213E-18 6.29766E-20
 -1      2653 9.46452E-05-2.10960E-05-3.15185E-05 7.07887E-06 1.76338E-18-2.92312E-19
 -1      2654 9.49542E-05-2.21607E-05-3.11672E-05 5.49533E-06 1.63594E-18-3.85763E-19
 -1      2655 9.64931E-05-2.50694E-05-3.06116E-05 6.02816E-06 1.77383E-18 7.86004E-19
 -1      2656 9.59986E-05-2.37286E-05-3.09515E-05 6.72483E-06 1.75905E-18 4.20903E-19
 -1      2657 9.58532E-05-2.43686E-05-3.06249E-05 5.11591E-06 1.62463E-18 2.14117E-19
 -1      2658 9.60640E-05-2.59466E-05-3.00300E-05 4.07498E-06 1.64815E-18 6.86196E-19
 -1      2659 9.24063E-05-4.63041E-05-1.97620E-05 3.75968E-05 1.17738E-18-8.17387E-20
 -1      2660 9.53154E-05-2.46693E-05-3.02570E-05-6.98023E-07-1.21680E-18-9.76490E-19
 -1      2661 9.51426E-05-2.50526E-05-3.00415E-05 7.23396E-07-9.92917E-19-1.09201E-18
 -1      2662 9.48665E-05-2.52202E-05-2.98393E-05 1.89972E-06-8.29236E-19-1.02197E-18
 -1      2663 9.46578E-05-2.52469E-05-2.97434E-05 3.09396E-06-6.91533E-19-9.67983E-19
 -1      2664 9.45004E-05-2.41914E-05-3.01271E-05 9.50449E-07-9.02682E-19-1.00237E-18
 -1      2665 9.41170E-05-2.50284E-05-2.96149E-05 4.12274E-06-4.22779E-19-6.89834E-19
 -1      2666 9.38459E-05-2.47634E-05-2.95985E-05 5.25485E-06-2.90193E-19-6.61861E-19
 -1      2667 9.37185E-05-2.42274E-05-2.97691E-05 3.18777E-06-5.45307E-19-8.02825E-19
 -1      2668 9.29659E-05-2.41809E-05-2.95014E-05 6.23532E-06-2.83828E-19-5.66416E-19
 -1      2669 9.25340E-05-2.36234E-05-2.95239E-05 7.44395E-06 5.87579E-20-7.70785E-19
 -1      2670 9.23587E-05-2.34463E-05-2.95070E-05 5.16949E-06-2.92392E-19-5.12373E-19
 -1      2671 9.11597E-05-2.26542E-05-2.94005E-05 8.46483E-06-6.69189E-22-1.05583E-18
 -1      2672 9.04171E-05-2.17949E-05-2.94028E-05 9.85604E-06-1.51394E-19-1.51513E-18
 -1      2673 9.01947E-05-2.18580E-05-2.92387E-05 7.05484E-06-2.40407E-19-7.27773E-19
 -1      2674 8.84408E-05-2.05158E-05-2.91770E-05 1.09357E-05 1.21357E-19-1.64989E-18
 -1      2675 8.73367E-05-1.94731E-05-2.90813E-05 1.24828E-05 1.50636E-19-1.64427E-18
 -1      2676 8.69677E-05-1.95125E-05-2.88256E-05 8.90550E-06-7.02516E-20-1.33495E-18
 -1      2677 8.43354E-05-1.78417E-05-2.85863E-05 1.38108E-05 6.77957E-21-1.84529E-18
 -1      2678 8.26564E-05-1.67729E-05-2.82166E-05 1.57330E-05 1.63213E-19-1.86771E-18
 -1      2679 8.21743E-05-1.64772E-05-2.80278E-05 1.08838E-05-1.18610E-19-1.81208E-18
 -1      2680 7.84284E-05-1.52176E-05-2.71888E-05 1.74381E-05 5.52821E-19-1.68728E-18
 -1      2681 7.64618E-05-1.49405E-05-2.62801E-05 1.97581E-05 8.60222E-19-1.57486E-18
 -1      2682 7.51377E-05-1.30621E-05-2.63908E-05 1.31952E-05 5.11846E-19-1.91590E-18
 -1      2683 7.08027E-05-1.43268E-05-2.42518E-05 2.21841E-05 1.10199E-18-1.61460E-18
 -1      2684 6.93659E-05-1.67408E-05-2.23854E-05 2.54680E-05 1.61354E-18-1.60455E-18
 -1      2685 6.56023E-05-1.06151E-05-2.31820E-05 1.62691E-05 1.00439E-18-1.88621E-18
 -1      2686 9.64513E-05-3.00177E-05-2.84860E-05 3.96257E-08 1.03790E-20 5.51284E-20
 -1      2687 9.63645E-05-2.97466E-05-2.85367E-05-3.18880E-07-1.23870E-20-6.69422E-20
 -1      2688 8.94975E-05-1.41571E-05-3.23113E-05-3.54027E-06-3.94258E-19-2.29150E-18
 -1      2689 8.99542E-05-1.46940E-05-3.22830E-05-4.25528E-06-6.06872E-19-2.18322E-18
 -1      2690 9.53349E-05-2.31777E-05-3.09094E-05-3.78021E-06-1.44352E-18-1.25079E-18
 -1      2691 9.52812E-05-2.40210E-05-3.05526E-05-2.05585E-06-1.32626E-18-1.14684E-18
 -1      2692 9.47310E-05-2.32174E-05-3.06432E-05-1.64284E-06-1.19696E-18-1.12396E-18
 -1      2693 3.28797E-05-8.62083E-06-9.68056E-06-9.25298E-06 1.10472E-18 3.28818E-18
 -1      2694 4.56046E-05-1.60561E-05-1.22002E-05-2.45969E-05 1.89322E-18 2.62559E-18
 -1      2695 8.14568E-05-3.96758E-05-1.71932E-05 3.71297E-05 1.57802E-18-4.53798E-19
 -1      2696 9.52381E-05-2.85731E-05-2.85707E-05-1.25914E-08 2.87392E-19-2.72308E-18
 -1      2697 9.52362E-05-2.85721E-05-2.85703E-05-1.23188E-08 2.56440E-19 1.60159E-18
 -1      2698 9.52354E-05-2.85707E-05-2.85706E-05-1.25598E-08-8.73919E-19 1.10366E-18
 -1      2699 7.87378E-05-1.85911E-05-2.56070E-05-2.48921E-05 5.62192E-19 3.30928E-18
 -1      2700 7.91749E-05-1.65107E-05-2.67945E-05-2.20580E-05 5.81925E-19 2.83481E-18
 -1      2701 8.32963E-05-1.73251E-05-2.81957E-05-1.93255E-05-5.12852E-23 2.89476E-18
 -1      2702 8.45134E-05-1.76512E-05-2.87230E-05-1.69516E-05-3.76797E-20 2.38988E-18
 -1      2703 7.40168E-05-1.34389E-05-2.56857E-05-1.81257E-05 4.28930E-19 3.28536E-18
 -1      2704 8.77126E-05-1.90870E-05-2.93744E-05-1.48966E-05-3.83117E-20 1.19848E-18
 -1      2705 8.87455E-05-2.00351E-05-2.95106E-05-1.28712E-05 2.29562E-19 8.75330E-19
 -1      2706 8.10499E-05-1.56225E-05-2.78913E-05-1.39960E-05-7.79499E-19 2.47591E-18
 -1      2707 9.09182E-05-2.14250E-05-2.97578E-05-1.13666E-05 4.65951E-19-9.35113E-20
 -1      2708 9.15472E-05-2.23193E-05-2.97171E-05-9.78135E-06-3.65911E-19-1.55183E-19
 -1      2709 8.62476E-05-1.86230E-05-2.88870E-05-1.09269E-05-4.06367E-19 4.88637E-19
 -1      2710 9.30553E-05-2.35106E-05-2.97818E-05-8.52156E-06-1.47354E-18-2.82163E-19
 -1      2711 9.34110E-05-2.42681E-05-2.96675E-05-7.22123E-06-8.64328E-19-1.50383E-19
 -1      2712 8.98102E-05-2.13625E-05-2.92718E-05-8.43352E-06-9.35074E-19-1.12624E-18
 -1      2713 9.43548E-05-2.51469E-05-2.96403E-05-6.24841E-06-2.73582E-19 2.47836E-19
 -1      2714 9.44956E-05-2.56908E-05-2.95115E-05-5.26886E-06 4.42418E-20 4.82342E-19
 -1      2715 9.21674E-05-2.35765E-05-2.93565E-05-6.37336E-06-6.50939E-19-2.14021E-19
 -1      2716 9.50568E-05-2.63004E-05-2.94498E-05-4.53011E-06-3.88796E-19-3.24037E-19
 -1      2717 9.50757E-05-2.66718E-05-2.93320E-05-3.80973E-06-7.04791E-20-5.27339E-19
 -1      2718 9.36055E-05-2.51866E-05-2.92984E-05-4.74971E-06-4.33558E-19-8.12909E-19
 -1      2719 9.53948E-05-2.70805E-05-2.92636E-05-3.25832E-06 5.98058E-19-1.12976E-18
 -1      2720 9.53548E-05-2.73263E-05-2.91653E-05-2.73701E-06 1.11787E-19-1.16496E-18
 -1      2721 9.44443E-05-2.63059E-05-2.91884E-05-3.49927E-06-1.06252E-19-1.94149E-18
 -1      2722 9.55220E-05-2.75837E-05-2.91055E-05-2.35007E-06-1.13087E-18-1.35542E-18
 -1      2723 9.54610E-05-2.77386E-05-2.90307E-05-1.98976E-06-1.68881E-18-1.33701E-18
 -1      2724 9.49023E-05-2.70491E-05-2.90729E-05-2.57385E-06-8.64228E-19-2.52581E-18
 -1      2725 9.55490E-05-2.79178E-05-2.89767E-05-1.68665E-06-1.95169E-18-1.30812E-18
 -1      2726 9.54823E-05-2.80236E-05-2.89156E-05-1.41519E-06-1.14225E-18-1.91116E-18
 -1      2727 9.51451E-05-2.75463E-05-2.89669E-05-1.88183E-06-1.47886E-18-1.58033E-18
 -1      2728 9.55218E-05-2.81397E-05-2.88720E-05-1.19511E-06-1.48415E-18-2.34291E-18
 -1      2729 9.54609E-05-2.82080E-05-2.88257E-05-1.00152E-06-2.00455E-18-2.70566E-18
 -1      2730 9.52654E-05-2.78866E-05-2.88747E-05-1.35485E-06-1.49354E-18-2.84623E-18
 -1      2731 9.54739E-05-2.82833E-05-2.87915E-05-8.41844E-07-7.16212E-19-1.93334E-18
 -1      2732 9.54226E-05-2.83277E-05-2.87570E-05-7.03921E-07 3.64181E-19-4.53776E-19
 -1      2733 9.53134E-05-2.81113E-05-2.88001E-05-9.68464E-07-1.26150E-18-1.58470E-18
 -1      2734 9.54224E-05-2.83768E-05-2.87306E-05-5.88313E-07 1.08452E-18-9.10396E-19
 -1      2735 9.53814E-05-2.84059E-05-2.87051E-05-4.90046E-07 1.51876E-18-1.80559E-19
 -1      2736 9.53237E-05-2.82599E-05-2.87415E-05-6.86305E-07 6.46770E-19-6.65812E-19
 -1      2737 9.53755E-05-2.84382E-05-2.86851E-05-4.06534E-07 3.52970E-19-1.27548E-18
 -1      2738 9.53439E-05-2.84575E-05-2.86664E-05-3.36639E-07-1.13433E-18-2.72543E-18
 -1      2739 9.53164E-05-2.83589E-05-2.86963E-05-4.80954E-07-1.41866E-20-1.56266E-18
 -1      2740 9.53368E-05-2.84780E-05-2.86521E-05-2.79323E-07-1.23596E-18-1.63074E-18
 -1      2741 9.53141E-05-2.84908E-05-2.86391E-05-2.31491E-07-7.33725E-19-1.70281E-18
 -1      2742 9.53028E-05-2.84244E-05-2.86626E-05-3.34869E-07-9.40641E-19-2.49707E-18
 -1      2743 9.53065E-05-2.85056E-05-2.86277E-05-1.87547E-07 8.91399E-19-2.49466E-19
 -1      2744 9.52891E-05-2.85149E-05-2.86179E-05-1.51789E-07 2.28626E-18 4.66604E-19
 -1      2745 9.52880E-05-2.84687E-05-2.86371E-05-2.29098E-07 8.37632E-19-6.33539E-19
 -1      2746 9.52827E-05-2.85249E-05-2.86096E-05-1.20593E-07 1.99042E-18 8.21180E-19
 -1      2747 9.52704E-05-2.85317E-05-2.86026E-05-9.54490E-08 1.71333E-18 1.05708E-18
 -1      2748 9.52742E-05-2.85004E-05-2.86176E-05-1.50654E-07 1.82258E-18 3.48529E-19
 -1      2749 9.52653E-05-2.85385E-05-2.85966E-05-7.34646E-08 1.55045E-18 6.98862E-19
 -1      2750 9.52570E-05-2.85434E-05-2.85917E-05-5.59880E-08 1.37391E-18 8.83071E-19
 -1      2751 9.52628E-05-2.85224E-05-2.86033E-05-9.48370E-08 1.60969E-18 1.84706E-18
 -1      2752 9.52532E-05-2.85482E-05-2.85874E-05-4.07070E-08 3.29066E-19 2.83880E-19
 -1      2753 9.52478E-05-2.85519E-05-2.85841E-05-2.87517E-08-3.81433E-19 1.99514E-19
 -1      2754 9.52540E-05-2.85378E-05-2.85929E-05-5.55725E-08 2.33024E-19-1.35200E-19
 -1      2755 9.52451E-05-2.85553E-05-2.85810E-05-1.83344E-08-1.34813E-19 2.61081E-19
 -1      2756 9.52418E-05-2.85580E-05-2.85788E-05-1.03688E-08 9.55234E-20 1.81969E-18
 -1      2757 9.52476E-05-2.85487E-05-2.85854E-05-2.83942E-08-2.91670E-19-7.35292E-19
 -1      2758 9.52401E-05-2.85603E-05-2.85768E-05-3.78344E-09-2.29244E-20-1.85766E-19
 -1      2759 9.52384E-05-2.85624E-05-2.85755E-05 1.15135E-09-1.20983E-18-9.35672E-19
 -1      2760 9.52433E-05-2.85564E-05-2.85802E-05-1.03402E-08-8.62307E-19-6.42410E-19
 -1      2761 9.52372E-05-2.85642E-05-2.85740E-05 5.60187E-09-8.68131E-19-1.12997E-18
 -1      2762 9.52365E-05-2.85660E-05-2.85731E-05 8.71718E-09 1.20874E-18-1.85200E-19
 -1      2763 9.52404E-05-2.85619E-05-2.85766E-05 1.47594E-09-1.76427E-18-2.35491E-18
 -1      2764 9.52358E-05-2.85674E-05-2.85721E-05 1.12386E-08 1.71869E-18-9.44454E-19
 -1      2765 9.52358E-05-2.85690E-05-2.85715E-05 1.27845E-08 1.12858E-18-3.13011E-19
 -1      2766 9.52387E-05-2.85663E-05-2.85740E-05 8.95655E-09 7.92267E-19-1.68183E-18
 -1      2767 9.52356E-05-2.85702E-05-2.85708E-05 1.38464E-08-1.05264E-18 3.20440E-19
 -1      2768 9.52361E-05-2.85716E-05-2.85705E-05 1.41339E-08-1.81174E-18 1.06238E-18
 -1      2769 9.52379E-05-2.85698E-05-2.85721E-05 1.29070E-08 2.24677E-19-1.85992E-18
 -1      2770 9.52365E-05-2.85726E-05-2.85702E-05 1.42136E-08-2.26706E-18 2.27412E-19
 -1      2771 9.52376E-05-2.85741E-05-2.85701E-05 1.36805E-08-2.66806E-18-3.72914E-19
 -1      2772 9.52392E-05-2.85751E-05-2.85703E-05 1.35901E-08-3.17860E-18-6.32613E-19
 -1      2773 9.52383E-05-2.85725E-05-2.85710E-05 1.40097E-08-2.24010E-18 1.59782E-19
 -1      2774 9.67553E-05-3.05310E-05-2.83988E-05 1.08163E-06 1.86236E-19-1.48719E-19
 -1      2775 9.67198E-05-3.03281E-05-2.84430E-05 5.19317E-07 1.95883E-19-1.64485E-21
 -1      2776 9.74932E-05-3.07332E-05-2.86174E-05 1.73968E-07 9.95699E-20-4.01504E-20
 -1      2777 9.61313E-05-2.94074E-05-2.86073E-05-5.44750E-07 1.58406E-19-9.00903E-21
 -1      2778 9.60526E-05-2.91025E-05-2.86753E-05-6.61603E-07 3.42807E-19 1.61716E-19
 -1      2779 9.69688E-05-2.99425E-05-2.87348E-05-5.12889E-07 1.80460E-19 2.54308E-20
 -1      2780 9.69189E-05-3.08359E-05-2.83383E-05 2.48482E-06 6.13081E-19-9.38816E-20
 -1      2781 9.69994E-05-3.07640E-05-2.83803E-05 1.77900E-06 3.42773E-19-1.48310E-19
 -1      2782 9.80279E-05-3.13886E-05-2.85611E-05 1.35825E-06 2.62744E-19-5.55415E-19
 -1      2783 9.67918E-05-3.07695E-05-2.83078E-05 4.06966E-06 4.72308E-19 1.19870E-19
 -1      2784 9.70502E-05-3.09092E-05-2.83463E-05 3.32487E-06 6.28692E-19-3.43264E-20
 -1      2785 9.84236E-05-3.17557E-05-2.85672E-05 2.93278E-06 5.62383E-19-3.04497E-19
 -1      2786 9.62316E-05-3.01655E-05-2.83165E-05 5.53595E-06-3.63852E-20 1.63976E-19
 -1      2787 9.67068E-05-3.05857E-05-2.83465E-05 4.91199E-06 3.32415E-19 2.27518E-19
 -1      2788 9.84841E-05-3.16212E-05-2.86439E-05 4.68419E-06 2.96011E-19 2.32273E-19
 -1      2789 9.51724E-05-2.89447E-05-2.83709E-05 6.46719E-06-3.32680E-19 2.89404E-19
 -1      2790 9.58497E-05-2.96553E-05-2.83872E-05 6.16505E-06-2.19892E-19 1.56614E-19
 -1      2791 9.80171E-05-3.07848E-05-2.87973E-05 6.24906E-06-7.25497E-20 1.22813E-19
 -1      2792 9.37135E-05-2.72283E-05-2.84664E-05 6.41705E-06-1.26141E-20 1.82682E-19
 -1      2793 9.44973E-05-2.81303E-05-2.84673E-05 6.62501E-06-2.56153E-19 2.36196E-19
 -1      2794 9.69369E-05-2.91885E-05-2.90198E-05 7.12737E-06-2.89227E-19 5.09516E-19
 -1      2795 9.21705E-05-2.54003E-05-2.85807E-05 5.08567E-06 5.26196E-19 3.81004E-19
 -1      2796 9.28846E-05-2.62727E-05-2.85705E-05 5.89354E-06 2.69773E-19 1.92391E-19
 -1      2797 9.53850E-05-2.70530E-05-2.92802E-05 6.80659E-06 2.52495E-19 5.16163E-19
 -1      2798 9.10199E-05-2.40305E-05-2.86786E-05 2.53594E-06 1.36726E-18 2.59038E-19
 -1      2799 9.14601E-05-2.45969E-05-2.86653E-05 3.84996E-06 8.98659E-19 4.88833E-19
 -1      2800 9.37875E-05-2.49334E-05-2.95211E-05 4.99766E-06 6.38323E-19 1.17868E-19
 -1      2801 9.06887E-05-2.36161E-05-2.87294E-05-7.27455E-07 8.58194E-19 8.63586E-19
 -1      2802 9.07082E-05-2.36724E-05-2.87190E-05 8.15094E-07 1.29115E-18 6.64973E-19
 -1      2803 9.27221E-05-2.35319E-05-2.96773E-05 1.89339E-06 9.34995E-19 6.93975E-19
 -1      2804 9.13335E-05-2.43246E-05-2.87213E-05-3.90307E-06 1.46024E-19 9.71264E-19
 -1      2805 9.09157E-05-2.38486E-05-2.87144E-05-2.50341E-06 7.19751E-19 1.10737E-18
 -1      2806 9.26321E-05-2.33771E-05-2.97045E-05-1.80238E-06 7.13101E-19 1.14257E-18
 -1      2807 9.27322E-05-2.58802E-05-2.86688E-05-6.22928E-06-1.24890E-19 3.99152E-19
 -1      2808 9.20021E-05-2.50481E-05-2.86592E-05-5.28057E-06-2.56489E-19 4.26315E-19
 -1      2809 9.35645E-05-2.45294E-05-2.95991E-05-5.11943E-06 2.60721E-19 7.91125E-19
 -1      2810 9.44191E-05-2.77325E-05-2.86021E-05-7.30104E-06 4.00054E-19 7.06772E-20
 -1      2811 9.35752E-05-2.68157E-05-2.85821E-05-6.93436E-06 3.70557E-19 1.21121E-19
 -1      2812 9.51329E-05-2.65277E-05-2.93989E-05-7.27154E-06 3.52873E-19 2.94405E-19
 -1      2813 9.59283E-05-2.93467E-05-2.85527E-05-7.15627E-06 9.61060E-21-3.42658E-20
 -1      2814 9.51554E-05-2.85803E-05-2.85174E-05-7.31652E-06 3.54561E-19 1.14150E-19
 -1      2815 9.67634E-05-2.86760E-05-2.91655E-05-7.96428E-06 4.27162E-19 1.71102E-19
 -1      2816 9.69784E-05-3.04122E-05-2.85378E-05-6.14423E-06 5.27608E-19-9.66229E-19
 -1      2817 9.63890E-05-2.99169E-05-2.84887E-05-6.66100E-06 3.84192E-19-8.00274E-19
 -1      2818 9.79897E-05-3.03843E-05-2.89561E-05-7.39883E-06 7.55246E-19-3.83074E-20
 -1      2819 9.75105E-05-3.08794E-05-2.85574E-05-4.70834E-06 1.93673E-19-1.19280E-18
 -1      2820 9.71356E-05-3.06607E-05-2.85012E-05-5.38686E-06 4.50813E-19-1.18012E-18
 -1      2821 9.86139E-05-3.13718E-05-2.88042E-05-6.04949E-06 5.64859E-19-1.33370E-18
 -1      2822 9.76163E-05-3.08721E-05-2.86003E-05-3.22154E-06-1.05138E-18-1.41295E-18
 -1      2823 9.74303E-05-3.08657E-05-2.85451E-05-3.90451E-06-6.45891E-19-8.89963E-19
 -1      2824 9.86827E-05-3.16594E-05-2.87165E-05-4.40947E-06-1.10599E-19-9.43363E-19
 -1      2825 9.74441E-05-3.05743E-05-2.86513E-05-1.91976E-06-1.38436E-19-1.35284E-18
 -1      2826 9.73965E-05-3.06957E-05-2.86042E-05-2.50987E-06-6.88831E-19-1.62351E-18
 -1      2827 9.83688E-05-3.14398E-05-2.86815E-05-2.84184E-06-1.07422E-18-1.56663E-18
 -1      2828 9.71317E-05-3.01528E-05-2.86976E-05-9.08130E-07-1.80971E-19-4.57246E-19
 -1      2829 9.71711E-05-3.03286E-05-2.86626E-05-1.36338E-06-6.14843E-21-5.91766E-19
 -1      2830 9.78624E-05-3.09446E-05-2.86802E-05-1.54526E-06-6.70182E-19-1.53253E-18
 -1      2831 9.67787E-05-2.97235E-05-2.87312E-05-1.99271E-07 3.34190E-19-2.16250E-19
 -1      2832 9.68638E-05-2.99037E-05-2.87095E-05-5.16502E-07 3.36473E-19-2.18082E-19
 -1      2833 9.73107E-05-3.03637E-05-2.86944E-05-5.85148E-07 4.93423E-20-1.75141E-20
 -1      2834 9.64440E-05-2.93501E-05-2.87492E-05 2.45596E-07-6.58408E-19 4.70493E-19
 -1      2835 9.65464E-05-2.95076E-05-2.87396E-05 4.78550E-08 7.32601E-20 4.42958E-19
 -1      2836 9.68029E-05-2.98188E-05-2.87108E-05 5.58877E-08-1.67445E-19 8.50022E-19
 -1      2837 9.61551E-05-2.90572E-05-2.87524E-05 4.85444E-07-1.07769E-18-3.81915E-19
 -1      2838 9.62577E-05-2.91816E-05-2.87524E-05 3.80168E-07-1.20236E-18 4.78915E-20
 -1      2839 9.63794E-05-2.93693E-05-2.87217E-05 4.34698E-07-5.42667E-19 1.59675E-18
 -1      2840 9.59199E-05-2.88450E-05-2.87438E-05 5.80272E-07-3.21020E-19 8.45420E-20
 -1      2841 9.60136E-05-2.89359E-05-2.87506E-05 5.40176E-07-4.06588E-19-2.45032E-19
 -1      2842 9.60486E-05-2.90316E-05-2.87242E-05 6.18761E-07-8.71630E-19 5.83848E-19
 -1      2843 9.57356E-05-2.87018E-05-2.87272E-05 5.81572E-07 6.43984E-19 8.45935E-19
 -1      2844 9.58164E-05-2.87639E-05-2.87381E-05 5.83289E-07 3.52290E-19 5.84959E-19
 -1      2845 9.58020E-05-2.87969E-05-2.87185E-05 6.70457E-07-5.63820E-20 6.86865E-19
 -1      2846 9.55950E-05-2.86118E-05-2.87062E-05 5.29055E-07-9.97033E-19 8.37188E-19
 -1      2847 9.56620E-05-2.86516E-05-2.87189E-05 5.54591E-07 7.98063E-20 1.10179E-18
 -1      2848 9.56240E-05-2.86461E-05-2.87064E-05 6.40421E-07 2.45810E-19 1.11547E-18
 -1      2849 9.54897E-05-2.85601E-05-2.86836E-05 4.50884E-07-6.48368E-19 3.34503E-19
 -1      2850 9.55436E-05-2.85837E-05-2.86966E-05 4.87515E-07-8.40320E-19 8.46109E-19
 -1      2851 9.54987E-05-2.85575E-05-2.86902E-05 5.66196E-07-3.97443E-19 7.66114E-21
 -1      2852 9.54121E-05-2.85341E-05-2.86618E-05 3.65506E-07 2.21468E-19 5.25726E-19
 -1      2853 9.54543E-05-2.85467E-05-2.86738E-05 4.04940E-07-3.07247E-19 6.33503E-19
 -1      2854 9.54119E-05-2.85120E-05-2.86723E-05 4.73554E-07-2.78080E-19-3.02109E-19
 -1      2855 9.53555E-05-2.85243E-05-2.86419E-05 2.83942E-07-1.71685E-19 6.68622E-19
 -1      2856 9.53878E-05-2.85298E-05-2.86525E-05 3.21271E-07-7.25733E-20 3.62346E-19
 -1      2857 9.53525E-05-2.84941E-05-2.86543E-05 3.78837E-07-1.17731E-19-1.53367E-19
 -1      2858 9.53148E-05-2.85240E-05-2.86247E-05 2.11950E-07 9.31830E-19-4.58514E-19
 -1      2859 9.53390E-05-2.85251E-05-2.86336E-05 2.44657E-07 2.82362E-19 6.27812E-19
 -1      2860 9.53122E-05-2.84926E-05-2.86375E-05 2.91415E-07 6.16753E-19-1.52642E-18
 -1      2861 9.52860E-05-2.85285E-05-2.86104E-05 1.51808E-07 5.99018E-19-7.58802E-19
 -1      2862 9.53036E-05-2.85273E-05-2.86176E-05 1.78947E-07 1.15386E-18-1.09098E-19
 -1      2863 9.52849E-05-2.84999E-05-2.86226E-05 2.15841E-07 8.94066E-19-1.36346E-18
 -1      2864 9.52660E-05-2.85351E-05-2.85990E-05 1.03663E-07-3.00274E-19-1.13130E-19
 -1      2865 9.52785E-05-2.85328E-05-2.86046E-05 1.25242E-07 4.82782E-20 3.24446E-19
 -1      2866 9.52667E-05-2.85109E-05-2.86099E-05 1.53563E-07 1.97082E-19-1.58388E-19
 -1      2867 9.52525E-05-2.85422E-05-2.85902E-05 6.64921E-08 9.39282E-21 2.79697E-19
 -1      2868 9.52610E-05-2.85395E-05-2.85944E-05 8.30331E-08-2.70381E-19 3.26855E-19
 -1      2869 9.52546E-05-2.85228E-05-2.85996E-05 1.04177E-07-5.46464E-19 3.19430E-19
 -1      2870 9.52437E-05-2.85488E-05-2.85836E-05 3.87356E-08-9.60163E-19 1.55697E-18
 -1      2871 9.52492E-05-2.85461E-05-2.85866E-05 5.09865E-08-4.58234E-19 8.31736E-19
 -1      2872 9.52466E-05-2.85339E-05-2.85913E-05 6.63089E-08-9.17739E-19 1.65595E-18
 -1      2873 9.52383E-05-2.85545E-05-2.85788E-05 1.87040E-08 1.24555E-18 1.00252E-19
 -1      2874 9.52416E-05-2.85521E-05-2.85809E-05 2.74565E-08 2.75092E-19 1.12536E-18
 -1      2875 9.52416E-05-2.85436E-05-2.85850E-05 3.81840E-08-2.36940E-19 1.45100E-18
 -1      2876 9.52353E-05-2.85594E-05-2.85754E-05 4.81278E-09 2.57624E-18-1.08728E-18
 -1      2877 9.52370E-05-2.85572E-05-2.85768E-05 1.07965E-08 2.04679E-18-8.02580E-19
 -1      2878 9.52385E-05-2.85515E-05-2.85802E-05 1.79862E-08 2.27323E-18-3.98383E-19
 -1      2879 9.52341E-05-2.85634E-05-2.85732E-05-4.28641E-09 9.00357E-19-2.02025E-19
 -1      2880 9.52347E-05-2.85615E-05-2.85740E-05-4.62023E-10 1.42729E-18-9.83557E-19
 -1      2881 9.52368E-05-2.85579E-05-2.85767E-05 4.06165E-09 1.79273E-18-8.57236E-19
 -1      2882 9.52340E-05-2.85667E-05-2.85717E-05-9.62531E-09 1.85705E-19 2.18530E-18
 -1      2883 9.52338E-05-2.85652E-05-2.85722E-05-7.54045E-09 3.38731E-19 1.16189E-18
 -1      2884 9.52361E-05-2.85630E-05-2.85742E-05-4.98075E-09-1.45370E-19-1.28919E-18
 -1      2885 9.52350E-05-2.85693E-05-2.85710E-05-1.18504E-08-2.69154E-19 2.11153E-18
 -1      2886 9.52344E-05-2.85679E-05-2.85713E-05-1.10280E-08 4.92598E-19 2.54458E-18
 -1      2887 9.52365E-05-2.85668E-05-2.85728E-05-9.81248E-09-4.99608E-20 2.65091E-20
 -1      2888 9.52375E-05-2.85698E-05-2.85719E-05-1.19608E-08-1.13201E-19-4.58443E-19
 -1      2889 9.52429E-05-2.85745E-05-2.85721E-05-1.77549E-09-2.28595E-18-1.07319E-18
 -1      2890 9.52427E-05-2.85744E-05-2.85721E-05-3.27807E-09-1.96327E-18 5.61974E-19
 -1      2891 1.19750E-04-6.05195E-05-2.51435E-05-2.90729E-05 1.77517E-18 2.00858E-18
 -1      2892 1.44454E-04-6.51536E-05-3.42222E-05-1.37750E-05 1.61042E-18 9.67418E-19
 -1      2893 9.52421E-05-2.85744E-05-2.85719E-05-7.37039E-09 6.03426E-19 1.69029E-18
 -1      2894 9.52416E-05-2.85741E-05-2.85718E-05-8.59657E-09 8.74603E-19 2.38269E-19
 -1      2895 9.52432E-05-2.85749E-05-2.85721E-05 1.33569E-09-1.70750E-18 1.00396E-18
 -1      2896 9.52431E-05-2.85748E-05-2.85722E-05-2.67156E-10-1.27096E-18-7.41751E-19
 -1      2897 9.52428E-05-2.85706E-05-2.85737E-05-1.18443E-09-1.24350E-18-2.14105E-19
 -1      2898 9.52425E-05-2.85744E-05-2.85721E-05-4.67801E-09-1.67006E-18 4.37926E-19
 -1      2899 9.52422E-05-2.85742E-05-2.85720E-05-6.06410E-09-1.11783E-18 1.91863E-18
 -1      2900 9.52419E-05-2.85707E-05-2.85733E-05-6.62716E-09 8.67919E-19 2.99725E-19
 -1      2901 9.52423E-05-2.85704E-05-2.85736E-05-4.00228E-09-1.56455E-18 1.38933E-19
 -1      2902 9.52434E-05-2.85753E-05-2.85720E-05 4.57585E-09-1.03568E-18 8.49552E-20
 -1      2903 9.52434E-05-2.85753E-05-2.85721E-05 2.94343E-09-1.68447E-18 1.11041E-18
 -1      2904 9.52432E-05-2.85713E-05-2.85737E-05 1.85346E-09-1.30421E-18 7.08053E-19
 -1      2905 9.52431E-05-2.85757E-05-2.85718E-05 7.90787E-09-4.06262E-19-2.14476E-18
 -1      2906 9.52434E-05-2.85758E-05-2.85718E-05 6.29736E-09-5.92162E-19-3.09563E-19
 -1      2907 9.52434E-05-2.85722E-05-2.85734E-05 5.13764E-09-2.10973E-18-9.75614E-20
 -1      2908 9.52421E-05-2.85756E-05-2.85713E-05 1.09512E-08-1.81325E-18-2.21648E-18
 -1      2909 9.52428E-05-2.85760E-05-2.85715E-05 9.59116E-09-1.06338E-18-2.47493E-18
 -1      2910 9.52431E-05-2.85730E-05-2.85729E-05 8.53690E-09-1.46843E-18-2.75459E-18
 -1      2911 1.24378E-04-5.83929E-05-2.85904E-05 3.07032E-05-1.48300E-18-2.99670E-18
 -1      2912 1.09795E-04-5.27584E-05-2.39100E-05 3.79055E-05-1.72869E-18-2.46529E-18
 -1      2913 3.51977E-05-1.44231E-05-8.01990E-06 1.98034E-05 1.80958E-18-3.38983E-18
 -1      2914 2.99167E-05-8.92036E-06-8.33543E-06 5.58181E-06 1.37553E-18-3.61175E-18
 -1      2915 5.06952E-05-2.23187E-05-1.19929E-05 3.99885E-05-2.03161E-18 4.60998E-19
 -1      2916 3.74974E-05-1.41290E-05-9.27918E-06 2.88980E-05-1.88216E-18 1.89608E-18
 -1      2917 1.33900E-04-1.31138E-05-5.23062E-05 9.77858E-06 2.16989E-18 6.54915E-19
 -1      2918 1.32717E-04-8.80389E-06-5.38895E-05 6.38314E-06 2.19403E-18 3.35425E-19
 -1      2919 5.69458E-05-2.25176E-05-1.38872E-05-3.07077E-05 1.71651E-18 1.97867E-18
 -1      2920 7.63793E-05-3.30518E-05-1.82149E-05-3.47190E-05 1.60968E-18 2.12881E-18
 -1      2921 7.91539E-05-3.02291E-05-2.06262E-05-3.34940E-05 5.70159E-19 2.71516E-18
 -1      2922 5.53502E-05-1.62983E-05-1.62454E-05-2.46386E-05 1.42227E-18 2.44581E-18
 -1      2923 7.68653E-05-2.25149E-05-2.28571E-05-2.98155E-05 7.40069E-19 3.09209E-18
 -1      2924 1.40785E-04-5.48320E-05-3.74263E-05 9.03643E-06-2.54705E-19-3.03338E-18
 -1      2925 1.34021E-04-5.84001E-05-3.22573E-05 1.98903E-05-1.11544E-18-3.21131E-18
 -1      2926 1.28291E-04-5.68188E-05-3.04554E-05 2.03057E-05-1.96083E-18-3.55839E-18
 -1      2927 1.40398E-04-1.37198E-05-5.49106E-05-7.78901E-06 2.50934E-18-1.18288E-18
 -1      2928 1.39807E-04-2.28177E-05-5.05822E-05-9.63781E-06 1.91620E-18-1.64621E-18
 -1      2929 8.83183E-05-4.43613E-05-1.83841E-05-4.50292E-05-1.89884E-18-1.81794E-18
 -1      2930 1.06027E-04-5.34412E-05-2.26786E-05-4.22835E-05-1.47341E-18-1.21337E-18
 -1      2931 2.91769E-05-8.66065E-06-8.12988E-06-1.24151E-05 6.25269E-19-3.95141E-18
 -1      2932 3.47108E-05-1.44279E-05-8.23145E-06-2.80567E-05-2.71792E-19-4.44650E-18
 -1      2933 4.71338E-05-1.65781E-05-1.24623E-05-2.98238E-05-7.44648E-19-3.55034E-18
 -1      2934 1.41466E-04-5.55617E-05-3.66222E-05-8.49818E-06-3.37185E-19 9.96111E-19
 -1      2935 1.42583E-04-4.86627E-05-4.10423E-05 7.16521E-07 6.74159E-19 1.24408E-18
 -1      2936 1.22361E-04-5.83166E-05-2.70295E-05-3.20880E-05-1.16599E-18-3.72642E-19
 -1      2937 1.34613E-04-6.00023E-05-3.24627E-05-2.15518E-05-7.72494E-19 3.30660E-19
 -1      2938 9.08978E-05-1.57797E-05-3.22177E-05 4.01602E-06 1.23501E-18-1.80081E-18
 -1      2939 9.03894E-05-1.51653E-05-3.22617E-05 3.10784E-06 1.11460E-18-1.89375E-18
 -1      2940 9.12482E-05-1.66758E-05-3.19472E-05 2.20968E-06 9.31427E-19-1.82007E-18
 -1      2941 9.22866E-05-1.80262E-05-3.18097E-05 3.63769E-06 1.20378E-18-1.60475E-18
 -1      2942 9.44245E-05-2.03722E-05-3.17608E-05-6.78610E-06-1.61449E-18-1.52622E-18
 -1      2943 9.49494E-05-2.20985E-05-3.12251E-05-4.94204E-06-1.56882E-18-1.35053E-18
 -1      2944 9.43502E-05-2.13946E-05-3.12626E-05-4.21940E-06-1.41084E-18-1.50925E-18
 -1      2945 9.33690E-05-1.88653E-05-3.19393E-05-6.58492E-06-1.51422E-18-1.74325E-18
 -1      2946 8.82929E-05-4.30797E-05-1.96072E-05 4.50826E-05-2.17359E-18-1.77443E-18
 -1      2947 7.04140E-05-3.24763E-05-1.54624E-05 4.38884E-05-2.46762E-18-1.08251E-18
 -1      2948 1.39770E-04-3.48112E-05-4.51026E-05 9.76354E-06 1.44080E-18 1.30062E-18
 -1      2949 1.36666E-04-2.33839E-05-4.93424E-05 1.12297E-05 1.95019E-18 9.40736E-19
 -1      2950 1.42488E-04-3.60793E-05-4.63048E-05-7.29721E-06 9.20831E-19-1.81307E-18
 -1      2951 1.43587E-04-4.52318E-05-4.22372E-05-2.12099E-06 3.46754E-19-2.44009E-18
 -1      2952 3.06181E-05-8.94907E-06-8.71662E-06 1.80723E-05-1.51190E-18 2.72363E-18
 -1      2953 2.85744E-05-7.34416E-06-8.52057E-06 4.63440E-06-3.69938E-19 2.92269E-18
 -1      2954 7.31421E-05-3.22817E-05-1.69025E-05 3.58080E-05 1.88825E-18-8.81338E-19
 -1      2955 8.99929E-05-1.51843E-05-3.20481E-05-6.18254E-07 3.19421E-19-2.00918E-18
 -1      2956 8.89282E-05-1.34424E-05-3.23669E-05-8.33371E-07 2.76496E-19-2.11276E-18
 -1      2957 8.89061E-05-1.34414E-05-3.23656E-05-1.62915E-06 1.25382E-19-2.11678E-18
 -1      2958 6.65691E-05-1.64309E-05-2.12389E-05-2.58132E-05 6.42104E-19 2.60177E-18
 -1      2959 9.65454E-05-2.90843E-05-2.89236E-05-6.43500E-07 5.16731E-19 3.28500E-20
 -1      2960 9.58863E-05-2.87459E-05-2.87833E-05-6.09054E-07 4.95575E-19 5.82957E-20
 -1      2961 9.58677E-05-2.84098E-05-2.88872E-05-4.45587E-07 7.60702E-19 1.56710E-19
 -1      2962 7.14297E-05-2.44419E-05-1.93107E-05 3.25919E-05 1.92605E-18-1.30316E-18
 -1      2963 5.05542E-05-9.54286E-06-1.68144E-05 1.73101E-05 1.68951E-18-2.45618E-18
 -1      2964 6.02454E-05-1.69133E-05-1.82471E-05 2.59230E-05 1.82986E-18-1.92922E-18
 -1      2965 9.11547E-05-1.66612E-05-3.18968E-05-3.80091E-06-6.00826E-19-1.94197E-18
 -1      2966 9.05634E-05-1.54374E-05-3.22218E-05-4.73199E-06-7.40635E-19-2.15544E-18
 -1      2967 9.13056E-05-1.63375E-05-3.21599E-05-5.37864E-06-1.03328E-18-2.02336E-18
 -1      2968 3.93507E-05-7.13156E-06-1.31899E-05-3.86209E-06 6.50362E-19 2.69949E-18
 -1      2969 9.52393E-05-2.85737E-05-2.85710E-05-1.19024E-08 3.67089E-19-1.90569E-18
 -1      2970 8.89783E-05-1.35287E-05-3.23541E-05-2.24404E-06-2.13938E-20-1.99923E-18
 -1      2971 8.91753E-05-1.37695E-05-3.23421E-05-2.99491E-06-2.99602E-19-2.20033E-18
 -1      2972 9.02590E-05-1.55602E-05-3.19940E-05-2.90665E-06-2.62838E-19-2.09581E-18
 -1      2973 8.98955E-05-1.51004E-05-3.20397E-05-1.84386E-06 2.78755E-21-1.93630E-18
 -1      2974 9.57862E-05-2.70564E-05-2.94534E-05 1.23220E-06 1.35748E-18 1.48398E-20
 -1      2975 9.58152E-05-2.66977E-05-2.95927E-05 1.86717E-06 1.33111E-18 2.43352E-19
 -1      2976 4.15278E-05-1.06476E-05-1.25576E-05 2.17972E-05-1.51105E-18 2.00842E-18
 -1      2977 9.52413E-05-2.85712E-05-2.85729E-05-9.02329E-09 1.89459E-18-3.71377E-19
 -1      2978 9.52413E-05-2.85744E-05-2.85715E-05-9.76943E-09 1.06918E-18-2.36885E-19
 -1      2979 9.52406E-05-2.85739E-05-2.85714E-05-1.07388E-08 1.61760E-18-1.68944E-18
 -1      2980 4.73607E-05-1.68534E-05-1.27433E-05 2.49242E-05 2.08412E-18-2.50277E-18
 -1      2981 1.01478E-04-4.66299E-05-2.32094E-05 3.70648E-05-2.40457E-18-2.58668E-18
 -1      2982 1.29828E-04-2.15583E-05-4.69589E-05-1.25459E-05 1.41645E-18-1.72324E-18
 -1      2983 1.37672E-04-2.89284E-05-4.69963E-05-1.09872E-05 1.34456E-18-2.09651E-18
 -1      2984 1.34014E-04-3.35381E-05-4.32563E-05-1.06013E-05 6.38504E-19-2.28974E-18
 -1      2985 9.52403E-05-2.85752E-05-2.85707E-05 1.28440E-08-2.57149E-18-1.77755E-18
 -1      2986 9.52414E-05-2.85759E-05-2.85709E-05 1.20963E-08-1.80507E-18-2.76337E-18
 -1      2987 9.52419E-05-2.85737E-05-2.85721E-05 1.14068E-08-1.36853E-18-2.26703E-18
 -1      2988 9.52400E-05-2.85739E-05-2.85712E-05 1.32532E-08-1.90090E-18-2.33374E-18
 -1      2989 4.04252E-05-6.87202E-06-1.40888E-05 8.20821E-06 1.26158E-18-2.73306E-18
 -1      2990 3.36771E-05-7.29208E-06-1.05461E-05-2.10772E-06 9.98526E-19-3.32227E-18
 -1      2991 4.01899E-05-7.13192E-06-1.37202E-05-7.80916E-06 4.06887E-19-3.16219E-18
 -1      2992 6.50529E-05-2.57403E-05-1.62999E-05 3.84357E-05-2.55735E-18-5.25796E-19
 -1      2993 1.15616E-04-5.49176E-05-2.58315E-05-3.33238E-05-1.15196E-18-7.20011E-19
 -1      2994 1.23134E-04-8.71564E-06-4.93810E-05 5.96103E-06 2.15125E-18-5.79172E-19
 -1      2995 1.29569E-04-7.00734E-06-5.30824E-05 4.02720E-06 2.02991E-18-3.04402E-21
 -1      2996 1.24712E-04-5.61021E-06-5.16828E-05 7.03053E-07 2.04410E-18-4.91279E-20
 -1      2997 1.29209E-04-1.93458E-05-4.74512E-05 1.18035E-05 1.75251E-18 4.51151E-19
 -1      2998 1.36884E-04-4.09689E-05-4.12342E-05 7.25548E-06 8.13734E-19 9.84041E-19
 -1      2999 1.38653E-04-4.98021E-05-3.81144E-05 1.22601E-06-6.20227E-19-2.91136E-18
 -1      3000 6.92301E-05-2.92041E-05-1.68128E-05-3.97781E-05-1.55033E-18-2.53771E-18
 -1      3001 7.90070E-05-3.77501E-05-1.72885E-05-4.43353E-05-1.80016E-18-2.18688E-18
 -1      3002 9.05089E-05-4.14185E-05-2.07520E-05-3.97662E-05-1.64901E-18-1.66963E-18
 -1      3003 1.32117E-04-1.00849E-05-5.28723E-05-7.15933E-06 2.27513E-18-6.63386E-19
 -1      3004 1.35302E-04-5.69736E-05-3.35546E-05-1.25184E-05-5.45648E-19 5.53007E-19
 -1      3005 9.57695E-05-2.80034E-05-2.90502E-05-7.90747E-08 9.43363E-19 1.70371E-19
 -1      3006 9.58511E-05-2.76042E-05-2.92173E-05 4.28160E-07 1.15681E-18 1.95977E-19
 -1      3007 9.62549E-05-2.81325E-05-2.92085E-05-1.59449E-07 8.89983E-19-3.23862E-20
 -1      3008 9.60467E-05-2.69650E-05-2.96206E-05 1.08140E-06 1.21373E-18-9.43606E-20
 -1      3009 9.55709E-05-2.40539E-05-3.06669E-05 4.30266E-06 1.60506E-18-2.24367E-19
 -1      3010 9.50479E-05-2.28608E-05-3.09265E-05 4.26514E-06 1.53535E-18-5.17532E-19
 -1      3011 9.45343E-05-2.19368E-05-3.11425E-05 4.06245E-06 1.44346E-18-7.39215E-19
 -1      3012 9.39273E-05-2.09001E-05-3.13004E-05 3.62480E-06 1.30289E-18-1.09356E-18
 -1      3013 9.53321E-05-2.37068E-05-3.06761E-05 3.05247E-06 1.40772E-18-5.75099E-19
 -1      3014 9.41177E-05-2.32672E-05-3.03573E-05-1.09497E-07-8.91170E-19-8.57955E-19
 -1      3015 9.38211E-05-2.35473E-05-3.01320E-05 1.09456E-06-7.40578E-19-8.37896E-19
 -1      3016 9.59036E-05-2.63080E-05-2.98040E-05 3.14424E-06 1.41783E-18 4.77160E-19
 -1      3017 9.59668E-05-2.57450E-05-3.01002E-05 3.25170E-06 1.50563E-18 9.91558E-20
 -1      3018 9.92831E-05-3.23409E-05-2.87059E-05 1.35041E-06 3.84877E-19-5.38574E-19
 -1      3019 9.90362E-05-3.19929E-05-2.87148E-05 6.65034E-07 2.50950E-19-3.18152E-19
 -1      3020 9.33654E-05-2.36043E-05-2.98995E-05 1.98981E-06-6.17260E-19-7.76901E-19
 -1      3021 9.28223E-05-2.34670E-05-2.97382E-05 2.99491E-06-3.70858E-19-6.44106E-19
 -1      3022 9.30303E-05-2.27347E-05-3.01043E-05 9.77763E-07-5.79410E-19-7.01240E-19
 -1      3023 9.19309E-05-2.30633E-05-2.95288E-05 3.68081E-06-1.96230E-19-6.96536E-19
 -1      3024 9.10428E-05-2.25145E-05-2.93884E-05 4.56196E-06-2.09637E-19-5.87280E-19
 -1      3025 9.17451E-05-2.25139E-05-2.96405E-05 2.48408E-06-3.50502E-19-6.11746E-19
 -1      3026 8.96130E-05-2.16576E-05-2.91513E-05 5.06767E-06-4.55453E-19-7.33628E-19
 -1      3027 8.82184E-05-2.06924E-05-2.89689E-05 5.87065E-06-4.25651E-19-1.02356E-18
 -1      3028 8.95125E-05-2.13501E-05-2.91656E-05 3.52729E-06-3.71968E-19-8.30904E-19
 -1      3029 8.61899E-05-1.94620E-05-2.86445E-05 6.17195E-06-3.58382E-19-1.13828E-18
 -1      3030 8.42047E-05-1.81640E-05-2.83500E-05 6.87893E-06-2.79711E-19-1.43600E-18
 -1      3031 8.61816E-05-1.93466E-05-2.85694E-05 4.06538E-06-5.64299E-19-1.33939E-18
 -1      3032 8.11369E-05-1.64621E-05-2.77852E-05 6.97609E-06-2.86378E-19-1.53713E-18
 -1      3033 7.80674E-05-1.47797E-05-2.71853E-05 7.66062E-06-8.78764E-20-1.60570E-18
 -1      3034 8.13022E-05-1.65251E-05-2.76481E-05 4.03069E-06-4.36522E-19-1.62729E-18
 -1      3035 7.36466E-05-1.27917E-05-2.61699E-05 7.50697E-06 2.66650E-19-1.61561E-18
 -1      3036 6.93253E-05-1.10738E-05-2.49995E-05 8.18920E-06 5.02433E-19-1.76233E-18
 -1      3037 7.41253E-05-1.29426E-05-2.60315E-05 3.22263E-06 8.06518E-20-1.57116E-18
 -1      3038 5.08878E-05-7.73518E-06-1.83059E-05 1.07406E-05 1.19667E-18-2.17365E-18
 -1      3039 9.41225E-05-2.18985E-05-3.09396E-05-2.50468E-06-1.06125E-18-1.22589E-18
 -1      3040 9.41332E-05-2.26939E-05-3.06364E-05-1.09941E-06-9.20462E-19-1.04866E-18
 -1      3041 9.35449E-05-2.20941E-05-3.06300E-05-9.08473E-07-8.13342E-19-9.43879E-19
 -1      3042 9.84846E-05-3.14860E-05-2.87277E-05 8.85770E-08 9.87449E-20-2.34415E-19
 -1      3043 9.82099E-05-3.10306E-05-2.87711E-05-3.58714E-07 1.65258E-19-1.61705E-19
 -1      3044 9.96758E-05-3.23686E-05-2.88578E-05 3.76559E-08 3.55434E-19-2.56866E-19
 -1      3045 7.47380E-05-1.29283E-05-2.65200E-05-1.04214E-05-1.02634E-18 9.62765E-19
 -1      3046 7.80708E-05-1.45481E-05-2.73135E-05-9.09827E-06-8.89970E-19 7.35555E-19
 -1      3047 8.17363E-05-1.64374E-05-2.80271E-05-8.66369E-06-1.42826E-18 6.84922E-19
 -1      3048 8.39683E-05-1.79275E-05-2.83707E-05-7.60450E-06-1.04619E-18-2.45625E-19
 -1      3049 7.69789E-05-1.39224E-05-2.68626E-05-5.41515E-06-1.49592E-18 9.32530E-20
 -1      3050 8.66313E-05-1.96152E-05-2.87473E-05-7.11343E-06-6.74956E-19-6.34974E-19
 -1      3051 8.81907E-05-2.09221E-05-2.88777E-05-6.15806E-06-1.44710E-18-3.72221E-19
 -1      3052 8.31407E-05-1.75372E-05-2.80127E-05-5.06545E-06-1.38077E-18 2.47612E-19
 -1      3053 8.99721E-05-2.22391E-05-2.90429E-05-5.67246E-06-8.74502E-19-3.60839E-19
 -1      3054 9.09434E-05-2.32167E-05-2.90588E-05-4.87325E-06-1.08201E-19 1.61726E-20
 -1      3055 8.74523E-05-2.05823E-05-2.85919E-05-4.48738E-06-6.67459E-19 2.61897E-19
 -1      3056 9.21092E-05-2.41847E-05-2.91159E-05-4.41879E-06-7.76049E-19-4.45805E-20
 -1      3057 9.26885E-05-2.48835E-05-2.90822E-05-3.77438E-06-1.20791E-18-1.10642E-18
 -1      3058 9.03139E-05-2.29111E-05-2.88438E-05-3.78314E-06-6.91250E-19 5.77935E-20
 -1      3059 9.34364E-05-2.55690E-05-2.90862E-05-3.37762E-06-9.13378E-19-1.26122E-18
 -1      3060 9.37676E-05-2.60535E-05-2.90358E-05-2.87405E-06-5.45817E-19-1.88206E-18
 -1      3061 9.21772E-05-2.46192E-05-2.89264E-05-3.07194E-06-1.19980E-18-3.16522E-19
 -1      3062 9.42209E-05-2.65085E-05-2.90175E-05-2.56075E-06-1.03249E-19-1.96910E-18
 -1      3063 9.43943E-05-2.68262E-05-2.89684E-05-2.19023E-06-5.24294E-19-1.69442E-18
 -1      3064 9.33441E-05-2.58095E-05-2.89267E-05-2.44074E-06-6.26081E-19-7.81577E-19
 -1      3065 9.46921E-05-2.71575E-05-2.89406E-05-1.92040E-06-1.52170E-18-1.26350E-18
 -1      3066 9.47867E-05-2.73847E-05-2.88940E-05-1.62626E-06-2.05221E-18-1.04866E-18
 -1      3067 9.40837E-05-2.66474E-05-2.88909E-05-1.89939E-06-8.79116E-19-7.77020E-19
 -1      3068 9.49691E-05-2.76099E-05-2.88654E-05-1.41456E-06-2.09338E-18-1.69970E-18
 -1      3069 9.50120E-05-2.77623E-05-2.88263E-05-1.19524E-06-1.76967E-18-2.57737E-18
 -1      3070 9.45562E-05-2.72445E-05-2.88417E-05-1.44345E-06-2.35340E-18-1.17162E-18
 -1      3071 9.51216E-05-2.79149E-05-2.88002E-05-1.03156E-06-6.92381E-19-1.56976E-18
 -1      3072 9.51366E-05-2.80174E-05-2.87687E-05-8.69260E-07-2.78765E-20-6.98259E-19
 -1      3073 9.48441E-05-2.76551E-05-2.87917E-05-1.08062E-06-3.33826E-20-9.29277E-19
 -1      3074 9.52013E-05-2.81210E-05-2.87465E-05-7.44352E-07 1.55997E-19 1.19899E-20
 -1      3075 9.52024E-05-2.81904E-05-2.87217E-05-6.24891E-07 7.69305E-19-2.38431E-19
 -1      3076 9.50168E-05-2.79372E-05-2.87465E-05-7.97604E-07 5.70230E-19 2.38539E-19
 -1      3077 9.52399E-05-2.82610E-05-2.87034E-05-5.30595E-07 8.26487E-20-7.75935E-19
 -1      3078 9.52348E-05-2.83081E-05-2.86843E-05-4.43165E-07-1.25817E-18-9.71437E-19
 -1      3079 9.51186E-05-2.81313E-05-2.87079E-05-5.80183E-07-2.86618E-19 1.59774E-19
 -1      3080 9.52553E-05-2.83544E-05-2.86704E-05-3.75998E-07-9.72426E-19-1.02248E-18
 -1      3081 9.52484E-05-2.83858E-05-2.86564E-05-3.14659E-07-6.93290E-19-1.38165E-18
 -1      3082 9.51766E-05-2.82632E-05-2.86768E-05-4.18520E-07-1.11604E-18-5.72118E-20
 -1      3083 9.52602E-05-2.84199E-05-2.86447E-05-2.61464E-07 6.57503E-19-8.92189E-19
 -1      3084 9.52530E-05-2.84429E-05-2.86336E-05-2.14517E-07 1.95435E-18-3.43425E-19
 -1      3085 9.52096E-05-2.83550E-05-2.86518E-05-2.96806E-07 4.40338E-19-3.50271E-19
 -1      3086 9.52592E-05-2.84666E-05-2.86245E-05-1.75593E-07 1.86943E-18-4.24229E-19
 -1      3087 9.52529E-05-2.84828E-05-2.86162E-05-1.41823E-07 1.83413E-18-5.01000E-19
 -1      3088 9.52283E-05-2.84215E-05-2.86315E-05-2.03539E-07 1.72997E-18-6.24798E-19
 -1      3089 9.52558E-05-2.84992E-05-2.86093E-05-1.13604E-07 1.91817E-18-3.21381E-19
 -1      3090 9.52508E-05-2.85107E-05-2.86032E-05-8.95727E-08 1.77364E-18 9.72272E-20
 -1      3091 9.52379E-05-2.84682E-05-2.86157E-05-1.35104E-07 1.53643E-18-1.24208E-18
 -1      3092 9.52519E-05-2.85222E-05-2.85980E-05-6.93974E-08 7.42787E-19 5.03452E-20
 -1      3093 9.52481E-05-2.85304E-05-2.85935E-05-5.25314E-08-5.81340E-19-6.51236E-19
 -1      3094 9.52424E-05-2.85011E-05-2.86035E-05-8.55408E-08 1.22878E-18-7.98926E-19
 -1      3095 9.52483E-05-2.85384E-05-2.85896E-05-3.83578E-08-4.73087E-19-9.73687E-19
 -1      3096 9.52456E-05-2.85442E-05-2.85864E-05-2.67625E-08-1.79112E-19-7.84264E-19
 -1      3097 9.52441E-05-2.85243E-05-2.85943E-05-5.02072E-08-9.36998E-19-1.05460E-18
 -1      3098 9.52452E-05-2.85496E-05-2.85836E-05-1.74755E-08-1.43513E-18-4.61800E-19
 -1      3099 9.52435E-05-2.85537E-05-2.85814E-05-9.98624E-09-2.08558E-18-1.43232E-18
 -1      3100 9.52442E-05-2.85405E-05-2.85874E-05-2.59671E-08-6.20591E-19-1.92948E-18
 -1      3101 9.52429E-05-2.85578E-05-2.85792E-05-3.37986E-09-1.80633E-18-1.96319E-18
 -1      3102 9.52417E-05-2.85609E-05-2.85775E-05 1.69402E-09-1.20725E-18-1.10314E-18
 -1      3103 9.52436E-05-2.85518E-05-2.85823E-05-9.41420E-09-2.17012E-18-1.09082E-18
 -1      3104 9.52412E-05-2.85638E-05-2.85759E-05 5.80744E-09-4.49854E-19-1.08046E-18
 -1      3105 9.52405E-05-2.85662E-05-2.85747E-05 8.76727E-09 9.40557E-19-2.06162E-18
 -1      3106 9.52427E-05-2.85602E-05-2.85783E-05 1.76685E-09-2.21937E-19-4.74580E-19
 -1      3107 9.52400E-05-2.85684E-05-2.85734E-05 1.10727E-08 1.64099E-18-3.61143E-18
 -1      3108 9.52398E-05-2.85705E-05-2.85726E-05 1.24518E-08-1.12790E-19-2.82425E-18
 -1      3109 9.52418E-05-2.85664E-05-2.85752E-05 8.48304E-09 7.14745E-20-1.40970E-18
 -1      3110 9.52431E-05-2.85703E-05-2.85740E-05 8.32497E-09-1.87946E-18-2.79415E-18
 -1      3111 9.52435E-05-2.85699E-05-2.85744E-05 6.68417E-09-2.05036E-18-3.41306E-18
 -1      3112 4.91613E-05-1.24274E-05-1.55645E-05 2.54992E-05-2.02195E-18 1.06684E-18
 -1      3113 4.36133E-05-7.49850E-06-1.51083E-05 1.43885E-05-1.45793E-18 1.52265E-18
 -1      3114 9.77275E-05-3.04751E-05-2.88340E-05-6.44555E-07 9.82161E-20-1.46684E-19
 -1      3115 9.74862E-05-2.99749E-05-2.89124E-05-8.21113E-07 1.60857E-19-2.20644E-19
 -1      3116 9.86265E-05-3.11460E-05-2.89342E-05-7.70834E-07 2.23348E-19-3.00160E-19
 -1      3117 1.00245E-04-3.26793E-05-2.89675E-05 4.96878E-06 1.37474E-19 1.05338E-19
 -1      3118 1.00339E-04-3.29167E-05-2.88924E-05 4.08154E-06 2.77946E-19 1.48875E-19
 -1      3119 9.99056E-05-3.15936E-05-2.92740E-05 6.69791E-06-5.01317E-19 4.84732E-19
 -1      3120 1.00303E-04-3.23085E-05-2.91528E-05 5.99890E-06-1.54537E-19 1.97820E-19
 -1      3121 1.02226E-04-3.35700E-05-2.94082E-05 5.44261E-06-7.06911E-20 4.27907E-20
 -1      3122 9.87987E-05-2.94938E-05-2.96809E-05 7.63834E-06-7.65225E-21 2.78692E-19
 -1      3123 9.94940E-05-3.06720E-05-2.95241E-05 7.41154E-06-3.22212E-19 4.21477E-19
 -1      3124 1.01889E-04-3.20678E-05-2.98977E-05 7.31070E-06-3.09697E-19 9.59050E-20
 -1      3125 9.70927E-05-2.67036E-05-3.01297E-05 7.16672E-06 3.04602E-19 3.40676E-19
 -1      3126 9.79406E-05-2.81195E-05-2.99643E-05 7.65750E-06 1.87275E-19 4.78731E-19
 -1      3127 1.00604E-04-2.93841E-05-3.04992E-05 8.18526E-06 7.72333E-20-2.75595E-19
 -1      3128 9.53289E-05-2.40286E-05-3.05193E-05 4.92264E-06 8.98814E-19 3.85913E-20
 -1      3129 9.60455E-05-2.52308E-05-3.03882E-05 6.20446E-06 4.89823E-19 1.40173E-19
 -1      3130 9.86404E-05-2.60267E-05-3.11140E-05 7.32732E-06 4.81855E-19-6.17184E-20
 -1      3131 9.42514E-05-2.24727E-05-3.07398E-05 1.23767E-06 7.19178E-19 7.36887E-19
 -1      3132 9.45704E-05-2.30176E-05-3.06806E-05 3.07062E-06 7.52773E-19 4.43164E-19
 -1      3133 9.67867E-05-2.31152E-05-3.15900E-05 4.46209E-06 6.34225E-19 2.37446E-19
 -1      3134 9.44025E-05-2.27138E-05-3.07282E-05-2.93353E-06 6.01827E-19 8.38700E-19
 -1      3135 9.41728E-05-2.23620E-05-3.07580E-05-1.04353E-06 7.90999E-19 6.27434E-19
 -1      3136 9.59135E-05-2.17804E-05-3.17920E-05 1.31839E-07 8.83259E-19 1.38981E-19
 -1      3137 9.57084E-05-2.46279E-05-3.04937E-05-6.37159E-06 1.55357E-19 4.58087E-19
 -1      3138 9.50292E-05-2.35405E-05-3.06003E-05-4.93577E-06 6.33468E-19 6.66954E-19
 -1      3139 9.64838E-05-2.26359E-05-3.16650E-05-4.33433E-06 5.59431E-19-8.76847E-20
 -1      3140 9.75654E-05-2.73999E-05-3.01095E-05-8.23704E-06 2.14616E-19 3.43440E-19
 -1      3141 9.67053E-05-2.60130E-05-3.02581E-05-7.54837E-06-4.20348E-20 3.95203E-19
 -1      3142 9.81686E-05-2.52447E-05-3.12480E-05-7.59469E-06 2.09306E-19 3.19286E-19
 -1      3143 9.92195E-05-3.00283E-05-2.96836E-05-8.39087E-06 4.13873E-19 1.76823E-19
 -1      3144 9.84636E-05-2.87966E-05-2.98330E-05-8.44160E-06 4.85761E-19 3.26108E-19
 -1      3145 1.00123E-04-2.85195E-05-3.06630E-05-8.91712E-06 3.47406E-19 2.28591E-19
 -1      3146 1.00178E-04-3.18324E-05-2.93053E-05-7.27080E-06 7.00042E-19-1.50971E-21
 -1      3147 9.97002E-05-3.10269E-05-2.94265E-05-7.84088E-06 7.13106E-19 4.34073E-19
 -1      3148 1.01527E-04-3.13301E-05-3.00564E-05-8.43292E-06 7.19672E-19 4.52683E-19
 -1      3149 1.00346E-04-3.26279E-05-2.90215E-05-5.52137E-06 5.33432E-19 1.02611E-19
 -1      3150 1.00178E-04-3.22941E-05-2.91028E-05-6.33474E-06 7.17969E-19 1.92989E-19
 -1      3151 1.01998E-04-3.30363E-05-2.95358E-05-6.81221E-06 5.67770E-19 9.97678E-19
 -1      3152 9.99072E-05-3.25925E-05-2.88389E-05-3.68779E-06-7.42932E-19 7.38371E-19
 -1      3153 9.99836E-05-3.26286E-05-2.88830E-05-4.52163E-06 9.12335E-20 3.81104E-19
 -1      3154 1.01610E-04-3.35756E-05-2.91500E-05-4.79281E-06 1.70096E-19 1.46863E-18
 -1      3155 9.91366E-05-3.20427E-05-2.87400E-05-2.10018E-06-6.49380E-19-4.85507E-19
 -1      3156 9.93579E-05-3.22990E-05-2.87566E-05-2.82054E-06-7.03501E-19 5.83667E-20
 -1      3157 1.00671E-04-3.32438E-05-2.88997E-05-2.89700E-06-1.10320E-19 1.38832E-18
 -1      3158 9.82733E-05-3.12764E-05-2.86982E-05-8.91544E-07-8.12720E-19-9.79539E-19
 -1      3159 9.85507E-05-3.16202E-05-2.86988E-05-1.44387E-06-5.92933E-19-1.04119E-18
 -1      3160 9.95169E-05-3.24315E-05-2.87586E-05-1.38355E-06-2.49230E-19 8.81050E-19
 -1      3161 9.74718E-05-3.05024E-05-2.86886E-05-6.59017E-08-7.02435E-19-1.38101E-19
 -1      3162 9.77451E-05-3.08438E-05-2.86825E-05-4.47872E-07-1.30513E-18-1.13472E-18
 -1      3163 9.83934E-05-3.14670E-05-2.86924E-05-3.12671E-07-1.00421E-18-4.40008E-19
 -1      3164 9.68067E-05-2.98351E-05-2.86924E-05 4.36285E-07-6.66533E-19 8.79107E-19
 -1      3165 9.70441E-05-3.01264E-05-2.86859E-05 2.00014E-07-2.52937E-19 3.40385E-19
 -1      3166 9.74352E-05-3.05599E-05-2.86700E-05 3.63133E-07-1.01436E-18-2.79621E-19
 -1      3167 9.62960E-05-2.93176E-05-2.86982E-05 6.94464E-07-8.10633E-19 5.41875E-19
 -1      3168 9.64865E-05-2.95420E-05-2.86945E-05 5.69839E-07-6.11997E-19 1.07531E-18
 -1      3169 9.66889E-05-2.98131E-05-2.86687E-05 7.31965E-07-6.72276E-19 2.71583E-20
 -1      3170 9.59262E-05-2.89487E-05-2.87002E-05 7.84370E-07-1.64110E-19 2.20639E-19
 -1      3171 9.60709E-05-2.91078E-05-2.87005E-05 7.38012E-07-4.03083E-19 5.11449E-19
 -1      3172 9.61469E-05-2.92545E-05-2.86740E-05 8.84562E-07-2.60205E-19 7.85537E-19
 -1      3173 9.56711E-05-2.87060E-05-2.86967E-05 7.68215E-07-3.13205E-19-2.50048E-19
 -1      3174 9.57767E-05-2.88103E-05-2.87005E-05 7.72030E-07-6.18858E-19-1.48764E-19
 -1      3175 9.57756E-05-2.88697E-05-2.86781E-05 8.97589E-07 3.03026E-19-2.32121E-19
 -1      3176 9.55020E-05-2.85599E-05-2.86881E-05 6.92521E-07 1.02966E-19 3.53615E-19
 -1      3177 9.55770E-05-2.86226E-05-2.86945E-05 7.25064E-07 3.87037E-19 3.20439E-19
 -1      3178 9.55349E-05-2.86261E-05-2.86780E-05 8.29245E-07-3.60922E-19-3.85664E-19
 -1      3179 9.53939E-05-2.84824E-05-2.86758E-05 5.89561E-07-1.79911E-19-1.67220E-19
 -1      3180 9.54461E-05-2.85156E-05-2.86838E-05 6.35687E-07-9.70184E-20 7.46885E-19
 -1      3181 9.53871E-05-2.84873E-05-2.86732E-05 7.20420E-07-1.20118E-19-2.91834E-19
 -1      3182 9.53272E-05-2.84500E-05-2.86616E-05 4.80154E-07-2.37795E-19 1.61416E-20
 -1      3183 9.53630E-05-2.84639E-05-2.86701E-05 5.29935E-07-4.64470E-19-4.05180E-19
 -1      3184 9.53019E-05-2.84205E-05-2.86646E-05 5.97931E-07-2.10034E-19 1.68426E-19
 -1      3185 9.52872E-05-2.84450E-05-2.86468E-05 3.76603E-07 2.34098E-19-4.29696E-19
 -1      3186 9.53116E-05-2.84473E-05-2.86552E-05 4.24083E-07 2.12595E-19-1.79217E-19
 -1      3187 9.52565E-05-2.83997E-05-2.86536E-05 4.78086E-07 1.27180E-19 2.53076E-19
 -1      3188 9.52641E-05-2.84552E-05-2.86327E-05 2.85277E-07 1.35160E-18-1.00796E-18
 -1      3189 9.52805E-05-2.84510E-05-2.86404E-05 3.27313E-07 8.43008E-19-3.68756E-19
 -1      3190 9.52350E-05-2.84057E-05-2.86415E-05 3.69801E-07 6.41287E-19-2.45593E-19
 -1      3191 9.52511E-05-2.84722E-05-2.86198E-05 2.08648E-07 2.82491E-19-4.13313E-20
 -1      3192 9.52622E-05-2.84650E-05-2.86266E-05 2.43970E-07 5.64923E-19-5.32144E-19
 -1      3193 9.52269E-05-2.84254E-05-2.86295E-05 2.77072E-07 8.67352E-19 2.98493E-19
 -1      3194 9.52440E-05-2.84911E-05-2.86087E-05 1.46800E-07-1.01998E-19 7.28923E-20
 -1      3195 9.52515E-05-2.84831E-05-2.86143E-05 1.75301E-07 2.38428E-19 1.46951E-19
 -1      3196 9.52258E-05-2.84504E-05-2.86182E-05 2.00808E-07-5.76896E-20-9.41211E-20
 -1      3197 9.52404E-05-2.85091E-05-2.85994E-05 9.84964E-08-1.39979E-18 1.35803E-18
 -1      3198 9.52453E-05-2.85015E-05-2.86039E-05 1.20718E-07-1.18644E-18 9.96908E-19
 -1      3199 9.52277E-05-2.84756E-05-2.86082E-05 1.40125E-07-1.24743E-18 1.34488E-18
 -1      3200 9.52386E-05-2.85249E-05-2.85918E-05 6.18867E-08-9.34718E-19 1.49816E-18
 -1      3201 9.52417E-05-2.85181E-05-2.85954E-05 7.86763E-08-8.49842E-19 1.35370E-18
 -1      3202 9.52306E-05-2.84985E-05-2.85996E-05 9.32259E-08-1.28570E-18 1.48849E-18
 -1      3203 9.52377E-05-2.85379E-05-2.85858E-05 3.49530E-08 9.71347E-19 1.71589E-19
 -1      3204 9.52397E-05-2.85323E-05-2.85886E-05 4.72453E-08 2.35367E-19 7.26791E-19
 -1      3205 9.52333E-05-2.85179E-05-2.85924E-05 5.79671E-08 3.62542E-20 1.50130E-19
 -1      3206 9.52373E-05-2.85482E-05-2.85811E-05 1.57747E-08 2.06616E-18 5.81920E-19
 -1      3207 9.52385E-05-2.85437E-05-2.85832E-05 2.44617E-08 1.38234E-18 3.94117E-19
 -1      3208 9.52354E-05-2.85336E-05-2.85866E-05 3.21999E-08 1.23780E-18-3.23315E-19
 -1      3209 9.52373E-05-2.85563E-05-2.85776E-05 2.67897E-09 1.68228E-18 6.00845E-19
 -1      3210 9.52379E-05-2.85527E-05-2.85792E-05 8.53400E-09 2.67628E-18 1.15024E-18
 -1      3211 9.52369E-05-2.85458E-05-2.85820E-05 1.39663E-08 1.57858E-18 1.33874E-18
 -1      3212 9.52374E-05-2.85625E-05-2.85750E-05-5.65851E-09-1.31581E-18 1.03626E-18
 -1      3213 9.52376E-05-2.85598E-05-2.85761E-05-2.04482E-09 2.31628E-19 1.77925E-19
 -1      3214 9.52379E-05-2.85552E-05-2.85783E-05 1.62702E-09 1.18257E-18 2.17622E-18
 -1      3215 1.12083E-04-5.24853E-05-2.50538E-05-3.11859E-05 1.38829E-18 2.24993E-18
 -1      3216 9.52424E-05-2.85664E-05-2.85754E-05-7.18670E-10-1.21501E-18-4.18989E-19
 -1      3217 9.52421E-05-2.85662E-05-2.85754E-05-2.05862E-09-9.03126E-19-7.58853E-19
 -1      3218 9.99519E-05-3.28354E-05-2.87805E-05 3.04997E-06 2.26610E-19-3.18772E-19
 -1      3219 9.98231E-05-3.27086E-05-2.87503E-05 2.19558E-06 3.02968E-19-5.29293E-19
 -1      3220 1.01749E-04-3.39003E-05-2.90744E-05 3.31442E-06 8.42740E-20-4.80165E-19
 -1      3221 1.09311E-04-4.95587E-05-2.59820E-05 3.08031E-05-2.17063E-18-3.04215E-18
 -1      3222 9.32404E-05-3.94417E-05-2.24732E-05 3.55433E-05-2.11848E-18-2.08755E-18
 -1      3223 9.18589E-05-1.69770E-05-3.21191E-05-5.78122E-06-1.23009E-18-1.95090E-18
 -1      3224 9.27062E-05-1.80649E-05-3.20183E-05-6.22293E-06-1.42463E-18-1.86979E-18
 -1      3225 9.33766E-05-1.94622E-05-3.16572E-05-5.11814E-06-1.36871E-18-1.65561E-18
 -1      3226 9.23153E-05-1.80828E-05-3.17810E-05-4.50778E-06-1.03988E-18-1.78513E-18
 -1      3227 5.79988E-05-1.04834E-05-1.97692E-05-1.87260E-05 9.29076E-19 3.43684E-18
 -1      3228 1.07663E-04-4.97954E-05-2.44887E-05-3.38851E-05-1.45078E-18-1.02201E-18
 -1      3229 1.20315E-04-5.56092E-05-2.80678E-05-2.62006E-05-9.76285E-19-2.06729E-20
 -1      3230 9.52434E-05-2.85688E-05-2.85748E-05 5.02548E-09-2.78860E-18-1.32906E-18
 -1      3231 9.52433E-05-2.85683E-05-2.85750E-05 3.40787E-09-2.71025E-18 1.72543E-18
 -1      3232 9.52434E-05-2.85658E-05-2.85761E-05 4.83656E-09-3.02906E-18-1.66171E-18
 -1      3233 1.29150E-04-5.54853E-05-3.20061E-05 1.29517E-05-1.64375E-18-3.28868E-18
 -1      3234 1.22346E-04-5.37784E-05-2.90099E-05 2.06495E-05-1.66687E-18-3.31788E-18
 -1      3235 1.24426E-04-2.23882E-05-4.39696E-05 1.24453E-05 1.19966E-18 2.59285E-19
 -1      3236 1.22000E-04-1.46519E-05-4.64948E-05 1.02822E-05 1.75908E-18-9.55559E-20
 -1      3237 7.54957E-05-2.97937E-05-1.98705E-05 3.72567E-05-2.96480E-18-2.16232E-18
 -1      3238 6.08943E-05-1.97966E-05-1.70495E-05 3.23550E-05-2.35621E-18-6.25693E-19
 -1      3239 6.18256E-05-1.64877E-05-1.90239E-05 2.56921E-05-2.39978E-18-5.64230E-19
 -1      3240 6.45959E-05-1.01244E-05-2.33689E-05-1.29206E-05 1.40680E-19 1.81027E-18
 -1      3241 6.91609E-05-1.08802E-05-2.50659E-05-1.09759E-05-6.48748E-19 1.50248E-18
 -1      3242 6.82013E-05-1.00833E-05-2.46600E-05-5.28300E-06-9.11718E-19-6.34431E-19
 -1      3243 4.69032E-05-1.18369E-05-1.45667E-05-2.27623E-05-1.70730E-19-3.22487E-18
 -1      3244 5.64614E-05-1.94854E-05-1.54821E-05-3.31309E-05-9.00608E-19-3.05038E-18
 -1      3245 1.25424E-04-6.94834E-06-5.13902E-05-4.14503E-06 2.01033E-18-1.73748E-19
 -1      3246 1.26014E-04-1.21731E-05-4.92791E-05-9.21156E-06 2.09789E-18-5.59333E-19
 -1      3247 1.30078E-04-5.63591E-05-3.12019E-05-1.51463E-05-8.04297E-19 3.30846E-19
 -1      3248 1.33806E-04-5.42812E-05-3.46777E-05-5.43792E-06-2.14246E-19 8.60890E-19
 -1      3249 1.34736E-04-4.43288E-05-3.91904E-05-5.82337E-06-5.48719E-19-2.48874E-18
 -1      3250 1.33609E-04-5.12942E-05-3.51877E-05 2.88397E-06-1.17608E-18-3.12306E-18
 -1      3251 1.34660E-04-4.59908E-05-3.78244E-05 5.23903E-06 5.48824E-19 8.03464E-19
 -1      3252 1.29957E-04-3.51312E-05-4.11258E-05 1.13522E-05 1.08955E-18 1.95903E-19
 -1      3253 9.14662E-05-1.75110E-05-3.17042E-05 7.06009E-07 7.02856E-19-1.80192E-18
 -1      3254 9.11285E-05-1.71333E-05-3.17288E-05 2.96069E-08 4.77949E-19-1.82043E-18
 -1      3255 9.52430E-05-2.85674E-05-2.85753E-05 1.95199E-09-1.47719E-18 3.71741E-19
 -1      3256 9.52427E-05-2.85670E-05-2.85754E-05 4.93130E-10-1.54041E-18 7.90454E-19
 -1      3257 9.52421E-05-2.85621E-05-2.85771E-05-5.49675E-10-8.09927E-19 2.71529E-19
 -1      3258 9.52429E-05-2.85637E-05-2.85768E-05 1.88245E-09-2.45432E-18 1.71440E-19
 -1      3259 9.52395E-05-2.85713E-05-2.85721E-05-1.13808E-08 1.30955E-18-1.18900E-18
 -1      3260 4.59869E-05-6.65869E-06-1.66357E-05-8.19588E-06 6.56277E-19 2.22198E-18
 -1      3261 5.84768E-05-8.69278E-06-2.11673E-05-1.10180E-05 2.31769E-19 2.02970E-18
 -1      3262 5.63054E-05-6.53773E-06-2.08868E-05-2.54982E-06-8.07527E-19 8.12649E-19
 -1      3263 4.30229E-05-5.54290E-06-1.55033E-05 5.58124E-06-5.88820E-19 1.28262E-18
 -1      3264 9.37481E-05-2.06445E-05-3.13484E-05-3.98286E-06-1.27393E-18-1.56347E-18
 -1      3265 9.44085E-05-2.19638E-05-3.10340E-05 2.51718E-06 1.14506E-18-1.15114E-18
 -1      3266 9.33782E-05-2.00773E-05-3.14355E-05 3.18362E-06 1.22174E-18-1.41140E-18
 -1      3267 9.28361E-05-1.92909E-05-3.15287E-05 2.55051E-06 1.00870E-18-1.54226E-18
 -1      3268 8.73734E-05-3.37960E-05-2.27293E-05 3.19915E-05-2.35240E-18-1.94323E-18
 -1      3269 1.13849E-04-4.89247E-05-2.77528E-05 2.23822E-05-2.02756E-18-2.81216E-18
 -1      3270 1.00790E-04-3.33775E-05-2.88974E-05 1.42835E-06 3.31933E-19-4.43936E-19
 -1      3271 9.70976E-05-2.93992E-05-2.90237E-05-8.13978E-07 4.09194E-19-1.15403E-19
 -1      3272 9.69238E-05-2.88663E-05-2.91444E-05-6.93878E-07 6.34000E-19-8.18003E-20
 -1      3273 9.77447E-05-2.98438E-05-2.91148E-05-9.86110E-07 3.45196E-19-2.91109E-19
 -1      3274 6.29968E-05-9.15019E-06-2.31420E-05 8.12487E-06 7.83664E-19-1.70336E-18
 -1      3275 5.74164E-05-8.36248E-06-2.08817E-05 9.12745E-06 1.25338E-18-1.74828E-18
 -1      3276 9.13549E-05-1.76347E-05-3.16079E-05-2.94742E-06-3.76095E-19-1.83063E-18
 -1      3277 9.19223E-05-1.83957E-05-3.15390E-05-3.26979E-06-6.15338E-19-1.80052E-18
 -1      3278 9.32031E-05-2.01471E-05-3.13162E-05-3.37198E-06-1.03410E-18-1.45032E-18
 -1      3279 9.08399E-05-1.67840E-05-3.17442E-05-4.90824E-07 3.86251E-19-1.83642E-18
 -1      3280 9.06587E-05-1.66298E-05-3.17482E-05-1.10379E-06 1.74597E-19-1.85546E-18
 -1      3281 9.18060E-05-1.84169E-05-3.14361E-05-5.22514E-07 3.88631E-19-1.64636E-18
 -1      3282 1.33304E-04-5.69201E-05-3.23086E-05-2.08982E-05 1.79296E-18 1.72860E-18
 -1      3283 9.61732E-05-2.68102E-05-2.97371E-05 7.64557E-07 1.03302E-18-2.14853E-19
 -1      3284 9.60382E-05-2.59929E-05-2.99916E-05 1.65088E-06 1.21320E-18-3.61906E-19
 -1      3285 6.81998E-05-2.47588E-05-1.82676E-05-3.36259E-05-1.03007E-18-2.45618E-18
 -1      3286 9.52427E-05-2.85714E-05-2.85734E-05 9.80632E-09-1.41031E-18-1.03868E-18
 -1      3287 9.52431E-05-2.85682E-05-2.85750E-05 7.96827E-09-9.79223E-19-1.84352E-18
 -1      3288 9.52419E-05-2.85718E-05-2.85729E-05 1.10364E-08-6.45707E-19-1.98022E-18
 -1      3289 9.52396E-05-2.85725E-05-2.85716E-05 1.32006E-08-1.15125E-18-2.53079E-18
 -1      3290 5.08095E-05-7.57708E-06-1.81534E-05 9.33554E-06-1.26862E-18 4.88103E-19
 -1      3291 5.09256E-05-6.25068E-06-1.85615E-05 1.06757E-06 9.07665E-19-2.23352E-18
 -1      3292 9.58793E-05-2.55056E-05-3.01593E-05 2.54591E-06 1.43474E-18-3.79178E-19
 -1      3293 9.58402E-05-2.48402E-05-3.04115E-05 3.95396E-06 1.53977E-18-5.70589E-21
 -1      3294 9.58488E-05-2.52729E-05-3.02666E-05 2.16829E-06 1.30610E-18-4.59843E-19
 -1      3295 9.52376E-05-2.85644E-05-2.85742E-05-7.77630E-09-1.49463E-18 6.00641E-19
 -1      3296 9.52387E-05-2.85616E-05-2.85759E-05-5.39772E-09-2.21963E-19 2.45879E-18
 -1      3297 9.52381E-05-2.85660E-05-2.85737E-05-9.21086E-09 1.97226E-19 1.03289E-18
 -1      3298 9.52415E-05-2.85668E-05-2.85749E-05-5.38985E-09 3.75945E-19-8.26320E-19
 -1      3299 9.52413E-05-2.85670E-05-2.85747E-05-6.55778E-09 2.19262E-18-1.33810E-19
 -1      3300 9.52392E-05-2.85692E-05-2.85729E-05-1.06987E-08 9.11863E-19-1.45194E-18
 -1      3301 9.52387E-05-2.85673E-05-2.85734E-05-1.00097E-08 1.43356E-18 3.30501E-19
 -1      3302 9.52406E-05-2.85692E-05-2.85735E-05-9.63706E-09 2.56129E-18-1.71599E-18
 -1      3303 4.78406E-05-6.96335E-06-1.72444E-05-5.88097E-06 5.58843E-19-2.66339E-18
 -1      3304 4.61358E-05-8.80037E-06-1.54214E-05-1.54418E-05 1.20305E-20-3.18103E-18
 -1      3305 5.45572E-05-1.19546E-05-1.80404E-05-1.87639E-05-2.07695E-19-2.97166E-18
 -1      3306 5.44511E-05-7.93179E-06-1.99239E-05-5.54653E-06 6.48280E-19-2.33352E-18
 -1      3307 9.52412E-05-2.85679E-05-2.85743E-05-7.50611E-09 1.99465E-18-1.51864E-19
 -1      3308 9.52408E-05-2.85682E-05-2.85740E-05-8.55772E-09 2.15947E-18-7.34445E-19
 -1      3309 9.52405E-05-2.85656E-05-2.85749E-05-7.98453E-09 2.09258E-18-1.24572E-18
 -1      3310 9.52409E-05-2.85636E-05-2.85759E-05-6.17695E-09 1.82293E-18-8.70835E-20
 -1      3311 9.52419E-05-2.85662E-05-2.85753E-05-3.12181E-09-6.93649E-19 3.05382E-19
 -1      3312 9.52416E-05-2.85662E-05-2.85752E-05-4.35643E-09-3.99064E-19-7.02731E-19
 -1      3313 9.52414E-05-2.85616E-05-2.85770E-05-2.55978E-09 5.59239E-19-3.98078E-19
 -1      3314 9.06995E-05-1.67478E-05-3.17001E-05-2.32946E-06-1.18044E-19-1.97859E-18
 -1      3315 9.09771E-05-1.71583E-05-3.16645E-05-2.76688E-06-2.67475E-19-1.99741E-18
 -1      3316 9.17974E-05-1.86314E-05-3.13208E-05-2.29358E-06-3.72924E-19-1.76971E-18
 -1      3317 1.24977E-04-1.70088E-05-4.66860E-05-1.16351E-05 1.36955E-18-1.09318E-18
 -1      3318 1.23226E-04-2.18979E-05-4.36680E-05-1.21222E-05 6.52851E-19-1.23826E-18
 -1      3319 1.18792E-04-1.30573E-05-4.56423E-05-9.57927E-06 1.04947E-18-6.68521E-19
 -1      3320 1.25066E-04-2.94459E-05-4.12161E-05 1.31155E-05 8.90020E-19 1.16494E-19
 -1      3321 1.18596E-04-2.40133E-05-4.06983E-05 1.24548E-05 1.06927E-18-2.53726E-19
 -1      3322 1.23598E-04-3.48386E-05-3.81556E-05 1.08102E-05 8.14780E-19 1.96614E-19
 -1      3323 9.18818E-05-1.80351E-05-3.16616E-05 1.28958E-06 7.43690E-19-1.77106E-18
 -1      3324 9.25455E-05-1.92969E-05-3.13781E-05 5.14947E-07 6.29238E-19-1.68217E-18
 -1      3325 9.23330E-05-1.86096E-05-3.16094E-05 1.98316E-06 9.10541E-19-1.74064E-18
 -1      3326 9.96851E-05-4.50206E-05-2.33382E-05-3.59330E-05-1.48871E-18-1.29718E-18
 -1      3327 1.06286E-04-4.60993E-05-2.56330E-05-2.85683E-05-1.34335E-18-1.04873E-18
 -1      3328 9.04275E-05-3.79994E-05-2.22859E-05-3.49899E-05-1.37357E-18-1.50415E-18
 -1      3329 1.30584E-04-4.82094E-05-3.52889E-05 1.33904E-06 1.86592E-19 4.29313E-19
 -1      3330 1.19071E-04-1.20249E-05-4.62269E-05 8.49808E-06 1.57400E-18-2.84391E-19
 -1      3331 1.15668E-04-1.00464E-05-4.56568E-05 5.41756E-06 1.55939E-18-2.68324E-19
 -1      3332 1.15456E-04-1.54112E-05-4.29931E-05 9.37486E-06 9.78005E-19 3.43935E-19
 -1      3333 1.31687E-04-3.84580E-05-4.00857E-05-9.89918E-06 7.41154E-21-2.43596E-18
 -1      3334 1.28086E-04-4.15972E-05-3.71293E-05-7.52827E-06-6.63267E-19-2.07673E-18
 -1      3335 1.26105E-04-3.18816E-05-4.07244E-05-1.23530E-05 1.83515E-19-2.26436E-18
 -1      3336 1.22645E-04-5.37113E-05-2.95266E-05-1.85401E-05-1.01345E-18 1.00545E-19
 -1      3337 1.20204E-04-7.96803E-06-4.85101E-05-1.97918E-06 1.92584E-18-5.57275E-19
 -1      3338 1.28528E-04-5.05455E-05-3.33636E-05 4.30594E-06-1.52180E-18-2.73012E-18
 -1      3339 6.38221E-05-9.06321E-06-2.31388E-05 1.62518E-06 6.09220E-19-1.80073E-18
 -1      3340 9.66088E-05-2.82460E-05-2.93096E-05-3.93750E-07 7.35832E-19-1.42550E-19
 -1      3341 9.64969E-05-2.76315E-05-2.94870E-05 5.29586E-08 9.21848E-19-9.98281E-20
 -1      3342 9.70410E-05-2.84743E-05-2.94007E-05-6.06617E-07 7.25482E-19-1.74657E-19
 -1      3343 9.63911E-05-2.68248E-05-2.98252E-05 4.80700E-07 9.46041E-19-3.89305E-19
 -1      3344 9.28534E-05-2.21886E-05-3.02835E-05-4.69289E-08-5.84659E-19-9.81697E-19
 -1      3345 9.23838E-05-2.23546E-05-3.00359E-05 8.13767E-07-4.83138E-19-9.63005E-19
 -1      3346 9.17631E-05-2.23342E-05-2.97625E-05 1.21524E-06-5.08425E-19-7.62697E-19
 -1      3347 9.08856E-05-2.20621E-05-2.95266E-05 1.78604E-06-3.34358E-19-8.53131E-19
 -1      3348 9.17690E-05-2.18512E-05-2.99352E-05 2.44337E-07-4.56735E-19-9.72181E-19
 -1      3349 8.97825E-05-2.15840E-05-2.92383E-05 1.90049E-06-3.46059E-19-1.03056E-18
 -1      3350 8.83584E-05-2.08714E-05-2.89667E-05 2.18936E-06-4.92110E-19-1.12948E-18
 -1      3351 9.01153E-05-2.15276E-05-2.93585E-05 6.26055E-07-5.01643E-19-1.03184E-18
 -1      3352 8.67838E-05-2.00326E-05-2.86249E-05 1.94778E-06-6.76442E-19-1.36210E-18
 -1      3353 8.47743E-05-1.89723E-05-2.82657E-05 1.91666E-06-6.79588E-19-1.41810E-18
 -1      3354 8.75273E-05-2.04077E-05-2.87129E-05 2.87213E-07-7.72288E-19-1.29895E-18
 -1      3355 8.24479E-05-1.77474E-05-2.77522E-05 1.17681E-06-4.73783E-19-1.38420E-18
 -1      3356 7.93861E-05-1.62772E-05-2.71409E-05 6.99910E-07-3.68358E-19-1.46867E-18
 -1      3357 8.37874E-05-1.86264E-05-2.78497E-05-1.01871E-06-6.13254E-19-1.15915E-18
 -1      3358 7.61765E-05-1.48168E-05-2.63258E-05-7.33285E-07-1.93818E-19-1.56314E-18
 -1      3359 7.18010E-05-1.30993E-05-2.52659E-05-1.81917E-06 1.99728E-19-1.54235E-18
 -1      3360 7.84922E-05-1.63319E-05-2.65226E-05-3.73473E-06-2.71215E-19-1.31872E-18
 -1      3361 7.37355E-05-1.32403E-05-2.60292E-05-1.02872E-06-1.00052E-18-9.00396E-19
 -1      3362 7.74735E-05-1.50064E-05-2.68170E-05-1.43904E-06-1.23605E-18-7.34498E-19
 -1      3363 9.27022E-05-1.95424E-05-3.13653E-05-3.13567E-06-8.01075E-19-1.51349E-18
 -1      3364 1.00752E-04-3.32401E-05-2.89476E-05-3.22652E-07 4.24096E-19-6.55392E-19
 -1      3365 1.00193E-04-3.25633E-05-2.89581E-05-8.27751E-07 2.66809E-19-5.73067E-19
 -1      3366 9.05515E-05-1.64976E-05-3.17423E-05-1.51371E-06 6.35251E-20-1.87520E-18
 -1      3367 9.05757E-05-1.66065E-05-3.17280E-05-2.04211E-06-1.00544E-19-1.87608E-18
 -1      3368 9.13192E-05-1.79742E-05-3.14065E-05-1.96923E-06-8.40337E-20-1.87975E-18
 -1      3369 6.68329E-05-2.06034E-05-1.96170E-05-2.80917E-05-4.94455E-19-2.49621E-18
 -1      3370 7.86083E-05-2.99610E-05-2.07163E-05-3.43232E-05-9.82346E-19-2.01149E-18
 -1      3371 8.81739E-05-3.38293E-05-2.31050E-05-3.05185E-05-9.33377E-19-1.73276E-18
 -1      3372 9.52412E-05-2.85716E-05-2.85727E-05 1.18170E-08-1.28172E-20-3.53812E-18
 -1      3373 8.06056E-05-1.67107E-05-2.74625E-05-2.31523E-06-1.29959E-18-4.24258E-19
 -1      3374 8.33148E-05-1.83349E-05-2.78865E-05-2.35611E-06-6.85960E-19-5.56643E-20
 -1      3375 7.88607E-05-1.60513E-05-2.67799E-05 1.42359E-06-1.04757E-18-1.70172E-18
 -1      3376 8.55412E-05-1.97814E-05-2.82329E-05-2.76045E-06-5.70296E-19-3.73371E-19
 -1      3377 8.73372E-05-2.10529E-05-2.84351E-05-2.60331E-06-5.01406E-19-5.00212E-19
 -1      3378 8.39144E-05-1.89323E-05-2.77716E-05-3.46497E-07-8.80109E-19-1.02741E-18
 -1      3379 8.88964E-05-2.21996E-05-2.86144E-05-2.72871E-06-4.44762E-19-8.86032E-19
 -1      3380 9.00751E-05-2.31599E-05-2.86985E-05-2.47800E-06-8.10482E-19-8.36937E-19
 -1      3381 8.75594E-05-2.13771E-05-2.83106E-05-1.20671E-06-5.52762E-19-1.69031E-18
 -1      3382 9.11460E-05-2.40241E-05-2.87834E-05-2.45059E-06-1.39658E-18-4.61357E-19
 -1      3383 9.19038E-05-2.47251E-05-2.88063E-05-2.17700E-06-1.45426E-18-7.43240E-19
 -1      3384 9.00974E-05-2.33089E-05-2.85878E-05-1.51947E-06-1.21961E-18-1.81985E-18
 -1      3385 9.25989E-05-2.53307E-05-2.88384E-05-2.08204E-06-1.34782E-18-8.70862E-19
 -1      3386 9.30605E-05-2.58110E-05-2.88327E-05-1.83515E-06-6.08945E-19-9.01307E-19
 -1      3387 9.17976E-05-2.47381E-05-2.87152E-05-1.52828E-06-1.37658E-18-1.30201E-18
 -1      3388 9.35544E-05-2.62726E-05-2.88395E-05-1.70601E-06-2.63054E-19-1.14048E-18
 -1      3389 9.38603E-05-2.66314E-05-2.88208E-05-1.48008E-06-8.54062E-19-1.31312E-18
 -1      3390 9.29539E-05-2.58029E-05-2.87631E-05-1.38400E-06-9.22904E-19-2.00368E-18
 -1      3391 9.41875E-05-2.69597E-05-2.88138E-05-1.34948E-06-1.81427E-18-1.52792E-18
 -1      3392 9.43749E-05-2.72096E-05-2.87912E-05-1.16178E-06-1.64449E-18-6.32871E-19
 -1      3393 9.37494E-05-2.65965E-05-2.87695E-05-1.17577E-06-1.08090E-18-1.44279E-18
 -1      3394 9.45898E-05-2.74411E-05-2.87784E-05-1.04291E-06-6.97515E-21-5.93965E-19
 -1      3395 9.47030E-05-2.76152E-05-2.87563E-05-8.91882E-07 1.29369E-18-5.29271E-20
 -1      3396 9.42755E-05-2.71664E-05-2.87545E-05-9.57056E-07-2.47626E-19-9.28286E-20
 -1      3397 9.48434E-05-2.77780E-05-2.87420E-05-7.90145E-07 1.09621E-18 1.28453E-19
 -1      3398 9.49106E-05-2.78994E-05-2.87222E-05-6.71347E-07 5.65830E-19 4.19630E-19
 -1      3399 9.46208E-05-2.75730E-05-2.87307E-05-7.54407E-07 8.89256E-19-1.99410E-19
 -1      3400 9.50018E-05-2.80139E-05-2.87084E-05-5.87708E-07-6.08968E-19-2.88266E-20
 -1      3401 9.50411E-05-2.80988E-05-2.86917E-05-4.95939E-07-9.49065E-19-8.72880E-19
 -1      3402 9.48464E-05-2.78626E-05-2.87048E-05-5.79141E-07-3.49879E-19-1.84275E-18
 -1      3403 9.50979E-05-2.81761E-05-2.86800E-05-4.32447E-07-2.77523E-19-4.24845E-19
 -1      3404 9.51194E-05-2.82336E-05-2.86669E-05-3.65146E-07-3.78407E-19 5.75405E-19
 -1      3405 9.49902E-05-2.80648E-05-2.86808E-05-4.37204E-07-4.84356E-19-1.82877E-18
 -1      3406 9.51581E-05-2.82918E-05-2.86563E-05-3.12127E-07 1.02704E-19 6.75440E-19
 -1      3407 9.51709E-05-2.83348E-05-2.86452E-05-2.58694E-07 1.39880E-18 1.17961E-18
 -1      3408 9.50840E-05-2.82098E-05-2.86594E-05-3.22928E-07 2.38650E-19 5.26327E-19
 -1      3409 9.51957E-05-2.83761E-05-2.86364E-05-2.18171E-07 1.23101E-18 7.59191E-19
 -1      3410 9.52025E-05-2.84067E-05-2.86276E-05-1.78415E-07 1.26667E-18-1.04235E-19
 -1      3411 9.51464E-05-2.83170E-05-2.86406E-05-2.30713E-07 7.38828E-19 1.49436E-18
 -1      3412 9.52182E-05-2.84360E-05-2.86204E-05-1.47922E-07 1.00648E-18-5.16056E-19
 -1      3413 9.52215E-05-2.84578E-05-2.86136E-05-1.18746E-07 1.26889E-18-1.05721E-18
 -1      3414 9.51862E-05-2.83938E-05-2.86250E-05-1.60031E-07 6.59194E-19 2.08691E-19
 -1      3415 9.52312E-05-2.84786E-05-2.86079E-05-9.62158E-08 2.07435E-18-1.51975E-18
 -1      3416 9.52326E-05-2.84941E-05-2.86026E-05-7.51205E-08 1.31147E-18-1.34001E-18
 -1      3417 9.52112E-05-2.84488E-05-2.86123E-05-1.06893E-07 1.70799E-18-8.42983E-19
 -1      3418 9.52384E-05-2.85088E-05-2.85981E-05-5.87959E-08-7.43793E-19-1.27234E-18
 -1      3419 9.52387E-05-2.85199E-05-2.85940E-05-4.38350E-08-1.28247E-18-1.81785E-18
 -1      3420 9.52265E-05-2.84881E-05-2.86021E-05-6.77184E-08 3.69071E-19-1.73734E-18
 -1      3421 9.52418E-05-2.85298E-05-2.85906E-05-3.28121E-08-2.51451E-19-1.17517E-18
 -1      3422 9.52416E-05-2.85374E-05-2.85877E-05-2.27932E-08-4.11508E-19-1.20768E-18
 -1      3423 9.52353E-05-2.85157E-05-2.85941E-05-3.99815E-08-6.52527E-19-9.71358E-19
 -1      3424 9.52433E-05-2.85448E-05-2.85849E-05-1.46404E-08-1.79480E-18-5.93472E-19
 -1      3425 9.52428E-05-2.85505E-05-2.85825E-05-7.52391E-09-1.28045E-18 6.87739E-19
 -1      3426 9.52402E-05-2.85352E-05-2.85879E-05-2.03571E-08-7.96453E-19-6.19983E-19
 -1      3427 9.52435E-05-2.85558E-05-2.85803E-05-2.15409E-09-5.13281E-19 9.55019E-19
 -1      3428 9.52430E-05-2.85600E-05-2.85785E-05 2.38476E-09 3.65056E-19 1.10150E-18
 -1      3429 9.52425E-05-2.85496E-05-2.85827E-05-6.51443E-09-7.72612E-19 1.98654E-18
 -1      3430 9.55451E-05-2.43870E-05-3.04882E-05 2.10249E-06 1.10958E-18-5.30818E-19
 -1      3431 1.04034E-04-3.28460E-05-3.05032E-05 7.67120E-06-1.76333E-19 6.39150E-20
 -1      3432 1.04463E-04-3.40638E-05-3.01906E-05 6.84711E-06-3.14047E-19 1.76676E-19
 -1      3433 1.04277E-04-3.47606E-05-2.98071E-05 5.52294E-06-3.12260E-19 1.16302E-21
 -1      3434 1.04230E-04-3.52028E-05-2.95778E-05 4.44404E-06-7.49068E-20-1.43988E-19
 -1      3435 1.06559E-04-3.56607E-05-3.03625E-05 5.90621E-06-2.22018E-19-9.11909E-20
 -1      3436 1.00308E-04-2.50640E-05-3.21865E-05 7.61226E-06 4.70408E-19 1.60633E-19
 -1      3437 1.01373E-04-2.71952E-05-3.18523E-05 8.51613E-06 3.16516E-19 1.78859E-19
 -1      3438 9.81925E-05-2.15813E-05-3.27974E-05 4.08013E-06 7.43692E-19 1.41136E-19
 -1      3439 9.89092E-05-2.30542E-05-3.25890E-05 5.93405E-06 5.67863E-19-6.68924E-20
 -1      3440 1.01683E-04-2.38142E-05-3.33446E-05 7.59195E-06 5.29058E-19-8.64635E-20
 -1      3441 9.74523E-05-2.04831E-05-3.29836E-05-9.68072E-07 4.48664E-19 1.71524E-19
 -1      3442 9.75335E-05-2.06283E-05-3.29635E-05 1.37670E-06 6.80785E-19-3.21939E-20
 -1      3443 9.97558E-05-2.04349E-05-3.39879E-05 3.10783E-06 5.75519E-19-1.90817E-19
 -1      3444 9.85012E-05-2.22902E-05-3.27036E-05-5.83406E-06 4.47376E-19 2.08550E-19
 -1      3445 9.78649E-05-2.10737E-05-3.28719E-05-3.78285E-06 6.05213E-19 9.36898E-20
 -1      3446 9.94345E-05-1.99258E-05-3.40906E-05-2.59127E-06 3.57180E-19-2.89513E-20
 -1      3447 1.00722E-04-2.61241E-05-3.20317E-05-8.83611E-06 2.32275E-19 3.10408E-20
 -1      3448 9.97052E-05-2.41329E-05-3.23394E-05-7.70851E-06 3.89248E-19-3.24139E-20
 -1      3449 1.01141E-04-2.28366E-05-3.35615E-05-7.43407E-06 5.58043E-19-2.09160E-19
 -1      3450 1.02883E-04-3.02465E-05-3.11796E-05-9.41450E-06 2.03831E-19 3.03785E-19
 -1      3451 1.01960E-04-2.82953E-05-3.15349E-05-9.33375E-06 2.69608E-19 5.32109E-20
 -1      3452 1.03666E-04-2.75133E-05-3.26047E-05-9.72500E-06 1.60652E-19 1.20732E-19
 -1      3453 1.04034E-04-3.32615E-05-3.03543E-05-8.09255E-06 3.19476E-19 9.53334E-19
 -1      3454 1.03530E-04-3.19233E-05-3.06801E-05-8.76621E-06 4.38168E-19 7.13459E-19
 -1      3455 1.05586E-04-3.19724E-05-3.15085E-05-9.34159E-06 1.44176E-19 2.63278E-19
 -1      3456 1.03934E-04-3.46694E-05-2.96832E-05-5.86957E-06 3.75236E-19 1.02118E-18
 -1      3457 1.03918E-04-3.40937E-05-2.99375E-05-6.87582E-06 3.46879E-19 8.78147E-19
 -1      3458 1.06091E-04-3.48445E-05-3.05109E-05-7.24075E-06 2.89927E-19 8.58601E-19
 -1      3459 1.02894E-04-3.47043E-05-2.92070E-05-3.58405E-06 1.29309E-21 1.61243E-18
 -1      3460 1.03250E-04-3.47439E-05-2.93806E-05-4.59562E-06 2.12414E-19 1.43650E-18
 -1      3461 1.05239E-04-3.58455E-05-2.97367E-05-4.63112E-06 2.72845E-19 1.29128E-18
 -1      3462 1.01386E-04-3.38798E-05-2.89083E-05-1.70002E-06-1.84200E-19 1.35833E-18
 -1      3463 1.01937E-04-3.42875E-05-2.90122E-05-2.53786E-06-1.82704E-20 1.55083E-18
 -1      3464 1.03549E-04-3.54254E-05-2.92069E-05-2.29585E-06 1.24889E-19 1.57577E-18
 -1      3465 9.98163E-05-3.26942E-05-2.87443E-05-3.61660E-07-5.81042E-19 1.60027E-18
 -1      3466 1.00408E-04-3.32459E-05-2.87976E-05-9.70324E-07-1.29652E-19 1.78768E-18
 -1      3467 1.01583E-04-3.42261E-05-2.88850E-05-5.73624E-07-4.82826E-19 1.97496E-18
 -1      3468 9.84281E-05-3.14911E-05-2.86689E-05 4.74259E-07-9.30676E-19 9.84282E-19
 -1      3469 9.89626E-05-3.20377E-05-2.86905E-05 8.02286E-08-6.80078E-19 1.56957E-18
 -1      3470 9.97399E-05-3.27850E-05-2.87138E-05 5.17680E-07-3.51172E-19 2.10122E-18
 -1      3471 9.73240E-05-3.04556E-05-2.86442E-05 9.20684E-07-7.08012E-19 5.58574E-19
 -1      3472 9.77574E-05-3.09194E-05-2.86489E-05 6.97720E-07-9.45950E-19 6.62543E-19
 -1      3473 9.82173E-05-3.14334E-05-2.86383E-05 1.10308E-06-8.53887E-19 1.81468E-18
 -1      3474 9.65128E-05-2.96554E-05-2.86439E-05 1.09764E-06-9.41189E-19 9.21526E-19
 -1      3475 9.68377E-05-3.00101E-05-2.86416E-05 9.97308E-07-4.79622E-19 8.83201E-19
 -1      3476 9.70686E-05-3.03272E-05-2.86165E-05 1.33633E-06-7.73637E-19 2.04861E-18
 -1      3477 9.59555E-05-2.90880E-05-2.86517E-05 1.10500E-06 2.99147E-19-1.16380E-19
 -1      3478 9.61840E-05-2.93373E-05-2.86482E-05 1.08528E-06-5.72574E-19-1.33461E-19
 -1      3479 9.62635E-05-2.95056E-05-2.86200E-05 1.35046E-06-2.21830E-20 6.67951E-19
 -1      3480 9.55961E-05-2.87175E-05-2.86590E-05 1.01634E-06 7.06126E-19-4.12134E-19
 -1      3481 9.57480E-05-2.88788E-05-2.86571E-05 1.04483E-06 8.62031E-19 8.56272E-20
 -1      3482 9.57362E-05-2.89439E-05-2.86317E-05 1.24303E-06 1.49057E-19-8.20730E-19
 -1      3483 9.53797E-05-2.84976E-05-2.86622E-05 8.81764E-07-1.05852E-18-2.36086E-19
 -1      3484 9.54754E-05-2.85924E-05-2.86627E-05 9.35406E-07-7.36289E-19-4.65897E-19
 -1      3485 9.54152E-05-2.85918E-05-2.86427E-05 1.07912E-06 1.21446E-19-9.90894E-19
 -1      3486 9.52602E-05-2.83843E-05-2.86606E-05 7.33035E-07-2.89480E-19 5.80740E-19
 -1      3487 9.53170E-05-2.84324E-05-2.86634E-05 7.96499E-07-4.33435E-19 6.87787E-20
 -1      3488 9.52370E-05-2.83943E-05-2.86493E-05 8.98845E-07-1.01584E-18-1.60164E-19
 -1      3489 9.52023E-05-2.83411E-05-2.86549E-05 5.88859E-07-6.73612E-19 8.63675E-19
 -1      3490 9.52337E-05-2.83587E-05-2.86594E-05 6.52634E-07-3.69161E-19 1.16691E-18
 -1      3491 9.51513E-05-2.83029E-05-2.86507E-05 7.24967E-07-8.40133E-19 7.62024E-19
 -1      3492 9.51809E-05-2.83402E-05-2.86465E-05 4.59124E-07-1.79935E-19 1.68367E-18
 -1      3493 9.51967E-05-2.83395E-05-2.86519E-05 5.17827E-07-2.75257E-19 1.49195E-18
 -1      3494 9.51215E-05-2.82787E-05-2.86476E-05 5.69019E-07-6.61517E-19 1.89761E-18
 -1      3495 9.51796E-05-2.83622E-05-2.86365E-05 3.48062E-07 1.02851E-18 1.02852E-18
 -1      3496 9.51863E-05-2.83518E-05-2.86424E-05 3.99095E-07 3.38233E-19 1.21668E-18
 -1      3497 9.51227E-05-2.82937E-05-2.86412E-05 4.35637E-07-1.98568E-20 2.40102E-18
 -1      3498 9.51876E-05-2.83944E-05-2.86262E-05 2.56459E-07 2.83961E-20 5.32935E-19
 -1      3499 9.51894E-05-2.83798E-05-2.86319E-05 2.99000E-07 5.49795E-19 5.22139E-19
 -1      3500 9.51386E-05-2.83284E-05-2.86330E-05 3.25439E-07 7.77302E-19 1.76064E-18
 -1      3501 9.51989E-05-2.84288E-05-2.86162E-05 1.83160E-07-8.05891E-19 9.33832E-19
 -1      3502 9.51984E-05-2.84134E-05-2.86215E-05 2.17448E-07-3.08207E-19 5.41352E-19
 -1      3503 9.51597E-05-2.83703E-05-2.86240E-05 2.36876E-07-2.44666E-19 1.81166E-18
 -1      3504 9.52101E-05-2.84610E-05-2.86072E-05 1.26034E-07-2.02236E-18 1.34800E-18
 -1      3505 9.52087E-05-2.84467E-05-2.86118E-05 1.52879E-07-1.45378E-18 1.15628E-18
 -1      3506 9.51806E-05-2.84120E-05-2.86150E-05 1.67371E-07-1.18205E-18 1.94313E-18
 -1      3507 9.52197E-05-2.84890E-05-2.85992E-05 8.25958E-08-1.11529E-18 1.00065E-18
 -1      3508 9.52182E-05-2.84766E-05-2.86031E-05 1.03058E-07-1.93687E-18 6.53062E-19
 -1      3509 9.51987E-05-2.84497E-05-2.86066E-05 1.13999E-07-1.91756E-18 5.92820E-19
 -1      3510 9.52271E-05-2.85119E-05-2.85925E-05 5.03679E-08 4.49540E-19 1.67283E-18
 -1      3511 9.52258E-05-2.85018E-05-2.85957E-05 6.55540E-08-7.38715E-20 1.81709E-18
 -1      3512 9.52130E-05-2.84815E-05-2.85992E-05 7.38818E-08-7.85483E-19 1.57070E-18
 -1      3513 9.52324E-05-2.85301E-05-2.85869E-05 2.70854E-08 2.70474E-19 1.13362E-18
 -1      3514 9.52315E-05-2.85221E-05-2.85895E-05 3.80355E-08 6.57525E-19 9.83462E-19
 -1      3515 9.52236E-05-2.85073E-05-2.85927E-05 4.43981E-08 5.68511E-19 2.69229E-18
 -1      3516 9.52359E-05-2.85441E-05-2.85823E-05 1.08002E-08 1.28966E-18 2.53085E-18
 -1      3517 9.52353E-05-2.85379E-05-2.85844E-05 1.84143E-08 9.96252E-19 2.11521E-18
 -1      3518 9.52310E-05-2.85275E-05-2.85872E-05 2.32673E-08 1.17940E-19 1.50394E-18
 -1      3519 9.52380E-05-2.85547E-05-2.85787E-05 1.93487E-11 1.27144E-18 1.91809E-18
 -1      3520 9.52377E-05-2.85500E-05-2.85803E-05 4.90442E-09 1.91890E-18 2.06588E-18
 -1      3521 9.52357E-05-2.85428E-05-2.85826E-05 8.56306E-09 1.56566E-18 2.92255E-18
 -1      3522 9.52411E-05-2.85621E-05-2.85766E-05-4.39427E-09 6.75506E-19-1.83536E-18
 -1      3523 1.03526E-04-3.51584E-05-2.93208E-05 3.14967E-06-9.12883E-20-3.84646E-19
 -1      3524 1.03141E-04-3.50014E-05-2.91823E-05 2.12881E-06-4.16215E-20-5.30186E-19
 -1      3525 1.05607E-04-3.63603E-05-2.96750E-05 3.19924E-06-3.53239E-19-9.39354E-20
 -1      3526 9.65115E-05-2.68701E-05-2.98558E-05-1.53056E-08 7.95436E-19-5.94422E-19
 -1      3527 9.61648E-05-2.58609E-05-3.01219E-05 7.79772E-07 8.85883E-19-6.17701E-19
 -1      3528 5.57156E-05-9.30607E-06-1.97725E-05 1.32260E-05-1.63247E-18-2.31664E-19
 -1      3529 5.44419E-05-7.24998E-06-2.01767E-05 4.30443E-06-1.39558E-18 2.26687E-19
 -1      3530 6.07751E-05-8.47871E-06-2.22997E-05 9.11466E-07-1.21363E-18-1.42659E-19
 -1      3531 9.35771E-05-3.61630E-05-2.47204E-05 2.77367E-05-2.30771E-18-2.19329E-18
 -1      3532 8.05019E-05-2.69195E-05-2.25992E-05 2.86098E-05-2.61479E-18-1.53755E-18
 -1      3533 1.02215E-04-3.44887E-05-2.90444E-05 1.11958E-06 2.46480E-19-4.87204E-19
 -1      3534 1.01672E-04-3.39740E-05-2.89873E-05 3.25438E-07 5.52856E-19-3.89215E-19
 -1      3535 1.02048E-04-3.42672E-05-2.90695E-05-6.70907E-07 3.33498E-19-8.43198E-19
 -1      3536 9.52421E-05-2.85690E-05-2.85741E-05 1.00679E-08-1.72953E-19-1.64574E-18
 -1      3537 6.99568E-05-2.06153E-05-2.13208E-05 2.66818E-05-2.42136E-18-9.18660E-19
 -1      3538 6.09539E-05-1.33447E-05-2.01298E-05 2.00065E-05-2.54523E-18-4.04988E-20
 -1      3539 6.39823E-05-1.28293E-05-2.18489E-05 1.50501E-05-2.15064E-18-6.94435E-19
 -1      3540 1.16764E-04-5.04383E-05-2.82006E-05-2.03257E-05-1.30263E-18-9.03653E-20
 -1      3541 1.23859E-04-5.28528E-05-3.07892E-05-1.18284E-05-9.35204E-19 3.99330E-19
 -1      3542 1.17129E-04-4.92825E-05-2.92267E-05 1.55242E-05-1.22485E-18-1.34015E-18
 -1      3543 1.07179E-04-4.43250E-05-2.68019E-05 2.32038E-05-2.01209E-18-2.24767E-18
 -1      3544 1.26753E-04-4.70343E-05-3.43453E-05-1.91316E-06-9.74363E-19-1.49381E-18
 -1      3545 1.23759E-04-4.97062E-05-3.17011E-05 6.06157E-06-1.06471E-18-1.53757E-18
 -1      3546 6.74075E-05-1.16685E-05-2.39039E-05-4.01285E-06 4.23755E-19-1.81601E-18
 -1      3547 6.14892E-05-1.00435E-05-2.20297E-05-5.80638E-06 7.51901E-19-1.96625E-18
 -1      3548 7.12285E-05-1.38697E-05-2.43850E-05-8.30019E-06 1.62362E-19-1.76237E-18
 -1      3549 1.02592E-04-2.93847E-05-3.13416E-05 8.64648E-06 8.02886E-20 7.21608E-20
 -1      3550 1.03460E-04-3.12700E-05-3.09847E-05 8.51994E-06-1.23670E-19-2.37858E-19
 -1      3551 1.06203E-04-3.30681E-05-3.13012E-05 8.30135E-06 1.45293E-19 2.84814E-19
 -1      3552 1.04465E-04-2.89268E-05-3.23575E-05 9.20224E-06 1.33434E-19 4.32185E-20
 -1      3553 9.93988E-05-3.17652E-05-2.89959E-05-1.13109E-06 2.86685E-19-5.87044E-19
 -1      3554 9.89083E-05-3.10381E-05-2.90630E-05-1.33898E-06 2.52403E-19-5.79866E-19
 -1      3555 1.00322E-04-3.25463E-05-2.90683E-05-1.52190E-06 2.65839E-19-9.17601E-19
 -1      3556 9.52432E-05-2.85625E-05-2.85775E-05 3.74090E-09-3.53286E-18-1.60965E-18
 -1      3557 9.52431E-05-2.85614E-05-2.85779E-05 2.31305E-09-4.25951E-18-5.61204E-19
 -1      3558 1.27616E-04-4.98073E-05-3.30636E-05-1.81614E-06-4.59701E-19 7.21235E-19
 -1      3559 1.26117E-04-4.37656E-05-3.55786E-05 6.01727E-06 1.60195E-19 6.79886E-19
 -1      3560 6.50824E-05-9.78398E-06-2.37010E-05 2.31815E-07-1.13422E-18-7.64302E-19
 -1      3561 7.03102E-05-1.16820E-05-2.51900E-05-5.52799E-07-1.11509E-18-9.95247E-19
 -1      3562 7.19969E-05-1.25226E-05-2.52087E-05 3.82518E-06-1.04119E-18-2.12806E-18
 -1      3563 6.46590E-05-1.00706E-05-2.30270E-05 6.44467E-06-1.26537E-18-1.38124E-18
 -1      3564 1.15120E-04-8.58689E-06-4.60261E-05 1.25485E-06 2.01827E-18-5.32837E-19
 -1      3565 1.15211E-04-9.47027E-06-4.56695E-05-3.76448E-06 1.60767E-18-7.26397E-19
 -1      3566 1.12123E-04-1.18012E-05-4.31958E-05 3.43347E-06 1.37034E-18 2.63427E-19
 -1      3567 9.28286E-05-2.01924E-05-3.10946E-05-2.24649E-06-6.12655E-19-1.41434E-18
 -1      3568 9.56995E-05-2.48215E-05-3.03719E-05 1.24097E-06 9.94940E-19-7.32845E-19
 -1      3569 9.50475E-05-2.33118E-05-3.07576E-05 2.00727E-06 1.08240E-18-1.05107E-18
 -1      3570 9.45894E-05-2.24975E-05-3.08943E-05 1.64951E-06 9.56871E-19-1.27490E-18
 -1      3571 9.57271E-05-2.48375E-05-3.03810E-05 6.90197E-07 9.04852E-19-8.52566E-19
 -1      3572 9.28837E-05-2.10566E-05-3.07965E-05-1.27481E-06-5.66117E-19-1.20122E-18
 -1      3573 9.23817E-05-2.06965E-05-3.07208E-05-1.24549E-06-5.01196E-19-1.33789E-18
 -1      3574 1.17289E-04-2.23529E-05-4.09532E-05-1.23966E-05 1.77295E-19-1.41873E-18
 -1      3575 1.22614E-04-2.73960E-05-4.10253E-05-1.31566E-05 3.55727E-19-1.79375E-18
 -1      3576 1.21014E-04-3.19241E-05-3.82554E-05-1.17602E-05-1.88968E-19-1.47498E-18
 -1      3577 9.88863E-05-3.07676E-05-2.92134E-05-1.72669E-06 3.83009E-19-7.82896E-19
 -1      3578 9.82680E-05-3.02362E-05-2.91645E-05-1.33890E-06 3.67920E-19-5.13432E-19
 -1      3579 9.78789E-05-2.94934E-05-2.92837E-05-1.25471E-06 5.00595E-19-4.87481E-19
 -1      3580 9.52424E-05-2.85672E-05-2.85751E-05 8.64793E-09-4.03316E-19-9.97864E-19
 -1      3581 9.52429E-05-2.85671E-05-2.85753E-05 8.00089E-09-7.75467E-19 5.75541E-19
 -1      3582 9.52434E-05-2.85660E-05-2.85760E-05 6.35415E-09-1.41501E-18-2.13086E-18
 -1      3583 9.52429E-05-2.85642E-05-2.85765E-05 6.11491E-09-6.69534E-19 2.77314E-20
 -1      3584 9.26043E-05-1.99369E-05-3.11469E-05-6.49185E-07 4.77437E-19-1.60765E-18
 -1      3585 9.22642E-05-1.95973E-05-3.11603E-05-1.10562E-06 3.75682E-19-1.61731E-18
 -1      3586 6.30860E-05-1.63248E-05-1.96753E-05-2.36055E-05-2.93219E-19-2.73099E-18
 -1      3587 7.23608E-05-2.13192E-05-2.17674E-05-2.46665E-05-3.20000E-19-2.06020E-18
 -1      3588 6.06735E-05-1.30707E-05-2.02521E-05-1.70157E-05 1.09519E-19-2.68618E-18
 -1      3589 9.52392E-05-2.85604E-05-2.85766E-05-5.31689E-09 1.00636E-18 1.80958E-18
 -1      3590 9.52387E-05-2.85576E-05-2.85775E-05-2.88606E-09 1.34212E-18 1.57058E-18
 -1      3591 9.52381E-05-2.85527E-05-2.85794E-05-1.16858E-10 2.02777E-18 2.14737E-18
 -1      3592 9.52399E-05-2.85569E-05-2.85784E-05-3.04731E-09 1.87248E-18-1.97353E-18
 -1      3593 9.52398E-05-2.85575E-05-2.85782E-05-3.74497E-09 2.35066E-18-1.86328E-18
 -1      3594 9.52390E-05-2.85532E-05-2.85795E-05-2.78745E-09 2.35573E-18-1.99732E-18
 -1      3595 9.52400E-05-2.85590E-05-2.85777E-05-4.23454E-09 1.83724E-18-9.55077E-19
 -1      3596 9.52400E-05-2.85599E-05-2.85772E-05-5.02535E-09 2.26920E-18 3.65562E-20
 -1      3597 1.22552E-04-4.89828E-05-3.15190E-05-5.49744E-06-8.50163E-19 6.46127E-19
 -1      3598 9.69838E-05-2.77610E-05-2.96443E-05-5.80646E-07 7.48375E-19-5.48256E-19
 -1      3599 9.66600E-05-2.68880E-05-2.99131E-05-4.06879E-07 7.34982E-19-7.97901E-19
 -1      3600 6.06846E-05-1.08608E-05-2.09765E-05-1.17876E-05 3.47707E-19-2.51293E-18
 -1      3601 1.09930E-04-1.20055E-05-4.20976E-05-3.73233E-06 1.12563E-18-2.42116E-19
 -1      3602 1.14455E-04-1.22490E-05-4.41451E-05-6.61698E-06 9.82717E-19-6.70956E-19
 -1      3603 1.13431E-04-1.53058E-05-4.21377E-05-9.15096E-06 5.64389E-19-9.80308E-19
 -1      3604 1.23549E-04-3.94959E-05-3.60698E-05 9.31104E-06 2.88507E-19 8.45240E-19
 -1      3605 1.18782E-04-3.41246E-05-3.63386E-05 1.09273E-05 7.49889E-20 7.81348E-19
 -1      3606 1.21108E-04-4.20414E-05-3.39557E-05 5.88221E-06-4.26101E-19 1.09351E-18
 -1      3607 9.21258E-05-2.03947E-05-3.07720E-05-1.65217E-06-3.43304E-19-1.59842E-18
 -1      3608 9.21138E-05-2.14824E-05-3.02601E-05-7.24486E-07-2.92894E-19-1.23579E-18
 -1      3609 9.18560E-05-1.99312E-05-3.08290E-05-1.65795E-06-1.90590E-19-1.66894E-18
 -1      3610 1.00918E-04-3.97587E-05-2.61149E-05 2.40409E-05-1.90085E-18-1.96984E-18
 -1      3611 9.34502E-05-3.34991E-05-2.57747E-05 2.21057E-05-1.83679E-18-1.95878E-18
 -1      3612 1.05305E-04-4.09368E-05-2.75291E-05 1.76960E-05-1.03989E-18-8.33163E-19
 -1      3613 9.52424E-05-2.85595E-05-2.85784E-05 1.03597E-09-4.07722E-18-9.63007E-19
 -1      3614 9.52418E-05-2.85585E-05-2.85786E-05-9.86988E-11-3.00143E-18-3.07479E-19
 -1      3615 9.52423E-05-2.85557E-05-2.85798E-05-5.71882E-11-4.57632E-18-6.61911E-19
 -1      3616 1.19972E-04-4.91059E-05-3.03102E-05 9.27597E-06-9.80496E-19-9.12215E-19
 -1      3617 1.13536E-04-4.57227E-05-2.91708E-05 1.18469E-05-3.99371E-19-4.59178E-19
 -1      3618 1.19318E-04-4.62253E-05-3.13201E-05 3.00405E-06-4.05160E-19-1.14634E-19
 -1      3619 9.34433E-05-2.04869E-05-3.12532E-05 1.59112E-06 8.39060E-19-1.51614E-18
 -1      3620 7.89399E-05-2.40382E-05-2.33892E-05 2.38814E-05-2.41525E-18-1.20148E-18
 -1      3621 1.16195E-04-2.12887E-05-4.09672E-05 1.15746E-05 1.13849E-18 1.34943E-19
 -1      3622 1.13016E-04-1.79166E-05-4.09180E-05 9.94044E-06 1.13751E-18 5.62006E-19
 -1      3623 1.16617E-04-2.65381E-05-3.86434E-05 1.19743E-05 1.06546E-18 2.89804E-19
 -1      3624 1.25434E-04-4.35326E-05-3.50912E-05-5.78242E-06-3.66024E-19-1.45158E-18
 -1      3625 1.21820E-04-4.41984E-05-3.33282E-05-3.45738E-06-2.63788E-19-5.04653E-19
 -1      3626 1.22196E-04-3.89324E-05-3.58457E-05-8.93965E-06-4.58721E-20-1.17877E-18
 -1      3627 1.03925E-04-3.56908E-05-2.92559E-05 9.10204E-07 7.24867E-20-6.87590E-19
 -1      3628 9.13545E-05-1.79383E-05-3.14431E-05-1.37726E-06 1.25253E-19-1.79354E-18
 -1      3629 9.73132E-05-2.85777E-05-2.94669E-05-9.66616E-07 6.48662E-19-5.43310E-19
 -1      3630 1.11660E-04-4.81917E-05-2.72571E-05-2.36223E-05-1.19559E-18-1.92035E-19
 -1      3631 1.14331E-04-4.74144E-05-2.85831E-05-1.65620E-05-1.27983E-18 9.04141E-20
 -1      3632 1.04993E-04-4.35083E-05-2.62240E-05-2.51322E-05-1.24736E-18-5.28793E-19
 -1      3633 9.30128E-05-2.04216E-05-3.11208E-05-2.53677E-07 5.31699E-19-1.63359E-18
 -1      3634 9.34654E-05-2.14546E-05-3.08545E-05-8.72592E-07 4.79581E-19-1.44268E-18
 -1      3635 9.34436E-05-2.09415E-05-3.10774E-05 2.55713E-07 6.38858E-19-1.58963E-18
 -1      3636 9.52432E-05-2.85614E-05-2.85779E-05 3.76971E-09-2.86422E-18 3.35237E-19
 -1      3637 9.52432E-05-2.85602E-05-2.85784E-05 2.79272E-09-6.71079E-19 1.90403E-18
 -1      3638 9.52402E-05-2.85564E-05-2.85788E-05-2.02453E-09-1.00176E-18-1.27103E-18
 -1      3639 9.52399E-05-2.85564E-05-2.85787E-05-2.75018E-09-1.94159E-19-1.86108E-18
 -1      3640 9.52387E-05-2.85510E-05-2.85803E-05-2.36470E-09 9.56578E-19-2.80282E-18
 -1      3641 9.52411E-05-2.85573E-05-2.85788E-05-7.78285E-10-1.78540E-18 1.20413E-18
 -1      3642 9.52406E-05-2.85567E-05-2.85789E-05-1.65663E-09-1.10821E-18 5.85420E-19
 -1      3643 9.52392E-05-2.85508E-05-2.85807E-05-2.06093E-09-1.55598E-18-6.82147E-19
 -1      3644 9.52405E-05-2.85524E-05-2.85805E-05-1.45997E-09-3.36709E-18 3.71817E-19
 -1      3645 9.52364E-05-2.85443E-05-2.85824E-05-1.37298E-09-2.57251E-19-4.47951E-18
 -1      3646 9.52363E-05-2.85450E-05-2.85821E-05-1.33546E-09 1.72609E-18-3.92305E-18
 -1      3647 9.52432E-05-2.85564E-05-2.85800E-05-1.76219E-10-2.25872E-18 1.65945E-18
 -1      3648 1.01051E-04-3.31980E-05-2.90871E-05-2.19036E-06 4.08811E-19-9.15456E-19
 -1      3649 1.00246E-04-3.22133E-05-2.91290E-05-2.37535E-06 3.07544E-19-8.10813E-19
 -1      3650 9.07094E-05-2.18629E-05-2.95136E-05-4.54539E-07-6.70441E-19-8.50756E-19
 -1      3651 8.96462E-05-2.15873E-05-2.92081E-05-5.00756E-07-7.40356E-19-1.04356E-18
 -1      3652 8.86942E-05-2.12912E-05-2.88833E-05-1.01605E-06-6.79034E-19-1.14213E-18
 -1      3653 8.71517E-05-2.07265E-05-2.85277E-05-1.49377E-06-7.96690E-19-1.13448E-18
 -1      3654 8.96457E-05-2.17880E-05-2.90493E-05-2.06420E-06-7.97103E-19-9.84498E-19
 -1      3655 8.57786E-05-2.01836E-05-2.81005E-05-2.57756E-06-6.44441E-19-1.06663E-18
 -1      3656 8.34953E-05-1.93512E-05-2.75748E-05-3.71103E-06-3.91195E-19-1.02309E-18
 -1      3657 8.73943E-05-2.12681E-05-2.83005E-05-3.85658E-06-5.22636E-19-8.98431E-19
 -1      3658 8.17684E-05-1.87551E-05-2.69829E-05-5.56888E-06-3.62812E-19-1.10274E-18
 -1      3659 7.86601E-05-1.78342E-05-2.61749E-05-7.59222E-06-2.41844E-19-1.27958E-18
 -1      3660 8.44053E-05-2.05943E-05-2.72964E-05-7.10079E-06-4.87334E-19-1.01662E-18
 -1      3661 1.09050E-04-1.37083E-05-4.09917E-05 5.32173E-06 1.14429E-18 5.61940E-19
 -1      3662 1.08189E-04-1.25375E-05-4.12305E-05 9.19287E-07 1.23156E-18 1.64998E-19
 -1      3663 9.19280E-05-1.98444E-05-3.08939E-05-1.79543E-06 4.69332E-20-1.64935E-18
 -1      3664 9.18997E-05-1.99602E-05-3.08631E-05-1.93252E-06-9.93788E-20-1.66472E-18
 -1      3665 9.21589E-05-2.13378E-05-3.03378E-05-1.64791E-06-1.21542E-19-1.43792E-18
 -1      3666 1.01412E-04-1.88085E-05-3.54526E-05-4.36738E-06 6.09506E-19-2.41772E-19
 -1      3667 1.00895E-04-1.78451E-05-3.55612E-05-1.46999E-06 4.31242E-19 1.35429E-19
 -1      3668 6.76465E-05-1.38531E-05-2.31879E-05 1.30162E-05-2.00728E-18-1.19252E-18
 -1      3669 7.76083E-05-1.64525E-05-2.62892E-05 4.93601E-06-9.86550E-19-1.33681E-18
 -1      3670 8.09068E-05-1.79709E-05-2.69763E-05 3.52898E-06-6.61567E-19-1.07678E-18
 -1      3671 8.29482E-05-1.90683E-05-2.74462E-05 2.08703E-06-9.90261E-19-1.26667E-18
 -1      3672 8.51289E-05-2.02503E-05-2.78089E-05 1.29397E-06-1.19112E-18-1.85370E-18
 -1      3673 8.27956E-05-1.95036E-05-2.70774E-05 5.30365E-06-6.14650E-19-8.78817E-19
 -1      3674 8.66491E-05-2.12414E-05-2.80820E-05 4.10969E-07-7.34017E-19-1.71385E-18
 -1      3675 8.81941E-05-2.22278E-05-2.82778E-05 2.10816E-08-3.80315E-19-1.82580E-18
 -1      3676 8.62622E-05-2.12571E-05-2.78112E-05 2.56272E-06-1.08260E-18-2.03846E-18
 -1      3677 8.93240E-05-2.30552E-05-2.84328E-05-4.68424E-07-7.47325E-19-2.60993E-18
 -1      3678 9.03863E-05-2.38307E-05-2.85314E-05-6.12853E-07-1.35419E-18-2.20552E-18
 -1      3679 8.88211E-05-2.28454E-05-2.82404E-05 9.61355E-07-1.12858E-18-2.04481E-18
 -1      3680 9.11729E-05-2.44601E-05-2.86114E-05-8.47407E-07-1.41790E-18-2.05712E-18
 -1      3681 9.18668E-05-2.50233E-05-2.86542E-05-8.57228E-07-1.22908E-18-1.71069E-18
 -1      3682 9.06743E-05-2.41614E-05-2.84792E-05 8.58397E-08-1.31492E-18-2.53319E-18
 -1      3683 9.24659E-05-2.55351E-05-2.86968E-05-9.59335E-07-1.17317E-18-1.76915E-18
 -1      3684 9.29595E-05-2.59789E-05-2.87118E-05-9.01792E-07-9.31158E-19-1.95502E-18
 -1      3685 9.20260E-05-2.52332E-05-2.86078E-05-3.52813E-07-1.03296E-18-2.32070E-18
 -1      3686 9.33818E-05-2.63646E-05-2.87290E-05-9.18701E-07-2.37349E-19-1.70222E-18
 -1      3687 9.37092E-05-2.66883E-05-2.87279E-05-8.32686E-07-5.19013E-19-1.06299E-18
 -1      3688 9.30182E-05-2.60876E-05-2.86721E-05-5.40257E-07-1.43042E-19-1.70338E-18
 -1      3689 9.40040E-05-2.69739E-05-2.87312E-05-8.06174E-07-1.06819E-18-4.11473E-19
 -1      3690 9.42195E-05-2.72088E-05-2.87226E-05-7.14612E-07-5.58751E-20-8.37253E-19
 -1      3691 9.37168E-05-2.67384E-05-2.86965E-05-5.75721E-07-3.14351E-19-1.47889E-18
 -1      3692 9.44238E-05-2.74184E-05-2.87187E-05-6.69404E-07 5.00683E-19-1.72999E-18
 -1      3693 9.45647E-05-2.75881E-05-2.87072E-05-5.84035E-07 6.87395E-19-2.28874E-18
 -1      3694 9.42037E-05-2.72264E-05-2.86989E-05-5.33095E-07-4.31512E-20-1.66724E-18
 -1      3695 9.47055E-05-2.77411E-05-2.86999E-05-5.34116E-07 6.64918E-19-2.24156E-18
 -1      3696 9.47972E-05-2.78637E-05-2.86880E-05-4.60085E-07-3.23177E-19-2.38889E-18
 -1      3697 9.45409E-05-2.75892E-05-2.86898E-05-4.56462E-07 2.28307E-19-2.97125E-18
 -1      3698 9.48899E-05-2.79703E-05-2.86801E-05-4.15258E-07-3.08122E-19-1.69718E-18
 -1      3699 9.49470E-05-2.80554E-05-2.86695E-05-3.56302E-07-2.18531E-20-1.18510E-18
 -1      3700 9.47686E-05-2.78518E-05-2.86761E-05-3.72965E-07 5.05195E-19-2.44068E-18
 -1      3701 9.50142E-05-2.81380E-05-2.86612E-05-3.14419E-07-3.77646E-19-3.88672E-19
 -1      3702 9.50534E-05-2.82032E-05-2.86513E-05-2.64550E-07 3.81608E-19-4.82416E-19
 -1      3703 9.49260E-05-2.80468E-05-2.86609E-05-2.93024E-07 3.48005E-19-1.48179E-18
 -1      3704 9.50991E-05-2.82634E-05-2.86437E-05-2.29788E-07 7.44828E-19-6.01717E-19
 -1      3705 9.51242E-05-2.83106E-05-2.86353E-05-1.90736E-07 5.62921E-19-7.42002E-19
 -1      3706 9.50367E-05-2.81946E-05-2.86455E-05-2.20944E-07 4.18380E-19-1.67884E-18
 -1      3707 9.51549E-05-2.83543E-05-2.86286E-05-1.62901E-07 3.23229E-19-9.74996E-19
 -1      3708 9.51708E-05-2.83885E-05-2.86217E-05-1.33002E-07 7.52297E-19-1.04057E-18
 -1      3709 9.51118E-05-2.83033E-05-2.86315E-05-1.61018E-07-1.38403E-19-2.17732E-18
 -1      3710 9.51912E-05-2.84202E-05-2.86159E-05-1.11398E-07 1.02268E-18-1.22293E-18
 -1      3711 9.52010E-05-2.84449E-05-2.86103E-05-8.89769E-08 1.60728E-18-1.71392E-18
 -1      3712 9.51622E-05-2.83828E-05-2.86193E-05-1.13118E-07 8.35887E-19-3.45998E-18
 -1      3713 9.52143E-05-2.84677E-05-2.86054E-05-7.26667E-08 1.22320E-18-9.37911E-19
 -1      3714 9.52202E-05-2.84855E-05-2.86009E-05-5.62261E-08-2.06392E-19-6.16079E-19
 -1      3715 9.51954E-05-2.84408E-05-2.86088E-05-7.60379E-08 1.44578E-18-1.71117E-18
 -1      3716 9.52282E-05-2.85011E-05-2.85971E-05-4.48109E-08-1.04290E-18 2.77107E-19
 -1      3717 9.52314E-05-2.85134E-05-2.85937E-05-3.34346E-08-4.30763E-19-3.50802E-20
 -1      3718 9.52164E-05-2.84820E-05-2.86003E-05-4.86942E-08 3.24223E-19-5.33115E-20
 -1      3719 9.52365E-05-2.85252E-05-2.85904E-05-2.47040E-08-2.72654E-19 1.09100E-18
 -1      3720 9.52383E-05-2.85345E-05-2.85875E-05-1.62445E-08-5.75718E-19 1.49508E-18
 -1      3721 9.52295E-05-2.85118E-05-2.85932E-05-2.86361E-08-2.29067E-20 1.45552E-18
 -1      3722 9.52411E-05-2.85428E-05-2.85848E-05-1.03075E-08-1.08183E-18 1.96385E-18
 -1      3723 9.52417E-05-2.85495E-05-2.85825E-05-4.47856E-09-5.08297E-19 2.29710E-18
 -1      3724 9.52373E-05-2.85338E-05-2.85872E-05-1.39177E-08-3.17537E-19 3.14540E-18
 -1      3725 1.08947E-04-3.70420E-05-3.08397E-05 5.76825E-06-3.23722E-19-8.75926E-20
 -1      3726 1.08775E-04-3.78221E-05-3.03995E-05 4.36947E-06-4.46055E-19-1.52020E-19
 -1      3727 1.02174E-04-1.70833E-05-3.64892E-05 1.62519E-06 7.18205E-19 2.76722E-19
 -1      3728 1.02615E-04-1.80590E-05-3.63164E-05 4.39171E-06 9.84768E-19 2.83356E-19
 -1      3729 1.03913E-04-2.35401E-05-3.45495E-05-9.11474E-06 3.96129E-20 1.33546E-19
 -1      3730 1.02672E-04-2.08920E-05-3.50063E-05-7.28826E-06 4.82240E-19-7.34834E-20
 -1      3731 1.04379E-04-1.92164E-05-3.65510E-05-6.43886E-06 2.53349E-19 2.81652E-19
 -1      3732 1.06969E-04-2.97662E-05-3.31699E-05-1.04751E-05 8.55371E-20 3.03929E-19
 -1      3733 1.05680E-04-2.67461E-05-3.37778E-05-1.01678E-05 5.52755E-20 1.86190E-19
 -1      3734 1.07478E-04-2.52527E-05-3.52071E-05-1.05105E-05-1.93951E-19 6.75899E-19
 -1      3735 1.08645E-04-3.46618E-05-3.17391E-05-8.81384E-06 7.43271E-20 3.16146E-19
 -1      3736 1.07945E-04-3.24605E-05-3.23336E-05-9.62665E-06 3.91521E-20 1.74302E-19
 -1      3737 1.10356E-04-3.22370E-05-3.34403E-05-1.02977E-05 3.52354E-19 8.23438E-19
 -1      3738 1.08332E-04-3.70302E-05-3.05401E-05-5.81599E-06 2.15977E-19 6.33136E-19
 -1      3739 1.08387E-04-3.60541E-05-3.10221E-05-7.06416E-06 4.45153E-19 1.52914E-19
 -1      3740 1.11011E-04-3.68914E-05-3.17875E-05-7.45565E-06 2.84684E-19-2.87708E-19
 -1      3741 1.06537E-04-3.72149E-05-2.96723E-05-2.81351E-06-2.68333E-19 8.27387E-19
 -1      3742 1.07200E-04-3.72429E-05-3.00140E-05-4.02436E-06-3.36892E-19 6.82647E-19
 -1      3743 1.09637E-04-3.86435E-05-3.04610E-05-3.81411E-06-2.91730E-19 3.86637E-20
 -1      3744 1.04071E-04-3.60408E-05-2.91171E-05-5.34502E-07-1.41354E-19 1.54832E-18
 -1      3745 1.05038E-04-3.66541E-05-2.93324E-05-1.47366E-06 6.32669E-20 1.45102E-18
 -1      3746 1.06937E-04-3.80861E-05-2.95562E-05-8.20388E-07-7.06939E-19 8.00943E-19
 -1      3747 1.01600E-04-3.43180E-05-2.88021E-05 8.80501E-07-6.69580E-19 2.13195E-18
 -1      3748 1.02597E-04-3.51423E-05-2.89223E-05 2.66201E-07-2.59404E-19 1.96551E-18
 -1      3749 1.03897E-04-3.63078E-05-2.90095E-05 1.13990E-06-4.35250E-19 1.90432E-18
 -1      3750 9.94878E-05-3.25858E-05-2.86482E-05 1.59932E-06-6.41331E-19 2.29336E-18
 -1      3751 1.00360E-04-3.33915E-05-2.87052E-05 1.25835E-06-6.32654E-19 2.38878E-18
 -1      3752 1.01154E-04-3.42285E-05-2.87177E-05 2.12831E-06-5.97495E-19 2.04897E-18
 -1      3753 9.78602E-05-3.11131E-05-2.85900E-05 1.84071E-06-8.18841E-19 2.01118E-18
 -1      3754 9.85463E-05-3.17865E-05-2.86102E-05 1.69560E-06-8.27483E-19 2.45378E-18
 -1      3755 9.89634E-05-3.23196E-05-2.85873E-05 2.45070E-06-1.01574E-18 2.47466E-18
 -1      3756 9.67033E-05-2.99898E-05-2.85819E-05 1.79883E-06-9.78200E-19 2.11318E-18
 -1      3757 9.72007E-05-3.04972E-05-2.85833E-05 1.77791E-06-8.32807E-19 2.37178E-18
 -1      3758 9.73656E-05-3.07941E-05-2.85477E-05 2.37381E-06-8.17903E-19 2.59842E-18
 -1      3759 9.59373E-05-2.92031E-05-2.85952E-05 1.61301E-06 7.04667E-19 8.01957E-19
 -1      3760 9.62737E-05-2.95549E-05-2.85892E-05 1.66225E-06-1.84960E-19 1.93436E-18
 -1      3761 9.62853E-05-2.96866E-05-2.85529E-05 2.10131E-06-4.28666E-19 1.87686E-18
 -1      3762 9.54667E-05-2.86960E-05-2.86137E-05 1.37059E-06 2.55791E-19 6.83462E-19
 -1      3763 9.56790E-05-2.89202E-05-2.86066E-05 1.45350E-06 7.42932E-19 8.79636E-19
 -1      3764 9.56068E-05-2.89453E-05-2.85752E-05 1.76021E-06 6.28703E-19 1.87705E-18
 -1      3765 9.52035E-05-2.84002E-05-2.86294E-05 1.12208E-06-3.63592E-19 6.56045E-19
 -1      3766 9.53272E-05-2.85291E-05-2.86241E-05 1.21600E-06 3.17606E-19 2.86879E-19
 -1      3767 9.52171E-05-2.84917E-05-2.85996E-05 1.42080E-06 4.01768E-19 1.71469E-18
 -1      3768 9.50766E-05-2.82524E-05-2.86393E-05 8.93192E-07-1.18287E-18 1.58529E-19
 -1      3769 9.51409E-05-2.83152E-05-2.86367E-05 9.85156E-07-1.31463E-18 2.28727E-19
 -1      3770 9.50212E-05-2.82457E-05-2.86192E-05 1.11670E-06-5.60443E-19 1.30260E-18
 -1      3771 9.50331E-05-2.82011E-05-2.86431E-05 6.94787E-07-1.57988E-18 2.04418E-18
 -1      3772 9.50603E-05-2.82212E-05-2.86432E-05 7.78125E-07-1.55026E-18 1.36350E-18
 -1      3773 9.49468E-05-2.81395E-05-2.86317E-05 8.59778E-07-2.11932E-18 1.85423E-18
 -1      3774 9.50364E-05-2.82077E-05-2.86419E-05 5.29443E-07-3.18858E-19 1.97553E-18
 -1      3775 9.50422E-05-2.82025E-05-2.86440E-05 6.01344E-07-1.08570E-18 1.76654E-18
 -1      3776 9.49427E-05-2.81209E-05-2.86375E-05 6.50565E-07-1.14859E-18 1.27183E-18
 -1      3777 9.50628E-05-2.82453E-05-2.86370E-05 3.95477E-07 2.24586E-19 2.49840E-18
 -1      3778 9.50574E-05-2.82268E-05-2.86405E-05 4.55380E-07-1.63152E-19 2.17993E-18
 -1      3779 9.49748E-05-2.81520E-05-2.86377E-05 4.84420E-07-4.49626E-19 2.17661E-18
 -1      3780 9.50975E-05-2.82962E-05-2.86300E-05 2.89293E-07 5.31549E-19 2.83428E-18
 -1      3781 9.50874E-05-2.82723E-05-2.86342E-05 3.37856E-07 1.04717E-18 3.23596E-18
 -1      3782 9.50217E-05-2.82075E-05-2.86340E-05 3.54864E-07-1.53997E-19 3.39552E-18
 -1      3783 9.51322E-05-2.83494E-05-2.86219E-05 2.06690E-07-1.10026E-19 2.40517E-18
 -1      3784 9.51211E-05-2.83249E-05-2.86263E-05 2.45161E-07-2.13939E-20 2.12963E-18
 -1      3785 9.50707E-05-2.82710E-05-2.86278E-05 2.55299E-07 6.06847E-19 2.73060E-18
 -1      3786 9.51628E-05-2.83989E-05-2.86136E-05 1.43527E-07-1.12772E-18 1.16179E-18
 -1      3787 9.51526E-05-2.83763E-05-2.86180E-05 1.73372E-07 2.79799E-21 1.94254E-18
 -1      3788 9.51152E-05-2.83330E-05-2.86204E-05 1.79761E-07 1.12900E-19 1.93624E-18
 -1      3789 9.51876E-05-2.84418E-05-2.86058E-05 9.60372E-08-1.74562E-18 4.64450E-19
 -1      3790 9.51792E-05-2.84224E-05-2.86098E-05 1.18731E-07-1.58263E-18 9.88498E-19
 -1      3791 9.51525E-05-2.83886E-05-2.86127E-05 1.23160E-07-7.44613E-19 1.15072E-18
 -1      3792 9.52066E-05-2.84771E-05-2.85987E-05 6.09619E-08-3.93127E-19-7.97618E-19
 -1      3793 9.52002E-05-2.84612E-05-2.86022E-05 7.78648E-08-1.52043E-18-9.21764E-19
 -1      3794 9.51817E-05-2.84355E-05-2.86052E-05 8.13007E-08-7.99918E-19-1.60420E-18
 -1      3795 9.52202E-05-2.85051E-05-2.85925E-05 3.55674E-08 8.35080E-19-4.64988E-19
 -1      3796 9.52156E-05-2.84925E-05-2.85955E-05 4.78753E-08 4.61455E-19-2.49262E-19
 -1      3797 9.52035E-05-2.84735E-05-2.85984E-05 5.08033E-08-2.80539E-19-2.36799E-18
 -1      3798 9.52295E-05-2.85266E-05-2.85871E-05 1.75948E-08-5.24040E-19 3.15061E-19
 -1      3799 9.52264E-05-2.85169E-05-2.85896E-05 2.63555E-08-4.09901E-19-5.64506E-20
 -1      3800 9.52189E-05-2.85033E-05-2.85923E-05 2.89882E-08-6.80031E-19-1.63652E-18
 -1      3801 9.52353E-05-2.85428E-05-2.85826E-05 5.16900E-09 1.83271E-18 1.64599E-18
 -1      3802 9.52334E-05-2.85355E-05-2.85847E-05 1.13488E-08 1.60988E-18 1.40767E-18
 -1      3803 9.52292E-05-2.85260E-05-2.85870E-05 1.37919E-08-2.99650E-19-5.43005E-19
 -1      3804 9.52397E-05-2.85652E-05-2.85748E-05-8.24165E-09 5.12530E-19 7.93633E-19
 -1      3805 1.07627E-04-3.78387E-05-2.99397E-05 2.66283E-06-4.08043E-19-2.70757E-19
 -1      3806 1.06921E-04-3.76598E-05-2.96513E-05 1.40664E-06-3.58920E-19-4.14032E-19
 -1      3807 1.10048E-04-3.92298E-05-3.03516E-05 2.45777E-06-4.68116E-19-2.25293E-19
 -1      3808 6.70704E-05-1.48844E-05-2.23669E-05-1.58836E-05 1.81824E-19-2.21125E-18
 -1      3809 8.43882E-05-2.93409E-05-2.34788E-05-2.68933E-05-6.51170E-19-1.48237E-18
 -1      3810 9.45915E-05-3.71254E-05-2.47247E-05-2.78567E-05-1.08259E-18-1.19511E-18
 -1      3811 1.03146E-04-3.52200E-05-2.91256E-05-1.41362E-06 1.01175E-19-6.04448E-19
 -1      3812 1.02215E-04-3.42727E-05-2.90837E-05-1.93863E-06 2.59848E-19-7.40151E-19
 -1      3813 1.01908E-04-3.40427E-05-2.91184E-05-2.95035E-06 2.24196E-19-6.95930E-19
 -1      3814 8.30469E-05-2.55946E-05-2.47341E-05 2.10263E-05-2.07006E-18-1.22991E-18
 -1      3815 7.52531E-05-1.92152E-05-2.36924E-05 1.93109E-05-2.42823E-18-5.87401E-19
 -1      3816 7.66511E-05-1.75212E-05-2.53027E-05-1.04325E-05-1.79415E-19-1.34917E-18
 -1      3817 7.26594E-05-1.67573E-05-2.40262E-05-1.36497E-05-5.66685E-20-1.73435E-18
 -1      3818 8.08019E-05-2.02317E-05-2.58793E-05-1.22078E-05-3.07750E-19-1.05447E-18
 -1      3819 1.05475E-04-3.69615E-05-2.93865E-05 1.86690E-07-1.88910E-19-6.74615E-19
 -1      3820 1.04541E-04-3.62367E-05-2.92354E-05-7.23907E-07 1.06279E-19-5.60937E-19
 -1      3821 1.07361E-04-3.83468E-05-2.95994E-05-4.12244E-07-4.32679E-19-4.15256E-19
 -1      3822 9.22038E-05-1.97782E-05-3.10403E-05-1.43744E-06 3.19466E-19-1.48835E-18
 -1      3823 9.19999E-05-1.96486E-05-3.10305E-05-1.74253E-06 1.04304E-19-1.61056E-18
 -1      3824 9.25802E-05-2.13815E-05-3.05064E-05-1.95661E-06 1.26662E-19-1.44623E-18
 -1      3825 9.29247E-05-2.11406E-05-3.07603E-05-1.57652E-06 3.83564E-19-1.44584E-18
 -1      3826 1.18755E-04-4.79977E-05-3.02084E-05-8.46175E-06-9.59774E-19 5.43309E-19
 -1      3827 1.20735E-04-4.63417E-05-3.20181E-05-4.11606E-07-8.74618E-19 8.07117E-19
 -1      3828 9.42481E-05-2.20221E-05-3.09639E-05 1.20452E-06 8.94521E-19-1.41971E-18
 -1      3829 9.37872E-05-2.13623E-05-3.10466E-05 7.21056E-07 7.65844E-19-1.50277E-18
 -1      3830 9.42622E-05-2.23728E-05-3.07996E-05-9.92817E-08 6.61636E-19-1.31782E-18
 -1      3831 9.49180E-05-2.32636E-05-3.06968E-05 7.33484E-07 9.19296E-19-1.21411E-18
 -1      3832 9.67050E-05-2.69171E-05-2.99139E-05-9.38319E-07 6.74704E-19-1.04725E-18
 -1      3833 9.62128E-05-2.58634E-05-3.01355E-05-3.10841E-07 8.14129E-19-9.71605E-19
 -1      3834 9.76907E-05-2.88876E-05-2.95041E-05-1.35615E-06 5.39307E-19-7.67320E-19
 -1      3835 9.18223E-05-2.17855E-05-3.00348E-05-6.44306E-07-3.35668E-19-1.01038E-18
 -1      3836 9.12117E-05-2.18661E-05-2.97458E-05-3.70679E-07-4.50299E-19-1.01724E-18
 -1      3837 9.10262E-05-2.18485E-05-2.96090E-05-1.35208E-06-4.94713E-19-9.91732E-19
 -1      3838 9.17597E-05-2.15078E-05-3.00767E-05-1.24860E-06-1.89706E-19-1.34866E-18
 -1      3839 9.52415E-05-2.85507E-05-2.85819E-05-3.12929E-09-2.02161E-18 6.79085E-19
 -1      3840 9.52397E-05-2.85617E-05-2.85763E-05-6.15817E-09 1.79820E-18 6.63683E-19
 -1      3841 9.93411E-05-3.11799E-05-2.92153E-05-2.30580E-06 3.24933E-19-9.59694E-19
 -1      3842 9.86956E-05-3.02179E-05-2.93229E-05-2.20799E-06 3.87094E-19-8.59421E-19
 -1      3843 9.98500E-05-3.17408E-05-2.92171E-05-2.98026E-06 1.95859E-19-9.58836E-19
 -1      3844 1.08684E-04-3.38514E-05-3.20508E-05 8.64085E-06 1.89100E-19 8.24153E-20
 -1      3845 1.09285E-04-3.58641E-05-3.15058E-05 7.58322E-06-1.36799E-20 2.68165E-19
 -1      3846 1.11635E-04-3.79645E-05-3.15408E-05 6.11595E-06-2.82853E-19 5.87728E-20
 -1      3847 7.33389E-05-1.62583E-05-2.45236E-05 1.18978E-05-1.88655E-18-1.31464E-18
 -1      3848 1.07138E-04-1.39508E-05-4.00604E-05-1.65681E-06 9.55268E-19 4.94939E-19
 -1      3849 1.04475E-04-3.63749E-05-2.92197E-05-2.18074E-06-1.44711E-20-5.65570E-19
 -1      3850 1.09441E-04-1.82072E-05-3.91827E-05 7.70265E-06 1.06467E-18 6.89290E-19
 -1      3851 9.57039E-05-2.48577E-05-3.03700E-05 9.59587E-08 8.37149E-19-1.06733E-18
 -1      3852 1.00912E-04-3.93729E-05-2.62730E-05-2.29875E-05-1.08805E-18-5.10681E-19
 -1      3853 7.53571E-05-2.12752E-05-2.31504E-05-2.12204E-05-3.42949E-19-1.64081E-18
 -1      3854 7.99164E-05-2.54992E-05-2.32145E-05-2.51280E-05-5.60392E-19-1.54708E-18
 -1      3855 8.67226E-05-2.87751E-05-2.47308E-05-2.28404E-05-8.40126E-19-9.83041E-19
 -1      3856 7.42069E-05-1.89465E-05-2.35025E-05-1.79795E-05-1.58180E-19-1.66590E-18
 -1      3857 1.06284E-04-2.16362E-05-3.62935E-05 8.71651E-06 1.02171E-18 6.71866E-19
 -1      3858 1.17073E-04-4.43354E-05-3.12453E-05-3.68817E-07-6.96641E-19 5.83859E-19
 -1      3859 1.20289E-04-4.41979E-05-3.25560E-05 3.15571E-06-7.58154E-19 8.09006E-19
 -1      3860 1.17717E-04-4.05897E-05-3.30479E-05 6.13615E-06-4.65200E-19 9.45874E-19
 -1      3861 9.52371E-05-2.85444E-05-2.85827E-05-2.38122E-09-1.39646E-18-4.88135E-19
 -1      3862 9.52366E-05-2.85440E-05-2.85826E-05-2.32000E-09-8.47579E-19-2.00883E-18
 -1      3863 9.52340E-05-2.85367E-05-2.85845E-05-1.42253E-09 3.07354E-20-3.83876E-18
 -1      3864 1.13128E-04-2.03412E-05-3.98701E-05-1.03854E-05 1.95823E-19-4.85429E-19
 -1      3865 1.07967E-04-2.49601E-05-3.56463E-05 9.99273E-06 8.02107E-19 7.49776E-19
 -1      3866 9.52382E-05-2.85516E-05-2.85799E-05-3.59133E-10 1.57959E-18 7.40477E-19
 -1      3867 9.52363E-05-2.85455E-05-2.85818E-05 1.66371E-09 1.97121E-18-2.07411E-19
 -1      3868 1.12656E-04-4.54088E-05-2.86986E-05-1.41222E-05-1.09941E-18 1.49587E-20
 -1      3869 1.16438E-04-4.77421E-05-2.95421E-05-1.15885E-05-9.44200E-19 3.03484E-19
 -1      3870 1.15973E-04-4.54284E-05-3.01864E-05-5.90729E-06-8.12487E-19 4.66030E-19
 -1      3871 1.09399E-04-4.30653E-05-2.83270E-05 1.43195E-05-4.20871E-19-6.37713E-19
 -1      3872 1.03582E-04-3.91590E-05-2.76777E-05 1.53711E-05-3.57488E-19-2.95883E-19
 -1      3873 9.52399E-05-2.85475E-05-2.85825E-05-3.45457E-09-2.94397E-18 8.00945E-19
 -1      3874 9.52389E-05-2.85454E-05-2.85830E-05-4.08316E-09-3.40884E-18 6.30390E-19
 -1      3875 9.52383E-05-2.85389E-05-2.85853E-05-8.14606E-09-9.96843E-19 2.00001E-18
 -1      3876 1.19468E-04-4.44770E-05-3.20618E-05-1.51837E-06-1.42962E-19 1.66700E-19
 -1      3877 1.16020E-04-4.42485E-05-3.08111E-05 1.80460E-06 1.65889E-19 1.82713E-19
 -1      3878 8.95961E-05-2.94768E-05-2.56260E-05 2.04000E-05-1.47690E-18-2.32239E-18
 -1      3879 8.57133E-05-2.55452E-05-2.58229E-05 1.68991E-05-1.55546E-18-1.12153E-18
 -1      3880 9.50441E-05-3.28057E-05-2.67133E-05 1.74717E-05-1.05192E-18-1.42316E-18
 -1      3881 9.35421E-05-2.21547E-05-3.05848E-05-1.74432E-06 3.72289E-19-1.37376E-18
 -1      3882 9.33761E-05-2.22941E-05-3.04689E-05-2.06259E-06 2.98549E-19-1.35212E-18
 -1      3883 9.72874E-05-2.79305E-05-2.97042E-05-1.49323E-06 5.65130E-19-8.76662E-19
 -1      3884 9.67441E-05-2.69786E-05-2.99092E-05-1.48325E-06 5.63522E-19-9.81013E-19
 -1      3885 1.11612E-04-4.35091E-05-2.92246E-05 9.16876E-06-2.71721E-19-5.92071E-19
 -1      3886 1.17903E-04-4.18039E-05-3.26881E-05-4.77201E-06 2.37348E-19 1.92343E-19
 -1      3887 9.52358E-05-2.85440E-05-2.85823E-05 2.48870E-10 2.13697E-18-2.67494E-18
 -1      3888 9.52362E-05-2.85456E-05-2.85818E-05-8.99632E-12 1.95159E-18-1.78606E-18
 -1      3889 9.52330E-05-2.85352E-05-2.85847E-05 5.44074E-09 1.15457E-18-9.35743E-19
 -1      3890 9.52331E-05-2.85360E-05-2.85845E-05 1.75893E-09 9.17703E-19-4.46699E-18
 -1      3891 9.78642E-05-2.90210E-05-2.95093E-05-1.88190E-06 4.39014E-19-8.69642E-19
 -1      3892 9.45134E-05-2.32393E-05-3.05460E-05-1.12471E-06 5.81301E-19-1.36954E-18
 -1      3893 9.40692E-05-2.27458E-05-3.05712E-05-1.46075E-06 5.09779E-19-1.41839E-18
 -1      3894 9.45624E-05-2.38947E-05-3.02863E-05-2.01910E-06 4.31017E-19-1.31139E-18
 -1      3895 9.52399E-05-2.85607E-05-2.85769E-05-5.29651E-09 2.04038E-18 3.07785E-20
 -1      3896 1.17036E-04-3.11975E-05-3.68313E-05-1.18499E-05 1.28378E-20-1.04298E-18
 -1      3897 1.20876E-04-3.57914E-05-3.65311E-05-1.08203E-05 1.97729E-20-1.75527E-18
 -1      3898 8.93411E-05-2.25949E-05-2.85802E-05-4.39333E-06-6.44965E-19-7.57560E-19
 -1      3899 8.80139E-05-2.24515E-05-2.81577E-05-5.68376E-06-4.96115E-19-8.05359E-19
 -1      3900 8.74625E-05-2.26349E-05-2.77398E-05-7.41243E-06-4.75682E-19-9.25608E-19
 -1      3901 8.57759E-05-2.25564E-05-2.71741E-05-9.55260E-06-5.69353E-19-9.40091E-19
 -1      3902 8.96536E-05-2.41826E-05-2.80556E-05-7.84217E-06-6.51935E-19-6.12196E-19
 -1      3903 9.23100E-05-2.19159E-05-3.01426E-05-2.23210E-06-1.54380E-20-1.34302E-18
 -1      3904 9.20340E-05-2.18329E-05-3.01081E-05-1.84829E-06-1.96610E-20-1.34353E-18
 -1      3905 9.17801E-05-2.21169E-05-2.98749E-05-1.88211E-06-1.21635E-19-1.23681E-18
 -1      3906 9.62404E-05-3.49647E-05-2.61743E-05-2.11625E-05-7.34663E-19-6.71717E-19
 -1      3907 1.04990E-04-4.15170E-05-2.74032E-05-1.91348E-05-9.35363E-19-1.38583E-19
 -1      3908 7.63477E-05-1.72548E-05-2.53626E-05 1.00919E-05-1.56457E-18-1.41492E-18
 -1      3909 7.99102E-05-1.96792E-05-2.57837E-05 1.19438E-05-1.08957E-18-3.26267E-19
 -1      3910 8.63272E-05-2.19404E-05-2.76442E-05 4.39180E-06-7.64184E-19-1.85545E-18
 -1      3911 8.77977E-05-2.26183E-05-2.79172E-05 3.25547E-06-7.85955E-19-1.75358E-18
 -1      3912 8.86296E-05-2.31340E-05-2.81092E-05 2.24740E-06-9.84879E-19-1.65635E-18
 -1      3913 8.97388E-05-2.37631E-05-2.82688E-05 1.58286E-06-1.13338E-18-1.88448E-18
 -1      3914 8.89941E-05-2.36755E-05-2.79719E-05 3.85335E-06-5.66181E-19-2.27208E-18
 -1      3915 9.03969E-05-2.42382E-05-2.83814E-05 9.87162E-07-1.51308E-18-1.25356E-18
 -1      3916 9.11770E-05-2.47478E-05-2.84679E-05 6.33157E-07-1.22265E-18-1.55616E-18
 -1      3917 9.04430E-05-2.44300E-05-2.82714E-05 2.12130E-06-9.05581E-19-1.63545E-18
 -1      3918 9.17347E-05-2.51866E-05-2.85389E-05 2.56436E-07-5.33515E-19-1.78899E-18
 -1      3919 9.23281E-05-2.56251E-05-2.85871E-05 7.00389E-08-5.37648E-19-1.26600E-18
 -1      3920 9.16328E-05-2.52010E-05-2.84562E-05 1.05330E-06-9.34430E-19-7.53884E-19
 -1      3921 9.27555E-05-2.59899E-05-2.86260E-05-1.36619E-07-3.79626E-19-1.22444E-18
 -1      3922 9.31753E-05-2.63329E-05-2.86480E-05-2.10948E-07-1.57980E-19-1.13474E-18
 -1      3923 9.25920E-05-2.59078E-05-2.85677E-05 4.02752E-07-4.46465E-19-2.60662E-19
 -1      3924 9.34962E-05-2.66244E-05-2.86670E-05-3.13062E-07 2.69143E-20-1.63992E-18
 -1      3925 9.37901E-05-2.68880E-05-2.86740E-05-3.24695E-07-1.99473E-19-1.25649E-18
 -1      3926 9.33230E-05-2.65049E-05-2.86279E-05 4.56170E-08 3.73772E-21-1.03371E-18
 -1      3927 9.40272E-05-2.71154E-05-2.86812E-05-3.65087E-07-6.55478E-19-1.24761E-18
 -1      3928 9.42313E-05-2.73155E-05-2.86800E-05-3.44860E-07-1.28484E-19-1.65009E-18
 -1      3929 9.38686E-05-2.69898E-05-2.86562E-05-1.30501E-07-4.67969E-19-1.81675E-18
 -1      3930 9.44043E-05-2.74902E-05-2.86802E-05-3.50999E-07 1.21452E-19-2.13417E-18
 -1      3931 9.45451E-05-2.76409E-05-2.86749E-05-3.17232E-07 1.45899E-19-2.08016E-18
 -1      3932 9.42701E-05-2.73741E-05-2.86654E-05-2.00014E-07-4.19769E-19-2.39483E-18
 -1      3933 9.46648E-05-2.77680E-05-2.86716E-05-3.06983E-07 6.22501E-19-2.76239E-18
 -1      3934 9.47578E-05-2.78762E-05-2.86650E-05-2.71587E-07 1.12673E-18-2.62229E-18
 -1      3935 9.45562E-05-2.76669E-05-2.86637E-05-2.10989E-07 7.92811E-19-2.81661E-18
 -1      3936 9.48491E-05-2.79782E-05-2.86598E-05-2.53328E-07 7.50847E-19-3.01852E-18
 -1      3937 9.49166E-05-2.80638E-05-2.86523E-05-2.18208E-07 4.41001E-20-2.81339E-18
 -1      3938 9.47641E-05-2.78944E-05-2.86563E-05-1.92637E-07 8.38481E-19-2.78985E-18
 -1      3939 9.49815E-05-2.81406E-05-2.86465E-05-1.98227E-07 8.85493E-21-3.11370E-18
 -1      3940 9.50274E-05-2.82042E-05-2.86394E-05-1.67590E-07 2.82475E-19-2.95712E-18
 -1      3941 9.49173E-05-2.80732E-05-2.86459E-05-1.61460E-07 8.89596E-20-4.05382E-18
 -1      3942 9.50730E-05-2.82616E-05-2.86336E-05-1.48883E-07-2.36423E-19-2.68400E-18
 -1      3943 9.51040E-05-2.83087E-05-2.86272E-05-1.23541E-07-2.56056E-20-3.05296E-18
 -1      3944 9.50260E-05-2.82089E-05-2.86348E-05-1.27419E-07 4.36504E-19-4.05172E-18
 -1      3945 9.51357E-05-2.83514E-05-2.86219E-05-1.07469E-07 1.96512E-19-2.05863E-18
 -1      3946 9.51562E-05-2.83861E-05-2.86163E-05-8.73161E-08 1.37845E-18-2.55907E-18
 -1      3947 9.51021E-05-2.83111E-05-2.86240E-05-9.56630E-08 7.31890E-19-3.14729E-18
 -1      3948 9.51779E-05-2.84175E-05-2.86115E-05-7.42738E-08 1.85743E-18-1.95005E-18
 -1      3949 9.51913E-05-2.84430E-05-2.86068E-05-5.87790E-08 1.58706E-18-1.10130E-18
 -1      3950 9.51546E-05-2.83874E-05-2.86140E-05-6.84740E-08 1.99239E-18-2.01538E-18
 -1      3951 9.52051E-05-2.84649E-05-2.86029E-05-4.91477E-08 1.79986E-18-1.25850E-18
 -1      3952 9.52132E-05-2.84827E-05-2.85991E-05-3.79830E-08 7.46529E-19-4.35311E-19
 -1      3953 9.51894E-05-2.84427E-05-2.86054E-05-4.69417E-08 1.49572E-18-2.35141E-18
 -1      3954 9.52226E-05-2.84995E-05-2.85955E-05-3.02282E-08 8.05694E-19 6.62815E-19
 -1      3955 9.52278E-05-2.85130E-05-2.85922E-05-2.17556E-08 1.27534E-18 2.25003E-18
 -1      3956 9.52124E-05-2.84834E-05-2.85980E-05-3.02196E-08 1.24859E-18-7.24854E-19
 -1      3957 9.52323E-05-2.85220E-05-2.85900E-05-1.74324E-08 1.82122E-19 2.49486E-18
 -1      3958 9.52354E-05-2.85320E-05-2.85872E-05-1.14918E-08-4.75831E-19 2.46804E-18
 -1      3959 9.52332E-05-2.85284E-05-2.85879E-05-1.08737E-08-1.34401E-18 2.44792E-18
 -1      3960 9.52257E-05-2.85106E-05-2.85922E-05-1.84603E-08 1.80291E-18 1.24311E-18
 -1      3961 1.13501E-04-4.02868E-05-3.12968E-05-4.30294E-06-3.04200E-19 5.46072E-20
 -1      3962 1.13790E-04-3.89408E-05-3.20968E-05-6.22398E-06 4.54370E-19 2.99489E-19
 -1      3963 1.10297E-04-4.01147E-05-2.99769E-05-4.21493E-07-4.46327E-19 1.75111E-19
 -1      3964 1.11465E-04-4.02639E-05-3.05375E-05-2.10803E-06-3.34879E-19 1.21218E-19
 -1      3965 1.13595E-04-4.21020E-05-3.07150E-05-4.09514E-07-2.57786E-19 7.73758E-19
 -1      3966 1.06366E-04-3.81388E-05-2.91761E-05 2.14410E-06-7.22389E-19 6.07536E-19
 -1      3967 1.07946E-04-3.90683E-05-2.95235E-05 9.84273E-07-1.01802E-18-1.27362E-19
 -1      3968 1.09221E-04-4.05234E-05-2.95325E-05 2.93639E-06-5.74300E-19 1.60804E-21
 -1      3969 1.02798E-04-3.56101E-05-2.87487E-05 3.25978E-06-1.02348E-18 8.66949E-19
 -1      3970 1.04320E-04-3.67467E-05-2.89406E-05 2.65275E-06-5.43330E-19 5.66424E-19
 -1      3971 1.04672E-04-3.74738E-05-2.88632E-05 4.49635E-06-7.90668E-19-4.73478E-20
 -1      3972 9.99349E-05-3.32475E-05-2.85547E-05 3.51857E-06-9.63488E-19 1.31811E-18
 -1      3973 1.01198E-04-3.43173E-05-2.86447E-05 3.31525E-06-7.97387E-19 1.16927E-18
 -1      3974 1.01154E-04-3.46636E-05-2.85540E-05 4.83622E-06-9.51629E-19 1.01014E-19
 -1      3975 9.78604E-05-3.13494E-05-2.84932E-05 3.25936E-06-8.32018E-19 1.27430E-18
 -1      3976 9.88137E-05-3.22123E-05-2.85247E-05 3.29677E-06-1.04569E-18 1.64277E-18
 -1      3977 9.85251E-05-3.22524E-05-2.84438E-05 4.41398E-06-1.08126E-18 2.92810E-19
 -1      3978 9.64717E-05-2.99705E-05-2.84971E-05 2.78022E-06-6.52393E-19 1.33066E-18
 -1      3979 9.71334E-05-3.06007E-05-2.84987E-05 2.93762E-06-6.70176E-19 1.58021E-18
 -1      3980 9.67704E-05-3.04827E-05-2.84350E-05 3.69770E-06-4.55205E-19 2.90441E-19
 -1      3981 9.56095E-05-2.90473E-05-2.85276E-05 2.25329E-06-1.73958E-19 1.11502E-18
 -1      3982 9.60371E-05-2.94721E-05-2.85165E-05 2.45236E-06-4.16306E-19 8.38718E-19
 -1      3983 9.56805E-05-2.92876E-05-2.84692E-05 2.93720E-06 3.78755E-19-8.72738E-21
 -1      3984 9.51223E-05-2.84812E-05-2.85633E-05 1.76373E-06 9.74409E-20 1.85373E-18
 -1      3985 9.53772E-05-2.87434E-05-2.85494E-05 1.96154E-06 2.34996E-20 1.71642E-18
 -1      3986 9.50641E-05-2.85450E-05-2.85159E-05 2.24733E-06 4.85628E-20 1.33100E-18
 -1      3987 9.48841E-05-2.81725E-05-2.85941E-05 1.34746E-06 8.13131E-19 1.79653E-18
 -1      3988 9.50202E-05-2.83168E-05-2.85819E-05 1.52367E-06 7.09741E-19 2.24063E-18
 -1      3989 9.47627E-05-2.81324E-05-2.85592E-05 1.67591E-06 1.44940E-19 1.88889E-18
 -1      3990 9.48005E-05-2.80370E-05-2.86161E-05 1.01106E-06-1.55433E-18 1.43751E-18
 -1      3991 9.48602E-05-2.81016E-05-2.86076E-05 1.15876E-06-1.89249E-19 1.92537E-18
 -1      3992 9.46568E-05-2.79423E-05-2.85927E-05 1.22688E-06-8.39024E-20 1.03662E-18
 -1      3993 9.48055E-05-2.80102E-05-2.86293E-05 7.47862E-07-1.99842E-18 6.14427E-19
 -1      3994 9.48196E-05-2.80245E-05-2.86246E-05 8.67116E-07-1.98383E-18 1.25046E-18
 -1      3995 9.46633E-05-2.78930E-05-2.86153E-05 8.85848E-07-1.98538E-18 1.02605E-18
 -1      3996 9.48555E-05-2.80458E-05-2.86350E-05 5.46308E-07-7.57623E-19 1.67400E-19
 -1      3997 9.48449E-05-2.80311E-05-2.86335E-05 6.40226E-07-1.42193E-18 5.27233E-19
 -1      3998 9.47272E-05-2.79256E-05-2.86281E-05 6.32659E-07-1.01559E-18 8.99385E-19
 -1      3999 9.49232E-05-2.81123E-05-2.86350E-05 3.94214E-07-7.31253E-19 1.63867E-18
 -1      4000 9.49012E-05-2.80831E-05-2.86359E-05 4.66925E-07-9.49841E-19 1.52057E-18
 -1      4001 9.48142E-05-2.80004E-05-2.86332E-05 4.47561E-07-1.82256E-18 2.40506E-18
 -1      4002 9.49927E-05-2.81898E-05-2.86311E-05 2.80642E-07 7.59831E-19 2.01923E-18
 -1      4003 9.49675E-05-2.81553E-05-2.86337E-05 3.36207E-07 1.21326E-19 2.28983E-18
 -1      4004 9.49042E-05-2.80914E-05-2.86328E-05 3.13562E-07-2.55285E-19 2.29955E-18
 -1      4005 9.50557E-05-2.82662E-05-2.86250E-05 1.96555E-07 8.54548E-19 1.25203E-18
 -1      4006 9.50317E-05-2.82320E-05-2.86285E-05 2.38559E-07 7.71963E-19 2.05090E-18
 -1      4007 9.49863E-05-2.81833E-05-2.86288E-05 2.17204E-07 8.18364E-19 9.58623E-19
 -1      4008 9.51085E-05-2.83352E-05-2.86178E-05 1.34782E-07-2.71973E-19 8.23307E-19
 -1      4009 9.50879E-05-2.83043E-05-2.86216E-05 1.66214E-07 1.69745E-19 1.43191E-18
 -1      4010 9.50559E-05-2.82677E-05-2.86226E-05 1.48243E-07 3.65498E-19 3.16004E-21
 -1      4011 9.51504E-05-2.83940E-05-2.86104E-05 8.97800E-08-5.06276E-20-1.01226E-18
 -1      4012 9.51338E-05-2.83677E-05-2.86142E-05 1.13052E-07 4.72408E-20 1.13535E-19
 -1      4013 9.51118E-05-2.83405E-05-2.86156E-05 9.90976E-08 7.55174E-19-2.69048E-19
 -1      4014 9.51820E-05-2.84420E-05-2.86032E-05 5.73136E-08 1.95522E-20-2.87915E-18
 -1      4015 9.51695E-05-2.84205E-05-2.86068E-05 7.43382E-08-2.96920E-19-2.06388E-18
 -1      4016 9.51547E-05-2.84007E-05-2.86083E-05 6.42420E-08 5.70875E-19-1.50155E-18
 -1      4017 9.52049E-05-2.84799E-05-2.85967E-05 3.41841E-08-1.43969E-19-2.46402E-18
 -1      4018 9.51958E-05-2.84630E-05-2.85999E-05 4.64628E-08 6.77510E-20-2.73698E-18
 -1      4019 9.51862E-05-2.84487E-05-2.86014E-05 3.96930E-08 1.19214E-19-2.24522E-18
 -1      4020 9.52205E-05-2.85089E-05-2.85908E-05 1.80464E-08-1.33799E-18-2.37341E-18
 -1      4021 9.52144E-05-2.84960E-05-2.85937E-05 2.66962E-08-7.48897E-19-3.16613E-18
 -1      4022 9.52085E-05-2.84860E-05-2.85951E-05 2.26013E-08-3.22278E-19-3.52895E-18
 -1      4023 9.52296E-05-2.85283E-05-2.85864E-05 8.41677E-09-4.95156E-19-2.22096E-18
 -1      4024 9.52255E-05-2.85180E-05-2.85889E-05 1.44776E-08-1.19178E-18-2.59172E-18
 -1      4025 9.52218E-05-2.85110E-05-2.85902E-05 1.22795E-08-8.14705E-19-3.69575E-18
 -1      4026 9.52295E-05-2.85276E-05-2.85865E-05 5.94382E-09-4.22095E-19-4.78399E-18
 -1      4027 8.54958E-05-2.31704E-05-2.66474E-05-1.20242E-05-3.13241E-19-9.37172E-19
 -1      4028 8.36973E-05-2.35392E-05-2.58651E-05-1.52279E-05-1.40113E-19-9.86975E-19
 -1      4029 8.87691E-05-2.53769E-05-2.71422E-05-1.22059E-05-3.63678E-19-7.99998E-19
 -1      4030 9.52389E-05-2.85553E-05-2.85787E-05-3.23198E-09 2.08795E-18 1.66579E-19
 -1      4031 1.15631E-04-3.78611E-05-3.32929E-05-8.27441E-06 7.15743E-19-2.08580E-19
 -1      4032 1.12355E-04-4.10373E-05-3.06113E-05 1.41174E-06-5.42928E-19 1.95506E-19
 -1      4033 1.11163E-04-4.07934E-05-3.01122E-05-2.41402E-07-6.45505E-19 9.91260E-20
 -1      4034 8.03499E-05-2.25210E-05-2.47534E-05-1.82406E-05-4.89721E-19-1.05969E-18
 -1      4035 9.30218E-05-2.21722E-05-3.03470E-05-2.31284E-06 2.27134E-19-1.34943E-18
 -1      4036 9.27607E-05-2.22841E-05-3.02125E-05-2.37596E-06 1.09826E-19-1.43586E-18
 -1      4037 9.36376E-05-2.32403E-05-3.01767E-05-2.52709E-06 1.36906E-19-1.27693E-18
 -1      4038 1.05479E-04-3.73516E-05-2.92116E-05-3.43573E-06-3.31005E-19-2.18109E-19
 -1      4039 1.04065E-04-3.60444E-05-2.91050E-05-3.92523E-06-9.61970E-20-4.19819E-19
 -1      4040 1.02470E-04-3.46310E-05-2.90756E-05-4.00960E-06 1.34755E-19-4.16296E-19
 -1      4041 1.01291E-04-3.33465E-05-2.90866E-05-4.08047E-06 1.74592E-19-5.16982E-19
 -1      4042 1.03098E-04-3.54695E-05-2.90352E-05-5.26443E-06 1.18853E-20-4.75542E-20
 -1      4043 1.14771E-04-3.35489E-05-3.48309E-05 1.01568E-05-1.23812E-20 1.18711E-18
 -1      4044 1.14836E-04-2.94445E-05-3.66863E-05 1.18902E-05 3.19861E-19 8.62227E-19
 -1      4045 1.04154E-04-1.54145E-05-3.80785E-05-4.39575E-07 9.02302E-19 4.75159E-19
 -1      4046 1.12121E-04-2.61613E-05-3.68793E-05 1.13900E-05 7.25418E-19 1.25874E-18
 -1      4047 1.18841E-04-3.81525E-05-3.45992E-05-8.88371E-06 3.11096E-19-1.00002E-18
 -1      4048 9.54151E-05-2.44057E-05-3.04373E-05-2.68091E-07 7.15817E-19-1.18346E-18
 -1      4049 1.08973E-04-3.97910E-05-2.96782E-05-1.69812E-06-7.72385E-19 2.41074E-20
 -1      4050 1.07505E-04-3.87712E-05-2.94021E-05-2.76144E-06-5.98620E-19-1.74719E-19
 -1      4051 1.10993E-04-4.13302E-05-2.98653E-05-2.80808E-06-7.03651E-19 2.04229E-19
 -1      4052 8.35674E-05-2.08727E-05-2.68810E-05 7.89917E-06-8.17456E-19-9.29983E-19
 -1      4053 8.54398E-05-2.15528E-05-2.73427E-05 5.91178E-06-1.25878E-18-1.28810E-18
 -1      4054 8.72436E-05-2.30736E-05-2.74915E-05 6.60508E-06-1.26835E-18-2.10535E-18
 -1      4055 9.66892E-05-2.70123E-05-2.98628E-05-2.06459E-06 4.70971E-19-1.03020E-18
 -1      4056 9.61097E-05-2.58936E-05-3.00797E-05-1.47460E-06 6.06276E-19-1.01589E-18
 -1      4057 1.03520E-04-3.81116E-05-2.80465E-05 1.23658E-05-5.16047E-19 4.80079E-20
 -1      4058 1.00037E-04-3.59596E-05-2.73392E-05 1.56414E-05-8.59953E-19-3.17223E-19
 -1      4059 9.81258E-05-2.93446E-05-2.94965E-05-2.46969E-06 4.24885E-19-9.68762E-19
 -1      4060 8.41947E-05-2.33737E-05-2.59951E-05 1.44699E-05-1.65031E-18-9.12797E-19
 -1      4061 8.41213E-05-2.18416E-05-2.66570E-05 9.96394E-06-5.61368E-19-1.07816E-18
 -1      4062 8.68123E-05-2.40438E-05-2.69736E-05 1.03447E-05-1.18262E-18-2.12956E-18
 -1      4063 8.90577E-05-2.70896E-05-2.66776E-05 1.43105E-05-1.20425E-18-2.01766E-18
 -1      4064 1.15245E-04-3.76319E-05-3.33087E-05 8.45548E-06-3.02248E-19 9.29804E-19
 -1      4065 1.11606E-04-3.30697E-05-3.36318E-05 9.72569E-06-2.10683E-20 5.72753E-19
 -1      4066 1.05910E-04-1.53664E-05-3.88704E-05-4.94585E-06 7.10720E-19 4.37704E-19
 -1      4067 1.06769E-04-2.74884E-05-3.39306E-05 9.72813E-06 3.16962E-19 4.56630E-19
 -1      4068 1.08221E-04-3.04889E-05-3.33558E-05 9.90743E-06 1.29594E-19 5.65467E-19
 -1      4069 9.07663E-05-2.25432E-05-2.92389E-05-2.70418E-06-7.35744E-19-9.14704E-19
 -1      4070 8.98562E-05-2.24954E-05-2.89120E-05-3.34535E-06-7.89787E-19-8.11695E-19
 -1      4071 9.07209E-05-2.35152E-05-2.87866E-05-4.94835E-06-6.67876E-19-4.83312E-19
 -1      4072 1.07128E-04-1.79762E-05-3.83473E-05-8.06314E-06 1.61307E-19 6.07036E-19
 -1      4073 1.10968E-04-2.37992E-05-3.73557E-05-1.12477E-05-1.19643E-19 1.90735E-19
 -1      4074 9.52382E-05-2.85451E-05-2.85828E-05-3.12359E-09-3.71710E-18-1.01117E-18
 -1      4075 9.52373E-05-2.85437E-05-2.85830E-05-3.32643E-09-2.63352E-18-8.67410E-19
 -1      4076 9.52346E-05-2.85356E-05-2.85851E-05-3.90598E-09-6.90541E-19-2.43739E-18
 -1      4077 9.52355E-05-2.85351E-05-2.85857E-05-6.51009E-09-2.97792E-18-2.80828E-19
 -1      4078 1.13987E-04-4.35795E-05-3.00570E-05 3.83417E-06-1.66602E-19-4.07138E-21
 -1      4079 1.12938E-04-2.84894E-05-3.63228E-05-1.17285E-05-2.24677E-19-2.36077E-20
 -1      4080 1.13835E-04-3.51510E-05-3.38345E-05-9.76596E-06 5.97919E-19 5.87613E-20
 -1      4081 1.12885E-04-3.17312E-05-3.47853E-05-1.08668E-05 1.28623E-19 4.34217E-19
 -1      4082 9.27319E-05-2.27987E-05-2.99820E-05-2.63282E-06 3.34942E-20-1.25141E-18
 -1      4083 8.92387E-05-2.90704E-05-2.58350E-05-1.96269E-05-5.49211E-19-8.30317E-19
 -1      4084 9.44523E-05-3.14964E-05-2.68695E-05-1.66649E-05-3.55215E-19-5.39760E-19
 -1      4085 9.53163E-05-2.51808E-05-3.00561E-05-2.45730E-06 2.91554E-19-1.25788E-18
 -1      4086 9.47379E-05-2.45970E-05-3.00646E-05-2.68710E-06 1.14444E-19-1.18616E-18
 -1      4087 9.56807E-05-3.24723E-05-2.71360E-05 1.46846E-05-1.14467E-18-6.78918E-19
 -1      4088 1.15396E-04-4.41110E-05-3.05445E-05-2.42035E-06-5.68171E-19 2.55235E-19
 -1      4089 1.14974E-04-4.26480E-05-3.10150E-05 8.20016E-07-4.43014E-19 1.98795E-19
 -1      4090 1.08169E-04-4.18423E-05-2.83706E-05-1.39655E-05-6.80690E-19-2.33831E-19
 -1      4091 1.00130E-04-3.20717E-05-2.91626E-05-3.82793E-06 7.68587E-20-5.80737E-19
 -1      4092 9.92034E-05-3.08818E-05-2.92574E-05-3.61907E-06 1.41564E-19-6.45880E-19
 -1      4093 1.00375E-04-3.25642E-05-2.90989E-05-4.85725E-06 3.21467E-20 6.35835E-20
 -1      4094 1.13838E-04-4.38689E-05-2.99943E-05-4.99530E-06-5.76343E-19 2.56975E-19
 -1      4095 1.13962E-04-4.08958E-05-3.13086E-05 3.72221E-06-3.83596E-19 3.23887E-19
 -1      4096 1.14298E-04-3.96094E-05-3.20413E-05 5.65664E-06-3.48084E-19 5.31982E-19
 -1      4097 9.42899E-05-2.43923E-05-2.99484E-05-3.08187E-06 5.68463E-20-1.16743E-18
 -1      4098 9.38234E-05-2.42494E-05-2.98239E-05-3.33885E-06-6.67185E-20-1.22917E-18
 -1      4099 9.49609E-05-2.56212E-05-2.97218E-05-3.55571E-06-9.59763E-20-1.12797E-18
 -1      4100 1.06713E-04-3.86381E-05-2.92381E-05-4.77975E-06-5.47139E-19 1.76555E-19
 -1      4101 9.52300E-05-2.85279E-05-2.85867E-05-1.54208E-09 7.29996E-19-3.98958E-18
 -1      4102 9.52299E-05-2.85280E-05-2.85865E-05 7.43180E-11 1.06799E-18-5.25164E-18
 -1      4103 1.10013E-04-4.18208E-05-2.92596E-05 6.69134E-06-4.96153E-19-2.68777E-19
 -1      4104 1.05957E-04-3.94098E-05-2.85146E-05 9.69247E-06-6.55294E-19 2.50180E-19
 -1      4105 1.02257E-04-3.67008E-05-2.81458E-05 1.03642E-05-5.12971E-19-1.40861E-19
 -1      4106 9.15624E-05-2.23472E-05-2.96789E-05-2.12632E-06-2.54845E-19-1.08919E-18
 -1      4107 9.10847E-05-2.24528E-05-2.94416E-05-2.31760E-06-4.38860E-19-9.47418E-19
 -1      4108 9.15614E-05-2.31193E-05-2.93167E-05-3.45291E-06-5.41275E-19-8.63873E-19
 -1      4109 9.20794E-05-2.26815E-05-2.97146E-05-2.73695E-06-5.54931E-20-9.96523E-19
 -1      4110 9.52291E-05-2.85266E-05-2.85868E-05 2.11814E-09 7.58643E-19-5.00756E-18
 -1      4111 9.82589E-05-2.95974E-05-2.94247E-05-3.13766E-06 2.80401E-19-9.14394E-19
 -1      4112 9.74208E-05-2.82636E-05-2.96224E-05-2.68946E-06 2.35214E-19-1.03103E-18
 -1      4113 9.66648E-05-2.72013E-05-2.97783E-05-2.72394E-06 4.23709E-19-1.05741E-18
 -1      4114 9.82972E-05-2.98483E-05-2.93562E-05-3.95801E-06 9.15835E-20-4.07180E-19
 -1      4115 9.48818E-05-2.36686E-05-3.05178E-05-7.27943E-07 6.73043E-19-1.26213E-18
 -1      4116 8.55180E-05-2.55769E-05-2.56170E-05-1.77408E-05-3.89658E-19-9.75349E-19
 -1      4117 1.07384E-04-3.95163E-05-2.90954E-05-6.80201E-06-7.22294E-19 1.82932E-19
 -1      4118 1.05346E-04-3.76655E-05-2.89327E-05-7.07443E-06-2.85681E-19 2.19524E-19
 -1      4119 8.95852E-05-2.45509E-05-2.79006E-05 5.03506E-06-2.26296E-19-2.12552E-18
 -1      4120 9.03738E-05-2.47922E-05-2.80846E-05 3.89888E-06-6.35494E-19-1.89046E-18
 -1      4121 9.26271E-05-2.93376E-05-2.71855E-05-1.42002E-05-2.78161E-19-5.97989E-19
 -1      4122 9.86475E-05-3.47067E-05-2.75071E-05-1.55344E-05-4.09656E-19-9.79498E-20
 -1      4123 9.74894E-05-3.31646E-05-2.76147E-05 1.23208E-05-1.38444E-18-6.59495E-20
 -1      4124 9.35215E-05-3.01349E-05-2.70636E-05 1.39575E-05-1.21901E-18-9.72435E-19
 -1      4125 9.15991E-05-2.81943E-05-2.71536E-05 1.22147E-05-1.30628E-18-1.61510E-18
 -1      4126 8.85934E-05-2.45630E-05-2.74414E-05 8.10929E-06-1.14128E-18-2.56953E-18
 -1      4127 8.94032E-05-2.46322E-05-2.77216E-05 6.34014E-06-4.72787E-19-2.00902E-18
 -1      4128 9.08388E-05-2.58309E-05-2.78592E-05 6.29123E-06-7.48662E-19-1.77071E-18
 -1      4129 9.06698E-05-2.49255E-05-2.82036E-05 3.03099E-06-9.77434E-20-1.66063E-18
 -1      4130 9.13156E-05-2.52153E-05-2.83161E-05 2.33747E-06-3.36051E-19-9.50019E-19
 -1      4131 9.13525E-05-2.56700E-05-2.81446E-05 4.06038E-06-2.08961E-19-1.50822E-18
 -1      4132 9.16630E-05-2.54421E-05-2.84005E-05 1.72247E-06-1.08222E-18-6.99190E-19
 -1      4133 9.22091E-05-2.57550E-05-2.84729E-05 1.27270E-06-2.25370E-19-1.34199E-19
 -1      4134 9.19951E-05-2.58452E-05-2.83440E-05 2.52490E-06 1.41827E-19-3.64820E-19
 -1      4135 9.25273E-05-2.60015E-05-2.85257E-05 8.82107E-07-3.11432E-19-1.33799E-19
 -1      4136 9.29490E-05-2.62838E-05-2.85671E-05 6.19904E-07-4.95650E-19-3.10329E-19
 -1      4137 9.26491E-05-2.61833E-05-2.84790E-05 1.47286E-06-3.88347E-19 8.53961E-20
 -1      4138 9.32208E-05-2.65150E-05-2.85983E-05 3.81808E-07-6.63776E-19-7.94651E-19
 -1      4139 9.35386E-05-2.67554E-05-2.86198E-05 2.39538E-07-8.52590E-19-1.41958E-18
 -1      4140 9.32296E-05-2.65690E-05-2.85630E-05 8.06089E-07-6.46774E-19 3.13063E-19
 -1      4141 9.37601E-05-2.69572E-05-2.86366E-05 1.01382E-07-7.84874E-19-1.45722E-18
 -1      4142 9.39956E-05-2.71546E-05-2.86458E-05 3.25915E-08-1.18365E-18-2.21190E-18
 -1      4143 9.37146E-05-2.69425E-05-2.86117E-05 4.00132E-07-1.37537E-18-1.16805E-18
 -1      4144 9.41706E-05-2.73231E-05-2.86532E-05-4.23833E-08-1.08872E-18-1.72155E-18
 -1      4145 9.43426E-05-2.74816E-05-2.86552E-05-6.82548E-08-5.72073E-20-1.95757E-18
 -1      4146 9.41046E-05-2.72761E-05-2.86369E-05 1.64683E-07-1.24228E-18-1.57753E-18
 -1      4147 9.44717E-05-2.76124E-05-2.86568E-05-1.03487E-07 3.48386E-19-2.72621E-18
 -1      4148 9.45914E-05-2.77320E-05-2.86547E-05-1.06152E-07 6.82428E-19-2.50352E-18
 -1      4149 9.44030E-05-2.75530E-05-2.86468E-05 3.84759E-08-4.77084E-19-2.39635E-18
 -1      4150 9.46955E-05-2.78424E-05-2.86531E-05-1.21298E-07 1.06040E-18-3.39511E-18
 -1      4151 9.47867E-05-2.79411E-05-2.86488E-05-1.12483E-07 4.75537E-19-3.76085E-18
 -1      4152 9.46331E-05-2.77835E-05-2.86476E-05-2.38420E-08 5.53802E-19-4.03860E-18
 -1      4153 9.48643E-05-2.80280E-05-2.86452E-05-1.15099E-07-9.75389E-20-2.99472E-18
 -1      4154 9.49292E-05-2.81040E-05-2.86400E-05-1.01469E-07 4.73619E-19-2.73753E-18
 -1      4155 9.48117E-05-2.79742E-05-2.86429E-05-5.01623E-08 5.19731E-19-4.58273E-18
 -1      4156 9.49863E-05-2.81714E-05-2.86356E-05-9.79699E-08 4.77796E-19-2.46341E-18
 -1      4157 9.50320E-05-2.82295E-05-2.86302E-05-8.34792E-08 8.03011E-19-2.75604E-18
 -1      4158 9.49443E-05-2.81256E-05-2.86353E-05-5.53968E-08 6.55824E-19-1.68925E-18
 -1      4159 9.50733E-05-2.82811E-05-2.86256E-05-7.75675E-08 8.25697E-19-4.04005E-18
 -1      4160 9.51051E-05-2.83251E-05-2.86205E-05-6.42428E-08 8.99949E-19-3.23512E-18
 -1      4161 9.50412E-05-2.82437E-05-2.86266E-05-5.02624E-08-9.95900E-20-2.73721E-18
 -1      4162 9.51343E-05-2.83641E-05-2.86160E-05-5.79406E-08 1.98180E-18-2.60223E-18
 -1      4163 9.51560E-05-2.83970E-05-2.86114E-05-4.66646E-08 2.30807E-18-2.83411E-18
 -1      4164 9.51107E-05-2.83347E-05-2.86176E-05-4.09785E-08 1.74024E-18-3.17980E-18
 -1      4165 9.51755E-05-2.84249E-05-2.86075E-05-4.12614E-08 1.80292E-18-2.37787E-18
 -1      4166 9.51894E-05-2.84483E-05-2.86036E-05-3.25482E-08 1.07825E-18-2.59622E-18
 -1      4167 9.51585E-05-2.84022E-05-2.86094E-05-3.11715E-08 2.24493E-18-1.71906E-18
 -1      4168 9.52033E-05-2.84702E-05-2.85999E-05-2.77046E-08 1.64447E-18-2.24975E-18
 -1      4169 9.52127E-05-2.84882E-05-2.85964E-05-2.07713E-08 2.52379E-18-1.52005E-18
 -1      4170 9.51915E-05-2.84530E-05-2.86019E-05-2.21989E-08 1.63465E-18-2.88426E-18
 -1      4171 1.03773E-04-3.68694E-05-2.86100E-05 6.27852E-06-1.04939E-18 5.49058E-19
 -1      4172 1.05876E-04-3.85050E-05-2.88530E-05 5.83097E-06-6.41946E-19 3.05310E-19
 -1      4173 1.03809E-04-3.80558E-05-2.80976E-05-1.33346E-05-3.87670E-19-1.26666E-19
 -1      4174 1.09566E-04-4.19713E-05-2.90786E-05-9.32983E-06-6.47391E-19 1.41028E-19
 -1      4175 9.96059E-05-3.33833E-05-2.83488E-05 6.14003E-06-1.28039E-18-4.26758E-19
 -1      4176 1.01139E-04-3.48243E-05-2.84266E-05 6.37104E-06-1.16347E-18-2.23777E-19
 -1      4177 9.72326E-05-3.11064E-05-2.83271E-05 5.09666E-06-6.59254E-19 2.96649E-19
 -1      4178 9.83333E-05-3.21565E-05-2.83422E-05 5.48873E-06-9.48216E-19 4.25804E-19
 -1      4179 9.79709E-05-3.22357E-05-2.82045E-05 7.01885E-06-1.29997E-18-1.28878E-19
 -1      4180 9.57690E-05-2.95565E-05-2.83733E-05 3.99725E-06-5.01351E-19 1.59653E-19
 -1      4181 9.64909E-05-3.02689E-05-2.83584E-05 4.42920E-06-7.10448E-19 1.83613E-20
 -1      4182 9.60268E-05-3.01788E-05-2.82518E-05 5.48471E-06-7.57555E-19 3.38970E-19
 -1      4183 9.49517E-05-2.85937E-05-2.84403E-05 3.00116E-06 1.32418E-19 5.65693E-19
 -1      4184 9.53785E-05-2.90369E-05-2.84149E-05 3.39482E-06 3.65264E-20 1.34298E-19
 -1      4185 9.48997E-05-2.88212E-05-2.83378E-05 4.08319E-06-4.20185E-19-3.51672E-19
 -1      4186 9.45592E-05-2.80565E-05-2.85045E-05 2.19013E-06-6.04836E-19 1.34450E-18
 -1      4187 9.47858E-05-2.83039E-05-2.84793E-05 2.51732E-06-3.06033E-19 6.55196E-19
 -1      4188 9.43734E-05-2.80678E-05-2.84267E-05 2.94173E-06-6.35434E-19-2.34384E-20
 -1      4189 9.44258E-05-2.78041E-05-2.85561E-05 1.56459E-06 5.02716E-19 9.87770E-19
 -1      4190 9.45246E-05-2.79201E-05-2.85356E-05 1.82134E-06 1.46995E-19 1.25108E-18
 -1      4191 9.41857E-05-2.76942E-05-2.85012E-05 2.06552E-06-1.08059E-19 1.31044E-19
 -1      4192 9.44399E-05-2.77316E-05-2.85930E-05 1.09990E-06-5.95128E-19 8.11375E-19
 -1      4193 9.44621E-05-2.77644E-05-2.85785E-05 1.29416E-06 1.88431E-19 3.81633E-19
 -1      4194 9.41945E-05-2.75653E-05-2.85571E-05 1.42080E-06 2.91704E-19 3.91886E-19
 -1      4195 9.45287E-05-2.77643E-05-2.86165E-05 7.63887E-07-1.98683E-18-2.12152E-19
 -1      4196 9.45089E-05-2.77485E-05-2.86075E-05 9.07334E-07-1.76983E-18 6.76965E-19
 -1      4197 9.43033E-05-2.75812E-05-2.85952E-05 9.61615E-07-6.40027E-19 9.48566E-19
 -1      4198 9.46470E-05-2.78518E-05-2.86291E-05 5.25287E-07-2.10369E-18 8.91170E-19
 -1      4199 9.46075E-05-2.78106E-05-2.86247E-05 6.29683E-07-1.83907E-18 2.93625E-19
 -1      4200 9.44525E-05-2.76743E-05-2.86184E-05 6.42561E-07-1.95033E-18-8.79227E-19
 -1      4201 9.47686E-05-2.79614E-05-2.86336E-05 3.58302E-07-1.39885E-18 1.39086E-18
 -1      4202 9.47232E-05-2.79102E-05-2.86326E-05 4.33496E-07-1.48715E-18 1.13591E-18
 -1      4203 9.46080E-05-2.78018E-05-2.86302E-05 4.24963E-07-1.72251E-18-6.96981E-19
 -1      4204 9.48799E-05-2.80740E-05-2.86326E-05 2.42311E-07 3.37662E-19 6.26929E-19
 -1      4205 9.48361E-05-2.80217E-05-2.86339E-05 2.96054E-07-1.46627E-18 1.84953E-19
 -1      4206 9.47515E-05-2.79363E-05-2.86340E-05 2.78361E-07-9.12155E-19-1.50094E-18
 -1      4207 9.49748E-05-2.81783E-05-2.86282E-05 1.62177E-07 1.08261E-18 1.60294E-19
 -1      4208 9.49363E-05-2.81299E-05-2.86309E-05 2.00452E-07 1.83209E-18 9.63923E-19
 -1      4209 9.48749E-05-2.80635E-05-2.86324E-05 1.80721E-07 6.99559E-19-1.28203E-18
 -1      4210 9.50516E-05-2.82693E-05-2.86218E-05 1.06990E-07 8.26617E-19-2.99071E-19
 -1      4211 9.50199E-05-2.82272E-05-2.86252E-05 1.34189E-07 2.83597E-19-7.16859E-19
 -1      4212 9.49759E-05-2.81762E-05-2.86276E-05 1.16086E-07 1.60837E-18-3.75841E-19
 -1      4213 9.51113E-05-2.83452E-05-2.86146E-05 6.90688E-08 5.66797E-19-1.52476E-20
 -1      4214 9.50864E-05-2.83102E-05-2.86183E-05 8.83553E-08 9.14735E-19-5.97360E-19
 -1      4215 9.50553E-05-2.82714E-05-2.86210E-05 7.34731E-08 1.12818E-18-9.61759E-19
 -1      4216 9.51559E-05-2.84064E-05-2.86074E-05 4.30708E-08 5.30770E-19-1.95117E-20
 -1      4217 9.51372E-05-2.83782E-05-2.86110E-05 5.67273E-08 8.81632E-19 4.21539E-19
 -1      4218 9.51157E-05-2.83492E-05-2.86137E-05 4.54609E-08 1.72323E-19 4.01905E-19
 -1      4219 9.51881E-05-2.84543E-05-2.86005E-05 2.53580E-08 5.76191E-19-1.44467E-18
 -1      4220 9.51747E-05-2.84323E-05-2.86039E-05 3.49491E-08 4.19117E-19-7.74673E-19
 -1      4221 9.51601E-05-2.84108E-05-2.86064E-05 2.70855E-08 1.08673E-18-2.89990E-19
 -1      4222 9.52102E-05-2.84907E-05-2.85943E-05 1.34926E-08-2.92584E-19-2.99966E-18
 -1      4223 9.52011E-05-2.84741E-05-2.85973E-05 2.00176E-08 1.21458E-19-2.09850E-18
 -1      4224 9.51916E-05-2.84585E-05-2.85996E-05 1.50384E-08 5.43387E-19-1.28746E-18
 -1      4225 9.28715E-05-2.81893E-05-2.76595E-05-1.16504E-05-5.34432E-19-5.40103E-19
 -1      4226 1.03308E-04-3.58541E-05-2.88928E-05-6.81273E-06-4.19695E-20-5.33767E-20
 -1      4227 1.01652E-04-3.41711E-05-2.88827E-05-6.61878E-06 7.08447E-20-1.27167E-19
 -1      4228 1.03372E-04-3.66383E-05-2.87261E-05-8.76306E-06-2.65231E-19 8.32640E-21
 -1      4229 9.52297E-05-2.85259E-05-2.85874E-05-4.06172E-09 6.39692E-19-4.49665E-18
 -1      4230 9.52249E-05-2.85160E-05-2.85895E-05-3.01259E-09 2.85216E-19-4.46786E-18
 -1      4231 9.52297E-05-2.85252E-05-2.85878E-05-5.50121E-09-3.27193E-19-3.96351E-18
 -1      4232 1.11483E-04-4.24996E-05-2.95048E-05-6.24420E-06-7.86885E-19 1.81962E-19
 -1      4233 1.07480E-04-4.00445E-05-2.88460E-05 7.55507E-06-5.18143E-19-1.06793E-19
 -1      4234 9.55521E-05-2.52089E-05-3.01487E-05-1.90800E-06 4.95505E-19-1.25947E-18
 -1      4235 9.57490E-05-2.58863E-05-2.99365E-05-2.60535E-06 3.11607E-19-1.13389E-18
 -1      4236 9.19341E-05-2.55095E-05-2.84121E-05-7.29102E-06-6.50312E-19-5.69200E-19
 -1      4237 9.13341E-05-2.60647E-05-2.80105E-05-9.10647E-06-6.78364E-19-6.00995E-19
 -1      4238 9.31891E-05-2.36074E-05-2.98056E-05-3.23511E-06-3.12151E-20-1.29607E-18
 -1      4239 9.26075E-05-2.32481E-05-2.97324E-05-3.07888E-06-6.18458E-20-1.25785E-18
 -1      4240 9.24502E-05-2.35224E-05-2.95392E-05-3.39742E-06-1.59041E-19-1.13735E-18
 -1      4241 9.37767E-05-2.47396E-05-2.95828E-05-3.88046E-06-1.46338E-19-1.23097E-18
 -1      4242 9.64696E-05-2.71822E-05-2.96860E-05-3.28337E-06 1.76191E-19-9.31288E-19
 -1      4243 9.53101E-05-2.44130E-05-3.03876E-05-8.89787E-07 6.36758E-19-1.15349E-18
 -1      4244 9.22230E-05-2.44496E-05-2.90235E-05-4.89351E-06-5.01199E-19-8.09997E-19
 -1      4245 9.17124E-05-2.48281E-05-2.87012E-05-6.02505E-06-5.48695E-19-6.77671E-19
 -1      4246 9.34215E-05-2.65824E-05-2.86614E-05-7.24123E-06-5.79115E-19-8.80813E-19
 -1      4247 1.01797E-04-3.56760E-05-2.83649E-05 7.85532E-06-6.76397E-19-4.24632E-19
 -1      4248 9.52256E-05-2.85187E-05-2.85886E-05 4.62847E-09-2.73587E-19-5.06003E-18
 -1      4249 9.98587E-05-3.44255E-05-2.79908E-05 1.00541E-05-7.55126E-19-3.94267E-20
 -1      4250 9.52117E-05-2.84876E-05-2.85959E-05-1.50276E-08 2.33260E-18-3.40605E-18
 -1      4251 9.52196E-05-2.85001E-05-2.85940E-05-1.77230E-08 3.13872E-18-1.43823E-18
 -1      4252 9.52241E-05-2.85104E-05-2.85917E-05-1.34575E-08 2.19375E-18-1.66267E-18
 -1      4253 1.01894E-04-3.55970E-05-2.82946E-05-1.12340E-05-4.33845E-19-3.67467E-20
 -1      4254 9.02241E-05-2.66488E-05-2.71862E-05 1.11131E-05-1.32103E-18-2.12938E-18
 -1      4255 8.94324E-05-2.55533E-05-2.73505E-05 9.32021E-06-1.26808E-18-1.89811E-18
 -1      4256 9.14766E-05-2.70974E-05-2.76088E-05 8.77976E-06-7.68153E-19-1.63475E-18
 -1      4257 9.37257E-05-2.96058E-05-2.75251E-05 1.08508E-05-1.72868E-18-1.35065E-18
 -1      4258 9.49540E-05-2.96526E-05-2.80516E-05-1.09598E-05-5.91644E-19-2.61435E-19
 -1      4259 9.52210E-05-2.85104E-05-2.85904E-05 6.86413E-09 6.51296E-20-4.24456E-18
 -1      4260 9.52163E-05-2.85007E-05-2.85924E-05 1.00410E-08 2.33873E-19-3.41953E-18
 -1      4261 9.52101E-05-2.84893E-05-2.85945E-05 6.83014E-09 4.71994E-19-3.89199E-18
 -1      4262 9.52209E-05-2.85090E-05-2.85907E-05 1.69427E-09 5.06641E-19-4.90427E-18
 -1      4263 9.74487E-05-3.24491E-05-2.78885E-05 9.75683E-06-1.08822E-18 2.27206E-19
 -1      4264 9.60482E-05-2.70181E-05-2.95897E-05-3.93782E-06-9.07111E-20-9.76617E-19
 -1      4265 9.55695E-05-2.67777E-05-2.94765E-05-4.36604E-06-1.19145E-19-1.11039E-18
 -1      4266 9.70990E-05-2.83722E-05-2.94489E-05-4.02763E-06-3.05170E-20-6.53029E-19
 -1      4267 9.21547E-05-2.37370E-05-2.93375E-05-3.84119E-06-3.50170E-19-1.04093E-18
 -1      4268 9.31575E-05-2.49246E-05-2.92517E-05-4.74540E-06-2.83380E-19-1.01305E-18
 -1      4269 1.00322E-04-3.26774E-05-2.89672E-05-5.98032E-06 6.37624E-20-3.17100E-19
 -1      4270 9.90934E-05-3.12726E-05-2.90565E-05-5.56110E-06 1.41766E-20-3.44239E-19
 -1      4271 1.00049E-04-3.29622E-05-2.87982E-05-7.53888E-06 1.10598E-20-5.51301E-19
 -1      4272 9.52202E-05-2.85070E-05-2.85914E-05-1.28954E-09 1.07265E-19-4.50606E-18
 -1      4273 9.77072E-05-3.10081E-05-2.85207E-05-8.75955E-06-4.62930E-19-3.80736E-19
 -1      4274 9.96629E-05-3.35557E-05-2.82817E-05-1.06955E-05-3.62084E-19-1.43079E-19
 -1      4275 9.39199E-05-2.78766E-05-2.83105E-05 3.91224E-06-2.63720E-19 2.19739E-19
 -1      4276 9.43241E-05-2.83231E-05-2.82619E-05 4.57058E-06-5.42609E-19-1.34751E-19
 -1      4277 9.52314E-05-2.85260E-05-2.85881E-05-9.32068E-09-1.01929E-18-2.73581E-19
 -1      4278 9.52306E-05-2.85256E-05-2.85879E-05-7.72801E-09-1.07594E-18-3.20200E-18
 -1      4279 9.52283E-05-2.85175E-05-2.85902E-05-1.29032E-08 3.89435E-19-1.05286E-18
 -1      4280 9.21422E-05-2.65605E-05-2.81317E-05 4.70511E-06-4.13167E-19-1.01434E-18
 -1      4281 9.24284E-05-2.64851E-05-2.82411E-05 3.81538E-06 2.00748E-19-5.46612E-19
 -1      4282 9.28361E-05-2.64819E-05-2.84508E-05 1.92064E-06-2.82259E-19-8.22713E-19
 -1      4283 9.31472E-05-2.66194E-05-2.85030E-05 1.49394E-06-1.36434E-19-3.70750E-19
 -1      4284 9.32933E-05-2.67241E-05-2.85398E-05 1.14947E-06-9.19865E-20-6.17278E-19
 -1      4285 9.35609E-05-2.68816E-05-2.85717E-05 8.80590E-07-8.46841E-19-6.37191E-19
 -1      4286 9.35130E-05-2.69733E-05-2.85163E-05 1.54632E-06-8.38139E-20-1.63460E-18
 -1      4287 9.37130E-05-2.70097E-05-2.85945E-05 6.56121E-07-1.51370E-18-3.04185E-19
 -1      4288 9.39321E-05-2.71633E-05-2.86124E-05 4.93334E-07-1.05419E-18-1.16796E-18
 -1      4289 9.38113E-05-2.71311E-05-2.85753E-05 9.61373E-07-8.61662E-19-6.93562E-19
 -1      4290 9.40720E-05-2.72920E-05-2.86252E-05 3.51540E-07-1.58721E-18-9.11265E-19
 -1      4291 9.42454E-05-2.74307E-05-2.86337E-05 2.57871E-07-1.26957E-18-8.62506E-19
 -1      4292 9.41016E-05-2.73371E-05-2.86111E-05 5.79964E-07-1.16697E-18 1.33730E-19
 -1      4293 9.43600E-05-2.75432E-05-2.86394E-05 1.74452E-07-6.67485E-19-1.31556E-18
 -1      4294 9.44888E-05-2.76567E-05-2.86419E-05 1.25572E-07-7.36093E-19-1.97469E-18
 -1      4295 9.43538E-05-2.75457E-05-2.86299E-05 3.42562E-07-1.37115E-18-2.92283E-19
 -1      4296 9.45892E-05-2.77601E-05-2.86435E-05 7.24431E-08-5.05739E-20-1.53754E-18
 -1      4297 9.46928E-05-2.78600E-05-2.86426E-05 4.70233E-08 1.01105E-18-1.88215E-18
 -1      4298 9.45671E-05-2.77419E-05-2.86376E-05 1.95662E-07-3.52703E-19-7.12074E-19
 -1      4299 9.47726E-05-2.79470E-05-2.86412E-05 1.68982E-08 1.00823E-18-2.85243E-18
 -1      4300 9.48501E-05-2.80280E-05-2.86382E-05 6.76288E-09 7.38928E-19-2.28915E-18
 -1      4301 9.47450E-05-2.79190E-05-2.86382E-05 1.04500E-07 4.61032E-19-7.91167E-19
 -1      4302 9.49119E-05-2.80990E-05-2.86352E-05-9.49896E-09 1.70177E-18-2.29010E-18
 -1      4303 9.49690E-05-2.81635E-05-2.86312E-05-1.13483E-08 1.00744E-18-1.33305E-18
 -1      4304 9.48849E-05-2.80691E-05-2.86341E-05 5.18630E-08 1.11326E-18-2.67946E-18
 -1      4305 9.50157E-05-2.82202E-05-2.86274E-05-1.95097E-08-3.34504E-19-1.01471E-18
 -1      4306 9.50570E-05-2.82707E-05-2.86230E-05-1.73315E-08 2.32565E-19-1.25761E-18
 -1      4307 9.49922E-05-2.81922E-05-2.86276E-05 2.27333E-08 9.18197E-19-1.80808E-18
 -1      4308 9.50915E-05-2.83150E-05-2.86190E-05-2.09459E-08 1.04895E-18-1.72953E-18
 -1      4309 9.51208E-05-2.83539E-05-2.86147E-05-1.72101E-08 2.09584E-18-2.29801E-18
 -1      4310 9.50725E-05-2.82908E-05-2.86200E-05 7.49895E-09 4.66225E-19-1.34563E-19
 -1      4311 9.51445E-05-2.83863E-05-2.86109E-05-1.84600E-08 2.59633E-18-2.83750E-18
 -1      4312 9.51641E-05-2.84146E-05-2.86071E-05-1.45760E-08 2.19423E-18-2.45995E-18
 -1      4313 9.51298E-05-2.83665E-05-2.86123E-05 2.83952E-10 1.74943E-18-1.80890E-18
 -1      4314 9.51817E-05-2.84407E-05-2.86035E-05-1.46651E-08 1.33563E-18-3.04818E-18
 -1      4315 9.51958E-05-2.84630E-05-2.85999E-05-1.10964E-08 1.20399E-18-3.02993E-18
 -1      4316 9.51708E-05-2.84249E-05-2.86050E-05-2.69883E-09 1.26672E-18-3.81721E-18
 -1      4317 9.72945E-05-3.17653E-05-2.80682E-05 7.98915E-06-1.23623E-18 1.68462E-19
 -1      4318 9.52871E-05-3.05296E-05-2.77436E-05 9.83715E-06-1.33304E-18 3.65722E-19
 -1      4319 9.37237E-05-2.90428E-05-2.77510E-05 8.98949E-06-1.04807E-18-3.58872E-19
 -1      4320 9.60481E-05-3.04942E-05-2.80774E-05 7.17791E-06-1.08836E-18 1.83097E-19
 -1      4321 9.39716E-05-2.56430E-05-2.92851E-05-4.91274E-06-2.39689E-19-1.19827E-18
 -1      4322 9.51457E-05-2.71179E-05-2.91581E-05-5.40598E-06-2.17002E-19-9.71082E-19
 -1      4323 9.37680E-05-2.72699E-05-2.85060E-05 1.81227E-06 1.51797E-19-1.39230E-18
 -1      4324 9.38038E-05-2.73404E-05-2.84719E-05 2.19168E-06-6.33672E-19-9.38246E-19
 -1      4325 9.39448E-05-2.73062E-05-2.85652E-05 1.18695E-06-1.30341E-19-2.21617E-20
 -1      4326 9.39087E-05-2.72933E-05-2.85414E-05 1.45673E-06 2.10636E-19-6.54283E-19
 -1      4327 9.41623E-05-2.74329E-05-2.86030E-05 7.62156E-07-1.04497E-18 3.76599E-19
 -1      4328 9.40931E-05-2.73764E-05-2.85878E-05 9.48905E-07-6.54295E-20 8.35462E-19
 -1      4329 9.43794E-05-2.75971E-05-2.86245E-05 4.80808E-07-1.95040E-18-3.00675E-21
 -1      4330 9.43000E-05-2.75222E-05-2.86161E-05 6.07092E-07-1.32315E-18 2.63938E-19
 -1      4331 9.45701E-05-2.77630E-05-2.86342E-05 3.01526E-07-5.37539E-19-1.55929E-18
 -1      4332 9.44932E-05-2.76844E-05-2.86306E-05 3.86225E-07-1.28124E-18-5.88845E-19
 -1      4333 9.47371E-05-2.79233E-05-2.86364E-05 1.83627E-07-2.94671E-19-2.20456E-18
 -1      4334 9.46692E-05-2.78492E-05-2.86361E-05 2.39235E-07-2.82641E-19-1.30190E-18
 -1      4335 9.48729E-05-2.80647E-05-2.86335E-05 1.09664E-07 9.20700E-19-1.57336E-18
 -1      4336 9.48161E-05-2.79991E-05-2.86354E-05 1.45995E-07-3.22195E-19-2.35795E-18
 -1      4337 9.49798E-05-2.81841E-05-2.86277E-05 6.40037E-08 1.57078E-18-1.71701E-18
 -1      4338 9.49343E-05-2.81287E-05-2.86308E-05 8.76297E-08 2.01118E-18-1.41275E-18
 -1      4339 9.50614E-05-2.82818E-05-2.86206E-05 3.62092E-08 3.33547E-19-3.53182E-19
 -1      4340 9.50263E-05-2.82365E-05-2.86242E-05 5.15376E-08 7.37772E-19-9.20285E-19
 -1      4341 9.51220E-05-2.83596E-05-2.86130E-05 1.95434E-08 3.96347E-19-2.89424E-19
 -1      4342 9.50957E-05-2.83236E-05-2.86167E-05 2.94433E-08 1.96199E-19-2.75972E-19
 -1      4343 9.51647E-05-2.84188E-05-2.86058E-05 9.80797E-09 1.47671E-18-2.22899E-18
 -1      4344 9.51456E-05-2.83906E-05-2.86093E-05 1.62588E-08 1.54934E-18-1.90449E-18
 -1      4345 9.51953E-05-2.84652E-05-2.85989E-05 3.99187E-09 6.51337E-19-3.45520E-18
 -1      4346 9.51822E-05-2.84439E-05-2.86022E-05 8.10836E-09 1.14867E-19-3.01661E-18
 -1      4347 9.52255E-05-2.85146E-05-2.85903E-05-8.42596E-09 3.44927E-19-5.75055E-18
 -1      4348 9.17133E-05-2.68328E-05-2.78325E-05 7.11654E-06-7.06527E-19-1.06399E-18
 -1      4349 9.19323E-05-2.65483E-05-2.79948E-05 5.77656E-06-1.14598E-18-1.05222E-18
 -1      4350 9.30513E-05-2.74846E-05-2.81084E-05 5.45634E-06-7.03462E-19 1.28341E-19
 -1      4351 9.26485E-05-2.78467E-05-2.77687E-05 8.14317E-06-6.93099E-19-6.03238E-19
 -1      4352 9.52126E-05-2.84935E-05-2.85940E-05-1.00288E-09 1.16428E-18-4.64183E-18
 -1      4353 9.52063E-05-2.84823E-05-2.85960E-05 2.21948E-09 9.17198E-19-4.07649E-18
 -1      4354 9.51990E-05-2.84688E-05-2.85984E-05-4.89403E-09 7.47966E-19-4.35943E-18
 -1      4355 9.52175E-05-2.85007E-05-2.85928E-05-6.03561E-09 4.19296E-19-5.81434E-18
 -1      4356 9.63768E-05-2.95338E-05-2.86494E-05-7.85792E-06-3.53331E-19-6.53018E-19
 -1      4357 9.80519E-05-2.97192E-05-2.92637E-05-4.64092E-06-1.53071E-19-3.70376E-19
 -1      4358 9.41804E-05-2.85308E-05-2.81390E-05 5.68848E-06-9.09360E-19-8.84856E-20
 -1      4359 9.48574E-05-2.92954E-05-2.80834E-05 6.53860E-06-8.29483E-19-4.33170E-20
 -1      4360 9.60845E-05-2.85479E-05-2.89104E-05-6.56652E-06-1.50257E-19-8.82134E-19
 -1      4361 9.52182E-05-2.85013E-05-2.85930E-05-9.07570E-09-5.71574E-20-5.89351E-18
 -1      4362 9.23963E-05-2.63666E-05-2.83149E-05 3.08564E-06 5.49725E-19-6.87055E-19
 -1      4363 9.27324E-05-2.64424E-05-2.83957E-05 2.43276E-06 3.18169E-19-6.50087E-19
 -1      4364 9.52068E-05-2.84810E-05-2.85969E-05-1.19043E-08 1.16849E-18-3.94308E-18
 -1      4365 9.32580E-05-2.69343E-05-2.84266E-05 2.41675E-06-1.33230E-19-1.92977E-18
 -1      4366 9.37073E-05-2.74090E-05-2.84206E-05 2.70621E-06-2.17819E-19-9.50998E-19
 -1      4367 9.38722E-05-2.76217E-05-2.83760E-05 3.22217E-06-3.50221E-20-1.98551E-19
 -1      4368 9.31837E-05-2.71573E-05-2.83030E-05 3.65544E-06 2.70155E-19-9.63874E-19
 -1      4369 9.76404E-05-2.97398E-05-2.91195E-05-5.74809E-06-8.68771E-20-6.94436E-19
 -1      4370 9.52226E-05-2.85082E-05-2.85919E-05-1.16630E-08 1.26728E-18-5.54793E-18
 -1      4371 9.39148E-05-2.87438E-05-2.79498E-05 7.39749E-06-5.22453E-19-1.19180E-19
 -1      4372 9.52138E-05-2.84932E-05-2.85945E-05-9.32298E-09 7.98193E-19-5.44164E-18
 -3
    1PSTEP                         4           1           1          
  100CL  101 1.000000000        4372                     0    1           1
 -4  ERROR       1    1
 -5  STR(%)      1    1    0    0
 -1         1 1.48624E+01
 -1         2 2.37114E+01
 -1         3 2.23084E-04
 -1         4 2.56078E-04
 -1         5 1.39428E+01
 -1         6 1.32087E+01
 -1         7 1.32087E+01
 -1         8 3.59092E+00
 -1         9 1.82007E+00
 -1        10 1.29537E+00
 -1        11 1.03565E+00
 -1        12 8.73992E-01
 -1        13 7.66627E-01
 -1        14 6.99735E-01
 -1        15 7.27930E-01
 -1        16 8.04523E-01
 -1        17 9.06305E-01
 -1        18 1.06909E+00
 -1        19 1.32625E+00
 -1        20 1.83450E+00
 -1        21 3.47655E+00
 -1        22 8.53779E+00
 -1        23 1.32087E+01
 -1        24 4.24706E+00
 -1        25 3.34669E+00
 -1        26 2.09442E+00
 -1        27 1.51467E+00
 -1        28 1.21840E+00
 -1        29 1.06518E+00
 -1        30 1.36466E+00
 -1        31 1.78808E+00
 -1        32 2.26016E+00
 -1        33 3.12751E+00
 -1        34 4.26104E+00
 -1        35 5.62310E+00
 -1        36 5.78677E+00
 -1        37 5.78677E+00
 -1        38 5.10605E+00
 -1        39 1.46710E+01
 -1        40 1.65970E+01
 -1        41 1.65970E+01
 -1        42 1.38083E+01
 -1        43 5.26306E+00
 -1        44 5.97911E+00
 -1        45 5.97911E+00
 -1        46 5.27754E+00
 -1        47 3.89639E+00
 -1        48 2.81433E+00
 -1        49 1.92197E+00
 -1        50 1.42481E+00
 -1        51 9.74237E-01
 -1        52 7.07296E-01
 -1        53 4.79115E-01
 -1        54 3.21966E-01
 -1        55 2.15485E-01
 -1        56 1.39583E-01
 -1        57 9.89484E-02
 -1        58 7.49241E-02
 -1        59 5.67206E-02
 -1        60 4.28874E-02
 -1        61 3.23368E-02
 -1        62 2.45092E-02
 -1        63 1.82964E-02
 -1        64 1.34141E-02
 -1        65 1.00426E-02
 -1        66 8.08323E-03
 -1        67 6.31695E-03
 -1        68 4.65220E-03
 -1        69 3.31788E-03
 -1        70 2.22760E-03
 -1        71 1.90740E-03
 -1        72 1.26302E-03
 -1        73 1.39428E+01
 -1        74 3.37380E+00
 -1        75 2.36457E+00
 -1        76 1.59737E+00
 -1        77 1.10051E+00
 -1        78 8.45438E-01
 -1        79 6.16403E-01
 -1        80 4.16049E-01
 -1        81 2.72360E-01
 -1        82 3.11687E-01
 -1        83 5.05143E-01
 -1        84 6.99178E-01
 -1        85 8.38477E-01
 -1        86 1.19255E+00
 -1        87 1.61421E+00
 -1        88 1.94083E+00
 -1        89 2.07684E+00
 -1        90 2.28186E+00
 -1        91 2.34310E+00
 -1        92 2.34310E+00
 -1        93 2.13495E+00
 -1        94 1.74437E+00
 -1        95 1.32666E+00
 -1        96 9.38989E-01
 -1        97 5.99169E-01
 -1        98 4.00661E-01
 -1        99 2.48474E-01
 -1       100 1.49810E-01
 -1       101 1.23620E-01
 -1       102 1.17069E-01
 -1       103 1.08287E-01
 -1       104 8.99076E-02
 -1       105 6.87545E-02
 -1       106 5.29642E-02
 -1       107 4.20918E-02
 -1       108 3.36390E-02
 -1       109 2.55325E-02
 -1       110 1.84362E-02
 -1       111 1.26376E-02
 -1       112 1.10430E-02
 -1       113 9.23190E-03
 -1       114 7.41620E-03
 -1       115 6.00922E-03
 -1       116 5.37311E-03
 -1       117 4.51447E-03
 -1       118 3.51010E-03
 -1       119 2.45249E-03
 -1       120 1.69936E-03
 -1       121 1.05242E-03
 -1       122 4.92446E-04
 -1       123 3.98670E-04
 -1       124 1.90147E-04
 -1       125 1.30986E-04
 -1       126 1.92973E-04
 -1       127 2.27443E-04
 -1       128 2.46709E-04
 -1       129 2.59367E-04
 -1       130 2.68734E-04
 -1       131 2.68734E-04
 -1       132 2.65179E-04
 -1       133 2.40244E-04
 -1       134 1.71596E-04
 -1       135 2.20128E-04
 -1       136 4.23817E-04
 -1       137 8.15664E-04
 -1       138 2.37655E+01
 -1       139 4.48588E+01
 -1       140 4.48588E+01
 -1       141 1.77313E+01
 -1       142 1.24174E+01
 -1       143 1.32155E+01
 -1       144 1.32155E+01
 -1       145 1.26463E+01
 -1       146 1.26463E+01
 -1       147 1.24214E+01
 -1       148 2.95925E+01
 -1       149 3.13109E+01
 -1       150 2.81156E+01
 -1       151 2.55436E+01
 -1       152 2.54659E+01
 -1       153 2.54659E+01
 -1       154 4.58057E+01
 -1       155 4.58057E+01
 -1       156 1.76241E+01
 -1       157 1.37124E+01
 -1       158 1.37124E+01
 -1       159 1.34133E+01
 -1       160 1.34133E+01
 -1       161 3.42089E+01
 -1       162 3.42089E+01
 -1       163 2.53395E+01
 -1       164 2.53395E+01
 -1       165 6.08115E+00
 -1       166 2.28278E+00
 -1       167 1.52084E+00
 -1       168 1.16218E+00
 -1       169 9.56111E-01
 -1       170 8.28598E-01
 -1       171 7.45352E-01
 -1       172 7.14628E-01
 -1       173 7.77018E-01
 -1       174 8.62294E-01
 -1       175 9.91313E-01
 -1       176 1.19199E+00
 -1       177 1.55053E+00
 -1       178 2.27575E+00
 -1       179 3.89990E+00
 -1       180 1.39428E+01
 -1       181 4.24706E+00
 -1       182 3.34669E+00
 -1       183 2.09442E+00
 -1       184 1.51467E+00
 -1       185 1.21840E+00
 -1       186 1.06518E+00
 -1       187 1.02937E+00
 -1       188 1.42643E+00
 -1       189 2.24293E+00
 -1       190 3.16505E+00
 -1       191 4.08387E+00
 -1       192 4.69289E+00
 -1       193 5.62310E+00
 -1       194 6.20222E+00
 -1       195 6.62412E+00
 -1       196 6.51542E+00
 -1       197 1.46710E+01
 -1       198 1.65970E+01
 -1       199 1.38083E+01
 -1       200 6.04018E+00
 -1       201 5.83961E+00
 -1       202 5.97911E+00
 -1       203 5.27754E+00
 -1       204 4.29751E+00
 -1       205 3.46181E+00
 -1       206 2.64722E+00
 -1       207 1.88055E+00
 -1       208 1.24413E+00
 -1       209 8.49862E-01
 -1       210 5.45287E-01
 -1       211 3.53679E-01
 -1       212 2.42832E-01
 -1       213 1.60881E-01
 -1       214 1.15819E-01
 -1       215 7.91328E-02
 -1       216 5.67206E-02
 -1       217 4.28874E-02
 -1       218 3.23368E-02
 -1       219 2.45092E-02
 -1       220 1.82964E-02
 -1       221 1.38892E-02
 -1       222 1.04570E-02
 -1       223 8.08323E-03
 -1       224 6.31695E-03
 -1       225 4.65220E-03
 -1       226 3.47408E-03
 -1       227 2.33283E-03
 -1       228 1.90740E-03
 -1       229 1.26302E-03
 -1       230 3.37380E+00
 -1       231 2.36457E+00
 -1       232 1.59737E+00
 -1       233 1.10051E+00
 -1       234 8.45438E-01
 -1       235 6.16403E-01
 -1       236 4.16049E-01
 -1       237 3.15087E-01
 -1       238 3.26053E-01
 -1       239 4.31122E-01
 -1       240 5.71965E-01
 -1       241 7.57134E-01
 -1       242 1.02889E+00
 -1       243 1.34696E+00
 -1       244 1.61421E+00
 -1       245 1.94083E+00
 -1       246 2.07684E+00
 -1       247 2.28186E+00
 -1       248 2.34310E+00
 -1       249 2.13495E+00
 -1       250 1.74437E+00
 -1       251 1.32666E+00
 -1       252 9.69542E-01
 -1       253 6.60941E-01
 -1       254 4.03477E-01
 -1       255 2.48474E-01
 -1       256 1.49810E-01
 -1       257 1.23620E-01
 -1       258 1.17069E-01
 -1       259 1.08287E-01
 -1       260 8.99076E-02
 -1       261 6.87545E-02
 -1       262 5.46277E-02
 -1       263 4.20918E-02
 -1       264 3.36390E-02
 -1       265 2.55325E-02
 -1       266 1.85169E-02
 -1       267 1.32410E-02
 -1       268 1.10430E-02
 -1       269 9.23190E-03
 -1       270 7.41620E-03
 -1       271 6.00922E-03
 -1       272 5.37311E-03
 -1       273 4.51447E-03
 -1       274 3.51010E-03
 -1       275 2.45249E-03
 -1       276 1.69936E-03
 -1       277 1.05242E-03
 -1       278 4.12838E-04
 -1       279 3.60245E-04
 -1       280 2.17664E-04
 -1       281 3.17016E-04
 -1       282 3.85469E-04
 -1       283 4.23471E-04
 -1       284 4.50918E-04
 -1       285 4.69975E-04
 -1       286 4.73218E-04
 -1       287 4.73218E-04
 -1       288 4.66249E-04
 -1       289 4.10984E-04
 -1       290 2.75521E-04
 -1       291 9.63348E-04
 -1       292 2.76882E+01
 -1       293 3.74897E+01
 -1       294 4.48588E+01
 -1       295 1.93798E+01
 -1       296 1.07542E+01
 -1       297 1.24174E+01
 -1       298 1.32155E+01
 -1       299 1.17689E+01
 -1       300 1.26463E+01
 -1       301 1.24214E+01
 -1       302 1.20592E+01
 -1       303 3.13109E+01
 -1       304 3.13109E+01
 -1       305 2.55436E+01
 -1       306 2.94621E+01
 -1       307 2.94621E+01
 -1       308 3.89334E+01
 -1       309 4.58057E+01
 -1       310 1.82070E+01
 -1       311 1.19846E+01
 -1       312 1.37124E+01
 -1       313 1.32537E+01
 -1       314 1.34133E+01
 -1       315 1.23838E+01
 -1       316 1.48624E+01
 -1       317 3.42089E+01
 -1       318 3.29501E+01
 -1       319 2.86949E+01
 -1       320 2.86949E+01
 -1       321 9.63348E-04
 -1       322 1.09428E+00
 -1       323 2.49188E+00
 -1       324 7.90251E-01
 -1       325 6.79639E-01
 -1       326 6.01836E-01
 -1       327 5.47409E-01
 -1       328 5.77084E-01
 -1       329 6.34741E-01
 -1       330 7.13221E-01
 -1       331 8.16035E-01
 -1       332 9.53917E-01
 -1       333 1.15838E+00
 -1       334 1.33440E+00
 -1       335 2.13780E+00
 -1       336 1.84019E+00
 -1       337 1.64110E+00
 -1       338 1.13907E+00
 -1       339 7.95266E-01
 -1       340 6.69364E-01
 -1       341 6.72775E-01
 -1       342 1.11247E+00
 -1       343 1.80587E+00
 -1       344 2.68047E+00
 -1       345 3.78566E+00
 -1       346 5.04394E+00
 -1       347 6.40028E+00
 -1       348 7.84762E+00
 -1       349 1.04567E+01
 -1       350 7.17815E+00
 -1       351 1.26082E+01
 -1       352 8.71628E+00
 -1       353 6.56255E+00
 -1       354 5.35646E+00
 -1       355 4.31508E+00
 -1       356 3.26775E+00
 -1       357 2.34562E+00
 -1       358 1.61383E+00
 -1       359 1.11466E+00
 -1       360 7.39379E-01
 -1       361 4.84781E-01
 -1       362 3.14969E-01
 -1       363 1.98927E-01
 -1       364 1.32313E-01
 -1       365 8.33022E-02
 -1       366 5.52744E-02
 -1       367 3.88793E-02
 -1       368 2.70648E-02
 -1       369 1.87550E-02
 -1       370 1.46168E-02
 -1       371 1.11843E-02
 -1       372 8.39491E-03
 -1       373 6.46877E-03
 -1       374 4.89315E-03
 -1       375 3.77035E-03
 -1       376 2.92366E-03
 -1       377 2.11263E-03
 -1       378 1.46871E-03
 -1       379 1.13248E-03
 -1       380 1.07685E+00
 -1       381 2.60674E+01
 -1       382 7.48163E-01
 -1       383 6.17535E-01
 -1       384 4.75010E-01
 -1       385 3.91742E-01
 -1       386 4.24008E-01
 -1       387 5.25707E-01
 -1       388 6.77485E-01
 -1       389 8.66414E-01
 -1       390 1.06864E+00
 -1       391 1.28520E+00
 -1       392 1.46786E+00
 -1       393 1.55287E+00
 -1       394 1.55287E+00
 -1       395 1.52658E+00
 -1       396 1.56019E+00
 -1       397 1.58725E+00
 -1       398 1.53586E+00
 -1       399 1.34379E+00
 -1       400 1.09235E+00
 -1       401 8.53893E-01
 -1       402 6.13561E-01
 -1       403 4.00481E-01
 -1       404 2.37079E-01
 -1       405 1.32807E-01
 -1       406 6.63294E-02
 -1       407 6.55392E-02
 -1       408 7.31390E-02
 -1       409 6.90791E-02
 -1       410 5.87600E-02
 -1       411 5.02643E-02
 -1       412 4.00017E-02
 -1       413 3.14069E-02
 -1       414 2.46907E-02
 -1       415 1.85169E-02
 -1       416 1.32410E-02
 -1       417 8.96611E-03
 -1       418 6.89985E-03
 -1       419 5.86090E-03
 -1       420 4.73996E-03
 -1       421 3.62767E-03
 -1       422 2.95222E-03
 -1       423 2.45543E-03
 -1       424 1.87094E-03
 -1       425 1.38612E-03
 -1       426 9.63716E-04
 -1       427 4.37524E-04
 -1       428 7.04350E-04
 -1       429 7.37424E-04
 -1       430 4.89890E-04
 -1       431 5.17651E-04
 -1       432 5.41575E-04
 -1       433 5.65929E-04
 -1       434 5.80258E-04
 -1       435 6.06646E-04
 -1       436 6.18002E-04
 -1       437 6.18002E-04
 -1       438 5.55719E-04
 -1       439 9.27232E-04
 -1       440 1.51273E+01
 -1       441 4.27576E+01
 -1       442 9.27875E-01
 -1       443 9.02667E+00
 -1       444 8.08612E+00
 -1       445 8.45014E+00
 -1       446 1.08222E+01
 -1       447 1.09502E+01
 -1       448 8.96017E+00
 -1       449 5.69254E+00
 -1       450 1.16168E+01
 -1       451 2.00371E+01
 -1       452 2.43995E+01
 -1       453 4.07040E+01
 -1       454 4.07040E+01
 -1       455 2.24195E+01
 -1       456 2.77960E+01
 -1       457 1.58947E+01
 -1       458 8.79167E+00
 -1       459 8.74822E+00
 -1       460 1.18317E+01
 -1       461 1.14603E+01
 -1       462 9.67945E+00
 -1       463 1.29071E+01
 -1       464 2.15633E+01
 -1       465 2.58875E+01
 -1       466 4.27576E+01
 -1       467 2.72930E+01
 -1       468 8.00971E+00
 -1       469 3.78411E+01
 -1       470 2.43995E+01
 -1       471 9.08641E+00
 -1       472 4.63096E-01
 -1       473 5.07335E-01
 -1       474 4.19896E-01
 -1       475 4.62347E-01
 -1       476 5.05162E-01
 -1       477 5.36957E-01
 -1       478 5.36957E-01
 -1       479 5.35937E-01
 -1       480 6.26947E-01
 -1       481 1.26258E+00
 -1       482 7.19128E-01
 -1       483 7.69314E+00
 -1       484 2.58875E+01
 -1       485 1.96114E+01
 -1       486 4.84286E-01
 -1       487 2.72655E-01
 -1       488 4.02549E-01
 -1       489 7.09413E-01
 -1       490 1.20427E+00
 -1       491 1.91192E+00
 -1       492 3.07249E+00
 -1       493 4.73827E+00
 -1       494 7.76000E+00
 -1       495 1.65001E+01
 -1       496 1.08431E+01
 -1       497 6.76673E+00
 -1       498 4.27576E+01
 -1       499 8.88233E-01
 -1       500 9.67885E+00
 -1       501 7.10915E+00
 -1       502 5.29793E+00
 -1       503 3.50958E+00
 -1       504 2.37360E+00
 -1       505 1.61383E+00
 -1       506 1.11466E+00
 -1       507 7.39379E-01
 -1       508 5.02150E-01
 -1       509 3.41791E-01
 -1       510 2.30701E-01
 -1       511 1.58652E-01
 -1       512 1.05880E-01
 -1       513 6.98117E-02
 -1       514 4.53033E-02
 -1       515 2.87161E-02
 -1       516 1.79591E-02
 -1       517 1.32092E-02
 -1       518 9.63494E-03
 -1       519 7.86524E-03
 -1       520 6.23538E-03
 -1       521 4.78107E-03
 -1       522 3.60607E-03
 -1       523 2.77867E-03
 -1       524 2.05322E-03
 -1       525 1.47648E-03
 -1       526 1.32151E-03
 -1       527 6.17535E-01
 -1       528 6.76674E-01
 -1       529 3.91742E-01
 -1       530 4.05354E-01
 -1       531 4.67777E-01
 -1       532 5.70636E-01
 -1       533 7.31895E-01
 -1       534 9.40515E-01
 -1       535 1.14727E+00
 -1       536 1.30498E+00
 -1       537 1.46786E+00
 -1       538 1.55287E+00
 -1       539 1.52658E+00
 -1       540 1.52471E+00
 -1       541 1.56019E+00
 -1       542 1.48565E+00
 -1       543 1.30574E+00
 -1       544 1.12947E+00
 -1       545 9.02397E-01
 -1       546 6.59173E-01
 -1       547 4.56065E-01
 -1       548 2.95696E-01
 -1       549 1.73897E-01
 -1       550 9.46141E-02
 -1       551 7.66271E-02
 -1       552 5.98096E-02
 -1       553 5.77272E-02
 -1       554 5.34955E-02
 -1       555 4.61196E-02
 -1       556 3.83311E-02
 -1       557 3.07750E-02
 -1       558 2.32171E-02
 -1       559 1.64817E-02
 -1       560 1.21101E-02
 -1       561 8.53022E-03
 -1       562 6.89985E-03
 -1       563 5.86090E-03
 -1       564 4.73996E-03
 -1       565 3.62767E-03
 -1       566 2.79884E-03
 -1       567 2.22547E-03
 -1       568 1.60004E-03
 -1       569 1.27183E-03
 -1       570 6.12645E-04
 -1       571 5.68233E-04
 -1       572 9.38241E-04
 -1       573 6.18910E-04
 -1       574 5.76850E-04
 -1       575 6.06382E-04
 -1       576 6.32970E-04
 -1       577 7.21029E-04
 -1       578 7.71321E-04
 -1       579 7.71321E-04
 -1       580 7.64293E-04
 -1       581 1.24002E+01
 -1       582 8.72340E-01
 -1       583 4.75010E-01
 -1       584 4.19933E-01
 -1       585 5.04706E+00
 -1       586 4.22095E+00
 -1       587 7.61852E+00
 -1       588 1.93335E+01
 -1       589 7.22371E+00
 -1       590 9.89377E+00
 -1       591 1.73770E+01
 -1       592 4.07040E+01
 -1       593 5.43426E+00
 -1       594 1.56486E+01
 -1       595 2.72930E+01
 -1       596 5.07335E-01
 -1       597 1.91526E+01
 -1       598 1.14793E+01
 -1       599 4.98251E-01
 -1       600 7.59823E+00
 -1       601 1.28524E+01
 -1       602 3.77271E-01
 -1       603 3.46888E-01
 -1       604 3.93524E-01
 -1       605 3.77206E-01
 -1       606 4.04944E-01
 -1       607 6.75050E-01
 -1       608 3.34403E-01
 -1       609 4.05553E-01
 -1       610 5.91758E-01
 -1       611 1.01106E+00
 -1       612 1.62062E+00
 -1       613 2.64549E+00
 -1       614 4.20836E+00
 -1       615 6.73167E+00
 -1       616 1.14170E+01
 -1       617 4.67777E-01
 -1       618 3.33067E-01
 -1       619 3.54943E-01
 -1       620 1.82695E+01
 -1       621 1.37938E-03
 -1       622 1.05305E+01
 -1       623 6.21269E+00
 -1       624 3.82419E+00
 -1       625 2.46198E+00
 -1       626 1.58507E+00
 -1       627 1.01635E+00
 -1       628 6.54466E-01
 -1       629 4.32573E-01
 -1       630 2.87969E-01
 -1       631 1.88874E-01
 -1       632 1.29297E-01
 -1       633 8.91719E-02
 -1       634 6.06516E-02
 -1       635 4.05282E-02
 -1       636 2.63231E-02
 -1       637 1.71670E-02
 -1       638 1.04249E-02
 -1       639 6.42216E-03
 -1       640 4.65317E-03
 -1       641 3.93577E-03
 -1       642 3.19596E-03
 -1       643 2.46195E-03
 -1       644 1.96227E-03
 -1       645 1.48144E-03
 -1       646 1.13867E-03
 -1       647 5.70636E-01
 -1       648 3.88999E-01
 -1       649 6.90570E-01
 -1       650 8.22101E-01
 -1       651 9.97359E-01
 -1       652 1.16451E+00
 -1       653 1.24493E+00
 -1       654 1.29936E+00
 -1       655 1.27921E+00
 -1       656 1.19619E+00
 -1       657 1.25409E+00
 -1       658 1.27944E+00
 -1       659 1.22480E+00
 -1       660 1.13705E+00
 -1       661 9.58748E-01
 -1       662 7.50736E-01
 -1       663 5.78786E-01
 -1       664 4.24226E-01
 -1       665 2.85857E-01
 -1       666 1.77703E-01
 -1       667 1.27337E-01
 -1       668 8.66354E-02
 -1       669 6.78356E-02
 -1       670 6.07188E-02
 -1       671 5.16367E-02
 -1       672 4.33063E-02
 -1       673 3.49222E-02
 -1       674 2.73799E-02
 -1       675 2.04613E-02
 -1       676 1.45737E-02
 -1       677 9.83885E-03
 -1       678 6.21154E-03
 -1       679 4.11377E-03
 -1       680 3.38537E-03
 -1       681 2.95670E-03
 -1       682 2.40465E-03
 -1       683 1.81805E-03
 -1       684 1.58104E-03
 -1       685 5.76850E-04
 -1       686 9.85832E+00
 -1       687 5.90560E-04
 -1       688 6.06382E-04
 -1       689 5.63305E-04
 -1       690 6.69117E-04
 -1       691 8.51680E-04
 -1       692 9.25607E-04
 -1       693 8.61479E+00
 -1       694 1.97837E+01
 -1       695 1.47975E+01
 -1       696 5.24805E+00
 -1       697 1.16964E+01
 -1       698 4.38165E+00
 -1       699 4.54741E+00
 -1       700 8.35603E+00
 -1       701 1.67965E+01
 -1       702 4.05741E+00
 -1       703 6.65638E+00
 -1       704 3.93524E-01
 -1       705 4.53332E-01
 -1       706 1.17068E+01
 -1       707 3.70730E+00
 -1       708 3.10296E+00
 -1       709 1.73648E+01
 -1       710 3.03709E-01
 -1       711 3.63915E-01
 -1       712 3.33067E-01
 -1       713 3.04274E-01
 -1       714 4.20544E-01
 -1       715 1.07142E-03
 -1       716 4.36412E+00
 -1       717 1.13649E-03
 -1       718 1.44878E+01
 -1       719 6.16025E+00
 -1       720 8.59524E+00
 -1       721 4.04058E-01
 -1       722 2.18792E-01
 -1       723 2.93615E-01
 -1       724 3.35373E-01
 -1       725 6.70013E-01
 -1       726 4.23574E-01
 -1       727 6.88429E-01
 -1       728 1.03477E+00
 -1       729 1.71685E+00
 -1       730 2.80688E+00
 -1       731 4.66467E+00
 -1       732 3.34403E-01
 -1       733 5.23828E-01
 -1       734 4.52724E+00
 -1       735 2.84890E+00
 -1       736 1.86157E+00
 -1       737 1.22760E+00
 -1       738 8.19209E-01
 -1       739 5.47981E-01
 -1       740 3.68288E-01
 -1       741 2.47729E-01
 -1       742 1.63133E-01
 -1       743 1.06385E-01
 -1       744 7.04216E-02
 -1       745 4.63178E-02
 -1       746 3.03785E-02
 -1       747 2.03509E-02
 -1       748 1.35786E-02
 -1       749 8.72946E-03
 -1       750 5.34610E-03
 -1       751 3.11053E-03
 -1       752 2.67119E-03
 -1       753 2.38085E-03
 -1       754 1.96227E-03
 -1       755 1.48144E-03
 -1       756 8.51680E-04
 -1       757 9.39258E+00
 -1       758 4.00840E-01
 -1       759 9.49432E-01
 -1       760 1.09370E+00
 -1       761 1.19863E+00
 -1       762 1.29936E+00
 -1       763 1.50413E+00
 -1       764 1.42340E+00
 -1       765 1.30753E+00
 -1       766 1.42450E+00
 -1       767 1.29140E+00
 -1       768 1.17010E+00
 -1       769 1.06216E+00
 -1       770 9.20442E-01
 -1       771 7.50736E-01
 -1       772 5.78786E-01
 -1       773 4.07801E-01
 -1       774 2.78444E-01
 -1       775 1.92205E-01
 -1       776 1.27337E-01
 -1       777 9.27820E-02
 -1       778 7.71456E-02
 -1       779 6.10529E-02
 -1       780 5.06093E-02
 -1       781 4.00632E-02
 -1       782 3.05417E-02
 -1       783 2.28741E-02
 -1       784 1.66186E-02
 -1       785 1.16424E-02
 -1       786 7.81956E-03
 -1       787 4.98178E-03
 -1       788 2.95195E-03
 -1       789 1.82387E-03
 -1       790 1.73474E-03
 -1       791 1.54657E-03
 -1       792 5.72525E-04
 -1       793 8.22101E-01
 -1       794 7.60974E+00
 -1       795 3.25237E-01
 -1       796 4.44657E+00
 -1       797 7.17168E-04
 -1       798 5.20717E+00
 -1       799 3.14797E+00
 -1       800 8.30059E+00
 -1       801 6.54746E+00
 -1       802 1.04965E+01
 -1       803 4.16013E+00
 -1       804 4.34432E+00
 -1       805 2.74637E+00
 -1       806 2.69760E+00
 -1       807 3.13565E-01
 -1       808 5.85705E-04
 -1       809 1.05305E+01
 -1       810 3.23203E-01
 -1       811 3.03969E-01
 -1       812 6.97032E+00
 -1       813 2.70462E-01
 -1       814 2.75364E-01
 -1       815 2.36085E-01
 -1       816 9.53853E-04
 -1       817 1.21384E-03
 -1       818 5.64356E-04
 -1       819 1.21384E-03
 -1       820 7.25190E+00
 -1       821 6.81980E-04
 -1       822 5.40974E-04
 -1       823 2.28297E-01
 -1       824 3.82996E+00
 -1       825 2.79148E+00
 -1       826 3.23203E-01
 -1       827 5.06034E+00
 -1       828 4.45058E+00
 -1       829 3.10296E+00
 -1       830 2.54759E-01
 -1       831 3.49137E-01
 -1       832 5.72307E-01
 -1       833 8.39730E-01
 -1       834 1.31213E+00
 -1       835 1.92336E+00
 -1       836 3.37083E+00
 -1       837 2.55614E+00
 -1       838 5.63614E-01
 -1       839 2.14579E-01
 -1       840 7.55472E+00
 -1       841 1.81966E+00
 -1       842 1.20636E+00
 -1       843 7.72132E-01
 -1       844 4.92872E-01
 -1       845 3.56033E-01
 -1       846 2.55987E-01
 -1       847 1.79979E-01
 -1       848 1.25153E-01
 -1       849 8.60019E-02
 -1       850 5.82867E-02
 -1       851 3.98925E-02
 -1       852 2.71451E-02
 -1       853 1.79186E-02
 -1       854 1.14448E-02
 -1       855 6.98062E-03
 -1       856 3.95929E-03
 -1       857 2.43951E-03
 -1       858 1.62686E-03
 -1       859 1.41792E-03
 -1       860 1.28938E+00
 -1       861 1.11187E+00
 -1       862 2.72035E+00
 -1       863 3.59425E+00
 -1       864 2.22463E+00
 -1       865 1.79085E+00
 -1       866 1.58640E+00
 -1       867 1.29140E+00
 -1       868 1.27968E+00
 -1       869 1.12722E+00
 -1       870 9.20442E-01
 -1       871 7.14125E-01
 -1       872 5.36505E-01
 -1       873 3.82748E-01
 -1       874 2.78444E-01
 -1       875 1.92205E-01
 -1       876 1.32339E-01
 -1       877 1.00681E-01
 -1       878 7.89641E-02
 -1       879 6.21001E-02
 -1       880 4.71350E-02
 -1       881 3.47157E-02
 -1       882 2.60972E-02
 -1       883 1.96944E-02
 -1       884 1.41690E-02
 -1       885 9.78680E-03
 -1       886 6.50279E-03
 -1       887 4.02142E-03
 -1       888 2.23265E-03
 -1       889 1.10396E-03
 -1       890 9.96522E-04
 -1       891 9.49432E-01
 -1       892 1.40696E-01
 -1       893 6.55419E+00
 -1       894 5.06558E+00
 -1       895 7.55740E-01
 -1       896 6.55419E+00
 -1       897 2.54352E+00
 -1       898 3.21902E+00
 -1       899 2.23491E+00
 -1       900 5.57209E+00
 -1       901 1.59048E+00
 -1       902 4.01067E-01
 -1       903 1.12158E-03
 -1       904 2.54352E+00
 -1       905 4.89545E+00
 -1       906 3.60860E+00
 -1       907 1.96649E-01
 -1       908 2.84112E+00
 -1       909 2.86196E-01
 -1       910 1.13759E-03
 -1       911 3.11928E-01
 -1       912 6.25528E+00
 -1       913 8.51355E-04
 -1       914 5.75440E-04
 -1       915 5.75440E-04
 -1       916 2.00074E-01
 -1       917 3.27434E+00
 -1       918 2.27176E+00
 -1       919 2.55170E-01
 -1       920 3.56654E+00
 -1       921 6.94619E-04
 -1       922 2.76256E+00
 -1       923 3.59425E+00
 -1       924 2.02901E+00
 -1       925 4.03089E+00
 -1       926 3.11928E-01
 -1       927 6.09293E-04
 -1       928 6.94619E-04
 -1       929 1.12253E-03
 -1       930 4.85947E-01
 -1       931 5.72307E-01
 -1       932 9.86064E-01
 -1       933 1.57024E+00
 -1       934 2.36169E+00
 -1       935 3.59425E+00
 -1       936 1.77857E-01
 -1       937 2.22463E+00
 -1       938 2.09159E+00
 -1       939 1.41576E+00
 -1       940 8.14488E-01
 -1       941 5.72100E-01
 -1       942 3.77414E-01
 -1       943 2.68888E-01
 -1       944 1.79500E-01
 -1       945 1.18490E-01
 -1       946 8.78082E-02
 -1       947 6.37086E-02
 -1       948 4.55607E-02
 -1       949 3.20668E-02
 -1       950 2.20167E-02
 -1       951 1.49826E-02
 -1       952 9.86998E-03
 -1       953 6.26011E-03
 -1       954 3.82965E-03
 -1       955 2.09808E-03
 -1       956 1.42768E-03
 -1       957 1.28938E+00
 -1       958 2.76527E+00
 -1       959 2.04518E+00
 -1       960 1.89547E+00
 -1       961 1.27968E+00
 -1       962 1.16882E+00
 -1       963 8.55604E-01
 -1       964 7.19988E-01
 -1       965 5.76983E-01
 -1       966 4.30367E-01
 -1       967 3.34019E-01
 -1       968 2.54108E-01
 -1       969 1.83254E-01
 -1       970 1.27996E-01
 -1       971 8.82514E-02
 -1       972 5.89779E-02
 -1       973 4.33044E-02
 -1       974 3.43417E-02
 -1       975 2.60972E-02
 -1       976 1.90569E-02
 -1       977 1.33524E-02
 -1       978 8.94604E-03
 -1       979 5.88645E-03
 -1       980 3.63465E-03
 -1       981 2.04301E-03
 -1       982 1.01255E-03
 -1       983 1.11187E+00
 -1       984 4.57973E+00
 -1       985 6.55808E-01
 -1       986 4.89545E+00
 -1       987 4.14478E+00
 -1       988 8.97678E-01
 -1       989 2.11362E-01
 -1       990 1.88538E+00
 -1       991 2.39833E-01
 -1       992 2.22113E-01
 -1       993 3.49137E-01
 -1       994 3.49428E-01
 -1       995 1.66234E+00
 -1       996 4.04451E+00
 -1       997 1.88538E+00
 -1       998 1.31099E-03
 -1       999 3.00755E+00
 -1      1000 2.56498E+00
 -1      1001 1.42768E-03
 -1      1002 1.92380E+00
 -1      1003 2.94517E+00
 -1      1004 2.81332E-01
 -1      1005 2.86196E-01
 -1      1006 8.77201E-04
 -1      1007 3.11928E-01
 -1      1008 2.04518E+00
 -1      1009 1.09822E+00
 -1      1010 1.77403E+00
 -1      1011 2.68556E-01
 -1      1012 3.13560E+00
 -1      1013 1.06070E+00
 -1      1014 6.59568E-01
 -1      1015 4.01312E-01
 -1      1016 2.75079E-01
 -1      1017 2.00263E-01
 -1      1018 1.42323E-01
 -1      1019 9.96417E-02
 -1      1020 6.89038E-02
 -1      1021 4.52375E-02
 -1      1022 3.24710E-02
 -1      1023 2.30085E-02
 -1      1024 1.61918E-02
 -1      1025 1.12905E-02
 -1      1026 7.67761E-03
 -1      1027 5.04552E-03
 -1      1028 3.16059E-03
 -1      1029 1.96289E-03
 -1      1030 1.88436E+00
 -1      1031 1.16882E+00
 -1      1032 1.14098E+00
 -1      1033 7.19988E-01
 -1      1034 5.76983E-01
 -1      1035 4.30367E-01
 -1      1036 3.03463E-01
 -1      1037 2.09510E-01
 -1      1038 1.38152E-01
 -1      1039 9.12206E-02
 -1      1040 6.66888E-02
 -1      1041 4.86351E-02
 -1      1042 3.60565E-02
 -1      1043 2.64763E-02
 -1      1044 1.89614E-02
 -1      1045 1.32053E-02
 -1      1046 8.88952E-03
 -1      1047 6.04851E-03
 -1      1048 4.04246E-03
 -1      1049 2.62133E-03
 -1      1050 1.54086E-03
 -1      1051 2.65917E+00
 -1      1052 1.20426E+00
 -1      1053 2.68556E-01
 -1      1054 8.97678E-01
 -1      1055 6.55808E-01
 -1      1056 2.63883E+00
 -1      1057 1.70100E+00
 -1      1058 1.61459E+00
 -1      1059 3.04526E-01
 -1      1060 2.18093E+00
 -1      1061 2.09159E+00
 -1      1062 7.20501E-01
 -1      1063 1.34184E-03
 -1      1064 4.08097E-01
 -1      1065 5.09124E-01
 -1      1066 6.25763E-01
 -1      1067 1.37315E-03
 -1      1068 1.67440E+00
 -1      1069 4.65254E-01
 -1      1070 4.11891E-01
 -1      1071 2.02864E+00
 -1      1072 6.59568E-01
 -1      1073 2.61549E+00
 -1      1074 1.90293E+00
 -1      1075 1.10933E+00
 -1      1076 4.90378E-01
 -1      1077 3.37526E-01
 -1      1078 2.22807E-01
 -1      1079 1.43407E-01
 -1      1080 1.02099E-01
 -1      1081 7.61156E-02
 -1      1082 5.33637E-02
 -1      1083 4.05790E-02
 -1      1084 2.87611E-02
 -1      1085 1.99504E-02
 -1      1086 1.36171E-02
 -1      1087 9.30957E-03
 -1      1088 5.92892E-03
 -1      1089 4.03819E-03
 -1      1090 1.14098E+00
 -1      1091 9.04799E-01
 -1      1092 7.09282E-01
 -1      1093 3.79547E-01
 -1      1094 2.53186E-01
 -1      1095 1.78390E-01
 -1      1096 1.23842E-01
 -1      1097 9.12206E-02
 -1      1098 6.66888E-02
 -1      1099 4.78508E-02
 -1      1100 3.37792E-02
 -1      1101 2.34198E-02
 -1      1102 1.70673E-02
 -1      1103 1.23961E-02
 -1      1104 8.67354E-03
 -1      1105 6.04851E-03
 -1      1106 4.01671E-03
 -1      1107 1.76299E+00
 -1      1108 2.23595E-03
 -1      1109 1.76299E+00
 -1      1110 4.65254E-01
 -1      1111 1.10102E+00
 -1      1112 2.48089E-03
 -1      1113 1.61459E+00
 -1      1114 1.98884E-03
 -1      1115 9.59633E-01
 -1      1116 1.36589E+00
 -1      1117 5.64808E-01
 -1      1118 2.48089E-03
 -1      1119 2.50778E-01
 -1      1120 1.78390E-01
 -1      1121 1.23842E-01
 -1      1122 8.43687E-02
 -1      1123 5.70080E-02
 -1      1124 4.21746E-02
 -1      1125 3.18186E-02
 -1      1126 2.33282E-02
 -1      1127 1.66544E-02
 -1      1128 1.15349E-02
 -1      1129 7.62109E-03
 -1      1130 5.40810E-03
 -1      1131 9.04799E-01
 -1      1132 9.04799E-01
 -1      1133 3.39065E-03
 -1      1134 3.37526E-01
 -1      1135 1.32087E+01
 -1      1136 8.39983E+00
 -1      1137 2.70550E+00
 -1      1138 1.55772E+00
 -1      1139 1.16551E+00
 -1      1140 9.54822E-01
 -1      1141 8.20310E-01
 -1      1142 7.33181E-01
 -1      1143 7.13833E-01
 -1      1144 7.66226E-01
 -1      1145 8.55414E-01
 -1      1146 9.87696E-01
 -1      1147 1.19767E+00
 -1      1148 1.58037E+00
 -1      1149 2.65553E+00
 -1      1150 6.00717E+00
 -1      1151 1.12403E+01
 -1      1152 1.32087E+01
 -1      1153 8.72790E+00
 -1      1154 3.79688E+00
 -1      1155 2.72056E+00
 -1      1156 1.80455E+00
 -1      1157 1.36653E+00
 -1      1158 1.14179E+00
 -1      1159 1.21492E+00
 -1      1160 1.57637E+00
 -1      1161 2.02412E+00
 -1      1162 2.69383E+00
 -1      1163 3.69427E+00
 -1      1164 4.94207E+00
 -1      1165 5.70494E+00
 -1      1166 5.78677E+00
 -1      1167 5.44641E+00
 -1      1168 9.88854E+00
 -1      1169 1.56340E+01
 -1      1170 1.65970E+01
 -1      1171 1.52026E+01
 -1      1172 9.53566E+00
 -1      1173 5.62108E+00
 -1      1174 5.97911E+00
 -1      1175 5.62832E+00
 -1      1176 4.58697E+00
 -1      1177 3.35536E+00
 -1      1178 2.36815E+00
 -1      1179 1.67339E+00
 -1      1180 1.19952E+00
 -1      1181 8.40766E-01
 -1      1182 5.93206E-01
 -1      1183 4.00541E-01
 -1      1184 2.68726E-01
 -1      1185 1.77534E-01
 -1      1186 1.19265E-01
 -1      1187 8.69362E-02
 -1      1188 6.58223E-02
 -1      1189 4.98040E-02
 -1      1190 3.76121E-02
 -1      1191 2.84230E-02
 -1      1192 2.14028E-02
 -1      1193 1.58553E-02
 -1      1194 1.17283E-02
 -1      1195 9.06290E-03
 -1      1196 7.20009E-03
 -1      1197 5.48458E-03
 -1      1198 3.98504E-03
 -1      1199 2.77274E-03
 -1      1200 2.06750E-03
 -1      1201 1.58521E-03
 -1      1202 7.59548E-04
 -1      1203 1.39428E+01
 -1      1204 8.65830E+00
 -1      1205 2.86918E+00
 -1      1206 1.98097E+00
 -1      1207 1.34894E+00
 -1      1208 9.72974E-01
 -1      1209 7.30921E-01
 -1      1210 5.16226E-01
 -1      1211 3.44205E-01
 -1      1212 2.92023E-01
 -1      1213 4.08415E-01
 -1      1214 6.02160E-01
 -1      1215 7.68827E-01
 -1      1216 1.01551E+00
 -1      1217 1.40338E+00
 -1      1218 1.77752E+00
 -1      1219 2.00884E+00
 -1      1220 2.17935E+00
 -1      1221 2.31248E+00
 -1      1222 2.34310E+00
 -1      1223 2.23903E+00
 -1      1224 1.93966E+00
 -1      1225 1.53551E+00
 -1      1226 1.13282E+00
 -1      1227 7.69079E-01
 -1      1228 4.99915E-01
 -1      1229 3.24568E-01
 -1      1230 1.99142E-01
 -1      1231 1.36715E-01
 -1      1232 1.20345E-01
 -1      1233 1.12678E-01
 -1      1234 9.90974E-02
 -1      1235 7.93310E-02
 -1      1236 6.08593E-02
 -1      1237 4.75280E-02
 -1      1238 3.78654E-02
 -1      1239 2.95858E-02
 -1      1240 2.19844E-02
 -1      1241 1.55369E-02
 -1      1242 1.18403E-02
 -1      1243 1.01374E-02
 -1      1244 8.32405E-03
 -1      1245 6.71271E-03
 -1      1246 5.69117E-03
 -1      1247 4.94379E-03
 -1      1248 4.01228E-03
 -1      1249 2.98129E-03
 -1      1250 2.07593E-03
 -1      1251 1.37589E-03
 -1      1252 6.37750E-04
 -1      1253 3.57765E-04
 -1      1254 4.45558E-04
 -1      1255 2.94408E-04
 -1      1256 1.60566E-04
 -1      1257 1.61979E-04
 -1      1258 2.10208E-04
 -1      1259 2.37076E-04
 -1      1260 2.53038E-04
 -1      1261 2.64051E-04
 -1      1262 2.68734E-04
 -1      1263 2.66957E-04
 -1      1264 2.52711E-04
 -1      1265 2.05920E-04
 -1      1266 1.95862E-04
 -1      1267 3.21972E-04
 -1      1268 6.19740E-04
 -1      1269 5.35871E-04
 -1      1270 2.37385E+01
 -1      1271 3.43121E+01
 -1      1272 4.48588E+01
 -1      1273 3.12950E+01
 -1      1274 1.50743E+01
 -1      1275 1.28164E+01
 -1      1276 1.32155E+01
 -1      1277 1.29309E+01
 -1      1278 1.26463E+01
 -1      1279 1.25339E+01
 -1      1280 2.10070E+01
 -1      1281 3.04517E+01
 -1      1282 2.97133E+01
 -1      1283 2.68296E+01
 -1      1284 2.55048E+01
 -1      1285 2.54659E+01
 -1      1286 3.56358E+01
 -1      1287 4.58057E+01
 -1      1288 3.17149E+01
 -1      1289 1.56682E+01
 -1      1290 1.37124E+01
 -1      1291 1.35629E+01
 -1      1292 1.34133E+01
 -1      1293 1.41379E+01
 -1      1294 2.45357E+01
 -1      1295 3.42089E+01
 -1      1296 2.97742E+01
 -1      1297 2.53395E+01
 -1      1298 2.45255E+01
 -1      1299 1.32087E+01
 -1      1300 4.83604E+00
 -1      1301 9.64495E+00
 -1      1302 2.05143E+00
 -1      1303 2.93685E+00
 -1      1304 4.18197E+00
 -1      1305 1.40811E+00
 -1      1306 1.67046E+00
 -1      1307 1.90181E+00
 -1      1308 1.09892E+00
 -1      1309 1.22877E+00
 -1      1310 1.34151E+00
 -1      1311 9.15051E-01
 -1      1312 9.95882E-01
 -1      1313 1.05914E+00
 -1      1314 7.97612E-01
 -1      1315 8.51295E-01
 -1      1316 8.92354E-01
 -1      1317 7.22543E-01
 -1      1318 7.55990E-01
 -1      1319 7.86975E-01
 -1      1320 7.21279E-01
 -1      1321 7.07181E-01
 -1      1322 7.29990E-01
 -1      1323 7.90771E-01
 -1      1324 7.52474E-01
 -1      1325 7.45823E-01
 -1      1326 8.84300E-01
 -1      1327 8.33408E-01
 -1      1328 8.19656E-01
 -1      1329 1.03020E+00
 -1      1330 9.48809E-01
 -1      1331 9.26803E-01
 -1      1332 1.25912E+00
 -1      1333 1.13054E+00
 -1      1334 1.09165E+00
 -1      1335 1.69251E+00
 -1      1336 1.43839E+00
 -1      1337 1.37126E+00
 -1      1338 2.87615E+00
 -1      1339 2.05512E+00
 -1      1340 1.91314E+00
 -1      1341 6.21884E+00
 -1      1342 3.68823E+00
 -1      1343 3.08783E+00
 -1      1344 1.39428E+01
 -1      1345 1.12403E+01
 -1      1346 8.92135E+00
 -1      1347 1.39428E+01
 -1      1348 8.72790E+00
 -1      1349 4.24706E+00
 -1      1350 3.79688E+00
 -1      1351 3.34669E+00
 -1      1352 3.79688E+00
 -1      1353 2.72056E+00
 -1      1354 2.09442E+00
 -1      1355 2.72056E+00
 -1      1356 1.80455E+00
 -1      1357 1.51467E+00
 -1      1358 1.80455E+00
 -1      1359 1.36653E+00
 -1      1360 1.21840E+00
 -1      1361 1.36653E+00
 -1      1362 1.14179E+00
 -1      1363 1.06518E+00
 -1      1364 1.14179E+00
 -1      1365 1.04727E+00
 -1      1366 1.19701E+00
 -1      1367 1.04727E+00
 -1      1368 1.39555E+00
 -1      1369 1.60726E+00
 -1      1370 1.22790E+00
 -1      1371 2.01550E+00
 -1      1372 2.25154E+00
 -1      1373 1.83468E+00
 -1      1374 2.71261E+00
 -1      1375 3.14628E+00
 -1      1376 2.70399E+00
 -1      1377 3.60569E+00
 -1      1378 4.17246E+00
 -1      1379 3.62446E+00
 -1      1380 4.47696E+00
 -1      1381 5.15799E+00
 -1      1382 4.38838E+00
 -1      1383 5.62310E+00
 -1      1384 5.70494E+00
 -1      1385 5.15799E+00
 -1      1386 5.99449E+00
 -1      1387 5.99449E+00
 -1      1388 5.91266E+00
 -1      1389 6.20544E+00
 -1      1390 5.86508E+00
 -1      1391 6.41317E+00
 -1      1392 5.81073E+00
 -1      1393 1.05932E+01
 -1      1394 6.56977E+00
 -1      1395 1.46710E+01
 -1      1396 1.56340E+01
 -1      1397 1.05932E+01
 -1      1398 1.65970E+01
 -1      1399 1.65970E+01
 -1      1400 1.56340E+01
 -1      1401 1.52026E+01
 -1      1402 1.38083E+01
 -1      1403 1.52026E+01
 -1      1404 9.92422E+00
 -1      1405 5.65162E+00
 -1      1406 9.92422E+00
 -1      1407 5.55133E+00
 -1      1408 5.90936E+00
 -1      1409 5.93990E+00
 -1      1410 5.97911E+00
 -1      1411 5.97911E+00
 -1      1412 5.90936E+00
 -1      1413 5.62832E+00
 -1      1414 5.27754E+00
 -1      1415 5.62832E+00
 -1      1416 4.78752E+00
 -1      1417 4.09695E+00
 -1      1418 4.78752E+00
 -1      1419 3.67910E+00
 -1      1420 3.13807E+00
 -1      1421 3.87966E+00
 -1      1422 2.73078E+00
 -1      1423 2.28459E+00
 -1      1424 3.05451E+00
 -1      1425 1.90126E+00
 -1      1426 1.65268E+00
 -1      1427 2.26388E+00
 -1      1428 1.33447E+00
 -1      1429 1.10918E+00
 -1      1430 1.56234E+00
 -1      1431 9.12049E-01
 -1      1432 7.78579E-01
 -1      1433 1.04699E+00
 -1      1434 6.26291E-01
 -1      1435 5.12201E-01
 -1      1436 6.97575E-01
 -1      1437 4.16397E-01
 -1      1438 3.37823E-01
 -1      1439 4.49483E-01
 -1      1440 2.82399E-01
 -1      1441 2.29159E-01
 -1      1442 2.98256E-01
 -1      1443 1.88183E-01
 -1      1444 1.50232E-01
 -1      1445 2.01856E-01
 -1      1446 1.27701E-01
 -1      1447 1.07384E-01
 -1      1448 1.38350E-01
 -1      1449 8.90406E-02
 -1      1450 7.70285E-02
 -1      1451 9.74761E-02
 -1      1452 6.58223E-02
 -1      1453 5.67206E-02
 -1      1454 6.79267E-02
 -1      1455 4.98040E-02
 -1      1456 4.28874E-02
 -1      1457 4.98040E-02
 -1      1458 3.76121E-02
 -1      1459 3.23368E-02
 -1      1460 3.76121E-02
 -1      1461 2.84230E-02
 -1      1462 2.45092E-02
 -1      1463 2.84230E-02
 -1      1464 2.14028E-02
 -1      1465 1.82964E-02
 -1      1466 2.14028E-02
 -1      1467 1.60928E-02
 -1      1468 1.36517E-02
 -1      1469 1.60928E-02
 -1      1470 1.19356E-02
 -1      1471 1.02498E-02
 -1      1472 1.21731E-02
 -1      1473 9.06290E-03
 -1      1474 8.08323E-03
 -1      1475 9.27013E-03
 -1      1476 7.20009E-03
 -1      1477 6.31695E-03
 -1      1478 7.20009E-03
 -1      1479 5.48458E-03
 -1      1480 4.65220E-03
 -1      1481 5.48458E-03
 -1      1482 4.06314E-03
 -1      1483 3.39598E-03
 -1      1484 4.06314E-03
 -1      1485 2.82535E-03
 -1      1486 2.28021E-03
 -1      1487 2.90345E-03
 -1      1488 2.06750E-03
 -1      1489 1.90740E-03
 -1      1490 2.12011E-03
 -1      1491 1.58521E-03
 -1      1492 1.26302E-03
 -1      1493 1.58521E-03
 -1      1494 1.03934E-03
 -1      1495 3.37380E+00
 -1      1496 8.65830E+00
 -1      1497 8.65830E+00
 -1      1498 2.36457E+00
 -1      1499 2.86918E+00
 -1      1500 2.86918E+00
 -1      1501 1.59737E+00
 -1      1502 1.98097E+00
 -1      1503 1.98097E+00
 -1      1504 1.10051E+00
 -1      1505 1.34894E+00
 -1      1506 1.34894E+00
 -1      1507 8.45438E-01
 -1      1508 9.72974E-01
 -1      1509 9.72974E-01
 -1      1510 6.16403E-01
 -1      1511 7.30921E-01
 -1      1512 7.30921E-01
 -1      1513 4.16049E-01
 -1      1514 5.16226E-01
 -1      1515 5.16226E-01
 -1      1516 2.93723E-01
 -1      1517 3.65568E-01
 -1      1518 3.65568E-01
 -1      1519 3.18870E-01
 -1      1520 2.99207E-01
 -1      1521 3.20570E-01
 -1      1522 4.68132E-01
 -1      1523 3.71404E-01
 -1      1524 3.78587E-01
 -1      1525 6.35571E-01
 -1      1526 5.38554E-01
 -1      1527 5.01543E-01
 -1      1528 7.97805E-01
 -1      1529 7.28156E-01
 -1      1530 6.64549E-01
 -1      1531 1.11072E+00
 -1      1532 9.33686E-01
 -1      1533 8.93014E-01
 -1      1534 1.48058E+00
 -1      1535 1.26976E+00
 -1      1536 1.18793E+00
 -1      1537 1.77752E+00
 -1      1538 1.61421E+00
 -1      1539 1.48058E+00
 -1      1540 2.00884E+00
 -1      1541 1.94083E+00
 -1      1542 1.77752E+00
 -1      1543 2.17935E+00
 -1      1544 2.07684E+00
 -1      1545 2.00884E+00
 -1      1546 2.31248E+00
 -1      1547 2.28186E+00
 -1      1548 2.17935E+00
 -1      1549 2.34310E+00
 -1      1550 2.34310E+00
 -1      1551 2.31248E+00
 -1      1552 2.13495E+00
 -1      1553 2.23903E+00
 -1      1554 2.23903E+00
 -1      1555 1.74437E+00
 -1      1556 1.93966E+00
 -1      1557 1.93966E+00
 -1      1558 1.32666E+00
 -1      1559 1.53551E+00
 -1      1560 1.53551E+00
 -1      1561 9.54266E-01
 -1      1562 1.14810E+00
 -1      1563 1.14810E+00
 -1      1564 6.30055E-01
 -1      1565 7.99965E-01
 -1      1566 8.15242E-01
 -1      1567 4.02069E-01
 -1      1568 5.01323E-01
 -1      1569 5.32209E-01
 -1      1570 2.48474E-01
 -1      1571 3.24568E-01
 -1      1572 3.25976E-01
 -1      1573 1.49810E-01
 -1      1574 1.99142E-01
 -1      1575 1.99142E-01
 -1      1576 1.23620E-01
 -1      1577 1.36715E-01
 -1      1578 1.36715E-01
 -1      1579 1.17069E-01
 -1      1580 1.20345E-01
 -1      1581 1.20345E-01
 -1      1582 1.08287E-01
 -1      1583 1.12678E-01
 -1      1584 1.12678E-01
 -1      1585 8.99076E-02
 -1      1586 9.90974E-02
 -1      1587 9.90974E-02
 -1      1588 6.87545E-02
 -1      1589 7.93310E-02
 -1      1590 7.93310E-02
 -1      1591 5.37959E-02
 -1      1592 6.16911E-02
 -1      1593 6.16911E-02
 -1      1594 4.20918E-02
 -1      1595 4.75280E-02
 -1      1596 4.83597E-02
 -1      1597 3.36390E-02
 -1      1598 3.78654E-02
 -1      1599 3.78654E-02
 -1      1600 2.55325E-02
 -1      1601 2.95858E-02
 -1      1602 2.95858E-02
 -1      1603 1.84765E-02
 -1      1604 2.20247E-02
 -1      1605 2.20247E-02
 -1      1606 1.29393E-02
 -1      1607 1.58386E-02
 -1      1608 1.58789E-02
 -1      1609 1.10430E-02
 -1      1610 1.18403E-02
 -1      1611 1.21420E-02
 -1      1612 9.23190E-03
 -1      1613 1.01374E-02
 -1      1614 1.01374E-02
 -1      1615 7.41620E-03
 -1      1616 8.32405E-03
 -1      1617 8.32405E-03
 -1      1618 6.00922E-03
 -1      1619 6.71271E-03
 -1      1620 6.71271E-03
 -1      1621 5.37311E-03
 -1      1622 5.69117E-03
 -1      1623 5.69117E-03
 -1      1624 4.51447E-03
 -1      1625 4.94379E-03
 -1      1626 4.94379E-03
 -1      1627 3.51010E-03
 -1      1628 4.01228E-03
 -1      1629 4.01228E-03
 -1      1630 2.45249E-03
 -1      1631 2.98129E-03
 -1      1632 2.98129E-03
 -1      1633 1.69936E-03
 -1      1634 2.07593E-03
 -1      1635 2.07593E-03
 -1      1636 1.05242E-03
 -1      1637 1.37589E-03
 -1      1638 1.37589E-03
 -1      1639 7.72430E-04
 -1      1640 4.05754E-04
 -1      1641 4.52642E-04
 -1      1642 2.75196E-04
 -1      1643 3.79458E-04
 -1      1644 3.86542E-04
 -1      1645 1.74325E-04
 -1      1646 2.03905E-04
 -1      1647 2.88955E-04
 -1      1648 2.54994E-04
 -1      1649 2.24001E-04
 -1      1650 2.67340E-04
 -1      1651 3.06456E-04
 -1      1652 2.89221E-04
 -1      1653 3.51243E-04
 -1      1654 3.35090E-04
 -1      1655 3.25457E-04
 -1      1656 4.04470E-04
 -1      1657 3.55142E-04
 -1      1658 3.48813E-04
 -1      1659 4.37194E-04
 -1      1660 3.69355E-04
 -1      1661 3.64671E-04
 -1      1662 4.60446E-04
 -1      1663 3.70976E-04
 -1      1664 3.70976E-04
 -1      1665 4.71596E-04
 -1      1666 3.69198E-04
 -1      1667 3.70976E-04
 -1      1668 4.73218E-04
 -1      1669 3.53246E-04
 -1      1670 3.65714E-04
 -1      1671 4.69733E-04
 -1      1672 2.91290E-04
 -1      1673 3.25614E-04
 -1      1674 4.38617E-04
 -1      1675 2.47824E-04
 -1      1676 2.23558E-04
 -1      1677 3.43252E-04
 -1      1678 6.93582E-04
 -1      1679 5.91738E-04
 -1      1680 6.19435E-04
 -1      1681 2.57268E+01
 -1      1682 2.56998E+01
 -1      1683 4.11743E+01
 -1      1684 3.06276E+01
 -1      1685 4.48588E+01
 -1      1686 4.48588E+01
 -1      1687 1.85555E+01
 -1      1688 3.21193E+01
 -1      1689 1.15858E+01
 -1      1690 1.42427E+01
 -1      1691 1.28164E+01
 -1      1692 1.24174E+01
 -1      1693 1.32155E+01
 -1      1694 1.32155E+01
 -1      1695 1.22076E+01
 -1      1696 1.24922E+01
 -1      1697 1.26463E+01
 -1      1698 1.26463E+01
 -1      1699 1.24214E+01
 -1      1700 1.25339E+01
 -1      1701 2.08258E+01
 -1      1702 1.22403E+01
 -1      1703 3.13109E+01
 -1      1704 3.04517E+01
 -1      1705 2.97133E+01
 -1      1706 3.13109E+01
 -1      1707 2.55436E+01
 -1      1708 2.68296E+01
 -1      1709 2.74640E+01
 -1      1710 2.75029E+01
 -1      1711 2.74640E+01
 -1      1712 2.74640E+01
 -1      1713 4.23696E+01
 -1      1714 3.21997E+01
 -1      1715 4.58057E+01
 -1      1716 4.58057E+01
 -1      1717 1.79155E+01
 -1      1718 3.20063E+01
 -1      1719 1.28485E+01
 -1      1720 1.48043E+01
 -1      1721 1.37124E+01
 -1      1722 1.37124E+01
 -1      1723 1.33335E+01
 -1      1724 1.34830E+01
 -1      1725 1.34133E+01
 -1      1726 1.34133E+01
 -1      1727 1.36231E+01
 -1      1728 1.28986E+01
 -1      1729 2.45357E+01
 -1      1730 1.48624E+01
 -1      1731 3.42089E+01
 -1      1732 3.42089E+01
 -1      1733 2.91448E+01
 -1      1734 3.35795E+01
 -1      1735 2.70172E+01
 -1      1736 2.70172E+01
 -1      1737 2.62032E+01
 -1      1738 2.70172E+01
 -1      1739 1.03934E-03
 -1      1740 4.11743E+01
 -1      1741 7.72430E-04
 -1      1742 7.32627E-04
 -1      1743 2.81915E+01
 -1      1744 3.25890E+01
 -1      1745 8.89506E-04
 -1      1746 6.93582E-04
 -1      1747 9.63348E-04
 -1      1748 3.21193E+01
 -1      1749 1.50670E+01
 -1      1750 1.15858E+01
 -1      1751 1.28164E+01
 -1      1752 1.24922E+01
 -1      1753 1.22076E+01
 -1      1754 1.25339E+01
 -1      1755 1.22403E+01
 -1      1756 2.16850E+01
 -1      1757 3.13109E+01
 -1      1758 2.84273E+01
 -1      1759 2.75029E+01
 -1      1760 2.94621E+01
 -1      1761 3.41978E+01
 -1      1762 4.23696E+01
 -1      1763 3.20063E+01
 -1      1764 1.50958E+01
 -1      1765 1.28485E+01
 -1      1766 1.34830E+01
 -1      1767 1.33335E+01
 -1      1768 1.28986E+01
 -1      1769 1.36231E+01
 -1      1770 2.45357E+01
 -1      1771 3.35795E+01
 -1      1772 3.08225E+01
 -1      1773 2.86949E+01
 -1      1774 9.64495E+00
 -1      1775 1.30756E+00
 -1      1776 1.68853E+00
 -1      1777 2.38733E+00
 -1      1778 4.28652E+00
 -1      1779 1.79308E+00
 -1      1780 8.73181E-01
 -1      1781 9.76214E-01
 -1      1782 7.54118E-01
 -1      1783 8.17875E-01
 -1      1784 7.34945E-01
 -1      1785 6.73594E-01
 -1      1786 7.15217E-01
 -1      1787 6.40737E-01
 -1      1788 6.31018E-01
 -1      1789 6.46380E-01
 -1      1790 5.74623E-01
 -1      1791 6.77051E-01
 -1      1792 6.45856E-01
 -1      1793 5.62247E-01
 -1      1794 7.48517E-01
 -1      1795 7.05880E-01
 -1      1796 6.05912E-01
 -1      1797 8.52267E-01
 -1      1798 7.87758E-01
 -1      1799 6.73981E-01
 -1      1800 1.00401E+00
 -1      1801 9.03674E-01
 -1      1802 7.64628E-01
 -1      1803 1.25222E+00
 -1      1804 1.07295E+00
 -1      1805 8.84976E-01
 -1      1806 1.71707E+00
 -1      1807 1.35445E+00
 -1      1808 1.05615E+00
 -1      1809 2.61715E+00
 -1      1810 1.80507E+00
 -1      1811 1.24639E+00
 -1      1812 8.04030E+00
 -1      1813 3.01885E+00
 -1      1814 1.73610E+00
 -1      1815 2.75580E+00
 -1      1816 5.16411E+00
 -1      1817 2.10238E+00
 -1      1818 2.60700E+00
 -1      1819 1.98900E+00
 -1      1820 2.49390E+00
 -1      1821 1.86776E+00
 -1      1822 1.61675E+00
 -1      1823 1.32687E+00
 -1      1824 1.39009E+00
 -1      1825 1.15497E+00
 -1      1826 1.00683E+00
 -1      1827 9.67169E-01
 -1      1828 9.43883E-01
 -1      1829 8.67273E-01
 -1      1830 7.32315E-01
 -1      1831 8.68978E-01
 -1      1832 8.51070E-01
 -1      1833 6.71069E-01
 -1      1834 1.07092E+00
 -1      1835 1.26945E+00
 -1      1836 8.92623E-01
 -1      1837 1.61615E+00
 -1      1838 2.02440E+00
 -1      1839 1.45917E+00
 -1      1840 2.46170E+00
 -1      1841 2.92276E+00
 -1      1842 2.24317E+00
 -1      1843 3.47536E+00
 -1      1844 3.93477E+00
 -1      1845 3.23306E+00
 -1      1846 4.56391E+00
 -1      1847 4.86841E+00
 -1      1848 4.41480E+00
 -1      1849 5.54658E+00
 -1      1850 6.01169E+00
 -1      1851 5.72211E+00
 -1      1852 6.73536E+00
 -1      1853 7.02492E+00
 -1      1854 7.12395E+00
 -1      1855 8.32948E+00
 -1      1856 8.54043E+00
 -1      1857 9.15218E+00
 -1      1858 1.04932E+01
 -1      1859 6.60917E+00
 -1      1860 9.32417E+00
 -1      1861 9.22388E+00
 -1      1862 7.27795E+00
 -1      1863 7.34769E+00
 -1      1864 1.06622E+01
 -1      1865 6.27083E+00
 -1      1866 5.92004E+00
 -1      1867 7.63941E+00
 -1      1868 5.31700E+00
 -1      1869 4.82698E+00
 -1      1870 5.95951E+00
 -1      1871 4.30629E+00
 -1      1872 3.88844E+00
 -1      1873 4.83577E+00
 -1      1874 3.36478E+00
 -1      1875 2.95748E+00
 -1      1876 3.79142E+00
 -1      1877 2.49642E+00
 -1      1878 2.11309E+00
 -1      1879 2.80669E+00
 -1      1880 1.74719E+00
 -1      1881 1.42898E+00
 -1      1882 1.97973E+00
 -1      1883 1.17939E+00
 -1      1884 9.82260E-01
 -1      1885 1.36424E+00
 -1      1886 7.94620E-01
 -1      1887 6.42333E-01
 -1      1888 9.27018E-01
 -1      1889 5.15034E-01
 -1      1890 4.19230E-01
 -1      1891 6.12080E-01
 -1      1892 3.34324E-01
 -1      1893 2.78901E-01
 -1      1894 3.99875E-01
 -1      1895 2.20880E-01
 -1      1896 1.79904E-01
 -1      1897 2.56948E-01
 -1      1898 1.46597E-01
 -1      1899 1.24066E-01
 -1      1900 1.65620E-01
 -1      1901 9.95608E-02
 -1      1902 8.12175E-02
 -1      1903 1.07808E-01
 -1      1904 6.72036E-02
 -1      1905 5.59975E-02
 -1      1906 6.92883E-02
 -1      1907 4.77999E-02
 -1      1908 4.08834E-02
 -1      1909 4.70769E-02
 -1      1910 3.49761E-02
 -1      1911 2.97008E-02
 -1      1912 3.29721E-02
 -1      1913 2.55459E-02
 -1      1914 2.16321E-02
 -1      1915 2.29099E-02
 -1      1916 1.95630E-02
 -1      1917 1.64566E-02
 -1      1918 1.66859E-02
 -1      1919 1.47404E-02
 -1      1920 1.25368E-02
 -1      1921 1.29006E-02
 -1      1922 1.11421E-02
 -1      1923 9.42597E-03
 -1      1924 9.78962E-03
 -1      1925 8.46290E-03
 -1      1926 7.27600E-03
 -1      1927 7.43184E-03
 -1      1928 6.48819E-03
 -1      1929 5.60505E-03
 -1      1930 5.68096E-03
 -1      1931 5.04365E-03
 -1      1932 4.21127E-03
 -1      1933 4.33175E-03
 -1      1934 3.78793E-03
 -1      1935 3.19887E-03
 -1      1936 3.34700E-03
 -1      1937 2.79336E-03
 -1      1938 2.22273E-03
 -1      1939 2.51815E-03
 -1      1940 1.90077E-03
 -1      1941 1.68806E-03
 -1      1942 1.79067E-03
 -1      1943 1.51994E-03
 -1      1944 1.19775E-03
 -1      1945 1.30059E-03
 -1      1946 1.33711E+00
 -1      1947 1.72071E+00
 -1      1948 1.45852E+00
 -1      1949 3.54631E+01
 -1      1950 3.17786E+01
 -1      1951 9.24337E-01
 -1      1952 1.17276E+00
 -1      1953 9.12506E-01
 -1      1954 7.31486E-01
 -1      1955 8.59022E-01
 -1      1956 6.82849E-01
 -1      1957 5.45707E-01
 -1      1958 6.60224E-01
 -1      1959 5.46272E-01
 -1      1960 4.03896E-01
 -1      1961 5.04072E-01
 -1      1962 4.33376E-01
 -1      1963 3.69547E-01
 -1      1964 4.20029E-01
 -1      1965 4.07875E-01
 -1      1966 4.25880E-01
 -1      1967 4.20397E-01
 -1      1968 4.74857E-01
 -1      1969 5.54303E-01
 -1      1970 5.01769E-01
 -1      1971 6.01596E-01
 -1      1972 7.19189E-01
 -1      1973 6.48768E-01
 -1      1974 7.71949E-01
 -1      1975 9.12888E-01
 -1      1976 8.20303E-01
 -1      1977 9.67528E-01
 -1      1978 1.15705E+00
 -1      1979 1.02116E+00
 -1      1980 1.17692E+00
 -1      1981 1.40741E+00
 -1      1982 1.24838E+00
 -1      1983 1.37653E+00
 -1      1984 1.58354E+00
 -1      1985 1.44991E+00
 -1      1986 1.51036E+00
 -1      1987 1.74685E+00
 -1      1988 1.58354E+00
 -1      1989 1.55287E+00
 -1      1990 1.80171E+00
 -1      1991 1.73371E+00
 -1      1992 1.53972E+00
 -1      1993 1.92102E+00
 -1      1994 1.81852E+00
 -1      1995 1.54339E+00
 -1      1996 1.96517E+00
 -1      1997 1.93455E+00
 -1      1998 1.57372E+00
 -1      1999 1.83541E+00
 -1      2000 1.93948E+00
 -1      2001 1.56155E+00
 -1      2002 1.54408E+00
 -1      2003 1.73937E+00
 -1      2004 1.43982E+00
 -1      2005 1.20951E+00
 -1      2006 1.41836E+00
 -1      2007 1.21807E+00
 -1      2008 9.11718E-01
 -1      2009 1.09028E+00
 -1      2010 9.73124E-01
 -1      2011 6.37251E-01
 -1      2012 7.91551E-01
 -1      2013 7.33727E-01
 -1      2014 4.01979E-01
 -1      2015 5.30711E-01
 -1      2016 5.07021E-01
 -1      2017 2.42777E-01
 -1      2018 3.20278E-01
 -1      2019 3.18780E-01
 -1      2020 1.41308E-01
 -1      2021 1.90641E-01
 -1      2022 1.84943E-01
 -1      2023 9.49749E-02
 -1      2024 1.08069E-01
 -1      2025 9.95682E-02
 -1      2026 9.13042E-02
 -1      2027 9.45798E-02
 -1      2028 6.59343E-02
 -1      2029 9.07132E-02
 -1      2030 9.51041E-02
 -1      2031 6.93391E-02
 -1      2032 7.94933E-02
 -1      2033 8.86832E-02
 -1      2034 7.11091E-02
 -1      2035 6.37572E-02
 -1      2036 7.43338E-02
 -1      2037 6.39196E-02
 -1      2038 5.24460E-02
 -1      2039 5.95094E-02
 -1      2040 5.45122E-02
 -1      2041 4.10468E-02
 -1      2042 4.73147E-02
 -1      2043 4.51330E-02
 -1      2044 3.25229E-02
 -1      2045 3.67494E-02
 -1      2046 3.57043E-02
 -1      2047 2.51116E-02
 -1      2048 2.91648E-02
 -1      2049 2.80488E-02
 -1      2050 1.85169E-02
 -1      2051 2.20247E-02
 -1      2052 2.16038E-02
 -1      2053 1.32410E-02
 -1      2054 1.58789E-02
 -1      2055 1.58789E-02
 -1      2056 1.00045E-02
 -1      2057 1.11036E-02
 -1      2058 1.11036E-02
 -1      2059 8.06587E-03
 -1      2060 8.97141E-03
 -1      2061 7.93298E-03
 -1      2062 6.63855E-03
 -1      2063 7.54640E-03
 -1      2064 6.38037E-03
 -1      2065 5.37459E-03
 -1      2066 6.07808E-03
 -1      2067 5.30043E-03
 -1      2068 4.50039E-03
 -1      2069 4.81845E-03
 -1      2070 4.18382E-03
 -1      2071 3.73334E-03
 -1      2072 4.16266E-03
 -1      2073 3.28994E-03
 -1      2074 2.98277E-03
 -1      2075 3.48495E-03
 -1      2076 2.70383E-03
 -1      2077 2.16172E-03
 -1      2078 2.69052E-03
 -1      2079 2.16319E-03
 -1      2080 1.54274E-03
 -1      2081 1.91931E-03
 -1      2082 1.62853E-03
 -1      2083 1.00807E-03
 -1      2084 1.33154E-03
 -1      2085 1.17492E-03
 -1      2086 6.88277E-04
 -1      2087 3.77270E-04
 -1      2088 3.27594E-04
 -1      2089 4.61007E-04
 -1      2090 5.32298E-04
 -1      2091 5.70937E-04
 -1      2092 5.48835E-04
 -1      2093 5.75131E-04
 -1      2094 8.50570E-04
 -1      2095 7.20887E-04
 -1      2096 4.37679E-04
 -1      2097 4.03453E-04
 -1      2098 4.63707E-04
 -1      2099 4.70561E-04
 -1      2100 4.51560E-04
 -1      2101 5.03771E-04
 -1      2102 4.96246E-04
 -1      2103 4.82523E-04
 -1      2104 5.29613E-04
 -1      2105 5.17952E-04
 -1      2106 5.08423E-04
 -1      2107 5.53752E-04
 -1      2108 5.26738E-04
 -1      2109 5.25117E-04
 -1      2110 5.73093E-04
 -1      2111 5.39932E-04
 -1      2112 5.39932E-04
 -1      2113 5.93452E-04
 -1      2114 5.42126E-04
 -1      2115 5.45610E-04
 -1      2116 6.12324E-04
 -1      2117 5.14493E-04
 -1      2118 5.42126E-04
 -1      2119 6.18002E-04
 -1      2120 4.15620E-04
 -1      2121 4.83351E-04
 -1      2122 5.86860E-04
 -1      2123 9.45290E-04
 -1      2124 6.01376E-04
 -1      2125 7.41475E-04
 -1      2126 1.72535E+01
 -1      2127 2.99931E+01
 -1      2128 2.05974E+01
 -1      2129 1.11318E-03
 -1      2130 3.36947E+00
 -1      2131 3.52229E+01
 -1      2132 3.57262E+01
 -1      2133 1.04503E+00
 -1      2134 1.22436E+00
 -1      2135 1.01108E+00
 -1      2136 8.59063E-01
 -1      2137 9.89045E+00
 -1      2138 1.42032E+01
 -1      2139 1.02517E+01
 -1      2140 9.42017E+00
 -1      2141 8.55639E+00
 -1      2142 1.08328E+01
 -1      2143 1.04337E+01
 -1      2144 1.12955E+01
 -1      2145 1.20189E+01
 -1      2146 1.17983E+01
 -1      2147 1.13595E+01
 -1      2148 1.08862E+01
 -1      2149 1.06908E+01
 -1      2150 1.08032E+01
 -1      2151 8.87584E+00
 -1      2152 9.05698E+00
 -1      2153 2.14639E+01
 -1      2154 1.18380E+01
 -1      2155 8.65467E+00
 -1      2156 2.56740E+01
 -1      2157 2.56740E+01
 -1      2158 2.49715E+01
 -1      2159 2.78552E+01
 -1      2160 2.22183E+01
 -1      2161 3.50830E+01
 -1      2162 3.31238E+01
 -1      2163 3.50830E+01
 -1      2164 3.50830E+01
 -1      2165 4.07040E+01
 -1      2166 3.06765E+01
 -1      2167 2.59408E+01
 -1      2168 3.68008E+01
 -1      2169 3.33647E+01
 -1      2170 1.70508E+01
 -1      2171 3.08502E+01
 -1      2172 1.03881E+01
 -1      2173 1.34993E+01
 -1      2174 1.12303E+01
 -1      2175 1.03664E+01
 -1      2176 1.25427E+01
 -1      2177 1.27721E+01
 -1      2178 1.24368E+01
 -1      2179 1.23570E+01
 -1      2180 1.10316E+01
 -1      2181 1.15464E+01
 -1      2182 1.10203E+01
 -1      2183 9.78097E+00
 -1      2184 2.35580E+01
 -1      2185 1.38848E+01
 -1      2186 2.72567E+01
 -1      2187 2.78861E+01
 -1      2188 2.72912E+01
 -1      2189 2.94188E+01
 -1      2190 3.57262E+01
 -1      2191 3.57262E+01
 -1      2192 3.23914E+01
 -1      2193 2.74906E+01
 -1      2194 1.04791E-03
 -1      2195 4.27576E+01
 -1      2196 9.23322E+00
 -1      2197 7.31691E+00
 -1      2198 9.89315E+00
 -1      2199 2.66802E+01
 -1      2200 2.91929E+00
 -1      2201 2.06649E+00
 -1      2202 1.20770E+01
 -1      2203 7.26256E+00
 -1      2204 7.63182E+00
 -1      2205 1.17096E+01
 -1      2206 1.32514E+01
 -1      2207 1.42144E+01
 -1      2208 1.40286E+01
 -1      2209 1.26343E+01
 -1      2210 9.95518E+00
 -1      2211 1.04791E-03
 -1      2212 3.50253E+01
 -1      2213 1.02900E+01
 -1      2214 3.43225E+01
 -1      2215 2.37254E+01
 -1      2216 1.72352E+01
 -1      2217 1.05699E+01
 -1      2218 1.16460E+01
 -1      2219 8.76994E+00
 -1      2220 1.23432E+01
 -1      2221 2.18453E+01
 -1      2222 3.36516E+01
 -1      2223 3.92725E+01
 -1      2224 3.01303E+01
 -1      2225 2.49715E+01
 -1      2226 2.43995E+01
 -1      2227 3.25517E+01
 -1      2228 1.58270E+01
 -1      2229 8.26813E+00
 -1      2230 1.11509E+01
 -1      2231 8.76827E+00
 -1      2232 9.95433E+00
 -1      2233 7.32635E+00
 -1      2234 2.51077E+01
 -1      2235 7.65354E+00
 -1      2236 1.02985E-03
 -1      2237 5.32466E-01
 -1      2238 5.71367E-01
 -1      2239 5.93487E-01
 -1      2240 6.48793E-01
 -1      2241 4.85216E-01
 -1      2242 4.98490E-01
 -1      2243 4.83652E-01
 -1      2244 5.48544E-01
 -1      2245 5.19715E-01
 -1      2246 4.41121E-01
 -1      2247 6.09192E-01
 -1      2248 5.69951E-01
 -1      2249 4.83755E-01
 -1      2250 6.76496E-01
 -1      2251 6.25089E-01
 -1      2252 5.21060E-01
 -1      2253 7.45437E-01
 -1      2254 6.76496E-01
 -1      2255 5.36957E-01
 -1      2256 8.47160E-01
 -1      2257 7.44927E-01
 -1      2258 5.36447E-01
 -1      2259 9.80671E-01
 -1      2260 8.92664E-01
 -1      2261 5.81442E-01
 -1      2262 1.70019E+00
 -1      2263 1.29849E+00
 -1      2264 9.44762E-01
 -1      2265 1.55138E+00
 -1      2266 1.18011E+00
 -1      2267 9.29100E-01
 -1      2268 8.35990E+00
 -1      2269 1.14102E+01
 -1      2270 3.43225E+01
 -1      2271 2.58875E+01
 -1      2272 2.28394E+01
 -1      2273 2.34522E+01
 -1      2274 8.11679E-01
 -1      2275 6.39776E-01
 -1      2276 6.01707E-01
 -1      2277 5.33960E-01
 -1      2278 4.71009E-01
 -1      2279 3.78470E-01
 -1      2280 5.35956E-01
 -1      2281 5.37662E-01
 -1      2282 3.37602E-01
 -1      2283 6.91094E-01
 -1      2284 9.10942E-01
 -1      2285 5.55981E-01
 -1      2286 1.15837E+00
 -1      2287 1.50507E+00
 -1      2288 9.56842E-01
 -1      2289 1.85890E+00
 -1      2290 2.29619E+00
 -1      2291 1.55810E+00
 -1      2292 2.87648E+00
 -1      2293 3.42907E+00
 -1      2294 2.49220E+00
 -1      2295 4.26196E+00
 -1      2296 4.89111E+00
 -1      2297 3.90538E+00
 -1      2298 6.40197E+00
 -1      2299 7.08014E+00
 -1      2300 6.24913E+00
 -1      2301 1.14502E+01
 -1      2302 1.21739E+01
 -1      2303 1.21300E+01
 -1      2304 9.34537E+00
 -1      2305 1.06499E+01
 -1      2306 1.36716E+01
 -1      2307 1.17439E+01
 -1      2308 8.42880E+00
 -1      2309 7.86345E+00
 -1      2310 8.85846E+00
 -1      2311 4.27576E+01
 -1      2312 4.27576E+01
 -1      2313 9.82541E-01
 -1      2314 1.36421E+00
 -1      2315 1.07540E+00
 -1      2316 9.19756E+00
 -1      2317 8.12070E+00
 -1      2318 6.83585E+00
 -1      2319 6.23280E+00
 -1      2320 8.39400E+00
 -1      2321 5.32720E+00
 -1      2322 4.80651E+00
 -1      2323 6.20354E+00
 -1      2324 3.91233E+00
 -1      2325 3.38867E+00
 -1      2326 4.40376E+00
 -1      2327 2.82067E+00
 -1      2328 2.35961E+00
 -1      2329 2.94159E+00
 -1      2330 1.97973E+00
 -1      2331 1.61383E+00
 -1      2332 1.99371E+00
 -1      2333 1.36424E+00
 -1      2334 1.11466E+00
 -1      2335 1.36424E+00
 -1      2336 9.27018E-01
 -1      2337 7.39379E-01
 -1      2338 9.27018E-01
 -1      2339 6.20764E-01
 -1      2340 4.93466E-01
 -1      2341 6.20764E-01
 -1      2342 4.13286E-01
 -1      2343 3.28380E-01
 -1      2344 4.21970E-01
 -1      2345 2.72835E-01
 -1      2346 2.14814E-01
 -1      2347 2.86246E-01
 -1      2348 1.78790E-01
 -1      2349 1.45482E-01
 -1      2350 1.94677E-01
 -1      2351 1.19096E-01
 -1      2352 9.45909E-02
 -1      2353 1.32266E-01
 -1      2354 7.65570E-02
 -1      2355 6.25431E-02
 -1      2356 8.78456E-02
 -1      2357 5.02889E-02
 -1      2358 4.20913E-02
 -1      2359 5.75575E-02
 -1      2360 3.37977E-02
 -1      2361 2.78905E-02
 -1      2362 3.70097E-02
 -1      2363 2.25120E-02
 -1      2364 1.83571E-02
 -1      2365 2.33376E-02
 -1      2366 1.59821E-02
 -1      2367 1.39130E-02
 -1      2368 1.55842E-02
 -1      2369 1.21259E-02
 -1      2370 1.04096E-02
 -1      2371 1.14221E-02
 -1      2372 9.52478E-03
 -1      2373 8.13007E-03
 -1      2374 8.75009E-03
 -1      2375 7.31514E-03
 -1      2376 6.35207E-03
 -1      2377 7.05031E-03
 -1      2378 5.62492E-03
 -1      2379 4.83711E-03
 -1      2380 5.50822E-03
 -1      2381 4.24961E-03
 -1      2382 3.68821E-03
 -1      2383 4.19357E-03
 -1      2384 3.27451E-03
 -1      2385 2.85117E-03
 -1      2386 3.19237E-03
 -1      2387 2.48844E-03
 -1      2388 2.08293E-03
 -1      2389 2.41595E-03
 -1      2390 1.79455E-03
 -1      2391 1.47259E-03
 -1      2392 1.76485E-03
 -1      2393 1.39511E-03
 -1      2394 1.22699E-03
 -1      2395 1.12437E-03
 -1      2396 1.39899E-03
 -1      2397 6.17535E-01
 -1      2398 6.82849E-01
 -1      2399 7.12419E-01
 -1      2400 8.76761E-01
 -1      2401 7.82454E-01
 -1      2402 6.47104E-01
 -1      2403 3.91742E-01
 -1      2404 4.33376E-01
 -1      2405 4.14681E-01
 -1      2406 3.98548E-01
 -1      2407 3.98548E-01
 -1      2408 4.96742E-01
 -1      2409 4.45893E-01
 -1      2410 4.36565E-01
 -1      2411 6.24061E-01
 -1      2412 5.48171E-01
 -1      2413 5.19207E-01
 -1      2414 7.99154E-01
 -1      2415 7.04690E-01
 -1      2416 6.51265E-01
 -1      2417 1.00458E+00
 -1      2418 9.03464E-01
 -1      2419 8.36205E-01
 -1      2420 1.21623E+00
 -1      2421 1.10796E+00
 -1      2422 1.04389E+00
 -1      2423 1.38642E+00
 -1      2424 1.29509E+00
 -1      2425 1.22612E+00
 -1      2426 1.51036E+00
 -1      2427 1.46786E+00
 -1      2428 1.38642E+00
 -1      2429 1.55287E+00
 -1      2430 1.55287E+00
 -1      2431 1.51036E+00
 -1      2432 1.52658E+00
 -1      2433 1.53972E+00
 -1      2434 1.53972E+00
 -1      2435 1.54245E+00
 -1      2436 1.52564E+00
 -1      2437 1.52564E+00
 -1      2438 1.57372E+00
 -1      2439 1.56019E+00
 -1      2440 1.54245E+00
 -1      2441 1.51076E+00
 -1      2442 1.53645E+00
 -1      2443 1.52292E+00
 -1      2444 1.32477E+00
 -1      2445 1.42080E+00
 -1      2446 1.39570E+00
 -1      2447 1.11091E+00
 -1      2448 1.23663E+00
 -1      2449 1.21761E+00
 -1      2450 8.78145E-01
 -1      2451 9.97376E-01
 -1      2452 1.01594E+00
 -1      2453 6.36367E-01
 -1      2454 7.56533E-01
 -1      2455 7.80785E-01
 -1      2456 4.28273E-01
 -1      2457 5.34813E-01
 -1      2458 5.57619E-01
 -1      2459 2.66387E-01
 -1      2460 3.48089E-01
 -1      2461 3.75880E-01
 -1      2462 1.53352E-01
 -1      2463 2.05488E-01
 -1      2464 2.34796E-01
 -1      2465 8.04717E-02
 -1      2466 1.13711E-01
 -1      2467 1.34256E-01
 -1      2468 7.10832E-02
 -1      2469 7.14783E-02
 -1      2470 8.56206E-02
 -1      2471 6.64743E-02
 -1      2472 6.26744E-02
 -1      2473 6.82184E-02
 -1      2474 6.34032E-02
 -1      2475 6.54331E-02
 -1      2476 5.87684E-02
 -1      2477 5.61277E-02
 -1      2478 6.12873E-02
 -1      2479 5.56113E-02
 -1      2480 4.81919E-02
 -1      2481 5.24398E-02
 -1      2482 4.98075E-02
 -1      2483 3.91664E-02
 -1      2484 4.42977E-02
 -1      2485 4.22253E-02
 -1      2486 3.10909E-02
 -1      2487 3.53884E-02
 -1      2488 3.45530E-02
 -1      2489 2.39539E-02
 -1      2490 2.73120E-02
 -1      2491 2.69960E-02
 -1      2492 1.74993E-02
 -1      2493 2.05862E-02
 -1      2494 1.98494E-02
 -1      2495 1.26756E-02
 -1      2496 1.53135E-02
 -1      2497 1.42959E-02
 -1      2498 8.74816E-03
 -1      2499 1.08856E-02
 -1      2500 1.03202E-02
 -1      2501 6.89985E-03
 -1      2502 7.93298E-03
 -1      2503 7.71503E-03
 -1      2504 5.86090E-03
 -1      2505 6.38037E-03
 -1      2506 6.38037E-03
 -1      2507 4.73996E-03
 -1      2508 5.30043E-03
 -1      2509 5.30043E-03
 -1      2510 3.62767E-03
 -1      2511 4.18382E-03
 -1      2512 4.18382E-03
 -1      2513 2.87553E-03
 -1      2514 3.21326E-03
 -1      2515 3.21326E-03
 -1      2516 2.34045E-03
 -1      2517 2.58884E-03
 -1      2518 2.51216E-03
 -1      2519 1.73549E-03
 -1      2520 2.02774E-03
 -1      2521 1.91275E-03
 -1      2522 1.32897E-03
 -1      2523 1.57139E-03
 -1      2524 1.43594E-03
 -1      2525 1.06177E-03
 -1      2526 5.65148E-04
 -1      2527 5.51267E-04
 -1      2528 5.54904E-04
 -1      2529 5.42942E-04
 -1      2530 5.90439E-04
 -1      2531 6.87883E-04
 -1      2532 8.21296E-04
 -1      2533 5.54400E-04
 -1      2534 5.28217E-04
 -1      2535 7.78576E-04
 -1      2536 6.15777E-04
 -1      2537 5.71389E-04
 -1      2538 5.59212E-04
 -1      2539 5.72541E-04
 -1      2540 5.93320E-04
 -1      2541 5.86156E-04
 -1      2542 5.91616E-04
 -1      2543 6.19808E-04
 -1      2544 6.06614E-04
 -1      2545 6.19676E-04
 -1      2546 6.69516E-04
 -1      2547 6.63838E-04
 -1      2548 6.77000E-04
 -1      2549 6.94662E-04
 -1      2550 6.94662E-04
 -1      2551 7.46175E-04
 -1      2552 6.63520E-04
 -1      2553 6.94662E-04
 -1      2554 7.71321E-04
 -1      2555 8.45762E-04
 -1      2556 6.60006E-04
 -1      2557 7.67807E-04
 -1      2558 1.04290E-03
 -1      2559 1.37637E+01
 -1      2560 1.92338E+01
 -1      2561 8.40069E+00
 -1      2562 1.68211E+00
 -1      2563 1.25672E+00
 -1      2564 7.95734E-01
 -1      2565 9.83309E-01
 -1      2566 1.00426E+01
 -1      2567 4.75010E-01
 -1      2568 5.46272E-01
 -1      2569 5.46272E-01
 -1      2570 4.33376E-01
 -1      2571 4.83671E-01
 -1      2572 5.10885E-01
 -1      2573 4.41515E-01
 -1      2574 4.19915E-01
 -1      2575 6.56659E+00
 -1      2576 7.03687E+00
 -1      2577 4.95674E+00
 -1      2578 6.59056E+00
 -1      2579 9.28435E+00
 -1      2580 9.22038E+00
 -1      2581 7.19262E+00
 -1      2582 2.35647E+01
 -1      2583 2.08765E+01
 -1      2584 9.42026E+00
 -1      2585 6.45812E+00
 -1      2586 1.49654E+01
 -1      2587 1.07553E+01
 -1      2588 2.08883E+01
 -1      2589 1.87071E+01
 -1      2590 4.07040E+01
 -1      2591 4.07040E+01
 -1      2592 1.19522E+01
 -1      2593 6.94220E+00
 -1      2594 6.76019E+00
 -1      2595 2.07680E+01
 -1      2596 1.86059E+01
 -1      2597 2.72930E+01
 -1      2598 3.50253E+01
 -1      2599 3.50253E+01
 -1      2600 1.31757E+01
 -1      2601 5.07335E-01
 -1      2602 6.48793E-01
 -1      2603 7.17605E-01
 -1      2604 3.92725E+01
 -1      2605 1.60058E+01
 -1      2606 6.37010E+00
 -1      2607 1.00466E+01
 -1      2608 1.27576E+01
 -1      2609 2.07680E+01
 -1      2610 2.34522E+01
 -1      2611 1.92430E+01
 -1      2612 2.07860E+01
 -1      2613 2.84968E+01
 -1      2614 1.09680E+01
 -1      2615 1.36870E+01
 -1      2616 3.43225E+01
 -1      2617 1.21824E+01
 -1      2618 1.26637E+01
 -1      2619 1.00463E-03
 -1      2620 9.88092E-04
 -1      2621 1.10504E-03
 -1      2622 1.70857E+01
 -1      2623 5.24066E+00
 -1      2624 7.13063E-01
 -1      2625 7.96264E-01
 -1      2626 6.85295E-01
 -1      2627 5.02793E-01
 -1      2628 2.08883E+01
 -1      2629 8.55874E+00
 -1      2630 3.25517E+01
 -1      2631 5.72233E+00
 -1      2632 9.21024E+00
 -1      2633 8.34232E+00
 -1      2634 7.60838E+00
 -1      2635 7.26033E+00
 -1      2636 5.49384E+00
 -1      2637 1.96376E+01
 -1      2638 1.54064E+01
 -1      2639 1.36354E+01
 -1      2640 1.86260E+01
 -1      2641 1.51147E+01
 -1      2642 4.41216E-01
 -1      2643 4.19809E-01
 -1      2644 4.04618E-01
 -1      2645 3.83392E-01
 -1      2646 3.62079E-01
 -1      2647 4.65241E-01
 -1      2648 4.65241E-01
 -1      2649 4.56571E-01
 -1      2650 4.57081E-01
 -1      2651 3.85365E-01
 -1      2652 5.15945E-01
 -1      2653 4.70441E-01
 -1      2654 3.91075E-01
 -1      2655 9.68814E-01
 -1      2656 6.50998E-01
 -1      2657 5.39997E-01
 -1      2658 7.81641E-01
 -1      2659 1.11612E+01
 -1      2660 4.09344E-01
 -1      2661 3.03529E-01
 -1      2662 3.39104E-01
 -1      2663 4.04051E-01
 -1      2664 3.69978E-01
 -1      2665 4.97153E-01
 -1      2666 6.50586E-01
 -1      2667 4.98656E-01
 -1      2668 8.60236E-01
 -1      2669 1.10767E+00
 -1      2670 8.01409E-01
 -1      2671 1.41244E+00
 -1      2672 1.76627E+00
 -1      2673 1.31584E+00
 -1      2674 2.27870E+00
 -1      2675 2.85899E+00
 -1      2676 2.13305E+00
 -1      2677 3.64042E+00
 -1      2678 4.47331E+00
 -1      2679 3.42692E+00
 -1      2680 5.73497E+00
 -1      2681 7.24583E+00
 -1      2682 5.47001E+00
 -1      2683 9.58851E+00
 -1      2684 1.39586E+01
 -1      2685 9.07434E+00
 -1      2686 4.67777E-01
 -1      2687 4.36565E-01
 -1      2688 3.98082E-01
 -1      2689 4.20201E-01
 -1      2690 5.37036E-01
 -1      2691 4.19614E-01
 -1      2692 3.44673E-01
 -1      2693 3.05135E+01
 -1      2694 2.20785E+01
 -1      2695 1.50883E+01
 -1      2696 1.15881E-03
 -1      2697 1.32561E-03
 -1      2698 1.48971E-03
 -1      2699 8.81983E+00
 -1      2700 7.91422E+00
 -1      2701 5.75531E+00
 -1      2702 4.86114E+00
 -1      2703 8.37160E+00
 -1      2704 3.66688E+00
 -1      2705 3.09889E+00
 -1      2706 5.01844E+00
 -1      2707 2.41779E+00
 -1      2708 2.03790E+00
 -1      2709 3.14308E+00
 -1      2710 1.59945E+00
 -1      2711 1.34987E+00
 -1      2712 2.02353E+00
 -1      2713 1.06551E+00
 -1      2714 8.77866E-01
 -1      2715 1.30071E+00
 -1      2716 6.96923E-01
 -1      2717 5.78308E-01
 -1      2718 8.35410E-01
 -1      2719 4.67362E-01
 -1      2720 3.87182E-01
 -1      2721 5.43520E-01
 -1      2722 3.14880E-01
 -1      2723 2.59335E-01
 -1      2724 3.60271E-01
 -1      2725 2.09788E-01
 -1      2726 1.73763E-01
 -1      2727 2.38421E-01
 -1      2728 1.43974E-01
 -1      2729 1.17588E-01
 -1      2730 1.59085E-01
 -1      2731 9.75257E-02
 -1      2732 7.94918E-02
 -1      2733 1.09234E-01
 -1      2734 6.52316E-02
 -1      2735 5.29775E-02
 -1      2736 7.49117E-02
 -1      2737 4.29158E-02
 -1      2738 3.46222E-02
 -1      2739 5.05899E-02
 -1      2740 2.75196E-02
 -1      2741 2.21411E-02
 -1      2742 3.34256E-02
 -1      2743 1.75631E-02
 -1      2744 1.51881E-02
 -1      2745 2.17450E-02
 -1      2746 1.18170E-02
 -1      2747 1.00299E-02
 -1      2748 1.37959E-02
 -1      2749 8.02855E-03
 -1      2750 7.14370E-03
 -1      2751 8.42351E-03
 -1      2752 6.25920E-03
 -1      2753 5.44427E-03
 -1      2754 5.53766E-03
 -1      2755 5.08557E-03
 -1      2756 4.35842E-03
 -1      2757 4.29447E-03
 -1      2758 3.98852E-03
 -1      2759 3.40102E-03
 -1      2760 3.56587E-03
 -1      2761 3.03401E-03
 -1      2762 2.62031E-03
 -1      2763 2.82895E-03
 -1      2764 2.37047E-03
 -1      2765 2.00775E-03
 -1      2766 2.21211E-03
 -1      2767 1.76733E-03
 -1      2768 1.47896E-03
 -1      2769 1.72186E-03
 -1      2770 1.30757E-03
 -1      2771 1.23009E-03
 -1      2772 9.51481E-04
 -1      2773 1.31006E-03
 -1      2774 5.70636E-01
 -1      2775 5.19207E-01
 -1      2776 5.19207E-01
 -1      2777 3.97176E-01
 -1      2778 3.90370E-01
 -1      2779 4.28388E-01
 -1      2780 7.11232E-01
 -1      2781 6.30603E-01
 -1      2782 6.30603E-01
 -1      2783 8.81308E-01
 -1      2784 7.76998E-01
 -1      2785 7.56336E-01
 -1      2786 1.07231E+00
 -1      2787 9.68937E-01
 -1      2788 9.09730E-01
 -1      2789 1.23474E+00
 -1      2790 1.15589E+00
 -1      2791 1.08093E+00
 -1      2792 1.35640E+00
 -1      2793 1.27496E+00
 -1      2794 1.20472E+00
 -1      2795 1.42611E+00
 -1      2796 1.38361E+00
 -1      2797 1.27214E+00
 -1      2798 1.40290E+00
 -1      2799 1.41604E+00
 -1      2800 1.28929E+00
 -1      2801 1.36045E+00
 -1      2802 1.36139E+00
 -1      2803 1.23770E+00
 -1      2804 1.40714E+00
 -1      2805 1.38940E+00
 -1      2806 1.22514E+00
 -1      2807 1.38254E+00
 -1      2808 1.41981E+00
 -1      2809 1.26676E+00
 -1      2810 1.26527E+00
 -1      2811 1.35522E+00
 -1      2812 1.25212E+00
 -1      2813 1.13326E+00
 -1      2814 1.22140E+00
 -1      2815 1.18092E+00
 -1      2816 9.30573E-01
 -1      2817 1.04411E+00
 -1      2818 1.04790E+00
 -1      2819 7.04955E-01
 -1      2820 8.26567E-01
 -1      2821 8.54742E-01
 -1      2822 5.17425E-01
 -1      2823 6.18980E-01
 -1      2824 6.64761E-01
 -1      2825 3.59961E-01
 -1      2826 4.40146E-01
 -1      2827 5.01506E-01
 -1      2828 2.29877E-01
 -1      2829 2.90776E-01
 -1      2830 3.55042E-01
 -1      2831 1.36158E-01
 -1      2832 1.75800E-01
 -1      2833 2.31780E-01
 -1      2834 1.01982E-01
 -1      2835 1.10976E-01
 -1      2836 1.52520E-01
 -1      2837 7.32225E-02
 -1      2838 8.16312E-02
 -1      2839 1.06986E-01
 -1      2840 6.27814E-02
 -1      2841 6.38226E-02
 -1      2842 7.72355E-02
 -1      2843 5.71071E-02
 -1      2844 5.92230E-02
 -1      2845 6.42772E-02
 -1      2846 4.88782E-02
 -1      2847 5.25661E-02
 -1      2848 5.61778E-02
 -1      2849 4.08187E-02
 -1      2850 4.47130E-02
 -1      2851 4.74715E-02
 -1      2852 3.28486E-02
 -1      2853 3.66267E-02
 -1      2854 3.91143E-02
 -1      2855 2.52985E-02
 -1      2856 2.90775E-02
 -1      2857 3.11511E-02
 -1      2858 1.84715E-02
 -1      2859 2.18392E-02
 -1      2860 2.39206E-02
 -1      2861 1.33419E-02
 -1      2862 1.55277E-02
 -1      2863 1.75175E-02
 -1      2864 9.18453E-03
 -1      2865 1.09745E-02
 -1      2866 1.22063E-02
 -1      2867 6.55570E-03
 -1      2868 7.37088E-03
 -1      2869 8.02520E-03
 -1      2870 4.98733E-03
 -1      2871 5.50681E-03
 -1      2872 5.16265E-03
 -1      2873 4.06267E-03
 -1      2874 4.62314E-03
 -1      2875 3.74957E-03
 -1      2876 3.29219E-03
 -1      2877 3.84833E-03
 -1      2878 3.17104E-03
 -1      2879 2.60175E-03
 -1      2880 3.01616E-03
 -1      2881 2.68068E-03
 -1      2882 2.02176E-03
 -1      2883 2.30845E-03
 -1      2884 2.11135E-03
 -1      2885 1.59054E-03
 -1      2886 1.90325E-03
 -1      2887 1.69954E-03
 -1      2888 1.48021E-03
 -1      2889 5.91616E-04
 -1      2890 5.76850E-04
 -1      2891 1.57108E+01
 -1      2892 1.12332E+01
 -1      2893 5.79396E-04
 -1      2894 6.01602E-04
 -1      2895 6.19676E-04
 -1      2896 6.06382E-04
 -1      2897 5.91616E-04
 -1      2898 5.70077E-04
 -1      2899 5.65769E-04
 -1      2900 5.76932E-04
 -1      2901 5.70077E-04
 -1      2902 6.95073E-04
 -1      2903 6.51044E-04
 -1      2904 6.37750E-04
 -1      2905 8.11501E-04
 -1      2906 7.86354E-04
 -1      2907 7.60398E-04
 -1      2908 8.48464E-04
 -1      2909 8.48464E-04
 -1      2910 8.88643E-04
 -1      2911 8.15396E+00
 -1      2912 1.05075E+01
 -1      2913 2.88124E+01
 -1      2914 3.02438E+01
 -1      2915 1.72044E+01
 -1      2916 2.10452E+01
 -1      2917 6.00739E+00
 -1      2918 6.43328E+00
 -1      2919 1.87919E+01
 -1      2920 1.36725E+01
 -1      2921 1.06876E+01
 -1      2922 1.49829E+01
 -1      2923 9.40277E+00
 -1      2924 4.71436E+00
 -1      2925 6.03739E+00
 -1      2926 6.49822E+00
 -1      2927 6.81691E+00
 -1      2928 4.99083E+00
 -1      2929 1.28665E+01
 -1      2930 9.12490E+00
 -1      2931 2.87503E+01
 -1      2932 2.05980E+01
 -1      2933 1.48245E+01
 -1      2934 5.64056E+00
 -1      2935 4.13918E+00
 -1      2936 8.27508E+00
 -1      2937 6.94004E+00
 -1      2938 4.65241E-01
 -1      2939 4.49343E-01
 -1      2940 3.85397E-01
 -1      2941 3.93524E-01
 -1      2942 6.62836E-01
 -1      2943 5.86230E-01
 -1      2944 4.04138E-01
 -1      2945 4.75792E-01
 -1      2946 1.20535E+01
 -1      2947 1.56591E+01
 -1      2948 3.96413E+00
 -1      2949 5.23702E+00
 -1      2950 4.26861E+00
 -1      2951 4.07501E+00
 -1      2952 2.23289E+01
 -1      2953 3.00612E+01
 -1      2954 1.49978E+01
 -1      2955 3.25299E-01
 -1      2956 3.61803E-01
 -1      2957 3.61821E-01
 -1      2958 1.11134E+01
 -1      2959 3.76457E-01
 -1      2960 3.77829E-01
 -1      2961 4.19463E-01
 -1      2962 1.78263E+01
 -1      2963 1.56004E+01
 -1      2964 1.81419E+01
 -1      2965 3.33067E-01
 -1      2966 4.20201E-01
 -1      2967 4.20201E-01
 -1      2968 1.78172E+01
 -1      2969 9.99147E-04
 -1      2970 3.62104E-01
 -1      2971 3.83685E-01
 -1      2972 3.18670E-01
 -1      2973 3.03992E-01
 -1      2974 5.19039E-01
 -1      2975 5.48609E-01
 -1      2976 1.60812E+01
 -1      2977 8.30989E-04
 -1      2978 8.42031E-04
 -1      2979 8.45164E-04
 -1      2980 1.94681E+01
 -1      2981 1.01608E+01
 -1      2982 4.45576E+00
 -1      2983 4.89919E+00
 -1      2984 3.73354E+00
 -1      2985 9.50392E-04
 -1      2986 9.53906E-04
 -1      2987 1.03105E-03
 -1      2988 1.13758E-03
 -1      2989 1.71357E+01
 -1      2990 2.75959E+01
 -1      2991 1.56421E+01
 -1      2992 1.32521E+01
 -1      2993 7.50620E+00
 -1      2994 5.70415E+00
 -1      2995 6.88938E+00
 -1      2996 6.87924E+00
 -1      2997 4.47768E+00
 -1      2998 3.88236E+00
 -1      2999 3.74231E+00
 -1      3000 1.07238E+01
 -1      3001 1.29861E+01
 -1      3002 8.47563E+00
 -1      3003 6.07282E+00
 -1      3004 5.35689E+00
 -1      3005 4.39534E-01
 -1      3006 5.10796E-01
 -1      3007 3.83986E-01
 -1      3008 4.12301E-01
 -1      3009 3.11868E-01
 -1      3010 2.97999E-01
 -1      3011 3.35410E-01
 -1      3012 3.43569E-01
 -1      3013 2.56204E-01
 -1      3014 3.34888E-01
 -1      3015 3.70463E-01
 -1      3016 6.75862E-01
 -1      3017 5.47797E-01
 -1      3018 6.80292E-01
 -1      3019 6.20325E-01
 -1      3020 4.14564E-01
 -1      3021 5.07666E-01
 -1      3022 3.79474E-01
 -1      3023 6.40093E-01
 -1      3024 8.49744E-01
 -1      3025 5.56001E-01
 -1      3026 1.02292E+00
 -1      3027 1.32769E+00
 -1      3028 8.61600E-01
 -1      3029 1.66873E+00
 -1      3030 2.18117E+00
 -1      3031 1.37581E+00
 -1      3032 2.72618E+00
 -1      3033 3.50762E+00
 -1      3034 2.26186E+00
 -1      3035 4.43651E+00
 -1      3036 5.69817E+00
 -1      3037 3.73577E+00
 -1      3038 1.29524E+01
 -1      3039 3.44673E-01
 -1      3040 3.34403E-01
 -1      3041 3.34888E-01
 -1      3042 5.47232E-01
 -1      3043 4.95802E-01
 -1      3044 5.96921E-01
 -1      3045 5.36997E+00
 -1      3046 4.17571E+00
 -1      3047 3.33654E+00
 -1      3048 2.65544E+00
 -1      3049 3.68807E+00
 -1      3050 2.16177E+00
 -1      3051 1.72332E+00
 -1      3052 2.35523E+00
 -1      3053 1.40634E+00
 -1      3054 1.12198E+00
 -1      3055 1.54458E+00
 -1      3056 9.17782E-01
 -1      3057 7.36838E-01
 -1      3058 1.02340E+00
 -1      3059 6.01223E-01
 -1      3060 4.90277E-01
 -1      3061 6.83595E-01
 -1      3062 4.00431E-01
 -1      3063 3.28128E-01
 -1      3064 4.58134E-01
 -1      3065 2.67849E-01
 -1      3066 2.18301E-01
 -1      3067 3.08009E-01
 -1      3068 1.76004E-01
 -1      3069 1.46215E-01
 -1      3070 2.05431E-01
 -1      3071 1.17841E-01
 -1      3072 9.77784E-02
 -1      3073 1.34759E-01
 -1      3074 7.97967E-02
 -1      3075 6.55366E-02
 -1      3076 8.84033E-02
 -1      3077 5.34847E-02
 -1      3078 4.34230E-02
 -1      3079 5.83697E-02
 -1      3080 3.54533E-02
 -1      3081 2.83508E-02
 -1      3082 3.83481E-02
 -1      3083 2.33370E-02
 -1      3084 1.87590E-02
 -1      3085 2.53647E-02
 -1      3086 1.53728E-02
 -1      3087 1.20017E-02
 -1      3088 1.69648E-02
 -1      3089 9.57716E-03
 -1      3090 7.57581E-03
 -1      3091 1.11540E-02
 -1      3092 5.88413E-03
 -1      3093 4.99963E-03
 -1      3094 7.03778E-03
 -1      3095 3.88185E-03
 -1      3096 3.52315E-03
 -1      3097 4.22831E-03
 -1      3098 3.30348E-03
 -1      3099 2.93358E-03
 -1      3100 2.89086E-03
 -1      3101 2.78841E-03
 -1      3102 2.42140E-03
 -1      3103 2.52602E-03
 -1      3104 2.21211E-03
 -1      3105 1.96227E-03
 -1      3106 2.17156E-03
 -1      3107 1.72186E-03
 -1      3108 1.48144E-03
 -1      3109 1.72186E-03
 -1      3110 8.88643E-04
 -1      3111 8.51680E-04
 -1      3112 1.20950E+01
 -1      3113 1.33787E+01
 -1      3114 4.34309E-01
 -1      3115 3.94920E-01
 -1      3116 4.62334E-01
 -1      3117 9.73395E-01
 -1      3118 8.85767E-01
 -1      3119 1.12910E+00
 -1      3120 1.04553E+00
 -1      3121 1.02157E+00
 -1      3122 1.22178E+00
 -1      3123 1.18157E+00
 -1      3124 1.14617E+00
 -1      3125 1.29936E+00
 -1      3126 1.27214E+00
 -1      3127 1.24899E+00
 -1      3128 1.39167E+00
 -1      3129 1.40174E+00
 -1      3130 1.40174E+00
 -1      3131 1.30979E+00
 -1      3132 1.35130E+00
 -1      3133 1.46376E+00
 -1      3134 1.28081E+00
 -1      3135 1.25186E+00
 -1      3136 1.36547E+00
 -1      3137 1.35197E+00
 -1      3138 1.33930E+00
 -1      3139 1.36602E+00
 -1      3140 1.25810E+00
 -1      3141 1.28542E+00
 -1      3142 1.35795E+00
 -1      3143 1.15358E+00
 -1      3144 1.19745E+00
 -1      3145 1.23075E+00
 -1      3146 1.01046E+00
 -1      3147 1.09961E+00
 -1      3148 1.11613E+00
 -1      3149 8.35589E-01
 -1      3150 9.39595E-01
 -1      3151 9.91302E-01
 -1      3152 6.64761E-01
 -1      3153 7.50736E-01
 -1      3154 8.35589E-01
 -1      3155 5.01506E-01
 -1      3156 5.78786E-01
 -1      3157 6.64761E-01
 -1      3158 3.46829E-01
 -1      3159 4.16014E-01
 -1      3160 4.93294E-01
 -1      3161 2.28073E-01
 -1      3162 2.82151E-01
 -1      3163 3.43123E-01
 -1      3164 1.59771E-01
 -1      3165 1.84954E-01
 -1      3166 2.35325E-01
 -1      3167 1.06986E-01
 -1      3168 1.27337E-01
 -1      3169 1.59771E-01
 -1      3170 8.03088E-02
 -1      3171 8.97087E-02
 -1      3172 1.10059E-01
 -1      3173 6.89322E-02
 -1      3174 7.24906E-02
 -1      3175 8.49638E-02
 -1      3176 5.63448E-02
 -1      3177 6.08858E-02
 -1      3178 6.90992E-02
 -1      3179 4.69578E-02
 -1      3180 5.11230E-02
 -1      3181 5.58311E-02
 -1      3182 3.74927E-02
 -1      3183 4.16848E-02
 -1      3184 4.53363E-02
 -1      3185 2.89608E-02
 -1      3186 3.27319E-02
 -1      3187 3.53024E-02
 -1      3188 2.16677E-02
 -1      3189 2.51270E-02
 -1      3190 2.67079E-02
 -1      3191 1.55961E-02
 -1      3192 1.85399E-02
 -1      3193 1.97464E-02
 -1      3194 1.07406E-02
 -1      3195 1.31080E-02
 -1      3196 1.41305E-02
 -1      3197 7.01555E-03
 -1      3198 8.82920E-03
 -1      3199 9.73097E-03
 -1      3200 4.54777E-03
 -1      3201 5.59666E-03
 -1      3202 6.40067E-03
 -1      3203 3.16866E-03
 -1      3204 3.53286E-03
 -1      3205 3.96687E-03
 -1      3206 2.39029E-03
 -1      3207 2.60462E-03
 -1      3208 2.38791E-03
 -1      3209 2.06970E-03
 -1      3210 2.34572E-03
 -1      3211 1.77930E-03
 -1      3212 1.68231E-03
 -1      3213 1.97561E-03
 -1      3214 1.64065E-03
 -1      3215 1.27534E+01
 -1      3216 5.89454E-04
 -1      3217 5.74687E-04
 -1      3218 8.22101E-01
 -1      3219 7.56336E-01
 -1      3220 8.85767E-01
 -1      3221 8.11226E+00
 -1      3222 9.65828E+00
 -1      3223 4.16286E-01
 -1      3224 4.11744E-01
 -1      3225 3.89285E-01
 -1      3226 3.29152E-01
 -1      3227 1.44000E+01
 -1      3228 6.40130E+00
 -1      3229 5.55147E+00
 -1      3230 7.84424E-04
 -1      3231 6.93142E-04
 -1      3232 7.84424E-04
 -1      3233 4.79441E+00
 -1      3234 6.91098E+00
 -1      3235 3.42764E+00
 -1      3236 4.19801E+00
 -1      3237 1.00037E+01
 -1      3238 1.15490E+01
 -1      3239 8.84659E+00
 -1      3240 8.53898E+00
 -1      3241 6.38008E+00
 -1      3242 5.53735E+00
 -1      3243 1.36465E+01
 -1      3244 1.16745E+01
 -1      3245 5.87918E+00
 -1      3246 4.35377E+00
 -1      3247 5.50035E+00
 -1      3248 4.20086E+00
 -1      3249 2.92467E+00
 -1      3250 3.56401E+00
 -1      3251 3.37750E+00
 -1      3252 3.20245E+00
 -1      3253 3.45418E-01
 -1      3254 3.30227E-01
 -1      3255 6.27411E-04
 -1      3256 5.96044E-04
 -1      3257 5.79115E-04
 -1      3258 6.51436E-04
 -1      3259 1.22540E-03
 -1      3260 1.44000E+01
 -1      3261 1.05305E+01
 -1      3262 8.53898E+00
 -1      3263 1.39477E+01
 -1      3264 3.40090E-01
 -1      3265 3.08409E-01
 -1      3266 3.58364E-01
 -1      3267 3.58364E-01
 -1      3268 7.95517E+00
 -1      3269 6.40846E+00
 -1      3270 7.46057E-01
 -1      3271 3.46484E-01
 -1      3272 3.33942E-01
 -1      3273 3.52405E-01
 -1      3274 6.85099E+00
 -1      3275 9.19367E+00
 -1      3276 3.01764E-01
 -1      3277 3.01764E-01
 -1      3278 3.29820E-01
 -1      3279 3.11126E-01
 -1      3280 2.89537E-01
 -1      3281 2.94465E-01
 -1      3282 9.28730E+00
 -1      3283 3.20071E-01
 -1      3284 3.28314E-01
 -1      3285 9.54586E+00
 -1      3286 9.39730E-04
 -1      3287 9.02766E-04
 -1      3288 1.04517E-03
 -1      3289 1.30897E-03
 -1      3290 9.96154E+00
 -1      3291 1.07290E+01
 -1      3292 3.19668E-01
 -1      3293 4.46921E-01
 -1      3294 2.27438E-01
 -1      3295 1.51595E-03
 -1      3296 1.38020E-03
 -1      3297 1.39744E-03
 -1      3298 5.63830E-04
 -1      3299 5.77458E-04
 -1      3300 1.29661E-03
 -1      3301 1.39744E-03
 -1      3302 1.14263E-03
 -1      3303 1.08698E+01
 -1      3304 1.20242E+01
 -1      3305 8.87420E+00
 -1      3306 7.11111E+00
 -1      3307 6.36270E-04
 -1      3308 8.76699E-04
 -1      3309 9.47909E-04
 -1      3310 6.23168E-04
 -1      3311 5.58912E-04
 -1      3312 5.52139E-04
 -1      3313 5.56750E-04
 -1      3314 2.66285E-01
 -1      3315 2.80682E-01
 -1      3316 2.49380E-01
 -1      3317 4.18868E+00
 -1      3318 4.09704E+00
 -1      3319 3.99504E+00
 -1      3320 3.24939E+00
 -1      3321 2.96972E+00
 -1      3322 2.74454E+00
 -1      3323 3.50237E-01
 -1      3324 3.18384E-01
 -1      3325 3.58364E-01
 -1      3326 6.70818E+00
 -1      3327 4.75345E+00
 -1      3328 6.82779E+00
 -1      3329 3.52096E+00
 -1      3330 4.84932E+00
 -1      3331 5.30542E+00
 -1      3332 3.79927E+00
 -1      3333 3.10296E+00
 -1      3334 2.92467E+00
 -1      3335 3.73354E+00
 -1      3336 4.39544E+00
 -1      3337 5.16019E+00
 -1      3338 3.97677E+00
 -1      3339 5.81750E+00
 -1      3340 3.09337E-01
 -1      3341 3.29408E-01
 -1      3342 2.79364E-01
 -1      3343 2.45422E-01
 -1      3344 3.42255E-01
 -1      3345 3.86355E-01
 -1      3346 4.97940E-01
 -1      3347 6.30368E-01
 -1      3348 4.60722E-01
 -1      3349 7.64080E-01
 -1      3350 9.37251E-01
 -1      3351 7.06019E-01
 -1      3352 1.17345E+00
 -1      3353 1.51449E+00
 -1      3354 1.07593E+00
 -1      3355 1.82010E+00
 -1      3356 2.36512E+00
 -1      3357 1.61774E+00
 -1      3358 3.08885E+00
 -1      3359 4.01775E+00
 -1      3360 2.64710E+00
 -1      3361 3.54169E+00
 -1      3362 2.70252E+00
 -1      3363 3.33735E-01
 -1      3364 6.16814E-01
 -1      3365 5.43721E-01
 -1      3366 2.59144E-01
 -1      3367 2.59426E-01
 -1      3368 2.21438E-01
 -1      3369 9.02560E+00
 -1      3370 8.07498E+00
 -1      3371 6.30753E+00
 -1      3372 1.30897E-03
 -1      3373 2.33428E+00
 -1      3374 1.84061E+00
 -1      3375 2.18790E+00
 -1      3376 1.53396E+00
 -1      3377 1.21698E+00
 -1      3378 1.51301E+00
 -1      3379 9.99866E-01
 -1      3380 7.95671E-01
 -1      3381 9.89248E-01
 -1      3382 6.56041E-01
 -1      3383 5.20426E-01
 -1      3384 6.32502E-01
 -1      3385 4.52007E-01
 -1      3386 3.62160E-01
 -1      3387 4.24452E-01
 -1      3388 3.12137E-01
 -1      3389 2.51858E-01
 -1      3390 3.06010E-01
 -1      3391 2.13854E-01
 -1      3392 1.71556E-01
 -1      3393 2.17983E-01
 -1      3394 1.44143E-01
 -1      3395 1.15769E-01
 -1      3396 1.52566E-01
 -1      3397 9.61934E-02
 -1      3398 7.82117E-02
 -1      3399 1.05577E-01
 -1      3400 6.43542E-02
 -1      3401 5.23023E-02
 -1      3402 7.21443E-02
 -1      3403 4.31051E-02
 -1      3404 3.51355E-02
 -1      3405 4.90896E-02
 -1      3406 2.87618E-02
 -1      3407 2.37480E-02
 -1      3408 3.35188E-02
 -1      3409 1.91348E-02
 -1      3410 1.57486E-02
 -1      3411 2.25319E-02
 -1      3412 1.25117E-02
 -1      3413 1.00871E-02
 -1      3414 1.46817E-02
 -1      3415 7.85504E-03
 -1      3416 6.16336E-03
 -1      3417 9.21270E-03
 -1      3418 4.65269E-03
 -1      3419 3.53491E-03
 -1      3420 5.46995E-03
 -1      3421 2.77502E-03
 -1      3422 2.55535E-03
 -1      3423 3.19940E-03
 -1      3424 2.14903E-03
 -1      3425 2.00386E-03
 -1      3426 2.03319E-03
 -1      3427 1.89939E-03
 -1      3428 1.69010E-03
 -1      3429 1.52239E-03
 -1      3430 2.64850E-01
 -1      3431 1.24401E+00
 -1      3432 1.19154E+00
 -1      3433 1.10279E+00
 -1      3434 1.03065E+00
 -1      3435 1.20063E+00
 -1      3436 2.11224E+00
 -1      3437 2.00985E+00
 -1      3438 2.50882E+00
 -1      3439 2.54919E+00
 -1      3440 3.15730E+00
 -1      3441 1.76608E+00
 -1      3442 1.82401E+00
 -1      3443 2.90944E+00
 -1      3444 1.60767E+00
 -1      3445 1.54919E+00
 -1      3446 2.00774E+00
 -1      3447 1.43890E+00
 -1      3448 1.50545E+00
 -1      3449 1.68862E+00
 -1      3450 1.23075E+00
 -1      3451 1.29140E+00
 -1      3452 1.43890E+00
 -1      3453 1.17092E+00
 -1      3454 1.22489E+00
 -1      3455 1.28554E+00
 -1      3456 1.02383E+00
 -1      3457 1.09469E+00
 -1      3458 1.20345E+00
 -1      3459 8.35589E-01
 -1      3460 9.20442E-01
 -1      3461 1.02383E+00
 -1      3462 6.46455E-01
 -1      3463 7.32430E-01
 -1      3464 8.17283E-01
 -1      3465 4.72153E-01
 -1      3466 5.57646E-01
 -1      3467 6.25315E-01
 -1      3468 3.30596E-01
 -1      3469 3.95275E-01
 -1      3470 4.59627E-01
 -1      3471 2.35325E-01
 -1      3472 2.78444E-01
 -1      3473 3.30596E-01
 -1      3474 1.59771E-01
 -1      3475 1.92205E-01
 -1      3476 2.35325E-01
 -1      3477 1.12560E-01
 -1      3478 1.29838E-01
 -1      3479 1.62272E-01
 -1      3480 8.89135E-02
 -1      3481 9.67317E-02
 -1      3482 1.16510E-01
 -1      3483 7.00085E-02
 -1      3484 7.80548E-02
 -1      3485 8.98228E-02
 -1      3486 5.63547E-02
 -1      3487 6.15765E-02
 -1      3488 7.05321E-02
 -1      3489 4.35991E-02
 -1      3490 4.88722E-02
 -1      3491 5.46176E-02
 -1      3492 3.26287E-02
 -1      3493 3.73895E-02
 -1      3494 4.09254E-02
 -1      3495 2.44857E-02
 -1      3496 2.83194E-02
 -1      3497 3.04065E-02
 -1      3498 1.81565E-02
 -1      3499 2.12842E-02
 -1      3500 2.28958E-02
 -1      3501 1.29057E-02
 -1      3502 1.53938E-02
 -1      3503 1.69317E-02
 -1      3504 8.80318E-03
 -1      3505 1.07146E-02
 -1      3506 1.19779E-02
 -1      3507 5.74229E-03
 -1      3508 7.16117E-03
 -1      3509 8.14480E-03
 -1      3510 3.48669E-03
 -1      3511 4.50160E-03
 -1      3512 5.26211E-03
 -1      3513 2.02826E-03
 -1      3514 2.59230E-03
 -1      3515 3.12704E-03
 -1      3516 1.41935E-03
 -1      3517 1.46392E-03
 -1      3518 1.66831E-03
 -1      3519 1.27155E-03
 -1      3520 1.36563E-03
 -1      3521 1.05024E-03
 -1      3522 5.52665E-04
 -1      3523 9.49432E-01
 -1      3524 8.85767E-01
 -1      3525 1.03065E+00
 -1      3526 1.97728E-01
 -1      3527 1.88390E-01
 -1      3528 7.97339E+00
 -1      3529 8.54235E+00
 -1      3530 6.55082E+00
 -1      3531 6.33766E+00
 -1      3532 6.68309E+00
 -1      3533 7.88921E-01
 -1      3534 7.12877E-01
 -1      3535 6.59677E-01
 -1      3536 1.21765E-03
 -1      3537 7.42739E+00
 -1      3538 7.97339E+00
 -1      3539 6.55419E+00
 -1      3540 3.49504E+00
 -1      3541 3.44392E+00
 -1      3542 4.21310E+00
 -1      3543 5.41438E+00
 -1      3544 2.49064E+00
 -1      3545 3.72104E+00
 -1      3546 5.11838E+00
 -1      3547 6.27121E+00
 -1      3548 4.47146E+00
 -1      3549 1.44492E+00
 -1      3550 1.39456E+00
 -1      3551 1.43993E+00
 -1      3552 2.15541E+00
 -1      3553 4.62447E-01
 -1      3554 4.00954E-01
 -1      3555 4.82340E-01
 -1      3556 9.86631E-04
 -1      3557 9.19375E-04
 -1      3558 3.44392E+00
 -1      3559 2.62056E+00
 -1      3560 5.72145E+00
 -1      3561 4.71135E+00
 -1      3562 3.72580E+00
 -1      3563 5.72482E+00
 -1      3564 4.88443E+00
 -1      3565 3.88437E+00
 -1      3566 4.02959E+00
 -1      3567 3.02433E-01
 -1      3568 2.16367E-01
 -1      3569 2.45132E-01
 -1      3570 2.59926E-01
 -1      3571 1.68673E-01
 -1      3572 3.02918E-01
 -1      3573 3.09799E-01
 -1      3574 3.33554E+00
 -1      3575 3.60262E+00
 -1      3576 2.97204E+00
 -1      3577 3.43631E-01
 -1      3578 3.43518E-01
 -1      3579 2.95082E-01
 -1      3580 1.30952E-03
 -1      3581 1.04572E-03
 -1      3582 9.94635E-04
 -1      3583 1.54993E-03
 -1      3584 3.12747E-01
 -1      3585 2.93646E-01
 -1      3586 8.37589E+00
 -1      3587 6.90500E+00
 -1      3588 6.75359E+00
 -1      3589 1.03260E-03
 -1      3590 1.19896E-03
 -1      3591 9.23939E-04
 -1      3592 5.58207E-04
 -1      3593 5.69898E-04
 -1      3594 5.75440E-04
 -1      3595 5.69898E-04
 -1      3596 6.28710E-04
 -1      3597 2.54352E+00
 -1      3598 2.27416E-01
 -1      3599 1.70385E-01
 -1      3600 6.41200E+00
 -1      3601 3.44147E+00
 -1      3602 3.71723E+00
 -1      3603 3.55215E+00
 -1      3604 2.48468E+00
 -1      3605 2.53162E+00
 -1      3606 2.40764E+00
 -1      3607 2.62816E-01
 -1      3608 3.02153E-01
 -1      3609 2.41733E-01
 -1      3610 5.58814E+00
 -1      3611 4.31606E+00
 -1      3612 3.39278E+00
 -1      3613 7.05893E-04
 -1      3614 6.40162E-04
 -1      3615 9.08100E-04
 -1      3616 3.98487E+00
 -1      3617 2.99079E+00
 -1      3618 2.49873E+00
 -1      3619 3.23203E-01
 -1      3620 5.80988E+00
 -1      3621 3.37111E+00
 -1      3622 4.02242E+00
 -1      3623 3.19286E+00
 -1      3624 2.38769E+00
 -1      3625 2.13196E+00
 -1      3626 2.56599E+00
 -1      3627 8.52586E-01
 -1      3628 2.44971E-01
 -1      3629 2.52021E-01
 -1      3630 4.23873E+00
 -1      3631 3.28721E+00
 -1      3632 4.54561E+00
 -1      3633 3.12747E-01
 -1      3634 3.11928E-01
 -1      3635 3.17565E-01
 -1      3636 1.12959E-03
 -1      3637 1.27776E-03
 -1      3638 5.90909E-04
 -1      3639 5.75133E-04
 -1      3640 5.92367E-04
 -1      3641 6.40162E-04
 -1      3642 6.33572E-04
 -1      3643 6.51956E-04
 -1      3644 6.94619E-04
 -1      3645 8.65912E-04
 -1      3646 8.48986E-04
 -1      3647 1.26975E-03
 -1      3648 5.24780E-01
 -1      3649 4.43507E-01
 -1      3650 5.72307E-01
 -1      3651 7.06019E-01
 -1      3652 9.12897E-01
 -1      3653 1.14910E+00
 -1      3654 7.79185E-01
 -1      3655 1.44118E+00
 -1      3656 1.74680E+00
 -1      3657 1.27815E+00
 -1      3658 2.14252E+00
 -1      3659 2.86626E+00
 -1      3660 1.96596E+00
 -1      3661 4.02242E+00
 -1      3662 3.60143E+00
 -1      3663 1.96218E-01
 -1      3664 2.03077E-01
 -1      3665 2.16514E-01
 -1      3666 2.00774E+00
 -1      3667 2.22463E+00
 -1      3668 5.72482E+00
 -1      3669 2.32386E+00
 -1      3670 1.95562E+00
 -1      3671 1.61771E+00
 -1      3672 1.31106E+00
 -1      3673 1.75367E+00
 -1      3674 1.01043E+00
 -1      3675 7.93310E-01
 -1      3676 1.11512E+00
 -1      3677 6.72116E-01
 -1      3678 5.32486E-01
 -1      3679 6.93294E-01
 -1      3680 4.35143E-01
 -1      3681 3.66723E-01
 -1      3682 4.74757E-01
 -1      3683 3.12461E-01
 -1      3684 2.62438E-01
 -1      3685 3.23151E-01
 -1      3686 2.17743E-01
 -1      3687 1.79739E-01
 -1      3688 2.24194E-01
 -1      3689 1.49234E-01
 -1      3690 1.21821E-01
 -1      3691 1.48995E-01
 -1      3692 1.06481E-01
 -1      3693 8.69050E-02
 -1      3694 1.03149E-01
 -1      3695 7.48553E-02
 -1      3696 6.09977E-02
 -1      3697 7.57584E-02
 -1      3698 5.19237E-02
 -1      3699 4.27266E-02
 -1      3700 5.46347E-02
 -1      3701 3.59797E-02
 -1      3702 2.96060E-02
 -1      3703 3.88138E-02
 -1      3704 2.45809E-02
 -1      3705 1.99677E-02
 -1      3706 2.70418E-02
 -1      3707 1.64506E-02
 -1      3708 1.32137E-02
 -1      3709 1.84997E-02
 -1      3710 1.06574E-02
 -1      3711 8.42530E-03
 -1      3712 1.24263E-02
 -1      3713 6.62036E-03
 -1      3714 5.10970E-03
 -1      3715 8.06504E-03
 -1      3716 3.89447E-03
 -1      3717 3.13458E-03
 -1      3718 5.04488E-03
 -1      3719 2.26880E-03
 -1      3720 1.86247E-03
 -1      3721 2.96386E-03
 -1      3722 1.52727E-03
 -1      3723 1.42280E-03
 -1      3724 1.76288E-03
 -1      3725 1.28938E+00
 -1      3726 1.20063E+00
 -1      3727 2.90944E+00
 -1      3728 3.59425E+00
 -1      3729 2.17584E+00
 -1      3730 2.27806E+00
 -1      3731 2.49495E+00
 -1      3732 1.66829E+00
 -1      3733 1.81579E+00
 -1      3734 2.40523E+00
 -1      3735 1.58758E+00
 -1      3736 1.59343E+00
 -1      3737 1.97033E+00
 -1      3738 1.20345E+00
 -1      3739 1.27968E+00
 -1      3740 1.58758E+00
 -1      3741 1.04463E+00
 -1      3742 1.14802E+00
 -1      3743 1.22425E+00
 -1      3744 7.84864E-01
 -1      3745 8.88023E-01
 -1      3746 1.01221E+00
 -1      3747 6.28247E-01
 -1      3748 7.17056E-01
 -1      3749 7.87796E-01
 -1      3750 4.79866E-01
 -1      3751 5.56744E-01
 -1      3752 6.48486E-01
 -1      3753 3.54405E-01
 -1      3754 4.06558E-01
 -1      3755 5.03675E-01
 -1      3756 2.63112E-01
 -1      3757 3.06232E-01
 -1      3758 3.82193E-01
 -1      3759 1.93223E-01
 -1      3760 2.23156E-01
 -1      3761 2.94064E-01
 -1      3762 1.41968E-01
 -1      3763 1.57797E-01
 -1      3764 2.18681E-01
 -1      3765 1.03480E-01
 -1      3766 1.14339E-01
 -1      3767 1.55625E-01
 -1      3768 7.51758E-02
 -1      3769 8.36078E-02
 -1      3770 1.08124E-01
 -1      3771 5.30565E-02
 -1      3772 6.05390E-02
 -1      3773 7.36147E-02
 -1      3774 3.90101E-02
 -1      3775 4.52197E-02
 -1      3776 5.11412E-02
 -1      3777 3.02194E-02
 -1      3778 3.45287E-02
 -1      3779 3.88230E-02
 -1      3780 2.28958E-02
 -1      3781 2.60972E-02
 -1      3782 3.02194E-02
 -1      3783 1.66129E-02
 -1      3784 1.93756E-02
 -1      3785 2.25770E-02
 -1      3786 1.15696E-02
 -1      3787 1.37607E-02
 -1      3788 1.62047E-02
 -1      3789 7.72441E-03
 -1      3790 9.36642E-03
 -1      3791 1.11492E-02
 -1      3792 4.95394E-03
 -1      3793 6.19462E-03
 -1      3794 7.41624E-03
 -1      3795 2.93365E-03
 -1      3796 3.82804E-03
 -1      3797 4.76055E-03
 -1      3798 1.57349E-03
 -1      3799 2.13783E-03
 -1      3800 2.83883E-03
 -1      3801 1.00454E-03
 -1      3802 1.05826E-03
 -1      3803 1.52778E-03
 -1      3804 1.21384E-03
 -1      3805 1.11187E+00
 -1      3806 1.03065E+00
 -1      3807 1.20063E+00
 -1      3808 5.91369E+00
 -1      3809 6.06722E+00
 -1      3810 4.82003E+00
 -1      3811 7.05774E-01
 -1      3812 6.09711E-01
 -1      3813 5.70877E-01
 -1      3814 4.98051E+00
 -1      3815 5.72482E+00
 -1      3816 3.75781E+00
 -1      3817 4.85844E+00
 -1      3818 3.25324E+00
 -1      3819 9.23555E-01
 -1      3820 8.26709E-01
 -1      3821 1.00477E+00
 -1      3822 2.43363E-01
 -1      3823 2.12970E-01
 -1      3824 1.94610E-01
 -1      3825 2.61645E-01
 -1      3826 2.21445E+00
 -1      3827 2.21445E+00
 -1      3828 2.81518E-01
 -1      3829 2.81518E-01
 -1      3830 2.75880E-01
 -1      3831 2.18241E-01
 -1      3832 2.11093E-01
 -1      3833 1.81405E-01
 -1      3834 2.43135E-01
 -1      3835 3.49137E-01
 -1      3836 4.60722E-01
 -1      3837 4.60722E-01
 -1      3838 3.02153E-01
 -1      3839 1.27463E-03
 -1      3840 1.03260E-03
 -1      3841 3.75247E-01
 -1      3842 3.17812E-01
 -1      3843 4.17687E-01
 -1      3844 1.62641E+00
 -1      3845 1.47586E+00
 -1      3846 1.47586E+00
 -1      3847 4.89545E+00
 -1      3848 3.43430E+00
 -1      3849 7.76743E-01
 -1      3850 3.59425E+00
 -1      3851 2.09381E-01
 -1      3852 4.30531E+00
 -1      3853 5.14990E+00
 -1      3854 5.79961E+00
 -1      3855 4.31212E+00
 -1      3856 5.20003E+00
 -1      3857 3.59425E+00
 -1      3858 1.88538E+00
 -1      3859 2.21445E+00
 -1      3860 2.07857E+00
 -1      3861 1.00281E-03
 -1      3862 9.60143E-04
 -1      3863 1.21676E-03
 -1      3864 3.05773E+00
 -1      3865 3.15730E+00
 -1      3866 7.85981E-04
 -1      3867 7.93996E-04
 -1      3868 3.51922E+00
 -1      3869 2.77554E+00
 -1      3870 2.44646E+00
 -1      3871 2.89200E+00
 -1      3872 3.06576E+00
 -1      3873 1.27463E-03
 -1      3874 1.06115E-03
 -1      3875 1.42768E-03
 -1      3876 2.07935E+00
 -1      3877 2.34318E+00
 -1      3878 4.00537E+00
 -1      3879 3.92031E+00
 -1      3880 3.25586E+00
 -1      3881 2.96630E-01
 -1      3882 2.46347E-01
 -1      3883 2.43135E-01
 -1      3884 2.54154E-01
 -1      3885 2.66377E+00
 -1      3886 1.97641E+00
 -1      3887 7.26321E-04
 -1      3888 7.26321E-04
 -1      3889 9.44876E-04
 -1      3890 9.99866E-04
 -1      3891 2.86196E-01
 -1      3892 3.11928E-01
 -1      3893 3.11928E-01
 -1      3894 2.96630E-01
 -1      3895 7.66668E-04
 -1      3896 2.44315E+00
 -1      3897 2.57407E+00
 -1      3898 1.04214E+00
 -1      3899 1.33423E+00
 -1      3900 1.67213E+00
 -1      3901 2.06786E+00
 -1      3902 1.43613E+00
 -1      3903 2.23207E-01
 -1      3904 2.61863E-01
 -1      3905 3.08846E-01
 -1      3906 3.85766E+00
 -1      3907 3.58324E+00
 -1      3908 3.72580E+00
 -1      3909 3.49352E+00
 -1      3910 1.23823E+00
 -1      3911 9.37594E-01
 -1      3912 7.37028E-01
 -1      3913 6.15834E-01
 -1      3914 8.60134E-01
 -1      3915 4.86706E-01
 -1      3916 3.89363E-01
 -1      3917 5.30440E-01
 -1      3918 3.26247E-01
 -1      3919 2.71984E-01
 -1      3920 3.38195E-01
 -1      3921 2.34575E-01
 -1      3922 1.89881E-01
 -1      3923 2.37671E-01
 -1      3924 1.60911E-01
 -1      3925 1.30406E-01
 -1      3926 1.71293E-01
 -1      3927 1.09066E-01
 -1      3928 9.37250E-02
 -1      3929 1.20982E-01
 -1      3930 7.83560E-02
 -1      3931 6.63062E-02
 -1      3932 8.42728E-02
 -1      3933 5.44731E-02
 -1      3934 4.53991E-02
 -1      3935 5.70707E-02
 -1      3936 3.90159E-02
 -1      3937 3.22689E-02
 -1      3938 3.88542E-02
 -1      3939 2.75377E-02
 -1      3940 2.25126E-02
 -1      3941 2.77398E-02
 -1      3942 1.91043E-02
 -1      3943 1.55872E-02
 -1      3944 1.96002E-02
 -1      3945 1.31366E-02
 -1      3946 1.05803E-02
 -1      3947 1.37412E-02
 -1      3948 8.77379E-03
 -1      3949 6.96886E-03
 -1      3950 9.48408E-03
 -1      3951 5.65281E-03
 -1      3952 4.43758E-03
 -1      3953 6.36156E-03
 -1      3954 3.49512E-03
 -1      3955 2.62933E-03
 -1      3956 4.10305E-03
 -1      3957 2.03048E-03
 -1      3958 1.69529E-03
 -1      3959 1.69529E-03
 -1      3960 2.56174E-03
 -1      3961 1.60174E+00
 -1      3962 1.90964E+00
 -1      3963 1.52659E+00
 -1      3964 1.58202E+00
 -1      3965 1.90408E+00
 -1      3966 1.01221E+00
 -1      3967 1.16882E+00
 -1      3968 1.52659E+00
 -1      3969 9.30484E-01
 -1      3970 9.98292E-01
 -1      3971 1.15490E+00
 -1      3972 6.48486E-01
 -1      3973 7.19988E-01
 -1      3974 9.30484E-01
 -1      3975 5.03675E-01
 -1      3976 5.76983E-01
 -1      3977 6.48486E-01
 -1      3978 3.82193E-01
 -1      3979 4.30367E-01
 -1      3980 5.03675E-01
 -1      3981 2.78785E-01
 -1      3982 3.18741E-01
 -1      3983 3.66915E-01
 -1      3984 1.96382E-01
 -1      3985 2.31809E-01
 -1      3986 2.56486E-01
 -1      3987 1.33074E-01
 -1      3988 1.60703E-01
 -1      3989 1.73831E-01
 -1      3990 8.97360E-02
 -1      3991 1.09608E-01
 -1      3992 1.14686E-01
 -1      3993 6.28333E-02
 -1      3994 7.74701E-02
 -1      3995 7.89547E-02
 -1      3996 4.59697E-02
 -1      3997 5.38065E-02
 -1      3998 5.76619E-02
 -1      3999 3.51991E-02
 -1      4000 3.96805E-02
 -1      4001 4.23458E-02
 -1      4002 2.62867E-02
 -1      4003 3.04090E-02
 -1      4004 3.12664E-02
 -1      4005 1.90092E-02
 -1      4006 2.25293E-02
 -1      4007 2.27189E-02
 -1      4008 1.32789E-02
 -1      4009 1.61311E-02
 -1      4010 1.60834E-02
 -1      4011 8.91778E-03
 -1      4012 1.11210E-02
 -1      4013 1.10474E-02
 -1      4014 5.96748E-03
 -1      4015 7.49727E-03
 -1      4016 7.46901E-03
 -1      4017 3.83856E-03
 -1      4018 4.96445E-03
 -1      4019 5.04548E-03
 -1      4020 2.33217E-03
 -1      4021 3.12799E-03
 -1      4022 3.33189E-03
 -1      4023 1.27671E-03
 -1      4024 1.79194E-03
 -1      4025 2.08110E-03
 -1      4026 1.20903E-03
 -1      4027 2.51043E+00
 -1      4028 3.40198E+00
 -1      4029 2.21660E+00
 -1      4030 7.13398E-04
 -1      4031 1.96224E+00
 -1      4032 1.24682E+00
 -1      4033 1.15807E+00
 -1      4034 4.09465E+00
 -1      4035 2.39959E-01
 -1      4036 2.23207E-01
 -1      4037 2.74944E-01
 -1      4038 8.97678E-01
 -1      4039 7.76743E-01
 -1      4040 6.55808E-01
 -1      4041 5.70877E-01
 -1      4042 7.76743E-01
 -1      4043 2.45530E+00
 -1      4044 2.71515E+00
 -1      4045 2.90944E+00
 -1      4046 3.11654E+00
 -1      4047 2.03710E+00
 -1      4048 2.30973E-01
 -1      4049 1.40644E+00
 -1      4050 1.29934E+00
 -1      4051 1.45263E+00
 -1      4052 1.85309E+00
 -1      4053 1.51517E+00
 -1      4054 1.33764E+00
 -1      4055 2.95361E-01
 -1      4056 2.63319E-01
 -1      4057 2.37295E+00
 -1      4058 2.87374E+00
 -1      4059 3.17812E-01
 -1      4060 3.49352E+00
 -1      4061 2.09159E+00
 -1      4062 1.85309E+00
 -1      4063 2.51838E+00
 -1      4064 1.96705E+00
 -1      4065 2.15059E+00
 -1      4066 2.74948E+00
 -1      4067 2.67959E+00
 -1      4068 2.11466E+00
 -1      4069 6.46404E-01
 -1      4070 8.53283E-01
 -1      4071 9.09362E-01
 -1      4072 3.01980E+00
 -1      4073 2.80320E+00
 -1      4074 1.01823E-03
 -1      4075 1.01823E-03
 -1      4076 1.32642E-03
 -1      4077 1.38476E-03
 -1      4078 2.32346E+00
 -1      4079 2.44315E+00
 -1      4080 1.97033E+00
 -1      4081 2.04518E+00
 -1      4082 2.68556E-01
 -1      4083 3.61945E+00
 -1      4084 2.89738E+00
 -1      4085 3.60013E-01
 -1      4086 3.44715E-01
 -1      4087 2.56305E+00
 -1      4088 1.54482E+00
 -1      4089 1.54482E+00
 -1      4090 3.07157E+00
 -1      4091 4.97535E-01
 -1      4092 4.29276E-01
 -1      4093 5.82466E-01
 -1      4094 2.10591E+00
 -1      4095 1.58738E+00
 -1      4096 1.77386E+00
 -1      4097 4.53548E-01
 -1      4098 4.47159E-01
 -1      4099 5.16930E-01
 -1      4100 1.29934E+00
 -1      4101 1.34207E-03
 -1      4102 1.24784E-03
 -1      4103 2.22467E+00
 -1      4104 2.11969E+00
 -1      4105 1.92767E+00
 -1      4106 4.07195E-01
 -1      4107 5.18780E-01
 -1      4108 5.92877E-01
 -1      4109 3.66905E-01
 -1      4110 1.12518E-03
 -1      4111 3.80660E-01
 -1      4112 3.49044E-01
 -1      4113 3.58208E-01
 -1      4114 4.60508E-01
 -1      4115 2.75880E-01
 -1      4116 3.35184E+00
 -1      4117 1.86482E+00
 -1      4118 1.46316E+00
 -1      4119 8.60134E-01
 -1      4120 6.59568E-01
 -1      4121 2.63733E+00
 -1      4122 2.87555E+00
 -1      4123 2.04193E+00
 -1      4124 2.42405E+00
 -1      4125 1.99726E+00
 -1      4126 1.36196E+00
 -1      4127 1.08501E+00
 -1      4128 8.84448E-01
 -1      4129 5.74973E-01
 -1      4130 4.45845E-01
 -1      4131 5.74973E-01
 -1      4132 3.69419E-01
 -1      4133 3.06303E-01
 -1      4134 4.13952E-01
 -1      4135 2.48943E-01
 -1      4136 2.11535E-01
 -1      4137 2.80167E-01
 -1      4138 1.71835E-01
 -1      4139 1.42865E-01
 -1      4140 1.83107E-01
 -1      4141 1.22211E-01
 -1      4142 1.00871E-01
 -1      4143 1.22753E-01
 -1      4144 8.78787E-02
 -1      4145 7.25097E-02
 -1      4146 8.91074E-02
 -1      4147 6.11338E-02
 -1      4148 4.93006E-02
 -1      4149 6.47396E-02
 -1      4150 4.29083E-02
 -1      4151 3.65250E-02
 -1      4152 4.69714E-02
 -1      4153 3.06160E-02
 -1      4154 2.58848E-02
 -1      4155 3.46701E-02
 -1      4156 2.14795E-02
 -1      4157 1.80711E-02
 -1      4158 2.43557E-02
 -1      4159 1.49045E-02
 -1      4160 1.24538E-02
 -1      4161 1.67838E-02
 -1      4162 1.03001E-02
 -1      4163 8.49359E-03
 -1      4164 1.14633E-02
 -1      4165 6.80326E-03
 -1      4166 5.48722E-03
 -1      4167 7.61924E-03
 -1      4168 4.54185E-03
 -1      4169 3.59939E-03
 -1      4170 4.98355E-03
 -1      4171 1.40769E+00
 -1      4172 1.42161E+00
 -1      4173 2.58212E+00
 -1      4174 2.51810E+00
 -1      4175 9.30484E-01
 -1      4176 1.14098E+00
 -1      4177 7.40891E-01
 -1      4178 8.12394E-01
 -1      4179 1.02289E+00
 -1      4180 5.69824E-01
 -1      4181 6.43132E-01
 -1      4182 8.07040E-01
 -1      4183 3.41505E-01
 -1      4184 4.04957E-01
 -1      4185 5.44414E-01
 -1      4186 2.31348E-01
 -1      4187 2.78324E-01
 -1      4188 3.16366E-01
 -1      4189 1.58271E-01
 -1      4190 1.93950E-01
 -1      4191 2.15788E-01
 -1      4192 1.07531E-01
 -1      4193 1.30997E-01
 -1      4194 1.51116E-01
 -1      4195 7.89547E-02
 -1      4196 9.12206E-02
 -1      4197 1.07531E-01
 -1      4198 5.76619E-02
 -1      4199 6.66888E-02
 -1      4200 7.89547E-02
 -1      4201 4.19537E-02
 -1      4202 4.82429E-02
 -1      4203 5.72698E-02
 -1      4204 3.01278E-02
 -1      4205 3.49179E-02
 -1      4206 4.08150E-02
 -1      4207 2.11906E-02
 -1      4208 2.49481E-02
 -1      4209 2.85995E-02
 -1      4210 1.51363E-02
 -1      4211 1.80144E-02
 -1      4212 2.02436E-02
 -1      4213 1.06428E-02
 -1      4214 1.28007E-02
 -1      4215 1.47317E-02
 -1      4216 7.36102E-03
 -1      4217 8.78153E-03
 -1      4218 1.05348E-02
 -1      4219 5.04548E-03
 -1      4220 6.04851E-03
 -1      4221 7.36102E-03
 -1      4222 3.31902E-03
 -1      4223 4.02958E-03
 -1      4224 5.03261E-03
 -1      4225 2.19476E+00
 -1      4226 1.33033E+00
 -1      4227 1.20940E+00
 -1      4228 1.89582E+00
 -1      4229 1.77347E-03
 -1      4230 1.80455E-03
 -1      4231 1.78889E-03
 -1      4232 2.35428E+00
 -1      4233 1.86690E+00
 -1      4234 3.08227E-01
 -1      4235 3.56311E-01
 -1      4236 1.43061E+00
 -1      4237 1.76851E+00
 -1      4238 3.66905E-01
 -1      4239 3.66905E-01
 -1      4240 4.65254E-01
 -1      4241 5.45508E-01
 -1      4242 4.09994E-01
 -1      4243 2.72179E-01
 -1      4244 9.10758E-01
 -1      4245 1.09962E+00
 -1      4246 1.43200E+00
 -1      4247 1.40769E+00
 -1      4248 1.45701E-03
 -1      4249 1.66096E+00
 -1      4250 3.25954E-03
 -1      4251 2.82074E-03
 -1      4252 2.22189E-03
 -1      4253 2.32207E+00
 -1      4254 1.85309E+00
 -1      4255 1.61459E+00
 -1      4256 1.36196E+00
 -1      4257 1.75876E+00
 -1      4258 2.18924E+00
 -1      4259 1.76485E-03
 -1      4260 2.30509E-03
 -1      4261 3.00278E-03
 -1      4262 1.68100E-03
 -1      4263 1.52195E+00
 -1      4264 6.83865E-01
 -1      4265 7.92698E-01
 -1      4266 6.85762E-01
 -1      4267 5.92877E-01
 -1      4268 7.83135E-01
 -1      4269 1.01085E+00
 -1      4270 9.37507E-01
 -1      4271 1.56444E+00
 -1      4272 2.11240E-03
 -1      4273 1.76299E+00
 -1      4274 2.18924E+00
 -1      4275 4.72177E-01
 -1      4276 6.37045E-01
 -1      4277 1.95428E-03
 -1      4278 1.91137E-03
 -1      4279 2.22189E-03
 -1      4280 6.12188E-01
 -1      4281 5.27593E-01
 -1      4282 2.94152E-01
 -1      4283 2.36792E-01
 -1      4284 2.00599E-01
 -1      4285 1.60898E-01
 -1      4286 2.14584E-01
 -1      4287 1.33624E-01
 -1      4288 1.12971E-01
 -1      4289 1.51116E-01
 -1      4290 9.32340E-02
 -1      4291 8.02421E-02
 -1      4292 1.04105E-01
 -1      4293 6.65618E-02
 -1      4294 5.51858E-02
 -1      4295 7.06883E-02
 -1      4296 4.77692E-02
 -1      4297 4.13768E-02
 -1      4298 4.95913E-02
 -1      4299 3.61988E-02
 -1      4300 3.02899E-02
 -1      4301 3.69966E-02
 -1      4302 2.60446E-02
 -1      4303 2.16393E-02
 -1      4304 2.75734E-02
 -1      4305 1.83024E-02
 -1      4306 1.51358E-02
 -1      4307 1.99913E-02
 -1      4308 1.25760E-02
 -1      4309 1.04222E-02
 -1      4310 1.40947E-02
 -1      4311 8.46533E-03
 -1      4312 6.77500E-03
 -1      4313 9.57801E-03
 -1      4314 5.66851E-03
 -1      4315 4.72314E-03
 -1      4316 6.51459E-03
 -1      4317 1.02289E+00
 -1      4318 1.40386E+00
 -1      4319 1.25969E+00
 -1      4320 9.04799E-01
 -1      4321 8.63389E-01
 -1      4322 1.03032E+00
 -1      4323 2.14584E-01
 -1      4324 2.51982E-01
 -1      4325 1.51116E-01
 -1      4326 1.78390E-01
 -1      4327 1.07531E-01
 -1      4328 1.23842E-01
 -1      4329 7.55287E-02
 -1      4330 8.77946E-02
 -1      4331 5.24294E-02
 -1      4332 6.18484E-02
 -1      4333 3.79769E-02
 -1      4334 4.50127E-02
 -1      4335 2.76192E-02
 -1      4336 3.27989E-02
 -1      4337 2.01977E-02
 -1      4338 2.33740E-02
 -1      4339 1.45253E-02
 -1      4340 1.68609E-02
 -1      4341 1.01042E-02
 -1      4342 1.19655E-02
 -1      4343 6.83480E-03
 -1      4344 8.14731E-03
 -1      4345 4.71240E-03
 -1      4346 5.72830E-03
 -1      4347 2.35842E-03
 -1      4348 1.00706E+00
 -1      4349 7.82183E-01
 -1      4350 7.34803E-01
 -1      4351 1.25969E+00
 -1      4352 2.68975E-03
 -1      4353 3.70368E-03
 -1      4354 4.39937E-03
 -1      4355 2.81330E-03
 -1      4356 1.56444E+00
 -1      4357 7.34378E-01
 -1      4358 8.07040E-01
 -1      4359 9.04799E-01
 -1      4360 1.23345E+00
 -1      4361 2.93577E-03
 -1      4362 4.13952E-01
 -1      4363 3.37526E-01
 -1      4364 3.71442E-03
 -1      4365 2.94152E-01
 -1      4366 2.95356E-01
 -1      4367 3.58537E-01
 -1      4368 4.51167E-01
 -1      4369 1.16276E+00
 -1      4370 2.48089E-03
 -1      4371 9.04799E-01
 -1      4372 2.93577E-03
 -3
 9999
