    1C
    1UUSER                                                              
    1UDATE              27.october.2022                                 
    1UTIME              00:52:05                                        
    1UHOST                                                              
    1UPGM               CalculiX                                        
    1UVERSION           Version 2.17                             
    1UCOMPILETIME       Thu Jul 23 21:43:50 CEST 2020                    
    1UDIR                                                               
    1UDBN                                                               
    1UMAT    1SOLIDMATERIAL                                             
    2C                          4287                                     1
 -1         1 2.02353E+01 4.09090E+01 0.00000E+00
 -1         2 3.21402E+01 3.59148E+01 0.00000E+00
 -1         3 1.50000E+02 0.00000E+00 0.00000E+00
 -1         4 1.50000E+02 5.00000E+01 0.00000E+00
 -1         5 0.00000E+00 0.00000E+00 0.00000E+00
 -1         6 0.00000E+00 5.00000E+01 0.00000E+00
 -1         7 0.00000E+00 4.70500E+01 0.00000E+00
 -1         8 0.00000E+00 4.41000E+01 0.00000E+00
 -1         9 0.00000E+00 4.11500E+01 0.00000E+00
 -1        10 0.00000E+00 3.82000E+01 0.00000E+00
 -1        11 0.00000E+00 3.52500E+01 0.00000E+00
 -1        12 0.00000E+00 3.23500E+01 0.00000E+00
 -1        13 0.00000E+00 2.94000E+01 0.00000E+00
 -1        14 0.00000E+00 2.64500E+01 0.00000E+00
 -1        15 0.00000E+00 2.35000E+01 0.00000E+00
 -1        16 0.00000E+00 2.05500E+01 0.00000E+00
 -1        17 0.00000E+00 1.76000E+01 0.00000E+00
 -1        18 0.00000E+00 1.47000E+01 0.00000E+00
 -1        19 0.00000E+00 1.17500E+01 0.00000E+00
 -1        20 0.00000E+00 8.80000E+00 0.00000E+00
 -1        21 0.00000E+00 5.85000E+00 0.00000E+00
 -1        22 0.00000E+00 2.90000E+00 0.00000E+00
 -1        23 3.15000E+00 5.00000E+01 0.00000E+00
 -1        24 6.15000E+00 5.00000E+01 0.00000E+00
 -1        25 9.15000E+00 5.00000E+01 0.00000E+00
 -1        26 1.21500E+01 5.00000E+01 0.00000E+00
 -1        27 1.51500E+01 5.00000E+01 0.00000E+00
 -1        28 1.81500E+01 5.00000E+01 0.00000E+00
 -1        29 2.07000E+01 5.00000E+01 0.00000E+00
 -1        30 2.31000E+01 5.00000E+01 0.00000E+00
 -1        31 2.56500E+01 5.00000E+01 0.00000E+00
 -1        32 2.80500E+01 5.00000E+01 0.00000E+00
 -1        33 3.03000E+01 5.00000E+01 0.00000E+00
 -1        34 3.30000E+01 5.00000E+01 0.00000E+00
 -1        35 3.58500E+01 5.00000E+01 0.00000E+00
 -1        36 3.88500E+01 5.00000E+01 0.00000E+00
 -1        37 4.18500E+01 5.00000E+01 0.00000E+00
 -1        38 4.48500E+01 5.00000E+01 0.00000E+00
 -1        39 4.78500E+01 5.00000E+01 0.00000E+00
 -1        40 5.08500E+01 5.00000E+01 0.00000E+00
 -1        41 5.38500E+01 5.00000E+01 0.00000E+00
 -1        42 5.68500E+01 5.00000E+01 0.00000E+00
 -1        43 5.98500E+01 5.00000E+01 0.00000E+00
 -1        44 6.28500E+01 5.00000E+01 0.00000E+00
 -1        45 6.58500E+01 5.00000E+01 0.00000E+00
 -1        46 6.88500E+01 5.00000E+01 0.00000E+00
 -1        47 7.20000E+01 5.00000E+01 0.00000E+00
 -1        48 7.50000E+01 5.00000E+01 0.00000E+00
 -1        49 7.80000E+01 5.00000E+01 0.00000E+00
 -1        50 8.10000E+01 5.00000E+01 0.00000E+00
 -1        51 8.40000E+01 5.00000E+01 0.00000E+00
 -1        52 8.70000E+01 5.00000E+01 0.00000E+00
 -1        53 9.00000E+01 5.00000E+01 0.00000E+00
 -1        54 9.30000E+01 5.00000E+01 0.00000E+00
 -1        55 9.60000E+01 5.00000E+01 0.00000E+00
 -1        56 9.90000E+01 5.00000E+01 0.00000E+00
 -1        57 1.02000E+02 5.00000E+01 0.00000E+00
 -1        58 1.05000E+02 5.00000E+01 0.00000E+00
 -1        59 1.08000E+02 5.00000E+01 0.00000E+00
 -1        60 1.11000E+02 5.00000E+01 0.00000E+00
 -1        61 1.14000E+02 5.00000E+01 0.00000E+00
 -1        62 1.17000E+02 5.00000E+01 0.00000E+00
 -1        63 1.20000E+02 5.00000E+01 0.00000E+00
 -1        64 1.23000E+02 5.00000E+01 0.00000E+00
 -1        65 1.26000E+02 5.00000E+01 0.00000E+00
 -1        66 1.29000E+02 5.00000E+01 0.00000E+00
 -1        67 1.32000E+02 5.00000E+01 0.00000E+00
 -1        68 1.35000E+02 5.00000E+01 0.00000E+00
 -1        69 1.38000E+02 5.00000E+01 0.00000E+00
 -1        70 1.41000E+02 5.00000E+01 0.00000E+00
 -1        71 1.44000E+02 5.00000E+01 0.00000E+00
 -1        72 1.47000E+02 5.00000E+01 0.00000E+00
 -1        73 3.15000E+00 0.00000E+00 0.00000E+00
 -1        74 6.15000E+00 0.00000E+00 0.00000E+00
 -1        75 9.15000E+00 0.00000E+00 0.00000E+00
 -1        76 1.21500E+01 0.00000E+00 0.00000E+00
 -1        77 1.51500E+01 0.00000E+00 0.00000E+00
 -1        78 1.81500E+01 0.00000E+00 0.00000E+00
 -1        79 2.11500E+01 0.00000E+00 0.00000E+00
 -1        80 2.41500E+01 0.00000E+00 0.00000E+00
 -1        81 2.71500E+01 0.00000E+00 0.00000E+00
 -1        82 3.01500E+01 0.00000E+00 0.00000E+00
 -1        83 3.31500E+01 0.00000E+00 0.00000E+00
 -1        84 3.61500E+01 0.00000E+00 0.00000E+00
 -1        85 3.91500E+01 0.00000E+00 0.00000E+00
 -1        86 4.21500E+01 0.00000E+00 0.00000E+00
 -1        87 4.51500E+01 0.00000E+00 0.00000E+00
 -1        88 4.81500E+01 0.00000E+00 0.00000E+00
 -1        89 5.11500E+01 0.00000E+00 0.00000E+00
 -1        90 5.41500E+01 0.00000E+00 0.00000E+00
 -1        91 5.71500E+01 0.00000E+00 0.00000E+00
 -1        92 6.01500E+01 0.00000E+00 0.00000E+00
 -1        93 6.31500E+01 0.00000E+00 0.00000E+00
 -1        94 6.61500E+01 0.00000E+00 0.00000E+00
 -1        95 6.91500E+01 0.00000E+00 0.00000E+00
 -1        96 7.21500E+01 0.00000E+00 0.00000E+00
 -1        97 7.51500E+01 0.00000E+00 0.00000E+00
 -1        98 7.81500E+01 0.00000E+00 0.00000E+00
 -1        99 8.11500E+01 0.00000E+00 0.00000E+00
 -1       100 8.41500E+01 0.00000E+00 0.00000E+00
 -1       101 8.71500E+01 0.00000E+00 0.00000E+00
 -1       102 9.01500E+01 0.00000E+00 0.00000E+00
 -1       103 9.31500E+01 0.00000E+00 0.00000E+00
 -1       104 9.61500E+01 0.00000E+00 0.00000E+00
 -1       105 9.91500E+01 0.00000E+00 0.00000E+00
 -1       106 1.02150E+02 0.00000E+00 0.00000E+00
 -1       107 1.05150E+02 0.00000E+00 0.00000E+00
 -1       108 1.08150E+02 0.00000E+00 0.00000E+00
 -1       109 1.11150E+02 0.00000E+00 0.00000E+00
 -1       110 1.14150E+02 0.00000E+00 0.00000E+00
 -1       111 1.17150E+02 0.00000E+00 0.00000E+00
 -1       112 1.20150E+02 0.00000E+00 0.00000E+00
 -1       113 1.23150E+02 0.00000E+00 0.00000E+00
 -1       114 1.26150E+02 0.00000E+00 0.00000E+00
 -1       115 1.29150E+02 0.00000E+00 0.00000E+00
 -1       116 1.32150E+02 0.00000E+00 0.00000E+00
 -1       117 1.35150E+02 0.00000E+00 0.00000E+00
 -1       118 1.38150E+02 0.00000E+00 0.00000E+00
 -1       119 1.41150E+02 0.00000E+00 0.00000E+00
 -1       120 1.44150E+02 0.00000E+00 0.00000E+00
 -1       121 1.47150E+02 0.00000E+00 0.00000E+00
 -1       122 1.50000E+02 2.95000E+00 0.00000E+00
 -1       123 1.50000E+02 5.90000E+00 0.00000E+00
 -1       124 1.50000E+02 8.85000E+00 0.00000E+00
 -1       125 1.50000E+02 1.18000E+01 0.00000E+00
 -1       126 1.50000E+02 1.47500E+01 0.00000E+00
 -1       127 1.50000E+02 1.76500E+01 0.00000E+00
 -1       128 1.50000E+02 2.06000E+01 0.00000E+00
 -1       129 1.50000E+02 2.35500E+01 0.00000E+00
 -1       130 1.50000E+02 2.65000E+01 0.00000E+00
 -1       131 1.50000E+02 2.94500E+01 0.00000E+00
 -1       132 1.50000E+02 3.24000E+01 0.00000E+00
 -1       133 1.50000E+02 3.53000E+01 0.00000E+00
 -1       134 1.50000E+02 3.82500E+01 0.00000E+00
 -1       135 1.50000E+02 4.12000E+01 0.00000E+00
 -1       136 1.50000E+02 4.41500E+01 0.00000E+00
 -1       137 1.50000E+02 4.71000E+01 0.00000E+00
 -1       138 3.19886E+01 3.44661E+01 0.00000E+00
 -1       139 3.15582E+01 3.31204E+01 0.00000E+00
 -1       140 3.08325E+01 3.18408E+01 0.00000E+00
 -1       141 2.98291E+01 3.07173E+01 0.00000E+00
 -1       142 2.86663E+01 2.98677E+01 0.00000E+00
 -1       143 2.73762E+01 2.92815E+01 0.00000E+00
 -1       144 2.60166E+01 2.89699E+01 0.00000E+00
 -1       145 2.46226E+01 2.89339E+01 0.00000E+00
 -1       146 2.31726E+01 2.91970E+01 0.00000E+00
 -1       147 2.18998E+01 2.97100E+01 0.00000E+00
 -1       148 2.07482E+01 3.04641E+01 0.00000E+00
 -1       149 1.97352E+01 3.14666E+01 0.00000E+00
 -1       150 1.89135E+01 3.27167E+01 0.00000E+00
 -1       151 1.83326E+01 3.42850E+01 0.00000E+00
 -1       152 1.81458E+01 3.56348E+01 0.00000E+00
 -1       153 1.82309E+01 3.70380E+01 0.00000E+00
 -1       154 1.86487E+01 3.85341E+01 0.00000E+00
 -1       155 1.92906E+01 3.97595E+01 0.00000E+00
 -1       156 2.14430E+01 4.18588E+01 0.00000E+00
 -1       157 2.28941E+01 4.25446E+01 0.00000E+00
 -1       158 2.43369E+01 4.28685E+01 0.00000E+00
 -1       159 2.58874E+01 4.28748E+01 0.00000E+00
 -1       160 2.72828E+01 4.25788E+01 0.00000E+00
 -1       161 2.86023E+01 4.19987E+01 0.00000E+00
 -1       162 2.97776E+01 4.11583E+01 0.00000E+00
 -1       163 3.07530E+01 4.00976E+01 0.00000E+00
 -1       164 3.15341E+01 3.87641E+01 0.00000E+00
 -1       165 3.19874E+01 3.73695E+01 0.00000E+00
 -1       166 2.59800E+00 4.55750E+01 0.00000E+00
 -1       167 2.59800E+00 4.26250E+01 0.00000E+00
 -1       168 2.59800E+00 3.96750E+01 0.00000E+00
 -1       169 2.59800E+00 3.67250E+01 0.00000E+00
 -1       170 2.59800E+00 3.38250E+01 0.00000E+00
 -1       171 2.59800E+00 3.08750E+01 0.00000E+00
 -1       172 2.59800E+00 2.79250E+01 0.00000E+00
 -1       173 2.59800E+00 2.49750E+01 0.00000E+00
 -1       174 2.59800E+00 2.20250E+01 0.00000E+00
 -1       175 2.59800E+00 1.90750E+01 0.00000E+00
 -1       176 2.59800E+00 1.61750E+01 0.00000E+00
 -1       177 2.59800E+00 1.32250E+01 0.00000E+00
 -1       178 2.59800E+00 1.02750E+01 0.00000E+00
 -1       179 2.59800E+00 7.32500E+00 0.00000E+00
 -1       180 2.59800E+00 4.37500E+00 0.00000E+00
 -1       181 2.87400E+00 2.18750E+00 0.00000E+00
 -1       182 4.65000E+00 4.74020E+01 0.00000E+00
 -1       183 7.65000E+00 4.74020E+01 0.00000E+00
 -1       184 1.06500E+01 4.74020E+01 0.00000E+00
 -1       185 1.36500E+01 4.74020E+01 0.00000E+00
 -1       186 1.66500E+01 4.74020E+01 0.00000E+00
 -1       187 1.92000E+01 4.74020E+01 0.00000E+00
 -1       188 2.43750E+01 4.77822E+01 0.00000E+00
 -1       189 2.67750E+01 4.77822E+01 0.00000E+00
 -1       190 2.90250E+01 4.77822E+01 0.00000E+00
 -1       191 3.17250E+01 4.77822E+01 0.00000E+00
 -1       192 3.45750E+01 4.77822E+01 0.00000E+00
 -1       193 3.75750E+01 4.77822E+01 0.00000E+00
 -1       194 4.05750E+01 4.77822E+01 0.00000E+00
 -1       195 4.35750E+01 4.77822E+01 0.00000E+00
 -1       196 4.65750E+01 4.77822E+01 0.00000E+00
 -1       197 4.95750E+01 4.77822E+01 0.00000E+00
 -1       198 5.25750E+01 4.77822E+01 0.00000E+00
 -1       199 5.55750E+01 4.77822E+01 0.00000E+00
 -1       200 5.85750E+01 4.77822E+01 0.00000E+00
 -1       201 6.15750E+01 4.77822E+01 0.00000E+00
 -1       202 6.45750E+01 4.77822E+01 0.00000E+00
 -1       203 6.75750E+01 4.77822E+01 0.00000E+00
 -1       204 7.07250E+01 4.77822E+01 0.00000E+00
 -1       205 7.37250E+01 4.77822E+01 0.00000E+00
 -1       206 7.67250E+01 4.77822E+01 0.00000E+00
 -1       207 7.97250E+01 4.77822E+01 0.00000E+00
 -1       208 8.27250E+01 4.77822E+01 0.00000E+00
 -1       209 8.57250E+01 4.77822E+01 0.00000E+00
 -1       210 8.87250E+01 4.77822E+01 0.00000E+00
 -1       211 9.17250E+01 4.77822E+01 0.00000E+00
 -1       212 9.47250E+01 4.77822E+01 0.00000E+00
 -1       213 9.77250E+01 4.77822E+01 0.00000E+00
 -1       214 1.00725E+02 4.77822E+01 0.00000E+00
 -1       215 1.03725E+02 4.77822E+01 0.00000E+00
 -1       216 1.06725E+02 4.77822E+01 0.00000E+00
 -1       217 1.09725E+02 4.77822E+01 0.00000E+00
 -1       218 1.12725E+02 4.77822E+01 0.00000E+00
 -1       219 1.15725E+02 4.77822E+01 0.00000E+00
 -1       220 1.18725E+02 4.77822E+01 0.00000E+00
 -1       221 1.21725E+02 4.77822E+01 0.00000E+00
 -1       222 1.24725E+02 4.77822E+01 0.00000E+00
 -1       223 1.27725E+02 4.77822E+01 0.00000E+00
 -1       224 1.30725E+02 4.77822E+01 0.00000E+00
 -1       225 1.33725E+02 4.77822E+01 0.00000E+00
 -1       226 1.36725E+02 4.77822E+01 0.00000E+00
 -1       227 1.39725E+02 4.77822E+01 0.00000E+00
 -1       228 1.42725E+02 4.77822E+01 0.00000E+00
 -1       229 1.45725E+02 4.77822E+01 0.00000E+00
 -1       230 1.47863E+02 4.74411E+01 0.00000E+00
 -1       231 5.87400E+00 2.18750E+00 0.00000E+00
 -1       232 8.87400E+00 2.18750E+00 0.00000E+00
 -1       233 1.18740E+01 2.18750E+00 0.00000E+00
 -1       234 1.48740E+01 2.18750E+00 0.00000E+00
 -1       235 1.78740E+01 2.18750E+00 0.00000E+00
 -1       236 2.08740E+01 2.18750E+00 0.00000E+00
 -1       237 2.38740E+01 2.18750E+00 0.00000E+00
 -1       238 2.68740E+01 2.18750E+00 0.00000E+00
 -1       239 2.98740E+01 2.18750E+00 0.00000E+00
 -1       240 3.28740E+01 2.18750E+00 0.00000E+00
 -1       241 3.58740E+01 2.18750E+00 0.00000E+00
 -1       242 3.88740E+01 2.18750E+00 0.00000E+00
 -1       243 4.18740E+01 2.18750E+00 0.00000E+00
 -1       244 4.48740E+01 2.18750E+00 0.00000E+00
 -1       245 4.78740E+01 2.18750E+00 0.00000E+00
 -1       246 5.08740E+01 2.18750E+00 0.00000E+00
 -1       247 5.38740E+01 2.18750E+00 0.00000E+00
 -1       248 5.68740E+01 2.18750E+00 0.00000E+00
 -1       249 5.98740E+01 2.18750E+00 0.00000E+00
 -1       250 6.28740E+01 2.18750E+00 0.00000E+00
 -1       251 6.58740E+01 2.18750E+00 0.00000E+00
 -1       252 6.88740E+01 2.18750E+00 0.00000E+00
 -1       253 7.18740E+01 2.18750E+00 0.00000E+00
 -1       254 7.48740E+01 2.18750E+00 0.00000E+00
 -1       255 7.78740E+01 2.18750E+00 0.00000E+00
 -1       256 8.08740E+01 2.18750E+00 0.00000E+00
 -1       257 8.38740E+01 2.18750E+00 0.00000E+00
 -1       258 8.68740E+01 2.18750E+00 0.00000E+00
 -1       259 8.98740E+01 2.18750E+00 0.00000E+00
 -1       260 9.28740E+01 2.18750E+00 0.00000E+00
 -1       261 9.58740E+01 2.18750E+00 0.00000E+00
 -1       262 9.88740E+01 2.18750E+00 0.00000E+00
 -1       263 1.01874E+02 2.18750E+00 0.00000E+00
 -1       264 1.04874E+02 2.18750E+00 0.00000E+00
 -1       265 1.07874E+02 2.18750E+00 0.00000E+00
 -1       266 1.10874E+02 2.18750E+00 0.00000E+00
 -1       267 1.13874E+02 2.18750E+00 0.00000E+00
 -1       268 1.16874E+02 2.18750E+00 0.00000E+00
 -1       269 1.19874E+02 2.18750E+00 0.00000E+00
 -1       270 1.22874E+02 2.18750E+00 0.00000E+00
 -1       271 1.25874E+02 2.18750E+00 0.00000E+00
 -1       272 1.28874E+02 2.18750E+00 0.00000E+00
 -1       273 1.31874E+02 2.18750E+00 0.00000E+00
 -1       274 1.34874E+02 2.18750E+00 0.00000E+00
 -1       275 1.37874E+02 2.18750E+00 0.00000E+00
 -1       276 1.40874E+02 2.18750E+00 0.00000E+00
 -1       277 1.43874E+02 2.18750E+00 0.00000E+00
 -1       278 1.46874E+02 2.18750E+00 0.00000E+00
 -1       279 1.47402E+02 4.42500E+00 0.00000E+00
 -1       280 1.47402E+02 7.37500E+00 0.00000E+00
 -1       281 1.47402E+02 1.03250E+01 0.00000E+00
 -1       282 1.47402E+02 1.32750E+01 0.00000E+00
 -1       283 1.47402E+02 1.61750E+01 0.00000E+00
 -1       284 1.47402E+02 1.91250E+01 0.00000E+00
 -1       285 1.47402E+02 2.20750E+01 0.00000E+00
 -1       286 1.47402E+02 2.50250E+01 0.00000E+00
 -1       287 1.47402E+02 2.79750E+01 0.00000E+00
 -1       288 1.47402E+02 3.09250E+01 0.00000E+00
 -1       289 1.47402E+02 3.38250E+01 0.00000E+00
 -1       290 1.47402E+02 3.67750E+01 0.00000E+00
 -1       291 1.47402E+02 3.97250E+01 0.00000E+00
 -1       292 1.47402E+02 4.26750E+01 0.00000E+00
 -1       293 1.47632E+02 4.50580E+01 0.00000E+00
 -1       294 3.35202E+01 3.50381E+01 0.00000E+00
 -1       295 3.30080E+01 3.33984E+01 0.00000E+00
 -1       296 3.22500E+01 3.18825E+01 0.00000E+00
 -1       297 3.13601E+01 3.03598E+01 0.00000E+00
 -1       298 2.99629E+01 2.93135E+01 0.00000E+00
 -1       299 2.85228E+01 2.84708E+01 0.00000E+00
 -1       300 2.69673E+01 2.79439E+01 0.00000E+00
 -1       301 2.53530E+01 2.76562E+01 0.00000E+00
 -1       302 2.36513E+01 2.77077E+01 0.00000E+00
 -1       303 2.20830E+01 2.83290E+01 0.00000E+00
 -1       304 2.06598E+01 2.90727E+01 0.00000E+00
 -1       305 1.93888E+01 3.01036E+01 0.00000E+00
 -1       306 1.81712E+01 3.13336E+01 0.00000E+00
 -1       307 1.70147E+01 3.29052E+01 0.00000E+00
 -1       308 1.70382E+01 3.47937E+01 0.00000E+00
 -1       309 1.69782E+01 3.64098E+01 0.00000E+00
 -1       310 1.69493E+01 3.82023E+01 0.00000E+00
 -1       311 1.78956E+01 3.97094E+01 0.00000E+00
 -1       312 1.86968E+01 4.12104E+01 0.00000E+00
 -1       313 2.00897E+01 4.23369E+01 0.00000E+00
 -1       314 2.15788E+01 4.34493E+01 0.00000E+00
 -1       315 2.33316E+01 4.39713E+01 0.00000E+00
 -1       316 2.51066E+01 4.42516E+01 0.00000E+00
 -1       317 2.68367E+01 4.39128E+01 0.00000E+00
 -1       318 2.84305E+01 4.33986E+01 0.00000E+00
 -1       319 2.98951E+01 4.25647E+01 0.00000E+00
 -1       320 3.12194E+01 4.15054E+01 0.00000E+00
 -1       321 3.23343E+01 4.01283E+01 0.00000E+00
 -1       322 3.29137E+01 3.84416E+01 0.00000E+00
 -1       323 3.34362E+01 3.67863E+01 0.00000E+00
 -1       324 2.19750E+01 4.77822E+01 0.00000E+00
 -1       325 5.19600E+00 4.11500E+01 0.00000E+00
 -1       326 5.19600E+00 4.41000E+01 0.00000E+00
 -1       327 5.19600E+00 3.52750E+01 0.00000E+00
 -1       328 5.19600E+00 3.23250E+01 0.00000E+00
 -1       329 5.19600E+00 2.93750E+01 0.00000E+00
 -1       330 5.19600E+00 2.64250E+01 0.00000E+00
 -1       331 5.19600E+00 2.34750E+01 0.00000E+00
 -1       332 5.19600E+00 2.05250E+01 0.00000E+00
 -1       333 5.19600E+00 1.76250E+01 0.00000E+00
 -1       334 5.19600E+00 1.46750E+01 0.00000E+00
 -1       335 5.19600E+00 1.17250E+01 0.00000E+00
 -1       336 5.19600E+00 8.77500E+00 0.00000E+00
 -1       337 5.19600E+00 5.82500E+00 0.00000E+00
 -1       338 5.53500E+00 4.00625E+00 0.00000E+00
 -1       339 8.53500E+00 4.00625E+00 0.00000E+00
 -1       340 2.08430E+01 4.57268E+01 0.00000E+00
 -1       341 9.15000E+00 4.48040E+01 0.00000E+00
 -1       342 1.21500E+01 4.48040E+01 0.00000E+00
 -1       343 1.51500E+01 4.48040E+01 0.00000E+00
 -1       344 1.77000E+01 4.48040E+01 0.00000E+00
 -1       345 3.29241E+01 3.04671E+01 0.00000E+00
 -1       346 2.79000E+01 4.60671E+01 0.00000E+00
 -1       347 3.03750E+01 4.57319E+01 0.00000E+00
 -1       348 3.31500E+01 4.55644E+01 0.00000E+00
 -1       349 3.61500E+01 4.55644E+01 0.00000E+00
 -1       350 3.91500E+01 4.55644E+01 0.00000E+00
 -1       351 4.21500E+01 4.55644E+01 0.00000E+00
 -1       352 4.51500E+01 4.55644E+01 0.00000E+00
 -1       353 4.81500E+01 4.55644E+01 0.00000E+00
 -1       354 5.11500E+01 4.55644E+01 0.00000E+00
 -1       355 5.41500E+01 4.55644E+01 0.00000E+00
 -1       356 5.71500E+01 4.55644E+01 0.00000E+00
 -1       357 6.01500E+01 4.55644E+01 0.00000E+00
 -1       358 6.31500E+01 4.55644E+01 0.00000E+00
 -1       359 6.61500E+01 4.55644E+01 0.00000E+00
 -1       360 6.93000E+01 4.55644E+01 0.00000E+00
 -1       361 7.23000E+01 4.55644E+01 0.00000E+00
 -1       362 7.53000E+01 4.55644E+01 0.00000E+00
 -1       363 7.83000E+01 4.55644E+01 0.00000E+00
 -1       364 8.13000E+01 4.55644E+01 0.00000E+00
 -1       365 8.43000E+01 4.55644E+01 0.00000E+00
 -1       366 8.73000E+01 4.55644E+01 0.00000E+00
 -1       367 9.03000E+01 4.55644E+01 0.00000E+00
 -1       368 9.33000E+01 4.55644E+01 0.00000E+00
 -1       369 9.63000E+01 4.55644E+01 0.00000E+00
 -1       370 9.93000E+01 4.55644E+01 0.00000E+00
 -1       371 1.02300E+02 4.55644E+01 0.00000E+00
 -1       372 1.05300E+02 4.55644E+01 0.00000E+00
 -1       373 1.08300E+02 4.55644E+01 0.00000E+00
 -1       374 1.11300E+02 4.55644E+01 0.00000E+00
 -1       375 1.14300E+02 4.55644E+01 0.00000E+00
 -1       376 1.17300E+02 4.55644E+01 0.00000E+00
 -1       377 1.20300E+02 4.55644E+01 0.00000E+00
 -1       378 1.23300E+02 4.55644E+01 0.00000E+00
 -1       379 1.26300E+02 4.55644E+01 0.00000E+00
 -1       380 1.29300E+02 4.55644E+01 0.00000E+00
 -1       381 1.32300E+02 4.55644E+01 0.00000E+00
 -1       382 1.35300E+02 4.55644E+01 0.00000E+00
 -1       383 1.38300E+02 4.55644E+01 0.00000E+00
 -1       384 1.41300E+02 4.55644E+01 0.00000E+00
 -1       385 1.44300E+02 4.55644E+01 0.00000E+00
 -1       386 1.33740E+01 4.78550E+00 0.00000E+00
 -1       387 1.63740E+01 4.78550E+00 0.00000E+00
 -1       388 1.93740E+01 4.78550E+00 0.00000E+00
 -1       389 2.23740E+01 4.78550E+00 0.00000E+00
 -1       390 2.53740E+01 4.78550E+00 0.00000E+00
 -1       391 2.83740E+01 4.78550E+00 0.00000E+00
 -1       392 3.13740E+01 4.78550E+00 0.00000E+00
 -1       393 3.43740E+01 4.78550E+00 0.00000E+00
 -1       394 3.73740E+01 4.78550E+00 0.00000E+00
 -1       395 4.03740E+01 4.78550E+00 0.00000E+00
 -1       396 4.33740E+01 4.78550E+00 0.00000E+00
 -1       397 4.63740E+01 4.78550E+00 0.00000E+00
 -1       398 4.93740E+01 4.78550E+00 0.00000E+00
 -1       399 5.23740E+01 4.78550E+00 0.00000E+00
 -1       400 5.53740E+01 4.78550E+00 0.00000E+00
 -1       401 5.83740E+01 4.78550E+00 0.00000E+00
 -1       402 6.13740E+01 4.78550E+00 0.00000E+00
 -1       403 6.43740E+01 4.78550E+00 0.00000E+00
 -1       404 6.73740E+01 4.78550E+00 0.00000E+00
 -1       405 7.03740E+01 4.78550E+00 0.00000E+00
 -1       406 7.33740E+01 4.78550E+00 0.00000E+00
 -1       407 7.63740E+01 4.78550E+00 0.00000E+00
 -1       408 7.93740E+01 4.78550E+00 0.00000E+00
 -1       409 8.23740E+01 4.78550E+00 0.00000E+00
 -1       410 8.53740E+01 4.78550E+00 0.00000E+00
 -1       411 8.83740E+01 4.78550E+00 0.00000E+00
 -1       412 9.13740E+01 4.78550E+00 0.00000E+00
 -1       413 9.43740E+01 4.78550E+00 0.00000E+00
 -1       414 9.73740E+01 4.78550E+00 0.00000E+00
 -1       415 1.00374E+02 4.78550E+00 0.00000E+00
 -1       416 1.03374E+02 4.78550E+00 0.00000E+00
 -1       417 1.06374E+02 4.78550E+00 0.00000E+00
 -1       418 1.09374E+02 4.78550E+00 0.00000E+00
 -1       419 1.12374E+02 4.78550E+00 0.00000E+00
 -1       420 1.15374E+02 4.78550E+00 0.00000E+00
 -1       421 1.18374E+02 4.78550E+00 0.00000E+00
 -1       422 1.21374E+02 4.78550E+00 0.00000E+00
 -1       423 1.24374E+02 4.78550E+00 0.00000E+00
 -1       424 1.27374E+02 4.78550E+00 0.00000E+00
 -1       425 1.30374E+02 4.78550E+00 0.00000E+00
 -1       426 1.33374E+02 4.78550E+00 0.00000E+00
 -1       427 1.36374E+02 4.78550E+00 0.00000E+00
 -1       428 1.39374E+02 4.78550E+00 0.00000E+00
 -1       429 1.42374E+02 4.78550E+00 0.00000E+00
 -1       430 1.44888E+02 4.60525E+00 0.00000E+00
 -1       431 1.44804E+02 1.18000E+01 0.00000E+00
 -1       432 1.44804E+02 8.85000E+00 0.00000E+00
 -1       433 1.44804E+02 1.47000E+01 0.00000E+00
 -1       434 1.44804E+02 1.76500E+01 0.00000E+00
 -1       435 1.44804E+02 2.06000E+01 0.00000E+00
 -1       436 1.44804E+02 2.35500E+01 0.00000E+00
 -1       437 1.44804E+02 2.65000E+01 0.00000E+00
 -1       438 1.44804E+02 2.94500E+01 0.00000E+00
 -1       439 1.44804E+02 3.23500E+01 0.00000E+00
 -1       440 1.44804E+02 3.53000E+01 0.00000E+00
 -1       441 1.44804E+02 3.82500E+01 0.00000E+00
 -1       442 1.44804E+02 4.12000E+01 0.00000E+00
 -1       443 1.09545E+01 4.39587E+00 0.00000E+00
 -1       444 3.40131E+01 3.19483E+01 0.00000E+00
 -1       445 3.15891E+01 2.85980E+01 0.00000E+00
 -1       446 3.50240E+01 3.59865E+01 0.00000E+00
 -1       447 2.31750E+01 4.61509E+01 0.00000E+00
 -1       448 5.19600E+00 3.82125E+01 0.00000E+00
 -1       449 2.55375E+01 4.61090E+01 0.00000E+00
 -1       450 3.01490E+01 2.77553E+01 0.00000E+00
 -1       451 2.82416E+01 2.67417E+01 0.00000E+00
 -1       452 2.64171E+01 2.63590E+01 0.00000E+00
 -1       453 2.44553E+01 2.61351E+01 0.00000E+00
 -1       454 2.22663E+01 2.65017E+01 0.00000E+00
 -1       455 2.08431E+01 2.72454E+01 0.00000E+00
 -1       456 1.91550E+01 2.85164E+01 0.00000E+00
 -1       457 1.79374E+01 2.97465E+01 0.00000E+00
 -1       458 1.64140E+01 3.12518E+01 0.00000E+00
 -1       459 1.57304E+01 3.38656E+01 0.00000E+00
 -1       460 1.56703E+01 3.54817E+01 0.00000E+00
 -1       461 1.55839E+01 3.72838E+01 0.00000E+00
 -1       462 1.61119E+01 3.97788E+01 0.00000E+00
 -1       463 1.69131E+01 4.12799E+01 0.00000E+00
 -1       464 1.83674E+01 4.30421E+01 0.00000E+00
 -1       465 1.98566E+01 4.41546E+01 0.00000E+00
 -1       466 2.20852E+01 4.49526E+01 0.00000E+00
 -1       467 2.98456E+01 4.41809E+01 0.00000E+00
 -1       468 3.14193E+01 4.31127E+01 0.00000E+00
 -1       469 3.28494E+01 4.16852E+01 0.00000E+00
 -1       470 3.40084E+01 3.97605E+01 0.00000E+00
 -1       471 3.45308E+01 3.81052E+01 0.00000E+00
 -1       472 3.45253E+01 3.35880E+01 0.00000E+00
 -1       473 1.44552E+02 4.33822E+01 0.00000E+00
 -1       474 1.51297E+01 3.22122E+01 0.00000E+00
 -1       475 1.47465E+01 3.88603E+01 0.00000E+00
 -1       476 7.58140E+00 3.08500E+01 0.00000E+00
 -1       477 7.58140E+00 3.38000E+01 0.00000E+00
 -1       478 7.79400E+00 2.49500E+01 0.00000E+00
 -1       479 7.79400E+00 2.20000E+01 0.00000E+00
 -1       480 7.79400E+00 1.91000E+01 0.00000E+00
 -1       481 7.79400E+00 1.61500E+01 0.00000E+00
 -1       482 7.79400E+00 1.32000E+01 0.00000E+00
 -1       483 7.79400E+00 1.02500E+01 0.00000E+00
 -1       484 7.79400E+00 7.30000E+00 0.00000E+00
 -1       485 8.16450E+00 5.65312E+00 0.00000E+00
 -1       486 3.36523E+01 2.85357E+01 0.00000E+00
 -1       487 1.06500E+01 4.22060E+01 0.00000E+00
 -1       488 1.36500E+01 4.22060E+01 0.00000E+00
 -1       489 7.92300E+00 4.16780E+01 0.00000E+00
 -1       490 3.76500E+01 4.30114E+01 0.00000E+00
 -1       491 4.06500E+01 4.30114E+01 0.00000E+00
 -1       492 4.36500E+01 4.30114E+01 0.00000E+00
 -1       493 4.66500E+01 4.30114E+01 0.00000E+00
 -1       494 4.96500E+01 4.30114E+01 0.00000E+00
 -1       495 5.26500E+01 4.30114E+01 0.00000E+00
 -1       496 5.56500E+01 4.30114E+01 0.00000E+00
 -1       497 5.86500E+01 4.30114E+01 0.00000E+00
 -1       498 6.16500E+01 4.30114E+01 0.00000E+00
 -1       499 6.46500E+01 4.30114E+01 0.00000E+00
 -1       500 6.78000E+01 4.30114E+01 0.00000E+00
 -1       501 7.08000E+01 4.30114E+01 0.00000E+00
 -1       502 7.38000E+01 4.30114E+01 0.00000E+00
 -1       503 7.68000E+01 4.30114E+01 0.00000E+00
 -1       504 7.98000E+01 4.30114E+01 0.00000E+00
 -1       505 8.28000E+01 4.30114E+01 0.00000E+00
 -1       506 8.58000E+01 4.30114E+01 0.00000E+00
 -1       507 8.88000E+01 4.30114E+01 0.00000E+00
 -1       508 9.18000E+01 4.30114E+01 0.00000E+00
 -1       509 9.48000E+01 4.30114E+01 0.00000E+00
 -1       510 9.78000E+01 4.30114E+01 0.00000E+00
 -1       511 1.00800E+02 4.30114E+01 0.00000E+00
 -1       512 1.03800E+02 4.30114E+01 0.00000E+00
 -1       513 1.06800E+02 4.30114E+01 0.00000E+00
 -1       514 1.09800E+02 4.30114E+01 0.00000E+00
 -1       515 1.12800E+02 4.30114E+01 0.00000E+00
 -1       516 1.15800E+02 4.30114E+01 0.00000E+00
 -1       517 1.18800E+02 4.30114E+01 0.00000E+00
 -1       518 1.21800E+02 4.30114E+01 0.00000E+00
 -1       519 1.24800E+02 4.30114E+01 0.00000E+00
 -1       520 1.27800E+02 4.30114E+01 0.00000E+00
 -1       521 1.30800E+02 4.30114E+01 0.00000E+00
 -1       522 1.33800E+02 4.30114E+01 0.00000E+00
 -1       523 1.36800E+02 4.30114E+01 0.00000E+00
 -1       524 1.39800E+02 4.30114E+01 0.00000E+00
 -1       525 1.42176E+02 4.31968E+01 0.00000E+00
 -1       526 2.08740E+01 7.38350E+00 0.00000E+00
 -1       527 1.78740E+01 7.38350E+00 0.00000E+00
 -1       528 1.48740E+01 7.38350E+00 0.00000E+00
 -1       529 2.38740E+01 7.38350E+00 0.00000E+00
 -1       530 2.68740E+01 7.38350E+00 0.00000E+00
 -1       531 2.98740E+01 7.38350E+00 0.00000E+00
 -1       532 3.28740E+01 7.38350E+00 0.00000E+00
 -1       533 3.58740E+01 7.38350E+00 0.00000E+00
 -1       534 3.88740E+01 7.38350E+00 0.00000E+00
 -1       535 4.18740E+01 7.38350E+00 0.00000E+00
 -1       536 4.48740E+01 7.38350E+00 0.00000E+00
 -1       537 4.78740E+01 7.38350E+00 0.00000E+00
 -1       538 5.08740E+01 7.38350E+00 0.00000E+00
 -1       539 5.38740E+01 7.38350E+00 0.00000E+00
 -1       540 5.68740E+01 7.38350E+00 0.00000E+00
 -1       541 5.98740E+01 7.38350E+00 0.00000E+00
 -1       542 6.28740E+01 7.38350E+00 0.00000E+00
 -1       543 6.58740E+01 7.38350E+00 0.00000E+00
 -1       544 6.88740E+01 7.38350E+00 0.00000E+00
 -1       545 7.18740E+01 7.38350E+00 0.00000E+00
 -1       546 7.48740E+01 7.38350E+00 0.00000E+00
 -1       547 7.78740E+01 7.38350E+00 0.00000E+00
 -1       548 8.08740E+01 7.38350E+00 0.00000E+00
 -1       549 8.38740E+01 7.38350E+00 0.00000E+00
 -1       550 8.68740E+01 7.38350E+00 0.00000E+00
 -1       551 8.98740E+01 7.38350E+00 0.00000E+00
 -1       552 9.28740E+01 7.38350E+00 0.00000E+00
 -1       553 9.58740E+01 7.38350E+00 0.00000E+00
 -1       554 9.88740E+01 7.38350E+00 0.00000E+00
 -1       555 1.01874E+02 7.38350E+00 0.00000E+00
 -1       556 1.04874E+02 7.38350E+00 0.00000E+00
 -1       557 1.07874E+02 7.38350E+00 0.00000E+00
 -1       558 1.10874E+02 7.38350E+00 0.00000E+00
 -1       559 1.13874E+02 7.38350E+00 0.00000E+00
 -1       560 1.16874E+02 7.38350E+00 0.00000E+00
 -1       561 1.19874E+02 7.38350E+00 0.00000E+00
 -1       562 1.22874E+02 7.38350E+00 0.00000E+00
 -1       563 1.25874E+02 7.38350E+00 0.00000E+00
 -1       564 1.28874E+02 7.38350E+00 0.00000E+00
 -1       565 1.31874E+02 7.38350E+00 0.00000E+00
 -1       566 1.34874E+02 7.38350E+00 0.00000E+00
 -1       567 1.37874E+02 7.38350E+00 0.00000E+00
 -1       568 1.40874E+02 7.38350E+00 0.00000E+00
 -1       569 1.42206E+02 1.61750E+01 0.00000E+00
 -1       570 1.42206E+02 1.32750E+01 0.00000E+00
 -1       571 1.42206E+02 1.03250E+01 0.00000E+00
 -1       572 3.66179E+01 3.44041E+01 0.00000E+00
 -1       573 1.42206E+02 1.91250E+01 0.00000E+00
 -1       574 1.42206E+02 2.20750E+01 0.00000E+00
 -1       575 1.42206E+02 2.50250E+01 0.00000E+00
 -1       576 1.42206E+02 2.79750E+01 0.00000E+00
 -1       577 1.42206E+02 3.08750E+01 0.00000E+00
 -1       578 1.42206E+02 3.38250E+01 0.00000E+00
 -1       579 1.42206E+02 3.67750E+01 0.00000E+00
 -1       580 1.42206E+02 3.97250E+01 0.00000E+00
 -1       581 3.00001E+01 2.57339E+01 0.00000E+00
 -1       582 3.14402E+01 2.65766E+01 0.00000E+00
 -1       583 3.47546E+01 4.15212E+01 0.00000E+00
 -1       584 1.39140E+01 3.63007E+01 0.00000E+00
 -1       585 1.60879E+01 2.93984E+01 0.00000E+00
 -1       586 2.30221E+01 2.42963E+01 0.00000E+00
 -1       587 3.47413E+01 3.00169E+01 0.00000E+00
 -1       588 3.64479E+01 3.74347E+01 0.00000E+00
 -1       589 7.79400E+00 2.79000E+01 0.00000E+00
 -1       590 2.76814E+01 2.48717E+01 0.00000E+00
 -1       591 2.57196E+01 2.46478E+01 0.00000E+00
 -1       592 2.07991E+01 2.54278E+01 0.00000E+00
 -1       593 1.91110E+01 2.66988E+01 0.00000E+00
 -1       594 1.73056E+01 2.81683E+01 0.00000E+00
 -1       595 1.39740E+01 3.46846E+01 0.00000E+00
 -1       596 1.63175E+01 4.32527E+01 0.00000E+00
 -1       597 3.33460E+01 4.36128E+01 0.00000E+00
 -1       598 3.59254E+01 3.90900E+01 0.00000E+00
 -1       599 3.58264E+01 3.22818E+01 0.00000E+00
 -1       600 7.58140E+00 3.67375E+01 0.00000E+00
 -1       601 3.35034E+01 2.65144E+01 0.00000E+00
 -1       602 1.05840E+01 6.04275E+00 0.00000E+00
 -1       603 3.80418E+01 3.58522E+01 0.00000E+00
 -1       604 1.27290E+01 6.71313E+00 0.00000E+00
 -1       605 1.48809E+01 4.09924E+01 0.00000E+00
 -1       606 1.30766E+01 3.78771E+01 0.00000E+00
 -1       607 1.48036E+01 3.03588E+01 0.00000E+00
 -1       608 1.33734E+01 3.30312E+01 0.00000E+00
 -1       609 1.03920E+01 2.05500E+01 0.00000E+00
 -1       610 1.03920E+01 2.35000E+01 0.00000E+00
 -1       611 1.03920E+01 1.46750E+01 0.00000E+00
 -1       612 1.03920E+01 1.17250E+01 0.00000E+00
 -1       613 1.02135E+01 7.68962E+00 0.00000E+00
 -1       614 1.26983E+01 4.05332E+01 0.00000E+00
 -1       615 3.91500E+01 4.07936E+01 0.00000E+00
 -1       616 9.73994E+00 3.96001E+01 0.00000E+00
 -1       617 1.39206E+02 1.03250E+01 0.00000E+00
 -1       618 1.39608E+02 1.47250E+01 0.00000E+00
 -1       619 4.21500E+01 4.07936E+01 0.00000E+00
 -1       620 4.51500E+01 4.07936E+01 0.00000E+00
 -1       621 4.81500E+01 4.07936E+01 0.00000E+00
 -1       622 5.11500E+01 4.07936E+01 0.00000E+00
 -1       623 5.41500E+01 4.07936E+01 0.00000E+00
 -1       624 5.71500E+01 4.07936E+01 0.00000E+00
 -1       625 6.01500E+01 4.07936E+01 0.00000E+00
 -1       626 6.31500E+01 4.07936E+01 0.00000E+00
 -1       627 6.63000E+01 4.07936E+01 0.00000E+00
 -1       628 6.93000E+01 4.07936E+01 0.00000E+00
 -1       629 7.23000E+01 4.07936E+01 0.00000E+00
 -1       630 7.53000E+01 4.07936E+01 0.00000E+00
 -1       631 7.83000E+01 4.07936E+01 0.00000E+00
 -1       632 8.13000E+01 4.07936E+01 0.00000E+00
 -1       633 8.43000E+01 4.07936E+01 0.00000E+00
 -1       634 8.73000E+01 4.07936E+01 0.00000E+00
 -1       635 9.03000E+01 4.07936E+01 0.00000E+00
 -1       636 9.33000E+01 4.07936E+01 0.00000E+00
 -1       637 9.63000E+01 4.07936E+01 0.00000E+00
 -1       638 9.93000E+01 4.07936E+01 0.00000E+00
 -1       639 1.02300E+02 4.07936E+01 0.00000E+00
 -1       640 1.05300E+02 4.07936E+01 0.00000E+00
 -1       641 1.08300E+02 4.07936E+01 0.00000E+00
 -1       642 1.11300E+02 4.07936E+01 0.00000E+00
 -1       643 1.14300E+02 4.07936E+01 0.00000E+00
 -1       644 1.17300E+02 4.07936E+01 0.00000E+00
 -1       645 1.20300E+02 4.07936E+01 0.00000E+00
 -1       646 1.23300E+02 4.07936E+01 0.00000E+00
 -1       647 1.26300E+02 4.07936E+01 0.00000E+00
 -1       648 1.29300E+02 4.07936E+01 0.00000E+00
 -1       649 1.32300E+02 4.07936E+01 0.00000E+00
 -1       650 1.35300E+02 4.07936E+01 0.00000E+00
 -1       651 1.38300E+02 4.07936E+01 0.00000E+00
 -1       652 1.93740E+01 9.98150E+00 0.00000E+00
 -1       653 2.23740E+01 9.98150E+00 0.00000E+00
 -1       654 1.63740E+01 9.98150E+00 0.00000E+00
 -1       655 2.83740E+01 9.98150E+00 0.00000E+00
 -1       656 3.13740E+01 9.98150E+00 0.00000E+00
 -1       657 3.43740E+01 9.98150E+00 0.00000E+00
 -1       658 3.73740E+01 9.98150E+00 0.00000E+00
 -1       659 4.03740E+01 9.98150E+00 0.00000E+00
 -1       660 4.33740E+01 9.98150E+00 0.00000E+00
 -1       661 4.63740E+01 9.98150E+00 0.00000E+00
 -1       662 4.93740E+01 9.98150E+00 0.00000E+00
 -1       663 5.23740E+01 9.98150E+00 0.00000E+00
 -1       664 5.53740E+01 9.98150E+00 0.00000E+00
 -1       665 5.83740E+01 9.98150E+00 0.00000E+00
 -1       666 6.13740E+01 9.98150E+00 0.00000E+00
 -1       667 6.43740E+01 9.98150E+00 0.00000E+00
 -1       668 6.73740E+01 9.98150E+00 0.00000E+00
 -1       669 7.03740E+01 9.98150E+00 0.00000E+00
 -1       670 7.33740E+01 9.98150E+00 0.00000E+00
 -1       671 7.63740E+01 9.98150E+00 0.00000E+00
 -1       672 7.93740E+01 9.98150E+00 0.00000E+00
 -1       673 8.23740E+01 9.98150E+00 0.00000E+00
 -1       674 8.53740E+01 9.98150E+00 0.00000E+00
 -1       675 8.83740E+01 9.98150E+00 0.00000E+00
 -1       676 9.13740E+01 9.98150E+00 0.00000E+00
 -1       677 9.43740E+01 9.98150E+00 0.00000E+00
 -1       678 9.73740E+01 9.98150E+00 0.00000E+00
 -1       679 1.00374E+02 9.98150E+00 0.00000E+00
 -1       680 1.03374E+02 9.98150E+00 0.00000E+00
 -1       681 1.06374E+02 9.98150E+00 0.00000E+00
 -1       682 1.09374E+02 9.98150E+00 0.00000E+00
 -1       683 1.12374E+02 9.98150E+00 0.00000E+00
 -1       684 1.15374E+02 9.98150E+00 0.00000E+00
 -1       685 1.18374E+02 9.98150E+00 0.00000E+00
 -1       686 1.21374E+02 9.98150E+00 0.00000E+00
 -1       687 1.24374E+02 9.98150E+00 0.00000E+00
 -1       688 1.27374E+02 9.98150E+00 0.00000E+00
 -1       689 1.30374E+02 9.98150E+00 0.00000E+00
 -1       690 1.33374E+02 9.98150E+00 0.00000E+00
 -1       691 1.36290E+02 1.01532E+01 0.00000E+00
 -1       692 1.39608E+02 2.06000E+01 0.00000E+00
 -1       693 1.39608E+02 1.76625E+01 0.00000E+00
 -1       694 2.53740E+01 9.98150E+00 0.00000E+00
 -1       695 1.39608E+02 2.65000E+01 0.00000E+00
 -1       696 1.39608E+02 2.94000E+01 0.00000E+00
 -1       697 1.39608E+02 3.23500E+01 0.00000E+00
 -1       698 1.39608E+02 3.53000E+01 0.00000E+00
 -1       699 1.39608E+02 3.82500E+01 0.00000E+00
 -1       700 3.68853E+01 4.10497E+01 0.00000E+00
 -1       701 1.03920E+01 2.64500E+01 0.00000E+00
 -1       702 3.15864E+01 2.46750E+01 0.00000E+00
 -1       703 1.39608E+02 2.35500E+01 0.00000E+00
 -1       704 3.78291E+01 3.27436E+01 0.00000E+00
 -1       705 1.01794E+01 2.94000E+01 0.00000E+00
 -1       706 1.69140E+01 2.58435E+01 0.00000E+00
 -1       707 3.68306E+01 3.04083E+01 0.00000E+00
 -1       708 1.03920E+01 1.76125E+01 0.00000E+00
 -1       709 1.01794E+01 3.23500E+01 0.00000E+00
 -1       710 2.46358E+01 2.24390E+01 0.00000E+00
 -1       711 2.65976E+01 2.26629E+01 0.00000E+00
 -1       712 1.86021E+01 2.45725E+01 0.00000E+00
 -1       713 1.56964E+01 2.70735E+01 0.00000E+00
 -1       714 1.22301E+01 3.54289E+01 0.00000E+00
 -1       715 2.11327E+01 2.33335E+01 0.00000E+00
 -1       716 2.94969E+01 2.35382E+01 0.00000E+00
 -1       717 3.55786E+01 2.82603E+01 0.00000E+00
 -1       718 3.78222E+01 3.87786E+01 0.00000E+00
 -1       719 1.30265E+01 9.52803E+00 0.00000E+00
 -1       720 3.92530E+01 3.41917E+01 0.00000E+00
 -1       721 1.30473E+01 3.11778E+01 0.00000E+00
 -1       722 1.16294E+01 3.37756E+01 0.00000E+00
 -1       723 1.44121E+01 2.80339E+01 0.00000E+00
 -1       724 2.27463E+01 2.14762E+01 0.00000E+00
 -1       725 9.63165E+00 3.52687E+01 0.00000E+00
 -1       726 1.29900E+01 1.32000E+01 0.00000E+00
 -1       727 1.37010E+02 2.20750E+01 0.00000E+00
 -1       728 1.88921E+01 2.19611E+01 0.00000E+00
 -1       729 4.36500E+01 3.84082E+01 0.00000E+00
 -1       730 4.66500E+01 3.84082E+01 0.00000E+00
 -1       731 4.96500E+01 3.84082E+01 0.00000E+00
 -1       732 5.26500E+01 3.84082E+01 0.00000E+00
 -1       733 5.56500E+01 3.84082E+01 0.00000E+00
 -1       734 5.86500E+01 3.84082E+01 0.00000E+00
 -1       735 6.16500E+01 3.84082E+01 0.00000E+00
 -1       736 6.48000E+01 3.84082E+01 0.00000E+00
 -1       737 6.78000E+01 3.84082E+01 0.00000E+00
 -1       738 7.08000E+01 3.84082E+01 0.00000E+00
 -1       739 7.38000E+01 3.84082E+01 0.00000E+00
 -1       740 7.68000E+01 3.84082E+01 0.00000E+00
 -1       741 7.98000E+01 3.84082E+01 0.00000E+00
 -1       742 8.28000E+01 3.84082E+01 0.00000E+00
 -1       743 8.58000E+01 3.84082E+01 0.00000E+00
 -1       744 8.88000E+01 3.84082E+01 0.00000E+00
 -1       745 9.18000E+01 3.84082E+01 0.00000E+00
 -1       746 9.48000E+01 3.84082E+01 0.00000E+00
 -1       747 9.78000E+01 3.84082E+01 0.00000E+00
 -1       748 1.00800E+02 3.84082E+01 0.00000E+00
 -1       749 1.03800E+02 3.84082E+01 0.00000E+00
 -1       750 1.06800E+02 3.84082E+01 0.00000E+00
 -1       751 1.09800E+02 3.84082E+01 0.00000E+00
 -1       752 1.12800E+02 3.84082E+01 0.00000E+00
 -1       753 1.15800E+02 3.84082E+01 0.00000E+00
 -1       754 1.18800E+02 3.84082E+01 0.00000E+00
 -1       755 1.21800E+02 3.84082E+01 0.00000E+00
 -1       756 1.24800E+02 3.84082E+01 0.00000E+00
 -1       757 1.27800E+02 3.84082E+01 0.00000E+00
 -1       758 1.30800E+02 3.84082E+01 0.00000E+00
 -1       759 1.33800E+02 3.84082E+01 0.00000E+00
 -1       760 1.36704E+02 3.83291E+01 0.00000E+00
 -1       761 1.37010E+02 3.08750E+01 0.00000E+00
 -1       762 2.08740E+01 1.25795E+01 0.00000E+00
 -1       763 1.78740E+01 1.25795E+01 0.00000E+00
 -1       764 3.28740E+01 1.25795E+01 0.00000E+00
 -1       765 2.98740E+01 1.25795E+01 0.00000E+00
 -1       766 3.88740E+01 1.25795E+01 0.00000E+00
 -1       767 4.18740E+01 1.25795E+01 0.00000E+00
 -1       768 4.48740E+01 1.25795E+01 0.00000E+00
 -1       769 4.78740E+01 1.25795E+01 0.00000E+00
 -1       770 5.08740E+01 1.25795E+01 0.00000E+00
 -1       771 5.38740E+01 1.25795E+01 0.00000E+00
 -1       772 5.68740E+01 1.25795E+01 0.00000E+00
 -1       773 5.98740E+01 1.25795E+01 0.00000E+00
 -1       774 6.28740E+01 1.25795E+01 0.00000E+00
 -1       775 6.58740E+01 1.25795E+01 0.00000E+00
 -1       776 6.88740E+01 1.25795E+01 0.00000E+00
 -1       777 7.18740E+01 1.25795E+01 0.00000E+00
 -1       778 7.48740E+01 1.25795E+01 0.00000E+00
 -1       779 7.78740E+01 1.25795E+01 0.00000E+00
 -1       780 8.08740E+01 1.25795E+01 0.00000E+00
 -1       781 8.38740E+01 1.25795E+01 0.00000E+00
 -1       782 8.68740E+01 1.25795E+01 0.00000E+00
 -1       783 8.98740E+01 1.25795E+01 0.00000E+00
 -1       784 9.28740E+01 1.25795E+01 0.00000E+00
 -1       785 9.58740E+01 1.25795E+01 0.00000E+00
 -1       786 9.88740E+01 1.25795E+01 0.00000E+00
 -1       787 1.01874E+02 1.25795E+01 0.00000E+00
 -1       788 1.04874E+02 1.25795E+01 0.00000E+00
 -1       789 1.07874E+02 1.25795E+01 0.00000E+00
 -1       790 1.10874E+02 1.25795E+01 0.00000E+00
 -1       791 1.13874E+02 1.25795E+01 0.00000E+00
 -1       792 1.16874E+02 1.25795E+01 0.00000E+00
 -1       793 1.19874E+02 1.25795E+01 0.00000E+00
 -1       794 1.22874E+02 1.25795E+01 0.00000E+00
 -1       795 1.25874E+02 1.25795E+01 0.00000E+00
 -1       796 1.28874E+02 1.25795E+01 0.00000E+00
 -1       797 1.31874E+02 1.25795E+01 0.00000E+00
 -1       798 1.37010E+02 2.50250E+01 0.00000E+00
 -1       799 4.06500E+01 3.85757E+01 0.00000E+00
 -1       800 1.29900E+01 2.49750E+01 0.00000E+00
 -1       801 1.37010E+02 3.38250E+01 0.00000E+00
 -1       802 1.37010E+02 2.79500E+01 0.00000E+00
 -1       803 1.36857E+02 3.60770E+01 0.00000E+00
 -1       804 1.47291E+01 2.48982E+01 0.00000E+00
 -1       805 1.36692E+02 1.45533E+01 0.00000E+00
 -1       806 3.16015E+01 2.21584E+01 0.00000E+00
 -1       807 2.86398E+01 2.11378E+01 0.00000E+00
 -1       808 2.58682E+01 2.03474E+01 0.00000E+00
 -1       809 3.90609E+01 3.08358E+01 0.00000E+00
 -1       810 1.64171E+01 2.36272E+01 0.00000E+00
 -1       811 1.43515E+01 1.23293E+01 0.00000E+00
 -1       812 3.58740E+01 1.25795E+01 0.00000E+00
 -1       813 3.57531E+01 2.59467E+01 0.00000E+00
 -1       814 3.38361E+01 2.41073E+01 0.00000E+00
 -1       815 1.29900E+01 2.20250E+01 0.00000E+00
 -1       816 3.99765E+01 3.74688E+01 0.00000E+00
 -1       817 3.79759E+01 2.83019E+01 0.00000E+00
 -1       818 4.04848E+01 3.22839E+01 0.00000E+00
 -1       819 2.05058E+01 2.01038E+01 0.00000E+00
 -1       820 2.38740E+01 1.25795E+01 0.00000E+00
 -1       821 4.11877E+01 3.58083E+01 0.00000E+00
 -1       822 2.68740E+01 1.25795E+01 0.00000E+00
 -1       823 1.29900E+01 1.61375E+01 0.00000E+00
 -1       824 1.34283E+02 1.35664E+01 0.00000E+00
 -1       825 1.37010E+02 1.91375E+01 0.00000E+00
 -1       826 2.39787E+01 1.93847E+01 0.00000E+00
 -1       827 1.29900E+01 1.90812E+01 0.00000E+00
 -1       828 4.81500E+01 3.58102E+01 0.00000E+00
 -1       829 5.11500E+01 3.58102E+01 0.00000E+00
 -1       830 5.41500E+01 3.58102E+01 0.00000E+00
 -1       831 5.71500E+01 3.58102E+01 0.00000E+00
 -1       832 6.01500E+01 3.58102E+01 0.00000E+00
 -1       833 6.33000E+01 3.58102E+01 0.00000E+00
 -1       834 6.63000E+01 3.58102E+01 0.00000E+00
 -1       835 6.93000E+01 3.58102E+01 0.00000E+00
 -1       836 7.23000E+01 3.58102E+01 0.00000E+00
 -1       837 7.53000E+01 3.58102E+01 0.00000E+00
 -1       838 7.83000E+01 3.58102E+01 0.00000E+00
 -1       839 8.13000E+01 3.58102E+01 0.00000E+00
 -1       840 8.43000E+01 3.58102E+01 0.00000E+00
 -1       841 8.73000E+01 3.58102E+01 0.00000E+00
 -1       842 9.03000E+01 3.58102E+01 0.00000E+00
 -1       843 9.33000E+01 3.58102E+01 0.00000E+00
 -1       844 9.63000E+01 3.58102E+01 0.00000E+00
 -1       845 9.93000E+01 3.58102E+01 0.00000E+00
 -1       846 1.02300E+02 3.58102E+01 0.00000E+00
 -1       847 1.05300E+02 3.58102E+01 0.00000E+00
 -1       848 1.08300E+02 3.58102E+01 0.00000E+00
 -1       849 1.11300E+02 3.58102E+01 0.00000E+00
 -1       850 1.14300E+02 3.58102E+01 0.00000E+00
 -1       851 1.17300E+02 3.58102E+01 0.00000E+00
 -1       852 1.20300E+02 3.58102E+01 0.00000E+00
 -1       853 1.23300E+02 3.58102E+01 0.00000E+00
 -1       854 1.26300E+02 3.58102E+01 0.00000E+00
 -1       855 1.29300E+02 3.58102E+01 0.00000E+00
 -1       856 1.32300E+02 3.58102E+01 0.00000E+00
 -1       857 1.34579E+02 3.59436E+01 0.00000E+00
 -1       858 3.84774E+01 2.56020E+01 0.00000E+00
 -1       859 4.33740E+01 1.51775E+01 0.00000E+00
 -1       860 4.03740E+01 1.51775E+01 0.00000E+00
 -1       861 4.93740E+01 1.51775E+01 0.00000E+00
 -1       862 5.23740E+01 1.51775E+01 0.00000E+00
 -1       863 5.53740E+01 1.51775E+01 0.00000E+00
 -1       864 5.83740E+01 1.51775E+01 0.00000E+00
 -1       865 6.13740E+01 1.51775E+01 0.00000E+00
 -1       866 6.43740E+01 1.51775E+01 0.00000E+00
 -1       867 6.73740E+01 1.51775E+01 0.00000E+00
 -1       868 7.03740E+01 1.51775E+01 0.00000E+00
 -1       869 7.33740E+01 1.51775E+01 0.00000E+00
 -1       870 7.63740E+01 1.51775E+01 0.00000E+00
 -1       871 7.93740E+01 1.51775E+01 0.00000E+00
 -1       872 8.23740E+01 1.51775E+01 0.00000E+00
 -1       873 8.53740E+01 1.51775E+01 0.00000E+00
 -1       874 8.83740E+01 1.51775E+01 0.00000E+00
 -1       875 9.13740E+01 1.51775E+01 0.00000E+00
 -1       876 9.43740E+01 1.51775E+01 0.00000E+00
 -1       877 9.73740E+01 1.51775E+01 0.00000E+00
 -1       878 1.00374E+02 1.51775E+01 0.00000E+00
 -1       879 1.03374E+02 1.51775E+01 0.00000E+00
 -1       880 1.06374E+02 1.51775E+01 0.00000E+00
 -1       881 1.09374E+02 1.51775E+01 0.00000E+00
 -1       882 1.12374E+02 1.51775E+01 0.00000E+00
 -1       883 1.15374E+02 1.51775E+01 0.00000E+00
 -1       884 1.18374E+02 1.51775E+01 0.00000E+00
 -1       885 1.21374E+02 1.51775E+01 0.00000E+00
 -1       886 1.24374E+02 1.51775E+01 0.00000E+00
 -1       887 1.27374E+02 1.51775E+01 0.00000E+00
 -1       888 1.30374E+02 1.51775E+01 0.00000E+00
 -1       889 1.34412E+02 2.35500E+01 0.00000E+00
 -1       890 3.08978E+01 1.93929E+01 0.00000E+00
 -1       891 1.34412E+02 3.23500E+01 0.00000E+00
 -1       892 4.63740E+01 1.51775E+01 0.00000E+00
 -1       893 3.13740E+01 1.51775E+01 0.00000E+00
 -1       894 1.93740E+01 1.51775E+01 0.00000E+00
 -1       895 4.51500E+01 3.58102E+01 0.00000E+00
 -1       896 2.78622E+01 1.86098E+01 0.00000E+00
 -1       897 3.62140E+01 2.35476E+01 0.00000E+00
 -1       898 3.41766E+01 2.14615E+01 0.00000E+00
 -1       899 4.05572E+01 2.86958E+01 0.00000E+00
 -1       900 4.18612E+01 3.69152E+01 0.00000E+00
 -1       901 1.59411E+01 2.05212E+01 0.00000E+00
 -1       902 4.19811E+01 3.01440E+01 0.00000E+00
 -1       903 1.75547E+01 1.86639E+01 0.00000E+00
 -1       904 4.24195E+01 3.39005E+01 0.00000E+00
 -1       905 2.83740E+01 1.51775E+01 0.00000E+00
 -1       906 1.34601E+02 1.81506E+01 0.00000E+00
 -1       907 3.73740E+01 1.51775E+01 0.00000E+00
 -1       908 1.34412E+02 2.64750E+01 0.00000E+00
 -1       909 1.34412E+02 2.94250E+01 0.00000E+00
 -1       910 1.34507E+02 2.08503E+01 0.00000E+00
 -1       911 2.59727E+01 1.76470E+01 0.00000E+00
 -1       912 2.23740E+01 1.51775E+01 0.00000E+00
 -1       913 1.59286E+01 1.50458E+01 0.00000E+00
 -1       914 3.43740E+01 1.51775E+01 0.00000E+00
 -1       915 1.44593E+01 1.55917E+01 0.00000E+00
 -1       916 5.26500E+01 3.32122E+01 0.00000E+00
 -1       917 5.56500E+01 3.32122E+01 0.00000E+00
 -1       918 5.86500E+01 3.32122E+01 0.00000E+00
 -1       919 6.18000E+01 3.32122E+01 0.00000E+00
 -1       920 6.48000E+01 3.32122E+01 0.00000E+00
 -1       921 6.78000E+01 3.32122E+01 0.00000E+00
 -1       922 7.08000E+01 3.32122E+01 0.00000E+00
 -1       923 7.38000E+01 3.32122E+01 0.00000E+00
 -1       924 7.68000E+01 3.32122E+01 0.00000E+00
 -1       925 7.98000E+01 3.32122E+01 0.00000E+00
 -1       926 8.28000E+01 3.32122E+01 0.00000E+00
 -1       927 8.58000E+01 3.32122E+01 0.00000E+00
 -1       928 8.88000E+01 3.32122E+01 0.00000E+00
 -1       929 9.18000E+01 3.32122E+01 0.00000E+00
 -1       930 9.48000E+01 3.32122E+01 0.00000E+00
 -1       931 9.78000E+01 3.32122E+01 0.00000E+00
 -1       932 1.00800E+02 3.32122E+01 0.00000E+00
 -1       933 1.03800E+02 3.32122E+01 0.00000E+00
 -1       934 1.06800E+02 3.32122E+01 0.00000E+00
 -1       935 1.09800E+02 3.32122E+01 0.00000E+00
 -1       936 1.12800E+02 3.32122E+01 0.00000E+00
 -1       937 1.15800E+02 3.32122E+01 0.00000E+00
 -1       938 1.18800E+02 3.32122E+01 0.00000E+00
 -1       939 1.21800E+02 3.32122E+01 0.00000E+00
 -1       940 1.24800E+02 3.32122E+01 0.00000E+00
 -1       941 1.27800E+02 3.32122E+01 0.00000E+00
 -1       942 1.30800E+02 3.32122E+01 0.00000E+00
 -1       943 4.18740E+01 1.77755E+01 0.00000E+00
 -1       944 5.38740E+01 1.77755E+01 0.00000E+00
 -1       945 5.08740E+01 1.77755E+01 0.00000E+00
 -1       946 5.98740E+01 1.77755E+01 0.00000E+00
 -1       947 6.28740E+01 1.77755E+01 0.00000E+00
 -1       948 6.58740E+01 1.77755E+01 0.00000E+00
 -1       949 6.88740E+01 1.77755E+01 0.00000E+00
 -1       950 7.18740E+01 1.77755E+01 0.00000E+00
 -1       951 7.48740E+01 1.77755E+01 0.00000E+00
 -1       952 7.78740E+01 1.77755E+01 0.00000E+00
 -1       953 8.08740E+01 1.77755E+01 0.00000E+00
 -1       954 8.38740E+01 1.77755E+01 0.00000E+00
 -1       955 8.68740E+01 1.77755E+01 0.00000E+00
 -1       956 8.98740E+01 1.77755E+01 0.00000E+00
 -1       957 9.28740E+01 1.77755E+01 0.00000E+00
 -1       958 9.58740E+01 1.77755E+01 0.00000E+00
 -1       959 9.88740E+01 1.77755E+01 0.00000E+00
 -1       960 1.01874E+02 1.77755E+01 0.00000E+00
 -1       961 1.04874E+02 1.77755E+01 0.00000E+00
 -1       962 1.07874E+02 1.77755E+01 0.00000E+00
 -1       963 1.10874E+02 1.77755E+01 0.00000E+00
 -1       964 1.13874E+02 1.77755E+01 0.00000E+00
 -1       965 1.16874E+02 1.77755E+01 0.00000E+00
 -1       966 1.19874E+02 1.77755E+01 0.00000E+00
 -1       967 1.22874E+02 1.77755E+01 0.00000E+00
 -1       968 1.25874E+02 1.77755E+01 0.00000E+00
 -1       969 1.28874E+02 1.77755E+01 0.00000E+00
 -1       970 2.17926E+01 1.75725E+01 0.00000E+00
 -1       971 4.66500E+01 3.32122E+01 0.00000E+00
 -1       972 5.68740E+01 1.77755E+01 0.00000E+00
 -1       973 2.53740E+01 1.51775E+01 0.00000E+00
 -1       974 1.52002E+01 1.80564E+01 0.00000E+00
 -1       975 3.88363E+01 2.29326E+01 0.00000E+00
 -1       976 4.30930E+01 3.50074E+01 0.00000E+00
 -1       977 3.38100E+01 1.84097E+01 0.00000E+00
 -1       978 4.14969E+01 2.58181E+01 0.00000E+00
 -1       979 4.96500E+01 3.32122E+01 0.00000E+00
 -1       980 3.67988E+01 2.08464E+01 0.00000E+00
 -1       981 4.29208E+01 2.72662E+01 0.00000E+00
 -1       982 4.39158E+01 3.17606E+01 0.00000E+00
 -1       983 4.48740E+01 1.77755E+01 0.00000E+00
 -1       984 3.88740E+01 1.77755E+01 0.00000E+00
 -1       985 4.78740E+01 1.77755E+01 0.00000E+00
 -1       986 1.31690E+02 1.93129E+01 0.00000E+00
 -1       987 1.30800E+02 3.02872E+01 0.00000E+00
 -1       988 1.31596E+02 2.20126E+01 0.00000E+00
 -1       989 1.31596E+02 2.49376E+01 0.00000E+00
 -1       990 4.48555E+01 2.88828E+01 0.00000E+00
 -1       991 5.23740E+01 2.03735E+01 0.00000E+00
 -1       992 5.71500E+01 3.06142E+01 0.00000E+00
 -1       993 6.03000E+01 3.06142E+01 0.00000E+00
 -1       994 6.33000E+01 3.06142E+01 0.00000E+00
 -1       995 6.63000E+01 3.06142E+01 0.00000E+00
 -1       996 6.93000E+01 3.06142E+01 0.00000E+00
 -1       997 7.23000E+01 3.06142E+01 0.00000E+00
 -1       998 7.53000E+01 3.06142E+01 0.00000E+00
 -1       999 7.83000E+01 3.06142E+01 0.00000E+00
 -1      1000 8.13000E+01 3.06142E+01 0.00000E+00
 -1      1001 8.43000E+01 3.06142E+01 0.00000E+00
 -1      1002 8.73000E+01 3.06142E+01 0.00000E+00
 -1      1003 9.03000E+01 3.06142E+01 0.00000E+00
 -1      1004 9.33000E+01 3.06142E+01 0.00000E+00
 -1      1005 9.63000E+01 3.06142E+01 0.00000E+00
 -1      1006 9.93000E+01 3.06142E+01 0.00000E+00
 -1      1007 1.02300E+02 3.06142E+01 0.00000E+00
 -1      1008 1.05300E+02 3.06142E+01 0.00000E+00
 -1      1009 1.08300E+02 3.06142E+01 0.00000E+00
 -1      1010 1.11300E+02 3.06142E+01 0.00000E+00
 -1      1011 1.14300E+02 3.06142E+01 0.00000E+00
 -1      1012 1.17300E+02 3.06142E+01 0.00000E+00
 -1      1013 1.20300E+02 3.06142E+01 0.00000E+00
 -1      1014 1.23300E+02 3.06142E+01 0.00000E+00
 -1      1015 1.26300E+02 3.06142E+01 0.00000E+00
 -1      1016 1.28550E+02 3.04507E+01 0.00000E+00
 -1      1017 3.96762E+01 2.00743E+01 0.00000E+00
 -1      1018 6.43740E+01 2.03735E+01 0.00000E+00
 -1      1019 6.13740E+01 2.03735E+01 0.00000E+00
 -1      1020 7.03740E+01 2.03735E+01 0.00000E+00
 -1      1021 7.33740E+01 2.03735E+01 0.00000E+00
 -1      1022 7.63740E+01 2.03735E+01 0.00000E+00
 -1      1023 7.93740E+01 2.03735E+01 0.00000E+00
 -1      1024 8.23740E+01 2.03735E+01 0.00000E+00
 -1      1025 8.53740E+01 2.03735E+01 0.00000E+00
 -1      1026 8.83740E+01 2.03735E+01 0.00000E+00
 -1      1027 9.13740E+01 2.03735E+01 0.00000E+00
 -1      1028 9.43740E+01 2.03735E+01 0.00000E+00
 -1      1029 9.73740E+01 2.03735E+01 0.00000E+00
 -1      1030 1.00374E+02 2.03735E+01 0.00000E+00
 -1      1031 1.03374E+02 2.03735E+01 0.00000E+00
 -1      1032 1.06374E+02 2.03735E+01 0.00000E+00
 -1      1033 1.09374E+02 2.03735E+01 0.00000E+00
 -1      1034 1.12374E+02 2.03735E+01 0.00000E+00
 -1      1035 1.15374E+02 2.03735E+01 0.00000E+00
 -1      1036 1.18374E+02 2.03735E+01 0.00000E+00
 -1      1037 1.21374E+02 2.03735E+01 0.00000E+00
 -1      1038 1.24374E+02 2.03735E+01 0.00000E+00
 -1      1039 1.27374E+02 2.03735E+01 0.00000E+00
 -1      1040 4.20766E+01 2.26142E+01 0.00000E+00
 -1      1041 5.53740E+01 2.03735E+01 0.00000E+00
 -1      1042 4.75897E+01 3.03344E+01 0.00000E+00
 -1      1043 1.31198E+02 2.76124E+01 0.00000E+00
 -1      1044 6.73740E+01 2.03735E+01 0.00000E+00
 -1      1045 5.41500E+01 3.06142E+01 0.00000E+00
 -1      1046 5.83740E+01 2.03735E+01 0.00000E+00
 -1      1047 4.93740E+01 2.03735E+01 0.00000E+00
 -1      1048 4.43433E+01 2.46787E+01 0.00000E+00
 -1      1049 1.28998E+02 2.34751E+01 0.00000E+00
 -1      1050 5.11500E+01 3.06142E+01 0.00000E+00
 -1      1051 4.34753E+01 2.01948E+01 0.00000E+00
 -1      1052 6.18000E+01 2.80162E+01 0.00000E+00
 -1      1053 6.48000E+01 2.80162E+01 0.00000E+00
 -1      1054 6.78000E+01 2.80162E+01 0.00000E+00
 -1      1055 7.08000E+01 2.80162E+01 0.00000E+00
 -1      1056 7.38000E+01 2.80162E+01 0.00000E+00
 -1      1057 7.68000E+01 2.80162E+01 0.00000E+00
 -1      1058 7.98000E+01 2.80162E+01 0.00000E+00
 -1      1059 8.28000E+01 2.80162E+01 0.00000E+00
 -1      1060 8.58000E+01 2.80162E+01 0.00000E+00
 -1      1061 8.88000E+01 2.80162E+01 0.00000E+00
 -1      1062 9.18000E+01 2.80162E+01 0.00000E+00
 -1      1063 9.48000E+01 2.80162E+01 0.00000E+00
 -1      1064 9.78000E+01 2.80162E+01 0.00000E+00
 -1      1065 1.00800E+02 2.80162E+01 0.00000E+00
 -1      1066 1.03800E+02 2.80162E+01 0.00000E+00
 -1      1067 1.06800E+02 2.80162E+01 0.00000E+00
 -1      1068 1.09800E+02 2.80162E+01 0.00000E+00
 -1      1069 1.12800E+02 2.80162E+01 0.00000E+00
 -1      1070 1.15800E+02 2.80162E+01 0.00000E+00
 -1      1071 1.18800E+02 2.80162E+01 0.00000E+00
 -1      1072 1.21800E+02 2.80162E+01 0.00000E+00
 -1      1073 1.24800E+02 2.80162E+01 0.00000E+00
 -1      1074 5.56500E+01 2.80162E+01 0.00000E+00
 -1      1075 4.63740E+01 2.03735E+01 0.00000E+00
 -1      1076 7.48740E+01 2.29715E+01 0.00000E+00
 -1      1077 7.18740E+01 2.29715E+01 0.00000E+00
 -1      1078 8.08740E+01 2.29715E+01 0.00000E+00
 -1      1079 8.38740E+01 2.29715E+01 0.00000E+00
 -1      1080 8.68740E+01 2.29715E+01 0.00000E+00
 -1      1081 8.98740E+01 2.29715E+01 0.00000E+00
 -1      1082 9.28740E+01 2.29715E+01 0.00000E+00
 -1      1083 9.58740E+01 2.29715E+01 0.00000E+00
 -1      1084 9.88740E+01 2.29715E+01 0.00000E+00
 -1      1085 1.01874E+02 2.29715E+01 0.00000E+00
 -1      1086 1.04874E+02 2.29715E+01 0.00000E+00
 -1      1087 1.07874E+02 2.29715E+01 0.00000E+00
 -1      1088 1.10874E+02 2.29715E+01 0.00000E+00
 -1      1089 1.13874E+02 2.29715E+01 0.00000E+00
 -1      1090 1.16874E+02 2.29715E+01 0.00000E+00
 -1      1091 1.19874E+02 2.29715E+01 0.00000E+00
 -1      1092 1.22874E+02 2.29715E+01 0.00000E+00
 -1      1093 1.25936E+02 2.32233E+01 0.00000E+00
 -1      1094 6.58740E+01 2.29715E+01 0.00000E+00
 -1      1095 5.38740E+01 2.29715E+01 0.00000E+00
 -1      1096 4.74409E+01 2.73140E+01 0.00000E+00
 -1      1097 5.68740E+01 2.29715E+01 0.00000E+00
 -1      1098 7.78740E+01 2.29715E+01 0.00000E+00
 -1      1099 6.28740E+01 2.29715E+01 0.00000E+00
 -1      1100 5.87250E+01 2.80162E+01 0.00000E+00
 -1      1101 1.28600E+02 2.61499E+01 0.00000E+00
 -1      1102 6.88740E+01 2.29715E+01 0.00000E+00
 -1      1103 5.98740E+01 2.29715E+01 0.00000E+00
 -1      1104 4.58921E+01 2.59963E+01 0.00000E+00
 -1      1105 5.08740E+01 2.29715E+01 0.00000E+00
 -1      1106 4.76330E+01 2.31849E+01 0.00000E+00
 -1      1107 1.27050E+02 2.78527E+01 0.00000E+00
 -1      1108 5.26500E+01 2.80162E+01 0.00000E+00
 -1      1109 1.29487E+02 2.77778E+01 0.00000E+00
 -1      1110 6.63000E+01 2.54182E+01 0.00000E+00
 -1      1111 5.53740E+01 2.55695E+01 0.00000E+00
 -1      1112 4.91574E+01 2.51427E+01 0.00000E+00
 -1      1113 5.17620E+01 2.54938E+01 0.00000E+00
 -1      1114 0.00000E+00 4.85250E+01 0.00000E+00
 -1      1115 0.00000E+00 4.55750E+01 0.00000E+00
 -1      1116 0.00000E+00 4.26250E+01 0.00000E+00
 -1      1117 0.00000E+00 3.96750E+01 0.00000E+00
 -1      1118 0.00000E+00 3.67250E+01 0.00000E+00
 -1      1119 0.00000E+00 3.38000E+01 0.00000E+00
 -1      1120 0.00000E+00 3.08750E+01 0.00000E+00
 -1      1121 0.00000E+00 2.79250E+01 0.00000E+00
 -1      1122 0.00000E+00 2.49750E+01 0.00000E+00
 -1      1123 0.00000E+00 2.20250E+01 0.00000E+00
 -1      1124 0.00000E+00 1.90750E+01 0.00000E+00
 -1      1125 0.00000E+00 1.61500E+01 0.00000E+00
 -1      1126 0.00000E+00 1.32250E+01 0.00000E+00
 -1      1127 0.00000E+00 1.02750E+01 0.00000E+00
 -1      1128 0.00000E+00 7.32500E+00 0.00000E+00
 -1      1129 0.00000E+00 4.37500E+00 0.00000E+00
 -1      1130 0.00000E+00 1.45000E+00 0.00000E+00
 -1      1131 1.57500E+00 5.00000E+01 0.00000E+00
 -1      1132 4.65000E+00 5.00000E+01 0.00000E+00
 -1      1133 7.65000E+00 5.00000E+01 0.00000E+00
 -1      1134 1.06500E+01 5.00000E+01 0.00000E+00
 -1      1135 1.36500E+01 5.00000E+01 0.00000E+00
 -1      1136 1.66500E+01 5.00000E+01 0.00000E+00
 -1      1137 1.94250E+01 5.00000E+01 0.00000E+00
 -1      1138 2.19000E+01 5.00000E+01 0.00000E+00
 -1      1139 2.43750E+01 5.00000E+01 0.00000E+00
 -1      1140 2.68500E+01 5.00000E+01 0.00000E+00
 -1      1141 2.91750E+01 5.00000E+01 0.00000E+00
 -1      1142 3.16500E+01 5.00000E+01 0.00000E+00
 -1      1143 3.44250E+01 5.00000E+01 0.00000E+00
 -1      1144 3.73500E+01 5.00000E+01 0.00000E+00
 -1      1145 4.03500E+01 5.00000E+01 0.00000E+00
 -1      1146 4.33500E+01 5.00000E+01 0.00000E+00
 -1      1147 4.63500E+01 5.00000E+01 0.00000E+00
 -1      1148 4.93500E+01 5.00000E+01 0.00000E+00
 -1      1149 5.23500E+01 5.00000E+01 0.00000E+00
 -1      1150 5.53500E+01 5.00000E+01 0.00000E+00
 -1      1151 5.83500E+01 5.00000E+01 0.00000E+00
 -1      1152 6.13500E+01 5.00000E+01 0.00000E+00
 -1      1153 6.43500E+01 5.00000E+01 0.00000E+00
 -1      1154 6.73500E+01 5.00000E+01 0.00000E+00
 -1      1155 7.04250E+01 5.00000E+01 0.00000E+00
 -1      1156 7.35000E+01 5.00000E+01 0.00000E+00
 -1      1157 7.65000E+01 5.00000E+01 0.00000E+00
 -1      1158 7.95000E+01 5.00000E+01 0.00000E+00
 -1      1159 8.25000E+01 5.00000E+01 0.00000E+00
 -1      1160 8.55000E+01 5.00000E+01 0.00000E+00
 -1      1161 8.85000E+01 5.00000E+01 0.00000E+00
 -1      1162 9.15000E+01 5.00000E+01 0.00000E+00
 -1      1163 9.45000E+01 5.00000E+01 0.00000E+00
 -1      1164 9.75000E+01 5.00000E+01 0.00000E+00
 -1      1165 1.00500E+02 5.00000E+01 0.00000E+00
 -1      1166 1.03500E+02 5.00000E+01 0.00000E+00
 -1      1167 1.06500E+02 5.00000E+01 0.00000E+00
 -1      1168 1.09500E+02 5.00000E+01 0.00000E+00
 -1      1169 1.12500E+02 5.00000E+01 0.00000E+00
 -1      1170 1.15500E+02 5.00000E+01 0.00000E+00
 -1      1171 1.18500E+02 5.00000E+01 0.00000E+00
 -1      1172 1.21500E+02 5.00000E+01 0.00000E+00
 -1      1173 1.24500E+02 5.00000E+01 0.00000E+00
 -1      1174 1.27500E+02 5.00000E+01 0.00000E+00
 -1      1175 1.30500E+02 5.00000E+01 0.00000E+00
 -1      1176 1.33500E+02 5.00000E+01 0.00000E+00
 -1      1177 1.36500E+02 5.00000E+01 0.00000E+00
 -1      1178 1.39500E+02 5.00000E+01 0.00000E+00
 -1      1179 1.42500E+02 5.00000E+01 0.00000E+00
 -1      1180 1.45500E+02 5.00000E+01 0.00000E+00
 -1      1181 1.48500E+02 5.00000E+01 0.00000E+00
 -1      1182 1.57500E+00 0.00000E+00 0.00000E+00
 -1      1183 4.65000E+00 0.00000E+00 0.00000E+00
 -1      1184 7.65000E+00 0.00000E+00 0.00000E+00
 -1      1185 1.06500E+01 0.00000E+00 0.00000E+00
 -1      1186 1.36500E+01 0.00000E+00 0.00000E+00
 -1      1187 1.66500E+01 0.00000E+00 0.00000E+00
 -1      1188 1.96500E+01 0.00000E+00 0.00000E+00
 -1      1189 2.26500E+01 0.00000E+00 0.00000E+00
 -1      1190 2.56500E+01 0.00000E+00 0.00000E+00
 -1      1191 2.86500E+01 0.00000E+00 0.00000E+00
 -1      1192 3.16500E+01 0.00000E+00 0.00000E+00
 -1      1193 3.46500E+01 0.00000E+00 0.00000E+00
 -1      1194 3.76500E+01 0.00000E+00 0.00000E+00
 -1      1195 4.06500E+01 0.00000E+00 0.00000E+00
 -1      1196 4.36500E+01 0.00000E+00 0.00000E+00
 -1      1197 4.66500E+01 0.00000E+00 0.00000E+00
 -1      1198 4.96500E+01 0.00000E+00 0.00000E+00
 -1      1199 5.26500E+01 0.00000E+00 0.00000E+00
 -1      1200 5.56500E+01 0.00000E+00 0.00000E+00
 -1      1201 5.86500E+01 0.00000E+00 0.00000E+00
 -1      1202 6.16500E+01 0.00000E+00 0.00000E+00
 -1      1203 6.46500E+01 0.00000E+00 0.00000E+00
 -1      1204 6.76500E+01 0.00000E+00 0.00000E+00
 -1      1205 7.06500E+01 0.00000E+00 0.00000E+00
 -1      1206 7.36500E+01 0.00000E+00 0.00000E+00
 -1      1207 7.66500E+01 0.00000E+00 0.00000E+00
 -1      1208 7.96500E+01 0.00000E+00 0.00000E+00
 -1      1209 8.26500E+01 0.00000E+00 0.00000E+00
 -1      1210 8.56500E+01 0.00000E+00 0.00000E+00
 -1      1211 8.86500E+01 0.00000E+00 0.00000E+00
 -1      1212 9.16500E+01 0.00000E+00 0.00000E+00
 -1      1213 9.46500E+01 0.00000E+00 0.00000E+00
 -1      1214 9.76500E+01 0.00000E+00 0.00000E+00
 -1      1215 1.00650E+02 0.00000E+00 0.00000E+00
 -1      1216 1.03650E+02 0.00000E+00 0.00000E+00
 -1      1217 1.06650E+02 0.00000E+00 0.00000E+00
 -1      1218 1.09650E+02 0.00000E+00 0.00000E+00
 -1      1219 1.12650E+02 0.00000E+00 0.00000E+00
 -1      1220 1.15650E+02 0.00000E+00 0.00000E+00
 -1      1221 1.18650E+02 0.00000E+00 0.00000E+00
 -1      1222 1.21650E+02 0.00000E+00 0.00000E+00
 -1      1223 1.24650E+02 0.00000E+00 0.00000E+00
 -1      1224 1.27650E+02 0.00000E+00 0.00000E+00
 -1      1225 1.30650E+02 0.00000E+00 0.00000E+00
 -1      1226 1.33650E+02 0.00000E+00 0.00000E+00
 -1      1227 1.36650E+02 0.00000E+00 0.00000E+00
 -1      1228 1.39650E+02 0.00000E+00 0.00000E+00
 -1      1229 1.42650E+02 0.00000E+00 0.00000E+00
 -1      1230 1.45650E+02 0.00000E+00 0.00000E+00
 -1      1231 1.48575E+02 0.00000E+00 0.00000E+00
 -1      1232 1.50000E+02 1.47500E+00 0.00000E+00
 -1      1233 1.50000E+02 4.42500E+00 0.00000E+00
 -1      1234 1.50000E+02 7.37500E+00 0.00000E+00
 -1      1235 1.50000E+02 1.03250E+01 0.00000E+00
 -1      1236 1.50000E+02 1.32750E+01 0.00000E+00
 -1      1237 1.50000E+02 1.62000E+01 0.00000E+00
 -1      1238 1.50000E+02 1.91250E+01 0.00000E+00
 -1      1239 1.50000E+02 2.20750E+01 0.00000E+00
 -1      1240 1.50000E+02 2.50250E+01 0.00000E+00
 -1      1241 1.50000E+02 2.79750E+01 0.00000E+00
 -1      1242 1.50000E+02 3.09250E+01 0.00000E+00
 -1      1243 1.50000E+02 3.38500E+01 0.00000E+00
 -1      1244 1.50000E+02 3.67750E+01 0.00000E+00
 -1      1245 1.50000E+02 3.97250E+01 0.00000E+00
 -1      1246 1.50000E+02 4.26750E+01 0.00000E+00
 -1      1247 1.50000E+02 4.56250E+01 0.00000E+00
 -1      1248 1.50000E+02 4.85500E+01 0.00000E+00
 -1      1249 3.21022E+01 3.51865E+01 0.00000E+00
 -1      1250 3.18075E+01 3.37823E+01 0.00000E+00
 -1      1251 3.12291E+01 3.24615E+01 0.00000E+00
 -1      1252 3.03611E+01 3.12520E+01 0.00000E+00
 -1      1253 2.92696E+01 3.02625E+01 0.00000E+00
 -1      1254 2.80361E+01 2.95419E+01 0.00000E+00
 -1      1255 2.67042E+01 2.90917E+01 0.00000E+00
 -1      1256 2.53205E+01 2.89171E+01 0.00000E+00
 -1      1257 2.38906E+01 2.90272E+01 0.00000E+00
 -1      1258 2.25236E+01 2.94222E+01 0.00000E+00
 -1      1259 2.13054E+01 3.00586E+01 0.00000E+00
 -1      1260 2.02161E+01 3.09395E+01 0.00000E+00
 -1      1261 1.92908E+01 3.20697E+01 0.00000E+00
 -1      1262 1.85760E+01 3.34835E+01 0.00000E+00
 -1      1263 1.82063E+01 3.49553E+01 0.00000E+00
 -1      1264 1.81530E+01 3.63385E+01 0.00000E+00
 -1      1265 1.83982E+01 3.77977E+01 0.00000E+00
 -1      1266 1.89393E+01 3.91627E+01 0.00000E+00
 -1      1267 1.97323E+01 4.03594E+01 0.00000E+00
 -1      1268 2.08130E+01 4.14171E+01 0.00000E+00
 -1      1269 2.21488E+01 4.22434E+01 0.00000E+00
 -1      1270 2.36069E+01 4.27448E+01 0.00000E+00
 -1      1271 2.51120E+01 4.29147E+01 0.00000E+00
 -1      1272 2.65927E+01 4.27624E+01 0.00000E+00
 -1      1273 2.79575E+01 4.23228E+01 0.00000E+00
 -1      1274 2.92117E+01 4.16089E+01 0.00000E+00
 -1      1275 3.02927E+01 4.06531E+01 0.00000E+00
 -1      1276 3.11804E+01 3.94525E+01 0.00000E+00
 -1      1277 3.17973E+01 3.80787E+01 0.00000E+00
 -1      1278 3.21019E+01 3.66461E+01 0.00000E+00
 -1      1279 1.57500E+00 4.85250E+01 0.00000E+00
 -1      1280 1.29900E+00 4.48375E+01 0.00000E+00
 -1      1281 1.29900E+00 4.63125E+01 0.00000E+00
 -1      1282 1.29900E+00 4.18875E+01 0.00000E+00
 -1      1283 1.29900E+00 4.33625E+01 0.00000E+00
 -1      1284 2.59800E+00 4.41000E+01 0.00000E+00
 -1      1285 1.29900E+00 3.89375E+01 0.00000E+00
 -1      1286 1.29900E+00 4.04125E+01 0.00000E+00
 -1      1287 2.59800E+00 4.11500E+01 0.00000E+00
 -1      1288 1.29900E+00 3.59875E+01 0.00000E+00
 -1      1289 1.29900E+00 3.74625E+01 0.00000E+00
 -1      1290 2.59800E+00 3.82000E+01 0.00000E+00
 -1      1291 1.29900E+00 3.30875E+01 0.00000E+00
 -1      1292 1.29900E+00 3.45375E+01 0.00000E+00
 -1      1293 2.59800E+00 3.52750E+01 0.00000E+00
 -1      1294 1.29900E+00 3.01375E+01 0.00000E+00
 -1      1295 1.29900E+00 3.16125E+01 0.00000E+00
 -1      1296 2.59800E+00 3.23500E+01 0.00000E+00
 -1      1297 1.29900E+00 2.71875E+01 0.00000E+00
 -1      1298 1.29900E+00 2.86625E+01 0.00000E+00
 -1      1299 2.59800E+00 2.94000E+01 0.00000E+00
 -1      1300 1.29900E+00 2.42375E+01 0.00000E+00
 -1      1301 1.29900E+00 2.57125E+01 0.00000E+00
 -1      1302 2.59800E+00 2.64500E+01 0.00000E+00
 -1      1303 1.29900E+00 2.12875E+01 0.00000E+00
 -1      1304 1.29900E+00 2.27625E+01 0.00000E+00
 -1      1305 2.59800E+00 2.35000E+01 0.00000E+00
 -1      1306 1.29900E+00 1.83375E+01 0.00000E+00
 -1      1307 1.29900E+00 1.98125E+01 0.00000E+00
 -1      1308 2.59800E+00 2.05500E+01 0.00000E+00
 -1      1309 1.29900E+00 1.54375E+01 0.00000E+00
 -1      1310 1.29900E+00 1.68875E+01 0.00000E+00
 -1      1311 2.59800E+00 1.76250E+01 0.00000E+00
 -1      1312 1.29900E+00 1.24875E+01 0.00000E+00
 -1      1313 1.29900E+00 1.39625E+01 0.00000E+00
 -1      1314 2.59800E+00 1.47000E+01 0.00000E+00
 -1      1315 1.29900E+00 9.53750E+00 0.00000E+00
 -1      1316 1.29900E+00 1.10125E+01 0.00000E+00
 -1      1317 2.59800E+00 1.17500E+01 0.00000E+00
 -1      1318 1.29900E+00 6.58750E+00 0.00000E+00
 -1      1319 1.29900E+00 8.06250E+00 0.00000E+00
 -1      1320 2.59800E+00 8.80000E+00 0.00000E+00
 -1      1321 1.29900E+00 3.63750E+00 0.00000E+00
 -1      1322 1.29900E+00 5.11250E+00 0.00000E+00
 -1      1323 2.59800E+00 5.85000E+00 0.00000E+00
 -1      1324 1.43700E+00 1.09375E+00 0.00000E+00
 -1      1325 1.43700E+00 2.54375E+00 0.00000E+00
 -1      1326 2.73600E+00 3.28125E+00 0.00000E+00
 -1      1327 3.01200E+00 1.09375E+00 0.00000E+00
 -1      1328 3.90000E+00 4.87010E+01 0.00000E+00
 -1      1329 5.40000E+00 4.87010E+01 0.00000E+00
 -1      1330 6.90000E+00 4.87010E+01 0.00000E+00
 -1      1331 8.40000E+00 4.87010E+01 0.00000E+00
 -1      1332 6.15000E+00 4.74020E+01 0.00000E+00
 -1      1333 9.90000E+00 4.87010E+01 0.00000E+00
 -1      1334 1.14000E+01 4.87010E+01 0.00000E+00
 -1      1335 9.15000E+00 4.74020E+01 0.00000E+00
 -1      1336 1.29000E+01 4.87010E+01 0.00000E+00
 -1      1337 1.44000E+01 4.87010E+01 0.00000E+00
 -1      1338 1.21500E+01 4.74020E+01 0.00000E+00
 -1      1339 1.59000E+01 4.87010E+01 0.00000E+00
 -1      1340 1.74000E+01 4.87010E+01 0.00000E+00
 -1      1341 1.51500E+01 4.74020E+01 0.00000E+00
 -1      1342 1.86750E+01 4.87010E+01 0.00000E+00
 -1      1343 1.99500E+01 4.87010E+01 0.00000E+00
 -1      1344 1.79250E+01 4.74020E+01 0.00000E+00
 -1      1345 2.37375E+01 4.88911E+01 0.00000E+00
 -1      1346 2.50125E+01 4.88911E+01 0.00000E+00
 -1      1347 2.62125E+01 4.88911E+01 0.00000E+00
 -1      1348 2.74125E+01 4.88911E+01 0.00000E+00
 -1      1349 2.55750E+01 4.77822E+01 0.00000E+00
 -1      1350 2.85375E+01 4.88911E+01 0.00000E+00
 -1      1351 2.96625E+01 4.88911E+01 0.00000E+00
 -1      1352 2.79000E+01 4.77822E+01 0.00000E+00
 -1      1353 3.10125E+01 4.88911E+01 0.00000E+00
 -1      1354 3.23625E+01 4.88911E+01 0.00000E+00
 -1      1355 3.03750E+01 4.77822E+01 0.00000E+00
 -1      1356 3.37875E+01 4.88911E+01 0.00000E+00
 -1      1357 3.52125E+01 4.88911E+01 0.00000E+00
 -1      1358 3.31500E+01 4.77822E+01 0.00000E+00
 -1      1359 3.67125E+01 4.88911E+01 0.00000E+00
 -1      1360 3.82125E+01 4.88911E+01 0.00000E+00
 -1      1361 3.60750E+01 4.77822E+01 0.00000E+00
 -1      1362 3.97125E+01 4.88911E+01 0.00000E+00
 -1      1363 4.12125E+01 4.88911E+01 0.00000E+00
 -1      1364 3.90750E+01 4.77822E+01 0.00000E+00
 -1      1365 4.27125E+01 4.88911E+01 0.00000E+00
 -1      1366 4.42125E+01 4.88911E+01 0.00000E+00
 -1      1367 4.20750E+01 4.77822E+01 0.00000E+00
 -1      1368 4.57125E+01 4.88911E+01 0.00000E+00
 -1      1369 4.72125E+01 4.88911E+01 0.00000E+00
 -1      1370 4.50750E+01 4.77822E+01 0.00000E+00
 -1      1371 4.87125E+01 4.88911E+01 0.00000E+00
 -1      1372 5.02125E+01 4.88911E+01 0.00000E+00
 -1      1373 4.80750E+01 4.77822E+01 0.00000E+00
 -1      1374 5.17125E+01 4.88911E+01 0.00000E+00
 -1      1375 5.32125E+01 4.88911E+01 0.00000E+00
 -1      1376 5.10750E+01 4.77822E+01 0.00000E+00
 -1      1377 5.47125E+01 4.88911E+01 0.00000E+00
 -1      1378 5.62125E+01 4.88911E+01 0.00000E+00
 -1      1379 5.40750E+01 4.77822E+01 0.00000E+00
 -1      1380 5.77125E+01 4.88911E+01 0.00000E+00
 -1      1381 5.92125E+01 4.88911E+01 0.00000E+00
 -1      1382 5.70750E+01 4.77822E+01 0.00000E+00
 -1      1383 6.07125E+01 4.88911E+01 0.00000E+00
 -1      1384 6.22125E+01 4.88911E+01 0.00000E+00
 -1      1385 6.00750E+01 4.77822E+01 0.00000E+00
 -1      1386 6.37125E+01 4.88911E+01 0.00000E+00
 -1      1387 6.52125E+01 4.88911E+01 0.00000E+00
 -1      1388 6.30750E+01 4.77822E+01 0.00000E+00
 -1      1389 6.67125E+01 4.88911E+01 0.00000E+00
 -1      1390 6.82125E+01 4.88911E+01 0.00000E+00
 -1      1391 6.60750E+01 4.77822E+01 0.00000E+00
 -1      1392 6.97875E+01 4.88911E+01 0.00000E+00
 -1      1393 7.13625E+01 4.88911E+01 0.00000E+00
 -1      1394 6.91500E+01 4.77822E+01 0.00000E+00
 -1      1395 7.28625E+01 4.88911E+01 0.00000E+00
 -1      1396 7.43625E+01 4.88911E+01 0.00000E+00
 -1      1397 7.22250E+01 4.77822E+01 0.00000E+00
 -1      1398 7.58625E+01 4.88911E+01 0.00000E+00
 -1      1399 7.73625E+01 4.88911E+01 0.00000E+00
 -1      1400 7.52250E+01 4.77822E+01 0.00000E+00
 -1      1401 7.88625E+01 4.88911E+01 0.00000E+00
 -1      1402 8.03625E+01 4.88911E+01 0.00000E+00
 -1      1403 7.82250E+01 4.77822E+01 0.00000E+00
 -1      1404 8.18625E+01 4.88911E+01 0.00000E+00
 -1      1405 8.33625E+01 4.88911E+01 0.00000E+00
 -1      1406 8.12250E+01 4.77822E+01 0.00000E+00
 -1      1407 8.48625E+01 4.88911E+01 0.00000E+00
 -1      1408 8.63625E+01 4.88911E+01 0.00000E+00
 -1      1409 8.42250E+01 4.77822E+01 0.00000E+00
 -1      1410 8.78625E+01 4.88911E+01 0.00000E+00
 -1      1411 8.93625E+01 4.88911E+01 0.00000E+00
 -1      1412 8.72250E+01 4.77822E+01 0.00000E+00
 -1      1413 9.08625E+01 4.88911E+01 0.00000E+00
 -1      1414 9.23625E+01 4.88911E+01 0.00000E+00
 -1      1415 9.02250E+01 4.77822E+01 0.00000E+00
 -1      1416 9.38625E+01 4.88911E+01 0.00000E+00
 -1      1417 9.53625E+01 4.88911E+01 0.00000E+00
 -1      1418 9.32250E+01 4.77822E+01 0.00000E+00
 -1      1419 9.68625E+01 4.88911E+01 0.00000E+00
 -1      1420 9.83625E+01 4.88911E+01 0.00000E+00
 -1      1421 9.62250E+01 4.77822E+01 0.00000E+00
 -1      1422 9.98625E+01 4.88911E+01 0.00000E+00
 -1      1423 1.01363E+02 4.88911E+01 0.00000E+00
 -1      1424 9.92250E+01 4.77822E+01 0.00000E+00
 -1      1425 1.02863E+02 4.88911E+01 0.00000E+00
 -1      1426 1.04363E+02 4.88911E+01 0.00000E+00
 -1      1427 1.02225E+02 4.77822E+01 0.00000E+00
 -1      1428 1.05863E+02 4.88911E+01 0.00000E+00
 -1      1429 1.07363E+02 4.88911E+01 0.00000E+00
 -1      1430 1.05225E+02 4.77822E+01 0.00000E+00
 -1      1431 1.08863E+02 4.88911E+01 0.00000E+00
 -1      1432 1.10363E+02 4.88911E+01 0.00000E+00
 -1      1433 1.08225E+02 4.77822E+01 0.00000E+00
 -1      1434 1.11863E+02 4.88911E+01 0.00000E+00
 -1      1435 1.13363E+02 4.88911E+01 0.00000E+00
 -1      1436 1.11225E+02 4.77822E+01 0.00000E+00
 -1      1437 1.14863E+02 4.88911E+01 0.00000E+00
 -1      1438 1.16363E+02 4.88911E+01 0.00000E+00
 -1      1439 1.14225E+02 4.77822E+01 0.00000E+00
 -1      1440 1.17863E+02 4.88911E+01 0.00000E+00
 -1      1441 1.19363E+02 4.88911E+01 0.00000E+00
 -1      1442 1.17225E+02 4.77822E+01 0.00000E+00
 -1      1443 1.20863E+02 4.88911E+01 0.00000E+00
 -1      1444 1.22363E+02 4.88911E+01 0.00000E+00
 -1      1445 1.20225E+02 4.77822E+01 0.00000E+00
 -1      1446 1.23863E+02 4.88911E+01 0.00000E+00
 -1      1447 1.25363E+02 4.88911E+01 0.00000E+00
 -1      1448 1.23225E+02 4.77822E+01 0.00000E+00
 -1      1449 1.26863E+02 4.88911E+01 0.00000E+00
 -1      1450 1.28363E+02 4.88911E+01 0.00000E+00
 -1      1451 1.26225E+02 4.77822E+01 0.00000E+00
 -1      1452 1.29863E+02 4.88911E+01 0.00000E+00
 -1      1453 1.31363E+02 4.88911E+01 0.00000E+00
 -1      1454 1.29225E+02 4.77822E+01 0.00000E+00
 -1      1455 1.32863E+02 4.88911E+01 0.00000E+00
 -1      1456 1.34363E+02 4.88911E+01 0.00000E+00
 -1      1457 1.32225E+02 4.77822E+01 0.00000E+00
 -1      1458 1.35863E+02 4.88911E+01 0.00000E+00
 -1      1459 1.37363E+02 4.88911E+01 0.00000E+00
 -1      1460 1.35225E+02 4.77822E+01 0.00000E+00
 -1      1461 1.38863E+02 4.88911E+01 0.00000E+00
 -1      1462 1.40363E+02 4.88911E+01 0.00000E+00
 -1      1463 1.38225E+02 4.77822E+01 0.00000E+00
 -1      1464 1.41863E+02 4.88911E+01 0.00000E+00
 -1      1465 1.43363E+02 4.88911E+01 0.00000E+00
 -1      1466 1.41225E+02 4.77822E+01 0.00000E+00
 -1      1467 1.44863E+02 4.88911E+01 0.00000E+00
 -1      1468 1.46363E+02 4.88911E+01 0.00000E+00
 -1      1469 1.44225E+02 4.77822E+01 0.00000E+00
 -1      1470 1.47431E+02 4.87205E+01 0.00000E+00
 -1      1471 1.48931E+02 4.87205E+01 0.00000E+00
 -1      1472 1.48931E+02 4.72705E+01 0.00000E+00
 -1      1473 1.46794E+02 4.76116E+01 0.00000E+00
 -1      1474 6.01200E+00 1.09375E+00 0.00000E+00
 -1      1475 4.51200E+00 1.09375E+00 0.00000E+00
 -1      1476 4.37400E+00 2.18750E+00 0.00000E+00
 -1      1477 9.01200E+00 1.09375E+00 0.00000E+00
 -1      1478 7.51200E+00 1.09375E+00 0.00000E+00
 -1      1479 7.37400E+00 2.18750E+00 0.00000E+00
 -1      1480 1.20120E+01 1.09375E+00 0.00000E+00
 -1      1481 1.05120E+01 1.09375E+00 0.00000E+00
 -1      1482 1.03740E+01 2.18750E+00 0.00000E+00
 -1      1483 1.50120E+01 1.09375E+00 0.00000E+00
 -1      1484 1.35120E+01 1.09375E+00 0.00000E+00
 -1      1485 1.33740E+01 2.18750E+00 0.00000E+00
 -1      1486 1.80120E+01 1.09375E+00 0.00000E+00
 -1      1487 1.65120E+01 1.09375E+00 0.00000E+00
 -1      1488 1.63740E+01 2.18750E+00 0.00000E+00
 -1      1489 2.10120E+01 1.09375E+00 0.00000E+00
 -1      1490 1.95120E+01 1.09375E+00 0.00000E+00
 -1      1491 1.93740E+01 2.18750E+00 0.00000E+00
 -1      1492 2.40120E+01 1.09375E+00 0.00000E+00
 -1      1493 2.25120E+01 1.09375E+00 0.00000E+00
 -1      1494 2.23740E+01 2.18750E+00 0.00000E+00
 -1      1495 2.70120E+01 1.09375E+00 0.00000E+00
 -1      1496 2.55120E+01 1.09375E+00 0.00000E+00
 -1      1497 2.53740E+01 2.18750E+00 0.00000E+00
 -1      1498 3.00120E+01 1.09375E+00 0.00000E+00
 -1      1499 2.85120E+01 1.09375E+00 0.00000E+00
 -1      1500 2.83740E+01 2.18750E+00 0.00000E+00
 -1      1501 3.30120E+01 1.09375E+00 0.00000E+00
 -1      1502 3.15120E+01 1.09375E+00 0.00000E+00
 -1      1503 3.13740E+01 2.18750E+00 0.00000E+00
 -1      1504 3.60120E+01 1.09375E+00 0.00000E+00
 -1      1505 3.45120E+01 1.09375E+00 0.00000E+00
 -1      1506 3.43740E+01 2.18750E+00 0.00000E+00
 -1      1507 3.90120E+01 1.09375E+00 0.00000E+00
 -1      1508 3.75120E+01 1.09375E+00 0.00000E+00
 -1      1509 3.73740E+01 2.18750E+00 0.00000E+00
 -1      1510 4.20120E+01 1.09375E+00 0.00000E+00
 -1      1511 4.05120E+01 1.09375E+00 0.00000E+00
 -1      1512 4.03740E+01 2.18750E+00 0.00000E+00
 -1      1513 4.50120E+01 1.09375E+00 0.00000E+00
 -1      1514 4.35120E+01 1.09375E+00 0.00000E+00
 -1      1515 4.33740E+01 2.18750E+00 0.00000E+00
 -1      1516 4.80120E+01 1.09375E+00 0.00000E+00
 -1      1517 4.65120E+01 1.09375E+00 0.00000E+00
 -1      1518 4.63740E+01 2.18750E+00 0.00000E+00
 -1      1519 5.10120E+01 1.09375E+00 0.00000E+00
 -1      1520 4.95120E+01 1.09375E+00 0.00000E+00
 -1      1521 4.93740E+01 2.18750E+00 0.00000E+00
 -1      1522 5.40120E+01 1.09375E+00 0.00000E+00
 -1      1523 5.25120E+01 1.09375E+00 0.00000E+00
 -1      1524 5.23740E+01 2.18750E+00 0.00000E+00
 -1      1525 5.70120E+01 1.09375E+00 0.00000E+00
 -1      1526 5.55120E+01 1.09375E+00 0.00000E+00
 -1      1527 5.53740E+01 2.18750E+00 0.00000E+00
 -1      1528 6.00120E+01 1.09375E+00 0.00000E+00
 -1      1529 5.85120E+01 1.09375E+00 0.00000E+00
 -1      1530 5.83740E+01 2.18750E+00 0.00000E+00
 -1      1531 6.30120E+01 1.09375E+00 0.00000E+00
 -1      1532 6.15120E+01 1.09375E+00 0.00000E+00
 -1      1533 6.13740E+01 2.18750E+00 0.00000E+00
 -1      1534 6.60120E+01 1.09375E+00 0.00000E+00
 -1      1535 6.45120E+01 1.09375E+00 0.00000E+00
 -1      1536 6.43740E+01 2.18750E+00 0.00000E+00
 -1      1537 6.90120E+01 1.09375E+00 0.00000E+00
 -1      1538 6.75120E+01 1.09375E+00 0.00000E+00
 -1      1539 6.73740E+01 2.18750E+00 0.00000E+00
 -1      1540 7.20120E+01 1.09375E+00 0.00000E+00
 -1      1541 7.05120E+01 1.09375E+00 0.00000E+00
 -1      1542 7.03740E+01 2.18750E+00 0.00000E+00
 -1      1543 7.50120E+01 1.09375E+00 0.00000E+00
 -1      1544 7.35120E+01 1.09375E+00 0.00000E+00
 -1      1545 7.33740E+01 2.18750E+00 0.00000E+00
 -1      1546 7.80120E+01 1.09375E+00 0.00000E+00
 -1      1547 7.65120E+01 1.09375E+00 0.00000E+00
 -1      1548 7.63740E+01 2.18750E+00 0.00000E+00
 -1      1549 8.10120E+01 1.09375E+00 0.00000E+00
 -1      1550 7.95120E+01 1.09375E+00 0.00000E+00
 -1      1551 7.93740E+01 2.18750E+00 0.00000E+00
 -1      1552 8.40120E+01 1.09375E+00 0.00000E+00
 -1      1553 8.25120E+01 1.09375E+00 0.00000E+00
 -1      1554 8.23740E+01 2.18750E+00 0.00000E+00
 -1      1555 8.70120E+01 1.09375E+00 0.00000E+00
 -1      1556 8.55120E+01 1.09375E+00 0.00000E+00
 -1      1557 8.53740E+01 2.18750E+00 0.00000E+00
 -1      1558 9.00120E+01 1.09375E+00 0.00000E+00
 -1      1559 8.85120E+01 1.09375E+00 0.00000E+00
 -1      1560 8.83740E+01 2.18750E+00 0.00000E+00
 -1      1561 9.30120E+01 1.09375E+00 0.00000E+00
 -1      1562 9.15120E+01 1.09375E+00 0.00000E+00
 -1      1563 9.13740E+01 2.18750E+00 0.00000E+00
 -1      1564 9.60120E+01 1.09375E+00 0.00000E+00
 -1      1565 9.45120E+01 1.09375E+00 0.00000E+00
 -1      1566 9.43740E+01 2.18750E+00 0.00000E+00
 -1      1567 9.90120E+01 1.09375E+00 0.00000E+00
 -1      1568 9.75120E+01 1.09375E+00 0.00000E+00
 -1      1569 9.73740E+01 2.18750E+00 0.00000E+00
 -1      1570 1.02012E+02 1.09375E+00 0.00000E+00
 -1      1571 1.00512E+02 1.09375E+00 0.00000E+00
 -1      1572 1.00374E+02 2.18750E+00 0.00000E+00
 -1      1573 1.05012E+02 1.09375E+00 0.00000E+00
 -1      1574 1.03512E+02 1.09375E+00 0.00000E+00
 -1      1575 1.03374E+02 2.18750E+00 0.00000E+00
 -1      1576 1.08012E+02 1.09375E+00 0.00000E+00
 -1      1577 1.06512E+02 1.09375E+00 0.00000E+00
 -1      1578 1.06374E+02 2.18750E+00 0.00000E+00
 -1      1579 1.11012E+02 1.09375E+00 0.00000E+00
 -1      1580 1.09512E+02 1.09375E+00 0.00000E+00
 -1      1581 1.09374E+02 2.18750E+00 0.00000E+00
 -1      1582 1.14012E+02 1.09375E+00 0.00000E+00
 -1      1583 1.12512E+02 1.09375E+00 0.00000E+00
 -1      1584 1.12374E+02 2.18750E+00 0.00000E+00
 -1      1585 1.17012E+02 1.09375E+00 0.00000E+00
 -1      1586 1.15512E+02 1.09375E+00 0.00000E+00
 -1      1587 1.15374E+02 2.18750E+00 0.00000E+00
 -1      1588 1.20012E+02 1.09375E+00 0.00000E+00
 -1      1589 1.18512E+02 1.09375E+00 0.00000E+00
 -1      1590 1.18374E+02 2.18750E+00 0.00000E+00
 -1      1591 1.23012E+02 1.09375E+00 0.00000E+00
 -1      1592 1.21512E+02 1.09375E+00 0.00000E+00
 -1      1593 1.21374E+02 2.18750E+00 0.00000E+00
 -1      1594 1.26012E+02 1.09375E+00 0.00000E+00
 -1      1595 1.24512E+02 1.09375E+00 0.00000E+00
 -1      1596 1.24374E+02 2.18750E+00 0.00000E+00
 -1      1597 1.29012E+02 1.09375E+00 0.00000E+00
 -1      1598 1.27512E+02 1.09375E+00 0.00000E+00
 -1      1599 1.27374E+02 2.18750E+00 0.00000E+00
 -1      1600 1.32012E+02 1.09375E+00 0.00000E+00
 -1      1601 1.30512E+02 1.09375E+00 0.00000E+00
 -1      1602 1.30374E+02 2.18750E+00 0.00000E+00
 -1      1603 1.35012E+02 1.09375E+00 0.00000E+00
 -1      1604 1.33512E+02 1.09375E+00 0.00000E+00
 -1      1605 1.33374E+02 2.18750E+00 0.00000E+00
 -1      1606 1.38012E+02 1.09375E+00 0.00000E+00
 -1      1607 1.36512E+02 1.09375E+00 0.00000E+00
 -1      1608 1.36374E+02 2.18750E+00 0.00000E+00
 -1      1609 1.41012E+02 1.09375E+00 0.00000E+00
 -1      1610 1.39512E+02 1.09375E+00 0.00000E+00
 -1      1611 1.39374E+02 2.18750E+00 0.00000E+00
 -1      1612 1.44012E+02 1.09375E+00 0.00000E+00
 -1      1613 1.42512E+02 1.09375E+00 0.00000E+00
 -1      1614 1.42374E+02 2.18750E+00 0.00000E+00
 -1      1615 1.47012E+02 1.09375E+00 0.00000E+00
 -1      1616 1.45512E+02 1.09375E+00 0.00000E+00
 -1      1617 1.45374E+02 2.18750E+00 0.00000E+00
 -1      1618 1.48575E+02 1.47500E+00 0.00000E+00
 -1      1619 1.48701E+02 5.16250E+00 0.00000E+00
 -1      1620 1.48701E+02 3.68750E+00 0.00000E+00
 -1      1621 1.48701E+02 8.11250E+00 0.00000E+00
 -1      1622 1.48701E+02 6.63750E+00 0.00000E+00
 -1      1623 1.47402E+02 5.90000E+00 0.00000E+00
 -1      1624 1.48701E+02 1.10625E+01 0.00000E+00
 -1      1625 1.48701E+02 9.58750E+00 0.00000E+00
 -1      1626 1.47402E+02 8.85000E+00 0.00000E+00
 -1      1627 1.48701E+02 1.40125E+01 0.00000E+00
 -1      1628 1.48701E+02 1.25375E+01 0.00000E+00
 -1      1629 1.47402E+02 1.18000E+01 0.00000E+00
 -1      1630 1.48701E+02 1.69125E+01 0.00000E+00
 -1      1631 1.48701E+02 1.54625E+01 0.00000E+00
 -1      1632 1.47402E+02 1.47250E+01 0.00000E+00
 -1      1633 1.48701E+02 1.98625E+01 0.00000E+00
 -1      1634 1.48701E+02 1.83875E+01 0.00000E+00
 -1      1635 1.47402E+02 1.76500E+01 0.00000E+00
 -1      1636 1.48701E+02 2.28125E+01 0.00000E+00
 -1      1637 1.48701E+02 2.13375E+01 0.00000E+00
 -1      1638 1.47402E+02 2.06000E+01 0.00000E+00
 -1      1639 1.48701E+02 2.57625E+01 0.00000E+00
 -1      1640 1.48701E+02 2.42875E+01 0.00000E+00
 -1      1641 1.47402E+02 2.35500E+01 0.00000E+00
 -1      1642 1.48701E+02 2.87125E+01 0.00000E+00
 -1      1643 1.48701E+02 2.72375E+01 0.00000E+00
 -1      1644 1.47402E+02 2.65000E+01 0.00000E+00
 -1      1645 1.48701E+02 3.16625E+01 0.00000E+00
 -1      1646 1.48701E+02 3.01875E+01 0.00000E+00
 -1      1647 1.47402E+02 2.94500E+01 0.00000E+00
 -1      1648 1.48701E+02 3.45625E+01 0.00000E+00
 -1      1649 1.48701E+02 3.31125E+01 0.00000E+00
 -1      1650 1.47402E+02 3.23750E+01 0.00000E+00
 -1      1651 1.48701E+02 3.75125E+01 0.00000E+00
 -1      1652 1.48701E+02 3.60375E+01 0.00000E+00
 -1      1653 1.47402E+02 3.53000E+01 0.00000E+00
 -1      1654 1.48701E+02 4.04625E+01 0.00000E+00
 -1      1655 1.48701E+02 3.89875E+01 0.00000E+00
 -1      1656 1.47402E+02 3.82500E+01 0.00000E+00
 -1      1657 1.48701E+02 4.34125E+01 0.00000E+00
 -1      1658 1.48701E+02 4.19375E+01 0.00000E+00
 -1      1659 1.47402E+02 4.12000E+01 0.00000E+00
 -1      1660 1.48816E+02 4.60790E+01 0.00000E+00
 -1      1661 1.48816E+02 4.46040E+01 0.00000E+00
 -1      1662 1.47517E+02 4.38665E+01 0.00000E+00
 -1      1663 1.47747E+02 4.62496E+01 0.00000E+00
 -1      1664 3.27544E+01 3.47521E+01 0.00000E+00
 -1      1665 3.28302E+01 3.54765E+01 0.00000E+00
 -1      1666 3.22831E+01 3.32594E+01 0.00000E+00
 -1      1667 3.24983E+01 3.39322E+01 0.00000E+00
 -1      1668 3.15413E+01 3.18616E+01 0.00000E+00
 -1      1669 3.19041E+01 3.25014E+01 0.00000E+00
 -1      1670 3.05946E+01 3.05386E+01 0.00000E+00
 -1      1671 3.10963E+01 3.11003E+01 0.00000E+00
 -1      1672 2.93146E+01 2.95906E+01 0.00000E+00
 -1      1673 2.98960E+01 3.00154E+01 0.00000E+00
 -1      1674 2.79495E+01 2.88762E+01 0.00000E+00
 -1      1675 2.85945E+01 2.91693E+01 0.00000E+00
 -1      1676 2.64920E+01 2.84569E+01 0.00000E+00
 -1      1677 2.71718E+01 2.86127E+01 0.00000E+00
 -1      1678 2.49878E+01 2.82950E+01 0.00000E+00
 -1      1679 2.56848E+01 2.83130E+01 0.00000E+00
 -1      1680 2.34119E+01 2.84523E+01 0.00000E+00
 -1      1681 2.41369E+01 2.83208E+01 0.00000E+00
 -1      1682 2.19914E+01 2.90195E+01 0.00000E+00
 -1      1683 2.26278E+01 2.87630E+01 0.00000E+00
 -1      1684 2.07040E+01 2.97684E+01 0.00000E+00
 -1      1685 2.12798E+01 2.93913E+01 0.00000E+00
 -1      1686 1.95620E+01 3.07851E+01 0.00000E+00
 -1      1687 2.00685E+01 3.02839E+01 0.00000E+00
 -1      1688 1.85423E+01 3.20252E+01 0.00000E+00
 -1      1689 1.89532E+01 3.14001E+01 0.00000E+00
 -1      1690 1.76736E+01 3.35951E+01 0.00000E+00
 -1      1691 1.79641E+01 3.28109E+01 0.00000E+00
 -1      1692 1.75920E+01 3.52142E+01 0.00000E+00
 -1      1693 1.76854E+01 3.45394E+01 0.00000E+00
 -1      1694 1.76045E+01 3.67239E+01 0.00000E+00
 -1      1695 1.75620E+01 3.60223E+01 0.00000E+00
 -1      1696 1.77990E+01 3.83682E+01 0.00000E+00
 -1      1697 1.75901E+01 3.76202E+01 0.00000E+00
 -1      1698 1.85931E+01 3.97344E+01 0.00000E+00
 -1      1699 1.82722E+01 3.91217E+01 0.00000E+00
 -1      1700 1.94660E+01 4.10597E+01 0.00000E+00
 -1      1701 1.89937E+01 4.04850E+01 0.00000E+00
 -1      1702 2.07663E+01 4.20978E+01 0.00000E+00
 -1      1703 2.01625E+01 4.16229E+01 0.00000E+00
 -1      1704 2.22364E+01 4.29970E+01 0.00000E+00
 -1      1705 2.15109E+01 4.26540E+01 0.00000E+00
 -1      1706 2.38343E+01 4.34199E+01 0.00000E+00
 -1      1707 2.31128E+01 4.32580E+01 0.00000E+00
 -1      1708 2.54970E+01 4.35632E+01 0.00000E+00
 -1      1709 2.47218E+01 4.35601E+01 0.00000E+00
 -1      1710 2.70597E+01 4.32458E+01 0.00000E+00
 -1      1711 2.63621E+01 4.33938E+01 0.00000E+00
 -1      1712 2.85164E+01 4.26987E+01 0.00000E+00
 -1      1713 2.78566E+01 4.29887E+01 0.00000E+00
 -1      1714 2.98363E+01 4.18615E+01 0.00000E+00
 -1      1715 2.92487E+01 4.22817E+01 0.00000E+00
 -1      1716 3.09862E+01 4.08015E+01 0.00000E+00
 -1      1717 3.04985E+01 4.13319E+01 0.00000E+00
 -1      1718 3.19342E+01 3.94462E+01 0.00000E+00
 -1      1719 3.15437E+01 4.01130E+01 0.00000E+00
 -1      1720 3.24506E+01 3.79056E+01 0.00000E+00
 -1      1721 3.22239E+01 3.86029E+01 0.00000E+00
 -1      1722 3.27882E+01 3.63506E+01 0.00000E+00
 -1      1723 3.27118E+01 3.70779E+01 0.00000E+00
 -1      1724 2.25375E+01 4.88911E+01 0.00000E+00
 -1      1725 2.31750E+01 4.77822E+01 0.00000E+00
 -1      1726 2.13375E+01 4.88911E+01 0.00000E+00
 -1      1727 3.18050E+01 3.11212E+01 0.00000E+00
 -1      1728 3.34782E+01 3.59122E+01 0.00000E+00
 -1      1729 1.48437E+02 2.56875E+00 0.00000E+00
 -1      1730 1.47138E+02 3.30625E+00 0.00000E+00
 -1      1731 3.32641E+01 3.42183E+01 0.00000E+00
 -1      1732 3.26290E+01 3.26404E+01 0.00000E+00
 -1      1733 3.06615E+01 2.98367E+01 0.00000E+00
 -1      1734 2.92429E+01 2.88922E+01 0.00000E+00
 -1      1735 2.77451E+01 2.82074E+01 0.00000E+00
 -1      1736 2.61602E+01 2.78000E+01 0.00000E+00
 -1      1737 2.45021E+01 2.76819E+01 0.00000E+00
 -1      1738 2.28671E+01 2.80183E+01 0.00000E+00
 -1      1739 2.13714E+01 2.87008E+01 0.00000E+00
 -1      1740 2.00243E+01 2.95882E+01 0.00000E+00
 -1      1741 1.87800E+01 3.07186E+01 0.00000E+00
 -1      1742 1.75929E+01 3.21194E+01 0.00000E+00
 -1      1743 1.70264E+01 3.38494E+01 0.00000E+00
 -1      1744 1.70082E+01 3.56018E+01 0.00000E+00
 -1      1745 1.69637E+01 3.73061E+01 0.00000E+00
 -1      1746 1.74225E+01 3.89558E+01 0.00000E+00
 -1      1747 1.82962E+01 4.04599E+01 0.00000E+00
 -1      1748 1.93932E+01 4.17736E+01 0.00000E+00
 -1      1749 2.08342E+01 4.28931E+01 0.00000E+00
 -1      1750 2.24552E+01 4.37103E+01 0.00000E+00
 -1      1751 2.42191E+01 4.41115E+01 0.00000E+00
 -1      1752 2.59717E+01 4.40822E+01 0.00000E+00
 -1      1753 2.76336E+01 4.36557E+01 0.00000E+00
 -1      1754 2.91628E+01 4.29817E+01 0.00000E+00
 -1      1755 3.05572E+01 4.20351E+01 0.00000E+00
 -1      1756 3.17768E+01 4.08168E+01 0.00000E+00
 -1      1757 3.26240E+01 3.92849E+01 0.00000E+00
 -1      1758 3.31750E+01 3.76140E+01 0.00000E+00
 -1      1759 2.87400E+00 4.77875E+01 0.00000E+00
 -1      1760 2.05875E+01 4.75921E+01 0.00000E+00
 -1      1761 3.89700E+00 4.04125E+01 0.00000E+00
 -1      1762 3.89700E+00 4.18875E+01 0.00000E+00
 -1      1763 3.89700E+00 4.33625E+01 0.00000E+00
 -1      1764 3.89700E+00 4.48375E+01 0.00000E+00
 -1      1765 5.19600E+00 4.26250E+01 0.00000E+00
 -1      1766 3.89700E+00 3.45500E+01 0.00000E+00
 -1      1767 3.89700E+00 3.60000E+01 0.00000E+00
 -1      1768 3.89700E+00 3.16000E+01 0.00000E+00
 -1      1769 3.89700E+00 3.30750E+01 0.00000E+00
 -1      1770 5.19600E+00 3.38000E+01 0.00000E+00
 -1      1771 3.89700E+00 2.86500E+01 0.00000E+00
 -1      1772 3.89700E+00 3.01250E+01 0.00000E+00
 -1      1773 5.19600E+00 3.08500E+01 0.00000E+00
 -1      1774 3.89700E+00 2.57000E+01 0.00000E+00
 -1      1775 3.89700E+00 2.71750E+01 0.00000E+00
 -1      1776 5.19600E+00 2.79000E+01 0.00000E+00
 -1      1777 3.89700E+00 2.27500E+01 0.00000E+00
 -1      1778 3.89700E+00 2.42250E+01 0.00000E+00
 -1      1779 5.19600E+00 2.49500E+01 0.00000E+00
 -1      1780 3.89700E+00 1.98000E+01 0.00000E+00
 -1      1781 3.89700E+00 2.12750E+01 0.00000E+00
 -1      1782 5.19600E+00 2.20000E+01 0.00000E+00
 -1      1783 3.89700E+00 1.69000E+01 0.00000E+00
 -1      1784 3.89700E+00 1.83500E+01 0.00000E+00
 -1      1785 5.19600E+00 1.90750E+01 0.00000E+00
 -1      1786 3.89700E+00 1.39500E+01 0.00000E+00
 -1      1787 3.89700E+00 1.54250E+01 0.00000E+00
 -1      1788 5.19600E+00 1.61500E+01 0.00000E+00
 -1      1789 3.89700E+00 1.10000E+01 0.00000E+00
 -1      1790 3.89700E+00 1.24750E+01 0.00000E+00
 -1      1791 5.19600E+00 1.32000E+01 0.00000E+00
 -1      1792 3.89700E+00 8.05000E+00 0.00000E+00
 -1      1793 3.89700E+00 9.52500E+00 0.00000E+00
 -1      1794 5.19600E+00 1.02500E+01 0.00000E+00
 -1      1795 3.89700E+00 5.10000E+00 0.00000E+00
 -1      1796 3.89700E+00 6.57500E+00 0.00000E+00
 -1      1797 5.19600E+00 7.30000E+00 0.00000E+00
 -1      1798 4.20450E+00 3.09687E+00 0.00000E+00
 -1      1799 4.06650E+00 4.19063E+00 0.00000E+00
 -1      1800 5.36550E+00 4.91563E+00 0.00000E+00
 -1      1801 5.70450E+00 3.09687E+00 0.00000E+00
 -1      1802 3.62400E+00 4.64885E+01 0.00000E+00
 -1      1803 8.70450E+00 3.09687E+00 0.00000E+00
 -1      1804 7.20450E+00 3.09687E+00 0.00000E+00
 -1      1805 7.03500E+00 4.00625E+00 0.00000E+00
 -1      1806 2.00215E+01 4.65644E+01 0.00000E+00
 -1      1807 2.14090E+01 4.67545E+01 0.00000E+00
 -1      1808 8.40000E+00 4.61030E+01 0.00000E+00
 -1      1809 9.90000E+00 4.61030E+01 0.00000E+00
 -1      1810 1.14000E+01 4.61030E+01 0.00000E+00
 -1      1811 1.29000E+01 4.61030E+01 0.00000E+00
 -1      1812 1.06500E+01 4.48040E+01 0.00000E+00
 -1      1813 1.44000E+01 4.61030E+01 0.00000E+00
 -1      1814 1.59000E+01 4.61030E+01 0.00000E+00
 -1      1815 1.36500E+01 4.48040E+01 0.00000E+00
 -1      1816 1.71750E+01 4.61030E+01 0.00000E+00
 -1      1817 1.84500E+01 4.61030E+01 0.00000E+00
 -1      1818 1.64250E+01 4.48040E+01 0.00000E+00
 -1      1819 3.21421E+01 3.04135E+01 0.00000E+00
 -1      1820 3.25871E+01 3.11748E+01 0.00000E+00
 -1      1821 4.92300E+00 4.57510E+01 0.00000E+00
 -1      1822 2.73375E+01 4.69246E+01 0.00000E+00
 -1      1823 2.84625E+01 4.69246E+01 0.00000E+00
 -1      1824 2.97000E+01 4.67571E+01 0.00000E+00
 -1      1825 3.10500E+01 4.67571E+01 0.00000E+00
 -1      1826 3.24375E+01 4.66733E+01 0.00000E+00
 -1      1827 3.38625E+01 4.66733E+01 0.00000E+00
 -1      1828 3.53625E+01 4.66733E+01 0.00000E+00
 -1      1829 3.68625E+01 4.66733E+01 0.00000E+00
 -1      1830 3.46500E+01 4.55644E+01 0.00000E+00
 -1      1831 3.83625E+01 4.66733E+01 0.00000E+00
 -1      1832 3.98625E+01 4.66733E+01 0.00000E+00
 -1      1833 3.76500E+01 4.55644E+01 0.00000E+00
 -1      1834 4.13625E+01 4.66733E+01 0.00000E+00
 -1      1835 4.28625E+01 4.66733E+01 0.00000E+00
 -1      1836 4.06500E+01 4.55644E+01 0.00000E+00
 -1      1837 4.43625E+01 4.66733E+01 0.00000E+00
 -1      1838 4.58625E+01 4.66733E+01 0.00000E+00
 -1      1839 4.36500E+01 4.55644E+01 0.00000E+00
 -1      1840 4.73625E+01 4.66733E+01 0.00000E+00
 -1      1841 4.88625E+01 4.66733E+01 0.00000E+00
 -1      1842 4.66500E+01 4.55644E+01 0.00000E+00
 -1      1843 5.03625E+01 4.66733E+01 0.00000E+00
 -1      1844 5.18625E+01 4.66733E+01 0.00000E+00
 -1      1845 4.96500E+01 4.55644E+01 0.00000E+00
 -1      1846 5.33625E+01 4.66733E+01 0.00000E+00
 -1      1847 5.48625E+01 4.66733E+01 0.00000E+00
 -1      1848 5.26500E+01 4.55644E+01 0.00000E+00
 -1      1849 5.63625E+01 4.66733E+01 0.00000E+00
 -1      1850 5.78625E+01 4.66733E+01 0.00000E+00
 -1      1851 5.56500E+01 4.55644E+01 0.00000E+00
 -1      1852 5.93625E+01 4.66733E+01 0.00000E+00
 -1      1853 6.08625E+01 4.66733E+01 0.00000E+00
 -1      1854 5.86500E+01 4.55644E+01 0.00000E+00
 -1      1855 6.23625E+01 4.66733E+01 0.00000E+00
 -1      1856 6.38625E+01 4.66733E+01 0.00000E+00
 -1      1857 6.16500E+01 4.55644E+01 0.00000E+00
 -1      1858 6.53625E+01 4.66733E+01 0.00000E+00
 -1      1859 6.68625E+01 4.66733E+01 0.00000E+00
 -1      1860 6.46500E+01 4.55644E+01 0.00000E+00
 -1      1861 6.84375E+01 4.66733E+01 0.00000E+00
 -1      1862 7.00125E+01 4.66733E+01 0.00000E+00
 -1      1863 6.77250E+01 4.55644E+01 0.00000E+00
 -1      1864 7.15125E+01 4.66733E+01 0.00000E+00
 -1      1865 7.30125E+01 4.66733E+01 0.00000E+00
 -1      1866 7.08000E+01 4.55644E+01 0.00000E+00
 -1      1867 7.45125E+01 4.66733E+01 0.00000E+00
 -1      1868 7.60125E+01 4.66733E+01 0.00000E+00
 -1      1869 7.38000E+01 4.55644E+01 0.00000E+00
 -1      1870 7.75125E+01 4.66733E+01 0.00000E+00
 -1      1871 7.90125E+01 4.66733E+01 0.00000E+00
 -1      1872 7.68000E+01 4.55644E+01 0.00000E+00
 -1      1873 8.05125E+01 4.66733E+01 0.00000E+00
 -1      1874 8.20125E+01 4.66733E+01 0.00000E+00
 -1      1875 7.98000E+01 4.55644E+01 0.00000E+00
 -1      1876 8.35125E+01 4.66733E+01 0.00000E+00
 -1      1877 8.50125E+01 4.66733E+01 0.00000E+00
 -1      1878 8.28000E+01 4.55644E+01 0.00000E+00
 -1      1879 8.65125E+01 4.66733E+01 0.00000E+00
 -1      1880 8.80125E+01 4.66733E+01 0.00000E+00
 -1      1881 8.58000E+01 4.55644E+01 0.00000E+00
 -1      1882 8.95125E+01 4.66733E+01 0.00000E+00
 -1      1883 9.10125E+01 4.66733E+01 0.00000E+00
 -1      1884 8.88000E+01 4.55644E+01 0.00000E+00
 -1      1885 9.25125E+01 4.66733E+01 0.00000E+00
 -1      1886 9.40125E+01 4.66733E+01 0.00000E+00
 -1      1887 9.18000E+01 4.55644E+01 0.00000E+00
 -1      1888 9.55125E+01 4.66733E+01 0.00000E+00
 -1      1889 9.70125E+01 4.66733E+01 0.00000E+00
 -1      1890 9.48000E+01 4.55644E+01 0.00000E+00
 -1      1891 9.85125E+01 4.66733E+01 0.00000E+00
 -1      1892 1.00012E+02 4.66733E+01 0.00000E+00
 -1      1893 9.78000E+01 4.55644E+01 0.00000E+00
 -1      1894 1.01512E+02 4.66733E+01 0.00000E+00
 -1      1895 1.03012E+02 4.66733E+01 0.00000E+00
 -1      1896 1.00800E+02 4.55644E+01 0.00000E+00
 -1      1897 1.04512E+02 4.66733E+01 0.00000E+00
 -1      1898 1.06012E+02 4.66733E+01 0.00000E+00
 -1      1899 1.03800E+02 4.55644E+01 0.00000E+00
 -1      1900 1.07512E+02 4.66733E+01 0.00000E+00
 -1      1901 1.09012E+02 4.66733E+01 0.00000E+00
 -1      1902 1.06800E+02 4.55644E+01 0.00000E+00
 -1      1903 1.10512E+02 4.66733E+01 0.00000E+00
 -1      1904 1.12012E+02 4.66733E+01 0.00000E+00
 -1      1905 1.09800E+02 4.55644E+01 0.00000E+00
 -1      1906 1.13512E+02 4.66733E+01 0.00000E+00
 -1      1907 1.15012E+02 4.66733E+01 0.00000E+00
 -1      1908 1.12800E+02 4.55644E+01 0.00000E+00
 -1      1909 1.16512E+02 4.66733E+01 0.00000E+00
 -1      1910 1.18012E+02 4.66733E+01 0.00000E+00
 -1      1911 1.15800E+02 4.55644E+01 0.00000E+00
 -1      1912 1.19512E+02 4.66733E+01 0.00000E+00
 -1      1913 1.21012E+02 4.66733E+01 0.00000E+00
 -1      1914 1.18800E+02 4.55644E+01 0.00000E+00
 -1      1915 1.22512E+02 4.66733E+01 0.00000E+00
 -1      1916 1.24012E+02 4.66733E+01 0.00000E+00
 -1      1917 1.21800E+02 4.55644E+01 0.00000E+00
 -1      1918 1.25512E+02 4.66733E+01 0.00000E+00
 -1      1919 1.27012E+02 4.66733E+01 0.00000E+00
 -1      1920 1.24800E+02 4.55644E+01 0.00000E+00
 -1      1921 1.28512E+02 4.66733E+01 0.00000E+00
 -1      1922 1.30012E+02 4.66733E+01 0.00000E+00
 -1      1923 1.27800E+02 4.55644E+01 0.00000E+00
 -1      1924 1.31512E+02 4.66733E+01 0.00000E+00
 -1      1925 1.33012E+02 4.66733E+01 0.00000E+00
 -1      1926 1.30800E+02 4.55644E+01 0.00000E+00
 -1      1927 1.34512E+02 4.66733E+01 0.00000E+00
 -1      1928 1.36012E+02 4.66733E+01 0.00000E+00
 -1      1929 1.33800E+02 4.55644E+01 0.00000E+00
 -1      1930 1.37512E+02 4.66733E+01 0.00000E+00
 -1      1931 1.39012E+02 4.66733E+01 0.00000E+00
 -1      1932 1.36800E+02 4.55644E+01 0.00000E+00
 -1      1933 1.40512E+02 4.66733E+01 0.00000E+00
 -1      1934 1.42012E+02 4.66733E+01 0.00000E+00
 -1      1935 1.39800E+02 4.55644E+01 0.00000E+00
 -1      1936 1.43512E+02 4.66733E+01 0.00000E+00
 -1      1937 1.45012E+02 4.66733E+01 0.00000E+00
 -1      1938 1.42800E+02 4.55644E+01 0.00000E+00
 -1      1939 1.46679E+02 4.64201E+01 0.00000E+00
 -1      1940 1.41240E+01 3.48650E+00 0.00000E+00
 -1      1941 1.26240E+01 3.48650E+00 0.00000E+00
 -1      1942 1.71240E+01 3.48650E+00 0.00000E+00
 -1      1943 1.56240E+01 3.48650E+00 0.00000E+00
 -1      1944 1.48740E+01 4.78550E+00 0.00000E+00
 -1      1945 2.01240E+01 3.48650E+00 0.00000E+00
 -1      1946 1.86240E+01 3.48650E+00 0.00000E+00
 -1      1947 1.78740E+01 4.78550E+00 0.00000E+00
 -1      1948 2.31240E+01 3.48650E+00 0.00000E+00
 -1      1949 2.16240E+01 3.48650E+00 0.00000E+00
 -1      1950 2.08740E+01 4.78550E+00 0.00000E+00
 -1      1951 2.61240E+01 3.48650E+00 0.00000E+00
 -1      1952 2.46240E+01 3.48650E+00 0.00000E+00
 -1      1953 2.38740E+01 4.78550E+00 0.00000E+00
 -1      1954 2.91240E+01 3.48650E+00 0.00000E+00
 -1      1955 2.76240E+01 3.48650E+00 0.00000E+00
 -1      1956 2.68740E+01 4.78550E+00 0.00000E+00
 -1      1957 3.21240E+01 3.48650E+00 0.00000E+00
 -1      1958 3.06240E+01 3.48650E+00 0.00000E+00
 -1      1959 2.98740E+01 4.78550E+00 0.00000E+00
 -1      1960 3.51240E+01 3.48650E+00 0.00000E+00
 -1      1961 3.36240E+01 3.48650E+00 0.00000E+00
 -1      1962 3.28740E+01 4.78550E+00 0.00000E+00
 -1      1963 3.81240E+01 3.48650E+00 0.00000E+00
 -1      1964 3.66240E+01 3.48650E+00 0.00000E+00
 -1      1965 3.58740E+01 4.78550E+00 0.00000E+00
 -1      1966 4.11240E+01 3.48650E+00 0.00000E+00
 -1      1967 3.96240E+01 3.48650E+00 0.00000E+00
 -1      1968 3.88740E+01 4.78550E+00 0.00000E+00
 -1      1969 4.41240E+01 3.48650E+00 0.00000E+00
 -1      1970 4.26240E+01 3.48650E+00 0.00000E+00
 -1      1971 4.18740E+01 4.78550E+00 0.00000E+00
 -1      1972 4.71240E+01 3.48650E+00 0.00000E+00
 -1      1973 4.56240E+01 3.48650E+00 0.00000E+00
 -1      1974 4.48740E+01 4.78550E+00 0.00000E+00
 -1      1975 5.01240E+01 3.48650E+00 0.00000E+00
 -1      1976 4.86240E+01 3.48650E+00 0.00000E+00
 -1      1977 4.78740E+01 4.78550E+00 0.00000E+00
 -1      1978 5.31240E+01 3.48650E+00 0.00000E+00
 -1      1979 5.16240E+01 3.48650E+00 0.00000E+00
 -1      1980 5.08740E+01 4.78550E+00 0.00000E+00
 -1      1981 5.61240E+01 3.48650E+00 0.00000E+00
 -1      1982 5.46240E+01 3.48650E+00 0.00000E+00
 -1      1983 5.38740E+01 4.78550E+00 0.00000E+00
 -1      1984 5.91240E+01 3.48650E+00 0.00000E+00
 -1      1985 5.76240E+01 3.48650E+00 0.00000E+00
 -1      1986 5.68740E+01 4.78550E+00 0.00000E+00
 -1      1987 6.21240E+01 3.48650E+00 0.00000E+00
 -1      1988 6.06240E+01 3.48650E+00 0.00000E+00
 -1      1989 5.98740E+01 4.78550E+00 0.00000E+00
 -1      1990 6.51240E+01 3.48650E+00 0.00000E+00
 -1      1991 6.36240E+01 3.48650E+00 0.00000E+00
 -1      1992 6.28740E+01 4.78550E+00 0.00000E+00
 -1      1993 6.81240E+01 3.48650E+00 0.00000E+00
 -1      1994 6.66240E+01 3.48650E+00 0.00000E+00
 -1      1995 6.58740E+01 4.78550E+00 0.00000E+00
 -1      1996 7.11240E+01 3.48650E+00 0.00000E+00
 -1      1997 6.96240E+01 3.48650E+00 0.00000E+00
 -1      1998 6.88740E+01 4.78550E+00 0.00000E+00
 -1      1999 7.41240E+01 3.48650E+00 0.00000E+00
 -1      2000 7.26240E+01 3.48650E+00 0.00000E+00
 -1      2001 7.18740E+01 4.78550E+00 0.00000E+00
 -1      2002 7.71240E+01 3.48650E+00 0.00000E+00
 -1      2003 7.56240E+01 3.48650E+00 0.00000E+00
 -1      2004 7.48740E+01 4.78550E+00 0.00000E+00
 -1      2005 8.01240E+01 3.48650E+00 0.00000E+00
 -1      2006 7.86240E+01 3.48650E+00 0.00000E+00
 -1      2007 7.78740E+01 4.78550E+00 0.00000E+00
 -1      2008 8.31240E+01 3.48650E+00 0.00000E+00
 -1      2009 8.16240E+01 3.48650E+00 0.00000E+00
 -1      2010 8.08740E+01 4.78550E+00 0.00000E+00
 -1      2011 8.61240E+01 3.48650E+00 0.00000E+00
 -1      2012 8.46240E+01 3.48650E+00 0.00000E+00
 -1      2013 8.38740E+01 4.78550E+00 0.00000E+00
 -1      2014 8.91240E+01 3.48650E+00 0.00000E+00
 -1      2015 8.76240E+01 3.48650E+00 0.00000E+00
 -1      2016 8.68740E+01 4.78550E+00 0.00000E+00
 -1      2017 9.21240E+01 3.48650E+00 0.00000E+00
 -1      2018 9.06240E+01 3.48650E+00 0.00000E+00
 -1      2019 8.98740E+01 4.78550E+00 0.00000E+00
 -1      2020 9.51240E+01 3.48650E+00 0.00000E+00
 -1      2021 9.36240E+01 3.48650E+00 0.00000E+00
 -1      2022 9.28740E+01 4.78550E+00 0.00000E+00
 -1      2023 9.81240E+01 3.48650E+00 0.00000E+00
 -1      2024 9.66240E+01 3.48650E+00 0.00000E+00
 -1      2025 9.58740E+01 4.78550E+00 0.00000E+00
 -1      2026 1.01124E+02 3.48650E+00 0.00000E+00
 -1      2027 9.96240E+01 3.48650E+00 0.00000E+00
 -1      2028 9.88740E+01 4.78550E+00 0.00000E+00
 -1      2029 1.04124E+02 3.48650E+00 0.00000E+00
 -1      2030 1.02624E+02 3.48650E+00 0.00000E+00
 -1      2031 1.01874E+02 4.78550E+00 0.00000E+00
 -1      2032 1.07124E+02 3.48650E+00 0.00000E+00
 -1      2033 1.05624E+02 3.48650E+00 0.00000E+00
 -1      2034 1.04874E+02 4.78550E+00 0.00000E+00
 -1      2035 1.10124E+02 3.48650E+00 0.00000E+00
 -1      2036 1.08624E+02 3.48650E+00 0.00000E+00
 -1      2037 1.07874E+02 4.78550E+00 0.00000E+00
 -1      2038 1.13124E+02 3.48650E+00 0.00000E+00
 -1      2039 1.11624E+02 3.48650E+00 0.00000E+00
 -1      2040 1.10874E+02 4.78550E+00 0.00000E+00
 -1      2041 1.16124E+02 3.48650E+00 0.00000E+00
 -1      2042 1.14624E+02 3.48650E+00 0.00000E+00
 -1      2043 1.13874E+02 4.78550E+00 0.00000E+00
 -1      2044 1.19124E+02 3.48650E+00 0.00000E+00
 -1      2045 1.17624E+02 3.48650E+00 0.00000E+00
 -1      2046 1.16874E+02 4.78550E+00 0.00000E+00
 -1      2047 1.22124E+02 3.48650E+00 0.00000E+00
 -1      2048 1.20624E+02 3.48650E+00 0.00000E+00
 -1      2049 1.19874E+02 4.78550E+00 0.00000E+00
 -1      2050 1.25124E+02 3.48650E+00 0.00000E+00
 -1      2051 1.23624E+02 3.48650E+00 0.00000E+00
 -1      2052 1.22874E+02 4.78550E+00 0.00000E+00
 -1      2053 1.28124E+02 3.48650E+00 0.00000E+00
 -1      2054 1.26624E+02 3.48650E+00 0.00000E+00
 -1      2055 1.25874E+02 4.78550E+00 0.00000E+00
 -1      2056 1.31124E+02 3.48650E+00 0.00000E+00
 -1      2057 1.29624E+02 3.48650E+00 0.00000E+00
 -1      2058 1.28874E+02 4.78550E+00 0.00000E+00
 -1      2059 1.34124E+02 3.48650E+00 0.00000E+00
 -1      2060 1.32624E+02 3.48650E+00 0.00000E+00
 -1      2061 1.31874E+02 4.78550E+00 0.00000E+00
 -1      2062 1.37124E+02 3.48650E+00 0.00000E+00
 -1      2063 1.35624E+02 3.48650E+00 0.00000E+00
 -1      2064 1.34874E+02 4.78550E+00 0.00000E+00
 -1      2065 1.40124E+02 3.48650E+00 0.00000E+00
 -1      2066 1.38624E+02 3.48650E+00 0.00000E+00
 -1      2067 1.37874E+02 4.78550E+00 0.00000E+00
 -1      2068 1.43124E+02 3.48650E+00 0.00000E+00
 -1      2069 1.41624E+02 3.48650E+00 0.00000E+00
 -1      2070 1.40874E+02 4.78550E+00 0.00000E+00
 -1      2071 1.45881E+02 3.39637E+00 0.00000E+00
 -1      2072 1.44381E+02 3.39637E+00 0.00000E+00
 -1      2073 1.43631E+02 4.69537E+00 0.00000E+00
 -1      2074 1.46145E+02 4.51512E+00 0.00000E+00
 -1      2075 1.46103E+02 1.25375E+01 0.00000E+00
 -1      2076 1.46103E+02 1.10625E+01 0.00000E+00
 -1      2077 1.46103E+02 9.58750E+00 0.00000E+00
 -1      2078 1.46103E+02 8.11250E+00 0.00000E+00
 -1      2079 1.44804E+02 1.03250E+01 0.00000E+00
 -1      2080 1.46145E+02 5.99013E+00 0.00000E+00
 -1      2081 1.46103E+02 1.54375E+01 0.00000E+00
 -1      2082 1.46103E+02 1.39875E+01 0.00000E+00
 -1      2083 1.44804E+02 1.32500E+01 0.00000E+00
 -1      2084 1.46103E+02 1.83875E+01 0.00000E+00
 -1      2085 1.46103E+02 1.69125E+01 0.00000E+00
 -1      2086 1.44804E+02 1.61750E+01 0.00000E+00
 -1      2087 1.46103E+02 2.13375E+01 0.00000E+00
 -1      2088 1.46103E+02 1.98625E+01 0.00000E+00
 -1      2089 1.44804E+02 1.91250E+01 0.00000E+00
 -1      2090 1.46103E+02 2.42875E+01 0.00000E+00
 -1      2091 1.46103E+02 2.28125E+01 0.00000E+00
 -1      2092 1.44804E+02 2.20750E+01 0.00000E+00
 -1      2093 1.46103E+02 2.72375E+01 0.00000E+00
 -1      2094 1.46103E+02 2.57625E+01 0.00000E+00
 -1      2095 1.44804E+02 2.50250E+01 0.00000E+00
 -1      2096 1.46103E+02 3.01875E+01 0.00000E+00
 -1      2097 1.46103E+02 2.87125E+01 0.00000E+00
 -1      2098 1.44804E+02 2.79750E+01 0.00000E+00
 -1      2099 1.46103E+02 3.30875E+01 0.00000E+00
 -1      2100 1.46103E+02 3.16375E+01 0.00000E+00
 -1      2101 1.44804E+02 3.09000E+01 0.00000E+00
 -1      2102 1.46103E+02 3.60375E+01 0.00000E+00
 -1      2103 1.46103E+02 3.45625E+01 0.00000E+00
 -1      2104 1.44804E+02 3.38250E+01 0.00000E+00
 -1      2105 1.46103E+02 3.89875E+01 0.00000E+00
 -1      2106 1.46103E+02 3.75125E+01 0.00000E+00
 -1      2107 1.44804E+02 3.67750E+01 0.00000E+00
 -1      2108 1.46103E+02 4.19375E+01 0.00000E+00
 -1      2109 1.46103E+02 4.04625E+01 0.00000E+00
 -1      2110 1.44804E+02 3.97250E+01 0.00000E+00
 -1      2111 1.14143E+01 3.29169E+00 0.00000E+00
 -1      2112 9.91425E+00 3.29169E+00 0.00000E+00
 -1      2113 9.74475E+00 4.20106E+00 0.00000E+00
 -1      2114 1.21643E+01 4.59069E+00 0.00000E+00
 -1      2115 3.31316E+01 3.19154E+01 0.00000E+00
 -1      2116 3.35106E+01 3.26733E+01 0.00000E+00
 -1      2117 3.07760E+01 2.89558E+01 0.00000E+00
 -1      2118 3.14746E+01 2.94789E+01 0.00000E+00
 -1      2119 3.42721E+01 3.55123E+01 0.00000E+00
 -1      2120 3.42301E+01 3.63864E+01 0.00000E+00
 -1      2121 2.25750E+01 4.69665E+01 0.00000E+00
 -1      2122 2.37750E+01 4.69665E+01 0.00000E+00
 -1      2123 3.89700E+00 3.74688E+01 0.00000E+00
 -1      2124 3.89700E+00 3.89437E+01 0.00000E+00
 -1      2125 5.19600E+00 3.96813E+01 0.00000E+00
 -1      2126 5.19600E+00 3.67438E+01 0.00000E+00
 -1      2127 2.49562E+01 4.69456E+01 0.00000E+00
 -1      2128 2.61563E+01 4.69456E+01 0.00000E+00
 -1      2129 2.67188E+01 4.60880E+01 0.00000E+00
 -1      2130 2.43563E+01 4.61299E+01 0.00000E+00
 -1      2131 2.93359E+01 2.81131E+01 0.00000E+00
 -1      2132 3.00560E+01 2.85344E+01 0.00000E+00
 -1      2133 3.08691E+01 2.81766E+01 0.00000E+00
 -1      2134 2.76044E+01 2.73428E+01 0.00000E+00
 -1      2135 2.83822E+01 2.76063E+01 0.00000E+00
 -1      2136 2.58850E+01 2.70076E+01 0.00000E+00
 -1      2137 2.66922E+01 2.71515E+01 0.00000E+00
 -1      2138 2.40533E+01 2.69214E+01 0.00000E+00
 -1      2139 2.49042E+01 2.68956E+01 0.00000E+00
 -1      2140 2.21746E+01 2.74153E+01 0.00000E+00
 -1      2141 2.29588E+01 2.71047E+01 0.00000E+00
 -1      2142 2.07515E+01 2.81591E+01 0.00000E+00
 -1      2143 2.14631E+01 2.77872E+01 0.00000E+00
 -1      2144 2.15547E+01 2.68736E+01 0.00000E+00
 -1      2145 1.92719E+01 2.93100E+01 0.00000E+00
 -1      2146 1.99074E+01 2.87946E+01 0.00000E+00
 -1      2147 1.80543E+01 3.05401E+01 0.00000E+00
 -1      2148 1.86631E+01 2.99250E+01 0.00000E+00
 -1      2149 1.85462E+01 2.91314E+01 0.00000E+00
 -1      2150 1.67143E+01 3.20785E+01 0.00000E+00
 -1      2151 1.72926E+01 3.12927E+01 0.00000E+00
 -1      2152 1.63843E+01 3.43297E+01 0.00000E+00
 -1      2153 1.63725E+01 3.33854E+01 0.00000E+00
 -1      2154 1.63242E+01 3.59457E+01 0.00000E+00
 -1      2155 1.63543E+01 3.51377E+01 0.00000E+00
 -1      2156 1.57003E+01 3.46736E+01 0.00000E+00
 -1      2157 1.62666E+01 3.77431E+01 0.00000E+00
 -1      2158 1.62811E+01 3.68468E+01 0.00000E+00
 -1      2159 1.70038E+01 3.97441E+01 0.00000E+00
 -1      2160 1.65306E+01 3.89906E+01 0.00000E+00
 -1      2161 1.78049E+01 4.12452E+01 0.00000E+00
 -1      2162 1.74044E+01 4.04946E+01 0.00000E+00
 -1      2163 1.65125E+01 4.05294E+01 0.00000E+00
 -1      2164 1.92285E+01 4.26895E+01 0.00000E+00
 -1      2165 1.85321E+01 4.21263E+01 0.00000E+00
 -1      2166 2.07177E+01 4.38019E+01 0.00000E+00
 -1      2167 1.99731E+01 4.32457E+01 0.00000E+00
 -1      2168 1.91120E+01 4.35983E+01 0.00000E+00
 -1      2169 2.27084E+01 4.44619E+01 0.00000E+00
 -1      2170 2.18320E+01 4.42009E+01 0.00000E+00
 -1      2171 2.41408E+01 4.52012E+01 0.00000E+00
 -1      2172 2.32533E+01 4.50611E+01 0.00000E+00
 -1      2173 2.61871E+01 4.50109E+01 0.00000E+00
 -1      2174 2.53221E+01 4.51803E+01 0.00000E+00
 -1      2175 2.81652E+01 4.47329E+01 0.00000E+00
 -1      2176 2.73683E+01 4.49899E+01 0.00000E+00
 -1      2177 2.98703E+01 4.33728E+01 0.00000E+00
 -1      2178 2.91380E+01 4.37898E+01 0.00000E+00
 -1      2179 3.13193E+01 4.23090E+01 0.00000E+00
 -1      2180 3.06572E+01 4.28387E+01 0.00000E+00
 -1      2181 3.25918E+01 4.09067E+01 0.00000E+00
 -1      2182 3.20344E+01 4.15953E+01 0.00000E+00
 -1      2183 3.34610E+01 3.91011E+01 0.00000E+00
 -1      2184 3.31713E+01 3.99444E+01 0.00000E+00
 -1      2185 3.39835E+01 3.74458E+01 0.00000E+00
 -1      2186 3.37223E+01 3.82734E+01 0.00000E+00
 -1      2187 3.42696E+01 3.89329E+01 0.00000E+00
 -1      2188 3.37667E+01 3.34932E+01 0.00000E+00
 -1      2189 3.40228E+01 3.43131E+01 0.00000E+00
 -1      2190 3.42692E+01 3.27682E+01 0.00000E+00
 -1      2191 2.91375E+01 4.58995E+01 0.00000E+00
 -1      2192 2.20090E+01 4.59388E+01 0.00000E+00
 -1      2193 3.34686E+01 3.12077E+01 0.00000E+00
 -1      2194 1.92715E+01 4.52654E+01 0.00000E+00
 -1      2195 6.42300E+00 4.57510E+01 0.00000E+00
 -1      2196 7.17300E+00 4.44520E+01 0.00000E+00
 -1      2197 3.22566E+01 2.95326E+01 0.00000E+00
 -1      2198 2.91953E+01 2.72485E+01 0.00000E+00
 -1      2199 3.17625E+01 4.56481E+01 0.00000E+00
 -1      2200 1.45966E+02 4.53112E+01 0.00000E+00
 -1      2201 1.44846E+02 6.72762E+00 0.00000E+00
 -1      2202 3.47747E+01 3.47873E+01 0.00000E+00
 -1      2203 1.46092E+02 4.42201E+01 0.00000E+00
 -1      2204 1.45977E+02 4.30286E+01 0.00000E+00
 -1      2205 1.44678E+02 4.22911E+01 0.00000E+00
 -1      2206 1.44426E+02 4.44733E+01 0.00000E+00
 -1      2207 3.47774E+01 3.70459E+01 0.00000E+00
 -1      2208 3.34289E+01 4.07228E+01 0.00000E+00
 -1      2209 3.21343E+01 4.23989E+01 0.00000E+00
 -1      2210 3.06324E+01 4.36468E+01 0.00000E+00
 -1      2211 2.09709E+01 4.45536E+01 0.00000E+00
 -1      2212 1.76402E+01 4.21610E+01 0.00000E+00
 -1      2213 1.56271E+01 3.63828E+01 0.00000E+00
 -1      2214 1.71757E+01 3.04991E+01 0.00000E+00
 -1      2215 1.99991E+01 2.78809E+01 0.00000E+00
 -1      2216 2.33608E+01 2.63184E+01 0.00000E+00
 -1      2217 2.54362E+01 2.62470E+01 0.00000E+00
 -1      2218 2.73293E+01 2.65503E+01 0.00000E+00
 -1      2219 1.60722E+01 3.25587E+01 0.00000E+00
 -1      2220 1.57719E+01 3.17320E+01 0.00000E+00
 -1      2221 1.54300E+01 3.30389E+01 0.00000E+00
 -1      2222 1.58479E+01 3.85313E+01 0.00000E+00
 -1      2223 1.51652E+01 3.80721E+01 0.00000E+00
 -1      2224 1.54292E+01 3.93196E+01 0.00000E+00
 -1      2225 6.38870E+00 3.01125E+01 0.00000E+00
 -1      2226 6.38870E+00 3.15875E+01 0.00000E+00
 -1      2227 6.38870E+00 3.30625E+01 0.00000E+00
 -1      2228 6.38870E+00 3.45375E+01 0.00000E+00
 -1      2229 7.58140E+00 3.23250E+01 0.00000E+00
 -1      2230 6.49500E+00 2.42125E+01 0.00000E+00
 -1      2231 6.49500E+00 2.56875E+01 0.00000E+00
 -1      2232 6.49500E+00 2.12625E+01 0.00000E+00
 -1      2233 6.49500E+00 2.27375E+01 0.00000E+00
 -1      2234 7.79400E+00 2.34750E+01 0.00000E+00
 -1      2235 6.49500E+00 1.83625E+01 0.00000E+00
 -1      2236 6.49500E+00 1.98125E+01 0.00000E+00
 -1      2237 7.79400E+00 2.05500E+01 0.00000E+00
 -1      2238 6.49500E+00 1.54125E+01 0.00000E+00
 -1      2239 6.49500E+00 1.68875E+01 0.00000E+00
 -1      2240 7.79400E+00 1.76250E+01 0.00000E+00
 -1      2241 6.49500E+00 1.24625E+01 0.00000E+00
 -1      2242 6.49500E+00 1.39375E+01 0.00000E+00
 -1      2243 7.79400E+00 1.46750E+01 0.00000E+00
 -1      2244 6.49500E+00 9.51250E+00 0.00000E+00
 -1      2245 6.49500E+00 1.09875E+01 0.00000E+00
 -1      2246 7.79400E+00 1.17250E+01 0.00000E+00
 -1      2247 6.49500E+00 6.56250E+00 0.00000E+00
 -1      2248 6.49500E+00 8.03750E+00 0.00000E+00
 -1      2249 7.79400E+00 8.77500E+00 0.00000E+00
 -1      2250 6.84975E+00 4.82969E+00 0.00000E+00
 -1      2251 6.68025E+00 5.73906E+00 0.00000E+00
 -1      2252 7.97925E+00 6.47656E+00 0.00000E+00
 -1      2253 8.34975E+00 4.82969E+00 0.00000E+00
 -1      2254 3.26207E+01 2.85669E+01 0.00000E+00
 -1      2255 3.32882E+01 2.95014E+01 0.00000E+00
 -1      2256 9.90000E+00 4.35050E+01 0.00000E+00
 -1      2257 1.14000E+01 4.35050E+01 0.00000E+00
 -1      2258 1.29000E+01 4.35050E+01 0.00000E+00
 -1      2259 1.44000E+01 4.35050E+01 0.00000E+00
 -1      2260 1.21500E+01 4.22060E+01 0.00000E+00
 -1      2261 6.55950E+00 4.28890E+01 0.00000E+00
 -1      2262 8.53650E+00 4.32410E+01 0.00000E+00
 -1      2263 9.28650E+00 4.19420E+01 0.00000E+00
 -1      2264 6.55950E+00 4.14140E+01 0.00000E+00
 -1      2265 1.43589E+02 6.81775E+00 0.00000E+00
 -1      2266 3.69000E+01 4.42879E+01 0.00000E+00
 -1      2267 3.84000E+01 4.42879E+01 0.00000E+00
 -1      2268 3.99000E+01 4.42879E+01 0.00000E+00
 -1      2269 4.14000E+01 4.42879E+01 0.00000E+00
 -1      2270 3.91500E+01 4.30114E+01 0.00000E+00
 -1      2271 4.29000E+01 4.42879E+01 0.00000E+00
 -1      2272 4.44000E+01 4.42879E+01 0.00000E+00
 -1      2273 4.21500E+01 4.30114E+01 0.00000E+00
 -1      2274 4.59000E+01 4.42879E+01 0.00000E+00
 -1      2275 4.74000E+01 4.42879E+01 0.00000E+00
 -1      2276 4.51500E+01 4.30114E+01 0.00000E+00
 -1      2277 4.89000E+01 4.42879E+01 0.00000E+00
 -1      2278 5.04000E+01 4.42879E+01 0.00000E+00
 -1      2279 4.81500E+01 4.30114E+01 0.00000E+00
 -1      2280 5.19000E+01 4.42879E+01 0.00000E+00
 -1      2281 5.34000E+01 4.42879E+01 0.00000E+00
 -1      2282 5.11500E+01 4.30114E+01 0.00000E+00
 -1      2283 5.49000E+01 4.42879E+01 0.00000E+00
 -1      2284 5.64000E+01 4.42879E+01 0.00000E+00
 -1      2285 5.41500E+01 4.30114E+01 0.00000E+00
 -1      2286 5.79000E+01 4.42879E+01 0.00000E+00
 -1      2287 5.94000E+01 4.42879E+01 0.00000E+00
 -1      2288 5.71500E+01 4.30114E+01 0.00000E+00
 -1      2289 6.09000E+01 4.42879E+01 0.00000E+00
 -1      2290 6.24000E+01 4.42879E+01 0.00000E+00
 -1      2291 6.01500E+01 4.30114E+01 0.00000E+00
 -1      2292 6.39000E+01 4.42879E+01 0.00000E+00
 -1      2293 6.54000E+01 4.42879E+01 0.00000E+00
 -1      2294 6.31500E+01 4.30114E+01 0.00000E+00
 -1      2295 6.69750E+01 4.42879E+01 0.00000E+00
 -1      2296 6.85500E+01 4.42879E+01 0.00000E+00
 -1      2297 6.62250E+01 4.30114E+01 0.00000E+00
 -1      2298 7.00500E+01 4.42879E+01 0.00000E+00
 -1      2299 7.15500E+01 4.42879E+01 0.00000E+00
 -1      2300 6.93000E+01 4.30114E+01 0.00000E+00
 -1      2301 7.30500E+01 4.42879E+01 0.00000E+00
 -1      2302 7.45500E+01 4.42879E+01 0.00000E+00
 -1      2303 7.23000E+01 4.30114E+01 0.00000E+00
 -1      2304 7.60500E+01 4.42879E+01 0.00000E+00
 -1      2305 7.75500E+01 4.42879E+01 0.00000E+00
 -1      2306 7.53000E+01 4.30114E+01 0.00000E+00
 -1      2307 7.90500E+01 4.42879E+01 0.00000E+00
 -1      2308 8.05500E+01 4.42879E+01 0.00000E+00
 -1      2309 7.83000E+01 4.30114E+01 0.00000E+00
 -1      2310 8.20500E+01 4.42879E+01 0.00000E+00
 -1      2311 8.35500E+01 4.42879E+01 0.00000E+00
 -1      2312 8.13000E+01 4.30114E+01 0.00000E+00
 -1      2313 8.50500E+01 4.42879E+01 0.00000E+00
 -1      2314 8.65500E+01 4.42879E+01 0.00000E+00
 -1      2315 8.43000E+01 4.30114E+01 0.00000E+00
 -1      2316 8.80500E+01 4.42879E+01 0.00000E+00
 -1      2317 8.95500E+01 4.42879E+01 0.00000E+00
 -1      2318 8.73000E+01 4.30114E+01 0.00000E+00
 -1      2319 9.10500E+01 4.42879E+01 0.00000E+00
 -1      2320 9.25500E+01 4.42879E+01 0.00000E+00
 -1      2321 9.03000E+01 4.30114E+01 0.00000E+00
 -1      2322 9.40500E+01 4.42879E+01 0.00000E+00
 -1      2323 9.55500E+01 4.42879E+01 0.00000E+00
 -1      2324 9.33000E+01 4.30114E+01 0.00000E+00
 -1      2325 9.70500E+01 4.42879E+01 0.00000E+00
 -1      2326 9.85500E+01 4.42879E+01 0.00000E+00
 -1      2327 9.63000E+01 4.30114E+01 0.00000E+00
 -1      2328 1.00050E+02 4.42879E+01 0.00000E+00
 -1      2329 1.01550E+02 4.42879E+01 0.00000E+00
 -1      2330 9.93000E+01 4.30114E+01 0.00000E+00
 -1      2331 1.03050E+02 4.42879E+01 0.00000E+00
 -1      2332 1.04550E+02 4.42879E+01 0.00000E+00
 -1      2333 1.02300E+02 4.30114E+01 0.00000E+00
 -1      2334 1.06050E+02 4.42879E+01 0.00000E+00
 -1      2335 1.07550E+02 4.42879E+01 0.00000E+00
 -1      2336 1.05300E+02 4.30114E+01 0.00000E+00
 -1      2337 1.09050E+02 4.42879E+01 0.00000E+00
 -1      2338 1.10550E+02 4.42879E+01 0.00000E+00
 -1      2339 1.08300E+02 4.30114E+01 0.00000E+00
 -1      2340 1.12050E+02 4.42879E+01 0.00000E+00
 -1      2341 1.13550E+02 4.42879E+01 0.00000E+00
 -1      2342 1.11300E+02 4.30114E+01 0.00000E+00
 -1      2343 1.15050E+02 4.42879E+01 0.00000E+00
 -1      2344 1.16550E+02 4.42879E+01 0.00000E+00
 -1      2345 1.14300E+02 4.30114E+01 0.00000E+00
 -1      2346 1.18050E+02 4.42879E+01 0.00000E+00
 -1      2347 1.19550E+02 4.42879E+01 0.00000E+00
 -1      2348 1.17300E+02 4.30114E+01 0.00000E+00
 -1      2349 1.21050E+02 4.42879E+01 0.00000E+00
 -1      2350 1.22550E+02 4.42879E+01 0.00000E+00
 -1      2351 1.20300E+02 4.30114E+01 0.00000E+00
 -1      2352 1.24050E+02 4.42879E+01 0.00000E+00
 -1      2353 1.25550E+02 4.42879E+01 0.00000E+00
 -1      2354 1.23300E+02 4.30114E+01 0.00000E+00
 -1      2355 1.27050E+02 4.42879E+01 0.00000E+00
 -1      2356 1.28550E+02 4.42879E+01 0.00000E+00
 -1      2357 1.26300E+02 4.30114E+01 0.00000E+00
 -1      2358 1.30050E+02 4.42879E+01 0.00000E+00
 -1      2359 1.31550E+02 4.42879E+01 0.00000E+00
 -1      2360 1.29300E+02 4.30114E+01 0.00000E+00
 -1      2361 1.33050E+02 4.42879E+01 0.00000E+00
 -1      2362 1.34550E+02 4.42879E+01 0.00000E+00
 -1      2363 1.32300E+02 4.30114E+01 0.00000E+00
 -1      2364 1.36050E+02 4.42879E+01 0.00000E+00
 -1      2365 1.37550E+02 4.42879E+01 0.00000E+00
 -1      2366 1.35300E+02 4.30114E+01 0.00000E+00
 -1      2367 1.39050E+02 4.42879E+01 0.00000E+00
 -1      2368 1.40550E+02 4.42879E+01 0.00000E+00
 -1      2369 1.38300E+02 4.30114E+01 0.00000E+00
 -1      2370 1.41738E+02 4.43806E+01 0.00000E+00
 -1      2371 1.43238E+02 4.43806E+01 0.00000E+00
 -1      2372 1.43364E+02 4.32895E+01 0.00000E+00
 -1      2373 1.40988E+02 4.31041E+01 0.00000E+00
 -1      2374 2.16240E+01 6.08450E+00 0.00000E+00
 -1      2375 2.01240E+01 6.08450E+00 0.00000E+00
 -1      2376 1.86240E+01 6.08450E+00 0.00000E+00
 -1      2377 1.71240E+01 6.08450E+00 0.00000E+00
 -1      2378 1.93740E+01 7.38350E+00 0.00000E+00
 -1      2379 1.56240E+01 6.08450E+00 0.00000E+00
 -1      2380 1.41240E+01 6.08450E+00 0.00000E+00
 -1      2381 1.63740E+01 7.38350E+00 0.00000E+00
 -1      2382 2.46240E+01 6.08450E+00 0.00000E+00
 -1      2383 2.31240E+01 6.08450E+00 0.00000E+00
 -1      2384 2.23740E+01 7.38350E+00 0.00000E+00
 -1      2385 2.76240E+01 6.08450E+00 0.00000E+00
 -1      2386 2.61240E+01 6.08450E+00 0.00000E+00
 -1      2387 2.53740E+01 7.38350E+00 0.00000E+00
 -1      2388 3.06240E+01 6.08450E+00 0.00000E+00
 -1      2389 2.91240E+01 6.08450E+00 0.00000E+00
 -1      2390 2.83740E+01 7.38350E+00 0.00000E+00
 -1      2391 3.36240E+01 6.08450E+00 0.00000E+00
 -1      2392 3.21240E+01 6.08450E+00 0.00000E+00
 -1      2393 3.13740E+01 7.38350E+00 0.00000E+00
 -1      2394 3.66240E+01 6.08450E+00 0.00000E+00
 -1      2395 3.51240E+01 6.08450E+00 0.00000E+00
 -1      2396 3.43740E+01 7.38350E+00 0.00000E+00
 -1      2397 3.96240E+01 6.08450E+00 0.00000E+00
 -1      2398 3.81240E+01 6.08450E+00 0.00000E+00
 -1      2399 3.73740E+01 7.38350E+00 0.00000E+00
 -1      2400 4.26240E+01 6.08450E+00 0.00000E+00
 -1      2401 4.11240E+01 6.08450E+00 0.00000E+00
 -1      2402 4.03740E+01 7.38350E+00 0.00000E+00
 -1      2403 4.56240E+01 6.08450E+00 0.00000E+00
 -1      2404 4.41240E+01 6.08450E+00 0.00000E+00
 -1      2405 4.33740E+01 7.38350E+00 0.00000E+00
 -1      2406 4.86240E+01 6.08450E+00 0.00000E+00
 -1      2407 4.71240E+01 6.08450E+00 0.00000E+00
 -1      2408 4.63740E+01 7.38350E+00 0.00000E+00
 -1      2409 5.16240E+01 6.08450E+00 0.00000E+00
 -1      2410 5.01240E+01 6.08450E+00 0.00000E+00
 -1      2411 4.93740E+01 7.38350E+00 0.00000E+00
 -1      2412 5.46240E+01 6.08450E+00 0.00000E+00
 -1      2413 5.31240E+01 6.08450E+00 0.00000E+00
 -1      2414 5.23740E+01 7.38350E+00 0.00000E+00
 -1      2415 5.76240E+01 6.08450E+00 0.00000E+00
 -1      2416 5.61240E+01 6.08450E+00 0.00000E+00
 -1      2417 5.53740E+01 7.38350E+00 0.00000E+00
 -1      2418 6.06240E+01 6.08450E+00 0.00000E+00
 -1      2419 5.91240E+01 6.08450E+00 0.00000E+00
 -1      2420 5.83740E+01 7.38350E+00 0.00000E+00
 -1      2421 6.36240E+01 6.08450E+00 0.00000E+00
 -1      2422 6.21240E+01 6.08450E+00 0.00000E+00
 -1      2423 6.13740E+01 7.38350E+00 0.00000E+00
 -1      2424 6.66240E+01 6.08450E+00 0.00000E+00
 -1      2425 6.51240E+01 6.08450E+00 0.00000E+00
 -1      2426 6.43740E+01 7.38350E+00 0.00000E+00
 -1      2427 6.96240E+01 6.08450E+00 0.00000E+00
 -1      2428 6.81240E+01 6.08450E+00 0.00000E+00
 -1      2429 6.73740E+01 7.38350E+00 0.00000E+00
 -1      2430 7.26240E+01 6.08450E+00 0.00000E+00
 -1      2431 7.11240E+01 6.08450E+00 0.00000E+00
 -1      2432 7.03740E+01 7.38350E+00 0.00000E+00
 -1      2433 7.56240E+01 6.08450E+00 0.00000E+00
 -1      2434 7.41240E+01 6.08450E+00 0.00000E+00
 -1      2435 7.33740E+01 7.38350E+00 0.00000E+00
 -1      2436 7.86240E+01 6.08450E+00 0.00000E+00
 -1      2437 7.71240E+01 6.08450E+00 0.00000E+00
 -1      2438 7.63740E+01 7.38350E+00 0.00000E+00
 -1      2439 8.16240E+01 6.08450E+00 0.00000E+00
 -1      2440 8.01240E+01 6.08450E+00 0.00000E+00
 -1      2441 7.93740E+01 7.38350E+00 0.00000E+00
 -1      2442 8.46240E+01 6.08450E+00 0.00000E+00
 -1      2443 8.31240E+01 6.08450E+00 0.00000E+00
 -1      2444 8.23740E+01 7.38350E+00 0.00000E+00
 -1      2445 8.76240E+01 6.08450E+00 0.00000E+00
 -1      2446 8.61240E+01 6.08450E+00 0.00000E+00
 -1      2447 8.53740E+01 7.38350E+00 0.00000E+00
 -1      2448 9.06240E+01 6.08450E+00 0.00000E+00
 -1      2449 8.91240E+01 6.08450E+00 0.00000E+00
 -1      2450 8.83740E+01 7.38350E+00 0.00000E+00
 -1      2451 9.36240E+01 6.08450E+00 0.00000E+00
 -1      2452 9.21240E+01 6.08450E+00 0.00000E+00
 -1      2453 9.13740E+01 7.38350E+00 0.00000E+00
 -1      2454 9.66240E+01 6.08450E+00 0.00000E+00
 -1      2455 9.51240E+01 6.08450E+00 0.00000E+00
 -1      2456 9.43740E+01 7.38350E+00 0.00000E+00
 -1      2457 9.96240E+01 6.08450E+00 0.00000E+00
 -1      2458 9.81240E+01 6.08450E+00 0.00000E+00
 -1      2459 9.73740E+01 7.38350E+00 0.00000E+00
 -1      2460 1.02624E+02 6.08450E+00 0.00000E+00
 -1      2461 1.01124E+02 6.08450E+00 0.00000E+00
 -1      2462 1.00374E+02 7.38350E+00 0.00000E+00
 -1      2463 1.05624E+02 6.08450E+00 0.00000E+00
 -1      2464 1.04124E+02 6.08450E+00 0.00000E+00
 -1      2465 1.03374E+02 7.38350E+00 0.00000E+00
 -1      2466 1.08624E+02 6.08450E+00 0.00000E+00
 -1      2467 1.07124E+02 6.08450E+00 0.00000E+00
 -1      2468 1.06374E+02 7.38350E+00 0.00000E+00
 -1      2469 1.11624E+02 6.08450E+00 0.00000E+00
 -1      2470 1.10124E+02 6.08450E+00 0.00000E+00
 -1      2471 1.09374E+02 7.38350E+00 0.00000E+00
 -1      2472 1.14624E+02 6.08450E+00 0.00000E+00
 -1      2473 1.13124E+02 6.08450E+00 0.00000E+00
 -1      2474 1.12374E+02 7.38350E+00 0.00000E+00
 -1      2475 1.17624E+02 6.08450E+00 0.00000E+00
 -1      2476 1.16124E+02 6.08450E+00 0.00000E+00
 -1      2477 1.15374E+02 7.38350E+00 0.00000E+00
 -1      2478 1.20624E+02 6.08450E+00 0.00000E+00
 -1      2479 1.19124E+02 6.08450E+00 0.00000E+00
 -1      2480 1.18374E+02 7.38350E+00 0.00000E+00
 -1      2481 1.23624E+02 6.08450E+00 0.00000E+00
 -1      2482 1.22124E+02 6.08450E+00 0.00000E+00
 -1      2483 1.21374E+02 7.38350E+00 0.00000E+00
 -1      2484 1.26624E+02 6.08450E+00 0.00000E+00
 -1      2485 1.25124E+02 6.08450E+00 0.00000E+00
 -1      2486 1.24374E+02 7.38350E+00 0.00000E+00
 -1      2487 1.29624E+02 6.08450E+00 0.00000E+00
 -1      2488 1.28124E+02 6.08450E+00 0.00000E+00
 -1      2489 1.27374E+02 7.38350E+00 0.00000E+00
 -1      2490 1.32624E+02 6.08450E+00 0.00000E+00
 -1      2491 1.31124E+02 6.08450E+00 0.00000E+00
 -1      2492 1.30374E+02 7.38350E+00 0.00000E+00
 -1      2493 1.35624E+02 6.08450E+00 0.00000E+00
 -1      2494 1.34124E+02 6.08450E+00 0.00000E+00
 -1      2495 1.33374E+02 7.38350E+00 0.00000E+00
 -1      2496 1.38624E+02 6.08450E+00 0.00000E+00
 -1      2497 1.37124E+02 6.08450E+00 0.00000E+00
 -1      2498 1.36374E+02 7.38350E+00 0.00000E+00
 -1      2499 1.41624E+02 6.08450E+00 0.00000E+00
 -1      2500 1.40124E+02 6.08450E+00 0.00000E+00
 -1      2501 1.39374E+02 7.38350E+00 0.00000E+00
 -1      2502 1.43505E+02 1.69125E+01 0.00000E+00
 -1      2503 1.43505E+02 1.54375E+01 0.00000E+00
 -1      2504 1.43505E+02 1.39875E+01 0.00000E+00
 -1      2505 1.43505E+02 1.25375E+01 0.00000E+00
 -1      2506 1.42206E+02 1.47250E+01 0.00000E+00
 -1      2507 1.43505E+02 1.10625E+01 0.00000E+00
 -1      2508 1.43505E+02 9.58750E+00 0.00000E+00
 -1      2509 1.42206E+02 1.18000E+01 0.00000E+00
 -1      2510 3.55716E+01 3.39961E+01 0.00000E+00
 -1      2511 3.58209E+01 3.51953E+01 0.00000E+00
 -1      2512 1.43505E+02 1.98625E+01 0.00000E+00
 -1      2513 1.43505E+02 1.83875E+01 0.00000E+00
 -1      2514 1.42206E+02 1.76500E+01 0.00000E+00
 -1      2515 1.43505E+02 2.28125E+01 0.00000E+00
 -1      2516 1.43505E+02 2.13375E+01 0.00000E+00
 -1      2517 1.42206E+02 2.06000E+01 0.00000E+00
 -1      2518 1.43505E+02 2.57625E+01 0.00000E+00
 -1      2519 1.43505E+02 2.42875E+01 0.00000E+00
 -1      2520 1.42206E+02 2.35500E+01 0.00000E+00
 -1      2521 1.43505E+02 2.87125E+01 0.00000E+00
 -1      2522 1.43505E+02 2.72375E+01 0.00000E+00
 -1      2523 1.42206E+02 2.65000E+01 0.00000E+00
 -1      2524 1.43505E+02 3.16125E+01 0.00000E+00
 -1      2525 1.43505E+02 3.01625E+01 0.00000E+00
 -1      2526 1.42206E+02 2.94250E+01 0.00000E+00
 -1      2527 1.43505E+02 3.45625E+01 0.00000E+00
 -1      2528 1.43505E+02 3.30875E+01 0.00000E+00
 -1      2529 1.42206E+02 3.23500E+01 0.00000E+00
 -1      2530 1.43505E+02 3.75125E+01 0.00000E+00
 -1      2531 1.43505E+02 3.60375E+01 0.00000E+00
 -1      2532 1.42206E+02 3.53000E+01 0.00000E+00
 -1      2533 1.43505E+02 4.04625E+01 0.00000E+00
 -1      2534 1.43505E+02 3.89875E+01 0.00000E+00
 -1      2535 1.42206E+02 3.82500E+01 0.00000E+00
 -1      2536 2.91208E+01 2.62378E+01 0.00000E+00
 -1      2537 3.00746E+01 2.67446E+01 0.00000E+00
 -1      2538 3.07946E+01 2.71660E+01 0.00000E+00
 -1      2539 3.15147E+01 2.75873E+01 0.00000E+00
 -1      2540 3.07202E+01 2.61553E+01 0.00000E+00
 -1      2541 3.43815E+01 4.06408E+01 0.00000E+00
 -1      2542 3.38020E+01 4.16032E+01 0.00000E+00
 -1      2543 2.94027E+01 4.45653E+01 0.00000E+00
 -1      2544 1.47490E+01 3.67923E+01 0.00000E+00
 -1      2545 1.47921E+01 3.58912E+01 0.00000E+00
 -1      2546 1.62510E+01 3.03251E+01 0.00000E+00
 -1      2547 1.70127E+01 2.95724E+01 0.00000E+00
 -1      2548 2.26442E+01 2.53990E+01 0.00000E+00
 -1      2549 2.37387E+01 2.52157E+01 0.00000E+00
 -1      2550 3.38327E+01 3.02420E+01 0.00000E+00
 -1      2551 3.43772E+01 3.09826E+01 0.00000E+00
 -1      2552 3.41968E+01 2.92763E+01 0.00000E+00
 -1      2553 3.57359E+01 3.67106E+01 0.00000E+00
 -1      2554 3.54893E+01 3.77700E+01 0.00000E+00
 -1      2555 6.49500E+00 2.71625E+01 0.00000E+00
 -1      2556 6.49500E+00 2.86375E+01 0.00000E+00
 -1      2557 7.79400E+00 2.64250E+01 0.00000E+00
 -1      2558 1.42839E+02 8.11675E+00 0.00000E+00
 -1      2559 2.70492E+01 2.56154E+01 0.00000E+00
 -1      2560 2.79615E+01 2.58067E+01 0.00000E+00
 -1      2561 2.50874E+01 2.53914E+01 0.00000E+00
 -1      2562 2.60683E+01 2.55034E+01 0.00000E+00
 -1      2563 2.67005E+01 2.47598E+01 0.00000E+00
 -1      2564 2.08211E+01 2.63366E+01 0.00000E+00
 -1      2565 2.15327E+01 2.59647E+01 0.00000E+00
 -1      2566 1.91330E+01 2.76076E+01 0.00000E+00
 -1      2567 1.99771E+01 2.69721E+01 0.00000E+00
 -1      2568 1.99551E+01 2.60633E+01 0.00000E+00
 -1      2569 1.76215E+01 2.89574E+01 0.00000E+00
 -1      2570 1.82303E+01 2.83424E+01 0.00000E+00
 -1      2571 1.66968E+01 2.87833E+01 0.00000E+00
 -1      2572 1.48222E+01 3.50831E+01 0.00000E+00
 -1      2573 1.48522E+01 3.42751E+01 0.00000E+00
 -1      2574 1.39440E+01 3.54926E+01 0.00000E+00
 -1      2575 1.73424E+01 4.31474E+01 0.00000E+00
 -1      2576 1.66153E+01 4.22663E+01 0.00000E+00
 -1      2577 2.26301E+01 4.55517E+01 0.00000E+00
 -1      2578 3.30977E+01 4.26490E+01 0.00000E+00
 -1      2579 3.23826E+01 4.33627E+01 0.00000E+00
 -1      2580 3.52281E+01 3.85976E+01 0.00000E+00
 -1      2581 3.49669E+01 3.94252E+01 0.00000E+00
 -1      2582 3.61866E+01 3.82623E+01 0.00000E+00
 -1      2583 3.49197E+01 3.21150E+01 0.00000E+00
 -1      2584 3.51759E+01 3.29349E+01 0.00000E+00
 -1      2585 2.14641E+01 4.53397E+01 0.00000E+00
 -1      2586 2.03498E+01 4.49407E+01 0.00000E+00
 -1      2587 7.58140E+00 3.52687E+01 0.00000E+00
 -1      2588 6.38870E+00 3.60062E+01 0.00000E+00
 -1      2589 6.38870E+00 3.74750E+01 0.00000E+00
 -1      2590 3.25463E+01 2.75562E+01 0.00000E+00
 -1      2591 3.35778E+01 2.75250E+01 0.00000E+00
 -1      2592 3.24718E+01 2.65455E+01 0.00000E+00
 -1      2593 9.55950E+00 5.02450E+00 0.00000E+00
 -1      2594 9.37425E+00 5.84794E+00 0.00000E+00
 -1      2595 1.07692E+01 5.21931E+00 0.00000E+00
 -1      2596 1.87783E+01 4.44793E+01 0.00000E+00
 -1      2597 1.82083E+01 2.74336E+01 0.00000E+00
 -1      2598 6.55950E+00 3.99453E+01 0.00000E+00
 -1      2599 1.57337E+01 4.40284E+01 0.00000E+00
 -1      2600 1.70087E+01 4.40284E+01 0.00000E+00
 -1      2601 1.41540E+02 8.85425E+00 0.00000E+00
 -1      2602 2.88407E+01 2.53028E+01 0.00000E+00
 -1      2603 3.73299E+01 3.51282E+01 0.00000E+00
 -1      2604 3.65329E+01 3.59194E+01 0.00000E+00
 -1      2605 3.72448E+01 3.66435E+01 0.00000E+00
 -1      2606 3.62221E+01 3.33429E+01 0.00000E+00
 -1      2607 3.40503E+01 4.25670E+01 0.00000E+00
 -1      2608 1.80337E+01 4.39230E+01 0.00000E+00
 -1      2609 1.49837E+01 4.27294E+01 0.00000E+00
 -1      2610 1.30515E+01 5.74931E+00 0.00000E+00
 -1      2611 1.18418E+01 5.55450E+00 0.00000E+00
 -1      2612 1.16565E+01 6.37794E+00 0.00000E+00
 -1      2613 1.38015E+01 7.04831E+00 0.00000E+00
 -1      2614 1.55992E+01 4.21226E+01 0.00000E+00
 -1      2615 1.58970E+01 4.11362E+01 0.00000E+00
 -1      2616 1.54964E+01 4.03856E+01 0.00000E+00
 -1      2617 1.42655E+01 4.15992E+01 0.00000E+00
 -1      2618 3.08971E+01 4.44223E+01 0.00000E+00
 -1      2619 3.22846E+01 4.43385E+01 0.00000E+00
 -1      2620 3.53400E+01 4.03056E+01 0.00000E+00
 -1      2621 1.43490E+02 4.21984E+01 0.00000E+00
 -1      2622 1.43302E+01 3.75805E+01 0.00000E+00
 -1      2623 1.34953E+01 3.70889E+01 0.00000E+00
 -1      2624 1.39115E+01 3.83687E+01 0.00000E+00
 -1      2625 2.19106E+01 2.48620E+01 0.00000E+00
 -1      2626 1.56088E+01 3.08053E+01 0.00000E+00
 -1      2627 1.54458E+01 2.98786E+01 0.00000E+00
 -1      2628 1.49667E+01 3.12855E+01 0.00000E+00
 -1      2629 1.36737E+01 3.38579E+01 0.00000E+00
 -1      2630 1.45519E+01 3.34484E+01 0.00000E+00
 -1      2631 1.42515E+01 3.26217E+01 0.00000E+00
 -1      2632 2.43709E+01 2.44721E+01 0.00000E+00
 -1      2633 3.52838E+01 3.11493E+01 0.00000E+00
 -1      2634 3.32480E+01 4.45886E+01 0.00000E+00
 -1      2635 3.47480E+01 4.45886E+01 0.00000E+00
 -1      2636 7.68770E+00 2.93750E+01 0.00000E+00
 -1      2637 1.48137E+01 3.99264E+01 0.00000E+00
 -1      2638 1.42191E+02 4.14609E+01 0.00000E+00
 -1      2639 3.54980E+01 4.33121E+01 0.00000E+00
 -1      2640 9.09300E+00 1.98250E+01 0.00000E+00
 -1      2641 9.09300E+00 2.12750E+01 0.00000E+00
 -1      2642 9.09300E+00 2.27500E+01 0.00000E+00
 -1      2643 9.09300E+00 2.42250E+01 0.00000E+00
 -1      2644 1.03920E+01 2.20250E+01 0.00000E+00
 -1      2645 9.09300E+00 1.39375E+01 0.00000E+00
 -1      2646 9.09300E+00 1.54125E+01 0.00000E+00
 -1      2647 9.09300E+00 1.09875E+01 0.00000E+00
 -1      2648 9.09300E+00 1.24625E+01 0.00000E+00
 -1      2649 1.03920E+01 1.32000E+01 0.00000E+00
 -1      2650 9.18900E+00 6.67137E+00 0.00000E+00
 -1      2651 9.00375E+00 7.49481E+00 0.00000E+00
 -1      2652 1.03988E+01 6.86619E+00 0.00000E+00
 -1      2653 1.31741E+01 4.13696E+01 0.00000E+00
 -1      2654 1.37896E+01 4.07628E+01 0.00000E+00
 -1      2655 1.37224E+01 3.96967E+01 0.00000E+00
 -1      2656 1.16741E+01 4.13696E+01 0.00000E+00
 -1      2657 3.84000E+01 4.19025E+01 0.00000E+00
 -1      2658 3.99000E+01 4.19025E+01 0.00000E+00
 -1      2659 8.83147E+00 4.06390E+01 0.00000E+00
 -1      2660 1.01950E+01 4.09030E+01 0.00000E+00
 -1      2661 1.40706E+02 1.03250E+01 0.00000E+00
 -1      2662 1.40040E+02 8.85425E+00 0.00000E+00
 -1      2663 1.38540E+02 8.85425E+00 0.00000E+00
 -1      2664 1.40907E+02 1.54500E+01 0.00000E+00
 -1      2665 1.40907E+02 1.40000E+01 0.00000E+00
 -1      2666 4.14000E+01 4.19025E+01 0.00000E+00
 -1      2667 4.29000E+01 4.19025E+01 0.00000E+00
 -1      2668 4.06500E+01 4.07936E+01 0.00000E+00
 -1      2669 4.44000E+01 4.19025E+01 0.00000E+00
 -1      2670 4.59000E+01 4.19025E+01 0.00000E+00
 -1      2671 4.36500E+01 4.07936E+01 0.00000E+00
 -1      2672 4.74000E+01 4.19025E+01 0.00000E+00
 -1      2673 4.89000E+01 4.19025E+01 0.00000E+00
 -1      2674 4.66500E+01 4.07936E+01 0.00000E+00
 -1      2675 5.04000E+01 4.19025E+01 0.00000E+00
 -1      2676 5.19000E+01 4.19025E+01 0.00000E+00
 -1      2677 4.96500E+01 4.07936E+01 0.00000E+00
 -1      2678 5.34000E+01 4.19025E+01 0.00000E+00
 -1      2679 5.49000E+01 4.19025E+01 0.00000E+00
 -1      2680 5.26500E+01 4.07936E+01 0.00000E+00
 -1      2681 5.64000E+01 4.19025E+01 0.00000E+00
 -1      2682 5.79000E+01 4.19025E+01 0.00000E+00
 -1      2683 5.56500E+01 4.07936E+01 0.00000E+00
 -1      2684 5.94000E+01 4.19025E+01 0.00000E+00
 -1      2685 6.09000E+01 4.19025E+01 0.00000E+00
 -1      2686 5.86500E+01 4.07936E+01 0.00000E+00
 -1      2687 6.24000E+01 4.19025E+01 0.00000E+00
 -1      2688 6.39000E+01 4.19025E+01 0.00000E+00
 -1      2689 6.16500E+01 4.07936E+01 0.00000E+00
 -1      2690 6.54750E+01 4.19025E+01 0.00000E+00
 -1      2691 6.70500E+01 4.19025E+01 0.00000E+00
 -1      2692 6.47250E+01 4.07936E+01 0.00000E+00
 -1      2693 6.85500E+01 4.19025E+01 0.00000E+00
 -1      2694 7.00500E+01 4.19025E+01 0.00000E+00
 -1      2695 6.78000E+01 4.07936E+01 0.00000E+00
 -1      2696 7.15500E+01 4.19025E+01 0.00000E+00
 -1      2697 7.30500E+01 4.19025E+01 0.00000E+00
 -1      2698 7.08000E+01 4.07936E+01 0.00000E+00
 -1      2699 7.45500E+01 4.19025E+01 0.00000E+00
 -1      2700 7.60500E+01 4.19025E+01 0.00000E+00
 -1      2701 7.38000E+01 4.07936E+01 0.00000E+00
 -1      2702 7.75500E+01 4.19025E+01 0.00000E+00
 -1      2703 7.90500E+01 4.19025E+01 0.00000E+00
 -1      2704 7.68000E+01 4.07936E+01 0.00000E+00
 -1      2705 8.05500E+01 4.19025E+01 0.00000E+00
 -1      2706 8.20500E+01 4.19025E+01 0.00000E+00
 -1      2707 7.98000E+01 4.07936E+01 0.00000E+00
 -1      2708 8.35500E+01 4.19025E+01 0.00000E+00
 -1      2709 8.50500E+01 4.19025E+01 0.00000E+00
 -1      2710 8.28000E+01 4.07936E+01 0.00000E+00
 -1      2711 8.65500E+01 4.19025E+01 0.00000E+00
 -1      2712 8.80500E+01 4.19025E+01 0.00000E+00
 -1      2713 8.58000E+01 4.07936E+01 0.00000E+00
 -1      2714 8.95500E+01 4.19025E+01 0.00000E+00
 -1      2715 9.10500E+01 4.19025E+01 0.00000E+00
 -1      2716 8.88000E+01 4.07936E+01 0.00000E+00
 -1      2717 9.25500E+01 4.19025E+01 0.00000E+00
 -1      2718 9.40500E+01 4.19025E+01 0.00000E+00
 -1      2719 9.18000E+01 4.07936E+01 0.00000E+00
 -1      2720 9.55500E+01 4.19025E+01 0.00000E+00
 -1      2721 9.70500E+01 4.19025E+01 0.00000E+00
 -1      2722 9.48000E+01 4.07936E+01 0.00000E+00
 -1      2723 9.85500E+01 4.19025E+01 0.00000E+00
 -1      2724 1.00050E+02 4.19025E+01 0.00000E+00
 -1      2725 9.78000E+01 4.07936E+01 0.00000E+00
 -1      2726 1.01550E+02 4.19025E+01 0.00000E+00
 -1      2727 1.03050E+02 4.19025E+01 0.00000E+00
 -1      2728 1.00800E+02 4.07936E+01 0.00000E+00
 -1      2729 1.04550E+02 4.19025E+01 0.00000E+00
 -1      2730 1.06050E+02 4.19025E+01 0.00000E+00
 -1      2731 1.03800E+02 4.07936E+01 0.00000E+00
 -1      2732 1.07550E+02 4.19025E+01 0.00000E+00
 -1      2733 1.09050E+02 4.19025E+01 0.00000E+00
 -1      2734 1.06800E+02 4.07936E+01 0.00000E+00
 -1      2735 1.10550E+02 4.19025E+01 0.00000E+00
 -1      2736 1.12050E+02 4.19025E+01 0.00000E+00
 -1      2737 1.09800E+02 4.07936E+01 0.00000E+00
 -1      2738 1.13550E+02 4.19025E+01 0.00000E+00
 -1      2739 1.15050E+02 4.19025E+01 0.00000E+00
 -1      2740 1.12800E+02 4.07936E+01 0.00000E+00
 -1      2741 1.16550E+02 4.19025E+01 0.00000E+00
 -1      2742 1.18050E+02 4.19025E+01 0.00000E+00
 -1      2743 1.15800E+02 4.07936E+01 0.00000E+00
 -1      2744 1.19550E+02 4.19025E+01 0.00000E+00
 -1      2745 1.21050E+02 4.19025E+01 0.00000E+00
 -1      2746 1.18800E+02 4.07936E+01 0.00000E+00
 -1      2747 1.22550E+02 4.19025E+01 0.00000E+00
 -1      2748 1.24050E+02 4.19025E+01 0.00000E+00
 -1      2749 1.21800E+02 4.07936E+01 0.00000E+00
 -1      2750 1.25550E+02 4.19025E+01 0.00000E+00
 -1      2751 1.27050E+02 4.19025E+01 0.00000E+00
 -1      2752 1.24800E+02 4.07936E+01 0.00000E+00
 -1      2753 1.28550E+02 4.19025E+01 0.00000E+00
 -1      2754 1.30050E+02 4.19025E+01 0.00000E+00
 -1      2755 1.27800E+02 4.07936E+01 0.00000E+00
 -1      2756 1.31550E+02 4.19025E+01 0.00000E+00
 -1      2757 1.33050E+02 4.19025E+01 0.00000E+00
 -1      2758 1.30800E+02 4.07936E+01 0.00000E+00
 -1      2759 1.34550E+02 4.19025E+01 0.00000E+00
 -1      2760 1.36050E+02 4.19025E+01 0.00000E+00
 -1      2761 1.33800E+02 4.07936E+01 0.00000E+00
 -1      2762 1.37550E+02 4.19025E+01 0.00000E+00
 -1      2763 1.39050E+02 4.19025E+01 0.00000E+00
 -1      2764 1.36800E+02 4.07936E+01 0.00000E+00
 -1      2765 1.41003E+02 4.13682E+01 0.00000E+00
 -1      2766 2.01240E+01 8.68250E+00 0.00000E+00
 -1      2767 1.86240E+01 8.68250E+00 0.00000E+00
 -1      2768 2.31240E+01 8.68250E+00 0.00000E+00
 -1      2769 2.16240E+01 8.68250E+00 0.00000E+00
 -1      2770 2.08740E+01 9.98150E+00 0.00000E+00
 -1      2771 1.71240E+01 8.68250E+00 0.00000E+00
 -1      2772 1.56240E+01 8.68250E+00 0.00000E+00
 -1      2773 1.78740E+01 9.98150E+00 0.00000E+00
 -1      2774 2.91240E+01 8.68250E+00 0.00000E+00
 -1      2775 2.76240E+01 8.68250E+00 0.00000E+00
 -1      2776 3.21240E+01 8.68250E+00 0.00000E+00
 -1      2777 3.06240E+01 8.68250E+00 0.00000E+00
 -1      2778 2.98740E+01 9.98150E+00 0.00000E+00
 -1      2779 3.51240E+01 8.68250E+00 0.00000E+00
 -1      2780 3.36240E+01 8.68250E+00 0.00000E+00
 -1      2781 3.28740E+01 9.98150E+00 0.00000E+00
 -1      2782 3.81240E+01 8.68250E+00 0.00000E+00
 -1      2783 3.66240E+01 8.68250E+00 0.00000E+00
 -1      2784 3.58740E+01 9.98150E+00 0.00000E+00
 -1      2785 4.11240E+01 8.68250E+00 0.00000E+00
 -1      2786 3.96240E+01 8.68250E+00 0.00000E+00
 -1      2787 3.88740E+01 9.98150E+00 0.00000E+00
 -1      2788 4.41240E+01 8.68250E+00 0.00000E+00
 -1      2789 4.26240E+01 8.68250E+00 0.00000E+00
 -1      2790 4.18740E+01 9.98150E+00 0.00000E+00
 -1      2791 4.71240E+01 8.68250E+00 0.00000E+00
 -1      2792 4.56240E+01 8.68250E+00 0.00000E+00
 -1      2793 4.48740E+01 9.98150E+00 0.00000E+00
 -1      2794 5.01240E+01 8.68250E+00 0.00000E+00
 -1      2795 4.86240E+01 8.68250E+00 0.00000E+00
 -1      2796 4.78740E+01 9.98150E+00 0.00000E+00
 -1      2797 5.31240E+01 8.68250E+00 0.00000E+00
 -1      2798 5.16240E+01 8.68250E+00 0.00000E+00
 -1      2799 5.08740E+01 9.98150E+00 0.00000E+00
 -1      2800 5.61240E+01 8.68250E+00 0.00000E+00
 -1      2801 5.46240E+01 8.68250E+00 0.00000E+00
 -1      2802 5.38740E+01 9.98150E+00 0.00000E+00
 -1      2803 5.91240E+01 8.68250E+00 0.00000E+00
 -1      2804 5.76240E+01 8.68250E+00 0.00000E+00
 -1      2805 5.68740E+01 9.98150E+00 0.00000E+00
 -1      2806 6.21240E+01 8.68250E+00 0.00000E+00
 -1      2807 6.06240E+01 8.68250E+00 0.00000E+00
 -1      2808 5.98740E+01 9.98150E+00 0.00000E+00
 -1      2809 6.51240E+01 8.68250E+00 0.00000E+00
 -1      2810 6.36240E+01 8.68250E+00 0.00000E+00
 -1      2811 6.28740E+01 9.98150E+00 0.00000E+00
 -1      2812 6.81240E+01 8.68250E+00 0.00000E+00
 -1      2813 6.66240E+01 8.68250E+00 0.00000E+00
 -1      2814 6.58740E+01 9.98150E+00 0.00000E+00
 -1      2815 7.11240E+01 8.68250E+00 0.00000E+00
 -1      2816 6.96240E+01 8.68250E+00 0.00000E+00
 -1      2817 6.88740E+01 9.98150E+00 0.00000E+00
 -1      2818 7.41240E+01 8.68250E+00 0.00000E+00
 -1      2819 7.26240E+01 8.68250E+00 0.00000E+00
 -1      2820 7.18740E+01 9.98150E+00 0.00000E+00
 -1      2821 7.71240E+01 8.68250E+00 0.00000E+00
 -1      2822 7.56240E+01 8.68250E+00 0.00000E+00
 -1      2823 7.48740E+01 9.98150E+00 0.00000E+00
 -1      2824 8.01240E+01 8.68250E+00 0.00000E+00
 -1      2825 7.86240E+01 8.68250E+00 0.00000E+00
 -1      2826 7.78740E+01 9.98150E+00 0.00000E+00
 -1      2827 8.31240E+01 8.68250E+00 0.00000E+00
 -1      2828 8.16240E+01 8.68250E+00 0.00000E+00
 -1      2829 8.08740E+01 9.98150E+00 0.00000E+00
 -1      2830 8.61240E+01 8.68250E+00 0.00000E+00
 -1      2831 8.46240E+01 8.68250E+00 0.00000E+00
 -1      2832 8.38740E+01 9.98150E+00 0.00000E+00
 -1      2833 8.91240E+01 8.68250E+00 0.00000E+00
 -1      2834 8.76240E+01 8.68250E+00 0.00000E+00
 -1      2835 8.68740E+01 9.98150E+00 0.00000E+00
 -1      2836 9.21240E+01 8.68250E+00 0.00000E+00
 -1      2837 9.06240E+01 8.68250E+00 0.00000E+00
 -1      2838 8.98740E+01 9.98150E+00 0.00000E+00
 -1      2839 9.51240E+01 8.68250E+00 0.00000E+00
 -1      2840 9.36240E+01 8.68250E+00 0.00000E+00
 -1      2841 9.28740E+01 9.98150E+00 0.00000E+00
 -1      2842 9.81240E+01 8.68250E+00 0.00000E+00
 -1      2843 9.66240E+01 8.68250E+00 0.00000E+00
 -1      2844 9.58740E+01 9.98150E+00 0.00000E+00
 -1      2845 1.01124E+02 8.68250E+00 0.00000E+00
 -1      2846 9.96240E+01 8.68250E+00 0.00000E+00
 -1      2847 9.88740E+01 9.98150E+00 0.00000E+00
 -1      2848 1.04124E+02 8.68250E+00 0.00000E+00
 -1      2849 1.02624E+02 8.68250E+00 0.00000E+00
 -1      2850 1.01874E+02 9.98150E+00 0.00000E+00
 -1      2851 1.07124E+02 8.68250E+00 0.00000E+00
 -1      2852 1.05624E+02 8.68250E+00 0.00000E+00
 -1      2853 1.04874E+02 9.98150E+00 0.00000E+00
 -1      2854 1.10124E+02 8.68250E+00 0.00000E+00
 -1      2855 1.08624E+02 8.68250E+00 0.00000E+00
 -1      2856 1.07874E+02 9.98150E+00 0.00000E+00
 -1      2857 1.13124E+02 8.68250E+00 0.00000E+00
 -1      2858 1.11624E+02 8.68250E+00 0.00000E+00
 -1      2859 1.10874E+02 9.98150E+00 0.00000E+00
 -1      2860 1.16124E+02 8.68250E+00 0.00000E+00
 -1      2861 1.14624E+02 8.68250E+00 0.00000E+00
 -1      2862 1.13874E+02 9.98150E+00 0.00000E+00
 -1      2863 1.19124E+02 8.68250E+00 0.00000E+00
 -1      2864 1.17624E+02 8.68250E+00 0.00000E+00
 -1      2865 1.16874E+02 9.98150E+00 0.00000E+00
 -1      2866 1.22124E+02 8.68250E+00 0.00000E+00
 -1      2867 1.20624E+02 8.68250E+00 0.00000E+00
 -1      2868 1.19874E+02 9.98150E+00 0.00000E+00
 -1      2869 1.25124E+02 8.68250E+00 0.00000E+00
 -1      2870 1.23624E+02 8.68250E+00 0.00000E+00
 -1      2871 1.22874E+02 9.98150E+00 0.00000E+00
 -1      2872 1.28124E+02 8.68250E+00 0.00000E+00
 -1      2873 1.26624E+02 8.68250E+00 0.00000E+00
 -1      2874 1.25874E+02 9.98150E+00 0.00000E+00
 -1      2875 1.31124E+02 8.68250E+00 0.00000E+00
 -1      2876 1.29624E+02 8.68250E+00 0.00000E+00
 -1      2877 1.28874E+02 9.98150E+00 0.00000E+00
 -1      2878 1.34124E+02 8.68250E+00 0.00000E+00
 -1      2879 1.32624E+02 8.68250E+00 0.00000E+00
 -1      2880 1.31874E+02 9.98150E+00 0.00000E+00
 -1      2881 1.37082E+02 8.76838E+00 0.00000E+00
 -1      2882 1.35582E+02 8.76838E+00 0.00000E+00
 -1      2883 1.34832E+02 1.00674E+01 0.00000E+00
 -1      2884 1.37748E+02 1.02391E+01 0.00000E+00
 -1      2885 1.40907E+02 2.13375E+01 0.00000E+00
 -1      2886 1.40907E+02 1.98625E+01 0.00000E+00
 -1      2887 1.40706E+02 1.18000E+01 0.00000E+00
 -1      2888 1.40907E+02 1.83937E+01 0.00000E+00
 -1      2889 1.40907E+02 1.69188E+01 0.00000E+00
 -1      2890 1.39608E+02 1.61938E+01 0.00000E+00
 -1      2891 1.39608E+02 1.91313E+01 0.00000E+00
 -1      2892 2.61240E+01 8.68250E+00 0.00000E+00
 -1      2893 2.46240E+01 8.68250E+00 0.00000E+00
 -1      2894 2.38740E+01 9.98150E+00 0.00000E+00
 -1      2895 2.68740E+01 9.98150E+00 0.00000E+00
 -1      2896 1.40907E+02 2.72375E+01 0.00000E+00
 -1      2897 1.40907E+02 2.57625E+01 0.00000E+00
 -1      2898 1.40907E+02 3.01375E+01 0.00000E+00
 -1      2899 1.40907E+02 2.86875E+01 0.00000E+00
 -1      2900 1.39608E+02 2.79500E+01 0.00000E+00
 -1      2901 1.40907E+02 3.30875E+01 0.00000E+00
 -1      2902 1.40907E+02 3.16125E+01 0.00000E+00
 -1      2903 1.39608E+02 3.08750E+01 0.00000E+00
 -1      2904 1.40907E+02 3.60375E+01 0.00000E+00
 -1      2905 1.40907E+02 3.45625E+01 0.00000E+00
 -1      2906 1.39608E+02 3.38250E+01 0.00000E+00
 -1      2907 1.40907E+02 3.89875E+01 0.00000E+00
 -1      2908 1.40907E+02 3.75125E+01 0.00000E+00
 -1      2909 1.39608E+02 3.67750E+01 0.00000E+00
 -1      2910 3.64053E+01 4.00698E+01 0.00000E+00
 -1      2911 3.58199E+01 4.12854E+01 0.00000E+00
 -1      2912 9.09300E+00 2.57000E+01 0.00000E+00
 -1      2913 9.09300E+00 2.71750E+01 0.00000E+00
 -1      2914 1.03920E+01 2.49750E+01 0.00000E+00
 -1      2915 3.07933E+01 2.52045E+01 0.00000E+00
 -1      2916 3.15133E+01 2.56258E+01 0.00000E+00
 -1      2917 1.40907E+02 2.42875E+01 0.00000E+00
 -1      2918 1.40907E+02 2.28125E+01 0.00000E+00
 -1      2919 1.39608E+02 2.50250E+01 0.00000E+00
 -1      2920 1.40253E+02 4.02593E+01 0.00000E+00
 -1      2921 3.68277E+01 3.25127E+01 0.00000E+00
 -1      2922 3.72235E+01 3.35738E+01 0.00000E+00
 -1      2923 8.98670E+00 2.86500E+01 0.00000E+00
 -1      2924 8.88040E+00 3.01250E+01 0.00000E+00
 -1      2925 1.02857E+01 2.79250E+01 0.00000E+00
 -1      2926 1.71098E+01 2.70059E+01 0.00000E+00
 -1      2927 1.80125E+01 2.62711E+01 0.00000E+00
 -1      2928 3.57860E+01 3.02126E+01 0.00000E+00
 -1      2929 3.63285E+01 3.13450E+01 0.00000E+00
 -1      2930 9.09300E+00 1.68813E+01 0.00000E+00
 -1      2931 9.09300E+00 1.83563E+01 0.00000E+00
 -1      2932 1.03920E+01 1.90812E+01 0.00000E+00
 -1      2933 1.03920E+01 1.61437E+01 0.00000E+00
 -1      2934 8.88040E+00 3.16000E+01 0.00000E+00
 -1      2935 8.88040E+00 3.30750E+01 0.00000E+00
 -1      2936 1.01794E+01 3.08750E+01 0.00000E+00
 -1      2937 2.38290E+01 2.33676E+01 0.00000E+00
 -1      2938 2.51777E+01 2.35434E+01 0.00000E+00
 -1      2939 2.61586E+01 2.36554E+01 0.00000E+00
 -1      2940 2.71395E+01 2.37673E+01 0.00000E+00
 -1      2941 2.56167E+01 2.25510E+01 0.00000E+00
 -1      2942 7.46797E+00 3.89063E+01 0.00000E+00
 -1      2943 1.88566E+01 2.56356E+01 0.00000E+00
 -1      2944 1.97006E+01 2.50001E+01 0.00000E+00
 -1      2945 1.77581E+01 2.52080E+01 0.00000E+00
 -1      2946 1.58922E+01 2.82359E+01 0.00000E+00
 -1      2947 1.65010E+01 2.76209E+01 0.00000E+00
 -1      2948 1.63052E+01 2.64585E+01 0.00000E+00
 -1      2949 1.30720E+01 3.58648E+01 0.00000E+00
 -1      2950 1.31021E+01 3.50568E+01 0.00000E+00
 -1      2951 2.09659E+01 2.43806E+01 0.00000E+00
 -1      2952 2.20774E+01 2.38149E+01 0.00000E+00
 -1      2953 2.85891E+01 2.42050E+01 0.00000E+00
 -1      2954 2.97485E+01 2.46361E+01 0.00000E+00
 -1      2955 3.46155E+01 2.83980E+01 0.00000E+00
 -1      2956 3.51600E+01 2.91386E+01 0.00000E+00
 -1      2957 3.71350E+01 3.81066E+01 0.00000E+00
 -1      2958 3.68738E+01 3.89343E+01 0.00000E+00
 -1      2959 3.25449E+01 2.55947E+01 0.00000E+00
 -1      2960 9.00375E+00 8.96981E+00 0.00000E+00
 -1      2961 1.12191E+01 4.00666E+01 0.00000E+00
 -1      2962 1.98674E+01 2.39530E+01 0.00000E+00
 -1      2963 1.39503E+01 8.45577E+00 0.00000E+00
 -1      2964 1.28778E+01 8.12058E+00 0.00000E+00
 -1      2965 3.85411E+01 3.34676E+01 0.00000E+00
 -1      2966 3.79355E+01 3.42979E+01 0.00000E+00
 -1      2967 3.86474E+01 3.50220E+01 0.00000E+00
 -1      2968 1.26533E+01 3.66530E+01 0.00000E+00
 -1      2969 1.47003E+01 9.75477E+00 0.00000E+00
 -1      2970 1.39608E+02 2.20750E+01 0.00000E+00
 -1      2971 1.39407E+02 1.25250E+01 0.00000E+00
 -1      2972 1.38954E+02 3.95218E+01 0.00000E+00
 -1      2973 3.73537E+01 3.99141E+01 0.00000E+00
 -1      2974 3.62023E+01 4.22663E+01 0.00000E+00
 -1      2975 3.79320E+01 3.73154E+01 0.00000E+00
 -1      2976 1.28874E+01 3.92052E+01 0.00000E+00
 -1      2977 3.01103E+01 4.49564E+01 0.00000E+00
 -1      2978 1.03027E+01 9.70731E+00 0.00000E+00
 -1      2979 3.45410E+01 2.73873E+01 0.00000E+00
 -1      2980 3.05416E+01 2.41066E+01 0.00000E+00
 -1      2981 1.40885E+01 3.16950E+01 0.00000E+00
 -1      2982 1.39255E+01 3.07683E+01 0.00000E+00
 -1      2983 1.32103E+01 3.21045E+01 0.00000E+00
 -1      2984 1.28017E+01 3.42301E+01 0.00000E+00
 -1      2985 1.25014E+01 3.34034E+01 0.00000E+00
 -1      2986 1.19297E+01 3.46023E+01 0.00000E+00
 -1      2987 2.80472E+01 2.31006E+01 0.00000E+00
 -1      2988 3.73299E+01 3.15759E+01 0.00000E+00
 -1      2989 8.66067E+00 3.81688E+01 0.00000E+00
 -1      2990 3.62046E+01 2.93343E+01 0.00000E+00
 -1      2991 1.46079E+01 2.91964E+01 0.00000E+00
 -1      2992 1.52500E+01 2.87161E+01 0.00000E+00
 -1      2993 1.50542E+01 2.75537E+01 0.00000E+00
 -1      2994 2.28842E+01 2.28862E+01 0.00000E+00
 -1      2995 2.36911E+01 2.19576E+01 0.00000E+00
 -1      2996 2.19395E+01 2.24049E+01 0.00000E+00
 -1      2997 3.72676E+01 4.20306E+01 0.00000E+00
 -1      2998 8.60652E+00 3.45344E+01 0.00000E+00
 -1      2999 8.60652E+00 3.60031E+01 0.00000E+00
 -1      3000 3.80176E+01 4.09216E+01 0.00000E+00
 -1      3001 9.90552E+00 3.38094E+01 0.00000E+00
 -1      3002 1.16910E+01 1.24625E+01 0.00000E+00
 -1      3003 1.16910E+01 1.39375E+01 0.00000E+00
 -1      3004 1.14712E+01 7.20138E+00 0.00000E+00
 -1      3005 1.14082E+01 3.87386E+01 0.00000E+00
 -1      3006 1.38309E+02 2.28125E+01 0.00000E+00
 -1      3007 1.38309E+02 2.13375E+01 0.00000E+00
 -1      3008 1.87471E+01 2.32668E+01 0.00000E+00
 -1      3009 2.00124E+01 2.26473E+01 0.00000E+00
 -1      3010 4.29000E+01 3.96009E+01 0.00000E+00
 -1      3011 4.44000E+01 3.96009E+01 0.00000E+00
 -1      3012 4.59000E+01 3.96009E+01 0.00000E+00
 -1      3013 4.74000E+01 3.96009E+01 0.00000E+00
 -1      3014 4.51500E+01 3.84082E+01 0.00000E+00
 -1      3015 4.89000E+01 3.96009E+01 0.00000E+00
 -1      3016 5.04000E+01 3.96009E+01 0.00000E+00
 -1      3017 4.81500E+01 3.84082E+01 0.00000E+00
 -1      3018 5.19000E+01 3.96009E+01 0.00000E+00
 -1      3019 5.34000E+01 3.96009E+01 0.00000E+00
 -1      3020 5.11500E+01 3.84082E+01 0.00000E+00
 -1      3021 5.49000E+01 3.96009E+01 0.00000E+00
 -1      3022 5.64000E+01 3.96009E+01 0.00000E+00
 -1      3023 5.41500E+01 3.84082E+01 0.00000E+00
 -1      3024 5.79000E+01 3.96009E+01 0.00000E+00
 -1      3025 5.94000E+01 3.96009E+01 0.00000E+00
 -1      3026 5.71500E+01 3.84082E+01 0.00000E+00
 -1      3027 6.09000E+01 3.96009E+01 0.00000E+00
 -1      3028 6.24000E+01 3.96009E+01 0.00000E+00
 -1      3029 6.01500E+01 3.84082E+01 0.00000E+00
 -1      3030 6.39750E+01 3.96009E+01 0.00000E+00
 -1      3031 6.55500E+01 3.96009E+01 0.00000E+00
 -1      3032 6.32250E+01 3.84082E+01 0.00000E+00
 -1      3033 6.70500E+01 3.96009E+01 0.00000E+00
 -1      3034 6.85500E+01 3.96009E+01 0.00000E+00
 -1      3035 6.63000E+01 3.84082E+01 0.00000E+00
 -1      3036 7.00500E+01 3.96009E+01 0.00000E+00
 -1      3037 7.15500E+01 3.96009E+01 0.00000E+00
 -1      3038 6.93000E+01 3.84082E+01 0.00000E+00
 -1      3039 7.30500E+01 3.96009E+01 0.00000E+00
 -1      3040 7.45500E+01 3.96009E+01 0.00000E+00
 -1      3041 7.23000E+01 3.84082E+01 0.00000E+00
 -1      3042 7.60500E+01 3.96009E+01 0.00000E+00
 -1      3043 7.75500E+01 3.96009E+01 0.00000E+00
 -1      3044 7.53000E+01 3.84082E+01 0.00000E+00
 -1      3045 7.90500E+01 3.96009E+01 0.00000E+00
 -1      3046 8.05500E+01 3.96009E+01 0.00000E+00
 -1      3047 7.83000E+01 3.84082E+01 0.00000E+00
 -1      3048 8.20500E+01 3.96009E+01 0.00000E+00
 -1      3049 8.35500E+01 3.96009E+01 0.00000E+00
 -1      3050 8.13000E+01 3.84082E+01 0.00000E+00
 -1      3051 8.50500E+01 3.96009E+01 0.00000E+00
 -1      3052 8.65500E+01 3.96009E+01 0.00000E+00
 -1      3053 8.43000E+01 3.84082E+01 0.00000E+00
 -1      3054 8.80500E+01 3.96009E+01 0.00000E+00
 -1      3055 8.95500E+01 3.96009E+01 0.00000E+00
 -1      3056 8.73000E+01 3.84082E+01 0.00000E+00
 -1      3057 9.10500E+01 3.96009E+01 0.00000E+00
 -1      3058 9.25500E+01 3.96009E+01 0.00000E+00
 -1      3059 9.03000E+01 3.84082E+01 0.00000E+00
 -1      3060 9.40500E+01 3.96009E+01 0.00000E+00
 -1      3061 9.55500E+01 3.96009E+01 0.00000E+00
 -1      3062 9.33000E+01 3.84082E+01 0.00000E+00
 -1      3063 9.70500E+01 3.96009E+01 0.00000E+00
 -1      3064 9.85500E+01 3.96009E+01 0.00000E+00
 -1      3065 9.63000E+01 3.84082E+01 0.00000E+00
 -1      3066 1.00050E+02 3.96009E+01 0.00000E+00
 -1      3067 1.01550E+02 3.96009E+01 0.00000E+00
 -1      3068 9.93000E+01 3.84082E+01 0.00000E+00
 -1      3069 1.03050E+02 3.96009E+01 0.00000E+00
 -1      3070 1.04550E+02 3.96009E+01 0.00000E+00
 -1      3071 1.02300E+02 3.84082E+01 0.00000E+00
 -1      3072 1.06050E+02 3.96009E+01 0.00000E+00
 -1      3073 1.07550E+02 3.96009E+01 0.00000E+00
 -1      3074 1.05300E+02 3.84082E+01 0.00000E+00
 -1      3075 1.09050E+02 3.96009E+01 0.00000E+00
 -1      3076 1.10550E+02 3.96009E+01 0.00000E+00
 -1      3077 1.08300E+02 3.84082E+01 0.00000E+00
 -1      3078 1.12050E+02 3.96009E+01 0.00000E+00
 -1      3079 1.13550E+02 3.96009E+01 0.00000E+00
 -1      3080 1.11300E+02 3.84082E+01 0.00000E+00
 -1      3081 1.15050E+02 3.96009E+01 0.00000E+00
 -1      3082 1.16550E+02 3.96009E+01 0.00000E+00
 -1      3083 1.14300E+02 3.84082E+01 0.00000E+00
 -1      3084 1.18050E+02 3.96009E+01 0.00000E+00
 -1      3085 1.19550E+02 3.96009E+01 0.00000E+00
 -1      3086 1.17300E+02 3.84082E+01 0.00000E+00
 -1      3087 1.21050E+02 3.96009E+01 0.00000E+00
 -1      3088 1.22550E+02 3.96009E+01 0.00000E+00
 -1      3089 1.20300E+02 3.84082E+01 0.00000E+00
 -1      3090 1.24050E+02 3.96009E+01 0.00000E+00
 -1      3091 1.25550E+02 3.96009E+01 0.00000E+00
 -1      3092 1.23300E+02 3.84082E+01 0.00000E+00
 -1      3093 1.27050E+02 3.96009E+01 0.00000E+00
 -1      3094 1.28550E+02 3.96009E+01 0.00000E+00
 -1      3095 1.26300E+02 3.84082E+01 0.00000E+00
 -1      3096 1.30050E+02 3.96009E+01 0.00000E+00
 -1      3097 1.31550E+02 3.96009E+01 0.00000E+00
 -1      3098 1.29300E+02 3.84082E+01 0.00000E+00
 -1      3099 1.33050E+02 3.96009E+01 0.00000E+00
 -1      3100 1.34550E+02 3.96009E+01 0.00000E+00
 -1      3101 1.32300E+02 3.84082E+01 0.00000E+00
 -1      3102 1.36002E+02 3.95613E+01 0.00000E+00
 -1      3103 1.37502E+02 3.95613E+01 0.00000E+00
 -1      3104 1.38156E+02 3.82895E+01 0.00000E+00
 -1      3105 1.35252E+02 3.83686E+01 0.00000E+00
 -1      3106 1.38309E+02 3.16125E+01 0.00000E+00
 -1      3107 1.38309E+02 3.01375E+01 0.00000E+00
 -1      3108 2.16240E+01 1.12805E+01 0.00000E+00
 -1      3109 2.01240E+01 1.12805E+01 0.00000E+00
 -1      3110 1.86240E+01 1.12805E+01 0.00000E+00
 -1      3111 1.71240E+01 1.12805E+01 0.00000E+00
 -1      3112 1.93740E+01 1.25795E+01 0.00000E+00
 -1      3113 3.36240E+01 1.12805E+01 0.00000E+00
 -1      3114 3.21240E+01 1.12805E+01 0.00000E+00
 -1      3115 3.06240E+01 1.12805E+01 0.00000E+00
 -1      3116 2.91240E+01 1.12805E+01 0.00000E+00
 -1      3117 3.13740E+01 1.25795E+01 0.00000E+00
 -1      3118 3.96240E+01 1.12805E+01 0.00000E+00
 -1      3119 3.81240E+01 1.12805E+01 0.00000E+00
 -1      3120 4.26240E+01 1.12805E+01 0.00000E+00
 -1      3121 4.11240E+01 1.12805E+01 0.00000E+00
 -1      3122 4.03740E+01 1.25795E+01 0.00000E+00
 -1      3123 4.56240E+01 1.12805E+01 0.00000E+00
 -1      3124 4.41240E+01 1.12805E+01 0.00000E+00
 -1      3125 4.33740E+01 1.25795E+01 0.00000E+00
 -1      3126 4.86240E+01 1.12805E+01 0.00000E+00
 -1      3127 4.71240E+01 1.12805E+01 0.00000E+00
 -1      3128 4.63740E+01 1.25795E+01 0.00000E+00
 -1      3129 5.16240E+01 1.12805E+01 0.00000E+00
 -1      3130 5.01240E+01 1.12805E+01 0.00000E+00
 -1      3131 4.93740E+01 1.25795E+01 0.00000E+00
 -1      3132 5.46240E+01 1.12805E+01 0.00000E+00
 -1      3133 5.31240E+01 1.12805E+01 0.00000E+00
 -1      3134 5.23740E+01 1.25795E+01 0.00000E+00
 -1      3135 5.76240E+01 1.12805E+01 0.00000E+00
 -1      3136 5.61240E+01 1.12805E+01 0.00000E+00
 -1      3137 5.53740E+01 1.25795E+01 0.00000E+00
 -1      3138 6.06240E+01 1.12805E+01 0.00000E+00
 -1      3139 5.91240E+01 1.12805E+01 0.00000E+00
 -1      3140 5.83740E+01 1.25795E+01 0.00000E+00
 -1      3141 6.36240E+01 1.12805E+01 0.00000E+00
 -1      3142 6.21240E+01 1.12805E+01 0.00000E+00
 -1      3143 6.13740E+01 1.25795E+01 0.00000E+00
 -1      3144 6.66240E+01 1.12805E+01 0.00000E+00
 -1      3145 6.51240E+01 1.12805E+01 0.00000E+00
 -1      3146 6.43740E+01 1.25795E+01 0.00000E+00
 -1      3147 6.96240E+01 1.12805E+01 0.00000E+00
 -1      3148 6.81240E+01 1.12805E+01 0.00000E+00
 -1      3149 6.73740E+01 1.25795E+01 0.00000E+00
 -1      3150 7.26240E+01 1.12805E+01 0.00000E+00
 -1      3151 7.11240E+01 1.12805E+01 0.00000E+00
 -1      3152 7.03740E+01 1.25795E+01 0.00000E+00
 -1      3153 7.56240E+01 1.12805E+01 0.00000E+00
 -1      3154 7.41240E+01 1.12805E+01 0.00000E+00
 -1      3155 7.33740E+01 1.25795E+01 0.00000E+00
 -1      3156 7.86240E+01 1.12805E+01 0.00000E+00
 -1      3157 7.71240E+01 1.12805E+01 0.00000E+00
 -1      3158 7.63740E+01 1.25795E+01 0.00000E+00
 -1      3159 8.16240E+01 1.12805E+01 0.00000E+00
 -1      3160 8.01240E+01 1.12805E+01 0.00000E+00
 -1      3161 7.93740E+01 1.25795E+01 0.00000E+00
 -1      3162 8.46240E+01 1.12805E+01 0.00000E+00
 -1      3163 8.31240E+01 1.12805E+01 0.00000E+00
 -1      3164 8.23740E+01 1.25795E+01 0.00000E+00
 -1      3165 8.76240E+01 1.12805E+01 0.00000E+00
 -1      3166 8.61240E+01 1.12805E+01 0.00000E+00
 -1      3167 8.53740E+01 1.25795E+01 0.00000E+00
 -1      3168 9.06240E+01 1.12805E+01 0.00000E+00
 -1      3169 8.91240E+01 1.12805E+01 0.00000E+00
 -1      3170 8.83740E+01 1.25795E+01 0.00000E+00
 -1      3171 9.36240E+01 1.12805E+01 0.00000E+00
 -1      3172 9.21240E+01 1.12805E+01 0.00000E+00
 -1      3173 9.13740E+01 1.25795E+01 0.00000E+00
 -1      3174 9.66240E+01 1.12805E+01 0.00000E+00
 -1      3175 9.51240E+01 1.12805E+01 0.00000E+00
 -1      3176 9.43740E+01 1.25795E+01 0.00000E+00
 -1      3177 9.96240E+01 1.12805E+01 0.00000E+00
 -1      3178 9.81240E+01 1.12805E+01 0.00000E+00
 -1      3179 9.73740E+01 1.25795E+01 0.00000E+00
 -1      3180 1.02624E+02 1.12805E+01 0.00000E+00
 -1      3181 1.01124E+02 1.12805E+01 0.00000E+00
 -1      3182 1.00374E+02 1.25795E+01 0.00000E+00
 -1      3183 1.05624E+02 1.12805E+01 0.00000E+00
 -1      3184 1.04124E+02 1.12805E+01 0.00000E+00
 -1      3185 1.03374E+02 1.25795E+01 0.00000E+00
 -1      3186 1.08624E+02 1.12805E+01 0.00000E+00
 -1      3187 1.07124E+02 1.12805E+01 0.00000E+00
 -1      3188 1.06374E+02 1.25795E+01 0.00000E+00
 -1      3189 1.11624E+02 1.12805E+01 0.00000E+00
 -1      3190 1.10124E+02 1.12805E+01 0.00000E+00
 -1      3191 1.09374E+02 1.25795E+01 0.00000E+00
 -1      3192 1.14624E+02 1.12805E+01 0.00000E+00
 -1      3193 1.13124E+02 1.12805E+01 0.00000E+00
 -1      3194 1.12374E+02 1.25795E+01 0.00000E+00
 -1      3195 1.17624E+02 1.12805E+01 0.00000E+00
 -1      3196 1.16124E+02 1.12805E+01 0.00000E+00
 -1      3197 1.15374E+02 1.25795E+01 0.00000E+00
 -1      3198 1.20624E+02 1.12805E+01 0.00000E+00
 -1      3199 1.19124E+02 1.12805E+01 0.00000E+00
 -1      3200 1.18374E+02 1.25795E+01 0.00000E+00
 -1      3201 1.23624E+02 1.12805E+01 0.00000E+00
 -1      3202 1.22124E+02 1.12805E+01 0.00000E+00
 -1      3203 1.21374E+02 1.25795E+01 0.00000E+00
 -1      3204 1.26624E+02 1.12805E+01 0.00000E+00
 -1      3205 1.25124E+02 1.12805E+01 0.00000E+00
 -1      3206 1.24374E+02 1.25795E+01 0.00000E+00
 -1      3207 1.29624E+02 1.12805E+01 0.00000E+00
 -1      3208 1.28124E+02 1.12805E+01 0.00000E+00
 -1      3209 1.27374E+02 1.25795E+01 0.00000E+00
 -1      3210 1.32624E+02 1.12805E+01 0.00000E+00
 -1      3211 1.31124E+02 1.12805E+01 0.00000E+00
 -1      3212 1.30374E+02 1.25795E+01 0.00000E+00
 -1      3213 1.38309E+02 2.57625E+01 0.00000E+00
 -1      3214 1.38309E+02 2.42875E+01 0.00000E+00
 -1      3215 1.37010E+02 2.35500E+01 0.00000E+00
 -1      3216 3.99000E+01 3.96847E+01 0.00000E+00
 -1      3217 4.14000E+01 3.96847E+01 0.00000E+00
 -1      3218 1.16910E+01 2.42375E+01 0.00000E+00
 -1      3219 1.16910E+01 2.57125E+01 0.00000E+00
 -1      3220 1.38309E+02 3.45625E+01 0.00000E+00
 -1      3221 1.38309E+02 3.30875E+01 0.00000E+00
 -1      3222 1.37010E+02 3.23500E+01 0.00000E+00
 -1      3223 1.38309E+02 2.86750E+01 0.00000E+00
 -1      3224 1.38309E+02 2.72250E+01 0.00000E+00
 -1      3225 1.37010E+02 2.64875E+01 0.00000E+00
 -1      3226 1.37010E+02 2.94125E+01 0.00000E+00
 -1      3227 1.38232E+02 3.71635E+01 0.00000E+00
 -1      3228 1.38232E+02 3.56885E+01 0.00000E+00
 -1      3229 1.36934E+02 3.49510E+01 0.00000E+00
 -1      3230 1.36781E+02 3.72031E+01 0.00000E+00
 -1      3231 9.68579E+00 3.74344E+01 0.00000E+00
 -1      3232 1.52127E+01 2.59858E+01 0.00000E+00
 -1      3233 1.58215E+01 2.53708E+01 0.00000E+00
 -1      3234 1.38150E+02 1.46391E+01 0.00000E+00
 -1      3235 1.37949E+02 1.24391E+01 0.00000E+00
 -1      3236 1.36491E+02 1.23532E+01 0.00000E+00
 -1      3237 1.24020E+01 2.72420E+01 0.00000E+00
 -1      3238 1.22957E+01 2.87170E+01 0.00000E+00
 -1      3239 3.84861E+01 3.97861E+01 0.00000E+00
 -1      3240 3.05492E+01 2.28483E+01 0.00000E+00
 -1      3241 3.15940E+01 2.34167E+01 0.00000E+00
 -1      3242 2.76187E+01 2.19004E+01 0.00000E+00
 -1      3243 2.90683E+01 2.23380E+01 0.00000E+00
 -1      3244 2.52520E+01 2.13932E+01 0.00000E+00
 -1      3245 2.62329E+01 2.15052E+01 0.00000E+00
 -1      3246 3.79458E+01 3.06220E+01 0.00000E+00
 -1      3247 3.84450E+01 3.17897E+01 0.00000E+00
 -1      3248 1.16200E+01 8.60883E+00 0.00000E+00
 -1      3249 1.66656E+01 2.47353E+01 0.00000E+00
 -1      3250 1.75096E+01 2.40998E+01 0.00000E+00
 -1      3251 1.55731E+01 2.42627E+01 0.00000E+00
 -1      3252 1.53628E+01 1.11554E+01 0.00000E+00
 -1      3253 1.36890E+01 1.09286E+01 0.00000E+00
 -1      3254 3.66240E+01 1.12805E+01 0.00000E+00
 -1      3255 3.51240E+01 1.12805E+01 0.00000E+00
 -1      3256 3.43740E+01 1.25795E+01 0.00000E+00
 -1      3257 3.73740E+01 1.25795E+01 0.00000E+00
 -1      3258 1.09044E+01 3.30628E+01 0.00000E+00
 -1      3259 1.06305E+01 3.45222E+01 0.00000E+00
 -1      3260 1.17093E+01 1.06265E+01 0.00000E+00
 -1      3261 3.46282E+01 2.62305E+01 0.00000E+00
 -1      3262 3.56658E+01 2.71035E+01 0.00000E+00
 -1      3263 3.27112E+01 2.43912E+01 0.00000E+00
 -1      3264 3.36697E+01 2.53108E+01 0.00000E+00
 -1      3265 3.47946E+01 2.50270E+01 0.00000E+00
 -1      3266 1.16910E+01 2.12875E+01 0.00000E+00
 -1      3267 1.16910E+01 2.27625E+01 0.00000E+00
 -1      3268 1.29900E+01 2.35000E+01 0.00000E+00
 -1      3269 1.16133E+01 3.02889E+01 0.00000E+00
 -1      3270 1.16133E+01 3.17639E+01 0.00000E+00
 -1      3271 3.90092E+01 3.66605E+01 0.00000E+00
 -1      3272 3.88993E+01 3.81237E+01 0.00000E+00
 -1      3273 3.67773E+01 2.82811E+01 0.00000E+00
 -1      3274 3.74033E+01 2.93551E+01 0.00000E+00
 -1      3275 3.85184E+01 2.95688E+01 0.00000E+00
 -1      3276 1.76546E+01 2.27941E+01 0.00000E+00
 -1      3277 4.21500E+01 3.84920E+01 0.00000E+00
 -1      3278 3.91570E+01 3.25137E+01 0.00000E+00
 -1      3279 3.98689E+01 3.32378E+01 0.00000E+00
 -1      3280 3.97729E+01 3.15598E+01 0.00000E+00
 -1      3281 1.96990E+01 2.10324E+01 0.00000E+00
 -1      3282 2.08192E+01 2.17187E+01 0.00000E+00
 -1      3283 2.16261E+01 2.07900E+01 0.00000E+00
 -1      3284 2.46240E+01 1.12805E+01 0.00000E+00
 -1      3285 2.31240E+01 1.12805E+01 0.00000E+00
 -1      3286 2.23740E+01 1.25795E+01 0.00000E+00
 -1      3287 1.13541E+01 3.65729E+01 0.00000E+00
 -1      3288 4.02204E+01 3.50000E+01 0.00000E+00
 -1      3289 3.96148E+01 3.58303E+01 0.00000E+00
 -1      3290 4.05821E+01 3.66386E+01 0.00000E+00
 -1      3291 2.76240E+01 1.12805E+01 0.00000E+00
 -1      3292 2.61240E+01 1.12805E+01 0.00000E+00
 -1      3293 2.53740E+01 1.25795E+01 0.00000E+00
 -1      3294 2.83740E+01 1.25795E+01 0.00000E+00
 -1      3295 1.29900E+01 1.46687E+01 0.00000E+00
 -1      3296 1.16910E+01 1.54063E+01 0.00000E+00
 -1      3297 1.16910E+01 1.68750E+01 0.00000E+00
 -1      3298 1.61128E+01 1.24544E+01 0.00000E+00
 -1      3299 1.35286E+02 1.18598E+01 0.00000E+00
 -1      3300 1.33829E+02 1.17739E+01 0.00000E+00
 -1      3301 1.33079E+02 1.30729E+01 0.00000E+00
 -1      3302 1.35488E+02 1.40598E+01 0.00000E+00
 -1      3303 1.37010E+01 2.65045E+01 0.00000E+00
 -1      3304 1.38309E+02 1.98687E+01 0.00000E+00
 -1      3305 1.38309E+02 1.84000E+01 0.00000E+00
 -1      3306 1.37010E+02 2.06063E+01 0.00000E+00
 -1      3307 2.43073E+01 2.09118E+01 0.00000E+00
 -1      3308 2.49235E+01 1.98661E+01 0.00000E+00
 -1      3309 2.33625E+01 2.04304E+01 0.00000E+00
 -1      3310 2.72540E+01 2.07426E+01 0.00000E+00
 -1      3311 1.38150E+02 1.61079E+01 0.00000E+00
 -1      3312 3.92361E+01 3.86772E+01 0.00000E+00
 -1      3313 3.01207E+01 2.16481E+01 0.00000E+00
 -1      3314 1.16910E+01 1.83469E+01 0.00000E+00
 -1      3315 1.16910E+01 1.98156E+01 0.00000E+00
 -1      3316 1.29900E+01 2.05531E+01 0.00000E+00
 -1      3317 1.29900E+01 1.76094E+01 0.00000E+00
 -1      3318 3.68645E+01 2.71243E+01 0.00000E+00
 -1      3319 3.27188E+01 2.31329E+01 0.00000E+00
 -1      3320 1.30083E+01 1.13640E+01 0.00000E+00
 -1      3321 4.74000E+01 3.71092E+01 0.00000E+00
 -1      3322 4.89000E+01 3.71092E+01 0.00000E+00
 -1      3323 5.04000E+01 3.71092E+01 0.00000E+00
 -1      3324 5.19000E+01 3.71092E+01 0.00000E+00
 -1      3325 4.96500E+01 3.58102E+01 0.00000E+00
 -1      3326 5.34000E+01 3.71092E+01 0.00000E+00
 -1      3327 5.49000E+01 3.71092E+01 0.00000E+00
 -1      3328 5.26500E+01 3.58102E+01 0.00000E+00
 -1      3329 5.64000E+01 3.71092E+01 0.00000E+00
 -1      3330 5.79000E+01 3.71092E+01 0.00000E+00
 -1      3331 5.56500E+01 3.58102E+01 0.00000E+00
 -1      3332 5.94000E+01 3.71092E+01 0.00000E+00
 -1      3333 6.09000E+01 3.71092E+01 0.00000E+00
 -1      3334 5.86500E+01 3.58102E+01 0.00000E+00
 -1      3335 6.24750E+01 3.71092E+01 0.00000E+00
 -1      3336 6.40500E+01 3.71092E+01 0.00000E+00
 -1      3337 6.17250E+01 3.58102E+01 0.00000E+00
 -1      3338 6.55500E+01 3.71092E+01 0.00000E+00
 -1      3339 6.70500E+01 3.71092E+01 0.00000E+00
 -1      3340 6.48000E+01 3.58102E+01 0.00000E+00
 -1      3341 6.85500E+01 3.71092E+01 0.00000E+00
 -1      3342 7.00500E+01 3.71092E+01 0.00000E+00
 -1      3343 6.78000E+01 3.58102E+01 0.00000E+00
 -1      3344 7.15500E+01 3.71092E+01 0.00000E+00
 -1      3345 7.30500E+01 3.71092E+01 0.00000E+00
 -1      3346 7.08000E+01 3.58102E+01 0.00000E+00
 -1      3347 7.45500E+01 3.71092E+01 0.00000E+00
 -1      3348 7.60500E+01 3.71092E+01 0.00000E+00
 -1      3349 7.38000E+01 3.58102E+01 0.00000E+00
 -1      3350 7.75500E+01 3.71092E+01 0.00000E+00
 -1      3351 7.90500E+01 3.71092E+01 0.00000E+00
 -1      3352 7.68000E+01 3.58102E+01 0.00000E+00
 -1      3353 8.05500E+01 3.71092E+01 0.00000E+00
 -1      3354 8.20500E+01 3.71092E+01 0.00000E+00
 -1      3355 7.98000E+01 3.58102E+01 0.00000E+00
 -1      3356 8.35500E+01 3.71092E+01 0.00000E+00
 -1      3357 8.50500E+01 3.71092E+01 0.00000E+00
 -1      3358 8.28000E+01 3.58102E+01 0.00000E+00
 -1      3359 8.65500E+01 3.71092E+01 0.00000E+00
 -1      3360 8.80500E+01 3.71092E+01 0.00000E+00
 -1      3361 8.58000E+01 3.58102E+01 0.00000E+00
 -1      3362 8.95500E+01 3.71092E+01 0.00000E+00
 -1      3363 9.10500E+01 3.71092E+01 0.00000E+00
 -1      3364 8.88000E+01 3.58102E+01 0.00000E+00
 -1      3365 9.25500E+01 3.71092E+01 0.00000E+00
 -1      3366 9.40500E+01 3.71092E+01 0.00000E+00
 -1      3367 9.18000E+01 3.58102E+01 0.00000E+00
 -1      3368 9.55500E+01 3.71092E+01 0.00000E+00
 -1      3369 9.70500E+01 3.71092E+01 0.00000E+00
 -1      3370 9.48000E+01 3.58102E+01 0.00000E+00
 -1      3371 9.85500E+01 3.71092E+01 0.00000E+00
 -1      3372 1.00050E+02 3.71092E+01 0.00000E+00
 -1      3373 9.78000E+01 3.58102E+01 0.00000E+00
 -1      3374 1.01550E+02 3.71092E+01 0.00000E+00
 -1      3375 1.03050E+02 3.71092E+01 0.00000E+00
 -1      3376 1.00800E+02 3.58102E+01 0.00000E+00
 -1      3377 1.04550E+02 3.71092E+01 0.00000E+00
 -1      3378 1.06050E+02 3.71092E+01 0.00000E+00
 -1      3379 1.03800E+02 3.58102E+01 0.00000E+00
 -1      3380 1.07550E+02 3.71092E+01 0.00000E+00
 -1      3381 1.09050E+02 3.71092E+01 0.00000E+00
 -1      3382 1.06800E+02 3.58102E+01 0.00000E+00
 -1      3383 1.10550E+02 3.71092E+01 0.00000E+00
 -1      3384 1.12050E+02 3.71092E+01 0.00000E+00
 -1      3385 1.09800E+02 3.58102E+01 0.00000E+00
 -1      3386 1.13550E+02 3.71092E+01 0.00000E+00
 -1      3387 1.15050E+02 3.71092E+01 0.00000E+00
 -1      3388 1.12800E+02 3.58102E+01 0.00000E+00
 -1      3389 1.16550E+02 3.71092E+01 0.00000E+00
 -1      3390 1.18050E+02 3.71092E+01 0.00000E+00
 -1      3391 1.15800E+02 3.58102E+01 0.00000E+00
 -1      3392 1.19550E+02 3.71092E+01 0.00000E+00
 -1      3393 1.21050E+02 3.71092E+01 0.00000E+00
 -1      3394 1.18800E+02 3.58102E+01 0.00000E+00
 -1      3395 1.22550E+02 3.71092E+01 0.00000E+00
 -1      3396 1.24050E+02 3.71092E+01 0.00000E+00
 -1      3397 1.21800E+02 3.58102E+01 0.00000E+00
 -1      3398 1.25550E+02 3.71092E+01 0.00000E+00
 -1      3399 1.27050E+02 3.71092E+01 0.00000E+00
 -1      3400 1.24800E+02 3.58102E+01 0.00000E+00
 -1      3401 1.28550E+02 3.71092E+01 0.00000E+00
 -1      3402 1.30050E+02 3.71092E+01 0.00000E+00
 -1      3403 1.27800E+02 3.58102E+01 0.00000E+00
 -1      3404 1.31550E+02 3.71092E+01 0.00000E+00
 -1      3405 1.33050E+02 3.71092E+01 0.00000E+00
 -1      3406 1.30800E+02 3.58102E+01 0.00000E+00
 -1      3407 1.34189E+02 3.71759E+01 0.00000E+00
 -1      3408 1.35641E+02 3.71364E+01 0.00000E+00
 -1      3409 1.35718E+02 3.60103E+01 0.00000E+00
 -1      3410 1.33439E+02 3.58769E+01 0.00000E+00
 -1      3411 1.09309E+01 3.53488E+01 0.00000E+00
 -1      3412 1.23384E+01 3.24767E+01 0.00000E+00
 -1      3413 3.71152E+01 2.57744E+01 0.00000E+00
 -1      3414 3.82267E+01 2.69519E+01 0.00000E+00
 -1      3415 4.41240E+01 1.38785E+01 0.00000E+00
 -1      3416 4.26240E+01 1.38785E+01 0.00000E+00
 -1      3417 4.11240E+01 1.38785E+01 0.00000E+00
 -1      3418 3.96240E+01 1.38785E+01 0.00000E+00
 -1      3419 4.18740E+01 1.51775E+01 0.00000E+00
 -1      3420 5.01240E+01 1.38785E+01 0.00000E+00
 -1      3421 4.86240E+01 1.38785E+01 0.00000E+00
 -1      3422 5.31240E+01 1.38785E+01 0.00000E+00
 -1      3423 5.16240E+01 1.38785E+01 0.00000E+00
 -1      3424 5.08740E+01 1.51775E+01 0.00000E+00
 -1      3425 5.61240E+01 1.38785E+01 0.00000E+00
 -1      3426 5.46240E+01 1.38785E+01 0.00000E+00
 -1      3427 5.38740E+01 1.51775E+01 0.00000E+00
 -1      3428 5.91240E+01 1.38785E+01 0.00000E+00
 -1      3429 5.76240E+01 1.38785E+01 0.00000E+00
 -1      3430 5.68740E+01 1.51775E+01 0.00000E+00
 -1      3431 6.21240E+01 1.38785E+01 0.00000E+00
 -1      3432 6.06240E+01 1.38785E+01 0.00000E+00
 -1      3433 5.98740E+01 1.51775E+01 0.00000E+00
 -1      3434 6.51240E+01 1.38785E+01 0.00000E+00
 -1      3435 6.36240E+01 1.38785E+01 0.00000E+00
 -1      3436 6.28740E+01 1.51775E+01 0.00000E+00
 -1      3437 6.81240E+01 1.38785E+01 0.00000E+00
 -1      3438 6.66240E+01 1.38785E+01 0.00000E+00
 -1      3439 6.58740E+01 1.51775E+01 0.00000E+00
 -1      3440 7.11240E+01 1.38785E+01 0.00000E+00
 -1      3441 6.96240E+01 1.38785E+01 0.00000E+00
 -1      3442 6.88740E+01 1.51775E+01 0.00000E+00
 -1      3443 7.41240E+01 1.38785E+01 0.00000E+00
 -1      3444 7.26240E+01 1.38785E+01 0.00000E+00
 -1      3445 7.18740E+01 1.51775E+01 0.00000E+00
 -1      3446 7.71240E+01 1.38785E+01 0.00000E+00
 -1      3447 7.56240E+01 1.38785E+01 0.00000E+00
 -1      3448 7.48740E+01 1.51775E+01 0.00000E+00
 -1      3449 8.01240E+01 1.38785E+01 0.00000E+00
 -1      3450 7.86240E+01 1.38785E+01 0.00000E+00
 -1      3451 7.78740E+01 1.51775E+01 0.00000E+00
 -1      3452 8.31240E+01 1.38785E+01 0.00000E+00
 -1      3453 8.16240E+01 1.38785E+01 0.00000E+00
 -1      3454 8.08740E+01 1.51775E+01 0.00000E+00
 -1      3455 8.61240E+01 1.38785E+01 0.00000E+00
 -1      3456 8.46240E+01 1.38785E+01 0.00000E+00
 -1      3457 8.38740E+01 1.51775E+01 0.00000E+00
 -1      3458 8.91240E+01 1.38785E+01 0.00000E+00
 -1      3459 8.76240E+01 1.38785E+01 0.00000E+00
 -1      3460 8.68740E+01 1.51775E+01 0.00000E+00
 -1      3461 9.21240E+01 1.38785E+01 0.00000E+00
 -1      3462 9.06240E+01 1.38785E+01 0.00000E+00
 -1      3463 8.98740E+01 1.51775E+01 0.00000E+00
 -1      3464 9.51240E+01 1.38785E+01 0.00000E+00
 -1      3465 9.36240E+01 1.38785E+01 0.00000E+00
 -1      3466 9.28740E+01 1.51775E+01 0.00000E+00
 -1      3467 9.81240E+01 1.38785E+01 0.00000E+00
 -1      3468 9.66240E+01 1.38785E+01 0.00000E+00
 -1      3469 9.58740E+01 1.51775E+01 0.00000E+00
 -1      3470 1.01124E+02 1.38785E+01 0.00000E+00
 -1      3471 9.96240E+01 1.38785E+01 0.00000E+00
 -1      3472 9.88740E+01 1.51775E+01 0.00000E+00
 -1      3473 1.04124E+02 1.38785E+01 0.00000E+00
 -1      3474 1.02624E+02 1.38785E+01 0.00000E+00
 -1      3475 1.01874E+02 1.51775E+01 0.00000E+00
 -1      3476 1.07124E+02 1.38785E+01 0.00000E+00
 -1      3477 1.05624E+02 1.38785E+01 0.00000E+00
 -1      3478 1.04874E+02 1.51775E+01 0.00000E+00
 -1      3479 1.10124E+02 1.38785E+01 0.00000E+00
 -1      3480 1.08624E+02 1.38785E+01 0.00000E+00
 -1      3481 1.07874E+02 1.51775E+01 0.00000E+00
 -1      3482 1.13124E+02 1.38785E+01 0.00000E+00
 -1      3483 1.11624E+02 1.38785E+01 0.00000E+00
 -1      3484 1.10874E+02 1.51775E+01 0.00000E+00
 -1      3485 1.16124E+02 1.38785E+01 0.00000E+00
 -1      3486 1.14624E+02 1.38785E+01 0.00000E+00
 -1      3487 1.13874E+02 1.51775E+01 0.00000E+00
 -1      3488 1.19124E+02 1.38785E+01 0.00000E+00
 -1      3489 1.17624E+02 1.38785E+01 0.00000E+00
 -1      3490 1.16874E+02 1.51775E+01 0.00000E+00
 -1      3491 1.22124E+02 1.38785E+01 0.00000E+00
 -1      3492 1.20624E+02 1.38785E+01 0.00000E+00
 -1      3493 1.19874E+02 1.51775E+01 0.00000E+00
 -1      3494 1.25124E+02 1.38785E+01 0.00000E+00
 -1      3495 1.23624E+02 1.38785E+01 0.00000E+00
 -1      3496 1.22874E+02 1.51775E+01 0.00000E+00
 -1      3497 1.28124E+02 1.38785E+01 0.00000E+00
 -1      3498 1.26624E+02 1.38785E+01 0.00000E+00
 -1      3499 1.25874E+02 1.51775E+01 0.00000E+00
 -1      3500 1.31124E+02 1.38785E+01 0.00000E+00
 -1      3501 1.29624E+02 1.38785E+01 0.00000E+00
 -1      3502 1.28874E+02 1.51775E+01 0.00000E+00
 -1      3503 1.35711E+02 2.42875E+01 0.00000E+00
 -1      3504 1.35711E+02 2.28125E+01 0.00000E+00
 -1      3505 1.37297E+01 2.96059E+01 0.00000E+00
 -1      3506 2.97688E+01 2.02653E+01 0.00000E+00
 -1      3507 3.12497E+01 2.07756E+01 0.00000E+00
 -1      3508 1.35711E+02 3.30875E+01 0.00000E+00
 -1      3509 1.35711E+02 3.16125E+01 0.00000E+00
 -1      3510 1.45706E+01 2.64661E+01 0.00000E+00
 -1      3511 1.38595E+01 2.49366E+01 0.00000E+00
 -1      3512 4.71240E+01 1.38785E+01 0.00000E+00
 -1      3513 4.56240E+01 1.38785E+01 0.00000E+00
 -1      3514 4.48740E+01 1.51775E+01 0.00000E+00
 -1      3515 4.78740E+01 1.51775E+01 0.00000E+00
 -1      3516 3.21240E+01 1.38785E+01 0.00000E+00
 -1      3517 3.06240E+01 1.38785E+01 0.00000E+00
 -1      3518 2.01240E+01 1.38785E+01 0.00000E+00
 -1      3519 1.86240E+01 1.38785E+01 0.00000E+00
 -1      3520 1.36851E+02 1.68454E+01 0.00000E+00
 -1      3521 4.44000E+01 3.71092E+01 0.00000E+00
 -1      3522 4.59000E+01 3.71092E+01 0.00000E+00
 -1      3523 4.66500E+01 3.58102E+01 0.00000E+00
 -1      3524 2.68652E+01 1.94786E+01 0.00000E+00
 -1      3525 2.82510E+01 1.98738E+01 0.00000E+00
 -1      3526 4.03133E+01 3.80223E+01 0.00000E+00
 -1      3527 1.38595E+01 2.34616E+01 0.00000E+00
 -1      3528 3.50250E+01 2.38275E+01 0.00000E+00
 -1      3529 3.59835E+01 2.47472E+01 0.00000E+00
 -1      3530 3.28891E+01 2.18099E+01 0.00000E+00
 -1      3531 3.40063E+01 2.27844E+01 0.00000E+00
 -1      3532 1.47036E+01 2.28261E+01 0.00000E+00
 -1      3533 3.92666E+01 2.84988E+01 0.00000E+00
 -1      3534 3.98091E+01 2.97658E+01 0.00000E+00
 -1      3535 4.09188E+01 3.71920E+01 0.00000E+00
 -1      3536 4.12556E+01 3.77455E+01 0.00000E+00
 -1      3537 4.15244E+01 3.63618E+01 0.00000E+00
 -1      3538 1.44655E+01 2.12731E+01 0.00000E+00
 -1      3539 1.61791E+01 2.20742E+01 0.00000E+00
 -1      3540 1.74166E+01 2.12411E+01 0.00000E+00
 -1      3541 1.44655E+01 1.98012E+01 0.00000E+00
 -1      3542 4.27556E+01 3.76617E+01 0.00000E+00
 -1      3543 4.05210E+01 3.04899E+01 0.00000E+00
 -1      3544 4.12330E+01 3.12139E+01 0.00000E+00
 -1      3545 4.12692E+01 2.94199E+01 0.00000E+00
 -1      3546 1.82234E+01 2.03125E+01 0.00000E+00
 -1      3547 1.90303E+01 1.93838E+01 0.00000E+00
 -1      3548 1.67479E+01 1.95925E+01 0.00000E+00
 -1      3549 1.35794E+02 3.48843E+01 0.00000E+00
 -1      3550 4.08363E+01 3.40461E+01 0.00000E+00
 -1      3551 4.18036E+01 3.48544E+01 0.00000E+00
 -1      3552 4.14522E+01 3.30922E+01 0.00000E+00
 -1      3553 2.91240E+01 1.38785E+01 0.00000E+00
 -1      3554 2.76240E+01 1.38785E+01 0.00000E+00
 -1      3555 2.98740E+01 1.51775E+01 0.00000E+00
 -1      3556 1.34495E+02 3.41468E+01 0.00000E+00
 -1      3557 1.35646E+02 1.63519E+01 0.00000E+00
 -1      3558 1.34442E+02 1.58585E+01 0.00000E+00
 -1      3559 1.35805E+02 1.86441E+01 0.00000E+00
 -1      3560 3.73457E+01 2.45748E+01 0.00000E+00
 -1      3561 3.88740E+01 1.51775E+01 0.00000E+00
 -1      3562 3.81240E+01 1.38785E+01 0.00000E+00
 -1      3563 3.66240E+01 1.38785E+01 0.00000E+00
 -1      3564 1.32329E+02 1.43719E+01 0.00000E+00
 -1      3565 1.35711E+02 2.57500E+01 0.00000E+00
 -1      3566 1.34412E+02 2.50125E+01 0.00000E+00
 -1      3567 1.35711E+02 2.72125E+01 0.00000E+00
 -1      3568 2.93800E+01 1.90013E+01 0.00000E+00
 -1      3569 1.34412E+02 3.08875E+01 0.00000E+00
 -1      3570 1.35711E+02 3.01500E+01 0.00000E+00
 -1      3571 1.35711E+02 2.86875E+01 0.00000E+00
 -1      3572 1.35758E+02 2.14627E+01 0.00000E+00
 -1      3573 1.35758E+02 1.99939E+01 0.00000E+00
 -1      3574 1.34554E+02 1.95005E+01 0.00000E+00
 -1      3575 1.34459E+02 2.22002E+01 0.00000E+00
 -1      3576 2.22423E+01 1.97442E+01 0.00000E+00
 -1      3577 2.49757E+01 1.85159E+01 0.00000E+00
 -1      3578 2.59205E+01 1.89972E+01 0.00000E+00
 -1      3579 2.69174E+01 1.81284E+01 0.00000E+00
 -1      3580 3.95173E+01 2.71489E+01 0.00000E+00
 -1      3581 2.16240E+01 1.38785E+01 0.00000E+00
 -1      3582 2.08740E+01 1.51775E+01 0.00000E+00
 -1      3583 2.31240E+01 1.38785E+01 0.00000E+00
 -1      3584 1.69013E+01 1.38127E+01 0.00000E+00
 -1      3585 1.51401E+01 1.36875E+01 0.00000E+00
 -1      3586 1.76513E+01 1.51117E+01 0.00000E+00
 -1      3587 4.35056E+01 3.63627E+01 0.00000E+00
 -1      3588 1.36708E+01 1.27646E+01 0.00000E+00
 -1      3589 3.51240E+01 1.38785E+01 0.00000E+00
 -1      3590 3.36240E+01 1.38785E+01 0.00000E+00
 -1      3591 3.28740E+01 1.51775E+01 0.00000E+00
 -1      3592 3.58740E+01 1.51775E+01 0.00000E+00
 -1      3593 1.44054E+01 1.39605E+01 0.00000E+00
 -1      3594 1.37247E+01 1.43958E+01 0.00000E+00
 -1      3595 1.37247E+01 1.58646E+01 0.00000E+00
 -1      3596 1.51940E+01 1.53188E+01 0.00000E+00
 -1      3597 3.25372E+01 2.04272E+01 0.00000E+00
 -1      3598 3.51953E+01 2.25045E+01 0.00000E+00
 -1      3599 5.19000E+01 3.45112E+01 0.00000E+00
 -1      3600 5.34000E+01 3.45112E+01 0.00000E+00
 -1      3601 5.49000E+01 3.45112E+01 0.00000E+00
 -1      3602 5.64000E+01 3.45112E+01 0.00000E+00
 -1      3603 5.41500E+01 3.32122E+01 0.00000E+00
 -1      3604 5.79000E+01 3.45112E+01 0.00000E+00
 -1      3605 5.94000E+01 3.45112E+01 0.00000E+00
 -1      3606 5.71500E+01 3.32122E+01 0.00000E+00
 -1      3607 6.09750E+01 3.45112E+01 0.00000E+00
 -1      3608 6.25500E+01 3.45112E+01 0.00000E+00
 -1      3609 6.02250E+01 3.32122E+01 0.00000E+00
 -1      3610 6.40500E+01 3.45112E+01 0.00000E+00
 -1      3611 6.55500E+01 3.45112E+01 0.00000E+00
 -1      3612 6.33000E+01 3.32122E+01 0.00000E+00
 -1      3613 6.70500E+01 3.45112E+01 0.00000E+00
 -1      3614 6.85500E+01 3.45112E+01 0.00000E+00
 -1      3615 6.63000E+01 3.32122E+01 0.00000E+00
 -1      3616 7.00500E+01 3.45112E+01 0.00000E+00
 -1      3617 7.15500E+01 3.45112E+01 0.00000E+00
 -1      3618 6.93000E+01 3.32122E+01 0.00000E+00
 -1      3619 7.30500E+01 3.45112E+01 0.00000E+00
 -1      3620 7.45500E+01 3.45112E+01 0.00000E+00
 -1      3621 7.23000E+01 3.32122E+01 0.00000E+00
 -1      3622 7.60500E+01 3.45112E+01 0.00000E+00
 -1      3623 7.75500E+01 3.45112E+01 0.00000E+00
 -1      3624 7.53000E+01 3.32122E+01 0.00000E+00
 -1      3625 7.90500E+01 3.45112E+01 0.00000E+00
 -1      3626 8.05500E+01 3.45112E+01 0.00000E+00
 -1      3627 7.83000E+01 3.32122E+01 0.00000E+00
 -1      3628 8.20500E+01 3.45112E+01 0.00000E+00
 -1      3629 8.35500E+01 3.45112E+01 0.00000E+00
 -1      3630 8.13000E+01 3.32122E+01 0.00000E+00
 -1      3631 8.50500E+01 3.45112E+01 0.00000E+00
 -1      3632 8.65500E+01 3.45112E+01 0.00000E+00
 -1      3633 8.43000E+01 3.32122E+01 0.00000E+00
 -1      3634 8.80500E+01 3.45112E+01 0.00000E+00
 -1      3635 8.95500E+01 3.45112E+01 0.00000E+00
 -1      3636 8.73000E+01 3.32122E+01 0.00000E+00
 -1      3637 9.10500E+01 3.45112E+01 0.00000E+00
 -1      3638 9.25500E+01 3.45112E+01 0.00000E+00
 -1      3639 9.03000E+01 3.32122E+01 0.00000E+00
 -1      3640 9.40500E+01 3.45112E+01 0.00000E+00
 -1      3641 9.55500E+01 3.45112E+01 0.00000E+00
 -1      3642 9.33000E+01 3.32122E+01 0.00000E+00
 -1      3643 9.70500E+01 3.45112E+01 0.00000E+00
 -1      3644 9.85500E+01 3.45112E+01 0.00000E+00
 -1      3645 9.63000E+01 3.32122E+01 0.00000E+00
 -1      3646 1.00050E+02 3.45112E+01 0.00000E+00
 -1      3647 1.01550E+02 3.45112E+01 0.00000E+00
 -1      3648 9.93000E+01 3.32122E+01 0.00000E+00
 -1      3649 1.03050E+02 3.45112E+01 0.00000E+00
 -1      3650 1.04550E+02 3.45112E+01 0.00000E+00
 -1      3651 1.02300E+02 3.32122E+01 0.00000E+00
 -1      3652 1.06050E+02 3.45112E+01 0.00000E+00
 -1      3653 1.07550E+02 3.45112E+01 0.00000E+00
 -1      3654 1.05300E+02 3.32122E+01 0.00000E+00
 -1      3655 1.09050E+02 3.45112E+01 0.00000E+00
 -1      3656 1.10550E+02 3.45112E+01 0.00000E+00
 -1      3657 1.08300E+02 3.32122E+01 0.00000E+00
 -1      3658 1.12050E+02 3.45112E+01 0.00000E+00
 -1      3659 1.13550E+02 3.45112E+01 0.00000E+00
 -1      3660 1.11300E+02 3.32122E+01 0.00000E+00
 -1      3661 1.15050E+02 3.45112E+01 0.00000E+00
 -1      3662 1.16550E+02 3.45112E+01 0.00000E+00
 -1      3663 1.14300E+02 3.32122E+01 0.00000E+00
 -1      3664 1.18050E+02 3.45112E+01 0.00000E+00
 -1      3665 1.19550E+02 3.45112E+01 0.00000E+00
 -1      3666 1.17300E+02 3.32122E+01 0.00000E+00
 -1      3667 1.21050E+02 3.45112E+01 0.00000E+00
 -1      3668 1.22550E+02 3.45112E+01 0.00000E+00
 -1      3669 1.20300E+02 3.32122E+01 0.00000E+00
 -1      3670 1.24050E+02 3.45112E+01 0.00000E+00
 -1      3671 1.25550E+02 3.45112E+01 0.00000E+00
 -1      3672 1.23300E+02 3.32122E+01 0.00000E+00
 -1      3673 1.27050E+02 3.45112E+01 0.00000E+00
 -1      3674 1.28550E+02 3.45112E+01 0.00000E+00
 -1      3675 1.26300E+02 3.32122E+01 0.00000E+00
 -1      3676 1.30050E+02 3.45112E+01 0.00000E+00
 -1      3677 1.31550E+02 3.45112E+01 0.00000E+00
 -1      3678 1.29300E+02 3.32122E+01 0.00000E+00
 -1      3679 1.33356E+02 3.40801E+01 0.00000E+00
 -1      3680 4.26240E+01 1.64765E+01 0.00000E+00
 -1      3681 4.11240E+01 1.64765E+01 0.00000E+00
 -1      3682 5.46240E+01 1.64765E+01 0.00000E+00
 -1      3683 5.31240E+01 1.64765E+01 0.00000E+00
 -1      3684 5.16240E+01 1.64765E+01 0.00000E+00
 -1      3685 5.01240E+01 1.64765E+01 0.00000E+00
 -1      3686 5.23740E+01 1.77755E+01 0.00000E+00
 -1      3687 6.06240E+01 1.64765E+01 0.00000E+00
 -1      3688 5.91240E+01 1.64765E+01 0.00000E+00
 -1      3689 6.36240E+01 1.64765E+01 0.00000E+00
 -1      3690 6.21240E+01 1.64765E+01 0.00000E+00
 -1      3691 6.13740E+01 1.77755E+01 0.00000E+00
 -1      3692 6.66240E+01 1.64765E+01 0.00000E+00
 -1      3693 6.51240E+01 1.64765E+01 0.00000E+00
 -1      3694 6.43740E+01 1.77755E+01 0.00000E+00
 -1      3695 6.96240E+01 1.64765E+01 0.00000E+00
 -1      3696 6.81240E+01 1.64765E+01 0.00000E+00
 -1      3697 6.73740E+01 1.77755E+01 0.00000E+00
 -1      3698 7.26240E+01 1.64765E+01 0.00000E+00
 -1      3699 7.11240E+01 1.64765E+01 0.00000E+00
 -1      3700 7.03740E+01 1.77755E+01 0.00000E+00
 -1      3701 7.56240E+01 1.64765E+01 0.00000E+00
 -1      3702 7.41240E+01 1.64765E+01 0.00000E+00
 -1      3703 7.33740E+01 1.77755E+01 0.00000E+00
 -1      3704 7.86240E+01 1.64765E+01 0.00000E+00
 -1      3705 7.71240E+01 1.64765E+01 0.00000E+00
 -1      3706 7.63740E+01 1.77755E+01 0.00000E+00
 -1      3707 8.16240E+01 1.64765E+01 0.00000E+00
 -1      3708 8.01240E+01 1.64765E+01 0.00000E+00
 -1      3709 7.93740E+01 1.77755E+01 0.00000E+00
 -1      3710 8.46240E+01 1.64765E+01 0.00000E+00
 -1      3711 8.31240E+01 1.64765E+01 0.00000E+00
 -1      3712 8.23740E+01 1.77755E+01 0.00000E+00
 -1      3713 8.76240E+01 1.64765E+01 0.00000E+00
 -1      3714 8.61240E+01 1.64765E+01 0.00000E+00
 -1      3715 8.53740E+01 1.77755E+01 0.00000E+00
 -1      3716 9.06240E+01 1.64765E+01 0.00000E+00
 -1      3717 8.91240E+01 1.64765E+01 0.00000E+00
 -1      3718 8.83740E+01 1.77755E+01 0.00000E+00
 -1      3719 9.36240E+01 1.64765E+01 0.00000E+00
 -1      3720 9.21240E+01 1.64765E+01 0.00000E+00
 -1      3721 9.13740E+01 1.77755E+01 0.00000E+00
 -1      3722 9.66240E+01 1.64765E+01 0.00000E+00
 -1      3723 9.51240E+01 1.64765E+01 0.00000E+00
 -1      3724 9.43740E+01 1.77755E+01 0.00000E+00
 -1      3725 9.96240E+01 1.64765E+01 0.00000E+00
 -1      3726 9.81240E+01 1.64765E+01 0.00000E+00
 -1      3727 9.73740E+01 1.77755E+01 0.00000E+00
 -1      3728 1.02624E+02 1.64765E+01 0.00000E+00
 -1      3729 1.01124E+02 1.64765E+01 0.00000E+00
 -1      3730 1.00374E+02 1.77755E+01 0.00000E+00
 -1      3731 1.05624E+02 1.64765E+01 0.00000E+00
 -1      3732 1.04124E+02 1.64765E+01 0.00000E+00
 -1      3733 1.03374E+02 1.77755E+01 0.00000E+00
 -1      3734 1.08624E+02 1.64765E+01 0.00000E+00
 -1      3735 1.07124E+02 1.64765E+01 0.00000E+00
 -1      3736 1.06374E+02 1.77755E+01 0.00000E+00
 -1      3737 1.11624E+02 1.64765E+01 0.00000E+00
 -1      3738 1.10124E+02 1.64765E+01 0.00000E+00
 -1      3739 1.09374E+02 1.77755E+01 0.00000E+00
 -1      3740 1.14624E+02 1.64765E+01 0.00000E+00
 -1      3741 1.13124E+02 1.64765E+01 0.00000E+00
 -1      3742 1.12374E+02 1.77755E+01 0.00000E+00
 -1      3743 1.17624E+02 1.64765E+01 0.00000E+00
 -1      3744 1.16124E+02 1.64765E+01 0.00000E+00
 -1      3745 1.15374E+02 1.77755E+01 0.00000E+00
 -1      3746 1.20624E+02 1.64765E+01 0.00000E+00
 -1      3747 1.19124E+02 1.64765E+01 0.00000E+00
 -1      3748 1.18374E+02 1.77755E+01 0.00000E+00
 -1      3749 1.23624E+02 1.64765E+01 0.00000E+00
 -1      3750 1.22124E+02 1.64765E+01 0.00000E+00
 -1      3751 1.21374E+02 1.77755E+01 0.00000E+00
 -1      3752 1.26624E+02 1.64765E+01 0.00000E+00
 -1      3753 1.25124E+02 1.64765E+01 0.00000E+00
 -1      3754 1.24374E+02 1.77755E+01 0.00000E+00
 -1      3755 1.29624E+02 1.64765E+01 0.00000E+00
 -1      3756 1.28124E+02 1.64765E+01 0.00000E+00
 -1      3757 1.27374E+02 1.77755E+01 0.00000E+00
 -1      3758 2.11492E+01 1.88381E+01 0.00000E+00
 -1      3759 2.28856E+01 1.84786E+01 0.00000E+00
 -1      3760 4.59000E+01 3.45112E+01 0.00000E+00
 -1      3761 4.74000E+01 3.45112E+01 0.00000E+00
 -1      3762 5.76240E+01 1.64765E+01 0.00000E+00
 -1      3763 5.61240E+01 1.64765E+01 0.00000E+00
 -1      3764 5.53740E+01 1.77755E+01 0.00000E+00
 -1      3765 2.96181E+01 1.68937E+01 0.00000E+00
 -1      3766 3.11359E+01 1.72852E+01 0.00000E+00
 -1      3767 2.61240E+01 1.38785E+01 0.00000E+00
 -1      3768 2.46240E+01 1.38785E+01 0.00000E+00
 -1      3769 2.38740E+01 1.51775E+01 0.00000E+00
 -1      3770 2.68740E+01 1.51775E+01 0.00000E+00
 -1      3771 1.84644E+01 1.69207E+01 0.00000E+00
 -1      3772 1.67417E+01 1.68549E+01 0.00000E+00
 -1      3773 1.40951E+01 1.70970E+01 0.00000E+00
 -1      3774 1.40951E+01 1.85688E+01 0.00000E+00
 -1      3775 1.55706E+01 1.92888E+01 0.00000E+00
 -1      3776 1.48298E+01 1.68240E+01 0.00000E+00
 -1      3777 3.75252E+01 2.32401E+01 0.00000E+00
 -1      3778 3.86568E+01 2.42673E+01 0.00000E+00
 -1      3779 4.21404E+01 3.54079E+01 0.00000E+00
 -1      3780 4.24771E+01 3.59613E+01 0.00000E+00
 -1      3781 4.27563E+01 3.44540E+01 0.00000E+00
 -1      3782 3.23539E+01 1.89013E+01 0.00000E+00
 -1      3783 3.39933E+01 1.99356E+01 0.00000E+00
 -1      3784 3.99871E+01 2.57100E+01 0.00000E+00
 -1      3785 4.10271E+01 2.72569E+01 0.00000E+00
 -1      3786 4.89000E+01 3.45112E+01 0.00000E+00
 -1      3787 5.04000E+01 3.45112E+01 0.00000E+00
 -1      3788 5.11500E+01 3.32122E+01 0.00000E+00
 -1      3789 4.81500E+01 3.32122E+01 0.00000E+00
 -1      3790 1.32488E+02 1.66641E+01 0.00000E+00
 -1      3791 3.54877E+01 2.11539E+01 0.00000E+00
 -1      3792 3.65064E+01 2.21970E+01 0.00000E+00
 -1      3793 3.78176E+01 2.18895E+01 0.00000E+00
 -1      3794 1.32606E+02 3.27811E+01 0.00000E+00
 -1      3795 3.25920E+01 1.67936E+01 0.00000E+00
 -1      3796 2.81181E+01 1.68937E+01 0.00000E+00
 -1      3797 4.17390E+01 2.79810E+01 0.00000E+00
 -1      3798 4.24510E+01 2.87051E+01 0.00000E+00
 -1      3799 4.22089E+01 2.65422E+01 0.00000E+00
 -1      3800 1.63775E+01 1.83601E+01 0.00000E+00
 -1      3801 4.22003E+01 3.20223E+01 0.00000E+00
 -1      3802 4.31677E+01 3.28306E+01 0.00000E+00
 -1      3803 4.29484E+01 3.09523E+01 0.00000E+00
 -1      3804 3.53044E+01 1.96281E+01 0.00000E+00
 -1      3805 4.41240E+01 1.64765E+01 0.00000E+00
 -1      3806 4.33740E+01 1.77755E+01 0.00000E+00
 -1      3807 4.56240E+01 1.64765E+01 0.00000E+00
 -1      3808 5.83740E+01 1.77755E+01 0.00000E+00
 -1      3809 3.96240E+01 1.64765E+01 0.00000E+00
 -1      3810 3.81240E+01 1.64765E+01 0.00000E+00
 -1      3811 4.03740E+01 1.77755E+01 0.00000E+00
 -1      3812 4.93740E+01 1.77755E+01 0.00000E+00
 -1      3813 4.86240E+01 1.64765E+01 0.00000E+00
 -1      3814 4.71240E+01 1.64765E+01 0.00000E+00
 -1      3815 2.38826E+01 1.76098E+01 0.00000E+00
 -1      3816 1.96737E+01 1.81182E+01 0.00000E+00
 -1      3817 1.33146E+02 1.87318E+01 0.00000E+00
 -1      3818 1.31032E+02 1.72452E+01 0.00000E+00
 -1      3819 1.30282E+02 1.85442E+01 0.00000E+00
 -1      3820 1.33098E+02 2.00816E+01 0.00000E+00
 -1      3821 1.34412E+02 2.79500E+01 0.00000E+00
 -1      3822 1.32606E+02 3.13186E+01 0.00000E+00
 -1      3823 1.32606E+02 2.98561E+01 0.00000E+00
 -1      3824 1.30800E+02 3.17497E+01 0.00000E+00
 -1      3825 1.33004E+02 2.27813E+01 0.00000E+00
 -1      3826 1.33051E+02 2.14315E+01 0.00000E+00
 -1      3827 1.31643E+02 2.06628E+01 0.00000E+00
 -1      3828 4.01666E+01 2.43753E+01 0.00000E+00
 -1      3829 2.05833E+01 1.63750E+01 0.00000E+00
 -1      3830 4.41215E+01 3.54088E+01 0.00000E+00
 -1      3831 2.71734E+01 1.64123E+01 0.00000E+00
 -1      3832 1.33004E+02 2.57063E+01 0.00000E+00
 -1      3833 1.33004E+02 2.42438E+01 0.00000E+00
 -1      3834 1.31596E+02 2.34751E+01 0.00000E+00
 -1      3835 4.45329E+01 3.37854E+01 0.00000E+00
 -1      3836 4.52829E+01 3.24864E+01 0.00000E+00
 -1      3837 2.20833E+01 1.63750E+01 0.00000E+00
 -1      3838 3.40920E+01 1.67936E+01 0.00000E+00
 -1      3839 4.34183E+01 2.95134E+01 0.00000E+00
 -1      3840 4.43857E+01 3.03217E+01 0.00000E+00
 -1      3841 4.38882E+01 2.80745E+01 0.00000E+00
 -1      3842 5.31240E+01 1.90745E+01 0.00000E+00
 -1      3843 5.16240E+01 1.90745E+01 0.00000E+00
 -1      3844 5.64000E+01 3.19132E+01 0.00000E+00
 -1      3845 5.79000E+01 3.19132E+01 0.00000E+00
 -1      3846 5.94750E+01 3.19132E+01 0.00000E+00
 -1      3847 6.10500E+01 3.19132E+01 0.00000E+00
 -1      3848 5.87250E+01 3.06142E+01 0.00000E+00
 -1      3849 6.25500E+01 3.19132E+01 0.00000E+00
 -1      3850 6.40500E+01 3.19132E+01 0.00000E+00
 -1      3851 6.18000E+01 3.06142E+01 0.00000E+00
 -1      3852 6.55500E+01 3.19132E+01 0.00000E+00
 -1      3853 6.70500E+01 3.19132E+01 0.00000E+00
 -1      3854 6.48000E+01 3.06142E+01 0.00000E+00
 -1      3855 6.85500E+01 3.19132E+01 0.00000E+00
 -1      3856 7.00500E+01 3.19132E+01 0.00000E+00
 -1      3857 6.78000E+01 3.06142E+01 0.00000E+00
 -1      3858 7.15500E+01 3.19132E+01 0.00000E+00
 -1      3859 7.30500E+01 3.19132E+01 0.00000E+00
 -1      3860 7.08000E+01 3.06142E+01 0.00000E+00
 -1      3861 7.45500E+01 3.19132E+01 0.00000E+00
 -1      3862 7.60500E+01 3.19132E+01 0.00000E+00
 -1      3863 7.38000E+01 3.06142E+01 0.00000E+00
 -1      3864 7.75500E+01 3.19132E+01 0.00000E+00
 -1      3865 7.90500E+01 3.19132E+01 0.00000E+00
 -1      3866 7.68000E+01 3.06142E+01 0.00000E+00
 -1      3867 8.05500E+01 3.19132E+01 0.00000E+00
 -1      3868 8.20500E+01 3.19132E+01 0.00000E+00
 -1      3869 7.98000E+01 3.06142E+01 0.00000E+00
 -1      3870 8.35500E+01 3.19132E+01 0.00000E+00
 -1      3871 8.50500E+01 3.19132E+01 0.00000E+00
 -1      3872 8.28000E+01 3.06142E+01 0.00000E+00
 -1      3873 8.65500E+01 3.19132E+01 0.00000E+00
 -1      3874 8.80500E+01 3.19132E+01 0.00000E+00
 -1      3875 8.58000E+01 3.06142E+01 0.00000E+00
 -1      3876 8.95500E+01 3.19132E+01 0.00000E+00
 -1      3877 9.10500E+01 3.19132E+01 0.00000E+00
 -1      3878 8.88000E+01 3.06142E+01 0.00000E+00
 -1      3879 9.25500E+01 3.19132E+01 0.00000E+00
 -1      3880 9.40500E+01 3.19132E+01 0.00000E+00
 -1      3881 9.18000E+01 3.06142E+01 0.00000E+00
 -1      3882 9.55500E+01 3.19132E+01 0.00000E+00
 -1      3883 9.70500E+01 3.19132E+01 0.00000E+00
 -1      3884 9.48000E+01 3.06142E+01 0.00000E+00
 -1      3885 9.85500E+01 3.19132E+01 0.00000E+00
 -1      3886 1.00050E+02 3.19132E+01 0.00000E+00
 -1      3887 9.78000E+01 3.06142E+01 0.00000E+00
 -1      3888 1.01550E+02 3.19132E+01 0.00000E+00
 -1      3889 1.03050E+02 3.19132E+01 0.00000E+00
 -1      3890 1.00800E+02 3.06142E+01 0.00000E+00
 -1      3891 1.04550E+02 3.19132E+01 0.00000E+00
 -1      3892 1.06050E+02 3.19132E+01 0.00000E+00
 -1      3893 1.03800E+02 3.06142E+01 0.00000E+00
 -1      3894 1.07550E+02 3.19132E+01 0.00000E+00
 -1      3895 1.09050E+02 3.19132E+01 0.00000E+00
 -1      3896 1.06800E+02 3.06142E+01 0.00000E+00
 -1      3897 1.10550E+02 3.19132E+01 0.00000E+00
 -1      3898 1.12050E+02 3.19132E+01 0.00000E+00
 -1      3899 1.09800E+02 3.06142E+01 0.00000E+00
 -1      3900 1.13550E+02 3.19132E+01 0.00000E+00
 -1      3901 1.15050E+02 3.19132E+01 0.00000E+00
 -1      3902 1.12800E+02 3.06142E+01 0.00000E+00
 -1      3903 1.16550E+02 3.19132E+01 0.00000E+00
 -1      3904 1.18050E+02 3.19132E+01 0.00000E+00
 -1      3905 1.15800E+02 3.06142E+01 0.00000E+00
 -1      3906 1.19550E+02 3.19132E+01 0.00000E+00
 -1      3907 1.21050E+02 3.19132E+01 0.00000E+00
 -1      3908 1.18800E+02 3.06142E+01 0.00000E+00
 -1      3909 1.22550E+02 3.19132E+01 0.00000E+00
 -1      3910 1.24050E+02 3.19132E+01 0.00000E+00
 -1      3911 1.21800E+02 3.06142E+01 0.00000E+00
 -1      3912 1.25550E+02 3.19132E+01 0.00000E+00
 -1      3913 1.27050E+02 3.19132E+01 0.00000E+00
 -1      3914 1.24800E+02 3.06142E+01 0.00000E+00
 -1      3915 1.28175E+02 3.18314E+01 0.00000E+00
 -1      3916 1.29675E+02 3.18314E+01 0.00000E+00
 -1      3917 1.29675E+02 3.03689E+01 0.00000E+00
 -1      3918 1.27425E+02 3.05324E+01 0.00000E+00
 -1      3919 3.82375E+01 2.04604E+01 0.00000E+00
 -1      3920 3.92562E+01 2.15034E+01 0.00000E+00
 -1      3921 6.51240E+01 1.90745E+01 0.00000E+00
 -1      3922 6.36240E+01 1.90745E+01 0.00000E+00
 -1      3923 6.21240E+01 1.90745E+01 0.00000E+00
 -1      3924 6.06240E+01 1.90745E+01 0.00000E+00
 -1      3925 6.28740E+01 2.03735E+01 0.00000E+00
 -1      3926 7.11240E+01 1.90745E+01 0.00000E+00
 -1      3927 6.96240E+01 1.90745E+01 0.00000E+00
 -1      3928 7.41240E+01 1.90745E+01 0.00000E+00
 -1      3929 7.26240E+01 1.90745E+01 0.00000E+00
 -1      3930 7.18740E+01 2.03735E+01 0.00000E+00
 -1      3931 7.71240E+01 1.90745E+01 0.00000E+00
 -1      3932 7.56240E+01 1.90745E+01 0.00000E+00
 -1      3933 7.48740E+01 2.03735E+01 0.00000E+00
 -1      3934 8.01240E+01 1.90745E+01 0.00000E+00
 -1      3935 7.86240E+01 1.90745E+01 0.00000E+00
 -1      3936 7.78740E+01 2.03735E+01 0.00000E+00
 -1      3937 8.31240E+01 1.90745E+01 0.00000E+00
 -1      3938 8.16240E+01 1.90745E+01 0.00000E+00
 -1      3939 8.08740E+01 2.03735E+01 0.00000E+00
 -1      3940 8.61240E+01 1.90745E+01 0.00000E+00
 -1      3941 8.46240E+01 1.90745E+01 0.00000E+00
 -1      3942 8.38740E+01 2.03735E+01 0.00000E+00
 -1      3943 8.91240E+01 1.90745E+01 0.00000E+00
 -1      3944 8.76240E+01 1.90745E+01 0.00000E+00
 -1      3945 8.68740E+01 2.03735E+01 0.00000E+00
 -1      3946 9.21240E+01 1.90745E+01 0.00000E+00
 -1      3947 9.06240E+01 1.90745E+01 0.00000E+00
 -1      3948 8.98740E+01 2.03735E+01 0.00000E+00
 -1      3949 9.51240E+01 1.90745E+01 0.00000E+00
 -1      3950 9.36240E+01 1.90745E+01 0.00000E+00
 -1      3951 9.28740E+01 2.03735E+01 0.00000E+00
 -1      3952 9.81240E+01 1.90745E+01 0.00000E+00
 -1      3953 9.66240E+01 1.90745E+01 0.00000E+00
 -1      3954 9.58740E+01 2.03735E+01 0.00000E+00
 -1      3955 1.01124E+02 1.90745E+01 0.00000E+00
 -1      3956 9.96240E+01 1.90745E+01 0.00000E+00
 -1      3957 9.88740E+01 2.03735E+01 0.00000E+00
 -1      3958 1.04124E+02 1.90745E+01 0.00000E+00
 -1      3959 1.02624E+02 1.90745E+01 0.00000E+00
 -1      3960 1.01874E+02 2.03735E+01 0.00000E+00
 -1      3961 1.07124E+02 1.90745E+01 0.00000E+00
 -1      3962 1.05624E+02 1.90745E+01 0.00000E+00
 -1      3963 1.04874E+02 2.03735E+01 0.00000E+00
 -1      3964 1.10124E+02 1.90745E+01 0.00000E+00
 -1      3965 1.08624E+02 1.90745E+01 0.00000E+00
 -1      3966 1.07874E+02 2.03735E+01 0.00000E+00
 -1      3967 1.13124E+02 1.90745E+01 0.00000E+00
 -1      3968 1.11624E+02 1.90745E+01 0.00000E+00
 -1      3969 1.10874E+02 2.03735E+01 0.00000E+00
 -1      3970 1.16124E+02 1.90745E+01 0.00000E+00
 -1      3971 1.14624E+02 1.90745E+01 0.00000E+00
 -1      3972 1.13874E+02 2.03735E+01 0.00000E+00
 -1      3973 1.19124E+02 1.90745E+01 0.00000E+00
 -1      3974 1.17624E+02 1.90745E+01 0.00000E+00
 -1      3975 1.16874E+02 2.03735E+01 0.00000E+00
 -1      3976 1.22124E+02 1.90745E+01 0.00000E+00
 -1      3977 1.20624E+02 1.90745E+01 0.00000E+00
 -1      3978 1.19874E+02 2.03735E+01 0.00000E+00
 -1      3979 1.25124E+02 1.90745E+01 0.00000E+00
 -1      3980 1.23624E+02 1.90745E+01 0.00000E+00
 -1      3981 1.22874E+02 2.03735E+01 0.00000E+00
 -1      3982 1.28124E+02 1.90745E+01 0.00000E+00
 -1      3983 1.26624E+02 1.90745E+01 0.00000E+00
 -1      3984 1.25874E+02 2.03735E+01 0.00000E+00
 -1      3985 4.04564E+01 2.27734E+01 0.00000E+00
 -1      3986 4.17868E+01 2.42161E+01 0.00000E+00
 -1      3987 5.61240E+01 1.90745E+01 0.00000E+00
 -1      3988 5.46240E+01 1.90745E+01 0.00000E+00
 -1      3989 5.38740E+01 2.03735E+01 0.00000E+00
 -1      3990 4.57528E+01 3.10475E+01 0.00000E+00
 -1      3991 4.71199E+01 3.17733E+01 0.00000E+00
 -1      3992 4.62226E+01 2.96086E+01 0.00000E+00
 -1      3993 1.32805E+02 2.85187E+01 0.00000E+00
 -1      3994 1.32805E+02 2.70437E+01 0.00000E+00
 -1      3995 1.31397E+02 2.62750E+01 0.00000E+00
 -1      3996 1.30999E+02 2.89498E+01 0.00000E+00
 -1      3997 1.55644E+01 1.65511E+01 0.00000E+00
 -1      3998 2.56734E+01 1.64123E+01 0.00000E+00
 -1      3999 3.55920E+01 1.67936E+01 0.00000E+00
 -1      4000 2.35833E+01 1.63750E+01 0.00000E+00
 -1      4001 6.81240E+01 1.90745E+01 0.00000E+00
 -1      4002 6.66240E+01 1.90745E+01 0.00000E+00
 -1      4003 6.88740E+01 2.03735E+01 0.00000E+00
 -1      4004 5.34000E+01 3.19132E+01 0.00000E+00
 -1      4005 5.49000E+01 3.19132E+01 0.00000E+00
 -1      4006 5.56500E+01 3.06142E+01 0.00000E+00
 -1      4007 5.91240E+01 1.90745E+01 0.00000E+00
 -1      4008 5.76240E+01 1.90745E+01 0.00000E+00
 -1      4009 5.98740E+01 2.03735E+01 0.00000E+00
 -1      4010 3.63420E+01 1.80926E+01 0.00000E+00
 -1      4011 3.78364E+01 1.93110E+01 0.00000E+00
 -1      4012 4.86199E+01 3.17733E+01 0.00000E+00
 -1      4013 5.08740E+01 2.03735E+01 0.00000E+00
 -1      4014 5.01240E+01 1.90745E+01 0.00000E+00
 -1      4015 4.86240E+01 1.90745E+01 0.00000E+00
 -1      4016 4.63740E+01 1.77755E+01 0.00000E+00
 -1      4017 4.08764E+01 2.13442E+01 0.00000E+00
 -1      4018 6.58740E+01 2.03735E+01 0.00000E+00
 -1      4019 4.07751E+01 1.89249E+01 0.00000E+00
 -1      4020 3.92751E+01 1.89249E+01 0.00000E+00
 -1      4021 4.32099E+01 2.36464E+01 0.00000E+00
 -1      4022 4.29201E+01 2.52484E+01 0.00000E+00
 -1      4023 1.29532E+02 1.98432E+01 0.00000E+00
 -1      4024 4.36320E+01 2.59724E+01 0.00000E+00
 -1      4025 5.68740E+01 2.03735E+01 0.00000E+00
 -1      4026 4.35044E+01 3.33840E+01 0.00000E+00
 -1      4027 1.30297E+02 2.42063E+01 0.00000E+00
 -1      4028 1.30297E+02 2.27438E+01 0.00000E+00
 -1      4029 5.04000E+01 3.19132E+01 0.00000E+00
 -1      4030 5.19000E+01 3.19132E+01 0.00000E+00
 -1      4031 5.26500E+01 3.06142E+01 0.00000E+00
 -1      4032 1.29485E+02 2.11930E+01 0.00000E+00
 -1      4033 1.28186E+02 2.19243E+01 0.00000E+00
 -1      4034 4.26746E+01 1.89852E+01 0.00000E+00
 -1      4035 4.15757E+01 2.01346E+01 0.00000E+00
 -1      4036 4.27759E+01 2.14045E+01 0.00000E+00
 -1      4037 4.41746E+01 1.89852E+01 0.00000E+00
 -1      4038 6.10500E+01 2.93152E+01 0.00000E+00
 -1      4039 6.25500E+01 2.93152E+01 0.00000E+00
 -1      4040 6.40500E+01 2.93152E+01 0.00000E+00
 -1      4041 6.55500E+01 2.93152E+01 0.00000E+00
 -1      4042 6.33000E+01 2.80162E+01 0.00000E+00
 -1      4043 6.70500E+01 2.93152E+01 0.00000E+00
 -1      4044 6.85500E+01 2.93152E+01 0.00000E+00
 -1      4045 6.63000E+01 2.80162E+01 0.00000E+00
 -1      4046 7.00500E+01 2.93152E+01 0.00000E+00
 -1      4047 7.15500E+01 2.93152E+01 0.00000E+00
 -1      4048 6.93000E+01 2.80162E+01 0.00000E+00
 -1      4049 7.30500E+01 2.93152E+01 0.00000E+00
 -1      4050 7.45500E+01 2.93152E+01 0.00000E+00
 -1      4051 7.23000E+01 2.80162E+01 0.00000E+00
 -1      4052 7.60500E+01 2.93152E+01 0.00000E+00
 -1      4053 7.75500E+01 2.93152E+01 0.00000E+00
 -1      4054 7.53000E+01 2.80162E+01 0.00000E+00
 -1      4055 7.90500E+01 2.93152E+01 0.00000E+00
 -1      4056 8.05500E+01 2.93152E+01 0.00000E+00
 -1      4057 7.83000E+01 2.80162E+01 0.00000E+00
 -1      4058 8.20500E+01 2.93152E+01 0.00000E+00
 -1      4059 8.35500E+01 2.93152E+01 0.00000E+00
 -1      4060 8.13000E+01 2.80162E+01 0.00000E+00
 -1      4061 8.50500E+01 2.93152E+01 0.00000E+00
 -1      4062 8.65500E+01 2.93152E+01 0.00000E+00
 -1      4063 8.43000E+01 2.80162E+01 0.00000E+00
 -1      4064 8.80500E+01 2.93152E+01 0.00000E+00
 -1      4065 8.95500E+01 2.93152E+01 0.00000E+00
 -1      4066 8.73000E+01 2.80162E+01 0.00000E+00
 -1      4067 9.10500E+01 2.93152E+01 0.00000E+00
 -1      4068 9.25500E+01 2.93152E+01 0.00000E+00
 -1      4069 9.03000E+01 2.80162E+01 0.00000E+00
 -1      4070 9.40500E+01 2.93152E+01 0.00000E+00
 -1      4071 9.55500E+01 2.93152E+01 0.00000E+00
 -1      4072 9.33000E+01 2.80162E+01 0.00000E+00
 -1      4073 9.70500E+01 2.93152E+01 0.00000E+00
 -1      4074 9.85500E+01 2.93152E+01 0.00000E+00
 -1      4075 9.63000E+01 2.80162E+01 0.00000E+00
 -1      4076 1.00050E+02 2.93152E+01 0.00000E+00
 -1      4077 1.01550E+02 2.93152E+01 0.00000E+00
 -1      4078 9.93000E+01 2.80162E+01 0.00000E+00
 -1      4079 1.03050E+02 2.93152E+01 0.00000E+00
 -1      4080 1.04550E+02 2.93152E+01 0.00000E+00
 -1      4081 1.02300E+02 2.80162E+01 0.00000E+00
 -1      4082 1.06050E+02 2.93152E+01 0.00000E+00
 -1      4083 1.07550E+02 2.93152E+01 0.00000E+00
 -1      4084 1.05300E+02 2.80162E+01 0.00000E+00
 -1      4085 1.09050E+02 2.93152E+01 0.00000E+00
 -1      4086 1.10550E+02 2.93152E+01 0.00000E+00
 -1      4087 1.08300E+02 2.80162E+01 0.00000E+00
 -1      4088 1.12050E+02 2.93152E+01 0.00000E+00
 -1      4089 1.13550E+02 2.93152E+01 0.00000E+00
 -1      4090 1.11300E+02 2.80162E+01 0.00000E+00
 -1      4091 1.15050E+02 2.93152E+01 0.00000E+00
 -1      4092 1.16550E+02 2.93152E+01 0.00000E+00
 -1      4093 1.14300E+02 2.80162E+01 0.00000E+00
 -1      4094 1.18050E+02 2.93152E+01 0.00000E+00
 -1      4095 1.19550E+02 2.93152E+01 0.00000E+00
 -1      4096 1.17300E+02 2.80162E+01 0.00000E+00
 -1      4097 1.21050E+02 2.93152E+01 0.00000E+00
 -1      4098 1.22550E+02 2.93152E+01 0.00000E+00
 -1      4099 1.20300E+02 2.80162E+01 0.00000E+00
 -1      4100 1.24050E+02 2.93152E+01 0.00000E+00
 -1      4101 1.25550E+02 2.93152E+01 0.00000E+00
 -1      4102 1.23300E+02 2.80162E+01 0.00000E+00
 -1      4103 5.49000E+01 2.93152E+01 0.00000E+00
 -1      4104 5.64000E+01 2.93152E+01 0.00000E+00
 -1      4105 4.71240E+01 1.90745E+01 0.00000E+00
 -1      4106 4.56240E+01 1.90745E+01 0.00000E+00
 -1      4107 4.78740E+01 2.03735E+01 0.00000E+00
 -1      4108 7.56240E+01 2.16725E+01 0.00000E+00
 -1      4109 7.41240E+01 2.16725E+01 0.00000E+00
 -1      4110 7.26240E+01 2.16725E+01 0.00000E+00
 -1      4111 7.11240E+01 2.16725E+01 0.00000E+00
 -1      4112 7.33740E+01 2.29715E+01 0.00000E+00
 -1      4113 8.16240E+01 2.16725E+01 0.00000E+00
 -1      4114 8.01240E+01 2.16725E+01 0.00000E+00
 -1      4115 8.46240E+01 2.16725E+01 0.00000E+00
 -1      4116 8.31240E+01 2.16725E+01 0.00000E+00
 -1      4117 8.23740E+01 2.29715E+01 0.00000E+00
 -1      4118 8.76240E+01 2.16725E+01 0.00000E+00
 -1      4119 8.61240E+01 2.16725E+01 0.00000E+00
 -1      4120 8.53740E+01 2.29715E+01 0.00000E+00
 -1      4121 9.06240E+01 2.16725E+01 0.00000E+00
 -1      4122 8.91240E+01 2.16725E+01 0.00000E+00
 -1      4123 8.83740E+01 2.29715E+01 0.00000E+00
 -1      4124 9.36240E+01 2.16725E+01 0.00000E+00
 -1      4125 9.21240E+01 2.16725E+01 0.00000E+00
 -1      4126 9.13740E+01 2.29715E+01 0.00000E+00
 -1      4127 9.66240E+01 2.16725E+01 0.00000E+00
 -1      4128 9.51240E+01 2.16725E+01 0.00000E+00
 -1      4129 9.43740E+01 2.29715E+01 0.00000E+00
 -1      4130 9.96240E+01 2.16725E+01 0.00000E+00
 -1      4131 9.81240E+01 2.16725E+01 0.00000E+00
 -1      4132 9.73740E+01 2.29715E+01 0.00000E+00
 -1      4133 1.02624E+02 2.16725E+01 0.00000E+00
 -1      4134 1.01124E+02 2.16725E+01 0.00000E+00
 -1      4135 1.00374E+02 2.29715E+01 0.00000E+00
 -1      4136 1.05624E+02 2.16725E+01 0.00000E+00
 -1      4137 1.04124E+02 2.16725E+01 0.00000E+00
 -1      4138 1.03374E+02 2.29715E+01 0.00000E+00
 -1      4139 1.08624E+02 2.16725E+01 0.00000E+00
 -1      4140 1.07124E+02 2.16725E+01 0.00000E+00
 -1      4141 1.06374E+02 2.29715E+01 0.00000E+00
 -1      4142 1.11624E+02 2.16725E+01 0.00000E+00
 -1      4143 1.10124E+02 2.16725E+01 0.00000E+00
 -1      4144 1.09374E+02 2.29715E+01 0.00000E+00
 -1      4145 1.14624E+02 2.16725E+01 0.00000E+00
 -1      4146 1.13124E+02 2.16725E+01 0.00000E+00
 -1      4147 1.12374E+02 2.29715E+01 0.00000E+00
 -1      4148 1.17624E+02 2.16725E+01 0.00000E+00
 -1      4149 1.16124E+02 2.16725E+01 0.00000E+00
 -1      4150 1.15374E+02 2.29715E+01 0.00000E+00
 -1      4151 1.20624E+02 2.16725E+01 0.00000E+00
 -1      4152 1.19124E+02 2.16725E+01 0.00000E+00
 -1      4153 1.18374E+02 2.29715E+01 0.00000E+00
 -1      4154 1.23624E+02 2.16725E+01 0.00000E+00
 -1      4155 1.22124E+02 2.16725E+01 0.00000E+00
 -1      4156 1.21374E+02 2.29715E+01 0.00000E+00
 -1      4157 1.26655E+02 2.17984E+01 0.00000E+00
 -1      4158 1.25155E+02 2.17984E+01 0.00000E+00
 -1      4159 1.24405E+02 2.30974E+01 0.00000E+00
 -1      4160 1.27467E+02 2.33492E+01 0.00000E+00
 -1      4161 6.66240E+01 2.16725E+01 0.00000E+00
 -1      4162 6.51240E+01 2.16725E+01 0.00000E+00
 -1      4163 5.46240E+01 2.16725E+01 0.00000E+00
 -1      4164 5.31240E+01 2.16725E+01 0.00000E+00
 -1      4165 4.61482E+01 2.80984E+01 0.00000E+00
 -1      4166 4.75153E+01 2.88242E+01 0.00000E+00
 -1      4167 5.76240E+01 2.16725E+01 0.00000E+00
 -1      4168 5.61240E+01 2.16725E+01 0.00000E+00
 -1      4169 5.53740E+01 2.29715E+01 0.00000E+00
 -1      4170 7.86240E+01 2.16725E+01 0.00000E+00
 -1      4171 7.71240E+01 2.16725E+01 0.00000E+00
 -1      4172 7.63740E+01 2.29715E+01 0.00000E+00
 -1      4173 7.93740E+01 2.29715E+01 0.00000E+00
 -1      4174 4.42253E+01 2.14938E+01 0.00000E+00
 -1      4175 4.53586E+01 2.25261E+01 0.00000E+00
 -1      4176 6.36240E+01 2.16725E+01 0.00000E+00
 -1      4177 6.21240E+01 2.16725E+01 0.00000E+00
 -1      4178 6.43740E+01 2.29715E+01 0.00000E+00
 -1      4179 5.79375E+01 2.93152E+01 0.00000E+00
 -1      4180 5.95125E+01 2.93152E+01 0.00000E+00
 -1      4181 6.02625E+01 2.80162E+01 0.00000E+00
 -1      4182 5.71875E+01 2.80162E+01 0.00000E+00
 -1      4183 1.30098E+02 2.55437E+01 0.00000E+00
 -1      4184 1.28799E+02 2.48125E+01 0.00000E+00
 -1      4185 1.29899E+02 2.68811E+01 0.00000E+00
 -1      4186 6.96240E+01 2.16725E+01 0.00000E+00
 -1      4187 6.81240E+01 2.16725E+01 0.00000E+00
 -1      4188 7.03740E+01 2.29715E+01 0.00000E+00
 -1      4189 6.06240E+01 2.16725E+01 0.00000E+00
 -1      4190 5.91240E+01 2.16725E+01 0.00000E+00
 -1      4191 5.83740E+01 2.29715E+01 0.00000E+00
 -1      4192 6.13740E+01 2.29715E+01 0.00000E+00
 -1      4193 4.44064E+01 2.66313E+01 0.00000E+00
 -1      4194 4.53738E+01 2.74396E+01 0.00000E+00
 -1      4195 4.66665E+01 2.66551E+01 0.00000E+00
 -1      4196 4.51177E+01 2.53375E+01 0.00000E+00
 -1      4197 4.93699E+01 3.04743E+01 0.00000E+00
 -1      4198 5.16240E+01 2.16725E+01 0.00000E+00
 -1      4199 5.01240E+01 2.16725E+01 0.00000E+00
 -1      4200 5.23740E+01 2.29715E+01 0.00000E+00
 -1      4201 4.70035E+01 2.17792E+01 0.00000E+00
 -1      4202 4.59881E+01 2.39318E+01 0.00000E+00
 -1      4203 4.67625E+01 2.45906E+01 0.00000E+00
 -1      4204 4.85035E+01 2.17792E+01 0.00000E+00
 -1      4205 1.25925E+02 2.79344E+01 0.00000E+00
 -1      4206 1.26675E+02 2.92334E+01 0.00000E+00
 -1      4207 1.27800E+02 2.91517E+01 0.00000E+00
 -1      4208 5.34000E+01 2.93152E+01 0.00000E+00
 -1      4209 5.41500E+01 2.80162E+01 0.00000E+00
 -1      4210 5.19000E+01 2.93152E+01 0.00000E+00
 -1      4211 6.73740E+01 2.29715E+01 0.00000E+00
 -1      4212 1.27268E+02 2.46866E+01 0.00000E+00
 -1      4213 4.92954E+01 2.89641E+01 0.00000E+00
 -1      4214 1.29018E+02 2.91142E+01 0.00000E+00
 -1      4215 1.30143E+02 2.90325E+01 0.00000E+00
 -1      4216 6.55500E+01 2.67172E+01 0.00000E+00
 -1      4217 6.70500E+01 2.67172E+01 0.00000E+00
 -1      4218 6.83370E+01 2.54938E+01 0.00000E+00
 -1      4219 6.98370E+01 2.54938E+01 0.00000E+00
 -1      4220 7.13370E+01 2.54938E+01 0.00000E+00
 -1      4221 7.28370E+01 2.54938E+01 0.00000E+00
 -1      4222 7.43370E+01 2.54938E+01 0.00000E+00
 -1      4223 7.58370E+01 2.54938E+01 0.00000E+00
 -1      4224 7.73370E+01 2.54938E+01 0.00000E+00
 -1      4225 7.88370E+01 2.54938E+01 0.00000E+00
 -1      4226 8.03370E+01 2.54938E+01 0.00000E+00
 -1      4227 8.18370E+01 2.54938E+01 0.00000E+00
 -1      4228 8.33370E+01 2.54938E+01 0.00000E+00
 -1      4229 8.48370E+01 2.54938E+01 0.00000E+00
 -1      4230 8.63370E+01 2.54938E+01 0.00000E+00
 -1      4231 8.78370E+01 2.54938E+01 0.00000E+00
 -1      4232 8.93370E+01 2.54938E+01 0.00000E+00
 -1      4233 9.08370E+01 2.54938E+01 0.00000E+00
 -1      4234 9.23370E+01 2.54938E+01 0.00000E+00
 -1      4235 9.38370E+01 2.54938E+01 0.00000E+00
 -1      4236 9.53370E+01 2.54938E+01 0.00000E+00
 -1      4237 9.68370E+01 2.54938E+01 0.00000E+00
 -1      4238 9.83370E+01 2.54938E+01 0.00000E+00
 -1      4239 9.98370E+01 2.54938E+01 0.00000E+00
 -1      4240 1.01337E+02 2.54938E+01 0.00000E+00
 -1      4241 1.02837E+02 2.54938E+01 0.00000E+00
 -1      4242 1.04337E+02 2.54938E+01 0.00000E+00
 -1      4243 1.05837E+02 2.54938E+01 0.00000E+00
 -1      4244 1.07337E+02 2.54938E+01 0.00000E+00
 -1      4245 1.08837E+02 2.54938E+01 0.00000E+00
 -1      4246 1.10337E+02 2.54938E+01 0.00000E+00
 -1      4247 1.11837E+02 2.54938E+01 0.00000E+00
 -1      4248 1.13337E+02 2.54938E+01 0.00000E+00
 -1      4249 1.14837E+02 2.54938E+01 0.00000E+00
 -1      4250 1.16337E+02 2.54938E+01 0.00000E+00
 -1      4251 1.17837E+02 2.54938E+01 0.00000E+00
 -1      4252 1.19337E+02 2.54938E+01 0.00000E+00
 -1      4253 1.20837E+02 2.54938E+01 0.00000E+00
 -1      4254 1.22337E+02 2.54938E+01 0.00000E+00
 -1      4255 1.23837E+02 2.54938E+01 0.00000E+00
 -1      4256 6.23370E+01 2.54938E+01 0.00000E+00
 -1      4257 6.38370E+01 2.54938E+01 0.00000E+00
 -1      4258 4.49246E+01 2.02842E+01 0.00000E+00
 -1      4259 1.25368E+02 2.56197E+01 0.00000E+00
 -1      4260 5.61240E+01 2.42705E+01 0.00000E+00
 -1      4261 5.46240E+01 2.42705E+01 0.00000E+00
 -1      4262 6.60870E+01 2.41948E+01 0.00000E+00
 -1      4263 6.45870E+01 2.41948E+01 0.00000E+00
 -1      4264 6.08370E+01 2.54938E+01 0.00000E+00
 -1      4265 6.75870E+01 2.41948E+01 0.00000E+00
 -1      4266 1.28268E+02 2.78152E+01 0.00000E+00
 -1      4267 5.00454E+01 2.76651E+01 0.00000E+00
 -1      4268 4.92535E+01 2.30782E+01 0.00000E+00
 -1      4269 1.26493E+02 2.55380E+01 0.00000E+00
 -1      4270 5.40120E+01 2.67928E+01 0.00000E+00
 -1      4271 5.55120E+01 2.67928E+01 0.00000E+00
 -1      4272 5.92995E+01 2.54938E+01 0.00000E+00
 -1      4273 5.77995E+01 2.54938E+01 0.00000E+00
 -1      4274 4.83952E+01 2.41638E+01 0.00000E+00
 -1      4275 4.75247E+01 2.55695E+01 0.00000E+00
 -1      4276 4.82991E+01 2.62284E+01 0.00000E+00
 -1      4277 5.00157E+01 2.40571E+01 0.00000E+00
 -1      4278 1.30342E+02 2.76951E+01 0.00000E+00
 -1      4279 5.70495E+01 2.67928E+01 0.00000E+00
 -1      4280 5.35680E+01 2.55317E+01 0.00000E+00
 -1      4281 5.28180E+01 2.42327E+01 0.00000E+00
 -1      4282 5.13180E+01 2.42327E+01 0.00000E+00
 -1      4283 5.22060E+01 2.67550E+01 0.00000E+00
 -1      4284 1.29043E+02 2.69638E+01 0.00000E+00
 -1      4285 5.04597E+01 2.53183E+01 0.00000E+00
 -1      4286 5.09037E+01 2.65795E+01 0.00000E+00
 -1      4287 1.27825E+02 2.70013E+01 0.00000E+00
 -3
    3C                          2061                                     1
 -1       166    8    0    1
 -2         6         7        23      1114      1279      1131
 -1       167    8    0    1
 -2         7         8       166      1115      1280      1281
 -1       168    8    0    1
 -2         8         9       167      1116      1282      1283
 -1       169    8    0    1
 -2         8       167       166      1283      1284      1280
 -1       170    8    0    1
 -2         9        10       168      1117      1285      1286
 -1       171    8    0    1
 -2         9       168       167      1286      1287      1282
 -1       172    8    0    1
 -2        10        11       169      1118      1288      1289
 -1       173    8    0    1
 -2        10       169       168      1289      1290      1285
 -1       174    8    0    1
 -2        11        12       170      1119      1291      1292
 -1       175    8    0    1
 -2        11       170       169      1292      1293      1288
 -1       176    8    0    1
 -2        12        13       171      1120      1294      1295
 -1       177    8    0    1
 -2        12       171       170      1295      1296      1291
 -1       178    8    0    1
 -2        13        14       172      1121      1297      1298
 -1       179    8    0    1
 -2        13       172       171      1298      1299      1294
 -1       180    8    0    1
 -2        14        15       173      1122      1300      1301
 -1       181    8    0    1
 -2        14       173       172      1301      1302      1297
 -1       182    8    0    1
 -2        15        16       174      1123      1303      1304
 -1       183    8    0    1
 -2        15       174       173      1304      1305      1300
 -1       184    8    0    1
 -2        16        17       175      1124      1306      1307
 -1       185    8    0    1
 -2        16       175       174      1307      1308      1303
 -1       186    8    0    1
 -2        17        18       176      1125      1309      1310
 -1       187    8    0    1
 -2        17       176       175      1310      1311      1306
 -1       188    8    0    1
 -2        18        19       177      1126      1312      1313
 -1       189    8    0    1
 -2        18       177       176      1313      1314      1309
 -1       190    8    0    1
 -2        19        20       178      1127      1315      1316
 -1       191    8    0    1
 -2        19       178       177      1316      1317      1312
 -1       192    8    0    1
 -2        20        21       179      1128      1318      1319
 -1       193    8    0    1
 -2        20       179       178      1319      1320      1315
 -1       194    8    0    1
 -2        21        22       180      1129      1321      1322
 -1       195    8    0    1
 -2        21       180       179      1322      1323      1318
 -1       196    8    0    1
 -2        22         5       181      1130      1324      1325
 -1       197    8    0    1
 -2       180        22       181      1321      1325      1326
 -1       198    8    0    1
 -2         5        73       181      1182      1327      1324
 -1       199    8    0    1
 -2        24        23       182      1132      1328      1329
 -1       200    8    0    1
 -2        25        24       183      1133      1330      1331
 -1       201    8    0    1
 -2        24       182       183      1329      1332      1330
 -1       202    8    0    1
 -2        26        25       184      1134      1333      1334
 -1       203    8    0    1
 -2        25       183       184      1331      1335      1333
 -1       204    8    0    1
 -2        27        26       185      1135      1336      1337
 -1       205    8    0    1
 -2        26       184       185      1334      1338      1336
 -1       206    8    0    1
 -2        28        27       186      1136      1339      1340
 -1       207    8    0    1
 -2        27       185       186      1337      1341      1339
 -1       208    8    0    1
 -2        29        28       187      1137      1342      1343
 -1       209    8    0    1
 -2        28       186       187      1340      1344      1342
 -1       210    8    0    1
 -2        31        30       188      1139      1345      1346
 -1       211    8    0    1
 -2        32        31       189      1140      1347      1348
 -1       212    8    0    1
 -2        31       188       189      1346      1349      1347
 -1       213    8    0    1
 -2        33        32       190      1141      1350      1351
 -1       214    8    0    1
 -2        32       189       190      1348      1352      1350
 -1       215    8    0    1
 -2        34        33       191      1142      1353      1354
 -1       216    8    0    1
 -2        33       190       191      1351      1355      1353
 -1       217    8    0    1
 -2        35        34       192      1143      1356      1357
 -1       218    8    0    1
 -2        34       191       192      1354      1358      1356
 -1       219    8    0    1
 -2        36        35       193      1144      1359      1360
 -1       220    8    0    1
 -2        35       192       193      1357      1361      1359
 -1       221    8    0    1
 -2        37        36       194      1145      1362      1363
 -1       222    8    0    1
 -2        36       193       194      1360      1364      1362
 -1       223    8    0    1
 -2        38        37       195      1146      1365      1366
 -1       224    8    0    1
 -2        37       194       195      1363      1367      1365
 -1       225    8    0    1
 -2        39        38       196      1147      1368      1369
 -1       226    8    0    1
 -2        38       195       196      1366      1370      1368
 -1       227    8    0    1
 -2        40        39       197      1148      1371      1372
 -1       228    8    0    1
 -2        39       196       197      1369      1373      1371
 -1       229    8    0    1
 -2        41        40       198      1149      1374      1375
 -1       230    8    0    1
 -2        40       197       198      1372      1376      1374
 -1       231    8    0    1
 -2        42        41       199      1150      1377      1378
 -1       232    8    0    1
 -2        41       198       199      1375      1379      1377
 -1       233    8    0    1
 -2        43        42       200      1151      1380      1381
 -1       234    8    0    1
 -2        42       199       200      1378      1382      1380
 -1       235    8    0    1
 -2        44        43       201      1152      1383      1384
 -1       236    8    0    1
 -2        43       200       201      1381      1385      1383
 -1       237    8    0    1
 -2        45        44       202      1153      1386      1387
 -1       238    8    0    1
 -2        44       201       202      1384      1388      1386
 -1       239    8    0    1
 -2        46        45       203      1154      1389      1390
 -1       240    8    0    1
 -2        45       202       203      1387      1391      1389
 -1       241    8    0    1
 -2        47        46       204      1155      1392      1393
 -1       242    8    0    1
 -2        46       203       204      1390      1394      1392
 -1       243    8    0    1
 -2        48        47       205      1156      1395      1396
 -1       244    8    0    1
 -2        47       204       205      1393      1397      1395
 -1       245    8    0    1
 -2        49        48       206      1157      1398      1399
 -1       246    8    0    1
 -2        48       205       206      1396      1400      1398
 -1       247    8    0    1
 -2        50        49       207      1158      1401      1402
 -1       248    8    0    1
 -2        49       206       207      1399      1403      1401
 -1       249    8    0    1
 -2        51        50       208      1159      1404      1405
 -1       250    8    0    1
 -2        50       207       208      1402      1406      1404
 -1       251    8    0    1
 -2        52        51       209      1160      1407      1408
 -1       252    8    0    1
 -2        51       208       209      1405      1409      1407
 -1       253    8    0    1
 -2        53        52       210      1161      1410      1411
 -1       254    8    0    1
 -2        52       209       210      1408      1412      1410
 -1       255    8    0    1
 -2        54        53       211      1162      1413      1414
 -1       256    8    0    1
 -2        53       210       211      1411      1415      1413
 -1       257    8    0    1
 -2        55        54       212      1163      1416      1417
 -1       258    8    0    1
 -2        54       211       212      1414      1418      1416
 -1       259    8    0    1
 -2        56        55       213      1164      1419      1420
 -1       260    8    0    1
 -2        55       212       213      1417      1421      1419
 -1       261    8    0    1
 -2        57        56       214      1165      1422      1423
 -1       262    8    0    1
 -2        56       213       214      1420      1424      1422
 -1       263    8    0    1
 -2        58        57       215      1166      1425      1426
 -1       264    8    0    1
 -2        57       214       215      1423      1427      1425
 -1       265    8    0    1
 -2        59        58       216      1167      1428      1429
 -1       266    8    0    1
 -2        58       215       216      1426      1430      1428
 -1       267    8    0    1
 -2        60        59       217      1168      1431      1432
 -1       268    8    0    1
 -2        59       216       217      1429      1433      1431
 -1       269    8    0    1
 -2        61        60       218      1169      1434      1435
 -1       270    8    0    1
 -2        60       217       218      1432      1436      1434
 -1       271    8    0    1
 -2        62        61       219      1170      1437      1438
 -1       272    8    0    1
 -2        61       218       219      1435      1439      1437
 -1       273    8    0    1
 -2        63        62       220      1171      1440      1441
 -1       274    8    0    1
 -2        62       219       220      1438      1442      1440
 -1       275    8    0    1
 -2        64        63       221      1172      1443      1444
 -1       276    8    0    1
 -2        63       220       221      1441      1445      1443
 -1       277    8    0    1
 -2        65        64       222      1173      1446      1447
 -1       278    8    0    1
 -2        64       221       222      1444      1448      1446
 -1       279    8    0    1
 -2        66        65       223      1174      1449      1450
 -1       280    8    0    1
 -2        65       222       223      1447      1451      1449
 -1       281    8    0    1
 -2        67        66       224      1175      1452      1453
 -1       282    8    0    1
 -2        66       223       224      1450      1454      1452
 -1       283    8    0    1
 -2        68        67       225      1176      1455      1456
 -1       284    8    0    1
 -2        67       224       225      1453      1457      1455
 -1       285    8    0    1
 -2        69        68       226      1177      1458      1459
 -1       286    8    0    1
 -2        68       225       226      1456      1460      1458
 -1       287    8    0    1
 -2        70        69       227      1178      1461      1462
 -1       288    8    0    1
 -2        69       226       227      1459      1463      1461
 -1       289    8    0    1
 -2        71        70       228      1179      1464      1465
 -1       290    8    0    1
 -2        70       227       228      1462      1466      1464
 -1       291    8    0    1
 -2        72        71       229      1180      1467      1468
 -1       292    8    0    1
 -2        71       228       229      1465      1469      1467
 -1       293    8    0    1
 -2         4        72       230      1181      1470      1471
 -1       294    8    0    1
 -2       137         4       230      1248      1471      1472
 -1       295    8    0    1
 -2        72       229       230      1468      1473      1470
 -1       296    8    0    1
 -2        73        74       231      1183      1474      1475
 -1       297    8    0    1
 -2        73       231       181      1475      1476      1327
 -1       298    8    0    1
 -2        74        75       232      1184      1477      1478
 -1       299    8    0    1
 -2        74       232       231      1478      1479      1474
 -1       300    8    0    1
 -2        75        76       233      1185      1480      1481
 -1       301    8    0    1
 -2        75       233       232      1481      1482      1477
 -1       302    8    0    1
 -2        76        77       234      1186      1483      1484
 -1       303    8    0    1
 -2        76       234       233      1484      1485      1480
 -1       304    8    0    1
 -2        77        78       235      1187      1486      1487
 -1       305    8    0    1
 -2        77       235       234      1487      1488      1483
 -1       306    8    0    1
 -2        78        79       236      1188      1489      1490
 -1       307    8    0    1
 -2        78       236       235      1490      1491      1486
 -1       308    8    0    1
 -2        79        80       237      1189      1492      1493
 -1       309    8    0    1
 -2        79       237       236      1493      1494      1489
 -1       310    8    0    1
 -2        80        81       238      1190      1495      1496
 -1       311    8    0    1
 -2        80       238       237      1496      1497      1492
 -1       312    8    0    1
 -2        81        82       239      1191      1498      1499
 -1       313    8    0    1
 -2        81       239       238      1499      1500      1495
 -1       314    8    0    1
 -2        82        83       240      1192      1501      1502
 -1       315    8    0    1
 -2        82       240       239      1502      1503      1498
 -1       316    8    0    1
 -2        83        84       241      1193      1504      1505
 -1       317    8    0    1
 -2        83       241       240      1505      1506      1501
 -1       318    8    0    1
 -2        84        85       242      1194      1507      1508
 -1       319    8    0    1
 -2        84       242       241      1508      1509      1504
 -1       320    8    0    1
 -2        85        86       243      1195      1510      1511
 -1       321    8    0    1
 -2        85       243       242      1511      1512      1507
 -1       322    8    0    1
 -2        86        87       244      1196      1513      1514
 -1       323    8    0    1
 -2        86       244       243      1514      1515      1510
 -1       324    8    0    1
 -2        87        88       245      1197      1516      1517
 -1       325    8    0    1
 -2        87       245       244      1517      1518      1513
 -1       326    8    0    1
 -2        88        89       246      1198      1519      1520
 -1       327    8    0    1
 -2        88       246       245      1520      1521      1516
 -1       328    8    0    1
 -2        89        90       247      1199      1522      1523
 -1       329    8    0    1
 -2        89       247       246      1523      1524      1519
 -1       330    8    0    1
 -2        90        91       248      1200      1525      1526
 -1       331    8    0    1
 -2        90       248       247      1526      1527      1522
 -1       332    8    0    1
 -2        91        92       249      1201      1528      1529
 -1       333    8    0    1
 -2        91       249       248      1529      1530      1525
 -1       334    8    0    1
 -2        92        93       250      1202      1531      1532
 -1       335    8    0    1
 -2        92       250       249      1532      1533      1528
 -1       336    8    0    1
 -2        93        94       251      1203      1534      1535
 -1       337    8    0    1
 -2        93       251       250      1535      1536      1531
 -1       338    8    0    1
 -2        94        95       252      1204      1537      1538
 -1       339    8    0    1
 -2        94       252       251      1538      1539      1534
 -1       340    8    0    1
 -2        95        96       253      1205      1540      1541
 -1       341    8    0    1
 -2        95       253       252      1541      1542      1537
 -1       342    8    0    1
 -2        96        97       254      1206      1543      1544
 -1       343    8    0    1
 -2        96       254       253      1544      1545      1540
 -1       344    8    0    1
 -2        97        98       255      1207      1546      1547
 -1       345    8    0    1
 -2        97       255       254      1547      1548      1543
 -1       346    8    0    1
 -2        98        99       256      1208      1549      1550
 -1       347    8    0    1
 -2        98       256       255      1550      1551      1546
 -1       348    8    0    1
 -2        99       100       257      1209      1552      1553
 -1       349    8    0    1
 -2        99       257       256      1553      1554      1549
 -1       350    8    0    1
 -2       100       101       258      1210      1555      1556
 -1       351    8    0    1
 -2       100       258       257      1556      1557      1552
 -1       352    8    0    1
 -2       101       102       259      1211      1558      1559
 -1       353    8    0    1
 -2       101       259       258      1559      1560      1555
 -1       354    8    0    1
 -2       102       103       260      1212      1561      1562
 -1       355    8    0    1
 -2       102       260       259      1562      1563      1558
 -1       356    8    0    1
 -2       103       104       261      1213      1564      1565
 -1       357    8    0    1
 -2       103       261       260      1565      1566      1561
 -1       358    8    0    1
 -2       104       105       262      1214      1567      1568
 -1       359    8    0    1
 -2       104       262       261      1568      1569      1564
 -1       360    8    0    1
 -2       105       106       263      1215      1570      1571
 -1       361    8    0    1
 -2       105       263       262      1571      1572      1567
 -1       362    8    0    1
 -2       106       107       264      1216      1573      1574
 -1       363    8    0    1
 -2       106       264       263      1574      1575      1570
 -1       364    8    0    1
 -2       107       108       265      1217      1576      1577
 -1       365    8    0    1
 -2       107       265       264      1577      1578      1573
 -1       366    8    0    1
 -2       108       109       266      1218      1579      1580
 -1       367    8    0    1
 -2       108       266       265      1580      1581      1576
 -1       368    8    0    1
 -2       109       110       267      1219      1582      1583
 -1       369    8    0    1
 -2       109       267       266      1583      1584      1579
 -1       370    8    0    1
 -2       110       111       268      1220      1585      1586
 -1       371    8    0    1
 -2       110       268       267      1586      1587      1582
 -1       372    8    0    1
 -2       111       112       269      1221      1588      1589
 -1       373    8    0    1
 -2       111       269       268      1589      1590      1585
 -1       374    8    0    1
 -2       112       113       270      1222      1591      1592
 -1       375    8    0    1
 -2       112       270       269      1592      1593      1588
 -1       376    8    0    1
 -2       113       114       271      1223      1594      1595
 -1       377    8    0    1
 -2       113       271       270      1595      1596      1591
 -1       378    8    0    1
 -2       114       115       272      1224      1597      1598
 -1       379    8    0    1
 -2       114       272       271      1598      1599      1594
 -1       380    8    0    1
 -2       115       116       273      1225      1600      1601
 -1       381    8    0    1
 -2       115       273       272      1601      1602      1597
 -1       382    8    0    1
 -2       116       117       274      1226      1603      1604
 -1       383    8    0    1
 -2       116       274       273      1604      1605      1600
 -1       384    8    0    1
 -2       117       118       275      1227      1606      1607
 -1       385    8    0    1
 -2       117       275       274      1607      1608      1603
 -1       386    8    0    1
 -2       118       119       276      1228      1609      1610
 -1       387    8    0    1
 -2       118       276       275      1610      1611      1606
 -1       388    8    0    1
 -2       119       120       277      1229      1612      1613
 -1       389    8    0    1
 -2       119       277       276      1613      1614      1609
 -1       390    8    0    1
 -2       120       121       278      1230      1615      1616
 -1       391    8    0    1
 -2       120       278       277      1616      1617      1612
 -1       392    8    0    1
 -2       121         3       122      1231      1232      1618
 -1       393    8    0    1
 -2       122       123       279      1233      1619      1620
 -1       394    8    0    1
 -2       123       124       280      1234      1621      1622
 -1       395    8    0    1
 -2       123       280       279      1622      1623      1619
 -1       396    8    0    1
 -2       124       125       281      1235      1624      1625
 -1       397    8    0    1
 -2       124       281       280      1625      1626      1621
 -1       398    8    0    1
 -2       125       126       282      1236      1627      1628
 -1       399    8    0    1
 -2       125       282       281      1628      1629      1624
 -1       400    8    0    1
 -2       126       127       283      1237      1630      1631
 -1       401    8    0    1
 -2       126       283       282      1631      1632      1627
 -1       402    8    0    1
 -2       127       128       284      1238      1633      1634
 -1       403    8    0    1
 -2       127       284       283      1634      1635      1630
 -1       404    8    0    1
 -2       128       129       285      1239      1636      1637
 -1       405    8    0    1
 -2       128       285       284      1637      1638      1633
 -1       406    8    0    1
 -2       129       130       286      1240      1639      1640
 -1       407    8    0    1
 -2       129       286       285      1640      1641      1636
 -1       408    8    0    1
 -2       130       131       287      1241      1642      1643
 -1       409    8    0    1
 -2       130       287       286      1643      1644      1639
 -1       410    8    0    1
 -2       131       132       288      1242      1645      1646
 -1       411    8    0    1
 -2       131       288       287      1646      1647      1642
 -1       412    8    0    1
 -2       132       133       289      1243      1648      1649
 -1       413    8    0    1
 -2       132       289       288      1649      1650      1645
 -1       414    8    0    1
 -2       133       134       290      1244      1651      1652
 -1       415    8    0    1
 -2       133       290       289      1652      1653      1648
 -1       416    8    0    1
 -2       134       135       291      1245      1654      1655
 -1       417    8    0    1
 -2       134       291       290      1655      1656      1651
 -1       418    8    0    1
 -2       135       136       292      1246      1657      1658
 -1       419    8    0    1
 -2       135       292       291      1658      1659      1654
 -1       420    8    0    1
 -2       136       137       293      1247      1660      1661
 -1       421    8    0    1
 -2       292       136       293      1657      1661      1662
 -1       422    8    0    1
 -2       137       230       293      1472      1663      1660
 -1       423    8    0    1
 -2         2       138       294      1249      1664      1665
 -1       424    8    0    1
 -2       138       139       295      1250      1666      1667
 -1       425    8    0    1
 -2       139       140       296      1251      1668      1669
 -1       426    8    0    1
 -2       140       141       297      1252      1670      1671
 -1       427    8    0    1
 -2       141       142       298      1253      1672      1673
 -1       428    8    0    1
 -2       142       143       299      1254      1674      1675
 -1       429    8    0    1
 -2       143       144       300      1255      1676      1677
 -1       430    8    0    1
 -2       144       145       301      1256      1678      1679
 -1       431    8    0    1
 -2       145       146       302      1257      1680      1681
 -1       432    8    0    1
 -2       146       147       303      1258      1682      1683
 -1       433    8    0    1
 -2       147       148       304      1259      1684      1685
 -1       434    8    0    1
 -2       148       149       305      1260      1686      1687
 -1       435    8    0    1
 -2       149       150       306      1261      1688      1689
 -1       436    8    0    1
 -2       150       151       307      1262      1690      1691
 -1       437    8    0    1
 -2       151       152       308      1263      1692      1693
 -1       438    8    0    1
 -2       152       153       309      1264      1694      1695
 -1       439    8    0    1
 -2       153       154       310      1265      1696      1697
 -1       440    8    0    1
 -2       154       155       311      1266      1698      1699
 -1       441    8    0    1
 -2       155         1       312      1267      1700      1701
 -1       442    8    0    1
 -2         1       156       313      1268      1702      1703
 -1       443    8    0    1
 -2       156       157       314      1269      1704      1705
 -1       444    8    0    1
 -2       157       158       315      1270      1706      1707
 -1       445    8    0    1
 -2       158       159       316      1271      1708      1709
 -1       446    8    0    1
 -2       159       160       317      1272      1710      1711
 -1       447    8    0    1
 -2       160       161       318      1273      1712      1713
 -1       448    8    0    1
 -2       161       162       319      1274      1714      1715
 -1       449    8    0    1
 -2       162       163       320      1275      1716      1717
 -1       450    8    0    1
 -2       163       164       321      1276      1718      1719
 -1       451    8    0    1
 -2       164       165       322      1277      1720      1721
 -1       452    8    0    1
 -2       165         2       323      1278      1722      1723
 -1       453    8    0    1
 -2       188        30       324      1345      1724      1725
 -1       454    8    0    1
 -2        30        29       324      1138      1726      1724
 -1       455    8    0    1
 -2       296       140       297      1668      1671      1727
 -1       456    8    0    1
 -2         2       294       323      1665      1728      1722
 -1       457    8    0    1
 -2       121       122       278      1618      1729      1615
 -1       458    8    0    1
 -2       122       279       278      1620      1730      1729
 -1       459    8    0    1
 -2       294       138       295      1664      1667      1731
 -1       460    8    0    1
 -2       295       139       296      1666      1669      1732
 -1       461    8    0    1
 -2       141       298       297      1673      1733      1670
 -1       462    8    0    1
 -2       142       299       298      1675      1734      1672
 -1       463    8    0    1
 -2       143       300       299      1677      1735      1674
 -1       464    8    0    1
 -2       144       301       300      1679      1736      1676
 -1       465    8    0    1
 -2       145       302       301      1681      1737      1678
 -1       466    8    0    1
 -2       146       303       302      1683      1738      1680
 -1       467    8    0    1
 -2       147       304       303      1685      1739      1682
 -1       468    8    0    1
 -2       148       305       304      1687      1740      1684
 -1       469    8    0    1
 -2       149       306       305      1689      1741      1686
 -1       470    8    0    1
 -2       150       307       306      1691      1742      1688
 -1       471    8    0    1
 -2       151       308       307      1693      1743      1690
 -1       472    8    0    1
 -2       152       309       308      1695      1744      1692
 -1       473    8    0    1
 -2       153       310       309      1697      1745      1694
 -1       474    8    0    1
 -2       154       311       310      1699      1746      1696
 -1       475    8    0    1
 -2       155       312       311      1701      1747      1698
 -1       476    8    0    1
 -2         1       313       312      1703      1748      1700
 -1       477    8    0    1
 -2       156       314       313      1705      1749      1702
 -1       478    8    0    1
 -2       157       315       314      1707      1750      1704
 -1       479    8    0    1
 -2       158       316       315      1709      1751      1706
 -1       480    8    0    1
 -2       159       317       316      1711      1752      1708
 -1       481    8    0    1
 -2       160       318       317      1713      1753      1710
 -1       482    8    0    1
 -2       161       319       318      1715      1754      1712
 -1       483    8    0    1
 -2       162       320       319      1717      1755      1714
 -1       484    8    0    1
 -2       163       321       320      1719      1756      1716
 -1       485    8    0    1
 -2       164       322       321      1721      1757      1718
 -1       486    8    0    1
 -2       165       323       322      1723      1758      1720
 -1       487    8    0    1
 -2        23         7       166      1279      1281      1759
 -1       488    8    0    1
 -2       324        29       187      1726      1343      1760
 -1       489    8    0    1
 -2       167       168       325      1287      1761      1762
 -1       490    8    0    1
 -2       166       167       326      1284      1763      1764
 -1       491    8    0    1
 -2       167       325       326      1762      1765      1763
 -1       492    8    0    1
 -2       169       170       327      1293      1766      1767
 -1       493    8    0    1
 -2       170       171       328      1296      1768      1769
 -1       494    8    0    1
 -2       170       328       327      1769      1770      1766
 -1       495    8    0    1
 -2       171       172       329      1299      1771      1772
 -1       496    8    0    1
 -2       171       329       328      1772      1773      1768
 -1       497    8    0    1
 -2       172       173       330      1302      1774      1775
 -1       498    8    0    1
 -2       172       330       329      1775      1776      1771
 -1       499    8    0    1
 -2       173       174       331      1305      1777      1778
 -1       500    8    0    1
 -2       173       331       330      1778      1779      1774
 -1       501    8    0    1
 -2       174       175       332      1308      1780      1781
 -1       502    8    0    1
 -2       174       332       331      1781      1782      1777
 -1       503    8    0    1
 -2       175       176       333      1311      1783      1784
 -1       504    8    0    1
 -2       175       333       332      1784      1785      1780
 -1       505    8    0    1
 -2       176       177       334      1314      1786      1787
 -1       506    8    0    1
 -2       176       334       333      1787      1788      1783
 -1       507    8    0    1
 -2       177       178       335      1317      1789      1790
 -1       508    8    0    1
 -2       177       335       334      1790      1791      1786
 -1       509    8    0    1
 -2       178       179       336      1320      1792      1793
 -1       510    8    0    1
 -2       178       336       335      1793      1794      1789
 -1       511    8    0    1
 -2       179       180       337      1323      1795      1796
 -1       512    8    0    1
 -2       179       337       336      1796      1797      1792
 -1       513    8    0    1
 -2       180       181       338      1326      1798      1799
 -1       514    8    0    1
 -2       337       180       338      1795      1799      1800
 -1       515    8    0    1
 -2       181       231       338      1476      1801      1798
 -1       516    8    0    1
 -2       182        23       166      1328      1759      1802
 -1       517    8    0    1
 -2       231       232       339      1479      1803      1804
 -1       518    8    0    1
 -2       231       339       338      1804      1805      1801
 -1       519    8    0    1
 -2       324       187       340      1760      1806      1807
 -1       520    8    0    1
 -2       184       183       341      1335      1808      1809
 -1       521    8    0    1
 -2       185       184       342      1338      1810      1811
 -1       522    8    0    1
 -2       184       341       342      1809      1812      1810
 -1       523    8    0    1
 -2       186       185       343      1341      1813      1814
 -1       524    8    0    1
 -2       185       342       343      1811      1815      1813
 -1       525    8    0    1
 -2       187       186       344      1344      1816      1817
 -1       526    8    0    1
 -2       186       343       344      1814      1818      1816
 -1       527    8    0    1
 -2       296       297       345      1727      1819      1820
 -1       528    8    0    1
 -2       182       166       326      1802      1764      1821
 -1       529    8    0    1
 -2       190       189       346      1352      1822      1823
 -1       530    8    0    1
 -2       191       190       347      1355      1824      1825
 -1       531    8    0    1
 -2       192       191       348      1358      1826      1827
 -1       532    8    0    1
 -2       193       192       349      1361      1828      1829
 -1       533    8    0    1
 -2       192       348       349      1827      1830      1828
 -1       534    8    0    1
 -2       194       193       350      1364      1831      1832
 -1       535    8    0    1
 -2       193       349       350      1829      1833      1831
 -1       536    8    0    1
 -2       195       194       351      1367      1834      1835
 -1       537    8    0    1
 -2       194       350       351      1832      1836      1834
 -1       538    8    0    1
 -2       196       195       352      1370      1837      1838
 -1       539    8    0    1
 -2       195       351       352      1835      1839      1837
 -1       540    8    0    1
 -2       197       196       353      1373      1840      1841
 -1       541    8    0    1
 -2       196       352       353      1838      1842      1840
 -1       542    8    0    1
 -2       198       197       354      1376      1843      1844
 -1       543    8    0    1
 -2       197       353       354      1841      1845      1843
 -1       544    8    0    1
 -2       199       198       355      1379      1846      1847
 -1       545    8    0    1
 -2       198       354       355      1844      1848      1846
 -1       546    8    0    1
 -2       200       199       356      1382      1849      1850
 -1       547    8    0    1
 -2       199       355       356      1847      1851      1849
 -1       548    8    0    1
 -2       201       200       357      1385      1852      1853
 -1       549    8    0    1
 -2       200       356       357      1850      1854      1852
 -1       550    8    0    1
 -2       202       201       358      1388      1855      1856
 -1       551    8    0    1
 -2       201       357       358      1853      1857      1855
 -1       552    8    0    1
 -2       203       202       359      1391      1858      1859
 -1       553    8    0    1
 -2       202       358       359      1856      1860      1858
 -1       554    8    0    1
 -2       204       203       360      1394      1861      1862
 -1       555    8    0    1
 -2       203       359       360      1859      1863      1861
 -1       556    8    0    1
 -2       205       204       361      1397      1864      1865
 -1       557    8    0    1
 -2       204       360       361      1862      1866      1864
 -1       558    8    0    1
 -2       206       205       362      1400      1867      1868
 -1       559    8    0    1
 -2       205       361       362      1865      1869      1867
 -1       560    8    0    1
 -2       207       206       363      1403      1870      1871
 -1       561    8    0    1
 -2       206       362       363      1868      1872      1870
 -1       562    8    0    1
 -2       208       207       364      1406      1873      1874
 -1       563    8    0    1
 -2       207       363       364      1871      1875      1873
 -1       564    8    0    1
 -2       209       208       365      1409      1876      1877
 -1       565    8    0    1
 -2       208       364       365      1874      1878      1876
 -1       566    8    0    1
 -2       210       209       366      1412      1879      1880
 -1       567    8    0    1
 -2       209       365       366      1877      1881      1879
 -1       568    8    0    1
 -2       211       210       367      1415      1882      1883
 -1       569    8    0    1
 -2       210       366       367      1880      1884      1882
 -1       570    8    0    1
 -2       212       211       368      1418      1885      1886
 -1       571    8    0    1
 -2       211       367       368      1883      1887      1885
 -1       572    8    0    1
 -2       213       212       369      1421      1888      1889
 -1       573    8    0    1
 -2       212       368       369      1886      1890      1888
 -1       574    8    0    1
 -2       214       213       370      1424      1891      1892
 -1       575    8    0    1
 -2       213       369       370      1889      1893      1891
 -1       576    8    0    1
 -2       215       214       371      1427      1894      1895
 -1       577    8    0    1
 -2       214       370       371      1892      1896      1894
 -1       578    8    0    1
 -2       216       215       372      1430      1897      1898
 -1       579    8    0    1
 -2       215       371       372      1895      1899      1897
 -1       580    8    0    1
 -2       217       216       373      1433      1900      1901
 -1       581    8    0    1
 -2       216       372       373      1898      1902      1900
 -1       582    8    0    1
 -2       218       217       374      1436      1903      1904
 -1       583    8    0    1
 -2       217       373       374      1901      1905      1903
 -1       584    8    0    1
 -2       219       218       375      1439      1906      1907
 -1       585    8    0    1
 -2       218       374       375      1904      1908      1906
 -1       586    8    0    1
 -2       220       219       376      1442      1909      1910
 -1       587    8    0    1
 -2       219       375       376      1907      1911      1909
 -1       588    8    0    1
 -2       221       220       377      1445      1912      1913
 -1       589    8    0    1
 -2       220       376       377      1910      1914      1912
 -1       590    8    0    1
 -2       222       221       378      1448      1915      1916
 -1       591    8    0    1
 -2       221       377       378      1913      1917      1915
 -1       592    8    0    1
 -2       223       222       379      1451      1918      1919
 -1       593    8    0    1
 -2       222       378       379      1916      1920      1918
 -1       594    8    0    1
 -2       224       223       380      1454      1921      1922
 -1       595    8    0    1
 -2       223       379       380      1919      1923      1921
 -1       596    8    0    1
 -2       225       224       381      1457      1924      1925
 -1       597    8    0    1
 -2       224       380       381      1922      1926      1924
 -1       598    8    0    1
 -2       226       225       382      1460      1927      1928
 -1       599    8    0    1
 -2       225       381       382      1925      1929      1927
 -1       600    8    0    1
 -2       227       226       383      1463      1930      1931
 -1       601    8    0    1
 -2       226       382       383      1928      1932      1930
 -1       602    8    0    1
 -2       228       227       384      1466      1933      1934
 -1       603    8    0    1
 -2       227       383       384      1931      1935      1933
 -1       604    8    0    1
 -2       229       228       385      1469      1936      1937
 -1       605    8    0    1
 -2       228       384       385      1934      1938      1936
 -1       606    8    0    1
 -2       230       229       293      1473      1939      1663
 -1       607    8    0    1
 -2       233       234       386      1485      1940      1941
 -1       608    8    0    1
 -2       234       235       387      1488      1942      1943
 -1       609    8    0    1
 -2       234       387       386      1943      1944      1940
 -1       610    8    0    1
 -2       235       236       388      1491      1945      1946
 -1       611    8    0    1
 -2       235       388       387      1946      1947      1942
 -1       612    8    0    1
 -2       236       237       389      1494      1948      1949
 -1       613    8    0    1
 -2       236       389       388      1949      1950      1945
 -1       614    8    0    1
 -2       237       238       390      1497      1951      1952
 -1       615    8    0    1
 -2       237       390       389      1952      1953      1948
 -1       616    8    0    1
 -2       238       239       391      1500      1954      1955
 -1       617    8    0    1
 -2       238       391       390      1955      1956      1951
 -1       618    8    0    1
 -2       239       240       392      1503      1957      1958
 -1       619    8    0    1
 -2       239       392       391      1958      1959      1954
 -1       620    8    0    1
 -2       240       241       393      1506      1960      1961
 -1       621    8    0    1
 -2       240       393       392      1961      1962      1957
 -1       622    8    0    1
 -2       241       242       394      1509      1963      1964
 -1       623    8    0    1
 -2       241       394       393      1964      1965      1960
 -1       624    8    0    1
 -2       242       243       395      1512      1966      1967
 -1       625    8    0    1
 -2       242       395       394      1967      1968      1963
 -1       626    8    0    1
 -2       243       244       396      1515      1969      1970
 -1       627    8    0    1
 -2       243       396       395      1970      1971      1966
 -1       628    8    0    1
 -2       244       245       397      1518      1972      1973
 -1       629    8    0    1
 -2       244       397       396      1973      1974      1969
 -1       630    8    0    1
 -2       245       246       398      1521      1975      1976
 -1       631    8    0    1
 -2       245       398       397      1976      1977      1972
 -1       632    8    0    1
 -2       246       247       399      1524      1978      1979
 -1       633    8    0    1
 -2       246       399       398      1979      1980      1975
 -1       634    8    0    1
 -2       247       248       400      1527      1981      1982
 -1       635    8    0    1
 -2       247       400       399      1982      1983      1978
 -1       636    8    0    1
 -2       248       249       401      1530      1984      1985
 -1       637    8    0    1
 -2       248       401       400      1985      1986      1981
 -1       638    8    0    1
 -2       249       250       402      1533      1987      1988
 -1       639    8    0    1
 -2       249       402       401      1988      1989      1984
 -1       640    8    0    1
 -2       250       251       403      1536      1990      1991
 -1       641    8    0    1
 -2       250       403       402      1991      1992      1987
 -1       642    8    0    1
 -2       251       252       404      1539      1993      1994
 -1       643    8    0    1
 -2       251       404       403      1994      1995      1990
 -1       644    8    0    1
 -2       252       253       405      1542      1996      1997
 -1       645    8    0    1
 -2       252       405       404      1997      1998      1993
 -1       646    8    0    1
 -2       253       254       406      1545      1999      2000
 -1       647    8    0    1
 -2       253       406       405      2000      2001      1996
 -1       648    8    0    1
 -2       254       255       407      1548      2002      2003
 -1       649    8    0    1
 -2       254       407       406      2003      2004      1999
 -1       650    8    0    1
 -2       255       256       408      1551      2005      2006
 -1       651    8    0    1
 -2       255       408       407      2006      2007      2002
 -1       652    8    0    1
 -2       256       257       409      1554      2008      2009
 -1       653    8    0    1
 -2       256       409       408      2009      2010      2005
 -1       654    8    0    1
 -2       257       258       410      1557      2011      2012
 -1       655    8    0    1
 -2       257       410       409      2012      2013      2008
 -1       656    8    0    1
 -2       258       259       411      1560      2014      2015
 -1       657    8    0    1
 -2       258       411       410      2015      2016      2011
 -1       658    8    0    1
 -2       259       260       412      1563      2017      2018
 -1       659    8    0    1
 -2       259       412       411      2018      2019      2014
 -1       660    8    0    1
 -2       260       261       413      1566      2020      2021
 -1       661    8    0    1
 -2       260       413       412      2021      2022      2017
 -1       662    8    0    1
 -2       261       262       414      1569      2023      2024
 -1       663    8    0    1
 -2       261       414       413      2024      2025      2020
 -1       664    8    0    1
 -2       262       263       415      1572      2026      2027
 -1       665    8    0    1
 -2       262       415       414      2027      2028      2023
 -1       666    8    0    1
 -2       263       264       416      1575      2029      2030
 -1       667    8    0    1
 -2       263       416       415      2030      2031      2026
 -1       668    8    0    1
 -2       264       265       417      1578      2032      2033
 -1       669    8    0    1
 -2       264       417       416      2033      2034      2029
 -1       670    8    0    1
 -2       265       266       418      1581      2035      2036
 -1       671    8    0    1
 -2       265       418       417      2036      2037      2032
 -1       672    8    0    1
 -2       266       267       419      1584      2038      2039
 -1       673    8    0    1
 -2       266       419       418      2039      2040      2035
 -1       674    8    0    1
 -2       267       268       420      1587      2041      2042
 -1       675    8    0    1
 -2       267       420       419      2042      2043      2038
 -1       676    8    0    1
 -2       268       269       421      1590      2044      2045
 -1       677    8    0    1
 -2       268       421       420      2045      2046      2041
 -1       678    8    0    1
 -2       269       270       422      1593      2047      2048
 -1       679    8    0    1
 -2       269       422       421      2048      2049      2044
 -1       680    8    0    1
 -2       270       271       423      1596      2050      2051
 -1       681    8    0    1
 -2       270       423       422      2051      2052      2047
 -1       682    8    0    1
 -2       271       272       424      1599      2053      2054
 -1       683    8    0    1
 -2       271       424       423      2054      2055      2050
 -1       684    8    0    1
 -2       272       273       425      1602      2056      2057
 -1       685    8    0    1
 -2       272       425       424      2057      2058      2053
 -1       686    8    0    1
 -2       273       274       426      1605      2059      2060
 -1       687    8    0    1
 -2       273       426       425      2060      2061      2056
 -1       688    8    0    1
 -2       274       275       427      1608      2062      2063
 -1       689    8    0    1
 -2       274       427       426      2063      2064      2059
 -1       690    8    0    1
 -2       275       276       428      1611      2065      2066
 -1       691    8    0    1
 -2       275       428       427      2066      2067      2062
 -1       692    8    0    1
 -2       276       277       429      1614      2068      2069
 -1       693    8    0    1
 -2       276       429       428      2069      2070      2065
 -1       694    8    0    1
 -2       277       278       430      1617      2071      2072
 -1       695    8    0    1
 -2       429       277       430      2068      2072      2073
 -1       696    8    0    1
 -2       278       279       430      1730      2074      2071
 -1       697    8    0    1
 -2       281       282       431      1629      2075      2076
 -1       698    8    0    1
 -2       280       281       432      1626      2077      2078
 -1       699    8    0    1
 -2       281       431       432      2076      2079      2077
 -1       700    8    0    1
 -2       279       280       430      1623      2080      2074
 -1       701    8    0    1
 -2       282       283       433      1632      2081      2082
 -1       702    8    0    1
 -2       282       433       431      2082      2083      2075
 -1       703    8    0    1
 -2       283       284       434      1635      2084      2085
 -1       704    8    0    1
 -2       283       434       433      2085      2086      2081
 -1       705    8    0    1
 -2       284       285       435      1638      2087      2088
 -1       706    8    0    1
 -2       284       435       434      2088      2089      2084
 -1       707    8    0    1
 -2       285       286       436      1641      2090      2091
 -1       708    8    0    1
 -2       285       436       435      2091      2092      2087
 -1       709    8    0    1
 -2       286       287       437      1644      2093      2094
 -1       710    8    0    1
 -2       286       437       436      2094      2095      2090
 -1       711    8    0    1
 -2       287       288       438      1647      2096      2097
 -1       712    8    0    1
 -2       287       438       437      2097      2098      2093
 -1       713    8    0    1
 -2       288       289       439      1650      2099      2100
 -1       714    8    0    1
 -2       288       439       438      2100      2101      2096
 -1       715    8    0    1
 -2       289       290       440      1653      2102      2103
 -1       716    8    0    1
 -2       289       440       439      2103      2104      2099
 -1       717    8    0    1
 -2       290       291       441      1656      2105      2106
 -1       718    8    0    1
 -2       290       441       440      2106      2107      2102
 -1       719    8    0    1
 -2       291       292       442      1659      2108      2109
 -1       720    8    0    1
 -2       291       442       441      2109      2110      2105
 -1       721    8    0    1
 -2       232       233       443      1482      2111      2112
 -1       722    8    0    1
 -2       339       232       443      1803      2112      2113
 -1       723    8    0    1
 -2       233       386       443      1941      2114      2111
 -1       724    8    0    1
 -2       295       296       444      1732      2115      2116
 -1       725    8    0    1
 -2       297       298       445      1733      2117      2118
 -1       726    8    0    1
 -2       323       294       446      1728      2119      2120
 -1       727    8    0    1
 -2       188       324       447      1725      2121      2122
 -1       728    8    0    1
 -2       168       169       448      1290      2123      2124
 -1       729    8    0    1
 -2       325       168       448      1761      2124      2125
 -1       730    8    0    1
 -2       169       327       448      1767      2126      2123
 -1       731    8    0    1
 -2       189       188       449      1349      2127      2128
 -1       732    8    0    1
 -2       346       189       449      1822      2128      2129
 -1       733    8    0    1
 -2       188       447       449      2122      2130      2127
 -1       734    8    0    1
 -2       298       299       450      1734      2131      2132
 -1       735    8    0    1
 -2       298       450       445      2132      2133      2117
 -1       736    8    0    1
 -2       299       300       451      1735      2134      2135
 -1       737    8    0    1
 -2       300       301       452      1736      2136      2137
 -1       738    8    0    1
 -2       301       302       453      1737      2138      2139
 -1       739    8    0    1
 -2       302       303       454      1738      2140      2141
 -1       740    8    0    1
 -2       303       304       455      1739      2142      2143
 -1       741    8    0    1
 -2       303       455       454      2143      2144      2140
 -1       742    8    0    1
 -2       304       305       456      1740      2145      2146
 -1       743    8    0    1
 -2       305       306       457      1741      2147      2148
 -1       744    8    0    1
 -2       305       457       456      2148      2149      2145
 -1       745    8    0    1
 -2       306       307       458      1742      2150      2151
 -1       746    8    0    1
 -2       307       308       459      1743      2152      2153
 -1       747    8    0    1
 -2       308       309       460      1744      2154      2155
 -1       748    8    0    1
 -2       308       460       459      2155      2156      2152
 -1       749    8    0    1
 -2       309       310       461      1745      2157      2158
 -1       750    8    0    1
 -2       310       311       462      1746      2159      2160
 -1       751    8    0    1
 -2       311       312       463      1747      2161      2162
 -1       752    8    0    1
 -2       311       463       462      2162      2163      2159
 -1       753    8    0    1
 -2       312       313       464      1748      2164      2165
 -1       754    8    0    1
 -2       313       314       465      1749      2166      2167
 -1       755    8    0    1
 -2       313       465       464      2167      2168      2164
 -1       756    8    0    1
 -2       314       315       466      1750      2169      2170
 -1       757    8    0    1
 -2       315       316       447      1751      2171      2172
 -1       758    8    0    1
 -2       316       317       449      1752      2173      2174
 -1       759    8    0    1
 -2       317       318       346      1753      2175      2176
 -1       760    8    0    1
 -2       318       319       467      1754      2177      2178
 -1       761    8    0    1
 -2       319       320       468      1755      2179      2180
 -1       762    8    0    1
 -2       320       321       469      1756      2181      2182
 -1       763    8    0    1
 -2       321       322       470      1757      2183      2184
 -1       764    8    0    1
 -2       322       323       471      1758      2185      2186
 -1       765    8    0    1
 -2       322       471       470      2186      2187      2183
 -1       766    8    0    1
 -2       294       295       472      1731      2188      2189
 -1       767    8    0    1
 -2       295       444       472      2116      2190      2188
 -1       768    8    0    1
 -2       190       346       347      1823      2191      1824
 -1       769    8    0    1
 -2       324       340       447      1807      2192      2121
 -1       770    8    0    1
 -2       444       296       345      2115      1820      2193
 -1       771    8    0    1
 -2       340       187       344      1806      1817      2194
 -1       772    8    0    1
 -2       183       182       326      1332      1821      2195
 -1       773    8    0    1
 -2       183       326       341      2195      2196      1808
 -1       774    8    0    1
 -2       345       297       445      1819      2118      2197
 -1       775    8    0    1
 -2       450       299       451      2131      2135      2198
 -1       776    8    0    1
 -2       191       347       348      1825      2199      1826
 -1       777    8    0    1
 -2       293       229       385      1939      1937      2200
 -1       778    8    0    1
 -2       430       280       432      2080      2078      2201
 -1       779    8    0    1
 -2       446       294       472      2119      2189      2202
 -1       780    8    0    1
 -2       292       293       473      1662      2203      2204
 -1       781    8    0    1
 -2       442       292       473      2108      2204      2205
 -1       782    8    0    1
 -2       293       385       473      2200      2206      2203
 -1       783    8    0    1
 -2       323       446       471      2120      2207      2185
 -1       784    8    0    1
 -2       469       321       470      2181      2184      2208
 -1       785    8    0    1
 -2       468       320       469      2179      2182      2209
 -1       786    8    0    1
 -2       467       319       468      2177      2180      2210
 -1       787    8    0    1
 -2       449       317       346      2173      2176      2129
 -1       788    8    0    1
 -2       447       316       449      2171      2174      2130
 -1       789    8    0    1
 -2       465       314       466      2166      2170      2211
 -1       790    8    0    1
 -2       463       312       464      2161      2165      2212
 -1       791    8    0    1
 -2       460       309       461      2154      2158      2213
 -1       792    8    0    1
 -2       457       306       458      2147      2151      2214
 -1       793    8    0    1
 -2       455       304       456      2142      2146      2215
 -1       794    8    0    1
 -2       453       302       454      2138      2141      2216
 -1       795    8    0    1
 -2       452       301       453      2136      2139      2217
 -1       796    8    0    1
 -2       451       300       452      2134      2137      2218
 -1       797    8    0    1
 -2       458       307       474      2150      2219      2220
 -1       798    8    0    1
 -2       307       459       474      2153      2221      2219
 -1       799    8    0    1
 -2       461       310       475      2157      2222      2223
 -1       800    8    0    1
 -2       310       462       475      2160      2224      2222
 -1       801    8    0    1
 -2       328       329       476      1773      2225      2226
 -1       802    8    0    1
 -2       327       328       477      1770      2227      2228
 -1       803    8    0    1
 -2       328       476       477      2226      2229      2227
 -1       804    8    0    1
 -2       330       331       478      1779      2230      2231
 -1       805    8    0    1
 -2       331       332       479      1782      2232      2233
 -1       806    8    0    1
 -2       331       479       478      2233      2234      2230
 -1       807    8    0    1
 -2       332       333       480      1785      2235      2236
 -1       808    8    0    1
 -2       332       480       479      2236      2237      2232
 -1       809    8    0    1
 -2       333       334       481      1788      2238      2239
 -1       810    8    0    1
 -2       333       481       480      2239      2240      2235
 -1       811    8    0    1
 -2       334       335       482      1791      2241      2242
 -1       812    8    0    1
 -2       334       482       481      2242      2243      2238
 -1       813    8    0    1
 -2       335       336       483      1794      2244      2245
 -1       814    8    0    1
 -2       335       483       482      2245      2246      2241
 -1       815    8    0    1
 -2       336       337       484      1797      2247      2248
 -1       816    8    0    1
 -2       336       484       483      2248      2249      2244
 -1       817    8    0    1
 -2       337       338       485      1800      2250      2251
 -1       818    8    0    1
 -2       484       337       485      2247      2251      2252
 -1       819    8    0    1
 -2       338       339       485      1805      2253      2250
 -1       820    8    0    1
 -2       345       445       486      2197      2254      2255
 -1       821    8    0    1
 -2       342       341       487      1812      2256      2257
 -1       822    8    0    1
 -2       343       342       488      1815      2258      2259
 -1       823    8    0    1
 -2       342       487       488      2257      2260      2258
 -1       824    8    0    1
 -2       341       326       489      2196      2261      2262
 -1       825    8    0    1
 -2       487       341       489      2256      2262      2263
 -1       826    8    0    1
 -2       326       325       489      1765      2264      2261
 -1       827    8    0    1
 -2       430       432       429      2201      2265      2073
 -1       828    8    0    1
 -2       350       349       490      1833      2266      2267
 -1       829    8    0    1
 -2       351       350       491      1836      2268      2269
 -1       830    8    0    1
 -2       350       490       491      2267      2270      2268
 -1       831    8    0    1
 -2       352       351       492      1839      2271      2272
 -1       832    8    0    1
 -2       351       491       492      2269      2273      2271
 -1       833    8    0    1
 -2       353       352       493      1842      2274      2275
 -1       834    8    0    1
 -2       352       492       493      2272      2276      2274
 -1       835    8    0    1
 -2       354       353       494      1845      2277      2278
 -1       836    8    0    1
 -2       353       493       494      2275      2279      2277
 -1       837    8    0    1
 -2       355       354       495      1848      2280      2281
 -1       838    8    0    1
 -2       354       494       495      2278      2282      2280
 -1       839    8    0    1
 -2       356       355       496      1851      2283      2284
 -1       840    8    0    1
 -2       355       495       496      2281      2285      2283
 -1       841    8    0    1
 -2       357       356       497      1854      2286      2287
 -1       842    8    0    1
 -2       356       496       497      2284      2288      2286
 -1       843    8    0    1
 -2       358       357       498      1857      2289      2290
 -1       844    8    0    1
 -2       357       497       498      2287      2291      2289
 -1       845    8    0    1
 -2       359       358       499      1860      2292      2293
 -1       846    8    0    1
 -2       358       498       499      2290      2294      2292
 -1       847    8    0    1
 -2       360       359       500      1863      2295      2296
 -1       848    8    0    1
 -2       359       499       500      2293      2297      2295
 -1       849    8    0    1
 -2       361       360       501      1866      2298      2299
 -1       850    8    0    1
 -2       360       500       501      2296      2300      2298
 -1       851    8    0    1
 -2       362       361       502      1869      2301      2302
 -1       852    8    0    1
 -2       361       501       502      2299      2303      2301
 -1       853    8    0    1
 -2       363       362       503      1872      2304      2305
 -1       854    8    0    1
 -2       362       502       503      2302      2306      2304
 -1       855    8    0    1
 -2       364       363       504      1875      2307      2308
 -1       856    8    0    1
 -2       363       503       504      2305      2309      2307
 -1       857    8    0    1
 -2       365       364       505      1878      2310      2311
 -1       858    8    0    1
 -2       364       504       505      2308      2312      2310
 -1       859    8    0    1
 -2       366       365       506      1881      2313      2314
 -1       860    8    0    1
 -2       365       505       506      2311      2315      2313
 -1       861    8    0    1
 -2       367       366       507      1884      2316      2317
 -1       862    8    0    1
 -2       366       506       507      2314      2318      2316
 -1       863    8    0    1
 -2       368       367       508      1887      2319      2320
 -1       864    8    0    1
 -2       367       507       508      2317      2321      2319
 -1       865    8    0    1
 -2       369       368       509      1890      2322      2323
 -1       866    8    0    1
 -2       368       508       509      2320      2324      2322
 -1       867    8    0    1
 -2       370       369       510      1893      2325      2326
 -1       868    8    0    1
 -2       369       509       510      2323      2327      2325
 -1       869    8    0    1
 -2       371       370       511      1896      2328      2329
 -1       870    8    0    1
 -2       370       510       511      2326      2330      2328
 -1       871    8    0    1
 -2       372       371       512      1899      2331      2332
 -1       872    8    0    1
 -2       371       511       512      2329      2333      2331
 -1       873    8    0    1
 -2       373       372       513      1902      2334      2335
 -1       874    8    0    1
 -2       372       512       513      2332      2336      2334
 -1       875    8    0    1
 -2       374       373       514      1905      2337      2338
 -1       876    8    0    1
 -2       373       513       514      2335      2339      2337
 -1       877    8    0    1
 -2       375       374       515      1908      2340      2341
 -1       878    8    0    1
 -2       374       514       515      2338      2342      2340
 -1       879    8    0    1
 -2       376       375       516      1911      2343      2344
 -1       880    8    0    1
 -2       375       515       516      2341      2345      2343
 -1       881    8    0    1
 -2       377       376       517      1914      2346      2347
 -1       882    8    0    1
 -2       376       516       517      2344      2348      2346
 -1       883    8    0    1
 -2       378       377       518      1917      2349      2350
 -1       884    8    0    1
 -2       377       517       518      2347      2351      2349
 -1       885    8    0    1
 -2       379       378       519      1920      2352      2353
 -1       886    8    0    1
 -2       378       518       519      2350      2354      2352
 -1       887    8    0    1
 -2       380       379       520      1923      2355      2356
 -1       888    8    0    1
 -2       379       519       520      2353      2357      2355
 -1       889    8    0    1
 -2       381       380       521      1926      2358      2359
 -1       890    8    0    1
 -2       380       520       521      2356      2360      2358
 -1       891    8    0    1
 -2       382       381       522      1929      2361      2362
 -1       892    8    0    1
 -2       381       521       522      2359      2363      2361
 -1       893    8    0    1
 -2       383       382       523      1932      2364      2365
 -1       894    8    0    1
 -2       382       522       523      2362      2366      2364
 -1       895    8    0    1
 -2       384       383       524      1935      2367      2368
 -1       896    8    0    1
 -2       383       523       524      2365      2369      2367
 -1       897    8    0    1
 -2       385       384       525      1938      2370      2371
 -1       898    8    0    1
 -2       473       385       525      2206      2371      2372
 -1       899    8    0    1
 -2       384       524       525      2368      2373      2370
 -1       900    8    0    1
 -2       388       389       526      1950      2374      2375
 -1       901    8    0    1
 -2       387       388       527      1947      2376      2377
 -1       902    8    0    1
 -2       388       526       527      2375      2378      2376
 -1       903    8    0    1
 -2       386       387       528      1944      2379      2380
 -1       904    8    0    1
 -2       387       527       528      2377      2381      2379
 -1       905    8    0    1
 -2       389       390       529      1953      2382      2383
 -1       906    8    0    1
 -2       389       529       526      2383      2384      2374
 -1       907    8    0    1
 -2       390       391       530      1956      2385      2386
 -1       908    8    0    1
 -2       390       530       529      2386      2387      2382
 -1       909    8    0    1
 -2       391       392       531      1959      2388      2389
 -1       910    8    0    1
 -2       391       531       530      2389      2390      2385
 -1       911    8    0    1
 -2       392       393       532      1962      2391      2392
 -1       912    8    0    1
 -2       392       532       531      2392      2393      2388
 -1       913    8    0    1
 -2       393       394       533      1965      2394      2395
 -1       914    8    0    1
 -2       393       533       532      2395      2396      2391
 -1       915    8    0    1
 -2       394       395       534      1968      2397      2398
 -1       916    8    0    1
 -2       394       534       533      2398      2399      2394
 -1       917    8    0    1
 -2       395       396       535      1971      2400      2401
 -1       918    8    0    1
 -2       395       535       534      2401      2402      2397
 -1       919    8    0    1
 -2       396       397       536      1974      2403      2404
 -1       920    8    0    1
 -2       396       536       535      2404      2405      2400
 -1       921    8    0    1
 -2       397       398       537      1977      2406      2407
 -1       922    8    0    1
 -2       397       537       536      2407      2408      2403
 -1       923    8    0    1
 -2       398       399       538      1980      2409      2410
 -1       924    8    0    1
 -2       398       538       537      2410      2411      2406
 -1       925    8    0    1
 -2       399       400       539      1983      2412      2413
 -1       926    8    0    1
 -2       399       539       538      2413      2414      2409
 -1       927    8    0    1
 -2       400       401       540      1986      2415      2416
 -1       928    8    0    1
 -2       400       540       539      2416      2417      2412
 -1       929    8    0    1
 -2       401       402       541      1989      2418      2419
 -1       930    8    0    1
 -2       401       541       540      2419      2420      2415
 -1       931    8    0    1
 -2       402       403       542      1992      2421      2422
 -1       932    8    0    1
 -2       402       542       541      2422      2423      2418
 -1       933    8    0    1
 -2       403       404       543      1995      2424      2425
 -1       934    8    0    1
 -2       403       543       542      2425      2426      2421
 -1       935    8    0    1
 -2       404       405       544      1998      2427      2428
 -1       936    8    0    1
 -2       404       544       543      2428      2429      2424
 -1       937    8    0    1
 -2       405       406       545      2001      2430      2431
 -1       938    8    0    1
 -2       405       545       544      2431      2432      2427
 -1       939    8    0    1
 -2       406       407       546      2004      2433      2434
 -1       940    8    0    1
 -2       406       546       545      2434      2435      2430
 -1       941    8    0    1
 -2       407       408       547      2007      2436      2437
 -1       942    8    0    1
 -2       407       547       546      2437      2438      2433
 -1       943    8    0    1
 -2       408       409       548      2010      2439      2440
 -1       944    8    0    1
 -2       408       548       547      2440      2441      2436
 -1       945    8    0    1
 -2       409       410       549      2013      2442      2443
 -1       946    8    0    1
 -2       409       549       548      2443      2444      2439
 -1       947    8    0    1
 -2       410       411       550      2016      2445      2446
 -1       948    8    0    1
 -2       410       550       549      2446      2447      2442
 -1       949    8    0    1
 -2       411       412       551      2019      2448      2449
 -1       950    8    0    1
 -2       411       551       550      2449      2450      2445
 -1       951    8    0    1
 -2       412       413       552      2022      2451      2452
 -1       952    8    0    1
 -2       412       552       551      2452      2453      2448
 -1       953    8    0    1
 -2       413       414       553      2025      2454      2455
 -1       954    8    0    1
 -2       413       553       552      2455      2456      2451
 -1       955    8    0    1
 -2       414       415       554      2028      2457      2458
 -1       956    8    0    1
 -2       414       554       553      2458      2459      2454
 -1       957    8    0    1
 -2       415       416       555      2031      2460      2461
 -1       958    8    0    1
 -2       415       555       554      2461      2462      2457
 -1       959    8    0    1
 -2       416       417       556      2034      2463      2464
 -1       960    8    0    1
 -2       416       556       555      2464      2465      2460
 -1       961    8    0    1
 -2       417       418       557      2037      2466      2467
 -1       962    8    0    1
 -2       417       557       556      2467      2468      2463
 -1       963    8    0    1
 -2       418       419       558      2040      2469      2470
 -1       964    8    0    1
 -2       418       558       557      2470      2471      2466
 -1       965    8    0    1
 -2       419       420       559      2043      2472      2473
 -1       966    8    0    1
 -2       419       559       558      2473      2474      2469
 -1       967    8    0    1
 -2       420       421       560      2046      2475      2476
 -1       968    8    0    1
 -2       420       560       559      2476      2477      2472
 -1       969    8    0    1
 -2       421       422       561      2049      2478      2479
 -1       970    8    0    1
 -2       421       561       560      2479      2480      2475
 -1       971    8    0    1
 -2       422       423       562      2052      2481      2482
 -1       972    8    0    1
 -2       422       562       561      2482      2483      2478
 -1       973    8    0    1
 -2       423       424       563      2055      2484      2485
 -1       974    8    0    1
 -2       423       563       562      2485      2486      2481
 -1       975    8    0    1
 -2       424       425       564      2058      2487      2488
 -1       976    8    0    1
 -2       424       564       563      2488      2489      2484
 -1       977    8    0    1
 -2       425       426       565      2061      2490      2491
 -1       978    8    0    1
 -2       425       565       564      2491      2492      2487
 -1       979    8    0    1
 -2       426       427       566      2064      2493      2494
 -1       980    8    0    1
 -2       426       566       565      2494      2495      2490
 -1       981    8    0    1
 -2       427       428       567      2067      2496      2497
 -1       982    8    0    1
 -2       427       567       566      2497      2498      2493
 -1       983    8    0    1
 -2       428       429       568      2070      2499      2500
 -1       984    8    0    1
 -2       428       568       567      2500      2501      2496
 -1       985    8    0    1
 -2       433       434       569      2086      2502      2503
 -1       986    8    0    1
 -2       431       433       570      2083      2504      2505
 -1       987    8    0    1
 -2       433       569       570      2503      2506      2504
 -1       988    8    0    1
 -2       432       431       571      2079      2507      2508
 -1       989    8    0    1
 -2       431       570       571      2505      2509      2507
 -1       990    8    0    1
 -2       446       472       572      2202      2510      2511
 -1       991    8    0    1
 -2       434       435       573      2089      2512      2513
 -1       992    8    0    1
 -2       434       573       569      2513      2514      2502
 -1       993    8    0    1
 -2       435       436       574      2092      2515      2516
 -1       994    8    0    1
 -2       435       574       573      2516      2517      2512
 -1       995    8    0    1
 -2       436       437       575      2095      2518      2519
 -1       996    8    0    1
 -2       436       575       574      2519      2520      2515
 -1       997    8    0    1
 -2       437       438       576      2098      2521      2522
 -1       998    8    0    1
 -2       437       576       575      2522      2523      2518
 -1       999    8    0    1
 -2       438       439       577      2101      2524      2525
 -1      1000    8    0    1
 -2       438       577       576      2525      2526      2521
 -1      1001    8    0    1
 -2       439       440       578      2104      2527      2528
 -1      1002    8    0    1
 -2       439       578       577      2528      2529      2524
 -1      1003    8    0    1
 -2       440       441       579      2107      2530      2531
 -1      1004    8    0    1
 -2       440       579       578      2531      2532      2527
 -1      1005    8    0    1
 -2       441       442       580      2110      2533      2534
 -1      1006    8    0    1
 -2       441       580       579      2534      2535      2530
 -1      1007    8    0    1
 -2       450       451       581      2198      2536      2537
 -1      1008    8    0    1
 -2       445       450       582      2133      2538      2539
 -1      1009    8    0    1
 -2       450       581       582      2537      2540      2538
 -1      1010    8    0    1
 -2       469       470       583      2208      2541      2542
 -1      1011    8    0    1
 -2       346       318       347      2175      2543      2191
 -1      1012    8    0    1
 -2       460       461       584      2213      2544      2545
 -1      1013    8    0    1
 -2       457       458       585      2214      2546      2547
 -1      1014    8    0    1
 -2       453       454       586      2216      2548      2549
 -1      1015    8    0    1
 -2       444       345       587      2193      2550      2551
 -1      1016    8    0    1
 -2       345       486       587      2255      2552      2550
 -1      1017    8    0    1
 -2       471       446       588      2207      2553      2554
 -1      1018    8    0    1
 -2       329       330       589      1776      2555      2556
 -1      1019    8    0    1
 -2       330       478       589      2231      2557      2555
 -1      1020    8    0    1
 -2       429       432       568      2265      2558      2499
 -1      1021    8    0    1
 -2       451       452       590      2218      2559      2560
 -1      1022    8    0    1
 -2       452       453       591      2217      2561      2562
 -1      1023    8    0    1
 -2       452       591       590      2562      2563      2559
 -1      1024    8    0    1
 -2       454       455       592      2144      2564      2565
 -1      1025    8    0    1
 -2       455       456       593      2215      2566      2567
 -1      1026    8    0    1
 -2       455       593       592      2567      2568      2564
 -1      1027    8    0    1
 -2       456       457       594      2149      2569      2570
 -1      1028    8    0    1
 -2       457       585       594      2547      2571      2569
 -1      1029    8    0    1
 -2       459       460       595      2156      2572      2573
 -1      1030    8    0    1
 -2       460       584       595      2545      2574      2572
 -1      1031    8    0    1
 -2       463       464       596      2212      2575      2576
 -1      1032    8    0    1
 -2       466       315       447      2169      2172      2577
 -1      1033    8    0    1
 -2       468       469       597      2209      2578      2579
 -1      1034    8    0    1
 -2       470       471       598      2187      2580      2581
 -1      1035    8    0    1
 -2       471       588       598      2554      2582      2580
 -1      1036    8    0    1
 -2       472       444       599      2190      2583      2584
 -1      1037    8    0    1
 -2       466       447       340      2577      2192      2585
 -1      1038    8    0    1
 -2       466       340       465      2585      2586      2211
 -1      1039    8    0    1
 -2       327       477       600      2228      2587      2588
 -1      1040    8    0    1
 -2       327       600       448      2588      2589      2126
 -1      1041    8    0    1
 -2       486       445       601      2254      2590      2591
 -1      1042    8    0    1
 -2       445       582       601      2539      2592      2590
 -1      1043    8    0    1
 -2       485       339       602      2253      2593      2594
 -1      1044    8    0    1
 -2       339       443       602      2113      2595      2593
 -1      1045    8    0    1
 -2       340       344       465      2194      2596      2586
 -1      1046    8    0    1
 -2       593       456       594      2566      2570      2597
 -1      1047    8    0    1
 -2       489       325       448      2264      2125      2598
 -1      1048    8    0    1
 -2       344       343       596      1818      2599      2600
 -1      1049    8    0    1
 -2       432       571       568      2508      2601      2558
 -1      1050    8    0    1
 -2       451       590       581      2560      2602      2536
 -1      1051    8    0    1
 -2       446       572       603      2511      2603      2604
 -1      1052    8    0    1
 -2       446       603       588      2604      2605      2553
 -1      1053    8    0    1
 -2       572       472       599      2510      2584      2606
 -1      1054    8    0    1
 -2       469       583       597      2542      2607      2578
 -1      1055    8    0    1
 -2       465       344       464      2596      2608      2168
 -1      1056    8    0    1
 -2       464       344       596      2608      2600      2575
 -1      1057    8    0    1
 -2       596       343       488      2599      2259      2609
 -1      1058    8    0    1
 -2       443       386       604      2114      2610      2611
 -1      1059    8    0    1
 -2       602       443       604      2595      2611      2612
 -1      1060    8    0    1
 -2       386       528       604      2380      2613      2610
 -1      1061    8    0    1
 -2       463       596       605      2576      2614      2615
 -1      1062    8    0    1
 -2       462       463       605      2163      2615      2616
 -1      1063    8    0    1
 -2       596       488       605      2609      2617      2614
 -1      1064    8    0    1
 -2       348       347       468      2199      2618      2619
 -1      1065    8    0    1
 -2       583       470       598      2541      2581      2620
 -1      1066    8    0    1
 -2       442       473       525      2205      2372      2621
 -1      1067    8    0    1
 -2       584       461       606      2544      2622      2623
 -1      1068    8    0    1
 -2       461       475       606      2223      2624      2622
 -1      1069    8    0    1
 -2       586       454       592      2548      2565      2625
 -1      1070    8    0    1
 -2       585       458       607      2546      2626      2627
 -1      1071    8    0    1
 -2       458       474       607      2220      2628      2626
 -1      1072    8    0    1
 -2       459       595       608      2573      2629      2630
 -1      1073    8    0    1
 -2       459       608       474      2630      2631      2221
 -1      1074    8    0    1
 -2       453       586       591      2549      2632      2561
 -1      1075    8    0    1
 -2       444       587       599      2551      2633      2583
 -1      1076    8    0    1
 -2       349       348       597      1830      2634      2635
 -1      1077    8    0    1
 -2       329       589       476      2556      2636      2225
 -1      1078    8    0    1
 -2       475       462       605      2224      2616      2637
 -1      1079    8    0    1
 -2       348       468       597      2619      2579      2634
 -1      1080    8    0    1
 -2       442       525       580      2621      2638      2533
 -1      1081    8    0    1
 -2       349       597       490      2635      2639      2266
 -1      1082    8    0    1
 -2       479       480       609      2237      2640      2641
 -1      1083    8    0    1
 -2       478       479       610      2234      2642      2643
 -1      1084    8    0    1
 -2       479       609       610      2641      2644      2642
 -1      1085    8    0    1
 -2       481       482       611      2243      2645      2646
 -1      1086    8    0    1
 -2       482       483       612      2246      2647      2648
 -1      1087    8    0    1
 -2       482       612       611      2648      2649      2645
 -1      1088    8    0    1
 -2       484       485       613      2252      2650      2651
 -1      1089    8    0    1
 -2       485       602       613      2594      2652      2650
 -1      1090    8    0    1
 -2       605       488       614      2617      2653      2654
 -1      1091    8    0    1
 -2       475       605       614      2637      2654      2655
 -1      1092    8    0    1
 -2       488       487       614      2260      2656      2653
 -1      1093    8    0    1
 -2       491       490       615      2270      2657      2658
 -1      1094    8    0    1
 -2       487       489       616      2263      2659      2660
 -1      1095    8    0    1
 -2       568       571       617      2601      2661      2662
 -1      1096    8    0    1
 -2       568       617       567      2662      2663      2501
 -1      1097    8    0    1
 -2       570       569       618      2506      2664      2665
 -1      1098    8    0    1
 -2       492       491       619      2273      2666      2667
 -1      1099    8    0    1
 -2       491       615       619      2658      2668      2666
 -1      1100    8    0    1
 -2       493       492       620      2276      2669      2670
 -1      1101    8    0    1
 -2       492       619       620      2667      2671      2669
 -1      1102    8    0    1
 -2       494       493       621      2279      2672      2673
 -1      1103    8    0    1
 -2       493       620       621      2670      2674      2672
 -1      1104    8    0    1
 -2       495       494       622      2282      2675      2676
 -1      1105    8    0    1
 -2       494       621       622      2673      2677      2675
 -1      1106    8    0    1
 -2       496       495       623      2285      2678      2679
 -1      1107    8    0    1
 -2       495       622       623      2676      2680      2678
 -1      1108    8    0    1
 -2       497       496       624      2288      2681      2682
 -1      1109    8    0    1
 -2       496       623       624      2679      2683      2681
 -1      1110    8    0    1
 -2       498       497       625      2291      2684      2685
 -1      1111    8    0    1
 -2       497       624       625      2682      2686      2684
 -1      1112    8    0    1
 -2       499       498       626      2294      2687      2688
 -1      1113    8    0    1
 -2       498       625       626      2685      2689      2687
 -1      1114    8    0    1
 -2       500       499       627      2297      2690      2691
 -1      1115    8    0    1
 -2       499       626       627      2688      2692      2690
 -1      1116    8    0    1
 -2       501       500       628      2300      2693      2694
 -1      1117    8    0    1
 -2       500       627       628      2691      2695      2693
 -1      1118    8    0    1
 -2       502       501       629      2303      2696      2697
 -1      1119    8    0    1
 -2       501       628       629      2694      2698      2696
 -1      1120    8    0    1
 -2       503       502       630      2306      2699      2700
 -1      1121    8    0    1
 -2       502       629       630      2697      2701      2699
 -1      1122    8    0    1
 -2       504       503       631      2309      2702      2703
 -1      1123    8    0    1
 -2       503       630       631      2700      2704      2702
 -1      1124    8    0    1
 -2       505       504       632      2312      2705      2706
 -1      1125    8    0    1
 -2       504       631       632      2703      2707      2705
 -1      1126    8    0    1
 -2       506       505       633      2315      2708      2709
 -1      1127    8    0    1
 -2       505       632       633      2706      2710      2708
 -1      1128    8    0    1
 -2       507       506       634      2318      2711      2712
 -1      1129    8    0    1
 -2       506       633       634      2709      2713      2711
 -1      1130    8    0    1
 -2       508       507       635      2321      2714      2715
 -1      1131    8    0    1
 -2       507       634       635      2712      2716      2714
 -1      1132    8    0    1
 -2       509       508       636      2324      2717      2718
 -1      1133    8    0    1
 -2       508       635       636      2715      2719      2717
 -1      1134    8    0    1
 -2       510       509       637      2327      2720      2721
 -1      1135    8    0    1
 -2       509       636       637      2718      2722      2720
 -1      1136    8    0    1
 -2       511       510       638      2330      2723      2724
 -1      1137    8    0    1
 -2       510       637       638      2721      2725      2723
 -1      1138    8    0    1
 -2       512       511       639      2333      2726      2727
 -1      1139    8    0    1
 -2       511       638       639      2724      2728      2726
 -1      1140    8    0    1
 -2       513       512       640      2336      2729      2730
 -1      1141    8    0    1
 -2       512       639       640      2727      2731      2729
 -1      1142    8    0    1
 -2       514       513       641      2339      2732      2733
 -1      1143    8    0    1
 -2       513       640       641      2730      2734      2732
 -1      1144    8    0    1
 -2       515       514       642      2342      2735      2736
 -1      1145    8    0    1
 -2       514       641       642      2733      2737      2735
 -1      1146    8    0    1
 -2       516       515       643      2345      2738      2739
 -1      1147    8    0    1
 -2       515       642       643      2736      2740      2738
 -1      1148    8    0    1
 -2       517       516       644      2348      2741      2742
 -1      1149    8    0    1
 -2       516       643       644      2739      2743      2741
 -1      1150    8    0    1
 -2       518       517       645      2351      2744      2745
 -1      1151    8    0    1
 -2       517       644       645      2742      2746      2744
 -1      1152    8    0    1
 -2       519       518       646      2354      2747      2748
 -1      1153    8    0    1
 -2       518       645       646      2745      2749      2747
 -1      1154    8    0    1
 -2       520       519       647      2357      2750      2751
 -1      1155    8    0    1
 -2       519       646       647      2748      2752      2750
 -1      1156    8    0    1
 -2       521       520       648      2360      2753      2754
 -1      1157    8    0    1
 -2       520       647       648      2751      2755      2753
 -1      1158    8    0    1
 -2       522       521       649      2363      2756      2757
 -1      1159    8    0    1
 -2       521       648       649      2754      2758      2756
 -1      1160    8    0    1
 -2       523       522       650      2366      2759      2760
 -1      1161    8    0    1
 -2       522       649       650      2757      2761      2759
 -1      1162    8    0    1
 -2       524       523       651      2369      2762      2763
 -1      1163    8    0    1
 -2       523       650       651      2760      2764      2762
 -1      1164    8    0    1
 -2       525       524       580      2373      2765      2638
 -1      1165    8    0    1
 -2       527       526       652      2378      2766      2767
 -1      1166    8    0    1
 -2       526       529       653      2384      2768      2769
 -1      1167    8    0    1
 -2       526       653       652      2769      2770      2766
 -1      1168    8    0    1
 -2       528       527       654      2381      2771      2772
 -1      1169    8    0    1
 -2       527       652       654      2767      2773      2771
 -1      1170    8    0    1
 -2       530       531       655      2390      2774      2775
 -1      1171    8    0    1
 -2       531       532       656      2393      2776      2777
 -1      1172    8    0    1
 -2       531       656       655      2777      2778      2774
 -1      1173    8    0    1
 -2       532       533       657      2396      2779      2780
 -1      1174    8    0    1
 -2       532       657       656      2780      2781      2776
 -1      1175    8    0    1
 -2       533       534       658      2399      2782      2783
 -1      1176    8    0    1
 -2       533       658       657      2783      2784      2779
 -1      1177    8    0    1
 -2       534       535       659      2402      2785      2786
 -1      1178    8    0    1
 -2       534       659       658      2786      2787      2782
 -1      1179    8    0    1
 -2       535       536       660      2405      2788      2789
 -1      1180    8    0    1
 -2       535       660       659      2789      2790      2785
 -1      1181    8    0    1
 -2       536       537       661      2408      2791      2792
 -1      1182    8    0    1
 -2       536       661       660      2792      2793      2788
 -1      1183    8    0    1
 -2       537       538       662      2411      2794      2795
 -1      1184    8    0    1
 -2       537       662       661      2795      2796      2791
 -1      1185    8    0    1
 -2       538       539       663      2414      2797      2798
 -1      1186    8    0    1
 -2       538       663       662      2798      2799      2794
 -1      1187    8    0    1
 -2       539       540       664      2417      2800      2801
 -1      1188    8    0    1
 -2       539       664       663      2801      2802      2797
 -1      1189    8    0    1
 -2       540       541       665      2420      2803      2804
 -1      1190    8    0    1
 -2       540       665       664      2804      2805      2800
 -1      1191    8    0    1
 -2       541       542       666      2423      2806      2807
 -1      1192    8    0    1
 -2       541       666       665      2807      2808      2803
 -1      1193    8    0    1
 -2       542       543       667      2426      2809      2810
 -1      1194    8    0    1
 -2       542       667       666      2810      2811      2806
 -1      1195    8    0    1
 -2       543       544       668      2429      2812      2813
 -1      1196    8    0    1
 -2       543       668       667      2813      2814      2809
 -1      1197    8    0    1
 -2       544       545       669      2432      2815      2816
 -1      1198    8    0    1
 -2       544       669       668      2816      2817      2812
 -1      1199    8    0    1
 -2       545       546       670      2435      2818      2819
 -1      1200    8    0    1
 -2       545       670       669      2819      2820      2815
 -1      1201    8    0    1
 -2       546       547       671      2438      2821      2822
 -1      1202    8    0    1
 -2       546       671       670      2822      2823      2818
 -1      1203    8    0    1
 -2       547       548       672      2441      2824      2825
 -1      1204    8    0    1
 -2       547       672       671      2825      2826      2821
 -1      1205    8    0    1
 -2       548       549       673      2444      2827      2828
 -1      1206    8    0    1
 -2       548       673       672      2828      2829      2824
 -1      1207    8    0    1
 -2       549       550       674      2447      2830      2831
 -1      1208    8    0    1
 -2       549       674       673      2831      2832      2827
 -1      1209    8    0    1
 -2       550       551       675      2450      2833      2834
 -1      1210    8    0    1
 -2       550       675       674      2834      2835      2830
 -1      1211    8    0    1
 -2       551       552       676      2453      2836      2837
 -1      1212    8    0    1
 -2       551       676       675      2837      2838      2833
 -1      1213    8    0    1
 -2       552       553       677      2456      2839      2840
 -1      1214    8    0    1
 -2       552       677       676      2840      2841      2836
 -1      1215    8    0    1
 -2       553       554       678      2459      2842      2843
 -1      1216    8    0    1
 -2       553       678       677      2843      2844      2839
 -1      1217    8    0    1
 -2       554       555       679      2462      2845      2846
 -1      1218    8    0    1
 -2       554       679       678      2846      2847      2842
 -1      1219    8    0    1
 -2       555       556       680      2465      2848      2849
 -1      1220    8    0    1
 -2       555       680       679      2849      2850      2845
 -1      1221    8    0    1
 -2       556       557       681      2468      2851      2852
 -1      1222    8    0    1
 -2       556       681       680      2852      2853      2848
 -1      1223    8    0    1
 -2       557       558       682      2471      2854      2855
 -1      1224    8    0    1
 -2       557       682       681      2855      2856      2851
 -1      1225    8    0    1
 -2       558       559       683      2474      2857      2858
 -1      1226    8    0    1
 -2       558       683       682      2858      2859      2854
 -1      1227    8    0    1
 -2       559       560       684      2477      2860      2861
 -1      1228    8    0    1
 -2       559       684       683      2861      2862      2857
 -1      1229    8    0    1
 -2       560       561       685      2480      2863      2864
 -1      1230    8    0    1
 -2       560       685       684      2864      2865      2860
 -1      1231    8    0    1
 -2       561       562       686      2483      2866      2867
 -1      1232    8    0    1
 -2       561       686       685      2867      2868      2863
 -1      1233    8    0    1
 -2       562       563       687      2486      2869      2870
 -1      1234    8    0    1
 -2       562       687       686      2870      2871      2866
 -1      1235    8    0    1
 -2       563       564       688      2489      2872      2873
 -1      1236    8    0    1
 -2       563       688       687      2873      2874      2869
 -1      1237    8    0    1
 -2       564       565       689      2492      2875      2876
 -1      1238    8    0    1
 -2       564       689       688      2876      2877      2872
 -1      1239    8    0    1
 -2       565       566       690      2495      2878      2879
 -1      1240    8    0    1
 -2       565       690       689      2879      2880      2875
 -1      1241    8    0    1
 -2       566       567       691      2498      2881      2882
 -1      1242    8    0    1
 -2       690       566       691      2878      2882      2883
 -1      1243    8    0    1
 -2       567       617       691      2663      2884      2881
 -1      1244    8    0    1
 -2       573       574       692      2517      2885      2886
 -1      1245    8    0    1
 -2       571       570       617      2509      2887      2661
 -1      1246    8    0    1
 -2       569       573       693      2514      2888      2889
 -1      1247    8    0    1
 -2       618       569       693      2664      2889      2890
 -1      1248    8    0    1
 -2       573       692       693      2886      2891      2888
 -1      1249    8    0    1
 -2       529       530       694      2387      2892      2893
 -1      1250    8    0    1
 -2       653       529       694      2768      2893      2894
 -1      1251    8    0    1
 -2       530       655       694      2775      2895      2892
 -1      1252    8    0    1
 -2       575       576       695      2523      2896      2897
 -1      1253    8    0    1
 -2       576       577       696      2526      2898      2899
 -1      1254    8    0    1
 -2       576       696       695      2899      2900      2896
 -1      1255    8    0    1
 -2       577       578       697      2529      2901      2902
 -1      1256    8    0    1
 -2       577       697       696      2902      2903      2898
 -1      1257    8    0    1
 -2       578       579       698      2532      2904      2905
 -1      1258    8    0    1
 -2       578       698       697      2905      2906      2901
 -1      1259    8    0    1
 -2       579       580       699      2535      2907      2908
 -1      1260    8    0    1
 -2       579       699       698      2908      2909      2904
 -1      1261    8    0    1
 -2       583       598       700      2620      2910      2911
 -1      1262    8    0    1
 -2       589       478       701      2557      2912      2913
 -1      1263    8    0    1
 -2       478       610       701      2643      2914      2912
 -1      1264    8    0    1
 -2       582       581       702      2540      2915      2916
 -1      1265    8    0    1
 -2       574       575       703      2520      2917      2918
 -1      1266    8    0    1
 -2       575       695       703      2897      2919      2917
 -1      1267    8    0    1
 -2       580       524       651      2765      2763      2920
 -1      1268    8    0    1
 -2       572       599       704      2606      2921      2922
 -1      1269    8    0    1
 -2       476       589       705      2636      2923      2924
 -1      1270    8    0    1
 -2       589       701       705      2913      2925      2923
 -1      1271    8    0    1
 -2       593       594       706      2597      2926      2927
 -1      1272    8    0    1
 -2       599       587       707      2633      2928      2929
 -1      1273    8    0    1
 -2       480       481       708      2240      2930      2931
 -1      1274    8    0    1
 -2       609       480       708      2640      2931      2932
 -1      1275    8    0    1
 -2       481       611       708      2646      2933      2930
 -1      1276    8    0    1
 -2       477       476       709      2229      2934      2935
 -1      1277    8    0    1
 -2       476       705       709      2924      2936      2934
 -1      1278    8    0    1
 -2       591       586       710      2632      2937      2938
 -1      1279    8    0    1
 -2       590       591       711      2563      2939      2940
 -1      1280    8    0    1
 -2       591       710       711      2938      2941      2939
 -1      1281    8    0    1
 -2       489       448       616      2598      2942      2659
 -1      1282    8    0    1
 -2       592       593       712      2568      2943      2944
 -1      1283    8    0    1
 -2       593       706       712      2927      2945      2943
 -1      1284    8    0    1
 -2       594       585       713      2571      2946      2947
 -1      1285    8    0    1
 -2       594       713       706      2947      2948      2926
 -1      1286    8    0    1
 -2       595       584       714      2574      2949      2950
 -1      1287    8    0    1
 -2       586       592       715      2625      2951      2952
 -1      1288    8    0    1
 -2       581       590       716      2602      2953      2954
 -1      1289    8    0    1
 -2       587       486       717      2552      2955      2956
 -1      1290    8    0    1
 -2       598       588       718      2582      2957      2958
 -1      1291    8    0    1
 -2       601       582       702      2592      2916      2959
 -1      1292    8    0    1
 -2       484       613       483      2651      2960      2249
 -1      1293    8    0    1
 -2       614       487       616      2656      2660      2961
 -1      1294    8    0    1
 -2       592       712       715      2944      2962      2951
 -1      1295    8    0    1
 -2       604       528       719      2613      2963      2964
 -1      1296    8    0    1
 -2       572       704       720      2922      2965      2966
 -1      1297    8    0    1
 -2       572       720       603      2966      2967      2603
 -1      1298    8    0    1
 -2       584       606       714      2623      2968      2949
 -1      1299    8    0    1
 -2       528       654       719      2772      2969      2963
 -1      1300    8    0    1
 -2       692       574       703      2885      2918      2970
 -1      1301    8    0    1
 -2       570       618       617      2665      2971      2887
 -1      1302    8    0    1
 -2       699       580       651      2907      2920      2972
 -1      1303    8    0    1
 -2       700       598       718      2910      2958      2973
 -1      1304    8    0    1
 -2       490       597       583      2639      2607      2974
 -1      1305    8    0    1
 -2       588       603       718      2605      2975      2957
 -1      1306    8    0    1
 -2       475       614       606      2655      2976      2624
 -1      1307    8    0    1
 -2       347       318       467      2543      2178      2977
 -1      1308    8    0    1
 -2       347       467       468      2977      2210      2618
 -1      1309    8    0    1
 -2       483       613       612      2960      2978      2647
 -1      1310    8    0    1
 -2       717       486       601      2955      2591      2979
 -1      1311    8    0    1
 -2       702       581       716      2915      2954      2980
 -1      1312    8    0    1
 -2       607       474       721      2628      2981      2982
 -1      1313    8    0    1
 -2       474       608       721      2631      2983      2981
 -1      1314    8    0    1
 -2       608       595       722      2629      2984      2985
 -1      1315    8    0    1
 -2       595       714       722      2950      2986      2984
 -1      1316    8    0    1
 -2       716       590       711      2953      2940      2987
 -1      1317    8    0    1
 -2       704       599       707      2921      2929      2988
 -1      1318    8    0    1
 -2       616       448       600      2942      2589      2989
 -1      1319    8    0    1
 -2       707       587       717      2928      2956      2990
 -1      1320    8    0    1
 -2       585       607       723      2627      2991      2992
 -1      1321    8    0    1
 -2       585       723       713      2992      2993      2946
 -1      1322    8    0    1
 -2       710       586       724      2937      2994      2995
 -1      1323    8    0    1
 -2       586       715       724      2952      2996      2994
 -1      1324    8    0    1
 -2       490       583       700      2974      2911      2997
 -1      1325    8    0    1
 -2       600       477       725      2587      2998      2999
 -1      1326    8    0    1
 -2       490       700       615      2997      3000      2657
 -1      1327    8    0    1
 -2       725       477       709      2998      2935      3001
 -1      1328    8    0    1
 -2       611       612       726      2649      3002      3003
 -1      1329    8    0    1
 -2       613       602       604      2652      2612      3004
 -1      1330    8    0    1
 -2       614       616       606      2961      3005      2976
 -1      1331    8    0    1
 -2       692       703       727      2970      3006      3007
 -1      1332    8    0    1
 -2       715       712       728      2962      3008      3009
 -1      1333    8    0    1
 -2       620       619       729      2671      3010      3011
 -1      1334    8    0    1
 -2       621       620       730      2674      3012      3013
 -1      1335    8    0    1
 -2       620       729       730      3011      3014      3012
 -1      1336    8    0    1
 -2       622       621       731      2677      3015      3016
 -1      1337    8    0    1
 -2       621       730       731      3013      3017      3015
 -1      1338    8    0    1
 -2       623       622       732      2680      3018      3019
 -1      1339    8    0    1
 -2       622       731       732      3016      3020      3018
 -1      1340    8    0    1
 -2       624       623       733      2683      3021      3022
 -1      1341    8    0    1
 -2       623       732       733      3019      3023      3021
 -1      1342    8    0    1
 -2       625       624       734      2686      3024      3025
 -1      1343    8    0    1
 -2       624       733       734      3022      3026      3024
 -1      1344    8    0    1
 -2       626       625       735      2689      3027      3028
 -1      1345    8    0    1
 -2       625       734       735      3025      3029      3027
 -1      1346    8    0    1
 -2       627       626       736      2692      3030      3031
 -1      1347    8    0    1
 -2       626       735       736      3028      3032      3030
 -1      1348    8    0    1
 -2       628       627       737      2695      3033      3034
 -1      1349    8    0    1
 -2       627       736       737      3031      3035      3033
 -1      1350    8    0    1
 -2       629       628       738      2698      3036      3037
 -1      1351    8    0    1
 -2       628       737       738      3034      3038      3036
 -1      1352    8    0    1
 -2       630       629       739      2701      3039      3040
 -1      1353    8    0    1
 -2       629       738       739      3037      3041      3039
 -1      1354    8    0    1
 -2       631       630       740      2704      3042      3043
 -1      1355    8    0    1
 -2       630       739       740      3040      3044      3042
 -1      1356    8    0    1
 -2       632       631       741      2707      3045      3046
 -1      1357    8    0    1
 -2       631       740       741      3043      3047      3045
 -1      1358    8    0    1
 -2       633       632       742      2710      3048      3049
 -1      1359    8    0    1
 -2       632       741       742      3046      3050      3048
 -1      1360    8    0    1
 -2       634       633       743      2713      3051      3052
 -1      1361    8    0    1
 -2       633       742       743      3049      3053      3051
 -1      1362    8    0    1
 -2       635       634       744      2716      3054      3055
 -1      1363    8    0    1
 -2       634       743       744      3052      3056      3054
 -1      1364    8    0    1
 -2       636       635       745      2719      3057      3058
 -1      1365    8    0    1
 -2       635       744       745      3055      3059      3057
 -1      1366    8    0    1
 -2       637       636       746      2722      3060      3061
 -1      1367    8    0    1
 -2       636       745       746      3058      3062      3060
 -1      1368    8    0    1
 -2       638       637       747      2725      3063      3064
 -1      1369    8    0    1
 -2       637       746       747      3061      3065      3063
 -1      1370    8    0    1
 -2       639       638       748      2728      3066      3067
 -1      1371    8    0    1
 -2       638       747       748      3064      3068      3066
 -1      1372    8    0    1
 -2       640       639       749      2731      3069      3070
 -1      1373    8    0    1
 -2       639       748       749      3067      3071      3069
 -1      1374    8    0    1
 -2       641       640       750      2734      3072      3073
 -1      1375    8    0    1
 -2       640       749       750      3070      3074      3072
 -1      1376    8    0    1
 -2       642       641       751      2737      3075      3076
 -1      1377    8    0    1
 -2       641       750       751      3073      3077      3075
 -1      1378    8    0    1
 -2       643       642       752      2740      3078      3079
 -1      1379    8    0    1
 -2       642       751       752      3076      3080      3078
 -1      1380    8    0    1
 -2       644       643       753      2743      3081      3082
 -1      1381    8    0    1
 -2       643       752       753      3079      3083      3081
 -1      1382    8    0    1
 -2       645       644       754      2746      3084      3085
 -1      1383    8    0    1
 -2       644       753       754      3082      3086      3084
 -1      1384    8    0    1
 -2       646       645       755      2749      3087      3088
 -1      1385    8    0    1
 -2       645       754       755      3085      3089      3087
 -1      1386    8    0    1
 -2       647       646       756      2752      3090      3091
 -1      1387    8    0    1
 -2       646       755       756      3088      3092      3090
 -1      1388    8    0    1
 -2       648       647       757      2755      3093      3094
 -1      1389    8    0    1
 -2       647       756       757      3091      3095      3093
 -1      1390    8    0    1
 -2       649       648       758      2758      3096      3097
 -1      1391    8    0    1
 -2       648       757       758      3094      3098      3096
 -1      1392    8    0    1
 -2       650       649       759      2761      3099      3100
 -1      1393    8    0    1
 -2       649       758       759      3097      3101      3099
 -1      1394    8    0    1
 -2       651       650       760      2764      3102      3103
 -1      1395    8    0    1
 -2       699       651       760      2972      3103      3104
 -1      1396    8    0    1
 -2       650       759       760      3100      3105      3102
 -1      1397    8    0    1
 -2       696       697       761      2903      3106      3107
 -1      1398    8    0    1
 -2       652       653       762      2770      3108      3109
 -1      1399    8    0    1
 -2       654       652       763      2773      3110      3111
 -1      1400    8    0    1
 -2       652       762       763      3109      3112      3110
 -1      1401    8    0    1
 -2       656       657       764      2781      3113      3114
 -1      1402    8    0    1
 -2       655       656       765      2778      3115      3116
 -1      1403    8    0    1
 -2       656       764       765      3114      3117      3115
 -1      1404    8    0    1
 -2       658       659       766      2787      3118      3119
 -1      1405    8    0    1
 -2       659       660       767      2790      3120      3121
 -1      1406    8    0    1
 -2       659       767       766      3121      3122      3118
 -1      1407    8    0    1
 -2       660       661       768      2793      3123      3124
 -1      1408    8    0    1
 -2       660       768       767      3124      3125      3120
 -1      1409    8    0    1
 -2       661       662       769      2796      3126      3127
 -1      1410    8    0    1
 -2       661       769       768      3127      3128      3123
 -1      1411    8    0    1
 -2       662       663       770      2799      3129      3130
 -1      1412    8    0    1
 -2       662       770       769      3130      3131      3126
 -1      1413    8    0    1
 -2       663       664       771      2802      3132      3133
 -1      1414    8    0    1
 -2       663       771       770      3133      3134      3129
 -1      1415    8    0    1
 -2       664       665       772      2805      3135      3136
 -1      1416    8    0    1
 -2       664       772       771      3136      3137      3132
 -1      1417    8    0    1
 -2       665       666       773      2808      3138      3139
 -1      1418    8    0    1
 -2       665       773       772      3139      3140      3135
 -1      1419    8    0    1
 -2       666       667       774      2811      3141      3142
 -1      1420    8    0    1
 -2       666       774       773      3142      3143      3138
 -1      1421    8    0    1
 -2       667       668       775      2814      3144      3145
 -1      1422    8    0    1
 -2       667       775       774      3145      3146      3141
 -1      1423    8    0    1
 -2       668       669       776      2817      3147      3148
 -1      1424    8    0    1
 -2       668       776       775      3148      3149      3144
 -1      1425    8    0    1
 -2       669       670       777      2820      3150      3151
 -1      1426    8    0    1
 -2       669       777       776      3151      3152      3147
 -1      1427    8    0    1
 -2       670       671       778      2823      3153      3154
 -1      1428    8    0    1
 -2       670       778       777      3154      3155      3150
 -1      1429    8    0    1
 -2       671       672       779      2826      3156      3157
 -1      1430    8    0    1
 -2       671       779       778      3157      3158      3153
 -1      1431    8    0    1
 -2       672       673       780      2829      3159      3160
 -1      1432    8    0    1
 -2       672       780       779      3160      3161      3156
 -1      1433    8    0    1
 -2       673       674       781      2832      3162      3163
 -1      1434    8    0    1
 -2       673       781       780      3163      3164      3159
 -1      1435    8    0    1
 -2       674       675       782      2835      3165      3166
 -1      1436    8    0    1
 -2       674       782       781      3166      3167      3162
 -1      1437    8    0    1
 -2       675       676       783      2838      3168      3169
 -1      1438    8    0    1
 -2       675       783       782      3169      3170      3165
 -1      1439    8    0    1
 -2       676       677       784      2841      3171      3172
 -1      1440    8    0    1
 -2       676       784       783      3172      3173      3168
 -1      1441    8    0    1
 -2       677       678       785      2844      3174      3175
 -1      1442    8    0    1
 -2       677       785       784      3175      3176      3171
 -1      1443    8    0    1
 -2       678       679       786      2847      3177      3178
 -1      1444    8    0    1
 -2       678       786       785      3178      3179      3174
 -1      1445    8    0    1
 -2       679       680       787      2850      3180      3181
 -1      1446    8    0    1
 -2       679       787       786      3181      3182      3177
 -1      1447    8    0    1
 -2       680       681       788      2853      3183      3184
 -1      1448    8    0    1
 -2       680       788       787      3184      3185      3180
 -1      1449    8    0    1
 -2       681       682       789      2856      3186      3187
 -1      1450    8    0    1
 -2       681       789       788      3187      3188      3183
 -1      1451    8    0    1
 -2       682       683       790      2859      3189      3190
 -1      1452    8    0    1
 -2       682       790       789      3190      3191      3186
 -1      1453    8    0    1
 -2       683       684       791      2862      3192      3193
 -1      1454    8    0    1
 -2       683       791       790      3193      3194      3189
 -1      1455    8    0    1
 -2       684       685       792      2865      3195      3196
 -1      1456    8    0    1
 -2       684       792       791      3196      3197      3192
 -1      1457    8    0    1
 -2       685       686       793      2868      3198      3199
 -1      1458    8    0    1
 -2       685       793       792      3199      3200      3195
 -1      1459    8    0    1
 -2       686       687       794      2871      3201      3202
 -1      1460    8    0    1
 -2       686       794       793      3202      3203      3198
 -1      1461    8    0    1
 -2       687       688       795      2874      3204      3205
 -1      1462    8    0    1
 -2       687       795       794      3205      3206      3201
 -1      1463    8    0    1
 -2       688       689       796      2877      3207      3208
 -1      1464    8    0    1
 -2       688       796       795      3208      3209      3204
 -1      1465    8    0    1
 -2       689       690       797      2880      3210      3211
 -1      1466    8    0    1
 -2       689       797       796      3211      3212      3207
 -1      1467    8    0    1
 -2       703       695       798      2919      3213      3214
 -1      1468    8    0    1
 -2       703       798       727      3214      3215      3006
 -1      1469    8    0    1
 -2       619       615       799      2668      3216      3217
 -1      1470    8    0    1
 -2       701       610       800      2914      3218      3219
 -1      1471    8    0    1
 -2       697       698       801      2906      3220      3221
 -1      1472    8    0    1
 -2       697       801       761      3221      3222      3106
 -1      1473    8    0    1
 -2       695       696       802      2900      3223      3224
 -1      1474    8    0    1
 -2       798       695       802      3213      3224      3225
 -1      1475    8    0    1
 -2       696       761       802      3107      3226      3223
 -1      1476    8    0    1
 -2       698       699       803      2909      3227      3228
 -1      1477    8    0    1
 -2       801       698       803      3220      3228      3229
 -1      1478    8    0    1
 -2       699       760       803      3104      3230      3227
 -1      1479    8    0    1
 -2       600       725       616      2999      3231      2989
 -1      1480    8    0    1
 -2       706       713       804      2948      3232      3233
 -1      1481    8    0    1
 -2       617       618       805      2971      3234      3235
 -1      1482    8    0    1
 -2       617       805       691      3235      3236      2884
 -1      1483    8    0    1
 -2       705       701       723      2925      3237      3238
 -1      1484    8    0    1
 -2       700       718       615      2973      3239      3000
 -1      1485    8    0    1
 -2       702       716       806      2980      3240      3241
 -1      1486    8    0    1
 -2       716       711       807      2987      3242      3243
 -1      1487    8    0    1
 -2       711       710       808      2941      3244      3245
 -1      1488    8    0    1
 -2       704       707       809      2988      3246      3247
 -1      1489    8    0    1
 -2       604       719       613      2964      3248      3004
 -1      1490    8    0    1
 -2       712       706       810      2945      3249      3250
 -1      1491    8    0    1
 -2       706       804       810      3233      3251      3249
 -1      1492    8    0    1
 -2       719       654       811      2969      3252      3253
 -1      1493    8    0    1
 -2       657       658       812      2784      3254      3255
 -1      1494    8    0    1
 -2       764       657       812      3113      3255      3256
 -1      1495    8    0    1
 -2       658       766       812      3119      3257      3254
 -1      1496    8    0    1
 -2       725       709       722      3001      3258      3259
 -1      1497    8    0    1
 -2       612       613       719      2978      3248      3260
 -1      1498    8    0    1
 -2       717       601       813      2979      3261      3262
 -1      1499    8    0    1
 -2       601       702       814      2959      3263      3264
 -1      1500    8    0    1
 -2       601       814       813      3264      3265      3261
 -1      1501    8    0    1
 -2       610       609       815      2644      3266      3267
 -1      1502    8    0    1
 -2       610       815       800      3267      3268      3218
 -1      1503    8    0    1
 -2       709       705       721      2936      3269      3270
 -1      1504    8    0    1
 -2       718       603       816      2975      3271      3272
 -1      1505    8    0    1
 -2       707       717       817      2990      3273      3274
 -1      1506    8    0    1
 -2       809       707       817      3246      3274      3275
 -1      1507    8    0    1
 -2       712       810       728      3250      3276      3008
 -1      1508    8    0    1
 -2       619       799       729      3217      3277      3010
 -1      1509    8    0    1
 -2       720       704       818      2965      3278      3279
 -1      1510    8    0    1
 -2       704       809       818      3247      3280      3278
 -1      1511    8    0    1
 -2       715       728       819      3009      3281      3282
 -1      1512    8    0    1
 -2       715       819       724      3282      3283      2996
 -1      1513    8    0    1
 -2       653       694       820      2894      3284      3285
 -1      1514    8    0    1
 -2       653       820       762      3285      3286      3108
 -1      1515    8    0    1
 -2       606       616       725      3005      3231      3287
 -1      1516    8    0    1
 -2       603       720       821      2967      3288      3289
 -1      1517    8    0    1
 -2       603       821       816      3289      3290      3271
 -1      1518    8    0    1
 -2       694       655       822      2895      3291      3292
 -1      1519    8    0    1
 -2       820       694       822      3284      3292      3293
 -1      1520    8    0    1
 -2       655       765       822      3116      3294      3291
 -1      1521    8    0    1
 -2       611       726       823      3003      3295      3296
 -1      1522    8    0    1
 -2       611       823       708      3296      3297      2933
 -1      1523    8    0    1
 -2       654       763       811      3111      3298      3252
 -1      1524    8    0    1
 -2       690       691       824      2883      3299      3300
 -1      1525    8    0    1
 -2       797       690       824      3210      3300      3301
 -1      1526    8    0    1
 -2       691       805       824      3236      3302      3299
 -1      1527    8    0    1
 -2       701       800       723      3219      3303      3237
 -1      1528    8    0    1
 -2       693       692       825      2891      3304      3305
 -1      1529    8    0    1
 -2       692       727       825      3007      3306      3304
 -1      1530    8    0    1
 -2       808       710       826      3244      3307      3308
 -1      1531    8    0    1
 -2       710       724       826      2995      3309      3307
 -1      1532    8    0    1
 -2       807       711       808      3242      3245      3310
 -1      1533    8    0    1
 -2       805       618       693      3234      2890      3311
 -1      1534    8    0    1
 -2       615       718       799      3239      3312      3216
 -1      1535    8    0    1
 -2       806       716       807      3240      3243      3313
 -1      1536    8    0    1
 -2       609       708       827      2932      3314      3315
 -1      1537    8    0    1
 -2       815       609       827      3266      3315      3316
 -1      1538    8    0    1
 -2       708       823       827      3297      3317      3314
 -1      1539    8    0    1
 -2       717       813       817      3262      3318      3273
 -1      1540    8    0    1
 -2       814       702       806      3263      3241      3319
 -1      1541    8    0    1
 -2       612       719       726      3260      3320      3002
 -1      1542    8    0    1
 -2       731       730       828      3017      3321      3322
 -1      1543    8    0    1
 -2       732       731       829      3020      3323      3324
 -1      1544    8    0    1
 -2       731       828       829      3322      3325      3323
 -1      1545    8    0    1
 -2       733       732       830      3023      3326      3327
 -1      1546    8    0    1
 -2       732       829       830      3324      3328      3326
 -1      1547    8    0    1
 -2       734       733       831      3026      3329      3330
 -1      1548    8    0    1
 -2       733       830       831      3327      3331      3329
 -1      1549    8    0    1
 -2       735       734       832      3029      3332      3333
 -1      1550    8    0    1
 -2       734       831       832      3330      3334      3332
 -1      1551    8    0    1
 -2       736       735       833      3032      3335      3336
 -1      1552    8    0    1
 -2       735       832       833      3333      3337      3335
 -1      1553    8    0    1
 -2       737       736       834      3035      3338      3339
 -1      1554    8    0    1
 -2       736       833       834      3336      3340      3338
 -1      1555    8    0    1
 -2       738       737       835      3038      3341      3342
 -1      1556    8    0    1
 -2       737       834       835      3339      3343      3341
 -1      1557    8    0    1
 -2       739       738       836      3041      3344      3345
 -1      1558    8    0    1
 -2       738       835       836      3342      3346      3344
 -1      1559    8    0    1
 -2       740       739       837      3044      3347      3348
 -1      1560    8    0    1
 -2       739       836       837      3345      3349      3347
 -1      1561    8    0    1
 -2       741       740       838      3047      3350      3351
 -1      1562    8    0    1
 -2       740       837       838      3348      3352      3350
 -1      1563    8    0    1
 -2       742       741       839      3050      3353      3354
 -1      1564    8    0    1
 -2       741       838       839      3351      3355      3353
 -1      1565    8    0    1
 -2       743       742       840      3053      3356      3357
 -1      1566    8    0    1
 -2       742       839       840      3354      3358      3356
 -1      1567    8    0    1
 -2       744       743       841      3056      3359      3360
 -1      1568    8    0    1
 -2       743       840       841      3357      3361      3359
 -1      1569    8    0    1
 -2       745       744       842      3059      3362      3363
 -1      1570    8    0    1
 -2       744       841       842      3360      3364      3362
 -1      1571    8    0    1
 -2       746       745       843      3062      3365      3366
 -1      1572    8    0    1
 -2       745       842       843      3363      3367      3365
 -1      1573    8    0    1
 -2       747       746       844      3065      3368      3369
 -1      1574    8    0    1
 -2       746       843       844      3366      3370      3368
 -1      1575    8    0    1
 -2       748       747       845      3068      3371      3372
 -1      1576    8    0    1
 -2       747       844       845      3369      3373      3371
 -1      1577    8    0    1
 -2       749       748       846      3071      3374      3375
 -1      1578    8    0    1
 -2       748       845       846      3372      3376      3374
 -1      1579    8    0    1
 -2       750       749       847      3074      3377      3378
 -1      1580    8    0    1
 -2       749       846       847      3375      3379      3377
 -1      1581    8    0    1
 -2       751       750       848      3077      3380      3381
 -1      1582    8    0    1
 -2       750       847       848      3378      3382      3380
 -1      1583    8    0    1
 -2       752       751       849      3080      3383      3384
 -1      1584    8    0    1
 -2       751       848       849      3381      3385      3383
 -1      1585    8    0    1
 -2       753       752       850      3083      3386      3387
 -1      1586    8    0    1
 -2       752       849       850      3384      3388      3386
 -1      1587    8    0    1
 -2       754       753       851      3086      3389      3390
 -1      1588    8    0    1
 -2       753       850       851      3387      3391      3389
 -1      1589    8    0    1
 -2       755       754       852      3089      3392      3393
 -1      1590    8    0    1
 -2       754       851       852      3390      3394      3392
 -1      1591    8    0    1
 -2       756       755       853      3092      3395      3396
 -1      1592    8    0    1
 -2       755       852       853      3393      3397      3395
 -1      1593    8    0    1
 -2       757       756       854      3095      3398      3399
 -1      1594    8    0    1
 -2       756       853       854      3396      3400      3398
 -1      1595    8    0    1
 -2       758       757       855      3098      3401      3402
 -1      1596    8    0    1
 -2       757       854       855      3399      3403      3401
 -1      1597    8    0    1
 -2       759       758       856      3101      3404      3405
 -1      1598    8    0    1
 -2       758       855       856      3402      3406      3404
 -1      1599    8    0    1
 -2       760       759       857      3105      3407      3408
 -1      1600    8    0    1
 -2       803       760       857      3230      3408      3409
 -1      1601    8    0    1
 -2       759       856       857      3405      3410      3407
 -1      1602    8    0    1
 -2       606       725       714      3287      3411      2968
 -1      1603    8    0    1
 -2       725       722       714      3259      2986      3411
 -1      1604    8    0    1
 -2       722       709       721      3258      3270      3412
 -1      1605    8    0    1
 -2       817       813       858      3318      3413      3414
 -1      1606    8    0    1
 -2       767       768       859      3125      3415      3416
 -1      1607    8    0    1
 -2       766       767       860      3122      3417      3418
 -1      1608    8    0    1
 -2       767       859       860      3416      3419      3417
 -1      1609    8    0    1
 -2       769       770       861      3131      3420      3421
 -1      1610    8    0    1
 -2       770       771       862      3134      3422      3423
 -1      1611    8    0    1
 -2       770       862       861      3423      3424      3420
 -1      1612    8    0    1
 -2       771       772       863      3137      3425      3426
 -1      1613    8    0    1
 -2       771       863       862      3426      3427      3422
 -1      1614    8    0    1
 -2       772       773       864      3140      3428      3429
 -1      1615    8    0    1
 -2       772       864       863      3429      3430      3425
 -1      1616    8    0    1
 -2       773       774       865      3143      3431      3432
 -1      1617    8    0    1
 -2       773       865       864      3432      3433      3428
 -1      1618    8    0    1
 -2       774       775       866      3146      3434      3435
 -1      1619    8    0    1
 -2       774       866       865      3435      3436      3431
 -1      1620    8    0    1
 -2       775       776       867      3149      3437      3438
 -1      1621    8    0    1
 -2       775       867       866      3438      3439      3434
 -1      1622    8    0    1
 -2       776       777       868      3152      3440      3441
 -1      1623    8    0    1
 -2       776       868       867      3441      3442      3437
 -1      1624    8    0    1
 -2       777       778       869      3155      3443      3444
 -1      1625    8    0    1
 -2       777       869       868      3444      3445      3440
 -1      1626    8    0    1
 -2       778       779       870      3158      3446      3447
 -1      1627    8    0    1
 -2       778       870       869      3447      3448      3443
 -1      1628    8    0    1
 -2       779       780       871      3161      3449      3450
 -1      1629    8    0    1
 -2       779       871       870      3450      3451      3446
 -1      1630    8    0    1
 -2       780       781       872      3164      3452      3453
 -1      1631    8    0    1
 -2       780       872       871      3453      3454      3449
 -1      1632    8    0    1
 -2       781       782       873      3167      3455      3456
 -1      1633    8    0    1
 -2       781       873       872      3456      3457      3452
 -1      1634    8    0    1
 -2       782       783       874      3170      3458      3459
 -1      1635    8    0    1
 -2       782       874       873      3459      3460      3455
 -1      1636    8    0    1
 -2       783       784       875      3173      3461      3462
 -1      1637    8    0    1
 -2       783       875       874      3462      3463      3458
 -1      1638    8    0    1
 -2       784       785       876      3176      3464      3465
 -1      1639    8    0    1
 -2       784       876       875      3465      3466      3461
 -1      1640    8    0    1
 -2       785       786       877      3179      3467      3468
 -1      1641    8    0    1
 -2       785       877       876      3468      3469      3464
 -1      1642    8    0    1
 -2       786       787       878      3182      3470      3471
 -1      1643    8    0    1
 -2       786       878       877      3471      3472      3467
 -1      1644    8    0    1
 -2       787       788       879      3185      3473      3474
 -1      1645    8    0    1
 -2       787       879       878      3474      3475      3470
 -1      1646    8    0    1
 -2       788       789       880      3188      3476      3477
 -1      1647    8    0    1
 -2       788       880       879      3477      3478      3473
 -1      1648    8    0    1
 -2       789       790       881      3191      3479      3480
 -1      1649    8    0    1
 -2       789       881       880      3480      3481      3476
 -1      1650    8    0    1
 -2       790       791       882      3194      3482      3483
 -1      1651    8    0    1
 -2       790       882       881      3483      3484      3479
 -1      1652    8    0    1
 -2       791       792       883      3197      3485      3486
 -1      1653    8    0    1
 -2       791       883       882      3486      3487      3482
 -1      1654    8    0    1
 -2       792       793       884      3200      3488      3489
 -1      1655    8    0    1
 -2       792       884       883      3489      3490      3485
 -1      1656    8    0    1
 -2       793       794       885      3203      3491      3492
 -1      1657    8    0    1
 -2       793       885       884      3492      3493      3488
 -1      1658    8    0    1
 -2       794       795       886      3206      3494      3495
 -1      1659    8    0    1
 -2       794       886       885      3495      3496      3491
 -1      1660    8    0    1
 -2       795       796       887      3209      3497      3498
 -1      1661    8    0    1
 -2       795       887       886      3498      3499      3494
 -1      1662    8    0    1
 -2       796       797       888      3212      3500      3501
 -1      1663    8    0    1
 -2       796       888       887      3501      3502      3497
 -1      1664    8    0    1
 -2       727       798       889      3215      3503      3504
 -1      1665    8    0    1
 -2       705       723       721      3238      3505      3269
 -1      1666    8    0    1
 -2       806       807       890      3313      3506      3507
 -1      1667    8    0    1
 -2       761       801       891      3222      3508      3509
 -1      1668    8    0    1
 -2       804       713       723      3232      2993      3510
 -1      1669    8    0    1
 -2       723       800       804      3303      3511      3510
 -1      1670    8    0    1
 -2       721       608       722      2983      2985      3412
 -1      1671    8    0    1
 -2       768       769       892      3128      3512      3513
 -1      1672    8    0    1
 -2       859       768       892      3415      3513      3514
 -1      1673    8    0    1
 -2       769       861       892      3421      3515      3512
 -1      1674    8    0    1
 -2       765       764       893      3117      3516      3517
 -1      1675    8    0    1
 -2       763       762       894      3112      3518      3519
 -1      1676    8    0    1
 -2       805       693       825      3311      3305      3520
 -1      1677    8    0    1
 -2       723       607       721      2991      2982      3505
 -1      1678    8    0    1
 -2       730       729       895      3014      3521      3522
 -1      1679    8    0    1
 -2       730       895       828      3522      3523      3321
 -1      1680    8    0    1
 -2       807       808       896      3310      3524      3525
 -1      1681    8    0    1
 -2       799       718       816      3312      3272      3526
 -1      1682    8    0    1
 -2       804       800       815      3511      3268      3527
 -1      1683    8    0    1
 -2       813       814       897      3265      3528      3529
 -1      1684    8    0    1
 -2       814       806       898      3319      3530      3531
 -1      1685    8    0    1
 -2       804       815       810      3527      3532      3251
 -1      1686    8    0    1
 -2       809       817       899      3275      3533      3534
 -1      1687    8    0    1
 -2       799       816       900      3526      3535      3536
 -1      1688    8    0    1
 -2       816       821       900      3290      3537      3535
 -1      1689    8    0    1
 -2       810       815       901      3532      3538      3539
 -1      1690    8    0    1
 -2       728       810       901      3276      3539      3540
 -1      1691    8    0    1
 -2       815       827       901      3316      3541      3538
 -1      1692    8    0    1
 -2       729       799       900      3277      3536      3542
 -1      1693    8    0    1
 -2       818       809       902      3280      3543      3544
 -1      1694    8    0    1
 -2       809       899       902      3534      3545      3543
 -1      1695    8    0    1
 -2       819       728       903      3281      3546      3547
 -1      1696    8    0    1
 -2       728       901       903      3540      3548      3546
 -1      1697    8    0    1
 -2       801       803       857      3229      3409      3549
 -1      1698    8    0    1
 -2       821       720       904      3288      3550      3551
 -1      1699    8    0    1
 -2       720       818       904      3279      3552      3550
 -1      1700    8    0    1
 -2       822       765       905      3294      3553      3554
 -1      1701    8    0    1
 -2       765       893       905      3517      3555      3553
 -1      1702    8    0    1
 -2       801       857       891      3549      3556      3508
 -1      1703    8    0    1
 -2       824       805       906      3302      3557      3558
 -1      1704    8    0    1
 -2       805       825       906      3520      3559      3557
 -1      1705    8    0    1
 -2       858       813       897      3413      3529      3560
 -1      1706    8    0    1
 -2       766       860       907      3418      3561      3562
 -1      1707    8    0    1
 -2       766       907       812      3562      3563      3257
 -1      1708    8    0    1
 -2       888       797       824      3500      3301      3564
 -1      1709    8    0    1
 -2       889       798       908      3503      3565      3566
 -1      1710    8    0    1
 -2       798       802       908      3225      3567      3565
 -1      1711    8    0    1
 -2       890       807       896      3506      3525      3568
 -1      1712    8    0    1
 -2       761       891       909      3509      3569      3570
 -1      1713    8    0    1
 -2       761       909       802      3570      3571      3226
 -1      1714    8    0    1
 -2       825       727       910      3306      3572      3573
 -1      1715    8    0    1
 -2       906       825       910      3559      3573      3574
 -1      1716    8    0    1
 -2       727       889       910      3504      3575      3572
 -1      1717    8    0    1
 -2       826       724       819      3309      3283      3576
 -1      1718    8    0    1
 -2       808       826       911      3308      3577      3578
 -1      1719    8    0    1
 -2       808       911       896      3578      3579      3524
 -1      1720    8    0    1
 -2       817       858       899      3414      3580      3533
 -1      1721    8    0    1
 -2       894       762       912      3518      3581      3582
 -1      1722    8    0    1
 -2       762       820       912      3286      3583      3581
 -1      1723    8    0    1
 -2       811       763       913      3298      3584      3585
 -1      1724    8    0    1
 -2       763       894       913      3519      3586      3584
 -1      1725    8    0    1
 -2       729       900       895      3542      3587      3521
 -1      1726    8    0    1
 -2       719       811       726      3253      3588      3320
 -1      1727    8    0    1
 -2       764       812       914      3256      3589      3590
 -1      1728    8    0    1
 -2       893       764       914      3516      3590      3591
 -1      1729    8    0    1
 -2       812       907       914      3563      3592      3589
 -1      1730    8    0    1
 -2       726       811       915      3588      3593      3594
 -1      1731    8    0    1
 -2       823       726       915      3295      3594      3595
 -1      1732    8    0    1
 -2       811       913       915      3585      3596      3593
 -1      1733    8    0    1
 -2       898       806       890      3530      3507      3597
 -1      1734    8    0    1
 -2       897       814       898      3528      3531      3598
 -1      1735    8    0    1
 -2       830       829       916      3328      3599      3600
 -1      1736    8    0    1
 -2       831       830       917      3331      3601      3602
 -1      1737    8    0    1
 -2       830       916       917      3600      3603      3601
 -1      1738    8    0    1
 -2       832       831       918      3334      3604      3605
 -1      1739    8    0    1
 -2       831       917       918      3602      3606      3604
 -1      1740    8    0    1
 -2       833       832       919      3337      3607      3608
 -1      1741    8    0    1
 -2       832       918       919      3605      3609      3607
 -1      1742    8    0    1
 -2       834       833       920      3340      3610      3611
 -1      1743    8    0    1
 -2       833       919       920      3608      3612      3610
 -1      1744    8    0    1
 -2       835       834       921      3343      3613      3614
 -1      1745    8    0    1
 -2       834       920       921      3611      3615      3613
 -1      1746    8    0    1
 -2       836       835       922      3346      3616      3617
 -1      1747    8    0    1
 -2       835       921       922      3614      3618      3616
 -1      1748    8    0    1
 -2       837       836       923      3349      3619      3620
 -1      1749    8    0    1
 -2       836       922       923      3617      3621      3619
 -1      1750    8    0    1
 -2       838       837       924      3352      3622      3623
 -1      1751    8    0    1
 -2       837       923       924      3620      3624      3622
 -1      1752    8    0    1
 -2       839       838       925      3355      3625      3626
 -1      1753    8    0    1
 -2       838       924       925      3623      3627      3625
 -1      1754    8    0    1
 -2       840       839       926      3358      3628      3629
 -1      1755    8    0    1
 -2       839       925       926      3626      3630      3628
 -1      1756    8    0    1
 -2       841       840       927      3361      3631      3632
 -1      1757    8    0    1
 -2       840       926       927      3629      3633      3631
 -1      1758    8    0    1
 -2       842       841       928      3364      3634      3635
 -1      1759    8    0    1
 -2       841       927       928      3632      3636      3634
 -1      1760    8    0    1
 -2       843       842       929      3367      3637      3638
 -1      1761    8    0    1
 -2       842       928       929      3635      3639      3637
 -1      1762    8    0    1
 -2       844       843       930      3370      3640      3641
 -1      1763    8    0    1
 -2       843       929       930      3638      3642      3640
 -1      1764    8    0    1
 -2       845       844       931      3373      3643      3644
 -1      1765    8    0    1
 -2       844       930       931      3641      3645      3643
 -1      1766    8    0    1
 -2       846       845       932      3376      3646      3647
 -1      1767    8    0    1
 -2       845       931       932      3644      3648      3646
 -1      1768    8    0    1
 -2       847       846       933      3379      3649      3650
 -1      1769    8    0    1
 -2       846       932       933      3647      3651      3649
 -1      1770    8    0    1
 -2       848       847       934      3382      3652      3653
 -1      1771    8    0    1
 -2       847       933       934      3650      3654      3652
 -1      1772    8    0    1
 -2       849       848       935      3385      3655      3656
 -1      1773    8    0    1
 -2       848       934       935      3653      3657      3655
 -1      1774    8    0    1
 -2       850       849       936      3388      3658      3659
 -1      1775    8    0    1
 -2       849       935       936      3656      3660      3658
 -1      1776    8    0    1
 -2       851       850       937      3391      3661      3662
 -1      1777    8    0    1
 -2       850       936       937      3659      3663      3661
 -1      1778    8    0    1
 -2       852       851       938      3394      3664      3665
 -1      1779    8    0    1
 -2       851       937       938      3662      3666      3664
 -1      1780    8    0    1
 -2       853       852       939      3397      3667      3668
 -1      1781    8    0    1
 -2       852       938       939      3665      3669      3667
 -1      1782    8    0    1
 -2       854       853       940      3400      3670      3671
 -1      1783    8    0    1
 -2       853       939       940      3668      3672      3670
 -1      1784    8    0    1
 -2       855       854       941      3403      3673      3674
 -1      1785    8    0    1
 -2       854       940       941      3671      3675      3673
 -1      1786    8    0    1
 -2       856       855       942      3406      3676      3677
 -1      1787    8    0    1
 -2       855       941       942      3674      3678      3676
 -1      1788    8    0    1
 -2       857       856       891      3410      3679      3556
 -1      1789    8    0    1
 -2       860       859       943      3419      3680      3681
 -1      1790    8    0    1
 -2       862       863       944      3427      3682      3683
 -1      1791    8    0    1
 -2       861       862       945      3424      3684      3685
 -1      1792    8    0    1
 -2       862       944       945      3683      3686      3684
 -1      1793    8    0    1
 -2       864       865       946      3433      3687      3688
 -1      1794    8    0    1
 -2       865       866       947      3436      3689      3690
 -1      1795    8    0    1
 -2       865       947       946      3690      3691      3687
 -1      1796    8    0    1
 -2       866       867       948      3439      3692      3693
 -1      1797    8    0    1
 -2       866       948       947      3693      3694      3689
 -1      1798    8    0    1
 -2       867       868       949      3442      3695      3696
 -1      1799    8    0    1
 -2       867       949       948      3696      3697      3692
 -1      1800    8    0    1
 -2       868       869       950      3445      3698      3699
 -1      1801    8    0    1
 -2       868       950       949      3699      3700      3695
 -1      1802    8    0    1
 -2       869       870       951      3448      3701      3702
 -1      1803    8    0    1
 -2       869       951       950      3702      3703      3698
 -1      1804    8    0    1
 -2       870       871       952      3451      3704      3705
 -1      1805    8    0    1
 -2       870       952       951      3705      3706      3701
 -1      1806    8    0    1
 -2       871       872       953      3454      3707      3708
 -1      1807    8    0    1
 -2       871       953       952      3708      3709      3704
 -1      1808    8    0    1
 -2       872       873       954      3457      3710      3711
 -1      1809    8    0    1
 -2       872       954       953      3711      3712      3707
 -1      1810    8    0    1
 -2       873       874       955      3460      3713      3714
 -1      1811    8    0    1
 -2       873       955       954      3714      3715      3710
 -1      1812    8    0    1
 -2       874       875       956      3463      3716      3717
 -1      1813    8    0    1
 -2       874       956       955      3717      3718      3713
 -1      1814    8    0    1
 -2       875       876       957      3466      3719      3720
 -1      1815    8    0    1
 -2       875       957       956      3720      3721      3716
 -1      1816    8    0    1
 -2       876       877       958      3469      3722      3723
 -1      1817    8    0    1
 -2       876       958       957      3723      3724      3719
 -1      1818    8    0    1
 -2       877       878       959      3472      3725      3726
 -1      1819    8    0    1
 -2       877       959       958      3726      3727      3722
 -1      1820    8    0    1
 -2       878       879       960      3475      3728      3729
 -1      1821    8    0    1
 -2       878       960       959      3729      3730      3725
 -1      1822    8    0    1
 -2       879       880       961      3478      3731      3732
 -1      1823    8    0    1
 -2       879       961       960      3732      3733      3728
 -1      1824    8    0    1
 -2       880       881       962      3481      3734      3735
 -1      1825    8    0    1
 -2       880       962       961      3735      3736      3731
 -1      1826    8    0    1
 -2       881       882       963      3484      3737      3738
 -1      1827    8    0    1
 -2       881       963       962      3738      3739      3734
 -1      1828    8    0    1
 -2       882       883       964      3487      3740      3741
 -1      1829    8    0    1
 -2       882       964       963      3741      3742      3737
 -1      1830    8    0    1
 -2       883       884       965      3490      3743      3744
 -1      1831    8    0    1
 -2       883       965       964      3744      3745      3740
 -1      1832    8    0    1
 -2       884       885       966      3493      3746      3747
 -1      1833    8    0    1
 -2       884       966       965      3747      3748      3743
 -1      1834    8    0    1
 -2       885       886       967      3496      3749      3750
 -1      1835    8    0    1
 -2       885       967       966      3750      3751      3746
 -1      1836    8    0    1
 -2       886       887       968      3499      3752      3753
 -1      1837    8    0    1
 -2       886       968       967      3753      3754      3749
 -1      1838    8    0    1
 -2       887       888       969      3502      3755      3756
 -1      1839    8    0    1
 -2       887       969       968      3756      3757      3752
 -1      1840    8    0    1
 -2       826       819       970      3576      3758      3759
 -1      1841    8    0    1
 -2       828       895       971      3523      3760      3761
 -1      1842    8    0    1
 -2       863       864       972      3430      3762      3763
 -1      1843    8    0    1
 -2       863       972       944      3763      3764      3682
 -1      1844    8    0    1
 -2       890       896       893      3568      3765      3766
 -1      1845    8    0    1
 -2       820       822       973      3293      3767      3768
 -1      1846    8    0    1
 -2       912       820       973      3583      3768      3769
 -1      1847    8    0    1
 -2       822       905       973      3554      3770      3767
 -1      1848    8    0    1
 -2       913       894       903      3586      3771      3772
 -1      1849    8    0    1
 -2       827       823       974      3317      3773      3774
 -1      1850    8    0    1
 -2       901       827       974      3541      3774      3775
 -1      1851    8    0    1
 -2       823       915       974      3595      3776      3773
 -1      1852    8    0    1
 -2       858       897       975      3560      3777      3778
 -1      1853    8    0    1
 -2       900       821       976      3537      3779      3780
 -1      1854    8    0    1
 -2       821       904       976      3551      3781      3779
 -1      1855    8    0    1
 -2       898       890       977      3597      3782      3783
 -1      1856    8    0    1
 -2       899       858       978      3580      3784      3785
 -1      1857    8    0    1
 -2       829       828       979      3325      3786      3787
 -1      1858    8    0    1
 -2       916       829       979      3599      3787      3788
 -1      1859    8    0    1
 -2       828       971       979      3761      3789      3786
 -1      1860    8    0    1
 -2       888       824       906      3564      3558      3790
 -1      1861    8    0    1
 -2       897       898       980      3598      3791      3792
 -1      1862    8    0    1
 -2       897       980       975      3792      3793      3777
 -1      1863    8    0    1
 -2       891       856       942      3679      3677      3794
 -1      1864    8    0    1
 -2       890       893       977      3766      3795      3782
 -1      1865    8    0    1
 -2       893       896       905      3765      3796      3555
 -1      1866    8    0    1
 -2       902       899       981      3545      3797      3798
 -1      1867    8    0    1
 -2       899       978       981      3785      3799      3797
 -1      1868    8    0    1
 -2       903       901       974      3548      3775      3800
 -1      1869    8    0    1
 -2       904       818       982      3552      3801      3802
 -1      1870    8    0    1
 -2       818       902       982      3544      3803      3801
 -1      1871    8    0    1
 -2       898       977       980      3783      3804      3791
 -1      1872    8    0    1
 -2       943       859       983      3680      3805      3806
 -1      1873    8    0    1
 -2       859       892       983      3514      3807      3805
 -1      1874    8    0    1
 -2       864       946       972      3688      3808      3762
 -1      1875    8    0    1
 -2       907       860       984      3561      3809      3810
 -1      1876    8    0    1
 -2       860       943       984      3681      3811      3809
 -1      1877    8    0    1
 -2       861       945       985      3685      3812      3813
 -1      1878    8    0    1
 -2       861       985       892      3813      3814      3515
 -1      1879    8    0    1
 -2       826       970       911      3759      3815      3577
 -1      1880    8    0    1
 -2       970       819       903      3758      3547      3816
 -1      1881    8    0    1
 -2       888       906       986      3790      3817      3818
 -1      1882    8    0    1
 -2       969       888       986      3755      3818      3819
 -1      1883    8    0    1
 -2       906       910       986      3574      3820      3817
 -1      1884    8    0    1
 -2       908       802       909      3567      3571      3821
 -1      1885    8    0    1
 -2       909       891       987      3569      3822      3823
 -1      1886    8    0    1
 -2       891       942       987      3794      3824      3822
 -1      1887    8    0    1
 -2       910       889       988      3575      3825      3826
 -1      1888    8    0    1
 -2       910       988       986      3826      3827      3820
 -1      1889    8    0    1
 -2       978       858       975      3784      3778      3828
 -1      1890    8    0    1
 -2       903       894       970      3771      3829      3816
 -1      1891    8    0    1
 -2       895       900       976      3587      3780      3830
 -1      1892    8    0    1
 -2       905       896       911      3796      3579      3831
 -1      1893    8    0    1
 -2       889       908       989      3566      3832      3833
 -1      1894    8    0    1
 -2       889       989       988      3833      3834      3825
 -1      1895    8    0    1
 -2       971       895       982      3760      3835      3836
 -1      1896    8    0    1
 -2       970       894       912      3829      3582      3837
 -1      1897    8    0    1
 -2       977       893       914      3795      3591      3838
 -1      1898    8    0    1
 -2       982       902       990      3803      3839      3840
 -1      1899    8    0    1
 -2       902       981       990      3798      3841      3839
 -1      1900    8    0    1
 -2       945       944       991      3686      3842      3843
 -1      1901    8    0    1
 -2       918       917       992      3606      3844      3845
 -1      1902    8    0    1
 -2       919       918       993      3609      3846      3847
 -1      1903    8    0    1
 -2       918       992       993      3845      3848      3846
 -1      1904    8    0    1
 -2       920       919       994      3612      3849      3850
 -1      1905    8    0    1
 -2       919       993       994      3847      3851      3849
 -1      1906    8    0    1
 -2       921       920       995      3615      3852      3853
 -1      1907    8    0    1
 -2       920       994       995      3850      3854      3852
 -1      1908    8    0    1
 -2       922       921       996      3618      3855      3856
 -1      1909    8    0    1
 -2       921       995       996      3853      3857      3855
 -1      1910    8    0    1
 -2       923       922       997      3621      3858      3859
 -1      1911    8    0    1
 -2       922       996       997      3856      3860      3858
 -1      1912    8    0    1
 -2       924       923       998      3624      3861      3862
 -1      1913    8    0    1
 -2       923       997       998      3859      3863      3861
 -1      1914    8    0    1
 -2       925       924       999      3627      3864      3865
 -1      1915    8    0    1
 -2       924       998       999      3862      3866      3864
 -1      1916    8    0    1
 -2       926       925      1000      3630      3867      3868
 -1      1917    8    0    1
 -2       925       999      1000      3865      3869      3867
 -1      1918    8    0    1
 -2       927       926      1001      3633      3870      3871
 -1      1919    8    0    1
 -2       926      1000      1001      3868      3872      3870
 -1      1920    8    0    1
 -2       928       927      1002      3636      3873      3874
 -1      1921    8    0    1
 -2       927      1001      1002      3871      3875      3873
 -1      1922    8    0    1
 -2       929       928      1003      3639      3876      3877
 -1      1923    8    0    1
 -2       928      1002      1003      3874      3878      3876
 -1      1924    8    0    1
 -2       930       929      1004      3642      3879      3880
 -1      1925    8    0    1
 -2       929      1003      1004      3877      3881      3879
 -1      1926    8    0    1
 -2       931       930      1005      3645      3882      3883
 -1      1927    8    0    1
 -2       930      1004      1005      3880      3884      3882
 -1      1928    8    0    1
 -2       932       931      1006      3648      3885      3886
 -1      1929    8    0    1
 -2       931      1005      1006      3883      3887      3885
 -1      1930    8    0    1
 -2       933       932      1007      3651      3888      3889
 -1      1931    8    0    1
 -2       932      1006      1007      3886      3890      3888
 -1      1932    8    0    1
 -2       934       933      1008      3654      3891      3892
 -1      1933    8    0    1
 -2       933      1007      1008      3889      3893      3891
 -1      1934    8    0    1
 -2       935       934      1009      3657      3894      3895
 -1      1935    8    0    1
 -2       934      1008      1009      3892      3896      3894
 -1      1936    8    0    1
 -2       936       935      1010      3660      3897      3898
 -1      1937    8    0    1
 -2       935      1009      1010      3895      3899      3897
 -1      1938    8    0    1
 -2       937       936      1011      3663      3900      3901
 -1      1939    8    0    1
 -2       936      1010      1011      3898      3902      3900
 -1      1940    8    0    1
 -2       938       937      1012      3666      3903      3904
 -1      1941    8    0    1
 -2       937      1011      1012      3901      3905      3903
 -1      1942    8    0    1
 -2       939       938      1013      3669      3906      3907
 -1      1943    8    0    1
 -2       938      1012      1013      3904      3908      3906
 -1      1944    8    0    1
 -2       940       939      1014      3672      3909      3910
 -1      1945    8    0    1
 -2       939      1013      1014      3907      3911      3909
 -1      1946    8    0    1
 -2       941       940      1015      3675      3912      3913
 -1      1947    8    0    1
 -2       940      1014      1015      3910      3914      3912
 -1      1948    8    0    1
 -2       942       941      1016      3678      3915      3916
 -1      1949    8    0    1
 -2       987       942      1016      3824      3916      3917
 -1      1950    8    0    1
 -2       941      1015      1016      3913      3918      3915
 -1      1951    8    0    1
 -2       975       980      1017      3793      3919      3920
 -1      1952    8    0    1
 -2       947       948      1018      3694      3921      3922
 -1      1953    8    0    1
 -2       946       947      1019      3691      3923      3924
 -1      1954    8    0    1
 -2       947      1018      1019      3922      3925      3923
 -1      1955    8    0    1
 -2       949       950      1020      3700      3926      3927
 -1      1956    8    0    1
 -2       950       951      1021      3703      3928      3929
 -1      1957    8    0    1
 -2       950      1021      1020      3929      3930      3926
 -1      1958    8    0    1
 -2       951       952      1022      3706      3931      3932
 -1      1959    8    0    1
 -2       951      1022      1021      3932      3933      3928
 -1      1960    8    0    1
 -2       952       953      1023      3709      3934      3935
 -1      1961    8    0    1
 -2       952      1023      1022      3935      3936      3931
 -1      1962    8    0    1
 -2       953       954      1024      3712      3937      3938
 -1      1963    8    0    1
 -2       953      1024      1023      3938      3939      3934
 -1      1964    8    0    1
 -2       954       955      1025      3715      3940      3941
 -1      1965    8    0    1
 -2       954      1025      1024      3941      3942      3937
 -1      1966    8    0    1
 -2       955       956      1026      3718      3943      3944
 -1      1967    8    0    1
 -2       955      1026      1025      3944      3945      3940
 -1      1968    8    0    1
 -2       956       957      1027      3721      3946      3947
 -1      1969    8    0    1
 -2       956      1027      1026      3947      3948      3943
 -1      1970    8    0    1
 -2       957       958      1028      3724      3949      3950
 -1      1971    8    0    1
 -2       957      1028      1027      3950      3951      3946
 -1      1972    8    0    1
 -2       958       959      1029      3727      3952      3953
 -1      1973    8    0    1
 -2       958      1029      1028      3953      3954      3949
 -1      1974    8    0    1
 -2       959       960      1030      3730      3955      3956
 -1      1975    8    0    1
 -2       959      1030      1029      3956      3957      3952
 -1      1976    8    0    1
 -2       960       961      1031      3733      3958      3959
 -1      1977    8    0    1
 -2       960      1031      1030      3959      3960      3955
 -1      1978    8    0    1
 -2       961       962      1032      3736      3961      3962
 -1      1979    8    0    1
 -2       961      1032      1031      3962      3963      3958
 -1      1980    8    0    1
 -2       962       963      1033      3739      3964      3965
 -1      1981    8    0    1
 -2       962      1033      1032      3965      3966      3961
 -1      1982    8    0    1
 -2       963       964      1034      3742      3967      3968
 -1      1983    8    0    1
 -2       963      1034      1033      3968      3969      3964
 -1      1984    8    0    1
 -2       964       965      1035      3745      3970      3971
 -1      1985    8    0    1
 -2       964      1035      1034      3971      3972      3967
 -1      1986    8    0    1
 -2       965       966      1036      3748      3973      3974
 -1      1987    8    0    1
 -2       965      1036      1035      3974      3975      3970
 -1      1988    8    0    1
 -2       966       967      1037      3751      3976      3977
 -1      1989    8    0    1
 -2       966      1037      1036      3977      3978      3973
 -1      1990    8    0    1
 -2       967       968      1038      3754      3979      3980
 -1      1991    8    0    1
 -2       967      1038      1037      3980      3981      3976
 -1      1992    8    0    1
 -2       968       969      1039      3757      3982      3983
 -1      1993    8    0    1
 -2       968      1039      1038      3983      3984      3979
 -1      1994    8    0    1
 -2       978       975      1040      3828      3985      3986
 -1      1995    8    0    1
 -2       944       972      1041      3764      3987      3988
 -1      1996    8    0    1
 -2       944      1041       991      3988      3989      3842
 -1      1997    8    0    1
 -2       971       982      1042      3836      3990      3991
 -1      1998    8    0    1
 -2       982       990      1042      3840      3992      3990
 -1      1999    8    0    1
 -2       908       909      1043      3821      3993      3994
 -1      2000    8    0    1
 -2       989       908      1043      3832      3994      3995
 -1      2001    8    0    1
 -2       909       987      1043      3823      3996      3993
 -1      2002    8    0    1
 -2       915       913       974      3596      3997      3776
 -1      2003    8    0    1
 -2       905       911       973      3831      3998      3770
 -1      2004    8    0    1
 -2       914       907       977      3592      3999      3838
 -1      2005    8    0    1
 -2       903       974       913      3800      3997      3772
 -1      2006    8    0    1
 -2       911       970       973      3815      4000      3998
 -1      2007    8    0    1
 -2       948       949      1044      3697      4001      4002
 -1      2008    8    0    1
 -2       949      1020      1044      3927      4003      4001
 -1      2009    8    0    1
 -2       917       916      1045      3603      4004      4005
 -1      2010    8    0    1
 -2       917      1045       992      4005      4006      3844
 -1      2011    8    0    1
 -2       972       946      1046      3808      4007      4008
 -1      2012    8    0    1
 -2       946      1019      1046      3924      4009      4007
 -1      2013    8    0    1
 -2       980       977       984      3804      4010      4011
 -1      2014    8    0    1
 -2       971      1042       979      3991      4012      3789
 -1      2015    8    0    1
 -2       945       991      1047      3843      4013      4014
 -1      2016    8    0    1
 -2       945      1047       985      4014      4015      3812
 -1      2017    8    0    1
 -2       983       892       985      3807      3814      4016
 -1      2018    8    0    1
 -2       975      1017      1040      3920      4017      3985
 -1      2019    8    0    1
 -2      1018       948      1044      3921      4002      4018
 -1      2020    8    0    1
 -2       984       943      1017      3811      4019      4020
 -1      2021    8    0    1
 -2       980       984      1017      4011      4020      3919
 -1      2022    8    0    1
 -2       978      1040      1048      3986      4021      4022
 -1      2023    8    0    1
 -2      1039       969       986      3982      3819      4023
 -1      2024    8    0    1
 -2       978      1048       981      4022      4024      3799
 -1      2025    8    0    1
 -2      1041       972      1046      3987      4008      4025
 -1      2026    8    0    1
 -2       895       976       982      3830      4026      3835
 -1      2027    8    0    1
 -2       977       907       984      3999      3810      4010
 -1      2028    8    0    1
 -2       988       989      1049      3834      4027      4028
 -1      2029    8    0    1
 -2       916       979      1050      3788      4029      4030
 -1      2030    8    0    1
 -2       916      1050      1045      4030      4031      4004
 -1      2031    8    0    1
 -2       986       988      1039      3827      4032      4023
 -1      2032    8    0    1
 -2       970       912       973      3837      3769      4000
 -1      2033    8    0    1
 -2      1039       988      1049      4032      4028      4033
 -1      2034    8    0    1
 -2      1017       943      1051      4019      4034      4035
 -1      2035    8    0    1
 -2      1040      1017      1051      4017      4035      4036
 -1      2036    8    0    1
 -2       943       983      1051      3806      4037      4034
 -1      2037    8    0    1
 -2       994       993      1052      3851      4038      4039
 -1      2038    8    0    1
 -2       995       994      1053      3854      4040      4041
 -1      2039    8    0    1
 -2       994      1052      1053      4039      4042      4040
 -1      2040    8    0    1
 -2       996       995      1054      3857      4043      4044
 -1      2041    8    0    1
 -2       995      1053      1054      4041      4045      4043
 -1      2042    8    0    1
 -2       997       996      1055      3860      4046      4047
 -1      2043    8    0    1
 -2       996      1054      1055      4044      4048      4046
 -1      2044    8    0    1
 -2       998       997      1056      3863      4049      4050
 -1      2045    8    0    1
 -2       997      1055      1056      4047      4051      4049
 -1      2046    8    0    1
 -2       999       998      1057      3866      4052      4053
 -1      2047    8    0    1
 -2       998      1056      1057      4050      4054      4052
 -1      2048    8    0    1
 -2      1000       999      1058      3869      4055      4056
 -1      2049    8    0    1
 -2       999      1057      1058      4053      4057      4055
 -1      2050    8    0    1
 -2      1001      1000      1059      3872      4058      4059
 -1      2051    8    0    1
 -2      1000      1058      1059      4056      4060      4058
 -1      2052    8    0    1
 -2      1002      1001      1060      3875      4061      4062
 -1      2053    8    0    1
 -2      1001      1059      1060      4059      4063      4061
 -1      2054    8    0    1
 -2      1003      1002      1061      3878      4064      4065
 -1      2055    8    0    1
 -2      1002      1060      1061      4062      4066      4064
 -1      2056    8    0    1
 -2      1004      1003      1062      3881      4067      4068
 -1      2057    8    0    1
 -2      1003      1061      1062      4065      4069      4067
 -1      2058    8    0    1
 -2      1005      1004      1063      3884      4070      4071
 -1      2059    8    0    1
 -2      1004      1062      1063      4068      4072      4070
 -1      2060    8    0    1
 -2      1006      1005      1064      3887      4073      4074
 -1      2061    8    0    1
 -2      1005      1063      1064      4071      4075      4073
 -1      2062    8    0    1
 -2      1007      1006      1065      3890      4076      4077
 -1      2063    8    0    1
 -2      1006      1064      1065      4074      4078      4076
 -1      2064    8    0    1
 -2      1008      1007      1066      3893      4079      4080
 -1      2065    8    0    1
 -2      1007      1065      1066      4077      4081      4079
 -1      2066    8    0    1
 -2      1009      1008      1067      3896      4082      4083
 -1      2067    8    0    1
 -2      1008      1066      1067      4080      4084      4082
 -1      2068    8    0    1
 -2      1010      1009      1068      3899      4085      4086
 -1      2069    8    0    1
 -2      1009      1067      1068      4083      4087      4085
 -1      2070    8    0    1
 -2      1011      1010      1069      3902      4088      4089
 -1      2071    8    0    1
 -2      1010      1068      1069      4086      4090      4088
 -1      2072    8    0    1
 -2      1012      1011      1070      3905      4091      4092
 -1      2073    8    0    1
 -2      1011      1069      1070      4089      4093      4091
 -1      2074    8    0    1
 -2      1013      1012      1071      3908      4094      4095
 -1      2075    8    0    1
 -2      1012      1070      1071      4092      4096      4094
 -1      2076    8    0    1
 -2      1014      1013      1072      3911      4097      4098
 -1      2077    8    0    1
 -2      1013      1071      1072      4095      4099      4097
 -1      2078    8    0    1
 -2      1015      1014      1073      3914      4100      4101
 -1      2079    8    0    1
 -2      1014      1072      1073      4098      4102      4100
 -1      2080    8    0    1
 -2       992      1045      1074      4006      4103      4104
 -1      2081    8    0    1
 -2       983       985      1075      4016      4105      4106
 -1      2082    8    0    1
 -2       985      1047      1075      4015      4107      4105
 -1      2083    8    0    1
 -2      1021      1022      1076      3933      4108      4109
 -1      2084    8    0    1
 -2      1020      1021      1077      3930      4110      4111
 -1      2085    8    0    1
 -2      1021      1076      1077      4109      4112      4110
 -1      2086    8    0    1
 -2      1023      1024      1078      3939      4113      4114
 -1      2087    8    0    1
 -2      1024      1025      1079      3942      4115      4116
 -1      2088    8    0    1
 -2      1024      1079      1078      4116      4117      4113
 -1      2089    8    0    1
 -2      1025      1026      1080      3945      4118      4119
 -1      2090    8    0    1
 -2      1025      1080      1079      4119      4120      4115
 -1      2091    8    0    1
 -2      1026      1027      1081      3948      4121      4122
 -1      2092    8    0    1
 -2      1026      1081      1080      4122      4123      4118
 -1      2093    8    0    1
 -2      1027      1028      1082      3951      4124      4125
 -1      2094    8    0    1
 -2      1027      1082      1081      4125      4126      4121
 -1      2095    8    0    1
 -2      1028      1029      1083      3954      4127      4128
 -1      2096    8    0    1
 -2      1028      1083      1082      4128      4129      4124
 -1      2097    8    0    1
 -2      1029      1030      1084      3957      4130      4131
 -1      2098    8    0    1
 -2      1029      1084      1083      4131      4132      4127
 -1      2099    8    0    1
 -2      1030      1031      1085      3960      4133      4134
 -1      2100    8    0    1
 -2      1030      1085      1084      4134      4135      4130
 -1      2101    8    0    1
 -2      1031      1032      1086      3963      4136      4137
 -1      2102    8    0    1
 -2      1031      1086      1085      4137      4138      4133
 -1      2103    8    0    1
 -2      1032      1033      1087      3966      4139      4140
 -1      2104    8    0    1
 -2      1032      1087      1086      4140      4141      4136
 -1      2105    8    0    1
 -2      1033      1034      1088      3969      4142      4143
 -1      2106    8    0    1
 -2      1033      1088      1087      4143      4144      4139
 -1      2107    8    0    1
 -2      1034      1035      1089      3972      4145      4146
 -1      2108    8    0    1
 -2      1034      1089      1088      4146      4147      4142
 -1      2109    8    0    1
 -2      1035      1036      1090      3975      4148      4149
 -1      2110    8    0    1
 -2      1035      1090      1089      4149      4150      4145
 -1      2111    8    0    1
 -2      1036      1037      1091      3978      4151      4152
 -1      2112    8    0    1
 -2      1036      1091      1090      4152      4153      4148
 -1      2113    8    0    1
 -2      1037      1038      1092      3981      4154      4155
 -1      2114    8    0    1
 -2      1037      1092      1091      4155      4156      4151
 -1      2115    8    0    1
 -2      1038      1039      1093      3984      4157      4158
 -1      2116    8    0    1
 -2      1092      1038      1093      4154      4158      4159
 -1      2117    8    0    1
 -2      1039      1049      1093      4033      4160      4157
 -1      2118    8    0    1
 -2      1018      1044      1094      4018      4161      4162
 -1      2119    8    0    1
 -2       991      1041      1095      3989      4163      4164
 -1      2120    8    0    1
 -2      1042       990      1096      3992      4165      4166
 -1      2121    8    0    1
 -2      1041      1046      1097      4025      4167      4168
 -1      2122    8    0    1
 -2      1041      1097      1095      4168      4169      4163
 -1      2123    8    0    1
 -2      1022      1023      1098      3936      4170      4171
 -1      2124    8    0    1
 -2      1076      1022      1098      4108      4171      4172
 -1      2125    8    0    1
 -2      1023      1078      1098      4114      4173      4170
 -1      2126    8    0    1
 -2      1048      1040      1075      4021      4174      4175
 -1      2127    8    0    1
 -2      1019      1018      1099      3925      4176      4177
 -1      2128    8    0    1
 -2      1018      1094      1099      4162      4178      4176
 -1      2129    8    0    1
 -2       993       992      1100      3848      4179      4180
 -1      2130    8    0    1
 -2      1052       993      1100      4038      4180      4181
 -1      2131    8    0    1
 -2       992      1074      1100      4104      4182      4179
 -1      2132    8    0    1
 -2      1049       989      1101      4027      4183      4184
 -1      2133    8    0    1
 -2       989      1043      1101      3995      4185      4183
 -1      2134    8    0    1
 -2      1044      1020      1102      4003      4186      4187
 -1      2135    8    0    1
 -2      1020      1077      1102      4111      4188      4186
 -1      2136    8    0    1
 -2      1046      1019      1103      4009      4189      4190
 -1      2137    8    0    1
 -2      1097      1046      1103      4167      4190      4191
 -1      2138    8    0    1
 -2      1019      1099      1103      4177      4192      4189
 -1      2139    8    0    1
 -2       990       981      1104      3841      4193      4194
 -1      2140    8    0    1
 -2      1096       990      1104      4165      4194      4195
 -1      2141    8    0    1
 -2       981      1048      1104      4024      4196      4193
 -1      2142    8    0    1
 -2       979      1042      1050      4012      4197      4029
 -1      2143    8    0    1
 -2      1047       991      1105      4013      4198      4199
 -1      2144    8    0    1
 -2       991      1095      1105      4164      4200      4198
 -1      2145    8    0    1
 -2      1048      1075      1106      4175      4201      4202
 -1      2146    8    0    1
 -2      1104      1048      1106      4196      4202      4203
 -1      2147    8    0    1
 -2      1075      1047      1106      4107      4204      4201
 -1      2148    8    0    1
 -2      1015      1073      1107      4101      4205      4206
 -1      2149    8    0    1
 -2      1015      1107      1016      4206      4207      3918
 -1      2150    8    0    1
 -2      1074      1045      1108      4103      4208      4209
 -1      2151    8    0    1
 -2      1045      1050      1108      4031      4210      4208
 -1      2152    8    0    1
 -2      1094      1044      1102      4161      4187      4211
 -1      2153    8    0    1
 -2      1093      1049      1101      4160      4184      4212
 -1      2154    8    0    1
 -2      1042      1096      1050      4166      4213      4197
 -1      2155    8    0    1
 -2       904       982       976      3802      4026      3781
 -1      2156    8    0    1
 -2       987      1016      1109      3917      4214      4215
 -1      2157    8    0    1
 -2      1054      1053      1110      4045      4216      4217
 -1      2158    8    0    1
 -2      1055      1054      1102      4048      4218      4219
 -1      2159    8    0    1
 -2      1056      1055      1077      4051      4220      4221
 -1      2160    8    0    1
 -2      1057      1056      1076      4054      4222      4223
 -1      2161    8    0    1
 -2      1058      1057      1098      4057      4224      4225
 -1      2162    8    0    1
 -2      1059      1058      1078      4060      4226      4227
 -1      2163    8    0    1
 -2      1060      1059      1079      4063      4228      4229
 -1      2164    8    0    1
 -2      1061      1060      1080      4066      4230      4231
 -1      2165    8    0    1
 -2      1062      1061      1081      4069      4232      4233
 -1      2166    8    0    1
 -2      1063      1062      1082      4072      4234      4235
 -1      2167    8    0    1
 -2      1064      1063      1083      4075      4236      4237
 -1      2168    8    0    1
 -2      1065      1064      1084      4078      4238      4239
 -1      2169    8    0    1
 -2      1066      1065      1085      4081      4240      4241
 -1      2170    8    0    1
 -2      1067      1066      1086      4084      4242      4243
 -1      2171    8    0    1
 -2      1068      1067      1087      4087      4244      4245
 -1      2172    8    0    1
 -2      1069      1068      1088      4090      4246      4247
 -1      2173    8    0    1
 -2      1070      1069      1089      4093      4248      4249
 -1      2174    8    0    1
 -2      1071      1070      1090      4096      4250      4251
 -1      2175    8    0    1
 -2      1072      1071      1091      4099      4252      4253
 -1      2176    8    0    1
 -2      1073      1072      1092      4102      4254      4255
 -1      2177    8    0    1
 -2      1078      1058      1098      4226      4225      4173
 -1      2178    8    0    1
 -2      1053      1052      1099      4042      4256      4257
 -1      2179    8    0    1
 -2       983      1075      1051      4106      4258      4037
 -1      2180    8    0    1
 -2      1090      1070      1089      4250      4249      4150
 -1      2181    8    0    1
 -2      1089      1069      1088      4248      4247      4147
 -1      2182    8    0    1
 -2      1079      1080      1060      4120      4230      4229
 -1      2183    8    0    1
 -2      1078      1079      1059      4117      4228      4227
 -1      2184    8    0    1
 -2      1081      1082      1062      4126      4234      4233
 -1      2185    8    0    1
 -2      1082      1083      1063      4129      4236      4235
 -1      2186    8    0    1
 -2      1083      1084      1064      4132      4238      4237
 -1      2187    8    0    1
 -2      1084      1085      1065      4135      4240      4239
 -1      2188    8    0    1
 -2      1085      1086      1066      4138      4242      4241
 -1      2189    8    0    1
 -2      1086      1087      1067      4141      4244      4243
 -1      2190    8    0    1
 -2      1087      1088      1068      4144      4246      4245
 -1      2191    8    0    1
 -2      1090      1091      1071      4153      4252      4251
 -1      2192    8    0    1
 -2      1091      1092      1072      4156      4254      4253
 -1      2193    8    0    1
 -2      1092      1093      1073      4159      4259      4255
 -1      2194    8    0    1
 -2      1076      1056      1077      4222      4221      4112
 -1      2195    8    0    1
 -2      1080      1081      1061      4123      4232      4231
 -1      2196    8    0    1
 -2      1077      1055      1102      4220      4219      4188
 -1      2197    8    0    1
 -2      1095      1097      1111      4169      4260      4261
 -1      2198    8    0    1
 -2      1099      1094      1110      4178      4262      4263
 -1      2199    8    0    1
 -2      1099      1052      1103      4256      4264      4192
 -1      2200    8    0    1
 -2      1094      1102      1110      4211      4265      4262
 -1      2201    8    0    1
 -2      1109      1016      1107      4214      4207      4266
 -1      2202    8    0    1
 -2      1050      1096      1108      4213      4267      4210
 -1      2203    8    0    1
 -2      1106      1047      1105      4204      4199      4268
 -1      2204    8    0    1
 -2      1057      1076      1098      4223      4172      4224
 -1      2205    8    0    1
 -2      1073      1093      1107      4259      4269      4205
 -1      2206    8    0    1
 -2      1074      1108      1111      4209      4270      4271
 -1      2207    8    0    1
 -2      1075      1040      1051      4174      4036      4258
 -1      2208    8    0    1
 -2      1097      1103      1100      4191      4272      4273
 -1      2209    8    0    1
 -2      1104      1106      1112      4203      4274      4275
 -1      2210    8    0    1
 -2      1096      1104      1112      4195      4275      4276
 -1      2211    8    0    1
 -2      1106      1105      1112      4268      4277      4274
 -1      2212    8    0    1
 -2      1043       987      1109      3996      4215      4278
 -1      2213    8    0    1
 -2      1053      1099      1110      4257      4263      4216
 -1      2214    8    0    1
 -2      1100      1074      1111      4182      4271      4279
 -1      2215    8    0    1
 -2      1095      1111      1113      4261      4280      4281
 -1      2216    8    0    1
 -2      1105      1095      1113      4200      4281      4282
 -1      2217    8    0    1
 -2      1111      1108      1113      4270      4283      4280
 -1      2218    8    0    1
 -2      1102      1054      1110      4218      4217      4265
 -1      2219    8    0    1
 -2      1052      1100      1103      4181      4272      4264
 -1      2220    8    0    1
 -2      1043      1109      1101      4278      4284      4185
 -1      2221    8    0    1
 -2      1111      1097      1100      4260      4273      4279
 -1      2222    8    0    1
 -2      1112      1105      1113      4277      4282      4285
 -1      2223    8    0    1
 -2      1096      1112      1108      4276      4286      4267
 -1      2224    8    0    1
 -2      1109      1107      1101      4266      4287      4284
 -1      2225    8    0    1
 -2      1101      1107      1093      4287      4269      4212
 -1      2226    8    0    1
 -2      1108      1112      1113      4286      4285      4283
 -3
    1PSTEP                         1           1           1          
  100CL  101 1.000000000        4287                     0    1           1
 -4  DISP        4    1
 -5  D1          1    2    1    0
 -5  D2          1    2    2    0
 -5  D3          1    2    3    0
 -5  ALL         1    2    0    0    1ALL
 -1         1 1.51433E-03-1.35135E-03-1.97282E-15
 -1         2 5.62102E-03-1.01192E-03-6.12980E-15
 -1         3 1.38694E-02-6.46604E-03-1.23491E-13
 -1         4 1.67495E-02-7.89472E-03-1.27948E-13
 -1         5 0.00000E+00 0.00000E+00 0.00000E+00
 -1         6 0.00000E+00 0.00000E+00 0.00000E+00
 -1         7 0.00000E+00 0.00000E+00 0.00000E+00
 -1         8 0.00000E+00 0.00000E+00 0.00000E+00
 -1         9 0.00000E+00 0.00000E+00 0.00000E+00
 -1        10 0.00000E+00 0.00000E+00 0.00000E+00
 -1        11 0.00000E+00 0.00000E+00 0.00000E+00
 -1        12 0.00000E+00 0.00000E+00 0.00000E+00
 -1        13 0.00000E+00 0.00000E+00 0.00000E+00
 -1        14 0.00000E+00 0.00000E+00 0.00000E+00
 -1        15 0.00000E+00 0.00000E+00 0.00000E+00
 -1        16 0.00000E+00 0.00000E+00 0.00000E+00
 -1        17 0.00000E+00 0.00000E+00 0.00000E+00
 -1        18 0.00000E+00 0.00000E+00 0.00000E+00
 -1        19 0.00000E+00 0.00000E+00 0.00000E+00
 -1        20 0.00000E+00 0.00000E+00 0.00000E+00
 -1        21 0.00000E+00 0.00000E+00 0.00000E+00
 -1        22 0.00000E+00 0.00000E+00 0.00000E+00
 -1        23 5.00828E-04-2.45243E-04 3.71407E-17
 -1        24 9.20223E-04-3.81762E-04-2.64003E-17
 -1        25 1.36336E-03-5.27240E-04-1.89498E-16
 -1        26 1.84746E-03-7.25457E-04-4.54050E-16
 -1        27 2.36624E-03-1.02064E-03-8.21683E-16
 -1        28 2.87542E-03-1.43518E-03-1.30343E-15
 -1        29 3.24052E-03-1.83814E-03-1.82084E-15
 -1        30 3.49515E-03-2.16206E-03-2.41683E-15
 -1        31 3.69725E-03-2.32422E-03-3.18198E-15
 -1        32 3.90249E-03-2.26786E-03-4.03114E-15
 -1        33 4.16598E-03-2.09403E-03-4.94099E-15
 -1        34 4.57743E-03-1.86222E-03-6.15973E-15
 -1        35 5.06913E-03-1.69954E-03-7.57713E-15
 -1        36 5.58026E-03-1.65115E-03-9.19034E-15
 -1        37 6.04783E-03-1.70279E-03-1.09130E-14
 -1        38 6.46622E-03-1.81715E-03-1.27352E-14
 -1        39 6.84378E-03-1.96620E-03-1.46629E-14
 -1        40 7.19138E-03-2.13288E-03-1.66963E-14
 -1        41 7.51824E-03-2.30781E-03-1.88310E-14
 -1        42 7.83114E-03-2.48613E-03-2.10456E-14
 -1        43 8.13474E-03-2.66541E-03-2.33544E-14
 -1        44 8.43217E-03-2.84454E-03-2.57619E-14
 -1        45 8.72550E-03-3.02304E-03-2.82741E-14
 -1        46 9.01609E-03-3.20075E-03-3.08878E-14
 -1        47 9.31927E-03-3.38650E-03-3.37361E-14
 -1        48 9.60680E-03-3.56266E-03-3.65529E-14
 -1        49 9.89353E-03-3.73819E-03-3.94735E-14
 -1        50 1.01798E-02-3.91318E-03-4.24855E-14
 -1        51 1.04657E-02-4.08772E-03-4.55666E-14
 -1        52 1.07514E-02-4.26189E-03-4.87170E-14
 -1        53 1.10369E-02-4.43574E-03-5.19336E-14
 -1        54 1.13225E-02-4.60935E-03-5.52092E-14
 -1        55 1.16080E-02-4.78277E-03-5.85501E-14
 -1        56 1.18935E-02-4.95602E-03-6.19550E-14
 -1        57 1.21790E-02-5.12916E-03-6.54266E-14
 -1        58 1.24645E-02-5.30220E-03-6.89514E-14
 -1        59 1.27501E-02-5.47517E-03-7.25348E-14
 -1        60 1.30357E-02-5.64809E-03-7.61906E-14
 -1        61 1.33213E-02-5.82097E-03-7.99077E-14
 -1        62 1.36069E-02-5.99382E-03-8.36884E-14
 -1        63 1.38925E-02-6.16665E-03-8.75178E-14
 -1        64 1.41782E-02-6.33947E-03-9.13976E-14
 -1        65 1.44639E-02-6.51228E-03-9.53289E-14
 -1        66 1.47495E-02-6.68509E-03-9.92944E-14
 -1        67 1.50352E-02-6.85789E-03-1.03289E-13
 -1        68 1.53209E-02-7.03069E-03-1.07325E-13
 -1        69 1.56066E-02-7.20349E-03-1.11381E-13
 -1        70 1.58924E-02-7.37629E-03-1.15475E-13
 -1        71 1.61781E-02-7.54910E-03-1.19609E-13
 -1        72 1.64638E-02-7.72191E-03-1.23778E-13
 -1        73 4.26877E-04 2.79785E-04 6.62075E-17
 -1        74 7.16711E-04 4.36698E-04 2.79047E-17
 -1        75 9.80290E-04 5.43465E-04-1.15417E-16
 -1        76 1.22920E-03 6.16324E-04-3.71217E-16
 -1        77 1.46686E-03 6.60076E-04-7.46602E-16
 -1        78 1.69495E-03 6.75054E-04-1.24491E-15
 -1        79 1.91565E-03 6.59584E-04-1.86914E-15
 -1        80 2.13242E-03 6.11885E-04-2.62303E-15
 -1        81 2.34980E-03 5.31617E-04-3.51068E-15
 -1        82 2.57257E-03 4.20753E-04-4.53124E-15
 -1        83 2.80475E-03 2.83612E-04-5.68437E-15
 -1        84 3.04876E-03 1.26121E-04-6.96047E-15
 -1        85 3.30516E-03-4.52981E-05-8.36460E-15
 -1        86 3.57289E-03-2.24781E-04-9.89755E-15
 -1        87 3.84986E-03-4.07702E-04-1.15553E-14
 -1        88 4.13357E-03-5.90907E-04-1.33367E-14
 -1        89 4.42165E-03-7.72591E-04-1.52347E-14
 -1        90 4.71211E-03-9.51990E-04-1.72455E-14
 -1        91 5.00348E-03-1.12903E-03-1.93656E-14
 -1        92 5.29481E-03-1.30401E-03-2.15911E-14
 -1        93 5.58555E-03-1.47740E-03-2.39282E-14
 -1        94 5.87544E-03-1.64968E-03-2.63716E-14
 -1        95 6.16442E-03-1.82127E-03-2.89217E-14
 -1        96 6.45256E-03-1.99251E-03-3.15723E-14
 -1        97 6.73999E-03-2.16363E-03-3.43113E-14
 -1        98 7.02683E-03-2.33480E-03-3.71418E-14
 -1        99 7.31323E-03-2.50611E-03-4.00611E-14
 -1       100 7.59930E-03-2.67761E-03-4.30590E-14
 -1       101 7.88515E-03-2.84931E-03-4.61259E-14
 -1       102 8.17085E-03-3.02122E-03-4.92810E-14
 -1       103 8.45646E-03-3.19330E-03-5.25251E-14
 -1       104 8.74202E-03-3.36555E-03-5.58486E-14
 -1       105 9.02756E-03-3.53793E-03-5.92441E-14
 -1       106 9.31310E-03-3.71042E-03-6.27072E-14
 -1       107 9.59865E-03-3.88300E-03-6.62278E-14
 -1       108 9.88422E-03-4.05564E-03-6.98172E-14
 -1       109 1.01698E-02-4.22834E-03-7.34526E-14
 -1       110 1.04554E-02-4.40107E-03-7.71399E-14
 -1       111 1.07411E-02-4.57383E-03-8.08591E-14
 -1       112 1.10267E-02-4.74661E-03-8.46102E-14
 -1       113 1.13124E-02-4.91941E-03-8.84038E-14
 -1       114 1.15980E-02-5.09221E-03-9.22270E-14
 -1       115 1.18837E-02-5.26502E-03-9.60742E-14
 -1       116 1.21694E-02-5.43783E-03-9.99633E-14
 -1       117 1.24551E-02-5.61065E-03-1.03870E-13
 -1       118 1.27408E-02-5.78346E-03-1.07809E-13
 -1       119 1.30265E-02-5.95627E-03-1.11772E-13
 -1       120 1.33122E-02-6.12907E-03-1.15737E-13
 -1       121 1.35980E-02-6.30188E-03-1.19717E-13
 -1       122 1.40393E-02-6.55033E-03-1.23761E-13
 -1       123 1.42092E-02-6.63461E-03-1.24051E-13
 -1       124 1.43791E-02-6.71890E-03-1.24354E-13
 -1       125 1.45491E-02-6.80319E-03-1.24672E-13
 -1       126 1.47190E-02-6.88748E-03-1.24985E-13
 -1       127 1.48860E-02-6.97035E-03-1.25288E-13
 -1       128 1.50559E-02-7.05464E-03-1.25592E-13
 -1       129 1.52259E-02-7.13894E-03-1.25886E-13
 -1       130 1.53958E-02-7.22325E-03-1.26185E-13
 -1       131 1.55657E-02-7.30754E-03-1.26467E-13
 -1       132 1.57357E-02-7.39184E-03-1.26740E-13
 -1       133 1.59027E-02-7.47471E-03-1.27015E-13
 -1       134 1.60726E-02-7.55900E-03-1.27251E-13
 -1       135 1.62426E-02-7.64329E-03-1.27454E-13
 -1       136 1.64125E-02-7.72758E-03-1.27620E-13
 -1       137 1.65824E-02-7.81186E-03-1.27786E-13
 -1       138 5.49203E-03-8.30626E-04-6.09250E-15
 -1       139 5.27934E-03-6.57814E-04-5.93942E-15
 -1       140 4.97577E-03-4.87170E-04-5.66948E-15
 -1       141 4.59223E-03-3.28149E-04-5.29353E-15
 -1       142 4.17108E-03-1.96583E-04-4.86473E-15
 -1       143 3.72127E-03-9.21410E-05-4.40105E-15
 -1       144 3.26028E-03-1.79300E-05-3.93217E-15
 -1       145 2.79899E-03 2.54837E-05-3.47359E-15
 -1       146 2.33003E-03 3.67668E-05-3.01889E-15
 -1       147 1.92410E-03 1.68217E-05-2.63795E-15
 -1       148 1.56292E-03-3.07741E-05-2.30808E-15
 -1       149 1.24952E-03-1.06307E-04-2.02720E-15
 -1       150 9.98742E-04-2.12001E-04-1.80240E-15
 -1       151 8.23415E-04-3.56892E-04-1.63879E-15
 -1       152 7.69709E-04-5.01387E-04-1.57307E-15
 -1       153 8.02580E-04-6.73644E-04-1.56850E-15
 -1       154 9.47904E-04-8.87540E-04-1.63739E-15
 -1       155 1.17280E-03-1.10409E-03-1.76439E-15
 -1       156 1.96634E-03-1.60853E-03-2.26468E-15
 -1       157 2.52555E-03-1.84469E-03-2.65239E-15
 -1       158 3.09272E-03-1.99558E-03-3.07785E-15
 -1       159 3.69631E-03-2.05443E-03-3.57799E-15
 -1       160 4.22570E-03-2.01539E-03-4.06751E-15
 -1       161 4.69897E-03-1.90421E-03-4.56578E-15
 -1       162 5.08842E-03-1.75026E-03-5.04006E-15
 -1       163 5.37858E-03-1.57664E-03-5.45935E-15
 -1       164 5.57528E-03-1.38353E-03-5.81306E-15
 -1       165 5.65071E-03-1.19665E-03-6.03348E-15
 -1       166 2.84060E-04-7.88888E-05-1.25293E-17
 -1       167 2.31688E-04-4.56333E-05-2.85416E-17
 -1       168 1.92321E-04-3.92207E-05-3.80487E-17
 -1       169 1.68977E-04-4.83591E-05-4.36933E-17
 -1       170 1.63292E-04-6.13564E-05-4.64411E-17
 -1       171 1.72132E-04-6.86711E-05-4.74305E-17
 -1       172 1.88879E-04-6.44383E-05-4.74406E-17
 -1       173 2.06376E-04-4.85622E-05-4.70612E-17
 -1       174 2.20000E-04-2.46141E-05-4.59905E-17
 -1       175 2.28202E-04 3.00367E-06-4.44963E-17
 -1       176 2.31585E-04 3.05104E-05-4.18333E-17
 -1       177 2.31941E-04 5.72774E-05-3.77133E-17
 -1       178 2.31419E-04 8.28959E-05-3.04220E-17
 -1       179 2.33188E-04 1.09259E-04-1.84009E-17
 -1       180 2.44212E-04 1.42091E-04 1.67374E-18
 -1       181 3.03467E-04 2.01805E-04 2.44081E-17
 -1       182 5.90969E-04-2.11595E-04-3.68087E-17
 -1       183 9.91265E-04-3.41986E-04-1.71107E-16
 -1       184 1.40132E-03-4.99364E-04-3.99264E-16
 -1       185 1.83343E-03-7.30920E-04-7.26429E-16
 -1       186 2.28956E-03-1.08216E-03-1.16102E-15
 -1       187 2.68674E-03-1.47792E-03-1.62817E-15
 -1       188 3.47688E-03-2.21025E-03-2.91056E-15
 -1       189 3.79966E-03-2.25494E-03-3.69714E-15
 -1       190 4.11581E-03-2.11674E-03-4.54525E-15
 -1       191 4.52108E-03-1.86133E-03-5.69809E-15
 -1       192 4.96246E-03-1.64624E-03-7.05389E-15
 -1       193 5.41473E-03-1.55090E-03-8.61184E-15
 -1       194 5.83855E-03-1.57456E-03-1.02846E-14
 -1       195 6.23061E-03-1.67561E-03-1.20606E-14
 -1       196 6.59455E-03-1.81981E-03-1.39384E-14
 -1       197 6.93614E-03-1.98577E-03-1.59193E-14
 -1       198 7.26104E-03-2.16169E-03-1.80027E-14
 -1       199 7.57393E-03-2.34150E-03-2.01783E-14
 -1       200 7.87835E-03-2.52229E-03-2.24450E-14
 -1       201 8.17686E-03-2.70274E-03-2.48112E-14
 -1       202 8.47127E-03-2.88233E-03-2.72755E-14
 -1       203 8.76284E-03-3.06093E-03-2.98407E-14
 -1       204 9.06690E-03-3.24740E-03-3.26410E-14
 -1       205 9.35511E-03-3.42411E-03-3.54088E-14
 -1       206 9.64240E-03-3.60006E-03-3.82727E-14
 -1       207 9.92908E-03-3.77538E-03-4.12356E-14
 -1       208 1.02153E-02-3.95017E-03-4.42793E-14
 -1       209 1.05013E-02-4.12453E-03-4.73929E-14
 -1       210 1.07871E-02-4.29853E-03-5.05740E-14
 -1       211 1.10728E-02-4.47226E-03-5.38181E-14
 -1       212 1.13585E-02-4.64576E-03-5.71258E-14
 -1       213 1.16441E-02-4.81908E-03-6.04952E-14
 -1       214 1.19296E-02-4.99226E-03-6.39260E-14
 -1       215 1.22152E-02-5.16534E-03-6.74145E-14
 -1       216 1.25008E-02-5.33833E-03-7.09732E-14
 -1       217 1.27864E-02-5.51127E-03-7.45954E-14
 -1       218 1.30721E-02-5.68416E-03-7.82867E-14
 -1       219 1.33577E-02-5.85701E-03-8.20399E-14
 -1       220 1.36433E-02-6.02985E-03-8.58405E-14
 -1       221 1.39290E-02-6.20267E-03-8.96951E-14
 -1       222 1.42147E-02-6.37548E-03-9.35985E-14
 -1       223 1.45004E-02-6.54828E-03-9.75416E-14
 -1       224 1.47861E-02-6.72108E-03-1.01517E-13
 -1       225 1.50718E-02-6.89388E-03-1.05526E-13
 -1       226 1.53575E-02-7.06668E-03-1.09566E-13
 -1       227 1.56432E-02-7.23949E-03-1.13640E-13
 -1       228 1.59289E-02-7.41229E-03-1.17748E-13
 -1       229 1.62146E-02-7.58510E-03-1.21892E-13
 -1       230 1.63985E-02-7.69848E-03-1.24842E-13
 -1       231 6.13125E-04 3.63168E-04-3.30580E-17
 -1       232 8.99764E-04 4.76993E-04-1.90023E-16
 -1       233 1.16973E-03 5.55394E-04-4.55528E-16
 -1       234 1.42779E-03 6.04064E-04-8.36946E-16
 -1       235 1.67665E-03 6.23656E-04-1.33895E-15
 -1       236 1.91877E-03 6.12407E-04-1.96572E-15
 -1       237 2.15706E-03 5.68225E-04-2.72104E-15
 -1       238 2.39498E-03 4.90439E-04-3.60866E-15
 -1       239 2.63610E-03 3.80846E-04-4.62787E-15
 -1       240 2.88340E-03 2.43820E-04-5.77723E-15
 -1       241 3.13879E-03 8.55491E-05-7.05322E-15
 -1       242 3.40285E-03-8.71773E-05-8.45562E-15
 -1       243 3.67502E-03-2.68139E-04-9.98504E-15
 -1       244 3.95397E-03-4.52441E-04-1.16393E-14
 -1       245 4.23800E-03-6.36772E-04-1.34132E-14
 -1       246 4.52543E-03-8.19273E-04-1.53029E-14
 -1       247 4.81482E-03-9.99193E-04-1.73042E-14
 -1       248 5.10506E-03-1.17651E-03-1.94161E-14
 -1       249 5.39539E-03-1.35159E-03-2.16369E-14
 -1       250 5.68534E-03-1.52495E-03-2.39677E-14
 -1       251 5.97468E-03-1.69714E-03-2.64052E-14
 -1       252 6.26333E-03-1.86860E-03-2.89465E-14
 -1       253 6.55130E-03-2.03970E-03-3.15854E-14
 -1       254 6.83868E-03-2.21069E-03-3.43178E-14
 -1       255 7.12557E-03-2.38174E-03-3.71394E-14
 -1       256 7.41206E-03-2.55296E-03-4.00480E-14
 -1       257 7.69825E-03-2.72438E-03-4.30347E-14
 -1       258 7.98422E-03-2.89603E-03-4.60976E-14
 -1       259 8.27003E-03-3.06789E-03-4.92431E-14
 -1       260 8.55575E-03-3.23994E-03-5.24777E-14
 -1       261 8.84140E-03-3.41217E-03-5.57898E-14
 -1       262 9.12702E-03-3.58454E-03-5.91756E-14
 -1       263 9.41263E-03-3.75702E-03-6.26259E-14
 -1       264 9.69823E-03-3.92959E-03-6.61395E-14
 -1       265 9.98384E-03-4.10223E-03-6.97135E-14
 -1       266 1.02695E-02-4.27492E-03-7.33367E-14
 -1       267 1.05551E-02-4.44766E-03-7.70105E-14
 -1       268 1.08407E-02-4.62042E-03-8.07267E-14
 -1       269 1.11264E-02-4.79321E-03-8.44748E-14
 -1       270 1.14121E-02-4.96600E-03-8.82655E-14
 -1       271 1.16977E-02-5.13881E-03-9.20903E-14
 -1       272 1.19834E-02-5.31162E-03-9.59443E-14
 -1       273 1.22691E-02-5.48443E-03-9.98203E-14
 -1       274 1.25548E-02-5.65724E-03-1.03718E-13
 -1       275 1.28405E-02-5.83006E-03-1.07647E-13
 -1       276 1.31262E-02-6.00287E-03-1.11602E-13
 -1       277 1.34120E-02-6.17567E-03-1.15574E-13
 -1       278 1.36977E-02-6.34848E-03-1.19553E-13
 -1       279 1.38768E-02-6.44282E-03-1.20462E-13
 -1       280 1.40468E-02-6.52711E-03-1.20749E-13
 -1       281 1.42167E-02-6.61140E-03-1.21040E-13
 -1       282 1.43866E-02-6.69569E-03-1.21340E-13
 -1       283 1.45536E-02-6.77855E-03-1.21639E-13
 -1       284 1.47235E-02-6.86285E-03-1.21937E-13
 -1       285 1.48935E-02-6.94715E-03-1.22227E-13
 -1       286 1.50634E-02-7.03144E-03-1.22513E-13
 -1       287 1.52333E-02-7.11574E-03-1.22791E-13
 -1       288 1.54033E-02-7.20004E-03-1.23056E-13
 -1       289 1.55703E-02-7.28291E-03-1.23304E-13
 -1       290 1.57402E-02-7.36720E-03-1.23538E-13
 -1       291 1.59102E-02-7.45149E-03-1.23747E-13
 -1       292 1.60801E-02-7.53578E-03-1.23935E-13
 -1       293 1.62393E-02-7.61713E-03-1.24391E-13
 -1       294 5.58622E-03-1.03141E-03-6.87832E-15
 -1       295 5.36012E-03-9.08886E-04-6.66199E-15
 -1       296 5.03418E-03-7.51101E-04-6.34076E-15
 -1       297 4.60853E-03-5.75270E-04-5.98232E-15
 -1       298 4.18786E-03-3.51441E-04-5.40986E-15
 -1       299 3.76419E-03-1.57311E-04-4.85582E-15
 -1       300 3.36367E-03-5.13741E-06-4.28894E-15
 -1       301 2.98026E-03 8.82107E-05-3.74085E-15
 -1       302 2.60582E-03 1.09758E-04-3.20475E-15
 -1       303 2.23165E-03 5.47106E-05-2.73895E-15
 -1       304 1.87539E-03-3.70716E-05-2.34846E-15
 -1       305 1.52527E-03-1.51364E-04-2.02108E-15
 -1       306 1.20433E-03-2.76652E-04-1.73432E-15
 -1       307 9.25412E-04-3.91482E-04-1.48757E-15
 -1       308 7.69187E-04-4.61930E-04-1.44102E-15
 -1       309 7.50659E-04-5.40774E-04-1.40420E-15
 -1       310 8.74295E-04-6.23681E-04-1.38591E-15
 -1       311 1.12880E-03-8.11265E-04-1.52858E-15
 -1       312 1.50941E-03-1.01578E-03-1.66976E-15
 -1       313 1.95903E-03-1.33749E-03-1.94795E-15
 -1       314 2.49986E-03-1.67914E-03-2.28513E-15
 -1       315 2.98719E-03-1.97863E-03-2.74502E-15
 -1       316 3.44710E-03-2.14098E-03-3.27611E-15
 -1       317 3.88401E-03-2.11469E-03-3.87045E-15
 -1       318 4.30734E-03-1.96474E-03-4.47601E-15
 -1       319 4.73089E-03-1.75154E-03-5.08380E-15
 -1       320 5.10919E-03-1.53280E-03-5.67711E-15
 -1       321 5.42577E-03-1.34651E-03-6.21127E-15
 -1       322 5.62788E-03-1.21881E-03-6.50951E-15
 -1       323 5.68152E-03-1.11721E-03-6.79822E-15
 -1       324 3.14532E-03-1.94642E-03-2.24413E-15
 -1       325 4.22296E-04-1.08697E-04-1.29762E-16
 -1       326 5.25332E-04-1.44140E-04-1.02620E-16
 -1       327 3.18719E-04-1.21554E-04-1.58039E-16
 -1       328 3.27920E-04-1.33524E-04-1.64196E-16
 -1       329 3.63622E-04-1.28704E-04-1.67340E-16
 -1       330 4.06747E-04-1.03118E-04-1.68421E-16
 -1       331 4.42981E-04-6.13477E-05-1.67885E-16
 -1       332 4.66292E-04-1.11046E-05-1.65564E-16
 -1       333 4.77039E-04 4.02971E-05-1.60499E-16
 -1       334 4.79226E-04 9.12054E-05-1.51870E-16
 -1       335 4.77449E-04 1.40188E-04-1.37809E-16
 -1       336 4.77545E-04 1.89361E-04-1.15190E-16
 -1       337 4.88311E-04 2.44115E-04-8.06477E-17
 -1       338 5.41252E-04 3.00035E-04-6.30565E-17
 -1       339 8.35724E-04 4.16717E-04-2.27120E-16
 -1       340 2.74852E-03-1.67083E-03-2.04950E-15
 -1       341 9.98725E-04-3.22091E-04-3.36360E-16
 -1       342 1.34933E-03-4.92582E-04-6.26201E-16
 -1       343 1.73061E-03-7.50967E-04-1.01396E-15
 -1       344 2.09722E-03-1.07806E-03-1.42935E-15
 -1       345 4.78244E-03-7.77883E-04-6.71144E-15
 -1       346 3.98789E-03-2.13624E-03-4.18552E-15
 -1       347 4.42116E-03-1.88172E-03-5.19792E-15
 -1       348 4.87791E-03-1.61327E-03-6.46353E-15
 -1       349 5.30623E-03-1.46917E-03-7.96220E-15
 -1       350 5.68919E-03-1.45999E-03-9.58103E-15
 -1       351 6.04176E-03-1.54106E-03-1.13042E-14
 -1       352 6.37584E-03-1.67449E-03-1.31293E-14
 -1       353 6.69751E-03-1.83548E-03-1.50540E-14
 -1       354 7.01015E-03-2.00968E-03-1.70805E-14
 -1       355 7.31590E-03-2.18942E-03-1.92064E-14
 -1       356 7.61639E-03-2.37086E-03-2.14281E-14
 -1       357 7.91287E-03-2.55220E-03-2.37441E-14
 -1       358 8.20635E-03-2.73269E-03-2.61573E-14
 -1       359 8.49759E-03-2.91209E-03-2.86703E-14
 -1       360 8.80164E-03-3.09930E-03-3.14166E-14
 -1       361 9.09000E-03-3.27657E-03-3.41309E-14
 -1       362 9.37751E-03-3.45299E-03-3.69444E-14
 -1       363 9.66441E-03-3.62868E-03-3.98512E-14
 -1       364 9.95089E-03-3.80377E-03-4.28487E-14
 -1       365 1.02371E-02-3.97836E-03-4.59205E-14
 -1       366 1.05230E-02-4.15255E-03-4.90624E-14
 -1       367 1.08089E-02-4.32642E-03-5.22701E-14
 -1       368 1.10946E-02-4.50003E-03-5.55397E-14
 -1       369 1.13803E-02-4.67343E-03-5.88721E-14
 -1       370 1.16660E-02-4.84667E-03-6.22661E-14
 -1       371 1.19516E-02-5.01980E-03-6.57176E-14
 -1       372 1.22372E-02-5.19282E-03-6.92408E-14
 -1       373 1.25229E-02-5.36578E-03-7.28300E-14
 -1       374 1.28085E-02-5.53869E-03-7.64895E-14
 -1       375 1.30942E-02-5.71156E-03-8.02078E-14
 -1       376 1.33799E-02-5.88440E-03-8.39826E-14
 -1       377 1.36655E-02-6.05722E-03-8.78061E-14
 -1       378 1.39512E-02-6.23004E-03-9.16805E-14
 -1       379 1.42369E-02-6.40284E-03-9.55988E-14
 -1       380 1.45226E-02-6.57564E-03-9.95484E-14
 -1       381 1.48083E-02-6.74844E-03-1.03532E-13
 -1       382 1.50940E-02-6.92124E-03-1.07550E-13
 -1       383 1.53797E-02-7.09404E-03-1.11598E-13
 -1       384 1.56654E-02-7.26684E-03-1.15688E-13
 -1       385 1.59511E-02-7.43965E-03-1.19810E-13
 -1       386 1.28399E-03 5.14914E-04-7.49692E-16
 -1       387 1.55652E-03 5.51461E-04-1.20944E-15
 -1       388 1.82177E-03 5.58121E-04-1.79000E-15
 -1       389 2.08174E-03 5.32103E-04-2.49576E-15
 -1       390 2.33909E-03 4.71385E-04-3.33209E-15
 -1       391 2.59688E-03 3.76309E-04-4.29949E-15
 -1       392 2.85794E-03 2.50244E-04-5.39672E-15
 -1       393 3.12423E-03 9.91143E-05-6.62160E-15
 -1       394 3.39655E-03-6.98689E-05-7.97371E-15
 -1       395 3.67463E-03-2.49655E-04-9.45183E-15
 -1       396 3.95749E-03-4.34423E-04-1.10532E-14
 -1       397 4.24384E-03-6.20061E-04-1.27758E-14
 -1       398 4.53242E-03-8.04124E-04-1.46128E-14
 -1       399 4.82217E-03-9.85504E-04-1.65607E-14
 -1       400 5.11231E-03-1.16400E-03-1.86215E-14
 -1       401 5.40234E-03-1.33992E-03-2.07940E-14
 -1       402 5.69194E-03-1.51383E-03-2.30752E-14
 -1       403 5.98097E-03-1.68629E-03-2.54621E-14
 -1       404 6.26939E-03-1.85784E-03-2.79542E-14
 -1       405 6.55723E-03-2.02889E-03-3.05451E-14
 -1       406 6.84456E-03-2.19976E-03-3.32308E-14
 -1       407 7.13146E-03-2.37065E-03-3.60058E-14
 -1       408 7.41802E-03-2.54169E-03-3.88715E-14
 -1       409 7.70429E-03-2.71294E-03-4.18196E-14
 -1       410 7.99036E-03-2.88444E-03-4.48434E-14
 -1       411 8.27628E-03-3.05616E-03-4.79490E-14
 -1       412 8.56210E-03-3.22811E-03-5.11374E-14
 -1       413 8.84784E-03-3.40024E-03-5.44071E-14
 -1       414 9.13354E-03-3.57254E-03-5.77523E-14
 -1       415 9.41921E-03-3.74496E-03-6.11664E-14
 -1       416 9.70487E-03-3.91749E-03-6.46436E-14
 -1       417 9.99052E-03-4.09011E-03-6.81824E-14
 -1       418 1.02762E-02-4.26278E-03-7.17743E-14
 -1       419 1.05618E-02-4.43550E-03-7.54199E-14
 -1       420 1.08475E-02-4.60825E-03-7.91123E-14
 -1       421 1.11332E-02-4.78103E-03-8.28430E-14
 -1       422 1.14188E-02-4.95382E-03-8.66089E-14
 -1       423 1.17045E-02-5.12663E-03-9.04187E-14
 -1       424 1.19902E-02-5.29944E-03-9.42625E-14
 -1       425 1.22759E-02-5.47225E-03-9.81275E-14
 -1       426 1.25616E-02-5.64506E-03-1.02011E-13
 -1       427 1.28473E-02-5.81788E-03-1.05921E-13
 -1       428 1.31330E-02-5.99069E-03-1.09859E-13
 -1       429 1.34187E-02-6.16350E-03-1.13824E-13
 -1       430 1.36478E-02-6.30316E-03-1.17144E-13
 -1       431 1.40542E-02-6.50389E-03-1.17722E-13
 -1       432 1.38843E-02-6.41960E-03-1.17434E-13
 -1       433 1.42212E-02-6.58676E-03-1.18009E-13
 -1       434 1.43912E-02-6.67105E-03-1.18296E-13
 -1       435 1.45611E-02-6.75535E-03-1.18576E-13
 -1       436 1.47310E-02-6.83964E-03-1.18853E-13
 -1       437 1.49009E-02-6.92394E-03-1.19128E-13
 -1       438 1.50709E-02-7.00824E-03-1.19388E-13
 -1       439 1.52379E-02-7.09111E-03-1.19628E-13
 -1       440 1.54078E-02-7.17540E-03-1.19853E-13
 -1       441 1.55778E-02-7.25969E-03-1.20061E-13
 -1       442 1.57477E-02-7.34398E-03-1.20255E-13
 -1       443 1.06118E-03 4.75363E-04-4.49869E-16
 -1       444 5.15177E-03-9.47124E-04-7.21208E-15
 -1       445 4.25717E-03-5.32533E-04-6.13660E-15
 -1       446 5.67492E-03-1.12703E-03-7.64441E-15
 -1       447 3.19127E-03-2.04617E-03-2.63209E-15
 -1       448 3.49917E-04-1.06982E-04-1.47255E-16
 -1       449 3.58805E-03-2.21355E-03-3.35063E-15
 -1       450 3.90122E-03-3.21028E-04-5.53081E-15
 -1       451 3.45318E-03-7.86522E-05-4.78977E-15
 -1       452 3.11299E-03 7.08332E-05-4.13173E-15
 -1       453 2.77357E-03 1.43002E-04-3.48874E-15
 -1       454 2.40623E-03 1.11899E-04-2.84014E-15
 -1       455 2.13175E-03 3.00000E-05-2.45073E-15
 -1       456 1.74569E-03-1.15347E-04-2.02524E-15
 -1       457 1.42978E-03-2.36132E-04-1.74297E-15
 -1       458 1.09092E-03-3.53943E-04-1.43432E-15
 -1       459 7.97079E-04-4.36159E-04-1.27261E-15
 -1       460 7.30736E-04-4.68420E-04-1.23610E-15
 -1       461 7.73539E-04-4.99266E-04-1.20053E-15
 -1       462 1.05769E-03-6.04092E-04-1.25132E-15
 -1       463 1.36920E-03-7.52645E-04-1.36039E-15
 -1       464 1.88758E-03-1.06476E-03-1.59138E-15
 -1       465 2.33672E-03-1.39786E-03-1.87128E-15
 -1       466 2.86881E-03-1.84247E-03-2.37837E-15
 -1       467 4.46677E-03-1.84660E-03-5.02694E-15
 -1       468 4.85987E-03-1.60054E-03-5.74136E-15
 -1       469 5.24209E-03-1.38670E-03-6.44051E-15
 -1       470 5.55781E-03-1.23526E-03-7.04819E-15
 -1       471 5.68375E-03-1.17111E-03-7.34670E-15
 -1       472 5.43675E-03-1.04249E-03-7.43552E-15
 -1       473 1.58494E-02-7.39182E-03-1.20040E-13
 -1       474 9.06956E-04-3.92883E-04-1.21492E-15
 -1       475 8.84037E-04-4.80068E-04-1.06715E-15
 -1       476 5.02055E-04-1.95234E-04-3.36577E-16
 -1       477 4.54053E-04-1.98340E-04-3.26982E-16
 -1       478 6.62341E-04-1.09828E-04-3.63469E-16
 -1       479 7.09870E-04-3.88910E-05-3.62601E-16
 -1       480 7.33610E-04 3.38478E-05-3.57377E-16
 -1       481 7.40233E-04 1.05545E-04-3.46094E-16
 -1       482 7.37162E-04 1.73709E-04-3.26931E-16
 -1       483 7.32549E-04 2.40001E-04-2.96584E-16
 -1       484 7.35837E-04 3.08216E-04-2.51515E-16
 -1       485 7.81713E-04 3.61101E-04-2.44122E-16
 -1       486 4.51502E-03-7.45436E-04-7.09355E-15
 -1       487 9.40853E-04-3.27000E-04-5.22894E-16
 -1       488 1.21202E-03-4.99040E-04-8.67826E-16
 -1       489 6.69313E-04-2.04604E-04-2.93019E-16
 -1       490 5.61882E-03-1.34610E-03-8.85960E-15
 -1       491 5.91132E-03-1.41204E-03-1.05301E-14
 -1       492 6.19478E-03-1.53309E-03-1.22975E-14
 -1       493 6.47868E-03-1.68484E-03-1.41648E-14
 -1       494 6.76508E-03-1.85307E-03-1.61318E-14
 -1       495 7.05346E-03-2.02941E-03-1.82011E-14
 -1       496 7.34279E-03-2.20919E-03-2.03700E-14
 -1       497 7.63228E-03-2.38992E-03-2.26352E-14
 -1       498 7.92146E-03-2.57037E-03-2.49951E-14
 -1       499 8.21013E-03-2.75001E-03-2.74537E-14
 -1       500 8.51261E-03-2.93759E-03-3.01426E-14
 -1       501 8.80014E-03-3.11525E-03-3.28028E-14
 -1       502 9.08722E-03-3.29203E-03-3.55573E-14
 -1       503 9.37393E-03-3.46805E-03-3.84102E-14
 -1       504 9.66034E-03-3.64341E-03-4.13564E-14
 -1       505 9.94653E-03-3.81823E-03-4.43820E-14
 -1       506 1.02326E-02-3.99261E-03-4.74766E-14
 -1       507 1.05185E-02-4.16662E-03-5.06455E-14
 -1       508 1.08043E-02-4.34035E-03-5.38755E-14
 -1       509 1.10900E-02-4.51384E-03-5.71667E-14
 -1       510 1.13758E-02-4.68716E-03-6.05240E-14
 -1       511 1.16615E-02-4.86033E-03-6.39396E-14
 -1       512 1.19472E-02-5.03340E-03-6.74257E-14
 -1       513 1.22328E-02-5.20638E-03-7.09782E-14
 -1       514 1.25185E-02-5.37931E-03-7.46037E-14
 -1       515 1.28042E-02-5.55219E-03-7.82872E-14
 -1       516 1.30899E-02-5.72505E-03-8.20278E-14
 -1       517 1.33756E-02-5.89788E-03-8.58166E-14
 -1       518 1.36613E-02-6.07069E-03-8.96600E-14
 -1       519 1.39470E-02-6.24350E-03-9.35481E-14
 -1       520 1.42327E-02-6.41630E-03-9.74740E-14
 -1       521 1.45184E-02-6.58910E-03-1.01434E-13
 -1       522 1.48041E-02-6.76190E-03-1.05420E-13
 -1       523 1.50898E-02-6.93470E-03-1.09447E-13
 -1       524 1.53755E-02-7.10750E-03-1.13510E-13
 -1       525 1.56125E-02-7.24966E-03-1.16763E-13
 -1       526 1.99155E-03 4.85143E-04-2.25966E-15
 -1       527 1.71299E-03 4.91766E-04-1.60227E-15
 -1       528 1.42837E-03 4.67290E-04-1.06662E-15
 -1       529 2.26564E-03 4.43461E-04-3.04464E-15
 -1       530 2.53802E-03 3.64939E-04-3.95956E-15
 -1       531 2.81183E-03 2.51441E-04-5.00501E-15
 -1       532 3.08946E-03 1.08474E-04-6.17982E-15
 -1       533 3.37199E-03-5.61713E-05-7.48177E-15
 -1       534 3.65906E-03-2.34349E-04-8.90937E-15
 -1       535 3.94945E-03-4.19130E-04-1.04620E-14
 -1       536 4.24170E-03-6.05545E-04-1.21331E-14
 -1       537 4.53454E-03-7.90608E-04-1.39193E-14
 -1       538 4.82710E-03-9.72923E-04-1.58179E-14
 -1       539 5.11888E-03-1.15216E-03-1.78277E-14
 -1       540 5.40970E-03-1.32861E-03-1.99515E-14
 -1       541 5.69954E-03-1.50283E-03-2.21833E-14
 -1       542 5.98850E-03-1.67545E-03-2.45220E-14
 -1       543 6.27671E-03-1.84702E-03-2.69640E-14
 -1       544 6.56430E-03-2.01801E-03-2.95078E-14
 -1       545 6.85140E-03-2.18876E-03-3.21461E-14
 -1       546 7.13811E-03-2.35951E-03-3.48763E-14
 -1       547 7.42454E-03-2.53039E-03-3.76944E-14
 -1       548 7.71074E-03-2.70150E-03-4.06018E-14
 -1       549 7.99678E-03-2.87285E-03-4.35906E-14
 -1       550 8.28271E-03-3.04445E-03-4.66537E-14
 -1       551 8.56854E-03-3.21629E-03-4.97997E-14
 -1       552 8.85432E-03-3.38834E-03-5.30274E-14
 -1       553 9.14006E-03-3.56056E-03-5.63339E-14
 -1       554 9.42577E-03-3.73293E-03-5.97127E-14
 -1       555 9.71147E-03-3.90542E-03-6.31577E-14
 -1       556 9.99716E-03-4.07800E-03-6.66598E-14
 -1       557 1.02828E-02-4.25065E-03-7.02208E-14
 -1       558 1.05685E-02-4.42335E-03-7.38349E-14
 -1       559 1.08542E-02-4.59609E-03-7.74973E-14
 -1       560 1.11399E-02-4.76886E-03-8.12075E-14
 -1       561 1.14256E-02-4.94165E-03-8.49589E-14
 -1       562 1.17113E-02-5.11445E-03-8.87522E-14
 -1       563 1.19970E-02-5.28726E-03-9.25792E-14
 -1       564 1.22827E-02-5.46007E-03-9.64365E-14
 -1       565 1.25684E-02-5.63288E-03-1.00311E-13
 -1       566 1.28541E-02-5.80570E-03-1.04206E-13
 -1       567 1.31398E-02-5.97851E-03-1.08128E-13
 -1       568 1.34255E-02-6.15132E-03-1.12079E-13
 -1       569 1.40588E-02-6.47925E-03-1.14681E-13
 -1       570 1.38917E-02-6.39639E-03-1.14403E-13
 -1       571 1.37218E-02-6.31210E-03-1.14120E-13
 -1       572 5.59635E-03-1.15572E-03-8.51312E-15
 -1       573 1.42287E-02-6.56355E-03-1.14957E-13
 -1       574 1.43986E-02-6.64785E-03-1.15228E-13
 -1       575 1.45685E-02-6.73214E-03-1.15489E-13
 -1       576 1.47385E-02-6.81644E-03-1.15744E-13
 -1       577 1.49055E-02-6.89931E-03-1.15975E-13
 -1       578 1.50754E-02-6.98360E-03-1.16190E-13
 -1       579 1.52454E-02-7.06790E-03-1.16401E-13
 -1       580 1.54153E-02-7.15219E-03-1.16595E-13
 -1       581 3.62113E-03-2.25615E-04-5.50373E-15
 -1       582 3.92745E-03-4.14042E-04-6.10363E-15
 -1       583 5.44391E-03-1.29573E-03-7.38857E-15
 -1       584 7.08194E-04-4.15498E-04-9.87472E-16
 -1       585 1.27154E-03-2.83578E-04-1.41827E-15
 -1       586 2.54408E-03 1.62684E-04-3.09539E-15
 -1       587 4.87719E-03-9.14827E-04-7.60822E-15
 -1       588 5.74120E-03-1.18719E-03-8.36751E-15
 -1       589 5.92623E-04-1.67592E-04-3.60633E-16
 -1       590 3.21280E-03 6.75446E-06-4.61218E-15
 -1       591 2.92439E-03 1.22340E-04-3.92596E-15
 -1       592 2.21770E-03 8.40968E-05-2.48074E-15
 -1       593 1.90939E-03-3.84277E-05-2.06005E-15
 -1       594 1.53811E-03-1.89166E-04-1.66058E-15
 -1       595 7.14747E-04-4.09846E-04-1.01587E-15
 -1       596 1.65326E-03-7.92904E-04-1.23134E-15
 -1       597 5.07302E-03-1.47388E-03-6.62917E-15
 -1       598 5.69288E-03-1.20627E-03-8.05433E-15
 -1       599 5.31361E-03-1.07413E-03-8.13017E-15
 -1       600 4.64411E-04-1.84802E-04-3.11979E-16
 -1       601 4.21122E-03-6.15635E-04-7.03807E-15
 -1       602 1.01491E-03 4.21642E-04-4.65130E-16
 -1       603 5.74448E-03-1.21881E-03-9.25234E-15
 -1       604 1.22048E-03 4.51208E-04-7.34557E-16
 -1       605 1.15549E-03-5.45372E-04-1.05658E-15
 -1       606 7.48784E-04-3.84980E-04-8.61566E-16
 -1       607 1.05618E-03-3.33885E-04-1.19568E-15
 -1       608 7.61915E-04-3.77236E-04-9.56573E-16
 -1       609 1.00007E-03 1.73120E-05-6.30985E-16
 -1       610 9.55775E-04-7.75752E-05-6.32795E-16
 -1       611 1.00981E-03 1.89151E-04-5.99686E-16
 -1       612 9.99095E-04 2.67547E-04-5.64727E-16
 -1       613 9.73983E-04 3.68431E-04-4.70310E-16
 -1       614 9.46474E-04-3.96107E-04-7.78071E-16
 -1       615 5.83100E-03-1.31221E-03-9.75425E-15
 -1       616 6.86647E-04-2.56048E-04-4.72634E-16
 -1       617 1.34361E-02-6.13929E-03-1.10156E-13
 -1       618 1.37278E-02-6.28817E-03-1.11097E-13
 -1       619 6.05755E-03-1.42145E-03-1.14687E-14
 -1       620 6.29948E-03-1.56107E-03-1.32803E-14
 -1       621 6.55582E-03-1.71933E-03-1.51904E-14
 -1       622 6.82325E-03-1.88854E-03-1.72021E-14
 -1       623 7.09833E-03-2.06368E-03-1.93170E-14
 -1       624 7.37831E-03-2.24161E-03-2.15322E-14
 -1       625 7.66124E-03-2.42050E-03-2.38382E-14
 -1       626 7.94584E-03-2.59937E-03-2.62404E-14
 -1       627 8.24562E-03-2.78662E-03-2.88740E-14
 -1       628 8.53155E-03-2.96423E-03-3.14816E-14
 -1       629 8.81763E-03-3.14109E-03-3.41843E-14
 -1       630 9.10372E-03-3.31725E-03-3.69810E-14
 -1       631 9.38978E-03-3.49277E-03-3.98732E-14
 -1       632 9.67577E-03-3.66775E-03-4.28523E-14
 -1       633 9.96170E-03-3.84227E-03-4.59047E-14
 -1       634 1.02476E-02-4.01641E-03-4.90286E-14
 -1       635 1.05334E-02-4.19023E-03-5.22214E-14
 -1       636 1.08192E-02-4.36381E-03-5.54747E-14
 -1       637 1.11049E-02-4.53719E-03-5.87959E-14
 -1       638 1.13907E-02-4.71042E-03-6.21774E-14
 -1       639 1.16764E-02-4.88353E-03-6.56249E-14
 -1       640 1.19621E-02-5.05655E-03-6.91451E-14
 -1       641 1.22478E-02-5.22950E-03-7.27312E-14
 -1       642 1.25335E-02-5.40240E-03-7.63813E-14
 -1       643 1.28192E-02-5.57526E-03-8.00916E-14
 -1       644 1.31049E-02-5.74810E-03-8.38482E-14
 -1       645 1.33906E-02-5.92092E-03-8.76596E-14
 -1       646 1.36763E-02-6.09373E-03-9.15185E-14
 -1       647 1.39620E-02-6.26653E-03-9.54215E-14
 -1       648 1.42477E-02-6.43933E-03-9.93572E-14
 -1       649 1.45335E-02-6.61213E-03-1.03318E-13
 -1       650 1.48192E-02-6.78493E-03-1.07316E-13
 -1       651 1.51049E-02-6.95773E-03-1.11353E-13
 -1       652 1.89073E-03 4.27513E-04-2.01485E-15
 -1       653 2.18007E-03 4.07241E-04-2.74894E-15
 -1       654 1.59558E-03 4.14153E-04-1.40537E-15
 -1       655 2.75082E-03 2.49291E-04-4.60401E-15
 -1       656 3.03922E-03 1.15280E-04-5.72793E-15
 -1       657 3.33250E-03-4.52876E-05-6.98069E-15
 -1       658 3.63030E-03-2.22492E-04-8.35924E-15
 -1       659 3.93079E-03-4.07701E-04-9.86255E-15
 -1       660 4.23178E-03-5.94852E-04-1.14855E-14
 -1       661 4.53156E-03-7.80454E-04-1.32243E-14
 -1       662 4.82915E-03-9.63003E-04-1.50734E-14
 -1       663 5.12425E-03-1.14224E-03-1.70354E-14
 -1       664 5.41701E-03-1.31854E-03-1.91105E-14
 -1       665 5.70779E-03-1.49254E-03-2.12938E-14
 -1       666 5.99704E-03-1.66493E-03-2.35841E-14
 -1       667 6.28515E-03-1.83629E-03-2.59775E-14
 -1       668 6.57245E-03-2.00708E-03-2.84716E-14
 -1       669 6.85920E-03-2.17765E-03-3.10634E-14
 -1       670 7.14558E-03-2.34823E-03-3.37473E-14
 -1       671 7.43171E-03-2.51896E-03-3.65215E-14
 -1       672 7.71769E-03-2.68994E-03-3.93837E-14
 -1       673 8.00357E-03-2.86118E-03-4.23327E-14
 -1       674 8.28938E-03-3.03268E-03-4.53597E-14
 -1       675 8.57516E-03-3.20444E-03-4.84665E-14
 -1       676 8.86090E-03-3.37641E-03-5.16538E-14
 -1       677 9.14664E-03-3.54858E-03-5.49193E-14
 -1       678 9.43236E-03-3.72090E-03-5.82641E-14
 -1       679 9.71808E-03-3.89335E-03-6.16737E-14
 -1       680 1.00038E-02-4.06590E-03-6.51421E-14
 -1       681 1.02895E-02-4.23853E-03-6.86724E-14
 -1       682 1.05752E-02-4.41121E-03-7.22553E-14
 -1       683 1.08609E-02-4.58394E-03-7.58867E-14
 -1       684 1.11466E-02-4.75670E-03-7.95746E-14
 -1       685 1.14323E-02-4.92948E-03-8.33071E-14
 -1       686 1.17180E-02-5.10228E-03-8.70832E-14
 -1       687 1.20038E-02-5.27508E-03-9.08975E-14
 -1       688 1.22895E-02-5.44789E-03-9.47408E-14
 -1       689 1.25752E-02-5.62071E-03-9.86078E-14
 -1       690 1.28609E-02-5.79352E-03-1.02497E-13
 -1       691 1.31485E-02-5.96641E-03-1.06310E-13
 -1       692 1.40662E-02-6.45604E-03-1.11633E-13
 -1       693 1.38970E-02-6.37211E-03-1.11366E-13
 -1       694 2.46558E-03 3.48124E-04-3.61104E-15
 -1       695 1.44061E-02-6.62464E-03-1.12129E-13
 -1       696 1.45731E-02-6.70751E-03-1.12356E-13
 -1       697 1.47430E-02-6.79181E-03-1.12573E-13
 -1       698 1.49130E-02-6.87610E-03-1.12773E-13
 -1       699 1.50829E-02-6.96039E-03-1.12968E-13
 -1       700 5.65323E-03-1.27014E-03-8.51227E-15
 -1       701 8.71535E-04-1.70403E-04-6.27811E-16
 -1       702 3.74948E-03-3.41050E-04-6.18126E-15
 -1       703 1.42361E-02-6.54034E-03-1.11886E-13
 -1       704 5.48378E-03-1.17074E-03-9.17754E-15
 -1       705 7.36316E-04-2.40072E-04-5.93387E-16
 -1       706 1.65282E-03-8.73071E-05-1.62353E-15
 -1       707 5.12584E-03-1.05713E-03-8.66726E-15
 -1       708 1.01385E-03 1.06502E-04-6.20699E-16
 -1       709 6.23925E-04-2.77649E-04-5.78191E-16
 -1       710 2.71673E-03 1.67229E-04-3.60146E-15
 -1       711 2.96382E-03 9.80027E-05-4.24721E-15
 -1       712 1.93247E-03 2.72638E-05-1.98383E-15
 -1       713 1.42300E-03-1.79515E-04-1.38631E-15
 -1       714 6.54427E-04-3.51276E-04-7.86004E-16
 -1       715 2.28899E-03 1.45603E-04-2.59633E-15
 -1       716 3.37880E-03-1.12073E-04-5.31921E-15
 -1       717 4.70301E-03-8.81301E-04-8.03674E-15
 -1       718 5.78817E-03-1.23990E-03-9.07627E-15
 -1       719 1.25763E-03 3.80225E-04-8.53636E-16
 -1       720 5.68963E-03-1.24373E-03-9.93613E-15
 -1       721 8.56229E-04-3.38229E-04-9.33352E-16
 -1       722 6.55782E-04-3.29914E-04-7.30552E-16
 -1       723 1.20719E-03-2.40941E-04-1.16435E-15
 -1       724 2.46916E-03 1.93700E-04-3.04554E-15
 -1       725 5.51914E-04-2.59998E-04-5.02931E-16
 -1       726 1.27724E-03 2.78319E-04-9.19939E-16
 -1       727 1.39037E-02-6.34854E-03-1.08316E-13
 -1       728 2.00242E-03 1.25035E-04-2.06984E-15
 -1       729 6.13212E-03-1.45475E-03-1.24130E-14
 -1       730 6.35431E-03-1.59897E-03-1.42675E-14
 -1       731 6.59752E-03-1.75678E-03-1.62218E-14
 -1       732 6.85541E-03-1.92354E-03-1.82805E-14
 -1       733 7.12331E-03-2.09570E-03-2.04411E-14
 -1       734 7.39785E-03-2.27083E-03-2.26968E-14
 -1       735 7.67670E-03-2.44732E-03-2.50447E-14
 -1       736 7.97242E-03-2.63311E-03-2.76172E-14
 -1       737 8.25576E-03-2.80992E-03-3.01722E-14
 -1       738 8.54012E-03-2.98636E-03-3.28210E-14
 -1       739 8.82509E-03-3.16232E-03-3.55643E-14
 -1       740 9.11041E-03-3.33778E-03-3.84021E-14
 -1       741 9.39593E-03-3.51276E-03-4.13290E-14
 -1       742 9.68157E-03-3.68732E-03-4.43383E-14
 -1       743 9.96726E-03-3.86151E-03-4.74174E-14
 -1       744 1.02530E-02-4.03540E-03-5.05689E-14
 -1       745 1.05387E-02-4.20903E-03-5.37865E-14
 -1       746 1.08245E-02-4.38246E-03-5.70710E-14
 -1       747 1.11102E-02-4.55573E-03-6.04196E-14
 -1       748 1.13959E-02-4.72887E-03-6.38314E-14
 -1       749 1.16817E-02-4.90192E-03-6.73166E-14
 -1       750 1.19674E-02-5.07489E-03-7.08680E-14
 -1       751 1.22531E-02-5.24780E-03-7.44814E-14
 -1       752 1.25389E-02-5.42068E-03-7.81561E-14
 -1       753 1.28246E-02-5.59352E-03-8.18854E-14
 -1       754 1.31103E-02-5.76635E-03-8.56617E-14
 -1       755 1.33960E-02-5.93917E-03-8.94894E-14
 -1       756 1.36817E-02-6.11197E-03-9.33657E-14
 -1       757 1.39675E-02-6.28477E-03-9.72782E-14
 -1       758 1.42532E-02-6.45757E-03-1.01219E-13
 -1       759 1.45389E-02-6.63037E-03-1.05186E-13
 -1       760 1.48109E-02-6.79538E-03-1.09060E-13
 -1       761 1.44106E-02-6.60001E-03-1.08987E-13
 -1       762 2.08480E-03 3.61443E-04-2.44701E-15
 -1       763 1.78018E-03 3.58027E-04-1.76472E-15
 -1       764 3.28147E-03-3.50013E-05-6.46963E-15
 -1       765 2.97754E-03 1.22168E-04-5.26691E-15
 -1       766 3.90361E-03-4.00323E-04-9.25607E-15
 -1       767 4.21569E-03-5.89036E-04-1.08307E-14
 -1       768 4.52464E-03-7.75118E-04-1.25226E-14
 -1       769 4.82911E-03-9.57225E-04-1.43274E-14
 -1       770 5.12890E-03-1.13550E-03-1.62424E-14
 -1       771 5.42451E-03-1.31068E-03-1.82685E-14
 -1       772 5.71679E-03-1.48365E-03-2.04045E-14
 -1       773 6.00660E-03-1.65517E-03-2.26485E-14
 -1       774 6.29469E-03-1.82586E-03-2.49933E-14
 -1       775 6.58167E-03-1.99617E-03-2.74398E-14
 -1       776 6.86796E-03-2.16640E-03-2.99842E-14
 -1       777 7.15386E-03-2.33674E-03-3.26213E-14
 -1       778 7.43956E-03-2.50732E-03-3.53484E-14
 -1       779 7.72517E-03-2.67817E-03-3.81684E-14
 -1       780 8.01076E-03-2.84933E-03-4.10755E-14
 -1       781 8.29636E-03-3.02077E-03-4.40635E-14
 -1       782 8.58199E-03-3.19248E-03-4.71338E-14
 -1       783 8.86764E-03-3.36441E-03-5.02829E-14
 -1       784 9.15331E-03-3.53654E-03-5.35097E-14
 -1       785 9.43901E-03-3.70884E-03-5.68139E-14
 -1       786 9.72471E-03-3.88126E-03-6.01884E-14
 -1       787 1.00104E-02-4.05379E-03-6.36263E-14
 -1       788 1.02962E-02-4.22640E-03-6.71278E-14
 -1       789 1.05819E-02-4.39908E-03-7.06817E-14
 -1       790 1.08676E-02-4.57179E-03-7.42859E-14
 -1       791 1.11533E-02-4.74454E-03-7.79462E-14
 -1       792 1.14391E-02-4.91732E-03-8.16605E-14
 -1       793 1.17248E-02-5.09011E-03-8.54174E-14
 -1       794 1.20105E-02-5.26291E-03-8.92131E-14
 -1       795 1.22962E-02-5.43572E-03-9.30455E-14
 -1       796 1.25819E-02-5.60854E-03-9.69059E-14
 -1       797 1.28677E-02-5.78135E-03-1.00785E-13
 -1       798 1.40737E-02-6.43284E-03-1.08553E-13
 -1       799 5.94080E-03-1.33119E-03-1.06535E-14
 -1       800 1.20289E-03-1.19200E-04-9.71672E-16
 -1       801 1.45806E-02-6.68431E-03-1.09187E-13
 -1       802 1.42421E-02-6.51643E-03-1.08777E-13
 -1       803 1.46957E-02-6.73985E-03-1.09127E-13
 -1       804 1.41369E-03-9.52581E-05-1.24264E-15
 -1       805 1.34402E-02-6.11529E-03-1.07242E-13
 -1       806 3.56762E-03-2.44417E-04-6.18271E-15
 -1       807 3.14887E-03 2.55689E-06-4.98845E-15
 -1       808 2.79977E-03 1.50456E-04-4.00427E-15
 -1       809 5.35719E-03-1.16965E-03-9.84945E-15
 -1       810 1.66620E-03-2.64155E-06-1.54975E-15
 -1       811 1.41278E-03 3.25144E-04-1.11315E-15
 -1       812 3.59105E-03-2.13049E-04-7.80078E-15
 -1       813 4.43892E-03-7.66590E-04-8.11761E-15
 -1       814 4.00596E-03-5.16554E-04-7.18843E-15
 -1       815 1.27620E-03-3.72220E-06-9.78384E-16
 -1       816 5.88471E-03-1.29626E-03-1.02937E-14
 -1       817 4.96677E-03-1.02519E-03-9.26467E-15
 -1       818 5.60179E-03-1.25808E-03-1.06329E-14
 -1       819 2.18402E-03 2.01077E-04-2.45518E-15
 -1       820 2.38331E-03 3.26049E-04-3.25581E-15
 -1       821 5.88767E-03-1.32790E-03-1.10049E-14
 -1       822 2.67924E-03 2.45620E-04-4.19538E-15
 -1       823 1.29507E-03 1.93310E-04-9.55277E-16
 -1       824 1.31539E-02-5.94832E-03-1.04006E-13
 -1       825 1.37345E-02-6.26460E-03-1.08070E-13
 -1       826 2.56277E-03 2.08427E-04-3.40456E-15
 -1       827 1.30005E-03 1.00518E-04-9.73515E-16
 -1       828 6.36174E-03-1.63530E-03-1.52550E-14
 -1       829 6.60438E-03-1.79008E-03-1.72553E-14
 -1       830 6.86072E-03-1.95335E-03-1.93605E-14
 -1       831 7.12662E-03-2.12215E-03-2.15640E-14
 -1       832 7.39912E-03-2.29430E-03-2.38594E-14
 -1       833 7.69004E-03-2.47707E-03-2.63751E-14
 -1       834 7.97014E-03-2.65205E-03-2.88723E-14
 -1       835 8.25222E-03-2.82731E-03-3.14681E-14
 -1       836 8.53558E-03-3.00254E-03-3.41573E-14
 -1       837 8.81980E-03-3.17756E-03-3.69387E-14
 -1       838 9.10457E-03-3.35228E-03-3.98142E-14
 -1       839 9.38970E-03-3.52670E-03-4.27754E-14
 -1       840 9.67506E-03-3.70082E-03-4.58085E-14
 -1       841 9.96057E-03-3.87467E-03-4.89142E-14
 -1       842 1.02462E-02-4.04830E-03-5.20977E-14
 -1       843 1.05318E-02-4.22173E-03-5.53465E-14
 -1       844 1.08176E-02-4.39501E-03-5.86594E-14
 -1       845 1.11033E-02-4.56816E-03-6.20380E-14
 -1       846 1.13890E-02-4.74122E-03-6.54869E-14
 -1       847 1.16748E-02-4.91420E-03-6.90045E-14
 -1       848 1.19605E-02-5.08713E-03-7.25845E-14
 -1       849 1.22462E-02-5.26001E-03-7.62233E-14
 -1       850 1.25320E-02-5.43287E-03-7.99217E-14
 -1       851 1.28177E-02-5.60570E-03-8.36680E-14
 -1       852 1.31035E-02-5.77852E-03-8.74640E-14
 -1       853 1.33892E-02-5.95133E-03-9.13050E-14
 -1       854 1.36749E-02-6.12414E-03-9.51917E-14
 -1       855 1.39606E-02-6.29694E-03-9.91080E-14
 -1       856 1.42464E-02-6.46974E-03-1.03052E-13
 -1       857 1.44711E-02-6.60479E-03-1.06077E-13
 -1       858 4.72828E-03-9.25375E-04-9.50263E-15
 -1       859 4.51636E-03-7.75756E-04-1.18158E-14
 -1       860 4.19624E-03-5.88598E-04-1.01699E-14
 -1       861 5.13441E-03-1.13312E-03-1.54452E-14
 -1       862 5.43331E-03-1.30597E-03-1.74255E-14
 -1       863 5.72722E-03-1.47680E-03-1.95144E-14
 -1       864 6.01758E-03-1.64658E-03-2.17117E-14
 -1       865 6.30555E-03-1.81598E-03-2.40116E-14
 -1       866 6.59205E-03-1.98538E-03-2.64105E-14
 -1       867 6.87772E-03-2.15502E-03-2.89081E-14
 -1       868 7.16297E-03-2.32501E-03-3.15000E-14
 -1       869 7.44808E-03-2.49537E-03-3.41809E-14
 -1       870 7.73319E-03-2.66612E-03-3.69539E-14
 -1       871 8.01837E-03-2.83722E-03-3.98181E-14
 -1       872 8.30366E-03-3.00864E-03-4.27688E-14
 -1       873 8.58905E-03-3.18034E-03-4.58009E-14
 -1       874 8.87454E-03-3.35228E-03-4.89132E-14
 -1       875 9.16011E-03-3.52441E-03-5.21013E-14
 -1       876 9.44573E-03-3.69671E-03-5.53689E-14
 -1       877 9.73140E-03-3.86913E-03-5.87046E-14
 -1       878 1.00171E-02-4.04166E-03-6.21113E-14
 -1       879 1.03028E-02-4.21427E-03-6.55834E-14
 -1       880 1.05886E-02-4.38693E-03-6.91104E-14
 -1       881 1.08743E-02-4.55965E-03-7.26927E-14
 -1       882 1.11600E-02-4.73239E-03-7.63241E-14
 -1       883 1.14458E-02-4.90516E-03-8.00132E-14
 -1       884 1.17315E-02-5.07795E-03-8.37506E-14
 -1       885 1.20172E-02-5.25075E-03-8.75302E-14
 -1       886 1.23030E-02-5.42356E-03-9.13451E-14
 -1       887 1.25887E-02-5.59637E-03-9.51970E-14
 -1       888 1.28744E-02-5.76918E-03-9.90674E-14
 -1       889 1.37413E-02-6.24104E-03-1.05010E-13
 -1       890 3.33849E-03-1.05931E-04-5.85827E-15
 -1       891 1.42482E-02-6.49251E-03-1.05630E-13
 -1       892 4.82910E-03-9.56886E-04-1.35750E-14
 -1       893 3.22198E-03-2.18495E-05-5.95005E-15
 -1       894 1.97802E-03 3.02345E-04-2.14307E-15
 -1       895 6.13852E-03-1.49245E-03-1.33579E-14
 -1       896 2.96475E-03 9.01785E-05-4.68146E-15
 -1       897 4.26392E-03-6.73287E-04-8.31923E-15
 -1       898 3.84908E-03-4.21551E-04-7.31549E-15
 -1       899 5.25893E-03-1.16266E-03-1.06640E-14
 -1       900 5.97189E-03-1.36342E-03-1.13792E-14
 -1       901 1.64202E-03 1.04735E-04-1.46973E-15
 -1       902 5.51968E-03-1.26633E-03-1.14780E-14
 -1       903 1.82553E-03 1.93670E-04-1.78069E-15
 -1       904 5.85023E-03-1.35508E-03-1.17329E-14
 -1       905 2.90743E-03 1.32009E-04-4.79849E-15
 -1       906 1.34483E-02-6.09763E-03-1.04821E-13
 -1       907 3.87094E-03-3.96338E-04-8.64121E-15
 -1       908 1.39097E-02-6.32463E-03-1.05230E-13
 -1       909 1.40797E-02-6.40893E-03-1.05435E-13
 -1       910 1.35947E-02-6.16934E-03-1.04920E-13
 -1       911 2.73072E-03 1.82296E-04-4.01770E-15
 -1       912 2.29200E-03 2.96033E-04-2.89624E-15
 -1       913 1.60719E-03 2.72140E-04-1.42909E-15
 -1       914 3.54415E-03-2.03540E-04-7.23315E-15
 -1       915 1.45257E-03 2.34151E-04-1.17940E-15
 -1       916 6.59317E-03-1.81854E-03-1.82875E-14
 -1       917 6.85355E-03-1.97962E-03-2.04374E-14
 -1       918 7.12134E-03-2.14611E-03-2.26818E-14
 -1       919 7.40828E-03-2.32467E-03-2.51398E-14
 -1       920 7.68544E-03-2.49688E-03-2.75830E-14
 -1       921 7.96526E-03-2.67027E-03-3.01251E-14
 -1       922 8.24694E-03-2.84422E-03-3.27581E-14
 -1       923 8.52992E-03-3.01840E-03-3.54838E-14
 -1       924 8.81380E-03-3.19257E-03-3.83081E-14
 -1       925 9.09829E-03-3.36662E-03-4.12198E-14
 -1       926 9.38321E-03-3.54051E-03-4.42068E-14
 -1       927 9.66842E-03-3.71422E-03-4.72681E-14
 -1       928 9.95383E-03-3.88775E-03-5.04091E-14
 -1       929 1.02394E-02-4.06113E-03-5.36222E-14
 -1       930 1.05250E-02-4.23437E-03-5.69015E-14
 -1       931 1.08107E-02-4.40751E-03-6.02448E-14
 -1       932 1.10964E-02-4.58056E-03-6.36579E-14
 -1       933 1.13821E-02-4.75354E-03-6.71419E-14
 -1       934 1.16679E-02-4.92647E-03-7.06896E-14
 -1       935 1.19536E-02-5.09935E-03-7.43022E-14
 -1       936 1.22394E-02-5.27221E-03-7.79684E-14
 -1       937 1.25251E-02-5.44505E-03-8.16831E-14
 -1       938 1.28109E-02-5.61787E-03-8.54490E-14
 -1       939 1.30966E-02-5.79069E-03-8.92579E-14
 -1       940 1.33824E-02-5.96349E-03-9.31088E-14
 -1       941 1.36681E-02-6.13630E-03-9.69980E-14
 -1       942 1.39538E-02-6.30910E-03-1.00921E-13
 -1       943 4.51082E-03-7.83380E-04-1.11032E-14
 -1       944 5.74045E-03-1.47245E-03-1.86220E-14
 -1       945 5.44543E-03-1.30510E-03-1.65794E-14
 -1       946 6.31819E-03-1.80676E-03-2.30263E-14
 -1       947 6.60382E-03-1.97475E-03-2.53807E-14
 -1       948 6.88855E-03-2.14349E-03-2.78331E-14
 -1       949 7.17293E-03-2.31295E-03-3.03801E-14
 -1       950 7.45725E-03-2.48304E-03-3.30179E-14
 -1       951 7.74171E-03-2.65368E-03-3.57463E-14
 -1       952 8.02637E-03-2.82476E-03-3.85661E-14
 -1       953 8.31126E-03-2.99621E-03-4.14764E-14
 -1       954 8.59635E-03-3.16796E-03-4.44676E-14
 -1       955 8.88162E-03-3.33995E-03-4.75449E-14
 -1       956 9.16703E-03-3.51213E-03-5.06961E-14
 -1       957 9.45255E-03-3.68447E-03-5.39252E-14
 -1       958 9.73816E-03-3.85692E-03-5.72271E-14
 -1       959 1.00238E-02-4.02947E-03-6.05974E-14
 -1       960 1.03095E-02-4.20209E-03-6.40370E-14
 -1       961 1.05952E-02-4.37477E-03-6.75372E-14
 -1       962 1.08810E-02-4.54749E-03-7.10951E-14
 -1       963 1.11667E-02-4.72024E-03-7.47083E-14
 -1       964 1.14525E-02-4.89301E-03-7.83698E-14
 -1       965 1.17382E-02-5.06579E-03-8.20841E-14
 -1       966 1.20240E-02-5.23859E-03-8.58410E-14
 -1       967 1.23097E-02-5.41140E-03-8.96420E-14
 -1       968 1.25955E-02-5.58420E-03-9.34772E-14
 -1       969 1.28812E-02-5.75701E-03-9.73426E-14
 -1       970 2.28289E-03 2.55494E-04-2.77355E-15
 -1       971 6.10632E-03-1.52303E-03-1.42999E-14
 -1       972 6.03081E-03-1.63943E-03-2.07718E-14
 -1       973 2.59942E-03 2.40777E-04-3.78013E-15
 -1       974 1.55125E-03 1.71830E-04-1.32724E-15
 -1       975 4.52951E-03-8.18726E-04-9.64096E-15
 -1       976 5.96006E-03-1.39469E-03-1.21217E-14
 -1       977 3.63073E-03-2.75540E-04-7.08465E-15
 -1       978 5.07607E-03-1.09710E-03-1.11493E-14
 -1       979 6.34282E-03-1.66539E-03-1.62407E-14
 -1       980 4.12969E-03-5.85739E-04-8.55358E-15
 -1       981 5.34525E-03-1.21880E-03-1.19895E-14
 -1       982 5.80291E-03-1.38030E-03-1.26186E-14
 -1       983 4.83269E-03-9.63093E-04-1.28187E-14
 -1       984 4.17770E-03-5.93752E-04-9.50265E-15
 -1       985 5.14361E-03-1.13605E-03-1.46444E-14
 -1       986 1.32380E-02-5.96318E-03-1.01115E-13
 -1       987 1.37853E-02-6.22551E-03-1.00740E-13
 -1       988 1.33845E-02-6.03488E-03-1.01204E-13
 -1       989 1.35529E-02-6.11847E-03-1.01423E-13
 -1       990 5.65525E-03-1.35355E-03-1.31591E-14
 -1       991 5.75847E-03-1.47070E-03-1.77276E-14
 -1       992 6.83953E-03-2.00148E-03-2.15090E-14
 -1       993 7.12461E-03-2.17532E-03-2.39117E-14
 -1       994 7.39996E-03-2.34423E-03-2.63004E-14
 -1       995 7.67815E-03-2.51521E-03-2.87884E-14
 -1       996 7.95847E-03-2.68746E-03-3.13699E-14
 -1       997 8.24034E-03-2.86042E-03-3.40411E-14
 -1       998 8.52336E-03-3.03374E-03-3.68066E-14
 -1       999 8.80720E-03-3.20721E-03-3.96671E-14
 -1      1000 9.09163E-03-3.38069E-03-4.26115E-14
 -1      1001 9.37650E-03-3.55412E-03-4.56295E-14
 -1      1002 9.66166E-03-3.72746E-03-4.87286E-14
 -1      1003 9.94703E-03-3.90071E-03-5.19026E-14
 -1      1004 1.02325E-02-4.07387E-03-5.51447E-14
 -1      1005 1.05182E-02-4.24694E-03-5.84550E-14
 -1      1006 1.08038E-02-4.41996E-03-6.18304E-14
 -1      1007 1.10896E-02-4.59291E-03-6.52807E-14
 -1      1008 1.13753E-02-4.76582E-03-6.87990E-14
 -1      1009 1.16610E-02-4.93870E-03-7.23772E-14
 -1      1010 1.19468E-02-5.11156E-03-7.60179E-14
 -1      1011 1.22326E-02-5.28440E-03-7.97029E-14
 -1      1012 1.25183E-02-5.45722E-03-8.34377E-14
 -1      1013 1.28041E-02-5.63004E-03-8.72180E-14
 -1      1014 1.30898E-02-5.80284E-03-9.10382E-14
 -1      1015 1.33756E-02-5.97565E-03-9.48990E-14
 -1      1016 1.35804E-02-6.10058E-03-9.78115E-14
 -1      1017 4.41441E-03-7.42045E-04-1.00029E-14
 -1      1018 6.90060E-03-2.13167E-03-2.67557E-14
 -1      1019 6.61732E-03-1.96415E-03-2.43490E-14
 -1      1020 7.46703E-03-2.47021E-03-3.18571E-14
 -1      1021 7.75067E-03-2.64074E-03-3.45442E-14
 -1      1022 8.03470E-03-2.81185E-03-3.73197E-14
 -1      1023 8.31910E-03-2.98339E-03-4.01828E-14
 -1      1024 8.60383E-03-3.15526E-03-4.31366E-14
 -1      1025 8.88884E-03-3.32737E-03-4.61755E-14
 -1      1026 9.17406E-03-3.49966E-03-4.92917E-14
 -1      1027 9.45946E-03-3.67208E-03-5.24831E-14
 -1      1028 9.74498E-03-3.84461E-03-5.57506E-14
 -1      1029 1.00306E-02-4.01721E-03-5.90856E-14
 -1      1030 1.03163E-02-4.18987E-03-6.24901E-14
 -1      1031 1.06020E-02-4.36257E-03-6.59598E-14
 -1      1032 1.08877E-02-4.53531E-03-6.94942E-14
 -1      1033 1.11735E-02-4.70807E-03-7.30862E-14
 -1      1034 1.14592E-02-4.88085E-03-7.67268E-14
 -1      1035 1.17450E-02-5.05364E-03-8.04168E-14
 -1      1036 1.20307E-02-5.22643E-03-8.41524E-14
 -1      1037 1.23165E-02-5.39924E-03-8.79301E-14
 -1      1038 1.26022E-02-5.57204E-03-9.17480E-14
 -1      1039 1.28880E-02-5.74485E-03-9.56055E-14
 -1      1040 4.86970E-03-9.95170E-04-1.13966E-14
 -1      1041 6.04753E-03-1.63369E-03-1.98303E-14
 -1      1042 5.99368E-03-1.51015E-03-1.48752E-14
 -1      1043 1.36691E-02-6.17199E-03-1.01088E-13
 -1      1044 7.18372E-03-2.30044E-03-2.92601E-14
 -1      1045 6.57299E-03-1.84085E-03-1.93161E-14
 -1      1046 6.33330E-03-1.79811E-03-2.20386E-14
 -1      1047 5.46389E-03-1.30839E-03-1.57293E-14
 -1      1048 5.26908E-03-1.19555E-03-1.27666E-14
 -1      1049 1.32213E-02-5.92702E-03-9.79325E-14
 -1      1050 6.31244E-03-1.68695E-03-1.72230E-14
 -1      1051 4.84377E-03-9.75527E-04-1.21096E-14
 -1      1052 7.11190E-03-2.19321E-03-2.50251E-14
 -1      1053 7.38961E-03-2.36169E-03-2.74576E-14
 -1      1054 7.66930E-03-2.53202E-03-2.99880E-14
 -1      1055 7.95046E-03-2.70355E-03-3.26062E-14
 -1      1056 8.23285E-03-2.87581E-03-3.53192E-14
 -1      1057 8.51616E-03-3.04850E-03-3.81245E-14
 -1      1058 8.80016E-03-3.22142E-03-4.10184E-14
 -1      1059 9.08469E-03-3.39444E-03-4.39945E-14
 -1      1060 9.36960E-03-3.56748E-03-4.70496E-14
 -1      1061 9.65479E-03-3.74052E-03-5.01865E-14
 -1      1062 9.94018E-03-3.91353E-03-5.33925E-14
 -1      1063 1.02257E-02-4.08650E-03-5.66654E-14
 -1      1064 1.05113E-02-4.25943E-03-6.00106E-14
 -1      1065 1.07970E-02-4.43234E-03-6.34236E-14
 -1      1066 1.10827E-02-4.60522E-03-6.69073E-14
 -1      1067 1.13685E-02-4.77808E-03-7.04557E-14
 -1      1068 1.16542E-02-4.95092E-03-7.40655E-14
 -1      1069 1.19400E-02-5.12375E-03-7.77234E-14
 -1      1070 1.22258E-02-5.29657E-03-8.14305E-14
 -1      1071 1.25115E-02-5.46938E-03-8.51832E-14
 -1      1072 1.27973E-02-5.64219E-03-8.89766E-14
 -1      1073 1.30830E-02-5.81500E-03-9.28087E-14
 -1      1074 6.55021E-03-1.85778E-03-2.03401E-14
 -1      1075 5.16079E-03-1.14494E-03-1.38394E-14
 -1      1076 8.04323E-03-2.79838E-03-3.60753E-14
 -1      1077 7.75995E-03-2.62717E-03-3.33384E-14
 -1      1078 8.61142E-03-3.14217E-03-4.18087E-14
 -1      1079 8.89615E-03-3.31448E-03-4.48089E-14
 -1      1080 9.18117E-03-3.48694E-03-4.78895E-14
 -1      1081 9.46643E-03-3.65951E-03-5.10450E-14
 -1      1082 9.75185E-03-3.83215E-03-5.42768E-14
 -1      1083 1.00374E-02-4.00485E-03-5.75747E-14
 -1      1084 1.03230E-02-4.17758E-03-6.09438E-14
 -1      1085 1.06087E-02-4.35033E-03-6.43832E-14
 -1      1086 1.08944E-02-4.52310E-03-6.78868E-14
 -1      1087 1.11802E-02-4.69588E-03-7.14528E-14
 -1      1088 1.14660E-02-4.86868E-03-7.50778E-14
 -1      1089 1.17517E-02-5.04147E-03-7.87453E-14
 -1      1090 1.20375E-02-5.21428E-03-8.24613E-14
 -1      1091 1.23232E-02-5.38708E-03-8.62167E-14
 -1      1092 1.26090E-02-5.55989E-03-9.00187E-14
 -1      1093 1.29151E-02-5.74346E-03-9.39531E-14
 -1      1094 7.19532E-03-2.28725E-03-2.81386E-14
 -1      1095 6.06919E-03-1.62882E-03-1.88879E-14
 -1      1096 5.76555E-03-1.42825E-03-1.47286E-14
 -1      1097 6.35165E-03-1.78956E-03-2.10495E-14
 -1      1098 8.32709E-03-2.97010E-03-3.88974E-14
 -1      1099 6.91393E-03-2.11927E-03-2.56797E-14
 -1      1100 6.82968E-03-2.02338E-03-2.26310E-14
 -1      1101 1.33374E-02-5.98055E-03-9.76010E-14
 -1      1102 7.47731E-03-2.45669E-03-3.06933E-14
 -1      1103 6.63292E-03-1.95321E-03-2.33152E-14
 -1      1104 5.52318E-03-1.31577E-03-1.37343E-14
 -1      1105 5.78376E-03-1.47106E-03-1.68287E-14
 -1      1106 5.48402E-03-1.31033E-03-1.47319E-14
 -1      1107 1.32879E-02-5.93993E-03-9.56990E-14
 -1      1108 6.28043E-03-1.70175E-03-1.82027E-14
 -1      1109 1.35157E-02-6.07815E-03-9.88631E-14
 -1      1110 7.37855E-03-2.37740E-03-2.86117E-14
 -1      1111 6.37378E-03-1.78018E-03-2.00616E-14
 -1      1112 5.76901E-03-1.44898E-03-1.57732E-14
 -1      1113 6.03554E-03-1.59026E-03-1.75195E-14
 -1      1114 0.00000E+00 0.00000E+00 0.00000E+00
 -1      1115 0.00000E+00 0.00000E+00 0.00000E+00
 -1      1116 0.00000E+00 0.00000E+00 0.00000E+00
 -1      1117 0.00000E+00 0.00000E+00 0.00000E+00
 -1      1118 0.00000E+00 0.00000E+00 0.00000E+00
 -1      1119 0.00000E+00 0.00000E+00 0.00000E+00
 -1      1120 0.00000E+00 0.00000E+00 0.00000E+00
 -1      1121 0.00000E+00 0.00000E+00 0.00000E+00
 -1      1122 0.00000E+00 0.00000E+00 0.00000E+00
 -1      1123 0.00000E+00 0.00000E+00 0.00000E+00
 -1      1124 0.00000E+00 0.00000E+00 0.00000E+00
 -1      1125 0.00000E+00 0.00000E+00 0.00000E+00
 -1      1126 0.00000E+00 0.00000E+00 0.00000E+00
 -1      1127 0.00000E+00 0.00000E+00 0.00000E+00
 -1      1128 0.00000E+00 0.00000E+00 0.00000E+00
 -1      1129 0.00000E+00 0.00000E+00 0.00000E+00
 -1      1130 0.00000E+00 0.00000E+00 0.00000E+00
 -1      1131 2.51633E-04-1.39786E-04 1.66154E-17
 -1      1132 7.04521E-04-3.02898E-04-8.18573E-18
 -1      1133 1.13754E-03-4.36683E-04-1.20550E-16
 -1      1134 1.60226E-03-5.97391E-04-3.36631E-16
 -1      1135 2.10540E-03-8.37259E-04-6.56105E-16
 -1      1136 2.62598E-03-1.20179E-03-1.08342E-15
 -1      1137 3.06865E-03-1.64382E-03-1.58924E-15
 -1      1138 3.37943E-03-2.04366E-03-2.14864E-15
 -1      1139 3.60036E-03-2.31450E-03-2.82906E-15
 -1      1140 3.79197E-03-2.35830E-03-3.63650E-15
 -1      1141 4.02298E-03-2.21212E-03-4.51794E-15
 -1      1142 4.36064E-03-1.97426E-03-5.57749E-15
 -1      1143 4.81931E-03-1.74946E-03-6.89246E-15
 -1      1144 5.32500E-03-1.63679E-03-8.40400E-15
 -1      1145 5.81434E-03-1.64595E-03-1.00711E-14
 -1      1146 6.25606E-03-1.73920E-03-1.18419E-14
 -1      1147 6.65322E-03-1.87922E-03-1.37148E-14
 -1      1148 7.01567E-03-2.04256E-03-1.56949E-14
 -1      1149 7.35315E-03-2.21665E-03-1.77790E-14
 -1      1150 7.67338E-03-2.39513E-03-1.99538E-14
 -1      1151 7.98197E-03-2.57495E-03-2.22166E-14
 -1      1152 8.28275E-03-2.75469E-03-2.45744E-14
 -1      1153 8.57833E-03-2.93377E-03-2.70328E-14
 -1      1154 8.87044E-03-3.11201E-03-2.95976E-14
 -1      1155 9.16745E-03-3.29380E-03-3.23249E-14
 -1      1156 9.46286E-03-3.47476E-03-3.51568E-14
 -1      1157 9.75004E-03-3.65060E-03-3.80286E-14
 -1      1158 1.00366E-02-3.82585E-03-4.09953E-14
 -1      1159 1.03227E-02-4.00059E-03-4.40416E-14
 -1      1160 1.06085E-02-4.17492E-03-4.71510E-14
 -1      1161 1.08941E-02-4.34891E-03-5.03375E-14
 -1      1162 1.11797E-02-4.52263E-03-5.35806E-14
 -1      1163 1.14652E-02-4.69613E-03-5.68826E-14
 -1      1164 1.17507E-02-4.86945E-03-6.02538E-14
 -1      1165 1.20362E-02-5.04263E-03-6.37063E-14
 -1      1166 1.23217E-02-5.21571E-03-6.72060E-14
 -1      1167 1.26073E-02-5.38871E-03-7.07571E-14
 -1      1168 1.28929E-02-5.56165E-03-7.43744E-14
 -1      1169 1.31785E-02-5.73454E-03-7.80649E-14
 -1      1170 1.34641E-02-5.90741E-03-8.18073E-14
 -1      1171 1.37497E-02-6.08024E-03-8.56113E-14
 -1      1172 1.40354E-02-6.25307E-03-8.94652E-14
 -1      1173 1.43210E-02-6.42588E-03-9.33720E-14
 -1      1174 1.46067E-02-6.59868E-03-9.73180E-14
 -1      1175 1.48924E-02-6.77149E-03-1.01292E-13
 -1      1176 1.51781E-02-6.94429E-03-1.05309E-13
 -1      1177 1.54638E-02-7.11709E-03-1.09357E-13
 -1      1178 1.57495E-02-7.28989E-03-1.13435E-13
 -1      1179 1.60352E-02-7.46270E-03-1.17547E-13
 -1      1180 1.63209E-02-7.63550E-03-1.21699E-13
 -1      1181 1.66066E-02-7.80832E-03-1.25865E-13
 -1      1182 2.36374E-04 1.70613E-04 3.33934E-17
 -1      1183 5.66572E-04 3.69009E-04 3.47487E-17
 -1      1184 8.43544E-04 5.01523E-04-5.71781E-17
 -1      1185 1.10158E-03 5.91208E-04-2.58392E-16
 -1      1186 1.34616E-03 6.49338E-04-5.75522E-16
 -1      1187 1.57983E-03 6.79007E-04-1.01328E-15
 -1      1188 1.80473E-03 6.79269E-04-1.57537E-15
 -1      1189 2.02382E-03 6.47933E-04-2.26441E-15
 -1      1190 2.24116E-03 5.83571E-04-3.08545E-15
 -1      1191 2.46145E-03 4.86862E-04-4.03919E-15
 -1      1192 2.68910E-03 3.61059E-04-5.12660E-15
 -1      1193 2.92733E-03 2.11578E-04-6.34136E-15
 -1      1194 3.17760E-03 4.49416E-05-7.68140E-15
 -1      1195 3.43966E-03-1.32418E-04-9.14984E-15
 -1      1196 3.71196E-03-3.15089E-04-1.07442E-14
 -1      1197 3.99220E-03-4.99145E-04-1.24635E-14
 -1      1198 4.27797E-03-6.82160E-04-1.43029E-14
 -1      1199 4.56712E-03-8.62952E-04-1.62577E-14
 -1      1200 4.85793E-03-1.04121E-03-1.83229E-14
 -1      1201 5.14920E-03-1.21714E-03-2.04962E-14
 -1      1202 5.44017E-03-1.39119E-03-2.27761E-14
 -1      1203 5.73045E-03-1.56389E-03-2.51645E-14
 -1      1204 6.01986E-03-1.73569E-03-2.76585E-14
 -1      1205 6.30842E-03-1.90701E-03-3.02605E-14
 -1      1206 6.59621E-03-2.07811E-03-3.29566E-14
 -1      1207 6.88335E-03-2.24920E-03-3.57390E-14
 -1      1208 7.16998E-03-2.42041E-03-3.86108E-14
 -1      1209 7.45623E-03-2.59180E-03-4.15702E-14
 -1      1210 7.74220E-03-2.76339E-03-4.46055E-14
 -1      1211 8.02798E-03-2.93520E-03-4.77158E-14
 -1      1212 8.31364E-03-3.10720E-03-5.09140E-14
 -1      1213 8.59923E-03-3.27937E-03-5.41980E-14
 -1      1214 8.88478E-03-3.45170E-03-5.75563E-14
 -1      1215 9.17033E-03-3.62414E-03-6.09858E-14
 -1      1216 9.45587E-03-3.79668E-03-6.44758E-14
 -1      1217 9.74144E-03-3.96930E-03-6.80272E-14
 -1      1218 1.00270E-02-4.14197E-03-7.16436E-14
 -1      1219 1.03126E-02-4.31469E-03-7.53071E-14
 -1      1220 1.05982E-02-4.48744E-03-7.90091E-14
 -1      1221 1.08839E-02-4.66022E-03-8.27421E-14
 -1      1222 1.11695E-02-4.83301E-03-8.65108E-14
 -1      1223 1.14552E-02-5.00581E-03-9.03207E-14
 -1      1224 1.17409E-02-5.17862E-03-9.41506E-14
 -1      1225 1.20266E-02-5.35143E-03-9.80138E-14
 -1      1226 1.23123E-02-5.52424E-03-1.01919E-13
 -1      1227 1.25980E-02-5.69705E-03-1.05844E-13
 -1      1228 1.28837E-02-5.86986E-03-1.09796E-13
 -1      1229 1.31694E-02-6.04267E-03-1.13763E-13
 -1      1230 1.34551E-02-6.21548E-03-1.17725E-13
 -1      1231 1.37337E-02-6.38396E-03-1.21608E-13
 -1      1232 1.39543E-02-6.50818E-03-1.23623E-13
 -1      1233 1.41243E-02-6.59247E-03-1.23904E-13
 -1      1234 1.42942E-02-6.67675E-03-1.24202E-13
 -1      1235 1.44641E-02-6.76104E-03-1.24514E-13
 -1      1236 1.46340E-02-6.84533E-03-1.24835E-13
 -1      1237 1.48025E-02-6.92891E-03-1.25136E-13
 -1      1238 1.49710E-02-7.01250E-03-1.25436E-13
 -1      1239 1.51409E-02-7.09679E-03-1.25737E-13
 -1      1240 1.53108E-02-7.18109E-03-1.26037E-13
 -1      1241 1.54808E-02-7.26540E-03-1.26324E-13
 -1      1242 1.56507E-02-7.34969E-03-1.26590E-13
 -1      1243 1.58192E-02-7.43328E-03-1.26874E-13
 -1      1244 1.59877E-02-7.51686E-03-1.27137E-13
 -1      1245 1.61576E-02-7.60115E-03-1.27355E-13
 -1      1246 1.63275E-02-7.68544E-03-1.27532E-13
 -1      1247 1.64975E-02-7.76972E-03-1.27695E-13
 -1      1248 1.66660E-02-7.85329E-03-1.27868E-13
 -1      1249 5.61076E-03-9.37317E-04-6.13103E-15
 -1      1250 5.42061E-03-7.80588E-04-6.03829E-15
 -1      1251 5.13539E-03-6.15206E-04-5.83911E-15
 -1      1252 4.76408E-03-4.40371E-04-5.52789E-15
 -1      1253 4.34400E-03-2.72055E-04-5.13199E-15
 -1      1254 3.90699E-03-1.27378E-04-4.69091E-15
 -1      1255 3.46459E-03-1.65664E-05-4.22861E-15
 -1      1256 3.02515E-03 5.10404E-05-3.76530E-15
 -1      1257 2.58254E-03 7.20972E-05-3.30210E-15
 -1      1258 2.16081E-03 4.88048E-05-2.87663E-15
 -1      1259 1.77927E-03-9.79791E-06-2.51172E-15
 -1      1260 1.42940E-03-9.44812E-05-2.19551E-15
 -1      1261 1.12277E-03-1.98373E-04-1.93117E-15
 -1      1262 8.77948E-04-3.20845E-04-1.72582E-15
 -1      1263 7.44747E-04-4.48135E-04-1.60902E-15
 -1      1264 7.25850E-04-5.79425E-04-1.57144E-15
 -1      1265 8.21524E-04-7.45098E-04-1.60344E-15
 -1      1266 1.03129E-03-9.44986E-04-1.70767E-15
 -1      1267 1.34312E-03-1.17917E-03-1.88321E-15
 -1      1268 1.76498E-03-1.45654E-03-2.14611E-15
 -1      1269 2.28084E-03-1.74586E-03-2.49833E-15
 -1      1270 2.83535E-03-1.97783E-03-2.91986E-15
 -1      1271 3.39730E-03-2.09906E-03-3.39063E-15
 -1      1272 3.93859E-03-2.09416E-03-3.88944E-15
 -1      1273 4.42737E-03-1.98507E-03-4.37738E-15
 -1      1274 4.86406E-03-1.81368E-03-4.85312E-15
 -1      1275 5.22490E-03-1.62183E-03-5.28801E-15
 -1      1276 5.49966E-03-1.43025E-03-5.66857E-15
 -1      1277 5.66110E-03-1.25271E-03-5.94774E-15
 -1      1278 5.69542E-03-1.09248E-03-6.10375E-15
 -1      1279 2.07990E-04-9.02470E-05 2.11419E-18
 -1      1280 1.30025E-04-2.29059E-05-1.65341E-17
 -1      1281 1.43064E-04-3.76021E-05-1.14112E-17
 -1      1282 1.08093E-04-9.99704E-06-2.52077E-17
 -1      1283 1.18448E-04-1.42985E-05-2.23481E-17
 -1      1284 2.52517E-04-4.66651E-05-5.25838E-17
 -1      1285 9.19329E-05-1.18841E-05-3.02357E-17
 -1      1286 9.92700E-05-1.02653E-05-2.86365E-17
 -1      1287 2.07436E-04-2.93951E-05-6.83996E-17
 -1      1288 8.31617E-05-2.15160E-05-3.35290E-17
 -1      1289 8.66300E-05-1.72413E-05-3.26887E-17
 -1      1290 1.76069E-04-3.55176E-05-7.83065E-17
 -1      1291 8.21715E-05-3.16818E-05-3.51824E-17
 -1      1292 8.18790E-05-2.79189E-05-3.48842E-17
 -1      1293 1.61983E-04-5.22349E-05-8.44865E-17
 -1      1294 8.70965E-05-3.71122E-05-3.61852E-17
 -1      1295 8.41388E-05-3.60047E-05-3.61581E-17
 -1      1296 1.64422E-04-6.72702E-05-8.80643E-17
 -1      1297 9.49059E-05-3.49442E-05-3.65105E-17
 -1      1298 9.09055E-05-3.73251E-05-3.66325E-17
 -1      1299 1.78327E-04-7.16832E-05-9.00430E-17
 -1      1300 1.02586E-04-2.58379E-05-3.66189E-17
 -1      1301 9.89213E-05-3.10868E-05-3.67951E-17
 -1      1302 1.96301E-04-6.22372E-05-9.09646E-17
 -1      1303 1.08351E-04-1.23071E-05-3.60226E-17
 -1      1304 1.05753E-04-1.91859E-05-3.63072E-17
 -1      1305 2.12236E-04-4.13604E-05-9.07342E-17
 -1      1306 1.11679E-04 2.93185E-06-3.50468E-17
 -1      1307 1.10273E-04-4.42877E-06-3.55076E-17
 -1      1308 2.23108E-04-1.39486E-05-8.92976E-17
 -1      1309 1.12924E-04 1.77317E-05-3.31901E-17
 -1      1310 1.12461E-04 1.07197E-05-3.38542E-17
 -1      1311 2.28587E-04 1.51924E-05-8.64245E-17
 -1      1312 1.12890E-04 3.17378E-05-3.03170E-17
 -1      1313 1.12931E-04 2.50820E-05-3.14690E-17
 -1      1314 2.30017E-04 4.34906E-05-8.16675E-17
 -1      1315 1.12550E-04 4.47494E-05-2.51806E-17
 -1      1316 1.12525E-04 3.84029E-05-2.71728E-17
 -1      1317 2.29242E-04 7.02267E-05-7.36715E-17
 -1      1318 1.13379E-04 5.78977E-05-1.71168E-17
 -1      1319 1.12346E-04 5.11331E-05-2.06947E-17
 -1      1320 2.28572E-04 9.60014E-05-6.08373E-17
 -1      1321 1.19017E-04 7.50665E-05-4.29615E-18
 -1      1322 1.14554E-04 6.53813E-05-1.05439E-17
 -1      1323 2.31844E-04 1.24280E-04-4.14978E-17
 -1      1324 1.61348E-04 1.17792E-04 1.60462E-17
 -1      1325 1.37968E-04 9.39969E-05 3.72694E-18
 -1      1326 2.60035E-04 1.67895E-04-1.77809E-17
 -1      1327 3.42087E-04 2.38171E-04 1.63172E-17
 -1      1328 5.39177E-04-2.16101E-04-2.28496E-17
 -1      1329 7.49904E-04-2.83463E-04-5.90348E-17
 -1      1330 9.61164E-04-3.47816E-04-1.21498E-16
 -1      1331 1.17601E-03-4.14873E-04-2.08668E-16
 -1      1332 7.87856E-04-2.63056E-04-1.18327E-16
 -1      1333 1.39593E-03-4.92060E-04-3.19785E-16
 -1      1334 1.62193E-03-5.84854E-04-4.56327E-16
 -1      1335 1.19420E-03-3.96977E-04-3.00554E-16
 -1      1336 1.85469E-03-7.01019E-04-6.18063E-16
 -1      1337 2.09255E-03-8.46809E-04-8.07175E-16
 -1      1338 1.61520E-03-5.80202E-04-5.79682E-16
 -1      1339 2.33426E-03-1.02768E-03-1.02373E-15
 -1      1340 2.57405E-03-1.24503E-03-1.27044E-15
 -1      1341 2.06021E-03-8.67511E-04-9.62609E-16
 -1      1342 2.77431E-03-1.45428E-03-1.50691E-15
 -1      1343 2.96412E-03-1.67566E-03-1.76785E-15
 -1      1344 2.49243E-03-1.26186E-03-1.42047E-15
 -1      1345 3.46626E-03-2.23889E-03-2.71106E-15
 -1      1346 3.60559E-03-2.32613E-03-3.09536E-15
 -1      1347 3.73416E-03-2.34536E-03-3.48945E-15
 -1      1348 3.86966E-03-2.30701E-03-3.91286E-15
 -1      1349 3.63670E-03-2.30939E-03-3.33830E-15
 -1      1350 4.00536E-03-2.22795E-03-4.33724E-15
 -1      1351 4.15315E-03-2.12396E-03-4.78929E-15
 -1      1352 3.94945E-03-2.23664E-03-4.15720E-15
 -1      1353 4.34584E-03-1.98474E-03-5.36320E-15
 -1      1354 4.55109E-03-1.85123E-03-5.97151E-15
 -1      1355 4.30987E-03-2.00000E-03-5.15022E-15
 -1      1356 4.77764E-03-1.73311E-03-6.64551E-15
 -1      1357 5.00715E-03-1.64637E-03-7.35132E-15
 -1      1358 4.73916E-03-1.72647E-03-6.40042E-15
 -1      1359 5.24717E-03-1.59273E-03-8.12619E-15
 -1      1360 5.48193E-03-1.57361E-03-8.93300E-15
 -1      1361 5.18912E-03-1.55763E-03-7.85236E-15
 -1      1362 5.70879E-03-1.58381E-03-9.76840E-15
 -1      1363 5.92646E-03-1.61736E-03-1.06284E-14
 -1      1364 5.62624E-03-1.52748E-03-9.46687E-15
 -1      1365 6.13465E-03-1.66839E-03-1.15144E-14
 -1      1366 6.33373E-03-1.73234E-03-1.24270E-14
 -1      1367 6.03256E-03-1.60050E-03-1.11900E-14
 -1      1368 6.52451E-03-1.80524E-03-1.33651E-14
 -1      1369 6.70772E-03-1.88454E-03-1.43283E-14
 -1      1370 6.40974E-03-1.73246E-03-1.30159E-14
 -1      1371 6.88443E-03-1.96811E-03-1.53190E-14
 -1      1372 7.05544E-03-2.05452E-03-1.63358E-14
 -1      1373 6.76258E-03-1.89396E-03-1.49456E-14
 -1      1374 7.22168E-03-2.14281E-03-1.73770E-14
 -1      1375 7.38384E-03-2.23216E-03-1.84403E-14
 -1      1376 7.09630E-03-2.06887E-03-1.69765E-14
 -1      1377 7.54262E-03-2.32221E-03-1.95274E-14
 -1      1378 7.69857E-03-2.41250E-03-2.06379E-14
 -1      1379 7.41575E-03-2.24906E-03-1.91048E-14
 -1      1380 7.85219E-03-2.50293E-03-2.17712E-14
 -1      1381 8.00387E-03-2.59324E-03-2.29283E-14
 -1      1382 7.72489E-03-2.43066E-03-2.13264E-14
 -1      1383 8.15396E-03-2.68345E-03-2.41080E-14
 -1      1384 8.30272E-03-2.77342E-03-2.53137E-14
 -1      1385 8.02672E-03-2.61199E-03-2.36432E-14
 -1      1386 8.45040E-03-2.86318E-03-2.65456E-14
 -1      1387 8.59718E-03-2.95266E-03-2.78017E-14
 -1      1388 8.32345E-03-2.79239E-03-2.60576E-14
 -1      1389 8.74323E-03-3.04192E-03-2.90840E-14
 -1      1390 8.88867E-03-3.13091E-03-3.03911E-14
 -1      1391 8.61663E-03-2.97167E-03-2.85729E-14
 -1      1392 9.04084E-03-3.22412E-03-3.17895E-14
 -1      1393 9.19256E-03-3.31707E-03-3.32143E-14
 -1      1394 8.91460E-03-3.15431E-03-3.12544E-14
 -1      1395 9.33672E-03-3.40539E-03-3.45969E-14
 -1      1396 9.48061E-03-3.49351E-03-3.60058E-14
 -1      1397 9.21080E-03-3.33592E-03-3.40386E-14
 -1      1398 9.62427E-03-3.58146E-03-3.74413E-14
 -1      1399 9.76774E-03-3.66925E-03-3.88995E-14
 -1      1400 9.49862E-03-3.51225E-03-3.68558E-14
 -1      1401 9.91107E-03-3.75689E-03-4.03798E-14
 -1      1402 1.00543E-02-3.84439E-03-4.18833E-14
 -1      1403 9.78565E-03-3.68787E-03-3.97701E-14
 -1      1404 1.01974E-02-3.93178E-03-4.34042E-14
 -1      1405 1.03404E-02-4.01904E-03-4.49438E-14
 -1      1406 1.00721E-02-3.86291E-03-4.27708E-14
 -1      1407 1.04834E-02-4.10621E-03-4.64979E-14
 -1      1408 1.06263E-02-4.19329E-03-4.80696E-14
 -1      1409 1.03583E-02-4.03747E-03-4.58458E-14
 -1      1410 1.07692E-02-4.28029E-03-4.96618E-14
 -1      1411 1.09120E-02-4.36721E-03-5.12717E-14
 -1      1412 1.06442E-02-4.21163E-03-4.89907E-14
 -1      1413 1.10548E-02-4.45407E-03-5.28945E-14
 -1      1414 1.11976E-02-4.54086E-03-5.45277E-14
 -1      1415 1.09300E-02-4.38548E-03-5.22041E-14
 -1      1416 1.13404E-02-4.62761E-03-5.61802E-14
 -1      1417 1.14832E-02-4.71431E-03-5.78480E-14
 -1      1418 1.12156E-02-4.55908E-03-5.54779E-14
 -1      1419 1.16260E-02-4.80097E-03-5.95341E-14
 -1      1420 1.17688E-02-4.88759E-03-6.12378E-14
 -1      1421 1.15012E-02-4.73247E-03-5.88159E-14
 -1      1422 1.19115E-02-4.97418E-03-6.29578E-14
 -1      1423 1.20543E-02-5.06074E-03-6.46961E-14
 -1      1424 1.17868E-02-4.90571E-03-6.22190E-14
 -1      1425 1.21971E-02-5.14728E-03-6.64459E-14
 -1      1426 1.23399E-02-5.23379E-03-6.82052E-14
 -1      1427 1.20724E-02-5.07883E-03-6.56831E-14
 -1      1428 1.24827E-02-5.32029E-03-6.99823E-14
 -1      1429 1.26255E-02-5.40677E-03-7.17752E-14
 -1      1430 1.23580E-02-5.25186E-03-6.92100E-14
 -1      1431 1.27683E-02-5.49324E-03-7.35868E-14
 -1      1432 1.29111E-02-5.57969E-03-7.54143E-14
 -1      1433 1.26436E-02-5.42482E-03-7.27994E-14
 -1      1434 1.30539E-02-5.66614E-03-7.72586E-14
 -1      1435 1.31967E-02-5.75257E-03-7.91179E-14
 -1      1436 1.29292E-02-5.59773E-03-7.64562E-14
 -1      1437 1.33395E-02-5.83900E-03-8.09905E-14
 -1      1438 1.34823E-02-5.92542E-03-8.28763E-14
 -1      1439 1.32149E-02-5.77060E-03-8.01727E-14
 -1      1440 1.36251E-02-6.01184E-03-8.47787E-14
 -1      1441 1.37679E-02-6.09826E-03-8.66950E-14
 -1      1442 1.35005E-02-5.94344E-03-8.39497E-14
 -1      1443 1.39108E-02-6.18467E-03-8.86198E-14
 -1      1444 1.40536E-02-6.27107E-03-9.05568E-14
 -1      1445 1.37862E-02-6.11626E-03-8.77749E-14
 -1      1446 1.41964E-02-6.35748E-03-9.25093E-14
 -1      1447 1.43393E-02-6.44388E-03-9.44734E-14
 -1      1448 1.40719E-02-6.28908E-03-9.16508E-14
 -1      1449 1.44821E-02-6.53028E-03-9.64462E-14
 -1      1450 1.46250E-02-6.61669E-03-9.84233E-14
 -1      1451 1.43575E-02-6.46188E-03-9.55735E-14
 -1      1452 1.47678E-02-6.70309E-03-1.00413E-13
 -1      1453 1.49107E-02-6.78949E-03-1.02412E-13
 -1      1454 1.46432E-02-6.63469E-03-9.95345E-14
 -1      1455 1.50535E-02-6.87589E-03-1.04413E-13
 -1      1456 1.51964E-02-6.96229E-03-1.06428E-13
 -1      1457 1.49289E-02-6.80748E-03-1.03523E-13
 -1      1458 1.53392E-02-7.04869E-03-1.08453E-13
 -1      1459 1.54821E-02-7.13509E-03-1.10483E-13
 -1      1460 1.52146E-02-6.98028E-03-1.07548E-13
 -1      1461 1.56249E-02-7.22149E-03-1.12519E-13
 -1      1462 1.57678E-02-7.30789E-03-1.14567E-13
 -1      1463 1.55003E-02-7.15309E-03-1.11604E-13
 -1      1464 1.59106E-02-7.39429E-03-1.16622E-13
 -1      1465 1.60535E-02-7.48070E-03-1.18686E-13
 -1      1466 1.57860E-02-7.32589E-03-1.15697E-13
 -1      1467 1.61963E-02-7.56710E-03-1.20760E-13
 -1      1468 1.63392E-02-7.65350E-03-1.22838E-13
 -1      1469 1.60717E-02-7.49870E-03-1.19822E-13
 -1      1470 1.64312E-02-7.71020E-03-1.24309E-13
 -1      1471 1.65740E-02-7.79660E-03-1.26393E-13
 -1      1472 1.64905E-02-7.75517E-03-1.26310E-13
 -1      1473 1.63066E-02-7.64179E-03-1.23366E-13
 -1      1474 6.51523E-04 4.05801E-04-3.16587E-17
 -1      1475 5.01449E-04 3.29761E-04 5.36680E-18
 -1      1476 4.51253E-04 2.91148E-04-1.97596E-17
 -1      1477 9.32035E-04 5.17931E-04-1.84409E-16
 -1      1478 7.94601E-04 4.66954E-04-9.46508E-17
 -1      1479 7.51123E-04 4.30968E-04-1.26228E-16
 -1      1480 1.19432E-03 5.93747E-04-4.47274E-16
 -1      1481 1.06498E-03 5.59778E-04-3.01286E-16
 -1      1482 1.03148E-03 5.26984E-04-3.38745E-16
 -1      1483 1.44380E-03 6.40104E-04-8.27531E-16
 -1      1484 1.32040E-03 6.20522E-04-6.22346E-16
 -1      1485 1.29687E-03 5.90445E-04-6.63206E-16
 -1      1486 1.68353E-03 6.57691E-04-1.32828E-15
 -1      1487 1.56469E-03 6.52593E-04-1.06231E-15
 -1      1488 1.55112E-03 6.24980E-04-1.10571E-15
 -1      1489 1.91625E-03 6.44583E-04-1.95554E-15
 -1      1490 1.80057E-03 6.55092E-04-1.62597E-15
 -1      1491 1.79711E-03 6.29744E-04-1.67074E-15
 -1      1492 2.14521E-03 5.98593E-04-2.71002E-15
 -1      1493 2.03096E-03 6.25725E-04-2.31653E-15
 -1      1494 2.03771E-03 6.02378E-04-2.36221E-15
 -1      1495 2.37427E-03 5.19057E-04-3.59808E-15
 -1      1496 2.25947E-03 5.62891E-04-3.13738E-15
 -1      1497 2.27616E-03 5.41136E-04-3.18370E-15
 -1      1498 2.60736E-03 4.07849E-04-4.61775E-15
 -1      1499 2.49006E-03 4.67124E-04-4.09158E-15
 -1      1500 2.51599E-03 4.46423E-04-4.13728E-15
 -1      1501 2.84780E-03 2.69434E-04-5.76787E-15
 -1      1502 2.72648E-03 3.41641E-04-5.17679E-15
 -1      1503 2.76044E-03 3.21412E-04-5.22176E-15
 -1      1504 3.09768E-03 1.10073E-04-7.04462E-15
 -1      1505 2.97147E-03 1.91934E-04-6.39038E-15
 -1      1506 3.01195E-03 1.71660E-04-6.43417E-15
 -1      1507 3.35763E-03-6.34205E-05-8.44774E-15
 -1      1508 3.22640E-03 2.46928E-05-7.73010E-15
 -1      1509 3.27175E-03 3.99966E-06-7.77336E-15
 -1      1510 3.62699E-03-2.44846E-04-9.97795E-15
 -1      1511 3.49121E-03-1.53455E-04-9.19715E-15
 -1      1512 3.53983E-03-1.74768E-04-9.23892E-15
 -1      1513 3.90420E-03-4.29365E-04-1.16328E-14
 -1      1514 3.76473E-03-3.36929E-04-1.07902E-14
 -1      1515 3.81528E-03-3.58908E-04-1.08303E-14
 -1      1516 4.18734E-03-6.13738E-04-1.34087E-14
 -1      1517 4.04516E-03-5.21686E-04-1.25058E-14
 -1      1518 4.09661E-03-5.44268E-04-1.25435E-14
 -1      1519 4.47445E-03-7.96175E-04-1.53017E-14
 -1      1520 4.33051E-03-7.05244E-04-1.43411E-14
 -1      1521 4.38216E-03-7.28307E-04-1.43747E-14
 -1      1522 4.76387E-03-9.75986E-04-1.73082E-14
 -1      1523 4.61897E-03-8.86408E-04-1.62912E-14
 -1      1524 4.67041E-03-9.09813E-04-1.63205E-14
 -1      1525 5.05434E-03-1.15319E-03-1.94236E-14
 -1      1526 4.90905E-03-1.06489E-03-1.83526E-14
 -1      1527 4.96008E-03-1.08851E-03-1.83779E-14
 -1      1528 5.34495E-03-1.32817E-03-2.16482E-14
 -1      1529 5.19967E-03-1.24092E-03-2.05222E-14
 -1      1530 5.25026E-03-1.26465E-03-2.05452E-14
 -1      1531 5.63519E-03-1.50147E-03-2.39795E-14
 -1      1532 5.49014E-03-1.41499E-03-2.28001E-14
 -1      1533 5.54034E-03-1.43875E-03-2.28199E-14
 -1      1534 5.92476E-03-1.67361E-03-2.64183E-14
 -1      1535 5.78007E-03-1.58766E-03-2.51853E-14
 -1      1536 5.82995E-03-1.61139E-03-2.52022E-14
 -1      1537 6.21358E-03-1.84507E-03-2.89605E-14
 -1      1538 6.06927E-03-1.75940E-03-2.76767E-14
 -1      1539 6.11892E-03-1.78310E-03-2.76898E-14
 -1      1540 6.50167E-03-2.01617E-03-3.16065E-14
 -1      1541 6.35772E-03-1.93065E-03-3.02715E-14
 -1      1542 6.40723E-03-1.95428E-03-3.02797E-14
 -1      1543 6.78912E-03-2.18718E-03-3.43412E-14
 -1      1544 6.64547E-03-2.10168E-03-3.29626E-14
 -1      1545 6.69492E-03-2.12525E-03-3.29649E-14
 -1      1546 7.07603E-03-2.35826E-03-3.71652E-14
 -1      1547 6.93263E-03-2.27271E-03-3.57423E-14
 -1      1548 6.98206E-03-2.29621E-03-3.57408E-14
 -1      1549 7.36251E-03-2.52950E-03-4.00748E-14
 -1      1550 7.21932E-03-2.44386E-03-3.86097E-14
 -1      1551 7.26876E-03-2.46732E-03-3.86043E-14
 -1      1552 7.64868E-03-2.70095E-03-4.30688E-14
 -1      1553 7.50563E-03-2.61520E-03-4.15618E-14
 -1      1554 7.55511E-03-2.63862E-03-4.15518E-14
 -1      1555 7.93462E-03-2.87263E-03-4.61363E-14
 -1      1556 7.79167E-03-2.78676E-03-4.45926E-14
 -1      1557 7.84120E-03-2.81014E-03-4.45772E-14
 -1      1558 8.22040E-03-3.04451E-03-4.92889E-14
 -1      1559 8.07752E-03-2.95854E-03-4.77024E-14
 -1      1560 8.12710E-03-2.98190E-03-4.76835E-14
 -1      1561 8.50608E-03-3.21659E-03-5.25234E-14
 -1      1562 8.36325E-03-3.13053E-03-5.08960E-14
 -1      1563 8.41288E-03-3.15386E-03-5.08740E-14
 -1      1564 8.79170E-03-3.38883E-03-5.58397E-14
 -1      1565 8.64889E-03-3.30269E-03-5.41712E-14
 -1      1566 8.69857E-03-3.32601E-03-5.41443E-14
 -1      1567 9.07729E-03-3.56120E-03-5.92290E-14
 -1      1568 8.93449E-03-3.47500E-03-5.75264E-14
 -1      1569 8.98421E-03-3.49831E-03-5.74925E-14
 -1      1570 9.36287E-03-3.73369E-03-6.26855E-14
 -1      1571 9.22008E-03-3.64744E-03-6.09487E-14
 -1      1572 9.26982E-03-3.67074E-03-6.09109E-14
 -1      1573 9.64845E-03-3.90627E-03-6.62010E-14
 -1      1574 9.50565E-03-3.81997E-03-6.44359E-14
 -1      1575 9.55543E-03-3.84327E-03-6.43921E-14
 -1      1576 9.93404E-03-4.07892E-03-6.97784E-14
 -1      1577 9.79124E-03-3.99259E-03-6.79826E-14
 -1      1578 9.84104E-03-4.01588E-03-6.79349E-14
 -1      1579 1.02196E-02-4.25162E-03-7.34128E-14
 -1      1580 1.00768E-02-4.16526E-03-7.15881E-14
 -1      1581 1.01267E-02-4.18856E-03-7.15342E-14
 -1      1582 1.05053E-02-4.42436E-03-7.70884E-14
 -1      1583 1.03625E-02-4.33798E-03-7.52444E-14
 -1      1584 1.04123E-02-4.36128E-03-7.51822E-14
 -1      1585 1.07909E-02-4.59712E-03-8.08037E-14
 -1      1586 1.06481E-02-4.51074E-03-7.89425E-14
 -1      1587 1.06979E-02-4.53403E-03-7.88756E-14
 -1      1588 1.10766E-02-4.76991E-03-8.45552E-14
 -1      1589 1.09337E-02-4.68351E-03-8.26762E-14
 -1      1590 1.09836E-02-4.70681E-03-8.26077E-14
 -1      1591 1.13622E-02-4.94270E-03-8.83457E-14
 -1      1592 1.12194E-02-4.85630E-03-8.64457E-14
 -1      1593 1.12692E-02-4.87960E-03-8.63768E-14
 -1      1594 1.16479E-02-5.11551E-03-9.21661E-14
 -1      1595 1.15051E-02-5.02910E-03-9.02504E-14
 -1      1596 1.15549E-02-5.05240E-03-9.01825E-14
 -1      1597 1.19336E-02-5.28832E-03-9.60105E-14
 -1      1598 1.17907E-02-5.20191E-03-9.40855E-14
 -1      1599 1.18406E-02-5.22521E-03-9.40160E-14
 -1      1600 1.22193E-02-5.46113E-03-9.98935E-14
 -1      1601 1.20764E-02-5.37472E-03-9.79499E-14
 -1      1602 1.21263E-02-5.39802E-03-9.78810E-14
 -1      1603 1.25050E-02-5.63394E-03-1.03807E-13
 -1      1604 1.23621E-02-5.54754E-03-1.01846E-13
 -1      1605 1.24120E-02-5.57084E-03-1.01774E-13
 -1      1606 1.27907E-02-5.80676E-03-1.07735E-13
 -1      1607 1.26478E-02-5.72035E-03-1.05767E-13
 -1      1608 1.26977E-02-5.74365E-03-1.05688E-13
 -1      1609 1.30764E-02-5.97957E-03-1.11695E-13
 -1      1610 1.29335E-02-5.89316E-03-1.09712E-13
 -1      1611 1.29834E-02-5.91646E-03-1.09630E-13
 -1      1612 1.33621E-02-6.15237E-03-1.15660E-13
 -1      1613 1.32192E-02-6.06597E-03-1.13677E-13
 -1      1614 1.32691E-02-6.08927E-03-1.13592E-13
 -1      1615 1.36478E-02-6.32518E-03-1.19633E-13
 -1      1616 1.35050E-02-6.23878E-03-1.17646E-13
 -1      1617 1.35548E-02-6.26208E-03-1.17563E-13
 -1      1618 1.38186E-02-6.42610E-03-1.21739E-13
 -1      1619 1.40430E-02-6.53872E-03-1.22256E-13
 -1      1620 1.39581E-02-6.49657E-03-1.22112E-13
 -1      1621 1.42130E-02-6.62300E-03-1.22550E-13
 -1      1622 1.41280E-02-6.58086E-03-1.22402E-13
 -1      1623 1.39618E-02-6.48497E-03-1.20604E-13
 -1      1624 1.43829E-02-6.70729E-03-1.22857E-13
 -1      1625 1.42979E-02-6.66515E-03-1.22703E-13
 -1      1626 1.41317E-02-6.56925E-03-1.20896E-13
 -1      1627 1.45528E-02-6.79159E-03-1.23166E-13
 -1      1628 1.44678E-02-6.74944E-03-1.23013E-13
 -1      1629 1.43016E-02-6.65354E-03-1.21196E-13
 -1      1630 1.47198E-02-6.87445E-03-1.23461E-13
 -1      1631 1.46363E-02-6.83302E-03-1.23315E-13
 -1      1632 1.44701E-02-6.73712E-03-1.21495E-13
 -1      1633 1.48897E-02-6.95875E-03-1.23758E-13
 -1      1634 1.48048E-02-6.91660E-03-1.23610E-13
 -1      1635 1.46386E-02-6.82070E-03-1.21789E-13
 -1      1636 1.50597E-02-7.04305E-03-1.24055E-13
 -1      1637 1.49747E-02-7.00090E-03-1.23906E-13
 -1      1638 1.48085E-02-6.90500E-03-1.22078E-13
 -1      1639 1.52296E-02-7.12734E-03-1.24347E-13
 -1      1640 1.51446E-02-7.08519E-03-1.24203E-13
 -1      1641 1.49784E-02-6.98930E-03-1.22369E-13
 -1      1642 1.53995E-02-7.21164E-03-1.24622E-13
 -1      1643 1.53146E-02-7.16949E-03-1.24488E-13
 -1      1644 1.51484E-02-7.07359E-03-1.22652E-13
 -1      1645 1.55695E-02-7.29594E-03-1.24889E-13
 -1      1646 1.54845E-02-7.25379E-03-1.24753E-13
 -1      1647 1.53183E-02-7.15789E-03-1.22920E-13
 -1      1648 1.57365E-02-7.37881E-03-1.25149E-13
 -1      1649 1.56530E-02-7.33737E-03-1.25021E-13
 -1      1650 1.54868E-02-7.24147E-03-1.23175E-13
 -1      1651 1.59064E-02-7.46310E-03-1.25393E-13
 -1      1652 1.58215E-02-7.42095E-03-1.25275E-13
 -1      1653 1.56553E-02-7.32505E-03-1.23422E-13
 -1      1654 1.60764E-02-7.54739E-03-1.25598E-13
 -1      1655 1.59914E-02-7.50525E-03-1.25500E-13
 -1      1656 1.58252E-02-7.40934E-03-1.23647E-13
 -1      1657 1.62463E-02-7.63168E-03-1.25773E-13
 -1      1658 1.61613E-02-7.58953E-03-1.25688E-13
 -1      1659 1.59952E-02-7.49363E-03-1.23844E-13
 -1      1660 1.64109E-02-7.71450E-03-1.26084E-13
 -1      1661 1.63259E-02-7.67235E-03-1.26001E-13
 -1      1662 1.61597E-02-7.57645E-03-1.24163E-13
 -1      1663 1.63189E-02-7.65781E-03-1.24614E-13
 -1      1664 5.58110E-03-9.77037E-04-6.49142E-15
 -1      1665 5.65615E-03-1.02301E-03-6.51170E-15
 -1      1666 5.33431E-03-8.46272E-04-6.31006E-15
 -1      1667 5.46116E-03-9.05811E-04-6.38686E-15
 -1      1668 4.98688E-03-6.78905E-04-6.02535E-15
 -1      1669 5.16045E-03-7.58411E-04-6.16160E-15
 -1      1670 4.55304E-03-4.92096E-04-5.66994E-15
 -1      1671 4.75515E-03-5.87659E-04-5.86231E-15
 -1      1672 4.12700E-03-2.78230E-04-5.18100E-15
 -1      1673 4.32761E-03-3.71145E-04-5.39849E-15
 -1      1674 3.70286E-03-9.65635E-05-4.68020E-15
 -1      1675 3.89633E-03-1.76749E-04-4.91352E-15
 -1      1676 3.30009E-03 3.84329E-05-4.17044E-15
 -1      1677 3.48291E-03-1.69021E-05-4.40422E-15
 -1      1678 2.91358E-03 1.10399E-04-3.66902E-15
 -1      1679 3.08767E-03 8.68810E-05-3.89906E-15
 -1      1680 2.52546E-03 1.09751E-04-3.17053E-15
 -1      1681 2.70434E-03 1.20502E-04-3.39743E-15
 -1      1682 2.14572E-03 4.36844E-05-2.74187E-15
 -1      1683 2.31489E-03 7.90784E-05-2.93065E-15
 -1      1684 1.78263E-03-5.77867E-05-2.37364E-15
 -1      1685 1.94932E-03-7.10867E-06-2.53673E-15
 -1      1686 1.42861E-03-1.76323E-04-2.06038E-15
 -1      1687 1.59007E-03-1.20155E-04-2.19872E-15
 -1      1688 1.11006E-03-3.01301E-04-1.79588E-15
 -1      1689 1.25478E-03-2.47989E-04-1.90530E-15
 -1      1690 8.44979E-04-4.19463E-04-1.58347E-15
 -1      1691 9.58420E-04-3.74162E-04-1.66164E-15
 -1      1692 7.18300E-04-4.91875E-04-1.51954E-15
 -1      1693 7.57069E-04-4.55385E-04-1.55188E-15
 -1      1694 7.23024E-04-5.80919E-04-1.49630E-15
 -1      1695 7.05291E-04-5.38233E-04-1.49916E-15
 -1      1696 8.76613E-04-6.91001E-04-1.52269E-15
 -1      1697 7.85012E-04-6.29668E-04-1.49088E-15
 -1      1698 1.14745E-03-8.85359E-04-1.66096E-15
 -1      1699 1.00944E-03-7.99442E-04-1.59996E-15
 -1      1700 1.54739E-03-1.11908E-03-1.84407E-15
 -1      1701 1.35211E-03-9.94854E-04-1.74297E-15
 -1      1702 2.01561E-03-1.45098E-03-2.14187E-15
 -1      1703 1.78491E-03-1.29633E-03-1.99831E-15
 -1      1704 2.56144E-03-1.79424E-03-2.51567E-15
 -1      1705 2.31541E-03-1.63255E-03-2.32483E-15
 -1      1706 3.05070E-03-2.05926E-03-2.97052E-15
 -1      1707 2.83057E-03-1.95527E-03-2.75818E-15
 -1      1708 3.53202E-03-2.17360E-03-3.49246E-15
 -1      1709 3.31315E-03-2.14400E-03-3.24139E-15
 -1      1710 3.98411E-03-2.10991E-03-4.03524E-15
 -1      1711 3.78099E-03-2.15507E-03-3.78912E-15
 -1      1712 4.42577E-03-1.93396E-03-4.57821E-15
 -1      1713 4.22185E-03-2.02635E-03-4.32795E-15
 -1      1714 4.85080E-03-1.70964E-03-5.10685E-15
 -1      1715 4.65826E-03-1.81577E-03-4.86864E-15
 -1      1716 5.21977E-03-1.49209E-03-5.59819E-15
 -1      1717 5.05566E-03-1.58726E-03-5.38657E-15
 -1      1718 5.51836E-03-1.30735E-03-6.03395E-15
 -1      1719 5.39105E-03-1.38560E-03-5.85218E-15
 -1      1720 5.68734E-03-1.17992E-03-6.28444E-15
 -1      1721 5.62927E-03-1.23646E-03-6.17212E-15
 -1      1722 5.70699E-03-1.07487E-03-6.47243E-15
 -1      1723 5.71641E-03-1.11933E-03-6.42355E-15
 -1      1724 3.32848E-03-2.09912E-03-2.37955E-15
 -1      1725 3.31815E-03-2.14196E-03-2.61035E-15
 -1      1726 3.17821E-03-1.91958E-03-2.07573E-15
 -1      1727 4.81080E-03-7.06923E-04-6.18606E-15
 -1      1728 5.69189E-03-1.07568E-03-6.84529E-15
 -1      1729 1.38685E-02-6.44940E-03-1.21659E-13
 -1      1730 1.37873E-02-6.39565E-03-1.20006E-13
 -1      1731 5.51765E-03-1.00237E-03-6.77634E-15
 -1      1732 5.21674E-03-8.76211E-04-6.51313E-15
 -1      1733 4.36492E-03-4.89117E-04-5.73031E-15
 -1      1734 3.93221E-03-2.53538E-04-5.17677E-15
 -1      1735 3.52730E-03-5.45296E-05-4.62258E-15
 -1      1736 3.15353E-03 8.49121E-05-4.06944E-15
 -1      1737 2.80073E-03 1.43759E-04-3.52648E-15
 -1      1738 2.45378E-03 1.12132E-04-3.02211E-15
 -1      1739 2.09530E-03 1.49415E-05-2.58745E-15
 -1      1740 1.73671E-03-1.14477E-04-2.22035E-15
 -1      1741 1.38095E-03-2.54181E-04-1.90386E-15
 -1      1742 1.05045E-03-3.83321E-04-1.62878E-15
 -1      1743 8.05054E-04-4.56134E-04-1.47957E-15
 -1      1744 7.03159E-04-5.10174E-04-1.43294E-15
 -1      1745 7.52933E-04-5.65849E-04-1.40615E-15
 -1      1746 9.60099E-04-6.65952E-04-1.46929E-15
 -1      1747 1.30628E-03-8.57176E-04-1.61840E-15
 -1      1748 1.75092E-03-1.13082E-03-1.83545E-15
 -1      1749 2.27092E-03-1.49842E-03-2.15539E-15
 -1      1750 2.78033E-03-1.86903E-03-2.56132E-15
 -1      1751 3.23602E-03-2.13240E-03-3.06442E-15
 -1      1752 3.64546E-03-2.19926E-03-3.63034E-15
 -1      1753 4.05665E-03-2.08056E-03-4.22733E-15
 -1      1754 4.47734E-03-1.85672E-03-4.82508E-15
 -1      1755 4.89398E-03-1.60431E-03-5.41266E-15
 -1      1756 5.27061E-03-1.38318E-03-5.96549E-15
 -1      1757 5.56207E-03-1.23339E-03-6.37568E-15
 -1      1758 5.70951E-03-1.13746E-03-6.66298E-15
 -1      1759 3.61874E-04-1.31004E-04-2.41642E-17
 -1      1760 2.92892E-03-1.73648E-03-1.96327E-15
 -1      1761 2.96652E-04-5.95384E-05-1.10304E-16
 -1      1762 3.28299E-04-6.40446E-05-1.01197E-16
 -1      1763 3.65574E-04-7.67852E-05-9.05173E-17
 -1      1764 4.06369E-04-9.96493E-05-7.61245E-17
 -1      1765 4.65454E-04-1.09374E-04-1.46462E-16
 -1      1766 2.37479E-04-8.92016E-05-1.30795E-16
 -1      1767 2.41211E-04-7.92625E-05-1.27380E-16
 -1      1768 2.48853E-04-1.03278E-04-1.35661E-16
 -1      1769 2.40636E-04-9.79372E-05-1.33547E-16
 -1      1770 3.13487E-04-1.28913E-04-1.95373E-16
 -1      1771 2.75993E-04-1.00699E-04-1.38249E-16
 -1      1772 2.61631E-04-1.04366E-04-1.37179E-16
 -1      1773 3.39506E-04-1.37334E-04-2.01621E-16
 -1      1774 3.05963E-04-7.98646E-05-1.39306E-16
 -1      1775 2.91554E-04-9.22983E-05-1.38981E-16
 -1      1776 3.82516E-04-1.23573E-04-2.04982E-16
 -1      1777 3.29989E-04-4.56210E-05-1.38520E-16
 -1      1778 3.19195E-04-6.39001E-05-1.39198E-16
 -1      1779 4.24420E-04-8.87800E-05-2.06188E-16
 -1      1780 3.44723E-04-4.82814E-06-1.36257E-16
 -1      1781 3.38559E-04-2.55866E-05-1.37734E-16
 -1      1782 4.54849E-04-4.05768E-05-2.05090E-16
 -1      1783 3.50945E-04 3.64375E-05-1.31324E-16
 -1      1784 3.48679E-04 1.59439E-05-1.34170E-16
 -1      1785 4.71396E-04 1.24208E-05-2.01296E-16
 -1      1786 3.51551E-04 7.68142E-05-1.23464E-16
 -1      1787 3.51691E-04 5.69624E-05-1.27936E-16
 -1      1788 4.76937E-04 6.52649E-05-1.93747E-16
 -1      1789 3.49800E-04 1.15306E-04-1.10087E-16
 -1      1790 3.50639E-04 9.63199E-05-1.17907E-16
 -1      1791 4.75834E-04 1.16277E-04-1.81265E-16
 -1      1792 3.49946E-04 1.54199E-04-8.94602E-17
 -1      1793 3.49216E-04 1.34620E-04-1.01102E-16
 -1      1794 4.73136E-04 1.65798E-04-1.61275E-16
 -1      1795 3.59607E-04 1.99599E-04-5.83572E-17
 -1      1796 3.52756E-04 1.75794E-04-7.57857E-17
 -1      1797 4.75343E-04 2.17642E-04-1.30714E-16
 -1      1798 4.13596E-04 2.57869E-04-3.46674E-17
 -1      1799 3.84498E-04 2.25950E-04-4.98462E-17
 -1      1800 5.05467E-04 2.73834E-04-1.01956E-16
 -1      1801 5.65620E-04 3.34781E-04-7.70190E-17
 -1      1802 4.22079E-04-1.27008E-04-5.04696E-17
 -1      1803 8.60270E-04 4.52908E-04-2.39961E-16
 -1      1804 7.14658E-04 3.98856E-04-1.45500E-16
 -1      1805 6.82863E-04 3.67304E-04-1.61424E-16
 -1      1806 2.73175E-03-1.57888E-03-1.87776E-15
 -1      1807 2.97534E-03-1.83711E-03-2.19386E-15
 -1      1808 1.00104E-03-3.12863E-04-2.78288E-16
 -1      1809 1.19122E-03-3.85155E-04-3.97048E-16
 -1      1810 1.38519E-03-4.71461E-04-5.39282E-16
 -1      1811 1.58436E-03-5.79611E-04-7.06791E-16
 -1      1812 1.16891E-03-3.78622E-04-4.98096E-16
 -1      1813 1.79483E-03-7.14445E-04-8.99617E-16
 -1      1814 2.01220E-03-8.87081E-04-1.12062E-15
 -1      1815 1.53525E-03-5.81039E-04-8.37180E-16
 -1      1816 2.21151E-03-1.06084E-03-1.33201E-15
 -1      1817 2.41422E-03-1.26863E-03-1.56694E-15
 -1      1818 1.91817E-03-8.74225E-04-1.24350E-15
 -1      1819 4.67043E-03-7.24029E-04-6.37140E-15
 -1      1820 4.88907E-03-8.15226E-04-6.55239E-15
 -1      1821 5.54586E-04-1.59283E-04-9.76460E-17
 -1      1822 3.86970E-03-2.24351E-03-3.99341E-15
 -1      1823 4.04216E-03-2.15651E-03-4.41620E-15
 -1      1824 4.24112E-03-2.01805E-03-4.91791E-15
 -1      1825 4.45685E-03-1.86863E-03-5.49349E-15
 -1      1826 4.68756E-03-1.72256E-03-6.12101E-15
 -1      1827 4.90814E-03-1.60656E-03-6.79693E-15
 -1      1828 5.13553E-03-1.52715E-03-7.54159E-15
 -1      1829 5.34863E-03-1.48318E-03-8.31892E-15
 -1      1830 5.09155E-03-1.49779E-03-7.23386E-15
 -1      1831 5.55504E-03-1.47441E-03-9.12612E-15
 -1      1832 5.75124E-03-1.49321E-03-9.96192E-15
 -1      1833 5.50064E-03-1.42560E-03-8.78952E-15
 -1      1834 5.94077E-03-1.53412E-03-1.08240E-14
 -1      1835 6.12393E-03-1.59089E-03-1.17103E-14
 -1      1836 5.86663E-03-1.47197E-03-1.04599E-14
 -1      1837 6.30150E-03-1.65909E-03-1.26224E-14
 -1      1838 6.47471E-03-1.73561E-03-1.35609E-14
 -1      1839 6.20802E-03-1.58929E-03-1.22334E-14
 -1      1840 6.64327E-03-1.81760E-03-1.45246E-14
 -1      1841 6.80863E-03-1.90346E-03-1.55138E-14
 -1      1842 6.53499E-03-1.74370E-03-1.41075E-14
 -1      1843 6.97030E-03-1.99167E-03-1.65292E-14
 -1      1844 7.12954E-03-2.08142E-03-1.75675E-14
 -1      1845 6.85202E-03-1.91600E-03-1.60834E-14
 -1      1846 7.28599E-03-2.17201E-03-1.86306E-14
 -1      1847 7.44060E-03-2.26301E-03-1.97170E-14
 -1      1848 7.16145E-03-2.09586E-03-1.81593E-14
 -1      1849 7.59317E-03-2.35417E-03-2.08282E-14
 -1      1850 7.74436E-03-2.44522E-03-2.19641E-14
 -1      1851 7.46491E-03-2.27815E-03-2.03332E-14
 -1      1852 7.89408E-03-2.53614E-03-2.31214E-14
 -1      1853 8.04278E-03-2.62676E-03-2.43031E-14
 -1      1854 7.76370E-03-2.46053E-03-2.26018E-14
 -1      1855 8.19045E-03-2.71714E-03-2.55103E-14
 -1      1856 8.33738E-03-2.80718E-03-2.67433E-14
 -1      1857 8.05893E-03-2.64199E-03-2.49663E-14
 -1      1858 8.48357E-03-2.89694E-03-2.80004E-14
 -1      1859 8.62924E-03-2.98638E-03-2.92823E-14
 -1      1860 8.35148E-03-2.82224E-03-2.74296E-14
 -1      1861 8.78164E-03-3.08002E-03-3.06550E-14
 -1      1862 8.93361E-03-3.17334E-03-3.20540E-14
 -1      1863 8.64929E-03-3.00572E-03-3.00582E-14
 -1      1864 9.07800E-03-3.26198E-03-3.34126E-14
 -1      1865 9.22211E-03-3.35039E-03-3.47954E-14
 -1      1866 8.94558E-03-3.18803E-03-3.27887E-14
 -1      1867 9.36598E-03-3.43859E-03-3.62017E-14
 -1      1868 9.50966E-03-3.52660E-03-3.76340E-14
 -1      1869 9.23358E-03-3.36491E-03-3.55528E-14
 -1      1870 9.65317E-03-3.61444E-03-3.90890E-14
 -1      1871 9.79655E-03-3.70211E-03-4.05666E-14
 -1      1872 9.52084E-03-3.54097E-03-3.84105E-14
 -1      1873 9.93981E-03-3.78965E-03-4.20646E-14
 -1      1874 1.00830E-02-3.87705E-03-4.35820E-14
 -1      1875 9.80757E-03-3.71635E-03-4.13628E-14
 -1      1876 1.02261E-02-3.96434E-03-4.51201E-14
 -1      1877 1.03691E-02-4.05152E-03-4.66716E-14
 -1      1878 1.00939E-02-3.89118E-03-4.43940E-14
 -1      1879 1.05121E-02-4.13861E-03-4.82433E-14
 -1      1880 1.06550E-02-4.22561E-03-4.98335E-14
 -1      1881 1.03800E-02-4.06556E-03-4.74994E-14
 -1      1882 1.07979E-02-4.31254E-03-5.14367E-14
 -1      1883 1.09408E-02-4.39939E-03-5.30573E-14
 -1      1884 1.06659E-02-4.23957E-03-5.06731E-14
 -1      1885 1.10837E-02-4.48619E-03-5.46947E-14
 -1      1886 1.12265E-02-4.57294E-03-5.63442E-14
 -1      1887 1.09517E-02-4.41329E-03-5.39110E-14
 -1      1888 1.13694E-02-4.65964E-03-5.80130E-14
 -1      1889 1.15122E-02-4.74629E-03-5.96983E-14
 -1      1890 1.12374E-02-4.58679E-03-5.72124E-14
 -1      1891 1.16550E-02-4.83291E-03-6.13950E-14
 -1      1892 1.17978E-02-4.91950E-03-6.31099E-14
 -1      1893 1.15231E-02-4.76010E-03-6.05770E-14
 -1      1894 1.19406E-02-5.00606E-03-6.48418E-14
 -1      1895 1.20834E-02-5.09259E-03-6.65888E-14
 -1      1896 1.18088E-02-4.93327E-03-6.40030E-14
 -1      1897 1.22262E-02-5.17910E-03-6.83506E-14
 -1      1898 1.23690E-02-5.26560E-03-7.01287E-14
 -1      1899 1.20944E-02-5.10634E-03-6.74942E-14
 -1      1900 1.25119E-02-5.35207E-03-7.19237E-14
 -1      1901 1.26547E-02-5.43854E-03-7.37367E-14
 -1      1902 1.23801E-02-5.27932E-03-7.10515E-14
 -1      1903 1.27975E-02-5.52499E-03-7.55623E-14
 -1      1904 1.29403E-02-5.61143E-03-7.74058E-14
 -1      1905 1.26657E-02-5.45225E-03-7.46736E-14
 -1      1906 1.30831E-02-5.69787E-03-7.92637E-14
 -1      1907 1.32260E-02-5.78429E-03-8.11363E-14
 -1      1908 1.29514E-02-5.62514E-03-7.83575E-14
 -1      1909 1.33688E-02-5.87071E-03-8.30253E-14
 -1      1910 1.35116E-02-5.95713E-03-8.49258E-14
 -1      1911 1.32370E-02-5.79799E-03-8.21035E-14
 -1      1912 1.36544E-02-6.04354E-03-8.68374E-14
 -1      1913 1.37973E-02-6.12995E-03-8.87615E-14
 -1      1914 1.35227E-02-5.97082E-03-8.59016E-14
 -1      1915 1.39401E-02-6.21636E-03-9.06976E-14
 -1      1916 1.40830E-02-6.30276E-03-9.26475E-14
 -1      1917 1.38084E-02-6.14363E-03-8.97483E-14
 -1      1918 1.42258E-02-6.38916E-03-9.46075E-14
 -1      1919 1.43686E-02-6.47556E-03-9.65755E-14
 -1      1920 1.40941E-02-6.31644E-03-9.36421E-14
 -1      1921 1.45115E-02-6.56196E-03-9.85529E-14
 -1      1922 1.46543E-02-6.64836E-03-1.00541E-13
 -1      1923 1.43798E-02-6.48924E-03-9.75766E-14
 -1      1924 1.47972E-02-6.73476E-03-1.02536E-13
 -1      1925 1.49400E-02-6.82116E-03-1.04534E-13
 -1      1926 1.46654E-02-6.66204E-03-1.01545E-13
 -1      1927 1.50829E-02-6.90756E-03-1.06544E-13
 -1      1928 1.52257E-02-6.99396E-03-1.08565E-13
 -1      1929 1.49512E-02-6.83484E-03-1.05545E-13
 -1      1930 1.53686E-02-7.08036E-03-1.10593E-13
 -1      1931 1.55114E-02-7.16676E-03-1.12628E-13
 -1      1932 1.52369E-02-7.00764E-03-1.09579E-13
 -1      1933 1.56543E-02-7.25316E-03-1.14671E-13
 -1      1934 1.57972E-02-7.33957E-03-1.16725E-13
 -1      1935 1.55226E-02-7.18044E-03-1.13648E-13
 -1      1936 1.59400E-02-7.42597E-03-1.18786E-13
 -1      1937 1.60829E-02-7.51237E-03-1.20854E-13
 -1      1938 1.58083E-02-7.35325E-03-1.17750E-13
 -1      1939 1.62270E-02-7.60111E-03-1.23144E-13
 -1      1940 1.35390E-03 5.67900E-04-8.28005E-16
 -1      1941 1.21929E-03 5.42861E-04-6.31439E-16
 -1      1942 1.61613E-03 5.96469E-04-1.30973E-15
 -1      1943 1.48607E-03 5.85895E-04-1.05395E-15
 -1      1944 1.41899E-03 5.43459E-04-9.97832E-16
 -1      1945 1.87107E-03 5.94473E-04-1.91455E-15
 -1      1946 1.74433E-03 5.99471E-04-1.59628E-15
 -1      1947 1.68853E-03 5.65849E-04-1.51870E-15
 -1      1948 2.12136E-03 5.59316E-04-2.64600E-15
 -1      1949 1.99656E-03 5.81181E-04-2.26440E-15
 -1      1950 1.95150E-03 5.56833E-04-2.16263E-15
 -1      1951 2.37005E-03 4.89546E-04-3.50760E-15
 -1      1952 2.24562E-03 5.28769E-04-3.06019E-15
 -1      1953 2.21033E-03 5.13620E-04-2.93388E-15
 -1      1954 2.62032E-03 3.86242E-04-4.50077E-15
 -1      1955 2.49472E-03 4.41923E-04-3.98765E-15
 -1      1956 2.46797E-03 4.35115E-04-3.83532E-15
 -1      1957 2.87496E-03 2.53393E-04-5.62285E-15
 -1      1958 2.74689E-03 3.23192E-04-5.04567E-15
 -1      1959 2.72746E-03 3.23158E-04-4.86701E-15
 -1      1960 3.13584E-03 9.72358E-05-6.87354E-15
 -1      1961 3.00452E-03 1.77820E-04-6.23218E-15
 -1      1962 2.99122E-03 1.82612E-04-6.02797E-15
 -1      1963 3.40368E-03-7.50472E-05-8.25055E-15
 -1      1964 3.26889E-03 1.26949E-05-7.54633E-15
 -1      1965 3.26065E-03 2.03921E-05-7.31641E-15
 -1      1966 3.67818E-03-2.56675E-04-9.75335E-15
 -1      1967 3.54018E-03-1.65049E-04-8.98636E-15
 -1      1968 3.53596E-03-1.56032E-04-8.73131E-15
 -1      1969 3.95830E-03-4.42207E-04-1.13803E-14
 -1      1970 3.81766E-03-3.49215E-04-1.05515E-14
 -1      1971 3.81650E-03-3.39991E-04-1.02710E-14
 -1      1972 4.24270E-03-6.27908E-04-1.31260E-14
 -1      1973 4.10010E-03-5.35202E-04-1.22388E-14
 -1      1974 4.10111E-03-5.26423E-04-1.19321E-14
 -1      1975 4.53001E-03-8.11650E-04-1.49884E-14
 -1      1976 4.38611E-03-7.20109E-04-1.40430E-14
 -1      1977 4.38852E-03-7.12063E-04-1.37106E-14
 -1      1978 4.81902E-03-9.92554E-04-1.69640E-14
 -1      1979 4.67440E-03-9.02484E-04-1.59626E-14
 -1      1980 4.67760E-03-8.95215E-04-1.56040E-14
 -1      1981 5.10882E-03-1.17056E-03-1.90515E-14
 -1      1982 4.96389E-03-1.08191E-03-1.79941E-14
 -1      1983 4.96745E-03-1.07532E-03-1.76095E-14
 -1      1984 5.39874E-03-1.34608E-03-2.12477E-14
 -1      1985 5.25381E-03-1.25861E-03-2.01354E-14
 -1      1986 5.25744E-03-1.25254E-03-1.97269E-14
 -1      1987 5.68838E-03-1.51967E-03-2.35519E-14
 -1      1988 5.54362E-03-1.43308E-03-2.23868E-14
 -1      1989 5.54718E-03-1.42738E-03-2.19528E-14
 -1      1990 5.97751E-03-1.69193E-03-2.59629E-14
 -1      1991 5.83302E-03-1.60594E-03-2.47444E-14
 -1      1992 5.83645E-03-1.60044E-03-2.42867E-14
 -1      1993 6.26604E-03-1.86337E-03-2.84769E-14
 -1      1994 6.12185E-03-1.77773E-03-2.72071E-14
 -1      1995 6.12514E-03-1.77233E-03-2.67253E-14
 -1      1996 6.55398E-03-2.03438E-03-3.10901E-14
 -1      1997 6.41008E-03-1.94891E-03-2.97703E-14
 -1      1998 6.41326E-03-1.94353E-03-2.92638E-14
 -1      1999 6.84138E-03-2.20527E-03-3.37983E-14
 -1      2000 6.69774E-03-2.11983E-03-3.24326E-14
 -1      2001 6.70084E-03-2.11441E-03-3.19003E-14
 -1      2002 7.12832E-03-2.37621E-03-3.65957E-14
 -1      2003 6.98490E-03-2.29072E-03-3.51865E-14
 -1      2004 6.98796E-03-2.28523E-03-3.46316E-14
 -1      2005 7.41489E-03-2.54731E-03-3.94803E-14
 -1      2006 7.27165E-03-2.46173E-03-3.80276E-14
 -1      2007 7.27469E-03-2.45616E-03-3.74505E-14
 -1      2008 7.70116E-03-2.71863E-03-4.24464E-14
 -1      2009 7.55806E-03-2.63294E-03-4.09529E-14
 -1      2010 7.56111E-03-2.62728E-03-4.03558E-14
 -1      2011 7.98722E-03-2.89020E-03-4.54929E-14
 -1      2012 7.84421E-03-2.80438E-03-4.39606E-14
 -1      2013 7.84729E-03-2.79864E-03-4.33428E-14
 -1      2014 8.27311E-03-3.06199E-03-4.86197E-14
 -1      2015 8.13018E-03-2.97606E-03-4.70447E-14
 -1      2016 8.13330E-03-2.97024E-03-4.64083E-14
 -1      2017 8.55889E-03-3.23399E-03-5.18299E-14
 -1      2018 8.41601E-03-3.14796E-03-5.02156E-14
 -1      2019 8.41917E-03-3.14208E-03-4.95555E-14
 -1      2020 8.84461E-03-3.40617E-03-5.51181E-14
 -1      2021 8.70176E-03-3.32006E-03-5.34644E-14
 -1      2022 8.70496E-03-3.31413E-03-5.27852E-14
 -1      2023 9.13028E-03-3.57851E-03-5.84817E-14
 -1      2024 8.98745E-03-3.49232E-03-5.67898E-14
 -1      2025 8.99068E-03-3.48635E-03-5.60909E-14
 -1      2026 9.41592E-03-3.75096E-03-6.19138E-14
 -1      2027 9.27310E-03-3.66472E-03-6.01896E-14
 -1      2028 9.27637E-03-3.65871E-03-5.94692E-14
 -1      2029 9.70155E-03-3.92352E-03-6.54076E-14
 -1      2030 9.55874E-03-3.83723E-03-6.36525E-14
 -1      2031 9.56203E-03-3.83120E-03-6.29152E-14
 -1      2032 9.98719E-03-4.09615E-03-6.89610E-14
 -1      2033 9.84437E-03-4.00983E-03-6.71780E-14
 -1      2034 9.84769E-03-4.00377E-03-6.64221E-14
 -1      2035 1.02728E-02-4.26884E-03-7.25710E-14
 -1      2036 1.01300E-02-4.18249E-03-7.07587E-14
 -1      2037 1.01333E-02-4.17642E-03-6.99869E-14
 -1      2038 1.05585E-02-4.44157E-03-7.62267E-14
 -1      2039 1.04156E-02-4.35520E-03-7.43929E-14
 -1      2040 1.04190E-02-4.34912E-03-7.36057E-14
 -1      2041 1.08441E-02-4.61433E-03-7.99287E-14
 -1      2042 1.07013E-02-4.52795E-03-7.80727E-14
 -1      2043 1.07047E-02-4.52186E-03-7.72712E-14
 -1      2044 1.11298E-02-4.78711E-03-8.36688E-14
 -1      2045 1.09870E-02-4.70072E-03-8.17949E-14
 -1      2046 1.09903E-02-4.69463E-03-8.09814E-14
 -1      2047 1.14155E-02-4.95991E-03-8.74489E-14
 -1      2048 1.12726E-02-4.87351E-03-8.55536E-14
 -1      2049 1.12760E-02-4.86742E-03-8.47305E-14
 -1      2050 1.17011E-02-5.13271E-03-9.12627E-14
 -1      2051 1.15583E-02-5.04631E-03-8.93539E-14
 -1      2052 1.15617E-02-5.04022E-03-8.85223E-14
 -1      2053 1.19868E-02-5.30553E-03-9.51049E-14
 -1      2054 1.18440E-02-5.21912E-03-9.31798E-14
 -1      2055 1.18474E-02-5.21303E-03-9.23440E-14
 -1      2056 1.22725E-02-5.47834E-03-9.89761E-14
 -1      2057 1.21297E-02-5.39193E-03-9.70375E-14
 -1      2058 1.21331E-02-5.38584E-03-9.61953E-14
 -1      2059 1.25582E-02-5.65115E-03-1.02875E-13
 -1      2060 1.24154E-02-5.56475E-03-1.00922E-13
 -1      2061 1.24188E-02-5.55866E-03-1.00072E-13
 -1      2062 1.28439E-02-5.82397E-03-1.06792E-13
 -1      2063 1.27011E-02-5.73756E-03-1.04831E-13
 -1      2064 1.27045E-02-5.73147E-03-1.03973E-13
 -1      2065 1.31296E-02-5.99678E-03-1.10738E-13
 -1      2066 1.29868E-02-5.91037E-03-1.08762E-13
 -1      2067 1.29902E-02-5.90428E-03-1.07898E-13
 -1      2068 1.34154E-02-6.16959E-03-1.14704E-13
 -1      2069 1.32725E-02-6.08318E-03-1.12719E-13
 -1      2070 1.32759E-02-6.07710E-03-1.11847E-13
 -1      2071 1.36727E-02-6.32582E-03-1.18349E-13
 -1      2072 1.35299E-02-6.23942E-03-1.16361E-13
 -1      2073 1.35333E-02-6.23333E-03-1.15488E-13
 -1      2074 1.37623E-02-6.37299E-03-1.18804E-13
 -1      2075 1.42204E-02-6.59979E-03-1.19537E-13
 -1      2076 1.41354E-02-6.55765E-03-1.19388E-13
 -1      2077 1.40505E-02-6.51550E-03-1.19242E-13
 -1      2078 1.39655E-02-6.47336E-03-1.19096E-13
 -1      2079 1.39692E-02-6.46175E-03-1.17585E-13
 -1      2080 1.38473E-02-6.41514E-03-1.18945E-13
 -1      2081 1.43874E-02-6.68266E-03-1.19827E-13
 -1      2082 1.43039E-02-6.64122E-03-1.19683E-13
 -1      2083 1.41377E-02-6.54533E-03-1.17874E-13
 -1      2084 1.45573E-02-6.76695E-03-1.20115E-13
 -1      2085 1.44724E-02-6.72480E-03-1.19972E-13
 -1      2086 1.43062E-02-6.62891E-03-1.18160E-13
 -1      2087 1.47273E-02-6.85125E-03-1.20402E-13
 -1      2088 1.46423E-02-6.80910E-03-1.20261E-13
 -1      2089 1.44761E-02-6.71320E-03-1.18445E-13
 -1      2090 1.48972E-02-6.93554E-03-1.20686E-13
 -1      2091 1.48122E-02-6.89340E-03-1.20542E-13
 -1      2092 1.46460E-02-6.79750E-03-1.18723E-13
 -1      2093 1.50671E-02-7.01984E-03-1.20959E-13
 -1      2094 1.49822E-02-6.97769E-03-1.20823E-13
 -1      2095 1.48160E-02-6.88179E-03-1.18997E-13
 -1      2096 1.52371E-02-7.10414E-03-1.21218E-13
 -1      2097 1.51521E-02-7.06199E-03-1.21091E-13
 -1      2098 1.49859E-02-6.96609E-03-1.19263E-13
 -1      2099 1.54041E-02-7.18701E-03-1.21461E-13
 -1      2100 1.53206E-02-7.14557E-03-1.21341E-13
 -1      2101 1.51544E-02-7.04967E-03-1.19513E-13
 -1      2102 1.55740E-02-7.27130E-03-1.21697E-13
 -1      2103 1.54891E-02-7.22915E-03-1.21581E-13
 -1      2104 1.53229E-02-7.13325E-03-1.19746E-13
 -1      2105 1.57440E-02-7.35559E-03-1.21905E-13
 -1      2106 1.56590E-02-7.31344E-03-1.21802E-13
 -1      2107 1.54928E-02-7.21755E-03-1.19965E-13
 -1      2108 1.59139E-02-7.43988E-03-1.22094E-13
 -1      2109 1.58290E-02-7.39774E-03-1.22002E-13
 -1      2110 1.56628E-02-7.30184E-03-1.20163E-13
 -1      2111 1.11092E-03 5.22577E-04-4.86427E-16
 -1      2112 9.71561E-04 4.84313E-04-3.42459E-16
 -1      2113 9.43973E-04 4.54313E-04-3.59860E-16
 -1      2114 1.16945E-03 5.03652E-04-6.21898E-16
 -1      2115 5.08990E-03-9.07565E-04-6.79109E-15
 -1      2116 5.26616E-03-9.72384E-04-6.95269E-15
 -1      2117 4.17428E-03-4.67375E-04-5.81059E-15
 -1      2118 4.38354E-03-5.91433E-04-6.09936E-15
 -1      2119 5.67268E-03-1.09783E-03-7.27137E-15
 -1      2120 5.72092E-03-1.10989E-03-7.23242E-15
 -1      2121 3.17403E-03-2.03543E-03-2.48548E-15
 -1      2122 3.35518E-03-2.18274E-03-2.82047E-15
 -1      2123 2.52243E-04-6.94178E-05-1.23016E-16
 -1      2124 2.70713E-04-6.22669E-05-1.17026E-16
 -1      2125 3.74572E-04-9.50583E-05-1.70125E-16
 -1      2126 3.22547E-04-1.08606E-04-1.85439E-16
 -1      2127 3.52137E-03-2.27034E-03-3.18129E-15
 -1      2128 3.69938E-03-2.29003E-03-3.57597E-15
 -1      2129 3.77556E-03-2.24720E-03-3.80937E-15
 -1      2130 3.39526E-03-2.20945E-03-3.03091E-15
 -1      2131 3.78957E-03-2.35205E-04-5.23637E-15
 -1      2132 3.98212E-03-3.50640E-04-5.51829E-15
 -1      2133 4.04074E-03-4.40181E-04-5.87030E-15
 -1      2134 3.38039E-03-1.14729E-05-4.59146E-15
 -1      2135 3.54789E-03-1.03306E-04-4.87579E-15
 -1      2136 3.04716E-03 1.22577E-04-3.99241E-15
 -1      2137 3.19868E-03 6.95681E-05-4.26726E-15
 -1      2138 2.72148E-03 1.64940E-04-3.40231E-15
 -1      2139 2.86767E-03 1.59139E-04-3.67105E-15
 -1      2140 2.37618E-03 1.03140E-04-2.84259E-15
 -1      2141 2.52590E-03 1.43291E-04-3.07236E-15
 -1      2142 2.06807E-03-9.08706E-06-2.44718E-15
 -1      2143 2.22466E-03 5.39161E-05-2.64128E-15
 -1      2144 2.30597E-03 8.73406E-05-2.68890E-15
 -1      2145 1.68701E-03-1.65563E-04-2.06283E-15
 -1      2146 1.85519E-03-9.38698E-05-2.22428E-15
 -1      2147 1.34305E-03-3.01857E-04-1.77048E-15
 -1      2148 1.51219E-03-2.35019E-04-1.91312E-15
 -1      2149 1.61717E-03-2.04912E-04-1.91626E-15
 -1      2150 1.00319E-03-4.16232E-04-1.48590E-15
 -1      2151 1.15817E-03-3.70327E-04-1.60740E-15
 -1      2152 7.51217E-04-4.74493E-04-1.37449E-15
 -1      2153 8.34491E-04-4.57093E-04-1.39705E-15
 -1      2154 6.95609E-04-5.01381E-04-1.33446E-15
 -1      2155 7.09144E-04-4.90254E-04-1.35289E-15
 -1      2156 7.22011E-04-4.71129E-04-1.27233E-15
 -1      2157 7.81820E-04-5.28266E-04-1.30688E-15
 -1      2158 7.18408E-04-5.16266E-04-1.31663E-15
 -1      2159 1.08015E-03-6.45991E-04-1.40567E-15
 -1      2160 9.35091E-04-5.77424E-04-1.33710E-15
 -1      2161 1.45013E-03-8.19540E-04-1.53477E-15
 -1      2162 1.24926E-03-7.25829E-04-1.46755E-15
 -1      2163 1.19328E-03-6.28434E-04-1.32701E-15
 -1      2164 1.96494E-03-1.15587E-03-1.79950E-15
 -1      2165 1.73222E-03-9.88489E-04-1.66310E-15
 -1      2166 2.46224E-03-1.53420E-03-2.11552E-15
 -1      2167 2.21109E-03-1.34041E-03-1.95240E-15
 -1      2168 2.14008E-03-1.20250E-03-1.76359E-15
 -1      2169 2.95540E-03-1.95343E-03-2.61190E-15
 -1      2170 2.74568E-03-1.77752E-03-2.38283E-15
 -1      2171 3.30064E-03-2.16709E-03-3.00319E-15
 -1      2172 3.12988E-03-2.06224E-03-2.74626E-15
 -1      2173 3.67766E-03-2.23189E-03-3.66921E-15
 -1      2174 3.52196E-03-2.23922E-03-3.37458E-15
 -1      2175 4.06582E-03-2.08047E-03-4.39115E-15
 -1      2176 3.90366E-03-2.17173E-03-4.08790E-15
 -1      2177 4.53594E-03-1.78096E-03-5.10608E-15
 -1      2178 4.34336E-03-1.91064E-03-4.80031E-15
 -1      2179 4.94365E-03-1.52053E-03-5.74677E-15
 -1      2180 4.75154E-03-1.64140E-03-5.44947E-15
 -1      2181 5.32614E-03-1.31048E-03-6.35388E-15
 -1      2182 5.15452E-03-1.39867E-03-6.08301E-15
 -1      2183 5.61619E-03-1.18400E-03-6.80005E-15
 -1      2184 5.50325E-03-1.22774E-03-6.64752E-15
 -1      2185 5.72615E-03-1.12978E-03-7.08705E-15
 -1      2186 5.68856E-03-1.14991E-03-6.94160E-15
 -1      2187 5.65821E-03-1.16486E-03-7.21763E-15
 -1      2188 5.42033E-03-1.02101E-03-7.05749E-15
 -1      2189 5.54719E-03-1.05804E-03-7.16748E-15
 -1      2190 5.31842E-03-1.03234E-03-7.33584E-15
 -1      2191 4.18119E-03-2.03632E-03-4.72804E-15
 -1      2192 2.99460E-03-1.90108E-03-2.37603E-15
 -1      2193 4.96953E-03-9.07575E-04-6.97858E-15
 -1      2194 2.44038E-03-1.35896E-03-1.75928E-15
 -1      2195 7.36478E-04-2.18004E-04-1.64446E-16
 -1      2196 7.50423E-04-2.11384E-04-2.29770E-16
 -1      2197 4.49538E-03-6.89703E-04-6.45104E-15
 -1      2198 3.63511E-03-1.85899E-04-5.19994E-15
 -1      2199 4.63658E-03-1.72332E-03-5.85793E-15
 -1      2200 1.60952E-02-7.52839E-03-1.22099E-13
 -1      2201 1.37660E-02-6.36138E-03-1.17293E-13
 -1      2202 5.61264E-03-1.10490E-03-7.55088E-15
 -1      2203 1.60444E-02-7.50447E-03-1.22212E-13
 -1      2204 1.59648E-02-7.46380E-03-1.21985E-13
 -1      2205 1.57986E-02-7.36790E-03-1.20150E-13
 -1      2206 1.59003E-02-7.41573E-03-1.19929E-13
 -1      2207 5.73586E-03-1.13275E-03-7.51062E-15
 -1      2208 5.42118E-03-1.25525E-03-6.76778E-15
 -1      2209 5.03961E-03-1.44525E-03-6.12075E-15
 -1      2210 4.63000E-03-1.70318E-03-5.42307E-15
 -1      2211 2.63756E-03-1.63295E-03-2.15878E-15
 -1      2212 1.62808E-03-8.55049E-04-1.50057E-15
 -1      2213 7.00120E-04-4.81695E-04-1.23459E-15
 -1      2214 1.26360E-03-3.39644E-04-1.61231E-15
 -1      2215 1.97941E-03-4.77902E-05-2.27395E-15
 -1      2216 2.61002E-03 1.65980E-04-3.20553E-15
 -1      2217 2.93694E-03 1.50500E-04-3.85531E-15
 -1      2218 3.25707E-03 2.98399E-05-4.50575E-15
 -1      2219 9.09620E-04-4.38873E-04-1.37301E-15
 -1      2220 9.87617E-04-4.14438E-04-1.34747E-15
 -1      2221 8.31443E-04-4.44383E-04-1.26720E-15
 -1      2222 8.54902E-04-5.14648E-04-1.24213E-15
 -1      2223 7.92642E-04-4.70215E-04-1.15286E-15
 -1      2224 9.41314E-04-5.01470E-04-1.17754E-15
 -1      2225 4.30988E-04-1.66394E-04-2.80429E-16
 -1      2226 4.05217E-04-1.70118E-04-2.77190E-16
 -1      2227 3.85611E-04-1.67111E-04-2.72799E-16
 -1      2228 3.77462E-04-1.59240E-04-2.67486E-16
 -1      2229 4.64670E-04-2.03991E-04-3.65390E-16
 -1      2230 5.52273E-04-8.93351E-05-2.94144E-16
 -1      2231 5.28027E-04-1.16710E-04-2.93859E-16
 -1      2232 5.86797E-04-2.68993E-05-2.92613E-16
 -1      2233 5.72059E-04-5.87585E-05-2.93887E-16
 -1      2234 6.88743E-04-8.01570E-05-4.00694E-16
 -1      2235 6.02987E-04 3.71665E-05-2.86812E-16
 -1      2236 5.96821E-04 5.27550E-06-2.90485E-16
 -1      2237 7.24080E-04-5.28536E-06-3.98255E-16
 -1      2238 6.06399E-04 1.00385E-04-2.75455E-16
 -1      2239 6.05884E-04 6.92147E-05-2.81838E-16
 -1      2240 7.37910E-04 6.91881E-05-3.89771E-16
 -1      2241 6.03066E-04 1.60683E-04-2.57173E-16
 -1      2242 6.05101E-04 1.30892E-04-2.67446E-16
 -1      2243 7.37808E-04 1.40594E-04-3.73765E-16
 -1      2244 5.99892E-04 2.20015E-04-2.28306E-16
 -1      2245 6.00952E-04 1.90327E-04-2.44366E-16
 -1      2246 7.31874E-04 2.08713E-04-3.48124E-16
 -1      2247 6.05657E-04 2.82985E-04-1.85507E-16
 -1      2248 6.01048E-04 2.50790E-04-2.09061E-16
 -1      2249 7.28677E-04 2.76515E-04-3.08998E-16
 -1      2250 6.53922E-04 3.38435E-04-1.70857E-16
 -1      2251 6.29184E-04 3.09303E-04-1.80804E-16
 -1      2252 7.52854E-04 3.38126E-04-2.80144E-16
 -1      2253 8.02012E-04 3.93529E-04-2.67337E-16
 -1      2254 4.36066E-03-6.71115E-04-6.64128E-15
 -1      2255 4.61631E-03-7.98635E-04-6.93303E-15
 -1      2256 9.71339E-04-3.02818E-04-4.55067E-16
 -1      2257 1.12670E-03-3.77916E-04-6.03250E-16
 -1      2258 1.28688E-03-4.67592E-04-7.73632E-16
 -1      2259 1.45754E-03-5.82989E-04-9.69087E-16
 -1      2260 1.06558E-03-3.80138E-04-7.11318E-16
 -1      2261 6.02965E-04-1.57795E-04-2.15187E-16
 -1      2262 8.15477E-04-2.38416E-04-3.45373E-16
 -1      2263 7.92597E-04-2.44224E-04-4.27867E-16
 -1      2264 5.36388E-04-1.41375E-04-2.32439E-16
 -1      2265 1.36515E-02-6.29155E-03-1.15633E-13
 -1      2266 5.47163E-03-1.37006E-03-8.44127E-15
 -1      2267 5.64503E-03-1.37609E-03-9.24885E-15
 -1      2268 5.80965E-03-1.40793E-03-1.00842E-14
 -1      2269 5.96893E-03-1.45632E-03-1.09448E-14
 -1      2270 5.77172E-03-1.34714E-03-9.71106E-15
 -1      2271 6.12427E-03-1.51800E-03-1.18304E-14
 -1      2272 6.27814E-03-1.58931E-03-1.27400E-14
 -1      2273 6.05624E-03-1.45219E-03-1.14296E-14
 -1      2274 6.43006E-03-1.66728E-03-1.36757E-14
 -1      2275 6.58171E-03-1.75034E-03-1.46363E-14
 -1      2276 6.33746E-03-1.59602E-03-1.32466E-14
 -1      2277 6.73208E-03-1.83647E-03-1.56231E-14
 -1      2278 6.88233E-03-1.92498E-03-1.66344E-14
 -1      2279 6.62139E-03-1.76094E-03-1.51652E-14
 -1      2280 7.03155E-03-2.01473E-03-1.76703E-14
 -1      2281 7.18055E-03-2.10539E-03-1.87303E-14
 -1      2282 6.90835E-03-1.93641E-03-1.71837E-14
 -1      2283 7.32866E-03-2.19638E-03-1.98145E-14
 -1      2284 7.47647E-03-2.28755E-03-2.09260E-14
 -1      2285 7.19718E-03-2.11648E-03-1.93011E-14
 -1      2286 7.62355E-03-2.37864E-03-2.20592E-14
 -1      2287 7.77029E-03-2.46957E-03-2.32156E-14
 -1      2288 7.48671E-03-2.29796E-03-2.15180E-14
 -1      2289 7.91643E-03-2.56026E-03-2.43985E-14
 -1      2290 8.06225E-03-2.65066E-03-2.56039E-14
 -1      2291 7.77621E-03-2.47929E-03-2.38315E-14
 -1      2292 8.20760E-03-2.74077E-03-2.68346E-14
 -1      2293 8.35267E-03-2.83057E-03-2.80904E-14
 -1      2294 8.06529E-03-2.65977E-03-2.62411E-14
 -1      2295 8.50461E-03-2.92455E-03-2.94340E-14
 -1      2296 8.65630E-03-3.01820E-03-3.08058E-14
 -1      2297 8.36100E-03-2.84365E-03-2.88128E-14
 -1      2298 8.80048E-03-3.10713E-03-3.21376E-14
 -1      2299 8.94449E-03-3.19580E-03-3.34927E-14
 -1      2300 8.65610E-03-3.02640E-03-3.14880E-14
 -1      2301 9.08829E-03-3.28425E-03-3.48723E-14
 -1      2302 9.23196E-03-3.37248E-03-3.62761E-14
 -1      2303 8.94348E-03-3.20369E-03-3.41942E-14
 -1      2304 9.37547E-03-3.46052E-03-3.77048E-14
 -1      2305 9.51889E-03-3.54837E-03-3.91559E-14
 -1      2306 9.23043E-03-3.38012E-03-3.69999E-14
 -1      2307 9.66219E-03-3.63607E-03-4.06274E-14
 -1      2308 9.80542E-03-3.72362E-03-4.21208E-14
 -1      2309 9.51703E-03-3.55582E-03-3.98958E-14
 -1      2310 9.94857E-03-3.81104E-03-4.36353E-14
 -1      2311 1.00917E-02-3.89834E-03-4.51672E-14
 -1      2312 9.80336E-03-3.73092E-03-4.28787E-14
 -1      2313 1.02347E-02-3.98553E-03-4.67177E-14
 -1      2314 1.03777E-02-4.07262E-03-4.82852E-14
 -1      2315 1.00895E-02-3.90551E-03-4.59378E-14
 -1      2316 1.05207E-02-4.15963E-03-4.98715E-14
 -1      2317 1.06636E-02-4.24656E-03-5.14722E-14
 -1      2318 1.03755E-02-4.07969E-03-4.90696E-14
 -1      2319 1.08065E-02-4.33343E-03-5.30874E-14
 -1      2320 1.09494E-02-4.42023E-03-5.47199E-14
 -1      2321 1.06613E-02-4.25355E-03-5.22674E-14
 -1      2322 1.10923E-02-4.50697E-03-5.63707E-14
 -1      2323 1.12352E-02-4.59367E-03-5.80353E-14
 -1      2324 1.09471E-02-4.42715E-03-5.55281E-14
 -1      2325 1.13780E-02-4.68033E-03-5.97142E-14
 -1      2326 1.15209E-02-4.76694E-03-6.14081E-14
 -1      2327 1.12329E-02-4.60055E-03-5.88541E-14
 -1      2328 1.16637E-02-4.85353E-03-6.31213E-14
 -1      2329 1.18065E-02-4.94009E-03-6.48507E-14
 -1      2330 1.15186E-02-4.77378E-03-6.22428E-14
 -1      2331 1.19494E-02-5.02662E-03-6.65944E-14
 -1      2332 1.20922E-02-5.11313E-03-6.83553E-14
 -1      2333 1.18043E-02-4.94689E-03-6.56962E-14
 -1      2334 1.22350E-02-5.19962E-03-7.01325E-14
 -1      2335 1.23779E-02-5.28610E-03-7.19276E-14
 -1      2336 1.20900E-02-5.11992E-03-6.92173E-14
 -1      2337 1.25207E-02-5.37256E-03-7.37384E-14
 -1      2338 1.26635E-02-5.45901E-03-7.55646E-14
 -1      2339 1.23757E-02-5.29287E-03-7.28042E-14
 -1      2340 1.28064E-02-5.54545E-03-7.74041E-14
 -1      2341 1.29492E-02-5.63189E-03-7.92610E-14
 -1      2342 1.26614E-02-5.46577E-03-7.64550E-14
 -1      2343 1.30920E-02-5.71831E-03-8.11331E-14
 -1      2344 1.32349E-02-5.80473E-03-8.30183E-14
 -1      2345 1.29470E-02-5.63863E-03-8.01649E-14
 -1      2346 1.33777E-02-5.89114E-03-8.49166E-14
 -1      2347 1.35206E-02-5.97756E-03-8.68254E-14
 -1      2348 1.32327E-02-5.81147E-03-8.39305E-14
 -1      2349 1.36634E-02-6.06396E-03-8.87485E-14
 -1      2350 1.38062E-02-6.15037E-03-9.06818E-14
 -1      2351 1.35184E-02-5.98429E-03-8.77472E-14
 -1      2352 1.39491E-02-6.23677E-03-9.26241E-14
 -1      2353 1.40919E-02-6.32317E-03-9.45797E-14
 -1      2354 1.38041E-02-6.15710E-03-9.16100E-14
 -1      2355 1.42348E-02-6.40957E-03-9.65450E-14
 -1      2356 1.43776E-02-6.49597E-03-9.85184E-14
 -1      2357 1.40898E-02-6.32990E-03-9.55151E-14
 -1      2358 1.45205E-02-6.58237E-03-1.00499E-13
 -1      2359 1.46633E-02-6.66877E-03-1.02490E-13
 -1      2360 1.43755E-02-6.50270E-03-9.94571E-14
 -1      2361 1.48062E-02-6.75517E-03-1.04487E-13
 -1      2362 1.49490E-02-6.84157E-03-1.06491E-13
 -1      2363 1.46612E-02-6.67550E-03-1.03430E-13
 -1      2364 1.50919E-02-6.92797E-03-1.08505E-13
 -1      2365 1.52347E-02-7.01437E-03-1.10533E-13
 -1      2366 1.49469E-02-6.84830E-03-1.07437E-13
 -1      2367 1.53776E-02-7.10077E-03-1.12563E-13
 -1      2368 1.55205E-02-7.18717E-03-1.14603E-13
 -1      2369 1.52326E-02-7.02110E-03-1.11479E-13
 -1      2370 1.56389E-02-7.25825E-03-1.16233E-13
 -1      2371 1.57818E-02-7.34465E-03-1.18289E-13
 -1      2372 1.57309E-02-7.32074E-03-1.18402E-13
 -1      2373 1.54940E-02-7.17858E-03-1.15140E-13
 -1      2374 2.03768E-03 5.17319E-04-2.41549E-15
 -1      2375 1.90321E-03 5.29673E-04-2.05817E-15
 -1      2376 1.76761E-03 5.33420E-04-1.73254E-15
 -1      2377 1.63037E-03 5.29160E-04-1.43783E-15
 -1      2378 1.85225E-03 4.99564E-04-1.95129E-15
 -1      2379 1.49150E-03 5.17176E-04-1.17331E-15
 -1      2380 1.35071E-03 4.98098E-04-9.38553E-16
 -1      2381 1.57020E-03 4.89484E-04-1.35420E-15
 -1      2382 2.30400E-03 4.65837E-04-3.22615E-15
 -1      2383 2.17104E-03 4.96141E-04-2.80463E-15
 -1      2384 2.12859E-03 4.76138E-04-2.67267E-15
 -1      2385 2.56957E-03 3.78295E-04-4.16693E-15
 -1      2386 2.43659E-03 4.26502E-04-3.68016E-15
 -1      2387 2.40156E-03 4.15964E-04-3.52253E-15
 -1      2388 2.83734E-03 2.57436E-04-5.23736E-15
 -1      2389 2.70294E-03 3.21736E-04-4.68599E-15
 -1      2390 2.67433E-03 3.18936E-04-4.50220E-15
 -1      2391 3.10947E-03 1.09138E-04-6.43706E-15
 -1      2392 2.97273E-03 1.86270E-04-5.82127E-15
 -1      2393 2.94988E-03 1.88900E-04-5.61186E-15
 -1      2394 3.38686E-03-5.89455E-05-7.76375E-15
 -1      2395 3.24750E-03 2.70811E-05-7.08435E-15
 -1      2396 3.23001E-03 3.28843E-05-6.85010E-15
 -1      2397 3.66920E-03-2.39099E-04-9.21610E-15
 -1      2398 3.52749E-03-1.47945E-04-8.47434E-15
 -1      2399 3.51504E-03-1.40720E-04-8.21508E-15
 -1      2400 3.95543E-03-4.24870E-04-1.07922E-14
 -1      2401 3.81196E-03-3.31602E-04-9.98880E-15
 -1      2402 3.80407E-03-3.24065E-04-9.70459E-15
 -1      2403 4.24426E-03-6.11683E-04-1.24864E-14
 -1      2404 4.09965E-03-5.18348E-04-1.16244E-14
 -1      2405 4.09563E-03-5.11062E-04-1.13156E-14
 -1      2406 4.53449E-03-7.96820E-04-1.42973E-14
 -1      2407 4.38932E-03-7.04563E-04-1.33779E-14
 -1      2408 4.38833E-03-6.97733E-04-1.30436E-14
 -1      2409 4.82523E-03-9.79049E-04-1.62216E-14
 -1      2410 4.67989E-03-8.88330E-04-1.52457E-14
 -1      2411 4.68109E-03-8.81963E-04-1.48869E-14
 -1      2412 5.11586E-03-1.15814E-03-1.82580E-14
 -1      2413 4.97062E-03-1.06898E-03-1.72255E-14
 -1      2414 4.97325E-03-1.06299E-03-1.68420E-14
 -1      2415 5.40604E-03-1.33444E-03-2.04049E-14
 -1      2416 5.26104E-03-1.24661E-03-1.93178E-14
 -1      2417 5.26449E-03-1.24091E-03-1.89087E-14
 -1      2418 5.69561E-03-1.50854E-03-2.26605E-14
 -1      2419 5.55092E-03-1.42173E-03-2.15187E-14
 -1      2420 5.55476E-03-1.41621E-03-2.10860E-14
 -1      2421 5.98452E-03-1.68106E-03-2.50224E-14
 -1      2422 5.84015E-03-1.59496E-03-2.38281E-14
 -1      2423 5.84410E-03-1.58953E-03-2.33697E-14
 -1      2424 6.27280E-03-1.85259E-03-2.74873E-14
 -1      2425 6.12874E-03-1.76692E-03-2.62425E-14
 -1      2426 6.13263E-03-1.76152E-03-2.57600E-14
 -1      2427 6.56052E-03-2.02357E-03-3.00517E-14
 -1      2428 6.41673E-03-1.93813E-03-2.87578E-14
 -1      2429 6.42049E-03-1.93271E-03-2.82509E-14
 -1      2430 6.84776E-03-2.19434E-03-3.27127E-14
 -1      2431 6.70419E-03-2.10897E-03-3.13699E-14
 -1      2432 6.70782E-03-2.10350E-03-3.08413E-14
 -1      2433 7.13460E-03-2.36512E-03-3.54654E-14
 -1      2434 6.99122E-03-2.27972E-03-3.40779E-14
 -1      2435 6.99471E-03-2.27419E-03-3.35248E-14
 -1      2436 7.42112E-03-2.53606E-03-3.83062E-14
 -1      2437 7.27789E-03-2.45057E-03-3.68753E-14
 -1      2438 7.28128E-03-2.44496E-03-3.62993E-14
 -1      2439 7.70740E-03-2.70722E-03-4.12301E-14
 -1      2440 7.56429E-03-2.62161E-03-3.97573E-14
 -1      2441 7.56760E-03-2.61592E-03-3.91605E-14
 -1      2442 7.99348E-03-2.87863E-03-4.42383E-14
 -1      2443 7.85046E-03-2.79289E-03-4.27237E-14
 -1      2444 7.85373E-03-2.78713E-03-4.21063E-14
 -1      2445 8.27943E-03-3.05029E-03-4.73238E-14
 -1      2446 8.13647E-03-2.96443E-03-4.57722E-14
 -1      2447 8.13971E-03-2.95860E-03-4.51339E-14
 -1      2448 8.56528E-03-3.22218E-03-5.04916E-14
 -1      2449 8.42236E-03-3.13620E-03-4.88964E-14
 -1      2450 8.42560E-03-3.13032E-03-4.82396E-14
 -1      2451 8.85105E-03-3.39427E-03-5.37379E-14
 -1      2452 8.70817E-03-3.30820E-03-5.21048E-14
 -1      2453 8.71141E-03-3.30227E-03-5.14259E-14
 -1      2454 9.13678E-03-3.56653E-03-5.70620E-14
 -1      2455 8.99392E-03-3.48038E-03-5.53920E-14
 -1      2456 8.99718E-03-3.47441E-03-5.46923E-14
 -1      2457 9.42248E-03-3.73893E-03-6.04563E-14
 -1      2458 9.27963E-03-3.65271E-03-5.87497E-14
 -1      2459 9.28290E-03-3.64671E-03-5.80341E-14
 -1      2460 9.70816E-03-3.91144E-03-6.39160E-14
 -1      2461 9.56532E-03-3.82517E-03-6.21791E-14
 -1      2462 9.56861E-03-3.81915E-03-6.14430E-14
 -1      2463 9.99384E-03-4.08404E-03-6.74354E-14
 -1      2464 9.85100E-03-3.99773E-03-6.56683E-14
 -1      2465 9.85431E-03-3.99168E-03-6.49164E-14
 -1      2466 1.02795E-02-4.25670E-03-7.10119E-14
 -1      2467 1.01367E-02-4.17036E-03-6.92171E-14
 -1      2468 1.01400E-02-4.16430E-03-6.84487E-14
 -1      2469 1.05652E-02-4.42941E-03-7.46392E-14
 -1      2470 1.04223E-02-4.34305E-03-7.28197E-14
 -1      2471 1.04257E-02-4.33698E-03-7.20346E-14
 -1      2472 1.08509E-02-4.60216E-03-7.83164E-14
 -1      2473 1.07080E-02-4.51578E-03-7.64728E-14
 -1      2474 1.07114E-02-4.50971E-03-7.56726E-14
 -1      2475 1.11365E-02-4.77494E-03-8.20352E-14
 -1      2476 1.09937E-02-4.68855E-03-8.01699E-14
 -1      2477 1.09971E-02-4.68247E-03-7.93604E-14
 -1      2478 1.14222E-02-4.94773E-03-8.57969E-14
 -1      2479 1.12794E-02-4.86133E-03-8.39102E-14
 -1      2480 1.12828E-02-4.85525E-03-8.30896E-14
 -1      2481 1.17079E-02-5.12053E-03-8.95969E-14
 -1      2482 1.15651E-02-5.03413E-03-8.76918E-14
 -1      2483 1.15684E-02-5.02804E-03-8.68627E-14
 -1      2484 1.19936E-02-5.29334E-03-9.34274E-14
 -1      2485 1.18508E-02-5.20694E-03-9.15096E-14
 -1      2486 1.18541E-02-5.20085E-03-9.06715E-14
 -1      2487 1.22793E-02-5.46616E-03-9.72826E-14
 -1      2488 1.21365E-02-5.37975E-03-9.53509E-14
 -1      2489 1.21398E-02-5.37366E-03-9.45102E-14
 -1      2490 1.25650E-02-5.63897E-03-1.01170E-13
 -1      2491 1.24222E-02-5.55257E-03-9.92251E-14
 -1      2492 1.24256E-02-5.54648E-03-9.83757E-14
 -1      2493 1.28507E-02-5.81179E-03-1.05073E-13
 -1      2494 1.27079E-02-5.72538E-03-1.03116E-13
 -1      2495 1.27113E-02-5.71929E-03-1.02264E-13
 -1      2496 1.31364E-02-5.98460E-03-1.09004E-13
 -1      2497 1.29936E-02-5.89819E-03-1.07036E-13
 -1      2498 1.29970E-02-5.89211E-03-1.06173E-13
 -1      2499 1.34221E-02-6.15741E-03-1.12958E-13
 -1      2500 1.32793E-02-6.07101E-03-1.10977E-13
 -1      2501 1.32827E-02-6.06492E-03-1.10110E-13
 -1      2502 1.42250E-02-6.57515E-03-1.16491E-13
 -1      2503 1.41400E-02-6.53301E-03-1.16351E-13
 -1      2504 1.40565E-02-6.49157E-03-1.16213E-13
 -1      2505 1.39730E-02-6.45014E-03-1.16071E-13
 -1      2506 1.39752E-02-6.43782E-03-1.14551E-13
 -1      2507 1.38880E-02-6.40800E-03-1.15928E-13
 -1      2508 1.38031E-02-6.36585E-03-1.15786E-13
 -1      2509 1.38068E-02-6.35424E-03-1.14272E-13
 -1      2510 5.54457E-03-1.12751E-03-7.98360E-15
 -1      2511 5.66936E-03-1.14607E-03-8.09367E-15
 -1      2512 1.43949E-02-6.65945E-03-1.16773E-13
 -1      2513 1.43099E-02-6.61730E-03-1.16633E-13
 -1      2514 1.41437E-02-6.52140E-03-1.14828E-13
 -1      2515 1.45648E-02-6.74375E-03-1.17042E-13
 -1      2516 1.44798E-02-6.70160E-03-1.16908E-13
 -1      2517 1.43136E-02-6.60570E-03-1.15101E-13
 -1      2518 1.47347E-02-6.82804E-03-1.17311E-13
 -1      2519 1.46498E-02-6.78589E-03-1.17179E-13
 -1      2520 1.44836E-02-6.68999E-03-1.15367E-13
 -1      2521 1.49047E-02-6.91234E-03-1.17566E-13
 -1      2522 1.48197E-02-6.87019E-03-1.17437E-13
 -1      2523 1.46535E-02-6.77429E-03-1.15624E-13
 -1      2524 1.50717E-02-6.99521E-03-1.17801E-13
 -1      2525 1.49882E-02-6.95377E-03-1.17686E-13
 -1      2526 1.48220E-02-6.85787E-03-1.15865E-13
 -1      2527 1.52416E-02-7.07950E-03-1.18029E-13
 -1      2528 1.51567E-02-7.03735E-03-1.17917E-13
 -1      2529 1.49905E-02-6.94146E-03-1.16095E-13
 -1      2530 1.54116E-02-7.16379E-03-1.18236E-13
 -1      2531 1.53266E-02-7.12165E-03-1.18135E-13
 -1      2532 1.51604E-02-7.02575E-03-1.16310E-13
 -1      2533 1.55815E-02-7.24808E-03-1.18425E-13
 -1      2534 1.54966E-02-7.20594E-03-1.18332E-13
 -1      2535 1.53304E-02-7.11004E-03-1.16509E-13
 -1      2536 3.50720E-03-1.39962E-04-5.18929E-15
 -1      2537 3.70831E-03-2.71255E-04-5.56437E-15
 -1      2538 3.87346E-03-3.76927E-04-5.85918E-15
 -1      2539 4.04419E-03-4.87823E-04-6.16214E-15
 -1      2540 3.74067E-03-3.18287E-04-5.84153E-15
 -1      2541 5.50758E-03-1.22301E-03-7.24765E-15
 -1      2542 5.34376E-03-1.28663E-03-6.93789E-15
 -1      2543 4.30905E-03-1.92606E-03-4.88430E-15
 -1      2544 7.04804E-04-4.44728E-04-1.11188E-15
 -1      2545 6.85394E-04-4.49838E-04-1.12948E-15
 -1      2546 1.19416E-03-3.55330E-04-1.45703E-15
 -1      2547 1.37005E-03-3.00067E-04-1.60873E-15
 -1      2548 2.51111E-03 1.63780E-04-3.01690E-15
 -1      2549 2.66338E-03 1.84322E-04-3.33894E-15
 -1      2550 4.81514E-03-8.89961E-04-7.17980E-15
 -1      2551 5.00686E-03-9.69556E-04-7.43154E-15
 -1      2552 4.68496E-03-8.62287E-04-7.37343E-15
 -1      2553 5.74473E-03-1.15408E-03-8.02095E-15
 -1      2554 5.74380E-03-1.15317E-03-7.87228E-15
 -1      2555 4.99298E-04-1.40311E-04-2.92586E-16
 -1      2556 4.69073E-04-1.57926E-04-2.90769E-16
 -1      2557 6.27616E-04-1.47748E-04-3.98661E-16
 -1      2558 1.36549E-02-6.28547E-03-1.14759E-13
 -1      2559 3.14915E-03 6.79543E-05-4.42119E-15
 -1      2560 3.29417E-03-1.26837E-05-4.75092E-15
 -1      2561 2.85863E-03 1.68195E-04-3.75652E-15
 -1      2562 2.99999E-03 1.30004E-04-4.08077E-15
 -1      2563 3.05508E-03 9.80998E-05-4.30892E-15
 -1      2564 2.21884E-03 6.51032E-05-2.51275E-15
 -1      2565 2.33817E-03 1.13541E-04-2.70400E-15
 -1      2566 1.87515E-03-9.04711E-05-2.08437E-15
 -1      2567 2.05359E-03-6.76861E-06-2.29339E-15
 -1      2568 2.09878E-03 2.91811E-05-2.30733E-15
 -1      2569 1.51823E-03-2.44521E-04-1.73737E-15
 -1      2570 1.67147E-03-1.79256E-04-1.87449E-15
 -1      2571 1.42046E-03-2.65854E-04-1.56964E-15
 -1      2572 6.92949E-04-4.49021E-04-1.14518E-15
 -1      2573 7.25701E-04-4.48675E-04-1.16269E-15
 -1      2574 6.73882E-04-4.18232E-04-1.02409E-15
 -1      2575 1.78343E-03-8.80891E-04-1.43539E-15
 -1      2576 1.52395E-03-7.28863E-04-1.32500E-15
 -1      2577 3.06735E-03-1.98411E-03-2.55446E-15
 -1      2578 5.13516E-03-1.38645E-03-6.57060E-15
 -1      2579 4.94451E-03-1.49434E-03-6.21625E-15
 -1      2580 5.71273E-03-1.16120E-03-7.72049E-15
 -1      2581 5.65053E-03-1.17565E-03-7.56995E-15
 -1      2582 5.75292E-03-1.17412E-03-8.23250E-15
 -1      2583 5.24370E-03-1.05112E-03-7.68323E-15
 -1      2584 5.38972E-03-1.08796E-03-7.79759E-15
 -1      2585 2.83713E-03-1.77498E-03-2.25807E-15
 -1      2586 2.58429E-03-1.53553E-03-2.00323E-15
 -1      2587 4.40581E-04-1.90428E-04-3.51485E-16
 -1      2588 3.82034E-04-1.48103E-04-2.60791E-16
 -1      2589 4.01157E-04-1.38148E-04-2.52768E-16
 -1      2590 4.19014E-03-6.00436E-04-6.62380E-15
 -1      2591 4.33292E-03-7.00276E-04-7.09946E-15
 -1      2592 4.04517E-03-5.29238E-04-6.60077E-15
 -1      2593 9.18003E-04 4.26378E-04-3.69686E-16
 -1      2594 8.93960E-04 3.98540E-04-3.76842E-16
 -1      2595 1.03345E-03 4.54096E-04-4.90601E-16
 -1      2596 2.24205E-03-1.21143E-03-1.67894E-15
 -1      2597 1.75252E-03-1.29621E-04-1.89134E-15
 -1      2598 4.79201E-04-1.35155E-04-2.46507E-16
 -1      2599 1.70356E-03-7.39451E-04-1.15191E-15
 -1      2600 1.88421E-03-8.98311E-04-1.36036E-15
 -1      2601 1.35737E-02-6.23171E-03-1.13107E-13
 -1      2602 3.38653E-03-8.53560E-05-5.09179E-15
 -1      2603 5.70076E-03-1.19501E-03-8.89893E-15
 -1      2604 5.73066E-03-1.17270E-03-8.45909E-15
 -1      2605 5.77502E-03-1.19423E-03-8.82870E-15
 -1      2606 5.48904E-03-1.14007E-03-8.33726E-15
 -1      2607 5.26333E-03-1.33696E-03-7.03975E-15
 -1      2608 2.02435E-03-1.03946E-03-1.54588E-15
 -1      2609 1.41633E-03-5.94398E-04-1.06812E-15
 -1      2610 1.24917E-03 4.89307E-04-7.76506E-16
 -1      2611 1.13446E-03 4.70312E-04-6.19174E-16
 -1      2612 1.11425E-03 4.43507E-04-6.24514E-16
 -1      2613 1.32199E-03 4.66660E-04-9.26139E-16
 -1      2614 1.38686E-03-6.20300E-04-1.16924E-15
 -1      2615 1.25209E-03-5.96999E-04-1.22715E-15
 -1      2616 1.09661E-03-5.35301E-04-1.17603E-15
 -1      2617 1.17894E-03-4.89146E-04-9.86665E-16
 -1      2618 4.59016E-03-1.72694E-03-5.51521E-15
 -1      2619 4.82550E-03-1.57400E-03-6.14176E-15
 -1      2620 5.60451E-03-1.20580E-03-7.74679E-15
 -1      2621 1.56801E-02-7.29682E-03-1.18511E-13
 -1      2622 7.37515E-04-4.27125E-04-1.04716E-15
 -1      2623 6.95392E-04-3.93458E-04-9.46946E-16
 -1      2624 7.85181E-04-4.08369E-04-9.84178E-16
 -1      2625 2.40906E-03 1.50891E-04-2.82367E-15
 -1      2626 1.08035E-03-3.81945E-04-1.34211E-15
 -1      2627 1.16533E-03-3.41912E-04-1.33479E-15
 -1      2628 9.76956E-04-3.94739E-04-1.23382E-15
 -1      2629 7.12272E-04-4.08889E-04-1.01109E-15
 -1      2630 7.65619E-04-4.33436E-04-1.13506E-15
 -1      2631 8.14201E-04-4.15256E-04-1.10767E-15
 -1      2632 2.73567E-03 1.83848E-04-3.54247E-15
 -1      2633 5.11073E-03-1.03166E-03-7.88569E-15
 -1      2634 4.95533E-03-1.51428E-03-6.58688E-15
 -1      2635 5.17062E-03-1.43184E-03-7.32095E-15
 -1      2636 5.40845E-04-1.92208E-04-3.83658E-16
 -1      2637 9.89926E-04-4.77707E-04-1.08528E-15
 -1      2638 1.55139E-02-7.20092E-03-1.16688E-13
 -1      2639 5.36423E-03-1.33769E-03-7.74646E-15
 -1      2640 8.66382E-04 2.44847E-05-5.22030E-16
 -1      2641 8.53649E-04-1.78390E-05-5.24930E-16
 -1      2642 8.33606E-04-6.17544E-05-5.25811E-16
 -1      2643 8.05327E-04-1.04588E-04-5.25404E-16
 -1      2644 9.84496E-04-3.35872E-05-6.69522E-16
 -1      2645 8.70632E-04 1.84708E-04-4.88541E-16
 -1      2646 8.73988E-04 1.46528E-04-5.00807E-16
 -1      2647 8.61910E-04 2.58882E-04-4.54159E-16
 -1      2648 8.66177E-04 2.22048E-04-4.73268E-16
 -1      2649 1.00358E-03 2.30939E-04-6.19527E-16
 -1      2650 8.71544E-04 3.71172E-04-3.81599E-16
 -1      2651 8.50677E-04 3.44214E-04-3.84201E-16
 -1      2652 9.90291E-04 3.99702E-04-5.01294E-16
 -1      2653 1.05869E-03-4.15620E-04-8.49093E-16
 -1      2654 1.03257E-03-4.34511E-04-9.37062E-16
 -1      2655 9.02632E-04-4.11414E-04-9.42829E-16
 -1      2656 9.39304E-04-3.38079E-04-6.72300E-16
 -1      2657 5.74539E-03-1.29728E-03-9.33270E-15
 -1      2658 5.87295E-03-1.34079E-03-1.01676E-14
 -1      2659 6.71685E-04-2.13788E-04-4.06820E-16
 -1      2660 7.88916E-04-2.67910E-04-5.26787E-16
 -1      2661 1.35790E-02-6.22569E-03-1.12145E-13
 -1      2662 1.34308E-02-6.14531E-03-1.11126E-13
 -1      2663 1.32880E-02-6.05890E-03-1.09152E-13
 -1      2664 1.38933E-02-6.38371E-03-1.12894E-13
 -1      2665 1.38098E-02-6.34228E-03-1.12759E-13
 -1      2666 5.99878E-03-1.39687E-03-1.10259E-14
 -1      2667 6.12667E-03-1.46232E-03-1.19079E-14
 -1      2668 5.95149E-03-1.34616E-03-1.06254E-14
 -1      2669 6.25583E-03-1.53447E-03-1.28162E-14
 -1      2670 6.38805E-03-1.61245E-03-1.37483E-14
 -1      2671 6.18195E-03-1.47805E-03-1.23885E-14
 -1      2672 6.52205E-03-1.69407E-03-1.47051E-14
 -1      2673 6.65861E-03-1.77900E-03-1.56880E-14
 -1      2674 6.42871E-03-1.63157E-03-1.42508E-14
 -1      2675 6.79658E-03-1.86573E-03-1.66967E-14
 -1      2676 6.93633E-03-1.95416E-03-1.77295E-14
 -1      2677 6.68942E-03-1.79837E-03-1.62126E-14
 -1      2678 7.07696E-03-2.04336E-03-1.87875E-14
 -1      2679 7.21870E-03-2.13329E-03-1.98697E-14
 -1      2680 6.96022E-03-1.97261E-03-1.82766E-14
 -1      2681 7.36090E-03-2.22342E-03-2.09759E-14
 -1      2682 7.50372E-03-2.31375E-03-2.21076E-14
 -1      2683 7.23765E-03-2.15051E-03-2.04389E-14
 -1      2684 7.64675E-03-2.40400E-03-2.32637E-14
 -1      2685 7.79010E-03-2.49417E-03-2.44430E-14
 -1      2686 7.51915E-03-2.32979E-03-2.26996E-14
 -1      2687 7.93349E-03-2.58414E-03-2.56474E-14
 -1      2688 8.07701E-03-2.67391E-03-2.68756E-14
 -1      2689 7.80302E-03-2.50922E-03-2.50559E-14
 -1      2690 8.22769E-03-2.76791E-03-2.81903E-14
 -1      2691 8.37839E-03-2.86166E-03-2.95337E-14
 -1      2692 8.09532E-03-2.69263E-03-2.75721E-14
 -1      2693 8.52186E-03-2.95069E-03-3.08379E-14
 -1      2694 8.66531E-03-3.03948E-03-3.21666E-14
 -1      2695 8.38827E-03-2.87526E-03-3.01918E-14
 -1      2696 8.80869E-03-3.12806E-03-3.35188E-14
 -1      2697 8.95203E-03-3.21643E-03-3.48946E-14
 -1      2698 8.67435E-03-3.05262E-03-3.28460E-14
 -1      2699 9.09530E-03-3.30460E-03-3.62951E-14
 -1      2700 9.23854E-03-3.39259E-03-3.77210E-14
 -1      2701 8.96050E-03-3.22919E-03-3.55954E-14
 -1      2702 9.38171E-03-3.48041E-03-3.91682E-14
 -1      2703 9.52485E-03-3.56807E-03-4.06339E-14
 -1      2704 9.24662E-03-3.40506E-03-3.84400E-14
 -1      2705 9.66794E-03-3.65560E-03-4.21237E-14
 -1      2706 9.81100E-03-3.74300E-03-4.36345E-14
 -1      2707 9.53268E-03-3.58033E-03-4.13735E-14
 -1      2708 9.95403E-03-3.83028E-03-4.51621E-14
 -1      2709 1.00970E-02-3.91746E-03-4.67069E-14
 -1      2710 9.81866E-03-3.75508E-03-4.43881E-14
 -1      2711 1.02400E-02-4.00454E-03-4.82708E-14
 -1      2712 1.03829E-02-4.09154E-03-4.98525E-14
 -1      2713 1.01046E-02-3.92941E-03-4.74744E-14
 -1      2714 1.05259E-02-4.17846E-03-5.14501E-14
 -1      2715 1.06688E-02-4.26532E-03-5.30607E-14
 -1      2716 1.03904E-02-4.10338E-03-5.06323E-14
 -1      2717 1.08117E-02-4.35211E-03-5.46894E-14
 -1      2718 1.09546E-02-4.43885E-03-5.63369E-14
 -1      2719 1.06762E-02-4.27708E-03-5.38553E-14
 -1      2720 1.10975E-02-4.52555E-03-5.79987E-14
 -1      2721 1.12403E-02-4.61220E-03-5.96748E-14
 -1      2722 1.09620E-02-4.45055E-03-5.71428E-14
 -1      2723 1.13832E-02-4.69881E-03-6.13683E-14
 -1      2724 1.15261E-02-4.78540E-03-6.30794E-14
 -1      2725 1.12478E-02-4.62385E-03-6.04985E-14
 -1      2726 1.16689E-02-4.87195E-03-6.48054E-14
 -1      2727 1.18118E-02-4.95848E-03-6.65478E-14
 -1      2728 1.15335E-02-4.79701E-03-6.39166E-14
 -1      2729 1.19546E-02-5.04499E-03-6.83069E-14
 -1      2730 1.20975E-02-5.13148E-03-7.00832E-14
 -1      2731 1.18192E-02-4.97006E-03-6.73998E-14
 -1      2732 1.22403E-02-5.21795E-03-7.18764E-14
 -1      2733 1.23832E-02-5.30442E-03-7.36864E-14
 -1      2734 1.21049E-02-5.14304E-03-7.09510E-14
 -1      2735 1.25260E-02-5.39087E-03-7.55102E-14
 -1      2736 1.26689E-02-5.47731E-03-7.73477E-14
 -1      2737 1.23907E-02-5.31596E-03-7.45671E-14
 -1      2738 1.28117E-02-5.56374E-03-7.92019E-14
 -1      2739 1.29546E-02-5.65016E-03-8.10708E-14
 -1      2740 1.26764E-02-5.48884E-03-7.82436E-14
 -1      2741 1.30974E-02-5.73658E-03-8.29526E-14
 -1      2742 1.32403E-02-5.82299E-03-8.48470E-14
 -1      2743 1.29621E-02-5.66169E-03-8.19769E-14
 -1      2744 1.33831E-02-5.90940E-03-8.67545E-14
 -1      2745 1.35260E-02-5.99581E-03-8.86730E-14
 -1      2746 1.32478E-02-5.83452E-03-8.57622E-14
 -1      2747 1.36688E-02-6.08222E-03-9.06039E-14
 -1      2748 1.38117E-02-6.16862E-03-9.25435E-14
 -1      2749 1.35335E-02-6.00733E-03-8.95974E-14
 -1      2750 1.39545E-02-6.25502E-03-9.44922E-14
 -1      2751 1.40974E-02-6.34142E-03-9.64547E-14
 -1      2752 1.38192E-02-6.18014E-03-9.34756E-14
 -1      2753 1.42402E-02-6.42782E-03-9.84206E-14
 -1      2754 1.43831E-02-6.51422E-03-1.00398E-13
 -1      2755 1.41049E-02-6.35294E-03-9.73887E-14
 -1      2756 1.45259E-02-6.60062E-03-1.02384E-13
 -1      2757 1.46688E-02-6.68702E-03-1.04376E-13
 -1      2758 1.43906E-02-6.52573E-03-1.01338E-13
 -1      2759 1.48116E-02-6.77342E-03-1.06378E-13
 -1      2760 1.49545E-02-6.85981E-03-1.08389E-13
 -1      2761 1.46763E-02-6.69853E-03-1.05320E-13
 -1      2762 1.50973E-02-6.94621E-03-1.10410E-13
 -1      2763 1.52402E-02-7.03261E-03-1.12437E-13
 -1      2764 1.49620E-02-6.87133E-03-1.09339E-13
 -1      2765 1.53954E-02-7.12984E-03-1.15060E-13
 -1      2766 1.94204E-03 4.64683E-04-2.17457E-15
 -1      2767 1.79905E-03 4.66759E-04-1.84195E-15
 -1      2768 2.22391E-03 4.33761E-04-2.93489E-15
 -1      2769 2.08345E-03 4.53945E-04-2.53882E-15
 -1      2770 2.03594E-03 4.29033E-04-2.40286E-15
 -1      2771 1.65460E-03 4.60585E-04-1.54007E-15
 -1      2772 1.50843E-03 4.47168E-04-1.26808E-15
 -1      2773 1.74364E-03 4.30917E-04-1.73108E-15
 -1      2774 2.78229E-03 2.57207E-04-4.84210E-15
 -1      2775 2.64216E-03 3.15277E-04-4.31668E-15
 -1      2776 3.06532E-03 1.17523E-04-5.99125E-15
 -1      2777 2.92316E-03 1.90932E-04-5.40028E-15
 -1      2778 2.89338E-03 1.92531E-04-5.18682E-15
 -1      2779 3.35326E-03-4.62902E-05-7.26798E-15
 -1      2780 3.20864E-03 3.80275E-05-6.61380E-15
 -1      2781 3.18400E-03 4.28342E-05-6.37496E-15
 -1      2782 3.64570E-03-2.25093E-04-8.67015E-15
 -1      2783 3.49903E-03-1.34370E-04-7.95292E-15
 -1      2784 3.47981E-03-1.28582E-04-7.68960E-15
 -1      2785 3.94106E-03-4.11046E-04-1.01968E-14
 -1      2786 3.79318E-03-3.17578E-04-9.41819E-15
 -1      2787 3.77947E-03-3.11956E-04-9.12996E-15
 -1      2788 4.23754E-03-5.98622E-04-1.18419E-14
 -1      2789 4.08932E-03-5.04877E-04-1.10049E-14
 -1      2790 4.08076E-03-4.99738E-04-1.06922E-14
 -1      2791 4.53365E-03-7.84574E-04-1.36035E-14
 -1      2792 4.38576E-03-6.91914E-04-1.27085E-14
 -1      2793 4.38157E-03-6.87160E-04-1.23721E-14
 -1      2794 4.82851E-03-9.67461E-04-1.54777E-14
 -1      2795 4.68131E-03-8.76428E-04-1.45262E-14
 -1      2796 4.68051E-03-8.71831E-04-1.41666E-14
 -1      2797 5.12176E-03-1.14701E-03-1.74656E-14
 -1      2798 4.97538E-03-1.05763E-03-1.64579E-14
 -1      2799 4.97697E-03-1.05301E-03-1.60723E-14
 -1      2800 5.41339E-03-1.32357E-03-1.95628E-14
 -1      2801 5.26780E-03-1.23562E-03-1.85004E-14
 -1      2802 5.27091E-03-1.23086E-03-1.80920E-14
 -1      2803 5.70360E-03-1.49779E-03-2.17692E-14
 -1      2804 5.55867E-03-1.41093E-03-2.06527E-14
 -1      2805 5.56263E-03-1.40599E-03-2.02202E-14
 -1      2806 5.99262E-03-1.67033E-03-2.40815E-14
 -1      2807 5.84825E-03-1.58423E-03-2.29122E-14
 -1      2808 5.85259E-03-1.57912E-03-2.24554E-14
 -1      2809 6.28074E-03-1.84180E-03-2.64990E-14
 -1      2810 6.13679E-03-1.75617E-03-2.52775E-14
 -1      2811 6.14120E-03-1.75090E-03-2.47962E-14
 -1      2812 6.56818E-03-2.01268E-03-2.90163E-14
 -1      2813 6.42454E-03-1.92729E-03-2.77457E-14
 -1      2814 6.42885E-03-1.92188E-03-2.72404E-14
 -1      2815 6.85511E-03-2.18331E-03-3.16292E-14
 -1      2816 6.71170E-03-2.09801E-03-3.03105E-14
 -1      2817 6.71583E-03-2.09249E-03-2.97812E-14
 -1      2818 7.14167E-03-2.35394E-03-3.43357E-14
 -1      2819 6.99843E-03-2.26861E-03-3.29715E-14
 -1      2820 7.00237E-03-2.26300E-03-3.24182E-14
 -1      2821 7.42798E-03-2.52473E-03-3.71325E-14
 -1      2822 7.28485E-03-2.43931E-03-3.57233E-14
 -1      2823 7.28861E-03-2.43362E-03-3.51477E-14
 -1      2824 7.71410E-03-2.69574E-03-4.00141E-14
 -1      2825 7.57105E-03-2.61020E-03-3.85629E-14
 -1      2826 7.57466E-03-2.60444E-03-3.79649E-14
 -1      2827 8.00008E-03-2.86702E-03-4.29811E-14
 -1      2828 7.85710E-03-2.78135E-03-4.14871E-14
 -1      2829 7.86059E-03-2.77553E-03-4.08698E-14
 -1      2830 8.28597E-03-3.03856E-03-4.60301E-14
 -1      2831 8.14303E-03-2.95276E-03-4.44955E-14
 -1      2832 8.14644E-03-2.94689E-03-4.38570E-14
 -1      2833 8.57179E-03-3.21035E-03-4.91556E-14
 -1      2834 8.42889E-03-3.12443E-03-4.75832E-14
 -1      2835 8.43224E-03-3.11852E-03-4.69255E-14
 -1      2836 8.85757E-03-3.38236E-03-5.23609E-14
 -1      2837 8.71469E-03-3.29633E-03-5.07485E-14
 -1      2838 8.71800E-03-3.29038E-03-5.00719E-14
 -1      2839 9.14332E-03-3.55456E-03-5.56469E-14
 -1      2840 9.00045E-03-3.46844E-03-5.39941E-14
 -1      2841 9.00375E-03-3.46246E-03-5.32971E-14
 -1      2842 9.42905E-03-3.72690E-03-5.90043E-14
 -1      2843 9.28619E-03-3.64071E-03-5.73170E-14
 -1      2844 9.28948E-03-3.63471E-03-5.66001E-14
 -1      2845 9.71476E-03-3.89937E-03-6.24296E-14
 -1      2846 9.57191E-03-3.81312E-03-6.07096E-14
 -1      2847 9.57521E-03-3.80710E-03-5.99766E-14
 -1      2848 1.00005E-02-4.07194E-03-6.59158E-14
 -1      2849 9.85762E-03-3.98564E-03-6.41660E-14
 -1      2850 9.86092E-03-3.97960E-03-6.34152E-14
 -1      2851 1.02862E-02-4.24458E-03-6.94596E-14
 -1      2852 1.01433E-02-4.15825E-03-6.76801E-14
 -1      2853 1.01466E-02-4.15219E-03-6.69137E-14
 -1      2854 1.05719E-02-4.41727E-03-7.30592E-14
 -1      2855 1.04290E-02-4.33092E-03-7.12550E-14
 -1      2856 1.04323E-02-4.32485E-03-7.04727E-14
 -1      2857 1.08576E-02-4.59001E-03-7.67066E-14
 -1      2858 1.07147E-02-4.50363E-03-7.48762E-14
 -1      2859 1.07181E-02-4.49756E-03-7.40831E-14
 -1      2860 1.11433E-02-4.76277E-03-8.04030E-14
 -1      2861 1.10004E-02-4.67639E-03-7.85493E-14
 -1      2862 1.10038E-02-4.67031E-03-7.77404E-14
 -1      2863 1.14290E-02-4.93556E-03-8.41467E-14
 -1      2864 1.12861E-02-4.84916E-03-8.22690E-14
 -1      2865 1.12895E-02-4.84308E-03-8.14496E-14
 -1      2866 1.17147E-02-5.10836E-03-8.79279E-14
 -1      2867 1.15718E-02-5.02196E-03-8.60317E-14
 -1      2868 1.15752E-02-5.01587E-03-8.52034E-14
 -1      2869 1.20004E-02-5.28117E-03-9.17473E-14
 -1      2870 1.18575E-02-5.19476E-03-8.98340E-14
 -1      2871 1.18609E-02-5.18868E-03-8.89952E-14
 -1      2872 1.22861E-02-5.45398E-03-9.55914E-14
 -1      2873 1.21432E-02-5.36757E-03-9.36680E-14
 -1      2874 1.21466E-02-5.36149E-03-9.28225E-14
 -1      2875 1.25718E-02-5.62679E-03-9.94663E-14
 -1      2876 1.24289E-02-5.54039E-03-9.75235E-14
 -1      2877 1.24323E-02-5.53430E-03-9.66771E-14
 -1      2878 1.28575E-02-5.79961E-03-1.03358E-13
 -1      2879 1.27146E-02-5.71320E-03-1.01411E-13
 -1      2880 1.27180E-02-5.70711E-03-1.00554E-13
 -1      2881 1.31442E-02-5.97246E-03-1.07231E-13
 -1      2882 1.30013E-02-5.88605E-03-1.05267E-13
 -1      2883 1.30047E-02-5.87996E-03-1.04409E-13
 -1      2884 1.32923E-02-6.05285E-03-1.08241E-13
 -1      2885 1.42324E-02-6.55195E-03-1.13431E-13
 -1      2886 1.41474E-02-6.50980E-03-1.13301E-13
 -1      2887 1.36639E-02-6.26784E-03-1.12284E-13
 -1      2888 1.40628E-02-6.46783E-03-1.13169E-13
 -1      2889 1.39779E-02-6.42568E-03-1.13029E-13
 -1      2890 1.38124E-02-6.33014E-03-1.11243E-13
 -1      2891 1.39816E-02-6.41407E-03-1.11508E-13
 -1      2892 2.50281E-03 3.64381E-04-3.82315E-15
 -1      2893 2.36340E-03 4.03976E-04-3.36286E-15
 -1      2894 2.32277E-03 3.90097E-04-3.20132E-15
 -1      2895 2.60726E-03 3.10635E-04-4.12859E-15
 -1      2896 1.45723E-02-6.72054E-03-1.13939E-13
 -1      2897 1.44873E-02-6.67839E-03-1.13818E-13
 -1      2898 1.47393E-02-6.80341E-03-1.14168E-13
 -1      2899 1.46558E-02-6.76197E-03-1.14054E-13
 -1      2900 1.44896E-02-6.66608E-03-1.12253E-13
 -1      2901 1.49092E-02-6.88770E-03-1.14387E-13
 -1      2902 1.48243E-02-6.84556E-03-1.14277E-13
 -1      2903 1.46581E-02-6.74966E-03-1.12474E-13
 -1      2904 1.50792E-02-6.97200E-03-1.14595E-13
 -1      2905 1.49942E-02-6.92985E-03-1.14494E-13
 -1      2906 1.48280E-02-6.83395E-03-1.12684E-13
 -1      2907 1.52491E-02-7.05629E-03-1.14784E-13
 -1      2908 1.51642E-02-7.01415E-03-1.14693E-13
 -1      2909 1.49980E-02-6.91825E-03-1.12883E-13
 -1      2910 5.68860E-03-1.20861E-03-8.30952E-15
 -1      2911 5.56221E-03-1.23937E-03-7.97263E-15
 -1      2912 7.68309E-04-1.45967E-04-5.23304E-16
 -1      2913 7.23841E-04-1.82600E-04-5.20173E-16
 -1      2914 9.20075E-04-1.32005E-04-6.66730E-16
 -1      2915 3.65855E-03-2.82075E-04-5.88162E-15
 -1      2916 3.80284E-03-3.79493E-04-6.18509E-15
 -1      2917 1.44023E-02-6.63624E-03-1.13690E-13
 -1      2918 1.43174E-02-6.59409E-03-1.13562E-13
 -1      2919 1.43211E-02-6.58249E-03-1.12016E-13
 -1      2920 1.52601E-02-7.05496E-03-1.13976E-13
 -1      2921 5.41481E-03-1.14665E-03-8.66942E-15
 -1      2922 5.55932E-03-1.17745E-03-8.86586E-15
 -1      2923 6.64228E-04-2.11979E-04-5.05008E-16
 -1      2924 6.05954E-04-2.30876E-04-4.89341E-16
 -1      2925 8.03431E-04-2.19526E-04-6.44978E-16
 -1      2926 1.63047E-03-1.53763E-04-1.68059E-15
 -1      2927 1.80504E-03-7.59912E-05-1.87421E-15
 -1      2928 5.00447E-03-1.01871E-03-8.15453E-15
 -1      2929 5.22305E-03-1.09195E-03-8.42079E-15
 -1      2930 8.75341E-04 1.07256E-04-5.09860E-16
 -1      2931 8.73099E-04 6.65491E-05-5.16988E-16
 -1      2932 1.01135E-03 6.15568E-05-6.63599E-16
 -1      2933 1.01352E-03 1.49308E-04-6.47797E-16
 -1      2934 5.58875E-04-2.42591E-04-4.82714E-16
 -1      2935 5.23594E-04-2.44924E-04-4.75226E-16
 -1      2936 6.68191E-04-2.74127E-04-6.18185E-16
 -1      2937 2.64513E-03 1.93356E-04-3.39030E-15
 -1      2938 2.81342E-03 1.71316E-04-3.81013E-15
 -1      2939 2.93975E-03 1.34805E-04-4.13488E-15
 -1      2940 3.06603E-03 7.86238E-05-4.47532E-15
 -1      2941 2.83654E-03 1.60273E-04-3.96105E-15
 -1      2942 5.01637E-04-1.63704E-04-3.17495E-16
 -1      2943 1.95676E-03-7.76068E-06-2.06447E-15
 -1      2944 2.09699E-03 5.93392E-05-2.26650E-15
 -1      2945 1.81587E-03-3.37854E-05-1.83733E-15
 -1      2946 1.37189E-03-2.54871E-04-1.43810E-15
 -1      2947 1.50214E-03-2.06983E-04-1.55662E-15
 -1      2948 1.55557E-03-1.47684E-04-1.53890E-15
 -1      2949 6.55258E-04-3.82317E-04-9.08710E-16
 -1      2950 6.58652E-04-3.88857E-04-9.22128E-16
 -1      2951 2.28319E-03 1.29111E-04-2.58392E-15
 -1      2952 2.42903E-03 1.74168E-04-2.88398E-15
 -1      2953 3.27866E-03-3.56075E-05-5.00622E-15
 -1      2954 3.46402E-03-1.55825E-04-5.45655E-15
 -1      2955 4.59535E-03-8.41732E-04-7.58867E-15
 -1      2956 4.77473E-03-9.24999E-04-7.84868E-15
 -1      2957 5.78834E-03-1.19818E-03-8.74106E-15
 -1      2958 5.76238E-03-1.19729E-03-8.58449E-15
 -1      2959 3.95103E-03-4.82032E-04-6.63841E-15
 -1      2960 8.49734E-04 3.06888E-04-4.13447E-16
 -1      2961 7.94737E-04-3.00465E-04-6.43142E-16
 -1      2962 2.13539E-03 1.00442E-04-2.31927E-15
 -1      2963 1.34235E-03 4.30378E-04-9.92641E-16
 -1      2964 1.23511E-03 4.20909E-04-8.30160E-16
 -1      2965 5.60912E-03-1.21937E-03-9.57893E-15
 -1      2966 5.65751E-03-1.20877E-03-9.23888E-15
 -1      2967 5.74026E-03-1.23416E-03-9.61784E-15
 -1      2968 6.60348E-04-3.61107E-04-8.48747E-16
 -1      2969 1.42565E-03 4.06058E-04-1.14602E-15
 -1      2970 1.41512E-02-6.49819E-03-1.11766E-13
 -1      2971 1.35820E-02-6.21373E-03-1.10638E-13
 -1      2972 1.50939E-02-6.95906E-03-1.12172E-13
 -1      2973 5.75136E-03-1.22543E-03-8.81960E-15
 -1      2974 5.52409E-03-1.27804E-03-8.14384E-15
 -1      2975 5.81140E-03-1.21821E-03-9.18833E-15
 -1      2976 8.15002E-04-3.68141E-04-8.45786E-16
 -1      2977 4.40267E-03-1.85985E-03-5.16339E-15
 -1      2978 9.81482E-04 3.21594E-04-5.55654E-16
 -1      2979 4.44442E-03-7.71599E-04-7.55965E-15
 -1      2980 3.53742E-03-2.14174E-04-5.78201E-15
 -1      2981 8.78219E-04-3.93535E-04-1.09891E-15
 -1      2982 9.46419E-04-3.64573E-04-1.08982E-15
 -1      2983 7.94192E-04-3.78568E-04-9.73282E-16
 -1      2984 6.68167E-04-3.79954E-04-8.94406E-16
 -1      2985 6.88478E-04-3.69044E-04-8.66982E-16
 -1      2986 6.30174E-04-3.46081E-04-7.85200E-16
 -1      2987 3.15183E-03 2.41041E-05-4.80905E-15
 -1      2988 5.32534E-03-1.13912E-03-8.94564E-15
 -1      2989 5.45633E-04-2.05496E-04-4.18990E-16
 -1      2990 4.91654E-03-9.97197E-04-8.37547E-15
 -1      2991 1.14169E-03-3.12685E-04-1.21322E-15
 -1      2992 1.25483E-03-2.88378E-04-1.32250E-15
 -1      2993 1.32375E-03-2.30551E-04-1.30726E-15
 -1      2994 2.51982E-03 1.96462E-04-3.11876E-15
 -1      2995 2.59563E-03 2.02863E-04-3.36006E-15
 -1      2996 2.39688E-03 1.90767E-04-2.86008E-15
 -1      2997 5.64031E-03-1.27829E-03-8.71510E-15
 -1      2998 4.90684E-04-2.29609E-04-4.41697E-16
 -1      2999 4.94934E-04-2.19397E-04-4.31628E-16
 -1      3000 5.75473E-03-1.26176E-03-9.15288E-15
 -1      3001 5.61397E-04-2.77306E-04-5.70250E-16
 -1      3002 1.13583E-03 2.77799E-04-7.66816E-16
 -1      3003 1.14403E-03 2.36391E-04-7.87334E-16
 -1      3004 1.09525E-03 4.16706E-04-6.27523E-16
 -1      3005 7.09546E-04-3.04716E-04-6.80418E-16
 -1      3006 1.40699E-02-6.44444E-03-1.10104E-13
 -1      3007 1.39850E-02-6.40229E-03-1.09980E-13
 -1      3008 1.99323E-03 8.29818E-05-2.06896E-15
 -1      3009 2.15838E-03 1.43586E-04-2.36657E-15
 -1      3010 6.11103E-03-1.42644E-03-1.19677E-14
 -1      3011 6.22119E-03-1.49777E-03-1.28731E-14
 -1      3012 6.33649E-03-1.57265E-03-1.38018E-14
 -1      3013 6.45736E-03-1.65179E-03-1.47553E-14
 -1      3014 6.24637E-03-1.51913E-03-1.33561E-14
 -1      3015 6.58218E-03-1.73326E-03-1.57350E-14
 -1      3016 6.71092E-03-1.81738E-03-1.67408E-14
 -1      3017 6.47703E-03-1.67244E-03-1.52606E-14
 -1      3018 6.84241E-03-1.90290E-03-1.77704E-14
 -1      3019 6.97653E-03-1.98992E-03-1.88260E-14
 -1      3020 6.72658E-03-1.83642E-03-1.72668E-14
 -1      3021 7.11247E-03-2.07764E-03-1.99074E-14
 -1      3022 7.25012E-03-2.16613E-03-2.10108E-14
 -1      3023 6.98905E-03-2.00714E-03-1.93762E-14
 -1      3024 7.38891E-03-2.25489E-03-2.21389E-14
 -1      3025 7.52878E-03-2.34396E-03-2.32915E-14
 -1      3026 7.26013E-03-2.18167E-03-2.15831E-14
 -1      3027 7.66934E-03-2.43307E-03-2.44692E-14
 -1      3028 7.81056E-03-2.52222E-03-2.56710E-14
 -1      3029 7.53683E-03-2.35808E-03-2.38853E-14
 -1      3030 7.95928E-03-2.61573E-03-2.69587E-14
 -1      3031 8.10842E-03-2.70915E-03-2.82730E-14
 -1      3032 7.82414E-03-2.53963E-03-2.63464E-14
 -1      3033 8.25068E-03-2.79796E-03-2.95490E-14
 -1      3034 8.39317E-03-2.88662E-03-3.08512E-14
 -1      3035 8.11377E-03-2.72119E-03-2.89107E-14
 -1      3036 8.53577E-03-2.97512E-03-3.21772E-14
 -1      3037 8.67849E-03-3.06345E-03-3.35270E-14
 -1      3038 8.39769E-03-2.89798E-03-3.15106E-14
 -1      3039 8.82127E-03-3.15161E-03-3.48997E-14
 -1      3040 8.96411E-03-3.23962E-03-3.62965E-14
 -1      3041 8.68241E-03-3.07428E-03-3.42072E-14
 -1      3042 9.10697E-03-3.32747E-03-3.77158E-14
 -1      3043 9.24987E-03-3.41518E-03-3.91590E-14
 -1      3044 8.96759E-03-3.25005E-03-3.69950E-14
 -1      3045 9.39277E-03-3.50276E-03-4.06247E-14
 -1      3046 9.53568E-03-3.59021E-03-4.21096E-14
 -1      3047 9.25305E-03-3.42530E-03-3.98758E-14
 -1      3048 9.67859E-03-3.67755E-03-4.36137E-14
 -1      3049 9.82151E-03-3.76478E-03-4.51374E-14
 -1      3050 9.53866E-03-3.60009E-03-4.28430E-14
 -1      3051 9.96442E-03-3.85191E-03-4.66797E-14
 -1      3052 1.01073E-02-3.93896E-03-4.82388E-14
 -1      3053 9.82434E-03-3.77447E-03-4.58852E-14
 -1      3054 1.02502E-02-4.02593E-03-4.98175E-14
 -1      3055 1.03931E-02-4.11283E-03-5.14115E-14
 -1      3056 1.01101E-02-3.94851E-03-4.90018E-14
 -1      3057 1.05360E-02-4.19966E-03-5.30208E-14
 -1      3058 1.06789E-02-4.28644E-03-5.46467E-14
 -1      3059 1.03958E-02-4.12226E-03-5.21881E-14
 -1      3060 1.08218E-02-4.37316E-03-5.62907E-14
 -1      3061 1.09647E-02-4.45984E-03-5.79510E-14
 -1      3062 1.06816E-02-4.29579E-03-5.54400E-14
 -1      3063 1.11075E-02-4.54649E-03-5.96252E-14
 -1      3064 1.12504E-02-4.63309E-03-6.13177E-14
 -1      3065 1.09673E-02-4.46913E-03-5.87567E-14
 -1      3066 1.13933E-02-4.71967E-03-6.30259E-14
 -1      3067 1.15361E-02-4.80621E-03-6.47511E-14
 -1      3068 1.12531E-02-4.64233E-03-6.21365E-14
 -1      3069 1.16790E-02-4.89274E-03-6.64917E-14
 -1      3070 1.18219E-02-4.97924E-03-6.82502E-14
 -1      3071 1.15388E-02-4.81542E-03-6.55858E-14
 -1      3072 1.19647E-02-5.06573E-03-7.00253E-14
 -1      3073 1.21076E-02-5.15220E-03-7.18171E-14
 -1      3074 1.18245E-02-4.98842E-03-6.91023E-14
 -1      3075 1.22505E-02-5.23866E-03-7.36246E-14
 -1      3076 1.23933E-02-5.32511E-03-7.54459E-14
 -1      3077 1.21103E-02-5.16136E-03-7.26830E-14
 -1      3078 1.25362E-02-5.41155E-03-7.72850E-14
 -1      3079 1.26790E-02-5.49798E-03-7.91361E-14
 -1      3080 1.23960E-02-5.33425E-03-7.63265E-14
 -1      3081 1.28219E-02-5.58440E-03-8.10012E-14
 -1      3082 1.29648E-02-5.67082E-03-8.28798E-14
 -1      3083 1.26817E-02-5.50711E-03-8.00278E-14
 -1      3084 1.31076E-02-5.75723E-03-8.47707E-14
 -1      3085 1.32505E-02-5.84364E-03-8.66749E-14
 -1      3086 1.29674E-02-5.67994E-03-8.37813E-14
 -1      3087 1.33933E-02-5.93005E-03-8.85911E-14
 -1      3088 1.35362E-02-6.01645E-03-9.05175E-14
 -1      3089 1.32532E-02-5.85276E-03-8.75864E-14
 -1      3090 1.36790E-02-6.10285E-03-9.24537E-14
 -1      3091 1.38219E-02-6.18926E-03-9.44002E-14
 -1      3092 1.35389E-02-6.02557E-03-9.14335E-14
 -1      3093 1.39647E-02-6.27566E-03-9.63553E-14
 -1      3094 1.41076E-02-6.36206E-03-9.83170E-14
 -1      3095 1.38246E-02-6.19838E-03-9.53219E-14
 -1      3096 1.42505E-02-6.44846E-03-1.00292E-13
 -1      3097 1.43933E-02-6.53485E-03-1.02272E-13
 -1      3098 1.41103E-02-6.37118E-03-9.92459E-14
 -1      3099 1.45362E-02-6.62125E-03-1.04260E-13
 -1      3100 1.46790E-02-6.70765E-03-1.06258E-13
 -1      3101 1.43960E-02-6.54397E-03-1.03202E-13
 -1      3102 1.48150E-02-6.79016E-03-1.08199E-13
 -1      3103 1.49579E-02-6.87656E-03-1.10214E-13
 -1      3104 1.49469E-02-6.87789E-03-1.11018E-13
 -1      3105 1.46749E-02-6.71288E-03-1.07126E-13
 -1      3106 1.45768E-02-6.69591E-03-1.10784E-13
 -1      3107 1.44919E-02-6.65376E-03-1.10679E-13
 -1      3108 2.13392E-03 3.93075E-04-2.63606E-15
 -1      3109 1.98628E-03 4.01589E-04-2.26574E-15
 -1      3110 1.83715E-03 4.00803E-04-1.92664E-15
 -1      3111 1.68617E-03 3.92226E-04-1.61855E-15
 -1      3112 1.93409E-03 3.70722E-04-2.12756E-15
 -1      3113 3.30634E-03-3.54155E-05-6.76320E-15
 -1      3114 3.15632E-03 4.76642E-05-6.13333E-15
 -1      3115 3.00786E-03 1.24796E-04-5.53569E-15
 -1      3116 2.86072E-03 1.94228E-04-4.97081E-15
 -1      3117 3.12634E-03 5.30077E-05-5.88978E-15
 -1      3118 3.91679E-03-4.01424E-04-9.59387E-15
 -1      3119 3.76334E-03-3.07308E-04-8.83946E-15
 -1      3120 4.22349E-03-5.90146E-04-1.11916E-14
 -1      3121 4.07037E-03-4.95902E-04-1.03782E-14
 -1      3122 4.05831E-03-4.93149E-04-1.00617E-14
 -1      3123 4.52796E-03-7.76600E-04-1.29063E-14
 -1      3124 4.37616E-03-6.83768E-04-1.20345E-14
 -1      3125 4.36962E-03-6.81716E-04-1.16951E-14
 -1      3126 4.82904E-03-9.59400E-04-1.47324E-14
 -1      3127 4.67900E-03-8.68462E-04-1.38054E-14
 -1      3128 4.67686E-03-8.66395E-04-1.34433E-14
 -1      3129 5.12649E-03-1.13850E-03-1.66719E-14
 -1      3130 4.97824E-03-1.04936E-03-1.56874E-14
 -1      3131 4.97926E-03-1.04682E-03-1.53026E-14
 -1      3132 5.42066E-03-1.31447E-03-1.87216E-14
 -1      3133 5.27398E-03-1.22681E-03-1.76829E-14
 -1      3134 5.27705E-03-1.22359E-03-1.72736E-14
 -1      3135 5.71217E-03-1.48811E-03-2.08799E-14
 -1      3136 5.56673E-03-1.40152E-03-1.97874E-14
 -1      3137 5.57098E-03-1.39761E-03-1.93542E-14
 -1      3138 6.00168E-03-1.66014E-03-2.31447E-14
 -1      3139 5.85715E-03-1.57428E-03-2.19989E-14
 -1      3140 5.86196E-03-1.56977E-03-2.15428E-14
 -1      3141 6.28977E-03-1.83120E-03-2.55133E-14
 -1      3142 6.14587E-03-1.74576E-03-2.43162E-14
 -1      3143 6.15083E-03-1.74079E-03-2.38365E-14
 -1      3144 6.57690E-03-2.00175E-03-2.79836E-14
 -1      3145 6.43343E-03-1.91651E-03-2.67360E-14
 -1      3146 6.43830E-03-1.91120E-03-2.62325E-14
 -1      3147 6.86342E-03-2.17214E-03-3.05487E-14
 -1      3148 6.72022E-03-2.08695E-03-2.92547E-14
 -1      3149 6.72487E-03-2.08140E-03-2.87275E-14
 -1      3150 7.14957E-03-2.34258E-03-3.32077E-14
 -1      3151 7.00653E-03-2.25734E-03-3.18664E-14
 -1      3152 7.01092E-03-2.25163E-03-3.13173E-14
 -1      3153 7.43550E-03-2.51321E-03-3.59602E-14
 -1      3154 7.29256E-03-2.42787E-03-3.45728E-14
 -1      3155 7.29670E-03-2.42205E-03-3.39981E-14
 -1      3156 7.72132E-03-2.68410E-03-3.87988E-14
 -1      3157 7.57842E-03-2.59862E-03-3.73681E-14
 -1      3158 7.58233E-03-2.59274E-03-3.67719E-14
 -1      3159 8.00707E-03-2.85528E-03-4.17238E-14
 -1      3160 7.86420E-03-2.76966E-03-4.02515E-14
 -1      3161 7.86793E-03-2.76373E-03-3.96330E-14
 -1      3162 8.29280E-03-3.02674E-03-4.47336E-14
 -1      3163 8.14993E-03-2.94098E-03-4.32184E-14
 -1      3164 8.15352E-03-2.93502E-03-4.25806E-14
 -1      3165 8.57851E-03-3.19846E-03-4.78223E-14
 -1      3166 8.43565E-03-3.11257E-03-4.62670E-14
 -1      3167 8.43914E-03-3.10659E-03-4.56096E-14
 -1      3168 8.86422E-03-3.37041E-03-5.09898E-14
 -1      3169 8.72137E-03-3.28441E-03-4.93973E-14
 -1      3170 8.72478E-03-3.27841E-03-4.87202E-14
 -1      3171 9.14994E-03-3.54256E-03-5.42345E-14
 -1      3172 9.00708E-03-3.45646E-03-5.26020E-14
 -1      3173 9.01045E-03-3.45044E-03-5.19086E-14
 -1      3174 9.43566E-03-3.71486E-03-5.75553E-14
 -1      3175 9.29280E-03-3.62869E-03-5.58858E-14
 -1      3176 9.29614E-03-3.62266E-03-5.51716E-14
 -1      3177 9.72138E-03-3.88730E-03-6.09459E-14
 -1      3178 9.57852E-03-3.80106E-03-5.92417E-14
 -1      3179 9.58184E-03-3.79502E-03-5.85090E-14
 -1      3180 1.00071E-02-4.05984E-03-6.43998E-14
 -1      3181 9.86424E-03-3.97356E-03-6.26651E-14
 -1      3182 9.86756E-03-3.96750E-03-6.19152E-14
 -1      3183 1.02928E-02-4.23246E-03-6.79138E-14
 -1      3184 1.01500E-02-4.14614E-03-6.61502E-14
 -1      3185 1.01533E-02-4.14008E-03-6.53855E-14
 -1      3186 1.05785E-02-4.40513E-03-7.14835E-14
 -1      3187 1.04357E-02-4.31879E-03-6.96899E-14
 -1      3188 1.04390E-02-4.31272E-03-6.89135E-14
 -1      3189 1.08643E-02-4.57786E-03-7.51045E-14
 -1      3190 1.07214E-02-4.49149E-03-7.32892E-14
 -1      3191 1.07247E-02-4.48542E-03-7.24940E-14
 -1      3192 1.11500E-02-4.75062E-03-7.87764E-14
 -1      3193 1.10071E-02-4.66423E-03-7.69339E-14
 -1      3194 1.10105E-02-4.65816E-03-7.61279E-14
 -1      3195 1.14357E-02-4.92339E-03-8.24975E-14
 -1      3196 1.12928E-02-4.83700E-03-8.06299E-14
 -1      3197 1.12962E-02-4.83092E-03-7.98137E-14
 -1      3198 1.17214E-02-5.09619E-03-8.62613E-14
 -1      3199 1.15786E-02-5.00979E-03-8.43745E-14
 -1      3200 1.15819E-02-5.00371E-03-8.35460E-14
 -1      3201 1.20071E-02-5.26899E-03-9.00641E-14
 -1      3202 1.18643E-02-5.18259E-03-8.81582E-14
 -1      3203 1.18676E-02-5.17651E-03-8.73215E-14
 -1      3204 1.22928E-02-5.44181E-03-9.38993E-14
 -1      3205 1.21500E-02-5.35540E-03-9.19778E-14
 -1      3206 1.21534E-02-5.34932E-03-9.11332E-14
 -1      3207 1.25786E-02-5.61462E-03-9.77603E-14
 -1      3208 1.24357E-02-5.52821E-03-9.58267E-14
 -1      3209 1.24391E-02-5.52213E-03-9.49760E-14
 -1      3210 1.28643E-02-5.78743E-03-1.01645E-13
 -1      3211 1.27214E-02-5.70103E-03-9.97000E-14
 -1      3212 1.27248E-02-5.69494E-03-9.88453E-14
 -1      3213 1.42399E-02-6.52874E-03-1.10347E-13
 -1      3214 1.41549E-02-6.48659E-03-1.10226E-13
 -1      3215 1.39887E-02-6.39069E-03-1.08445E-13
 -1      3216 5.91038E-03-1.30232E-03-1.02288E-14
 -1      3217 6.00855E-03-1.36235E-03-1.10850E-14
 -1      3218 1.08354E-03-1.05791E-04-8.30296E-16
 -1      3219 1.03495E-03-1.60813E-04-8.25430E-16
 -1      3220 1.47468E-02-6.78020E-03-1.10986E-13
 -1      3221 1.46618E-02-6.73806E-03-1.10885E-13
 -1      3222 1.44956E-02-6.64216E-03-1.09097E-13
 -1      3223 1.44076E-02-6.61197E-03-1.10572E-13
 -1      3224 1.43241E-02-6.57053E-03-1.10461E-13
 -1      3225 1.41579E-02-6.47463E-03-1.08677E-13
 -1      3226 1.43264E-02-6.55822E-03-1.08893E-13
 -1      3227 1.48893E-02-6.85012E-03-1.11052E-13
 -1      3228 1.48044E-02-6.80797E-03-1.10959E-13
 -1      3229 1.46382E-02-6.71208E-03-1.09167E-13
 -1      3230 1.47533E-02-6.76761E-03-1.09104E-13
 -1      3231 5.73329E-04-2.46138E-04-5.18899E-16
 -1      3232 1.43825E-03-1.48637E-04-1.35147E-15
 -1      3233 1.54707E-03-1.03468E-04-1.46401E-15
 -1      3234 1.35840E-02-6.20173E-03-1.09175E-13
 -1      3235 1.34382E-02-6.12729E-03-1.08708E-13
 -1      3236 1.32944E-02-6.04085E-03-1.06787E-13
 -1      3237 1.04414E-03-2.22274E-04-9.11895E-16
 -1      3238 9.51458E-04-2.73563E-04-8.87379E-16
 -1      3239 5.82360E-03-1.25566E-03-9.43780E-15
 -1      3240 3.45731E-03-1.71223E-04-5.78678E-15
 -1      3241 3.63115E-03-2.86620E-04-6.22523E-15
 -1      3242 3.04945E-03 6.91079E-05-4.65575E-15
 -1      3243 3.24189E-03-3.78465E-05-5.19649E-15
 -1      3244 2.76024E-03 1.78418E-04-3.84611E-15
 -1      3245 2.87375E-03 1.43554E-04-4.17083E-15
 -1      3246 5.25012E-03-1.13393E-03-9.27767E-15
 -1      3247 5.42822E-03-1.18542E-03-9.53996E-15
 -1      3248 1.11140E-03 3.81667E-04-6.81990E-16
 -1      3249 1.68328E-03-4.96433E-05-1.62611E-15
 -1      3250 1.81490E-03 8.50986E-06-1.79906E-15
 -1      3251 1.55335E-03-5.56188E-05-1.42883E-15
 -1      3252 1.50568E-03 3.76648E-04-1.29206E-15
 -1      3253 1.33250E-03 3.57803E-04-1.01666E-15
 -1      3254 3.61013E-03-2.14225E-04-8.11619E-15
 -1      3255 3.45771E-03-1.23259E-04-7.42398E-15
 -1      3256 3.43323E-03-1.17801E-04-7.15602E-15
 -1      3257 3.74506E-03-3.03224E-04-8.54799E-15
 -1      3258 6.26844E-04-3.12507E-04-6.82139E-16
 -1      3259 5.82274E-04-3.00848E-04-6.40106E-16
 -1      3260 1.12782E-03 3.28549E-04-7.37230E-16
 -1      3261 4.31061E-03-7.08235E-04-7.60466E-15
 -1      3262 4.55248E-03-8.40184E-04-8.10957E-15
 -1      3263 3.85960E-03-4.33526E-04-6.71524E-15
 -1      3264 4.07956E-03-5.72620E-04-7.15191E-15
 -1      3265 4.20504E-03-6.50797E-04-7.68057E-15
 -1      3266 1.14053E-03 3.93713E-06-8.32721E-16
 -1      3267 1.11774E-03-4.95511E-05-8.32640E-16
 -1      3268 1.25290E-03-6.67466E-05-1.01335E-15
 -1      3269 7.98731E-04-3.04614E-04-7.87266E-16
 -1      3270 7.20996E-04-3.28073E-04-7.75347E-16
 -1      3271 5.83563E-03-1.25249E-03-9.79129E-15
 -1      3272 5.85955E-03-1.25233E-03-9.70431E-15
 -1      3273 4.83316E-03-9.75717E-04-8.67149E-15
 -1      3274 5.04014E-03-1.06049E-03-8.99507E-15
 -1      3275 5.17064E-03-1.11787E-03-9.58595E-15
 -1      3276 1.85327E-03 6.58988E-05-1.83814E-15
 -1      3277 6.04385E-03-1.38170E-03-1.15482E-14
 -1      3278 5.55077E-03-1.22538E-03-9.92250E-15
 -1      3279 5.65975E-03-1.25870E-03-1.03118E-14
 -1      3280 5.49363E-03-1.22649E-03-1.02665E-14
 -1      3281 2.10865E-03 1.75999E-04-2.29887E-15
 -1      3282 2.25226E-03 1.84116E-04-2.57128E-15
 -1      3283 2.33253E-03 2.12429E-04-2.78301E-15
 -1      3284 2.42519E-03 3.45566E-04-3.47214E-15
 -1      3285 2.27988E-03 3.74732E-04-3.03818E-15
 -1      3286 2.23495E-03 3.56865E-04-2.87342E-15
 -1      3287 6.16841E-04-3.10611E-04-6.99202E-16
 -1      3288 5.80812E-03-1.28740E-03-1.04927E-14
 -1      3289 5.82724E-03-1.27010E-03-1.01410E-14
 -1      3290 5.90558E-03-1.30719E-03-1.06754E-14
 -1      3291 2.71502E-03 2.54913E-04-4.43845E-15
 -1      3292 2.56983E-03 3.05550E-04-3.93855E-15
 -1      3293 2.53056E-03 2.99480E-04-3.74719E-15
 -1      3294 2.82608E-03 1.96128E-04-4.75256E-15
 -1      3295 1.28760E-03 2.39222E-04-9.75836E-16
 -1      3296 1.15141E-03 1.94082E-04-8.03123E-16
 -1      3297 1.15625E-03 1.50064E-04-8.15049E-16
 -1      3298 1.59735E-03 3.50631E-04-1.45447E-15
 -1      3299 1.31512E-02-5.95736E-03-1.05167E-13
 -1      3300 1.30074E-02-5.87092E-03-1.03257E-13
 -1      3301 1.30108E-02-5.86483E-03-1.02398E-13
 -1      3302 1.32971E-02-6.03180E-03-1.05629E-13
 -1      3303 1.22563E-03-1.92127E-04-1.10366E-15
 -1      3304 1.39004E-02-6.36032E-03-1.09852E-13
 -1      3305 1.38158E-02-6.31835E-03-1.09725E-13
 -1      3306 1.38191E-02-6.30657E-03-1.08201E-13
 -1      3307 2.64010E-03 2.03440E-04-3.54937E-15
 -1      3308 2.67949E-03 1.98834E-04-3.73898E-15
 -1      3309 2.52311E-03 2.18556E-04-3.26642E-15
 -1      3310 2.96456E-03 1.01946E-04-4.52271E-15
 -1      3311 1.36686E-02-6.24370E-03-1.09308E-13
 -1      3312 5.87826E-03-1.26803E-03-9.87938E-15
 -1      3313 3.34000E-03-1.02402E-04-5.60831E-15
 -1      3314 1.15753E-03 1.03858E-04-8.24075E-16
 -1      3315 1.15269E-03 5.54062E-05-8.29916E-16
 -1      3316 1.29751E-03 4.83846E-05-1.01477E-15
 -1      3317 1.30252E-03 1.49166E-04-1.00278E-15
 -1      3318 4.70049E-03-9.17726E-04-8.71445E-15
 -1      3319 3.76296E-03-3.74829E-04-6.71375E-15
 -1      3320 1.26564E-03 3.33604E-04-9.26017E-16
 -1      3321 6.36660E-03-1.61408E-03-1.47902E-14
 -1      3322 6.48406E-03-1.69162E-03-1.57668E-14
 -1      3323 6.60608E-03-1.77124E-03-1.67690E-14
 -1      3324 6.73204E-03-1.85337E-03-1.77958E-14
 -1      3325 6.48411E-03-1.70945E-03-1.62718E-14
 -1      3326 6.86112E-03-1.93688E-03-1.88479E-14
 -1      3327 6.99289E-03-2.02194E-03-1.99267E-14
 -1      3328 6.73279E-03-1.86929E-03-1.83232E-14
 -1      3329 7.12675E-03-2.10783E-03-2.10293E-14
 -1      3330 7.26244E-03-2.19460E-03-2.21538E-14
 -1      3331 6.99354E-03-2.03602E-03-2.04760E-14
 -1      3332 7.39951E-03-2.28181E-03-2.33028E-14
 -1      3333 7.53778E-03-2.36948E-03-2.44780E-14
 -1      3334 7.26260E-03-2.20705E-03-2.27246E-14
 -1      3335 7.68394E-03-2.46172E-03-2.57381E-14
 -1      3336 7.83096E-03-2.55417E-03-2.70243E-14
 -1      3337 7.54423E-03-2.38491E-03-2.51306E-14
 -1      3338 7.97156E-03-2.64225E-03-2.82737E-14
 -1      3339 8.11266E-03-2.73036E-03-2.95468E-14
 -1      3340 7.82980E-03-2.56409E-03-2.76389E-14
 -1      3341 8.25411E-03-2.81841E-03-3.08461E-14
 -1      3342 8.39589E-03-2.90642E-03-3.21690E-14
 -1      3343 8.11093E-03-2.73940E-03-3.01844E-14
 -1      3344 8.53789E-03-2.99433E-03-3.35171E-14
 -1      3345 8.68009E-03-3.08216E-03-3.48860E-14
 -1      3346 8.39369E-03-2.91478E-03-3.28278E-14
 -1      3347 8.82243E-03-3.16988E-03-3.62786E-14
 -1      3348 8.96490E-03-3.25749E-03-3.76935E-14
 -1      3349 8.67752E-03-3.08998E-03-3.55629E-14
 -1      3350 9.10745E-03-3.34500E-03-3.91304E-14
 -1      3351 9.25008E-03-3.43241E-03-4.05919E-14
 -1      3352 8.96205E-03-3.26490E-03-3.83896E-14
 -1      3353 9.39277E-03-3.51973E-03-4.20740E-14
 -1      3354 9.53550E-03-3.60695E-03-4.35733E-14
 -1      3355 9.24703E-03-3.43950E-03-4.13058E-14
 -1      3356 9.67827E-03-3.69408E-03-4.50925E-14
 -1      3357 9.82106E-03-3.78113E-03-4.66298E-14
 -1      3358 9.53230E-03-3.61379E-03-4.43021E-14
 -1      3359 9.96387E-03-3.86811E-03-4.81857E-14
 -1      3360 1.01067E-02-3.95502E-03-4.97599E-14
 -1      3361 9.81775E-03-3.78778E-03-4.73714E-14
 -1      3362 1.02495E-02-4.04187E-03-5.13501E-14
 -1      3363 1.03924E-02-4.12866E-03-5.29590E-14
 -1      3364 1.01033E-02-3.96152E-03-5.05145E-14
 -1      3365 1.05353E-02-4.21540E-03-5.45841E-14
 -1      3366 1.06781E-02-4.30210E-03-5.62262E-14
 -1      3367 1.03890E-02-4.13505E-03-5.37298E-14
 -1      3368 1.08210E-02-4.38876E-03-5.78846E-14
 -1      3369 1.09638E-02-4.47538E-03-5.95569E-14
 -1      3370 1.06747E-02-4.30840E-03-5.70116E-14
 -1      3371 1.11067E-02-4.56197E-03-6.12468E-14
 -1      3372 1.12496E-02-4.64853E-03-6.29547E-14
 -1      3373 1.09604E-02-4.48161E-03-6.03593E-14
 -1      3374 1.13925E-02-4.73506E-03-6.46795E-14
 -1      3375 1.15353E-02-4.82158E-03-6.64203E-14
 -1      3376 1.12461E-02-4.65471E-03-6.37722E-14
 -1      3377 1.16782E-02-4.90807E-03-6.81775E-14
 -1      3378 1.18211E-02-4.99455E-03-6.99514E-14
 -1      3379 1.15319E-02-4.82773E-03-6.72540E-14
 -1      3380 1.19639E-02-5.08102E-03-7.17436E-14
 -1      3381 1.21068E-02-5.16747E-03-7.35483E-14
 -1      3382 1.18176E-02-5.00068E-03-7.08024E-14
 -1      3383 1.22497E-02-5.25392E-03-7.53683E-14
 -1      3384 1.23925E-02-5.34035E-03-7.72046E-14
 -1      3385 1.21034E-02-5.17358E-03-7.44132E-14
 -1      3386 1.25354E-02-5.42678E-03-7.90513E-14
 -1      3387 1.26783E-02-5.51320E-03-8.09141E-14
 -1      3388 1.23891E-02-5.34645E-03-7.80810E-14
 -1      3389 1.28211E-02-5.59962E-03-8.27910E-14
 -1      3390 1.29640E-02-5.68603E-03-8.46787E-14
 -1      3391 1.26749E-02-5.51929E-03-8.18014E-14
 -1      3392 1.31069E-02-5.77244E-03-8.65777E-14
 -1      3393 1.32497E-02-5.85885E-03-8.84898E-14
 -1      3394 1.29606E-02-5.69212E-03-8.55729E-14
 -1      3395 1.33926E-02-5.94525E-03-9.04130E-14
 -1      3396 1.35355E-02-6.03166E-03-9.23443E-14
 -1      3397 1.32463E-02-5.86493E-03-8.93914E-14
 -1      3398 1.36783E-02-6.11806E-03-9.42876E-14
 -1      3399 1.38212E-02-6.20446E-03-9.62381E-14
 -1      3400 1.35320E-02-6.03774E-03-9.32523E-14
 -1      3401 1.39640E-02-6.29086E-03-9.81976E-14
 -1      3402 1.41069E-02-6.37726E-03-1.00167E-13
 -1      3403 1.38178E-02-6.21054E-03-9.71522E-14
 -1      3404 1.42498E-02-6.46366E-03-1.02141E-13
 -1      3405 1.43926E-02-6.55006E-03-1.04125E-13
 -1      3406 1.41035E-02-6.38334E-03-1.01082E-13
 -1      3407 1.45050E-02-6.61758E-03-1.05641E-13
 -1      3408 1.46410E-02-6.70009E-03-1.07574E-13
 -1      3409 1.45834E-02-6.67232E-03-1.07609E-13
 -1      3410 1.43587E-02-6.53726E-03-1.04569E-13
 -1      3411 5.87538E-04-3.05635E-04-6.64907E-16
 -1      3412 7.25353E-04-3.56561E-04-8.57102E-16
 -1      3413 4.57859E-03-8.60615E-04-8.83268E-15
 -1      3414 4.83730E-03-9.87803E-04-9.41884E-15
 -1      3415 4.51929E-03-7.74270E-04-1.22027E-14
 -1      3416 4.36256E-03-6.81287E-04-1.13538E-14
 -1      3417 4.20432E-03-5.87083E-04-1.05353E-14
 -1      3418 4.04515E-03-4.91760E-04-9.74518E-15
 -1      3419 4.35517E-03-6.82386E-04-1.10124E-14
 -1      3420 5.13109E-03-1.13390E-03-1.58767E-14
 -1      3421 4.98045E-03-1.04557E-03-1.49161E-14
 -1      3422 5.42853E-03-1.30815E-03-1.78787E-14
 -1      3423 5.28044E-03-1.22134E-03-1.68643E-14
 -1      3424 5.28428E-03-1.22019E-03-1.64539E-14
 -1      3425 5.72175E-03-1.48019E-03-1.99902E-14
 -1      3426 5.57560E-03-1.39437E-03-1.89209E-14
 -1      3427 5.58071E-03-1.39188E-03-1.84872E-14
 -1      3428 6.01189E-03-1.65094E-03-2.22089E-14
 -1      3429 5.86714E-03-1.56567E-03-2.10865E-14
 -1      3430 5.87278E-03-1.56204E-03-2.06295E-14
 -1      3431 6.29997E-03-1.82103E-03-2.45298E-14
 -1      3432 6.15614E-03-1.73603E-03-2.33567E-14
 -1      3433 6.16184E-03-1.73152E-03-2.28769E-14
 -1      3434 6.58672E-03-1.99090E-03-2.69527E-14
 -1      3435 6.44347E-03-1.90597E-03-2.57286E-14
 -1      3436 6.44899E-03-1.90083E-03-2.52250E-14
 -1      3437 6.87271E-03-2.16083E-03-2.94723E-14
 -1      3438 6.72979E-03-2.07585E-03-2.82005E-14
 -1      3439 6.73499E-03-2.07029E-03-2.76739E-14
 -1      3440 7.15830E-03-2.33098E-03-3.20844E-14
 -1      3441 7.01554E-03-2.24587E-03-3.07674E-14
 -1      3442 7.02039E-03-2.24006E-03-3.02179E-14
 -1      3443 7.44371E-03-2.50143E-03-3.47907E-14
 -1      3444 7.30102E-03-2.41617E-03-3.34264E-14
 -1      3445 7.30553E-03-2.41020E-03-3.28556E-14
 -1      3446 7.72908E-03-2.67221E-03-3.75860E-14
 -1      3447 7.58640E-03-2.58678E-03-3.61778E-14
 -1      3448 7.59061E-03-2.58074E-03-3.55832E-14
 -1      3449 8.01448E-03-2.84332E-03-4.04689E-14
 -1      3450 7.87178E-03-2.75773E-03-3.90167E-14
 -1      3451 7.87575E-03-2.75165E-03-3.84008E-14
 -1      3452 8.29994E-03-3.01474E-03-4.34384E-14
 -1      3453 8.15720E-03-2.92900E-03-4.19429E-14
 -1      3454 8.16098E-03-2.92290E-03-4.13071E-14
 -1      3455 8.58546E-03-3.18643E-03-4.64888E-14
 -1      3456 8.44269E-03-3.10055E-03-4.49537E-14
 -1      3457 8.44632E-03-3.09446E-03-4.42971E-14
 -1      3458 8.87104E-03-3.35836E-03-4.96201E-14
 -1      3459 8.72824E-03-3.27237E-03-4.80442E-14
 -1      3460 8.73176E-03-3.26628E-03-4.73697E-14
 -1      3461 9.15667E-03-3.53048E-03-5.28267E-14
 -1      3462 9.01385E-03-3.44440E-03-5.12143E-14
 -1      3463 9.01729E-03-3.43831E-03-5.05191E-14
 -1      3464 9.44234E-03-3.70277E-03-5.61096E-14
 -1      3465 9.29950E-03-3.61661E-03-5.44587E-14
 -1      3466 9.30289E-03-3.61053E-03-5.37465E-14
 -1      3467 9.72803E-03-3.87519E-03-5.94622E-14
 -1      3468 9.58518E-03-3.78897E-03-5.77780E-14
 -1      3469 9.58855E-03-3.78289E-03-5.70472E-14
 -1      3470 1.00137E-02-4.04772E-03-6.28870E-14
 -1      3471 9.87089E-03-3.96145E-03-6.11660E-14
 -1      3472 9.87423E-03-3.95537E-03-6.04180E-14
 -1      3473 1.02995E-02-4.22033E-03-6.63698E-14
 -1      3474 1.01566E-02-4.13402E-03-6.46203E-14
 -1      3475 1.01599E-02-4.12794E-03-6.38568E-14
 -1      3476 1.05852E-02-4.39300E-03-6.99119E-14
 -1      3477 1.04423E-02-4.30666E-03-6.81355E-14
 -1      3478 1.04457E-02-4.30058E-03-6.73543E-14
 -1      3479 1.08709E-02-4.56571E-03-7.35048E-14
 -1      3480 1.07281E-02-4.47935E-03-7.16997E-14
 -1      3481 1.07314E-02-4.47328E-03-7.09094E-14
 -1      3482 1.11567E-02-4.73846E-03-7.71526E-14
 -1      3483 1.10138E-02-4.65208E-03-7.53221E-14
 -1      3484 1.10172E-02-4.64601E-03-7.45167E-14
 -1      3485 1.14424E-02-4.91124E-03-8.08509E-14
 -1      3486 1.12995E-02-4.82485E-03-7.89962E-14
 -1      3487 1.13029E-02-4.81877E-03-7.81781E-14
 -1      3488 1.17281E-02-5.08403E-03-8.45960E-14
 -1      3489 1.15853E-02-4.99763E-03-8.27185E-14
 -1      3490 1.15886E-02-4.99155E-03-8.18901E-14
 -1      3491 1.20139E-02-5.25683E-03-8.83819E-14
 -1      3492 1.18710E-02-5.17043E-03-8.64838E-14
 -1      3493 1.18744E-02-5.16435E-03-8.56461E-14
 -1      3494 1.22996E-02-5.42964E-03-9.22020E-14
 -1      3495 1.21567E-02-5.34323E-03-9.02881E-14
 -1      3496 1.21601E-02-5.33715E-03-8.94424E-14
 -1      3497 1.25853E-02-5.60245E-03-9.60528E-14
 -1      3498 1.24425E-02-5.51604E-03-9.41243E-14
 -1      3499 1.24458E-02-5.50996E-03-9.32719E-14
 -1      3500 1.28710E-02-5.77526E-03-9.99303E-14
 -1      3501 1.27282E-02-5.68886E-03-9.79892E-14
 -1      3502 1.27316E-02-5.68277E-03-9.71311E-14
 -1      3503 1.39075E-02-6.33694E-03-1.06787E-13
 -1      3504 1.38225E-02-6.29479E-03-1.06668E-13
 -1      3505 1.02256E-03-3.20569E-04-1.07685E-15
 -1      3506 3.23534E-03-4.19720E-05-5.45820E-15
 -1      3507 3.43457E-03-1.64257E-04-6.06182E-15
 -1      3508 1.44144E-02-6.58841E-03-1.07415E-13
 -1      3509 1.43294E-02-6.54626E-03-1.07317E-13
 -1      3510 1.33124E-03-1.81911E-04-1.23988E-15
 -1      3511 1.31488E-03-1.18076E-04-1.13925E-15
 -1      3512 4.82827E-03-9.56333E-04-1.39834E-14
 -1      3513 4.67463E-03-8.65891E-04-1.30799E-14
 -1      3514 4.67248E-03-8.67004E-04-1.27141E-14
 -1      3515 4.98199E-03-1.04575E-03-1.45286E-14
 -1      3516 3.24925E-03-2.32563E-05-6.24917E-15
 -1      3517 3.09391E-03 5.92910E-05-5.64419E-15
 -1      3518 2.03468E-03 3.41075E-04-2.33272E-15
 -1      3519 1.87926E-03 3.36401E-04-1.98843E-15
 -1      3520 1.35874E-02-6.18994E-03-1.07665E-13
 -1      3521 6.14951E-03-1.46931E-03-1.29147E-14
 -1      3522 6.25481E-03-1.54038E-03-1.38394E-14
 -1      3523 6.25279E-03-1.55995E-03-1.43228E-14
 -1      3524 2.87988E-03 1.36090E-04-4.37939E-15
 -1      3525 3.04571E-03 6.05021E-05-4.87758E-15
 -1      3526 5.92838E-03-1.30421E-03-1.04986E-14
 -1      3527 1.35941E-03-5.33105E-05-1.14592E-15
 -1      3528 4.12375E-03-6.02879E-04-7.78164E-15
 -1      3529 4.33335E-03-7.26996E-04-8.25533E-15
 -1      3530 3.69649E-03-3.31401E-04-6.77728E-15
 -1      3531 3.90671E-03-4.68260E-04-7.29244E-15
 -1      3532 1.47725E-03-1.03271E-05-1.28576E-15
 -1      3533 5.11742E-03-1.10894E-03-9.98335E-15
 -1      3534 5.30718E-03-1.17813E-03-1.02846E-14
 -1      3535 5.94123E-03-1.32266E-03-1.08585E-14
 -1      3536 5.97408E-03-1.33905E-03-1.10425E-14
 -1      3537 5.94409E-03-1.34213E-03-1.12194E-14
 -1      3538 1.46702E-03 4.75084E-05-1.24846E-15
 -1      3539 1.67220E-03 5.29279E-05-1.55052E-15
 -1      3540 1.83015E-03 1.15928E-04-1.79543E-15
 -1      3541 1.47440E-03 1.01852E-04-1.24651E-15
 -1      3542 6.06124E-03-1.40151E-03-1.19197E-14
 -1      3543 5.44114E-03-1.22731E-03-1.06815E-14
 -1      3544 5.56591E-03-1.27041E-03-1.10835E-14
 -1      3545 5.39660E-03-1.22467E-03-1.10962E-14
 -1      3546 1.92534E-03 1.64362E-04-1.96563E-15
 -1      3547 2.01020E-03 2.06056E-04-2.14288E-15
 -1      3548 1.74417E-03 1.54949E-04-1.66043E-15
 -1      3549 1.45258E-02-6.64455E-03-1.07639E-13
 -1      3550 5.77738E-03-1.30118E-03-1.08498E-14
 -1      3551 5.88382E-03-1.34233E-03-1.13979E-14
 -1      3552 5.74148E-03-1.31191E-03-1.12065E-14
 -1      3553 2.94090E-03 1.34262E-04-5.07216E-15
 -1      3554 2.78926E-03 1.98858E-04-4.53304E-15
 -1      3555 3.06025E-03 6.73244E-05-5.39672E-15
 -1      3556 1.43596E-02-6.54865E-03-1.05866E-13
 -1      3557 1.34442E-02-6.10646E-03-1.06041E-13
 -1      3558 1.33011E-02-6.02297E-03-1.04422E-13
 -1      3559 1.35914E-02-6.18112E-03-1.06448E-13
 -1      3560 4.48840E-03-8.10742E-04-8.93643E-15
 -1      3561 4.03111E-03-4.91247E-04-9.42607E-15
 -1      3562 3.88510E-03-3.95721E-04-8.98415E-15
 -1      3563 3.72503E-03-2.99779E-04-8.25400E-15
 -1      3564 1.30142E-02-5.85875E-03-1.01537E-13
 -1      3565 1.39917E-02-6.37873E-03-1.06901E-13
 -1      3566 1.38255E-02-6.28283E-03-1.05130E-13
 -1      3567 1.40759E-02-6.42053E-03-1.07009E-13
 -1      3568 3.14118E-03 9.89570E-06-5.29183E-15
 -1      3569 1.41639E-02-6.45072E-03-1.05544E-13
 -1      3570 1.42452E-02-6.50447E-03-1.07215E-13
 -1      3571 1.41609E-02-6.46268E-03-1.07115E-13
 -1      3572 1.37492E-02-6.25894E-03-1.06623E-13
 -1      3573 1.36646E-02-6.21697E-03-1.06501E-13
 -1      3574 1.35215E-02-6.13348E-03-1.04878E-13
 -1      3575 1.36680E-02-6.20519E-03-1.04973E-13
 -1      3576 2.38181E-03 2.30139E-04-2.94809E-15
 -1      3577 2.64830E-03 2.11859E-04-3.74634E-15
 -1      3578 2.76240E-03 1.78931E-04-4.05584E-15
 -1      3579 2.84277E-03 1.51792E-04-4.38253E-15
 -1      3580 4.99734E-03-1.06214E-03-1.01080E-14
 -1      3581 2.18777E-03 3.36715E-04-2.70794E-15
 -1      3582 2.13769E-03 3.12364E-04-2.54183E-15
 -1      3583 2.33938E-03 3.20938E-04-3.11468E-15
 -1      3584 1.69755E-03 3.22991E-04-1.63091E-15
 -1      3585 1.50952E-03 3.03473E-04-1.30474E-15
 -1      3586 1.79562E-03 2.96963E-04-1.80325E-15
 -1      3587 6.06183E-03-1.42286E-03-1.23835E-14
 -1      3588 1.34540E-03 3.06019E-04-1.04991E-15
 -1      3589 3.56518E-03-2.04698E-04-7.55421E-15
 -1      3590 3.40650E-03-1.12094E-04-6.88586E-15
 -1      3591 3.37819E-03-1.05163E-04-6.61338E-15
 -1      3592 3.70359E-03-2.96369E-04-7.95780E-15
 -1      3593 1.43397E-03 2.84163E-04-1.18530E-15
 -1      3594 1.36475E-03 2.60254E-04-1.08325E-15
 -1      3595 1.37574E-03 2.16604E-04-1.10037E-15
 -1      3596 1.53220E-03 2.57627E-04-1.33778E-15
 -1      3597 3.57472E-03-2.51308E-04-6.60355E-15
 -1      3598 4.04044E-03-5.48469E-04-7.84556E-15
 -1      3599 6.60238E-03-1.80380E-03-1.78013E-14
 -1      3600 6.72955E-03-1.88415E-03-1.88504E-14
 -1      3601 6.85941E-03-1.96599E-03-1.99240E-14
 -1      3602 6.99147E-03-2.04937E-03-2.10243E-14
 -1      3603 6.72365E-03-1.89754E-03-1.93765E-14
 -1      3604 7.12540E-03-2.13371E-03-2.21485E-14
 -1      3605 7.26089E-03-2.21902E-03-2.32947E-14
 -1      3606 6.98744E-03-2.06169E-03-2.15730E-14
 -1      3607 7.40455E-03-2.30919E-03-2.45253E-14
 -1      3608 7.54939E-03-2.39997E-03-2.57846E-14
 -1      3609 7.26461E-03-2.23452E-03-2.39234E-14
 -1      3610 7.68824E-03-2.48675E-03-2.70082E-14
 -1      3611 7.82782E-03-2.57380E-03-2.82547E-14
 -1      3612 7.54666E-03-2.41021E-03-2.63767E-14
 -1      3613 7.96799E-03-2.66100E-03-2.95249E-14
 -1      3614 8.10866E-03-2.74832E-03-3.08205E-14
 -1      3615 7.82514E-03-2.58320E-03-2.88690E-14
 -1      3616 8.24973E-03-2.83567E-03-3.21392E-14
 -1      3617 8.39114E-03-2.92305E-03-3.34825E-14
 -1      3618 8.10591E-03-2.75702E-03-3.14550E-14
 -1      3619 8.53282E-03-3.01041E-03-3.48500E-14
 -1      3620 8.67473E-03-3.09775E-03-3.62376E-14
 -1      3621 8.38827E-03-2.93118E-03-3.41363E-14
 -1      3622 8.81682E-03-3.18503E-03-3.76478E-14
 -1      3623 8.95906E-03-3.27227E-03-3.90828E-14
 -1      3624 8.67172E-03-3.10541E-03-3.69088E-14
 -1      3625 9.10142E-03-3.35945E-03-4.05394E-14
 -1      3626 9.24389E-03-3.44656E-03-4.20161E-14
 -1      3627 8.95593E-03-3.27957E-03-3.97742E-14
 -1      3628 9.38643E-03-3.53361E-03-4.35122E-14
 -1      3629 9.52905E-03-3.62060E-03-4.50256E-14
 -1      3630 9.24066E-03-3.45356E-03-4.27232E-14
 -1      3631 9.67171E-03-3.70753E-03-4.65602E-14
 -1      3632 9.81442E-03-3.79441E-03-4.81126E-14
 -1      3633 9.52574E-03-3.62738E-03-4.57494E-14
 -1      3634 9.95717E-03-3.88123E-03-4.96825E-14
 -1      3635 1.00999E-02-3.96800E-03-5.12708E-14
 -1      3636 9.81107E-03-3.80100E-03-4.88510E-14
 -1      3637 1.02427E-02-4.05473E-03-5.28771E-14
 -1      3638 1.03856E-02-4.14142E-03-5.45005E-14
 -1      3639 1.00966E-02-3.97446E-03-5.20258E-14
 -1      3640 1.05284E-02-4.22807E-03-5.61411E-14
 -1      3641 1.06712E-02-4.31469E-03-5.77978E-14
 -1      3642 1.03821E-02-4.14777E-03-5.52709E-14
 -1      3643 1.08141E-02-4.40128E-03-5.94706E-14
 -1      3644 1.09570E-02-4.48784E-03-6.11602E-14
 -1      3645 1.06678E-02-4.32096E-03-5.85832E-14
 -1      3646 1.10998E-02-4.57438E-03-6.28685E-14
 -1      3647 1.12427E-02-4.66089E-03-6.45927E-14
 -1      3648 1.09535E-02-4.49405E-03-6.19620E-14
 -1      3649 1.13856E-02-4.74739E-03-6.63327E-14
 -1      3650 1.15284E-02-4.83388E-03-6.80882E-14
 -1      3651 1.12393E-02-4.66706E-03-6.54105E-14
 -1      3652 1.16713E-02-4.92035E-03-6.98636E-14
 -1      3653 1.18142E-02-5.00680E-03-7.16543E-14
 -1      3654 1.15250E-02-4.84002E-03-6.89250E-14
 -1      3655 1.19571E-02-5.09325E-03-7.34581E-14
 -1      3656 1.20999E-02-5.17969E-03-7.52782E-14
 -1      3657 1.18108E-02-5.01292E-03-7.25034E-14
 -1      3658 1.22428E-02-5.26612E-03-7.71123E-14
 -1      3659 1.23857E-02-5.35255E-03-7.89562E-14
 -1      3660 1.20965E-02-5.18579E-03-7.61423E-14
 -1      3661 1.25286E-02-5.43897E-03-8.08147E-14
 -1      3662 1.26714E-02-5.52538E-03-8.26889E-14
 -1      3663 1.23823E-02-5.35864E-03-7.98320E-14
 -1      3664 1.28143E-02-5.61179E-03-8.45715E-14
 -1      3665 1.29572E-02-5.69820E-03-8.64662E-14
 -1      3666 1.26680E-02-5.53147E-03-8.35719E-14
 -1      3667 1.31000E-02-5.78461E-03-8.83729E-14
 -1      3668 1.32429E-02-5.87101E-03-9.02901E-14
 -1      3669 1.29538E-02-5.70428E-03-8.73572E-14
 -1      3670 1.33858E-02-5.95741E-03-9.22216E-14
 -1      3671 1.35286E-02-6.04382E-03-9.41581E-14
 -1      3672 1.32395E-02-5.87709E-03-9.11874E-14
 -1      3673 1.36715E-02-6.13022E-03-9.61035E-14
 -1      3674 1.38144E-02-6.21662E-03-9.80585E-14
 -1      3675 1.35252E-02-6.04990E-03-9.50585E-14
 -1      3676 1.39572E-02-6.30302E-03-1.00021E-13
 -1      3677 1.41001E-02-6.38942E-03-1.01993E-13
 -1      3678 1.38110E-02-6.22270E-03-9.89624E-14
 -1      3679 1.42473E-02-6.48113E-03-1.04352E-13
 -1      3680 4.51089E-03-7.78746E-04-1.14937E-14
 -1      3681 4.34832E-03-6.85327E-04-1.06686E-14
 -1      3682 5.73336E-03-1.47466E-03-1.90990E-14
 -1      3683 5.58661E-03-1.39019E-03-1.80532E-14
 -1      3684 5.43858E-03-1.30548E-03-1.70350E-14
 -1      3685 5.28907E-03-1.22021E-03-1.60428E-14
 -1      3686 5.59352E-03-1.38940E-03-1.76186E-14
 -1      3687 6.31169E-03-1.81150E-03-2.35464E-14
 -1      3688 6.16806E-03-1.72727E-03-2.23959E-14
 -1      3689 6.59781E-03-1.98021E-03-2.59229E-14
 -1      3690 6.45490E-03-1.89579E-03-2.47217E-14
 -1      3691 6.46126E-03-1.89086E-03-2.42178E-14
 -1      3692 6.88304E-03-2.14939E-03-2.83968E-14
 -1      3693 6.74050E-03-2.06473E-03-2.71477E-14
 -1      3694 6.74634E-03-2.05916E-03-2.66212E-14
 -1      3695 7.16787E-03-2.31910E-03-3.09640E-14
 -1      3696 7.02548E-03-2.23418E-03-2.96689E-14
 -1      3697 7.03081E-03-2.22822E-03-2.91198E-14
 -1      3698 7.45259E-03-2.48931E-03-3.36257E-14
 -1      3699 7.31023E-03-2.40414E-03-3.22833E-14
 -1      3700 7.31511E-03-2.39798E-03-3.17129E-14
 -1      3701 7.73738E-03-2.65998E-03-3.63765E-14
 -1      3702 7.59497E-03-2.57459E-03-3.49901E-14
 -1      3703 7.59947E-03-2.56833E-03-3.43972E-14
 -1      3704 8.02231E-03-2.83105E-03-3.92171E-14
 -1      3705 7.87982E-03-2.74547E-03-3.77860E-14
 -1      3706 7.88401E-03-2.73918E-03-3.71713E-14
 -1      3707 8.30740E-03-3.00247E-03-4.21442E-14
 -1      3708 8.16483E-03-2.91672E-03-4.06695E-14
 -1      3709 8.16877E-03-2.91045E-03-4.00340E-14
 -1      3710 8.59265E-03-3.17418E-03-4.51582E-14
 -1      3711 8.45001E-03-3.08829E-03-4.36411E-14
 -1      3712 8.45376E-03-3.08205E-03-4.29848E-14
 -1      3713 8.87803E-03-3.34614E-03-4.82505E-14
 -1      3714 8.73533E-03-3.26013E-03-4.66940E-14
 -1      3715 8.73894E-03-3.25392E-03-4.60193E-14
 -1      3716 9.16353E-03-3.51828E-03-5.14205E-14
 -1      3717 9.02077E-03-3.43219E-03-4.98267E-14
 -1      3718 9.02428E-03-3.42601E-03-4.91329E-14
 -1      3719 9.44911E-03-3.69059E-03-5.46658E-14
 -1      3720 9.30631E-03-3.60442E-03-5.30328E-14
 -1      3721 9.30976E-03-3.59827E-03-5.23213E-14
 -1      3722 9.73475E-03-3.86303E-03-5.79837E-14
 -1      3723 9.59193E-03-3.77680E-03-5.63166E-14
 -1      3724 9.59533E-03-3.77067E-03-5.55866E-14
 -1      3725 1.00204E-02-4.03556E-03-6.13726E-14
 -1      3726 9.87759E-03-3.94929E-03-5.96694E-14
 -1      3727 9.88097E-03-3.94318E-03-5.89208E-14
 -1      3728 1.03062E-02-4.20818E-03-6.48244E-14
 -1      3729 1.01633E-02-4.12186E-03-6.30913E-14
 -1      3730 1.01667E-02-4.11577E-03-6.23255E-14
 -1      3731 1.05919E-02-4.38085E-03-6.83391E-14
 -1      3732 1.04490E-02-4.29451E-03-6.65731E-14
 -1      3733 1.04524E-02-4.28842E-03-6.57929E-14
 -1      3734 1.08776E-02-4.55356E-03-7.19078E-14
 -1      3735 1.07348E-02-4.46720E-03-7.01176E-14
 -1      3736 1.07381E-02-4.46112E-03-6.93232E-14
 -1      3737 1.11634E-02-4.72631E-03-7.55311E-14
 -1      3738 1.10205E-02-4.63993E-03-7.37125E-14
 -1      3739 1.10239E-02-4.63385E-03-7.29086E-14
 -1      3740 1.14491E-02-4.89908E-03-7.92062E-14
 -1      3741 1.13063E-02-4.81269E-03-7.73624E-14
 -1      3742 1.13096E-02-4.80662E-03-7.65459E-14
 -1      3743 1.17349E-02-5.07187E-03-8.29285E-14
 -1      3744 1.15920E-02-4.98547E-03-8.10621E-14
 -1      3745 1.15954E-02-4.97940E-03-8.02348E-14
 -1      3746 1.20206E-02-5.24467E-03-8.66955E-14
 -1      3747 1.18777E-02-5.15827E-03-8.48066E-14
 -1      3748 1.18811E-02-5.15219E-03-8.39683E-14
 -1      3749 1.23063E-02-5.41747E-03-9.05017E-14
 -1      3750 1.21635E-02-5.33107E-03-8.85939E-14
 -1      3751 1.21669E-02-5.32499E-03-8.77447E-14
 -1      3752 1.25921E-02-5.59028E-03-9.43410E-14
 -1      3753 1.24492E-02-5.50388E-03-9.24179E-14
 -1      3754 1.24526E-02-5.49780E-03-9.15601E-14
 -1      3755 1.28778E-02-5.76310E-03-9.82099E-14
 -1      3756 1.27349E-02-5.67669E-03-9.62720E-14
 -1      3757 1.27383E-02-5.67061E-03-9.54118E-14
 -1      3758 2.24226E-03 2.41611E-04-2.65417E-15
 -1      3759 2.42370E-03 2.46558E-04-3.12134E-15
 -1      3760 6.13125E-03-1.50792E-03-1.38583E-14
 -1      3761 6.24192E-03-1.57750E-03-1.48045E-14
 -1      3762 6.02390E-03-1.64310E-03-2.12714E-14
 -1      3763 5.87906E-03-1.55890E-03-2.01719E-14
 -1      3764 5.88613E-03-1.55631E-03-1.97142E-14
 -1      3765 3.09158E-03 4.23919E-05-5.34421E-15
 -1      3766 3.27047E-03-5.68726E-05-5.95255E-15
 -1      3767 2.63929E-03 2.52140E-04-4.02685E-15
 -1      3768 2.48926E-03 2.92906E-04-3.55464E-15
 -1      3769 2.44635E-03 2.84709E-04-3.36062E-15
 -1      3770 2.75121E-03 2.02067E-04-4.31166E-15
 -1      3771 1.91169E-03 2.59365E-04-1.99946E-15
 -1      3772 1.71954E-03 2.37647E-04-1.64220E-15
 -1      3773 1.42472E-03 1.85167E-04-1.17084E-15
 -1      3774 1.43030E-03 1.37328E-04-1.18059E-15
 -1      3775 1.60420E-03 1.41070E-04-1.43727E-15
 -1      3776 1.50524E-03 2.06486E-04-1.29089E-15
 -1      3777 4.39125E-03-7.53614E-04-9.00544E-15
 -1      3778 4.61797E-03-8.78127E-04-9.60886E-15
 -1      3779 5.93408E-03-1.35949E-03-1.15878E-14
 -1      3780 5.98053E-03-1.37667E-03-1.17787E-14
 -1      3781 5.91632E-03-1.37527E-03-1.19567E-14
 -1      3782 3.47739E-03-1.85562E-04-6.49639E-15
 -1      3783 3.72430E-03-3.43012E-04-7.24026E-15
 -1      3784 4.90340E-03-1.02198E-03-1.03439E-14
 -1      3785 5.16231E-03-1.13855E-03-1.09387E-14
 -1      3786 6.35803E-03-1.64999E-03-1.57783E-14
 -1      3787 6.47827E-03-1.72583E-03-1.67772E-14
 -1      3788 6.46886E-03-1.74012E-03-1.72802E-14
 -1      3789 6.22642E-03-1.59244E-03-1.52870E-14
 -1      3790 1.31613E-02-5.93341E-03-1.01940E-13
 -1      3791 3.98172E-03-5.05888E-04-7.96059E-15
 -1      3792 4.18238E-03-6.30802E-04-8.47502E-15
 -1      3793 4.32046E-03-7.06180E-04-9.12479E-15
 -1      3794 1.41010E-02-6.40081E-03-1.03280E-13
 -1      3795 3.41244E-03-1.36470E-04-6.54526E-15
 -1      3796 2.93148E-03 1.19291E-04-4.78602E-15
 -1      3797 5.30071E-03-1.19739E-03-1.13486E-14
 -1      3798 5.43319E-03-1.25059E-03-1.17652E-14
 -1      3799 5.21270E-03-1.16556E-03-1.15958E-14
 -1      3800 1.69268E-03 1.86924E-04-1.58327E-15
 -1      3801 5.70595E-03-1.32239E-03-1.16384E-14
 -1      3802 5.83516E-03-1.37123E-03-1.22045E-14
 -1      3803 5.67153E-03-1.32930E-03-1.20715E-14
 -1      3804 3.86555E-03-4.26374E-04-7.83893E-15
 -1      3805 4.67128E-03-8.69984E-04-1.23479E-14
 -1      3806 4.67126E-03-8.74889E-04-1.19805E-14
 -1      3807 4.82904E-03-9.59550E-04-1.32303E-14
 -1      3808 6.17488E-03-1.72330E-03-2.19147E-14
 -1      3809 4.18333E-03-5.89899E-04-9.87173E-15
 -1      3810 4.01683E-03-4.92129E-04-9.10407E-15
 -1      3811 4.34228E-03-6.89965E-04-1.03226E-14
 -1      3812 5.29506E-03-1.22154E-03-1.56305E-14
 -1      3813 5.13777E-03-1.13436E-03-1.50773E-14
 -1      3814 4.98454E-03-1.04749E-03-1.41399E-14
 -1      3815 2.50812E-03 2.45505E-04-3.40236E-15
 -1      3816 2.06405E-03 2.44104E-04-2.28578E-15
 -1      3817 1.33431E-02-6.03040E-03-1.02972E-13
 -1      3818 1.30562E-02-5.86618E-03-1.00099E-13
 -1      3819 1.30596E-02-5.86009E-03-9.92317E-14
 -1      3820 1.34164E-02-6.06626E-03-1.03022E-13
 -1      3821 1.39947E-02-6.36678E-03-1.05344E-13
 -1      3822 1.40167E-02-6.35901E-03-1.03188E-13
 -1      3823 1.39325E-02-6.31722E-03-1.03092E-13
 -1      3824 1.38696E-02-6.26730E-03-1.00839E-13
 -1      3825 1.35629E-02-6.13796E-03-1.03111E-13
 -1      3826 1.34896E-02-6.10211E-03-1.03067E-13
 -1      3827 1.33112E-02-5.99903E-03-1.01168E-13
 -1      3828 4.80111E-03-9.69944E-04-1.04165E-14
 -1      3829 2.13147E-03 2.87771E-04-2.48791E-15
 -1      3830 6.05693E-03-1.44085E-03-1.27630E-14
 -1      3831 2.81822E-03 1.69107E-04-4.44203E-15
 -1      3832 1.37313E-02-6.22155E-03-1.03329E-13
 -1      3833 1.36471E-02-6.17975E-03-1.03220E-13
 -1      3834 1.34687E-02-6.07668E-03-1.01320E-13
 -1      3835 5.99203E-03-1.43937E-03-1.30202E-14
 -1      3836 5.96180E-03-1.45185E-03-1.34774E-14
 -1      3837 2.29006E-03 2.85372E-04-2.87651E-15
 -1      3838 3.57991E-03-2.34972E-04-7.20099E-15
 -1      3839 5.58796E-03-1.31367E-03-1.23377E-14
 -1      3840 5.73407E-03-1.37243E-03-1.29207E-14
 -1      3841 5.50607E-03-1.29254E-03-1.25975E-14
 -1      3842 5.74873E-03-1.47182E-03-1.82061E-14
 -1      3843 5.60188E-03-1.38943E-03-1.71835E-14
 -1      3844 6.84800E-03-1.99061E-03-2.09974E-14
 -1      3845 6.98185E-03-2.07307E-03-2.21189E-14
 -1      3846 7.12390E-03-2.16069E-03-2.33221E-14
 -1      3847 7.26721E-03-2.24933E-03-2.45512E-14
 -1      3848 6.98209E-03-2.08757E-03-2.27216E-14
 -1      3849 7.40473E-03-2.33439E-03-2.57471E-14
 -1      3850 7.54310E-03-2.42000E-03-2.69680E-14
 -1      3851 7.26223E-03-2.25919E-03-2.51203E-14
 -1      3852 7.68218E-03-2.50599E-03-2.82136E-14
 -1      3853 7.82188E-03-2.59230E-03-2.94815E-14
 -1      3854 7.53894E-03-2.42930E-03-2.75584E-14
 -1      3855 7.96210E-03-2.67882E-03-3.07725E-14
 -1      3856 8.10275E-03-2.76551E-03-3.20869E-14
 -1      3857 7.81817E-03-2.60105E-03-3.00926E-14
 -1      3858 8.24377E-03-2.85230E-03-3.34254E-14
 -1      3859 8.38511E-03-2.93916E-03-3.47886E-14
 -1      3860 8.09927E-03-2.77376E-03-3.27180E-14
 -1      3861 8.52671E-03-3.02606E-03-3.61743E-14
 -1      3862 8.66853E-03-3.11298E-03-3.75809E-14
 -1      3863 8.38172E-03-2.94697E-03-3.54384E-14
 -1      3864 8.81052E-03-3.19989E-03-3.90111E-14
 -1      3865 8.95268E-03-3.28679E-03-4.04638E-14
 -1      3866 8.66517E-03-3.12042E-03-3.82514E-14
 -1      3867 9.09496E-03-3.37367E-03-4.19369E-14
 -1      3868 9.23736E-03-3.46052E-03-4.34288E-14
 -1      3869 8.94932E-03-3.29392E-03-4.11516E-14
 -1      3870 9.37984E-03-3.54733E-03-4.49394E-14
 -1      3871 9.52240E-03-3.63411E-03-4.64714E-14
 -1      3872 9.23399E-03-3.46740E-03-4.41324E-14
 -1      3873 9.66502E-03-3.72086E-03-4.80202E-14
 -1      3874 9.80769E-03-3.80757E-03-4.95880E-14
 -1      3875 9.51901E-03-3.64079E-03-4.71898E-14
 -1      3876 9.95040E-03-3.89425E-03-5.11759E-14
 -1      3877 1.00932E-02-3.98090E-03-5.27793E-14
 -1      3878 9.80429E-03-3.81409E-03-5.03261E-14
 -1      3879 1.02359E-02-4.06751E-03-5.44007E-14
 -1      3880 1.03787E-02-4.15411E-03-5.60400E-14
 -1      3881 1.00897E-02-3.98730E-03-5.35333E-14
 -1      3882 1.05216E-02-4.24067E-03-5.76965E-14
 -1      3883 1.06644E-02-4.32722E-03-5.93678E-14
 -1      3884 1.03753E-02-4.16042E-03-5.68096E-14
 -1      3885 1.08072E-02-4.41375E-03-6.10568E-14
 -1      3886 1.09501E-02-4.50025E-03-6.27651E-14
 -1      3887 1.06610E-02-4.33346E-03-6.01543E-14
 -1      3888 1.10930E-02-4.58675E-03-6.44888E-14
 -1      3889 1.12358E-02-4.67323E-03-6.62294E-14
 -1      3890 1.09467E-02-4.50644E-03-6.35670E-14
 -1      3891 1.13787E-02-4.75969E-03-6.79864E-14
 -1      3892 1.15216E-02-4.84615E-03-6.97611E-14
 -1      3893 1.12324E-02-4.67938E-03-6.70497E-14
 -1      3894 1.16645E-02-4.93259E-03-7.15511E-14
 -1      3895 1.18073E-02-5.01903E-03-7.33556E-14
 -1      3896 1.15182E-02-4.85227E-03-7.05972E-14
 -1      3897 1.19502E-02-5.10546E-03-7.51719E-14
 -1      3898 1.20931E-02-5.19189E-03-7.70039E-14
 -1      3899 1.18039E-02-5.02514E-03-7.42052E-14
 -1      3900 1.22360E-02-5.27831E-03-7.88482E-14
 -1      3901 1.23788E-02-5.36473E-03-8.07045E-14
 -1      3902 1.20897E-02-5.19798E-03-7.78644E-14
 -1      3903 1.25217E-02-5.45114E-03-8.25730E-14
 -1      3904 1.26646E-02-5.53755E-03-8.44519E-14
 -1      3905 1.23754E-02-5.37081E-03-8.15744E-14
 -1      3906 1.28075E-02-5.62396E-03-8.63432E-14
 -1      3907 1.29503E-02-5.71036E-03-8.82447E-14
 -1      3908 1.26612E-02-5.54363E-03-8.53309E-14
 -1      3909 1.30932E-02-5.79677E-03-9.01574E-14
 -1      3910 1.32361E-02-5.88317E-03-9.20809E-14
 -1      3911 1.29469E-02-5.71644E-03-8.91312E-14
 -1      3912 1.33790E-02-5.96957E-03-9.40160E-14
 -1      3913 1.35218E-02-6.05597E-03-9.59560E-14
 -1      3914 1.32327E-02-5.88925E-03-9.29718E-14
 -1      3915 1.36243E-02-6.11844E-03-9.74125E-14
 -1      3916 1.37671E-02-6.20484E-03-9.93712E-14
 -1      3917 1.36829E-02-6.16305E-03-9.92816E-14
 -1      3918 1.34780E-02-6.03812E-03-9.63632E-14
 -1      3919 4.26829E-03-6.67402E-04-9.30125E-15
 -1      3920 4.46249E-03-7.82003E-04-9.85995E-15
 -1      3921 6.89451E-03-2.13773E-03-2.73215E-14
 -1      3922 6.75255E-03-2.05354E-03-2.60946E-14
 -1      3923 6.61046E-03-1.96963E-03-2.48921E-14
 -1      3924 6.46815E-03-1.88598E-03-2.37142E-14
 -1      3925 6.75915E-03-2.04787E-03-2.55681E-14
 -1      3926 7.46210E-03-2.47674E-03-3.24635E-14
 -1      3927 7.32017E-03-2.39169E-03-3.11427E-14
 -1      3928 7.74615E-03-2.64730E-03-3.51712E-14
 -1      3929 7.60409E-03-2.56194E-03-3.38048E-14
 -1      3930 7.60884E-03-2.55541E-03-3.32144E-14
 -1      3931 8.03050E-03-2.81837E-03-3.79679E-14
 -1      3932 7.88829E-03-2.73278E-03-3.65586E-14
 -1      3933 7.89265E-03-2.72624E-03-3.59458E-14
 -1      3934 8.31514E-03-2.98986E-03-4.08532E-14
 -1      3935 8.17278E-03-2.90407E-03-3.94009E-14
 -1      3936 8.17685E-03-2.89758E-03-3.87660E-14
 -1      3937 8.60005E-03-3.16165E-03-4.38283E-14
 -1      3938 8.45756E-03-3.07572E-03-4.23301E-14
 -1      3939 8.46141E-03-3.06929E-03-4.16763E-14
 -1      3940 8.88519E-03-3.33369E-03-4.68820E-14
 -1      3941 8.74259E-03-3.24764E-03-4.53442E-14
 -1      3942 8.74628E-03-3.24128E-03-4.46708E-14
 -1      3943 9.17051E-03-3.50591E-03-5.00171E-14
 -1      3944 9.02783E-03-3.41978E-03-4.84400E-14
 -1      3945 9.03140E-03-3.41349E-03-4.77478E-14
 -1      3946 9.45598E-03-3.67829E-03-5.32239E-14
 -1      3947 9.31323E-03-3.59209E-03-5.16111E-14
 -1      3948 9.31672E-03-3.58585E-03-5.09004E-14
 -1      3949 9.74154E-03-3.85077E-03-5.65064E-14
 -1      3950 9.59875E-03-3.76452E-03-5.48564E-14
 -1      3951 9.60218E-03-3.75833E-03-5.41275E-14
 -1      3952 1.00272E-02-4.02334E-03-5.98604E-14
 -1      3953 9.88435E-03-3.93705E-03-5.81741E-14
 -1      3954 9.88775E-03-3.93089E-03-5.74281E-14
 -1      3955 1.03129E-02-4.19598E-03-6.32787E-14
 -1      3956 1.01700E-02-4.10966E-03-6.15611E-14
 -1      3957 1.01734E-02-4.10353E-03-6.07967E-14
 -1      3958 1.05986E-02-4.36867E-03-6.67647E-14
 -1      3959 1.04557E-02-4.28232E-03-6.50142E-14
 -1      3960 1.04591E-02-4.27621E-03-6.42341E-14
 -1      3961 1.08843E-02-4.54140E-03-7.03092E-14
 -1      3962 1.07415E-02-4.45503E-03-6.85301E-14
 -1      3963 1.07448E-02-4.44893E-03-6.77360E-14
 -1      3964 1.11701E-02-4.71415E-03-7.39097E-14
 -1      3965 1.10272E-02-4.62777E-03-7.21022E-14
 -1      3966 1.10306E-02-4.62168E-03-7.12944E-14
 -1      3967 1.14558E-02-4.88693E-03-7.75626E-14
 -1      3968 1.13130E-02-4.80054E-03-7.57306E-14
 -1      3969 1.13163E-02-4.79445E-03-7.49122E-14
 -1      3970 1.17416E-02-5.05971E-03-8.12628E-14
 -1      3971 1.15987E-02-4.97332E-03-7.94062E-14
 -1      3972 1.16021E-02-4.96724E-03-7.85775E-14
 -1      3973 1.20273E-02-5.23251E-03-8.50058E-14
 -1      3974 1.18845E-02-5.14611E-03-8.31293E-14
 -1      3975 1.18878E-02-5.14003E-03-8.22886E-14
 -1      3976 1.23131E-02-5.40531E-03-8.87953E-14
 -1      3977 1.21702E-02-5.31891E-03-8.68971E-14
 -1      3978 1.21736E-02-5.31283E-03-8.60455E-14
 -1      3979 1.25988E-02-5.57812E-03-9.26196E-14
 -1      3980 1.24560E-02-5.49172E-03-9.07020E-14
 -1      3981 1.24593E-02-5.48564E-03-8.98433E-14
 -1      3982 1.28846E-02-5.75093E-03-9.64806E-14
 -1      3983 1.27417E-02-5.66453E-03-9.45474E-14
 -1      3984 1.27451E-02-5.65845E-03-9.36797E-14
 -1      3985 4.69888E-03-9.13332E-04-1.05355E-14
 -1      3986 4.96536E-03-1.05089E-03-1.13074E-14
 -1      3987 6.03877E-03-1.63678E-03-2.03309E-14
 -1      3988 5.89426E-03-1.55419E-03-1.92554E-14
 -1      3989 5.90365E-03-1.55260E-03-1.87966E-14
 -1      3990 5.89806E-03-1.44548E-03-1.37594E-14
 -1      3991 6.05559E-03-1.51919E-03-1.46192E-14
 -1      3992 5.83055E-03-1.43428E-03-1.40349E-14
 -1      3993 1.38744E-02-6.29046E-03-1.03264E-13
 -1      3994 1.37894E-02-6.24831E-03-1.03164E-13
 -1      3995 1.36110E-02-6.14523E-03-1.01262E-13
 -1      3996 1.37272E-02-6.19875E-03-1.00922E-13
 -1      3997 1.58502E-03 2.27196E-04-1.41769E-15
 -1      3998 2.66283E-03 2.21675E-04-3.94045E-15
 -1      3999 3.74846E-03-3.35381E-04-7.88822E-15
 -1      4000 2.44662E-03 2.69226E-04-3.29752E-15
 -1      4001 7.17828E-03-2.30683E-03-2.98453E-14
 -1      4002 7.03640E-03-2.22217E-03-2.85723E-14
 -1      4003 7.32541E-03-2.38526E-03-3.05728E-14
 -1      4004 6.58524E-03-1.82998E-03-1.88304E-14
 -1      4005 6.71568E-03-1.90956E-03-1.99014E-14
 -1      4006 6.70660E-03-1.92020E-03-2.04255E-14
 -1      4007 6.32553E-03-1.80264E-03-2.25603E-14
 -1      4008 6.18245E-03-1.71956E-03-2.14329E-14
 -1      4009 6.47563E-03-1.88115E-03-2.32098E-14
 -1      4010 3.90157E-03-4.36152E-04-8.28855E-15
 -1      4011 4.14640E-03-5.89716E-04-9.06298E-15
 -1      4012 6.17586E-03-1.58857E-03-1.55836E-14
 -1      4013 5.61196E-03-1.39039E-03-1.67461E-14
 -1      4014 5.45340E-03-1.30702E-03-1.61864E-14
 -1      4015 5.30294E-03-1.22415E-03-1.52166E-14
 -1      4016 4.98840E-03-1.05094E-03-1.37506E-14
 -1      4017 4.63717E-03-8.73764E-04-1.07228E-14
 -1      4018 7.04226E-03-2.21599E-03-2.80230E-14
 -1      4019 4.45887E-03-7.63165E-04-1.05843E-14
 -1      4020 4.28903E-03-6.67966E-04-9.78745E-15
 -1      4021 5.06999E-03-1.10170E-03-1.21045E-14
 -1      4022 5.17147E-03-1.15052E-03-1.19787E-14
 -1      4023 1.30630E-02-5.85401E-03-9.83628E-14
 -1      4024 5.30423E-03-1.21147E-03-1.24085E-14
 -1      4025 6.19090E-03-1.71605E-03-2.09505E-14
 -1      4026 5.89605E-03-1.39170E-03-1.24031E-14
 -1      4027 1.33871E-02-6.02275E-03-9.96793E-14
 -1      4028 1.33029E-02-5.98095E-03-9.95729E-14
 -1      4029 6.33081E-03-1.67702E-03-1.67635E-14
 -1      4030 6.45678E-03-1.75245E-03-1.77841E-14
 -1      4031 6.44351E-03-1.76294E-03-1.82860E-14
 -1      4032 1.31362E-02-5.88987E-03-9.84038E-14
 -1      4033 1.30546E-02-5.83594E-03-9.67739E-14
 -1      4034 4.67334E-03-8.81424E-04-1.16365E-14
 -1      4035 4.62925E-03-8.63444E-04-1.10673E-14
 -1      4036 4.85210E-03-9.86983E-04-1.17849E-14
 -1      4037 4.83526E-03-9.69705E-04-1.24976E-14
 -1      4038 7.11884E-03-2.18440E-03-2.44942E-14
 -1      4039 7.25667E-03-2.26843E-03-2.56877E-14
 -1      4040 7.39519E-03-2.35302E-03-2.69058E-14
 -1      4041 7.53432E-03-2.43816E-03-2.81483E-14
 -1      4042 7.25079E-03-2.27707E-03-2.62542E-14
 -1      4043 7.67398E-03-2.52366E-03-2.94149E-14
 -1      4044 7.81411E-03-2.60948E-03-3.07018E-14
 -1      4045 7.52940E-03-2.44656E-03-2.87372E-14
 -1      4046 7.95463E-03-2.69553E-03-3.20133E-14
 -1      4047 8.09551E-03-2.78177E-03-3.33487E-14
 -1      4048 7.80980E-03-2.61759E-03-3.13118E-14
 -1      4049 8.23669E-03-2.86814E-03-3.47064E-14
 -1      4050 8.37814E-03-2.95461E-03-3.60883E-14
 -1      4051 8.09156E-03-2.78955E-03-3.39779E-14
 -1      4052 8.51981E-03-3.04115E-03-3.74931E-14
 -1      4053 8.66167E-03-3.12773E-03-3.89179E-14
 -1      4054 8.37441E-03-2.96207E-03-3.67360E-14
 -1      4055 8.80370E-03-3.21434E-03-4.03674E-14
 -1      4056 8.94587E-03-3.30096E-03-4.18367E-14
 -1      4057 8.65807E-03-3.13491E-03-3.95858E-14
 -1      4058 9.08816E-03-3.38759E-03-4.33250E-14
 -1      4059 9.23056E-03-3.47421E-03-4.48342E-14
 -1      4060 8.94235E-03-3.30790E-03-4.25202E-14
 -1      4061 9.37304E-03-3.56082E-03-4.63625E-14
 -1      4062 9.51559E-03-3.64742E-03-4.79098E-14
 -1      4063 9.22708E-03-3.48095E-03-4.55349E-14
 -1      4064 9.65820E-03-3.73401E-03-4.94778E-14
 -1      4065 9.80087E-03-3.82058E-03-5.10635E-14
 -1      4066 9.51214E-03-3.65400E-03-4.86299E-14
 -1      4067 9.94358E-03-3.90713E-03-5.26661E-14
 -1      4068 1.00863E-02-3.99367E-03-5.42858E-14
 -1      4069 9.79744E-03-3.82702E-03-5.18006E-14
 -1      4070 1.02291E-02-4.08020E-03-5.59256E-14
 -1      4071 1.03719E-02-4.16671E-03-5.75811E-14
 -1      4072 1.00829E-02-4.00001E-03-5.50407E-14
 -1      4073 1.05147E-02-4.25320E-03-5.92497E-14
 -1      4074 1.06576E-02-4.33969E-03-6.09400E-14
 -1      4075 1.03685E-02-4.17297E-03-5.83496E-14
 -1      4076 1.08004E-02-4.42616E-03-6.26471E-14
 -1      4077 1.09433E-02-4.51262E-03-6.43708E-14
 -1      4078 1.06541E-02-4.34589E-03-6.17267E-14
 -1      4079 1.10861E-02-4.59907E-03-6.61123E-14
 -1      4080 1.12290E-02-4.68552E-03-6.78699E-14
 -1      4081 1.09399E-02-4.51878E-03-6.51761E-14
 -1      4082 1.13719E-02-4.77196E-03-6.96449E-14
 -1      4083 1.15148E-02-4.85839E-03-7.14347E-14
 -1      4084 1.12256E-02-4.69165E-03-6.86924E-14
 -1      4085 1.16576E-02-4.94482E-03-7.32379E-14
 -1      4086 1.18005E-02-5.03124E-03-7.50533E-14
 -1      4087 1.15113E-02-4.86450E-03-7.22689E-14
 -1      4088 1.19434E-02-5.11766E-03-7.68816E-14
 -1      4089 1.20863E-02-5.20407E-03-7.87245E-14
 -1      4090 1.17971E-02-5.03734E-03-7.59015E-14
 -1      4091 1.22292E-02-5.29049E-03-8.05803E-14
 -1      4092 1.23720E-02-5.37690E-03-8.24450E-14
 -1      4093 1.20829E-02-5.21016E-03-7.95832E-14
 -1      4094 1.25149E-02-5.46330E-03-8.43222E-14
 -1      4095 1.26578E-02-5.54971E-03-8.62093E-14
 -1      4096 1.23686E-02-5.38298E-03-8.33132E-14
 -1      4097 1.28007E-02-5.63612E-03-8.81064E-14
 -1      4098 1.29435E-02-5.72252E-03-9.00144E-14
 -1      4099 1.26544E-02-5.55579E-03-8.70842E-14
 -1      4100 1.30864E-02-5.80892E-03-9.19344E-14
 -1      4101 1.32293E-02-5.89533E-03-9.38650E-14
 -1      4102 1.29401E-02-5.72860E-03-9.08977E-14
 -1      4103 6.56268E-03-1.84984E-03-1.98555E-14
 -1      4104 6.69678E-03-1.92963E-03-2.09481E-14
 -1      4105 5.15009E-03-1.14074E-03-1.42744E-14
 -1      4106 4.99455E-03-1.05610E-03-1.33596E-14
 -1      4107 5.31307E-03-1.22817E-03-1.48024E-14
 -1      4108 8.03896E-03-2.80519E-03-3.67211E-14
 -1      4109 7.89707E-03-2.71955E-03-3.53318E-14
 -1      4110 7.75531E-03-2.63405E-03-3.39657E-14
 -1      4111 7.61368E-03-2.54871E-03-3.26220E-14
 -1      4112 7.90154E-03-2.71269E-03-3.47184E-14
 -1      4113 8.60760E-03-3.14876E-03-4.24998E-14
 -1      4114 8.46529E-03-3.06275E-03-4.10220E-14
 -1      4115 8.89246E-03-3.32096E-03-4.55153E-14
 -1      4116 8.75000E-03-3.23483E-03-4.39970E-14
 -1      4117 8.75373E-03-3.22829E-03-4.33235E-14
 -1      4118 9.17759E-03-3.49332E-03-4.86129E-14
 -1      4119 9.03500E-03-3.40712E-03-4.70541E-14
 -1      4120 9.03860E-03-3.40068E-03-4.63613E-14
 -1      4121 9.46291E-03-3.66581E-03-5.17853E-14
 -1      4122 9.32023E-03-3.57956E-03-5.01902E-14
 -1      4123 9.32375E-03-3.57321E-03-4.94793E-14
 -1      4124 9.74839E-03-3.83839E-03-5.50327E-14
 -1      4125 9.60564E-03-3.75209E-03-5.34007E-14
 -1      4126 9.60910E-03-3.74582E-03-5.26729E-14
 -1      4127 1.00340E-02-4.01104E-03-5.83491E-14
 -1      4128 9.89117E-03-3.92471E-03-5.66807E-14
 -1      4129 9.89459E-03-3.91849E-03-5.59362E-14
 -1      4130 1.03196E-02-4.18373E-03-6.17342E-14
 -1      4131 1.01768E-02-4.09738E-03-6.00346E-14
 -1      4132 1.01802E-02-4.09120E-03-5.92704E-14
 -1      4133 1.06053E-02-4.35646E-03-6.51904E-14
 -1      4134 1.04625E-02-4.27009E-03-6.34539E-14
 -1      4135 1.04659E-02-4.26395E-03-6.26740E-14
 -1      4136 1.08911E-02-4.52921E-03-6.87063E-14
 -1      4137 1.07482E-02-4.44283E-03-6.69405E-14
 -1      4138 1.07516E-02-4.43671E-03-6.61450E-14
 -1      4139 1.11768E-02-4.70198E-03-7.22829E-14
 -1      4140 1.10339E-02-4.61559E-03-7.04875E-14
 -1      4141 1.10373E-02-4.60949E-03-6.96774E-14
 -1      4142 1.14626E-02-4.87476E-03-7.59148E-14
 -1      4143 1.13197E-02-4.78837E-03-7.40914E-14
 -1      4144 1.13231E-02-4.78228E-03-7.32711E-14
 -1      4145 1.17483E-02-5.04755E-03-7.95924E-14
 -1      4146 1.16055E-02-4.96116E-03-7.77485E-14
 -1      4147 1.16088E-02-4.95507E-03-7.69166E-14
 -1      4148 1.20341E-02-5.22035E-03-8.33162E-14
 -1      4149 1.18912E-02-5.13395E-03-8.14491E-14
 -1      4150 1.18946E-02-5.12787E-03-8.06070E-14
 -1      4151 1.23198E-02-5.39316E-03-8.70828E-14
 -1      4152 1.21770E-02-5.30676E-03-8.51924E-14
 -1      4153 1.21803E-02-5.30068E-03-8.43427E-14
 -1      4154 1.26056E-02-5.56597E-03-9.08912E-14
 -1      4155 1.24627E-02-5.47956E-03-8.89841E-14
 -1      4156 1.24661E-02-5.47348E-03-8.81206E-14
 -1      4157 1.29015E-02-5.74415E-03-9.47895E-14
 -1      4158 1.27587E-02-5.65775E-03-9.28602E-14
 -1      4159 1.27621E-02-5.65167E-03-9.19907E-14
 -1      4160 1.30682E-02-5.83524E-03-9.59480E-14
 -1      4161 7.18954E-03-2.29399E-03-2.87265E-14
 -1      4162 7.04836E-03-2.20964E-03-2.74737E-14
 -1      4163 6.05793E-03-1.63172E-03-1.93894E-14
 -1      4164 5.91460E-03-1.55132E-03-1.83367E-14
 -1      4165 5.71034E-03-1.39268E-03-1.39664E-14
 -1      4166 5.88372E-03-1.47305E-03-1.48354E-14
 -1      4167 6.34230E-03-1.79417E-03-2.15735E-14
 -1      4168 6.20039E-03-1.71263E-03-2.04686E-14
 -1      4169 6.21105E-03-1.70928E-03-1.99859E-14
 -1      4170 8.32308E-03-2.97681E-03-3.95663E-14
 -1      4171 8.18096E-03-2.89095E-03-3.81333E-14
 -1      4172 8.18510E-03-2.88418E-03-3.74999E-14
 -1      4173 8.46919E-03-3.05609E-03-4.03687E-14
 -1      4174 5.01383E-03-1.07117E-03-1.26264E-14
 -1      4175 5.20786E-03-1.17132E-03-1.33380E-14
 -1      4176 6.90727E-03-2.12565E-03-2.62440E-14
 -1      4177 6.76616E-03-2.04206E-03-2.50399E-14
 -1      4178 7.05473E-03-2.20308E-03-2.69237E-14
 -1      4179 6.83537E-03-2.01272E-03-2.20943E-14
 -1      4180 6.97834E-03-2.09912E-03-2.32968E-14
 -1      4181 6.97094E-03-2.10782E-03-2.38405E-14
 -1      4182 6.69026E-03-1.94004E-03-2.14989E-14
 -1      4183 1.34452E-02-6.04951E-03-9.95156E-14
 -1      4184 1.32793E-02-5.95378E-03-9.77747E-14
 -1      4185 1.35033E-02-6.07627E-03-9.93477E-14
 -1      4186 7.47218E-03-2.46357E-03-3.13003E-14
 -1      4187 7.33080E-03-2.37865E-03-3.00013E-14
 -1      4188 7.61861E-03-2.54181E-03-3.20287E-14
 -1      4189 6.62506E-03-1.95893E-03-2.38603E-14
 -1      4190 6.48377E-03-1.87626E-03-2.27038E-14
 -1      4191 6.49265E-03-1.87127E-03-2.21989E-14
 -1      4192 6.77362E-03-2.03605E-03-2.45120E-14
 -1      4193 5.43370E-03-1.27013E-03-1.28801E-14
 -1      4194 5.58930E-03-1.33903E-03-1.34787E-14
 -1      4195 5.64722E-03-1.37519E-03-1.42586E-14
 -1      4196 5.39791E-03-1.25989E-03-1.32774E-14
 -1      4197 6.15484E-03-1.59779E-03-1.60601E-14
 -1      4198 5.77024E-03-1.47152E-03-1.73092E-14
 -1      4199 5.62433E-03-1.39204E-03-1.63080E-14
 -1      4200 5.92736E-03-1.55040E-03-1.78752E-14
 -1      4201 5.32164E-03-1.23079E-03-1.43167E-14
 -1      4202 5.37595E-03-1.25424E-03-1.37664E-14
 -1      4203 5.50140E-03-1.31496E-03-1.42636E-14
 -1      4204 5.47194E-03-1.31012E-03-1.52618E-14
 -1      4205 1.31855E-02-5.87747E-03-9.42640E-14
 -1      4206 1.33317E-02-5.95779E-03-9.53124E-14
 -1      4207 1.34342E-02-6.02026E-03-9.67652E-14
 -1      4208 6.42958E-03-1.77171E-03-1.87871E-14
 -1      4209 6.41595E-03-1.77916E-03-1.92872E-14
 -1      4210 6.29782E-03-1.69534E-03-1.77449E-14
 -1      4211 7.33635E-03-2.37184E-03-2.94300E-14
 -1      4212 1.31263E-02-5.86200E-03-9.57840E-14
 -1      4213 6.04775E-03-1.55985E-03-1.59880E-14
 -1      4214 1.35481E-02-6.08937E-03-9.83458E-14
 -1      4215 1.36505E-02-6.15183E-03-9.98089E-14
 -1      4216 7.38429E-03-2.36966E-03-2.80607E-14
 -1      4217 7.52426E-03-2.45458E-03-2.93241E-14
 -1      4218 7.57379E-03-2.49475E-03-3.03743E-14
 -1      4219 7.71455E-03-2.58008E-03-3.16791E-14
 -1      4220 7.85558E-03-2.66563E-03-3.30065E-14
 -1      4221 7.99684E-03-2.75139E-03-3.43574E-14
 -1      4222 8.13831E-03-2.83728E-03-3.57298E-14
 -1      4223 8.27997E-03-2.92331E-03-3.71257E-14
 -1      4224 8.42180E-03-3.00943E-03-3.85459E-14
 -1      4225 8.56379E-03-3.09563E-03-3.99847E-14
 -1      4226 8.70590E-03-3.18188E-03-4.14470E-14
 -1      4227 8.84814E-03-3.26819E-03-4.29299E-14
 -1      4228 8.99048E-03-3.35452E-03-4.44319E-14
 -1      4229 9.13291E-03-3.44088E-03-4.59551E-14
 -1      4230 9.27541E-03-3.52726E-03-4.74979E-14
 -1      4231 9.41798E-03-3.61365E-03-4.90611E-14
 -1      4232 9.56061E-03-3.70005E-03-5.06437E-14
 -1      4233 9.70329E-03-3.78645E-03-5.22422E-14
 -1      4234 9.84600E-03-3.87286E-03-5.38587E-14
 -1      4235 9.98875E-03-3.95928E-03-5.54958E-14
 -1      4236 1.01315E-02-4.04569E-03-5.71462E-14
 -1      4237 1.02743E-02-4.13210E-03-5.88133E-14
 -1      4238 1.04172E-02-4.21852E-03-6.05003E-14
 -1      4239 1.05600E-02-4.30493E-03-6.22052E-14
 -1      4240 1.07028E-02-4.39134E-03-6.39271E-14
 -1      4241 1.08457E-02-4.47776E-03-6.56660E-14
 -1      4242 1.09886E-02-4.56417E-03-6.74203E-14
 -1      4243 1.11314E-02-4.65058E-03-6.91914E-14
 -1      4244 1.12743E-02-4.73699E-03-7.09766E-14
 -1      4245 1.14172E-02-4.82339E-03-7.27762E-14
 -1      4246 1.15601E-02-4.90980E-03-7.45907E-14
 -1      4247 1.17030E-02-4.99621E-03-7.64161E-14
 -1      4248 1.18458E-02-5.08261E-03-7.82519E-14
 -1      4249 1.19887E-02-5.16902E-03-8.01029E-14
 -1      4250 1.21316E-02-5.25542E-03-8.19630E-14
 -1      4251 1.22745E-02-5.34183E-03-8.38354E-14
 -1      4252 1.24174E-02-5.42823E-03-8.57167E-14
 -1      4253 1.25602E-02-5.51464E-03-8.76083E-14
 -1      4254 1.27031E-02-5.60104E-03-8.95119E-14
 -1      4255 1.28460E-02-5.68744E-03-9.14277E-14
 -1      4256 7.01372E-03-2.15713E-03-2.53877E-14
 -1      4257 7.15327E-03-2.24084E-03-2.65995E-14
 -1      4258 5.00252E-03-1.06274E-03-1.29941E-14
 -1      4259 1.29991E-02-5.77923E-03-9.33983E-14
 -1      4260 6.36279E-03-1.78540E-03-2.05847E-14
 -1      4261 6.22296E-03-1.70573E-03-1.95016E-14
 -1      4262 7.28727E-03-2.33244E-03-2.84035E-14
 -1      4263 7.14686E-03-2.24812E-03-2.71567E-14
 -1      4264 6.87446E-03-2.07405E-03-2.42018E-14
 -1      4265 7.42789E-03-2.41712E-03-2.96715E-14
 -1      4266 1.34018E-02-6.00904E-03-9.72886E-14
 -1      4267 6.02577E-03-1.56375E-03-1.64558E-14
 -1      4268 5.63504E-03-1.39166E-03-1.57956E-14
 -1      4269 1.31015E-02-5.84169E-03-9.48417E-14
 -1      4270 6.32673E-03-1.74114E-03-1.91548E-14
 -1      4271 6.46320E-03-1.81969E-03-2.02299E-14
 -1      4272 6.73208E-03-1.98962E-03-2.30098E-14
 -1      4273 6.59340E-03-1.90816E-03-2.18727E-14
 -1      4274 5.62813E-03-1.38245E-03-1.52809E-14
 -1      4275 5.64665E-03-1.38340E-03-1.47693E-14
 -1      4276 5.76706E-03-1.44036E-03-1.52805E-14
 -1      4277 5.77579E-03-1.46098E-03-1.63304E-14
 -1      4278 1.35924E-02-6.12507E-03-9.99808E-14
 -1      4279 6.60361E-03-1.90162E-03-2.13586E-14
 -1      4280 6.20559E-03-1.68496E-03-1.87998E-14
 -1      4281 6.05179E-03-1.61007E-03-1.82308E-14
 -1      4282 5.91083E-03-1.53253E-03-1.72047E-14
 -1      4283 6.16017E-03-1.64754E-03-1.78925E-14
 -1      4284 1.34266E-02-6.02935E-03-9.82392E-14
 -1      4285 5.90367E-03-1.52030E-03-1.66664E-14
 -1      4286 6.02994E-03-1.57738E-03-1.70017E-14
 -1      4287 1.33127E-02-5.96024E-03-9.66594E-14
 -3
    1PSTEP                         2           1           1          
  100CL  101 1.000000000        4287                     0    1           1
 -4  STRESS      6    1
 -5  SXX         1    4    1    1
 -5  SYY         1    4    2    2
 -5  SZZ         1    4    3    3
 -5  SXY         1    4    1    2
 -5  SYZ         1    4    2    3
 -5  SZX         1    4    3    1
 -1         1 8.18427E+00 5.75199E+00-1.29812E+00 7.26428E+00-2.96896E-12-3.00282E-12
 -1         2-8.56884E-01-2.62317E+01-3.46849E+00 1.30163E-01-1.22388E-13-4.60049E-14
 -1         3 1.99998E+01 5.32123E-06-1.91907E-05 5.38056E-06-5.19189E-13-5.30209E-13
 -1         4 1.99998E+01 7.73522E-06-1.75011E-05-7.12696E-06-1.76883E-13 4.23710E-13
 -1         5 3.40089E+01 6.36090E+00 2.92493E+00 6.55502E+00-3.68455E-14 2.75556E-12
 -1         6 4.03563E+01 1.36197E+01 5.04258E+00-8.59841E+00-1.16906E-13 2.13596E-12
 -1         7 2.58379E+01 7.46511E+00 2.11716E-01-3.25456E+00-1.45717E-14 5.48075E-13
 -1         8 2.18677E+01 6.56573E+00 1.04779E-01-1.10959E+00-2.24543E-14 9.98073E-15
 -1         9 1.85014E+01 5.59402E+00-6.78948E-02-5.85072E-01-2.32731E-14-3.12182E-13
 -1        10 1.60761E+01 4.87642E+00-1.65090E-01-8.80133E-01-1.60566E-14-4.84900E-13
 -1        11 1.48985E+01 4.52327E+00-1.80538E-01-1.53394E+00-1.53454E-14-5.68254E-13
 -1        12 1.49446E+01 4.53041E+00-1.23878E-01-2.11379E+00-1.04118E-14-5.89921E-13
 -1        13 1.58709E+01 4.79677E+00-2.82670E-02-2.33183E+00-1.19835E-14-5.75073E-13
 -1        14 1.71646E+01 5.17313E+00 6.27954E-02-2.07109E+00-5.09315E-15-5.46367E-13
 -1        15 1.83762E+01 5.52772E+00 1.21664E-01-1.41368E+00-1.07553E-15-5.17675E-13
 -1        16 1.92560E+01 5.78733E+00 1.43951E-01-5.28277E-01 5.11050E-15-4.85141E-13
 -1        17 1.97473E+01 5.93485E+00 1.39170E-01 4.25414E-01 8.63025E-15-4.35404E-13
 -1        18 1.99207E+01 5.99063E+00 1.20360E-01 1.33047E+00 1.28005E-14-3.64124E-13
 -1        19 1.99125E+01 5.99560E+00 9.44074E-02 2.17797E+00 2.21665E-14-2.47947E-13
 -1        20 1.98993E+01 6.00395E+00 6.36536E-02 2.96596E+00 2.83948E-14-3.24341E-14
 -1        21 2.01684E+01 6.10952E+00 3.19586E-02 3.77696E+00 3.52877E-14 3.66863E-13
 -1        22 2.16317E+01 6.53366E+00 1.14052E-01 4.94503E+00 1.98452E-15 1.12568E-12
 -1        23 3.06676E+01-1.77759E+00-1.08700E+00-2.41064E-01-7.77503E-14 1.74744E-12
 -1        24 2.99192E+01-1.17922E-01-3.32810E-01 2.05836E-01-2.03067E-14 1.42950E-12
 -1        25 3.23992E+01-4.51702E-02-5.08306E-02 2.30552E-01-1.00532E-14 1.16618E-12
 -1        26 3.53320E+01 4.89090E-02 2.06824E-01 2.05237E-01 5.64219E-16 1.10231E-12
 -1        27 3.67162E+01 1.29791E-01 5.02009E-01-2.71006E-02 6.64573E-15 1.30875E-12
 -1        28 3.35332E+01 9.88094E-02 4.20531E-01-6.64775E-01 1.12792E-14 1.56586E-12
 -1        29 2.61232E+01 6.88617E-02-3.40873E-01-9.59323E-01-4.57837E-14 1.48845E-12
 -1        30 1.83621E+01-1.59039E-01-1.38831E+00-6.76713E-01-4.29136E-14 1.00692E-12
 -1        31 1.57640E+01-2.00352E-01-1.77002E+00 1.96065E-01 2.87652E-14 2.92100E-13
 -1        32 2.06281E+01-1.31919E-01-1.06405E+00 8.06352E-01-3.51021E-14-4.82919E-13
 -1        33 2.83336E+01 4.68052E-02-6.54353E-02 7.85325E-01 4.53197E-17-9.95953E-13
 -1        34 3.50154E+01 1.13539E-01 5.38501E-01 3.61605E-01 3.09319E-14-1.19540E-12
 -1        35 3.66833E+01 9.69286E-02 4.58577E-01-1.03431E-02-1.90160E-14-1.04367E-12
 -1        36 3.44403E+01 3.87590E-02 1.62154E-01-1.49489E-01 5.11503E-14-8.15535E-13
 -1        37 3.09249E+01-4.32449E-03-2.81396E-02-1.37109E-01 5.35238E-15-4.31391E-13
 -1        38 2.77136E+01-2.26418E-02-8.12775E-02-9.14665E-02 3.56212E-14-1.78406E-13
 -1        39 2.52549E+01-2.54827E-02-7.46277E-02-5.38134E-02-4.91816E-14-3.27172E-13
 -1        40 2.35157E+01-2.17687E-02-5.39594E-02-2.97217E-02-2.96798E-14-2.47356E-13
 -1        41 2.23311E+01-1.66021E-02-3.55858E-02-1.58013E-02 5.39510E-15-3.13725E-13
 -1        42 2.15381E+01-1.19756E-02-2.26718E-02-8.14969E-03 3.15149E-14-4.13797E-13
 -1        43 2.10106E+01-8.39721E-03-1.43248E-02-4.05217E-03-1.90360E-14-8.63903E-14
 -1        44 2.06600E+01-5.80896E-03-9.08456E-03-1.89425E-03 2.76228E-14-1.55720E-14
 -1        45 2.04266E+01-3.98901E-03-5.81445E-03-7.74540E-04-6.17946E-15-1.97804E-13
 -1        46 2.02708E+01-2.81267E-03-3.81346E-03-3.61008E-04 1.13474E-14-8.99020E-14
 -1        47 2.01632E+01-1.82384E-03-2.37811E-03 1.33990E-04-3.41447E-14-1.90690E-13
 -1        48 2.00960E+01-1.29367E-03-1.58570E-03 2.03392E-04-9.31080E-14-8.37910E-13
 -1        49 2.00517E+01-8.96827E-04-1.05335E-03 2.47139E-04 1.55038E-13-6.34991E-13
 -1        50 2.00230E+01-6.22998E-04-6.99123E-04 2.53233E-04-3.45237E-14-3.92617E-13
 -1        51 2.00050E+01-4.31820E-04-4.61185E-04 2.39933E-04 3.27737E-14 2.49703E-13
 -1        52 1.99942E+01-2.97501E-04-2.99840E-04 2.17667E-04-4.85021E-14-1.40758E-13
 -1        53 1.99882E+01-2.02706E-04-1.89758E-04 1.91961E-04 1.66682E-13 7.61542E-14
 -1        54 1.99854E+01-1.35696E-04-1.14607E-04 1.65786E-04-2.31303E-14 4.21652E-14
 -1        55 1.99846E+01-8.84250E-05-6.36322E-05 1.40744E-04-3.26289E-14-7.63108E-13
 -1        56 1.99852E+01-5.52910E-05-2.95779E-05 1.17684E-04-3.60026E-14-1.68228E-12
 -1        57 1.99864E+01-3.23356E-05-7.43119E-06 9.70197E-05 2.21375E-13-1.26104E-12
 -1        58 1.99880E+01-1.67193E-05 6.34391E-06 7.88998E-05-6.57951E-14-5.83666E-13
 -1        59 1.99897E+01-6.37982E-06 1.42808E-05 6.33090E-05 7.95006E-14-1.61866E-13
 -1        60 1.99914E+01 1.93951E-07 1.82123E-05 5.01259E-05-3.14550E-14-6.18546E-14
 -1        61 1.99929E+01 4.11534E-06 1.94683E-05 3.91644E-05 6.56150E-14 4.93251E-13
 -1        62 1.99943E+01 6.20567E-06 1.90119E-05 3.02020E-05 1.86827E-13 2.35106E-13
 -1        63 1.99955E+01 7.06998E-06 1.75350E-05 2.30017E-05 5.97342E-14 2.65832E-13
 -1        64 1.99965E+01 7.15262E-06 1.55310E-05 1.73259E-05-2.00936E-13 1.63369E-14
 -1        65 1.99973E+01 6.77935E-06 1.33513E-05 1.29466E-05 8.10130E-14 1.68432E-13
 -1        66 1.99980E+01 6.19017E-06 1.12562E-05 9.64898E-06-1.35077E-14 1.23179E-13
 -1        67 1.99986E+01 5.56379E-06 9.46766E-06 7.22405E-06-2.40791E-14 1.25488E-13
 -1        68 1.99990E+01 5.03457E-06 8.22822E-06 5.44730E-06 1.69962E-13-3.25488E-13
 -1        69 1.99994E+01 4.68843E-06 7.82698E-06 4.02969E-06 3.67790E-14-1.29887E-13
 -1        70 1.99996E+01 4.49889E-06 8.37639E-06 2.46107E-06-1.77002E-14-6.91425E-13
 -1        71 1.99998E+01 4.49382E-06 8.64452E-06-6.62689E-08 3.07208E-14-5.94888E-13
 -1        72 1.99998E+01 1.01065E-06 8.00510E-07-7.40220E-06 9.99581E-14 1.26072E-13
 -1        73 2.13284E+01-4.14493E-01-1.00984E+00-3.03164E-01 3.48853E-14 2.57605E-12
 -1        74 1.90834E+01-6.54243E-02-2.98557E-01-5.26662E-02 1.42824E-14 2.10439E-12
 -1        75 1.78866E+01-1.89032E-02-5.61684E-02-1.35791E-02 5.41928E-15 1.76313E-12
 -1        76 1.70196E+01-1.07157E-02-1.22995E-03 3.42899E-04 1.28111E-14 1.51440E-12
 -1        77 1.62859E+01-9.96881E-03-2.66420E-04 1.19267E-02 7.40965E-15 1.31828E-12
 -1        78 1.56754E+01-1.18434E-02-1.17941E-02 1.83588E-02-6.50467E-15 1.17762E-12
 -1        79 1.52646E+01-1.34951E-02-2.32229E-02 1.76663E-02-4.41281E-15 1.08707E-12
 -1        80 1.51440E+01-1.32132E-02-2.93717E-02 1.00363E-02 1.29797E-14 9.39577E-13
 -1        81 1.53634E+01-1.05096E-02-2.80052E-02-1.97485E-03-1.36441E-14 7.06621E-13
 -1        82 1.59016E+01-6.02726E-03-1.98155E-02-1.43796E-02 2.18215E-14 5.54260E-13
 -1        83 1.66690E+01-1.04608E-03-7.94348E-03-2.34955E-02-9.17072E-16 4.33389E-13
 -1        84 1.75375E+01 3.18188E-03 3.66763E-03-2.74054E-02-1.33652E-14 4.72644E-13
 -1        85 1.83807E+01 5.90634E-03 1.20383E-02-2.63057E-02 1.15672E-14 3.45200E-13
 -1        86 1.91046E+01 6.99195E-03 1.60422E-02-2.18065E-02-4.33057E-15 3.79857E-13
 -1        87 1.96610E+01 6.75346E-03 1.61937E-02-1.58851E-02 4.43943E-14 2.86418E-13
 -1        88 2.00424E+01 5.69509E-03 1.38374E-02-1.01221E-02 2.41647E-15 8.81170E-14
 -1        89 2.02698E+01 4.29955E-03 1.03967E-02-5.41902E-03-3.81942E-14 1.11555E-13
 -1        90 2.03775E+01 2.91691E-03 6.92771E-03-2.06868E-03 1.76860E-14 1.18886E-13
 -1        91 2.04019E+01 1.74484E-03 4.01723E-03 2.64263E-05-3.87570E-14 2.09449E-13
 -1        92 2.03751E+01 8.57234E-04 1.86910E-03 1.14071E-03-1.80049E-14 2.50539E-13
 -1        93 2.03217E+01 2.48646E-04 4.51344E-04 1.58026E-03-6.85018E-15 2.52141E-13
 -1        94 2.02588E+01-1.26426E-04-3.76800E-04 1.60824E-03 2.34375E-14 2.06514E-13
 -1        95 2.01971E+01-3.26099E-04-7.81434E-04 1.41992E-03 2.63720E-14-2.56036E-13
 -1        96 2.01424E+01-4.05438E-04-9.10815E-04 1.14474E-03-6.30479E-14-3.04520E-13
 -1        97 2.00971E+01-4.09475E-04-8.79427E-04 8.59696E-04 2.11680E-14-8.74942E-14
 -1        98 2.00616E+01-3.71576E-04-7.67153E-04 6.04751E-04 1.59847E-14-1.51981E-13
 -1        99 2.00350E+01-3.14547E-04-6.25100E-04 3.96145E-04-2.59059E-15-3.38701E-13
 -1       100 2.00161E+01-2.52782E-04-4.83082E-04 2.36316E-04-2.87957E-14-3.83860E-13
 -1       101 2.00032E+01-1.94527E-04-3.56424E-04 1.20585E-04 1.82432E-14-9.58526E-14
 -1       102 1.99951E+01-1.43853E-04-2.51285E-04 4.13516E-05 2.38042E-14-3.59289E-13
 -1       103 1.99904E+01-1.02182E-04-1.68479E-04-9.50655E-06 2.46832E-14-3.47477E-13
 -1       104 1.99882E+01-6.93852E-05-1.06032E-04-3.93978E-05-6.31486E-14-5.86383E-13
 -1       105 1.99876E+01-4.45318E-05-6.07778E-05-5.45103E-05 7.51322E-15-4.19319E-13
 -1       106 1.99880E+01-2.63595E-05-2.92927E-05-5.97113E-05 6.60312E-14-1.94989E-13
 -1       107 1.99891E+01-1.35556E-05-8.38485E-06-5.86542E-05-1.01999E-13-3.04720E-13
 -1       108 1.99904E+01-4.90746E-06 4.68588E-06-5.39711E-05 1.03420E-13-5.77545E-13
 -1       109 1.99918E+01 6.29239E-07 1.21474E-05-4.74839E-05 3.74268E-14-6.39301E-13
 -1       110 1.99932E+01 3.91150E-06 1.57393E-05-4.03997E-05-1.22650E-13-1.79817E-13
 -1       111 1.99945E+01 5.61777E-06 1.67757E-05-3.34763E-05 6.83449E-14 1.27989E-13
 -1       112 1.99956E+01 6.27006E-06 1.62222E-05-2.71553E-05-7.38805E-14 5.08124E-14
 -1       113 1.99966E+01 6.26122E-06 1.47717E-05-2.16640E-05-3.30370E-14 1.42615E-13
 -1       114 1.99974E+01 5.88191E-06 1.29135E-05-1.70896E-05 1.03553E-14 5.47023E-13
 -1       115 1.99981E+01 5.34558E-06 1.10004E-05-1.34320E-05 9.98467E-14 2.06418E-13
 -1       116 1.99986E+01 4.80893E-06 9.31613E-06-1.06348E-05-5.64064E-14-8.03887E-13
 -1       117 1.99991E+01 4.38407E-06 8.15049E-06-8.59024E-06 4.14968E-14-7.91423E-13
 -1       118 1.99994E+01 4.12204E-06 7.83988E-06-7.06154E-06 2.36652E-14-1.21660E-12
 -1       119 1.99996E+01 3.89760E-06 8.54170E-06-5.55686E-06-6.56397E-15-1.13311E-12
 -1       120 1.99998E+01 3.09154E-06 8.44544E-06-2.45583E-06 1.91885E-14-6.24537E-13
 -1       121 1.99998E+01-3.33034E-06-1.00467E-06 5.16899E-06 2.22675E-13-1.28035E-12
 -1       122 1.99998E+01 1.63234E-05-3.32219E-07 7.75628E-06-1.12341E-12 1.38621E-13
 -1       123 1.99998E+01-2.66588E-05 8.42280E-06-1.60184E-07-1.26205E-12-1.37291E-13
 -1       124 1.99998E+01-1.70436E-04 6.39449E-06-5.62987E-06-1.40488E-12 4.52920E-14
 -1       125 1.99998E+01-3.75161E-04 2.13169E-06-7.46355E-06-1.42229E-12 2.31107E-13
 -1       126 1.99998E+01-5.98551E-04-1.53717E-06-7.52747E-06-4.18011E-13-4.03862E-14
 -1       127 1.99998E+01-7.99936E-04-4.40591E-06-6.32653E-06-4.02283E-13-2.09614E-13
 -1       128 1.99998E+01-9.54785E-04-6.35501E-06-4.14168E-06-7.76689E-13-9.12067E-14
 -1       129 1.99998E+01-1.03748E-03-7.35144E-06-1.41699E-06-9.60209E-13 1.19534E-15
 -1       130 1.99998E+01-1.03668E-03-7.34636E-06 1.48375E-06-7.63278E-13 5.44711E-14
 -1       131 1.99998E+01-9.52421E-04-6.34122E-06 4.19885E-06-4.16517E-13-7.21784E-15
 -1       132 1.99998E+01-7.96267E-04-4.34036E-06 6.43101E-06-1.79737E-12-2.90695E-13
 -1       133 1.99998E+01-5.93988E-04-1.47628E-06 7.58240E-06-1.95243E-12 3.55669E-13
 -1       134 1.99998E+01-3.70098E-04 2.28981E-06 7.48665E-06-1.29931E-12-2.17730E-14
 -1       135 1.99998E+01-1.66319E-04 6.34672E-06 5.38614E-06-4.57791E-13 9.62906E-14
 -1       136 1.99998E+01-2.38043E-05 8.05204E-06-8.05094E-07-9.62608E-14-6.61040E-14
 -1       137 1.99998E+01 2.55312E-05 1.31796E-06-9.37132E-06-6.31438E-13-9.69713E-14
 -1       138-1.28119E+00-1.94887E+01-2.97119E+00-3.31086E+00 1.68737E-12 5.09731E-13
 -1       139-1.12120E+00-7.30370E+00-2.10525E+00-2.27070E+00 3.34754E-12 1.50757E-12
 -1       140 3.90130E+00 5.31501E+00-8.55555E-01 4.75900E+00 3.66540E-12 2.64277E-12
 -1       141 1.68923E+01 1.22387E+01 5.49344E-01 1.42572E+01 2.90512E-12 3.17102E-12
 -1       142 3.56765E+01 1.16158E+01 1.86932E+00 1.98603E+01 1.77619E-12 2.91411E-12
 -1       143 5.46870E+01 6.47242E+00 2.87180E+00 1.77588E+01 7.28237E-13 2.16599E-12
 -1       144 6.70722E+01 1.79486E+00 3.40971E+00 8.07909E+00 1.60106E-13 7.60836E-13
 -1       145 6.82226E+01 1.27981E+00 3.42618E+00-4.93904E+00 9.96425E-14-9.03014E-13
 -1       146 5.74017E+01 5.18214E+00 2.87715E+00-1.58926E+01 6.48051E-13-2.21340E-12
 -1       147 3.96917E+01 1.04541E+01 1.93348E+00-1.98406E+01 1.53122E-12-2.85866E-12
 -1       148 2.13481E+01 1.27221E+01 7.90882E-01-1.62777E+01 2.32442E-12-2.88258E-12
 -1       149 7.28117E+00 8.68521E+00-4.51460E-01-8.09357E+00 2.83279E-12-2.30604E-12
 -1       150 2.87866E-01-2.03760E+00-1.60672E+00-3.15785E-01 2.58749E-12-1.39397E-12
 -1       151-1.31847E+00-1.54980E+01-2.60516E+00 3.21108E+00 1.57807E-12-4.50383E-13
 -1       152-5.83790E-01-2.37031E+01-3.20653E+00 6.77736E-01 3.63515E-13-2.68813E-14
 -1       153-1.49786E+00-2.42210E+01-3.47645E+00-4.02157E+00-1.01921E-12-2.37570E-13
 -1       154-2.76550E+00-1.66435E+01-3.33268E+00-5.67737E+00-2.25781E-12-9.40539E-13
 -1       155-1.51356E+00-4.88818E+00-2.67082E+00-2.15189E+00-2.94198E-12-2.02494E-12
 -1       156 2.99448E+01 1.00829E+01 1.00402E+00 1.70951E+01-2.10298E-12-3.32823E-12
 -1       157 5.89647E+01 6.86642E+00 3.68899E+00 1.85859E+01-1.04305E-12-2.98406E-12
 -1       158 7.90707E+01 2.21884E+00 5.55164E+00 8.25685E+00-2.85400E-13-1.49455E-12
 -1       159 7.96271E+01 2.13658E+00 5.62486E+00-7.61996E+00-8.85438E-14 4.73427E-13
 -1       160 6.14393E+01 6.41786E+00 3.96365E+00-1.85234E+01-8.46684E-13 2.46991E-12
 -1       161 3.50752E+01 1.03075E+01 1.55060E+00-1.85881E+01-2.02544E-12 3.55027E-12
 -1       162 1.28100E+01 8.04823E+00-6.56782E-01-1.03601E+01-2.99449E-12 3.27616E-12
 -1       163 5.57087E-01-1.17773E+00-2.20627E+00-4.07628E-01-3.23708E-12 2.49384E-12
 -1       164-3.01062E+00-1.43306E+01-3.15235E+00 5.69212E+00-3.18262E-12 1.49503E-12
 -1       165-1.69061E+00-2.44228E+01-3.54659E+00 4.71562E+00-1.70033E-12 4.41060E-13
 -1       166 2.50559E+01 3.94275E+00-3.07303E-02-1.53496E+00-2.47736E-13 2.62332E-13
 -1       167 2.04995E+01 4.90071E+00-3.52103E-02-8.02211E-01-2.32991E-13-1.07548E-13
 -1       168 1.68947E+01 5.40865E+00-3.18164E-02-8.40987E-01-2.13508E-13-3.36091E-13
 -1       169 1.47818E+01 5.49926E+00-2.50538E-02-1.39492E+00-1.91811E-13-4.55909E-13
 -1       170 1.43133E+01 5.24253E+00-1.92636E-02-2.04462E+00-1.78329E-13-4.94401E-13
 -1       171 1.51894E+01 4.76968E+00-1.73351E-02-2.41397E+00-1.58603E-13-4.96900E-13
 -1       172 1.67810E+01 4.30622E+00-1.68947E-02-2.28792E+00-1.16299E-13-4.60271E-13
 -1       173 1.84087E+01 4.02622E+00-1.78143E-02-1.71077E+00-6.06182E-14-4.20862E-13
 -1       174 1.96506E+01 3.96599E+00-1.95531E-02-8.61393E-01 3.79297E-15-3.86925E-13
 -1       175 2.03779E+01 4.05734E+00-2.22208E-02 7.83704E-02 7.00650E-14-3.53460E-13
 -1       176 2.06600E+01 4.19962E+00-2.53624E-02 9.76513E-01 1.45326E-13-2.93219E-13
 -1       177 2.06656E+01 4.31722E+00-2.98749E-02 1.81756E+00 2.27363E-13-2.05603E-13
 -1       178 2.05871E+01 4.34753E+00-3.86958E-02 2.58968E+00 2.92613E-13-5.86007E-14
 -1       179 2.06952E+01 4.21034E+00-5.46921E-02 3.33275E+00 3.32633E-13 2.10647E-13
 -1       180 2.15357E+01 3.57959E+00-6.97248E-02 4.02957E+00 3.19775E-13 6.69916E-13
 -1       181 2.27401E+01 1.22109E+00-3.56850E-01 3.39785E+00 2.26924E-13 1.28431E-12
 -1       182 2.84850E+01 8.85804E-01 8.66076E-03-8.39601E-02-1.93075E-13 6.64142E-13
 -1       183 2.83801E+01 3.06389E-01-7.66763E-03 1.46265E+00-1.23020E-13 5.97140E-13
 -1       184 2.93935E+01-2.85418E-02 1.80791E-02 1.96456E+00-1.08098E-14 6.29826E-13
 -1       185 3.08658E+01-7.86311E-01 3.34996E-02 1.19596E+00 1.39369E-13 6.70746E-13
 -1       186 3.21457E+01-1.65785E+00 2.09681E-02-1.39927E+00 1.56321E-13 8.14844E-13
 -1       187 3.24051E+01-1.45021E+00-6.36384E-02-4.25818E+00-2.63973E-14 8.66899E-13
 -1       188 2.87677E+01 2.29140E+00-3.84903E-01-1.55002E+00-5.37348E-13 4.68481E-13
 -1       189 2.90335E+01 1.87420E+00-3.63972E-01 2.91489E+00-6.27748E-13-1.94851E-13
 -1       190 3.04752E+01 1.13791E-01-2.31449E-01 4.92137E+00-3.70079E-13-5.49939E-13
 -1       191 3.20424E+01-1.30292E+00-2.25498E-02 3.48573E+00-8.19440E-14-8.15997E-13
 -1       192 3.20330E+01-1.13762E+00 5.94950E-02 4.51284E-01 6.25090E-14-7.06019E-13
 -1       193 3.05823E+01-4.63736E-01 3.62210E-02-1.61029E+00 2.24503E-13-4.99600E-13
 -1       194 2.84941E+01-1.16384E-02-2.09629E-03-2.20089E+00 1.77135E-13-3.77700E-13
 -1       195 2.64316E+01 1.50295E-01-9.78050E-03-1.98970E+00 1.61681E-13-2.51433E-13
 -1       196 2.46817E+01 1.67102E-01-5.69685E-03-1.54051E+00-1.87563E-14-1.88008E-13
 -1       197 2.33224E+01 1.36171E-01-8.40959E-04-1.10780E+00 3.14501E-14-1.09720E-13
 -1       198 2.23205E+01 9.87781E-02 1.73267E-03-7.67730E-01-8.67409E-14-9.12725E-14
 -1       199 2.16043E+01 6.79861E-02 2.45834E-03-5.22668E-01-5.30862E-14-3.15793E-13
 -1       200 2.11012E+01 4.56970E-02 2.28813E-03-3.53190E-01 2.17006E-13-2.44567E-13
 -1       201 2.07510E+01 3.04430E-02 1.83468E-03-2.38182E-01 8.55154E-14-1.74020E-13
 -1       202 2.05084E+01 2.02700E-02 1.37246E-03-1.60676E-01-3.58557E-14-9.26009E-14
 -1       203 2.03405E+01 1.35545E-02 9.72233E-04-1.08478E-01 1.00057E-13 2.13022E-14
 -1       204 2.02202E+01 8.94808E-03 7.20879E-04-7.17654E-02-2.18561E-13-1.02208E-13
 -1       205 2.01422E+01 6.03633E-03 4.90084E-04-4.81794E-02-1.09919E-13-1.45485E-13
 -1       206 2.00887E+01 4.10386E-03 3.46330E-04-3.21109E-02 1.55613E-13 1.25938E-13
 -1       207 2.00524E+01 2.79688E-03 2.44597E-04-2.10905E-02 1.44795E-13 4.16324E-14
 -1       208 2.00282E+01 1.90418E-03 1.72965E-04-1.35291E-02 1.98764E-13 1.97359E-13
 -1       209 2.00123E+01 1.28865E-03 1.22284E-04-8.35593E-03-2.43491E-13 7.60355E-14
 -1       210 2.00022E+01 8.61306E-04 8.62763E-05-4.84407E-03 1.17989E-13-5.44987E-14
 -1       211 1.99961E+01 5.63634E-04 6.05897E-05-2.49376E-03-1.87313E-13-3.02402E-13
 -1       212 1.99928E+01 3.56525E-04 4.22076E-05-9.56705E-04-3.38976E-13-4.89466E-13
 -1       213 1.99913E+01 2.13372E-04 2.90352E-05 1.26819E-05-2.59644E-13-6.64796E-13
 -1       214 1.99909E+01 1.15718E-04 1.96078E-05 5.89132E-04 2.82512E-13-7.02760E-13
 -1       215 1.99912E+01 5.05259E-05 1.28911E-05 8.97622E-04 2.13669E-13-4.77121E-13
 -1       216 1.99920E+01 8.44351E-06 8.14566E-06 1.02762E-03 3.72123E-13-2.48486E-13
 -1       217 1.99930E+01-1.73167E-05 4.83596E-06 1.04289E-03 2.16586E-13-8.78455E-15
 -1       218 1.99940E+01-3.17133E-05 2.56997E-06 9.88485E-04 3.12820E-13 2.47515E-13
 -1       219 1.99950E+01-3.83754E-05 1.05797E-06 8.95674E-04-1.25702E-13 3.84196E-13
 -1       220 1.99959E+01-3.99533E-05 8.44034E-08 7.85660E-04-1.04211E-13 1.90314E-13
 -1       221 1.99967E+01-3.83735E-05-5.11810E-07 6.72266E-04 5.35656E-14 6.60370E-14
 -1       222 1.99974E+01-3.50301E-05-8.51197E-07 5.63942E-04 1.30311E-13 1.26132E-13
 -1       223 1.99980E+01-3.09364E-05-1.02342E-06 4.65230E-04 7.71605E-14 3.46256E-13
 -1       224 1.99985E+01-2.68526E-05-1.09002E-06 3.77801E-04 3.48598E-14 2.96266E-13
 -1       225 1.99989E+01-2.33933E-05-1.07869E-06 3.01129E-04 6.48311E-15 3.20563E-13
 -1       226 1.99992E+01-2.10991E-05-9.64240E-07 2.32919E-04-1.04825E-13 3.70476E-13
 -1       227 1.99995E+01-2.05312E-05-6.92331E-07 1.69406E-04-3.91628E-13 2.00672E-13
 -1       228 1.99996E+01-2.17839E-05-3.32549E-07 1.06278E-04 1.18394E-13-2.43259E-13
 -1       229 1.99997E+01-2.25992E-05-7.99236E-07 4.31740E-05 3.26605E-13 3.31378E-14
 -1       230 1.99998E+01-1.69872E-05-2.03727E-07 8.24189E-06 2.28078E-13-1.26164E-13
 -1       231 2.09807E+01 2.71191E-01-5.60045E-02 1.50866E+00 2.41269E-13 1.15514E-12
 -1       232 1.94723E+01 1.05447E-01 9.89358E-03 8.37611E-01 1.77964E-13 9.75182E-13
 -1       233 1.84829E+01 3.55502E-02 1.45441E-02 6.07020E-01 1.31540E-13 8.16123E-13
 -1       234 1.77421E+01 2.26624E-02 8.18372E-03 4.93352E-01 1.20130E-13 7.25364E-13
 -1       235 1.71798E+01 3.78508E-02 3.93026E-03 3.79247E-01 6.30572E-14 6.53273E-13
 -1       236 1.68078E+01 5.80713E-02 1.78491E-03 2.17676E-01 7.90032E-14 5.27569E-13
 -1       237 1.66624E+01 7.07535E-02 9.68637E-04 9.54956E-03 9.86763E-14 4.11027E-13
 -1       238 1.67651E+01 6.85604E-02 8.92835E-04-2.12405E-01 1.01595E-13 3.19618E-13
 -1       239 1.70981E+01 5.11857E-02 1.12707E-03-4.02784E-01 7.10324E-14 2.71862E-13
 -1       240 1.76017E+01 2.45956E-02 1.30223E-03-5.24235E-01 6.01992E-14 2.37275E-13
 -1       241 1.81907E+01-2.58519E-03 1.19332E-03-5.61521E-01 2.54323E-14 1.50331E-13
 -1       242 1.87786E+01-2.33121E-02 7.75302E-04-5.23469E-01 3.76495E-14 1.11392E-13
 -1       243 1.92981E+01-3.44769E-02 1.92873E-04-4.34681E-01-1.03162E-15 1.18246E-13
 -1       244 1.97106E+01-3.67094E-02-3.57646E-04-3.23812E-01 7.20507E-14 1.37143E-13
 -1       245 2.00051E+01-3.27332E-02-7.40806E-04-2.14579E-01 3.84359E-14 1.74976E-13
 -1       246 2.01906E+01-2.56662E-02-9.08503E-04-1.21818E-01-3.27337E-14 1.42005E-13
 -1       247 2.02874E+01-1.79810E-02-8.91642E-04-5.17344E-02 3.04375E-14 1.23123E-13
 -1       248 2.03195E+01-1.11737E-02-7.55713E-04-4.29616E-03-8.43924E-14 9.80640E-14
 -1       249 2.03091E+01-5.88792E-03-5.68245E-04 2.39843E-02-4.62023E-14 7.95921E-14
 -1       250 2.02743E+01-2.19778E-03-3.79563E-04 3.78473E-02-1.28738E-15 2.02653E-13
 -1       251 2.02287E+01 1.19936E-04-2.18718E-04 4.19080E-02 1.74515E-14 1.10835E-13
 -1       252 2.01811E+01 1.39369E-03-9.69990E-05 3.99890E-02 1.75836E-13 1.49405E-13
 -1       253 2.01368E+01 1.94640E-03-1.41468E-05 3.49280E-02 6.12270E-14 7.36016E-14
 -1       254 2.00987E+01 2.04520E-03 3.60079E-05 2.86471E-02-1.87325E-14-1.41956E-13
 -1       255 2.00676E+01 1.88834E-03 6.15834E-05 2.23322E-02 9.09243E-14-8.35363E-14
 -1       256 2.00433E+01 1.61099E-03 7.03481E-05 1.66322E-02 7.58735E-14-6.10235E-14
 -1       257 2.00253E+01 1.29823E-03 6.86801E-05 1.18342E-02-8.41352E-15-1.85570E-13
 -1       258 2.00123E+01 9.98795E-04 6.13146E-05 8.00130E-03-1.06206E-13-3.90962E-13
 -1       259 2.00035E+01 7.36907E-04 5.14893E-05 5.07031E-03 4.29100E-14-1.44323E-13
 -1       260 1.99978E+01 5.21356E-04 4.12429E-05 2.91770E-03-1.91194E-15-6.23594E-14
 -1       261 1.99944E+01 3.51999E-04 3.17347E-05 1.40057E-03 5.58140E-14-1.39192E-13
 -1       262 1.99927E+01 2.24086E-04 2.35241E-05 3.80099E-04-7.75251E-15-1.55541E-13
 -1       263 1.99921E+01 1.30986E-04 1.67900E-05-2.66627E-04-3.06837E-14-2.67102E-13
 -1       264 1.99923E+01 6.57656E-05 1.14887E-05-6.42092E-04-3.26561E-14-1.62352E-13
 -1       265 1.99929E+01 2.20344E-05 7.46155E-06-8.27998E-04 2.25396E-13-4.39445E-14
 -1       266 1.99937E+01-5.68661E-06 4.50375E-06-8.87137E-04-9.85044E-14 2.02188E-13
 -1       267 1.99946E+01-2.18663E-05 2.40508E-06-8.66194E-04-2.74484E-13 2.03495E-13
 -1       268 1.99954E+01-3.00167E-05 9.71853E-07-7.98758E-04-6.49095E-15-2.22295E-14
 -1       269 1.99963E+01-3.28168E-05 3.67302E-08-7.08139E-04-1.50607E-14 1.00305E-13
 -1       270 1.99970E+01-3.22618E-05-5.38699E-07-6.09799E-04-4.35526E-14 1.80568E-13
 -1       271 1.99977E+01-2.98132E-05-8.65352E-07-5.13334E-04-4.68131E-14-9.35352E-14
 -1       272 1.99982E+01-2.65374E-05-1.02802E-06-4.24012E-04 1.53453E-13-3.69779E-14
 -1       273 1.99987E+01-2.32305E-05-1.07864E-06-3.43908E-04 4.22708E-13 1.71012E-13
 -1       274 1.99990E+01-2.05451E-05-1.02753E-06-2.72655E-04 1.14797E-13-2.60098E-13
 -1       275 1.99993E+01-1.91068E-05-8.30297E-07-2.07897E-04 1.06111E-13-3.76844E-13
 -1       276 1.99995E+01-1.92293E-05-4.10898E-07-1.45830E-04-8.16126E-14-3.24755E-13
 -1       277 1.99997E+01-2.15740E-05-2.10124E-07-8.20145E-05-2.07671E-14-6.05874E-13
 -1       278 1.99998E+01-1.92760E-05-1.33279E-06-2.05229E-05 1.36192E-13-5.42734E-13
 -1       279 1.99998E+01-6.87518E-05-7.52482E-07-5.74880E-05-4.03463E-13-3.24862E-14
 -1       280 1.99998E+01-1.71796E-04-2.06280E-07-1.20134E-04-4.97655E-13-1.16519E-13
 -1       281 1.99998E+01-3.12765E-04-1.58749E-07-1.61532E-04-5.24724E-13 1.53970E-13
 -1       282 1.99998E+01-4.71595E-04 6.99075E-08-1.74328E-04-5.96772E-13 6.01861E-13
 -1       283 1.99998E+01-6.23663E-04 4.09658E-07-1.59197E-04-5.09932E-13 7.06636E-14
 -1       284 1.99998E+01-7.52442E-04 7.07979E-07-1.20165E-04-2.28068E-13-1.85291E-13
 -1       285 1.99998E+01-8.37139E-04 9.17099E-07-6.41675E-05-3.21350E-13-1.82234E-13
 -1       286 1.99998E+01-8.66374E-04 9.90152E-07 5.92766E-07-1.86387E-13 3.32976E-14
 -1       287 1.99998E+01-8.36207E-04 9.15734E-07 6.53034E-05-1.48862E-13 5.44232E-14
 -1       288 1.99998E+01-7.50627E-04 7.05398E-07 1.21165E-04-3.60182E-13-5.89996E-13
 -1       289 1.99998E+01-6.23736E-04 3.90493E-07 1.59475E-04-3.85092E-13-1.48158E-13
 -1       290 1.99998E+01-4.68752E-04 8.96631E-08 1.74643E-04-4.26487E-13 3.36178E-13
 -1       291 1.99998E+01-3.09823E-04-1.23564E-07 1.61242E-04-2.27491E-13 3.78449E-13
 -1       292 1.99998E+01-1.70191E-04-2.38032E-07 1.18179E-04-2.95886E-13 3.38326E-13
 -1       293 1.99998E+01-7.92314E-05-1.55126E-07 6.02532E-05 1.23946E-13-9.07385E-14
 -1       294-4.46798E-01-9.47253E+00-7.03611E-01 2.89807E+00 3.15900E-13 1.13892E-12
 -1       295 3.47404E+00-7.97436E+00-6.72026E-01 4.71864E+00 8.66779E-13 1.26352E-12
 -1       296 9.94282E+00-4.09881E+00-4.50501E-01 6.54948E+00 1.32527E-12 1.19624E-12
 -1       297 2.03222E+01-4.97693E-01-3.55532E-02 8.21536E+00 1.26738E-12 1.00384E-12
 -1       298 3.01152E+01 3.61464E+00 3.52416E-01 8.92636E+00 1.29638E-12 1.13087E-12
 -1       299 3.98048E+01 5.82390E+00 7.28522E-01 7.73361E+00 1.03384E-12 9.21985E-13
 -1       300 4.66938E+01 6.84920E+00 9.47631E-01 4.76599E+00 9.05845E-13 4.64045E-13
 -1       301 4.85401E+01 7.39149E+00 9.18747E-01 6.58931E-01 8.61006E-13-1.29168E-14
 -1       302 4.60644E+01 7.21929E+00 7.79221E-01-3.04222E+00 8.00637E-13-4.67557E-13
 -1       303 4.13659E+01 6.02599E+00 7.03551E-01-7.06236E+00 9.04641E-13-9.57928E-13
 -1       304 3.24932E+01 4.58541E+00 4.13497E-01-8.86140E+00 1.05421E-12-1.15413E-12
 -1       305 2.22786E+01 2.15132E+00 4.64783E-02-8.84478E+00 1.14550E-12-1.19191E-12
 -1       306 1.34138E+01-1.92016E+00-2.62842E-01-7.57223E+00 8.58175E-13-9.91360E-13
 -1       307 6.31104E+00-4.79471E+00-2.92169E-01-6.75507E+00 3.21548E-13-8.64843E-13
 -1       308-6.12203E-02-9.04353E+00-8.37505E-01-3.12255E+00 2.69174E-13-7.07059E-13
 -1       309-1.57263E+00-1.06434E+01-1.00847E+00-1.22558E+00-2.12046E-13-7.25392E-13
 -1       310 1.01448E+00-8.13703E+00-6.73598E-01 1.86566E+00-4.65517E-13-9.22720E-13
 -1       311 5.79485E+00-7.82784E+00-9.19513E-01 3.35835E+00-9.75608E-13-1.12600E-12
 -1       312 1.63353E+01-5.35204E+00-5.60923E-01 5.54519E+00-9.48963E-13-1.18955E-12
 -1       313 2.83008E+01-1.48176E+00-9.64231E-02 6.17799E+00-1.16746E-12-1.25089E-12
 -1       314 4.17676E+01 1.78951E+00 6.19570E-01 3.64762E+00-8.63629E-13-9.15434E-13
 -1       315 5.10235E+01 5.45390E+00 1.31944E+00 1.72895E+00-9.54820E-13-6.93140E-13
 -1       316 5.29028E+01 7.56960E+00 1.52129E+00-1.14958E-02-9.98757E-13-2.69271E-13
 -1       317 5.22847E+01 6.08213E+00 1.54956E+00-1.93776E+00-1.07830E-12 3.38646E-13
 -1       318 4.37881E+01 2.88845E+00 8.88231E-01-4.15384E+00-1.17769E-12 7.02716E-13
 -1       319 3.14004E+01-5.04491E-01 9.05163E-02-6.31355E+00-1.24367E-12 1.35686E-12
 -1       320 1.90838E+01-4.19755E+00-4.53636E-01-5.86416E+00-1.16079E-12 1.24156E-12
 -1       321 8.74007E+00-7.45680E+00-7.28097E-01-4.58264E+00-9.98757E-13 8.96991E-13
 -1       322 1.12666E+00-1.06448E+01-1.03195E+00-1.67998E+00-8.04939E-13 1.07080E-12
 -1       323-1.36887E+00-1.07515E+01-8.62927E-01 2.45840E-01-3.29438E-13 9.42663E-13
 -1       324 3.01378E+01 6.64657E-01-2.70582E-01-4.74660E+00-3.63751E-13 8.16743E-13
 -1       325 1.83426E+01 4.37700E+00-3.76738E-03 5.75747E-02-2.06337E-13-1.67186E-13
 -1       326 2.29922E+01 2.88837E+00-6.56665E-03 2.84759E-01-2.14257E-13 8.98170E-14
 -1       327 1.35751E+01 5.37954E+00 7.28004E-03-2.00104E+00-2.30532E-13-4.14964E-13
 -1       328 1.42186E+01 4.74120E+00 2.29935E-03-2.89364E+00-2.34101E-13-4.20681E-13
 -1       329 1.61296E+01 3.78207E+00-4.31171E-03-3.04143E+00-2.06862E-13-3.65765E-13
 -1       330 1.82771E+01 2.98164E+00-1.31955E-02-2.44137E+00-1.42475E-13-3.04329E-13
 -1       331 1.99691E+01 2.58009E+00-1.72294E-02-1.42196E+00-6.25157E-14-2.57322E-13
 -1       332 2.09794E+01 2.53243E+00-2.05493E-02-3.12996E-01 3.38916E-14-2.27623E-13
 -1       333 2.13882E+01 2.67190E+00-2.25038E-02 6.78571E-01 1.28203E-13-1.79330E-13
 -1       334 2.14084E+01 2.83666E+00-2.37394E-02 1.52629E+00 2.28809E-13-8.84830E-14
 -1       335 2.12475E+01 2.89050E+00-2.55128E-02 2.21378E+00 3.02595E-13-1.07787E-14
 -1       336 2.11295E+01 2.70011E+00-2.82536E-02 2.73016E+00 3.58936E-13 1.46706E-13
 -1       337 2.12497E+01 2.03910E+00-3.47669E-02 2.90587E+00 3.69700E-13 4.59103E-13
 -1       338 2.13344E+01 1.16898E+00-2.87813E-02 2.43127E+00 3.28111E-13 7.21449E-13
 -1       339 2.03525E+01 4.16374E-01 6.40420E-03 1.53761E+00 2.44107E-13 6.18995E-13
 -1       340 3.59479E+01-8.81014E-01-6.19222E-02-4.42941E+00-3.42996E-13 5.05374E-13
 -1       341 2.42971E+01 9.54006E-01 2.11702E-02 2.42619E+00-1.82907E-14 2.00048E-13
 -1       342 2.51529E+01-6.90621E-01 3.42072E-02 3.13488E+00 1.37638E-13 2.78984E-13
 -1       343 2.75686E+01-3.29540E+00 5.01033E-02 2.34220E+00 2.73670E-13 3.92701E-13
 -1       344 3.12680E+01-5.00980E+00-4.46263E-02-1.12446E-01 1.54605E-13 4.45255E-13
 -1       345 1.90967E+01-4.72755E+00-3.37138E-02 7.91888E+00 2.43361E-13 4.54824E-13
 -1       346 3.57888E+01 2.36649E+00-2.19471E-01 4.70832E+00-7.62085E-13-3.17149E-13
 -1       347 3.48072E+01-2.43158E+00-5.11103E-02 3.98266E+00-4.61207E-13-6.08395E-13
 -1       348 3.10533E+01-4.05335E+00-2.40286E-02 4.90740E-01 1.73385E-13-4.83327E-13
 -1       349 2.76173E+01-2.33065E+00 3.21459E-02-2.44004E+00 3.15348E-13-1.99083E-13
 -1       350 2.53747E+01-4.99742E-01 1.54092E-03-3.49133E+00 2.82097E-13-5.09718E-14
 -1       351 2.40149E+01 3.61325E-01 7.85874E-04-3.32828E+00 2.46572E-13 5.12533E-14
 -1       352 2.30671E+01 5.92472E-01 3.65743E-03-2.71886E+00 8.19804E-14 2.02455E-14
 -1       353 2.23395E+01 5.49643E-01 5.98064E-03-2.05096E+00 3.32000E-14-1.37189E-13
 -1       354 2.17615E+01 4.28887E-01 6.34714E-03-1.48095E+00-1.29389E-14-6.37384E-14
 -1       355 2.13065E+01 3.09844E-01 5.43482E-03-1.04383E+00-1.62848E-13-3.06791E-14
 -1       356 2.09556E+01 2.15611E-01 4.15292E-03-7.26387E-01 1.71109E-13-4.32164E-14
 -1       357 2.06905E+01 1.47410E-01 2.98252E-03-5.02375E-01 1.89878E-13-1.71563E-13
 -1       358 2.04934E+01 1.00104E-01 2.07493E-03-3.46551E-01 2.97545E-14-7.04662E-14
 -1       359 2.03483E+01 6.80011E-02 1.40334E-03-2.38762E-01 4.64367E-14-1.75752E-13
 -1       360 2.02385E+01 4.53796E-02 9.66234E-04-1.61284E-01 2.25624E-14-1.62995E-13
 -1       361 2.01637E+01 3.10575E-02 6.44731E-04-1.10678E-01-1.15844E-13 3.87139E-13
 -1       362 2.01101E+01 2.13415E-02 4.40751E-04-7.55210E-02 8.26475E-14 4.07757E-13
 -1       363 2.00720E+01 1.47104E-02 3.02532E-04-5.10337E-02 2.32403E-13 4.08302E-13
 -1       364 2.00452E+01 1.01448E-02 2.07934E-04-3.39588E-02 8.43581E-14 1.89071E-13
 -1       365 2.00267E+01 6.97488E-03 1.42767E-04-2.20687E-02-1.43815E-15-2.39045E-14
 -1       366 2.00142E+01 4.75839E-03 9.75892E-05-1.38291E-02-1.05552E-13 2.57414E-14
 -1       367 2.00059E+01 3.20158E-03 6.61022E-05-8.17235E-03-1.13879E-13-1.49851E-13
 -1       368 2.00006E+01 2.10701E-03 4.40882E-05-4.34736E-03-1.87089E-13-8.05562E-14
 -1       369 1.99974E+01 1.33991E-03 2.86981E-05-1.82009E-03-3.52954E-13-1.40623E-13
 -1       370 1.99957E+01 8.06769E-04 1.79846E-05-2.07544E-04-1.68238E-13-7.54827E-14
 -1       371 1.99949E+01 4.41579E-04 1.05966E-05 7.66574E-04 3.37895E-13-2.60651E-13
 -1       372 1.99948E+01 1.97005E-04 5.58244E-06 1.30209E-03 5.11804E-13-7.09336E-14
 -1       373 1.99950E+01 3.86860E-05 2.26211E-06 1.54327E-03 4.05881E-13 2.98815E-13
 -1       374 1.99955E+01-5.85389E-05 1.44041E-07 1.59365E-03 4.08645E-13 3.11482E-13
 -1       375 1.99960E+01-1.13169E-04-1.12996E-06 1.52672E-03 2.48072E-13 3.89758E-13
 -1       376 1.99966E+01-1.38807E-04-1.82215E-06 1.39374E-03-7.27694E-14 4.89615E-13
 -1       377 1.99972E+01-1.45426E-04-2.12483E-06 1.22954E-03-1.69702E-13 8.06525E-13
 -1       378 1.99977E+01-1.40306E-04-2.17906E-06 1.05691E-03-2.23875E-14 1.86836E-13
 -1       379 1.99982E+01-1.28747E-04-2.08829E-06 8.89791E-04 2.57486E-13 9.48212E-14
 -1       380 1.99986E+01-1.14639E-04-1.93012E-06 7.35635E-04-8.18756E-14 7.64769E-14
 -1       381 1.99989E+01-1.00933E-04-1.75732E-06 5.97143E-04-1.09879E-15 3.72419E-13
 -1       382 1.99992E+01-8.99538E-05-1.59301E-06 4.73442E-04-6.40164E-14 3.83443E-13
 -1       383 1.99994E+01-8.34574E-05-1.39756E-06 3.61088E-04-1.31560E-13 2.68499E-13
 -1       384 1.99995E+01-8.27348E-05-1.34363E-06 2.55105E-04-4.89998E-13 7.84561E-13
 -1       385 1.99997E+01-8.34004E-05-1.09064E-06 1.52682E-04 1.76920E-13 4.45907E-13
 -1       386 1.94444E+01 1.83345E-01 7.78083E-03 1.14081E+00 1.90657E-13 4.41078E-13
 -1       387 1.88821E+01 1.86234E-01 4.96451E-03 8.98070E-01 1.36663E-13 3.64342E-13
 -1       388 1.84513E+01 2.59279E-01 4.12651E-03 6.13294E-01 1.68470E-13 3.06005E-13
 -1       389 1.81854E+01 3.28688E-01 4.05672E-03 2.48732E-01 1.38538E-13 2.87811E-13
 -1       390 1.81111E+01 3.46220E-01 3.89666E-03-1.63931E-01 1.20542E-13 2.49121E-13
 -1       391 1.82293E+01 2.92921E-01 3.31487E-03-5.51393E-01 1.22113E-13 2.09177E-13
 -1       392 1.85034E+01 1.82751E-01 2.26173E-03-8.37237E-01 1.17309E-13 2.11725E-13
 -1       393 1.88687E+01 5.13075E-02 9.48576E-04-9.75923E-01 9.06044E-14 1.53502E-13
 -1       394 1.92542E+01-6.39580E-02-3.43980E-04-9.66718E-01 6.84580E-14 1.08534E-13
 -1       395 1.96028E+01-1.39667E-01-1.35458E-03-8.45028E-01-1.10084E-15 3.16017E-14
 -1       396 1.98815E+01-1.70994E-01-1.93022E-03-6.61699E-01-8.10994E-15 3.00853E-14
 -1       397 2.00800E+01-1.66532E-01-2.08581E-03-4.63982E-01 1.11270E-14 1.23289E-13
 -1       398 2.02038E+01-1.40261E-01-1.91347E-03-2.85110E-01 5.63419E-14 1.30681E-13
 -1       399 2.02668E+01-1.05295E-01-1.55706E-03-1.42295E-01 4.78733E-14 5.77271E-14
 -1       400 2.02850E+01-7.08631E-02-1.13929E-03-3.99045E-02-8.37768E-15 1.87518E-14
 -1       401 2.02736E+01-4.19598E-02-7.46804E-04 2.57303E-02-6.19654E-14 3.99366E-14
 -1       402 2.02449E+01-2.03104E-02-4.24782E-04 6.20218E-02-1.45945E-13 9.41161E-14
 -1       403 2.02080E+01-5.63677E-03-1.87402E-04 7.71658E-02-2.55621E-14 2.48951E-13
 -1       404 2.01693E+01 3.29180E-03-2.91801E-05 7.84916E-02 1.05205E-13 3.15076E-13
 -1       405 2.01326E+01 7.96618E-03 6.46819E-05 7.17833E-02 7.74753E-14 2.50092E-13
 -1       406 2.01003E+01 9.76099E-03 1.11302E-04 6.11947E-02 1.37080E-13 1.50503E-13
 -1       407 2.00730E+01 9.77852E-03 1.26287E-04 4.94623E-02 4.93056E-14 8.94761E-14
 -1       408 2.00511E+01 8.82251E-03 1.22097E-04 3.82234E-02 7.01114E-14 6.61736E-14
 -1       409 2.00340E+01 7.43469E-03 1.07764E-04 2.83321E-02 7.45184E-14-4.81158E-14
 -1       410 2.00211E+01 5.95239E-03 8.93299E-05 2.01241E-02 7.89101E-14 1.67540E-14
 -1       411 2.00118E+01 4.56596E-03 7.05042E-05 1.36196E-02-1.40496E-13-9.27977E-14
 -1       412 2.00052E+01 3.36706E-03 5.33279E-05 8.66571E-03-1.65277E-14 7.68549E-14
 -1       413 2.00009E+01 2.38564E-03 3.87275E-05 5.03186E-03 1.53752E-13 2.44463E-13
 -1       414 1.99981E+01 1.61609E-03 2.69406E-05 2.46804E-03 2.37151E-14 2.00849E-13
 -1       415 1.99965E+01 1.03476E-03 1.78160E-05 7.37813E-04 9.68239E-14 1.81396E-13
 -1       416 1.99958E+01 6.10863E-04 1.10128E-05-3.65507E-04 4.53652E-14 1.96014E-13
 -1       417 1.99956E+01 3.12945E-04 6.12423E-06-1.01321E-03 2.65196E-14 2.60349E-16
 -1       418 1.99958E+01 1.12223E-04 2.74894E-06-1.34154E-03-1.68902E-13 4.10853E-13
 -1       419 1.99961E+01-1.59215E-05 5.27129E-07-1.45523E-03-9.72366E-14 3.25094E-13
 -1       420 1.99966E+01-9.15898E-05-8.44727E-07-1.43226E-03 8.37237E-14 3.41449E-14
 -1       421 1.99971E+01-1.30628E-04-1.61203E-06-1.32889E-03 7.41459E-14-2.72647E-13
 -1       422 1.99975E+01-1.45187E-04-1.96716E-06-1.18427E-03-1.25683E-13-2.56903E-13
 -1       423 1.99980E+01-1.44382E-04-2.05774E-06-1.02442E-03 1.90353E-13-7.57328E-14
 -1       424 1.99984E+01-1.34962E-04-1.99649E-06-8.65514E-04-4.32873E-14-3.18897E-13
 -1       425 1.99987E+01-1.21905E-04-1.86745E-06-7.16365E-04 1.03206E-13-3.19605E-13
 -1       426 1.99990E+01-1.08950E-04-1.70985E-06-5.80399E-04 3.27874E-13 1.27923E-13
 -1       427 1.99993E+01-9.89926E-05-1.54609E-06-4.57078E-04 2.21530E-13 2.22523E-14
 -1       428 1.99995E+01-9.42268E-05-1.46675E-06-3.43226E-04-3.07411E-14 6.28510E-16
 -1       429 1.99996E+01-9.39896E-05-1.38674E-06-2.35801E-04 7.74761E-14-2.20021E-13
 -1       430 1.99997E+01-8.76343E-05-1.02199E-06-1.42043E-04 2.25763E-14-3.37988E-13
 -1       431 1.99998E+01-3.93943E-04-1.82227E-07-3.01058E-04-1.14167E-13 8.45446E-14
 -1       432 1.99997E+01-2.57046E-04-6.70711E-07-2.66152E-04 1.39785E-13-7.56297E-14
 -1       433 1.99998E+01-5.25412E-04 2.15195E-07-2.93704E-04-3.20800E-13 9.68133E-14
 -1       434 1.99999E+01-6.42379E-04 5.69612E-07-2.43703E-04-3.75280E-13 2.34056E-13
 -1       435 1.99999E+01-7.28789E-04 8.35313E-07-1.60208E-04-8.29261E-14-1.62023E-13
 -1       436 1.99999E+01-7.74617E-04 9.77644E-07-5.52620E-05-4.12802E-13 1.92158E-13
 -1       437 1.99999E+01-7.74432E-04 9.75148E-07 5.69996E-05-1.55995E-13-5.40911E-14
 -1       438 1.99999E+01-7.28207E-04 8.30907E-07 1.61840E-04-1.55420E-13-4.80714E-13
 -1       439 1.99999E+01-6.43142E-04 5.61393E-07 2.43946E-04-2.07192E-13-3.53302E-13
 -1       440 1.99998E+01-5.26164E-04 2.11200E-07 2.93941E-04-1.73735E-13 4.18475E-13
 -1       441 1.99998E+01-3.92077E-04-1.78153E-07 3.01212E-04-1.31201E-13 3.64919E-13
 -1       442 1.99997E+01-2.56124E-04-5.47503E-07 2.61984E-04-1.88818E-13 3.29234E-13
 -1       443 1.98235E+01 2.44136E-01 1.00956E-02 1.28647E+00 2.20215E-13 5.42280E-13
 -1       444 1.16964E+01-5.04850E+00-4.86097E-03 8.23505E+00-1.29480E-14 7.24650E-13
 -1       445 2.84758E+01-2.54462E+00 2.51032E-02 5.09563E+00 5.02029E-13 1.17364E-13
 -1       446 1.53020E+00-3.27653E+00 6.06557E-02 1.62359E+00 1.31568E-13 1.22075E-12
 -1       447 3.58597E+01 4.01485E+00-1.03675E-01-3.75471E+00-7.41740E-13 4.22135E-13
 -1       448 1.48758E+01 5.35024E+00 5.25917E-04-8.36643E-01-2.19554E-13-3.40962E-13
 -1       449 3.64447E+01 5.60566E+00-1.54110E-01 9.16578E-01-1.05740E-12-1.61277E-14
 -1       450 3.29290E+01 1.02903E+00 1.16784E-02 3.09160E+00 7.01459E-13 7.82707E-14
 -1       451 3.62027E+01 5.58318E+00 2.37790E-02 7.44012E-01 8.50417E-13-4.01623E-14
 -1       452 3.75347E+01 8.35771E+00 2.36163E-02 2.08201E-01 9.87058E-13-4.44228E-14
 -1       453 3.68855E+01 8.86170E+00-1.70505E-02 2.28965E-01 9.38749E-13 6.14439E-15
 -1       454 3.57836E+01 6.19873E+00-3.68714E-02-8.39371E-02 7.52967E-13-2.30371E-14
 -1       455 3.44992E+01 3.14725E+00 2.19683E-02-1.87045E+00 6.17423E-13-1.41345E-13
 -1       456 2.92076E+01-4.76146E-01 4.94057E-03-5.07746E+00 4.10477E-13-2.95458E-13
 -1       457 2.26129E+01-2.56611E+00-2.83868E-03-7.25184E+00 2.38823E-13-4.23661E-13
 -1       458 1.47189E+01-3.46000E+00 2.08041E-02-8.38333E+00-1.01641E-13-5.85983E-13
 -1       459 4.52644E+00-2.90272E+00-2.17740E-02-6.31688E+00-1.18655E-13-8.05869E-13
 -1       460 1.11307E+00-3.19840E+00-7.42696E-02-3.26642E+00-9.94066E-14-8.58980E-13
 -1       461 1.65202E+00-2.86964E+00-2.44745E-02 7.06556E-01-8.18581E-14-8.73163E-13
 -1       462 9.21090E+00-4.44683E+00-2.96726E-03 5.26712E+00-3.15442E-14-7.50289E-13
 -1       463 1.69364E+01-5.97119E+00-7.80613E-02 6.01079E+00-1.01030E-14-5.41647E-13
 -1       464 2.82671E+01-6.17658E+00-4.52544E-02 3.29324E+00-1.60788E-13-1.28009E-13
 -1       465 3.49455E+01-3.55544E+00-3.78146E-02-4.81480E-01-3.41900E-13 4.51306E-14
 -1       466 3.99521E+01 2.13893E+00 1.05570E-01-2.69589E+00-6.12302E-13 1.03695E-13
 -1       467 3.63641E+01-2.27097E+00-9.22506E-02 8.19812E-01-7.61205E-13-5.99243E-14
 -1       468 2.98748E+01-5.66344E+00-7.35379E-02-2.91438E+00-2.52798E-13 2.92238E-13
 -1       469 1.97000E+01-6.69614E+00-1.03220E-01-5.91715E+00-1.63675E-13 4.06761E-13
 -1       470 8.98859E+00-5.77867E+00-1.01521E-01-5.78448E+00 1.70253E-13 6.37088E-13
 -1       471 3.23560E+00-4.69139E+00-4.09252E-02-3.15131E+00 1.40762E-13 8.59687E-13
 -1       472 5.28849E+00-4.52455E+00 2.04061E-03 6.49620E+00-1.16157E-14 1.15684E-12
 -1       473 1.99997E+01-1.64937E-04-9.21002E-07 2.16739E-04-2.52335E-13 7.80048E-13
 -1       474 1.10636E+01-2.10507E+00 1.10276E-01-8.14195E+00-2.98678E-13-6.39711E-13
 -1       475 7.24127E+00-1.25461E+00 1.42832E-01 3.73089E+00 9.65755E-14-7.69440E-13
 -1       476 1.49570E+01 3.36238E+00 1.30313E-02-4.02319E+00-2.77265E-13-3.89781E-13
 -1       477 1.26895E+01 4.61412E+00 2.57819E-02-3.15819E+00-2.49782E-13-4.60520E-13
 -1       478 2.03032E+01 1.31153E+00-3.07181E-03-2.32327E+00-1.53448E-13-2.04946E-13
 -1       479 2.16642E+01 1.18582E+00-6.92113E-03-8.59636E-01-4.78727E-14-1.69370E-13
 -1       480 2.21746E+01 1.37539E+00-8.90503E-03 3.63601E-01 5.68504E-14-1.16427E-13
 -1       481 2.21588E+01 1.63032E+00-9.76745E-03 1.29229E+00 1.69677E-13-5.70937E-14
 -1       482 2.18725E+01 1.77178E+00-9.86690E-03 1.93059E+00 2.47785E-13-8.59035E-15
 -1       483 2.15132E+01 1.69120E+00-8.14296E-03 2.30677E+00 2.94978E-13 9.57793E-14
 -1       484 2.11477E+01 1.30715E+00-4.99522E-03 2.34284E+00 3.28106E-13 2.74676E-13
 -1       485 2.08538E+01 8.42025E-01 1.46776E-03 2.03367E+00 2.96557E-13 4.33834E-13
 -1       486 2.47625E+01-4.83050E+00 9.08274E-04 5.61398E+00-1.60719E-13-3.78898E-14
 -1       487 1.89733E+01 1.32755E+00 5.38095E-02 3.20577E+00 8.46953E-14-1.06352E-13
 -1       488 1.92498E+01-1.71064E+00 1.03049E-01 4.68347E+00 2.74426E-13-1.10141E-13
 -1       489 1.84544E+01 3.14669E+00 1.12254E-02 1.51664E+00-8.86496E-14-1.49702E-13
 -1       490 2.07627E+01-1.53434E+00 8.96144E-02-4.93261E+00 4.79129E-13 1.10337E-13
 -1       491 2.00649E+01 4.55521E-01 2.17160E-02-4.21565E+00 3.01663E-13 2.35434E-13
 -1       492 2.01062E+01 1.15286E+00 7.71731E-03-3.38687E+00 1.16984E-13 1.34021E-13
 -1       493 2.02932E+01 1.19307E+00 4.39902E-03-2.61308E+00-3.30862E-14 1.68791E-13
 -1       494 2.04191E+01 9.94560E-01 3.79717E-03-1.95777E+00-8.62740E-14 9.83647E-14
 -1       495 2.04570E+01 7.53870E-01 3.21488E-03-1.43631E+00 2.88640E-14-3.46497E-14
 -1       496 2.04327E+01 5.44501E-01 2.48908E-03-1.03869E+00-7.29538E-15 5.21825E-14
 -1       497 2.03765E+01 3.83479E-01 1.79762E-03-7.44092E-01 1.45080E-13 5.47798E-14
 -1       498 2.03099E+01 2.66760E-01 1.25358E-03-5.29865E-01 9.31091E-14-4.36348E-14
 -1       499 2.02450E+01 1.84717E-01 8.40673E-04-3.75684E-01-4.61346E-14 5.72823E-14
 -1       500 2.01854E+01 1.25536E-01 5.76752E-04-2.61009E-01 2.71499E-14 1.79071E-13
 -1       501 2.01385E+01 8.71466E-02 3.83068E-04-1.83787E-01 2.15534E-13 2.02914E-13
 -1       502 2.01011E+01 6.06772E-02 2.60783E-04-1.28685E-01-4.10253E-14 2.62805E-13
 -1       503 2.00720E+01 4.23585E-02 1.78548E-04-8.93819E-02 8.03617E-14 1.51200E-13
 -1       504 2.00499E+01 2.95996E-02 1.22655E-04-6.13598E-02-1.03930E-13-2.27410E-14
 -1       505 2.00335E+01 2.06503E-02 8.41920E-05-4.14190E-02 5.90009E-14-1.54060E-13
 -1       506 2.00216E+01 1.43327E-02 5.75721E-05-2.72892E-02-7.11059E-14-1.35955E-13
 -1       507 2.00131E+01 9.85210E-03 3.90525E-05-1.73508E-02-1.71054E-13-3.58394E-13
 -1       508 2.00072E+01 6.66784E-03 2.61214E-05-1.04396E-02-8.77190E-14-2.41135E-13
 -1       509 2.00032E+01 4.40801E-03 1.70850E-05-5.71227E-03-2.26066E-13-2.59558E-13
 -1       510 2.00006E+01 2.81292E-03 1.07902E-05-2.55432E-03-3.50782E-13-5.79352E-14
 -1       511 1.99990E+01 1.69852E-03 6.44090E-06-5.15527E-04 1.62587E-13-2.13875E-14
 -1       512 1.99981E+01 9.32414E-04 3.47902E-06 7.34543E-04 4.74761E-13-4.72988E-15
 -1       513 1.99977E+01 4.18144E-04 1.50730E-06 1.43813E-03 6.63734E-13 8.77291E-14
 -1       514 1.99976E+01 8.48011E-05 2.39435E-07 1.77203E-03 4.45089E-13 3.09487E-13
 -1       515 1.99977E+01-1.20044E-04-5.32786E-07 1.86414E-03 4.27643E-13 5.53711E-13
 -1       516 1.99979E+01-2.35212E-04-9.61577E-07 1.80582E-03 6.39088E-14 3.84200E-13
 -1       517 1.99981E+01-2.89398E-04-1.15843E-06 1.66111E-03-6.83297E-14 2.09623E-13
 -1       518 1.99984E+01-3.03726E-04-1.20506E-06 1.47375E-03-2.64343E-13 2.89994E-13
 -1       519 1.99986E+01-2.93676E-04-1.16105E-06 1.27238E-03-5.40980E-14 5.75262E-13
 -1       520 1.99989E+01-2.70561E-04-1.06950E-06 1.07461E-03 5.47688E-14 5.38652E-13
 -1       521 1.99991E+01-2.42705E-04-9.68678E-07 8.89946E-04 1.28269E-13 6.99503E-13
 -1       522 1.99993E+01-2.16417E-04-8.84424E-07 7.21985E-04-6.25279E-14 6.13676E-13
 -1       523 1.99994E+01-1.96138E-04-8.61987E-07 5.70256E-04-1.99755E-13 8.11800E-13
 -1       524 1.99995E+01-1.84645E-04-8.32162E-07 4.32383E-04-2.12635E-13 8.96923E-13
 -1       525 1.99996E+01-1.73980E-04-8.86773E-07 3.22476E-04-4.74408E-13 6.33577E-13
 -1       526 1.95270E+01 6.76673E-01 1.90333E-03 6.78086E-01 1.64382E-13 2.21346E-13
 -1       527 1.98707E+01 5.10822E-01 2.05989E-03 1.12362E+00 1.69865E-13 2.38057E-13
 -1       528 2.02922E+01 4.03331E-01 1.14161E-03 1.45650E+00 1.95565E-13 2.29997E-13
 -1       529 1.93254E+01 7.76779E-01 1.90708E-03 1.27272E-01 1.55782E-13 1.84162E-13
 -1       530 1.93020E+01 7.31142E-01 1.75696E-03-4.43089E-01 1.69397E-13 1.41086E-13
 -1       531 1.94413E+01 5.35765E-01 1.38107E-03-9.14245E-01 1.32881E-13 6.29900E-14
 -1       532 1.96812E+01 2.53263E-01 8.62417E-04-1.19516E+00 9.10662E-14 7.40297E-14
 -1       533 1.99418E+01-2.76167E-02 2.40500E-04-1.26004E+00 9.08313E-14 1.08503E-13
 -1       534 2.01601E+01-2.37353E-01-3.56342E-04-1.14644E+00 3.67402E-14 9.40757E-14
 -1       535 2.03063E+01-3.48576E-01-7.57996E-04-9.24993E-01 2.75532E-14 1.31661E-13
 -1       536 2.03797E+01-3.70537E-01-9.60934E-04-6.66311E-01 3.25220E-14 1.04900E-13
 -1       537 2.03959E+01-3.31343E-01-9.46530E-04-4.22455E-01 4.15441E-14 4.03278E-14
 -1       538 2.03750E+01-2.61750E-01-8.11348E-04-2.22063E-01 1.24394E-13-9.26357E-15
 -1       539 2.03340E+01-1.85638E-01-6.19608E-04-7.45079E-02-1.40276E-14 7.45593E-15
 -1       540 2.02852E+01-1.17485E-01-4.26193E-04 2.31147E-02-1.23245E-13 6.42508E-14
 -1       541 2.02360E+01-6.37240E-02-2.59255E-04 7.97337E-02-1.35078E-13 8.27488E-14
 -1       542 2.01904E+01-2.53940E-02-1.31331E-04 1.05976E-01-1.04986E-13-5.18449E-14
 -1       543 2.01504E+01-6.32105E-04-4.26673E-05 1.11709E-01-5.32809E-14 3.12085E-14
 -1       544 2.01165E+01 1.35519E-02 1.26952E-05 1.04960E-01 1.13392E-13 1.72598E-13
 -1       545 2.00884E+01 2.02183E-02 4.26962E-05 9.16653E-02 1.10781E-13 2.47302E-13
 -1       546 2.00656E+01 2.19823E-02 5.51180E-05 7.58732E-02 1.26003E-13 1.94194E-13
 -1       547 2.00476E+01 2.08479E-02 5.64725E-05 6.01173E-02 1.04395E-13 1.86340E-13
 -1       548 2.00336E+01 1.82303E-02 5.16006E-05 4.58174E-02 1.60082E-13 1.50222E-13
 -1       549 2.00229E+01 1.50573E-02 4.38226E-05 3.36287E-02 1.24249E-13 8.90792E-15
 -1       550 2.00149E+01 1.18888E-02 3.52538E-05 2.37188E-02-3.05465E-14 5.20551E-14
 -1       551 2.00090E+01 9.02646E-03 2.71143E-05 1.59710E-02-2.59471E-13 1.61782E-13
 -1       552 2.00049E+01 6.60246E-03 2.00119E-05 1.01237E-02-6.73118E-14 1.45970E-13
 -1       553 2.00020E+01 4.64513E-03 1.41657E-05 5.86042E-03 1.07346E-13 2.85564E-13
 -1       554 2.00001E+01 3.12501E-03 9.56709E-06 2.86447E-03 1.42744E-14 3.11542E-13
 -1       555 1.99989E+01 1.98484E-03 6.08825E-06 8.47532E-04 1.03248E-13 1.67262E-13
 -1       556 1.99983E+01 1.15825E-03 3.55195E-06-4.37034E-04 1.71354E-13 1.47992E-13
 -1       557 1.99980E+01 5.80318E-04 1.77251E-06-1.19101E-03-2.98245E-13 2.58921E-13
 -1       558 1.99979E+01 1.93018E-04 5.77979E-07-1.57369E-03 1.05872E-13 1.06868E-13
 -1       559 1.99980E+01-5.26404E-05-1.79794E-07-1.70691E-03 1.86407E-13-2.06242E-14
 -1       560 1.99982E+01-1.96345E-04-6.22342E-07-1.68120E-03 2.51686E-13-8.24270E-14
 -1       561 1.99984E+01-2.69246E-04-8.45960E-07-1.56170E-03-2.45677E-13 6.80497E-14
 -1       562 1.99986E+01-2.95182E-04-9.25630E-07-1.39372E-03-5.60920E-14 1.06354E-14
 -1       563 1.99988E+01-2.92052E-04-9.19759E-07-1.20731E-03 6.39743E-16 1.50782E-13
 -1       564 1.99990E+01-2.73144E-04-8.75494E-07-1.02104E-03 5.93792E-14-1.01335E-13
 -1       565 1.99992E+01-2.48169E-04-8.20874E-07-8.45023E-04 1.01382E-13-3.30265E-13
 -1       566 1.99994E+01-2.24464E-04-7.15148E-07-6.83358E-04 1.27492E-13 6.33732E-15
 -1       567 1.99995E+01-2.07101E-04-6.52498E-07-5.35653E-04 7.38622E-14 2.68371E-13
 -1       568 1.99996E+01-1.99925E-04-6.80838E-07-3.98601E-04 1.38103E-13-3.63196E-14
 -1       569 1.99999E+01-5.81274E-04 2.42686E-07-3.72264E-04-1.04713E-13 3.23383E-13
 -1       570 1.99998E+01-4.63159E-04-2.56796E-07-4.17206E-04-1.03466E-13-1.50610E-13
 -1       571 1.99997E+01-3.30038E-04-3.18175E-07-4.07844E-04 1.94510E-13 4.32420E-14
 -1       572 6.61072E+00-7.37098E-01 2.01480E-01 4.59010E+00-1.80272E-13 9.31838E-13
 -1       573 2.00000E+01-6.75879E-04 3.23732E-07-2.77914E-04-8.60031E-14 4.54265E-14
 -1       574 2.00000E+01-7.36869E-04 4.27752E-07-1.47827E-04-1.41849E-13-3.61193E-13
 -1       575 2.00000E+01-7.57943E-04 4.47808E-07 9.04960E-07-3.30955E-13 2.27417E-13
 -1       576 2.00000E+01-7.37051E-04 4.10903E-07 1.49612E-04-3.50549E-13 2.41208E-13
 -1       577 2.00000E+01-6.77523E-04 3.13384E-07 2.77685E-04-2.58504E-15-5.14843E-13
 -1       578 1.99999E+01-5.82914E-04 1.92609E-07 3.72746E-04 3.70218E-14-2.22106E-13
 -1       579 1.99998E+01-4.62788E-04-5.95812E-09 4.18564E-04-4.20579E-13 1.31577E-13
 -1       580 1.99997E+01-3.29017E-04-2.65276E-07 4.08411E-04-5.85871E-13 6.23247E-13
 -1       581 3.15793E+01 1.87952E+00-1.35376E-01-6.45551E-01 5.40991E-13-3.21097E-13
 -1       582 3.04042E+01-1.31736E+00-7.10905E-02 1.18803E+00 3.59076E-13-2.53263E-13
 -1       583 1.75994E+01-4.86028E+00 8.97772E-02-6.14598E+00 3.94337E-13 3.05228E-13
 -1       584 4.35157E+00 1.05887E+00 1.87387E-01-1.51464E+00-1.07748E-13-7.74256E-13
 -1       585 2.15769E+01-3.46116E+00 6.20995E-02-6.91734E+00-2.56427E-13-1.62485E-13
 -1       586 3.03801E+01 7.01621E+00-1.90111E-01 1.54320E+00 7.13415E-13 1.70568E-13
 -1       587 1.93978E+01-4.90916E+00 9.50214E-02 7.67949E+00-3.79745E-13 1.38601E-13
 -1       588 5.52150E+00-4.74988E-01 1.96427E-01-1.60913E+00 3.58776E-13 7.77670E-13
 -1       589 1.79437E+01 1.99868E+00 1.46450E-03-3.62762E+00-2.26701E-13-2.83122E-13
 -1       590 3.15780E+01 6.43000E+00-1.63823E-01-1.27911E+00 7.68316E-13-3.06671E-13
 -1       591 3.14411E+01 8.32868E+00-1.92806E-01-2.29036E-01 8.62560E-13-1.42380E-13
 -1       592 3.15708E+01 3.48421E+00-1.35903E-01 1.16058E+00 4.80532E-13 2.19658E-13
 -1       593 3.07022E+01-1.88614E-01-7.85535E-02-1.22133E+00 2.30279E-13 1.27606E-13
 -1       594 2.63570E+01-3.04089E+00-1.67127E-02-4.68757E+00-9.75192E-14-3.52704E-14
 -1       595 5.57931E+00 6.70303E-01 1.99722E-01-4.75120E+00-2.29230E-13-7.50608E-13
 -1       596 2.51168E+01-5.23165E+00 5.52285E-02 3.94960E+00 2.80317E-13 1.03115E-13
 -1       597 2.69988E+01-5.72720E+00 2.20836E-02-3.24273E+00 2.38351E-13-1.17654E-13
 -1       598 8.53917E+00-1.98425E+00 1.68925E-01-4.66544E+00 4.34985E-13 6.34479E-13
 -1       599 1.12721E+01-3.06230E+00 1.41654E-01 7.61596E+00-4.82149E-13 5.90972E-13
 -1       600 1.26201E+01 5.04498E+00 3.88838E-02-1.35671E+00-1.87384E-13-4.30832E-13
 -1       601 2.78222E+01-3.97748E+00-2.31330E-02 2.47010E+00-1.25800E-13-2.52496E-13
 -1       602 2.04892E+01 4.99454E-01 6.54165E-03 1.69135E+00 2.40733E-13 3.53274E-13
 -1       603 7.75931E+00 1.09824E+00 1.82371E-01 1.42937E+00-4.15718E-14 7.16163E-13
 -1       604 2.03585E+01 3.84245E-01 3.16463E-03 1.56734E+00 2.20541E-13 2.87042E-13
 -1       605 1.52177E+01-2.81459E+00 1.52431E-01 5.55030E+00 2.52368E-13-4.03788E-13
 -1       606 7.37764E+00 1.87535E+00 1.61120E-01 1.18982E+00 1.56715E-14-6.80400E-13
 -1       607 1.72032E+01-2.45059E+00 6.57813E-02-7.72251E+00-3.91583E-13-3.41220E-13
 -1       608 9.62083E+00 5.85847E-01 1.47079E-01-6.68651E+00-3.38098E-13-6.32432E-13
 -1       609 2.31578E+01 2.64266E-01-2.20284E-03 7.83163E-02-7.71844E-15-2.69306E-14
 -1       610 2.25892E+01-1.38495E-01 2.35035E-03-1.55201E+00-1.20638E-13-8.37451E-14
 -1       611 2.25185E+01 1.00467E+00-3.47220E-03 1.78723E+00 1.64932E-13 6.00946E-15
 -1       612 2.19220E+01 1.05860E+00-2.76711E-03 2.09106E+00 2.40304E-13 8.31658E-14
 -1       613 2.10253E+01 7.59982E-01 2.38212E-03 2.00357E+00 2.57908E-13 2.21357E-13
 -1       614 1.42571E+01 5.86049E-01 1.57642E-01 4.00097E+00 1.95156E-13-3.60434E-13
 -1       615 1.54417E+01 4.56872E-01 8.74067E-02-4.36389E+00 3.50018E-13 4.22499E-13
 -1       616 1.39307E+01 3.51224E+00 5.91724E-02 1.53392E+00-2.76031E-14-3.57268E-13
 -1       617 1.99997E+01-3.43109E-04-1.73415E-07-5.53217E-04 9.00960E-14-8.20399E-14
 -1       618 1.99999E+01-5.43529E-04-7.15235E-08-5.11574E-04 9.45424E-14-6.99215E-14
 -1       619 1.67736E+01 1.59270E+00 2.69219E-02-3.28496E+00 7.75872E-14 2.65126E-13
 -1       620 1.79438E+01 1.76550E+00 6.61579E-03-2.52416E+00 6.80147E-14 1.36376E-13
 -1       621 1.88063E+01 1.54724E+00 2.34199E-03-1.94895E+00-1.26040E-13-2.28012E-14
 -1       622 1.93758E+01 1.22166E+00 1.46776E-03-1.49350E+00-1.41958E-13-2.22738E-14
 -1       623 1.97219E+01 9.13244E-01 1.15564E-03-1.13074E+00 1.16784E-13 3.00826E-14
 -1       624 1.99169E+01 6.61985E-01 8.62404E-04-8.45798E-01 1.25986E-13 5.18291E-14
 -1       625 2.00173E+01 4.71738E-01 6.19295E-04-6.26251E-01 1.46733E-14 5.84283E-14
 -1       626 2.00615E+01 3.33275E-01 4.15967E-04-4.59705E-01 6.80402E-14 1.45665E-14
 -1       627 2.00751E+01 2.30605E-01 2.80380E-04-3.29940E-01 4.56136E-15 5.37843E-14
 -1       628 2.00722E+01 1.62503E-01 1.91653E-04-2.39019E-01 5.46360E-14-1.04059E-13
 -1       629 2.00626E+01 1.14641E-01 1.28958E-04-1.71828E-01 1.71553E-13-3.49940E-14
 -1       630 2.00509E+01 8.10165E-02 8.83591E-05-1.22461E-01-1.73924E-13 2.92669E-14
 -1       631 2.00396E+01 5.72973E-02 6.07328E-05-8.63207E-02-9.01581E-14-2.54267E-13
 -1       632 2.00296E+01 4.04759E-02 4.17203E-05-5.99747E-02-2.37468E-13-2.87597E-13
 -1       633 2.00215E+01 2.84818E-02 2.85413E-05-4.08763E-02-5.14020E-14-4.66607E-13
 -1       634 2.00150E+01 1.98931E-02 1.93805E-05-2.71377E-02-2.89609E-13-5.31349E-13
 -1       635 2.00101E+01 1.37293E-02 1.29964E-05-1.73572E-02 1.03650E-13-4.03875E-13
 -1       636 2.00065E+01 9.30783E-03 8.54344E-06-1.04912E-02-1.44186E-13-2.19594E-13
 -1       637 2.00039E+01 6.14857E-03 5.44458E-06-5.76082E-03-2.65661E-13-2.29246E-13
 -1       638 2.00020E+01 3.90877E-03 3.30257E-06-2.58371E-03-8.20600E-14-1.13886E-13
 -1       639 2.00008E+01 2.34058E-03 1.84038E-06-5.24404E-04 3.37646E-13-3.02758E-14
 -1       640 2.00000E+01 1.26257E-03 8.62115E-07 7.41888E-04 4.35398E-13 7.53762E-14
 -1       641 1.99995E+01 5.40660E-04 2.27488E-07 1.45619E-03 6.45236E-13-2.29496E-14
 -1       642 1.99992E+01 7.51585E-05-1.64958E-07 1.79594E-03 6.10387E-13 3.74373E-14
 -1       643 1.99991E+01-2.08239E-04-3.89036E-07 1.89029E-03 1.95538E-13 2.81980E-13
 -1       644 1.99991E+01-3.64855E-04-4.98553E-07 1.83182E-03-2.90110E-13-5.49787E-15
 -1       645 1.99991E+01-4.35732E-04-5.32844E-07 1.68552E-03-1.57437E-13-1.19223E-14
 -1       646 1.99992E+01-4.51157E-04-5.20928E-07 1.49574E-03 6.64140E-14 2.81885E-13
 -1       647 1.99993E+01-4.33367E-04-4.82758E-07 1.29143E-03 3.59667E-13 8.93338E-13
 -1       648 1.99994E+01-3.98598E-04-4.28767E-07 1.09028E-03-1.54394E-14 6.35822E-13
 -1       649 1.99995E+01-3.58770E-04-3.86234E-07 9.01906E-04-2.78888E-14 4.74275E-13
 -1       650 1.99995E+01-3.22862E-04-3.74182E-07 7.29790E-04 1.40770E-14 4.06845E-13
 -1       651 1.99996E+01-2.96759E-04-2.53776E-07 5.73516E-04-1.47022E-13 6.13116E-13
 -1       652 2.07566E+01 1.01545E+00 8.35336E-04 1.21341E+00 1.83914E-13 1.52364E-13
 -1       653 2.04614E+01 1.28387E+00 8.59467E-04 6.00182E-01 1.94117E-13 1.21840E-13
 -1       654 2.11041E+01 7.29224E-01 5.63203E-04 1.63230E+00 1.59283E-13 1.48298E-13
 -1       655 2.03672E+01 1.11249E+00 5.36903E-04-8.11679E-01 1.76631E-13 3.94534E-14
 -1       656 2.05462E+01 6.62352E-01 3.21740E-04-1.27506E+00 1.42348E-13-1.28236E-14
 -1       657 2.07518E+01 1.49398E-01 2.34809E-04-1.44521E+00 7.75914E-14-4.65014E-14
 -1       658 2.08911E+01-2.74816E-01-2.83825E-05-1.35421E+00 1.88560E-14-1.75237E-14
 -1       659 2.09247E+01-5.30913E-01-1.87458E-04-1.10056E+00-2.69613E-14 2.13604E-14
 -1       660 2.08642E+01-6.19171E-01-3.94271E-04-7.87015E-01 4.68343E-14-1.30030E-14
 -1       661 2.07447E+01-5.83102E-01-3.83999E-04-4.88700E-01 8.37715E-14-3.95633E-14
 -1       662 2.06034E+01-4.78585E-01-3.34750E-04-2.45228E-01 9.36641E-14-1.00867E-13
 -1       663 2.04669E+01-3.51676E-01-2.54554E-04-6.81798E-02-3.30889E-14 6.21464E-14
 -1       664 2.03493E+01-2.31899E-01-1.79350E-04 4.72161E-02-9.60799E-14 1.25539E-13
 -1       665 2.02553E+01-1.33787E-01-1.12082E-04 1.12896E-01-4.55578E-14 7.79015E-14
 -1       666 2.01839E+01-6.13914E-02-6.00863E-05 1.42288E-01-1.44062E-13-9.04185E-15
 -1       667 2.01314E+01-1.27991E-02-2.37850E-05 1.47431E-01-2.12177E-13-1.11103E-14
 -1       668 2.00936E+01 1.65255E-02-5.24159E-07 1.37911E-01-1.22813E-14 4.65628E-14
 -1       669 2.00668E+01 3.16851E-02 1.25515E-05 1.20733E-01-7.03913E-14 2.16246E-13
 -1       670 2.00477E+01 3.72674E-02 1.83830E-05 1.00647E-01 2.86752E-13 1.86983E-13
 -1       671 2.00341E+01 3.69168E-02 1.96820E-05 8.06331E-02 1.73210E-13 7.82944E-14
 -1       672 2.00244E+01 3.32935E-02 1.84095E-05 6.23781E-02 1.45885E-13 8.50631E-14
 -1       673 2.00174E+01 2.82048E-02 1.58631E-05 4.66823E-02 2.58053E-13 9.97571E-14
 -1       674 2.00122E+01 2.27898E-02 1.28977E-05 3.37720E-02-1.09276E-14 1.25139E-13
 -1       675 2.00085E+01 1.77021E-02 1.00085E-05 2.35321E-02-1.53710E-13 2.27550E-13
 -1       676 2.00057E+01 1.32655E-02 7.44887E-06 1.56684E-02-1.63008E-13 5.95408E-14
 -1       677 2.00037E+01 9.59369E-03 5.31906E-06 9.81277E-03-6.52973E-14 3.83972E-14
 -1       678 2.00022E+01 6.67661E-03 3.62904E-06 5.58833E-03 1.18237E-13 1.10202E-13
 -1       679 2.00012E+01 4.43886E-03 2.34055E-06 2.64572E-03 1.50550E-13-1.84141E-13
 -1       680 2.00005E+01 2.77727E-03 1.39393E-06 6.80813E-04 3.60569E-14 1.22774E-13
 -1       681 2.00000E+01 1.58345E-03 7.24286E-07-5.59583E-04-7.09767E-14 2.26701E-13
 -1       682 1.99997E+01 7.56214E-04 2.70316E-07-1.27893E-03 1.04314E-14 4.77578E-14
 -1       683 1.99995E+01 2.07414E-04-2.14247E-08-1.63588E-03 1.19838E-13 8.69465E-14
 -1       684 1.99994E+01-1.36139E-04-1.95113E-07-1.75077E-03 1.32002E-13 1.00547E-13
 -1       685 1.99994E+01-3.33110E-04-2.85761E-07-1.71239E-03-3.88763E-14 2.74634E-13
 -1       686 1.99994E+01-4.29217E-04-3.20770E-07-1.58430E-03-1.64640E-13 3.06298E-13
 -1       687 1.99994E+01-4.59286E-04-3.24077E-07-1.41047E-03 1.74012E-13 9.40318E-14
 -1       688 1.99995E+01-4.49393E-04-3.13588E-07-1.21986E-03 2.69814E-13-1.21702E-13
 -1       689 1.99995E+01-4.18768E-04-3.89861E-07-1.03037E-03 5.02298E-14-1.89277E-13
 -1       690 1.99996E+01-3.81890E-04-5.53393E-07-8.53850E-04 3.42132E-14-1.00452E-13
 -1       691 1.99996E+01-3.59079E-04-3.59832E-07-6.97859E-04-9.43674E-14-1.32335E-13
 -1       692 2.00001E+01-7.31631E-04 1.64653E-07-2.70061E-04-8.21637E-14-8.27812E-15
 -1       693 2.00000E+01-6.51994E-04-1.22812E-07-4.12995E-04-1.59477E-13 3.81132E-13
 -1       694 2.03207E+01 1.34205E+00 9.82283E-04-1.31984E-01 2.02273E-13 6.43475E-14
 -1       695 2.00002E+01-7.73805E-04 1.47400E-07 9.45578E-05-2.24903E-13 5.52520E-14
 -1       696 2.00001E+01-7.33889E-04 1.15295E-07 2.68739E-04-2.32886E-13 7.44994E-14
 -1       697 2.00000E+01-6.55120E-04 8.56703E-08 4.14155E-04-7.57555E-14-6.53220E-13
 -1       698 1.99999E+01-5.44368E-04 1.70438E-07 5.09462E-04-3.02220E-13-2.01160E-13
 -1       699 1.99998E+01-4.10858E-04-1.24573E-07 5.40110E-04-3.21980E-13 1.51471E-13
 -1       700 1.53556E+01-1.61714E+00 1.48274E-01-5.52123E+00 5.08062E-13 3.91485E-13
 -1       701 2.06864E+01-1.11652E-01 8.25805E-03-3.60508E+00-2.44409E-13-1.79094E-13
 -1       702 2.92536E+01-4.96516E-01-8.85221E-02-7.60275E-01 2.69923E-13-5.73284E-13
 -1       703 2.00002E+01-7.73302E-04 1.69978E-07-9.32500E-05 1.47034E-13-1.62334E-13
 -1       704 1.14401E+01-8.25966E-01 1.31733E-01 5.86851E+00-4.94084E-13 5.47173E-13
 -1       705 1.69942E+01 1.07649E+00 4.21756E-02-5.16780E+00-3.26206E-13-2.92263E-13
 -1       706 2.76977E+01-1.93573E+00-3.96008E-02-1.43179E+00-8.10305E-14 1.53818E-13
 -1       707 1.68987E+01-3.31995E+00 8.98008E-02 7.14952E+00-4.97297E-13 2.02952E-13
 -1       708 2.29992E+01 7.15941E-01-3.37092E-03 1.15749E+00 1.14724E-13-8.68272E-15
 -1       709 1.26887E+01 2.78393E+00 7.07528E-02-5.08547E+00-3.07160E-13-4.61121E-13
 -1       710 2.72312E+01 6.87055E+00-1.45929E-01 4.81573E-01 6.20635E-13-4.36442E-14
 -1       711 2.76177E+01 6.53185E+00-1.45355E-01-9.64181E-01 6.17666E-13-2.30953E-13
 -1       712 2.89250E+01 3.79225E-01-8.60982E-02 9.61590E-01 1.48609E-13 2.54016E-13
 -1       713 2.54421E+01-2.83598E+00 1.12201E-02-3.70199E+00-2.30536E-13 2.35922E-14
 -1       714 7.74271E+00 2.81490E+00 2.25332E-01-3.08523E+00-1.91437E-13-6.55385E-13
 -1       715 2.85670E+01 4.21858E+00-1.17115E-01 2.18148E+00 4.48620E-13 2.34639E-13
 -1       716 2.88070E+01 3.29642E+00-1.23697E-01-1.96887E+00 4.66314E-13-4.92009E-13
 -1       717 2.28604E+01-4.73170E+00 3.57955E-02 5.69448E+00-4.33237E-13-7.42611E-14
 -1       718 1.01136E+01 4.70422E-01 1.72093E-01-3.33180E+00 3.60812E-13 5.76719E-13
 -1       719 2.12842E+01 6.35182E-01 5.83787E-04 1.89214E+00 2.22192E-13 1.39976E-13
 -1       720 1.06765E+01 9.75585E-01 1.09314E-01 3.41380E+00-3.58088E-13 4.60323E-13
 -1       721 1.43774E+01-4.32671E-01 9.68350E-02-7.20662E+00-4.19088E-13-4.48835E-13
 -1       722 9.83166E+00 2.65838E+00 1.36850E-01-4.89158E+00-2.85948E-13-5.93550E-13
 -1       723 2.24861E+01-2.64767E+00 5.31008E-02-5.41579E+00-3.40252E-13-6.94778E-14
 -1       724 2.62908E+01 5.40356E+00-8.12350E-02 1.62884E+00 4.77528E-13 1.23894E-13
 -1       725 1.05754E+01 4.41238E+00 7.89956E-02-2.68538E+00-2.13145E-13-5.24858E-13
 -1       726 2.23734E+01 7.97566E-01-2.10910E-03 2.00580E+00 1.67392E-13 1.28592E-13
 -1       727 2.00003E+01-8.05170E-04 9.58674E-08-2.22691E-04 2.47425E-13 3.20986E-13
 -1       728 2.68759E+01 1.73132E+00-5.22292E-02 2.10509E+00 1.96987E-13 2.71131E-13
 -1       729 1.52273E+01 2.20788E+00 1.57617E-02-1.54838E+00-1.32145E-14 2.13690E-13
 -1       730 1.69108E+01 2.01244E+00 3.13749E-03-1.30498E+00-1.36464E-13 8.31642E-14
 -1       731 1.80582E+01 1.65217E+00 3.60918E-04-1.10424E+00-1.31458E-13 5.30240E-15
 -1       732 1.88123E+01 1.28259E+00 2.48872E-04-9.19636E-01-2.90361E-14 6.96255E-14
 -1       733 1.92956E+01 9.62031E-01 2.28237E-04-7.47661E-01 1.38711E-13-6.23118E-15
 -1       734 1.95976E+01 7.06446E-01 1.96781E-04-5.94133E-01 1.20261E-13 4.50292E-14
 -1       735 1.97814E+01 5.12209E-01 1.50053E-04-4.62857E-01-2.90306E-14 1.50009E-14
 -1       736 1.98938E+01 3.62965E-01 9.14201E-05-3.50220E-01-5.63993E-14-1.22162E-14
 -1       737 1.99539E+01 2.60840E-01 7.48296E-05-2.64837E-01-7.81412E-16 5.91158E-14
 -1       738 1.99865E+01 1.87257E-01 4.90981E-05-1.97644E-01 2.38037E-13 1.14478E-13
 -1       739 2.00029E+01 1.34437E-01 3.48621E-05-1.45676E-01 2.83478E-14-3.79006E-14
 -1       740 2.00102E+01 9.64906E-02 2.45914E-05-1.05954E-01-2.80380E-13 2.46253E-14
 -1       741 2.00124E+01 6.91468E-02 1.72053E-05-7.59099E-02-1.98717E-13-1.66618E-14
 -1       742 2.00121E+01 4.93715E-02 1.19431E-05-5.34197E-02-1.54611E-13 6.81158E-15
 -1       743 2.00106E+01 3.50260E-02 8.21515E-06-3.67661E-02-2.00929E-13-5.19822E-14
 -1       744 2.00088E+01 2.46028E-02 5.58352E-06-2.45835E-02-2.69646E-13-2.87309E-14
 -1       745 2.00070E+01 1.70337E-02 3.72927E-06-1.57976E-02 1.53587E-13-1.06844E-13
 -1       746 2.00053E+01 1.15554E-02 2.42717E-06-9.56949E-03-1.41319E-13-3.20930E-14
 -1       747 2.00040E+01 7.61642E-03 1.51888E-06-5.24845E-03-1.79055E-13 8.92894E-14
 -1       748 2.00029E+01 4.81340E-03 8.92388E-07-2.33260E-03 8.59846E-16 4.51776E-14
 -1       749 2.00020E+01 2.84831E-03 4.67667E-07-4.37623E-04 3.74510E-13-2.49126E-13
 -1       750 2.00014E+01 1.49898E-03 1.87029E-07 7.28333E-04 5.91232E-13-1.96066E-13
 -1       751 2.00009E+01 5.98759E-04 8.57474E-09 1.38474E-03 5.99985E-13-2.39594E-13
 -1       752 2.00005E+01 2.24133E-05-9.82768E-08 1.69464E-03 6.52767E-13-4.01115E-13
 -1       753 2.00003E+01-3.24132E-04-1.55841E-07 1.77742E-03-8.72544E-15-1.25804E-13
 -1       754 2.00001E+01-5.11268E-04-1.80264E-07 1.71893E-03-1.84231E-13 1.38058E-13
 -1       755 2.00000E+01-5.91380E-04-1.83732E-07 1.57950E-03-6.26107E-14 3.78547E-14
 -1       756 1.99999E+01-6.03212E-04-1.76586E-07 1.40024E-03 4.37137E-13 1.57803E-13
 -1       757 1.99998E+01-5.75215E-04-1.65259E-07 1.20788E-03-7.94315E-14 8.32029E-14
 -1       758 1.99998E+01-5.28100E-04-9.17471E-08 1.01849E-03 1.15812E-13 1.20114E-13
 -1       759 1.99998E+01-4.76811E-04-1.28234E-07 8.41677E-04 1.17855E-13 3.38986E-13
 -1       760 1.99998E+01-4.38692E-04-2.74983E-07 6.84228E-04 6.47969E-14 4.76726E-13
 -1       761 2.00002E+01-7.45416E-04 1.98660E-08 4.17987E-04-4.00962E-13-2.49333E-13
 -1       762 2.15941E+01 1.73520E+00-1.99796E-04 1.19775E+00 1.95622E-13 6.99974E-14
 -1       763 2.19266E+01 1.20485E+00-5.60869E-04 1.73641E+00 1.95744E-13 8.75990E-14
 -1       764 2.16505E+01 5.28279E-01-8.29992E-04-1.56440E+00 1.06146E-13 5.41127E-14
 -1       765 2.14392E+01 1.34139E+00-4.86894E-04-1.24386E+00 1.53730E-13 1.13689E-15
 -1       766 2.17078E+01-6.94433E-01 1.14883E-04-1.19791E+00-3.20666E-14-9.31110E-14
 -1       767 2.15056E+01-8.98544E-01-4.55626E-04-8.11727E-01 6.79196E-14-1.63598E-13
 -1       768 2.12246E+01-8.84442E-01-2.29232E-04-4.52823E-01 5.82220E-14-1.43325E-13
 -1       769 2.09302E+01-7.44928E-01-1.57494E-04-1.74482E-01 5.33663E-14-7.79462E-14
 -1       770 2.06671E+01-5.58766E-01-8.24538E-05 1.49629E-02-1.07462E-13 9.18923E-14
 -1       771 2.04551E+01-3.76597E-01-6.04050E-05 1.28223E-01-7.65662E-14 6.75701E-14
 -1       772 2.02968E+01-2.24084E-01-3.72238E-05 1.84475E-01-1.19265E-13 7.35244E-14
 -1       773 2.01858E+01-1.09417E-01-1.90970E-05 2.02095E-01-1.11911E-13 1.84566E-13
 -1       774 2.01118E+01-3.08154E-02-7.49649E-06 1.95799E-01-1.65484E-13 2.18784E-13
 -1       775 2.00650E+01 1.79814E-02 3.76605E-07 1.76314E-01-1.44518E-13 1.13401E-13
 -1       776 2.00366E+01 4.44378E-02 4.76937E-06 1.50944E-01-1.19136E-13 1.89358E-13
 -1       777 2.00204E+01 5.54804E-02 6.30654E-06 1.24315E-01 5.58908E-14 7.56413E-14
 -1       778 2.00115E+01 5.67145E-02 6.27738E-06 9.91247E-02 1.61192E-13 2.43273E-13
 -1       779 2.00070E+01 5.23053E-02 5.61317E-06 7.67840E-02 1.54519E-13 3.33870E-13
 -1       780 2.00048E+01 4.51493E-02 4.65534E-06 5.78576E-02 1.81972E-13 2.08643E-13
 -1       781 2.00038E+01 3.71227E-02 3.67117E-06 4.23858E-02 3.54538E-14 4.31202E-13
 -1       782 2.00034E+01 2.93434E-02 2.77894E-06 3.01124E-02-9.65337E-14 3.43256E-13
 -1       783 2.00031E+01 2.24018E-02 2.02432E-06 2.06370E-02 2.12061E-14 2.39300E-13
 -1       784 2.00028E+01 1.65438E-02 1.41651E-06 1.35100E-02-1.97797E-13 1.90720E-13
 -1       785 2.00026E+01 1.18050E-02 9.45942E-07 8.29084E-03-6.34943E-15 9.65830E-14
 -1       786 2.00022E+01 8.10399E-03 5.94289E-07 4.57840E-03 2.75942E-13-6.76607E-14
 -1       787 2.00019E+01 5.30338E-03 3.40429E-07 2.02580E-03-9.65367E-14-9.37145E-14
 -1       788 2.00016E+01 3.24825E-03 1.63831E-07 3.44013E-04-9.12282E-14-3.87128E-14
 -1       789 2.00012E+01 1.78808E-03 4.62471E-08-7.00538E-04-1.79765E-14-4.54502E-14
 -1       790 2.00009E+01 7.88081E-04-2.76595E-08-1.29170E-03 1.28142E-13-7.96049E-14
 -1       791 2.00007E+01 1.33852E-04-7.02084E-08-1.57067E-03 9.21437E-14-8.22190E-14
 -1       792 2.00005E+01-2.68004E-04-9.07560E-08-1.64330E-03-8.99082E-14 1.91186E-14
 -1       793 2.00003E+01-4.91462E-04-9.53954E-08-1.58697E-03-1.85432E-13-3.52118E-14
 -1       794 2.00002E+01-5.93690E-04-8.94503E-08-1.45660E-03 2.28737E-14-1.07238E-13
 -1       795 2.00000E+01-6.17955E-04-8.11954E-08-1.28982E-03 2.85050E-13-1.77104E-15
 -1       796 2.00000E+01-5.96575E-04-1.90013E-07-1.11141E-03 1.57890E-13-1.04622E-14
 -1       797 1.99999E+01-5.53975E-04 6.26485E-07-9.34306E-04 9.94435E-14-2.19115E-13
 -1       798 2.00004E+01-8.28388E-04 7.50462E-08-6.20640E-08 1.26127E-13-4.71831E-13
 -1       799 1.29582E+01 1.87258E+00 6.40243E-02-2.16038E+00 8.99242E-14 2.94294E-13
 -1       800 2.38767E+01-1.41307E+00-3.72812E-03-2.25264E+00-2.10880E-13-1.91069E-15
 -1       801 2.00001E+01-6.43618E-04 6.14093E-08 5.68361E-04-4.19381E-14-2.20248E-13
 -1       802 2.00003E+01-8.07822E-04 8.61517E-08 2.20770E-04-1.78998E-13 1.10043E-13
 -1       803 1.99999E+01-5.46971E-04-2.78122E-07 6.48834E-04-3.40497E-14-3.28411E-13
 -1       804 2.55959E+01-1.86330E+00-1.35708E-02-1.59698E+00-1.75465E-13 8.83820E-14
 -1       805 2.00000E+01-5.74594E-04 3.96542E-07-6.47751E-04-3.17736E-14-6.27515E-14
 -1       806 2.70561E+01 6.56139E-01-5.07127E-02-1.81854E+00 1.64256E-13-4.64968E-13
 -1       807 2.60926E+01 4.04148E+00-6.83383E-02-1.82734E+00 4.06522E-13-3.44228E-13
 -1       808 2.51221E+01 5.37762E+00-7.35264E-02-3.53756E-01 4.35775E-13-6.68124E-14
 -1       809 1.57393E+01-1.41280E+00 6.29194E-02 5.75961E+00-4.37496E-13 3.92244E-13
 -1       810 2.68855E+01-8.67232E-01-3.42338E-02 3.50990E-01-3.72081E-14 1.95097E-13
 -1       811 2.20986E+01 7.94136E-01 9.71295E-04 1.98278E+00 1.84926E-13 1.53259E-13
 -1       812 2.17630E+01-2.10791E-01-5.22419E-04-1.50420E+00 2.02188E-14 2.18698E-14
 -1       813 2.53544E+01-4.14511E+00 5.73394E-03 3.06756E+00-3.11056E-13-2.44028E-13
 -1       814 2.73412E+01-2.50392E+00-3.55607E-02 2.00263E-01-1.90052E-14-6.01097E-13
 -1       815 2.44849E+01-6.59247E-01-1.07575E-03-8.75396E-02-6.68248E-14 5.22033E-14
 -1       816 1.11152E+01 1.91131E+00 8.67845E-02-1.02524E+00-4.10987E-14 4.80491E-13
 -1       817 2.05388E+01-3.43652E+00 2.76741E-02 5.48727E+00-3.85785E-13 1.02435E-13
 -1       818 1.39941E+01 2.82851E-01 5.79787E-02 4.30782E+00-2.87649E-13 5.35075E-13
 -1       819 2.53643E+01 3.29596E+00-3.67800E-02 2.20741E+00 2.83846E-13 2.06927E-13
 -1       820 2.13354E+01 2.06835E+00 1.56089E-03 3.70086E-01 2.60688E-13 5.36938E-14
 -1       821 1.20999E+01 2.02043E+00 5.98911E-02 8.54081E-01-2.31164E-13 3.35168E-13
 -1       822 2.12902E+01 1.92934E+00 1.06837E-03-5.36649E-01 2.53690E-13 3.00567E-14
 -1       823 2.32204E+01 6.33945E-01-2.37880E-03 1.78424E+00 1.40033E-13 2.06642E-14
 -1       824 2.00000E+01-5.66066E-04 6.28454E-07-7.87656E-04-2.74922E-15-1.84335E-13
 -1       825 2.00002E+01-7.41803E-04 8.66157E-08-4.21498E-04-1.60538E-13 6.24954E-14
 -1       826 2.44643E+01 4.87854E+00-3.60699E-02 7.67112E-01 4.00751E-13 1.08766E-13
 -1       827 2.40104E+01 1.48561E-01-1.88318E-03 1.16877E+00 5.91918E-14 7.99993E-14
 -1       828 1.68738E+01 1.82969E+00 7.08802E-04-1.24665E-01-1.76113E-13 3.04175E-13
 -1       829 1.79336E+01 1.49798E+00-2.18462E-04-2.94038E-01-1.18142E-13 2.30175E-13
 -1       830 1.86516E+01 1.17822E+00-1.19029E-04-3.60922E-01-2.23010E-14 1.53314E-13
 -1       831 1.91317E+01 9.02063E-01-7.64023E-05-3.64118E-01 1.16449E-13 8.89732E-14
 -1       832 1.94492E+01 6.78167E-01-1.12965E-05-3.32451E-01 8.32012E-14-3.55403E-14
 -1       833 1.96640E+01 4.96786E-01-2.22608E-05-2.83402E-01-1.09271E-13-6.59524E-14
 -1       834 1.97941E+01 3.67009E-01 8.26501E-06-2.33443E-01 1.86229E-13-1.63353E-14
 -1       835 1.98768E+01 2.69969E-01 1.96267E-07-1.86292E-01 7.04842E-14-9.49875E-14
 -1       836 1.99286E+01 1.98046E-01 1.57994E-06-1.45028E-01-6.88266E-14-2.60395E-13
 -1       837 1.99606E+01 1.44954E-01 1.55287E-06-1.10466E-01-7.11992E-14-1.86385E-13
 -1       838 1.99800E+01 1.05775E-01 1.05831E-06-8.24157E-02-5.04368E-14-9.80169E-14
 -1       839 1.99915E+01 7.68394E-02 6.59974E-07-6.02138E-02-6.81244E-14 1.38078E-13
 -1       840 1.99981E+01 5.54538E-02 4.20612E-07-4.30061E-02-3.21146E-13 1.33574E-13
 -1       841 2.00017E+01 3.96507E-02 2.76177E-07-2.99208E-02-2.04541E-13 9.10523E-14
 -1       842 2.00034E+01 2.79929E-02 1.81539E-07-2.01540E-02 9.29974E-16 1.44293E-13
 -1       843 2.00041E+01 1.94264E-02 1.15484E-07-1.30042E-02-7.75033E-14-3.27643E-15
 -1       844 2.00041E+01 1.31721E-02 6.84634E-08-7.88095E-03-1.14322E-13 4.96435E-14
 -1       845 2.00038E+01 8.64914E-03 3.52929E-08-4.30028E-03-4.74460E-14 2.66108E-13
 -1       846 2.00034E+01 5.42084E-03 1.24988E-08-1.87337E-03 7.54759E-14 3.89116E-13
 -1       847 2.00029E+01 3.15670E-03-2.52805E-09-2.93494E-04 4.28791E-13 8.15070E-14
 -1       848 2.00024E+01 1.60551E-03-1.18327E-08 6.77349E-04 6.05065E-13-3.24290E-13
 -1       849 2.00019E+01 5.76088E-04-1.70682E-08 1.22083E-03 7.34506E-13-1.71732E-13
 -1       850 2.00015E+01-7.68273E-05-1.96188E-08 1.47326E-03 6.37379E-13-4.97260E-13
 -1       851 2.00011E+01-4.63125E-04-2.05556E-08 1.53507E-03 1.19527E-15-2.76595E-13
 -1       852 2.00008E+01-6.65388E-04-2.00485E-08 1.47871E-03-1.92695E-13 1.62552E-14
 -1       853 2.00006E+01-7.45223E-04-2.13208E-08 1.35513E-03 1.12195E-13 5.54402E-14
 -1       854 2.00004E+01-7.48367E-04-2.66962E-08 1.19904E-03 1.59107E-13-2.59626E-13
 -1       855 2.00002E+01-7.07755E-04-5.21767E-08 1.03273E-03 1.21665E-13 4.00412E-15
 -1       856 2.00001E+01-6.49078E-04-6.51034E-08 8.70109E-04 2.78647E-13 2.54575E-14
 -1       857 2.00000E+01-5.95262E-04-3.11523E-07 7.56919E-04-1.42020E-14-2.89517E-13
 -1       858 2.30764E+01-3.41619E+00 1.02371E-02 3.36831E+00-2.72344E-13-8.08190E-14
 -1       859 2.18108E+01-1.23811E+00-3.64203E-04-2.86189E-01 2.34812E-14-6.59779E-14
 -1       860 2.22936E+01-1.21247E+00-8.08832E-04-7.34347E-01 6.70029E-14-5.79273E-14
 -1       861 2.09024E+01-7.94340E-01 5.89812E-05 2.08861E-01-1.06084E-13 5.56930E-14
 -1       862 2.05751E+01-5.36976E-01 5.99475E-06 2.94534E-01-5.82747E-14 5.96815E-14
 -1       863 2.03400E+01-3.21073E-01-6.21355E-06 3.16030E-01-1.39079E-13 1.09176E-13
 -1       864 2.01823E+01-1.58596E-01-6.63611E-06 3.00568E-01-1.36413E-13 1.00806E-13
 -1       865 2.00834E+01-4.68249E-02-4.97330E-06 2.66698E-01-1.98876E-13 1.33597E-13
 -1       866 2.00260E+01 2.31127E-02-1.70104E-07 2.26004E-01-1.76382E-13 1.39780E-13
 -1       867 1.99961E+01 6.15809E-02 2.81067E-06 1.85208E-01-1.06357E-13 1.35841E-13
 -1       868 1.99832E+01 7.82470E-02 3.28866E-06 1.47843E-01-9.70513E-14 1.96034E-13
 -1       869 1.99800E+01 8.09387E-02 2.43027E-06 1.15357E-01-5.24137E-15 2.94291E-13
 -1       870 1.99819E+01 7.54289E-02 1.73981E-06 8.81308E-02 4.88543E-14 4.06413E-13
 -1       871 1.99858E+01 6.57875E-02 1.13704E-06 6.59527E-02 1.43482E-13 5.63930E-13
 -1       872 1.99901E+01 5.46864E-02 7.09555E-07 4.82992E-02 8.61773E-14 4.21604E-13
 -1       873 1.99940E+01 4.37454E-02 4.19029E-07 3.45306E-02-7.69385E-14 1.83961E-13
 -1       874 1.99971E+01 3.38473E-02 2.24716E-07 2.39979E-02-5.85046E-14 3.04069E-13
 -1       875 1.99994E+01 2.53868E-02 9.82348E-08 1.60967E-02 1.53072E-14 3.17137E-13
 -1       876 2.00009E+01 1.84551E-02 1.94657E-08 1.02911E-02-7.48226E-14 5.62867E-14
 -1       877 2.00019E+01 1.29688E-02-2.63995E-08 6.12289E-03 2.29255E-13-4.65048E-14
 -1       878 2.00023E+01 8.75705E-03-5.02600E-08 3.21033E-03-3.47304E-14 2.11391E-13
 -1       879 2.00024E+01 5.61576E-03-5.99659E-08 1.24239E-03 3.68512E-14 3.89553E-14
 -1       880 2.00023E+01 3.34083E-03-6.10239E-08-2.92643E-05-8.89191E-15-5.36390E-14
 -1       881 2.00021E+01 1.74560E-03-5.72131E-08-7.99249E-04 8.80482E-14 9.18374E-15
 -1       882 2.00018E+01 6.68905E-04-5.10910E-08-1.21728E-03 1.30088E-14 8.04757E-14
 -1       883 2.00015E+01-2.27894E-05-4.42286E-08-1.39634E-03-6.44192E-14 1.54514E-13
 -1       884 2.00012E+01-4.36704E-04-3.65706E-08-1.41996E-03-2.00333E-14 1.36434E-13
 -1       885 2.00009E+01-6.56723E-04-2.34291E-08-1.34847E-03 8.45889E-14-4.89183E-14
 -1       886 2.00007E+01-7.47108E-04-3.41946E-09-1.22421E-03 1.29669E-13-3.58760E-13
 -1       887 2.00005E+01-7.56013E-04-9.01540E-08-1.07620E-03 1.95718E-13-3.48313E-13
 -1       888 2.00003E+01-7.20747E-04-2.61904E-07-9.22959E-04 4.32001E-15-5.14935E-14
 -1       889 2.00006E+01-8.86804E-04 3.78664E-08-1.34227E-04-3.02882E-13-2.48354E-13
 -1       890 2.49446E+01 1.69501E+00-2.64685E-02-1.99777E+00 2.39932E-13-2.57969E-13
 -1       891 2.00003E+01-7.57744E-04 3.19354E-07 5.95613E-04-8.15147E-14 6.55028E-14
 -1       892 2.13225E+01-1.05400E+00-1.30561E-04 2.56486E-02-4.77858E-15 2.70099E-14
 -1       893 2.26308E+01 1.19204E+00-2.45550E-03-1.67320E+00 1.39224E-13-6.56527E-14
 -1       894 2.28002E+01 1.93184E+00-5.16505E-03 1.80509E+00 2.12557E-13 9.28347E-14
 -1       895 1.52771E+01 2.12790E+00 1.18870E-02 1.92584E-01 1.96176E-14 1.16095E-13
 -1       896 2.40719E+01 3.66562E+00-2.80263E-02-1.24953E+00 2.48582E-13-8.05586E-14
 -1       897 2.55101E+01-3.12985E+00-7.71132E-03 1.09141E+00-1.71207E-13-3.93361E-13
 -1       898 2.59538E+01-1.32352E+00-1.78021E-02-1.01306E+00 3.49451E-14-4.00780E-13
 -1       899 1.87861E+01-1.80818E+00 1.62036E-02 4.68263E+00-3.81409E-13 1.98183E-13
 -1       900 1.29642E+01 2.20566E+00 4.68783E-02-3.63346E-01-5.29189E-14 2.01481E-13
 -1       901 2.53526E+01 2.44301E-01-1.04420E-02 1.54340E+00 5.57809E-14 1.65687E-13
 -1       902 1.69740E+01-4.31209E-01 2.04527E-02 4.09376E+00-2.31444E-13 2.38021E-13
 -1       903 2.46078E+01 1.35650E+00-1.63903E-02 2.16824E+00 1.50611E-13 1.54184E-13
 -1       904 1.37616E+01 1.56012E+00 1.30555E-02 2.22492E+00-3.07709E-13 5.92456E-13
 -1       905 2.23889E+01 2.32927E+00-3.53451E-03-1.10526E+00 2.04260E-13-4.41966E-14
 -1       906 2.00003E+01-7.64337E-04-2.61276E-08-5.61898E-04-1.09000E-13 9.86641E-14
 -1       907 2.26482E+01-8.57306E-01-1.19599E-03-1.22464E+00 4.45382E-14-7.58463E-14
 -1       908 2.00006E+01-8.89299E-04 9.95652E-08 1.29389E-04-2.36361E-13-5.80574E-13
 -1       909 2.00005E+01-8.44957E-04 1.10833E-07 3.82942E-04-2.99448E-13-1.25921E-13
 -1       910 2.00005E+01-8.41780E-04-4.12236E-08-3.62975E-04-8.13031E-14 3.91296E-13
 -1       911 2.34080E+01 3.94333E+00-2.03658E-02-3.20119E-01 3.00242E-13-1.30692E-14
 -1       912 2.24820E+01 2.71518E+00-3.35644E-03 1.06801E+00 2.63035E-13 1.91665E-14
 -1       913 2.30131E+01 1.01316E+00 1.88719E-03 2.03834E+00 1.68914E-13 6.39117E-14
 -1       914 2.27876E+01 1.56370E-02 2.82373E-03-1.64428E+00 8.24965E-14-7.84110E-14
 -1       915 2.31914E+01 7.77557E-01 2.72035E-03 1.96185E+00 1.44288E-13 1.33831E-14
 -1       916 1.82372E+01 1.17723E+00 1.57907E-04 2.62852E-01-9.84957E-14 3.39821E-13
 -1       917 1.87860E+01 9.62058E-01-1.91375E-04 4.49052E-02 1.24031E-14 1.88404E-13
 -1       918 1.91737E+01 7.62768E-01-7.33468E-05-7.00301E-02-3.64331E-14-3.55433E-14
 -1       919 1.94544E+01 5.85189E-01-4.97236E-05-1.22776E-01-3.20602E-14-1.70588E-13
 -1       920 1.96366E+01 4.48864E-01-1.57051E-05-1.35427E-01 3.61889E-14-1.53351E-14
 -1       921 1.97608E+01 3.41131E-01-2.06460E-05-1.28299E-01 4.57049E-14-2.80317E-14
 -1       922 1.98449E+01 2.57328E-01-1.62345E-05-1.12072E-01-1.89243E-14-1.42135E-13
 -1       923 1.99011E+01 1.93069E-01-1.32430E-05-9.28481E-02-1.27383E-14-2.28837E-14
 -1       924 1.99386E+01 1.44037E-01-1.10313E-05-7.38945E-02-1.43829E-13 5.22321E-14
 -1       925 1.99632E+01 1.06761E-01-8.73154E-06-5.69105E-02-3.58566E-14-8.33841E-14
 -1       926 1.99793E+01 7.85160E-02-6.52878E-06-4.25474E-02-2.29171E-13-1.07509E-13
 -1       927 1.99896E+01 5.71824E-02-4.67385E-06-3.08883E-02-1.11761E-13 1.56287E-13
 -1       928 1.99961E+01 4.11350E-02-3.23939E-06-2.17265E-02 7.52154E-14 4.51313E-13
 -1       929 2.00000E+01 2.91309E-02-2.17980E-06-1.47268E-02-1.23558E-13 4.44133E-13
 -1       930 2.00022E+01 2.02184E-02-1.41828E-06-9.51854E-03-1.62568E-13 2.90920E-13
 -1       931 2.00033E+01 1.36658E-02-8.82363E-07-5.74584E-03 1.17814E-14 3.34825E-13
 -1       932 2.00037E+01 8.90845E-03-5.12973E-07-3.09191E-03-5.08708E-14 1.91338E-13
 -1       933 2.00037E+01 5.50924E-03-2.64445E-07-1.28826E-03 1.19291E-13 2.83159E-13
 -1       934 2.00034E+01 3.12937E-03-1.02366E-07-1.15358E-04 1.27972E-13 1.21943E-13
 -1       935 2.00030E+01 1.50665E-03-1.21777E-09 6.01294E-04 6.97442E-13-3.07400E-13
 -1       936 2.00026E+01 4.38877E-04 5.75988E-08 9.97002E-04 5.82496E-13-6.69370E-13
 -1       937 2.00021E+01-2.28951E-04 8.73792E-08 1.17428E-03 5.29911E-13-5.32935E-13
 -1       938 2.00017E+01-6.14736E-04 9.79678E-08 1.20903E-03 2.00169E-13-3.24401E-13
 -1       939 2.00013E+01-8.07277E-04 9.62479E-08 1.15608E-03-9.39916E-14-2.34696E-13
 -1       940 2.00010E+01-8.72916E-04 1.27896E-07 1.05406E-03-5.25771E-15-9.72456E-14
 -1       941 2.00007E+01-8.60445E-04 2.53480E-07 9.29667E-04 2.97716E-13 5.45976E-14
 -1       942 2.00005E+01-8.08594E-04 2.00944E-07 7.99945E-04 1.10813E-13 1.57460E-13
 -1       943 2.24717E+01-1.66950E+00-1.73427E-03 5.05664E-02-1.50692E-14-1.21907E-13
 -1       944 2.03485E+01-4.04120E-01 2.64715E-05 5.25068E-01-1.39339E-13 4.15267E-13
 -1       945 2.06630E+01-6.92601E-01 8.08568E-05 5.72044E-01-1.49338E-13 2.56261E-13
 -1       946 2.00291E+01-4.75476E-02-3.36044E-05 3.66709E-01-1.52743E-13 2.14871E-13
 -1       947 1.99665E+01 4.11984E-02-1.27091E-05 2.90517E-01-2.11841E-13 1.50112E-13
 -1       948 1.99395E+01 8.92335E-02 2.00477E-06 2.24993E-01-6.32197E-14 3.73800E-14
 -1       949 1.99337E+01 1.09120E-01-3.88436E-06 1.71391E-01-1.31044E-13 1.06986E-14
 -1       950 1.99389E+01 1.11477E-01-4.82917E-06 1.28731E-01-1.26696E-13 2.04879E-14
 -1       951 1.99492E+01 1.03472E-01-4.67802E-06 9.53926E-02-1.83795E-13 2.95677E-13
 -1       952 1.99608E+01 9.02901E-02-4.00194E-06 6.97720E-02 6.32079E-14 4.40840E-13
 -1       953 1.99717E+01 7.53222E-02-3.22482E-06 5.03069E-02 1.84510E-13 3.87249E-13
 -1       954 1.99809E+01 6.06152E-02-2.50679E-06 3.56655E-02 1.34564E-13 4.06176E-13
 -1       955 1.99882E+01 4.72871E-02-1.89983E-06 2.47640E-02-1.04160E-13 4.06405E-13
 -1       956 1.99937E+01 3.58435E-02-1.40623E-06 1.67385E-02 8.55259E-14 3.17014E-13
 -1       957 1.99976E+01 2.64063E-02-1.01428E-06 1.09079E-02 3.22895E-14 2.65843E-13
 -1       958 2.00002E+01 1.88755E-02-7.09494E-07 6.73961E-03 1.63505E-13 1.20519E-13
 -1       959 2.00017E+01 1.30364E-02-4.77468E-07 3.81880E-03-2.22792E-14 2.01667E-13
 -1       960 2.00026E+01 8.62941E-03-3.04834E-07 1.82423E-03 6.98110E-14 2.35560E-13
 -1       961 2.00029E+01 5.39180E-03-1.79679E-07 5.08354E-04-4.60941E-14 3.21740E-13
 -1       962 2.00029E+01 3.08086E-03-9.17405E-08-3.18170E-04 1.31852E-13 1.45461E-13
 -1       963 2.00027E+01 1.48493E-03-3.24975E-08-7.98911E-04-6.40941E-14 6.86451E-14
 -1       964 2.00024E+01 4.26847E-04 4.83698E-09-1.04149E-03-8.93305E-14 2.37590E-13
 -1       965 2.00021E+01-2.37048E-04 2.59823E-08-1.12548E-03-5.38794E-14 2.40328E-13
 -1       966 2.00017E+01-6.20248E-04 3.79199E-08-1.10869E-03 1.64022E-13 1.20119E-13
 -1       967 2.00013E+01-8.10500E-04 7.14277E-08-1.03232E-03 3.95053E-13-1.15698E-13
 -1       968 2.00010E+01-8.74821E-04 2.52138E-08-9.24866E-04 1.91518E-13 5.88484E-14
 -1       969 2.00007E+01-8.62842E-04 8.14825E-07-8.05557E-04-1.70200E-13 1.80346E-13
 -1       970 2.36353E+01 3.42608E+00-1.43344E-02 1.55614E+00 3.28090E-13 1.53603E-13
 -1       971 1.63744E+01 1.49073E+00-5.41853E-03 1.26043E+00-5.29171E-14 3.91453E-13
 -1       972 2.01476E+01-1.91485E-01-1.64802E-05 4.48848E-01-5.60939E-14 2.76209E-13
 -1       973 2.22838E+01 2.97071E+00-5.24457E-03-6.25217E-02 2.48993E-13-5.24945E-14
 -1       974 2.41371E+01 6.21395E-01-5.45191E-03 1.84567E+00 8.76450E-14 1.14113E-13
 -1       975 2.38383E+01-2.88845E+00 2.70070E-03 1.57119E+00-1.67425E-13-1.83248E-13
 -1       976 1.39253E+01 1.93305E+00 2.26737E-02 1.21212E+00-1.46962E-13 2.73475E-13
 -1       977 2.43528E+01-1.99234E-01-1.14224E-03-1.64192E+00 1.31005E-13-1.82034E-13
 -1       978 2.10808E+01-2.21696E+00-2.41360E-03 3.27380E+00-3.89358E-13 6.82891E-14
 -1       979 1.74592E+01 1.39433E+00 3.20842E-03 6.43980E-01-1.90812E-13 3.19223E-13
 -1       980 2.47108E+01-2.16961E+00-9.97161E-03-1.66318E-01-3.52040E-16-2.51072E-13
 -1       981 1.95593E+01-1.29350E+00 9.03331E-03 3.40829E+00-2.84428E-13 6.68150E-15
 -1       982 1.59496E+01 8.78759E-01 2.02765E-02 2.79526E+00-1.69171E-13 5.49370E-13
 -1       983 2.17319E+01-1.40257E+00 4.49438E-04 3.98219E-01-4.67321E-14 1.53812E-14
 -1       984 2.32341E+01-1.61288E+00 1.43404E-03-5.27195E-01 4.80193E-14-1.51142E-13
 -1       985 2.11219E+01-1.04482E+00 5.10193E-04 5.48708E-01-1.15139E-13 1.20754E-13
 -1       986 2.00006E+01-8.67444E-04-2.49929E-07-5.67852E-04-6.92383E-16 1.05062E-13
 -1       987 2.00007E+01-9.11979E-04-1.02347E-07 5.52068E-04 3.33800E-13-8.78457E-14
 -1       988 2.00008E+01-9.38877E-04-8.08540E-08-3.17651E-04-2.22461E-13 5.33625E-14
 -1       989 2.00008E+01-9.66993E-04-9.73211E-08-1.39336E-05-2.25845E-13-5.50543E-13
 -1       990 1.81566E+01-1.56358E-01 4.51643E-03 2.91381E+00-2.43193E-13 5.44229E-14
 -1       991 2.02679E+01-4.44695E-01-5.12419E-05 8.21449E-01-1.69923E-13 1.59921E-13
 -1       992 1.90454E+01 7.16452E-01 2.87288E-05 2.82362E-01-2.44558E-13-4.31042E-14
 -1       993 1.93262E+01 5.90925E-01 3.98772E-05 1.11472E-01-8.18566E-15-4.62721E-14
 -1       994 1.95224E+01 4.79187E-01-4.57314E-05 2.09163E-02 7.97619E-14-8.14058E-14
 -1       995 1.96663E+01 3.81219E-01-7.09681E-05-2.58350E-02 2.27153E-14-1.40538E-13
 -1       996 1.97702E+01 2.98527E-01-3.31435E-05-4.59232E-02-1.55080E-13-1.95669E-13
 -1       997 1.98436E+01 2.31475E-01-5.76190E-05-5.09979E-02 4.34120E-14-2.28322E-13
 -1       998 1.98957E+01 1.77560E-01-4.62143E-05-4.78580E-02 6.51430E-15-1.26911E-13
 -1       999 1.99321E+01 1.34840E-01-3.73869E-05-4.11282E-02-2.73355E-13-6.98737E-14
 -1      1000 1.99572E+01 1.01345E-01-2.88564E-05-3.33069E-02-2.04695E-13 2.03307E-14
 -1      1001 1.99744E+01 7.53031E-02-2.15247E-05-2.57551E-02-9.14604E-14 8.69391E-14
 -1      1002 1.99860E+01 5.52223E-02-1.56877E-05-1.91251E-02 6.98652E-14-5.61692E-14
 -1      1003 1.99935E+01 3.98722E-02-1.12163E-05-1.36490E-02 1.27668E-13 2.56693E-15
 -1      1004 1.99984E+01 2.82528E-02-7.86497E-06-9.32625E-03-2.24174E-13 1.82903E-13
 -1      1005 2.00013E+01 1.95561E-02-5.39216E-06-6.04001E-03-1.85844E-13 1.89272E-14
 -1      1006 2.00029E+01 1.31322E-02-3.59312E-06-3.62698E-03-9.49986E-14-2.50642E-14
 -1      1007 2.00036E+01 8.46096E-03-2.30362E-06-1.91647E-03 1.08008E-13-2.96902E-14
 -1      1008 2.00038E+01 5.12781E-03-1.39516E-06-7.50836E-04 1.88858E-13 8.24422E-14
 -1      1009 2.00037E+01 2.80443E-03-7.68593E-07 5.59775E-06 2.57926E-13 8.33689E-14
 -1      1010 2.00034E+01 1.23272E-03-3.48141E-07 4.64090E-04 4.06740E-13-1.05124E-13
 -1      1011 2.00029E+01 2.11514E-04-7.62838E-08 7.12575E-04 5.25411E-13-1.65105E-13
 -1      1012 2.00025E+01-4.14423E-04 9.07295E-08 8.18404E-04 4.47246E-13-6.07094E-13
 -1      1013 2.00020E+01-7.63569E-04 1.96698E-07 8.31609E-04 1.48297E-13-2.86402E-13
 -1      1014 2.00016E+01-9.24792E-04 2.88332E-07 7.88102E-04 5.43011E-14-2.89459E-13
 -1      1015 2.00012E+01-9.64333E-04 2.38916E-07 7.15271E-04 1.43613E-13-2.08017E-13
 -1      1016 2.00010E+01-9.51524E-04 3.52873E-08 6.33164E-04 4.88125E-13-8.28528E-14
 -1      1017 2.34058E+01-2.15883E+00 7.56326E-04 3.83984E-01-3.05602E-14-9.74966E-14
 -1      1018 1.98582E+01 1.36183E-01 7.07861E-05 2.68510E-01-1.59956E-13 1.36388E-13
 -1      1019 1.98711E+01 8.52945E-02 1.44853E-05 3.68132E-01-1.71356E-13 7.10548E-14
 -1      1020 1.98864E+01 1.51360E-01-2.84879E-05 1.37357E-01-1.09481E-13 1.06780E-13
 -1      1021 1.99088E+01 1.37889E-01-2.56213E-05 9.68276E-02-2.76021E-13-1.10527E-13
 -1      1022 1.99305E+01 1.19122E-01-2.25165E-05 6.78013E-02-1.36026E-13-1.94692E-13
 -1      1023 1.99494E+01 9.89475E-02-1.92179E-05 4.71094E-02 7.32953E-14-3.56515E-14
 -1      1024 1.99650E+01 7.96054E-02-1.58137E-05 3.24123E-02 1.39859E-13 1.78046E-13
 -1      1025 1.99772E+01 6.22821E-02-1.26274E-05 2.20068E-02-6.49184E-14 3.50852E-13
 -1      1026 1.99863E+01 4.74808E-02-9.81251E-06 1.46664E-02 5.30996E-14 2.56540E-13
 -1      1027 1.99929E+01 3.52810E-02-7.42978E-06 9.51416E-03 4.05585E-14 2.09830E-13
 -1      1028 1.99974E+01 2.55198E-02-5.48113E-06 5.92564E-03 1.52147E-13 2.76890E-13
 -1      1029 2.00004E+01 1.79118E-02-3.93296E-06 3.45520E-03 9.96386E-14 1.75535E-13
 -1      1030 2.00021E+01 1.21261E-02-2.73424E-06 1.78356E-03-4.05979E-14-6.51970E-14
 -1      1031 2.00030E+01 7.83266E-03-1.82847E-06 6.80694E-04 2.03333E-14-1.16226E-13
 -1      1032 2.00034E+01 4.72808E-03-1.16079E-06-1.99537E-05 2.33327E-14-1.78971E-13
 -1      1033 2.00034E+01 2.54747E-03-6.81696E-07-4.39420E-04-5.47722E-14 2.39665E-14
 -1      1034 2.00031E+01 1.06837E-03-3.48807E-07-6.65693E-04-1.06324E-13 7.07700E-14
 -1      1035 2.00028E+01 1.09379E-04-1.27403E-07-7.62521E-04 9.30794E-14 2.93229E-14
 -1      1036 2.00023E+01-4.73799E-04 1.14621E-08-7.75705E-04-2.51288E-14 4.52153E-14
 -1      1037 2.00019E+01-7.93342E-04 1.13742E-07-7.37607E-04 3.12088E-13 2.15661E-13
 -1      1038 2.00015E+01-9.35039E-04 1.66729E-07-6.71313E-04 2.79198E-13 1.27799E-13
 -1      1039 2.00011E+01-9.64890E-04 2.21509E-08-5.91655E-04 9.16570E-14-2.00622E-13
 -1      1040 2.22231E+01-2.18025E+00 1.46402E-03 1.78459E+00-2.69841E-13-3.90596E-14
 -1      1041 2.00434E+01-1.84188E-01-3.26274E-05 6.49991E-01-3.81191E-14 1.86857E-13
 -1      1042 1.76832E+01 7.17957E-01-2.66789E-03 1.84260E+00-2.01182E-13 1.36755E-13
 -1      1043 2.00008E+01-9.59771E-04-3.76934E-07 2.73917E-04 3.24379E-13-1.12135E-13
 -1      1044 1.98674E+01 1.53395E-01-1.39279E-05 1.92741E-01 1.19151E-14 1.99415E-13
 -1      1045 1.86926E+01 8.20551E-01-2.48254E-04 5.56418E-01-1.49509E-13 1.52528E-13
 -1      1046 1.99228E+01-1.37392E-02-7.70680E-05 4.95574E-01-5.23465E-14 1.44859E-13
 -1      1047 2.06482E+01-8.14411E-01-6.16817E-05 9.80263E-01-1.98199E-13 2.10517E-13
 -1      1048 2.06793E+01-1.43000E+00 2.04844E-03 2.36829E+00-2.85444E-13 1.36748E-14
 -1      1049 2.00011E+01-1.00596E-03-5.75844E-07-1.93818E-04-3.52890E-14-2.49798E-13
 -1      1050 1.82161E+01 9.01866E-01 2.03754E-03 9.85579E-01-1.87206E-13 1.16653E-13
 -1      1051 2.20469E+01-1.76501E+00 1.07394E-03 9.41559E-01-1.31921E-13 6.41087E-14
 -1      1052 1.94857E+01 4.38638E-01-1.92970E-04 2.15795E-01 7.85567E-15-5.86094E-14
 -1      1053 1.96194E+01 3.74979E-01 1.68575E-04 1.08984E-01-1.31117E-14-1.76955E-13
 -1      1054 1.97243E+01 3.08338E-01 1.32128E-04 4.74038E-02-1.28134E-13-2.47852E-13
 -1      1055 1.97995E+01 2.51835E-01-8.01441E-05 1.34338E-02 3.71622E-14-1.27321E-13
 -1      1056 1.98591E+01 2.00403E-01-2.78407E-05-4.71954E-03 1.01840E-13-1.03925E-13
 -1      1057 1.99031E+01 1.56966E-01-9.76245E-06-1.25649E-02-7.22949E-14-9.32578E-14
 -1      1058 1.99352E+01 1.21139E-01-6.79810E-07-1.46466E-02-1.71536E-13-6.85077E-14
 -1      1059 1.99582E+01 9.21255E-02 3.52748E-06-1.37797E-02-1.39001E-13-9.42609E-14
 -1      1060 1.99745E+01 6.89972E-02 5.00051E-06-1.16295E-02 2.40750E-16 3.29518E-14
 -1      1061 1.99857E+01 5.08232E-02 5.06392E-06-9.12980E-03-1.42385E-14 1.84965E-14
 -1      1062 1.99932E+01 3.67399E-02 4.49048E-06-6.76243E-03-1.08509E-13-4.67615E-13
 -1      1063 1.99981E+01 2.59805E-02 3.70229E-06-4.74103E-03-4.41216E-14-5.06930E-14
 -1      1064 2.00012E+01 1.78834E-02 2.91196E-06-3.12768E-03-1.16025E-13 6.26800E-14
 -1      1065 2.00029E+01 1.18895E-02 2.21346E-06-1.90530E-03-1.72208E-14-6.16579E-14
 -1      1066 2.00037E+01 7.53475E-03 1.63730E-06-1.02090E-03 2.75504E-13 2.06391E-13
 -1      1067 2.00039E+01 4.43933E-03 1.18255E-06-4.10169E-04 1.84894E-13 2.14798E-13
 -1      1068 2.00038E+01 2.29689E-03 8.34848E-07-1.04616E-05 1.38486E-13 9.49557E-14
 -1      1069 2.00035E+01 8.63639E-04 5.76195E-07 2.33134E-04 4.15581E-13 1.19986E-14
 -1      1070 2.00030E+01-5.18192E-05 3.90715E-07 3.65737E-04 2.92178E-13-2.33671E-13
 -1      1071 2.00025E+01-5.97738E-04 2.66801E-07 4.22774E-04 4.10767E-13-2.32985E-13
 -1      1072 2.00021E+01-8.87722E-04 1.29339E-07 4.31276E-04 2.28947E-13-2.26750E-13
 -1      1073 2.00016E+01-1.00759E-03-2.45458E-07 4.09953E-04 3.37613E-13 2.74373E-14
 -1      1074 1.91317E+01 5.10772E-01-7.84321E-05 6.42412E-01-2.37804E-13 7.17071E-14
 -1      1075 2.12497E+01-1.29032E+00 4.85446E-04 1.06103E+00-1.27149E-13 1.60735E-13
 -1      1076 1.98945E+01 1.53441E-01-1.09521E-05 5.84833E-02-4.98919E-14-8.08673E-14
 -1      1077 1.98592E+01 1.81004E-01-5.95725E-06 9.03001E-02 5.22187E-14 1.47816E-13
 -1      1078 1.99469E+01 1.00774E-01-6.09011E-06 2.38030E-02-1.20372E-13 4.47701E-14
 -1      1079 1.99647E+01 7.86811E-02-4.20131E-06 1.49449E-02 3.78339E-14 2.03015E-13
 -1      1080 1.99779E+01 6.00623E-02-2.57084E-06 9.24609E-03 4.43257E-14 8.81011E-14
 -1      1081 1.99874E+01 4.48293E-02-1.24795E-06 5.59502E-03-2.40109E-14 3.00521E-13
 -1      1082 1.99940E+01 3.26763E-02-2.60776E-07 3.26503E-03 9.05732E-14 3.83938E-13
 -1      1083 1.99984E+01 2.31981E-02 4.11085E-07 1.78611E-03 1.18942E-13 4.29616E-13
 -1      1084 2.00012E+01 1.59643E-02 8.18673E-07 8.56096E-04 1.95443E-13 5.59776E-13
 -1      1085 2.00028E+01 1.05622E-02 1.02323E-06 2.81071E-04 2.04664E-13 5.27724E-13
 -1      1086 2.00035E+01 6.61985E-03 1.08321E-06-6.37718E-05 1.23611E-13 2.94667E-13
 -1      1087 2.00037E+01 3.81567E-03 1.04807E-06-2.59301E-04-3.01881E-14 2.07446E-13
 -1      1088 2.00036E+01 1.88063E-03 9.56560E-07-3.58415E-04-1.27424E-13 9.98733E-14
 -1      1089 2.00033E+01 5.95304E-04 8.37575E-07-3.96095E-04-9.29634E-14 1.61587E-13
 -1      1090 2.00029E+01-2.15323E-04 7.12605E-07-3.95717E-04 8.91013E-14 7.59082E-14
 -1      1091 2.00024E+01-6.88155E-04 6.03048E-07-3.73077E-04 2.90746E-14-2.71936E-13
 -1      1092 2.00019E+01-9.28489E-04 6.22180E-07-3.38714E-04 3.40926E-13-3.15676E-13
 -1      1093 2.00015E+01-1.01789E-03 3.63337E-07-2.64146E-04 3.24645E-13-2.54872E-13
 -1      1094 1.97816E+01 2.17102E-01 4.90790E-04 2.06143E-01-5.86658E-14 1.98410E-13
 -1      1095 1.98217E+01-1.06871E-01 7.59455E-05 8.93220E-01-8.04711E-14 6.05873E-14
 -1      1096 1.89264E+01-1.04514E-01 1.87756E-03 2.10711E+00-2.27611E-13 1.09125E-15
 -1      1097 1.97323E+01 7.70335E-02 4.58855E-04 6.49452E-01-1.16000E-13 1.53398E-13
 -1      1098 1.99237E+01 1.26024E-01-8.31905E-06 3.74939E-02-1.63858E-13-1.85254E-13
 -1      1099 1.97374E+01 2.14175E-01 3.29929E-04 3.11104E-01-1.83103E-13 2.03194E-13
 -1      1100 1.93170E+01 4.95914E-01 5.98000E-04 3.87826E-01-1.06790E-13 1.08814E-13
 -1      1101 2.00012E+01-1.02382E-03 1.33620E-06 1.30787E-04 8.21275E-14-1.26459E-13
 -1      1102 1.98191E+01 2.04697E-01-1.93472E-05 1.38510E-01 9.13000E-14 2.47450E-13
 -1      1103 1.97166E+01 1.70353E-01-1.49411E-04 4.57236E-01-1.18755E-13 2.01351E-13
 -1      1104 1.97207E+01-7.68128E-01 4.43485E-03 2.36878E+00-2.66437E-13-3.51737E-15
 -1      1105 2.00196E+01-3.96630E-01 3.62975E-04 1.19969E+00-1.38142E-13 3.32929E-14
 -1      1106 2.04154E+01-8.79324E-01-1.26890E-03 1.59562E+00-2.42628E-13 1.35302E-13
 -1      1107 2.00013E+01-1.01982E-03-2.37162E-06 3.61000E-04 1.86682E-13 1.28738E-13
 -1      1108 1.88997E+01 4.78535E-01-1.90446E-03 1.03118E+00-1.94419E-13 1.78969E-14
 -1      1109 2.00010E+01-9.89202E-04 1.43021E-07 3.16631E-04 2.23848E-13-1.49309E-13
 -1      1110 1.97153E+01 2.81114E-01-1.07551E-03 1.47875E-01-1.63527E-13-8.94916E-14
 -1      1111 1.94211E+01 2.50604E-01-7.64457E-04 7.74611E-01-1.58220E-13 1.88644E-13
 -1      1112 1.96285E+01-3.17729E-01-2.19023E-03 1.63419E+00-1.79453E-13 4.99304E-14
 -1      1113 1.94442E+01 1.84031E-02 6.66700E-04 1.22295E+00-1.61354E-13 1.31019E-13
 -1      1114 3.28909E+01 1.06306E+01 2.54421E+00-6.05794E+00-3.33067E-14 1.32383E-12
 -1      1115 2.41074E+01 7.35372E+00 4.04896E-01-1.99650E+00-1.64313E-14 3.28494E-13
 -1      1116 2.02255E+01 6.08161E+00 4.64823E-02-7.81153E-01-1.43774E-14-1.40575E-13
 -1      1117 1.72959E+01 5.15136E+00-1.24707E-01-6.98172E-01-1.00475E-14-3.84710E-13
 -1      1118 1.54799E+01 4.58544E+00-1.95119E-01-1.19975E+00-7.79932E-15-5.16940E-13
 -1      1119 1.49095E+01 4.41990E+00-1.76516E-01-1.83847E+00-5.30131E-15-5.70575E-13
 -1      1120 1.53867E+01 4.58700E+00-9.66876E-02-2.25163E+00-3.76088E-15-5.72968E-13
 -1      1121 1.64968E+01 4.95086E+00 6.02632E-03-2.23006E+00-2.63678E-15-5.46483E-13
 -1      1122 1.77583E+01 5.35541E+00 9.30905E-02-1.76207E+00 8.32667E-17-5.20304E-13
 -1      1123 1.88164E+01 5.68826E+00 1.44417E-01-9.79634E-01 1.85962E-15-4.85780E-13
 -1      1124 1.95121E+01 5.90149E+00 1.59487E-01-5.14654E-02 3.42781E-15-4.49031E-13
 -1      1125 1.98485E+01 5.99932E+00 1.49248E-01 8.82229E-01 5.89112E-15-3.85076E-13
 -1      1126 1.99323E+01 6.01733E+00 1.25434E-01 1.76047E+00 8.32841E-15-2.90495E-13
 -1      1127 1.99223E+01 6.00542E+00 9.57358E-02 2.57740E+00 1.10537E-14-1.24619E-13
 -1      1128 2.00625E+01 6.04016E+00 7.12870E-02 3.37290E+00 1.67436E-14 1.81567E-13
 -1      1129 2.09095E+01 6.31146E+00 1.28680E-01 4.33101E+00 1.82354E-14 7.51808E-13
 -1      1130 2.59174E+01 8.21989E+00 1.48213E+00 6.26133E+00 3.24740E-14 1.88408E-12
 -1      1131 3.47435E+01 3.67714E+00 1.02348E+00-3.86945E+00-1.31048E-13 1.94789E-12
 -1      1132 2.91018E+01-2.61983E-01-7.31219E-01 1.49401E-01-4.77604E-14 1.66500E-12
 -1      1133 3.09261E+01-1.38898E-01-2.62119E-01 2.16304E-01-1.62492E-14 1.30101E-12
 -1      1134 3.39063E+01-1.69343E-02 7.54297E-02 2.11946E-01-1.46031E-14 1.11136E-12
 -1      1135 3.64958E+01 1.68379E-01 4.70411E-01 9.03036E-02 3.58741E-15 1.21603E-12
 -1      1136 3.59501E+01 3.18644E-01 7.03635E-01-3.31891E-01-1.55778E-15 1.49086E-12
 -1      1137 3.02468E+01 3.58235E-01 2.17142E-01-8.49735E-01-2.42341E-15 1.60261E-12
 -1      1138 2.19498E+01-1.55122E-01-9.50673E-01-8.35945E-01-2.95354E-14 1.28264E-12
 -1      1139 1.58754E+01-5.22210E-01-1.96791E+00-2.54392E-01-1.01030E-14 6.45151E-13
 -1      1140 1.72882E+01-4.50529E-01-1.72812E+00 5.28311E-01-6.63358E-15-7.97695E-14
 -1      1141 2.43967E+01-7.78702E-02-5.91524E-01 8.06041E-01-8.54872E-15-7.88147E-13
 -1      1142 3.22186E+01 2.86433E-01 4.18960E-01 6.01887E-01-8.78464E-15-1.14775E-12
 -1      1143 3.65028E+01 2.57416E-01 6.80612E-01 1.89438E-01 1.70870E-15-1.16640E-12
 -1      1144 3.59065E+01 9.88380E-02 3.85506E-01-6.36869E-02-9.19403E-15-9.58112E-13
 -1      1145 3.27382E+01-7.16498E-03 6.79211E-02-1.37290E-01 2.95720E-14-5.75373E-13
 -1      1146 2.92503E+01-4.30068E-02-7.91213E-02-1.17418E-01 1.21383E-14-3.35482E-13
 -1      1147 2.63894E+01-4.76702E-02-1.05166E-01-7.92501E-02-2.15401E-14-1.61038E-13
 -1      1148 2.43022E+01-4.01341E-02-8.71454E-02-4.83717E-02-1.53710E-14-3.26739E-13
 -1      1149 2.28606E+01-3.03024E-02-6.19362E-02-2.80337E-02-1.36965E-14-3.02432E-13
 -1      1150 2.18902E+01-2.17102E-02-4.13598E-02-1.57837E-02 5.84623E-15-3.03837E-13
 -1      1151 2.12439E+01-1.51491E-02-2.69878E-02-8.71574E-03 3.58995E-14-2.90403E-13
 -1      1152 2.08147E+01-1.04413E-02-1.75257E-02-4.72246E-03-2.85503E-15-1.44312E-14
 -1      1153 2.05294E+01-7.17076E-03-1.14284E-02-2.49124E-03-2.57243E-14-7.46031E-14
 -1      1154 2.03394E+01-5.00107E-03-7.54685E-03-1.26286E-03 5.37016E-15-2.39165E-13
 -1      1155 2.02106E+01-3.14759E-03-4.83950E-03-7.52418E-04 1.29744E-14-3.91474E-14
 -1      1156 2.01254E+01-2.30219E-03-3.25291E-03-1.77206E-04-6.68224E-14-5.17531E-13
 -1      1157 2.00709E+01-1.59699E-03-2.19418E-03 1.35185E-05 6.78529E-14-8.23625E-13
 -1      1158 2.00353E+01-1.10986E-03-1.48337E-03 1.11510E-04-6.28688E-15-5.08340E-13
 -1      1159 2.00126E+01-7.70505E-04-1.00143E-03 1.55849E-04 8.15248E-14-2.12171E-13
 -1      1160 1.99986E+01-5.32324E-04-6.71623E-04 1.70020E-04-8.11490E-14 1.91468E-13
 -1      1161 1.99905E+01-3.64243E-04-4.44160E-04 1.67412E-04 2.91698E-14-1.31001E-13
 -1      1162 1.99864E+01-2.45317E-04-2.86653E-04 1.55794E-04 4.75222E-14 1.62092E-13
 -1      1163 1.99847E+01-1.61248E-04-1.77706E-04 1.39753E-04 1.90854E-14-2.92764E-13
 -1      1164 1.99847E+01-1.02127E-04-1.02898E-04 1.22037E-04-7.42970E-14-1.18800E-12
 -1      1165 1.99857E+01-6.09767E-05-5.22878E-05 1.04298E-04 6.16177E-14-1.60339E-12
 -1      1166 1.99871E+01-3.28026E-05-1.88862E-05 8.75111E-05 9.68753E-14-9.10757E-13
 -1      1167 1.99888E+01-1.39836E-05 2.30965E-06 7.22230E-05-4.47989E-14-2.95246E-13
 -1      1168 1.99905E+01-1.86664E-06 1.49238E-05 5.86995E-05-3.97369E-15-6.55943E-14
 -1      1169 1.99921E+01 5.50401E-06 2.16006E-05 4.70218E-05 5.47506E-14 2.15047E-13
 -1      1170 1.99936E+01 9.57314E-06 2.42722E-05 3.71511E-05-2.33059E-14 2.61889E-13
 -1      1171 1.99949E+01 1.14067E-05 2.43468E-05 2.89736E-05 1.97954E-13 3.75794E-13
 -1      1172 1.99960E+01 1.17886E-05 2.28449E-05 2.23326E-05-1.05735E-13 1.00642E-13
 -1      1173 1.99969E+01 1.12932E-05 2.05030E-05 1.70503E-05-4.55024E-15 3.00386E-14
 -1      1174 1.99977E+01 1.03418E-05 1.78585E-05 1.29414E-05 3.28722E-14 9.94210E-14
 -1      1175 1.99983E+01 9.24905E-06 1.53269E-05 9.81662E-06 2.53730E-14 1.09400E-13
 -1      1176 1.99988E+01 8.25613E-06 1.32770E-05 7.47206E-06 7.12095E-14-1.90360E-13
 -1      1177 1.99992E+01 7.55311E-06 1.20880E-05 5.65857E-06 5.71865E-14-1.98219E-13
 -1      1178 1.99995E+01 7.26978E-06 1.20612E-05 3.98770E-06-4.39966E-14-4.53270E-13
 -1      1179 1.99997E+01 7.31355E-06 1.26224E-05 1.73280E-06-3.48306E-15-5.82151E-13
 -1      1180 1.99998E+01 5.87031E-06 9.42404E-06-2.27674E-06 7.19345E-14-3.26093E-13
 -1      1181 1.99998E+01 5.08375E-06-7.81641E-06-7.41516E-06-4.04628E-14 3.83919E-13
 -1      1182 2.86888E+01 5.58782E-01 4.63696E-01 2.07386E+00-2.82066E-14 2.79948E-12
 -1      1183 2.01148E+01-5.58410E-02-5.84133E-01 1.40910E-01 1.07379E-14 2.35789E-12
 -1      1184 1.84070E+01-3.09514E-02-1.84820E-01 2.17705E-02 4.17895E-15 1.94341E-12
 -1      1185 1.74221E+01-1.47958E-02-3.49245E-02 8.14665E-03 1.29044E-14 1.66014E-12
 -1      1186 1.66388E+01-1.30991E-02-5.55167E-03 1.10637E-02-2.04079E-15 1.42619E-12
 -1      1187 1.59633E+01-1.72955E-02-1.29050E-02 1.78192E-02-7.22079E-17 1.25698E-12
 -1      1188 1.54394E+01-2.33766E-02-2.84406E-02 2.19264E-02-1.38041E-15 1.13881E-12
 -1      1189 1.51594E+01-2.71050E-02-4.09722E-02 2.04794E-02-3.84848E-15 1.05934E-12
 -1      1190 1.52007E+01-2.60670E-02-4.49016E-02 1.31380E-02 2.42428E-16 8.19124E-13
 -1      1191 1.55812E+01-2.02032E-02-3.87055E-02 1.96355E-03 5.41624E-15 6.52665E-13
 -1      1192 1.62447E+01-1.14360E-02-2.48361E-02-9.64683E-03 1.66917E-14 4.75123E-13
 -1      1193 1.70785E+01-2.44983E-03-8.18501E-03-1.85319E-02-1.27781E-14 4.59553E-13
 -1      1194 1.79502E+01 4.59994E-03 6.37776E-03-2.29886E-02-3.15094E-15 4.31936E-13
 -1      1195 1.87462E+01 8.75069E-03 1.58945E-02-2.30508E-02-1.06061E-14 3.61270E-13
 -1      1196 1.93939E+01 1.01401E-02 1.98031E-02-1.99470E-02 1.73535E-14 3.49054E-13
 -1      1197 1.98657E+01 9.52658E-03 1.92488E-02-1.52838E-02 2.32178E-14 1.80266E-13
 -1      1198 2.01697E+01 7.81005E-03 1.60380E-02-1.04234E-02-1.01462E-14 1.19698E-13
 -1      1199 2.03350E+01 5.73155E-03 1.18316E-02-6.22018E-03 9.80596E-15 1.09336E-13
 -1      1200 2.03981E+01 3.77035E-03 7.76730E-03-3.03471E-03-1.29798E-14 1.45606E-13
 -1      1201 2.03941E+01 2.16462E-03 4.43114E-03-8.82433E-04-1.98566E-14 2.78457E-13
 -1      1202 2.03517E+01 9.81649E-04 1.99729E-03 4.03393E-04-3.27112E-15 2.78894E-13
 -1      1203 2.02918E+01 1.90065E-04 3.99692E-04 1.04927E-03 1.36194E-14 2.33738E-13
 -1      1204 2.02284E+01-2.85231E-04-5.31918E-04 1.27026E-03 6.15424E-16 4.29461E-14
 -1      1205 2.01694E+01-5.28631E-04-9.86918E-04 1.23887E-03-1.45693E-14-3.88999E-13
 -1      1206 2.01190E+01-6.15831E-04-1.13123E-03 1.07862E-03-1.18268E-14-1.36531E-13
 -1      1207 2.00785E+01-6.06849E-04-1.09243E-03 8.69870E-04 3.99463E-14-1.38570E-13
 -1      1208 2.00474E+01-5.45320E-04-9.59904E-04 6.60026E-04-1.78771E-15-2.49892E-13
 -1      1209 2.00247E+01-4.60709E-04-7.91463E-04 4.73558E-04 2.87341E-14-4.34721E-13
 -1      1210 2.00090E+01-3.71454E-04-6.21406E-04 3.20285E-04-1.98300E-14-1.59806E-13
 -1      1211 1.99986E+01-2.88038E-04-4.67857E-04 2.01437E-04 3.14907E-15-2.89179E-13
 -1      1212 1.99923E+01-2.15573E-04-3.38542E-04 1.13765E-04 7.33793E-15-3.27921E-13
 -1      1213 1.99890E+01-1.55776E-04-2.34991E-04 5.21417E-05 3.80082E-14-5.31280E-13
 -1      1214 1.99877E+01-1.08384E-04-1.55383E-04 1.10684E-05-1.19510E-14-4.65698E-13
 -1      1215 1.99876E+01-7.20995E-05-9.63669E-05-1.45251E-05-3.07903E-14-4.40345E-13
 -1      1216 1.99884E+01-4.52027E-05-5.41503E-05-2.89384E-05 2.13651E-14-1.50057E-13
 -1      1217 1.99897E+01-2.59063E-05-2.50952E-05-3.56153E-05-1.17916E-14-4.46005E-13
 -1      1218 1.99911E+01-1.25536E-05-6.00509E-06-3.71957E-05 6.56250E-14-7.34019E-13
 -1      1219 1.99925E+01-3.70801E-06 5.77539E-06-3.56291E-05 1.79472E-14-4.30882E-13
 -1      1220 1.99938E+01 1.82082E-06 1.23643E-05-3.23059E-05 4.69160E-16 1.23639E-13
 -1      1221 1.99950E+01 4.98699E-06 1.53996E-05-2.81833E-05-8.99368E-14 2.04546E-14
 -1      1222 1.99961E+01 6.53738E-06 1.61171E-05-2.38952E-05 4.50086E-14 2.44716E-14
 -1      1223 1.99970E+01 7.04835E-06 1.54352E-05-1.98427E-05-4.07343E-14 3.55914E-13
 -1      1224 1.99977E+01 6.96374E-06 1.40370E-05-1.62649E-05-2.14505E-14 5.17232E-13
 -1      1225 1.99984E+01 6.63402E-06 1.24564E-05-1.32908E-05 6.45684E-14-4.70739E-13
 -1      1226 1.99988E+01 6.35123E-06 1.11689E-05-1.09718E-05-2.65477E-14-8.05595E-13
 -1      1227 1.99992E+01 6.35806E-06 1.06639E-05-9.26427E-06 1.32545E-14-9.89677E-13
 -1      1228 1.99995E+01 6.77591E-06 1.13340E-05-7.94559E-06 1.03638E-13-1.32720E-12
 -1      1229 1.99997E+01 7.20937E-06 1.24766E-05-6.12514E-06-5.66378E-14-7.29548E-13
 -1      1230 1.99998E+01 4.93368E-06 8.70707E-06-1.57327E-06 1.97384E-13-9.92178E-13
 -1      1231 1.99998E+01-4.28722E-06-1.10464E-05 4.41041E-06-1.84612E-14-9.81164E-13
 -1      1232 1.99998E+01 1.28427E-05-1.02923E-05 4.33451E-06-9.36288E-13-9.20250E-14
 -1      1233 1.99998E+01 1.33562E-05 9.58430E-06 4.12023E-06-1.25436E-12 5.57126E-14
 -1      1234 1.99998E+01-8.41688E-05 1.19167E-05-2.97237E-06-1.34420E-12-1.42171E-13
 -1      1235 1.99998E+01-2.65607E-04 6.35781E-06-6.45132E-06-1.44430E-12-4.09890E-15
 -1      1236 1.99998E+01-4.87241E-04 8.81631E-08-7.44495E-06-8.61258E-13 1.25081E-13
 -1      1237 1.99998E+01-7.06268E-04-5.28149E-06-6.82568E-06-4.36482E-13-8.10369E-14
 -1      1238 1.99998E+01-8.89565E-04-9.28422E-06-5.20787E-06-6.14947E-13-9.08599E-14
 -1      1239 1.99998E+01-1.01166E-03-1.18126E-05-2.76336E-06-8.03015E-13-1.50665E-13
 -1      1240 1.99998E+01-1.05372E-03-1.26611E-05 3.37374E-08-8.54567E-13 6.01400E-14
 -1      1241 1.99998E+01-1.01005E-03-1.17933E-05 2.83050E-06-5.66675E-13 2.69883E-14
 -1      1242 1.99998E+01-8.86491E-04-9.22950E-06 5.26168E-06-9.87215E-13-2.37308E-13
 -1      1243 1.99998E+01-7.01952E-04-5.17746E-06 6.96476E-06-2.12045E-12 1.34226E-13
 -1      1244 1.99998E+01-4.82264E-04 2.36469E-07 7.48735E-06-1.52717E-12 1.18088E-13
 -1      1245 1.99998E+01-2.60778E-04 6.48314E-06 6.35201E-06-9.76930E-13 5.30597E-15
 -1      1246 1.99998E+01-8.16121E-05 1.12877E-05 2.45154E-06-4.68168E-14 3.41658E-14
 -1      1247 1.99998E+01 1.61301E-05 9.57954E-06-5.67226E-06-2.83595E-13-2.68521E-14
 -1      1248 1.99998E+01 1.42655E-05-7.97531E-06-7.25645E-06-5.44587E-13 1.26276E-13
 -1      1249-1.28868E+00-2.46593E+01-3.77472E+00-1.92676E+00 7.23199E-13 2.29039E-13
 -1      1250-1.57074E+00-1.45941E+01-2.97419E+00-3.47088E+00 2.63745E-12 1.07958E-12
 -1      1251 8.48405E-01-1.12775E+00-1.65389E+00 6.79987E-01 3.67595E-12 2.16971E-12
 -1      1252 1.00123E+01 9.39939E+00-8.06506E-02 9.49345E+00 3.37153E-12 3.04290E-12
 -1      1253 2.64875E+01 1.27368E+01 1.48772E+00 1.76761E+01 2.41029E-12 3.18479E-12
 -1      1254 4.63396E+01 9.67752E+00 2.87227E+00 1.96207E+01 1.26554E-12 2.62590E-12
 -1      1255 6.29194E+01 4.43554E+00 3.79767E+00 1.35431E+01 4.25410E-13 1.53300E-12
 -1      1256 7.01249E+01 1.76468E+00 4.18002E+00 1.63684E+00 9.23359E-14-9.07052E-14
 -1      1257 6.49554E+01 3.61203E+00 3.85427E+00-1.09317E+01 3.69899E-13-1.64024E-12
 -1      1258 4.99173E+01 8.40128E+00 2.96300E+00-1.86965E+01 1.10206E-12-2.64477E-12
 -1      1259 3.09371E+01 1.23410E+01 1.69323E+00-1.86542E+01 1.97109E-12-2.97851E-12
 -1      1260 1.40070E+01 1.13342E+01 2.57182E-01-1.23469E+01 2.63922E-12-2.68607E-12
 -1      1261 3.10016E+00 3.31013E+00-1.23904E+00-3.74228E+00 2.83684E-12-1.95444E-12
 -1      1262-9.66979E-01-9.47385E+00-2.39485E+00 2.09073E+00 2.14451E-12-9.54847E-13
 -1      1263-9.93498E-01-2.12057E+01-3.35765E+00 2.38180E+00 1.02485E-12-2.43201E-13
 -1      1264-1.01810E+00-2.59141E+01-3.87456E+00-1.75373E+00-3.30458E-13-1.26510E-13
 -1      1265-2.49950E+00-2.19297E+01-3.89330E+00-5.39038E+00-1.69309E-12-6.31301E-13
 -1      1266-2.81404E+00-1.19348E+01-3.51615E+00-4.89840E+00-2.67186E-12-1.50246E-12
 -1      1267 2.43024E+00 3.59168E-01-2.23560E+00 1.97039E+00-3.07510E-12-2.59925E-12
 -1      1268 1.84011E+01 8.61857E+00-1.19516E-01 1.23754E+01-2.60858E-12-3.32046E-12
 -1      1269 4.54193E+01 9.32715E+00 2.84478E+00 1.89044E+01-1.59561E-12-3.27294E-12
 -1      1270 7.21813E+01 5.00975E+00 5.62775E+00 1.44673E+01-6.88755E-13-2.34968E-12
 -1      1271 8.32515E+01 2.50613E+00 6.74490E+00 3.75366E-01-1.38056E-13-5.29132E-13
 -1      1272 7.35473E+01 4.69437E+00 5.75981E+00-1.40868E+01-4.55774E-13 1.54432E-12
 -1      1273 4.93759E+01 9.12723E+00 3.28187E+00-1.95065E+01-1.44695E-12 3.17546E-12
 -1      1274 2.35932E+01 9.90459E+00 5.55973E-01-1.48623E+01-2.58993E-12 3.55183E-12
 -1      1275 5.79421E+00 3.59125E+00-1.63361E+00-4.99055E+00-3.18479E-12 3.01092E-12
 -1      1276-1.96473E+00-8.35187E+00-3.02603E+00 3.43670E+00-3.31912E-12 2.02527E-12
 -1      1277-2.58347E+00-2.10079E+01-3.85214E+00 5.99525E+00-2.58216E-12 1.01652E-12
 -1      1278-1.39161E+00-2.73304E+01-4.08685E+00 2.62138E+00-8.52401E-13 1.84172E-13
 -1      1279 2.84330E+01 2.06434E+00-7.14361E-01-1.82878E+00-4.64351E-14 1.12910E-12
 -1      1280 2.33400E+01 5.04191E+00-7.14468E-02-1.26100E+00-1.31506E-13 1.20445E-13
 -1      1281 2.54271E+01 5.50245E+00 3.94250E-02-2.31747E+00-1.65479E-13 3.64708E-13
 -1      1282 1.93953E+01 5.23459E+00-9.76597E-02-6.87179E-01-1.32810E-13-2.51511E-13
 -1      1283 2.12751E+01 5.76532E+00 6.44846E-02-9.62836E-01-1.48492E-13-8.77354E-14
 -1      1284 2.27993E+01 4.47287E+00 2.30194E-03-1.04491E+00-2.24216E-13 1.02474E-13
 -1      1285 1.64479E+01 5.17888E+00-1.05422E-01-8.46582E-01-1.18017E-13-4.50156E-13
 -1      1286 1.77921E+01 5.57694E+00-3.66305E-03-7.33980E-01-1.35031E-13-3.59308E-13
 -1      1287 1.86796E+01 5.15769E+00-2.54323E-02-7.81743E-01-2.11588E-13-2.16330E-13
 -1      1288 1.48584E+01 5.07560E+00-8.22897E-02-1.43967E+00-1.09752E-13-5.54299E-13
 -1      1289 1.54804E+01 5.26447E+00-5.97586E-02-1.15886E+00-1.14755E-13-5.09655E-13
 -1      1290 1.58221E+01 5.41832E+00-2.87110E-02-1.10397E+00-1.86101E-13-3.90765E-13
 -1      1291 1.46888E+01 4.95610E+00-3.65335E-02-2.04841E+00-9.81229E-14-5.86432E-13
 -1      1292 1.46084E+01 4.93875E+00-8.57510E-02-1.80359E+00-1.06727E-13-5.69886E-13
 -1      1293 1.45301E+01 5.32312E+00-2.71194E-02-1.72581E+00-1.79237E-13-4.68677E-13
 -1      1294 1.56016E+01 4.83522E+00 1.04608E-02-2.34483E+00-8.69027E-14-5.78785E-13
 -1      1295 1.50287E+01 4.67483E+00-7.78405E-02-2.27106E+00-9.22110E-14-5.84325E-13
 -1      1296 1.47274E+01 4.95430E+00-2.89900E-02-2.25107E+00-1.62741E-13-4.95359E-13
 -1      1297 1.70270E+01 4.76299E+00 4.21527E-02-2.16298E+00-5.92026E-14-5.48020E-13
 -1      1298 1.62732E+01 4.54801E+00-4.35144E-02-2.31250E+00-7.20535E-14-5.58872E-13
 -1      1299 1.59642E+01 4.49087E+00-3.06404E-02-2.37527E+00-1.35003E-13-4.70788E-13
 -1      1300 1.84176E+01 4.77367E+00 5.38732E-02-1.55935E+00-2.85605E-14-5.16268E-13
 -1      1301 1.77410E+01 4.57890E+00-2.48582E-03-1.89015E+00-3.72757E-14-5.30867E-13
 -1      1302 1.75831E+01 4.13754E+00-2.71413E-02-2.01594E+00-8.33084E-14-4.37771E-13
 -1      1303 1.94530E+01 4.85705E+00 5.09786E-02-7.01851E-01 1.14631E-14-4.80609E-13
 -1      1304 1.89837E+01 4.71992E+00 2.82708E-02-1.13418E+00-4.02456E-15-4.97984E-13
 -1      1305 1.90305E+01 3.99182E+00-2.01300E-02-1.29293E+00-3.29736E-14-3.97113E-13
 -1      1306 2.00476E+01 4.97177E+00 4.08908E-02 2.40933E-01 4.64906E-14-4.41279E-13
 -1      1307 1.98020E+01 4.89714E+00 4.25053E-02-2.20196E-01 3.69774E-14-4.65322E-13
 -1      1308 2.00246E+01 4.02766E+00-1.43217E-02-3.91425E-01 3.93956E-14-3.61509E-13
 -1      1309 2.02704E+01 5.07443E+00 2.92071E-02 1.14316E+00 9.23636E-14-3.71175E-13
 -1      1310 2.01971E+01 5.04790E+00 4.25874E-02 7.05310E-01 7.65082E-14-4.09780E-13
 -1      1311 2.05323E+01 4.15519E+00-1.22569E-02 5.30307E-01 9.83666E-14-3.19467E-13
 -1      1312 2.02720E+01 5.14610E+00 1.75813E-02 1.99082E+00 1.41116E-13-2.71540E-13
 -1      1313 2.02902E+01 5.14255E+00 3.35384E-02 1.57647E+00 1.24206E-13-3.30472E-13
 -1      1314 2.06772E+01 4.28708E+00-1.39860E-02 1.40069E+00 1.82073E-13-2.37921E-13
 -1      1315 2.02345E+01 5.18296E+00 4.80946E-03 2.77604E+00 1.84448E-13-8.47170E-14
 -1      1316 2.02434E+01 5.17016E+00 1.63774E-02 2.38201E+00 1.62417E-13-1.97523E-13
 -1      1317 2.06388E+01 4.35927E+00-1.93961E-02 2.20540E+00 2.44129E-13-1.27384E-13
 -1      1318 2.04328E+01 5.19465E+00-9.21771E-03 3.56066E+00 2.12191E-13 2.50168E-13
 -1      1319 2.02766E+01 5.11954E+00-1.17058E-02 3.13774E+00 1.85650E-13 4.95159E-14
 -1      1320 2.06503E+01 4.31083E+00-2.75967E-02 2.95761E+00 2.96907E-13 8.73329E-14
 -1      1321 2.15038E+01 5.05493E+00-9.97526E-03 4.51698E+00 1.79412E-13 8.50417E-13
 -1      1322 2.07953E+01 4.89119E+00-5.28351E-02 3.89168E+00 1.77733E-13 4.86049E-13
 -1      1323 2.11004E+01 3.98689E+00-3.04010E-02 3.67212E+00 3.15074E-13 4.50029E-13
 -1      1324 2.79402E+01 3.34254E+00 9.91515E-01 4.93709E+00 7.77156E-14 1.95854E-12
 -1      1325 2.24266E+01 3.65615E+00-1.96217E-01 4.28199E+00 8.19900E-14 1.19740E-12
 -1      1326 2.24823E+01 2.65196E+00-4.58253E-02 3.91288E+00 2.91251E-13 9.95620E-13
 -1      1327 2.16994E+01 3.86569E-01-8.00779E-01 1.38619E+00 1.53683E-13 1.91003E-12
 -1      1328 2.93493E+01 1.34844E-01-3.69535E-01-1.68491E-01-1.25677E-13 1.19005E-12
 -1      1329 2.92893E+01 3.06250E-01-1.33943E-01 2.04560E-01-1.17142E-13 1.03256E-12
 -1      1330 2.93911E+01 2.25136E-01-7.82265E-02 7.59066E-01-6.61901E-14 9.90943E-13
 -1      1331 3.04035E+01 1.20533E-01-8.03321E-03 8.60560E-01-6.10484E-14 8.80851E-13
 -1      1332 2.81470E+01 4.37661E-01-1.07097E-01 7.82090E-01-1.79801E-13 6.35814E-13
 -1      1333 3.09796E+01 5.55252E-02 1.29705E-02 1.06097E+00-1.79461E-14 8.90010E-13
 -1      1334 3.22196E+01-8.50869E-02 5.91091E-02 1.06202E+00-1.18152E-14 8.51930E-13
 -1      1335 2.87351E+01 1.06298E-01-4.46097E-02 1.76343E+00-7.30284E-14 6.24611E-13
 -1      1336 3.29863E+01-2.49725E-01 1.05740E-01 7.07598E-01 7.06483E-14 8.81434E-13
 -1      1337 3.34833E+01-4.40216E-01 1.30884E-01 5.05861E-01 5.80855E-14 9.50004E-13
 -1      1338 3.01326E+01-4.06848E-01 2.89517E-02 1.66800E+00 6.23876E-14 6.64524E-13
 -1      1339 3.40443E+01-6.48289E-01 2.04440E-01-6.38694E-01 1.04847E-13 1.03775E-12
 -1      1340 3.25905E+01-7.39826E-01 1.00970E-01-1.12038E+00 5.86475E-14 1.15358E-12
 -1      1341 3.16133E+01-1.16463E+00 8.76494E-02 2.54568E-03 1.60413E-13 7.45174E-13
 -1      1342 3.25200E+01-7.30153E-01 1.01064E-01-2.41368E+00 1.71529E-14 1.17878E-12
 -1      1343 2.94591E+01-4.21803E-01-1.60771E-01-2.73577E+00-6.94306E-14 1.14719E-12
 -1      1344 3.23376E+01-1.41440E+00 5.11912E-02-2.85527E+00 7.13735E-14 8.87325E-13
 -1      1345 2.38564E+01 8.72706E-01-7.69861E-01-1.22227E+00-2.87409E-13 6.98247E-13
 -1      1346 2.27788E+01 1.04777E+00-8.78907E-01-5.29524E-01-2.65343E-13 3.72275E-13
 -1      1347 2.29741E+01 9.18297E-01-8.57854E-01 1.42185E+00-2.59875E-13 2.80331E-14
 -1      1348 2.49885E+01 6.72082E-01-6.30261E-01 1.91911E+00-2.93182E-13-3.13805E-13
 -1      1349 2.86145E+01 1.95199E+00-5.19878E-01 7.49412E-01-5.87030E-13 1.39336E-13
 -1      1350 2.58815E+01 2.33621E-01-5.13108E-01 2.78910E+00-2.10748E-13-5.12701E-13
 -1      1351 2.91317E+01-1.31307E-01-1.89385E-01 2.79170E+00-1.53488E-13-7.36133E-13
 -1      1352 2.96561E+01 9.21515E-01-3.50433E-01 4.10881E+00-5.19473E-13-3.74180E-13
 -1      1353 3.02123E+01-4.22480E-01-5.25378E-02 2.18822E+00-6.03909E-14-8.85625E-13
 -1      1354 3.31562E+01-6.19901E-01 1.86695E-01 1.80020E+00 1.50912E-14-9.37361E-13
 -1      1355 3.13602E+01-5.34997E-01-7.39916E-02 4.40586E+00-2.33355E-13-7.28730E-13
 -1      1356 3.33085E+01-5.20315E-01 1.83477E-01 5.04661E-01 1.77983E-14-9.31588E-13
 -1      1357 3.41174E+01-4.29293E-01 2.20230E-01 1.43368E-01 2.83246E-14-8.74606E-13
 -1      1358 3.22374E+01-1.11533E+00 1.07674E-01 1.96662E+00-1.69031E-14-7.55840E-13
 -1      1359 3.34067E+01-2.92730E-01 1.41251E-01-7.36559E-01 8.52096E-14-7.62701E-13
 -1      1360 3.24477E+01-1.21507E-01 9.47595E-02-8.96490E-01 1.57284E-13-6.77028E-13
 -1      1361 3.14604E+01-7.26195E-01 1.11487E-01-6.60508E-01 1.27141E-13-6.32975E-13
 -1      1362 3.13452E+01-7.54749E-02 3.45533E-02-1.14718E+00 1.19381E-13-5.63924E-13
 -1      1363 2.97387E+01 4.28129E-02-5.20563E-03-1.15432E+00 8.18555E-14-3.76421E-13
 -1      1364 2.95933E+01-2.31649E-01 3.29105E-02-1.96519E+00 2.24688E-13-4.30208E-13
 -1      1365 2.86500E+01 3.38174E-02-1.93237E-02-1.06358E+00 8.56147E-14-3.42434E-13
 -1      1366 2.71291E+01 8.66801E-02-3.35225E-02-1.01739E+00 1.16940E-13-2.42806E-13
 -1      1367 2.74500E+01 5.29892E-02-1.37338E-02-2.11861E+00 1.34669E-13-2.99635E-13
 -1      1368 2.62140E+01 6.42244E-02-2.63735E-02-8.27519E-01-2.15106E-15-1.75249E-13
 -1      1369 2.50214E+01 8.03387E-02-2.97328E-02-7.76006E-01-8.30161E-14-2.49537E-13
 -1      1370 2.55115E+01 1.33756E-01-2.63704E-02-1.77091E+00 1.04892E-13-2.40613E-13
 -1      1371 2.43175E+01 6.08448E-02-1.84351E-02-5.94373E-01-1.82762E-14-2.50397E-13
 -1      1372 2.34601E+01 6.11686E-02-1.93720E-02-5.52506E-01 2.84738E-14-2.07789E-13
 -1      1373 2.39505E+01 1.28420E-01-2.31149E-02-1.32372E+00-5.29299E-14-1.20320E-13
 -1      1374 2.29454E+01 4.76848E-02-1.00507E-02-4.10527E-01-6.04673E-14-1.53651E-13
 -1      1375 2.23549E+01 4.28845E-02-1.10693E-02-3.80193E-01-2.63643E-14-1.98550E-13
 -1      1376 2.27759E+01 9.88668E-02-1.65441E-02-9.35779E-01 1.08819E-14-1.24381E-13
 -1      1377 2.19894E+01 3.44594E-02-4.65526E-03-2.78361E-01-5.35713E-14-2.97535E-13
 -1      1378 2.15909E+01 2.89502E-02-5.94544E-03-2.57465E-01-3.07575E-14-3.64367E-13
 -1      1379 2.19265E+01 6.94891E-02-1.10429E-02-6.43267E-01-6.11160E-14-1.87998E-13
 -1      1380 2.13356E+01 2.39682E-02-1.81946E-03-1.87340E-01 1.26022E-13-3.21242E-13
 -1      1381 2.10691E+01 1.92290E-02-3.10181E-03-1.73257E-01 8.25763E-14-1.81306E-13
 -1      1382 2.13261E+01 4.68404E-02-7.25698E-03-4.36441E-01 1.10975E-13-2.68853E-13
 -1      1383 2.08921E+01 1.63849E-02-5.03452E-04-1.25854E-01 5.39631E-14-1.39736E-13
 -1      1384 2.07142E+01 1.27090E-02-1.59309E-03-1.16436E-01 7.37630E-14-5.89255E-14
 -1      1385 2.09070E+01 3.10016E-02-4.79961E-03-2.94633E-01 1.51522E-13-2.73006E-13
 -1      1386 2.05921E+01 1.11384E-02 4.19199E-05-8.46050E-02-9.25518E-15-1.18262E-13
 -1      1387 2.04733E+01 8.40174E-03-8.12553E-04-7.83004E-02-1.13603E-14-1.11054E-13
 -1      1388 2.06162E+01 2.03996E-02-3.21640E-03-1.98712E-01 3.87147E-15-1.61591E-13
 -1      1389 2.03892E+01 7.63337E-03 2.46014E-04-5.69353E-02 3.11046E-14-1.43002E-13
 -1      1390 2.03096E+01 5.51529E-03-4.68156E-04-5.26758E-02 6.65735E-14-6.14145E-14
 -1      1391 2.04151E+01 1.33882E-02-2.20544E-03-1.34093E-01 1.71096E-14-4.13255E-15
 -1      1392 2.02492E+01 5.08484E-03 2.52647E-04-3.77465E-02-4.58713E-14-8.11194E-14
 -1      1393 2.01942E+01 3.56924E-03-2.02456E-04-3.47106E-02-1.18361E-13-1.64701E-13
 -1      1394 2.02737E+01 9.07505E-03-1.37313E-03-8.98352E-02-8.04131E-15-2.85294E-14
 -1      1395 2.01554E+01 3.52400E-03 2.60352E-04-2.51498E-02-8.81293E-14-2.45689E-13
 -1      1396 2.01208E+01 2.46256E-03-7.15986E-05-2.32520E-02-8.53901E-14-4.50958E-13
 -1      1397 2.01767E+01 5.75429E-03-1.03605E-03-5.97470E-02-2.18022E-13-1.85560E-13
 -1      1398 2.00942E+01 2.40273E-03 2.00006E-04-1.67345E-02-6.75946E-15-3.24042E-13
 -1      1399 2.00713E+01 1.66301E-03-1.88844E-05-1.54257E-02 1.98975E-13-2.40624E-13
 -1      1400 2.01122E+01 3.89290E-03-7.12684E-04-3.99959E-02 2.51398E-14 1.22793E-14
 -1      1401 2.00533E+01 1.66447E-03 1.58966E-04-1.09719E-02 1.11460E-13-2.86392E-13
 -1      1402 2.00385E+01 1.12215E-03 8.05831E-06-1.00727E-02 1.31324E-14-1.32024E-13
 -1      1403 2.00683E+01 2.62075E-03-4.98901E-04-2.64923E-02 1.74824E-13 1.66492E-14
 -1      1404 2.00265E+01 1.15490E-03 1.24887E-04-7.02677E-03 1.12573E-13-9.79595E-14
 -1      1405 2.00171E+01 7.53901E-04 2.08637E-05-6.40931E-03 1.52141E-13 1.43617E-13
 -1      1406 2.00387E+01 1.76584E-03-3.49393E-04-1.72317E-02 1.82267E-13 1.80386E-13
 -1      1407 2.00093E+01 7.99664E-04 9.73599E-05-4.33266E-03-1.18925E-13 1.95317E-13
 -1      1408 2.00036E+01 5.01167E-04 2.60798E-05-3.91069E-03-1.86306E-13 2.18698E-14
 -1      1409 2.00191E+01 1.18556E-03-2.43695E-04-1.08853E-02 2.64354E-14 1.30525E-13
 -1      1410 1.99987E+01 5.50059E-04 7.56771E-05-2.50652E-03 1.77690E-14-1.76299E-13
 -1      1411 1.99954E+01 3.26873E-04 2.72874E-05-2.22120E-03 1.14771E-13-1.56706E-14
 -1      1412 2.00065E+01 7.88200E-04-1.68496E-04-6.55750E-03-1.39374E-13 3.69340E-15
 -1      1413 1.99925E+01 3.73754E-04 5.88041E-05-1.28593E-03 1.40836E-14-1.17426E-13
 -1      1414 1.99909E+01 2.06595E-04 2.63937E-05-1.09650E-03-1.33156E-13-1.52443E-13
 -1      1415 1.99986E+01 5.14544E-04-1.14799E-04-3.63703E-03 3.55884E-15-1.48968E-13
 -1      1416 1.99893E+01 2.49004E-04 4.57105E-05-4.88595E-04-1.69296E-13-2.13994E-13
 -1      1417 1.99888E+01 1.23972E-04 2.44223E-05-3.66417E-04-2.08425E-13-6.07733E-13
 -1      1418 1.99941E+01 3.25799E-04-7.64621E-05-1.70117E-03-2.72573E-13-3.27664E-13
 -1      1419 1.99881E+01 1.60950E-04 3.55244E-05 1.36765E-05-1.51542E-13-7.95775E-13
 -1      1420 1.99883E+01 6.78378E-05 2.19392E-05 8.89410E-05-1.45339E-13-1.11548E-12
 -1      1421 1.99918E+01 1.96117E-04-4.92205E-05-4.53842E-04-3.17278E-13-5.89510E-13
 -1      1422 1.99881E+01 9.92532E-05 2.75637E-05 3.11907E-04 1.24054E-13-1.23084E-12
 -1      1423 1.99887E+01 3.04320E-05 1.92700E-05 3.54822E-04 2.57812E-13-9.48487E-13
 -1      1424 1.99909E+01 1.07935E-04-3.00514E-05 3.14584E-04-5.74485E-14-7.34946E-13
 -1      1425 1.99889E+01 5.65908E-05 2.13139E-05 4.71099E-04 2.03618E-13-8.39253E-13
 -1      1426 1.99896E+01 6.26658E-06 1.66092E-05 4.92127E-04 1.01484E-13-5.78382E-13
 -1      1427 1.99910E+01 4.90860E-05-1.67731E-05 7.53600E-04 2.70005E-13-4.70835E-13
 -1      1428 1.99900E+01 2.76884E-05 1.63915E-05 5.37730E-04 1.80234E-13-4.04941E-13
 -1      1429 1.99908E+01-8.59139E-06 1.40753E-05 5.44374E-04 2.44696E-13-1.87170E-13
 -1      1430 1.99916E+01 1.09849E-05-7.78685E-06 9.70179E-04 3.03072E-13-4.11698E-13
 -1      1431 1.99913E+01 8.69739E-06 1.25099E-05 5.44910E-04 1.63336E-13-9.74590E-14
 -1      1432 1.99921E+01-1.69862E-05 1.17387E-05 5.42517E-04 8.76599E-14 4.73575E-14
 -1      1433 1.99925E+01-1.25141E-05-1.90861E-06 1.04076E-03 2.77651E-13-1.59812E-13
 -1      1434 1.99927E+01-3.21600E-06 9.45203E-06 5.16007E-04 1.85391E-13 6.08371E-14
 -1      1435 1.99934E+01-2.09833E-05 9.63766E-06 5.08336E-04 2.52976E-13 4.05166E-13
 -1      1436 1.99935E+01-2.58550E-05 1.74408E-06 1.01963E-03 2.31269E-13 1.22178E-13
 -1      1437 1.99939E+01-1.01483E-05 7.05038E-06 4.67252E-04-7.70487E-14 3.45882E-13
 -1      1438 1.99946E+01-2.20810E-05 7.78786E-06 4.56894E-04 4.08993E-14 2.79234E-13
 -1      1439 1.99945E+01-3.22672E-05 3.82976E-06 9.44833E-04 3.73678E-14 2.44676E-13
 -1      1440 1.99951E+01-1.36518E-05 5.17308E-06 4.09643E-04 8.57757E-14 2.68783E-13
 -1      1441 1.99957E+01-2.13613E-05 6.18884E-06 3.98331E-04-6.96959E-14 2.15687E-13
 -1      1442 1.99954E+01-3.40977E-05 4.83856E-06 8.42535E-04-2.13748E-14 4.49281E-13
 -1      1443 1.99961E+01-1.48734E-05 3.71483E-06 3.50355E-04-1.48156E-14 1.62021E-13
 -1      1444 1.99966E+01-1.95995E-05 4.82947E-06 3.39193E-04-6.18648E-14 7.29494E-14
 -1      1445 1.99963E+01-3.30463E-05 5.13329E-06 7.30185E-04-1.35525E-13 8.89253E-14
 -1      1446 1.99969E+01-1.46591E-05 2.59110E-06 2.93781E-04-3.54486E-14 1.14564E-13
 -1      1447 1.99974E+01-1.73477E-05 3.69295E-06 2.83416E-04 1.37807E-13 2.13508E-13
 -1      1448 1.99971E+01-3.03380E-05 4.98084E-06 6.18869E-04 9.49271E-14 8.41178E-14
 -1      1449 1.99977E+01-1.36348E-05 1.73564E-06 2.42293E-04 6.54372E-14 2.90528E-13
 -1      1450 1.99980E+01-1.49995E-05 2.76400E-06 2.33035E-04 1.12610E-15 3.12583E-13
 -1      1451 1.99977E+01-2.68558E-05 4.57701E-06 5.15045E-04 1.76256E-13 2.24115E-13
 -1      1452 1.99983E+01-1.22748E-05 1.10411E-06 1.96782E-04 9.38708E-14 1.98936E-13
 -1      1453 1.99985E+01-1.28439E-05 2.04233E-06 1.88687E-04 6.58665E-14 3.17349E-13
 -1      1454 1.99983E+01-2.32503E-05 4.06838E-06 4.21792E-04 7.16347E-14 2.60986E-13
 -1      1455 1.99987E+01-1.09604E-05 6.86448E-07 1.57008E-04-9.54470E-14 2.04980E-13
 -1      1456 1.99990E+01-1.11050E-05 1.56677E-06 1.49928E-04 1.10609E-13 4.96216E-14
 -1      1457 1.99987E+01-2.00299E-05 3.57687E-06 3.39664E-04-8.17902E-14 3.94075E-13
 -1      1458 1.99991E+01-1.00227E-05 5.31928E-07 1.21823E-04-8.58977E-16 2.09835E-14
 -1      1459 1.99993E+01-9.96087E-06 1.43408E-06 1.15420E-04-2.91406E-15 2.40112E-13
 -1      1460 1.99991E+01-1.76376E-05 3.22263E-06 2.67240E-04-1.55920E-14 2.58755E-13
 -1      1461 1.99994E+01-9.79316E-06 7.43976E-07 8.93053E-05-1.21067E-13-9.85131E-14
 -1      1462 1.99995E+01-9.52370E-06 1.72125E-06 8.30214E-05-1.68921E-13-2.84419E-13
 -1      1463 1.99993E+01-1.65076E-05 3.12388E-06 2.01494E-04-2.00399E-13 3.34388E-13
 -1      1464 1.99996E+01-1.04730E-05 1.30931E-06 5.70985E-05 2.12727E-14-4.57076E-13
 -1      1465 1.99997E+01-9.63314E-06 1.92154E-06 5.02429E-05 7.89870E-14-3.65939E-13
 -1      1466 1.99996E+01-1.69267E-05 3.27164E-06 1.38296E-04-2.00246E-13-1.46756E-14
 -1      1467 1.99998E+01-1.05020E-05 1.56434E-06 2.42348E-05 8.98309E-14-2.38201E-13
 -1      1468 1.99998E+01-1.03789E-05-1.28634E-06 1.67210E-05 2.00943E-13 9.19878E-14
 -1      1469 1.99997E+01-1.79664E-05 3.16214E-06 7.47166E-05 2.12197E-13-1.43140E-13
 -1      1470 1.99998E+01-8.89625E-06-9.66710E-07 8.97102E-07 1.91550E-13 1.03295E-13
 -1      1471 1.99998E+01-5.08499E-06-9.24806E-06 4.14864E-07 6.37262E-14 1.54217E-13
 -1      1472 1.99998E+01 3.24089E-08-2.79380E-07 3.96289E-07-2.70790E-13-2.02331E-13
 -1      1473 1.99998E+01-1.84069E-05 1.08137E-06 2.49840E-05 3.50509E-13 4.56556E-15
 -1      1474 2.01372E+01 7.19170E-02-1.60899E-01 6.59994E-01 1.38976E-13 1.61211E-12
 -1      1475 2.16779E+01 2.10068E-01-2.42791E-01 9.05626E-01 1.24026E-13 1.81063E-12
 -1      1476 2.19360E+01 9.31933E-01-8.12194E-02 2.42209E+00 2.34431E-13 1.27791E-12
 -1      1477 1.87191E+01 2.54370E-02-1.97353E-02 3.90282E-01 9.87474E-14 1.35767E-12
 -1      1478 1.94169E+01 9.97978E-02-6.72343E-02 4.32325E-01 9.42822E-14 1.50539E-12
 -1      1479 2.01265E+01 1.76434E-01-5.24686E-02 1.14976E+00 2.01644E-13 1.07792E-12
 -1      1480 1.77638E+01 1.10191E-02 8.49102E-03 2.93691E-01 8.21851E-14 1.15123E-12
 -1      1481 1.82263E+01 3.55909E-02 1.42143E-03 3.07558E-01 6.72917E-14 1.26308E-12
 -1      1482 1.89253E+01 4.91481E-02-9.90881E-03 7.20319E-01 1.52751E-13 9.13162E-13
 -1      1483 1.70221E+01 1.09946E-02 6.58720E-03 2.46678E-01 7.14697E-14 1.00512E-12
 -1      1484 1.73932E+01 1.75265E-02 1.15618E-02 2.53844E-01 6.63740E-14 1.09686E-12
 -1      1485 1.80774E+01 1.61185E-02-2.39131E-03 5.50486E-01 1.22904E-13 7.89710E-13
 -1      1486 1.64389E+01 1.69464E-02-5.02488E-04 1.91140E-01 3.28682E-14 9.02519E-13
 -1      1487 1.67368E+01 2.01746E-02 6.89119E-03 2.02648E-01 3.50163E-14 9.69961E-13
 -1      1488 1.74314E+01 2.17399E-02-3.98356E-03 4.39316E-01 8.69591E-14 7.01677E-13
 -1      1489 1.60522E+01 2.41176E-02-6.31940E-03 1.07457E-01 4.27141E-14 7.94564E-13
 -1      1490 1.62485E+01 3.03115E-02 1.71032E-03 1.28111E-01 3.57444E-14 8.29723E-13
 -1      1491 1.69618E+01 3.68249E-02-8.18941E-03 3.02667E-01 7.33233E-14 5.93798E-13
 -1      1492 1.59225E+01 2.79070E-02-9.23540E-03-1.88723E-03 6.25667E-14 6.73757E-13
 -1      1493 1.59791E+01 3.96382E-02-1.34558E-03 2.70336E-02 5.03928E-14 7.42332E-13
 -1      1494 1.66969E+01 4.96318E-02-1.22289E-02 1.17486E-01 8.52044E-14 5.02020E-13
 -1      1495 1.60837E+01 2.57929E-02-8.72464E-03-1.18252E-01 5.11713E-14 4.99208E-13
 -1      1496 1.59797E+01 4.25439E-02-2.14287E-03-8.62220E-02 6.04196E-14 6.06988E-13
 -1      1497 1.66719E+01 5.28284E-02-1.42559E-02-9.90914E-02 1.02460E-13 3.63250E-13
 -1      1498 1.65162E+01 1.80266E-02-5.30565E-03-2.16993E-01 4.18203E-14 4.02969E-13
 -1      1499 1.62623E+01 3.70197E-02-1.09938E-03-1.88680E-01 3.20356E-14 4.71199E-13
 -1      1500 1.68921E+01 4.40679E-02-1.33765E-02-3.07253E-01 8.62765E-14 2.99261E-13
 -1      1501 1.71465E+01 7.18258E-03-4.53985E-04-2.78460E-01 3.71502E-14 3.41269E-13
 -1      1502 1.67841E+01 2.47936E-02 9.71646E-04-2.59349E-01 4.51950E-14 3.92575E-13
 -1      1503 1.73191E+01 2.59947E-02-9.94388E-03-4.64766E-01 7.27331E-14 2.63875E-13
 -1      1504 1.78695E+01-3.35011E-03 4.07427E-03-2.95215E-01 1.15503E-14 2.81285E-13
 -1      1505 1.74579E+01 9.93553E-03 3.07958E-03-2.87500E-01 3.65268E-15 2.93467E-13
 -1      1506 1.78778E+01 4.51815E-03-5.24288E-03-5.44836E-01 3.67391E-14 2.10765E-13
 -1      1507 1.85802E+01-1.09865E-02 7.01797E-03-2.72655E-01 4.17664E-14 2.16776E-13
 -1      1508 1.81782E+01-3.35076E-03 4.44293E-03-2.75130E-01 2.83710E-14 2.84148E-13
 -1      1509 1.84791E+01-1.42086E-02-7.54376E-04-5.44283E-01 3.59370E-14 1.41069E-13
 -1      1510 1.91986E+01-1.47448E-02 7.99708E-03-2.24272E-01 6.73029E-15 2.35360E-13
 -1      1511 1.88508E+01-1.24206E-02 4.75264E-03-2.33627E-01 3.99290E-15 2.35683E-13
 -1      1512 1.90431E+01-2.62682E-02 2.51293E-03-4.80200E-01 4.34808E-15 1.38198E-13
 -1      1513 1.96814E+01-1.50567E-02 7.37218E-03-1.65318E-01 5.00455E-14 2.08692E-13
 -1      1514 1.94116E+01-1.66442E-02 4.16183E-03-1.77784E-01 3.47873E-14 2.51393E-13
 -1      1515 1.95156E+01-3.07973E-02 4.24984E-03-3.79629E-01 3.42430E-14 1.12249E-13
 -1      1516 2.00190E+01-1.30817E-02 5.82853E-03-1.08120E-01 1.73902E-14 1.12047E-13
 -1      1517 1.98318E+01-1.68703E-02 3.06977E-03-1.20645E-01 5.24719E-14 2.13616E-13
 -1      1518 1.98717E+01-2.92737E-02 4.66653E-03-2.69013E-01 6.73957E-14 1.68973E-13
 -1      1519 2.02259E+01-1.00540E-02 4.02436E-03-6.01619E-02-4.73877E-14 1.28866E-13
 -1      1520 2.01124E+01-1.45710E-02 1.88205E-03-7.08693E-02-1.51795E-14 1.19395E-13
 -1      1521 2.01114E+01-2.41408E-02 4.21195E-03-1.67710E-01-1.40729E-15 1.56310E-13
 -1      1522 2.03291E+01-6.91178E-03 2.39895E-03-2.43723E-02 2.33160E-14 1.28371E-13
 -1      1523 2.02735E+01-1.11625E-02 8.75854E-04-3.24814E-02 1.34003E-14 1.00625E-13
 -1      1524 2.02506E+01-1.77025E-02 3.33405E-03-8.61991E-02 1.45166E-14 1.17356E-13
 -1      1525 2.03583E+01-4.19865E-03 1.15501E-03-4.77970E-04-7.44959E-14 1.37288E-13
 -1      1526 2.03436E+01-7.66750E-03 1.67806E-04-5.97556E-03-3.06806E-14 1.18869E-13
 -1      1527 2.03123E+01-1.15615E-02 2.36398E-03-2.74862E-02-2.35536E-14 1.30389E-13
 -1      1528 2.03406E+01-2.12967E-03 3.21791E-04 1.35069E-02-8.36218E-15 1.26670E-13
 -1      1529 2.03514E+01-4.66191E-03-2.44211E-04 1.02194E-02-2.86499E-14 1.41576E-13
 -1      1530 2.03203E+01-6.54969E-03 1.49499E-03 1.02634E-02-8.07607E-14 7.93061E-14
 -1      1531 2.02972E+01-7.08076E-04-1.63917E-04 2.01351E-02 7.34067E-15 2.09545E-13
 -1      1532 2.03217E+01-2.36741E-03-4.24119E-04 1.85100E-02-2.72687E-14 2.02108E-13
 -1      1533 2.02954E+01-2.90931E-03 8.09890E-04 3.12145E-02-4.48463E-14 1.38270E-13
 -1      1534 2.02434E+01 1.69027E-04-3.96344E-04 2.18312E-02 4.20746E-14 1.34221E-13
 -1      1535 2.02732E+01-7.82747E-04-4.51344E-04 2.13372E-02 3.23121E-15 1.54071E-13
 -1      1536 2.02533E+01-5.33280E-04 3.20839E-04 4.00715E-02 2.06934E-14 1.55534E-13
 -1      1537 2.01891E+01 6.38258E-04-4.65282E-04 2.05703E-02 1.26765E-13-5.04142E-14
 -1      1538 2.02187E+01 2.04149E-04-3.95114E-04 2.07685E-02 1.05133E-13 1.81569E-13
 -1      1539 2.02054E+01 8.38548E-04 3.39574E-06 4.10625E-02 9.23696E-14 1.47774E-13
 -1      1540 2.01398E+01 8.29441E-04-4.41342E-04 1.77978E-02-1.34299E-15-1.55198E-13
 -1      1541 2.01664E+01 7.40564E-04-3.05093E-04 1.83632E-02 5.02024E-14-9.05714E-14
 -1      1542 2.01587E+01 1.49419E-03-1.80388E-04 3.75174E-02 1.33691E-13 1.38647E-13
 -1      1543 2.00982E+01 8.48038E-04-3.73458E-04 1.44792E-02-3.31323E-15-9.19450E-14
 -1      1544 2.01204E+01 9.66739E-04-2.11733E-04 1.51914E-02-6.37281E-14-2.03711E-13
 -1      1545 2.01170E+01 1.68587E-03-2.68839E-04 3.18118E-02 2.29019E-15-1.09236E-13
 -1      1546 2.00649E+01 7.71347E-04-2.92090E-04 1.12006E-02 5.72167E-14-8.80606E-14
 -1      1547 2.00824E+01 9.97396E-04-1.30634E-04 1.19231E-02 7.43064E-14-1.06798E-13
 -1      1548 2.00822E+01 1.60730E-03-2.94540E-04 2.54941E-02 5.94508E-14-1.17032E-13
 -1      1549 2.00395E+01 6.51529E-04-2.14124E-04 8.27516E-03 4.32302E-14-1.99184E-13
 -1      1550 2.00527E+01 9.17554E-04-6.75794E-05 8.93248E-03 3.66551E-14-1.01101E-13
 -1      1551 2.00545E+01 1.39379E-03-2.82489E-04 1.94767E-02 5.44313E-14-4.99019E-14
 -1      1552 2.00209E+01 5.21055E-04-1.47472E-04 5.83472E-03-1.28996E-14-3.02868E-13
 -1      1553 2.00304E+01 7.85438E-04-2.27175E-05 6.39261E-03-5.30602E-15-2.67317E-13
 -1      1554 2.00334E+01 1.13215E-03-2.50477E-04 1.42237E-02 5.48118E-14-1.28142E-13
 -1      1555 2.00080E+01 3.98247E-04-9.46222E-05 3.90037E-03-9.53645E-15-2.35152E-13
 -1      1556 2.00145E+01 6.37991E-04 6.50548E-06 4.35025E-03-9.86695E-14-3.51483E-13
 -1      1557 2.00180E+01 8.73233E-04-2.10323E-04 9.90786E-03-9.92791E-14-2.91725E-13
 -1      1558 1.99995E+01 2.91952E-04-5.51061E-05 2.43223E-03 5.66612E-14-2.06410E-13
 -1      1559 2.00037E+01 4.96631E-04 2.35518E-05 2.78011E-03 4.36835E-14-1.19556E-13
 -1      1560 2.00073E+01 6.43202E-04-1.69321E-04 6.52714E-03-6.67911E-15-2.85942E-13
 -1      1561 1.99943E+01 2.05113E-04-2.70790E-05 1.36235E-03-5.17944E-14-1.78316E-13
 -1      1562 1.99967E+01 3.72200E-04 3.18181E-05 1.62137E-03-3.03312E-14-1.93132E-13
 -1      1563 2.00001E+01 4.52510E-04-1.31545E-04 3.98719E-03 2.65913E-14-1.05640E-13
 -1      1564 1.99914E+01 1.37292E-04-8.25582E-06 6.14930E-04-2.64020E-14-3.51376E-13
 -1      1565 1.99927E+01 2.68805E-04 3.41921E-05 8.00719E-04 7.27559E-14-2.56821E-13
 -1      1566 1.99957E+01 3.02378E-04-9.89255E-05 2.15420E-03 8.55256E-14-1.36340E-13
 -1      1567 1.99902E+01 8.63467E-05 3.58492E-06 1.17660E-04 1.91907E-16-2.46657E-13
 -1      1568 1.99906E+01 1.86585E-04 3.29191E-05 2.45628E-04-7.68076E-14-3.60541E-13
 -1      1569 1.99933E+01 1.89167E-04-7.20420E-05 8.87058E-04-3.21433E-14-1.97701E-13
 -1      1570 1.99901E+01 4.94701E-05 1.03689E-05-1.92716E-04-1.49561E-14-2.70627E-13
 -1      1571 1.99900E+01 1.23574E-04 2.96305E-05-1.08774E-04-3.89832E-14-3.23114E-13
 -1      1572 1.99922E+01 1.07153E-04-5.06936E-05 5.47792E-05-7.53036E-15-1.63651E-13
 -1      1573 1.99907E+01 2.37969E-05 1.36511E-05-3.68463E-04-7.54150E-14-2.27117E-13
 -1      1574 1.99903E+01 7.68961E-05 2.54414E-05-3.16928E-04 4.17880E-14-1.44172E-13
 -1      1575 1.99921E+01 5.01501E-05-3.42765E-05-4.55336E-04-2.88878E-14-2.62830E-13
 -1      1576 1.99917E+01 6.71648E-06 1.46245E-05-4.50936E-04 1.33256E-13-2.69379E-13
 -1      1577 1.99910E+01 4.34766E-05 2.10669E-05-4.22449E-04 3.15763E-14-1.88022E-13
 -1      1578 1.99925E+01 1.23835E-05-2.20250E-05-7.35337E-04 7.77428E-14-6.57217E-14
 -1      1579 1.99928E+01-3.99213E-06 1.41665E-05-4.71699E-04-7.68386E-14-2.40729E-13
 -1      1580 1.99921E+01 2.04292E-05 1.69304E-05-4.58985E-04 2.34531E-15-2.23178E-13
 -1      1581 1.99932E+01-1.11179E-05-1.31551E-05-8.57413E-04 8.58613E-14 2.88699E-14
 -1      1582 1.99939E+01-1.01309E-05 1.28984E-05-4.54058E-04-1.77827E-13-6.33600E-14
 -1      1583 1.99932E+01 5.23931E-06 1.32528E-05-4.51639E-04-6.03554E-14-1.65565E-13
 -1      1584 1.99941E+01-2.44077E-05-6.94250E-06-8.76243E-04-1.56313E-13 3.01791E-13
 -1      1585 1.99950E+01-1.31101E-05 1.12432E-05-4.14663E-04 7.95263E-14 9.92057E-14
 -1      1586 1.99944E+01-4.17735E-06 1.01224E-05-4.18540E-04-8.71817E-14-5.29238E-14
 -1      1587 1.99950E+01-3.06602E-05-2.75859E-06-8.31914E-04-1.90507E-13 4.45893E-15
 -1      1588 1.99959E+01-1.40012E-05 9.47655E-06-3.64975E-04-6.21691E-14 4.66032E-14
 -1      1589 1.99954E+01-9.48754E-06 7.54501E-06-3.72316E-04 3.23533E-14 3.07447E-14
 -1      1590 1.99959E+01-3.22816E-05-8.08709E-08-7.52835E-04 1.12002E-14 2.16544E-14
 -1      1591 1.99968E+01-1.35993E-05 7.76853E-06-3.12514E-04-6.97965E-14 1.89198E-13
 -1      1592 1.99963E+01-1.19885E-05 5.47952E-06-3.21395E-04-3.42945E-14 1.14914E-13
 -1      1593 1.99966E+01-3.10474E-05 1.51146E-06-6.58363E-04 3.89300E-15 1.44733E-13
 -1      1594 1.99975E+01-1.24839E-05 6.21736E-06-2.61873E-04-3.50892E-14 2.10537E-13
 -1      1595 1.99971E+01-1.26717E-05 3.86176E-06-2.71058E-04-8.14302E-14 7.05810E-14
 -1      1596 1.99973E+01-2.82394E-05 2.34953E-06-5.61009E-04-5.43891E-14 7.33738E-14
 -1      1597 1.99981E+01-1.10747E-05 4.87905E-06-2.15498E-04 7.85378E-14 1.13930E-13
 -1      1598 1.99978E+01-1.22901E-05 2.62083E-06-2.24269E-04 3.06933E-14 2.56495E-13
 -1      1599 1.99979E+01-2.47728E-05 2.69120E-06-4.68198E-04 1.32742E-14-6.73931E-14
 -1      1600 1.99986E+01-9.67959E-06 3.79990E-06-1.74248E-04 1.38986E-13-2.50237E-13
 -1      1601 1.99984E+01-1.14250E-05 1.69609E-06-1.82284E-04 3.10806E-13 1.81646E-13
 -1      1602 1.99984E+01-2.13100E-05 2.74212E-06-3.83602E-04 3.76067E-13 1.02718E-13
 -1      1603 1.99990E+01-8.54092E-06 3.05128E-06-1.37761E-04 4.03278E-14-5.28098E-13
 -1      1604 1.99988E+01-1.05553E-05 1.05602E-06-1.45072E-04 2.84148E-15-4.77240E-13
 -1      1605 1.99989E+01-1.83607E-05 2.68320E-06-3.08092E-04 1.88422E-13-9.80375E-14
 -1      1606 1.99994E+01-7.86753E-06 2.75998E-06-1.04631E-04 7.30224E-14-7.56689E-13
 -1      1607 1.99992E+01-1.01271E-05 7.21775E-07-1.11553E-04 9.83101E-14-5.50912E-13
 -1      1608 1.99992E+01-1.63961E-05 2.69026E-06-2.40343E-04 1.00142E-13-3.28142E-13
 -1      1609 1.99996E+01-7.77360E-06 2.98466E-06-7.26772E-05-5.99149E-14-7.34117E-13
 -1      1610 1.99995E+01-1.04893E-05 7.63095E-07-7.98172E-05-6.08182E-15-7.58688E-13
 -1      1611 1.99994E+01-1.57597E-05 2.94754E-06-1.77246E-04 6.26677E-14-3.72973E-13
 -1      1612 1.99997E+01-8.02811E-06 2.90503E-06-3.93424E-05-3.36421E-14-6.18682E-13
 -1      1613 1.99997E+01-1.17852E-05 1.03081E-06-4.76931E-05-6.70619E-14-8.08590E-13
 -1      1614 1.99996E+01-1.67467E-05 3.28134E-06-1.14882E-04-8.16495E-14-4.79231E-13
 -1      1615 1.99998E+01-7.65528E-06-1.43496E-06-6.87795E-06 6.71147E-14-8.54780E-13
 -1      1616 1.99998E+01-1.19551E-05 2.76630E-07-1.54674E-05 1.74953E-13-6.51183E-13
 -1      1617 1.99997E+01-1.76860E-05 2.57457E-06-5.16530E-05 2.01620E-13-6.28108E-13
 -1      1618 1.99998E+01-5.33298E-07-3.52706E-06 4.22304E-06-4.63250E-13-5.26958E-13
 -1      1619 1.99998E+01-5.48088E-05 1.80790E-06-3.08924E-05-8.78977E-13-5.34184E-14
 -1      1620 1.99998E+01-2.74716E-05-1.32327E-06-2.26830E-05-7.11761E-13-5.02024E-15
 -1      1621 1.99998E+01-1.75952E-04 1.35454E-06-6.41967E-05-9.10213E-13 2.91598E-14
 -1      1622 1.99998E+01-1.06914E-04 1.24938E-06-5.72440E-05-8.69452E-13-1.21598E-13
 -1      1623 1.99998E+01-1.12355E-04 2.60624E-06-8.87008E-05-5.95302E-13-7.94453E-14
 -1      1624 1.99998E+01-3.44481E-04 5.67601E-07-8.46485E-05-9.07876E-13 1.35388E-13
 -1      1625 1.99998E+01-2.47893E-04 1.03532E-06-8.16508E-05-9.13129E-13 1.20285E-13
 -1      1626 1.99998E+01-2.36376E-04 2.35206E-06-1.42390E-04-4.94790E-13 1.12919E-14
 -1      1627 1.99998E+01-5.31929E-04 5.29467E-08-8.99209E-05-5.26072E-13 2.58720E-13
 -1      1628 1.99998E+01-4.26414E-04 3.96922E-07-9.01340E-05-9.48422E-13 4.34327E-13
 -1      1629 1.99998E+01-3.90584E-04 5.88298E-07-1.69505E-04-5.49780E-13 2.89556E-13
 -1      1630 1.99998E+01-7.05788E-04-1.70613E-07-8.08297E-05-4.80914E-13-6.51760E-14
 -1      1631 1.99998E+01-6.10500E-04 8.96219E-08-8.36846E-05-4.51268E-13-5.10582E-15
 -1      1632 1.99998E+01-5.50901E-04-1.02921E-06-1.68066E-04-6.00048E-13 3.12113E-13
 -1      1633 1.99998E+01-8.45888E-04-2.52703E-07-5.96162E-05-5.25148E-13-1.40924E-13
 -1      1634 1.99998E+01-7.72498E-04-8.95735E-08-6.46205E-05-3.01968E-13-2.10945E-13
 -1      1635 1.99998E+01-6.95626E-04-2.35341E-06-1.40754E-04-4.05319E-13-7.91477E-14
 -1      1636 1.99998E+01-9.28963E-04-2.50767E-07-3.00150E-05-6.27772E-13-1.34851E-13
 -1      1637 1.99998E+01-8.89735E-04-1.68414E-07-3.63171E-05-5.53330E-13-1.44789E-13
 -1      1638 1.99998E+01-8.05495E-04-3.30759E-06-9.28342E-05-3.23454E-13-1.08388E-13
 -1      1639 1.99998E+01-9.43713E-04-2.17198E-07 3.68172E-06-4.71505E-13-3.41192E-14
 -1      1640 1.99998E+01-9.44098E-04-2.19950E-07-3.06056E-06-5.90457E-13 6.56451E-14
 -1      1641 1.99998E+01-8.64120E-04-3.79892E-06-3.20133E-05-2.51529E-13-3.22154E-14
 -1      1642 1.99998E+01-8.88115E-04-1.61174E-07 3.69063E-05-3.52941E-13 1.03637E-13
 -1      1643 1.99998E+01-9.28092E-04-2.54558E-07 3.06164E-05-5.32275E-13 4.26398E-14
 -1      1644 1.99998E+01-8.63649E-04-3.79735E-06 3.31824E-05-1.94702E-13-1.03753E-13
 -1      1645 1.99998E+01-7.69791E-04-6.60723E-08 6.51135E-05-1.00122E-12-5.04724E-13
 -1      1646 1.99998E+01-8.43827E-04-2.71254E-07 6.01503E-05-4.32132E-13-3.32487E-13
 -1      1647 1.99998E+01-8.04122E-04-3.29573E-06 9.39122E-05-2.34752E-13-2.00311E-13
 -1      1648 1.99998E+01-6.08452E-04 8.57957E-08 8.38680E-05-1.13110E-12 1.79076E-13
 -1      1649 1.99998E+01-7.04105E-04-1.83044E-07 8.10504E-05-9.92153E-13-3.07872E-13
 -1      1650 1.99998E+01-6.94610E-04-2.36800E-06 1.41356E-04-3.33109E-13-4.83159E-13
 -1      1651 1.99998E+01-4.22537E-04 4.37249E-07 9.02499E-05-8.70222E-13 1.38845E-13
 -1      1652 1.99998E+01-5.28270E-04 7.45581E-08 9.01032E-05-1.14759E-12 3.55301E-13
 -1      1653 1.99998E+01-5.49463E-04-9.98031E-07 1.68432E-04-5.29766E-13 3.35754E-13
 -1      1654 1.99998E+01-2.44395E-04 9.52614E-07 8.13732E-05-4.16446E-13 2.27833E-13
 -1      1655 1.99998E+01-3.40529E-04 6.40847E-07 8.44887E-05-7.93747E-13 2.01137E-13
 -1      1656 1.99998E+01-3.87575E-04 6.51374E-07 1.69475E-04-3.24700E-13 2.96693E-13
 -1      1657 1.99998E+01-1.04275E-04 1.19092E-06 5.66449E-05-2.38736E-13 1.72245E-13
 -1      1658 1.99998E+01-1.72425E-04 1.57165E-06 6.33832E-05-4.11549E-13 2.30674E-13
 -1      1659 1.99998E+01-2.33525E-04 2.27941E-06 1.41259E-04-3.05012E-13 2.95839E-13
 -1      1660 1.99998E+01-2.83105E-05-5.80530E-07 2.33813E-05-1.68401E-13-1.11683E-13
 -1      1661 1.99998E+01-5.77408E-05 2.33193E-06 3.13025E-05-4.77827E-14-6.87171E-14
 -1      1662 1.99998E+01-1.17475E-04 3.06806E-06 8.87610E-05-1.00762E-13 1.90474E-13
 -1      1663 1.99998E+01-4.41954E-05 4.00605E-07 3.41972E-05 9.22204E-14-1.91503E-13
 -1      1664-2.58846E-01-1.38560E+01-1.44103E+00 1.61771E-01 9.55680E-13 7.85844E-13
 -1      1665-4.70961E-01-1.67547E+01-1.71952E+00 1.28163E+00 1.25955E-13 5.27356E-13
 -1      1666 1.85660E+00-7.41442E+00-1.07195E+00 1.35284E+00 2.05969E-12 1.32799E-12
 -1      1667 1.01232E+00-1.27935E+01-1.59185E+00 7.31639E-01 1.27554E-12 9.26821E-13
 -1      1668 7.27158E+00 6.62377E-01-4.82880E-01 5.38580E+00 2.49689E-12 1.83253E-12
 -1      1669 4.10973E+00-5.16721E+00-1.24720E+00 2.36277E+00 2.27618E-12 1.35864E-12
 -1      1670 1.86523E+01 5.76802E+00 3.04921E-01 1.07449E+01 2.07856E-12 1.98841E-12
 -1      1671 1.21147E+01 2.27512E+00-5.44972E-01 6.97851E+00 2.35323E-12 1.82354E-12
 -1      1672 3.23088E+01 7.85696E+00 1.04378E+00 1.40607E+01 1.57385E-12 1.97087E-12
 -1      1673 2.33422E+01 7.43016E+00 1.99302E-01 1.18372E+01 2.03570E-12 2.13030E-12
 -1      1674 4.62227E+01 6.25341E+00 1.55466E+00 1.26852E+01 9.16628E-13 1.54388E-12
 -1      1675 3.75361E+01 7.84189E+00 9.31442E-01 1.37319E+01 1.34143E-12 1.87961E-12
 -1      1676 5.57254E+01 4.19080E+00 1.80388E+00 6.65728E+00 5.42177E-13 6.56419E-13
 -1      1677 5.01679E+01 5.87283E+00 1.48809E+00 1.08843E+01 7.73132E-13 1.26765E-12
 -1      1678 5.72898E+01 3.85627E+00 1.69558E+00-1.66626E+00 4.76202E-13-3.94476E-13
 -1      1679 5.68649E+01 4.10720E+00 1.72624E+00 3.91006E+00 5.02348E-13 2.99816E-13
 -1      1680 5.11230E+01 5.41387E+00 1.37765E+00-8.98430E+00 6.99774E-13-1.27653E-12
 -1      1681 5.58786E+01 4.06039E+00 1.67701E+00-4.27588E+00 4.88304E-13-7.18925E-13
 -1      1682 4.01881E+01 7.48668E+00 9.54554E-01-1.33364E+01 1.16512E-12-1.86262E-12
 -1      1683 4.82238E+01 5.67938E+00 1.49355E+00-1.14831E+01 8.09033E-13-1.57863E-12
 -1      1684 2.67867E+01 8.02075E+00 3.29868E-01-1.27408E+01 1.62348E-12-2.00440E-12
 -1      1685 3.53848E+01 7.64507E+00 1.04343E+00-1.40554E+01 1.32672E-12-1.97375E-12
 -1      1686 1.46184E+01 5.30682E+00-3.31472E-01-8.83073E+00 1.92713E-12-1.74905E-12
 -1      1687 2.16439E+01 7.56873E+00 4.53499E-01-1.21678E+01 1.74949E-12-1.97808E-12
 -1      1688 6.74442E+00-1.42999E+00-8.59681E-01-4.33202E+00 1.67288E-12-1.20026E-12
 -1      1689 1.07830E+01 3.43485E+00-1.60894E-01-7.54401E+00 1.83675E-12-1.57008E-12
 -1      1690 2.39859E+00-9.14247E+00-1.21746E+00-2.14915E+00 9.26814E-13-6.90302E-13
 -1      1691 4.05711E+00-3.52494E+00-6.72310E-01-3.65173E+00 1.38600E-12-1.05332E-12
 -1      1692-3.55501E-01-1.56153E+01-1.81501E+00-9.90208E-01 3.18190E-13-3.69677E-13
 -1      1693-2.06926E-01-1.18841E+01-1.43486E+00-1.16059E-01 8.93174E-13-5.30825E-13
 -1      1694-1.13212E+00-1.66657E+01-1.88950E+00-2.28481E+00-5.90639E-13-4.44478E-13
 -1      1695-8.23484E-01-1.65018E+01-1.81850E+00-5.46114E-01 5.47895E-14-3.62210E-13
 -1      1696-1.19345E-01-1.19422E+01-1.59005E+00-1.52748E+00-1.31084E-12-8.87429E-13
 -1      1697-2.42903E-01-1.50962E+01-1.74697E+00-1.13572E+00-7.52398E-13-6.06876E-13
 -1      1698 2.83347E+00-6.01651E+00-1.44109E+00 6.08576E-01-1.95111E-12-1.51168E-12
 -1      1699 1.32954E+00-1.12800E+01-1.91956E+00-1.01707E+00-1.60039E-12-1.04428E-12
 -1      1700 1.28774E+01 2.13994E-01-6.60642E-01 6.05499E+00-1.96754E-12-2.00684E-12
 -1      1701 7.41182E+00-4.70585E+00-1.54658E+00 2.26294E+00-1.88538E-12-1.63469E-12
 -1      1702 2.85762E+01 4.61916E+00 4.55716E-01 1.12387E+01-1.68932E-12-2.24754E-12
 -1      1703 1.79922E+01 2.11094E+00-8.36962E-01 7.24248E+00-2.00839E-12-2.11253E-12
 -1      1704 4.88892E+01 4.33509E+00 1.78259E+00 1.07718E+01-9.93483E-13-1.91758E-12
 -1      1705 3.60155E+01 4.97372E+00 4.81156E-01 1.04452E+01-1.40521E-12-2.07923E-12
 -1      1706 6.30845E+01 3.82675E+00 2.85984E+00 5.46051E+00-6.44651E-13-1.13598E-12
 -1      1707 5.44745E+01 5.28951E+00 2.01554E+00 9.79843E+00-9.24746E-13-1.78368E-12
 -1      1708 6.49352E+01 4.11412E+00 2.91390E+00-3.05770E+00-5.34406E-13 3.52496E-14
 -1      1709 6.46055E+01 4.11214E+00 2.85107E+00 3.27615E+00-6.08680E-13-8.10241E-13
 -1      1710 5.60906E+01 5.18497E+00 2.16613E+00-9.88207E+00-8.95825E-13 1.36113E-12
 -1      1711 6.41593E+01 3.82077E+00 2.99453E+00-5.37387E+00-5.93636E-13 4.66960E-13
 -1      1712 3.94035E+01 5.77903E+00 8.79040E-01-1.18222E+01-1.53766E-12 2.13451E-12
 -1      1713 5.12094E+01 4.88987E+00 2.10758E+00-1.16129E+01-1.05133E-12 1.62159E-12
 -1      1714 2.20862E+01 3.46736E+00-4.42790E-01-8.77731E+00-2.04392E-12 2.33613E-12
 -1      1715 3.27032E+01 5.14284E+00 7.98074E-01-1.20288E+01-1.67066E-12 2.38254E-12
 -1      1716 9.78251E+00-2.39175E+00-1.31199E+00-3.70088E+00-2.11831E-12 1.86273E-12
 -1      1717 1.63084E+01 2.02644E+00-3.49827E-01-7.71730E+00-2.09277E-12 2.14895E-12
 -1      1718 2.72722E+00-1.01218E+01-1.79419E+00 1.67417E-01-2.00329E-12 1.21242E-12
 -1      1719 5.46343E+00-4.24985E+00-1.14086E+00-2.41967E+00-2.10032E-12 1.62004E-12
 -1      1720-3.53640E-01-1.65990E+01-2.04088E+00 1.61494E+00-1.27942E-12 8.03718E-13
 -1      1721-2.31893E-01-1.21036E+01-1.73082E+00 1.80498E+00-1.95799E-12 1.22377E-12
 -1      1722-8.09012E-01-1.75289E+01-1.78055E+00 4.92619E-01-2.07279E-13 4.48197E-13
 -1      1723-1.04334E+00-1.68383E+01-1.82332E+00 2.08381E+00-9.64062E-13 6.70103E-13
 -1      1724 2.46815E+01 5.02154E-01-6.50051E-01-2.56700E+00-2.12108E-13 8.97726E-13
 -1      1725 2.92544E+01 1.34892E+00-4.28584E-01-3.32665E+00-4.50973E-13 6.42781E-13
 -1      1726 2.79395E+01 9.51058E-02-3.37457E-01-2.76962E+00-1.72473E-13 1.09013E-12
 -1      1727 1.51231E+01-2.24516E+00-2.38941E-01 7.52584E+00 1.39122E-12 1.17278E-12
 -1      1728-1.42954E+00-1.10952E+01-1.19785E+00 1.59076E+00 7.71605E-15 9.93428E-13
 -1      1729 1.99998E+01-6.12131E-06-1.65208E-07-5.06918E-06-4.92963E-13-2.07458E-13
 -1      1730 1.99998E+01-4.30652E-05-5.10024E-07-3.73916E-05-1.28659E-13-2.65195E-13
 -1      1731 1.01623E+00-9.69308E+00-1.08142E+00 3.66630E+00 5.85088E-13 1.27215E-12
 -1      1732 6.30271E+00-6.63506E+00-8.22233E-01 5.51065E+00 1.13165E-12 1.26411E-12
 -1      1733 2.53833E+01 1.72159E+00 2.68478E-01 8.50623E+00 1.32572E-12 1.14320E-12
 -1      1734 3.56972E+01 5.26034E+00 8.95796E-01 8.59265E+00 1.19216E-12 1.06071E-12
 -1      1735 4.43997E+01 7.00150E+00 1.34503E+00 6.43133E+00 9.79522E-13 7.19647E-13
 -1      1736 4.90883E+01 7.80692E+00 1.53542E+00 2.80072E+00 8.82461E-13 2.21073E-13
 -1      1737 4.87022E+01 8.04689E+00 1.44996E+00-1.26690E+00 8.32279E-13-2.62013E-13
 -1      1738 4.50716E+01 7.27340E+00 1.29778E+00-5.21450E+00 8.47739E-13-7.50067E-13
 -1      1739 3.77640E+01 5.84436E+00 9.48067E-01-8.14839E+00 1.00106E-12-1.12310E-12
 -1      1740 2.77510E+01 3.69425E+00 4.29049E-01-9.01429E+00 1.11777E-12-1.21869E-12
 -1      1741 1.76887E+01 1.71058E-02-1.67281E-01-8.10780E+00 1.05294E-12-1.13898E-12
 -1      1742 9.49835E+00-4.11447E+00-5.42761E-01-6.96133E+00 6.01186E-13-9.64395E-13
 -1      1743 2.62074E+00-7.11531E+00-7.64598E-01-4.94987E+00 3.68372E-13-8.22453E-13
 -1      1744-1.28523E+00-1.07846E+01-1.30126E+00-2.13836E+00 3.59712E-14-7.29417E-13
 -1      1745-8.69607E-01-1.02168E+01-1.20908E+00 1.93909E-01-3.96794E-13-8.60978E-13
 -1      1746 2.75827E+00-9.07918E+00-1.23549E+00 2.34540E+00-7.25642E-13-1.03373E-12
 -1      1747 1.06436E+01-6.95688E+00-9.66113E-01 4.45996E+00-1.01630E-12-1.22824E-12
 -1      1748 2.20525E+01-3.63141E+00-4.24968E-01 5.71949E+00-1.10933E-12-1.26910E-12
 -1      1749 3.59646E+01 4.54154E-01 5.76762E-01 5.24709E+00-1.04577E-12-1.15907E-12
 -1      1750 4.79065E+01 4.36164E+00 1.59020E+00 2.77865E+00-9.01182E-13-8.52318E-13
 -1      1751 5.38368E+01 7.70892E+00 2.27574E+00 8.73909E-01-1.00797E-12-4.75731E-13
 -1      1752 5.50686E+01 7.96712E+00 2.53259E+00-8.20010E-01-1.04927E-12 3.45279E-14
 -1      1753 4.95754E+01 5.23526E+00 1.83400E+00-3.14285E+00-1.08952E-12 6.06515E-13
 -1      1754 3.86377E+01 1.64340E+00 8.91517E-01-5.72849E+00-1.27032E-12 1.12332E-12
 -1      1755 2.52165E+01-2.40661E+00-1.92209E-01-6.05604E+00-1.25433E-12 1.38733E-12
 -1      1756 1.35819E+01-6.23134E+00-7.75907E-01-5.10481E+00-1.12776E-12 1.16068E-12
 -1      1757 4.40246E+00-9.62597E+00-1.18162E+00-3.07386E+00-9.28368E-13 1.00320E-12
 -1      1758-7.08174E-01-1.17584E+01-1.38481E+00-5.78929E-01-6.03850E-13 1.08358E-12
 -1      1759 2.88788E+01 2.05582E+00-8.50315E-03-1.38808E+00-1.61329E-13 9.52738E-13
 -1      1760 3.15584E+01-3.67859E-01-9.49026E-02-4.78034E+00-1.99729E-13 8.50965E-13
 -1      1761 1.75217E+01 4.84052E+00-6.73642E-02-3.90677E-01-2.07889E-13-2.22981E-13
 -1      1762 1.94975E+01 4.63731E+00 4.62250E-03-3.83908E-01-2.24827E-13-1.05135E-13
 -1      1763 2.16524E+01 3.82433E+00-7.28640E-02-3.14931E-01-2.17756E-13 3.76019E-14
 -1      1764 2.38791E+01 3.31534E+00-7.27297E-02-5.47537E-01-2.29657E-13 2.09270E-13
 -1      1765 2.07018E+01 3.70600E+00 1.88706E-02 1.64472E-01-2.09156E-13-2.81997E-14
 -1      1766 1.39883E+01 5.33939E+00 4.49314E-03-2.01127E+00-2.07001E-13-4.13222E-13
 -1      1767 1.41733E+01 5.44451E+00-1.70355E-02-1.70162E+00-2.15630E-13-3.93018E-13
 -1      1768 1.47890E+01 4.80831E+00 2.57159E-02-2.62517E+00-1.98017E-13-4.18785E-13
 -1      1769 1.42095E+01 4.98449E+00-3.27918E-02-2.46280E+00-2.09407E-13-4.14020E-13
 -1      1770 1.38986E+01 5.06025E+00 1.86421E-02-2.47257E+00-2.31271E-13-4.20386E-13
 -1      1771 1.65352E+01 4.10024E+00 2.72451E-02-2.63114E+00-1.61444E-13-3.67721E-13
 -1      1772 1.55879E+01 4.26600E+00-3.71795E-02-2.72520E+00-1.83463E-13-3.91804E-13
 -1      1773 1.51572E+01 4.21989E+00-1.01083E-02-3.00807E+00-2.17782E-13-4.01410E-13
 -1      1774 1.83888E+01 3.54258E+00 1.20692E-02-2.05430E+00-1.01735E-13-3.18731E-13
 -1      1775 1.74775E+01 3.64321E+00-2.96223E-02-2.36669E+00-1.30191E-13-3.40800E-13
 -1      1776 1.71747E+01 3.32571E+00-3.16949E-02-2.76963E+00-1.70792E-13-3.31584E-13
 -1      1777 1.98217E+01 3.28648E+00-5.83982E-03-1.13473E+00-2.91399E-14-2.78468E-13
 -1      1778 1.91680E+01 3.30722E+00-1.97500E-02-1.56722E+00-6.29045E-14-2.93952E-13
 -1      1779 1.91051E+01 2.74124E+00-3.40756E-02-1.94051E+00-1.01030E-13-2.81258E-13
 -1      1780 2.06693E+01 3.28873E+00-2.01165E-02-1.21476E-01 5.21050E-14-2.49092E-13
 -1      1781 2.03153E+01 3.25173E+00-1.53960E-02-5.84460E-01 2.08982E-14-2.65534E-13
 -1      1782 2.04719E+01 2.54599E+00-2.67384E-02-8.64089E-01-1.08863E-14-2.40367E-13
 -1      1783 2.10061E+01 3.41848E+00-2.86677E-02 8.18067E-01 1.39831E-13-1.95927E-13
 -1      1784 2.08908E+01 3.36244E+00-1.64047E-02 3.83738E-01 9.57758E-14-2.25511E-13
 -1      1785 2.11912E+01 2.61823E+00-1.87023E-02 1.89913E-01 7.57424E-14-2.03150E-13
 -1      1786 2.10175E+01 3.55458E+00-3.38540E-02 1.66102E+00 2.33608E-13-1.02290E-13
 -1      1787 2.10438E+01 3.51181E+00-2.01325E-02 1.25763E+00 1.86993E-13-1.50314E-13
 -1      1788 2.14130E+01 2.78652E+00-1.28905E-02 1.10997E+00 1.76074E-13-1.32904E-13
 -1      1789 2.08973E+01 3.58975E+00-4.09135E-02 2.39068E+00 2.98556E-13-1.58901E-15
 -1      1790 2.09630E+01 3.59331E+00-2.67989E-02 2.02125E+00 2.60767E-13-7.01522E-14
 -1      1791 2.13444E+01 2.90655E+00-9.49792E-03 1.87584E+00 2.65118E-13-4.49363E-14
 -1      1792 2.08799E+01 3.39674E+00-5.90339E-02 3.01627E+00 3.50338E-13 2.06869E-13
 -1      1793 2.08632E+01 3.50284E+00-3.82607E-02 2.66631E+00 3.19864E-13 7.77746E-14
 -1      1794 2.12069E+01 2.85471E+00-5.59902E-03 2.47756E+00 3.22817E-13 6.89795E-14
 -1      1795 2.13528E+01 2.68196E+00-7.53889E-02 3.39444E+00 3.47691E-13 5.80563E-13
 -1      1796 2.10132E+01 3.08381E+00-5.14504E-02 3.15684E+00 3.45049E-13 3.64257E-13
 -1      1797 2.12248E+01 2.46387E+00-7.40315E-04 2.84872E+00 3.62303E-13 3.10495E-13
 -1      1798 2.20053E+01 1.23336E+00-1.35536E-01 2.76546E+00 2.83322E-13 1.02621E-12
 -1      1799 2.16262E+01 2.32583E+00 4.26909E-03 3.24171E+00 3.17288E-13 7.34995E-13
 -1      1800 2.13228E+01 1.64945E+00-1.89658E-02 2.71094E+00 3.58968E-13 5.96224E-13
 -1      1801 2.10761E+01 7.67195E-01-6.98718E-02 1.96200E+00 2.90143E-13 9.47371E-13
 -1      1802 2.69218E+01 2.54422E+00 5.21261E-02-1.05211E+00-2.03186E-13 5.07788E-13
 -1      1803 1.98948E+01 2.47694E-01-9.49581E-03 1.16888E+00 2.13066E-13 7.99310E-13
 -1      1804 2.06340E+01 3.94699E-01-1.95278E-02 1.50425E+00 2.35680E-13 8.84397E-13
 -1      1805 2.08729E+01 8.03189E-01 8.34911E-03 1.96928E+00 2.84120E-13 6.75508E-13
 -1      1806 3.39822E+01-1.65537E+00-1.61328E-01-4.20403E+00-1.64133E-13 6.83523E-13
 -1      1807 3.30418E+01 4.87144E-01-9.61370E-02-4.70433E+00-3.99875E-13 7.01245E-13
 -1      1808 2.64451E+01 7.52354E-01 4.81918E-02 1.89056E+00-6.31231E-14 4.02569E-13
 -1      1809 2.69136E+01 3.38781E-01 2.14346E-02 2.20342E+00-5.62424E-15 4.01422E-13
 -1      1810 2.73914E+01-1.76468E-01 8.78296E-02 2.49239E+00 6.89102E-14 4.60642E-13
 -1      1811 2.80673E+01-9.54747E-01 5.08509E-03 2.17657E+00 1.30819E-13 4.69805E-13
 -1      1812 2.45687E+01 9.15574E-02-2.87803E-02 2.82916E+00 5.73395E-14 2.42910E-13
 -1      1813 2.93992E+01-1.81939E+00 1.35969E-01 1.65763E+00 2.10568E-13 5.44113E-13
 -1      1814 3.00342E+01-2.69496E+00-1.45298E-02 4.31040E-01 1.92235E-13 5.98833E-13
 -1      1815 2.60985E+01-2.06971E+00-3.64735E-02 2.85449E+00 1.96287E-13 3.29119E-13
 -1      1816 3.19515E+01-3.29561E+00 5.68782E-02-8.53683E-01 1.69392E-13 6.45109E-13
 -1      1817 3.21465E+01-3.00983E+00-2.60966E-02-2.28946E+00 5.55424E-14 6.54858E-13
 -1      1818 2.90113E+01-4.20817E+00-7.79095E-02 1.26986E+00 2.07778E-13 4.48613E-13
 -1      1819 1.95620E+01-2.46819E+00 1.29460E-02 8.07610E+00 8.05578E-13 6.94722E-13
 -1      1820 1.44806E+01-4.42157E+00-3.02887E-01 7.22560E+00 7.43738E-13 7.99472E-13
 -1      1821 2.58449E+01 2.08709E+00 7.20239E-02-2.06128E-02-1.93942E-13 3.75894E-13
 -1      1822 3.24395E+01 2.52594E+00-2.18856E-01 3.63975E+00-7.44627E-13-2.14759E-13
 -1      1823 3.32546E+01 8.35443E-01-2.27632E-01 4.54635E+00-5.43676E-13-3.93387E-13
 -1      1824 3.25501E+01-6.80011E-01-1.61448E-01 4.48155E+00-4.21552E-13-5.54841E-13
 -1      1825 3.33230E+01-2.10127E+00-6.18711E-02 3.71731E+00-2.23731E-13-7.21610E-13
 -1      1826 3.15627E+01-2.65096E+00-7.44577E-02 1.96036E+00 8.34402E-15-6.70651E-13
 -1      1827 3.15399E+01-2.49217E+00 6.58655E-02 4.28896E-01 1.42539E-13-5.80112E-13
 -1      1828 2.98033E+01-1.89733E+00-2.02950E-02-9.83150E-01 1.86309E-13-4.47599E-13
 -1      1829 2.91755E+01-1.19455E+00 9.85402E-02-2.00910E+00 2.66336E-13-3.61960E-13
 -1      1830 2.90834E+01-3.16584E+00-3.13369E-02-1.00378E+00 2.43167E-13-3.33907E-13
 -1      1831 2.79439E+01-6.49945E-01-1.90667E-02-2.55228E+00 2.49391E-13-2.81863E-13
 -1      1832 2.69783E+01-1.30360E-01 3.35241E-02-2.83057E+00 2.38323E-13-2.53908E-13
 -1      1833 2.63631E+01-1.47572E+00-4.06990E-02-3.07556E+00 3.05617E-13-1.22199E-13
 -1      1834 2.62526E+01 1.02153E-01-3.35248E-03-2.76177E+00 2.18108E-13-2.03771E-13
 -1      1835 2.52464E+01 3.06933E-01 1.62143E-03-2.64318E+00 1.79074E-13-8.24479E-14
 -1      1836 2.46432E+01-7.87426E-02-1.83175E-02-3.44372E+00 2.63687E-13 1.85615E-16
 -1      1837 2.47678E+01 3.56402E-01 1.07973E-02-2.35802E+00 1.46037E-13-1.55473E-13
 -1      1838 2.38896E+01 3.91426E-01-5.44372E-03-2.11400E+00 9.52623E-14-1.07088E-13
 -1      1839 2.35184E+01 4.69695E-01-7.88511E-03-3.03344E+00 1.38606E-13 5.80282E-14
 -1      1840 2.35368E+01 3.69104E-01 1.82012E-02-1.80384E+00 1.31856E-14-1.28520E-13
 -1      1841 2.28425E+01 3.39401E-01-3.68542E-03-1.56534E+00-5.77489E-15-7.34881E-14
 -1      1842 2.26848E+01 5.63128E-01-3.06353E-03-2.38368E+00 3.76713E-14-4.80922E-14
 -1      1843 2.25675E+01 3.00308E-01 1.91677E-02-1.30354E+00 3.39468E-14-5.94655E-14
 -1      1844 2.20502E+01 2.56675E-01-1.03622E-03-1.11285E+00-4.83493E-14-6.64072E-14
 -1      1845 2.20308E+01 4.80871E-01-1.30160E-03-1.76132E+00 3.08841E-14-1.04491E-13
 -1      1846 2.18348E+01 2.21233E-01 1.65830E-02-9.14082E-01-1.46111E-13-1.06926E-13
 -1      1847 2.14626E+01 1.82316E-01 5.22369E-04-7.74429E-01-9.65669E-14-1.71996E-13
 -1      1848 2.15146E+01 3.61557E-01-9.96122E-04-1.25755E+00-8.42442E-14-4.34713E-14
 -1      1849 2.12964E+01 1.55432E-01 1.29105E-02-6.31279E-01 1.12185E-13-2.02673E-13
 -1      1850 2.10339E+01 1.25657E-01 1.12628E-03-5.33275E-01 2.36654E-13-1.37084E-13
 -1      1851 2.11138E+01 2.56094E-01-1.13414E-03-8.81130E-01 1.17701E-14-6.83266E-14
 -1      1852 2.09080E+01 1.06745E-01 9.46915E-03-4.32962E-01 2.11786E-13-2.46766E-13
 -1      1853 2.07249E+01 8.54511E-02 1.21369E-03-3.65580E-01 1.26135E-13-1.76760E-13
 -1      1854 2.08088E+01 1.76188E-01-1.25198E-03-6.11410E-01 1.71367E-13-9.45602E-14
 -1      1855 2.06309E+01 7.26115E-02 6.71735E-03-2.96214E-01 3.83632E-14-1.35127E-13
 -1      1856 2.05040E+01 5.78628E-02 1.08426E-03-2.50270E-01-1.26665E-14-1.02086E-13
 -1      1857 2.05807E+01 1.19639E-01-1.23753E-03-4.22349E-01 1.24881E-13-9.11898E-14
 -1      1858 2.04347E+01 4.93537E-02 4.70061E-03-2.02547E-01 2.32485E-14-5.49262E-14
 -1      1859 2.03466E+01 3.91428E-02 8.06415E-04-1.71232E-01 1.00501E-13 2.06009E-15
 -1      1860 2.04124E+01 8.08891E-02-1.12588E-03-2.91217E-01 5.15289E-14-1.49824E-13
 -1      1861 2.02936E+01 3.30709E-02 3.19956E-03-1.36920E-01 4.26931E-14-6.66297E-14
 -1      1862 2.02308E+01 2.61059E-02 6.45522E-04-1.14807E-01-1.05204E-13-1.08573E-13
 -1      1863 2.02871E+01 5.46691E-02-7.81248E-04-1.99016E-01-2.20362E-14-1.88557E-13
 -1      1864 2.01950E+01 2.25656E-02 2.21876E-03-9.26475E-02-2.16703E-13 1.05217E-13
 -1      1865 2.01541E+01 1.79137E-02 5.36495E-04-7.82678E-02-1.36488E-13 1.39125E-13
 -1      1866 2.01965E+01 3.64737E-02-7.86048E-04-1.35307E-01-4.77049E-16 1.13638E-13
 -1      1867 2.01282E+01 1.54431E-02 1.50933E-03-6.28849E-02 3.87896E-14 1.28855E-13
 -1      1868 2.01002E+01 1.23172E-02 4.12599E-04-5.29962E-02 1.79229E-13 2.20239E-13
 -1      1869 2.01334E+01 2.49429E-02-6.13721E-04-9.26276E-02-4.74336E-14 4.08813E-13
 -1      1870 2.00818E+01 1.06412E-02 1.04156E-03-4.23146E-02 2.03488E-13 2.56795E-13
 -1      1871 2.00628E+01 8.48427E-03 3.11608E-04-3.54835E-02 2.07919E-13 2.31506E-13
 -1      1872 2.00885E+01 1.71073E-02-4.74893E-04-6.29469E-02 1.79269E-13 4.03435E-13
 -1      1873 2.00499E+01 7.34420E-03 7.20125E-04-2.80582E-02 1.47461E-13 1.87719E-13
 -1      1874 2.00371E+01 5.84166E-03 2.33464E-04-2.33366E-02 1.26977E-13 2.01750E-13
 -1      1875 2.00568E+01 1.17566E-02-3.62455E-04-4.22639E-02 1.43933E-13 3.66584E-13
 -1      1876 2.00282E+01 5.05992E-03 4.97596E-04-1.81818E-02 8.40377E-14 8.13016E-14
 -1      1877 2.00198E+01 4.00458E-03 1.73509E-04-1.49271E-02-3.05179E-14 9.77235E-15
 -1      1878 2.00347E+01 8.07228E-03-2.73116E-04-2.78488E-02-2.35239E-14 7.40537E-14
 -1      1879 2.00137E+01 3.46507E-03 3.42649E-04-1.13663E-02-1.75928E-13 4.19592E-14
 -1      1880 2.00084E+01 2.71915E-03 1.27845E-04-9.13865E-03 2.67273E-14 1.06840E-13
 -1      1881 2.00195E+01 5.51473E-03-2.03324E-04-1.78310E-02-3.68470E-14-1.06861E-13
 -1      1882 2.00044E+01 2.34550E-03 2.34236E-04-6.70269E-03 4.68654E-14-1.11596E-13
 -1      1883 2.00012E+01 1.81647E-03 9.32714E-05-5.19758E-03-1.31112E-13-2.67580E-13
 -1      1884 2.00093E+01 3.72832E-03-1.49496E-04-1.09159E-02-8.63816E-14 1.02052E-14
 -1      1885 1.99986E+01 1.55779E-03 1.58142E-04-3.55735E-03-2.00599E-13-2.50058E-13
 -1      1886 1.99968E+01 1.18268E-03 6.72424E-05-2.56116E-03-2.29993E-13-3.24678E-13
 -1      1887 2.00027E+01 2.47651E-03-1.08423E-04-6.19872E-03-1.36814E-13-1.91698E-13
 -1      1888 1.99953E+01 1.00456E-03 1.04702E-04-1.48324E-03-3.15570E-13-4.44648E-13
 -1      1889 1.99944E+01 7.39776E-04 4.77706E-05-8.44527E-04-2.62062E-13-4.05743E-13
 -1      1890 1.99987E+01 1.59992E-03-7.73928E-05-3.03971E-03-2.86936E-13-8.81526E-14
 -1      1891 1.99936E+01 6.18536E-04 6.72818E-05-1.61875E-04-2.08748E-13-3.43585E-13
 -1      1892 1.99933E+01 4.33406E-04 3.33168E-05 2.27656E-04 5.40904E-14-4.07100E-13
 -1      1893 1.99963E+01 9.89367E-04-5.41908E-05-9.82290E-04-2.91048E-13-9.83686E-14
 -1      1894 1.99930E+01 3.52482E-04 4.12677E-05 6.35291E-04 3.56624E-13-5.13664E-13
 -1      1895 1.99931E+01 2.25037E-04 2.26917E-05 8.53471E-04 2.99392E-13-3.98134E-13
 -1      1896 1.99951E+01 5.68807E-04-3.70378E-05 3.01871E-04 1.14393E-13-1.55646E-13
 -1      1897 1.99931E+01 1.72663E-04 2.34104E-05 1.07288E-03 3.96980E-13-3.98124E-13
 -1      1898 1.99934E+01 8.69495E-05 1.49758E-05 1.17569E-03 4.58447E-13-1.49484E-13
 -1      1899 1.99948E+01 2.84344E-04-2.45216E-05 1.04994E-03 4.12519E-13-2.69576E-13
 -1      1900 1.99935E+01 5.46668E-05 1.13902E-05 1.26941E-03 3.91036E-13-2.18216E-14
 -1      1901 1.99940E+01-1.03310E-06 9.45751E-06 1.29697E-03 3.66741E-13 1.35832E-13
 -1      1902 1.99948E+01 9.72310E-05-1.55300E-05 1.43335E-03 4.75840E-13 1.46697E-13
 -1      1903 1.99942E+01-1.93515E-05 3.53280E-06 1.30975E-03 3.48660E-13 1.50938E-13
 -1      1904 1.99947E+01-5.37005E-05 5.58579E-06 1.29056E-03 3.79382E-13 3.30488E-13
 -1      1905 1.99952E+01-2.07008E-05-9.19194E-06 1.57553E-03 3.89677E-13 2.32530E-13
 -1      1906 1.99950E+01-6.25071E-05-1.38029E-06 1.25411E-03 2.60747E-13 2.45620E-13
 -1      1907 1.99955E+01-8.19269E-05 2.93394E-06 1.20809E-03 1.44455E-14 3.16243E-13
 -1      1908 1.99957E+01-9.00730E-05-4.82970E-06 1.56467E-03 3.64215E-13 3.73931E-13
 -1      1909 1.99958E+01-8.44532E-05-4.23958E-06 1.14443E-03-6.29665E-14 4.26019E-13
 -1      1910 1.99963E+01-9.36988E-05 1.17157E-06 1.08523E-03-6.31379E-14 3.36186E-13
 -1      1911 1.99963E+01-1.26021E-04-1.91893E-06 1.46287E-03 6.18524E-14 4.04914E-13
 -1      1912 1.99965E+01-9.22795E-05-5.69632E-06 1.00926E-03-1.19421E-13 3.72188E-13
 -1      1913 1.99969E+01-9.48601E-05 4.25607E-08 9.45894E-04-2.75918E-14 3.75893E-13
 -1      1914 1.99969E+01-1.39640E-04-5.70060E-08 1.31302E-03-1.13137E-13 6.30274E-13
 -1      1915 1.99972E+01-9.11722E-05-6.22507E-06 8.67310E-04 8.40960E-14 9.74150E-14
 -1      1916 1.99975E+01-8.96677E-05-6.52458E-07 8.05394E-04 5.44869E-14 8.93929E-14
 -1      1917 1.99975E+01-1.39037E-04 1.06271E-06 1.14377E-03-1.23835E-13 5.85328E-13
 -1      1918 1.99978E+01-8.49120E-05-6.16881E-06 7.30055E-04 2.59162E-13 6.60815E-14
 -1      1919 1.99981E+01-8.12206E-05-1.07019E-06 6.72746E-04 2.45243E-13 2.11950E-13
 -1      1920 1.99979E+01-1.30111E-04 1.67150E-06 9.73373E-04 1.26860E-13 4.88930E-14
 -1      1921 1.99983E+01-7.62676E-05-5.77170E-06 6.03723E-04-2.67266E-14 1.49436E-13
 -1      1922 1.99985E+01-7.18075E-05-1.33478E-06 5.52355E-04-6.04983E-14 1.33591E-13
 -1      1923 1.99984E+01-1.17171E-04 1.94040E-06 8.12453E-04 7.95340E-14 8.76621E-14
 -1      1924 1.99987E+01-6.73214E-05-5.19765E-06 4.90658E-04-1.72181E-14 3.06828E-13
 -1      1925 1.99989E+01-6.31840E-05-1.53539E-06 4.45190E-04-6.30951E-15 3.60804E-13
 -1      1926 1.99987E+01-1.03428E-04 1.99237E-06 6.66031E-04 3.20236E-14 2.25492E-13
 -1      1927 1.99990E+01-5.97083E-05-4.53852E-06 3.90283E-04 8.94127E-14 2.26881E-13
 -1      1928 1.99992E+01-5.67472E-05-1.70935E-06 3.49597E-04-2.46391E-14 1.90875E-13
 -1      1929 1.99990E+01-9.13607E-05 1.92427E-06 5.34978E-04-1.04953E-13 4.50300E-13
 -1      1930 1.99993E+01-5.47240E-05-3.79681E-06 2.99801E-04-1.30780E-13 2.59119E-13
 -1      1931 1.99994E+01-5.35600E-05-1.82003E-06 2.61995E-04-3.01661E-13 3.13261E-13
 -1      1932 1.99993E+01-8.29670E-05 1.80585E-06 4.17085E-04-7.65660E-14 2.57211E-13
 -1      1933 1.99995E+01-5.32768E-05-2.98419E-06 2.15002E-04-4.28027E-13 4.59318E-13
 -1      1934 1.99996E+01-5.36768E-05-1.82058E-06 1.78034E-04-1.98832E-13 2.76158E-13
 -1      1935 1.99995E+01-7.96614E-05 1.57912E-06 3.08113E-04-3.15331E-13 4.45058E-13
 -1      1936 1.99997E+01-5.41216E-05-2.16986E-06 1.31902E-04 2.54068E-13 6.14563E-14
 -1      1937 1.99997E+01-5.39836E-05-1.96169E-06 9.62161E-05 3.70437E-13 1.33367E-13
 -1      1938 1.99996E+01-8.04938E-05 1.31011E-06 2.03430E-04-2.12602E-13 7.47870E-13
 -1      1939 1.99998E+01-5.29102E-05-1.06521E-06 5.51300E-05 2.64670E-13-7.67857E-14
 -1      1940 1.86168E+01 1.02569E-01 1.14578E-02 8.05924E-01 1.52688E-13 5.76400E-13
 -1      1941 1.89869E+01 1.20784E-01 1.75135E-02 8.83006E-01 1.54255E-13 6.36323E-13
 -1      1942 1.80542E+01 1.22855E-01 1.11912E-02 6.27697E-01 9.82686E-14 5.17019E-13
 -1      1943 1.83344E+01 1.07602E-01 1.29661E-02 7.01386E-01 1.22570E-13 5.51245E-13
 -1      1944 1.91331E+01 1.70666E-01-4.06030E-03 1.01919E+00 1.67644E-13 3.96182E-13
 -1      1945 1.76548E+01 1.71437E-01 1.12857E-02 4.02014E-01 1.24889E-13 4.10234E-13
 -1      1946 1.78375E+01 1.46779E-01 9.20788E-03 5.01465E-01 1.15510E-13 4.80309E-13
 -1      1947 1.86340E+01 2.10657E-01-6.63685E-03 7.59825E-01 1.52980E-13 3.40767E-13
 -1      1948 1.74483E+01 2.08746E-01 1.07385E-02 1.14028E-01 1.19887E-13 3.50714E-13
 -1      1949 1.75209E+01 1.93550E-01 8.70443E-03 2.39221E-01 1.12069E-13 4.06175E-13
 -1      1950 1.82827E+01 2.79019E-01-9.15137E-03 4.34918E-01 1.49282E-13 3.09910E-13
 -1      1951 1.74576E+01 2.09206E-01 8.91943E-03-2.02512E-01 1.07925E-13 2.90713E-13
 -1      1952 1.74122E+01 2.14640E-01 9.31936E-03-7.04396E-02 1.05880E-13 3.26901E-13
 -1      1953 1.81110E+01 3.20733E-01-1.04726E-02 4.33269E-02 1.35473E-13 2.75199E-13
 -1      1954 1.76750E+01 1.66494E-01 6.18565E-03-4.88148E-01 8.81586E-14 2.45599E-13
 -1      1955 1.75199E+01 1.93243E-01 9.24851E-03-3.75486E-01 1.04771E-13 2.68871E-13
 -1      1956 1.81366E+01 3.04191E-01-9.60903E-03-3.60807E-01 1.25457E-13 2.22961E-13
 -1      1957 1.80546E+01 9.34354E-02 3.32707E-03-6.87069E-01 7.61899E-14 2.17521E-13
 -1      1958 1.78166E+01 1.32946E-01 7.51754E-03-6.15244E-01 9.33012E-14 2.35254E-13
 -1      1959 1.83421E+01 2.26949E-01-6.65924E-03-7.00669E-01 1.16494E-13 2.09827E-13
 -1      1960 1.85240E+01 1.32794E-02 1.01700E-03-7.70371E-01 6.18731E-14 1.48371E-13
 -1      1961 1.82417E+01 5.31540E-02 4.21393E-03-7.47790E-01 6.95021E-14 1.68541E-13
 -1      1962 1.86742E+01 1.12243E-01-2.73525E-03-9.14039E-01 1.03778E-13 2.03729E-13
 -1      1963 1.90057E+01-5.24687E-02-4.98031E-04-7.43193E-01 4.86798E-14 9.64905E-14
 -1      1964 1.87196E+01-2.23196E-02 2.26354E-04-7.64343E-01 6.23873E-14 1.18847E-13
 -1      1965 1.90615E+01-5.45136E-03 7.81211E-04-9.77746E-01 8.58774E-14 1.28358E-13
 -1      1966 1.94378E+01-9.22587E-02-1.30148E-03-6.35912E-01-1.80639E-14 6.38500E-14
 -1      1967 1.91808E+01-7.62409E-02-3.33592E-03-6.86371E-01-3.31115E-15 6.17930E-14
 -1      1968 1.94373E+01-9.70777E-02 3.02010E-03-9.10018E-01 3.40023E-14 6.75300E-14
 -1      1969 1.97838E+01-1.05526E-01-1.59236E-03-4.88110E-01 3.34056E-14 7.54015E-14
 -1      1970 1.95760E+01-1.02675E-01-5.69617E-03-5.51347E-01 6.68129E-15 7.93233E-14
 -1      1971 1.97556E+01-1.48783E-01 3.89812E-03-7.55060E-01-3.81292E-15 4.17267E-14
 -1      1972 2.00321E+01-9.87855E-02-1.57237E-03-3.34865E-01 6.45317E-15 1.91092E-13
 -1      1973 1.98808E+01-1.05119E-01-6.64274E-03-3.97299E-01 5.34733E-14 1.45515E-13
 -1      1974 1.99954E+01-1.62058E-01 3.76985E-03-5.62624E-01 2.01629E-14 4.91695E-14
 -1      1975 2.01893E+01-8.07641E-02-1.37631E-03-1.99787E-01-1.48330E-14 1.43312E-13
 -1      1976 2.00914E+01-9.17137E-02-6.40419E-03-2.52937E-01 3.47535E-14 1.56293E-13
 -1      1977 2.01553E+01-1.47543E-01 3.10870E-03-3.73194E-01 3.33279E-14 1.33417E-13
 -1      1978 2.02717E+01-5.90295E-02-1.09869E-03-9.42564E-02 4.13465E-14 1.05546E-13
 -1      1979 2.02182E+01-7.09393E-02-5.41508E-03-1.34552E-01 1.06178E-14 1.05393E-13
 -1      1980 2.02461E+01-1.18221E-01 2.28382E-03-2.11913E-01 2.56839E-14 9.68009E-14
 -1      1981 2.02990E+01-3.85908E-02-7.99439E-04-2.02304E-02-3.19206E-14 6.57674E-14
 -1      1982 2.02787E+01-4.92107E-02-4.10941E-03-4.76347E-02 1.21693E-14 8.11235E-14
 -1      1983 2.02839E+01-8.48734E-02 1.50974E-03-8.93447E-02 2.44689E-14 4.89943E-14
 -1      1984 2.02896E+01-2.19541E-02-5.19301E-04 2.59774E-02-7.17897E-14 5.79928E-14
 -1      1985 2.02917E+01-3.02827E-02-2.80842E-03 9.53037E-03-6.81444E-14 8.12579E-14
 -1      1986 2.02846E+01-5.43955E-02 8.78916E-04-5.61658E-03-2.88488E-14 6.94591E-14
 -1      1987 2.02590E+01-9.80630E-03-2.82380E-04 5.04817E-02-6.89704E-14 1.62581E-13
 -1      1988 2.02743E+01-1.56933E-02-1.69729E-03 4.23287E-02-1.21449E-13 1.22513E-13
 -1      1989 2.02623E+01-3.00573E-02 4.11053E-04 4.49783E-02-1.29231E-13 2.33800E-14
 -1      1990 2.02185E+01-1.78046E-03-9.94249E-05 5.96836E-02-6.59938E-15 1.82473E-13
 -1      1991 2.02400E+01-5.53543E-03-8.48494E-04 5.72104E-02 1.94789E-14 2.58238E-13
 -1      1992 2.02278E+01-1.25717E-02 9.04527E-05 7.03434E-02-7.28282E-14 1.85006E-13
 -1      1993 2.01757E+01 2.94940E-03 2.93394E-05 5.91326E-02 1.00649E-13 2.07776E-13
 -1      1994 2.01988E+01 8.41761E-04-2.60677E-04 6.01581E-02 4.41874E-14 2.31574E-13
 -1      1995 2.01888E+01-1.21524E-03-1.11287E-04 7.82877E-02 2.00432E-14 2.95700E-13
 -1      1996 2.01354E+01 5.29540E-03 1.10374E-04 5.31063E-02 8.30183E-14 1.92913E-13
 -1      1997 2.01573E+01 4.34498E-03 1.05982E-04 5.59980E-02 1.35548E-13 2.10708E-13
 -1      1998 2.01504E+01 5.32509E-03-2.23936E-04 7.53806E-02 1.08188E-13 2.56115E-13
 -1      1999 2.01002E+01 6.06388E-03 1.53300E-04 4.46099E-02 8.03132E-14 1.95934E-15
 -1      2000 2.01193E+01 5.85628E-03 3.04535E-04 4.82519E-02 1.07124E-13 1.08111E-13
 -1      2001 2.01156E+01 8.43230E-03-2.73897E-04 6.65853E-02 1.06949E-13 1.90427E-13
 -1      2002 2.00710E+01 5.88423E-03 1.68341E-04 3.55771E-02 7.89678E-14-3.63287E-14
 -1      2003 2.00867E+01 6.10570E-03 3.86371E-04 3.92730E-02 5.65917E-14 8.87968E-15
 -1      2004 2.00856E+01 9.30134E-03-2.82449E-04 5.53331E-02 9.14801E-14 1.39998E-13
 -1      2005 2.00478E+01 5.20580E-03 1.64748E-04 2.71298E-02 3.35100E-14 4.38742E-15
 -1      2006 2.00602E+01 5.63800E-03 3.94203E-04 3.04921E-02 4.50319E-14-2.32866E-14
 -1      2007 2.00610E+01 8.85078E-03-2.65704E-04 4.37964E-02 5.79558E-14 5.61703E-14
 -1      2008 2.00301E+01 4.32552E-03 1.50025E-04 1.98232E-02 3.27614E-14-6.56421E-14
 -1      2009 2.00394E+01 4.82795E-03 3.60119E-04 2.26746E-02 7.27026E-14-2.21308E-14
 -1      2010 2.00416E+01 7.72799E-03-2.35317E-04 3.32080E-02 9.05363E-14 3.29303E-14
 -1      2011 2.00171E+01 3.42416E-03 1.29759E-04 1.38466E-02-2.44437E-15-1.76596E-13
 -1      2012 2.00238E+01 3.91410E-03 3.06345E-04 1.61421E-02 5.22537E-14-5.75503E-14
 -1      2013 2.00267E+01 6.35513E-03-1.99302E-04 2.41524E-02 6.93495E-14-1.83980E-14
 -1      2014 2.00079E+01 2.60048E-03 1.07800E-04 9.17214E-03-1.07195E-13-1.54484E-13
 -1      2015 2.00125E+01 3.03508E-03 2.47104E-04 1.09421E-02-1.48109E-13-2.66165E-13
 -1      2016 2.00158E+01 4.98494E-03-1.62825E-04 1.68002E-02-2.49511E-14-3.91258E-14
 -1      2017 2.00017E+01 1.89918E-03 8.65819E-05 5.65808E-03 2.78970E-15 7.66787E-15
 -1      2018 2.00047E+01 2.26128E-03 1.90688E-04 6.97030E-03-2.46228E-14-8.06325E-14
 -1      2019 2.00080E+01 3.75200E-03-1.28938E-04 1.10800E-02-9.49535E-14 1.14654E-15
 -1      2020 1.99978E+01 1.33177E-03 6.74764E-05 3.11613E-03 8.11377E-14 7.13142E-14
 -1      2021 1.99996E+01 1.61952E-03 1.41289E-04 4.05149E-03 7.72570E-14 1.14040E-13
 -1      2022 2.00026E+01 2.71391E-03-9.92100E-05 6.79694E-03 5.70800E-14 1.99378E-13
 -1      2023 1.99955E+01 8.91165E-04 5.11113E-05 1.35147E-03-7.55761E-15-3.05362E-14
 -1      2024 1.99965E+01 1.11094E-03 1.00467E-04 1.98981E-03 2.98545E-14 4.19320E-14
 -1      2025 1.99992E+01 1.88174E-03-7.42175E-05 3.70884E-03 1.13465E-13 1.86998E-13
 -1      2026 1.99944E+01 5.61262E-04 3.76275E-05 1.84736E-04 6.09777E-14-8.33963E-14
 -1      2027 1.99948E+01 7.23085E-04 6.82190E-05 5.97601E-04 1.05515E-13-1.72523E-14
 -1      2028 1.99971E+01 1.24099E-03-5.39186E-05 1.57148E-03 4.43001E-14 1.92123E-13
 -1      2029 1.99941E+01 3.22822E-04 2.68734E-05-5.37984E-04 1.49213E-14-6.65747E-14
 -1      2030 1.99940E+01 4.37635E-04 4.37113E-05-2.90379E-04 5.77176E-14-6.09223E-14
 -1      2031 1.99960E+01 7.65263E-04-3.79180E-05 1.62890E-04 9.29167E-14 2.08446E-13
 -1      2032 1.99942E+01 1.56856E-04 1.85421E-05-9.42378E-04 1.16663E-13-3.58328E-14
 -1      2033 1.99940E+01 2.35008E-04 2.57527E-05-8.11595E-04-1.35144E-14-7.76927E-14
 -1      2034 1.99956E+01 4.24588E-04-2.56493E-05-7.05992E-04 2.12598E-14 5.42704E-14
 -1      2035 1.99947E+01 4.63388E-05 1.22638E-05-1.12716E-03-1.10405E-13 2.98791E-13
 -1      2036 1.99943E+01 9.68643E-05 1.30791E-05-1.07565E-03 1.18475E-13 1.56272E-13
 -1      2037 1.99956E+01 1.90036E-04-1.64935E-05-1.18883E-03-2.02572E-14 1.85204E-13
 -1      2038 1.99953E+01-2.31014E-05 7.66238E-06-1.16728E-03-1.88707E-13 3.77882E-13
 -1      2039 1.99949E+01 7.27583E-06 4.50943E-06-1.16687E-03-1.04715E-13 3.64365E-13
 -1      2040 1.99959E+01 3.60397E-05-9.85068E-06-1.40593E-03-2.01432E-13 3.64461E-13
 -1      2041 1.99960E+01-6.30847E-05 4.38762E-06-1.11789E-03 4.16121E-14 6.08642E-16
 -1      2042 1.99956E+01-4.69033E-05-9.80991E-07-1.14811E-03-1.35988E-13 1.24118E-13
 -1      2043 1.99963E+01-5.87605E-05-5.17906E-06-1.44842E-03-3.76938E-15 2.01467E-13
 -1      2044 1.99967E+01-8.27030E-05 2.13072E-06-1.01822E-03-6.52130E-14-6.79434E-15
 -1      2045 1.99962E+01-7.61243E-05-4.23725E-06-1.06471E-03-2.05349E-14-1.22722E-13
 -1      2046 1.99968E+01-1.11498E-04-2.01270E-06-1.38321E-03 1.13265E-13-1.35346E-13
 -1      2047 1.99973E+01-8.88866E-05 6.28379E-07-8.95160E-04-2.45523E-14-5.87599E-14
 -1      2048 1.99969E+01-8.84537E-05-5.93027E-06-9.48244E-04-4.12254E-14-3.18319E-14
 -1      2049 1.99973E+01-1.35487E-04 3.48686E-08-1.25782E-03-7.22858E-14-2.57713E-13
 -1      2050 1.99978E+01-8.68165E-05-3.39763E-07-7.66165E-04 1.18728E-13-1.68297E-13
 -1      2051 1.99975E+01-8.99750E-05-6.57630E-06-8.19719E-04 1.09813E-13 5.69022E-15
 -1      2052 1.99978E+01-1.40821E-04 1.27445E-06-1.10468E-03 3.65929E-14-1.08783E-13
 -1      2053 1.99983E+01-8.03226E-05-9.55937E-07-6.41683E-04 7.24379E-14-3.05094E-13
 -1      2054 1.99980E+01-8.52030E-05-6.56198E-06-6.92214E-04-7.88587E-15-2.00639E-13
 -1      2055 1.99982E+01-1.35014E-04 1.94877E-06-9.44766E-04 4.18841E-14-1.79869E-13
 -1      2056 1.99987E+01-7.22459E-05-1.36322E-06-5.26953E-04 3.53388E-13-1.62876E-13
 -1      2057 1.99985E+01-7.74698E-05-6.16683E-06-5.72928E-04 2.16119E-13-1.64677E-13
 -1      2058 1.99986E+01-1.23610E-04 2.24335E-06-7.90473E-04 3.33177E-14-3.58988E-13
 -1      2059 1.99990E+01-6.47537E-05-1.65302E-06-4.23335E-04 2.82401E-13-9.27157E-14
 -1      2060 1.99988E+01-6.92672E-05-5.56919E-06-4.64707E-04 4.23571E-13 7.15118E-14
 -1      2061 1.99989E+01-1.10736E-04 2.30204E-06-6.47855E-04 2.11184E-13-9.96633E-14
 -1      2062 1.99993E+01-5.95779E-05-1.86735E-06-3.29290E-04 8.19458E-14-1.74351E-13
 -1      2063 1.99991E+01-6.25347E-05-4.86300E-06-3.67168E-04 2.10489E-13-8.26880E-14
 -1      2064 1.99992E+01-9.95048E-05 2.24917E-06-5.18290E-04 2.40850E-13 4.61269E-14
 -1      2065 1.99995E+01-5.78458E-05-2.00671E-06-2.41153E-04 2.24335E-14-1.32138E-13
 -1      2066 1.99994E+01-5.88727E-05-4.07560E-06-2.77530E-04 7.09089E-14-1.76799E-13
 -1      2067 1.99994E+01-9.24477E-05 2.09741E-06-3.99881E-04 7.01182E-14 3.73824E-14
 -1      2068 1.99996E+01-5.95767E-05-1.91799E-06-1.54845E-04-8.58576E-15-3.81399E-13
 -1      2069 1.99996E+01-5.85912E-05-2.98722E-06-1.91743E-04-3.66296E-15-2.84671E-13
 -1      2070 1.99995E+01-9.00912E-05 2.29398E-06-2.89422E-04 3.68567E-14-1.65440E-13
 -1      2071 1.99997E+01-5.38280E-05-1.80872E-06-7.72809E-05 1.07496E-15-4.74793E-13
 -1      2072 1.99997E+01-5.56593E-05-2.05319E-06-1.11089E-04 3.39165E-14-5.74562E-13
 -1      2073 1.99997E+01-8.79084E-05 7.78396E-07-1.87844E-04 8.48049E-14-3.53875E-13
 -1      2074 1.99997E+01-7.79628E-05-6.09517E-07-9.80064E-05-2.34745E-13-1.24672E-13
 -1      2075 1.99998E+01-4.31187E-04 9.49241E-07-2.36940E-04-2.51189E-13 3.17763E-13
 -1      2076 1.99998E+01-3.55391E-04-1.43510E-06-2.30343E-04-3.50374E-13 1.69927E-13
 -1      2077 1.99998E+01-2.85527E-04 1.91897E-07-2.12743E-04-1.35777E-13 7.97349E-14
 -1      2078 1.99998E+01-2.16478E-04-1.59334E-06-1.90706E-04-1.43850E-13-5.94677E-14
 -1      2079 1.99998E+01-3.24786E-04 2.11948E-07-2.84478E-04-2.72917E-14-1.76433E-14
 -1      2080 1.99997E+01-1.31173E-04-8.04662E-07-1.34321E-04-2.47468E-13-1.65041E-13
 -1      2081 1.99998E+01-5.71318E-04 1.73958E-06-2.24737E-04-4.31460E-13 1.32511E-13
 -1      2082 1.99998E+01-4.98547E-04-3.08464E-07-2.33939E-04-5.34650E-13 4.83263E-13
 -1      2083 1.99998E+01-4.61247E-04-5.35176E-07-2.99405E-04-1.77308E-13 1.07098E-13
 -1      2084 1.99998E+01-6.92867E-04 2.39834E-06-1.79510E-04-2.78350E-13-5.29218E-14
 -1      2085 1.99998E+01-6.31268E-04 8.13374E-07-2.02591E-04-4.71261E-13 1.82148E-13
 -1      2086 1.99998E+01-5.88617E-04-1.44664E-06-2.70513E-04-3.59975E-13 1.48289E-13
 -1      2087 1.99999E+01-7.77650E-04 2.77786E-06-1.09298E-04-2.16649E-13-1.91729E-13
 -1      2088 1.99999E+01-7.37057E-04 1.79590E-06-1.42230E-04-1.64774E-13-9.85013E-14
 -1      2089 1.99999E+01-6.92809E-04-2.09913E-06-2.03265E-04-2.00969E-13-2.49843E-14
 -1      2090 1.99999E+01-8.15089E-04 2.81815E-06-2.43551E-05-2.84042E-13 1.34758E-13
 -1      2091 1.99999E+01-8.01077E-04 2.48204E-06-6.24077E-05-2.72059E-13-1.55182E-14
 -1      2092 1.99999E+01-7.60598E-04-2.54456E-06-1.08417E-04-2.13335E-13-8.13991E-14
 -1      2093 1.99999E+01-8.00518E-04 2.48871E-06 6.38427E-05-7.02290E-14-8.79397E-14
 -1      2094 1.99999E+01-8.15001E-04 2.81041E-06 2.58180E-05-1.26049E-13 2.56332E-14
 -1      2095 1.99999E+01-7.84003E-04-2.69750E-06 8.74658E-07-3.86199E-13 1.50761E-13
 -1      2096 1.99999E+01-7.35857E-04 1.81909E-06 1.43525E-04-2.72294E-13-5.10752E-13
 -1      2097 1.99999E+01-7.76928E-04 2.75143E-06 1.10693E-04-1.51746E-13-2.00086E-13
 -1      2098 1.99999E+01-7.60245E-04-2.54231E-06 1.10114E-04-1.40011E-13-3.57212E-13
 -1      2099 1.99998E+01-6.31611E-04 8.24561E-07 2.02795E-04-3.08479E-13-2.06102E-13
 -1      2100 1.99998E+01-6.92365E-04 2.38143E-06 1.80159E-04-3.14598E-13-3.15262E-13
 -1      2101 1.99999E+01-6.92849E-04-2.14141E-06 2.04172E-04-2.12047E-13-4.08423E-13
 -1      2102 1.99998E+01-4.97668E-04-3.33754E-07 2.34280E-04-2.38716E-13 4.57161E-13
 -1      2103 1.99998E+01-5.71714E-04 1.75309E-06 2.25026E-04-4.01631E-13 2.04675E-13
 -1      2104 1.99998E+01-5.89408E-04-1.44461E-06 2.70779E-04-2.27277E-13-1.07400E-14
 -1      2105 1.99998E+01-3.53032E-04-1.41085E-06 2.30096E-04-1.56100E-13 3.50996E-13
 -1      2106 1.99998E+01-4.28862E-04 1.00110E-06 2.37231E-04-2.06935E-13 2.55226E-13
 -1      2107 1.99998E+01-4.60836E-04-6.10619E-07 2.99748E-04-6.07684E-14 4.16449E-13
 -1      2108 1.99998E+01-2.16284E-04-2.06809E-06 1.87951E-04-1.88075E-13 2.74119E-13
 -1      2109 1.99998E+01-2.83076E-04 1.65013E-07 2.12230E-04-2.72351E-13 3.05019E-13
 -1      2110 1.99998E+01-3.22808E-04 2.47894E-07 2.84135E-04-2.03158E-13 3.59439E-13
 -1      2111 1.91734E+01 1.28894E-01 1.11869E-02 9.34339E-01 1.84250E-13 6.80688E-13
 -1      2112 1.96654E+01 1.98179E-01 1.58660E-02 1.07282E+00 1.96836E-13 7.56444E-13
 -1      2113 2.00624E+01 3.37902E-01 2.06378E-03 1.41259E+00 2.23131E-13 5.88175E-13
 -1      2114 1.96020E+01 1.99539E-01-3.08619E-03 1.21209E+00 2.07187E-13 5.11377E-13
 -1      2115 1.11426E+01-4.59381E+00-9.32716E-02 7.55676E+00 6.24389E-13 9.12513E-13
 -1      2116 7.58979E+00-6.24353E+00-3.24406E-01 6.51050E+00 4.35540E-13 9.50698E-13
 -1      2117 2.91721E+01 4.91092E-01 2.04844E-01 6.92370E+00 9.23261E-13 5.85421E-13
 -1      2118 2.43876E+01-1.63906E+00-1.13563E-01 6.62790E+00 8.50875E-13 5.69322E-13
 -1      2119 6.22225E-01-6.15238E+00-2.21994E-01 2.47140E+00 1.85962E-13 1.11999E-12
 -1      2120 2.58568E-01-6.77422E+00-3.01331E-01 6.74393E-01-1.31617E-13 1.01219E-12
 -1      2121 3.29662E+01 1.71574E+00-3.09374E-01-4.13704E+00-5.33129E-13 6.51958E-13
 -1      2122 3.23146E+01 3.35051E+00-2.34888E-01-2.62330E+00-5.96190E-13 4.62394E-13
 -1      2123 1.48430E+01 5.39369E+00-2.57603E-02-1.11157E+00-2.01488E-13-3.60798E-13
 -1      2124 1.59732E+01 5.39431E+00 1.17370E-02-8.59002E-01-2.20504E-13-2.99822E-13
 -1      2125 1.64750E+01 4.84164E+00-2.42095E-02-3.47324E-01-2.04413E-13-2.61034E-13
 -1      2126 1.42564E+01 5.36284E+00 2.97762E-02-1.40125E+00-2.15661E-13-3.78817E-13
 -1      2127 3.27053E+01 3.94328E+00-2.24374E-01-3.69083E-01-7.56950E-13 2.63879E-13
 -1      2128 3.27758E+01 3.56268E+00-2.55052E-01 1.74692E+00-8.55371E-13-8.63129E-14
 -1      2129 3.68024E+01 4.53986E+00 1.39794E-01 2.98747E+00-9.63840E-13-1.60039E-13
 -1      2130 3.69634E+01 5.35530E+00 2.27835E-01-1.28639E+00-8.73857E-13 2.01200E-13
 -1      2131 3.58397E+01 3.47447E+00 2.90346E-01 5.37267E+00 8.86052E-13 4.88720E-13
 -1      2132 3.13079E+01 1.89922E+00-2.61882E-02 5.81914E+00 9.41025E-13 5.84088E-13
 -1      2133 3.08645E+01-6.09837E-01 1.19947E-01 4.05381E+00 6.26221E-13 9.97535E-14
 -1      2134 4.07692E+01 6.16774E+00 3.23200E-01 2.85284E+00 9.09273E-13 2.10665E-13
 -1      2135 3.77796E+01 5.26075E+00 1.54815E-01 3.84648E+00 9.14713E-13 4.03011E-13
 -1      2136 4.23951E+01 7.72231E+00 2.58797E-01 6.65238E-01 9.15101E-13 3.74700E-15
 -1      2137 4.16554E+01 7.33370E+00 2.74769E-01 2.10317E+00 9.44744E-13 1.90348E-13
 -1      2138 4.09612E+01 7.78392E+00 1.59525E-01-1.04037E+00 8.38885E-13-1.82521E-13
 -1      2139 4.21896E+01 7.99314E+00 2.88387E-01 1.37221E-01 8.82572E-13 8.60076E-15
 -1      2140 3.83170E+01 5.70422E+00 1.30259E-01-3.18909E+00 8.08076E-13-4.59577E-13
 -1      2141 4.02145E+01 6.62241E+00 1.81578E-01-1.73865E+00 7.73104E-13-2.42584E-13
 -1      2142 3.34737E+01 3.45633E+00 3.10762E-02-5.12383E+00 7.92928E-13-6.19282E-13
 -1      2143 3.74100E+01 4.50177E+00 2.38747E-01-4.39757E+00 7.83290E-13-5.35016E-13
 -1      2144 3.57236E+01 5.01968E+00 2.64814E-01-9.99714E-01 7.12846E-13-1.15408E-13
 -1      2145 2.57084E+01 5.21032E-01-1.28058E-01-6.91528E+00 7.30749E-13-7.18980E-13
 -1      2146 3.06047E+01 2.05574E+00 1.88004E-01-6.89978E+00 7.55701E-13-6.87339E-13
 -1      2147 1.79041E+01-2.16556E+00-2.06061E-01-7.45859E+00 5.41844E-13-7.04548E-13
 -1      2148 2.25792E+01-1.34591E-01 1.15090E-01-8.05877E+00 7.13540E-13-7.80043E-13
 -1      2149 2.60889E+01-1.47235E+00 6.28920E-02-6.23889E+00 3.46834E-13-3.84748E-13
 -1      2150 1.05047E+01-3.83710E+00-1.12739E-01-7.53355E+00 1.19627E-13-7.22339E-13
 -1      2151 1.43136E+01-2.70160E+00-4.20808E-03-8.13867E+00 3.91909E-13-7.82652E-13
 -1      2152 2.26326E+00-5.96984E+00-4.51296E-01-4.59655E+00 6.70575E-14-7.65721E-13
 -1      2153 5.25442E+00-3.90292E+00-1.81970E-01-6.40385E+00 9.90319E-14-7.96391E-13
 -1      2154-1.46133E-01-6.66148E+00-4.61445E-01-2.03914E+00-1.45287E-13-7.73104E-13
 -1      2155 6.62075E-01-5.93887E+00-3.59140E-01-3.40980E+00 7.89924E-14-7.58671E-13
 -1      2156 2.64979E+00-3.35950E+00-1.58403E-01-4.83250E+00-8.70692E-14-8.44436E-13
 -1      2157 1.36452E+00-5.42607E+00-3.07652E-01 1.34170E+00-2.49467E-13-8.56482E-13
 -1      2158 1.38063E-02-6.66393E+00-5.02066E-01-5.10024E-01-1.41174E-13-8.16569E-13
 -1      2159 7.89443E+00-6.18047E+00-3.45041E-01 4.55721E+00-4.90719E-13-9.04915E-13
 -1      2160 5.08424E+00-5.88529E+00-2.71562E-01 3.63570E+00-2.74947E-13-8.22731E-13
 -1      2161 1.67959E+01-5.54576E+00-1.93938E-01 5.85699E+00-4.86722E-13-8.15945E-13
 -1      2162 1.14602E+01-6.71812E+00-4.95357E-01 4.78834E+00-4.45866E-13-8.33420E-13
 -1      2163 1.29058E+01-5.47663E+00-1.48617E-01 5.66833E+00-3.60267E-14-6.96526E-13
 -1      2164 2.84060E+01-4.05118E+00-2.38153E-02 4.63906E+00-6.52034E-13-6.50702E-13
 -1      2165 2.23034E+01-5.73429E+00-3.79899E-01 4.44334E+00-5.02487E-13-6.29607E-13
 -1      2166 3.77444E+01-1.13151E+00 1.43856E-01 1.64046E+00-6.26860E-13-3.98126E-13
 -1      2167 3.18716E+01-2.94123E+00-1.96908E-01 2.61619E+00-6.85119E-13-5.48561E-13
 -1      2168 3.19583E+01-4.93513E+00 3.97785E-02 1.46738E+00-2.70506E-13-7.60503E-14
 -1      2169 4.46751E+01 3.59041E+00 4.89555E-01-4.90889E-01-7.83207E-13-2.94875E-13
 -1      2170 4.06736E+01 1.94465E+00 2.52290E-01 1.96320E-02-6.87811E-13-3.71037E-13
 -1      2171 4.28828E+01 5.64406E+00 2.88800E-01-1.53192E+00-8.87512E-13 3.13638E-14
 -1      2172 4.23628E+01 4.39573E+00 2.39943E-01-1.66826E+00-8.74523E-13-9.60343E-14
 -1      2173 4.35383E+01 5.79243E+00 3.57044E-01 1.02166E-01-1.10523E-12 6.64468E-14
 -1      2174 4.34571E+01 6.37066E+00 3.13543E-01 1.29338E-01-1.02385E-12-1.29813E-13
 -1      2175 3.97207E+01 2.29547E+00 7.84474E-02 1.16905E+00-8.82239E-13 2.97540E-14
 -1      2176 4.29942E+01 4.05009E+00 3.96784E-01 1.46894E+00-9.46854E-13-5.37348E-14
 -1      2177 3.38219E+01-1.68464E+00-1.79698E-01-2.51892E+00-9.72278E-13 6.00409E-13
 -1      2178 3.95750E+01 3.06853E-01 3.93629E-01-1.46885E+00-1.03320E-12 3.24629E-13
 -1      2179 2.43060E+01-4.91638E+00-3.62967E-01-4.42793E+00-7.00551E-13 7.85150E-13
 -1      2180 3.04981E+01-3.07730E+00 6.07683E-02-4.60793E+00-7.99472E-13 8.13349E-13
 -1      2181 1.41468E+01-6.94397E+00-4.60183E-01-5.23864E+00-5.62883E-13 6.71296E-13
 -1      2182 1.95826E+01-5.40962E+00-1.68258E-01-5.93684E+00-6.84008E-13 8.35332E-13
 -1      2183 5.05181E+00-7.89657E+00-5.40362E-01-3.71778E+00-2.61680E-13 8.35693E-13
 -1      2184 9.07306E+00-6.48293E+00-2.82563E-01-5.30726E+00-4.21441E-13 7.02910E-13
 -1      2185 8.82703E-01-7.34942E+00-3.73658E-01-1.34808E+00-1.45217E-13 8.95617E-13
 -1      2186 2.53483E+00-7.50401E+00-3.96698E-01-2.69861E+00-3.45612E-13 9.09384E-13
 -1      2187 5.92236E+00-5.55984E+00-2.12283E-01-4.49554E+00 1.95677E-13 7.74547E-13
 -1      2188 4.70407E+00-6.04595E+00-1.97863E-01 5.82257E+00 4.45755E-13 1.16190E-12
 -1      2189 2.39015E+00-6.70508E+00-3.03587E-01 4.55546E+00 1.57319E-13 1.18100E-12
 -1      2190 8.37720E+00-5.08538E+00-1.26108E-01 7.37543E+00 1.89848E-14 9.56818E-13
 -1      2191 3.55796E+01 2.06344E-02-3.87915E-02 4.60932E+00-6.12038E-13-4.21330E-13
 -1      2192 3.63864E+01 1.50984E+00 1.08863E-04-4.27573E+00-5.70488E-13 4.52693E-13
 -1      2193 1.53332E+01-5.10115E+00-5.88917E-02 8.00463E+00 9.30367E-14 6.30756E-13
 -1      2194 3.39507E+01-3.16050E+00 1.65444E-02-2.44227E+00-8.12510E-14 4.47892E-13
 -1      2195 2.57436E+01 1.46260E+00-1.05380E-02 9.04216E-01-1.68018E-13 3.32792E-13
 -1      2196 2.35258E+01 1.83266E+00-3.54059E-02 1.40396E+00-1.25613E-13 1.52482E-13
 -1      2197 2.40600E+01-3.56695E+00 7.33016E-02 6.75560E+00 4.40536E-13 3.56604E-13
 -1      2198 3.52591E+01 3.58719E+00 2.54861E-01 2.03021E+00 7.89757E-13 6.30607E-14
 -1      2199 3.27599E+01-3.47628E+00-1.19027E-01 2.28768E+00-1.10884E-13-5.58303E-13
 -1      2200 1.99997E+01-8.23992E-05 4.56449E-07 1.06399E-04 2.44237E-13 1.57027E-13
 -1      2201 1.99997E+01-1.69008E-04-1.48990E-07-2.06845E-04 9.92609E-14-1.08186E-13
 -1      2202 2.96558E+00-4.35280E+00-1.20404E-01 4.10155E+00 3.58602E-14 1.24212E-12
 -1      2203 1.99997E+01-1.24852E-04-1.87152E-06 1.35590E-04 2.63439E-14 3.72756E-13
 -1      2204 1.99997E+01-1.69775E-04-8.41075E-07 1.67762E-04-1.56435E-13 5.66631E-13
 -1      2205 1.99997E+01-2.07876E-04 8.40575E-07 2.39787E-04-2.23718E-13 5.14377E-13
 -1      2206 1.99997E+01-1.23417E-04-9.45308E-07 1.85057E-04-1.19006E-13 6.20467E-13
 -1      2207 1.97120E+00-4.37774E+00-1.49566E-01-7.52088E-01 1.14561E-13 1.08713E-12
 -1      2208 1.42596E+01-6.49147E+00-1.48109E-01-5.92961E+00-3.95795E-14 5.77108E-13
 -1      2209 2.49080E+01-6.22135E+00-3.32087E-02-4.51377E+00-2.38309E-13 3.83082E-13
 -1      2210 3.33398E+01-3.80414E+00-2.20526E-02-1.06550E+00-5.35849E-13 1.70419E-13
 -1      2211 3.81450E+01-5.04022E-01 2.61876E-01-1.81480E+00-4.97435E-13 3.94129E-14
 -1      2212 2.26993E+01-6.24242E+00-6.26292E-02 4.74746E+00-9.70890E-14-3.76144E-13
 -1      2213 1.06615E+00-3.46233E+00-2.07550E-01-1.28629E+00-1.04670E-13-8.94118E-13
 -1      2214 1.84819E+01-3.31944E+00-7.97180E-02-7.80783E+00 7.39964E-14-5.30451E-13
 -1      2215 3.23897E+01 1.51242E+00 1.80822E-01-3.57429E+00 5.20785E-13-2.65288E-13
 -1      2216 3.70797E+01 7.89045E+00 2.47023E-01 6.31234E-02 8.31335E-13-2.95874E-14
 -1      2217 3.79553E+01 9.02161E+00 3.02286E-01 2.34325E-01 9.57456E-13-3.59886E-14
 -1      2218 3.75295E+01 7.40555E+00 3.22526E-01 4.94469E-01 9.33364E-13-2.96430E-14
 -1      2219 9.02770E+00-3.35169E+00-1.16410E-02-7.51574E+00-7.71605E-15-7.52037E-13
 -1      2220 1.25611E+01-3.01924E+00-7.56186E-02-8.20114E+00-2.21878E-13-6.14397E-13
 -1      2221 7.95037E+00-2.30724E+00 1.31469E-01-7.39805E+00-1.81327E-13-7.27141E-13
 -1      2222 4.48326E+00-4.31072E+00-1.35954E-01 2.91414E+00-1.57430E-13-8.65530E-13
 -1      2223 4.50941E+00-1.95769E+00 9.81755E-02 2.36699E+00-2.81164E-14-8.16569E-13
 -1      2224 7.87971E+00-3.06448E+00-7.57191E-02 4.44255E+00 5.18474E-14-7.60614E-13
 -1      2225 1.56747E+01 3.64256E+00 5.52913E-02-3.49541E+00-2.44217E-13-3.81730E-13
 -1      2226 1.44653E+01 4.00395E+00-3.96778E-02-3.44979E+00-2.54938E-13-4.09891E-13
 -1      2227 1.35679E+01 4.70902E+00 4.34684E-02-3.01317E+00-2.40576E-13-4.40966E-13
 -1      2228 1.30717E+01 4.95873E+00-1.64001E-02-2.54865E+00-2.39569E-13-4.41057E-13
 -1      2229 1.38372E+01 3.96897E+00 2.83184E-02-3.66059E+00-2.58890E-13-4.26621E-13
 -1      2230 2.01545E+01 1.97174E+00 4.27928E-03-1.85794E+00-1.04860E-13-2.30271E-13
 -1      2231 1.92574E+01 2.15668E+00-1.03536E-02-2.39387E+00-1.53569E-13-2.58481E-13
 -1      2232 2.13029E+01 1.85671E+00-1.59093E-02-5.89786E-01 5.85469E-18-1.96870E-13
 -1      2233 2.08271E+01 1.89839E+00-9.86593E-04-1.14771E+00-5.88375E-14-2.16082E-13
 -1      2234 2.09734E+01 1.22077E+00-2.22007E-02-1.58345E+00-9.78076E-14-1.83817E-13
 -1      2235 2.17493E+01 2.00323E+00-2.62420E-02 5.08582E-01 9.66150E-14-1.60809E-13
 -1      2236 2.16004E+01 1.96137E+00-2.95094E-03 2.52283E-02 3.81379E-14-1.77419E-13
 -1      2237 2.19253E+01 1.29296E+00-8.64477E-03-2.32717E-01 5.46427E-15-1.35507E-13
 -1      2238 2.17500E+01 2.20351E+00-3.04776E-02 1.39326E+00 2.05873E-13-7.72524E-14
 -1      2239 2.17971E+01 2.14788E+00-8.61172E-03 9.90408E-01 1.41080E-13-1.19266E-13
 -1      2240 2.21842E+01 1.53941E+00 9.77524E-04 8.42622E-01 1.12213E-13-8.92845E-14
 -1      2241 2.15257E+01 2.29307E+00-3.37793E-02 2.05399E+00 2.83573E-13-9.23220E-15
 -1      2242 2.16589E+01 2.29196E+00-1.42934E-02 1.73622E+00 2.34373E-13-5.27876E-14
 -1      2243 2.20356E+01 1.75065E+00 6.28943E-03 1.62270E+00 2.09265E-13-3.38653E-14
 -1      2244 2.12669E+01 2.14219E+00-4.22368E-02 2.48831E+00 3.31725E-13 1.16636E-13
 -1      2245 2.13929E+01 2.26922E+00-1.88025E-02 2.27004E+00 2.90610E-13 4.45043E-14
 -1      2246 2.17121E+01 1.79001E+00 1.12260E-02 2.13133E+00 2.67006E-13 5.16809E-14
 -1      2247 2.11513E+01 1.62910E+00-3.59808E-02 2.58242E+00 3.47194E-13 3.61829E-13
 -1      2248 2.11924E+01 1.97688E+00-1.09255E-02 2.56039E+00 3.36458E-13 2.15935E-13
 -1      2249 2.13816E+01 1.55611E+00 1.85371E-02 2.34872E+00 3.09605E-13 1.90415E-13
 -1      2250 2.10649E+01 9.76558E-01-2.40620E-02 2.21091E+00 3.12805E-13 5.71527E-13
 -1      2251 2.10983E+01 1.42727E+00 1.13300E-03 2.45506E+00 3.26726E-13 4.55122E-13
 -1      2252 2.09943E+01 1.09092E+00-1.36327E-03 2.18851E+00 3.16882E-13 3.51815E-13
 -1      2253 2.05900E+01 6.32864E-01-5.18911E-03 1.79054E+00 2.82139E-13 5.28313E-13
 -1      2254 2.63319E+01-3.81532E+00-4.46907E-02 5.31348E+00 1.57208E-13 4.98490E-14
 -1      2255 2.21842E+01-4.79699E+00-1.18375E-02 6.70589E+00-5.91194E-15 1.90320E-13
 -1      2256 2.17339E+01 1.23942E+00 7.48157E-02 2.77166E+00 4.33906E-14 5.28761E-14
 -1      2257 2.21227E+01 2.38307E-01 6.06252E-02 3.20884E+00 1.18638E-13 7.83679E-14
 -1      2258 2.24502E+01-1.01434E+00 1.49514E-01 3.81932E+00 2.10540E-13 1.03570E-13
 -1      2259 2.34654E+01-2.70402E+00 6.29110E-02 3.70315E+00 2.75946E-13 1.21091E-13
 -1      2260 1.89383E+01-1.80293E-01 1.00171E-02 3.94627E+00 1.64688E-13-9.89070E-14
 -1      2261 2.07843E+01 3.04857E+00 1.47047E-02 9.37820E-01-1.46386E-13-3.13170E-14
 -1      2262 2.14043E+01 1.97161E+00 1.86968E-02 2.03283E+00-5.44638E-14 2.06358E-14
 -1      2263 1.86542E+01 2.16018E+00-6.46073E-03 2.39782E+00-6.54685E-15-1.23512E-13
 -1      2264 1.84289E+01 3.82927E+00 2.76511E-02 7.33215E-01-1.50304E-13-1.53237E-13
 -1      2265 1.99997E+01-1.75264E-04-1.73931E-06-2.56536E-04 1.30263E-13-1.32358E-13
 -1      2266 2.41841E+01-2.15554E+00 2.67135E-02-3.83552E+00 3.81375E-13-4.67924E-14
 -1      2267 2.32335E+01-8.37407E-01 1.00927E-01-4.11827E+00 3.94941E-13 4.80458E-14
 -1      2268 2.27714E+01-9.27149E-02 2.76147E-02-3.87529E+00 2.96561E-13 1.14187E-13
 -1      2269 2.20971E+01 4.54685E-01 2.43922E-02-3.76436E+00 2.88283E-13 1.48532E-13
 -1      2270 2.03070E+01-5.39671E-01 3.11646E-03-4.55312E+00 3.75575E-13 2.11914E-13
 -1      2271 2.20717E+01 7.39639E-01 2.07461E-02-3.36527E+00 1.78721E-13 9.73692E-14
 -1      2272 2.15989E+01 8.77230E-01-1.18251E-03-3.06227E+00 6.95351E-14 7.66157E-14
 -1      2273 2.00726E+01 8.15039E-01 7.15546E-03-3.79988E+00 2.01528E-13 1.88259E-13
 -1      2274 2.16820E+01 8.99241E-01 1.85848E-02-2.67168E+00-5.23626E-15 1.03153E-13
 -1      2275 2.13165E+01 8.59867E-01-6.68020E-03-2.34154E+00-7.44413E-15-1.34823E-14
 -1      2276 2.02195E+01 1.18374E+00 1.01265E-02-2.99637E+00 4.13271E-14 1.47478E-13
 -1      2277 2.13828E+01 7.87350E-01 1.75901E-02-2.01104E+00 3.07150E-14-3.38790E-14
 -1      2278 2.10897E+01 6.96584E-01-5.65309E-03-1.72571E+00-5.40470E-14-3.49416E-14
 -1      2279 2.03753E+01 1.10033E+00 9.14183E-03-2.28049E+00-6.07908E-14 1.43155E-13
 -1      2280 2.11157E+01 6.07911E-01 1.54998E-02-1.46557E+00-2.50321E-15-1.02305E-13
 -1      2281 2.08828E+01 5.18180E-01-3.65129E-03-1.24356E+00-4.11620E-14-1.08014E-14
 -1      2282 2.04492E+01 8.76750E-01 6.57442E-03-1.69204E+00-4.63574E-14 6.86452E-15
 -1      2283 2.08774E+01 4.41729E-01 1.25971E-02-1.04760E+00-9.50798E-14 6.23991E-14
 -1      2284 2.06964E+01 3.69317E-01-2.07748E-03-8.84115E-01 4.34808E-14 7.37745E-15
 -1      2285 2.04489E+01 6.49251E-01 3.96082E-03-1.23318E+00 2.67403E-14 3.94955E-14
 -1      2286 2.06738E+01 3.11181E-01 9.65900E-03-7.40535E-01 1.00364E-13 5.66343E-14
 -1      2287 2.05363E+01 2.57585E-01-1.06918E-03-6.23723E-01 1.36092E-13-6.59983E-14
 -1      2288 2.04044E+01 4.62843E-01 1.99073E-03-8.87961E-01 6.43105E-14 5.70668E-14
 -1      2289 2.05070E+01 2.15904E-01 7.13286E-03-5.20303E-01 1.35608E-13-6.57087E-14
 -1      2290 2.04044E+01 1.77903E-01-4.70888E-04-4.38147E-01 6.25875E-14-3.40443E-14
 -1      2291 2.03408E+01 3.23550E-01 7.43965E-04-6.34395E-01 1.00096E-13 1.04833E-14
 -1      2292 2.03748E+01 1.48896E-01 5.14865E-03-3.64359E-01-1.22680E-14 1.96859E-14
 -1      2293 2.02989E+01 1.22366E-01-2.60410E-04-3.06938E-01 1.09535E-14-1.02991E-13
 -1      2294 2.02744E+01 2.24174E-01 5.78762E-05-4.50963E-01 4.18874E-14-9.34487E-15
 -1      2295 2.02708E+01 1.01422E-01 3.61361E-03-2.52154E-01 1.87276E-14-2.45859E-14
 -1      2296 2.02137E+01 8.27797E-02-6.10436E-05-2.10702E-01 3.29472E-14-3.60969E-14
 -1      2297 2.02123E+01 1.53960E-01-9.02832E-05-3.16937E-01-8.72555E-15 1.24637E-13
 -1      2298 2.01919E+01 6.96206E-02 2.57564E-03-1.74275E-01 1.52960E-13 3.09143E-14
 -1      2299 2.01527E+01 5.73600E-02 9.46493E-05-1.46850E-01 9.50743E-14 2.88967E-13
 -1      2300 2.01593E+01 1.05137E-01-4.15065E-04-2.21476E-01 1.01054E-13 1.58270E-13
 -1      2301 2.01349E+01 4.82290E-02 1.80571E-03-1.20942E-01-1.00624E-13 3.69325E-13
 -1      2302 2.01068E+01 3.98267E-02 1.22787E-04-1.01767E-01-6.88831E-14 3.22982E-13
 -1      2303 2.01175E+01 7.29533E-02-4.24857E-04-1.55564E-01 1.03095E-13 2.74521E-13
 -1      2304 2.00929E+01 3.35378E-02 1.27449E-03-8.33672E-02 6.50581E-14 3.71783E-13
 -1      2305 2.00729E+01 2.77229E-02 1.21931E-04-6.99268E-02 1.80098E-13 2.46150E-13
 -1      2306 2.00847E+01 5.07642E-02-3.84046E-04-1.08554E-01-9.29019E-15 1.53276E-13
 -1      2307 2.00623E+01 2.33646E-02 9.00354E-04-5.68598E-02 2.38646E-14 1.54078E-13
 -1      2308 2.00483E+01 1.93103E-02 1.08925E-04-4.74325E-02-1.18385E-14 1.88428E-14
 -1      2309 2.00595E+01 3.53963E-02-3.25348E-04-7.50274E-02 2.61111E-14 8.41560E-14
 -1      2310 2.00404E+01 1.62669E-02 6.35489E-04-3.81671E-02 3.21624E-14-8.41603E-14
 -1      2311 2.00307E+01 1.34198E-02 9.13911E-05-3.15653E-02-2.00099E-14-1.28357E-14
 -1      2312 2.00406E+01 2.46806E-02-2.64669E-04-5.11421E-02-2.32066E-14-1.58146E-13
 -1      2313 2.00249E+01 1.12797E-02 4.47379E-04-2.50221E-02-3.96022E-14-3.13250E-14
 -1      2314 2.00183E+01 9.26840E-03 7.35216E-05-2.04215E-02-8.63035E-14-4.73302E-14
 -1      2315 2.00267E+01 1.71568E-02-2.09266E-04-3.41751E-02-1.03570E-14-8.60376E-14
 -1      2316 2.00142E+01 7.75599E-03 3.13331E-04-1.58345E-02-1.20931E-13-1.33504E-13
 -1      2317 2.00098E+01 6.32986E-03 5.72948E-05-1.26572E-02-1.24896E-13-1.46647E-13
 -1      2318 2.00167E+01 1.18433E-02-1.61826E-04-2.21901E-02-1.26798E-13-3.32689E-13
 -1      2319 2.00069E+01 5.25858E-03 2.17559E-04-9.47858E-03-1.40594E-13-1.36405E-13
 -1      2320 2.00041E+01 4.24680E-03 4.34764E-05-7.31563E-03-1.05155E-13-1.45981E-13
 -1      2321 2.00097E+01 8.07686E-03-1.22788E-04-1.38007E-02-1.49535E-13-2.38694E-13
 -1      2322 2.00022E+01 3.48898E-03 1.49073E-04-5.15004E-03-2.08911E-13-8.34365E-14
 -1      2323 2.00005E+01 2.77347E-03 3.21955E-05-3.70909E-03-3.11152E-13-8.06139E-14
 -1      2324 2.00049E+01 5.40523E-03-9.15374E-05-8.00733E-03-1.21403E-13-3.68649E-13
 -1      2325 1.99992E+01 2.24039E-03 1.00175E-04-2.26941E-03-3.42930E-13-3.55034E-14
 -1      2326 1.99982E+01 1.73829E-03 2.32705E-05-1.33981E-03-2.71128E-13-1.02744E-13
 -1      2327 2.00017E+01 3.51586E-03-6.70414E-05-4.08376E-03-2.91878E-13-1.18589E-13
 -1      2328 1.99975E+01 1.36727E-03 6.54303E-05-4.16336E-04 9.40368E-15-1.54145E-13
 -1      2329 1.99970E+01 1.01952E-03 1.63892E-05 1.54551E-04 2.22907E-13-1.04905E-13
 -1      2330 1.99997E+01 2.18962E-03-4.81751E-05-1.49946E-03-1.27494E-13-7.74264E-14
 -1      2331 1.99966E+01 7.65618E-04 4.09546E-05 7.15325E-04 4.36818E-13-1.39766E-13
 -1      2332 1.99965E+01 5.29513E-04 1.12050E-05 1.03831E-03 5.34882E-13 1.64124E-14
 -1      2333 1.99985E+01 1.27042E-03-3.38753E-05 1.34561E-04 2.85222E-13-6.20239E-14
 -1      2334 1.99963E+01 3.60085E-04 2.39431E-05 1.34866E-03 5.33897E-13 1.14125E-13
 -1      2335 1.99964E+01 2.04412E-04 7.38601E-06 1.50406E-03 5.31471E-13 2.28387E-13
 -1      2336 1.99978E+01 6.45590E-04-2.32055E-05 1.10371E-03 5.71965E-13 1.49187E-13
 -1      2337 1.99963E+01 9.54985E-05 1.23478E-05 1.64573E-03 4.35457E-13 3.25891E-13
 -1      2338 1.99965E+01-2.74628E-06 4.63722E-06 1.69140E-03 4.35045E-13 4.00251E-13
 -1      2339 1.99976E+01 2.32802E-04-1.53736E-05 1.61683E-03 6.09515E-13 4.73699E-14
 -1      2340 1.99966E+01-6.88194E-05 4.66206E-06 1.72341E-03 3.93117E-13 5.06715E-13
 -1      2341 1.99969E+01-1.26645E-04 2.70790E-06 1.70059E-03 3.74024E-13 5.28926E-13
 -1      2342 1.99976E+01-2.85406E-05-9.72714E-06 1.82574E-03 4.31380E-13 5.76308E-13
 -1      2343 1.99970E+01-1.62940E-04-2.28492E-07 1.66498E-03 1.65696E-13 4.19899E-13
 -1      2344 1.99972E+01-1.92926E-04 1.39099E-06 1.60259E-03 1.05588E-14 5.34821E-13
 -1      2345 1.99977E+01-1.83226E-04-5.73957E-06 1.83971E-03 1.67785E-13 3.66080E-13
 -1      2346 1.99974E+01-2.09077E-04-3.14859E-06 1.52873E-03-8.65416E-14 4.90775E-13
 -1      2347 1.99976E+01-2.20497E-04 5.18380E-07 1.44656E-03-1.32985E-13 5.54503E-13
 -1      2348 1.99980E+01-2.64365E-04-2.99233E-06 1.73615E-03-2.18236E-15 3.83480E-13
 -1      2349 1.99978E+01-2.23582E-04-4.70711E-06 1.35443E-03-2.75404E-13 6.73565E-13
 -1      2350 1.99980E+01-2.23243E-04-4.52681E-08 1.26553E-03-2.04296E-13 4.07424E-13
 -1      2351 1.99982E+01-2.96369E-04-1.15765E-06 1.56872E-03-2.15619E-13 1.82319E-13
 -1      2352 1.99982E+01-2.18438E-04-5.35042E-06 1.16815E-03-7.49001E-14 4.25924E-13
 -1      2353 1.99984E+01-2.11317E-04-4.08162E-07 1.08064E-03 7.11569E-14 2.95897E-13
 -1      2354 1.99985E+01-2.97160E-04 1.78548E-08 1.37346E-03-1.76741E-13 5.62673E-13
 -1      2355 1.99985E+01-2.02402E-04-5.40141E-06 9.85923E-04 7.88689E-14 3.02020E-13
 -1      2356 1.99987E+01-1.92146E-04-6.57420E-07 9.04278E-04-5.17679E-14 1.74746E-13
 -1      2357 1.99987E+01-2.79846E-04 7.26980E-07 1.17335E-03 5.84821E-14 5.20375E-13
 -1      2358 1.99988E+01-1.81909E-04-5.09135E-06 8.16418E-04 3.00392E-14 3.94390E-13
 -1      2359 1.99990E+01-1.71250E-04-8.65841E-07 7.42461E-04 8.19116E-14 4.61646E-13
 -1      2360 1.99990E+01-2.54031E-04 1.10925E-06 9.81853E-04 8.45626E-14 5.79251E-13
 -1      2361 1.99991E+01-1.61826E-04-4.57558E-06 6.62907E-04-1.13314E-13 5.36575E-13
 -1      2362 1.99992E+01-1.52806E-04-1.06157E-06 5.96473E-04-1.42271E-13 6.31610E-13
 -1      2363 1.99992E+01-2.26897E-04 1.25162E-06 8.05477E-04-2.76361E-14 5.90550E-13
 -1      2364 1.99993E+01-1.45795E-04-3.95321E-06 5.24776E-04-2.10669E-13 6.68192E-13
 -1      2365 1.99994E+01-1.39876E-04-1.24945E-06 4.64334E-04-1.42779E-13 5.68765E-13
 -1      2366 1.99993E+01-2.03677E-04 1.23659E-06 6.45643E-04-5.41200E-14 6.72118E-13
 -1      2367 1.99995E+01-1.36130E-04-3.07327E-06 3.98847E-04-1.06157E-13 7.09526E-13
 -1      2368 1.99995E+01-1.34430E-04-1.36688E-06 3.42218E-04-3.39398E-13 8.79238E-13
 -1      2369 1.99995E+01-1.87885E-04 1.23526E-06 5.00983E-04-1.16443E-13 9.33915E-13
 -1      2370 1.99996E+01-1.29382E-04-2.49314E-06 2.89049E-04-4.30988E-13 8.88149E-13
 -1      2371 1.99996E+01-1.29537E-04-1.83691E-06 2.35215E-04-2.33793E-13 7.08095E-13
 -1      2372 1.99997E+01-1.68915E-04-9.09296E-07 2.68715E-04-4.07861E-13 7.11765E-13
 -1      2373 1.99996E+01-1.78540E-04-6.46639E-08 3.76970E-04-3.89894E-13 7.12379E-13
 -1      2374 1.88749E+01 5.17492E-01 1.13782E-02 4.53222E-01 1.40889E-13 2.47415E-13
 -1      2375 1.90003E+01 4.61860E-01 4.70290E-03 6.51717E-01 1.64300E-13 2.64245E-13
 -1      2376 1.91793E+01 4.01585E-01 1.08360E-02 8.59062E-01 1.70296E-13 2.64607E-13
 -1      2377 1.93875E+01 3.43957E-01 5.83075E-03 1.01616E+00 1.45853E-13 2.95743E-13
 -1      2378 1.96756E+01 5.84451E-01-6.29294E-03 9.07248E-01 1.73852E-13 2.36568E-13
 -1      2379 1.96029E+01 3.05898E-01 7.90336E-03 1.17086E+00 1.64867E-13 2.90062E-13
 -1      2380 1.98781E+01 2.99929E-01 9.36776E-03 1.30634E+00 1.95444E-13 3.37947E-13
 -1      2381 2.00622E+01 4.51330E-01-3.51745E-03 1.29474E+00 1.77091E-13 2.34674E-13
 -1      2382 1.87334E+01 5.66589E-01 8.80260E-03-2.71624E-02 1.40912E-13 2.15639E-13
 -1      2383 1.87695E+01 5.53828E-01 6.80058E-03 1.96243E-01 1.36852E-13 2.46473E-13
 -1      2384 1.93990E+01 7.14542E-01-9.03433E-03 4.06583E-01 1.53652E-13 2.04064E-13
 -1      2385 1.87742E+01 5.04549E-01 4.25434E-03-5.02548E-01 1.43086E-13 1.59360E-13
 -1      2386 1.87234E+01 5.51064E-01 9.55873E-03-2.93783E-01 1.46197E-13 1.95278E-13
 -1      2387 1.92868E+01 7.41425E-01-9.47215E-03-1.59645E-01 1.77094E-13 1.64805E-13
 -1      2388 1.89736E+01 3.42131E-01-2.66632E-04-8.76689E-01 1.26858E-13 1.40383E-13
 -1      2389 1.88519E+01 4.35820E-01 1.05774E-02-7.23685E-01 1.32749E-13 1.50084E-13
 -1      2390 1.93513E+01 6.24012E-01-7.05947E-03-6.86012E-01 1.49378E-13 9.05236E-14
 -1      2391 1.92707E+01 1.31930E-01-3.09254E-03-1.08295E+00 9.45629E-14 1.36838E-13
 -1      2392 1.91051E+01 2.42151E-01 8.75942E-03-1.00970E+00 1.23064E-13 1.55172E-13
 -1      2393 1.95513E+01 3.90479E-01-2.78703E-03-1.06500E+00 1.04182E-13 6.54446E-14
 -1      2394 1.95912E+01-6.31790E-02-3.81963E-03-1.10900E+00 6.60049E-14 1.17116E-13
 -1      2395 1.94120E+01 3.19058E-02 4.69896E-03-1.11500E+00 1.00941E-13 1.33947E-13
 -1      2396 1.98118E+01 1.13836E-01 1.22479E-03-1.23733E+00 1.02367E-13 1.00692E-13
 -1      2397 1.98746E+01-1.99572E-01-3.07055E-03-9.91240E-01 2.66516E-14 7.73599E-14
 -1      2398 1.97076E+01-1.38615E-01 5.63413E-06-1.05673E+00 5.60283E-14 1.19023E-13
 -1      2399 2.00580E+01-1.28532E-01 3.48072E-03-1.20998E+00 6.78774E-14 8.48733E-14
 -1      2400 2.00884E+01-2.64173E-01-1.73023E-03-7.89668E-01-2.13894E-14 7.35055E-14
 -1      2401 1.99504E+01-2.40424E-01-3.77605E-03-8.87224E-01 1.03303E-14 8.34639E-14
 -1      2402 2.02427E+01-2.88249E-01 3.88177E-03-1.03888E+00 2.11715E-14 8.82996E-14
 -1      2403 2.02261E+01-2.67813E-01-5.01895E-04-5.62579E-01 1.97607E-14 7.12741E-14
 -1      2404 2.01240E+01-2.73408E-01-5.92989E-03-6.67200E-01 5.32994E-15 5.58954E-14
 -1      2405 2.03519E+01-3.55406E-01 3.14100E-03-7.95906E-01 2.78957E-14 1.37119E-13
 -1      2406 2.02978E+01-2.32112E-01 3.34849E-04-3.52214E-01 7.39778E-14 7.20077E-14
 -1      2407 2.02308E+01-2.55157E-01-6.49319E-03-4.46542E-01 3.96909E-14 6.20580E-14
 -1      2408 2.03949E+01-3.47855E-01 2.03552E-03-5.42841E-01 5.03751E-14 6.41960E-14
 -1      2409 2.03199E+01-1.78717E-01 7.47710E-04-1.81356E-01 6.60368E-14-1.89527E-15
 -1      2410 2.02829E+01-2.08383E-01-5.92462E-03-2.56534E-01 9.02063E-14 7.61026E-14
 -1      2411 2.03904E+01-2.94522E-01 1.05260E-03-3.19956E-01 7.74307E-14 2.00589E-14
 -1      2412 2.03093E+01-1.23560E-01 8.54798E-04-5.68812E-02-7.28009E-15-1.22983E-14
 -1      2413 2.02952E+01-1.52393E-01-4.76922E-03-1.10738E-01 4.22329E-14 1.16518E-15
 -1      2414 2.03575E+01-2.22510E-01 3.61221E-04-1.45928E-01 6.74167E-14-2.88072E-14
 -1      2415 2.02796E+01-7.57842E-02 7.87812E-04 2.44408E-02-9.05544E-14 8.17749E-14
 -1      2416 2.02813E+01-9.98319E-02-3.45576E-03-1.00741E-02-7.10222E-14 4.81614E-14
 -1      2417 2.03112E+01-1.50986E-01-5.29234E-05-2.36668E-02-7.49622E-14 3.91242E-14
 -1      2418 2.02408E+01-3.90368E-02 6.49465E-04 7.07212E-02-1.59451E-13 7.51214E-14
 -1      2419 2.02523E+01-5.69928E-02-2.25029E-03 5.16487E-02-8.65731E-14 5.22841E-14
 -1      2420 2.02612E+01-9.04412E-02-2.65586E-04 5.29841E-02-9.55486E-14 7.43997E-14
 -1      2421 2.01997E+01-1.34479E-02 5.00460E-04 9.13252E-02-7.95728E-14 1.00720E-13
 -1      2422 2.02163E+01-2.56017E-02-1.27780E-03 8.33991E-02-1.12244E-13 6.34926E-14
 -1      2423 2.02132E+01-4.46606E-02-3.54096E-04 9.39459E-02-1.50066E-13 3.06903E-14
 -1      2424 2.01603E+01 2.64504E-03 3.69890E-04 9.48204E-02 2.86558E-14 2.13488E-13
 -1      2425 2.01786E+01-4.74539E-03-5.67511E-04 9.41969E-02-4.61471E-14 1.38768E-13
 -1      2426 2.01700E+01-1.32739E-02-3.74409E-04 1.09536E-01-8.13325E-14-4.43622E-14
 -1      2427 2.01250E+01 1.15122E-02 2.67130E-04 8.80905E-02 3.54793E-14 2.42087E-13
 -1      2428 2.01428E+01 7.64885E-03-9.49840E-05 9.17290E-02 1.23867E-13 2.23104E-13
 -1      2429 2.01327E+01 6.11543E-03-3.60201E-04 1.08724E-01 5.67590E-14 7.59369E-14
 -1      2430 2.00948E+01 1.53551E-02 1.91230E-04 7.61676E-02 1.08542E-13 1.93398E-13
 -1      2431 2.01108E+01 1.38834E-02 1.87084E-04 8.18768E-02 7.65913E-14 2.12255E-13
 -1      2432 2.01016E+01 1.65095E-02-3.30169E-04 9.84894E-02 1.02841E-13 2.58010E-13
 -1      2433 2.00697E+01 1.59982E-02 1.37206E-04 6.24344E-02 4.93982E-14 1.73640E-13
 -1      2434 2.00834E+01 1.60074E-02 3.30089E-04 6.87640E-02 1.19178E-13 1.51064E-13
 -1      2435 2.00762E+01 2.07287E-02-2.93901E-04 8.38082E-02 1.49024E-13 2.19449E-13
 -1      2436 2.00497E+01 1.48083E-02 9.94707E-05 4.89705E-02 8.65080E-14 1.33053E-13
 -1      2437 2.00609E+01 1.56325E-02 3.79624E-04 5.50471E-02 6.18995E-14 1.18811E-13
 -1      2438 2.00558E+01 2.10697E-02-2.55900E-04 6.79531E-02 9.82244E-14 2.02705E-13
 -1      2439 2.00341E+01 1.27317E-02 7.32089E-05 3.69088E-02 1.34920E-13 2.18951E-14
 -1      2440 2.00429E+01 1.39197E-02 3.71679E-04 4.22727E-02 1.56353E-13 7.44475E-14
 -1      2441 2.00399E+01 1.92325E-02-2.18496E-04 5.28838E-02 1.35848E-13 1.81068E-13
 -1      2442 2.00222E+01 1.03753E-02 5.47499E-05 2.67425E-02 4.14981E-14-4.02518E-14
 -1      2443 2.00289E+01 1.16447E-02 3.32434E-04 3.12091E-02 8.83812E-14-8.31332E-14
 -1      2444 2.00276E+01 1.63814E-02-1.83123E-04 3.96244E-02 1.65705E-13 1.07185E-13
 -1      2445 2.00135E+01 8.09587E-03 4.15071E-05 1.85639E-02-4.40019E-14 1.85643E-15
 -1      2446 2.00184E+01 9.28597E-03 2.79614E-04 2.21178E-02 2.25853E-14 4.65920E-14
 -1      2447 2.00183E+01 1.32553E-02-1.50678E-04 2.85760E-02 3.16523E-14 2.46133E-15
 -1      2448 2.00073E+01 6.07755E-03 3.17525E-05 1.22375E-02-1.25869E-13 9.49517E-14
 -1      2449 2.00107E+01 7.11000E-03 2.24330E-04 1.49569E-02-1.78402E-13 3.35437E-14
 -1      2450 2.00115E+01 1.02818E-02-1.21694E-04 1.97566E-02-1.65881E-13 1.24185E-13
 -1      2451 2.00030E+01 4.39327E-03 2.43754E-05 7.51731E-03 5.32939E-14 1.95997E-13
 -1      2452 2.00053E+01 5.24165E-03 1.72900E-04 9.52298E-03-2.12454E-14 1.59374E-13
 -1      2453 2.00066E+01 7.67609E-03-9.64259E-05 1.29722E-02-1.39640E-13 1.54625E-13
 -1      2454 2.00001E+01 3.04961E-03 1.86761E-05 4.12025E-03 4.82892E-14 2.58548E-13
 -1      2455 2.00016E+01 3.71768E-03 1.28388E-04 5.54484E-03 2.09352E-13 2.50795E-13
 -1      2456 2.00032E+01 5.51755E-03-7.49071E-05 7.93095E-03 4.30783E-14 1.53165E-13
 -1      2457 1.99984E+01 2.01738E-03 1.42131E-05 1.77013E-03 5.63280E-14 3.11336E-13
 -1      2458 1.99993E+01 2.52447E-03 9.17966E-05 2.73989E-03 6.35541E-14 3.17110E-13
 -1      2459 2.00009E+01 3.80552E-03-5.69890E-05 4.31458E-03 2.77132E-14 3.10670E-13
 -1      2460 1.99974E+01 1.25136E-03 1.07000E-05 2.19941E-04 8.75512E-15 2.83200E-13
 -1      2461 1.99979E+01 1.62312E-03 6.29238E-05 8.45905E-04 7.76619E-14 2.22390E-13
 -1      2462 1.99994E+01 2.49693E-03-4.23918E-05 1.81970E-03 9.13050E-14 2.15523E-13
 -1      2463 1.99970E+01 7.02223E-04 7.94029E-06-7.38754E-04 8.58623E-14 1.28160E-13
 -1      2464 1.99971E+01 9.65181E-04 4.09388E-05-3.64110E-04 9.62633E-14 2.19694E-13
 -1      2465 1.99985E+01 1.53051E-03-3.07524E-05 1.78572E-04 1.25614E-13 1.65760E-13
 -1      2466 1.99969E+01 3.23225E-04 5.78953E-06-1.27449E-03-2.68903E-13 3.85455E-13
 -1      2467 1.99968E+01 5.01815E-04 2.47538E-05-1.07724E-03-1.09870E-13 1.43591E-13
 -1      2468 1.99981E+01 8.41277E-04-2.16679E-05-8.32997E-04-6.77318E-14 1.57233E-13
 -1      2469 1.99970E+01 7.33546E-05 4.13347E-06-1.51885E-03-1.31076E-14 1.53464E-13
 -1      2470 1.99969E+01 1.88612E-04 1.32462E-05-1.44187E-03-1.24875E-13 2.78003E-13
 -1      2471 1.99979E+01 3.68416E-04-1.47304E-05-1.39535E-03-1.24863E-13 2.11000E-13
 -1      2472 1.99973E+01-8.15331E-05 2.87675E-06-1.57137E-03 1.11846E-13-4.96286E-14
 -1      2473 1.99971E+01-1.23332E-05 5.37841E-06-1.57191E-03 7.66711E-14 6.00286E-14
 -1      2474 1.99979E+01 5.90534E-05-9.55182E-06-1.64881E-03 1.47490E-13 4.46125E-14
 -1      2475 1.99976E+01-1.68802E-04 1.93678E-06-1.50513E-03 2.88743E-13-2.23588E-13
 -1      2476 1.99974E+01-1.31968E-04 2.54696E-07-1.55216E-03 1.67337E-13-3.95869E-14
 -1      2477 1.99981E+01-1.30582E-04-5.78030E-06-1.69929E-03 2.17859E-13 1.13507E-14
 -1      2478 1.99980E+01-2.09740E-04 1.24030E-06-1.37202E-03-2.62733E-13-1.50300E-13
 -1      2479 1.99977E+01-1.94721E-04-2.86283E-06-1.44380E-03-2.34219E-14-1.85063E-13
 -1      2480 1.99983E+01-2.35424E-04-3.10859E-06-1.62436E-03 1.07416E-13-3.32800E-14
 -1      2481 1.99983E+01-2.20523E-04 7.20937E-07-1.20751E-03 4.06700E-14 2.76101E-14
 -1      2482 1.99981E+01-2.19367E-04-4.56006E-06-1.28946E-03-1.82267E-13-1.16086E-13
 -1      2483 1.99985E+01-2.82565E-04-1.27739E-06-1.47905E-03-2.22808E-13 2.66215E-14
 -1      2484 1.99986E+01-2.13235E-04 3.15941E-07-1.03456E-03-3.71845E-14-4.44181E-14
 -1      2485 1.99984E+01-2.20040E-04-5.28773E-06-1.11749E-03 1.04355E-13 4.06415E-14
 -1      2486 1.99987E+01-2.92548E-04-7.56991E-08-1.30084E-03 4.10458E-14 1.04514E-13
 -1      2487 1.99989E+01-1.96819E-04-3.06382E-08-8.66740E-04 2.58640E-14-1.49506E-13
 -1      2488 1.99987E+01-2.07245E-04-5.38409E-06-9.45491E-04-2.59966E-15-1.49789E-13
 -1      2489 1.99989E+01-2.80714E-04 6.60744E-07-1.11391E-03 1.30094E-14 2.88915E-14
 -1      2490 1.99991E+01-1.77884E-04-3.42066E-07-7.10714E-04 1.42830E-13-1.89144E-14
 -1      2491 1.99990E+01-1.88743E-04-5.09411E-06-7.83109E-04-1.05051E-14-2.58032E-13
 -1      2492 1.99991E+01-2.58364E-04 1.07303E-06-9.32463E-04 9.32565E-14-2.94641E-13
 -1      2493 1.99993E+01-1.61352E-04-5.52847E-07-5.68080E-04 2.16983E-13 4.92865E-14
 -1      2494 1.99992E+01-1.70382E-04-4.57177E-06-6.34150E-04 2.12643E-13 1.07864E-13
 -1      2495 1.99993E+01-2.33630E-04 1.38927E-06-7.63529E-04 1.07818E-13-1.29802E-13
 -1      2496 1.99995E+01-1.50945E-04-9.57995E-07-4.37407E-04-2.51518E-14 2.02855E-13
 -1      2497 1.99994E+01-1.56324E-04-3.98058E-06-4.98309E-04 2.08363E-13 1.69936E-13
 -1      2498 1.99994E+01-2.12797E-04 1.61582E-06-6.08780E-04 1.19391E-13 1.08891E-13
 -1      2499 1.99996E+01-1.47742E-04-2.06375E-06-3.15637E-04 1.21996E-13-1.06450E-13
 -1      2500 1.99995E+01-1.49270E-04-3.61195E-06-3.71854E-04-8.98397E-15 3.16728E-14
 -1      2501 1.99995E+01-2.00895E-04 1.40430E-06-4.66244E-04 1.21580E-13 1.77732E-13
 -1      2502 1.99999E+01-6.07718E-04 2.67720E-06-3.05907E-04-2.18553E-13 2.94536E-13
 -1      2503 1.99999E+01-5.53567E-04-6.86016E-07-3.33168E-04-2.21664E-13 6.60293E-14
 -1      2504 1.99998E+01-4.90673E-04 2.17065E-06-3.53941E-04-2.29837E-13-6.73685E-14
 -1      2505 1.99998E+01-4.30097E-04-1.79339E-06-3.57735E-04-9.88562E-14 2.20718E-14
 -1      2506 1.99999E+01-5.25027E-04-1.21388E-06-3.97889E-04-1.71677E-13 4.58270E-14
 -1      2507 1.99998E+01-3.60348E-04 1.53411E-06-3.53638E-04-1.31103E-14 5.31394E-14
 -1      2508 1.99997E+01-2.95538E-04-2.23594E-06-3.33943E-04 1.23177E-13-1.27854E-13
 -1      2509 1.99998E+01-3.97678E-04 6.88433E-07-4.14068E-04 1.13423E-13-1.52267E-14
 -1      2510 5.86099E+00-2.57872E+00 1.19574E-01 5.64757E+00-8.74578E-14 1.05604E-12
 -1      2511 4.06043E+00-1.83450E+00 1.49270E-01 3.15129E+00 2.21212E-14 1.12699E-12
 -1      2512 1.99999E+01-6.97870E-04 2.75125E-06-2.16695E-04-4.94119E-14 2.07134E-15
 -1      2513 1.99999E+01-6.57685E-04 3.58771E-07-2.61573E-04-2.25707E-13 1.74394E-13
 -1      2514 1.99999E+01-6.33493E-04-1.66298E-06-3.27018E-04-4.97845E-14 2.38542E-13
 -1      2515 2.00000E+01-7.51433E-04 2.54798E-06-9.92346E-05-2.80275E-13-7.72416E-14
 -1      2516 1.99999E+01-7.30143E-04 1.28449E-06-1.55541E-04-1.91387E-13-1.77832E-13
 -1      2517 2.00000E+01-7.12761E-04-2.22767E-06-2.14127E-04-1.87253E-13-8.56629E-14
 -1      2518 2.00000E+01-7.62465E-04 2.04963E-06 3.09803E-05-3.00046E-13 1.58873E-13
 -1      2519 2.00000E+01-7.62566E-04 2.03999E-06-2.92042E-05-4.35801E-13 3.06233E-13
 -1      2520 2.00000E+01-7.54565E-04-2.45704E-06-7.38820E-05-1.29411E-13-7.91212E-14
 -1      2521 1.99999E+01-7.29892E-04 1.32441E-06 1.57229E-04-2.05903E-13-1.78783E-13
 -1      2522 2.00000E+01-7.51459E-04 2.51574E-06 1.00999E-04-3.36722E-13 8.70879E-14
 -1      2523 2.00000E+01-7.54690E-04-2.46251E-06 7.56953E-05-4.03518E-13 2.56386E-13
 -1      2524 1.99999E+01-6.58891E-04 3.77898E-07 2.61633E-04-1.32561E-13-4.70121E-13
 -1      2525 1.99999E+01-6.98410E-04 2.73377E-06 2.17447E-04-8.95338E-14-4.16969E-13
 -1      2526 2.00000E+01-7.13674E-04-2.27669E-06 2.14863E-04-1.28682E-13-1.68168E-13
 -1      2527 1.99999E+01-5.54599E-04-6.84468E-07 3.33424E-04-7.83192E-14 5.56439E-14
 -1      2528 1.99999E+01-6.08882E-04 2.68149E-06 3.06204E-04-2.84937E-14-3.93684E-13
 -1      2529 1.99999E+01-6.35369E-04-1.80273E-06 3.27176E-04 5.50707E-14-4.57995E-13
 -1      2530 1.99998E+01-4.28798E-04-1.64857E-06 3.59212E-04-3.04292E-13 3.56183E-13
 -1      2531 1.99998E+01-4.91005E-04 2.36046E-06 3.54523E-04-2.73782E-13 3.20125E-13
 -1      2532 1.99999E+01-5.26225E-04-1.22484E-06 3.98167E-04-2.09765E-13-5.86703E-14
 -1      2533 1.99997E+01-2.94185E-04-2.16318E-06 3.33908E-04-3.41416E-13 5.37634E-13
 -1      2534 1.99998E+01-3.58250E-04 1.70022E-06 3.52970E-04-3.95721E-13 3.90277E-13
 -1      2535 1.99998E+01-3.97454E-04-5.17870E-07 4.15407E-04-4.63993E-13 3.38914E-13
 -1      2536 3.35850E+01 3.61678E+00-1.34593E-01 1.36612E-01 6.80705E-13-1.74916E-13
 -1      2537 3.23413E+01 1.39320E+00-8.90460E-02 1.10376E+00 5.95302E-13-1.13853E-13
 -1      2538 3.16271E+01-2.20232E-01-3.05190E-02 2.25235E+00 5.36862E-13-1.06248E-13
 -1      2539 2.95258E+01-1.87150E+00-3.48076E-02 3.11779E+00 4.15813E-13-9.77551E-14
 -1      2540 3.12413E+01 2.91580E-01-2.94838E-02 2.66050E-01 4.48336E-13-2.50716E-13
 -1      2541 1.34264E+01-5.19767E+00 2.96431E-02-5.92656E+00 2.68952E-13 4.70624E-13
 -1      2542 1.84441E+01-5.95065E+00-9.17411E-02-6.15907E+00 9.08718E-14 2.91919E-13
 -1      2543 3.81415E+01-4.65666E-01 9.54233E-02 7.78238E-01-8.11396E-13-1.14131E-13
 -1      2544 2.99378E+00-7.83348E-01 1.00430E-01-3.73911E-01-8.01754E-14-8.11295E-13
 -1      2545 2.76304E+00-9.68866E-01 7.90527E-02-2.46963E+00-9.61731E-14-8.16236E-13
 -1      2546 1.81608E+01-3.33450E+00 4.63511E-02-7.65762E+00-1.75415E-13-3.67886E-13
 -1      2547 2.20338E+01-3.10084E+00 3.82928E-02-7.13755E+00-1.30451E-14-2.88630E-13
 -1      2548 3.30005E+01 6.59523E+00-1.54029E-01 9.04187E-01 7.17343E-13 1.04389E-13
 -1      2549 3.33330E+01 7.82419E+00-1.85004E-01 7.43962E-01 8.37330E-13 8.29337E-14
 -1      2550 1.92246E+01-4.89616E+00 1.45455E-02 7.87213E+00-9.22595E-14 2.91718E-13
 -1      2551 1.56816E+01-4.84125E+00 7.09186E-02 7.93001E+00-2.21934E-13 4.04517E-13
 -1      2552 2.22725E+01-4.95004E+00 7.63758E-02 6.61032E+00-2.72005E-13 8.77076E-14
 -1      2553 3.46785E+00-1.76715E+00 1.22202E-01-7.19860E-02 2.48246E-13 9.49019E-13
 -1      2554 4.44811E+00-2.53299E+00 9.97519E-02-2.43106E+00 2.66287E-13 8.26283E-13
 -1      2555 1.81886E+01 2.55044E+00 3.08931E-02-2.99767E+00-1.83014E-13-2.98248E-13
 -1      2556 1.69363E+01 2.87568E+00-2.97695E-02-3.34228E+00-2.22765E-13-3.24832E-13
 -1      2557 1.90900E+01 1.59614E+00-3.11943E-02-2.99193E+00-1.85428E-13-2.51446E-13
 -1      2558 1.99997E+01-2.27337E-04 1.33597E-06-3.32803E-04 1.05598E-13-1.91204E-13
 -1      2559 3.42434E+01 7.26219E+00-1.55420E-01-4.02027E-01 8.89622E-13-1.62870E-13
 -1      2560 3.37759E+01 5.96750E+00-1.16213E-01-4.33655E-01 8.01637E-13-1.81466E-13
 -1      2561 3.39099E+01 8.57960E+00-1.79108E-01 9.94296E-02 9.25482E-13-5.68087E-14
 -1      2562 3.43452E+01 8.24034E+00-1.38355E-01-1.66636E-01 9.23983E-13-1.00961E-13
 -1      2563 3.18160E+01 7.56712E+00-4.79570E-02-7.89449E-01 8.13960E-13-2.35048E-13
 -1      2564 3.29730E+01 3.30511E+00-6.88589E-02-1.88926E-01 5.39097E-13 6.49480E-14
 -1      2565 3.33224E+01 4.67936E+00-1.95317E-01 4.54155E-01 6.20698E-13 9.52571E-14
 -1      2566 3.00934E+01-3.16084E-01-3.17144E-02-3.00768E+00 3.03708E-13-8.52651E-14
 -1      2567 3.22509E+01 1.37098E+00-1.24919E-01-1.64059E+00 4.37567E-13-7.54952E-15
 -1      2568 3.13990E+01 1.74321E+00-2.77807E-02-7.06816E-02 3.62446E-13 1.76442E-13
 -1      2569 2.45038E+01-2.79824E+00-3.25415E-02-5.86531E+00 4.79616E-14-2.06862E-13
 -1      2570 2.75176E+01-1.88936E+00-6.09601E-02-4.95164E+00 1.65895E-13-1.53183E-13
 -1      2571 2.40244E+01-3.28182E+00 4.80833E-02-5.83477E+00-1.72307E-13-1.03334E-13
 -1      2572 3.46009E+00-1.14768E+00 9.67886E-02-3.94327E+00-1.78274E-13-7.97862E-13
 -1      2573 4.94039E+00-1.07086E+00 8.75652E-02-5.56178E+00-1.88516E-13-7.59615E-13
 -1      2574 4.92170E+00 6.82983E-01 1.55904E-01-3.15842E+00-1.60393E-13-7.82929E-13
 -1      2575 2.64000E+01-5.81696E+00-7.20369E-02 3.64613E+00 4.05787E-14 3.23352E-15
 -1      2576 2.12838E+01-5.44174E+00 4.76771E-02 4.84276E+00 1.45994E-13-1.92442E-13
 -1      2577 3.85391E+01 3.88241E+00 4.01827E-01-3.34333E+00-7.01827E-13 2.79110E-13
 -1      2578 2.36253E+01-6.07262E+00-1.21467E-03-4.36366E+00 7.96585E-14 1.02779E-13
 -1      2579 2.81599E+01-5.90293E+00-9.56993E-02-2.92474E+00 3.48055E-14 7.95475E-14
 -1      2580 6.03166E+00-3.19815E+00 9.10414E-02-3.77961E+00 3.45113E-13 7.21811E-13
 -1      2581 8.64011E+00-3.84814E+00 2.11660E-02-5.30982E+00 3.02536E-13 6.08680E-13
 -1      2582 7.11579E+00-1.35943E+00 1.78403E-01-3.06566E+00 3.94559E-13 7.66220E-13
 -1      2583 1.13975E+01-4.05119E+00 5.46108E-02 7.99377E+00-2.35256E-13 6.51451E-13
 -1      2584 8.40514E+00-3.65336E+00 9.08678E-02 6.96197E+00-2.69507E-13 8.68972E-13
 -1      2585 3.78092E+01 3.95268E-02-1.56745E-01-3.23525E+00-4.91385E-13 2.91045E-13
 -1      2586 3.56937E+01-1.70699E+00 1.10251E-01-2.54850E+00-3.30423E-13 2.83329E-13
 -1      2587 1.27323E+01 4.86109E+00 7.94914E-02-2.24685E+00-2.14682E-13-4.51136E-13
 -1      2588 1.31344E+01 5.17076E+00 7.88083E-03-1.66623E+00-2.06768E-13-4.21111E-13
 -1      2589 1.37007E+01 5.17178E+00-1.94517E-02-1.07438E+00-2.06376E-13-3.80855E-13
 -1      2590 2.81802E+01-3.43584E+00-1.73487E-02 3.60935E+00 1.39097E-13-9.94205E-14
 -1      2591 2.65416E+01-4.23873E+00 8.95458E-02 4.06106E+00-1.00440E-13-1.60913E-13
 -1      2592 2.88589E+01-2.86264E+00-1.53044E-01 1.79829E+00 1.04722E-13-2.66662E-13
 -1      2593 2.04250E+01 4.67899E-01 7.79679E-03 1.62344E+00 2.37213E-13 4.92018E-13
 -1      2594 2.06714E+01 6.84426E-01 8.72905E-03 1.86441E+00 2.62249E-13 4.01350E-13
 -1      2595 2.01618E+01 3.69636E-01 6.58598E-03 1.48399E+00 2.31972E-13 4.49588E-13
 -1      2596 3.26992E+01-4.85719E+00-2.23609E-01-4.79564E-02-7.68552E-14 2.23488E-13
 -1      2597 2.88253E+01-1.62762E+00 2.79785E-02-3.00411E+00 7.86871E-14 1.12133E-14
 -1      2598 1.65526E+01 4.32724E+00 1.29307E-02 2.69301E-01-1.55482E-13-2.52756E-13
 -1      2599 2.66698E+01-4.07987E+00 1.93916E-01 3.01816E+00 3.01689E-13 2.40518E-13
 -1      2600 2.83309E+01-5.10239E+00 4.46508E-02 2.08746E+00 1.84963E-13 2.66336E-13
 -1      2601 1.99997E+01-2.65203E-04-1.00737E-06-4.05322E-04 1.48862E-13-1.29762E-13
 -1      2602 3.19486E+01 4.25840E+00-5.35976E-02-9.84756E-01 6.57696E-13-2.93987E-13
 -1      2603 7.11962E+00 1.40651E-01 1.50685E-01 2.89035E+00-1.17281E-13 8.52873E-13
 -1      2604 5.03366E+00-8.24326E-01 1.85020E-01 1.58362E+00 1.11522E-13 1.02479E-12
 -1      2605 6.50055E+00 3.30534E-01 1.58359E-01 1.31166E-02 1.73737E-13 7.68968E-13
 -1      2606 8.80405E+00-2.03085E+00 1.49125E-01 6.14811E+00-3.27890E-13 7.82957E-13
 -1      2607 2.23638E+01-5.54204E+00 5.03577E-03-4.93493E+00 2.64844E-13 6.04204E-14
 -1      2608 2.98036E+01-5.37427E+00 1.22236E-02 1.37214E+00-4.05231E-15 1.93900E-13
 -1      2609 2.17223E+01-3.61140E+00-2.23605E-02 4.45269E+00 2.85771E-13-6.92502E-15
 -1      2610 1.99130E+01 2.94073E-01 1.00721E-02 1.34589E+00 2.08994E-13 3.68710E-13
 -1      2611 2.00966E+01 3.25896E-01 1.14678E-02 1.43301E+00 2.17250E-13 4.18273E-13
 -1      2612 2.04054E+01 4.22670E-01-4.94040E-03 1.62404E+00 2.27291E-13 3.16882E-13
 -1      2613 2.03002E+01 3.87355E-01-6.53732E-03 1.50883E+00 2.19683E-13 2.63820E-13
 -1      2614 2.00972E+01-4.22253E+00 5.80409E-02 4.94186E+00 2.56989E-13-1.73472E-13
 -1      2615 1.58569E+01-4.55091E+00-4.61381E-02 5.86751E+00 1.10578E-13-4.66266E-13
 -1      2616 1.24408E+01-3.54866E+00 1.32772E-01 5.21168E+00 1.28453E-13-5.81618E-13
 -1      2617 1.74204E+01-2.08975E+00 2.15927E-01 4.99661E+00 2.79748E-13-2.56323E-13
 -1      2618 3.31367E+01-3.84983E+00 1.35329E-02 4.37499E-01-3.76976E-13-1.71918E-13
 -1      2619 3.08344E+01-5.03360E+00 1.21708E-02-9.71772E-01 2.57017E-14-1.54432E-13
 -1      2620 1.28763E+01-3.46297E+00 1.34644E-01-5.55406E+00 4.13336E-13 5.04347E-13
 -1      2621 1.99997E+01-2.14247E-04 1.40771E-07 2.93198E-04-3.13892E-13 4.31803E-13
 -1      2622 4.89868E+00-3.36513E-01 1.53602E-01 9.76983E-01-2.32939E-14-7.78655E-13
 -1      2623 5.74324E+00 1.44626E+00 1.48606E-01-1.07408E-01-6.14023E-14-7.26808E-13
 -1      2624 7.15163E+00 2.15178E-01 8.40696E-02 2.40068E+00 7.32608E-14-7.00606E-13
 -1      2625 3.13425E+01 5.41455E+00-6.62279E-02 1.39637E+00 5.89612E-13 1.72098E-13
 -1      2626 1.62172E+01-2.92597E+00 1.00840E-01-8.07383E+00-2.44582E-13-4.60937E-13
 -1      2627 1.92811E+01-3.02409E+00 2.77422E-02-7.21353E+00-3.41754E-13-2.56042E-13
 -1      2628 1.41870E+01-2.20191E+00 1.12265E-01-8.05496E+00-3.20272E-13-4.99129E-13
 -1      2629 7.70255E+00 6.08059E-01 1.91442E-01-5.83619E+00-2.65565E-13-7.02410E-13
 -1      2630 7.37635E+00-1.00767E+00 1.28020E-01-6.58431E+00-2.50328E-13-7.22700E-13
 -1      2631 1.01322E+01-8.32216E-01 6.45533E-02-7.28886E+00-3.38007E-13-6.18866E-13
 -1      2632 3.11980E+01 7.92464E+00-9.10569E-02 6.95139E-01 8.10269E-13 2.05530E-14
 -1      2633 1.53110E+01-4.11366E+00 1.10134E-01 7.78035E+00-4.25021E-13 3.69565E-13
 -1      2634 2.93117E+01-4.89832E+00 2.67445E-02-1.41336E+00 1.65881E-13-2.75932E-13
 -1      2635 2.74899E+01-3.87952E+00 1.38204E-01-2.75087E+00 3.01537E-13-1.33791E-13
 -1      2636 1.64139E+01 2.61781E+00-1.58499E-02-3.88762E+00-2.51686E-13-3.33393E-13
 -1      2637 1.12464E+01-2.05127E+00 1.64554E-01 4.71892E+00 1.50546E-13-5.98466E-13
 -1      2638 1.99997E+01-2.50978E-04 5.99995E-09 3.68600E-04-5.60815E-13 5.87335E-13
 -1      2639 2.33991E+01-3.75881E+00 8.67182E-03-4.24244E+00 3.74686E-13-3.15442E-14
 -1      2640 2.26090E+01 7.88354E-01-2.59478E-02 2.01422E-01 2.04498E-14-6.77045E-14
 -1      2641 2.24574E+01 7.38986E-01 1.60204E-02-3.92441E-01-3.63876E-14-1.00102E-13
 -1      2642 2.20873E+01 5.19788E-01-1.13809E-02-1.21135E+00-8.46146E-14-1.35792E-13
 -1      2643 2.14642E+01 6.13642E-01 1.94371E-02-1.94753E+00-1.44181E-13-1.38285E-13
 -1      2644 2.28834E+01 8.87893E-02 3.93480E-04-7.08288E-01-5.30890E-14-6.18394E-14
 -1      2645 2.21501E+01 1.34623E+00-2.71302E-02 1.83758E+00 2.09678E-13-7.34048E-15
 -1      2646 2.23699E+01 1.30562E+00-1.19590E-03 1.54813E+00 1.67986E-13-2.67408E-14
 -1      2647 2.16646E+01 1.33033E+00-2.87746E-02 2.17669E+00 2.74132E-13 7.90470E-14
 -1      2648 2.19237E+01 1.39605E+00-3.63210E-03 2.01511E+00 2.37285E-13 3.71691E-14
 -1      2649 2.22426E+01 1.08814E+00 1.72331E-02 1.94694E+00 1.99513E-13 5.00509E-14
 -1      2650 2.09278E+01 7.98037E-01-5.47540E-04 2.01086E+00 2.71034E-13 3.23299E-13
 -1      2651 2.10572E+01 1.01452E+00-1.28742E-02 2.15977E+00 2.95057E-13 2.50982E-13
 -1      2652 2.07590E+01 6.43447E-01 8.07034E-03 1.84130E+00 2.50685E-13 2.86276E-13
 -1      2653 1.67826E+01-6.33415E-01 1.32246E-01 4.32615E+00 2.24709E-13-2.45318E-13
 -1      2654 1.44642E+01-1.13484E+00 6.68011E-02 4.76222E+00 2.22017E-13-3.51191E-13
 -1      2655 1.10225E+01-2.06727E-01 2.22875E-01 3.82537E+00 1.54807E-13-5.58192E-13
 -1      2656 1.66971E+01 1.04886E+00 1.28447E-01 3.48880E+00 1.48603E-13-2.27839E-13
 -1      2657 1.81029E+01-6.08851E-01 8.87813E-02-4.66538E+00 4.29518E-13 2.68625E-13
 -1      2658 1.77697E+01 4.62183E-01 4.11105E-02-4.28947E+00 3.43531E-13 3.03438E-13
 -1      2659 1.62353E+01 3.32437E+00 2.91536E-02 1.49303E+00-5.51876E-14-2.47479E-13
 -1      2660 1.64738E+01 2.36584E+00 7.26710E-02 2.39938E+00 2.36131E-14-2.36523E-13
 -1      2661 1.99997E+01-3.36177E-04-6.71510E-07-4.78506E-04 2.06683E-13 5.65289E-14
 -1      2662 1.99996E+01-2.71551E-04-2.55812E-07-4.74583E-04 9.91554E-14-4.30917E-14
 -1      2663 1.99996E+01-2.77836E-04-3.12951E-06-5.44902E-04-1.89005E-15 4.86008E-14
 -1      2664 1.99999E+01-5.58116E-04 3.29827E-06-4.39372E-04-2.06783E-14 2.43339E-13
 -1      2665 1.99999E+01-5.04375E-04-2.33065E-06-4.65230E-04-9.44782E-15-1.12195E-13
 -1      2666 1.84259E+01 1.03633E+00 4.88125E-02-3.72888E+00 1.71285E-13 2.27167E-13
 -1      2667 1.84159E+01 1.35207E+00-4.55316E-03-3.34726E+00 1.05103E-13 1.91021E-13
 -1      2668 1.61686E+01 1.05932E+00 6.34469E-02-3.81236E+00 1.74315E-13 3.54362E-13
 -1      2669 1.90196E+01 1.46687E+00 1.99153E-02-2.93093E+00 1.18693E-13 1.57834E-13
 -1      2670 1.90893E+01 1.45625E+00-1.57374E-02-2.57990E+00 5.00637E-14 1.74290E-13
 -1      2671 1.74355E+01 1.71018E+00 3.79568E-02-2.89633E+00 1.04055E-13 1.64146E-13
 -1      2672 1.95423E+01 1.37669E+00 1.08983E-02-2.26286E+00-7.02407E-14 9.22708E-14
 -1      2673 1.95879E+01 1.25055E+00-1.44269E-02-1.96133E+00-1.18270E-13 7.40202E-14
 -1      2674 1.84411E+01 1.68200E+00 2.55070E-02-2.23252E+00-4.94576E-14 3.44958E-14
 -1      2675 1.98929E+01 1.11578E+00 8.46902E-03-1.71428E+00-1.25893E-13 4.80443E-14
 -1      2676 1.98981E+01 9.71125E-01-1.09487E-02-1.46960E+00-8.07837E-14-1.08568E-14
 -1      2677 1.91375E+01 1.40131E+00 1.74092E-02-1.71810E+00-1.19036E-13-1.88892E-14
 -1      2678 2.00881E+01 8.41844E-01 7.29311E-03-1.27727E+00 4.32029E-14-1.57077E-14
 -1      2679 2.00649E+01 7.15832E-01-7.78081E-03-1.08706E+00 6.10171E-14 2.19659E-15
 -1      2680 1.95784E+01 1.07784E+00 1.15704E-02-1.30944E+00-3.10557E-14 7.34894E-15
 -1      2681 2.01757E+01 6.11227E-01 6.15551E-03-9.39216E-01 5.45026E-14 5.45983E-15
 -1      2682 2.01387E+01 5.12887E-01-5.38208E-03-7.95885E-01 1.91651E-13 3.43321E-14
 -1      2683 1.98369E+01 7.93618E-01 7.31776E-03-9.85867E-01 9.47610E-14 6.08591E-14
 -1      2684 2.01989E+01 4.34622E-01 4.97340E-03-6.84002E-01 1.02653E-13 2.83332E-14
 -1      2685 2.01586E+01 3.62054E-01-3.63967E-03-5.78247E-01 2.42700E-14 4.58332E-15
 -1      2686 1.99767E+01 5.70129E-01 4.38863E-03-7.33980E-01 8.87659E-14 4.69438E-14
 -1      2687 2.01880E+01 3.05754E-01 3.85340E-03-4.94665E-01 8.79834E-14-3.25532E-14
 -1      2688 2.01501E+01 2.53673E-01-2.54135E-03-4.17619E-01-2.16662E-15 3.11832E-14
 -1      2689 2.00443E+01 4.04253E-01 2.52457E-03-5.41420E-01 5.65036E-14 4.19444E-14
 -1      2690 2.01619E+01 2.12182E-01 2.89283E-03-3.52828E-01-1.53780E-14 7.19604E-14
 -1      2691 2.01282E+01 1.74400E-01-1.67359E-03-2.95138E-01 2.57521E-14 1.23954E-13
 -1      2692 2.00708E+01 2.82713E-01 1.47963E-03-3.93447E-01 3.03299E-14 6.89224E-14
 -1      2693 2.01308E+01 1.47523E-01 2.18506E-03-2.50511E-01 1.87868E-14 8.15679E-14
 -1      2694 2.01043E+01 1.22292E-01-1.04240E-03-2.11042E-01 1.08548E-13 9.05765E-14
 -1      2695 2.00742E+01 1.96767E-01 6.10780E-04-2.83559E-01 1.97344E-14-4.03751E-14
 -1      2696 2.01021E+01 1.03542E-01 1.61134E-03-1.78291E-01 2.31884E-13 1.17464E-13
 -1      2697 2.00812E+01 8.58857E-02-6.80601E-04-1.49930E-01 1.08196E-13 1.82025E-13
 -1      2698 2.00672E+01 1.38485E-01 2.30854E-04-2.04697E-01 1.60400E-13-9.59318E-14
 -1      2699 2.00772E+01 7.28360E-02 1.18401E-03-1.26020E-01-9.58299E-14 1.44988E-13
 -1      2700 2.00611E+01 6.04393E-02-4.43988E-04-1.05644E-01-8.25098E-14 6.29142E-14
 -1      2701 2.00562E+01 9.76396E-02 3.40468E-05-1.46605E-01-4.20292E-14 2.22660E-14
 -1      2702 2.00568E+01 5.13151E-02 8.66816E-04-8.82371E-02 1.77734E-14 1.13202E-14
 -1      2703 2.00446E+01 4.25655E-02-2.89602E-04-7.36154E-02-5.36847E-14-4.84829E-14
 -1      2704 2.00446E+01 6.89377E-02-6.03633E-05-1.03989E-01-9.08383E-14-1.06369E-13
 -1      2705 2.00405E+01 3.61464E-02 6.32295E-04-6.09865E-02-1.98392E-13-9.13615E-14
 -1      2706 2.00315E+01 2.99343E-02-1.89234E-04-5.05206E-02-7.84795E-14-1.68676E-13
 -1      2707 2.00340E+01 4.86754E-02-9.79716E-05-7.28491E-02-1.87714E-13-2.75300E-13
 -1      2708 2.00281E+01 2.53906E-02 4.59329E-04-4.14048E-02 3.68372E-14-2.66927E-13
 -1      2709 2.00215E+01 2.09567E-02-1.23884E-04-3.39483E-02-6.80145E-14-2.92500E-13
 -1      2710 2.00251E+01 3.42925E-02-1.05498E-04-5.02034E-02-1.13985E-13-3.69509E-13
 -1      2711 2.00188E+01 1.77247E-02 3.31953E-04-2.74165E-02-2.10427E-13-4.38899E-13
 -1      2712 2.00141E+01 1.45480E-02-8.11441E-05-2.21439E-02-2.07807E-13-4.92254E-13
 -1      2713 2.00178E+01 2.40315E-02-9.82823E-05-3.38419E-02-2.34378E-13-5.51724E-13
 -1      2714 2.00119E+01 1.22428E-02 2.38223E-04-1.75118E-02-6.45326E-14-4.09796E-13
 -1      2715 2.00087E+01 9.96407E-03-5.30295E-05-1.38251E-02-2.64163E-15-2.66477E-13
 -1      2716 2.00122E+01 1.66853E-02-8.48885E-05-2.21249E-02-5.06678E-14-4.56493E-13
 -1      2717 2.00071E+01 8.32014E-03 1.69322E-04-1.05863E-02-1.24668E-13-1.81007E-13
 -1      2718 2.00049E+01 6.68851E-03-3.44165E-05-8.04936E-03-1.80198E-13-2.64098E-13
 -1      2719 2.00080E+01 1.14196E-02-6.99156E-05-1.38335E-02-5.98343E-14-2.60963E-13
 -1      2720 2.00037E+01 5.52064E-03 1.18783E-04-5.82800E-03-2.34450E-13-3.13304E-13
 -1      2721 2.00023E+01 4.35876E-03-2.20203E-05-4.12108E-03-3.05015E-13-1.88515E-13
 -1      2722 2.00050E+01 7.65220E-03-5.56709E-05-8.05932E-03-1.75758E-13-2.87214E-13
 -1      2723 2.00014E+01 3.53574E-03 8.18623E-05-2.63726E-03-2.30280E-13-1.08420E-13
 -1      2724 2.00005E+01 2.71645E-03-1.37302E-05-1.52494E-03 4.17043E-14-2.91725E-14
 -1      2725 2.00028E+01 4.97145E-03-4.31701E-05-4.12363E-03-2.09303E-13-1.54997E-13
 -1      2726 2.00000E+01 2.14402E-03 5.50647E-05-5.70151E-04 3.07490E-13 7.83539E-14
 -1      2727 1.99995E+01 1.57491E-03-8.18158E-06 1.21138E-04 3.25530E-13 8.73914E-15
 -1      2728 2.00013E+01 3.08244E-03-3.27269E-05-1.51900E-03 2.12232E-13-1.05407E-13
 -1      2729 1.99991E+01 1.18446E-03 3.57982E-05 7.01906E-04 3.89752E-13 5.37717E-14
 -1      2730 1.99988E+01 7.97615E-04-4.48431E-06 1.09992E-03 5.66834E-13 3.02759E-14
 -1      2731 2.00003E+01 1.77103E-03-2.42948E-05 1.33631E-04 3.24199E-13 3.04268E-14
 -1      2732 1.99986E+01 5.38711E-04 2.21267E-05 1.42139E-03 6.29857E-13-3.84151E-14
 -1      2733 1.99985E+01 2.83786E-04-2.04991E-06 1.61971E-03 5.26067E-13-1.25748E-14
 -1      2734 1.99997E+01 8.80018E-04-1.76607E-05 1.11635E-03 5.30136E-13 4.31834E-14
 -1      2735 1.99984E+01 1.19116E-04 1.25959E-05 1.76611E-03 4.00968E-13 3.14456E-13
 -1      2736 1.99985E+01-4.13743E-05-4.83677E-07 1.83272E-03 4.78296E-13 3.01600E-13
 -1      2737 1.99993E+01 2.93040E-04-1.25519E-05 1.63779E-03 6.52225E-13 8.98961E-14
 -1      2738 1.99984E+01-1.39505E-04 6.10895E-06 1.86517E-03 2.91436E-13 3.82536E-13
 -1      2739 1.99985E+01-2.33493E-04 4.82932E-07 1.84881E-03 1.32253E-13 2.57074E-13
 -1      2740 1.99991E+01-7.64402E-05-8.69220E-06 1.85076E-03 4.01758E-13 9.50126E-14
 -1      2741 1.99985E+01-2.85617E-04 1.83829E-06 1.81102E-03-9.03239E-14 1.48284E-13
 -1      2742 1.99986E+01-3.33875E-04 1.03443E-06 1.74602E-03-1.49141E-13 2.69762E-14
 -1      2743 1.99991E+01-2.92844E-04-5.82871E-06 1.86579E-03-2.87720E-14 1.19580E-13
 -1      2744 1.99986E+01-3.55164E-04-8.38755E-07 1.66855E-03-5.40441E-14-7.88079E-14
 -1      2745 1.99987E+01-3.73072E-04 1.29750E-06 1.57848E-03-1.52566E-13 2.71925E-14
 -1      2746 1.99991E+01-4.04031E-04-3.74371E-06 1.76136E-03-1.99387E-13-6.80112E-14
 -1      2747 1.99988E+01-3.74680E-04-2.38779E-06 1.48208E-03-7.41054E-14 1.19200E-13
 -1      2748 1.99989E+01-3.73566E-04 1.35856E-06 1.38254E-03-8.53396E-16 4.03033E-13
 -1      2749 1.99991E+01-4.45407E-04-2.25722E-06 1.59193E-03-8.32007E-14 2.09182E-13
 -1      2750 1.99989E+01-3.63650E-04-3.15338E-06 1.28068E-03 1.74544E-13 6.14201E-13
 -1      2751 1.99991E+01-3.51819E-04 1.27807E-06 1.18135E-03 2.08721E-13 6.77132E-13
 -1      2752 1.99992E+01-4.43029E-04-1.22378E-06 1.39399E-03 2.45272E-13 6.32063E-13
 -1      2753 1.99991E+01-3.36334E-04-3.38589E-06 1.08215E-03 9.64529E-15 6.73788E-13
 -1      2754 1.99992E+01-3.19867E-04 1.09913E-06 9.88424E-04 1.08682E-13 6.18057E-13
 -1      2755 1.99993E+01-4.15979E-04-5.27769E-07 1.19073E-03 1.12407E-13 8.38788E-13
 -1      2756 1.99993E+01-3.03218E-04-3.27661E-06 8.96174E-04-4.19910E-14 6.56666E-13
 -1      2757 1.99994E+01-2.86699E-04 8.30414E-07 8.10332E-04-1.41703E-13 5.17545E-13
 -1      2758 1.99994E+01-3.78177E-04-8.18269E-08 9.95674E-04 6.05964E-14 5.03163E-13
 -1      2759 1.99994E+01-2.72284E-04-2.98473E-06 7.26354E-04 6.45786E-14 5.74355E-13
 -1      2760 1.99995E+01-2.58830E-04 4.61987E-07 6.48421E-04-5.06820E-14 5.47004E-13
 -1      2761 1.99995E+01-3.39988E-04 1.83687E-07 8.15320E-04-2.84703E-14 4.66524E-13
 -1      2762 1.99995E+01-2.48736E-04-2.77092E-06 5.71815E-04-1.56518E-13 8.10437E-13
 -1      2763 1.99996E+01-2.40686E-04-3.30751E-07 5.01085E-04-1.98942E-13 6.79999E-13
 -1      2764 1.99996E+01-3.08414E-04 5.76964E-07 6.50875E-04-6.93425E-15 5.23914E-13
 -1      2765 1.99996E+01-2.56955E-04-1.00048E-06 4.23626E-04-4.83667E-13 6.89729E-13
 -1      2766 2.01576E+01 8.67461E-01 1.02628E-02 9.37542E-01 1.81162E-13 1.94696E-13
 -1      2767 2.03148E+01 7.47442E-01-1.37384E-03 1.16910E+00 1.82659E-13 2.01872E-13
 -1      2768 1.99075E+01 1.04194E+00 8.56073E-03 3.55243E-01 1.59407E-13 1.53979E-13
 -1      2769 1.99994E+01 9.69663E-01 7.58062E-04 6.42652E-01 1.66758E-13 1.78436E-13
 -1      2770 2.05949E+01 1.14358E+00-5.20216E-03 9.16003E-01 1.90212E-13 1.32905E-13
 -1      2771 2.05000E+01 6.39859E-01 7.17075E-03 1.37243E+00 1.68336E-13 1.83998E-13
 -1      2772 2.07034E+01 5.58964E-01 2.05565E-03 1.54533E+00 1.75422E-13 1.88233E-13
 -1      2773 2.09242E+01 8.72331E-01-4.22111E-04 1.43249E+00 1.74468E-13 1.44056E-13
 -1      2774 1.99020E+01 8.01415E-01-3.69641E-03-8.62541E-01 1.52586E-13 5.52906E-14
 -1      2775 1.98503E+01 9.43552E-01 1.04634E-02-6.18547E-01 1.78817E-13 9.63855E-14
 -1      2776 2.01045E+01 4.27790E-01-7.55839E-03-1.23018E+00 9.51593E-14 1.47717E-14
 -1      2777 2.00087E+01 6.30065E-01 1.13489E-02-1.08729E+00 1.23088E-13 3.46998E-14
 -1      2778 2.04497E+01 8.84119E-01-3.38223E-03-1.05656E+00 1.47941E-13 3.61358E-14
 -1      2779 2.03356E+01 3.40507E-02-7.57525E-03-1.34605E+00 7.53802E-14 4.13813E-14
 -1      2780 2.02263E+01 2.30559E-01 8.32490E-03-1.31616E+00 7.81956E-14 2.40980E-15
 -1      2781 2.06530E+01 4.08667E-01 2.16507E-03-1.37403E+00 1.16570E-13-5.06629E-14
 -1      2782 2.05166E+01-2.73250E-01-4.96426E-03-1.24482E+00 3.34711E-14 2.17750E-14
 -1      2783 2.04199E+01-1.31493E-01 3.21731E-03-1.30631E+00 8.04761E-14 3.05951E-14
 -1      2784 2.08316E+01-5.70451E-02 5.23882E-03-1.40979E+00 6.00598E-14-2.33723E-14
 -1      2785 2.06105E+01-4.46426E-01-1.59155E-03-1.00952E+00 9.73505E-16 7.29860E-14
 -1      2786 2.05408E+01-3.75758E-01-1.46904E-03-1.12445E+00-1.51660E-14 6.31186E-14
 -1      2787 2.09178E+01-3.97885E-01 5.08826E-03-1.23212E+00-1.43519E-14-1.42551E-14
 -1      2788 2.06208E+01-4.93520E-01 1.08239E-03-7.25590E-01 3.15483E-14 7.47048E-14
 -1      2789 2.05811E+01-4.84462E-01-4.39239E-03-8.57693E-01 4.67599E-14 9.83062E-14
 -1      2790 2.09005E+01-5.72253E-01 3.17274E-03-9.44339E-01 3.80154E-15-1.06457E-14
 -1      2791 2.05719E+01-4.51360E-01 2.65875E-03-4.55989E-01 3.68640E-14 3.54091E-14
 -1      2792 2.05575E+01-4.82679E-01-5.44408E-03-5.79168E-01 7.47718E-14 4.72270E-14
 -1      2793 2.08061E+01-6.00523E-01 9.87652E-04-6.35886E-01 8.48412E-14-4.02618E-14
 -1      2794 2.04920E+01-3.62724E-01 3.16102E-03-2.34776E-01 1.37998E-13-3.23105E-14
 -1      2795 2.04955E+01-4.12773E-01-5.15578E-03-3.35203E-01 5.83685E-14 9.55125E-15
 -1      2796 2.06725E+01-5.31693E-01-6.01796E-04-3.64044E-01 6.90179E-14-5.08451E-14
 -1      2797 2.04035E+01-2.61507E-01 2.96706E-03-7.26551E-02-2.05674E-14 7.50983E-14
 -1      2798 2.04178E+01-3.14324E-01-4.20628E-03-1.46128E-01 7.91531E-14 4.74849E-14
 -1      2799 2.05320E+01-4.16607E-01-1.42105E-03-1.53789E-01 3.84485E-14-7.40407E-14
 -1      2800 2.03200E+01-1.68758E-01 2.42822E-03 3.39677E-02-1.43173E-13 8.97169E-14
 -1      2801 2.03395E+01-2.15109E-01-3.07423E-03-1.43313E-02-8.97400E-14 1.07707E-13
 -1      2802 2.04045E+01-2.93370E-01-1.65240E-03-8.02957E-03-5.54188E-14 1.01283E-13
 -1      2803 2.02478E+01-9.43039E-02 1.80412E-03 9.53448E-02-8.98743E-14 5.76649E-14
 -1      2804 2.02689E+01-1.30371E-01-2.02816E-03 6.75853E-02-8.59859E-14 3.80552E-14
 -1      2805 2.02990E+01-1.84246E-01-1.53325E-03 8.19056E-02-8.61686E-14 9.02746E-14
 -1      2806 2.01888E+01-4.03268E-02 1.23556E-03 1.23399E-01-1.42235E-13-6.46094E-14
 -1      2807 2.02092E+01-6.57674E-02-1.18265E-03 1.10800E-01-1.58683E-13 4.39506E-14
 -1      2808 2.02169E+01-9.87205E-02-1.26441E-03 1.28870E-01-8.85365E-14 5.06465E-14
 -1      2809 2.01420E+01-4.78129E-03 7.81063E-04 1.29041E-01-1.27137E-13-1.76599E-14
 -1      2810 2.01607E+01-2.10475E-02-5.60799E-04 1.26651E-01-1.14747E-13-5.12069E-14
 -1      2811 2.01555E+01-3.79629E-02-9.71999E-04 1.45666E-01-1.71617E-13-9.82073E-15
 -1      2812 2.01058E+01 1.61310E-02 4.49979E-04 1.21062E-01 5.30969E-14 8.83839E-14
 -1      2813 2.01221E+01 6.94031E-03-1.39863E-04 1.24870E-01-3.28284E-14 5.68872E-14
 -1      2814 2.01109E+01 1.21373E-03-7.15299E-04 1.43123E-01-1.08665E-13 5.40452E-15
 -1      2815 2.00781E+01 2.64640E-02 2.26785E-04 1.05938E-01 3.20394E-14 2.49000E-13
 -1      2816 2.00919E+01 2.22647E-02 1.19740E-04 1.12981E-01 6.41395E-14 2.06343E-13
 -1      2817 2.00790E+01 2.36215E-02-5.13826E-04 1.29527E-01-4.49642E-14 1.38712E-13
 -1      2818 2.00570E+01 2.97666E-02 8.71544E-05 8.80765E-02 2.02044E-13 1.83357E-13
 -1      2819 2.00684E+01 2.88030E-02 2.60161E-04 9.63332E-02 1.97412E-13 2.21892E-13
 -1      2820 2.00563E+01 3.41112E-02-3.66979E-04 1.10735E-01 1.17774E-13 2.18062E-13
 -1      2821 2.00411E+01 2.88076E-02 7.16898E-06 7.02439E-02 1.28704E-13 9.75757E-14
 -1      2822 2.00503E+01 2.97450E-02 3.18749E-04 7.84475E-02 1.52292E-13 1.08211E-13
 -1      2823 2.00402E+01 3.68111E-02-2.64260E-04 9.05906E-02 2.40820E-13 1.43762E-13
 -1      2824 2.00291E+01 2.55771E-02-3.30644E-05 5.40021E-02 1.42653E-13 1.06111E-13
 -1      2825 2.00364E+01 2.74762E-02 3.24995E-04 6.14413E-02 1.61326E-13 1.34461E-13
 -1      2826 2.00287E+01 3.48846E-02-1.93592E-04 7.14065E-02 1.26817E-13 7.80537E-14
 -1      2827 2.00202E+01 2.14048E-02-4.86191E-05 4.00843E-02 2.44093E-13 9.01893E-14
 -1      2828 2.00259E+01 2.36512E-02 3.00726E-04 4.64306E-02 1.99034E-13 1.19645E-13
 -1      2829 2.00204E+01 3.05731E-02-1.45078E-04 5.44121E-02 1.89379E-13 8.11605E-14
 -1      2830 2.00136E+01 1.71126E-02-5.00932E-05 2.86915E-02-3.99379E-14 5.91624E-14
 -1      2831 2.00179E+01 1.93362E-02 2.61254E-04 3.38613E-02 7.68368E-14 6.17180E-14
 -1      2832 2.00144E+01 2.53552E-02-1.11245E-04 4.01087E-02 1.66748E-13 1.11505E-13
 -1      2833 2.00088E+01 1.31591E-02-4.44703E-05 1.97103E-02-2.23457E-13 1.83701E-13
 -1      2834 2.00120E+01 1.51611E-02 2.16634E-04 2.37634E-02-1.11559E-13 1.69968E-13
 -1      2835 2.00101E+01 2.01309E-02-8.68925E-05 2.85436E-02-9.94068E-14 1.98315E-13
 -1      2836 2.00053E+01 9.75997E-03-3.60496E-05 1.28643E-02-8.45909E-14 1.47712E-13
 -1      2837 2.00076E+01 1.14542E-02 1.72971E-04 1.59343E-02-1.67271E-13 1.49953E-13
 -1      2838 2.00069E+01 1.53909E-02-6.86531E-05 1.95068E-02-1.46628E-13 1.10505E-13
 -1      2839 2.00029E+01 6.97866E-03-2.72751E-05 7.81228E-03 2.16856E-14 1.48217E-13
 -1      2840 2.00045E+01 8.34795E-03 1.33597E-04 1.00607E-02-3.27099E-14 1.12458E-13
 -1      2841 2.00045E+01 1.13551E-02-5.44610E-05 1.26634E-02-1.09735E-13 5.48105E-14
 -1      2842 2.00012E+01 4.79127E-03-1.93850E-05 4.20792E-03-1.53201E-15 2.20545E-13
 -1      2843 2.00023E+01 5.85681E-03 9.99919E-05 5.79709E-03 5.76761E-14 2.37737E-13
 -1      2844 2.00028E+01 8.07622E-03-4.30922E-05 7.63910E-03-1.19746E-14 5.08488E-14
 -1      2845 2.00001E+01 3.12950E-03-1.28809E-05 1.73277E-03 1.28181E-13-3.49743E-14
 -1      2846 2.00008E+01 3.93101E-03 7.24814E-05 2.81084E-03 4.21312E-14 1.75910E-14
 -1      2847 2.00016E+01 5.51177E-03-3.38292E-05 4.06955E-03 1.67489E-13-3.23850E-14
 -1      2848 1.99994E+01 1.90788E-03-7.84583E-06 1.11686E-04 1.47939E-13 1.26336E-13
 -1      2849 1.99998E+01 2.49119E-03 5.07207E-05 8.05837E-04 1.25020E-13 9.33199E-14
 -1      2850 2.00008E+01 3.57283E-03-2.62394E-05 1.62764E-03 6.71654E-14-3.27242E-14
 -1      2851 1.99990E+01 1.03987E-03-4.14970E-06-8.82633E-04-1.93415E-13 2.56002E-13
 -1      2852 1.99992E+01 1.44973E-03 3.40263E-05-4.68002E-04 5.53654E-14 2.00889E-13
 -1      2853 2.00002E+01 2.15387E-03-2.00403E-05 3.46363E-05 6.66935E-15 2.34446E-13
 -1      2854 1.99988E+01 4.46323E-04-1.57356E-06-1.43142E-03 3.67601E-14 1.22696E-13
 -1      2855 1.99989E+01 7.22827E-04 2.15871E-05-1.21359E-03-2.03437E-13 1.70567E-13
 -1      2856 1.99998E+01 1.15036E-03-1.50238E-05-9.37612E-04-5.62272E-14 9.93137E-14
 -1      2857 1.99988E+01 5.93155E-05 1.19356E-07-1.67483E-03 1.16648E-13 1.57120E-14
 -1      2858 1.99987E+01 2.36369E-04 1.25919E-05-1.59024E-03 2.01244E-13 1.12257E-13
 -1      2859 1.99996E+01 4.67863E-04-1.10178E-05-1.46991E-03 1.02889E-13 1.40262E-13
 -1      2860 1.99988E+01-1.76939E-04 1.14691E-06-1.71815E-03 1.25050E-13 5.22648E-14
 -1      2861 1.99987E+01-7.17848E-05 6.29904E-06-1.71941E-03 1.57721E-13 7.43166E-14
 -1      2862 1.99994E+01 2.59551E-05-7.86900E-06-1.70146E-03 7.20380E-14 3.82057E-14
 -1      2863 1.99989E+01-3.06743E-04 1.69209E-06-1.63829E-03-9.82243E-14 2.18969E-13
 -1      2864 1.99988E+01-2.51798E-04 2.06886E-06-1.69108E-03 1.17124E-13 4.20121E-14
 -1      2865 1.99994E+01-2.41075E-04-5.43769E-06-1.73654E-03 8.54647E-14 1.84608E-13
 -1      2866 1.99990E+01-3.64355E-04 1.89848E-06-1.48959E-03-7.90691E-14 1.32915E-13
 -1      2867 1.99989E+01-3.42971E-04-6.27373E-07-1.56992E-03-2.13564E-13 2.52792E-13
 -1      2868 1.99994E+01-3.85218E-04-3.59705E-06-1.65108E-03-1.21403E-13 3.20926E-13
 -1      2869 1.99991E+01-3.75712E-04 1.87193E-06-1.30900E-03 5.64669E-14 1.14794E-13
 -1      2870 1.99990E+01-3.75359E-04-2.21327E-06-1.40081E-03 6.91705E-14 7.87957E-14
 -1      2871 1.99994E+01-4.46571E-04-2.23591E-06-1.49861E-03-4.84620E-15 1.37469E-13
 -1      2872 1.99992E+01-3.60148E-04 1.68716E-06-1.12025E-03 1.71302E-13-1.62612E-13
 -1      2873 1.99991E+01-3.71528E-04-3.01755E-06-1.21348E-03 1.52305E-13 2.53724E-14
 -1      2874 1.99994E+01-4.55434E-04-1.26248E-06-1.31543E-03 2.39111E-13 4.68588E-14
 -1      2875 1.99994E+01-3.31940E-04 1.35621E-06-9.37156E-04 1.92799E-13-3.50701E-13
 -1      2876 1.99993E+01-3.48323E-04-3.31592E-06-1.02626E-03 1.02183E-13-1.80041E-13
 -1      2877 1.99995E+01-4.34400E-04-6.12450E-07-1.12479E-03 1.00862E-13-2.17574E-13
 -1      2878 1.99995E+01-3.01734E-04 1.13083E-06-7.66138E-04-2.17463E-15-9.61522E-14
 -1      2879 1.99994E+01-3.18371E-04-3.36007E-06-8.49041E-04 1.05127E-13-1.82826E-13
 -1      2880 1.99995E+01-3.99076E-04 3.80307E-07-9.41255E-04 9.22304E-14-1.18936E-13
 -1      2881 1.99996E+01-2.81262E-04 9.67004E-07-6.13654E-04 2.12064E-14-2.96717E-14
 -1      2882 1.99995E+01-2.95329E-04-3.45698E-06-6.90359E-04 6.30690E-14-1.26526E-13
 -1      2883 1.99996E+01-3.66795E-04 2.15599E-06-7.74892E-04-3.16243E-14-1.47444E-13
 -1      2884 1.99997E+01-3.46980E-04 2.41196E-06-6.23677E-04-3.70372E-14-7.93910E-14
 -1      2885 2.00001E+01-7.30177E-04 2.47685E-06-2.06941E-04-1.01389E-13-1.61651E-13
 -1      2886 2.00000E+01-7.02826E-04-4.76452E-08-2.74823E-04-8.42529E-14-1.20167E-13
 -1      2887 1.99998E+01-4.00848E-04 1.88322E-06-4.83583E-04 5.38209E-14-1.54538E-13
 -1      2888 2.00000E+01-6.59158E-04 2.73147E-06-3.43557E-04-1.37591E-13 7.02348E-14
 -1      2889 2.00000E+01-6.17036E-04-1.07806E-06-3.91995E-04-9.57244E-14 3.66767E-13
 -1      2890 2.00000E+01-6.00303E-04 4.85306E-07-4.61788E-04 1.91172E-14 3.00819E-13
 -1      2891 2.00001E+01-6.96305E-04-2.28285E-06-3.44350E-04-1.49260E-13 1.19885E-15
 -1      2892 1.98182E+01 1.03039E+00 2.88205E-03-2.92410E-01 1.88887E-13 1.12314E-13
 -1      2893 1.98346E+01 1.06448E+00 6.05897E-03 5.00735E-03 1.82995E-13 1.24468E-13
 -1      2894 2.03711E+01 1.30277E+00-8.80860E-03 2.36369E-01 1.99594E-13 9.71873E-14
 -1      2895 2.03271E+01 1.21868E+00-7.84381E-03-4.78589E-01 1.88344E-13 4.02661E-14
 -1      2896 2.00001E+01-7.53011E-04 1.00908E-06 1.23375E-04-3.14816E-13 2.34214E-13
 -1      2897 2.00001E+01-7.62533E-04 1.76463E-06 4.59795E-05-2.60509E-13 1.33635E-13
 -1      2898 2.00000E+01-7.04494E-04 5.37906E-08 2.73935E-04-9.93197E-14-3.43093E-13
 -1      2899 2.00001E+01-7.31388E-04 2.40690E-06 2.07145E-04-2.18175E-13 9.89398E-14
 -1      2900 2.00001E+01-7.59438E-04-2.35528E-06 1.82576E-04-2.27837E-13 1.81953E-13
 -1      2901 2.00000E+01-6.19057E-04-8.61987E-07 3.93480E-04-8.20719E-14-3.49088E-13
 -1      2902 2.00000E+01-6.61933E-04 2.83830E-06 3.43714E-04-3.10202E-14-6.11342E-13
 -1      2903 2.00001E+01-6.99530E-04-2.07986E-06 3.43367E-04-1.90725E-13-3.98846E-13
 -1      2904 1.99999E+01-5.04692E-04-1.66927E-06 4.63717E-04-4.21346E-13-1.25190E-13
 -1      2905 1.99999E+01-5.59597E-04 2.97778E-06 4.39090E-04-1.89111E-13-1.39251E-13
 -1      2906 2.00000E+01-6.04028E-04-1.50997E-06 4.64334E-04-1.61812E-13-3.39547E-13
 -1      2907 1.99997E+01-3.71263E-04-1.61302E-06 4.71253E-04-4.89131E-13 4.67334E-13
 -1      2908 1.99998E+01-4.33522E-04 2.59381E-06 4.77618E-04-3.01239E-13 7.03741E-14
 -1      2909 1.99998E+01-4.81414E-04-1.52809E-06 5.28351E-04-2.77340E-13-7.32962E-14
 -1      2910 1.19982E+01-1.78960E+00 1.59415E-01-5.12242E+00 4.79533E-13 4.67709E-13
 -1      2911 1.63478E+01-3.11157E+00 1.31038E-01-5.75489E+00 4.65517E-13 3.49998E-13
 -1      2912 2.05241E+01 6.56901E-01 2.18149E-02-2.93508E+00-1.95784E-13-2.01344E-13
 -1      2913 1.92243E+01 9.57061E-01-1.09307E-02-3.62640E+00-2.41579E-13-2.37325E-13
 -1      2914 2.16459E+01-1.40599E-01-1.05694E-02-2.56223E+00-1.73517E-13-1.17712E-13
 -1      2915 3.01703E+01 5.37013E-01-1.90300E-01-5.95126E-01 4.15515E-13-4.61381E-13
 -1      2916 2.99523E+01-8.40041E-01-2.95727E-02 1.11155E-01 3.21236E-13-3.98098E-13
 -1      2917 2.00001E+01-7.62258E-04 1.80433E-06-4.44158E-05-1.34716E-13-1.90837E-15
 -1      2918 2.00001E+01-7.52708E-04 9.85399E-07-1.21816E-04 7.93531E-14-3.34964E-13
 -1      2919 2.00002E+01-7.79448E-04-2.40828E-06 6.54394E-07-3.76243E-14-8.11742E-14
 -1      2920 1.99997E+01-3.11812E-04 1.06407E-06 4.90256E-04-4.14922E-13 6.04789E-13
 -1      2921 1.12191E+01-1.96426E+00 1.00718E-01 6.78026E+00-4.81046E-13 5.64854E-13
 -1      2922 9.03932E+00-7.57449E-01 1.61006E-01 5.23174E+00-3.29750E-13 6.87089E-13
 -1      2923 1.76442E+01 1.63856E+00 8.27965E-02-4.32623E+00-2.71656E-13-2.83317E-13
 -1      2924 1.57967E+01 2.15668E+00-3.96155E-02-4.57100E+00-2.97525E-13-3.40943E-13
 -1      2925 1.87597E+01 4.08714E-01-1.47470E-02-4.45878E+00-2.82319E-13-2.35079E-13
 -1      2926 2.71570E+01-2.40553E+00-1.32091E-02-2.97826E+00-8.48870E-14 6.05349E-14
 -1      2927 2.89560E+01-1.22800E+00-1.26860E-01-1.38039E+00 7.83835E-14 1.50713E-13
 -1      2928 1.78624E+01-4.23477E+00 6.17484E-03 7.46629E+00-4.37067E-13 1.39416E-13
 -1      2929 1.42323E+01-3.10006E+00 1.48547E-01 7.33963E+00-4.90843E-13 3.44474E-13
 -1      2930 2.25265E+01 1.13302E+00-2.81724E-02 1.20298E+00 1.49562E-13-4.73076E-14
 -1      2931 2.26307E+01 1.04417E+00 6.91685E-03 7.66069E-01 8.30969E-14-5.60229E-14
 -1      2932 2.31035E+01 5.42361E-01 1.23670E-02 6.42818E-01 5.27859E-14-6.50131E-15
 -1      2933 2.27826E+01 9.19265E-01 1.55476E-02 1.48882E+00 1.47010E-13-2.68405E-15
 -1      2934 1.40510E+01 3.15432E+00 1.00920E-01-4.50356E+00-2.93634E-13-4.22067E-13
 -1      2935 1.25233E+01 3.65412E+00-1.47466E-02-4.08338E+00-2.80258E-13-4.58161E-13
 -1      2936 1.48974E+01 1.82271E+00 3.00327E-02-5.24350E+00-3.05696E-13-3.82631E-13
 -1      2937 2.87360E+01 7.03655E+00-1.77412E-01 9.97540E-01 6.86562E-13 5.76206E-14
 -1      2938 2.92537E+01 7.55955E+00-1.87456E-01 8.39314E-02 7.41546E-13-1.16833E-13
 -1      2939 2.93585E+01 7.30667E+00-2.09557E-01-5.17777E-01 7.34662E-13-1.93068E-13
 -1      2940 2.95213E+01 6.58006E+00-1.46091E-01-1.19249E+00 6.94389E-13-2.85598E-13
 -1      2941 2.75813E+01 6.73611E+00-9.89439E-02-2.15986E-01 6.13787E-13-1.45849E-13
 -1      2942 1.45791E+01 4.46930E+00 4.67311E-02 2.52871E-01-1.38320E-13-3.39534E-13
 -1      2943 2.98434E+01 1.67836E-01-5.03395E-02-2.74336E-02 1.83215E-13 2.11886E-13
 -1      2944 3.00158E+01 1.77099E+00-1.84650E-01 1.00802E+00 3.27210E-13 2.40336E-13
 -1      2945 2.84780E+01-8.16904E-01-2.50917E-02-2.81751E-01 3.90486E-14 2.00090E-13
 -1      2946 2.35648E+01-3.11688E+00 1.51372E-02-5.31488E+00-2.35964E-13-4.72816E-14
 -1      2947 2.58051E+01-2.96157E+00-2.72839E-02-4.25302E+00-1.57346E-13-4.77396E-15
 -1      2948 2.67113E+01-2.40705E+00 2.07929E-02-2.57232E+00-1.55164E-13 6.56558E-14
 -1      2949 6.13495E+00 1.88629E+00 2.11180E-01-2.22472E+00-1.61577E-13-7.17898E-13
 -1      2950 6.57949E+00 1.71685E+00 1.73064E-01-3.90342E+00-2.06141E-13-6.92391E-13
 -1      2951 3.01887E+01 3.94789E+00-7.93569E-02 1.76834E+00 4.59771E-13 2.19852E-13
 -1      2952 2.93573E+01 5.54637E+00-1.92885E-01 1.82751E+00 5.77233E-13 1.92790E-13
 -1      2953 3.00101E+01 4.72828E+00-2.09843E-01-1.56827E+00 6.16340E-13-3.75588E-13
 -1      2954 3.02467E+01 2.69309E+00-9.56061E-02-1.38901E+00 4.96075E-13-4.19720E-13
 -1      2955 2.36157E+01-4.90834E+00-5.61458E-02 5.74648E+00-2.71769E-13-5.34954E-14
 -1      2956 2.12900E+01-4.67706E+00 1.21829E-01 6.55111E+00-3.92061E-13 1.19340E-14
 -1      2957 7.85151E+00 1.06664E-02 1.91893E-01-2.44698E+00 3.60011E-13 7.40408E-13
 -1      2958 9.33748E+00-7.83022E-01 1.37357E-01-4.02815E+00 3.89550E-13 6.23612E-13
 -1      2959 2.86937E+01-2.20601E+00-3.26607E-02 8.74159E-01 8.92836E-14-4.08062E-13
 -1      2960 2.13189E+01 1.22360E+00 2.19318E-03 2.18762E+00 2.77935E-13 1.63839E-13
 -1      2961 1.38779E+01 2.03336E+00 2.48678E-02 2.76910E+00 8.90572E-14-3.51177E-13
 -1      2962 2.89728E+01 2.34235E+00-6.24517E-02 1.63825E+00 2.95340E-13 2.41945E-13
 -1      2963 2.08031E+01 5.29394E-01 5.85427E-03 1.67045E+00 2.05609E-13 1.86943E-13
 -1      2964 2.08251E+01 5.33185E-01 8.18004E-03 1.73788E+00 2.23675E-13 2.10741E-13
 -1      2965 1.09639E+01 6.81943E-02 1.05852E-01 4.54957E+00-4.36980E-13 5.05554E-13
 -1      2966 8.88915E+00 1.50061E-01 1.88559E-01 3.97701E+00-2.89678E-13 6.74405E-13
 -1      2967 9.15230E+00 1.00243E+00 1.16445E-01 2.53535E+00-1.70936E-13 5.63258E-13
 -1      2968 7.25535E+00 2.31311E+00 1.52214E-01-9.39658E-01-9.82148E-14-6.82010E-13
 -1      2969 2.11828E+01 6.73410E-01 2.24738E-04 1.76163E+00 1.93885E-13 1.59312E-13
 -1      2970 2.00001E+01-7.58104E-04-2.27866E-06-1.82609E-04 8.24829E-14 2.52077E-14
 -1      2971 1.99998E+01-4.46708E-04-1.70501E-06-5.38169E-04 1.04300E-13-2.03517E-13
 -1      2972 1.99997E+01-3.55012E-04-1.43082E-06 5.58712E-04-3.12160E-13 3.79936E-13
 -1      2973 1.27430E+01-6.12641E-01 1.85943E-01-4.47203E+00 4.64323E-13 4.87083E-13
 -1      2974 1.94601E+01-2.99682E+00 1.84323E-01-5.36508E+00 4.71623E-13 2.05988E-13
 -1      2975 8.61514E+00 7.64871E-01 1.71846E-01-9.99195E-01 1.39389E-13 6.97276E-13
 -1      2976 1.09666E+01 1.14325E+00 2.01310E-01 2.80982E+00 9.26759E-14-5.44981E-13
 -1      2977 3.60177E+01-2.29479E+00 9.94250E-02 2.23110E+00-6.22356E-13-3.58269E-13
 -1      2978 2.14980E+01 9.74028E-01 1.63946E-02 2.08105E+00 2.52061E-13 1.56387E-13
 -1      2979 2.54385E+01-4.44026E+00 2.53152E-02 4.10701E+00-2.78416E-13-1.38528E-13
 -1      2980 2.91794E+01 1.40736E+00-7.64108E-02-1.39974E+00 3.55022E-13-5.34559E-13
 -1      2981 1.30349E+01-1.21313E+00 1.66240E-01-7.56942E+00-3.64764E-13-5.39971E-13
 -1      2982 1.55886E+01-1.67976E+00-3.40767E-02-7.50646E+00-4.03094E-13-3.96780E-13
 -1      2983 1.19981E+01 1.72468E-01 1.58653E-01-6.96499E+00-3.69885E-13-5.35030E-13
 -1      2984 7.94449E+00 1.72882E+00 1.96365E-01-4.80530E+00-2.58876E-13-6.68826E-13
 -1      2985 9.62392E+00 1.55393E+00 1.04061E-01-5.75738E+00-3.06172E-13-6.12815E-13
 -1      2986 8.77070E+00 2.76972E+00 1.72558E-01-4.06296E+00-2.29226E-13-6.19615E-13
 -1      2987 2.83519E+01 5.05047E+00-1.06628E-01-1.52526E+00 5.61690E-13-3.33671E-13
 -1      2988 1.41574E+01-2.08917E+00 1.38627E-01 6.60139E+00-5.14255E-13 4.11102E-13
 -1      2989 1.31039E+01 4.28339E+00 3.54235E-02 2.77760E-02-1.14513E-13-4.01547E-13
 -1      2990 1.99850E+01-4.07651E+00 9.19222E-02 6.51222E+00-4.67321E-13 7.36633E-14
 -1      2991 2.01128E+01-2.42152E+00 1.51684E-01-6.56094E+00-3.69649E-13-1.91349E-13
 -1      2992 2.21816E+01-3.04897E+00 8.16066E-02-6.11854E+00-2.81622E-13-1.15678E-13
 -1      2993 2.38700E+01-2.80744E+00-2.26109E-02-4.48256E+00-2.76133E-13-2.45567E-14
 -1      2994 2.82701E+01 6.08026E+00-1.30712E-01 1.56652E+00 5.83339E-13 1.53308E-13
 -1      2995 2.67886E+01 6.15253E+00-1.02455E-01 1.12720E+00 5.49130E-13 6.34943E-14
 -1      2996 2.74124E+01 4.87716E+00-9.71447E-02 1.83635E+00 4.70859E-13 1.80623E-13
 -1      2997 1.81644E+01-1.63108E+00 9.27689E-02-5.25887E+00 4.64684E-13 2.65371E-13
 -1      2998 1.17254E+01 4.45584E+00 4.56437E-02-2.90268E+00-2.26714E-13-4.87693E-13
 -1      2999 1.16063E+01 4.76506E+00 8.14767E-02-1.97265E+00-1.90493E-13-4.82680E-13
 -1      3000 1.53917E+01-6.12914E-01 1.06325E-01-4.95726E+00 4.27339E-13 4.26881E-13
 -1      3001 1.16040E+01 3.53841E+00 7.74842E-02-3.89528E+00-2.56802E-13-5.02966E-13
 -1      3002 2.21044E+01 8.80385E-01-2.31071E-02 2.03020E+00 2.03215E-13 1.00095E-13
 -1      3003 2.24825E+01 8.74723E-01-3.08966E-04 1.90288E+00 1.51813E-13 6.62836E-14
 -1      3004 2.07104E+01 5.59830E-01 7.10991E-03 1.77342E+00 2.31973E-13 2.51554E-13
 -1      3005 1.09378E+01 2.83593E+00 1.63951E-01 1.39442E+00 3.35842E-15-5.15060E-13
 -1      3006 2.00002E+01-7.85887E-04 1.99376E-06-1.56202E-04 2.24747E-13 5.88601E-14
 -1      3007 2.00002E+01-7.66980E-04 1.66507E-07-2.46898E-04 2.52959E-14 2.13153E-13
 -1      3008 2.79981E+01 1.23435E+00-1.58644E-02 1.62016E+00 1.61315E-13 2.76591E-13
 -1      3009 2.75849E+01 2.87363E+00-1.30232E-01 2.11041E+00 3.28487E-13 2.47344E-13
 -1      3010 1.59336E+01 1.91386E+00 2.44846E-02-2.39633E+00 4.88508E-14 2.41508E-13
 -1      3011 1.65097E+01 1.95215E+00-2.07023E-02-2.08627E+00 3.24567E-14 1.64742E-13
 -1      3012 1.73816E+01 1.88495E+00 1.16075E-04-1.88747E+00-4.91000E-14 1.27788E-13
 -1      3013 1.78140E+01 1.75308E+00-2.01841E-02-1.65257E+00-1.28437E-13 4.13519E-14
 -1      3014 1.61883E+01 2.15672E+00 4.89962E-02-1.42587E+00-6.51131E-14 1.49089E-13
 -1      3015 1.84002E+01 1.59448E+00-3.36088E-03-1.50800E+00-1.06601E-13-2.46450E-15
 -1      3016 1.86870E+01 1.41914E+00-1.50010E-02-1.31541E+00-1.32401E-13-3.35062E-15
 -1      3017 1.75791E+01 1.86477E+00 3.27071E-02-1.20454E+00-1.23016E-13 2.73128E-14
 -1      3018 1.90736E+01 1.24930E+00-2.00934E-03-1.19494E+00-9.63858E-14 1.15781E-14
 -1      3019 1.92473E+01 1.08501E+00-1.05649E-02-1.03559E+00 7.87062E-14 4.75267E-14
 -1      3020 1.84970E+01 1.48937E+00 2.14531E-02-1.01216E+00-1.15546E-13 5.77524E-14
 -1      3021 1.94967E+01 9.37457E-01-3.91981E-04-9.32324E-01 1.46031E-13 5.19298E-14
 -1      3022 1.95934E+01 8.02183E-01-7.44985E-03-8.03135E-01 1.16547E-13 4.64252E-14
 -1      3023 1.90934E+01 1.13644E+00 1.41481E-02-8.33375E-01 7.63434E-14 8.91258E-15
 -1      3024 1.97508E+01 6.85761E-01 6.29935E-04-7.16156E-01 1.24849E-13 5.51805E-14
 -1      3025 1.97992E+01 5.81610E-01-5.21469E-03-6.14055E-01 8.00133E-14 4.83677E-14
 -1      3026 1.94713E+01 8.43091E-01 9.13744E-03-6.70224E-01 1.18401E-13 2.58582E-14
 -1      3027 1.98962E+01 4.94209E-01 1.05443E-03-5.42691E-01 2.22954E-14 6.01853E-14
 -1      3028 1.99162E+01 4.16977E-01-3.71129E-03-4.63700E-01 1.63146E-14 3.47053E-14
 -1      3029 1.97045E+01 6.14977E-01 5.81879E-03-5.27747E-01 6.74317E-14 2.35437E-14
 -1      3030 1.99763E+01 3.50541E-01 1.18508E-03-4.03750E-01 1.77718E-14 2.08633E-14
 -1      3031 1.99811E+01 2.92610E-01-2.54447E-03-3.41384E-01-3.90954E-14 2.97047E-14
 -1      3032 1.98470E+01 4.40607E-01 3.60742E-03-4.05605E-01-4.39772E-14 1.59391E-14
 -1      3033 2.00145E+01 2.48004E-01 1.15034E-03-2.97207E-01-1.44523E-14-2.90383E-14
 -1      3034 2.00112E+01 2.08596E-01-1.70059E-03-2.52605E-01 1.02444E-14-1.11313E-13
 -1      3035 1.99288E+01 3.13829E-01 2.08271E-03-3.06817E-01-4.97143E-14 5.69605E-15
 -1      3036 2.00298E+01 1.76894E-01 1.02532E-03-2.18378E-01 1.49348E-13-4.37880E-14
 -1      3037 2.00234E+01 1.48689E-01-1.16930E-03-1.85092E-01 2.00048E-13-4.42780E-14
 -1      3038 1.99729E+01 2.25033E-01 1.18848E-03-2.30590E-01 1.17274E-13 1.20902E-13
 -1      3039 2.00334E+01 1.26208E-01 8.51953E-04-1.58932E-01 3.16564E-14-2.54741E-14
 -1      3040 2.00262E+01 1.06076E-01-7.99233E-04-1.34237E-01-8.17348E-14-3.53375E-14
 -1      3041 1.99961E+01 1.61351E-01 6.57878E-04-1.71134E-01 1.33067E-13 6.08823E-14
 -1      3042 2.00312E+01 9.00978E-02 6.85997E-04-1.14432E-01-2.25626E-13 4.66591E-14
 -1      3043 2.00245E+01 7.56885E-02-5.46452E-04-9.62026E-02-2.32702E-13-1.61656E-13
 -1      3044 2.00071E+01 1.15690E-01 3.42532E-04-1.25394E-01-8.30975E-14-3.52723E-14
 -1      3045 2.00266E+01 6.42857E-02 5.40281E-04-8.13384E-02-2.28970E-13-2.42432E-13
 -1      3046 2.00208E+01 5.39303E-02-3.74152E-04-6.79540E-02-2.17714E-13-2.22441E-13
 -1      3047 2.00114E+01 8.28918E-02 1.59996E-04-9.05999E-02-2.99375E-13-4.53101E-14
 -1      3048 2.00214E+01 4.57542E-02 4.18303E-04-5.68984E-02-2.16297E-13-1.92637E-13
 -1      3049 2.00166E+01 3.82820E-02-2.56476E-04-4.71342E-02-1.16124E-13-2.27395E-13
 -1      3050 2.00122E+01 5.92526E-02 5.81270E-05-6.44062E-02-1.93674E-13-9.67026E-15
 -1      3051 2.00165E+01 3.23956E-02 3.19273E-04-3.89928E-02-1.37176E-13-3.11887E-13
 -1      3052 2.00128E+01 2.69877E-02-1.75782E-04-3.19279E-02-2.44343E-13-3.08092E-13
 -1      3053 2.00112E+01 4.21549E-02 4.25576E-06-4.48932E-02-1.50481E-13-4.32516E-14
 -1      3054 2.00122E+01 2.27391E-02 2.40553E-04-2.60017E-02-2.62466E-13-2.47090E-13
 -1      3055 2.00094E+01 1.88210E-02-1.20170E-04-2.09441E-02-9.93441E-15-2.33832E-13
 -1      3056 2.00095E+01 2.97569E-02-2.17138E-05-3.05219E-02-2.49595E-13-2.52358E-14
 -1      3057 2.00088E+01 1.57538E-02 1.78927E-04-1.66904E-02 1.04071E-13-2.70518E-13
 -1      3058 2.00067E+01 1.29194E-02-8.16518E-05-1.31199E-02-8.42755E-15-1.73249E-13
 -1      3059 2.00077E+01 2.07596E-02-3.19768E-05-2.00745E-02-4.27357E-14-9.09359E-14
 -1      3060 2.00061E+01 1.07111E-02 1.31270E-04-1.01190E-02-8.38965E-14-1.69322E-13
 -1      3061 2.00046E+01 8.66992E-03-5.48643E-05-7.64400E-03-1.51055E-13-6.97418E-14
 -1      3062 2.00060E+01 1.42410E-02-3.38094E-05-1.25962E-02-9.58118E-15-9.51029E-14
 -1      3063 2.00041E+01 7.08990E-03 9.48203E-05-5.57296E-03-2.10332E-13-2.68716E-14
 -1      3064 2.00030E+01 5.63195E-03-3.61968E-05-3.89864E-03-1.65946E-13 4.68760E-14
 -1      3065 2.00045E+01 9.53986E-03-3.14581E-05-7.34401E-03-1.59821E-13-6.55831E-15
 -1      3066 2.00026E+01 4.51296E-03 6.72436E-05-2.50993E-03-5.13355E-14-9.44751E-15
 -1      3067 2.00018E+01 3.48449E-03-2.32018E-05-1.41457E-03 1.74245E-13-5.76246E-14
 -1      3068 2.00033E+01 6.17685E-03-2.73303E-05-3.74279E-03-1.09140E-13 1.19058E-13
 -1      3069 2.00015E+01 2.70391E-03 4.66209E-05-5.19593E-04 3.34301E-13-1.99427E-13
 -1      3070 2.00010E+01 1.99114E-03-1.42033E-05 1.62993E-04 4.00095E-13-5.75359E-14
 -1      3071 2.00024E+01 3.80031E-03-2.27357E-05-1.35057E-03 2.38783E-13-1.47288E-13
 -1      3072 2.00007E+01 1.45816E-03 3.13974E-05 7.06860E-04 4.90785E-13-7.77414E-14
 -1      3073 2.00004E+01 9.76219E-04-8.03859E-06 1.10056E-03 6.14564E-13-7.38185E-14
 -1      3074 2.00016E+01 2.14968E-03-1.83415E-05 1.69892E-04 4.36528E-13-2.14065E-13
 -1      3075 2.00002E+01 6.23103E-04 2.03272E-05 1.40017E-03 6.19853E-13-1.17512E-13
 -1      3076 2.00001E+01 3.08403E-04-3.89029E-06 1.59658E-03 6.45223E-13-1.77017E-13
 -1      3077 2.00011E+01 1.03043E-03-1.44483E-05 1.07356E-03 6.08627E-13-1.92616E-13
 -1      3078 1.99999E+01 8.44796E-05 1.24202E-05 1.73104E-03 6.16043E-13-2.56719E-13
 -1      3079 1.99998E+01-1.10696E-04-1.17637E-06 1.79707E-03 3.65846E-13-6.74723E-14
 -1      3080 2.00007E+01 2.96664E-04-1.11550E-05 1.55115E-03 5.90706E-13-3.44393E-13
 -1      3081 1.99997E+01-2.43338E-04 6.89628E-06 1.82413E-03 8.99250E-14 1.15071E-13
 -1      3082 1.99997E+01-3.54716E-04 5.21885E-07 1.80795E-03-2.06252E-13-2.59047E-14
 -1      3083 2.00004E+01-1.61184E-04-8.45488E-06 1.74344E-03 3.88528E-13-3.32870E-13
 -1      3084 1.99996E+01-4.24351E-04 3.14620E-06 1.76897E-03-2.31722E-13 1.43064E-13
 -1      3085 1.99996E+01-4.78562E-04 1.50719E-06 1.70458E-03-1.72321E-13 6.06096E-14
 -1      3086 2.00001E+01-4.25206E-04-6.29204E-06 1.75268E-03-1.70788E-13 4.03234E-14
 -1      3087 1.99995E+01-5.06169E-04 6.99682E-07 1.62850E-03-1.84993E-13 1.39694E-13
 -1      3088 1.99996E+01-5.22955E-04 1.99688E-06 1.53924E-03 5.81118E-14 2.11075E-13
 -1      3089 2.00000E+01-5.56658E-04-4.59327E-06 1.65171E-03-1.66680E-13 4.63461E-14
 -1      3090 1.99995E+01-5.24011E-04-8.02638E-07 1.44567E-03 2.90785E-13 3.87842E-13
 -1      3091 1.99996E+01-5.17911E-04 2.14811E-06 1.34689E-03 4.24046E-13 6.48876E-13
 -1      3092 1.99999E+01-6.00985E-04-3.28615E-06 1.49101E-03 2.50392E-13 3.22897E-14
 -1      3093 1.99995E+01-5.03766E-04-1.63140E-06 1.24849E-03 1.15373E-13 6.76074E-13
 -1      3094 1.99996E+01-4.85412E-04 2.07640E-06 1.14972E-03-1.29602E-13 4.12226E-13
 -1      3095 1.99998E+01-5.91669E-04-2.29944E-06 1.30434E-03 2.39418E-13 1.66720E-13
 -1      3096 1.99996E+01-4.64307E-04-1.97270E-06 1.05401E-03 1.26482E-14 3.68578E-13
 -1      3097 1.99996E+01-4.41325E-04 1.91256E-06 9.60521E-04 1.18196E-13 3.57089E-13
 -1      3098 1.99998E+01-5.53242E-04-1.57252E-06 1.11302E-03-5.16847E-14-3.76973E-14
 -1      3099 1.99996E+01-4.19881E-04-2.14497E-06 8.71706E-04 8.67186E-14 4.07456E-13
 -1      3100 1.99996E+01-3.98067E-04 1.45554E-06 7.85372E-04-4.05727E-14 3.59069E-13
 -1      3101 1.99998E+01-5.03329E-04-9.96844E-07 9.29462E-04 1.70495E-13 2.62369E-13
 -1      3102 1.99996E+01-3.83143E-04-2.15644E-06 7.07801E-04-1.30063E-14 4.27542E-13
 -1      3103 1.99997E+01-3.66759E-04 7.52309E-07 6.28704E-04-3.57228E-14 4.80158E-13
 -1      3104 1.99998E+01-4.21597E-04 1.54405E-06 6.11074E-04-2.00164E-13 3.22267E-13
 -1      3105 1.99998E+01-4.57109E-04 1.65330E-07 7.62271E-04 1.03941E-13 4.39857E-13
 -1      3106 2.00001E+01-7.00381E-04-9.78667E-07 4.16276E-04-1.74066E-13-6.15560E-13
 -1      3107 2.00002E+01-7.35396E-04 2.69234E-06 3.41324E-04-3.40407E-13-3.75008E-14
 -1      3108 2.10425E+01 1.53556E+00 1.08358E-02 8.91883E-01 2.01149E-13 9.40710E-14
 -1      3109 2.11680E+01 1.34629E+00-7.54738E-03 1.20195E+00 1.78183E-13 1.08590E-13
 -1      3110 2.13524E+01 1.14275E+00 9.24568E-03 1.46829E+00 1.93767E-13 1.16695E-13
 -1      3111 2.15059E+01 9.40218E-01-7.92430E-03 1.67853E+00 1.75631E-13 1.20197E-13
 -1      3112 2.17643E+01 1.47327E+00 9.72371E-04 1.48250E+00 1.98194E-13 6.89093E-14
 -1      3113 2.11824E+01 2.99608E-01-1.32340E-02-1.49459E+00 9.21836E-14 2.79009E-15
 -1      3114 2.11102E+01 6.36674E-01 1.15457E-02-1.41557E+00 1.40551E-13 6.08357E-15
 -1      3115 2.09785E+01 9.59241E-01-1.25785E-02-1.25207E+00 1.51846E-13-2.33288E-14
 -1      3116 2.09195E+01 1.26262E+00 1.30869E-02-1.01949E+00 1.71086E-13-2.93038E-15
 -1      3117 2.15557E+01 9.40210E-01 2.83713E-03-1.42509E+00 1.23777E-13 1.59591E-14
 -1      3118 2.13093E+01-6.21684E-01-2.43044E-03-1.14537E+00-3.27314E-14-5.56371E-15
 -1      3119 2.12979E+01-4.71351E-01-4.07390E-04-1.27721E+00-3.14046E-14-1.37158E-14
 -1      3120 2.11855E+01-7.55945E-01 2.11271E-03-7.99348E-01 5.76059E-14-1.10215E-13
 -1      3121 2.12116E+01-7.14161E-01-4.29006E-03-9.57507E-01 4.30429E-14-5.38474E-14
 -1      3122 2.16124E+01-7.93515E-01 4.01996E-03-1.00524E+00 3.49082E-15-1.37931E-13
 -1      3123 2.09898E+01-7.24505E-01 4.80303E-03-4.73275E-01 7.34561E-14-1.23205E-13
 -1      3124 2.10409E+01-7.58444E-01-5.48847E-03-6.20495E-01 7.85510E-14-1.09713E-13
 -1      3125 2.13624E+01-8.93054E-01-4.31720E-05-6.29076E-01 8.27959E-14-1.66531E-13
 -1      3126 2.07737E+01-6.00835E-01 5.48942E-03-2.13262E-01 7.22036E-14-7.27198E-14
 -1      3127 2.08354E+01-6.72846E-01-4.87655E-03-3.31434E-01 8.44869E-14-6.44000E-14
 -1      3128 2.10689E+01-8.18810E-01-2.73444E-03-3.09517E-01 4.18727E-14-1.07252E-13
 -1      3129 2.05738E+01-4.45259E-01 5.00852E-03-2.99165E-02-1.00695E-13 4.74769E-14
 -1      3130 2.06345E+01-5.26889E-01-3.62904E-03-1.14576E-01-2.31319E-14-1.06564E-14
 -1      3131 2.07881E+01-6.56523E-01-3.83111E-03-7.60277E-02-2.82455E-14 2.04355E-14
 -1      3132 2.04080E+01-2.96330E-01 3.98975E-03 8.49843E-02-7.76613E-14 7.29236E-14
 -1      3133 2.04612E+01-3.70632E-01-2.38183E-03 3.07082E-02-7.50837E-14 6.35802E-14
 -1      3134 2.05510E+01-4.72000E-01-3.88039E-03 7.44846E-02-8.50811E-14 6.89758E-14
 -1      3135 2.02805E+01-1.73219E-01 2.89094E-03 1.46645E-01-8.42215E-14 1.11550E-13
 -1      3136 2.03237E+01-2.32591E-01-1.37489E-03 1.16493E-01-8.09174E-14 1.12551E-13
 -1      3137 2.03676E+01-3.03811E-01-3.33923E-03 1.58360E-01-1.02625E-13 7.05618E-14
 -1      3138 2.01879E+01-8.16037E-02 1.92775E-03 1.70780E-01-1.41560E-13 1.07732E-13
 -1      3139 2.02214E+01-1.24560E-01-6.55108E-04 1.58037E-01-7.48016E-14 1.57773E-13
 -1      3140 2.02350E+01-1.69313E-01-2.59109E-03 1.94570E-01-1.23717E-13 1.19947E-13
 -1      3141 2.01236E+01-1.94985E-02 1.17614E-03 1.70699E-01-2.14768E-13 1.26925E-13
 -1      3142 2.01487E+01-4.77988E-02-1.84108E-04 1.69472E-01-1.43380E-13 1.33878E-13
 -1      3143 2.01443E+01-7.18935E-02-1.86907E-03 1.99694E-01-1.50917E-13 2.28105E-13
 -1      3144 2.00805E+01 1.84908E-02 6.38004E-04 1.56554E-01-7.59443E-14 5.68226E-14
 -1      3145 2.00989E+01 1.79593E-03 1.01163E-04 1.62208E-01-1.74634E-13 1.58185E-14
 -1      3146 2.00854E+01-7.58834E-03-1.27202E-03 1.86428E-01-1.36164E-13 1.20960E-13
 -1      3147 2.00524E+01 3.85836E-02 2.81042E-04 1.35521E-01-1.47833E-13 1.39006E-13
 -1      3148 2.00658E+01 3.02839E-02 2.56151E-04 1.44693E-01-7.64435E-14 1.04672E-13
 -1      3149 2.00489E+01 3.04727E-02-8.21732E-04 1.63756E-01-1.37765E-13 1.78426E-13
 -1      3150 2.00344E+01 4.64519E-02 6.18746E-05 1.12314E-01 1.82178E-13 8.90175E-14
 -1      3151 2.00441E+01 4.37500E-02 3.24449E-04 1.22741E-01-2.14430E-14 1.05675E-13
 -1      3152 2.00273E+01 4.95117E-02-5.07473E-04 1.37610E-01-2.88783E-14 1.32873E-13
 -1      3153 2.00230E+01 4.66417E-02-6.00788E-05 8.98009E-02 1.87290E-13 2.15294E-13
 -1      3154 2.00301E+01 4.73589E-02 3.39177E-04 1.00070E-01 2.77815E-13 1.88671E-13
 -1      3155 2.00153E+01 5.58315E-02-3.01692E-04 1.11620E-01 1.37324E-13 1.01676E-13
 -1      3156 2.00157E+01 4.25035E-02-1.17370E-04 6.95519E-02 1.07558E-13 2.21658E-13
 -1      3157 2.00210E+01 4.50679E-02 3.22460E-04 7.88677E-02 1.35689E-13 2.43564E-13
 -1      3158 2.00089E+01 5.43542E-02-1.72726E-04 8.78161E-02 1.22666E-13 3.47937E-13
 -1      3159 2.00111E+01 3.63421E-02-1.34597E-04 5.22648E-02 1.90097E-13 1.57596E-13
 -1      3160 2.00150E+01 3.96945E-02 2.88735E-04 6.02568E-02 2.03898E-13 1.52435E-13
 -1      3161 2.00057E+01 4.86344E-02-9.62837E-05 6.71724E-02 1.94140E-13 2.24390E-13
 -1      3162 2.00080E+01 2.96307E-02-1.29128E-04 3.80834E-02 5.96316E-14 2.96278E-13
 -1      3163 2.00109E+01 3.31097E-02 2.47743E-04 4.46552E-02 1.68110E-13 2.59279E-13
 -1      3164 2.00042E+01 4.10770E-02-5.35797E-05 4.99797E-02 7.88580E-14 2.92019E-13
 -1      3165 2.00059E+01 2.32320E-02-1.12491E-04 2.68291E-02-1.28797E-13 3.11605E-13
 -1      3166 2.00081E+01 2.64624E-02 2.05613E-04 3.20469E-02-8.09397E-14 2.63471E-13
 -1      3167 2.00035E+01 3.31916E-02-3.12055E-05 3.61220E-02-4.21208E-14 3.79789E-13
 -1      3168 2.00044E+01 1.75882E-02-9.18427E-05 1.81583E-02-1.34353E-13 1.09411E-13
 -1      3169 2.00060E+01 2.03884E-02 1.65919E-04 2.21737E-02-4.78486E-14 1.81695E-13
 -1      3170 2.00032E+01 2.58399E-02-2.03141E-05 2.52662E-02-7.78767E-15 2.34742E-13
 -1      3171 2.00032E+01 1.28701E-02-7.12877E-05 1.16648E-02-1.37372E-13 8.27531E-14
 -1      3172 2.00044E+01 1.51811E-02 1.30542E-04 1.46639E-02-1.74403E-13 4.73756E-14
 -1      3173 2.00029E+01 1.94448E-02-1.54210E-05 1.69841E-02-1.06375E-13 2.52483E-13
 -1      3174 2.00024E+01 9.08563E-03-5.29255E-05 6.94063E-03 4.43586E-14 5.77038E-14
 -1      3175 2.00033E+01 1.09199E-02 1.00262E-04 9.11317E-03-8.69858E-14 5.46207E-14
 -1      3176 2.00026E+01 1.41494E-02-1.33316E-05 1.08290E-02-1.32573E-13 9.87512E-14
 -1      3177 2.00017E+01 6.15393E-03-3.76061E-05 3.61125E-03 2.30079E-13-1.05223E-13
 -1      3178 2.00023E+01 7.56169E-03 7.51637E-05 5.13284E-03 2.50796E-13 1.80651E-14
 -1      3179 2.00023E+01 9.93199E-03-1.23193E-05 6.37898E-03 1.56094E-13 5.20831E-14
 -1      3180 2.00012E+01 3.95404E-03-2.54530E-05 1.35123E-03-8.47606E-14-4.82311E-14
 -1      3181 2.00016E+01 5.00098E-03 5.49239E-05 2.37487E-03 6.23753E-14-1.06943E-13
 -1      3182 2.00020E+01 6.68360E-03-1.15453E-05 3.25985E-03 1.13619E-13-5.05303E-14
 -1      3183 2.00008E+01 2.35449E-03-1.62055E-05-1.10575E-04-1.01339E-13 7.99396E-14
 -1      3184 2.00011E+01 3.10868E-03 3.90007E-05 5.42707E-04-9.85347E-14 2.92379E-16
 -1      3185 2.00017E+01 4.25825E-03-1.06728E-05 1.15362E-03-1.24156E-13-1.42554E-13
 -1      3186 2.00005E+01 1.23008E-03-9.43427E-06-9.92803E-04 1.87244E-14-8.84622E-14
 -1      3187 2.00007E+01 1.75469E-03 2.67646E-05-6.07091E-04-4.04509E-14-1.26059E-14
 -1      3188 2.00014E+01 2.50314E-03-9.62525E-06-2.00822E-04-4.24106E-14 4.21583E-14
 -1      3189 2.00002E+01 4.70179E-04-4.66724E-06-1.46683E-03 1.35129E-13 4.61731E-14
 -1      3190 2.00004E+01 8.20137E-04 1.75801E-05-1.26829E-03 1.46200E-13-2.52838E-14
 -1      3191 2.00011E+01 1.27552E-03-8.44267E-06-1.01190E-03 3.25027E-14-3.57212E-14
 -1      3192 2.00001E+01-1.81165E-05-1.45830E-06-1.66353E-03 8.63814E-14-1.30713E-14
 -1      3193 2.00001E+01 2.02781E-04 1.08547E-05-1.59098E-03 1.08679E-13-8.87063E-15
 -1      3194 2.00008E+01 4.50716E-04-7.20302E-06-1.44183E-03 1.54349E-13-8.63465E-14
 -1      3195 1.99999E+01-3.10030E-04 5.80584E-07-1.68030E-03-1.05069E-13 1.34632E-13
 -1      3196 2.00000E+01-1.81614E-04 6.06455E-06-1.68842E-03 3.91759E-14 2.99897E-14
 -1      3197 2.00006E+01-7.52487E-05-5.98303E-06-1.61383E-03-9.62327E-15-1.97877E-14
 -1      3198 1.99999E+01-4.64702E-04 1.76837E-06-1.58770E-03-1.62375E-13 1.89624E-13
 -1      3199 1.99999E+01-4.00221E-04 2.76506E-06-1.64386E-03-1.30168E-13 1.68140E-13
 -1      3200 2.00004E+01-3.86095E-04-4.84229E-06-1.61924E-03-1.31004E-13 2.27500E-14
 -1      3201 1.99998E+01-5.27544E-04 2.35391E-06-1.43521E-03 1.42401E-13 8.84118E-14
 -1      3202 1.99998E+01-5.05214E-04 5.90152E-07-1.51672E-03-5.09482E-14 1.95258E-13
 -1      3203 2.00002E+01-5.47406E-04-3.82034E-06-1.52398E-03-5.14394E-14-6.79230E-14
 -1      3204 1.99998E+01-5.32727E-04 2.54119E-06-1.25613E-03 2.63910E-13 3.95882E-14
 -1      3205 1.99997E+01-5.36251E-04-7.58918E-07-1.34792E-03 2.18927E-13 9.94354E-14
 -1      3206 2.00001E+01-6.09389E-04-2.94018E-06-1.37414E-03 1.04031E-13-1.09018E-13
 -1      3207 1.99997E+01-5.06111E-04 2.06159E-06-1.07199E-03-5.22736E-15-6.29757E-14
 -1      3208 1.99997E+01-5.22969E-04-1.52102E-06-1.16442E-03 2.14727E-13-9.87756E-14
 -1      3209 2.00000E+01-6.09719E-04-2.23746E-06-1.20062E-03 3.00675E-13 6.13912E-14
 -1      3210 1.99997E+01-4.65726E-04 5.68407E-07-8.94172E-04 1.23105E-13-8.68667E-14
 -1      3211 1.99997E+01-4.87613E-04-2.06739E-06-9.81031E-04 3.63504E-14-1.34665E-13
 -1      3212 1.99999E+01-5.78385E-04-1.72211E-06-1.02331E-03 7.78002E-14-1.59322E-13
 -1      3213 2.00003E+01-7.98704E-04 1.10888E-06 4.84709E-05-1.50588E-14-2.19796E-13
 -1      3214 2.00003E+01-7.98518E-04 1.05560E-06-4.78589E-05 1.75742E-13-1.86952E-13
 -1      3215 2.00003E+01-8.21619E-04-2.19455E-06-1.11874E-04 1.89247E-13-8.33609E-14
 -1      3216 1.41285E+01 1.22306E+00 9.58652E-02-3.23892E+00 1.93182E-13 3.84560E-13
 -1      3217 1.47771E+01 1.69794E+00 7.23273E-03-2.77448E+00 6.95121E-14 3.47770E-13
 -1      3218 2.31850E+01-8.09404E-01-9.58916E-03-1.92915E+00-1.62393E-13-5.61734E-14
 -1      3219 2.23693E+01-7.89784E-01 3.70998E-02-2.91911E+00-2.35365E-13-9.15084E-14
 -1      3220 2.00000E+01-5.94318E-04-9.41013E-07 5.37558E-04-1.44491E-13-1.66451E-13
 -1      3221 2.00001E+01-6.44463E-04 3.05239E-06 4.89632E-04-4.21356E-14-4.61466E-13
 -1      3222 2.00001E+01-6.98286E-04-1.95361E-06 4.96846E-04-2.35530E-13-3.66443E-13
 -1      3223 2.00002E+01-7.69608E-04 1.19946E-07 2.45373E-04-2.38657E-13 3.37496E-13
 -1      3224 2.00002E+01-7.87449E-04 1.93939E-06 1.55984E-04-2.64236E-13 8.75957E-14
 -1      3225 2.00003E+01-8.22861E-04-2.25088E-06 1.10837E-04-2.37751E-14-2.44290E-13
 -1      3226 2.00003E+01-7.80981E-04-2.07586E-06 3.20877E-04-2.65127E-13 4.36344E-14
 -1      3227 1.99998E+01-4.78789E-04-4.33542E-07 5.94623E-04-1.68792E-13-1.19253E-13
 -1      3228 1.99999E+01-5.41165E-04 2.83439E-06 5.78041E-04-1.72501E-13-2.44529E-13
 -1      3229 2.00000E+01-5.97933E-04-5.48739E-07 6.10407E-04-4.69360E-14-1.76279E-13
 -1      3230 1.99998E+01-4.94849E-04-2.00709E-06 6.67016E-04 1.83862E-14 4.51397E-14
 -1      3231 1.19411E+01 4.05834E+00 8.47111E-02-4.96664E-01-1.24938E-13-4.60770E-13
 -1      3232 2.56559E+01-2.27079E+00 5.24897E-02-2.61522E+00-1.94903E-13 5.43107E-14
 -1      3233 2.64098E+01-1.96516E+00-8.26377E-02-1.59014E+00-1.23446E-13 1.13833E-13
 -1      3234 1.99999E+01-5.56501E-04 4.66247E-07-5.76982E-04 7.99565E-14-2.22653E-13
 -1      3235 1.99998E+01-4.59045E-04-1.63235E-07-6.06831E-04 7.38681E-14-1.72324E-13
 -1      3236 1.99998E+01-4.71434E-04-3.16310E-06-6.79799E-04-1.59290E-13-6.71345E-14
 -1      3237 2.15052E+01-1.31101E+00 5.16152E-02-4.47092E+00-3.09357E-13-1.20303E-13
 -1      3238 1.93280E+01-8.66096E-01 4.92928E-03-5.42616E+00-3.64073E-13-1.95330E-13
 -1      3239 1.27647E+01 4.15254E-01 9.12758E-02-3.89175E+00 3.44835E-13 4.67182E-13
 -1      3240 2.77633E+01 1.81287E+00-1.45937E-01-1.81740E+00 3.17503E-13-5.03056E-13
 -1      3241 2.82292E+01 2.53561E-01 1.31925E-03-1.37378E+00 2.04510E-13-5.40179E-13
 -1      3242 2.67798E+01 5.24597E+00-1.33090E-01-1.37684E+00 5.01474E-13-2.74350E-13
 -1      3243 2.74842E+01 3.78968E+00-5.58126E-02-1.94635E+00 4.31349E-13-4.33403E-13
 -1      3244 2.61310E+01 6.10481E+00-1.15236E-01 8.76489E-02 5.27425E-13-7.35618E-14
 -1      3245 2.63456E+01 5.94261E+00-1.02049E-01-6.75007E-01 5.11174E-13-1.64802E-13
 -1      3246 1.61222E+01-2.41597E+00 1.85163E-02 6.48168E+00-4.62803E-13 3.31721E-13
 -1      3247 1.36537E+01-1.10710E+00 1.02855E-01 5.82099E+00-4.75085E-13 4.80477E-13
 -1      3248 2.11049E+01 6.66780E-01-1.61472E-02 1.92636E+00 2.45239E-13 1.71434E-13
 -1      3249 2.73484E+01-1.25854E+00 8.92247E-03-4.91170E-01-6.93473E-14 1.73431E-13
 -1      3250 2.77332E+01-3.73874E-01-1.27161E-01 5.83126E-01 5.33705E-14 2.04052E-13
 -1      3251 2.62733E+01-1.42321E+00-1.82267E-02-6.58110E-01-1.13290E-13 1.34774E-13
 -1      3252 2.16126E+01 7.71649E-01 2.89961E-03 1.80633E+00 1.73613E-13 1.52449E-13
 -1      3253 2.16672E+01 6.98638E-01-1.08484E-02 1.92893E+00 2.00612E-13 1.31304E-13
 -1      3254 2.13130E+01-2.68459E-01-8.65295E-03-1.42021E+00-9.10578E-15 2.96494E-14
 -1      3255 2.12625E+01-9.13184E-04 5.76163E-03-1.47397E+00 5.20747E-14 1.49127E-14
 -1      3256 2.17235E+01 1.66167E-01 6.67870E-03-1.54932E+00 6.77510E-14 5.39237E-14
 -1      3257 2.17508E+01-4.44804E-01 8.00184E-03-1.35804E+00 3.10011E-15-4.98916E-14
 -1      3258 1.13318E+01 2.76508E+00 1.41373E-01-4.97813E+00-2.98121E-13-5.22860E-13
 -1      3259 1.00667E+01 3.42260E+00 2.98023E-02-3.70658E+00-2.44644E-13-5.58026E-13
 -1      3260 2.16468E+01 8.39155E-01 4.82164E-03 2.00790E+00 2.29207E-13 1.24636E-13
 -1      3261 2.62558E+01-4.17566E+00-1.13696E-01 2.86911E+00-2.19262E-13-2.39982E-13
 -1      3262 2.42791E+01-4.29966E+00 8.55139E-02 4.28259E+00-3.73708E-13-1.80736E-13
 -1      3263 2.81111E+01-1.65314E+00-1.36492E-01-2.18836E-01 1.26399E-13-6.00950E-13
 -1      3264 2.76663E+01-2.97815E+00 4.51160E-02 1.24059E+00-8.19639E-14-4.44172E-13
 -1      3265 2.64727E+01-3.36333E+00 3.04942E-03 1.62079E+00-1.81733E-13-3.99583E-13
 -1      3266 2.37293E+01-2.47616E-01-3.74571E-02-4.35273E-02-2.18289E-14-1.63931E-16
 -1      3267 2.36095E+01-4.09887E-01 1.96645E-02-8.25762E-01-9.97123E-14-2.17621E-14
 -1      3268 2.42115E+01-9.98382E-01-1.48155E-03-1.15679E+00-1.32297E-13 2.44353E-14
 -1      3269 1.59691E+01 4.82981E-01 1.58719E-01-6.10828E+00-3.86989E-13-3.67088E-13
 -1      3270 1.32182E+01 1.24244E+00 3.35439E-02-6.11192E+00-3.60711E-13-4.49876E-13
 -1      3271 9.39577E+00 1.51097E+00 1.30789E-01 1.00650E-01-8.46510E-14 5.60718E-13
 -1      3272 1.05712E+01 1.24544E+00 1.37084E-01-2.10925E+00 1.45710E-13 5.09565E-13
 -1      3273 2.14145E+01-4.22597E+00-7.61411E-02 5.66181E+00-4.07695E-13 1.41553E-15
 -1      3274 1.89021E+01-3.25333E+00 1.12785E-01 6.23297E+00-4.42965E-13 1.29102E-13
 -1      3275 1.81979E+01-2.42699E+00 7.85146E-02 5.72309E+00-4.12136E-13 2.36533E-13
 -1      3276 2.70560E+01 4.11369E-01-2.84261E-02 1.30020E+00 7.73895E-14 2.38698E-13
 -1      3277 1.42191E+01 2.07420E+00 6.63430E-02-1.84863E+00 1.34458E-14 2.69201E-13
 -1      3278 1.28514E+01-2.38853E-01 1.15818E-01 5.07244E+00-3.99708E-13 5.41608E-13
 -1      3279 1.22672E+01 5.85199E-01 5.33873E-02 3.93623E+00-3.25472E-13 4.79353E-13
 -1      3280 1.48280E+01-5.39739E-01 6.96072E-02 4.97427E+00-3.83107E-13 4.77368E-13
 -1      3281 2.61243E+01 2.52360E+00-4.40293E-02 2.08610E+00 2.46976E-13 2.30032E-13
 -1      3282 2.69058E+01 3.72407E+00-6.03957E-02 2.19245E+00 3.58616E-13 2.35707E-13
 -1      3283 2.57861E+01 4.31361E+00-7.93494E-02 1.93784E+00 3.77927E-13 1.59123E-13
 -1      3284 2.08365E+01 1.70598E+00 5.09682E-03 1.12677E-01 2.33836E-13 7.79554E-14
 -1      3285 2.08997E+01 1.66288E+00-4.55246E-04 4.89048E-01 2.36187E-13 9.16736E-14
 -1      3286 2.14583E+01 1.89970E+00-4.14074E-03 7.96863E-01 2.22523E-13 6.04882E-14
 -1      3287 8.76876E+00 3.27987E+00 7.43838E-02-9.56628E-01-1.13209E-13-5.87891E-13
 -1      3288 1.12867E+01 1.50226E+00 5.98376E-02 2.02786E+00-2.82732E-13 4.18547E-13
 -1      3289 1.01583E+01 1.59705E+00 1.43247E-01 1.10288E+00-1.53401E-13 4.70707E-13
 -1      3290 1.16138E+01 1.95325E+00 7.37889E-02-1.28256E-02-1.33577E-13 4.21760E-13
 -1      3291 2.08249E+01 1.49464E+00-4.99405E-03-6.74149E-01 2.07360E-13 2.24803E-14
 -1      3292 2.08180E+01 1.65023E+00 8.74626E-03-3.26504E-01 2.20407E-13 3.94302E-14
 -1      3293 2.13031E+01 1.99206E+00-6.48826E-03-8.60735E-02 2.57524E-13 4.52293E-14
 -1      3294 2.13632E+01 1.63335E+00-3.22135E-03-9.05552E-01 2.01617E-13 2.75130E-14
 -1      3295 2.28070E+01 7.58517E-01 9.62680E-03 1.90162E+00 1.51174E-13 6.25962E-14
 -1      3296 2.28231E+01 7.68117E-01-2.57099E-02 1.76868E+00 1.53001E-13-5.43532E-15
 -1      3297 2.31602E+01 6.53172E-01 3.74153E-03 1.48405E+00 1.19828E-13 6.08758E-15
 -1      3298 2.20310E+01 9.94564E-01 7.98390E-03 1.87223E+00 1.93742E-13 1.27079E-13
 -1      3299 1.99998E+01-4.63318E-04-7.30220E-07-7.43973E-04-1.46251E-13-1.09667E-13
 -1      3300 1.99998E+01-4.78738E-04-2.93392E-06-8.23671E-04-9.76140E-15-1.39077E-13
 -1      3301 1.99999E+01-5.56460E-04 4.37156E-06-8.57198E-04 4.49646E-14-1.96491E-13
 -1      3302 2.00000E+01-5.63210E-04 4.79023E-06-7.16879E-04-5.35355E-14-5.29953E-14
 -1      3303 2.32929E+01-1.99135E+00 1.06820E-02-3.69348E+00-2.75380E-13-1.23712E-14
 -1      3304 2.00002E+01-7.32191E-04 3.39325E-06-3.42845E-04-1.42226E-13-1.62707E-14
 -1      3305 2.00001E+01-6.98121E-04-1.79609E-06-4.19239E-04-1.85338E-13 2.59945E-13
 -1      3306 2.00003E+01-7.77862E-04-2.11302E-06-3.22025E-04 5.29644E-14 1.70293E-13
 -1      3307 2.57962E+01 5.73773E+00-9.94350E-02 6.16370E-01 4.84418E-13 3.43102E-14
 -1      3308 2.48168E+01 5.13336E+00-4.18659E-02 2.47612E-01 4.29892E-13 3.28661E-14
 -1      3309 2.53854E+01 5.19295E+00-4.32147E-02 1.18856E+00 4.30891E-13 9.81689E-14
 -1      3310 2.56407E+01 4.77426E+00-6.87514E-02-1.08140E+00 4.10991E-13-1.90317E-13
 -1      3311 2.00000E+01-6.11239E-04 1.98046E-06-5.24722E-04-6.19095E-14 2.63405E-13
 -1      3312 1.16841E+01 1.19793E+00 1.22621E-01-2.66978E+00 2.15106E-13 3.63154E-13
 -1      3313 2.66540E+01 2.35035E+00-5.55640E-02-1.88950E+00 2.90407E-13-4.17510E-13
 -1      3314 2.34335E+01 3.77539E-01-3.33061E-02 1.14009E+00 8.44097E-14 4.22028E-14
 -1      3315 2.36600E+01 1.98753E-01 1.63110E-02 6.40329E-01 1.94798E-14 3.73592E-14
 -1      3316 2.42984E+01-1.62572E-01 2.68093E-02 5.75016E-01 6.21898E-15 7.09810E-14
 -1      3317 2.36343E+01 4.61386E-01 1.63077E-02 1.49497E+00 1.03443E-13 6.07750E-14
 -1      3318 2.30830E+01-3.84601E+00 5.95162E-02 4.33377E+00-3.55542E-13-7.01557E-14
 -1      3319 2.72924E+01-9.71552E-01-5.05728E-02-8.13774E-01 8.60614E-14-5.47076E-13
 -1      3320 2.18538E+01 7.62360E-01 1.37846E-02 1.96596E+00 2.01187E-13 1.38871E-13
 -1      3321 1.68201E+01 1.89582E+00-1.94810E-02-6.84797E-01-1.60928E-13 1.33911E-13
 -1      3322 1.74135E+01 1.73150E+00-1.62131E-02-6.38854E-01-1.65579E-13 1.45135E-13
 -1      3323 1.79493E+01 1.55591E+00-1.45471E-02-6.79432E-01-1.07870E-13 8.92660E-14
 -1      3324 1.83401E+01 1.38391E+00-1.13626E-02-6.22250E-01-5.10796E-14 1.55531E-13
 -1      3325 1.74892E+01 1.69370E+00 2.90416E-02-2.15480E-01-1.76706E-13 3.02210E-13
 -1      3326 1.87021E+01 1.21832E+00-9.13893E-03-6.27669E-01-3.39511E-14 5.98325E-14
 -1      3327 1.89521E+01 1.06510E+00-8.06155E-03-5.64344E-01 8.88530E-14 8.92569E-15
 -1      3328 1.83497E+01 1.35842E+00 1.94889E-02-3.30963E-01-9.15625E-14 1.77333E-13
 -1      3329 1.91949E+01 9.25224E-01-5.38948E-03-5.48075E-01 1.19949E-13 4.28900E-14
 -1      3330 1.93506E+01 7.99887E-01-5.81718E-03-4.85668E-01 1.07793E-13 5.14650E-14
 -1      3331 1.89290E+01 1.05363E+00 1.30764E-02-3.64548E-01 7.92953E-14 9.87066E-14
 -1      3332 1.95118E+01 6.88878E-01-3.00284E-03-4.58669E-01 9.26348E-14-1.28276E-14
 -1      3333 1.96061E+01 5.91428E-01-4.20755E-03-4.02058E-01 2.35800E-14-5.36603E-14
 -1      3334 1.93146E+01 7.99277E-01 8.78271E-03-3.49295E-01 9.14961E-14 1.65509E-14
 -1      3335 1.97159E+01 5.03203E-01-1.43844E-03-3.70045E-01-4.39050E-14-5.84698E-14
 -1      3336 1.97730E+01 4.26785E-01-3.00949E-03-3.19573E-01-5.22840E-14-5.91174E-14
 -1      3337 1.95727E+01 5.92635E-01 5.65657E-03-3.08202E-01-1.20803E-14-7.09610E-14
 -1      3338 1.98403E+01 3.64945E-01-5.42572E-04-2.90482E-01 5.78464E-14-1.25915E-14
 -1      3339 1.98703E+01 3.11303E-01-2.14389E-03-2.50826E-01 6.35432E-14 8.39787E-14
 -1      3340 1.97387E+01 4.35652E-01 3.68782E-03-2.58402E-01 5.42381E-14-8.45721E-15
 -1      3341 1.99134E+01 2.66048E-01-2.34639E-05-2.24854E-01 5.00372E-14 8.70423E-14
 -1      3342 1.99293E+01 2.26498E-01-1.54135E-03-1.93044E-01 1.56263E-13 5.13211E-14
 -1      3343 1.98415E+01 3.20698E-01 2.32187E-03-2.09638E-01 9.34114E-14-5.82266E-14
 -1      3344 1.99566E+01 1.93511E-01 2.01469E-04-1.71036E-01 9.84745E-14-3.98069E-14
 -1      3345 1.99643E+01 1.64583E-01-1.09441E-03-1.46028E-01 2.24501E-14-1.27654E-13
 -1      3346 1.99064E+01 2.35365E-01 1.45692E-03-1.65378E-01 1.20112E-14-2.04542E-13
 -1      3347 1.99814E+01 1.40577E-01 2.88946E-04-1.27995E-01-3.13968E-15-1.44011E-13
 -1      3348 1.99844E+01 1.19437E-01-7.75351E-04-1.08631E-01-1.31871E-13-4.67055E-14
 -1      3349 1.99468E+01 1.72309E-01 8.98253E-04-1.27462E-01-4.58867E-14-2.55845E-13
 -1      3350 1.99951E+01 1.01946E-01 3.03161E-04-9.42231E-02-1.78519E-13-1.37323E-14
 -1      3351 1.99956E+01 8.64742E-02-5.48615E-04-7.94232E-02-1.03256E-13 5.50525E-14
 -1      3352 1.99716E+01 1.25836E-01 5.43903E-04-9.61778E-02-9.32422E-14-1.62245E-13
 -1      3353 2.00021E+01 7.36991E-02 2.80373E-04-6.81512E-02-9.69368E-14 1.11912E-13
 -1      3354 2.00014E+01 6.23538E-02-3.87490E-04-5.69757E-02-8.73039E-14 1.46629E-13
 -1      3355 1.99865E+01 9.15714E-02 3.21571E-04-7.10865E-02-6.20439E-14-3.52430E-14
 -1      3356 2.00053E+01 5.30020E-02 2.42066E-04-4.83184E-02-1.84288E-13 1.08741E-13
 -1      3357 2.00041E+01 4.46714E-02-2.72897E-04-3.99813E-02-2.54186E-13 1.05824E-13
 -1      3358 1.99952E+01 6.62852E-02 1.83888E-04-5.14193E-02-1.69647E-13 1.63618E-13
 -1      3359 2.00063E+01 3.78168E-02 1.99964E-04-3.34470E-02-2.41120E-13 4.93723E-14
 -1      3360 2.00051E+01 3.16998E-02-1.91294E-04-2.73075E-02-2.87465E-13 1.84514E-14
 -1      3361 2.00001E+01 4.76166E-02 9.99513E-05-3.63086E-02-2.76428E-13 1.22025E-13
 -1      3362 2.00063E+01 2.66779E-02 1.59977E-04-2.24617E-02-1.59883E-13 5.48927E-14
 -1      3363 2.00051E+01 2.21953E-02-1.33096E-04-1.80063E-02 9.34425E-14 3.18933E-14
 -1      3364 2.00026E+01 3.38436E-02 4.97312E-05-2.49143E-02-9.74062E-14 9.13978E-14
 -1      3365 2.00057E+01 1.85265E-02 1.24744E-04-1.44799E-02 6.80801E-14-3.81452E-14
 -1      3366 2.00047E+01 1.52564E-02-9.15547E-05-1.13020E-02-1.33722E-13-4.14600E-14
 -1      3367 2.00038E+01 2.37082E-02 2.04152E-05-1.64830E-02 7.21795E-16 4.62693E-14
 -1      3368 2.00049E+01 1.25911E-02 9.51155E-05-8.79013E-03-1.67331E-13-9.54549E-15
 -1      3369 2.00040E+01 1.02234E-02-6.19254E-05-6.57063E-03-1.58551E-13 6.52834E-14
 -1      3370 2.00041E+01 1.62861E-02 3.90555E-06-1.03689E-02-1.12740E-13 1.24904E-14
 -1      3371 2.00040E+01 8.30423E-03 7.10055E-05-4.82623E-03-1.14020E-13 2.16837E-13
 -1      3372 2.00034E+01 6.60862E-03-4.08630E-05-3.31688E-03-2.45965E-14 2.03496E-13
 -1      3373 2.00039E+01 1.08925E-02-4.86350E-06-6.03503E-03-6.83585E-14 1.39182E-13
 -1      3374 2.00032E+01 5.24422E-03 5.18806E-05-2.14352E-03 1.55808E-14 1.86663E-13
 -1      3375 2.00027E+01 4.04819E-03-2.59915E-05-1.15286E-03 2.50025E-13 6.69622E-14
 -1      3376 2.00036E+01 7.01564E-03-9.03269E-06-3.04565E-03-3.25991E-14 3.16446E-13
 -1      3377 2.00025E+01 3.09497E-03 3.70336E-05-3.96630E-04 3.52986E-13-6.90715E-14
 -1      3378 2.00021E+01 2.26845E-03-1.56073E-05 2.21634E-04 5.11269E-13-3.74941E-14
 -1      3379 2.00031E+01 4.27030E-03-1.05326E-05-1.05351E-03 3.04009E-13 2.14459E-13
 -1      3380 2.00019E+01 1.61807E-03 2.57319E-05 6.79463E-04 6.23980E-13-2.41235E-13
 -1      3381 2.00016E+01 1.06260E-03-8.47690E-06 1.03589E-03 6.78531E-13-2.40857E-13
 -1      3382 2.00026E+01 2.36451E-03-1.05394E-05 2.13187E-04 4.56963E-13-1.62098E-13
 -1      3383 2.00014E+01 6.33102E-04 1.72924E-05 1.28552E-03 5.81725E-13-1.10284E-13
 -1      3384 2.00012E+01 2.74088E-04-3.69882E-06 1.46263E-03 6.34576E-13-2.30003E-13
 -1      3385 2.00021E+01 1.07647E-03-9.76225E-06 9.63794E-04 7.20951E-13-2.59033E-13
 -1      3386 2.00010E+01 3.47618E-06 1.11145E-05 1.57146E-03 7.21412E-13-3.94907E-13
 -1      3387 2.00009E+01-2.15441E-04-6.10121E-07 1.62996E-03 3.56239E-13-3.69812E-13
 -1      3388 2.00017E+01 2.37602E-04-8.62306E-06 1.35688E-03 6.62640E-13-3.19173E-13
 -1      3389 2.00007E+01-3.73895E-04 6.69092E-06 1.64741E-03-4.66600E-14-2.09816E-13
 -1      3390 2.00006E+01-4.95100E-04 1.27941E-06 1.63116E-03-1.07957E-13-9.08967E-14
 -1      3391 2.00013E+01-2.79840E-04-7.36741E-06 1.51045E-03 2.72252E-13-4.63202E-13
 -1      3392 2.00005E+01-5.76416E-04 3.60546E-06 1.59275E-03-1.69025E-13 9.33973E-15
 -1      3393 2.00004E+01-6.31566E-04 2.33231E-06 1.53271E-03-1.94769E-13-1.04460E-14
 -1      3394 2.00010E+01-5.72180E-04-6.13324E-06 1.51064E-03-6.80282E-14-1.23006E-13
 -1      3395 2.00003E+01-6.61821E-04 1.52573E-06 1.46329E-03 8.29671E-14 2.79828E-14
 -1      3396 2.00002E+01-6.74413E-04 2.80771E-06 1.38073E-03 2.75911E-13-8.17448E-15
 -1      3397 2.00007E+01-7.11546E-04-4.99771E-06 1.41891E-03-7.30598E-14 4.82554E-14
 -1      3398 2.00001E+01-6.72921E-04 1.85054E-07 1.29707E-03 2.74901E-13-1.60260E-13
 -1      3399 2.00001E+01-6.60240E-04 2.90326E-06 1.20593E-03 1.73569E-13-1.90626E-13
 -1      3400 2.00005E+01-7.51602E-04-4.00580E-06 1.27792E-03 1.05084E-13-1.28178E-13
 -1      3401 2.00000E+01-6.41046E-04-6.22207E-07 1.11874E-03 4.23826E-14-5.58100E-14
 -1      3402 2.00000E+01-6.15640E-04 2.81820E-06 1.02765E-03 1.00999E-13-7.96499E-16
 -1      3403 2.00003E+01-7.31735E-04-3.12892E-06 1.11586E-03 1.87089E-13-1.46381E-13
 -1      3404 1.99999E+01-5.88751E-04-8.63060E-07 9.43475E-04 2.50983E-13 1.42397E-13
 -1      3405 1.99999E+01-5.60021E-04 2.48994E-06 8.58225E-04 2.34246E-13 1.85570E-13
 -1      3406 2.00001E+01-6.80562E-04-2.52170E-06 9.50803E-04 1.58673E-13 6.59737E-14
 -1      3407 1.99999E+01-5.37446E-04-1.35653E-06 7.98489E-04 2.68608E-14 1.01232E-13
 -1      3408 1.99999E+01-5.15334E-04 5.15571E-07 7.21005E-04 8.29075E-14 2.96175E-14
 -1      3409 2.00000E+01-5.70241E-04-6.91801E-07 7.01123E-04 1.49421E-14-3.75630E-13
 -1      3410 2.00000E+01-6.26503E-04-2.53460E-06 8.13162E-04 7.74293E-14-8.00686E-14
 -1      3411 9.40052E+00 3.67667E+00 1.97004E-01-2.95230E+00-2.06665E-13-5.85254E-13
 -1      3412 1.18534E+01 1.12128E+00 1.19013E-01-6.12566E+00-3.48881E-13-5.28716E-13
 -1      3413 2.39619E+01-3.91038E+00-8.51166E-02 3.28542E+00-2.85934E-13-1.49777E-13
 -1      3414 2.19816E+01-3.32742E+00 7.72135E-02 4.36346E+00-3.20974E-13 1.70272E-14
 -1      3415 2.15273E+01-1.04585E+00 7.49395E-03-3.74965E-01 2.76393E-14-1.05035E-13
 -1      3416 2.16547E+01-1.07835E+00-7.23155E-03-5.48964E-01 3.19819E-14-1.08155E-13
 -1      3417 2.19010E+01-1.04958E+00 2.95305E-03-7.73690E-01 5.00382E-14-1.03586E-13
 -1      3418 2.19969E+01-9.51195E-01-4.80151E-03-9.68343E-01 2.55944E-14-1.10118E-13
 -1      3419 2.20446E+01-1.22927E+00-1.16591E-03-5.04123E-01 5.24211E-14-6.15862E-14
 -1      3420 2.07962E+01-6.62933E-01 7.25279E-03 1.06089E-01-1.13575E-13 9.26811E-14
 -1      3421 2.09185E+01-7.79155E-01-3.18343E-03 1.96293E-02-4.65018E-14 1.35129E-14
 -1      3422 2.05244E+01-4.46774E-01 5.50813E-03 2.06782E-01-6.34557E-14 6.81125E-14
 -1      3423 2.06244E+01-5.54414E-01-1.45031E-03 1.57198E-01-8.38310E-14 9.63731E-14
 -1      3424 2.07204E+01-6.73432E-01-6.79100E-03 2.55158E-01-9.38422E-14 4.93771E-14
 -1      3425 2.03253E+01-2.65902E-01 3.81270E-03 2.46967E-01-1.23783E-13 6.72154E-14
 -1      3426 2.04010E+01-3.52709E-01-3.16919E-04 2.24210E-01-9.14324E-14 1.00869E-13
 -1      3427 2.04429E+01-4.34991E-01-5.62527E-03 3.07326E-01-9.84056E-14 7.09778E-14
 -1      3428 2.01887E+01-1.29924E-01 2.42863E-03 2.49154E-01-1.47484E-13 1.45912E-13
 -1      3429 2.02426E+01-1.93301E-01 3.03704E-04 2.44122E-01-1.53827E-13 8.12683E-14
 -1      3430 2.02505E+01-2.44089E-01-4.22506E-03 3.09368E-01-1.36033E-13 1.05963E-13
 -1      3431 2.01005E+01-3.65809E-02 1.40560E-03 2.29908E-01-2.01031E-13 1.80775E-13
 -1      3432 2.01370E+01-7.88532E-02 5.76452E-04 2.35549E-01-1.53650E-13 1.54784E-13
 -1      3433 2.01256E+01-1.05558E-01-2.95417E-03 2.84091E-01-1.77977E-13 1.05292E-13
 -1      3434 2.00472E+01 2.15584E-02 7.04225E-04 2.00399E-01-1.60977E-13 1.76402E-13
 -1      3435 2.00707E+01-3.85479E-03 6.50028E-04 2.11692E-01-1.31386E-13 1.34723E-13
 -1      3436 2.00500E+01-1.36374E-02-1.93356E-03 2.46450E-01-1.88247E-13 1.27185E-13
 -1      3437 2.00172E+01 5.32630E-02 2.56061E-04 1.67699E-01-1.21087E-13 2.18086E-13
 -1      3438 2.00318E+01 4.01766E-02 6.22274E-04 1.81285E-01-1.33376E-13 1.98120E-13
 -1      3439 2.00083E+01 4.12979E-02-1.18771E-03 2.05504E-01-1.25539E-13 1.64404E-13
 -1      3440 2.00021E+01 6.66896E-02-7.69658E-06 1.35930E-01-3.55485E-14 2.28855E-13
 -1      3441 2.00108E+01 6.19170E-02 5.47911E-04 1.49732E-01-8.60659E-14 2.24159E-13
 -1      3442 1.99881E+01 6.93572E-02-6.71474E-04 1.66334E-01-1.03629E-13 1.28596E-13
 -1      3443 1.99958E+01 6.84345E-02-1.47856E-04 1.07221E-01 7.62210E-14 2.97131E-13
 -1      3444 2.00008E+01 6.88382E-02 4.61938E-04 1.20059E-01 2.85245E-14 2.35196E-13
 -1      3445 1.99809E+01 7.93256E-02-3.46511E-04 1.31381E-01-2.78987E-14 2.28118E-13
 -1      3446 1.99943E+01 6.33912E-02-2.07580E-04 8.25009E-02 1.16877E-13 3.47378E-13
 -1      3447 1.99971E+01 6.66877E-02 3.80905E-04 9.37774E-02 5.59957E-14 3.15702E-13
 -1      3448 1.99807E+01 7.80902E-02-1.47641E-04 1.01524E-01 1.49804E-14 3.53849E-13
 -1      3449 1.99951E+01 5.49894E-02-2.18503E-04 6.19730E-02 1.58323E-13 3.81837E-13
 -1      3450 1.99967E+01 5.96112E-02 3.08705E-04 7.14742E-02 2.23050E-13 4.07037E-13
 -1      3451 1.99838E+01 7.06032E-02-3.67311E-05 7.68399E-02 1.23292E-13 4.96751E-13
 -1      3452 1.99968E+01 4.54657E-02-2.02632E-04 4.54127E-02 4.54572E-15 4.07285E-13
 -1      3453 1.99977E+01 5.04139E-02 2.47251E-04 5.31585E-02 1.15844E-13 3.48584E-13
 -1      3454 1.99880E+01 6.02700E-02 1.79602E-05 5.69499E-02 1.22104E-13 5.01288E-13
 -1      3455 1.99985E+01 3.61654E-02-1.74284E-04 3.23834E-02-8.81537E-14 3.17538E-13
 -1      3456 1.99991E+01 4.08565E-02 1.96194E-04 3.85228E-02-6.41461E-14 4.07730E-13
 -1      3457 1.99921E+01 4.92591E-02 3.93415E-05 4.12664E-02-1.36880E-14 2.45508E-13
 -1      3458 2.00000E+01 2.78108E-02-1.42159E-04 2.23671E-02-2.95449E-14 2.86702E-13
 -1      3459 2.00004E+01 3.19462E-02 1.54260E-04 2.71097E-02-5.75287E-14 3.00174E-13
 -1      3460 1.99957E+01 3.88358E-02 4.25212E-05 2.91422E-02-4.34061E-14 1.75098E-13
 -1      3461 2.00010E+01 2.07142E-02-1.11167E-04 1.48403E-02-1.00938E-13 2.85085E-13
 -1      3462 2.00014E+01 2.41796E-02 1.20072E-04 1.84138E-02 6.54571E-14 3.61401E-13
 -1      3463 1.99983E+01 2.96471E-02 3.69317E-05 1.99492E-02-3.42164E-14 3.62779E-13
 -1      3464 2.00017E+01 1.49348E-02-8.37611E-05 9.31671E-03-7.53456E-14 1.04557E-13
 -1      3465 2.00020E+01 1.77269E-02 9.23863E-05 1.19413E-02-1.46907E-13 1.86473E-13
 -1      3466 2.00002E+01 2.19405E-02 2.81203E-05 1.31165E-02 1.17106E-14 1.47857E-13
 -1      3467 2.00020E+01 1.03886E-02-6.08822E-05 5.36728E-03 2.39983E-13-4.00855E-14
 -1      3468 2.00023E+01 1.25648E-02 7.01399E-05 7.24192E-03 1.75614E-13 5.49843E-14
 -1      3469 2.00014E+01 1.57222E-02 1.90945E-05 8.14711E-03 8.03481E-14-6.43948E-14
 -1      3470 2.00021E+01 6.92121E-03-4.25922E-05 2.62775E-03-5.25034E-14 7.58941E-14
 -1      3471 2.00023E+01 8.56703E-03 5.24291E-05 3.92413E-03 1.68521E-13 3.21994E-14
 -1      3472 2.00021E+01 1.08659E-02 1.12836E-05 4.62114E-03 9.56928E-14 1.00516E-13
 -1      3473 2.00020E+01 4.35387E-03-2.84889E-05 7.97892E-04-5.99451E-14-2.26152E-14
 -1      3474 2.00022E+01 5.56227E-03 3.84829E-05 1.65895E-03-8.75141E-14 1.01330E-14
 -1      3475 2.00024E+01 7.18418E-03 5.19276E-06 2.19250E-03-2.25384E-14 1.31268E-13
 -1      3476 2.00018E+01 2.51020E-03-1.79657E-05-3.63611E-04 3.16584E-14 3.01830E-15
 -1      3477 2.00020E+01 3.37017E-03 2.76393E-05 1.77750E-04 4.95663E-14-6.24925E-14
 -1      3478 2.00024E+01 4.47283E-03 8.29212E-07 5.81892E-04 4.25652E-14-1.01942E-13
 -1      3479 2.00015E+01 1.23061E-03-1.03666E-05-1.04634E-03 1.14953E-13-9.14828E-14
 -1      3480 2.00017E+01 1.82121E-03 1.93287E-05-7.33513E-04 6.53742E-14 9.33063E-15
 -1      3481 2.00022E+01 2.53601E-03-2.03490E-06-4.31794E-04-2.00938E-14 4.90476E-15
 -1      3482 2.00013E+01 3.78414E-04-5.07091E-06-1.39608E-03 9.71550E-14-5.82304E-14
 -1      3483 2.00014E+01 7.66500E-04 1.30629E-05-1.24158E-03 9.14794E-14-7.10219E-14
 -1      3484 2.00020E+01 1.19942E-03-3.70935E-06-1.02037E-03 4.19210E-14 3.63767E-14
 -1      3485 2.00010E+01-1.58867E-04-1.53352E-06-1.52252E-03-2.09439E-14 2.00819E-14
 -1      3486 2.00011E+01 8.11830E-05 8.42633E-06-1.47354E-03 4.09134E-14-1.18638E-15
 -1      3487 2.00017E+01 3.15357E-04-4.50339E-06-1.31486E-03 8.49497E-15 1.35841E-13
 -1      3488 2.00008E+01-4.70970E-04 7.01571E-07-1.50632E-03-1.11659E-13-2.41458E-14
 -1      3489 2.00009E+01-3.35827E-04 5.07083E-06-1.52411E-03-4.36629E-14 4.34508E-14
 -1      3490 2.00014E+01-2.36853E-04-4.68660E-06-1.41323E-03-2.85041E-14 1.43033E-13
 -1      3491 2.00006E+01-6.27717E-04 1.99956E-06-1.40528E-03 7.26916E-15-1.77651E-13
 -1      3492 2.00006E+01-5.64136E-04 2.71139E-06-1.46218E-03-9.25975E-14-1.55627E-13
 -1      3493 2.00011E+01-5.52971E-04-4.47522E-06-1.38718E-03 2.61865E-14 4.43820E-14
 -1      3494 2.00004E+01-6.82290E-04 2.64771E-06-1.25948E-03 1.72042E-13-2.65031E-13
 -1      3495 2.00004E+01-6.65025E-04 1.11438E-06-1.33643E-03 4.26203E-14-2.99484E-13
 -1      3496 2.00008E+01-7.07234E-04-4.03587E-06-1.28785E-03 1.30693E-13-1.40894E-13
 -1      3497 2.00002E+01-6.74817E-04 2.69027E-06-1.09572E-03 1.60311E-13-1.48538E-13
 -1      3498 2.00003E+01-6.84801E-04 6.05290E-08-1.18008E-03 2.49408E-13-2.31010E-13
 -1      3499 2.00006E+01-7.55932E-04-3.48847E-06-1.15057E-03 1.35642E-13-4.83192E-13
 -1      3500 2.00001E+01-6.36223E-04 1.21640E-07-9.33669E-04 3.80499E-14-1.68667E-13
 -1      3501 2.00001E+01-6.54695E-04 1.26737E-07-1.01463E-03 9.07017E-14-6.74963E-14
 -1      3502 2.00004E+01-7.40457E-04-2.62925E-06-9.98802E-04 1.10558E-13-1.70954E-13
 -1      3503 2.00005E+01-8.55057E-04 1.47365E-06-6.60408E-05-1.36324E-13-4.42378E-13
 -1      3504 2.00004E+01-8.44955E-04 3.50459E-07-1.78913E-04 1.80747E-14 1.04431E-13
 -1      3505 1.83968E+01-1.76618E+00 3.03509E-02-6.59823E+00-3.74575E-13-2.75956E-13
 -1      3506 2.54397E+01 2.76903E+00-7.78767E-02-1.86129E+00 3.32623E-13-3.09466E-13
 -1      3507 2.60766E+01 1.34414E+00 2.21892E-02-1.95703E+00 2.03657E-13-3.44613E-13
 -1      3508 2.00002E+01-7.02950E-04-2.38403E-06 5.81698E-04-3.29171E-14-1.43691E-13
 -1      3509 2.00003E+01-7.46887E-04 3.22678E-06 5.03843E-04-2.11927E-13-1.30485E-13
 -1      3510 2.42616E+01-2.29605E+00 4.71618E-03-3.40278E+00-2.45449E-13 5.82867E-16
 -1      3511 2.46779E+01-1.63879E+00-3.00806E-02-1.92723E+00-1.97781E-13 4.93104E-14
 -1      3512 2.11386E+01-8.83289E-01 8.26300E-03-8.07989E-02 2.76202E-14-3.35698E-14
 -1      3513 2.12734E+01-9.81029E-01-5.42902E-03-2.11727E-01 4.18577E-14-4.11210E-14
 -1      3514 2.15488E+01-1.15462E+00-5.87557E-03-1.23706E-01 1.64997E-14-3.69818E-14
 -1      3515 2.10924E+01-9.32862E-01-7.05813E-03 1.22256E-01-4.83352E-14 5.26968E-14
 -1      3516 2.21246E+01 8.01904E-01-2.14168E-02-1.59075E+00 1.12311E-13 1.48035E-14
 -1      3517 2.20507E+01 1.32343E+00 1.14884E-02-1.44389E+00 1.40824E-13-2.71311E-15
 -1      3518 2.22144E+01 1.87666E+00 1.22791E-02 1.48504E+00 2.12747E-13 6.91981E-14
 -1      3519 2.23403E+01 1.51185E+00-2.05734E-02 1.75356E+00 1.88450E-13 7.14813E-14
 -1      3520 2.00001E+01-6.64681E-04-1.84685E-06-5.38541E-04-1.15817E-13 1.16668E-13
 -1      3521 1.52086E+01 2.14207E+00 1.42884E-03-6.28527E-01-2.21117E-14 1.26236E-13
 -1      3522 1.60327E+01 2.03741E+00-1.83168E-02-6.04297E-01-8.31279E-14 8.35595E-14
 -1      3523 1.62168E+01 2.00207E+00 4.28742E-02 2.46163E-02-5.75828E-14 1.87967E-13
 -1      3524 2.45948E+01 4.54073E+00-5.15483E-02-8.03144E-01 3.41279E-13-6.30451E-14
 -1      3525 2.50822E+01 3.91206E+00-3.01806E-02-1.53983E+00 3.25198E-13-1.96121E-13
 -1      3526 1.19722E+01 1.81914E+00 3.37542E-02-1.62678E+00 4.03184E-14 3.74700E-13
 -1      3527 2.50488E+01-1.18229E+00 2.34408E-02-7.74705E-01-1.34164E-13 8.09095E-14
 -1      3528 2.62255E+01-2.93680E+00-9.45744E-02 7.21733E-01-9.35237E-14-4.72235E-13
 -1      3529 2.55486E+01-3.47350E+00 6.28365E-02 1.98002E+00-2.34166E-13-3.03712E-13
 -1      3530 2.63880E+01-4.73645E-01-9.28168E-02-1.36372E+00 9.65252E-14-4.03875E-13
 -1      3531 2.67374E+01-1.74628E+00 4.36092E-02-4.61972E-01 2.29261E-14-5.20681E-13
 -1      3532 2.55033E+01-8.65263E-01-5.92218E-02 4.65333E-02-5.98215E-14 1.24357E-13
 -1      3533 1.94320E+01-2.70858E+00-5.67124E-02 5.13514E+00-3.81226E-13 2.08715E-13
 -1      3534 1.73500E+01-1.55745E+00 6.12282E-02 5.17903E+00-4.01252E-13 2.77528E-13
 -1      3535 1.21530E+01 2.07189E+00 1.01377E-01-6.72181E-01-4.53635E-14 3.41491E-13
 -1      3536 1.29679E+01 2.05262E+00 7.30465E-02-1.21218E+00 3.15891E-14 2.27846E-13
 -1      3537 1.24100E+01 2.02173E+00 6.05978E-03 2.22325E-01-1.41399E-13 2.55400E-13
 -1      3538 2.50238E+01-2.79727E-01 4.83735E-03 7.44577E-01-1.47705E-14 1.10719E-13
 -1      3539 2.61863E+01-1.91844E-01 1.95275E-02 1.01784E+00 2.22947E-14 2.08590E-13
 -1      3540 2.60098E+01 8.86078E-01-6.68340E-02 1.79796E+00 1.31721E-13 2.19477E-13
 -1      3541 2.45982E+01 9.83021E-02-4.33131E-02 1.31216E+00 5.23542E-14 1.01674E-13
 -1      3542 1.40317E+01 2.18147E+00-3.02261E-03-9.81372E-01-3.72905E-14 2.32772E-13
 -1      3543 1.64043E+01-8.91732E-01 4.77360E-02 4.90867E+00-3.41952E-13 3.36071E-13
 -1      3544 1.54495E+01-1.11122E-01 1.17148E-02 4.22862E+00-2.65763E-13 3.80702E-13
 -1      3545 1.78449E+01-1.07734E+00 2.66495E-02 4.34454E+00-3.10032E-13 2.22024E-13
 -1      3546 2.57189E+01 1.52633E+00-1.86657E-02 2.13158E+00 1.70719E-13 2.18219E-13
 -1      3547 2.49391E+01 2.23273E+00-5.32435E-02 2.17359E+00 2.24142E-13 1.67207E-13
 -1      3548 2.49959E+01 8.13460E-01-1.17246E-02 1.81345E+00 1.07270E-13 1.62698E-13
 -1      3549 2.00000E+01-6.16312E-04 2.57665E-06 6.61732E-04 3.58244E-14-2.50738E-13
 -1      3550 1.23990E+01 1.32921E+00 1.01857E-01 2.78578E+00-3.23660E-13 4.72726E-13
 -1      3551 1.28849E+01 1.76486E+00 2.31949E-02 1.60731E+00-2.89362E-13 4.30669E-13
 -1      3552 1.38232E+01 9.47015E-01 3.65974E-02 3.19046E+00-2.62504E-13 5.94733E-13
 -1      3553 2.19022E+01 1.79161E+00-1.59090E-02-1.15637E+00 1.66675E-13 1.95319E-14
 -1      3554 2.18462E+01 2.17426E+00 9.34265E-03-8.10401E-01 2.26776E-13 1.33823E-14
 -1      3555 2.25332E+01 1.74825E+00-2.52608E-04-1.39301E+00 1.69386E-13-4.71125E-14
 -1      3556 2.00002E+01-6.77992E-04 7.86713E-07 6.81381E-04-5.47655E-14-1.23686E-13
 -1      3557 2.00001E+01-6.73699E-04-1.59951E-06-6.07607E-04-8.39636E-14 1.83752E-13
 -1      3558 2.00001E+01-6.70503E-04-1.35572E-06-6.83580E-04-4.00024E-14-3.95390E-14
 -1      3559 2.00003E+01-7.46308E-04 3.01182E-06-4.90552E-04-1.20167E-13 1.47525E-13
 -1      3560 2.43937E+01-3.31009E+00 2.45457E-02 2.22537E+00-2.39229E-13-2.15305E-13
 -1      3561 2.24769E+01-1.00996E+00 6.28953E-03-9.86002E-01 5.44207E-14-6.01029E-14
 -1      3562 2.21682E+01-7.77154E-01-5.46243E-03-1.20755E+00 2.07191E-14-8.48018E-14
 -1      3563 2.22145E+01-5.04868E-01 1.35554E-03-1.36857E+00 5.86135E-14-4.43134E-14
 -1      3564 2.00001E+01-6.45257E-04-2.56354E-06-8.52775E-04 6.83949E-14-1.36303E-13
 -1      3565 2.00005E+01-8.56631E-04 1.25750E-06 6.35970E-05-3.60412E-14-5.58399E-13
 -1      3566 2.00006E+01-8.91975E-04-2.10871E-06-2.66347E-06-2.77973E-13-4.80727E-13
 -1      3567 2.00004E+01-8.46912E-04 5.73116E-07 1.75548E-04-1.53249E-13-2.60975E-13
 -1      3568 2.45150E+01 2.67023E+00-3.77434E-02-1.62506E+00 2.45071E-13-1.62885E-13
 -1      3569 2.00004E+01-8.04020E-04-1.88991E-06 4.90796E-04-2.09451E-13 6.85162E-15
 -1      3570 2.00003E+01-7.94594E-04-5.95632E-07 4.00004E-04-3.86137E-13-1.30066E-13
 -1      3571 2.00004E+01-8.23073E-04 2.17680E-06 3.00139E-04-1.78465E-13-1.46619E-13
 -1      3572 2.00004E+01-8.19526E-04 2.29682E-06-2.91938E-04 1.54496E-13 3.89140E-13
 -1      3573 2.00003E+01-7.91392E-04-5.75791E-07-3.90871E-04-1.22625E-13 2.21292E-13
 -1      3574 2.00004E+01-8.02841E-04-1.77354E-06-4.63572E-04-1.27722E-13 2.48085E-13
 -1      3575 2.00005E+01-8.67279E-04-1.95697E-06-2.50142E-04-1.37872E-13 1.20565E-13
 -1      3576 2.49687E+01 4.14535E+00-4.51869E-02 1.53456E+00 3.34181E-13 1.56306E-13
 -1      3577 2.39621E+01 4.49297E+00-2.14490E-03 2.21498E-01 3.79523E-13 5.07986E-14
 -1      3578 2.42679E+01 4.54171E+00-6.10536E-02-3.50820E-01 3.65544E-13-3.53942E-14
 -1      3579 2.37468E+01 3.80164E+00-2.65483E-02-7.53450E-01 2.83818E-13-5.27122E-14
 -1      3580 2.09918E+01-2.65660E+00 3.59631E-02 4.15383E+00-3.34162E-13 8.31618E-14
 -1      3581 2.20192E+01 2.18411E+00-1.31780E-02 1.12768E+00 2.31367E-13 4.74224E-14
 -1      3582 2.26535E+01 2.28687E+00-9.63431E-03 1.44084E+00 2.38853E-13 6.14140E-14
 -1      3583 2.19148E+01 2.43198E+00 1.26354E-02 7.18302E-01 2.61286E-13 3.01868E-14
 -1      3584 2.24783E+01 1.14521E+00 6.64620E-03 1.89439E+00 1.92036E-13 8.85874E-14
 -1      3585 2.25216E+01 8.72487E-01-1.46119E-02 1.99632E+00 1.79647E-13 9.97723E-14
 -1      3586 2.29418E+01 1.49589E+00 1.58506E-02 1.96025E+00 1.91743E-13 1.04953E-13
 -1      3587 1.42145E+01 2.19557E+00 3.96497E-02-8.36995E-02-5.79725E-14 1.12377E-13
 -1      3588 2.22548E+01 8.21594E-01 1.05154E-02 2.00308E+00 1.76342E-13 1.58090E-13
 -1      3589 2.22499E+01-1.39362E-01-1.43669E-02-1.56338E+00 4.15579E-14-1.10944E-14
 -1      3590 2.22163E+01 3.15590E-01 6.94597E-03-1.60058E+00 9.53538E-14-9.08312E-15
 -1      3591 2.27422E+01 6.26374E-01 6.56020E-03-1.67433E+00 1.27688E-13-9.70023E-14
 -1      3592 2.27425E+01-4.59411E-01 3.52779E-03-1.44151E+00 5.97209E-14-8.31006E-14
 -1      3593 2.26286E+01 8.16804E-01 2.85833E-03 1.97210E+00 1.74140E-13 8.88455E-14
 -1      3594 2.27372E+01 7.68343E-01-1.61185E-02 1.96628E+00 1.63620E-13 5.65288E-14
 -1      3595 2.32241E+01 7.00838E-01 5.72199E-03 1.87110E+00 1.36778E-13 3.10633E-14
 -1      3596 2.31251E+01 9.14060E-01 1.15488E-02 2.00692E+00 1.52779E-13 3.75824E-14
 -1      3597 2.55152E+01 1.91040E-01-2.90376E-02-1.58219E+00 1.26316E-13-3.00988E-13
 -1      3598 2.57926E+01-2.26719E+00-1.46619E-02 5.44193E-02-4.84258E-14-4.41619E-13
 -1      3599 1.80478E+01 1.30927E+00-1.70816E-02 2.49366E-03-1.11246E-13 2.72293E-13
 -1      3600 1.84234E+01 1.18218E+00-4.07744E-03-5.87279E-02-5.10065E-14 3.29938E-13
 -1      3601 1.86938E+01 1.05198E+00-1.11436E-02-1.46291E-01 2.04968E-15 2.51653E-13
 -1      3602 1.89444E+01 9.34299E-01-3.46705E-03-1.66421E-01 8.94761E-14 1.65215E-13
 -1      3603 1.85508E+01 1.08416E+00 1.34538E-02 1.48626E-01-4.94758E-14 2.77084E-13
 -1      3604 1.91359E+01 8.20914E-01-7.15563E-03-2.09418E-01 3.73466E-14 1.17232E-13
 -1      3605 1.93016E+01 7.21282E-01-2.74207E-03-2.06009E-01 2.78296E-14 5.45825E-14
 -1      3606 1.90067E+01 8.72768E-01 9.44383E-03-1.59502E-02 3.08488E-15 4.94856E-14
 -1      3607 1.94414E+01 6.24735E-01-4.30737E-03-2.22375E-01 1.32601E-14-7.40760E-14
 -1      3608 1.95525E+01 5.40808E-01-2.20907E-03-2.06312E-01-1.05733E-13-1.08954E-13
 -1      3609 1.93329E+01 6.80095E-01 6.38139E-03-9.84340E-02-6.48154E-14-9.75746E-14
 -1      3610 1.96436E+01 4.68974E-01-2.53406E-03-2.06431E-01-3.64913E-14 1.50108E-14
 -1      3611 1.97107E+01 4.07022E-01-1.81981E-03-1.86495E-01 1.46978E-13 3.13165E-14
 -1      3612 1.95578E+01 5.21877E-01 4.56192E-03-1.30190E-01 2.36265E-14-1.39257E-13
 -1      3613 1.97734E+01 3.52224E-01-1.35337E-03-1.79002E-01 1.27807E-13-7.72684E-14
 -1      3614 1.98156E+01 3.04423E-01-1.44590E-03-1.58679E-01 5.33885E-14-1.00846E-13
 -1      3615 1.97070E+01 3.98119E-01 3.08934E-03-1.32392E-01 5.83466E-14-2.88259E-14
 -1      3616 1.98584E+01 2.62905E-01-6.85877E-04-1.48063E-01 2.25173E-14-1.73768E-13
 -1      3617 1.98846E+01 2.26596E-01-1.10988E-03-1.29476E-01-9.35477E-14-2.02772E-13
 -1      3618 1.98084E+01 3.01314E-01 2.08402E-03-1.20379E-01 1.66854E-14-7.68071E-14
 -1      3619 1.99135E+01 1.95405E-01-2.98099E-04-1.18298E-01-5.91999E-14-1.25570E-13
 -1      3620 1.99294E+01 1.68029E-01-8.42486E-04-1.02271E-01-1.75441E-14-3.87616E-14
 -1      3621 1.98766E+01 2.26544E-01 1.38064E-03-1.02494E-01-4.52133E-14-1.17364E-13
 -1      3622 1.99488E+01 1.44660E-01-7.81794E-05-9.18297E-02-9.66339E-14-8.93455E-14
 -1      3623 1.99583E+01 1.24062E-01-6.33801E-04-7.85635E-02-7.00771E-14-6.37966E-14
 -1      3624 1.99222E+01 1.69434E-01 9.12989E-04-8.33041E-02-6.04674E-14 8.04061E-15
 -1      3625 1.99713E+01 1.06575E-01 3.49168E-05-6.94875E-02-6.76943E-15-1.17187E-13
 -1      3626 1.99767E+01 9.11027E-02-4.72167E-04-5.88323E-02-6.39475E-14 4.05979E-14
 -1      3627 1.99524E+01 1.25965E-01 5.97789E-04-6.52939E-02-1.05186E-13-3.07066E-14
 -1      3628 1.99853E+01 7.80261E-02 8.60757E-05-5.13073E-02-1.31392E-13 3.61440E-14
 -1      3629 1.99883E+01 6.64228E-02-3.48438E-04-4.29542E-02-2.50853E-13 1.29298E-14
 -1      3630 1.99722E+01 9.29972E-02 3.87432E-04-4.96100E-02-1.47799E-13-7.82418E-14
 -1      3631 1.99938E+01 5.66553E-02 1.02415E-04-3.69313E-02-2.49802E-13 1.22333E-13
 -1      3632 1.99954E+01 4.79730E-02-2.54660E-04-3.05200E-02-1.41872E-13 1.99257E-13
 -1      3633 1.99851E+01 6.80718E-02 2.48260E-04-3.66047E-02-1.58091E-13-3.86426E-14
 -1      3634 1.99989E+01 4.06934E-02 1.00211E-04-2.58378E-02-6.25540E-14 2.73368E-13
 -1      3635 1.99996E+01 3.42203E-02-1.84103E-04-2.10141E-02 2.67577E-14 3.66771E-13
 -1      3636 1.99932E+01 4.92931E-02 1.56687E-04-2.62075E-02-5.62282E-14 3.05476E-13
 -1      3637 2.00018E+01 2.88164E-02 8.91597E-05-1.74685E-02-4.77216E-14 3.71596E-13
 -1      3638 2.00019E+01 2.40169E-02-1.31351E-04-1.39115E-02-1.16470E-13 2.77827E-13
 -1      3639 1.99982E+01 3.52106E-02 9.67073E-05-1.81427E-02 1.63668E-14 4.84064E-13
 -1      3640 2.00032E+01 2.00301E-02 7.48415E-05-1.12941E-02-1.55799E-13 1.72358E-13
 -1      3641 2.00031E+01 1.64993E-02-9.21695E-05-8.72717E-03-1.04131E-13 2.32171E-13
 -1      3642 2.00012E+01 2.47162E-02 5.76348E-05-1.20546E-02-2.16783E-13 3.26319E-13
 -1      3643 2.00038E+01 1.35837E-02 6.02983E-05-6.84575E-03-3.37134E-14 2.37545E-13
 -1      3644 2.00035E+01 1.10135E-02-6.32976E-05-5.03818E-03-5.00222E-15 2.82355E-13
 -1      3645 2.00028E+01 1.69611E-02 3.23826E-05-7.57863E-03-3.13049E-14 3.54123E-13
 -1      3646 2.00038E+01 8.90625E-03 4.70434E-05-3.72556E-03-3.55569E-14 2.55211E-13
 -1      3647 2.00035E+01 7.06109E-03-4.22341E-05-2.48971E-03 4.09096E-14 4.31269E-13
 -1      3648 2.00035E+01 1.12923E-02 1.62648E-05-4.37778E-03-2.62476E-14 1.58740E-13
 -1      3649 2.00036E+01 5.56143E-03 3.57006E-05-1.60634E-03 8.65931E-14 3.96318E-13
 -1      3650 2.00033E+01 4.26025E-03-2.70621E-05-7.92828E-04 3.00008E-13 2.36064E-13
 -1      3651 2.00037E+01 7.20600E-03 6.18280E-06-2.15929E-03 3.70412E-14 2.36754E-13
 -1      3652 2.00032E+01 3.21433E-03 2.63992E-05-2.25799E-04 2.48380E-13 2.28492E-14
 -1      3653 2.00029E+01 2.31790E-03-1.63116E-05 2.82176E-04 3.27999E-13-8.42492E-14
 -1      3654 2.00035E+01 4.31209E-03 8.30882E-08-6.79298E-04 9.25653E-14 1.08512E-13
 -1      3655 2.00027E+01 1.60758E-03 1.90133E-05 6.21889E-04 6.58918E-13-2.83506E-13
 -1      3656 2.00025E+01 1.00892E-03-8.85482E-06 9.14017E-04 8.53470E-13-2.38479E-13
 -1      3657 2.00032E+01 2.30878E-03-3.40105E-06 2.59001E-04 4.26725E-13-6.61840E-14
 -1      3658 2.00023E+01 5.43725E-04 1.33023E-05 1.09500E-03 7.15361E-13-5.01677E-13
 -1      3659 2.00020E+01 1.60924E-04-3.82801E-06 1.23896E-03 6.10518E-13-4.93468E-13
 -1      3660 2.00028E+01 9.62987E-04-5.18373E-06 8.10228E-04 6.25391E-13-5.74227E-13
 -1      3661 2.00018E+01-1.28171E-04 8.99061E-06 1.31287E-03 5.44755E-13-5.81867E-13
 -1      3662 2.00016E+01-3.57436E-04-5.71908E-07 1.35878E-03 2.89849E-13-3.86248E-13
 -1      3663 2.00023E+01 9.55182E-05-5.87923E-06 1.09302E-03 5.77816E-13-5.67095E-13
 -1      3664 2.00014E+01-5.22733E-04 5.80899E-06 1.36367E-03 1.95984E-13-2.35960E-13
 -1      3665 2.00013E+01-6.45507E-04 1.41820E-06 1.34786E-03 4.46018E-14-7.13524E-14
 -1      3666 2.00019E+01-4.30471E-04-5.90027E-06 1.19633E-03 3.98791E-13-3.97372E-13
 -1      3667 2.00011E+01-7.26300E-04 3.51622E-06 1.31107E-03-1.40913E-13-5.81151E-14
 -1      3668 2.00010E+01-7.77782E-04 2.52286E-06 1.25926E-03-6.00758E-14 4.02701E-14
 -1      3669 2.00015E+01-7.18567E-04-5.51761E-06 1.18530E-03 1.12909E-14-3.30550E-13
 -1      3670 2.00008E+01-8.03369E-04 1.90755E-06 1.19993E-03 2.98673E-14-1.83248E-14
 -1      3671 2.00007E+01-8.09661E-04 3.07648E-06 1.12974E-03 8.91942E-14-4.63856E-14
 -1      3672 2.00011E+01-8.46477E-04-4.90760E-06 1.10651E-03-5.43411E-14-2.30340E-13
 -1      3673 2.00006E+01-8.02447E-04 6.02750E-07 1.06089E-03 1.24743E-13-1.29984E-14
 -1      3674 2.00005E+01-7.82432E-04 3.04136E-06 9.83338E-04 1.79630E-13 6.74635E-14
 -1      3675 2.00008E+01-8.71829E-04-4.14166E-06 9.92240E-04 1.32085E-13 7.63099E-14
 -1      3676 2.00003E+01-7.57839E-04-2.93340E-07 9.12755E-04 8.47798E-14 1.49154E-13
 -1      3677 2.00003E+01-7.26213E-04 2.95511E-06 8.34235E-04 1.15679E-13 1.10272E-13
 -1      3678 2.00006E+01-8.38086E-04-2.79537E-06 8.65260E-04 2.60605E-13 5.59557E-14
 -1      3679 2.00002E+01-7.03392E-04 5.56232E-07 7.32825E-04 6.53062E-14-5.10989E-14
 -1      3680 2.21597E+01-1.42770E+00 1.08256E-02-1.27650E-01 1.16908E-14-6.27519E-14
 -1      3681 2.23840E+01-1.45489E+00-9.61473E-03-3.43762E-01 3.68547E-14-1.03348E-13
 -1      3682 2.03538E+01-3.55459E-01 4.50137E-03 4.15928E-01-1.50251E-13 2.36271E-13
 -1      3683 2.04690E+01-4.73036E-01 1.30868E-03 4.13687E-01-8.10993E-14 2.24499E-13
 -1      3684 2.06327E+01-6.02500E-01 7.09561E-03 4.26471E-01-1.03309E-13 1.52053E-13
 -1      3685 2.07903E+01-7.50056E-01-3.92599E-05 3.95225E-01-1.26731E-13 1.05698E-13
 -1      3686 2.04836E+01-5.57178E-01-8.37567E-03 5.50428E-01-1.50385E-13 3.51113E-13
 -1      3687 2.00598E+01-4.56974E-02 1.30677E-03 3.15032E-01-1.79313E-13 1.71277E-13
 -1      3688 2.01101E+01-1.02021E-01 1.74593E-03 3.35684E-01-1.19234E-13 1.59826E-13
 -1      3689 1.99982E+01 3.23853E-02 5.13989E-04 2.57393E-01-2.24302E-13 1.51603E-13
 -1      3690 2.00281E+01-1.34779E-03 1.51145E-03 2.79953E-01-1.93519E-13 1.67387E-13
 -1      3691 1.99916E+01-5.45387E-03-2.55472E-03 3.28178E-01-1.92601E-13 1.81664E-13
 -1      3692 1.99687E+01 7.49464E-02 4.39063E-05 2.04737E-01-9.77182E-14 4.83662E-14
 -1      3693 1.99849E+01 5.76571E-02 1.21235E-03 2.26359E-01-1.27945E-13 6.59763E-14
 -1      3694 1.99495E+01 6.39536E-02-1.48622E-03 2.57256E-01-1.29137E-13 8.78938E-14
 -1      3695 1.99586E+01 9.29597E-02-2.03770E-04 1.59543E-01-1.39101E-13 1.02352E-13
 -1      3696 1.99663E+01 8.66994E-02 9.24075E-04 1.78799E-01-9.01527E-14 7.12286E-14
 -1      3697 1.99349E+01 9.85887E-02-7.69747E-04 1.97680E-01-7.45280E-14 4.14571E-14
 -1      3698 1.99593E+01 9.54026E-02-3.15591E-04 1.22119E-01-3.43825E-14 9.85657E-14
 -1      3699 1.99619E+01 9.59820E-02 6.78082E-04 1.38579E-01-5.76956E-14 5.58877E-14
 -1      3700 1.99356E+01 1.10064E-01-3.53054E-04 1.49642E-01-1.45652E-13-1.66902E-14
 -1      3701 1.99652E+01 8.86743E-02-3.44424E-04 9.19045E-02-5.99887E-14 3.39406E-13
 -1      3702 1.99651E+01 9.31248E-02 4.94842E-04 1.05529E-01-1.03671E-13 2.40879E-13
 -1      3703 1.99439E+01 1.07483E-01-9.03925E-05 1.11703E-01-1.74580E-13 1.58216E-13
 -1      3704 1.99729E+01 7.73492E-02-3.26318E-04 6.80207E-02 7.78799E-14 5.41814E-13
 -1      3705 1.99716E+01 8.35944E-02 3.56236E-04 7.90284E-02 8.07469E-14 4.21778E-13
 -1      3706 1.99552E+01 9.69917E-02 4.68117E-05 8.22947E-02-6.69335E-14 3.39033E-13
 -1      3707 1.99806E+01 6.44207E-02-2.85998E-04 4.94503E-02 1.75674E-13 4.92533E-13
 -1      3708 1.99789E+01 7.11355E-02 2.56332E-04 5.81671E-02 1.32455E-13 4.60575E-13
 -1      3709 1.99665E+01 8.29508E-02 1.07064E-04 5.98137E-02 9.47113E-14 3.80664E-13
 -1      3710 1.99872E+01 5.17027E-02-2.38087E-04 3.52228E-02 2.89875E-14 2.62718E-13
 -1      3711 1.99856E+01 5.81071E-02 1.85674E-04 4.20015E-02 1.43227E-13 3.92895E-13
 -1      3712 1.99766E+01 6.81114E-02 1.23183E-04 4.28107E-02 2.08167E-13 4.46066E-13
 -1      3713 1.99924E+01 4.01864E-02-1.90649E-04 2.44800E-02-1.12548E-13 4.00196E-13
 -1      3714 1.99912E+01 4.58738E-02 1.35767E-04 2.96598E-02-8.80696E-14 2.99630E-13
 -1      3715 1.99849E+01 5.40744E-02 1.15876E-04 3.00794E-02 1.32953E-14 3.57219E-13
 -1      3716 1.99964E+01 3.03182E-02-1.47782E-04 1.64922E-02 7.92151E-15 3.30738E-13
 -1      3717 1.99955E+01 3.51245E-02 1.00258E-04 2.03797E-02 3.01466E-14 3.61581E-13
 -1      3718 1.99912E+01 4.16629E-02 9.79320E-05 2.06476E-02-4.75495E-14 3.74680E-13
 -1      3719 1.99991E+01 2.22039E-02-1.11210E-04 1.06532E-02 2.20506E-14 1.61488E-13
 -1      3720 1.99985E+01 2.61135E-02 7.46579E-05 1.35147E-02 4.87445E-14 2.53781E-13
 -1      3721 1.99958E+01 3.11970E-02 7.68581E-05 1.37443E-02 5.30307E-14 3.01308E-13
 -1      3722 2.00009E+01 1.57524E-02-8.12737E-05 6.46794E-03 1.72333E-13 5.05485E-14
 -1      3723 2.00006E+01 1.88327E-02 5.58936E-05 8.52904E-03 7.00670E-14 2.28964E-14
 -1      3724 1.99990E+01 2.26906E-02 5.67105E-05 8.76426E-03 1.36839E-13 1.72559E-13
 -1      3725 2.00020E+01 1.07723E-02-5.75671E-05 3.53817E-03-6.46285E-14 2.40128E-13
 -1      3726 2.00018E+01 1.31308E-02 4.19070E-05 4.98528E-03 9.73797E-14 1.32885E-13
 -1      3727 2.00010E+01 1.59876E-02 3.93852E-05 5.23475E-03 5.44823E-14 1.27812E-13
 -1      3728 2.00025E+01 7.03354E-03-3.93251E-05 1.54726E-03 9.42366E-14 2.15443E-13
 -1      3729 2.00025E+01 8.79024E-03 3.13310E-05 2.53172E-03 4.92527E-15 2.64939E-13
 -1      3730 2.00022E+01 1.08508E-02 2.54997E-05 2.78869E-03-3.31891E-14 2.21649E-13
 -1      3731 2.00026E+01 4.30429E-03-2.56614E-05 2.46660E-04-4.63769E-14 1.95556E-13
 -1      3732 2.00027E+01 5.57623E-03 2.32535E-05 8.89150E-04 1.14269E-13 2.04109E-13
 -1      3733 2.00028E+01 7.01865E-03 1.49725E-05 1.14241E-03 3.07875E-14 2.64325E-13
 -1      3734 2.00025E+01 2.37147E-03-1.57016E-05-5.56219E-04 8.09772E-14 5.57690E-14
 -1      3735 2.00027E+01 3.26408E-03 1.70545E-05-1.61096E-04 5.27349E-14 1.59371E-13
 -1      3736 2.00029E+01 4.23768E-03 7.38508E-06 7.80344E-05 5.42565E-14 3.80507E-13
 -1      3737 2.00023E+01 1.05004E-03-8.65322E-06-1.00856E-03-8.00823E-14 1.36267E-13
 -1      3738 2.00025E+01 1.65362E-03 1.22994E-05-7.87918E-04 1.46855E-14 1.18065E-13
 -1      3739 2.00028E+01 2.28002E-03 2.19861E-06-5.70448E-04-4.66316E-15-4.45149E-14
 -1      3740 2.00020E+01 1.85831E-04-3.83543E-06-1.22112E-03-9.90007E-14 2.17321E-13
 -1      3741 2.00021E+01 5.74849E-04 8.67118E-06-1.11981E-03 9.78267E-16 1.66429E-13
 -1      3742 2.00026E+01 9.50622E-04-1.12712E-06-9.28272E-04-6.02181E-14 1.41147E-13
 -1      3743 2.00016E+01-3.45615E-04-6.83590E-07-1.27580E-03-6.88204E-15 2.23263E-13
 -1      3744 2.00018E+01-1.11524E-04 5.92941E-06-1.25292E-03-7.31476E-14 2.39913E-13
 -1      3745 2.00022E+01 8.85358E-05-3.07376E-06-1.08874E-03-7.94118E-14 2.18657E-13
 -1      3746 2.00013E+01-6.42187E-04 1.26338E-06-1.23196E-03 1.76024E-13 7.69858E-14
 -1      3747 2.00015E+01-5.16436E-04 3.88734E-06-1.25783E-03 5.70431E-14 1.52074E-13
 -1      3748 2.00019E+01-4.35239E-04-4.03834E-06-1.12032E-03 3.15704E-14 1.95258E-13
 -1      3749 2.00010E+01-7.79258E-04 2.36706E-06-1.13159E-03 2.63393E-13-1.52248E-13
 -1      3750 2.00011E+01-7.26160E-04 2.40838E-06-1.18524E-03 2.44163E-13-2.97658E-14
 -1      3751 2.00015E+01-7.21612E-04-4.32531E-06-1.07231E-03 2.58197E-13-6.11195E-14
 -1      3752 2.00007E+01-8.14111E-04 2.57611E-06-1.00339E-03 2.12293E-13-2.12721E-13
 -1      3753 2.00009E+01-8.06688E-04 1.33847E-06-1.07050E-03 2.20355E-13-2.32641E-13
 -1      3754 2.00012E+01-8.48164E-04-4.20370E-06-9.79410E-04 3.07379E-13-1.10537E-14
 -1      3755 2.00005E+01-7.92848E-04 1.10152E-06-8.65172E-04-1.39716E-13 4.85676E-14
 -1      3756 2.00006E+01-8.07635E-04 2.80483E-07-9.36295E-04 2.34551E-14-4.46893E-14
 -1      3757 2.00009E+01-8.73682E-04-3.39221E-06-8.65464E-04-9.45236E-19 1.45687E-13
 -1      3758 2.45664E+01 3.44684E+00 1.06607E-02 1.90569E+00 3.08788E-13 1.64705E-13
 -1      3759 2.40104E+01 4.08004E+00-6.04799E-02 1.15157E+00 3.69486E-13 1.26995E-13
 -1      3760 1.57648E+01 1.76930E+00-1.72048E-02 7.65418E-01 2.33453E-14 3.50878E-13
 -1      3761 1.65914E+01 1.67886E+00-3.39972E-03 5.28327E-01-1.00036E-13 3.55149E-13
 -1      3762 2.01711E+01-1.71373E-01 2.59389E-03 3.71798E-01-9.17508E-14 1.73477E-13
 -1      3763 2.02497E+01-2.56378E-01 1.77163E-03 3.85328E-01-1.07013E-13 1.91983E-13
 -1      3764 2.02326E+01-3.03795E-01-6.01118E-03 4.87484E-01-8.24568E-14 3.48570E-13
 -1      3765 2.33083E+01 2.34628E+00-1.95589E-02-1.49041E+00 1.88406E-13-8.36408E-14
 -1      3766 2.37552E+01 1.45675E+00-1.30586E-03-1.83637E+00 1.82344E-13-1.59111E-13
 -1      3767 2.17909E+01 2.41579E+00-3.28554E-03-2.94985E-01 2.55550E-13 2.15594E-15
 -1      3768 2.18000E+01 2.49884E+00-4.97850E-03 1.48906E-01 2.53193E-13-1.49837E-15
 -1      3769 2.23806E+01 2.91263E+00 4.10252E-03 5.08956E-01 2.65424E-13-2.72195E-14
 -1      3770 2.23428E+01 2.65792E+00-5.19041E-03-5.81365E-01 2.26686E-13-4.15687E-14
 -1      3771 2.37208E+01 1.77023E+00 9.60904E-03 2.01810E+00 1.90074E-13 1.30422E-13
 -1      3772 2.37661E+01 1.13708E+00-2.31570E-02 2.06130E+00 1.39641E-13 9.55460E-14
 -1      3773 2.36310E+01 5.84297E-01-2.24615E-02 1.78746E+00 1.17626E-13 7.01973E-14
 -1      3774 2.41210E+01 3.41826E-01-1.12253E-03 1.50656E+00 7.10454E-14 8.93391E-14
 -1      3775 2.47714E+01 4.88763E-01 1.33742E-02 1.70135E+00 6.59490E-14 1.44171E-13
 -1      3776 2.36344E+01 7.11697E-01-6.36674E-03 1.89174E+00 1.08838E-13 6.49922E-14
 -1      3777 2.45032E+01-3.10331E+00-6.78286E-02 1.38275E+00-1.79857E-13-2.74027E-13
 -1      3778 2.35812E+01-3.04061E+00 6.07116E-02 2.39386E+00-2.28064E-13-1.69676E-13
 -1      3779 1.31490E+01 2.00887E+00 9.01349E-02 1.04464E+00-2.14277E-13 2.80637E-13
 -1      3780 1.34986E+01 2.06958E+00 5.23417E-02 4.41114E-01-1.36370E-13 1.93765E-13
 -1      3781 1.37360E+01 1.69133E+00-1.99967E-02 1.72748E+00-2.30601E-13 4.61391E-13
 -1      3782 2.45961E+01 7.19272E-01-3.42131E-02-1.81134E+00 1.92655E-13-2.30828E-13
 -1      3783 2.52381E+01-6.13049E-01 4.17208E-02-1.38690E+00 7.40675E-14-2.80803E-13
 -1      3784 2.18908E+01-2.90685E+00-6.21007E-02 3.38082E+00-3.33209E-13 1.33400E-14
 -1      3785 2.00553E+01-1.98257E+00 3.67903E-02 3.96368E+00-3.98301E-13 1.07944E-13
 -1      3786 1.71121E+01 1.56635E+00-2.46022E-02 2.88642E-01-1.63666E-13 3.01843E-13
 -1      3787 1.76688E+01 1.44561E+00-5.00232E-03 1.60870E-01-1.72644E-13 3.11689E-13
 -1      3788 1.79122E+01 1.30020E+00 2.09499E-02 4.44471E-01-1.49676E-13 3.19247E-13
 -1      3789 1.70019E+01 1.49764E+00 3.36246E-02 9.34468E-01-1.22823E-13 2.69970E-13
 -1      3790 2.00003E+01-7.42482E-04 3.46709E-06-7.35929E-04-6.89788E-14-1.61572E-14
 -1      3791 2.52150E+01-1.84512E+00-6.44923E-02-5.21878E-01 1.79466E-14-3.21157E-13
 -1      3792 2.51917E+01-2.51223E+00 4.38435E-02 4.00624E-01-9.42441E-14-3.48705E-13
 -1      3793 2.43282E+01-2.54176E+00 2.56322E-03 6.87707E-01-9.14486E-14-2.19491E-13
 -1      3794 2.00004E+01-7.83452E-04-2.92556E-07 6.95822E-04-6.36324E-14 1.29802E-13
 -1      3795 2.34789E+01 5.59009E-01-1.27971E-02-1.66524E+00 1.58404E-13-1.36696E-13
 -1      3796 2.32232E+01 2.94551E+00-1.35992E-02-1.18095E+00 2.30184E-13-9.43898E-14
 -1      3797 1.92074E+01-1.54419E+00 1.19343E-02 4.03052E+00-3.27899E-13 5.38451E-14
 -1      3798 1.82646E+01-9.20278E-01-6.41316E-03 3.79440E+00-2.40655E-13 1.28206E-13
 -1      3799 2.03381E+01-1.70146E+00 2.54693E-02 3.30123E+00-3.60346E-13 2.06786E-14
 -1      3800 2.43703E+01 9.87735E-01-7.47065E-03 1.98321E+00 1.16898E-13 1.42695E-13
 -1      3801 1.51079E+01 6.04397E-01 6.09868E-02 3.51510E+00-1.90985E-13 5.15551E-13
 -1      3802 1.49115E+01 1.21509E+00 3.26122E-02 2.54356E+00-2.16443E-13 6.80902E-13
 -1      3803 1.64122E+01 2.21767E-01 9.77537E-03 3.40422E+00-1.87831E-13 2.96276E-13
 -1      3804 2.46057E+01-1.22571E+00-1.18289E-02-9.41522E-01 5.92334E-14-1.84586E-13
 -1      3805 2.17743E+01-1.33875E+00-6.56213E-03 5.98639E-02-6.22332E-16-2.19826E-14
 -1      3806 2.20710E+01-1.55011E+00-1.09182E-02 2.37491E-01-3.20574E-14-3.71925E-14
 -1      3807 2.15475E+01-1.20460E+00 1.23384E-02 2.00569E-01-5.22981E-14 9.28652E-15
 -1      3808 2.00782E+01-1.23451E-01-4.09658E-03 4.07642E-01-9.67920E-14 2.42780E-13
 -1      3809 2.27672E+01-1.39925E+00 1.24196E-03-6.33564E-01 4.03167E-14-9.51773E-14
 -1      3810 2.29363E+01-1.22545E+00-2.51166E-03-8.82060E-01 3.64849E-14-1.29709E-13
 -1      3811 2.28399E+01-1.62919E+00-1.84279E-04-2.32252E-01 2.14770E-14-1.43422E-13
 -1      3812 2.08628E+01-8.80801E-01-1.06403E-02 5.64761E-01-1.29305E-13 2.07227E-13
 -1      3813 2.10295E+01-9.00627E-01 1.01891E-02 3.69571E-01-9.07163E-14 9.02112E-14
 -1      3814 2.12284E+01-1.06094E+00-2.49251E-03 2.91936E-01-6.86582E-14 6.61475E-14
 -1      3815 2.35090E+01 3.78888E+00-1.88239E-02 6.35809E-01 3.33721E-13 9.25059E-14
 -1      3816 2.42065E+01 2.41451E+00-3.55108E-03 1.95070E+00 2.35335E-13 1.46072E-13
 -1      3817 2.00005E+01-8.16691E-04-2.22516E-06-5.61846E-04-2.26422E-14 4.42130E-15
 -1      3818 2.00005E+01-7.97327E-04-1.26316E-07-7.50765E-04 6.83265E-14 5.07149E-14
 -1      3819 2.00007E+01-8.62717E-04 2.32297E-06-6.86220E-04-4.12592E-14 1.21419E-13
 -1      3820 2.00006E+01-8.51095E-04 3.12010E-06-4.63511E-04-1.17856E-13 2.39103E-13
 -1      3821 2.00005E+01-8.71037E-04-1.99751E-06 2.57065E-04-2.25459E-13-2.99788E-13
 -1      3822 2.00005E+01-8.34979E-04 5.84389E-07 5.73937E-04 9.54921E-14 1.29074E-13
 -1      3823 2.00006E+01-8.77030E-04 1.46675E-06 4.66788E-04 1.38295E-14-9.32996E-14
 -1      3824 2.00006E+01-8.60736E-04-1.47069E-06 6.77074E-04 2.47274E-13 1.88736E-14
 -1      3825 2.00007E+01-9.09411E-04 1.89390E-06-2.24388E-04-3.18610E-13-7.77327E-14
 -1      3826 2.00006E+01-8.90246E-04-9.49571E-07-3.39500E-04-1.72567E-13 1.76418E-13
 -1      3827 2.00007E+01-9.04369E-04-1.19737E-06-4.45293E-04-1.35981E-13 1.34317E-13
 -1      3828 2.25377E+01-2.61072E+00 1.77550E-02 2.49835E+00-2.83897E-13-5.76511E-14
 -1      3829 2.31856E+01 2.57802E+00-3.13371E-02 1.68624E+00 2.64203E-13 1.22263E-13
 -1      3830 1.46029E+01 2.05638E+00 2.09714E-02 6.69044E-01-6.40902E-14 1.54010E-13
 -1      3831 2.28899E+01 3.15341E+00 5.85298E-04-7.41701E-01 2.53175E-13-5.86107E-14
 -1      3832 2.00007E+01-9.25816E-04 1.60813E-06 5.84603E-05-2.68706E-13-6.23100E-13
 -1      3833 2.00007E+01-9.25838E-04 4.34631E-07-7.43208E-05-2.87445E-13-4.11355E-13
 -1      3834 2.00008E+01-9.54189E-04-1.53678E-06-1.66698E-04-2.61810E-13-2.13161E-13
 -1      3835 1.54114E+01 1.54538E+00 9.98732E-03 1.52514E+00-4.66847E-14 4.69160E-13
 -1      3836 1.61280E+01 1.22322E+00 1.26724E-02 1.98859E+00-1.16454E-13 4.53964E-13
 -1      3837 2.30414E+01 3.06446E+00-5.73123E-03 1.28518E+00 2.94137E-13 9.07165E-14
 -1      3838 2.35192E+01-5.64570E-02-3.23908E-03-1.62409E+00 1.22383E-13-1.47964E-13
 -1      3839 1.76552E+01-2.45783E-01 4.63394E-02 3.48083E+00-2.03151E-13 1.29787E-13
 -1      3840 1.70509E+01 2.85363E-01-1.46604E-02 2.89487E+00-1.96553E-13 2.23564E-13
 -1      3841 1.88095E+01-7.12660E-01 5.28573E-03 3.16568E+00-2.51118E-13 5.22074E-14
 -1      3842 2.03203E+01-4.17654E-01 4.74478E-03 6.67399E-01-1.94061E-13 2.99190E-13
 -1      3843 2.04774E+01-5.68735E-01 3.70032E-03 7.02852E-01-1.82545E-13 2.40231E-13
 -1      3844 1.88972E+01 8.20427E-01-1.02408E-02 1.72063E-01-1.50289E-13 4.73137E-14
 -1      3845 1.91026E+01 7.46586E-01 4.98960E-04 1.02202E-01-1.15458E-13-1.00534E-13
 -1      3846 1.92376E+01 6.64394E-01-6.72785E-03 2.69531E-02-5.50673E-14-9.94955E-14
 -1      3847 1.93853E+01 5.92047E-01-1.50123E-04-8.45381E-03-4.66699E-14-9.96343E-14
 -1      3848 1.92027E+01 6.60282E-01 5.90518E-03 1.93240E-01-7.55842E-14-5.12894E-14
 -1      3849 1.94797E+01 5.24268E-01-4.43880E-03-4.69801E-02 6.08945E-14-1.16385E-13
 -1      3850 1.95755E+01 4.65860E-01-6.49046E-04-5.92030E-02 2.96392E-14-7.54753E-14
 -1      3851 1.94361E+01 5.39757E-01 4.30912E-03 6.37258E-02 2.43680E-14-5.40156E-14
 -1      3852 1.96458E+01 4.10232E-01-2.73925E-03-7.79693E-02 1.32163E-14-8.36005E-14
 -1      3853 1.97106E+01 3.61790E-01-7.76831E-04-7.85309E-02 3.88502E-14-3.94251E-14
 -1      3854 1.96033E+01 4.33230E-01 3.08729E-03-3.92780E-03 5.59745E-14-1.14892E-13
 -1      3855 1.97617E+01 3.17160E-01-1.67882E-03-8.53574E-02-5.52299E-14-7.34994E-14
 -1      3856 1.98052E+01 2.78034E-01-7.28492E-04-8.00403E-02-6.66336E-14-1.03007E-13
 -1      3857 1.97246E+01 3.42436E-01 2.33182E-03-3.65672E-02-3.52062E-14-2.15328E-13
 -1      3858 1.98418E+01 2.42811E-01-1.03070E-03-8.04333E-02 1.73993E-14-1.77929E-13
 -1      3859 1.98708E+01 2.11992E-01-6.54151E-04-7.26463E-02 1.11030E-14-1.26008E-13
 -1      3860 1.98112E+01 2.66647E-01 1.59710E-03-4.90091E-02-8.47422E-14-2.32081E-13
 -1      3861 1.98969E+01 1.84524E-01-5.83574E-04-6.96493E-02 1.52041E-14-1.15066E-13
 -1      3862 1.99159E+01 1.60376E-01-5.54587E-04-6.13930E-02-4.51354E-14-3.35391E-14
 -1      3863 1.98727E+01 2.05687E-01 1.13449E-03-4.96411E-02 2.79057E-14-2.00894E-13
 -1      3864 1.99344E+01 1.39107E-01-3.15389E-04-5.70766E-02-2.50162E-13-2.25125E-14
 -1      3865 1.99468E+01 1.20351E-01-4.51672E-04-4.93832E-02-1.79391E-13-1.18356E-13
 -1      3866 1.99160E+01 1.57005E-01 7.90450E-04-4.45704E-02-1.38623E-13-1.09165E-13
 -1      3867 1.99597E+01 1.03981E-01-1.53234E-04-4.48489E-02-5.19068E-14-9.75866E-14
 -1      3868 1.99677E+01 8.95084E-02-3.57341E-04-3.81818E-02-1.99667E-13-4.95411E-14
 -1      3869 1.99461E+01 1.18643E-01 5.44542E-04-3.72180E-02-2.10417E-13-4.21817E-14
 -1      3870 1.99766E+01 7.69733E-02-5.91387E-05-3.40025E-02-1.76322E-13-6.93985E-14
 -1      3871 1.99816E+01 6.58746E-02-2.76289E-04-2.84985E-02-5.38244E-14 7.75476E-14
 -1      3872 1.99668E+01 8.86966E-02 3.72031E-04-2.94931E-02-1.98084E-13 4.86501E-14
 -1      3873 1.99876E+01 5.63276E-02-7.72399E-06-2.49273E-02 1.42241E-15 4.82319E-14
 -1      3874 1.99907E+01 4.78724E-02-2.09312E-04-2.05471E-02 1.07781E-13 1.64584E-13
 -1      3875 1.99808E+01 6.55113E-02 2.51647E-04-2.23870E-02-6.06715E-15 5.67266E-15
 -1      3876 1.99947E+01 4.06474E-02 1.78422E-05-1.76507E-02 1.24396E-13 1.54760E-13
 -1      3877 1.99965E+01 3.42560E-02-1.55458E-04-1.42696E-02 2.79368E-14 1.52267E-13
 -1      3878 1.99902E+01 4.77098E-02 1.67918E-04-1.63319E-02 8.28374E-14-6.55704E-14
 -1      3879 1.99991E+01 2.88311E-02 2.83669E-05-1.20145E-02-1.59521E-13 2.40511E-13
 -1      3880 2.00001E+01 2.40446E-02-1.13085E-04-9.47607E-03-2.17086E-13 2.73103E-13
 -1      3881 1.99962E+01 3.41658E-02 1.09910E-04-1.14371E-02-2.81855E-15 9.97976E-14
 -1      3882 2.00017E+01 2.00107E-02 3.05849E-05-7.78143E-03-1.27812E-13 1.09670E-13
 -1      3883 2.00022E+01 1.64664E-02-8.03691E-05-5.92683E-03-6.89147E-14 1.73417E-13
 -1      3884 2.00000E+01 2.39672E-02 6.99391E-05-7.63998E-03-2.26882E-13 1.26285E-13
 -1      3885 2.00031E+01 1.35027E-02 2.85717E-05-4.69595E-03-9.03475E-14 1.41047E-13
 -1      3886 2.00032E+01 1.09139E-02-5.55619E-05-3.37958E-03-1.36207E-13 6.28198E-14
 -1      3887 2.00022E+01 1.63796E-02 4.26195E-05-4.79846E-03-1.28664E-13-8.45908E-15
 -1      3888 2.00037E+01 8.76838E-03 2.47104E-05-2.51700E-03 1.37435E-14 5.62547E-14
 -1      3889 2.00036E+01 6.90895E-03-3.70933E-05-1.61309E-03 1.33181E-13 1.47155E-13
 -1      3890 2.00033E+01 1.08140E-02 2.41716E-05-2.74436E-03 4.37640E-15-6.00443E-14
 -1      3891 2.00038E+01 5.38395E-03 2.03321E-05-1.03320E-03 1.81252E-13 1.09759E-13
 -1      3892 2.00036E+01 4.07582E-03-2.36129E-05-4.37543E-04 2.10266E-13 1.34736E-13
 -1      3893 2.00037E+01 6.80019E-03 1.19379E-05-1.31298E-03 1.09436E-13 1.51123E-14
 -1      3894 2.00036E+01 3.01668E-03 1.61309E-05-6.79934E-05 2.02279E-13 1.60798E-13
 -1      3895 2.00033E+01 2.12040E-03-1.39918E-05 3.03034E-04 4.53508E-13-1.05649E-13
 -1      3896 2.00038E+01 3.96474E-03 4.04306E-06-3.57475E-04 2.34512E-13 1.04856E-13
 -1      3897 2.00032E+01 1.40660E-03 1.24262E-05 5.20828E-04 5.21460E-13-1.81898E-13
 -1      3898 2.00030E+01 8.13613E-04-7.30683E-06 7.32576E-04 4.85542E-13-3.83047E-13
 -1      3899 2.00035E+01 2.01307E-03-8.41855E-07 2.45587E-04 3.26727E-13-5.58713E-14
 -1      3900 2.00028E+01 3.51865E-04 9.32625E-06 8.44477E-04 5.91700E-13-3.64839E-13
 -1      3901 2.00025E+01-2.16452E-05-2.81754E-06 9.46794E-04 5.51544E-13-3.83326E-13
 -1      3902 2.00031E+01 7.14527E-04-3.66172E-06 5.95684E-04 5.01374E-13-9.30857E-14
 -1      3903 2.00023E+01-3.02950E-04 6.82738E-06 9.87645E-04 4.61690E-13-6.06033E-13
 -1      3904 2.00021E+01-5.21106E-04 5.64735E-08 1.01766E-03 3.77925E-13-5.08675E-13
 -1      3905 2.00027E+01-1.09780E-04-5.08957E-06 7.70302E-04 3.84453E-13-4.63444E-13
 -1      3906 2.00019E+01-6.76408E-04 4.87054E-06 1.01315E-03 1.25935E-13-3.71871E-13
 -1      3907 2.00017E+01-7.87680E-04 1.77491E-06 9.97860E-04 1.58975E-14-3.38325E-13
 -1      3908 2.00022E+01-5.97216E-04-5.59940E-06 8.27985E-04 4.29217E-13-4.36855E-13
 -1      3909 2.00015E+01-8.57849E-04 3.36373E-06 9.66385E-04 5.00966E-15-2.84522E-13
 -1      3910 2.00013E+01-8.98250E-04 2.82511E-06 9.24859E-04 5.42629E-15-2.58857E-13
 -1      3911 2.00018E+01-8.51846E-04-5.47391E-06 8.11554E-04 4.59930E-14-3.23549E-13
 -1      3912 2.00011E+01-9.14833E-04 1.96805E-06 8.79934E-04 2.78802E-14-1.33938E-13
 -1      3913 2.00010E+01-9.10620E-04 3.28207E-06 8.24901E-04 2.94757E-13-1.01118E-13
 -1      3914 2.00014E+01-9.50862E-04-4.83867E-06 7.52224E-04 9.72901E-14-2.70639E-13
 -1      3915 2.00008E+01-9.03481E-04 7.66582E-07 7.79050E-04 5.27223E-13-9.99674E-14
 -1      3916 2.00007E+01-8.78622E-04 2.20960E-06 7.20944E-04 3.43151E-13 5.74006E-14
 -1      3917 2.00008E+01-9.33521E-04-2.25726E-06 5.92872E-04 3.84521E-13-5.56931E-14
 -1      3918 2.00011E+01-9.63150E-04-4.32979E-06 6.74860E-04 3.86912E-13-1.95751E-13
 -1      3919 2.39730E+01-2.16948E+00-2.13263E-02 1.31141E-01-1.26938E-15-1.80039E-13
 -1      3920 2.36900E+01-2.42534E+00 3.94938E-02 9.16453E-01-9.93554E-14-1.20036E-13
 -1      3921 1.98993E+01 1.10898E-01-4.42493E-04 2.46496E-01-9.12239E-14 1.22491E-13
 -1      3922 1.99154E+01 9.16739E-02 2.01516E-03 2.80618E-01-1.48864E-13 1.40269E-13
 -1      3923 1.99203E+01 6.17979E-02-1.24638E-04 3.28576E-01-2.09915E-13 9.70927E-14
 -1      3924 1.99548E+01 2.25474E-02 2.71991E-03 3.69333E-01-1.69467E-13 1.27586E-13
 -1      3925 1.98614E+01 1.10056E-01-1.25138E-03 3.17164E-01-1.69654E-13 1.23392E-13
 -1      3926 1.99121E+01 1.29900E-01-6.34588E-04 1.33283E-01-1.73995E-13 1.12350E-13
 -1      3927 1.99111E+01 1.32011E-01 9.44324E-04 1.54751E-01-1.25276E-13 3.40499E-14
 -1      3928 1.99284E+01 1.19405E-01-5.79557E-04 9.63961E-02-2.53004E-13 1.54784E-13
 -1      3929 1.99245E+01 1.26033E-01 6.46177E-04 1.12920E-01-2.64514E-13 5.52649E-14
 -1      3930 1.98980E+01 1.44923E-01 9.30836E-05 1.16480E-01-1.91460E-13 3.96988E-14
 -1      3931 1.99450E+01 1.03694E-01-4.91308E-04 6.90596E-02-6.00446E-14 1.44143E-13
 -1      3932 1.99401E+01 1.12267E-01 4.14403E-04 8.16301E-02-1.53603E-13 1.22527E-13
 -1      3933 1.99203E+01 1.28843E-01 2.11433E-04 8.18814E-02-2.05238E-13-1.75983E-13
 -1      3934 1.99600E+01 8.63505E-02-3.99763E-04 4.89455E-02 1.32294E-13 1.14987E-13
 -1      3935 1.99552E+01 9.53104E-02 2.62210E-04 5.84234E-02 9.98049E-14 2.04697E-13
 -1      3936 1.99406E+01 1.09360E-01 2.42425E-04 5.71481E-02-2.22200E-14-1.00922E-13
 -1      3937 1.99725E+01 6.95121E-02-3.15939E-04 3.42331E-02 1.32603E-13 3.16174E-13
 -1      3938 1.99684E+01 7.79580E-02 1.64947E-04 4.13232E-02 1.79449E-13 2.62690E-13
 -1      3939 1.99579E+01 8.95600E-02 2.31317E-04 3.95435E-02 1.15461E-13 5.76452E-14
 -1      3940 1.99824E+01 5.43345E-02-2.43762E-04 2.35372E-02-6.69059E-14 3.01934E-13
 -1      3941 1.99790E+01 6.18041E-02 1.03995E-04 2.87980E-02 2.00418E-14 3.82927E-13
 -1      3942 1.99716E+01 7.11747E-02 2.00473E-04 2.70563E-02 4.87537E-14 2.82221E-13
 -1      3943 1.99898E+01 4.13275E-02-1.84023E-04 1.58164E-02 7.38419E-14 2.68669E-13
 -1      3944 1.99873E+01 4.76421E-02 6.65187E-05 1.96833E-02 9.99174E-15 3.37840E-13
 -1      3945 1.99822E+01 5.50600E-02 1.62898E-04 1.82285E-02-4.41837E-14 3.13417E-13
 -1      3946 1.99951E+01 3.05979E-02-1.35997E-04 1.02935E-02-1.07697E-15 2.27702E-13
 -1      3947 1.99933E+01 3.57518E-02 4.37818E-05 1.31035E-02 8.73461E-14 2.97493E-13
 -1      3948 1.99899E+01 4.15127E-02 1.25858E-04 1.20139E-02 8.68135E-14 2.33161E-13
 -1      3949 1.99987E+01 2.20195E-02-9.82804E-05 6.38997E-03 1.98437E-13 2.12634E-13
 -1      3950 1.99975E+01 2.61038E-02 3.00224E-05 8.40301E-03 8.39279E-14 2.53917E-13
 -1      3951 1.99954E+01 3.04933E-02 9.29778E-05 7.66587E-03 2.78150E-14 2.22335E-13
 -1      3952 2.00010E+01 1.53470E-02-6.92620E-05 3.67512E-03 2.09573E-14 1.11880E-13
 -1      3953 2.00003E+01 1.84989E-02 2.15796E-05 5.09125E-03 1.02836E-13 1.51137E-13
 -1      3954 1.99990E+01 2.17780E-02 6.56702E-05 4.65215E-03 2.18609E-13 2.23857E-13
 -1      3955 2.00023E+01 1.02887E-02-4.73647E-05 1.82775E-03-1.56720E-14-1.14867E-14
 -1      3956 2.00019E+01 1.26604E-02 1.62127E-05 2.80078E-03-3.46583E-14 7.56276E-14
 -1      3957 2.00013E+01 1.50578E-02 4.40855E-05 2.59230E-03-2.09359E-15 8.14200E-14
 -1      3958 2.00030E+01 6.55139E-03-3.11624E-05 6.08159E-04-5.08443E-14-7.78502E-15
 -1      3959 2.00028E+01 8.29055E-03 1.26011E-05 1.25600E-03 1.20597E-13-2.98412E-15
 -1      3960 2.00026E+01 1.00013E-02 2.77189E-05 1.21306E-03 1.48785E-14-1.13611E-13
 -1      3961 2.00032E+01 3.86418E-03-1.94250E-05-1.62500E-04 1.03575E-13-2.49990E-14
 -1      3962 2.00032E+01 5.10451E-03 9.99626E-06 2.50126E-04-3.68976E-14 2.30644E-14
 -1      3963 2.00032E+01 6.29046E-03 1.57834E-05 3.17070E-04-3.00449E-14-1.46190E-13
 -1      3964 2.00031E+01 1.99069E-03-1.11248E-05-6.17289E-04-6.21609E-14 4.43001E-14
 -1      3965 2.00032E+01 2.84726E-03 7.99053E-06-3.71692E-04 3.28517E-14 2.14407E-14
 -1      3966 2.00034E+01 3.63996E-03 7.42582E-06-2.38825E-04-9.84588E-15-9.22162E-14
 -1      3967 2.00028E+01 7.32533E-04-5.42457E-06-8.54647E-04-1.77322E-13 1.75372E-13
 -1      3968 2.00030E+01 1.30093E-03 6.37043E-06-7.24895E-04-9.42990E-14 1.14619E-13
 -1      3969 2.00032E+01 1.80516E-03 1.84328E-06-5.58692E-04-4.72388E-14 8.90981E-14
 -1      3970 2.00024E+01-7.17318E-05-1.65674E-06-9.46729E-04 2.60710E-14 1.41398E-13
 -1      3971 2.00026E+01 2.85619E-04 5.02715E-06-8.94880E-04-5.29218E-14 1.93178E-13
 -1      3972 2.00029E+01 5.83317E-04-1.66295E-06-7.18088E-04-8.81425E-14 3.28943E-14
 -1      3973 2.00020E+01-5.50141E-04 7.00270E-07-9.45729E-04 1.17349E-13 1.00107E-13
 -1      3974 2.00022E+01-3.43076E-04 3.90401E-06-9.44097E-04-2.53492E-14 1.67320E-13
 -1      3975 2.00025E+01-1.89080E-04-3.66866E-06-7.71566E-04 5.68437E-14-1.52374E-14
 -1      3976 2.00016E+01-8.01902E-04 2.14048E-06-8.88692E-04 3.74792E-13 8.93345E-14
 -1      3977 2.00018E+01-6.98371E-04 2.96711E-06-9.17485E-04 2.40671E-13 1.60479E-13
 -1      3978 2.00021E+01-6.40790E-04-4.61426E-06-7.58060E-04 1.55525E-13 1.20718E-13
 -1      3979 2.00013E+01-9.03170E-04 2.88662E-06-8.02079E-04 2.15178E-13 1.28563E-13
 -1      3980 2.00014E+01-8.67185E-04 2.18744E-06-8.47149E-04 3.66543E-13 6.22410E-14
 -1      3981 2.00017E+01-8.70674E-04-4.83528E-06-7.04889E-04 3.25008E-13 2.08459E-13
 -1      3982 2.00009E+01-9.12175E-04 1.14080E-06-7.04886E-04-2.30696E-14-7.41285E-14
 -1      3983 2.00011E+01-9.14930E-04 1.52757E-06-7.54154E-04 1.59317E-13-1.01920E-13
 -1      3984 2.00013E+01-9.55974E-04-4.92467E-06-6.31622E-04 2.18808E-13-9.52175E-14
 -1      3985 2.29230E+01-2.61496E+00-4.13701E-02 1.71415E+00-2.15140E-13-9.36222E-14
 -1      3986 2.17416E+01-2.17574E+00 2.12110E-02 2.50176E+00-3.26143E-13-2.56722E-14
 -1      3987 2.01026E+01-1.85637E-01 2.21821E-03 5.46063E-01-1.68679E-14 2.24767E-13
 -1      3988 2.02053E+01-2.91135E-01 3.88626E-03 5.91846E-01-4.29865E-14 2.84046E-13
 -1      3989 2.01356E+01-3.21907E-01-7.84586E-03 7.35178E-01-8.95069E-14 1.51112E-13
 -1      3990 1.69463E+01 8.05957E-01 2.68682E-02 2.26662E+00-1.92734E-13 2.84748E-13
 -1      3991 1.70354E+01 1.05593E+00-1.84923E-02 1.59388E+00-1.24172E-13 2.89963E-13
 -1      3992 1.78415E+01 2.81620E-01-1.81426E-02 2.37811E+00-2.25765E-13 8.90117E-14
 -1      3993 2.00007E+01-9.01081E-04 1.31743E-06 3.28727E-04 1.27131E-15-8.19359E-14
 -1      3994 2.00007E+01-9.22864E-04 1.01509E-06 2.01131E-04-7.73729E-14-3.85465E-13
 -1      3995 2.00008E+01-9.65454E-04-2.08108E-06 1.29622E-04 7.30489E-14-3.81729E-13
 -1      3996 2.00008E+01-9.37112E-04-9.26096E-07 4.12918E-04 3.49522E-13-1.22093E-13
 -1      3997 2.35567E+01 8.50222E-01-4.75136E-03 1.93689E+00 1.20803E-13 7.40217E-14
 -1      3998 2.28217E+01 3.42902E+00-2.54625E-02-1.89158E-01 2.57694E-13-3.30842E-14
 -1      3999 2.34609E+01-6.11714E-01-4.63333E-03-1.39301E+00 5.89303E-14-1.47613E-13
 -1      4000 2.29465E+01 3.31340E+00 2.70276E-03 7.12188E-01 3.02525E-13 4.93806E-14
 -1      4001 1.99004E+01 1.29534E-01-6.03257E-04 1.82202E-01-9.00476E-14 1.04917E-13
 -1      4002 1.99053E+01 1.23816E-01 1.42190E-03 2.09494E-01-2.82107E-14 1.40689E-13
 -1      4003 1.98767E+01 1.52132E-01-2.49155E-04 1.64369E-01-5.44592E-14 1.46272E-13
 -1      4004 1.84380E+01 9.73265E-01-1.45660E-02 4.21449E-01-1.28168E-13 2.57798E-13
 -1      4005 1.87293E+01 9.02990E-01 1.37039E-03 2.94729E-01-7.89137E-14 1.91861E-13
 -1      4006 1.88897E+01 7.77313E-01 7.19878E-03 4.13053E-01-2.29638E-13 6.40259E-14
 -1      4007 1.99797E+01-3.12384E-02 6.19672E-04 4.29398E-01-1.07411E-13 1.93813E-13
 -1      4008 2.00422E+01-9.90989E-02 3.34742E-03 4.75340E-01-5.68046E-14 2.07825E-13
 -1      4009 1.98904E+01 3.35543E-02-2.70301E-03 4.30210E-01-9.53177E-14 7.95919E-14
 -1      4010 2.38130E+01-1.03782E+00-5.90076E-03-1.08282E+00 6.84240E-14-1.69405E-13
 -1      4011 2.39798E+01-1.85627E+00 1.35275E-02-3.56833E-01 4.15232E-14-2.09539E-13
 -1      4012 1.75454E+01 1.08817E+00 9.55953E-03 1.22419E+00-2.16072E-13 2.45101E-13
 -1      4013 2.04263E+01-6.42522E-01-1.22021E-02 9.02457E-01-1.90844E-13 1.78843E-13
 -1      4014 2.06738E+01-7.38467E-01 8.72710E-03 7.67477E-01-1.58773E-13 2.35951E-13
 -1      4015 2.08988E+01-9.34675E-01 2.90127E-03 7.73778E-01-1.45542E-13 1.88388E-13
 -1      4016 2.13941E+01-1.23760E+00-1.09900E-02 4.79356E-01-9.09454E-14 1.93112E-14
 -1      4017 2.28705E+01-2.23288E+00-4.11985E-04 1.10602E+00-1.58934E-13-4.89014E-14
 -1      4018 1.98615E+01 1.44516E-01-5.85036E-04 2.29605E-01-6.70490E-14 1.41591E-13
 -1      4019 2.29529E+01-1.87945E+00 1.60901E-02 2.09234E-01-2.50005E-14-1.13266E-13
 -1      4020 2.32999E+01-1.88594E+00-1.25477E-02-5.77016E-02 3.88314E-14-1.13627E-13
 -1      4021 2.15004E+01-1.78074E+00 2.59763E-02 2.07654E+00-2.84912E-13-3.30805E-14
 -1      4022 2.08174E+01-1.83227E+00-2.31272E-02 2.81987E+00-3.36876E-13 5.79085E-14
 -1      4023 2.00009E+01-9.20290E-04-1.89677E-06-5.77380E-04-3.29216E-14-7.03368E-14
 -1      4024 2.00951E+01-1.37183E+00-8.68038E-03 2.87430E+00-3.03773E-13 5.12149E-14
 -1      4025 1.99710E+01-1.04151E-01-5.07454E-03 5.71905E-01-6.16487E-14 1.77482E-13
 -1      4026 1.47804E+01 1.38353E+00-1.08052E-02 2.06788E+00-1.23930E-13 5.75385E-13
 -1      4027 2.00010E+01-9.84958E-04 1.75451E-06-1.05502E-04-1.60465E-13-4.34874E-13
 -1      4028 2.00010E+01-9.72988E-04 5.70180E-07-2.54544E-04-1.43291E-13-1.54549E-13
 -1      4029 1.77932E+01 1.09210E+00-2.70787E-02 8.39642E-01-1.91794E-13 2.66204E-13
 -1      4030 1.82247E+01 1.04019E+00 2.01099E-03 6.17965E-01-1.35954E-13 2.30761E-13
 -1      4031 1.84934E+01 8.59058E-01 8.69749E-03 7.61722E-01-1.52919E-13 1.18501E-13
 -1      4032 2.00010E+01-9.54550E-04 6.54633E-07-4.51239E-04-4.88091E-14-4.73081E-14
 -1      4033 2.00011E+01-9.85710E-04 6.01283E-08-3.89109E-04 1.41886E-14-1.04536E-13
 -1      4034 2.22620E+01-1.75549E+00-1.21093E-02 5.15685E-01-9.05042E-14-2.02303E-14
 -1      4035 2.26801E+01-2.01222E+00-1.63073E-02 6.90375E-01-8.88575E-14-4.23567E-14
 -1      4036 2.21413E+01-1.93479E+00 1.10934E-02 1.35034E+00-1.87198E-13 2.09921E-14
 -1      4037 2.19313E+01-1.55004E+00 1.95270E-02 6.58665E-01-9.89508E-14 6.84203E-14
 -1      4038 1.93957E+01 5.02372E-01-6.84750E-03 1.64962E-01-1.26266E-15-2.45950E-14
 -1      4039 1.95058E+01 4.63908E-01 1.64161E-03 1.13516E-01 2.80640E-14-8.90814E-14
 -1      4040 1.95631E+01 4.18380E-01-4.74026E-03 6.77618E-02 2.11815E-14-9.95760E-14
 -1      4041 1.96422E+01 3.79850E-01 2.73162E-04 4.01632E-02-2.70786E-14-1.52284E-13
 -1      4042 1.95625E+01 4.10627E-01 3.46171E-03 1.57811E-01 4.37754E-14-9.61385E-14
 -1      4043 1.96914E+01 3.40221E-01-2.36637E-03 1.17638E-02-7.65341E-14-2.15410E-13
 -1      4044 1.97457E+01 3.05313E-01 4.39485E-05-1.53731E-03-8.76046E-14-2.47408E-13
 -1      4045 1.96810E+01 3.42129E-01 2.39258E-03 7.63836E-02-1.34037E-13-2.53063E-13
 -1      4046 1.97821E+01 2.71267E-01-2.01278E-03-1.53915E-02-1.04974E-13-1.83619E-13
 -1      4047 1.98216E+01 2.41795E-01-1.97283E-04-2.02949E-02-1.75181E-15-1.94769E-13
 -1      4048 1.97667E+01 2.83805E-01 2.31439E-03 2.91121E-02 7.91146E-15-1.74220E-13
 -1      4049 1.98497E+01 2.13326E-01-1.33145E-03-2.69470E-02 5.91763E-14-1.71295E-13
 -1      4050 1.98773E+01 1.88618E-01-3.22816E-04-2.71406E-02 5.06479E-14-1.38956E-13
 -1      4051 1.98357E+01 2.28659E-01 2.33935E-03 3.06426E-03 3.55334E-14-1.74638E-13
 -1      4052 1.98984E+01 1.65590E-01-8.26902E-04-2.94915E-02-6.69992E-14-7.87420E-14
 -1      4053 1.99175E+01 1.45359E-01-3.46129E-04-2.73455E-02-1.73228E-13-3.27412E-14
 -1      4054 1.98860E+01 1.80658E-01 1.85755E-03-9.41102E-03 5.00394E-14-1.31440E-13
 -1      4055 1.99331E+01 1.26955E-01-4.96095E-04-2.73473E-02-1.96737E-13-6.50147E-15
 -1      4056 1.99461E+01 1.10667E-01-3.21624E-04-2.42644E-02-2.23967E-13 2.91030E-14
 -1      4057 1.99228E+01 1.40514E-01 1.40239E-03-1.40344E-02-1.47282E-13-1.00338E-13
 -1      4058 1.99574E+01 9.61190E-02-2.85951E-04-2.31508E-02-2.55798E-13 2.32633E-14
 -1      4059 1.99662E+01 8.31841E-02-2.76452E-04-1.99261E-02-1.34166E-13 6.09172E-14
 -1      4060 1.99493E+01 1.07687E-01 1.03244E-03-1.44314E-02-1.55862E-13-1.25744E-13
 -1      4061 1.99743E+01 7.18000E-02-1.55808E-04-1.84150E-02-1.13399E-13 2.10617E-13
 -1      4062 1.99801E+01 6.16557E-02-2.25525E-04-1.54580E-02-2.65547E-14 1.85925E-14
 -1      4063 1.99682E+01 8.13069E-02 7.44872E-04-1.27979E-02-8.02504E-14-3.28889E-15
 -1      4064 1.99858E+01 5.28373E-02-7.74378E-05-1.39372E-02 4.50545E-14 7.41149E-14
 -1      4065 1.99895E+01 4.49781E-02-1.76727E-04-1.14239E-02 9.23527E-14 9.70091E-14
 -1      4066 1.99813E+01 6.04252E-02 5.26743E-04-1.04026E-02 2.63625E-14 2.36459E-14
 -1      4067 1.99934E+01 3.82198E-02-3.18575E-05-1.00798E-02 4.82145E-14-1.61858E-13
 -1      4068 1.99957E+01 3.22072E-02-1.33775E-04-8.05231E-03-1.26297E-13-1.68104E-13
 -1      4069 1.99903E+01 4.41278E-02 3.64254E-04-7.93260E-03-8.96945E-14-2.42333E-13
 -1      4070 1.99983E+01 2.70878E-02-6.58569E-06-6.95406E-03-1.93672E-13 1.20046E-14
 -1      4071 1.99996E+01 2.25496E-02-9.79807E-05-5.38407E-03-1.56230E-13 2.93325E-14
 -1      4072 1.99962E+01 3.15849E-02 2.45120E-04-5.72193E-03-3.85691E-14-2.99134E-13
 -1      4073 2.00012E+01 1.87222E-02 6.41705E-06-4.53694E-03-1.99959E-13 3.66806E-14
 -1      4074 2.00020E+01 1.53477E-02-6.93341E-05-3.36377E-03-4.80594E-14-1.79190E-14
 -1      4075 2.00000E+01 2.20706E-02 1.59143E-04-3.89975E-03-1.01340E-13 7.17859E-14
 -1      4076 2.00029E+01 1.25290E-02 1.22277E-05-2.74165E-03 7.15162E-15-6.98476E-14
 -1      4077 2.00032E+01 1.00620E-02-4.71608E-05-1.89453E-03 7.94725E-14-1.00169E-13
 -1      4078 2.00022E+01 1.49653E-02 9.81621E-05-2.48315E-03-8.13080E-14-1.03601E-14
 -1      4079 2.00037E+01 8.02233E-03 1.39882E-05-1.45908E-03 2.13928E-13 5.83589E-14
 -1      4080 2.00037E+01 6.25427E-03-3.05093E-05-8.69203E-04 1.90842E-13 1.50471E-13
 -1      4081 2.00034E+01 9.75061E-03 5.57907E-05-1.43385E-03 1.84738E-13 3.48453E-16
 -1      4082 2.00039E+01 4.80917E-03 1.36007E-05-5.80334E-04 1.73313E-13 9.91154E-14
 -1      4083 2.00038E+01 3.57202E-03-1.83720E-05-1.86651E-04 2.72162E-13 1.07012E-13
 -1      4084 2.00038E+01 5.99907E-03 2.71024E-05-6.91319E-04 1.73271E-13 1.81789E-13
 -1      4085 2.00038E+01 2.57466E-03 1.21867E-05-7.86663E-06 1.95738E-13 4.57995E-14
 -1      4086 2.00036E+01 1.73471E-03-9.80351E-06 2.40759E-04 2.84333E-13-1.05019E-13
 -1      4087 2.00039E+01 3.36366E-03 8.34067E-06-1.91092E-04 1.60649E-13 1.45888E-13
 -1      4088 2.00034E+01 1.06930E-03 1.03863E-05 3.40217E-04 4.38333E-13-5.47654E-14
 -1      4089 2.00032E+01 5.21417E-04-3.97437E-06 4.84856E-04 4.67045E-13-1.78375E-13
 -1      4090 2.00036E+01 1.56632E-03-3.33050E-06 1.26094E-04 3.24716E-13 9.99629E-14
 -1      4091 2.00030E+01 9.76751E-05 8.54820E-06 5.29558E-04 3.59257E-13-1.99405E-13
 -1      4092 2.00027E+01-2.39811E-04-1.86834E-07 6.02107E-04 3.29489E-13-3.84660E-13
 -1      4093 2.00032E+01 3.87245E-04-1.00275E-05 3.10434E-04 3.08941E-13-2.68188E-13
 -1      4094 2.00025E+01-4.91521E-04 6.85040E-06 6.10891E-04 4.67865E-13-4.00365E-13
 -1      4095 2.00023E+01-6.81237E-04 2.13371E-06 6.35349E-04 3.44632E-13-2.60824E-13
 -1      4096 2.00027E+01-3.44965E-04-1.32991E-05 4.02215E-04 3.62177E-13-2.25610E-13
 -1      4097 2.00020E+01-8.14152E-04 5.35531E-06 6.22103E-04 1.47526E-13-2.06572E-13
 -1      4098 2.00018E+01-9.03473E-04 3.29532E-06 6.15885E-04 7.95736E-14-1.46044E-13
 -1      4099 2.00023E+01-7.62175E-04-1.42018E-05 4.32559E-04 3.42218E-13-3.30849E-13
 -1      4100 2.00016E+01-9.57245E-04 4.15723E-06 5.89274E-04 2.39228E-13-6.76583E-15
 -1      4101 2.00014E+01-9.79685E-04 3.99804E-06 5.64801E-04 2.41439E-13-7.04024E-15
 -1      4102 2.00018E+01-9.64457E-04-1.29098E-05 4.24426E-04 2.71089E-13-6.69319E-14
 -1      4103 1.89005E+01 6.44472E-01-9.59547E-03 6.05049E-01-2.13683E-13 7.57919E-14
 -1      4104 1.90865E+01 6.28017E-01 4.54570E-03 4.59633E-01-2.47940E-13 1.48847E-14
 -1      4105 2.12055E+01-1.14316E+00 1.30051E-02 7.98414E-01-1.47590E-13 1.19659E-13
 -1      4106 2.15025E+01-1.36051E+00 1.78219E-05 7.44867E-01-7.82237E-14 1.18262E-13
 -1      4107 2.08938E+01-1.07118E+00-1.88470E-02 1.02883E+00-1.88168E-13 1.54547E-13
 -1      4108 1.99120E+01 1.34190E-01-8.93112E-04 6.33862E-02-1.48127E-13-2.34578E-13
 -1      4109 1.99029E+01 1.46541E-01 5.23188E-04 7.71052E-02-1.57625E-13-2.09683E-13
 -1      4110 1.98833E+01 1.56655E-01-1.19707E-03 9.37726E-02-9.21964E-14-1.58931E-14
 -1      4111 1.98748E+01 1.67722E-01 9.40904E-04 1.13113E-01-1.34623E-15 8.34196E-14
 -1      4112 1.98809E+01 1.69353E-01 1.60353E-03 7.33695E-02 1.12763E-14 5.77533E-14
 -1      4113 1.99556E+01 8.90840E-02-4.69671E-04 2.83289E-02 2.80250E-14 1.46148E-13
 -1      4114 1.99485E+01 1.00112E-01 1.36089E-04 3.51816E-02-2.70393E-14-1.09329E-14
 -1      4115 1.99707E+01 6.96929E-02-3.34073E-04 1.86573E-02-1.64148E-14 3.23814E-13
 -1      4116 1.99650E+01 7.92598E-02 5.41920E-05 2.34929E-02 4.09613E-14 2.04039E-13
 -1      4117 1.99577E+01 9.06095E-02 7.69788E-04 1.91333E-02-4.46116E-14 1.33400E-13
 -1      4118 1.99819E+01 5.32144E-02-2.34572E-04 1.20957E-02 1.04929E-14 1.95059E-13
 -1      4119 1.99776E+01 6.12162E-02 1.18182E-05 1.55050E-02 1.90901E-14 2.32617E-13
 -1      4120 1.99727E+01 6.99923E-02 5.67728E-04 1.19572E-02 8.13748E-14 1.75636E-13
 -1      4121 1.99900E+01 3.96655E-02-1.62311E-04 7.65589E-03 5.12882E-14 2.89503E-13
 -1      4122 1.99869E+01 4.61642E-02-7.17837E-06 1.00550E-02 7.80066E-14 2.87750E-13
 -1      4123 1.99836E+01 5.28707E-02 4.08477E-04 7.34492E-03 5.61025E-15 1.68752E-13
 -1      4124 1.99956E+01 2.88288E-02-1.10303E-04 4.66482E-03 4.24945E-14 3.47280E-13
 -1      4125 1.99934E+01 3.39742E-02-1.32715E-05 6.34577E-03-1.32618E-14 3.07941E-13
 -1      4126 1.99914E+01 3.90341E-02 2.86065E-04 4.39153E-03 1.57069E-14 3.61229E-13
 -1      4127 1.99993E+01 2.03716E-02-7.32074E-05 2.66515E-03 1.46306E-13 3.44412E-13
 -1      4128 1.99979E+01 2.43519E-02-1.29156E-05 3.83379E-03 1.78731E-13 3.22946E-13
 -1      4129 1.99967E+01 2.81153E-02 1.93990E-04 2.50827E-03 1.30003E-13 3.84208E-13
 -1      4130 2.00016E+01 1.39229E-02-4.70137E-05 1.34566E-03 9.93191E-14 3.10337E-13
 -1      4131 2.00007E+01 1.69334E-02-9.87297E-06 2.14792E-03 1.52418E-13 3.93298E-13
 -1      4132 2.00001E+01 1.96866E-02 1.26175E-04 1.31531E-03 1.49831E-13 5.09009E-13
 -1      4133 2.00029E+01 9.11823E-03-2.87494E-05 4.93425E-04 3.53896E-14 1.82088E-13
 -1      4134 2.00024E+01 1.13434E-02-6.18599E-06 1.03367E-03 7.83518E-14 2.04636E-13
 -1      4135 2.00021E+01 1.33188E-02 7.73262E-05 5.68604E-04 2.01753E-13 5.34464E-13
 -1      4136 2.00034E+01 5.62477E-03-1.62229E-05-3.83221E-05 5.58694E-14 2.55433E-14
 -1      4137 2.00033E+01 7.22921E-03-2.84885E-06 3.15172E-04 4.41589E-14 5.75029E-14
 -1      4138 2.00032E+01 8.61332E-03 4.30182E-05 1.11262E-04 1.64863E-13 3.34945E-13
 -1      4139 2.00035E+01 3.15305E-03-7.82300E-06-3.51542E-04-6.99871E-14 2.95481E-14
 -1      4140 2.00036E+01 4.27763E-03-2.50521E-07-1.30124E-04 8.25047E-15-6.46114E-14
 -1      4141 2.00037E+01 5.21889E-03 1.96539E-05-1.58069E-04 2.73433E-14 2.50911E-13
 -1      4142 2.00034E+01 1.45993E-03-2.36664E-06-5.17550E-04-8.50211E-14 4.37517E-14
 -1      4143 2.00035E+01 2.22154E-03 1.54486E-06-3.88343E-04-9.56734E-14-5.68616E-14
 -1      4144 2.00037E+01 2.83664E-03 4.37196E-06-3.05408E-04-4.25967E-14 5.80956E-14
 -1      4145 2.00030E+01 3.46916E-04 1.01488E-06-5.86417E-04-1.01794E-13 9.38528E-14
 -1      4146 2.00032E+01 8.40094E-04 2.62825E-06-5.20349E-04-1.34284E-13 9.49844E-14
 -1      4147 2.00034E+01 1.21972E-03-5.06040E-06-3.74207E-04-1.10375E-13 1.80903E-13
 -1      4148 2.00026E+01-3.44248E-04 2.95916E-06-5.93269E-04-7.91201E-14 8.39525E-14
 -1      4149 2.00028E+01-4.47081E-05 3.14814E-06-5.69254E-04 9.12596E-14 3.93680E-14
 -1      4150 2.00030E+01 1.68981E-04-1.03490E-05-3.93385E-04 6.34963E-14 9.15322E-14
 -1      4151 2.00022E+01-7.37155E-04 3.92553E-06-5.62503E-04 2.03983E-13-1.37163E-14
 -1      4152 2.00024E+01-5.73287E-04 3.25600E-06-5.65481E-04 4.24392E-14-5.54714E-14
 -1      4153 2.00026E+01-4.72879E-04-1.27415E-05-3.82400E-04 1.24852E-14-5.81309E-14
 -1      4154 2.00017E+01-9.26302E-04 4.79809E-06-5.10165E-04 3.05330E-13-7.61044E-17
 -1      4155 2.00019E+01-8.54623E-04 3.01759E-06-5.29967E-04 2.99474E-13-5.13125E-14
 -1      4156 2.00021E+01-8.27637E-04-1.29123E-05-3.54585E-04 1.80903E-13-3.70252E-13
 -1      4157 2.00013E+01-9.86039E-04 3.43988E-06-4.32125E-04 2.95678E-13-1.24207E-13
 -1      4158 2.00015E+01-9.72049E-04 2.30202E-06-4.59785E-04 3.76532E-13-9.83295E-14
 -1      4159 2.00017E+01-9.88581E-04-1.05346E-05-3.01198E-04 3.77321E-13-2.00656E-13
 -1      4160 2.00013E+01-1.01699E-03-5.14513E-06-2.26839E-04 1.64881E-13-1.47430E-13
 -1      4161 1.98232E+01 1.82183E-01-1.03166E-03 1.99829E-01-8.24398E-15 2.19529E-13
 -1      4162 1.98212E+01 1.81020E-01 2.11567E-03 2.37501E-01-1.38726E-13 1.52754E-13
 -1      4163 1.99393E+01-1.45142E-01 1.48802E-03 7.68295E-01-9.38796E-14 1.53468E-13
 -1      4164 2.00569E+01-2.67150E-01 6.81188E-03 8.63805E-01-8.55111E-14 1.16270E-13
 -1      4165 1.86260E+01-1.12220E-01 2.73361E-02 2.48762E+00-2.38436E-13 5.63440E-14
 -1      4166 1.82422E+01 2.54583E-01-2.86989E-02 2.02127E+00-2.00351E-13 7.03571E-14
 -1      4167 1.98286E+01 2.72112E-02-1.66320E-03 5.68087E-01-5.20509E-14 1.60174E-13
 -1      4168 1.98972E+01-4.71386E-02 5.04026E-03 6.50800E-01-7.76752E-14 1.97346E-13
 -1      4169 1.97629E+01-2.37844E-02-6.82964E-03 7.68833E-01-1.15208E-13 1.34189E-13
 -1      4170 1.99362E+01 1.10954E-01-6.52090E-04 4.25495E-02-7.01379E-14-1.40479E-13
 -1      4171 1.99278E+01 1.23059E-01 2.81121E-04 5.22530E-02-1.30047E-13-2.75662E-13
 -1      4172 1.99124E+01 1.41384E-01 1.30637E-03 4.73362E-02-1.27549E-13-1.71713E-13
 -1      4173 1.99378E+01 1.14622E-01 1.01780E-03 3.02456E-02-1.39706E-13-9.02702E-14
 -1      4174 2.16735E+01-1.71650E+00-1.00502E-02 1.41262E+00-1.88635E-13 6.68632E-14
 -1      4175 2.10149E+01-1.36510E+00 4.06916E-03 1.68611E+00-2.02993E-13 6.37649E-14
 -1      4176 1.97995E+01 1.68714E-01-1.67495E-03 2.88744E-01-2.19179E-13 1.96662E-13
 -1      4177 1.98121E+01 1.53356E-01 3.41386E-03 3.37689E-01-1.73544E-13 1.76742E-13
 -1      4178 1.97624E+01 2.17633E-01 1.20674E-03 2.54610E-01-1.41117E-13 1.98491E-13
 -1      4179 1.91748E+01 5.87071E-01-7.69127E-03 3.37301E-01-1.62108E-13 6.49377E-14
 -1      4180 1.93260E+01 5.48218E-01 2.73051E-03 2.41602E-01-1.30956E-14 5.02300E-15
 -1      4181 1.94145E+01 4.71032E-01 3.96409E-03 2.94849E-01-4.68279E-14 1.95055E-14
 -1      4182 1.92406E+01 5.16359E-01 7.66647E-03 5.05509E-01-1.75495E-13 1.45113E-13
 -1      4183 2.00010E+01-9.97951E-04-6.96739E-07 5.79965E-05-5.03382E-16-3.32362E-13
 -1      4184 2.00012E+01-1.01424E-03 8.47994E-07-3.71550E-05 3.43044E-14-1.93345E-13
 -1      4185 2.00010E+01-9.91410E-04 7.01500E-07 2.04325E-04 2.87405E-13-1.11602E-13
 -1      4186 1.98516E+01 1.74829E-01-1.46364E-03 1.38068E-01-3.13551E-14 1.57310E-13
 -1      4187 1.98450E+01 1.80762E-01 9.82141E-04 1.65481E-01 4.71221E-14 2.04267E-13
 -1      4188 1.98432E+01 1.95583E-01 1.73410E-03 1.12584E-01 6.45947E-14 1.88583E-13
 -1      4189 1.97933E+01 1.22021E-01-2.69873E-03 4.09606E-01-1.20277E-13 1.57688E-13
 -1      4190 1.98307E+01 8.52499E-02 4.98773E-03 4.74021E-01-3.94727E-14 1.54038E-13
 -1      4191 1.97241E+01 1.22581E-01-5.47942E-04 5.47725E-01-1.06917E-13 1.65586E-13
 -1      4192 1.97292E+01 1.95840E-01 1.28804E-03 3.79676E-01-1.60157E-13 2.48816E-13
 -1      4193 1.96487E+01-1.01264E+00 1.30759E-02 2.87311E+00-2.53989E-13 2.33854E-14
 -1      4194 1.89330E+01-5.14374E-01-1.48889E-02 2.65780E+00-2.57505E-13 3.96647E-14
 -1      4195 1.93492E+01-4.27715E-01 1.42975E-02 2.23703E+00-2.57442E-13-2.18315E-15
 -1      4196 2.02229E+01-1.05941E+00 2.58796E-02 2.36858E+00-2.78904E-13 4.47775E-16
 -1      4197 1.79913E+01 8.73887E-01 3.04296E-02 1.39339E+00-2.19238E-13 9.47688E-14
 -1      4198 2.01601E+01-4.18363E-01 4.53844E-03 1.00376E+00-1.25226E-13 1.13086E-13
 -1      4199 2.03534E+01-6.03093E-01 7.32013E-03 1.09870E+00-1.73693E-13 1.80161E-13
 -1      4200 1.98983E+01-2.63158E-01-9.57721E-03 1.04317E+00-1.02292E-13-5.47170E-16
 -1      4201 2.08840E+01-1.07925E+00 1.45814E-02 1.33595E+00-1.76472E-13 1.29216E-13
 -1      4202 2.05193E+01-1.17428E+00-1.47768E-02 1.96613E+00-2.49888E-13 5.65839E-14
 -1      4203 2.00539E+01-8.42799E-01-1.06345E-02 1.96384E+00-2.62573E-13 6.87673E-14
 -1      4204 2.05650E+01-8.34174E-01 1.06607E-02 1.27755E+00-2.33268E-13 1.73208E-13
 -1      4205 2.00014E+01-1.02461E-03-9.56898E-06 3.87908E-04 2.48386E-13 8.20270E-14
 -1      4206 2.00013E+01-9.86630E-04 2.21358E-06 5.30990E-04 1.75307E-13 5.01198E-14
 -1      4207 2.00011E+01-9.82265E-04 2.04997E-06 4.96069E-04 3.33394E-13 3.44023E-14
 -1      4208 1.88074E+01 6.67978E-01 8.83969E-03 7.92701E-01-1.78033E-13 7.68835E-14
 -1      4209 1.90276E+01 4.86744E-01-1.74550E-03 8.32101E-01-2.12488E-13 4.33145E-14
 -1      4210 1.85310E+01 6.59870E-01-1.71062E-02 1.01127E+00-2.00716E-13 6.82389E-14
 -1      4211 1.98013E+01 2.08241E-01-5.98387E-04 1.71414E-01 1.12366E-14 2.13128E-13
 -1      4212 2.00014E+01-1.02656E-03-8.84268E-07-6.42973E-05 1.20490E-13-2.43532E-13
 -1      4213 1.85172E+01 4.41048E-01 7.98457E-03 1.56046E+00-2.10356E-13 5.28637E-14
 -1      4214 2.00010E+01-9.68989E-04 1.53693E-06 4.71857E-04 3.10807E-13-6.35054E-14
 -1      4215 2.00009E+01-9.49686E-04 2.18346E-06 4.34963E-04 2.36413E-13-1.23297E-13
 -1      4216 1.96652E+01 3.25016E-01-1.72128E-03 1.29700E-01-9.69835E-14-2.23629E-13
 -1      4217 1.97177E+01 2.95406E-01-7.67044E-04 9.82415E-02-1.71775E-13-1.38951E-13
 -1      4218 1.97667E+01 2.54080E-01-1.37615E-03 9.72233E-02-4.70469E-15 1.41780E-14
 -1      4219 1.98028E+01 2.31292E-01-4.72617E-04 7.74110E-02 1.26136E-13 1.23165E-13
 -1      4220 1.98232E+01 2.13405E-01-2.16197E-03 5.48779E-02 6.72144E-14 2.67333E-14
 -1      4221 1.98534E+01 1.92215E-01-8.54997E-04 4.37177E-02 7.96909E-14 7.92495E-14
 -1      4222 1.98716E+01 1.75055E-01-1.66786E-03 2.87680E-02 6.03487E-14 4.98521E-14
 -1      4223 1.98943E+01 1.56068E-01-8.24511E-04 2.32821E-02-2.44677E-15-2.90844E-14
 -1      4224 1.99094E+01 1.40408E-01-1.21386E-03 1.36314E-02-1.32547E-13-8.30750E-14
 -1      4225 1.99260E+01 1.24046E-01-7.04104E-04 1.14140E-02-1.72750E-13-5.44311E-14
 -1      4226 1.99380E+01 1.10367E-01-8.61135E-04 5.28412E-03-1.82646E-13-4.82555E-14
 -1      4227 1.99501E+01 9.66779E-02-5.68063E-04 4.84439E-03-1.44733E-13-2.56649E-14
 -1      4228 1.99593E+01 8.51216E-02-5.99829E-04 9.97078E-04-3.17996E-14-1.02718E-14
 -1      4229 1.99678E+01 7.39348E-02-4.40776E-04 1.43505E-03 9.44475E-14 5.35742E-14
 -1      4230 1.99747E+01 6.44284E-02-4.10544E-04-9.58074E-04 7.06777E-14-1.50466E-14
 -1      4231 1.99806E+01 5.54692E-02-3.31047E-04-1.64599E-04-2.28998E-14-2.12691E-14
 -1      4232 1.99855E+01 4.78245E-02-2.75442E-04-1.64347E-03-1.27367E-13 1.87527E-14
 -1      4233 1.99895E+01 4.07793E-02-2.41052E-04-7.80069E-04-1.77624E-13-5.91214E-14
 -1      4234 1.99929E+01 3.47560E-02-1.80182E-04-1.68970E-03 4.35979E-15-1.67018E-14
 -1      4235 1.99956E+01 2.93119E-02-1.69883E-04-8.98261E-04 9.99155E-14 1.58152E-13
 -1      4236 1.99978E+01 2.46572E-02-1.13823E-04-1.45562E-03 2.33641E-14 1.86304E-13
 -1      4237 1.99995E+01 2.05235E-02-1.15276E-04-7.94359E-04 3.78331E-15 2.67984E-13
 -1      4238 2.00009E+01 1.69951E-02-6.82324E-05-1.13424E-03 2.01858E-14 2.92108E-13
 -1      4239 2.00019E+01 1.39134E-02-7.45224E-05-6.15371E-04 3.65002E-14 2.82232E-13
 -1      4240 2.00027E+01 1.12919E-02-3.74517E-05-8.20820E-04 1.26519E-13 3.19205E-13
 -1      4241 2.00032E+01 9.04007E-03-4.49426E-05-4.33498E-04 2.85778E-13 4.88165E-13
 -1      4242 2.00036E+01 7.13435E-03-1.71535E-05-5.55483E-04 1.86421E-13 3.79822E-13
 -1      4243 2.00037E+01 5.52589E-03-2.41154E-05-2.79210E-04 1.30616E-13 4.29676E-13
 -1      4244 2.00038E+01 4.17453E-03-4.21024E-06-3.49067E-04 6.45525E-14 3.81908E-13
 -1      4245 2.00038E+01 3.05631E-03-9.96969E-06-1.61090E-04 6.21669E-14 2.97359E-13
 -1      4246 2.00038E+01 2.12619E-03 3.62971E-06-1.98228E-04 4.34385E-14 2.21681E-13
 -1      4247 2.00036E+01 1.37476E-03-8.01503E-07-7.72885E-05 1.74124E-13 2.72478E-13
 -1      4248 2.00034E+01 7.58422E-04 7.97965E-06-9.38929E-05 1.88627E-13 7.49319E-14
 -1      4249 2.00032E+01 2.75935E-04 4.74473E-06-2.18340E-05 1.94493E-13-8.32334E-14
 -1      4250 2.00030E+01-1.11759E-04 9.97990E-06-2.57052E-05 2.50820E-13-8.68833E-14
 -1      4251 2.00028E+01-4.01614E-04 7.69592E-06 1.21435E-05 2.44534E-13-6.00609E-14
 -1      4252 2.00025E+01-6.26954E-04 1.03766E-05 1.58340E-05 1.36358E-13-2.11762E-13
 -1      4253 2.00023E+01-7.82925E-04 8.65304E-06 3.10266E-05 1.27780E-13-3.20712E-13
 -1      4254 2.00021E+01-8.96653E-04 9.37852E-06 3.85718E-05 2.77723E-13-3.58108E-13
 -1      4255 2.00018E+01-9.64694E-04 6.98752E-06 4.05421E-05 3.38654E-13-2.96250E-13
 -1      4256 1.96036E+01 3.15750E-01-4.16334E-03 2.74700E-01-5.79292E-14 2.62810E-14
 -1      4257 1.96671E+01 3.01841E-01 4.85006E-04 2.16148E-01-4.27794E-14-1.48763E-14
 -1      4258 2.16312E+01-1.52574E+00-7.82986E-05 9.99410E-01-1.00120E-13 1.31159E-13
 -1      4259 2.00016E+01-1.00647E-03 6.55352E-06 6.57199E-05 2.55235E-13-2.22242E-13
 -1      4260 1.95858E+01 1.61332E-01 2.05065E-03 7.15318E-01-1.95624E-13 1.36608E-13
 -1      4261 1.96366E+01 8.10313E-02 7.94710E-03 8.38078E-01-1.25525E-13 9.00429E-14
 -1      4262 1.97495E+01 2.48566E-01-1.11367E-04 1.78090E-01-1.08059E-13 6.41362E-14
 -1      4263 1.97225E+01 2.53762E-01 3.08502E-04 2.27360E-01-1.63723E-13-3.05517E-15
 -1      4264 1.95916E+01 3.13960E-01 1.66111E-03 3.47350E-01-8.22764E-14 5.13207E-14
 -1      4265 1.97734E+01 2.43671E-01 1.35017E-03 1.43201E-01-3.50046E-14 1.40601E-13
 -1      4266 2.00012E+01-1.00639E-03-4.32274E-06 3.37821E-04 2.29053E-13-2.12226E-14
 -1      4267 1.88926E+01 2.22986E-01 3.26477E-03 1.54962E+00-2.18868E-13-2.13884E-14
 -1      4268 2.01804E+01-6.45248E-01-1.16383E-02 1.40152E+00-2.13597E-13 1.20473E-13
 -1      4269 2.00015E+01-1.01713E-03 4.50715E-06 5.18139E-05 2.04388E-13-2.29140E-13
 -1      4270 1.91820E+01 3.57474E-01-7.58457E-06 8.98547E-01-1.55860E-13 1.56796E-13
 -1      4271 1.92774E+01 3.80204E-01-4.83072E-05 7.13755E-01-1.73772E-13 1.77023E-13
 -1      4272 1.95111E+01 3.18677E-01-4.50541E-03 4.39356E-01-1.26861E-13 8.58171E-14
 -1      4273 1.95104E+01 2.96858E-01 2.51335E-03 5.36620E-01-1.34645E-13 1.11884E-13
 -1      4274 2.00445E+01-5.90404E-01 9.50015E-03 1.62293E+00-2.21517E-13 6.80325E-14
 -1      4275 1.96672E+01-5.65308E-01-8.13112E-03 1.98792E+00-2.30057E-13-6.51416E-15
 -1      4276 1.92643E+01-2.42828E-01-1.70506E-02 1.85582E+00-2.17178E-13 2.91700E-14
 -1      4277 1.98335E+01-3.59115E-01-7.20754E-04 1.41149E+00-1.63872E-13 2.56309E-14
 -1      4278 2.00009E+01-9.74817E-04-7.62828E-07 2.96041E-04 3.02889E-13-1.11611E-13
 -1      4279 1.93477E+01 3.78978E-01-3.66214E-03 5.79620E-01-1.51400E-13 1.69293E-13
 -1      4280 1.94160E+01 1.25958E-01-8.34626E-03 9.95534E-01-1.56883E-13 1.43688E-13
 -1      4281 1.96437E+01-4.75592E-02 6.65509E-04 1.05191E+00-1.17251E-13 5.06914E-14
 -1      4282 1.97513E+01-1.77890E-01 9.84423E-03 1.21274E+00-1.41550E-13 4.90606E-14
 -1      4283 1.91624E+01 2.35201E-01-4.75472E-03 1.14253E+00-1.73337E-13 9.65230E-14
 -1      4284 2.00011E+01-1.00405E-03 3.83568E-07 2.26690E-04 1.84537E-13-1.93705E-13
 -1      4285 1.95257E+01-1.27524E-01 3.83474E-03 1.42739E+00-1.64710E-13 1.26284E-13
 -1      4286 1.92463E+01 1.16455E-01 8.51817E-03 1.34452E+00-1.83022E-13 6.64534E-14
 -1      4287 2.00013E+01-1.02015E-03 8.53057E-07 2.48037E-04 1.04292E-13-3.29713E-15
 -3
    1PSTEP                         3           1           1          
  100CL  101 1.000000000        4287                     0    1           1
 -4  TOSTRAIN    6    1
 -5  EXX         1    4    1    1
 -5  EYY         1    4    2    2
 -5  EZZ         1    4    3    3
 -5  EXY         1    4    1    2
 -5  EYZ         1    4    2    3
 -5  EZX         1    4    3    1
 -1         1 3.26100E-05 1.75531E-05-2.60905E-05 4.49693E-05-1.83772E-17-1.85911E-17
 -1         2 3.83485E-05-1.18734E-04 2.21814E-05 8.05770E-07-7.57671E-19-2.84709E-19
 -1         3 9.52372E-05-2.85711E-05-2.85712E-05 3.33083E-11-3.21403E-18-3.28225E-18
 -1         4 9.52372E-05-2.85711E-05-2.85712E-05-4.41193E-11-1.09499E-18 2.62297E-18
 -1         5 1.48682E-04-2.24726E-05-4.37429E-05 4.05787E-05-2.28170E-19 1.70579E-17
 -1         6 1.65512E-04 3.35857E-10-5.30963E-05-5.32282E-05-7.23684E-19 1.32226E-17
 -1         7 1.12071E-04-1.66565E-06-4.65676E-05-2.01473E-05-9.12678E-20 3.39282E-18
 -1         8 9.46027E-05-1.23930E-07-4.01203E-05-6.86891E-06-1.38702E-19 6.18069E-20
 -1         9 8.02074E-05 3.04635E-07-3.47453E-05-3.62187E-06-1.43996E-19-1.93256E-18
 -1        10 6.98222E-05 4.91104E-07-3.07183E-05-5.44844E-06-9.96323E-20-3.00177E-18
 -1        11 6.47412E-05 5.13753E-07-2.86050E-05-9.49582E-06-9.50530E-20-3.51776E-18
 -1        12 6.48696E-05 4.00959E-07-2.84113E-05-1.30854E-05-6.44804E-20-3.65189E-18
 -1        13 6.87637E-05 2.09382E-07-2.96599E-05-1.44352E-05-7.43007E-20-3.55998E-18
 -1        14 7.42565E-05 2.33289E-08-3.16121E-05-1.28210E-05-3.16049E-20-3.38226E-18
 -1        15 7.94352E-05-1.03050E-07-3.35691E-05-8.75136E-06-6.45863E-21-3.20466E-18
 -1        16 8.32219E-05-1.55490E-07-3.50907E-05-3.27029E-06 3.16314E-20-3.00327E-18
 -1        17 8.53574E-05-1.47981E-07-3.60260E-05 2.63352E-06 5.34425E-20-2.69537E-18
 -1        18 8.61304E-05-1.03216E-07-3.64430E-05 8.23625E-06 7.92505E-20-2.25409E-18
 -1        19 8.61212E-05-3.07723E-08-3.65620E-05 1.34826E-05 1.37219E-19-1.53492E-18
 -1        20 8.60908E-05 7.16865E-08-3.67016E-05 1.83607E-05 1.75766E-19-2.00777E-19
 -1        21 8.72666E-05 2.35236E-07-3.73877E-05 2.33812E-05 2.18429E-19 2.27106E-18
 -1        22 9.35112E-05 4.73524E-08-3.96931E-05 3.06121E-05 1.22820E-20 6.96850E-18
 -1        23 1.50128E-04-5.07226E-05-4.64476E-05-1.49230E-06-4.81168E-19 1.08174E-17
 -1        24 1.43116E-04-4.28278E-05-4.41581E-05 1.27422E-06-1.25725E-19 8.84938E-18
 -1        25 1.54419E-04-4.64271E-05-4.64621E-05 1.42722E-06-6.22205E-20 7.21937E-18
 -1        26 1.67882E-04-5.05369E-05-4.95593E-05 1.27051E-06 3.49401E-21 6.82380E-18
 -1        27 1.73936E-04-5.25508E-05-5.02466E-05-1.67766E-07 4.11936E-20 8.10168E-18
 -1        28 1.58940E-04-4.80348E-05-4.60432E-05-4.11527E-06 6.98008E-20 9.69366E-18
 -1        29 1.24785E-04-3.65039E-05-3.90404E-05-5.93867E-06-2.83412E-19 9.21487E-18
 -1        30 8.96492E-05-2.50057E-05-3.26154E-05-4.18918E-06-2.65598E-19 6.23268E-18
 -1        31 7.78813E-05-2.09454E-05-3.06624E-05 1.21373E-06 1.78274E-19 1.80810E-18
 -1        32 9.99376E-05-2.85768E-05-3.43472E-05 4.99170E-06-2.17370E-19-2.98918E-18
 -1        33 1.34948E-04-4.01602E-05-4.08550E-05 4.86154E-06 2.89513E-22-6.16365E-18
 -1        34 1.65809E-04-5.02507E-05-4.76200E-05 2.23851E-06 1.91502E-19-7.40010E-18
 -1        35 1.73889E-04-5.25983E-05-5.03595E-05-6.40285E-08-1.17764E-19-6.46074E-18
 -1        36 1.63715E-04-4.92475E-05-4.84837E-05-9.25409E-07 3.16635E-19-5.04842E-18
 -1        37 1.47308E-04-4.41588E-05-4.43063E-05-8.48769E-07 3.31302E-20-2.67064E-18
 -1        38 1.32118E-04-3.95826E-05-3.99456E-05-5.66222E-07 2.20512E-19-1.10437E-18
 -1        39 1.20405E-04-3.60932E-05-3.63974E-05-3.33131E-07-3.04465E-19-2.02536E-18
 -1        40 1.12088E-04-3.36204E-05-3.38197E-05-1.83991E-07-1.83729E-19-1.53125E-18
 -1        41 1.06413E-04-3.19299E-05-3.20474E-05-9.78177E-08 3.33991E-20-1.94209E-18
 -1        42 1.02612E-04-3.07934E-05-3.08596E-05-5.04505E-08 1.95089E-19-2.56160E-18
 -1        43 1.00083E-04-3.00346E-05-3.00713E-05-2.50849E-08-1.17843E-19-5.34799E-19
 -1        44 9.84021E-05-2.95289E-05-2.95492E-05-1.17263E-08 1.70998E-19-9.63980E-20
 -1        45 9.72836E-05-2.91916E-05-2.92029E-05-4.79477E-09-3.82536E-20-1.22450E-18
 -1        46 9.65372E-05-2.89663E-05-2.89724E-05-2.23481E-09 7.02457E-20-5.56536E-19
 -1        47 9.60214E-05-2.88099E-05-2.88133E-05 8.29459E-10-2.11372E-19-1.18046E-18
 -1        48 9.56991E-05-2.87124E-05-2.87142E-05 1.25909E-09-5.76383E-19-5.18706E-18
 -1        49 9.54869E-05-2.86480E-05-2.86490E-05 1.52991E-09 9.59759E-19-3.93090E-18
 -1        50 9.53496E-05-2.86063E-05-2.86067E-05 1.56763E-09-2.13718E-19-2.43049E-18
 -1        51 9.52632E-05-2.85800E-05-2.85802E-05 1.48530E-09 2.02885E-19 1.54578E-18
 -1        52 9.52112E-05-2.85641E-05-2.85641E-05 1.34746E-09-3.00251E-19-8.71357E-19
 -1        53 9.51824E-05-2.85553E-05-2.85552E-05 1.18833E-09 1.03184E-18 4.71431E-19
 -1        54 9.51689E-05-2.85510E-05-2.85509E-05 1.02629E-09-1.43187E-19 2.61022E-19
 -1        55 9.51652E-05-2.85498E-05-2.85497E-05 8.71273E-10-2.01988E-19-4.72400E-18
 -1        56 9.51675E-05-2.85504E-05-2.85503E-05 7.28522E-10-2.22873E-19-1.04141E-17
 -1        57 9.51733E-05-2.85521E-05-2.85520E-05 6.00598E-10 1.37042E-18-7.80647E-18
 -1        58 9.51809E-05-2.85543E-05-2.85542E-05 4.88427E-10-4.07303E-19-3.61317E-18
 -1        59 9.51890E-05-2.85567E-05-2.85566E-05 3.91913E-10 4.92147E-19-1.00203E-18
 -1        60 9.51969E-05-2.85591E-05-2.85590E-05 3.10303E-10-1.94722E-19-3.82910E-19
 -1        61 9.52043E-05-2.85613E-05-2.85612E-05 2.42446E-10 4.06188E-19 3.05346E-18
 -1        62 9.52108E-05-2.85633E-05-2.85632E-05 1.86965E-10 1.15655E-18 1.45542E-18
 -1        63 9.52165E-05-2.85650E-05-2.85649E-05 1.42391E-10 3.69783E-19 1.64563E-18
 -1        64 9.52214E-05-2.85664E-05-2.85664E-05 1.07255E-10-1.24389E-18 1.01133E-19
 -1        65 9.52254E-05-2.85676E-05-2.85676E-05 8.01459E-11 5.01509E-19 1.04267E-18
 -1        66 9.52287E-05-2.85686E-05-2.85686E-05 5.97318E-11-8.36189E-20 7.62540E-19
 -1        67 9.52314E-05-2.85694E-05-2.85694E-05 4.47203E-11-1.49061E-19 7.76831E-19
 -1        68 9.52335E-05-2.85700E-05-2.85700E-05 3.37214E-11 1.05215E-18-2.01493E-18
 -1        69 9.52351E-05-2.85705E-05-2.85705E-05 2.49457E-11 2.27680E-19-8.04063E-19
 -1        70 9.52363E-05-2.85709E-05-2.85709E-05 1.52352E-11-1.09573E-19-4.28025E-18
 -1        71 9.52370E-05-2.85711E-05-2.85711E-05-4.10236E-13 1.90177E-19-3.68264E-18
 -1        72 9.52373E-05-2.85712E-05-2.85712E-05-4.58231E-11 6.18789E-19 7.80447E-19
 -1        73 1.03599E-04-3.10003E-05-3.46858E-05-1.87673E-06 2.15940E-19 1.59474E-17
 -1        74 9.13933E-05-2.71470E-05-2.85902E-05-3.26029E-07 8.84289E-20 1.30272E-17
 -1        75 8.52817E-05-2.55621E-05-2.57928E-05-8.40613E-08 3.35513E-20 1.09146E-17
 -1        76 8.10627E-05-2.43630E-05-2.43042E-05 2.12271E-09 7.93014E-20 9.37485E-18
 -1        77 7.75666E-05-2.33127E-05-2.32526E-05 7.38317E-08 4.58684E-20 8.16077E-18
 -1        78 7.46785E-05-2.24330E-05-2.24327E-05 1.13650E-07-4.02651E-20 7.28999E-18
 -1        79 7.27408E-05-2.18376E-05-2.18978E-05 1.09363E-07-2.73193E-20 6.72948E-18
 -1        80 7.21750E-05-2.16552E-05-2.17552E-05 6.21296E-08 8.03474E-20 5.81643E-18
 -1        81 7.32140E-05-2.19577E-05-2.20661E-05-1.22253E-08-8.44675E-20 4.37432E-18
 -1        82 7.57590E-05-2.27170E-05-2.28024E-05-8.90163E-08 1.35087E-19 3.43111E-18
 -1        83 7.93891E-05-2.38065E-05-2.38492E-05-1.45448E-07-5.67591E-21 2.68287E-18
 -1        84 8.35022E-05-2.50437E-05-2.50407E-05-1.69653E-07-8.27366E-20 2.92586E-18
 -1        85 8.75014E-05-2.62472E-05-2.62092E-05-1.62845E-07 7.16068E-20 2.13695E-18
 -1        86 9.09416E-05-2.72820E-05-2.72259E-05-1.34992E-07-2.68089E-20 2.35147E-18
 -1        87 9.35910E-05-2.80781E-05-2.80197E-05-9.83366E-08 2.74822E-19 1.77305E-18
 -1        88 9.54123E-05-2.86247E-05-2.85743E-05-6.26605E-08 1.49606E-20 5.45493E-19
 -1        89 9.65020E-05-2.89513E-05-2.89135E-05-3.35463E-08-2.36441E-19 6.90583E-19
 -1        90 9.70215E-05-2.91067E-05-2.90819E-05-1.28061E-08 1.09486E-19 7.35961E-19
 -1        91 9.71436E-05-2.91430E-05-2.91289E-05 1.63591E-10-2.39924E-19 1.29659E-18
 -1        92 9.70203E-05-2.91058E-05-2.90996E-05 7.06153E-09-1.11459E-19 1.55096E-18
 -1        93 9.67689E-05-2.90304E-05-2.90292E-05 9.78255E-09-4.24058E-20 1.56087E-18
 -1        94 9.64712E-05-2.89412E-05-2.89428E-05 9.95579E-09 1.45090E-19 1.27842E-18
 -1        95 9.61783E-05-2.88535E-05-2.88563E-05 8.78996E-09 1.63256E-19-1.58499E-18
 -1        96 9.59180E-05-2.87755E-05-2.87786E-05 7.08647E-09-3.90297E-19-1.88513E-18
 -1        97 9.57022E-05-2.87108E-05-2.87137E-05 5.32193E-09 1.31040E-19-5.41632E-19
 -1        98 9.55328E-05-2.86600E-05-2.86625E-05 3.74370E-09 9.89527E-20-9.40833E-19
 -1        99 9.54061E-05-2.86220E-05-2.86240E-05 2.45233E-09-1.60370E-20-2.09672E-18
 -1       100 9.53156E-05-2.85949E-05-2.85963E-05 1.46291E-09-1.78259E-19-2.37627E-18
 -1       101 9.52543E-05-2.85765E-05-2.85775E-05 7.46481E-10 1.12934E-19-5.93373E-19
 -1       102 9.52154E-05-2.85648E-05-2.85654E-05 2.55986E-10 1.47359E-19-2.22417E-18
 -1       103 9.51930E-05-2.85580E-05-2.85584E-05-5.88501E-11 1.52801E-19-2.15105E-18
 -1       104 9.51822E-05-2.85548E-05-2.85550E-05-2.43891E-10-3.90920E-19-3.62999E-18
 -1       105 9.51792E-05-2.85538E-05-2.85539E-05-3.37445E-10 4.65104E-20-2.59578E-18
 -1       106 9.51812E-05-2.85544E-05-2.85544E-05-3.69641E-10 4.08765E-19-1.20707E-18
 -1       107 9.51861E-05-2.85559E-05-2.85558E-05-3.63097E-10-6.31421E-19-1.88636E-18
 -1       108 9.51924E-05-2.85577E-05-2.85577E-05-3.34107E-10 6.40221E-19-3.57528E-18
 -1       109 9.51991E-05-2.85598E-05-2.85597E-05-2.93948E-10 2.31690E-19-3.95758E-18
 -1       110 9.52057E-05-2.85617E-05-2.85617E-05-2.50093E-10-7.59263E-19-1.11315E-18
 -1       111 9.52118E-05-2.85635E-05-2.85635E-05-2.07234E-10 4.23088E-19 7.92311E-19
 -1       112 9.52172E-05-2.85652E-05-2.85651E-05-1.68104E-10-4.57356E-19 3.14553E-19
 -1       113 9.52218E-05-2.85665E-05-2.85665E-05-1.34110E-10-2.04515E-19 8.82855E-19
 -1       114 9.52257E-05-2.85677E-05-2.85677E-05-1.05793E-10 6.41040E-20 3.38634E-18
 -1       115 9.52289E-05-2.85687E-05-2.85686E-05-8.31502E-11 6.18099E-19 1.27783E-18
 -1       116 9.52315E-05-2.85694E-05-2.85694E-05-6.58346E-11-3.49182E-19-4.97644E-18
 -1       117 9.52336E-05-2.85701E-05-2.85700E-05-5.31777E-11 2.56885E-19-4.89929E-18
 -1       118 9.52352E-05-2.85706E-05-2.85705E-05-4.37143E-11 1.46499E-19-7.53133E-18
 -1       119 9.52363E-05-2.85709E-05-2.85709E-05-3.43996E-11-4.06341E-20-7.01452E-18
 -1       120 9.52370E-05-2.85711E-05-2.85711E-05-1.52027E-11 1.18786E-19-3.86618E-18
 -1       121 9.52372E-05-2.85712E-05-2.85712E-05 3.19985E-11 1.37847E-18-7.92596E-18
 -1       122 9.52371E-05-2.85711E-05-2.85712E-05 4.80151E-11-6.95446E-18 8.58131E-19
 -1       123 9.52372E-05-2.85713E-05-2.85711E-05-9.91615E-13-7.81267E-18-8.49895E-19
 -1       124 9.52374E-05-2.85720E-05-2.85709E-05-3.48516E-11-8.69686E-18 2.80379E-19
 -1       125 9.52377E-05-2.85729E-05-2.85706E-05-4.62030E-11-8.80463E-18 1.43066E-18
 -1       126 9.52380E-05-2.85740E-05-2.85703E-05-4.65986E-11-2.58769E-18-2.50010E-19
 -1       127 9.52383E-05-2.85749E-05-2.85700E-05-3.91642E-11-2.49032E-18-1.29761E-18
 -1       128 9.52385E-05-2.85757E-05-2.85698E-05-2.56390E-11-4.80807E-18-5.64613E-19
 -1       129 9.52386E-05-2.85761E-05-2.85697E-05-8.77182E-12-5.94415E-18 7.39973E-21
 -1       130 9.52386E-05-2.85761E-05-2.85697E-05 9.18509E-12-4.72506E-18 3.37202E-19
 -1       131 9.52385E-05-2.85757E-05-2.85698E-05 2.59929E-11-2.57844E-18-4.46818E-20
 -1       132 9.52383E-05-2.85749E-05-2.85700E-05 3.98110E-11-1.11265E-17-1.79954E-18
 -1       133 9.52380E-05-2.85740E-05-2.85703E-05 4.69386E-11-1.20865E-17 2.20176E-18
 -1       134 9.52377E-05-2.85729E-05-2.85706E-05 4.63459E-11-8.04333E-18-1.34785E-19
 -1       135 9.52374E-05-2.85719E-05-2.85709E-05 3.33428E-11-2.83395E-18 5.96084E-19
 -1       136 9.52372E-05-2.85713E-05-2.85711E-05-4.98392E-12-5.95900E-19-4.09215E-19
 -1       137 9.52371E-05-2.85710E-05-2.85712E-05-5.80129E-11-3.90890E-18-6.00298E-19
 -1       138 2.59846E-05-8.67284E-05 1.55227E-05-2.04958E-05 1.04443E-17 3.15557E-18
 -1       139 8.10229E-06-3.01703E-05 2.01057E-06-1.40567E-05 2.07248E-17 9.33197E-18
 -1       140 1.22070E-05 2.09585E-05-1.72402E-05 2.94605E-05 2.26899E-17 1.63587E-17
 -1       141 6.21708E-05 3.33628E-05-3.89997E-05 8.82590E-05 1.79846E-17 1.96304E-17
 -1       142 1.50624E-04 1.67630E-06-5.86589E-05 1.22945E-04 1.09958E-17 1.80384E-17
 -1       143 2.47065E-04-5.14058E-05-7.36953E-05 1.09936E-04 4.50791E-18 1.34081E-17
 -1       144 3.11956E-04-9.21415E-05-8.21448E-05 5.00134E-05 9.91148E-19 4.71035E-18
 -1       145 3.18147E-04-9.62610E-05-8.29740E-05-3.05750E-05 6.16852E-19-5.59010E-18
 -1       146 2.61828E-04-6.14358E-05-7.57048E-05-9.83830E-05 4.01181E-18-1.37012E-17
 -1       147 1.71311E-04-9.68289E-06-6.24298E-05-1.22823E-04 9.47915E-18-1.76971E-17
 -1       148 8.23535E-05 2.89542E-05-4.49056E-05-1.00767E-04 1.43860E-17-1.78415E-17
 -1       149 2.29097E-05 3.16014E-05-2.49589E-05-5.01031E-05 1.75357E-17-1.42746E-17
 -1       150 6.57696E-06-7.81876E-06-5.15145E-06-1.95486E-06 1.60195E-17-8.62978E-18
 -1       151 1.95832E-05-6.81947E-05 1.16180E-05 1.98781E-05 9.76883E-18-2.78801E-18
 -1       152 3.56623E-05-1.07457E-04 1.94263E-05 4.19551E-06 2.25035E-18-1.66429E-19
 -1       153 3.24351E-05-1.08232E-04 2.01867E-05-2.48955E-05-6.30955E-18-1.47066E-18
 -1       154 1.53684E-05-7.05433E-05 1.18573E-05-3.51456E-05-1.39769E-17-5.82261E-18
 -1       155 3.59117E-06-1.72994E-05-3.57285E-06-1.33212E-05-1.82125E-17-1.25365E-17
 -1       156 1.26756E-04 3.80123E-06-5.24014E-05 1.05827E-04-1.30176E-17-2.06041E-17
 -1       157 2.65705E-04-5.68081E-05-7.64779E-05 1.15056E-04-6.45651E-18-1.84691E-17
 -1       158 3.65426E-04-1.10323E-04-8.96915E-05 5.11138E-05-1.76688E-18-9.25299E-18
 -1       159 3.68089E-04-1.11614E-04-9.00202E-05-4.71712E-05-5.48216E-19 2.93158E-18
 -1       160 2.77737E-04-6.28715E-05-7.80643E-05-1.14669E-04-5.24038E-18 1.52902E-17
 -1       161 1.50085E-04-3.23913E-06-5.74486E-05-1.15069E-04-1.25391E-17 2.19771E-17
 -1       162 5.04406E-05 2.09632E-05-3.29250E-05-6.41338E-05-1.85360E-17 2.02814E-17
 -1       163 7.48708E-06-3.25226E-06-9.61941E-06-2.52341E-06-2.00391E-17 1.54372E-17
 -1       164 1.06393E-05-5.94365E-05 9.76191E-06 3.52369E-05-1.97003E-17 9.25521E-18
 -1       165 3.19057E-05-1.08817E-04 2.04163E-05 2.91920E-05-1.05261E-17 2.73044E-18
 -1       166 1.13725E-04-1.69752E-05-4.15729E-05-9.50211E-06-1.53353E-18 1.62397E-18
 -1       167 9.06661E-05-5.89802E-06-3.64537E-05-4.96607E-06-1.44223E-18-6.65781E-19
 -1       168 7.27698E-05 1.66564E-06-3.20134E-05-5.20611E-06-1.32169E-18-2.08055E-18
 -1       169 6.25691E-05 5.10593E-06-2.90922E-05-8.63525E-06-1.18739E-18-2.82229E-18
 -1       170 6.06969E-05 4.54432E-06-2.80287E-05-1.26572E-05-1.10394E-18-3.06058E-18
 -1       171 6.55415E-05 1.03837E-06-2.85955E-05-1.49436E-05-9.81844E-19-3.07605E-18
 -1       172 7.37820E-05-3.44294E-06-3.02051E-05-1.41633E-05-7.19952E-19-2.84929E-18
 -1       173 8.19343E-05-7.10023E-06-3.21347E-05-1.05905E-05-3.75282E-19-2.60535E-18
 -1       174 8.79363E-05-9.15862E-06-3.38310E-05-5.33244E-06 2.34886E-20-2.39526E-18
 -1       175 9.12729E-05-9.75883E-06-3.50132E-05 4.85150E-07 4.33737E-19-2.18808E-18
 -1       176 9.24175E-05-9.47981E-06-3.56344E-05 6.04508E-06 8.99642E-19-1.81519E-18
 -1       177 9.22829E-05-8.92144E-06-3.58320E-05 1.12515E-05 1.40749E-18-1.27281E-18
 -1       178 9.18785E-05-8.65239E-06-3.58052E-05 1.60314E-05 1.81141E-18-3.62742E-19
 -1       179 9.26121E-05-9.43726E-06-3.58398E-05 2.06313E-05 2.05918E-18 1.30399E-18
 -1       180 9.75368E-05-1.36200E-05-3.62110E-05 2.49450E-05 1.97957E-18 4.14715E-18
 -1       181 1.07052E-04-2.61614E-05-3.59296E-05 2.10343E-05 1.40476E-18 7.95046E-18
 -1       182 1.34365E-04-3.64870E-05-4.19170E-05-5.19753E-07-1.19530E-18 4.11133E-18
 -1       183 1.34717E-04-3.90731E-05-4.10173E-05 9.05448E-06-7.61562E-19 3.69664E-18
 -1       184 1.39984E-04-4.21525E-05-4.18639E-05 1.21615E-05-6.69160E-20 3.89884E-18
 -1       185 1.48055E-04-4.78861E-05-4.28111E-05 7.40358E-06 8.62809E-19 4.15225E-18
 -1       186 1.55413E-04-5.38470E-05-4.34543E-05-8.66216E-06 9.67762E-19 5.04423E-18
 -1       187 1.56473E-04-5.31079E-05-4.45243E-05-2.63601E-05-1.63411E-19 5.36651E-18
 -1       188 1.34266E-04-2.96354E-05-4.62030E-05-9.59534E-06-3.32683E-18 2.90015E-18
 -1       189 1.36097E-04-3.20317E-05-4.58871E-05 1.80445E-05-3.88608E-18-1.20621E-18
 -1       190 1.45288E-04-4.26636E-05-4.48008E-05 3.04656E-05-2.29085E-18-3.40452E-18
 -1       191 1.54476E-04-5.19470E-05-4.40209E-05 2.15783E-05-5.07270E-19-5.05139E-18
 -1       192 1.54078E-04-5.12637E-05-4.38530E-05 2.79366E-06 3.86988E-19-4.37062E-18
 -1       193 1.46241E-04-4.59489E-05-4.28540E-05-9.96846E-06 1.38981E-18-3.09276E-18
 -1       194 1.35706E-04-4.07583E-05-4.06992E-05-1.36245E-05 1.09655E-18-2.33817E-18
 -1       195 1.25664E-04-3.70297E-05-3.80206E-05-1.23172E-05 1.00088E-18-1.55648E-18
 -1       196 1.17301E-04-3.44556E-05-3.55254E-05-9.53650E-06-1.16106E-19-1.16386E-18
 -1       197 1.10866E-04-3.26681E-05-3.35163E-05-6.85783E-06 1.94692E-19-6.79216E-19
 -1       198 1.06145E-04-3.14185E-05-3.20193E-05-4.75261E-06-5.36979E-19-5.65023E-19
 -1       199 1.02777E-04-3.05430E-05-3.09487E-05-3.23556E-06-3.28636E-19-1.95491E-18
 -1       200 1.00413E-04-2.99302E-05-3.01989E-05-2.18641E-06 1.34337E-18-1.51399E-18
 -1       201 9.87683E-05-2.95020E-05-2.96791E-05-1.47446E-06 5.29379E-19-1.07727E-18
 -1       202 9.76283E-05-2.92032E-05-2.93202E-05-9.94658E-07-2.21966E-19-5.73243E-19
 -1       203 9.68389E-05-2.89947E-05-2.90726E-05-6.71532E-07 6.19402E-19 1.31871E-19
 -1       204 9.62727E-05-2.88444E-05-2.88953E-05-4.44262E-07-1.35300E-18-6.32717E-19
 -1       205 9.59057E-05-2.87465E-05-2.87808E-05-2.98253E-07-6.80450E-19-9.00619E-19
 -1       206 9.56541E-05-2.86791E-05-2.87024E-05-1.98782E-07 9.63318E-19 7.79617E-19
 -1       207 9.54834E-05-2.86334E-05-2.86492E-05-1.30560E-07 8.96348E-19 2.57724E-19
 -1       208 9.53692E-05-2.86028E-05-2.86136E-05-8.37518E-08 1.23044E-18 1.22174E-18
 -1       209 9.52945E-05-2.85830E-05-2.85902E-05-5.17272E-08-1.50732E-18 4.70696E-19
 -1       210 9.52472E-05-2.85706E-05-2.85754E-05-2.99871E-08 7.30410E-19-3.37373E-19
 -1       211 9.52188E-05-2.85633E-05-2.85664E-05-1.54376E-08-1.15956E-18-1.87201E-18
 -1       212 9.52032E-05-2.85595E-05-2.85614E-05-5.92246E-09-2.09842E-18-3.03003E-18
 -1       213 9.51961E-05-2.85580E-05-2.85591E-05 7.85072E-11-1.60732E-18-4.11541E-18
 -1       214 9.51945E-05-2.85579E-05-2.85585E-05 3.64701E-09 1.74888E-18-4.35042E-18
 -1       215 9.51963E-05-2.85587E-05-2.85589E-05 5.55671E-09 1.32271E-18-2.95361E-18
 -1       216 9.52000E-05-2.85600E-05-2.85600E-05 6.36144E-09 2.30362E-18-1.53825E-18
 -1       217 9.52046E-05-2.85615E-05-2.85613E-05 6.45601E-09 1.34077E-18-5.43806E-20
 -1       218 9.52095E-05-2.85630E-05-2.85628E-05 6.11919E-09 1.93650E-18 1.53223E-18
 -1       219 9.52142E-05-2.85644E-05-2.85642E-05 5.54465E-09-7.78152E-19 2.37835E-18
 -1       220 9.52186E-05-2.85657E-05-2.85655E-05 4.86361E-09-6.45114E-19 1.17813E-18
 -1       221 9.52224E-05-2.85669E-05-2.85667E-05 4.16165E-09 3.31597E-19 4.08801E-19
 -1       222 9.52258E-05-2.85679E-05-2.85677E-05 3.49107E-09 8.06685E-19 7.80816E-19
 -1       223 9.52286E-05-2.85687E-05-2.85685E-05 2.88000E-09 4.77660E-19 2.14349E-18
 -1       224 9.52310E-05-2.85694E-05-2.85692E-05 2.33877E-09 2.15799E-19 1.83403E-18
 -1       225 9.52329E-05-2.85700E-05-2.85698E-05 1.86413E-09 4.01335E-20 1.98444E-18
 -1       226 9.52344E-05-2.85704E-05-2.85703E-05 1.44188E-09-6.48916E-19 2.29342E-18
 -1       227 9.52355E-05-2.85708E-05-2.85706E-05 1.04871E-09-2.42436E-18 1.24225E-18
 -1       228 9.52364E-05-2.85710E-05-2.85709E-05 6.57912E-10 7.32913E-19-1.50589E-18
 -1       229 9.52369E-05-2.85712E-05-2.85710E-05 2.67267E-10 2.02184E-18 2.05139E-19
 -1       230 9.52371E-05-2.85712E-05-2.85711E-05 5.10212E-11 1.41191E-18-7.81013E-19
 -1       231 9.96005E-05-2.86010E-05-3.06265E-05 9.33930E-06 1.49358E-18 7.15088E-18
 -1       232 9.25607E-05-2.73296E-05-2.79212E-05 5.18521E-06 1.10170E-18 6.03684E-18
 -1       233 8.79424E-05-2.62557E-05-2.63857E-05 3.75774E-06 8.14295E-19 5.05220E-18
 -1       234 8.44422E-05-2.52497E-05-2.53393E-05 3.05409E-06 7.43660E-19 4.49035E-18
 -1       235 8.17491E-05-2.43680E-05-2.45780E-05 2.34772E-06 3.90356E-19 4.04407E-18
 -1       236 7.99518E-05-2.37372E-05-2.40857E-05 1.34752E-06 4.89067E-19 3.26590E-18
 -1       237 7.92423E-05-2.34679E-05-2.38999E-05 5.91163E-08 6.10853E-19 2.54445E-18
 -1       238 7.97344E-05-2.36249E-05-2.40438E-05-1.31489E-06 6.28925E-19 1.97858E-18
 -1       239 8.13446E-05-2.41837E-05-2.44935E-05-2.49343E-06 4.39721E-19 1.68297E-18
 -1       240 8.37805E-05-2.50300E-05-2.51742E-05-3.24526E-06 3.72664E-19 1.46884E-18
 -1       241 8.66243E-05-2.60007E-05-2.59773E-05-3.47608E-06 1.57438E-19 9.30620E-19
 -1       242 8.94541E-05-2.69387E-05-2.67896E-05-3.24052E-06 2.33067E-19 6.89573E-19
 -1       243 9.19449E-05-2.77332E-05-2.75186E-05-2.69088E-06-6.38501E-21 7.32003E-19
 -1       244 9.39132E-05-2.83324E-05-2.81073E-05-2.00455E-06 4.46029E-19 8.48976E-19
 -1       245 9.53101E-05-2.87335E-05-2.85354E-05-1.32834E-06 2.37938E-19 1.08319E-18
 -1       246 9.61835E-05-2.89646E-05-2.88113E-05-7.54113E-07-2.02640E-19 8.79080E-19
 -1       247 9.66338E-05-2.90664E-05-2.89606E-05-3.20260E-07 1.88422E-19 7.62191E-19
 -1       248 9.67767E-05-2.90800E-05-2.90155E-05-2.65953E-08-5.22429E-19 6.07064E-19
 -1       249 9.67191E-05-2.90402E-05-2.90073E-05 1.48474E-07-2.86013E-19 4.92714E-19
 -1       250 9.65481E-05-2.89733E-05-2.89620E-05 2.34293E-07-7.96926E-21 1.25452E-18
 -1       251 9.63272E-05-2.88972E-05-2.88993E-05 2.59430E-07 1.08033E-19 6.86121E-19
 -1       252 9.60984E-05-2.88233E-05-2.88325E-05 2.47551E-07 1.08851E-18 9.24889E-19
 -1       253 9.58868E-05-2.87576E-05-2.87697E-05 2.16221E-07 3.79024E-19 4.55629E-19
 -1       254 9.57050E-05-2.87027E-05-2.87151E-05 1.77339E-07-1.15963E-19-8.78776E-19
 -1       255 9.55571E-05-2.86591E-05-2.86704E-05 1.38247E-07 5.62865E-19-5.17129E-19
 -1       256 9.54421E-05-2.86258E-05-2.86353E-05 1.02961E-07 4.69693E-19-3.77764E-19
 -1       257 9.53564E-05-2.86014E-05-2.86090E-05 7.32593E-08-5.20837E-20-1.14877E-18
 -1       258 9.52952E-05-2.85843E-05-2.85901E-05 4.95318E-08-6.57468E-19-2.42024E-18
 -1       259 9.52535E-05-2.85729E-05-2.85772E-05 3.13876E-08 2.65633E-19-8.93429E-19
 -1       260 9.52267E-05-2.85658E-05-2.85688E-05 1.80619E-08-1.18358E-20-3.86034E-19
 -1       261 9.52110E-05-2.85618E-05-2.85638E-05 8.67017E-09 3.45515E-19-8.61662E-19
 -1       262 9.52031E-05-2.85600E-05-2.85612E-05 2.35299E-09-4.79917E-20-9.62873E-19
 -1       263 9.52005E-05-2.85596E-05-2.85603E-05-1.65055E-09-1.89947E-19-1.65349E-18
 -1       264 9.52013E-05-2.85601E-05-2.85604E-05-3.97485E-09-2.02157E-19-1.00503E-18
 -1       265 9.52041E-05-2.85611E-05-2.85612E-05-5.12570E-09 1.39531E-18-2.72037E-19
 -1       266 9.52079E-05-2.85624E-05-2.85624E-05-5.49180E-09-6.09789E-19 1.25164E-18
 -1       267 9.52122E-05-2.85638E-05-2.85636E-05-5.36215E-09-1.69919E-18 1.25973E-18
 -1       268 9.52164E-05-2.85651E-05-2.85649E-05-4.94469E-09-4.01821E-20-1.37611E-19
 -1       269 9.52204E-05-2.85663E-05-2.85661E-05-4.38372E-09-9.32332E-20 6.20938E-19
 -1       270 9.52239E-05-2.85673E-05-2.85671E-05-3.77495E-09-2.69611E-19 1.11780E-18
 -1       271 9.52270E-05-2.85682E-05-2.85680E-05-3.17778E-09-2.89796E-19-5.79028E-19
 -1       272 9.52296E-05-2.85690E-05-2.85688E-05-2.62484E-09 9.49945E-19-2.28911E-19
 -1       273 9.52317E-05-2.85696E-05-2.85695E-05-2.12895E-09 2.61676E-18 1.05865E-18
 -1       274 9.52335E-05-2.85701E-05-2.85700E-05-1.68787E-09 7.10646E-19-1.61013E-18
 -1       275 9.52349E-05-2.85705E-05-2.85704E-05-1.28698E-09 6.56875E-19-2.33284E-18
 -1       276 9.52359E-05-2.85709E-05-2.85707E-05-9.02760E-10-5.05221E-19-2.01039E-18
 -1       277 9.52366E-05-2.85711E-05-2.85709E-05-5.07709E-10-1.28558E-19-3.75065E-18
 -1       278 9.52370E-05-2.85712E-05-2.85711E-05-1.27046E-10 8.43096E-19-3.35978E-18
 -1       279 9.52371E-05-2.85714E-05-2.85710E-05-3.55878E-10-2.49763E-18-2.01105E-19
 -1       280 9.52373E-05-2.85719E-05-2.85709E-05-7.43688E-10-3.08072E-18-7.21307E-19
 -1       281 9.52375E-05-2.85726E-05-2.85707E-05-9.99962E-10-3.24829E-18 9.53147E-19
 -1       282 9.52378E-05-2.85734E-05-2.85705E-05-1.07917E-09-3.69430E-18 3.72580E-18
 -1       283 9.52381E-05-2.85741E-05-2.85703E-05-9.85507E-10-3.15672E-18 4.37441E-19
 -1       284 9.52383E-05-2.85748E-05-2.85701E-05-7.43879E-10-1.41185E-18-1.14704E-18
 -1       285 9.52385E-05-2.85752E-05-2.85700E-05-3.97228E-10-1.98931E-18-1.12811E-18
 -1       286 9.52385E-05-2.85753E-05-2.85699E-05 3.66950E-12-1.15383E-18 2.06128E-19
 -1       287 9.52385E-05-2.85752E-05-2.85700E-05 4.04259E-10-9.21524E-19 3.36906E-19
 -1       288 9.52383E-05-2.85747E-05-2.85701E-05 7.50068E-10-2.22970E-18-3.65236E-18
 -1       289 9.52381E-05-2.85741E-05-2.85703E-05 9.87228E-10-2.38391E-18-9.17171E-19
 -1       290 9.52378E-05-2.85734E-05-2.85705E-05 1.08112E-09-2.64016E-18 2.08110E-18
 -1       291 9.52375E-05-2.85726E-05-2.85707E-05 9.98167E-10-1.40828E-18 2.34278E-18
 -1       292 9.52373E-05-2.85719E-05-2.85709E-05 7.31585E-10-1.83168E-18 2.09440E-18
 -1       293 9.52371E-05-2.85715E-05-2.85710E-05 3.72996E-10 7.67284E-19-5.61714E-19
 -1       294 1.24097E-05-4.34639E-05 1.08199E-05 1.79404E-05 1.95569E-18 7.05081E-18
 -1       295 2.88950E-05-4.19760E-05 3.22890E-06 2.92107E-05 5.36574E-18 7.82190E-18
 -1       296 5.38458E-05-3.30786E-05-1.04938E-05 4.05444E-05 8.20457E-18 7.40529E-18
 -1       297 9.75341E-05-3.13509E-05-2.84900E-05 5.08570E-05 7.84564E-18 6.21341E-18
 -1       298 1.37738E-04-2.63126E-05-4.65073E-05 5.52584E-05 8.02500E-18 7.00136E-18
 -1       299 1.80186E-04-3.01718E-05-6.17147E-05 4.78748E-05 6.40002E-18 5.70794E-18
 -1       300 2.11213E-04-3.54439E-05-7.19774E-05 2.95037E-05 5.60746E-18 2.87282E-18
 -1       301 2.19271E-04-3.54579E-05-7.55272E-05 4.07910E-06 5.33048E-18-7.99784E-20
 -1       302 2.07928E-04-3.25419E-05-7.24090E-05-1.88328E-05 4.95641E-18-2.89474E-18
 -1       303 1.87367E-04-3.14040E-05-6.43525E-05-4.37194E-05 5.60022E-18-5.92987E-18
 -1       304 1.47588E-04-2.51742E-05-5.10004E-05-5.48563E-05 6.52628E-18-7.14430E-18
 -1       305 1.02949E-04-2.16486E-05-3.46786E-05-5.47534E-05 7.09072E-18-7.37829E-18
 -1       306 6.69937E-05-2.79307E-05-1.76711E-05-4.68757E-05 5.31280E-18-6.13707E-18
 -1       307 3.73195E-05-3.14304E-05-3.55746E-06-4.18171E-05 1.98968E-18-5.35367E-18
 -1       308 1.38242E-05-4.17805E-05 9.01867E-06-1.93301E-05 1.66717E-18-4.37736E-18
 -1       309 9.15676E-06-4.69954E-05 1.26492E-05-7.58693E-06-1.31277E-18-4.49044E-18
 -1       310 1.74175E-05-3.92347E-05 6.96747E-06 1.15493E-05-2.88182E-18-5.71197E-18
 -1       311 4.00907E-05-4.42402E-05-1.47437E-06 2.07898E-05-6.03977E-18-6.97049E-18
 -1       312 8.62344E-05-4.80208E-05-1.83615E-05 3.43274E-05-5.87544E-18-7.36400E-18
 -1       313 1.37020E-04-4.73479E-05-3.87720E-05 3.82447E-05-7.22667E-18-7.74315E-18
 -1       314 1.95452E-04-5.20316E-05-5.92742E-05 2.25805E-05-5.34634E-18-5.66834E-18
 -1       315 2.33293E-04-4.88047E-05-7.43989E-05 1.07030E-05-5.91123E-18-4.29065E-18
 -1       316 2.38931E-04-4.17030E-05-7.91449E-05-7.11647E-08-6.18292E-18-1.66688E-18
 -1       317 2.38072E-04-4.79436E-05-7.60024E-05-1.19957E-05-6.67557E-18 2.09619E-18
 -1       318 2.03119E-04-5.00688E-05-6.24511E-05-2.57142E-05-7.29025E-18 4.35036E-18
 -1       319 1.50117E-04-4.73893E-05-4.37060E-05-3.90839E-05-7.69889E-18 8.39960E-18
 -1       320 9.75199E-05-4.66029E-05-2.34263E-05-3.63019E-05-7.18623E-18 7.68619E-18
 -1       321 5.33121E-05-4.69543E-05-5.30037E-06-2.83687E-05-6.18292E-18 5.55291E-18
 -1       322 2.20461E-05-5.08247E-05 8.68325E-06-1.03999E-05-4.98225E-18 6.62862E-18
 -1       323 1.00737E-05-4.80095E-05 1.32057E-05 1.52187E-06-2.03931E-18 5.83553E-18
 -1       324 1.42950E-04-3.95023E-05-4.52919E-05-2.93837E-05-2.25173E-18 5.05594E-18
 -1       325 8.10984E-05-5.35552E-06-3.24746E-05 3.56415E-07-1.27729E-18-1.03494E-18
 -1       326 1.05370E-04-1.90824E-05-3.70035E-05 1.76279E-06-1.32636E-18 5.56037E-19
 -1       327 5.69480E-05 6.21343E-06-2.70434E-05-1.23874E-05-1.42710E-18-2.56883E-18
 -1       328 6.09314E-05 2.26152E-06-2.70745E-05-1.79130E-05-1.44920E-18-2.60421E-18
 -1       329 7.14107E-05-5.02623E-06-2.84657E-05-1.88279E-05-1.28058E-18-2.26426E-18
 -1       330 8.27934E-05-1.18931E-05-3.04325E-05-1.51133E-05-8.81983E-19-1.88394E-18
 -1       331 9.14299E-05-1.62165E-05-3.22952E-05-8.80258E-06-3.87000E-19-1.59294E-18
 -1       332 9.63136E-05-1.78820E-05-3.36862E-05-1.93759E-06 2.09804E-19-1.40909E-18
 -1       333 9.80636E-05-1.77991E-05-3.44787E-05 4.20068E-06 7.93634E-19-1.11012E-18
 -1       334 9.79262E-05-1.70416E-05-3.47488E-05 9.44849E-06 1.41644E-18-5.47752E-19
 -1       335 9.70859E-05-1.65529E-05-3.46044E-05 1.37044E-05 1.87321E-18-6.67171E-20
 -1       336 9.67998E-05-1.72870E-05-3.41768E-05 1.69010E-05 2.22198E-18 9.08158E-19
 -1       337 9.83258E-05-2.05971E-05-3.34353E-05 1.79887E-05 2.28862E-18 2.84204E-18
 -1       338 9.99634E-05-2.48700E-05-3.22847E-05 1.50507E-05 2.03116E-18 4.46609E-18
 -1       339 9.63126E-05-2.71014E-05-2.96393E-05 9.51852E-06 1.51113E-18 3.83187E-18
 -1       340 1.72528E-04-5.54610E-05-5.03904E-05-2.74201E-05-2.12319E-18 3.12862E-18
 -1       341 1.14307E-04-3.01975E-05-3.59722E-05 1.50193E-05-1.13229E-19 1.23840E-18
 -1       342 1.20714E-04-3.92703E-05-3.47833E-05 1.94064E-05 8.52036E-19 1.72706E-18
 -1       343 1.35915E-04-5.51476E-05-3.44374E-05 1.44993E-05 1.69404E-18 2.43103E-18
 -1       344 1.56116E-04-6.84610E-05-3.77242E-05-6.96093E-07 9.56962E-19 2.75625E-18
 -1       345 9.77383E-05-4.97450E-05-2.06878E-05 4.90216E-05 1.50698E-18 2.81533E-18
 -1       346 1.67356E-04-3.95444E-05-5.55527E-05 2.91467E-05-4.71808E-18-1.96316E-18
 -1       347 1.69295E-04-6.12305E-05-4.64942E-05 2.46546E-05-2.85500E-18-3.76633E-18
 -1       348 1.53698E-04-6.36293E-05-3.86858E-05 3.03792E-06 1.07334E-18-2.99199E-18
 -1       349 1.34794E-04-5.05975E-05-3.59707E-05-1.51050E-05 1.95223E-18-1.23242E-18
 -1       350 1.21544E-04-3.86315E-05-3.55283E-05-2.16130E-05 1.74632E-18-3.15525E-19
 -1       351 1.13839E-04-3.25876E-05-3.48195E-05-2.06036E-05 1.52640E-18 3.17287E-19
 -1       352 1.08992E-04-3.01369E-05-3.37820E-05-1.68310E-05 5.07503E-19 1.25315E-19
 -1       353 1.05585E-04-2.93047E-05-3.26702E-05-1.26964E-05 2.05525E-19-8.49263E-19
 -1       354 1.03005E-04-2.90546E-05-3.16704E-05-9.16776E-06-8.00893E-20-3.94572E-19
 -1       355 1.01009E-04-2.89701E-05-3.08546E-05-6.46182E-06-1.00811E-18-1.89919E-19
 -1       356 9.94747E-05-2.89158E-05-3.02248E-05-4.49668E-06 1.05925E-18-2.67530E-19
 -1       357 9.83115E-05-2.88602E-05-2.97543E-05-3.10994E-06 1.17544E-18-1.06206E-18
 -1       358 9.74416E-05-2.88025E-05-2.94094E-05-2.14532E-06 1.84197E-19-4.36220E-19
 -1       359 9.67974E-05-2.87472E-05-2.91594E-05-1.47805E-06 2.87465E-19-1.08799E-18
 -1       360 9.63076E-05-2.86974E-05-2.89724E-05-9.98427E-07 1.39671E-19-1.00901E-18
 -1       361 9.59724E-05-2.86583E-05-2.88466E-05-6.85152E-07-7.17132E-19 2.39658E-18
 -1       362 9.57310E-05-2.86276E-05-2.87570E-05-4.67511E-07 5.11628E-19 2.52421E-18
 -1       363 9.55593E-05-2.86046E-05-2.86938E-05-3.15923E-07 1.43869E-18 2.52758E-18
 -1       364 9.54387E-05-2.85880E-05-2.86495E-05-2.10221E-07 5.22217E-19 1.17044E-18
 -1       365 9.53552E-05-2.85766E-05-2.86189E-05-1.36616E-07-8.90294E-21-1.47980E-19
 -1       366 9.52987E-05-2.85692E-05-2.85980E-05-8.56086E-08-6.53414E-19 1.59352E-19
 -1       367 9.52614E-05-2.85647E-05-2.85841E-05-5.05908E-08-7.04965E-19-9.27651E-19
 -1       368 9.52378E-05-2.85623E-05-2.85751E-05-2.69122E-08-1.15817E-18-4.98681E-19
 -1       369 9.52238E-05-2.85614E-05-2.85695E-05-1.12672E-08-2.18495E-18-8.70525E-19
 -1       370 9.52164E-05-2.85614E-05-2.85663E-05-1.28479E-09-1.04148E-18-4.67274E-19
 -1       371 9.52133E-05-2.85621E-05-2.85648E-05 4.74546E-09 2.09173E-18-1.61355E-18
 -1       372 9.52130E-05-2.85630E-05-2.85642E-05 8.06053E-09 3.16831E-18-4.39113E-19
 -1       373 9.52143E-05-2.85641E-05-2.85644E-05 9.55356E-09 2.51260E-18 1.84981E-18
 -1       374 9.52167E-05-2.85653E-05-2.85649E-05 9.86548E-09 2.52971E-18 1.92822E-18
 -1       375 9.52194E-05-2.85663E-05-2.85656E-05 9.45115E-09 1.53568E-18 2.41278E-18
 -1       376 9.52222E-05-2.85673E-05-2.85664E-05 8.62789E-09-4.50477E-19 3.03095E-18
 -1       377 9.52249E-05-2.85681E-05-2.85672E-05 7.61144E-09-1.05054E-18 4.99277E-18
 -1       378 9.52274E-05-2.85688E-05-2.85680E-05 6.54280E-09-1.38589E-19 1.15660E-18
 -1       379 9.52295E-05-2.85694E-05-2.85686E-05 5.50823E-09 1.59396E-18 5.86989E-19
 -1       380 9.52314E-05-2.85699E-05-2.85692E-05 4.55393E-09-5.06849E-19 4.73429E-19
 -1       381 9.52329E-05-2.85703E-05-2.85697E-05 3.69660E-09-6.80203E-21 2.30545E-18
 -1       382 9.52342E-05-2.85707E-05-2.85701E-05 2.93083E-09-3.96292E-19 2.37369E-18
 -1       383 9.52353E-05-2.85709E-05-2.85704E-05 2.23530E-09-8.14420E-19 1.66214E-18
 -1       384 9.52361E-05-2.85712E-05-2.85707E-05 1.57922E-09-3.03332E-18 4.85681E-18
 -1       385 9.52367E-05-2.85714E-05-2.85709E-05 9.45175E-10 1.09522E-18 2.76037E-18
 -1       386 9.23192E-05-2.69157E-05-2.80026E-05 7.06215E-06 1.18026E-18 2.73048E-18
 -1       387 8.96417E-05-2.60947E-05-2.72169E-05 5.55948E-06 8.46011E-19 2.25545E-18
 -1       388 8.74870E-05-2.51302E-05-2.67097E-05 3.79658E-06 1.04291E-18 1.89432E-18
 -1       389 8.61219E-05-2.44198E-05-2.64294E-05 1.53977E-06 8.57618E-19 1.78169E-18
 -1       390 8.57434E-05-2.42300E-05-2.63491E-05-1.01481E-06 7.46210E-19 1.54218E-18
 -1       391 8.63830E-05-2.46517E-05-2.64445E-05-3.41339E-06 7.55934E-19 1.29491E-18
 -1       392 8.78471E-05-2.55664E-05-2.66837E-05-5.18289E-06 7.26199E-19 1.31068E-18
 -1       393 8.97764E-05-2.67123E-05-2.70241E-05-6.04143E-06 5.60884E-19 9.50252E-19
 -1       394 9.17784E-05-2.78100E-05-2.74162E-05-5.98445E-06 4.23787E-19 6.71878E-19
 -1       395 9.35480E-05-2.86671E-05-2.78109E-05-5.23113E-06-6.81555E-21 1.95629E-19
 -1       396 9.49208E-05-2.92136E-05-2.81671E-05-4.09623E-06-5.02049E-20 1.86242E-19
 -1       397 9.58599E-05-2.94757E-05-2.84577E-05-2.87227E-06 6.88814E-20 7.63220E-19
 -1       398 9.64118E-05-2.95278E-05-2.86713E-05-1.76497E-06 3.48782E-19 8.08975E-19
 -1       399 9.66611E-05-2.94517E-05-2.88095E-05-8.80875E-07 2.96359E-19 3.57358E-19
 -1       400 9.66983E-05-2.93144E-05-2.88828E-05-2.47028E-07-5.18619E-20 1.16082E-19
 -1       401 9.66021E-05-2.91611E-05-2.89059E-05 1.59283E-07-3.83596E-19 2.47227E-19
 -1       402 9.64338E-05-2.90174E-05-2.88943E-05 3.83945E-07-9.03472E-19 5.82623E-19
 -1       403 9.62368E-05-2.88951E-05-2.88614E-05 4.77693E-07-1.58242E-19 1.54112E-18
 -1       404 9.60394E-05-2.87975E-05-2.88181E-05 4.85900E-07 6.51267E-19 1.95047E-18
 -1       405 9.58582E-05-2.87230E-05-2.87720E-05 4.44373E-07 4.79609E-19 1.54819E-18
 -1       406 9.57014E-05-2.86683E-05-2.87281E-05 3.78825E-07 8.48589E-19 9.31684E-19
 -1       407 9.55718E-05-2.86294E-05-2.86891E-05 3.06195E-07 3.05225E-19 5.53900E-19
 -1       408 9.54686E-05-2.86026E-05-2.86564E-05 2.36621E-07 4.34023E-19 4.09646E-19
 -1       409 9.53892E-05-2.85847E-05-2.86301E-05 1.75389E-07 4.61304E-19-2.97860E-19
 -1       410 9.53301E-05-2.85734E-05-2.86097E-05 1.24578E-07 4.88491E-19 1.03715E-19
 -1       411 9.52876E-05-2.85666E-05-2.85945E-05 8.43118E-08-8.69740E-19-5.74462E-19
 -1       412 9.52582E-05-2.85630E-05-2.85835E-05 5.36449E-08-1.02314E-19 4.75769E-19
 -1       413 9.52388E-05-2.85614E-05-2.85759E-05 3.11496E-08 9.51797E-19 1.51334E-18
 -1       414 9.52268E-05-2.85611E-05-2.85709E-05 1.52783E-08 1.46808E-19 1.24335E-18
 -1       415 9.52201E-05-2.85616E-05-2.85679E-05 4.56741E-09 5.99386E-19 1.12293E-18
 -1       416 9.52172E-05-2.85625E-05-2.85662E-05-2.26266E-09 2.80832E-19 1.21342E-18
 -1       417 9.52167E-05-2.85637E-05-2.85656E-05-6.27222E-09 1.64169E-19 1.61168E-21
 -1       418 9.52177E-05-2.85648E-05-2.85655E-05-8.30475E-09-1.04558E-18 2.54338E-18
 -1       419 9.52196E-05-2.85659E-05-2.85658E-05-9.00854E-09-6.01941E-19 2.01249E-18
 -1       420 9.52219E-05-2.85670E-05-2.85664E-05-8.86637E-09 5.18290E-19 2.11373E-19
 -1       421 9.52243E-05-2.85678E-05-2.85670E-05-8.22647E-09 4.58999E-19-1.68781E-18
 -1       422 9.52266E-05-2.85686E-05-2.85677E-05-7.33119E-09-7.78040E-19-1.59035E-18
 -1       423 9.52287E-05-2.85692E-05-2.85684E-05-6.34168E-09 1.17838E-18-4.68822E-19
 -1       424 9.52306E-05-2.85698E-05-2.85689E-05-5.35794E-09-2.67969E-19-1.97413E-18
 -1       425 9.52322E-05-2.85702E-05-2.85695E-05-4.43464E-09 6.38897E-19-1.97851E-18
 -1       426 9.52336E-05-2.85705E-05-2.85699E-05-3.59295E-09 2.02970E-18 7.91904E-19
 -1       427 9.52347E-05-2.85708E-05-2.85702E-05-2.82953E-09 1.37138E-18 1.37753E-19
 -1       428 9.52356E-05-2.85711E-05-2.85705E-05-2.12473E-09-1.90302E-19 3.89078E-21
 -1       429 9.52363E-05-2.85713E-05-2.85707E-05-1.45972E-09 4.79614E-19-1.36204E-18
 -1       430 9.52368E-05-2.85714E-05-2.85709E-05-8.79315E-10 1.39758E-19-2.09231E-18
 -1       431 9.52376E-05-2.85730E-05-2.85706E-05-1.86369E-09-7.06746E-19 5.23371E-19
 -1       432 9.52372E-05-2.85723E-05-2.85707E-05-1.64761E-09 8.65337E-19-4.68184E-19
 -1       433 9.52380E-05-2.85737E-05-2.85704E-05-1.81817E-09-1.98591E-18 5.99320E-19
 -1       434 9.52384E-05-2.85743E-05-2.85703E-05-1.50863E-09-2.32316E-18 1.44892E-18
 -1       435 9.52386E-05-2.85747E-05-2.85702E-05-9.91765E-10-5.13352E-19-1.00300E-18
 -1       436 9.52387E-05-2.85750E-05-2.85702E-05-3.42098E-10-2.55544E-18 1.18955E-18
 -1       437 9.52387E-05-2.85750E-05-2.85702E-05 3.52854E-10-9.65681E-19-3.34850E-19
 -1       438 9.52386E-05-2.85747E-05-2.85702E-05 1.00187E-09-9.62125E-19-2.97585E-18
 -1       439 9.52384E-05-2.85743E-05-2.85703E-05 1.51014E-09-1.28262E-18-2.18711E-18
 -1       440 9.52380E-05-2.85737E-05-2.85704E-05 1.81964E-09-1.07550E-18 2.59056E-18
 -1       441 9.52376E-05-2.85730E-05-2.85706E-05 1.86464E-09-8.12195E-19 2.25902E-18
 -1       442 9.52372E-05-2.85723E-05-2.85707E-05 1.62180E-09-1.16887E-18 2.03812E-18
 -1       443 9.40345E-05-2.71712E-05-2.86200E-05 7.96386E-06 1.36323E-18 3.35697E-18
 -1       444 6.29164E-05-4.07427E-05-9.52019E-06 5.09789E-05-8.00446E-20 4.48578E-18
 -1       445 1.39198E-04-5.28328E-05-3.69250E-05 3.15444E-05 3.10776E-18 7.26648E-19
 -1       446 1.18808E-05-1.78752E-05 2.78359E-06 1.00508E-05 8.14475E-19 7.55702E-18
 -1       447 1.65173E-04-3.19617E-05-5.74573E-05-2.32434E-05-4.59198E-18 2.61310E-18
 -1       448 6.31933E-05 4.22542E-06-2.88919E-05-5.17922E-06-1.35914E-18-2.11072E-18
 -1       449 1.65758E-04-2.51501E-05-6.08058E-05 5.67405E-06-6.54566E-18-9.97911E-20
 -1       450 1.55318E-04-4.21580E-05-4.84559E-05 1.91385E-05 4.34227E-18 4.84079E-19
 -1       451 1.64384E-04-2.51655E-05-5.95808E-05 4.60579E-06 5.26410E-18-2.48498E-19
 -1       452 1.66763E-04-1.38561E-05-6.54481E-05 1.28886E-06 6.11050E-18-2.74968E-19
 -1       453 1.63010E-04-1.04706E-05-6.54343E-05 1.41740E-06 5.81149E-18 3.79841E-20
 -1       454 1.61595E-04-2.15489E-05-6.01503E-05-5.19611E-07 4.66133E-18-1.42302E-19
 -1       455 1.59754E-04-3.43290E-05-5.36760E-05-1.15789E-05 3.82224E-18-8.74667E-19
 -1       456 1.39757E-04-4.39995E-05-4.10213E-05-3.14319E-05 2.54110E-18-1.82896E-18
 -1       457 1.11350E-04-4.45197E-05-2.86518E-05-4.48923E-05 1.47807E-18-2.62284E-18
 -1       458 7.50032E-05-3.75329E-05-1.59851E-05-5.18968E-05-6.29134E-19-3.62751E-18
 -1       459 2.57323E-05-2.02577E-05-2.42329E-06-3.91045E-05-7.34272E-19-4.98849E-18
 -1       460 9.97559E-06-1.67145E-05 2.62538E-06-2.02207E-05-6.15158E-19-5.31725E-18
 -1       461 1.20012E-05-1.59900E-05 1.62291E-06 4.37392E-06-5.06790E-19-5.40534E-18
 -1       462 5.02183E-05-3.43296E-05-6.81996E-06 3.26060E-05-1.95453E-19-4.64460E-18
 -1       463 8.92915E-05-5.25176E-05-1.60364E-05 3.72097E-05-6.31040E-20-3.35301E-18
 -1       464 1.43494E-04-6.97292E-05-3.17734E-05 2.03867E-05-9.95581E-19-7.92717E-19
 -1       465 1.71540E-04-6.67988E-05-4.50230E-05-2.98059E-06-2.11647E-18 2.79839E-19
 -1       466 1.87042E-04-4.70399E-05-5.96274E-05-1.66888E-05-3.79047E-18 6.41627E-19
 -1       467 1.76538E-04-6.26311E-05-4.91438E-05 5.07503E-06-4.71224E-18-3.70789E-19
 -1       468 1.50457E-04-6.95420E-05-3.49378E-05-1.80414E-05-1.56436E-18 1.80894E-18
 -1       469 1.03523E-04-5.98818E-05-1.90685E-05-3.66300E-05-1.01337E-18 2.51799E-18
 -1       470 5.12031E-05-4.02133E-05-5.06904E-06-3.58087E-05 1.05445E-18 3.94379E-18
 -1       471 2.21681E-05-2.69038E-05 1.88482E-06-1.95081E-05 8.71491E-19 5.32180E-18
 -1       472 3.16440E-05-2.91034E-05-1.08162E-06 4.02146E-05-7.16802E-20 7.16135E-18
 -1       473 9.52369E-05-2.85718E-05-2.85708E-05 1.34171E-09-1.56207E-18 4.82887E-18
 -1       474 5.55335E-05-2.59868E-05-1.22728E-05-5.04025E-05-1.84913E-18-3.95988E-18
 -1       475 3.60705E-05-1.65231E-05-7.87223E-06 2.30960E-05 5.97794E-19-4.76287E-18
 -1       476 6.64017E-05-5.37440E-06-2.61085E-05-2.49055E-05-1.71640E-18-2.41293E-18
 -1       477 5.37976E-05 3.80739E-06-2.45966E-05-1.95507E-05-1.54627E-18-2.85084E-18
 -1       478 9.48127E-05-2.27548E-05-3.08928E-05-1.43821E-05-9.49913E-19-1.26871E-18
 -1       479 1.01479E-04-2.52922E-05-3.26759E-05-5.32156E-06-2.96352E-19-1.04848E-18
 -1       480 1.03641E-04-2.51158E-05-3.36852E-05 2.25086E-06 3.51931E-19-7.20736E-19
 -1       481 1.03203E-04-2.38781E-05-3.40310E-05 7.99988E-06 1.05038E-18-3.53434E-19
 -1       482 1.01638E-04-2.27953E-05-3.38246E-05 1.19513E-05 1.53391E-18-5.31778E-20
 -1       483 1.00039E-04-2.26681E-05-3.31879E-05 1.42800E-05 1.82605E-18 5.92916E-19
 -1       484 9.88432E-05-2.39794E-05-3.21022E-05 1.45033E-05 2.03114E-18 1.70038E-18
 -1       485 9.80990E-05-2.57836E-05-3.09871E-05 1.25894E-05 1.83583E-18 2.68564E-18
 -1       486 1.24816E-04-5.83786E-05-2.84699E-05 3.47532E-05-9.94867E-19-2.34509E-19
 -1       487 8.83759E-05-2.08600E-05-2.87450E-05 1.98453E-05 5.24294E-19-6.58396E-19
 -1       488 9.39622E-05-3.57928E-05-2.45652E-05 2.89929E-05 1.69878E-18-6.81782E-19
 -1       489 8.33670E-05-1.13953E-05-3.08053E-05 9.38870E-06-5.48785E-19-9.26730E-19
 -1       490 1.00934E-04-3.70953E-05-2.70423E-05-3.05352E-05 2.96610E-18 6.83039E-19
 -1       491 9.48656E-05-2.65261E-05-2.92115E-05-2.60969E-05 1.86742E-18 1.45746E-18
 -1       492 9.40860E-05-2.32444E-05-3.03334E-05-2.09663E-05 7.24188E-19 8.29655E-19
 -1       493 9.49236E-05-2.33153E-05-3.06737E-05-1.61762E-05-2.04819E-19 1.04490E-18
 -1       494 9.58074E-05-2.44395E-05-3.05728E-05-1.21195E-05-5.34080E-19 6.08925E-19
 -1       495 9.63327E-05-2.56390E-05-3.02859E-05-8.89146E-06 1.78683E-19-2.14498E-19
 -1       496 9.65172E-05-2.66003E-05-2.99556E-05-6.42997E-06-4.51616E-20 3.23035E-19
 -1       497 9.64807E-05-2.72858E-05-2.96486E-05-4.60628E-06 8.98115E-19 3.39113E-19
 -1       498 9.63310E-05-2.77457E-05-2.93893E-05-3.28012E-06 5.76390E-19-2.70120E-19
 -1       499 9.61396E-05-2.80430E-05-2.91813E-05-2.32566E-06-2.85596E-19 3.54605E-19
 -1       500 9.59406E-05-2.82393E-05-2.90128E-05-1.61577E-06 1.68071E-19 1.10854E-18
 -1       501 9.57727E-05-2.83549E-05-2.88920E-05-1.13773E-06 1.33426E-18 1.25614E-18
 -1       502 9.56323E-05-2.84272E-05-2.88012E-05-7.96624E-07-2.53966E-19 1.62689E-18
 -1       503 9.55201E-05-2.84728E-05-2.87339E-05-5.53316E-07 4.97477E-19 9.35998E-19
 -1       504 9.54334E-05-2.85020E-05-2.86844E-05-3.79846E-07-6.43377E-19-1.40778E-19
 -1       505 9.53682E-05-2.85211E-05-2.86485E-05-2.56403E-07 3.65243E-19-9.53703E-19
 -1       506 9.53205E-05-2.85342E-05-2.86225E-05-1.68933E-07-4.40179E-19-8.41629E-19
 -1       507 9.52865E-05-2.85433E-05-2.86041E-05-1.07410E-07-1.05891E-18-2.21863E-18
 -1       508 9.52629E-05-2.85500E-05-2.85911E-05-6.46258E-08-5.43022E-19-1.49274E-18
 -1       509 9.52471E-05-2.85551E-05-2.85822E-05-3.53617E-08-1.39945E-18-1.60679E-18
 -1       510 9.52370E-05-2.85589E-05-2.85763E-05-1.58125E-08-2.17151E-18-3.58646E-19
 -1       511 9.52310E-05-2.85620E-05-2.85724E-05-3.19136E-09 1.00649E-18-1.32399E-19
 -1       512 9.52278E-05-2.85643E-05-2.85701E-05 4.54717E-09 2.93899E-18-2.92802E-20
 -1       513 9.52265E-05-2.85662E-05-2.85687E-05 8.90274E-09 4.10883E-18 5.43085E-19
 -1       514 9.52265E-05-2.85676E-05-2.85681E-05 1.09697E-08 2.75531E-18 1.91587E-18
 -1       515 9.52272E-05-2.85687E-05-2.85679E-05 1.15399E-08 2.64731E-18 3.42774E-18
 -1       516 9.52282E-05-2.85695E-05-2.85680E-05 1.11789E-08 3.95626E-19 2.37838E-18
 -1       517 9.52295E-05-2.85701E-05-2.85683E-05 1.02831E-08-4.22993E-19 1.29766E-18
 -1       518 9.52307E-05-2.85705E-05-2.85687E-05 9.12319E-09-1.63641E-18 1.79520E-18
 -1       519 9.52319E-05-2.85709E-05-2.85690E-05 7.87666E-09-3.34892E-19 3.56115E-18
 -1       520 9.52331E-05-2.85711E-05-2.85694E-05 6.65235E-09 3.39045E-19 3.33451E-18
 -1       521 9.52340E-05-2.85713E-05-2.85698E-05 5.50919E-09 7.94044E-19 4.33025E-18
 -1       522 9.52349E-05-2.85714E-05-2.85701E-05 4.46943E-09-3.87077E-19 3.79894E-18
 -1       523 9.52356E-05-2.85715E-05-2.85703E-05 3.53016E-09-1.23658E-18 5.02543E-18
 -1       524 9.52362E-05-2.85717E-05-2.85705E-05 2.67666E-09-1.31631E-18 5.55238E-18
 -1       525 9.52366E-05-2.85717E-05-2.85707E-05 1.99628E-09-2.93681E-18 3.92214E-18
 -1       526 9.20162E-05-2.46761E-05-2.88533E-05 4.19767E-06 1.01760E-18 1.37024E-18
 -1       527 9.38895E-05-2.59571E-05-2.91066E-05 6.95573E-06 1.05155E-18 1.47368E-18
 -1       528 9.60517E-05-2.70699E-05-2.95596E-05 9.01642E-06 1.21064E-18 1.42379E-18
 -1       529 9.09134E-05-2.39115E-05-2.87083E-05 7.87875E-07 9.64367E-19 1.14005E-18
 -1       530 9.08672E-05-2.40951E-05-2.86104E-05-2.74293E-06 1.04865E-18 8.73389E-19
 -1       531 9.18105E-05-2.52241E-05-2.85321E-05-5.65961E-06 8.22593E-19 3.89938E-19
 -1       532 9.33569E-05-2.69112E-05-2.84737E-05-7.39863E-06 5.63743E-19 4.58278E-19
 -1       533 9.50003E-05-2.86202E-05-2.84478E-05-7.80027E-06 5.62289E-19 6.71684E-19
 -1       534 9.63401E-05-2.99299E-05-2.84628E-05-7.09702E-06 2.27439E-19 5.82373E-19
 -1       535 9.71955E-05-3.06677E-05-2.85146E-05-5.72615E-06 1.70567E-19 8.15045E-19
 -1       536 9.75767E-05-3.08769E-05-2.85890E-05-4.12478E-06 2.01326E-19 6.49382E-19
 -1       537 9.75982E-05-3.07135E-05-2.86682E-05-2.61519E-06 2.57178E-19 2.49648E-19
 -1       538 9.73988E-05-3.03524E-05-2.87371E-05-1.37467E-06 7.70056E-19-5.73458E-20
 -1       539 9.70947E-05-2.99317E-05-2.87863E-05-4.61239E-07-8.68378E-20 4.61556E-20
 -1       540 9.67645E-05-2.95377E-05-2.88130E-05 1.43091E-07-7.62945E-19 3.97743E-19
 -1       541 9.64531E-05-2.92116E-05-2.88187E-05 4.93589E-07-8.36196E-19 5.12255E-19
 -1       542 9.61813E-05-2.89642E-05-2.88078E-05 6.56039E-07-6.49912E-19-3.20945E-19
 -1       543 9.59553E-05-2.87893E-05-2.87856E-05 6.91532E-07-3.29834E-19 1.93195E-19
 -1       544 9.57733E-05-2.86733E-05-2.87571E-05 6.49750E-07 7.01951E-19 1.06846E-18
 -1       545 9.56300E-05-2.86015E-05-2.87264E-05 5.67452E-07 6.85790E-19 1.53092E-18
 -1       546 9.55192E-05-2.85606E-05-2.86964E-05 4.69691E-07 7.80020E-19 1.20216E-18
 -1       547 9.54350E-05-2.85403E-05-2.86690E-05 3.72155E-07 6.46253E-19 1.15353E-18
 -1       548 9.53719E-05-2.85327E-05-2.86452E-05 2.83631E-07 9.90981E-19 9.29947E-19
 -1       549 9.53254E-05-2.85325E-05-2.86254E-05 2.08177E-07 7.69160E-19 5.51443E-20
 -1       550 9.52919E-05-2.85361E-05-2.86095E-05 1.46831E-07-1.89097E-19 3.22246E-19
 -1       551 9.52681E-05-2.85414E-05-2.85971E-05 9.88684E-08-1.60625E-18 1.00150E-18
 -1       552 9.52518E-05-2.85470E-05-2.85877E-05 6.26703E-08-4.16692E-19 9.03626E-19
 -1       553 9.52410E-05-2.85522E-05-2.85809E-05 3.62788E-08 6.64525E-19 1.76778E-18
 -1       554 9.52342E-05-2.85567E-05-2.85760E-05 1.77324E-08 8.83655E-20 1.92860E-18
 -1       555 9.52302E-05-2.85605E-05-2.85727E-05 5.24663E-09 6.39155E-19 1.03543E-18
 -1       556 9.52283E-05-2.85635E-05-2.85706E-05-2.70545E-09 1.06076E-18 9.16142E-19
 -1       557 9.52277E-05-2.85658E-05-2.85694E-05-7.37294E-09-1.84628E-18 1.60284E-18
 -1       558 9.52279E-05-2.85675E-05-2.85687E-05-9.74188E-09 6.55401E-19 6.61562E-19
 -1       559 9.52286E-05-2.85688E-05-2.85685E-05-1.05666E-08 1.15395E-18-1.27674E-19
 -1       560 9.52296E-05-2.85697E-05-2.85685E-05-1.04074E-08 1.55806E-18-5.10262E-19
 -1       561 9.52307E-05-2.85704E-05-2.85687E-05-9.66768E-09-1.52086E-18 4.21260E-19
 -1       562 9.52318E-05-2.85708E-05-2.85690E-05-8.62780E-09-3.47236E-19 6.58380E-20
 -1       563 9.52329E-05-2.85711E-05-2.85693E-05-7.47381E-09 3.96031E-21 9.33410E-19
 -1       564 9.52338E-05-2.85713E-05-2.85696E-05-6.32071E-09 3.67585E-19-6.27309E-19
 -1       565 9.52346E-05-2.85715E-05-2.85699E-05-5.23109E-09 6.27602E-19-2.04450E-18
 -1       566 9.52353E-05-2.85716E-05-2.85702E-05-4.23031E-09 7.89238E-19 3.92311E-20
 -1       567 9.52359E-05-2.85717E-05-2.85704E-05-3.31595E-09 4.57242E-19 1.66135E-18
 -1       568 9.52365E-05-2.85718E-05-2.85706E-05-2.46753E-09 8.54923E-19-2.24836E-19
 -1       569 9.52385E-05-2.85741E-05-2.85705E-05-2.30449E-09-6.48223E-19 2.00189E-18
 -1       570 9.52379E-05-2.85734E-05-2.85705E-05-2.58270E-09-6.40505E-19-9.32350E-19
 -1       571 9.52373E-05-2.85726E-05-2.85706E-05-2.52475E-09 1.20411E-18 2.67689E-19
 -1       572 3.22448E-05-1.32417E-05-7.43146E-06 2.84149E-05-1.11597E-18 5.76840E-18
 -1       573 9.52389E-05-2.85746E-05-2.85704E-05-1.72042E-09-5.32400E-19 2.81212E-19
 -1       574 9.52392E-05-2.85749E-05-2.85704E-05-9.15120E-10-8.78113E-19-2.23596E-18
 -1       575 9.52393E-05-2.85751E-05-2.85704E-05 5.60214E-12-2.04877E-18 1.40782E-18
 -1       576 9.52392E-05-2.85749E-05-2.85704E-05 9.26167E-10-2.17007E-18 1.49319E-18
 -1       577 9.52389E-05-2.85746E-05-2.85704E-05 1.71900E-09-1.60026E-20-3.18712E-18
 -1       578 9.52385E-05-2.85741E-05-2.85705E-05 2.30748E-09 2.29182E-19-1.37494E-18
 -1       579 9.52379E-05-2.85734E-05-2.85705E-05 2.59111E-09-2.60358E-18 8.14527E-19
 -1       580 9.52373E-05-2.85726E-05-2.85706E-05 2.52826E-09-3.62682E-18 3.85819E-18
 -1       581 1.47886E-04-3.59698E-05-4.84430E-05-3.99627E-06 3.34901E-18-1.98804E-18
 -1       582 1.46766E-04-4.96062E-05-4.18912E-05 7.35448E-06 2.22288E-18-1.56749E-18
 -1       583 9.06219E-05-4.84145E-05-1.77713E-05-3.80465E-05 2.44073E-18 1.88949E-18
 -1       584 1.89414E-05-1.44200E-06-6.83688E-06-9.37633E-06-6.67003E-19-4.79304E-18
 -1       585 1.07603E-04-4.73945E-05-2.55839E-05-4.28216E-05-1.58760E-18-1.00583E-18
 -1       586 1.34916E-04-9.71807E-06-5.43287E-05 9.55316E-06 4.41659E-18 1.05606E-18
 -1       587 9.92478E-05-5.12238E-05-2.02456E-05 4.75397E-05-2.35078E-18 8.58018E-19
 -1       588 2.66908E-05-1.04303E-05-6.27393E-06-9.96130E-06 2.22105E-18 4.81390E-18
 -1       589 8.25886E-05-1.61183E-05-2.84821E-05-2.24567E-05-1.40338E-18-1.75267E-18
 -1       590 1.41420E-04-1.42583E-05-5.50772E-05-7.91828E-06 4.75630E-18-1.89833E-18
 -1       591 1.38097E-04-4.98008E-06-5.77321E-05-1.41784E-06 5.33970E-18-8.81391E-19
 -1       592 1.45554E-04-2.83155E-05-5.07257E-05 7.18454E-06 2.97473E-18 1.35991E-18
 -1       593 1.46583E-04-4.46463E-05-4.39650E-05-7.56063E-06 1.42554E-18 7.89911E-19
 -1       594 1.29877E-04-5.21094E-05-3.33883E-05-2.90183E-05-6.03670E-19-2.18270E-19
 -1       595 2.53253E-05-5.06384E-06-7.97697E-06-2.94122E-05-1.41894E-18-4.64661E-18
 -1       596 1.26999E-04-6.08727E-05-2.81444E-05 2.44499E-05 1.73531E-18 6.38264E-19
 -1       597 1.36716E-04-6.58737E-05-3.02829E-05-2.00741E-05 1.47558E-18-7.28356E-19
 -1       598 4.32560E-05-2.18890E-05-8.55976E-06-2.88813E-05 2.69256E-18 3.92806E-18
 -1       599 5.78488E-05-3.08877E-05-1.10537E-05 4.71464E-05-2.98452E-18 3.65844E-18
 -1       600 5.28332E-05 5.93940E-06-2.50507E-05-8.39868E-06-1.16001E-18-2.66706E-18
 -1       601 1.38202E-04-5.86534E-05-3.41740E-05 1.52911E-05-7.78754E-19-1.56307E-18
 -1       602 9.68448E-05-2.69013E-05-2.99527E-05 1.04703E-05 1.49026E-18 2.18693E-18
 -1       603 3.51196E-05-6.11555E-06-1.17852E-05 8.84846E-06-2.57359E-19 4.43342E-18
 -1       604 9.63919E-05-2.72584E-05-2.96174E-05 9.70257E-06 1.36526E-18 1.77693E-18
 -1       605 7.62685E-05-3.53602E-05-1.69929E-05 3.43590E-05 1.56241E-18-2.49954E-18
 -1       606 3.22224E-05-1.83945E-06-1.24513E-05 7.36555E-06 9.70382E-20-4.21203E-18
 -1       607 8.53267E-05-3.63394E-05-2.07619E-05-4.78060E-05-2.42421E-18-2.11234E-18
 -1       608 4.47664E-05-1.11644E-05-1.38806E-05-4.13927E-05-2.09299E-18-3.91504E-18
 -1       609 1.09901E-04-3.18211E-05-3.34706E-05 4.84815E-07-4.77846E-20-1.66716E-19
 -1       610 1.07762E-04-3.29331E-05-3.20612E-05-9.60768E-06-7.46815E-19-5.18423E-19
 -1       611 1.05800E-04-2.73801E-05-3.36210E-05 1.10638E-05 1.02101E-18 3.71983E-20
 -1       612 1.02882E-04-2.62723E-05-3.28427E-05 1.29447E-05 1.48759E-18 5.14837E-19
 -1       613 9.90315E-05-2.64206E-05-3.11105E-05 1.24031E-05 1.59657E-18 1.37031E-18
 -1       614 6.68285E-05-1.78018E-05-2.04538E-05 2.47679E-05 1.20811E-18-2.23119E-18
 -1       615 7.27545E-05-2.00089E-05-2.22961E-05-2.70145E-05 2.16678E-18 2.61543E-18
 -1       616 6.12348E-05-3.26062E-06-2.46368E-05 9.49571E-06-1.70869E-19-2.21163E-18
 -1       617 9.52371E-05-2.85726E-05-2.85705E-05-3.42468E-09 5.57737E-19-5.07866E-19
 -1       618 9.52384E-05-2.85739E-05-2.85705E-05-3.16689E-09 5.85262E-19-4.32847E-19
 -1       619 7.75608E-05-1.64165E-05-2.61094E-05-2.03355E-05 4.80307E-19 1.64123E-18
 -1       620 8.29151E-05-1.72363E-05-2.81247E-05-1.56258E-05 4.21052E-19 8.44235E-19
 -1       621 8.73402E-05-1.95017E-05-2.90653E-05-1.20649E-05-7.80247E-19-1.41149E-19
 -1       622 9.05183E-05-2.18644E-05-2.94179E-05-9.24548E-06-8.78787E-19-1.37887E-19
 -1       623 9.26074E-05-2.38270E-05-2.94733E-05-6.99983E-06 7.22947E-19 1.86226E-19
 -1       624 9.38957E-05-2.53017E-05-2.93944E-05-5.23589E-06 7.79914E-19 3.20847E-19
 -1       625 9.46455E-05-2.63506E-05-2.92670E-05-3.87679E-06 9.08354E-20 3.61699E-19
 -1       626 9.50544E-05-2.70729E-05-2.91334E-05-2.84579E-06 4.21202E-19 9.01736E-20
 -1       627 9.52658E-05-2.75810E-05-2.90068E-05-2.04249E-06 2.82371E-20 3.32950E-19
 -1       628 9.53495E-05-2.79010E-05-2.89058E-05-1.47964E-06 3.38223E-19-6.44174E-19
 -1       629 9.53721E-05-2.81151E-05-2.88240E-05-1.06370E-06 1.06199E-18-2.16629E-19
 -1       630 9.53646E-05-2.82585E-05-2.87594E-05-7.58094E-07-1.07667E-18 1.81176E-19
 -1       631 9.53446E-05-2.83552E-05-2.87095E-05-5.34367E-07-5.58122E-19-1.57403E-18
 -1       632 9.53214E-05-2.84211E-05-2.86714E-05-3.71272E-07-1.47004E-18-1.78036E-18
 -1       633 9.52997E-05-2.84665E-05-2.86427E-05-2.53044E-07-3.18203E-19-2.88852E-18
 -1       634 9.52813E-05-2.84982E-05-2.86212E-05-1.67995E-07-1.79282E-18-3.28930E-18
 -1       635 9.52667E-05-2.85205E-05-2.86054E-05-1.07449E-07 6.41644E-19-2.50018E-18
 -1       636 9.52556E-05-2.85364E-05-2.85939E-05-6.49453E-08-8.92579E-19-1.35939E-18
 -1       637 9.52477E-05-2.85477E-05-2.85857E-05-3.56622E-08-1.64457E-18-1.41914E-18
 -1       638 9.52421E-05-2.85557E-05-2.85799E-05-1.59944E-08-5.07990E-19-7.05010E-19
 -1       639 9.52385E-05-2.85614E-05-2.85759E-05-3.24631E-09 2.09019E-18-1.87422E-19
 -1       640 9.52362E-05-2.85654E-05-2.85732E-05 4.59264E-09 2.69532E-18 4.66614E-19
 -1       641 9.52349E-05-2.85681E-05-2.85715E-05 9.01451E-09 3.99432E-18-1.42069E-19
 -1       642 9.52343E-05-2.85700E-05-2.85704E-05 1.11177E-08 3.77859E-18 2.31755E-19
 -1       643 9.52342E-05-2.85711E-05-2.85699E-05 1.17018E-08 1.21048E-18 1.74559E-18
 -1       644 9.52343E-05-2.85719E-05-2.85696E-05 1.13398E-08-1.79592E-18-3.40344E-20
 -1       645 9.52345E-05-2.85722E-05-2.85696E-05 1.04342E-08-9.74613E-19-7.38049E-20
 -1       646 9.52349E-05-2.85724E-05-2.85696E-05 9.25932E-09 4.11134E-19 1.74500E-18
 -1       647 9.52353E-05-2.85725E-05-2.85698E-05 7.99459E-09 2.22651E-18 5.53019E-18
 -1       648 9.52356E-05-2.85724E-05-2.85700E-05 6.74935E-09-9.55773E-20 3.93604E-18
 -1       649 9.52360E-05-2.85724E-05-2.85701E-05 5.58323E-09-1.72645E-19 2.93599E-18
 -1       650 9.52363E-05-2.85723E-05-2.85703E-05 4.51775E-09 8.71436E-20 2.51856E-18
 -1       651 9.52366E-05-2.85723E-05-2.85704E-05 3.55034E-09-9.10137E-19 3.79548E-18
 -1       652 9.73892E-05-2.48180E-05-3.10990E-05 7.51160E-06 1.13851E-18 9.43205E-19
 -1       653 9.55997E-05-2.31181E-05-3.10605E-05 3.71541E-06 1.20168E-18 7.54246E-19
 -1       654 9.94533E-05-2.66771E-05-3.11878E-05 1.01047E-05 9.86035E-19 9.18033E-19
 -1       655 9.53965E-05-2.37992E-05-3.06827E-05-5.02468E-06 1.09343E-18 2.44236E-19
 -1       656 9.68922E-05-2.61981E-05-3.02963E-05-7.89320E-06 8.81199E-19-7.93851E-20
 -1       657 9.86042E-05-2.89343E-05-2.98577E-05-8.94655E-06 4.80327E-19-2.87867E-19
 -1       658 9.98740E-05-3.11530E-05-2.94519E-05-8.38318E-06 1.16728E-19-1.08480E-19
 -1       659 1.00400E-04-3.24203E-05-2.91349E-05-6.81301E-06-1.66903E-19 1.32231E-19
 -1       660 1.00238E-04-3.27538E-05-2.89233E-05-4.87200E-06 2.89927E-19-8.04947E-20
 -1       661 9.96178E-05-3.24114E-05-2.88041E-05-3.02528E-06 5.18585E-19-2.44916E-19
 -1       662 9.87955E-05-3.17119E-05-2.87513E-05-1.51808E-06 5.79825E-19-6.24416E-19
 -1       663 9.79639E-05-3.09126E-05-2.87372E-05-4.22066E-07-2.04836E-19 3.84716E-19
 -1       664 9.72329E-05-3.01744E-05-2.87400E-05 2.92290E-07-5.94780E-19 7.77148E-19
 -1       665 9.66451E-05-2.95731E-05-2.87456E-05 6.98882E-07-2.82025E-19 4.82247E-19
 -1       666 9.62014E-05-2.91263E-05-2.87467E-05 8.80830E-07-8.91814E-19-5.59734E-20
 -1       667 9.58820E-05-2.88200E-05-2.87409E-05 9.12670E-07-1.31347E-18-6.87779E-20
 -1       668 9.56603E-05-2.86265E-05-2.87288E-05 8.53732E-07-7.60271E-20 2.88246E-19
 -1       669 9.55107E-05-2.85159E-05-2.87120E-05 7.47394E-07-4.35756E-19 1.33867E-18
 -1       670 9.54120E-05-2.84621E-05-2.86927E-05 6.23056E-07 1.77513E-18 1.15751E-18
 -1       671 9.53478E-05-2.84444E-05-2.86728E-05 4.99157E-07 1.07225E-18 4.84679E-19
 -1       672 9.53067E-05-2.84478E-05-2.86538E-05 3.86150E-07 9.03100E-19 5.26581E-19
 -1       673 9.52804E-05-2.84619E-05-2.86364E-05 2.88986E-07 1.59747E-18 6.17544E-19
 -1       674 9.52637E-05-2.84804E-05-2.86214E-05 2.09064E-07-6.76474E-20 7.74667E-19
 -1       675 9.52531E-05-2.84992E-05-2.86088E-05 1.45675E-07-9.51537E-19 1.40864E-18
 -1       676 9.52463E-05-2.85164E-05-2.85985E-05 9.69947E-08-1.00909E-18 3.68586E-19
 -1       677 9.52420E-05-2.85310E-05-2.85904E-05 6.07457E-08-4.04221E-19 2.37697E-19
 -1       678 9.52392E-05-2.85428E-05-2.85842E-05 3.45944E-08 7.31945E-19 6.82204E-19
 -1       679 9.52375E-05-2.85520E-05-2.85795E-05 1.63783E-08 9.31975E-19-1.13992E-18
 -1       680 9.52365E-05-2.85589E-05-2.85761E-05 4.21456E-09 2.23209E-19 7.60029E-19
 -1       681 9.52359E-05-2.85639E-05-2.85737E-05-3.46409E-09-4.39380E-19 1.40339E-18
 -1       682 9.52356E-05-2.85674E-05-2.85721E-05-7.91718E-09 6.45750E-20 2.95643E-19
 -1       683 9.52355E-05-2.85698E-05-2.85710E-05-1.01269E-08 7.41853E-19 5.38240E-19
 -1       684 9.52355E-05-2.85713E-05-2.85704E-05-1.08381E-08 8.17155E-19 6.22434E-19
 -1       685 9.52357E-05-2.85721E-05-2.85701E-05-1.06005E-08-2.40663E-19 1.70011E-18
 -1       686 9.52358E-05-2.85726E-05-2.85700E-05-9.80760E-09-1.01920E-18 1.89613E-18
 -1       687 9.52360E-05-2.85728E-05-2.85700E-05-8.73149E-09 1.07721E-18 5.82102E-19
 -1       688 9.52362E-05-2.85728E-05-2.85700E-05-7.55154E-09 1.67028E-18-7.53394E-19
 -1       689 9.52364E-05-2.85727E-05-2.85701E-05-6.37847E-09 3.10946E-19-1.17171E-18
 -1       690 9.52366E-05-2.85726E-05-2.85703E-05-5.28574E-09 2.11796E-19-6.21848E-19
 -1       691 9.52369E-05-2.85726E-05-2.85704E-05-4.32008E-09-5.84179E-19-8.19219E-19
 -1       692 9.52397E-05-2.85751E-05-2.85706E-05-1.67180E-09-5.08632E-19-5.12455E-20
 -1       693 9.52392E-05-2.85746E-05-2.85705E-05-2.55664E-09-9.87241E-19 2.35939E-18
 -1       694 9.48468E-05-2.26403E-05-3.09422E-05-8.17046E-07 1.25217E-18 3.98341E-19
 -1       695 9.52400E-05-2.85754E-05-2.85706E-05 5.85358E-10-1.39226E-18 3.42036E-19
 -1       696 9.52397E-05-2.85751E-05-2.85706E-05 1.66362E-09-1.44167E-18 4.61186E-19
 -1       697 9.52392E-05-2.85746E-05-2.85705E-05 2.56382E-09-4.68962E-19-4.04375E-18
 -1       698 9.52384E-05-2.85739E-05-2.85705E-05 3.15381E-09-1.87089E-18-1.24528E-18
 -1       699 9.52375E-05-2.85730E-05-2.85705E-05 3.34354E-09-1.99321E-18 9.37675E-19
 -1       700 7.52202E-05-2.98490E-05-1.89203E-05-3.41790E-05 3.14511E-18 2.42368E-18
 -1       701 9.86546E-05-3.00955E-05-2.93532E-05-2.23172E-05-1.51299E-18-1.10868E-18
 -1       702 1.40139E-04-4.40287E-05-4.15030E-05-4.70646E-06 1.67098E-18-3.54883E-18
 -1       703 9.52400E-05-2.85753E-05-2.85706E-05-5.77262E-10 9.10211E-19-1.00492E-18
 -1       704 5.54682E-05-2.04643E-05-1.45357E-05 3.63289E-05-3.05858E-18 3.38736E-18
 -1       705 7.93268E-05-1.92116E-05-2.56145E-05-3.19911E-05-2.01937E-18-1.80926E-18
 -1       706 1.34716E-04-4.87294E-05-3.69914E-05-8.86344E-06-5.01602E-19 9.52118E-19
 -1       707 8.50846E-05-4.00786E-05-1.89706E-05 4.42589E-05-3.07849E-18 1.25639E-18
 -1       708 1.08502E-04-2.94419E-05-3.38948E-05 7.16541E-06 7.10198E-19-5.37502E-20
 -1       709 5.63442E-05-4.97096E-06-2.17668E-05-3.14815E-05-1.90147E-18-2.85459E-18
 -1       710 1.20066E-04-5.97632E-06-4.94117E-05 2.98117E-06 3.84209E-18-2.70172E-19
 -1       711 1.22389E-04-8.14219E-06-4.94773E-05-5.96874E-06 3.82374E-18-1.42971E-18
 -1       712 1.37319E-04-3.93925E-05-4.22731E-05 5.95270E-06 9.19917E-19 1.57238E-18
 -1       713 1.25188E-04-4.98665E-05-3.22410E-05-2.29171E-05-1.42705E-18 1.46153E-19
 -1       714 3.25269E-05 2.02137E-06-1.40093E-05-1.90990E-05-1.18509E-18-4.05718E-18
 -1       715 1.30174E-04-2.05542E-05-4.73942E-05 1.35044E-05 2.77732E-18 1.45245E-18
 -1       716 1.32644E-04-2.52790E-05-4.64511E-05-1.21882E-05 2.88671E-18-3.04572E-18
 -1       717 1.15568E-04-5.52408E-05-2.57277E-05 3.52516E-05-2.68184E-18-4.59724E-19
 -1       718 4.72421E-05-1.24537E-05-1.43005E-05-2.06254E-05 2.23360E-18 3.57003E-18
 -1       719 1.00445E-04-2.73821E-05-3.13106E-05 1.17132E-05 1.37547E-18 8.66517E-19
 -1       720 4.92904E-05-1.07626E-05-1.61252E-05 2.11330E-05-2.21673E-18 2.84963E-18
 -1       721 6.89437E-05-2.27379E-05-1.94600E-05-4.46124E-05-2.59428E-18-2.77851E-18
 -1       722 4.28243E-05-1.58178E-06-1.71913E-05-3.02812E-05-1.77013E-18-3.67438E-18
 -1       723 1.10783E-04-4.48068E-05-2.80877E-05-3.35263E-05-2.10631E-18-4.30091E-19
 -1       724 1.17591E-04-1.17110E-05-4.56645E-05 1.00833E-05 2.95617E-18 7.66955E-19
 -1       725 4.39428E-05 5.79076E-06-2.10349E-05-1.66238E-05-1.31948E-18-3.24907E-18
 -1       726 1.05403E-04-2.81610E-05-3.31114E-05 1.24169E-05 1.03623E-18 7.96047E-19
 -1       727 9.52408E-05-2.85757E-05-2.85707E-05-1.37856E-09 1.53168E-18 1.98706E-18
 -1       728 1.25582E-04-3.00751E-05-4.11162E-05 1.30315E-05 1.21942E-18 1.67843E-18
 -1       729 6.93342E-05-1.12621E-05-2.48323E-05-9.58518E-06-8.18073E-20 1.32284E-18
 -1       730 7.76481E-05-1.45797E-05-2.70182E-05-8.07843E-06-8.44776E-19 5.14824E-19
 -1       731 8.36308E-05-1.79305E-05-2.81560E-05-6.83578E-06-8.13789E-19 3.28254E-20
 -1       732 8.77498E-05-2.07675E-05-2.87058E-05-5.69299E-06-1.79746E-19 4.31016E-19
 -1       733 9.05091E-05-2.29843E-05-2.89384E-05-4.62838E-06 8.58688E-19-3.85744E-20
 -1       734 9.23124E-05-2.46328E-05-2.90049E-05-3.67797E-06 7.44476E-19 2.78753E-19
 -1       735 9.34652E-05-2.58203E-05-2.89901E-05-2.86531E-06-1.79713E-19 9.28627E-20
 -1       736 9.42139E-05-2.66915E-05-2.89378E-05-2.16803E-06-3.49138E-19-7.56242E-20
 -1       737 9.46459E-05-2.72636E-05-2.88779E-05-1.63947E-06-4.83734E-21 3.65955E-19
 -1       738 9.49063E-05-2.76605E-05-2.88194E-05-1.22351E-06 1.47356E-18 7.08671E-19
 -1       739 9.50600E-05-2.79355E-05-2.87675E-05-9.01807E-07 1.75487E-19-2.34623E-19
 -1       740 9.51486E-05-2.81265E-05-2.87237E-05-6.55905E-07-1.73569E-18 1.52442E-19
 -1       741 9.51982E-05-2.82599E-05-2.86878E-05-4.69919E-07-1.23015E-18-1.03145E-19
 -1       742 9.52250E-05-2.83536E-05-2.86591E-05-3.30694E-07-9.57115E-19 4.21669E-20
 -1       743 9.52385E-05-2.84198E-05-2.86366E-05-2.27600E-07-1.24385E-18-3.21795E-19
 -1       744 9.52447E-05-2.84668E-05-2.86191E-05-1.52184E-07-1.66924E-18-1.77858E-19
 -1       745 9.52469E-05-2.85003E-05-2.86057E-05-9.77944E-08 9.50776E-19-6.61418E-19
 -1       746 9.52470E-05-2.85240E-05-2.85955E-05-5.92397E-08-8.74835E-19-1.98671E-19
 -1       747 9.52462E-05-2.85408E-05-2.85880E-05-3.24904E-08-1.10844E-18 5.52744E-19
 -1       748 9.52450E-05-2.85526E-05-2.85824E-05-1.44399E-08 5.32285E-21 2.79671E-19
 -1       749 9.52437E-05-2.85608E-05-2.85784E-05-2.70909E-09 2.31840E-18-1.54221E-18
 -1       750 9.52425E-05-2.85663E-05-2.85755E-05 4.50873E-09 3.66001E-18-1.21374E-18
 -1       751 9.52414E-05-2.85698E-05-2.85735E-05 8.57217E-09 3.71419E-18-1.48320E-18
 -1       752 9.52406E-05-2.85721E-05-2.85722E-05 1.04906E-08 4.04094E-18-2.48309E-18
 -1       753 9.52398E-05-2.85733E-05-2.85713E-05 1.10030E-08-5.40146E-20-7.78786E-19
 -1       754 9.52392E-05-2.85740E-05-2.85708E-05 1.06410E-08-1.14048E-18 8.54643E-19
 -1       755 9.52387E-05-2.85742E-05-2.85705E-05 9.77786E-09-3.87590E-19 2.34339E-19
 -1       756 9.52383E-05-2.85741E-05-2.85704E-05 8.66817E-09 2.70609E-18 9.76876E-19
 -1       757 9.52380E-05-2.85739E-05-2.85703E-05 7.47738E-09-4.91719E-19 5.15066E-19
 -1       758 9.52378E-05-2.85736E-05-2.85704E-05 6.30493E-09 7.16934E-19 7.43561E-19
 -1       759 9.52376E-05-2.85733E-05-2.85704E-05 5.21038E-09 7.29576E-19 2.09848E-18
 -1       760 9.52376E-05-2.85732E-05-2.85705E-05 4.23570E-09 4.01124E-19 2.95116E-18
 -1       761 9.52402E-05-2.85753E-05-2.85707E-05 2.58754E-09-2.48214E-18-1.54349E-18
 -1       762 1.00350E-04-2.25855E-05-3.33285E-05 7.41463E-06 1.21099E-18 4.33316E-19
 -1       763 1.02692E-04-2.55856E-05-3.30476E-05 1.07492E-05 1.21175E-18 5.42280E-19
 -1       764 1.02344E-04-2.84124E-05-3.16879E-05-9.68441E-06 6.57095E-19 3.34981E-19
 -1       765 1.00176E-04-2.42391E-05-3.25460E-05-7.70006E-06 9.51660E-19 7.03600E-21
 -1       766 1.04362E-04-3.43181E-05-3.00185E-05-7.41566E-06-1.98507E-19-5.76402E-19
 -1       767 1.03692E-04-3.50004E-05-2.94409E-05-5.02497E-06 4.20455E-19-1.01275E-18
 -1       768 1.02333E-04-3.45321E-05-2.90584E-05-2.80319E-06 3.60422E-19-8.87253E-19
 -1       769 1.00732E-04-3.34473E-05-2.88368E-05-1.08013E-06 3.30363E-19-4.82525E-19
 -1       770 9.92131E-05-3.21851E-05-2.87266E-05 9.26273E-08-6.65243E-19 5.68857E-19
 -1       771 9.79431E-05-3.10148E-05-2.86838E-05 7.93764E-07-4.73981E-19 4.18291E-19
 -1       772 9.69717E-05-3.00625E-05-2.86755E-05 1.14199E-06-7.38308E-19 4.55151E-19
 -1       773 9.62790E-05-2.93578E-05-2.86806E-05 1.25107E-06-6.92785E-19 1.14255E-18
 -1       774 9.58146E-05-2.88779E-05-2.86872E-05 1.21209E-06-1.02442E-18 1.35438E-18
 -1       775 9.55217E-05-2.85786E-05-2.86899E-05 1.09147E-06-8.94633E-19 7.02009E-19
 -1       776 9.53491E-05-2.84122E-05-2.86872E-05 9.34413E-07-7.37510E-19 1.17222E-18
 -1       777 9.52559E-05-2.83364E-05-2.86798E-05 7.69567E-07 3.45990E-19 4.68256E-19
 -1       778 9.52120E-05-2.83178E-05-2.86689E-05 6.13629E-07 9.97856E-19 1.50597E-18
 -1       779 9.51967E-05-2.83324E-05-2.86561E-05 4.75329E-07 9.56546E-19 2.06681E-18
 -1       780 9.51966E-05-2.83633E-05-2.86428E-05 3.58166E-07 1.12649E-18 1.29160E-18
 -1       781 9.52034E-05-2.84002E-05-2.86299E-05 2.62388E-07 2.19476E-19 2.66935E-18
 -1       782 9.52123E-05-2.84365E-05-2.86182E-05 1.86410E-07-5.97589E-19 2.12492E-18
 -1       783 9.52209E-05-2.84692E-05-2.86079E-05 1.27753E-07 1.31276E-19 1.48138E-18
 -1       784 9.52280E-05-2.84967E-05-2.85991E-05 8.36335E-08-1.22446E-18 1.18065E-18
 -1       785 9.52334E-05-2.85189E-05-2.85919E-05 5.13242E-08-3.93060E-20 5.97895E-19
 -1       786 9.52372E-05-2.85360E-05-2.85862E-05 2.83425E-08 1.70821E-18-4.18852E-19
 -1       787 9.52395E-05-2.85489E-05-2.85817E-05 1.25407E-08-5.97608E-19-5.80137E-19
 -1       788 9.52409E-05-2.85582E-05-2.85783E-05 2.12960E-09-5.64746E-19-2.39651E-19
 -1       789 9.52414E-05-2.85647E-05-2.85757E-05-4.33667E-09-1.11283E-19-2.81358E-19
 -1       790 9.52415E-05-2.85690E-05-2.85739E-05-7.99624E-09 7.93258E-19-4.92792E-19
 -1       791 9.52412E-05-2.85718E-05-2.85726E-05-9.72318E-09 5.70414E-19-5.08975E-19
 -1       792 9.52408E-05-2.85734E-05-2.85717E-05-1.01728E-08-5.56574E-19 1.18353E-19
 -1       793 9.52402E-05-2.85742E-05-2.85712E-05-9.82407E-09-1.14791E-18-2.17978E-19
 -1       794 9.52397E-05-2.85745E-05-2.85708E-05-9.01707E-09 1.41599E-19-6.63853E-19
 -1       795 9.52392E-05-2.85744E-05-2.85706E-05-7.98460E-09 1.76460E-18-1.09636E-20
 -1       796 9.52387E-05-2.85742E-05-2.85705E-05-6.88014E-09 9.77412E-19-6.47659E-20
 -1       797 9.52384E-05-2.85739E-05-2.85705E-05-5.78380E-09 6.15603E-19-1.35642E-18
 -1       798 9.52410E-05-2.85759E-05-2.85708E-05-3.84206E-13 7.80784E-19-2.92086E-18
 -1       799 5.89390E-05-9.68609E-06-2.08819E-05-1.33738E-05 5.56683E-19 1.82178E-18
 -1       800 1.15723E-04-4.08331E-05-3.21086E-05-1.39449E-05-1.30546E-18-1.18374E-20
 -1       801 9.52393E-05-2.85746E-05-2.85706E-05 3.51843E-09-2.59617E-19-1.36344E-18
 -1       802 9.52408E-05-2.85757E-05-2.85707E-05 1.36667E-09-1.10808E-18 6.81220E-19
 -1       803 9.52385E-05-2.85739E-05-2.85705E-05 4.01659E-09-2.10784E-19-2.03302E-18
 -1       804 1.24567E-04-4.54191E-05-3.39684E-05-9.88607E-06-1.08622E-18 5.47116E-19
 -1       805 9.52388E-05-2.85741E-05-2.85706E-05-4.00989E-09-1.96694E-19-3.88462E-19
 -1       806 1.27974E-04-3.54546E-05-3.98304E-05-1.12576E-05 1.01682E-18-2.87836E-18
 -1       807 1.18575E-04-1.79324E-05-4.33741E-05-1.13121E-05 2.51656E-18-2.13093E-18
 -1       808 1.12052E-04-1.01759E-05-4.39211E-05-2.18992E-06 2.69764E-18-4.13599E-19
 -1       809 7.68772E-05-2.93022E-05-2.01667E-05 3.56547E-05-2.70830E-18 2.42818E-18
 -1       810 1.29314E-04-4.24887E-05-3.73320E-05 2.17280E-06-2.30347E-19 1.20776E-18
 -1       811 1.04095E-04-2.77892E-05-3.26992E-05 1.22743E-05 1.14478E-18 9.48748E-19
 -1       812 1.03935E-04-3.20930E-05-3.07914E-05-9.31172E-06 1.25164E-19 1.35385E-19
 -1       813 1.26649E-04-5.59674E-05-3.02717E-05 1.89897E-05-1.92557E-18-1.51065E-18
 -1       814 1.33824E-04-5.09314E-05-3.56511E-05 1.23973E-06-1.17638E-19-3.72109E-18
 -1       815 1.17538E-04-3.81161E-05-3.40417E-05-5.41912E-07-4.13680E-19 3.23166E-19
 -1       816 5.00750E-05-6.90132E-06-1.81960E-05-6.34670E-06-2.54433E-19 2.97454E-18
 -1       817 1.02674E-04-4.57451E-05-2.43001E-05 3.39688E-05-2.38818E-18 6.34097E-19
 -1       818 6.61518E-05-1.87275E-05-2.01196E-05 2.66674E-05-1.78070E-18 3.31234E-18
 -1       819 1.16126E-04-2.04871E-05-4.11183E-05 1.36649E-05 1.75714E-18 1.28098E-18
 -1       820 9.86400E-05-2.06321E-05-3.34264E-05 2.29101E-06 1.61378E-18 3.32390E-19
 -1       821 5.46467E-05-7.75004E-06-1.98867E-05 5.28717E-06-1.43100E-18 2.07490E-18
 -1       822 9.86244E-05-2.12288E-05-3.31658E-05-3.32211E-06 1.57046E-18 1.86066E-19
 -1       823 1.09671E-04-3.01498E-05-3.40890E-05 1.10453E-05 8.66873E-19 1.27918E-19
 -1       824 9.52387E-05-2.85741E-05-2.85706E-05-4.87596E-09-1.70190E-20-1.14112E-18
 -1       825 9.52402E-05-2.85753E-05-2.85707E-05-2.60927E-09-9.93805E-19 3.86876E-19
 -1       826 1.09579E-04-1.16664E-05-4.20901E-05 4.74879E-06 2.48085E-18 6.73315E-19
 -1       827 1.14126E-04-3.35904E-05-3.45217E-05 7.23523E-06 3.66428E-19 4.95230E-19
 -1       828 7.77364E-05-1.53936E-05-2.67158E-05-7.71736E-07-1.09022E-18 1.88298E-18
 -1       829 8.32583E-05-1.84858E-05-2.77604E-05-1.82024E-06-7.31357E-19 1.42489E-18
 -1       830 8.71342E-05-2.10344E-05-2.83289E-05-2.23428E-06-1.38053E-19 9.49089E-19
 -1       831 8.98146E-05-2.30353E-05-2.86200E-05-2.25407E-06 7.20876E-19 5.50787E-19
 -1       832 9.16464E-05-2.45552E-05-2.87534E-05-2.05803E-06 5.15055E-19-2.20011E-19
 -1       833 9.29285E-05-2.57258E-05-2.88012E-05-1.75439E-06-6.76439E-19-4.08276E-19
 -1       834 9.37334E-05-2.65296E-05-2.88016E-05-1.44512E-06 1.15285E-18-1.01123E-19
 -1       835 9.42656E-05-2.71098E-05-2.87811E-05-1.15324E-06 4.36331E-19-5.88018E-19
 -1       836 9.46152E-05-2.75264E-05-2.87523E-05-8.97789E-07-4.26069E-19-1.61197E-18
 -1       837 9.48434E-05-2.78249E-05-2.87222E-05-6.83835E-07-4.40757E-19-1.15381E-18
 -1       838 9.49918E-05-2.80392E-05-2.86940E-05-5.10193E-07-3.12228E-19-6.06771E-19
 -1       839 9.50880E-05-2.81934E-05-2.86691E-05-3.72752E-07-4.21722E-19 8.54770E-19
 -1       840 9.51499E-05-2.83047E-05-2.86480E-05-2.66228E-07-1.98805E-18 8.26888E-19
 -1       841 9.51895E-05-2.83850E-05-2.86305E-05-1.85224E-07-1.26621E-18 5.63657E-19
 -1       842 9.52145E-05-2.84430E-05-2.86163E-05-1.24763E-07 5.75699E-21 8.93239E-19
 -1       843 9.52298E-05-2.84848E-05-2.86050E-05-8.05021E-08-4.79782E-19-2.02827E-20
 -1       844 9.52390E-05-2.85146E-05-2.85962E-05-4.87868E-08-7.07706E-19 3.07317E-19
 -1       845 9.52440E-05-2.85357E-05-2.85893E-05-2.66208E-08-2.93714E-19 1.64733E-18
 -1       846 9.52465E-05-2.85505E-05-2.85840E-05-1.15971E-08 4.67232E-19 2.40881E-18
 -1       847 9.52473E-05-2.85605E-05-2.85801E-05-1.81687E-09 2.65442E-18 5.04567E-19
 -1       848 9.52472E-05-2.85672E-05-2.85771E-05 4.19311E-09 3.74564E-18-2.00751E-18
 -1       849 9.52464E-05-2.85714E-05-2.85750E-05 7.55749E-09 4.54694E-18-1.06310E-18
 -1       850 9.52454E-05-2.85739E-05-2.85735E-05 9.12018E-09 3.94568E-18-3.07827E-18
 -1       851 9.52442E-05-2.85753E-05-2.85724E-05 9.50284E-09 7.39927E-21-1.71225E-18
 -1       852 9.52431E-05-2.85758E-05-2.85717E-05 9.15390E-09-1.19287E-18 1.00627E-19
 -1       853 9.52420E-05-2.85758E-05-2.85712E-05 8.38893E-09 6.94542E-19 3.43201E-19
 -1       854 9.52410E-05-2.85755E-05-2.85709E-05 7.42260E-09 9.84951E-19-1.60721E-18
 -1       855 9.52401E-05-2.85751E-05-2.85707E-05 6.39308E-09 7.53161E-19 2.47874E-20
 -1       856 9.52394E-05-2.85746E-05-2.85706E-05 5.38639E-09 1.72496E-18 1.57594E-19
 -1       857 9.52389E-05-2.85743E-05-2.85706E-05 4.68569E-09-8.79169E-20-1.79225E-18
 -1       858 1.14753E-04-4.92485E-05-2.80372E-05 2.08514E-05-1.68595E-18-5.00305E-19
 -1       859 1.05630E-04-3.70535E-05-2.93913E-05-1.77164E-06 1.45360E-19-4.08436E-19
 -1       860 1.07893E-04-3.76205E-05-3.01198E-05-4.54596E-06 4.14779E-19-3.58599E-19
 -1       861 1.00670E-04-3.36432E-05-2.87255E-05 1.29295E-06-6.56711E-19 3.44767E-19
 -1       862 9.87437E-05-3.19500E-05-2.86258E-05 1.82330E-06-3.60749E-19 3.69457E-19
 -1       863 9.73158E-05-3.05861E-05-2.85985E-05 1.95638E-06-8.60963E-19 6.75849E-19
 -1       864 9.63328E-05-2.95871E-05-2.86053E-05 1.86066E-06-8.44464E-19 6.24038E-19
 -1       865 9.57021E-05-2.89135E-05-2.86237E-05 1.65099E-06-1.23114E-18 8.27028E-19
 -1       866 9.53289E-05-2.84985E-05-2.86416E-05 1.39908E-06-1.09189E-18 8.65303E-19
 -1       867 9.51316E-05-2.82726E-05-2.86538E-05 1.14652E-06-6.58399E-19 8.40918E-19
 -1       868 9.50464E-05-2.81748E-05-2.86592E-05 9.15218E-07-6.00794E-19 1.21355E-18
 -1       869 9.50274E-05-2.81575E-05-2.86585E-05 7.14116E-07-3.24466E-20 1.82180E-18
 -1       870 9.50440E-05-2.81864E-05-2.86533E-05 5.45572E-07 3.02431E-19 2.51589E-18
 -1       871 9.50764E-05-2.82379E-05-2.86451E-05 4.08279E-07 8.88221E-19 3.49099E-18
 -1       872 9.51129E-05-2.82969E-05-2.86354E-05 2.98995E-07 5.33479E-19 2.60993E-18
 -1       873 9.51471E-05-2.83546E-05-2.86254E-05 2.13761E-07-4.76286E-19 1.13881E-18
 -1       874 9.51761E-05-2.84061E-05-2.86157E-05 1.48559E-07-3.62172E-19 1.88233E-18
 -1       875 9.51990E-05-2.84497E-05-2.86069E-05 9.96460E-08 9.47589E-20 1.96323E-18
 -1       876 9.52162E-05-2.84849E-05-2.85991E-05 6.37067E-08-4.63187E-19 3.48441E-19
 -1       877 9.52284E-05-2.85123E-05-2.85926E-05 3.79036E-08 1.41920E-18-2.87887E-19
 -1       878 9.52366E-05-2.85330E-05-2.85872E-05 1.98734E-08-2.14998E-19 1.30861E-18
 -1       879 9.52417E-05-2.85482E-05-2.85829E-05 7.69097E-09 2.28127E-19 2.41152E-19
 -1       880 9.52445E-05-2.85589E-05-2.85796E-05-1.81160E-10-5.50451E-20-3.32051E-19
 -1       881 9.52457E-05-2.85661E-05-2.85770E-05-4.94773E-09 5.45060E-19 5.68517E-20
 -1       882 9.52459E-05-2.85709E-05-2.85750E-05-7.53554E-09 8.05308E-20 4.98183E-19
 -1       883 9.52454E-05-2.85737E-05-2.85736E-05-8.64402E-09-3.98785E-19 9.56517E-19
 -1       884 9.52445E-05-2.85752E-05-2.85725E-05-8.79023E-09-1.24016E-19 8.44591E-19
 -1       885 9.52435E-05-2.85759E-05-2.85718E-05-8.34765E-09 5.23645E-19-3.02827E-19
 -1       886 9.52424E-05-2.85760E-05-2.85713E-05-7.57842E-09 8.02711E-19-2.22090E-18
 -1       887 9.52414E-05-2.85757E-05-2.85710E-05-6.66220E-09 1.21159E-18-2.15622E-18
 -1       888 9.52405E-05-2.85753E-05-2.85708E-05-5.71356E-09 2.67429E-20-3.18769E-19
 -1       889 9.52420E-05-2.85765E-05-2.85710E-05-8.30932E-10-1.87498E-18-1.53743E-18
 -1       890 1.16400E-04-2.75258E-05-3.81826E-05-1.23671E-05 1.48530E-18-1.59696E-18
 -1       891 9.52406E-05-2.85755E-05-2.85708E-05 3.68713E-09-5.04615E-19 4.05494E-19
 -1       892 1.03042E-04-3.54796E-05-2.89556E-05 1.58777E-07-2.95822E-20 1.67203E-19
 -1       893 1.06066E-04-2.66497E-05-3.40443E-05-1.03579E-05 8.61859E-19-4.06422E-19
 -1       894 1.05820E-04-2.33651E-05-3.53561E-05 1.11744E-05 1.31583E-18 5.74691E-19
 -1       895 6.96914E-05-1.17086E-05-2.48077E-05 1.19218E-06 1.21443E-19 7.18687E-19
 -1       896 1.09431E-04-1.68930E-05-3.97584E-05-7.73520E-06 1.53886E-18-4.98697E-19
 -1       897 1.25959E-04-5.13360E-05-3.20085E-05 6.75635E-06-1.05985E-18-2.43509E-18
 -1       898 1.25506E-04-4.33539E-05-3.52708E-05-6.27135E-06 2.16328E-19-2.48102E-18
 -1       899 9.20178E-05-3.54709E-05-2.41771E-05 2.89877E-05-2.36110E-18 1.22684E-18
 -1       900 5.85165E-05-8.08415E-06-2.14480E-05-2.24928E-06-3.27590E-19 1.24730E-18
 -1       901 1.20392E-04-3.50397E-05-3.66167E-05 9.55440E-06 3.45328E-19 1.02568E-18
 -1       902 8.14156E-05-2.63312E-05-2.35352E-05 2.53423E-05-1.43275E-18 1.47348E-18
 -1       903 1.15265E-04-2.86710E-05-3.71699E-05 1.34225E-05 9.32351E-19 9.54477E-19
 -1       904 6.32838E-05-1.22489E-05-2.18260E-05 1.37733E-05-1.90487E-18 3.66759E-18
 -1       905 1.03291E-04-2.08873E-05-3.53285E-05-6.84211E-06 1.26447E-18-2.73603E-19
 -1       906 9.52407E-05-2.85755E-05-2.85708E-05-3.47842E-09-6.74763E-19 6.10778E-19
 -1       907 1.09075E-04-3.64352E-05-3.11355E-05-7.58110E-06 2.75709E-19-4.69524E-19
 -1       908 9.52420E-05-2.85765E-05-2.85710E-05 8.00977E-10-1.46319E-18-3.59403E-18
 -1       909 9.52415E-05-2.85761E-05-2.85709E-05 2.37059E-09-1.85373E-18-7.79512E-19
 -1       910 9.52415E-05-2.85761E-05-2.85709E-05-2.24699E-09-5.03305E-19 2.42231E-18
 -1       911 1.05862E-04-1.46331E-05-3.91703E-05-1.98169E-06 1.85865E-18-8.09016E-20
 -1       912 1.03183E-04-1.91829E-05-3.60120E-05 6.61149E-06 1.62831E-18 1.18651E-19
 -1       913 1.08136E-04-2.80540E-05-3.43143E-05 1.26183E-05 1.04566E-18 3.95645E-19
 -1       914 1.08486E-04-3.24832E-05-3.25625E-05-1.01789E-05 5.10696E-19-4.85404E-19
 -1       915 1.09320E-04-2.94318E-05-3.42284E-05 1.21448E-05 8.93214E-19 8.28488E-20
 -1       916 8.51619E-05-2.04476E-05-2.77342E-05 1.62718E-06-6.09737E-19 2.10365E-18
 -1       917 8.80830E-05-2.22556E-05-2.82124E-05 2.77985E-07 7.67813E-20 1.16631E-18
 -1       918 9.02137E-05-2.37587E-05-2.84810E-05-4.33520E-07-2.25538E-19-2.20030E-19
 -1       919 9.18042E-05-2.50053E-05-2.86282E-05-7.60044E-07-1.98468E-19-1.05602E-18
 -1       920 9.28662E-05-2.59148E-05-2.86935E-05-8.38356E-07 2.24026E-19-9.49315E-20
 -1       921 9.36118E-05-2.66053E-05-2.87172E-05-7.94229E-07 2.82935E-19-1.73529E-19
 -1       922 9.41318E-05-2.71244E-05-2.87175E-05-6.93778E-07-1.17150E-19-8.79884E-19
 -1       923 9.44915E-05-2.75108E-05-2.87061E-05-5.74774E-07-7.88562E-20-1.41661E-19
 -1       924 9.47398E-05-2.77978E-05-2.86895E-05-4.57442E-07-8.90369E-19 3.23342E-19
 -1       925 9.49106E-05-2.80105E-05-2.86715E-05-3.52303E-07-2.21970E-19-5.16188E-19
 -1       926 9.50275E-05-2.81680E-05-2.86541E-05-2.63389E-07-1.41868E-18-6.65529E-19
 -1       927 9.51070E-05-2.82843E-05-2.86383E-05-1.91214E-07-6.91855E-19 9.67489E-19
 -1       928 9.51607E-05-2.83699E-05-2.86246E-05-1.34497E-07 4.65619E-19 2.79384E-18
 -1       929 9.51963E-05-2.84327E-05-2.86130E-05-9.11658E-08-7.64881E-19 2.74940E-18
 -1       930 9.52195E-05-2.84782E-05-2.86034E-05-5.89243E-08-1.00638E-18 1.80093E-18
 -1       931 9.52342E-05-2.85110E-05-2.85956E-05-3.55695E-08 7.29327E-20 2.07272E-18
 -1       932 9.52429E-05-2.85343E-05-2.85894E-05-1.91404E-08-3.14915E-19 1.18447E-18
 -1       933 9.52477E-05-2.85504E-05-2.85845E-05-7.97494E-09 7.38469E-19 1.75289E-18
 -1       934 9.52498E-05-2.85614E-05-2.85808E-05-7.14121E-10 7.92207E-19 7.54888E-19
 -1       935 9.52503E-05-2.85686E-05-2.85779E-05 3.72230E-09 4.31750E-18-1.90295E-18
 -1       936 9.52497E-05-2.85730E-05-2.85757E-05 6.17192E-09 3.60592E-18-4.14372E-18
 -1       937 9.52485E-05-2.85756E-05-2.85741E-05 7.26938E-09 3.28040E-18-3.29912E-18
 -1       938 9.52471E-05-2.85768E-05-2.85730E-05 7.48446E-09 1.23914E-18-2.00820E-18
 -1       939 9.52456E-05-2.85772E-05-2.85722E-05 7.15668E-09-5.81853E-19-1.45288E-18
 -1       940 9.52441E-05-2.85770E-05-2.85716E-05 6.52512E-09-3.25477E-20-6.01997E-19
 -1       941 9.52427E-05-2.85765E-05-2.85712E-05 5.75508E-09 1.84300E-18 3.37985E-19
 -1       942 9.52415E-05-2.85760E-05-2.85709E-05 4.95204E-09 6.85983E-19 9.74753E-19
 -1       943 1.09396E-04-4.00500E-05-2.97257E-05 3.13030E-07-9.32865E-20-7.54661E-19
 -1       944 9.74750E-05-3.09938E-05-2.84919E-05 3.25042E-06-8.62576E-19 2.57070E-18
 -1       945 9.93846E-05-3.28168E-05-2.85288E-05 3.54122E-06-9.24470E-19 1.58638E-18
 -1       946 9.54444E-05-2.88393E-05-2.85452E-05 2.27010E-06-9.45552E-19 1.33015E-18
 -1       947 9.50198E-05-2.83274E-05-2.85825E-05 1.79844E-06-1.31140E-18 9.29263E-19
 -1       948 9.48226E-05-2.80601E-05-2.86125E-05 1.39282E-06-3.91360E-19 2.31400E-19
 -1       949 9.47663E-05-2.79570E-05-2.86326E-05 1.06099E-06-8.11227E-19 6.62295E-20
 -1       950 9.47878E-05-2.79533E-05-2.86434E-05 7.96905E-07-7.84310E-19 1.26830E-19
 -1       951 9.48483E-05-2.80061E-05-2.86467E-05 5.90526E-07-1.13778E-18 1.83038E-18
 -1       952 9.49224E-05-2.80854E-05-2.86444E-05 4.31922E-07 3.91287E-19 2.72901E-18
 -1       953 9.49956E-05-2.81723E-05-2.86386E-05 3.11423E-07 1.14221E-18 2.39726E-18
 -1       954 9.50606E-05-2.82555E-05-2.86308E-05 2.20786E-07 8.33013E-19 2.51443E-18
 -1       955 9.51145E-05-2.83294E-05-2.86222E-05 1.53301E-07-6.44799E-19 2.51584E-18
 -1       956 9.51569E-05-2.83918E-05-2.86136E-05 1.03619E-07 5.29446E-19 1.96247E-18
 -1       957 9.51889E-05-2.84422E-05-2.86057E-05 6.75252E-08 1.99887E-19 1.64569E-18
 -1       958 9.52119E-05-2.84818E-05-2.85986E-05 4.17214E-08 1.01218E-18 7.46073E-19
 -1       959 9.52278E-05-2.85118E-05-2.85925E-05 2.36402E-08-1.37919E-19 1.24842E-18
 -1       960 9.52382E-05-2.85341E-05-2.85875E-05 1.12928E-08 4.32163E-19 1.45823E-18
 -1       961 9.52444E-05-2.85500E-05-2.85833E-05 3.14695E-09-2.85344E-19 1.99173E-18
 -1       962 9.52477E-05-2.85610E-05-2.85800E-05-1.96963E-09 8.16226E-19 9.00473E-19
 -1       963 9.52491E-05-2.85683E-05-2.85775E-05-4.94564E-09-3.96773E-19 4.24946E-19
 -1       964 9.52491E-05-2.85729E-05-2.85755E-05-6.44735E-09-5.52999E-19 1.47079E-18
 -1       965 9.52482E-05-2.85755E-05-2.85740E-05-6.96727E-09-3.33539E-19 1.48775E-18
 -1       966 9.52470E-05-2.85768E-05-2.85729E-05-6.86335E-09 1.01538E-18 7.43592E-19
 -1       967 9.52456E-05-2.85772E-05-2.85722E-05-6.39055E-09 2.44557E-18-7.16225E-19
 -1       968 9.52441E-05-2.85770E-05-2.85716E-05-5.72536E-09 1.18559E-18 3.64300E-19
 -1       969 9.52428E-05-2.85766E-05-2.85712E-05-4.98678E-09-1.05362E-18 1.11643E-18
 -1       970 1.07675E-04-1.74296E-05-3.87274E-05 9.63324E-06 2.03103E-18 9.50871E-19
 -1       971 7.58516E-05-1.62856E-05-2.55474E-05 7.80264E-06-3.27583E-19 2.42328E-18
 -1       972 9.62145E-05-2.96941E-05-2.85088E-05 2.77858E-06-3.47248E-19 1.70987E-18
 -1       973 1.01877E-04-1.76803E-05-3.61028E-05-3.87039E-07 1.54138E-18-3.24968E-19
 -1       974 1.14059E-04-3.15148E-05-3.53953E-05 1.14256E-05 5.42571E-19 7.06412E-19
 -1       975 1.17638E-04-4.78132E-05-2.99155E-05 9.72642E-06-1.03644E-18-1.13439E-18
 -1       976 6.35171E-05-1.07207E-05-2.25468E-05 7.50362E-06-9.09760E-19 1.69295E-18
 -1       977 1.16252E-04-3.57368E-05-3.45105E-05-1.01643E-05 8.10978E-19-1.12687E-18
 -1       978 1.03555E-04-4.06690E-05-2.69599E-05 2.02664E-05-2.41031E-18 4.22739E-19
 -1       979 8.11424E-05-1.83066E-05-2.69183E-05 3.98654E-06-1.18122E-18 1.97614E-18
 -1       980 1.20784E-04-4.56183E-05-3.22492E-05-1.02959E-06-2.17383E-21-1.55427E-18
 -1       981 9.49746E-05-3.41143E-05-2.60510E-05 2.10990E-05-1.76074E-18 4.13628E-20
 -1       982 7.46659E-05-1.86295E-05-2.39439E-05 1.73040E-05-1.04725E-18 3.40086E-18
 -1       983 1.05488E-04-3.77251E-05-2.90398E-05 2.46517E-06-2.89293E-19 9.52161E-20
 -1       984 1.12940E-04-4.08740E-05-3.08806E-05-3.26359E-06 2.97262E-19-9.35642E-19
 -1       985 1.02072E-04-3.51502E-05-2.86792E-05 3.39676E-06-7.12763E-19 7.47521E-19
 -1       986 9.52423E-05-2.85764E-05-2.85711E-05-3.51527E-09-4.28618E-21 6.50383E-19
 -1       987 9.52429E-05-2.85768E-05-2.85712E-05 3.41757E-09 2.06638E-18-5.43807E-19
 -1       988 9.52432E-05-2.85770E-05-2.85712E-05-1.96641E-09-1.37714E-18 3.30339E-19
 -1       989 9.52435E-05-2.85772E-05-2.85713E-05-8.62554E-11-1.39809E-18-3.40812E-18
 -1       990 8.66767E-05-2.66889E-05-2.56931E-05 1.80379E-05-1.50548E-18 3.36906E-19
 -1       991 9.71494E-05-3.10717E-05-2.83192E-05 5.08516E-06-1.05190E-18 9.89989E-19
 -1       992 8.96687E-05-2.37960E-05-2.82310E-05 1.74795E-06-1.51393E-18-2.66836E-19
 -1       993 9.11853E-05-2.47950E-05-2.84528E-05 6.90066E-07-5.06729E-20-2.86446E-19
 -1       994 9.22793E-05-2.56072E-05-2.85739E-05 1.29482E-07 4.93764E-19-5.03940E-19
 -1       995 9.31045E-05-2.62793E-05-2.86396E-05-1.59931E-07 1.40619E-19-8.69996E-19
 -1       996 9.37172E-05-2.68215E-05-2.86697E-05-2.84286E-07-9.60019E-19-1.21129E-18
 -1       997 9.41626E-05-2.72456E-05-2.86789E-05-3.15702E-07 2.68741E-19-1.41342E-18
 -1       998 9.44876E-05-2.75768E-05-2.86762E-05-2.96264E-07 4.03266E-20-7.85640E-19
 -1       999 9.47220E-05-2.78322E-05-2.86672E-05-2.54603E-07-1.69219E-18-4.32552E-19
 -1      1000 9.48897E-05-2.80277E-05-2.86552E-05-2.06186E-07-1.26716E-18 1.25856E-19
 -1      1001 9.50087E-05-2.81763E-05-2.86426E-05-1.59436E-07-5.66183E-19 5.38195E-19
 -1      1002 9.50924E-05-2.82884E-05-2.86303E-05-1.18393E-07 4.32499E-19-3.47714E-19
 -1      1003 9.51504E-05-2.83723E-05-2.86192E-05-8.44940E-08 7.90326E-19 1.58905E-20
 -1      1004 9.51899E-05-2.84345E-05-2.86095E-05-5.77339E-08-1.38774E-18 1.13226E-18
 -1      1005 9.52162E-05-2.84801E-05-2.86012E-05-3.73906E-08-1.15046E-18 1.17168E-19
 -1      1006 9.52331E-05-2.85130E-05-2.85943E-05-2.24527E-08-5.88087E-19-1.55159E-19
 -1      1007 9.52434E-05-2.85363E-05-2.85887E-05-1.18639E-08 6.68622E-19-1.83797E-19
 -1      1008 9.52491E-05-2.85525E-05-2.85842E-05-4.64803E-09 1.16912E-18 5.10357E-19
 -1      1009 9.52517E-05-2.85634E-05-2.85807E-05 3.46527E-11 1.59668E-18 5.16093E-19
 -1      1010 9.52523E-05-2.85703E-05-2.85780E-05 2.87294E-09 2.51791E-18-6.50771E-19
 -1      1011 9.52517E-05-2.85746E-05-2.85759E-05 4.41118E-09 3.25255E-18-1.02208E-18
 -1      1012 9.52504E-05-2.85769E-05-2.85743E-05 5.06631E-09 2.76867E-18-3.75820E-18
 -1      1013 9.52487E-05-2.85779E-05-2.85732E-05 5.14805E-09 9.18030E-19-1.77296E-18
 -1      1014 9.52469E-05-2.85781E-05-2.85723E-05 4.87873E-09 3.36150E-19-1.79189E-18
 -1      1015 9.52451E-05-2.85777E-05-2.85717E-05 4.42787E-09 8.89033E-19-1.28772E-18
 -1      1016 9.52440E-05-2.85773E-05-2.85714E-05 3.91959E-09 3.02173E-18-5.12898E-19
 -1      1017 1.14539E-04-4.37182E-05-3.03493E-05 2.37704E-06-1.89181E-19-6.03551E-19
 -1      1018 9.43683E-05-2.77205E-05-2.85631E-05 1.66220E-06-9.90206E-19 8.44307E-19
 -1      1019 9.45024E-05-2.79811E-05-2.85091E-05 2.27891E-06-1.06078E-18 4.39863E-19
 -1      1020 9.44808E-05-2.76883E-05-2.86255E-05 8.50303E-07-6.77739E-19 6.61016E-19
 -1      1021 9.46068E-05-2.77845E-05-2.86382E-05 5.99409E-07-1.70870E-18-6.84212E-19
 -1      1022 9.47368E-05-2.79048E-05-2.86424E-05 4.19722E-07-8.42067E-19-1.20524E-18
 -1      1023 9.48559E-05-2.80280E-05-2.86406E-05 2.91630E-07 4.53733E-19-2.20700E-19
 -1      1024 9.49577E-05-2.81423E-05-2.86352E-05 2.00647E-07 8.65795E-19 1.10219E-18
 -1      1025 9.50405E-05-2.82422E-05-2.86279E-05 1.36233E-07-4.01876E-19 2.17194E-18
 -1      1026 9.51052E-05-2.83258E-05-2.86198E-05 9.07917E-08 3.28712E-19 1.58811E-18
 -1      1027 9.51539E-05-2.83933E-05-2.86117E-05 5.88972E-08 2.51077E-19 1.29895E-18
 -1      1028 9.51894E-05-2.84462E-05-2.86042E-05 3.66825E-08 9.41864E-19 1.71408E-18
 -1      1029 9.52142E-05-2.84866E-05-2.85975E-05 2.13893E-08 6.16811E-19 1.08665E-18
 -1      1030 9.52309E-05-2.85167E-05-2.85918E-05 1.10411E-08-2.51320E-19-4.03600E-19
 -1      1031 9.52414E-05-2.85385E-05-2.85870E-05 4.21382E-09 1.25873E-19-7.19494E-19
 -1      1032 9.52475E-05-2.85538E-05-2.85830E-05-1.23523E-10 1.44440E-19-1.10792E-18
 -1      1033 9.52506E-05-2.85641E-05-2.85799E-05-2.72022E-09-3.39066E-19 1.48364E-19
 -1      1034 9.52515E-05-2.85708E-05-2.85774E-05-4.12096E-09-6.58197E-19 4.38100E-19
 -1      1035 9.52511E-05-2.85749E-05-2.85755E-05-4.72037E-09 5.76206E-19 1.81522E-19
 -1      1036 9.52499E-05-2.85770E-05-2.85741E-05-4.80199E-09-1.55559E-19 2.79904E-19
 -1      1037 9.52483E-05-2.85779E-05-2.85730E-05-4.56614E-09 1.93197E-18 1.33504E-18
 -1      1038 9.52466E-05-2.85780E-05-2.85722E-05-4.15574E-09 1.72837E-18 7.91139E-19
 -1      1039 9.52449E-05-2.85776E-05-2.85717E-05-3.66263E-09 5.67401E-19-1.24195E-18
 -1      1040 1.08937E-04-4.21315E-05-2.86257E-05 1.10475E-05-1.67045E-18-2.41800E-19
 -1      1041 9.57079E-05-2.95104E-05-2.83704E-05 4.02375E-06-2.35975E-19 1.15673E-18
 -1      1042 8.31838E-05-2.18390E-05-2.63001E-05 1.14066E-05-1.24541E-18 8.46579E-19
 -1      1043 9.52435E-05-2.85772E-05-2.85713E-05 1.69568E-09 2.00806E-18-6.94172E-19
 -1      1044 9.43876E-05-2.76515E-05-2.86012E-05 1.19316E-06 7.37603E-20 1.23448E-18
 -1      1045 8.78403E-05-2.27959E-05-2.78770E-05 3.44449E-06-9.25529E-19 9.44224E-19
 -1      1046 9.48904E-05-2.85265E-05-2.84419E-05 3.06784E-06-3.24050E-19 8.96746E-19
 -1      1047 9.94885E-05-3.33755E-05-2.83343E-05 6.06830E-06-1.22695E-18 1.30320E-18
 -1      1048 1.00513E-04-3.63543E-05-2.74893E-05 1.46609E-05-1.76703E-18 8.46530E-20
 -1      1049 9.52449E-05-2.85778E-05-2.85716E-05-1.19983E-09-2.18456E-19-1.54637E-18
 -1      1050 8.54520E-05-2.17313E-05-2.73017E-05 6.10120E-06-1.15890E-18 7.22134E-19
 -1      1051 1.07505E-04-3.99020E-05-2.89691E-05 5.82870E-06-8.16651E-19 3.96865E-19
 -1      1052 9.21627E-05-2.57477E-05-2.84643E-05 1.33587E-06 4.86304E-20-3.62820E-19
 -1      1053 9.28897E-05-2.62423E-05-2.85626E-05 6.74663E-07-8.11676E-20-1.09544E-18
 -1      1054 9.34848E-05-2.67095E-05-2.86175E-05 2.93452E-07-7.93211E-19-1.53432E-18
 -1      1055 9.39235E-05-2.70856E-05-2.86451E-05 8.31617E-08 2.30051E-19-7.88179E-19
 -1      1056 9.42809E-05-2.74158E-05-2.86566E-05-2.92162E-08 6.30441E-19-6.43343E-19
 -1      1057 9.45526E-05-2.76856E-05-2.86573E-05-7.77828E-08-4.47540E-19-5.77310E-19
 -1      1058 9.47565E-05-2.79020E-05-2.86519E-05-9.06694E-08-1.06189E-18-4.24096E-19
 -1      1059 9.49076E-05-2.80731E-05-2.86433E-05-8.53027E-08-8.60483E-19-5.83520E-19
 -1      1060 9.50179E-05-2.82064E-05-2.86335E-05-7.19924E-08 1.49039E-21 2.03987E-19
 -1      1061 9.50973E-05-2.83090E-05-2.86236E-05-5.65178E-08-8.81434E-20 1.14502E-19
 -1      1062 9.51534E-05-2.83868E-05-2.86142E-05-4.18627E-08-6.71724E-19-2.89476E-18
 -1      1063 9.51921E-05-2.84451E-05-2.86059E-05-2.93493E-08-2.73134E-19-3.13814E-19
 -1      1064 9.52181E-05-2.84879E-05-2.85986E-05-1.93619E-08-7.18252E-19 3.88019E-19
 -1      1065 9.52348E-05-2.85189E-05-2.85925E-05-1.17947E-08-1.06605E-19-3.81692E-19
 -1      1066 9.52449E-05-2.85408E-05-2.85875E-05-6.31987E-09 1.70550E-18 1.27766E-18
 -1      1067 9.52505E-05-2.85559E-05-2.85834E-05-2.53914E-09 1.14458E-18 1.32970E-18
 -1      1068 9.52530E-05-2.85659E-05-2.85802E-05-6.47621E-11 8.57297E-19 5.87821E-19
 -1      1069 9.52534E-05-2.85723E-05-2.85776E-05 1.44321E-09 2.57265E-18 7.42772E-20
 -1      1070 9.52526E-05-2.85760E-05-2.85757E-05 2.26408E-09 1.80872E-18-1.44653E-18
 -1      1071 9.52511E-05-2.85779E-05-2.85742E-05 2.61717E-09 2.54285E-18-1.44229E-18
 -1      1072 9.52492E-05-2.85786E-05-2.85731E-05 2.66981E-09 1.41729E-18-1.40369E-18
 -1      1073 9.52473E-05-2.85786E-05-2.85723E-05 2.53780E-09 2.08999E-18 1.69850E-19
 -1      1074 9.03736E-05-2.48986E-05-2.80610E-05 3.97684E-06-1.47212E-18 4.43900E-19
 -1      1075 1.03032E-04-3.65018E-05-2.85111E-05 6.56829E-06-7.87111E-19 9.95027E-19
 -1      1076 9.45166E-05-2.76901E-05-2.86400E-05 3.62039E-07-3.08855E-19-5.00607E-19
 -1      1077 9.43093E-05-2.75084E-05-2.86290E-05 5.59000E-07 3.23259E-19 9.15052E-19
 -1      1078 9.48412E-05-2.80157E-05-2.86395E-05 1.47352E-07-7.45161E-19 2.77148E-19
 -1      1079 9.49574E-05-2.81463E-05-2.86334E-05 9.25162E-08 2.34210E-19 1.25676E-18
 -1      1080 9.50470E-05-2.82538E-05-2.86257E-05 5.72377E-08 2.74397E-19 5.45388E-19
 -1      1081 9.51141E-05-2.83400E-05-2.86175E-05 3.46358E-08-1.48639E-19 1.86037E-18
 -1      1082 9.51629E-05-2.84073E-05-2.86096E-05 2.02121E-08 5.60691E-19 2.37676E-18
 -1      1083 9.51974E-05-2.84587E-05-2.86023E-05 1.10569E-08 7.36309E-19 2.65953E-18
 -1      1084 9.52209E-05-2.84971E-05-2.85959E-05 5.29964E-09 1.20989E-18 3.46528E-18
 -1      1085 9.52361E-05-2.85251E-05-2.85905E-05 1.73996E-09 1.26697E-18 3.26686E-18
 -1      1086 9.52454E-05-2.85449E-05-2.85859E-05-3.94778E-10 7.65208E-19 1.82413E-18
 -1      1087 9.52505E-05-2.85586E-05-2.85822E-05-1.60519E-09-1.86879E-19 1.28419E-18
 -1      1088 9.52527E-05-2.85677E-05-2.85793E-05-2.21876E-09-7.88813E-19 6.18263E-19
 -1      1089 9.52529E-05-2.85733E-05-2.85770E-05-2.45202E-09-5.75488E-19 1.00030E-18
 -1      1090 9.52521E-05-2.85766E-05-2.85752E-05-2.44968E-09 5.51580E-19 4.69908E-19
 -1      1091 9.52505E-05-2.85781E-05-2.85739E-05-2.30953E-09 1.79986E-19-1.68341E-18
 -1      1092 9.52487E-05-2.85786E-05-2.85729E-05-2.09680E-09 2.11049E-18-1.95418E-18
 -1      1093 9.52468E-05-2.85784E-05-2.85721E-05-1.63519E-09 2.00971E-18-1.57778E-18
 -1      1094 9.38874E-05-2.72263E-05-2.85673E-05 1.27612E-06-3.63169E-19 1.22826E-18
 -1      1095 9.45417E-05-2.88257E-05-2.81637E-05 5.52946E-06-4.98155E-19 3.75063E-19
 -1      1096 9.02724E-05-2.75381E-05-2.68795E-05 1.30440E-05-1.40902E-18 6.75931E-21
 -1      1097 9.38525E-05-2.78228E-05-2.82968E-05 4.02042E-06-7.18093E-19 9.49607E-19
 -1      1098 9.46947E-05-2.78623E-05-2.86425E-05 2.32105E-07-1.01436E-18-1.14681E-18
 -1      1099 9.36811E-05-2.71769E-05-2.85007E-05 1.92588E-06-1.13350E-18 1.25787E-18
 -1      1100 9.12765E-05-2.52351E-05-2.83014E-05 2.40083E-06-6.61083E-19 6.73610E-19
 -1      1101 9.52452E-05-2.85780E-05-2.85717E-05 8.09634E-10 5.08408E-19-7.82843E-19
 -1      1102 9.40842E-05-2.73382E-05-2.86055E-05 8.57440E-07 5.65190E-19 1.53183E-18
 -1      1103 9.36454E-05-2.73551E-05-2.84106E-05 2.83051E-06-7.35149E-19 1.24646E-18
 -1      1104 9.49991E-05-3.18365E-05-2.70540E-05 1.46639E-05-1.64937E-18-2.17739E-20
 -1      1105 9.58974E-05-3.04886E-05-2.80310E-05 7.42665E-06-8.55164E-19 2.06098E-19
 -1      1106 9.84744E-05-3.33504E-05-2.79148E-05 9.87762E-06-1.50198E-18 8.37581E-19
 -1      1107 9.52458E-05-2.85782E-05-2.85719E-05 2.23476E-09 1.15565E-18 7.96952E-19
 -1      1108 8.93177E-05-2.47181E-05-2.76923E-05 6.38347E-06-1.20355E-18 1.10792E-19
 -1      1109 9.52444E-05-2.85776E-05-2.85715E-05 1.96010E-09 1.38573E-18-9.24293E-19
 -1      1110 9.34821E-05-2.68245E-05-2.85714E-05 9.15418E-07-1.01231E-18-5.53995E-19
 -1      1111 9.21243E-05-2.65499E-05-2.81060E-05 4.79521E-06-9.79458E-19 1.16780E-18
 -1      1112 9.39262E-05-2.95506E-05-2.75973E-05 1.01164E-05-1.11090E-18 3.09093E-19
 -1      1113 9.25641E-05-2.76907E-05-2.78005E-05 7.57067E-06-9.98860E-19 8.11069E-19
 -1      1114 1.37802E-04 3.35857E-10-5.00582E-05-3.75015E-05-2.07100E-19 8.19526E-18
 -1      1115 1.03714E-04 9.96356E-11-4.30165E-05-1.23593E-05-1.01220E-19 2.03357E-18
 -1      1116 8.75576E-05 2.91622E-11-3.73603E-05-4.83571E-06-8.89385E-20-8.70207E-19
 -1      1117 7.51806E-05-1.09755E-11-3.26614E-05-4.32202E-06-6.24687E-20-2.38154E-18
 -1      1118 6.74421E-05-2.89813E-11-2.95940E-05-7.42702E-06-4.83868E-20-3.20011E-18
 -1      1119 6.49358E-05-2.59511E-11-2.84540E-05-1.13810E-05-3.28887E-20-3.53213E-18
 -1      1120 6.68552E-05-7.50882E-12-2.89942E-05-1.39387E-05-2.31875E-20-3.54695E-18
 -1      1121 7.14750E-05 1.61420E-11-3.06108E-05-1.38051E-05-1.64113E-20-3.38299E-18
 -1      1122 7.67795E-05 3.55854E-11-3.25762E-05-1.09080E-05 5.29396E-22-3.22092E-18
 -1      1123 8.12696E-05 4.66360E-11-3.43190E-05-6.06440E-06 1.14349E-20-3.00721E-18
 -1      1124 8.42563E-05 4.99025E-11-3.55457E-05-3.18595E-07 2.12817E-20-2.77972E-18
 -1      1125 8.57328E-05 4.83586E-11-3.62147E-05 5.46142E-06 3.65283E-20-2.38381E-18
 -1      1126 8.61403E-05 4.51235E-11-3.64736E-05 1.08981E-05 5.15764E-20-1.79833E-18
 -1      1127 8.61522E-05 4.30273E-11-3.65837E-05 1.59553E-05 6.84244E-20-7.71415E-19
 -1      1128 8.68053E-05 4.58616E-11-3.69501E-05 2.08799E-05 1.03656E-19 1.12397E-18
 -1      1129 9.03687E-05 6.56620E-11-3.82743E-05 2.68110E-05 1.13185E-19 4.65408E-18
 -1      1130 1.09556E-04 1.64105E-10-4.17098E-05 3.87606E-05 2.00535E-19 1.16632E-17
 -1      1131 1.58730E-04-3.35855E-05-5.00129E-05-2.39537E-05-8.11352E-19 1.20584E-17
 -1      1132 1.39999E-04-4.17769E-05-4.46817E-05 9.24861E-07-2.95614E-19 1.03072E-17
 -1      1133 1.47840E-04-4.44671E-05-4.52299E-05 1.33902E-06-1.00585E-19 8.05422E-18
 -1      1134 1.61375E-04-4.86259E-05-4.80542E-05 1.31205E-06-9.03993E-20 6.88003E-18
 -1      1135 1.72877E-04-5.20070E-05-5.01373E-05 5.59022E-07 2.22346E-20 7.52785E-18
 -1      1136 1.69731E-04-5.08452E-05-4.84619E-05-2.05457E-06-9.66147E-21 9.22885E-18
 -1      1137 1.43210E-04-4.18140E-05-4.26874E-05-5.26027E-06-1.50481E-20 9.92087E-18
 -1      1138 1.06103E-04-3.07374E-05-3.56623E-05-5.17490E-06-1.82853E-19 7.93966E-18
 -1      1139 7.91547E-05-2.23546E-05-3.13042E-05-1.57481E-06-6.23628E-20 3.99355E-18
 -1      1140 8.54369E-05-2.43740E-05-3.22829E-05 3.27050E-06-4.10282E-20-4.94244E-19
 -1      1141 1.17131E-04-3.43781E-05-3.75579E-05 4.98977E-06-5.29528E-20-4.87722E-18
 -1      1142 1.52414E-04-4.52611E-05-4.44407E-05 3.72597E-06-5.44020E-20-7.10449E-18
 -1      1143 1.72483E-04-5.18934E-05-4.92736E-05 1.17271E-06 1.06144E-20-7.22096E-18
 -1      1144 1.70291E-04-5.13750E-05-4.96004E-05-3.94252E-07-5.69299E-20-5.93114E-18
 -1      1145 1.55809E-04-4.69000E-05-4.64352E-05-8.49893E-07 1.83065E-19-3.56199E-18
 -1      1146 1.39461E-04-4.18779E-05-4.21014E-05-7.26875E-07 7.51378E-20-2.07692E-18
 -1      1147 1.25882E-04-3.77759E-05-3.81319E-05-4.90596E-07-1.33345E-19-9.96958E-19
 -1      1148 1.15907E-04-3.47840E-05-3.50750E-05-2.99444E-07-9.51555E-20-2.02261E-18
 -1      1149 1.08992E-04-3.27138E-05-3.29097E-05-1.73542E-07-8.47844E-20-1.87223E-18
 -1      1150 1.04329E-04-3.13160E-05-3.14377E-05-9.77087E-08 3.61908E-20-1.88088E-18
 -1      1151 1.01222E-04-3.03820E-05-3.04553E-05-5.39546E-08 2.22234E-19-1.79772E-18
 -1      1152 9.91573E-05-2.97599E-05-2.98038E-05-2.92343E-08-1.76760E-20-8.93388E-20
 -1      1153 9.77855E-05-2.93455E-05-2.93719E-05-1.54220E-08-1.59245E-19-4.61830E-19
 -1      1154 9.68724E-05-2.90694E-05-2.90851E-05-7.81769E-09 3.32440E-20-1.48055E-18
 -1      1155 9.62523E-05-2.88803E-05-2.88908E-05-4.65783E-09 8.03168E-20-2.42341E-19
 -1      1156 9.58430E-05-2.87568E-05-2.87627E-05-1.09699E-09-4.13662E-19-3.20376E-18
 -1      1157 9.55810E-05-2.86771E-05-2.86808E-05 8.36859E-11 4.20041E-19-5.09863E-18
 -1      1158 9.54099E-05-2.86250E-05-2.86273E-05 6.90300E-10-3.89187E-20-3.14687E-18
 -1      1159 9.53007E-05-2.85917E-05-2.85931E-05 9.64782E-10 5.04677E-19-1.31344E-18
 -1      1160 9.52333E-05-2.85710E-05-2.85719E-05 1.05250E-09-5.02351E-19 1.18528E-18
 -1      1161 9.51942E-05-2.85590E-05-2.85595E-05 1.03636E-09 1.80575E-19-8.10956E-19
 -1      1162 9.51739E-05-2.85527E-05-2.85529E-05 9.64436E-10 2.94185E-19 1.00343E-18
 -1      1163 9.51659E-05-2.85501E-05-2.85502E-05 8.65138E-10 1.18148E-19-1.81235E-18
 -1      1164 9.51656E-05-2.85499E-05-2.85499E-05 7.55469E-10-4.59934E-19-7.35427E-18
 -1      1165 9.51700E-05-2.85512E-05-2.85511E-05 6.45654E-10 3.81443E-19-9.92574E-18
 -1      1166 9.51769E-05-2.85532E-05-2.85531E-05 5.41735E-10 5.99704E-19-5.63802E-18
 -1      1167 9.51848E-05-2.85555E-05-2.85554E-05 4.47095E-10-2.77327E-19-1.82771E-18
 -1      1168 9.51929E-05-2.85579E-05-2.85578E-05 3.63378E-10-2.45990E-20-4.06060E-19
 -1      1169 9.52006E-05-2.85602E-05-2.85601E-05 2.91087E-10 3.38932E-19 1.33124E-18
 -1      1170 9.52076E-05-2.85623E-05-2.85622E-05 2.29983E-10-1.44275E-19 1.62122E-18
 -1      1171 9.52138E-05-2.85641E-05-2.85641E-05 1.79360E-10 1.22543E-18 2.32634E-18
 -1      1172 9.52191E-05-2.85657E-05-2.85656E-05 1.38249E-10-6.54551E-19 6.23022E-19
 -1      1173 9.52235E-05-2.85670E-05-2.85670E-05 1.05549E-10-2.81681E-20 1.85953E-19
 -1      1174 9.52271E-05-2.85681E-05-2.85681E-05 8.01134E-11 2.03494E-19 6.15463E-19
 -1      1175 9.52301E-05-2.85690E-05-2.85690E-05 6.07696E-11 1.57071E-19 6.77235E-19
 -1      1176 9.52325E-05-2.85697E-05-2.85697E-05 4.62556E-11 4.40821E-19-1.17842E-18
 -1      1177 9.52344E-05-2.85703E-05-2.85703E-05 3.50292E-11 3.54012E-19-1.22707E-18
 -1      1178 9.52358E-05-2.85707E-05-2.85707E-05 2.46857E-11-2.72360E-19-2.80596E-18
 -1      1179 9.52367E-05-2.85710E-05-2.85710E-05 1.07269E-11-2.15618E-20-3.60379E-18
 -1      1180 9.52372E-05-2.85712E-05-2.85711E-05-1.40941E-11 4.45309E-19-2.01867E-18
 -1      1181 9.52372E-05-2.85711E-05-2.85712E-05-4.59034E-11-2.50484E-19 2.37664E-18
 -1      1182 1.35153E-04-3.89855E-05-3.95741E-05 1.28382E-05-1.74674E-19 1.73303E-17
 -1      1183 9.66990E-05-2.81669E-05-3.14372E-05 8.72297E-07 6.64656E-20 1.45967E-17
 -1      1184 8.79606E-05-2.61791E-05-2.71316E-05 1.34770E-07 2.58808E-20 1.20307E-17
 -1      1185 8.30334E-05-2.49093E-05-2.50339E-05 5.04316E-08 7.98808E-20 1.02771E-17
 -1      1186 7.92589E-05-2.38241E-05-2.37774E-05 6.84893E-08-1.26335E-20 8.82881E-18
 -1      1187 7.60588E-05-2.28686E-05-2.28414E-05 1.10309E-07-4.48332E-22 7.78130E-18
 -1      1188 7.35948E-05-2.21269E-05-2.21583E-05 1.35735E-07-8.54312E-21 7.04977E-18
 -1      1189 7.22847E-05-2.17268E-05-2.18126E-05 1.26777E-07-2.38261E-20 6.55784E-18
 -1      1190 7.24855E-05-2.17752E-05-2.18918E-05 8.13306E-08 1.49554E-21 5.07076E-18
 -1      1191 7.42802E-05-2.22997E-05-2.24143E-05 1.21553E-08 3.35273E-20 4.04029E-18
 -1      1192 7.74077E-05-2.32257E-05-2.33087E-05-5.97185E-08 1.03331E-19 2.94124E-18
 -1      1193 8.13411E-05-2.43978E-05-2.44333E-05-1.14722E-07-7.91016E-20 2.84481E-18
 -1      1194 8.54614E-05-2.56303E-05-2.56193E-05-1.42310E-07-1.95060E-20 2.67387E-18
 -1      1195 8.92324E-05-2.67613E-05-2.67171E-05-1.42696E-07-6.56558E-20 2.23643E-18
 -1      1196 9.23090E-05-2.76855E-05-2.76257E-05-1.23481E-07 1.07427E-19 2.16079E-18
 -1      1197 9.45574E-05-2.83617E-05-2.83015E-05-9.46139E-08 1.43731E-19 1.11595E-18
 -1      1198 9.60122E-05-2.87996E-05-2.87487E-05-6.45256E-08-6.28111E-20 7.40975E-19
 -1      1199 9.68082E-05-2.90396E-05-2.90018E-05-3.85059E-08 6.07031E-20 6.76844E-19
 -1      1200 9.71174E-05-2.91333E-05-2.91086E-05-1.87863E-08-8.03511E-20 9.01371E-19
 -1      1201 9.71054E-05-2.91305E-05-2.91164E-05-5.46268E-09-1.22922E-19 1.72378E-18
 -1      1202 9.69085E-05-2.90720E-05-2.90657E-05 2.49720E-09-2.02496E-20 1.72649E-18
 -1      1203 9.66269E-05-2.89880E-05-2.89867E-05 6.49546E-09 8.43107E-20 1.44695E-18
 -1      1204 9.63267E-05-2.88983E-05-2.88998E-05 7.86352E-09 3.80977E-21 2.65856E-19
 -1      1205 9.60471E-05-2.88146E-05-2.88174E-05 7.66922E-09-9.01909E-20-2.40809E-18
 -1      1206 9.58074E-05-2.87428E-05-2.87460E-05 6.67714E-09-7.32132E-20-8.45195E-19
 -1      1207 9.56142E-05-2.86849E-05-2.86879E-05 5.38491E-09 2.47287E-19-8.57813E-19
 -1      1208 9.54661E-05-2.86404E-05-2.86430E-05 4.08588E-09-1.10669E-20-1.54695E-18
 -1      1209 9.53577E-05-2.86078E-05-2.86099E-05 2.93155E-09 1.77878E-19-2.69113E-18
 -1      1210 9.52823E-05-2.85851E-05-2.85867E-05 1.98271E-09-1.22757E-19-9.89275E-19
 -1      1211 9.52326E-05-2.85702E-05-2.85713E-05 1.24699E-09 1.94943E-20-1.79015E-18
 -1      1212 9.52024E-05-2.85610E-05-2.85618E-05 7.04262E-10 4.54252E-20-2.02999E-18
 -1      1213 9.51862E-05-2.85561E-05-2.85566E-05 3.22782E-10 2.35289E-19-3.28888E-18
 -1      1214 9.51797E-05-2.85541E-05-2.85544E-05 6.85184E-11-7.39822E-20-2.88289E-18
 -1      1215 9.51795E-05-2.85540E-05-2.85541E-05-8.99174E-11-1.90607E-19-2.72594E-18
 -1      1216 9.51831E-05-2.85550E-05-2.85551E-05-1.79143E-10 1.32260E-19-9.28922E-19
 -1      1217 9.51889E-05-2.85567E-05-2.85567E-05-2.20476E-10-7.29955E-20-2.76099E-18
 -1      1218 9.51955E-05-2.85587E-05-2.85587E-05-2.30259E-10 4.06250E-19-4.54393E-18
 -1      1219 9.52023E-05-2.85607E-05-2.85607E-05-2.20561E-10 1.11101E-19-2.66736E-18
 -1      1220 9.52087E-05-2.85626E-05-2.85626E-05-1.99989E-10 2.90433E-21 7.65384E-19
 -1      1221 9.52145E-05-2.85643E-05-2.85643E-05-1.74468E-10-5.56751E-19 1.26624E-19
 -1      1222 9.52195E-05-2.85658E-05-2.85658E-05-1.47923E-10 2.78625E-19 1.51491E-19
 -1      1223 9.52238E-05-2.85671E-05-2.85671E-05-1.22836E-10-2.52165E-19 2.20328E-18
 -1      1224 9.52273E-05-2.85682E-05-2.85681E-05-1.00687E-10-1.32789E-19 3.20191E-18
 -1      1225 9.52302E-05-2.85691E-05-2.85690E-05-8.22764E-11 3.99709E-19-2.91410E-18
 -1      1226 9.52326E-05-2.85698E-05-2.85697E-05-6.79209E-11-1.64343E-19-4.98701E-18
 -1      1227 9.52344E-05-2.85703E-05-2.85703E-05-5.73503E-11 8.20518E-20-6.12657E-18
 -1      1228 9.52358E-05-2.85707E-05-2.85707E-05-4.91870E-11 6.41571E-19-8.21600E-18
 -1      1229 9.52367E-05-2.85710E-05-2.85710E-05-3.79175E-11-3.50615E-19-4.51625E-18
 -1      1230 9.52372E-05-2.85712E-05-2.85711E-05-9.73926E-12 1.22190E-18-6.14205E-18
 -1      1231 9.52372E-05-2.85712E-05-2.85712E-05 2.73025E-11-1.14284E-19-6.07387E-18
 -1      1232 9.52371E-05-2.85711E-05-2.85712E-05 2.68327E-11-5.79607E-18-5.69679E-19
 -1      1233 9.52371E-05-2.85711E-05-2.85711E-05 2.55062E-11-7.76507E-18 3.44888E-19
 -1      1234 9.52373E-05-2.85716E-05-2.85710E-05-1.84004E-11-8.32126E-18-8.80106E-19
 -1      1235 9.52375E-05-2.85724E-05-2.85707E-05-3.99367E-11-8.94092E-18-2.53741E-20
 -1      1236 9.52378E-05-2.85735E-05-2.85704E-05-4.60878E-11-5.33160E-18 7.74311E-19
 -1      1237 9.52381E-05-2.85745E-05-2.85702E-05-4.22542E-11-2.70203E-18-5.01657E-19
 -1      1238 9.52384E-05-2.85754E-05-2.85699E-05-3.22392E-11-3.80682E-18-5.62466E-19
 -1      1239 9.52386E-05-2.85759E-05-2.85697E-05-1.71065E-11-4.97104E-18-9.32689E-19
 -1      1240 9.52386E-05-2.85761E-05-2.85697E-05 2.08850E-13-5.29018E-18 3.72295E-19
 -1      1241 9.52386E-05-2.85759E-05-2.85697E-05 1.75222E-11-3.50799E-18 1.67071E-19
 -1      1242 9.52384E-05-2.85753E-05-2.85699E-05 3.25723E-11-6.11133E-18-1.46905E-18
 -1      1243 9.52381E-05-2.85745E-05-2.85702E-05 4.31152E-11-1.31266E-17 8.30925E-19
 -1      1244 9.52378E-05-2.85734E-05-2.85705E-05 4.63503E-11-9.45392E-18 7.31024E-19
 -1      1245 9.52375E-05-2.85724E-05-2.85707E-05 3.93220E-11-6.04766E-18 3.28465E-20
 -1      1246 9.52373E-05-2.85716E-05-2.85710E-05 1.51762E-11-2.89818E-19 2.11503E-19
 -1      1247 9.52371E-05-2.85711E-05-2.85711E-05-3.51140E-11-1.75559E-18-1.66227E-19
 -1      1248 9.52372E-05-2.85711E-05-2.85712E-05-4.49209E-11-3.37125E-18 7.81706E-19
 -1      1249 3.44835E-05-1.10192E-04 1.90938E-05-1.19276E-05 4.47742E-18 1.41812E-18
 -1      1250 1.76178E-05-6.30028E-05 8.92976E-06-2.14864E-05 1.63274E-17 6.68267E-18
 -1      1251 8.01379E-06-4.21954E-06-7.47660E-06 4.20944E-06 2.27547E-17 1.34306E-17
 -1      1252 3.43651E-05 3.05709E-05-2.81150E-05 5.87690E-05 2.08743E-17 1.88380E-17
 -1      1253 1.05810E-04 2.06866E-05-4.89503E-05 1.09423E-04 1.49222E-17 1.97155E-17
 -1      1254 2.02737E-04-2.42193E-05-6.63470E-05 1.21461E-04 7.83378E-18 1.62563E-17
 -1      1255 2.87854E-04-7.41885E-05-7.81372E-05 8.38382E-05 2.63332E-18 9.49016E-18
 -1      1256 3.25436E-04-9.77467E-05-8.27946E-05 1.01328E-05 5.71853E-19-5.61265E-19
 -1      1257 2.98645E-04-8.10994E-05-7.95998E-05-6.76726E-05 2.29001E-18-1.01534E-17
 -1      1258 2.21467E-04-3.55372E-05-6.92028E-05-1.15740E-04 6.82327E-18-1.63731E-17
 -1      1259 1.27271E-04 1.21518E-05-5.37627E-05-1.15479E-04 1.22015E-17-1.84382E-17
 -1      1260 5.01409E-05 3.35949E-05-3.49770E-05-7.64333E-05 1.63359E-17-1.66273E-17
 -1      1261 1.18040E-05 1.31038E-05-1.50578E-05-2.31665E-05 1.75607E-17-1.20999E-17
 -1      1262 1.23506E-05-4.03110E-05 3.51145E-06 1.29426E-05 1.32764E-17-5.91229E-18
 -1      1263 3.03596E-05-9.47638E-05 1.57244E-05 1.47445E-05 6.34512E-18-1.50560E-18
 -1      1264 3.77071E-05-1.16411E-04 2.00242E-05-1.08564E-05-2.04569E-18-7.83029E-19
 -1      1265 2.49876E-05-9.52946E-05 1.63593E-05-3.33690E-05-1.04820E-17-3.90821E-18
 -1      1266 8.67259E-06-4.77893E-05 4.32620E-06-3.03234E-05-1.65409E-17-9.30254E-18
 -1      1267 1.42532E-05 1.43226E-06-1.46306E-05 1.21977E-05-1.90379E-17-1.60902E-17
 -1      1268 7.54828E-05 1.49243E-05-3.91687E-05 7.66095E-05-1.61461E-17-2.05558E-17
 -1      1269 1.98894E-04-2.45337E-05-6.46627E-05 1.17027E-04-9.87640E-18-2.02593E-17
 -1      1270 3.28524E-04-8.72998E-05-8.34741E-05 8.95595E-05-4.26333E-18-1.45436E-17
 -1      1271 3.83220E-04-1.16632E-04-9.03923E-05 2.32370E-06-8.54868E-19-3.27632E-18
 -1      1272 3.35291E-04-9.09418E-05-8.43462E-05-8.72043E-05-2.82125E-18 9.56131E-18
 -1      1273 2.17396E-04-3.17623E-05-6.79479E-05-1.20755E-04-8.95822E-18 1.96562E-17
 -1      1274 9.74048E-05 1.26659E-05-4.52065E-05-9.20046E-05-1.60326E-17 2.19856E-17
 -1      1275 2.47948E-05 1.11575E-05-2.11869E-05-3.08939E-05-1.97138E-17 1.86381E-17
 -1      1276 6.89831E-06-3.26412E-05 3.28310E-07 2.12748E-05-2.05473E-17 1.25369E-17
 -1      1277 2.32122E-05-9.08441E-05 1.53585E-05 3.71134E-05-1.59835E-17 6.29282E-18
 -1      1278 3.82550E-05-1.22318E-04 2.15702E-05 1.62276E-05-5.27680E-18 1.14016E-18
 -1      1279 1.33467E-04-2.97678E-05-4.69693E-05-1.13210E-05-2.87991E-19 6.99014E-18
 -1      1280 1.04042E-04-9.23177E-06-4.08859E-05-7.80618E-06-8.13787E-19 7.45707E-19
 -1      1281 1.13165E-04-1.01787E-05-4.39974E-05-1.43462E-05-1.02449E-18 2.25777E-18
 -1      1282 8.50199E-05-2.64138E-06-3.56506E-05-4.25396E-06-8.22045E-19-1.55698E-18
 -1      1283 9.29818E-05-3.03124E-06-3.83221E-05-5.96041E-06-9.19031E-19-5.43107E-19
 -1      1284 1.02175E-04-1.12743E-05-3.89493E-05-6.46848E-06-1.38802E-18 6.34534E-19
 -1      1285 7.10758E-05 1.31486E-06-3.13975E-05-5.24074E-06-7.30884E-19-2.78668E-18
 -1      1286 7.67624E-05 1.14484E-06-3.34018E-05-4.54369E-06-8.35810E-19-2.22428E-18
 -1      1287 8.16185E-05-2.08830E-06-3.41743E-05-4.83936E-06-1.30978E-18-1.33921E-18
 -1      1288 6.36210E-05 3.06079E-06-2.88690E-05-8.91222E-06-6.79373E-19-3.43137E-18
 -1      1289 6.62810E-05 3.03938E-06-2.99201E-05-7.17392E-06-7.10343E-19-3.15501E-18
 -1      1290 6.76441E-05 3.23947E-06-3.04802E-05-6.83408E-06-1.15210E-18-2.41903E-18
 -1      1291 6.29185E-05 2.66874E-06-2.82381E-05-1.26806E-05-6.07455E-19-3.63029E-18
 -1      1292 6.26308E-05 2.77126E-06-2.83328E-05-1.11651E-05-6.60686E-19-3.52787E-18
 -1      1293 6.16255E-05 4.62957E-06-2.84910E-05-1.06836E-05-1.10957E-18-2.90133E-18
 -1      1294 6.73708E-05 7.21959E-07-2.91456E-05-1.45156E-05-5.38078E-19-3.58296E-18
 -1      1295 6.49979E-05 9.02808E-07-2.85185E-05-1.40589E-05-5.70847E-19-3.61725E-18
 -1      1296 6.30943E-05 2.59421E-06-2.82548E-05-1.39352E-05-1.00744E-18-3.06651E-18
 -1      1297 7.42166E-05-1.70365E-06-3.09279E-05-1.33899E-05-3.66554E-19-3.39250E-18
 -1      1298 7.10567E-05-1.52815E-06-2.99519E-05-1.43155E-05-4.46228E-19-3.45969E-18
 -1      1299 6.96484E-05-1.37718E-06-2.93675E-05-1.47041E-05-8.35757E-19-2.91441E-18
 -1      1300 8.08066E-05-3.65611E-06-3.28739E-05-9.65310E-06-1.76712E-19-3.19596E-18
 -1      1301 7.79433E-05-3.53645E-06-3.18974E-05-1.17009E-05-2.30816E-19-3.28636E-18
 -1      1302 7.78571E-05-5.37739E-06-3.11588E-05-1.24796E-05-5.15737E-19-2.71003E-18
 -1      1303 8.56217E-05-4.73398E-06-3.44858E-05-4.34479E-06 7.09390E-20-2.97518E-18
 -1      1304 8.36154E-05-4.68412E-06-3.37277E-05-7.02112E-06-2.48816E-20-3.08278E-18
 -1      1305 8.49478E-05-8.14909E-06-3.29849E-05-8.00383E-06-2.04122E-19-2.45833E-18
 -1      1306 8.83037E-05-5.02274E-06-3.55472E-05 1.49149E-06 2.87832E-19-2.73171E-18
 -1      1307 8.72388E-05-5.02963E-06-3.50821E-05-1.36312E-06 2.28911E-19-2.88057E-18
 -1      1308 8.96221E-05-9.40681E-06-3.44286E-05-2.42311E-06 2.43893E-19-2.23794E-18
 -1      1309 8.92347E-05-4.83547E-06-3.60678E-05 7.07671E-06 5.71774E-19-2.29776E-18
 -1      1310 8.89044E-05-4.87621E-06-3.58614E-05 4.36621E-06 4.73650E-19-2.53670E-18
 -1      1311 9.18545E-05-9.52775E-06-3.53262E-05 3.28285E-06 6.08931E-19-1.97769E-18
 -1      1312 8.91567E-05-4.47989E-06-3.62279E-05 1.23241E-05 8.73572E-19-1.68104E-18
 -1      1313 8.92257E-05-4.54559E-06-3.61728E-05 9.75911E-06 7.68888E-19-2.04580E-18
 -1      1314 9.23583E-05-9.10417E-06-3.57298E-05 8.67095E-06 1.12711E-18-1.47286E-18
 -1      1315 8.89437E-05-4.23255E-06-3.62878E-05 1.71850E-05 1.14180E-18-5.24419E-19
 -1      1316 8.89879E-05-4.32278E-06-3.62271E-05 1.47458E-05 1.00543E-18-1.22274E-18
 -1      1317 9.20801E-05-8.69785E-06-3.58039E-05 1.36524E-05 1.51127E-18-7.88535E-19
 -1      1318 8.98913E-05-4.44012E-06-3.66545E-05 2.20422E-05 1.31354E-18 1.54867E-18
 -1      1319 8.92582E-05-4.57102E-06-3.63359E-05 1.94241E-05 1.14926E-18 3.06467E-19
 -1      1320 9.22158E-05-8.93322E-06-3.57901E-05 1.83090E-05 1.83800E-18 5.40672E-19
 -1      1321 9.51921E-05-6.63441E-06-3.79886E-05 2.79623E-05 1.11088E-18 5.26452E-18
 -1      1322 9.21132E-05-6.34068E-06-3.69465E-05 2.40914E-05 1.10030E-18 3.00887E-18
 -1      1323 9.48261E-05-1.11148E-05-3.59838E-05 2.27322E-05 1.95048E-18 2.78589E-18
 -1      1324 1.26857E-04-2.54142E-05-3.99681E-05 3.05629E-05 4.81115E-19 1.21244E-17
 -1      1325 1.01851E-04-1.43474E-05-3.81954E-05 2.65075E-05 5.07690E-19 7.41260E-18
 -1      1326 1.03335E-04-1.94237E-05-3.61243E-05 2.42226E-05 1.80299E-18 6.16386E-18
 -1      1327 1.03922E-04-2.80144E-05-3.53647E-05 8.58118E-06 9.51377E-19 1.18237E-17
 -1      1328 1.40094E-04-4.07575E-05-4.38799E-05-1.04304E-06-7.77788E-19 7.36686E-18
 -1      1329 1.39226E-04-4.01921E-05-4.29171E-05 1.26632E-06-7.25219E-19 6.39213E-18
 -1      1330 1.39748E-04-4.08034E-05-4.26814E-05 4.69898E-06-4.09752E-19 6.13453E-18
 -1      1331 1.44618E-04-4.28481E-05-4.36439E-05 5.32728E-06-3.77883E-19 5.45299E-18
 -1      1332 1.33561E-04-3.79729E-05-4.13452E-05 4.84151E-06-1.11311E-18 3.93602E-18
 -1      1333 1.47424E-04-4.40106E-05-4.42741E-05 6.56793E-06-1.11094E-19 5.50963E-18
 -1      1334 1.53464E-04-4.65176E-05-4.56250E-05 6.57438E-06-7.31360E-20 5.27394E-18
 -1      1335 1.36746E-04-4.04802E-05-4.14144E-05 1.09165E-05-4.52104E-19 3.86649E-18
 -1      1336 1.57283E-04-4.84634E-05-4.62629E-05 4.38037E-06 4.37360E-19 5.45653E-18
 -1      1337 1.59886E-04-5.01165E-05-4.65811E-05 3.13152E-06 3.59592E-19 5.88106E-18
 -1      1338 1.44029E-04-4.50253E-05-4.23275E-05 1.03257E-05 3.86194E-19 4.11364E-18
 -1      1339 1.62750E-04-5.20138E-05-4.67350E-05-3.95382E-06 6.49039E-19 6.42406E-18
 -1      1340 1.56105E-04-5.02251E-05-4.50201E-05-6.93567E-06 3.63033E-19 7.14133E-18
 -1      1341 1.52078E-04-5.08329E-05-4.30808E-05 1.57590E-08 9.93014E-19 4.61300E-18
 -1      1342 1.55756E-04-5.00785E-05-4.49328E-05-1.49418E-05 1.06203E-19 7.29719E-18
 -1      1343 1.41113E-04-4.38633E-05-4.22474E-05-1.69357E-05-4.29763E-19 7.10237E-18
 -1      1344 1.55936E-04-5.30050E-05-4.39323E-05-1.76755E-05 4.41860E-19 5.49288E-18
 -1      1345 1.13455E-04-2.88250E-05-3.89933E-05-7.56646E-06-1.77962E-18 4.32220E-18
 -1      1346 1.08229E-04-2.62962E-05-3.82233E-05-3.27800E-06-1.64197E-18 2.30454E-18
 -1      1347 1.09314E-04-2.72218E-05-3.82171E-05 8.80194E-06-1.60915E-18 1.73536E-19
 -1      1348 1.18933E-04-3.15971E-05-3.96592E-05 1.18802E-05-1.81498E-18-1.94246E-18
 -1      1349 1.34213E-04-3.08399E-05-4.61420E-05 4.63922E-06-3.63419E-18 8.62571E-19
 -1      1350 1.23644E-04-3.51281E-05-3.97507E-05 1.72659E-05-1.30507E-18-3.17383E-18
 -1      1351 1.39181E-04-4.19715E-05-4.23310E-05 1.72819E-05-9.50265E-19-4.55619E-18
 -1      1352 1.40404E-04-3.74770E-05-4.53510E-05 2.54355E-05-3.21534E-18-2.31645E-18
 -1      1353 1.44547E-04-4.50972E-05-4.28071E-05 1.35461E-05-3.73872E-19-5.48284E-18
 -1      1354 1.58505E-04-5.05846E-05-4.55914E-05 1.11441E-05 9.33986E-20-5.80239E-18
 -1      1355 1.50204E-04-4.72421E-05-4.43883E-05 2.72744E-05-1.44440E-18-4.51124E-18
 -1      1356 1.59093E-04-5.03234E-05-4.59666E-05 3.12409E-06 1.10167E-19-5.76724E-18
 -1      1357 1.62763E-04-5.10981E-05-4.70772E-05 8.87515E-07 1.75362E-19-5.41418E-18
 -1      1358 1.54951E-04-5.15183E-05-4.39473E-05 1.21743E-05-1.04622E-19-4.67906E-18
 -1      1359 1.59296E-04-4.93196E-05-4.66330E-05-4.55965E-06 5.27437E-19-4.72145E-18
 -1      1360 1.54551E-04-4.70678E-05-4.57290E-05-5.54970E-06 9.73664E-19-4.19117E-18
 -1      1361 1.50690E-04-4.85608E-05-4.33751E-05-4.08886E-06 7.87105E-19-3.91842E-18
 -1      1362 1.49321E-04-4.51877E-05-4.45065E-05-7.10161E-06 7.39026E-19-3.49083E-18
 -1      1363 1.41559E-04-4.22726E-05-4.25698E-05-7.14578E-06 5.06724E-19-2.33029E-18
 -1      1364 1.41204E-04-4.34262E-05-4.17885E-05-1.21655E-05 1.39093E-18-2.66323E-18
 -1      1365 1.36408E-04-4.07399E-05-4.10689E-05-6.58405E-06 5.29978E-19-2.11981E-18
 -1      1366 1.29110E-04-3.82952E-05-3.90393E-05-6.29815E-06 7.23909E-19-1.50306E-18
 -1      1367 1.30658E-04-3.89423E-05-3.93553E-05-1.31152E-05 8.33656E-19-1.85495E-18
 -1      1368 1.24775E-04-3.71051E-05-3.76660E-05-5.12274E-06-1.33077E-20-1.08473E-18
 -1      1369 1.19077E-04-3.53199E-05-3.60013E-05-4.80385E-06-5.13911E-19-1.54478E-18
 -1      1370 1.21330E-04-3.57704E-05-3.67617E-05-1.09627E-05 6.49324E-19-1.48951E-18
 -1      1371 1.15737E-04-3.44232E-05-3.49140E-05-3.67945E-06-1.13138E-19-1.55007E-18
 -1      1372 1.11655E-04-3.31954E-05-3.36940E-05-3.42028E-06 1.76275E-19-1.28627E-18
 -1      1373 1.13900E-04-3.35705E-05-3.45085E-05-8.19443E-06-3.27656E-19-7.44833E-19
 -1      1374 1.09210E-04-3.25377E-05-3.28951E-05-2.54136E-06-3.74316E-19-9.51192E-19
 -1      1375 1.06406E-04-3.17155E-05-3.20495E-05-2.35357E-06-1.63206E-19-1.22911E-18
 -1      1376 1.08339E-04-3.20426E-05-3.27570E-05-5.79292E-06 6.73788E-20-7.69979E-19
 -1      1377 1.04669E-04-3.12427E-05-3.14848E-05-1.72319E-06-3.31633E-19-1.84187E-18
 -1      1378 1.02781E-04-3.06978E-05-3.09139E-05-1.59383E-06-1.90410E-19-2.25562E-18
 -1      1379 1.04328E-04-3.09769E-05-3.14754E-05-3.98213E-06-3.78333E-19-1.16380E-18
 -1      1380 1.01566E-04-3.03627E-05-3.05223E-05-1.15972E-06 7.80137E-19-1.98864E-18
 -1      1381 1.00306E-04-3.00026E-05-3.01409E-05-1.07255E-06 5.11184E-19-1.12237E-18
 -1      1382 1.01496E-04-3.02324E-05-3.05673E-05-2.70178E-06 6.86983E-19-1.66433E-18
 -1      1383 9.94637E-05-2.97672E-05-2.98717E-05-7.79096E-07 3.34055E-19-8.65037E-19
 -1      1384 9.86233E-05-2.95290E-05-2.96175E-05-7.20793E-07 4.56629E-19-3.64776E-19
 -1      1385 9.95195E-05-2.97126E-05-2.99342E-05-1.82392E-06 9.37996E-19-1.69004E-18
 -1      1386 9.80418E-05-2.93643E-05-2.94330E-05-5.23745E-07-5.72955E-20-7.32096E-19
 -1      1387 9.74811E-05-2.92064E-05-2.92635E-05-4.84717E-07-7.03269E-20-6.87477E-19
 -1      1388 9.81479E-05-2.93500E-05-2.94962E-05-1.23012E-06 2.39667E-20-1.00033E-18
 -1      1389 9.70802E-05-2.90914E-05-2.91372E-05-3.52457E-07 1.92551E-19-8.85249E-19
 -1      1390 9.67050E-05-2.89867E-05-2.90238E-05-3.26088E-07 4.12121E-19-3.80185E-19
 -1      1391 9.71988E-05-2.90975E-05-2.91941E-05-8.30097E-07 1.05917E-19-2.55814E-20
 -1      1392 9.64171E-05-2.89036E-05-2.89335E-05-2.33669E-07-2.83966E-19-5.02168E-19
 -1      1393 9.61581E-05-2.88316E-05-2.88549E-05-2.14875E-07-7.32708E-19-1.01958E-18
 -1      1394 9.65303E-05-2.89172E-05-2.89819E-05-5.56123E-07-4.97814E-20-1.76610E-19
 -1      1395 9.59726E-05-2.87770E-05-2.87972E-05-1.55689E-07-5.45562E-19-1.52093E-18
 -1      1396 9.58098E-05-2.87321E-05-2.87478E-05-1.43941E-07-5.28605E-19-2.79165E-18
 -1      1397 9.60727E-05-2.87949E-05-2.88370E-05-3.69862E-07-1.34966E-18-1.14870E-18
 -1      1398 9.56828E-05-2.86948E-05-2.87084E-05-1.03595E-07-4.18446E-20-2.00597E-18
 -1      1399 9.55754E-05-2.86654E-05-2.86758E-05-9.54921E-08 1.23175E-18-1.48958E-18
 -1      1400 9.57680E-05-2.87122E-05-2.87407E-05-2.47594E-07 1.55628E-19 7.60146E-20
 -1      1401 9.54895E-05-2.86399E-05-2.86493E-05-6.79212E-08 6.89988E-19-1.77290E-18
 -1      1402 9.54198E-05-2.86211E-05-2.86280E-05-6.23548E-08 8.12957E-20-8.17294E-19
 -1      1403 9.55604E-05-2.86558E-05-2.86751E-05-1.64000E-07 1.08225E-18 1.03066E-19
 -1      1404 9.53625E-05-2.86040E-05-2.86104E-05-4.34991E-08 6.96878E-19-6.06416E-19
 -1      1405 9.53184E-05-2.85923E-05-2.85968E-05-3.96767E-08 9.41825E-19 8.89061E-19
 -1      1406 9.54204E-05-2.86178E-05-2.86309E-05-1.06673E-07 1.12832E-18 1.11668E-18
 -1      1407 9.52811E-05-2.85810E-05-2.85854E-05-2.68212E-08-7.36203E-19 1.20911E-18
 -1      1408 9.52543E-05-2.85742E-05-2.85771E-05-2.42091E-08-1.15332E-18 1.35385E-19
 -1      1409 9.53277E-05-2.85927E-05-2.86016E-05-6.73853E-08 1.63648E-19 8.08014E-19
 -1      1410 9.52308E-05-2.85670E-05-2.85699E-05-1.55166E-08 1.09999E-19-1.09137E-18
 -1      1411 9.52158E-05-2.85634E-05-2.85652E-05-1.37503E-08 7.10484E-19-9.70082E-20
 -1      1412 9.52680E-05-2.85767E-05-2.85826E-05-4.05941E-08-8.62790E-19 2.28640E-20
 -1      1413 9.52017E-05-2.85590E-05-2.85610E-05-7.96051E-09 8.71841E-20-7.26920E-19
 -1      1414 9.51945E-05-2.85575E-05-2.85586E-05-6.78783E-09-8.24297E-19-9.43694E-19
 -1      1415 9.52310E-05-2.85669E-05-2.85708E-05-2.25149E-08 2.20308E-20-9.22181E-19
 -1      1416 9.51868E-05-2.85551E-05-2.85563E-05-3.02464E-09-1.04802E-18-1.32473E-18
 -1      1417 9.51846E-05-2.85549E-05-2.85555E-05-2.26830E-09-1.29025E-18-3.76216E-18
 -1      1418 9.52096E-05-2.85613E-05-2.85638E-05-1.05311E-08-1.68736E-18-2.02839E-18
 -1      1419 9.51812E-05-2.85537E-05-2.85545E-05 8.46643E-11-9.38116E-19-4.92623E-18
 -1      1420 9.51820E-05-2.85544E-05-2.85546E-05 5.50587E-10-8.99716E-19-6.90536E-18
 -1      1421 9.51988E-05-2.85587E-05-2.85602E-05-2.80950E-09-1.96410E-18-3.64935E-18
 -1      1422 9.51814E-05-2.85540E-05-2.85545E-05 1.93086E-09 7.67954E-19-7.61950E-18
 -1      1423 9.51840E-05-2.85551E-05-2.85552E-05 2.19652E-09 1.59598E-18-5.87159E-18
 -1      1424 9.51947E-05-2.85579E-05-2.85588E-05 1.94743E-09-3.55634E-19-4.54966E-18
 -1      1425 9.51851E-05-2.85553E-05-2.85555E-05 2.91633E-09 1.26049E-18-5.19538E-18
 -1      1426 9.51886E-05-2.85566E-05-2.85565E-05 3.04650E-09 6.28237E-19-3.58046E-18
 -1      1427 9.51951E-05-2.85583E-05-2.85587E-05 4.66514E-09 1.67146E-18-2.91469E-18
 -1      1428 9.51906E-05-2.85571E-05-2.85572E-05 3.32880E-09 1.11574E-18-2.50678E-18
 -1      1429 9.51945E-05-2.85584E-05-2.85583E-05 3.36994E-09 1.51479E-18-1.15867E-18
 -1      1430 9.51980E-05-2.85593E-05-2.85594E-05 6.00587E-09 1.87616E-18-2.54861E-18
 -1      1431 9.51969E-05-2.85590E-05-2.85590E-05 3.37325E-09 1.01113E-18-6.03318E-19
 -1      1432 9.52007E-05-2.85603E-05-2.85601E-05 3.35844E-09 5.42656E-19 2.93165E-19
 -1      1433 9.52022E-05-2.85607E-05-2.85606E-05 6.44282E-09 1.71879E-18-9.89313E-19
 -1      1434 9.52032E-05-2.85610E-05-2.85609E-05 3.19433E-09 1.14766E-18 3.76611E-19
 -1      1435 9.52068E-05-2.85622E-05-2.85620E-05 3.14684E-09 1.56604E-18 2.50817E-18
 -1      1436 9.52070E-05-2.85622E-05-2.85620E-05 6.31199E-09 1.43167E-18 7.56341E-19
 -1      1437 9.52092E-05-2.85628E-05-2.85627E-05 2.89251E-09-4.76968E-19 2.14117E-18
 -1      1438 9.52125E-05-2.85638E-05-2.85637E-05 2.82839E-09 2.53186E-19 1.72859E-18
 -1      1439 9.52118E-05-2.85637E-05-2.85635E-05 5.84897E-09 2.31324E-19 1.51466E-18
 -1      1440 9.52147E-05-2.85645E-05-2.85644E-05 2.53588E-09 5.30993E-19 1.66390E-18
 -1      1441 9.52175E-05-2.85654E-05-2.85652E-05 2.46586E-09-4.31451E-19 1.33520E-18
 -1      1442 9.52164E-05-2.85651E-05-2.85648E-05 5.21569E-09-1.32320E-19 2.78126E-18
 -1      1443 9.52195E-05-2.85659E-05-2.85658E-05 2.16887E-09-9.17158E-20 1.00299E-18
 -1      1444 9.52218E-05-2.85666E-05-2.85665E-05 2.09977E-09-3.82973E-19 4.51591E-19
 -1      1445 9.52205E-05-2.85663E-05-2.85661E-05 4.52019E-09-8.38964E-19 5.50490E-19
 -1      1446 9.52236E-05-2.85671E-05-2.85670E-05 1.81865E-09-2.19444E-19 7.09206E-19
 -1      1447 9.52255E-05-2.85677E-05-2.85676E-05 1.75448E-09 8.53088E-19 1.32172E-18
 -1      1448 9.52242E-05-2.85674E-05-2.85672E-05 3.83109E-09 5.87644E-19 5.20729E-19
 -1      1449 9.52270E-05-2.85682E-05-2.85681E-05 1.49991E-09 4.05087E-19 1.79851E-18
 -1      1450 9.52286E-05-2.85687E-05-2.85685E-05 1.44260E-09 6.97108E-21 1.93504E-18
 -1      1451 9.52272E-05-2.85683E-05-2.85681E-05 3.18837E-09 1.09111E-18 1.38738E-18
 -1      1452 9.52298E-05-2.85690E-05-2.85689E-05 1.21817E-09 5.81105E-19 1.23151E-18
 -1      1453 9.52311E-05-2.85694E-05-2.85693E-05 1.16806E-09 4.07745E-19 1.96454E-18
 -1      1454 9.52298E-05-2.85691E-05-2.85689E-05 2.61109E-09 4.43453E-19 1.61562E-18
 -1      1455 9.52321E-05-2.85697E-05-2.85696E-05 9.71955E-10-5.90862E-19 1.26892E-18
 -1      1456 9.52331E-05-2.85700E-05-2.85699E-05 9.28126E-10 6.84721E-19 3.07181E-19
 -1      1457 9.52320E-05-2.85697E-05-2.85695E-05 2.10268E-09-5.06321E-19 2.43951E-18
 -1      1458 9.52339E-05-2.85702E-05-2.85702E-05 7.54144E-10-5.31748E-21 1.29898E-19
 -1      1459 9.52347E-05-2.85705E-05-2.85704E-05 7.14504E-10-1.80394E-20 1.48641E-18
 -1      1460 9.52337E-05-2.85702E-05-2.85701E-05 1.65434E-09-9.65219E-20 1.60182E-18
 -1      1461 9.52353E-05-2.85706E-05-2.85706E-05 5.52842E-10-7.49464E-19-6.09843E-19
 -1      1462 9.52359E-05-2.85708E-05-2.85707E-05 5.13942E-10-1.04570E-18-1.76069E-18
 -1      1463 9.52350E-05-2.85706E-05-2.85705E-05 1.24734E-09-1.24057E-18 2.07002E-18
 -1      1464 9.52363E-05-2.85709E-05-2.85709E-05 3.53467E-10 1.31688E-19-2.82952E-18
 -1      1465 9.52367E-05-2.85710E-05-2.85710E-05 3.11027E-10 4.88967E-19-2.26533E-18
 -1      1466 9.52360E-05-2.85709E-05-2.85708E-05 8.56119E-10-1.23962E-18-9.08492E-20
 -1      1467 9.52369E-05-2.85711E-05-2.85711E-05 1.50025E-10 5.56096E-19-1.47458E-18
 -1      1468 9.52371E-05-2.85712E-05-2.85711E-05 1.03511E-10 1.24393E-18 5.69448E-19
 -1      1469 9.52367E-05-2.85711E-05-2.85710E-05 4.62531E-10 1.31360E-18-8.86106E-19
 -1      1470 9.52371E-05-2.85712E-05-2.85711E-05 5.55349E-12 1.18579E-18 6.39443E-19
 -1      1471 9.52371E-05-2.85711E-05-2.85712E-05 2.56821E-12 3.94495E-19 9.54678E-19
 -1      1472 9.52371E-05-2.85711E-05-2.85711E-05 2.45322E-12-1.67632E-18-1.25253E-18
 -1      1473 9.52370E-05-2.85712E-05-2.85711E-05 1.54663E-10 2.16981E-18 2.82630E-20
 -1      1474 9.60186E-05-2.81951E-05-2.96364E-05 4.08568E-06 8.60400E-19 9.97974E-18
 -1      1475 1.03275E-04-2.96213E-05-3.24247E-05 5.60626E-06 7.67835E-19 1.12089E-17
 -1      1476 1.03242E-04-2.67833E-05-3.30552E-05 1.49939E-05 1.45123E-18 7.91076E-18
 -1      1477 8.91304E-05-2.65922E-05-2.68719E-05 2.41603E-06 6.11293E-19 8.40463E-18
 -1      1478 9.24150E-05-2.71672E-05-2.82012E-05 2.67630E-06 5.83632E-19 9.31908E-18
 -1      1479 9.56633E-05-2.78370E-05-2.92540E-05 7.11757E-06 1.24831E-18 6.67282E-18
 -1      1480 8.45617E-05-2.53365E-05-2.53522E-05 1.81809E-06 5.08769E-19 7.12666E-18
 -1      1481 8.67390E-05-2.58701E-05-2.60816E-05 1.90393E-06 4.16571E-19 7.81907E-18
 -1      1482 9.00644E-05-2.67880E-05-2.71535E-05 4.45912E-06 9.45606E-19 5.65291E-18
 -1      1483 8.10324E-05-2.42743E-05-2.43016E-05 1.52706E-06 4.42429E-19 6.22218E-18
 -1      1484 8.27832E-05-2.47805E-05-2.48174E-05 1.57141E-06 4.10887E-19 6.79008E-18
 -1      1485 8.60634E-05-2.57447E-05-2.58593E-05 3.40777E-06 7.60834E-19 4.88869E-18
 -1      1486 7.82569E-05-2.34027E-05-2.35107E-05 1.18325E-06 2.03477E-19 5.58702E-18
 -1      1487 7.96602E-05-2.38234E-05-2.39057E-05 1.25448E-06 2.16771E-19 6.00452E-18
 -1      1488 8.29811E-05-2.47927E-05-2.49520E-05 2.71958E-06 5.38316E-19 4.34371E-18
 -1      1489 7.64138E-05-2.28079E-05-2.29963E-05 6.65211E-07 2.64420E-19 4.91872E-18
 -1      1490 7.73278E-05-2.30702E-05-2.32472E-05 7.93066E-07 2.21281E-19 5.13638E-18
 -1      1491 8.07296E-05-2.40441E-05-2.43228E-05 1.87365E-06 4.53910E-19 3.67589E-18
 -1      1492 7.57949E-05-2.26004E-05-2.28303E-05-1.16829E-08 3.87312E-19 4.17087E-18
 -1      1493 7.60362E-05-2.26366E-05-2.28903E-05 1.67351E-07 3.11953E-19 4.59539E-18
 -1      1494 7.94558E-05-2.35990E-05-2.39819E-05 7.27297E-07 5.27450E-19 3.10774E-18
 -1      1495 7.65648E-05-2.28415E-05-2.30551E-05-7.32035E-07 3.16774E-19 3.09035E-18
 -1      1496 7.60363E-05-2.26226E-05-2.28992E-05-5.33755E-07 3.74025E-19 3.75755E-18
 -1      1497 7.93349E-05-2.35451E-05-2.39604E-05-6.13423E-07 6.34262E-19 2.24869E-18
 -1      1498 7.86305E-05-2.35012E-05-2.36456E-05-1.34329E-06 2.58888E-19 2.49456E-18
 -1      1499 7.73883E-05-2.30540E-05-2.32900E-05-1.16802E-06 1.98312E-19 2.91696E-18
 -1      1500 8.03949E-05-2.39027E-05-2.42583E-05-1.90204E-06 5.34087E-19 1.85257E-18
 -1      1501 8.16404E-05-2.44601E-05-2.45074E-05-1.72380E-06 2.29979E-19 2.11263E-18
 -1      1502 7.98876E-05-2.38607E-05-2.40081E-05-1.60549E-06 2.79779E-19 2.43022E-18
 -1      1503 8.24489E-05-2.46036E-05-2.48260E-05-2.87712E-06 4.50254E-19 1.63352E-18
 -1      1504 8.50919E-05-2.55496E-05-2.55037E-05-1.82752E-06 7.15017E-20 1.74126E-18
 -1      1505 8.31140E-05-2.48969E-05-2.49393E-05-1.77976E-06 2.26116E-20 1.81670E-18
 -1      1506 8.51335E-05-2.55107E-05-2.55712E-05-3.37279E-06 2.27435E-19 1.30474E-18
 -1      1507 8.84826E-05-2.66054E-05-2.64940E-05-1.68786E-06 2.58553E-19 1.34195E-18
 -1      1508 8.65613E-05-2.59912E-05-2.59429E-05-1.70319E-06 1.75630E-19 1.75900E-18
 -1      1509 8.80169E-05-2.64652E-05-2.63819E-05-3.36937E-06 2.22467E-19 8.73298E-19
 -1      1510 9.14316E-05-2.75082E-05-2.73674E-05-1.38835E-06 4.16634E-20 1.45696E-18
 -1      1511 8.97768E-05-2.69957E-05-2.68894E-05-1.44626E-06 2.47178E-20 1.45899E-18
 -1      1512 9.07153E-05-2.73331E-05-2.71549E-05-2.97267E-06 2.69131E-20 8.55507E-19
 -1      1513 9.37318E-05-2.81985E-05-2.80596E-05-1.02340E-06 3.09804E-19 1.29190E-18
 -1      1514 9.24540E-05-2.78161E-05-2.76873E-05-1.10057E-06 2.15348E-19 1.55621E-18
 -1      1515 9.29692E-05-2.80321E-05-2.78152E-05-2.35008E-06 2.11983E-19 6.94868E-19
 -1      1516 9.53389E-05-2.86692E-05-2.85521E-05-6.69314E-07 1.07656E-19 6.93631E-19
 -1      1517 9.44567E-05-2.84158E-05-2.82924E-05-7.46852E-07 3.24824E-19 1.32239E-18
 -1      1518 9.46623E-05-2.85342E-05-2.83241E-05-1.66532E-06 4.17217E-19 1.04602E-18
 -1      1519 9.63226E-05-2.89478E-05-2.88607E-05-3.72431E-07-2.93351E-19 7.97743E-19
 -1      1520 9.57913E-05-2.88040E-05-2.87022E-05-4.38714E-07-9.39661E-20 7.39112E-19
 -1      1521 9.57971E-05-2.88516E-05-2.86760E-05-1.03820E-06-8.70856E-21 9.67634E-19
 -1      1522 9.68116E-05-2.90779E-05-2.90203E-05-1.50876E-07 1.44337E-19 7.94675E-19
 -1      1523 9.65552E-05-2.90166E-05-2.89420E-05-2.01075E-07 8.29530E-20 6.22922E-19
 -1      1524 9.64518E-05-2.90184E-05-2.88882E-05-5.33613E-07 8.98632E-20 7.26488E-19
 -1      1525 9.69487E-05-2.91049E-05-2.90718E-05-2.95886E-09-4.61165E-19 8.49881E-19
 -1      1526 9.68849E-05-2.90990E-05-2.90505E-05-3.69916E-08-1.89926E-19 7.35857E-19
 -1      1527 9.67383E-05-2.90760E-05-2.89898E-05-1.70153E-07-1.45809E-19 8.07172E-19
 -1      1528 9.68624E-05-2.90685E-05-2.90534E-05 8.36144E-08-5.17658E-20 7.84147E-19
 -1      1529 9.69186E-05-2.90953E-05-2.90680E-05 6.32629E-08-1.77356E-19 8.76428E-19
 -1      1530 9.67707E-05-2.90624E-05-2.90126E-05 6.35354E-08-4.99947E-19 4.90943E-19
 -1      1531 9.66545E-05-2.89991E-05-2.89957E-05 1.24646E-07 4.54428E-20 1.29718E-18
 -1      1532 9.67740E-05-2.90417E-05-2.90296E-05 1.14586E-07-1.68806E-19 1.25114E-18
 -1      1533 9.66475E-05-2.90084E-05-2.89854E-05 1.93233E-07-2.77620E-19 8.55958E-19
 -1      1534 9.63976E-05-2.89178E-05-2.89213E-05 1.35146E-07 2.60462E-19 8.30891E-19
 -1      1535 9.65407E-05-2.89648E-05-2.89627E-05 1.32087E-07 2.00028E-20 9.53771E-19
 -1      1536 9.64447E-05-2.89363E-05-2.89310E-05 2.48061E-07 1.28102E-19 9.62832E-19
 -1      1537 9.61382E-05-2.88378E-05-2.88447E-05 1.27340E-07 7.84733E-19-3.12088E-19
 -1      1538 9.62800E-05-2.88824E-05-2.88861E-05 1.28567E-07 6.50821E-19 1.12400E-18
 -1      1539 9.62149E-05-2.88609E-05-2.88660E-05 2.54196E-07 5.71812E-19 9.14792E-19
 -1      1540 9.59032E-05-2.87666E-05-2.87744E-05 1.10177E-07-8.31379E-21-9.60750E-19
 -1      1541 9.60298E-05-2.88052E-05-2.88116E-05 1.13677E-07 3.10777E-19-5.60680E-19
 -1      1542 9.59917E-05-2.87907E-05-2.88011E-05 2.32251E-07 8.27612E-19 8.58291E-19
 -1      1543 9.57049E-05-2.87071E-05-2.87147E-05 8.96330E-08-2.05104E-20-5.69184E-19
 -1      1544 9.58103E-05-2.87385E-05-2.87458E-05 9.40419E-08-3.94507E-19-1.26107E-18
 -1      1545 9.57933E-05-2.87302E-05-2.87423E-05 1.96930E-07 1.41775E-20-6.76223E-19
 -1      1546 9.55463E-05-2.86600E-05-2.86666E-05 6.93371E-08 3.54199E-19-5.45137E-19
 -1      1547 9.56294E-05-2.86843E-05-2.86912E-05 7.38096E-08 4.59992E-19-6.61129E-19
 -1      1548 9.56277E-05-2.86808E-05-2.86926E-05 1.57821E-07 3.68029E-19-7.24483E-19
 -1      1549 9.54254E-05-2.86244E-05-2.86298E-05 5.12272E-08 2.67615E-19-1.23305E-18
 -1      1550 9.54878E-05-2.86423E-05-2.86484E-05 5.52963E-08 2.26912E-19-6.25862E-19
 -1      1551 9.54961E-05-2.86423E-05-2.86526E-05 1.20570E-07 3.36955E-19-3.08916E-19
 -1      1552 9.53372E-05-2.85986E-05-2.86028E-05 3.61197E-08-7.98550E-20-1.87489E-18
 -1      1553 9.53820E-05-2.86111E-05-2.86161E-05 3.95733E-08-3.28466E-20-1.65482E-18
 -1      1554 9.53960E-05-2.86134E-05-2.86220E-05 8.80518E-08 3.39312E-19-7.93260E-19
 -1      1555 9.52757E-05-2.85808E-05-2.85839E-05 2.41451E-08-5.90352E-20-1.45570E-18
 -1      1556 9.53062E-05-2.85891E-05-2.85930E-05 2.69301E-08-6.10811E-19-2.17585E-18
 -1      1557 9.53229E-05-2.85927E-05-2.85994E-05 6.13344E-08-6.14585E-19-1.80592E-18
 -1      1558 9.52352E-05-2.85692E-05-2.85714E-05 1.50567E-08 3.50760E-19-1.27778E-18
 -1      1559 9.52548E-05-2.85743E-05-2.85772E-05 1.72102E-08 2.70422E-19-7.40108E-19
 -1      1560 9.52720E-05-2.85785E-05-2.85835E-05 4.04061E-08-4.13469E-20-1.77011E-18
 -1      1561 9.52105E-05-2.85622E-05-2.85636E-05 8.43362E-09-3.20632E-19-1.10386E-18
 -1      1562 9.52219E-05-2.85650E-05-2.85671E-05 1.00371E-08-1.87764E-19-1.19558E-18
 -1      1563 9.52382E-05-2.85693E-05-2.85729E-05 2.46826E-08 1.64613E-19-6.53963E-19
 -1      1564 9.51970E-05-2.85585E-05-2.85594E-05 3.80671E-09-1.63441E-19-2.17519E-18
 -1      1565 9.52027E-05-2.85597E-05-2.85612E-05 4.95683E-09 4.50394E-19-1.58985E-18
 -1      1566 9.52174E-05-2.85637E-05-2.85662E-05 1.33355E-08 5.29444E-19-8.44008E-19
 -1      1567 9.51915E-05-2.85571E-05-2.85576E-05 7.28369E-10 1.18797E-21-1.52693E-18
 -1      1568 9.51932E-05-2.85572E-05-2.85582E-05 1.52055E-09-4.75476E-19-2.23192E-18
 -1      1569 9.52060E-05-2.85608E-05-2.85625E-05 5.49131E-09-1.98982E-19-1.22386E-18
 -1      1570 9.51911E-05-2.85571E-05-2.85574E-05-1.19300E-09-9.25855E-20-1.67531E-18
 -1      1571 9.51903E-05-2.85566E-05-2.85572E-05-6.73361E-10-2.41325E-19-2.00023E-18
 -1      1572 9.52010E-05-2.85597E-05-2.85607E-05 3.39109E-10-4.66165E-20-1.01308E-18
 -1      1573 9.51938E-05-2.85581E-05-2.85581E-05-2.28096E-09-4.66855E-19-1.40596E-18
 -1      1574 9.51916E-05-2.85572E-05-2.85575E-05-1.96194E-09 2.58688E-19-8.92496E-19
 -1      1575 9.52003E-05-2.85598E-05-2.85603E-05-2.81875E-09-1.78830E-19-1.62704E-18
 -1      1576 9.51983E-05-2.85595E-05-2.85594E-05-2.79151E-09 8.24920E-19-1.66759E-18
 -1      1577 9.51954E-05-2.85585E-05-2.85586E-05-2.61516E-09 1.95472E-19-1.16395E-18
 -1      1578 9.52023E-05-2.85606E-05-2.85608E-05-4.55209E-09 4.81265E-19-4.06848E-19
 -1      1579 9.52036E-05-2.85611E-05-2.85610E-05-2.92004E-09-4.75668E-19-1.49023E-18
 -1      1580 9.52004E-05-2.85601E-05-2.85601E-05-2.84133E-09 1.45186E-20-1.38158E-18
 -1      1581 9.52058E-05-2.85618E-05-2.85618E-05-5.30780E-09 5.31522E-19 1.78718E-19
 -1      1582 9.52090E-05-2.85628E-05-2.85626E-05-2.81083E-09-1.10083E-18-3.92229E-19
 -1      1583 9.52058E-05-2.85617E-05-2.85617E-05-2.79586E-09-3.73629E-19-1.02493E-18
 -1      1584 9.52100E-05-2.85631E-05-2.85630E-05-5.42436E-09-9.67650E-19 1.86823E-18
 -1      1585 9.52141E-05-2.85643E-05-2.85642E-05-2.56696E-09 4.92306E-19 6.14130E-19
 -1      1586 9.52112E-05-2.85634E-05-2.85633E-05-2.59096E-09-5.39697E-19-3.27624E-19
 -1      1587 9.52143E-05-2.85644E-05-2.85642E-05-5.14994E-09-1.17933E-18 2.76029E-20
 -1      1588 9.52188E-05-2.85657E-05-2.85656E-05-2.25937E-09-3.84857E-19 2.88496E-19
 -1      1589 9.52162E-05-2.85649E-05-2.85648E-05-2.30481E-09 2.00282E-19 1.90324E-19
 -1      1590 9.52184E-05-2.85657E-05-2.85655E-05-4.66041E-09 6.93346E-20 1.34051E-19
 -1      1591 9.52229E-05-2.85669E-05-2.85668E-05-1.93461E-09-4.32074E-19 1.17123E-18
 -1      1592 9.52206E-05-2.85662E-05-2.85661E-05-1.98959E-09-2.12299E-19 7.11369E-19
 -1      1593 9.52222E-05-2.85668E-05-2.85666E-05-4.07558E-09 2.40995E-20 8.95966E-19
 -1      1594 9.52263E-05-2.85680E-05-2.85679E-05-1.62112E-09-2.17219E-19 1.30332E-18
 -1      1595 9.52244E-05-2.85674E-05-2.85673E-05-1.67798E-09-5.04092E-19 4.36930E-19
 -1      1596 9.52255E-05-2.85678E-05-2.85676E-05-3.47292E-09-3.36695E-19 4.54219E-19
 -1      1597 9.52292E-05-2.85688E-05-2.85687E-05-1.33403E-09 4.86186E-19 7.05279E-19
 -1      1598 9.52277E-05-2.85684E-05-2.85683E-05-1.38833E-09 1.90006E-19 1.58783E-18
 -1      1599 9.52283E-05-2.85686E-05-2.85684E-05-2.89837E-09 8.21738E-20-4.17196E-19
 -1      1600 9.52316E-05-2.85695E-05-2.85695E-05-1.07868E-09 8.60391E-19-1.54909E-18
 -1      1601 9.52303E-05-2.85692E-05-2.85691E-05-1.12843E-09 1.92404E-18 1.12448E-18
 -1      1602 9.52307E-05-2.85693E-05-2.85692E-05-2.37468E-09 2.32803E-18 6.35876E-19
 -1      1603 9.52335E-05-2.85701E-05-2.85700E-05-8.52807E-10 2.49648E-19-3.26918E-18
 -1      1604 9.52325E-05-2.85698E-05-2.85697E-05-8.98062E-10 1.75901E-20-2.95434E-18
 -1      1605 9.52327E-05-2.85699E-05-2.85698E-05-1.90724E-09 1.16642E-18-6.06899E-19
 -1      1606 9.52350E-05-2.85705E-05-2.85705E-05-6.47714E-10 4.52044E-19-4.68427E-18
 -1      1607 9.52342E-05-2.85703E-05-2.85702E-05-6.90564E-10 6.08586E-19-3.41041E-18
 -1      1608 9.52342E-05-2.85703E-05-2.85702E-05-1.48784E-09 6.19926E-19-2.03135E-18
 -1      1609 9.52361E-05-2.85709E-05-2.85708E-05-4.49906E-10-3.70902E-19-4.54453E-18
 -1      1610 9.52355E-05-2.85707E-05-2.85706E-05-4.94106E-10-3.76493E-20-4.69664E-18
 -1      1611 9.52354E-05-2.85707E-05-2.85706E-05-1.09724E-09 3.87943E-19-2.30888E-18
 -1      1612 9.52368E-05-2.85711E-05-2.85710E-05-2.43548E-10-2.08261E-19-3.82994E-18
 -1      1613 9.52365E-05-2.85710E-05-2.85709E-05-2.95243E-10-4.15145E-19-5.00556E-18
 -1      1614 9.52363E-05-2.85710E-05-2.85708E-05-7.11172E-10-5.05449E-19-2.96667E-18
 -1      1615 9.52371E-05-2.85712E-05-2.85711E-05-4.25778E-11 4.15472E-19-5.29149E-18
 -1      1616 9.52370E-05-2.85712E-05-2.85711E-05-9.57506E-11 1.08304E-18-4.03113E-18
 -1      1617 9.52369E-05-2.85711E-05-2.85710E-05-3.19757E-10 1.24812E-18-3.88829E-18
 -1      1618 9.52372E-05-2.85711E-05-2.85712E-05 2.61426E-11-2.86774E-18-3.26212E-18
 -1      1619 9.52372E-05-2.85714E-05-2.85710E-05-1.91239E-10-5.44129E-18-3.30685E-19
 -1      1620 9.52371E-05-2.85713E-05-2.85711E-05-1.40418E-10-4.40614E-18-3.10776E-20
 -1      1621 9.52373E-05-2.85720E-05-2.85709E-05-3.97408E-10-5.63465E-18 1.80513E-19
 -1      1622 9.52372E-05-2.85716E-05-2.85710E-05-3.54368E-10-5.38232E-18-7.52752E-19
 -1      1623 9.52372E-05-2.85716E-05-2.85709E-05-5.49100E-10-3.68520E-18-4.91804E-19
 -1      1624 9.52376E-05-2.85728E-05-2.85706E-05-5.24015E-10-5.62018E-18 8.38116E-19
 -1      1625 9.52375E-05-2.85723E-05-2.85708E-05-5.05457E-10-5.65270E-18 7.44620E-19
 -1      1626 9.52374E-05-2.85723E-05-2.85708E-05-8.81464E-10-3.06299E-18 6.99022E-20
 -1      1627 9.52379E-05-2.85737E-05-2.85704E-05-5.56653E-10-3.25663E-18 1.60160E-18
 -1      1628 9.52377E-05-2.85732E-05-2.85705E-05-5.57973E-10-5.87118E-18 2.68869E-18
 -1      1629 9.52377E-05-2.85730E-05-2.85706E-05-1.04931E-09-3.40340E-18 1.79249E-18
 -1      1630 9.52382E-05-2.85745E-05-2.85701E-05-5.00374E-10-2.97709E-18-4.03470E-19
 -1      1631 9.52380E-05-2.85741E-05-2.85703E-05-5.18047E-10-2.79356E-18-3.16075E-20
 -1      1632 9.52380E-05-2.85738E-05-2.85704E-05-1.04041E-09-3.71459E-18 1.93213E-18
 -1      1633 9.52384E-05-2.85752E-05-2.85699E-05-3.69053E-10-3.25092E-18-8.72389E-19
 -1      1634 9.52383E-05-2.85748E-05-2.85701E-05-4.00032E-10-1.86933E-18-1.30585E-18
 -1      1635 9.52382E-05-2.85745E-05-2.85702E-05-8.71335E-10-2.50912E-18-4.89962E-19
 -1      1636 9.52385E-05-2.85756E-05-2.85698E-05-1.85807E-10-3.88621E-18-8.34794E-19
 -1      1637 9.52385E-05-2.85754E-05-2.85699E-05-2.24820E-10-3.42538E-18-8.96315E-19
 -1      1638 9.52384E-05-2.85750E-05-2.85700E-05-5.74688E-10-2.00234E-18-6.70973E-19
 -1      1639 9.52386E-05-2.85757E-05-2.85698E-05 2.27916E-11-2.91884E-18-2.11214E-19
 -1      1640 9.52386E-05-2.85757E-05-2.85698E-05-1.89463E-11-3.65521E-18 4.06374E-19
 -1      1641 9.52385E-05-2.85753E-05-2.85700E-05-1.98177E-10-1.55708E-18-1.99429E-19
 -1      1642 9.52385E-05-2.85754E-05-2.85699E-05 2.28468E-10-2.18488E-18 6.41562E-19
 -1      1643 9.52385E-05-2.85756E-05-2.85698E-05 1.89530E-10-3.29504E-18 2.63961E-19
 -1      1644 9.52385E-05-2.85753E-05-2.85700E-05 2.05415E-10-1.20530E-18-6.42283E-19
 -1      1645 9.52383E-05-2.85748E-05-2.85701E-05 4.03083E-10-6.19806E-18-3.12448E-18
 -1      1646 9.52384E-05-2.85752E-05-2.85700E-05 3.72359E-10-2.67510E-18-2.05825E-18
 -1      1647 9.52384E-05-2.85750E-05-2.85700E-05 5.81361E-10-1.45323E-18-1.24002E-18
 -1      1648 9.52380E-05-2.85740E-05-2.85703E-05 5.19183E-10-7.00203E-18 1.10857E-18
 -1      1649 9.52382E-05-2.85745E-05-2.85701E-05 5.01741E-10-6.14190E-18-1.90588E-18
 -1      1650 9.52382E-05-2.85745E-05-2.85702E-05 8.75063E-10-2.06210E-18-2.99098E-18
 -1      1651 9.52377E-05-2.85732E-05-2.85705E-05 5.58690E-10-5.38709E-18 8.59519E-19
 -1      1652 9.52379E-05-2.85737E-05-2.85704E-05 5.57782E-10-7.10413E-18 2.19948E-18
 -1      1653 9.52379E-05-2.85738E-05-2.85704E-05 1.04267E-09-3.27951E-18 2.07848E-18
 -1      1654 9.52375E-05-2.85723E-05-2.85708E-05 5.03739E-10-2.57800E-18 1.41040E-18
 -1      1655 9.52376E-05-2.85728E-05-2.85706E-05 5.23025E-10-4.91367E-18 1.24513E-18
 -1      1656 9.52377E-05-2.85730E-05-2.85706E-05 1.04913E-09-2.01005E-18 1.83667E-18
 -1      1657 9.52372E-05-2.85716E-05-2.85710E-05 3.50659E-10-1.47789E-18 1.06628E-18
 -1      1658 9.52373E-05-2.85720E-05-2.85709E-05 3.92372E-10-2.54768E-18 1.42798E-18
 -1      1659 9.52374E-05-2.85722E-05-2.85708E-05 8.74458E-10-1.88817E-18 1.83138E-18
 -1      1660 9.52371E-05-2.85713E-05-2.85711E-05 1.44741E-10-1.04248E-18-6.91370E-19
 -1      1661 9.52372E-05-2.85714E-05-2.85710E-05 1.93777E-10-2.95798E-19-4.25392E-19
 -1      1662 9.52372E-05-2.85717E-05-2.85709E-05 5.49473E-10-6.23762E-19 1.17912E-18
 -1      1663 9.52371E-05-2.85713E-05-2.85710E-05 2.11697E-10 5.70888E-19-1.18550E-18
 -1      1664 2.06203E-05-6.35527E-05 1.33021E-05 1.00144E-06 5.91737E-18 4.86472E-18
 -1      1665 2.41491E-05-7.66551E-05 1.64199E-05 7.93393E-06 7.79694E-19 3.26489E-18
 -1      1666 2.09643E-05-3.64277E-05 2.83521E-06 8.37472E-06 1.27521E-17 8.22067E-18
 -1      1667 2.53711E-05-6.00935E-05 9.25000E-06 4.52919E-06 7.89519E-18 5.73756E-18
 -1      1668 3.43701E-05-6.54396E-06-1.36336E-05 3.33407E-05 1.54567E-17 1.13435E-17
 -1      1669 2.87336E-05-2.86951E-05-4.42837E-06 1.46267E-05 1.40921E-17 8.41104E-18
 -1      1670 8.01451E-05 3.84946E-07-3.34342E-05 6.65159E-05 1.28681E-17 1.23091E-17
 -1      1671 5.52173E-05-5.69424E-06-2.31520E-05 4.32003E-05 1.45673E-17 1.12867E-17
 -1      1672 1.41136E-04-1.02325E-05-5.24093E-05 8.70426E-05 9.74257E-18 1.22015E-17
 -1      1673 1.00254E-04 1.75098E-06-4.30115E-05 7.32776E-05 1.26013E-17 1.31892E-17
 -1      1674 2.08953E-04-3.84752E-05-6.75627E-05 7.85272E-05 5.67427E-18 9.55707E-18
 -1      1675 1.66210E-04-1.76113E-05-6.03903E-05 8.50072E-05 8.30431E-18 1.16365E-17
 -1      1676 2.56795E-04-6.22285E-05-7.70046E-05 4.12117E-05 3.35637E-18 4.06322E-18
 -1      1677 2.28379E-04-4.58284E-05-7.29720E-05 6.73791E-05 4.78579E-18 7.84607E-18
 -1      1678 2.64877E-04-6.59015E-05-7.92773E-05-1.03150E-05 2.94789E-18-2.44210E-18
 -1      1679 2.62452E-04-6.41436E-05-7.88829E-05 2.42051E-05 3.11009E-18 1.85606E-18
 -1      1680 2.33741E-04-4.92206E-05-7.42068E-05-5.56171E-05 4.33173E-18-7.90282E-18
 -1      1681 2.57892E-04-6.28871E-05-7.76413E-05-2.64697E-05 3.02264E-18-4.45031E-18
 -1      1682 1.79313E-04-2.31243E-05-6.35613E-05-8.25588E-05 7.21312E-18-1.15290E-17
 -1      1683 2.19390E-04-4.39802E-05-6.98925E-05-7.10858E-05 5.00829E-18-9.77222E-18
 -1      1684 1.15626E-04-5.43863E-07-4.81541E-05-7.88718E-05 1.00500E-17-1.24040E-17
 -1      1685 1.56087E-04-1.56353E-05-5.65025E-05-8.70097E-05 8.21325E-18-1.22193E-17
 -1      1686 6.25036E-05 4.86074E-06-3.00430E-05-5.46664E-05 1.19296E-17-1.08276E-17
 -1      1687 9.16058E-05 4.47390E-06-3.95728E-05-7.53243E-05 1.08293E-17-1.22430E-17
 -1      1688 3.53873E-05-1.52163E-05-1.16858E-05-2.68172E-05 1.03575E-17-7.43017E-18
 -1      1689 4.66704E-05 1.18202E-06-2.10773E-05-4.67010E-05 1.13706E-17-9.71886E-18
 -1      1690 2.62217E-05-4.52229E-05 3.83668E-06-1.33043E-05 5.73780E-18-4.27318E-18
 -1      1691 2.53156E-05-2.16209E-05-3.96171E-06-2.26059E-05 8.58214E-18-6.52067E-18
 -1      1692 2.32076E-05-7.12579E-05 1.41725E-05-6.12986E-06 1.96978E-18-2.28826E-18
 -1      1693 1.80418E-05-5.42458E-05 1.04403E-05-7.18460E-07 5.53028E-18-3.28628E-18
 -1      1694 2.11164E-05-7.50440E-05 1.64278E-05-1.41441E-05-3.65632E-18-2.75116E-18
 -1      1695 2.22505E-05-7.48058E-05 1.60909E-05-3.38070E-06 3.38601E-19-2.24210E-18
 -1      1696 1.87635E-05-5.44257E-05 9.65913E-06-9.45583E-06-8.11458E-18-5.49370E-18
 -1      1697 2.29049E-05-6.90438E-05 1.35941E-05-7.03065E-06-4.65783E-18-3.75680E-18
 -1      1698 2.41464E-05-3.06392E-05-2.31516E-06 3.76737E-06-1.20787E-17-9.35887E-18
 -1      1699 2.51876E-05-5.28713E-05 5.07416E-06-6.29618E-06-9.90859E-18-6.46456E-18
 -1      1700 6.19589E-05-1.64335E-05-2.18479E-05 3.74833E-05-1.21778E-17-1.24234E-17
 -1      1701 4.42264E-05-3.07877E-05-1.12304E-05 1.40087E-05-1.16704E-17-1.01203E-17
 -1      1702 1.28827E-04-1.94782E-05-4.52519E-05 6.95728E-05-1.04566E-17-1.39134E-17
 -1      1703 8.38570E-05-1.44553E-05-3.27042E-05 4.48344E-05-1.24311E-17-1.30782E-17
 -1      1704 2.24066E-04-5.17450E-05-6.75462E-05 6.66827E-05-6.14946E-18-1.18703E-17
 -1      1705 1.63710E-04-2.84538E-05-5.62649E-05 6.46605E-05-8.69903E-18-1.28732E-17
 -1      1706 2.90850E-04-7.59835E-05-8.19692E-05 3.38032E-05-3.99101E-18-7.03291E-18
 -1      1707 2.48967E-04-5.55119E-05-7.57794E-05 6.06569E-05-5.72499E-18-1.10402E-17
 -1      1708 2.99175E-04-7.73362E-05-8.47661E-05-1.89286E-05-3.30809E-18 2.18746E-19
 -1      1709 2.97698E-04-7.67848E-05-8.45915E-05 2.02809E-05-3.76803E-18-5.01613E-18
 -1      1710 2.56597E-04-5.85336E-05-7.72217E-05-6.11747E-05-5.54552E-18 8.42713E-18
 -1      1711 2.95784E-04-7.77399E-05-8.28548E-05-3.32668E-05-3.67506E-18 2.89008E-18
 -1      1712 1.78124E-04-3.00273E-05-6.03606E-05-7.31849E-05-9.52065E-18 1.32137E-17
 -1      1713 2.33858E-04-5.28820E-05-7.01057E-05-7.18895E-05-6.50733E-18 1.00407E-17
 -1      1714 1.00852E-04-1.44079E-05-3.86136E-05-5.43357E-05-1.26530E-17 1.44605E-17
 -1      1715 1.47242E-04-2.33692E-05-5.02654E-05-7.44640E-05-1.03440E-17 1.47519E-17
 -1      1716 5.18745E-05-2.34900E-05-1.68058E-05-2.29102E-05-1.31138E-17 1.15298E-17
 -1      1717 7.52638E-05-1.31482E-05-2.78585E-05-4.77738E-05-1.29537E-17 1.33043E-17
 -1      1718 3.00096E-05-4.95318E-05 2.01990E-06 1.03639E-06-1.24006E-17 7.50577E-18
 -1      1719 3.37173E-05-2.64125E-05-7.16633E-06-1.49789E-05-1.30036E-17 1.00289E-17
 -1      1720 2.49444E-05-7.56220E-05 1.44995E-05 9.99723E-06-7.92103E-18 4.97537E-18
 -1      1721 1.86592E-05-5.48323E-05 9.38014E-06 1.11737E-05-1.21185E-17 7.57576E-18
 -1      1722 2.37325E-05-7.97717E-05 1.77182E-05 3.04955E-06-1.28325E-18 2.77446E-18
 -1      1723 2.16912E-05-7.60870E-05 1.68627E-05 1.28998E-05-5.96819E-18 4.14834E-18
 -1      1724 1.17742E-04-3.19394E-05-3.90721E-05-1.58910E-05-1.31311E-18 5.55781E-18
 -1      1725 1.37992E-04-3.47564E-05-4.57599E-05-2.05935E-05-2.79182E-18 3.97914E-18
 -1      1726 1.33392E-04-3.89786E-05-4.16564E-05-1.71453E-05-1.06779E-18 6.74916E-18
 -1      1727 7.55636E-05-3.19544E-05-1.95349E-05 4.65885E-05 8.61263E-18 7.26034E-18
 -1      1728 1.07542E-05-4.90810E-05 1.21885E-05 9.84757E-06 4.77515E-20 6.14946E-18
 -1      1729 9.52371E-05-2.85712E-05-2.85711E-05-3.13807E-11-3.05168E-18-1.28427E-18
 -1      1730 9.52371E-05-2.85713E-05-2.85710E-05-2.31472E-10-7.96461E-19-1.64168E-18
 -1      1731 2.02313E-05-4.60644E-05 7.24591E-06 2.26962E-05 3.62149E-18 7.87508E-18
 -1      1732 4.06662E-05-3.94248E-05-3.44061E-06 3.41136E-05 7.00581E-18 7.82553E-18
 -1      1733 1.18030E-04-2.84473E-05-3.74428E-05 5.26576E-05 8.20733E-18 7.07611E-18
 -1      1734 1.61192E-04-2.72265E-05-5.42451E-05 5.31926E-05 7.37999E-18 6.56705E-18
 -1      1735 1.99503E-04-3.20091E-05-6.70253E-05 3.98130E-05 6.06370E-18 4.45497E-18
 -1      1736 2.20408E-04-3.51438E-05-7.39674E-05 1.73378E-05 5.46294E-18 1.36859E-18
 -1      1737 2.18348E-04-3.33274E-05-7.41656E-05-7.84269E-06 5.15292E-18-1.62207E-18
 -1      1738 2.02382E-04-3.16068E-05-6.85987E-05-3.22802E-05 5.24779E-18-4.64343E-18
 -1      1739 1.70125E-04-2.74727E-05-5.77831E-05-5.04424E-05 6.19732E-18-6.95160E-18
 -1      1740 1.26257E-04-2.26655E-05-4.28787E-05-5.58027E-05 6.91899E-18-7.54452E-18
 -1      1741 8.44464E-05-2.49491E-05-2.60906E-05-5.01912E-05 6.51877E-18-7.05113E-18
 -1      1742 5.18834E-05-3.23864E-05-1.02758E-05-4.30939E-05 3.72102E-18-5.97010E-18
 -1      1743 2.37367E-05-3.65341E-05 2.77988E-06-3.06421E-05 2.28064E-18-5.09152E-18
 -1      1744 1.11455E-05-4.76604E-05 1.10462E-05-1.32375E-05 2.22558E-19-4.51553E-18
 -1      1745 1.21817E-05-4.56820E-05 1.00802E-05 1.20039E-06-2.45640E-18-5.32953E-18
 -1      1746 2.78699E-05-4.54096E-05 3.14659E-06 1.45191E-05-4.49097E-18-6.39933E-18
 -1      1747 6.20025E-05-4.69530E-05-9.86732E-06 2.76093E-05-6.29345E-18-7.60339E-18
 -1      1748 1.10807E-04-4.81889E-05-2.83394E-05 3.54064E-05-6.86605E-18-7.85708E-18
 -1      1749 1.69787E-04-5.00393E-05-4.92803E-05 3.24820E-05-6.47472E-18-7.17522E-18
 -1      1750 2.19624E-04-4.99399E-05-6.70964E-05 1.72012E-05-5.57856E-18-5.27702E-18
 -1      1751 2.42102E-04-4.34516E-05-7.70856E-05 5.40992E-06-6.23967E-18-2.94471E-18
 -1      1752 2.47232E-04-4.43488E-05-7.79912E-05-5.07626E-06-6.49590E-18 2.13452E-19
 -1      1753 2.25974E-04-4.85122E-05-6.95676E-05-1.94558E-05-6.74492E-18 3.75405E-18
 -1      1754 1.80368E-04-4.86446E-05-5.32991E-05-3.54621E-05-7.86343E-18 6.95160E-18
 -1      1755 1.23791E-04-4.72090E-05-3.35008E-05-3.74898E-05-7.76390E-18 8.58722E-18
 -1      1756 7.46862E-05-4.79674E-05-1.41956E-05-3.16012E-05-6.98209E-18 7.18453E-18
 -1      1757 3.64035E-05-5.04391E-05 1.83537E-06-1.90287E-05-5.74627E-18 6.21034E-18
 -1      1758 1.54038E-05-5.30025E-05 1.12151E-05-3.58385E-06-3.73838E-18 6.70765E-18
 -1      1759 1.34593E-04-3.14536E-05-4.42328E-05-8.59288E-06-9.98440E-19 5.89768E-18
 -1      1760 1.50939E-04-4.66996E-05-4.50099E-05-2.95926E-05-1.23646E-18 5.26794E-18
 -1      1761 7.66179E-05-1.88468E-06-3.22668E-05-2.41848E-06-1.28691E-18-1.38032E-18
 -1      1762 8.62140E-05-5.77779E-06-3.44563E-05-2.37658E-06-1.39175E-18-6.50852E-19
 -1      1763 9.77472E-05-1.26168E-05-3.67422E-05-1.94957E-06-1.34803E-18 2.32828E-19
 -1      1764 1.09078E-04-1.82217E-05-3.91955E-05-3.38951E-06-1.42169E-18 1.29554E-18
 -1      1765 9.32587E-05-1.19533E-05-3.47784E-05 1.01816E-06-1.29478E-18-1.74568E-19
 -1      1766 5.89766E-05 5.43604E-06-2.75895E-05-1.24507E-05-1.28144E-18-2.55804E-18
 -1      1767 5.97381E-05 5.70309E-06-2.81065E-05-1.05338E-05-1.33484E-18-2.43297E-18
 -1      1768 6.35181E-05 1.73280E-06-2.78737E-05-1.62511E-05-1.22582E-18-2.59248E-18
 -1      1769 6.05905E-05 3.48321E-06-2.75762E-05-1.52459E-05-1.29633E-18-2.56298E-18
 -1      1770 5.89283E-05 4.21464E-06-2.69953E-05-1.53064E-05-1.43168E-18-2.60239E-18
 -1      1771 7.28426E-05-4.13566E-06-2.93494E-05-1.62880E-05-9.99393E-19-2.27637E-18
 -1      1772 6.81870E-05-1.90106E-06-2.85398E-05-1.68703E-05-1.13573E-18-2.42547E-18
 -1      1773 6.61632E-05-1.54400E-06-2.77297E-05-1.86214E-05-1.34817E-18-2.48493E-18
 -1      1774 8.24875E-05-9.41750E-06-3.12730E-05-1.27171E-05-6.29795E-19-1.97310E-18
 -1      1775 7.80640E-05-7.57694E-06-3.03135E-05-1.46510E-05-8.05939E-19-2.10969E-18
 -1      1776 7.70784E-05-8.65323E-06-2.94372E-05-1.71453E-05-1.05728E-18-2.05265E-18
 -1      1777 8.97026E-05-1.26585E-05-3.30395E-05-7.02450E-06-1.80392E-19-1.72387E-18
 -1      1778 8.65796E-05-1.16059E-05-3.22014E-05-9.70181E-06-3.89397E-19-1.81969E-18
 -1      1779 8.71092E-05-1.41908E-05-3.13713E-05-1.20127E-05-6.25428E-19-1.74113E-18
 -1      1780 9.37559E-05-1.38382E-05-3.43216E-05-7.51997E-07 3.22561E-19-1.54197E-18
 -1      1781 9.21161E-05-1.35154E-05-3.37405E-05-3.61809E-06 1.29384E-19-1.64377E-18
 -1      1782 9.38864E-05-1.70837E-05-3.30101E-05-5.34912E-06-6.73921E-20-1.48796E-18
 -1      1783 9.51866E-05-1.36893E-05-3.50288E-05 5.06422E-06 8.65621E-19-1.21290E-18
 -1      1784 9.47002E-05-1.38090E-05-3.47257E-05 2.37552E-06 5.92903E-19-1.39602E-18
 -1      1785 9.71970E-05-1.77787E-05-3.41026E-05 1.17565E-06 4.68881E-19-1.25762E-18
 -1      1786 9.50535E-05-1.30500E-05-3.52641E-05 1.02825E-05 1.44614E-18-6.33210E-19
 -1      1787 9.52204E-05-1.33109E-05-3.51753E-05 7.78535E-06 1.15757E-18-9.30519E-19
 -1      1788 9.80043E-05-1.73024E-05-3.46321E-05 6.87127E-06 1.08998E-18-8.22747E-19
 -1      1789 9.44411E-05-1.27007E-05-3.51763E-05 1.47994E-05 1.84820E-18-9.79382E-21
 -1      1790 9.47288E-05-1.27979E-05-3.52080E-05 1.25125E-05 1.61427E-18-4.34263E-19
 -1      1791 9.75015E-05-1.66378E-05-3.46895E-05 1.16124E-05 1.64121E-18-2.78158E-19
 -1      1792 9.46597E-05-1.35691E-05-3.49620E-05 1.86721E-05 2.16875E-18 1.28069E-18
 -1      1793 9.43993E-05-1.30698E-05-3.49909E-05 1.65057E-05 1.98010E-18 4.81459E-19
 -1      1794 9.69150E-05-1.66937E-05-3.44004E-05 1.53373E-05 1.99839E-18 4.27037E-19
 -1      1795 9.79563E-05-1.76251E-05-3.46944E-05 2.10132E-05 2.15238E-18 3.59396E-18
 -1      1796 9.57311E-05-1.52606E-05-3.46694E-05 1.95424E-05 2.13604E-18 2.25485E-18
 -1      1797 9.75515E-05-1.85873E-05-3.38444E-05 1.76349E-05 2.24282E-18 1.92210E-18
 -1      1798 1.03219E-04-2.53694E-05-3.38435E-05 1.71195E-05 1.75389E-18 6.35275E-18
 -1      1799 9.96532E-05-1.98253E-05-3.41969E-05 2.00677E-05 1.96414E-18 4.54989E-18
 -1      1800 9.92079E-05-2.25795E-05-3.29078E-05 1.67820E-05 2.22222E-18 3.69089E-18
 -1      1801 9.93661E-05-2.63556E-05-3.15374E-05 1.21457E-05 1.79611E-18 5.86471E-18
 -1      1802 1.24490E-04-2.64188E-05-4.18461E-05-6.51304E-06-1.25791E-18 3.14334E-18
 -1      1803 9.43969E-05-2.72281E-05-2.88202E-05 7.23590E-06 1.31896E-18 4.94813E-18
 -1      1804 9.77211E-05-2.75697E-05-3.01340E-05 9.31205E-06 1.45896E-18 5.47481E-18
 -1      1805 9.82355E-05-2.60057E-05-3.09261E-05 1.21908E-05 1.75884E-18 4.18172E-18
 -1      1806 1.64415E-04-5.61983E-05-4.69495E-05-2.60250E-05-1.01612E-18 4.23146E-18
 -1      1807 1.56783E-04-4.47455E-05-4.83563E-05-2.91220E-05-2.47524E-18 4.34104E-18
 -1      1808 1.24785E-04-3.42649E-05-3.86240E-05 1.17034E-05-3.90747E-19 2.49210E-18
 -1      1809 1.27646E-04-3.68654E-05-3.88300E-05 1.36402E-05-3.48148E-20 2.48493E-18
 -1      1810 1.30562E-04-4.00963E-05-3.84602E-05 1.54291E-05 4.26560E-19 2.85158E-18
 -1      1811 1.35010E-04-4.46498E-05-3.87080E-05 1.34740E-05 8.09869E-19 2.90834E-18
 -1      1812 1.16904E-04-3.46210E-05-3.53660E-05 1.75138E-05 3.54960E-19 1.50373E-18
 -1      1813 1.42401E-04-5.08569E-05-3.87523E-05 1.02615E-05 1.30358E-18 3.36833E-18
 -1      1814 1.46891E-04-5.57184E-05-3.91252E-05 2.66834E-06 1.19019E-18 3.70705E-18
 -1      1815 1.27287E-04-4.70872E-05-3.45005E-05 1.76706E-05 1.21507E-18 2.03738E-18
 -1      1816 1.56777E-04-6.14197E-05-4.06662E-05-5.28470E-06 1.04868E-18 3.99355E-18
 -1      1817 1.57416E-04-6.02188E-05-4.17481E-05-1.41728E-05 3.43789E-19 4.05390E-18
 -1      1818 1.44272E-04-6.13723E-05-3.58041E-05 7.86103E-06 1.28611E-18 2.77709E-18
 -1      1819 9.66598E-05-3.97175E-05-2.43581E-05 4.99949E-05 4.98818E-18 4.30039E-18
 -1      1820 7.57044E-05-4.13090E-05-1.58123E-05 4.47299E-05 4.60362E-18 4.94943E-18
 -1      1821 1.19987E-04-2.70857E-05-3.95599E-05-1.27603E-07-1.20064E-18 2.32701E-18
 -1      1822 1.51178E-04-3.40013E-05-5.09929E-05 2.25318E-05-4.60998E-18-1.32952E-18
 -1      1823 1.57487E-04-4.32030E-05-4.97840E-05 2.81441E-05-3.36569E-18-2.43501E-18
 -1      1824 1.56202E-04-4.95076E-05-4.62974E-05 2.77429E-05-2.60971E-18-3.43456E-18
 -1      1825 1.61771E-04-5.75220E-05-4.48971E-05 2.30119E-05-1.38500E-18-4.46715E-18
 -1      1826 1.54192E-04-5.76068E-05-4.16570E-05 1.21356E-05 5.16425E-20-4.15161E-18
 -1      1827 1.53656E-04-5.70186E-05-4.11831E-05 2.65507E-06 8.82397E-19-3.59121E-18
 -1      1828 1.44660E-04-5.15821E-05-3.99623E-05-6.08617E-06 1.15334E-18-2.77082E-18
 -1      1829 1.40497E-04-4.75084E-05-3.95036E-05-1.24373E-05 1.64880E-18-2.24069E-18
 -1      1830 1.43060E-04-5.65785E-05-3.71744E-05-6.21389E-06 1.50534E-18-2.06703E-18
 -1      1831 1.34022E-04-4.29876E-05-3.90821E-05-1.57998E-05 1.54388E-18-1.74485E-18
 -1      1832 1.28607E-04-3.92091E-05-3.81946E-05-1.75225E-05 1.47535E-18-1.57180E-18
 -1      1833 1.27705E-04-4.46306E-05-3.57472E-05-1.90392E-05 1.89201E-18-7.56480E-19
 -1      1834 1.24871E-04-3.70124E-05-3.76655E-05-1.70967E-05 1.35019E-18-1.26144E-18
 -1      1835 1.19780E-04-3.46070E-05-3.64970E-05-1.63626E-05 1.10855E-18-5.10390E-19
 -1      1836 1.17487E-04-3.55534E-05-3.51794E-05-2.13183E-05 1.63233E-18 1.14482E-21
 -1      1837 1.17417E-04-3.37009E-05-3.58403E-05-1.45973E-05 9.04036E-19-9.62441E-19
 -1      1838 1.13209E-04-3.22563E-05-3.47132E-05-1.30866E-05 5.89714E-19-6.62936E-19
 -1      1839 1.11333E-04-3.13498E-05-3.43063E-05-1.87785E-05 8.58038E-19 3.59221E-19
 -1      1840 1.11527E-04-3.18923E-05-3.40646E-05-1.11666E-05 8.16262E-20-7.95596E-19
 -1      1841 1.08294E-04-3.10107E-05-3.31346E-05-9.69017E-06-3.57541E-20-4.54923E-19
 -1      1842 1.07223E-04-2.97209E-05-3.32259E-05-1.47561E-05 2.33199E-19-2.97722E-19
 -1      1843 1.07008E-04-3.08367E-05-3.25771E-05-8.06954E-06 2.10157E-19-3.68115E-19
 -1      1844 1.04636E-04-3.02766E-05-3.18719E-05-6.88910E-06-2.99314E-19-4.11092E-19
 -1      1845 1.04224E-04-2.91809E-05-3.21657E-05-1.09034E-05 1.91191E-19-6.46849E-19
 -1      1846 1.03636E-04-3.01628E-05-3.14297E-05-5.65860E-06-9.04499E-19-6.61926E-19
 -1      1847 1.01942E-04-2.97934E-05-3.09188E-05-4.79408E-06-5.97794E-19-1.06474E-18
 -1      1848 1.01935E-04-2.90120E-05-3.12564E-05-7.78484E-06-5.21508E-19-2.69108E-19
 -1      1849 1.01171E-04-2.97018E-05-3.05840E-05-3.90792E-06 6.94471E-19-1.25464E-18
 -1      1850 9.99805E-05-2.94517E-05-3.02226E-05-3.30122E-06 1.46500E-18-8.48615E-19
 -1      1851 1.00178E-04-2.89414E-05-3.05338E-05-5.45461E-06 7.28581E-20-4.22976E-19
 -1      1852 9.93959E-05-2.93738E-05-2.99760E-05-2.68024E-06 1.31106E-18-1.52760E-18
 -1      1853 9.85663E-05-2.92019E-05-2.97233E-05-2.26311E-06 7.80835E-19-1.09423E-18
 -1      1854 9.88396E-05-2.88861E-05-2.99845E-05-3.78492E-06 1.06084E-18-5.85373E-19
 -1      1855 9.81292E-05-2.91366E-05-2.95445E-05-1.83370E-06 2.37487E-19-8.36499E-19
 -1      1856 9.75538E-05-2.90174E-05-2.93689E-05-1.54929E-06-7.84101E-20-6.31963E-19
 -1      1857 9.78343E-05-2.88296E-05-2.95778E-05-2.61454E-06 7.73078E-19-5.64509E-19
 -1      1858 9.72308E-05-2.89641E-05-2.92405E-05-1.25387E-06 1.43920E-19-3.40020E-19
 -1      1859 9.68315E-05-2.88813E-05-2.91186E-05-1.06001E-06 6.22151E-19 1.27531E-20
 -1      1860 9.70879E-05-2.87738E-05-2.92815E-05-1.80277E-06 3.18989E-19-9.27479E-19
 -1      1861 9.65844E-05-2.88380E-05-2.90229E-05-8.47602E-07 2.64290E-19-4.12469E-19
 -1      1862 9.62991E-05-2.87778E-05-2.89354E-05-7.10707E-07-6.51265E-19-6.72119E-19
 -1      1863 9.65281E-05-2.87201E-05-2.90633E-05-1.23200E-06-1.36414E-19-1.16726E-18
 -1      1864 9.61314E-05-2.87458E-05-2.88717E-05-5.73532E-07-1.34150E-18 6.51341E-19
 -1      1865 9.59455E-05-2.87070E-05-2.88146E-05-4.84515E-07-8.44927E-19 8.61251E-19
 -1      1866 9.61228E-05-2.86773E-05-2.89080E-05-8.37613E-07-2.95345E-21 7.03475E-19
 -1      1867 9.58244E-05-2.86832E-05-2.87695E-05-3.89287E-07 2.40126E-19 7.97671E-19
 -1      1868 9.56971E-05-2.86565E-05-2.87302E-05-3.28072E-07 1.10952E-18 1.36338E-18
 -1      1869 9.58388E-05-2.86424E-05-2.88006E-05-5.73409E-07-2.93636E-19 2.53075E-18
 -1      1870 9.56110E-05-2.86391E-05-2.86985E-05-2.61947E-07 1.25969E-18 1.58969E-18
 -1      1871 9.55246E-05-2.86212E-05-2.86718E-05-2.19660E-07 1.28712E-18 1.43313E-18
 -1      1872 9.56357E-05-2.86157E-05-2.87246E-05-3.89671E-07 1.10976E-18 2.49745E-18
 -1      1873 9.54640E-05-2.86087E-05-2.86497E-05-1.73693E-07 9.12857E-19 1.16207E-18
 -1      1874 9.54062E-05-2.85970E-05-2.86317E-05-1.44465E-07 7.86047E-19 1.24893E-18
 -1      1875 9.54921E-05-2.85960E-05-2.86710E-05-2.61634E-07 8.91016E-19 2.26933E-18
 -1      1876 9.53643E-05-2.85883E-05-2.86165E-05-1.12554E-07 5.20233E-19 5.03296E-19
 -1      1877 9.53265E-05-2.85809E-05-2.86046E-05-9.24058E-08-1.88920E-19 6.04955E-20
 -1      1878 9.53920E-05-2.85821E-05-2.86338E-05-1.72398E-07-1.45624E-19 4.58427E-19
 -1      1879 9.52981E-05-2.85750E-05-2.85944E-05-7.03626E-08-1.08908E-18 2.59747E-19
 -1      1880 9.52741E-05-2.85707E-05-2.85867E-05-5.65726E-08 1.65455E-19 6.61391E-19
 -1      1881 9.53233E-05-2.85727E-05-2.86081E-05-1.10382E-07-2.28101E-19-6.61520E-19
 -1      1882 9.52553E-05-2.85669E-05-2.85799E-05-4.14929E-08 2.90119E-19-6.90832E-19
 -1      1883 9.52409E-05-2.85646E-05-2.85752E-05-3.21755E-08-8.11649E-19-1.65645E-18
 -1      1884 9.52775E-05-2.85668E-05-2.85908E-05-6.75747E-08-5.34743E-19 6.31750E-20
 -1      1885 9.52290E-05-2.85623E-05-2.85709E-05-2.20217E-08-1.24181E-18-1.54798E-18
 -1      1886 9.52210E-05-2.85613E-05-2.85682E-05-1.58548E-08-1.42376E-18-2.00991E-18
 -1      1887 9.52478E-05-2.85634E-05-2.85794E-05-3.83730E-08-8.46943E-19-1.18670E-18
 -1      1888 9.52140E-05-2.85600E-05-2.85656E-05-9.18196E-09-1.95353E-18-2.75258E-18
 -1      1889 9.52103E-05-2.85600E-05-2.85643E-05-5.22802E-09-1.62229E-18-2.51174E-18
 -1      1890 9.52296E-05-2.85618E-05-2.85722E-05-1.88172E-08-1.77627E-18-5.45706E-19
 -1      1891 9.52066E-05-2.85594E-05-2.85628E-05-1.00209E-09-1.29225E-18-2.12695E-18
 -1      1892 9.52057E-05-2.85599E-05-2.85624E-05 1.40930E-09 3.34845E-19-2.52014E-18
 -1      1893 9.52192E-05-2.85614E-05-2.85678E-05-6.08084E-09-1.80173E-18-6.08948E-19
 -1      1894 9.52041E-05-2.85598E-05-2.85617E-05 3.93275E-09 2.20767E-18-3.17983E-18
 -1      1895 9.52049E-05-2.85605E-05-2.85618E-05 5.28339E-09 1.85338E-18-2.46464E-18
 -1      1896 9.52142E-05-2.85617E-05-2.85655E-05 1.86872E-09 7.08147E-19-9.63521E-19
 -1      1897 9.52048E-05-2.85607E-05-2.85616E-05 6.64164E-09 2.45750E-18-2.46458E-18
 -1      1898 9.52066E-05-2.85616E-05-2.85621E-05 7.27810E-09 2.83800E-18-9.25379E-19
 -1      1899 9.52127E-05-2.85625E-05-2.85645E-05 6.49965E-09 2.55369E-18-1.66881E-18
 -1      1900 9.52072E-05-2.85620E-05-2.85622E-05 7.85823E-09 2.42070E-18-1.35086E-19
 -1      1901 9.52095E-05-2.85629E-05-2.85628E-05 8.02886E-09 2.27030E-18 8.40864E-19
 -1      1902 9.52134E-05-2.85636E-05-2.85643E-05 8.87310E-09 2.94567E-18 9.08127E-19
 -1      1903 9.52107E-05-2.85633E-05-2.85631E-05 8.10800E-09 2.15837E-18 9.34380E-19
 -1      1904 9.52131E-05-2.85642E-05-2.85638E-05 7.98919E-09 2.34856E-18 2.04588E-18
 -1      1905 9.52154E-05-2.85647E-05-2.85646E-05 9.75328E-09 2.41229E-18 1.43947E-18
 -1      1906 9.52144E-05-2.85646E-05-2.85642E-05 7.76351E-09 1.61415E-18 1.52050E-18
 -1      1907 9.52168E-05-2.85654E-05-2.85649E-05 7.47867E-09 8.94247E-20 1.95769E-18
 -1      1908 9.52180E-05-2.85658E-05-2.85652E-05 9.68602E-09 2.25466E-18 2.31481E-18
 -1      1909 9.52182E-05-2.85658E-05-2.85653E-05 7.08454E-09-3.89793E-19 2.63726E-18
 -1      1910 9.52204E-05-2.85665E-05-2.85659E-05 6.71809E-09-3.90854E-19 2.08115E-18
 -1      1911 9.52208E-05-2.85668E-05-2.85660E-05 9.05588E-09 3.82896E-19 2.50661E-18
 -1      1912 9.52217E-05-2.85669E-05-2.85664E-05 6.24781E-09-7.39271E-19 2.30402E-18
 -1      1913 9.52236E-05-2.85675E-05-2.85669E-05 5.85554E-09-1.70807E-19 2.32696E-18
 -1      1914 9.52236E-05-2.85677E-05-2.85668E-05 8.12820E-09-7.00371E-19 3.90170E-18
 -1      1915 9.52249E-05-2.85678E-05-2.85673E-05 5.36906E-09 5.20594E-19 6.03045E-19
 -1      1916 9.52265E-05-2.85684E-05-2.85678E-05 4.98577E-09 3.37300E-19 5.53385E-19
 -1      1917 9.52262E-05-2.85685E-05-2.85676E-05 7.08047E-09-7.66598E-19 3.62346E-18
 -1      1918 9.52276E-05-2.85686E-05-2.85682E-05 4.51939E-09 1.60433E-18 4.09076E-19
 -1      1919 9.52290E-05-2.85691E-05-2.85686E-05 4.16462E-09 1.51817E-18 1.31207E-18
 -1      1920 9.52285E-05-2.85691E-05-2.85683E-05 6.02564E-09 7.85326E-19 3.02671E-19
 -1      1921 9.52300E-05-2.85693E-05-2.85689E-05 3.73733E-09-1.65450E-19 9.25081E-19
 -1      1922 9.52311E-05-2.85697E-05-2.85692E-05 3.41934E-09-3.74513E-19 8.26992E-19
 -1      1923 9.52305E-05-2.85697E-05-2.85689E-05 5.02947E-09 4.92353E-19 5.42670E-19
 -1      1924 9.52319E-05-2.85699E-05-2.85695E-05 3.03741E-09-1.06588E-19 1.89941E-18
 -1      1925 9.52329E-05-2.85701E-05-2.85698E-05 2.75594E-09-3.90589E-20 2.23355E-18
 -1      1926 9.52322E-05-2.85701E-05-2.85695E-05 4.12305E-09 1.98241E-19 1.39590E-18
 -1      1927 9.52335E-05-2.85703E-05-2.85700E-05 2.41604E-09 5.53507E-19 1.40450E-18
 -1      1928 9.52343E-05-2.85705E-05-2.85702E-05 2.16417E-09-1.52528E-19 1.18160E-18
 -1      1929 9.52336E-05-2.85705E-05-2.85699E-05 3.31177E-09-6.49711E-19 2.78757E-18
 -1      1930 9.52348E-05-2.85707E-05-2.85704E-05 1.85591E-09-8.09588E-19 1.60407E-18
 -1      1931 9.52354E-05-2.85708E-05-2.85705E-05 1.62187E-09-1.86742E-18 1.93923E-18
 -1      1932 9.52348E-05-2.85708E-05-2.85703E-05 2.58195E-09-4.73980E-19 1.59226E-18
 -1      1933 9.52358E-05-2.85710E-05-2.85707E-05 1.33097E-09-2.64969E-18 2.84340E-18
 -1      1934 9.52362E-05-2.85711E-05-2.85708E-05 1.10212E-09-1.23086E-18 1.70955E-18
 -1      1935 9.52357E-05-2.85711E-05-2.85706E-05 1.90737E-09-1.95205E-18 2.75512E-18
 -1      1936 9.52365E-05-2.85712E-05-2.85709E-05 8.16537E-10 1.57280E-18 3.80443E-19
 -1      1937 9.52368E-05-2.85713E-05-2.85709E-05 5.95623E-10 2.29318E-18 8.25605E-19
 -1      1938 9.52364E-05-2.85713E-05-2.85708E-05 1.25933E-09-1.31611E-18 4.62967E-18
 -1      1939 9.52370E-05-2.85713E-05-2.85710E-05 3.41281E-10 1.63843E-18-4.75340E-19
 -1      1940 8.84884E-05-2.61233E-05-2.66873E-05 4.98905E-06 9.45209E-19 3.56819E-18
 -1      1941 9.02160E-05-2.65739E-05-2.72132E-05 5.46623E-06 9.54904E-19 3.93915E-18
 -1      1942 8.57810E-05-2.52227E-05-2.59140E-05 3.88575E-06 6.08332E-19 3.20059E-18
 -1      1943 8.71342E-05-2.56981E-05-2.62839E-05 4.34191E-06 7.58763E-19 3.41247E-18
 -1      1944 9.08722E-05-2.65146E-05-2.75962E-05 6.30925E-06 1.03780E-18 2.45255E-18
 -1      1945 8.38094E-05-2.44209E-05-2.54123E-05 2.48866E-06 7.73126E-19 2.53954E-18
 -1      1946 8.47178E-05-2.47964E-05-2.56480E-05 3.10431E-06 7.15061E-19 2.97334E-18
 -1      1947 8.84418E-05-2.56074E-05-2.69525E-05 4.70368E-06 9.47023E-19 2.10951E-18
 -1      1948 8.27736E-05-2.39475E-05-2.51732E-05 7.05888E-07 7.42153E-19 2.17108E-18
 -1      1949 8.31439E-05-2.41206E-05-2.52649E-05 1.48089E-06 6.93763E-19 2.51442E-18
 -1      1950 8.66747E-05-2.47763E-05-2.65602E-05 2.69235E-06 9.24123E-19 1.91849E-18
 -1      1951 8.28197E-05-2.39559E-05-2.51958E-05-1.25365E-06 6.68101E-19 1.79966E-18
 -1      1952 8.25951E-05-2.38657E-05-2.51368E-05-4.36055E-07 6.55445E-19 2.02367E-18
 -1      1953 8.57998E-05-2.43306E-05-2.63810E-05 2.68214E-07 8.38639E-19 1.70361E-18
 -1      1954 8.39198E-05-2.44659E-05-2.54583E-05-3.02187E-06 5.45737E-19 1.52038E-18
 -1      1955 8.31389E-05-2.41215E-05-2.52605E-05-2.32444E-06 6.48579E-19 1.66444E-18
 -1      1956 8.59441E-05-2.44472E-05-2.63898E-05-2.23357E-06 7.76633E-19 1.38023E-18
 -1      1957 8.58363E-05-2.53522E-05-2.59100E-05-4.25328E-06 4.71650E-19 1.34656E-18
 -1      1958 8.46405E-05-2.48300E-05-2.56065E-05-3.80865E-06 5.77574E-19 1.45633E-18
 -1      1959 8.70284E-05-2.51127E-05-2.65589E-05-4.33748E-06 7.21156E-19 1.29893E-18
 -1      1960 8.81891E-05-2.64011E-05-2.64770E-05-4.76897E-06 3.83025E-19 9.18495E-19
 -1      1961 8.67835E-05-2.58125E-05-2.61155E-05-4.62918E-06 4.30251E-19 1.04335E-18
 -1      1962 8.87682E-05-2.61390E-05-2.68508E-05-5.65834E-06 6.42431E-19 1.26118E-18
 -1      1963 9.05790E-05-2.74001E-05-2.70784E-05-4.60072E-06 3.01351E-19 5.97324E-19
 -1      1964 8.91726E-05-2.68489E-05-2.67094E-05-4.73165E-06 3.86206E-19 7.35724E-19
 -1      1965 9.07757E-05-2.72578E-05-2.72192E-05-6.05271E-06 5.31622E-19 7.94596E-19
 -1      1966 9.26945E-05-2.82057E-05-2.76427E-05-3.93660E-06-1.11823E-19 3.95263E-19
 -1      1967 9.14507E-05-2.77594E-05-2.73081E-05-4.24896E-06-2.04975E-20 3.82528E-19
 -1      1968 9.26929E-05-2.82341E-05-2.76145E-05-5.63345E-06 2.10489E-19 4.18044E-19
 -1      1969 9.43616E-05-2.87628E-05-2.81194E-05-3.02163E-06 2.06798E-19 4.66770E-19
 -1      1970 9.33740E-05-2.84466E-05-2.78462E-05-3.41310E-06 4.13590E-20 4.91049E-19
 -1      1971 9.42815E-05-2.89364E-05-2.79912E-05-4.67418E-06-2.36061E-20 2.58309E-19
 -1      1972 9.55345E-05-2.90855E-05-2.84837E-05-2.07297E-06 3.99462E-20 1.18295E-18
 -1      1973 9.48300E-05-2.88922E-05-2.82826E-05-2.45947E-06 3.31029E-19 9.00805E-19
 -1      1974 9.54423E-05-2.93419E-05-2.83154E-05-3.48291E-06 1.24822E-19 3.04383E-19
 -1      1975 9.62568E-05-2.92245E-05-2.87330E-05-1.23678E-06-9.18253E-20 8.87171E-19
 -1      1976 9.58133E-05-2.91295E-05-2.86014E-05-1.56580E-06 2.15140E-19 9.67530E-19
 -1      1977 9.61838E-05-2.95003E-05-2.85677E-05-2.31025E-06 2.06315E-19 8.25913E-19
 -1      1978 9.66177E-05-2.92391E-05-2.88804E-05-5.83492E-07 2.55956E-19 6.53377E-19
 -1      1979 9.63862E-05-2.92132E-05-2.88076E-05-8.32938E-07 6.57278E-20 6.52431E-19
 -1      1980 9.65758E-05-2.94893E-05-2.87433E-05-1.31184E-06 1.58996E-19 5.99244E-19
 -1      1981 9.67179E-05-2.91811E-05-2.89472E-05-1.25236E-07-1.97608E-19 4.07132E-19
 -1      1982 9.66414E-05-2.91980E-05-2.89188E-05-2.94881E-07 7.53346E-20 5.02193E-19
 -1      1983 9.67089E-05-2.93833E-05-2.88485E-05-5.53087E-07 1.51476E-19 3.03298E-19
 -1      1984 9.66495E-05-2.90890E-05-2.89563E-05 1.60813E-07-4.44412E-19 3.59003E-19
 -1      1985 9.66744E-05-2.91283E-05-2.89583E-05 5.89975E-08-4.21848E-19 5.03025E-19
 -1      1986 9.66697E-05-2.92383E-05-2.88961E-05-3.47693E-08-1.78588E-19 4.29984E-19
 -1      1987 9.64860E-05-2.89878E-05-2.89288E-05 3.12506E-07-4.26960E-19 1.00645E-18
 -1      1988 9.65690E-05-2.90355E-05-2.89489E-05 2.62035E-07-7.51828E-19 7.58415E-19
 -1      1989 9.65294E-05-2.90898E-05-2.89012E-05 2.78437E-07-8.00001E-19 1.44733E-19
 -1      1990 9.62812E-05-2.88919E-05-2.88815E-05 3.69470E-07-4.08534E-20 1.12960E-18
 -1      1991 9.63901E-05-2.89394E-05-2.89104E-05 3.54160E-07 1.20583E-19 1.59861E-18
 -1      1992 9.63407E-05-2.89568E-05-2.88785E-05 4.35459E-07-4.50841E-19 1.14528E-18
 -1      1993 9.60705E-05-2.88084E-05-2.88265E-05 3.66059E-07 6.23067E-19 1.28624E-18
 -1      1994 9.61841E-05-2.88511E-05-2.88579E-05 3.72407E-07 2.73541E-19 1.43355E-18
 -1      1995 9.61392E-05-2.88468E-05-2.88400E-05 4.84638E-07 1.24077E-19 1.83052E-18
 -1      1996 9.58754E-05-2.87399E-05-2.87720E-05 3.28753E-07 5.13923E-19 1.19422E-18
 -1      1997 9.59809E-05-2.87756E-05-2.88019E-05 3.46654E-07 8.39104E-19 1.30438E-18
 -1      1998 9.59472E-05-2.87607E-05-2.87950E-05 4.66642E-07 6.69737E-19 1.58547E-18
 -1      1999 9.57065E-05-2.86859E-05-2.87225E-05 2.76157E-07 4.97177E-19 1.21293E-20
 -1      2000 9.57974E-05-2.87144E-05-2.87488E-05 2.98703E-07 6.63149E-19 6.69257E-19
 -1      2001 9.57767E-05-2.86960E-05-2.87499E-05 4.12194E-07 6.62063E-19 1.17883E-18
 -1      2002 9.55676E-05-2.86451E-05-2.86805E-05 2.20239E-07 4.88848E-19-2.24892E-19
 -1      2003 9.56418E-05-2.86668E-05-2.87022E-05 2.43119E-07 3.50330E-19 5.49693E-20
 -1      2004 9.56329E-05-2.86490E-05-2.87084E-05 3.42538E-07 5.66305E-19 8.66656E-19
 -1      2005 9.54582E-05-2.86152E-05-2.86464E-05 1.67946E-07 2.07443E-19 2.71602E-20
 -1      2006 9.55160E-05-2.86311E-05-2.86636E-05 1.88760E-07 2.78769E-19-1.44155E-19
 -1      2007 9.55164E-05-2.86161E-05-2.86725E-05 2.71121E-07 3.58774E-19 3.47721E-19
 -1      2008 9.53752E-05-2.85941E-05-2.86199E-05 1.22715E-07 2.02809E-19-4.06356E-19
 -1      2009 9.54183E-05-2.86052E-05-2.86329E-05 1.40367E-07 4.50064E-19-1.37000E-19
 -1      2010 9.54255E-05-2.85937E-05-2.86430E-05 2.05573E-07 5.60463E-19 2.03854E-19
 -1      2011 9.53145E-05-2.85798E-05-2.86001E-05 8.57173E-08-1.51318E-20-1.09321E-18
 -1      2012 9.53454E-05-2.85872E-05-2.86096E-05 9.99270E-08 3.23475E-19-3.56263E-19
 -1      2013 9.53567E-05-2.85791E-05-2.86197E-05 1.49515E-07 4.29306E-19-1.13892E-19
 -1      2014 9.52719E-05-2.85705E-05-2.85859E-05 5.67799E-08-6.63585E-19-9.56331E-19
 -1      2015 9.52931E-05-2.85752E-05-2.85925E-05 6.77366E-08-9.16865E-19-1.64769E-18
 -1      2016 9.53064E-05-2.85700E-05-2.86019E-05 1.04001E-07-1.54459E-19-2.42208E-19
 -1      2017 9.52435E-05-2.85650E-05-2.85762E-05 3.50262E-08 1.72696E-20 4.74678E-20
 -1      2018 9.52571E-05-2.85677E-05-2.85805E-05 4.31495E-08-1.52427E-19-4.99153E-19
 -1      2019 9.52709E-05-2.85648E-05-2.85888E-05 6.85905E-08-5.87808E-19 7.09766E-21
 -1      2020 9.52256E-05-2.85620E-05-2.85699E-05 1.92903E-08 5.02281E-19 4.41469E-19
 -1      2021 9.52337E-05-2.85633E-05-2.85725E-05 2.50806E-08 4.78258E-19 7.05965E-19
 -1      2022 9.52469E-05-2.85621E-05-2.85796E-05 4.20763E-08 3.53352E-19 1.23424E-18
 -1      2023 9.52154E-05-2.85609E-05-2.85661E-05 8.36623E-09-4.67852E-20-1.89034E-19
 -1      2024 9.52195E-05-2.85612E-05-2.85675E-05 1.23179E-08 1.84814E-19 2.59579E-19
 -1      2025 9.52316E-05-2.85612E-05-2.85733E-05 2.29595E-08 7.02404E-19 1.15761E-18
 -1      2026 9.52106E-05-2.85608E-05-2.85641E-05 1.14361E-09 3.77481E-19-5.16263E-19
 -1      2027 9.52120E-05-2.85606E-05-2.85647E-05 3.69943E-09 6.53191E-19-1.06800E-19
 -1      2028 9.52226E-05-2.85613E-05-2.85693E-05 9.72820E-09 2.74239E-19 1.18933E-18
 -1      2029 9.52094E-05-2.85615E-05-2.85633E-05-3.33037E-09 9.23697E-20-4.12129E-19
 -1      2030 9.52091E-05-2.85609E-05-2.85633E-05-1.79758E-09 3.57299E-19-3.77138E-19
 -1      2031 9.52181E-05-2.85620E-05-2.85670E-05 1.00837E-09 5.75198E-19 1.29038E-18
 -1      2032 9.52105E-05-2.85625E-05-2.85633E-05-5.83377E-09 7.22200E-19-2.21822E-19
 -1      2033 9.52091E-05-2.85618E-05-2.85631E-05-5.02416E-09-8.36605E-20-4.80955E-19
 -1      2034 9.52166E-05-2.85631E-05-2.85659E-05-4.37043E-09 1.31608E-19 3.35960E-19
 -1      2035 9.52128E-05-2.85637E-05-2.85639E-05-6.97764E-09-6.83457E-19 1.84966E-18
 -1      2036 9.52109E-05-2.85629E-05-2.85634E-05-6.65876E-09 7.33419E-19 9.67398E-19
 -1      2037 9.52170E-05-2.85642E-05-2.85655E-05-7.35943E-09-1.25402E-19 1.14650E-18
 -1      2038 9.52159E-05-2.85649E-05-2.85647E-05-7.22601E-09-1.16819E-18 2.33927E-18
 -1      2039 9.52138E-05-2.85641E-05-2.85641E-05-7.22348E-09-6.48237E-19 2.25559E-18
 -1      2040 9.52185E-05-2.85654E-05-2.85657E-05-8.70335E-09-1.24696E-18 2.25619E-18
 -1      2041 9.52191E-05-2.85660E-05-2.85656E-05-6.92025E-09 2.57599E-19 3.76778E-21
 -1      2042 9.52170E-05-2.85653E-05-2.85650E-05-7.10734E-09-8.41830E-19 7.68348E-19
 -1      2043 9.52207E-05-2.85664E-05-2.85661E-05-8.96638E-09-2.33343E-20 1.24718E-18
 -1      2044 9.52223E-05-2.85670E-05-2.85665E-05-6.30329E-09-4.03700E-19-4.20602E-20
 -1      2045 9.52203E-05-2.85664E-05-2.85660E-05-6.59107E-09-1.27121E-19-7.59706E-19
 -1      2046 9.52231E-05-2.85674E-05-2.85667E-05-8.56271E-09 7.01163E-19-8.37854E-19
 -1      2047 9.52252E-05-2.85680E-05-2.85674E-05-5.54147E-09-1.51990E-19-3.63752E-19
 -1      2048 9.52234E-05-2.85674E-05-2.85669E-05-5.87008E-09-2.55205E-19-1.97055E-19
 -1      2049 9.52254E-05-2.85682E-05-2.85674E-05-7.78649E-09-4.47484E-19-1.59537E-18
 -1      2050 9.52278E-05-2.85687E-05-2.85682E-05-4.74293E-09 7.34983E-19-1.04184E-18
 -1      2051 9.52263E-05-2.85683E-05-2.85677E-05-5.07445E-09 6.79797E-19 3.52252E-20
 -1      2052 9.52277E-05-2.85689E-05-2.85680E-05-6.83850E-09 2.26528E-19-6.73417E-19
 -1      2053 9.52301E-05-2.85694E-05-2.85689E-05-3.97232E-09 4.48425E-19-1.88868E-18
 -1      2054 9.52288E-05-2.85690E-05-2.85685E-05-4.28514E-09-4.88173E-20-1.24205E-18
 -1      2055 9.52297E-05-2.85695E-05-2.85687E-05-5.84855E-09 2.59282E-19-1.11347E-18
 -1      2056 9.52320E-05-2.85699E-05-2.85695E-05-3.26209E-09 2.18764E-18-1.00828E-18
 -1      2057 9.52309E-05-2.85696E-05-2.85691E-05-3.54669E-09 1.33788E-18-1.01943E-18
 -1      2058 9.52315E-05-2.85700E-05-2.85692E-05-4.89340E-09 2.06253E-19-2.22231E-18
 -1      2059 9.52335E-05-2.85703E-05-2.85699E-05-2.62064E-09 1.74819E-18-5.73954E-19
 -1      2060 9.52326E-05-2.85701E-05-2.85697E-05-2.87676E-09 2.62211E-18 4.42692E-19
 -1      2061 9.52330E-05-2.85704E-05-2.85697E-05-4.01053E-09 1.30733E-18-6.16963E-19
 -1      2062 9.52348E-05-2.85707E-05-2.85703E-05-2.03846E-09 5.07283E-19-1.07932E-18
 -1      2063 9.52341E-05-2.85705E-05-2.85701E-05-2.27294E-09 1.30303E-18-5.11878E-19
 -1      2064 9.52342E-05-2.85707E-05-2.85701E-05-3.20846E-09 1.49098E-18 2.85548E-19
 -1      2065 9.52357E-05-2.85710E-05-2.85706E-05-1.49285E-09 1.38874E-19-8.17997E-19
 -1      2066 9.52352E-05-2.85708E-05-2.85705E-05-1.71804E-09 4.38960E-19-1.09447E-18
 -1      2067 9.52352E-05-2.85710E-05-2.85704E-05-2.47545E-09 4.34065E-19 2.31415E-19
 -1      2068 9.52364E-05-2.85712E-05-2.85708E-05-9.58566E-10-5.31500E-20-2.36104E-18
 -1      2069 9.52361E-05-2.85711E-05-2.85707E-05-1.18698E-09-2.26754E-20-1.76225E-18
 -1      2070 9.52360E-05-2.85712E-05-2.85706E-05-1.79166E-09 2.28160E-19-1.02415E-18
 -1      2071 9.52369E-05-2.85713E-05-2.85710E-05-4.78406E-10 6.65453E-21-2.93919E-18
 -1      2072 9.52367E-05-2.85712E-05-2.85709E-05-6.87696E-10 2.09959E-19-3.55681E-18
 -1      2073 9.52366E-05-2.85714E-05-2.85708E-05-1.16284E-09 5.24983E-19-2.19066E-18
 -1      2074 9.52369E-05-2.85714E-05-2.85709E-05-6.06706E-10-1.45319E-18-7.71780E-19
 -1      2075 9.52377E-05-2.85732E-05-2.85705E-05-1.46677E-09-1.55498E-18 1.96710E-18
 -1      2076 9.52376E-05-2.85728E-05-2.85706E-05-1.42593E-09-2.16898E-18 1.05193E-18
 -1      2077 9.52374E-05-2.85725E-05-2.85707E-05-1.31698E-09-8.40522E-19 4.93597E-19
 -1      2078 9.52372E-05-2.85721E-05-2.85708E-05-1.18056E-09-8.90499E-19-3.68134E-19
 -1      2079 9.52374E-05-2.85726E-05-2.85706E-05-1.76106E-09-1.68948E-19-1.09221E-19
 -1      2080 9.52370E-05-2.85717E-05-2.85709E-05-8.31514E-10-1.53194E-18-1.02168E-18
 -1      2081 9.52381E-05-2.85739E-05-2.85704E-05-1.39123E-09-2.67094E-18 8.20307E-19
 -1      2082 9.52379E-05-2.85735E-05-2.85704E-05-1.44819E-09-3.30974E-18 2.99163E-18
 -1      2083 9.52378E-05-2.85733E-05-2.85705E-05-1.85346E-09-1.09762E-18 6.62986E-19
 -1      2084 9.52383E-05-2.85745E-05-2.85702E-05-1.11125E-09-1.72312E-18-3.27611E-19
 -1      2085 9.52382E-05-2.85742E-05-2.85703E-05-1.25414E-09-2.91733E-18 1.12758E-18
 -1      2086 9.52382E-05-2.85740E-05-2.85704E-05-1.67461E-09-2.22841E-18 9.17981E-19
 -1      2087 9.52385E-05-2.85749E-05-2.85701E-05-6.76610E-10-1.34116E-18-1.18689E-18
 -1      2088 9.52385E-05-2.85747E-05-2.85702E-05-8.80472E-10-1.02003E-18-6.09770E-19
 -1      2089 9.52385E-05-2.85745E-05-2.85703E-05-1.25831E-09-1.24410E-18-1.54665E-19
 -1      2090 9.52386E-05-2.85751E-05-2.85701E-05-1.50770E-10-1.75836E-18 8.34218E-19
 -1      2091 9.52386E-05-2.85751E-05-2.85701E-05-3.86333E-10-1.68417E-18-9.60651E-20
 -1      2092 9.52387E-05-2.85749E-05-2.85702E-05-6.71152E-10-1.32064E-18-5.03899E-19
 -1      2093 9.52386E-05-2.85751E-05-2.85701E-05 3.95217E-10-4.34751E-19-5.44389E-19
 -1      2094 9.52386E-05-2.85751E-05-2.85701E-05 1.59826E-10-7.80301E-19 1.58682E-19
 -1      2095 9.52387E-05-2.85750E-05-2.85702E-05 5.41455E-12-2.39075E-18 9.33282E-19
 -1      2096 9.52385E-05-2.85747E-05-2.85702E-05 8.88490E-10-1.68563E-18-3.16180E-18
 -1      2097 9.52385E-05-2.85749E-05-2.85701E-05 6.85241E-10-9.39379E-19-1.23863E-18
 -1      2098 9.52387E-05-2.85749E-05-2.85702E-05 6.81656E-10-8.66736E-19-2.21131E-18
 -1      2099 9.52382E-05-2.85742E-05-2.85703E-05 1.25540E-09-1.90963E-18-1.27587E-18
 -1      2100 9.52383E-05-2.85745E-05-2.85702E-05 1.11527E-09-1.94751E-18-1.95162E-18
 -1      2101 9.52385E-05-2.85745E-05-2.85703E-05 1.26392E-09-1.31267E-18-2.52833E-18
 -1      2102 9.52379E-05-2.85735E-05-2.85704E-05 1.45031E-09-1.47777E-18 2.83004E-18
 -1      2103 9.52381E-05-2.85739E-05-2.85703E-05 1.39302E-09-2.48629E-18 1.26704E-18
 -1      2104 9.52382E-05-2.85740E-05-2.85704E-05 1.67625E-09-1.40695E-18-6.64855E-20
 -1      2105 9.52375E-05-2.85728E-05-2.85706E-05 1.42440E-09-9.66335E-19 2.17283E-18
 -1      2106 9.52377E-05-2.85732E-05-2.85705E-05 1.46857E-09-1.28103E-18 1.57997E-18
 -1      2107 9.52378E-05-2.85733E-05-2.85705E-05 1.85558E-09-3.76185E-19 2.57802E-18
 -1      2108 9.52372E-05-2.85721E-05-2.85708E-05 1.16350E-09-1.16427E-18 1.69693E-18
 -1      2109 9.52374E-05-2.85724E-05-2.85707E-05 1.31381E-09-1.68598E-18 1.88821E-18
 -1      2110 9.52374E-05-2.85726E-05-2.85706E-05 1.75893E-09-1.25764E-18 2.22510E-18
 -1      2111 9.11016E-05-2.67927E-05-2.75214E-05 5.78400E-06 1.14058E-18 4.21378E-18
 -1      2112 9.33390E-05-2.71724E-05-2.83010E-05 6.64126E-06 1.21851E-18 4.68274E-18
 -1      2113 9.50494E-05-2.70544E-05-2.91334E-05 8.74462E-06 1.38130E-18 3.64109E-18
 -1      2114 9.30620E-05-2.70482E-05-2.83026E-05 7.50342E-06 1.28259E-18 3.16567E-18
 -1      2115 5.97558E-05-3.76601E-05-9.79956E-06 4.67800E-05 3.86501E-18 5.64876E-18
 -1      2116 4.55246E-05-4.01102E-05-3.46803E-06 4.03031E-05 2.69611E-18 5.88540E-18
 -1      2117 1.37921E-04-3.96286E-05-4.14006E-05 4.28610E-05 5.71535E-18 3.62403E-18
 -1      2118 1.18635E-04-4.24823E-05-3.30387E-05 4.10298E-05 5.26770E-18 3.52408E-18
 -1      2119 1.20692E-05-2.98688E-05 6.84311E-06 1.52992E-05 1.15112E-18 6.93381E-18
 -1      2120 1.13392E-05-3.21971E-05 7.87316E-06 4.17481E-06-8.14740E-19 6.26550E-18
 -1      2121 1.54973E-04-3.84825E-05-5.10189E-05-2.56103E-05-3.30089E-18 4.03590E-18
 -1      2122 1.49428E-04-2.98733E-05-5.20687E-05-1.62395E-05-3.69010E-18 2.86244E-18
 -1      2123 6.30124E-05 4.51675E-06-2.90322E-05-6.88116E-06-1.24730E-18-2.23351E-18
 -1      2124 6.83399E-05 2.85155E-06-3.04691E-05-5.31763E-06-1.36497E-18-1.85603E-18
 -1      2125 7.15703E-05-4.45663E-07-3.05676E-05-2.15010E-06-1.26536E-18-1.61593E-18
 -1      2126 6.01840E-05 5.12844E-06-2.78857E-05-8.67442E-06-1.33504E-18-2.34506E-18
 -1      2127 1.50427E-04-2.76239E-05-5.34236E-05-2.28480E-06-4.68579E-18 1.63361E-18
 -1      2128 1.51350E-04-2.94930E-05-5.31266E-05 1.08142E-05-5.29523E-18-5.34259E-19
 -1      2129 1.68564E-04-3.11561E-05-5.83946E-05 1.84938E-05-5.96692E-18-9.90817E-19
 -1      2130 1.68040E-04-2.76289E-05-5.93703E-05-7.96336E-06-5.40958E-18 1.24540E-18
 -1      2131 1.65287E-04-3.50693E-05-5.47805E-05 3.32594E-05 5.48507E-18 3.02518E-18
 -1      2132 1.46410E-04-3.56443E-05-4.75635E-05 3.60233E-05 5.82526E-18 3.61598E-18
 -1      2133 1.47674E-04-4.71675E-05-4.26498E-05 2.50950E-05 3.87666E-18 6.17487E-19
 -1      2134 1.84866E-04-2.93333E-05-6.55137E-05 1.76604E-05 5.62938E-18 1.30443E-18
 -1      2135 1.72167E-04-2.91409E-05-6.07490E-05 2.38115E-05 5.66263E-18 2.49536E-18
 -1      2136 1.90480E-04-2.41612E-05-7.03639E-05 4.11814E-06 5.66538E-18 2.31875E-20
 -1      2137 1.87490E-04-2.49779E-05-6.86760E-05 1.30196E-05 5.84792E-18 1.17822E-18
 -1      2138 1.83706E-04-2.16776E-05-6.88762E-05-6.44037E-06 5.19358E-18-1.12994E-18
 -1      2139 1.89072E-04-2.26202E-05-7.03163E-05 8.49464E-07 5.46336E-18 5.31381E-20
 -1      2140 1.74127E-04-2.77617E-05-6.22672E-05-1.97420E-05 5.00215E-18-2.84476E-18
 -1      2141 1.81777E-04-2.61733E-05-6.60452E-05-1.07630E-05 4.78574E-18-1.50179E-18
 -1      2142 1.54416E-04-3.14052E-05-5.26091E-05-3.17189E-05 4.90866E-18-3.83452E-18
 -1      2143 1.71371E-04-3.23470E-05-5.87371E-05-2.72230E-05 4.84895E-18-3.31190E-18
 -1      2144 1.62563E-04-2.75087E-05-5.69436E-05-6.18871E-06 4.41283E-18-7.13625E-19
 -1      2145 1.21860E-04-3.40623E-05-3.80804E-05-4.28088E-05 4.52316E-18-4.45073E-18
 -1      2146 1.42531E-04-3.42003E-05-4.57625E-05-4.27129E-05 4.67753E-18-4.25507E-18
 -1      2147 8.86455E-05-3.55951E-05-2.34648E-05-4.61722E-05 3.35425E-18-4.36180E-18
 -1      2148 1.07548E-04-3.30613E-05-3.15156E-05-4.98876E-05 4.41685E-18-4.82893E-18
 -1      2149 1.26247E-04-4.43710E-05-3.48671E-05-3.86217E-05 2.14744E-18-2.38164E-18
 -1      2150 5.56651E-05-3.31176E-05-1.00620E-05-4.66362E-05 7.40307E-19-4.47170E-18
 -1      2151 7.20256E-05-3.33068E-05-1.66087E-05-5.03822E-05 2.42590E-18-4.84503E-18
 -1      2152 1.99505E-05-3.10163E-05 3.14608E-06-2.84549E-05 4.15893E-19-4.74042E-18
 -1      2153 3.08566E-05-2.58317E-05-2.79724E-06-3.96429E-05 6.12405E-19-4.93016E-18
 -1      2154 9.47974E-06-3.08534E-05 7.52781E-06-1.26232E-05-8.99231E-19-4.78616E-18
 -1      2155 1.21499E-05-2.87131E-05 5.82809E-06-2.11083E-05 4.89162E-19-4.69722E-18
 -1      2156 1.76436E-05-1.95568E-05 2.59574E-07-2.99155E-05-5.38501E-19-5.22704E-18
 -1      2157 1.46888E-05-2.73483E-05 4.33721E-06 8.30579E-06-1.54435E-18-5.30158E-18
 -1      2158 1.03029E-05-3.10355E-05 7.10939E-06-3.15729E-06-8.73966E-19-5.05467E-18
 -1      2159 4.69147E-05-4.02156E-05-4.09157E-06 2.82113E-05-3.03831E-18-5.60196E-18
 -1      2160 3.30062E-05-3.49004E-05-1.48802E-07 2.25067E-05-1.70169E-18-5.09363E-18
 -1      2161 8.81801E-05-5.01255E-05-1.69952E-05 3.62575E-05-3.01290E-18-5.05118E-18
 -1      2162 6.48772E-05-4.76551E-05-9.13321E-06 2.96421E-05-2.76090E-18-5.15928E-18
 -1      2163 6.94922E-05-4.43037E-05-1.13208E-05 3.50896E-05-2.23617E-19-4.31182E-18
 -1      2164 1.41088E-04-5.98373E-05-3.49060E-05 2.87180E-05-4.03611E-18-4.02764E-18
 -1      2165 1.14941E-04-5.86254E-05-2.54792E-05 2.75064E-05-3.11073E-18-3.89720E-18
 -1      2166 1.81146E-04-5.95142E-05-5.16191E-05 1.01552E-05-3.88068E-18-2.46317E-18
 -1      2167 1.56253E-04-5.92555E-05-4.22668E-05 1.61955E-05-4.24152E-18-3.39491E-18
 -1      2168 1.59176E-04-6.92122E-05-3.84152E-05 9.08378E-06-1.67458E-18-4.70950E-19
 -1      2169 2.06910E-04-4.74238E-05-6.66195E-05-3.03884E-06-4.84842E-18-1.82493E-18
 -1      2170 1.90545E-04-4.92053E-05-5.96818E-05 1.21531E-07-4.25803E-18-2.29715E-18
 -1      2171 1.95728E-04-3.47972E-05-6.79488E-05-9.48330E-06-5.49386E-18 1.94182E-19
 -1      2172 1.95105E-04-3.99290E-05-6.56553E-05-1.03273E-05-5.41423E-18-5.94617E-19
 -1      2173 1.98540E-04-3.51247E-05-6.87723E-05 6.32456E-07-6.84149E-18 4.11658E-19
 -1      2174 1.97390E-04-3.21930E-05-6.96894E-05 8.00662E-07-6.33877E-18-8.03781E-19
 -1      2175 1.85755E-04-4.59251E-05-5.96495E-05 7.23699E-06-5.46124E-18 1.83806E-19
 -1      2176 1.98382E-04-4.27010E-05-6.53167E-05 9.09343E-06-5.86147E-18-3.32460E-19
 -1      2177 1.63720E-04-5.60823E-05-4.67660E-05-1.55933E-05-6.01880E-18 3.71509E-18
 -1      2178 1.87452E-04-5.56369E-05-5.50997E-05-9.09287E-06-6.39595E-18 2.00916E-18
 -1      2179 1.23285E-04-5.76156E-05-2.94278E-05-2.74110E-05-4.33723E-18 4.86070E-18
 -1      2180 1.49538E-04-5.83094E-05-3.88832E-05-2.85253E-05-4.94879E-18 5.03392E-18
 -1      2181 7.79430E-05-5.26188E-05-1.24811E-05-3.24297E-05-3.48469E-18 4.15586E-18
 -1      2182 1.01219E-04-5.34949E-05-2.10484E-05-3.67519E-05-4.23516E-18 5.17114E-18
 -1      2183 3.61090E-05-4.40476E-05 1.49079E-06-2.30148E-05-1.61953E-18 5.17325E-18
 -1      2184 5.28700E-05-4.34289E-05-5.04573E-06-3.28545E-05-2.60886E-18 4.35121E-18
 -1      2185 1.52363E-05-3.57244E-05 7.45884E-06-8.34528E-06-8.98914E-19 5.54425E-18
 -1      2186 2.33574E-05-3.87878E-05 5.20978E-06-1.67057E-05-2.13961E-18 5.63023E-18
 -1      2187 3.64476E-05-3.46327E-05-1.52875E-06-2.78296E-05 1.21168E-18 4.79463E-18
 -1      2188 3.13200E-05-3.52277E-05 9.74766E-07 3.60445E-05 2.75921E-18 7.19300E-18
 -1      2189 2.13941E-05-3.49097E-05 4.71853E-06 2.82005E-05 9.73664E-19 7.31074E-18
 -1      2190 4.73364E-05-3.60034E-05-5.30312E-06 4.56574E-05 1.18161E-19 5.92288E-18
 -1      2191 1.69453E-04-5.06743E-05-5.10422E-05 2.85339E-05-3.78899E-18-2.60780E-18
 -1      2192 1.71111E-04-4.47910E-05-5.41369E-05-2.64688E-05-3.53170E-18 2.80198E-18
 -1      2193 8.03868E-05-4.61117E-05-1.48977E-05 4.95525E-05 5.76406E-19 3.90466E-18
 -1      2194 1.66161E-04-6.35746E-05-4.39071E-05-1.51188E-05-5.03058E-19 2.77319E-18
 -1      2195 1.20514E-04-2.97967E-05-3.89161E-05 5.59753E-06-1.04008E-18 2.06014E-18
 -1      2196 1.09460E-04-2.48307E-05-3.63949E-05 8.69116E-06-7.77623E-19 9.43899E-19
 -1      2197 1.19562E-04-5.14616E-05-2.89267E-05 4.18204E-05 2.72745E-18 2.20758E-18
 -1      2198 1.62412E-04-3.36523E-05-5.42810E-05 1.25680E-05 4.88886E-18 3.90059E-19
 -1      2199 1.61136E-04-6.31836E-05-4.24005E-05 1.41618E-05-6.86361E-19-3.45611E-18
 -1      2200 9.52369E-05-2.85714E-05-2.85709E-05 6.58659E-10 1.51194E-18 9.72070E-19
 -1      2201 9.52370E-05-2.85718E-05-2.85708E-05-1.28047E-09 6.14472E-19-6.69725E-19
 -1      2202 2.05121E-05-2.47921E-05 1.40840E-06 2.53906E-05 2.22134E-19 7.68937E-18
 -1      2203 9.52370E-05-2.85716E-05-2.85709E-05 8.39367E-10 1.63082E-19 2.30754E-18
 -1      2204 9.52371E-05-2.85719E-05-2.85708E-05 1.03853E-09-9.68407E-19 3.50771E-18
 -1      2205 9.52371E-05-2.85720E-05-2.85707E-05 1.48440E-09-1.38492E-18 3.18424E-18
 -1      2206 9.52368E-05-2.85716E-05-2.85708E-05 1.14559E-09-7.36705E-19 3.84099E-18
 -1      2207 1.58543E-05-2.34487E-05 2.72570E-06-4.65578E-06 7.09231E-19 6.72968E-18
 -1      2208 7.73879E-05-5.10710E-05-1.18026E-05-3.67071E-05-2.45640E-19 3.57263E-18
 -1      2209 1.27545E-04-6.51609E-05-2.68533E-05-2.79424E-05-1.47468E-18 2.37106E-18
 -1      2210 1.64227E-04-6.57117E-05-4.22988E-05-6.59598E-06-3.31698E-18 1.05540E-18
 -1      2211 1.81989E-04-5.72671E-05-5.25259E-05-1.12345E-05-3.07949E-18 2.43945E-19
 -1      2212 1.17099E-04-6.20640E-05-2.38081E-05 2.93890E-05-6.00970E-19-2.32839E-18
 -1      2213 1.03196E-05-1.77139E-05 2.43479E-06-7.96273E-06-6.48060E-19-5.53536E-18
 -1      2214 9.28649E-05-4.20956E-05-2.20402E-05-4.83342E-05 4.57821E-19-3.28373E-18
 -1      2215 1.51818E-04-3.93273E-05-4.75706E-05-2.21265E-05 3.22381E-18-1.64197E-18
 -1      2216 1.64945E-04-1.57504E-05-6.30668E-05 3.90764E-07 5.14742E-18-1.82959E-19
 -1      2217 1.67420E-04-1.16936E-05-6.56704E-05 1.45058E-06 5.92711E-18-2.22743E-19
 -1      2218 1.67672E-04-1.88097E-05-6.26570E-05 3.06100E-06 5.77804E-18-1.83171E-19
 -1      2219 4.77938E-05-2.88405E-05-8.16401E-06-4.65260E-05-4.78574E-20-4.65550E-18
 -1      2220 6.42358E-05-3.22137E-05-1.39913E-05-5.07690E-05-1.37346E-18-3.80318E-18
 -1      2221 4.09671E-05-2.25323E-05-7.43557E-06-4.57975E-05-1.12253E-18-4.50134E-18
 -1      2222 2.77013E-05-2.67377E-05-8.93899E-07 1.80399E-05-9.74511E-19-5.35770E-18
 -1      2223 2.41298E-05-1.59046E-05-3.17781E-06 1.46528E-05-1.74065E-19-5.05509E-18
 -1      2224 4.20084E-05-2.57413E-05-7.23947E-06 2.75015E-05 3.20814E-19-4.70802E-18
 -1      2225 6.93589E-05-5.12591E-06-2.73328E-05-2.16383E-05-1.51182E-18-2.36309E-18
 -1      2226 6.32193E-05-1.54168E-06-2.65736E-05-2.13558E-05-1.57819E-18-2.53741E-18
 -1      2227 5.78197E-05 2.97911E-06-2.59029E-05-1.86530E-05-1.48928E-18-2.72979E-18
 -1      2228 5.51857E-05 4.96257E-06-2.58358E-05-1.57773E-05-1.48305E-18-2.73035E-18
 -1      2229 6.01809E-05-9.07988E-07-2.53025E-05-2.26608E-05-1.60265E-18-2.64101E-18
 -1      2230 9.31510E-05-1.94090E-05-3.15886E-05-1.15015E-05-6.49133E-19-1.42547E-18
 -1      2231 8.86357E-05-1.72259E-05-3.06408E-05-1.48192E-05-9.50659E-19-1.60012E-18
 -1      2232 9.88125E-05-2.15684E-05-3.31608E-05-3.65106E-06 3.14329E-23-1.21872E-18
 -1      2233 9.64663E-05-2.07117E-05-3.24698E-05-7.10489E-06-3.64236E-19-1.33764E-18
 -1      2234 9.81613E-05-2.41171E-05-3.18117E-05-9.80229E-06-6.05480E-19-1.13791E-18
 -1      2235 1.00744E-04-2.14937E-05-3.40571E-05 3.14836E-06 5.98094E-19-9.95489E-19
 -1      2236 1.00061E-04-2.15136E-05-3.36737E-05 1.56175E-07 2.36092E-19-1.09831E-18
 -1      2237 1.02572E-04-2.51526E-05-3.32102E-05-1.44063E-06 3.38267E-20-8.38854E-19
 -1      2238 1.00467E-04-2.05349E-05-3.43644E-05 8.62496E-06 1.27445E-18-4.78216E-19
 -1      2239 1.00740E-04-2.08984E-05-3.42481E-05 6.13110E-06 8.73351E-19-7.38282E-19
 -1      2240 1.03439E-04-2.43626E-05-3.38863E-05 5.21623E-06 6.94650E-19-5.52715E-19
 -1      2241 9.92758E-05-1.97834E-05-3.41877E-05 1.27152E-05 1.75545E-18-5.71350E-20
 -1      2242 9.98837E-05-2.00068E-05-3.42836E-05 1.07480E-05 1.45088E-18-3.26769E-19
 -1      2243 1.02422E-04-2.31521E-05-3.39505E-05 1.00453E-05 1.29545E-18-2.09647E-19
 -1      2244 9.82711E-05-2.01201E-05-3.36427E-05 1.54038E-05 2.05353E-18 7.22016E-19
 -1      2245 9.86560E-05-1.97286E-05-3.38925E-05 1.40526E-05 1.79901E-18 2.75511E-19
 -1      2246 1.00818E-04-2.25095E-05-3.35210E-05 1.31940E-05 1.65290E-18 3.19920E-19
 -1      2247 9.84447E-05-2.24072E-05-3.27148E-05 1.59864E-05 2.14929E-18 2.23987E-18
 -1      2248 9.81075E-05-2.08455E-05-3.31509E-05 1.58500E-05 2.08284E-18 1.33672E-18
 -1      2249 9.95677E-05-2.31616E-05-3.26799E-05 1.45397E-05 1.91661E-18 1.17876E-18
 -1      2250 9.89484E-05-2.54081E-05-3.16024E-05 1.36866E-05 1.93642E-18 3.53800E-18
 -1      2251 9.84277E-05-2.33456E-05-3.21741E-05 1.51980E-05 2.02261E-18 2.81743E-18
 -1      2252 9.84162E-05-2.47950E-05-3.15567E-05 1.35479E-05 1.96165E-18 2.17790E-18
 -1      2253 9.71507E-05-2.63932E-05-3.03430E-05 1.10843E-05 1.74656E-18 3.27051E-18
 -1      2254 1.30904E-04-5.57213E-05-3.23793E-05 3.28929E-05 9.73347E-19 3.08744E-19
 -1      2255 1.12509E-04-5.45176E-05-2.48953E-05 4.15127E-05-3.66342E-20 1.17801E-18
 -1      2256 1.01617E-04-2.52533E-05-3.24628E-05 1.71579E-05 2.68589E-19 3.27325E-19
 -1      2257 1.04919E-04-3.05557E-05-3.16556E-05 1.98643E-05 7.34431E-19 4.85151E-19
 -1      2258 1.08141E-04-3.71155E-05-2.99107E-05 2.36434E-05 1.30337E-18 6.41151E-19
 -1      2259 1.15513E-04-4.64882E-05-2.93596E-05 2.29243E-05 1.70825E-18 7.49518E-19
 -1      2260 9.04257E-05-2.79276E-05-2.67495E-05 2.44293E-05 1.01951E-18-6.12352E-19
 -1      2261 9.45966E-05-1.51958E-05-3.39769E-05 5.80555E-06-9.06206E-19-1.93838E-19
 -1      2262 9.90817E-05-2.12156E-05-3.33051E-05 1.25842E-05-3.37152E-19 1.27746E-19
 -1      2263 8.57529E-05-1.63531E-05-2.97656E-05 1.48437E-05-4.05385E-20-7.64659E-19
 -1      2264 8.22469E-05-8.13190E-06-3.16657E-05 4.53895E-06-9.30426E-19-9.48597E-19
 -1      2265 9.52368E-05-2.85718E-05-2.85707E-05-1.58808E-09 8.06392E-19-8.19360E-19
 -1      2266 1.18204E-04-4.48514E-05-3.13422E-05-2.37437E-05 2.36110E-18-2.89659E-19
 -1      2267 1.11688E-04-3.73225E-05-3.15138E-05-2.54940E-05 2.44489E-18 2.97461E-19
 -1      2268 1.08528E-04-3.30115E-05-3.22666E-05-2.39899E-05 1.83585E-18 7.06895E-19
 -1      2269 1.04540E-04-2.94369E-05-3.21007E-05-2.33032E-05 1.78461E-18 9.19478E-19
 -1      2270 9.74663E-05-3.15843E-05-2.82241E-05-2.81860E-05 2.32503E-18 1.31184E-18
 -1      2271 1.04017E-04-2.80385E-05-3.24888E-05-2.08326E-05 1.10637E-18 6.02767E-19
 -1      2272 1.01601E-04-2.66767E-05-3.21145E-05-1.89569E-05 4.30455E-19 4.74287E-19
 -1      2273 9.44091E-05-2.48042E-05-2.98054E-05-2.35230E-05 1.24755E-18 1.16541E-18
 -1      2274 1.01936E-04-2.67187E-05-3.21704E-05-1.65390E-05-3.24189E-20 6.38567E-19
 -1      2275 1.00288E-04-2.63480E-05-3.17123E-05-1.44953E-05-4.60806E-20-8.34609E-20
 -1      2276 9.45780E-05-2.32627E-05-3.05279E-05-1.85490E-05 2.55835E-19 9.12961E-19
 -1      2277 1.00673E-04-2.68228E-05-3.15879E-05-1.24493E-05 1.90139E-19-2.09727E-19
 -1      2278 9.94402E-05-2.68030E-05-3.11502E-05-1.06830E-05-3.34575E-19-2.16304E-19
 -1      2279 9.54405E-05-2.38810E-05-3.06360E-05-1.41173E-05-3.76324E-19 8.86200E-19
 -1      2280 9.96605E-05-2.72927E-05-3.09600E-05-9.07259E-06-1.54815E-20-6.33316E-19
 -1      2281 9.87067E-05-2.73598E-05-3.05902E-05-7.69821E-06-2.54811E-19-6.68651E-20
 -1      2282 9.61151E-05-2.50475E-05-3.04343E-05-1.04745E-05-2.86975E-19 4.24939E-20
 -1      2283 9.87672E-05-2.77394E-05-3.03959E-05-6.48515E-06-5.88595E-19 3.86280E-19
 -1      2284 9.80298E-05-2.78047E-05-3.01038E-05-5.47309E-06 2.69166E-19 4.56686E-20
 -1      2285 9.64427E-05-2.61267E-05-3.01214E-05-7.63398E-06 1.65532E-19 2.44496E-19
 -1      2286 9.79882E-05-2.80659E-05-2.99325E-05-4.58427E-06 6.21302E-19 3.50592E-19
 -1      2287 9.74253E-05-2.81094E-05-2.97106E-05-3.86114E-06 8.42472E-19-4.08561E-19
 -1      2288 9.64996E-05-2.69479E-05-2.98008E-05-5.49690E-06 3.98115E-19 3.53270E-19
 -1      2289 9.73337E-05-2.82778E-05-2.95702E-05-3.22092E-06 8.39482E-19-4.06768E-19
 -1      2290 9.69101E-05-2.83012E-05-2.94055E-05-2.71234E-06 3.87445E-19-2.10751E-19
 -1      2291 9.63979E-05-2.75187E-05-2.95170E-05-3.92721E-06 6.19643E-19 6.48968E-20
 -1      2292 9.68029E-05-2.84052E-05-2.92951E-05-2.25556E-06-7.59435E-20 1.21865E-19
 -1      2293 9.64871E-05-2.84154E-05-2.91745E-05-1.90009E-06 6.78073E-20-6.37566E-19
 -1      2294 9.62246E-05-2.78961E-05-2.92835E-05-2.79167E-06 2.59303E-19-5.78492E-20
 -1      2295 9.63778E-05-2.84805E-05-2.90860E-05-1.56095E-06 1.15934E-19-1.52198E-19
 -1      2296 9.61376E-05-2.84825E-05-2.89953E-05-1.30435E-06 2.03959E-19-2.23457E-19
 -1      2297 9.60295E-05-2.81415E-05-2.90952E-05-1.96199E-06-5.40157E-20 7.71563E-19
 -1      2298 9.60489E-05-2.85178E-05-2.89328E-05-1.07884E-06 9.46893E-19 1.91374E-19
 -1      2299 9.58831E-05-2.85165E-05-2.88710E-05-9.09073E-07 5.88556E-19 1.78884E-18
 -1      2300 9.58470E-05-2.82977E-05-2.89512E-05-1.37104E-06 6.25569E-19 9.79768E-19
 -1      2301 9.58090E-05-2.85371E-05-2.88245E-05-7.48690E-07-6.22910E-19 2.28630E-18
 -1      2302 9.56895E-05-2.85345E-05-2.87803E-05-6.29987E-07-4.26419E-19 1.99941E-18
 -1      2303 9.56941E-05-2.83913E-05-2.88455E-05-9.63018E-07 6.38205E-19 1.69941E-18
 -1      2304 9.56308E-05-2.85463E-05-2.87460E-05-5.16082E-07 4.02741E-19 2.30151E-18
 -1      2305 9.55454E-05-2.85437E-05-2.87146E-05-4.32880E-07 1.11489E-18 1.52379E-18
 -1      2306 9.55693E-05-2.84501E-05-2.87667E-05-6.72000E-07-5.75107E-20 9.48848E-19
 -1      2307 9.55003E-05-2.85505E-05-2.86896E-05-3.51989E-07 1.47733E-19 9.53815E-19
 -1      2308 9.54402E-05-2.85486E-05-2.86675E-05-2.93630E-07-7.32857E-20 1.16646E-19
 -1      2309 9.54713E-05-2.84874E-05-2.87085E-05-4.64455E-07 1.61640E-19 5.20966E-19
 -1      2310 9.54064E-05-2.85526E-05-2.86494E-05-2.36272E-07 1.99101E-19-5.20992E-19
 -1      2311 9.53648E-05-2.85514E-05-2.86340E-05-1.95404E-07-1.23871E-19-7.94594E-20
 -1      2312 9.53966E-05-2.85116E-05-2.86660E-05-3.16594E-07-1.43660E-19-9.79001E-19
 -1      2313 9.53401E-05-2.85540E-05-2.86210E-05-1.54899E-07-2.45157E-19-1.93917E-19
 -1      2314 9.53118E-05-2.85535E-05-2.86104E-05-1.26419E-07-5.34260E-19-2.92996E-19
 -1      2315 9.53412E-05-2.85276E-05-2.86351E-05-2.11560E-07-6.41147E-20-5.32614E-19
 -1      2316 9.52942E-05-2.85552E-05-2.86013E-05-9.80234E-08-7.48618E-19-8.26455E-19
 -1      2317 9.52755E-05-2.85553E-05-2.85942E-05-7.83543E-08-7.73163E-19-9.07815E-19
 -1      2318 9.53011E-05-2.85387E-05-2.86130E-05-1.37367E-07-7.84942E-19-2.05950E-18
 -1      2319 9.52634E-05-2.85566E-05-2.85878E-05-5.86770E-08-8.70346E-19-8.44410E-19
 -1      2320 9.52515E-05-2.85571E-05-2.85831E-05-4.52873E-08-6.50957E-19-9.03693E-19
 -1      2321 9.52729E-05-2.85466E-05-2.85974E-05-8.54330E-08-9.25693E-19-1.47763E-18
 -1      2322 9.52433E-05-2.85582E-05-2.85788E-05-3.18812E-08-1.29326E-18-5.16511E-19
 -1      2323 9.52362E-05-2.85589E-05-2.85759E-05-2.29611E-08-1.92618E-18-4.99039E-19
 -1      2324 9.52537E-05-2.85525E-05-2.85865E-05-4.95692E-08-7.51544E-19-2.28211E-18
 -1      2325 9.52311E-05-2.85598E-05-2.85730E-05-1.40487E-08-2.12290E-18-2.19783E-19
 -1      2326 9.52272E-05-2.85607E-05-2.85713E-05-8.29406E-09-1.67841E-18-6.36033E-19
 -1      2327 9.52412E-05-2.85570E-05-2.85792E-05-2.52804E-08-1.80687E-18-7.34122E-19
 -1      2328 9.52241E-05-2.85614E-05-2.85695E-05-2.57732E-09 5.82132E-20-9.54230E-19
 -1      2329 9.52225E-05-2.85624E-05-2.85686E-05 9.56742E-10 1.37990E-18-6.49409E-19
 -1      2330 9.52334E-05-2.85604E-05-2.85743E-05-9.28239E-09-7.89248E-19-4.79306E-19
 -1      2331 9.52209E-05-2.85630E-05-2.85675E-05 4.42820E-09 2.70411E-18-8.65220E-19
 -1      2332 9.52206E-05-2.85639E-05-2.85671E-05 6.42763E-09 3.31118E-18 1.01601E-19
 -1      2333 9.52290E-05-2.85631E-05-2.85712E-05 8.32999E-10 1.76566E-18-3.83957E-19
 -1      2334 9.52199E-05-2.85645E-05-2.85666E-05 8.34886E-09 3.30508E-18 7.06486E-19
 -1      2335 9.52206E-05-2.85653E-05-2.85665E-05 9.31083E-09 3.29006E-18 1.41382E-18
 -1      2336 9.52269E-05-2.85652E-05-2.85694E-05 6.83251E-09 3.54073E-18 9.23539E-19
 -1      2337 9.52205E-05-2.85658E-05-2.85663E-05 1.01879E-08 2.69569E-18 2.01742E-18
 -1      2338 9.52216E-05-2.85665E-05-2.85665E-05 1.04706E-08 2.69313E-18 2.47774E-18
 -1      2339 9.52263E-05-2.85669E-05-2.85684E-05 1.00089E-08 3.77319E-18 2.93242E-19
 -1      2340 9.52220E-05-2.85669E-05-2.85664E-05 1.06688E-08 2.43358E-18 3.13681E-18
 -1      2341 9.52233E-05-2.85675E-05-2.85667E-05 1.05275E-08 2.31538E-18 3.27431E-18
 -1      2342 9.52267E-05-2.85681E-05-2.85680E-05 1.13022E-08 2.67045E-18 3.56762E-18
 -1      2343 9.52238E-05-2.85679E-05-2.85669E-05 1.03070E-08 1.02574E-18 2.59937E-18
 -1      2344 9.52252E-05-2.85684E-05-2.85672E-05 9.92079E-09 6.53637E-20 3.31080E-18
 -1      2345 9.52276E-05-2.85691E-05-2.85680E-05 1.13887E-08 1.03867E-18 2.26621E-18
 -1      2346 9.52258E-05-2.85687E-05-2.85674E-05 9.46355E-09-5.35734E-19 3.03813E-18
 -1      2347 9.52272E-05-2.85691E-05-2.85677E-05 8.95489E-09-8.23238E-19 3.43264E-18
 -1      2348 9.52288E-05-2.85698E-05-2.85682E-05 1.07476E-08-1.35098E-20 2.37392E-18
 -1      2349 9.52278E-05-2.85693E-05-2.85680E-05 8.38454E-09-1.70488E-18 4.16969E-18
 -1      2350 9.52290E-05-2.85697E-05-2.85683E-05 7.83426E-09-1.26469E-18 2.52215E-18
 -1      2351 9.52301E-05-2.85703E-05-2.85685E-05 9.71115E-09-1.33479E-18 1.12864E-18
 -1      2352 9.52296E-05-2.85698E-05-2.85685E-05 7.23141E-09-4.63667E-19 2.63667E-18
 -1      2353 9.52307E-05-2.85701E-05-2.85688E-05 6.68968E-09 4.40495E-19 1.83174E-18
 -1      2354 9.52313E-05-2.85707E-05-2.85689E-05 8.50235E-09-1.09411E-18 3.48321E-18
 -1      2355 9.52313E-05-2.85702E-05-2.85690E-05 6.10333E-09 4.88236E-19 1.86965E-18
 -1      2356 9.52322E-05-2.85705E-05-2.85693E-05 5.59791E-09-3.20468E-19 1.08176E-18
 -1      2357 9.52325E-05-2.85710E-05-2.85692E-05 7.26358E-09 3.62032E-19 3.22137E-18
 -1      2358 9.52327E-05-2.85706E-05-2.85695E-05 5.05402E-09 1.85957E-19 2.44146E-18
 -1      2359 9.52335E-05-2.85708E-05-2.85697E-05 4.59619E-09 5.07072E-19 2.85781E-18
 -1      2360 9.52336E-05-2.85712E-05-2.85696E-05 6.07814E-09 5.23483E-19 3.58584E-18
 -1      2361 9.52339E-05-2.85709E-05-2.85699E-05 4.10371E-09-7.01471E-19 3.32165E-18
 -1      2362 9.52345E-05-2.85710E-05-2.85701E-05 3.69245E-09-8.80726E-19 3.90997E-18
 -1      2363 9.52345E-05-2.85713E-05-2.85699E-05 4.98629E-09-1.71081E-19 3.65579E-18
 -1      2364 9.52349E-05-2.85711E-05-2.85702E-05 3.24861E-09-1.30414E-18 4.13643E-18
 -1      2365 9.52354E-05-2.85712E-05-2.85704E-05 2.87445E-09-8.83870E-19 3.52093E-18
 -1      2366 9.52352E-05-2.85715E-05-2.85702E-05 3.99684E-09-3.35029E-19 4.16073E-18
 -1      2367 9.52357E-05-2.85713E-05-2.85705E-05 2.46905E-09-6.57164E-19 4.39230E-18
 -1      2368 9.52361E-05-2.85714E-05-2.85706E-05 2.11849E-09-2.10104E-18 5.44290E-18
 -1      2369 9.52359E-05-2.85716E-05-2.85704E-05 3.10132E-09-7.20839E-19 5.78138E-18
 -1      2370 9.52363E-05-2.85714E-05-2.85707E-05 1.78935E-09-2.66802E-18 5.49806E-18
 -1      2371 9.52366E-05-2.85715E-05-2.85707E-05 1.45609E-09-1.44729E-18 4.38344E-18
 -1      2372 9.52367E-05-2.85718E-05-2.85707E-05 1.66347E-09-2.52486E-18 4.40616E-18
 -1      2373 9.52364E-05-2.85717E-05-2.85706E-05 2.33362E-09-2.41363E-18 4.40996E-18
 -1      2374 8.91249E-05-2.45161E-05-2.76492E-05 2.80566E-06 8.72174E-19 1.53161E-18
 -1      2375 8.98112E-05-2.49507E-05-2.77807E-05 4.03444E-06 1.01709E-18 1.63580E-18
 -1      2376 9.07407E-05-2.55021E-05-2.79211E-05 5.31800E-06 1.05422E-18 1.63805E-18
 -1      2377 9.18216E-05-2.60668E-05-2.81600E-05 6.29050E-06 9.02897E-19 1.83079E-18
 -1      2378 9.28673E-05-2.53159E-05-2.89729E-05 5.61630E-06 1.07622E-18 1.46447E-18
 -1      2379 9.28990E-05-2.65588E-05-2.84035E-05 7.24821E-06 1.02061E-18 1.79563E-18
 -1      2380 9.42157E-05-2.69824E-05-2.87811E-05 8.08687E-06 1.20989E-18 2.09205E-18
 -1      2381 9.48945E-05-2.65061E-05-2.93218E-05 8.01508E-06 1.09628E-18 1.45274E-18
 -1      2382 8.83848E-05-2.40766E-05-2.75295E-05-1.68148E-07 8.72308E-19 1.33491E-18
 -1      2383 8.85779E-05-2.41861E-05-2.75724E-05 1.21484E-06 8.47179E-19 1.52579E-18
 -1      2384 9.13682E-05-2.42973E-05-2.87766E-05 2.51694E-06 9.51180E-19 1.26326E-18
 -1      2385 8.86741E-05-2.44237E-05-2.75208E-05-3.11101E-06 8.85765E-19 9.86517E-19
 -1      2386 8.83580E-05-2.41372E-05-2.74894E-05-1.81866E-06 9.05030E-19 1.20886E-18
 -1      2387 9.07965E-05-2.40085E-05-2.86569E-05-9.88280E-07 1.09630E-18 1.02022E-18
 -1      2388 8.98622E-05-2.54756E-05-2.75952E-05-5.42712E-06 7.85309E-19 8.69039E-19
 -1      2389 8.91335E-05-2.48711E-05-2.75036E-05-4.47996E-06 8.21781E-19 9.29091E-19
 -1      2390 9.12676E-05-2.46631E-05-2.85697E-05-4.24674E-06 9.24724E-19 5.60385E-19
 -1      2391 9.15812E-05-2.68969E-05-2.77328E-05-6.70395E-06 5.85389E-19 8.47091E-19
 -1      2392 9.06182E-05-2.61524E-05-2.75972E-05-6.25050E-06 7.61819E-19 9.60587E-19
 -1      2393 9.25477E-05-2.60671E-05-2.85016E-05-6.59285E-06 6.44937E-19 4.05133E-19
 -1      2394 9.33870E-05-2.82828E-05-2.79153E-05-6.86525E-06 4.08602E-19 7.25004E-19
 -1      2395 9.23857E-05-2.75862E-05-2.77546E-05-6.90237E-06 6.24872E-19 8.29196E-19
 -1      2396 9.41775E-05-2.77622E-05-2.84593E-05-7.65968E-06 6.33697E-19 6.23331E-19
 -1      2397 9.49303E-05-2.93382E-05-2.81218E-05-6.13625E-06 1.64984E-19 4.78895E-19
 -1      2398 9.40440E-05-2.88139E-05-2.79557E-05-6.54165E-06 3.46842E-19 7.36811E-19
 -1      2399 9.56928E-05-2.92713E-05-2.84540E-05-7.49034E-06 4.20193E-19 5.25406E-19
 -1      2400 9.60389E-05-2.99532E-05-2.83286E-05-4.88842E-06-1.32410E-19 4.55034E-19
 -1      2401 9.53508E-05-2.96401E-05-2.81751E-05-5.49234E-06 6.39493E-20 5.16681E-19
 -1      2402 9.67998E-05-3.02962E-05-2.84878E-05-6.43118E-06 1.31063E-19 5.46617E-19
 -1      2403 9.66983E-05-3.01691E-05-2.85143E-05-3.48263E-06 1.22328E-19 4.41221E-19
 -1      2404 9.62277E-05-3.00421E-05-2.83863E-05-4.13029E-06 3.29954E-20 3.46020E-19
 -1      2405 9.74173E-05-3.07711E-05-2.85515E-05-4.92704E-06 1.72686E-19 8.48830E-19
 -1      2406 9.69872E-05-3.01026E-05-2.86636E-05-2.18037E-06 4.57956E-19 4.45762E-19
 -1      2407 9.67110E-05-3.01069E-05-2.85676E-05-2.76431E-06 2.45706E-19 3.84169E-19
 -1      2408 9.76125E-05-3.07949E-05-2.86289E-05-3.36044E-06 3.11845E-19 3.97404E-19
 -1      2409 9.70158E-05-2.98806E-05-2.87696E-05-1.12268E-06 4.08800E-19-1.17327E-20
 -1      2410 9.68915E-05-2.99594E-05-2.87061E-05-1.58806E-06 5.58419E-19 4.71111E-19
 -1      2411 9.75163E-05-3.05331E-05-2.87034E-05-1.98068E-06 4.79333E-19 1.24174E-19
 -1      2412 9.68862E-05-2.96029E-05-2.88327E-05-3.52122E-07-4.50673E-20-7.61325E-20
 -1      2413 9.68683E-05-2.97120E-05-2.87981E-05-6.85522E-07 2.61443E-19 7.21301E-21
 -1      2414 9.72581E-05-3.01423E-05-2.87626E-05-9.03366E-07 4.17342E-19-1.78330E-19
 -1      2415 9.66766E-05-2.93328E-05-2.88588E-05 1.51300E-07-5.60575E-19 5.06226E-19
 -1      2416 9.67253E-05-2.94438E-05-2.88472E-05-6.23635E-08-4.39661E-19 2.98142E-19
 -1      2417 9.69359E-05-2.97349E-05-2.88006E-05-1.46509E-07-4.64052E-19 2.42198E-19
 -1      2418 9.64397E-05-2.91023E-05-2.88566E-05 4.37798E-07-9.87080E-19 4.65037E-19
 -1      2419 9.65243E-05-2.92001E-05-2.88612E-05 3.19730E-07-5.35929E-19 3.23664E-19
 -1      2420 9.66115E-05-2.93749E-05-2.88166E-05 3.27997E-07-5.91491E-19 4.60569E-19
 -1      2421 9.62075E-05-2.89215E-05-2.88351E-05 5.65347E-07-4.92594E-19 6.23505E-19
 -1      2422 9.63063E-05-2.90005E-05-2.88499E-05 5.16280E-07-6.94846E-19 3.93049E-19
 -1      2423 9.63175E-05-2.90881E-05-2.88138E-05 5.81570E-07-9.28979E-19 1.89988E-19
 -1      2424 9.59973E-05-2.87884E-05-2.88025E-05 5.86983E-07 1.77393E-19 1.32159E-18
 -1      2425 9.60962E-05-2.88484E-05-2.88225E-05 5.83124E-07-2.85672E-19 8.59037E-19
 -1      2426 9.60670E-05-2.88769E-05-2.87971E-05 6.78081E-07-5.03487E-19-2.74623E-19
 -1      2427 9.58166E-05-2.86956E-05-2.87652E-05 5.45322E-07 2.19634E-19 1.49863E-18
 -1      2428 9.59073E-05-2.87389E-05-2.87868E-05 5.67846E-07 7.66796E-19 1.38112E-18
 -1      2429 9.58620E-05-2.87314E-05-2.87715E-05 6.73056E-07 3.51365E-19 4.70085E-19
 -1      2430 9.56671E-05-2.86339E-05-2.87278E-05 4.71514E-07 6.71925E-19 1.19723E-18
 -1      2431 9.57455E-05-2.86638E-05-2.87486E-05 5.06857E-07 4.74136E-19 1.31396E-18
 -1      2432 9.56988E-05-2.86375E-05-2.87417E-05 6.09697E-07 6.36635E-19 1.59721E-18
 -1      2433 9.55471E-05-2.85951E-05-2.86933E-05 3.86498E-07 3.05799E-19 1.07491E-18
 -1      2434 9.56119E-05-2.86148E-05-2.87119E-05 4.25682E-07 7.37766E-19 9.35158E-19
 -1      2435 9.55717E-05-2.85811E-05-2.87113E-05 5.18813E-07 9.22527E-19 1.35849E-18
 -1      2436 9.54534E-05-2.85720E-05-2.86631E-05 3.03151E-07 5.35526E-19 8.23663E-19
 -1      2437 9.55050E-05-2.85845E-05-2.86789E-05 3.40768E-07 3.83187E-19 7.35498E-19
 -1      2438 9.54742E-05-2.85505E-05-2.86825E-05 4.20662E-07 6.08056E-19 1.25484E-18
 -1      2439 9.53820E-05-2.85596E-05-2.86379E-05 2.28483E-07 8.35218E-19 1.35541E-19
 -1      2440 9.54217E-05-2.85669E-05-2.86508E-05 2.61688E-07 9.67901E-19 4.60865E-19
 -1      2441 9.54008E-05-2.85365E-05-2.86569E-05 3.27376E-07 8.40962E-19 1.12090E-18
 -1      2442 9.53291E-05-2.85539E-05-2.86178E-05 1.65549E-07 2.56893E-19-2.49178E-19
 -1      2443 9.53586E-05-2.85577E-05-2.86278E-05 1.93199E-07 5.47122E-19-5.14634E-19
 -1      2444 9.53464E-05-2.85326E-05-2.86351E-05 2.45294E-07 1.02579E-18 6.63529E-19
 -1      2445 9.52908E-05-2.85522E-05-2.86021E-05 1.14919E-07-2.72392E-19 1.14922E-20
 -1      2446 9.53121E-05-2.85539E-05-2.86097E-05 1.36920E-07 1.39814E-19 2.88427E-19
 -1      2447 9.53067E-05-2.85343E-05-2.86173E-05 1.76899E-07 1.95943E-19 1.52368E-20
 -1      2448 9.52640E-05-2.85529E-05-2.85903E-05 7.57562E-08-7.79189E-19 5.87796E-19
 -1      2449 9.52787E-05-2.85532E-05-2.85959E-05 9.25902E-08-1.10439E-18 2.07652E-19
 -1      2450 9.52784E-05-2.85387E-05-2.86031E-05 1.22303E-07-1.02688E-18 7.68766E-19
 -1      2451 9.52459E-05-2.85548E-05-2.85818E-05 4.65358E-08 3.29915E-19 1.21332E-18
 -1      2452 9.52557E-05-2.85543E-05-2.85857E-05 5.89518E-08-1.31519E-19 9.86601E-19
 -1      2453 9.52587E-05-2.85442E-05-2.85923E-05 8.03042E-08-8.64437E-19 9.57199E-19
 -1      2454 9.52344E-05-2.85571E-05-2.85759E-05 2.55063E-08 2.98933E-19 1.60054E-18
 -1      2455 9.52404E-05-2.85563E-05-2.85785E-05 3.43252E-08 1.29599E-18 1.55254E-18
 -1      2456 9.52454E-05-2.85496E-05-2.85842E-05 4.90964E-08 2.66675E-19 9.48164E-19
 -1      2457 9.52275E-05-2.85595E-05-2.85719E-05 1.09579E-08 3.48697E-19 1.92732E-18
 -1      2458 9.52309E-05-2.85585E-05-2.85736E-05 1.69612E-08 3.93430E-19 1.96306E-18
 -1      2459 9.52368E-05-2.85544E-05-2.85784E-05 2.67093E-08 1.71558E-19 1.92319E-18
 -1      2460 9.52240E-05-2.85618E-05-2.85695E-05 1.36154E-09 5.41984E-20 1.75314E-18
 -1      2461 9.52255E-05-2.85607E-05-2.85704E-05 5.23656E-09 4.80764E-19 1.37670E-18
 -1      2462 9.52316E-05-2.85586E-05-2.85743E-05 1.12648E-08 5.65221E-19 1.33419E-18
 -1      2463 9.52227E-05-2.85638E-05-2.85681E-05-4.57324E-09 5.31529E-19 7.93374E-19
 -1      2464 9.52229E-05-2.85628E-05-2.85685E-05-2.25401E-09 5.95915E-19 1.36001E-18
 -1      2465 9.52288E-05-2.85620E-05-2.85716E-05 1.10544E-09 7.77609E-19 1.02613E-18
 -1      2466 9.52228E-05-2.85654E-05-2.85674E-05-7.88973E-09-1.66464E-18 2.38615E-18
 -1      2467 9.52223E-05-2.85646E-05-2.85675E-05-6.66861E-09-6.80150E-19 8.88894E-19
 -1      2468 9.52277E-05-2.85646E-05-2.85700E-05-5.15665E-09-4.19292E-19 9.73347E-19
 -1      2469 9.52238E-05-2.85668E-05-2.85673E-05-9.40241E-09-8.11423E-20 9.50016E-19
 -1      2470 9.52229E-05-2.85661E-05-2.85672E-05-8.92585E-09-7.73038E-19 1.72097E-18
 -1      2471 9.52276E-05-2.85667E-05-2.85690E-05-8.63790E-09-7.72961E-19 1.30619E-18
 -1      2472 9.52253E-05-2.85679E-05-2.85674E-05-9.72754E-09 6.92380E-19-3.07225E-19
 -1      2473 9.52242E-05-2.85673E-05-2.85672E-05-9.73086E-09 4.74631E-19 3.71606E-19
 -1      2474 9.52281E-05-2.85682E-05-2.85686E-05-1.02069E-08 9.13033E-19 2.76173E-19
 -1      2475 9.52270E-05-2.85688E-05-2.85678E-05-9.31745E-09 1.78746E-18-1.38412E-18
 -1      2476 9.52258E-05-2.85683E-05-2.85675E-05-9.60858E-09 1.03589E-18-2.45062E-19
 -1      2477 9.52291E-05-2.85693E-05-2.85685E-05-1.05194E-08 1.34865E-18 7.02662E-20
 -1      2478 9.52287E-05-2.85695E-05-2.85682E-05-8.49346E-09-1.62644E-18-9.30427E-19
 -1      2479 9.52275E-05-2.85691E-05-2.85679E-05-8.93782E-09-1.44993E-19-1.14563E-18
 -1      2480 9.52301E-05-2.85701E-05-2.85686E-05-1.00556E-08 6.64958E-19-2.06019E-19
 -1      2481 9.52303E-05-2.85700E-05-2.85687E-05-7.47509E-09 2.51766E-19 1.70920E-19
 -1      2482 9.52292E-05-2.85697E-05-2.85684E-05-7.98237E-09-1.12832E-18-7.18629E-19
 -1      2483 9.52313E-05-2.85706E-05-2.85689E-05-9.15602E-09-1.37929E-18 1.64800E-19
 -1      2484 9.52317E-05-2.85704E-05-2.85691E-05-6.40442E-09-2.30190E-19-2.74969E-19
 -1      2485 9.52308E-05-2.85702E-05-2.85689E-05-6.91777E-09 6.46005E-19 2.51590E-19
 -1      2486 9.52324E-05-2.85710E-05-2.85692E-05-8.05282E-09 2.54093E-19 6.46988E-19
 -1      2487 9.52330E-05-2.85708E-05-2.85695E-05-5.36553E-09 1.60110E-19-9.25513E-19
 -1      2488 9.52322E-05-2.85705E-05-2.85693E-05-5.85304E-09-1.60932E-20-9.27263E-19
 -1      2489 9.52333E-05-2.85712E-05-2.85695E-05-6.89563E-09 8.05343E-20 1.78852E-19
 -1      2490 9.52341E-05-2.85710E-05-2.85699E-05-4.39966E-09 8.84187E-19-1.17089E-19
 -1      2491 9.52334E-05-2.85708E-05-2.85697E-05-4.84782E-09-6.50316E-20-1.59734E-18
 -1      2492 9.52342E-05-2.85714E-05-2.85698E-05-5.77239E-09 5.77302E-19-1.82397E-18
 -1      2493 9.52350E-05-2.85712E-05-2.85702E-05-3.51669E-09 1.34323E-18 3.05107E-19
 -1      2494 9.52344E-05-2.85711E-05-2.85700E-05-3.92569E-09 1.31636E-18 6.67727E-19
 -1      2495 9.52350E-05-2.85715E-05-2.85701E-05-4.72661E-09 6.67447E-19-8.03533E-19
 -1      2496 9.52358E-05-2.85714E-05-2.85705E-05-2.70776E-09-1.55702E-19 1.25577E-18
 -1      2497 9.52353E-05-2.85713E-05-2.85703E-05-3.08477E-09 1.28987E-18 1.05199E-18
 -1      2498 9.52356E-05-2.85716E-05-2.85703E-05-3.76864E-09 7.39088E-19 6.74088E-19
 -1      2499 9.52364E-05-2.85716E-05-2.85706E-05-1.95394E-09 7.55211E-19-6.58975E-19
 -1      2500 9.52360E-05-2.85714E-05-2.85705E-05-2.30196E-09-5.56150E-20 1.96070E-19
 -1      2501 9.52362E-05-2.85717E-05-2.85705E-05-2.88627E-09 7.52639E-19 1.10024E-18
 -1      2502 9.52384E-05-2.85742E-05-2.85704E-05-1.89371E-09-1.35295E-18 1.82332E-18
 -1      2503 9.52382E-05-2.85739E-05-2.85704E-05-2.06247E-09-1.37220E-18 4.08753E-19
 -1      2504 9.52380E-05-2.85735E-05-2.85705E-05-2.19107E-09-1.42280E-18-4.17043E-19
 -1      2505 9.52377E-05-2.85732E-05-2.85705E-05-2.21455E-09-6.11967E-19 1.36635E-19
 -1      2506 9.52382E-05-2.85737E-05-2.85705E-05-2.46312E-09-1.06276E-18 2.83691E-19
 -1      2507 9.52375E-05-2.85728E-05-2.85706E-05-2.18919E-09-8.11590E-20 3.28958E-19
 -1      2508 9.52372E-05-2.85724E-05-2.85706E-05-2.06727E-09 7.62524E-19-7.91478E-19
 -1      2509 9.52376E-05-2.85730E-05-2.85705E-05-2.56328E-09 7.02142E-19-9.42608E-20
 -1      2510 3.14225E-05-2.08233E-05-4.11955E-06 3.49612E-05-5.41254E-19 6.53719E-18
 -1      2511 2.17429E-05-1.47496E-05-2.46910E-06 1.95080E-05 1.36902E-19 6.97743E-18
 -1      2512 9.52388E-05-2.85747E-05-2.85703E-05-1.34144E-09-3.05883E-19 1.28226E-20
 -1      2513 9.52386E-05-2.85744E-05-2.85704E-05-1.61926E-09-1.39724E-18 1.07958E-18
 -1      2514 9.52387E-05-2.85743E-05-2.85704E-05-2.02440E-09-3.08190E-19 1.47669E-18
 -1      2515 9.52390E-05-2.85750E-05-2.85703E-05-6.14309E-10-1.73504E-18-4.78162E-19
 -1      2516 9.52389E-05-2.85748E-05-2.85703E-05-9.62873E-10-1.18478E-18-1.10086E-18
 -1      2517 9.52390E-05-2.85748E-05-2.85704E-05-1.32555E-09-1.15919E-18-5.30294E-19
 -1      2518 9.52390E-05-2.85750E-05-2.85703E-05 1.91783E-10-1.85743E-18 9.83501E-19
 -1      2519 9.52390E-05-2.85750E-05-2.85703E-05-1.80788E-10-2.69782E-18 1.89573E-18
 -1      2520 9.52392E-05-2.85750E-05-2.85704E-05-4.57365E-10-8.01114E-19-4.89798E-19
 -1      2521 9.52389E-05-2.85748E-05-2.85703E-05 9.73322E-10-1.27464E-18-1.10675E-18
 -1      2522 9.52390E-05-2.85750E-05-2.85703E-05 6.25235E-10-2.08447E-18 5.39115E-19
 -1      2523 9.52392E-05-2.85750E-05-2.85704E-05 4.68590E-10-2.49797E-18 1.58715E-18
 -1      2524 9.52386E-05-2.85744E-05-2.85704E-05 1.61963E-09-8.20618E-19-2.91027E-18
 -1      2525 9.52388E-05-2.85747E-05-2.85703E-05 1.34610E-09-5.54257E-19-2.58124E-18
 -1      2526 9.52390E-05-2.85748E-05-2.85704E-05 1.33010E-09-7.96601E-19-1.04104E-18
 -1      2527 9.52382E-05-2.85739E-05-2.85704E-05 2.06405E-09-4.84833E-19 3.44462E-19
 -1      2528 9.52384E-05-2.85742E-05-2.85704E-05 1.89555E-09-1.76389E-19-2.43709E-18
 -1      2529 9.52387E-05-2.85744E-05-2.85704E-05 2.02537E-09 3.40914E-19-2.83521E-18
 -1      2530 9.52377E-05-2.85732E-05-2.85705E-05 2.22369E-09-1.88372E-18 2.20494E-18
 -1      2531 9.52380E-05-2.85735E-05-2.85705E-05 2.19467E-09-1.69484E-18 1.98173E-18
 -1      2532 9.52382E-05-2.85737E-05-2.85705E-05 2.46484E-09-1.29854E-18-3.63197E-19
 -1      2533 9.52372E-05-2.85724E-05-2.85706E-05 2.06705E-09-2.11353E-18 3.32821E-18
 -1      2534 9.52375E-05-2.85728E-05-2.85706E-05 2.18505E-09-2.44970E-18 2.41600E-18
 -1      2535 9.52376E-05-2.85730E-05-2.85705E-05 2.57157E-09-2.87234E-18 2.09804E-18
 -1      2536 1.54954E-04-3.05635E-05-5.37863E-05 8.45696E-07 4.21335E-18-1.08293E-18
 -1      2537 1.52143E-04-3.94403E-05-4.86161E-05 6.83280E-06 3.68523E-18-7.05155E-19
 -1      2538 1.50963E-04-4.61867E-05-4.50123E-05 1.39431E-05 3.32340E-18-6.57933E-19
 -1      2539 1.43322E-04-5.10419E-05-3.96719E-05 1.93006E-05 2.57419E-18-6.05205E-19
 -1      2540 1.48394E-04-4.31999E-05-4.51874E-05 1.64697E-06 2.77530E-18-1.55198E-18
 -1      2541 7.13182E-05-4.39738E-05-1.16142E-05-3.66883E-05 1.66463E-18 2.91337E-18
 -1      2542 9.64609E-05-5.45540E-05-1.82846E-05-3.81276E-05 5.62006E-19 1.80699E-18
 -1      2543 1.82155E-04-5.68417E-05-5.33682E-05 4.81766E-06-5.02291E-18-7.06849E-19
 -1      2544 1.52317E-05-8.15053E-06-2.67953E-06-2.31469E-06-4.96361E-19-5.02248E-18
 -1      2545 1.44285E-05-8.67378E-06-2.18667E-06-1.52882E-05-5.95464E-19-5.05425E-18
 -1      2546 9.11774E-05-4.18888E-05-2.09597E-05-4.74043E-05-1.08590E-18-2.27735E-18
 -1      2547 1.09298E-04-4.62975E-05-2.68648E-05-4.41848E-05-8.11034E-20-1.78660E-18
 -1      2548 1.47944E-04-1.55177E-05-5.72988E-05 5.59735E-06 4.44078E-18 6.46498E-19
 -1      2549 1.47815E-04-1.00962E-05-5.96769E-05 4.60548E-06 5.18363E-18 5.13514E-19
 -1      2550 9.85193E-05-5.07995E-05-2.03999E-05 4.87322E-05-5.71112E-19 1.80590E-18
 -1      2551 8.14891E-05-4.55572E-05-1.51485E-05 4.90905E-05-1.37346E-18 2.50420E-18
 -1      2552 1.13022E-04-5.54986E-05-2.43827E-05 4.09210E-05-1.68380E-18 5.43001E-19
 -1      2553 1.88635E-05-1.35436E-05-1.84767E-06-4.45628E-07 1.53678E-18 5.87375E-18
 -1      2554 2.46575E-05-1.85588E-05-2.26088E-06-1.50494E-05 1.64854E-18 5.11523E-18
 -1      2555 8.29247E-05-1.38829E-05-2.94801E-05-1.85570E-05-1.13294E-18-1.84630E-18
 -1      2556 7.65832E-05-1.04584E-05-2.84445E-05-2.06903E-05-1.37902E-18-2.01086E-18
 -1      2557 8.86690E-05-1.96262E-05-2.97001E-05-1.85215E-05-1.14789E-18-1.55657E-18
 -1      2558 9.52369E-05-2.85721E-05-2.85706E-05-2.06021E-09 6.53700E-19-1.18364E-18
 -1      2559 1.52911E-04-1.41152E-05-6.00338E-05-2.48874E-06 5.50741E-18-1.00829E-18
 -1      2560 1.52479E-04-1.96686E-05-5.73297E-05-2.68453E-06 4.96255E-18-1.12295E-18
 -1      2561 1.49475E-04-7.33163E-06-6.15522E-05 6.15516E-07 5.72891E-18-3.51651E-19
 -1      2562 1.51974E-04-9.62724E-06-6.14954E-05-1.03156E-06 5.72001E-18-6.24899E-19
 -1      2563 1.40763E-04-9.34896E-06-5.64899E-05-4.88706E-06 5.03836E-18-1.45488E-18
 -1      2564 1.52391E-04-3.12674E-05-5.21538E-05-1.16954E-06 3.33710E-18 4.02764E-19
 -1      2565 1.52272E-04-2.50417E-05-5.52183E-05 2.81144E-06 3.84256E-18 5.89535E-19
 -1      2566 1.43799E-04-4.44504E-05-4.26901E-05-1.86190E-05 1.88015E-18-5.28125E-19
 -1      2567 1.51795E-04-3.93657E-05-4.86260E-05-1.01560E-05 2.70876E-18-4.70103E-20
 -1      2568 1.47068E-04-3.65150E-05-4.74783E-05-4.37553E-07 2.24363E-18 1.09225E-18
 -1      2569 1.20729E-04-4.82839E-05-3.11630E-05-3.63090E-05 2.96885E-19-1.28050E-18
 -1      2570 1.33822E-04-4.82207E-05-3.69020E-05-3.06530E-05 1.02713E-18-9.48465E-19
 -1      2571 1.19021E-04-5.00169E-05-2.94032E-05-3.61200E-05-1.06705E-18-6.39828E-19
 -1      2572 1.79779E-05-1.05464E-05-2.84254E-06-2.44107E-05-1.10358E-18-4.93905E-18
 -1      2573 2.49304E-05-1.22821E-05-5.11093E-06-3.44301E-05-1.16668E-18-4.70188E-18
 -1      2574 2.22382E-05-4.00141E-06-7.26428E-06-1.95522E-05-9.92934E-19-4.84715E-18
 -1      2575 1.34127E-04-6.53111E-05-2.97474E-05 2.25713E-05 2.51145E-19 2.01170E-20
 -1      2576 1.09057E-04-5.63866E-05-2.24045E-05 2.99790E-05 9.04208E-19-1.19127E-18
 -1      2577 1.77399E-04-3.71423E-05-5.86887E-05-2.06968E-05-4.34486E-18 1.72710E-18
 -1      2578 1.21179E-04-6.26660E-05-2.50811E-05-2.70131E-05 4.93185E-19 6.36122E-19
 -1      2579 1.42664E-04-6.82009E-05-3.22514E-05-1.81055E-05 2.15570E-19 4.92550E-19
 -1      2580 3.31609E-05-2.39760E-05-3.61433E-06-2.33976E-05 2.13632E-18 4.46873E-18
 -1      2581 4.66105E-05-3.06977E-05-6.74489E-06-3.28703E-05 1.87300E-18 3.76824E-18
 -1      2582 3.55719E-05-1.68938E-05-7.37382E-06-1.89779E-05 2.44242E-18 4.74317E-18
 -1      2583 5.99832E-05-3.56515E-05-1.02347E-05 4.94852E-05-1.45605E-18 4.03272E-18
 -1      2584 4.51138E-05-2.95341E-05-6.35555E-06 4.30979E-05-1.66802E-18 5.37951E-18
 -1      2585 1.80211E-04-5.36011E-05-5.48161E-05-2.00277E-05-3.04170E-18 1.80122E-18
 -1      2586 1.72251E-04-5.92770E-05-4.80274E-05-1.57764E-05-2.04532E-18 1.75421E-18
 -1      2587 5.35721E-05 4.84544E-06-2.47549E-05-1.39091E-05-1.32899E-18-2.79272E-18
 -1      2588 5.51469E-05 5.84795E-06-2.61128E-05-1.03148E-05-1.27999E-18-2.60688E-18
 -1      2589 5.78810E-05 5.08287E-06-2.70533E-05-6.65093E-06-1.27756E-18-2.35769E-18
 -1      2590 1.39125E-04-5.65938E-05-3.54318E-05 2.23436E-05 8.61115E-19-6.15793E-19
 -1      2591 1.32316E-04-5.82290E-05-3.14349E-05 2.51399E-05-6.21934E-19-9.96164E-19
 -1      2592 1.41732E-04-5.46400E-05-3.78663E-05 1.11323E-05 6.48298E-19-1.65076E-18
 -1      2593 9.65821E-05-2.69616E-05-2.98098E-05 1.00498E-05 1.46846E-18 3.04583E-18
 -1      2594 9.74449E-05-2.62838E-05-3.04667E-05 1.15416E-05 1.62342E-18 2.48455E-18
 -1      2595 9.54712E-05-2.70518E-05-2.92993E-05 9.18659E-06 1.43601E-18 2.78317E-18
 -1      2596 1.62969E-04-6.95232E-05-4.08391E-05-2.96873E-07-4.75609E-19 1.38363E-18
 -1      2597 1.39548E-04-4.89695E-05-3.87206E-05-1.85969E-05 4.87150E-19 6.94567E-20
 -1      2598 7.26217E-05-3.05916E-06-2.97668E-05 1.66710E-06-9.62507E-19-1.56467E-18
 -1      2599 1.32550E-04-5.78047E-05-3.13479E-05 1.86839E-05 1.86739E-18 1.48887E-18
 -1      2600 1.42134E-04-6.48335E-05-3.29709E-05 1.29224E-05 1.14498E-18 1.64870E-18
 -1      2601 9.52369E-05-2.85722E-05-2.85706E-05-2.50913E-09 9.21526E-19-8.03289E-19
 -1      2602 1.46129E-04-2.52861E-05-5.19795E-05-6.09611E-06 4.07126E-18-1.82006E-18
 -1      2603 3.34867E-05-9.71638E-06-9.65426E-06 1.78927E-05-7.26040E-19 5.28019E-18
 -1      2604 2.48831E-05-1.13806E-05-5.13229E-06 9.80334E-06 6.90411E-19 6.34407E-18
 -1      2605 3.02566E-05-7.93875E-06-9.00459E-06 8.11982E-08 1.07553E-18 4.76011E-18
 -1      2606 4.46122E-05-2.24610E-05-8.96588E-06 3.80597E-05-2.02991E-18 4.84672E-18
 -1      2607 1.14404E-04-5.83462E-05-2.40071E-05-3.05496E-05 1.63943E-18 3.74044E-19
 -1      2608 1.49582E-04-6.81858E-05-3.48408E-05 8.49421E-06-2.54110E-20 1.20025E-18
 -1      2609 1.08631E-04-4.81970E-05-2.59792E-05 2.75643E-05 1.76903E-18-4.28810E-20
 -1      2610 9.43892E-05-2.70612E-05-2.88193E-05 8.33167E-06 1.29377E-18 2.28249E-18
 -1      2611 9.52159E-05-2.71739E-05-2.91203E-05 8.87100E-06 1.34488E-18 2.58931E-18
 -1      2612 9.65720E-05-2.71308E-05-2.97780E-05 1.00536E-05 1.40704E-18 1.96165E-18
 -1      2613 9.61238E-05-2.71465E-05-2.95848E-05 9.34037E-06 1.35994E-18 1.63318E-18
 -1      2614 1.01650E-04-4.89005E-05-2.24017E-05 3.05924E-05 1.59136E-18-1.07393E-18
 -1      2615 8.20763E-05-4.42578E-05-1.63711E-05 3.63227E-05 6.84614E-19-2.88626E-18
 -1      2616 6.41217E-05-3.48606E-05-1.20708E-05 3.22627E-05 7.95152E-19-3.60010E-18
 -1      2617 8.56310E-05-3.51459E-05-2.08727E-05 3.09314E-05 1.73197E-18-1.58670E-18
 -1      2618 1.63274E-04-6.56900E-05-4.17739E-05 2.70833E-06-2.33326E-18-1.06409E-18
 -1      2619 1.54004E-04-6.80361E-05-3.68004E-05-6.01573E-06 1.59348E-19-9.55453E-19
 -1      2620 6.60706E-05-3.50774E-05-1.28065E-05-3.43823E-05 2.55889E-18 3.12238E-18
 -1      2621 9.52369E-05-2.85720E-05-2.85707E-05 1.81504E-09-1.94314E-18 2.67306E-18
 -1      2622 2.35883E-05-8.81999E-06-5.78594E-06 6.04799E-06-1.44154E-19-4.82046E-18
 -1      2623 2.50704E-05-1.52995E-06-9.56307E-06-6.64909E-07-3.80238E-19-4.49902E-18
 -1      2624 3.36279E-05-9.31206E-06-1.01237E-05 1.48613E-05 4.53480E-19-4.33723E-18
 -1      2625 1.41609E-04-1.88968E-05-5.28254E-05 8.64420E-06 3.65029E-18 1.06557E-18
 -1      2626 8.12607E-05-3.72447E-05-1.85073E-05-4.99808E-05-1.51407E-18-2.85334E-18
 -1      2627 9.60952E-05-4.19845E-05-2.30922E-05-4.46552E-05-2.11578E-18-1.58496E-18
 -1      2628 7.05421E-05-3.09128E-05-1.65869E-05-4.98640E-05-1.98269E-18-3.08976E-18
 -1      2629 3.55367E-05-8.38161E-06-1.09607E-05-3.61288E-05-1.64399E-18-4.34846E-18
 -1      2630 3.63821E-05-1.55189E-05-8.48849E-06-4.07600E-05-1.54944E-18-4.47360E-18
 -1      2631 4.93451E-05-1.85297E-05-1.29783E-05-4.51215E-05-2.09238E-18-3.83092E-18
 -1      2632 1.37371E-04-6.70217E-06-5.63231E-05 4.30324E-06 5.01592E-18 1.27214E-19
 -1      2633 7.86287E-05-4.16190E-05-1.54717E-05 4.81641E-05-2.63067E-18 2.28762E-18
 -1      2634 1.46539E-04-6.52374E-05-3.47489E-05-8.74939E-06 1.02682E-18-1.70815E-18
 -1      2635 1.36249E-04-5.79426E-05-3.30710E-05-1.70292E-05 1.86665E-18-8.28239E-19
 -1      2636 7.44444E-05-1.09601E-05-2.72637E-05-2.40662E-05-1.55806E-18-2.06387E-18
 -1      2637 5.62496E-05-2.60693E-05-1.23523E-05 2.92124E-05 9.31948E-19-3.70492E-18
 -1      2638 9.52369E-05-2.85722E-05-2.85706E-05 2.28181E-09-3.47171E-18 3.63589E-18
 -1      2639 1.16782E-04-5.13387E-05-2.80162E-05-2.62627E-05 2.31960E-18-1.95294E-19
 -1      2640 1.06573E-04-2.85075E-05-3.35484E-05 1.24690E-06 1.26593E-19-4.19122E-19
 -1      2641 1.05861E-04-2.85859E-05-3.30614E-05-2.42940E-06-2.25250E-19-6.19677E-19
 -1      2642 1.04451E-04-2.90619E-05-3.23501E-05-7.49882E-06-5.23801E-19-8.40611E-19
 -1      2643 1.01306E-04-2.77688E-05-3.14473E-05-1.20561E-05-8.92554E-19-8.56046E-19
 -1      2644 1.08841E-04-3.22683E-05-3.28155E-05-4.38464E-06-3.28647E-19-3.82819E-19
 -1      2645 1.03592E-04-2.51936E-05-3.36954E-05 1.13755E-05 1.29801E-18-4.54486E-20
 -1      2646 1.04660E-04-2.57380E-05-3.38278E-05 9.58368E-06 1.03991E-18-1.65542E-19
 -1      2647 1.01306E-04-2.45735E-05-3.29870E-05 1.34747E-05 1.69701E-18 4.89330E-19
 -1      2648 1.02409E-04-2.46665E-05-3.33312E-05 1.24745E-05 1.46891E-18 2.30095E-19
 -1      2649 1.04338E-04-2.66182E-05-3.32476E-05 1.20525E-05 1.23508E-18 3.09840E-19
 -1      2650 9.85168E-05-2.60959E-05-3.10395E-05 1.24482E-05 1.67782E-18 2.00138E-18
 -1      2651 9.88415E-05-2.52323E-05-3.15924E-05 1.33700E-05 1.82656E-18 1.55370E-18
 -1      2652 9.79217E-05-2.66032E-05-3.05365E-05 1.13985E-05 1.55186E-18 1.77218E-18
 -1      2653 8.06332E-05-2.71804E-05-2.24405E-05 2.67809E-05 1.39104E-18-1.51852E-18
 -1      2654 7.04028E-05-2.61626E-05-1.87238E-05 2.94804E-05 1.37452E-18-2.17402E-18
 -1      2655 5.24651E-05-1.70492E-05-1.43898E-05 2.36808E-05 9.58312E-19-3.45526E-18
 -1      2656 7.78280E-05-1.90419E-05-2.47397E-05 2.15973E-05 9.19904E-19-1.41047E-18
 -1      2657 8.69471E-05-2.88874E-05-2.45687E-05-2.88809E-05 2.65894E-18 1.66294E-18
 -1      2658 8.38985E-05-2.32431E-05-2.58497E-05-2.65538E-05 2.12658E-18 1.87840E-18
 -1      2659 7.25202E-05-7.40460E-06-2.78036E-05 9.24254E-06-3.41639E-19-1.53202E-18
 -1      2660 7.49633E-05-1.23720E-05-2.65678E-05 1.48533E-05 1.46166E-19-1.46426E-18
 -1      2661 9.52372E-05-2.85726E-05-2.85705E-05-2.96218E-09 1.27946E-18 3.49941E-19
 -1      2662 9.52368E-05-2.85722E-05-2.85705E-05-2.93790E-09 6.13819E-19-2.66758E-19
 -1      2663 9.52365E-05-2.85721E-05-2.85704E-05-3.37320E-09-1.17003E-20 3.00862E-19
 -1      2664 9.52385E-05-2.85740E-05-2.85705E-05-2.71992E-09-1.28009E-19 1.50638E-18
 -1      2665 9.52381E-05-2.85736E-05-2.85705E-05-2.87999E-09-5.84865E-20-6.94542E-19
 -1      2666 8.61924E-05-2.14576E-05-2.75708E-05-2.30836E-05 1.06033E-18 1.40626E-18
 -1      2667 8.57698E-05-1.98635E-05-2.82617E-05-2.07211E-05 6.50647E-19 1.18251E-18
 -1      2668 7.53895E-05-1.81443E-05-2.43092E-05-2.36003E-05 1.07909E-18 2.19363E-18
 -1      2669 8.84454E-05-2.02142E-05-2.91715E-05-1.81438E-05 7.34768E-19 9.77066E-19
 -1      2670 8.88435E-05-2.03134E-05-2.94257E-05-1.59708E-05 3.09918E-19 1.07894E-18
 -1      2671 8.05286E-05-1.68183E-05-2.71702E-05-1.79297E-05 6.44159E-19 1.01615E-18
 -1      2672 9.10765E-05-2.13775E-05-2.98324E-05-1.40082E-05-4.34829E-19 5.71199E-19
 -1      2673 9.15100E-05-2.20071E-05-2.98380E-05-1.21416E-05-7.32150E-19 4.58222E-19
 -1      2674 8.53753E-05-1.83713E-05-2.86258E-05-1.38204E-05-3.06159E-19 2.13547E-19
 -1      2675 9.31218E-05-2.31172E-05-2.99720E-05-1.06122E-05-7.79333E-19 2.97417E-19
 -1      2676 9.33814E-05-2.37859E-05-2.98654E-05-9.09754E-06-5.00089E-19-6.72076E-20
 -1      2677 8.91044E-05-2.06913E-05-2.92583E-05-1.06358E-05-7.36895E-19-1.16934E-19
 -1      2678 9.44446E-05-2.46989E-05-2.98652E-05-7.90693E-06 2.67446E-19-9.72369E-20
 -1      2679 9.45357E-05-2.52443E-05-2.97238E-05-6.72944E-06 3.77723E-19 1.35982E-20
 -1      2680 9.16740E-05-2.28530E-05-2.94538E-05-8.10603E-06-1.92251E-19 4.54941E-20
 -1      2681 9.51929E-05-2.59206E-05-2.96663E-05-5.81419E-06 3.37397E-19 3.37991E-20
 -1      2682 9.51737E-05-2.63196E-05-2.95279E-05-4.92691E-06 1.18641E-18 2.12532E-19
 -1      2683 9.33171E-05-2.45697E-05-2.94373E-05-6.10299E-06 5.86615E-19 3.76747E-19
 -1      2684 9.55570E-05-2.67930E-05-2.94527E-05-4.23430E-06 6.35469E-19 1.75396E-19
 -1      2685 9.54812E-05-2.70687E-05-2.93325E-05-3.57962E-06 1.50244E-19 2.83732E-20
 -1      2686 9.43065E-05-2.58295E-05-2.93317E-05-4.54369E-06 5.49503E-19 2.90605E-19
 -1      2687 9.56912E-05-2.73896E-05-2.92585E-05-3.06221E-06 5.44660E-19-2.01519E-19
 -1      2688 9.55941E-05-2.75743E-05-2.91604E-05-2.58526E-06-1.34123E-20 1.93039E-19
 -1      2689 9.48679E-05-2.67133E-05-2.92002E-05-3.35165E-06 3.49785E-19 2.59656E-19
 -1      2690 9.57019E-05-2.77965E-05-2.90921E-05-2.18417E-06-9.51973E-20 4.45469E-19
 -1      2691 9.56020E-05-2.79218E-05-2.90117E-05-1.82705E-06 1.59418E-19 7.67334E-19
 -1      2692 9.51693E-05-2.73285E-05-2.90694E-05-2.43562E-06 1.87757E-19 4.26663E-19
 -1      2693 9.56469E-05-2.80589E-05-2.89586E-05-1.55078E-06 1.16299E-19 5.04944E-19
 -1      2694 9.55618E-05-2.81367E-05-2.89002E-05-1.30645E-06 6.71962E-19 5.60712E-19
 -1      2695 9.53096E-05-2.77413E-05-2.89556E-05-1.75537E-06 1.22166E-19-2.49941E-19
 -1      2696 9.55742E-05-2.82266E-05-2.88576E-05-1.10371E-06 1.43547E-18 7.27158E-19
 -1      2697 9.55032E-05-2.82775E-05-2.88134E-05-9.28138E-07 6.69786E-19 1.12682E-18
 -1      2698 9.53600E-05-2.80083E-05-2.88642E-05-1.26717E-06 9.92951E-19-5.93864E-19
 -1      2699 9.55001E-05-2.83366E-05-2.87802E-05-7.80127E-07-5.93233E-19 8.97542E-19
 -1      2700 9.54434E-05-2.83703E-05-2.87472E-05-6.53988E-07-5.10775E-19 3.89469E-19
 -1      2701 9.53664E-05-2.81869E-05-2.87911E-05-9.07552E-07-2.60181E-19 1.37837E-19
 -1      2702 9.54338E-05-2.84094E-05-2.87217E-05-5.46230E-07 1.10026E-19 7.00772E-20
 -1      2703 9.53900E-05-2.84320E-05-2.86973E-05-4.55714E-07-3.32334E-19-3.00132E-19
 -1      2704 9.53523E-05-2.83068E-05-2.87340E-05-6.43744E-07-5.62332E-19-6.58472E-19
 -1      2705 9.53786E-05-2.84581E-05-2.86780E-05-3.77536E-07-1.22814E-18-5.65571E-19
 -1      2706 9.53457E-05-2.84736E-05-2.86601E-05-3.12747E-07-4.85825E-19-1.04418E-18
 -1      2707 9.53308E-05-2.83881E-05-2.86901E-05-4.50971E-07-1.16204E-18-1.70424E-18
 -1      2708 9.53349E-05-2.84913E-05-2.86456E-05-2.56315E-07 2.28040E-19-1.65241E-18
 -1      2709 9.53108E-05-2.85022E-05-2.86327E-05-2.10156E-07-4.21042E-19-1.81071E-18
 -1      2710 9.53086E-05-2.84438E-05-2.86567E-05-3.10783E-07-7.05619E-19-2.28743E-18
 -1      2711 9.53016E-05-2.85143E-05-2.86220E-05-1.69721E-07-1.30265E-18-2.71700E-18
 -1      2712 9.52844E-05-2.85221E-05-2.86127E-05-1.37081E-07-1.28642E-18-3.04728E-18
 -1      2713 9.52888E-05-2.84823E-05-2.86317E-05-2.09498E-07-1.45091E-18-3.41543E-18
 -1      2714 9.52772E-05-2.85305E-05-2.86049E-05-1.08406E-07-3.99487E-19-2.53683E-18
 -1      2715 9.52652E-05-2.85363E-05-2.85983E-05-8.55837E-08-1.63530E-20-1.64962E-18
 -1      2716 9.52726E-05-2.85093E-05-2.86131E-05-1.36964E-07-3.13658E-19-2.82591E-18
 -1      2717 9.52597E-05-2.85422E-05-2.85926E-05-6.55341E-08-7.71752E-19-1.12052E-18
 -1      2718 9.52517E-05-2.85465E-05-2.85881E-05-4.98294E-08-1.11551E-18-1.63489E-18
 -1      2719 9.52601E-05-2.85284E-05-2.85995E-05-8.56361E-08-3.70403E-19-1.61549E-18
 -1      2720 9.52477E-05-2.85506E-05-2.85841E-05-3.60781E-08-1.45136E-18-1.93950E-18
 -1      2721 9.52426E-05-2.85539E-05-2.85810E-05-2.55115E-08-1.88819E-18-1.16700E-18
 -1      2722 9.52509E-05-2.85420E-05-2.85897E-05-4.98910E-08-1.08803E-18-1.77799E-18
 -1      2723 9.52398E-05-2.85568E-05-2.85782E-05-1.63259E-08-1.42554E-18-6.71171E-19
 -1      2724 9.52368E-05-2.85592E-05-2.85761E-05-9.44009E-09 2.58170E-19-1.80592E-19
 -1      2725 9.52443E-05-2.85517E-05-2.85827E-05-2.55272E-08-1.29569E-18-9.59508E-19
 -1      2726 9.52349E-05-2.85613E-05-2.85742E-05-3.52951E-09 1.90351E-18 4.85048E-19
 -1      2727 9.52333E-05-2.85632E-05-2.85730E-05 7.49899E-10 2.01519E-18 5.40994E-20
 -1      2728 9.52399E-05-2.85585E-05-2.85778E-05-9.40331E-09 1.31382E-18-6.52521E-19
 -1      2729 9.52321E-05-2.85646E-05-2.85717E-05 4.34513E-09 2.41275E-18 3.32872E-19
 -1      2730 9.52315E-05-2.85660E-05-2.85709E-05 6.80903E-09 3.50897E-18 1.87422E-19
 -1      2731 9.52370E-05-2.85634E-05-2.85745E-05 8.27240E-10 2.00695E-18 1.88356E-19
 -1      2732 9.52308E-05-2.85670E-05-2.85701E-05 8.79907E-09 3.89911E-18-2.37808E-19
 -1      2733 9.52308E-05-2.85680E-05-2.85698E-05 1.00268E-08 3.25661E-18-7.78438E-20
 -1      2734 9.52353E-05-2.85668E-05-2.85723E-05 6.91075E-09 3.28179E-18 2.67326E-19
 -1      2735 9.52304E-05-2.85686E-05-2.85693E-05 1.09331E-08 2.48219E-18 1.94664E-18
 -1      2736 9.52308E-05-2.85694E-05-2.85692E-05 1.13454E-08 2.96088E-18 1.86705E-18
 -1      2737 9.52345E-05-2.85690E-05-2.85709E-05 1.01387E-08 4.03758E-18 5.56499E-19
 -1      2738 9.52307E-05-2.85698E-05-2.85689E-05 1.15463E-08 1.80413E-18 2.36808E-18
 -1      2739 9.52312E-05-2.85704E-05-2.85689E-05 1.14450E-08 8.18707E-19 1.59141E-18
 -1      2740 9.52341E-05-2.85706E-05-2.85701E-05 1.14571E-08 2.48707E-18 5.88174E-19
 -1      2741 9.52313E-05-2.85706E-05-2.85688E-05 1.12111E-08-5.59148E-19 9.17946E-19
 -1      2742 9.52319E-05-2.85710E-05-2.85689E-05 1.08087E-08-9.23255E-19 1.66996E-19
 -1      2743 9.52341E-05-2.85715E-05-2.85697E-05 1.15501E-08-1.78112E-19 7.40256E-19
 -1      2744 9.52320E-05-2.85711E-05-2.85689E-05 1.03291E-08-3.34559E-19-4.87858E-19
 -1      2745 9.52326E-05-2.85714E-05-2.85691E-05 9.77157E-09-9.44454E-19 1.68334E-19
 -1      2746 9.52344E-05-2.85721E-05-2.85696E-05 1.09036E-08-1.23430E-18-4.21022E-19
 -1      2747 9.52328E-05-2.85715E-05-2.85692E-05 9.17480E-09-4.58748E-19 7.37903E-19
 -1      2748 9.52334E-05-2.85716E-05-2.85693E-05 8.55858E-09-5.28293E-21 2.49496E-18
 -1      2749 9.52347E-05-2.85723E-05-2.85696E-05 9.85480E-09-5.15052E-19 1.29494E-18
 -1      2750 9.52336E-05-2.85717E-05-2.85694E-05 7.92802E-09 1.08051E-18 3.80220E-18
 -1      2751 9.52342E-05-2.85718E-05-2.85696E-05 7.31312E-09 1.29208E-18 4.19177E-18
 -1      2752 9.52351E-05-2.85724E-05-2.85697E-05 8.62947E-09 1.51835E-18 3.91277E-18
 -1      2753 9.52343E-05-2.85718E-05-2.85697E-05 6.69903E-09 5.97090E-20 4.17107E-18
 -1      2754 9.52348E-05-2.85718E-05-2.85698E-05 6.11882E-09 6.72796E-19 3.82607E-18
 -1      2755 9.52354E-05-2.85724E-05-2.85699E-05 7.37121E-09 6.95851E-19 5.19250E-18
 -1      2756 9.52350E-05-2.85718E-05-2.85700E-05 5.54774E-09-2.59944E-19 4.06507E-18
 -1      2757 9.52354E-05-2.85719E-05-2.85701E-05 5.01634E-09-8.77208E-19 3.20385E-18
 -1      2758 9.52358E-05-2.85724E-05-2.85700E-05 6.16369E-09 3.75120E-19 3.11482E-18
 -1      2759 9.52356E-05-2.85719E-05-2.85702E-05 4.49648E-09 3.99772E-19 3.55553E-18
 -1      2760 9.52359E-05-2.85719E-05-2.85703E-05 4.01404E-09-3.13746E-19 3.38622E-18
 -1      2761 9.52362E-05-2.85723E-05-2.85702E-05 5.04722E-09-1.76245E-19 2.88801E-18
 -1      2762 9.52361E-05-2.85719E-05-2.85704E-05 3.53981E-09-9.68924E-19 5.01699E-18
 -1      2763 9.52364E-05-2.85720E-05-2.85705E-05 3.10196E-09-1.23155E-18 4.20952E-18
 -1      2764 9.52365E-05-2.85723E-05-2.85704E-05 4.02923E-09-4.29263E-20 3.24328E-18
 -1      2765 9.52367E-05-2.85721E-05-2.85705E-05 2.62245E-09-2.99413E-18 4.26975E-18
 -1      2766 9.47349E-05-2.46805E-05-2.99870E-05 5.80383E-06 1.12148E-18 1.20526E-18
 -1      2767 9.56714E-05-2.54600E-05-3.00955E-05 7.23730E-06 1.13075E-18 1.24969E-18
 -1      2768 9.32969E-05-2.34899E-05-2.98870E-05 2.19912E-06 9.86805E-19 9.53205E-19
 -1      2769 9.38490E-05-2.39542E-05-2.99522E-05 3.97832E-06 1.03231E-18 1.10460E-18
 -1      2770 9.64449E-05-2.39683E-05-3.10798E-05 5.67050E-06 1.17750E-18 8.22743E-19
 -1      2771 9.66949E-05-2.62491E-05-3.01657E-05 8.49599E-06 1.04208E-18 1.13903E-18
 -1      2772 9.77861E-05-2.69175E-05-3.03650E-05 9.56635E-06 1.08595E-18 1.16525E-18
 -1      2773 9.83935E-05-2.57372E-05-3.11399E-05 8.86778E-06 1.08004E-18 8.91775E-19
 -1      2774 9.36317E-05-2.46098E-05-2.95939E-05-5.33954E-06 9.44582E-19 3.42276E-19
 -1      2775 9.31625E-05-2.38794E-05-2.96557E-05-3.82910E-06 1.10696E-18 5.96672E-19
 -1      2776 9.51353E-05-2.66728E-05-2.93678E-05-7.61543E-06 5.89082E-19 9.14423E-20
 -1      2777 9.43631E-05-2.55997E-05-2.94299E-05-6.73086E-06 7.61969E-19 2.14809E-19
 -1      2778 9.61212E-05-2.49989E-05-3.04930E-05-6.54058E-06 9.15823E-19 2.23698E-19
 -1      2779 9.67984E-05-2.88779E-05-2.91356E-05-8.33272E-06 4.66639E-19 2.56170E-19
 -1      2780 9.59744E-05-2.78087E-05-2.91844E-05-8.14765E-06 4.84068E-19 1.49165E-20
 -1      2781 9.77605E-05-2.75613E-05-3.00777E-05-8.50588E-06 7.21623E-19-3.13628E-19
 -1      2782 9.80954E-05-3.06035E-05-2.89427E-05-7.70604E-06 2.07201E-19 1.34797E-19
 -1      2783 9.74209E-05-2.98020E-05-2.89681E-05-8.08666E-06 4.98186E-19 1.89398E-19
 -1      2784 9.92722E-05-3.00386E-05-2.96530E-05-8.72726E-06 3.71801E-19-1.44686E-19
 -1      2785 9.87853E-05-3.15671E-05-2.88134E-05-6.24944E-06 6.02642E-21 4.51818E-19
 -1      2786 9.83523E-05-3.11312E-05-2.88142E-05-6.96087E-06-9.38850E-20 3.90734E-19
 -1      2787 1.00169E-04-3.17845E-05-2.92899E-05-7.62742E-06-8.88446E-20-8.82460E-20
 -1      2788 9.88979E-05-3.18100E-05-2.87481E-05-4.49175E-06 1.95299E-19 4.62458E-19
 -1      2789 9.87036E-05-3.17023E-05-2.87304E-05-5.30953E-06 2.89466E-19 6.08562E-19
 -1      2790 1.00339E-04-3.25875E-05-2.90253E-05-5.84591E-06 2.35336E-20-6.59017E-20
 -1      2791 9.86024E-05-3.15415E-05-2.87309E-05-2.82279E-06 2.28206E-19 2.19199E-19
 -1      2792 9.85900E-05-3.16585E-05-2.87042E-05-3.58533E-06 4.62872E-19 2.92358E-19
 -1      2793 9.99334E-05-3.25841E-05-2.88605E-05-3.93644E-06 5.25207E-19-2.49240E-19
 -1      2794 9.80948E-05-3.10061E-05-2.87411E-05-1.45338E-06 8.54271E-19-2.00017E-19
 -1      2795 9.81947E-05-3.12375E-05-2.87142E-05-2.07507E-06 3.61328E-19 5.91267E-20
 -1      2796 9.92010E-05-3.20632E-05-2.87755E-05-2.25360E-06 4.27254E-19-3.14755E-19
 -1      2797 9.75290E-05-3.03974E-05-2.87602E-05-4.49770E-07-1.27322E-19 4.64894E-19
 -1      2798 9.76825E-05-3.06590E-05-2.87392E-05-9.04602E-07 4.89996E-19 2.93954E-19
 -1      2799 9.83684E-05-3.13132E-05-2.87430E-05-9.52026E-07 2.38015E-19-4.58347E-19
 -1      2800 9.69995E-05-2.98356E-05-2.87759E-05 2.10277E-07-8.86307E-19 5.55390E-19
 -1      2801 9.71664E-05-3.00763E-05-2.87638E-05-8.87174E-08-5.55533E-19 6.66755E-19
 -1      2802 9.75857E-05-3.05439E-05-2.87381E-05-4.97068E-08-3.43069E-19 6.26991E-19
 -1      2803 9.65504E-05-2.93771E-05-2.87822E-05 5.90229E-07-5.56365E-19 3.56973E-19
 -1      2804 9.67078E-05-2.95735E-05-2.87790E-05 4.18385E-07-5.32294E-19 2.35580E-19
 -1      2805 9.69274E-05-2.98738E-05-2.87427E-05 5.07035E-07-5.33424E-19 5.58843E-19
 -1      2806 9.61929E-05-2.90349E-05-2.87776E-05 7.63901E-07-8.80504E-19-3.99963E-19
 -1      2807 9.63301E-05-2.91818E-05-2.87820E-05 6.85902E-07-9.82322E-19 2.72075E-19
 -1      2808 9.64138E-05-2.93496E-05-2.87463E-05 7.97765E-07-5.48083E-19 3.13526E-19
 -1      2809 9.59202E-05-2.87982E-05-2.87638E-05 7.98825E-07-7.87041E-19-1.09323E-19
 -1      2810 9.60342E-05-2.89004E-05-2.87736E-05 7.84028E-07-7.10337E-19-3.16995E-19
 -1      2811 9.60344E-05-2.89730E-05-2.87440E-05 9.01742E-07-1.06239E-18-6.07950E-20
 -1      2812 9.57182E-05-2.86464E-05-2.87435E-05 7.49431E-07 3.28695E-19 5.47138E-19
 -1      2813 9.58099E-05-2.87126E-05-2.87565E-05 7.73007E-07-2.03223E-19 3.52159E-19
 -1      2814 9.57656E-05-2.87231E-05-2.87350E-05 8.85999E-07-6.72687E-19 3.34566E-20
 -1      2815 9.55717E-05-2.85573E-05-2.87197E-05 6.55806E-07 1.98339E-19 1.54143E-18
 -1      2816 9.56438E-05-2.85969E-05-2.87340E-05 6.99405E-07 3.97054E-19 1.27736E-18
 -1      2817 9.55814E-05-2.85711E-05-2.87205E-05 8.01832E-07-2.78350E-19 8.58693E-19
 -1      2818 9.54669E-05-2.85112E-05-2.86950E-05 5.45235E-07 1.25075E-18 1.13507E-18
 -1      2819 9.55225E-05-2.85324E-05-2.87091E-05 5.96349E-07 1.22208E-18 1.37362E-18
 -1      2820 9.54582E-05-2.84890E-05-2.87024E-05 6.85505E-07 7.29077E-19 1.34991E-18
 -1      2821 9.53926E-05-2.84930E-05-2.86712E-05 4.34843E-07 7.96736E-19 6.04040E-19
 -1      2822 9.54348E-05-2.85021E-05-2.86843E-05 4.85627E-07 9.42762E-19 6.69878E-19
 -1      2823 9.53775E-05-2.84532E-05-2.86827E-05 5.60799E-07 1.49079E-18 8.89953E-19
 -1      2824 9.53403E-05-2.84912E-05-2.86497E-05 3.34299E-07 8.83093E-19 6.56875E-19
 -1      2825 9.53719E-05-2.84931E-05-2.86612E-05 3.80351E-07 9.98687E-19 8.32376E-19
 -1      2826 9.53253E-05-2.84461E-05-2.86632E-05 4.42040E-07 7.85060E-19 4.83190E-19
 -1      2827 9.53038E-05-2.84983E-05-2.86311E-05 2.48141E-07 1.51105E-18 5.58315E-19
 -1      2828 9.53271E-05-2.84962E-05-2.86407E-05 2.87428E-07 1.23211E-18 7.40658E-19
 -1      2829 9.52920E-05-2.84548E-05-2.86450E-05 3.36837E-07 1.17235E-18 5.02422E-19
 -1      2830 9.52786E-05-2.85093E-05-2.86156E-05 1.77614E-07-2.47235E-19 3.66243E-19
 -1      2831 9.52954E-05-2.85053E-05-2.86234E-05 2.09617E-07 4.75656E-19 3.82064E-19
 -1      2832 9.52708E-05-2.84712E-05-2.86288E-05 2.48292E-07 1.03225E-18 6.90267E-19
 -1      2833 9.52612E-05-2.85213E-05-2.86030E-05 1.22016E-07-1.38330E-18 1.13720E-18
 -1      2834 9.52731E-05-2.85166E-05-2.86092E-05 1.47107E-07-6.90604E-19 1.05218E-18
 -1      2835 9.52574E-05-2.84898E-05-2.86150E-05 1.76699E-07-6.15376E-19 1.22766E-18
 -1      2836 9.52496E-05-2.85325E-05-2.85932E-05 7.96362E-08-5.23658E-19 9.14407E-19
 -1      2837 9.52577E-05-2.85280E-05-2.85978E-05 9.86408E-08-1.03549E-18 9.28283E-19
 -1      2838 9.52488E-05-2.85078E-05-2.86035E-05 1.20756E-07-9.07696E-19 6.84081E-19
 -1      2839 9.52419E-05-2.85423E-05-2.85856E-05 4.83617E-08 1.34244E-19 9.17536E-19
 -1      2840 9.52473E-05-2.85383E-05-2.85891E-05 6.22804E-08-2.02490E-19 6.96171E-19
 -1      2841 9.52434E-05-2.85237E-05-2.85944E-05 7.83927E-08-6.79312E-19 3.39303E-19
 -1      2842 9.52370E-05-2.85503E-05-2.85801E-05 2.60490E-08-9.48387E-21 1.36528E-18
 -1      2843 9.52404E-05-2.85469E-05-2.85826E-05 3.58867E-08 3.57043E-19 1.47171E-18
 -1      2844 9.52400E-05-2.85369E-05-2.85872E-05 4.72897E-08-7.41285E-20 3.14778E-19
 -1      2845 9.52341E-05-2.85566E-05-2.85761E-05 1.07266E-08 7.93503E-19-2.16508E-19
 -1      2846 9.52361E-05-2.85539E-05-2.85778E-05 1.74005E-08 2.60812E-19 1.08896E-19
 -1      2847 9.52379E-05-2.85474E-05-2.85818E-05 2.51925E-08 1.03684E-18-2.00478E-19
 -1      2848 9.52325E-05-2.85615E-05-2.85733E-05 6.91389E-10 9.15812E-19 7.82083E-19
 -1      2849 9.52335E-05-2.85594E-05-2.85745E-05 4.98851E-09 7.73931E-19 5.77695E-19
 -1      2850 9.52366E-05-2.85555E-05-2.85777E-05 1.00758E-08 4.15786E-19-2.02578E-19
 -1      2851 9.52319E-05-2.85651E-05-2.85715E-05-5.46392E-09-1.19733E-18 1.58478E-18
 -1      2852 9.52322E-05-2.85634E-05-2.85722E-05-2.89715E-09 3.42738E-19 1.24360E-18
 -1      2853 9.52359E-05-2.85614E-05-2.85749E-05 2.14415E-10 4.12864E-20 1.45133E-18
 -1      2854 9.52318E-05-2.85676E-05-2.85704E-05-8.86120E-09 2.27562E-19 7.59548E-19
 -1      2855 9.52317E-05-2.85664E-05-2.85708E-05-7.51268E-09-1.25937E-18 1.05589E-18
 -1      2856 9.52355E-05-2.85656E-05-2.85729E-05-5.80427E-09-3.48073E-19 6.14799E-19
 -1      2857 9.52321E-05-2.85694E-05-2.85697E-05-1.03680E-08 7.22109E-19 9.72645E-20
 -1      2858 9.52318E-05-2.85685E-05-2.85699E-05-9.84433E-09 1.24580E-18 6.94927E-19
 -1      2859 9.52354E-05-2.85686E-05-2.85715E-05-9.09944E-09 6.36933E-19 8.68287E-19
 -1      2860 9.52326E-05-2.85706E-05-2.85695E-05-1.06362E-08 7.74116E-19 3.23544E-19
 -1      2861 9.52321E-05-2.85700E-05-2.85695E-05-1.06440E-08 9.76365E-19 4.60055E-19
 -1      2862 9.52354E-05-2.85705E-05-2.85707E-05-1.05329E-08 4.45950E-19 2.36512E-19
 -1      2863 9.52332E-05-2.85713E-05-2.85694E-05-1.01418E-08-6.08055E-19 1.35552E-18
 -1      2864 9.52327E-05-2.85709E-05-2.85693E-05-1.04686E-08 7.25056E-19 2.60075E-19
 -1      2865 9.52355E-05-2.85717E-05-2.85702E-05-1.07500E-08 5.29067E-19 1.14281E-18
 -1      2866 9.52338E-05-2.85717E-05-2.85695E-05-9.22130E-09-4.89475E-19 8.22809E-19
 -1      2867 9.52333E-05-2.85715E-05-2.85694E-05-9.71857E-09-1.32206E-18 1.56491E-18
 -1      2868 9.52357E-05-2.85724E-05-2.85700E-05-1.02209E-08-7.51540E-19 1.98669E-18
 -1      2869 9.52344E-05-2.85720E-05-2.85696E-05-8.10335E-09 3.49557E-19 7.10627E-19
 -1      2870 9.52339E-05-2.85718E-05-2.85695E-05-8.67170E-09 4.28199E-19 4.87783E-19
 -1      2871 9.52359E-05-2.85727E-05-2.85700E-05-9.27712E-09-3.00003E-20 8.50996E-19
 -1      2872 9.52350E-05-2.85721E-05-2.85698E-05-6.93486E-09 1.06044E-18-1.00665E-18
 -1      2873 9.52345E-05-2.85720E-05-2.85697E-05-7.51199E-09 9.42838E-19 1.57067E-19
 -1      2874 9.52361E-05-2.85728E-05-2.85700E-05-8.14317E-09 1.48021E-18 2.90078E-19
 -1      2875 9.52355E-05-2.85721E-05-2.85700E-05-5.80144E-09 1.19352E-18-2.17100E-18
 -1      2876 9.52351E-05-2.85720E-05-2.85699E-05-6.35306E-09 6.32563E-19-1.11454E-18
 -1      2877 9.52363E-05-2.85728E-05-2.85701E-05-6.96302E-09 6.24383E-19-1.34689E-18
 -1      2878 9.52360E-05-2.85721E-05-2.85702E-05-4.74276E-09-1.34620E-20-5.95228E-19
 -1      2879 9.52356E-05-2.85721E-05-2.85701E-05-5.25597E-09 6.50783E-19-1.13178E-18
 -1      2880 9.52365E-05-2.85727E-05-2.85702E-05-5.82682E-09 5.70950E-19-7.36270E-19
 -1      2881 9.52364E-05-2.85721E-05-2.85704E-05-3.79881E-09 1.31278E-19-1.83682E-19
 -1      2882 9.52361E-05-2.85721E-05-2.85703E-05-4.27365E-09 3.90427E-19-7.83258E-19
 -1      2883 9.52367E-05-2.85726E-05-2.85703E-05-4.79695E-09-1.95769E-19-9.12750E-19
 -1      2884 9.52370E-05-2.85726E-05-2.85704E-05-3.86086E-09-2.29278E-19-4.91468E-19
 -1      2885 9.52395E-05-2.85750E-05-2.85705E-05-1.28106E-09-6.27649E-19-1.00069E-18
 -1      2886 9.52393E-05-2.85748E-05-2.85705E-05-1.70129E-09-5.21566E-19-7.43889E-19
 -1      2887 9.52375E-05-2.85730E-05-2.85705E-05-2.99361E-09 3.33177E-19-9.56666E-19
 -1      2888 9.52390E-05-2.85746E-05-2.85705E-05-2.12678E-09-8.51754E-19 4.34787E-19
 -1      2889 9.52388E-05-2.85743E-05-2.85705E-05-2.42663E-09-5.92580E-19 2.27046E-18
 -1      2890 9.52388E-05-2.85743E-05-2.85705E-05-2.85869E-09 1.18345E-19 1.86221E-18
 -1      2891 9.52394E-05-2.85748E-05-2.85705E-05-2.13169E-09-9.23992E-19 7.42147E-21
 -1      2892 9.28964E-05-2.34093E-05-2.97700E-05-1.81016E-06 1.16930E-18 6.95277E-19
 -1      2893 9.29211E-05-2.32748E-05-2.98270E-05 3.09979E-08 1.13283E-18 7.70517E-19
 -1      2894 9.51569E-05-2.28854E-05-3.10047E-05 1.46323E-06 1.23558E-18 6.01636E-19
 -1      2895 9.50658E-05-2.32242E-05-3.08170E-05-2.96269E-06 1.16594E-18 2.49267E-19
 -1      2896 9.52396E-05-2.85751E-05-2.85705E-05 7.63748E-10-1.94886E-18 1.44989E-18
 -1      2897 9.52396E-05-2.85752E-05-2.85705E-05 2.84635E-10-1.61268E-18 8.27266E-19
 -1      2898 9.52393E-05-2.85748E-05-2.85705E-05 1.69579E-09-6.14836E-19-2.12391E-18
 -1      2899 9.52395E-05-2.85750E-05-2.85705E-05 1.28232E-09-1.35060E-18 6.12484E-19
 -1      2900 9.52399E-05-2.85752E-05-2.85706E-05 1.13023E-09-1.41042E-18 1.12638E-18
 -1      2901 9.52388E-05-2.85743E-05-2.85705E-05 2.43583E-09-5.08064E-19-2.16102E-18
 -1      2902 9.52391E-05-2.85746E-05-2.85705E-05 2.12775E-09-1.92030E-19-3.78450E-18
 -1      2903 9.52394E-05-2.85749E-05-2.85705E-05 2.12560E-09-1.18068E-18-2.46905E-18
 -1      2904 9.52381E-05-2.85736E-05-2.85705E-05 2.87063E-09-2.60834E-18-7.74986E-19
 -1      2905 9.52385E-05-2.85740E-05-2.85705E-05 2.71817E-09-1.17069E-18-8.62027E-19
 -1      2906 9.52388E-05-2.85743E-05-2.85705E-05 2.87445E-09-1.00169E-18-2.10196E-18
 -1      2907 9.52374E-05-2.85728E-05-2.85705E-05 2.91728E-09-3.02795E-18 2.89302E-18
 -1      2908 9.52377E-05-2.85732E-05-2.85705E-05 2.95668E-09-1.86481E-18 4.35649E-19
 -1      2909 9.52380E-05-2.85735E-05-2.85705E-05 3.27075E-09-1.71686E-18-4.53738E-19
 -1      2910 5.94631E-05-2.58899E-05-1.38246E-05-3.17102E-05 2.96853E-18 2.89558E-18
 -1      2911 8.21044E-05-3.83581E-05-1.82849E-05-3.56255E-05 2.88161E-18 2.16660E-18
 -1      2912 9.67643E-05-2.62232E-05-3.01547E-05-1.81696E-05-1.21199E-18-1.24642E-18
 -1      2913 9.01929E-05-2.28903E-05-2.88826E-05-2.24491E-05-1.49549E-18-1.46915E-18
 -1      2914 1.03292E-04-3.15771E-05-3.07721E-05-1.58614E-05-1.07414E-18-7.28693E-19
 -1      2915 1.43173E-04-4.02714E-05-4.47738E-05-3.68412E-06 2.57223E-18-2.85620E-18
 -1      2916 1.43872E-04-4.67470E-05-4.17298E-05 6.88104E-07 1.98862E-18-2.46444E-18
 -1      2917 9.52396E-05-2.85752E-05-2.85705E-05-2.74955E-10-8.33958E-19-1.18137E-20
 -1      2918 9.52396E-05-2.85751E-05-2.85705E-05-7.54099E-10 4.91233E-19-2.07359E-18
 -1      2919 9.52400E-05-2.85754E-05-2.85706E-05 4.05101E-12-2.32912E-19-5.02507E-19
 -1      2920 9.52370E-05-2.85724E-05-2.85705E-05 3.03492E-09-2.56856E-18 3.74393E-18
 -1      2921 5.60867E-05-2.55248E-05-1.27417E-05 4.19730E-05-2.97796E-18 3.49676E-18
 -1      2922 4.38964E-05-1.67502E-05-1.10645E-05 3.23870E-05-2.04124E-18 4.25338E-18
 -1      2923 8.15610E-05-1.75216E-05-2.71526E-05-2.67815E-05-1.68168E-18-1.75387E-18
 -1      2924 7.21978E-05-1.22402E-05-2.58363E-05-2.82966E-05-1.84183E-18-2.11061E-18
 -1      2925 8.87690E-05-2.48322E-05-2.74536E-05-2.76019E-05-1.74769E-18-1.45526E-18
 -1      2926 1.32774E-04-5.02317E-05-3.54221E-05-1.84369E-05-5.25478E-19 3.74706E-19
 -1      2927 1.39821E-04-4.70321E-05-4.02155E-05-8.54528E-06 4.85270E-19 9.33113E-19
 -1      2928 9.11000E-05-4.56921E-05-1.94387E-05 4.62199E-05-2.70563E-18 8.63127E-19
 -1      2929 7.19893E-05-3.53062E-05-1.51958E-05 4.54358E-05-3.03841E-18 2.13241E-18
 -1      2930 1.05691E-04-2.67451E-05-3.39334E-05 7.44705E-06 9.25857E-19-2.92858E-19
 -1      2931 1.06264E-04-2.73672E-05-3.37884E-05 4.74233E-06 5.14410E-19-3.46810E-19
 -1      2932 1.09224E-04-3.04400E-05-3.37209E-05 3.97935E-06 3.26772E-19-4.02456E-20
 -1      2933 1.07153E-04-2.81913E-05-3.37858E-05 9.21650E-06 9.10065E-19-1.66197E-20
 -1      2934 6.22592E-05-5.19648E-06-2.40985E-05-2.78792E-05-1.81773E-18-2.61281E-18
 -1      2935 5.44358E-05-4.68839E-07-2.31809E-05-2.52781E-05-1.73494E-18-2.83621E-18
 -1      2936 6.82933E-05-1.26453E-05-2.37429E-05-3.24597E-05-1.89240E-18-2.36873E-18
 -1      2937 1.27039E-04-7.29059E-06-5.19484E-05 6.17525E-06 4.25020E-18 3.56733E-19
 -1      2938 1.28772E-04-5.52540E-06-5.34831E-05 5.19575E-07 4.59071E-18-7.23260E-19
 -1      2939 1.29664E-04-6.84769E-06-5.33767E-05-3.20529E-06 4.54814E-18-1.19519E-18
 -1      2940 1.31386E-04-1.06310E-05-5.22691E-05-7.38208E-06 4.29869E-18-1.76797E-18
 -1      2941 1.21858E-04-7.18378E-06-4.94961E-05-1.33706E-06 3.79958E-18-9.02884E-19
 -1      2942 6.29730E-05 3.88295E-07-2.69895E-05 1.56539E-06-8.56264E-19-2.10189E-18
 -1      2943 1.41943E-04-4.17622E-05-4.31128E-05-1.69827E-07 1.13412E-18 1.31142E-18
 -1      2944 1.40666E-04-3.41826E-05-4.62889E-05 6.24012E-06 2.02568E-18 1.48760E-18
 -1      2945 1.36812E-04-4.45370E-05-3.96353E-05-1.74417E-06 2.41709E-19 1.23863E-18
 -1      2946 1.16644E-04-4.85279E-05-2.91392E-05-3.29017E-05-1.46092E-18-2.92650E-19
 -1      2947 1.27151E-04-5.09282E-05-3.27636E-05-2.63282E-05-9.73982E-19-2.93285E-20
 -1      2948 1.30606E-04-4.96508E-05-3.46213E-05-1.59239E-05-9.60429E-19 4.06523E-19
 -1      2949 2.62177E-05-8.35651E-08-1.04533E-05-1.37721E-05-1.00025E-18-4.44396E-18
 -1      2950 2.86310E-05-1.47101E-06-1.10278E-05-2.41640E-05-1.27616E-18-4.28620E-18
 -1      2951 1.38229E-04-2.42139E-05-4.91444E-05 1.09468E-05 2.84635E-18 1.36086E-18
 -1      2952 1.32149E-04-1.52521E-05-5.07809E-05 1.13132E-05 3.57342E-18 1.19347E-18
 -1      2953 1.36450E-04-2.00562E-05-5.06255E-05-9.70831E-06 3.81525E-18-2.32500E-18
 -1      2954 1.40321E-04-3.02488E-05-4.75122E-05-8.59866E-06 3.07102E-18-2.59817E-18
 -1      2955 1.19548E-04-5.70296E-05-2.69922E-05 3.55735E-05-1.68242E-18-3.31137E-19
 -1      2956 1.07889E-04-5.28601E-05-2.31527E-05 4.05545E-05-2.42686E-18 7.38838E-20
 -1      2957 3.70988E-05-1.14398E-05-1.03179E-05-1.51480E-05 2.22870E-18 4.58330E-18
 -1      2958 4.53866E-05-1.72642E-05-1.15666E-05-2.49362E-05 2.41129E-18 3.86056E-18
 -1      2959 1.39835E-04-5.14491E-05-3.79951E-05 5.41146E-06 5.52729E-19-2.52596E-18
 -1      2960 9.97676E-05-2.46321E-05-3.21932E-05 1.35424E-05 1.72055E-18 1.01424E-18
 -1      2961 6.31447E-05-1.01784E-05-2.26119E-05 1.71420E-05 5.51313E-19-2.17386E-18
 -1      2962 1.34709E-04-3.01464E-05-4.50333E-05 1.01416E-05 1.82832E-18 1.49755E-18
 -1      2963 9.82977E-05-2.72061E-05-3.04471E-05 1.03409E-05 1.27282E-18 1.15726E-18
 -1      2964 9.83940E-05-2.72229E-05-3.04729E-05 1.07583E-05 1.38465E-18 1.30458E-18
 -1      2965 5.19603E-05-1.54892E-05-1.52560E-05 2.81640E-05-2.70505E-18 3.12968E-18
 -1      2966 4.18455E-05-1.22536E-05-1.20153E-05 2.46196E-05-1.79327E-18 4.17460E-18
 -1      2967 4.19840E-05-8.46758E-06-1.39523E-05 1.56950E-05-1.05818E-18 3.48681E-18
 -1      2968 3.10274E-05 4.32602E-07-1.29444E-05-5.81693E-06-6.08024E-19-4.22204E-18
 -1      2969 9.99082E-05-2.70548E-05-3.12221E-05 1.09053E-05 1.20024E-18 9.86219E-19
 -1      2970 9.52398E-05-2.85752E-05-2.85706E-05-1.13044E-09 5.10609E-19 1.56048E-19
 -1      2971 9.52378E-05-2.85733E-05-2.85705E-05-3.33152E-09 6.45667E-19-1.25987E-18
 -1      2972 9.52371E-05-2.85727E-05-2.85705E-05 3.45869E-09-1.93242E-18 2.35198E-18
 -1      2973 6.12906E-05-2.13873E-05-1.64436E-05-2.76840E-05 2.87441E-18 3.01533E-18
 -1      2974 9.66849E-05-4.23340E-05-2.26412E-05-3.32124E-05 2.91972E-18 1.27510E-18
 -1      2975 3.96863E-05-8.91059E-06-1.25817E-05-6.18549E-06 8.62941E-19 4.31627E-18
 -1      2976 5.03011E-05-1.05101E-05-1.63412E-05 1.73941E-05 5.73759E-19-3.37373E-18
 -1      2977 1.74649E-04-6.25235E-05-4.77022E-05 1.38115E-05-3.85262E-18-2.21838E-18
 -1      2978 1.00957E-04-2.60966E-05-3.20248E-05 1.28827E-05 1.56038E-18 9.68112E-19
 -1      2979 1.27443E-04-5.75210E-05-2.98769E-05 2.54244E-05-1.72350E-18-8.57568E-19
 -1      2980 1.37048E-04-3.48740E-05-4.40593E-05-8.66505E-06 2.19784E-18-3.30925E-18
 -1      2981 6.35666E-05-2.46356E-05-1.60967E-05-4.68583E-05-2.25777E-18-3.34282E-18
 -1      2982 7.66797E-05-3.02196E-05-2.00320E-05-4.64686E-05-2.49536E-18-2.45629E-18
 -1      2983 5.66609E-05-1.65455E-05-1.66311E-05-4.31166E-05-2.28974E-18-3.31211E-18
 -1      2984 3.50806E-05-3.39733E-06-1.28839E-05-2.97471E-05-1.60253E-18-4.14019E-18
 -1      2985 4.34596E-05-6.49746E-06-1.54728E-05-3.56409E-05-1.89518E-18-3.79365E-18
 -1      2986 3.75620E-05 4.13060E-07-1.56646E-05-2.51516E-05-1.41910E-18-3.83579E-18
 -1      2987 1.27946E-04-1.63005E-05-4.82254E-05-9.44210E-06 3.47696E-18-2.06554E-18
 -1      2988 7.02028E-05-3.03714E-05-1.65802E-05 4.08657E-05-3.18357E-18 2.54491E-18
 -1      2989 5.62299E-05 1.62661E-06-2.46703E-05 1.71947E-07-7.08900E-19-2.48583E-18
 -1      2990 1.00859E-04-4.80932E-05-2.22887E-05 4.03137E-05-2.89283E-18 4.56021E-19
 -1      2991 9.90180E-05-4.04803E-05-2.45510E-05-4.06153E-05-2.28826E-18-1.18450E-18
 -1      2992 1.09866E-04-4.63234E-05-2.69437E-05-3.78767E-05-1.74351E-18-7.16087E-19
 -1      2993 1.17709E-04-4.74364E-05-3.01970E-05-2.77492E-05-1.70942E-18-1.51989E-19
 -1      2994 1.26120E-04-1.12455E-05-4.96944E-05 9.69748E-06 3.61111E-18 9.49074E-19
 -1      2995 1.18922E-04-8.82530E-06-4.75466E-05 6.97791E-06 3.39935E-18 3.93076E-19
 -1      2996 1.23707E-04-1.57973E-05-4.65906E-05 1.13679E-05 2.91475E-18 1.11811E-18
 -1      2997 8.86949E-05-3.38488E-05-2.31773E-05-3.25549E-05 2.87652E-18 1.64271E-18
 -1      2998 4.94046E-05 4.40251E-06-2.28987E-05-1.79690E-05-1.40349E-18-3.01898E-18
 -1      2999 4.83446E-05 5.99388E-06-2.29997E-05-1.22116E-05-1.17924E-18-2.98801E-18
 -1      3000 7.40176E-05-2.50587E-05-2.06063E-05-3.06878E-05 2.64544E-18 2.64264E-18
 -1      3001 5.00918E-05 1.61681E-07-2.12631E-05-2.41136E-05-1.58974E-18-3.11348E-18
 -1      3002 1.04034E-04-2.73524E-05-3.29454E-05 1.25679E-05 1.25799E-18 6.19639E-19
 -1      3003 1.05810E-04-2.79520E-05-3.33689E-05 1.17797E-05 9.39797E-19 4.10323E-19
 -1      3004 9.78111E-05-2.69306E-05-3.03522E-05 1.09783E-05 1.43602E-18 1.55724E-18
 -1      3005 4.77990E-05-2.35517E-06-1.88960E-05 8.63215E-06 2.08317E-20-3.18855E-18
 -1      3006 9.52404E-05-2.85755E-05-2.85706E-05-9.66963E-10 1.39129E-18 3.64372E-19
 -1      3007 9.52402E-05-2.85754E-05-2.85706E-05-1.52842E-09 1.56593E-19 1.31952E-18
 -1      3008 1.31584E-04-3.40967E-05-4.18362E-05 1.00296E-05 9.98599E-19 1.71228E-18
 -1      3009 1.27437E-04-2.55369E-05-4.41323E-05 1.30644E-05 2.03346E-18 1.53117E-18
 -1      3010 7.31054E-05-1.36837E-05-2.53798E-05-1.48344E-05 3.02412E-19 1.49507E-18
 -1      3011 7.58584E-05-1.42598E-05-2.64727E-05-1.29150E-05 2.00939E-19 1.01983E-18
 -1      3012 8.00767E-05-1.58551E-05-2.75231E-05-1.16843E-05-3.03952E-19 7.91071E-19
 -1      3013 8.23529E-05-1.70717E-05-2.80491E-05-1.02302E-05-7.95081E-19 2.55988E-19
 -1      3014 7.39361E-05-1.29260E-05-2.59738E-05-8.82679E-06-4.03085E-19 9.22933E-19
 -1      3015 8.53470E-05-1.86884E-05-2.85799E-05-9.33522E-06-6.59916E-19-1.52565E-20
 -1      3016 8.69800E-05-1.99165E-05-2.87946E-05-8.14301E-06-8.19628E-19-2.07428E-20
 -1      3017 8.09992E-05-1.62798E-05-2.76212E-05-7.45669E-06-7.61530E-19 1.69082E-19
 -1      3018 8.90449E-05-2.12961E-05-2.90423E-05-7.39722E-06-5.96672E-19 7.16750E-20
 -1      3019 9.01187E-05-2.23143E-05-2.90964E-05-6.41079E-06 4.87229E-19 2.94212E-19
 -1      3020 8.59227E-05-1.93627E-05-2.84498E-05-6.26572E-06-7.15286E-19 3.57516E-19
 -1      3021 9.15029E-05-2.33878E-05-2.91936E-05-5.77153E-06 9.04003E-19 3.21470E-19
 -1      3022 9.21664E-05-2.41600E-05-2.91720E-05-4.97179E-06 7.21483E-19 2.87395E-19
 -1      3023 8.92774E-05-2.18849E-05-2.88324E-05-5.15899E-06 4.72601E-19 5.51721E-20
 -1      3024 9.30709E-05-2.49508E-05-2.91921E-05-4.43334E-06 7.72872E-19 3.41594E-19
 -1      3025 9.34584E-05-2.55075E-05-2.91403E-05-3.80129E-06 4.95320E-19 2.99419E-19
 -1      3026 9.15028E-05-2.38144E-05-2.89770E-05-4.14901E-06 7.32961E-19 1.60074E-19
 -1      3027 9.40361E-05-2.60712E-05-2.91241E-05-3.35952E-06 1.38019E-19 3.72576E-19
 -1      3028 9.42486E-05-2.64608E-05-2.90650E-05-2.87052E-06 1.00995E-19 2.14842E-19
 -1      3029 9.29440E-05-2.52291E-05-2.90001E-05-3.26701E-06 4.17435E-19 1.45747E-19
 -1      3030 9.46228E-05-2.68700E-05-2.90327E-05-2.49940E-06 1.10017E-19 1.29154E-19
 -1      3031 9.47339E-05-2.71475E-05-2.89746E-05-2.11333E-06-2.42019E-19 1.83886E-19
 -1      3032 9.38750E-05-2.62599E-05-2.89651E-05-2.51089E-06-2.72240E-19 9.86707E-20
 -1      3033 9.49511E-05-2.74128E-05-2.89409E-05-1.83985E-06-8.94666E-20-1.79761E-19
 -1      3034 9.49956E-05-2.75916E-05-2.88935E-05-1.56374E-06 6.34175E-20-6.89082E-19
 -1      3035 9.44478E-05-2.69783E-05-2.89081E-05-1.89935E-06-3.07755E-19 3.52613E-20
 -1      3036 9.51258E-05-2.77731E-05-2.88618E-05-1.35186E-06 9.24538E-19-2.71069E-19
 -1      3037 9.51387E-05-2.78951E-05-2.88228E-05-1.14581E-06 1.23839E-18-2.74102E-19
 -1      3038 9.47859E-05-2.74628E-05-2.88485E-05-1.42746E-06 7.25980E-19 7.48441E-19
 -1      3039 9.52154E-05-2.80193E-05-2.87953E-05-9.83867E-07 1.95968E-19-1.57697E-19
 -1      3040 9.52126E-05-2.81026E-05-2.87642E-05-8.30992E-07-5.05977E-19-2.18756E-19
 -1      3041 9.49880E-05-2.77984E-05-2.87932E-05-1.05940E-06 8.23747E-19 3.76891E-19
 -1      3042 9.52568E-05-2.81879E-05-2.87414E-05-7.08387E-07-1.39673E-18 2.88842E-19
 -1      3043 9.52473E-05-2.82452E-05-2.87171E-05-5.95540E-07-1.44054E-18-1.00073E-18
 -1      3044 9.51063E-05-2.80312E-05-2.87453E-05-7.76248E-07-5.14413E-19-2.18352E-19
 -1      3045 9.52719E-05-2.83040E-05-2.86986E-05-5.03524E-07-1.41743E-18-1.50077E-18
 -1      3046 9.52606E-05-2.83438E-05-2.86800E-05-4.20668E-07-1.34775E-18-1.37701E-18
 -1      3047 9.51739E-05-2.81933E-05-2.87054E-05-5.60857E-07-1.85327E-18-2.80491E-19
 -1      3048 9.52738E-05-2.83847E-05-2.86653E-05-3.52228E-07-1.33898E-18-1.19251E-18
 -1      3049 9.52631E-05-2.84126E-05-2.86511E-05-2.91783E-07-7.18862E-19-1.40768E-18
 -1      3050 9.52114E-05-2.83068E-05-2.86732E-05-3.98705E-07-1.19893E-18-5.98635E-20
 -1      3051 9.52697E-05-2.84411E-05-2.86397E-05-2.41384E-07-8.49186E-19-1.93073E-18
 -1      3052 9.52605E-05-2.84609E-05-2.86290E-05-1.97649E-07-1.51260E-18-1.90724E-18
 -1      3053 9.52312E-05-2.83867E-05-2.86476E-05-2.77910E-07-9.31550E-19-2.67748E-19
 -1      3054 9.52635E-05-2.84810E-05-2.86202E-05-1.60963E-07-1.62479E-18-1.52960E-18
 -1      3055 9.52562E-05-2.84951E-05-2.86123E-05-1.29654E-07-6.14987E-20-1.44753E-18
 -1      3056 9.52409E-05-2.84433E-05-2.86276E-05-1.88945E-07-1.54511E-18-1.56222E-19
 -1      3057 9.52572E-05-2.85092E-05-2.86056E-05-1.03322E-07 6.44249E-19-1.67463E-18
 -1      3058 9.52517E-05-2.85194E-05-2.85999E-05-8.12184E-08-5.21705E-20-1.07249E-18
 -1      3059 9.52451E-05-2.84835E-05-2.86122E-05-1.24271E-07-2.64555E-19-5.62937E-19
 -1      3060 9.52517E-05-2.85293E-05-2.85948E-05-6.26415E-08-5.19359E-19-1.04818E-18
 -1      3061 9.52477E-05-2.85366E-05-2.85906E-05-4.73200E-08-9.35103E-19-4.31735E-19
 -1      3062 9.52463E-05-2.85121E-05-2.86005E-05-7.79767E-08-5.93120E-20-5.88732E-19
 -1      3063 9.52472E-05-2.85436E-05-2.85869E-05-3.44993E-08-1.30205E-18-1.66348E-19
 -1      3064 9.52444E-05-2.85489E-05-2.85839E-05-2.41344E-08-1.02728E-18 2.90185E-19
 -1      3065 9.52461E-05-2.85324E-05-2.85917E-05-4.54629E-08-9.89369E-19-4.05991E-20
 -1      3066 9.52438E-05-2.85537E-05-2.85812E-05-1.55376E-08-3.17791E-19-5.84846E-20
 -1      3067 9.52419E-05-2.85574E-05-2.85791E-05-8.75686E-09 1.07866E-18-3.56724E-19
 -1      3068 9.52451E-05-2.85467E-05-2.85851E-05-2.31697E-08-6.75632E-19 7.37025E-19
 -1      3069 9.52413E-05-2.85607E-05-2.85772E-05-3.21653E-09 2.06948E-18-1.23455E-18
 -1      3070 9.52401E-05-2.85634E-05-2.85758E-05 1.00900E-09 2.47678E-18-3.56174E-19
 -1      3071 9.52440E-05-2.85567E-05-2.85804E-05-8.36065E-09 1.47818E-18-9.11786E-19
 -1      3072 9.52395E-05-2.85656E-05-2.85744E-05 4.37580E-09 3.03819E-18-4.81256E-19
 -1      3073 9.52388E-05-2.85674E-05-2.85735E-05 6.81302E-09 3.80444E-18-4.56971E-19
 -1      3074 9.52428E-05-2.85635E-05-2.85769E-05 1.05171E-09 2.70232E-18-1.32517E-18
 -1      3075 9.52383E-05-2.85688E-05-2.85726E-05 8.66774E-09 3.83719E-18-7.27458E-19
 -1      3076 9.52380E-05-2.85700E-05-2.85720E-05 9.88356E-09 3.99424E-18-1.09582E-18
 -1      3077 9.52418E-05-2.85680E-05-2.85745E-05 6.64585E-09 3.76769E-18-1.19238E-18
 -1      3078 9.52375E-05-2.85709E-05-2.85714E-05 1.07160E-08 3.81360E-18-1.58921E-18
 -1      3079 9.52374E-05-2.85717E-05-2.85710E-05 1.11247E-08 2.26476E-18-4.17685E-19
 -1      3080 9.52408E-05-2.85709E-05-2.85729E-05 9.60235E-09 3.65675E-18-2.13196E-18
 -1      3081 9.52370E-05-2.85722E-05-2.85706E-05 1.12922E-08 5.56679E-19 7.12344E-19
 -1      3082 9.52371E-05-2.85727E-05-2.85705E-05 1.11921E-08-1.27680E-18-1.60363E-19
 -1      3083 9.52401E-05-2.85727E-05-2.85718E-05 1.07927E-08 2.40518E-18-2.06063E-18
 -1      3084 9.52368E-05-2.85729E-05-2.85702E-05 1.09508E-08-1.43447E-18 8.85637E-19
 -1      3085 9.52369E-05-2.85731E-05-2.85702E-05 1.05522E-08-1.06675E-18 3.75202E-19
 -1      3086 9.52394E-05-2.85737E-05-2.85711E-05 1.08499E-08-1.05726E-18 2.49621E-19
 -1      3087 9.52366E-05-2.85732E-05-2.85700E-05 1.00812E-08-1.14520E-18 8.64773E-19
 -1      3088 9.52368E-05-2.85733E-05-2.85701E-05 9.52861E-09 3.59740E-19 1.30665E-18
 -1      3089 9.52389E-05-2.85741E-05-2.85707E-05 1.02249E-08-1.03183E-18 2.86904E-19
 -1      3090 9.52366E-05-2.85733E-05-2.85700E-05 8.94937E-09 1.80010E-18 2.40093E-18
 -1      3091 9.52368E-05-2.85733E-05-2.85701E-05 8.33790E-09 2.62505E-18 4.01685E-18
 -1      3092 9.52385E-05-2.85741E-05-2.85704E-05 9.23007E-09 1.55005E-18 1.99889E-19
 -1      3093 9.52366E-05-2.85732E-05-2.85701E-05 7.72875E-09 7.14212E-19 4.18522E-18
 -1      3094 9.52368E-05-2.85732E-05-2.85701E-05 7.11729E-09-8.02300E-19 2.55188E-18
 -1      3095 9.52381E-05-2.85740E-05-2.85703E-05 8.07448E-09 1.48211E-18 1.03207E-18
 -1      3096 9.52367E-05-2.85730E-05-2.85702E-05 6.52484E-09 7.82985E-20 2.28167E-18
 -1      3097 9.52369E-05-2.85730E-05-2.85702E-05 5.94608E-09 7.31692E-19 2.21055E-18
 -1      3098 9.52379E-05-2.85738E-05-2.85703E-05 6.89015E-09-3.19953E-19-2.33364E-19
 -1      3099 9.52368E-05-2.85729E-05-2.85703E-05 5.39627E-09 5.36829E-19 2.52235E-18
 -1      3100 9.52370E-05-2.85728E-05-2.85703E-05 4.86183E-09-2.51165E-19 2.22281E-18
 -1      3101 9.52377E-05-2.85735E-05-2.85704E-05 5.75381E-09 1.05544E-18 1.62419E-18
 -1      3102 9.52369E-05-2.85727E-05-2.85704E-05 4.38162E-09-8.05152E-20 2.64669E-18
 -1      3103 9.52371E-05-2.85727E-05-2.85704E-05 3.89197E-09-2.21141E-19 2.97241E-18
 -1      3104 9.52376E-05-2.85731E-05-2.85705E-05 3.78284E-09-1.23911E-18 1.99498E-18
 -1      3105 9.52376E-05-2.85733E-05-2.85704E-05 4.71882E-09 6.43442E-19 2.72292E-18
 -1      3106 9.52397E-05-2.85749E-05-2.85706E-05 2.57695E-09-1.07755E-18-3.81061E-18
 -1      3107 9.52400E-05-2.85752E-05-2.85706E-05 2.11296E-09-2.10728E-18-2.32148E-19
 -1      3108 9.79935E-05-2.27641E-05-3.22028E-05 5.52118E-06 1.24521E-18 5.82344E-19
 -1      3109 9.88876E-05-2.38183E-05-3.21992E-05 7.44066E-06 1.10304E-18 6.72226E-19
 -1      3110 1.00032E-04-2.50750E-05-3.20919E-05 9.08944E-06 1.19951E-18 7.22398E-19
 -1      3111 1.01077E-04-2.62342E-05-3.21037E-05 1.03909E-05 1.08724E-18 7.44079E-19
 -1      3112 1.01533E-04-2.40777E-05-3.31919E-05 9.17737E-06 1.22691E-18 4.26583E-19
 -1      3113 1.00459E-04-2.88150E-05-3.07516E-05-9.25220E-06 5.70659E-19 1.72715E-20
 -1      3114 9.95987E-05-2.71421E-05-3.10120E-05-8.76304E-06 8.70077E-19 3.76578E-20
 -1      3115 9.85450E-05-2.53834E-05-3.13995E-05-7.75091E-06 9.40000E-19-1.44418E-19
 -1      3116 9.77944E-05-2.38913E-05-3.16265E-05-6.31112E-06 1.05911E-18-1.81401E-20
 -1      3117 1.01299E-04-2.63207E-05-3.21235E-05-8.82198E-06 7.66242E-19 9.87931E-20
 -1      3118 1.02365E-04-3.33988E-05-2.95653E-05-7.09040E-06-2.02623E-19-3.44419E-20
 -1      3119 1.02092E-04-3.26695E-05-2.97541E-05-7.90651E-06-1.94409E-19-8.49074E-20
 -1      3120 1.01960E-04-3.38678E-05-2.91750E-05-4.94835E-06 3.56608E-19-6.82284E-19
 -1      3121 1.02034E-04-3.36969E-05-2.93025E-05-5.92743E-06 2.66456E-19-3.33341E-19
 -1      3122 1.04044E-04-3.46593E-05-2.97222E-05-6.22293E-06 2.16095E-20-8.53859E-19
 -1      3123 1.00979E-04-3.34423E-05-2.89275E-05-2.92980E-06 4.54728E-19-7.62695E-19
 -1      3124 1.01286E-04-3.36622E-05-2.90011E-05-3.84116E-06 4.86268E-19-6.79175E-19
 -1      3125 1.03002E-04-3.47703E-05-2.92422E-05-3.89428E-06 5.12547E-19-1.03091E-18
 -1      3126 9.97730E-05-3.25457E-05-2.87923E-05-1.32019E-06 4.46975E-19-4.50171E-19
 -1      3127 1.00184E-04-3.29619E-05-2.88268E-05-2.05173E-06 5.23015E-19-3.98666E-19
 -1      3128 1.01502E-04-3.39936E-05-2.89417E-05-1.91606E-06 2.59212E-19-6.63941E-19
 -1      3129 9.85996E-05-3.15186E-05-2.87313E-05-1.85197E-07-6.23349E-19 2.93904E-19
 -1      3130 9.90175E-05-3.19817E-05-2.87425E-05-7.09280E-07-1.43197E-19-6.59687E-20
 -1      3131 9.99343E-05-3.28181E-05-2.87776E-05-4.70648E-07-1.74853E-19 1.26506E-19
 -1      3132 9.75984E-05-3.05710E-05-2.87119E-05 5.26093E-07-4.80760E-19 4.51432E-19
 -1      3133 9.79670E-05-3.09917E-05-2.87121E-05 1.90098E-07-4.64804E-19 3.93592E-19
 -1      3134 9.85418E-05-3.16007E-05-2.87028E-05 4.61095E-07-5.26692E-19 4.26993E-19
 -1      3135 9.68169E-05-2.98011E-05-2.87109E-05 9.07802E-07-5.21371E-19 6.90550E-19
 -1      3136 9.71138E-05-3.01395E-05-2.87082E-05 7.21148E-07-5.00918E-19 6.96744E-19
 -1      3137 9.74272E-05-3.05385E-05-2.86784E-05 9.80326E-07-6.35297E-19 4.36811E-19
 -1      3138 9.62467E-05-2.92312E-05-2.87141E-05 1.05721E-06-8.76325E-19 6.66911E-19
 -1      3139 9.64710E-05-2.94799E-05-2.87128E-05 9.78321E-07-4.63057E-19 9.76689E-19
 -1      3140 9.66026E-05-2.97097E-05-2.86776E-05 1.20448E-06-7.65866E-19 7.42528E-19
 -1      3141 9.58529E-05-2.88425E-05-2.87146E-05 1.05671E-06-1.32951E-18 7.85727E-19
 -1      3142 9.60145E-05-2.90111E-05-2.87164E-05 1.04911E-06-8.87591E-19 8.28768E-19
 -1      3143 9.60308E-05-2.91173E-05-2.86838E-05 1.23620E-06-9.34250E-19 1.41208E-18
 -1      3144 9.55941E-05-2.85993E-05-2.87098E-05 9.69146E-07-4.70132E-19 3.51759E-19
 -1      3145 9.57063E-05-2.87043E-05-2.87148E-05 1.00414E-06-1.08107E-18 9.79244E-20
 -1      3146 9.56575E-05-2.87278E-05-2.86887E-05 1.15408E-06-8.42919E-19 7.48802E-19
 -1      3147 9.54320E-05-2.84629E-05-2.87000E-05 8.38938E-07-9.15156E-19 8.60515E-19
 -1      3148 9.55077E-05-2.85215E-05-2.87074E-05 8.95717E-07-4.73221E-19 6.47968E-19
 -1      3149 9.54286E-05-2.84950E-05-2.86887E-05 1.01373E-06-8.52831E-19 1.10454E-18
 -1      3150 9.53353E-05-2.83994E-05-2.86866E-05 6.95277E-07 1.12777E-18 5.51061E-19
 -1      3151 9.53852E-05-2.84266E-05-2.86954E-05 7.59825E-07-1.32742E-19 6.54178E-19
 -1      3152 9.52983E-05-2.83740E-05-2.86836E-05 8.51872E-07-1.78770E-19 8.22547E-19
 -1      3153 9.52809E-05-2.83820E-05-2.86711E-05 5.55910E-07 1.15942E-18 1.33277E-18
 -1      3154 9.53132E-05-2.83894E-05-2.86804E-05 6.19482E-07 1.71980E-18 1.16796E-18
 -1      3155 9.52314E-05-2.83269E-05-2.86744E-05 6.90978E-07 8.50104E-19 6.29421E-19
 -1      3156 9.52524E-05-2.83913E-05-2.86552E-05 4.30559E-07 6.65838E-19 1.37217E-18
 -1      3157 9.52731E-05-2.83872E-05-2.86642E-05 4.88228E-07 8.39977E-19 1.50778E-18
 -1      3158 9.52028E-05-2.83250E-05-2.86625E-05 5.43624E-07 7.59360E-19 2.15390E-18
 -1      3159 9.52391E-05-2.84140E-05-2.86398E-05 3.23544E-07 1.17679E-18 9.75595E-19
 -1      3160 9.52522E-05-2.84042E-05-2.86481E-05 3.73018E-07 1.26222E-18 9.43648E-19
 -1      3161 9.51957E-05-2.83478E-05-2.86495E-05 4.15829E-07 1.20182E-18 1.38908E-18
 -1      3162 9.52340E-05-2.84416E-05-2.86258E-05 2.35755E-07 3.69148E-19 1.83410E-18
 -1      3163 9.52424E-05-2.84297E-05-2.86331E-05 2.76437E-07 1.04068E-18 1.60506E-18
 -1      3164 9.51994E-05-2.83817E-05-2.86363E-05 3.09398E-07 4.88168E-19 1.80774E-18
 -1      3165 9.52331E-05-2.84690E-05-2.86136E-05 1.66085E-07-7.97314E-19 1.92898E-18
 -1      3166 9.52384E-05-2.84572E-05-2.86198E-05 1.98385E-07-5.01055E-19 1.63101E-18
 -1      3167 9.52074E-05-2.84183E-05-2.86240E-05 2.23613E-07-2.60748E-19 2.35108E-18
 -1      3168 9.52339E-05-2.84938E-05-2.86032E-05 1.12409E-07-8.31711E-19 6.77307E-19
 -1      3169 9.52373E-05-2.84831E-05-2.86083E-05 1.37266E-07-2.96206E-19 1.12478E-18
 -1      3170 9.52162E-05-2.84529E-05-2.86129E-05 1.56410E-07-4.82093E-20 1.45316E-18
 -1      3171 9.52352E-05-2.85147E-05-2.85948E-05 7.22105E-08-8.50396E-19 5.12281E-19
 -1      3172 9.52374E-05-2.85057E-05-2.85988E-05 9.07763E-08-1.07964E-18 2.93278E-19
 -1      3173 9.52241E-05-2.84830E-05-2.86034E-05 1.05140E-07-6.58514E-19 1.56299E-18
 -1      3174 9.52365E-05-2.85315E-05-2.85881E-05 4.29658E-08 2.74601E-19 3.57214E-19
 -1      3175 9.52379E-05-2.85242E-05-2.85912E-05 5.64149E-08-5.38483E-19 3.38128E-19
 -1      3176 9.52304E-05-2.85078E-05-2.85955E-05 6.70365E-08-8.20687E-19 6.11317E-19
 -1      3177 9.52375E-05-2.85445E-05-2.85828E-05 2.23554E-08 1.42430E-18-6.51382E-19
 -1      3178 9.52384E-05-2.85389E-05-2.85852E-05 3.17747E-08 1.55254E-18 1.11832E-19
 -1      3179 9.52350E-05-2.85274E-05-2.85890E-05 3.94889E-08 9.66298E-19 3.22419E-19
 -1      3180 9.52381E-05-2.85543E-05-2.85789E-05 8.36476E-09-5.24709E-19-2.98573E-19
 -1      3181 9.52387E-05-2.85500E-05-2.85806E-05 1.47016E-08 3.86133E-19-6.62025E-19
 -1      3182 9.52381E-05-2.85425E-05-2.85839E-05 2.01800E-08 7.03357E-19-3.12807E-19
 -1      3183 9.52385E-05-2.85613E-05-2.85760E-05-6.84510E-10-6.27338E-19 4.94864E-19
 -1      3184 9.52388E-05-2.85582E-05-2.85772E-05 3.35962E-09-6.09976E-19 1.80996E-21
 -1      3185 9.52400E-05-2.85535E-05-2.85800E-05 7.14144E-09-7.68586E-19-8.82474E-19
 -1      3186 9.52386E-05-2.85662E-05-2.85739E-05-6.14592E-09 1.15913E-19-5.47623E-19
 -1      3187 9.52387E-05-2.85641E-05-2.85748E-05-3.75818E-09-2.50410E-19-7.80365E-20
 -1      3188 9.52410E-05-2.85614E-05-2.85770E-05-1.24318E-09-2.62542E-19 2.60980E-19
 -1      3189 9.52386E-05-2.85695E-05-2.85725E-05-9.08036E-09 8.36515E-19 2.85833E-19
 -1      3190 9.52386E-05-2.85681E-05-2.85730E-05-7.85135E-09 9.05047E-19-1.56518E-19
 -1      3191 9.52413E-05-2.85669E-05-2.85748E-05-6.26415E-09 2.01207E-19-2.21131E-19
 -1      3192 9.52384E-05-2.85716E-05-2.85715E-05-1.02980E-08 5.34742E-19-8.09174E-20
 -1      3193 9.52384E-05-2.85707E-05-2.85719E-05-9.84895E-09 6.72775E-19-5.49134E-20
 -1      3194 9.52412E-05-2.85704E-05-2.85732E-05-8.92560E-09 9.55492E-19-5.34526E-19
 -1      3195 9.52383E-05-2.85728E-05-2.85709E-05-1.04019E-08-6.50430E-19 8.33433E-19
 -1      3196 9.52382E-05-2.85723E-05-2.85711E-05-1.04521E-08 2.42518E-19 1.85650E-19
 -1      3197 9.52409E-05-2.85726E-05-2.85722E-05-9.99036E-09-5.95726E-20-1.22495E-19
 -1      3198 9.52381E-05-2.85734E-05-2.85705E-05-9.82864E-09-1.00518E-18 1.17386E-18
 -1      3199 9.52380E-05-2.85731E-05-2.85706E-05-1.01763E-08-8.05799E-19 1.04087E-18
 -1      3200 9.52404E-05-2.85738E-05-2.85714E-05-1.00239E-08-8.10976E-19 1.40834E-19
 -1      3201 9.52379E-05-2.85737E-05-2.85704E-05-8.88461E-09 8.81531E-19 5.47311E-19
 -1      3202 9.52378E-05-2.85735E-05-2.85704E-05-9.38924E-09-3.15394E-19 1.20874E-18
 -1      3203 9.52399E-05-2.85743E-05-2.85710E-05-9.43419E-09-3.18434E-19-4.20476E-19
 -1      3204 9.52377E-05-2.85736E-05-2.85703E-05-7.77606E-09 1.63373E-18 2.45070E-19
 -1      3205 9.52376E-05-2.85736E-05-2.85703E-05-8.34429E-09 1.35526E-18 6.15552E-19
 -1      3206 9.52394E-05-2.85745E-05-2.85707E-05-8.50660E-09 6.44004E-19-6.74871E-19
 -1      3207 9.52376E-05-2.85735E-05-2.85703E-05-6.63611E-09-3.23598E-20-3.89849E-19
 -1      3208 9.52375E-05-2.85735E-05-2.85703E-05-7.20831E-09 1.32926E-18-6.11468E-19
 -1      3209 9.52389E-05-2.85743E-05-2.85706E-05-7.43239E-09 1.86132E-18 3.80041E-19
 -1      3210 9.52375E-05-2.85733E-05-2.85704E-05-5.53535E-09 7.62077E-19-5.37746E-19
 -1      3211 9.52374E-05-2.85733E-05-2.85703E-05-6.07305E-09 2.25026E-19-8.33643E-19
 -1      3212 9.52386E-05-2.85741E-05-2.85705E-05-6.33478E-09 4.81620E-19-9.86276E-19
 -1      3213 9.52405E-05-2.85756E-05-2.85707E-05 3.00058E-10-9.32210E-20-1.36064E-18
 -1      3214 9.52405E-05-2.85756E-05-2.85707E-05-2.96269E-10 1.08792E-18-1.15732E-18
 -1      3215 9.52409E-05-2.85758E-05-2.85707E-05-6.92552E-10 1.17153E-18-5.16044E-19
 -1      3216 6.53942E-05-1.44964E-05-2.14742E-05-2.00505E-05 1.19591E-18 2.38064E-18
 -1      3217 6.79312E-05-1.30350E-05-2.35014E-05-1.71754E-05 4.30332E-19 2.15284E-18
 -1      3218 1.11575E-04-3.69620E-05-3.20108E-05-1.19424E-05-1.00530E-18-3.47743E-19
 -1      3219 1.07596E-04-3.57700E-05-3.06512E-05-1.80707E-05-1.45703E-18-5.66483E-19
 -1      3220 9.52389E-05-2.85742E-05-2.85706E-05 3.32774E-09-8.94465E-19-1.03041E-18
 -1      3221 9.52393E-05-2.85746E-05-2.85706E-05 3.03105E-09-2.60840E-19-2.85670E-18
 -1      3222 9.52398E-05-2.85750E-05-2.85706E-05 3.07571E-09-1.45804E-18-2.26846E-18
 -1      3223 9.52402E-05-2.85754E-05-2.85706E-05 1.51897E-09-1.47740E-18 2.08926E-18
 -1      3224 9.52404E-05-2.85755E-05-2.85706E-05 9.65615E-10-1.63575E-18 5.42259E-19
 -1      3225 9.52409E-05-2.85758E-05-2.85707E-05 6.86135E-10-1.47179E-19-1.51227E-18
 -1      3226 9.52405E-05-2.85755E-05-2.85707E-05 1.98638E-09-1.64126E-18 2.70117E-19
 -1      3227 9.52380E-05-2.85735E-05-2.85705E-05 3.68100E-09-1.04490E-18-7.38235E-19
 -1      3228 9.52385E-05-2.85739E-05-2.85705E-05 3.57835E-09-1.06786E-18-1.51375E-18
 -1      3229 9.52389E-05-2.85743E-05-2.85706E-05 3.77871E-09-2.90556E-19-1.09125E-18
 -1      3230 9.52380E-05-2.85735E-05-2.85705E-05 4.12915E-09 1.13819E-19 2.79436E-19
 -1      3231 5.09439E-05 2.14565E-06-2.24530E-05-3.07458E-06-7.73434E-19-2.85233E-18
 -1      3232 1.25340E-04-4.75395E-05-3.31573E-05-1.61895E-05-1.20653E-18 3.36272E-19
 -1      3233 1.28686E-04-4.69681E-05-3.53144E-05-9.84370E-06-7.64196E-19 7.04665E-19
 -1      3234 9.52386E-05-2.85740E-05-2.85705E-05-3.57179E-09 4.94969E-19-1.37833E-18
 -1      3235 9.52379E-05-2.85734E-05-2.85705E-05-3.75657E-09 4.57279E-19-1.06677E-18
 -1      3236 9.52378E-05-2.85734E-05-2.85705E-05-4.20828E-09-9.86081E-19-4.15594E-19
 -1      3237 1.04205E-04-3.70384E-05-2.86030E-05-2.76771E-05-1.91504E-18-7.44740E-19
 -1      3238 9.32685E-05-3.17428E-05-2.63507E-05-3.35905E-05-2.25374E-18-1.20917E-18
 -1      3239 6.00608E-05-1.63883E-05-1.83939E-05-2.40918E-05 2.13468E-18 2.89209E-18
 -1      3240 1.29825E-04-3.08206E-05-4.29466E-05-1.12506E-05 1.96554E-18-3.11417E-18
 -1      3241 1.34061E-04-3.91218E-05-4.06833E-05-8.50433E-06 1.26600E-18-3.34409E-18
 -1      3242 1.20219E-04-1.30859E-05-4.63848E-05-8.52329E-06 3.10448E-18-1.69833E-18
 -1      3243 1.25543E-04-2.11373E-05-4.49427E-05-1.20488E-05 2.67027E-18-2.68298E-18
 -1      3244 1.15877E-04-8.09485E-06-4.65999E-05 5.42588E-07 3.26510E-18-4.55386E-19
 -1      3245 1.17112E-04-9.19266E-06-4.66119E-05-4.17862E-06 3.16457E-18-1.02017E-18
 -1      3246 8.01972E-05-3.45628E-05-1.94921E-05 4.01247E-05-2.86493E-18 2.05347E-18
 -1      3247 6.64522E-05-2.49241E-05-1.74339E-05 3.60347E-05-2.94100E-18 2.97446E-18
 -1      3248 9.95701E-05-2.69517E-05-3.11793E-05 1.19251E-05 1.51813E-18 1.06126E-18
 -1      3249 1.32015E-04-4.50749E-05-3.72287E-05-3.04057E-06-4.29313E-19 1.07356E-18
 -1      3250 1.32779E-04-4.12176E-05-3.96903E-05 3.60983E-06 3.30369E-19 1.26324E-18
 -1      3251 1.27170E-04-4.42844E-05-3.55869E-05-4.07402E-06-7.01317E-19 8.34327E-19
 -1      3252 1.01811E-04-2.72048E-05-3.19637E-05 1.11821E-05 1.07475E-18 9.43735E-19
 -1      3253 1.02195E-04-2.76109E-05-3.20029E-05 1.19410E-05 1.24188E-18 8.12832E-19
 -1      3254 1.01887E-04-3.17132E-05-3.01049E-05-8.79175E-06-5.63678E-20 1.83544E-19
 -1      3255 1.01243E-04-3.03876E-05-3.03462E-05-9.12460E-06 3.22367E-19 9.23159E-20
 -1      3256 1.03199E-04-3.02519E-05-3.12392E-05-9.59102E-06 4.19410E-19 3.33815E-19
 -1      3257 1.04199E-04-3.32021E-05-3.03990E-05-8.40691E-06 1.91913E-20-3.08853E-19
 -1      3258 4.98088E-05-3.22317E-06-1.94652E-05-3.08170E-05-1.84551E-18-3.23683E-18
 -1      3259 4.30048E-05 1.87448E-06-1.91285E-05-2.29455E-05-1.51446E-18-3.45441E-18
 -1      3260 1.01874E-04-2.69349E-05-3.20999E-05 1.24298E-05 1.41890E-18 7.71554E-19
 -1      3261 1.31155E-04-5.72299E-05-3.20844E-05 1.77611E-05-1.35732E-18-1.48559E-18
 -1      3262 1.21635E-04-5.52812E-05-2.81349E-05 2.65113E-05-2.31343E-18-1.11886E-18
 -1      3263 1.36419E-04-4.78358E-05-3.84470E-05-1.35470E-06 7.82500E-19-3.72017E-18
 -1      3264 1.35934E-04-5.37694E-05-3.50540E-05 7.67986E-06-5.07379E-19-2.74968E-18
 -1      3265 1.30861E-04-5.38383E-05-3.29988E-05 1.00335E-05-1.12501E-18-2.47360E-18
 -1      3266 1.13404E-04-3.50246E-05-3.37236E-05-2.69455E-07-1.35138E-19-1.01743E-21
 -1      3267 1.12984E-04-3.57078E-05-3.30487E-05-5.11186E-06-6.17279E-19-1.34725E-19
 -1      3268 1.16721E-04-3.93399E-05-3.31686E-05-7.16109E-06-8.19001E-19 1.51258E-19
 -1      3269 7.51266E-05-2.07398E-05-2.27472E-05-3.78132E-05-2.39559E-18-2.27246E-18
 -1      3270 6.11208E-05-1.30146E-05-2.04983E-05-3.78357E-05-2.23302E-18-2.78499E-18
 -1      3271 4.23964E-05-6.41425E-06-1.49583E-05 6.23073E-07-5.24034E-19 3.47104E-18
 -1      3272 4.83641E-05-9.36691E-06-1.62282E-05-1.30573E-05 9.02011E-19 3.15435E-18
 -1      3273 1.08120E-04-5.06070E-05-2.49176E-05 3.50493E-05-2.52373E-18 8.76150E-21
 -1      3274 9.44964E-05-4.26561E-05-2.18183E-05 3.85850E-05-2.74208E-18 7.99176E-19
 -1      3275 9.00117E-05-3.76663E-05-2.21560E-05 3.54287E-05-2.55129E-18 1.46426E-18
 -1      3276 1.28291E-04-3.66519E-05-3.93744E-05 8.04885E-06 4.79037E-19 1.47765E-18
 -1      3277 6.46522E-05-1.05307E-05-2.29603E-05-1.14439E-05 8.32408E-20 1.66647E-18
 -1      3278 6.13728E-05-1.96620E-05-1.74664E-05 3.14008E-05-2.47439E-18 3.35287E-18
 -1      3279 5.75030E-05-1.48142E-05-1.81064E-05 2.43671E-05-2.01480E-18 2.96747E-18
 -1      3280 7.12813E-05-2.38525E-05-2.00804E-05 3.07931E-05-2.37161E-18 2.95509E-18
 -1      3281 1.20859E-04-2.52404E-05-4.11353E-05 1.29140E-05 1.52895E-18 1.42401E-18
 -1      3282 1.22889E-04-2.06169E-05-4.40446E-05 1.35723E-05 2.21997E-18 1.45915E-18
 -1      3283 1.16742E-04-1.61829E-05-4.33774E-05 1.19962E-05 2.33956E-18 9.85046E-19
 -1      3284 9.67770E-05-2.16500E-05-3.21793E-05 6.97527E-07 1.44755E-18 4.82582E-19
 -1      3285 9.71473E-05-2.19375E-05-3.22344E-05 3.02744E-06 1.46211E-18 5.67504E-19
 -1      3286 9.94745E-05-2.16026E-05-3.33883E-05 4.93296E-06 1.37752E-18 3.74450E-19
 -1      3287 3.69642E-05 2.98538E-06-1.68581E-05-5.92199E-06-7.00847E-19-3.63949E-18
 -1      3288 5.15147E-05-9.05573E-06-1.79850E-05 1.25534E-05-1.75025E-18 2.59102E-18
 -1      3289 4.58866E-05-7.11147E-06-1.61112E-05 6.82733E-06-9.49623E-19 2.91395E-18
 -1      3290 5.24078E-05-7.39529E-06-1.90301E-05-7.93963E-08-8.26916E-19 2.61093E-18
 -1      3291 9.70381E-05-2.26254E-05-3.19088E-05-4.17331E-06 1.28366E-18 1.39164E-19
 -1      3292 9.67634E-05-2.18942E-05-3.20558E-05-2.02121E-06 1.36443E-18 2.44092E-19
 -1      3293 9.86070E-05-2.09378E-05-3.33098E-05-5.32836E-07 1.59420E-18 2.79992E-19
 -1      3294 9.94008E-05-2.27364E-05-3.28676E-05-5.60580E-06 1.24811E-18 1.70319E-19
 -1      3295 1.07508E-04-2.89833E-05-3.36192E-05 1.17719E-05 9.35834E-19 3.87501E-19
 -1      3296 1.07621E-04-2.89100E-05-3.38242E-05 1.09490E-05 9.47149E-19-3.36514E-20
 -1      3297 1.09348E-04-2.99809E-05-3.40012E-05 9.18695E-06 7.41792E-19 3.76822E-20
 -1      3298 1.03478E-04-2.67483E-05-3.28557E-05 1.15900E-05 1.19936E-18 7.86680E-19
 -1      3299 9.52377E-05-2.85733E-05-2.85705E-05-4.60555E-09-9.05361E-19-6.78890E-19
 -1      3300 9.52376E-05-2.85734E-05-2.85704E-05-5.09891E-09-6.04277E-20-8.60955E-19
 -1      3301 9.52386E-05-2.85740E-05-2.85705E-05-5.30646E-09 2.78352E-19-1.21637E-18
 -1      3302 9.52388E-05-2.85741E-05-2.85706E-05-4.43782E-09-3.31410E-19-3.28066E-19
 -1      3303 1.13748E-04-4.27734E-05-3.03799E-05-2.28644E-05-1.70473E-18-7.66102E-20
 -1      3304 9.52400E-05-2.85752E-05-2.85706E-05-2.12238E-09-8.80444E-19-1.00723E-19
 -1      3305 9.52397E-05-2.85749E-05-2.85706E-05-2.59529E-09-1.14733E-18 1.60919E-18
 -1      3306 9.52405E-05-2.85755E-05-2.85707E-05-1.99349E-09 3.27875E-19 1.05420E-18
 -1      3307 1.14784E-04-9.38716E-06-4.55220E-05 3.81562E-06 2.99876E-18 2.12410E-19
 -1      3308 1.10902E-04-1.09482E-05-4.29853E-05 1.53284E-06 2.66127E-18 2.03453E-19
 -1      3309 1.13526E-04-1.14748E-05-4.38891E-05 7.35776E-06 2.66747E-18 6.07713E-19
 -1      3310 1.15377E-04-1.37968E-05-4.37774E-05-6.69441E-06 2.54428E-18-1.17815E-18
 -1      3311 9.52390E-05-2.85744E-05-2.85706E-05-3.24828E-09-3.83250E-19 1.63060E-18
 -1      3312 5.37522E-05-1.11623E-05-1.78190E-05-1.65272E-05 1.33159E-18 2.24808E-18
 -1      3313 1.23646E-04-2.68057E-05-4.16994E-05-1.16969E-05 1.79780E-18-2.58464E-18
 -1      3314 1.11096E-04-3.16311E-05-3.41744E-05 7.05770E-06 5.22535E-19 2.61253E-19
 -1      3315 1.12359E-04-3.28769E-05-3.40063E-05 3.96394E-06 1.20585E-19 2.31273E-19
 -1      3316 1.15900E-04-3.55244E-05-3.43520E-05 3.55962E-06 3.84937E-20 4.39402E-19
 -1      3317 1.11862E-04-3.15895E-05-3.43447E-05 9.25458E-06 6.40357E-19 3.76222E-19
 -1      3318 1.15328E-04-5.13750E-05-2.71980E-05 2.68281E-05-2.20096E-18-4.34303E-19
 -1      3319 1.31424E-04-4.35433E-05-3.78420E-05-5.03765E-06 5.32757E-19-3.38665E-18
 -1      3320 1.02957E-04-2.76091E-05-3.22431E-05 1.21702E-05 1.24545E-18 8.59679E-19
 -1      3321 7.74152E-05-1.49732E-05-2.68298E-05-4.23922E-06-9.96220E-19 8.28969E-19
 -1      3322 8.04712E-05-1.66081E-05-2.74273E-05-3.95481E-06-1.02501E-18 8.98455E-19
 -1      3323 8.32710E-05-1.82120E-05-2.79339E-05-4.20601E-06-6.67766E-19 5.52598E-19
 -1      3324 8.53732E-05-1.95939E-05-2.82313E-05-3.85202E-06-3.16209E-19 9.62811E-19
 -1      3325 8.08209E-05-1.69608E-05-2.72659E-05-1.33393E-06-1.09389E-18 1.87082E-18
 -1      3326 8.73301E-05-2.09026E-05-2.85012E-05-3.88557E-06-2.10174E-19 3.70393E-19
 -1      3327 8.87380E-05-2.19910E-05-2.86344E-05-3.49356E-06 5.50042E-19 5.52544E-20
 -1      3328 8.54110E-05-1.97730E-05-2.80616E-05-2.04882E-06-5.66814E-19 1.09778E-18
 -1      3329 9.00901E-05-2.30077E-05-2.87687E-05-3.39284E-06 7.42542E-19 2.65509E-19
 -1      3330 9.10113E-05-2.38264E-05-2.88141E-05-3.00651E-06 6.67292E-19 3.18594E-19
 -1      3331 8.86142E-05-2.20428E-05-2.84843E-05-2.25673E-06 4.90875E-19 6.11041E-19
 -1      3332 9.19333E-05-2.45893E-05-2.88723E-05-2.83938E-06 5.73453E-19-7.94090E-20
 -1      3333 9.25235E-05-2.51864E-05-2.88736E-05-2.48893E-06 1.45972E-19-3.32182E-19
 -1      3334 9.08199E-05-2.37987E-05-2.86923E-05-2.16230E-06 5.66405E-19 1.02457E-19
 -1      3335 9.31684E-05-2.57673E-05-2.88913E-05-2.29076E-06-2.71793E-19-3.61956E-19
 -1      3336 9.35519E-05-2.62106E-05-2.88712E-05-1.97831E-06-3.23663E-19-3.65965E-19
 -1      3337 9.23487E-05-2.51470E-05-2.87807E-05-1.90791E-06-7.47831E-20-4.39282E-19
 -1      3338 9.39568E-05-2.66046E-05-2.88672E-05-1.79822E-06 3.58097E-19-7.79470E-20
 -1      3339 9.41789E-05-2.69007E-05-2.88411E-05-1.55273E-06 3.93362E-19 5.19868E-19
 -1      3340 9.33662E-05-2.61289E-05-2.88030E-05-1.59963E-06 3.35759E-19-5.23539E-20
 -1      3341 9.44457E-05-2.71808E-05-2.88279E-05-1.39196E-06 3.09754E-19 5.38833E-19
 -1      3342 9.45799E-05-2.73896E-05-2.88013E-05-1.19503E-06 9.67342E-19 3.17702E-19
 -1      3343 9.40218E-05-2.68212E-05-2.87921E-05-1.29776E-06 5.78261E-19-3.60450E-19
 -1      3344 9.47549E-05-2.75883E-05-2.87850E-05-1.05879E-06 6.09604E-19-2.46424E-19
 -1      3345 9.48344E-05-2.77351E-05-2.87607E-05-9.03981E-07 1.38977E-19-7.90239E-19
 -1      3346 9.44540E-05-2.73190E-05-2.87670E-05-1.02377E-06 7.43550E-20-1.26621E-18
 -1      3347 9.49484E-05-2.78759E-05-2.87443E-05-7.92351E-07-1.94361E-20-8.91496E-19
 -1      3348 9.49945E-05-2.79793E-05-2.87235E-05-6.72477E-07-8.16346E-19-2.89129E-19
 -1      3349 9.47374E-05-2.76762E-05-2.87373E-05-7.89048E-07-2.84060E-19-1.58380E-18
 -1      3350 9.50685E-05-2.80794E-05-2.87086E-05-5.83286E-07-1.10512E-18-8.50095E-20
 -1      3351 9.50945E-05-2.81526E-05-2.86913E-05-4.91667E-07-6.39206E-19 3.40801E-19
 -1      3352 9.49223E-05-2.79324E-05-2.87080E-05-5.95386E-07-5.77214E-19-1.00437E-18
 -1      3353 9.51423E-05-2.82239E-05-2.86783E-05-4.21888E-07-6.00085E-19 6.92787E-19
 -1      3354 9.51564E-05-2.82760E-05-2.86644E-05-3.52707E-07-5.40453E-19 9.07701E-19
 -1      3355 9.50425E-05-2.81165E-05-2.86814E-05-4.40059E-07-3.84081E-19-2.18171E-19
 -1      3356 9.51872E-05-2.83269E-05-2.86535E-05-2.99114E-07-1.14083E-18 6.73159E-19
 -1      3357 9.51944E-05-2.83642E-05-2.86425E-05-2.47503E-07-1.57353E-18 6.55103E-19
 -1      3358 9.51203E-05-2.82492E-05-2.86584E-05-3.18310E-07-1.05019E-18 1.01287E-18
 -1      3359 9.52140E-05-2.84007E-05-2.86336E-05-2.07053E-07-1.49265E-18 3.05638E-19
 -1      3360 9.52174E-05-2.84275E-05-2.86249E-05-1.69046E-07-1.77955E-18 1.14223E-19
 -1      3361 9.51703E-05-2.83449E-05-2.86391E-05-2.24768E-07-1.71122E-18 7.55396E-19
 -1      3362 9.52297E-05-2.84536E-05-2.86178E-05-1.39048E-07-9.89752E-19 3.39812E-19
 -1      3363 9.52310E-05-2.84729E-05-2.86111E-05-1.11468E-07 5.78454E-19 1.97434E-19
 -1      3364 9.52021E-05-2.84141E-05-2.86233E-05-1.54232E-07-6.02990E-19 5.65796E-19
 -1      3365 9.52385E-05-2.84915E-05-2.86054E-05-8.96377E-08 4.21448E-19-2.36137E-19
 -1      3366 9.52387E-05-2.85053E-05-2.86003E-05-6.99650E-08-8.27805E-19-2.56657E-19
 -1      3367 9.52221E-05-2.84639E-05-2.86106E-05-1.02038E-07 4.46825E-21 2.86429E-19
 -1      3368 9.52432E-05-2.85186E-05-2.85959E-05-5.44151E-08-1.03586E-18-5.90911E-20
 -1      3369 9.52428E-05-2.85284E-05-2.85921E-05-4.06753E-08-9.81509E-19 4.04135E-19
 -1      3370 9.52342E-05-2.84997E-05-2.86005E-05-6.41882E-08-6.97916E-19 7.73216E-20
 -1      3371 9.52453E-05-2.85377E-05-2.85887E-05-2.98767E-08-7.05840E-19 1.34232E-18
 -1      3372 9.52447E-05-2.85447E-05-2.85859E-05-2.05331E-08-1.52264E-19 1.25973E-18
 -1      3373 9.52413E-05-2.85252E-05-2.85926E-05-3.73597E-08-4.23172E-19 8.61605E-19
 -1      3374 9.52459E-05-2.85511E-05-2.85833E-05-1.32694E-08 9.64528E-20 1.15553E-18
 -1      3375 9.52453E-05-2.85560E-05-2.85812E-05-7.13672E-09 1.54777E-18 4.14528E-19
 -1      3376 9.52451E-05-2.85431E-05-2.85866E-05-1.88540E-08-2.01804E-19 1.95895E-18
 -1      3377 9.52456E-05-2.85604E-05-2.85793E-05-2.45533E-09 2.18515E-18-4.27585E-19
 -1      3378 9.52451E-05-2.85637E-05-2.85778E-05 1.37202E-09 3.16500E-18-2.32106E-19
 -1      3379 9.52467E-05-2.85555E-05-2.85820E-05-6.52175E-09 1.88196E-18 1.32760E-18
 -1      3380 9.52449E-05-2.85665E-05-2.85764E-05 4.20620E-09 3.86273E-18-1.49336E-18
 -1      3381 9.52444E-05-2.85687E-05-2.85753E-05 6.41265E-09 4.20043E-18-1.49102E-18
 -1      3382 9.52471E-05-2.85639E-05-2.85786E-05 1.31973E-09 2.82882E-18-1.00347E-18
 -1      3383 9.52440E-05-2.85705E-05-2.85743E-05 7.95797E-09 3.60116E-18-6.82709E-19
 -1      3384 9.52436E-05-2.85719E-05-2.85736E-05 9.05440E-09 3.92833E-18-1.42383E-18
 -1      3385 9.52466E-05-2.85693E-05-2.85760E-05 5.96634E-09 4.46303E-18-1.60354E-18
 -1      3386 9.52430E-05-2.85729E-05-2.85729E-05 9.72807E-09 4.46588E-18-2.44466E-18
 -1      3387 9.52426E-05-2.85737E-05-2.85724E-05 1.00902E-08 2.20529E-18-2.28931E-18
 -1      3388 9.52458E-05-2.85727E-05-2.85742E-05 8.39972E-09 4.10205E-18-1.97583E-18
 -1      3389 9.52421E-05-2.85743E-05-2.85719E-05 1.01983E-08-2.88848E-19-1.29886E-18
 -1      3390 9.52418E-05-2.85747E-05-2.85716E-05 1.00976E-08-6.68307E-19-5.62694E-19
 -1      3391 9.52447E-05-2.85746E-05-2.85729E-05 9.35040E-09 1.68537E-18-2.86744E-18
 -1      3392 9.52412E-05-2.85749E-05-2.85713E-05 9.85987E-09-1.04634E-18 5.78174E-20
 -1      3393 9.52409E-05-2.85750E-05-2.85711E-05 9.48822E-09-1.20571E-18-6.46660E-20
 -1      3394 9.52436E-05-2.85755E-05-2.85720E-05 9.35159E-09-4.21127E-19-7.61463E-19
 -1      3395 9.52404E-05-2.85750E-05-2.85709E-05 9.05847E-09 5.13606E-19 1.73227E-19
 -1      3396 9.52402E-05-2.85750E-05-2.85708E-05 8.54739E-09 1.70802E-18-5.06039E-20
 -1      3397 9.52425E-05-2.85758E-05-2.85714E-05 8.78375E-09-4.52275E-19 2.98724E-19
 -1      3398 9.52397E-05-2.85748E-05-2.85707E-05 8.02950E-09 1.70177E-18-9.92084E-19
 -1      3399 9.52395E-05-2.85747E-05-2.85706E-05 7.46529E-09 1.07448E-18-1.18007E-18
 -1      3400 9.52414E-05-2.85757E-05-2.85711E-05 7.91092E-09 6.50520E-19-7.93480E-19
 -1      3401 9.52391E-05-2.85745E-05-2.85705E-05 6.92553E-09 2.62368E-19-3.45491E-19
 -1      3402 9.52390E-05-2.85744E-05-2.85705E-05 6.36165E-09 6.25235E-19-4.93071E-21
 -1      3403 9.52405E-05-2.85753E-05-2.85708E-05 6.90770E-09 1.15817E-18-9.06170E-19
 -1      3404 9.52386E-05-2.85741E-05-2.85705E-05 5.84056E-09 1.55370E-18 8.81504E-19
 -1      3405 9.52385E-05-2.85740E-05-2.85705E-05 5.31282E-09 1.45009E-18 1.14876E-18
 -1      3406 9.52398E-05-2.85749E-05-2.85707E-05 5.88592E-09 9.82262E-19 4.08409E-19
 -1      3407 9.52383E-05-2.85738E-05-2.85705E-05 4.94303E-09 1.66281E-19 6.26673E-19
 -1      3408 9.52382E-05-2.85737E-05-2.85705E-05 4.46336E-09 5.13237E-19 1.83346E-19
 -1      3409 9.52387E-05-2.85741E-05-2.85706E-05 4.34029E-09 9.24986E-20-2.32533E-18
 -1      3410 9.52392E-05-2.85745E-05-2.85706E-05 5.03386E-09 4.79325E-19-4.95663E-19
 -1      3411 3.92306E-05 3.79718E-06-1.77436E-05-1.82762E-05-1.27936E-18-3.62297E-18
 -1      3412 5.46727E-05-1.17639E-05-1.79685E-05-3.79207E-05-2.15962E-18-3.27294E-18
 -1      3413 1.19812E-04-5.27306E-05-2.90504E-05 2.03383E-05-1.77010E-18-9.27183E-19
 -1      3414 1.09317E-04-4.73575E-05-2.62811E-05 2.70119E-05-1.98698E-18 1.05406E-19
 -1      3415 1.03994E-04-3.57442E-05-2.92235E-05-2.32121E-06 1.71101E-19-6.50214E-19
 -1      3416 1.04668E-04-3.60599E-05-2.94292E-05-3.39835E-06 1.97983E-19-6.69528E-19
 -1      3417 1.05786E-04-3.62894E-05-2.97737E-05-4.78951E-06 3.09759E-19-6.41245E-19
 -1      3418 1.06113E-04-3.59468E-05-3.00882E-05-5.99451E-06 1.58441E-19-6.81683E-19
 -1      3419 1.06732E-04-3.73442E-05-2.97417E-05-3.12076E-06 3.24512E-19-3.81246E-19
 -1      3420 9.99663E-05-3.28761E-05-2.87273E-05 6.56743E-07-7.03085E-19 5.73739E-19
 -1      3421 1.00730E-04-3.35893E-05-2.87857E-05 1.21515E-07-2.87868E-19 8.36507E-20
 -1      3422 9.83656E-05-3.14559E-05-2.86561E-05 1.28008E-06-3.92820E-19 4.21649E-19
 -1      3423 9.90056E-05-3.21015E-05-2.86783E-05 9.73131E-07-5.18954E-19 5.96595E-19
 -1      3424 9.96403E-05-3.27977E-05-2.86709E-05 1.57955E-06-5.80929E-19 3.05668E-19
 -1      3425 9.71614E-05-3.03077E-05-2.86381E-05 1.52885E-06-7.66278E-19 4.16095E-19
 -1      3426 9.76518E-05-3.08234E-05-2.86419E-05 1.38796E-06-5.66010E-19 6.24425E-19
 -1      3427 9.79766E-05-3.12675E-05-2.86095E-05 1.90250E-06-6.09177E-19 4.39386E-19
 -1      3428 9.63187E-05-2.94631E-05-2.86438E-05 1.54238E-06-9.12995E-19 9.03264E-19
 -1      3429 9.66690E-05-2.98389E-05-2.86404E-05 1.51123E-06-9.52260E-19 5.03089E-19
 -1      3430 9.67855E-05-3.00855E-05-2.86007E-05 1.91514E-06-8.42112E-19 6.55964E-19
 -1      3431 9.57671E-05-2.88912E-05-2.86561E-05 1.42324E-06-1.24448E-18 1.11908E-18
 -1      3432 9.60022E-05-2.91434E-05-2.86517E-05 1.45816E-06-9.51168E-19 9.58187E-19
 -1      3433 9.59911E-05-2.92493E-05-2.86141E-05 1.75866E-06-1.10176E-18 6.51806E-19
 -1      3434 9.54308E-05-2.85371E-05-2.86662E-05 1.24057E-06-9.96522E-19 1.09201E-18
 -1      3435 9.55793E-05-2.86917E-05-2.86638E-05 1.31047E-06-8.13341E-19 8.34002E-19
 -1      3436 9.54986E-05-2.87051E-05-2.86326E-05 1.52564E-06-1.16534E-18 7.87337E-19
 -1      3437 9.52437E-05-2.83428E-05-2.86709E-05 1.03814E-06-7.49586E-19 1.35005E-18
 -1      3438 9.53313E-05-2.84264E-05-2.86713E-05 1.12224E-06-8.25658E-19 1.22646E-18
 -1      3439 9.52202E-05-2.83849E-05-2.86479E-05 1.27217E-06-7.77145E-19 1.01774E-18
 -1      3440 9.51530E-05-2.82569E-05-2.86698E-05 8.41471E-07-2.20062E-19 1.41672E-18
 -1      3441 9.52004E-05-2.82928E-05-2.86727E-05 9.26911E-07-5.32789E-19 1.38765E-18
 -1      3442 9.50834E-05-2.82232E-05-2.86567E-05 1.02969E-06-6.41512E-19 7.96072E-19
 -1      3443 9.51207E-05-2.82394E-05-2.86639E-05 6.63747E-07 4.71844E-19 1.83938E-18
 -1      3444 9.51431E-05-2.82455E-05-2.86688E-05 7.43221E-07 1.76580E-19 1.45597E-18
 -1      3445 9.50342E-05-2.81659E-05-2.86591E-05 8.13310E-07-1.72706E-19 1.41216E-18
 -1      3446 9.51208E-05-2.82612E-05-2.86549E-05 5.10720E-07 7.23527E-19 2.15043E-18
 -1      3447 9.51287E-05-2.82503E-05-2.86608E-05 5.80527E-07 3.46640E-19 1.95435E-18
 -1      3448 9.50347E-05-2.81717E-05-2.86561E-05 6.28482E-07 9.27357E-20 2.19049E-18
 -1      3449 9.51367E-05-2.83023E-05-2.86441E-05 3.83642E-07 9.80094E-19 2.36375E-18
 -1      3450 9.51368E-05-2.82833E-05-2.86504E-05 4.42459E-07 1.38079E-18 2.51976E-18
 -1      3451 9.50600E-05-2.82120E-05-2.86493E-05 4.75676E-07 7.63239E-19 3.07512E-18
 -1      3452 9.51582E-05-2.83501E-05-2.86328E-05 2.81126E-07 2.81401E-20 2.52129E-18
 -1      3453 9.51548E-05-2.83284E-05-2.86390E-05 3.29076E-07 7.17127E-19 2.15790E-18
 -1      3454 9.50948E-05-2.82673E-05-2.86403E-05 3.52547E-07 7.55881E-19 3.10321E-18
 -1      3455 9.51797E-05-2.83969E-05-2.86218E-05 2.00469E-07-5.45713E-19 1.96571E-18
 -1      3456 9.51752E-05-2.83759E-05-2.86276E-05 2.38474E-07-3.97095E-19 2.52404E-18
 -1      3457 9.51303E-05-2.83257E-05-2.86304E-05 2.55459E-07-8.47355E-20 1.51981E-18
 -1      3458 9.51985E-05-2.84388E-05-2.86118E-05 1.38463E-07-1.82897E-19 1.77482E-18
 -1      3459 9.51942E-05-2.84201E-05-2.86169E-05 1.67822E-07-3.56130E-19 1.85822E-18
 -1      3460 9.51619E-05-2.83803E-05-2.86205E-05 1.80404E-07-2.68704E-19 1.08394E-18
 -1      3461 9.52136E-05-2.84741E-05-2.86030E-05 9.18686E-08-6.24854E-19 1.76481E-18
 -1      3462 9.52099E-05-2.84584E-05-2.86074E-05 1.13990E-07 4.05211E-19 2.23725E-18
 -1      3463 9.51878E-05-2.84279E-05-2.86112E-05 1.23495E-07-2.11816E-19 2.24578E-18
 -1      3464 9.52249E-05-2.85026E-05-2.85956E-05 5.76749E-08-4.66425E-19 6.47259E-19
 -1      3465 9.52221E-05-2.84900E-05-2.85992E-05 7.39222E-08-9.09423E-19 1.15436E-18
 -1      3466 9.52078E-05-2.84673E-05-2.86030E-05 8.11974E-08 7.24939E-20 9.15306E-19
 -1      3467 9.52329E-05-2.85247E-05-2.85894E-05 3.32260E-08 1.48561E-18-2.48148E-19
 -1      3468 9.52309E-05-2.85150E-05-2.85923E-05 4.48309E-08 1.08713E-18 3.40379E-19
 -1      3469 9.52224E-05-2.84986E-05-2.85958E-05 5.04345E-08 4.97393E-19-3.98635E-19
 -1      3470 9.52381E-05-2.85414E-05-2.85845E-05 1.62671E-08-3.25021E-19 4.69821E-19
 -1      3471 9.52369E-05-2.85341E-05-2.85868E-05 2.42922E-08 1.04323E-18 1.99330E-19
 -1      3472 9.52325E-05-2.85227E-05-2.85899E-05 2.86070E-08 5.92384E-19 6.22240E-19
 -1      3473 9.52413E-05-2.85535E-05-2.85806E-05 4.93933E-09-3.71089E-19-1.39999E-19
 -1      3474 9.52407E-05-2.85482E-05-2.85824E-05 1.02697E-08-5.41754E-19 6.27283E-20
 -1      3475 9.52391E-05-2.85406E-05-2.85850E-05 1.35726E-08-1.39523E-19 8.12611E-19
 -1      3476 9.52430E-05-2.85620E-05-2.85776E-05-2.25092E-09 1.95980E-19 1.86847E-20
 -1      3477 9.52427E-05-2.85583E-05-2.85790E-05 1.10036E-09 3.06839E-19-3.86858E-19
 -1      3478 9.52430E-05-2.85535E-05-2.85812E-05 3.60219E-09 2.63499E-19-6.31071E-19
 -1      3479 9.52436E-05-2.85677E-05-2.85754E-05-6.47736E-09 7.11615E-19-5.66322E-19
 -1      3480 9.52436E-05-2.85652E-05-2.85764E-05-4.54079E-09 4.04697E-19 5.77610E-20
 -1      3481 9.52450E-05-2.85625E-05-2.85782E-05-2.67301E-09-1.24390E-19 3.03628E-20
 -1      3482 9.52436E-05-2.85714E-05-2.85738E-05-8.64243E-09 6.01436E-19-3.60474E-19
 -1      3483 9.52437E-05-2.85698E-05-2.85745E-05-7.68599E-09 5.66301E-19-4.39659E-19
 -1      3484 9.52457E-05-2.85685E-05-2.85760E-05-6.31656E-09 2.59511E-19 2.25189E-19
 -1      3485 9.52431E-05-2.85736E-05-2.85726E-05-9.42515E-09-1.29653E-19 1.24316E-19
 -1      3486 9.52433E-05-2.85727E-05-2.85731E-05-9.12194E-09 2.53273E-19-7.34426E-21
 -1      3487 9.52455E-05-2.85723E-05-2.85743E-05-8.13959E-09 5.25879E-20 8.40923E-19
 -1      3488 9.52424E-05-2.85748E-05-2.85718E-05-9.32486E-09-6.91223E-19-1.49474E-19
 -1      3489 9.52427E-05-2.85743E-05-2.85722E-05-9.43498E-09-2.70294E-19 2.68981E-19
 -1      3490 9.52449E-05-2.85745E-05-2.85730E-05-8.74858E-09-1.76454E-19 8.85439E-19
 -1      3491 9.52416E-05-2.85752E-05-2.85713E-05-8.69935E-09 4.49995E-20-1.09975E-18
 -1      3492 9.52419E-05-2.85750E-05-2.85715E-05-9.05158E-09-5.73223E-19-9.63406E-19
 -1      3493 9.52439E-05-2.85756E-05-2.85722E-05-8.58731E-09 1.62107E-19 2.74746E-19
 -1      3494 9.52408E-05-2.85752E-05-2.85710E-05-7.79678E-09 1.06502E-18-1.64067E-18
 -1      3495 9.52411E-05-2.85752E-05-2.85711E-05-8.27316E-09 2.63840E-19-1.85395E-18
 -1      3496 9.52429E-05-2.85759E-05-2.85716E-05-7.97243E-09 8.09053E-19-8.72203E-19
 -1      3497 9.52401E-05-2.85750E-05-2.85708E-05-6.78305E-09 9.92401E-19-9.19521E-19
 -1      3498 9.52403E-05-2.85751E-05-2.85708E-05-7.30523E-09 1.54395E-18-1.43006E-18
 -1      3499 9.52419E-05-2.85758E-05-2.85712E-05-7.12256E-09 8.39689E-19-2.99119E-18
 -1      3500 9.52394E-05-2.85746E-05-2.85706E-05-5.77986E-09 2.35547E-19-1.04413E-18
 -1      3501 9.52396E-05-2.85747E-05-2.85707E-05-6.28106E-09 5.61487E-19-4.17834E-19
 -1      3502 9.52409E-05-2.85755E-05-2.85709E-05-6.18306E-09 6.84410E-19-1.05829E-18
 -1      3503 9.52415E-05-2.85762E-05-2.85709E-05-4.08824E-10-8.43909E-19-2.73853E-18
 -1      3504 9.52414E-05-2.85761E-05-2.85708E-05-1.10756E-09 1.11891E-19 6.46476E-19
 -1      3505 9.00834E-05-3.47348E-05-2.36135E-05-4.08462E-05-2.31875E-18-1.70828E-18
 -1      3506 1.17297E-04-2.30454E-05-4.06691E-05-1.15223E-05 2.05903E-18-1.91574E-18
 -1      3507 1.22222E-04-3.08833E-05-3.90668E-05-1.21149E-05 1.26078E-18-2.13331E-18
 -1      3508 9.52399E-05-2.85750E-05-2.85707E-05 3.60099E-09-2.03773E-19-8.89517E-19
 -1      3509 9.52404E-05-2.85754E-05-2.85707E-05 3.11903E-09-1.31193E-18-8.07763E-19
 -1      3510 1.18805E-04-4.55997E-05-3.13569E-05-2.10648E-05-1.51942E-18 3.58666E-21
 -1      3511 1.19898E-04-4.30149E-05-3.30562E-05-1.19305E-05-1.22435E-18 3.05240E-19
 -1      3512 1.01910E-04-3.44159E-05-2.88968E-05-5.00184E-07 1.70982E-19-2.07813E-19
 -1      3513 1.02711E-04-3.50544E-05-2.90150E-05-1.31069E-06 2.59119E-19-2.54559E-19
 -1      3514 1.04271E-04-3.62738E-05-2.91625E-05-7.65798E-07 1.02140E-19-2.28936E-19
 -1      3515 1.01783E-04-3.45641E-05-2.88329E-05 7.56824E-07-2.99217E-19 3.26219E-19
 -1      3516 1.04240E-04-2.77574E-05-3.28542E-05-9.84749E-06 6.95257E-19 9.16367E-20
 -1      3517 1.03096E-04-2.52154E-05-3.33369E-05-8.93835E-06 8.71762E-19-1.67967E-20
 -1      3518 1.03085E-04-2.28160E-05-3.43574E-05 9.19313E-06 1.31700E-18 4.28364E-19
 -1      3519 1.04252E-04-2.46860E-05-3.41724E-05 1.08554E-05 1.16659E-18 4.42504E-19
 -1      3520 9.52395E-05-2.85747E-05-2.85706E-05-3.33383E-09-7.16961E-19 7.22230E-19
 -1      3521 6.93599E-05-1.15283E-05-2.47799E-05-3.89088E-06-1.36888E-19 7.81461E-19
 -1      3522 7.34619E-05-1.31757E-05-2.59017E-05-3.74089E-06-5.14606E-19 5.17276E-19
 -1      3523 7.43016E-05-1.36945E-05-2.58228E-05 1.52386E-07-3.56462E-19 1.16360E-18
 -1      3524 1.10705E-04-1.34392E-05-4.18676E-05-4.97184E-06 2.11266E-18-3.90284E-19
 -1      3525 1.13894E-04-1.71597E-05-4.15641E-05-9.53225E-06 2.01313E-18-1.21409E-18
 -1      3526 5.43632E-05-8.48870E-06-1.95411E-05-1.00705E-05 2.49584E-19 2.31949E-18
 -1      3527 1.20936E-04-4.14475E-05-3.39834E-05-4.79579E-06-8.30536E-19 5.00869E-19
 -1      3528 1.29214E-04-5.13147E-05-3.37200E-05 4.46787E-06-5.78957E-19-2.92337E-18
 -1      3529 1.26532E-04-5.31282E-05-3.12366E-05 1.22572E-05-1.44959E-18-1.88015E-18
 -1      3530 1.26466E-04-3.98199E-05-3.74624E-05-8.44210E-06 5.97555E-19-2.50018E-18
 -1      3531 1.29754E-04-4.65743E-05-3.54940E-05-2.85983E-06 1.41931E-19-3.22325E-18
 -1      3532 1.22765E-04-4.04690E-05-3.54792E-05 2.88063E-07-3.70325E-19 7.69837E-19
 -1      3533 9.64840E-05-4.05770E-05-2.41607E-05 3.17890E-05-2.35997E-18 1.29207E-18
 -1      3534 8.47567E-05-3.22897E-05-2.22693E-05 3.20607E-05-2.48395E-18 1.71807E-18
 -1      3535 5.47669E-05-7.64014E-06-1.98386E-05-4.16112E-06-2.80826E-19 2.11409E-18
 -1      3536 5.87152E-05-8.85554E-06-2.11100E-05-7.50394E-06 1.95555E-19 1.41044E-18
 -1      3537 5.61984E-05-8.10995E-06-2.05879E-05 1.37630E-06-8.75323E-19 1.58109E-18
 -1      3538 1.19554E-04-3.70873E-05-3.53257E-05 4.60929E-06-9.14349E-20 6.85395E-19
 -1      3539 1.24943E-04-3.83505E-05-3.70420E-05 6.30091E-06 1.38027E-19 1.29128E-18
 -1      3540 1.22686E-04-3.28419E-05-3.87409E-05 1.11302E-05 8.15428E-19 1.35865E-18
 -1      3541 1.17056E-04-3.46104E-05-3.54870E-05 8.12290E-06 3.24094E-19 6.29409E-19
 -1      3542 6.37057E-05-9.65307E-06-2.31761E-05-6.07516E-06-2.30856E-19 1.44096E-18
 -1      3543 7.93212E-05-2.77492E-05-2.19334E-05 3.03870E-05-2.11684E-18 2.08042E-18
 -1      3544 7.37111E-05-2.26166E-05-2.18562E-05 2.61772E-05-1.64519E-18 2.35671E-18
 -1      3545 8.64769E-05-3.06610E-05-2.38268E-05 2.68948E-05-1.91925E-18 1.37443E-18
 -1      3546 1.20317E-04-2.94464E-05-3.90107E-05 1.31955E-05 1.05685E-18 1.35087E-18
 -1      3547 1.15644E-04-2.49192E-05-3.90705E-05 1.34555E-05 1.38755E-18 1.03513E-18
 -1      3548 1.17883E-04-3.18181E-05-3.69264E-05 1.12261E-05 6.64052E-19 1.00718E-18
 -1      3549 9.52392E-05-2.85744E-05-2.85706E-05 4.09644E-09 2.21770E-19-1.55219E-18
 -1      3550 5.69985E-05-1.15288E-05-1.91267E-05 1.72453E-05-2.00360E-18 2.92642E-18
 -1      3551 5.88025E-05-1.00361E-05-2.08178E-05 9.95003E-06-1.79128E-18 2.66606E-18
 -1      3552 6.44196E-05-1.52901E-05-2.09260E-05 1.97505E-05-1.62504E-18 3.68168E-18
 -1      3553 1.01760E-04-2.27347E-05-3.39241E-05-7.15847E-06 1.03180E-18 1.20910E-19
 -1      3554 1.00910E-04-2.08685E-05-3.42704E-05-5.01677E-06 1.40385E-18 8.28438E-20
 -1      3555 1.04804E-04-2.38649E-05-3.46890E-05-8.62338E-06 1.04858E-18-2.91651E-19
 -1      3556 9.52398E-05-2.85749E-05-2.85707E-05 4.21807E-09-3.39024E-19-7.65677E-19
 -1      3557 9.52397E-05-2.85748E-05-2.85707E-05-3.76137E-09-5.19775E-19 1.13751E-18
 -1      3558 9.52397E-05-2.85748E-05-2.85707E-05-4.23169E-09-2.47634E-19-2.44765E-19
 -1      3559 9.52405E-05-2.85754E-05-2.85707E-05-3.03675E-09-7.43894E-19 9.13250E-19
 -1      3560 1.20854E-04-5.06456E-05-3.00026E-05 1.37761E-05-1.48095E-18-1.33287E-18
 -1      3561 1.08467E-04-3.69282E-05-3.06371E-05-6.10382E-06 3.36890E-19-3.72067E-19
 -1      3562 1.06681E-04-3.53618E-05-3.05847E-05-7.47528E-06 1.28263E-19-5.24964E-19
 -1      3563 1.06503E-04-3.41411E-05-3.10073E-05-8.47209E-06 3.62845E-19-2.74321E-19
 -1      3564 9.52395E-05-2.85747E-05-2.85707E-05-5.27908E-09 4.23397E-19-8.43782E-19
 -1      3565 9.52415E-05-2.85762E-05-2.85709E-05 3.93696E-10-2.23112E-19-3.45676E-18
 -1      3566 9.52420E-05-2.85765E-05-2.85710E-05-1.64881E-11-1.72078E-18-2.97593E-18
 -1      3567 9.52414E-05-2.85761E-05-2.85708E-05 1.08672E-09-9.48682E-19-1.61556E-18
 -1      3568 1.12978E-04-2.22522E-05-3.90158E-05-1.00599E-05 1.51713E-18-1.00833E-18
 -1      3569 9.52411E-05-2.85758E-05-2.85708E-05 3.03826E-09-1.29660E-18 4.24148E-20
 -1      3570 9.52409E-05-2.85757E-05-2.85708E-05 2.47622E-09-2.39037E-18-8.05172E-19
 -1      3571 9.52412E-05-2.85759E-05-2.85708E-05 1.85800E-09-1.10479E-18-9.07641E-19
 -1      3572 9.52412E-05-2.85759E-05-2.85708E-05-1.80723E-09 9.56402E-19 2.40896E-18
 -1      3573 9.52409E-05-2.85757E-05-2.85708E-05-2.41968E-09-7.59108E-19 1.36990E-18
 -1      3574 9.52411E-05-2.85758E-05-2.85709E-05-2.86973E-09-7.90658E-19 1.53576E-18
 -1      3575 9.52418E-05-2.85763E-05-2.85709E-05-1.54850E-09-8.53494E-19 7.46353E-19
 -1      3576 1.13041E-04-1.58653E-05-4.18067E-05 9.49968E-06 2.06875E-18 9.67609E-19
 -1      3577 1.07690E-04-1.28334E-05-4.06602E-05 1.37118E-06 2.34948E-18 3.14469E-19
 -1      3578 1.09160E-04-1.29540E-05-4.14473E-05-2.17174E-06 2.26287E-18-2.19100E-19
 -1      3579 1.07687E-04-1.57830E-05-3.94814E-05-4.66422E-06 1.75700E-18-3.26306E-19
 -1      3580 1.03705E-04-4.26901E-05-2.60219E-05 2.57142E-05-2.06859E-18 5.14791E-19
 -1      3581 1.01752E-04-2.10366E-05-3.46389E-05 6.98090E-06 1.43227E-18 2.93563E-19
 -1      3582 1.04620E-04-2.14585E-05-3.56749E-05 8.91949E-06 1.47862E-18 3.80179E-19
 -1      3583 1.00864E-04-1.97441E-05-3.47210E-05 4.44663E-06 1.61748E-18 1.86863E-19
 -1      3584 1.05394E-04-2.66679E-05-3.37162E-05 1.17272E-05 1.18880E-18 5.48400E-19
 -1      3585 1.06020E-04-2.79982E-05-3.34897E-05 1.23582E-05 1.11210E-18 6.17641E-19
 -1      3586 1.07087E-04-2.56733E-05-3.48355E-05 1.21349E-05 1.18699E-18 6.49707E-19
 -1      3587 6.44950E-05-9.90802E-06-2.32542E-05-5.18140E-07-3.58879E-19 6.95659E-19
 -1      3588 1.04786E-04-2.78952E-05-3.29161E-05 1.24000E-05 1.09164E-18 9.78652E-19
 -1      3589 1.06171E-04-3.24286E-05-3.16548E-05-9.67808E-06 2.57264E-19-6.86792E-20
 -1      3590 1.05331E-04-3.02447E-05-3.21553E-05-9.90834E-06 5.90286E-19-5.62334E-20
 -1      3591 1.07392E-04-2.95156E-05-3.33525E-05-1.03649E-05 7.90441E-19-6.00487E-19
 -1      3592 1.08949E-04-3.46819E-05-3.18161E-05-8.92362E-06 3.69697E-19-5.14434E-19
 -1      3593 1.06584E-04-2.84411E-05-3.34798E-05 1.22083E-05 1.07801E-18 5.49999E-19
 -1      3594 1.07198E-04-2.88000E-05-3.36562E-05 1.21722E-05 1.01288E-18 3.49941E-19
 -1      3595 1.09581E-04-2.98481E-05-3.41512E-05 1.15830E-05 8.46723E-19 1.92296E-19
 -1      3596 1.08797E-04-2.86996E-05-3.42866E-05 1.24238E-05 9.45776E-19 2.32654E-19
 -1      3597 1.21270E-04-3.54991E-05-3.68615E-05-9.79451E-06 7.81957E-19-1.86323E-18
 -1      3598 1.26082E-04-4.76217E-05-3.36775E-05 3.36881E-07-2.99786E-19-2.73385E-18
 -1      3599 8.40957E-05-1.95235E-05-2.77342E-05 1.54369E-08-6.88664E-19 1.68562E-18
 -1      3600 8.60475E-05-2.06839E-05-2.80274E-05-3.63554E-07-3.15755E-19 2.04247E-18
 -1      3601 8.75311E-05-2.16800E-05-2.82613E-05-9.05609E-07 1.26898E-20 1.55785E-18
 -1      3602 8.88819E-05-2.26095E-05-2.84147E-05-1.03022E-06 5.53898E-19 1.02276E-18
 -1      3603 8.67691E-05-2.13577E-05-2.79859E-05 9.20068E-07-3.06279E-19 1.71528E-18
 -1      3604 8.99609E-05-2.34177E-05-2.85438E-05-1.29640E-06 2.31194E-19 7.25720E-19
 -1      3605 9.08857E-05-2.41351E-05-2.86171E-05-1.27529E-06 1.72278E-19 3.37891E-19
 -1      3606 8.92476E-05-2.30098E-05-2.83542E-05-9.87393E-08 1.90967E-20 3.06339E-19
 -1      3607 9.16915E-05-2.47923E-05-2.86864E-05-1.37661E-06 8.20871E-20-4.58566E-19
 -1      3608 9.23379E-05-2.53538E-05-2.87153E-05-1.27717E-06-6.54540E-19-6.74478E-19
 -1      3609 9.10810E-05-2.43891E-05-2.85597E-05-6.09353E-07-4.01238E-19-6.04034E-19
 -1      3610 9.28748E-05-2.58255E-05-2.87444E-05-1.27790E-06-2.25899E-19 9.29240E-20
 -1      3611 9.32816E-05-2.62174E-05-2.87483E-05-1.15449E-06 9.09866E-19 1.93864E-19
 -1      3612 9.23802E-05-2.54611E-05-2.86635E-05-8.05938E-07 1.46259E-19-8.62065E-19
 -1      3613 9.36579E-05-2.65686E-05-2.87574E-05-1.10811E-06 7.91183E-19-4.78329E-19
 -1      3614 9.39272E-05-2.68563E-05-2.87498E-05-9.82299E-07 3.30500E-19-6.24283E-19
 -1      3615 9.32698E-05-2.62615E-05-2.87069E-05-8.19569E-07 3.61194E-19-1.78446E-19
 -1      3616 9.41892E-05-2.71162E-05-2.87480E-05-9.16582E-07 1.39393E-19-1.07571E-18
 -1      3617 9.43662E-05-2.73259E-05-2.87355E-05-8.01517E-07-5.79105E-19-1.25526E-18
 -1      3618 9.38922E-05-2.68658E-05-2.87182E-05-7.45201E-07 1.03291E-19-4.75473E-19
 -1      3619 9.45474E-05-2.75169E-05-2.87284E-05-7.32319E-07-3.66476E-19-7.77336E-19
 -1      3620 9.46630E-05-2.76692E-05-2.87146E-05-6.33107E-07-1.08606E-19-2.39953E-19
 -1      3621 9.43249E-05-2.73184E-05-2.87122E-05-6.34489E-07-2.79892E-19-7.26539E-19
 -1      3622 9.47879E-05-2.78094E-05-2.87054E-05-5.68470E-07-5.98210E-19-5.53091E-19
 -1      3623 9.48631E-05-2.79202E-05-2.86921E-05-4.86346E-07-4.33811E-19-3.94931E-19
 -1      3624 9.46242E-05-2.76548E-05-2.86980E-05-5.15692E-07-3.74322E-19 4.97753E-20
 -1      3625 9.49489E-05-2.80229E-05-2.86825E-05-4.30160E-07-4.19061E-20-7.25445E-19
 -1      3626 9.49977E-05-2.81037E-05-2.86706E-05-3.64200E-07-3.95866E-19 2.51320E-19
 -1      3627 9.48307E-05-2.79045E-05-2.86805E-05-4.04200E-07-6.51150E-19-1.90088E-19
 -1      3628 9.50564E-05-2.81790E-05-2.86615E-05-3.17617E-07-8.13381E-19 2.23748E-19
 -1      3629 9.50878E-05-2.82379E-05-2.86512E-05-2.65907E-07-1.55290E-18 8.00416E-20
 -1      3630 9.49725E-05-2.80895E-05-2.86628E-05-3.07110E-07-9.14943E-19-4.84354E-19
 -1      3631 9.51277E-05-2.82930E-05-2.86431E-05-2.28622E-07-1.54640E-18 7.57298E-19
 -1      3632 9.51478E-05-2.83360E-05-2.86345E-05-1.88933E-07-8.78255E-19 1.23350E-18
 -1      3633 9.50694E-05-2.82263E-05-2.86462E-05-2.26600E-07-9.78660E-19-2.39216E-19
 -1      3634 9.51747E-05-2.83762E-05-2.86275E-05-1.59948E-07-3.87239E-19 1.69228E-18
 -1      3635 9.51873E-05-2.84076E-05-2.86206E-05-1.30087E-07 1.65643E-19 2.27049E-18
 -1      3636 9.51351E-05-2.83272E-05-2.86314E-05-1.62237E-07-3.48080E-19 1.89104E-18
 -1      3637 9.52052E-05-2.84368E-05-2.86147E-05-1.08138E-07-2.95419E-19 2.30035E-18
 -1      3638 9.52130E-05-2.84596E-05-2.86091E-05-8.61187E-08-7.21005E-19 1.71988E-18
 -1      3639 9.51792E-05-2.84014E-05-2.86187E-05-1.12312E-07 1.01318E-19 2.99659E-18
 -1      3640 9.52246E-05-2.84807E-05-2.86043E-05-6.99158E-08-9.64471E-19 1.06698E-18
 -1      3641 9.52293E-05-2.84971E-05-2.85998E-05-5.40254E-08-6.44619E-19 1.43725E-18
 -1      3642 9.52083E-05-2.84555E-05-2.86081E-05-7.46238E-08-1.34199E-18 2.02007E-18
 -1      3643 9.52366E-05-2.85122E-05-2.85959E-05-4.23785E-08-2.08702E-19 1.47051E-18
 -1      3644 9.52392E-05-2.85239E-05-2.85925E-05-3.11887E-08-3.09661E-20 1.74791E-18
 -1      3645 9.52270E-05-2.84947E-05-2.85995E-05-4.69153E-08-1.93792E-19 2.19219E-18
 -1      3646 9.52435E-05-2.85345E-05-2.85894E-05-2.30630E-08-2.20114E-19 1.57988E-18
 -1      3647 9.52448E-05-2.85428E-05-2.85867E-05-1.54125E-08 2.53250E-19 2.66976E-18
 -1      3648 9.52386E-05-2.85227E-05-2.85925E-05-2.71005E-08-1.62485E-19 9.82674E-19
 -1      3649 9.52472E-05-2.85501E-05-2.85843E-05-9.94404E-09 5.36052E-19 2.45340E-18
 -1      3650 9.52476E-05-2.85558E-05-2.85823E-05-4.90799E-09 1.85719E-18 1.46135E-18
 -1      3651 9.52452E-05-2.85424E-05-2.85869E-05-1.33671E-08 2.29303E-19 1.46562E-18
 -1      3652 9.52487E-05-2.85607E-05-2.85805E-05-1.39780E-09 1.53759E-18 1.41447E-19
 -1      3653 9.52486E-05-2.85645E-05-2.85790E-05 1.74680E-09 2.03047E-18-5.21542E-19
 -1      3654 9.52487E-05-2.85559E-05-2.85826E-05-4.20518E-09 5.73023E-19 6.71742E-19
 -1      3655 9.52488E-05-2.85677E-05-2.85775E-05 3.84979E-09 4.07902E-18-1.75504E-18
 -1      3656 9.52484E-05-2.85701E-05-2.85764E-05 5.65820E-09 5.28339E-18-1.47630E-18
 -1      3657 9.52500E-05-2.85650E-05-2.85793E-05 1.60334E-09 2.64163E-18-4.09710E-19
 -1      3658 9.52481E-05-2.85721E-05-2.85754E-05 6.77855E-09 4.42842E-18-3.10562E-18
 -1      3659 9.52476E-05-2.85736E-05-2.85746E-05 7.66974E-09 3.77940E-18-3.05480E-18
 -1      3660 9.52499E-05-2.85708E-05-2.85768E-05 5.01570E-09 3.87147E-18-3.55474E-18
 -1      3661 9.52470E-05-2.85747E-05-2.85738E-05 8.12730E-09 3.37230E-18-3.60203E-18
 -1      3662 9.52464E-05-2.85755E-05-2.85733E-05 8.41148E-09 1.79430E-18-2.39106E-18
 -1      3663 9.52490E-05-2.85743E-05-2.85749E-05 6.76632E-09 3.57696E-18-3.51059E-18
 -1      3664 9.52457E-05-2.85760E-05-2.85727E-05 8.44176E-09 1.21323E-18-1.46071E-18
 -1      3665 9.52451E-05-2.85763E-05-2.85723E-05 8.34388E-09 2.76106E-19-4.41705E-19
 -1      3666 9.52477E-05-2.85762E-05-2.85735E-05 7.40587E-09 2.46871E-18-2.45992E-18
 -1      3667 9.52443E-05-2.85765E-05-2.85719E-05 8.11614E-09-8.72319E-19-3.59760E-19
 -1      3668 9.52438E-05-2.85765E-05-2.85717E-05 7.79542E-09-3.71898E-19 2.49291E-19
 -1      3669 9.52463E-05-2.85770E-05-2.85726E-05 7.33758E-09 6.98960E-20-2.04626E-18
 -1      3670 9.52430E-05-2.85764E-05-2.85714E-05 7.42811E-09 1.84893E-19-1.13440E-19
 -1      3671 9.52426E-05-2.85763E-05-2.85713E-05 6.99363E-09 5.52154E-19-2.87149E-19
 -1      3672 9.52447E-05-2.85771E-05-2.85719E-05 6.84984E-09-3.36397E-19-1.42591E-18
 -1      3673 9.52419E-05-2.85760E-05-2.85711E-05 6.56740E-09 7.72221E-19-8.04660E-20
 -1      3674 9.52414E-05-2.85758E-05-2.85710E-05 6.08733E-09 1.11199E-18 4.17631E-19
 -1      3675 9.52433E-05-2.85768E-05-2.85714E-05 6.14244E-09 8.17671E-19 4.72395E-19
 -1      3676 9.52408E-05-2.85755E-05-2.85708E-05 5.65039E-09 5.24827E-19 9.23336E-19
 -1      3677 9.52405E-05-2.85753E-05-2.85708E-05 5.16431E-09 7.16106E-19 6.82637E-19
 -1      3678 9.52421E-05-2.85762E-05-2.85711E-05 5.35637E-09 1.61327E-18 3.46392E-19
 -1      3679 9.52401E-05-2.85751E-05-2.85707E-05 4.53653E-09 4.04277E-19-3.16326E-19
 -1      3680 1.07547E-04-3.84708E-05-2.95657E-05-7.90217E-07 7.23719E-20-3.88466E-19
 -1      3681 1.08683E-04-3.88915E-05-2.99445E-05-2.12805E-06 2.28148E-19-6.39775E-19
 -1      3682 9.74240E-05-3.07759E-05-2.85476E-05 2.57479E-06-9.30123E-19 1.46263E-18
 -1      3683 9.81452E-05-3.14958E-05-2.85594E-05 2.56092E-06-5.02044E-19 1.38976E-18
 -1      3684 9.91015E-05-3.23545E-05-2.85808E-05 2.64006E-06-6.39531E-19 9.41278E-19
 -1      3685 1.00073E-04-3.32721E-05-2.86291E-05 2.44663E-06-7.84527E-19 6.54320E-19
 -1      3686 9.83491E-05-3.19036E-05-2.85063E-05 3.40741E-06-9.30952E-19 2.17355E-18
 -1      3687 9.55864E-05-2.88764E-05-2.85854E-05 1.95020E-06-1.11003E-18 1.06029E-18
 -1      3688 9.59058E-05-2.92171E-05-2.85747E-05 2.07804E-06-7.38113E-19 9.89397E-19
 -1      3689 9.51824E-05-2.84153E-05-2.86126E-05 1.59338E-06-1.38853E-18 9.38495E-19
 -1      3690 9.53717E-05-2.86202E-05-2.86025E-05 1.73304E-06-1.19798E-18 1.03620E-18
 -1      3691 9.52096E-05-2.85818E-05-2.85638E-05 2.03158E-06-1.19229E-18 1.12458E-18
 -1      3692 9.49817E-05-2.81698E-05-2.86335E-05 1.26742E-06-6.04922E-19 2.99410E-19
 -1      3693 9.50820E-05-2.82770E-05-2.86264E-05 1.40127E-06-7.92040E-19 4.08425E-19
 -1      3694 9.49085E-05-2.81927E-05-2.85978E-05 1.59254E-06-7.99422E-19 5.44105E-19
 -1      3695 9.49086E-05-2.80694E-05-2.86461E-05 9.87645E-07-8.61100E-19 6.33607E-19
 -1      3696 9.49522E-05-2.81117E-05-2.86427E-05 1.10685E-06-5.58088E-19 4.40939E-19
 -1      3697 9.47882E-05-2.80078E-05-2.86229E-05 1.22373E-06-4.61364E-19 2.56639E-19
 -1      3698 9.49086E-05-2.80586E-05-2.86511E-05 7.55976E-07-2.12844E-19 6.10169E-19
 -1      3699 9.49186E-05-2.80609E-05-2.86509E-05 8.57870E-07-3.57163E-19 3.45971E-19
 -1      3700 9.47746E-05-2.79548E-05-2.86383E-05 9.26355E-07-9.01655E-19-1.03320E-19
 -1      3701 9.49463E-05-2.80990E-05-2.86501E-05 5.68932E-07-3.71359E-19 2.10108E-18
 -1      3702 9.49383E-05-2.80789E-05-2.86523E-05 6.53275E-07-6.41770E-19 1.49115E-18
 -1      3703 9.48177E-05-2.79794E-05-2.86453E-05 6.91493E-07-1.08073E-18 9.79432E-19
 -1      3704 9.49992E-05-2.81640E-05-2.86448E-05 4.21080E-07 4.82114E-19 3.35409E-18
 -1      3705 9.49831E-05-2.81333E-05-2.86486E-05 4.89223E-07 4.99862E-19 2.61100E-18
 -1      3706 9.48861E-05-2.80456E-05-2.86457E-05 5.09443E-07-4.14350E-19 2.09878E-18
 -1      3707 9.50539E-05-2.82365E-05-2.86371E-05 3.06121E-07 1.08751E-18 3.04901E-18
 -1      3708 9.50357E-05-2.82029E-05-2.86417E-05 3.60082E-07 8.19959E-19 2.85118E-18
 -1      3709 9.49601E-05-2.81288E-05-2.86416E-05 3.70275E-07 5.86308E-19 2.35649E-18
 -1      3710 9.51035E-05-2.83066E-05-2.86281E-05 2.18046E-07 1.79447E-19 1.62635E-18
 -1      3711 9.50863E-05-2.82745E-05-2.86330E-05 2.60009E-07 8.86643E-19 2.43220E-18
 -1      3712 9.50293E-05-2.82139E-05-2.86347E-05 2.65019E-07 1.28865E-18 2.76136E-18
 -1      3713 9.51450E-05-2.83690E-05-2.86190E-05 1.51543E-07-6.96724E-19 2.47740E-18
 -1      3714 9.51304E-05-2.83406E-05-2.86237E-05 1.83609E-07-5.45193E-19 1.85485E-18
 -1      3715 9.50886E-05-2.82925E-05-2.86265E-05 1.86206E-07 8.23040E-20 2.21135E-18
 -1      3716 9.51778E-05-2.84217E-05-2.86103E-05 1.02095E-07 4.90379E-20 2.04743E-18
 -1      3717 9.51662E-05-2.83978E-05-2.86147E-05 1.26160E-07 1.86622E-19 2.23836E-18
 -1      3718 9.51365E-05-2.83606E-05-2.86179E-05 1.27818E-07-2.94354E-19 2.31945E-18
 -1      3719 9.52024E-05-2.84643E-05-2.86024E-05 6.59482E-08 1.36504E-19 9.99689E-19
 -1      3720 9.51937E-05-2.84451E-05-2.86063E-05 8.36627E-08 3.01752E-19 1.57102E-18
 -1      3721 9.51735E-05-2.84170E-05-2.86097E-05 8.50840E-08 3.28286E-19 1.86524E-18
 -1      3722 9.52201E-05-2.84976E-05-2.85956E-05 4.00396E-08 1.06683E-18 3.12919E-19
 -1      3723 9.52139E-05-2.84827E-05-2.85989E-05 5.27988E-08 4.33748E-19 1.41740E-19
 -1      3724 9.52008E-05-2.84620E-05-2.86021E-05 5.42550E-08 8.47098E-19 1.06822E-18
 -1      3725 9.52322E-05-2.85229E-05-2.85899E-05 2.19030E-08-4.00081E-19 1.48651E-18
 -1      3726 9.52280E-05-2.85116E-05-2.85926E-05 3.08613E-08 6.02827E-19 8.22621E-19
 -1      3727 9.52201E-05-2.84968E-05-2.85956E-05 3.24056E-08 3.37272E-19 7.91218E-19
 -1      3728 9.52399E-05-2.85414E-05-2.85852E-05 9.57827E-09 5.83370E-19 1.33370E-18
 -1      3729 9.52374E-05-2.85332E-05-2.85874E-05 1.56725E-08 3.04898E-20 1.64010E-18
 -1      3730 9.52331E-05-2.85230E-05-2.85900E-05 1.72633E-08-2.05456E-19 1.37212E-18
 -1      3731 9.52445E-05-2.85546E-05-2.85814E-05 1.52694E-09-2.87095E-19 1.21058E-18
 -1      3732 9.52430E-05-2.85488E-05-2.85832E-05 5.50426E-09 7.07378E-19 1.26353E-18
 -1      3733 9.52413E-05-2.85420E-05-2.85854E-05 7.07207E-09 1.90590E-19 1.63629E-18
 -1      3734 9.52468E-05-2.85637E-05-2.85785E-05-3.44326E-09 5.01288E-19 3.45237E-19
 -1      3735 9.52461E-05-2.85597E-05-2.85798E-05-9.97263E-10 3.26454E-19 9.86579E-19
 -1      3736 9.52461E-05-2.85555E-05-2.85817E-05 4.83070E-10 3.35874E-19 2.35552E-18
 -1      3737 9.52475E-05-2.85697E-05-2.85762E-05-6.24346E-09-4.95747E-19 8.43556E-19
 -1      3738 9.52474E-05-2.85671E-05-2.85772E-05-4.87759E-09 9.09103E-20 7.30876E-19
 -1      3739 9.52484E-05-2.85646E-05-2.85787E-05-3.53135E-09-2.88672E-20-2.75568E-19
 -1      3740 9.52473E-05-2.85734E-05-2.85745E-05-7.55931E-09-6.12862E-19 1.34532E-18
 -1      3741 9.52475E-05-2.85718E-05-2.85753E-05-6.93218E-09 6.05594E-21 1.03027E-18
 -1      3742 9.52490E-05-2.85706E-05-2.85765E-05-5.74645E-09-3.72779E-19 8.73769E-19
 -1      3743 9.52464E-05-2.85754E-05-2.85733E-05-7.89782E-09-4.26031E-20 1.38210E-18
 -1      3744 9.52468E-05-2.85745E-05-2.85738E-05-7.75619E-09-4.52819E-19 1.48518E-18
 -1      3745 9.52486E-05-2.85742E-05-2.85748E-05-6.73984E-09-4.91597E-19 1.35359E-18
 -1      3746 9.52453E-05-2.85764E-05-2.85724E-05-7.62642E-09 1.08967E-18 4.76579E-19
 -1      3747 9.52458E-05-2.85760E-05-2.85728E-05-7.78656E-09 3.53124E-19 9.41413E-19
 -1      3748 9.52476E-05-2.85761E-05-2.85735E-05-6.93529E-09 1.95436E-19 1.20874E-18
 -1      3749 9.52440E-05-2.85766E-05-2.85718E-05-7.00511E-09 1.63053E-18-9.42489E-19
 -1      3750 9.52446E-05-2.85765E-05-2.85720E-05-7.33718E-09 1.51148E-18-1.84265E-19
 -1      3751 9.52462E-05-2.85770E-05-2.85725E-05-6.63814E-09 1.59836E-18-3.78359E-19
 -1      3752 9.52428E-05-2.85764E-05-2.85713E-05-6.21145E-09 1.31419E-18-1.31684E-18
 -1      3753 9.52433E-05-2.85765E-05-2.85715E-05-6.62692E-09 1.36410E-18-1.44016E-18
 -1      3754 9.52448E-05-2.85771E-05-2.85719E-05-6.06302E-09 1.90282E-18-6.84277E-20
 -1      3755 9.52417E-05-2.85759E-05-2.85710E-05-5.35583E-09-8.64907E-19 3.00657E-19
 -1      3756 9.52421E-05-2.85761E-05-2.85711E-05-5.79611E-09 1.45198E-19-2.76648E-19
 -1      3757 9.52434E-05-2.85768E-05-2.85714E-05-5.35763E-09-5.85206E-24 9.01874E-19
 -1      3758 1.12043E-04-1.86965E-05-3.99681E-05 1.17971E-05 1.91154E-18 1.01961E-18
 -1      3759 1.08593E-04-1.47854E-05-4.04172E-05 7.12879E-06 2.28729E-18 7.86161E-19
 -1      3760 7.25674E-05-1.40713E-05-2.51306E-05 4.73830E-06 1.44514E-19 2.17210E-18
 -1      3761 7.66131E-05-1.57026E-05-2.61166E-05 3.27060E-06-6.19267E-19 2.19855E-18
 -1      3762 9.62937E-05-2.96356E-05-2.85586E-05 2.30161E-06-5.67981E-19 1.07391E-18
 -1      3763 9.67908E-05-3.01515E-05-2.85534E-05 2.38536E-06-6.62461E-19 1.18846E-18
 -1      3764 9.67885E-05-3.03418E-05-2.84984E-05 3.01776E-06-5.10447E-19 2.15781E-18
 -1      3765 1.07668E-04-2.20969E-05-3.67426E-05-9.22638E-06 1.16632E-18-5.17777E-19
 -1      3766 1.11041E-04-2.69972E-05-3.60232E-05-1.13680E-05 1.12879E-18-9.84960E-19
 -1      3767 1.00320E-04-1.96214E-05-3.45966E-05-1.82610E-06 1.58197E-18 1.33470E-20
 -1      3768 1.00247E-04-1.92365E-05-3.47363E-05 9.21801E-07 1.56738E-18-9.27766E-21
 -1      3769 1.02407E-04-1.81084E-05-3.61136E-05 3.15068E-06 1.64310E-18-1.68502E-19
 -1      3770 1.02605E-04-1.92542E-05-3.57401E-05-3.59892E-06 1.40329E-18-2.57333E-19
 -1      3771 1.10414E-04-2.54710E-05-3.63700E-05 1.24930E-05 1.17664E-18 8.07375E-19
 -1      3772 1.11580E-04-2.85038E-05-3.56862E-05 1.27604E-05 8.64447E-19 5.91476E-19
 -1      3773 1.11726E-04-3.09441E-05-3.47002E-05 1.10652E-05 7.28157E-19 4.34554E-19
 -1      3774 1.14375E-04-3.28292E-05-3.49522E-05 9.32632E-06 4.39808E-19 5.53046E-19
 -1      3775 1.17242E-04-3.30794E-05-3.60223E-05 1.05322E-05 4.08257E-19 8.92488E-19
 -1      3776 1.11537E-04-3.03653E-05-3.48105E-05 1.17108E-05 6.73758E-19 4.02331E-19
 -1      3777 1.21212E-04-4.96854E-05-3.08943E-05 8.55989E-06-1.11340E-18-1.69636E-18
 -1      3778 1.16548E-04-4.82532E-05-2.90546E-05 1.48192E-05-1.41182E-18-1.05038E-18
 -1      3779 5.96155E-05-9.34695E-06-2.12248E-05 6.46681E-06-1.32647E-18 1.73721E-18
 -1      3780 6.12479E-05-9.50338E-06-2.19911E-05 2.73071E-06-8.44201E-19 1.19948E-18
 -1      3781 6.30218E-05-1.15403E-05-2.21342E-05 1.06939E-05-1.42754E-18 2.85625E-18
 -1      3782 1.16146E-04-3.16633E-05-3.63278E-05-1.12131E-05 1.19261E-18-1.42893E-18
 -1      3783 1.20998E-04-3.90333E-05-3.49800E-05-8.58555E-06 4.58536E-19-1.73831E-18
 -1      3784 1.08483E-04-4.50260E-05-2.74156E-05 2.09289E-05-2.06271E-18 8.25725E-20
 -1      3785 9.82813E-05-3.81438E-05-2.56430E-05 2.45371E-05-2.46567E-18 6.68220E-19
 -1      3786 7.92838E-05-1.69519E-05-2.68007E-05 1.78683E-06-1.01317E-18 1.86855E-18
 -1      3787 8.20790E-05-1.83501E-05-2.73301E-05 9.95863E-07-1.06875E-18 1.92951E-18
 -1      3788 8.34089E-05-1.94274E-05-2.73466E-05 2.75149E-06-9.26567E-19 1.97629E-18
 -1      3789 7.87739E-05-1.72049E-05-2.62678E-05 5.78480E-06-7.60333E-19 1.67124E-18
 -1      3790 9.52407E-05-2.85754E-05-2.85708E-05-4.55575E-09-4.27011E-19-1.00021E-19
 -1      3791 1.22799E-04-4.47156E-05-3.36927E-05-3.23067E-06 1.11094E-19-1.98812E-18
 -1      3792 1.23487E-04-4.80137E-05-3.21904E-05 2.48005E-06-5.83417E-19-2.15866E-18
 -1      3793 1.19476E-04-4.68619E-05-3.11113E-05 4.25723E-06-5.66106E-19-1.35877E-18
 -1      3794 9.52410E-05-2.85757E-05-2.85709E-05 4.30747E-09-3.93915E-19 8.03533E-19
 -1      3795 1.11024E-04-3.08611E-05-3.44008E-05-1.03086E-05 9.80593E-19-8.46206E-19
 -1      3796 1.06398E-04-1.91304E-05-3.74486E-05-7.31066E-06 1.42496E-18-5.84324E-19
 -1      3797 9.36525E-05-3.48094E-05-2.51763E-05 2.49509E-05-2.02985E-18 3.33327E-19
 -1      3798 8.82982E-05-3.04654E-05-2.48082E-05 2.34891E-05-1.48977E-18 7.93657E-19
 -1      3799 9.92423E-05-3.71930E-05-2.65025E-05 2.04362E-05-2.23071E-18 1.28008E-19
 -1      3800 1.14648E-04-3.01005E-05-3.62613E-05 1.22770E-05 7.23654E-19 8.83349E-19
 -1      3801 7.09919E-05-1.87918E-05-2.21557E-05 2.17601E-05-1.18229E-18 3.19149E-18
 -1      3802 6.92249E-05-1.55627E-05-2.28828E-05 1.57458E-05-1.33987E-18 4.21511E-18
 -1      3803 7.78224E-05-2.24039E-05-2.37162E-05 2.10738E-05-1.16276E-18 1.83409E-18
 -1      3804 1.18938E-04-4.09708E-05-3.34562E-05-5.82847E-06 3.66692E-19-1.14268E-18
 -1      3805 1.05609E-04-3.74718E-05-2.92250E-05 3.70586E-07-3.85259E-21-1.36084E-19
 -1      3806 1.07330E-04-3.88958E-05-2.93675E-05 1.47018E-06-1.98450E-19-2.30239E-19
 -1      3807 1.04310E-04-3.65360E-05-2.90026E-05 1.24162E-06-3.23750E-19 5.74866E-20
 -1      3808 9.57927E-05-2.92651E-05-2.85263E-05 2.52350E-06-5.99189E-19 1.50293E-18
 -1      3809 1.10412E-04-3.91894E-05-3.05197E-05-3.92206E-06 2.49584E-19-5.89196E-19
 -1      3810 1.10975E-04-3.85980E-05-3.10275E-05-5.46037E-06 2.25859E-19-8.02962E-19
 -1      3811 1.11089E-04-4.03862E-05-3.03019E-05-1.43775E-06 1.32954E-19-8.87849E-19
 -1      3812 1.00620E-04-3.39831E-05-2.85964E-05 3.49614E-06-8.00459E-19 1.28283E-18
 -1      3813 1.01413E-04-3.43454E-05-2.87070E-05 2.28782E-06-5.61578E-19 5.58450E-19
 -1      3814 1.02607E-04-3.53748E-05-2.88225E-05 1.80722E-06-4.25026E-19 4.09483E-19
 -1      3815 1.06562E-04-1.55151E-05-3.90866E-05 3.93596E-06 2.06591E-18 5.72660E-19
 -1      3816 1.11825E-04-2.30780E-05-3.80469E-05 1.20758E-05 1.45682E-18 9.04261E-19
 -1      3817 9.52415E-05-2.85760E-05-2.85709E-05-3.47810E-09-1.40166E-19 2.73700E-20
 -1      3818 9.52415E-05-2.85759E-05-2.85710E-05-4.64759E-09 4.22973E-19 3.13949E-19
 -1      3819 9.52425E-05-2.85765E-05-2.85712E-05-4.24803E-09-2.55414E-19 7.51644E-19
 -1      3820 9.52419E-05-2.85763E-05-2.85710E-05-2.86936E-09-7.29582E-19 1.48016E-18
 -1      3821 9.52418E-05-2.85763E-05-2.85709E-05 1.59136E-09-1.39570E-18-1.85583E-18
 -1      3822 9.52417E-05-2.85761E-05-2.85710E-05 3.55294E-09 5.91142E-19 7.99029E-19
 -1      3823 9.52422E-05-2.85765E-05-2.85710E-05 2.88964E-09 8.56109E-20-5.77569E-19
 -1      3824 9.52422E-05-2.85764E-05-2.85711E-05 4.19141E-09 1.53074E-18 1.16837E-19
 -1      3825 9.52426E-05-2.85767E-05-2.85711E-05-1.38907E-09-1.97234E-18-4.81203E-19
 -1      3826 9.52423E-05-2.85766E-05-2.85711E-05-2.10166E-09-1.06827E-18 1.09211E-18
 -1      3827 9.52427E-05-2.85767E-05-2.85711E-05-2.75657E-09-8.41787E-19 8.31486E-19
 -1      3828 1.11026E-04-4.46540E-05-2.83825E-05 1.54659E-05-1.75747E-18-3.56894E-19
 -1      3829 1.06769E-04-2.08012E-05-3.69544E-05 1.04386E-05 1.63554E-18 7.56860E-19
 -1      3830 6.65700E-05-1.10990E-05-2.36991E-05 4.14170E-06-3.96747E-19 9.53382E-19
 -1      3831 1.04494E-04-1.76845E-05-3.72020E-05-4.59148E-06 1.56728E-18-3.62826E-19
 -1      3832 9.52428E-05-2.85768E-05-2.85711E-05 3.61897E-10-1.66342E-18-3.85729E-18
 -1      3833 9.52428E-05-2.85768E-05-2.85711E-05-4.60081E-10-1.77942E-18-2.54648E-18
 -1      3834 9.52433E-05-2.85771E-05-2.85712E-05-1.03194E-09-1.62073E-18-1.31957E-18
 -1      3835 7.11658E-05-1.46716E-05-2.41764E-05 9.44132E-06-2.88997E-19 2.90432E-18
 -1      3836 7.50343E-05-1.72332E-05-2.47271E-05 1.23103E-05-7.20908E-19 2.81025E-18
 -1      3837 1.05351E-04-1.83155E-05-3.73214E-05 7.95585E-06 1.82085E-18 5.61580E-19
 -1      3838 1.12081E-04-3.38630E-05-3.35336E-05-1.00539E-05 7.57605E-19-9.15970E-19
 -1      3839 8.43575E-05-2.64584E-05-2.46500E-05 2.15480E-05-1.25761E-18 8.03444E-19
 -1      3840 8.08080E-05-2.29786E-05-2.48359E-05 1.79206E-05-1.21676E-18 1.38397E-18
 -1      3841 9.05798E-05-3.02719E-05-2.58275E-05 1.95971E-05-1.55454E-18 3.23189E-19
 -1      3842 9.73533E-05-3.10246E-05-2.84098E-05 4.13152E-06-1.20133E-18 1.85213E-18
 -1      3843 9.83186E-05-3.19670E-05-2.84233E-05 4.35099E-06-1.13004E-18 1.48714E-18
 -1      3844 8.88290E-05-2.30745E-05-2.82167E-05 1.06515E-06-9.30361E-19 2.92894E-19
 -1      3845 8.98977E-05-2.37350E-05-2.83537E-05 6.32681E-07-7.14742E-19-6.22352E-19
 -1      3846 9.06680E-05-2.43089E-05-2.84634E-05 1.66853E-07-3.40893E-19-6.15924E-19
 -1      3847 9.14654E-05-2.48738E-05-2.85398E-05-5.23331E-08-2.88909E-19-6.16784E-19
 -1      3848 9.04899E-05-2.42967E-05-2.83476E-05 1.19625E-06-4.67902E-19-3.17505E-19
 -1      3849 9.20176E-05-2.53252E-05-2.85982E-05-2.90829E-07 3.76966E-19-7.20480E-19
 -1      3850 9.25523E-05-2.57458E-05-2.86337E-05-3.66495E-07 1.83480E-19-4.67228E-19
 -1      3851 9.17757E-05-2.52018E-05-2.85165E-05 3.94493E-07 1.50850E-19-3.34382E-19
 -1      3852 9.29693E-05-2.61080E-05-2.86645E-05-4.82667E-07 8.18153E-20-5.17527E-19
 -1      3853 9.33443E-05-2.64341E-05-2.86785E-05-4.86144E-07 2.40501E-19-2.44060E-19
 -1      3854 9.27256E-05-2.59461E-05-2.86089E-05-2.43149E-08 3.46509E-19-7.11234E-19
 -1      3855 9.36525E-05-2.67183E-05-2.86921E-05-5.28403E-07-3.41899E-19-4.54996E-19
 -1      3856 9.39145E-05-2.69682E-05-2.86939E-05-4.95487E-07-4.12494E-19-6.37659E-19
 -1      3857 9.34342E-05-2.65507E-05-2.86561E-05-2.26368E-07-2.17943E-19-1.33298E-18
 -1      3858 9.41394E-05-2.71877E-05-2.86972E-05-4.97920E-07 1.07710E-19-1.10146E-18
 -1      3859 9.43208E-05-2.73764E-05-2.86928E-05-4.49715E-07 6.87327E-20-7.80051E-19
 -1      3860 9.39560E-05-2.70343E-05-2.86751E-05-3.03389E-07-5.24595E-19-1.43669E-18
 -1      3861 9.44843E-05-2.75446E-05-2.86905E-05-4.31162E-07 9.41204E-20-7.12311E-19
 -1      3862 9.46095E-05-2.76869E-05-2.86831E-05-3.80052E-07-2.79410E-19-2.07623E-19
 -1      3863 9.43366E-05-2.74118E-05-2.86780E-05-3.07302E-07 1.72750E-19-1.24363E-18
 -1      3864 9.47274E-05-2.78148E-05-2.86779E-05-3.53331E-07-1.54862E-18-1.39363E-19
 -1      3865 9.48135E-05-2.79217E-05-2.86695E-05-3.05706E-07-1.11052E-18-7.32681E-19
 -1      3866 9.46127E-05-2.77049E-05-2.86720E-05-2.75912E-07-8.58143E-19-6.75785E-19
 -1      3867 9.48978E-05-2.80185E-05-2.86631E-05-2.77636E-07-3.21328E-19-6.04107E-19
 -1      3868 9.49568E-05-2.80985E-05-2.86548E-05-2.36364E-07-1.23603E-18-3.06683E-19
 -1      3869 9.48111E-05-2.79302E-05-2.86613E-05-2.30397E-07-1.30258E-18-2.61125E-19
 -1      3870 9.50166E-05-2.81713E-05-2.86482E-05-2.10492E-07-1.09152E-18-4.29610E-19
 -1      3871 9.50567E-05-2.82310E-05-2.86406E-05-1.76419E-07-3.33199E-19 4.80057E-19
 -1      3872 9.49527E-05-2.81022E-05-2.86489E-05-1.82576E-07-1.22624E-18 3.01167E-19
 -1      3873 9.50987E-05-2.82855E-05-2.86343E-05-1.54312E-07 8.80542E-21 2.98578E-19
 -1      3874 9.51258E-05-2.83299E-05-2.86276E-05-1.27196E-07 6.67219E-19 1.01885E-18
 -1      3875 9.50529E-05-2.82324E-05-2.86364E-05-1.38586E-07-3.75586E-20 3.51165E-20
 -1      3876 9.51549E-05-2.83704E-05-2.86219E-05-1.09266E-07 7.70070E-19 9.58037E-19
 -1      3877 9.51729E-05-2.84031E-05-2.86162E-05-8.83358E-08 1.72942E-19 9.42608E-19
 -1      3878 9.51229E-05-2.83304E-05-2.86247E-05-1.01102E-07 5.12803E-19-4.05912E-19
 -1      3879 9.51928E-05-2.84329E-05-2.86113E-05-7.43755E-08-9.87514E-19 1.48888E-18
 -1      3880 9.52045E-05-2.84569E-05-2.86065E-05-5.86614E-08-1.34387E-18 1.69064E-18
 -1      3881 9.51711E-05-2.84035E-05-2.86143E-05-7.08008E-08-1.74482E-20 6.17795E-19
 -1      3882 9.52177E-05-2.84786E-05-2.86023E-05-4.81707E-08-7.91214E-19 6.78911E-19
 -1      3883 9.52251E-05-2.84960E-05-2.85984E-05-3.66899E-08-4.26615E-19 1.07354E-18
 -1      3884 9.52036E-05-2.84574E-05-2.86053E-05-4.72951E-08-1.40451E-18 7.81763E-19
 -1      3885 9.52335E-05-2.85116E-05-2.85950E-05-2.90702E-08-5.59294E-19 8.73151E-19
 -1      3886 9.52379E-05-2.85240E-05-2.85919E-05-2.09212E-08-8.43187E-19 3.88884E-19
 -1      3887 9.52249E-05-2.84966E-05-2.85977E-05-2.97048E-08-7.96494E-19-5.23657E-20
 -1      3888 9.52431E-05-2.85350E-05-2.85891E-05-1.55815E-08 8.50785E-20 3.48243E-19
 -1      3889 9.52455E-05-2.85436E-05-2.85866E-05-9.98580E-09 8.24452E-19 9.10958E-19
 -1      3890 9.52383E-05-2.85247E-05-2.85915E-05-1.69889E-08 2.70920E-20-3.71703E-19
 -1      3891 9.52484E-05-2.85512E-05-2.85844E-05-6.39599E-09 1.12203E-18 6.79462E-19
 -1      3892 9.52495E-05-2.85571E-05-2.85825E-05-2.70860E-09 1.30165E-18 8.34079E-19
 -1      3893 9.52462E-05-2.85444E-05-2.85864E-05-8.12795E-09 6.77464E-19 9.35526E-20
 -1      3894 9.52508E-05-2.85622E-05-2.85808E-05-4.20911E-10 1.25220E-18 9.95419E-19
 -1      3895 9.52510E-05-2.85661E-05-2.85793E-05 1.87592E-09 2.80743E-18-6.54019E-19
 -1      3896 9.52503E-05-2.85579E-05-2.85824E-05-2.21294E-09 1.45174E-18 6.49109E-19
 -1      3897 9.52513E-05-2.85693E-05-2.85780E-05 3.22417E-09 3.22809E-18-1.12604E-18
 -1      3898 9.52511E-05-2.85718E-05-2.85769E-05 4.53499E-09 3.00574E-18-2.37124E-18
 -1      3899 9.52519E-05-2.85669E-05-2.85793E-05 1.52030E-09 2.02260E-18-3.45870E-19
 -1      3900 9.52507E-05-2.85737E-05-2.85758E-05 5.22771E-09 3.66290E-18-2.25853E-18
 -1      3901 9.52502E-05-2.85751E-05-2.85750E-05 5.86110E-09 3.41432E-18-2.37297E-18
 -1      3902 9.52519E-05-2.85725E-05-2.85769E-05 3.68757E-09 3.10375E-18-5.76245E-19
 -1      3903 9.52495E-05-2.85762E-05-2.85743E-05 6.11399E-09 2.85808E-18-3.75163E-18
 -1      3904 9.52488E-05-2.85769E-05-2.85737E-05 6.29982E-09 2.33954E-18-3.14894E-18
 -1      3905 9.52509E-05-2.85757E-05-2.85751E-05 4.76854E-09 2.37995E-18-2.86894E-18
 -1      3906 9.52479E-05-2.85773E-05-2.85731E-05 6.27191E-09 7.79596E-19-2.30206E-18
 -1      3907 9.52472E-05-2.85776E-05-2.85727E-05 6.17723E-09 9.84132E-20-2.09439E-18
 -1      3908 9.52494E-05-2.85774E-05-2.85737E-05 5.12562E-09 2.65706E-18-2.70434E-18
 -1      3909 9.52463E-05-2.85776E-05-2.85723E-05 5.98238E-09 3.10122E-20-1.76132E-18
 -1      3910 9.52455E-05-2.85775E-05-2.85720E-05 5.72532E-09 3.35913E-20-1.60245E-18
 -1      3911 9.52477E-05-2.85780E-05-2.85728E-05 5.02390E-09 2.84719E-19-2.00292E-18
 -1      3912 9.52446E-05-2.85774E-05-2.85717E-05 5.44721E-09 1.72592E-19-8.29139E-19
 -1      3913 9.52439E-05-2.85771E-05-2.85715E-05 5.10653E-09 1.82469E-18-6.25966E-19
 -1      3914 9.52459E-05-2.85779E-05-2.85720E-05 4.65662E-09 6.02272E-19-1.67539E-18
 -1      3915 9.52434E-05-2.85769E-05-2.85713E-05 4.82269E-09 3.26376E-18-6.18846E-19
 -1      3916 9.52427E-05-2.85766E-05-2.85712E-05 4.46299E-09 2.12427E-18 3.55337E-19
 -1      3917 9.52434E-05-2.85771E-05-2.85713E-05 3.67016E-09 2.38037E-18-3.44767E-19
 -1      3918 9.52445E-05-2.85775E-05-2.85716E-05 4.17771E-09 2.39517E-18-1.21179E-18
 -1      3919 1.17287E-04-4.45475E-05-3.12494E-05 8.11824E-07-7.85325E-21-1.11452E-18
 -1      3920 1.16218E-04-4.54485E-05-3.01900E-05 5.67328E-06-6.15065E-19-7.43080E-19
 -1      3921 9.46008E-05-2.78989E-05-2.85881E-05 1.52593E-06-5.64719E-19 7.58278E-19
 -1      3922 9.47016E-05-2.80170E-05-2.85720E-05 1.73716E-06-9.21541E-19 8.68332E-19
 -1      3923 9.47706E-05-2.81632E-05-2.85465E-05 2.03404E-06-1.29948E-18 6.01050E-19
 -1      3924 9.49870E-05-2.84034E-05-2.85262E-05 2.28635E-06-1.04908E-18 7.89815E-19
 -1      3925 9.44227E-05-2.78476E-05-2.85366E-05 1.96340E-06-1.05024E-18 7.63856E-19
 -1      3926 9.46349E-05-2.78264E-05-2.86345E-05 8.25083E-07-1.07711E-18 6.95501E-19
 -1      3927 9.46248E-05-2.78172E-05-2.86285E-05 9.57985E-07-7.75518E-19 2.10785E-19
 -1      3928 9.47272E-05-2.78997E-05-2.86424E-05 5.96738E-07-1.56621E-18 9.58185E-19
 -1      3929 9.46974E-05-2.78643E-05-2.86405E-05 6.99027E-07-1.63747E-18 3.42116E-19
 -1      3930 9.45452E-05-2.77357E-05-2.86323E-05 7.21068E-07-1.18523E-18 2.45755E-19
 -1      3931 9.48289E-05-2.79984E-05-2.86434E-05 4.27512E-07-3.71705E-19 8.92315E-19
 -1      3932 9.47919E-05-2.79519E-05-2.86443E-05 5.05329E-07-9.50874E-19 7.58500E-19
 -1      3933 9.46742E-05-2.78443E-05-2.86406E-05 5.06885E-07-1.27052E-18-1.08942E-18
 -1      3934 9.49249E-05-2.81025E-05-2.86396E-05 3.02996E-07 8.18965E-19 7.11825E-19
 -1      3935 9.48883E-05-2.80540E-05-2.86424E-05 3.61669E-07 6.17840E-19 1.26717E-18
 -1      3936 9.47989E-05-2.79662E-05-2.86417E-05 3.53774E-07-1.37552E-19-6.24753E-19
 -1      3937 9.50084E-05-2.82007E-05-2.86330E-05 2.11919E-07 8.20875E-19 1.95727E-18
 -1      3938 9.49758E-05-2.81552E-05-2.86368E-05 2.55811E-07 1.11087E-18 1.62618E-18
 -1      3939 9.49091E-05-2.80851E-05-2.86381E-05 2.44793E-07 7.14757E-19 3.56851E-19
 -1      3940 9.50769E-05-2.82872E-05-2.86250E-05 1.45706E-07-4.14179E-19 1.86911E-18
 -1      3941 9.50498E-05-2.82473E-05-2.86293E-05 1.78273E-07 1.24068E-19 2.37050E-18
 -1      3942 9.50011E-05-2.81923E-05-2.86316E-05 1.67491E-07 3.01808E-19 1.74708E-18
 -1      3943 9.51306E-05-2.83597E-05-2.86167E-05 9.79107E-08 4.57117E-19 1.66319E-18
 -1      3944 9.51092E-05-2.83264E-05-2.86210E-05 1.21849E-07 6.18536E-20 2.09139E-18
 -1      3945 9.50744E-05-2.82840E-05-2.86239E-05 1.12843E-07-2.73518E-19 1.94020E-18
 -1      3946 9.51710E-05-2.84185E-05-2.86087E-05 6.37215E-08-6.66694E-21 1.40958E-18
 -1      3947 9.51550E-05-2.83916E-05-2.86127E-05 8.11170E-08 5.40714E-19 1.84163E-18
 -1      3948 9.51307E-05-2.83596E-05-2.86158E-05 7.43719E-08 5.37417E-19 1.44338E-18
 -1      3949 9.52004E-05-2.84645E-05-2.86014E-05 3.95570E-08 1.22842E-18 1.31631E-18
 -1      3950 9.51888E-05-2.84436E-05-2.86050E-05 5.20186E-08 5.19554E-19 1.57187E-18
 -1      3951 9.51724E-05-2.84198E-05-2.86080E-05 4.74554E-08 1.72188E-19 1.37636E-18
 -1      3952 9.52208E-05-2.84996E-05-2.85951E-05 2.27507E-08 1.29736E-19 6.92592E-19
 -1      3953 9.52128E-05-2.84837E-05-2.85981E-05 3.15173E-08 6.36605E-19 9.35613E-19
 -1      3954 9.52023E-05-2.84664E-05-2.86009E-05 2.87990E-08 1.35330E-18 1.38578E-18
 -1      3955 9.52344E-05-2.85257E-05-2.85896E-05 1.13147E-08-9.70169E-20-7.11085E-20
 -1      3956 9.52292E-05-2.85139E-05-2.85922E-05 1.73382E-08-2.14551E-19 4.68171E-19
 -1      3957 9.52229E-05-2.85017E-05-2.85946E-05 1.60476E-08-1.29603E-20 5.04029E-19
 -1      3958 9.52429E-05-2.85444E-05-2.85852E-05 3.76480E-09-3.14750E-19-4.81930E-20
 -1      3959 9.52397E-05-2.85360E-05-2.85873E-05 7.77524E-09 7.46552E-19-1.84731E-20
 -1      3960 9.52363E-05-2.85276E-05-2.85894E-05 7.50941E-09 9.21053E-20-7.03305E-19
 -1      3961 9.52476E-05-2.85575E-05-2.85815E-05-1.00595E-09 6.41180E-19-1.54756E-19
 -1      3962 9.52459E-05-2.85517E-05-2.85832E-05 1.54840E-09-2.28414E-19 1.42780E-19
 -1      3963 9.52446E-05-2.85461E-05-2.85850E-05 1.96281E-09-1.85992E-19-9.04986E-19
 -1      3964 9.52498E-05-2.85663E-05-2.85787E-05-3.82131E-09-3.84805E-19 2.74238E-19
 -1      3965 9.52491E-05-2.85624E-05-2.85800E-05-2.30095E-09 2.03367E-19 1.32728E-19
 -1      3966 9.52491E-05-2.85590E-05-2.85814E-05-1.47844E-09-6.09507E-20-5.70862E-19
 -1      3967 9.52503E-05-2.85719E-05-2.85765E-05-5.29067E-09-1.09771E-18 1.08564E-18
 -1      3968 9.52503E-05-2.85695E-05-2.85775E-05-4.48744E-09-5.83755E-19 7.09547E-19
 -1      3969 9.52510E-05-2.85675E-05-2.85786E-05-3.45857E-09-2.92431E-19 5.51560E-19
 -1      3970 9.52497E-05-2.85752E-05-2.85748E-05-5.86070E-09 1.61392E-19 8.75324E-19
 -1      3971 9.52501E-05-2.85738E-05-2.85755E-05-5.53973E-09-3.27611E-19 1.19586E-18
 -1      3972 9.52512E-05-2.85728E-05-2.85765E-05-4.44531E-09-5.45644E-19 2.03632E-19
 -1      3973 9.52485E-05-2.85769E-05-2.85735E-05-5.85451E-09 7.26443E-19 6.19713E-19
 -1      3974 9.52491E-05-2.85762E-05-2.85741E-05-5.84441E-09-1.56924E-19 1.03579E-18
 -1      3975 9.52504E-05-2.85759E-05-2.85748E-05-4.77636E-09 3.51890E-19-9.43268E-20
 -1      3976 9.52470E-05-2.85776E-05-2.85726E-05-5.50143E-09 2.32014E-18 5.53023E-19
 -1      3977 9.52477E-05-2.85773E-05-2.85730E-05-5.67967E-09 1.48987E-18 9.93439E-19
 -1      3978 9.52491E-05-2.85775E-05-2.85735E-05-4.69275E-09 9.62777E-19 7.47304E-19
 -1      3979 9.52454E-05-2.85775E-05-2.85719E-05-4.96525E-09 1.33206E-18 7.95868E-19
 -1      3980 9.52461E-05-2.85776E-05-2.85722E-05-5.24425E-09 2.26908E-18 3.85302E-19
 -1      3981 9.52474E-05-2.85780E-05-2.85726E-05-4.36360E-09 2.01196E-18 1.29046E-18
 -1      3982 9.52438E-05-2.85771E-05-2.85714E-05-4.36358E-09-1.42812E-19-4.58891E-19
 -1      3983 9.52445E-05-2.85773E-05-2.85717E-05-4.66857E-09 9.86251E-19-6.30931E-19
 -1      3984 9.52457E-05-2.85778E-05-2.85720E-05-3.91004E-09 1.35452E-18-5.89442E-19
 -1      3985 1.12952E-04-4.51402E-05-2.92084E-05 1.06114E-05-1.33183E-18-5.79569E-19
 -1      3986 1.06609E-04-4.14504E-05-2.78502E-05 1.54871E-05-2.01899E-18-1.58928E-19
 -1      3987 9.59886E-05-2.96051E-05-2.84422E-05 3.38039E-06-1.04421E-19 1.39142E-18
 -1      3988 9.66259E-05-3.02566E-05-2.84303E-05 3.66381E-06-2.66107E-19 1.75838E-18
 -1      3989 9.63550E-05-3.02869E-05-2.83427E-05 4.55110E-06-5.54090E-19 9.35456E-19
 -1      3990 7.95069E-05-2.04095E-05-2.52324E-05 1.40315E-05-1.19311E-18 1.76272E-18
 -1      3991 7.96389E-05-1.92816E-05-2.59328E-05 9.86688E-06-7.68669E-19 1.79502E-18
 -1      3992 8.45832E-05-2.41209E-05-2.59766E-05 1.47216E-05-1.39759E-18 5.51031E-19
 -1      3993 9.52425E-05-2.85767E-05-2.85711E-05 2.03498E-09 7.87002E-21-5.07222E-19
 -1      3994 9.52428E-05-2.85768E-05-2.85711E-05 1.24510E-09-4.78975E-19-2.38621E-18
 -1      3995 9.52435E-05-2.85772E-05-2.85713E-05 8.02420E-10 4.52208E-19-2.36309E-18
 -1      3996 9.52432E-05-2.85770E-05-2.85712E-05 2.55616E-09 2.16371E-18-7.55813E-19
 -1      3997 1.10967E-04-2.95970E-05-3.48897E-05 1.19902E-05 7.47831E-19 4.58228E-19
 -1      3998 1.03813E-04-1.62374E-05-3.76223E-05-1.17098E-06 1.59524E-18-2.04815E-19
 -1      3999 1.12599E-04-3.64218E-05-3.26637E-05-8.62339E-06 3.64793E-19-9.13796E-19
 -1      4000 1.04532E-04-1.70065E-05-3.75013E-05 4.40878E-06 1.87278E-18 3.05686E-19
 -1      4001 9.45794E-05-2.78114E-05-2.86170E-05 1.12792E-06-5.57437E-19 6.49486E-19
 -1      4002 9.46083E-05-2.78486E-05-2.86063E-05 1.29687E-06-1.74638E-19 8.70930E-19
 -1      4003 9.44340E-05-2.76705E-05-2.86138E-05 1.01752E-06-3.37128E-19 9.05495E-19
 -1      4004 8.64302E-05-2.16845E-05-2.77997E-05 2.60897E-06-7.93421E-19 1.59589E-18
 -1      4005 8.78952E-05-2.24581E-05-2.80396E-05 1.82451E-06-4.88513E-19 1.18771E-18
 -1      4006 8.88303E-05-2.32941E-05-2.80615E-05 2.55700E-06-1.42157E-18 3.96351E-19
 -1      4007 9.51853E-05-2.86921E-05-2.84949E-05 2.65818E-06-6.64926E-19 1.19979E-18
 -1      4008 9.55760E-05-2.91085E-05-2.84743E-05 2.94258E-06-3.51647E-19 1.28653E-18
 -1      4009 9.46723E-05-2.82513E-05-2.84757E-05 2.66320E-06-5.90062E-19 4.92712E-19
 -1      4010 1.14886E-04-3.89522E-05-3.25641E-05-6.70315E-06 4.23576E-19-1.04870E-18
 -1      4011 1.16822E-04-4.31156E-05-3.15406E-05-2.20897E-06 2.57050E-19-1.29715E-18
 -1      4012 8.19816E-05-1.98968E-05-2.65739E-05 7.57833E-06-1.33759E-18 1.51729E-18
 -1      4013 9.82035E-05-3.22227E-05-2.83207E-05 5.58664E-06-1.18141E-18 1.10712E-18
 -1      4014 9.94893E-05-3.30630E-05-2.84375E-05 4.75105E-06-9.82882E-19 1.46065E-18
 -1      4015 1.00849E-04-3.43104E-05-2.85063E-05 4.79005E-06-9.00973E-19 1.16621E-18
 -1      4016 1.03660E-04-3.64406E-05-2.88473E-05 2.96744E-06-5.62995E-19 1.19545E-19
 -1      4017 1.12097E-04-4.33043E-05-2.94843E-05 6.84677E-06-9.83875E-19-3.02727E-19
 -1      4018 9.43729E-05-2.76845E-05-2.85828E-05 1.42136E-06-4.15065E-19 8.76518E-19
 -1      4019 1.11961E-04-4.17626E-05-3.00283E-05 1.29526E-06-1.54766E-19-7.01175E-19
 -1      4020 1.13664E-04-4.22483E-05-3.06511E-05-3.57201E-07 2.40385E-19-7.03406E-19
 -1      4021 1.04890E-04-3.92317E-05-2.80473E-05 1.28548E-05-1.76374E-18-2.04785E-19
 -1      4022 1.01781E-04-3.84312E-05-2.72317E-05 1.74564E-05-2.08543E-18 3.58474E-19
 -1      4023 9.52435E-05-2.85770E-05-2.85714E-05-3.57426E-09-2.03800E-19-4.35418E-19
 -1      4024 9.76632E-05-3.52274E-05-2.67889E-05 1.77933E-05-1.88050E-18 3.17045E-19
 -1      4025 9.52561E-05-2.90187E-05-2.84054E-05 3.54037E-06-3.81635E-19 1.09870E-18
 -1      4026 6.84217E-05-1.45111E-05-2.31427E-05 1.28011E-05-7.67174E-19 3.56189E-18
 -1      4027 9.52442E-05-2.85775E-05-2.85714E-05-6.53108E-10-9.93355E-19-2.69208E-18
 -1      4028 9.52440E-05-2.85774E-05-2.85714E-05-1.57575E-09-8.87040E-19-9.56735E-19
 -1      4029 8.32080E-05-2.01797E-05-2.71079E-05 5.19778E-06-1.18730E-18 1.64793E-18
 -1      4030 8.52952E-05-2.10848E-05-2.75116E-05 3.82550E-06-8.41623E-19 1.42851E-18
 -1      4031 8.68242E-05-2.23408E-05-2.76050E-05 4.71542E-06-9.46639E-19 7.33580E-19
 -1      4032 9.52440E-05-2.85773E-05-2.85714E-05-2.79338E-09-3.02151E-19-2.92860E-19
 -1      4033 9.52449E-05-2.85777E-05-2.85716E-05-2.40877E-09 8.78343E-20-6.47128E-19
 -1      4034 1.08534E-04-4.01450E-05-2.93526E-05 3.19234E-06-5.60264E-19-1.25235E-19
 -1      4035 1.10899E-04-4.19589E-05-2.96032E-05 4.27375E-06-5.50068E-19-2.62203E-19
 -1      4036 1.08183E-04-4.08596E-05-2.88137E-05 8.35927E-06-1.15884E-18 1.29953E-19
 -1      4037 1.06621E-04-3.87395E-05-2.90231E-05 4.07745E-06-6.12550E-19 4.23554E-19
 -1      4038 9.16526E-05-2.53061E-05-2.84584E-05 1.02119E-06-7.81665E-21-1.52255E-19
 -1      4039 9.22196E-05-2.56586E-05-2.85203E-05 7.02718E-07 1.73730E-19-5.51456E-19
 -1      4040 9.25666E-05-2.59482E-05-2.85675E-05 4.19478E-07 1.31124E-19-6.16423E-19
 -1      4041 9.29913E-05-2.62519E-05-2.86016E-05 2.48629E-07-1.67629E-19-9.42710E-19
 -1      4042 9.25632E-05-2.59960E-05-2.85166E-05 9.76925E-07 2.70991E-19-5.95143E-19
 -1      4043 9.32861E-05-2.65072E-05-2.86279E-05 7.28235E-08-4.73782E-19-1.33349E-18
 -1      4044 9.35911E-05-2.67544E-05-2.86441E-05-9.51671E-09-5.42314E-19-1.53157E-18
 -1      4045 9.32267E-05-2.64899E-05-2.85930E-05 4.72851E-07-8.29750E-19-1.56658E-18
 -1      4046 9.38160E-05-2.69656E-05-2.86573E-05-9.52810E-08-6.49839E-19-1.13669E-18
 -1      4047 9.40435E-05-2.71649E-05-2.86630E-05-1.25635E-07-1.08446E-20-1.20571E-18
 -1      4048 9.37182E-05-2.68899E-05-2.86325E-05 1.80218E-07 4.89754E-20-1.07850E-18
 -1      4049 9.42194E-05-2.73389E-05-2.86678E-05-1.66815E-07 3.66330E-19-1.06040E-18
 -1      4050 9.43850E-05-2.74975E-05-2.86672E-05-1.68013E-07 3.13534E-19-8.60206E-19
 -1      4051 9.41255E-05-2.72511E-05-2.86522E-05 1.89692E-08 2.19968E-19-1.08109E-18
 -1      4052 9.45190E-05-2.76366E-05-2.86668E-05-1.82567E-07-4.14757E-19-4.87451E-19
 -1      4053 9.46379E-05-2.77608E-05-2.86628E-05-1.69282E-07-1.07237E-18-2.02684E-19
 -1      4054 9.44346E-05-2.75510E-05-2.86578E-05-5.82587E-08 3.09768E-19-8.13674E-19
 -1      4055 9.47388E-05-2.78706E-05-2.86596E-05-1.69293E-07-1.21790E-18-4.02472E-20
 -1      4056 9.48236E-05-2.79669E-05-2.86540E-05-1.50208E-07-1.38646E-18 1.80162E-19
 -1      4057 9.46677E-05-2.77940E-05-2.86552E-05-8.68798E-08-9.11749E-19-6.21139E-19
 -1      4058 9.48985E-05-2.80525E-05-2.86493E-05-1.43314E-07-1.58351E-18 1.44011E-19
 -1      4059 9.49585E-05-2.81266E-05-2.86432E-05-1.23352E-07-8.30549E-19 3.77107E-19
 -1      4060 9.48415E-05-2.79877E-05-2.86480E-05-8.93371E-08-9.64858E-19-7.78416E-19
 -1      4061 9.50134E-05-2.81926E-05-2.86380E-05-1.13997E-07-7.01996E-19 1.30382E-18
 -1      4062 9.50554E-05-2.82490E-05-2.86321E-05-9.56924E-08-1.64386E-19 1.15096E-19
 -1      4063 9.49694E-05-2.81399E-05-2.86386E-05-7.92251E-08-4.96788E-19-2.03598E-20
 -1      4064 9.50950E-05-2.82994E-05-2.86269E-05-8.62779E-08 2.78909E-19 4.58807E-19
 -1      4065 9.51240E-05-2.83420E-05-2.86215E-05-7.07193E-08 5.71707E-19 6.00532E-19
 -1      4066 9.50622E-05-2.82578E-05-2.86286E-05-6.43973E-08 1.63197E-19 1.46379E-19
 -1      4067 9.51520E-05-2.83799E-05-2.86167E-05-6.23986E-08 2.98471E-19-1.00198E-18
 -1      4068 9.51717E-05-2.84117E-05-2.86119E-05-4.98476E-08-7.81837E-19-1.04064E-18
 -1      4069 9.51284E-05-2.83480E-05-2.86189E-05-4.91065E-08-5.55252E-19-1.50016E-18
 -1      4070 9.51911E-05-2.84399E-05-2.86077E-05-4.30489E-08-1.19892E-18 7.43144E-20
 -1      4071 9.52042E-05-2.84634E-05-2.86036E-05-3.33300E-08-9.67139E-19 1.81582E-19
 -1      4072 9.51747E-05-2.84160E-05-2.86100E-05-3.54215E-08-2.38761E-19-1.85178E-18
 -1      4073 9.52172E-05-2.84840E-05-2.85999E-05-2.80858E-08-1.23784E-18 2.27071E-19
 -1      4074 9.52256E-05-2.85010E-05-2.85965E-05-2.08233E-08-2.97510E-19-1.10927E-19
 -1      4075 9.52063E-05-2.84665E-05-2.86022E-05-2.41413E-08-6.27341E-19 4.44389E-19
 -1      4076 9.52340E-05-2.85159E-05-2.85934E-05-1.69721E-08 4.42720E-20-4.32390E-19
 -1      4077 9.52390E-05-2.85280E-05-2.85906E-05-1.17281E-08 4.91972E-19-6.20096E-19
 -1      4078 9.52271E-05-2.85035E-05-2.85955E-05-1.53719E-08-5.03335E-19-6.41342E-20
 -1      4079 9.52442E-05-2.85385E-05-2.85881E-05-9.03237E-09 1.32431E-18 3.61269E-19
 -1      4080 9.52470E-05-2.85469E-05-2.85858E-05-5.38078E-09 1.18140E-18 9.31485E-19
 -1      4081 9.52402E-05-2.85299E-05-2.85899E-05-8.87619E-09 1.14362E-18 2.15709E-21
 -1      4082 9.52498E-05-2.85541E-05-2.85838E-05-3.59254E-09 1.07289E-18 6.13571E-19
 -1      4083 9.52511E-05-2.85598E-05-2.85820E-05-1.15546E-09 1.68481E-18 6.62455E-19
 -1      4084 9.52478E-05-2.85484E-05-2.85854E-05-4.27959E-09 1.07263E-18 1.12536E-18
 -1      4085 9.52523E-05-2.85646E-05-2.85804E-05-4.86982E-11 1.21171E-18 2.83520E-19
 -1      4086 9.52526E-05-2.85682E-05-2.85790E-05 1.49041E-09 1.76016E-18-6.50116E-19
 -1      4087 9.52517E-05-2.85609E-05-2.85817E-05-1.18295E-09 9.94492E-19 9.03115E-19
 -1      4088 9.52528E-05-2.85712E-05-2.85778E-05 2.10610E-09 2.71349E-18-3.39024E-19
 -1      4089 9.52525E-05-2.85735E-05-2.85767E-05 3.00149E-09 2.89123E-18-1.10423E-18
 -1      4090 9.52531E-05-2.85691E-05-2.85788E-05 7.80579E-10 2.01015E-18 6.18818E-19
 -1      4091 9.52521E-05-2.85752E-05-2.85758E-05 3.27822E-09 2.22397E-18-1.23441E-18
 -1      4092 9.52515E-05-2.85765E-05-2.85750E-05 3.72733E-09 2.03970E-18-2.38123E-18
 -1      4093 9.52528E-05-2.85742E-05-2.85766E-05 1.92173E-09 1.91249E-18-1.66021E-18
 -1      4094 9.52507E-05-2.85774E-05-2.85743E-05 3.78171E-09 2.89631E-18-2.47845E-18
 -1      4095 9.52499E-05-2.85779E-05-2.85737E-05 3.93311E-09 2.13344E-18-1.61463E-18
 -1      4096 9.52517E-05-2.85770E-05-2.85749E-05 2.48990E-09 2.24205E-18-1.39664E-18
 -1      4097 9.52489E-05-2.85782E-05-2.85731E-05 3.85111E-09 9.13254E-19-1.27878E-18
 -1      4098 9.52480E-05-2.85783E-05-2.85727E-05 3.81262E-09 4.92599E-19-9.04082E-19
 -1      4099 9.52500E-05-2.85783E-05-2.85736E-05 2.67775E-09 2.11849E-18-2.04812E-18
 -1      4100 9.52471E-05-2.85783E-05-2.85723E-05 3.64789E-09 1.48094E-18-4.18837E-20
 -1      4101 9.52462E-05-2.85781E-05-2.85720E-05 3.49639E-09 1.49462E-18-4.35824E-20
 -1      4102 9.52481E-05-2.85786E-05-2.85727E-05 2.62740E-09 1.67817E-18-4.14341E-19
 -1      4103 8.90956E-05-2.39181E-05-2.79671E-05 3.74554E-06-1.32280E-18 4.69188E-19
 -1      4104 8.99844E-05-2.42823E-05-2.81419E-05 2.84535E-06-1.53487E-18 9.21419E-20
 -1      4105 1.02593E-04-3.57558E-05-2.85986E-05 4.94256E-06-9.13650E-19 7.40746E-19
 -1      4106 1.04336E-04-3.71965E-05-2.87742E-05 4.61108E-06-4.84245E-19 7.32096E-19
 -1      4107 1.01051E-04-3.49222E-05-2.84077E-05 6.36895E-06-1.16485E-18 9.56720E-19
 -1      4108 9.46284E-05-2.78054E-05-2.86416E-05 3.92391E-07-9.16975E-19-1.45215E-18
 -1      4109 9.45654E-05-2.77356E-05-2.86395E-05 4.77318E-07-9.75776E-19-1.29803E-18
 -1      4110 9.44604E-05-2.76570E-05-2.86342E-05 5.80497E-07-5.70739E-19-9.83855E-20
 -1      4111 9.44010E-05-2.75952E-05-2.86277E-05 7.00223E-07-8.33369E-21 5.16407E-19
 -1      4112 9.44265E-05-2.75971E-05-2.86355E-05 4.54192E-07 6.98056E-20 3.57520E-19
 -1      4113 9.49002E-05-2.80832E-05-2.86375E-05 1.75370E-07 1.73488E-19 9.04724E-19
 -1      4114 9.48497E-05-2.80214E-05-2.86403E-05 2.17791E-07-1.67386E-19-6.76799E-20
 -1      4115 9.49995E-05-2.81972E-05-2.86307E-05 1.15498E-07-1.01615E-19 2.00456E-18
 -1      4116 9.49582E-05-2.81441E-05-2.86344E-05 1.45432E-07 2.53570E-19 1.26310E-18
 -1      4117 9.49060E-05-2.80806E-05-2.86368E-05 1.18444E-07-2.76167E-19 8.25811E-19
 -1      4118 9.50764E-05-2.82919E-05-2.86228E-05 7.48780E-08 6.49560E-20 1.20751E-18
 -1      4119 9.50440E-05-2.82480E-05-2.86268E-05 9.59836E-08 1.18177E-19 1.44001E-18
 -1      4120 9.50072E-05-2.81999E-05-2.86297E-05 7.40208E-08 5.03749E-19 1.08727E-18
 -1      4121 9.51342E-05-2.83681E-05-2.86146E-05 4.73936E-08 3.17498E-19 1.79216E-18
 -1      4122 9.51097E-05-2.83328E-05-2.86187E-05 6.22451E-08 4.82898E-19 1.78131E-18
 -1      4123 9.50841E-05-2.82969E-05-2.86216E-05 4.54686E-08 3.47301E-20 1.04466E-18
 -1      4124 9.51762E-05-2.84277E-05-2.86069E-05 2.88775E-08 2.63061E-19 2.14983E-18
 -1      4125 9.51584E-05-2.84003E-05-2.86107E-05 3.92834E-08-8.20969E-20 1.90630E-18
 -1      4126 9.51410E-05-2.83737E-05-2.86135E-05 2.71857E-08 9.72334E-20 2.23618E-18
 -1      4127 9.52059E-05-2.84733E-05-2.85999E-05 1.64986E-08 9.05701E-19 2.13207E-18
 -1      4128 9.51933E-05-2.84524E-05-2.86033E-05 2.37330E-08 1.10643E-18 1.99919E-18
 -1      4129 9.51818E-05-2.84331E-05-2.86059E-05 1.55274E-08 8.04783E-19 2.37843E-18
 -1      4130 9.52259E-05-2.85073E-05-2.85938E-05 8.33029E-09 6.14833E-19 1.92113E-18
 -1      4131 9.52175E-05-2.84918E-05-2.85967E-05 1.32966E-08 9.43537E-19 2.43471E-18
 -1      4132 9.52102E-05-2.84780E-05-2.85991E-05 8.14238E-09 9.27528E-19 3.15101E-18
 -1      4133 9.52388E-05-2.85321E-05-2.85887E-05 3.05454E-09 2.19079E-19 1.12721E-18
 -1      4134 9.52334E-05-2.85209E-05-2.85911E-05 6.39888E-09 4.85035E-19 1.26680E-18
 -1      4135 9.52291E-05-2.85112E-05-2.85931E-05 3.51993E-09 1.24895E-18 3.30859E-18
 -1      4136 9.52465E-05-2.85495E-05-2.85845E-05-2.37232E-10 3.45858E-19 1.58125E-19
 -1      4137 9.52433E-05-2.85417E-05-2.85864E-05 1.95107E-09 2.73364E-19 3.55971E-19
 -1      4138 9.52411E-05-2.85351E-05-2.85881E-05 6.88766E-10 1.02058E-18 2.07347E-18
 -1      4139 9.52505E-05-2.85615E-05-2.85810E-05-2.17621E-09-4.33254E-19 1.82917E-19
 -1      4140 9.52489E-05-2.85561E-05-2.85826E-05-8.05532E-10 5.10744E-20-3.99975E-19
 -1      4141 9.52480E-05-2.85518E-05-2.85840E-05-9.78525E-10 1.69268E-19 1.55326E-18
 -1      4142 9.52521E-05-2.85693E-05-2.85783E-05-3.20388E-09-5.26321E-19 2.70844E-19
 -1      4143 9.52516E-05-2.85658E-05-2.85796E-05-2.40403E-09-5.92264E-19-3.52001E-19
 -1      4144 9.52515E-05-2.85632E-05-2.85807E-05-1.89062E-09-2.63694E-19 3.59639E-19
 -1      4145 9.52520E-05-2.85741E-05-2.85762E-05-3.63020E-09-6.30153E-19 5.80994E-19
 -1      4146 9.52522E-05-2.85720E-05-2.85772E-05-3.22121E-09-8.31281E-19 5.87999E-19
 -1      4147 9.52527E-05-2.85705E-05-2.85781E-05-2.31652E-09-6.83277E-19 1.11987E-18
 -1      4148 9.52510E-05-2.85768E-05-2.85746E-05-3.67262E-09-4.89791E-19 5.19706E-19
 -1      4149 9.52515E-05-2.85757E-05-2.85754E-05-3.52396E-09 5.64940E-19 2.43707E-19
 -1      4150 9.52523E-05-2.85750E-05-2.85761E-05-2.43524E-09 3.93073E-19 5.66628E-19
 -1      4151 9.52494E-05-2.85780E-05-2.85734E-05-3.48216E-09 1.26275E-18-8.49103E-20
 -1      4152 9.52502E-05-2.85775E-05-2.85740E-05-3.50060E-09 2.62719E-19-3.43394E-19
 -1      4153 9.52511E-05-2.85774E-05-2.85745E-05-2.36724E-09 7.72895E-20-3.59858E-19
 -1      4154 9.52476E-05-2.85783E-05-2.85726E-05-3.15817E-09 1.89014E-18-4.71123E-22
 -1      4155 9.52485E-05-2.85783E-05-2.85729E-05-3.28075E-09 1.85389E-18-3.17649E-19
 -1      4156 9.52494E-05-2.85784E-05-2.85734E-05-2.19505E-09 1.11988E-18-2.29204E-18
 -1      4157 9.52458E-05-2.85780E-05-2.85719E-05-2.67506E-09 1.83039E-18-7.68899E-19
 -1      4158 9.52467E-05-2.85782E-05-2.85722E-05-2.84629E-09 2.33091E-18-6.08707E-19
 -1      4159 9.52476E-05-2.85785E-05-2.85725E-05-1.86456E-09 2.33580E-18-1.24215E-18
 -1      4160 9.52457E-05-2.85781E-05-2.85718E-05-1.40424E-09 1.02069E-18-9.12662E-19
 -1      4161 9.41376E-05-2.74499E-05-2.85841E-05 1.23704E-06-5.10342E-20 1.35899E-18
 -1      4162 9.41248E-05-2.74570E-05-2.85645E-05 1.47025E-06-8.58777E-19 9.45622E-19
 -1      4163 9.51540E-05-2.91779E-05-2.82702E-05 4.75611E-06-5.81160E-19 9.50042E-19
 -1      4164 9.58809E-05-2.99346E-05-2.82386E-05 5.34736E-06-5.29354E-19 7.19769E-19
 -1      4165 8.88167E-05-2.71821E-05-2.63181E-05 1.53995E-05-1.47603E-18 3.48802E-19
 -1      4166 8.65449E-05-2.48070E-05-2.65606E-05 1.25126E-05-1.24027E-18 4.35550E-19
 -1      4167 9.43856E-05-2.81947E-05-2.83734E-05 3.51673E-06-3.22220E-19 9.91550E-19
 -1      4168 9.48089E-05-2.86563E-05-2.83333E-05 4.02877E-06-4.80846E-19 1.22167E-18
 -1      4169 9.41526E-05-2.83362E-05-2.82312E-05 4.75944E-06-7.13191E-19 8.30694E-19
 -1      4170 9.47765E-05-2.79509E-05-2.86418E-05 2.63401E-07-4.34187E-19-8.69630E-19
 -1      4171 9.47179E-05-2.78826E-05-2.86427E-05 3.23471E-07-8.05055E-19-1.70648E-18
 -1      4172 9.46169E-05-2.77748E-05-2.86420E-05 2.93034E-07-7.89586E-19-1.06298E-18
 -1      4173 9.47768E-05-2.79382E-05-2.86415E-05 1.87234E-07-8.64846E-19-5.58816E-19
 -1      4174 1.05674E-04-3.91216E-05-2.85579E-05 8.74478E-06-1.16774E-18 4.13915E-19
 -1      4175 1.02015E-04-3.65275E-05-2.80517E-05 1.04378E-05-1.25662E-18 3.94734E-19
 -1      4176 9.40449E-05-2.74793E-05-2.85341E-05 1.78746E-06-1.35683E-18 1.21743E-18
 -1      4177 9.41194E-05-2.75776E-05-2.85058E-05 2.09046E-06-1.07432E-18 1.09412E-18
 -1      4178 9.37941E-05-2.71974E-05-2.85372E-05 1.57616E-06-8.73584E-19 1.22876E-18
 -1      4179 9.04808E-05-2.45860E-05-2.82678E-05 2.08805E-06-1.00353E-18 4.01996E-19
 -1      4180 9.12415E-05-2.50019E-05-2.83787E-05 1.49563E-06-8.10682E-20 3.10950E-20
 -1      4181 9.17715E-05-2.54977E-05-2.83890E-05 1.82526E-06-2.89887E-19 1.20748E-19
 -1      4182 9.08732E-05-2.50386E-05-2.81877E-05 3.12934E-06-1.08640E-18 8.98320E-19
 -1      4183 9.52444E-05-2.85776E-05-2.85715E-05 3.59026E-10-3.11617E-21-2.05748E-18
 -1      4184 9.52451E-05-2.85779E-05-2.85716E-05-2.30007E-10 2.12360E-19-1.19690E-18
 -1      4185 9.52443E-05-2.85776E-05-2.85715E-05 1.26487E-09 1.77918E-18-6.90872E-19
 -1      4186 9.42840E-05-2.75249E-05-2.86162E-05 8.54709E-07-1.94103E-19 9.73824E-19
 -1      4187 9.42403E-05-2.74906E-05-2.86035E-05 1.02441E-06 2.91708E-19 1.26451E-18
 -1      4188 9.42094E-05-2.74185E-05-2.86185E-05 6.96950E-07 3.99872E-19 1.16742E-18
 -1      4189 9.40833E-05-2.76912E-05-2.84633E-05 2.53565E-06-7.44574E-19 9.76166E-19
 -1      4190 9.43030E-05-2.79307E-05-2.84276E-05 2.93442E-06-2.44354E-19 9.53571E-19
 -1      4191 9.37502E-05-2.75929E-05-2.83551E-05 3.39068E-06-6.61869E-19 1.02506E-18
 -1      4192 9.36668E-05-2.72538E-05-2.84582E-05 2.35037E-06-9.91449E-19 1.54029E-18
 -1      4193 9.49930E-05-3.29103E-05-2.65606E-05 1.77859E-05-1.57231E-18 1.44766E-19
 -1      4194 9.09134E-05-2.94753E-05-2.63833E-05 1.64530E-05-1.59408E-18 2.45540E-19
 -1      4195 9.27299E-05-2.96989E-05-2.69627E-05 1.38483E-05-1.59369E-18-1.35128E-20
 -1      4196 9.77762E-05-3.39717E-05-2.72532E-05 1.46627E-05-1.72655E-18 2.77271E-21
 -1      4197 8.43811E-05-2.15840E-05-2.68054E-05 8.62572E-06-1.35719E-18 5.86665E-19
 -1      4198 9.65916E-05-3.07988E-05-2.81808E-05 6.21378E-06-7.75211E-19 7.00053E-19
 -1      4199 9.77720E-05-3.19586E-05-2.81799E-05 6.80147E-06-1.07525E-18 1.11528E-18
 -1      4200 9.51435E-05-2.96656E-05-2.80958E-05 6.45773E-06-6.33240E-19-3.38751E-21
 -1      4201 1.00969E-04-3.49944E-05-2.82231E-05 8.27014E-06-1.09244E-18 7.99907E-19
 -1      4202 9.94097E-05-3.48840E-05-2.77061E-05 1.21713E-05-1.54692E-18 3.50281E-19
 -1      4203 9.67138E-05-3.26465E-05-2.74950E-05 1.21571E-05-1.62545E-18 4.25703E-19
 -1      4204 9.91052E-05-3.33661E-05-2.81362E-05 7.90863E-06-1.44404E-18 1.07224E-18
 -1      4205 9.52465E-05-2.85784E-05-2.85721E-05 2.40133E-09 1.53763E-18 5.07786E-19
 -1      4206 9.52455E-05-2.85779E-05-2.85718E-05 3.28708E-09 1.08524E-18 3.10265E-19
 -1      4207 9.52449E-05-2.85777E-05-2.85716E-05 3.07091E-09 2.06387E-18 2.12967E-19
 -1      4208 8.85920E-05-2.36994E-05-2.77798E-05 4.90720E-06-1.10211E-18 4.75949E-19
 -1      4209 8.99145E-05-2.48619E-05-2.78859E-05 5.15110E-06-1.31540E-18 2.68137E-19
 -1      4210 8.73246E-05-2.33062E-05-2.74970E-05 6.26026E-06-1.24252E-18 4.22434E-19
 -1      4211 9.39954E-05-2.72951E-05-2.85880E-05 1.06113E-06 6.95596E-20 1.31937E-18
 -1      4212 9.52460E-05-2.85783E-05-2.85719E-05-3.98031E-10 7.45892E-19-1.50758E-18
 -1      4213 8.75358E-05-2.43644E-05-2.70452E-05 9.65997E-06-1.30220E-18 3.27254E-19
 -1      4214 9.52442E-05-2.85775E-05-2.85715E-05 2.92102E-09 1.92404E-18-3.93129E-19
 -1      4215 9.52437E-05-2.85772E-05-2.85713E-05 2.69263E-09 1.46351E-18-7.63268E-19
 -1      4216 9.31818E-05-2.65430E-05-2.85656E-05 8.02908E-07-6.00374E-19-1.38437E-18
 -1      4217 9.34731E-05-2.67604E-05-2.85939E-05 6.08162E-07-1.06337E-18-8.60171E-19
 -1      4218 9.37660E-05-2.70262E-05-2.86076E-05 6.01859E-07-2.91243E-20 8.77683E-20
 -1      4219 9.39692E-05-2.71876E-05-2.86223E-05 4.79211E-07 7.80842E-19 7.62451E-19
 -1      4220 9.40943E-05-2.72995E-05-2.86340E-05 3.39720E-07 4.16089E-19 1.65492E-19
 -1      4221 9.42667E-05-2.74455E-05-2.86407E-05 2.70633E-07 4.93325E-19 4.90592E-19
 -1      4222 9.43789E-05-2.75520E-05-2.86460E-05 1.78088E-07 3.73587E-19 3.08608E-19
 -1      4223 9.45129E-05-2.76760E-05-2.86473E-05 1.44128E-07-1.51468E-20-1.80046E-19
 -1      4224 9.46077E-05-2.77716E-05-2.86483E-05 8.43849E-08-8.20529E-19-5.14274E-19
 -1      4225 9.47097E-05-2.78741E-05-2.86463E-05 7.06579E-08-1.06940E-18-3.36954E-19
 -1      4226 9.47866E-05-2.79561E-05-2.86447E-05 3.27112E-08-1.13067E-18-2.98725E-19
 -1      4227 9.48630E-05-2.80389E-05-2.86409E-05 2.99891E-08-8.95968E-19-1.58878E-19
 -1      4228 9.49235E-05-2.81071E-05-2.86377E-05 6.17239E-09-1.96855E-19-6.35871E-20
 -1      4229 9.49798E-05-2.81727E-05-2.86332E-05 8.88366E-09 5.84675E-19 3.31650E-19
 -1      4230 9.50260E-05-2.82278E-05-2.86292E-05-5.93093E-09 4.37528E-19-9.31453E-20
 -1      4231 9.50668E-05-2.82791E-05-2.86245E-05-1.01894E-09-1.41761E-19-1.31666E-19
 -1      4232 9.51012E-05-2.83226E-05-2.86204E-05-1.01739E-08-7.88464E-19 1.16088E-19
 -1      4233 9.51302E-05-2.83619E-05-2.86158E-05-4.82900E-09-1.09958E-18-3.65990E-19
 -1      4234 9.51551E-05-2.83956E-05-2.86119E-05-1.04600E-08 2.69892E-20-1.03392E-19
 -1      4235 9.51753E-05-2.84253E-05-2.86078E-05-5.56066E-09 6.18525E-19 9.79039E-19
 -1      4236 9.51928E-05-2.84508E-05-2.86041E-05-9.01098E-09 1.44635E-19 1.15331E-18
 -1      4237 9.52064E-05-2.84728E-05-2.86005E-05-4.91746E-09 2.34205E-20 1.65895E-18
 -1      4238 9.52183E-05-2.84917E-05-2.85973E-05-7.02149E-09 1.24960E-19 1.80829E-18
 -1      4239 9.52272E-05-2.85077E-05-2.85943E-05-3.80944E-09 2.25953E-19 1.74715E-18
 -1      4240 9.52348E-05-2.85214E-05-2.85916E-05-5.08127E-09 7.83211E-19 1.97603E-18
 -1      4241 9.52403E-05-2.85328E-05-2.85891E-05-2.68356E-09 1.76910E-18 3.02197E-18
 -1      4242 9.52449E-05-2.85425E-05-2.85868E-05-3.43871E-09 1.15403E-18 2.35128E-18
 -1      4243 9.52480E-05-2.85504E-05-2.85848E-05-1.72844E-09 8.08575E-19 2.65990E-18
 -1      4244 9.52505E-05-2.85570E-05-2.85829E-05-2.16089E-09 3.99611E-19 2.36419E-18
 -1      4245 9.52519E-05-2.85623E-05-2.85813E-05-9.97221E-10 3.84843E-19 1.84079E-18
 -1      4246 9.52529E-05-2.85667E-05-2.85798E-05-1.22713E-09 2.68905E-19 1.37231E-18
 -1      4247 9.52533E-05-2.85700E-05-2.85785E-05-4.78453E-10 1.07791E-18 1.68677E-18
 -1      4248 9.52534E-05-2.85727E-05-2.85774E-05-5.81242E-10 1.16769E-18 4.63864E-19
 -1      4249 9.52530E-05-2.85747E-05-2.85764E-05-1.35163E-10 1.20401E-18-5.15255E-19
 -1      4250 9.52526E-05-2.85763E-05-2.85755E-05-1.59127E-10 1.55270E-18-5.37849E-19
 -1      4251 9.52518E-05-2.85773E-05-2.85748E-05 7.51740E-11 1.51378E-18-3.71806E-19
 -1      4252 9.52510E-05-2.85780E-05-2.85741E-05 9.80200E-11 8.44120E-19-1.31091E-18
 -1      4253 9.52501E-05-2.85784E-05-2.85735E-05 1.92069E-10 7.91019E-19-1.98536E-18
 -1      4254 9.52492E-05-2.85787E-05-2.85730E-05 2.38778E-10 1.71923E-18-2.21686E-18
 -1      4255 9.52482E-05-2.85786E-05-2.85726E-05 2.50975E-10 2.09643E-18-1.83393E-18
 -1      4256 9.29056E-05-2.64957E-05-2.84761E-05 1.70053E-06-3.58609E-19 1.62692E-19
 -1      4257 9.32210E-05-2.66592E-05-2.85248E-05 1.33806E-06-2.64825E-19-9.20919E-20
 -1      4258 1.05186E-04-3.81671E-05-2.87225E-05 6.18682E-06-6.19792E-19 8.11936E-19
 -1      4259 9.52472E-05-2.85785E-05-2.85723E-05 4.06838E-10 1.58003E-18-1.37579E-18
 -1      4260 9.30322E-05-2.72144E-05-2.82004E-05 4.42816E-06-1.21101E-18 8.45668E-19
 -1      4261 9.33805E-05-2.76778E-05-2.81302E-05 5.18810E-06-7.77058E-19 5.57409E-19
 -1      4262 9.36902E-05-2.70297E-05-2.85692E-05 1.10246E-06-6.68938E-19 3.97034E-19
 -1      4263 9.35538E-05-2.69671E-05-2.85361E-05 1.40747E-06-1.01352E-18-1.89127E-20
 -1      4264 9.28422E-05-2.64953E-05-2.84285E-05 2.15026E-06-5.09330E-19 3.17699E-19
 -1      4265 9.38088E-05-2.70892E-05-2.85893E-05 8.86482E-07-2.16695E-19 8.70389E-19
 -1      4266 9.52450E-05-2.85779E-05-2.85717E-05 2.09127E-09 1.41795E-18-1.31378E-19
 -1      4267 8.96417E-05-2.59323E-05-2.72925E-05 9.59291E-06-1.35490E-18-1.32404E-19
 -1      4268 9.70354E-05-3.18851E-05-2.79627E-05 8.67610E-06-1.32227E-18 7.45787E-19
 -1      4269 9.52465E-05-2.85784E-05-2.85720E-05 3.20753E-10 1.26526E-18-1.41848E-18
 -1      4270 9.08323E-05-2.57006E-05-2.79136E-05 5.56244E-06-9.64846E-19 9.70643E-19
 -1      4271 9.12542E-05-2.57286E-05-2.80825E-05 4.41848E-06-1.07573E-18 1.09586E-18
 -1      4272 9.24613E-05-2.63491E-05-2.83497E-05 2.71982E-06-7.85332E-19 5.31250E-19
 -1      4273 9.24789E-05-2.64620E-05-2.82841E-05 3.32193E-06-8.33517E-19 6.92615E-19
 -1      4274 9.62797E-05-3.14600E-05-2.77463E-05 1.00467E-05-1.37130E-18 4.21153E-19
 -1      4275 9.44726E-05-3.07764E-05-2.73272E-05 1.23061E-05-1.42416E-18-4.03255E-20
 -1      4276 9.21061E-05-2.86524E-05-2.72547E-05 1.14884E-05-1.34443E-18 1.80576E-19
 -1      4277 9.49594E-05-3.00426E-05-2.78240E-05 8.73783E-06-1.01445E-18 1.58667E-19
 -1      4278 9.52439E-05-2.85774E-05-2.85714E-05 1.83263E-09 1.87503E-18-6.90927E-19
 -1      4279 9.15957E-05-2.58297E-05-2.81984E-05 3.58812E-06-9.37237E-19 1.04801E-18
 -1      4280 9.22889E-05-2.71253E-05-2.79568E-05 6.16283E-06-9.71181E-19 8.89498E-19
 -1      4281 9.36084E-05-2.82898E-05-2.79913E-05 6.51180E-06-7.25840E-19 3.13804E-19
 -1      4282 9.42937E-05-2.90772E-05-2.79151E-05 7.50743E-06-8.76261E-19 3.03708E-19
 -1      4283 9.09203E-05-2.62481E-05-2.77335E-05 7.07280E-06-1.07304E-18 5.97525E-19
 -1      4284 9.52448E-05-2.85778E-05-2.85716E-05 1.40332E-09 1.14237E-18-1.19913E-18
 -1      4285 9.31564E-05-2.85066E-05-2.76935E-05 8.83620E-06-1.01963E-18 7.81758E-19
 -1      4286 9.14707E-05-2.69524E-05-2.76206E-05 8.32320E-06-1.13299E-18 4.11378E-19
 -1      4287 9.52455E-05-2.85781E-05-2.85718E-05 1.53547E-09 6.45616E-19-2.04108E-20
 -3
    1PSTEP                         4           1           1          
  100CL  101 1.000000000        4287                     0    1           1
 -4  ERROR       1    1
 -5  STR(%)      1    1    0    0
 -1         1 4.22964E+01
 -1         2 2.62679E+01
 -1         3 3.86877E-05
 -1         4 5.51375E-05
 -1         5 1.45705E+01
 -1         6 1.09667E+01
 -1         7 1.09667E+01
 -1         8 5.50386E+00
 -1         9 4.96154E+00
 -1        10 4.17910E+00
 -1        11 2.43872E+00
 -1        12 2.05622E+00
 -1        13 2.10390E+00
 -1        14 2.10390E+00
 -1        15 1.76607E+00
 -1        16 1.76995E+00
 -1        17 1.63678E+00
 -1        18 1.48027E+00
 -1        19 1.38790E+00
 -1        20 1.66671E+00
 -1        21 3.41975E+00
 -1        22 9.06199E+00
 -1        23 1.09667E+01
 -1        24 2.75988E+00
 -1        25 4.01961E+00
 -1        26 4.82404E+00
 -1        27 4.82404E+00
 -1        28 4.56497E+00
 -1        29 1.07131E+01
 -1        30 1.43947E+01
 -1        31 1.43947E+01
 -1        32 1.38909E+01
 -1        33 8.32568E+00
 -1        34 4.17117E+00
 -1        35 4.78398E+00
 -1        36 4.78398E+00
 -1        37 4.28048E+00
 -1        38 3.25844E+00
 -1        39 2.43387E+00
 -1        40 1.72956E+00
 -1        41 1.29811E+00
 -1        42 9.32416E-01
 -1        43 6.52041E-01
 -1        44 4.49024E-01
 -1        45 3.06657E-01
 -1        46 2.08515E-01
 -1        47 1.45668E-01
 -1        48 9.32813E-02
 -1        49 6.41150E-02
 -1        50 4.89190E-02
 -1        51 3.72273E-02
 -1        52 2.82152E-02
 -1        53 2.12599E-02
 -1        54 1.58930E-02
 -1        55 1.17605E-02
 -1        56 8.96699E-03
 -1        57 7.41138E-03
 -1        58 6.02578E-03
 -1        59 4.82330E-03
 -1        60 3.80220E-03
 -1        61 2.97473E-03
 -1        62 2.34618E-03
 -1        63 1.81941E-03
 -1        64 1.38579E-03
 -1        65 1.03416E-03
 -1        66 8.37807E-04
 -1        67 6.85187E-04
 -1        68 5.51977E-04
 -1        69 4.34738E-04
 -1        70 3.25832E-04
 -1        71 2.50842E-04
 -1        72 1.68629E-04
 -1        73 1.45705E+01
 -1        74 3.62798E+00
 -1        75 2.85227E+00
 -1        76 2.37041E+00
 -1        77 2.29942E+00
 -1        78 2.44856E+00
 -1        79 2.50770E+00
 -1        80 2.65447E+00
 -1        81 2.72481E+00
 -1        82 2.72481E+00
 -1        83 2.51293E+00
 -1        84 2.08718E+00
 -1        85 1.59261E+00
 -1        86 1.14315E+00
 -1        87 7.40676E-01
 -1        88 4.86250E-01
 -1        89 3.07478E-01
 -1        90 1.80048E-01
 -1        91 1.52853E-01
 -1        92 1.43518E-01
 -1        93 1.35887E-01
 -1        94 1.15103E-01
 -1        95 8.98436E-02
 -1        96 6.99064E-02
 -1        97 5.40711E-02
 -1        98 4.38756E-02
 -1        99 3.38759E-02
 -1       100 2.49817E-02
 -1       101 1.75747E-02
 -1       102 1.37097E-02
 -1       103 1.16984E-02
 -1       104 9.65058E-03
 -1       105 7.73827E-03
 -1       106 6.36862E-03
 -1       107 5.64738E-03
 -1       108 4.83519E-03
 -1       109 4.02493E-03
 -1       110 3.27142E-03
 -1       111 2.63021E-03
 -1       112 2.11203E-03
 -1       113 1.66141E-03
 -1       114 1.28007E-03
 -1       115 9.63733E-04
 -1       116 7.04632E-04
 -1       117 5.38727E-04
 -1       118 4.25463E-04
 -1       119 3.18922E-04
 -1       120 2.06537E-04
 -1       121 1.36533E-04
 -1       122 5.95395E-05
 -1       123 5.95395E-05
 -1       124 5.35361E-05
 -1       125 2.80626E-05
 -1       126 2.55268E-05
 -1       127 4.30753E-05
 -1       128 5.36607E-05
 -1       129 5.67890E-05
 -1       130 5.67890E-05
 -1       131 5.35823E-05
 -1       132 4.25387E-05
 -1       133 2.54551E-05
 -1       134 2.83406E-05
 -1       135 5.19692E-05
 -1       136 5.19692E-05
 -1       137 4.83878E-05
 -1       138 2.62679E+01
 -1       139 4.65534E+01
 -1       140 4.65534E+01
 -1       141 1.85666E+01
 -1       142 1.14984E+01
 -1       143 1.17332E+01
 -1       144 1.17332E+01
 -1       145 1.23812E+01
 -1       146 1.23812E+01
 -1       147 1.15360E+01
 -1       148 1.34184E+01
 -1       149 3.49867E+01
 -1       150 3.49867E+01
 -1       151 2.65246E+01
 -1       152 2.52874E+01
 -1       153 2.81491E+01
 -1       154 2.81491E+01
 -1       155 4.22964E+01
 -1       156 1.70095E+01
 -1       157 1.37256E+01
 -1       158 1.37256E+01
 -1       159 1.34367E+01
 -1       160 1.33781E+01
 -1       161 1.43100E+01
 -1       162 3.13144E+01
 -1       163 3.13144E+01
 -1       164 2.66076E+01
 -1       165 2.53079E+01
 -1       166 7.43835E+00
 -1       167 5.00815E+00
 -1       168 5.00815E+00
 -1       169 3.68408E+00
 -1       170 2.14209E+00
 -1       171 2.51664E+00
 -1       172 2.51664E+00
 -1       173 2.12558E+00
 -1       174 1.87004E+00
 -1       175 1.76995E+00
 -1       176 1.63678E+00
 -1       177 1.48027E+00
 -1       178 1.51724E+00
 -1       179 2.13525E+00
 -1       180 3.93700E+00
 -1       181 1.45705E+01
 -1       182 5.09003E+00
 -1       183 5.11208E+00
 -1       184 4.62124E+00
 -1       185 5.33690E+00
 -1       186 5.42723E+00
 -1       187 6.07968E+00
 -1       188 1.43947E+01
 -1       189 1.38909E+01
 -1       190 8.32568E+00
 -1       191 4.28165E+00
 -1       192 4.26171E+00
 -1       193 4.78398E+00
 -1       194 4.28048E+00
 -1       195 3.48080E+00
 -1       196 2.95789E+00
 -1       197 2.26927E+00
 -1       198 1.62462E+00
 -1       199 1.11001E+00
 -1       200 7.34997E-01
 -1       201 4.78211E-01
 -1       202 3.34005E-01
 -1       203 2.31987E-01
 -1       204 1.65762E-01
 -1       205 1.08670E-01
 -1       206 7.44503E-02
 -1       207 5.07106E-02
 -1       208 3.72273E-02
 -1       209 2.82152E-02
 -1       210 2.12599E-02
 -1       211 1.62336E-02
 -1       212 1.24535E-02
 -1       213 9.44898E-03
 -1       214 7.41138E-03
 -1       215 6.02578E-03
 -1       216 4.82330E-03
 -1       217 3.85276E-03
 -1       218 3.07517E-03
 -1       219 2.44192E-03
 -1       220 1.94496E-03
 -1       221 1.52997E-03
 -1       222 1.18292E-03
 -1       223 8.94825E-04
 -1       224 6.85187E-04
 -1       225 5.51977E-04
 -1       226 4.34738E-04
 -1       227 3.27410E-04
 -1       228 2.50842E-04
 -1       229 1.68629E-04
 -1       230 7.87116E-05
 -1       231 3.62798E+00
 -1       232 2.85227E+00
 -1       233 2.45379E+00
 -1       234 2.45379E+00
 -1       235 2.42603E+00
 -1       236 2.44856E+00
 -1       237 2.50770E+00
 -1       238 2.65447E+00
 -1       239 2.72481E+00
 -1       240 2.51293E+00
 -1       241 2.08718E+00
 -1       242 1.59261E+00
 -1       243 1.16582E+00
 -1       244 8.05477E-01
 -1       245 4.99051E-01
 -1       246 3.07478E-01
 -1       247 1.80048E-01
 -1       248 1.52853E-01
 -1       249 1.43518E-01
 -1       250 1.35887E-01
 -1       251 1.15103E-01
 -1       252 8.98436E-02
 -1       253 7.15402E-02
 -1       254 5.53731E-02
 -1       255 4.38756E-02
 -1       256 3.38759E-02
 -1       257 2.49817E-02
 -1       258 1.77868E-02
 -1       259 1.41447E-02
 -1       260 1.20664E-02
 -1       261 9.96993E-03
 -1       262 8.01516E-03
 -1       263 6.36862E-03
 -1       264 5.64738E-03
 -1       265 4.83519E-03
 -1       266 4.02493E-03
 -1       267 3.27142E-03
 -1       268 2.63021E-03
 -1       269 2.11203E-03
 -1       270 1.66647E-03
 -1       271 1.30829E-03
 -1       272 1.00404E-03
 -1       273 7.50418E-04
 -1       274 5.41641E-04
 -1       275 4.25463E-04
 -1       276 3.18922E-04
 -1       277 2.07591E-04
 -1       278 1.36533E-04
 -1       279 1.07791E-04
 -1       280 1.07791E-04
 -1       281 8.09562E-05
 -1       282 4.36930E-05
 -1       283 7.70254E-05
 -1       284 9.90602E-05
 -1       285 1.08105E-04
 -1       286 1.08120E-04
 -1       287 1.08120E-04
 -1       288 9.86561E-05
 -1       289 7.75137E-05
 -1       290 4.46453E-05
 -1       291 8.13058E-05
 -1       292 1.03632E-04
 -1       293 1.20573E-04
 -1       294 3.14419E+01
 -1       295 2.74478E+01
 -1       296 4.65534E+01
 -1       297 2.06724E+01
 -1       298 1.04477E+01
 -1       299 1.14984E+01
 -1       300 1.17332E+01
 -1       301 1.17174E+01
 -1       302 1.23812E+01
 -1       303 1.15360E+01
 -1       304 1.02094E+01
 -1       305 1.34184E+01
 -1       306 3.49867E+01
 -1       307 3.09710E+01
 -1       308 2.72324E+01
 -1       309 3.29028E+01
 -1       310 3.81860E+01
 -1       311 3.81860E+01
 -1       312 4.22964E+01
 -1       313 1.70095E+01
 -1       314 1.25966E+01
 -1       315 1.37256E+01
 -1       316 1.37690E+01
 -1       317 1.37690E+01
 -1       318 1.22664E+01
 -1       319 1.43100E+01
 -1       320 3.13144E+01
 -1       321 3.05611E+01
 -1       322 2.57473E+01
 -1       323 3.14419E+01
 -1       324 1.07131E+01
 -1       325 5.77772E+00
 -1       326 5.65602E+00
 -1       327 4.37865E+00
 -1       328 3.15803E+00
 -1       329 3.15803E+00
 -1       330 2.68271E+00
 -1       331 2.52005E+00
 -1       332 1.92188E+00
 -1       333 1.32037E+00
 -1       334 1.07553E+00
 -1       335 9.36822E-01
 -1       336 9.03936E-01
 -1       337 1.01227E+00
 -1       338 2.49851E+00
 -1       339 2.38807E+00
 -1       340 5.05583E+00
 -1       341 6.39362E+00
 -1       342 6.75991E+00
 -1       343 9.56837E+00
 -1       344 7.02029E+00
 -1       345 1.62218E+01
 -1       346 1.17053E+01
 -1       347 5.70949E+00
 -1       348 6.08760E+00
 -1       349 7.65874E+00
 -1       350 5.04000E+00
 -1       351 4.44462E+00
 -1       352 3.76734E+00
 -1       353 2.92467E+00
 -1       354 2.13284E+00
 -1       355 1.49163E+00
 -1       356 1.01501E+00
 -1       357 6.78187E-01
 -1       358 4.47287E-01
 -1       359 2.91867E-01
 -1       360 1.92601E-01
 -1       361 1.17144E-01
 -1       362 7.52128E-02
 -1       363 5.32725E-02
 -1       364 3.74050E-02
 -1       365 2.59544E-02
 -1       366 1.92779E-02
 -1       367 1.49852E-02
 -1       368 1.15295E-02
 -1       369 8.96057E-03
 -1       370 7.23938E-03
 -1       371 5.75682E-03
 -1       372 4.50849E-03
 -1       373 3.73509E-03
 -1       374 3.15107E-03
 -1       375 2.60043E-03
 -1       376 2.13168E-03
 -1       377 1.73110E-03
 -1       378 1.37678E-03
 -1       379 1.07159E-03
 -1       380 8.14305E-04
 -1       381 6.01555E-04
 -1       382 4.29197E-04
 -1       383 3.27410E-04
 -1       384 2.41066E-04
 -1       385 1.67483E-04
 -1       386 2.45379E+00
 -1       387 2.42603E+00
 -1       388 2.40521E+00
 -1       389 2.30380E+00
 -1       390 2.20894E+00
 -1       391 2.18680E+00
 -1       392 2.00952E+00
 -1       393 1.69925E+00
 -1       394 1.37881E+00
 -1       395 1.07027E+00
 -1       396 7.87348E-01
 -1       397 5.56662E-01
 -1       398 3.56862E-01
 -1       399 1.98500E-01
 -1       400 1.04801E-01
 -1       401 9.34149E-02
 -1       402 9.57351E-02
 -1       403 8.48492E-02
 -1       404 7.08421E-02
 -1       405 5.85302E-02
 -1       406 4.93078E-02
 -1       407 4.02158E-02
 -1       408 3.20110E-02
 -1       409 2.43754E-02
 -1       410 1.77868E-02
 -1       411 1.41447E-02
 -1       412 1.20664E-02
 -1       413 9.96993E-03
 -1       414 8.01516E-03
 -1       415 6.28613E-03
 -1       416 5.00033E-03
 -1       417 4.28856E-03
 -1       418 3.57473E-03
 -1       419 2.90763E-03
 -1       420 2.37339E-03
 -1       421 1.91492E-03
 -1       422 1.53740E-03
 -1       423 1.23175E-03
 -1       424 9.62315E-04
 -1       425 7.31648E-04
 -1       426 5.39120E-04
 -1       427 3.83378E-04
 -1       428 2.94997E-04
 -1       429 2.07591E-04
 -1       430 1.65781E-04
 -1       431 8.67481E-05
 -1       432 2.01189E-04
 -1       433 1.04357E-04
 -1       434 1.35837E-04
 -1       435 1.51400E-04
 -1       436 1.51400E-04
 -1       437 1.51214E-04
 -1       438 1.51214E-04
 -1       439 1.36762E-04
 -1       440 1.04476E-04
 -1       441 8.73474E-05
 -1       442 1.51999E-04
 -1       443 2.17149E+00
 -1       444 2.74478E+01
 -1       445 9.73621E+00
 -1       446 3.91540E+01
 -1       447 1.33963E+01
 -1       448 6.22637E+00
 -1       449 1.37690E+01
 -1       450 7.75368E+00
 -1       451 9.87567E+00
 -1       452 1.03654E+01
 -1       453 1.07617E+01
 -1       454 9.79168E+00
 -1       455 7.64535E+00
 -1       456 7.33421E+00
 -1       457 1.29757E+01
 -1       458 2.05932E+01
 -1       459 2.55924E+01
 -1       460 4.77030E+01
 -1       461 4.77030E+01
 -1       462 3.81860E+01
 -1       463 2.48059E+01
 -1       464 1.43047E+01
 -1       465 7.32931E+00
 -1       466 9.17601E+00
 -1       467 7.85019E+00
 -1       468 1.23884E+01
 -1       469 2.06664E+01
 -1       470 2.25603E+01
 -1       471 3.91540E+01
 -1       472 2.89940E+01
 -1       473 1.51999E-04
 -1       474 2.02344E+01
 -1       475 2.94998E+01
 -1       476 4.37497E+00
 -1       477 5.22214E+00
 -1       478 3.52276E+00
 -1       479 2.56956E+00
 -1       480 1.63334E+00
 -1       481 1.03158E+00
 -1       482 7.59971E-01
 -1       483 1.00591E+00
 -1       484 1.00591E+00
 -1       485 1.61094E+00
 -1       486 7.83920E+00
 -1       487 7.48006E+00
 -1       488 9.56837E+00
 -1       489 6.53199E+00
 -1       490 7.81927E+00
 -1       491 6.05796E+00
 -1       492 4.13642E+00
 -1       493 2.92467E+00
 -1       494 2.13284E+00
 -1       495 1.49163E+00
 -1       496 1.01501E+00
 -1       497 6.78187E-01
 -1       498 4.62985E-01
 -1       499 3.17188E-01
 -1       500 2.17342E-01
 -1       501 1.42957E-01
 -1       502 9.54446E-02
 -1       503 6.28886E-02
 -1       504 4.06158E-02
 -1       505 2.59544E-02
 -1       506 1.79141E-02
 -1       507 1.29963E-02
 -1       508 1.09005E-02
 -1       509 8.96057E-03
 -1       510 7.23938E-03
 -1       511 5.75682E-03
 -1       512 4.59186E-03
 -1       513 3.77790E-03
 -1       514 3.15107E-03
 -1       515 2.60043E-03
 -1       516 2.14473E-03
 -1       517 1.74880E-03
 -1       518 1.39610E-03
 -1       519 1.09061E-03
 -1       520 8.34824E-04
 -1       521 6.33443E-04
 -1       522 4.66497E-04
 -1       523 3.31454E-04
 -1       524 2.34913E-04
 -1       525 2.31220E-04
 -1       526 1.84903E+00
 -1       527 1.92571E+00
 -1       528 1.92351E+00
 -1       529 1.69682E+00
 -1       530 1.65904E+00
 -1       531 1.63631E+00
 -1       532 1.51266E+00
 -1       533 1.33266E+00
 -1       534 1.13107E+00
 -1       535 8.75580E-01
 -1       536 6.16833E-01
 -1       537 4.28300E-01
 -1       538 2.76581E-01
 -1       539 1.58049E-01
 -1       540 1.17751E-01
 -1       541 8.82858E-02
 -1       542 7.50953E-02
 -1       543 7.12510E-02
 -1       544 6.40983E-02
 -1       545 5.38165E-02
 -1       546 4.48257E-02
 -1       547 3.53132E-02
 -1       548 2.63594E-02
 -1       549 1.86251E-02
 -1       550 1.28588E-02
 -1       551 9.18803E-03
 -1       552 7.09808E-03
 -1       553 6.32745E-03
 -1       554 5.44351E-03
 -1       555 4.54746E-03
 -1       556 3.70303E-03
 -1       557 3.11233E-03
 -1       558 2.70225E-03
 -1       559 2.27627E-03
 -1       560 1.87987E-03
 -1       561 1.54968E-03
 -1       562 1.24548E-03
 -1       563 9.76023E-04
 -1       564 7.69239E-04
 -1       565 5.91625E-04
 -1       566 4.40662E-04
 -1       567 3.27306E-04
 -1       568 2.30042E-04
 -1       569 1.69039E-04
 -1       570 2.02328E-04
 -1       571 1.85793E-04
 -1       572 2.89940E+01
 -1       573 1.99833E-04
 -1       574 1.99962E-04
 -1       575 1.99962E-04
 -1       576 1.99762E-04
 -1       577 1.99405E-04
 -1       578 1.74806E-04
 -1       579 1.42414E-04
 -1       580 2.34913E-04
 -1       581 5.07460E+00
 -1       582 3.69515E+00
 -1       583 1.65023E+01
 -1       584 4.77030E+01
 -1       585 1.01932E+01
 -1       586 7.75486E+00
 -1       587 1.22226E+01
 -1       588 3.91540E+01
 -1       589 4.16115E+00
 -1       590 7.25634E+00
 -1       591 8.08258E+00
 -1       592 5.17152E+00
 -1       593 4.74880E+00
 -1       594 5.80619E+00
 -1       595 2.55924E+01
 -1       596 1.21829E+01
 -1       597 1.09425E+01
 -1       598 2.25603E+01
 -1       599 1.70278E+01
 -1       600 5.22214E+00
 -1       601 5.22299E+00
 -1       602 1.19584E+00
 -1       603 2.14905E+01
 -1       604 1.38456E+00
 -1       605 1.81198E+01
 -1       606 2.21529E+01
 -1       607 1.15669E+01
 -1       608 1.50800E+01
 -1       609 1.98118E+00
 -1       610 3.46689E+00
 -1       611 9.28289E-01
 -1       612 1.34730E+00
 -1       613 1.34730E+00
 -1       614 1.61211E+01
 -1       615 1.00348E+01
 -1       616 1.41657E+01
 -1       617 3.64930E-04
 -1       618 3.62560E-04
 -1       619 6.39407E+00
 -1       620 4.37069E+00
 -1       621 2.90381E+00
 -1       622 1.89690E+00
 -1       623 1.23388E+00
 -1       624 7.99683E-01
 -1       625 5.30443E-01
 -1       626 3.51901E-01
 -1       627 2.28301E-01
 -1       628 1.60054E-01
 -1       629 1.11827E-01
 -1       630 7.71610E-02
 -1       631 5.24346E-02
 -1       632 3.49265E-02
 -1       633 2.26379E-02
 -1       634 1.41062E-02
 -1       635 8.92677E-03
 -1       636 6.09236E-03
 -1       637 5.34749E-03
 -1       638 4.59236E-03
 -1       639 3.84593E-03
 -1       640 3.15378E-03
 -1       641 2.64091E-03
 -1       642 2.23714E-03
 -1       643 1.85053E-03
 -1       644 1.49822E-03
 -1       645 1.22323E-03
 -1       646 1.00106E-03
 -1       647 7.98941E-04
 -1       648 6.26818E-04
 -1       649 4.85346E-04
 -1       650 3.64391E-04
 -1       651 2.68152E-04
 -1       652 1.56191E+00
 -1       653 1.45318E+00
 -1       654 1.56498E+00
 -1       655 1.34266E+00
 -1       656 1.33770E+00
 -1       657 1.27731E+00
 -1       658 1.15149E+00
 -1       659 9.49938E-01
 -1       660 7.72294E-01
 -1       661 6.01346E-01
 -1       662 4.28300E-01
 -1       663 2.76581E-01
 -1       664 1.96296E-01
 -1       665 1.34597E-01
 -1       666 9.53751E-02
 -1       667 8.61024E-02
 -1       668 7.26474E-02
 -1       669 6.17375E-02
 -1       670 5.01262E-02
 -1       671 4.00222E-02
 -1       672 3.07364E-02
 -1       673 2.26409E-02
 -1       674 1.59561E-02
 -1       675 1.06723E-02
 -1       676 6.65483E-03
 -1       677 4.34709E-03
 -1       678 3.77316E-03
 -1       679 3.59184E-03
 -1       680 3.25093E-03
 -1       681 2.83218E-03
 -1       682 2.39208E-03
 -1       683 2.04274E-03
 -1       684 1.76502E-03
 -1       685 1.47955E-03
 -1       686 1.21335E-03
 -1       687 9.82778E-04
 -1       688 7.74771E-04
 -1       689 5.93285E-04
 -1       690 4.95618E-04
 -1       691 4.50111E-04
 -1       692 2.66703E-04
 -1       693 2.66703E-04
 -1       694 1.31249E+00
 -1       695 2.58187E-04
 -1       696 2.58187E-04
 -1       697 2.51792E-04
 -1       698 2.11702E-04
 -1       699 2.11702E-04
 -1       700 1.40919E+01
 -1       701 6.61326E+00
 -1       702 3.08778E+00
 -1       703 2.57751E-04
 -1       704 1.33843E+01
 -1       705 6.69752E+00
 -1       706 3.34662E+00
 -1       707 1.02698E+01
 -1       708 1.26809E+00
 -1       709 7.80915E+00
 -1       710 5.78256E+00
 -1       711 5.73547E+00
 -1       712 2.79081E+00
 -1       713 5.25166E+00
 -1       714 1.49051E+01
 -1       715 4.09892E+00
 -1       716 3.90813E+00
 -1       717 7.34417E+00
 -1       718 1.46015E+01
 -1       719 1.38857E+00
 -1       720 1.05167E+01
 -1       721 9.85843E+00
 -1       722 1.07086E+01
 -1       723 9.46342E+00
 -1       724 4.30881E+00
 -1       725 1.41657E+01
 -1       726 1.38857E+00
 -1       727 3.20644E-04
 -1       728 2.50158E+00
 -1       729 5.78578E+00
 -1       730 3.78592E+00
 -1       731 2.39626E+00
 -1       732 1.57192E+00
 -1       733 1.04457E+00
 -1       734 6.98327E-01
 -1       735 4.66602E-01
 -1       736 3.08381E-01
 -1       737 2.06956E-01
 -1       738 1.40855E-01
 -1       739 9.48257E-02
 -1       740 6.29511E-02
 -1       741 4.10164E-02
 -1       742 2.80351E-02
 -1       743 1.87420E-02
 -1       744 1.20678E-02
 -1       745 7.36142E-03
 -1       746 4.27035E-03
 -1       747 3.52428E-03
 -1       748 3.35330E-03
 -1       749 3.03055E-03
 -1       750 2.64091E-03
 -1       751 2.23714E-03
 -1       752 1.93001E-03
 -1       753 1.66286E-03
 -1       754 1.39356E-03
 -1       755 1.13947E-03
 -1       756 9.09938E-04
 -1       757 7.09043E-04
 -1       758 5.37390E-04
 -1       759 3.94748E-04
 -1       760 2.86738E-04
 -1       761 3.20889E-04
 -1       762 1.53822E+00
 -1       763 1.35685E+00
 -1       764 1.30941E+00
 -1       765 1.52549E+00
 -1       766 1.11019E+00
 -1       767 9.49938E-01
 -1       768 7.69982E-01
 -1       769 5.67294E-01
 -1       770 4.08117E-01
 -1       771 2.87490E-01
 -1       772 1.96296E-01
 -1       773 1.39482E-01
 -1       774 1.13068E-01
 -1       775 8.94971E-02
 -1       776 7.26474E-02
 -1       777 5.83392E-02
 -1       778 4.50685E-02
 -1       779 3.36037E-02
 -1       780 2.47122E-02
 -1       781 1.76824E-02
 -1       782 1.22164E-02
 -1       783 8.07445E-03
 -1       784 5.01656E-03
 -1       785 2.82206E-03
 -1       786 2.09434E-03
 -1       787 2.32634E-03
 -1       788 2.32117E-03
 -1       789 2.16839E-03
 -1       790 1.93397E-03
 -1       791 1.66418E-03
 -1       792 1.47990E-03
 -1       793 1.27111E-03
 -1       794 1.05879E-03
 -1       795 8.57426E-04
 -1       796 6.75062E-04
 -1       797 5.17606E-04
 -1       798 3.07314E-04
 -1       799 8.15098E+00
 -1       800 3.46689E+00
 -1       801 3.08981E-04
 -1       802 3.20889E-04
 -1       803 2.86738E-04
 -1       804 3.97078E+00
 -1       805 4.50111E-04
 -1       806 2.43932E+00
 -1       807 3.69114E+00
 -1       808 4.00924E+00
 -1       809 8.24380E+00
 -1       810 2.61568E+00
 -1       811 1.38857E+00
 -1       812 1.20632E+00
 -1       813 5.27027E+00
 -1       814 2.94870E+00
 -1       815 2.61568E+00
 -1       816 9.75713E+00
 -1       817 6.24262E+00
 -1       818 7.30978E+00
 -1       819 3.42606E+00
 -1       820 1.48280E+00
 -1       821 9.75713E+00
 -1       822 1.43254E+00
 -1       823 1.16706E+00
 -1       824 5.36737E-04
 -1       825 4.34383E-04
 -1       826 3.53885E+00
 -1       827 1.58232E+00
 -1       828 2.56992E+00
 -1       829 1.60302E+00
 -1       830 1.01718E+00
 -1       831 7.19062E-01
 -1       832 5.09583E-01
 -1       833 3.57227E-01
 -1       834 2.47565E-01
 -1       835 1.72310E-01
 -1       836 1.18739E-01
 -1       837 8.08048E-02
 -1       838 5.43995E-02
 -1       839 3.67670E-02
 -1       840 2.43428E-02
 -1       841 1.57035E-02
 -1       842 9.69173E-03
 -1       843 5.57743E-03
 -1       844 3.20604E-03
 -1       845 2.08781E-03
 -1       846 2.33338E-03
 -1       847 2.32393E-03
 -1       848 2.16582E-03
 -1       849 1.93001E-03
 -1       850 1.66286E-03
 -1       851 1.44743E-03
 -1       852 1.24328E-03
 -1       853 1.03771E-03
 -1       854 8.43512E-04
 -1       855 6.67861E-04
 -1       856 5.12246E-04
 -1       857 4.11407E-04
 -1       858 4.90889E+00
 -1       859 9.42679E-01
 -1       860 1.11019E+00
 -1       861 5.63555E-01
 -1       862 4.08117E-01
 -1       863 2.87490E-01
 -1       864 2.05749E-01
 -1       865 1.53936E-01
 -1       866 1.16259E-01
 -1       867 9.12279E-02
 -1       868 6.91654E-02
 -1       869 5.19143E-02
 -1       870 4.00884E-02
 -1       871 3.09991E-02
 -1       872 2.30767E-02
 -1       873 1.63809E-02
 -1       874 1.11988E-02
 -1       875 7.36474E-03
 -1       876 4.48423E-03
 -1       877 2.40046E-03
 -1       878 1.45102E-03
 -1       879 1.51926E-03
 -1       880 1.68526E-03
 -1       881 1.67784E-03
 -1       882 1.56399E-03
 -1       883 1.39198E-03
 -1       884 1.23513E-03
 -1       885 1.07831E-03
 -1       886 9.10686E-04
 -1       887 7.46460E-04
 -1       888 5.93868E-04
 -1       889 4.02104E-04
 -1       890 2.61740E+00
 -1       891 5.47209E-04
 -1       892 7.54601E-01
 -1       893 2.61740E+00
 -1       894 2.15246E+00
 -1       895 4.46732E+00
 -1       896 2.77748E+00
 -1       897 3.06331E+00
 -1       898 2.16191E+00
 -1       899 5.01918E+00
 -1       900 4.70823E+00
 -1       901 2.44845E+00
 -1       902 4.57040E+00
 -1       903 2.25800E+00
 -1       904 5.05071E+00
 -1       905 2.08806E+00
 -1       906 5.36737E-04
 -1       907 1.97668E+00
 -1       908 4.68932E-04
 -1       909 5.47209E-04
 -1       910 4.02104E-04
 -1       911 2.37704E+00
 -1       912 1.53822E+00
 -1       913 1.80296E+00
 -1       914 1.64968E+00
 -1       915 1.33136E+00
 -1       916 1.11560E+00
 -1       917 7.78787E-01
 -1       918 5.31242E-01
 -1       919 3.70166E-01
 -1       920 2.33413E-01
 -1       921 1.63959E-01
 -1       922 1.21255E-01
 -1       923 8.79133E-02
 -1       924 6.27289E-02
 -1       925 4.38769E-02
 -1       926 3.00114E-02
 -1       927 2.05845E-02
 -1       928 1.36957E-02
 -1       929 8.75299E-03
 -1       930 5.33996E-03
 -1       931 2.97722E-03
 -1       932 1.38684E-03
 -1       933 1.46448E-03
 -1       934 1.63013E-03
 -1       935 1.62176E-03
 -1       936 1.51047E-03
 -1       937 1.34467E-03
 -1       938 1.15648E-03
 -1       939 1.01003E-03
 -1       940 8.55215E-04
 -1       941 7.03515E-04
 -1       942 6.10220E-04
 -1       943 1.62343E+00
 -1       944 4.08642E-01
 -1       945 5.63555E-01
 -1       946 2.22348E-01
 -1       947 1.61483E-01
 -1       948 1.17152E-01
 -1       949 8.55111E-02
 -1       950 6.61101E-02
 -1       951 5.19143E-02
 -1       952 4.00884E-02
 -1       953 2.98995E-02
 -1       954 2.15506E-02
 -1       955 1.49586E-02
 -1       956 9.99950E-03
 -1       957 6.54578E-03
 -1       958 4.00894E-03
 -1       959 2.44162E-03
 -1       960 1.45102E-03
 -1       961 1.04443E-03
 -1       962 1.26424E-03
 -1       963 1.31642E-03
 -1       964 1.26248E-03
 -1       965 1.14698E-03
 -1       966 1.00996E-03
 -1       967 8.86149E-04
 -1       968 7.52091E-04
 -1       969 6.23953E-04
 -1       970 2.36527E+00
 -1       971 2.56992E+00
 -1       972 2.92502E-01
 -1       973 1.94955E+00
 -1       974 1.80296E+00
 -1       975 3.22565E+00
 -1       976 4.73153E+00
 -1       977 2.38497E+00
 -1       978 3.70077E+00
 -1       979 1.74138E+00
 -1       980 1.92573E+00
 -1       981 3.31402E+00
 -1       982 4.73153E+00
 -1       983 1.01230E+00
 -1       984 1.97668E+00
 -1       985 7.54601E-01
 -1       986 6.54148E-04
 -1       987 5.83261E-04
 -1       988 6.54148E-04
 -1       989 4.38967E-04
 -1       990 3.29774E+00
 -1       991 5.97145E-01
 -1       992 5.58885E-01
 -1       993 3.86606E-01
 -1       994 2.66029E-01
 -1       995 1.89499E-01
 -1       996 1.31725E-01
 -1       997 9.16792E-02
 -1       998 6.31615E-02
 -1       999 4.36809E-02
 -1      1000 3.18743E-02
 -1      1001 2.25995E-02
 -1      1002 1.56484E-02
 -1      1003 1.07493E-02
 -1      1004 7.09210E-03
 -1      1005 4.43516E-03
 -1      1006 2.60961E-03
 -1      1007 1.40995E-03
 -1      1008 9.09589E-04
 -1      1009 1.13833E-03
 -1      1010 1.20027E-03
 -1      1011 1.15850E-03
 -1      1012 1.05715E-03
 -1      1013 9.26332E-04
 -1      1014 7.86586E-04
 -1      1015 6.71534E-04
 -1      1016 6.10220E-04
 -1      1017 1.78735E+00
 -1      1018 1.49404E-01
 -1      1019 2.19396E-01
 -1      1020 8.55111E-02
 -1      1021 6.61101E-02
 -1      1022 4.91955E-02
 -1      1023 3.58493E-02
 -1      1024 2.55475E-02
 -1      1025 1.77404E-02
 -1      1026 1.19306E-02
 -1      1027 8.01386E-03
 -1      1028 5.65661E-03
 -1      1029 3.82212E-03
 -1      1030 2.44162E-03
 -1      1031 1.43601E-03
 -1      1032 8.85291E-04
 -1      1033 9.79520E-04
 -1      1034 1.03714E-03
 -1      1035 1.00501E-03
 -1      1036 9.20160E-04
 -1      1037 8.08375E-04
 -1      1038 6.93601E-04
 -1      1039 6.54148E-04
 -1      1040 2.27118E+00
 -1      1041 4.52926E-01
 -1      1042 2.42421E+00
 -1      1043 4.68932E-04
 -1      1044 1.08814E-01
 -1      1045 8.98807E-01
 -1      1046 3.23475E-01
 -1      1047 8.29741E-01
 -1      1048 1.83191E+00
 -1      1049 4.93640E-04
 -1      1050 1.44737E+00
 -1      1051 1.62343E+00
 -1      1052 4.51790E-01
 -1      1053 2.70555E-01
 -1      1054 1.48845E-01
 -1      1055 1.03551E-01
 -1      1056 7.20565E-02
 -1      1057 5.21622E-02
 -1      1058 3.73155E-02
 -1      1059 2.65221E-02
 -1      1060 2.06317E-02
 -1      1061 1.57464E-02
 -1      1062 1.15018E-02
 -1      1063 8.04764E-03
 -1      1064 5.36716E-03
 -1      1065 3.36723E-03
 -1      1066 1.92851E-03
 -1      1067 9.31952E-04
 -1      1068 7.96019E-04
 -1      1069 8.74419E-04
 -1      1070 8.63860E-04
 -1      1071 8.00420E-04
 -1      1072 7.27881E-04
 -1      1073 6.51609E-04
 -1      1074 6.88614E-01
 -1      1075 1.50945E+00
 -1      1076 6.94144E-02
 -1      1077 1.03551E-01
 -1      1078 3.02650E-02
 -1      1079 2.24042E-02
 -1      1080 1.61093E-02
 -1      1081 1.15018E-02
 -1      1082 8.04764E-03
 -1      1083 5.36716E-03
 -1      1084 3.38418E-03
 -1      1085 2.03950E-03
 -1      1086 1.09624E-03
 -1      1087 6.67599E-04
 -1      1088 7.68497E-04
 -1      1089 8.03863E-04
 -1      1090 7.73893E-04
 -1      1091 7.27881E-04
 -1      1092 6.51609E-04
 -1      1093 5.76842E-04
 -1      1094 1.49404E-01
 -1      1095 5.96998E-01
 -1      1096 1.95946E+00
 -1      1097 6.26181E-01
 -1      1098 4.55108E-02
 -1      1099 3.42210E-01
 -1      1100 6.26181E-01
 -1      1101 4.72798E-04
 -1      1102 1.48845E-01
 -1      1103 5.19840E-01
 -1      1104 2.09898E+00
 -1      1105 8.31178E-01
 -1      1106 1.24940E+00
 -1      1107 5.05903E-04
 -1      1108 1.19427E+00
 -1      1109 4.15544E-04
 -1      1110 1.48845E-01
 -1      1111 6.88614E-01
 -1      1112 1.06104E+00
 -1      1113 1.04181E+00
 -1      1114 1.09667E+01
 -1      1115 8.23529E+00
 -1      1116 5.23270E+00
 -1      1117 4.57032E+00
 -1      1118 3.30891E+00
 -1      1119 2.24747E+00
 -1      1120 2.08006E+00
 -1      1121 2.10390E+00
 -1      1122 1.93498E+00
 -1      1123 1.76801E+00
 -1      1124 1.70337E+00
 -1      1125 1.55852E+00
 -1      1126 1.43408E+00
 -1      1127 1.52730E+00
 -1      1128 2.54323E+00
 -1      1129 6.24087E+00
 -1      1130 1.18163E+01
 -1      1131 1.09667E+01
 -1      1132 6.86330E+00
 -1      1133 3.38975E+00
 -1      1134 4.42183E+00
 -1      1135 4.82404E+00
 -1      1136 4.69451E+00
 -1      1137 7.63903E+00
 -1      1138 1.25539E+01
 -1      1139 1.43947E+01
 -1      1140 1.41428E+01
 -1      1141 1.11083E+01
 -1      1142 6.24842E+00
 -1      1143 4.47757E+00
 -1      1144 4.78398E+00
 -1      1145 4.53223E+00
 -1      1146 3.76946E+00
 -1      1147 2.84615E+00
 -1      1148 2.08171E+00
 -1      1149 1.51383E+00
 -1      1150 1.11526E+00
 -1      1151 7.92228E-01
 -1      1152 5.50532E-01
 -1      1153 3.77840E-01
 -1      1154 2.57586E-01
 -1      1155 1.77091E-01
 -1      1156 1.19474E-01
 -1      1157 7.86982E-02
 -1      1158 5.65170E-02
 -1      1159 4.30731E-02
 -1      1160 3.27212E-02
 -1      1161 2.47375E-02
 -1      1162 1.85764E-02
 -1      1163 1.38268E-02
 -1      1164 1.03637E-02
 -1      1165 8.18918E-03
 -1      1166 6.71858E-03
 -1      1167 5.42454E-03
 -1      1168 4.31275E-03
 -1      1169 3.38847E-03
 -1      1170 2.66045E-03
 -1      1171 2.08280E-03
 -1      1172 1.60260E-03
 -1      1173 1.20998E-03
 -1      1174 9.35982E-04
 -1      1175 7.61497E-04
 -1      1176 6.18582E-04
 -1      1177 4.93358E-04
 -1      1178 3.80285E-04
 -1      1179 2.88337E-04
 -1      1180 2.09735E-04
 -1      1181 1.11883E-04
 -1      1182 1.45705E+01
 -1      1183 9.09926E+00
 -1      1184 3.24012E+00
 -1      1185 2.61134E+00
 -1      1186 2.33491E+00
 -1      1187 2.37399E+00
 -1      1188 2.47813E+00
 -1      1189 2.58108E+00
 -1      1190 2.68964E+00
 -1      1191 2.72481E+00
 -1      1192 2.61887E+00
 -1      1193 2.30006E+00
 -1      1194 1.83989E+00
 -1      1195 1.36788E+00
 -1      1196 9.41912E-01
 -1      1197 6.13463E-01
 -1      1198 3.96864E-01
 -1      1199 2.43763E-01
 -1      1200 1.66450E-01
 -1      1201 1.48185E-01
 -1      1202 1.39702E-01
 -1      1203 1.25495E-01
 -1      1204 1.02473E-01
 -1      1205 7.98750E-02
 -1      1206 6.19888E-02
 -1      1207 4.89733E-02
 -1      1208 3.88758E-02
 -1      1209 2.94288E-02
 -1      1210 2.12782E-02
 -1      1211 1.56422E-02
 -1      1212 1.27041E-02
 -1      1213 1.06745E-02
 -1      1214 8.69442E-03
 -1      1215 7.05344E-03
 -1      1216 6.00800E-03
 -1      1217 5.24128E-03
 -1      1218 4.43006E-03
 -1      1219 3.64818E-03
 -1      1220 2.95082E-03
 -1      1221 2.37112E-03
 -1      1222 1.88672E-03
 -1      1223 1.47074E-03
 -1      1224 1.12190E-03
 -1      1225 8.34183E-04
 -1      1226 6.21680E-04
 -1      1227 4.82095E-04
 -1      1228 3.72193E-04
 -1      1229 2.62730E-04
 -1      1230 1.71535E-04
 -1      1231 8.76102E-05
 -1      1232 4.91136E-05
 -1      1233 5.95395E-05
 -1      1234 5.65378E-05
 -1      1235 4.07994E-05
 -1      1236 2.67947E-05
 -1      1237 3.43011E-05
 -1      1238 4.83680E-05
 -1      1239 5.52248E-05
 -1      1240 5.67890E-05
 -1      1241 5.51856E-05
 -1      1242 4.80605E-05
 -1      1243 3.39969E-05
 -1      1244 2.68979E-05
 -1      1245 4.01549E-05
 -1      1246 5.19692E-05
 -1      1247 5.01785E-05
 -1      1248 5.17627E-05
 -1      1249 2.62679E+01
 -1      1250 3.64106E+01
 -1      1251 4.65534E+01
 -1      1252 3.25600E+01
 -1      1253 1.50325E+01
 -1      1254 1.16158E+01
 -1      1255 1.17332E+01
 -1      1256 1.20572E+01
 -1      1257 1.23812E+01
 -1      1258 1.19586E+01
 -1      1259 1.24772E+01
 -1      1260 2.42026E+01
 -1      1261 3.49867E+01
 -1      1262 3.07557E+01
 -1      1263 2.59060E+01
 -1      1264 2.67182E+01
 -1      1265 2.81491E+01
 -1      1266 3.52227E+01
 -1      1267 4.22964E+01
 -1      1268 2.96530E+01
 -1      1269 1.53675E+01
 -1      1270 1.37256E+01
 -1      1271 1.35811E+01
 -1      1272 1.34074E+01
 -1      1273 1.38440E+01
 -1      1274 2.28122E+01
 -1      1275 3.13144E+01
 -1      1276 2.89610E+01
 -1      1277 2.59578E+01
 -1      1278 2.57879E+01
 -1      1279 1.09667E+01
 -1      1280 6.47111E+00
 -1      1281 9.20254E+00
 -1      1282 4.98485E+00
 -1      1283 5.25601E+00
 -1      1284 6.22325E+00
 -1      1285 4.59363E+00
 -1      1286 4.98485E+00
 -1      1287 5.00815E+00
 -1      1288 3.06140E+00
 -1      1289 3.93159E+00
 -1      1290 4.34612E+00
 -1      1291 2.09915E+00
 -1      1292 2.29041E+00
 -1      1293 2.91308E+00
 -1      1294 2.31027E+00
 -1      1295 2.28643E+00
 -1      1296 2.32937E+00
 -1      1297 2.31027E+00
 -1      1298 2.31027E+00
 -1      1299 2.51664E+00
 -1      1300 1.94583E+00
 -1      1301 2.11474E+00
 -1      1302 2.32111E+00
 -1      1303 1.82000E+00
 -1      1304 1.81806E+00
 -1      1305 1.99781E+00
 -1      1306 1.70337E+00
 -1      1307 1.76995E+00
 -1      1308 1.82000E+00
 -1      1309 1.55852E+00
 -1      1310 1.63678E+00
 -1      1311 1.70337E+00
 -1      1312 1.43408E+00
 -1      1313 1.48027E+00
 -1      1314 1.55852E+00
 -1      1315 1.59197E+00
 -1      1316 1.45257E+00
 -1      1317 1.49875E+00
 -1      1318 2.77750E+00
 -1      1319 1.90098E+00
 -1      1320 1.82624E+00
 -1      1321 6.49949E+00
 -1      1322 3.67837E+00
 -1      1323 3.03612E+00
 -1      1324 1.45705E+01
 -1      1325 1.18163E+01
 -1      1326 9.25377E+00
 -1      1327 1.45705E+01
 -1      1328 8.02838E+00
 -1      1329 3.92496E+00
 -1      1330 3.93598E+00
 -1      1331 4.56585E+00
 -1      1332 5.10106E+00
 -1      1333 4.32043E+00
 -1      1334 4.72264E+00
 -1      1335 4.86666E+00
 -1      1336 5.08047E+00
 -1      1337 5.08047E+00
 -1      1338 4.97907E+00
 -1      1339 5.12564E+00
 -1      1340 4.99610E+00
 -1      1341 5.38206E+00
 -1      1342 5.32233E+00
 -1      1343 8.39639E+00
 -1      1344 5.75345E+00
 -1      1345 1.43947E+01
 -1      1346 1.43947E+01
 -1      1347 1.41428E+01
 -1      1348 1.38909E+01
 -1      1349 1.41428E+01
 -1      1350 1.11083E+01
 -1      1351 8.32568E+00
 -1      1352 1.11083E+01
 -1      1353 6.30366E+00
 -1      1354 4.22641E+00
 -1      1355 6.30366E+00
 -1      1356 4.21644E+00
 -1      1357 4.52284E+00
 -1      1358 4.27168E+00
 -1      1359 4.78398E+00
 -1      1360 4.78398E+00
 -1      1361 4.52284E+00
 -1      1362 4.53223E+00
 -1      1363 4.28048E+00
 -1      1364 4.53223E+00
 -1      1365 3.88064E+00
 -1      1366 3.36962E+00
 -1      1367 3.88064E+00
 -1      1368 3.10816E+00
 -1      1369 2.69588E+00
 -1      1370 3.21935E+00
 -1      1371 2.35157E+00
 -1      1372 1.99941E+00
 -1      1373 2.61358E+00
 -1      1374 1.67709E+00
 -1      1375 1.46136E+00
 -1      1376 1.94694E+00
 -1      1377 1.20406E+00
 -1      1378 1.02121E+00
 -1      1379 1.36732E+00
 -1      1380 8.33706E-01
 -1      1381 6.93519E-01
 -1      1382 9.22505E-01
 -1      1383 5.65126E-01
 -1      1384 4.63617E-01
 -1      1385 6.06604E-01
 -1      1386 3.91514E-01
 -1      1387 3.20331E-01
 -1      1388 4.06108E-01
 -1      1389 2.69322E-01
 -1      1390 2.20251E-01
 -1      1391 2.82996E-01
 -1      1392 1.87138E-01
 -1      1393 1.55715E-01
 -1      1394 1.98875E-01
 -1      1395 1.27169E-01
 -1      1396 1.00976E-01
 -1      1397 1.37216E-01
 -1      1398 8.38658E-02
 -1      1399 6.92827E-02
 -1      1400 9.15603E-02
 -1      1401 5.74128E-02
 -1      1402 4.98148E-02
 -1      1403 6.25805E-02
 -1      1404 4.30731E-02
 -1      1405 3.72273E-02
 -1      1406 4.39689E-02
 -1      1407 3.27212E-02
 -1      1408 2.82152E-02
 -1      1409 3.27212E-02
 -1      1410 2.47375E-02
 -1      1411 2.12599E-02
 -1      1412 2.47375E-02
 -1      1413 1.87467E-02
 -1      1414 1.60633E-02
 -1      1415 1.87467E-02
 -1      1416 1.41733E-02
 -1      1417 1.21070E-02
 -1      1418 1.43436E-02
 -1      1419 1.06047E-02
 -1      1420 9.20798E-03
 -1      1421 1.09512E-02
 -1      1422 8.18918E-03
 -1      1423 7.41138E-03
 -1      1424 8.43018E-03
 -1      1425 6.71858E-03
 -1      1426 6.02578E-03
 -1      1427 6.71858E-03
 -1      1428 5.42454E-03
 -1      1429 4.82330E-03
 -1      1430 5.42454E-03
 -1      1431 4.33803E-03
 -1      1432 3.82748E-03
 -1      1433 4.33803E-03
 -1      1434 3.43869E-03
 -1      1435 3.02495E-03
 -1      1436 3.46397E-03
 -1      1437 2.70833E-03
 -1      1438 2.39405E-03
 -1      1439 2.75855E-03
 -1      1440 2.14557E-03
 -1      1441 1.88219E-03
 -1      1442 2.19344E-03
 -1      1443 1.67469E-03
 -1      1444 1.45788E-03
 -1      1445 1.73747E-03
 -1      1446 1.28436E-03
 -1      1447 1.10854E-03
 -1      1448 1.35644E-03
 -1      1449 9.64491E-04
 -1      1450 8.66316E-04
 -1      1451 1.03887E-03
 -1      1452 7.61497E-04
 -1      1453 6.85187E-04
 -1      1454 7.90006E-04
 -1      1455 6.18582E-04
 -1      1456 5.51977E-04
 -1      1457 6.18582E-04
 -1      1458 4.93358E-04
 -1      1459 4.34738E-04
 -1      1460 4.93358E-04
 -1      1461 3.81074E-04
 -1      1462 3.26621E-04
 -1      1463 3.81074E-04
 -1      1464 2.88337E-04
 -1      1465 2.50842E-04
 -1      1466 2.89126E-04
 -1      1467 2.09735E-04
 -1      1468 1.68629E-04
 -1      1469 2.09735E-04
 -1      1470 1.23670E-04
 -1      1471 6.69246E-05
 -1      1472 6.35497E-05
 -1      1473 1.23670E-04
 -1      1474 3.62798E+00
 -1      1475 9.09926E+00
 -1      1476 9.09926E+00
 -1      1477 2.85227E+00
 -1      1478 3.24012E+00
 -1      1479 3.24012E+00
 -1      1480 2.41210E+00
 -1      1481 2.65303E+00
 -1      1482 2.65303E+00
 -1      1483 2.37660E+00
 -1      1484 2.41210E+00
 -1      1485 2.45379E+00
 -1      1486 2.43729E+00
 -1      1487 2.36272E+00
 -1      1488 2.43991E+00
 -1      1489 2.47813E+00
 -1      1490 2.44856E+00
 -1      1491 2.43729E+00
 -1      1492 2.58108E+00
 -1      1493 2.50770E+00
 -1      1494 2.47813E+00
 -1      1495 2.68964E+00
 -1      1496 2.65447E+00
 -1      1497 2.58108E+00
 -1      1498 2.72481E+00
 -1      1499 2.72481E+00
 -1      1500 2.68964E+00
 -1      1501 2.51293E+00
 -1      1502 2.61887E+00
 -1      1503 2.61887E+00
 -1      1504 2.08718E+00
 -1      1505 2.30006E+00
 -1      1506 2.30006E+00
 -1      1507 1.59261E+00
 -1      1508 1.83989E+00
 -1      1509 1.83989E+00
 -1      1510 1.15448E+00
 -1      1511 1.37921E+00
 -1      1512 1.37921E+00
 -1      1513 7.73076E-01
 -1      1514 9.74313E-01
 -1      1515 9.85647E-01
 -1      1516 4.92651E-01
 -1      1517 6.19863E-01
 -1      1518 6.52264E-01
 -1      1519 3.07478E-01
 -1      1520 3.96864E-01
 -1      1521 4.03265E-01
 -1      1522 1.80048E-01
 -1      1523 2.43763E-01
 -1      1524 2.43763E-01
 -1      1525 1.52853E-01
 -1      1526 1.66450E-01
 -1      1527 1.66450E-01
 -1      1528 1.43518E-01
 -1      1529 1.48185E-01
 -1      1530 1.48185E-01
 -1      1531 1.35887E-01
 -1      1532 1.39702E-01
 -1      1533 1.39702E-01
 -1      1534 1.15103E-01
 -1      1535 1.25495E-01
 -1      1536 1.25495E-01
 -1      1537 8.98436E-02
 -1      1538 1.02473E-01
 -1      1539 1.02473E-01
 -1      1540 7.07233E-02
 -1      1541 8.06919E-02
 -1      1542 8.06919E-02
 -1      1543 5.47221E-02
 -1      1544 6.26398E-02
 -1      1545 6.34566E-02
 -1      1546 4.38756E-02
 -1      1547 4.89733E-02
 -1      1548 4.96243E-02
 -1      1549 3.38759E-02
 -1      1550 3.88758E-02
 -1      1551 3.88758E-02
 -1      1552 2.49817E-02
 -1      1553 2.94288E-02
 -1      1554 2.94288E-02
 -1      1555 1.76808E-02
 -1      1556 2.13842E-02
 -1      1557 2.13842E-02
 -1      1558 1.39272E-02
 -1      1559 1.58597E-02
 -1      1560 1.59657E-02
 -1      1561 1.18824E-02
 -1      1562 1.28880E-02
 -1      1563 1.31055E-02
 -1      1564 9.81025E-03
 -1      1565 1.08342E-02
 -1      1566 1.10182E-02
 -1      1567 7.87671E-03
 -1      1568 8.83287E-03
 -1      1569 8.99254E-03
 -1      1570 6.36862E-03
 -1      1571 7.05344E-03
 -1      1572 7.19189E-03
 -1      1573 5.64738E-03
 -1      1574 6.00800E-03
 -1      1575 6.00800E-03
 -1      1576 4.83519E-03
 -1      1577 5.24128E-03
 -1      1578 5.24128E-03
 -1      1579 4.02493E-03
 -1      1580 4.43006E-03
 -1      1581 4.43006E-03
 -1      1582 3.27142E-03
 -1      1583 3.64818E-03
 -1      1584 3.64818E-03
 -1      1585 2.63021E-03
 -1      1586 2.95082E-03
 -1      1587 2.95082E-03
 -1      1588 2.11203E-03
 -1      1589 2.37112E-03
 -1      1590 2.37112E-03
 -1      1591 1.66394E-03
 -1      1592 1.88925E-03
 -1      1593 1.88925E-03
 -1      1594 1.29418E-03
 -1      1595 1.48485E-03
 -1      1596 1.48738E-03
 -1      1597 9.83888E-04
 -1      1598 1.14206E-03
 -1      1599 1.15616E-03
 -1      1600 7.27525E-04
 -1      1601 8.57076E-04
 -1      1602 8.77230E-04
 -1      1603 5.40184E-04
 -1      1604 6.23136E-04
 -1      1605 6.46030E-04
 -1      1606 4.25463E-04
 -1      1607 4.82095E-04
 -1      1608 4.83552E-04
 -1      1609 3.18922E-04
 -1      1610 3.72193E-04
 -1      1611 3.72193E-04
 -1      1612 2.07064E-04
 -1      1613 2.63256E-04
 -1      1614 2.63256E-04
 -1      1615 1.36533E-04
 -1      1616 1.71535E-04
 -1      1617 1.72062E-04
 -1      1618 9.80361E-05
 -1      1619 8.36651E-05
 -1      1620 8.36651E-05
 -1      1621 8.06634E-05
 -1      1622 8.36651E-05
 -1      1623 1.07791E-04
 -1      1624 5.45094E-05
 -1      1625 6.72462E-05
 -1      1626 9.43735E-05
 -1      1627 3.46099E-05
 -1      1628 3.58778E-05
 -1      1629 6.23246E-05
 -1      1630 6.00504E-05
 -1      1631 5.12761E-05
 -1      1632 6.03592E-05
 -1      1633 7.63604E-05
 -1      1634 7.10677E-05
 -1      1635 8.80428E-05
 -1      1636 8.24471E-05
 -1      1637 8.08829E-05
 -1      1638 1.03583E-04
 -1      1639 8.24547E-05
 -1      1640 8.24547E-05
 -1      1641 1.08113E-04
 -1      1642 8.08514E-05
 -1      1643 8.24547E-05
 -1      1644 1.08120E-04
 -1      1645 7.05974E-05
 -1      1646 7.61192E-05
 -1      1647 1.03388E-04
 -1      1648 5.14844E-05
 -1      1649 6.00262E-05
 -1      1650 8.80849E-05
 -1      1651 3.64930E-05
 -1      1652 3.50502E-05
 -1      1653 6.10795E-05
 -1      1654 6.66375E-05
 -1      1655 5.48232E-05
 -1      1656 6.29756E-05
 -1      1657 7.78004E-05
 -1      1658 7.78004E-05
 -1      1659 9.24687E-05
 -1      1660 8.44805E-05
 -1      1661 8.62712E-05
 -1      1662 1.12102E-04
 -1      1663 9.96424E-05
 -1      1664 2.88549E+01
 -1      1665 2.88549E+01
 -1      1666 3.70006E+01
 -1      1667 2.68579E+01
 -1      1668 4.65534E+01
 -1      1669 4.65534E+01
 -1      1670 1.96195E+01
 -1      1671 3.36129E+01
 -1      1672 1.09731E+01
 -1      1673 1.45072E+01
 -1      1674 1.16158E+01
 -1      1675 1.14984E+01
 -1      1676 1.17332E+01
 -1      1677 1.17332E+01
 -1      1678 1.20493E+01
 -1      1679 1.17253E+01
 -1      1680 1.23812E+01
 -1      1681 1.23812E+01
 -1      1682 1.15360E+01
 -1      1683 1.19586E+01
 -1      1684 1.18139E+01
 -1      1685 1.08727E+01
 -1      1686 2.42026E+01
 -1      1687 1.34184E+01
 -1      1688 3.49867E+01
 -1      1689 3.49867E+01
 -1      1690 2.87478E+01
 -1      1691 3.29789E+01
 -1      1692 2.62599E+01
 -1      1693 2.68785E+01
 -1      1694 3.05259E+01
 -1      1695 2.90951E+01
 -1      1696 3.31675E+01
 -1      1697 3.31675E+01
 -1      1698 4.02412E+01
 -1      1699 3.31675E+01
 -1      1700 4.22964E+01
 -1      1701 4.22964E+01
 -1      1702 1.70095E+01
 -1      1703 2.96530E+01
 -1      1704 1.31611E+01
 -1      1705 1.48030E+01
 -1      1706 1.37256E+01
 -1      1707 1.37256E+01
 -1      1708 1.36028E+01
 -1      1709 1.37473E+01
 -1      1710 1.35735E+01
 -1      1711 1.36028E+01
 -1      1712 1.32882E+01
 -1      1713 1.28222E+01
 -1      1714 2.28122E+01
 -1      1715 1.43100E+01
 -1      1716 3.13144E+01
 -1      1717 3.13144E+01
 -1      1718 2.85844E+01
 -1      1719 3.09377E+01
 -1      1720 2.55276E+01
 -1      1721 2.61774E+01
 -1      1722 2.88549E+01
 -1      1723 2.83749E+01
 -1      1724 1.25539E+01
 -1      1725 1.25539E+01
 -1      1726 1.07131E+01
 -1      1727 3.36129E+01
 -1      1728 3.14419E+01
 -1      1729 9.80361E-05
 -1      1730 1.22162E-04
 -1      1731 2.94449E+01
 -1      1732 3.70006E+01
 -1      1733 1.55601E+01
 -1      1734 1.09731E+01
 -1      1735 1.16158E+01
 -1      1736 1.17253E+01
 -1      1737 1.20493E+01
 -1      1738 1.19586E+01
 -1      1739 1.08727E+01
 -1      1740 1.18139E+01
 -1      1741 2.42026E+01
 -1      1742 3.29789E+01
 -1      1743 2.91017E+01
 -1      1744 3.00676E+01
 -1      1745 3.55444E+01
 -1      1746 3.81860E+01
 -1      1747 4.02412E+01
 -1      1748 2.96530E+01
 -1      1749 1.48030E+01
 -1      1750 1.31611E+01
 -1      1751 1.37473E+01
 -1      1752 1.37690E+01
 -1      1753 1.30177E+01
 -1      1754 1.32882E+01
 -1      1755 2.28122E+01
 -1      1756 3.09377E+01
 -1      1757 2.81542E+01
 -1      1758 2.85946E+01
 -1      1759 9.20254E+00
 -1      1760 8.39639E+00
 -1      1761 5.39294E+00
 -1      1762 5.39294E+00
 -1      1763 5.33208E+00
 -1      1764 6.54718E+00
 -1      1765 5.71687E+00
 -1      1766 3.26037E+00
 -1      1767 4.03137E+00
 -1      1768 2.83734E+00
 -1      1769 2.65006E+00
 -1      1770 3.76834E+00
 -1      1771 2.83734E+00
 -1      1772 2.83734E+00
 -1      1773 3.15803E+00
 -1      1774 2.40415E+00
 -1      1775 2.59968E+00
 -1      1776 2.92037E+00
 -1      1777 2.19505E+00
 -1      1778 2.32282E+00
 -1      1779 2.60138E+00
 -1      1780 1.84592E+00
 -1      1781 1.89596E+00
 -1      1782 2.22097E+00
 -1      1783 1.47857E+00
 -1      1784 1.54516E+00
 -1      1785 1.62113E+00
 -1      1786 1.27790E+00
 -1      1787 1.35615E+00
 -1      1788 1.19795E+00
 -1      1789 1.22703E+00
 -1      1790 1.20855E+00
 -1      1791 1.00617E+00
 -1      1792 1.51959E+00
 -1      1793 1.21059E+00
 -1      1794 9.20379E-01
 -1      1795 2.47463E+00
 -1      1796 1.57376E+00
 -1      1797 9.58103E-01
 -1      1798 8.53453E+00
 -1      1799 3.21776E+00
 -1      1800 1.75539E+00
 -1      1801 3.06325E+00
 -1      1802 6.26419E+00
 -1      1803 2.62017E+00
 -1      1804 3.00802E+00
 -1      1805 2.44329E+00
 -1      1806 5.56775E+00
 -1      1807 7.88446E+00
 -1      1808 5.75285E+00
 -1      1809 5.50743E+00
 -1      1810 5.69058E+00
 -1      1811 6.04840E+00
 -1      1812 6.57676E+00
 -1      1813 7.45263E+00
 -1      1814 7.49780E+00
 -1      1815 8.16414E+00
 -1      1816 6.22376E+00
 -1      1817 6.54998E+00
 -1      1818 8.29433E+00
 -1      1819 1.84471E+01
 -1      1820 3.13876E+01
 -1      1821 5.37302E+00
 -1      1822 1.27981E+01
 -1      1823 1.00155E+01
 -1      1824 7.01758E+00
 -1      1825 4.99557E+00
 -1      1826 5.18463E+00
 -1      1827 5.17466E+00
 -1      1828 5.96022E+00
 -1      1829 6.22136E+00
 -1      1830 6.87317E+00
 -1      1831 4.91199E+00
 -1      1832 4.66024E+00
 -1      1833 6.34937E+00
 -1      1834 4.36255E+00
 -1      1835 3.96271E+00
 -1      1836 4.74231E+00
 -1      1837 3.62407E+00
 -1      1838 3.36261E+00
 -1      1839 4.10598E+00
 -1      1840 2.94128E+00
 -1      1841 2.59697E+00
 -1      1842 3.34601E+00
 -1      1843 2.20106E+00
 -1      1844 1.87873E+00
 -1      1845 2.52876E+00
 -1      1846 1.55812E+00
 -1      1847 1.30082E+00
 -1      1848 1.81224E+00
 -1      1849 1.06251E+00
 -1      1850 8.75003E-01
 -1      1851 1.25332E+00
 -1      1852 7.06592E-01
 -1      1853 5.78199E-01
 -1      1854 8.46598E-01
 -1      1855 4.62749E-01
 -1      1856 3.90646E-01
 -1      1857 5.62737E-01
 -1      1858 3.12936E-01
 -1      1859 2.61927E-01
 -1      1860 3.69577E-01
 -1      1861 2.12294E-01
 -1      1862 1.79181E-01
 -1      1863 2.42234E-01
 -1      1864 1.41453E-01
 -1      1865 1.12907E-01
 -1      1866 1.54872E-01
 -1      1867 9.19415E-02
 -1      1868 7.48316E-02
 -1      1869 9.61782E-02
 -1      1870 6.38614E-02
 -1      1871 5.19915E-02
 -1      1872 6.42426E-02
 -1      1873 4.40578E-02
 -1      1874 3.73162E-02
 -1      1875 4.53388E-02
 -1      1876 3.15909E-02
 -1      1877 2.70848E-02
 -1      1878 3.16797E-02
 -1      1879 2.37465E-02
 -1      1880 2.02689E-02
 -1      1881 2.26162E-02
 -1      1882 1.81226E-02
 -1      1883 1.56094E-02
 -1      1884 1.71316E-02
 -1      1885 1.38816E-02
 -1      1886 1.19915E-02
 -1      1887 1.32574E-02
 -1      1888 1.07070E-02
 -1      1889 9.20478E-03
 -1      1890 1.02450E-02
 -1      1891 8.34418E-03
 -1      1892 7.32538E-03
 -1      1893 8.09998E-03
 -1      1894 6.58410E-03
 -1      1895 5.89130E-03
 -1      1896 6.49810E-03
 -1      1897 5.26713E-03
 -1      1898 4.66590E-03
 -1      1899 5.13266E-03
 -1      1900 4.27920E-03
 -1      1901 3.79393E-03
 -1      1902 4.12179E-03
 -1      1903 3.50191E-03
 -1      1904 3.11312E-03
 -1      1905 3.44308E-03
 -1      1906 2.83780E-03
 -1      1907 2.52117E-03
 -1      1908 2.87575E-03
 -1      1909 2.28680E-03
 -1      1910 2.03832E-03
 -1      1911 2.36605E-03
 -1      1912 1.83803E-03
 -1      1913 1.63053E-03
 -1      1914 1.93139E-03
 -1      1915 1.45337E-03
 -1      1916 1.27985E-03
 -1      1917 1.55394E-03
 -1      1918 1.12725E-03
 -1      1919 9.83206E-04
 -1      1920 1.22418E-03
 -1      1921 8.54565E-04
 -1      1922 7.49746E-04
 -1      1923 9.42946E-04
 -1      1924 6.43371E-04
 -1      1925 5.76766E-04
 -1      1926 7.07930E-04
 -1      1927 4.90587E-04
 -1      1928 4.31967E-04
 -1      1929 5.15376E-04
 -1      1930 3.81074E-04
 -1      1931 3.27410E-04
 -1      1932 3.78304E-04
 -1      1933 2.84238E-04
 -1      1934 2.45954E-04
 -1      1935 2.84238E-04
 -1      1936 2.09162E-04
 -1      1937 1.68056E-04
 -1      1938 2.04274E-04
 -1      1939 1.44601E-04
 -1      1940 2.45379E+00
 -1      1941 2.45379E+00
 -1      1942 2.42603E+00
 -1      1943 2.43991E+00
 -1      1944 2.43991E+00
 -1      1945 2.42689E+00
 -1      1946 2.41562E+00
 -1      1947 2.41562E+00
 -1      1948 2.40575E+00
 -1      1949 2.37618E+00
 -1      1950 2.35451E+00
 -1      1951 2.43170E+00
 -1      1952 2.35832E+00
 -1      1953 2.25637E+00
 -1      1954 2.45581E+00
 -1      1955 2.42063E+00
 -1      1956 2.19787E+00
 -1      1957 2.26122E+00
 -1      1958 2.36717E+00
 -1      1959 2.09816E+00
 -1      1960 1.89322E+00
 -1      1961 2.10609E+00
 -1      1962 1.85438E+00
 -1      1963 1.48571E+00
 -1      1964 1.73300E+00
 -1      1965 1.53903E+00
 -1      1966 1.11804E+00
 -1      1967 1.33144E+00
 -1      1968 1.22454E+00
 -1      1969 7.96413E-01
 -1      1970 9.76582E-01
 -1      1971 9.28810E-01
 -1      1972 5.27857E-01
 -1      1973 6.81069E-01
 -1      1974 6.72005E-01
 -1      1975 3.32170E-01
 -1      1976 4.27956E-01
 -1      1977 4.56762E-01
 -1      1978 1.89274E-01
 -1      1979 2.52989E-01
 -1      1980 2.77681E-01
 -1      1981 1.28827E-01
 -1      1982 1.42425E-01
 -1      1983 1.51650E-01
 -1      1984 1.18466E-01
 -1      1985 1.23134E-01
 -1      1986 9.91082E-02
 -1      1987 1.15811E-01
 -1      1988 1.19626E-01
 -1      1989 9.45750E-02
 -1      1990 9.99759E-02
 -1      1991 1.10368E-01
 -1      1992 9.02921E-02
 -1      1993 8.03428E-02
 -1      1994 9.29723E-02
 -1      1995 7.78456E-02
 -1      1996 6.50352E-02
 -1      1997 7.41869E-02
 -1      1998 6.46861E-02
 -1      1999 5.23405E-02
 -1      2000 6.04240E-02
 -1      2001 5.39190E-02
 -1      2002 4.20457E-02
 -1      2003 4.77945E-02
 -1      2004 4.47618E-02
 -1      2005 3.29435E-02
 -1      2006 3.79433E-02
 -1      2007 3.61134E-02
 -1      2008 2.46785E-02
 -1      2009 2.91256E-02
 -1      2010 2.81932E-02
 -1      2011 1.77868E-02
 -1      2012 2.13842E-02
 -1      2013 2.10811E-02
 -1      2014 1.41447E-02
 -1      2015 1.59657E-02
 -1      2016 1.59657E-02
 -1      2017 1.20664E-02
 -1      2018 1.31055E-02
 -1      2019 1.31055E-02
 -1      2020 9.96993E-03
 -1      2021 1.10182E-02
 -1      2022 1.10182E-02
 -1      2023 8.01516E-03
 -1      2024 8.99254E-03
 -1      2025 8.99254E-03
 -1      2026 6.32737E-03
 -1      2027 7.15065E-03
 -1      2028 7.15065E-03
 -1      2029 5.32386E-03
 -1      2030 5.68447E-03
 -1      2031 5.64323E-03
 -1      2032 4.56188E-03
 -1      2033 4.96797E-03
 -1      2034 4.64445E-03
 -1      2035 3.79983E-03
 -1      2036 4.20496E-03
 -1      2037 3.93165E-03
 -1      2038 3.08953E-03
 -1      2039 3.46628E-03
 -1      2040 3.24118E-03
 -1      2041 2.50180E-03
 -1      2042 2.82241E-03
 -1      2043 2.64051E-03
 -1      2044 2.01348E-03
 -1      2045 2.27257E-03
 -1      2046 2.14415E-03
 -1      2047 1.60193E-03
 -1      2048 1.82472E-03
 -1      2049 1.72616E-03
 -1      2050 1.27002E-03
 -1      2051 1.44911E-03
 -1      2052 1.38457E-03
 -1      2053 9.83178E-04
 -1      2054 1.13530E-03
 -1      2055 1.09703E-03
 -1      2056 7.41033E-04
 -1      2057 8.67845E-04
 -1      2058 8.46981E-04
 -1      2059 5.40380E-04
 -1      2060 6.44769E-04
 -1      2061 6.35384E-04
 -1      2062 4.04421E-04
 -1      2063 4.62509E-04
 -1      2064 4.61249E-04
 -1      2065 3.06960E-04
 -1      2066 3.60230E-04
 -1      2067 3.39187E-04
 -1      2068 2.07591E-04
 -1      2069 2.63256E-04
 -1      2070 2.51294E-04
 -1      2071 1.51157E-04
 -1      2072 1.86686E-04
 -1      2073 1.86686E-04
 -1      2074 1.36786E-04
 -1      2075 6.52205E-05
 -1      2076 8.38522E-05
 -1      2077 1.41073E-04
 -1      2078 1.54490E-04
 -1      2079 1.43969E-04
 -1      2080 1.36786E-04
 -1      2081 9.06911E-05
 -1      2082 7.40249E-05
 -1      2083 9.55525E-05
 -1      2084 1.17449E-04
 -1      2085 1.06431E-04
 -1      2086 1.20097E-04
 -1      2087 1.29753E-04
 -1      2088 1.25230E-04
 -1      2089 1.43618E-04
 -1      2090 1.29760E-04
 -1      2091 1.29753E-04
 -1      2092 1.51400E-04
 -1      2093 1.29667E-04
 -1      2094 1.29667E-04
 -1      2095 1.51307E-04
 -1      2096 1.24935E-04
 -1      2097 1.29667E-04
 -1      2098 1.51214E-04
 -1      2099 1.07138E-04
 -1      2100 1.17709E-04
 -1      2101 1.43988E-04
 -1      2102 7.45609E-05
 -1      2103 9.09951E-05
 -1      2104 1.20619E-04
 -1      2105 8.43266E-05
 -1      2106 6.59964E-05
 -1      2107 9.59119E-05
 -1      2108 1.27815E-04
 -1      2109 1.16652E-04
 -1      2110 1.19673E-04
 -1      2111 2.31264E+00
 -1      2112 2.51188E+00
 -1      2113 2.27978E+00
 -1      2114 2.31264E+00
 -1      2115 3.70006E+01
 -1      2116 2.74478E+01
 -1      2117 1.00920E+01
 -1      2118 1.52043E+01
 -1      2119 3.52980E+01
 -1      2120 3.52980E+01
 -1      2121 1.20547E+01
 -1      2122 1.38955E+01
 -1      2123 4.95522E+00
 -1      2124 5.61726E+00
 -1      2125 6.00205E+00
 -1      2126 5.30251E+00
 -1      2127 1.40818E+01
 -1      2128 1.38299E+01
 -1      2129 1.27371E+01
 -1      2130 1.35826E+01
 -1      2131 9.62606E+00
 -1      2132 9.10071E+00
 -1      2133 8.74495E+00
 -1      2134 1.08044E+01
 -1      2135 1.06871E+01
 -1      2136 1.10414E+01
 -1      2137 1.10493E+01
 -1      2138 1.15715E+01
 -1      2139 1.12396E+01
 -1      2140 1.06638E+01
 -1      2141 1.10864E+01
 -1      2142 8.92737E+00
 -1      2143 9.59065E+00
 -1      2144 8.71851E+00
 -1      2145 1.03763E+01
 -1      2146 8.77180E+00
 -1      2147 2.39812E+01
 -1      2148 1.31970E+01
 -1      2149 1.01549E+01
 -1      2150 2.57821E+01
 -1      2151 2.77900E+01
 -1      2152 2.64124E+01
 -1      2153 2.82817E+01
 -1      2154 4.03029E+01
 -1      2155 3.74677E+01
 -1      2156 3.66477E+01
 -1      2157 4.29445E+01
 -1      2158 4.03029E+01
 -1      2159 3.81860E+01
 -1      2160 3.81860E+01
 -1      2161 3.35511E+01
 -1      2162 3.14960E+01
 -1      2163 3.14960E+01
 -1      2164 1.56571E+01
 -1      2165 2.83005E+01
 -1      2166 9.96295E+00
 -1      2167 1.21694E+01
 -1      2168 1.08170E+01
 -1      2169 1.14508E+01
 -1      2170 1.08863E+01
 -1      2171 1.35826E+01
 -1      2172 1.35609E+01
 -1      2173 1.37690E+01
 -1      2174 1.37690E+01
 -1      2175 1.19858E+01
 -1      2176 1.27371E+01
 -1      2177 1.10801E+01
 -1      2178 1.00583E+01
 -1      2179 2.18514E+01
 -1      2180 1.33492E+01
 -1      2181 2.56138E+01
 -1      2182 2.59904E+01
 -1      2183 2.41538E+01
 -1      2184 2.65607E+01
 -1      2185 3.52980E+01
 -1      2186 3.24506E+01
 -1      2187 3.08572E+01
 -1      2188 2.82209E+01
 -1      2189 3.02179E+01
 -1      2190 2.82209E+01
 -1      2191 8.70740E+00
 -1      2192 9.22607E+00
 -1      2193 2.18348E+01
 -1      2194 6.03806E+00
 -1      2195 5.38405E+00
 -1      2196 6.02482E+00
 -1      2197 1.29790E+01
 -1      2198 8.81468E+00
 -1      2199 5.89854E+00
 -1      2200 1.44028E-04
 -1      2201 1.83485E-04
 -1      2202 3.40740E+01
 -1      2203 1.36286E-04
 -1      2204 1.27815E-04
 -1      2205 1.51999E-04
 -1      2206 1.59741E-04
 -1      2207 3.91540E+01
 -1      2208 2.16134E+01
 -1      2209 1.65274E+01
 -1      2210 1.01193E+01
 -1      2211 8.25266E+00
 -1      2212 1.95553E+01
 -1      2213 4.77030E+01
 -1      2214 1.67845E+01
 -1      2215 7.48978E+00
 -1      2216 1.02767E+01
 -1      2217 1.05636E+01
 -1      2218 1.01205E+01
 -1      2219 2.56027E+01
 -1      2220 2.04138E+01
 -1      2221 2.29134E+01
 -1      2222 3.38429E+01
 -1      2223 3.86014E+01
 -1      2224 3.38429E+01
 -1      2225 3.76650E+00
 -1      2226 3.76650E+00
 -1      2227 4.19009E+00
 -1      2228 4.80040E+00
 -1      2229 4.79855E+00
 -1      2230 3.02141E+00
 -1      2231 3.10274E+00
 -1      2232 2.24572E+00
 -1      2233 2.54481E+00
 -1      2234 3.04616E+00
 -1      2235 1.47685E+00
 -1      2236 1.77761E+00
 -1      2237 2.10145E+00
 -1      2238 1.05355E+00
 -1      2239 1.17597E+00
 -1      2240 1.33246E+00
 -1      2241 8.48396E-01
 -1      2242 9.17749E-01
 -1      2243 8.95775E-01
 -1      2244 9.54923E-01
 -1      2245 9.71367E-01
 -1      2246 8.82941E-01
 -1      2247 1.00909E+00
 -1      2248 9.54923E-01
 -1      2249 1.00591E+00
 -1      2250 2.05473E+00
 -1      2251 1.31161E+00
 -1      2252 1.30843E+00
 -1      2253 1.99951E+00
 -1      2254 8.78771E+00
 -1      2255 1.20305E+01
 -1      2256 6.93684E+00
 -1      2257 7.11998E+00
 -1      2258 8.16414E+00
 -1      2259 9.56837E+00
 -1      2260 8.52421E+00
 -1      2261 6.09400E+00
 -1      2262 6.46280E+00
 -1      2263 7.00602E+00
 -1      2264 6.15485E+00
 -1      2265 2.04390E-04
 -1      2266 7.73900E+00
 -1      2267 6.42963E+00
 -1      2268 5.54898E+00
 -1      2269 5.25129E+00
 -1      2270 6.93862E+00
 -1      2271 4.29052E+00
 -1      2272 3.95188E+00
 -1      2273 5.09719E+00
 -1      2274 3.34601E+00
 -1      2275 2.92467E+00
 -1      2276 3.53055E+00
 -1      2277 2.52876E+00
 -1      2278 2.13284E+00
 -1      2279 2.52876E+00
 -1      2280 1.81224E+00
 -1      2281 1.49163E+00
 -1      2282 1.81224E+00
 -1      2283 1.25332E+00
 -1      2284 1.01501E+00
 -1      2285 1.25332E+00
 -1      2286 8.46598E-01
 -1      2287 6.78187E-01
 -1      2288 8.46598E-01
 -1      2289 5.70586E-01
 -1      2290 4.55136E-01
 -1      2291 5.70586E-01
 -1      2292 3.82238E-01
 -1      2293 3.04528E-01
 -1      2294 3.90087E-01
 -1      2295 2.54605E-01
 -1      2296 2.04971E-01
 -1      2297 2.67265E-01
 -1      2298 1.67779E-01
 -1      2299 1.30050E-01
 -1      2300 1.80150E-01
 -1      2301 1.06294E-01
 -1      2302 8.53287E-02
 -1      2303 1.19201E-01
 -1      2304 6.90507E-02
 -1      2305 5.80805E-02
 -1      2306 7.91666E-02
 -1      2307 4.69441E-02
 -1      2308 3.90104E-02
 -1      2309 5.17522E-02
 -1      2310 3.16797E-02
 -1      2311 2.59544E-02
 -1      2312 3.32851E-02
 -1      2313 2.19343E-02
 -1      2314 1.85960E-02
 -1      2315 2.19343E-02
 -1      2316 1.61371E-02
 -1      2317 1.39908E-02
 -1      2318 1.54552E-02
 -1      2319 1.29429E-02
 -1      2320 1.12150E-02
 -1      2321 1.19484E-02
 -1      2322 1.02450E-02
 -1      2323 8.96057E-03
 -1      2324 9.93052E-03
 -1      2325 8.09998E-03
 -1      2326 7.23938E-03
 -1      2327 8.09998E-03
 -1      2328 6.49810E-03
 -1      2329 5.75682E-03
 -1      2330 6.49810E-03
 -1      2331 5.17434E-03
 -1      2332 4.55018E-03
 -1      2333 5.17434E-03
 -1      2334 4.14320E-03
 -1      2335 3.75650E-03
 -1      2336 4.18488E-03
 -1      2337 3.44308E-03
 -1      2338 3.15107E-03
 -1      2339 3.46449E-03
 -1      2340 2.87575E-03
 -1      2341 2.60043E-03
 -1      2342 2.87575E-03
 -1      2343 2.37258E-03
 -1      2344 2.13820E-03
 -1      2345 2.37258E-03
 -1      2346 1.94024E-03
 -1      2347 1.73995E-03
 -1      2348 1.94676E-03
 -1      2349 1.56360E-03
 -1      2350 1.38644E-03
 -1      2351 1.57245E-03
 -1      2352 1.23369E-03
 -1      2353 1.08110E-03
 -1      2354 1.24335E-03
 -1      2355 9.53205E-04
 -1      2356 8.24564E-04
 -1      2357 9.62714E-04
 -1      2358 7.23874E-04
 -1      2359 6.17499E-04
 -1      2360 7.34134E-04
 -1      2361 5.34026E-04
 -1      2362 4.47847E-04
 -1      2363 5.49970E-04
 -1      2364 3.80325E-04
 -1      2365 3.29432E-04
 -1      2366 3.98976E-04
 -1      2367 2.81162E-04
 -1      2368 2.37989E-04
 -1      2369 2.83184E-04
 -1      2370 2.36143E-04
 -1      2371 1.99351E-04
 -1      2372 1.91610E-04
 -1      2373 2.33067E-04
 -1      2374 2.07642E+00
 -1      2375 2.12712E+00
 -1      2376 2.16546E+00
 -1      2377 2.17587E+00
 -1      2378 1.88737E+00
 -1      2379 2.17477E+00
 -1      2380 2.18865E+00
 -1      2381 1.92461E+00
 -1      2382 1.95288E+00
 -1      2383 2.00031E+00
 -1      2384 1.77292E+00
 -1      2385 1.92292E+00
 -1      2386 1.93399E+00
 -1      2387 1.67793E+00
 -1      2388 1.82291E+00
 -1      2389 1.91155E+00
 -1      2390 1.64768E+00
 -1      2391 1.60595E+00
 -1      2392 1.76109E+00
 -1      2393 1.57448E+00
 -1      2394 1.35574E+00
 -1      2395 1.51596E+00
 -1      2396 1.42266E+00
 -1      2397 1.10067E+00
 -1      2398 1.25494E+00
 -1      2399 1.23187E+00
 -1      2400 8.31464E-01
 -1      2401 9.72926E-01
 -1      2402 1.00332E+00
 -1      2403 5.86748E-01
 -1      2404 7.02091E-01
 -1      2405 7.46207E-01
 -1      2406 3.92581E-01
 -1      2407 4.92481E-01
 -1      2408 5.22566E-01
 -1      2409 2.37540E-01
 -1      2410 3.16721E-01
 -1      2411 3.52440E-01
 -1      2412 1.31425E-01
 -1      2413 1.78274E-01
 -1      2414 2.17315E-01
 -1      2415 1.05583E-01
 -1      2416 1.11276E-01
 -1      2417 1.37900E-01
 -1      2418 9.20105E-02
 -1      2419 9.08504E-02
 -1      2420 1.03018E-01
 -1      2421 7.99722E-02
 -1      2422 8.54152E-02
 -1      2423 8.16905E-02
 -1      2424 7.10465E-02
 -1      2425 7.80501E-02
 -1      2426 7.31731E-02
 -1      2427 6.13142E-02
 -1      2428 6.74702E-02
 -1      2429 6.76747E-02
 -1      2430 5.15621E-02
 -1      2431 5.61733E-02
 -1      2432 5.89574E-02
 -1      2433 4.25207E-02
 -1      2434 4.70667E-02
 -1      2435 4.93211E-02
 -1      2436 3.36621E-02
 -1      2437 3.77645E-02
 -1      2438 4.00694E-02
 -1      2439 2.53674E-02
 -1      2440 2.91852E-02
 -1      2441 3.08363E-02
 -1      2442 1.82060E-02
 -1      2443 2.15002E-02
 -1      2444 2.24923E-02
 -1      2445 1.35017E-02
 -1      2446 1.53228E-02
 -1      2447 1.57419E-02
 -1      2448 1.06272E-02
 -1      2449 1.16663E-02
 -1      2450 1.10234E-02
 -1      2451 8.53400E-03
 -1      2452 9.58223E-03
 -1      2453 8.14305E-03
 -1      2454 7.17130E-03
 -1      2455 8.14869E-03
 -1      2456 6.71276E-03
 -1      2457 5.86482E-03
 -1      2458 6.72933E-03
 -1      2459 5.88548E-03
 -1      2460 4.77389E-03
 -1      2461 5.41679E-03
 -1      2462 4.99548E-03
 -1      2463 3.99580E-03
 -1      2464 4.35168E-03
 -1      2465 4.12525E-03
 -1      2466 3.34353E-03
 -1      2467 3.70044E-03
 -1      2468 3.40768E-03
 -1      2469 2.80494E-03
 -1      2470 3.13849E-03
 -1      2471 2.90729E-03
 -1      2472 2.32483E-03
 -1      2473 2.59195E-03
 -1      2474 2.48926E-03
 -1      2475 1.89739E-03
 -1      2476 2.12663E-03
 -1      2477 2.07807E-03
 -1      2478 1.54354E-03
 -1      2479 1.73230E-03
 -1      2480 1.71477E-03
 -1      2481 1.23861E-03
 -1      2482 1.39144E-03
 -1      2483 1.39758E-03
 -1      2484 9.69169E-04
 -1      2485 1.10388E-03
 -1      2486 1.11075E-03
 -1      2487 7.50443E-04
 -1      2488 8.65777E-04
 -1      2489 8.72631E-04
 -1      2490 5.65372E-04
 -1      2491 6.61637E-04
 -1      2492 6.80432E-04
 -1      2493 4.12020E-04
 -1      2494 4.89891E-04
 -1      2495 5.16143E-04
 -1      2496 3.11151E-04
 -1      2497 3.55342E-04
 -1      2498 3.83984E-04
 -1      2499 2.18816E-04
 -1      2500 2.62520E-04
 -1      2501 2.78674E-04
 -1      2502 1.52438E-04
 -1      2503 1.36698E-04
 -1      2504 1.53342E-04
 -1      2505 1.44538E-04
 -1      2506 1.85683E-04
 -1      2507 1.36270E-04
 -1      2508 1.93491E-04
 -1      2509 1.94060E-04
 -1      2510 2.89940E+01
 -1      2511 3.40740E+01
 -1      2512 1.75616E-04
 -1      2513 1.67835E-04
 -1      2514 1.84436E-04
 -1      2515 1.75681E-04
 -1      2516 1.75681E-04
 -1      2517 1.99898E-04
 -1      2518 1.75588E-04
 -1      2519 1.75681E-04
 -1      2520 1.99962E-04
 -1      2521 1.75488E-04
 -1      2522 1.75488E-04
 -1      2523 1.99862E-04
 -1      2524 1.68083E-04
 -1      2525 1.75309E-04
 -1      2526 1.99583E-04
 -1      2527 1.39641E-04
 -1      2528 1.55784E-04
 -1      2529 1.87105E-04
 -1      2530 1.14881E-04
 -1      2531 1.23445E-04
 -1      2532 1.58610E-04
 -1      2533 1.93456E-04
 -1      2534 1.61130E-04
 -1      2535 1.88664E-04
 -1      2536 7.47514E+00
 -1      2537 6.41414E+00
 -1      2538 5.72442E+00
 -1      2539 6.71568E+00
 -1      2540 4.38488E+00
 -1      2541 1.95313E+01
 -1      2542 1.85844E+01
 -1      2543 8.98793E+00
 -1      2544 4.77030E+01
 -1      2545 4.77030E+01
 -1      2546 1.53932E+01
 -1      2547 1.15845E+01
 -1      2548 8.77327E+00
 -1      2549 9.25830E+00
 -1      2550 1.42222E+01
 -1      2551 1.98352E+01
 -1      2552 1.00309E+01
 -1      2553 3.91540E+01
 -1      2554 3.91540E+01
 -1      2555 3.42193E+00
 -1      2556 3.65959E+00
 -1      2557 3.84196E+00
 -1      2558 2.15616E-04
 -1      2559 8.81086E+00
 -1      2560 8.56601E+00
 -1      2561 9.42216E+00
 -1      2562 9.22399E+00
 -1      2563 7.66946E+00
 -1      2564 6.40843E+00
 -1      2565 7.48160E+00
 -1      2566 6.04150E+00
 -1      2567 6.19707E+00
 -1      2568 4.96016E+00
 -1      2569 9.39093E+00
 -1      2570 6.57020E+00
 -1      2571 7.99971E+00
 -1      2572 3.66477E+01
 -1      2573 2.55924E+01
 -1      2574 3.66477E+01
 -1      2575 1.32438E+01
 -1      2576 1.84944E+01
 -1      2577 1.12862E+01
 -1      2578 1.58045E+01
 -1      2579 1.16655E+01
 -1      2580 3.08572E+01
 -1      2581 2.25603E+01
 -1      2582 3.08572E+01
 -1      2583 2.22378E+01
 -1      2584 2.30109E+01
 -1      2585 7.11592E+00
 -1      2586 6.19257E+00
 -1      2587 5.22214E+00
 -1      2588 4.80040E+00
 -1      2589 5.72425E+00
 -1      2590 7.47960E+00
 -1      2591 6.53109E+00
 -1      2592 4.45907E+00
 -1      2593 1.79195E+00
 -1      2594 1.40339E+00
 -1      2595 1.68366E+00
 -1      2596 7.17480E+00
 -1      2597 5.27749E+00
 -1      2598 6.37918E+00
 -1      2599 1.08756E+01
 -1      2600 9.60157E+00
 -1      2601 2.07917E-04
 -1      2602 6.16547E+00
 -1      2603 2.52422E+01
 -1      2604 3.03223E+01
 -1      2605 3.03223E+01
 -1      2606 2.30109E+01
 -1      2607 1.37224E+01
 -1      2608 1.06625E+01
 -1      2609 1.08756E+01
 -1      2610 1.91917E+00
 -1      2611 1.77802E+00
 -1      2612 1.29020E+00
 -1      2613 1.65403E+00
 -1      2614 1.51513E+01
 -1      2615 2.14629E+01
 -1      2616 2.81529E+01
 -1      2617 1.38441E+01
 -1      2618 9.04895E+00
 -1      2619 9.23801E+00
 -1      2620 1.95313E+01
 -1      2621 1.91610E-04
 -1      2622 3.49280E+01
 -1      2623 3.49280E+01
 -1      2624 2.58264E+01
 -1      2625 6.46319E+00
 -1      2626 1.60801E+01
 -1      2627 1.08801E+01
 -1      2628 1.59007E+01
 -1      2629 2.03362E+01
 -1      2630 2.03362E+01
 -1      2631 1.76572E+01
 -1      2632 7.91872E+00
 -1      2633 1.46252E+01
 -1      2634 8.51507E+00
 -1      2635 9.30064E+00
 -1      2636 4.26806E+00
 -1      2637 2.38098E+01
 -1      2638 2.33067E-04
 -1      2639 9.38091E+00
 -1      2640 1.80726E+00
 -1      2641 2.27537E+00
 -1      2642 3.01823E+00
 -1      2643 3.49483E+00
 -1      2644 2.72404E+00
 -1      2645 8.44130E-01
 -1      2646 9.79935E-01
 -1      2647 1.17661E+00
 -1      2648 1.05364E+00
 -1      2649 1.13779E+00
 -1      2650 1.47912E+00
 -1      2651 1.17661E+00
 -1      2652 1.27157E+00
 -1      2653 1.28447E+01
 -1      2654 1.71205E+01
 -1      2655 2.28105E+01
 -1      2656 1.18006E+01
 -1      2657 8.92705E+00
 -1      2658 8.04639E+00
 -1      2659 1.03488E+01
 -1      2660 1.08229E+01
 -1      2661 2.75361E-04
 -1      2662 2.97486E-04
 -1      2663 3.46118E-04
 -1      2664 2.65799E-04
 -1      2665 2.82444E-04
 -1      2666 6.22601E+00
 -1      2667 5.26524E+00
 -1      2668 8.21444E+00
 -1      2669 4.25356E+00
 -1      2670 3.64768E+00
 -1      2671 5.38238E+00
 -1      2672 2.91424E+00
 -1      2673 2.51833E+00
 -1      2674 3.63725E+00
 -1      2675 2.01487E+00
 -1      2676 1.69427E+00
 -1      2677 2.40036E+00
 -1      2678 1.36276E+00
 -1      2679 1.12445E+00
 -1      2680 1.56539E+00
 -1      2681 9.07346E-01
 -1      2682 7.38935E-01
 -1      2683 1.01678E+00
 -1      2684 6.04315E-01
 -1      2685 4.96714E-01
 -1      2686 6.65063E-01
 -1      2687 4.07443E-01
 -1      2688 3.34544E-01
 -1      2689 4.41172E-01
 -1      2690 2.72745E-01
 -1      2691 2.22822E-01
 -1      2692 2.90101E-01
 -1      2693 1.88698E-01
 -1      2694 1.51505E-01
 -1      2695 1.94177E-01
 -1      2696 1.27392E-01
 -1      2697 1.03636E-01
 -1      2698 1.35940E-01
 -1      2699 8.63028E-02
 -1      2700 7.00248E-02
 -1      2701 9.44940E-02
 -1      2702 5.76616E-02
 -1      2703 4.65252E-02
 -1      2704 6.47978E-02
 -1      2705 3.77711E-02
 -1      2706 3.04405E-02
 -1      2707 4.36806E-02
 -1      2708 2.42962E-02
 -1      2709 2.02760E-02
 -1      2710 2.87822E-02
 -1      2711 1.60102E-02
 -1      2712 1.35513E-02
 -1      2713 1.83721E-02
 -1      2714 1.09616E-02
 -1      2715 9.91362E-03
 -1      2716 1.15165E-02
 -1      2717 8.49642E-03
 -1      2718 7.52647E-03
 -1      2719 7.50956E-03
 -1      2720 7.15403E-03
 -1      2721 6.29344E-03
 -1      2722 5.71993E-03
 -1      2723 5.91587E-03
 -1      2724 5.17459E-03
 -1      2725 4.96993E-03
 -1      2726 4.80137E-03
 -1      2727 4.21890E-03
 -1      2728 4.21914E-03
 -1      2729 3.87282E-03
 -1      2730 3.46584E-03
 -1      2731 3.49985E-03
 -1      2732 3.20941E-03
 -1      2733 2.89599E-03
 -1      2734 2.89734E-03
 -1      2735 2.69410E-03
 -1      2736 2.41878E-03
 -1      2737 2.43902E-03
 -1      2738 2.22548E-03
 -1      2739 1.99763E-03
 -1      2740 2.04383E-03
 -1      2741 1.82148E-03
 -1      2742 1.62351E-03
 -1      2743 1.67438E-03
 -1      2744 1.48602E-03
 -1      2745 1.30967E-03
 -1      2746 1.36073E-03
 -1      2747 1.19858E-03
 -1      2748 1.04583E-03
 -1      2749 1.11215E-03
 -1      2750 9.44773E-04
 -1      2751 8.16882E-04
 -1      2752 9.00000E-04
 -1      2753 7.30821E-04
 -1      2754 6.30131E-04
 -1      2755 7.12879E-04
 -1      2756 5.59395E-04
 -1      2757 4.75922E-04
 -1      2758 5.56082E-04
 -1      2759 4.15444E-04
 -1      2760 3.47922E-04
 -1      2761 4.24869E-04
 -1      2762 2.99803E-04
 -1      2763 2.51533E-04
 -1      2764 3.16272E-04
 -1      2765 2.34913E-04
 -1      2766 1.70547E+00
 -1      2767 1.74381E+00
 -1      2768 1.57500E+00
 -1      2769 1.65111E+00
 -1      2770 1.50755E+00
 -1      2771 1.74535E+00
 -1      2772 1.74424E+00
 -1      2773 1.56345E+00
 -1      2774 1.48948E+00
 -1      2775 1.50085E+00
 -1      2776 1.42518E+00
 -1      2777 1.48700E+00
 -1      2778 1.34018E+00
 -1      2779 1.30499E+00
 -1      2780 1.39498E+00
 -1      2781 1.30750E+00
 -1      2782 1.14128E+00
 -1      2783 1.24208E+00
 -1      2784 1.21440E+00
 -1      2785 9.12759E-01
 -1      2786 1.04050E+00
 -1      2787 1.05071E+00
 -1      2788 6.94563E-01
 -1      2789 8.23937E-01
 -1      2790 8.61116E-01
 -1      2791 5.14823E-01
 -1      2792 6.09089E-01
 -1      2793 6.86820E-01
 -1      2794 3.52440E-01
 -1      2795 4.28300E-01
 -1      2796 5.14823E-01
 -1      2797 2.17315E-01
 -1      2798 2.76581E-01
 -1      2799 3.52440E-01
 -1      2800 1.57023E-01
 -1      2801 1.77172E-01
 -1      2802 2.36438E-01
 -1      2803 1.11442E-01
 -1      2804 1.26174E-01
 -1      2805 1.65446E-01
 -1      2806 8.52352E-02
 -1      2807 9.18305E-02
 -1      2808 1.14986E-01
 -1      2809 7.86767E-02
 -1      2810 8.05989E-02
 -1      2811 9.07388E-02
 -1      2812 6.83729E-02
 -1      2813 7.19492E-02
 -1      2814 7.93749E-02
 -1      2815 5.77770E-02
 -1      2816 6.29179E-02
 -1      2817 6.71925E-02
 -1      2818 4.74759E-02
 -1      2819 5.19713E-02
 -1      2820 5.59318E-02
 -1      2821 3.76677E-02
 -1      2822 4.24239E-02
 -1      2823 4.50742E-02
 -1      2824 2.85479E-02
 -1      2825 3.30248E-02
 -1      2826 3.53793E-02
 -1      2827 2.06330E-02
 -1      2828 2.45001E-02
 -1      2829 2.66886E-02
 -1      2830 1.44074E-02
 -1      2831 1.72906E-02
 -1      2832 1.92985E-02
 -1      2833 9.93016E-03
 -1      2834 1.17655E-02
 -1      2835 1.33142E-02
 -1      2836 6.87645E-03
 -1      2837 7.92143E-03
 -1      2838 8.66356E-03
 -1      2839 5.33727E-03
 -1      2840 5.72258E-03
 -1      2841 5.50096E-03
 -1      2842 4.60833E-03
 -1      2843 5.05030E-03
 -1      2844 4.06012E-03
 -1      2845 4.06965E-03
 -1      2846 4.51767E-03
 -1      2847 3.68250E-03
 -1      2848 3.47698E-03
 -1      2849 3.89919E-03
 -1      2850 3.42138E-03
 -1      2851 2.97225E-03
 -1      2852 3.26761E-03
 -1      2853 3.04155E-03
 -1      2854 2.54717E-03
 -1      2855 2.75220E-03
 -1      2856 2.61213E-03
 -1      2857 2.15950E-03
 -1      2858 2.37250E-03
 -1      2859 2.21741E-03
 -1      2860 1.82244E-03
 -1      2861 2.02064E-03
 -1      2862 1.90388E-03
 -1      2863 1.51461E-03
 -1      2864 1.67971E-03
 -1      2865 1.62229E-03
 -1      2866 1.22941E-03
 -1      2867 1.38151E-03
 -1      2868 1.34645E-03
 -1      2869 9.79401E-04
 -1      2870 1.11413E-03
 -1      2871 1.09806E-03
 -1      2872 7.72005E-04
 -1      2873 8.75397E-04
 -1      2874 8.78775E-04
 -1      2875 5.92455E-04
 -1      2876 6.81262E-04
 -1      2877 6.84028E-04
 -1      2878 4.68140E-04
 -1      2879 5.43621E-04
 -1      2880 5.44452E-04
 -1      2881 3.88708E-04
 -1      2882 4.45386E-04
 -1      2883 4.72864E-04
 -1      2884 4.07520E-04
 -1      2885 2.33333E-04
 -1      2886 2.33268E-04
 -1      2887 2.83629E-04
 -1      2888 2.33268E-04
 -1      2889 2.17871E-04
 -1      2890 3.14632E-04
 -1      2891 2.66703E-04
 -1      2892 1.48577E+00
 -1      2893 1.50465E+00
 -1      2894 1.38283E+00
 -1      2895 1.32757E+00
 -1      2896 2.28974E-04
 -1      2897 2.29074E-04
 -1      2898 2.28796E-04
 -1      2899 2.28974E-04
 -1      2900 2.58187E-04
 -1      2901 2.13299E-04
 -1      2902 2.25598E-04
 -1      2903 2.54989E-04
 -1      2904 1.77058E-04
 -1      2905 1.93254E-04
 -1      2906 2.31747E-04
 -1      2907 2.23308E-04
 -1      2908 1.77058E-04
 -1      2909 2.11702E-04
 -1      2910 1.83261E+01
 -1      2911 1.52971E+01
 -1      2912 5.06801E+00
 -1      2913 5.38721E+00
 -1      2914 5.04008E+00
 -1      2915 4.08119E+00
 -1      2916 3.39147E+00
 -1      2917 2.28857E-04
 -1      2918 2.28857E-04
 -1      2919 2.57969E-04
 -1      2920 2.51533E-04
 -1      2921 1.52061E+01
 -1      2922 2.11892E+01
 -1      2923 5.42933E+00
 -1      2924 5.53624E+00
 -1      2925 6.65539E+00
 -1      2926 4.57640E+00
 -1      2927 4.04771E+00
 -1      2928 1.12462E+01
 -1      2929 1.36488E+01
 -1      2930 1.14984E+00
 -1      2931 1.45072E+00
 -1      2932 1.62464E+00
 -1      2933 1.09819E+00
 -1      2934 6.09206E+00
 -1      2935 6.51565E+00
 -1      2936 7.25333E+00
 -1      2937 6.76871E+00
 -1      2938 6.93257E+00
 -1      2939 6.90902E+00
 -1      2940 6.49590E+00
 -1      2941 5.75901E+00
 -1      2942 1.01960E+01
 -1      2943 3.76980E+00
 -1      2944 3.98117E+00
 -1      2945 3.06871E+00
 -1      2946 7.72245E+00
 -1      2947 5.52892E+00
 -1      2948 4.29914E+00
 -1      2949 3.13041E+01
 -1      2950 2.02488E+01
 -1      2951 4.63522E+00
 -1      2952 5.92689E+00
 -1      2953 5.58223E+00
 -1      2954 4.49137E+00
 -1      2955 7.59169E+00
 -1      2956 9.78337E+00
 -1      2957 2.68778E+01
 -1      2958 1.85809E+01
 -1      2959 4.15538E+00
 -1      2960 1.17661E+00
 -1      2961 1.51434E+01
 -1      2962 3.44486E+00
 -1      2963 1.65604E+00
 -1      2964 1.38656E+00
 -1      2965 1.19505E+01
 -1      2966 1.97554E+01
 -1      2967 1.60036E+01
 -1      2968 1.85290E+01
 -1      2969 1.47678E+00
 -1      2970 2.62227E-04
 -1      2971 3.63745E-04
 -1      2972 2.39927E-04
 -1      2973 1.43467E+01
 -1      2974 1.21608E+01
 -1      2975 1.80460E+01
 -1      2976 1.91370E+01
 -1      2977 6.77984E+00
 -1      2978 1.34730E+00
 -1      2979 6.28358E+00
 -1      2980 3.49795E+00
 -1      2981 1.50464E+01
 -1      2982 1.07127E+01
 -1      2983 1.24692E+01
 -1      2984 1.81505E+01
 -1      2985 1.28943E+01
 -1      2986 1.28069E+01
 -1      2987 4.82180E+00
 -1      2988 1.18271E+01
 -1      2989 9.69391E+00
 -1      2990 8.80700E+00
 -1      2991 1.05152E+01
 -1      2992 9.82833E+00
 -1      2993 7.35754E+00
 -1      2994 6.03183E+00
 -1      2995 5.04568E+00
 -1      2996 4.20386E+00
 -1      2997 1.09556E+01
 -1      2998 9.69391E+00
 -1      2999 9.69391E+00
 -1      3000 1.20634E+01
 -1      3001 1.09874E+01
 -1      3002 1.36793E+00
 -1      3003 1.15843E+00
 -1      3004 1.36593E+00
 -1      3005 1.81593E+01
 -1      3006 2.89197E-04
 -1      3007 2.93674E-04
 -1      3008 2.64620E+00
 -1      3009 3.30025E+00
 -1      3010 6.08993E+00
 -1      3011 5.07824E+00
 -1      3012 4.07831E+00
 -1      3013 3.34486E+00
 -1      3014 4.78585E+00
 -1      3015 2.65004E+00
 -1      3016 2.14658E+00
 -1      3017 3.09109E+00
 -1      3018 1.73441E+00
 -1      3019 1.40290E+00
 -1      3020 1.98409E+00
 -1      3021 1.13923E+00
 -1      3022 9.22127E-01
 -1      3023 1.30824E+00
 -1      3024 7.49005E-01
 -1      3025 6.14385E-01
 -1      3026 8.71449E-01
 -1      3027 4.98523E-01
 -1      3028 4.09251E-01
 -1      3029 5.82465E-01
 -1      3030 3.30141E-01
 -1      3031 2.68341E-01
 -1      3032 3.87492E-01
 -1      3033 2.17629E-01
 -1      3034 1.83505E-01
 -1      3035 2.57669E-01
 -1      3036 1.50454E-01
 -1      3037 1.26341E-01
 -1      3038 1.73905E-01
 -1      3039 1.03326E-01
 -1      3040 8.59933E-02
 -1      3041 1.17840E-01
 -1      3042 7.00560E-02
 -1      3043 5.76929E-02
 -1      3044 7.88884E-02
 -1      3045 4.67255E-02
 -1      3046 3.79714E-02
 -1      3047 5.19838E-02
 -1      3048 3.14808E-02
 -1      3049 2.53365E-02
 -1      3050 3.45257E-02
 -1      3051 2.06899E-02
 -1      3052 1.64241E-02
 -1      3053 2.33885E-02
 -1      3054 1.30870E-02
 -1      3055 1.04973E-02
 -1      3056 1.54049E-02
 -1      3057 8.14409E-03
 -1      3058 6.72689E-03
 -1      3059 9.71460E-03
 -1      3060 5.18135E-03
 -1      3061 4.80892E-03
 -1      3062 5.81588E-03
 -1      3063 4.43589E-03
 -1      3064 4.05832E-03
 -1      3065 3.89731E-03
 -1      3066 3.97283E-03
 -1      3067 3.59961E-03
 -1      3068 3.43879E-03
 -1      3069 3.43824E-03
 -1      3070 3.09216E-03
 -1      3071 3.19192E-03
 -1      3072 2.89734E-03
 -1      3073 2.64091E-03
 -1      3074 2.83573E-03
 -1      3075 2.43902E-03
 -1      3076 2.23714E-03
 -1      3077 2.43902E-03
 -1      3078 2.08357E-03
 -1      3079 1.89027E-03
 -1      3080 2.08357E-03
 -1      3081 1.75670E-03
 -1      3082 1.58054E-03
 -1      3083 1.79644E-03
 -1      3084 1.44589E-03
 -1      3085 1.30840E-03
 -1      3086 1.52821E-03
 -1      3087 1.18135E-03
 -1      3088 1.07026E-03
 -1      3089 1.26651E-03
 -1      3090 9.55499E-04
 -1      3091 8.54440E-04
 -1      3092 1.02470E-03
 -1      3093 7.53992E-04
 -1      3094 6.67930E-04
 -1      3095 8.09491E-04
 -1      3096 5.82104E-04
 -1      3097 5.11368E-04
 -1      3098 6.23217E-04
 -1      3099 4.40047E-04
 -1      3100 3.79569E-04
 -1      3101 4.66069E-04
 -1      3102 3.25565E-04
 -1      3103 2.77445E-04
 -1      3104 2.49220E-04
 -1      3105 3.40743E-04
 -1      3106 2.86340E-04
 -1      3107 2.89538E-04
 -1      3108 1.49570E+00
 -1      3109 1.55006E+00
 -1      3110 1.45938E+00
 -1      3111 1.46092E+00
 -1      3112 1.44753E+00
 -1      3113 1.29336E+00
 -1      3114 1.32355E+00
 -1      3115 1.43159E+00
 -1      3116 1.43407E+00
 -1      3117 1.41745E+00
 -1      3118 1.03006E+00
 -1      3119 1.13084E+00
 -1      3120 8.61116E-01
 -1      3121 9.49938E-01
 -1      3122 1.03006E+00
 -1      3123 6.85664E-01
 -1      3124 7.71138E-01
 -1      3125 8.59960E-01
 -1      3126 4.97797E-01
 -1      3127 5.84320E-01
 -1      3128 6.68638E-01
 -1      3129 3.42349E-01
 -1      3130 4.18209E-01
 -1      3131 4.87705E-01
 -1      3132 2.41893E-01
 -1      3133 2.82035E-01
 -1      3134 3.47804E-01
 -1      3135 1.65446E-01
 -1      3136 1.96296E-01
 -1      3137 2.41893E-01
 -1      3138 1.17428E-01
 -1      3139 1.37039E-01
 -1      3140 1.67889E-01
 -1      3141 9.95851E-02
 -1      3142 1.04221E-01
 -1      3143 1.26275E-01
 -1      3144 8.10723E-02
 -1      3145 8.77998E-02
 -1      3146 1.01282E-01
 -1      3147 6.71925E-02
 -1      3148 7.26474E-02
 -1      3149 8.10723E-02
 -1      3150 5.42327E-02
 -1      3151 6.00384E-02
 -1      3152 6.54933E-02
 -1      3153 4.25454E-02
 -1      3154 4.75973E-02
 -1      3155 5.17039E-02
 -1      3156 3.21700E-02
 -1      3157 3.68130E-02
 -1      3158 3.93361E-02
 -1      3159 2.36765E-02
 -1      3160 2.77243E-02
 -1      3161 2.91579E-02
 -1      3162 1.68193E-02
 -1      3163 2.01616E-02
 -1      3164 2.11973E-02
 -1      3165 1.14443E-02
 -1      3166 1.40862E-02
 -1      3167 1.49494E-02
 -1      3168 7.36464E-03
 -1      3169 9.37337E-03
 -1      3170 1.01454E-02
 -1      3171 4.68182E-03
 -1      3172 5.83570E-03
 -1      3173 6.54551E-03
 -1      3174 3.29761E-03
 -1      3175 3.58457E-03
 -1      3176 3.91931E-03
 -1      3177 2.84309E-03
 -1      3178 2.93375E-03
 -1      3179 2.45820E-03
 -1      3180 2.78863E-03
 -1      3181 2.95909E-03
 -1      3182 2.21034E-03
 -1      3183 2.57667E-03
 -1      3184 2.78605E-03
 -1      3185 2.32375E-03
 -1      3186 2.28023E-03
 -1      3187 2.50029E-03
 -1      3188 2.24478E-03
 -1      3189 1.98835E-03
 -1      3190 2.16303E-03
 -1      3191 2.05118E-03
 -1      3192 1.71460E-03
 -1      3193 1.85346E-03
 -1      3194 1.79908E-03
 -1      3195 1.47972E-03
 -1      3196 1.62246E-03
 -1      3197 1.57204E-03
 -1      3198 1.24223E-03
 -1      3199 1.37533E-03
 -1      3200 1.37550E-03
 -1      3201 1.02079E-03
 -1      3202 1.13607E-03
 -1      3203 1.16495E-03
 -1      3204 8.16099E-04
 -1      3205 9.20102E-04
 -1      3206 9.58110E-04
 -1      3207 6.34174E-04
 -1      3208 7.24916E-04
 -1      3209 7.66244E-04
 -1      3210 5.06612E-04
 -1      3211 5.55446E-04
 -1      3212 5.96334E-04
 -1      3213 2.82750E-04
 -1      3214 2.82533E-04
 -1      3215 3.13979E-04
 -1      3216 9.09290E+00
 -1      3217 7.27252E+00
 -1      3218 3.46689E+00
 -1      3219 5.04008E+00
 -1      3220 2.60342E-04
 -1      3221 2.80386E-04
 -1      3222 3.14935E-04
 -1      3223 2.89538E-04
 -1      3224 2.89538E-04
 -1      3225 3.14102E-04
 -1      3226 3.20889E-04
 -1      3227 2.49220E-04
 -1      3228 2.49220E-04
 -1      3229 2.97860E-04
 -1      3230 2.86738E-04
 -1      3231 1.41657E+01
 -1      3232 4.61122E+00
 -1      3233 3.65870E+00
 -1      3234 4.06336E-04
 -1      3235 4.07520E-04
 -1      3236 4.50111E-04
 -1      3237 8.03834E+00
 -1      3238 8.08047E+00
 -1      3239 1.23182E+01
 -1      3240 3.17372E+00
 -1      3241 2.76355E+00
 -1      3242 4.71330E+00
 -1      3243 3.79963E+00
 -1      3244 4.89590E+00
 -1      3245 4.87235E+00
 -1      3246 9.25682E+00
 -1      3247 1.08141E+01
 -1      3248 1.36793E+00
 -1      3249 2.98115E+00
 -1      3250 2.70325E+00
 -1      3251 3.29323E+00
 -1      3252 1.47678E+00
 -1      3253 1.38857E+00
 -1      3254 1.17891E+00
 -1      3255 1.24182E+00
 -1      3256 1.25786E+00
 -1      3257 1.15826E+00
 -1      3258 9.25888E+00
 -1      3259 1.24371E+01
 -1      3260 1.36793E+00
 -1      3261 5.24663E+00
 -1      3262 6.30722E+00
 -1      3263 3.01824E+00
 -1      3264 4.08584E+00
 -1      3265 4.10949E+00
 -1      3266 2.29843E+00
 -1      3267 3.04129E+00
 -1      3268 3.04129E+00
 -1      3269 8.27798E+00
 -1      3270 8.83379E+00
 -1      3271 1.56238E+01
 -1      3272 1.21793E+01
 -1      3273 6.79340E+00
 -1      3274 8.25623E+00
 -1      3275 7.24321E+00
 -1      3276 2.55863E+00
 -1      3277 6.96838E+00
 -1      3278 1.03471E+01
 -1      3279 8.91325E+00
 -1      3280 7.77679E+00
 -1      3281 2.96382E+00
 -1      3282 3.76249E+00
 -1      3283 3.86743E+00
 -1      3284 1.39764E+00
 -1      3285 1.46799E+00
 -1      3286 1.51051E+00
 -1      3287 1.81593E+01
 -1      3288 1.01369E+01
 -1      3289 1.56238E+01
 -1      3290 9.75713E+00
 -1      3291 1.38760E+00
 -1      3292 1.37251E+00
 -1      3293 1.45767E+00
 -1      3294 1.47901E+00
 -1      3295 1.27781E+00
 -1      3296 1.04767E+00
 -1      3297 1.21758E+00
 -1      3298 1.37271E+00
 -1      3299 4.93424E-04
 -1      3300 5.16177E-04
 -1      3301 5.27172E-04
 -1      3302 4.93424E-04
 -1      3303 6.46516E+00
 -1      3304 3.50543E-04
 -1      3305 3.50543E-04
 -1      3306 3.77514E-04
 -1      3307 4.66071E+00
 -1      3308 3.77404E+00
 -1      3309 3.92383E+00
 -1      3310 3.85019E+00
 -1      3311 3.58407E-04
 -1      3312 1.13763E+01
 -1      3313 3.06523E+00
 -1      3314 1.42521E+00
 -1      3315 1.78175E+00
 -1      3316 2.09900E+00
 -1      3317 1.37469E+00
 -1      3318 5.75645E+00
 -1      3319 2.69401E+00
 -1      3320 1.38857E+00
 -1      3321 3.17792E+00
 -1      3322 2.48309E+00
 -1      3323 1.99964E+00
 -1      3324 1.58747E+00
 -1      3325 2.08647E+00
 -1      3326 1.29455E+00
 -1      3327 1.03088E+00
 -1      3328 1.31010E+00
 -1      3329 8.81816E-01
 -1      3330 7.08695E-01
 -1      3331 8.68123E-01
 -1      3332 6.03955E-01
 -1      3333 4.88092E-01
 -1      3334 6.14322E-01
 -1      3335 4.11915E-01
 -1      3336 3.32804E-01
 -1      3337 4.33405E-01
 -1      3338 2.77973E-01
 -1      3339 2.27261E-01
 -1      3340 3.02396E-01
 -1      3341 1.89633E-01
 -1      3342 1.56582E-01
 -1      3343 2.09938E-01
 -1      3344 1.29797E-01
 -1      3345 1.06783E-01
 -1      3346 1.45525E-01
 -1      3347 8.78152E-02
 -1      3348 7.18779E-02
 -1      3349 9.97721E-02
 -1      3350 5.86753E-02
 -1      3351 4.77080E-02
 -1      3352 6.76021E-02
 -1      3353 3.88917E-02
 -1      3354 3.24010E-02
 -1      3355 4.55832E-02
 -1      3356 2.61889E-02
 -1      3357 2.15424E-02
 -1      3358 3.05549E-02
 -1      3359 1.72227E-02
 -1      3360 1.38856E-02
 -1      3361 2.00231E-02
 -1      3362 1.08798E-02
 -1      3363 8.52657E-03
 -1      3364 1.26976E-02
 -1      3365 6.46942E-03
 -1      3366 4.92389E-03
 -1      3367 7.63458E-03
 -1      3368 3.73819E-03
 -1      3369 3.36516E-03
 -1      3370 4.39173E-03
 -1      3371 2.80604E-03
 -1      3372 2.72055E-03
 -1      3373 2.64692E-03
 -1      3374 2.84334E-03
 -1      3375 2.68196E-03
 -1      3376 2.21059E-03
 -1      3377 2.67724E-03
 -1      3378 2.48242E-03
 -1      3379 2.32866E-03
 -1      3380 2.40337E-03
 -1      3381 2.20148E-03
 -1      3382 2.24488E-03
 -1      3383 2.08357E-03
 -1      3384 1.93001E-03
 -1      3385 2.04792E-03
 -1      3386 1.79644E-03
 -1      3387 1.66286E-03
 -1      3388 1.79644E-03
 -1      3389 1.55514E-03
 -1      3390 1.42049E-03
 -1      3391 1.55514E-03
 -1      3392 1.31842E-03
 -1      3393 1.19138E-03
 -1      3394 1.34535E-03
 -1      3395 1.08859E-03
 -1      3396 9.73825E-04
 -1      3397 1.14050E-03
 -1      3398 8.76725E-04
 -1      3399 7.76278E-04
 -1      3400 9.40612E-04
 -1      3401 6.88452E-04
 -1      3402 6.02625E-04
 -1      3403 7.55687E-04
 -1      3404 5.24818E-04
 -1      3405 4.53497E-04
 -1      3406 5.90053E-04
 -1      3407 4.03077E-04
 -1      3408 3.49073E-04
 -1      3409 3.49073E-04
 -1      3410 4.61827E-04
 -1      3411 1.45354E+01
 -1      3412 1.02835E+01
 -1      3413 5.08958E+00
 -1      3414 5.57576E+00
 -1      3415 8.56331E-01
 -1      3416 9.46309E-01
 -1      3417 1.03006E+00
 -1      3418 1.11019E+00
 -1      3419 1.02644E+00
 -1      3420 4.85836E-01
 -1      3421 5.65424E-01
 -1      3422 3.47804E-01
 -1      3423 4.08117E-01
 -1      3424 4.85836E-01
 -1      3425 2.41893E-01
 -1      3426 2.87490E-01
 -1      3427 3.47804E-01
 -1      3428 1.72615E-01
 -1      3429 2.01022E-01
 -1      3430 2.46619E-01
 -1      3431 1.33502E-01
 -1      3432 1.46709E-01
 -1      3433 1.79842E-01
 -1      3434 1.02878E-01
 -1      3435 1.14663E-01
 -1      3436 1.35097E-01
 -1      3437 8.19377E-02
 -1      3438 9.03625E-02
 -1      3439 1.03743E-01
 -1      3440 6.37523E-02
 -1      3441 7.09064E-02
 -1      3442 8.01967E-02
 -1      3443 4.84914E-02
 -1      3444 5.51268E-02
 -1      3445 6.05398E-02
 -1      3446 3.68460E-02
 -1      3447 4.25784E-02
 -1      3448 4.60013E-02
 -1      3449 2.78557E-02
 -1      3450 3.23014E-02
 -1      3451 3.55438E-02
 -1      3452 2.03796E-02
 -1      3453 2.38944E-02
 -1      3454 2.70379E-02
 -1      3455 1.42986E-02
 -1      3456 1.70316E-02
 -1      3457 1.97288E-02
 -1      3458 9.63662E-03
 -1      3459 1.17076E-02
 -1      3460 1.37898E-02
 -1      3461 6.19065E-03
 -1      3462 7.71960E-03
 -1      3463 9.28176E-03
 -1      3464 3.65315E-03
 -1      3465 4.75040E-03
 -1      3466 5.92449E-03
 -1      3467 2.24740E-03
 -1      3468 2.61126E-03
 -1      3469 3.44235E-03
 -1      3470 1.88868E-03
 -1      3471 1.77268E-03
 -1      3472 1.92574E-03
 -1      3473 1.92021E-03
 -1      3474 1.92280E-03
 -1      3475 1.48514E-03
 -1      3476 1.92682E-03
 -1      3477 2.00321E-03
 -1      3478 1.60226E-03
 -1      3479 1.80590E-03
 -1      3480 1.92311E-03
 -1      3481 1.68155E-03
 -1      3482 1.61409E-03
 -1      3483 1.74898E-03
 -1      3484 1.62091E-03
 -1      3485 1.43594E-03
 -1      3486 1.52808E-03
 -1      3487 1.47799E-03
 -1      3488 1.25312E-03
 -1      3489 1.35751E-03
 -1      3490 1.31356E-03
 -1      3491 1.06855E-03
 -1      3492 1.17471E-03
 -1      3493 1.15672E-03
 -1      3494 8.84056E-04
 -1      3495 9.84739E-04
 -1      3496 9.94496E-04
 -1      3497 7.10761E-04
 -1      3498 8.01943E-04
 -1      3499 8.28573E-04
 -1      3500 5.55737E-04
 -1      3501 6.34465E-04
 -1      3502 6.70164E-04
 -1      3503 3.54709E-04
 -1      3504 3.61374E-04
 -1      3505 9.66093E+00
 -1      3506 3.15427E+00
 -1      3507 2.52836E+00
 -1      3508 4.28095E-04
 -1      3509 4.34049E-04
 -1      3510 6.71710E+00
 -1      3511 3.71884E+00
 -1      3512 6.60947E-01
 -1      3513 7.62291E-01
 -1      3514 8.48640E-01
 -1      3515 6.59078E-01
 -1      3516 1.96340E+00
 -1      3517 2.07144E+00
 -1      3518 1.84534E+00
 -1      3519 1.75465E+00
 -1      3520 4.42247E-04
 -1      3521 5.12655E+00
 -1      3522 4.12662E+00
 -1      3523 3.51862E+00
 -1      3524 3.39336E+00
 -1      3525 3.23431E+00
 -1      3526 8.95405E+00
 -1      3527 3.29323E+00
 -1      3528 3.00601E+00
 -1      3529 4.16679E+00
 -1      3530 2.30061E+00
 -1      3531 2.55530E+00
 -1      3532 2.61568E+00
 -1      3533 5.63090E+00
 -1      3534 6.63149E+00
 -1      3535 7.23268E+00
 -1      3536 6.42960E+00
 -1      3537 7.23268E+00
 -1      3538 2.53207E+00
 -1      3539 2.53207E+00
 -1      3540 2.47502E+00
 -1      3541 2.01539E+00
 -1      3542 5.24701E+00
 -1      3543 6.40710E+00
 -1      3544 5.94009E+00
 -1      3545 4.79479E+00
 -1      3546 2.37979E+00
 -1      3547 2.84203E+00
 -1      3548 2.35323E+00
 -1      3549 3.60194E-04
 -1      3550 7.78371E+00
 -1      3551 7.40392E+00
 -1      3552 6.18024E+00
 -1      3553 1.80677E+00
 -1      3554 1.76030E+00
 -1      3555 2.35273E+00
 -1      3556 4.79308E-04
 -1      3557 4.93424E-04
 -1      3558 5.36737E-04
 -1      3559 4.85560E-04
 -1      3560 3.98610E+00
 -1      3561 1.54343E+00
 -1      3562 1.54343E+00
 -1      3563 1.59150E+00
 -1      3564 5.65303E-04
 -1      3565 3.88123E-04
 -1      3566 4.35518E-04
 -1      3567 3.94910E-04
 -1      3568 2.69744E+00
 -1      3569 5.47209E-04
 -1      3570 4.34049E-04
 -1      3571 4.34049E-04
 -1      3572 3.61374E-04
 -1      3573 4.18243E-04
 -1      3574 4.69420E-04
 -1      3575 4.02104E-04
 -1      3576 3.48245E+00
 -1      3577 2.95794E+00
 -1      3578 3.19314E+00
 -1      3579 2.57726E+00
 -1      3580 4.96403E+00
 -1      3581 1.53822E+00
 -1      3582 1.84534E+00
 -1      3583 1.51051E+00
 -1      3584 1.57991E+00
 -1      3585 1.59577E+00
 -1      3586 1.97771E+00
 -1      3587 4.58777E+00
 -1      3588 1.38857E+00
 -1      3589 1.42800E+00
 -1      3590 1.47954E+00
 -1      3591 2.13354E+00
 -1      3592 1.81318E+00
 -1      3593 1.35997E+00
 -1      3594 1.35997E+00
 -1      3595 1.24921E+00
 -1      3596 1.56716E+00
 -1      3597 2.38965E+00
 -1      3598 2.61261E+00
 -1      3599 1.35931E+00
 -1      3600 1.06639E+00
 -1      3601 8.97986E-01
 -1      3602 7.48925E-01
 -1      3603 9.47193E-01
 -1      3604 6.25152E-01
 -1      3605 5.20412E-01
 -1      3606 6.55014E-01
 -1      3607 4.39874E-01
 -1      3608 3.63696E-01
 -1      3609 4.50704E-01
 -1      3610 2.95320E-01
 -1      3611 2.40489E-01
 -1      3612 3.01789E-01
 -1      3613 2.05762E-01
 -1      3614 1.68135E-01
 -1      3615 1.98686E-01
 -1      3616 1.46783E-01
 -1      3617 1.19997E-01
 -1      3618 1.42607E-01
 -1      3619 1.03326E-01
 -1      3620 8.43590E-02
 -1      3621 1.04584E-01
 -1      3622 7.17668E-02
 -1      3623 5.85642E-02
 -1      3624 7.53211E-02
 -1      3625 4.91382E-02
 -1      3626 4.03219E-02
 -1      3627 5.33029E-02
 -1      3628 3.33892E-02
 -1      3629 2.71771E-02
 -1      3630 3.69441E-02
 -1      3631 2.24637E-02
 -1      3632 1.81440E-02
 -1      3633 2.52980E-02
 -1      3634 1.46996E-02
 -1      3635 1.16937E-02
 -1      3636 1.71401E-02
 -1      3637 9.22236E-03
 -1      3638 7.16521E-03
 -1      3639 1.12244E-02
 -1      3640 5.45869E-03
 -1      3641 4.27300E-03
 -1      3642 7.04648E-03
 -1      3643 3.09163E-03
 -1      3644 2.53251E-03
 -1      3645 4.15859E-03
 -1      3646 1.73732E-03
 -1      3647 1.86011E-03
 -1      3648 2.18203E-03
 -1      3649 1.89893E-03
 -1      3650 1.89421E-03
 -1      3651 1.42566E-03
 -1      3652 1.97703E-03
 -1      3653 1.89797E-03
 -1      3654 1.54731E-03
 -1      3655 1.89379E-03
 -1      3656 1.77589E-03
 -1      3657 1.62595E-03
 -1      3658 1.72024E-03
 -1      3659 1.58667E-03
 -1      3660 1.56612E-03
 -1      3661 1.50377E-03
 -1      3662 1.39605E-03
 -1      3663 1.42757E-03
 -1      3664 1.30195E-03
 -1      3665 1.19988E-03
 -1      3666 1.25058E-03
 -1      3667 1.12665E-03
 -1      3668 1.02387E-03
 -1      3669 1.08325E-03
 -1      3670 9.46463E-04
 -1      3671 8.49364E-04
 -1      3672 9.32621E-04
 -1      3673 7.73513E-04
 -1      3674 6.85688E-04
 -1      3675 7.79365E-04
 -1      3676 6.39040E-04
 -1      3677 5.61233E-04
 -1      3678 6.56867E-04
 -1      3679 5.29727E-04
 -1      3680 1.28305E+00
 -1      3681 1.36681E+00
 -1      3682 3.48066E-01
 -1      3683 4.08379E-01
 -1      3684 4.85836E-01
 -1      3685 5.63555E-01
 -1      3686 4.86098E-01
 -1      3687 1.88142E-01
 -1      3688 2.14048E-01
 -1      3689 1.38871E-01
 -1      3690 1.57709E-01
 -1      3691 1.91916E-01
 -1      3692 1.04190E-01
 -1      3693 1.16706E-01
 -1      3694 1.39318E-01
 -1      3695 7.73383E-02
 -1      3696 8.83695E-02
 -1      3697 1.01332E-01
 -1      3698 5.90122E-02
 -1      3699 6.76377E-02
 -1      3700 7.58106E-02
 -1      3701 4.60013E-02
 -1      3702 5.19143E-02
 -1      3703 5.90122E-02
 -1      3704 3.55438E-02
 -1      3705 4.00884E-02
 -1      3706 4.60013E-02
 -1      3707 2.64881E-02
 -1      3708 3.04493E-02
 -1      3709 3.49939E-02
 -1      3710 1.89657E-02
 -1      3711 2.23136E-02
 -1      3712 2.57250E-02
 -1      3713 1.30787E-02
 -1      3714 1.56697E-02
 -1      3715 1.82546E-02
 -1      3716 8.68212E-03
 -1      3717 1.05991E-02
 -1      3718 1.24790E-02
 -1      3719 5.51500E-03
 -1      3720 6.95526E-03
 -1      3721 8.27264E-03
 -1      3722 3.20470E-03
 -1      3723 4.24659E-03
 -1      3724 5.27736E-03
 -1      3725 1.94632E-03
 -1      3726 2.42104E-03
 -1      3727 3.22528E-03
 -1      3728 1.48514E-03
 -1      3729 1.45102E-03
 -1      3730 1.94632E-03
 -1      3731 1.36485E-03
 -1      3732 1.28185E-03
 -1      3733 1.24773E-03
 -1      3734 1.47104E-03
 -1      3735 1.47475E-03
 -1      3736 1.15434E-03
 -1      3737 1.44020E-03
 -1      3738 1.49713E-03
 -1      3739 1.29033E-03
 -1      3740 1.32723E-03
 -1      3741 1.41323E-03
 -1      3742 1.28945E-03
 -1      3743 1.19105E-03
 -1      3744 1.26948E-03
 -1      3745 1.20473E-03
 -1      3746 1.04413E-03
 -1      3747 1.12254E-03
 -1      3748 1.07847E-03
 -1      3749 8.98418E-04
 -1      3750 9.82228E-04
 -1      3751 9.48052E-04
 -1      3752 7.49275E-04
 -1      3753 8.31389E-04
 -1      3754 8.19120E-04
 -1      3755 6.08911E-04
 -1      3756 6.85206E-04
 -1      3757 6.88022E-04
 -1      3758 2.89567E+00
 -1      3759 2.95206E+00
 -1      3760 3.51862E+00
 -1      3761 2.56992E+00
 -1      3762 2.49125E-01
 -1      3763 2.89996E-01
 -1      3764 3.50572E-01
 -1      3765 2.69744E+00
 -1      3766 2.61740E+00
 -1      3767 1.69105E+00
 -1      3768 1.71617E+00
 -1      3769 1.74388E+00
 -1      3770 2.01880E+00
 -1      3771 2.20523E+00
 -1      3772 2.03048E+00
 -1      3773 1.48501E+00
 -1      3774 1.69264E+00
 -1      3775 2.12571E+00
 -1      3776 1.56716E+00
 -1      3777 3.14448E+00
 -1      3778 4.06727E+00
 -1      3779 7.24433E+00
 -1      3780 4.71988E+00
 -1      3781 4.89112E+00
 -1      3782 2.50118E+00
 -1      3783 2.27344E+00
 -1      3784 4.30483E+00
 -1      3785 4.35998E+00
 -1      3786 2.15565E+00
 -1      3787 1.67220E+00
 -1      3788 1.42849E+00
 -1      3789 2.15565E+00
 -1      3790 5.65303E-04
 -1      3791 2.04382E+00
 -1      3792 2.49452E+00
 -1      3793 2.57569E+00
 -1      3794 5.78714E-04
 -1      3795 2.50118E+00
 -1      3796 2.43277E+00
 -1      3797 4.16660E+00
 -1      3798 3.94221E+00
 -1      3799 3.50739E+00
 -1      3800 2.03048E+00
 -1      3801 6.02066E+00
 -1      3802 4.89112E+00
 -1      3803 4.65096E+00
 -1      3804 2.15535E+00
 -1      3805 9.77488E-01
 -1      3806 1.31786E+00
 -1      3807 8.83449E-01
 -1      3808 2.57425E-01
 -1      3809 1.54343E+00
 -1      3810 1.97668E+00
 -1      3811 1.80005E+00
 -1      3812 6.59078E-01
 -1      3813 6.59078E-01
 -1      3814 7.54601E-01
 -1      3815 2.37115E+00
 -1      3816 2.31164E+00
 -1      3817 5.95443E-04
 -1      3818 6.24008E-04
 -1      3819 6.39051E-04
 -1      3820 5.28126E-04
 -1      3821 5.08070E-04
 -1      3822 5.65235E-04
 -1      3823 5.65235E-04
 -1      3824 5.96740E-04
 -1      3825 5.28126E-04
 -1      3826 5.28126E-04
 -1      3827 6.54148E-04
 -1      3828 3.46321E+00
 -1      3829 2.25887E+00
 -1      3830 4.59943E+00
 -1      3831 2.23255E+00
 -1      3832 4.53949E-04
 -1      3833 4.20535E-04
 -1      3834 5.46558E-04
 -1      3835 4.59943E+00
 -1      3836 3.65073E+00
 -1      3837 1.95174E+00
 -1      3838 2.01732E+00
 -1      3839 3.93407E+00
 -1      3840 4.01464E+00
 -1      3841 3.30588E+00
 -1      3842 5.02893E-01
 -1      3843 5.80350E-01
 -1      3844 6.68836E-01
 -1      3845 5.45063E-01
 -1      3846 4.58924E-01
 -1      3847 3.78386E-01
 -1      3848 4.72746E-01
 -1      3849 3.18097E-01
 -1      3850 2.49721E-01
 -1      3851 3.26317E-01
 -1      3852 2.11456E-01
 -1      3853 1.76729E-01
 -1      3854 2.27764E-01
 -1      3855 1.47842E-01
 -1      3856 1.26490E-01
 -1      3857 1.60612E-01
 -1      3858 1.06467E-01
 -1      3859 8.97962E-02
 -1      3860 1.11702E-01
 -1      3861 7.55374E-02
 -1      3862 6.29452E-02
 -1      3863 7.74203E-02
 -1      3864 5.32049E-02
 -1      3865 4.37789E-02
 -1      3866 5.34212E-02
 -1      3867 3.78756E-02
 -1      3868 3.09428E-02
 -1      3869 3.77776E-02
 -1      3870 2.63054E-02
 -1      3871 2.15920E-02
 -1      3872 2.72369E-02
 -1      3873 1.81164E-02
 -1      3874 1.46720E-02
 -1      3875 1.91239E-02
 -1      3876 1.22225E-02
 -1      3877 9.75115E-03
 -1      3878 1.31988E-02
 -1      3879 7.92255E-03
 -1      3880 6.21603E-03
 -1      3881 8.92071E-03
 -1      3882 4.88756E-03
 -1      3883 3.70619E-03
 -1      3884 5.76363E-03
 -1      3885 2.79342E-03
 -1      3886 1.99823E-03
 -1      3887 3.52238E-03
 -1      3888 1.39839E-03
 -1      3889 1.43721E-03
 -1      3890 2.00978E-03
 -1      3891 1.18703E-03
 -1      3892 1.26986E-03
 -1      3893 1.15977E-03
 -1      3894 1.38423E-03
 -1      3895 1.38005E-03
 -1      3896 1.02396E-03
 -1      3897 1.41102E-03
 -1      3898 1.35537E-03
 -1      3899 1.16930E-03
 -1      3900 1.33449E-03
 -1      3901 1.25159E-03
 -1      3902 1.17939E-03
 -1      3903 1.20091E-03
 -1      3904 1.10681E-03
 -1      3905 1.10783E-03
 -1      3906 1.04140E-03
 -1      3907 9.68180E-04
 -1      3908 9.91742E-04
 -1      3909 8.98307E-04
 -1      3910 8.20900E-04
 -1      3911 8.56459E-04
 -1      3912 7.63374E-04
 -1      3913 6.87524E-04
 -1      3914 7.29060E-04
 -1      3915 6.56867E-04
 -1      3916 6.10220E-04
 -1      3917 5.96740E-04
 -1      3918 6.40877E-04
 -1      3919 1.85654E+00
 -1      3920 2.50650E+00
 -1      3921 1.33278E-01
 -1      3922 1.55443E-01
 -1      3923 1.90439E-01
 -1      3924 2.20872E-01
 -1      3925 1.84400E-01
 -1      3926 7.58106E-02
 -1      3927 8.55111E-02
 -1      3928 5.90122E-02
 -1      3929 6.61101E-02
 -1      3930 7.58106E-02
 -1      3931 4.46419E-02
 -1      3932 5.05549E-02
 -1      3933 5.76528E-02
 -1      3934 3.28744E-02
 -1      3935 3.79689E-02
 -1      3936 4.25224E-02
 -1      3937 2.35491E-02
 -1      3938 2.77235E-02
 -1      3939 3.06984E-02
 -1      3940 1.63495E-02
 -1      3941 1.96455E-02
 -1      3942 2.16440E-02
 -1      3943 1.09650E-02
 -1      3944 1.34446E-02
 -1      3945 1.48355E-02
 -1      3946 7.27982E-03
 -1      3947 9.00668E-03
 -1      3948 9.97222E-03
 -1      3949 4.83277E-03
 -1      3950 6.10119E-03
 -1      3951 6.83523E-03
 -1      3952 3.13187E-03
 -1      3953 3.91553E-03
 -1      3954 4.73936E-03
 -1      3955 1.94632E-03
 -1      3956 2.44162E-03
 -1      3957 3.13187E-03
 -1      3958 1.24022E-03
 -1      3959 1.44352E-03
 -1      3960 1.93882E-03
 -1      3961 1.07477E-03
 -1      3962 9.64862E-04
 -1      3963 1.16065E-03
 -1      3964 1.14797E-03
 -1      3965 1.12188E-03
 -1      3966 9.32406E-04
 -1      3967 1.14981E-03
 -1      3968 1.17678E-03
 -1      3969 1.00833E-03
 -1      3970 1.07600E-03
 -1      3971 1.13374E-03
 -1      3972 1.02108E-03
 -1      3973 9.65058E-04
 -1      3974 1.03357E-03
 -1      3975 9.62586E-04
 -1      3976 8.47262E-04
 -1      3977 9.09166E-04
 -1      3978 8.64268E-04
 -1      3979 7.22846E-04
 -1      3980 7.89875E-04
 -1      3981 7.50988E-04
 -1      3982 6.39051E-04
 -1      3983 7.03120E-04
 -1      3984 6.73874E-04
 -1      3985 2.74842E+00
 -1      3986 2.98598E+00
 -1      3987 3.72714E-01
 -1      3988 4.30784E-01
 -1      3989 5.25035E-01
 -1      3990 3.57787E+00
 -1      3991 2.49706E+00
 -1      3992 2.86098E+00
 -1      3993 5.08070E-04
 -1      3994 4.68932E-04
 -1      3995 4.53949E-04
 -1      3996 5.26096E-04
 -1      3997 1.80296E+00
 -1      3998 2.16329E+00
 -1      3999 2.18082E+00
 -1      4000 2.15741E+00
 -1      4001 9.71628E-02
 -1      4002 1.12983E-01
 -1      4003 9.71628E-02
 -1      4004 1.00720E+00
 -1      4005 8.38797E-01
 -1      4006 7.28846E-01
 -1      4007 2.72912E-01
 -1      4008 3.07989E-01
 -1      4009 2.71435E-01
 -1      4010 2.18082E+00
 -1      4011 1.95120E+00
 -1      4012 2.08279E+00
 -1      4013 7.13443E-01
 -1      4014 6.96648E-01
 -1      4015 7.92171E-01
 -1      4016 8.83449E-01
 -1      4017 2.02926E+00
 -1      4018 1.29109E-01
 -1      4019 1.70539E+00
 -1      4020 1.88201E+00
 -1      4021 2.05154E+00
 -1      4022 2.76634E+00
 -1      4023 6.54148E-04
 -1      4024 2.57296E+00
 -1      4025 3.88200E-01
 -1      4026 4.73153E+00
 -1      4027 4.66303E-04
 -1      4028 5.73894E-04
 -1      4029 1.59437E+00
 -1      4030 1.28148E+00
 -1      4031 1.17309E+00
 -1      4032 6.54148E-04
 -1      4033 5.73894E-04
 -1      4034 1.62343E+00
 -1      4035 1.70539E+00
 -1      4036 1.94730E+00
 -1      4037 1.31786E+00
 -1      4038 4.19198E-01
 -1      4039 3.58909E-01
 -1      4040 2.68292E-01
 -1      4041 2.30027E-01
 -1      4042 3.61172E-01
 -1      4043 1.69172E-01
 -1      4044 1.40285E-01
 -1      4045 2.09700E-01
 -1      4046 1.17638E-01
 -1      4047 9.76151E-02
 -1      4048 1.26198E-01
 -1      4049 8.18678E-02
 -1      4050 6.76090E-02
 -1      4051 8.78037E-02
 -1      4052 5.76618E-02
 -1      4053 4.79216E-02
 -1      4054 6.21094E-02
 -1      4055 4.04982E-02
 -1      4056 3.45949E-02
 -1      4057 4.47389E-02
 -1      4058 2.91982E-02
 -1      4059 2.45608E-02
 -1      4060 3.19188E-02
 -1      4061 2.16156E-02
 -1      4062 1.81400E-02
 -1      4063 2.35769E-02
 -1      4064 1.56974E-02
 -1      4065 1.32479E-02
 -1      4066 1.81891E-02
 -1      4067 1.11256E-02
 -1      4068 9.29695E-03
 -1      4069 1.36241E-02
 -1      4070 7.56987E-03
 -1      4071 6.24140E-03
 -1      4072 9.77472E-03
 -1      4073 4.90116E-03
 -1      4074 3.98839E-03
 -1      4075 6.70740E-03
 -1      4076 2.98842E-03
 -1      4077 2.38859E-03
 -1      4078 4.36720E-03
 -1      4079 1.66923E-03
 -1      4080 1.41905E-03
 -1      4081 2.64787E-03
 -1      4082 9.20770E-04
 -1      4083 1.03514E-03
 -1      4084 1.43023E-03
 -1      4085 9.67177E-04
 -1      4086 9.98147E-04
 -1      4087 8.63986E-04
 -1      4088 1.03735E-03
 -1      4089 1.01646E-03
 -1      4090 8.35219E-04
 -1      4091 1.01118E-03
 -1      4092 9.60506E-04
 -1      4093 8.69139E-04
 -1      4094 9.28786E-04
 -1      4095 8.63376E-04
 -1      4096 8.32140E-04
 -1      4097 8.27106E-04
 -1      4098 7.57233E-04
 -1      4099 7.64150E-04
 -1      4100 7.19098E-04
 -1      4101 6.61572E-04
 -1      4102 6.89745E-04
 -1      4103 7.93711E-01
 -1      4104 6.23750E-01
 -1      4105 1.13203E+00
 -1      4106 1.26087E+00
 -1      4107 1.16960E+00
 -1      4108 5.93049E-02
 -1      4109 6.77622E-02
 -1      4110 8.48305E-02
 -1      4111 9.45311E-02
 -1      4112 8.64827E-02
 -1      4113 2.79063E-02
 -1      4114 3.30572E-02
 -1      4115 2.00723E-02
 -1      4116 2.39759E-02
 -1      4117 2.63346E-02
 -1      4118 1.40199E-02
 -1      4119 1.69249E-02
 -1      4120 1.92568E-02
 -1      4121 9.75783E-03
 -1      4122 1.17162E-02
 -1      4123 1.38056E-02
 -1      4124 6.85212E-03
 -1      4125 8.03075E-03
 -1      4126 9.77472E-03
 -1      4127 4.59464E-03
 -1      4128 5.51189E-03
 -1      4129 6.70740E-03
 -1      4130 2.91290E-03
 -1      4131 3.60315E-03
 -1      4132 4.37567E-03
 -1      4133 1.73776E-03
 -1      4134 2.24056E-03
 -1      4135 2.71184E-03
 -1      4136 9.90768E-04
 -1      4137 1.26613E-03
 -1      4138 1.56787E-03
 -1      4139 8.23560E-04
 -1      4140 7.76445E-04
 -1      4141 8.81922E-04
 -1      4142 9.02819E-04
 -1      4143 8.74009E-04
 -1      4144 7.18048E-04
 -1      4145 9.04437E-04
 -1      4146 9.20502E-04
 -1      4147 7.86180E-04
 -1      4148 8.47026E-04
 -1      4149 8.89452E-04
 -1      4150 7.88878E-04
 -1      4151 7.68128E-04
 -1      4152 8.24020E-04
 -1      4153 7.50887E-04
 -1      4154 6.72605E-04
 -1      4155 7.29992E-04
 -1      4156 6.89745E-04
 -1      4157 6.15495E-04
 -1      4158 6.35221E-04
 -1      4159 6.14226E-04
 -1      4160 5.35241E-04
 -1      4161 1.29109E-01
 -1      4162 1.49404E-01
 -1      4163 5.24962E-01
 -1      4164 5.97072E-01
 -1      4165 2.62860E+00
 -1      4166 2.19184E+00
 -1      4167 4.74828E-01
 -1      4168 5.39553E-01
 -1      4169 6.11590E-01
 -1      4170 4.06801E-02
 -1      4171 4.73531E-02
 -1      4172 5.74626E-02
 -1      4173 3.78879E-02
 -1      4174 1.89031E+00
 -1      4175 1.67068E+00
 -1      4176 2.45807E-01
 -1      4177 2.80803E-01
 -1      4178 2.45807E-01
 -1      4179 5.92533E-01
 -1      4180 5.06394E-01
 -1      4181 5.38985E-01
 -1      4182 6.57398E-01
 -1      4183 4.55882E-04
 -1      4184 4.83219E-04
 -1      4185 4.70865E-04
 -1      4186 1.17178E-01
 -1      4187 1.28830E-01
 -1      4188 1.26198E-01
 -1      4189 3.69618E-01
 -1      4190 4.21658E-01
 -1      4191 5.73011E-01
 -1      4192 4.31025E-01
 -1      4193 2.70650E+00
 -1      4194 2.69836E+00
 -1      4195 2.02922E+00
 -1      4196 1.96545E+00
 -1      4197 1.93579E+00
 -1      4198 7.14162E-01
 -1      4199 8.30460E-01
 -1      4200 7.14088E-01
 -1      4201 1.37942E+00
 -1      4202 1.54065E+00
 -1      4203 1.67419E+00
 -1      4204 1.03957E+00
 -1      4205 5.78756E-04
 -1      4206 5.88718E-04
 -1      4207 5.58061E-04
 -1      4208 1.04654E+00
 -1      4209 9.41443E-01
 -1      4210 1.32082E+00
 -1      4211 1.49124E-01
 -1      4212 5.24820E-04
 -1      4213 1.70342E+00
 -1      4214 5.12882E-04
 -1      4215 4.99402E-04
 -1      4216 2.09700E-01
 -1      4217 1.48845E-01
 -1      4218 1.48845E-01
 -1      4219 1.26198E-01
 -1      4220 1.03551E-01
 -1      4221 8.78037E-02
 -1      4222 7.07354E-02
 -1      4223 6.07883E-02
 -1      4224 4.88365E-02
 -1      4225 4.14132E-02
 -1      4226 3.37903E-02
 -1      4227 2.83936E-02
 -1      4228 2.44632E-02
 -1      4229 2.15179E-02
 -1      4230 1.83705E-02
 -1      4231 1.59279E-02
 -1      4232 1.36241E-02
 -1      4233 1.15018E-02
 -1      4234 9.77472E-03
 -1      4235 8.04764E-03
 -1      4236 6.70740E-03
 -1      4237 5.36716E-03
 -1      4238 4.37567E-03
 -1      4239 3.37571E-03
 -1      4240 2.70337E-03
 -1      4241 1.98401E-03
 -1      4242 1.51238E-03
 -1      4243 1.01410E-03
 -1      4244 7.99775E-04
 -1      4245 7.31809E-04
 -1      4246 7.82258E-04
 -1      4247 8.21458E-04
 -1      4248 8.39141E-04
 -1      4249 8.33861E-04
 -1      4250 8.18876E-04
 -1      4251 7.87157E-04
 -1      4252 7.64150E-04
 -1      4253 7.27881E-04
 -1      4254 6.89745E-04
 -1      4255 6.51609E-04
 -1      4256 3.97000E-01
 -1      4257 3.06382E-01
 -1      4258 1.56644E+00
 -1      4259 6.14226E-04
 -1      4260 6.57398E-01
 -1      4261 6.42806E-01
 -1      4262 1.49124E-01
 -1      4263 2.45527E-01
 -1      4264 4.85815E-01
 -1      4265 1.48845E-01
 -1      4266 4.60723E-04
 -1      4267 1.57687E+00
 -1      4268 1.04029E+00
 -1      4269 5.41372E-04
 -1      4270 9.41443E-01
 -1      4271 6.88614E-01
 -1      4272 5.73011E-01
 -1      4273 6.26181E-01
 -1      4274 1.15522E+00
 -1      4275 1.58001E+00
 -1      4276 1.51025E+00
 -1      4277 9.46109E-01
 -1      4278 4.42238E-04
 -1      4279 6.57398E-01
 -1      4280 8.65212E-01
 -1      4281 8.19404E-01
 -1      4282 9.36494E-01
 -1      4283 1.11804E+00
 -1      4284 4.44171E-04
 -1      4285 1.05142E+00
 -1      4286 1.12766E+00
 -1      4287 4.89350E-04
 -3
 9999
