    1C
    1UUSER                                                              
    1UDATE              26.october.2022                                 
    1UTIME              23:48:15                                        
    1UHOST                                                              
    1UPGM               CalculiX                                        
    1UVERSION           Version 2.17                             
    1UCOMPILETIME       Thu Jul 23 21:43:50 CEST 2020                    
    1UDIR                                                               
    1UDBN                                                               
    1UMAT    1SOLIDMATERIAL                                             
    2C                          4261                                     1
 -1         1 3.33641E+01 2.88771E+01 0.00000E+00
 -1         2 4.03645E+01 2.18771E+01 0.00000E+00
 -1         3 1.50000E+02 0.00000E+00 0.00000E+00
 -1         4 1.50000E+02 5.00000E+01 0.00000E+00
 -1         5 0.00000E+00 0.00000E+00 0.00000E+00
 -1         6 0.00000E+00 5.00000E+01 0.00000E+00
 -1         7 0.00000E+00 4.70500E+01 0.00000E+00
 -1         8 0.00000E+00 4.41000E+01 0.00000E+00
 -1         9 0.00000E+00 4.11500E+01 0.00000E+00
 -1        10 0.00000E+00 3.82000E+01 0.00000E+00
 -1        11 0.00000E+00 3.52500E+01 0.00000E+00
 -1        12 0.00000E+00 3.23500E+01 0.00000E+00
 -1        13 0.00000E+00 2.94000E+01 0.00000E+00
 -1        14 0.00000E+00 2.64500E+01 0.00000E+00
 -1        15 0.00000E+00 2.35000E+01 0.00000E+00
 -1        16 0.00000E+00 2.05500E+01 0.00000E+00
 -1        17 0.00000E+00 1.76000E+01 0.00000E+00
 -1        18 0.00000E+00 1.47000E+01 0.00000E+00
 -1        19 0.00000E+00 1.17500E+01 0.00000E+00
 -1        20 0.00000E+00 8.80000E+00 0.00000E+00
 -1        21 0.00000E+00 5.85000E+00 0.00000E+00
 -1        22 0.00000E+00 2.90000E+00 0.00000E+00
 -1        23 3.15000E+00 5.00000E+01 0.00000E+00
 -1        24 6.15000E+00 5.00000E+01 0.00000E+00
 -1        25 9.15000E+00 5.00000E+01 0.00000E+00
 -1        26 1.21500E+01 5.00000E+01 0.00000E+00
 -1        27 1.51500E+01 5.00000E+01 0.00000E+00
 -1        28 1.81500E+01 5.00000E+01 0.00000E+00
 -1        29 2.11500E+01 5.00000E+01 0.00000E+00
 -1        30 2.41500E+01 5.00000E+01 0.00000E+00
 -1        31 2.71500E+01 5.00000E+01 0.00000E+00
 -1        32 3.01500E+01 5.00000E+01 0.00000E+00
 -1        33 3.31500E+01 5.00000E+01 0.00000E+00
 -1        34 3.61500E+01 5.00000E+01 0.00000E+00
 -1        35 3.91500E+01 5.00000E+01 0.00000E+00
 -1        36 4.21500E+01 5.00000E+01 0.00000E+00
 -1        37 4.51500E+01 5.00000E+01 0.00000E+00
 -1        38 4.81500E+01 5.00000E+01 0.00000E+00
 -1        39 5.11500E+01 5.00000E+01 0.00000E+00
 -1        40 5.41500E+01 5.00000E+01 0.00000E+00
 -1        41 5.71500E+01 5.00000E+01 0.00000E+00
 -1        42 6.01500E+01 5.00000E+01 0.00000E+00
 -1        43 6.31500E+01 5.00000E+01 0.00000E+00
 -1        44 6.61500E+01 5.00000E+01 0.00000E+00
 -1        45 6.91500E+01 5.00000E+01 0.00000E+00
 -1        46 7.21500E+01 5.00000E+01 0.00000E+00
 -1        47 7.51500E+01 5.00000E+01 0.00000E+00
 -1        48 7.81500E+01 5.00000E+01 0.00000E+00
 -1        49 8.11500E+01 5.00000E+01 0.00000E+00
 -1        50 8.41500E+01 5.00000E+01 0.00000E+00
 -1        51 8.71500E+01 5.00000E+01 0.00000E+00
 -1        52 9.01500E+01 5.00000E+01 0.00000E+00
 -1        53 9.31500E+01 5.00000E+01 0.00000E+00
 -1        54 9.61500E+01 5.00000E+01 0.00000E+00
 -1        55 9.91500E+01 5.00000E+01 0.00000E+00
 -1        56 1.02150E+02 5.00000E+01 0.00000E+00
 -1        57 1.05150E+02 5.00000E+01 0.00000E+00
 -1        58 1.08150E+02 5.00000E+01 0.00000E+00
 -1        59 1.11150E+02 5.00000E+01 0.00000E+00
 -1        60 1.14150E+02 5.00000E+01 0.00000E+00
 -1        61 1.17150E+02 5.00000E+01 0.00000E+00
 -1        62 1.20150E+02 5.00000E+01 0.00000E+00
 -1        63 1.23150E+02 5.00000E+01 0.00000E+00
 -1        64 1.26150E+02 5.00000E+01 0.00000E+00
 -1        65 1.29150E+02 5.00000E+01 0.00000E+00
 -1        66 1.32150E+02 5.00000E+01 0.00000E+00
 -1        67 1.35150E+02 5.00000E+01 0.00000E+00
 -1        68 1.38150E+02 5.00000E+01 0.00000E+00
 -1        69 1.41150E+02 5.00000E+01 0.00000E+00
 -1        70 1.44150E+02 5.00000E+01 0.00000E+00
 -1        71 1.47150E+02 5.00000E+01 0.00000E+00
 -1        72 3.15000E+00 0.00000E+00 0.00000E+00
 -1        73 6.15000E+00 0.00000E+00 0.00000E+00
 -1        74 9.15000E+00 0.00000E+00 0.00000E+00
 -1        75 1.21500E+01 0.00000E+00 0.00000E+00
 -1        76 1.51500E+01 0.00000E+00 0.00000E+00
 -1        77 1.81500E+01 0.00000E+00 0.00000E+00
 -1        78 2.11500E+01 0.00000E+00 0.00000E+00
 -1        79 2.41500E+01 0.00000E+00 0.00000E+00
 -1        80 2.71500E+01 0.00000E+00 0.00000E+00
 -1        81 3.01500E+01 0.00000E+00 0.00000E+00
 -1        82 3.31500E+01 0.00000E+00 0.00000E+00
 -1        83 3.61500E+01 0.00000E+00 0.00000E+00
 -1        84 3.91500E+01 0.00000E+00 0.00000E+00
 -1        85 4.21500E+01 0.00000E+00 0.00000E+00
 -1        86 4.51500E+01 0.00000E+00 0.00000E+00
 -1        87 4.81500E+01 0.00000E+00 0.00000E+00
 -1        88 5.11500E+01 0.00000E+00 0.00000E+00
 -1        89 5.41500E+01 0.00000E+00 0.00000E+00
 -1        90 5.71500E+01 0.00000E+00 0.00000E+00
 -1        91 6.01500E+01 0.00000E+00 0.00000E+00
 -1        92 6.31500E+01 0.00000E+00 0.00000E+00
 -1        93 6.61500E+01 0.00000E+00 0.00000E+00
 -1        94 6.91500E+01 0.00000E+00 0.00000E+00
 -1        95 7.21500E+01 0.00000E+00 0.00000E+00
 -1        96 7.51500E+01 0.00000E+00 0.00000E+00
 -1        97 7.81500E+01 0.00000E+00 0.00000E+00
 -1        98 8.11500E+01 0.00000E+00 0.00000E+00
 -1        99 8.41500E+01 0.00000E+00 0.00000E+00
 -1       100 8.71500E+01 0.00000E+00 0.00000E+00
 -1       101 9.01500E+01 0.00000E+00 0.00000E+00
 -1       102 9.31500E+01 0.00000E+00 0.00000E+00
 -1       103 9.61500E+01 0.00000E+00 0.00000E+00
 -1       104 9.91500E+01 0.00000E+00 0.00000E+00
 -1       105 1.02150E+02 0.00000E+00 0.00000E+00
 -1       106 1.05150E+02 0.00000E+00 0.00000E+00
 -1       107 1.08150E+02 0.00000E+00 0.00000E+00
 -1       108 1.11150E+02 0.00000E+00 0.00000E+00
 -1       109 1.14150E+02 0.00000E+00 0.00000E+00
 -1       110 1.17150E+02 0.00000E+00 0.00000E+00
 -1       111 1.20150E+02 0.00000E+00 0.00000E+00
 -1       112 1.23150E+02 0.00000E+00 0.00000E+00
 -1       113 1.26150E+02 0.00000E+00 0.00000E+00
 -1       114 1.29150E+02 0.00000E+00 0.00000E+00
 -1       115 1.32150E+02 0.00000E+00 0.00000E+00
 -1       116 1.35150E+02 0.00000E+00 0.00000E+00
 -1       117 1.38150E+02 0.00000E+00 0.00000E+00
 -1       118 1.41150E+02 0.00000E+00 0.00000E+00
 -1       119 1.44150E+02 0.00000E+00 0.00000E+00
 -1       120 1.47150E+02 0.00000E+00 0.00000E+00
 -1       121 1.50000E+02 2.95000E+00 0.00000E+00
 -1       122 1.50000E+02 5.90000E+00 0.00000E+00
 -1       123 1.50000E+02 8.85000E+00 0.00000E+00
 -1       124 1.50000E+02 1.18000E+01 0.00000E+00
 -1       125 1.50000E+02 1.47500E+01 0.00000E+00
 -1       126 1.50000E+02 1.76500E+01 0.00000E+00
 -1       127 1.50000E+02 2.06000E+01 0.00000E+00
 -1       128 1.50000E+02 2.35500E+01 0.00000E+00
 -1       129 1.50000E+02 2.65000E+01 0.00000E+00
 -1       130 1.50000E+02 2.94500E+01 0.00000E+00
 -1       131 1.50000E+02 3.24000E+01 0.00000E+00
 -1       132 1.50000E+02 3.53000E+01 0.00000E+00
 -1       133 1.50000E+02 3.82500E+01 0.00000E+00
 -1       134 1.50000E+02 4.12000E+01 0.00000E+00
 -1       135 1.50000E+02 4.41500E+01 0.00000E+00
 -1       136 1.50000E+02 4.71000E+01 0.00000E+00
 -1       137 4.02199E+01 2.04618E+01 0.00000E+00
 -1       138 3.97685E+01 1.90506E+01 0.00000E+00
 -1       139 3.90829E+01 1.78398E+01 0.00000E+00
 -1       140 3.81359E+01 1.67552E+01 0.00000E+00
 -1       141 3.69573E+01 1.58695E+01 0.00000E+00
 -1       142 3.55847E+01 1.52385E+01 0.00000E+00
 -1       143 3.40589E+01 1.49116E+01 0.00000E+00
 -1       144 3.24657E+01 1.49350E+01 0.00000E+00
 -1       145 3.10298E+01 1.52779E+01 0.00000E+00
 -1       146 2.97053E+01 1.59097E+01 0.00000E+00
 -1       147 2.85166E+01 1.68276E+01 0.00000E+00
 -1       148 2.75548E+01 1.79723E+01 0.00000E+00
 -1       149 2.68665E+01 1.92740E+01 0.00000E+00
 -1       150 2.64753E+01 2.06367E+01 0.00000E+00
 -1       151 2.63675E+01 2.20822E+01 0.00000E+00
 -1       152 2.65746E+01 2.35792E+01 0.00000E+00
 -1       153 2.70764E+01 2.49527E+01 0.00000E+00
 -1       154 2.79153E+01 2.62711E+01 0.00000E+00
 -1       155 2.89536E+01 2.73125E+01 0.00000E+00
 -1       156 3.03557E+01 2.81975E+01 0.00000E+00
 -1       157 3.18654E+01 2.87147E+01 0.00000E+00
 -1       158 3.48873E+01 2.87095E+01 0.00000E+00
 -1       159 3.64036E+01 2.81830E+01 0.00000E+00
 -1       160 3.77013E+01 2.73719E+01 0.00000E+00
 -1       161 3.88573E+01 2.62164E+01 0.00000E+00
 -1       162 3.96598E+01 2.49381E+01 0.00000E+00
 -1       163 4.01785E+01 2.34799E+01 0.00000E+00
 -1       164 2.59800E+00 4.55750E+01 0.00000E+00
 -1       165 2.59800E+00 4.26250E+01 0.00000E+00
 -1       166 2.59800E+00 3.96750E+01 0.00000E+00
 -1       167 2.59800E+00 3.67250E+01 0.00000E+00
 -1       168 2.59800E+00 3.38250E+01 0.00000E+00
 -1       169 2.59800E+00 3.08750E+01 0.00000E+00
 -1       170 2.59800E+00 2.79250E+01 0.00000E+00
 -1       171 2.59800E+00 2.49750E+01 0.00000E+00
 -1       172 2.59800E+00 2.20250E+01 0.00000E+00
 -1       173 2.59800E+00 1.90750E+01 0.00000E+00
 -1       174 2.59800E+00 1.61750E+01 0.00000E+00
 -1       175 2.59800E+00 1.32250E+01 0.00000E+00
 -1       176 2.59800E+00 1.02750E+01 0.00000E+00
 -1       177 2.59800E+00 7.32500E+00 0.00000E+00
 -1       178 2.59800E+00 4.37500E+00 0.00000E+00
 -1       179 2.87400E+00 2.18750E+00 0.00000E+00
 -1       180 4.65000E+00 4.74020E+01 0.00000E+00
 -1       181 7.65000E+00 4.74020E+01 0.00000E+00
 -1       182 1.06500E+01 4.74020E+01 0.00000E+00
 -1       183 1.36500E+01 4.74020E+01 0.00000E+00
 -1       184 1.66500E+01 4.74020E+01 0.00000E+00
 -1       185 1.96500E+01 4.74020E+01 0.00000E+00
 -1       186 2.26500E+01 4.74020E+01 0.00000E+00
 -1       187 2.56500E+01 4.74020E+01 0.00000E+00
 -1       188 2.86500E+01 4.74020E+01 0.00000E+00
 -1       189 3.16500E+01 4.74020E+01 0.00000E+00
 -1       190 3.46500E+01 4.74020E+01 0.00000E+00
 -1       191 3.76500E+01 4.74020E+01 0.00000E+00
 -1       192 4.06500E+01 4.74020E+01 0.00000E+00
 -1       193 4.36500E+01 4.74020E+01 0.00000E+00
 -1       194 4.66500E+01 4.74020E+01 0.00000E+00
 -1       195 4.96500E+01 4.74020E+01 0.00000E+00
 -1       196 5.26500E+01 4.74020E+01 0.00000E+00
 -1       197 5.56500E+01 4.74020E+01 0.00000E+00
 -1       198 5.86500E+01 4.74020E+01 0.00000E+00
 -1       199 6.16500E+01 4.74020E+01 0.00000E+00
 -1       200 6.46500E+01 4.74020E+01 0.00000E+00
 -1       201 6.76500E+01 4.74020E+01 0.00000E+00
 -1       202 7.06500E+01 4.74020E+01 0.00000E+00
 -1       203 7.36500E+01 4.74020E+01 0.00000E+00
 -1       204 7.66500E+01 4.74020E+01 0.00000E+00
 -1       205 7.96500E+01 4.74020E+01 0.00000E+00
 -1       206 8.26500E+01 4.74020E+01 0.00000E+00
 -1       207 8.56500E+01 4.74020E+01 0.00000E+00
 -1       208 8.86500E+01 4.74020E+01 0.00000E+00
 -1       209 9.16500E+01 4.74020E+01 0.00000E+00
 -1       210 9.46500E+01 4.74020E+01 0.00000E+00
 -1       211 9.76500E+01 4.74020E+01 0.00000E+00
 -1       212 1.00650E+02 4.74020E+01 0.00000E+00
 -1       213 1.03650E+02 4.74020E+01 0.00000E+00
 -1       214 1.06650E+02 4.74020E+01 0.00000E+00
 -1       215 1.09650E+02 4.74020E+01 0.00000E+00
 -1       216 1.12650E+02 4.74020E+01 0.00000E+00
 -1       217 1.15650E+02 4.74020E+01 0.00000E+00
 -1       218 1.18650E+02 4.74020E+01 0.00000E+00
 -1       219 1.21650E+02 4.74020E+01 0.00000E+00
 -1       220 1.24650E+02 4.74020E+01 0.00000E+00
 -1       221 1.27650E+02 4.74020E+01 0.00000E+00
 -1       222 1.30650E+02 4.74020E+01 0.00000E+00
 -1       223 1.33650E+02 4.74020E+01 0.00000E+00
 -1       224 1.36650E+02 4.74020E+01 0.00000E+00
 -1       225 1.39650E+02 4.74020E+01 0.00000E+00
 -1       226 1.42650E+02 4.74020E+01 0.00000E+00
 -1       227 1.45650E+02 4.74020E+01 0.00000E+00
 -1       228 5.87400E+00 2.18750E+00 0.00000E+00
 -1       229 8.87400E+00 2.18750E+00 0.00000E+00
 -1       230 1.18740E+01 2.18750E+00 0.00000E+00
 -1       231 1.48740E+01 2.18750E+00 0.00000E+00
 -1       232 1.78740E+01 2.18750E+00 0.00000E+00
 -1       233 2.08740E+01 2.18750E+00 0.00000E+00
 -1       234 2.38740E+01 2.18750E+00 0.00000E+00
 -1       235 2.68740E+01 2.18750E+00 0.00000E+00
 -1       236 2.98740E+01 2.18750E+00 0.00000E+00
 -1       237 3.28740E+01 2.18750E+00 0.00000E+00
 -1       238 3.58740E+01 2.18750E+00 0.00000E+00
 -1       239 3.88740E+01 2.18750E+00 0.00000E+00
 -1       240 4.18740E+01 2.18750E+00 0.00000E+00
 -1       241 4.48740E+01 2.18750E+00 0.00000E+00
 -1       242 4.78740E+01 2.18750E+00 0.00000E+00
 -1       243 5.08740E+01 2.18750E+00 0.00000E+00
 -1       244 5.38740E+01 2.18750E+00 0.00000E+00
 -1       245 5.68740E+01 2.18750E+00 0.00000E+00
 -1       246 5.98740E+01 2.18750E+00 0.00000E+00
 -1       247 6.28740E+01 2.18750E+00 0.00000E+00
 -1       248 6.58740E+01 2.18750E+00 0.00000E+00
 -1       249 6.88740E+01 2.18750E+00 0.00000E+00
 -1       250 7.18740E+01 2.18750E+00 0.00000E+00
 -1       251 7.48740E+01 2.18750E+00 0.00000E+00
 -1       252 7.78740E+01 2.18750E+00 0.00000E+00
 -1       253 8.08740E+01 2.18750E+00 0.00000E+00
 -1       254 8.38740E+01 2.18750E+00 0.00000E+00
 -1       255 8.68740E+01 2.18750E+00 0.00000E+00
 -1       256 8.98740E+01 2.18750E+00 0.00000E+00
 -1       257 9.28740E+01 2.18750E+00 0.00000E+00
 -1       258 9.58740E+01 2.18750E+00 0.00000E+00
 -1       259 9.88740E+01 2.18750E+00 0.00000E+00
 -1       260 1.01874E+02 2.18750E+00 0.00000E+00
 -1       261 1.04874E+02 2.18750E+00 0.00000E+00
 -1       262 1.07874E+02 2.18750E+00 0.00000E+00
 -1       263 1.10874E+02 2.18750E+00 0.00000E+00
 -1       264 1.13874E+02 2.18750E+00 0.00000E+00
 -1       265 1.16874E+02 2.18750E+00 0.00000E+00
 -1       266 1.19874E+02 2.18750E+00 0.00000E+00
 -1       267 1.22874E+02 2.18750E+00 0.00000E+00
 -1       268 1.25874E+02 2.18750E+00 0.00000E+00
 -1       269 1.28874E+02 2.18750E+00 0.00000E+00
 -1       270 1.31874E+02 2.18750E+00 0.00000E+00
 -1       271 1.34874E+02 2.18750E+00 0.00000E+00
 -1       272 1.37874E+02 2.18750E+00 0.00000E+00
 -1       273 1.40874E+02 2.18750E+00 0.00000E+00
 -1       274 1.43874E+02 2.18750E+00 0.00000E+00
 -1       275 1.46874E+02 2.18750E+00 0.00000E+00
 -1       276 1.47402E+02 4.42500E+00 0.00000E+00
 -1       277 1.47402E+02 7.37500E+00 0.00000E+00
 -1       278 1.47402E+02 1.03250E+01 0.00000E+00
 -1       279 1.47402E+02 1.32750E+01 0.00000E+00
 -1       280 1.47402E+02 1.61750E+01 0.00000E+00
 -1       281 1.47402E+02 1.91250E+01 0.00000E+00
 -1       282 1.47402E+02 2.20750E+01 0.00000E+00
 -1       283 1.47402E+02 2.50250E+01 0.00000E+00
 -1       284 1.47402E+02 2.79750E+01 0.00000E+00
 -1       285 1.47402E+02 3.09250E+01 0.00000E+00
 -1       286 1.47402E+02 3.38250E+01 0.00000E+00
 -1       287 1.47402E+02 3.67750E+01 0.00000E+00
 -1       288 1.47402E+02 3.97250E+01 0.00000E+00
 -1       289 1.47402E+02 4.26750E+01 0.00000E+00
 -1       290 1.46526E+02 4.50385E+01 0.00000E+00
 -1       291 4.14983E+01 2.10462E+01 0.00000E+00
 -1       292 4.12287E+01 1.93613E+01 0.00000E+00
 -1       293 4.04807E+01 1.78478E+01 0.00000E+00
 -1       294 3.95227E+01 1.65001E+01 0.00000E+00
 -1       295 3.83253E+01 1.52762E+01 0.00000E+00
 -1       296 3.67774E+01 1.44524E+01 0.00000E+00
 -1       297 3.50758E+01 1.38896E+01 0.00000E+00
 -1       298 3.32396E+01 1.33760E+01 0.00000E+00
 -1       299 3.14467E+01 1.38457E+01 0.00000E+00
 -1       300 2.98096E+01 1.44239E+01 0.00000E+00
 -1       301 2.83188E+01 1.53427E+01 0.00000E+00
 -1       302 2.70433E+01 1.65662E+01 0.00000E+00
 -1       303 2.61389E+01 1.80564E+01 0.00000E+00
 -1       304 2.55056E+01 1.96207E+01 0.00000E+00
 -1       305 2.52123E+01 2.12693E+01 0.00000E+00
 -1       306 2.51871E+01 2.30084E+01 0.00000E+00
 -1       307 2.56867E+01 2.46820E+01 0.00000E+00
 -1       308 2.63316E+01 2.63528E+01 0.00000E+00
 -1       309 2.75758E+01 2.76478E+01 0.00000E+00
 -1       310 2.89181E+01 2.89220E+01 0.00000E+00
 -1       311 3.06090E+01 2.99201E+01 0.00000E+00
 -1       312 3.24661E+01 3.01679E+01 0.00000E+00
 -1       313 3.42583E+01 2.99984E+01 0.00000E+00
 -1       314 3.60706E+01 2.96707E+01 0.00000E+00
 -1       315 3.76950E+01 2.88055E+01 0.00000E+00
 -1       316 3.92548E+01 2.77701E+01 0.00000E+00
 -1       317 4.02853E+01 2.62219E+01 0.00000E+00
 -1       318 4.10614E+01 2.46154E+01 0.00000E+00
 -1       319 4.16423E+01 2.28375E+01 0.00000E+00
 -1       320 5.19600E+00 4.11500E+01 0.00000E+00
 -1       321 5.19600E+00 4.41000E+01 0.00000E+00
 -1       322 5.19600E+00 3.52750E+01 0.00000E+00
 -1       323 5.19600E+00 3.23250E+01 0.00000E+00
 -1       324 5.19600E+00 2.93750E+01 0.00000E+00
 -1       325 5.19600E+00 2.64250E+01 0.00000E+00
 -1       326 5.19600E+00 2.34750E+01 0.00000E+00
 -1       327 5.19600E+00 2.05250E+01 0.00000E+00
 -1       328 5.19600E+00 1.76250E+01 0.00000E+00
 -1       329 5.19600E+00 1.46750E+01 0.00000E+00
 -1       330 5.19600E+00 1.17250E+01 0.00000E+00
 -1       331 5.19600E+00 8.77500E+00 0.00000E+00
 -1       332 5.19600E+00 5.82500E+00 0.00000E+00
 -1       333 5.53500E+00 4.00625E+00 0.00000E+00
 -1       334 8.53500E+00 4.00625E+00 0.00000E+00
 -1       335 9.15000E+00 4.48040E+01 0.00000E+00
 -1       336 1.21500E+01 4.48040E+01 0.00000E+00
 -1       337 1.51500E+01 4.48040E+01 0.00000E+00
 -1       338 1.81500E+01 4.48040E+01 0.00000E+00
 -1       339 2.11500E+01 4.48040E+01 0.00000E+00
 -1       340 2.41500E+01 4.48040E+01 0.00000E+00
 -1       341 2.71500E+01 4.48040E+01 0.00000E+00
 -1       342 3.01500E+01 4.48040E+01 0.00000E+00
 -1       343 3.31500E+01 4.48040E+01 0.00000E+00
 -1       344 3.61500E+01 4.48040E+01 0.00000E+00
 -1       345 3.91500E+01 4.48040E+01 0.00000E+00
 -1       346 4.21500E+01 4.48040E+01 0.00000E+00
 -1       347 4.51500E+01 4.48040E+01 0.00000E+00
 -1       348 4.81500E+01 4.48040E+01 0.00000E+00
 -1       349 5.11500E+01 4.48040E+01 0.00000E+00
 -1       350 5.41500E+01 4.48040E+01 0.00000E+00
 -1       351 5.71500E+01 4.48040E+01 0.00000E+00
 -1       352 6.01500E+01 4.48040E+01 0.00000E+00
 -1       353 6.31500E+01 4.48040E+01 0.00000E+00
 -1       354 6.61500E+01 4.48040E+01 0.00000E+00
 -1       355 6.91500E+01 4.48040E+01 0.00000E+00
 -1       356 7.21500E+01 4.48040E+01 0.00000E+00
 -1       357 7.51500E+01 4.48040E+01 0.00000E+00
 -1       358 7.81500E+01 4.48040E+01 0.00000E+00
 -1       359 8.11500E+01 4.48040E+01 0.00000E+00
 -1       360 8.41500E+01 4.48040E+01 0.00000E+00
 -1       361 8.71500E+01 4.48040E+01 0.00000E+00
 -1       362 9.01500E+01 4.48040E+01 0.00000E+00
 -1       363 9.31500E+01 4.48040E+01 0.00000E+00
 -1       364 9.61500E+01 4.48040E+01 0.00000E+00
 -1       365 9.91500E+01 4.48040E+01 0.00000E+00
 -1       366 1.02150E+02 4.48040E+01 0.00000E+00
 -1       367 1.05150E+02 4.48040E+01 0.00000E+00
 -1       368 1.08150E+02 4.48040E+01 0.00000E+00
 -1       369 1.11150E+02 4.48040E+01 0.00000E+00
 -1       370 1.14150E+02 4.48040E+01 0.00000E+00
 -1       371 1.17150E+02 4.48040E+01 0.00000E+00
 -1       372 1.20150E+02 4.48040E+01 0.00000E+00
 -1       373 1.23150E+02 4.48040E+01 0.00000E+00
 -1       374 1.26150E+02 4.48040E+01 0.00000E+00
 -1       375 1.29150E+02 4.48040E+01 0.00000E+00
 -1       376 1.32150E+02 4.48040E+01 0.00000E+00
 -1       377 1.35150E+02 4.48040E+01 0.00000E+00
 -1       378 1.38150E+02 4.48040E+01 0.00000E+00
 -1       379 1.41150E+02 4.48040E+01 0.00000E+00
 -1       380 1.43838E+02 4.49212E+01 0.00000E+00
 -1       381 1.15350E+01 4.00625E+00 0.00000E+00
 -1       382 1.45350E+01 4.00625E+00 0.00000E+00
 -1       383 1.75350E+01 4.00625E+00 0.00000E+00
 -1       384 2.05350E+01 4.00625E+00 0.00000E+00
 -1       385 2.35350E+01 4.00625E+00 0.00000E+00
 -1       386 2.65350E+01 4.00625E+00 0.00000E+00
 -1       387 2.95350E+01 4.00625E+00 0.00000E+00
 -1       388 3.25350E+01 4.00625E+00 0.00000E+00
 -1       389 3.55350E+01 4.00625E+00 0.00000E+00
 -1       390 3.85350E+01 4.00625E+00 0.00000E+00
 -1       391 4.15350E+01 4.00625E+00 0.00000E+00
 -1       392 4.45350E+01 4.00625E+00 0.00000E+00
 -1       393 4.75350E+01 4.00625E+00 0.00000E+00
 -1       394 5.05350E+01 4.00625E+00 0.00000E+00
 -1       395 5.35350E+01 4.00625E+00 0.00000E+00
 -1       396 5.65350E+01 4.00625E+00 0.00000E+00
 -1       397 5.95350E+01 4.00625E+00 0.00000E+00
 -1       398 6.25350E+01 4.00625E+00 0.00000E+00
 -1       399 6.55350E+01 4.00625E+00 0.00000E+00
 -1       400 6.85350E+01 4.00625E+00 0.00000E+00
 -1       401 7.15350E+01 4.00625E+00 0.00000E+00
 -1       402 7.45350E+01 4.00625E+00 0.00000E+00
 -1       403 7.75350E+01 4.00625E+00 0.00000E+00
 -1       404 8.05350E+01 4.00625E+00 0.00000E+00
 -1       405 8.35350E+01 4.00625E+00 0.00000E+00
 -1       406 8.65350E+01 4.00625E+00 0.00000E+00
 -1       407 8.95350E+01 4.00625E+00 0.00000E+00
 -1       408 9.25350E+01 4.00625E+00 0.00000E+00
 -1       409 9.55350E+01 4.00625E+00 0.00000E+00
 -1       410 9.85350E+01 4.00625E+00 0.00000E+00
 -1       411 1.01535E+02 4.00625E+00 0.00000E+00
 -1       412 1.04535E+02 4.00625E+00 0.00000E+00
 -1       413 1.07535E+02 4.00625E+00 0.00000E+00
 -1       414 1.10535E+02 4.00625E+00 0.00000E+00
 -1       415 1.13535E+02 4.00625E+00 0.00000E+00
 -1       416 1.16535E+02 4.00625E+00 0.00000E+00
 -1       417 1.19535E+02 4.00625E+00 0.00000E+00
 -1       418 1.22535E+02 4.00625E+00 0.00000E+00
 -1       419 1.25535E+02 4.00625E+00 0.00000E+00
 -1       420 1.28535E+02 4.00625E+00 0.00000E+00
 -1       421 1.31535E+02 4.00625E+00 0.00000E+00
 -1       422 1.34535E+02 4.00625E+00 0.00000E+00
 -1       423 1.37535E+02 4.00625E+00 0.00000E+00
 -1       424 1.40535E+02 4.00625E+00 0.00000E+00
 -1       425 1.43535E+02 4.00625E+00 0.00000E+00
 -1       426 1.45469E+02 4.21562E+00 0.00000E+00
 -1       427 1.44804E+02 1.18000E+01 0.00000E+00
 -1       428 1.44804E+02 8.85000E+00 0.00000E+00
 -1       429 1.45136E+02 6.53281E+00 0.00000E+00
 -1       430 1.44804E+02 1.47000E+01 0.00000E+00
 -1       431 1.44804E+02 1.76500E+01 0.00000E+00
 -1       432 1.44804E+02 2.06000E+01 0.00000E+00
 -1       433 1.44804E+02 2.35500E+01 0.00000E+00
 -1       434 1.44804E+02 2.65000E+01 0.00000E+00
 -1       435 1.44804E+02 2.94500E+01 0.00000E+00
 -1       436 1.44804E+02 3.23500E+01 0.00000E+00
 -1       437 1.44804E+02 3.53000E+01 0.00000E+00
 -1       438 1.44804E+02 3.82500E+01 0.00000E+00
 -1       439 1.44804E+02 4.12000E+01 0.00000E+00
 -1       440 4.23172E+01 1.78817E+01 0.00000E+00
 -1       441 4.31128E+01 2.18180E+01 0.00000E+00
 -1       442 4.28432E+01 2.01330E+01 0.00000E+00
 -1       443 4.11264E+01 1.63744E+01 0.00000E+00
 -1       444 4.00302E+01 1.48059E+01 0.00000E+00
 -1       445 5.19600E+00 3.82125E+01 0.00000E+00
 -1       446 3.64389E+01 1.26222E+01 0.00000E+00
 -1       447 3.46027E+01 1.21086E+01 0.00000E+00
 -1       448 3.20146E+01 1.23570E+01 0.00000E+00
 -1       449 3.01408E+01 1.27546E+01 0.00000E+00
 -1       450 2.82522E+01 1.35659E+01 0.00000E+00
 -1       451 2.67257E+01 1.49586E+01 0.00000E+00
 -1       452 2.54830E+01 1.66388E+01 0.00000E+00
 -1       453 2.43878E+01 1.82579E+01 0.00000E+00
 -1       454 2.40003E+01 2.02034E+01 0.00000E+00
 -1       455 2.38199E+01 2.21188E+01 0.00000E+00
 -1       456 2.40343E+01 2.42639E+01 0.00000E+00
 -1       457 2.46792E+01 2.59347E+01 0.00000E+00
 -1       458 2.59586E+01 2.79564E+01 0.00000E+00
 -1       459 2.73009E+01 2.92306E+01 0.00000E+00
 -1       460 2.88917E+01 3.08980E+01 0.00000E+00
 -1       461 3.13550E+01 3.14118E+01 0.00000E+00
 -1       462 3.35158E+01 3.17072E+01 0.00000E+00
 -1       463 3.53280E+01 3.13795E+01 0.00000E+00
 -1       464 3.75709E+01 3.05300E+01 0.00000E+00
 -1       465 3.93308E+01 2.95772E+01 0.00000E+00
 -1       466 4.08491E+01 2.77142E+01 0.00000E+00
 -1       467 4.18405E+01 2.59824E+01 0.00000E+00
 -1       468 4.26635E+01 2.41550E+01 0.00000E+00
 -1       469 3.81996E+01 1.36461E+01 0.00000E+00
 -1       470 2.43062E+01 2.75382E+01 0.00000E+00
 -1       471 3.33777E+01 1.10896E+01 0.00000E+00
 -1       472 1.00350E+01 6.60425E+00 0.00000E+00
 -1       473 7.79400E+00 3.08500E+01 0.00000E+00
 -1       474 7.79400E+00 3.38000E+01 0.00000E+00
 -1       475 7.79400E+00 2.49500E+01 0.00000E+00
 -1       476 7.79400E+00 2.20000E+01 0.00000E+00
 -1       477 7.79400E+00 1.91000E+01 0.00000E+00
 -1       478 7.79400E+00 1.61500E+01 0.00000E+00
 -1       479 7.79400E+00 1.32000E+01 0.00000E+00
 -1       480 7.79400E+00 1.02500E+01 0.00000E+00
 -1       481 1.30350E+01 6.60425E+00 0.00000E+00
 -1       482 1.06500E+01 4.22060E+01 0.00000E+00
 -1       483 3.81814E+01 1.16515E+01 0.00000E+00
 -1       484 1.36500E+01 4.22060E+01 0.00000E+00
 -1       485 1.66500E+01 4.22060E+01 0.00000E+00
 -1       486 1.96500E+01 4.22060E+01 0.00000E+00
 -1       487 2.26500E+01 4.22060E+01 0.00000E+00
 -1       488 2.56500E+01 4.22060E+01 0.00000E+00
 -1       489 2.86500E+01 4.22060E+01 0.00000E+00
 -1       490 3.16500E+01 4.22060E+01 0.00000E+00
 -1       491 3.46500E+01 4.22060E+01 0.00000E+00
 -1       492 3.76500E+01 4.22060E+01 0.00000E+00
 -1       493 4.06500E+01 4.22060E+01 0.00000E+00
 -1       494 4.36500E+01 4.22060E+01 0.00000E+00
 -1       495 4.66500E+01 4.22060E+01 0.00000E+00
 -1       496 4.96500E+01 4.22060E+01 0.00000E+00
 -1       497 5.26500E+01 4.22060E+01 0.00000E+00
 -1       498 5.56500E+01 4.22060E+01 0.00000E+00
 -1       499 5.86500E+01 4.22060E+01 0.00000E+00
 -1       500 6.16500E+01 4.22060E+01 0.00000E+00
 -1       501 6.46500E+01 4.22060E+01 0.00000E+00
 -1       502 6.76500E+01 4.22060E+01 0.00000E+00
 -1       503 7.06500E+01 4.22060E+01 0.00000E+00
 -1       504 7.36500E+01 4.22060E+01 0.00000E+00
 -1       505 7.66500E+01 4.22060E+01 0.00000E+00
 -1       506 7.96500E+01 4.22060E+01 0.00000E+00
 -1       507 8.26500E+01 4.22060E+01 0.00000E+00
 -1       508 8.56500E+01 4.22060E+01 0.00000E+00
 -1       509 8.86500E+01 4.22060E+01 0.00000E+00
 -1       510 9.16500E+01 4.22060E+01 0.00000E+00
 -1       511 9.46500E+01 4.22060E+01 0.00000E+00
 -1       512 9.76500E+01 4.22060E+01 0.00000E+00
 -1       513 1.00650E+02 4.22060E+01 0.00000E+00
 -1       514 1.03650E+02 4.22060E+01 0.00000E+00
 -1       515 1.06650E+02 4.22060E+01 0.00000E+00
 -1       516 1.09650E+02 4.22060E+01 0.00000E+00
 -1       517 1.12650E+02 4.22060E+01 0.00000E+00
 -1       518 1.15650E+02 4.22060E+01 0.00000E+00
 -1       519 1.18650E+02 4.22060E+01 0.00000E+00
 -1       520 1.21650E+02 4.22060E+01 0.00000E+00
 -1       521 1.24650E+02 4.22060E+01 0.00000E+00
 -1       522 1.27650E+02 4.22060E+01 0.00000E+00
 -1       523 1.30650E+02 4.22060E+01 0.00000E+00
 -1       524 1.33650E+02 4.22060E+01 0.00000E+00
 -1       525 1.36650E+02 4.22060E+01 0.00000E+00
 -1       526 1.39650E+02 4.22060E+01 0.00000E+00
 -1       527 1.90350E+01 6.60425E+00 0.00000E+00
 -1       528 2.20350E+01 6.60425E+00 0.00000E+00
 -1       529 2.50350E+01 6.60425E+00 0.00000E+00
 -1       530 2.80350E+01 6.60425E+00 0.00000E+00
 -1       531 3.10350E+01 6.60425E+00 0.00000E+00
 -1       532 3.40350E+01 6.60425E+00 0.00000E+00
 -1       533 3.70350E+01 6.60425E+00 0.00000E+00
 -1       534 4.00350E+01 6.60425E+00 0.00000E+00
 -1       535 4.30350E+01 6.60425E+00 0.00000E+00
 -1       536 4.60350E+01 6.60425E+00 0.00000E+00
 -1       537 4.90350E+01 6.60425E+00 0.00000E+00
 -1       538 5.20350E+01 6.60425E+00 0.00000E+00
 -1       539 5.50350E+01 6.60425E+00 0.00000E+00
 -1       540 5.80350E+01 6.60425E+00 0.00000E+00
 -1       541 6.10350E+01 6.60425E+00 0.00000E+00
 -1       542 6.40350E+01 6.60425E+00 0.00000E+00
 -1       543 6.70350E+01 6.60425E+00 0.00000E+00
 -1       544 7.00350E+01 6.60425E+00 0.00000E+00
 -1       545 7.30350E+01 6.60425E+00 0.00000E+00
 -1       546 7.60350E+01 6.60425E+00 0.00000E+00
 -1       547 7.90350E+01 6.60425E+00 0.00000E+00
 -1       548 8.20350E+01 6.60425E+00 0.00000E+00
 -1       549 8.50350E+01 6.60425E+00 0.00000E+00
 -1       550 8.80350E+01 6.60425E+00 0.00000E+00
 -1       551 9.10350E+01 6.60425E+00 0.00000E+00
 -1       552 9.40350E+01 6.60425E+00 0.00000E+00
 -1       553 9.70350E+01 6.60425E+00 0.00000E+00
 -1       554 1.00035E+02 6.60425E+00 0.00000E+00
 -1       555 1.03035E+02 6.60425E+00 0.00000E+00
 -1       556 1.06035E+02 6.60425E+00 0.00000E+00
 -1       557 1.09035E+02 6.60425E+00 0.00000E+00
 -1       558 1.12035E+02 6.60425E+00 0.00000E+00
 -1       559 1.15035E+02 6.60425E+00 0.00000E+00
 -1       560 1.18035E+02 6.60425E+00 0.00000E+00
 -1       561 1.21035E+02 6.60425E+00 0.00000E+00
 -1       562 1.24035E+02 6.60425E+00 0.00000E+00
 -1       563 1.27035E+02 6.60425E+00 0.00000E+00
 -1       564 1.30035E+02 6.60425E+00 0.00000E+00
 -1       565 1.33035E+02 6.60425E+00 0.00000E+00
 -1       566 1.36035E+02 6.60425E+00 0.00000E+00
 -1       567 1.39035E+02 6.60425E+00 0.00000E+00
 -1       568 1.42035E+02 6.60425E+00 0.00000E+00
 -1       569 1.42206E+02 1.61750E+01 0.00000E+00
 -1       570 1.42206E+02 1.91250E+01 0.00000E+00
 -1       571 1.42206E+02 1.03250E+01 0.00000E+00
 -1       572 1.42206E+02 1.32500E+01 0.00000E+00
 -1       573 1.42206E+02 2.20750E+01 0.00000E+00
 -1       574 1.42206E+02 2.50250E+01 0.00000E+00
 -1       575 1.42206E+02 2.79750E+01 0.00000E+00
 -1       576 1.42206E+02 3.08750E+01 0.00000E+00
 -1       577 1.42206E+02 3.38250E+01 0.00000E+00
 -1       578 1.42206E+02 3.67750E+01 0.00000E+00
 -1       579 1.42206E+02 3.97250E+01 0.00000E+00
 -1       580 4.30676E+01 1.60649E+01 0.00000E+00
 -1       581 4.45724E+01 2.33103E+01 0.00000E+00
 -1       582 1.60350E+01 6.60425E+00 0.00000E+00
 -1       583 4.46716E+01 2.07045E+01 0.00000E+00
 -1       584 4.38158E+01 2.57730E+01 0.00000E+00
 -1       585 7.92300E+00 4.16780E+01 0.00000E+00
 -1       586 4.19714E+01 1.44964E+01 0.00000E+00
 -1       587 3.22144E+01 3.31758E+01 0.00000E+00
 -1       588 2.23872E+01 2.33453E+01 0.00000E+00
 -1       589 7.79400E+00 2.79000E+01 0.00000E+00
 -1       590 3.07565E+01 1.10419E+01 0.00000E+00
 -1       591 3.59828E+01 1.07137E+01 0.00000E+00
 -1       592 2.97390E+01 3.29979E+01 0.00000E+00
 -1       593 2.85526E+01 1.16613E+01 0.00000E+00
 -1       594 2.63330E+01 1.29952E+01 0.00000E+00
 -1       595 2.48602E+01 1.48784E+01 0.00000E+00
 -1       596 2.35148E+01 1.64874E+01 0.00000E+00
 -1       597 2.25120E+01 1.88956E+01 0.00000E+00
 -1       598 2.23694E+01 2.10159E+01 0.00000E+00
 -1       599 2.28349E+01 2.56867E+01 0.00000E+00
 -1       600 2.55643E+01 2.97158E+01 0.00000E+00
 -1       601 3.94270E+01 3.18565E+01 0.00000E+00
 -1       602 2.71551E+01 3.13833E+01 0.00000E+00
 -1       603 3.46824E+01 3.29837E+01 0.00000E+00
 -1       604 3.71842E+01 3.27060E+01 0.00000E+00
 -1       605 4.14194E+01 2.97292E+01 0.00000E+00
 -1       606 4.28244E+01 2.75048E+01 0.00000E+00
 -1       607 4.41455E+01 1.84532E+01 0.00000E+00
 -1       608 7.61550E+00 6.21462E+00 0.00000E+00
 -1       609 4.00120E+01 1.28114E+01 0.00000E+00
 -1       610 3.21196E+01 9.77456E+00 0.00000E+00
 -1       611 7.79400E+00 3.67375E+01 0.00000E+00
 -1       612 2.80024E+01 3.34832E+01 0.00000E+00
 -1       613 1.41678E+02 4.22645E+01 0.00000E+00
 -1       614 2.39119E+01 2.92977E+01 0.00000E+00
 -1       615 3.47578E+01 9.69472E+00 0.00000E+00
 -1       616 1.03920E+01 2.05500E+01 0.00000E+00
 -1       617 1.03920E+01 2.35000E+01 0.00000E+00
 -1       618 1.03920E+01 1.46750E+01 0.00000E+00
 -1       619 1.03920E+01 1.17250E+01 0.00000E+00
 -1       620 1.15350E+01 9.20225E+00 0.00000E+00
 -1       621 2.07470E+01 2.21931E+01 0.00000E+00
 -1       622 4.00147E+01 1.07826E+01 0.00000E+00
 -1       623 4.48086E+01 2.74910E+01 0.00000E+00
 -1       624 1.45350E+01 9.20225E+00 0.00000E+00
 -1       625 3.90911E+01 3.43553E+01 0.00000E+00
 -1       626 1.51500E+01 3.96080E+01 0.00000E+00
 -1       627 1.81500E+01 3.96080E+01 0.00000E+00
 -1       628 2.11500E+01 3.96080E+01 0.00000E+00
 -1       629 2.41500E+01 3.96080E+01 0.00000E+00
 -1       630 2.71500E+01 3.96080E+01 0.00000E+00
 -1       631 3.01500E+01 3.96080E+01 0.00000E+00
 -1       632 3.31500E+01 3.96080E+01 0.00000E+00
 -1       633 3.61500E+01 3.96080E+01 0.00000E+00
 -1       634 3.91500E+01 3.96080E+01 0.00000E+00
 -1       635 4.21500E+01 3.96080E+01 0.00000E+00
 -1       636 4.51500E+01 3.96080E+01 0.00000E+00
 -1       637 4.81500E+01 3.96080E+01 0.00000E+00
 -1       638 5.11500E+01 3.96080E+01 0.00000E+00
 -1       639 5.41500E+01 3.96080E+01 0.00000E+00
 -1       640 5.71500E+01 3.96080E+01 0.00000E+00
 -1       641 6.01500E+01 3.96080E+01 0.00000E+00
 -1       642 6.31500E+01 3.96080E+01 0.00000E+00
 -1       643 6.61500E+01 3.96080E+01 0.00000E+00
 -1       644 6.91500E+01 3.96080E+01 0.00000E+00
 -1       645 7.21500E+01 3.96080E+01 0.00000E+00
 -1       646 7.51500E+01 3.96080E+01 0.00000E+00
 -1       647 7.81500E+01 3.96080E+01 0.00000E+00
 -1       648 8.11500E+01 3.96080E+01 0.00000E+00
 -1       649 8.41500E+01 3.96080E+01 0.00000E+00
 -1       650 8.71500E+01 3.96080E+01 0.00000E+00
 -1       651 9.01500E+01 3.96080E+01 0.00000E+00
 -1       652 9.31500E+01 3.96080E+01 0.00000E+00
 -1       653 9.61500E+01 3.96080E+01 0.00000E+00
 -1       654 9.91500E+01 3.96080E+01 0.00000E+00
 -1       655 1.02150E+02 3.96080E+01 0.00000E+00
 -1       656 1.05150E+02 3.96080E+01 0.00000E+00
 -1       657 1.08150E+02 3.96080E+01 0.00000E+00
 -1       658 1.11150E+02 3.96080E+01 0.00000E+00
 -1       659 1.14150E+02 3.96080E+01 0.00000E+00
 -1       660 1.17150E+02 3.96080E+01 0.00000E+00
 -1       661 1.20150E+02 3.96080E+01 0.00000E+00
 -1       662 1.23150E+02 3.96080E+01 0.00000E+00
 -1       663 1.26150E+02 3.96080E+01 0.00000E+00
 -1       664 1.29150E+02 3.96080E+01 0.00000E+00
 -1       665 1.32150E+02 3.96080E+01 0.00000E+00
 -1       666 1.35150E+02 3.96080E+01 0.00000E+00
 -1       667 1.38150E+02 3.96080E+01 0.00000E+00
 -1       668 2.35350E+01 9.20225E+00 0.00000E+00
 -1       669 2.20966E+01 2.77838E+01 0.00000E+00
 -1       670 2.05350E+01 9.20225E+00 0.00000E+00
 -1       671 2.95350E+01 9.20225E+00 0.00000E+00
 -1       672 3.85350E+01 8.82207E+00 0.00000E+00
 -1       673 4.45350E+01 9.20225E+00 0.00000E+00
 -1       674 4.75350E+01 9.20225E+00 0.00000E+00
 -1       675 5.05350E+01 9.20225E+00 0.00000E+00
 -1       676 5.35350E+01 9.20225E+00 0.00000E+00
 -1       677 5.65350E+01 9.20225E+00 0.00000E+00
 -1       678 5.95350E+01 9.20225E+00 0.00000E+00
 -1       679 6.25350E+01 9.20225E+00 0.00000E+00
 -1       680 6.55350E+01 9.20225E+00 0.00000E+00
 -1       681 6.85350E+01 9.20225E+00 0.00000E+00
 -1       682 7.15350E+01 9.20225E+00 0.00000E+00
 -1       683 7.45350E+01 9.20225E+00 0.00000E+00
 -1       684 7.75350E+01 9.20225E+00 0.00000E+00
 -1       685 8.05350E+01 9.20225E+00 0.00000E+00
 -1       686 8.35350E+01 9.20225E+00 0.00000E+00
 -1       687 8.65350E+01 9.20225E+00 0.00000E+00
 -1       688 8.95350E+01 9.20225E+00 0.00000E+00
 -1       689 9.25350E+01 9.20225E+00 0.00000E+00
 -1       690 9.55350E+01 9.20225E+00 0.00000E+00
 -1       691 9.85350E+01 9.20225E+00 0.00000E+00
 -1       692 1.01535E+02 9.20225E+00 0.00000E+00
 -1       693 1.04535E+02 9.20225E+00 0.00000E+00
 -1       694 1.07535E+02 9.20225E+00 0.00000E+00
 -1       695 1.10535E+02 9.20225E+00 0.00000E+00
 -1       696 1.13535E+02 9.20225E+00 0.00000E+00
 -1       697 1.16535E+02 9.20225E+00 0.00000E+00
 -1       698 1.19535E+02 9.20225E+00 0.00000E+00
 -1       699 1.22535E+02 9.20225E+00 0.00000E+00
 -1       700 1.25535E+02 9.20225E+00 0.00000E+00
 -1       701 1.28535E+02 9.20225E+00 0.00000E+00
 -1       702 1.31535E+02 9.20225E+00 0.00000E+00
 -1       703 1.34535E+02 9.20225E+00 0.00000E+00
 -1       704 1.37535E+02 9.20225E+00 0.00000E+00
 -1       705 1.39870E+02 9.76363E+00 0.00000E+00
 -1       706 1.39608E+02 2.35500E+01 0.00000E+00
 -1       707 1.40178E+02 3.96665E+01 0.00000E+00
 -1       708 1.39608E+02 1.76500E+01 0.00000E+00
 -1       709 1.39608E+02 2.65000E+01 0.00000E+00
 -1       710 1.39608E+02 2.06000E+01 0.00000E+00
 -1       711 1.75350E+01 9.20225E+00 0.00000E+00
 -1       712 1.39608E+02 2.94000E+01 0.00000E+00
 -1       713 1.39608E+02 3.23500E+01 0.00000E+00
 -1       714 1.39608E+02 3.53000E+01 0.00000E+00
 -1       715 4.23285E+01 1.20994E+01 0.00000E+00
 -1       716 4.59971E+01 1.92077E+01 0.00000E+00
 -1       717 9.78035E+00 3.93914E+01 0.00000E+00
 -1       718 4.54753E+01 1.64157E+01 0.00000E+00
 -1       719 2.07294E+01 1.98407E+01 0.00000E+00
 -1       720 4.17974E+01 3.20798E+01 0.00000E+00
 -1       721 2.65350E+01 9.20225E+00 0.00000E+00
 -1       722 1.24652E+01 3.94997E+01 0.00000E+00
 -1       723 4.39253E+01 1.42981E+01 0.00000E+00
 -1       724 1.03920E+01 1.76125E+01 0.00000E+00
 -1       725 4.58336E+01 2.50454E+01 0.00000E+00
 -1       726 1.03920E+01 3.23250E+01 0.00000E+00
 -1       727 2.64730E+01 1.07146E+01 0.00000E+00
 -1       728 2.41136E+01 1.27770E+01 0.00000E+00
 -1       729 2.27682E+01 1.43859E+01 0.00000E+00
 -1       730 2.05973E+01 2.49010E+01 0.00000E+00
 -1       731 2.12754E+01 1.69678E+01 0.00000E+00
 -1       732 4.66708E+01 2.20854E+01 0.00000E+00
 -1       733 3.35815E+01 3.47897E+01 0.00000E+00
 -1       734 3.60833E+01 3.45120E+01 0.00000E+00
 -1       735 2.48763E+01 3.19648E+01 0.00000E+00
 -1       736 4.37137E+01 2.96224E+01 0.00000E+00
 -1       737 3.08418E+01 3.49647E+01 0.00000E+00
 -1       738 1.03920E+01 3.52625E+01 0.00000E+00
 -1       739 1.03920E+01 2.64500E+01 0.00000E+00
 -1       740 4.14614E+01 3.45786E+01 0.00000E+00
 -1       741 2.91052E+01 3.54500E+01 0.00000E+00
 -1       742 1.39608E+02 1.47250E+01 0.00000E+00
 -1       743 1.39739E+02 1.22443E+01 0.00000E+00
 -1       744 1.38879E+02 3.74540E+01 0.00000E+00
 -1       745 1.03920E+01 2.93875E+01 0.00000E+00
 -1       746 2.57235E+01 3.40647E+01 0.00000E+00
 -1       747 1.33920E+01 1.17250E+01 0.00000E+00
 -1       748 1.86880E+01 2.10322E+01 0.00000E+00
 -1       749 1.96500E+01 3.70100E+01 0.00000E+00
 -1       750 2.26500E+01 3.70100E+01 0.00000E+00
 -1       751 2.56500E+01 3.70100E+01 0.00000E+00
 -1       752 3.46500E+01 3.72226E+01 0.00000E+00
 -1       753 3.76500E+01 3.72226E+01 0.00000E+00
 -1       754 4.06500E+01 3.72226E+01 0.00000E+00
 -1       755 4.36500E+01 3.72226E+01 0.00000E+00
 -1       756 4.66500E+01 3.72226E+01 0.00000E+00
 -1       757 4.96500E+01 3.72226E+01 0.00000E+00
 -1       758 5.26500E+01 3.72226E+01 0.00000E+00
 -1       759 5.56500E+01 3.72226E+01 0.00000E+00
 -1       760 5.86500E+01 3.72226E+01 0.00000E+00
 -1       761 6.16500E+01 3.72226E+01 0.00000E+00
 -1       762 6.46500E+01 3.72226E+01 0.00000E+00
 -1       763 6.76500E+01 3.72226E+01 0.00000E+00
 -1       764 7.06500E+01 3.72226E+01 0.00000E+00
 -1       765 7.36500E+01 3.72226E+01 0.00000E+00
 -1       766 7.66500E+01 3.72226E+01 0.00000E+00
 -1       767 7.96500E+01 3.72226E+01 0.00000E+00
 -1       768 8.26500E+01 3.72226E+01 0.00000E+00
 -1       769 8.56500E+01 3.72226E+01 0.00000E+00
 -1       770 8.86500E+01 3.72226E+01 0.00000E+00
 -1       771 9.16500E+01 3.72226E+01 0.00000E+00
 -1       772 9.46500E+01 3.72226E+01 0.00000E+00
 -1       773 9.76500E+01 3.72226E+01 0.00000E+00
 -1       774 1.00650E+02 3.72226E+01 0.00000E+00
 -1       775 1.03650E+02 3.72226E+01 0.00000E+00
 -1       776 1.06650E+02 3.72226E+01 0.00000E+00
 -1       777 1.09650E+02 3.72226E+01 0.00000E+00
 -1       778 1.12650E+02 3.72226E+01 0.00000E+00
 -1       779 1.15650E+02 3.72226E+01 0.00000E+00
 -1       780 1.18650E+02 3.72226E+01 0.00000E+00
 -1       781 1.21650E+02 3.72226E+01 0.00000E+00
 -1       782 1.24650E+02 3.72226E+01 0.00000E+00
 -1       783 1.27650E+02 3.72226E+01 0.00000E+00
 -1       784 1.30650E+02 3.72226E+01 0.00000E+00
 -1       785 1.33650E+02 3.72226E+01 0.00000E+00
 -1       786 1.36264E+02 3.73383E+01 0.00000E+00
 -1       787 1.37010E+02 2.79500E+01 0.00000E+00
 -1       788 3.25350E+01 8.98964E+00 0.00000E+00
 -1       789 4.60350E+01 1.17552E+01 0.00000E+00
 -1       790 5.50350E+01 1.18003E+01 0.00000E+00
 -1       791 5.80350E+01 1.18003E+01 0.00000E+00
 -1       792 6.10350E+01 1.18003E+01 0.00000E+00
 -1       793 6.40350E+01 1.18003E+01 0.00000E+00
 -1       794 6.70350E+01 1.18003E+01 0.00000E+00
 -1       795 7.00350E+01 1.18003E+01 0.00000E+00
 -1       796 7.30350E+01 1.18003E+01 0.00000E+00
 -1       797 7.60350E+01 1.18003E+01 0.00000E+00
 -1       798 7.90350E+01 1.18003E+01 0.00000E+00
 -1       799 8.20350E+01 1.18003E+01 0.00000E+00
 -1       800 8.50350E+01 1.18003E+01 0.00000E+00
 -1       801 8.80350E+01 1.18003E+01 0.00000E+00
 -1       802 9.10350E+01 1.18003E+01 0.00000E+00
 -1       803 9.40350E+01 1.18003E+01 0.00000E+00
 -1       804 9.70350E+01 1.18003E+01 0.00000E+00
 -1       805 1.00035E+02 1.18003E+01 0.00000E+00
 -1       806 1.03035E+02 1.18003E+01 0.00000E+00
 -1       807 1.06035E+02 1.18003E+01 0.00000E+00
 -1       808 1.09035E+02 1.18003E+01 0.00000E+00
 -1       809 1.12035E+02 1.18003E+01 0.00000E+00
 -1       810 1.15035E+02 1.18003E+01 0.00000E+00
 -1       811 1.18035E+02 1.18003E+01 0.00000E+00
 -1       812 1.21035E+02 1.18003E+01 0.00000E+00
 -1       813 1.24035E+02 1.18003E+01 0.00000E+00
 -1       814 1.27035E+02 1.18003E+01 0.00000E+00
 -1       815 1.30035E+02 1.18003E+01 0.00000E+00
 -1       816 1.33035E+02 1.18003E+01 0.00000E+00
 -1       817 1.36035E+02 1.18003E+01 0.00000E+00
 -1       818 1.37887E+02 1.20223E+01 0.00000E+00
 -1       819 1.29900E+01 2.20250E+01 0.00000E+00
 -1       820 1.37010E+02 2.50000E+01 0.00000E+00
 -1       821 2.23084E+01 3.13853E+01 0.00000E+00
 -1       822 4.82457E+01 1.73427E+01 0.00000E+00
 -1       823 1.37010E+02 3.09000E+01 0.00000E+00
 -1       824 5.20350E+01 1.18003E+01 0.00000E+00
 -1       825 4.90350E+01 1.18003E+01 0.00000E+00
 -1       826 4.89194E+01 2.02204E+01 0.00000E+00
 -1       827 2.03919E+01 1.47345E+01 0.00000E+00
 -1       828 2.20350E+01 1.18003E+01 0.00000E+00
 -1       829 1.66500E+01 3.70100E+01 0.00000E+00
 -1       830 4.71403E+01 1.45490E+01 0.00000E+00
 -1       831 1.37010E+02 3.38500E+01 0.00000E+00
 -1       832 1.95280E+01 2.72884E+01 0.00000E+00
 -1       833 4.69029E+01 2.69312E+01 0.00000E+00
 -1       834 1.91528E+01 1.80528E+01 0.00000E+00
 -1       835 4.60848E+01 2.94936E+01 0.00000E+00
 -1       836 4.46366E+01 3.23180E+01 0.00000E+00
 -1       837 1.85383E+01 2.37401E+01 0.00000E+00
 -1       838 4.85476E+01 2.42145E+01 0.00000E+00
 -1       839 2.04931E+01 2.98715E+01 0.00000E+00
 -1       840 1.29900E+01 2.49750E+01 0.00000E+00
 -1       841 1.37136E+01 1.50524E+01 0.00000E+00
 -1       842 1.39652E+01 3.69017E+01 0.00000E+00
 -1       843 1.37010E+02 1.61875E+01 0.00000E+00
 -1       844 3.16500E+01 3.70100E+01 0.00000E+00
 -1       845 1.74690E+01 2.61276E+01 0.00000E+00
 -1       846 1.29900E+01 1.90875E+01 0.00000E+00
 -1       847 1.37010E+02 1.91375E+01 0.00000E+00
 -1       848 1.29900E+01 3.08563E+01 0.00000E+00
 -1       849 1.90350E+01 1.18003E+01 0.00000E+00
 -1       850 1.37010E+02 2.20688E+01 0.00000E+00
 -1       851 2.31557E+01 3.34853E+01 0.00000E+00
 -1       852 1.82694E+01 1.58195E+01 0.00000E+00
 -1       853 1.29900E+01 3.37938E+01 0.00000E+00
 -1       854 1.36637E+02 3.55942E+01 0.00000E+00
 -1       855 1.56243E+01 1.21273E+01 0.00000E+00
 -1       856 2.11500E+01 3.44120E+01 0.00000E+00
 -1       857 4.51500E+01 3.46246E+01 0.00000E+00
 -1       858 4.81500E+01 3.46246E+01 0.00000E+00
 -1       859 5.11500E+01 3.46246E+01 0.00000E+00
 -1       860 5.41500E+01 3.46246E+01 0.00000E+00
 -1       861 5.71500E+01 3.46246E+01 0.00000E+00
 -1       862 6.01500E+01 3.46246E+01 0.00000E+00
 -1       863 6.31500E+01 3.46246E+01 0.00000E+00
 -1       864 6.61500E+01 3.46246E+01 0.00000E+00
 -1       865 6.91500E+01 3.46246E+01 0.00000E+00
 -1       866 7.21500E+01 3.46246E+01 0.00000E+00
 -1       867 7.51500E+01 3.46246E+01 0.00000E+00
 -1       868 7.81500E+01 3.46246E+01 0.00000E+00
 -1       869 8.11500E+01 3.46246E+01 0.00000E+00
 -1       870 8.41500E+01 3.46246E+01 0.00000E+00
 -1       871 8.71500E+01 3.46246E+01 0.00000E+00
 -1       872 9.01500E+01 3.46246E+01 0.00000E+00
 -1       873 9.31500E+01 3.46246E+01 0.00000E+00
 -1       874 9.61500E+01 3.46246E+01 0.00000E+00
 -1       875 9.91500E+01 3.46246E+01 0.00000E+00
 -1       876 1.02150E+02 3.46246E+01 0.00000E+00
 -1       877 1.05150E+02 3.46246E+01 0.00000E+00
 -1       878 1.08150E+02 3.46246E+01 0.00000E+00
 -1       879 1.11150E+02 3.46246E+01 0.00000E+00
 -1       880 1.14150E+02 3.46246E+01 0.00000E+00
 -1       881 1.17150E+02 3.46246E+01 0.00000E+00
 -1       882 1.20150E+02 3.46246E+01 0.00000E+00
 -1       883 1.23150E+02 3.46246E+01 0.00000E+00
 -1       884 1.26150E+02 3.46246E+01 0.00000E+00
 -1       885 1.29150E+02 3.46246E+01 0.00000E+00
 -1       886 1.32150E+02 3.46246E+01 0.00000E+00
 -1       887 5.95350E+01 1.43982E+01 0.00000E+00
 -1       888 5.65350E+01 1.43982E+01 0.00000E+00
 -1       889 6.55350E+01 1.43982E+01 0.00000E+00
 -1       890 6.85350E+01 1.43982E+01 0.00000E+00
 -1       891 7.15350E+01 1.43982E+01 0.00000E+00
 -1       892 7.45350E+01 1.43982E+01 0.00000E+00
 -1       893 7.75350E+01 1.43982E+01 0.00000E+00
 -1       894 8.05350E+01 1.43982E+01 0.00000E+00
 -1       895 8.35350E+01 1.43982E+01 0.00000E+00
 -1       896 8.65350E+01 1.43982E+01 0.00000E+00
 -1       897 8.95350E+01 1.43982E+01 0.00000E+00
 -1       898 9.25350E+01 1.43982E+01 0.00000E+00
 -1       899 9.55350E+01 1.43982E+01 0.00000E+00
 -1       900 9.85350E+01 1.43982E+01 0.00000E+00
 -1       901 1.01535E+02 1.43982E+01 0.00000E+00
 -1       902 1.04535E+02 1.43982E+01 0.00000E+00
 -1       903 1.07535E+02 1.43982E+01 0.00000E+00
 -1       904 1.10535E+02 1.43982E+01 0.00000E+00
 -1       905 1.13535E+02 1.43982E+01 0.00000E+00
 -1       906 1.16535E+02 1.43982E+01 0.00000E+00
 -1       907 1.19535E+02 1.43982E+01 0.00000E+00
 -1       908 1.22535E+02 1.43982E+01 0.00000E+00
 -1       909 1.25535E+02 1.43982E+01 0.00000E+00
 -1       910 1.28535E+02 1.43982E+01 0.00000E+00
 -1       911 1.31535E+02 1.43982E+01 0.00000E+00
 -1       912 1.34535E+02 1.43982E+01 0.00000E+00
 -1       913 1.34412E+02 2.64750E+01 0.00000E+00
 -1       914 1.29900E+01 2.79188E+01 0.00000E+00
 -1       915 1.37449E+02 1.41049E+01 0.00000E+00
 -1       916 1.98730E+01 3.24604E+01 0.00000E+00
 -1       917 1.34412E+02 2.94250E+01 0.00000E+00
 -1       918 5.35350E+01 1.43982E+01 0.00000E+00
 -1       919 5.05350E+01 1.43982E+01 0.00000E+00
 -1       920 5.10682E+01 1.81996E+01 0.00000E+00
 -1       921 6.25350E+01 1.43982E+01 0.00000E+00
 -1       922 4.73342E+01 3.19177E+01 0.00000E+00
 -1       923 1.34412E+02 3.23750E+01 0.00000E+00
 -1       924 1.68947E+01 1.92265E+01 0.00000E+00
 -1       925 5.13203E+01 2.24583E+01 0.00000E+00
 -1       926 4.94791E+01 2.66347E+01 0.00000E+00
 -1       927 1.67334E+01 2.22822E+01 0.00000E+00
 -1       928 4.86610E+01 2.91971E+01 0.00000E+00
 -1       929 1.75769E+01 2.94893E+01 0.00000E+00
 -1       930 1.54123E+01 3.43600E+01 0.00000E+00
 -1       931 1.34394E+02 3.51094E+01 0.00000E+00
 -1       932 1.34412E+02 2.35438E+01 0.00000E+00
 -1       933 1.55880E+01 2.93875E+01 0.00000E+00
 -1       934 1.59090E+01 1.75285E+01 0.00000E+00
 -1       935 1.53754E+01 2.35000E+01 0.00000E+00
 -1       936 1.81500E+01 3.44120E+01 0.00000E+00
 -1       937 5.22518E+01 2.48784E+01 0.00000E+00
 -1       938 1.34535E+02 1.73482E+01 0.00000E+00
 -1       939 1.69468E+01 1.39734E+01 0.00000E+00
 -1       940 7.30350E+01 1.69963E+01 0.00000E+00
 -1       941 5.15021E+01 2.86923E+01 0.00000E+00
 -1       942 1.34412E+02 2.06125E+01 0.00000E+00
 -1       943 6.10350E+01 1.69963E+01 0.00000E+00
 -1       944 5.03342E+01 3.19177E+01 0.00000E+00
 -1       945 5.33342E+01 3.19177E+01 0.00000E+00
 -1       946 5.63342E+01 3.19177E+01 0.00000E+00
 -1       947 5.93342E+01 3.19177E+01 0.00000E+00
 -1       948 6.23342E+01 3.19177E+01 0.00000E+00
 -1       949 6.53342E+01 3.19177E+01 0.00000E+00
 -1       950 6.83342E+01 3.19177E+01 0.00000E+00
 -1       951 7.13342E+01 3.19177E+01 0.00000E+00
 -1       952 7.43342E+01 3.19177E+01 0.00000E+00
 -1       953 7.73342E+01 3.19177E+01 0.00000E+00
 -1       954 8.03342E+01 3.19177E+01 0.00000E+00
 -1       955 8.33342E+01 3.19177E+01 0.00000E+00
 -1       956 8.63342E+01 3.19177E+01 0.00000E+00
 -1       957 8.93342E+01 3.19177E+01 0.00000E+00
 -1       958 9.23342E+01 3.19177E+01 0.00000E+00
 -1       959 9.53342E+01 3.19177E+01 0.00000E+00
 -1       960 9.83342E+01 3.19177E+01 0.00000E+00
 -1       961 1.01334E+02 3.19177E+01 0.00000E+00
 -1       962 1.04334E+02 3.19177E+01 0.00000E+00
 -1       963 1.07334E+02 3.19177E+01 0.00000E+00
 -1       964 1.10334E+02 3.19177E+01 0.00000E+00
 -1       965 1.13334E+02 3.19177E+01 0.00000E+00
 -1       966 1.16334E+02 3.19177E+01 0.00000E+00
 -1       967 1.19334E+02 3.19177E+01 0.00000E+00
 -1       968 1.22334E+02 3.19177E+01 0.00000E+00
 -1       969 1.25334E+02 3.19177E+01 0.00000E+00
 -1       970 1.28334E+02 3.19177E+01 0.00000E+00
 -1       971 1.31334E+02 3.19177E+01 0.00000E+00
 -1       972 5.80350E+01 1.69963E+01 0.00000E+00
 -1       973 1.59796E+01 2.40273E+01 0.00000E+00
 -1       974 1.54817E+01 2.64438E+01 0.00000E+00
 -1       975 7.00350E+01 1.69963E+01 0.00000E+00
 -1       976 6.70350E+01 1.69963E+01 0.00000E+00
 -1       977 7.60350E+01 1.69963E+01 0.00000E+00
 -1       978 7.90350E+01 1.69963E+01 0.00000E+00
 -1       979 8.20350E+01 1.69963E+01 0.00000E+00
 -1       980 8.50350E+01 1.69963E+01 0.00000E+00
 -1       981 8.80350E+01 1.69963E+01 0.00000E+00
 -1       982 9.10350E+01 1.69963E+01 0.00000E+00
 -1       983 9.40350E+01 1.69963E+01 0.00000E+00
 -1       984 9.70350E+01 1.69963E+01 0.00000E+00
 -1       985 1.00035E+02 1.69963E+01 0.00000E+00
 -1       986 1.03035E+02 1.69963E+01 0.00000E+00
 -1       987 1.06035E+02 1.69963E+01 0.00000E+00
 -1       988 1.09035E+02 1.69963E+01 0.00000E+00
 -1       989 1.12035E+02 1.69963E+01 0.00000E+00
 -1       990 1.15035E+02 1.69963E+01 0.00000E+00
 -1       991 1.18035E+02 1.69963E+01 0.00000E+00
 -1       992 1.21035E+02 1.69963E+01 0.00000E+00
 -1       993 1.24035E+02 1.69963E+01 0.00000E+00
 -1       994 1.27035E+02 1.69963E+01 0.00000E+00
 -1       995 1.30035E+02 1.69963E+01 0.00000E+00
 -1       996 1.32285E+02 1.71723E+01 0.00000E+00
 -1       997 1.49423E+01 2.06257E+01 0.00000E+00
 -1       998 6.40350E+01 1.69963E+01 0.00000E+00
 -1       999 5.37427E+01 2.01781E+01 0.00000E+00
 -1      1000 5.50350E+01 1.69963E+01 0.00000E+00
 -1      1001 1.31814E+02 2.79500E+01 0.00000E+00
 -1      1002 1.31814E+02 2.50187E+01 0.00000E+00
 -1      1003 5.46743E+01 2.25982E+01 0.00000E+00
 -1      1004 1.31814E+02 2.20875E+01 0.00000E+00
 -1      1005 5.45021E+01 2.86923E+01 0.00000E+00
 -1      1006 5.75021E+01 2.86923E+01 0.00000E+00
 -1      1007 6.05021E+01 2.86923E+01 0.00000E+00
 -1      1008 6.35021E+01 2.86923E+01 0.00000E+00
 -1      1009 6.65021E+01 2.86923E+01 0.00000E+00
 -1      1010 6.95021E+01 2.86923E+01 0.00000E+00
 -1      1011 7.25021E+01 2.86923E+01 0.00000E+00
 -1      1012 7.55021E+01 2.86923E+01 0.00000E+00
 -1      1013 7.85021E+01 2.86923E+01 0.00000E+00
 -1      1014 8.15021E+01 2.86923E+01 0.00000E+00
 -1      1015 8.45021E+01 2.86923E+01 0.00000E+00
 -1      1016 8.75021E+01 2.86923E+01 0.00000E+00
 -1      1017 9.05021E+01 2.86923E+01 0.00000E+00
 -1      1018 9.35021E+01 2.86923E+01 0.00000E+00
 -1      1019 9.65021E+01 2.86923E+01 0.00000E+00
 -1      1020 9.95021E+01 2.86923E+01 0.00000E+00
 -1      1021 1.02502E+02 2.86923E+01 0.00000E+00
 -1      1022 1.05502E+02 2.86923E+01 0.00000E+00
 -1      1023 1.08502E+02 2.86923E+01 0.00000E+00
 -1      1024 1.11502E+02 2.86923E+01 0.00000E+00
 -1      1025 1.14502E+02 2.86923E+01 0.00000E+00
 -1      1026 1.17502E+02 2.86923E+01 0.00000E+00
 -1      1027 1.20502E+02 2.86923E+01 0.00000E+00
 -1      1028 1.23502E+02 2.86923E+01 0.00000E+00
 -1      1029 1.26502E+02 2.86923E+01 0.00000E+00
 -1      1030 1.29158E+02 2.83212E+01 0.00000E+00
 -1      1031 5.95350E+01 1.95942E+01 0.00000E+00
 -1      1032 6.85350E+01 1.95942E+01 0.00000E+00
 -1      1033 8.05350E+01 1.95942E+01 0.00000E+00
 -1      1034 8.35350E+01 1.95942E+01 0.00000E+00
 -1      1035 8.65350E+01 1.95942E+01 0.00000E+00
 -1      1036 8.95350E+01 1.95942E+01 0.00000E+00
 -1      1037 9.25350E+01 1.95942E+01 0.00000E+00
 -1      1038 9.55350E+01 1.95942E+01 0.00000E+00
 -1      1039 9.85350E+01 1.95942E+01 0.00000E+00
 -1      1040 1.01535E+02 1.95942E+01 0.00000E+00
 -1      1041 1.04535E+02 1.95942E+01 0.00000E+00
 -1      1042 1.07535E+02 1.95942E+01 0.00000E+00
 -1      1043 1.10535E+02 1.95942E+01 0.00000E+00
 -1      1044 1.13535E+02 1.95942E+01 0.00000E+00
 -1      1045 1.16535E+02 1.95942E+01 0.00000E+00
 -1      1046 1.19535E+02 1.95942E+01 0.00000E+00
 -1      1047 1.22535E+02 1.95942E+01 0.00000E+00
 -1      1048 1.25535E+02 1.95942E+01 0.00000E+00
 -1      1049 1.28535E+02 1.95942E+01 0.00000E+00
 -1      1050 7.75350E+01 1.95942E+01 0.00000E+00
 -1      1051 7.15350E+01 1.95942E+01 0.00000E+00
 -1      1052 6.55350E+01 1.95942E+01 0.00000E+00
 -1      1053 7.45350E+01 1.95942E+01 0.00000E+00
 -1      1054 5.66389E+01 1.98862E+01 0.00000E+00
 -1      1055 6.25350E+01 1.95942E+01 0.00000E+00
 -1      1056 1.32049E+02 1.96299E+01 0.00000E+00
 -1      1057 1.29158E+02 2.53899E+01 0.00000E+00
 -1      1058 5.60882E+01 2.56453E+01 0.00000E+00
 -1      1059 5.90882E+01 2.56453E+01 0.00000E+00
 -1      1060 6.20882E+01 2.56453E+01 0.00000E+00
 -1      1061 6.50882E+01 2.56453E+01 0.00000E+00
 -1      1062 6.80882E+01 2.56453E+01 0.00000E+00
 -1      1063 7.10882E+01 2.56453E+01 0.00000E+00
 -1      1064 7.40882E+01 2.56453E+01 0.00000E+00
 -1      1065 7.70882E+01 2.56453E+01 0.00000E+00
 -1      1066 8.00882E+01 2.56453E+01 0.00000E+00
 -1      1067 8.30882E+01 2.56453E+01 0.00000E+00
 -1      1068 8.60882E+01 2.56453E+01 0.00000E+00
 -1      1069 8.90882E+01 2.56453E+01 0.00000E+00
 -1      1070 9.20882E+01 2.56453E+01 0.00000E+00
 -1      1071 9.50882E+01 2.56453E+01 0.00000E+00
 -1      1072 9.80882E+01 2.56453E+01 0.00000E+00
 -1      1073 1.01088E+02 2.56453E+01 0.00000E+00
 -1      1074 1.04088E+02 2.56453E+01 0.00000E+00
 -1      1075 1.07088E+02 2.56453E+01 0.00000E+00
 -1      1076 1.10088E+02 2.56453E+01 0.00000E+00
 -1      1077 1.13088E+02 2.56453E+01 0.00000E+00
 -1      1078 1.16088E+02 2.56453E+01 0.00000E+00
 -1      1079 1.19088E+02 2.56453E+01 0.00000E+00
 -1      1080 1.22088E+02 2.56453E+01 0.00000E+00
 -1      1081 1.25088E+02 2.56453E+01 0.00000E+00
 -1      1082 1.27123E+02 2.55176E+01 0.00000E+00
 -1      1083 8.50350E+01 2.21922E+01 0.00000E+00
 -1      1084 8.80350E+01 2.21922E+01 0.00000E+00
 -1      1085 7.00350E+01 2.21922E+01 0.00000E+00
 -1      1086 8.20350E+01 2.21922E+01 0.00000E+00
 -1      1087 9.10350E+01 2.21922E+01 0.00000E+00
 -1      1088 9.40350E+01 2.21922E+01 0.00000E+00
 -1      1089 9.70350E+01 2.21922E+01 0.00000E+00
 -1      1090 1.00035E+02 2.21922E+01 0.00000E+00
 -1      1091 1.03035E+02 2.21922E+01 0.00000E+00
 -1      1092 1.06035E+02 2.21922E+01 0.00000E+00
 -1      1093 1.09035E+02 2.21922E+01 0.00000E+00
 -1      1094 1.12035E+02 2.21922E+01 0.00000E+00
 -1      1095 1.15035E+02 2.21922E+01 0.00000E+00
 -1      1096 1.18035E+02 2.21922E+01 0.00000E+00
 -1      1097 1.21035E+02 2.21922E+01 0.00000E+00
 -1      1098 1.24035E+02 2.21922E+01 0.00000E+00
 -1      1099 1.27035E+02 2.21922E+01 0.00000E+00
 -1      1100 7.90350E+01 2.21922E+01 0.00000E+00
 -1      1101 5.83475E+01 2.23251E+01 0.00000E+00
 -1      1102 6.70350E+01 2.21922E+01 0.00000E+00
 -1      1103 6.13475E+01 2.23251E+01 0.00000E+00
 -1      1104 6.41912E+01 2.22587E+01 0.00000E+00
 -1      1105 7.30350E+01 2.21922E+01 0.00000E+00
 -1      1106 7.60350E+01 2.21922E+01 0.00000E+00
 -1      1107 0.00000E+00 4.85250E+01 0.00000E+00
 -1      1108 0.00000E+00 4.55750E+01 0.00000E+00
 -1      1109 0.00000E+00 4.26250E+01 0.00000E+00
 -1      1110 0.00000E+00 3.96750E+01 0.00000E+00
 -1      1111 0.00000E+00 3.67250E+01 0.00000E+00
 -1      1112 0.00000E+00 3.38000E+01 0.00000E+00
 -1      1113 0.00000E+00 3.08750E+01 0.00000E+00
 -1      1114 0.00000E+00 2.79250E+01 0.00000E+00
 -1      1115 0.00000E+00 2.49750E+01 0.00000E+00
 -1      1116 0.00000E+00 2.20250E+01 0.00000E+00
 -1      1117 0.00000E+00 1.90750E+01 0.00000E+00
 -1      1118 0.00000E+00 1.61500E+01 0.00000E+00
 -1      1119 0.00000E+00 1.32250E+01 0.00000E+00
 -1      1120 0.00000E+00 1.02750E+01 0.00000E+00
 -1      1121 0.00000E+00 7.32500E+00 0.00000E+00
 -1      1122 0.00000E+00 4.37500E+00 0.00000E+00
 -1      1123 0.00000E+00 1.45000E+00 0.00000E+00
 -1      1124 1.57500E+00 5.00000E+01 0.00000E+00
 -1      1125 4.65000E+00 5.00000E+01 0.00000E+00
 -1      1126 7.65000E+00 5.00000E+01 0.00000E+00
 -1      1127 1.06500E+01 5.00000E+01 0.00000E+00
 -1      1128 1.36500E+01 5.00000E+01 0.00000E+00
 -1      1129 1.66500E+01 5.00000E+01 0.00000E+00
 -1      1130 1.96500E+01 5.00000E+01 0.00000E+00
 -1      1131 2.26500E+01 5.00000E+01 0.00000E+00
 -1      1132 2.56500E+01 5.00000E+01 0.00000E+00
 -1      1133 2.86500E+01 5.00000E+01 0.00000E+00
 -1      1134 3.16500E+01 5.00000E+01 0.00000E+00
 -1      1135 3.46500E+01 5.00000E+01 0.00000E+00
 -1      1136 3.76500E+01 5.00000E+01 0.00000E+00
 -1      1137 4.06500E+01 5.00000E+01 0.00000E+00
 -1      1138 4.36500E+01 5.00000E+01 0.00000E+00
 -1      1139 4.66500E+01 5.00000E+01 0.00000E+00
 -1      1140 4.96500E+01 5.00000E+01 0.00000E+00
 -1      1141 5.26500E+01 5.00000E+01 0.00000E+00
 -1      1142 5.56500E+01 5.00000E+01 0.00000E+00
 -1      1143 5.86500E+01 5.00000E+01 0.00000E+00
 -1      1144 6.16500E+01 5.00000E+01 0.00000E+00
 -1      1145 6.46500E+01 5.00000E+01 0.00000E+00
 -1      1146 6.76500E+01 5.00000E+01 0.00000E+00
 -1      1147 7.06500E+01 5.00000E+01 0.00000E+00
 -1      1148 7.36500E+01 5.00000E+01 0.00000E+00
 -1      1149 7.66500E+01 5.00000E+01 0.00000E+00
 -1      1150 7.96500E+01 5.00000E+01 0.00000E+00
 -1      1151 8.26500E+01 5.00000E+01 0.00000E+00
 -1      1152 8.56500E+01 5.00000E+01 0.00000E+00
 -1      1153 8.86500E+01 5.00000E+01 0.00000E+00
 -1      1154 9.16500E+01 5.00000E+01 0.00000E+00
 -1      1155 9.46500E+01 5.00000E+01 0.00000E+00
 -1      1156 9.76500E+01 5.00000E+01 0.00000E+00
 -1      1157 1.00650E+02 5.00000E+01 0.00000E+00
 -1      1158 1.03650E+02 5.00000E+01 0.00000E+00
 -1      1159 1.06650E+02 5.00000E+01 0.00000E+00
 -1      1160 1.09650E+02 5.00000E+01 0.00000E+00
 -1      1161 1.12650E+02 5.00000E+01 0.00000E+00
 -1      1162 1.15650E+02 5.00000E+01 0.00000E+00
 -1      1163 1.18650E+02 5.00000E+01 0.00000E+00
 -1      1164 1.21650E+02 5.00000E+01 0.00000E+00
 -1      1165 1.24650E+02 5.00000E+01 0.00000E+00
 -1      1166 1.27650E+02 5.00000E+01 0.00000E+00
 -1      1167 1.30650E+02 5.00000E+01 0.00000E+00
 -1      1168 1.33650E+02 5.00000E+01 0.00000E+00
 -1      1169 1.36650E+02 5.00000E+01 0.00000E+00
 -1      1170 1.39650E+02 5.00000E+01 0.00000E+00
 -1      1171 1.42650E+02 5.00000E+01 0.00000E+00
 -1      1172 1.45650E+02 5.00000E+01 0.00000E+00
 -1      1173 1.48575E+02 5.00000E+01 0.00000E+00
 -1      1174 1.57500E+00 0.00000E+00 0.00000E+00
 -1      1175 4.65000E+00 0.00000E+00 0.00000E+00
 -1      1176 7.65000E+00 0.00000E+00 0.00000E+00
 -1      1177 1.06500E+01 0.00000E+00 0.00000E+00
 -1      1178 1.36500E+01 0.00000E+00 0.00000E+00
 -1      1179 1.66500E+01 0.00000E+00 0.00000E+00
 -1      1180 1.96500E+01 0.00000E+00 0.00000E+00
 -1      1181 2.26500E+01 0.00000E+00 0.00000E+00
 -1      1182 2.56500E+01 0.00000E+00 0.00000E+00
 -1      1183 2.86500E+01 0.00000E+00 0.00000E+00
 -1      1184 3.16500E+01 0.00000E+00 0.00000E+00
 -1      1185 3.46500E+01 0.00000E+00 0.00000E+00
 -1      1186 3.76500E+01 0.00000E+00 0.00000E+00
 -1      1187 4.06500E+01 0.00000E+00 0.00000E+00
 -1      1188 4.36500E+01 0.00000E+00 0.00000E+00
 -1      1189 4.66500E+01 0.00000E+00 0.00000E+00
 -1      1190 4.96500E+01 0.00000E+00 0.00000E+00
 -1      1191 5.26500E+01 0.00000E+00 0.00000E+00
 -1      1192 5.56500E+01 0.00000E+00 0.00000E+00
 -1      1193 5.86500E+01 0.00000E+00 0.00000E+00
 -1      1194 6.16500E+01 0.00000E+00 0.00000E+00
 -1      1195 6.46500E+01 0.00000E+00 0.00000E+00
 -1      1196 6.76500E+01 0.00000E+00 0.00000E+00
 -1      1197 7.06500E+01 0.00000E+00 0.00000E+00
 -1      1198 7.36500E+01 0.00000E+00 0.00000E+00
 -1      1199 7.66500E+01 0.00000E+00 0.00000E+00
 -1      1200 7.96500E+01 0.00000E+00 0.00000E+00
 -1      1201 8.26500E+01 0.00000E+00 0.00000E+00
 -1      1202 8.56500E+01 0.00000E+00 0.00000E+00
 -1      1203 8.86500E+01 0.00000E+00 0.00000E+00
 -1      1204 9.16500E+01 0.00000E+00 0.00000E+00
 -1      1205 9.46500E+01 0.00000E+00 0.00000E+00
 -1      1206 9.76500E+01 0.00000E+00 0.00000E+00
 -1      1207 1.00650E+02 0.00000E+00 0.00000E+00
 -1      1208 1.03650E+02 0.00000E+00 0.00000E+00
 -1      1209 1.06650E+02 0.00000E+00 0.00000E+00
 -1      1210 1.09650E+02 0.00000E+00 0.00000E+00
 -1      1211 1.12650E+02 0.00000E+00 0.00000E+00
 -1      1212 1.15650E+02 0.00000E+00 0.00000E+00
 -1      1213 1.18650E+02 0.00000E+00 0.00000E+00
 -1      1214 1.21650E+02 0.00000E+00 0.00000E+00
 -1      1215 1.24650E+02 0.00000E+00 0.00000E+00
 -1      1216 1.27650E+02 0.00000E+00 0.00000E+00
 -1      1217 1.30650E+02 0.00000E+00 0.00000E+00
 -1      1218 1.33650E+02 0.00000E+00 0.00000E+00
 -1      1219 1.36650E+02 0.00000E+00 0.00000E+00
 -1      1220 1.39650E+02 0.00000E+00 0.00000E+00
 -1      1221 1.42650E+02 0.00000E+00 0.00000E+00
 -1      1222 1.45650E+02 0.00000E+00 0.00000E+00
 -1      1223 1.48575E+02 0.00000E+00 0.00000E+00
 -1      1224 1.50000E+02 1.47500E+00 0.00000E+00
 -1      1225 1.50000E+02 4.42500E+00 0.00000E+00
 -1      1226 1.50000E+02 7.37500E+00 0.00000E+00
 -1      1227 1.50000E+02 1.03250E+01 0.00000E+00
 -1      1228 1.50000E+02 1.32750E+01 0.00000E+00
 -1      1229 1.50000E+02 1.62000E+01 0.00000E+00
 -1      1230 1.50000E+02 1.91250E+01 0.00000E+00
 -1      1231 1.50000E+02 2.20750E+01 0.00000E+00
 -1      1232 1.50000E+02 2.50250E+01 0.00000E+00
 -1      1233 1.50000E+02 2.79750E+01 0.00000E+00
 -1      1234 1.50000E+02 3.09250E+01 0.00000E+00
 -1      1235 1.50000E+02 3.38500E+01 0.00000E+00
 -1      1236 1.50000E+02 3.67750E+01 0.00000E+00
 -1      1237 1.50000E+02 3.97250E+01 0.00000E+00
 -1      1238 1.50000E+02 4.26750E+01 0.00000E+00
 -1      1239 1.50000E+02 4.56250E+01 0.00000E+00
 -1      1240 1.50000E+02 4.85500E+01 0.00000E+00
 -1      1241 4.03283E+01 2.11658E+01 0.00000E+00
 -1      1242 4.00316E+01 1.97442E+01 0.00000E+00
 -1      1243 3.94558E+01 1.84281E+01 0.00000E+00
 -1      1244 3.86373E+01 1.72731E+01 0.00000E+00
 -1      1245 3.75700E+01 1.62812E+01 0.00000E+00
 -1      1246 3.62881E+01 1.55169E+01 0.00000E+00
 -1      1247 3.48310E+01 1.50324E+01 0.00000E+00
 -1      1248 3.32617E+01 1.48779E+01 0.00000E+00
 -1      1249 3.17387E+01 1.50685E+01 0.00000E+00
 -1      1250 3.03510E+01 1.55590E+01 0.00000E+00
 -1      1251 2.90863E+01 1.63366E+01 0.00000E+00
 -1      1252 2.80050E+01 1.73742E+01 0.00000E+00
 -1      1253 2.71763E+01 1.86050E+01 0.00000E+00
 -1      1254 2.66363E+01 1.99454E+01 0.00000E+00
 -1      1255 2.63839E+01 2.13567E+01 0.00000E+00
 -1      1256 2.64305E+01 2.28363E+01 0.00000E+00
 -1      1257 2.67895E+01 2.42791E+01 0.00000E+00
 -1      1258 2.74589E+01 2.56354E+01 0.00000E+00
 -1      1259 2.84070E+01 2.68191E+01 0.00000E+00
 -1      1260 2.96283E+01 2.77967E+01 0.00000E+00
 -1      1261 3.10957E+01 2.84993E+01 0.00000E+00
 -1      1262 3.26104E+01 2.88364E+01 0.00000E+00
 -1      1263 3.41303E+01 2.88351E+01 0.00000E+00
 -1      1264 3.56606E+01 2.84898E+01 0.00000E+00
 -1      1265 3.70747E+01 2.78130E+01 0.00000E+00
 -1      1266 3.83131E+01 2.68280E+01 0.00000E+00
 -1      1267 3.92931E+01 2.55990E+01 0.00000E+00
 -1      1268 3.99596E+01 2.42234E+01 0.00000E+00
 -1      1269 4.03178E+01 2.26839E+01 0.00000E+00
 -1      1270 1.57500E+00 4.85250E+01 0.00000E+00
 -1      1271 1.29900E+00 4.48375E+01 0.00000E+00
 -1      1272 1.29900E+00 4.63125E+01 0.00000E+00
 -1      1273 1.29900E+00 4.18875E+01 0.00000E+00
 -1      1274 1.29900E+00 4.33625E+01 0.00000E+00
 -1      1275 2.59800E+00 4.41000E+01 0.00000E+00
 -1      1276 1.29900E+00 3.89375E+01 0.00000E+00
 -1      1277 1.29900E+00 4.04125E+01 0.00000E+00
 -1      1278 2.59800E+00 4.11500E+01 0.00000E+00
 -1      1279 1.29900E+00 3.59875E+01 0.00000E+00
 -1      1280 1.29900E+00 3.74625E+01 0.00000E+00
 -1      1281 2.59800E+00 3.82000E+01 0.00000E+00
 -1      1282 1.29900E+00 3.30875E+01 0.00000E+00
 -1      1283 1.29900E+00 3.45375E+01 0.00000E+00
 -1      1284 2.59800E+00 3.52750E+01 0.00000E+00
 -1      1285 1.29900E+00 3.01375E+01 0.00000E+00
 -1      1286 1.29900E+00 3.16125E+01 0.00000E+00
 -1      1287 2.59800E+00 3.23500E+01 0.00000E+00
 -1      1288 1.29900E+00 2.71875E+01 0.00000E+00
 -1      1289 1.29900E+00 2.86625E+01 0.00000E+00
 -1      1290 2.59800E+00 2.94000E+01 0.00000E+00
 -1      1291 1.29900E+00 2.42375E+01 0.00000E+00
 -1      1292 1.29900E+00 2.57125E+01 0.00000E+00
 -1      1293 2.59800E+00 2.64500E+01 0.00000E+00
 -1      1294 1.29900E+00 2.12875E+01 0.00000E+00
 -1      1295 1.29900E+00 2.27625E+01 0.00000E+00
 -1      1296 2.59800E+00 2.35000E+01 0.00000E+00
 -1      1297 1.29900E+00 1.83375E+01 0.00000E+00
 -1      1298 1.29900E+00 1.98125E+01 0.00000E+00
 -1      1299 2.59800E+00 2.05500E+01 0.00000E+00
 -1      1300 1.29900E+00 1.54375E+01 0.00000E+00
 -1      1301 1.29900E+00 1.68875E+01 0.00000E+00
 -1      1302 2.59800E+00 1.76250E+01 0.00000E+00
 -1      1303 1.29900E+00 1.24875E+01 0.00000E+00
 -1      1304 1.29900E+00 1.39625E+01 0.00000E+00
 -1      1305 2.59800E+00 1.47000E+01 0.00000E+00
 -1      1306 1.29900E+00 9.53750E+00 0.00000E+00
 -1      1307 1.29900E+00 1.10125E+01 0.00000E+00
 -1      1308 2.59800E+00 1.17500E+01 0.00000E+00
 -1      1309 1.29900E+00 6.58750E+00 0.00000E+00
 -1      1310 1.29900E+00 8.06250E+00 0.00000E+00
 -1      1311 2.59800E+00 8.80000E+00 0.00000E+00
 -1      1312 1.29900E+00 3.63750E+00 0.00000E+00
 -1      1313 1.29900E+00 5.11250E+00 0.00000E+00
 -1      1314 2.59800E+00 5.85000E+00 0.00000E+00
 -1      1315 1.43700E+00 1.09375E+00 0.00000E+00
 -1      1316 1.43700E+00 2.54375E+00 0.00000E+00
 -1      1317 2.73600E+00 3.28125E+00 0.00000E+00
 -1      1318 3.01200E+00 1.09375E+00 0.00000E+00
 -1      1319 3.90000E+00 4.87010E+01 0.00000E+00
 -1      1320 5.40000E+00 4.87010E+01 0.00000E+00
 -1      1321 6.90000E+00 4.87010E+01 0.00000E+00
 -1      1322 8.40000E+00 4.87010E+01 0.00000E+00
 -1      1323 6.15000E+00 4.74020E+01 0.00000E+00
 -1      1324 9.90000E+00 4.87010E+01 0.00000E+00
 -1      1325 1.14000E+01 4.87010E+01 0.00000E+00
 -1      1326 9.15000E+00 4.74020E+01 0.00000E+00
 -1      1327 1.29000E+01 4.87010E+01 0.00000E+00
 -1      1328 1.44000E+01 4.87010E+01 0.00000E+00
 -1      1329 1.21500E+01 4.74020E+01 0.00000E+00
 -1      1330 1.59000E+01 4.87010E+01 0.00000E+00
 -1      1331 1.74000E+01 4.87010E+01 0.00000E+00
 -1      1332 1.51500E+01 4.74020E+01 0.00000E+00
 -1      1333 1.89000E+01 4.87010E+01 0.00000E+00
 -1      1334 2.04000E+01 4.87010E+01 0.00000E+00
 -1      1335 1.81500E+01 4.74020E+01 0.00000E+00
 -1      1336 2.19000E+01 4.87010E+01 0.00000E+00
 -1      1337 2.34000E+01 4.87010E+01 0.00000E+00
 -1      1338 2.11500E+01 4.74020E+01 0.00000E+00
 -1      1339 2.49000E+01 4.87010E+01 0.00000E+00
 -1      1340 2.64000E+01 4.87010E+01 0.00000E+00
 -1      1341 2.41500E+01 4.74020E+01 0.00000E+00
 -1      1342 2.79000E+01 4.87010E+01 0.00000E+00
 -1      1343 2.94000E+01 4.87010E+01 0.00000E+00
 -1      1344 2.71500E+01 4.74020E+01 0.00000E+00
 -1      1345 3.09000E+01 4.87010E+01 0.00000E+00
 -1      1346 3.24000E+01 4.87010E+01 0.00000E+00
 -1      1347 3.01500E+01 4.74020E+01 0.00000E+00
 -1      1348 3.39000E+01 4.87010E+01 0.00000E+00
 -1      1349 3.54000E+01 4.87010E+01 0.00000E+00
 -1      1350 3.31500E+01 4.74020E+01 0.00000E+00
 -1      1351 3.69000E+01 4.87010E+01 0.00000E+00
 -1      1352 3.84000E+01 4.87010E+01 0.00000E+00
 -1      1353 3.61500E+01 4.74020E+01 0.00000E+00
 -1      1354 3.99000E+01 4.87010E+01 0.00000E+00
 -1      1355 4.14000E+01 4.87010E+01 0.00000E+00
 -1      1356 3.91500E+01 4.74020E+01 0.00000E+00
 -1      1357 4.29000E+01 4.87010E+01 0.00000E+00
 -1      1358 4.44000E+01 4.87010E+01 0.00000E+00
 -1      1359 4.21500E+01 4.74020E+01 0.00000E+00
 -1      1360 4.59000E+01 4.87010E+01 0.00000E+00
 -1      1361 4.74000E+01 4.87010E+01 0.00000E+00
 -1      1362 4.51500E+01 4.74020E+01 0.00000E+00
 -1      1363 4.89000E+01 4.87010E+01 0.00000E+00
 -1      1364 5.04000E+01 4.87010E+01 0.00000E+00
 -1      1365 4.81500E+01 4.74020E+01 0.00000E+00
 -1      1366 5.19000E+01 4.87010E+01 0.00000E+00
 -1      1367 5.34000E+01 4.87010E+01 0.00000E+00
 -1      1368 5.11500E+01 4.74020E+01 0.00000E+00
 -1      1369 5.49000E+01 4.87010E+01 0.00000E+00
 -1      1370 5.64000E+01 4.87010E+01 0.00000E+00
 -1      1371 5.41500E+01 4.74020E+01 0.00000E+00
 -1      1372 5.79000E+01 4.87010E+01 0.00000E+00
 -1      1373 5.94000E+01 4.87010E+01 0.00000E+00
 -1      1374 5.71500E+01 4.74020E+01 0.00000E+00
 -1      1375 6.09000E+01 4.87010E+01 0.00000E+00
 -1      1376 6.24000E+01 4.87010E+01 0.00000E+00
 -1      1377 6.01500E+01 4.74020E+01 0.00000E+00
 -1      1378 6.39000E+01 4.87010E+01 0.00000E+00
 -1      1379 6.54000E+01 4.87010E+01 0.00000E+00
 -1      1380 6.31500E+01 4.74020E+01 0.00000E+00
 -1      1381 6.69000E+01 4.87010E+01 0.00000E+00
 -1      1382 6.84000E+01 4.87010E+01 0.00000E+00
 -1      1383 6.61500E+01 4.74020E+01 0.00000E+00
 -1      1384 6.99000E+01 4.87010E+01 0.00000E+00
 -1      1385 7.14000E+01 4.87010E+01 0.00000E+00
 -1      1386 6.91500E+01 4.74020E+01 0.00000E+00
 -1      1387 7.29000E+01 4.87010E+01 0.00000E+00
 -1      1388 7.44000E+01 4.87010E+01 0.00000E+00
 -1      1389 7.21500E+01 4.74020E+01 0.00000E+00
 -1      1390 7.59000E+01 4.87010E+01 0.00000E+00
 -1      1391 7.74000E+01 4.87010E+01 0.00000E+00
 -1      1392 7.51500E+01 4.74020E+01 0.00000E+00
 -1      1393 7.89000E+01 4.87010E+01 0.00000E+00
 -1      1394 8.04000E+01 4.87010E+01 0.00000E+00
 -1      1395 7.81500E+01 4.74020E+01 0.00000E+00
 -1      1396 8.19000E+01 4.87010E+01 0.00000E+00
 -1      1397 8.34000E+01 4.87010E+01 0.00000E+00
 -1      1398 8.11500E+01 4.74020E+01 0.00000E+00
 -1      1399 8.49000E+01 4.87010E+01 0.00000E+00
 -1      1400 8.64000E+01 4.87010E+01 0.00000E+00
 -1      1401 8.41500E+01 4.74020E+01 0.00000E+00
 -1      1402 8.79000E+01 4.87010E+01 0.00000E+00
 -1      1403 8.94000E+01 4.87010E+01 0.00000E+00
 -1      1404 8.71500E+01 4.74020E+01 0.00000E+00
 -1      1405 9.09000E+01 4.87010E+01 0.00000E+00
 -1      1406 9.24000E+01 4.87010E+01 0.00000E+00
 -1      1407 9.01500E+01 4.74020E+01 0.00000E+00
 -1      1408 9.39000E+01 4.87010E+01 0.00000E+00
 -1      1409 9.54000E+01 4.87010E+01 0.00000E+00
 -1      1410 9.31500E+01 4.74020E+01 0.00000E+00
 -1      1411 9.69000E+01 4.87010E+01 0.00000E+00
 -1      1412 9.84000E+01 4.87010E+01 0.00000E+00
 -1      1413 9.61500E+01 4.74020E+01 0.00000E+00
 -1      1414 9.99000E+01 4.87010E+01 0.00000E+00
 -1      1415 1.01400E+02 4.87010E+01 0.00000E+00
 -1      1416 9.91500E+01 4.74020E+01 0.00000E+00
 -1      1417 1.02900E+02 4.87010E+01 0.00000E+00
 -1      1418 1.04400E+02 4.87010E+01 0.00000E+00
 -1      1419 1.02150E+02 4.74020E+01 0.00000E+00
 -1      1420 1.05900E+02 4.87010E+01 0.00000E+00
 -1      1421 1.07400E+02 4.87010E+01 0.00000E+00
 -1      1422 1.05150E+02 4.74020E+01 0.00000E+00
 -1      1423 1.08900E+02 4.87010E+01 0.00000E+00
 -1      1424 1.10400E+02 4.87010E+01 0.00000E+00
 -1      1425 1.08150E+02 4.74020E+01 0.00000E+00
 -1      1426 1.11900E+02 4.87010E+01 0.00000E+00
 -1      1427 1.13400E+02 4.87010E+01 0.00000E+00
 -1      1428 1.11150E+02 4.74020E+01 0.00000E+00
 -1      1429 1.14900E+02 4.87010E+01 0.00000E+00
 -1      1430 1.16400E+02 4.87010E+01 0.00000E+00
 -1      1431 1.14150E+02 4.74020E+01 0.00000E+00
 -1      1432 1.17900E+02 4.87010E+01 0.00000E+00
 -1      1433 1.19400E+02 4.87010E+01 0.00000E+00
 -1      1434 1.17150E+02 4.74020E+01 0.00000E+00
 -1      1435 1.20900E+02 4.87010E+01 0.00000E+00
 -1      1436 1.22400E+02 4.87010E+01 0.00000E+00
 -1      1437 1.20150E+02 4.74020E+01 0.00000E+00
 -1      1438 1.23900E+02 4.87010E+01 0.00000E+00
 -1      1439 1.25400E+02 4.87010E+01 0.00000E+00
 -1      1440 1.23150E+02 4.74020E+01 0.00000E+00
 -1      1441 1.26900E+02 4.87010E+01 0.00000E+00
 -1      1442 1.28400E+02 4.87010E+01 0.00000E+00
 -1      1443 1.26150E+02 4.74020E+01 0.00000E+00
 -1      1444 1.29900E+02 4.87010E+01 0.00000E+00
 -1      1445 1.31400E+02 4.87010E+01 0.00000E+00
 -1      1446 1.29150E+02 4.74020E+01 0.00000E+00
 -1      1447 1.32900E+02 4.87010E+01 0.00000E+00
 -1      1448 1.34400E+02 4.87010E+01 0.00000E+00
 -1      1449 1.32150E+02 4.74020E+01 0.00000E+00
 -1      1450 1.35900E+02 4.87010E+01 0.00000E+00
 -1      1451 1.37400E+02 4.87010E+01 0.00000E+00
 -1      1452 1.35150E+02 4.74020E+01 0.00000E+00
 -1      1453 1.38900E+02 4.87010E+01 0.00000E+00
 -1      1454 1.40400E+02 4.87010E+01 0.00000E+00
 -1      1455 1.38150E+02 4.74020E+01 0.00000E+00
 -1      1456 1.41900E+02 4.87010E+01 0.00000E+00
 -1      1457 1.43400E+02 4.87010E+01 0.00000E+00
 -1      1458 1.41150E+02 4.74020E+01 0.00000E+00
 -1      1459 1.44900E+02 4.87010E+01 0.00000E+00
 -1      1460 1.46400E+02 4.87010E+01 0.00000E+00
 -1      1461 1.44150E+02 4.74020E+01 0.00000E+00
 -1      1462 1.48575E+02 4.85500E+01 0.00000E+00
 -1      1463 1.47825E+02 4.72510E+01 0.00000E+00
 -1      1464 6.01200E+00 1.09375E+00 0.00000E+00
 -1      1465 4.51200E+00 1.09375E+00 0.00000E+00
 -1      1466 4.37400E+00 2.18750E+00 0.00000E+00
 -1      1467 9.01200E+00 1.09375E+00 0.00000E+00
 -1      1468 7.51200E+00 1.09375E+00 0.00000E+00
 -1      1469 7.37400E+00 2.18750E+00 0.00000E+00
 -1      1470 1.20120E+01 1.09375E+00 0.00000E+00
 -1      1471 1.05120E+01 1.09375E+00 0.00000E+00
 -1      1472 1.03740E+01 2.18750E+00 0.00000E+00
 -1      1473 1.50120E+01 1.09375E+00 0.00000E+00
 -1      1474 1.35120E+01 1.09375E+00 0.00000E+00
 -1      1475 1.33740E+01 2.18750E+00 0.00000E+00
 -1      1476 1.80120E+01 1.09375E+00 0.00000E+00
 -1      1477 1.65120E+01 1.09375E+00 0.00000E+00
 -1      1478 1.63740E+01 2.18750E+00 0.00000E+00
 -1      1479 2.10120E+01 1.09375E+00 0.00000E+00
 -1      1480 1.95120E+01 1.09375E+00 0.00000E+00
 -1      1481 1.93740E+01 2.18750E+00 0.00000E+00
 -1      1482 2.40120E+01 1.09375E+00 0.00000E+00
 -1      1483 2.25120E+01 1.09375E+00 0.00000E+00
 -1      1484 2.23740E+01 2.18750E+00 0.00000E+00
 -1      1485 2.70120E+01 1.09375E+00 0.00000E+00
 -1      1486 2.55120E+01 1.09375E+00 0.00000E+00
 -1      1487 2.53740E+01 2.18750E+00 0.00000E+00
 -1      1488 3.00120E+01 1.09375E+00 0.00000E+00
 -1      1489 2.85120E+01 1.09375E+00 0.00000E+00
 -1      1490 2.83740E+01 2.18750E+00 0.00000E+00
 -1      1491 3.30120E+01 1.09375E+00 0.00000E+00
 -1      1492 3.15120E+01 1.09375E+00 0.00000E+00
 -1      1493 3.13740E+01 2.18750E+00 0.00000E+00
 -1      1494 3.60120E+01 1.09375E+00 0.00000E+00
 -1      1495 3.45120E+01 1.09375E+00 0.00000E+00
 -1      1496 3.43740E+01 2.18750E+00 0.00000E+00
 -1      1497 3.90120E+01 1.09375E+00 0.00000E+00
 -1      1498 3.75120E+01 1.09375E+00 0.00000E+00
 -1      1499 3.73740E+01 2.18750E+00 0.00000E+00
 -1      1500 4.20120E+01 1.09375E+00 0.00000E+00
 -1      1501 4.05120E+01 1.09375E+00 0.00000E+00
 -1      1502 4.03740E+01 2.18750E+00 0.00000E+00
 -1      1503 4.50120E+01 1.09375E+00 0.00000E+00
 -1      1504 4.35120E+01 1.09375E+00 0.00000E+00
 -1      1505 4.33740E+01 2.18750E+00 0.00000E+00
 -1      1506 4.80120E+01 1.09375E+00 0.00000E+00
 -1      1507 4.65120E+01 1.09375E+00 0.00000E+00
 -1      1508 4.63740E+01 2.18750E+00 0.00000E+00
 -1      1509 5.10120E+01 1.09375E+00 0.00000E+00
 -1      1510 4.95120E+01 1.09375E+00 0.00000E+00
 -1      1511 4.93740E+01 2.18750E+00 0.00000E+00
 -1      1512 5.40120E+01 1.09375E+00 0.00000E+00
 -1      1513 5.25120E+01 1.09375E+00 0.00000E+00
 -1      1514 5.23740E+01 2.18750E+00 0.00000E+00
 -1      1515 5.70120E+01 1.09375E+00 0.00000E+00
 -1      1516 5.55120E+01 1.09375E+00 0.00000E+00
 -1      1517 5.53740E+01 2.18750E+00 0.00000E+00
 -1      1518 6.00120E+01 1.09375E+00 0.00000E+00
 -1      1519 5.85120E+01 1.09375E+00 0.00000E+00
 -1      1520 5.83740E+01 2.18750E+00 0.00000E+00
 -1      1521 6.30120E+01 1.09375E+00 0.00000E+00
 -1      1522 6.15120E+01 1.09375E+00 0.00000E+00
 -1      1523 6.13740E+01 2.18750E+00 0.00000E+00
 -1      1524 6.60120E+01 1.09375E+00 0.00000E+00
 -1      1525 6.45120E+01 1.09375E+00 0.00000E+00
 -1      1526 6.43740E+01 2.18750E+00 0.00000E+00
 -1      1527 6.90120E+01 1.09375E+00 0.00000E+00
 -1      1528 6.75120E+01 1.09375E+00 0.00000E+00
 -1      1529 6.73740E+01 2.18750E+00 0.00000E+00
 -1      1530 7.20120E+01 1.09375E+00 0.00000E+00
 -1      1531 7.05120E+01 1.09375E+00 0.00000E+00
 -1      1532 7.03740E+01 2.18750E+00 0.00000E+00
 -1      1533 7.50120E+01 1.09375E+00 0.00000E+00
 -1      1534 7.35120E+01 1.09375E+00 0.00000E+00
 -1      1535 7.33740E+01 2.18750E+00 0.00000E+00
 -1      1536 7.80120E+01 1.09375E+00 0.00000E+00
 -1      1537 7.65120E+01 1.09375E+00 0.00000E+00
 -1      1538 7.63740E+01 2.18750E+00 0.00000E+00
 -1      1539 8.10120E+01 1.09375E+00 0.00000E+00
 -1      1540 7.95120E+01 1.09375E+00 0.00000E+00
 -1      1541 7.93740E+01 2.18750E+00 0.00000E+00
 -1      1542 8.40120E+01 1.09375E+00 0.00000E+00
 -1      1543 8.25120E+01 1.09375E+00 0.00000E+00
 -1      1544 8.23740E+01 2.18750E+00 0.00000E+00
 -1      1545 8.70120E+01 1.09375E+00 0.00000E+00
 -1      1546 8.55120E+01 1.09375E+00 0.00000E+00
 -1      1547 8.53740E+01 2.18750E+00 0.00000E+00
 -1      1548 9.00120E+01 1.09375E+00 0.00000E+00
 -1      1549 8.85120E+01 1.09375E+00 0.00000E+00
 -1      1550 8.83740E+01 2.18750E+00 0.00000E+00
 -1      1551 9.30120E+01 1.09375E+00 0.00000E+00
 -1      1552 9.15120E+01 1.09375E+00 0.00000E+00
 -1      1553 9.13740E+01 2.18750E+00 0.00000E+00
 -1      1554 9.60120E+01 1.09375E+00 0.00000E+00
 -1      1555 9.45120E+01 1.09375E+00 0.00000E+00
 -1      1556 9.43740E+01 2.18750E+00 0.00000E+00
 -1      1557 9.90120E+01 1.09375E+00 0.00000E+00
 -1      1558 9.75120E+01 1.09375E+00 0.00000E+00
 -1      1559 9.73740E+01 2.18750E+00 0.00000E+00
 -1      1560 1.02012E+02 1.09375E+00 0.00000E+00
 -1      1561 1.00512E+02 1.09375E+00 0.00000E+00
 -1      1562 1.00374E+02 2.18750E+00 0.00000E+00
 -1      1563 1.05012E+02 1.09375E+00 0.00000E+00
 -1      1564 1.03512E+02 1.09375E+00 0.00000E+00
 -1      1565 1.03374E+02 2.18750E+00 0.00000E+00
 -1      1566 1.08012E+02 1.09375E+00 0.00000E+00
 -1      1567 1.06512E+02 1.09375E+00 0.00000E+00
 -1      1568 1.06374E+02 2.18750E+00 0.00000E+00
 -1      1569 1.11012E+02 1.09375E+00 0.00000E+00
 -1      1570 1.09512E+02 1.09375E+00 0.00000E+00
 -1      1571 1.09374E+02 2.18750E+00 0.00000E+00
 -1      1572 1.14012E+02 1.09375E+00 0.00000E+00
 -1      1573 1.12512E+02 1.09375E+00 0.00000E+00
 -1      1574 1.12374E+02 2.18750E+00 0.00000E+00
 -1      1575 1.17012E+02 1.09375E+00 0.00000E+00
 -1      1576 1.15512E+02 1.09375E+00 0.00000E+00
 -1      1577 1.15374E+02 2.18750E+00 0.00000E+00
 -1      1578 1.20012E+02 1.09375E+00 0.00000E+00
 -1      1579 1.18512E+02 1.09375E+00 0.00000E+00
 -1      1580 1.18374E+02 2.18750E+00 0.00000E+00
 -1      1581 1.23012E+02 1.09375E+00 0.00000E+00
 -1      1582 1.21512E+02 1.09375E+00 0.00000E+00
 -1      1583 1.21374E+02 2.18750E+00 0.00000E+00
 -1      1584 1.26012E+02 1.09375E+00 0.00000E+00
 -1      1585 1.24512E+02 1.09375E+00 0.00000E+00
 -1      1586 1.24374E+02 2.18750E+00 0.00000E+00
 -1      1587 1.29012E+02 1.09375E+00 0.00000E+00
 -1      1588 1.27512E+02 1.09375E+00 0.00000E+00
 -1      1589 1.27374E+02 2.18750E+00 0.00000E+00
 -1      1590 1.32012E+02 1.09375E+00 0.00000E+00
 -1      1591 1.30512E+02 1.09375E+00 0.00000E+00
 -1      1592 1.30374E+02 2.18750E+00 0.00000E+00
 -1      1593 1.35012E+02 1.09375E+00 0.00000E+00
 -1      1594 1.33512E+02 1.09375E+00 0.00000E+00
 -1      1595 1.33374E+02 2.18750E+00 0.00000E+00
 -1      1596 1.38012E+02 1.09375E+00 0.00000E+00
 -1      1597 1.36512E+02 1.09375E+00 0.00000E+00
 -1      1598 1.36374E+02 2.18750E+00 0.00000E+00
 -1      1599 1.41012E+02 1.09375E+00 0.00000E+00
 -1      1600 1.39512E+02 1.09375E+00 0.00000E+00
 -1      1601 1.39374E+02 2.18750E+00 0.00000E+00
 -1      1602 1.44012E+02 1.09375E+00 0.00000E+00
 -1      1603 1.42512E+02 1.09375E+00 0.00000E+00
 -1      1604 1.42374E+02 2.18750E+00 0.00000E+00
 -1      1605 1.47012E+02 1.09375E+00 0.00000E+00
 -1      1606 1.45512E+02 1.09375E+00 0.00000E+00
 -1      1607 1.45374E+02 2.18750E+00 0.00000E+00
 -1      1608 1.48575E+02 1.47500E+00 0.00000E+00
 -1      1609 1.48701E+02 5.16250E+00 0.00000E+00
 -1      1610 1.48701E+02 3.68750E+00 0.00000E+00
 -1      1611 1.48701E+02 8.11250E+00 0.00000E+00
 -1      1612 1.48701E+02 6.63750E+00 0.00000E+00
 -1      1613 1.47402E+02 5.90000E+00 0.00000E+00
 -1      1614 1.48701E+02 1.10625E+01 0.00000E+00
 -1      1615 1.48701E+02 9.58750E+00 0.00000E+00
 -1      1616 1.47402E+02 8.85000E+00 0.00000E+00
 -1      1617 1.48701E+02 1.40125E+01 0.00000E+00
 -1      1618 1.48701E+02 1.25375E+01 0.00000E+00
 -1      1619 1.47402E+02 1.18000E+01 0.00000E+00
 -1      1620 1.48701E+02 1.69125E+01 0.00000E+00
 -1      1621 1.48701E+02 1.54625E+01 0.00000E+00
 -1      1622 1.47402E+02 1.47250E+01 0.00000E+00
 -1      1623 1.48701E+02 1.98625E+01 0.00000E+00
 -1      1624 1.48701E+02 1.83875E+01 0.00000E+00
 -1      1625 1.47402E+02 1.76500E+01 0.00000E+00
 -1      1626 1.48701E+02 2.28125E+01 0.00000E+00
 -1      1627 1.48701E+02 2.13375E+01 0.00000E+00
 -1      1628 1.47402E+02 2.06000E+01 0.00000E+00
 -1      1629 1.48701E+02 2.57625E+01 0.00000E+00
 -1      1630 1.48701E+02 2.42875E+01 0.00000E+00
 -1      1631 1.47402E+02 2.35500E+01 0.00000E+00
 -1      1632 1.48701E+02 2.87125E+01 0.00000E+00
 -1      1633 1.48701E+02 2.72375E+01 0.00000E+00
 -1      1634 1.47402E+02 2.65000E+01 0.00000E+00
 -1      1635 1.48701E+02 3.16625E+01 0.00000E+00
 -1      1636 1.48701E+02 3.01875E+01 0.00000E+00
 -1      1637 1.47402E+02 2.94500E+01 0.00000E+00
 -1      1638 1.48701E+02 3.45625E+01 0.00000E+00
 -1      1639 1.48701E+02 3.31125E+01 0.00000E+00
 -1      1640 1.47402E+02 3.23750E+01 0.00000E+00
 -1      1641 1.48701E+02 3.75125E+01 0.00000E+00
 -1      1642 1.48701E+02 3.60375E+01 0.00000E+00
 -1      1643 1.47402E+02 3.53000E+01 0.00000E+00
 -1      1644 1.48701E+02 4.04625E+01 0.00000E+00
 -1      1645 1.48701E+02 3.89875E+01 0.00000E+00
 -1      1646 1.47402E+02 3.82500E+01 0.00000E+00
 -1      1647 1.48701E+02 4.34125E+01 0.00000E+00
 -1      1648 1.48701E+02 4.19375E+01 0.00000E+00
 -1      1649 1.47402E+02 4.12000E+01 0.00000E+00
 -1      1650 1.48263E+02 4.60692E+01 0.00000E+00
 -1      1651 1.48263E+02 4.45942E+01 0.00000E+00
 -1      1652 1.46964E+02 4.38568E+01 0.00000E+00
 -1      1653 1.46088E+02 4.62202E+01 0.00000E+00
 -1      1654 4.08591E+01 2.07540E+01 0.00000E+00
 -1      1655 4.09314E+01 2.14617E+01 0.00000E+00
 -1      1656 4.04986E+01 1.92059E+01 0.00000E+00
 -1      1657 4.07243E+01 1.99115E+01 0.00000E+00
 -1      1658 3.97818E+01 1.78438E+01 0.00000E+00
 -1      1659 4.01246E+01 1.84492E+01 0.00000E+00
 -1      1660 3.88293E+01 1.66277E+01 0.00000E+00
 -1      1661 3.93028E+01 1.71699E+01 0.00000E+00
 -1      1662 3.76413E+01 1.55728E+01 0.00000E+00
 -1      1663 3.82306E+01 1.60157E+01 0.00000E+00
 -1      1664 3.61810E+01 1.48455E+01 0.00000E+00
 -1      1665 3.68673E+01 1.51610E+01 0.00000E+00
 -1      1666 3.45674E+01 1.44006E+01 0.00000E+00
 -1      1667 3.53303E+01 1.45641E+01 0.00000E+00
 -1      1668 3.28527E+01 1.41555E+01 0.00000E+00
 -1      1669 3.36493E+01 1.41438E+01 0.00000E+00
 -1      1670 3.12383E+01 1.45618E+01 0.00000E+00
 -1      1671 3.19562E+01 1.43904E+01 0.00000E+00
 -1      1672 2.97574E+01 1.51668E+01 0.00000E+00
 -1      1673 3.04197E+01 1.48509E+01 0.00000E+00
 -1      1674 2.84177E+01 1.60851E+01 0.00000E+00
 -1      1675 2.90120E+01 1.56262E+01 0.00000E+00
 -1      1676 2.72990E+01 1.72692E+01 0.00000E+00
 -1      1677 2.77799E+01 1.66969E+01 0.00000E+00
 -1      1678 2.65027E+01 1.86652E+01 0.00000E+00
 -1      1679 2.68468E+01 1.80144E+01 0.00000E+00
 -1      1680 2.59904E+01 2.01287E+01 0.00000E+00
 -1      1681 2.61860E+01 1.94474E+01 0.00000E+00
 -1      1682 2.57899E+01 2.16758E+01 0.00000E+00
 -1      1683 2.58438E+01 2.09530E+01 0.00000E+00
 -1      1684 2.58808E+01 2.32938E+01 0.00000E+00
 -1      1685 2.57773E+01 2.25453E+01 0.00000E+00
 -1      1686 2.63815E+01 2.48174E+01 0.00000E+00
 -1      1687 2.61306E+01 2.41306E+01 0.00000E+00
 -1      1688 2.71235E+01 2.63119E+01 0.00000E+00
 -1      1689 2.67040E+01 2.56528E+01 0.00000E+00
 -1      1690 2.82647E+01 2.74802E+01 0.00000E+00
 -1      1691 2.77456E+01 2.69594E+01 0.00000E+00
 -1      1692 2.96369E+01 2.85597E+01 0.00000E+00
 -1      1693 2.89358E+01 2.81173E+01 0.00000E+00
 -1      1694 3.12372E+01 2.93174E+01 0.00000E+00
 -1      1695 3.04823E+01 2.90588E+01 0.00000E+00
 -1      1696 3.29151E+01 2.95225E+01 0.00000E+00
 -1      1697 3.21657E+01 2.94413E+01 0.00000E+00
 -1      1698 3.45728E+01 2.93539E+01 0.00000E+00
 -1      1699 3.38112E+01 2.94378E+01 0.00000E+00
 -1      1700 3.62371E+01 2.89268E+01 0.00000E+00
 -1      1701 3.54790E+01 2.91901E+01 0.00000E+00
 -1      1702 3.76982E+01 2.80887E+01 0.00000E+00
 -1      1703 3.70493E+01 2.84942E+01 0.00000E+00
 -1      1704 3.90560E+01 2.69933E+01 0.00000E+00
 -1      1705 3.84781E+01 2.75710E+01 0.00000E+00
 -1      1706 3.99725E+01 2.55800E+01 0.00000E+00
 -1      1707 3.95713E+01 2.62192E+01 0.00000E+00
 -1      1708 4.06199E+01 2.40476E+01 0.00000E+00
 -1      1709 4.03606E+01 2.47767E+01 0.00000E+00
 -1      1710 4.10034E+01 2.23573E+01 0.00000E+00
 -1      1711 4.09104E+01 2.31587E+01 0.00000E+00
 -1      1712 3.89240E+01 1.58881E+01 0.00000E+00
 -1      1713 4.00017E+01 1.71740E+01 0.00000E+00
 -1      1714 1.48437E+02 2.56875E+00 0.00000E+00
 -1      1715 1.47138E+02 3.30625E+00 0.00000E+00
 -1      1716 4.13635E+01 2.02038E+01 0.00000E+00
 -1      1717 4.08547E+01 1.86045E+01 0.00000E+00
 -1      1718 4.15703E+01 2.19419E+01 0.00000E+00
 -1      1719 3.75514E+01 1.48643E+01 0.00000E+00
 -1      1720 3.59266E+01 1.41710E+01 0.00000E+00
 -1      1721 3.41577E+01 1.36328E+01 0.00000E+00
 -1      1722 3.23432E+01 1.36109E+01 0.00000E+00
 -1      1723 3.06282E+01 1.41348E+01 0.00000E+00
 -1      1724 2.90642E+01 1.48833E+01 0.00000E+00
 -1      1725 2.76810E+01 1.59544E+01 0.00000E+00
 -1      1726 2.65911E+01 1.73113E+01 0.00000E+00
 -1      1727 2.58222E+01 1.88386E+01 0.00000E+00
 -1      1728 2.53590E+01 2.04450E+01 0.00000E+00
 -1      1729 2.51997E+01 2.21388E+01 0.00000E+00
 -1      1730 2.54369E+01 2.38452E+01 0.00000E+00
 -1      1731 2.60092E+01 2.55174E+01 0.00000E+00
 -1      1732 2.69537E+01 2.70003E+01 0.00000E+00
 -1      1733 2.82470E+01 2.82849E+01 0.00000E+00
 -1      1734 2.97635E+01 2.94210E+01 0.00000E+00
 -1      1735 3.15375E+01 3.00440E+01 0.00000E+00
 -1      1736 3.33622E+01 3.00831E+01 0.00000E+00
 -1      1737 3.51645E+01 2.98345E+01 0.00000E+00
 -1      1738 3.68828E+01 2.92381E+01 0.00000E+00
 -1      1739 3.84749E+01 2.82878E+01 0.00000E+00
 -1      1740 3.97701E+01 2.69960E+01 0.00000E+00
 -1      1741 4.06734E+01 2.54186E+01 0.00000E+00
 -1      1742 4.13518E+01 2.37265E+01 0.00000E+00
 -1      1743 2.87400E+00 4.77875E+01 0.00000E+00
 -1      1744 3.89700E+00 4.04125E+01 0.00000E+00
 -1      1745 3.89700E+00 4.18875E+01 0.00000E+00
 -1      1746 3.89700E+00 4.33625E+01 0.00000E+00
 -1      1747 3.89700E+00 4.48375E+01 0.00000E+00
 -1      1748 5.19600E+00 4.26250E+01 0.00000E+00
 -1      1749 3.89700E+00 3.45500E+01 0.00000E+00
 -1      1750 3.89700E+00 3.60000E+01 0.00000E+00
 -1      1751 3.89700E+00 3.16000E+01 0.00000E+00
 -1      1752 3.89700E+00 3.30750E+01 0.00000E+00
 -1      1753 5.19600E+00 3.38000E+01 0.00000E+00
 -1      1754 3.89700E+00 2.86500E+01 0.00000E+00
 -1      1755 3.89700E+00 3.01250E+01 0.00000E+00
 -1      1756 5.19600E+00 3.08500E+01 0.00000E+00
 -1      1757 3.89700E+00 2.57000E+01 0.00000E+00
 -1      1758 3.89700E+00 2.71750E+01 0.00000E+00
 -1      1759 5.19600E+00 2.79000E+01 0.00000E+00
 -1      1760 3.89700E+00 2.27500E+01 0.00000E+00
 -1      1761 3.89700E+00 2.42250E+01 0.00000E+00
 -1      1762 5.19600E+00 2.49500E+01 0.00000E+00
 -1      1763 3.89700E+00 1.98000E+01 0.00000E+00
 -1      1764 3.89700E+00 2.12750E+01 0.00000E+00
 -1      1765 5.19600E+00 2.20000E+01 0.00000E+00
 -1      1766 3.89700E+00 1.69000E+01 0.00000E+00
 -1      1767 3.89700E+00 1.83500E+01 0.00000E+00
 -1      1768 5.19600E+00 1.90750E+01 0.00000E+00
 -1      1769 3.89700E+00 1.39500E+01 0.00000E+00
 -1      1770 3.89700E+00 1.54250E+01 0.00000E+00
 -1      1771 5.19600E+00 1.61500E+01 0.00000E+00
 -1      1772 3.89700E+00 1.10000E+01 0.00000E+00
 -1      1773 3.89700E+00 1.24750E+01 0.00000E+00
 -1      1774 5.19600E+00 1.32000E+01 0.00000E+00
 -1      1775 3.89700E+00 8.05000E+00 0.00000E+00
 -1      1776 3.89700E+00 9.52500E+00 0.00000E+00
 -1      1777 5.19600E+00 1.02500E+01 0.00000E+00
 -1      1778 3.89700E+00 5.10000E+00 0.00000E+00
 -1      1779 3.89700E+00 6.57500E+00 0.00000E+00
 -1      1780 5.19600E+00 7.30000E+00 0.00000E+00
 -1      1781 4.20450E+00 3.09687E+00 0.00000E+00
 -1      1782 4.06650E+00 4.19063E+00 0.00000E+00
 -1      1783 5.36550E+00 4.91563E+00 0.00000E+00
 -1      1784 5.70450E+00 3.09687E+00 0.00000E+00
 -1      1785 3.62400E+00 4.64885E+01 0.00000E+00
 -1      1786 8.70450E+00 3.09687E+00 0.00000E+00
 -1      1787 7.20450E+00 3.09687E+00 0.00000E+00
 -1      1788 7.03500E+00 4.00625E+00 0.00000E+00
 -1      1789 4.92300E+00 4.57510E+01 0.00000E+00
 -1      1790 8.40000E+00 4.61030E+01 0.00000E+00
 -1      1791 9.90000E+00 4.61030E+01 0.00000E+00
 -1      1792 1.14000E+01 4.61030E+01 0.00000E+00
 -1      1793 1.29000E+01 4.61030E+01 0.00000E+00
 -1      1794 1.06500E+01 4.48040E+01 0.00000E+00
 -1      1795 1.44000E+01 4.61030E+01 0.00000E+00
 -1      1796 1.59000E+01 4.61030E+01 0.00000E+00
 -1      1797 1.36500E+01 4.48040E+01 0.00000E+00
 -1      1798 1.74000E+01 4.61030E+01 0.00000E+00
 -1      1799 1.89000E+01 4.61030E+01 0.00000E+00
 -1      1800 1.66500E+01 4.48040E+01 0.00000E+00
 -1      1801 2.04000E+01 4.61030E+01 0.00000E+00
 -1      1802 2.19000E+01 4.61030E+01 0.00000E+00
 -1      1803 1.96500E+01 4.48040E+01 0.00000E+00
 -1      1804 2.34000E+01 4.61030E+01 0.00000E+00
 -1      1805 2.49000E+01 4.61030E+01 0.00000E+00
 -1      1806 2.26500E+01 4.48040E+01 0.00000E+00
 -1      1807 2.64000E+01 4.61030E+01 0.00000E+00
 -1      1808 2.79000E+01 4.61030E+01 0.00000E+00
 -1      1809 2.56500E+01 4.48040E+01 0.00000E+00
 -1      1810 2.94000E+01 4.61030E+01 0.00000E+00
 -1      1811 3.09000E+01 4.61030E+01 0.00000E+00
 -1      1812 2.86500E+01 4.48040E+01 0.00000E+00
 -1      1813 3.24000E+01 4.61030E+01 0.00000E+00
 -1      1814 3.39000E+01 4.61030E+01 0.00000E+00
 -1      1815 3.16500E+01 4.48040E+01 0.00000E+00
 -1      1816 3.54000E+01 4.61030E+01 0.00000E+00
 -1      1817 3.69000E+01 4.61030E+01 0.00000E+00
 -1      1818 3.46500E+01 4.48040E+01 0.00000E+00
 -1      1819 3.84000E+01 4.61030E+01 0.00000E+00
 -1      1820 3.99000E+01 4.61030E+01 0.00000E+00
 -1      1821 3.76500E+01 4.48040E+01 0.00000E+00
 -1      1822 4.14000E+01 4.61030E+01 0.00000E+00
 -1      1823 4.29000E+01 4.61030E+01 0.00000E+00
 -1      1824 4.06500E+01 4.48040E+01 0.00000E+00
 -1      1825 4.44000E+01 4.61030E+01 0.00000E+00
 -1      1826 4.59000E+01 4.61030E+01 0.00000E+00
 -1      1827 4.36500E+01 4.48040E+01 0.00000E+00
 -1      1828 4.74000E+01 4.61030E+01 0.00000E+00
 -1      1829 4.89000E+01 4.61030E+01 0.00000E+00
 -1      1830 4.66500E+01 4.48040E+01 0.00000E+00
 -1      1831 5.04000E+01 4.61030E+01 0.00000E+00
 -1      1832 5.19000E+01 4.61030E+01 0.00000E+00
 -1      1833 4.96500E+01 4.48040E+01 0.00000E+00
 -1      1834 5.34000E+01 4.61030E+01 0.00000E+00
 -1      1835 5.49000E+01 4.61030E+01 0.00000E+00
 -1      1836 5.26500E+01 4.48040E+01 0.00000E+00
 -1      1837 5.64000E+01 4.61030E+01 0.00000E+00
 -1      1838 5.79000E+01 4.61030E+01 0.00000E+00
 -1      1839 5.56500E+01 4.48040E+01 0.00000E+00
 -1      1840 5.94000E+01 4.61030E+01 0.00000E+00
 -1      1841 6.09000E+01 4.61030E+01 0.00000E+00
 -1      1842 5.86500E+01 4.48040E+01 0.00000E+00
 -1      1843 6.24000E+01 4.61030E+01 0.00000E+00
 -1      1844 6.39000E+01 4.61030E+01 0.00000E+00
 -1      1845 6.16500E+01 4.48040E+01 0.00000E+00
 -1      1846 6.54000E+01 4.61030E+01 0.00000E+00
 -1      1847 6.69000E+01 4.61030E+01 0.00000E+00
 -1      1848 6.46500E+01 4.48040E+01 0.00000E+00
 -1      1849 6.84000E+01 4.61030E+01 0.00000E+00
 -1      1850 6.99000E+01 4.61030E+01 0.00000E+00
 -1      1851 6.76500E+01 4.48040E+01 0.00000E+00
 -1      1852 7.14000E+01 4.61030E+01 0.00000E+00
 -1      1853 7.29000E+01 4.61030E+01 0.00000E+00
 -1      1854 7.06500E+01 4.48040E+01 0.00000E+00
 -1      1855 7.44000E+01 4.61030E+01 0.00000E+00
 -1      1856 7.59000E+01 4.61030E+01 0.00000E+00
 -1      1857 7.36500E+01 4.48040E+01 0.00000E+00
 -1      1858 7.74000E+01 4.61030E+01 0.00000E+00
 -1      1859 7.89000E+01 4.61030E+01 0.00000E+00
 -1      1860 7.66500E+01 4.48040E+01 0.00000E+00
 -1      1861 8.04000E+01 4.61030E+01 0.00000E+00
 -1      1862 8.19000E+01 4.61030E+01 0.00000E+00
 -1      1863 7.96500E+01 4.48040E+01 0.00000E+00
 -1      1864 8.34000E+01 4.61030E+01 0.00000E+00
 -1      1865 8.49000E+01 4.61030E+01 0.00000E+00
 -1      1866 8.26500E+01 4.48040E+01 0.00000E+00
 -1      1867 8.64000E+01 4.61030E+01 0.00000E+00
 -1      1868 8.79000E+01 4.61030E+01 0.00000E+00
 -1      1869 8.56500E+01 4.48040E+01 0.00000E+00
 -1      1870 8.94000E+01 4.61030E+01 0.00000E+00
 -1      1871 9.09000E+01 4.61030E+01 0.00000E+00
 -1      1872 8.86500E+01 4.48040E+01 0.00000E+00
 -1      1873 9.24000E+01 4.61030E+01 0.00000E+00
 -1      1874 9.39000E+01 4.61030E+01 0.00000E+00
 -1      1875 9.16500E+01 4.48040E+01 0.00000E+00
 -1      1876 9.54000E+01 4.61030E+01 0.00000E+00
 -1      1877 9.69000E+01 4.61030E+01 0.00000E+00
 -1      1878 9.46500E+01 4.48040E+01 0.00000E+00
 -1      1879 9.84000E+01 4.61030E+01 0.00000E+00
 -1      1880 9.99000E+01 4.61030E+01 0.00000E+00
 -1      1881 9.76500E+01 4.48040E+01 0.00000E+00
 -1      1882 1.01400E+02 4.61030E+01 0.00000E+00
 -1      1883 1.02900E+02 4.61030E+01 0.00000E+00
 -1      1884 1.00650E+02 4.48040E+01 0.00000E+00
 -1      1885 1.04400E+02 4.61030E+01 0.00000E+00
 -1      1886 1.05900E+02 4.61030E+01 0.00000E+00
 -1      1887 1.03650E+02 4.48040E+01 0.00000E+00
 -1      1888 1.07400E+02 4.61030E+01 0.00000E+00
 -1      1889 1.08900E+02 4.61030E+01 0.00000E+00
 -1      1890 1.06650E+02 4.48040E+01 0.00000E+00
 -1      1891 1.10400E+02 4.61030E+01 0.00000E+00
 -1      1892 1.11900E+02 4.61030E+01 0.00000E+00
 -1      1893 1.09650E+02 4.48040E+01 0.00000E+00
 -1      1894 1.13400E+02 4.61030E+01 0.00000E+00
 -1      1895 1.14900E+02 4.61030E+01 0.00000E+00
 -1      1896 1.12650E+02 4.48040E+01 0.00000E+00
 -1      1897 1.16400E+02 4.61030E+01 0.00000E+00
 -1      1898 1.17900E+02 4.61030E+01 0.00000E+00
 -1      1899 1.15650E+02 4.48040E+01 0.00000E+00
 -1      1900 1.19400E+02 4.61030E+01 0.00000E+00
 -1      1901 1.20900E+02 4.61030E+01 0.00000E+00
 -1      1902 1.18650E+02 4.48040E+01 0.00000E+00
 -1      1903 1.22400E+02 4.61030E+01 0.00000E+00
 -1      1904 1.23900E+02 4.61030E+01 0.00000E+00
 -1      1905 1.21650E+02 4.48040E+01 0.00000E+00
 -1      1906 1.25400E+02 4.61030E+01 0.00000E+00
 -1      1907 1.26900E+02 4.61030E+01 0.00000E+00
 -1      1908 1.24650E+02 4.48040E+01 0.00000E+00
 -1      1909 1.28400E+02 4.61030E+01 0.00000E+00
 -1      1910 1.29900E+02 4.61030E+01 0.00000E+00
 -1      1911 1.27650E+02 4.48040E+01 0.00000E+00
 -1      1912 1.31400E+02 4.61030E+01 0.00000E+00
 -1      1913 1.32900E+02 4.61030E+01 0.00000E+00
 -1      1914 1.30650E+02 4.48040E+01 0.00000E+00
 -1      1915 1.34400E+02 4.61030E+01 0.00000E+00
 -1      1916 1.35900E+02 4.61030E+01 0.00000E+00
 -1      1917 1.33650E+02 4.48040E+01 0.00000E+00
 -1      1918 1.37400E+02 4.61030E+01 0.00000E+00
 -1      1919 1.38900E+02 4.61030E+01 0.00000E+00
 -1      1920 1.36650E+02 4.48040E+01 0.00000E+00
 -1      1921 1.40400E+02 4.61030E+01 0.00000E+00
 -1      1922 1.41900E+02 4.61030E+01 0.00000E+00
 -1      1923 1.39650E+02 4.48040E+01 0.00000E+00
 -1      1924 1.43244E+02 4.61616E+01 0.00000E+00
 -1      1925 1.44744E+02 4.61616E+01 0.00000E+00
 -1      1926 1.45182E+02 4.49799E+01 0.00000E+00
 -1      1927 1.42494E+02 4.48626E+01 0.00000E+00
 -1      1928 1.17045E+01 3.09687E+00 0.00000E+00
 -1      1929 1.02045E+01 3.09687E+00 0.00000E+00
 -1      1930 1.00350E+01 4.00625E+00 0.00000E+00
 -1      1931 1.47045E+01 3.09687E+00 0.00000E+00
 -1      1932 1.32045E+01 3.09687E+00 0.00000E+00
 -1      1933 1.30350E+01 4.00625E+00 0.00000E+00
 -1      1934 1.77045E+01 3.09687E+00 0.00000E+00
 -1      1935 1.62045E+01 3.09687E+00 0.00000E+00
 -1      1936 1.60350E+01 4.00625E+00 0.00000E+00
 -1      1937 2.07045E+01 3.09687E+00 0.00000E+00
 -1      1938 1.92045E+01 3.09687E+00 0.00000E+00
 -1      1939 1.90350E+01 4.00625E+00 0.00000E+00
 -1      1940 2.37045E+01 3.09687E+00 0.00000E+00
 -1      1941 2.22045E+01 3.09687E+00 0.00000E+00
 -1      1942 2.20350E+01 4.00625E+00 0.00000E+00
 -1      1943 2.67045E+01 3.09687E+00 0.00000E+00
 -1      1944 2.52045E+01 3.09687E+00 0.00000E+00
 -1      1945 2.50350E+01 4.00625E+00 0.00000E+00
 -1      1946 2.97045E+01 3.09687E+00 0.00000E+00
 -1      1947 2.82045E+01 3.09687E+00 0.00000E+00
 -1      1948 2.80350E+01 4.00625E+00 0.00000E+00
 -1      1949 3.27045E+01 3.09687E+00 0.00000E+00
 -1      1950 3.12045E+01 3.09687E+00 0.00000E+00
 -1      1951 3.10350E+01 4.00625E+00 0.00000E+00
 -1      1952 3.57045E+01 3.09687E+00 0.00000E+00
 -1      1953 3.42045E+01 3.09687E+00 0.00000E+00
 -1      1954 3.40350E+01 4.00625E+00 0.00000E+00
 -1      1955 3.87045E+01 3.09687E+00 0.00000E+00
 -1      1956 3.72045E+01 3.09687E+00 0.00000E+00
 -1      1957 3.70350E+01 4.00625E+00 0.00000E+00
 -1      1958 4.17045E+01 3.09687E+00 0.00000E+00
 -1      1959 4.02045E+01 3.09687E+00 0.00000E+00
 -1      1960 4.00350E+01 4.00625E+00 0.00000E+00
 -1      1961 4.47045E+01 3.09687E+00 0.00000E+00
 -1      1962 4.32045E+01 3.09687E+00 0.00000E+00
 -1      1963 4.30350E+01 4.00625E+00 0.00000E+00
 -1      1964 4.77045E+01 3.09687E+00 0.00000E+00
 -1      1965 4.62045E+01 3.09687E+00 0.00000E+00
 -1      1966 4.60350E+01 4.00625E+00 0.00000E+00
 -1      1967 5.07045E+01 3.09687E+00 0.00000E+00
 -1      1968 4.92045E+01 3.09687E+00 0.00000E+00
 -1      1969 4.90350E+01 4.00625E+00 0.00000E+00
 -1      1970 5.37045E+01 3.09687E+00 0.00000E+00
 -1      1971 5.22045E+01 3.09687E+00 0.00000E+00
 -1      1972 5.20350E+01 4.00625E+00 0.00000E+00
 -1      1973 5.67045E+01 3.09687E+00 0.00000E+00
 -1      1974 5.52045E+01 3.09687E+00 0.00000E+00
 -1      1975 5.50350E+01 4.00625E+00 0.00000E+00
 -1      1976 5.97045E+01 3.09687E+00 0.00000E+00
 -1      1977 5.82045E+01 3.09687E+00 0.00000E+00
 -1      1978 5.80350E+01 4.00625E+00 0.00000E+00
 -1      1979 6.27045E+01 3.09687E+00 0.00000E+00
 -1      1980 6.12045E+01 3.09687E+00 0.00000E+00
 -1      1981 6.10350E+01 4.00625E+00 0.00000E+00
 -1      1982 6.57045E+01 3.09687E+00 0.00000E+00
 -1      1983 6.42045E+01 3.09687E+00 0.00000E+00
 -1      1984 6.40350E+01 4.00625E+00 0.00000E+00
 -1      1985 6.87045E+01 3.09687E+00 0.00000E+00
 -1      1986 6.72045E+01 3.09687E+00 0.00000E+00
 -1      1987 6.70350E+01 4.00625E+00 0.00000E+00
 -1      1988 7.17045E+01 3.09687E+00 0.00000E+00
 -1      1989 7.02045E+01 3.09687E+00 0.00000E+00
 -1      1990 7.00350E+01 4.00625E+00 0.00000E+00
 -1      1991 7.47045E+01 3.09687E+00 0.00000E+00
 -1      1992 7.32045E+01 3.09687E+00 0.00000E+00
 -1      1993 7.30350E+01 4.00625E+00 0.00000E+00
 -1      1994 7.77045E+01 3.09687E+00 0.00000E+00
 -1      1995 7.62045E+01 3.09687E+00 0.00000E+00
 -1      1996 7.60350E+01 4.00625E+00 0.00000E+00
 -1      1997 8.07045E+01 3.09687E+00 0.00000E+00
 -1      1998 7.92045E+01 3.09687E+00 0.00000E+00
 -1      1999 7.90350E+01 4.00625E+00 0.00000E+00
 -1      2000 8.37045E+01 3.09687E+00 0.00000E+00
 -1      2001 8.22045E+01 3.09687E+00 0.00000E+00
 -1      2002 8.20350E+01 4.00625E+00 0.00000E+00
 -1      2003 8.67045E+01 3.09687E+00 0.00000E+00
 -1      2004 8.52045E+01 3.09687E+00 0.00000E+00
 -1      2005 8.50350E+01 4.00625E+00 0.00000E+00
 -1      2006 8.97045E+01 3.09687E+00 0.00000E+00
 -1      2007 8.82045E+01 3.09687E+00 0.00000E+00
 -1      2008 8.80350E+01 4.00625E+00 0.00000E+00
 -1      2009 9.27045E+01 3.09687E+00 0.00000E+00
 -1      2010 9.12045E+01 3.09687E+00 0.00000E+00
 -1      2011 9.10350E+01 4.00625E+00 0.00000E+00
 -1      2012 9.57045E+01 3.09687E+00 0.00000E+00
 -1      2013 9.42045E+01 3.09687E+00 0.00000E+00
 -1      2014 9.40350E+01 4.00625E+00 0.00000E+00
 -1      2015 9.87045E+01 3.09687E+00 0.00000E+00
 -1      2016 9.72045E+01 3.09687E+00 0.00000E+00
 -1      2017 9.70350E+01 4.00625E+00 0.00000E+00
 -1      2018 1.01704E+02 3.09687E+00 0.00000E+00
 -1      2019 1.00204E+02 3.09687E+00 0.00000E+00
 -1      2020 1.00035E+02 4.00625E+00 0.00000E+00
 -1      2021 1.04704E+02 3.09687E+00 0.00000E+00
 -1      2022 1.03204E+02 3.09687E+00 0.00000E+00
 -1      2023 1.03035E+02 4.00625E+00 0.00000E+00
 -1      2024 1.07704E+02 3.09687E+00 0.00000E+00
 -1      2025 1.06204E+02 3.09687E+00 0.00000E+00
 -1      2026 1.06035E+02 4.00625E+00 0.00000E+00
 -1      2027 1.10704E+02 3.09687E+00 0.00000E+00
 -1      2028 1.09204E+02 3.09687E+00 0.00000E+00
 -1      2029 1.09035E+02 4.00625E+00 0.00000E+00
 -1      2030 1.13704E+02 3.09687E+00 0.00000E+00
 -1      2031 1.12204E+02 3.09687E+00 0.00000E+00
 -1      2032 1.12035E+02 4.00625E+00 0.00000E+00
 -1      2033 1.16704E+02 3.09687E+00 0.00000E+00
 -1      2034 1.15204E+02 3.09687E+00 0.00000E+00
 -1      2035 1.15035E+02 4.00625E+00 0.00000E+00
 -1      2036 1.19704E+02 3.09687E+00 0.00000E+00
 -1      2037 1.18204E+02 3.09687E+00 0.00000E+00
 -1      2038 1.18035E+02 4.00625E+00 0.00000E+00
 -1      2039 1.22704E+02 3.09687E+00 0.00000E+00
 -1      2040 1.21204E+02 3.09687E+00 0.00000E+00
 -1      2041 1.21035E+02 4.00625E+00 0.00000E+00
 -1      2042 1.25704E+02 3.09687E+00 0.00000E+00
 -1      2043 1.24204E+02 3.09687E+00 0.00000E+00
 -1      2044 1.24035E+02 4.00625E+00 0.00000E+00
 -1      2045 1.28704E+02 3.09687E+00 0.00000E+00
 -1      2046 1.27204E+02 3.09687E+00 0.00000E+00
 -1      2047 1.27035E+02 4.00625E+00 0.00000E+00
 -1      2048 1.31704E+02 3.09687E+00 0.00000E+00
 -1      2049 1.30204E+02 3.09687E+00 0.00000E+00
 -1      2050 1.30035E+02 4.00625E+00 0.00000E+00
 -1      2051 1.34704E+02 3.09687E+00 0.00000E+00
 -1      2052 1.33204E+02 3.09687E+00 0.00000E+00
 -1      2053 1.33035E+02 4.00625E+00 0.00000E+00
 -1      2054 1.37704E+02 3.09687E+00 0.00000E+00
 -1      2055 1.36204E+02 3.09687E+00 0.00000E+00
 -1      2056 1.36035E+02 4.00625E+00 0.00000E+00
 -1      2057 1.40704E+02 3.09687E+00 0.00000E+00
 -1      2058 1.39204E+02 3.09687E+00 0.00000E+00
 -1      2059 1.39035E+02 4.00625E+00 0.00000E+00
 -1      2060 1.43704E+02 3.09687E+00 0.00000E+00
 -1      2061 1.42204E+02 3.09687E+00 0.00000E+00
 -1      2062 1.42035E+02 4.00625E+00 0.00000E+00
 -1      2063 1.46171E+02 3.20156E+00 0.00000E+00
 -1      2064 1.44671E+02 3.20156E+00 0.00000E+00
 -1      2065 1.44502E+02 4.11094E+00 0.00000E+00
 -1      2066 1.46435E+02 4.32031E+00 0.00000E+00
 -1      2067 1.46103E+02 1.25375E+01 0.00000E+00
 -1      2068 1.46103E+02 1.10625E+01 0.00000E+00
 -1      2069 1.46103E+02 9.58750E+00 0.00000E+00
 -1      2070 1.46103E+02 8.11250E+00 0.00000E+00
 -1      2071 1.44804E+02 1.03250E+01 0.00000E+00
 -1      2072 1.46269E+02 6.95391E+00 0.00000E+00
 -1      2073 1.46269E+02 5.47891E+00 0.00000E+00
 -1      2074 1.45302E+02 5.37422E+00 0.00000E+00
 -1      2075 1.44970E+02 7.69141E+00 0.00000E+00
 -1      2076 1.46103E+02 1.54375E+01 0.00000E+00
 -1      2077 1.46103E+02 1.39875E+01 0.00000E+00
 -1      2078 1.44804E+02 1.32500E+01 0.00000E+00
 -1      2079 1.46103E+02 1.83875E+01 0.00000E+00
 -1      2080 1.46103E+02 1.69125E+01 0.00000E+00
 -1      2081 1.44804E+02 1.61750E+01 0.00000E+00
 -1      2082 1.46103E+02 2.13375E+01 0.00000E+00
 -1      2083 1.46103E+02 1.98625E+01 0.00000E+00
 -1      2084 1.44804E+02 1.91250E+01 0.00000E+00
 -1      2085 1.46103E+02 2.42875E+01 0.00000E+00
 -1      2086 1.46103E+02 2.28125E+01 0.00000E+00
 -1      2087 1.44804E+02 2.20750E+01 0.00000E+00
 -1      2088 1.46103E+02 2.72375E+01 0.00000E+00
 -1      2089 1.46103E+02 2.57625E+01 0.00000E+00
 -1      2090 1.44804E+02 2.50250E+01 0.00000E+00
 -1      2091 1.46103E+02 3.01875E+01 0.00000E+00
 -1      2092 1.46103E+02 2.87125E+01 0.00000E+00
 -1      2093 1.44804E+02 2.79750E+01 0.00000E+00
 -1      2094 1.46103E+02 3.30875E+01 0.00000E+00
 -1      2095 1.46103E+02 3.16375E+01 0.00000E+00
 -1      2096 1.44804E+02 3.09000E+01 0.00000E+00
 -1      2097 1.46103E+02 3.60375E+01 0.00000E+00
 -1      2098 1.46103E+02 3.45625E+01 0.00000E+00
 -1      2099 1.44804E+02 3.38250E+01 0.00000E+00
 -1      2100 1.46103E+02 3.89875E+01 0.00000E+00
 -1      2101 1.46103E+02 3.75125E+01 0.00000E+00
 -1      2102 1.44804E+02 3.67750E+01 0.00000E+00
 -1      2103 1.46103E+02 4.19375E+01 0.00000E+00
 -1      2104 1.46103E+02 4.04625E+01 0.00000E+00
 -1      2105 1.44804E+02 3.97250E+01 0.00000E+00
 -1      2106 4.13989E+01 1.78648E+01 0.00000E+00
 -1      2107 4.17729E+01 1.86215E+01 0.00000E+00
 -1      2108 4.23056E+01 2.14321E+01 0.00000E+00
 -1      2109 4.23775E+01 2.23278E+01 0.00000E+00
 -1      2110 4.20360E+01 1.97471E+01 0.00000E+00
 -1      2111 4.21708E+01 2.05896E+01 0.00000E+00
 -1      2112 4.29780E+01 2.09755E+01 0.00000E+00
 -1      2113 4.03245E+01 1.64373E+01 0.00000E+00
 -1      2114 4.08036E+01 1.71111E+01 0.00000E+00
 -1      2115 3.91778E+01 1.50411E+01 0.00000E+00
 -1      2116 3.97764E+01 1.56530E+01 0.00000E+00
 -1      2117 3.89700E+00 3.74688E+01 0.00000E+00
 -1      2118 3.89700E+00 3.89437E+01 0.00000E+00
 -1      2119 5.19600E+00 3.96813E+01 0.00000E+00
 -1      2120 5.19600E+00 3.67438E+01 0.00000E+00
 -1      2121 3.57573E+01 1.32559E+01 0.00000E+00
 -1      2122 3.66081E+01 1.35373E+01 0.00000E+00
 -1      2123 3.39211E+01 1.27423E+01 0.00000E+00
 -1      2124 3.48392E+01 1.29991E+01 0.00000E+00
 -1      2125 3.55208E+01 1.23654E+01 0.00000E+00
 -1      2126 3.17307E+01 1.31014E+01 0.00000E+00
 -1      2127 3.26271E+01 1.28665E+01 0.00000E+00
 -1      2128 2.99752E+01 1.35892E+01 0.00000E+00
 -1      2129 3.07938E+01 1.33002E+01 0.00000E+00
 -1      2130 2.82855E+01 1.44543E+01 0.00000E+00
 -1      2131 2.90309E+01 1.39949E+01 0.00000E+00
 -1      2132 2.68845E+01 1.57624E+01 0.00000E+00
 -1      2133 2.75222E+01 1.51506E+01 0.00000E+00
 -1      2134 2.58109E+01 1.73476E+01 0.00000E+00
 -1      2135 2.62631E+01 1.66025E+01 0.00000E+00
 -1      2136 2.49467E+01 1.89393E+01 0.00000E+00
 -1      2137 2.52633E+01 1.81571E+01 0.00000E+00
 -1      2138 2.46063E+01 2.07363E+01 0.00000E+00
 -1      2139 2.47529E+01 1.99121E+01 0.00000E+00
 -1      2140 2.45035E+01 2.25636E+01 0.00000E+00
 -1      2141 2.45161E+01 2.16941E+01 0.00000E+00
 -1      2142 2.48605E+01 2.44729E+01 0.00000E+00
 -1      2143 2.46107E+01 2.36361E+01 0.00000E+00
 -1      2144 2.55054E+01 2.61437E+01 0.00000E+00
 -1      2145 2.51830E+01 2.53083E+01 0.00000E+00
 -1      2146 2.43568E+01 2.50993E+01 0.00000E+00
 -1      2147 2.67672E+01 2.78021E+01 0.00000E+00
 -1      2148 2.61451E+01 2.71546E+01 0.00000E+00
 -1      2149 2.81095E+01 2.90763E+01 0.00000E+00
 -1      2150 2.74384E+01 2.84392E+01 0.00000E+00
 -1      2151 2.66298E+01 2.85935E+01 0.00000E+00
 -1      2152 2.97503E+01 3.04091E+01 0.00000E+00
 -1      2153 2.89049E+01 2.99100E+01 0.00000E+00
 -1      2154 3.19106E+01 3.07898E+01 0.00000E+00
 -1      2155 3.09820E+01 3.06660E+01 0.00000E+00
 -1      2156 3.38870E+01 3.08528E+01 0.00000E+00
 -1      2157 3.29909E+01 3.09375E+01 0.00000E+00
 -1      2158 3.56993E+01 3.05251E+01 0.00000E+00
 -1      2159 3.47932E+01 3.06889E+01 0.00000E+00
 -1      2160 3.44219E+01 3.15433E+01 0.00000E+00
 -1      2161 3.76330E+01 2.96678E+01 0.00000E+00
 -1      2162 3.68208E+01 3.01004E+01 0.00000E+00
 -1      2163 3.92928E+01 2.86737E+01 0.00000E+00
 -1      2164 3.85129E+01 2.91913E+01 0.00000E+00
 -1      2165 4.05672E+01 2.69680E+01 0.00000E+00
 -1      2166 4.00520E+01 2.77422E+01 0.00000E+00
 -1      2167 4.14509E+01 2.52989E+01 0.00000E+00
 -1      2168 4.10629E+01 2.61022E+01 0.00000E+00
 -1      2169 4.21529E+01 2.34963E+01 0.00000E+00
 -1      2170 4.18624E+01 2.43852E+01 0.00000E+00
 -1      2171 3.74885E+01 1.40493E+01 0.00000E+00
 -1      2172 3.82625E+01 1.44611E+01 0.00000E+00
 -1      2173 3.91149E+01 1.42260E+01 0.00000E+00
 -1      2174 6.42300E+00 4.57510E+01 0.00000E+00
 -1      2175 3.73193E+01 1.31342E+01 0.00000E+00
 -1      2176 7.17300E+00 4.44520E+01 0.00000E+00
 -1      2177 4.25802E+01 1.90073E+01 0.00000E+00
 -1      2178 4.17218E+01 1.71281E+01 0.00000E+00
 -1      2179 1.45665E+02 4.31193E+01 0.00000E+00
 -1      2180 4.28882E+01 2.29865E+01 0.00000E+00
 -1      2181 4.05783E+01 1.55902E+01 0.00000E+00
 -1      2182 4.22520E+01 2.50687E+01 0.00000E+00
 -1      2183 4.13448E+01 2.68483E+01 0.00000E+00
 -1      2184 4.00899E+01 2.86457E+01 0.00000E+00
 -1      2185 3.64495E+01 3.09548E+01 0.00000E+00
 -1      2186 3.24354E+01 3.15595E+01 0.00000E+00
 -1      2187 2.80963E+01 3.00643E+01 0.00000E+00
 -1      2188 2.53189E+01 2.69455E+01 0.00000E+00
 -1      2189 2.44927E+01 2.67364E+01 0.00000E+00
 -1      2190 2.51324E+01 2.77473E+01 0.00000E+00
 -1      2191 2.39271E+01 2.31913E+01 0.00000E+00
 -1      2192 2.39101E+01 2.11611E+01 0.00000E+00
 -1      2193 2.41940E+01 1.92306E+01 0.00000E+00
 -1      2194 2.49354E+01 1.74483E+01 0.00000E+00
 -1      2195 2.61044E+01 1.57987E+01 0.00000E+00
 -1      2196 2.74890E+01 1.42622E+01 0.00000E+00
 -1      2197 2.91965E+01 1.31602E+01 0.00000E+00
 -1      2198 3.26962E+01 1.17233E+01 0.00000E+00
 -1      2199 3.33087E+01 1.22328E+01 0.00000E+00
 -1      2200 3.39902E+01 1.15991E+01 0.00000E+00
 -1      2201 3.10777E+01 1.25558E+01 0.00000E+00
 -1      2202 3.01234E+01 3.11549E+01 0.00000E+00
 -1      2203 3.84509E+01 3.00536E+01 0.00000E+00
 -1      2204 1.07850E+01 5.30525E+00 0.00000E+00
 -1      2205 9.28500E+00 5.30525E+00 0.00000E+00
 -1      2206 6.49500E+00 3.01125E+01 0.00000E+00
 -1      2207 6.49500E+00 3.15875E+01 0.00000E+00
 -1      2208 6.49500E+00 3.30625E+01 0.00000E+00
 -1      2209 6.49500E+00 3.45375E+01 0.00000E+00
 -1      2210 7.79400E+00 3.23250E+01 0.00000E+00
 -1      2211 6.49500E+00 2.42125E+01 0.00000E+00
 -1      2212 6.49500E+00 2.56875E+01 0.00000E+00
 -1      2213 6.49500E+00 2.12625E+01 0.00000E+00
 -1      2214 6.49500E+00 2.27375E+01 0.00000E+00
 -1      2215 7.79400E+00 2.34750E+01 0.00000E+00
 -1      2216 6.49500E+00 1.83625E+01 0.00000E+00
 -1      2217 6.49500E+00 1.98125E+01 0.00000E+00
 -1      2218 7.79400E+00 2.05500E+01 0.00000E+00
 -1      2219 6.49500E+00 1.54125E+01 0.00000E+00
 -1      2220 6.49500E+00 1.68875E+01 0.00000E+00
 -1      2221 7.79400E+00 1.76250E+01 0.00000E+00
 -1      2222 6.49500E+00 1.24625E+01 0.00000E+00
 -1      2223 6.49500E+00 1.39375E+01 0.00000E+00
 -1      2224 7.79400E+00 1.46750E+01 0.00000E+00
 -1      2225 6.49500E+00 9.51250E+00 0.00000E+00
 -1      2226 6.49500E+00 1.09875E+01 0.00000E+00
 -1      2227 7.79400E+00 1.17250E+01 0.00000E+00
 -1      2228 1.37850E+01 5.30525E+00 0.00000E+00
 -1      2229 1.22850E+01 5.30525E+00 0.00000E+00
 -1      2230 1.15350E+01 6.60425E+00 0.00000E+00
 -1      2231 9.90000E+00 4.35050E+01 0.00000E+00
 -1      2232 1.14000E+01 4.35050E+01 0.00000E+00
 -1      2233 3.73102E+01 1.21369E+01 0.00000E+00
 -1      2234 3.81905E+01 1.26488E+01 0.00000E+00
 -1      2235 1.29000E+01 4.35050E+01 0.00000E+00
 -1      2236 1.44000E+01 4.35050E+01 0.00000E+00
 -1      2237 1.21500E+01 4.22060E+01 0.00000E+00
 -1      2238 1.59000E+01 4.35050E+01 0.00000E+00
 -1      2239 1.74000E+01 4.35050E+01 0.00000E+00
 -1      2240 1.51500E+01 4.22060E+01 0.00000E+00
 -1      2241 1.89000E+01 4.35050E+01 0.00000E+00
 -1      2242 2.04000E+01 4.35050E+01 0.00000E+00
 -1      2243 1.81500E+01 4.22060E+01 0.00000E+00
 -1      2244 2.19000E+01 4.35050E+01 0.00000E+00
 -1      2245 2.34000E+01 4.35050E+01 0.00000E+00
 -1      2246 2.11500E+01 4.22060E+01 0.00000E+00
 -1      2247 2.49000E+01 4.35050E+01 0.00000E+00
 -1      2248 2.64000E+01 4.35050E+01 0.00000E+00
 -1      2249 2.41500E+01 4.22060E+01 0.00000E+00
 -1      2250 2.79000E+01 4.35050E+01 0.00000E+00
 -1      2251 2.94000E+01 4.35050E+01 0.00000E+00
 -1      2252 2.71500E+01 4.22060E+01 0.00000E+00
 -1      2253 3.09000E+01 4.35050E+01 0.00000E+00
 -1      2254 3.24000E+01 4.35050E+01 0.00000E+00
 -1      2255 3.01500E+01 4.22060E+01 0.00000E+00
 -1      2256 3.39000E+01 4.35050E+01 0.00000E+00
 -1      2257 3.54000E+01 4.35050E+01 0.00000E+00
 -1      2258 3.31500E+01 4.22060E+01 0.00000E+00
 -1      2259 3.69000E+01 4.35050E+01 0.00000E+00
 -1      2260 3.84000E+01 4.35050E+01 0.00000E+00
 -1      2261 3.61500E+01 4.22060E+01 0.00000E+00
 -1      2262 3.99000E+01 4.35050E+01 0.00000E+00
 -1      2263 4.14000E+01 4.35050E+01 0.00000E+00
 -1      2264 3.91500E+01 4.22060E+01 0.00000E+00
 -1      2265 4.29000E+01 4.35050E+01 0.00000E+00
 -1      2266 4.44000E+01 4.35050E+01 0.00000E+00
 -1      2267 4.21500E+01 4.22060E+01 0.00000E+00
 -1      2268 4.59000E+01 4.35050E+01 0.00000E+00
 -1      2269 4.74000E+01 4.35050E+01 0.00000E+00
 -1      2270 4.51500E+01 4.22060E+01 0.00000E+00
 -1      2271 4.89000E+01 4.35050E+01 0.00000E+00
 -1      2272 5.04000E+01 4.35050E+01 0.00000E+00
 -1      2273 4.81500E+01 4.22060E+01 0.00000E+00
 -1      2274 5.19000E+01 4.35050E+01 0.00000E+00
 -1      2275 5.34000E+01 4.35050E+01 0.00000E+00
 -1      2276 5.11500E+01 4.22060E+01 0.00000E+00
 -1      2277 5.49000E+01 4.35050E+01 0.00000E+00
 -1      2278 5.64000E+01 4.35050E+01 0.00000E+00
 -1      2279 5.41500E+01 4.22060E+01 0.00000E+00
 -1      2280 5.79000E+01 4.35050E+01 0.00000E+00
 -1      2281 5.94000E+01 4.35050E+01 0.00000E+00
 -1      2282 5.71500E+01 4.22060E+01 0.00000E+00
 -1      2283 6.09000E+01 4.35050E+01 0.00000E+00
 -1      2284 6.24000E+01 4.35050E+01 0.00000E+00
 -1      2285 6.01500E+01 4.22060E+01 0.00000E+00
 -1      2286 6.39000E+01 4.35050E+01 0.00000E+00
 -1      2287 6.54000E+01 4.35050E+01 0.00000E+00
 -1      2288 6.31500E+01 4.22060E+01 0.00000E+00
 -1      2289 6.69000E+01 4.35050E+01 0.00000E+00
 -1      2290 6.84000E+01 4.35050E+01 0.00000E+00
 -1      2291 6.61500E+01 4.22060E+01 0.00000E+00
 -1      2292 6.99000E+01 4.35050E+01 0.00000E+00
 -1      2293 7.14000E+01 4.35050E+01 0.00000E+00
 -1      2294 6.91500E+01 4.22060E+01 0.00000E+00
 -1      2295 7.29000E+01 4.35050E+01 0.00000E+00
 -1      2296 7.44000E+01 4.35050E+01 0.00000E+00
 -1      2297 7.21500E+01 4.22060E+01 0.00000E+00
 -1      2298 7.59000E+01 4.35050E+01 0.00000E+00
 -1      2299 7.74000E+01 4.35050E+01 0.00000E+00
 -1      2300 7.51500E+01 4.22060E+01 0.00000E+00
 -1      2301 7.89000E+01 4.35050E+01 0.00000E+00
 -1      2302 8.04000E+01 4.35050E+01 0.00000E+00
 -1      2303 7.81500E+01 4.22060E+01 0.00000E+00
 -1      2304 8.19000E+01 4.35050E+01 0.00000E+00
 -1      2305 8.34000E+01 4.35050E+01 0.00000E+00
 -1      2306 8.11500E+01 4.22060E+01 0.00000E+00
 -1      2307 8.49000E+01 4.35050E+01 0.00000E+00
 -1      2308 8.64000E+01 4.35050E+01 0.00000E+00
 -1      2309 8.41500E+01 4.22060E+01 0.00000E+00
 -1      2310 8.79000E+01 4.35050E+01 0.00000E+00
 -1      2311 8.94000E+01 4.35050E+01 0.00000E+00
 -1      2312 8.71500E+01 4.22060E+01 0.00000E+00
 -1      2313 9.09000E+01 4.35050E+01 0.00000E+00
 -1      2314 9.24000E+01 4.35050E+01 0.00000E+00
 -1      2315 9.01500E+01 4.22060E+01 0.00000E+00
 -1      2316 9.39000E+01 4.35050E+01 0.00000E+00
 -1      2317 9.54000E+01 4.35050E+01 0.00000E+00
 -1      2318 9.31500E+01 4.22060E+01 0.00000E+00
 -1      2319 9.69000E+01 4.35050E+01 0.00000E+00
 -1      2320 9.84000E+01 4.35050E+01 0.00000E+00
 -1      2321 9.61500E+01 4.22060E+01 0.00000E+00
 -1      2322 9.99000E+01 4.35050E+01 0.00000E+00
 -1      2323 1.01400E+02 4.35050E+01 0.00000E+00
 -1      2324 9.91500E+01 4.22060E+01 0.00000E+00
 -1      2325 1.02900E+02 4.35050E+01 0.00000E+00
 -1      2326 1.04400E+02 4.35050E+01 0.00000E+00
 -1      2327 1.02150E+02 4.22060E+01 0.00000E+00
 -1      2328 1.05900E+02 4.35050E+01 0.00000E+00
 -1      2329 1.07400E+02 4.35050E+01 0.00000E+00
 -1      2330 1.05150E+02 4.22060E+01 0.00000E+00
 -1      2331 1.08900E+02 4.35050E+01 0.00000E+00
 -1      2332 1.10400E+02 4.35050E+01 0.00000E+00
 -1      2333 1.08150E+02 4.22060E+01 0.00000E+00
 -1      2334 1.11900E+02 4.35050E+01 0.00000E+00
 -1      2335 1.13400E+02 4.35050E+01 0.00000E+00
 -1      2336 1.11150E+02 4.22060E+01 0.00000E+00
 -1      2337 1.14900E+02 4.35050E+01 0.00000E+00
 -1      2338 1.16400E+02 4.35050E+01 0.00000E+00
 -1      2339 1.14150E+02 4.22060E+01 0.00000E+00
 -1      2340 1.17900E+02 4.35050E+01 0.00000E+00
 -1      2341 1.19400E+02 4.35050E+01 0.00000E+00
 -1      2342 1.17150E+02 4.22060E+01 0.00000E+00
 -1      2343 1.20900E+02 4.35050E+01 0.00000E+00
 -1      2344 1.22400E+02 4.35050E+01 0.00000E+00
 -1      2345 1.20150E+02 4.22060E+01 0.00000E+00
 -1      2346 1.23900E+02 4.35050E+01 0.00000E+00
 -1      2347 1.25400E+02 4.35050E+01 0.00000E+00
 -1      2348 1.23150E+02 4.22060E+01 0.00000E+00
 -1      2349 1.26900E+02 4.35050E+01 0.00000E+00
 -1      2350 1.28400E+02 4.35050E+01 0.00000E+00
 -1      2351 1.26150E+02 4.22060E+01 0.00000E+00
 -1      2352 1.29900E+02 4.35050E+01 0.00000E+00
 -1      2353 1.31400E+02 4.35050E+01 0.00000E+00
 -1      2354 1.29150E+02 4.22060E+01 0.00000E+00
 -1      2355 1.32900E+02 4.35050E+01 0.00000E+00
 -1      2356 1.34400E+02 4.35050E+01 0.00000E+00
 -1      2357 1.32150E+02 4.22060E+01 0.00000E+00
 -1      2358 1.35900E+02 4.35050E+01 0.00000E+00
 -1      2359 1.37400E+02 4.35050E+01 0.00000E+00
 -1      2360 1.35150E+02 4.22060E+01 0.00000E+00
 -1      2361 1.38900E+02 4.35050E+01 0.00000E+00
 -1      2362 1.40400E+02 4.35050E+01 0.00000E+00
 -1      2363 1.38150E+02 4.22060E+01 0.00000E+00
 -1      2364 1.97850E+01 5.30525E+00 0.00000E+00
 -1      2365 1.82850E+01 5.30525E+00 0.00000E+00
 -1      2366 2.27850E+01 5.30525E+00 0.00000E+00
 -1      2367 2.12850E+01 5.30525E+00 0.00000E+00
 -1      2368 2.05350E+01 6.60425E+00 0.00000E+00
 -1      2369 2.57850E+01 5.30525E+00 0.00000E+00
 -1      2370 2.42850E+01 5.30525E+00 0.00000E+00
 -1      2371 2.35350E+01 6.60425E+00 0.00000E+00
 -1      2372 2.87850E+01 5.30525E+00 0.00000E+00
 -1      2373 2.72850E+01 5.30525E+00 0.00000E+00
 -1      2374 2.65350E+01 6.60425E+00 0.00000E+00
 -1      2375 3.17850E+01 5.30525E+00 0.00000E+00
 -1      2376 3.02850E+01 5.30525E+00 0.00000E+00
 -1      2377 2.95350E+01 6.60425E+00 0.00000E+00
 -1      2378 3.47850E+01 5.30525E+00 0.00000E+00
 -1      2379 3.32850E+01 5.30525E+00 0.00000E+00
 -1      2380 3.25350E+01 6.60425E+00 0.00000E+00
 -1      2381 3.77850E+01 5.30525E+00 0.00000E+00
 -1      2382 3.62850E+01 5.30525E+00 0.00000E+00
 -1      2383 3.55350E+01 6.60425E+00 0.00000E+00
 -1      2384 4.07850E+01 5.30525E+00 0.00000E+00
 -1      2385 3.92850E+01 5.30525E+00 0.00000E+00
 -1      2386 3.85350E+01 6.60425E+00 0.00000E+00
 -1      2387 4.37850E+01 5.30525E+00 0.00000E+00
 -1      2388 4.22850E+01 5.30525E+00 0.00000E+00
 -1      2389 4.15350E+01 6.60425E+00 0.00000E+00
 -1      2390 4.67850E+01 5.30525E+00 0.00000E+00
 -1      2391 4.52850E+01 5.30525E+00 0.00000E+00
 -1      2392 4.45350E+01 6.60425E+00 0.00000E+00
 -1      2393 4.97850E+01 5.30525E+00 0.00000E+00
 -1      2394 4.82850E+01 5.30525E+00 0.00000E+00
 -1      2395 4.75350E+01 6.60425E+00 0.00000E+00
 -1      2396 5.27850E+01 5.30525E+00 0.00000E+00
 -1      2397 5.12850E+01 5.30525E+00 0.00000E+00
 -1      2398 5.05350E+01 6.60425E+00 0.00000E+00
 -1      2399 5.57850E+01 5.30525E+00 0.00000E+00
 -1      2400 5.42850E+01 5.30525E+00 0.00000E+00
 -1      2401 5.35350E+01 6.60425E+00 0.00000E+00
 -1      2402 5.87850E+01 5.30525E+00 0.00000E+00
 -1      2403 5.72850E+01 5.30525E+00 0.00000E+00
 -1      2404 5.65350E+01 6.60425E+00 0.00000E+00
 -1      2405 6.17850E+01 5.30525E+00 0.00000E+00
 -1      2406 6.02850E+01 5.30525E+00 0.00000E+00
 -1      2407 5.95350E+01 6.60425E+00 0.00000E+00
 -1      2408 6.47850E+01 5.30525E+00 0.00000E+00
 -1      2409 6.32850E+01 5.30525E+00 0.00000E+00
 -1      2410 6.25350E+01 6.60425E+00 0.00000E+00
 -1      2411 6.77850E+01 5.30525E+00 0.00000E+00
 -1      2412 6.62850E+01 5.30525E+00 0.00000E+00
 -1      2413 6.55350E+01 6.60425E+00 0.00000E+00
 -1      2414 7.07850E+01 5.30525E+00 0.00000E+00
 -1      2415 6.92850E+01 5.30525E+00 0.00000E+00
 -1      2416 6.85350E+01 6.60425E+00 0.00000E+00
 -1      2417 7.37850E+01 5.30525E+00 0.00000E+00
 -1      2418 7.22850E+01 5.30525E+00 0.00000E+00
 -1      2419 7.15350E+01 6.60425E+00 0.00000E+00
 -1      2420 7.67850E+01 5.30525E+00 0.00000E+00
 -1      2421 7.52850E+01 5.30525E+00 0.00000E+00
 -1      2422 7.45350E+01 6.60425E+00 0.00000E+00
 -1      2423 7.97850E+01 5.30525E+00 0.00000E+00
 -1      2424 7.82850E+01 5.30525E+00 0.00000E+00
 -1      2425 7.75350E+01 6.60425E+00 0.00000E+00
 -1      2426 8.27850E+01 5.30525E+00 0.00000E+00
 -1      2427 8.12850E+01 5.30525E+00 0.00000E+00
 -1      2428 8.05350E+01 6.60425E+00 0.00000E+00
 -1      2429 8.57850E+01 5.30525E+00 0.00000E+00
 -1      2430 8.42850E+01 5.30525E+00 0.00000E+00
 -1      2431 8.35350E+01 6.60425E+00 0.00000E+00
 -1      2432 8.87850E+01 5.30525E+00 0.00000E+00
 -1      2433 8.72850E+01 5.30525E+00 0.00000E+00
 -1      2434 8.65350E+01 6.60425E+00 0.00000E+00
 -1      2435 9.17850E+01 5.30525E+00 0.00000E+00
 -1      2436 9.02850E+01 5.30525E+00 0.00000E+00
 -1      2437 8.95350E+01 6.60425E+00 0.00000E+00
 -1      2438 9.47850E+01 5.30525E+00 0.00000E+00
 -1      2439 9.32850E+01 5.30525E+00 0.00000E+00
 -1      2440 9.25350E+01 6.60425E+00 0.00000E+00
 -1      2441 9.77850E+01 5.30525E+00 0.00000E+00
 -1      2442 9.62850E+01 5.30525E+00 0.00000E+00
 -1      2443 9.55350E+01 6.60425E+00 0.00000E+00
 -1      2444 1.00785E+02 5.30525E+00 0.00000E+00
 -1      2445 9.92850E+01 5.30525E+00 0.00000E+00
 -1      2446 9.85350E+01 6.60425E+00 0.00000E+00
 -1      2447 1.03785E+02 5.30525E+00 0.00000E+00
 -1      2448 1.02285E+02 5.30525E+00 0.00000E+00
 -1      2449 1.01535E+02 6.60425E+00 0.00000E+00
 -1      2450 1.06785E+02 5.30525E+00 0.00000E+00
 -1      2451 1.05285E+02 5.30525E+00 0.00000E+00
 -1      2452 1.04535E+02 6.60425E+00 0.00000E+00
 -1      2453 1.09785E+02 5.30525E+00 0.00000E+00
 -1      2454 1.08285E+02 5.30525E+00 0.00000E+00
 -1      2455 1.07535E+02 6.60425E+00 0.00000E+00
 -1      2456 1.12785E+02 5.30525E+00 0.00000E+00
 -1      2457 1.11285E+02 5.30525E+00 0.00000E+00
 -1      2458 1.10535E+02 6.60425E+00 0.00000E+00
 -1      2459 1.15785E+02 5.30525E+00 0.00000E+00
 -1      2460 1.14285E+02 5.30525E+00 0.00000E+00
 -1      2461 1.13535E+02 6.60425E+00 0.00000E+00
 -1      2462 1.18785E+02 5.30525E+00 0.00000E+00
 -1      2463 1.17285E+02 5.30525E+00 0.00000E+00
 -1      2464 1.16535E+02 6.60425E+00 0.00000E+00
 -1      2465 1.21785E+02 5.30525E+00 0.00000E+00
 -1      2466 1.20285E+02 5.30525E+00 0.00000E+00
 -1      2467 1.19535E+02 6.60425E+00 0.00000E+00
 -1      2468 1.24785E+02 5.30525E+00 0.00000E+00
 -1      2469 1.23285E+02 5.30525E+00 0.00000E+00
 -1      2470 1.22535E+02 6.60425E+00 0.00000E+00
 -1      2471 1.27785E+02 5.30525E+00 0.00000E+00
 -1      2472 1.26285E+02 5.30525E+00 0.00000E+00
 -1      2473 1.25535E+02 6.60425E+00 0.00000E+00
 -1      2474 1.30785E+02 5.30525E+00 0.00000E+00
 -1      2475 1.29285E+02 5.30525E+00 0.00000E+00
 -1      2476 1.28535E+02 6.60425E+00 0.00000E+00
 -1      2477 1.33785E+02 5.30525E+00 0.00000E+00
 -1      2478 1.32285E+02 5.30525E+00 0.00000E+00
 -1      2479 1.31535E+02 6.60425E+00 0.00000E+00
 -1      2480 1.36785E+02 5.30525E+00 0.00000E+00
 -1      2481 1.35285E+02 5.30525E+00 0.00000E+00
 -1      2482 1.34535E+02 6.60425E+00 0.00000E+00
 -1      2483 1.39785E+02 5.30525E+00 0.00000E+00
 -1      2484 1.38285E+02 5.30525E+00 0.00000E+00
 -1      2485 1.37535E+02 6.60425E+00 0.00000E+00
 -1      2486 1.42785E+02 5.30525E+00 0.00000E+00
 -1      2487 1.41285E+02 5.30525E+00 0.00000E+00
 -1      2488 1.40535E+02 6.60425E+00 0.00000E+00
 -1      2489 1.44336E+02 5.26953E+00 0.00000E+00
 -1      2490 1.43505E+02 1.69125E+01 0.00000E+00
 -1      2491 1.43505E+02 1.54375E+01 0.00000E+00
 -1      2492 1.43505E+02 1.98625E+01 0.00000E+00
 -1      2493 1.43505E+02 1.83875E+01 0.00000E+00
 -1      2494 1.42206E+02 1.76500E+01 0.00000E+00
 -1      2495 1.43505E+02 1.10625E+01 0.00000E+00
 -1      2496 1.43505E+02 9.58750E+00 0.00000E+00
 -1      2497 1.43505E+02 1.39750E+01 0.00000E+00
 -1      2498 1.43505E+02 1.25250E+01 0.00000E+00
 -1      2499 1.42206E+02 1.17875E+01 0.00000E+00
 -1      2500 1.42206E+02 1.47125E+01 0.00000E+00
 -1      2501 1.43505E+02 2.28125E+01 0.00000E+00
 -1      2502 1.43505E+02 2.13375E+01 0.00000E+00
 -1      2503 1.42206E+02 2.06000E+01 0.00000E+00
 -1      2504 1.43505E+02 2.57625E+01 0.00000E+00
 -1      2505 1.43505E+02 2.42875E+01 0.00000E+00
 -1      2506 1.42206E+02 2.35500E+01 0.00000E+00
 -1      2507 1.43505E+02 2.87125E+01 0.00000E+00
 -1      2508 1.43505E+02 2.72375E+01 0.00000E+00
 -1      2509 1.42206E+02 2.65000E+01 0.00000E+00
 -1      2510 1.43505E+02 3.16125E+01 0.00000E+00
 -1      2511 1.43505E+02 3.01625E+01 0.00000E+00
 -1      2512 1.42206E+02 2.94250E+01 0.00000E+00
 -1      2513 1.43505E+02 3.45625E+01 0.00000E+00
 -1      2514 1.43505E+02 3.30875E+01 0.00000E+00
 -1      2515 1.42206E+02 3.23500E+01 0.00000E+00
 -1      2516 1.43505E+02 3.75125E+01 0.00000E+00
 -1      2517 1.43505E+02 3.60375E+01 0.00000E+00
 -1      2518 1.42206E+02 3.53000E+01 0.00000E+00
 -1      2519 1.43505E+02 4.04625E+01 0.00000E+00
 -1      2520 1.43505E+02 3.89875E+01 0.00000E+00
 -1      2521 1.42206E+02 3.82500E+01 0.00000E+00
 -1      2522 4.20970E+01 1.62197E+01 0.00000E+00
 -1      2523 4.26924E+01 1.69733E+01 0.00000E+00
 -1      2524 1.44321E+02 4.30606E+01 0.00000E+00
 -1      2525 4.38426E+01 2.25641E+01 0.00000E+00
 -1      2526 4.36180E+01 2.37327E+01 0.00000E+00
 -1      2527 1.67850E+01 5.30525E+00 0.00000E+00
 -1      2528 1.52850E+01 5.30525E+00 0.00000E+00
 -1      2529 1.75350E+01 6.60425E+00 0.00000E+00
 -1      2530 4.37574E+01 2.04187E+01 0.00000E+00
 -1      2531 4.38922E+01 2.12612E+01 0.00000E+00
 -1      2532 4.32397E+01 2.49640E+01 0.00000E+00
 -1      2533 4.28282E+01 2.58777E+01 0.00000E+00
 -1      2534 6.55950E+00 4.28890E+01 0.00000E+00
 -1      2535 8.53650E+00 4.32410E+01 0.00000E+00
 -1      2536 9.28650E+00 4.19420E+01 0.00000E+00
 -1      2537 6.55950E+00 4.14140E+01 0.00000E+00
 -1      2538 4.10008E+01 1.46512E+01 0.00000E+00
 -1      2539 4.15489E+01 1.54354E+01 0.00000E+00
 -1      2540 4.25195E+01 1.52806E+01 0.00000E+00
 -1      2541 3.28651E+01 3.24415E+01 0.00000E+00
 -1      2542 3.17847E+01 3.22938E+01 0.00000E+00
 -1      2543 2.32108E+01 2.38046E+01 0.00000E+00
 -1      2544 2.31035E+01 2.27320E+01 0.00000E+00
 -1      2545 6.49500E+00 2.71625E+01 0.00000E+00
 -1      2546 6.49500E+00 2.86375E+01 0.00000E+00
 -1      2547 7.79400E+00 2.93750E+01 0.00000E+00
 -1      2548 7.79400E+00 2.64250E+01 0.00000E+00
 -1      2549 3.04486E+01 1.18983E+01 0.00000E+00
 -1      2550 3.13856E+01 1.16995E+01 0.00000E+00
 -1      2551 3.52927E+01 1.14111E+01 0.00000E+00
 -1      2552 3.62108E+01 1.16680E+01 0.00000E+00
 -1      2553 3.05470E+01 3.22049E+01 0.00000E+00
 -1      2554 2.93153E+01 3.19480E+01 0.00000E+00
 -1      2555 2.84024E+01 1.26136E+01 0.00000E+00
 -1      2556 2.93467E+01 1.22080E+01 0.00000E+00
 -1      2557 2.65294E+01 1.39769E+01 0.00000E+00
 -1      2558 2.72926E+01 1.32805E+01 0.00000E+00
 -1      2559 2.51716E+01 1.57586E+01 0.00000E+00
 -1      2560 2.57930E+01 1.49185E+01 0.00000E+00
 -1      2561 2.39513E+01 1.73726E+01 0.00000E+00
 -1      2562 2.44989E+01 1.65631E+01 0.00000E+00
 -1      2563 2.32561E+01 1.95495E+01 0.00000E+00
 -1      2564 2.34499E+01 1.85767E+01 0.00000E+00
 -1      2565 2.30946E+01 2.15674E+01 0.00000E+00
 -1      2566 2.31848E+01 2.06097E+01 0.00000E+00
 -1      2567 2.37571E+01 2.58107E+01 0.00000E+00
 -1      2568 2.34346E+01 2.49753E+01 0.00000E+00
 -1      2569 2.64326E+01 2.94732E+01 0.00000E+00
 -1      2570 2.57615E+01 2.88361E+01 0.00000E+00
 -1      2571 3.93789E+01 3.07169E+01 0.00000E+00
 -1      2572 3.84990E+01 3.11933E+01 0.00000E+00
 -1      2573 2.80234E+01 3.11406E+01 0.00000E+00
 -1      2574 2.72280E+01 3.03069E+01 0.00000E+00
 -1      2575 2.63597E+01 3.05495E+01 0.00000E+00
 -1      2576 3.50052E+01 3.21816E+01 0.00000E+00
 -1      2577 3.40991E+01 3.23455E+01 0.00000E+00
 -1      2578 3.73775E+01 3.16180E+01 0.00000E+00
 -1      2579 3.62561E+01 3.20427E+01 0.00000E+00
 -1      2580 3.83056E+01 3.22813E+01 0.00000E+00
 -1      2581 4.11343E+01 2.87217E+01 0.00000E+00
 -1      2582 4.03751E+01 2.96532E+01 0.00000E+00
 -1      2583 4.23325E+01 2.67436E+01 0.00000E+00
 -1      2584 4.18368E+01 2.76095E+01 0.00000E+00
 -1      2585 4.33201E+01 2.66389E+01 0.00000E+00
 -1      2586 4.32313E+01 1.81675E+01 0.00000E+00
 -1      2587 4.34944E+01 1.92931E+01 0.00000E+00
 -1      2588 4.44085E+01 1.95789E+01 0.00000E+00
 -1      2589 8.07525E+00 5.11044E+00 0.00000E+00
 -1      2590 6.57525E+00 5.11044E+00 0.00000E+00
 -1      2591 6.40575E+00 6.01981E+00 0.00000E+00
 -1      2592 8.82525E+00 6.40944E+00 0.00000E+00
 -1      2593 3.91058E+01 1.32287E+01 0.00000E+00
 -1      2594 4.00211E+01 1.38087E+01 0.00000E+00
 -1      2595 3.90967E+01 1.22314E+01 0.00000E+00
 -1      2596 3.14380E+01 1.04082E+01 0.00000E+00
 -1      2597 3.20671E+01 1.10658E+01 0.00000E+00
 -1      2598 3.27486E+01 1.04321E+01 0.00000E+00
 -1      2599 7.79400E+00 3.52687E+01 0.00000E+00
 -1      2600 6.49500E+00 3.60062E+01 0.00000E+00
 -1      2601 6.49500E+00 3.74750E+01 0.00000E+00
 -1      2602 1.45350E+01 6.60425E+00 0.00000E+00
 -1      2603 6.40575E+00 7.49481E+00 0.00000E+00
 -1      2604 4.09917E+01 1.36539E+01 0.00000E+00
 -1      2605 2.84470E+01 3.21906E+01 0.00000E+00
 -1      2606 2.75787E+01 3.24332E+01 0.00000E+00
 -1      2607 2.88707E+01 3.32406E+01 0.00000E+00
 -1      2608 4.41941E+01 2.45417E+01 0.00000E+00
 -1      2609 4.04232E+01 3.07929E+01 0.00000E+00
 -1      2610 1.43586E+02 6.56853E+00 0.00000E+00
 -1      2611 1.43419E+02 7.72713E+00 0.00000E+00
 -1      2612 3.34484E+01 3.30798E+01 0.00000E+00
 -1      2613 4.36066E+01 1.72591E+01 0.00000E+00
 -1      2614 3.09767E+01 3.30869E+01 0.00000E+00
 -1      2615 1.42758E+02 4.35929E+01 0.00000E+00
 -1      2616 1.43241E+02 4.17323E+01 0.00000E+00
 -1      2617 1.41942E+02 4.09948E+01 0.00000E+00
 -1      2618 1.41414E+02 4.35342E+01 0.00000E+00
 -1      2619 2.35706E+01 2.66125E+01 0.00000E+00
 -1      2620 4.46220E+01 2.20074E+01 0.00000E+00
 -1      2621 7.70475E+00 8.23231E+00 0.00000E+00
 -1      2622 2.23783E+01 2.21806E+01 0.00000E+00
 -1      2623 2.24407E+01 1.99558E+01 0.00000E+00
 -1      2624 2.26110E+01 2.45160E+01 0.00000E+00
 -1      2625 2.30134E+01 1.76915E+01 0.00000E+00
 -1      2626 2.41875E+01 1.56829E+01 0.00000E+00
 -1      2627 2.55966E+01 1.39368E+01 0.00000E+00
 -1      2628 2.74428E+01 1.23283E+01 0.00000E+00
 -1      2629 2.49353E+01 2.86270E+01 0.00000E+00
 -1      2630 2.41091E+01 2.84180E+01 0.00000E+00
 -1      2631 2.47381E+01 2.95067E+01 0.00000E+00
 -1      2632 6.55950E+00 3.99453E+01 0.00000E+00
 -1      2633 3.70821E+01 1.11826E+01 0.00000E+00
 -1      2634 3.46803E+01 1.09017E+01 0.00000E+00
 -1      2635 3.53703E+01 1.02042E+01 0.00000E+00
 -1      2636 3.40678E+01 1.03922E+01 0.00000E+00
 -1      2637 2.96545E+01 1.13516E+01 0.00000E+00
 -1      2638 3.59333E+01 3.28449E+01 0.00000E+00
 -1      2639 4.21219E+01 2.86170E+01 0.00000E+00
 -1      2640 1.42120E+02 8.46463E+00 0.00000E+00
 -1      2641 1.40664E+02 4.22352E+01 0.00000E+00
 -1      2642 9.09300E+00 1.98250E+01 0.00000E+00
 -1      2643 9.09300E+00 2.12750E+01 0.00000E+00
 -1      2644 9.09300E+00 2.27500E+01 0.00000E+00
 -1      2645 9.09300E+00 2.42250E+01 0.00000E+00
 -1      2646 1.03920E+01 2.20250E+01 0.00000E+00
 -1      2647 9.09300E+00 1.39375E+01 0.00000E+00
 -1      2648 9.09300E+00 1.54125E+01 0.00000E+00
 -1      2649 9.09300E+00 1.09875E+01 0.00000E+00
 -1      2650 9.09300E+00 1.24625E+01 0.00000E+00
 -1      2651 1.03920E+01 1.32000E+01 0.00000E+00
 -1      2652 1.22850E+01 7.90325E+00 0.00000E+00
 -1      2653 1.07850E+01 7.90325E+00 0.00000E+00
 -1      2654 2.15671E+01 2.27692E+01 0.00000E+00
 -1      2655 2.15582E+01 2.16045E+01 0.00000E+00
 -1      2656 3.90980E+01 1.12171E+01 0.00000E+00
 -1      2657 4.00133E+01 1.17970E+01 0.00000E+00
 -1      2658 4.43122E+01 2.66320E+01 0.00000E+00
 -1      2659 4.38165E+01 2.74979E+01 0.00000E+00
 -1      2660 1.52850E+01 7.90325E+00 0.00000E+00
 -1      2661 1.37850E+01 7.90325E+00 0.00000E+00
 -1      2662 1.30350E+01 9.20225E+00 0.00000E+00
 -1      2663 3.92591E+01 3.31059E+01 0.00000E+00
 -1      2664 3.81376E+01 3.35307E+01 0.00000E+00
 -1      2665 1.44000E+01 4.09070E+01 0.00000E+00
 -1      2666 1.59000E+01 4.09070E+01 0.00000E+00
 -1      2667 1.74000E+01 4.09070E+01 0.00000E+00
 -1      2668 1.89000E+01 4.09070E+01 0.00000E+00
 -1      2669 1.66500E+01 3.96080E+01 0.00000E+00
 -1      2670 2.04000E+01 4.09070E+01 0.00000E+00
 -1      2671 2.19000E+01 4.09070E+01 0.00000E+00
 -1      2672 1.96500E+01 3.96080E+01 0.00000E+00
 -1      2673 2.34000E+01 4.09070E+01 0.00000E+00
 -1      2674 2.49000E+01 4.09070E+01 0.00000E+00
 -1      2675 2.26500E+01 3.96080E+01 0.00000E+00
 -1      2676 2.64000E+01 4.09070E+01 0.00000E+00
 -1      2677 2.79000E+01 4.09070E+01 0.00000E+00
 -1      2678 2.56500E+01 3.96080E+01 0.00000E+00
 -1      2679 2.94000E+01 4.09070E+01 0.00000E+00
 -1      2680 3.09000E+01 4.09070E+01 0.00000E+00
 -1      2681 2.86500E+01 3.96080E+01 0.00000E+00
 -1      2682 3.24000E+01 4.09070E+01 0.00000E+00
 -1      2683 3.39000E+01 4.09070E+01 0.00000E+00
 -1      2684 3.16500E+01 3.96080E+01 0.00000E+00
 -1      2685 3.54000E+01 4.09070E+01 0.00000E+00
 -1      2686 3.69000E+01 4.09070E+01 0.00000E+00
 -1      2687 3.46500E+01 3.96080E+01 0.00000E+00
 -1      2688 3.84000E+01 4.09070E+01 0.00000E+00
 -1      2689 3.99000E+01 4.09070E+01 0.00000E+00
 -1      2690 3.76500E+01 3.96080E+01 0.00000E+00
 -1      2691 4.14000E+01 4.09070E+01 0.00000E+00
 -1      2692 4.29000E+01 4.09070E+01 0.00000E+00
 -1      2693 4.06500E+01 3.96080E+01 0.00000E+00
 -1      2694 4.44000E+01 4.09070E+01 0.00000E+00
 -1      2695 4.59000E+01 4.09070E+01 0.00000E+00
 -1      2696 4.36500E+01 3.96080E+01 0.00000E+00
 -1      2697 4.74000E+01 4.09070E+01 0.00000E+00
 -1      2698 4.89000E+01 4.09070E+01 0.00000E+00
 -1      2699 4.66500E+01 3.96080E+01 0.00000E+00
 -1      2700 5.04000E+01 4.09070E+01 0.00000E+00
 -1      2701 5.19000E+01 4.09070E+01 0.00000E+00
 -1      2702 4.96500E+01 3.96080E+01 0.00000E+00
 -1      2703 5.34000E+01 4.09070E+01 0.00000E+00
 -1      2704 5.49000E+01 4.09070E+01 0.00000E+00
 -1      2705 5.26500E+01 3.96080E+01 0.00000E+00
 -1      2706 5.64000E+01 4.09070E+01 0.00000E+00
 -1      2707 5.79000E+01 4.09070E+01 0.00000E+00
 -1      2708 5.56500E+01 3.96080E+01 0.00000E+00
 -1      2709 5.94000E+01 4.09070E+01 0.00000E+00
 -1      2710 6.09000E+01 4.09070E+01 0.00000E+00
 -1      2711 5.86500E+01 3.96080E+01 0.00000E+00
 -1      2712 6.24000E+01 4.09070E+01 0.00000E+00
 -1      2713 6.39000E+01 4.09070E+01 0.00000E+00
 -1      2714 6.16500E+01 3.96080E+01 0.00000E+00
 -1      2715 6.54000E+01 4.09070E+01 0.00000E+00
 -1      2716 6.69000E+01 4.09070E+01 0.00000E+00
 -1      2717 6.46500E+01 3.96080E+01 0.00000E+00
 -1      2718 6.84000E+01 4.09070E+01 0.00000E+00
 -1      2719 6.99000E+01 4.09070E+01 0.00000E+00
 -1      2720 6.76500E+01 3.96080E+01 0.00000E+00
 -1      2721 7.14000E+01 4.09070E+01 0.00000E+00
 -1      2722 7.29000E+01 4.09070E+01 0.00000E+00
 -1      2723 7.06500E+01 3.96080E+01 0.00000E+00
 -1      2724 7.44000E+01 4.09070E+01 0.00000E+00
 -1      2725 7.59000E+01 4.09070E+01 0.00000E+00
 -1      2726 7.36500E+01 3.96080E+01 0.00000E+00
 -1      2727 7.74000E+01 4.09070E+01 0.00000E+00
 -1      2728 7.89000E+01 4.09070E+01 0.00000E+00
 -1      2729 7.66500E+01 3.96080E+01 0.00000E+00
 -1      2730 8.04000E+01 4.09070E+01 0.00000E+00
 -1      2731 8.19000E+01 4.09070E+01 0.00000E+00
 -1      2732 7.96500E+01 3.96080E+01 0.00000E+00
 -1      2733 8.34000E+01 4.09070E+01 0.00000E+00
 -1      2734 8.49000E+01 4.09070E+01 0.00000E+00
 -1      2735 8.26500E+01 3.96080E+01 0.00000E+00
 -1      2736 8.64000E+01 4.09070E+01 0.00000E+00
 -1      2737 8.79000E+01 4.09070E+01 0.00000E+00
 -1      2738 8.56500E+01 3.96080E+01 0.00000E+00
 -1      2739 8.94000E+01 4.09070E+01 0.00000E+00
 -1      2740 9.09000E+01 4.09070E+01 0.00000E+00
 -1      2741 8.86500E+01 3.96080E+01 0.00000E+00
 -1      2742 9.24000E+01 4.09070E+01 0.00000E+00
 -1      2743 9.39000E+01 4.09070E+01 0.00000E+00
 -1      2744 9.16500E+01 3.96080E+01 0.00000E+00
 -1      2745 9.54000E+01 4.09070E+01 0.00000E+00
 -1      2746 9.69000E+01 4.09070E+01 0.00000E+00
 -1      2747 9.46500E+01 3.96080E+01 0.00000E+00
 -1      2748 9.84000E+01 4.09070E+01 0.00000E+00
 -1      2749 9.99000E+01 4.09070E+01 0.00000E+00
 -1      2750 9.76500E+01 3.96080E+01 0.00000E+00
 -1      2751 1.01400E+02 4.09070E+01 0.00000E+00
 -1      2752 1.02900E+02 4.09070E+01 0.00000E+00
 -1      2753 1.00650E+02 3.96080E+01 0.00000E+00
 -1      2754 1.04400E+02 4.09070E+01 0.00000E+00
 -1      2755 1.05900E+02 4.09070E+01 0.00000E+00
 -1      2756 1.03650E+02 3.96080E+01 0.00000E+00
 -1      2757 1.07400E+02 4.09070E+01 0.00000E+00
 -1      2758 1.08900E+02 4.09070E+01 0.00000E+00
 -1      2759 1.06650E+02 3.96080E+01 0.00000E+00
 -1      2760 1.10400E+02 4.09070E+01 0.00000E+00
 -1      2761 1.11900E+02 4.09070E+01 0.00000E+00
 -1      2762 1.09650E+02 3.96080E+01 0.00000E+00
 -1      2763 1.13400E+02 4.09070E+01 0.00000E+00
 -1      2764 1.14900E+02 4.09070E+01 0.00000E+00
 -1      2765 1.12650E+02 3.96080E+01 0.00000E+00
 -1      2766 1.16400E+02 4.09070E+01 0.00000E+00
 -1      2767 1.17900E+02 4.09070E+01 0.00000E+00
 -1      2768 1.15650E+02 3.96080E+01 0.00000E+00
 -1      2769 1.19400E+02 4.09070E+01 0.00000E+00
 -1      2770 1.20900E+02 4.09070E+01 0.00000E+00
 -1      2771 1.18650E+02 3.96080E+01 0.00000E+00
 -1      2772 1.22400E+02 4.09070E+01 0.00000E+00
 -1      2773 1.23900E+02 4.09070E+01 0.00000E+00
 -1      2774 1.21650E+02 3.96080E+01 0.00000E+00
 -1      2775 1.25400E+02 4.09070E+01 0.00000E+00
 -1      2776 1.26900E+02 4.09070E+01 0.00000E+00
 -1      2777 1.24650E+02 3.96080E+01 0.00000E+00
 -1      2778 1.28400E+02 4.09070E+01 0.00000E+00
 -1      2779 1.29900E+02 4.09070E+01 0.00000E+00
 -1      2780 1.27650E+02 3.96080E+01 0.00000E+00
 -1      2781 1.31400E+02 4.09070E+01 0.00000E+00
 -1      2782 1.32900E+02 4.09070E+01 0.00000E+00
 -1      2783 1.30650E+02 3.96080E+01 0.00000E+00
 -1      2784 1.34400E+02 4.09070E+01 0.00000E+00
 -1      2785 1.35900E+02 4.09070E+01 0.00000E+00
 -1      2786 1.33650E+02 3.96080E+01 0.00000E+00
 -1      2787 1.37400E+02 4.09070E+01 0.00000E+00
 -1      2788 1.38900E+02 4.09070E+01 0.00000E+00
 -1      2789 1.36650E+02 3.96080E+01 0.00000E+00
 -1      2790 2.42850E+01 7.90325E+00 0.00000E+00
 -1      2791 2.27850E+01 7.90325E+00 0.00000E+00
 -1      2792 2.32014E+01 2.76610E+01 0.00000E+00
 -1      2793 2.24658E+01 2.67353E+01 0.00000E+00
 -1      2794 2.12850E+01 7.90325E+00 0.00000E+00
 -1      2795 1.97850E+01 7.90325E+00 0.00000E+00
 -1      2796 2.20350E+01 9.20225E+00 0.00000E+00
 -1      2797 3.02850E+01 7.90325E+00 0.00000E+00
 -1      2798 2.87850E+01 7.90325E+00 0.00000E+00
 -1      2799 3.58964E+01 8.14948E+00 0.00000E+00
 -1      2800 3.43964E+01 8.14948E+00 0.00000E+00
 -1      2801 3.92850E+01 7.71316E+00 0.00000E+00
 -1      2802 3.77850E+01 7.71316E+00 0.00000E+00
 -1      2803 4.15248E+01 8.69345E+00 0.00000E+00
 -1      2804 4.00248E+01 8.69345E+00 0.00000E+00
 -1      2805 4.52850E+01 7.90325E+00 0.00000E+00
 -1      2806 4.37850E+01 7.90325E+00 0.00000E+00
 -1      2807 4.82850E+01 7.90325E+00 0.00000E+00
 -1      2808 4.67850E+01 7.90325E+00 0.00000E+00
 -1      2809 4.60350E+01 9.20225E+00 0.00000E+00
 -1      2810 5.12850E+01 7.90325E+00 0.00000E+00
 -1      2811 4.97850E+01 7.90325E+00 0.00000E+00
 -1      2812 4.90350E+01 9.20225E+00 0.00000E+00
 -1      2813 5.42850E+01 7.90325E+00 0.00000E+00
 -1      2814 5.27850E+01 7.90325E+00 0.00000E+00
 -1      2815 5.20350E+01 9.20225E+00 0.00000E+00
 -1      2816 5.72850E+01 7.90325E+00 0.00000E+00
 -1      2817 5.57850E+01 7.90325E+00 0.00000E+00
 -1      2818 5.50350E+01 9.20225E+00 0.00000E+00
 -1      2819 6.02850E+01 7.90325E+00 0.00000E+00
 -1      2820 5.87850E+01 7.90325E+00 0.00000E+00
 -1      2821 5.80350E+01 9.20225E+00 0.00000E+00
 -1      2822 6.32850E+01 7.90325E+00 0.00000E+00
 -1      2823 6.17850E+01 7.90325E+00 0.00000E+00
 -1      2824 6.10350E+01 9.20225E+00 0.00000E+00
 -1      2825 6.62850E+01 7.90325E+00 0.00000E+00
 -1      2826 6.47850E+01 7.90325E+00 0.00000E+00
 -1      2827 6.40350E+01 9.20225E+00 0.00000E+00
 -1      2828 6.92850E+01 7.90325E+00 0.00000E+00
 -1      2829 6.77850E+01 7.90325E+00 0.00000E+00
 -1      2830 6.70350E+01 9.20225E+00 0.00000E+00
 -1      2831 7.22850E+01 7.90325E+00 0.00000E+00
 -1      2832 7.07850E+01 7.90325E+00 0.00000E+00
 -1      2833 7.00350E+01 9.20225E+00 0.00000E+00
 -1      2834 7.52850E+01 7.90325E+00 0.00000E+00
 -1      2835 7.37850E+01 7.90325E+00 0.00000E+00
 -1      2836 7.30350E+01 9.20225E+00 0.00000E+00
 -1      2837 7.82850E+01 7.90325E+00 0.00000E+00
 -1      2838 7.67850E+01 7.90325E+00 0.00000E+00
 -1      2839 7.60350E+01 9.20225E+00 0.00000E+00
 -1      2840 8.12850E+01 7.90325E+00 0.00000E+00
 -1      2841 7.97850E+01 7.90325E+00 0.00000E+00
 -1      2842 7.90350E+01 9.20225E+00 0.00000E+00
 -1      2843 8.42850E+01 7.90325E+00 0.00000E+00
 -1      2844 8.27850E+01 7.90325E+00 0.00000E+00
 -1      2845 8.20350E+01 9.20225E+00 0.00000E+00
 -1      2846 8.72850E+01 7.90325E+00 0.00000E+00
 -1      2847 8.57850E+01 7.90325E+00 0.00000E+00
 -1      2848 8.50350E+01 9.20225E+00 0.00000E+00
 -1      2849 9.02850E+01 7.90325E+00 0.00000E+00
 -1      2850 8.87850E+01 7.90325E+00 0.00000E+00
 -1      2851 8.80350E+01 9.20225E+00 0.00000E+00
 -1      2852 9.32850E+01 7.90325E+00 0.00000E+00
 -1      2853 9.17850E+01 7.90325E+00 0.00000E+00
 -1      2854 9.10350E+01 9.20225E+00 0.00000E+00
 -1      2855 9.62850E+01 7.90325E+00 0.00000E+00
 -1      2856 9.47850E+01 7.90325E+00 0.00000E+00
 -1      2857 9.40350E+01 9.20225E+00 0.00000E+00
 -1      2858 9.92850E+01 7.90325E+00 0.00000E+00
 -1      2859 9.77850E+01 7.90325E+00 0.00000E+00
 -1      2860 9.70350E+01 9.20225E+00 0.00000E+00
 -1      2861 1.02285E+02 7.90325E+00 0.00000E+00
 -1      2862 1.00785E+02 7.90325E+00 0.00000E+00
 -1      2863 1.00035E+02 9.20225E+00 0.00000E+00
 -1      2864 1.05285E+02 7.90325E+00 0.00000E+00
 -1      2865 1.03785E+02 7.90325E+00 0.00000E+00
 -1      2866 1.03035E+02 9.20225E+00 0.00000E+00
 -1      2867 1.08285E+02 7.90325E+00 0.00000E+00
 -1      2868 1.06785E+02 7.90325E+00 0.00000E+00
 -1      2869 1.06035E+02 9.20225E+00 0.00000E+00
 -1      2870 1.11285E+02 7.90325E+00 0.00000E+00
 -1      2871 1.09785E+02 7.90325E+00 0.00000E+00
 -1      2872 1.09035E+02 9.20225E+00 0.00000E+00
 -1      2873 1.14285E+02 7.90325E+00 0.00000E+00
 -1      2874 1.12785E+02 7.90325E+00 0.00000E+00
 -1      2875 1.12035E+02 9.20225E+00 0.00000E+00
 -1      2876 1.17285E+02 7.90325E+00 0.00000E+00
 -1      2877 1.15785E+02 7.90325E+00 0.00000E+00
 -1      2878 1.15035E+02 9.20225E+00 0.00000E+00
 -1      2879 1.20285E+02 7.90325E+00 0.00000E+00
 -1      2880 1.18785E+02 7.90325E+00 0.00000E+00
 -1      2881 1.18035E+02 9.20225E+00 0.00000E+00
 -1      2882 1.23285E+02 7.90325E+00 0.00000E+00
 -1      2883 1.21785E+02 7.90325E+00 0.00000E+00
 -1      2884 1.21035E+02 9.20225E+00 0.00000E+00
 -1      2885 1.26285E+02 7.90325E+00 0.00000E+00
 -1      2886 1.24785E+02 7.90325E+00 0.00000E+00
 -1      2887 1.24035E+02 9.20225E+00 0.00000E+00
 -1      2888 1.29285E+02 7.90325E+00 0.00000E+00
 -1      2889 1.27785E+02 7.90325E+00 0.00000E+00
 -1      2890 1.27035E+02 9.20225E+00 0.00000E+00
 -1      2891 1.32285E+02 7.90325E+00 0.00000E+00
 -1      2892 1.30785E+02 7.90325E+00 0.00000E+00
 -1      2893 1.30035E+02 9.20225E+00 0.00000E+00
 -1      2894 1.35285E+02 7.90325E+00 0.00000E+00
 -1      2895 1.33785E+02 7.90325E+00 0.00000E+00
 -1      2896 1.33035E+02 9.20225E+00 0.00000E+00
 -1      2897 1.38285E+02 7.90325E+00 0.00000E+00
 -1      2898 1.36785E+02 7.90325E+00 0.00000E+00
 -1      2899 1.36035E+02 9.20225E+00 0.00000E+00
 -1      2900 1.40953E+02 8.18394E+00 0.00000E+00
 -1      2901 1.39453E+02 8.18394E+00 0.00000E+00
 -1      2902 1.38703E+02 9.48294E+00 0.00000E+00
 -1      2903 1.41038E+02 1.00443E+01 0.00000E+00
 -1      2904 1.40907E+02 2.42875E+01 0.00000E+00
 -1      2905 1.40907E+02 2.28125E+01 0.00000E+00
 -1      2906 1.39914E+02 4.09362E+01 0.00000E+00
 -1      2907 1.40928E+02 4.09655E+01 0.00000E+00
 -1      2908 1.39164E+02 3.96372E+01 0.00000E+00
 -1      2909 1.40907E+02 1.83875E+01 0.00000E+00
 -1      2910 1.40907E+02 1.69125E+01 0.00000E+00
 -1      2911 1.40907E+02 2.72375E+01 0.00000E+00
 -1      2912 1.40907E+02 2.57625E+01 0.00000E+00
 -1      2913 1.39608E+02 2.50250E+01 0.00000E+00
 -1      2914 1.40907E+02 2.13375E+01 0.00000E+00
 -1      2915 1.40907E+02 1.98625E+01 0.00000E+00
 -1      2916 1.39608E+02 1.91250E+01 0.00000E+00
 -1      2917 1.39608E+02 2.20750E+01 0.00000E+00
 -1      2918 1.82850E+01 7.90325E+00 0.00000E+00
 -1      2919 1.67850E+01 7.90325E+00 0.00000E+00
 -1      2920 1.60350E+01 9.20225E+00 0.00000E+00
 -1      2921 1.90350E+01 9.20225E+00 0.00000E+00
 -1      2922 1.40907E+02 3.01375E+01 0.00000E+00
 -1      2923 1.40907E+02 2.86875E+01 0.00000E+00
 -1      2924 1.39608E+02 2.79500E+01 0.00000E+00
 -1      2925 1.40907E+02 3.30875E+01 0.00000E+00
 -1      2926 1.40907E+02 3.16125E+01 0.00000E+00
 -1      2927 1.39608E+02 3.08750E+01 0.00000E+00
 -1      2928 1.40907E+02 3.60375E+01 0.00000E+00
 -1      2929 1.40907E+02 3.45625E+01 0.00000E+00
 -1      2930 1.39608E+02 3.38250E+01 0.00000E+00
 -1      2931 4.11703E+01 1.24554E+01 0.00000E+00
 -1      2932 4.21500E+01 1.32979E+01 0.00000E+00
 -1      2933 4.50713E+01 1.88305E+01 0.00000E+00
 -1      2934 4.53343E+01 1.99561E+01 0.00000E+00
 -1      2935 8.85168E+00 4.05347E+01 0.00000E+00
 -1      2936 1.02152E+01 4.07987E+01 0.00000E+00
 -1      2937 4.42714E+01 1.62403E+01 0.00000E+00
 -1      2938 4.48104E+01 1.74345E+01 0.00000E+00
 -1      2939 2.15494E+01 2.04283E+01 0.00000E+00
 -1      2940 2.16207E+01 1.93681E+01 0.00000E+00
 -1      2941 1.41192E+02 3.96958E+01 0.00000E+00
 -1      2942 4.16084E+01 3.09045E+01 0.00000E+00
 -1      2943 4.06122E+01 3.19682E+01 0.00000E+00
 -1      2944 2.72850E+01 7.90325E+00 0.00000E+00
 -1      2945 2.57850E+01 7.90325E+00 0.00000E+00
 -1      2946 2.80350E+01 9.20225E+00 0.00000E+00
 -1      2947 1.15576E+01 4.08528E+01 0.00000E+00
 -1      2948 1.30576E+01 4.08528E+01 0.00000E+00
 -1      2949 1.38076E+01 3.95538E+01 0.00000E+00
 -1      2950 1.11228E+01 3.94455E+01 0.00000E+00
 -1      2951 4.29484E+01 1.43973E+01 0.00000E+00
 -1      2952 4.34965E+01 1.51815E+01 0.00000E+00
 -1      2953 3.72589E+01 9.76788E+00 0.00000E+00
 -1      2954 3.83582E+01 1.02368E+01 0.00000E+00
 -1      2955 9.09300E+00 1.68813E+01 0.00000E+00
 -1      2956 9.09300E+00 1.83563E+01 0.00000E+00
 -1      2957 1.03920E+01 1.90812E+01 0.00000E+00
 -1      2958 1.03920E+01 1.61437E+01 0.00000E+00
 -1      2959 4.52030E+01 2.41778E+01 0.00000E+00
 -1      2960 4.48247E+01 2.54092E+01 0.00000E+00
 -1      2961 9.09300E+00 3.15875E+01 0.00000E+00
 -1      2962 9.09300E+00 3.30625E+01 0.00000E+00
 -1      2963 2.90438E+01 1.04318E+01 0.00000E+00
 -1      2964 3.01458E+01 1.01221E+01 0.00000E+00
 -1      2965 2.64030E+01 1.18549E+01 0.00000E+00
 -1      2966 2.75128E+01 1.11879E+01 0.00000E+00
 -1      2967 2.44869E+01 1.38277E+01 0.00000E+00
 -1      2968 2.52233E+01 1.28861E+01 0.00000E+00
 -1      2969 2.31415E+01 1.54366E+01 0.00000E+00
 -1      2970 2.38142E+01 1.46322E+01 0.00000E+00
 -1      2971 2.34409E+01 1.35815E+01 0.00000E+00
 -1      2972 2.17161E+01 2.52939E+01 0.00000E+00
 -1      2973 2.14922E+01 2.41231E+01 0.00000E+00
 -1      2974 2.18937E+01 1.79317E+01 0.00000E+00
 -1      2975 2.23951E+01 1.67276E+01 0.00000E+00
 -1      2976 7.48818E+00 3.88019E+01 0.00000E+00
 -1      2977 4.56712E+01 2.13949E+01 0.00000E+00
 -1      2978 4.56216E+01 2.26978E+01 0.00000E+00
 -1      2979 3.41319E+01 3.38867E+01 0.00000E+00
 -1      2980 3.28980E+01 3.39828E+01 0.00000E+00
 -1      2981 3.66337E+01 3.36090E+01 0.00000E+00
 -1      2982 3.53828E+01 3.37479E+01 0.00000E+00
 -1      2983 3.48324E+01 3.46508E+01 0.00000E+00
 -1      2984 2.60157E+01 3.16740E+01 0.00000E+00
 -1      2985 2.52203E+01 3.08403E+01 0.00000E+00
 -1      2986 4.32691E+01 2.85636E+01 0.00000E+00
 -1      2987 4.25666E+01 2.96758E+01 0.00000E+00
 -1      2988 8.91450E+00 8.42712E+00 0.00000E+00
 -1      2989 3.15281E+01 3.40703E+01 0.00000E+00
 -1      2990 3.02904E+01 3.39813E+01 0.00000E+00
 -1      2991 9.09300E+00 3.45313E+01 0.00000E+00
 -1      2992 9.09300E+00 3.60000E+01 0.00000E+00
 -1      2993 1.03920E+01 3.37938E+01 0.00000E+00
 -1      2994 4.42611E+01 2.85567E+01 0.00000E+00
 -1      2995 1.03920E+01 2.49750E+01 0.00000E+00
 -1      2996 9.09300E+00 2.57000E+01 0.00000E+00
 -1      2997 9.09300E+00 2.71750E+01 0.00000E+00
 -1      2998 3.75872E+01 3.44336E+01 0.00000E+00
 -1      2999 2.07382E+01 2.10169E+01 0.00000E+00
 -1      3000 4.11716E+01 1.14410E+01 0.00000E+00
 -1      3001 2.43941E+01 3.06312E+01 0.00000E+00
 -1      3002 4.04442E+01 3.32176E+01 0.00000E+00
 -1      3003 4.02763E+01 3.44670E+01 0.00000E+00
 -1      3004 4.16294E+01 3.33292E+01 0.00000E+00
 -1      3005 2.94221E+01 3.42239E+01 0.00000E+00
 -1      3006 2.85538E+01 3.44666E+01 0.00000E+00
 -1      3007 2.99735E+01 3.52073E+01 0.00000E+00
 -1      3008 3.34387E+01 9.73464E+00 0.00000E+00
 -1      3009 4.53211E+01 2.62682E+01 0.00000E+00
 -1      3010 2.10024E+01 1.84042E+01 0.00000E+00
 -1      3011 2.20218E+01 1.56768E+01 0.00000E+00
 -1      3012 1.39608E+02 1.61875E+01 0.00000E+00
 -1      3013 1.40907E+02 1.54500E+01 0.00000E+00
 -1      3014 1.40907E+02 1.39875E+01 0.00000E+00
 -1      3015 2.50350E+01 9.20225E+00 0.00000E+00
 -1      3016 2.13469E+01 2.63424E+01 0.00000E+00
 -1      3017 2.06721E+01 2.35471E+01 0.00000E+00
 -1      3018 4.22748E+01 9.99245E+00 0.00000E+00
 -1      3019 2.52933E+01 1.17458E+01 0.00000E+00
 -1      3020 1.40973E+02 1.27472E+01 0.00000E+00
 -1      3021 1.40973E+02 1.12847E+01 0.00000E+00
 -1      3022 1.39805E+02 1.10040E+01 0.00000E+00
 -1      3023 1.39674E+02 1.34847E+01 0.00000E+00
 -1      3024 4.62522E+01 2.35654E+01 0.00000E+00
 -1      3025 4.57362E+01 1.78117E+01 0.00000E+00
 -1      3026 4.31269E+01 1.31988E+01 0.00000E+00
 -1      3027 1.41192E+02 3.82207E+01 0.00000E+00
 -1      3028 4.47003E+01 1.53569E+01 0.00000E+00
 -1      3029 4.63339E+01 2.06465E+01 0.00000E+00
 -1      3030 2.30043E+01 2.85407E+01 0.00000E+00
 -1      3031 4.27555E+01 3.08511E+01 0.00000E+00
 -1      3032 1.39529E+02 3.85602E+01 0.00000E+00
 -1      3033 1.40542E+02 3.71145E+01 0.00000E+00
 -1      3034 1.39243E+02 3.63770E+01 0.00000E+00
 -1      3035 1.38514E+02 3.85310E+01 0.00000E+00
 -1      3036 9.09300E+00 2.86437E+01 0.00000E+00
 -1      3037 9.09300E+00 3.01187E+01 0.00000E+00
 -1      3038 1.03920E+01 3.08563E+01 0.00000E+00
 -1      3039 1.03920E+01 2.79188E+01 0.00000E+00
 -1      3040 8.78718E+00 3.80644E+01 0.00000E+00
 -1      3041 3.92748E+01 9.80235E+00 0.00000E+00
 -1      3042 3.08273E+01 9.48840E+00 0.00000E+00
 -1      3043 3.22116E+01 3.48772E+01 0.00000E+00
 -1      3044 2.64393E+01 3.27240E+01 0.00000E+00
 -1      3045 2.52999E+01 3.30147E+01 0.00000E+00
 -1      3046 2.68629E+01 3.37739E+01 0.00000E+00
 -1      3047 9.66450E+00 9.72612E+00 0.00000E+00
 -1      3048 1.09635E+01 1.04636E+01 0.00000E+00
 -1      3049 1.24635E+01 1.04636E+01 0.00000E+00
 -1      3050 1.18920E+01 1.17250E+01 0.00000E+00
 -1      3051 1.39635E+01 1.04636E+01 0.00000E+00
 -1      3052 1.18920E+01 1.32000E+01 0.00000E+00
 -1      3053 1.97175E+01 2.16126E+01 0.00000E+00
 -1      3054 1.97087E+01 2.04364E+01 0.00000E+00
 -1      3055 1.00862E+01 3.73269E+01 0.00000E+00
 -1      3056 1.89000E+01 3.83090E+01 0.00000E+00
 -1      3057 2.04000E+01 3.83090E+01 0.00000E+00
 -1      3058 2.19000E+01 3.83090E+01 0.00000E+00
 -1      3059 2.34000E+01 3.83090E+01 0.00000E+00
 -1      3060 2.11500E+01 3.70100E+01 0.00000E+00
 -1      3061 2.49000E+01 3.83090E+01 0.00000E+00
 -1      3062 2.64000E+01 3.83090E+01 0.00000E+00
 -1      3063 2.41500E+01 3.70100E+01 0.00000E+00
 -1      3064 2.81276E+01 3.75290E+01 0.00000E+00
 -1      3065 2.96276E+01 3.75290E+01 0.00000E+00
 -1      3066 3.39000E+01 3.84153E+01 0.00000E+00
 -1      3067 3.54000E+01 3.84153E+01 0.00000E+00
 -1      3068 3.69000E+01 3.84153E+01 0.00000E+00
 -1      3069 3.84000E+01 3.84153E+01 0.00000E+00
 -1      3070 3.61500E+01 3.72226E+01 0.00000E+00
 -1      3071 3.99000E+01 3.84153E+01 0.00000E+00
 -1      3072 4.14000E+01 3.84153E+01 0.00000E+00
 -1      3073 3.91500E+01 3.72226E+01 0.00000E+00
 -1      3074 4.29000E+01 3.84153E+01 0.00000E+00
 -1      3075 4.44000E+01 3.84153E+01 0.00000E+00
 -1      3076 4.21500E+01 3.72226E+01 0.00000E+00
 -1      3077 4.59000E+01 3.84153E+01 0.00000E+00
 -1      3078 4.74000E+01 3.84153E+01 0.00000E+00
 -1      3079 4.51500E+01 3.72226E+01 0.00000E+00
 -1      3080 4.89000E+01 3.84153E+01 0.00000E+00
 -1      3081 5.04000E+01 3.84153E+01 0.00000E+00
 -1      3082 4.81500E+01 3.72226E+01 0.00000E+00
 -1      3083 5.19000E+01 3.84153E+01 0.00000E+00
 -1      3084 5.34000E+01 3.84153E+01 0.00000E+00
 -1      3085 5.11500E+01 3.72226E+01 0.00000E+00
 -1      3086 5.49000E+01 3.84153E+01 0.00000E+00
 -1      3087 5.64000E+01 3.84153E+01 0.00000E+00
 -1      3088 5.41500E+01 3.72226E+01 0.00000E+00
 -1      3089 5.79000E+01 3.84153E+01 0.00000E+00
 -1      3090 5.94000E+01 3.84153E+01 0.00000E+00
 -1      3091 5.71500E+01 3.72226E+01 0.00000E+00
 -1      3092 6.09000E+01 3.84153E+01 0.00000E+00
 -1      3093 6.24000E+01 3.84153E+01 0.00000E+00
 -1      3094 6.01500E+01 3.72226E+01 0.00000E+00
 -1      3095 6.39000E+01 3.84153E+01 0.00000E+00
 -1      3096 6.54000E+01 3.84153E+01 0.00000E+00
 -1      3097 6.31500E+01 3.72226E+01 0.00000E+00
 -1      3098 6.69000E+01 3.84153E+01 0.00000E+00
 -1      3099 6.84000E+01 3.84153E+01 0.00000E+00
 -1      3100 6.61500E+01 3.72226E+01 0.00000E+00
 -1      3101 6.99000E+01 3.84153E+01 0.00000E+00
 -1      3102 7.14000E+01 3.84153E+01 0.00000E+00
 -1      3103 6.91500E+01 3.72226E+01 0.00000E+00
 -1      3104 7.29000E+01 3.84153E+01 0.00000E+00
 -1      3105 7.44000E+01 3.84153E+01 0.00000E+00
 -1      3106 7.21500E+01 3.72226E+01 0.00000E+00
 -1      3107 7.59000E+01 3.84153E+01 0.00000E+00
 -1      3108 7.74000E+01 3.84153E+01 0.00000E+00
 -1      3109 7.51500E+01 3.72226E+01 0.00000E+00
 -1      3110 7.89000E+01 3.84153E+01 0.00000E+00
 -1      3111 8.04000E+01 3.84153E+01 0.00000E+00
 -1      3112 7.81500E+01 3.72226E+01 0.00000E+00
 -1      3113 8.19000E+01 3.84153E+01 0.00000E+00
 -1      3114 8.34000E+01 3.84153E+01 0.00000E+00
 -1      3115 8.11500E+01 3.72226E+01 0.00000E+00
 -1      3116 8.49000E+01 3.84153E+01 0.00000E+00
 -1      3117 8.64000E+01 3.84153E+01 0.00000E+00
 -1      3118 8.41500E+01 3.72226E+01 0.00000E+00
 -1      3119 8.79000E+01 3.84153E+01 0.00000E+00
 -1      3120 8.94000E+01 3.84153E+01 0.00000E+00
 -1      3121 8.71500E+01 3.72226E+01 0.00000E+00
 -1      3122 9.09000E+01 3.84153E+01 0.00000E+00
 -1      3123 9.24000E+01 3.84153E+01 0.00000E+00
 -1      3124 9.01500E+01 3.72226E+01 0.00000E+00
 -1      3125 9.39000E+01 3.84153E+01 0.00000E+00
 -1      3126 9.54000E+01 3.84153E+01 0.00000E+00
 -1      3127 9.31500E+01 3.72226E+01 0.00000E+00
 -1      3128 9.69000E+01 3.84153E+01 0.00000E+00
 -1      3129 9.84000E+01 3.84153E+01 0.00000E+00
 -1      3130 9.61500E+01 3.72226E+01 0.00000E+00
 -1      3131 9.99000E+01 3.84153E+01 0.00000E+00
 -1      3132 1.01400E+02 3.84153E+01 0.00000E+00
 -1      3133 9.91500E+01 3.72226E+01 0.00000E+00
 -1      3134 1.02900E+02 3.84153E+01 0.00000E+00
 -1      3135 1.04400E+02 3.84153E+01 0.00000E+00
 -1      3136 1.02150E+02 3.72226E+01 0.00000E+00
 -1      3137 1.05900E+02 3.84153E+01 0.00000E+00
 -1      3138 1.07400E+02 3.84153E+01 0.00000E+00
 -1      3139 1.05150E+02 3.72226E+01 0.00000E+00
 -1      3140 1.08900E+02 3.84153E+01 0.00000E+00
 -1      3141 1.10400E+02 3.84153E+01 0.00000E+00
 -1      3142 1.08150E+02 3.72226E+01 0.00000E+00
 -1      3143 1.11900E+02 3.84153E+01 0.00000E+00
 -1      3144 1.13400E+02 3.84153E+01 0.00000E+00
 -1      3145 1.11150E+02 3.72226E+01 0.00000E+00
 -1      3146 1.14900E+02 3.84153E+01 0.00000E+00
 -1      3147 1.16400E+02 3.84153E+01 0.00000E+00
 -1      3148 1.14150E+02 3.72226E+01 0.00000E+00
 -1      3149 1.17900E+02 3.84153E+01 0.00000E+00
 -1      3150 1.19400E+02 3.84153E+01 0.00000E+00
 -1      3151 1.17150E+02 3.72226E+01 0.00000E+00
 -1      3152 1.20900E+02 3.84153E+01 0.00000E+00
 -1      3153 1.22400E+02 3.84153E+01 0.00000E+00
 -1      3154 1.20150E+02 3.72226E+01 0.00000E+00
 -1      3155 1.23900E+02 3.84153E+01 0.00000E+00
 -1      3156 1.25400E+02 3.84153E+01 0.00000E+00
 -1      3157 1.23150E+02 3.72226E+01 0.00000E+00
 -1      3158 1.26900E+02 3.84153E+01 0.00000E+00
 -1      3159 1.28400E+02 3.84153E+01 0.00000E+00
 -1      3160 1.26150E+02 3.72226E+01 0.00000E+00
 -1      3161 1.29900E+02 3.84153E+01 0.00000E+00
 -1      3162 1.31400E+02 3.84153E+01 0.00000E+00
 -1      3163 1.29150E+02 3.72226E+01 0.00000E+00
 -1      3164 1.32900E+02 3.84153E+01 0.00000E+00
 -1      3165 1.34400E+02 3.84153E+01 0.00000E+00
 -1      3166 1.32150E+02 3.72226E+01 0.00000E+00
 -1      3167 1.35707E+02 3.84732E+01 0.00000E+00
 -1      3168 1.37207E+02 3.84732E+01 0.00000E+00
 -1      3169 1.37572E+02 3.73962E+01 0.00000E+00
 -1      3170 1.34957E+02 3.72805E+01 0.00000E+00
 -1      3171 1.38309E+02 2.86750E+01 0.00000E+00
 -1      3172 1.38309E+02 2.72250E+01 0.00000E+00
 -1      3173 3.32850E+01 7.79694E+00 0.00000E+00
 -1      3174 3.17850E+01 7.79694E+00 0.00000E+00
 -1      3175 3.66464E+01 9.25839E+00 0.00000E+00
 -1      3176 4.67850E+01 1.04787E+01 0.00000E+00
 -1      3177 4.52850E+01 1.04787E+01 0.00000E+00
 -1      3178 5.57850E+01 1.05013E+01 0.00000E+00
 -1      3179 5.42850E+01 1.05013E+01 0.00000E+00
 -1      3180 5.87850E+01 1.05013E+01 0.00000E+00
 -1      3181 5.72850E+01 1.05013E+01 0.00000E+00
 -1      3182 5.65350E+01 1.18003E+01 0.00000E+00
 -1      3183 6.17850E+01 1.05013E+01 0.00000E+00
 -1      3184 6.02850E+01 1.05013E+01 0.00000E+00
 -1      3185 5.95350E+01 1.18003E+01 0.00000E+00
 -1      3186 6.47850E+01 1.05013E+01 0.00000E+00
 -1      3187 6.32850E+01 1.05013E+01 0.00000E+00
 -1      3188 6.25350E+01 1.18003E+01 0.00000E+00
 -1      3189 6.77850E+01 1.05013E+01 0.00000E+00
 -1      3190 6.62850E+01 1.05013E+01 0.00000E+00
 -1      3191 6.55350E+01 1.18003E+01 0.00000E+00
 -1      3192 7.07850E+01 1.05013E+01 0.00000E+00
 -1      3193 6.92850E+01 1.05013E+01 0.00000E+00
 -1      3194 6.85350E+01 1.18003E+01 0.00000E+00
 -1      3195 7.37850E+01 1.05013E+01 0.00000E+00
 -1      3196 7.22850E+01 1.05013E+01 0.00000E+00
 -1      3197 7.15350E+01 1.18003E+01 0.00000E+00
 -1      3198 7.67850E+01 1.05013E+01 0.00000E+00
 -1      3199 7.52850E+01 1.05013E+01 0.00000E+00
 -1      3200 7.45350E+01 1.18003E+01 0.00000E+00
 -1      3201 7.97850E+01 1.05013E+01 0.00000E+00
 -1      3202 7.82850E+01 1.05013E+01 0.00000E+00
 -1      3203 7.75350E+01 1.18003E+01 0.00000E+00
 -1      3204 8.27850E+01 1.05013E+01 0.00000E+00
 -1      3205 8.12850E+01 1.05013E+01 0.00000E+00
 -1      3206 8.05350E+01 1.18003E+01 0.00000E+00
 -1      3207 8.57850E+01 1.05013E+01 0.00000E+00
 -1      3208 8.42850E+01 1.05013E+01 0.00000E+00
 -1      3209 8.35350E+01 1.18003E+01 0.00000E+00
 -1      3210 8.87850E+01 1.05013E+01 0.00000E+00
 -1      3211 8.72850E+01 1.05013E+01 0.00000E+00
 -1      3212 8.65350E+01 1.18003E+01 0.00000E+00
 -1      3213 9.17850E+01 1.05013E+01 0.00000E+00
 -1      3214 9.02850E+01 1.05013E+01 0.00000E+00
 -1      3215 8.95350E+01 1.18003E+01 0.00000E+00
 -1      3216 9.47850E+01 1.05013E+01 0.00000E+00
 -1      3217 9.32850E+01 1.05013E+01 0.00000E+00
 -1      3218 9.25350E+01 1.18003E+01 0.00000E+00
 -1      3219 9.77850E+01 1.05013E+01 0.00000E+00
 -1      3220 9.62850E+01 1.05013E+01 0.00000E+00
 -1      3221 9.55350E+01 1.18003E+01 0.00000E+00
 -1      3222 1.00785E+02 1.05013E+01 0.00000E+00
 -1      3223 9.92850E+01 1.05013E+01 0.00000E+00
 -1      3224 9.85350E+01 1.18003E+01 0.00000E+00
 -1      3225 1.03785E+02 1.05013E+01 0.00000E+00
 -1      3226 1.02285E+02 1.05013E+01 0.00000E+00
 -1      3227 1.01535E+02 1.18003E+01 0.00000E+00
 -1      3228 1.06785E+02 1.05013E+01 0.00000E+00
 -1      3229 1.05285E+02 1.05013E+01 0.00000E+00
 -1      3230 1.04535E+02 1.18003E+01 0.00000E+00
 -1      3231 1.09785E+02 1.05013E+01 0.00000E+00
 -1      3232 1.08285E+02 1.05013E+01 0.00000E+00
 -1      3233 1.07535E+02 1.18003E+01 0.00000E+00
 -1      3234 1.12785E+02 1.05013E+01 0.00000E+00
 -1      3235 1.11285E+02 1.05013E+01 0.00000E+00
 -1      3236 1.10535E+02 1.18003E+01 0.00000E+00
 -1      3237 1.15785E+02 1.05013E+01 0.00000E+00
 -1      3238 1.14285E+02 1.05013E+01 0.00000E+00
 -1      3239 1.13535E+02 1.18003E+01 0.00000E+00
 -1      3240 1.18785E+02 1.05013E+01 0.00000E+00
 -1      3241 1.17285E+02 1.05013E+01 0.00000E+00
 -1      3242 1.16535E+02 1.18003E+01 0.00000E+00
 -1      3243 1.21785E+02 1.05013E+01 0.00000E+00
 -1      3244 1.20285E+02 1.05013E+01 0.00000E+00
 -1      3245 1.19535E+02 1.18003E+01 0.00000E+00
 -1      3246 1.24785E+02 1.05013E+01 0.00000E+00
 -1      3247 1.23285E+02 1.05013E+01 0.00000E+00
 -1      3248 1.22535E+02 1.18003E+01 0.00000E+00
 -1      3249 1.27785E+02 1.05013E+01 0.00000E+00
 -1      3250 1.26285E+02 1.05013E+01 0.00000E+00
 -1      3251 1.25535E+02 1.18003E+01 0.00000E+00
 -1      3252 1.30785E+02 1.05013E+01 0.00000E+00
 -1      3253 1.29285E+02 1.05013E+01 0.00000E+00
 -1      3254 1.28535E+02 1.18003E+01 0.00000E+00
 -1      3255 1.33785E+02 1.05013E+01 0.00000E+00
 -1      3256 1.32285E+02 1.05013E+01 0.00000E+00
 -1      3257 1.31535E+02 1.18003E+01 0.00000E+00
 -1      3258 1.36785E+02 1.05013E+01 0.00000E+00
 -1      3259 1.35285E+02 1.05013E+01 0.00000E+00
 -1      3260 1.34535E+02 1.18003E+01 0.00000E+00
 -1      3261 1.38879E+02 1.08930E+01 0.00000E+00
 -1      3262 1.37711E+02 1.06123E+01 0.00000E+00
 -1      3263 1.36961E+02 1.19113E+01 0.00000E+00
 -1      3264 1.38813E+02 1.21333E+01 0.00000E+00
 -1      3265 1.16910E+01 2.12875E+01 0.00000E+00
 -1      3266 1.16910E+01 2.27625E+01 0.00000E+00
 -1      3267 1.38309E+02 2.57500E+01 0.00000E+00
 -1      3268 1.38309E+02 2.42750E+01 0.00000E+00
 -1      3269 1.37010E+02 2.64750E+01 0.00000E+00
 -1      3270 2.75438E+01 1.04318E+01 0.00000E+00
 -1      3271 2.35923E+01 3.16751E+01 0.00000E+00
 -1      3272 2.31102E+01 3.03415E+01 0.00000E+00
 -1      3273 4.68605E+01 1.68792E+01 0.00000E+00
 -1      3274 4.71214E+01 1.82752E+01 0.00000E+00
 -1      3275 1.38309E+02 3.16250E+01 0.00000E+00
 -1      3276 1.38309E+02 3.01500E+01 0.00000E+00
 -1      3277 1.37010E+02 2.94250E+01 0.00000E+00
 -1      3278 5.27850E+01 1.05013E+01 0.00000E+00
 -1      3279 5.12850E+01 1.05013E+01 0.00000E+00
 -1      3280 5.35350E+01 1.18003E+01 0.00000E+00
 -1      3281 4.97850E+01 1.05013E+01 0.00000E+00
 -1      3282 4.82850E+01 1.05013E+01 0.00000E+00
 -1      3283 5.05350E+01 1.18003E+01 0.00000E+00
 -1      3284 4.74582E+01 1.97140E+01 0.00000E+00
 -1      3285 4.77951E+01 2.11529E+01 0.00000E+00
 -1      3286 4.85825E+01 1.87815E+01 0.00000E+00
 -1      3287 4.41818E+01 1.19273E+01 0.00000E+00
 -1      3288 4.49802E+01 1.30267E+01 0.00000E+00
 -1      3289 2.08336E+01 1.58511E+01 0.00000E+00
 -1      3290 2.15800E+01 1.45602E+01 0.00000E+00
 -1      3291 2.27850E+01 1.05013E+01 0.00000E+00
 -1      3292 2.12850E+01 1.05013E+01 0.00000E+00
 -1      3293 1.59000E+01 3.83090E+01 0.00000E+00
 -1      3294 1.74000E+01 3.83090E+01 0.00000E+00
 -1      3295 1.81500E+01 3.70100E+01 0.00000E+00
 -1      3296 4.55328E+01 1.44235E+01 0.00000E+00
 -1      3297 4.63078E+01 1.54823E+01 0.00000E+00
 -1      3298 4.76930E+01 1.59458E+01 0.00000E+00
 -1      3299 4.65877E+01 1.31521E+01 0.00000E+00
 -1      3300 3.83706E+01 3.57890E+01 0.00000E+00
 -1      3301 3.68666E+01 3.58673E+01 0.00000E+00
 -1      3302 1.38309E+02 3.45750E+01 0.00000E+00
 -1      3303 1.38309E+02 3.31000E+01 0.00000E+00
 -1      3304 1.37010E+02 3.23750E+01 0.00000E+00
 -1      3305 2.08123E+01 2.75361E+01 0.00000E+00
 -1      3306 2.00626E+01 2.60947E+01 0.00000E+00
 -1      3307 4.63683E+01 2.59883E+01 0.00000E+00
 -1      3308 4.58558E+01 2.72111E+01 0.00000E+00
 -1      3309 1.99411E+01 1.89467E+01 0.00000E+00
 -1      3310 2.02141E+01 1.75103E+01 0.00000E+00
 -1      3311 4.54467E+01 2.84923E+01 0.00000E+00
 -1      3312 4.48993E+01 2.95580E+01 0.00000E+00
 -1      3313 4.41751E+01 3.09702E+01 0.00000E+00
 -1      3314 4.32170E+01 3.21989E+01 0.00000E+00
 -1      3315 2.24016E+01 1.30931E+01 0.00000E+00
 -1      3316 2.30743E+01 1.22886E+01 0.00000E+00
 -1      3317 1.95678E+01 2.43206E+01 0.00000E+00
 -1      3318 1.96427E+01 2.29666E+01 0.00000E+00
 -1      3319 1.86132E+01 2.23862E+01 0.00000E+00
 -1      3320 4.76092E+01 2.31500E+01 0.00000E+00
 -1      3321 4.71906E+01 2.46300E+01 0.00000E+00
 -1      3322 2.22025E+01 2.95846E+01 0.00000E+00
 -1      3323 2.12949E+01 2.88276E+01 0.00000E+00
 -1      3324 2.14008E+01 3.06284E+01 0.00000E+00
 -1      3325 3.53666E+01 3.58673E+01 0.00000E+00
 -1      3326 3.41157E+01 3.60062E+01 0.00000E+00
 -1      3327 1.16910E+01 2.42375E+01 0.00000E+00
 -1      3328 1.16910E+01 2.57125E+01 0.00000E+00
 -1      3329 1.29900E+01 2.35000E+01 0.00000E+00
 -1      3330 4.77252E+01 2.55728E+01 0.00000E+00
 -1      3331 1.14286E+01 3.73811E+01 0.00000E+00
 -1      3332 4.30490E+01 3.34483E+01 0.00000E+00
 -1      3333 1.35528E+01 1.33887E+01 0.00000E+00
 -1      3334 1.20528E+01 1.48637E+01 0.00000E+00
 -1      3335 1.32152E+01 3.82007E+01 0.00000E+00
 -1      3336 1.45576E+01 3.82548E+01 0.00000E+00
 -1      3337 1.53076E+01 3.69558E+01 0.00000E+00
 -1      3338 1.38309E+02 1.69188E+01 0.00000E+00
 -1      3339 1.38309E+02 1.54563E+01 0.00000E+00
 -1      3340 2.73776E+01 3.62300E+01 0.00000E+00
 -1      3341 3.09000E+01 3.83090E+01 0.00000E+00
 -1      3342 3.24000E+01 3.83090E+01 0.00000E+00
 -1      3343 2.65040E+01 9.95840E+00 0.00000E+00
 -1      3344 3.10350E+01 9.09594E+00 0.00000E+00
 -1      3345 1.84985E+01 2.67080E+01 0.00000E+00
 -1      3346 1.90331E+01 2.55143E+01 0.00000E+00
 -1      3347 1.80037E+01 2.49338E+01 0.00000E+00
 -1      3348 4.75350E+01 1.17777E+01 0.00000E+00
 -1      3349 1.16910E+01 1.98188E+01 0.00000E+00
 -1      3350 1.29900E+01 2.05562E+01 0.00000E+00
 -1      3351 1.16910E+01 1.83500E+01 0.00000E+00
 -1      3352 1.38309E+02 1.98687E+01 0.00000E+00
 -1      3353 1.38309E+02 1.83937E+01 0.00000E+00
 -1      3354 1.37010E+02 1.76625E+01 0.00000E+00
 -1      3355 1.16910E+01 3.01219E+01 0.00000E+00
 -1      3356 1.16910E+01 3.15906E+01 0.00000E+00
 -1      3357 2.68262E+01 3.52466E+01 0.00000E+00
 -1      3358 1.97850E+01 1.05013E+01 0.00000E+00
 -1      3359 1.82850E+01 1.05013E+01 0.00000E+00
 -1      3360 2.05350E+01 1.18003E+01 0.00000E+00
 -1      3361 3.98706E+01 3.57890E+01 0.00000E+00
 -1      3362 1.38309E+02 2.28094E+01 0.00000E+00
 -1      3363 1.38309E+02 2.13344E+01 0.00000E+00
 -1      3364 1.37010E+02 2.06031E+01 0.00000E+00
 -1      3365 1.37010E+02 2.35344E+01 0.00000E+00
 -1      3366 2.40160E+01 3.27250E+01 0.00000E+00
 -1      3367 2.27320E+01 3.24353E+01 0.00000E+00
 -1      3368 2.44396E+01 3.37750E+01 0.00000E+00
 -1      3369 1.20528E+01 1.63325E+01 0.00000E+00
 -1      3370 3.31500E+01 3.71163E+01 0.00000E+00
 -1      3371 3.26157E+01 3.58999E+01 0.00000E+00
 -1      3372 4.34318E+01 1.06508E+01 0.00000E+00
 -1      3373 2.12135E+01 1.32674E+01 0.00000E+00
 -1      3374 4.10557E+01 3.59006E+01 0.00000E+00
 -1      3375 4.53607E+01 3.09058E+01 0.00000E+00
 -1      3376 4.87335E+01 2.22175E+01 0.00000E+00
 -1      3377 4.64939E+01 2.82124E+01 0.00000E+00
 -1      3378 1.89204E+01 1.95425E+01 0.00000E+00
 -1      3379 2.00106E+01 2.85800E+01 0.00000E+00
 -1      3380 2.50040E+01 9.95840E+00 0.00000E+00
 -1      3381 1.87111E+01 1.69361E+01 0.00000E+00
 -1      3382 1.97724E+01 1.63936E+01 0.00000E+00
 -1      3383 1.93306E+01 1.52770E+01 0.00000E+00
 -1      3384 2.38243E+01 1.09896E+01 0.00000E+00
 -1      3385 1.29900E+01 3.23250E+01 0.00000E+00
 -1      3386 1.16910E+01 3.30594E+01 0.00000E+00
 -1      3387 1.16910E+01 3.45281E+01 0.00000E+00
 -1      3388 3.12459E+01 3.59874E+01 0.00000E+00
 -1      3389 1.37758E+02 3.65241E+01 0.00000E+00
 -1      3390 1.38123E+02 3.54471E+01 0.00000E+00
 -1      3391 1.36824E+02 3.47221E+01 0.00000E+00
 -1      3392 1.36451E+02 3.64662E+01 0.00000E+00
 -1      3393 1.50796E+01 1.06648E+01 0.00000E+00
 -1      3394 1.45081E+01 1.19262E+01 0.00000E+00
 -1      3395 1.46689E+01 1.35899E+01 0.00000E+00
 -1      3396 1.65796E+01 1.06648E+01 0.00000E+00
 -1      3397 3.03776E+01 3.62300E+01 0.00000E+00
 -1      3398 2.04000E+01 3.57110E+01 0.00000E+00
 -1      3399 2.19000E+01 3.57110E+01 0.00000E+00
 -1      3400 2.29028E+01 3.52476E+01 0.00000E+00
 -1      3401 2.44028E+01 3.52476E+01 0.00000E+00
 -1      3402 4.25557E+01 3.59006E+01 0.00000E+00
 -1      3403 4.44000E+01 3.59236E+01 0.00000E+00
 -1      3404 4.59000E+01 3.59236E+01 0.00000E+00
 -1      3405 4.74000E+01 3.59236E+01 0.00000E+00
 -1      3406 4.89000E+01 3.59236E+01 0.00000E+00
 -1      3407 4.66500E+01 3.46246E+01 0.00000E+00
 -1      3408 5.04000E+01 3.59236E+01 0.00000E+00
 -1      3409 5.19000E+01 3.59236E+01 0.00000E+00
 -1      3410 4.96500E+01 3.46246E+01 0.00000E+00
 -1      3411 5.34000E+01 3.59236E+01 0.00000E+00
 -1      3412 5.49000E+01 3.59236E+01 0.00000E+00
 -1      3413 5.26500E+01 3.46246E+01 0.00000E+00
 -1      3414 5.64000E+01 3.59236E+01 0.00000E+00
 -1      3415 5.79000E+01 3.59236E+01 0.00000E+00
 -1      3416 5.56500E+01 3.46246E+01 0.00000E+00
 -1      3417 5.94000E+01 3.59236E+01 0.00000E+00
 -1      3418 6.09000E+01 3.59236E+01 0.00000E+00
 -1      3419 5.86500E+01 3.46246E+01 0.00000E+00
 -1      3420 6.24000E+01 3.59236E+01 0.00000E+00
 -1      3421 6.39000E+01 3.59236E+01 0.00000E+00
 -1      3422 6.16500E+01 3.46246E+01 0.00000E+00
 -1      3423 6.54000E+01 3.59236E+01 0.00000E+00
 -1      3424 6.69000E+01 3.59236E+01 0.00000E+00
 -1      3425 6.46500E+01 3.46246E+01 0.00000E+00
 -1      3426 6.84000E+01 3.59236E+01 0.00000E+00
 -1      3427 6.99000E+01 3.59236E+01 0.00000E+00
 -1      3428 6.76500E+01 3.46246E+01 0.00000E+00
 -1      3429 7.14000E+01 3.59236E+01 0.00000E+00
 -1      3430 7.29000E+01 3.59236E+01 0.00000E+00
 -1      3431 7.06500E+01 3.46246E+01 0.00000E+00
 -1      3432 7.44000E+01 3.59236E+01 0.00000E+00
 -1      3433 7.59000E+01 3.59236E+01 0.00000E+00
 -1      3434 7.36500E+01 3.46246E+01 0.00000E+00
 -1      3435 7.74000E+01 3.59236E+01 0.00000E+00
 -1      3436 7.89000E+01 3.59236E+01 0.00000E+00
 -1      3437 7.66500E+01 3.46246E+01 0.00000E+00
 -1      3438 8.04000E+01 3.59236E+01 0.00000E+00
 -1      3439 8.19000E+01 3.59236E+01 0.00000E+00
 -1      3440 7.96500E+01 3.46246E+01 0.00000E+00
 -1      3441 8.34000E+01 3.59236E+01 0.00000E+00
 -1      3442 8.49000E+01 3.59236E+01 0.00000E+00
 -1      3443 8.26500E+01 3.46246E+01 0.00000E+00
 -1      3444 8.64000E+01 3.59236E+01 0.00000E+00
 -1      3445 8.79000E+01 3.59236E+01 0.00000E+00
 -1      3446 8.56500E+01 3.46246E+01 0.00000E+00
 -1      3447 8.94000E+01 3.59236E+01 0.00000E+00
 -1      3448 9.09000E+01 3.59236E+01 0.00000E+00
 -1      3449 8.86500E+01 3.46246E+01 0.00000E+00
 -1      3450 9.24000E+01 3.59236E+01 0.00000E+00
 -1      3451 9.39000E+01 3.59236E+01 0.00000E+00
 -1      3452 9.16500E+01 3.46246E+01 0.00000E+00
 -1      3453 9.54000E+01 3.59236E+01 0.00000E+00
 -1      3454 9.69000E+01 3.59236E+01 0.00000E+00
 -1      3455 9.46500E+01 3.46246E+01 0.00000E+00
 -1      3456 9.84000E+01 3.59236E+01 0.00000E+00
 -1      3457 9.99000E+01 3.59236E+01 0.00000E+00
 -1      3458 9.76500E+01 3.46246E+01 0.00000E+00
 -1      3459 1.01400E+02 3.59236E+01 0.00000E+00
 -1      3460 1.02900E+02 3.59236E+01 0.00000E+00
 -1      3461 1.00650E+02 3.46246E+01 0.00000E+00
 -1      3462 1.04400E+02 3.59236E+01 0.00000E+00
 -1      3463 1.05900E+02 3.59236E+01 0.00000E+00
 -1      3464 1.03650E+02 3.46246E+01 0.00000E+00
 -1      3465 1.07400E+02 3.59236E+01 0.00000E+00
 -1      3466 1.08900E+02 3.59236E+01 0.00000E+00
 -1      3467 1.06650E+02 3.46246E+01 0.00000E+00
 -1      3468 1.10400E+02 3.59236E+01 0.00000E+00
 -1      3469 1.11900E+02 3.59236E+01 0.00000E+00
 -1      3470 1.09650E+02 3.46246E+01 0.00000E+00
 -1      3471 1.13400E+02 3.59236E+01 0.00000E+00
 -1      3472 1.14900E+02 3.59236E+01 0.00000E+00
 -1      3473 1.12650E+02 3.46246E+01 0.00000E+00
 -1      3474 1.16400E+02 3.59236E+01 0.00000E+00
 -1      3475 1.17900E+02 3.59236E+01 0.00000E+00
 -1      3476 1.15650E+02 3.46246E+01 0.00000E+00
 -1      3477 1.19400E+02 3.59236E+01 0.00000E+00
 -1      3478 1.20900E+02 3.59236E+01 0.00000E+00
 -1      3479 1.18650E+02 3.46246E+01 0.00000E+00
 -1      3480 1.22400E+02 3.59236E+01 0.00000E+00
 -1      3481 1.23900E+02 3.59236E+01 0.00000E+00
 -1      3482 1.21650E+02 3.46246E+01 0.00000E+00
 -1      3483 1.25400E+02 3.59236E+01 0.00000E+00
 -1      3484 1.26900E+02 3.59236E+01 0.00000E+00
 -1      3485 1.24650E+02 3.46246E+01 0.00000E+00
 -1      3486 1.28400E+02 3.59236E+01 0.00000E+00
 -1      3487 1.29900E+02 3.59236E+01 0.00000E+00
 -1      3488 1.27650E+02 3.46246E+01 0.00000E+00
 -1      3489 1.31400E+02 3.59236E+01 0.00000E+00
 -1      3490 1.32900E+02 3.59236E+01 0.00000E+00
 -1      3491 1.30650E+02 3.46246E+01 0.00000E+00
 -1      3492 3.36464E+01 9.34218E+00 0.00000E+00
 -1      3493 6.02850E+01 1.30992E+01 0.00000E+00
 -1      3494 5.87850E+01 1.30992E+01 0.00000E+00
 -1      3495 5.72850E+01 1.30992E+01 0.00000E+00
 -1      3496 5.57850E+01 1.30992E+01 0.00000E+00
 -1      3497 5.80350E+01 1.43982E+01 0.00000E+00
 -1      3498 6.62850E+01 1.30992E+01 0.00000E+00
 -1      3499 6.47850E+01 1.30992E+01 0.00000E+00
 -1      3500 6.92850E+01 1.30992E+01 0.00000E+00
 -1      3501 6.77850E+01 1.30992E+01 0.00000E+00
 -1      3502 6.70350E+01 1.43982E+01 0.00000E+00
 -1      3503 7.22850E+01 1.30992E+01 0.00000E+00
 -1      3504 7.07850E+01 1.30992E+01 0.00000E+00
 -1      3505 7.00350E+01 1.43982E+01 0.00000E+00
 -1      3506 7.52850E+01 1.30992E+01 0.00000E+00
 -1      3507 7.37850E+01 1.30992E+01 0.00000E+00
 -1      3508 7.30350E+01 1.43982E+01 0.00000E+00
 -1      3509 7.82850E+01 1.30992E+01 0.00000E+00
 -1      3510 7.67850E+01 1.30992E+01 0.00000E+00
 -1      3511 7.60350E+01 1.43982E+01 0.00000E+00
 -1      3512 8.12850E+01 1.30992E+01 0.00000E+00
 -1      3513 7.97850E+01 1.30992E+01 0.00000E+00
 -1      3514 7.90350E+01 1.43982E+01 0.00000E+00
 -1      3515 8.42850E+01 1.30992E+01 0.00000E+00
 -1      3516 8.27850E+01 1.30992E+01 0.00000E+00
 -1      3517 8.20350E+01 1.43982E+01 0.00000E+00
 -1      3518 8.72850E+01 1.30992E+01 0.00000E+00
 -1      3519 8.57850E+01 1.30992E+01 0.00000E+00
 -1      3520 8.50350E+01 1.43982E+01 0.00000E+00
 -1      3521 9.02850E+01 1.30992E+01 0.00000E+00
 -1      3522 8.87850E+01 1.30992E+01 0.00000E+00
 -1      3523 8.80350E+01 1.43982E+01 0.00000E+00
 -1      3524 9.32850E+01 1.30992E+01 0.00000E+00
 -1      3525 9.17850E+01 1.30992E+01 0.00000E+00
 -1      3526 9.10350E+01 1.43982E+01 0.00000E+00
 -1      3527 9.62850E+01 1.30992E+01 0.00000E+00
 -1      3528 9.47850E+01 1.30992E+01 0.00000E+00
 -1      3529 9.40350E+01 1.43982E+01 0.00000E+00
 -1      3530 9.92850E+01 1.30992E+01 0.00000E+00
 -1      3531 9.77850E+01 1.30992E+01 0.00000E+00
 -1      3532 9.70350E+01 1.43982E+01 0.00000E+00
 -1      3533 1.02285E+02 1.30992E+01 0.00000E+00
 -1      3534 1.00785E+02 1.30992E+01 0.00000E+00
 -1      3535 1.00035E+02 1.43982E+01 0.00000E+00
 -1      3536 1.05285E+02 1.30992E+01 0.00000E+00
 -1      3537 1.03785E+02 1.30992E+01 0.00000E+00
 -1      3538 1.03035E+02 1.43982E+01 0.00000E+00
 -1      3539 1.08285E+02 1.30992E+01 0.00000E+00
 -1      3540 1.06785E+02 1.30992E+01 0.00000E+00
 -1      3541 1.06035E+02 1.43982E+01 0.00000E+00
 -1      3542 1.11285E+02 1.30992E+01 0.00000E+00
 -1      3543 1.09785E+02 1.30992E+01 0.00000E+00
 -1      3544 1.09035E+02 1.43982E+01 0.00000E+00
 -1      3545 1.14285E+02 1.30992E+01 0.00000E+00
 -1      3546 1.12785E+02 1.30992E+01 0.00000E+00
 -1      3547 1.12035E+02 1.43982E+01 0.00000E+00
 -1      3548 1.17285E+02 1.30992E+01 0.00000E+00
 -1      3549 1.15785E+02 1.30992E+01 0.00000E+00
 -1      3550 1.15035E+02 1.43982E+01 0.00000E+00
 -1      3551 1.20285E+02 1.30992E+01 0.00000E+00
 -1      3552 1.18785E+02 1.30992E+01 0.00000E+00
 -1      3553 1.18035E+02 1.43982E+01 0.00000E+00
 -1      3554 1.23285E+02 1.30992E+01 0.00000E+00
 -1      3555 1.21785E+02 1.30992E+01 0.00000E+00
 -1      3556 1.21035E+02 1.43982E+01 0.00000E+00
 -1      3557 1.26285E+02 1.30992E+01 0.00000E+00
 -1      3558 1.24785E+02 1.30992E+01 0.00000E+00
 -1      3559 1.24035E+02 1.43982E+01 0.00000E+00
 -1      3560 1.29285E+02 1.30992E+01 0.00000E+00
 -1      3561 1.27785E+02 1.30992E+01 0.00000E+00
 -1      3562 1.27035E+02 1.43982E+01 0.00000E+00
 -1      3563 1.32285E+02 1.30992E+01 0.00000E+00
 -1      3564 1.30785E+02 1.30992E+01 0.00000E+00
 -1      3565 1.30035E+02 1.43982E+01 0.00000E+00
 -1      3566 1.35285E+02 1.30992E+01 0.00000E+00
 -1      3567 1.33785E+02 1.30992E+01 0.00000E+00
 -1      3568 1.33035E+02 1.43982E+01 0.00000E+00
 -1      3569 1.35711E+02 2.72125E+01 0.00000E+00
 -1      3570 1.35711E+02 2.57375E+01 0.00000E+00
 -1      3571 1.16910E+01 2.86531E+01 0.00000E+00
 -1      3572 1.29900E+01 2.93875E+01 0.00000E+00
 -1      3573 1.16910E+01 2.71844E+01 0.00000E+00
 -1      3574 2.56868E+01 3.55373E+01 0.00000E+00
 -1      3575 1.38528E+02 1.44149E+01 0.00000E+00
 -1      3576 1.38594E+02 1.31746E+01 0.00000E+00
 -1      3577 1.37668E+02 1.30636E+01 0.00000E+00
 -1      3578 1.37229E+02 1.51462E+01 0.00000E+00
 -1      3579 2.10907E+01 3.19229E+01 0.00000E+00
 -1      3580 2.01831E+01 3.11659E+01 0.00000E+00
 -1      3581 4.80877E+01 1.31746E+01 0.00000E+00
 -1      3582 1.35711E+02 3.01625E+01 0.00000E+00
 -1      3583 1.35711E+02 2.86875E+01 0.00000E+00
 -1      3584 1.34412E+02 2.79500E+01 0.00000E+00
 -1      3585 5.42850E+01 1.30992E+01 0.00000E+00
 -1      3586 5.27850E+01 1.30992E+01 0.00000E+00
 -1      3587 5.50350E+01 1.43982E+01 0.00000E+00
 -1      3588 5.12850E+01 1.30992E+01 0.00000E+00
 -1      3589 4.97850E+01 1.30992E+01 0.00000E+00
 -1      3590 5.20350E+01 1.43982E+01 0.00000E+00
 -1      3591 4.96569E+01 1.77711E+01 0.00000E+00
 -1      3592 4.99938E+01 1.92100E+01 0.00000E+00
 -1      3593 6.32850E+01 1.30992E+01 0.00000E+00
 -1      3594 6.17850E+01 1.30992E+01 0.00000E+00
 -1      3595 6.40350E+01 1.43982E+01 0.00000E+00
 -1      3596 4.67095E+01 3.07056E+01 0.00000E+00
 -1      3597 4.59854E+01 3.21179E+01 0.00000E+00
 -1      3598 1.35711E+02 3.31125E+01 0.00000E+00
 -1      3599 1.35711E+02 3.16375E+01 0.00000E+00
 -1      3600 1.34412E+02 3.09000E+01 0.00000E+00
 -1      3601 1.77914E+01 2.01293E+01 0.00000E+00
 -1      3602 1.80237E+01 1.86396E+01 0.00000E+00
 -1      3603 5.01198E+01 2.13393E+01 0.00000E+00
 -1      3604 4.99339E+01 2.33364E+01 0.00000E+00
 -1      3605 1.21786E+01 3.60821E+01 0.00000E+00
 -1      3606 4.90133E+01 2.54246E+01 0.00000E+00
 -1      3607 4.81910E+01 2.67829E+01 0.00000E+00
 -1      3608 1.76358E+01 2.30112E+01 0.00000E+00
 -1      3609 1.77107E+01 2.16572E+01 0.00000E+00
 -1      3610 4.77820E+01 2.80641E+01 0.00000E+00
 -1      3611 4.73729E+01 2.93453E+01 0.00000E+00
 -1      3612 4.90701E+01 2.79159E+01 0.00000E+00
 -1      3613 1.97135E+01 1.32674E+01 0.00000E+00
 -1      3614 1.33518E+01 1.70700E+01 0.00000E+00
 -1      3615 1.90350E+01 2.96804E+01 0.00000E+00
 -1      3616 1.85524E+01 2.83889E+01 0.00000E+00
 -1      3617 1.86522E+01 1.38099E+01 0.00000E+00
 -1      3618 1.29900E+01 2.64469E+01 0.00000E+00
 -1      3619 4.88377E+01 1.44736E+01 0.00000E+00
 -1      3620 4.93903E+01 1.58705E+01 0.00000E+00
 -1      3621 1.46887E+01 3.56308E+01 0.00000E+00
 -1      3622 1.60312E+01 3.56850E+01 0.00000E+00
 -1      3623 2.21528E+01 3.39486E+01 0.00000E+00
 -1      3624 1.73296E+01 1.19638E+01 0.00000E+00
 -1      3625 4.33057E+01 3.46016E+01 0.00000E+00
 -1      3626 1.34022E+02 3.61660E+01 0.00000E+00
 -1      3627 1.35329E+02 3.62238E+01 0.00000E+00
 -1      3628 1.35515E+02 3.53518E+01 0.00000E+00
 -1      3629 1.33272E+02 3.48670E+01 0.00000E+00
 -1      3630 6.10350E+01 1.43982E+01 0.00000E+00
 -1      3631 1.75230E+01 2.78084E+01 0.00000E+00
 -1      3632 4.62421E+01 3.32712E+01 0.00000E+00
 -1      3633 4.48933E+01 3.34713E+01 0.00000E+00
 -1      3634 1.34412E+02 2.50094E+01 0.00000E+00
 -1      3635 1.35711E+02 2.42719E+01 0.00000E+00
 -1      3636 1.35711E+02 2.28062E+01 0.00000E+00
 -1      3637 5.11943E+01 2.03289E+01 0.00000E+00
 -1      3638 1.36742E+02 1.29526E+01 0.00000E+00
 -1      3639 2.17292E+01 3.28987E+01 0.00000E+00
 -1      3640 2.05115E+01 3.34362E+01 0.00000E+00
 -1      3641 1.42890E+01 2.86531E+01 0.00000E+00
 -1      3642 1.42890E+01 3.01219E+01 0.00000E+00
 -1      3643 1.35773E+02 1.52929E+01 0.00000E+00
 -1      3644 1.35992E+02 1.42516E+01 0.00000E+00
 -1      3645 1.48113E+01 1.62905E+01 0.00000E+00
 -1      3646 1.44495E+01 1.83080E+01 0.00000E+00
 -1      3647 1.41827E+01 2.27625E+01 0.00000E+00
 -1      3648 1.41827E+01 2.42375E+01 0.00000E+00
 -1      3649 1.64018E+01 1.83775E+01 0.00000E+00
 -1      3650 1.75309E+01 1.77906E+01 0.00000E+00
 -1      3651 5.08016E+01 1.62989E+01 0.00000E+00
 -1      3652 3.23273E+01 9.38210E+00 0.00000E+00
 -1      3653 4.79976E+01 3.05574E+01 0.00000E+00
 -1      3654 1.74000E+01 3.57110E+01 0.00000E+00
 -1      3655 1.89000E+01 3.57110E+01 0.00000E+00
 -1      3656 1.68140E+01 2.07543E+01 0.00000E+00
 -1      3657 5.17861E+01 2.36683E+01 0.00000E+00
 -1      3658 5.03997E+01 2.45465E+01 0.00000E+00
 -1      3659 5.08655E+01 2.57565E+01 0.00000E+00
 -1      3660 1.87249E+01 3.09748E+01 0.00000E+00
 -1      3661 1.35773E+02 1.82429E+01 0.00000E+00
 -1      3662 1.35773E+02 1.67679E+01 0.00000E+00
 -1      3663 1.34535E+02 1.58733E+01 0.00000E+00
 -1      3664 1.70892E+01 1.66740E+01 0.00000E+00
 -1      3665 1.96500E+01 3.44120E+01 0.00000E+00
 -1      3666 1.35702E+02 3.44797E+01 0.00000E+00
 -1      3667 1.67812E+01 3.43860E+01 0.00000E+00
 -1      3668 1.53302E+01 1.45129E+01 0.00000E+00
 -1      3669 1.64279E+01 1.57510E+01 0.00000E+00
 -1      3670 1.76081E+01 1.48964E+01 0.00000E+00
 -1      3671 1.62856E+01 1.30504E+01 0.00000E+00
 -1      3672 1.34403E+02 3.37422E+01 0.00000E+00
 -1      3673 1.55002E+01 3.18737E+01 0.00000E+00
 -1      3674 1.42012E+01 3.26081E+01 0.00000E+00
 -1      3675 7.37850E+01 1.56973E+01 0.00000E+00
 -1      3676 7.22850E+01 1.56973E+01 0.00000E+00
 -1      3677 4.77421E+01 3.32712E+01 0.00000E+00
 -1      3678 1.33281E+02 3.34998E+01 0.00000E+00
 -1      3679 5.04906E+01 2.76635E+01 0.00000E+00
 -1      3680 5.00816E+01 2.89447E+01 0.00000E+00
 -1      3681 1.35711E+02 2.13406E+01 0.00000E+00
 -1      3682 1.35711E+02 1.98750E+01 0.00000E+00
 -1      3683 1.34412E+02 2.20781E+01 0.00000E+00
 -1      3684 6.17850E+01 1.56973E+01 0.00000E+00
 -1      3685 6.02850E+01 1.56973E+01 0.00000E+00
 -1      3686 4.92421E+01 3.32712E+01 0.00000E+00
 -1      3687 5.07421E+01 3.32712E+01 0.00000E+00
 -1      3688 4.88342E+01 3.19177E+01 0.00000E+00
 -1      3689 5.22421E+01 3.32712E+01 0.00000E+00
 -1      3690 5.37421E+01 3.32712E+01 0.00000E+00
 -1      3691 5.18342E+01 3.19177E+01 0.00000E+00
 -1      3692 5.52421E+01 3.32712E+01 0.00000E+00
 -1      3693 5.67421E+01 3.32712E+01 0.00000E+00
 -1      3694 5.48342E+01 3.19177E+01 0.00000E+00
 -1      3695 5.82421E+01 3.32712E+01 0.00000E+00
 -1      3696 5.97421E+01 3.32712E+01 0.00000E+00
 -1      3697 5.78342E+01 3.19177E+01 0.00000E+00
 -1      3698 6.12421E+01 3.32712E+01 0.00000E+00
 -1      3699 6.27421E+01 3.32712E+01 0.00000E+00
 -1      3700 6.08342E+01 3.19177E+01 0.00000E+00
 -1      3701 6.42421E+01 3.32712E+01 0.00000E+00
 -1      3702 6.57421E+01 3.32712E+01 0.00000E+00
 -1      3703 6.38342E+01 3.19177E+01 0.00000E+00
 -1      3704 6.72421E+01 3.32712E+01 0.00000E+00
 -1      3705 6.87421E+01 3.32712E+01 0.00000E+00
 -1      3706 6.68342E+01 3.19177E+01 0.00000E+00
 -1      3707 7.02421E+01 3.32712E+01 0.00000E+00
 -1      3708 7.17421E+01 3.32712E+01 0.00000E+00
 -1      3709 6.98342E+01 3.19177E+01 0.00000E+00
 -1      3710 7.32421E+01 3.32712E+01 0.00000E+00
 -1      3711 7.47421E+01 3.32712E+01 0.00000E+00
 -1      3712 7.28342E+01 3.19177E+01 0.00000E+00
 -1      3713 7.62421E+01 3.32712E+01 0.00000E+00
 -1      3714 7.77421E+01 3.32712E+01 0.00000E+00
 -1      3715 7.58342E+01 3.19177E+01 0.00000E+00
 -1      3716 7.92421E+01 3.32712E+01 0.00000E+00
 -1      3717 8.07421E+01 3.32712E+01 0.00000E+00
 -1      3718 7.88342E+01 3.19177E+01 0.00000E+00
 -1      3719 8.22421E+01 3.32712E+01 0.00000E+00
 -1      3720 8.37421E+01 3.32712E+01 0.00000E+00
 -1      3721 8.18342E+01 3.19177E+01 0.00000E+00
 -1      3722 8.52421E+01 3.32712E+01 0.00000E+00
 -1      3723 8.67421E+01 3.32712E+01 0.00000E+00
 -1      3724 8.48342E+01 3.19177E+01 0.00000E+00
 -1      3725 8.82421E+01 3.32712E+01 0.00000E+00
 -1      3726 8.97421E+01 3.32712E+01 0.00000E+00
 -1      3727 8.78342E+01 3.19177E+01 0.00000E+00
 -1      3728 9.12421E+01 3.32712E+01 0.00000E+00
 -1      3729 9.27421E+01 3.32712E+01 0.00000E+00
 -1      3730 9.08342E+01 3.19177E+01 0.00000E+00
 -1      3731 9.42421E+01 3.32712E+01 0.00000E+00
 -1      3732 9.57421E+01 3.32712E+01 0.00000E+00
 -1      3733 9.38342E+01 3.19177E+01 0.00000E+00
 -1      3734 9.72421E+01 3.32712E+01 0.00000E+00
 -1      3735 9.87421E+01 3.32712E+01 0.00000E+00
 -1      3736 9.68342E+01 3.19177E+01 0.00000E+00
 -1      3737 1.00242E+02 3.32712E+01 0.00000E+00
 -1      3738 1.01742E+02 3.32712E+01 0.00000E+00
 -1      3739 9.98342E+01 3.19177E+01 0.00000E+00
 -1      3740 1.03242E+02 3.32712E+01 0.00000E+00
 -1      3741 1.04742E+02 3.32712E+01 0.00000E+00
 -1      3742 1.02834E+02 3.19177E+01 0.00000E+00
 -1      3743 1.06242E+02 3.32712E+01 0.00000E+00
 -1      3744 1.07742E+02 3.32712E+01 0.00000E+00
 -1      3745 1.05834E+02 3.19177E+01 0.00000E+00
 -1      3746 1.09242E+02 3.32712E+01 0.00000E+00
 -1      3747 1.10742E+02 3.32712E+01 0.00000E+00
 -1      3748 1.08834E+02 3.19177E+01 0.00000E+00
 -1      3749 1.12242E+02 3.32712E+01 0.00000E+00
 -1      3750 1.13742E+02 3.32712E+01 0.00000E+00
 -1      3751 1.11834E+02 3.19177E+01 0.00000E+00
 -1      3752 1.15242E+02 3.32712E+01 0.00000E+00
 -1      3753 1.16742E+02 3.32712E+01 0.00000E+00
 -1      3754 1.14834E+02 3.19177E+01 0.00000E+00
 -1      3755 1.18242E+02 3.32712E+01 0.00000E+00
 -1      3756 1.19742E+02 3.32712E+01 0.00000E+00
 -1      3757 1.17834E+02 3.19177E+01 0.00000E+00
 -1      3758 1.21242E+02 3.32712E+01 0.00000E+00
 -1      3759 1.22742E+02 3.32712E+01 0.00000E+00
 -1      3760 1.20834E+02 3.19177E+01 0.00000E+00
 -1      3761 1.24242E+02 3.32712E+01 0.00000E+00
 -1      3762 1.25742E+02 3.32712E+01 0.00000E+00
 -1      3763 1.23834E+02 3.19177E+01 0.00000E+00
 -1      3764 1.27242E+02 3.32712E+01 0.00000E+00
 -1      3765 1.28742E+02 3.32712E+01 0.00000E+00
 -1      3766 1.26834E+02 3.19177E+01 0.00000E+00
 -1      3767 1.30242E+02 3.32712E+01 0.00000E+00
 -1      3768 1.31742E+02 3.32712E+01 0.00000E+00
 -1      3769 1.29834E+02 3.19177E+01 0.00000E+00
 -1      3770 5.87850E+01 1.56973E+01 0.00000E+00
 -1      3771 5.72850E+01 1.56973E+01 0.00000E+00
 -1      3772 5.95350E+01 1.69963E+01 0.00000E+00
 -1      3773 1.32873E+02 3.21464E+01 0.00000E+00
 -1      3774 1.67243E+01 2.50774E+01 0.00000E+00
 -1      3775 1.72589E+01 2.38837E+01 0.00000E+00
 -1      3776 1.42358E+01 2.57094E+01 0.00000E+00
 -1      3777 1.42358E+01 2.71812E+01 0.00000E+00
 -1      3778 1.55348E+01 2.79156E+01 0.00000E+00
 -1      3779 1.54285E+01 2.49719E+01 0.00000E+00
 -1      3780 7.07850E+01 1.56973E+01 0.00000E+00
 -1      3781 6.92850E+01 1.56973E+01 0.00000E+00
 -1      3782 7.15350E+01 1.69963E+01 0.00000E+00
 -1      3783 6.77850E+01 1.56973E+01 0.00000E+00
 -1      3784 6.62850E+01 1.56973E+01 0.00000E+00
 -1      3785 6.85350E+01 1.69963E+01 0.00000E+00
 -1      3786 7.67850E+01 1.56973E+01 0.00000E+00
 -1      3787 7.52850E+01 1.56973E+01 0.00000E+00
 -1      3788 7.45350E+01 1.69963E+01 0.00000E+00
 -1      3789 7.97850E+01 1.56973E+01 0.00000E+00
 -1      3790 7.82850E+01 1.56973E+01 0.00000E+00
 -1      3791 7.75350E+01 1.69963E+01 0.00000E+00
 -1      3792 8.27850E+01 1.56973E+01 0.00000E+00
 -1      3793 8.12850E+01 1.56973E+01 0.00000E+00
 -1      3794 8.05350E+01 1.69963E+01 0.00000E+00
 -1      3795 8.57850E+01 1.56973E+01 0.00000E+00
 -1      3796 8.42850E+01 1.56973E+01 0.00000E+00
 -1      3797 8.35350E+01 1.69963E+01 0.00000E+00
 -1      3798 8.87850E+01 1.56973E+01 0.00000E+00
 -1      3799 8.72850E+01 1.56973E+01 0.00000E+00
 -1      3800 8.65350E+01 1.69963E+01 0.00000E+00
 -1      3801 9.17850E+01 1.56973E+01 0.00000E+00
 -1      3802 9.02850E+01 1.56973E+01 0.00000E+00
 -1      3803 8.95350E+01 1.69963E+01 0.00000E+00
 -1      3804 9.47850E+01 1.56973E+01 0.00000E+00
 -1      3805 9.32850E+01 1.56973E+01 0.00000E+00
 -1      3806 9.25350E+01 1.69963E+01 0.00000E+00
 -1      3807 9.77850E+01 1.56973E+01 0.00000E+00
 -1      3808 9.62850E+01 1.56973E+01 0.00000E+00
 -1      3809 9.55350E+01 1.69963E+01 0.00000E+00
 -1      3810 1.00785E+02 1.56973E+01 0.00000E+00
 -1      3811 9.92850E+01 1.56973E+01 0.00000E+00
 -1      3812 9.85350E+01 1.69963E+01 0.00000E+00
 -1      3813 1.03785E+02 1.56973E+01 0.00000E+00
 -1      3814 1.02285E+02 1.56973E+01 0.00000E+00
 -1      3815 1.01535E+02 1.69963E+01 0.00000E+00
 -1      3816 1.06785E+02 1.56973E+01 0.00000E+00
 -1      3817 1.05285E+02 1.56973E+01 0.00000E+00
 -1      3818 1.04535E+02 1.69963E+01 0.00000E+00
 -1      3819 1.09785E+02 1.56973E+01 0.00000E+00
 -1      3820 1.08285E+02 1.56973E+01 0.00000E+00
 -1      3821 1.07535E+02 1.69963E+01 0.00000E+00
 -1      3822 1.12785E+02 1.56973E+01 0.00000E+00
 -1      3823 1.11285E+02 1.56973E+01 0.00000E+00
 -1      3824 1.10535E+02 1.69963E+01 0.00000E+00
 -1      3825 1.15785E+02 1.56973E+01 0.00000E+00
 -1      3826 1.14285E+02 1.56973E+01 0.00000E+00
 -1      3827 1.13535E+02 1.69963E+01 0.00000E+00
 -1      3828 1.18785E+02 1.56973E+01 0.00000E+00
 -1      3829 1.17285E+02 1.56973E+01 0.00000E+00
 -1      3830 1.16535E+02 1.69963E+01 0.00000E+00
 -1      3831 1.21785E+02 1.56973E+01 0.00000E+00
 -1      3832 1.20285E+02 1.56973E+01 0.00000E+00
 -1      3833 1.19535E+02 1.69963E+01 0.00000E+00
 -1      3834 1.24785E+02 1.56973E+01 0.00000E+00
 -1      3835 1.23285E+02 1.56973E+01 0.00000E+00
 -1      3836 1.22535E+02 1.69963E+01 0.00000E+00
 -1      3837 1.27785E+02 1.56973E+01 0.00000E+00
 -1      3838 1.26285E+02 1.56973E+01 0.00000E+00
 -1      3839 1.25535E+02 1.69963E+01 0.00000E+00
 -1      3840 1.30785E+02 1.56973E+01 0.00000E+00
 -1      3841 1.29285E+02 1.56973E+01 0.00000E+00
 -1      3842 1.28535E+02 1.69963E+01 0.00000E+00
 -1      3843 1.33410E+02 1.57852E+01 0.00000E+00
 -1      3844 1.31910E+02 1.57852E+01 0.00000E+00
 -1      3845 1.31160E+02 1.70842E+01 0.00000E+00
 -1      3846 1.33410E+02 1.72603E+01 0.00000E+00
 -1      3847 1.54257E+01 1.90771E+01 0.00000E+00
 -1      3848 1.39662E+01 1.98566E+01 0.00000E+00
 -1      3849 1.39662E+01 2.13254E+01 0.00000E+00
 -1      3850 1.59185E+01 1.99261E+01 0.00000E+00
 -1      3851 1.42012E+01 3.40769E+01 0.00000E+00
 -1      3852 6.47850E+01 1.56973E+01 0.00000E+00
 -1      3853 6.32850E+01 1.56973E+01 0.00000E+00
 -1      3854 6.55350E+01 1.69963E+01 0.00000E+00
 -1      3855 1.51589E+01 2.20629E+01 0.00000E+00
 -1      3856 5.24055E+01 1.91888E+01 0.00000E+00
 -1      3857 5.25315E+01 2.13182E+01 0.00000E+00
 -1      3858 5.23016E+01 1.62989E+01 0.00000E+00
 -1      3859 5.57850E+01 1.56973E+01 0.00000E+00
 -1      3860 5.42850E+01 1.56973E+01 0.00000E+00
 -1      3861 5.65350E+01 1.69963E+01 0.00000E+00
 -1      3862 1.65293E+01 2.79665E+01 0.00000E+00
 -1      3863 1.64754E+01 2.62857E+01 0.00000E+00
 -1      3864 1.34776E+01 3.53477E+01 0.00000E+00
 -1      3865 1.58378E+01 2.14540E+01 0.00000E+00
 -1      3866 1.33113E+02 2.86875E+01 0.00000E+00
 -1      3867 1.33113E+02 2.72125E+01 0.00000E+00
 -1      3868 1.32873E+02 3.06714E+01 0.00000E+00
 -1      3869 1.90115E+01 3.34362E+01 0.00000E+00
 -1      3870 1.63565E+01 2.31548E+01 0.00000E+00
 -1      3871 4.94976E+01 3.05574E+01 0.00000E+00
 -1      3872 5.30516E+01 1.75979E+01 0.00000E+00
 -1      3873 5.09182E+01 3.03050E+01 0.00000E+00
 -1      3874 5.18770E+01 2.67853E+01 0.00000E+00
 -1      3875 1.34473E+02 1.89804E+01 0.00000E+00
 -1      3876 6.25350E+01 1.69963E+01 0.00000E+00
 -1      3877 1.64946E+01 3.19246E+01 0.00000E+00
 -1      3878 1.78634E+01 3.19506E+01 0.00000E+00
 -1      3879 1.31814E+02 2.64844E+01 0.00000E+00
 -1      3880 1.33113E+02 2.57469E+01 0.00000E+00
 -1      3881 1.33113E+02 2.42813E+01 0.00000E+00
 -1      3882 5.43889E+01 1.85872E+01 0.00000E+00
 -1      3883 1.31574E+02 2.99339E+01 0.00000E+00
 -1      3884 5.29973E+01 2.25282E+01 0.00000E+00
 -1      3885 5.34631E+01 2.37383E+01 0.00000E+00
 -1      3886 5.42085E+01 2.13882E+01 0.00000E+00
 -1      3887 1.79909E+01 1.28868E+01 0.00000E+00
 -1      3888 1.33113E+02 2.28156E+01 0.00000E+00
 -1      3889 1.33113E+02 2.13500E+01 0.00000E+00
 -1      3890 1.31814E+02 2.35531E+01 0.00000E+00
 -1      3891 1.65824E+01 2.94384E+01 0.00000E+00
 -1      3892 5.24182E+01 3.03050E+01 0.00000E+00
 -1      3893 5.39182E+01 3.03050E+01 0.00000E+00
 -1      3894 5.54182E+01 3.03050E+01 0.00000E+00
 -1      3895 5.30021E+01 2.86923E+01 0.00000E+00
 -1      3896 5.69182E+01 3.03050E+01 0.00000E+00
 -1      3897 5.84182E+01 3.03050E+01 0.00000E+00
 -1      3898 5.60021E+01 2.86923E+01 0.00000E+00
 -1      3899 5.99182E+01 3.03050E+01 0.00000E+00
 -1      3900 6.14182E+01 3.03050E+01 0.00000E+00
 -1      3901 5.90021E+01 2.86923E+01 0.00000E+00
 -1      3902 6.29182E+01 3.03050E+01 0.00000E+00
 -1      3903 6.44182E+01 3.03050E+01 0.00000E+00
 -1      3904 6.20021E+01 2.86923E+01 0.00000E+00
 -1      3905 6.59182E+01 3.03050E+01 0.00000E+00
 -1      3906 6.74182E+01 3.03050E+01 0.00000E+00
 -1      3907 6.50021E+01 2.86923E+01 0.00000E+00
 -1      3908 6.89182E+01 3.03050E+01 0.00000E+00
 -1      3909 7.04182E+01 3.03050E+01 0.00000E+00
 -1      3910 6.80021E+01 2.86923E+01 0.00000E+00
 -1      3911 7.19182E+01 3.03050E+01 0.00000E+00
 -1      3912 7.34182E+01 3.03050E+01 0.00000E+00
 -1      3913 7.10021E+01 2.86923E+01 0.00000E+00
 -1      3914 7.49182E+01 3.03050E+01 0.00000E+00
 -1      3915 7.64182E+01 3.03050E+01 0.00000E+00
 -1      3916 7.40021E+01 2.86923E+01 0.00000E+00
 -1      3917 7.79182E+01 3.03050E+01 0.00000E+00
 -1      3918 7.94182E+01 3.03050E+01 0.00000E+00
 -1      3919 7.70021E+01 2.86923E+01 0.00000E+00
 -1      3920 8.09182E+01 3.03050E+01 0.00000E+00
 -1      3921 8.24182E+01 3.03050E+01 0.00000E+00
 -1      3922 8.00021E+01 2.86923E+01 0.00000E+00
 -1      3923 8.39182E+01 3.03050E+01 0.00000E+00
 -1      3924 8.54182E+01 3.03050E+01 0.00000E+00
 -1      3925 8.30021E+01 2.86923E+01 0.00000E+00
 -1      3926 8.69182E+01 3.03050E+01 0.00000E+00
 -1      3927 8.84182E+01 3.03050E+01 0.00000E+00
 -1      3928 8.60021E+01 2.86923E+01 0.00000E+00
 -1      3929 8.99182E+01 3.03050E+01 0.00000E+00
 -1      3930 9.14182E+01 3.03050E+01 0.00000E+00
 -1      3931 8.90021E+01 2.86923E+01 0.00000E+00
 -1      3932 9.29182E+01 3.03050E+01 0.00000E+00
 -1      3933 9.44182E+01 3.03050E+01 0.00000E+00
 -1      3934 9.20021E+01 2.86923E+01 0.00000E+00
 -1      3935 9.59182E+01 3.03050E+01 0.00000E+00
 -1      3936 9.74182E+01 3.03050E+01 0.00000E+00
 -1      3937 9.50021E+01 2.86923E+01 0.00000E+00
 -1      3938 9.89182E+01 3.03050E+01 0.00000E+00
 -1      3939 1.00418E+02 3.03050E+01 0.00000E+00
 -1      3940 9.80021E+01 2.86923E+01 0.00000E+00
 -1      3941 1.01918E+02 3.03050E+01 0.00000E+00
 -1      3942 1.03418E+02 3.03050E+01 0.00000E+00
 -1      3943 1.01002E+02 2.86923E+01 0.00000E+00
 -1      3944 1.04918E+02 3.03050E+01 0.00000E+00
 -1      3945 1.06418E+02 3.03050E+01 0.00000E+00
 -1      3946 1.04002E+02 2.86923E+01 0.00000E+00
 -1      3947 1.07918E+02 3.03050E+01 0.00000E+00
 -1      3948 1.09418E+02 3.03050E+01 0.00000E+00
 -1      3949 1.07002E+02 2.86923E+01 0.00000E+00
 -1      3950 1.10918E+02 3.03050E+01 0.00000E+00
 -1      3951 1.12418E+02 3.03050E+01 0.00000E+00
 -1      3952 1.10002E+02 2.86923E+01 0.00000E+00
 -1      3953 1.13918E+02 3.03050E+01 0.00000E+00
 -1      3954 1.15418E+02 3.03050E+01 0.00000E+00
 -1      3955 1.13002E+02 2.86923E+01 0.00000E+00
 -1      3956 1.16918E+02 3.03050E+01 0.00000E+00
 -1      3957 1.18418E+02 3.03050E+01 0.00000E+00
 -1      3958 1.16002E+02 2.86923E+01 0.00000E+00
 -1      3959 1.19918E+02 3.03050E+01 0.00000E+00
 -1      3960 1.21418E+02 3.03050E+01 0.00000E+00
 -1      3961 1.19002E+02 2.86923E+01 0.00000E+00
 -1      3962 1.22918E+02 3.03050E+01 0.00000E+00
 -1      3963 1.24418E+02 3.03050E+01 0.00000E+00
 -1      3964 1.22002E+02 2.86923E+01 0.00000E+00
 -1      3965 1.25918E+02 3.03050E+01 0.00000E+00
 -1      3966 1.27418E+02 3.03050E+01 0.00000E+00
 -1      3967 1.25002E+02 2.86923E+01 0.00000E+00
 -1      3968 1.28746E+02 3.01194E+01 0.00000E+00
 -1      3969 1.30246E+02 3.01194E+01 0.00000E+00
 -1      3970 1.30486E+02 2.81356E+01 0.00000E+00
 -1      3971 1.27830E+02 2.85067E+01 0.00000E+00
 -1      3972 6.02850E+01 1.82952E+01 0.00000E+00
 -1      3973 5.87850E+01 1.82952E+01 0.00000E+00
 -1      3974 1.57306E+01 2.52355E+01 0.00000E+00
 -1      3975 6.92850E+01 1.82952E+01 0.00000E+00
 -1      3976 6.77850E+01 1.82952E+01 0.00000E+00
 -1      3977 8.12850E+01 1.82952E+01 0.00000E+00
 -1      3978 7.97850E+01 1.82952E+01 0.00000E+00
 -1      3979 8.42850E+01 1.82952E+01 0.00000E+00
 -1      3980 8.27850E+01 1.82952E+01 0.00000E+00
 -1      3981 8.20350E+01 1.95942E+01 0.00000E+00
 -1      3982 8.72850E+01 1.82952E+01 0.00000E+00
 -1      3983 8.57850E+01 1.82952E+01 0.00000E+00
 -1      3984 8.50350E+01 1.95942E+01 0.00000E+00
 -1      3985 9.02850E+01 1.82952E+01 0.00000E+00
 -1      3986 8.87850E+01 1.82952E+01 0.00000E+00
 -1      3987 8.80350E+01 1.95942E+01 0.00000E+00
 -1      3988 9.32850E+01 1.82952E+01 0.00000E+00
 -1      3989 9.17850E+01 1.82952E+01 0.00000E+00
 -1      3990 9.10350E+01 1.95942E+01 0.00000E+00
 -1      3991 9.62850E+01 1.82952E+01 0.00000E+00
 -1      3992 9.47850E+01 1.82952E+01 0.00000E+00
 -1      3993 9.40350E+01 1.95942E+01 0.00000E+00
 -1      3994 9.92850E+01 1.82952E+01 0.00000E+00
 -1      3995 9.77850E+01 1.82952E+01 0.00000E+00
 -1      3996 9.70350E+01 1.95942E+01 0.00000E+00
 -1      3997 1.02285E+02 1.82952E+01 0.00000E+00
 -1      3998 1.00785E+02 1.82952E+01 0.00000E+00
 -1      3999 1.00035E+02 1.95942E+01 0.00000E+00
 -1      4000 1.05285E+02 1.82952E+01 0.00000E+00
 -1      4001 1.03785E+02 1.82952E+01 0.00000E+00
 -1      4002 1.03035E+02 1.95942E+01 0.00000E+00
 -1      4003 1.08285E+02 1.82952E+01 0.00000E+00
 -1      4004 1.06785E+02 1.82952E+01 0.00000E+00
 -1      4005 1.06035E+02 1.95942E+01 0.00000E+00
 -1      4006 1.11285E+02 1.82952E+01 0.00000E+00
 -1      4007 1.09785E+02 1.82952E+01 0.00000E+00
 -1      4008 1.09035E+02 1.95942E+01 0.00000E+00
 -1      4009 1.14285E+02 1.82952E+01 0.00000E+00
 -1      4010 1.12785E+02 1.82952E+01 0.00000E+00
 -1      4011 1.12035E+02 1.95942E+01 0.00000E+00
 -1      4012 1.17285E+02 1.82952E+01 0.00000E+00
 -1      4013 1.15785E+02 1.82952E+01 0.00000E+00
 -1      4014 1.15035E+02 1.95942E+01 0.00000E+00
 -1      4015 1.20285E+02 1.82952E+01 0.00000E+00
 -1      4016 1.18785E+02 1.82952E+01 0.00000E+00
 -1      4017 1.18035E+02 1.95942E+01 0.00000E+00
 -1      4018 1.23285E+02 1.82952E+01 0.00000E+00
 -1      4019 1.21785E+02 1.82952E+01 0.00000E+00
 -1      4020 1.21035E+02 1.95942E+01 0.00000E+00
 -1      4021 1.26285E+02 1.82952E+01 0.00000E+00
 -1      4022 1.24785E+02 1.82952E+01 0.00000E+00
 -1      4023 1.24035E+02 1.95942E+01 0.00000E+00
 -1      4024 1.29285E+02 1.82952E+01 0.00000E+00
 -1      4025 1.27785E+02 1.82952E+01 0.00000E+00
 -1      4026 1.27035E+02 1.95942E+01 0.00000E+00
 -1      4027 7.82850E+01 1.82952E+01 0.00000E+00
 -1      4028 7.67850E+01 1.82952E+01 0.00000E+00
 -1      4029 7.90350E+01 1.95942E+01 0.00000E+00
 -1      4030 7.22850E+01 1.82952E+01 0.00000E+00
 -1      4031 7.07850E+01 1.82952E+01 0.00000E+00
 -1      4032 7.00350E+01 1.95942E+01 0.00000E+00
 -1      4033 1.60544E+01 2.28911E+01 0.00000E+00
 -1      4034 6.62850E+01 1.82952E+01 0.00000E+00
 -1      4035 6.47850E+01 1.82952E+01 0.00000E+00
 -1      4036 6.70350E+01 1.95942E+01 0.00000E+00
 -1      4037 7.52850E+01 1.82952E+01 0.00000E+00
 -1      4038 7.37850E+01 1.82952E+01 0.00000E+00
 -1      4039 7.30350E+01 1.95942E+01 0.00000E+00
 -1      4040 7.60350E+01 1.95942E+01 0.00000E+00
 -1      4041 5.73369E+01 1.84412E+01 0.00000E+00
 -1      4042 5.58369E+01 1.84412E+01 0.00000E+00
 -1      4043 5.51908E+01 2.00321E+01 0.00000E+00
 -1      4044 5.80869E+01 1.97402E+01 0.00000E+00
 -1      4045 6.32850E+01 1.82952E+01 0.00000E+00
 -1      4046 6.17850E+01 1.82952E+01 0.00000E+00
 -1      4047 6.40350E+01 1.95942E+01 0.00000E+00
 -1      4048 1.33231E+02 2.01212E+01 0.00000E+00
 -1      4049 1.33292E+02 1.84891E+01 0.00000E+00
 -1      4050 1.32167E+02 1.84011E+01 0.00000E+00
 -1      4051 1.31932E+02 2.08587E+01 0.00000E+00
 -1      4052 1.56775E+01 2.37637E+01 0.00000E+00
 -1      4053 5.33770E+01 2.67853E+01 0.00000E+00
 -1      4054 1.30486E+02 2.66700E+01 0.00000E+00
 -1      4055 1.30486E+02 2.52043E+01 0.00000E+00
 -1      4056 1.29158E+02 2.68555E+01 0.00000E+00
 -1      4057 5.41700E+01 2.52618E+01 0.00000E+00
 -1      4058 5.52951E+01 2.71688E+01 0.00000E+00
 -1      4059 5.67951E+01 2.71688E+01 0.00000E+00
 -1      4060 5.53812E+01 2.41217E+01 0.00000E+00
 -1      4061 5.56566E+01 2.12422E+01 0.00000E+00
 -1      4062 1.31042E+02 1.83131E+01 0.00000E+00
 -1      4063 6.10350E+01 1.95942E+01 0.00000E+00
 -1      4064 1.30292E+02 1.96121E+01 0.00000E+00
 -1      4065 5.82951E+01 2.71688E+01 0.00000E+00
 -1      4066 5.97951E+01 2.71688E+01 0.00000E+00
 -1      4067 5.75882E+01 2.56453E+01 0.00000E+00
 -1      4068 6.12951E+01 2.71688E+01 0.00000E+00
 -1      4069 6.27951E+01 2.71688E+01 0.00000E+00
 -1      4070 6.05882E+01 2.56453E+01 0.00000E+00
 -1      4071 6.42951E+01 2.71688E+01 0.00000E+00
 -1      4072 6.57951E+01 2.71688E+01 0.00000E+00
 -1      4073 6.35882E+01 2.56453E+01 0.00000E+00
 -1      4074 6.72951E+01 2.71688E+01 0.00000E+00
 -1      4075 6.87951E+01 2.71688E+01 0.00000E+00
 -1      4076 6.65882E+01 2.56453E+01 0.00000E+00
 -1      4077 7.02951E+01 2.71688E+01 0.00000E+00
 -1      4078 7.17951E+01 2.71688E+01 0.00000E+00
 -1      4079 6.95882E+01 2.56453E+01 0.00000E+00
 -1      4080 7.32951E+01 2.71688E+01 0.00000E+00
 -1      4081 7.47951E+01 2.71688E+01 0.00000E+00
 -1      4082 7.25882E+01 2.56453E+01 0.00000E+00
 -1      4083 7.62951E+01 2.71688E+01 0.00000E+00
 -1      4084 7.77951E+01 2.71688E+01 0.00000E+00
 -1      4085 7.55882E+01 2.56453E+01 0.00000E+00
 -1      4086 7.92951E+01 2.71688E+01 0.00000E+00
 -1      4087 8.07951E+01 2.71688E+01 0.00000E+00
 -1      4088 7.85882E+01 2.56453E+01 0.00000E+00
 -1      4089 8.22951E+01 2.71688E+01 0.00000E+00
 -1      4090 8.37951E+01 2.71688E+01 0.00000E+00
 -1      4091 8.15882E+01 2.56453E+01 0.00000E+00
 -1      4092 8.52951E+01 2.71688E+01 0.00000E+00
 -1      4093 8.67951E+01 2.71688E+01 0.00000E+00
 -1      4094 8.45882E+01 2.56453E+01 0.00000E+00
 -1      4095 8.82951E+01 2.71688E+01 0.00000E+00
 -1      4096 8.97951E+01 2.71688E+01 0.00000E+00
 -1      4097 8.75882E+01 2.56453E+01 0.00000E+00
 -1      4098 9.12951E+01 2.71688E+01 0.00000E+00
 -1      4099 9.27951E+01 2.71688E+01 0.00000E+00
 -1      4100 9.05882E+01 2.56453E+01 0.00000E+00
 -1      4101 9.42951E+01 2.71688E+01 0.00000E+00
 -1      4102 9.57951E+01 2.71688E+01 0.00000E+00
 -1      4103 9.35882E+01 2.56453E+01 0.00000E+00
 -1      4104 9.72951E+01 2.71688E+01 0.00000E+00
 -1      4105 9.87951E+01 2.71688E+01 0.00000E+00
 -1      4106 9.65882E+01 2.56453E+01 0.00000E+00
 -1      4107 1.00295E+02 2.71688E+01 0.00000E+00
 -1      4108 1.01795E+02 2.71688E+01 0.00000E+00
 -1      4109 9.95882E+01 2.56453E+01 0.00000E+00
 -1      4110 1.03295E+02 2.71688E+01 0.00000E+00
 -1      4111 1.04795E+02 2.71688E+01 0.00000E+00
 -1      4112 1.02588E+02 2.56453E+01 0.00000E+00
 -1      4113 1.06295E+02 2.71688E+01 0.00000E+00
 -1      4114 1.07795E+02 2.71688E+01 0.00000E+00
 -1      4115 1.05588E+02 2.56453E+01 0.00000E+00
 -1      4116 1.09295E+02 2.71688E+01 0.00000E+00
 -1      4117 1.10795E+02 2.71688E+01 0.00000E+00
 -1      4118 1.08588E+02 2.56453E+01 0.00000E+00
 -1      4119 1.12295E+02 2.71688E+01 0.00000E+00
 -1      4120 1.13795E+02 2.71688E+01 0.00000E+00
 -1      4121 1.11588E+02 2.56453E+01 0.00000E+00
 -1      4122 1.15295E+02 2.71688E+01 0.00000E+00
 -1      4123 1.16795E+02 2.71688E+01 0.00000E+00
 -1      4124 1.14588E+02 2.56453E+01 0.00000E+00
 -1      4125 1.18295E+02 2.71688E+01 0.00000E+00
 -1      4126 1.19795E+02 2.71688E+01 0.00000E+00
 -1      4127 1.17588E+02 2.56453E+01 0.00000E+00
 -1      4128 1.21295E+02 2.71688E+01 0.00000E+00
 -1      4129 1.22795E+02 2.71688E+01 0.00000E+00
 -1      4130 1.20588E+02 2.56453E+01 0.00000E+00
 -1      4131 1.24295E+02 2.71688E+01 0.00000E+00
 -1      4132 1.25795E+02 2.71688E+01 0.00000E+00
 -1      4133 1.23588E+02 2.56453E+01 0.00000E+00
 -1      4134 1.26813E+02 2.71049E+01 0.00000E+00
 -1      4135 1.28141E+02 2.69194E+01 0.00000E+00
 -1      4136 1.28141E+02 2.54537E+01 0.00000E+00
 -1      4137 1.26106E+02 2.55814E+01 0.00000E+00
 -1      4138 8.57850E+01 2.08932E+01 0.00000E+00
 -1      4139 8.42850E+01 2.08932E+01 0.00000E+00
 -1      4140 8.87850E+01 2.08932E+01 0.00000E+00
 -1      4141 8.72850E+01 2.08932E+01 0.00000E+00
 -1      4142 8.65350E+01 2.21922E+01 0.00000E+00
 -1      4143 7.07850E+01 2.08932E+01 0.00000E+00
 -1      4144 6.92850E+01 2.08932E+01 0.00000E+00
 -1      4145 8.27850E+01 2.08932E+01 0.00000E+00
 -1      4146 8.12850E+01 2.08932E+01 0.00000E+00
 -1      4147 8.35350E+01 2.21922E+01 0.00000E+00
 -1      4148 9.17850E+01 2.08932E+01 0.00000E+00
 -1      4149 9.02850E+01 2.08932E+01 0.00000E+00
 -1      4150 8.95350E+01 2.21922E+01 0.00000E+00
 -1      4151 9.47850E+01 2.08932E+01 0.00000E+00
 -1      4152 9.32850E+01 2.08932E+01 0.00000E+00
 -1      4153 9.25350E+01 2.21922E+01 0.00000E+00
 -1      4154 9.77850E+01 2.08932E+01 0.00000E+00
 -1      4155 9.62850E+01 2.08932E+01 0.00000E+00
 -1      4156 9.55350E+01 2.21922E+01 0.00000E+00
 -1      4157 1.00785E+02 2.08932E+01 0.00000E+00
 -1      4158 9.92850E+01 2.08932E+01 0.00000E+00
 -1      4159 9.85350E+01 2.21922E+01 0.00000E+00
 -1      4160 1.03785E+02 2.08932E+01 0.00000E+00
 -1      4161 1.02285E+02 2.08932E+01 0.00000E+00
 -1      4162 1.01535E+02 2.21922E+01 0.00000E+00
 -1      4163 1.06785E+02 2.08932E+01 0.00000E+00
 -1      4164 1.05285E+02 2.08932E+01 0.00000E+00
 -1      4165 1.04535E+02 2.21922E+01 0.00000E+00
 -1      4166 1.09785E+02 2.08932E+01 0.00000E+00
 -1      4167 1.08285E+02 2.08932E+01 0.00000E+00
 -1      4168 1.07535E+02 2.21922E+01 0.00000E+00
 -1      4169 1.12785E+02 2.08932E+01 0.00000E+00
 -1      4170 1.11285E+02 2.08932E+01 0.00000E+00
 -1      4171 1.10535E+02 2.21922E+01 0.00000E+00
 -1      4172 1.15785E+02 2.08932E+01 0.00000E+00
 -1      4173 1.14285E+02 2.08932E+01 0.00000E+00
 -1      4174 1.13535E+02 2.21922E+01 0.00000E+00
 -1      4175 1.18785E+02 2.08932E+01 0.00000E+00
 -1      4176 1.17285E+02 2.08932E+01 0.00000E+00
 -1      4177 1.16535E+02 2.21922E+01 0.00000E+00
 -1      4178 1.21785E+02 2.08932E+01 0.00000E+00
 -1      4179 1.20285E+02 2.08932E+01 0.00000E+00
 -1      4180 1.19535E+02 2.21922E+01 0.00000E+00
 -1      4181 1.24785E+02 2.08932E+01 0.00000E+00
 -1      4182 1.23285E+02 2.08932E+01 0.00000E+00
 -1      4183 1.22535E+02 2.21922E+01 0.00000E+00
 -1      4184 1.27785E+02 2.08932E+01 0.00000E+00
 -1      4185 1.26285E+02 2.08932E+01 0.00000E+00
 -1      4186 1.25535E+02 2.21922E+01 0.00000E+00
 -1      4187 7.97850E+01 2.08932E+01 0.00000E+00
 -1      4188 7.82850E+01 2.08932E+01 0.00000E+00
 -1      4189 8.05350E+01 2.21922E+01 0.00000E+00
 -1      4190 5.89412E+01 2.09597E+01 0.00000E+00
 -1      4191 5.74932E+01 2.11056E+01 0.00000E+00
 -1      4192 6.77850E+01 2.08932E+01 0.00000E+00
 -1      4193 6.62850E+01 2.08932E+01 0.00000E+00
 -1      4194 6.85350E+01 2.21922E+01 0.00000E+00
 -1      4195 1.30174E+02 2.08409E+01 0.00000E+00
 -1      4196 5.65109E+01 2.24617E+01 0.00000E+00
 -1      4197 6.19412E+01 2.09597E+01 0.00000E+00
 -1      4198 6.04412E+01 2.09597E+01 0.00000E+00
 -1      4199 5.98475E+01 2.23251E+01 0.00000E+00
 -1      4200 1.30486E+02 2.37387E+01 0.00000E+00
 -1      4201 1.29424E+02 2.21399E+01 0.00000E+00
 -1      4202 6.48631E+01 2.09265E+01 0.00000E+00
 -1      4203 6.33631E+01 2.09265E+01 0.00000E+00
 -1      4204 6.27694E+01 2.22919E+01 0.00000E+00
 -1      4205 6.56131E+01 2.22255E+01 0.00000E+00
 -1      4206 5.72178E+01 2.39852E+01 0.00000E+00
 -1      4207 7.37850E+01 2.08932E+01 0.00000E+00
 -1      4208 7.22850E+01 2.08932E+01 0.00000E+00
 -1      4209 7.15350E+01 2.21922E+01 0.00000E+00
 -1      4210 1.28097E+02 2.37911E+01 0.00000E+00
 -1      4211 7.75350E+01 2.21922E+01 0.00000E+00
 -1      4212 7.67850E+01 2.08932E+01 0.00000E+00
 -1      4213 7.52850E+01 2.08932E+01 0.00000E+00
 -1      4214 8.40616E+01 2.39188E+01 0.00000E+00
 -1      4215 8.25616E+01 2.39188E+01 0.00000E+00
 -1      4216 6.02178E+01 2.39852E+01 0.00000E+00
 -1      4217 6.17178E+01 2.39852E+01 0.00000E+00
 -1      4218 6.31397E+01 2.39520E+01 0.00000E+00
 -1      4219 6.46397E+01 2.39520E+01 0.00000E+00
 -1      4220 6.60616E+01 2.39188E+01 0.00000E+00
 -1      4221 6.75616E+01 2.39188E+01 0.00000E+00
 -1      4222 6.90616E+01 2.39188E+01 0.00000E+00
 -1      4223 7.05616E+01 2.39188E+01 0.00000E+00
 -1      4224 7.20616E+01 2.39188E+01 0.00000E+00
 -1      4225 7.35616E+01 2.39188E+01 0.00000E+00
 -1      4226 7.50616E+01 2.39188E+01 0.00000E+00
 -1      4227 7.65616E+01 2.39188E+01 0.00000E+00
 -1      4228 7.80616E+01 2.39188E+01 0.00000E+00
 -1      4229 7.95616E+01 2.39188E+01 0.00000E+00
 -1      4230 8.10616E+01 2.39188E+01 0.00000E+00
 -1      4231 8.55616E+01 2.39188E+01 0.00000E+00
 -1      4232 8.70616E+01 2.39188E+01 0.00000E+00
 -1      4233 8.85616E+01 2.39188E+01 0.00000E+00
 -1      4234 9.00616E+01 2.39188E+01 0.00000E+00
 -1      4235 9.15616E+01 2.39188E+01 0.00000E+00
 -1      4236 9.30616E+01 2.39188E+01 0.00000E+00
 -1      4237 9.45616E+01 2.39188E+01 0.00000E+00
 -1      4238 9.60616E+01 2.39188E+01 0.00000E+00
 -1      4239 9.75616E+01 2.39188E+01 0.00000E+00
 -1      4240 9.90616E+01 2.39188E+01 0.00000E+00
 -1      4241 1.00562E+02 2.39188E+01 0.00000E+00
 -1      4242 1.02062E+02 2.39188E+01 0.00000E+00
 -1      4243 1.03562E+02 2.39188E+01 0.00000E+00
 -1      4244 1.05062E+02 2.39188E+01 0.00000E+00
 -1      4245 1.06562E+02 2.39188E+01 0.00000E+00
 -1      4246 1.08062E+02 2.39188E+01 0.00000E+00
 -1      4247 1.09562E+02 2.39188E+01 0.00000E+00
 -1      4248 1.11062E+02 2.39188E+01 0.00000E+00
 -1      4249 1.12562E+02 2.39188E+01 0.00000E+00
 -1      4250 1.14062E+02 2.39188E+01 0.00000E+00
 -1      4251 1.15562E+02 2.39188E+01 0.00000E+00
 -1      4252 1.17062E+02 2.39188E+01 0.00000E+00
 -1      4253 1.18562E+02 2.39188E+01 0.00000E+00
 -1      4254 1.20062E+02 2.39188E+01 0.00000E+00
 -1      4255 1.21562E+02 2.39188E+01 0.00000E+00
 -1      4256 1.23062E+02 2.39188E+01 0.00000E+00
 -1      4257 1.24562E+02 2.39188E+01 0.00000E+00
 -1      4258 5.87178E+01 2.39852E+01 0.00000E+00
 -1      4259 1.27079E+02 2.38549E+01 0.00000E+00
 -1      4260 1.26062E+02 2.39188E+01 0.00000E+00
 -1      4261 7.45350E+01 2.21922E+01 0.00000E+00
 -3
    3C                          2049                                     1
 -1       164    8    0    1
 -2         6         7        23      1107      1270      1124
 -1       165    8    0    1
 -2         7         8       164      1108      1271      1272
 -1       166    8    0    1
 -2         8         9       165      1109      1273      1274
 -1       167    8    0    1
 -2         8       165       164      1274      1275      1271
 -1       168    8    0    1
 -2         9        10       166      1110      1276      1277
 -1       169    8    0    1
 -2         9       166       165      1277      1278      1273
 -1       170    8    0    1
 -2        10        11       167      1111      1279      1280
 -1       171    8    0    1
 -2        10       167       166      1280      1281      1276
 -1       172    8    0    1
 -2        11        12       168      1112      1282      1283
 -1       173    8    0    1
 -2        11       168       167      1283      1284      1279
 -1       174    8    0    1
 -2        12        13       169      1113      1285      1286
 -1       175    8    0    1
 -2        12       169       168      1286      1287      1282
 -1       176    8    0    1
 -2        13        14       170      1114      1288      1289
 -1       177    8    0    1
 -2        13       170       169      1289      1290      1285
 -1       178    8    0    1
 -2        14        15       171      1115      1291      1292
 -1       179    8    0    1
 -2        14       171       170      1292      1293      1288
 -1       180    8    0    1
 -2        15        16       172      1116      1294      1295
 -1       181    8    0    1
 -2        15       172       171      1295      1296      1291
 -1       182    8    0    1
 -2        16        17       173      1117      1297      1298
 -1       183    8    0    1
 -2        16       173       172      1298      1299      1294
 -1       184    8    0    1
 -2        17        18       174      1118      1300      1301
 -1       185    8    0    1
 -2        17       174       173      1301      1302      1297
 -1       186    8    0    1
 -2        18        19       175      1119      1303      1304
 -1       187    8    0    1
 -2        18       175       174      1304      1305      1300
 -1       188    8    0    1
 -2        19        20       176      1120      1306      1307
 -1       189    8    0    1
 -2        19       176       175      1307      1308      1303
 -1       190    8    0    1
 -2        20        21       177      1121      1309      1310
 -1       191    8    0    1
 -2        20       177       176      1310      1311      1306
 -1       192    8    0    1
 -2        21        22       178      1122      1312      1313
 -1       193    8    0    1
 -2        21       178       177      1313      1314      1309
 -1       194    8    0    1
 -2        22         5       179      1123      1315      1316
 -1       195    8    0    1
 -2       178        22       179      1312      1316      1317
 -1       196    8    0    1
 -2         5        72       179      1174      1318      1315
 -1       197    8    0    1
 -2        24        23       180      1125      1319      1320
 -1       198    8    0    1
 -2        25        24       181      1126      1321      1322
 -1       199    8    0    1
 -2        24       180       181      1320      1323      1321
 -1       200    8    0    1
 -2        26        25       182      1127      1324      1325
 -1       201    8    0    1
 -2        25       181       182      1322      1326      1324
 -1       202    8    0    1
 -2        27        26       183      1128      1327      1328
 -1       203    8    0    1
 -2        26       182       183      1325      1329      1327
 -1       204    8    0    1
 -2        28        27       184      1129      1330      1331
 -1       205    8    0    1
 -2        27       183       184      1328      1332      1330
 -1       206    8    0    1
 -2        29        28       185      1130      1333      1334
 -1       207    8    0    1
 -2        28       184       185      1331      1335      1333
 -1       208    8    0    1
 -2        30        29       186      1131      1336      1337
 -1       209    8    0    1
 -2        29       185       186      1334      1338      1336
 -1       210    8    0    1
 -2        31        30       187      1132      1339      1340
 -1       211    8    0    1
 -2        30       186       187      1337      1341      1339
 -1       212    8    0    1
 -2        32        31       188      1133      1342      1343
 -1       213    8    0    1
 -2        31       187       188      1340      1344      1342
 -1       214    8    0    1
 -2        33        32       189      1134      1345      1346
 -1       215    8    0    1
 -2        32       188       189      1343      1347      1345
 -1       216    8    0    1
 -2        34        33       190      1135      1348      1349
 -1       217    8    0    1
 -2        33       189       190      1346      1350      1348
 -1       218    8    0    1
 -2        35        34       191      1136      1351      1352
 -1       219    8    0    1
 -2        34       190       191      1349      1353      1351
 -1       220    8    0    1
 -2        36        35       192      1137      1354      1355
 -1       221    8    0    1
 -2        35       191       192      1352      1356      1354
 -1       222    8    0    1
 -2        37        36       193      1138      1357      1358
 -1       223    8    0    1
 -2        36       192       193      1355      1359      1357
 -1       224    8    0    1
 -2        38        37       194      1139      1360      1361
 -1       225    8    0    1
 -2        37       193       194      1358      1362      1360
 -1       226    8    0    1
 -2        39        38       195      1140      1363      1364
 -1       227    8    0    1
 -2        38       194       195      1361      1365      1363
 -1       228    8    0    1
 -2        40        39       196      1141      1366      1367
 -1       229    8    0    1
 -2        39       195       196      1364      1368      1366
 -1       230    8    0    1
 -2        41        40       197      1142      1369      1370
 -1       231    8    0    1
 -2        40       196       197      1367      1371      1369
 -1       232    8    0    1
 -2        42        41       198      1143      1372      1373
 -1       233    8    0    1
 -2        41       197       198      1370      1374      1372
 -1       234    8    0    1
 -2        43        42       199      1144      1375      1376
 -1       235    8    0    1
 -2        42       198       199      1373      1377      1375
 -1       236    8    0    1
 -2        44        43       200      1145      1378      1379
 -1       237    8    0    1
 -2        43       199       200      1376      1380      1378
 -1       238    8    0    1
 -2        45        44       201      1146      1381      1382
 -1       239    8    0    1
 -2        44       200       201      1379      1383      1381
 -1       240    8    0    1
 -2        46        45       202      1147      1384      1385
 -1       241    8    0    1
 -2        45       201       202      1382      1386      1384
 -1       242    8    0    1
 -2        47        46       203      1148      1387      1388
 -1       243    8    0    1
 -2        46       202       203      1385      1389      1387
 -1       244    8    0    1
 -2        48        47       204      1149      1390      1391
 -1       245    8    0    1
 -2        47       203       204      1388      1392      1390
 -1       246    8    0    1
 -2        49        48       205      1150      1393      1394
 -1       247    8    0    1
 -2        48       204       205      1391      1395      1393
 -1       248    8    0    1
 -2        50        49       206      1151      1396      1397
 -1       249    8    0    1
 -2        49       205       206      1394      1398      1396
 -1       250    8    0    1
 -2        51        50       207      1152      1399      1400
 -1       251    8    0    1
 -2        50       206       207      1397      1401      1399
 -1       252    8    0    1
 -2        52        51       208      1153      1402      1403
 -1       253    8    0    1
 -2        51       207       208      1400      1404      1402
 -1       254    8    0    1
 -2        53        52       209      1154      1405      1406
 -1       255    8    0    1
 -2        52       208       209      1403      1407      1405
 -1       256    8    0    1
 -2        54        53       210      1155      1408      1409
 -1       257    8    0    1
 -2        53       209       210      1406      1410      1408
 -1       258    8    0    1
 -2        55        54       211      1156      1411      1412
 -1       259    8    0    1
 -2        54       210       211      1409      1413      1411
 -1       260    8    0    1
 -2        56        55       212      1157      1414      1415
 -1       261    8    0    1
 -2        55       211       212      1412      1416      1414
 -1       262    8    0    1
 -2        57        56       213      1158      1417      1418
 -1       263    8    0    1
 -2        56       212       213      1415      1419      1417
 -1       264    8    0    1
 -2        58        57       214      1159      1420      1421
 -1       265    8    0    1
 -2        57       213       214      1418      1422      1420
 -1       266    8    0    1
 -2        59        58       215      1160      1423      1424
 -1       267    8    0    1
 -2        58       214       215      1421      1425      1423
 -1       268    8    0    1
 -2        60        59       216      1161      1426      1427
 -1       269    8    0    1
 -2        59       215       216      1424      1428      1426
 -1       270    8    0    1
 -2        61        60       217      1162      1429      1430
 -1       271    8    0    1
 -2        60       216       217      1427      1431      1429
 -1       272    8    0    1
 -2        62        61       218      1163      1432      1433
 -1       273    8    0    1
 -2        61       217       218      1430      1434      1432
 -1       274    8    0    1
 -2        63        62       219      1164      1435      1436
 -1       275    8    0    1
 -2        62       218       219      1433      1437      1435
 -1       276    8    0    1
 -2        64        63       220      1165      1438      1439
 -1       277    8    0    1
 -2        63       219       220      1436      1440      1438
 -1       278    8    0    1
 -2        65        64       221      1166      1441      1442
 -1       279    8    0    1
 -2        64       220       221      1439      1443      1441
 -1       280    8    0    1
 -2        66        65       222      1167      1444      1445
 -1       281    8    0    1
 -2        65       221       222      1442      1446      1444
 -1       282    8    0    1
 -2        67        66       223      1168      1447      1448
 -1       283    8    0    1
 -2        66       222       223      1445      1449      1447
 -1       284    8    0    1
 -2        68        67       224      1169      1450      1451
 -1       285    8    0    1
 -2        67       223       224      1448      1452      1450
 -1       286    8    0    1
 -2        69        68       225      1170      1453      1454
 -1       287    8    0    1
 -2        68       224       225      1451      1455      1453
 -1       288    8    0    1
 -2        70        69       226      1171      1456      1457
 -1       289    8    0    1
 -2        69       225       226      1454      1458      1456
 -1       290    8    0    1
 -2        71        70       227      1172      1459      1460
 -1       291    8    0    1
 -2        70       226       227      1457      1461      1459
 -1       292    8    0    1
 -2         4        71       136      1173      1462      1240
 -1       293    8    0    1
 -2       136        71       227      1462      1460      1463
 -1       294    8    0    1
 -2        72        73       228      1175      1464      1465
 -1       295    8    0    1
 -2        72       228       179      1465      1466      1318
 -1       296    8    0    1
 -2        73        74       229      1176      1467      1468
 -1       297    8    0    1
 -2        73       229       228      1468      1469      1464
 -1       298    8    0    1
 -2        74        75       230      1177      1470      1471
 -1       299    8    0    1
 -2        74       230       229      1471      1472      1467
 -1       300    8    0    1
 -2        75        76       231      1178      1473      1474
 -1       301    8    0    1
 -2        75       231       230      1474      1475      1470
 -1       302    8    0    1
 -2        76        77       232      1179      1476      1477
 -1       303    8    0    1
 -2        76       232       231      1477      1478      1473
 -1       304    8    0    1
 -2        77        78       233      1180      1479      1480
 -1       305    8    0    1
 -2        77       233       232      1480      1481      1476
 -1       306    8    0    1
 -2        78        79       234      1181      1482      1483
 -1       307    8    0    1
 -2        78       234       233      1483      1484      1479
 -1       308    8    0    1
 -2        79        80       235      1182      1485      1486
 -1       309    8    0    1
 -2        79       235       234      1486      1487      1482
 -1       310    8    0    1
 -2        80        81       236      1183      1488      1489
 -1       311    8    0    1
 -2        80       236       235      1489      1490      1485
 -1       312    8    0    1
 -2        81        82       237      1184      1491      1492
 -1       313    8    0    1
 -2        81       237       236      1492      1493      1488
 -1       314    8    0    1
 -2        82        83       238      1185      1494      1495
 -1       315    8    0    1
 -2        82       238       237      1495      1496      1491
 -1       316    8    0    1
 -2        83        84       239      1186      1497      1498
 -1       317    8    0    1
 -2        83       239       238      1498      1499      1494
 -1       318    8    0    1
 -2        84        85       240      1187      1500      1501
 -1       319    8    0    1
 -2        84       240       239      1501      1502      1497
 -1       320    8    0    1
 -2        85        86       241      1188      1503      1504
 -1       321    8    0    1
 -2        85       241       240      1504      1505      1500
 -1       322    8    0    1
 -2        86        87       242      1189      1506      1507
 -1       323    8    0    1
 -2        86       242       241      1507      1508      1503
 -1       324    8    0    1
 -2        87        88       243      1190      1509      1510
 -1       325    8    0    1
 -2        87       243       242      1510      1511      1506
 -1       326    8    0    1
 -2        88        89       244      1191      1512      1513
 -1       327    8    0    1
 -2        88       244       243      1513      1514      1509
 -1       328    8    0    1
 -2        89        90       245      1192      1515      1516
 -1       329    8    0    1
 -2        89       245       244      1516      1517      1512
 -1       330    8    0    1
 -2        90        91       246      1193      1518      1519
 -1       331    8    0    1
 -2        90       246       245      1519      1520      1515
 -1       332    8    0    1
 -2        91        92       247      1194      1521      1522
 -1       333    8    0    1
 -2        91       247       246      1522      1523      1518
 -1       334    8    0    1
 -2        92        93       248      1195      1524      1525
 -1       335    8    0    1
 -2        92       248       247      1525      1526      1521
 -1       336    8    0    1
 -2        93        94       249      1196      1527      1528
 -1       337    8    0    1
 -2        93       249       248      1528      1529      1524
 -1       338    8    0    1
 -2        94        95       250      1197      1530      1531
 -1       339    8    0    1
 -2        94       250       249      1531      1532      1527
 -1       340    8    0    1
 -2        95        96       251      1198      1533      1534
 -1       341    8    0    1
 -2        95       251       250      1534      1535      1530
 -1       342    8    0    1
 -2        96        97       252      1199      1536      1537
 -1       343    8    0    1
 -2        96       252       251      1537      1538      1533
 -1       344    8    0    1
 -2        97        98       253      1200      1539      1540
 -1       345    8    0    1
 -2        97       253       252      1540      1541      1536
 -1       346    8    0    1
 -2        98        99       254      1201      1542      1543
 -1       347    8    0    1
 -2        98       254       253      1543      1544      1539
 -1       348    8    0    1
 -2        99       100       255      1202      1545      1546
 -1       349    8    0    1
 -2        99       255       254      1546      1547      1542
 -1       350    8    0    1
 -2       100       101       256      1203      1548      1549
 -1       351    8    0    1
 -2       100       256       255      1549      1550      1545
 -1       352    8    0    1
 -2       101       102       257      1204      1551      1552
 -1       353    8    0    1
 -2       101       257       256      1552      1553      1548
 -1       354    8    0    1
 -2       102       103       258      1205      1554      1555
 -1       355    8    0    1
 -2       102       258       257      1555      1556      1551
 -1       356    8    0    1
 -2       103       104       259      1206      1557      1558
 -1       357    8    0    1
 -2       103       259       258      1558      1559      1554
 -1       358    8    0    1
 -2       104       105       260      1207      1560      1561
 -1       359    8    0    1
 -2       104       260       259      1561      1562      1557
 -1       360    8    0    1
 -2       105       106       261      1208      1563      1564
 -1       361    8    0    1
 -2       105       261       260      1564      1565      1560
 -1       362    8    0    1
 -2       106       107       262      1209      1566      1567
 -1       363    8    0    1
 -2       106       262       261      1567      1568      1563
 -1       364    8    0    1
 -2       107       108       263      1210      1569      1570
 -1       365    8    0    1
 -2       107       263       262      1570      1571      1566
 -1       366    8    0    1
 -2       108       109       264      1211      1572      1573
 -1       367    8    0    1
 -2       108       264       263      1573      1574      1569
 -1       368    8    0    1
 -2       109       110       265      1212      1575      1576
 -1       369    8    0    1
 -2       109       265       264      1576      1577      1572
 -1       370    8    0    1
 -2       110       111       266      1213      1578      1579
 -1       371    8    0    1
 -2       110       266       265      1579      1580      1575
 -1       372    8    0    1
 -2       111       112       267      1214      1581      1582
 -1       373    8    0    1
 -2       111       267       266      1582      1583      1578
 -1       374    8    0    1
 -2       112       113       268      1215      1584      1585
 -1       375    8    0    1
 -2       112       268       267      1585      1586      1581
 -1       376    8    0    1
 -2       113       114       269      1216      1587      1588
 -1       377    8    0    1
 -2       113       269       268      1588      1589      1584
 -1       378    8    0    1
 -2       114       115       270      1217      1590      1591
 -1       379    8    0    1
 -2       114       270       269      1591      1592      1587
 -1       380    8    0    1
 -2       115       116       271      1218      1593      1594
 -1       381    8    0    1
 -2       115       271       270      1594      1595      1590
 -1       382    8    0    1
 -2       116       117       272      1219      1596      1597
 -1       383    8    0    1
 -2       116       272       271      1597      1598      1593
 -1       384    8    0    1
 -2       117       118       273      1220      1599      1600
 -1       385    8    0    1
 -2       117       273       272      1600      1601      1596
 -1       386    8    0    1
 -2       118       119       274      1221      1602      1603
 -1       387    8    0    1
 -2       118       274       273      1603      1604      1599
 -1       388    8    0    1
 -2       119       120       275      1222      1605      1606
 -1       389    8    0    1
 -2       119       275       274      1606      1607      1602
 -1       390    8    0    1
 -2       120         3       121      1223      1224      1608
 -1       391    8    0    1
 -2       121       122       276      1225      1609      1610
 -1       392    8    0    1
 -2       122       123       277      1226      1611      1612
 -1       393    8    0    1
 -2       122       277       276      1612      1613      1609
 -1       394    8    0    1
 -2       123       124       278      1227      1614      1615
 -1       395    8    0    1
 -2       123       278       277      1615      1616      1611
 -1       396    8    0    1
 -2       124       125       279      1228      1617      1618
 -1       397    8    0    1
 -2       124       279       278      1618      1619      1614
 -1       398    8    0    1
 -2       125       126       280      1229      1620      1621
 -1       399    8    0    1
 -2       125       280       279      1621      1622      1617
 -1       400    8    0    1
 -2       126       127       281      1230      1623      1624
 -1       401    8    0    1
 -2       126       281       280      1624      1625      1620
 -1       402    8    0    1
 -2       127       128       282      1231      1626      1627
 -1       403    8    0    1
 -2       127       282       281      1627      1628      1623
 -1       404    8    0    1
 -2       128       129       283      1232      1629      1630
 -1       405    8    0    1
 -2       128       283       282      1630      1631      1626
 -1       406    8    0    1
 -2       129       130       284      1233      1632      1633
 -1       407    8    0    1
 -2       129       284       283      1633      1634      1629
 -1       408    8    0    1
 -2       130       131       285      1234      1635      1636
 -1       409    8    0    1
 -2       130       285       284      1636      1637      1632
 -1       410    8    0    1
 -2       131       132       286      1235      1638      1639
 -1       411    8    0    1
 -2       131       286       285      1639      1640      1635
 -1       412    8    0    1
 -2       132       133       287      1236      1641      1642
 -1       413    8    0    1
 -2       132       287       286      1642      1643      1638
 -1       414    8    0    1
 -2       133       134       288      1237      1644      1645
 -1       415    8    0    1
 -2       133       288       287      1645      1646      1641
 -1       416    8    0    1
 -2       134       135       289      1238      1647      1648
 -1       417    8    0    1
 -2       134       289       288      1648      1649      1644
 -1       418    8    0    1
 -2       135       136       290      1239      1650      1651
 -1       419    8    0    1
 -2       289       135       290      1647      1651      1652
 -1       420    8    0    1
 -2       136       227       290      1463      1653      1650
 -1       421    8    0    1
 -2         2       137       291      1241      1654      1655
 -1       422    8    0    1
 -2       137       138       292      1242      1656      1657
 -1       423    8    0    1
 -2       138       139       293      1243      1658      1659
 -1       424    8    0    1
 -2       139       140       294      1244      1660      1661
 -1       425    8    0    1
 -2       140       141       295      1245      1662      1663
 -1       426    8    0    1
 -2       141       142       296      1246      1664      1665
 -1       427    8    0    1
 -2       142       143       297      1247      1666      1667
 -1       428    8    0    1
 -2       143       144       298      1248      1668      1669
 -1       429    8    0    1
 -2       144       145       299      1249      1670      1671
 -1       430    8    0    1
 -2       145       146       300      1250      1672      1673
 -1       431    8    0    1
 -2       146       147       301      1251      1674      1675
 -1       432    8    0    1
 -2       147       148       302      1252      1676      1677
 -1       433    8    0    1
 -2       148       149       303      1253      1678      1679
 -1       434    8    0    1
 -2       149       150       304      1254      1680      1681
 -1       435    8    0    1
 -2       150       151       305      1255      1682      1683
 -1       436    8    0    1
 -2       151       152       306      1256      1684      1685
 -1       437    8    0    1
 -2       152       153       307      1257      1686      1687
 -1       438    8    0    1
 -2       153       154       308      1258      1688      1689
 -1       439    8    0    1
 -2       154       155       309      1259      1690      1691
 -1       440    8    0    1
 -2       155       156       310      1260      1692      1693
 -1       441    8    0    1
 -2       156       157       311      1261      1694      1695
 -1       442    8    0    1
 -2       157         1       312      1262      1696      1697
 -1       443    8    0    1
 -2         1       158       313      1263      1698      1699
 -1       444    8    0    1
 -2       158       159       314      1264      1700      1701
 -1       445    8    0    1
 -2       159       160       315      1265      1702      1703
 -1       446    8    0    1
 -2       160       161       316      1266      1704      1705
 -1       447    8    0    1
 -2       161       162       317      1267      1706      1707
 -1       448    8    0    1
 -2       162       163       318      1268      1708      1709
 -1       449    8    0    1
 -2       163         2       319      1269      1710      1711
 -1       450    8    0    1
 -2       294       140       295      1660      1663      1712
 -1       451    8    0    1
 -2       293       139       294      1658      1661      1713
 -1       452    8    0    1
 -2       120       121       275      1608      1714      1605
 -1       453    8    0    1
 -2       121       276       275      1610      1715      1714
 -1       454    8    0    1
 -2       291       137       292      1654      1657      1716
 -1       455    8    0    1
 -2       292       138       293      1656      1659      1717
 -1       456    8    0    1
 -2         2       291       319      1655      1718      1710
 -1       457    8    0    1
 -2       141       296       295      1665      1719      1662
 -1       458    8    0    1
 -2       142       297       296      1667      1720      1664
 -1       459    8    0    1
 -2       143       298       297      1669      1721      1666
 -1       460    8    0    1
 -2       144       299       298      1671      1722      1668
 -1       461    8    0    1
 -2       145       300       299      1673      1723      1670
 -1       462    8    0    1
 -2       146       301       300      1675      1724      1672
 -1       463    8    0    1
 -2       147       302       301      1677      1725      1674
 -1       464    8    0    1
 -2       148       303       302      1679      1726      1676
 -1       465    8    0    1
 -2       149       304       303      1681      1727      1678
 -1       466    8    0    1
 -2       150       305       304      1683      1728      1680
 -1       467    8    0    1
 -2       151       306       305      1685      1729      1682
 -1       468    8    0    1
 -2       152       307       306      1687      1730      1684
 -1       469    8    0    1
 -2       153       308       307      1689      1731      1686
 -1       470    8    0    1
 -2       154       309       308      1691      1732      1688
 -1       471    8    0    1
 -2       155       310       309      1693      1733      1690
 -1       472    8    0    1
 -2       156       311       310      1695      1734      1692
 -1       473    8    0    1
 -2       157       312       311      1697      1735      1694
 -1       474    8    0    1
 -2         1       313       312      1699      1736      1696
 -1       475    8    0    1
 -2       158       314       313      1701      1737      1698
 -1       476    8    0    1
 -2       159       315       314      1703      1738      1700
 -1       477    8    0    1
 -2       160       316       315      1705      1739      1702
 -1       478    8    0    1
 -2       161       317       316      1707      1740      1704
 -1       479    8    0    1
 -2       162       318       317      1709      1741      1706
 -1       480    8    0    1
 -2       163       319       318      1711      1742      1708
 -1       481    8    0    1
 -2        23         7       164      1270      1272      1743
 -1       482    8    0    1
 -2       165       166       320      1278      1744      1745
 -1       483    8    0    1
 -2       164       165       321      1275      1746      1747
 -1       484    8    0    1
 -2       165       320       321      1745      1748      1746
 -1       485    8    0    1
 -2       167       168       322      1284      1749      1750
 -1       486    8    0    1
 -2       168       169       323      1287      1751      1752
 -1       487    8    0    1
 -2       168       323       322      1752      1753      1749
 -1       488    8    0    1
 -2       169       170       324      1290      1754      1755
 -1       489    8    0    1
 -2       169       324       323      1755      1756      1751
 -1       490    8    0    1
 -2       170       171       325      1293      1757      1758
 -1       491    8    0    1
 -2       170       325       324      1758      1759      1754
 -1       492    8    0    1
 -2       171       172       326      1296      1760      1761
 -1       493    8    0    1
 -2       171       326       325      1761      1762      1757
 -1       494    8    0    1
 -2       172       173       327      1299      1763      1764
 -1       495    8    0    1
 -2       172       327       326      1764      1765      1760
 -1       496    8    0    1
 -2       173       174       328      1302      1766      1767
 -1       497    8    0    1
 -2       173       328       327      1767      1768      1763
 -1       498    8    0    1
 -2       174       175       329      1305      1769      1770
 -1       499    8    0    1
 -2       174       329       328      1770      1771      1766
 -1       500    8    0    1
 -2       175       176       330      1308      1772      1773
 -1       501    8    0    1
 -2       175       330       329      1773      1774      1769
 -1       502    8    0    1
 -2       176       177       331      1311      1775      1776
 -1       503    8    0    1
 -2       176       331       330      1776      1777      1772
 -1       504    8    0    1
 -2       177       178       332      1314      1778      1779
 -1       505    8    0    1
 -2       177       332       331      1779      1780      1775
 -1       506    8    0    1
 -2       178       179       333      1317      1781      1782
 -1       507    8    0    1
 -2       332       178       333      1778      1782      1783
 -1       508    8    0    1
 -2       179       228       333      1466      1784      1781
 -1       509    8    0    1
 -2       180        23       164      1319      1743      1785
 -1       510    8    0    1
 -2       228       229       334      1469      1786      1787
 -1       511    8    0    1
 -2       228       334       333      1787      1788      1784
 -1       512    8    0    1
 -2       180       164       321      1785      1747      1789
 -1       513    8    0    1
 -2       182       181       335      1326      1790      1791
 -1       514    8    0    1
 -2       183       182       336      1329      1792      1793
 -1       515    8    0    1
 -2       182       335       336      1791      1794      1792
 -1       516    8    0    1
 -2       184       183       337      1332      1795      1796
 -1       517    8    0    1
 -2       183       336       337      1793      1797      1795
 -1       518    8    0    1
 -2       185       184       338      1335      1798      1799
 -1       519    8    0    1
 -2       184       337       338      1796      1800      1798
 -1       520    8    0    1
 -2       186       185       339      1338      1801      1802
 -1       521    8    0    1
 -2       185       338       339      1799      1803      1801
 -1       522    8    0    1
 -2       187       186       340      1341      1804      1805
 -1       523    8    0    1
 -2       186       339       340      1802      1806      1804
 -1       524    8    0    1
 -2       188       187       341      1344      1807      1808
 -1       525    8    0    1
 -2       187       340       341      1805      1809      1807
 -1       526    8    0    1
 -2       189       188       342      1347      1810      1811
 -1       527    8    0    1
 -2       188       341       342      1808      1812      1810
 -1       528    8    0    1
 -2       190       189       343      1350      1813      1814
 -1       529    8    0    1
 -2       189       342       343      1811      1815      1813
 -1       530    8    0    1
 -2       191       190       344      1353      1816      1817
 -1       531    8    0    1
 -2       190       343       344      1814      1818      1816
 -1       532    8    0    1
 -2       192       191       345      1356      1819      1820
 -1       533    8    0    1
 -2       191       344       345      1817      1821      1819
 -1       534    8    0    1
 -2       193       192       346      1359      1822      1823
 -1       535    8    0    1
 -2       192       345       346      1820      1824      1822
 -1       536    8    0    1
 -2       194       193       347      1362      1825      1826
 -1       537    8    0    1
 -2       193       346       347      1823      1827      1825
 -1       538    8    0    1
 -2       195       194       348      1365      1828      1829
 -1       539    8    0    1
 -2       194       347       348      1826      1830      1828
 -1       540    8    0    1
 -2       196       195       349      1368      1831      1832
 -1       541    8    0    1
 -2       195       348       349      1829      1833      1831
 -1       542    8    0    1
 -2       197       196       350      1371      1834      1835
 -1       543    8    0    1
 -2       196       349       350      1832      1836      1834
 -1       544    8    0    1
 -2       198       197       351      1374      1837      1838
 -1       545    8    0    1
 -2       197       350       351      1835      1839      1837
 -1       546    8    0    1
 -2       199       198       352      1377      1840      1841
 -1       547    8    0    1
 -2       198       351       352      1838      1842      1840
 -1       548    8    0    1
 -2       200       199       353      1380      1843      1844
 -1       549    8    0    1
 -2       199       352       353      1841      1845      1843
 -1       550    8    0    1
 -2       201       200       354      1383      1846      1847
 -1       551    8    0    1
 -2       200       353       354      1844      1848      1846
 -1       552    8    0    1
 -2       202       201       355      1386      1849      1850
 -1       553    8    0    1
 -2       201       354       355      1847      1851      1849
 -1       554    8    0    1
 -2       203       202       356      1389      1852      1853
 -1       555    8    0    1
 -2       202       355       356      1850      1854      1852
 -1       556    8    0    1
 -2       204       203       357      1392      1855      1856
 -1       557    8    0    1
 -2       203       356       357      1853      1857      1855
 -1       558    8    0    1
 -2       205       204       358      1395      1858      1859
 -1       559    8    0    1
 -2       204       357       358      1856      1860      1858
 -1       560    8    0    1
 -2       206       205       359      1398      1861      1862
 -1       561    8    0    1
 -2       205       358       359      1859      1863      1861
 -1       562    8    0    1
 -2       207       206       360      1401      1864      1865
 -1       563    8    0    1
 -2       206       359       360      1862      1866      1864
 -1       564    8    0    1
 -2       208       207       361      1404      1867      1868
 -1       565    8    0    1
 -2       207       360       361      1865      1869      1867
 -1       566    8    0    1
 -2       209       208       362      1407      1870      1871
 -1       567    8    0    1
 -2       208       361       362      1868      1872      1870
 -1       568    8    0    1
 -2       210       209       363      1410      1873      1874
 -1       569    8    0    1
 -2       209       362       363      1871      1875      1873
 -1       570    8    0    1
 -2       211       210       364      1413      1876      1877
 -1       571    8    0    1
 -2       210       363       364      1874      1878      1876
 -1       572    8    0    1
 -2       212       211       365      1416      1879      1880
 -1       573    8    0    1
 -2       211       364       365      1877      1881      1879
 -1       574    8    0    1
 -2       213       212       366      1419      1882      1883
 -1       575    8    0    1
 -2       212       365       366      1880      1884      1882
 -1       576    8    0    1
 -2       214       213       367      1422      1885      1886
 -1       577    8    0    1
 -2       213       366       367      1883      1887      1885
 -1       578    8    0    1
 -2       215       214       368      1425      1888      1889
 -1       579    8    0    1
 -2       214       367       368      1886      1890      1888
 -1       580    8    0    1
 -2       216       215       369      1428      1891      1892
 -1       581    8    0    1
 -2       215       368       369      1889      1893      1891
 -1       582    8    0    1
 -2       217       216       370      1431      1894      1895
 -1       583    8    0    1
 -2       216       369       370      1892      1896      1894
 -1       584    8    0    1
 -2       218       217       371      1434      1897      1898
 -1       585    8    0    1
 -2       217       370       371      1895      1899      1897
 -1       586    8    0    1
 -2       219       218       372      1437      1900      1901
 -1       587    8    0    1
 -2       218       371       372      1898      1902      1900
 -1       588    8    0    1
 -2       220       219       373      1440      1903      1904
 -1       589    8    0    1
 -2       219       372       373      1901      1905      1903
 -1       590    8    0    1
 -2       221       220       374      1443      1906      1907
 -1       591    8    0    1
 -2       220       373       374      1904      1908      1906
 -1       592    8    0    1
 -2       222       221       375      1446      1909      1910
 -1       593    8    0    1
 -2       221       374       375      1907      1911      1909
 -1       594    8    0    1
 -2       223       222       376      1449      1912      1913
 -1       595    8    0    1
 -2       222       375       376      1910      1914      1912
 -1       596    8    0    1
 -2       224       223       377      1452      1915      1916
 -1       597    8    0    1
 -2       223       376       377      1913      1917      1915
 -1       598    8    0    1
 -2       225       224       378      1455      1918      1919
 -1       599    8    0    1
 -2       224       377       378      1916      1920      1918
 -1       600    8    0    1
 -2       226       225       379      1458      1921      1922
 -1       601    8    0    1
 -2       225       378       379      1919      1923      1921
 -1       602    8    0    1
 -2       227       226       380      1461      1924      1925
 -1       603    8    0    1
 -2       290       227       380      1653      1925      1926
 -1       604    8    0    1
 -2       226       379       380      1922      1927      1924
 -1       605    8    0    1
 -2       229       230       381      1472      1928      1929
 -1       606    8    0    1
 -2       229       381       334      1929      1930      1786
 -1       607    8    0    1
 -2       230       231       382      1475      1931      1932
 -1       608    8    0    1
 -2       230       382       381      1932      1933      1928
 -1       609    8    0    1
 -2       231       232       383      1478      1934      1935
 -1       610    8    0    1
 -2       231       383       382      1935      1936      1931
 -1       611    8    0    1
 -2       232       233       384      1481      1937      1938
 -1       612    8    0    1
 -2       232       384       383      1938      1939      1934
 -1       613    8    0    1
 -2       233       234       385      1484      1940      1941
 -1       614    8    0    1
 -2       233       385       384      1941      1942      1937
 -1       615    8    0    1
 -2       234       235       386      1487      1943      1944
 -1       616    8    0    1
 -2       234       386       385      1944      1945      1940
 -1       617    8    0    1
 -2       235       236       387      1490      1946      1947
 -1       618    8    0    1
 -2       235       387       386      1947      1948      1943
 -1       619    8    0    1
 -2       236       237       388      1493      1949      1950
 -1       620    8    0    1
 -2       236       388       387      1950      1951      1946
 -1       621    8    0    1
 -2       237       238       389      1496      1952      1953
 -1       622    8    0    1
 -2       237       389       388      1953      1954      1949
 -1       623    8    0    1
 -2       238       239       390      1499      1955      1956
 -1       624    8    0    1
 -2       238       390       389      1956      1957      1952
 -1       625    8    0    1
 -2       239       240       391      1502      1958      1959
 -1       626    8    0    1
 -2       239       391       390      1959      1960      1955
 -1       627    8    0    1
 -2       240       241       392      1505      1961      1962
 -1       628    8    0    1
 -2       240       392       391      1962      1963      1958
 -1       629    8    0    1
 -2       241       242       393      1508      1964      1965
 -1       630    8    0    1
 -2       241       393       392      1965      1966      1961
 -1       631    8    0    1
 -2       242       243       394      1511      1967      1968
 -1       632    8    0    1
 -2       242       394       393      1968      1969      1964
 -1       633    8    0    1
 -2       243       244       395      1514      1970      1971
 -1       634    8    0    1
 -2       243       395       394      1971      1972      1967
 -1       635    8    0    1
 -2       244       245       396      1517      1973      1974
 -1       636    8    0    1
 -2       244       396       395      1974      1975      1970
 -1       637    8    0    1
 -2       245       246       397      1520      1976      1977
 -1       638    8    0    1
 -2       245       397       396      1977      1978      1973
 -1       639    8    0    1
 -2       246       247       398      1523      1979      1980
 -1       640    8    0    1
 -2       246       398       397      1980      1981      1976
 -1       641    8    0    1
 -2       247       248       399      1526      1982      1983
 -1       642    8    0    1
 -2       247       399       398      1983      1984      1979
 -1       643    8    0    1
 -2       248       249       400      1529      1985      1986
 -1       644    8    0    1
 -2       248       400       399      1986      1987      1982
 -1       645    8    0    1
 -2       249       250       401      1532      1988      1989
 -1       646    8    0    1
 -2       249       401       400      1989      1990      1985
 -1       647    8    0    1
 -2       250       251       402      1535      1991      1992
 -1       648    8    0    1
 -2       250       402       401      1992      1993      1988
 -1       649    8    0    1
 -2       251       252       403      1538      1994      1995
 -1       650    8    0    1
 -2       251       403       402      1995      1996      1991
 -1       651    8    0    1
 -2       252       253       404      1541      1997      1998
 -1       652    8    0    1
 -2       252       404       403      1998      1999      1994
 -1       653    8    0    1
 -2       253       254       405      1544      2000      2001
 -1       654    8    0    1
 -2       253       405       404      2001      2002      1997
 -1       655    8    0    1
 -2       254       255       406      1547      2003      2004
 -1       656    8    0    1
 -2       254       406       405      2004      2005      2000
 -1       657    8    0    1
 -2       255       256       407      1550      2006      2007
 -1       658    8    0    1
 -2       255       407       406      2007      2008      2003
 -1       659    8    0    1
 -2       256       257       408      1553      2009      2010
 -1       660    8    0    1
 -2       256       408       407      2010      2011      2006
 -1       661    8    0    1
 -2       257       258       409      1556      2012      2013
 -1       662    8    0    1
 -2       257       409       408      2013      2014      2009
 -1       663    8    0    1
 -2       258       259       410      1559      2015      2016
 -1       664    8    0    1
 -2       258       410       409      2016      2017      2012
 -1       665    8    0    1
 -2       259       260       411      1562      2018      2019
 -1       666    8    0    1
 -2       259       411       410      2019      2020      2015
 -1       667    8    0    1
 -2       260       261       412      1565      2021      2022
 -1       668    8    0    1
 -2       260       412       411      2022      2023      2018
 -1       669    8    0    1
 -2       261       262       413      1568      2024      2025
 -1       670    8    0    1
 -2       261       413       412      2025      2026      2021
 -1       671    8    0    1
 -2       262       263       414      1571      2027      2028
 -1       672    8    0    1
 -2       262       414       413      2028      2029      2024
 -1       673    8    0    1
 -2       263       264       415      1574      2030      2031
 -1       674    8    0    1
 -2       263       415       414      2031      2032      2027
 -1       675    8    0    1
 -2       264       265       416      1577      2033      2034
 -1       676    8    0    1
 -2       264       416       415      2034      2035      2030
 -1       677    8    0    1
 -2       265       266       417      1580      2036      2037
 -1       678    8    0    1
 -2       265       417       416      2037      2038      2033
 -1       679    8    0    1
 -2       266       267       418      1583      2039      2040
 -1       680    8    0    1
 -2       266       418       417      2040      2041      2036
 -1       681    8    0    1
 -2       267       268       419      1586      2042      2043
 -1       682    8    0    1
 -2       267       419       418      2043      2044      2039
 -1       683    8    0    1
 -2       268       269       420      1589      2045      2046
 -1       684    8    0    1
 -2       268       420       419      2046      2047      2042
 -1       685    8    0    1
 -2       269       270       421      1592      2048      2049
 -1       686    8    0    1
 -2       269       421       420      2049      2050      2045
 -1       687    8    0    1
 -2       270       271       422      1595      2051      2052
 -1       688    8    0    1
 -2       270       422       421      2052      2053      2048
 -1       689    8    0    1
 -2       271       272       423      1598      2054      2055
 -1       690    8    0    1
 -2       271       423       422      2055      2056      2051
 -1       691    8    0    1
 -2       272       273       424      1601      2057      2058
 -1       692    8    0    1
 -2       272       424       423      2058      2059      2054
 -1       693    8    0    1
 -2       273       274       425      1604      2060      2061
 -1       694    8    0    1
 -2       273       425       424      2061      2062      2057
 -1       695    8    0    1
 -2       274       275       426      1607      2063      2064
 -1       696    8    0    1
 -2       425       274       426      2060      2064      2065
 -1       697    8    0    1
 -2       275       276       426      1715      2066      2063
 -1       698    8    0    1
 -2       278       279       427      1619      2067      2068
 -1       699    8    0    1
 -2       277       278       428      1616      2069      2070
 -1       700    8    0    1
 -2       278       427       428      2068      2071      2069
 -1       701    8    0    1
 -2       276       277       429      1613      2072      2073
 -1       702    8    0    1
 -2       426       276       429      2066      2073      2074
 -1       703    8    0    1
 -2       277       428       429      2070      2075      2072
 -1       704    8    0    1
 -2       279       280       430      1622      2076      2077
 -1       705    8    0    1
 -2       279       430       427      2077      2078      2067
 -1       706    8    0    1
 -2       280       281       431      1625      2079      2080
 -1       707    8    0    1
 -2       280       431       430      2080      2081      2076
 -1       708    8    0    1
 -2       281       282       432      1628      2082      2083
 -1       709    8    0    1
 -2       281       432       431      2083      2084      2079
 -1       710    8    0    1
 -2       282       283       433      1631      2085      2086
 -1       711    8    0    1
 -2       282       433       432      2086      2087      2082
 -1       712    8    0    1
 -2       283       284       434      1634      2088      2089
 -1       713    8    0    1
 -2       283       434       433      2089      2090      2085
 -1       714    8    0    1
 -2       284       285       435      1637      2091      2092
 -1       715    8    0    1
 -2       284       435       434      2092      2093      2088
 -1       716    8    0    1
 -2       285       286       436      1640      2094      2095
 -1       717    8    0    1
 -2       285       436       435      2095      2096      2091
 -1       718    8    0    1
 -2       286       287       437      1643      2097      2098
 -1       719    8    0    1
 -2       286       437       436      2098      2099      2094
 -1       720    8    0    1
 -2       287       288       438      1646      2100      2101
 -1       721    8    0    1
 -2       287       438       437      2101      2102      2097
 -1       722    8    0    1
 -2       288       289       439      1649      2103      2104
 -1       723    8    0    1
 -2       288       439       438      2104      2105      2100
 -1       724    8    0    1
 -2       292       293       440      1717      2106      2107
 -1       725    8    0    1
 -2       319       291       441      1718      2108      2109
 -1       726    8    0    1
 -2       291       292       442      1716      2110      2111
 -1       727    8    0    1
 -2       291       442       441      2111      2112      2108
 -1       728    8    0    1
 -2       293       294       443      1713      2113      2114
 -1       729    8    0    1
 -2       294       295       444      1712      2115      2116
 -1       730    8    0    1
 -2       166       167       445      1281      2117      2118
 -1       731    8    0    1
 -2       320       166       445      1744      2118      2119
 -1       732    8    0    1
 -2       167       322       445      1750      2120      2117
 -1       733    8    0    1
 -2       296       297       446      1720      2121      2122
 -1       734    8    0    1
 -2       297       298       447      1721      2123      2124
 -1       735    8    0    1
 -2       297       447       446      2124      2125      2121
 -1       736    8    0    1
 -2       298       299       448      1722      2126      2127
 -1       737    8    0    1
 -2       299       300       449      1723      2128      2129
 -1       738    8    0    1
 -2       300       301       450      1724      2130      2131
 -1       739    8    0    1
 -2       301       302       451      1725      2132      2133
 -1       740    8    0    1
 -2       302       303       452      1726      2134      2135
 -1       741    8    0    1
 -2       303       304       453      1727      2136      2137
 -1       742    8    0    1
 -2       304       305       454      1728      2138      2139
 -1       743    8    0    1
 -2       305       306       455      1729      2140      2141
 -1       744    8    0    1
 -2       306       307       456      1730      2142      2143
 -1       745    8    0    1
 -2       307       308       457      1731      2144      2145
 -1       746    8    0    1
 -2       307       457       456      2145      2146      2142
 -1       747    8    0    1
 -2       308       309       458      1732      2147      2148
 -1       748    8    0    1
 -2       309       310       459      1733      2149      2150
 -1       749    8    0    1
 -2       309       459       458      2150      2151      2147
 -1       750    8    0    1
 -2       310       311       460      1734      2152      2153
 -1       751    8    0    1
 -2       311       312       461      1735      2154      2155
 -1       752    8    0    1
 -2       312       313       462      1736      2156      2157
 -1       753    8    0    1
 -2       313       314       463      1737      2158      2159
 -1       754    8    0    1
 -2       313       463       462      2159      2160      2156
 -1       755    8    0    1
 -2       314       315       464      1738      2161      2162
 -1       756    8    0    1
 -2       315       316       465      1739      2163      2164
 -1       757    8    0    1
 -2       316       317       466      1740      2165      2166
 -1       758    8    0    1
 -2       317       318       467      1741      2167      2168
 -1       759    8    0    1
 -2       318       319       468      1742      2169      2170
 -1       760    8    0    1
 -2       295       296       469      1719      2171      2172
 -1       761    8    0    1
 -2       444       295       469      2115      2172      2173
 -1       762    8    0    1
 -2       180       321       181      1789      2174      1323
 -1       763    8    0    1
 -2       296       446       469      2122      2175      2171
 -1       764    8    0    1
 -2       335       181       321      1790      2174      2176
 -1       765    8    0    1
 -2       442       292       440      2110      2107      2177
 -1       766    8    0    1
 -2       293       443       440      2114      2178      2106
 -1       767    8    0    1
 -2       439       289       290      2103      1652      2179
 -1       768    8    0    1
 -2       319       441       468      2109      2180      2169
 -1       769    8    0    1
 -2       443       294       444      2113      2116      2181
 -1       770    8    0    1
 -2       467       318       468      2167      2170      2182
 -1       771    8    0    1
 -2       466       317       467      2165      2168      2183
 -1       772    8    0    1
 -2       465       316       466      2163      2166      2184
 -1       773    8    0    1
 -2       463       314       464      2158      2162      2185
 -1       774    8    0    1
 -2       461       312       462      2154      2157      2186
 -1       775    8    0    1
 -2       459       310       460      2149      2153      2187
 -1       776    8    0    1
 -2       457       308       470      2144      2188      2189
 -1       777    8    0    1
 -2       308       458       470      2148      2190      2188
 -1       778    8    0    1
 -2       455       306       456      2140      2143      2191
 -1       779    8    0    1
 -2       454       305       455      2138      2141      2192
 -1       780    8    0    1
 -2       453       304       454      2136      2139      2193
 -1       781    8    0    1
 -2       452       303       453      2134      2137      2194
 -1       782    8    0    1
 -2       451       302       452      2132      2135      2195
 -1       783    8    0    1
 -2       450       301       451      2130      2133      2196
 -1       784    8    0    1
 -2       449       300       450      2128      2131      2197
 -1       785    8    0    1
 -2       298       448       471      2127      2198      2199
 -1       786    8    0    1
 -2       298       471       447      2199      2200      2123
 -1       787    8    0    1
 -2       448       299       449      2126      2129      2201
 -1       788    8    0    1
 -2       460       311       461      2152      2155      2202
 -1       789    8    0    1
 -2       464       315       465      2161      2164      2203
 -1       790    8    0    1
 -2       334       381       472      1930      2204      2205
 -1       791    8    0    1
 -2       323       324       473      1756      2206      2207
 -1       792    8    0    1
 -2       322       323       474      1753      2208      2209
 -1       793    8    0    1
 -2       323       473       474      2207      2210      2208
 -1       794    8    0    1
 -2       325       326       475      1762      2211      2212
 -1       795    8    0    1
 -2       326       327       476      1765      2213      2214
 -1       796    8    0    1
 -2       326       476       475      2214      2215      2211
 -1       797    8    0    1
 -2       327       328       477      1768      2216      2217
 -1       798    8    0    1
 -2       327       477       476      2217      2218      2213
 -1       799    8    0    1
 -2       328       329       478      1771      2219      2220
 -1       800    8    0    1
 -2       328       478       477      2220      2221      2216
 -1       801    8    0    1
 -2       329       330       479      1774      2222      2223
 -1       802    8    0    1
 -2       329       479       478      2223      2224      2219
 -1       803    8    0    1
 -2       330       331       480      1777      2225      2226
 -1       804    8    0    1
 -2       330       480       479      2226      2227      2222
 -1       805    8    0    1
 -2       381       382       481      1933      2228      2229
 -1       806    8    0    1
 -2       381       481       472      2229      2230      2204
 -1       807    8    0    1
 -2       336       335       482      1794      2231      2232
 -1       808    8    0    1
 -2       469       446       483      2175      2233      2234
 -1       809    8    0    1
 -2       337       336       484      1797      2235      2236
 -1       810    8    0    1
 -2       336       482       484      2232      2237      2235
 -1       811    8    0    1
 -2       338       337       485      1800      2238      2239
 -1       812    8    0    1
 -2       337       484       485      2236      2240      2238
 -1       813    8    0    1
 -2       339       338       486      1803      2241      2242
 -1       814    8    0    1
 -2       338       485       486      2239      2243      2241
 -1       815    8    0    1
 -2       340       339       487      1806      2244      2245
 -1       816    8    0    1
 -2       339       486       487      2242      2246      2244
 -1       817    8    0    1
 -2       341       340       488      1809      2247      2248
 -1       818    8    0    1
 -2       340       487       488      2245      2249      2247
 -1       819    8    0    1
 -2       342       341       489      1812      2250      2251
 -1       820    8    0    1
 -2       341       488       489      2248      2252      2250
 -1       821    8    0    1
 -2       343       342       490      1815      2253      2254
 -1       822    8    0    1
 -2       342       489       490      2251      2255      2253
 -1       823    8    0    1
 -2       344       343       491      1818      2256      2257
 -1       824    8    0    1
 -2       343       490       491      2254      2258      2256
 -1       825    8    0    1
 -2       345       344       492      1821      2259      2260
 -1       826    8    0    1
 -2       344       491       492      2257      2261      2259
 -1       827    8    0    1
 -2       346       345       493      1824      2262      2263
 -1       828    8    0    1
 -2       345       492       493      2260      2264      2262
 -1       829    8    0    1
 -2       347       346       494      1827      2265      2266
 -1       830    8    0    1
 -2       346       493       494      2263      2267      2265
 -1       831    8    0    1
 -2       348       347       495      1830      2268      2269
 -1       832    8    0    1
 -2       347       494       495      2266      2270      2268
 -1       833    8    0    1
 -2       349       348       496      1833      2271      2272
 -1       834    8    0    1
 -2       348       495       496      2269      2273      2271
 -1       835    8    0    1
 -2       350       349       497      1836      2274      2275
 -1       836    8    0    1
 -2       349       496       497      2272      2276      2274
 -1       837    8    0    1
 -2       351       350       498      1839      2277      2278
 -1       838    8    0    1
 -2       350       497       498      2275      2279      2277
 -1       839    8    0    1
 -2       352       351       499      1842      2280      2281
 -1       840    8    0    1
 -2       351       498       499      2278      2282      2280
 -1       841    8    0    1
 -2       353       352       500      1845      2283      2284
 -1       842    8    0    1
 -2       352       499       500      2281      2285      2283
 -1       843    8    0    1
 -2       354       353       501      1848      2286      2287
 -1       844    8    0    1
 -2       353       500       501      2284      2288      2286
 -1       845    8    0    1
 -2       355       354       502      1851      2289      2290
 -1       846    8    0    1
 -2       354       501       502      2287      2291      2289
 -1       847    8    0    1
 -2       356       355       503      1854      2292      2293
 -1       848    8    0    1
 -2       355       502       503      2290      2294      2292
 -1       849    8    0    1
 -2       357       356       504      1857      2295      2296
 -1       850    8    0    1
 -2       356       503       504      2293      2297      2295
 -1       851    8    0    1
 -2       358       357       505      1860      2298      2299
 -1       852    8    0    1
 -2       357       504       505      2296      2300      2298
 -1       853    8    0    1
 -2       359       358       506      1863      2301      2302
 -1       854    8    0    1
 -2       358       505       506      2299      2303      2301
 -1       855    8    0    1
 -2       360       359       507      1866      2304      2305
 -1       856    8    0    1
 -2       359       506       507      2302      2306      2304
 -1       857    8    0    1
 -2       361       360       508      1869      2307      2308
 -1       858    8    0    1
 -2       360       507       508      2305      2309      2307
 -1       859    8    0    1
 -2       362       361       509      1872      2310      2311
 -1       860    8    0    1
 -2       361       508       509      2308      2312      2310
 -1       861    8    0    1
 -2       363       362       510      1875      2313      2314
 -1       862    8    0    1
 -2       362       509       510      2311      2315      2313
 -1       863    8    0    1
 -2       364       363       511      1878      2316      2317
 -1       864    8    0    1
 -2       363       510       511      2314      2318      2316
 -1       865    8    0    1
 -2       365       364       512      1881      2319      2320
 -1       866    8    0    1
 -2       364       511       512      2317      2321      2319
 -1       867    8    0    1
 -2       366       365       513      1884      2322      2323
 -1       868    8    0    1
 -2       365       512       513      2320      2324      2322
 -1       869    8    0    1
 -2       367       366       514      1887      2325      2326
 -1       870    8    0    1
 -2       366       513       514      2323      2327      2325
 -1       871    8    0    1
 -2       368       367       515      1890      2328      2329
 -1       872    8    0    1
 -2       367       514       515      2326      2330      2328
 -1       873    8    0    1
 -2       369       368       516      1893      2331      2332
 -1       874    8    0    1
 -2       368       515       516      2329      2333      2331
 -1       875    8    0    1
 -2       370       369       517      1896      2334      2335
 -1       876    8    0    1
 -2       369       516       517      2332      2336      2334
 -1       877    8    0    1
 -2       371       370       518      1899      2337      2338
 -1       878    8    0    1
 -2       370       517       518      2335      2339      2337
 -1       879    8    0    1
 -2       372       371       519      1902      2340      2341
 -1       880    8    0    1
 -2       371       518       519      2338      2342      2340
 -1       881    8    0    1
 -2       373       372       520      1905      2343      2344
 -1       882    8    0    1
 -2       372       519       520      2341      2345      2343
 -1       883    8    0    1
 -2       374       373       521      1908      2346      2347
 -1       884    8    0    1
 -2       373       520       521      2344      2348      2346
 -1       885    8    0    1
 -2       375       374       522      1911      2349      2350
 -1       886    8    0    1
 -2       374       521       522      2347      2351      2349
 -1       887    8    0    1
 -2       376       375       523      1914      2352      2353
 -1       888    8    0    1
 -2       375       522       523      2350      2354      2352
 -1       889    8    0    1
 -2       377       376       524      1917      2355      2356
 -1       890    8    0    1
 -2       376       523       524      2353      2357      2355
 -1       891    8    0    1
 -2       378       377       525      1920      2358      2359
 -1       892    8    0    1
 -2       377       524       525      2356      2360      2358
 -1       893    8    0    1
 -2       379       378       526      1923      2361      2362
 -1       894    8    0    1
 -2       378       525       526      2359      2363      2361
 -1       895    8    0    1
 -2       383       384       527      1939      2364      2365
 -1       896    8    0    1
 -2       384       385       528      1942      2366      2367
 -1       897    8    0    1
 -2       384       528       527      2367      2368      2364
 -1       898    8    0    1
 -2       385       386       529      1945      2369      2370
 -1       899    8    0    1
 -2       385       529       528      2370      2371      2366
 -1       900    8    0    1
 -2       386       387       530      1948      2372      2373
 -1       901    8    0    1
 -2       386       530       529      2373      2374      2369
 -1       902    8    0    1
 -2       387       388       531      1951      2375      2376
 -1       903    8    0    1
 -2       387       531       530      2376      2377      2372
 -1       904    8    0    1
 -2       388       389       532      1954      2378      2379
 -1       905    8    0    1
 -2       388       532       531      2379      2380      2375
 -1       906    8    0    1
 -2       389       390       533      1957      2381      2382
 -1       907    8    0    1
 -2       389       533       532      2382      2383      2378
 -1       908    8    0    1
 -2       390       391       534      1960      2384      2385
 -1       909    8    0    1
 -2       390       534       533      2385      2386      2381
 -1       910    8    0    1
 -2       391       392       535      1963      2387      2388
 -1       911    8    0    1
 -2       391       535       534      2388      2389      2384
 -1       912    8    0    1
 -2       392       393       536      1966      2390      2391
 -1       913    8    0    1
 -2       392       536       535      2391      2392      2387
 -1       914    8    0    1
 -2       393       394       537      1969      2393      2394
 -1       915    8    0    1
 -2       393       537       536      2394      2395      2390
 -1       916    8    0    1
 -2       394       395       538      1972      2396      2397
 -1       917    8    0    1
 -2       394       538       537      2397      2398      2393
 -1       918    8    0    1
 -2       395       396       539      1975      2399      2400
 -1       919    8    0    1
 -2       395       539       538      2400      2401      2396
 -1       920    8    0    1
 -2       396       397       540      1978      2402      2403
 -1       921    8    0    1
 -2       396       540       539      2403      2404      2399
 -1       922    8    0    1
 -2       397       398       541      1981      2405      2406
 -1       923    8    0    1
 -2       397       541       540      2406      2407      2402
 -1       924    8    0    1
 -2       398       399       542      1984      2408      2409
 -1       925    8    0    1
 -2       398       542       541      2409      2410      2405
 -1       926    8    0    1
 -2       399       400       543      1987      2411      2412
 -1       927    8    0    1
 -2       399       543       542      2412      2413      2408
 -1       928    8    0    1
 -2       400       401       544      1990      2414      2415
 -1       929    8    0    1
 -2       400       544       543      2415      2416      2411
 -1       930    8    0    1
 -2       401       402       545      1993      2417      2418
 -1       931    8    0    1
 -2       401       545       544      2418      2419      2414
 -1       932    8    0    1
 -2       402       403       546      1996      2420      2421
 -1       933    8    0    1
 -2       402       546       545      2421      2422      2417
 -1       934    8    0    1
 -2       403       404       547      1999      2423      2424
 -1       935    8    0    1
 -2       403       547       546      2424      2425      2420
 -1       936    8    0    1
 -2       404       405       548      2002      2426      2427
 -1       937    8    0    1
 -2       404       548       547      2427      2428      2423
 -1       938    8    0    1
 -2       405       406       549      2005      2429      2430
 -1       939    8    0    1
 -2       405       549       548      2430      2431      2426
 -1       940    8    0    1
 -2       406       407       550      2008      2432      2433
 -1       941    8    0    1
 -2       406       550       549      2433      2434      2429
 -1       942    8    0    1
 -2       407       408       551      2011      2435      2436
 -1       943    8    0    1
 -2       407       551       550      2436      2437      2432
 -1       944    8    0    1
 -2       408       409       552      2014      2438      2439
 -1       945    8    0    1
 -2       408       552       551      2439      2440      2435
 -1       946    8    0    1
 -2       409       410       553      2017      2441      2442
 -1       947    8    0    1
 -2       409       553       552      2442      2443      2438
 -1       948    8    0    1
 -2       410       411       554      2020      2444      2445
 -1       949    8    0    1
 -2       410       554       553      2445      2446      2441
 -1       950    8    0    1
 -2       411       412       555      2023      2447      2448
 -1       951    8    0    1
 -2       411       555       554      2448      2449      2444
 -1       952    8    0    1
 -2       412       413       556      2026      2450      2451
 -1       953    8    0    1
 -2       412       556       555      2451      2452      2447
 -1       954    8    0    1
 -2       413       414       557      2029      2453      2454
 -1       955    8    0    1
 -2       413       557       556      2454      2455      2450
 -1       956    8    0    1
 -2       414       415       558      2032      2456      2457
 -1       957    8    0    1
 -2       414       558       557      2457      2458      2453
 -1       958    8    0    1
 -2       415       416       559      2035      2459      2460
 -1       959    8    0    1
 -2       415       559       558      2460      2461      2456
 -1       960    8    0    1
 -2       416       417       560      2038      2462      2463
 -1       961    8    0    1
 -2       416       560       559      2463      2464      2459
 -1       962    8    0    1
 -2       417       418       561      2041      2465      2466
 -1       963    8    0    1
 -2       417       561       560      2466      2467      2462
 -1       964    8    0    1
 -2       418       419       562      2044      2468      2469
 -1       965    8    0    1
 -2       418       562       561      2469      2470      2465
 -1       966    8    0    1
 -2       419       420       563      2047      2471      2472
 -1       967    8    0    1
 -2       419       563       562      2472      2473      2468
 -1       968    8    0    1
 -2       420       421       564      2050      2474      2475
 -1       969    8    0    1
 -2       420       564       563      2475      2476      2471
 -1       970    8    0    1
 -2       421       422       565      2053      2477      2478
 -1       971    8    0    1
 -2       421       565       564      2478      2479      2474
 -1       972    8    0    1
 -2       422       423       566      2056      2480      2481
 -1       973    8    0    1
 -2       422       566       565      2481      2482      2477
 -1       974    8    0    1
 -2       423       424       567      2059      2483      2484
 -1       975    8    0    1
 -2       423       567       566      2484      2485      2480
 -1       976    8    0    1
 -2       424       425       568      2062      2486      2487
 -1       977    8    0    1
 -2       424       568       567      2487      2488      2483
 -1       978    8    0    1
 -2       425       426       429      2065      2074      2489
 -1       979    8    0    1
 -2       430       431       569      2081      2490      2491
 -1       980    8    0    1
 -2       431       432       570      2084      2492      2493
 -1       981    8    0    1
 -2       431       570       569      2493      2494      2490
 -1       982    8    0    1
 -2       428       427       571      2071      2495      2496
 -1       983    8    0    1
 -2       427       430       572      2078      2497      2498
 -1       984    8    0    1
 -2       571       427       572      2495      2498      2499
 -1       985    8    0    1
 -2       430       569       572      2491      2500      2497
 -1       986    8    0    1
 -2       432       433       573      2087      2501      2502
 -1       987    8    0    1
 -2       432       573       570      2502      2503      2492
 -1       988    8    0    1
 -2       433       434       574      2090      2504      2505
 -1       989    8    0    1
 -2       433       574       573      2505      2506      2501
 -1       990    8    0    1
 -2       434       435       575      2093      2507      2508
 -1       991    8    0    1
 -2       434       575       574      2508      2509      2504
 -1       992    8    0    1
 -2       435       436       576      2096      2510      2511
 -1       993    8    0    1
 -2       435       576       575      2511      2512      2507
 -1       994    8    0    1
 -2       436       437       577      2099      2513      2514
 -1       995    8    0    1
 -2       436       577       576      2514      2515      2510
 -1       996    8    0    1
 -2       437       438       578      2102      2516      2517
 -1       997    8    0    1
 -2       437       578       577      2517      2518      2513
 -1       998    8    0    1
 -2       438       439       579      2105      2519      2520
 -1       999    8    0    1
 -2       438       579       578      2520      2521      2516
 -1      1000    8    0    1
 -2       440       443       580      2178      2522      2523
 -1      1001    8    0    1
 -2       439       290       380      2179      1926      2524
 -1      1002    8    0    1
 -2       468       441       581      2180      2525      2526
 -1      1003    8    0    1
 -2       382       383       582      1936      2527      2528
 -1      1004    8    0    1
 -2       383       527       582      2365      2529      2527
 -1      1005    8    0    1
 -2       441       442       583      2112      2530      2531
 -1      1006    8    0    1
 -2       467       468       584      2182      2532      2533
 -1      1007    8    0    1
 -2       335       321       585      2176      2534      2535
 -1      1008    8    0    1
 -2       482       335       585      2231      2535      2536
 -1      1009    8    0    1
 -2       321       320       585      1748      2537      2534
 -1      1010    8    0    1
 -2       443       444       586      2181      2538      2539
 -1      1011    8    0    1
 -2       443       586       580      2539      2540      2522
 -1      1012    8    0    1
 -2       461       462       587      2186      2541      2542
 -1      1013    8    0    1
 -2       455       456       588      2191      2543      2544
 -1      1014    8    0    1
 -2       324       325       589      1759      2545      2546
 -1      1015    8    0    1
 -2       473       324       589      2206      2546      2547
 -1      1016    8    0    1
 -2       325       475       589      2212      2548      2545
 -1      1017    8    0    1
 -2       448       449       590      2201      2549      2550
 -1      1018    8    0    1
 -2       446       447       591      2125      2551      2552
 -1      1019    8    0    1
 -2       460       461       592      2202      2553      2554
 -1      1020    8    0    1
 -2       449       450       593      2197      2555      2556
 -1      1021    8    0    1
 -2       450       451       594      2196      2557      2558
 -1      1022    8    0    1
 -2       451       452       595      2195      2559      2560
 -1      1023    8    0    1
 -2       452       453       596      2194      2561      2562
 -1      1024    8    0    1
 -2       453       454       597      2193      2563      2564
 -1      1025    8    0    1
 -2       454       455       598      2192      2565      2566
 -1      1026    8    0    1
 -2       456       457       599      2146      2567      2568
 -1      1027    8    0    1
 -2       458       459       600      2151      2569      2570
 -1      1028    8    0    1
 -2       464       465       601      2203      2571      2572
 -1      1029    8    0    1
 -2       459       460       602      2187      2573      2574
 -1      1030    8    0    1
 -2       459       602       600      2574      2575      2569
 -1      1031    8    0    1
 -2       462       463       603      2160      2576      2577
 -1      1032    8    0    1
 -2       463       464       604      2185      2578      2579
 -1      1033    8    0    1
 -2       464       601       604      2572      2580      2578
 -1      1034    8    0    1
 -2       465       466       605      2184      2581      2582
 -1      1035    8    0    1
 -2       466       467       606      2183      2583      2584
 -1      1036    8    0    1
 -2       467       584       606      2533      2585      2583
 -1      1037    8    0    1
 -2       442       440       607      2177      2586      2587
 -1      1038    8    0    1
 -2       442       607       583      2587      2588      2530
 -1      1039    8    0    1
 -2       333       334       608      1788      2589      2590
 -1      1040    8    0    1
 -2       332       333       608      1783      2590      2591
 -1      1041    8    0    1
 -2       334       472       608      2205      2592      2589
 -1      1042    8    0    1
 -2       444       469       609      2173      2593      2594
 -1      1043    8    0    1
 -2       469       483       609      2234      2595      2593
 -1      1044    8    0    1
 -2       448       590       610      2550      2596      2597
 -1      1045    8    0    1
 -2       448       610       471      2597      2598      2198
 -1      1046    8    0    1
 -2       322       474       611      2209      2599      2600
 -1      1047    8    0    1
 -2       322       611       445      2600      2601      2120
 -1      1048    8    0    1
 -2       481       382       582      2228      2528      2602
 -1      1049    8    0    1
 -2       331       332       608      1780      2591      2603
 -1      1050    8    0    1
 -2       586       444       609      2538      2594      2604
 -1      1051    8    0    1
 -2       602       460       612      2573      2605      2606
 -1      1052    8    0    1
 -2       460       592       612      2554      2607      2605
 -1      1053    8    0    1
 -2       468       581       584      2526      2608      2532
 -1      1054    8    0    1
 -2       601       465       605      2571      2582      2609
 -1      1055    8    0    1
 -2       425       429       568      2489      2610      2486
 -1      1056    8    0    1
 -2       429       428       568      2075      2611      2610
 -1      1057    8    0    1
 -2       462       603       587      2577      2612      2541
 -1      1058    8    0    1
 -2       440       580       607      2523      2613      2586
 -1      1059    8    0    1
 -2       461       587       592      2542      2614      2553
 -1      1060    8    0    1
 -2       439       380       613      2524      2615      2616
 -1      1061    8    0    1
 -2       579       439       613      2519      2616      2617
 -1      1062    8    0    1
 -2       380       379       613      1927      2618      2615
 -1      1063    8    0    1
 -2       599       457       470      2567      2189      2619
 -1      1064    8    0    1
 -2       581       441       583      2525      2531      2620
 -1      1065    8    0    1
 -2       331       608       480      2603      2621      2225
 -1      1066    8    0    1
 -2       598       455       588      2565      2544      2622
 -1      1067    8    0    1
 -2       597       454       598      2563      2566      2623
 -1      1068    8    0    1
 -2       588       456       599      2543      2568      2624
 -1      1069    8    0    1
 -2       596       453       597      2561      2564      2625
 -1      1070    8    0    1
 -2       595       452       596      2559      2562      2626
 -1      1071    8    0    1
 -2       594       451       595      2557      2560      2627
 -1      1072    8    0    1
 -2       593       450       594      2555      2558      2628
 -1      1073    8    0    1
 -2       470       458       614      2190      2629      2630
 -1      1074    8    0    1
 -2       458       600       614      2570      2631      2629
 -1      1075    8    0    1
 -2       585       320       445      2537      2119      2632
 -1      1076    8    0    1
 -2       483       446       591      2233      2552      2633
 -1      1077    8    0    1
 -2       591       447       615      2551      2634      2635
 -1      1078    8    0    1
 -2       447       471       615      2200      2636      2634
 -1      1079    8    0    1
 -2       449       593       590      2556      2637      2549
 -1      1080    8    0    1
 -2       603       463       604      2576      2579      2638
 -1      1081    8    0    1
 -2       605       466       606      2581      2584      2639
 -1      1082    8    0    1
 -2       568       428       571      2611      2496      2640
 -1      1083    8    0    1
 -2       613       379       526      2618      2362      2641
 -1      1084    8    0    1
 -2       476       477       616      2218      2642      2643
 -1      1085    8    0    1
 -2       475       476       617      2215      2644      2645
 -1      1086    8    0    1
 -2       476       616       617      2643      2646      2644
 -1      1087    8    0    1
 -2       478       479       618      2224      2647      2648
 -1      1088    8    0    1
 -2       479       480       619      2227      2649      2650
 -1      1089    8    0    1
 -2       479       619       618      2650      2651      2647
 -1      1090    8    0    1
 -2       472       481       620      2230      2652      2653
 -1      1091    8    0    1
 -2       598       588       621      2622      2654      2655
 -1      1092    8    0    1
 -2       609       483       622      2595      2656      2657
 -1      1093    8    0    1
 -2       606       584       623      2585      2658      2659
 -1      1094    8    0    1
 -2       481       582       624      2602      2660      2661
 -1      1095    8    0    1
 -2       481       624       620      2661      2662      2652
 -1      1096    8    0    1
 -2       604       601       625      2580      2663      2664
 -1      1097    8    0    1
 -2       485       484       626      2240      2665      2666
 -1      1098    8    0    1
 -2       486       485       627      2243      2667      2668
 -1      1099    8    0    1
 -2       485       626       627      2666      2669      2667
 -1      1100    8    0    1
 -2       487       486       628      2246      2670      2671
 -1      1101    8    0    1
 -2       486       627       628      2668      2672      2670
 -1      1102    8    0    1
 -2       488       487       629      2249      2673      2674
 -1      1103    8    0    1
 -2       487       628       629      2671      2675      2673
 -1      1104    8    0    1
 -2       489       488       630      2252      2676      2677
 -1      1105    8    0    1
 -2       488       629       630      2674      2678      2676
 -1      1106    8    0    1
 -2       490       489       631      2255      2679      2680
 -1      1107    8    0    1
 -2       489       630       631      2677      2681      2679
 -1      1108    8    0    1
 -2       491       490       632      2258      2682      2683
 -1      1109    8    0    1
 -2       490       631       632      2680      2684      2682
 -1      1110    8    0    1
 -2       492       491       633      2261      2685      2686
 -1      1111    8    0    1
 -2       491       632       633      2683      2687      2685
 -1      1112    8    0    1
 -2       493       492       634      2264      2688      2689
 -1      1113    8    0    1
 -2       492       633       634      2686      2690      2688
 -1      1114    8    0    1
 -2       494       493       635      2267      2691      2692
 -1      1115    8    0    1
 -2       493       634       635      2689      2693      2691
 -1      1116    8    0    1
 -2       495       494       636      2270      2694      2695
 -1      1117    8    0    1
 -2       494       635       636      2692      2696      2694
 -1      1118    8    0    1
 -2       496       495       637      2273      2697      2698
 -1      1119    8    0    1
 -2       495       636       637      2695      2699      2697
 -1      1120    8    0    1
 -2       497       496       638      2276      2700      2701
 -1      1121    8    0    1
 -2       496       637       638      2698      2702      2700
 -1      1122    8    0    1
 -2       498       497       639      2279      2703      2704
 -1      1123    8    0    1
 -2       497       638       639      2701      2705      2703
 -1      1124    8    0    1
 -2       499       498       640      2282      2706      2707
 -1      1125    8    0    1
 -2       498       639       640      2704      2708      2706
 -1      1126    8    0    1
 -2       500       499       641      2285      2709      2710
 -1      1127    8    0    1
 -2       499       640       641      2707      2711      2709
 -1      1128    8    0    1
 -2       501       500       642      2288      2712      2713
 -1      1129    8    0    1
 -2       500       641       642      2710      2714      2712
 -1      1130    8    0    1
 -2       502       501       643      2291      2715      2716
 -1      1131    8    0    1
 -2       501       642       643      2713      2717      2715
 -1      1132    8    0    1
 -2       503       502       644      2294      2718      2719
 -1      1133    8    0    1
 -2       502       643       644      2716      2720      2718
 -1      1134    8    0    1
 -2       504       503       645      2297      2721      2722
 -1      1135    8    0    1
 -2       503       644       645      2719      2723      2721
 -1      1136    8    0    1
 -2       505       504       646      2300      2724      2725
 -1      1137    8    0    1
 -2       504       645       646      2722      2726      2724
 -1      1138    8    0    1
 -2       506       505       647      2303      2727      2728
 -1      1139    8    0    1
 -2       505       646       647      2725      2729      2727
 -1      1140    8    0    1
 -2       507       506       648      2306      2730      2731
 -1      1141    8    0    1
 -2       506       647       648      2728      2732      2730
 -1      1142    8    0    1
 -2       508       507       649      2309      2733      2734
 -1      1143    8    0    1
 -2       507       648       649      2731      2735      2733
 -1      1144    8    0    1
 -2       509       508       650      2312      2736      2737
 -1      1145    8    0    1
 -2       508       649       650      2734      2738      2736
 -1      1146    8    0    1
 -2       510       509       651      2315      2739      2740
 -1      1147    8    0    1
 -2       509       650       651      2737      2741      2739
 -1      1148    8    0    1
 -2       511       510       652      2318      2742      2743
 -1      1149    8    0    1
 -2       510       651       652      2740      2744      2742
 -1      1150    8    0    1
 -2       512       511       653      2321      2745      2746
 -1      1151    8    0    1
 -2       511       652       653      2743      2747      2745
 -1      1152    8    0    1
 -2       513       512       654      2324      2748      2749
 -1      1153    8    0    1
 -2       512       653       654      2746      2750      2748
 -1      1154    8    0    1
 -2       514       513       655      2327      2751      2752
 -1      1155    8    0    1
 -2       513       654       655      2749      2753      2751
 -1      1156    8    0    1
 -2       515       514       656      2330      2754      2755
 -1      1157    8    0    1
 -2       514       655       656      2752      2756      2754
 -1      1158    8    0    1
 -2       516       515       657      2333      2757      2758
 -1      1159    8    0    1
 -2       515       656       657      2755      2759      2757
 -1      1160    8    0    1
 -2       517       516       658      2336      2760      2761
 -1      1161    8    0    1
 -2       516       657       658      2758      2762      2760
 -1      1162    8    0    1
 -2       518       517       659      2339      2763      2764
 -1      1163    8    0    1
 -2       517       658       659      2761      2765      2763
 -1      1164    8    0    1
 -2       519       518       660      2342      2766      2767
 -1      1165    8    0    1
 -2       518       659       660      2764      2768      2766
 -1      1166    8    0    1
 -2       520       519       661      2345      2769      2770
 -1      1167    8    0    1
 -2       519       660       661      2767      2771      2769
 -1      1168    8    0    1
 -2       521       520       662      2348      2772      2773
 -1      1169    8    0    1
 -2       520       661       662      2770      2774      2772
 -1      1170    8    0    1
 -2       522       521       663      2351      2775      2776
 -1      1171    8    0    1
 -2       521       662       663      2773      2777      2775
 -1      1172    8    0    1
 -2       523       522       664      2354      2778      2779
 -1      1173    8    0    1
 -2       522       663       664      2776      2780      2778
 -1      1174    8    0    1
 -2       524       523       665      2357      2781      2782
 -1      1175    8    0    1
 -2       523       664       665      2779      2783      2781
 -1      1176    8    0    1
 -2       525       524       666      2360      2784      2785
 -1      1177    8    0    1
 -2       524       665       666      2782      2786      2784
 -1      1178    8    0    1
 -2       526       525       667      2363      2787      2788
 -1      1179    8    0    1
 -2       525       666       667      2785      2789      2787
 -1      1180    8    0    1
 -2       528       529       668      2371      2790      2791
 -1      1181    8    0    1
 -2       599       470       669      2619      2792      2793
 -1      1182    8    0    1
 -2       527       528       670      2368      2794      2795
 -1      1183    8    0    1
 -2       528       668       670      2791      2796      2794
 -1      1184    8    0    1
 -2       530       531       671      2377      2797      2798
 -1      1185    8    0    1
 -2       532       533       615      2383      2799      2800
 -1      1186    8    0    1
 -2       533       534       672      2386      2801      2802
 -1      1187    8    0    1
 -2       534       535       622      2389      2803      2804
 -1      1188    8    0    1
 -2       535       536       673      2392      2805      2806
 -1      1189    8    0    1
 -2       536       537       674      2395      2807      2808
 -1      1190    8    0    1
 -2       536       674       673      2808      2809      2805
 -1      1191    8    0    1
 -2       537       538       675      2398      2810      2811
 -1      1192    8    0    1
 -2       537       675       674      2811      2812      2807
 -1      1193    8    0    1
 -2       538       539       676      2401      2813      2814
 -1      1194    8    0    1
 -2       538       676       675      2814      2815      2810
 -1      1195    8    0    1
 -2       539       540       677      2404      2816      2817
 -1      1196    8    0    1
 -2       539       677       676      2817      2818      2813
 -1      1197    8    0    1
 -2       540       541       678      2407      2819      2820
 -1      1198    8    0    1
 -2       540       678       677      2820      2821      2816
 -1      1199    8    0    1
 -2       541       542       679      2410      2822      2823
 -1      1200    8    0    1
 -2       541       679       678      2823      2824      2819
 -1      1201    8    0    1
 -2       542       543       680      2413      2825      2826
 -1      1202    8    0    1
 -2       542       680       679      2826      2827      2822
 -1      1203    8    0    1
 -2       543       544       681      2416      2828      2829
 -1      1204    8    0    1
 -2       543       681       680      2829      2830      2825
 -1      1205    8    0    1
 -2       544       545       682      2419      2831      2832
 -1      1206    8    0    1
 -2       544       682       681      2832      2833      2828
 -1      1207    8    0    1
 -2       545       546       683      2422      2834      2835
 -1      1208    8    0    1
 -2       545       683       682      2835      2836      2831
 -1      1209    8    0    1
 -2       546       547       684      2425      2837      2838
 -1      1210    8    0    1
 -2       546       684       683      2838      2839      2834
 -1      1211    8    0    1
 -2       547       548       685      2428      2840      2841
 -1      1212    8    0    1
 -2       547       685       684      2841      2842      2837
 -1      1213    8    0    1
 -2       548       549       686      2431      2843      2844
 -1      1214    8    0    1
 -2       548       686       685      2844      2845      2840
 -1      1215    8    0    1
 -2       549       550       687      2434      2846      2847
 -1      1216    8    0    1
 -2       549       687       686      2847      2848      2843
 -1      1217    8    0    1
 -2       550       551       688      2437      2849      2850
 -1      1218    8    0    1
 -2       550       688       687      2850      2851      2846
 -1      1219    8    0    1
 -2       551       552       689      2440      2852      2853
 -1      1220    8    0    1
 -2       551       689       688      2853      2854      2849
 -1      1221    8    0    1
 -2       552       553       690      2443      2855      2856
 -1      1222    8    0    1
 -2       552       690       689      2856      2857      2852
 -1      1223    8    0    1
 -2       553       554       691      2446      2858      2859
 -1      1224    8    0    1
 -2       553       691       690      2859      2860      2855
 -1      1225    8    0    1
 -2       554       555       692      2449      2861      2862
 -1      1226    8    0    1
 -2       554       692       691      2862      2863      2858
 -1      1227    8    0    1
 -2       555       556       693      2452      2864      2865
 -1      1228    8    0    1
 -2       555       693       692      2865      2866      2861
 -1      1229    8    0    1
 -2       556       557       694      2455      2867      2868
 -1      1230    8    0    1
 -2       556       694       693      2868      2869      2864
 -1      1231    8    0    1
 -2       557       558       695      2458      2870      2871
 -1      1232    8    0    1
 -2       557       695       694      2871      2872      2867
 -1      1233    8    0    1
 -2       558       559       696      2461      2873      2874
 -1      1234    8    0    1
 -2       558       696       695      2874      2875      2870
 -1      1235    8    0    1
 -2       559       560       697      2464      2876      2877
 -1      1236    8    0    1
 -2       559       697       696      2877      2878      2873
 -1      1237    8    0    1
 -2       560       561       698      2467      2879      2880
 -1      1238    8    0    1
 -2       560       698       697      2880      2881      2876
 -1      1239    8    0    1
 -2       561       562       699      2470      2882      2883
 -1      1240    8    0    1
 -2       561       699       698      2883      2884      2879
 -1      1241    8    0    1
 -2       562       563       700      2473      2885      2886
 -1      1242    8    0    1
 -2       562       700       699      2886      2887      2882
 -1      1243    8    0    1
 -2       563       564       701      2476      2888      2889
 -1      1244    8    0    1
 -2       563       701       700      2889      2890      2885
 -1      1245    8    0    1
 -2       564       565       702      2479      2891      2892
 -1      1246    8    0    1
 -2       564       702       701      2892      2893      2888
 -1      1247    8    0    1
 -2       565       566       703      2482      2894      2895
 -1      1248    8    0    1
 -2       565       703       702      2895      2896      2891
 -1      1249    8    0    1
 -2       566       567       704      2485      2897      2898
 -1      1250    8    0    1
 -2       566       704       703      2898      2899      2894
 -1      1251    8    0    1
 -2       567       568       705      2488      2900      2901
 -1      1252    8    0    1
 -2       704       567       705      2897      2901      2902
 -1      1253    8    0    1
 -2       568       571       705      2640      2903      2900
 -1      1254    8    0    1
 -2       573       574       706      2506      2904      2905
 -1      1255    8    0    1
 -2       613       526       707      2641      2906      2907
 -1      1256    8    0    1
 -2       526       667       707      2788      2908      2906
 -1      1257    8    0    1
 -2       569       570       708      2494      2909      2910
 -1      1258    8    0    1
 -2       574       575       709      2509      2911      2912
 -1      1259    8    0    1
 -2       574       709       706      2912      2913      2904
 -1      1260    8    0    1
 -2       570       573       710      2503      2914      2915
 -1      1261    8    0    1
 -2       708       570       710      2909      2915      2916
 -1      1262    8    0    1
 -2       573       706       710      2905      2917      2914
 -1      1263    8    0    1
 -2       582       527       711      2529      2918      2919
 -1      1264    8    0    1
 -2       624       582       711      2660      2919      2920
 -1      1265    8    0    1
 -2       527       670       711      2795      2921      2918
 -1      1266    8    0    1
 -2       575       576       712      2512      2922      2923
 -1      1267    8    0    1
 -2       575       712       709      2923      2924      2911
 -1      1268    8    0    1
 -2       576       577       713      2515      2925      2926
 -1      1269    8    0    1
 -2       576       713       712      2926      2927      2922
 -1      1270    8    0    1
 -2       577       578       714      2518      2928      2929
 -1      1271    8    0    1
 -2       577       714       713      2929      2930      2925
 -1      1272    8    0    1
 -2       586       609       715      2604      2931      2932
 -1      1273    8    0    1
 -2       583       607       716      2588      2933      2934
 -1      1274    8    0    1
 -2       482       585       717      2536      2935      2936
 -1      1275    8    0    1
 -2       607       580       718      2613      2937      2938
 -1      1276    8    0    1
 -2       597       598       719      2623      2939      2940
 -1      1277    8    0    1
 -2       579       613       707      2617      2907      2941
 -1      1278    8    0    1
 -2       601       605       720      2609      2942      2943
 -1      1279    8    0    1
 -2       529       530       721      2374      2944      2945
 -1      1280    8    0    1
 -2       530       671       721      2798      2946      2944
 -1      1281    8    0    1
 -2       484       482       722      2237      2947      2948
 -1      1282    8    0    1
 -2       626       484       722      2665      2948      2949
 -1      1283    8    0    1
 -2       482       717       722      2936      2950      2947
 -1      1284    8    0    1
 -2       580       586       723      2540      2951      2952
 -1      1285    8    0    1
 -2       483       591       672      2633      2953      2954
 -1      1286    8    0    1
 -2       477       478       724      2221      2955      2956
 -1      1287    8    0    1
 -2       616       477       724      2642      2956      2957
 -1      1288    8    0    1
 -2       478       618       724      2648      2958      2955
 -1      1289    8    0    1
 -2       584       581       725      2608      2959      2960
 -1      1290    8    0    1
 -2       474       473       726      2210      2961      2962
 -1      1291    8    0    1
 -2       590       593       671      2637      2963      2964
 -1      1292    8    0    1
 -2       593       594       727      2628      2965      2966
 -1      1293    8    0    1
 -2       594       595       728      2627      2967      2968
 -1      1294    8    0    1
 -2       595       596       729      2626      2969      2970
 -1      1295    8    0    1
 -2       595       729       728      2970      2971      2967
 -1      1296    8    0    1
 -2       588       599       730      2624      2972      2973
 -1      1297    8    0    1
 -2       596       597       731      2625      2974      2975
 -1      1298    8    0    1
 -2       585       445       717      2632      2976      2935
 -1      1299    8    0    1
 -2       581       583       732      2620      2977      2978
 -1      1300    8    0    1
 -2       587       603       733      2612      2979      2980
 -1      1301    8    0    1
 -2       603       604       734      2638      2981      2982
 -1      1302    8    0    1
 -2       603       734       733      2982      2983      2979
 -1      1303    8    0    1
 -2       600       602       735      2575      2984      2985
 -1      1304    8    0    1
 -2       605       606       736      2639      2986      2987
 -1      1305    8    0    1
 -2       480       608       472      2621      2592      2988
 -1      1306    8    0    1
 -2       592       587       737      2614      2989      2990
 -1      1307    8    0    1
 -2       611       474       738      2599      2991      2992
 -1      1308    8    0    1
 -2       474       726       738      2962      2993      2991
 -1      1309    8    0    1
 -2       736       606       623      2986      2659      2994
 -1      1310    8    0    1
 -2       475       617       739      2645      2995      2996
 -1      1311    8    0    1
 -2       475       739       589      2996      2997      2548
 -1      1312    8    0    1
 -2       604       625       734      2664      2998      2981
 -1      1313    8    0    1
 -2       598       621       719      2655      2999      2939
 -1      1314    8    0    1
 -2       609       622       715      2657      3000      2931
 -1      1315    8    0    1
 -2       600       735       614      2985      3001      2631
 -1      1316    8    0    1
 -2       625       601       740      2663      3002      3003
 -1      1317    8    0    1
 -2       601       720       740      2943      3004      3002
 -1      1318    8    0    1
 -2       612       592       741      2607      3005      3006
 -1      1319    8    0    1
 -2       592       737       741      2990      3007      3005
 -1      1320    8    0    1
 -2       471       610       615      2598      3008      2636
 -1      1321    8    0    1
 -2       584       725       623      2960      3009      2658
 -1      1322    8    0    1
 -2       731       597       719      2974      2940      3010
 -1      1323    8    0    1
 -2       729       596       731      2969      2975      3011
 -1      1324    8    0    1
 -2       569       708       742      2910      3012      3013
 -1      1325    8    0    1
 -2       569       742       572      3013      3014      2500
 -1      1326    8    0    1
 -2       668       529       721      2790      2945      3015
 -1      1327    8    0    1
 -2       599       669       730      2793      3016      2972
 -1      1328    8    0    1
 -2       588       730       621      2973      3017      2654
 -1      1329    8    0    1
 -2       535       673       622      2806      3018      2803
 -1      1330    8    0    1
 -2       727       594       728      2965      2968      3019
 -1      1331    8    0    1
 -2       571       572       743      2499      3020      3021
 -1      1332    8    0    1
 -2       705       571       743      2903      3021      3022
 -1      1333    8    0    1
 -2       572       742       743      3014      3023      3020
 -1      1334    8    0    1
 -2       581       732       725      2978      3024      2959
 -1      1335    8    0    1
 -2       716       607       718      2933      2938      3025
 -1      1336    8    0    1
 -2       586       715       723      2932      3026      2951
 -1      1337    8    0    1
 -2       578       579       707      2521      2941      3027
 -1      1338    8    0    1
 -2       718       580       723      2937      2952      3028
 -1      1339    8    0    1
 -2       583       716       732      2934      3029      2977
 -1      1340    8    0    1
 -2       669       470       614      2792      2630      3030
 -1      1341    8    0    1
 -2       720       605       736      2942      2987      3031
 -1      1342    8    0    1
 -2       578       707       744      3027      3032      3033
 -1      1343    8    0    1
 -2       714       578       744      2928      3033      3034
 -1      1344    8    0    1
 -2       707       667       744      2908      3035      3032
 -1      1345    8    0    1
 -2       473       589       745      2547      3036      3037
 -1      1346    8    0    1
 -2       726       473       745      2961      3037      3038
 -1      1347    8    0    1
 -2       589       739       745      2997      3039      3036
 -1      1348    8    0    1
 -2       445       611       717      2601      3040      2976
 -1      1349    8    0    1
 -2       483       672       622      2954      3041      2656
 -1      1350    8    0    1
 -2       590       671       610      2964      3042      2596
 -1      1351    8    0    1
 -2       587       733       737      2980      3043      2989
 -1      1352    8    0    1
 -2       735       602       746      2984      3044      3045
 -1      1353    8    0    1
 -2       602       612       746      2606      3046      3044
 -1      1354    8    0    1
 -2       480       472       620      2988      2653      3047
 -1      1355    8    0    1
 -2       480       620       619      3047      3048      2649
 -1      1356    8    0    1
 -2       619       620       747      3048      3049      3050
 -1      1357    8    0    1
 -2       620       624       747      2662      3051      3049
 -1      1358    8    0    1
 -2       618       619       747      2651      3050      3052
 -1      1359    8    0    1
 -2       719       621       748      2999      3053      3054
 -1      1360    8    0    1
 -2       717       611       738      3040      2992      3055
 -1      1361    8    0    1
 -2       628       627       749      2672      3056      3057
 -1      1362    8    0    1
 -2       629       628       750      2675      3058      3059
 -1      1363    8    0    1
 -2       628       749       750      3057      3060      3058
 -1      1364    8    0    1
 -2       630       629       751      2678      3061      3062
 -1      1365    8    0    1
 -2       629       750       751      3059      3063      3061
 -1      1366    8    0    1
 -2       631       630       741      2681      3064      3065
 -1      1367    8    0    1
 -2       633       632       752      2687      3066      3067
 -1      1368    8    0    1
 -2       634       633       753      2690      3068      3069
 -1      1369    8    0    1
 -2       633       752       753      3067      3070      3068
 -1      1370    8    0    1
 -2       635       634       754      2693      3071      3072
 -1      1371    8    0    1
 -2       634       753       754      3069      3073      3071
 -1      1372    8    0    1
 -2       636       635       755      2696      3074      3075
 -1      1373    8    0    1
 -2       635       754       755      3072      3076      3074
 -1      1374    8    0    1
 -2       637       636       756      2699      3077      3078
 -1      1375    8    0    1
 -2       636       755       756      3075      3079      3077
 -1      1376    8    0    1
 -2       638       637       757      2702      3080      3081
 -1      1377    8    0    1
 -2       637       756       757      3078      3082      3080
 -1      1378    8    0    1
 -2       639       638       758      2705      3083      3084
 -1      1379    8    0    1
 -2       638       757       758      3081      3085      3083
 -1      1380    8    0    1
 -2       640       639       759      2708      3086      3087
 -1      1381    8    0    1
 -2       639       758       759      3084      3088      3086
 -1      1382    8    0    1
 -2       641       640       760      2711      3089      3090
 -1      1383    8    0    1
 -2       640       759       760      3087      3091      3089
 -1      1384    8    0    1
 -2       642       641       761      2714      3092      3093
 -1      1385    8    0    1
 -2       641       760       761      3090      3094      3092
 -1      1386    8    0    1
 -2       643       642       762      2717      3095      3096
 -1      1387    8    0    1
 -2       642       761       762      3093      3097      3095
 -1      1388    8    0    1
 -2       644       643       763      2720      3098      3099
 -1      1389    8    0    1
 -2       643       762       763      3096      3100      3098
 -1      1390    8    0    1
 -2       645       644       764      2723      3101      3102
 -1      1391    8    0    1
 -2       644       763       764      3099      3103      3101
 -1      1392    8    0    1
 -2       646       645       765      2726      3104      3105
 -1      1393    8    0    1
 -2       645       764       765      3102      3106      3104
 -1      1394    8    0    1
 -2       647       646       766      2729      3107      3108
 -1      1395    8    0    1
 -2       646       765       766      3105      3109      3107
 -1      1396    8    0    1
 -2       648       647       767      2732      3110      3111
 -1      1397    8    0    1
 -2       647       766       767      3108      3112      3110
 -1      1398    8    0    1
 -2       649       648       768      2735      3113      3114
 -1      1399    8    0    1
 -2       648       767       768      3111      3115      3113
 -1      1400    8    0    1
 -2       650       649       769      2738      3116      3117
 -1      1401    8    0    1
 -2       649       768       769      3114      3118      3116
 -1      1402    8    0    1
 -2       651       650       770      2741      3119      3120
 -1      1403    8    0    1
 -2       650       769       770      3117      3121      3119
 -1      1404    8    0    1
 -2       652       651       771      2744      3122      3123
 -1      1405    8    0    1
 -2       651       770       771      3120      3124      3122
 -1      1406    8    0    1
 -2       653       652       772      2747      3125      3126
 -1      1407    8    0    1
 -2       652       771       772      3123      3127      3125
 -1      1408    8    0    1
 -2       654       653       773      2750      3128      3129
 -1      1409    8    0    1
 -2       653       772       773      3126      3130      3128
 -1      1410    8    0    1
 -2       655       654       774      2753      3131      3132
 -1      1411    8    0    1
 -2       654       773       774      3129      3133      3131
 -1      1412    8    0    1
 -2       656       655       775      2756      3134      3135
 -1      1413    8    0    1
 -2       655       774       775      3132      3136      3134
 -1      1414    8    0    1
 -2       657       656       776      2759      3137      3138
 -1      1415    8    0    1
 -2       656       775       776      3135      3139      3137
 -1      1416    8    0    1
 -2       658       657       777      2762      3140      3141
 -1      1417    8    0    1
 -2       657       776       777      3138      3142      3140
 -1      1418    8    0    1
 -2       659       658       778      2765      3143      3144
 -1      1419    8    0    1
 -2       658       777       778      3141      3145      3143
 -1      1420    8    0    1
 -2       660       659       779      2768      3146      3147
 -1      1421    8    0    1
 -2       659       778       779      3144      3148      3146
 -1      1422    8    0    1
 -2       661       660       780      2771      3149      3150
 -1      1423    8    0    1
 -2       660       779       780      3147      3151      3149
 -1      1424    8    0    1
 -2       662       661       781      2774      3152      3153
 -1      1425    8    0    1
 -2       661       780       781      3150      3154      3152
 -1      1426    8    0    1
 -2       663       662       782      2777      3155      3156
 -1      1427    8    0    1
 -2       662       781       782      3153      3157      3155
 -1      1428    8    0    1
 -2       664       663       783      2780      3158      3159
 -1      1429    8    0    1
 -2       663       782       783      3156      3160      3158
 -1      1430    8    0    1
 -2       665       664       784      2783      3161      3162
 -1      1431    8    0    1
 -2       664       783       784      3159      3163      3161
 -1      1432    8    0    1
 -2       666       665       785      2786      3164      3165
 -1      1433    8    0    1
 -2       665       784       785      3162      3166      3164
 -1      1434    8    0    1
 -2       667       666       786      2789      3167      3168
 -1      1435    8    0    1
 -2       744       667       786      3035      3168      3169
 -1      1436    8    0    1
 -2       666       785       786      3165      3170      3167
 -1      1437    8    0    1
 -2       709       712       787      2924      3171      3172
 -1      1438    8    0    1
 -2       531       532       788      2380      3173      3174
 -1      1439    8    0    1
 -2       533       672       615      2802      3175      2799
 -1      1440    8    0    1
 -2       534       622       672      2804      3041      2801
 -1      1441    8    0    1
 -2       673       674       789      2809      3176      3177
 -1      1442    8    0    1
 -2       676       677       790      2818      3178      3179
 -1      1443    8    0    1
 -2       677       678       791      2821      3180      3181
 -1      1444    8    0    1
 -2       677       791       790      3181      3182      3178
 -1      1445    8    0    1
 -2       678       679       792      2824      3183      3184
 -1      1446    8    0    1
 -2       678       792       791      3184      3185      3180
 -1      1447    8    0    1
 -2       679       680       793      2827      3186      3187
 -1      1448    8    0    1
 -2       679       793       792      3187      3188      3183
 -1      1449    8    0    1
 -2       680       681       794      2830      3189      3190
 -1      1450    8    0    1
 -2       680       794       793      3190      3191      3186
 -1      1451    8    0    1
 -2       681       682       795      2833      3192      3193
 -1      1452    8    0    1
 -2       681       795       794      3193      3194      3189
 -1      1453    8    0    1
 -2       682       683       796      2836      3195      3196
 -1      1454    8    0    1
 -2       682       796       795      3196      3197      3192
 -1      1455    8    0    1
 -2       683       684       797      2839      3198      3199
 -1      1456    8    0    1
 -2       683       797       796      3199      3200      3195
 -1      1457    8    0    1
 -2       684       685       798      2842      3201      3202
 -1      1458    8    0    1
 -2       684       798       797      3202      3203      3198
 -1      1459    8    0    1
 -2       685       686       799      2845      3204      3205
 -1      1460    8    0    1
 -2       685       799       798      3205      3206      3201
 -1      1461    8    0    1
 -2       686       687       800      2848      3207      3208
 -1      1462    8    0    1
 -2       686       800       799      3208      3209      3204
 -1      1463    8    0    1
 -2       687       688       801      2851      3210      3211
 -1      1464    8    0    1
 -2       687       801       800      3211      3212      3207
 -1      1465    8    0    1
 -2       688       689       802      2854      3213      3214
 -1      1466    8    0    1
 -2       688       802       801      3214      3215      3210
 -1      1467    8    0    1
 -2       689       690       803      2857      3216      3217
 -1      1468    8    0    1
 -2       689       803       802      3217      3218      3213
 -1      1469    8    0    1
 -2       690       691       804      2860      3219      3220
 -1      1470    8    0    1
 -2       690       804       803      3220      3221      3216
 -1      1471    8    0    1
 -2       691       692       805      2863      3222      3223
 -1      1472    8    0    1
 -2       691       805       804      3223      3224      3219
 -1      1473    8    0    1
 -2       692       693       806      2866      3225      3226
 -1      1474    8    0    1
 -2       692       806       805      3226      3227      3222
 -1      1475    8    0    1
 -2       693       694       807      2869      3228      3229
 -1      1476    8    0    1
 -2       693       807       806      3229      3230      3225
 -1      1477    8    0    1
 -2       694       695       808      2872      3231      3232
 -1      1478    8    0    1
 -2       694       808       807      3232      3233      3228
 -1      1479    8    0    1
 -2       695       696       809      2875      3234      3235
 -1      1480    8    0    1
 -2       695       809       808      3235      3236      3231
 -1      1481    8    0    1
 -2       696       697       810      2878      3237      3238
 -1      1482    8    0    1
 -2       696       810       809      3238      3239      3234
 -1      1483    8    0    1
 -2       697       698       811      2881      3240      3241
 -1      1484    8    0    1
 -2       697       811       810      3241      3242      3237
 -1      1485    8    0    1
 -2       698       699       812      2884      3243      3244
 -1      1486    8    0    1
 -2       698       812       811      3244      3245      3240
 -1      1487    8    0    1
 -2       699       700       813      2887      3246      3247
 -1      1488    8    0    1
 -2       699       813       812      3247      3248      3243
 -1      1489    8    0    1
 -2       700       701       814      2890      3249      3250
 -1      1490    8    0    1
 -2       700       814       813      3250      3251      3246
 -1      1491    8    0    1
 -2       701       702       815      2893      3252      3253
 -1      1492    8    0    1
 -2       701       815       814      3253      3254      3249
 -1      1493    8    0    1
 -2       702       703       816      2896      3255      3256
 -1      1494    8    0    1
 -2       702       816       815      3256      3257      3252
 -1      1495    8    0    1
 -2       703       704       817      2899      3258      3259
 -1      1496    8    0    1
 -2       703       817       816      3259      3260      3255
 -1      1497    8    0    1
 -2       704       705       818      2902      3261      3262
 -1      1498    8    0    1
 -2       817       704       818      3258      3262      3263
 -1      1499    8    0    1
 -2       705       743       818      3022      3264      3261
 -1      1500    8    0    1
 -2       617       616       819      2646      3265      3266
 -1      1501    8    0    1
 -2       706       709       820      2913      3267      3268
 -1      1502    8    0    1
 -2       709       787       820      3172      3269      3267
 -1      1503    8    0    1
 -2       671       593       721      2963      3270      2946
 -1      1504    8    0    1
 -2       614       735       821      3001      3271      3272
 -1      1505    8    0    1
 -2       716       718       822      3025      3273      3274
 -1      1506    8    0    1
 -2       712       713       823      2927      3275      3276
 -1      1507    8    0    1
 -2       712       823       787      3276      3277      3171
 -1      1508    8    0    1
 -2       675       676       824      2815      3278      3279
 -1      1509    8    0    1
 -2       676       790       824      3179      3280      3278
 -1      1510    8    0    1
 -2       674       675       825      2812      3281      3282
 -1      1511    8    0    1
 -2       675       824       825      3279      3283      3281
 -1      1512    8    0    1
 -2       732       716       826      3029      3284      3285
 -1      1513    8    0    1
 -2       716       822       826      3274      3286      3284
 -1      1514    8    0    1
 -2       723       715       789      3026      3287      3288
 -1      1515    8    0    1
 -2       729       731       827      3011      3289      3290
 -1      1516    8    0    1
 -2       670       668       828      2796      3291      3292
 -1      1517    8    0    1
 -2       627       626       829      2669      3293      3294
 -1      1518    8    0    1
 -2       627       829       749      3294      3295      3056
 -1      1519    8    0    1
 -2       718       723       830      3028      3296      3297
 -1      1520    8    0    1
 -2       822       718       830      3273      3297      3298
 -1      1521    8    0    1
 -2       723       789       830      3288      3299      3296
 -1      1522    8    0    1
 -2       734       625       753      2998      3300      3301
 -1      1523    8    0    1
 -2       713       714       831      2930      3302      3303
 -1      1524    8    0    1
 -2       713       831       823      3303      3304      3275
 -1      1525    8    0    1
 -2       730       669       832      3016      3305      3306
 -1      1526    8    0    1
 -2       623       725       833      3009      3307      3308
 -1      1527    8    0    1
 -2       731       719       834      3010      3309      3310
 -1      1528    8    0    1
 -2       736       623       835      2994      3311      3312
 -1      1529    8    0    1
 -2       720       736       836      3031      3313      3314
 -1      1530    8    0    1
 -2       728       729       828      2971      3315      3316
 -1      1531    8    0    1
 -2       621       730       837      3017      3317      3318
 -1      1532    8    0    1
 -2       621       837       748      3318      3319      3053
 -1      1533    8    0    1
 -2       725       732       838      3024      3320      3321
 -1      1534    8    0    1
 -2       669       614       839      3030      3322      3323
 -1      1535    8    0    1
 -2       614       821       839      3272      3324      3322
 -1      1536    8    0    1
 -2       733       734       752      2983      3325      3326
 -1      1537    8    0    1
 -2       739       617       840      2995      3327      3328
 -1      1538    8    0    1
 -2       617       819       840      3266      3329      3327
 -1      1539    8    0    1
 -2       725       838       833      3321      3330      3307
 -1      1540    8    0    1
 -2       717       738       722      3055      3331      2950
 -1      1541    8    0    1
 -2       740       720       836      3004      3314      3332
 -1      1542    8    0    1
 -2       618       747       841      3052      3333      3334
 -1      1543    8    0    1
 -2       626       722       842      2949      3335      3336
 -1      1544    8    0    1
 -2       626       842       829      3336      3337      3293
 -1      1545    8    0    1
 -2       742       708       843      3012      3338      3339
 -1      1546    8    0    1
 -2       741       630       751      3064      3062      3340
 -1      1547    8    0    1
 -2       632       631       844      2684      3341      3342
 -1      1548    8    0    1
 -2       721       593       727      3270      2966      3343
 -1      1549    8    0    1
 -2       531       788       671      3174      3344      2797
 -1      1550    8    0    1
 -2       730       832       845      3306      3345      3346
 -1      1551    8    0    1
 -2       730       845       837      3346      3347      3317
 -1      1552    8    0    1
 -2       674       825       789      3282      3348      3176
 -1      1553    8    0    1
 -2       819       616       846      3265      3349      3350
 -1      1554    8    0    1
 -2       616       724       846      2957      3351      3349
 -1      1555    8    0    1
 -2       708       710       847      2916      3352      3353
 -1      1556    8    0    1
 -2       708       847       843      3353      3354      3338
 -1      1557    8    0    1
 -2       726       745       848      3038      3355      3356
 -1      1558    8    0    1
 -2       612       741       751      3006      3340      3357
 -1      1559    8    0    1
 -2       711       670       849      2921      3358      3359
 -1      1560    8    0    1
 -2       670       828       849      3292      3360      3358
 -1      1561    8    0    1
 -2       753       625       754      3300      3361      3073
 -1      1562    8    0    1
 -2       710       706       850      2917      3362      3363
 -1      1563    8    0    1
 -2       847       710       850      3352      3363      3364
 -1      1564    8    0    1
 -2       706       820       850      3268      3365      3362
 -1      1565    8    0    1
 -2       821       735       851      3271      3366      3367
 -1      1566    8    0    1
 -2       735       746       851      3045      3368      3366
 -1      1567    8    0    1
 -2       724       618       841      2958      3334      3369
 -1      1568    8    0    1
 -2       734       753       752      3301      3070      3325
 -1      1569    8    0    1
 -2       733       752       844      3326      3370      3371
 -1      1570    8    0    1
 -2       715       622       673      3000      3018      3372
 -1      1571    8    0    1
 -2       828       729       827      3315      3290      3373
 -1      1572    8    0    1
 -2       789       715       673      3287      3372      3177
 -1      1573    8    0    1
 -2       754       625       740      3361      3003      3374
 -1      1574    8    0    1
 -2       836       736       835      3313      3312      3375
 -1      1575    8    0    1
 -2       732       826       838      3285      3376      3320
 -1      1576    8    0    1
 -2       835       623       833      3311      3308      3377
 -1      1577    8    0    1
 -2       834       719       748      3309      3054      3378
 -1      1578    8    0    1
 -2       832       669       839      3305      3323      3379
 -1      1579    8    0    1
 -2       668       721       727      3015      3343      3380
 -1      1580    8    0    1
 -2       672       591       615      2953      2635      3175
 -1      1581    8    0    1
 -2       731       834       852      3310      3381      3382
 -1      1582    8    0    1
 -2       731       852       827      3382      3383      3289
 -1      1583    8    0    1
 -2       828       668       728      3291      3384      3316
 -1      1584    8    0    1
 -2       728       668       727      3384      3380      3019
 -1      1585    8    0    1
 -2       726       848       853      3356      3385      3386
 -1      1586    8    0    1
 -2       726       853       738      3386      3387      2993
 -1      1587    8    0    1
 -2       733       844       737      3371      3388      3043
 -1      1588    8    0    1
 -2       714       744       854      3034      3389      3390
 -1      1589    8    0    1
 -2       831       714       854      3302      3390      3391
 -1      1590    8    0    1
 -2       744       786       854      3169      3392      3389
 -1      1591    8    0    1
 -2       752       632       844      3066      3342      3370
 -1      1592    8    0    1
 -2       747       624       855      3051      3393      3394
 -1      1593    8    0    1
 -2       841       747       855      3333      3394      3395
 -1      1594    8    0    1
 -2       624       711       855      2920      3396      3393
 -1      1595    8    0    1
 -2       737       844       741      3388      3397      3007
 -1      1596    8    0    1
 -2       750       749       856      3060      3398      3399
 -1      1597    8    0    1
 -2       631       741       844      3065      3397      3341
 -1      1598    8    0    1
 -2       751       750       851      3063      3400      3401
 -1      1599    8    0    1
 -2       755       754       740      3076      3374      3402
 -1      1600    8    0    1
 -2       756       755       857      3079      3403      3404
 -1      1601    8    0    1
 -2       757       756       858      3082      3405      3406
 -1      1602    8    0    1
 -2       756       857       858      3404      3407      3405
 -1      1603    8    0    1
 -2       758       757       859      3085      3408      3409
 -1      1604    8    0    1
 -2       757       858       859      3406      3410      3408
 -1      1605    8    0    1
 -2       759       758       860      3088      3411      3412
 -1      1606    8    0    1
 -2       758       859       860      3409      3413      3411
 -1      1607    8    0    1
 -2       760       759       861      3091      3414      3415
 -1      1608    8    0    1
 -2       759       860       861      3412      3416      3414
 -1      1609    8    0    1
 -2       761       760       862      3094      3417      3418
 -1      1610    8    0    1
 -2       760       861       862      3415      3419      3417
 -1      1611    8    0    1
 -2       762       761       863      3097      3420      3421
 -1      1612    8    0    1
 -2       761       862       863      3418      3422      3420
 -1      1613    8    0    1
 -2       763       762       864      3100      3423      3424
 -1      1614    8    0    1
 -2       762       863       864      3421      3425      3423
 -1      1615    8    0    1
 -2       764       763       865      3103      3426      3427
 -1      1616    8    0    1
 -2       763       864       865      3424      3428      3426
 -1      1617    8    0    1
 -2       765       764       866      3106      3429      3430
 -1      1618    8    0    1
 -2       764       865       866      3427      3431      3429
 -1      1619    8    0    1
 -2       766       765       867      3109      3432      3433
 -1      1620    8    0    1
 -2       765       866       867      3430      3434      3432
 -1      1621    8    0    1
 -2       767       766       868      3112      3435      3436
 -1      1622    8    0    1
 -2       766       867       868      3433      3437      3435
 -1      1623    8    0    1
 -2       768       767       869      3115      3438      3439
 -1      1624    8    0    1
 -2       767       868       869      3436      3440      3438
 -1      1625    8    0    1
 -2       769       768       870      3118      3441      3442
 -1      1626    8    0    1
 -2       768       869       870      3439      3443      3441
 -1      1627    8    0    1
 -2       770       769       871      3121      3444      3445
 -1      1628    8    0    1
 -2       769       870       871      3442      3446      3444
 -1      1629    8    0    1
 -2       771       770       872      3124      3447      3448
 -1      1630    8    0    1
 -2       770       871       872      3445      3449      3447
 -1      1631    8    0    1
 -2       772       771       873      3127      3450      3451
 -1      1632    8    0    1
 -2       771       872       873      3448      3452      3450
 -1      1633    8    0    1
 -2       773       772       874      3130      3453      3454
 -1      1634    8    0    1
 -2       772       873       874      3451      3455      3453
 -1      1635    8    0    1
 -2       774       773       875      3133      3456      3457
 -1      1636    8    0    1
 -2       773       874       875      3454      3458      3456
 -1      1637    8    0    1
 -2       775       774       876      3136      3459      3460
 -1      1638    8    0    1
 -2       774       875       876      3457      3461      3459
 -1      1639    8    0    1
 -2       776       775       877      3139      3462      3463
 -1      1640    8    0    1
 -2       775       876       877      3460      3464      3462
 -1      1641    8    0    1
 -2       777       776       878      3142      3465      3466
 -1      1642    8    0    1
 -2       776       877       878      3463      3467      3465
 -1      1643    8    0    1
 -2       778       777       879      3145      3468      3469
 -1      1644    8    0    1
 -2       777       878       879      3466      3470      3468
 -1      1645    8    0    1
 -2       779       778       880      3148      3471      3472
 -1      1646    8    0    1
 -2       778       879       880      3469      3473      3471
 -1      1647    8    0    1
 -2       780       779       881      3151      3474      3475
 -1      1648    8    0    1
 -2       779       880       881      3472      3476      3474
 -1      1649    8    0    1
 -2       781       780       882      3154      3477      3478
 -1      1650    8    0    1
 -2       780       881       882      3475      3479      3477
 -1      1651    8    0    1
 -2       782       781       883      3157      3480      3481
 -1      1652    8    0    1
 -2       781       882       883      3478      3482      3480
 -1      1653    8    0    1
 -2       783       782       884      3160      3483      3484
 -1      1654    8    0    1
 -2       782       883       884      3481      3485      3483
 -1      1655    8    0    1
 -2       784       783       885      3163      3486      3487
 -1      1656    8    0    1
 -2       783       884       885      3484      3488      3486
 -1      1657    8    0    1
 -2       785       784       886      3166      3489      3490
 -1      1658    8    0    1
 -2       784       885       886      3487      3491      3489
 -1      1659    8    0    1
 -2       788       532       615      3173      2800      3492
 -1      1660    8    0    1
 -2       791       792       887      3185      3493      3494
 -1      1661    8    0    1
 -2       790       791       888      3182      3495      3496
 -1      1662    8    0    1
 -2       791       887       888      3494      3497      3495
 -1      1663    8    0    1
 -2       793       794       889      3191      3498      3499
 -1      1664    8    0    1
 -2       794       795       890      3194      3500      3501
 -1      1665    8    0    1
 -2       794       890       889      3501      3502      3498
 -1      1666    8    0    1
 -2       795       796       891      3197      3503      3504
 -1      1667    8    0    1
 -2       795       891       890      3504      3505      3500
 -1      1668    8    0    1
 -2       796       797       892      3200      3506      3507
 -1      1669    8    0    1
 -2       796       892       891      3507      3508      3503
 -1      1670    8    0    1
 -2       797       798       893      3203      3509      3510
 -1      1671    8    0    1
 -2       797       893       892      3510      3511      3506
 -1      1672    8    0    1
 -2       798       799       894      3206      3512      3513
 -1      1673    8    0    1
 -2       798       894       893      3513      3514      3509
 -1      1674    8    0    1
 -2       799       800       895      3209      3515      3516
 -1      1675    8    0    1
 -2       799       895       894      3516      3517      3512
 -1      1676    8    0    1
 -2       800       801       896      3212      3518      3519
 -1      1677    8    0    1
 -2       800       896       895      3519      3520      3515
 -1      1678    8    0    1
 -2       801       802       897      3215      3521      3522
 -1      1679    8    0    1
 -2       801       897       896      3522      3523      3518
 -1      1680    8    0    1
 -2       802       803       898      3218      3524      3525
 -1      1681    8    0    1
 -2       802       898       897      3525      3526      3521
 -1      1682    8    0    1
 -2       803       804       899      3221      3527      3528
 -1      1683    8    0    1
 -2       803       899       898      3528      3529      3524
 -1      1684    8    0    1
 -2       804       805       900      3224      3530      3531
 -1      1685    8    0    1
 -2       804       900       899      3531      3532      3527
 -1      1686    8    0    1
 -2       805       806       901      3227      3533      3534
 -1      1687    8    0    1
 -2       805       901       900      3534      3535      3530
 -1      1688    8    0    1
 -2       806       807       902      3230      3536      3537
 -1      1689    8    0    1
 -2       806       902       901      3537      3538      3533
 -1      1690    8    0    1
 -2       807       808       903      3233      3539      3540
 -1      1691    8    0    1
 -2       807       903       902      3540      3541      3536
 -1      1692    8    0    1
 -2       808       809       904      3236      3542      3543
 -1      1693    8    0    1
 -2       808       904       903      3543      3544      3539
 -1      1694    8    0    1
 -2       809       810       905      3239      3545      3546
 -1      1695    8    0    1
 -2       809       905       904      3546      3547      3542
 -1      1696    8    0    1
 -2       810       811       906      3242      3548      3549
 -1      1697    8    0    1
 -2       810       906       905      3549      3550      3545
 -1      1698    8    0    1
 -2       811       812       907      3245      3551      3552
 -1      1699    8    0    1
 -2       811       907       906      3552      3553      3548
 -1      1700    8    0    1
 -2       812       813       908      3248      3554      3555
 -1      1701    8    0    1
 -2       812       908       907      3555      3556      3551
 -1      1702    8    0    1
 -2       813       814       909      3251      3557      3558
 -1      1703    8    0    1
 -2       813       909       908      3558      3559      3554
 -1      1704    8    0    1
 -2       814       815       910      3254      3560      3561
 -1      1705    8    0    1
 -2       814       910       909      3561      3562      3557
 -1      1706    8    0    1
 -2       815       816       911      3257      3563      3564
 -1      1707    8    0    1
 -2       815       911       910      3564      3565      3560
 -1      1708    8    0    1
 -2       816       817       912      3260      3566      3567
 -1      1709    8    0    1
 -2       816       912       911      3567      3568      3563
 -1      1710    8    0    1
 -2       820       787       913      3269      3569      3570
 -1      1711    8    0    1
 -2       848       745       914      3355      3571      3572
 -1      1712    8    0    1
 -2       745       739       914      3039      3573      3571
 -1      1713    8    0    1
 -2       612       751       746      3357      3574      3046
 -1      1714    8    0    1
 -2       743       742       915      3023      3575      3576
 -1      1715    8    0    1
 -2       818       743       915      3264      3576      3577
 -1      1716    8    0    1
 -2       742       843       915      3339      3578      3575
 -1      1717    8    0    1
 -2       839       821       916      3324      3579      3580
 -1      1718    8    0    1
 -2       789       825       830      3348      3581      3299
 -1      1719    8    0    1
 -2       787       823       917      3277      3582      3583
 -1      1720    8    0    1
 -2       787       917       913      3583      3584      3569
 -1      1721    8    0    1
 -2       824       790       918      3280      3585      3586
 -1      1722    8    0    1
 -2       790       888       918      3496      3587      3585
 -1      1723    8    0    1
 -2       825       824       919      3283      3588      3589
 -1      1724    8    0    1
 -2       824       918       919      3586      3590      3588
 -1      1725    8    0    1
 -2       826       822       920      3286      3591      3592
 -1      1726    8    0    1
 -2       792       793       921      3188      3593      3594
 -1      1727    8    0    1
 -2       793       889       921      3499      3595      3593
 -1      1728    8    0    1
 -2       836       835       922      3375      3596      3597
 -1      1729    8    0    1
 -2       823       831       923      3304      3598      3599
 -1      1730    8    0    1
 -2       823       923       917      3599      3600      3582
 -1      1731    8    0    1
 -2       834       748       924      3378      3601      3602
 -1      1732    8    0    1
 -2       838       826       925      3376      3603      3604
 -1      1733    8    0    1
 -2       722       738       842      3331      3605      3335
 -1      1734    8    0    1
 -2       833       838       926      3330      3606      3607
 -1      1735    8    0    1
 -2       748       837       927      3319      3608      3609
 -1      1736    8    0    1
 -2       835       833       928      3377      3610      3611
 -1      1737    8    0    1
 -2       833       926       928      3607      3612      3610
 -1      1738    8    0    1
 -2       828       827       849      3373      3613      3360
 -1      1739    8    0    1
 -2       724       841       846      3369      3614      3351
 -1      1740    8    0    1
 -2       832       839       929      3379      3615      3616
 -1      1741    8    0    1
 -2       849       827       852      3613      3383      3617
 -1      1742    8    0    1
 -2       914       739       840      3573      3328      3618
 -1      1743    8    0    1
 -2       822       830       919      3298      3619      3620
 -1      1744    8    0    1
 -2       829       842       930      3337      3621      3622
 -1      1745    8    0    1
 -2       750       856       851      3399      3623      3400
 -1      1746    8    0    1
 -2       711       849       855      3359      3624      3396
 -1      1747    8    0    1
 -2       755       740       857      3402      3625      3403
 -1      1748    8    0    1
 -2       786       785       931      3170      3626      3627
 -1      1749    8    0    1
 -2       854       786       931      3392      3627      3628
 -1      1750    8    0    1
 -2       785       886       931      3490      3629      3626
 -1      1751    8    0    1
 -2       887       792       921      3493      3594      3630
 -1      1752    8    0    1
 -2       845       832       929      3345      3616      3631
 -1      1753    8    0    1
 -2       836       922       857      3597      3632      3633
 -1      1754    8    0    1
 -2       825       919       830      3589      3619      3581
 -1      1755    8    0    1
 -2       836       857       740      3633      3625      3332
 -1      1756    8    0    1
 -2       820       913       932      3570      3634      3635
 -1      1757    8    0    1
 -2       820       932       850      3635      3636      3365
 -1      1758    8    0    1
 -2       826       920       925      3592      3637      3603
 -1      1759    8    0    1
 -2       817       818       915      3263      3577      3638
 -1      1760    8    0    1
 -2       916       821       856      3579      3639      3640
 -1      1761    8    0    1
 -2       848       914       933      3572      3641      3642
 -1      1762    8    0    1
 -2       915       843       912      3578      3643      3644
 -1      1763    8    0    1
 -2       821       851       856      3367      3623      3639
 -1      1764    8    0    1
 -2       846       841       934      3614      3645      3646
 -1      1765    8    0    1
 -2       840       819       935      3329      3647      3648
 -1      1766    8    0    1
 -2       746       751       851      3574      3401      3368
 -1      1767    8    0    1
 -2       834       924       934      3602      3649      3650
 -1      1768    8    0    1
 -2       920       822       919      3591      3620      3651
 -1      1769    8    0    1
 -2       788       615       610      3492      3008      3652
 -1      1770    8    0    1
 -2       922       835       928      3596      3611      3653
 -1      1771    8    0    1
 -2       749       829       936      3295      3654      3655
 -1      1772    8    0    1
 -2       924       748       927      3601      3609      3656
 -1      1773    8    0    1
 -2       838       925       937      3604      3657      3658
 -1      1774    8    0    1
 -2       838       937       926      3658      3659      3606
 -1      1775    8    0    1
 -2       839       916       929      3580      3660      3615
 -1      1776    8    0    1
 -2       843       847       938      3354      3661      3662
 -1      1777    8    0    1
 -2       843       938       912      3662      3663      3643
 -1      1778    8    0    1
 -2       852       834       934      3381      3650      3664
 -1      1779    8    0    1
 -2       610       671       788      3042      3344      3652
 -1      1780    8    0    1
 -2       749       936       856      3655      3665      3398
 -1      1781    8    0    1
 -2       817       915       912      3638      3644      3566
 -1      1782    8    0    1
 -2       831       854       931      3391      3628      3666
 -1      1783    8    0    1
 -2       829       930       936      3622      3667      3654
 -1      1784    8    0    1
 -2       934       841       939      3645      3668      3669
 -1      1785    8    0    1
 -2       852       934       939      3664      3669      3670
 -1      1786    8    0    1
 -2       841       855       939      3395      3671      3668
 -1      1787    8    0    1
 -2       831       931       923      3666      3672      3598
 -1      1788    8    0    1
 -2       848       933       930      3642      3673      3674
 -1      1789    8    0    1
 -2       891       892       940      3508      3675      3676
 -1      1790    8    0    1
 -2       858       857       922      3407      3632      3677
 -1      1791    8    0    1
 -2       931       886       923      3629      3678      3672
 -1      1792    8    0    1
 -2       928       926       941      3612      3679      3680
 -1      1793    8    0    1
 -2       847       850       942      3364      3681      3682
 -1      1794    8    0    1
 -2       850       932       942      3636      3683      3681
 -1      1795    8    0    1
 -2       887       921       943      3630      3684      3685
 -1      1796    8    0    1
 -2       859       858       944      3410      3686      3687
 -1      1797    8    0    1
 -2       858       922       944      3677      3688      3686
 -1      1798    8    0    1
 -2       860       859       945      3413      3689      3690
 -1      1799    8    0    1
 -2       859       944       945      3687      3691      3689
 -1      1800    8    0    1
 -2       861       860       946      3416      3692      3693
 -1      1801    8    0    1
 -2       860       945       946      3690      3694      3692
 -1      1802    8    0    1
 -2       862       861       947      3419      3695      3696
 -1      1803    8    0    1
 -2       861       946       947      3693      3697      3695
 -1      1804    8    0    1
 -2       863       862       948      3422      3698      3699
 -1      1805    8    0    1
 -2       862       947       948      3696      3700      3698
 -1      1806    8    0    1
 -2       864       863       949      3425      3701      3702
 -1      1807    8    0    1
 -2       863       948       949      3699      3703      3701
 -1      1808    8    0    1
 -2       865       864       950      3428      3704      3705
 -1      1809    8    0    1
 -2       864       949       950      3702      3706      3704
 -1      1810    8    0    1
 -2       866       865       951      3431      3707      3708
 -1      1811    8    0    1
 -2       865       950       951      3705      3709      3707
 -1      1812    8    0    1
 -2       867       866       952      3434      3710      3711
 -1      1813    8    0    1
 -2       866       951       952      3708      3712      3710
 -1      1814    8    0    1
 -2       868       867       953      3437      3713      3714
 -1      1815    8    0    1
 -2       867       952       953      3711      3715      3713
 -1      1816    8    0    1
 -2       869       868       954      3440      3716      3717
 -1      1817    8    0    1
 -2       868       953       954      3714      3718      3716
 -1      1818    8    0    1
 -2       870       869       955      3443      3719      3720
 -1      1819    8    0    1
 -2       869       954       955      3717      3721      3719
 -1      1820    8    0    1
 -2       871       870       956      3446      3722      3723
 -1      1821    8    0    1
 -2       870       955       956      3720      3724      3722
 -1      1822    8    0    1
 -2       872       871       957      3449      3725      3726
 -1      1823    8    0    1
 -2       871       956       957      3723      3727      3725
 -1      1824    8    0    1
 -2       873       872       958      3452      3728      3729
 -1      1825    8    0    1
 -2       872       957       958      3726      3730      3728
 -1      1826    8    0    1
 -2       874       873       959      3455      3731      3732
 -1      1827    8    0    1
 -2       873       958       959      3729      3733      3731
 -1      1828    8    0    1
 -2       875       874       960      3458      3734      3735
 -1      1829    8    0    1
 -2       874       959       960      3732      3736      3734
 -1      1830    8    0    1
 -2       876       875       961      3461      3737      3738
 -1      1831    8    0    1
 -2       875       960       961      3735      3739      3737
 -1      1832    8    0    1
 -2       877       876       962      3464      3740      3741
 -1      1833    8    0    1
 -2       876       961       962      3738      3742      3740
 -1      1834    8    0    1
 -2       878       877       963      3467      3743      3744
 -1      1835    8    0    1
 -2       877       962       963      3741      3745      3743
 -1      1836    8    0    1
 -2       879       878       964      3470      3746      3747
 -1      1837    8    0    1
 -2       878       963       964      3744      3748      3746
 -1      1838    8    0    1
 -2       880       879       965      3473      3749      3750
 -1      1839    8    0    1
 -2       879       964       965      3747      3751      3749
 -1      1840    8    0    1
 -2       881       880       966      3476      3752      3753
 -1      1841    8    0    1
 -2       880       965       966      3750      3754      3752
 -1      1842    8    0    1
 -2       882       881       967      3479      3755      3756
 -1      1843    8    0    1
 -2       881       966       967      3753      3757      3755
 -1      1844    8    0    1
 -2       883       882       968      3482      3758      3759
 -1      1845    8    0    1
 -2       882       967       968      3756      3760      3758
 -1      1846    8    0    1
 -2       884       883       969      3485      3761      3762
 -1      1847    8    0    1
 -2       883       968       969      3759      3763      3761
 -1      1848    8    0    1
 -2       885       884       970      3488      3764      3765
 -1      1849    8    0    1
 -2       884       969       970      3762      3766      3764
 -1      1850    8    0    1
 -2       886       885       971      3491      3767      3768
 -1      1851    8    0    1
 -2       885       970       971      3765      3769      3767
 -1      1852    8    0    1
 -2       888       887       972      3497      3770      3771
 -1      1853    8    0    1
 -2       887       943       972      3685      3772      3770
 -1      1854    8    0    1
 -2       923       886       971      3678      3768      3773
 -1      1855    8    0    1
 -2       837       845       973      3347      3774      3775
 -1      1856    8    0    1
 -2       914       840       974      3618      3776      3777
 -1      1857    8    0    1
 -2       933       914       974      3641      3777      3778
 -1      1858    8    0    1
 -2       840       935       974      3648      3779      3776
 -1      1859    8    0    1
 -2       890       891       975      3505      3780      3781
 -1      1860    8    0    1
 -2       891       940       975      3676      3782      3780
 -1      1861    8    0    1
 -2       889       890       976      3502      3783      3784
 -1      1862    8    0    1
 -2       890       975       976      3781      3785      3783
 -1      1863    8    0    1
 -2       892       893       977      3511      3786      3787
 -1      1864    8    0    1
 -2       892       977       940      3787      3788      3675
 -1      1865    8    0    1
 -2       893       894       978      3514      3789      3790
 -1      1866    8    0    1
 -2       893       978       977      3790      3791      3786
 -1      1867    8    0    1
 -2       894       895       979      3517      3792      3793
 -1      1868    8    0    1
 -2       894       979       978      3793      3794      3789
 -1      1869    8    0    1
 -2       895       896       980      3520      3795      3796
 -1      1870    8    0    1
 -2       895       980       979      3796      3797      3792
 -1      1871    8    0    1
 -2       896       897       981      3523      3798      3799
 -1      1872    8    0    1
 -2       896       981       980      3799      3800      3795
 -1      1873    8    0    1
 -2       897       898       982      3526      3801      3802
 -1      1874    8    0    1
 -2       897       982       981      3802      3803      3798
 -1      1875    8    0    1
 -2       898       899       983      3529      3804      3805
 -1      1876    8    0    1
 -2       898       983       982      3805      3806      3801
 -1      1877    8    0    1
 -2       899       900       984      3532      3807      3808
 -1      1878    8    0    1
 -2       899       984       983      3808      3809      3804
 -1      1879    8    0    1
 -2       900       901       985      3535      3810      3811
 -1      1880    8    0    1
 -2       900       985       984      3811      3812      3807
 -1      1881    8    0    1
 -2       901       902       986      3538      3813      3814
 -1      1882    8    0    1
 -2       901       986       985      3814      3815      3810
 -1      1883    8    0    1
 -2       902       903       987      3541      3816      3817
 -1      1884    8    0    1
 -2       902       987       986      3817      3818      3813
 -1      1885    8    0    1
 -2       903       904       988      3544      3819      3820
 -1      1886    8    0    1
 -2       903       988       987      3820      3821      3816
 -1      1887    8    0    1
 -2       904       905       989      3547      3822      3823
 -1      1888    8    0    1
 -2       904       989       988      3823      3824      3819
 -1      1889    8    0    1
 -2       905       906       990      3550      3825      3826
 -1      1890    8    0    1
 -2       905       990       989      3826      3827      3822
 -1      1891    8    0    1
 -2       906       907       991      3553      3828      3829
 -1      1892    8    0    1
 -2       906       991       990      3829      3830      3825
 -1      1893    8    0    1
 -2       907       908       992      3556      3831      3832
 -1      1894    8    0    1
 -2       907       992       991      3832      3833      3828
 -1      1895    8    0    1
 -2       908       909       993      3559      3834      3835
 -1      1896    8    0    1
 -2       908       993       992      3835      3836      3831
 -1      1897    8    0    1
 -2       909       910       994      3562      3837      3838
 -1      1898    8    0    1
 -2       909       994       993      3838      3839      3834
 -1      1899    8    0    1
 -2       910       911       995      3565      3840      3841
 -1      1900    8    0    1
 -2       910       995       994      3841      3842      3837
 -1      1901    8    0    1
 -2       911       912       996      3568      3843      3844
 -1      1902    8    0    1
 -2       995       911       996      3840      3844      3845
 -1      1903    8    0    1
 -2       912       938       996      3663      3846      3843
 -1      1904    8    0    1
 -2       846       934       997      3646      3847      3848
 -1      1905    8    0    1
 -2       819       846       997      3350      3848      3849
 -1      1906    8    0    1
 -2       934       924       997      3649      3850      3847
 -1      1907    8    0    1
 -2       848       930       853      3674      3851      3385
 -1      1908    8    0    1
 -2       921       889       998      3595      3852      3853
 -1      1909    8    0    1
 -2       889       976       998      3784      3854      3852
 -1      1910    8    0    1
 -2       935       819       997      3647      3849      3855
 -1      1911    8    0    1
 -2       925       920       999      3637      3856      3857
 -1      1912    8    0    1
 -2       920       919       918      3651      3590      3858
 -1      1913    8    0    1
 -2       918       888      1000      3587      3859      3860
 -1      1914    8    0    1
 -2       888       972      1000      3771      3861      3859
 -1      1915    8    0    1
 -2       845       929       974      3631      3862      3863
 -1      1916    8    0    1
 -2       738       853       842      3387      3864      3605
 -1      1917    8    0    1
 -2       924       927       997      3656      3865      3850
 -1      1918    8    0    1
 -2       913       917      1001      3584      3866      3867
 -1      1919    8    0    1
 -2       917       923       971      3600      3773      3868
 -1      1920    8    0    1
 -2       916       856       936      3640      3665      3869
 -1      1921    8    0    1
 -2       927       837       973      3608      3775      3870
 -1      1922    8    0    1
 -2       922       928       944      3653      3871      3688
 -1      1923    8    0    1
 -2       853       930       842      3851      3621      3864
 -1      1924    8    0    1
 -2       920       918      1000      3858      3860      3872
 -1      1925    8    0    1
 -2       944       928       941      3871      3680      3873
 -1      1926    8    0    1
 -2       941       926       937      3679      3659      3874
 -1      1927    8    0    1
 -2       847       942       938      3682      3875      3661
 -1      1928    8    0    1
 -2       943       921       998      3684      3853      3876
 -1      1929    8    0    1
 -2       936       930       929      3667      3877      3878
 -1      1930    8    0    1
 -2       913      1001      1002      3867      3879      3880
 -1      1931    8    0    1
 -2       913      1002       932      3880      3881      3634
 -1      1932    8    0    1
 -2       999       920      1000      3856      3872      3882
 -1      1933    8    0    1
 -2      1001       917       971      3866      3868      3883
 -1      1934    8    0    1
 -2       937       925      1003      3657      3884      3885
 -1      1935    8    0    1
 -2       925       999      1003      3857      3886      3884
 -1      1936    8    0    1
 -2       916       936       929      3869      3878      3660
 -1      1937    8    0    1
 -2       849       852       939      3617      3670      3887
 -1      1938    8    0    1
 -2       855       849       939      3624      3887      3671
 -1      1939    8    0    1
 -2       942       932      1004      3683      3888      3889
 -1      1940    8    0    1
 -2       932      1002      1004      3881      3890      3888
 -1      1941    8    0    1
 -2       929       930       933      3877      3673      3891
 -1      1942    8    0    1
 -2       929       933       974      3891      3778      3862
 -1      1943    8    0    1
 -2       945       944       941      3691      3873      3892
 -1      1944    8    0    1
 -2       946       945      1005      3694      3893      3894
 -1      1945    8    0    1
 -2       945       941      1005      3892      3895      3893
 -1      1946    8    0    1
 -2       947       946      1006      3697      3896      3897
 -1      1947    8    0    1
 -2       946      1005      1006      3894      3898      3896
 -1      1948    8    0    1
 -2       948       947      1007      3700      3899      3900
 -1      1949    8    0    1
 -2       947      1006      1007      3897      3901      3899
 -1      1950    8    0    1
 -2       949       948      1008      3703      3902      3903
 -1      1951    8    0    1
 -2       948      1007      1008      3900      3904      3902
 -1      1952    8    0    1
 -2       950       949      1009      3706      3905      3906
 -1      1953    8    0    1
 -2       949      1008      1009      3903      3907      3905
 -1      1954    8    0    1
 -2       951       950      1010      3709      3908      3909
 -1      1955    8    0    1
 -2       950      1009      1010      3906      3910      3908
 -1      1956    8    0    1
 -2       952       951      1011      3712      3911      3912
 -1      1957    8    0    1
 -2       951      1010      1011      3909      3913      3911
 -1      1958    8    0    1
 -2       953       952      1012      3715      3914      3915
 -1      1959    8    0    1
 -2       952      1011      1012      3912      3916      3914
 -1      1960    8    0    1
 -2       954       953      1013      3718      3917      3918
 -1      1961    8    0    1
 -2       953      1012      1013      3915      3919      3917
 -1      1962    8    0    1
 -2       955       954      1014      3721      3920      3921
 -1      1963    8    0    1
 -2       954      1013      1014      3918      3922      3920
 -1      1964    8    0    1
 -2       956       955      1015      3724      3923      3924
 -1      1965    8    0    1
 -2       955      1014      1015      3921      3925      3923
 -1      1966    8    0    1
 -2       957       956      1016      3727      3926      3927
 -1      1967    8    0    1
 -2       956      1015      1016      3924      3928      3926
 -1      1968    8    0    1
 -2       958       957      1017      3730      3929      3930
 -1      1969    8    0    1
 -2       957      1016      1017      3927      3931      3929
 -1      1970    8    0    1
 -2       959       958      1018      3733      3932      3933
 -1      1971    8    0    1
 -2       958      1017      1018      3930      3934      3932
 -1      1972    8    0    1
 -2       960       959      1019      3736      3935      3936
 -1      1973    8    0    1
 -2       959      1018      1019      3933      3937      3935
 -1      1974    8    0    1
 -2       961       960      1020      3739      3938      3939
 -1      1975    8    0    1
 -2       960      1019      1020      3936      3940      3938
 -1      1976    8    0    1
 -2       962       961      1021      3742      3941      3942
 -1      1977    8    0    1
 -2       961      1020      1021      3939      3943      3941
 -1      1978    8    0    1
 -2       963       962      1022      3745      3944      3945
 -1      1979    8    0    1
 -2       962      1021      1022      3942      3946      3944
 -1      1980    8    0    1
 -2       964       963      1023      3748      3947      3948
 -1      1981    8    0    1
 -2       963      1022      1023      3945      3949      3947
 -1      1982    8    0    1
 -2       965       964      1024      3751      3950      3951
 -1      1983    8    0    1
 -2       964      1023      1024      3948      3952      3950
 -1      1984    8    0    1
 -2       966       965      1025      3754      3953      3954
 -1      1985    8    0    1
 -2       965      1024      1025      3951      3955      3953
 -1      1986    8    0    1
 -2       967       966      1026      3757      3956      3957
 -1      1987    8    0    1
 -2       966      1025      1026      3954      3958      3956
 -1      1988    8    0    1
 -2       968       967      1027      3760      3959      3960
 -1      1989    8    0    1
 -2       967      1026      1027      3957      3961      3959
 -1      1990    8    0    1
 -2       969       968      1028      3763      3962      3963
 -1      1991    8    0    1
 -2       968      1027      1028      3960      3964      3962
 -1      1992    8    0    1
 -2       970       969      1029      3766      3965      3966
 -1      1993    8    0    1
 -2       969      1028      1029      3963      3967      3965
 -1      1994    8    0    1
 -2       971       970      1030      3769      3968      3969
 -1      1995    8    0    1
 -2      1001       971      1030      3883      3969      3970
 -1      1996    8    0    1
 -2       970      1029      1030      3966      3971      3968
 -1      1997    8    0    1
 -2       972       943      1031      3772      3972      3973
 -1      1998    8    0    1
 -2       973       845       974      3774      3863      3974
 -1      1999    8    0    1
 -2       976       975      1032      3785      3975      3976
 -1      2000    8    0    1
 -2       978       979      1033      3794      3977      3978
 -1      2001    8    0    1
 -2       979       980      1034      3797      3979      3980
 -1      2002    8    0    1
 -2       979      1034      1033      3980      3981      3977
 -1      2003    8    0    1
 -2       980       981      1035      3800      3982      3983
 -1      2004    8    0    1
 -2       980      1035      1034      3983      3984      3979
 -1      2005    8    0    1
 -2       981       982      1036      3803      3985      3986
 -1      2006    8    0    1
 -2       981      1036      1035      3986      3987      3982
 -1      2007    8    0    1
 -2       982       983      1037      3806      3988      3989
 -1      2008    8    0    1
 -2       982      1037      1036      3989      3990      3985
 -1      2009    8    0    1
 -2       983       984      1038      3809      3991      3992
 -1      2010    8    0    1
 -2       983      1038      1037      3992      3993      3988
 -1      2011    8    0    1
 -2       984       985      1039      3812      3994      3995
 -1      2012    8    0    1
 -2       984      1039      1038      3995      3996      3991
 -1      2013    8    0    1
 -2       985       986      1040      3815      3997      3998
 -1      2014    8    0    1
 -2       985      1040      1039      3998      3999      3994
 -1      2015    8    0    1
 -2       986       987      1041      3818      4000      4001
 -1      2016    8    0    1
 -2       986      1041      1040      4001      4002      3997
 -1      2017    8    0    1
 -2       987       988      1042      3821      4003      4004
 -1      2018    8    0    1
 -2       987      1042      1041      4004      4005      4000
 -1      2019    8    0    1
 -2       988       989      1043      3824      4006      4007
 -1      2020    8    0    1
 -2       988      1043      1042      4007      4008      4003
 -1      2021    8    0    1
 -2       989       990      1044      3827      4009      4010
 -1      2022    8    0    1
 -2       989      1044      1043      4010      4011      4006
 -1      2023    8    0    1
 -2       990       991      1045      3830      4012      4013
 -1      2024    8    0    1
 -2       990      1045      1044      4013      4014      4009
 -1      2025    8    0    1
 -2       991       992      1046      3833      4015      4016
 -1      2026    8    0    1
 -2       991      1046      1045      4016      4017      4012
 -1      2027    8    0    1
 -2       992       993      1047      3836      4018      4019
 -1      2028    8    0    1
 -2       992      1047      1046      4019      4020      4015
 -1      2029    8    0    1
 -2       993       994      1048      3839      4021      4022
 -1      2030    8    0    1
 -2       993      1048      1047      4022      4023      4018
 -1      2031    8    0    1
 -2       994       995      1049      3842      4024      4025
 -1      2032    8    0    1
 -2       994      1049      1048      4025      4026      4021
 -1      2033    8    0    1
 -2       977       978      1050      3791      4027      4028
 -1      2034    8    0    1
 -2       978      1033      1050      3978      4029      4027
 -1      2035    8    0    1
 -2       975       940      1051      3782      4030      4031
 -1      2036    8    0    1
 -2       975      1051      1032      4031      4032      3975
 -1      2037    8    0    1
 -2       935       997       927      3855      3865      4033
 -1      2038    8    0    1
 -2       998       976      1052      3854      4034      4035
 -1      2039    8    0    1
 -2       976      1032      1052      3976      4036      4034
 -1      2040    8    0    1
 -2       940       977      1053      3788      4037      4038
 -1      2041    8    0    1
 -2      1051       940      1053      4030      4038      4039
 -1      2042    8    0    1
 -2       977      1050      1053      4028      4040      4037
 -1      2043    8    0    1
 -2      1000       972      1054      3861      4041      4042
 -1      2044    8    0    1
 -2       999      1000      1054      3882      4042      4043
 -1      2045    8    0    1
 -2       972      1031      1054      3973      4044      4041
 -1      2046    8    0    1
 -2       943       998      1055      3876      4045      4046
 -1      2047    8    0    1
 -2       998      1052      1055      4035      4047      4045
 -1      2048    8    0    1
 -2       938       942      1056      3875      4048      4049
 -1      2049    8    0    1
 -2       996       938      1056      3846      4049      4050
 -1      2050    8    0    1
 -2       942      1004      1056      3889      4051      4048
 -1      2051    8    0    1
 -2       927       973       935      3870      4052      4033
 -1      2052    8    0    1
 -2       941       937      1005      3874      4053      3895
 -1      2053    8    0    1
 -2      1002      1001      1057      3879      4054      4055
 -1      2054    8    0    1
 -2      1001      1030      1057      3970      4056      4054
 -1      2055    8    0    1
 -2      1005       937      1058      4053      4057      4058
 -1      2056    8    0    1
 -2      1006      1005      1058      3898      4058      4059
 -1      2057    8    0    1
 -2       937      1003      1058      3885      4060      4057
 -1      2058    8    0    1
 -2       999      1054      1003      4043      4061      3886
 -1      2059    8    0    1
 -2       995       996      1056      3845      4050      4062
 -1      2060    8    0    1
 -2       943      1055      1031      4046      4063      3972
 -1      2061    8    0    1
 -2       995      1056      1049      4062      4064      4024
 -1      2062    8    0    1
 -2       935       973       974      4052      3974      3779
 -1      2063    8    0    1
 -2      1007      1006      1059      3901      4065      4066
 -1      2064    8    0    1
 -2      1006      1058      1059      4059      4067      4065
 -1      2065    8    0    1
 -2      1008      1007      1060      3904      4068      4069
 -1      2066    8    0    1
 -2      1007      1059      1060      4066      4070      4068
 -1      2067    8    0    1
 -2      1009      1008      1061      3907      4071      4072
 -1      2068    8    0    1
 -2      1008      1060      1061      4069      4073      4071
 -1      2069    8    0    1
 -2      1010      1009      1062      3910      4074      4075
 -1      2070    8    0    1
 -2      1009      1061      1062      4072      4076      4074
 -1      2071    8    0    1
 -2      1011      1010      1063      3913      4077      4078
 -1      2072    8    0    1
 -2      1010      1062      1063      4075      4079      4077
 -1      2073    8    0    1
 -2      1012      1011      1064      3916      4080      4081
 -1      2074    8    0    1
 -2      1011      1063      1064      4078      4082      4080
 -1      2075    8    0    1
 -2      1013      1012      1065      3919      4083      4084
 -1      2076    8    0    1
 -2      1012      1064      1065      4081      4085      4083
 -1      2077    8    0    1
 -2      1014      1013      1066      3922      4086      4087
 -1      2078    8    0    1
 -2      1013      1065      1066      4084      4088      4086
 -1      2079    8    0    1
 -2      1015      1014      1067      3925      4089      4090
 -1      2080    8    0    1
 -2      1014      1066      1067      4087      4091      4089
 -1      2081    8    0    1
 -2      1016      1015      1068      3928      4092      4093
 -1      2082    8    0    1
 -2      1015      1067      1068      4090      4094      4092
 -1      2083    8    0    1
 -2      1017      1016      1069      3931      4095      4096
 -1      2084    8    0    1
 -2      1016      1068      1069      4093      4097      4095
 -1      2085    8    0    1
 -2      1018      1017      1070      3934      4098      4099
 -1      2086    8    0    1
 -2      1017      1069      1070      4096      4100      4098
 -1      2087    8    0    1
 -2      1019      1018      1071      3937      4101      4102
 -1      2088    8    0    1
 -2      1018      1070      1071      4099      4103      4101
 -1      2089    8    0    1
 -2      1020      1019      1072      3940      4104      4105
 -1      2090    8    0    1
 -2      1019      1071      1072      4102      4106      4104
 -1      2091    8    0    1
 -2      1021      1020      1073      3943      4107      4108
 -1      2092    8    0    1
 -2      1020      1072      1073      4105      4109      4107
 -1      2093    8    0    1
 -2      1022      1021      1074      3946      4110      4111
 -1      2094    8    0    1
 -2      1021      1073      1074      4108      4112      4110
 -1      2095    8    0    1
 -2      1023      1022      1075      3949      4113      4114
 -1      2096    8    0    1
 -2      1022      1074      1075      4111      4115      4113
 -1      2097    8    0    1
 -2      1024      1023      1076      3952      4116      4117
 -1      2098    8    0    1
 -2      1023      1075      1076      4114      4118      4116
 -1      2099    8    0    1
 -2      1025      1024      1077      3955      4119      4120
 -1      2100    8    0    1
 -2      1024      1076      1077      4117      4121      4119
 -1      2101    8    0    1
 -2      1026      1025      1078      3958      4122      4123
 -1      2102    8    0    1
 -2      1025      1077      1078      4120      4124      4122
 -1      2103    8    0    1
 -2      1027      1026      1079      3961      4125      4126
 -1      2104    8    0    1
 -2      1026      1078      1079      4123      4127      4125
 -1      2105    8    0    1
 -2      1028      1027      1080      3964      4128      4129
 -1      2106    8    0    1
 -2      1027      1079      1080      4126      4130      4128
 -1      2107    8    0    1
 -2      1029      1028      1081      3967      4131      4132
 -1      2108    8    0    1
 -2      1028      1080      1081      4129      4133      4131
 -1      2109    8    0    1
 -2      1030      1029      1082      3971      4134      4135
 -1      2110    8    0    1
 -2      1057      1030      1082      4056      4135      4136
 -1      2111    8    0    1
 -2      1029      1081      1082      4132      4137      4134
 -1      2112    8    0    1
 -2      1034      1035      1083      3984      4138      4139
 -1      2113    8    0    1
 -2      1035      1036      1084      3987      4140      4141
 -1      2114    8    0    1
 -2      1035      1084      1083      4141      4142      4138
 -1      2115    8    0    1
 -2      1032      1051      1085      4032      4143      4144
 -1      2116    8    0    1
 -2      1033      1034      1086      3981      4145      4146
 -1      2117    8    0    1
 -2      1034      1083      1086      4139      4147      4145
 -1      2118    8    0    1
 -2      1036      1037      1087      3990      4148      4149
 -1      2119    8    0    1
 -2      1036      1087      1084      4149      4150      4140
 -1      2120    8    0    1
 -2      1037      1038      1088      3993      4151      4152
 -1      2121    8    0    1
 -2      1037      1088      1087      4152      4153      4148
 -1      2122    8    0    1
 -2      1038      1039      1089      3996      4154      4155
 -1      2123    8    0    1
 -2      1038      1089      1088      4155      4156      4151
 -1      2124    8    0    1
 -2      1039      1040      1090      3999      4157      4158
 -1      2125    8    0    1
 -2      1039      1090      1089      4158      4159      4154
 -1      2126    8    0    1
 -2      1040      1041      1091      4002      4160      4161
 -1      2127    8    0    1
 -2      1040      1091      1090      4161      4162      4157
 -1      2128    8    0    1
 -2      1041      1042      1092      4005      4163      4164
 -1      2129    8    0    1
 -2      1041      1092      1091      4164      4165      4160
 -1      2130    8    0    1
 -2      1042      1043      1093      4008      4166      4167
 -1      2131    8    0    1
 -2      1042      1093      1092      4167      4168      4163
 -1      2132    8    0    1
 -2      1043      1044      1094      4011      4169      4170
 -1      2133    8    0    1
 -2      1043      1094      1093      4170      4171      4166
 -1      2134    8    0    1
 -2      1044      1045      1095      4014      4172      4173
 -1      2135    8    0    1
 -2      1044      1095      1094      4173      4174      4169
 -1      2136    8    0    1
 -2      1045      1046      1096      4017      4175      4176
 -1      2137    8    0    1
 -2      1045      1096      1095      4176      4177      4172
 -1      2138    8    0    1
 -2      1046      1047      1097      4020      4178      4179
 -1      2139    8    0    1
 -2      1046      1097      1096      4179      4180      4175
 -1      2140    8    0    1
 -2      1047      1048      1098      4023      4181      4182
 -1      2141    8    0    1
 -2      1047      1098      1097      4182      4183      4178
 -1      2142    8    0    1
 -2      1048      1049      1099      4026      4184      4185
 -1      2143    8    0    1
 -2      1048      1099      1098      4185      4186      4181
 -1      2144    8    0    1
 -2      1050      1033      1100      4029      4187      4188
 -1      2145    8    0    1
 -2      1033      1086      1100      4146      4189      4187
 -1      2146    8    0    1
 -2      1054      1031      1101      4044      4190      4191
 -1      2147    8    0    1
 -2      1052      1032      1102      4036      4192      4193
 -1      2148    8    0    1
 -2      1032      1085      1102      4144      4194      4192
 -1      2149    8    0    1
 -2      1049      1056      1004      4064      4051      4195
 -1      2150    8    0    1
 -2      1003      1054      1101      4061      4191      4196
 -1      2151    8    0    1
 -2      1031      1055      1103      4063      4197      4198
 -1      2152    8    0    1
 -2      1031      1103      1101      4198      4199      4190
 -1      2153    8    0    1
 -2      1004      1002      1057      3890      4055      4200
 -1      2154    8    0    1
 -2      1049      1004      1099      4195      4201      4184
 -1      2155    8    0    1
 -2      1055      1052      1104      4047      4202      4203
 -1      2156    8    0    1
 -2      1103      1055      1104      4197      4203      4204
 -1      2157    8    0    1
 -2      1052      1102      1104      4193      4205      4202
 -1      2158    8    0    1
 -2      1058      1003      1101      4060      4196      4206
 -1      2159    8    0    1
 -2      1051      1053      1105      4039      4207      4208
 -1      2160    8    0    1
 -2      1051      1105      1085      4208      4209      4143
 -1      2161    8    0    1
 -2      1099      1004      1057      4201      4200      4210
 -1      2162    8    0    1
 -2      1050      1100      1106      4188      4211      4212
 -1      2163    8    0    1
 -2      1050      1106      1053      4212      4213      4040
 -1      2164    8    0    1
 -2      1086      1083      1067      4147      4214      4215
 -1      2165    8    0    1
 -2      1060      1059      1103      4070      4216      4217
 -1      2166    8    0    1
 -2      1061      1060      1104      4073      4218      4219
 -1      2167    8    0    1
 -2      1062      1061      1102      4076      4220      4221
 -1      2168    8    0    1
 -2      1063      1062      1085      4079      4222      4223
 -1      2169    8    0    1
 -2      1064      1063      1105      4082      4224      4225
 -1      2170    8    0    1
 -2      1065      1064      1106      4085      4226      4227
 -1      2171    8    0    1
 -2      1066      1065      1100      4088      4228      4229
 -1      2172    8    0    1
 -2      1067      1066      1086      4091      4230      4215
 -1      2173    8    0    1
 -2      1068      1067      1083      4094      4214      4231
 -1      2174    8    0    1
 -2      1069      1068      1084      4097      4232      4233
 -1      2175    8    0    1
 -2      1070      1069      1087      4100      4234      4235
 -1      2176    8    0    1
 -2      1071      1070      1088      4103      4236      4237
 -1      2177    8    0    1
 -2      1072      1071      1089      4106      4238      4239
 -1      2178    8    0    1
 -2      1073      1072      1090      4109      4240      4241
 -1      2179    8    0    1
 -2      1074      1073      1091      4112      4242      4243
 -1      2180    8    0    1
 -2      1075      1074      1092      4115      4244      4245
 -1      2181    8    0    1
 -2      1076      1075      1093      4118      4246      4247
 -1      2182    8    0    1
 -2      1077      1076      1094      4121      4248      4249
 -1      2183    8    0    1
 -2      1078      1077      1095      4124      4250      4251
 -1      2184    8    0    1
 -2      1079      1078      1096      4127      4252      4253
 -1      2185    8    0    1
 -2      1080      1079      1097      4130      4254      4255
 -1      2186    8    0    1
 -2      1081      1080      1098      4133      4256      4257
 -1      2187    8    0    1
 -2      1087      1088      1070      4153      4236      4235
 -1      2188    8    0    1
 -2      1083      1084      1068      4142      4232      4231
 -1      2189    8    0    1
 -2      1059      1058      1101      4067      4206      4258
 -1      2190    8    0    1
 -2      1084      1087      1069      4150      4234      4233
 -1      2191    8    0    1
 -2      1093      1075      1092      4246      4245      4168
 -1      2192    8    0    1
 -2      1099      1057      1082      4210      4136      4259
 -1      2193    8    0    1
 -2      1101      1103      1059      4199      4216      4258
 -1      2194    8    0    1
 -2      1088      1089      1071      4156      4238      4237
 -1      2195    8    0    1
 -2      1089      1090      1072      4159      4240      4239
 -1      2196    8    0    1
 -2      1090      1091      1073      4162      4242      4241
 -1      2197    8    0    1
 -2      1091      1092      1074      4165      4244      4243
 -1      2198    8    0    1
 -2      1093      1094      1076      4171      4248      4247
 -1      2199    8    0    1
 -2      1094      1095      1077      4174      4250      4249
 -1      2200    8    0    1
 -2      1095      1096      1078      4177      4252      4251
 -1      2201    8    0    1
 -2      1096      1097      1079      4180      4254      4253
 -1      2202    8    0    1
 -2      1097      1098      1080      4183      4256      4255
 -1      2203    8    0    1
 -2      1098      1099      1081      4186      4260      4257
 -1      2204    8    0    1
 -2      1100      1086      1066      4189      4230      4229
 -1      2205    8    0    1
 -2      1102      1085      1062      4194      4222      4221
 -1      2206    8    0    1
 -2      1100      1065      1106      4228      4227      4211
 -1      2207    8    0    1
 -2      1102      1061      1104      4220      4219      4205
 -1      2208    8    0    1
 -2      1060      1103      1104      4217      4204      4218
 -1      2209    8    0    1
 -2      1063      1085      1105      4223      4209      4224
 -1      2210    8    0    1
 -2      1105      1053      1106      4207      4213      4261
 -1      2211    8    0    1
 -2      1064      1105      1106      4225      4261      4226
 -1      2212    8    0    1
 -2      1081      1099      1082      4260      4259      4137
 -3
    1PSTEP                         1           1           1          
  100CL  101 1.000000000        4261                     0    1           1
 -4  DISP        4    1
 -5  D1          1    2    1    0
 -5  D2          1    2    2    0
 -5  D3          1    2    3    0
 -5  ALL         1    2    0    0    1ALL
 -1         1 3.57378E-03-5.81395E-04-8.48497E-15
 -1         2 5.84297E-03 2.91223E-04-1.21117E-14
 -1         3 1.55884E-02 2.44506E-03-1.30973E-13
 -1         4 1.48454E-02 1.01582E-03-1.38842E-13
 -1         5 0.00000E+00 0.00000E+00 0.00000E+00
 -1         6 0.00000E+00 0.00000E+00 0.00000E+00
 -1         7 0.00000E+00 0.00000E+00 0.00000E+00
 -1         8 0.00000E+00 0.00000E+00 0.00000E+00
 -1         9 0.00000E+00 0.00000E+00 0.00000E+00
 -1        10 0.00000E+00 0.00000E+00 0.00000E+00
 -1        11 0.00000E+00 0.00000E+00 0.00000E+00
 -1        12 0.00000E+00 0.00000E+00 0.00000E+00
 -1        13 0.00000E+00 0.00000E+00 0.00000E+00
 -1        14 0.00000E+00 0.00000E+00 0.00000E+00
 -1        15 0.00000E+00 0.00000E+00 0.00000E+00
 -1        16 0.00000E+00 0.00000E+00 0.00000E+00
 -1        17 0.00000E+00 0.00000E+00 0.00000E+00
 -1        18 0.00000E+00 0.00000E+00 0.00000E+00
 -1        19 0.00000E+00 0.00000E+00 0.00000E+00
 -1        20 0.00000E+00 0.00000E+00 0.00000E+00
 -1        21 0.00000E+00 0.00000E+00 0.00000E+00
 -1        22 0.00000E+00 0.00000E+00 0.00000E+00
 -1        23 4.45229E-04-2.58420E-04 1.96173E-17
 -1        24 7.79492E-04-3.92888E-04-1.36620E-16
 -1        25 1.10065E-03-4.95110E-04-4.60722E-16
 -1        26 1.42086E-03-5.83605E-04-9.47938E-16
 -1        27 1.74058E-03-6.69140E-04-1.59431E-15
 -1        28 2.05671E-03-7.56396E-04-2.39935E-15
 -1        29 2.36411E-03-8.45113E-04-3.36301E-15
 -1        30 2.65727E-03-9.29809E-04-4.48923E-15
 -1        31 2.93272E-03-1.00027E-03-5.77718E-15
 -1        32 3.19144E-03-1.04394E-03-7.22393E-15
 -1        33 3.43993E-03-1.05013E-03-8.82564E-15
 -1        34 3.68867E-03-1.01454E-03-1.05702E-14
 -1        35 3.94845E-03-9.41389E-04-1.24575E-14
 -1        36 4.22648E-03-8.41908E-04-1.44780E-14
 -1        37 4.52438E-03-7.30105E-04-1.66263E-14
 -1        38 4.83894E-03-6.18470E-04-1.88925E-14
 -1        39 5.16431E-03-5.15462E-04-2.12753E-14
 -1        40 5.49432E-03-4.25138E-04-2.37734E-14
 -1        41 5.82396E-03-3.48121E-04-2.63796E-14
 -1        42 6.14988E-03-2.82962E-04-2.90882E-14
 -1        43 6.47029E-03-2.27300E-04-3.18891E-14
 -1        44 6.78462E-03-1.78632E-04-3.47817E-14
 -1        45 7.09307E-03-1.34722E-04-3.77705E-14
 -1        46 7.39624E-03-9.37659E-05-4.08562E-14
 -1        47 7.69495E-03-5.44100E-05-4.40307E-14
 -1        48 7.99003E-03-1.56980E-05-4.72823E-14
 -1        49 8.28226E-03 2.30033E-05-5.06065E-14
 -1        50 8.57232E-03 6.20821E-05-5.40013E-14
 -1        51 8.86076E-03 1.01749E-04-5.74662E-14
 -1        52 9.14805E-03 1.42093E-04-6.09969E-14
 -1        53 9.43453E-03 1.83122E-04-6.45876E-14
 -1        54 9.72048E-03 2.24797E-04-6.82233E-14
 -1        55 1.00061E-02 2.67050E-04-7.18992E-14
 -1        56 1.02915E-02 3.09804E-04-7.56057E-14
 -1        57 1.05768E-02 3.52978E-04-7.93478E-14
 -1        58 1.08620E-02 3.96497E-04-8.31277E-14
 -1        59 1.11473E-02 4.40293E-04-8.69415E-14
 -1        60 1.14326E-02 4.84307E-04-9.07882E-14
 -1        61 1.17180E-02 5.28489E-04-9.46656E-14
 -1        62 1.20034E-02 5.72798E-04-9.85809E-14
 -1        63 1.22889E-02 6.17200E-04-1.02527E-13
 -1        64 1.25744E-02 6.61670E-04-1.06490E-13
 -1        65 1.28599E-02 7.06185E-04-1.10478E-13
 -1        66 1.31455E-02 7.50729E-04-1.14493E-13
 -1        67 1.34312E-02 7.95290E-04-1.18528E-13
 -1        68 1.37168E-02 8.39856E-04-1.22577E-13
 -1        69 1.40025E-02 8.84420E-04-1.26656E-13
 -1        70 1.42882E-02 9.28974E-04-1.30764E-13
 -1        71 1.45740E-02 9.73517E-04-1.34899E-13
 -1        72 4.54245E-04 2.50880E-04 8.14168E-17
 -1        73 8.02712E-04 3.79106E-04 4.06474E-17
 -1        74 1.14880E-03 4.77423E-04-1.23301E-16
 -1        75 1.50266E-03 5.70955E-04-4.15727E-16
 -1        76 1.86652E-03 6.74109E-04-8.41266E-16
 -1        77 2.23705E-03 7.97311E-04-1.40312E-15
 -1        78 2.60499E-03 9.45488E-04-2.10298E-15
 -1        79 2.95605E-03 1.11361E-03-2.94411E-15
 -1        80 3.27556E-03 1.28230E-03-3.93312E-15
 -1        81 3.55753E-03 1.41929E-03-5.08075E-15
 -1        82 3.81266E-03 1.49154E-03-6.38405E-15
 -1        83 4.06669E-03 1.48379E-03-7.84389E-15
 -1        84 4.34664E-03 1.40872E-03-9.45597E-15
 -1        85 4.66589E-03 1.29919E-03-1.12126E-14
 -1        86 5.02026E-03 1.19002E-03-1.31131E-14
 -1        87 5.39520E-03 1.10442E-03-1.51443E-14
 -1        88 5.77518E-03 1.05132E-03-1.72990E-14
 -1        89 6.14906E-03 1.02962E-03-1.95719E-14
 -1        90 6.51095E-03 1.03351E-03-2.19593E-14
 -1        91 6.85901E-03 1.05618E-03-2.44594E-14
 -1        92 7.19383E-03 1.09161E-03-2.70624E-14
 -1        93 7.51707E-03 1.13515E-03-2.97720E-14
 -1        94 7.83079E-03 1.18347E-03-3.25817E-14
 -1        95 8.13693E-03 1.23429E-03-3.54893E-14
 -1        96 8.43720E-03 1.28613E-03-3.84984E-14
 -1        97 8.73305E-03 1.33808E-03-4.15975E-14
 -1        98 9.02559E-03 1.38959E-03-4.47786E-14
 -1        99 9.31574E-03 1.44039E-03-4.80248E-14
 -1       100 9.60417E-03 1.49036E-03-5.13430E-14
 -1       101 9.89139E-03 1.53948E-03-5.47260E-14
 -1       102 1.01778E-02 1.58780E-03-5.81568E-14
 -1       103 1.04637E-02 1.63541E-03-6.16418E-14
 -1       104 1.07492E-02 1.68239E-03-6.51835E-14
 -1       105 1.10346E-02 1.72884E-03-6.87832E-14
 -1       106 1.13199E-02 1.77485E-03-7.24402E-14
 -1       107 1.16051E-02 1.82051E-03-7.61483E-14
 -1       108 1.18904E-02 1.86588E-03-7.99171E-14
 -1       109 1.21757E-02 1.91104E-03-8.37341E-14
 -1       110 1.24611E-02 1.95602E-03-8.75760E-14
 -1       111 1.27465E-02 2.00088E-03-9.14400E-14
 -1       112 1.30319E-02 2.04564E-03-9.53460E-14
 -1       113 1.33174E-02 2.09034E-03-9.92790E-14
 -1       114 1.36030E-02 2.13499E-03-1.03231E-13
 -1       115 1.38886E-02 2.17961E-03-1.07184E-13
 -1       116 1.41742E-02 2.22422E-03-1.11125E-13
 -1       117 1.44599E-02 2.26882E-03-1.15094E-13
 -1       118 1.47456E-02 2.31342E-03-1.19105E-13
 -1       119 1.50313E-02 2.35803E-03-1.23135E-13
 -1       120 1.53170E-02 2.40266E-03-1.27163E-13
 -1       121 1.55445E-02 2.36077E-03-1.31462E-13
 -1       122 1.55006E-02 2.27649E-03-1.31976E-13
 -1       123 1.54567E-02 2.19219E-03-1.32479E-13
 -1       124 1.54128E-02 2.10788E-03-1.32975E-13
 -1       125 1.53689E-02 2.02355E-03-1.33455E-13
 -1       126 1.53257E-02 1.94064E-03-1.33944E-13
 -1       127 1.52819E-02 1.85628E-03-1.34451E-13
 -1       128 1.52380E-02 1.77191E-03-1.34942E-13
 -1       129 1.51942E-02 1.68754E-03-1.35406E-13
 -1       130 1.51503E-02 1.60317E-03-1.35855E-13
 -1       131 1.51065E-02 1.51882E-03-1.36311E-13
 -1       132 1.50635E-02 1.43590E-03-1.36770E-13
 -1       133 1.50197E-02 1.35157E-03-1.37233E-13
 -1       134 1.49760E-02 1.26726E-03-1.37645E-13
 -1       135 1.49322E-02 1.18297E-03-1.38055E-13
 -1       136 1.48884E-02 1.09868E-03-1.38456E-13
 -1       137 5.81570E-03 4.57082E-04-1.19331E-14
 -1       138 5.69228E-03 6.22664E-04-1.15663E-14
 -1       139 5.49204E-03 7.67895E-04-1.10743E-14
 -1       140 5.20539E-03 9.00683E-04-1.04462E-14
 -1       141 4.84004E-03 1.01112E-03-9.71610E-15
 -1       142 4.40552E-03 1.08919E-03-8.92469E-15
 -1       143 3.91337E-03 1.12415E-03-8.10193E-15
 -1       144 3.40017E-03 1.10704E-03-7.29863E-15
 -1       145 2.93110E-03 1.04475E-03-6.62311E-15
 -1       146 2.50019E-03 9.43896E-04-6.04217E-15
 -1       147 2.11475E-03 8.09836E-04-5.55709E-15
 -1       148 1.80404E-03 6.55181E-04-5.19470E-15
 -1       149 1.58193E-03 4.90676E-04-4.96249E-15
 -1       150 1.45427E-03 3.27835E-04-4.85857E-15
 -1       151 1.41524E-03 1.61779E-04-4.87448E-15
 -1       152 1.47380E-03-4.86669E-06-5.02219E-15
 -1       153 1.62382E-03-1.56933E-04-5.29197E-15
 -1       154 1.87908E-03-3.02310E-04-5.71215E-15
 -1       155 2.19857E-03-4.18247E-04-6.22712E-15
 -1       156 2.63377E-03-5.15826E-04-6.92944E-15
 -1       157 3.10332E-03-5.70381E-04-7.70126E-15
 -1       158 4.05559E-03-5.51124E-04-9.29928E-15
 -1       159 4.53587E-03-4.76380E-04-1.01248E-14
 -1       160 4.95046E-03-3.69457E-04-1.08343E-14
 -1       161 5.32289E-03-2.24194E-04-1.14562E-14
 -1       162 5.58726E-03-6.87247E-05-1.18694E-14
 -1       163 5.76560E-03 1.04948E-04-1.20997E-14
 -1       164 2.64837E-04-1.10047E-04-4.27786E-17
 -1       165 2.43158E-04-7.19535E-05-6.10609E-17
 -1       166 2.29418E-04-4.48600E-05-6.98125E-17
 -1       167 2.17580E-04-2.40047E-05-7.37156E-17
 -1       168 2.06580E-04-8.44312E-06-7.49353E-17
 -1       169 1.96240E-04 2.46909E-06-7.49014E-17
 -1       170 1.87764E-04 8.55229E-06-7.37393E-17
 -1       171 1.82557E-04 1.06116E-05-7.19571E-17
 -1       172 1.81890E-04 1.04003E-05-6.93618E-17
 -1       173 1.86391E-04 1.04128E-05-6.57704E-17
 -1       174 1.95616E-04 1.32559E-05-6.05696E-17
 -1       175 2.09007E-04 2.13665E-05-5.29734E-17
 -1       176 2.25448E-04 3.67032E-05-4.21111E-17
 -1       177 2.44788E-04 6.15345E-05-2.55397E-17
 -1       178 2.70195E-04 1.00929E-04 4.94667E-19
 -1       179 3.37836E-04 1.65826E-04 2.94971E-17
 -1       180 5.20790E-04-2.46595E-04-1.14515E-16
 -1       181 8.58915E-04-3.62513E-04-3.78610E-16
 -1       182 1.18627E-03-4.56361E-04-7.97475E-16
 -1       183 1.50916E-03-5.42841E-04-1.37102E-15
 -1       184 1.82868E-03-6.29809E-04-2.09870E-15
 -1       185 2.14350E-03-7.20024E-04-2.98051E-15
 -1       186 2.45104E-03-8.10824E-04-4.01869E-15
 -1       187 2.74879E-03-8.93852E-04-5.21452E-15
 -1       188 3.03593E-03-9.56313E-04-6.56734E-15
 -1       189 3.31468E-03-9.84669E-04-8.07659E-15
 -1       190 3.59026E-03-9.69952E-04-9.73632E-15
 -1       191 3.86930E-03-9.12006E-04-1.15392E-14
 -1       192 4.15732E-03-8.19880E-04-1.34818E-14
 -1       193 4.45678E-03-7.08129E-04-1.55538E-14
 -1       194 4.76687E-03-5.91557E-04-1.77493E-14
 -1       195 5.08456E-03-4.81325E-04-2.00622E-14
 -1       196 5.40606E-03-3.83622E-04-2.24886E-14
 -1       197 5.72793E-03-3.00324E-04-2.50240E-14
 -1       198 6.04761E-03-2.30473E-04-2.76649E-14
 -1       199 6.36355E-03-1.71705E-04-3.04035E-14
 -1       200 6.67503E-03-1.21267E-04-3.32379E-14
 -1       201 6.98194E-03-7.65978E-05-3.61653E-14
 -1       202 7.28456E-03-3.55803E-05-3.91895E-14
 -1       203 7.58338E-03 3.39814E-06-4.23048E-14
 -1       204 7.87900E-03 4.14894E-05-4.55023E-14
 -1       205 8.17199E-03 7.94651E-05-4.87779E-14
 -1       206 8.46290E-03 1.17805E-04-5.21245E-14
 -1       207 8.75220E-03 1.56775E-04-5.55406E-14
 -1       208 9.04028E-03 1.96494E-04-5.90224E-14
 -1       209 9.32748E-03 2.36985E-04-6.25687E-14
 -1       210 9.61403E-03 2.78209E-04-6.61670E-14
 -1       211 9.90014E-03 3.20093E-04-6.98098E-14
 -1       212 1.01860E-02 3.62553E-04-7.34890E-14
 -1       213 1.04716E-02 4.05497E-04-7.72025E-14
 -1       214 1.07571E-02 4.48840E-04-8.09560E-14
 -1       215 1.10426E-02 4.92503E-04-8.47500E-14
 -1       216 1.13281E-02 5.36420E-04-8.85759E-14
 -1       217 1.16135E-02 5.80532E-04-9.24302E-14
 -1       218 1.18990E-02 6.24792E-04-9.63158E-14
 -1       219 1.21845E-02 6.69162E-04-1.00236E-13
 -1       220 1.24701E-02 7.13612E-04-1.04184E-13
 -1       221 1.27557E-02 7.58116E-04-1.08154E-13
 -1       222 1.30413E-02 8.02656E-04-1.12150E-13
 -1       223 1.33269E-02 8.47218E-04-1.16172E-13
 -1       224 1.36126E-02 8.91789E-04-1.20213E-13
 -1       225 1.38983E-02 9.36360E-04-1.24281E-13
 -1       226 1.41840E-02 9.80924E-04-1.28374E-13
 -1       227 1.44697E-02 1.02548E-03-1.32491E-13
 -1       228 6.95915E-04 2.93588E-04-3.66088E-17
 -1       229 1.04586E-03 3.92676E-04-2.18541E-16
 -1       230 1.39535E-03 4.84425E-04-5.24242E-16
 -1       231 1.74888E-03 5.84460E-04-9.59319E-16
 -1       232 2.10646E-03 7.04601E-04-1.52764E-15
 -1       233 2.46407E-03 8.51611E-04-2.23213E-15
 -1       234 2.81435E-03 1.02252E-03-3.07755E-15
 -1       235 3.14893E-03 1.19905E-03-4.07004E-15
 -1       236 3.46335E-03 1.34739E-03-5.21566E-15
 -1       237 3.76215E-03 1.43002E-03-6.51916E-15
 -1       238 4.05901E-03 1.42711E-03-7.97779E-15
 -1       239 4.36916E-03 1.35023E-03-9.58989E-15
 -1       240 4.70035E-03 1.23488E-03-1.13478E-14
 -1       241 5.05026E-03 1.11942E-03-1.32469E-14
 -1       242 5.41060E-03 1.02918E-03-1.52782E-14
 -1       243 5.77239E-03 9.73665E-04-1.74317E-14
 -1       244 6.12896E-03 9.51382E-04-1.97023E-14
 -1       245 6.47661E-03 9.55884E-04-2.20844E-14
 -1       246 6.81400E-03 9.79797E-04-2.45758E-14
 -1       247 7.14137E-03 1.01672E-03-2.71778E-14
 -1       248 7.45974E-03 1.06175E-03-2.98829E-14
 -1       249 7.77048E-03 1.11143E-03-3.26903E-14
 -1       250 8.07497E-03 1.16343E-03-3.55889E-14
 -1       251 8.37450E-03 1.21625E-03-3.85818E-14
 -1       252 8.67016E-03 1.26900E-03-4.16732E-14
 -1       253 8.96287E-03 1.32116E-03-4.48487E-14
 -1       254 9.25338E-03 1.37246E-03-4.80928E-14
 -1       255 9.54225E-03 1.42281E-03-5.14037E-14
 -1       256 9.82995E-03 1.47222E-03-5.47811E-14
 -1       257 1.01168E-02 1.52076E-03-5.82148E-14
 -1       258 1.04031E-02 1.56852E-03-6.16936E-14
 -1       259 1.06890E-02 1.61561E-03-6.52328E-14
 -1       260 1.09747E-02 1.66214E-03-6.88313E-14
 -1       261 1.12602E-02 1.70821E-03-7.24872E-14
 -1       262 1.15457E-02 1.75390E-03-7.61911E-14
 -1       263 1.18311E-02 1.79930E-03-7.99462E-14
 -1       264 1.21166E-02 1.84446E-03-8.37467E-14
 -1       265 1.24020E-02 1.88945E-03-8.75811E-14
 -1       266 1.26875E-02 1.93431E-03-9.14488E-14
 -1       267 1.29730E-02 1.97907E-03-9.53553E-14
 -1       268 1.32586E-02 2.02376E-03-9.92811E-14
 -1       269 1.35442E-02 2.06841E-03-1.03225E-13
 -1       270 1.38298E-02 2.11303E-03-1.07177E-13
 -1       271 1.41154E-02 2.15763E-03-1.11129E-13
 -1       272 1.44011E-02 2.20222E-03-1.15099E-13
 -1       273 1.46868E-02 2.24682E-03-1.19105E-13
 -1       274 1.49725E-02 2.29143E-03-1.23129E-13
 -1       275 1.52582E-02 2.33605E-03-1.27153E-13
 -1       276 1.52752E-02 2.27997E-03-1.28237E-13
 -1       277 1.52313E-02 2.19568E-03-1.28736E-13
 -1       278 1.51873E-02 2.11137E-03-1.29234E-13
 -1       279 1.51434E-02 2.02706E-03-1.29725E-13
 -1       280 1.51003E-02 1.94416E-03-1.30205E-13
 -1       281 1.50564E-02 1.85982E-03-1.30691E-13
 -1       282 1.50125E-02 1.77547E-03-1.31173E-13
 -1       283 1.49686E-02 1.69112E-03-1.31646E-13
 -1       284 1.49248E-02 1.60676E-03-1.32098E-13
 -1       285 1.48810E-02 1.52242E-03-1.32548E-13
 -1       286 1.48380E-02 1.43951E-03-1.32990E-13
 -1       287 1.47942E-02 1.35518E-03-1.33430E-13
 -1       288 1.47504E-02 1.27086E-03-1.33859E-13
 -1       289 1.47067E-02 1.18655E-03-1.34270E-13
 -1       290 1.45882E-02 1.10601E-03-1.33386E-13
 -1       291 5.86419E-03 3.48911E-04-1.28578E-14
 -1       292 5.75554E-03 4.44494E-04-1.25673E-14
 -1       293 5.53534E-03 5.70135E-04-1.19791E-14
 -1       294 5.23517E-03 7.18493E-04-1.12874E-14
 -1       295 4.86868E-03 8.85149E-04-1.04826E-14
 -1       296 4.48499E-03 1.05156E-03-9.53479E-15
 -1       297 4.08340E-03 1.16842E-03-8.57147E-15
 -1       298 3.67822E-03 1.21075E-03-7.59894E-15
 -1       299 3.27668E-03 1.12936E-03-6.76184E-15
 -1       300 2.88264E-03 9.80823E-04-6.05433E-15
 -1       301 2.47833E-03 7.88364E-04-5.46657E-15
 -1       302 2.08697E-03 5.92048E-04-5.00923E-15
 -1       303 1.74971E-03 4.32218E-04-4.71916E-15
 -1       304 1.51629E-03 3.06410E-04-4.54392E-15
 -1       305 1.39981E-03 2.10005E-04-4.49835E-15
 -1       306 1.41321E-03 1.23344E-04-4.55956E-15
 -1       307 1.56121E-03 2.26632E-05-4.80659E-15
 -1       308 1.83130E-03-9.34982E-05-5.13103E-15
 -1       309 2.16648E-03-2.59213E-04-5.68543E-15
 -1       310 2.57357E-03-4.24242E-04-6.32906E-15
 -1       311 2.99865E-03-5.79359E-04-7.16259E-15
 -1       312 3.37964E-03-6.56059E-04-8.09668E-15
 -1       313 3.76200E-03-6.38863E-04-9.03871E-15
 -1       314 4.16155E-03-5.40834E-04-1.00436E-14
 -1       315 4.58293E-03-3.76150E-04-1.09555E-14
 -1       316 4.98519E-03-1.74823E-04-1.18615E-14
 -1       317 5.37370E-03-5.61348E-06-1.24148E-14
 -1       318 5.66179E-03 1.37502E-04-1.28131E-14
 -1       319 5.83888E-03 2.58285E-04-1.30827E-14
 -1       320 4.86365E-04-1.23793E-04-2.37108E-16
 -1       321 5.20610E-04-1.81925E-04-2.09807E-16
 -1       322 4.33340E-04-4.11377E-05-2.56969E-16
 -1       323 4.08868E-04-1.31174E-05-2.57817E-16
 -1       324 3.86855E-04 6.04619E-06-2.55641E-16
 -1       325 3.70333E-04 1.69991E-05-2.51122E-16
 -1       326 3.62797E-04 2.20216E-05-2.44288E-16
 -1       327 3.66763E-04 2.51058E-05-2.34821E-16
 -1       328 3.82331E-04 3.10110E-05-2.22167E-16
 -1       329 4.08505E-04 4.45200E-05-2.04562E-16
 -1       330 4.42599E-04 6.92504E-05-1.80696E-16
 -1       331 4.82892E-04 1.08208E-04-1.47580E-16
 -1       332 5.31076E-04 1.65407E-04-1.00580E-16
 -1       333 6.06656E-04 2.24339E-04-7.61550E-17
 -1       334 9.48711E-04 3.21739E-04-2.68862E-16
 -1       335 9.58045E-04-3.29104E-04-6.41180E-16
 -1       336 1.28212E-03-4.15774E-04-1.14743E-15
 -1       337 1.60510E-03-5.00655E-04-1.80220E-15
 -1       338 1.92720E-03-5.89148E-04-2.60570E-15
 -1       339 2.24714E-03-6.81979E-04-3.56060E-15
 -1       340 2.56244E-03-7.73993E-04-4.66760E-15
 -1       341 2.87046E-03-8.53718E-04-5.92896E-15
 -1       342 3.17038E-03-9.05507E-04-7.34479E-15
 -1       343 3.46467E-03-9.15086E-04-8.91607E-15
 -1       344 3.75876E-03-8.76320E-04-1.06361E-14
 -1       345 4.05827E-03-7.94836E-04-1.24982E-14
 -1       346 4.36605E-03-6.85396E-04-1.44964E-14
 -1       347 4.68137E-03-5.65353E-04-1.66211E-14
 -1       348 5.00119E-03-4.48836E-04-1.88643E-14
 -1       349 5.32207E-03-3.44281E-04-2.12219E-14
 -1       350 5.64133E-03-2.54862E-04-2.36891E-14
 -1       351 5.95734E-03-1.80182E-04-2.62632E-14
 -1       352 6.26935E-03-1.17976E-04-2.89372E-14
 -1       353 6.57720E-03-6.53508E-05-3.17102E-14
 -1       354 6.88110E-03-1.94998E-05-3.45762E-14
 -1       355 7.18142E-03 2.19535E-05-3.75394E-14
 -1       356 7.47863E-03 6.08567E-05-4.05971E-14
 -1       357 7.77321E-03 9.85530E-05-4.37378E-14
 -1       358 8.06563E-03 1.35959E-04-4.69615E-14
 -1       359 8.35629E-03 1.73659E-04-5.02604E-14
 -1       360 8.64558E-03 2.11987E-04-5.36297E-14
 -1       361 8.93381E-03 2.51105E-04-5.70674E-14
 -1       362 9.22122E-03 2.91058E-04-6.05664E-14
 -1       363 9.50804E-03 3.31819E-04-6.41233E-14
 -1       364 9.79442E-03 3.73315E-04-6.77317E-14
 -1       365 1.00805E-02 4.15457E-04-7.13830E-14
 -1       366 1.03664E-02 4.58146E-04-7.50702E-14
 -1       367 1.06521E-02 5.01289E-04-7.87973E-14
 -1       368 1.09378E-02 5.44799E-04-8.25614E-14
 -1       369 1.12234E-02 5.88600E-04-8.63647E-14
 -1       370 1.15089E-02 6.32627E-04-9.02017E-14
 -1       371 1.17945E-02 6.76826E-04-9.40625E-14
 -1       372 1.20801E-02 7.21153E-04-9.79590E-14
 -1       373 1.23657E-02 7.65574E-04-1.01888E-13
 -1       374 1.26513E-02 8.10060E-04-1.05842E-13
 -1       375 1.29370E-02 8.54591E-04-1.09821E-13
 -1       376 1.32226E-02 8.99150E-04-1.13823E-13
 -1       377 1.35083E-02 9.43722E-04-1.17853E-13
 -1       378 1.37940E-02 9.88299E-04-1.21904E-13
 -1       379 1.40797E-02 1.03287E-03-1.25981E-13
 -1       380 1.43339E-02 1.06945E-03-1.29676E-13
 -1       381 1.29095E-03 4.11321E-04-5.81325E-16
 -1       382 1.63635E-03 5.07496E-04-1.02035E-15
 -1       383 1.98686E-03 6.22665E-04-1.58985E-15
 -1       384 2.34187E-03 7.65327E-04-2.29298E-15
 -1       385 2.69745E-03 9.35521E-04-3.13532E-15
 -1       386 3.04655E-03 1.11807E-03-4.12202E-15
 -1       387 3.38241E-03 1.27919E-03-5.26132E-15
 -1       388 3.70506E-03 1.37594E-03-6.55838E-15
 -1       389 4.02442E-03 1.38113E-03-8.01214E-15
 -1       390 4.35335E-03 1.30401E-03-9.61976E-15
 -1       391 4.69737E-03 1.18356E-03-1.13746E-14
 -1       392 5.05228E-03 1.06273E-03-1.32698E-14
 -1       393 5.40998E-03 9.68740E-04-1.52974E-14
 -1       394 5.76382E-03 9.11193E-04-1.74468E-14
 -1       395 6.11004E-03 8.88096E-04-1.97112E-14
 -1       396 6.44730E-03 8.92533E-04-2.20853E-14
 -1       397 6.77564E-03 9.16816E-04-2.45710E-14
 -1       398 7.09578E-03 9.54339E-04-2.71653E-14
 -1       399 7.40875E-03 1.00008E-03-2.98643E-14
 -1       400 7.71565E-03 1.05048E-03-3.26634E-14
 -1       401 8.01754E-03 1.10317E-03-3.55529E-14
 -1       402 8.31539E-03 1.15662E-03-3.85354E-14
 -1       403 8.61005E-03 1.20991E-03-4.16147E-14
 -1       404 8.90223E-03 1.26253E-03-4.47805E-14
 -1       405 9.19250E-03 1.31420E-03-4.80189E-14
 -1       406 9.48134E-03 1.36486E-03-5.13235E-14
 -1       407 9.76912E-03 1.41452E-03-5.46960E-14
 -1       408 1.00561E-02 1.46325E-03-5.81262E-14
 -1       409 1.03426E-02 1.51116E-03-6.16032E-14
 -1       410 1.06287E-02 1.55837E-03-6.51359E-14
 -1       411 1.09146E-02 1.60498E-03-6.87314E-14
 -1       412 1.12003E-02 1.65110E-03-7.23832E-14
 -1       413 1.14858E-02 1.69684E-03-7.60835E-14
 -1       414 1.17714E-02 1.74226E-03-7.98278E-14
 -1       415 1.20569E-02 1.78745E-03-8.36172E-14
 -1       416 1.23425E-02 1.83245E-03-8.74431E-14
 -1       417 1.26280E-02 1.87731E-03-9.13097E-14
 -1       418 1.29136E-02 1.92208E-03-9.52142E-14
 -1       419 1.31992E-02 1.96677E-03-9.91358E-14
 -1       420 1.34848E-02 2.01142E-03-1.03076E-13
 -1       421 1.37704E-02 2.05603E-03-1.07027E-13
 -1       422 1.40561E-02 2.10063E-03-1.10981E-13
 -1       423 1.43417E-02 2.14522E-03-1.14954E-13
 -1       424 1.46274E-02 2.18982E-03-1.18955E-13
 -1       425 1.49131E-02 2.23442E-03-1.22979E-13
 -1       426 1.50941E-02 2.25719E-03-1.25606E-13
 -1       427 1.49179E-02 2.03058E-03-1.25985E-13
 -1       428 1.49619E-02 2.11488E-03-1.25494E-13
 -1       429 1.50280E-02 2.18604E-03-1.25552E-13
 -1       430 1.48748E-02 1.94769E-03-1.26463E-13
 -1       431 1.48309E-02 1.86336E-03-1.26942E-13
 -1       432 1.47870E-02 1.77902E-03-1.27414E-13
 -1       433 1.47431E-02 1.69468E-03-1.27880E-13
 -1       434 1.46993E-02 1.61034E-03-1.28339E-13
 -1       435 1.46554E-02 1.52599E-03-1.28787E-13
 -1       436 1.46124E-02 1.44309E-03-1.29222E-13
 -1       437 1.45686E-02 1.35876E-03-1.29656E-13
 -1       438 1.45249E-02 1.27444E-03-1.30077E-13
 -1       439 1.44811E-02 1.19013E-03-1.30494E-13
 -1       440 5.63920E-03 4.52698E-04-1.32074E-14
 -1       441 5.89095E-03 3.19443E-04-1.40425E-14
 -1       442 5.85144E-03 3.62894E-04-1.37312E-14
 -1       443 5.35494E-03 5.82824E-04-1.23080E-14
 -1       444 5.00990E-03 7.47475E-04-1.14970E-14
 -1       445 4.58771E-04-7.77369E-05-2.51017E-16
 -1       446 4.23425E-03 1.13696E-03-9.23018E-15
 -1       447 3.91661E-03 1.23143E-03-8.21528E-15
 -1       448 3.48609E-03 1.20091E-03-6.95354E-15
 -1       449 3.15103E-03 1.06800E-03-6.13136E-15
 -1       450 2.76508E-03 8.55335E-04-5.38773E-15
 -1       451 2.34922E-03 6.27978E-04-4.85910E-15
 -1       452 1.94312E-03 4.29389E-04-4.47373E-15
 -1       453 1.63701E-03 2.88675E-04-4.16215E-15
 -1       454 1.43449E-03 2.12515E-04-4.09681E-15
 -1       455 1.37250E-03 1.62975E-04-4.10399E-15
 -1       456 1.47065E-03 1.07431E-04-4.25335E-15
 -1       457 1.67121E-03 3.20814E-05-4.53750E-15
 -1       458 2.05772E-03-1.30130E-04-5.08781E-15
 -1       459 2.40003E-03-2.94981E-04-5.67275E-15
 -1       460 2.81683E-03-4.93814E-04-6.43352E-15
 -1       461 3.23255E-03-6.55019E-04-7.61235E-15
 -1       462 3.58103E-03-6.93335E-04-8.74226E-15
 -1       463 3.87948E-03-6.32029E-04-9.72710E-15
 -1       464 4.30469E-03-4.47048E-04-1.10040E-14
 -1       465 4.68159E-03-2.42590E-04-1.20492E-14
 -1       466 5.15388E-03-1.19149E-05-1.29157E-14
 -1       467 5.50432E-03 1.40359E-04-1.34630E-14
 -1       468 5.76014E-03 2.47231E-04-1.39004E-14
 -1       469 4.60447E-03 9.62974E-04-1.03036E-14
 -1       470 1.84189E-03-2.27705E-05-4.48220E-15
 -1       471 3.72691E-03 1.25565E-03-7.53508E-15
 -1       472 1.03486E-03 2.85080E-04-5.13170E-16
 -1       473 6.04300E-04-1.08375E-05-5.43792E-16
 -1       474 6.43712E-04-4.85861E-05-5.45994E-16
 -1       475 5.48108E-04 2.99917E-05-5.25160E-16
 -1       476 5.43742E-04 3.89293E-05-5.09097E-16
 -1       477 5.59753E-04 4.81974E-05-4.88087E-16
 -1       478 5.95351E-04 6.51009E-05-4.60007E-16
 -1       479 6.46026E-04 9.50312E-05-4.22917E-16
 -1       480 7.06883E-04 1.41263E-04-3.74192E-16
 -1       481 1.36283E-03 3.69584E-04-9.16266E-16
 -1       482 1.06385E-03-2.93504E-04-9.27050E-16
 -1       483 4.44448E-03 1.05249E-03-1.01487E-14
 -1       484 1.38391E-03-3.72362E-04-1.51295E-15
 -1       485 1.70837E-03-4.54773E-04-2.24204E-15
 -1       486 2.03661E-03-5.44401E-04-3.11636E-15
 -1       487 2.36633E-03-6.40470E-04-4.13791E-15
 -1       488 2.69320E-03-7.35151E-04-5.30885E-15
 -1       489 3.01265E-03-8.12362E-04-6.63335E-15
 -1       490 3.32350E-03-8.51674E-04-8.11173E-15
 -1       491 3.63006E-03-8.37603E-04-9.74531E-15
 -1       492 3.93983E-03-7.69438E-04-1.15271E-14
 -1       493 4.25782E-03-6.62110E-04-1.34504E-14
 -1       494 4.58342E-03-5.37411E-04-1.55063E-14
 -1       495 4.91207E-03-4.14048E-04-1.76813E-14
 -1       496 5.23879E-03-3.03056E-04-1.99713E-14
 -1       497 5.56044E-03-2.08495E-04-2.23722E-14
 -1       498 5.87591E-03-1.30008E-04-2.48806E-14
 -1       499 6.18541E-03-6.51234E-05-2.74910E-14
 -1       500 6.48977E-03-1.07212E-05-3.02006E-14
 -1       501 6.78994E-03 3.61951E-05-3.30070E-14
 -1       502 7.08678E-03 7.81664E-05-3.59082E-14
 -1       503 7.38101E-03 1.17183E-04-3.89054E-14
 -1       504 7.67320E-03 1.54713E-04-4.19909E-14
 -1       505 7.96379E-03 1.91773E-04-4.51595E-14
 -1       506 8.25314E-03 2.29030E-04-4.84089E-14
 -1       507 8.54153E-03 2.66877E-04-5.17338E-14
 -1       508 8.82917E-03 3.05519E-04-5.51249E-14
 -1       509 9.11625E-03 3.45028E-04-5.85813E-14
 -1       510 9.40290E-03 3.85389E-04-6.20966E-14
 -1       511 9.68924E-03 4.26540E-04-6.56663E-14
 -1       512 9.97534E-03 4.68391E-04-6.92857E-14
 -1       513 1.02613E-02 5.10840E-04-7.29475E-14
 -1       514 1.05471E-02 5.53790E-04-7.66444E-14
 -1       515 1.08329E-02 5.97147E-04-8.03812E-14
 -1       516 1.11186E-02 6.40828E-04-8.41611E-14
 -1       517 1.14043E-02 6.84765E-04-8.79763E-14
 -1       518 1.16899E-02 7.28896E-04-9.18173E-14
 -1       519 1.19756E-02 7.73174E-04-9.56873E-14
 -1       520 1.22613E-02 8.17561E-04-9.95975E-14
 -1       521 1.25469E-02 8.62024E-04-1.03536E-13
 -1       522 1.28326E-02 9.06540E-04-1.07496E-13
 -1       523 1.31183E-02 9.51091E-04-1.11481E-13
 -1       524 1.34040E-02 9.95661E-04-1.15494E-13
 -1       525 1.36896E-02 1.04024E-03-1.19532E-13
 -1       526 1.39753E-02 1.08482E-03-1.23590E-13
 -1       527 2.04540E-03 5.87611E-04-2.10105E-15
 -1       528 2.40522E-03 7.40825E-04-2.89056E-15
 -1       529 2.77459E-03 9.24977E-04-3.81823E-15
 -1       530 3.14305E-03 1.11796E-03-4.89319E-15
 -1       531 3.49944E-03 1.27081E-03-6.12460E-15
 -1       532 3.84484E-03 1.32840E-03-7.51794E-15
 -1       533 4.19412E-03 1.27563E-03-9.06896E-15
 -1       534 4.55733E-03 1.15133E-03-1.07729E-14
 -1       535 4.92804E-03 1.01494E-03-1.26205E-14
 -1       536 5.29367E-03 9.04898E-04-1.46017E-14
 -1       537 5.64675E-03 8.34621E-04-1.67070E-14
 -1       538 5.98554E-03 8.02147E-04-1.89269E-14
 -1       539 6.31214E-03 7.99873E-04-2.12551E-14
 -1       540 6.62937E-03 8.19565E-04-2.36945E-14
 -1       541 6.93957E-03 8.54181E-04-2.62446E-14
 -1       542 7.24443E-03 8.98306E-04-2.88984E-14
 -1       543 7.54512E-03 9.48033E-04-3.16536E-14
 -1       544 7.84249E-03 1.00068E-03-3.45026E-14
 -1       545 8.13720E-03 1.05449E-03-3.74416E-14
 -1       546 8.42977E-03 1.10836E-03-4.04735E-14
 -1       547 8.72062E-03 1.16164E-03-4.35955E-14
 -1       548 9.01012E-03 1.21400E-03-4.68000E-14
 -1       549 9.29857E-03 1.26531E-03-5.00733E-14
 -1       550 9.58620E-03 1.31555E-03-5.34149E-14
 -1       551 9.87323E-03 1.36479E-03-5.68242E-14
 -1       552 1.01598E-02 1.41313E-03-6.02806E-14
 -1       553 1.04460E-02 1.46069E-03-6.37889E-14
 -1       554 1.07321E-02 1.50759E-03-6.73578E-14
 -1       555 1.10179E-02 1.55394E-03-7.09836E-14
 -1       556 1.13037E-02 1.59986E-03-7.46625E-14
 -1       557 1.15894E-02 1.64542E-03-7.83860E-14
 -1       558 1.18750E-02 1.69071E-03-8.21485E-14
 -1       559 1.21606E-02 1.73579E-03-8.59501E-14
 -1       560 1.24463E-02 1.78071E-03-8.97968E-14
 -1       561 1.27319E-02 1.82551E-03-9.36858E-14
 -1       562 1.30175E-02 1.87023E-03-9.75980E-14
 -1       563 1.33032E-02 1.91489E-03-1.01526E-13
 -1       564 1.35888E-02 1.95951E-03-1.05470E-13
 -1       565 1.38745E-02 2.00411E-03-1.09423E-13
 -1       566 1.41602E-02 2.04870E-03-1.13391E-13
 -1       567 1.44459E-02 2.09329E-03-1.17382E-13
 -1       568 1.47316E-02 2.13789E-03-1.21402E-13
 -1       569 1.46054E-02 1.86690E-03-1.23199E-13
 -1       570 1.45615E-02 1.78257E-03-1.23668E-13
 -1       571 1.46925E-02 2.03410E-03-1.22249E-13
 -1       572 1.46489E-02 1.95051E-03-1.22728E-13
 -1       573 1.45176E-02 1.69824E-03-1.24127E-13
 -1       574 1.44737E-02 1.61390E-03-1.24583E-13
 -1       575 1.44299E-02 1.52956E-03-1.25030E-13
 -1       576 1.43868E-02 1.44665E-03-1.25463E-13
 -1       577 1.43431E-02 1.36233E-03-1.25894E-13
 -1       578 1.42993E-02 1.27800E-03-1.26313E-13
 -1       579 1.42556E-02 1.19369E-03-1.26728E-13
 -1       580 5.49403E-03 5.11036E-04-1.35738E-14
 -1       581 5.87518E-03 3.06575E-04-1.51895E-14
 -1       582 1.69855E-03 4.66660E-04-1.44434E-15
 -1       583 5.91738E-03 3.47971E-04-1.50584E-14
 -1       584 5.64691E-03 2.30679E-04-1.48322E-14
 -1       585 7.68878E-04-2.07179E-04-5.25347E-16
 -1       586 5.21150E-03 6.40527E-04-1.27166E-14
 -1       587 3.39361E-03-7.04180E-04-8.14054E-15
 -1       588 1.37099E-03 1.36916E-04-3.71173E-15
 -1       589 5.70307E-04 1.48682E-05-5.36683E-16
 -1       590 3.35029E-03 1.15908E-03-6.31143E-15
 -1       591 4.09454E-03 1.21037E-03-8.84973E-15
 -1       592 3.05411E-03-6.12982E-04-6.92200E-15
 -1       593 2.99420E-03 9.69294E-04-5.42188E-15
 -1       594 2.55291E-03 7.02776E-04-4.64528E-15
 -1       595 2.13681E-03 4.77002E-04-4.21218E-15
 -1       596 1.79904E-03 3.19418E-04-3.83619E-15
 -1       597 1.48535E-03 2.06137E-04-3.60890E-15
 -1       598 1.36067E-03 1.66842E-04-3.63202E-15
 -1       599 1.54027E-03 8.41828E-05-3.92898E-15
 -1       600 2.23485E-03-1.98614E-04-5.02438E-15
 -1       601 4.45343E-03-3.46240E-04-1.22580E-14
 -1       602 2.60367E-03-3.90545E-04-5.71970E-15
 -1       603 3.72903E-03-6.82940E-04-9.45554E-15
 -1       604 4.08425E-03-5.47507E-04-1.09022E-14
 -1       605 4.93543E-03-7.95244E-05-1.34419E-14
 -1       606 5.36951E-03 1.23247E-04-1.42582E-14
 -1       607 5.79029E-03 3.97653E-04-1.45088E-14
 -1       608 7.83824E-04 2.28700E-04-2.65999E-16
 -1       609 4.79010E-03 8.62058E-04-1.13355E-14
 -1       610 3.57417E-03 1.24651E-03-6.84987E-15
 -1       611 6.84301E-04-9.75916E-05-5.41346E-16
 -1       612 2.83547E-03-5.33098E-04-6.16378E-15
 -1       613 1.41676E-02 1.11328E-03-1.26360E-13
 -1       614 1.99474E-03-9.72567E-05-4.41337E-15
 -1       615 3.91957E-03 1.26748E-03-8.13209E-15
 -1       616 7.29123E-04 6.30366E-05-8.57706E-16
 -1       617 7.21753E-04 4.94351E-05-8.87067E-16
 -1       618 8.32988E-04 1.14327E-04-7.70742E-16
 -1       619 9.14085E-04 1.64993E-04-7.07872E-16
 -1       620 1.10678E-03 2.50169E-04-7.95205E-16
 -1       621 1.29930E-03 1.39053E-04-3.19665E-15
 -1       622 4.66295E-03 9.70141E-04-1.11665E-14
 -1       623 5.54026E-03 1.91043E-04-1.56607E-14
 -1       624 1.41860E-03 3.27657E-04-1.28468E-15
 -1       625 4.26546E-03-4.74789E-04-1.21768E-14
 -1       626 1.48622E-03-3.23180E-04-1.89335E-15
 -1       627 1.81467E-03-4.02383E-04-2.69010E-15
 -1       628 2.15262E-03-4.94024E-04-3.62812E-15
 -1       629 2.49599E-03-5.96700E-04-4.71030E-15
 -1       630 2.83694E-03-6.98761E-04-5.94213E-15
 -1       631 3.16796E-03-7.75086E-04-7.32678E-15
 -1       632 3.48930E-03-7.96762E-04-8.86955E-15
 -1       633 3.80946E-03-7.48533E-04-1.05678E-14
 -1       634 4.13840E-03-6.42677E-04-1.24157E-14
 -1       635 4.47744E-03-5.08991E-04-1.44018E-14
 -1       636 4.81983E-03-3.75188E-04-1.65123E-14
 -1       637 5.15736E-03-2.56692E-04-1.87372E-14
 -1       638 5.48528E-03-1.57890E-04-2.10726E-14
 -1       639 5.80265E-03-7.73259E-05-2.35150E-14
 -1       640 6.11080E-03-1.14660E-05-2.60621E-14
 -1       641 6.41184E-03 4.34317E-05-2.87096E-14
 -1       642 6.70777E-03 9.06331E-05-3.14557E-14
 -1       643 7.00023E-03 1.32764E-04-3.42976E-14
 -1       644 7.29038E-03 1.71834E-04-3.72318E-14
 -1       645 7.57903E-03 2.09315E-04-4.02604E-14
 -1       646 7.86670E-03 2.46240E-04-4.33736E-14
 -1       647 8.15375E-03 2.83293E-04-4.65680E-14
 -1       648 8.44038E-03 3.20895E-04-4.98456E-14
 -1       649 8.72673E-03 3.59271E-04-5.31944E-14
 -1       650 9.01289E-03 3.98512E-04-5.66075E-14
 -1       651 9.29892E-03 4.38618E-04-6.00827E-14
 -1       652 9.58485E-03 4.79535E-04-6.36145E-14
 -1       653 9.87073E-03 5.21177E-04-6.71962E-14
 -1       654 1.01565E-02 5.63448E-04-7.08279E-14
 -1       655 1.04423E-02 6.06247E-04-7.45021E-14
 -1       656 1.07281E-02 6.49479E-04-7.82105E-14
 -1       657 1.10138E-02 6.93060E-04-8.19612E-14
 -1       658 1.12996E-02 7.36917E-04-8.57537E-14
 -1       659 1.15853E-02 7.80987E-04-8.95725E-14
 -1       660 1.18710E-02 8.25218E-04-9.34213E-14
 -1       661 1.21567E-02 8.69569E-04-9.73095E-14
 -1       662 1.24425E-02 9.14007E-04-1.01232E-13
 -1       663 1.27282E-02 9.58505E-04-1.05178E-13
 -1       664 1.30139E-02 1.00305E-03-1.09142E-13
 -1       665 1.32996E-02 1.04761E-03-1.13140E-13
 -1       666 1.35853E-02 1.09219E-03-1.17163E-13
 -1       667 1.38710E-02 1.13677E-03-1.21205E-13
 -1       668 2.46159E-03 7.08327E-04-3.50733E-15
 -1       669 1.67382E-03 1.93543E-05-3.76289E-15
 -1       670 2.09039E-03 5.44351E-04-2.63744E-15
 -1       671 3.25222E-03 1.12882E-03-5.67784E-15
 -1       672 4.40232E-03 1.14099E-03-1.01159E-14
 -1       673 5.19180E-03 8.32851E-04-1.38943E-14
 -1       674 5.55047E-03 7.52391E-04-1.59589E-14
 -1       675 5.88471E-03 7.14988E-04-1.81356E-14
 -1       676 6.20073E-03 7.09594E-04-2.04228E-14
 -1       677 6.50516E-03 7.26648E-04-2.28181E-14
 -1       678 6.80278E-03 7.58947E-04-2.53215E-14
 -1       679 7.09654E-03 8.01206E-04-2.79315E-14
 -1       680 7.38807E-03 8.49602E-04-3.06436E-14
 -1       681 7.67822E-03 9.01438E-04-3.34503E-14
 -1       682 7.96745E-03 9.54864E-04-3.63492E-14
 -1       683 8.25596E-03 1.00867E-03-3.93379E-14
 -1       684 8.54390E-03 1.06211E-03-4.24187E-14
 -1       685 8.83135E-03 1.11476E-03-4.55828E-14
 -1       686 9.11841E-03 1.16641E-03-4.88218E-14
 -1       687 9.40514E-03 1.21701E-03-5.21327E-14
 -1       688 9.69160E-03 1.26660E-03-5.55141E-14
 -1       689 9.97785E-03 1.31526E-03-5.89532E-14
 -1       690 1.02639E-02 1.36310E-03-6.24411E-14
 -1       691 1.05499E-02 1.41023E-03-6.59861E-14
 -1       692 1.08358E-02 1.45679E-03-6.95858E-14
 -1       693 1.11216E-02 1.50286E-03-7.32394E-14
 -1       694 1.14073E-02 1.54855E-03-7.69440E-14
 -1       695 1.16931E-02 1.59394E-03-8.06857E-14
 -1       696 1.19788E-02 1.63909E-03-8.44646E-14
 -1       697 1.22645E-02 1.68407E-03-8.82872E-14
 -1       698 1.25502E-02 1.72891E-03-9.21562E-14
 -1       699 1.28359E-02 1.77366E-03-9.60546E-14
 -1       700 1.31215E-02 1.81834E-03-9.99737E-14
 -1       701 1.34072E-02 1.86298E-03-1.03910E-13
 -1       702 1.36929E-02 1.90758E-03-1.07861E-13
 -1       703 1.39786E-02 1.95218E-03-1.11827E-13
 -1       704 1.42643E-02 1.99676E-03-1.15812E-13
 -1       705 1.44784E-02 2.01543E-03-1.19021E-13
 -1       706 1.42482E-02 1.61746E-03-1.20851E-13
 -1       707 1.40633E-02 1.16523E-03-1.23959E-13
 -1       708 1.43360E-02 1.78612E-03-1.19942E-13
 -1       709 1.42043E-02 1.53312E-03-1.21298E-13
 -1       710 1.42921E-02 1.70179E-03-1.20402E-13
 -1       711 1.74429E-03 4.21649E-04-1.89812E-15
 -1       712 1.41613E-02 1.45021E-03-1.21726E-13
 -1       713 1.41175E-02 1.36588E-03-1.22156E-13
 -1       714 1.40737E-02 1.28156E-03-1.22576E-13
 -1       715 5.05364E-03 7.65994E-04-1.27387E-14
 -1       716 5.92320E-03 3.80131E-04-1.58796E-14
 -1       717 9.20153E-04-1.94078E-04-8.15361E-16
 -1       718 5.72808E-03 4.58174E-04-1.52628E-14
 -1       719 1.35082E-03 1.61761E-04-3.12323E-15
 -1       720 4.75785E-03-1.89233E-04-1.38397E-14
 -1       721 2.85501E-03 9.14940E-04-4.51634E-15
 -1       722 1.19889E-03-2.56504E-04-1.29906E-15
 -1       723 5.41516E-03 5.79113E-04-1.39995E-14
 -1       724 7.68324E-04 8.19879E-05-8.19626E-16
 -1       725 5.82154E-03 2.86895E-04-1.62267E-14
 -1       726 8.46273E-04-4.51004E-05-9.34575E-16
 -1       727 2.76211E-03 8.38357E-04-4.58275E-15
 -1       728 2.27785E-03 5.50132E-04-3.88053E-15
 -1       729 1.96119E-03 3.88276E-04-3.52910E-15
 -1       730 1.36859E-03 1.05859E-04-3.22844E-15
 -1       731 1.57721E-03 2.31567E-04-3.18640E-15
 -1       732 5.98594E-03 3.42926E-04-1.66064E-14
 -1       733 3.56474E-03-7.23381E-04-8.94007E-15
 -1       734 3.87636E-03-6.50228E-04-1.03403E-14
 -1       735 2.33610E-03-2.86963E-04-4.85030E-15
 -1       736 5.21684E-03 5.17087E-05-1.50206E-14
 -1       737 3.23202E-03-6.96983E-04-7.53382E-15
 -1       738 9.04067E-04-1.04820E-04-9.35090E-16
 -1       739 7.45055E-04 3.11076E-05-9.09439E-16
 -1       740 4.56141E-03-3.37548E-04-1.37431E-14
 -1       741 3.02472E-03-6.47655E-04-6.72684E-15
 -1       742 1.43795E-02 1.86973E-03-1.19479E-13
 -1       743 1.44290E-02 1.94259E-03-1.19254E-13
 -1       744 1.39724E-02 1.20916E-03-1.21890E-13
 -1       745 7.90267E-04 5.97121E-07-9.25383E-16
 -1       746 2.55565E-03-4.34666E-04-5.23918E-15
 -1       747 1.19699E-03 2.24916E-04-1.17364E-15
 -1       748 1.22522E-03 1.29905E-04-2.60397E-15
 -1       749 1.91646E-03-3.41203E-04-3.14342E-15
 -1       750 2.26740E-03-4.38255E-04-4.13849E-15
 -1       751 2.62888E-03-5.55129E-04-5.27650E-15
 -1       752 3.66827E-03-7.38373E-04-9.62938E-15
 -1       753 4.00953E-03-6.39826E-04-1.13979E-14
 -1       754 4.36383E-03-4.92913E-04-1.33147E-14
 -1       755 4.72328E-03-3.42002E-04-1.53608E-14
 -1       756 5.07479E-03-2.12603E-04-1.75257E-14
 -1       757 5.41125E-03-1.09091E-04-1.97996E-14
 -1       758 5.73173E-03-2.76514E-05-2.21781E-14
 -1       759 6.03899E-03 3.75541E-05-2.46618E-14
 -1       760 6.33671E-03 9.15356E-05-2.72477E-14
 -1       761 6.62814E-03 1.38043E-04-2.99332E-14
 -1       762 6.91577E-03 1.79782E-04-3.27152E-14
 -1       763 7.20130E-03 2.18685E-04-3.55919E-14
 -1       764 7.48582E-03 2.56128E-04-3.85613E-14
 -1       765 7.76997E-03 2.93062E-04-4.16227E-14
 -1       766 8.05412E-03 3.30125E-04-4.47654E-14
 -1       767 8.33845E-03 3.67714E-04-4.79887E-14
 -1       768 8.62303E-03 4.06049E-04-5.12933E-14
 -1       769 8.90786E-03 4.45223E-04-5.46636E-14
 -1       770 9.19292E-03 4.85246E-04-5.80989E-14
 -1       771 9.47818E-03 5.26069E-04-6.15925E-14
 -1       772 9.76358E-03 5.67617E-04-6.51414E-14
 -1       773 1.00491E-02 6.09795E-04-6.87408E-14
 -1       774 1.03347E-02 6.52508E-04-7.23886E-14
 -1       775 1.06204E-02 6.95664E-04-7.60740E-14
 -1       776 1.09061E-02 7.39178E-04-7.97958E-14
 -1       777 1.11918E-02 7.82978E-04-8.35603E-14
 -1       778 1.14776E-02 8.27001E-04-8.73604E-14
 -1       779 1.17633E-02 8.71193E-04-9.11871E-14
 -1       780 1.20491E-02 9.15514E-04-9.50510E-14
 -1       781 1.23348E-02 9.59929E-04-9.89533E-14
 -1       782 1.26206E-02 1.00441E-03-1.02885E-13
 -1       783 1.29063E-02 1.04894E-03-1.06838E-13
 -1       784 1.31920E-02 1.09349E-03-1.10818E-13
 -1       785 1.34778E-02 1.13807E-03-1.14825E-13
 -1       786 1.37251E-02 1.17361E-03-1.18349E-13
 -1       787 1.39353E-02 1.45306E-03-1.18018E-13
 -1       788 3.64111E-03 1.27025E-03-6.98947E-15
 -1       789 5.48589E-03 6.62436E-04-1.51943E-14
 -1       790 6.40150E-03 6.37494E-04-2.19375E-14
 -1       791 6.68327E-03 6.69047E-04-2.43975E-14
 -1       792 6.96313E-03 7.09777E-04-2.69625E-14
 -1       793 7.24305E-03 7.56468E-04-2.96320E-14
 -1       794 7.52382E-03 8.06784E-04-3.23987E-14
 -1       795 7.80564E-03 8.59027E-04-3.52562E-14
 -1       796 8.08846E-03 9.12006E-04-3.82048E-14
 -1       797 8.37210E-03 9.64925E-04-4.12412E-14
 -1       798 8.65638E-03 1.01729E-03-4.43687E-14
 -1       799 8.94112E-03 1.06884E-03-4.75739E-14
 -1       800 9.22621E-03 1.11945E-03-5.08505E-14
 -1       801 9.51152E-03 1.16911E-03-5.42028E-14
 -1       802 9.79700E-03 1.21788E-03-5.76198E-14
 -1       803 1.00826E-02 1.26584E-03-6.10896E-14
 -1       804 1.03682E-02 1.31310E-03-6.46120E-14
 -1       805 1.06539E-02 1.35976E-03-6.81894E-14
 -1       806 1.09397E-02 1.40594E-03-7.18165E-14
 -1       807 1.12254E-02 1.45172E-03-7.54987E-14
 -1       808 1.15112E-02 1.49718E-03-7.92245E-14
 -1       809 1.17969E-02 1.54239E-03-8.29841E-14
 -1       810 1.20826E-02 1.58742E-03-8.67843E-14
 -1       811 1.23684E-02 1.63230E-03-9.06293E-14
 -1       812 1.26541E-02 1.67708E-03-9.45100E-14
 -1       813 1.29399E-02 1.72178E-03-9.84171E-14
 -1       814 1.32256E-02 1.76643E-03-1.02347E-13
 -1       815 1.35113E-02 1.81104E-03-1.06291E-13
 -1       816 1.37971E-02 1.85564E-03-1.10253E-13
 -1       817 1.40828E-02 1.90023E-03-1.14236E-13
 -1       818 1.42559E-02 1.92140E-03-1.16739E-13
 -1       819 8.92553E-04 7.53391E-05-1.32858E-15
 -1       820 1.39792E-02 1.53739E-03-1.17584E-13
 -1       821 1.97946E-03-1.55246E-04-3.92711E-15
 -1       822 5.98224E-03 4.35279E-04-1.73417E-14
 -1       823 1.38916E-02 1.36872E-03-1.18448E-13
 -1       824 6.11385E-03 6.19737E-04-1.95835E-14
 -1       825 5.81317E-03 6.23151E-04-1.73389E-14
 -1       826 6.09586E-03 3.85979E-04-1.81065E-14
 -1       827 1.69077E-03 2.88945E-04-2.85859E-15
 -1       828 2.10251E-03 4.88677E-04-3.19465E-15
 -1       829 1.58205E-03-2.65271E-04-2.28563E-15
 -1       830 5.75476E-03 5.23108E-04-1.62642E-14
 -1       831 1.38478E-02 1.28440E-03-1.18866E-13
 -1       832 1.43355E-03 4.99278E-05-2.97777E-15
 -1       833 5.75164E-03 2.48987E-04-1.71441E-14
 -1       834 1.36048E-03 1.70822E-04-2.64210E-15
 -1       835 5.47518E-03 1.35170E-04-1.67144E-14
 -1       836 5.09571E-03-5.49624E-05-1.58330E-14
 -1       837 1.22475E-03 1.06913E-04-2.62949E-15
 -1       838 6.01432E-03 3.27364E-04-1.81647E-14
 -1       839 1.68252E-03-4.64589E-05-3.31548E-15
 -1       840 9.08106E-04 5.53155E-05-1.36566E-15
 -1       841 1.09559E-03 1.55905E-04-1.32948E-15
 -1       842 1.29463E-03-2.06354E-04-1.63308E-15
 -1       843 1.41103E-02 1.78932E-03-1.16234E-13
 -1       844 3.33354E-03-7.46660E-04-8.01120E-15
 -1       845 1.23357E-03 6.80066E-05-2.39864E-15
 -1       846 9.24990E-04 9.48479E-05-1.28195E-15
 -1       847 1.40664E-02 1.70499E-03-1.16696E-13
 -1       848 1.03825E-03-3.00373E-05-1.41445E-15
 -1       849 1.76204E-03 3.67966E-04-2.37943E-15
 -1       850 1.40227E-02 1.62119E-03-1.17143E-13
 -1       851 2.20253E-03-2.91565E-04-4.26441E-15
 -1       852 1.42959E-03 2.08164E-04-2.34555E-15
 -1       853 1.11687E-03-1.00426E-04-1.42498E-15
 -1       854 1.37864E-02 1.22900E-03-1.18608E-13
 -1       855 1.39492E-03 2.62794E-04-1.61312E-15
 -1       856 2.00082E-03-2.69526E-04-3.59915E-15
 -1       857 5.01674E-03-1.52321E-04-1.63178E-14
 -1       858 5.36226E-03-4.35349E-05-1.85337E-14
 -1       859 5.68374E-03 3.59845E-05-2.08502E-14
 -1       860 5.98715E-03 9.71219E-05-2.32690E-14
 -1       861 6.27865E-03 1.47306E-04-2.57930E-14
 -1       862 6.56307E-03 1.91075E-04-2.84155E-14
 -1       863 6.84379E-03 2.31156E-04-3.11366E-14
 -1       864 7.12298E-03 2.69242E-04-3.39537E-14
 -1       865 7.40193E-03 3.06425E-04-3.68665E-14
 -1       866 7.68136E-03 3.43429E-04-3.98696E-14
 -1       867 7.96161E-03 3.80724E-04-4.29601E-14
 -1       868 8.24281E-03 4.18602E-04-4.61304E-14
 -1       869 8.52491E-03 4.57222E-04-4.93827E-14
 -1       870 8.80784E-03 4.96646E-04-5.27097E-14
 -1       871 9.09148E-03 5.36871E-04-5.61034E-14
 -1       872 9.37568E-03 5.77848E-04-5.95598E-14
 -1       873 9.66033E-03 6.19505E-04-6.30748E-14
 -1       874 9.94533E-03 6.61757E-04-6.66426E-14
 -1       875 1.02306E-02 7.04516E-04-7.02566E-14
 -1       876 1.05160E-02 7.47696E-04-7.39178E-14
 -1       877 1.08016E-02 7.91220E-04-7.76134E-14
 -1       878 1.10873E-02 8.35019E-04-8.13503E-14
 -1       879 1.13730E-02 8.79034E-04-8.51277E-14
 -1       880 1.16588E-02 9.23216E-04-8.89310E-14
 -1       881 1.19445E-02 9.67525E-04-9.27702E-14
 -1       882 1.22303E-02 1.01193E-03-9.66504E-14
 -1       883 1.25161E-02 1.05640E-03-1.00564E-13
 -1       884 1.28019E-02 1.10092E-03-1.04505E-13
 -1       885 1.30876E-02 1.14546E-03-1.08470E-13
 -1       886 1.33734E-02 1.19003E-03-1.12461E-13
 -1       887 6.84124E-03 6.24869E-04-2.59921E-14
 -1       888 6.57841E-03 5.85211E-04-2.34709E-14
 -1       889 7.37719E-03 7.17739E-04-3.13452E-14
 -1       890 7.65030E-03 7.67994E-04-3.41624E-14
 -1       891 7.92627E-03 8.19320E-04-3.70691E-14
 -1       892 8.20461E-03 8.70953E-04-4.00684E-14
 -1       893 8.48484E-03 9.22368E-04-4.31541E-14
 -1       894 8.76654E-03 9.73237E-04-4.63257E-14
 -1       895 9.04936E-03 1.02338E-03-4.95707E-14
 -1       896 9.33303E-03 1.07275E-03-5.28913E-14
 -1       897 9.61734E-03 1.12133E-03-5.62820E-14
 -1       898 9.90211E-03 1.16918E-03-5.97327E-14
 -1       899 1.01872E-02 1.21639E-03-6.32369E-14
 -1       900 1.04726E-02 1.26304E-03-6.67905E-14
 -1       901 1.07581E-02 1.30922E-03-7.03962E-14
 -1       902 1.10437E-02 1.35501E-03-7.40534E-14
 -1       903 1.13294E-02 1.40050E-03-7.77610E-14
 -1       904 1.16151E-02 1.44574E-03-8.15045E-14
 -1       905 1.19009E-02 1.49078E-03-8.52848E-14
 -1       906 1.21866E-02 1.53569E-03-8.91056E-14
 -1       907 1.24724E-02 1.58048E-03-9.29635E-14
 -1       908 1.27582E-02 1.62520E-03-9.68571E-14
 -1       909 1.30439E-02 1.66986E-03-1.00777E-13
 -1       910 1.33297E-02 1.71449E-03-1.04721E-13
 -1       911 1.36155E-02 1.75909E-03-1.08679E-13
 -1       912 1.39012E-02 1.80368E-03-1.12655E-13
 -1       913 1.37098E-02 1.45662E-03-1.14323E-13
 -1       914 9.62655E-04 2.21713E-05-1.39430E-15
 -1       915 1.41831E-02 1.85536E-03-1.16489E-13
 -1       916 1.76515E-03-1.48200E-04-3.17183E-15
 -1       917 1.36660E-02 1.37228E-03-1.14752E-13
 -1       918 6.31757E-03 5.52770E-04-2.10527E-14
 -1       919 6.05502E-03 5.31130E-04-1.87407E-14
 -1       920 6.20248E-03 4.41259E-04-1.95419E-14
 -1       921 7.10742E-03 6.69590E-04-2.86184E-14
 -1       922 5.42728E-03 5.63474E-05-1.77781E-14
 -1       923 1.36222E-02 1.28795E-03-1.15171E-13
 -1       924 1.17386E-03 1.30143E-04-2.11277E-15
 -1       925 6.22578E-03 3.76521E-04-2.01315E-14
 -1       926 5.95823E-03 2.85034E-04-1.90525E-14
 -1       927 1.11644E-03 1.03691E-04-2.14300E-15
 -1       928 5.73757E-03 1.97046E-04-1.86092E-14
 -1       929 1.38906E-03-1.06390E-05-2.47937E-15
 -1       930 1.37155E-03-1.48066E-04-1.97011E-15
 -1       931 1.35799E-02 1.20952E-03-1.15529E-13
 -1       932 1.37533E-02 1.54042E-03-1.13893E-13
 -1       933 1.21321E-03-3.80440E-06-1.97827E-15
 -1       934 1.16928E-03 1.41750E-04-1.84383E-15
 -1       935 1.04431E-03 8.38456E-05-1.84956E-15
 -1       936 1.66187E-03-1.96351E-04-2.68783E-15
 -1       937 6.22762E-03 3.45037E-04-2.10657E-14
 -1       938 1.38572E-02 1.71936E-03-1.13118E-13
 -1       939 1.42436E-03 2.35923E-04-1.96733E-15
 -1       940 8.04010E-03 7.80816E-04-3.88952E-14
 -1       941 6.01129E-03 2.49553E-04-2.07662E-14
 -1       942 1.37969E-02 1.62422E-03-1.13456E-13
 -1       943 6.97712E-03 5.89663E-04-2.76029E-14
 -1       944 5.73488E-03 1.23989E-04-2.00609E-14
 -1       945 6.02307E-03 1.74078E-04-2.24415E-14
 -1       946 6.30043E-03 2.16062E-04-2.49241E-14
 -1       947 6.57278E-03 2.54489E-04-2.75096E-14
 -1       948 6.84349E-03 2.91496E-04-3.01893E-14
 -1       949 7.11450E-03 3.28131E-04-3.29662E-14
 -1       950 7.38683E-03 3.64942E-04-3.58432E-14
 -1       951 7.66093E-03 4.02235E-04-3.88108E-14
 -1       952 7.93694E-03 4.40184E-04-4.18653E-14
 -1       953 8.21478E-03 4.78878E-04-4.50015E-14
 -1       954 8.49427E-03 5.18345E-04-4.82188E-14
 -1       955 8.77519E-03 5.58569E-04-5.15165E-14
 -1       956 9.05731E-03 5.99507E-04-5.48806E-14
 -1       957 9.34038E-03 6.41092E-04-5.83119E-14
 -1       958 9.62422E-03 6.83251E-04-6.18049E-14
 -1       959 9.90864E-03 7.25905E-04-6.53513E-14
 -1       960 1.01935E-02 7.68978E-04-6.89482E-14
 -1       961 1.04787E-02 8.12398E-04-7.25885E-14
 -1       962 1.07641E-02 8.56100E-04-7.62686E-14
 -1       963 1.10497E-02 9.00029E-04-7.99860E-14
 -1       964 1.13353E-02 9.44136E-04-8.37444E-14
 -1       965 1.16211E-02 9.88380E-04-8.75361E-14
 -1       966 1.19069E-02 1.03273E-03-9.13600E-14
 -1       967 1.21926E-02 1.07716E-03-9.52244E-14
 -1       968 1.24785E-02 1.12164E-03-9.91248E-14
 -1       969 1.27642E-02 1.16617E-03-1.03055E-13
 -1       970 1.30500E-02 1.21072E-03-1.07012E-13
 -1       971 1.33358E-02 1.25529E-03-1.10996E-13
 -1       972 6.72617E-03 5.47448E-04-2.50189E-14
 -1       973 1.08704E-03 8.39805E-05-1.99699E-15
 -1       974 1.10809E-03 5.27278E-05-1.91805E-15
 -1       975 7.76752E-03 7.31248E-04-3.59338E-14
 -1       976 7.49887E-03 6.82392E-04-3.30669E-14
 -1       977 8.31583E-03 8.30569E-04-4.19444E-14
 -1       978 8.59405E-03 8.80140E-04-4.50811E-14
 -1       979 8.87423E-03 9.29297E-04-4.82935E-14
 -1       980 9.15592E-03 9.77915E-04-5.15786E-14
 -1       981 9.43875E-03 1.02595E-03-5.49428E-14
 -1       982 9.72246E-03 1.07341E-03-5.83716E-14
 -1       983 1.00068E-02 1.12034E-03-6.18554E-14
 -1       984 1.02916E-02 1.16679E-03-6.53929E-14
 -1       985 1.05768E-02 1.21284E-03-6.89765E-14
 -1       986 1.08622E-02 1.25854E-03-7.26074E-14
 -1       987 1.11477E-02 1.30397E-03-7.62938E-14
 -1       988 1.14334E-02 1.34918E-03-8.00221E-14
 -1       989 1.17191E-02 1.39421E-03-8.37858E-14
 -1       990 1.20049E-02 1.43911E-03-8.75871E-14
 -1       991 1.22907E-02 1.48391E-03-9.14252E-14
 -1       992 1.25765E-02 1.52863E-03-9.52993E-14
 -1       993 1.28623E-02 1.57330E-03-9.92055E-14
 -1       994 1.31481E-02 1.61793E-03-1.03143E-13
 -1       995 1.34338E-02 1.66253E-03-1.07102E-13
 -1       996 1.36455E-02 1.69095E-03-1.10105E-13
 -1       997 1.02555E-03 1.00210E-04-1.70297E-15
 -1       998 7.23506E-03 6.34929E-04-3.02873E-14
 -1       999 6.40392E-03 4.35859E-04-2.18296E-14
 -1      1000 6.48326E-03 5.09192E-04-2.25395E-14
 -1      1001 1.34404E-02 1.37584E-03-1.11075E-13
 -1      1002 1.34839E-02 1.45964E-03-1.10650E-13
 -1      1003 6.44922E-03 4.06259E-04-2.28100E-14
 -1      1004 1.35275E-02 1.54344E-03-1.10223E-13
 -1      1005 6.26247E-03 2.82123E-04-2.31739E-14
 -1      1006 6.51463E-03 3.14265E-04-2.56818E-14
 -1      1007 6.76985E-03 3.47722E-04-2.82888E-14
 -1      1008 7.02888E-03 3.82784E-04-3.09926E-14
 -1      1009 7.29185E-03 4.19343E-04-3.37952E-14
 -1      1010 7.55858E-03 4.57211E-04-3.66950E-14
 -1      1011 7.82877E-03 4.96198E-04-3.96842E-14
 -1      1012 8.10203E-03 5.36138E-04-4.27583E-14
 -1      1013 8.37793E-03 5.76889E-04-4.59121E-14
 -1      1014 8.65606E-03 6.18330E-04-4.91481E-14
 -1      1015 8.93603E-03 6.60356E-04-5.24610E-14
 -1      1016 9.21749E-03 7.02877E-04-5.58403E-14
 -1      1017 9.50012E-03 7.45814E-04-5.92871E-14
 -1      1018 9.78365E-03 7.89097E-04-6.27942E-14
 -1      1019 1.00679E-02 8.32665E-04-6.63490E-14
 -1      1020 1.03526E-02 8.76467E-04-6.99555E-14
 -1      1021 1.06377E-02 9.20456E-04-7.36038E-14
 -1      1022 1.09231E-02 9.64596E-04-7.72925E-14
 -1      1023 1.12087E-02 1.00885E-03-8.10197E-14
 -1      1024 1.14943E-02 1.05320E-03-8.47860E-14
 -1      1025 1.17801E-02 1.09762E-03-8.85870E-14
 -1      1026 1.20659E-02 1.14209E-03-9.24204E-14
 -1      1027 1.23517E-02 1.18660E-03-9.62941E-14
 -1      1028 1.26375E-02 1.23114E-03-1.00201E-13
 -1      1029 1.29233E-02 1.27570E-03-1.04141E-13
 -1      1030 1.31819E-02 1.32576E-03-1.07597E-13
 -1      1031 6.84605E-03 5.16959E-04-2.65864E-14
 -1      1032 7.60951E-03 6.47970E-04-3.47984E-14
 -1      1033 8.70010E-03 8.37504E-04-4.70188E-14
 -1      1034 8.97968E-03 8.84918E-04-5.02754E-14
 -1      1035 9.26092E-03 9.32014E-04-5.36042E-14
 -1      1036 9.54343E-03 9.78752E-04-5.70081E-14
 -1      1037 9.82691E-03 1.02513E-03-6.04719E-14
 -1      1038 1.01111E-02 1.07118E-03-6.39901E-14
 -1      1039 1.03958E-02 1.11692E-03-6.75571E-14
 -1      1040 1.06809E-02 1.16241E-03-7.11677E-14
 -1      1041 1.09663E-02 1.20768E-03-7.48282E-14
 -1      1042 1.12518E-02 1.25278E-03-7.85364E-14
 -1      1043 1.15375E-02 1.29774E-03-8.22866E-14
 -1      1044 1.18232E-02 1.34260E-03-8.60715E-14
 -1      1045 1.21090E-02 1.38736E-03-8.98915E-14
 -1      1046 1.23948E-02 1.43207E-03-9.37468E-14
 -1      1047 1.26806E-02 1.47673E-03-9.76399E-14
 -1      1048 1.29665E-02 1.52136E-03-1.01563E-13
 -1      1049 1.32522E-02 1.56597E-03-1.05513E-13
 -1      1050 8.42264E-03 7.89873E-04-4.38366E-14
 -1      1051 7.87656E-03 6.94768E-04-3.77227E-14
 -1      1052 7.34779E-03 6.02325E-04-3.19674E-14
 -1      1053 8.14789E-03 7.42201E-04-4.07356E-14
 -1      1054 6.61726E-03 4.74454E-04-2.41605E-14
 -1      1055 7.09273E-03 5.58439E-04-2.92288E-14
 -1      1056 1.35865E-02 1.61720E-03-1.10168E-13
 -1      1057 1.32254E-02 1.40956E-03-1.07178E-13
 -1      1058 6.48935E-03 3.65817E-04-2.42429E-14
 -1      1059 6.72736E-03 3.97380E-04-2.67912E-14
 -1      1060 6.97427E-03 4.32059E-04-2.94392E-14
 -1      1061 7.22846E-03 4.69246E-04-3.21831E-14
 -1      1062 7.48869E-03 5.08401E-04-3.50236E-14
 -1      1063 7.75400E-03 5.49049E-04-3.79575E-14
 -1      1064 8.02355E-03 5.90807E-04-4.09822E-14
 -1      1065 8.29662E-03 6.33377E-04-4.40884E-14
 -1      1066 8.57259E-03 6.76529E-04-4.72741E-14
 -1      1067 8.85092E-03 7.20098E-04-5.05381E-14
 -1      1068 9.13113E-03 7.63961E-04-5.38776E-14
 -1      1069 9.41283E-03 8.08031E-04-5.72857E-14
 -1      1070 9.69568E-03 8.52248E-04-6.07550E-14
 -1      1071 9.97940E-03 8.96569E-04-6.42814E-14
 -1      1072 1.02638E-02 9.40964E-04-6.78544E-14
 -1      1073 1.05487E-02 9.85412E-04-7.14741E-14
 -1      1074 1.08339E-02 1.02990E-03-7.51394E-14
 -1      1075 1.11193E-02 1.07441E-03-7.88449E-14
 -1      1076 1.14049E-02 1.11895E-03-8.25882E-14
 -1      1077 1.16906E-02 1.16350E-03-8.63709E-14
 -1      1078 1.19764E-02 1.20806E-03-9.01874E-14
 -1      1079 1.22622E-02 1.25263E-03-9.40422E-14
 -1      1080 1.25480E-02 1.29720E-03-9.79337E-14
 -1      1081 1.28339E-02 1.34178E-03-1.01854E-13
 -1      1082 1.30296E-02 1.37567E-03-1.04509E-13
 -1      1083 9.08334E-03 8.39675E-04-5.22688E-14
 -1      1084 9.36469E-03 8.85365E-04-5.56443E-14
 -1      1085 7.71147E-03 6.12567E-04-3.65466E-14
 -1      1086 8.80361E-03 7.93895E-04-4.89676E-14
 -1      1087 9.64729E-03 9.30920E-04-5.90838E-14
 -1      1088 9.93083E-03 9.76326E-04-6.25813E-14
 -1      1089 1.02151E-02 1.02158E-03-6.61297E-14
 -1      1090 1.04999E-02 1.06670E-03-6.97249E-14
 -1      1091 1.07850E-02 1.11171E-03-7.33664E-14
 -1      1092 1.10704E-02 1.15661E-03-7.70549E-14
 -1      1093 1.13560E-02 1.20143E-03-8.07815E-14
 -1      1094 1.16417E-02 1.24618E-03-8.45510E-14
 -1      1095 1.19274E-02 1.29089E-03-8.83565E-14
 -1      1096 1.22132E-02 1.33555E-03-9.21950E-14
 -1      1097 1.24990E-02 1.38019E-03-9.60727E-14
 -1      1098 1.27849E-02 1.42481E-03-9.99817E-14
 -1      1099 1.30707E-02 1.46941E-03-1.03917E-13
 -1      1100 8.52595E-03 7.48112E-04-4.57413E-14
 -1      1101 6.72821E-03 4.51751E-04-2.58455E-14
 -1      1102 7.44883E-03 5.69037E-04-3.36600E-14
 -1      1103 6.96775E-03 4.88823E-04-2.84576E-14
 -1      1104 7.20479E-03 5.27888E-04-3.10168E-14
 -1      1105 7.97915E-03 6.57182E-04-3.95256E-14
 -1      1106 8.25091E-03 7.02467E-04-4.25917E-14
 -1      1107 0.00000E+00 0.00000E+00 0.00000E+00
 -1      1108 0.00000E+00 0.00000E+00 0.00000E+00
 -1      1109 0.00000E+00 0.00000E+00 0.00000E+00
 -1      1110 0.00000E+00 0.00000E+00 0.00000E+00
 -1      1111 0.00000E+00 0.00000E+00 0.00000E+00
 -1      1112 0.00000E+00 0.00000E+00 0.00000E+00
 -1      1113 0.00000E+00 0.00000E+00 0.00000E+00
 -1      1114 0.00000E+00 0.00000E+00 0.00000E+00
 -1      1115 0.00000E+00 0.00000E+00 0.00000E+00
 -1      1116 0.00000E+00 0.00000E+00 0.00000E+00
 -1      1117 0.00000E+00 0.00000E+00 0.00000E+00
 -1      1118 0.00000E+00 0.00000E+00 0.00000E+00
 -1      1119 0.00000E+00 0.00000E+00 0.00000E+00
 -1      1120 0.00000E+00 0.00000E+00 0.00000E+00
 -1      1121 0.00000E+00 0.00000E+00 0.00000E+00
 -1      1122 0.00000E+00 0.00000E+00 0.00000E+00
 -1      1123 0.00000E+00 0.00000E+00 0.00000E+00
 -1      1124 2.27149E-04-1.48706E-04 6.87113E-18
 -1      1125 6.06112E-04-3.29435E-04-8.18437E-17
 -1      1126 9.35152E-04-4.48728E-04-3.18186E-16
 -1      1127 1.25810E-03-5.41831E-04-7.24965E-16
 -1      1128 1.57925E-03-6.27106E-04-1.29317E-15
 -1      1129 1.89769E-03-7.13082E-04-2.01980E-15
 -1      1130 2.20972E-03-8.02277E-04-2.90394E-15
 -1      1131 2.51024E-03-8.91732E-04-3.94837E-15
 -1      1132 2.79480E-03-9.73052E-04-5.15516E-15
 -1      1133 3.06208E-03-1.03378E-03-6.52252E-15
 -1      1134 3.31575E-03-1.06100E-03-8.04672E-15
 -1      1135 3.56435E-03-1.04626E-03-9.71913E-15
 -1      1136 3.81864E-03-9.89442E-04-1.15341E-14
 -1      1137 4.08767E-03-8.99074E-04-1.34882E-14
 -1      1138 4.37578E-03-7.89028E-04-1.55723E-14
 -1      1139 4.68210E-03-6.73627E-04-1.77774E-14
 -1      1140 5.00201E-03-5.63890E-04-2.01006E-14
 -1      1141 5.32953E-03-4.66089E-04-2.25403E-14
 -1      1142 5.65913E-03-3.82269E-04-2.50906E-14
 -1      1143 5.98669E-03-3.11634E-04-2.77490E-14
 -1      1144 6.30970E-03-2.51956E-04-3.05050E-14
 -1      1145 6.62699E-03-2.00578E-04-3.33515E-14
 -1      1146 6.93835E-03-1.55005E-04-3.62906E-14
 -1      1147 7.24417E-03-1.13163E-04-3.93259E-14
 -1      1148 7.54516E-03-7.34615E-05-4.24562E-14
 -1      1149 7.84211E-03-3.47568E-05-4.56677E-14
 -1      1150 8.13583E-03 3.72477E-06-4.89532E-14
 -1      1151 8.42704E-03 4.24711E-05-5.23121E-14
 -1      1152 8.71634E-03 8.17606E-05-5.57453E-14
 -1      1153 9.00426E-03 1.21725E-04-5.92416E-14
 -1      1154 9.29118E-03 1.62400E-04-6.27988E-14
 -1      1155 9.57742E-03 2.03758E-04-6.64123E-14
 -1      1156 9.86322E-03 2.45739E-04-7.00656E-14
 -1      1157 1.01487E-02 2.88265E-04-7.37559E-14
 -1      1158 1.04341E-02 3.31253E-04-7.74814E-14
 -1      1159 1.07194E-02 3.74623E-04-8.12429E-14
 -1      1160 1.10047E-02 4.18302E-04-8.50397E-14
 -1      1161 1.12900E-02 4.62226E-04-8.88706E-14
 -1      1162 1.15753E-02 5.06341E-04-9.27294E-14
 -1      1163 1.18607E-02 5.50600E-04-9.66256E-14
 -1      1164 1.21461E-02 5.94967E-04-1.00559E-13
 -1      1165 1.24316E-02 6.39412E-04-1.04513E-13
 -1      1166 1.27172E-02 6.83911E-04-1.08492E-13
 -1      1167 1.30028E-02 7.28447E-04-1.12495E-13
 -1      1168 1.32884E-02 7.73004E-04-1.16517E-13
 -1      1169 1.35740E-02 8.17571E-04-1.20555E-13
 -1      1170 1.38597E-02 8.62139E-04-1.24617E-13
 -1      1171 1.41454E-02 9.06700E-04-1.28713E-13
 -1      1172 1.44311E-02 9.51249E-04-1.32837E-13
 -1      1173 1.47097E-02 9.94673E-04-1.36877E-13
 -1      1174 2.47349E-04 1.57529E-04 4.10642E-17
 -1      1175 6.23709E-04 3.19803E-04 4.72306E-17
 -1      1176 9.72190E-04 4.29866E-04-5.59042E-17
 -1      1177 1.32389E-03 5.22151E-04-2.86378E-16
 -1      1178 1.68360E-03 6.17066E-04-6.47282E-16
 -1      1179 2.05109E-03 7.28327E-04-1.14234E-15
 -1      1180 2.42060E-03 8.64884E-04-1.77468E-15
 -1      1181 2.78071E-03 1.02786E-03-2.54484E-15
 -1      1182 3.11682E-03 1.20512E-03-3.45997E-15
 -1      1183 3.41793E-03 1.36850E-03-4.52776E-15
 -1      1184 3.68586E-03 1.48070E-03-5.75295E-15
 -1      1185 3.93922E-03 1.51327E-03-7.13435E-15
 -1      1186 4.20545E-03 1.46449E-03-8.67229E-15
 -1      1187 4.50521E-03 1.36103E-03-1.03565E-14
 -1      1188 4.84266E-03 1.24170E-03-1.21829E-14
 -1      1189 5.20775E-03 1.13828E-03-1.41479E-14
 -1      1190 5.58521E-03 1.06689E-03-1.62390E-14
 -1      1191 5.96185E-03 1.03014E-03-1.84515E-14
 -1      1192 6.32939E-03 1.02311E-03-2.07822E-14
 -1      1193 6.68413E-03 1.03852E-03-2.32277E-14
 -1      1194 7.02547E-03 1.06947E-03-2.57778E-14
 -1      1195 7.35452E-03 1.11047E-03-2.84337E-14
 -1      1196 7.67308E-03 1.15752E-03-3.11890E-14
 -1      1197 7.98313E-03 1.20787E-03-3.40461E-14
 -1      1198 8.28646E-03 1.25973E-03-3.70096E-14
 -1      1199 8.58464E-03 1.31196E-03-4.00643E-14
 -1      1200 8.87894E-03 1.36390E-03-4.31994E-14
 -1      1201 9.17037E-03 1.41517E-03-4.64099E-14
 -1      1202 9.45973E-03 1.46561E-03-4.96919E-14
 -1      1203 9.74761E-03 1.51518E-03-5.30442E-14
 -1      1204 1.00345E-02 1.56389E-03-5.64490E-14
 -1      1205 1.03207E-02 1.61184E-03-5.99090E-14
 -1      1206 1.06064E-02 1.65910E-03-6.34232E-14
 -1      1207 1.08919E-02 1.70579E-03-6.69902E-14
 -1      1208 1.11772E-02 1.75199E-03-7.06163E-14
 -1      1209 1.14625E-02 1.79780E-03-7.43002E-14
 -1      1210 1.17478E-02 1.84329E-03-7.80362E-14
 -1      1211 1.20330E-02 1.88853E-03-8.18310E-14
 -1      1212 1.23184E-02 1.93359E-03-8.56628E-14
 -1      1213 1.26038E-02 1.97849E-03-8.95168E-14
 -1      1214 1.28892E-02 2.02329E-03-9.33958E-14
 -1      1215 1.31747E-02 2.06801E-03-9.73138E-14
 -1      1216 1.34602E-02 2.11268E-03-1.01255E-13
 -1      1217 1.37458E-02 2.15731E-03-1.05212E-13
 -1      1218 1.40314E-02 2.20192E-03-1.09153E-13
 -1      1219 1.43171E-02 2.24652E-03-1.13110E-13
 -1      1220 1.46027E-02 2.29112E-03-1.17101E-13
 -1      1221 1.48884E-02 2.33572E-03-1.21119E-13
 -1      1222 1.51742E-02 2.38034E-03-1.25148E-13
 -1      1223 1.54527E-02 2.42385E-03-1.29072E-13
 -1      1224 1.55665E-02 2.40291E-03-1.31214E-13
 -1      1225 1.55226E-02 2.31863E-03-1.31719E-13
 -1      1226 1.54787E-02 2.23434E-03-1.32227E-13
 -1      1227 1.54348E-02 2.15003E-03-1.32726E-13
 -1      1228 1.53909E-02 2.06571E-03-1.33218E-13
 -1      1229 1.53473E-02 1.98209E-03-1.33690E-13
 -1      1230 1.53038E-02 1.89846E-03-1.34194E-13
 -1      1231 1.52599E-02 1.81409E-03-1.34700E-13
 -1      1232 1.52161E-02 1.72973E-03-1.35177E-13
 -1      1233 1.51722E-02 1.64536E-03-1.35630E-13
 -1      1234 1.51284E-02 1.56100E-03-1.36076E-13
 -1      1235 1.50850E-02 1.47736E-03-1.36534E-13
 -1      1236 1.50416E-02 1.39374E-03-1.37004E-13
 -1      1237 1.49979E-02 1.30942E-03-1.37442E-13
 -1      1238 1.49541E-02 1.22512E-03-1.37844E-13
 -1      1239 1.49103E-02 1.14082E-03-1.38253E-13
 -1      1240 1.48669E-02 1.05725E-03-1.38655E-13
 -1      1241 5.88046E-03 3.62415E-04-1.20524E-14
 -1      1242 5.79132E-03 5.07339E-04-1.17855E-14
 -1      1243 5.60394E-03 6.53864E-04-1.13596E-14
 -1      1244 5.33556E-03 8.00071E-04-1.08082E-14
 -1      1245 4.99109E-03 9.42867E-04-1.01376E-14
 -1      1246 4.58758E-03 1.06577E-03-9.38344E-15
 -1      1247 4.13813E-03 1.14733E-03-8.57910E-15
 -1      1248 3.65889E-03 1.16443E-03-7.76156E-15
 -1      1249 3.19012E-03 1.11412E-03-7.01324E-15
 -1      1250 2.75161E-03 1.00759E-03-6.37226E-15
 -1      1251 2.33777E-03 8.61854E-04-5.82581E-15
 -1      1252 1.96948E-03 6.96560E-04-5.38837E-15
 -1      1253 1.67597E-03 5.31532E-04-5.08002E-15
 -1      1254 1.47791E-03 3.78425E-04-4.90717E-15
 -1      1255 1.38170E-03 2.35695E-04-4.86143E-15
 -1      1256 1.39423E-03 9.45165E-05-4.94548E-15
 -1      1257 1.51718E-03-4.59442E-05-5.16365E-15
 -1      1258 1.74536E-03-1.90412E-04-5.51845E-15
 -1      1259 2.05902E-03-3.33274E-04-6.00133E-15
 -1      1260 2.44834E-03-4.65588E-04-6.62117E-15
 -1      1261 2.89828E-03-5.68831E-04-7.37279E-15
 -1      1262 3.35063E-03-6.19137E-04-8.15911E-15
 -1      1263 3.80250E-03-6.10191E-04-8.95822E-15
 -1      1264 4.26481E-03-5.40081E-04-9.77522E-15
 -1      1265 4.70792E-03-4.21667E-04-1.05366E-14
 -1      1266 5.11657E-03-2.69996E-04-1.11955E-14
 -1      1267 5.46011E-03-1.06612E-04-1.17025E-14
 -1      1268 5.70911E-03 5.27702E-05-1.20218E-14
 -1      1269 5.85588E-03 2.12298E-04-1.21414E-14
 -1      1270 1.83014E-04-1.06553E-04-1.54363E-17
 -1      1271 1.23460E-04-4.64490E-05-3.82994E-17
 -1      1272 1.29857E-04-5.95349E-05-3.18484E-17
 -1      1273 1.15888E-04-2.88383E-05-4.86265E-17
 -1      1274 1.19508E-04-3.66863E-05-4.57398E-17
 -1      1275 2.47685E-04-8.60138E-05-1.08190E-16
 -1      1276 1.10315E-04-1.61505E-05-5.34647E-17
 -1      1277 1.13215E-04-2.20306E-05-5.21772E-17
 -1      1278 2.32965E-04-5.41076E-05-1.25673E-16
 -1      1279 1.05147E-04-6.46425E-06-5.57415E-17
 -1      1280 1.07825E-04-1.09893E-05-5.51723E-17
 -1      1281 2.21203E-04-3.03355E-05-1.34197E-16
 -1      1282 1.00280E-04 4.55441E-07-5.62836E-17
 -1      1283 1.02759E-04-2.74371E-06-5.61617E-17
 -1      1284 2.10277E-04-1.23048E-05-1.37721E-16
 -1      1285 9.58001E-05 4.75349E-06-5.62701E-17
 -1      1286 9.80031E-05 2.80900E-06-5.63785E-17
 -1      1287 1.99825E-04 6.07727E-07-1.38466E-16
 -1      1288 9.23374E-05 6.35613E-06-5.54569E-17
 -1      1289 9.39327E-05 5.63759E-06-5.57144E-17
 -1      1290 1.90467E-04 8.38431E-06-1.37680E-16
 -1      1291 9.05255E-05 5.81117E-06-5.41830E-17
 -1      1292 9.11999E-05 5.98410E-06-5.46031E-17
 -1      1293 1.83577E-04 1.12692E-05-1.35403E-16
 -1      1294 9.08645E-05 4.23045E-06-5.21501E-17
 -1      1295 9.03986E-05 4.70907E-06-5.26380E-17
 -1      1296 1.80560E-04 1.06072E-05-1.31581E-16
 -1      1297 9.35270E-05 3.10264E-06-4.95345E-17
 -1      1298 9.18808E-05 3.16516E-06-5.03205E-17
 -1      1299 1.82402E-04 8.73583E-06-1.26350E-16
 -1      1300 9.82117E-05 3.90528E-06-4.57262E-17
 -1      1301 9.55802E-05 2.89812E-06-4.69460E-17
 -1      1302 1.89204E-04 8.51738E-06-1.19262E-16
 -1      1303 1.04629E-04 7.92146E-06-4.03323E-17
 -1      1304 1.01151E-04 5.24540E-06-4.21755E-17
 -1      1305 2.00343E-04 1.26410E-05-1.09423E-16
 -1      1306 1.12245E-04 1.62125E-05-3.30411E-17
 -1      1307 1.08150E-04 1.13899E-05-3.58464E-17
 -1      1308 2.14900E-04 2.34563E-05-9.62365E-17
 -1      1309 1.21011E-04 3.01663E-05-2.20771E-17
 -1      1310 1.16179E-04 2.24122E-05-2.67120E-17
 -1      1311 2.31934E-04 4.30212E-05-7.79812E-17
 -1      1312 1.32588E-04 5.36432E-05-5.44812E-18
 -1      1313 1.25799E-04 4.04567E-05-1.34034E-17
 -1      1314 2.52073E-04 7.46512E-05-5.18791E-17
 -1      1315 1.76327E-04 1.03209E-04 1.99358E-17
 -1      1316 1.54554E-04 7.44625E-05 4.64852E-18
 -1      1317 2.92710E-04 1.25715E-04-2.11555E-17
 -1      1318 3.78564E-04 2.03382E-04 2.15350E-17
 -1      1319 4.66346E-04-2.50378E-04-8.94873E-17
 -1      1320 6.39904E-04-3.21290E-04-1.70559E-16
 -1      1321 8.08856E-04-3.80340E-04-2.96665E-16
 -1      1322 9.74925E-04-4.31210E-04-4.63605E-16
 -1      1323 6.84431E-04-3.08552E-04-2.70576E-16
 -1      1324 1.13882E-03-4.77738E-04-6.69454E-16
 -1      1325 1.30118E-03-5.21270E-04-9.15568E-16
 -1      1326 1.01938E-03-4.12224E-04-6.11598E-16
 -1      1327 1.46248E-03-5.64039E-04-1.20052E-15
 -1      1328 1.62279E-03-6.06503E-04-1.52550E-15
 -1      1329 1.34604E-03-5.00575E-04-1.10780E-15
 -1      1330 1.78206E-03-6.49803E-04-1.88887E-15
 -1      1331 1.94001E-03-6.93939E-04-2.29143E-15
 -1      1332 1.66782E-03-5.86328E-04-1.75837E-15
 -1      1333 2.09632E-03-7.39157E-04-2.73310E-15
 -1      1334 2.25051E-03-7.84947E-04-3.21374E-15
 -1      1335 1.98513E-03-6.75366E-04-2.56309E-15
 -1      1336 2.40217E-03-8.30674E-04-3.73466E-15
 -1      1337 2.55090E-03-8.75235E-04-4.29542E-15
 -1      1338 2.29640E-03-7.67919E-04-3.52314E-15
 -1      1339 2.69643E-03-9.17168E-04-4.89588E-15
 -1      1340 2.83864E-03-9.54902E-04-5.53615E-15
 -1      1341 2.59922E-03-8.58265E-04-4.64003E-15
 -1      1342 2.97765E-03-9.86502E-04-6.21657E-15
 -1      1343 3.11384E-03-1.01035E-03-6.93620E-15
 -1      1344 2.89193E-03-9.35037E-04-5.91423E-15
 -1      1345 3.24777E-03-1.02473E-03-7.69353E-15
 -1      1346 3.38030E-03-1.02860E-03-8.48909E-15
 -1      1347 3.17515E-03-9.83765E-04-7.34467E-15
 -1      1348 3.51236E-03-1.02122E-03-9.32144E-15
 -1      1349 3.64502E-03-1.00259E-03-1.01902E-14
 -1      1350 3.45254E-03-9.91880E-04-8.92808E-15
 -1      1351 3.77922E-03-9.73368E-04-1.10948E-14
 -1      1352 3.91585E-03-9.34620E-04-1.20341E-14
 -1      1353 3.73006E-03-9.54194E-04-1.06587E-14
 -1      1354 4.05555E-03-8.88106E-04-1.30071E-14
 -1      1355 4.19876E-03-8.35566E-04-1.40142E-14
 -1      1356 4.01382E-03-8.75595E-04-1.25309E-14
 -1      1357 4.34560E-03-7.79129E-04-1.50524E-14
 -1      1358 4.49601E-03-7.20590E-04-1.61221E-14
 -1      1359 4.30778E-03-7.69112E-04-1.45367E-14
 -1      1360 4.64968E-03-6.61744E-04-1.72227E-14
 -1      1361 4.80618E-03-6.03984E-04-1.83514E-14
 -1      1362 4.61264E-03-6.50734E-04-1.66702E-14
 -1      1363 4.96498E-03-5.48399E-04-1.95099E-14
 -1      1364 5.12549E-03-4.95820E-04-2.06984E-14
 -1      1365 4.92643E-03-5.34272E-04-1.89237E-14
 -1      1366 5.28715E-03-4.46629E-04-2.19142E-14
 -1      1367 5.44942E-03-4.01157E-04-2.31577E-14
 -1      1368 5.24577E-03-4.28614E-04-2.12921E-14
 -1      1369 5.61182E-03-3.59287E-04-2.44299E-14
 -1      1370 5.77394E-03-3.21006E-04-2.57275E-14
 -1      1371 5.56712E-03-3.37576E-04-2.37728E-14
 -1      1372 5.93545E-03-2.85942E-04-2.70515E-14
 -1      1373 6.09609E-03-2.53895E-04-2.84022E-14
 -1      1374 5.88760E-03-2.61234E-04-2.63609E-14
 -1      1375 6.25567E-03-2.24419E-04-2.97757E-14
 -1      1376 6.41407E-03-1.97241E-04-3.11718E-14
 -1      1377 6.20519E-03-1.97563E-04-2.90505E-14
 -1      1378 6.57122E-03-1.71950E-04-3.25920E-14
 -1      1379 6.72710E-03-1.48268E-04-3.40353E-14
 -1      1380 6.51877E-03-1.43737E-04-3.18366E-14
 -1      1381 6.88170E-03-1.25867E-04-3.55036E-14
 -1      1382 7.03507E-03-1.04498E-04-3.69937E-14
 -1      1383 6.82791E-03-9.69346E-05-3.47181E-14
 -1      1384 7.18726E-03-8.39223E-05-3.85072E-14
 -1      1385 7.33834E-03-6.39361E-05-4.00453E-14
 -1      1386 7.13269E-03-5.47373E-05-3.76933E-14
 -1      1387 7.48839E-03-4.43782E-05-4.16052E-14
 -1      1388 7.63749E-03-2.50925E-05-4.31885E-14
 -1      1389 7.43346E-03-1.52525E-05-4.07610E-14
 -1      1390 7.78574E-03-5.97900E-06-4.47913E-14
 -1      1391 7.93320E-03 1.30764E-05-4.64109E-14
 -1      1392 7.73075E-03 2.28990E-05-4.39166E-14
 -1      1393 8.07997E-03 3.21288E-05-4.80502E-14
 -1      1394 8.22613E-03 5.12574E-05-4.97083E-14
 -1      1395 8.02513E-03 6.06617E-05-4.71515E-14
 -1      1396 8.37174E-03 7.04863E-05-5.13839E-14
 -1      1397 8.51687E-03 8.98675E-05-5.30793E-14
 -1      1398 8.31715E-03 9.86390E-05-5.04605E-14
 -1      1399 8.66159E-03 1.09405E-04-5.47909E-14
 -1      1400 8.80595E-03 1.29130E-04-5.65200E-14
 -1      1401 8.60732E-03 1.37183E-04-5.38416E-14
 -1      1402 8.95001E-03 1.49035E-04-5.82660E-14
 -1      1403 9.09380E-03 1.69136E-04-6.00245E-14
 -1      1404 8.89607E-03 1.76466E-04-5.72909E-14
 -1      1405 9.23738E-03 1.89419E-04-6.17999E-14
 -1      1406 9.38076E-03 2.09890E-04-6.35902E-14
 -1      1407 9.18375E-03 2.16545E-04-6.08050E-14
 -1      1408 9.52400E-03 2.30533E-04-6.53927E-14
 -1      1409 9.66710E-03 2.51347E-04-6.72055E-14
 -1      1410 9.47066E-03 2.57399E-04-6.43758E-14
 -1      1411 9.81010E-03 2.72314E-04-6.90283E-14
 -1      1412 9.95302E-03 2.93430E-04-7.08612E-14
 -1      1413 9.75702E-03 2.98964E-04-6.79948E-14
 -1      1414 1.00959E-02 3.14679E-04-7.27034E-14
 -1      1415 1.02387E-02 3.36055E-04-7.45545E-14
 -1      1416 1.00430E-02 3.41155E-04-7.16540E-14
 -1      1417 1.03814E-02 3.57542E-04-7.64151E-14
 -1      1418 1.05242E-02 3.79133E-04-7.82855E-14
 -1      1419 1.03288E-02 3.83879E-04-7.53520E-14
 -1      1420 1.06669E-02 4.00815E-04-8.01633E-14
 -1      1421 1.08096E-02 4.22582E-04-8.20495E-14
 -1      1422 1.06143E-02 4.27045E-04-7.90858E-14
 -1      1423 1.09523E-02 4.44422E-04-8.39472E-14
 -1      1424 1.10950E-02 4.66328E-04-8.58542E-14
 -1      1425 1.08999E-02 4.70570E-04-8.28574E-14
 -1      1426 1.12377E-02 4.88292E-04-8.77677E-14
 -1      1427 1.13804E-02 5.10308E-04-8.96896E-14
 -1      1428 1.11853E-02 5.14380E-04-8.66664E-14
 -1      1429 1.15231E-02 5.32368E-04-9.16192E-14
 -1      1430 1.16658E-02 5.54468E-04-9.35535E-14
 -1      1431 1.14708E-02 5.58411E-04-9.05064E-14
 -1      1432 1.18085E-02 5.76601E-04-9.55000E-14
 -1      1433 1.19512E-02 5.98763E-04-9.74573E-14
 -1      1434 1.17563E-02 6.02612E-04-9.43783E-14
 -1      1435 1.20940E-02 6.20950E-04-9.94176E-14
 -1      1436 1.22367E-02 6.43158E-04-1.01386E-13
 -1      1437 1.20418E-02 6.46940E-04-9.82808E-14
 -1      1438 1.23795E-02 6.65383E-04-1.03363E-13
 -1      1439 1.25223E-02 6.87624E-04-1.05344E-13
 -1      1440 1.23273E-02 6.91360E-04-1.02214E-13
 -1      1441 1.26650E-02 7.09876E-04-1.07332E-13
 -1      1442 1.28078E-02 7.32139E-04-1.09326E-13
 -1      1443 1.26129E-02 7.35844E-04-1.06175E-13
 -1      1444 1.29506E-02 7.54409E-04-1.11325E-13
 -1      1445 1.30934E-02 7.76686E-04-1.13328E-13
 -1      1446 1.28985E-02 7.80373E-04-1.10159E-13
 -1      1447 1.32362E-02 7.98967E-04-1.15338E-13
 -1      1448 1.33791E-02 8.21250E-04-1.17355E-13
 -1      1449 1.31841E-02 8.24929E-04-1.14164E-13
 -1      1450 1.35219E-02 8.43536E-04-1.19376E-13
 -1      1451 1.36647E-02 8.65822E-04-1.21400E-13
 -1      1452 1.34698E-02 8.69500E-04-1.18196E-13
 -1      1453 1.38076E-02 8.88107E-04-1.23433E-13
 -1      1454 1.39504E-02 9.10391E-04-1.25474E-13
 -1      1455 1.37554E-02 9.14074E-04-1.22249E-13
 -1      1456 1.40933E-02 9.32673E-04-1.27522E-13
 -1      1457 1.42361E-02 9.54952E-04-1.29577E-13
 -1      1458 1.40411E-02 9.58644E-04-1.26330E-13
 -1      1459 1.43790E-02 9.77227E-04-1.31634E-13
 -1      1460 1.45218E-02 9.99498E-04-1.33700E-13
 -1      1461 1.43268E-02 1.00320E-03-1.30435E-13
 -1      1462 1.47312E-02 1.03610E-03-1.36683E-13
 -1      1463 1.46790E-02 1.06208E-03-1.35473E-13
 -1      1464 7.42569E-04 3.36487E-04-3.10082E-17
 -1      1465 5.62919E-04 2.75847E-04 1.03677E-17
 -1      1466 5.11236E-04 2.32759E-04-2.11555E-17
 -1      1467 1.09598E-03 4.34274E-04-2.06635E-16
 -1      1468 9.19698E-04 3.87411E-04-1.03379E-16
 -1      1469 8.67600E-04 3.44619E-04-1.43941E-16
 -1      1470 1.44978E-03 5.24772E-04-5.08491E-16
 -1      1471 1.27231E-03 4.79325E-04-3.41320E-16
 -1      1472 1.21923E-03 4.36596E-04-3.89608E-16
 -1      1473 1.80828E-03 6.24734E-04-9.39949E-16
 -1      1474 1.62829E-03 5.72908E-04-7.07510E-16
 -1      1475 1.57155E-03 5.29169E-04-7.61449E-16
 -1      1476 2.17048E-03 7.46232E-04-1.50653E-15
 -1      1477 1.98913E-03 6.82483E-04-1.20613E-15
 -1      1478 1.92711E-03 6.37154E-04-1.26404E-15
 -1      1479 2.53053E-03 8.95932E-04-2.21012E-15
 -1      1480 2.35132E-03 8.17821E-04-1.84099E-15
 -1      1481 2.28449E-03 7.71062E-04-1.90130E-15
 -1      1482 2.87886E-03 1.07019E-03-3.05370E-15
 -1      1483 2.70691E-03 9.81129E-04-2.61421E-15
 -1      1484 2.63846E-03 9.34141E-04-2.67661E-15
 -1      1485 3.20556E-03 1.24938E-03-4.04646E-15
 -1      1486 3.04548E-03 1.16122E-03-3.53085E-15
 -1      1487 2.98133E-03 1.11629E-03-3.59535E-15
 -1      1488 3.50635E-03 1.39815E-03-5.19295E-15
 -1      1489 3.35907E-03 1.32993E-03-4.60026E-15
 -1      1490 3.30636E-03 1.28963E-03-4.66456E-15
 -1      1491 3.78818E-03 1.47844E-03-6.49548E-15
 -1      1492 3.64863E-03 1.44829E-03-5.82484E-15
 -1      1493 3.61303E-03 1.41385E-03-5.88898E-15
 -1      1494 4.06849E-03 1.47106E-03-7.95506E-15
 -1      1495 3.92712E-03 1.48517E-03-7.20535E-15
 -1      1496 3.91050E-03 1.45518E-03-7.26971E-15
 -1      1497 4.36601E-03 1.38913E-03-9.56642E-15
 -1      1498 4.21412E-03 1.43718E-03-8.74214E-15
 -1      1499 4.21391E-03 1.40840E-03-8.80547E-15
 -1      1500 4.69047E-03 1.26951E-03-1.13231E-14
 -1      1501 4.52473E-03 1.33138E-03-1.04267E-14
 -1      1502 4.53500E-03 1.30093E-03-1.04906E-14
 -1      1503 5.03962E-03 1.15140E-03-1.32190E-14
 -1      1504 4.86249E-03 1.20841E-03-1.22538E-14
 -1      1505 4.87601E-03 1.17507E-03-1.23181E-14
 -1      1506 5.40371E-03 1.06028E-03-1.52475E-14
 -1      1507 5.22055E-03 1.10174E-03-1.42176E-14
 -1      1508 5.23113E-03 1.06575E-03-1.42821E-14
 -1      1509 5.77172E-03 1.00514E-03-1.73999E-14
 -1      1510 5.58788E-03 1.02830E-03-1.63086E-14
 -1      1511 5.59175E-03 9.90547E-04-1.63728E-14
 -1      1512 6.13520E-03 9.83773E-04-1.96699E-14
 -1      1513 5.95445E-03 9.90674E-04-1.85204E-14
 -1      1514 5.95032E-03 9.52113E-04-1.85841E-14
 -1      1515 6.48926E-03 9.89234E-04-2.20559E-14
 -1      1516 6.31362E-03 9.83656E-04-2.08487E-14
 -1      1517 6.30193E-03 9.44999E-04-2.09104E-14
 -1      1518 6.83201E-03 1.01389E-03-2.45515E-14
 -1      1519 6.66210E-03 9.99601E-04-2.32901E-14
 -1      1520 6.64418E-03 9.61303E-04-2.33487E-14
 -1      1521 7.16353E-03 1.05128E-03-2.71518E-14
 -1      1522 6.99913E-03 1.03133E-03-2.58383E-14
 -1      1523 6.97649E-03 9.93625E-04-2.58948E-14
 -1      1524 7.48495E-03 1.09653E-03-2.98584E-14
 -1      1525 7.32541E-03 1.07315E-03-2.84918E-14
 -1      1526 7.29942E-03 1.03613E-03-2.85470E-14
 -1      1527 7.79781E-03 1.14624E-03-3.26595E-14
 -1      1528 7.64234E-03 1.12098E-03-3.12473E-14
 -1      1529 7.61411E-03 1.08463E-03-3.13002E-14
 -1      1530 8.10371E-03 1.19816E-03-3.55673E-14
 -1      1531 7.95152E-03 1.17203E-03-3.41012E-14
 -1      1532 7.92189E-03 1.13629E-03-3.41524E-14
 -1      1533 8.40411E-03 1.25084E-03-3.85727E-14
 -1      1534 8.25451E-03 1.22447E-03-3.70575E-14
 -1      1535 8.22406E-03 1.18926E-03-3.71022E-14
 -1      1536 8.70029E-03 1.30341E-03-4.16607E-14
 -1      1537 8.55265E-03 1.27718E-03-4.01058E-14
 -1      1538 8.52179E-03 1.24241E-03-4.01446E-14
 -1      1539 8.99325E-03 1.35539E-03-4.48324E-14
 -1      1540 8.84711E-03 1.32950E-03-4.32371E-14
 -1      1541 8.81611E-03 1.29509E-03-4.32732E-14
 -1      1542 9.28384E-03 1.40652E-03-4.80767E-14
 -1      1543 9.13879E-03 1.38107E-03-4.64462E-14
 -1      1544 9.10781E-03 1.34694E-03-4.64791E-14
 -1      1545 9.57269E-03 1.45672E-03-5.13932E-14
 -1      1546 9.42845E-03 1.43174E-03-4.97262E-14
 -1      1547 9.39758E-03 1.39784E-03-4.97572E-14
 -1      1548 9.86031E-03 1.50600E-03-5.47689E-14
 -1      1549 9.71663E-03 1.48147E-03-5.30735E-14
 -1      1550 9.68593E-03 1.44775E-03-5.31014E-14
 -1      1551 1.01471E-02 1.55443E-03-5.81991E-14
 -1      1552 1.00038E-02 1.53032E-03-5.64773E-14
 -1      1553 9.97326E-03 1.49672E-03-5.65044E-14
 -1      1554 1.04332E-02 1.60211E-03-6.16863E-14
 -1      1555 1.02902E-02 1.57836E-03-5.99367E-14
 -1      1556 1.02599E-02 1.54486E-03-5.99617E-14
 -1      1557 1.07190E-02 1.64913E-03-6.52285E-14
 -1      1558 1.05762E-02 1.62569E-03-6.34494E-14
 -1      1559 1.05460E-02 1.59226E-03-6.34732E-14
 -1      1560 1.10046E-02 1.69560E-03-6.88208E-14
 -1      1561 1.08618E-02 1.67243E-03-6.70166E-14
 -1      1562 1.08318E-02 1.63905E-03-6.70403E-14
 -1      1563 1.12900E-02 1.74162E-03-7.24765E-14
 -1      1564 1.11473E-02 1.71866E-03-7.06419E-14
 -1      1565 1.11174E-02 1.68532E-03-7.06645E-14
 -1      1566 1.15754E-02 1.78728E-03-7.61825E-14
 -1      1567 1.14327E-02 1.76449E-03-7.43236E-14
 -1      1568 1.14030E-02 1.73117E-03-7.43448E-14
 -1      1569 1.18608E-02 1.83265E-03-7.99448E-14
 -1      1570 1.17181E-02 1.81000E-03-7.80565E-14
 -1      1571 1.16884E-02 1.77669E-03-7.80740E-14
 -1      1572 1.21461E-02 1.87780E-03-8.37479E-14
 -1      1573 1.20035E-02 1.85525E-03-8.18420E-14
 -1      1574 1.19738E-02 1.82195E-03-8.18525E-14
 -1      1575 1.24316E-02 1.92277E-03-8.75915E-14
 -1      1576 1.22888E-02 1.90030E-03-8.56654E-14
 -1      1577 1.22593E-02 1.86701E-03-8.56690E-14
 -1      1578 1.27170E-02 1.96762E-03-9.14573E-14
 -1      1579 1.25743E-02 1.94521E-03-8.95214E-14
 -1      1580 1.25448E-02 1.91192E-03-8.95224E-14
 -1      1581 1.30025E-02 2.01238E-03-9.53550E-14
 -1      1582 1.28597E-02 1.99001E-03-9.34010E-14
 -1      1583 1.28303E-02 1.95672E-03-9.34060E-14
 -1      1584 1.32880E-02 2.05707E-03-9.92836E-14
 -1      1585 1.31453E-02 2.03473E-03-9.73175E-14
 -1      1586 1.31158E-02 2.00144E-03-9.73195E-14
 -1      1587 1.35736E-02 2.10171E-03-1.03230E-13
 -1      1588 1.34308E-02 2.07939E-03-1.01254E-13
 -1      1589 1.34014E-02 2.04610E-03-1.01253E-13
 -1      1590 1.38592E-02 2.14632E-03-1.07180E-13
 -1      1591 1.37164E-02 2.12402E-03-1.05206E-13
 -1      1592 1.36870E-02 2.09073E-03-1.05202E-13
 -1      1593 1.41448E-02 2.19092E-03-1.11129E-13
 -1      1594 1.40020E-02 2.16863E-03-1.09155E-13
 -1      1595 1.39726E-02 2.13533E-03-1.09152E-13
 -1      1596 1.44305E-02 2.23552E-03-1.15110E-13
 -1      1597 1.42877E-02 2.21322E-03-1.13115E-13
 -1      1598 1.42583E-02 2.17993E-03-1.13118E-13
 -1      1599 1.47162E-02 2.28012E-03-1.19110E-13
 -1      1600 1.45733E-02 2.25782E-03-1.17105E-13
 -1      1601 1.45439E-02 2.22452E-03-1.17107E-13
 -1      1602 1.50019E-02 2.32473E-03-1.23128E-13
 -1      1603 1.48590E-02 2.30242E-03-1.21118E-13
 -1      1604 1.48296E-02 2.26912E-03-1.21118E-13
 -1      1605 1.52876E-02 2.36935E-03-1.27155E-13
 -1      1606 1.51447E-02 2.34704E-03-1.25143E-13
 -1      1607 1.51153E-02 2.31373E-03-1.25139E-13
 -1      1608 1.54308E-02 2.38171E-03-1.29311E-13
 -1      1609 1.53879E-02 2.27823E-03-1.30103E-13
 -1      1610 1.54099E-02 2.32037E-03-1.29851E-13
 -1      1611 1.53440E-02 2.19393E-03-1.30604E-13
 -1      1612 1.53660E-02 2.23608E-03-1.30355E-13
 -1      1613 1.52532E-02 2.23782E-03-1.28484E-13
 -1      1614 1.53001E-02 2.10962E-03-1.31102E-13
 -1      1615 1.53220E-02 2.15178E-03-1.30853E-13
 -1      1616 1.52093E-02 2.15352E-03-1.28981E-13
 -1      1617 1.52562E-02 2.02530E-03-1.31588E-13
 -1      1618 1.52781E-02 2.06746E-03-1.31349E-13
 -1      1619 1.51654E-02 2.06921E-03-1.29476E-13
 -1      1620 1.52130E-02 1.94239E-03-1.32068E-13
 -1      1621 1.52346E-02 1.98385E-03-1.31828E-13
 -1      1622 1.51218E-02 1.98561E-03-1.29960E-13
 -1      1623 1.51691E-02 1.85805E-03-1.32566E-13
 -1      1624 1.51910E-02 1.90022E-03-1.32315E-13
 -1      1625 1.50783E-02 1.90199E-03-1.30444E-13
 -1      1626 1.51252E-02 1.77369E-03-1.33054E-13
 -1      1627 1.51472E-02 1.81587E-03-1.32812E-13
 -1      1628 1.50344E-02 1.81764E-03-1.30928E-13
 -1      1629 1.50814E-02 1.68933E-03-1.33522E-13
 -1      1630 1.51033E-02 1.73151E-03-1.33290E-13
 -1      1631 1.49905E-02 1.73329E-03-1.31406E-13
 -1      1632 1.50376E-02 1.60497E-03-1.33973E-13
 -1      1633 1.50595E-02 1.64715E-03-1.33750E-13
 -1      1634 1.49467E-02 1.64894E-03-1.31868E-13
 -1      1635 1.49938E-02 1.52062E-03-1.34424E-13
 -1      1636 1.50157E-02 1.56280E-03-1.34199E-13
 -1      1637 1.49029E-02 1.56459E-03-1.32319E-13
 -1      1638 1.49507E-02 1.43771E-03-1.34872E-13
 -1      1639 1.49722E-02 1.47916E-03-1.34647E-13
 -1      1640 1.48595E-02 1.48096E-03-1.32765E-13
 -1      1641 1.49070E-02 1.35338E-03-1.35329E-13
 -1      1642 1.49288E-02 1.39554E-03-1.35101E-13
 -1      1643 1.48161E-02 1.39734E-03-1.33209E-13
 -1      1644 1.48632E-02 1.26907E-03-1.35751E-13
 -1      1645 1.48851E-02 1.31122E-03-1.35546E-13
 -1      1646 1.47723E-02 1.31302E-03-1.33648E-13
 -1      1647 1.48194E-02 1.18476E-03-1.36158E-13
 -1      1648 1.48413E-02 1.22691E-03-1.35956E-13
 -1      1649 1.47285E-02 1.22871E-03-1.34066E-13
 -1      1650 1.47383E-02 1.10235E-03-1.35918E-13
 -1      1651 1.47602E-02 1.14450E-03-1.35715E-13
 -1      1652 1.46474E-02 1.14629E-03-1.33828E-13
 -1      1653 1.45289E-02 1.06575E-03-1.32941E-13
 -1      1654 5.88169E-03 3.68137E-04-1.24040E-14
 -1      1655 5.90196E-03 3.24407E-04-1.24946E-14
 -1      1656 5.74066E-03 4.74414E-04-1.20803E-14
 -1      1657 5.82215E-03 4.21825E-04-1.22670E-14
 -1      1658 5.50057E-03 6.08540E-04-1.15493E-14
 -1      1659 5.62171E-03 5.45769E-04-1.17967E-14
 -1      1660 5.18068E-03 7.66213E-04-1.09015E-14
 -1      1661 5.33779E-03 6.89849E-04-1.12168E-14
 -1      1662 4.80134E-03 9.36744E-04-1.01459E-14
 -1      1663 4.97871E-03 8.55657E-04-1.05119E-14
 -1      1664 4.40542E-03 1.09617E-03-9.28738E-15
 -1      1665 4.59271E-03 1.02745E-03-9.68352E-15
 -1      1666 3.99209E-03 1.19791E-03-8.40246E-15
 -1      1667 4.18399E-03 1.15991E-03-8.81221E-15
 -1      1668 3.57680E-03 1.21345E-03-7.51466E-15
 -1      1669 3.76335E-03 1.22334E-03-7.91427E-15
 -1      1670 3.16746E-03 1.11598E-03-6.75369E-15
 -1      1671 3.35009E-03 1.16870E-03-7.08930E-15
 -1      1672 2.76302E-03 9.55949E-04-6.10059E-15
 -1      1673 2.94944E-03 1.03647E-03-6.38706E-15
 -1      1674 2.35219E-03 7.60261E-04-5.55357E-15
 -1      1675 2.54084E-03 8.53013E-04-5.79181E-15
 -1      1676 1.96828E-03 5.68563E-04-5.13209E-15
 -1      1677 2.13925E-03 6.54394E-04-5.31019E-15
 -1      1678 1.65164E-03 4.13804E-04-4.86033E-15
 -1      1679 1.78520E-03 4.82892E-04-4.97416E-15
 -1      1680 1.44539E-03 2.92469E-04-4.71510E-15
 -1      1681 1.52647E-03 3.43818E-04-4.76559E-15
 -1      1682 1.35859E-03 1.94910E-04-4.69865E-15
 -1      1683 1.38289E-03 2.38027E-04-4.69042E-15
 -1      1684 1.40643E-03 1.01631E-04-4.80594E-15
 -1      1685 1.36646E-03 1.45143E-04-4.73313E-15
 -1      1686 1.58168E-03-8.59668E-06-5.07163E-15
 -1      1687 1.48655E-03 4.33372E-05-4.93823E-15
 -1      1688 1.87874E-03-1.39997E-04-5.45336E-15
 -1      1689 1.72930E-03-7.08971E-05-5.24688E-15
 -1      1690 2.22646E-03-3.07678E-04-5.99980E-15
 -1      1691 2.05922E-03-2.33178E-04-5.74481E-15
 -1      1692 2.65036E-03-4.76622E-04-6.68316E-15
 -1      1693 2.45189E-03-3.95370E-04-6.33596E-15
 -1      1694 3.07762E-03-6.15252E-04-7.49403E-15
 -1      1695 2.89135E-03-5.58718E-04-7.11050E-15
 -1      1696 3.46580E-03-6.71792E-04-8.35703E-15
 -1      1697 3.28988E-03-6.55775E-04-7.96647E-15
 -1      1698 3.86312E-03-6.36831E-04-9.23187E-15
 -1      1699 3.67847E-03-6.62329E-04-8.82597E-15
 -1      1700 4.27960E-03-5.19675E-04-1.01385E-14
 -1      1701 4.08316E-03-5.84717E-04-9.72472E-15
 -1      1702 4.70324E-03-3.50189E-04-1.09387E-14
 -1      1703 4.51227E-03-4.32548E-04-1.05826E-14
 -1      1704 5.11407E-03-1.48219E-04-1.16897E-14
 -1      1705 4.92020E-03-2.40290E-04-1.13771E-14
 -1      1706 5.48006E-03 1.49058E-05-1.21619E-14
 -1      1707 5.32704E-03-5.92800E-05-1.19533E-14
 -1      1708 5.74572E-03 1.53963E-04-1.24687E-14
 -1      1709 5.63548E-03 9.33395E-05-1.23537E-14
 -1      1710 5.88898E-03 2.71971E-04-1.26051E-14
 -1      1711 5.84019E-03 2.23658E-04-1.25996E-14
 -1      1712 5.02227E-03 7.71222E-04-1.09227E-14
 -1      1713 5.38053E-03 5.99248E-04-1.16602E-14
 -1      1714 1.54014E-02 2.34841E-03-1.29308E-13
 -1      1715 1.52667E-02 2.30801E-03-1.27692E-13
 -1      1716 5.85501E-03 3.71768E-04-1.27243E-14
 -1      1717 5.66803E-03 4.63232E-04-1.22903E-14
 -1      1718 5.90507E-03 3.02716E-04-1.29781E-14
 -1      1719 4.63689E-03 9.65898E-04-1.00547E-14
 -1      1720 4.24887E-03 1.13778E-03-9.10727E-15
 -1      1721 3.85930E-03 1.23773E-03-8.14100E-15
 -1      1722 3.49924E-03 1.21655E-03-7.23515E-15
 -1      1723 3.11658E-03 1.08025E-03-6.45697E-15
 -1      1724 2.72110E-03 8.79662E-04-5.80012E-15
 -1      1725 2.30874E-03 6.58221E-04-5.26811E-15
 -1      1726 1.91815E-03 4.66929E-04-4.88571E-15
 -1      1727 1.60533E-03 3.27762E-04-4.64570E-15
 -1      1728 1.41053E-03 2.35654E-04-4.53252E-15
 -1      1729 1.35319E-03 1.70154E-04-4.54147E-15
 -1      1730 1.44580E-03 1.03969E-04-4.70012E-15
 -1      1731 1.67902E-03 7.37708E-06-4.99500E-15
 -1      1732 2.01042E-03-1.35762E-04-5.44171E-15
 -1      1733 2.40499E-03-3.21933E-04-6.05218E-15
 -1      1734 2.82829E-03-5.11855E-04-6.79708E-15
 -1      1735 3.21126E-03-6.54401E-04-7.68455E-15
 -1      1736 3.56639E-03-6.93788E-04-8.62461E-15
 -1      1737 3.93768E-03-6.26748E-04-9.59164E-15
 -1      1738 4.33108E-03-4.69020E-04-1.05422E-14
 -1      1739 4.75082E-03-2.56837E-04-1.14399E-14
 -1      1740 5.16679E-03-5.00690E-05-1.21608E-14
 -1      1741 5.53544E-03 1.09565E-04-1.26285E-14
 -1      1742 5.79380E-03 2.28654E-04-1.29576E-14
 -1      1743 3.16446E-04-1.64786E-04-7.52301E-17
 -1      1744 3.51107E-04-7.74870E-05-1.97149E-16
 -1      1745 3.61404E-04-9.75663E-05-1.88489E-16
 -1      1746 3.73105E-04-1.20883E-04-1.77294E-16
 -1      1747 3.87912E-04-1.47843E-04-1.60367E-16
 -1      1748 4.97404E-04-1.48852E-04-2.74534E-16
 -1      1749 3.15087E-04-1.85483E-05-2.10959E-16
 -1      1750 3.23674E-04-3.02807E-05-2.09685E-16
 -1      1751 2.98305E-04-6.88620E-08-2.11297E-16
 -1      1752 3.06507E-04-8.35303E-06-2.11419E-16
 -1      1753 4.18465E-04-2.28602E-05-3.11302E-16
 -1      1754 2.83745E-04 1.10595E-05-2.09183E-16
 -1      1755 2.90577E-04 6.40341E-06-2.10484E-16
 -1      1756 3.95068E-04 3.30904E-07-3.10407E-16
 -1      1757 2.73680E-04 1.56783E-05-2.05158E-16
 -1      1758 2.77956E-04 1.40780E-05-2.07449E-16
 -1      1759 3.75367E-04 1.43958E-05-3.06585E-16
 -1      1760 2.70414E-04 1.60584E-05-1.98734E-16
 -1      1761 2.71054E-04 1.61961E-05-2.02299E-16
 -1      1762 3.62870E-04 2.07621E-05-2.99823E-16
 -1      1763 2.75347E-04 1.57638E-05-1.90454E-16
 -1      1764 2.71823E-04 1.57370E-05-1.94980E-16
 -1      1765 3.60801E-04 2.27615E-05-2.90146E-16
 -1      1766 2.88135E-04 1.87883E-05-1.79042E-16
 -1      1767 2.80835E-04 1.66319E-05-1.85344E-16
 -1      1768 3.70606E-04 2.51872E-05-2.77258E-16
 -1      1769 3.07909E-04 2.89089E-05-1.63471E-16
 -1      1770 2.97315E-04 2.27850E-05-1.72158E-16
 -1      1771 3.91584E-04 3.31203E-05-2.60073E-16
 -1      1772 3.32744E-04 4.91279E-05-1.42559E-16
 -1      1773 3.19836E-04 3.76427E-05-1.54133E-16
 -1      1774 4.21785E-04 5.10604E-05-2.36912E-16
 -1      1775 3.61697E-04 8.23880E-05-1.13055E-16
 -1      1776 3.46731E-04 6.40130E-05-1.29454E-16
 -1      1777 4.58566E-04 8.23705E-05-2.05538E-16
 -1      1778 3.97257E-04 1.33701E-04-7.13541E-17
 -1      1779 3.78425E-04 1.05523E-04-9.43798E-17
 -1      1780 5.01382E-04 1.30510E-04-1.62359E-16
 -1      1781 4.67869E-04 1.96893E-04-4.02239E-17
 -1      1782 4.30710E-04 1.61340E-04-5.99428E-17
 -1      1783 5.62062E-04 1.90614E-04-1.22921E-16
 -1      1784 6.43968E-04 2.56476E-04-8.93789E-17
 -1      1785 3.78115E-04-1.71765E-04-1.22515E-16
 -1      1786 9.94338E-04 3.55218E-04-2.79467E-16
 -1      1787 8.19277E-04 3.08145E-04-1.69691E-16
 -1      1788 7.73607E-04 2.72873E-04-1.91050E-16
 -1      1789 5.09798E-04-2.10123E-04-2.10674E-16
 -1      1790 9.02582E-04-3.46709E-04-5.51249E-16
 -1      1791 1.06750E-03-3.92811E-04-7.63970E-16
 -1      1792 1.23076E-03-4.36761E-04-1.01420E-15
 -1      1793 1.39306E-03-4.79348E-04-1.30270E-15
 -1      1794 1.11746E-03-3.73166E-04-9.20610E-16
 -1      1795 1.55461E-03-5.22210E-04-1.62878E-15
 -1      1796 1.71518E-03-5.65620E-04-1.99302E-15
 -1      1797 1.44199E-03-4.57956E-04-1.50048E-15
 -1      1798 1.87524E-03-6.10324E-04-2.39512E-15
 -1      1799 2.03402E-03-6.56186E-04-2.83545E-15
 -1      1800 1.76519E-03-5.44551E-04-2.22905E-15
 -1      1801 2.19196E-03-7.03035E-04-3.31388E-15
 -1      1802 2.34813E-03-7.50129E-04-3.83116E-15
 -1      1803 2.08683E-03-6.36477E-04-3.10784E-15
 -1      1804 2.50278E-03-7.96368E-04-4.38729E-15
 -1      1805 2.65525E-03-8.40305E-04-4.98199E-15
 -1      1806 2.40513E-03-7.31701E-04-4.13810E-15
 -1      1807 2.80554E-03-8.80097E-04-5.61583E-15
 -1      1808 2.95372E-03-9.13823E-04-6.28901E-15
 -1      1809 2.71737E-03-8.21568E-04-5.32215E-15
 -1      1810 3.09957E-03-9.39461E-04-7.00094E-15
 -1      1811 3.24415E-03-9.55268E-04-7.75077E-15
 -1      1812 3.02145E-03-8.91450E-04-6.66067E-15
 -1      1813 3.38708E-03-9.59875E-04-8.53893E-15
 -1      1814 3.53022E-03-9.52531E-04-9.36415E-15
 -1      1815 3.31804E-03-9.24836E-04-8.15385E-15
 -1      1816 3.67313E-03-9.33205E-04-1.02260E-14
 -1      1817 3.81771E-03-9.02564E-04-1.11244E-14
 -1      1818 3.61135E-03-9.10259E-04-9.79761E-15
 -1      1819 3.96355E-03-8.61992E-04-1.20585E-14
 -1      1820 4.11185E-03-8.13245E-04-1.30258E-14
 -1      1821 3.90752E-03-8.47352E-04-1.15883E-14
 -1      1822 4.26231E-03-7.58519E-04-1.40252E-14
 -1      1823 4.41513E-03-6.99887E-04-1.50581E-14
 -1      1824 4.21112E-03-7.47416E-04-1.35179E-14
 -1      1825 4.57017E-03-6.39527E-04-1.61223E-14
 -1      1826 4.72683E-03-5.79125E-04-1.72170E-14
 -1      1827 4.52308E-03-6.28047E-04-1.55779E-14
 -1      1828 4.88518E-03-5.20262E-04-1.83400E-14
 -1      1829 5.04422E-03-4.63936E-04-1.94927E-14
 -1      1830 4.84115E-03-5.06133E-04-1.77609E-14
 -1      1831 5.20418E-03-4.10961E-04-2.06751E-14
 -1      1832 5.36404E-03-3.61718E-04-2.18839E-14
 -1      1833 5.16180E-03-3.93370E-04-2.00606E-14
 -1      1834 5.52408E-03-3.16379E-04-2.31204E-14
 -1      1835 5.68349E-03-2.74914E-04-2.43843E-14
 -1      1836 5.48193E-03-2.95426E-04-2.24731E-14
 -1      1837 5.84250E-03-2.37088E-04-2.56750E-14
 -1      1838 6.00060E-03-2.02668E-04-2.69907E-14
 -1      1839 5.79946E-03-2.13320E-04-2.49932E-14
 -1      1840 6.15792E-03-1.71233E-04-2.83311E-14
 -1      1841 6.31420E-03-1.42482E-04-2.96965E-14
 -1      1842 6.11330E-03-1.45341E-04-2.76175E-14
 -1      1843 6.46951E-03-1.15962E-04-3.10855E-14
 -1      1844 6.62378E-03-9.13799E-05-3.24986E-14
 -1      1845 6.42307E-03-8.86175E-05-3.03392E-14
 -1      1846 6.77704E-03-6.83330E-05-3.39363E-14
 -1      1847 6.92930E-03-4.65723E-05-3.53980E-14
 -1      1848 6.72884E-03-4.01087E-05-3.31596E-14
 -1      1849 7.08060E-03-2.57776E-05-3.68819E-14
 -1      1850 7.23102E-03-5.75134E-06-3.83887E-14
 -1      1851 7.03089E-03 2.88058E-06-3.60740E-14
 -1      1852 7.38055E-03 1.37389E-05-3.99189E-14
 -1      1853 7.52933E-03 3.28421E-05-4.14710E-14
 -1      1854 7.32964E-03 4.25081E-05-3.90820E-14
 -1      1855 7.67735E-03 5.17143E-05-4.30454E-14
 -1      1856 7.82473E-03 7.04629E-05-4.46403E-14
 -1      1857 7.62555E-03 8.03791E-05-4.21793E-14
 -1      1858 7.97148E-03 8.91837E-05-4.62556E-14
 -1      1859 8.11772E-03 1.07951E-04-4.78878E-14
 -1      1860 7.91909E-03 1.17614E-04-4.53613E-14
 -1      1861 8.26344E-03 1.26815E-04-4.95401E-14
 -1      1862 8.40875E-03 1.45826E-04-5.12095E-14
 -1      1863 8.21068E-03 1.54946E-04-4.86219E-14
 -1      1864 8.55366E-03 1.65005E-04-5.28960E-14
 -1      1865 8.69826E-03 1.84380E-04-5.46008E-14
 -1      1866 8.50070E-03 1.92813E-04-5.19548E-14
 -1      1867 8.84254E-03 2.03953E-04-5.63226E-14
 -1      1868 8.98658E-03 2.23739E-04-5.80604E-14
 -1      1869 8.78950E-03 2.31447E-04-5.53574E-14
 -1      1870 9.13039E-03 2.43729E-04-5.98132E-14
 -1      1871 9.27402E-03 2.63929E-04-6.15800E-14
 -1      1872 9.07736E-03 2.70934E-04-5.88249E-14
 -1      1873 9.41748E-03 2.84321E-04-6.33627E-14
 -1      1874 9.56081E-03 3.04907E-04-6.51576E-14
 -1      1875 9.36451E-03 3.11271E-04-6.23527E-14
 -1      1876 9.70401E-03 3.25666E-04-6.69649E-14
 -1      1877 9.84713E-03 3.46596E-04-6.87813E-14
 -1      1878 9.65114E-03 3.52398E-04-6.59364E-14
 -1      1879 9.99017E-03 3.67676E-04-7.06071E-14
 -1      1880 1.01331E-02 3.88902E-04-7.24436E-14
 -1      1881 9.93739E-03 3.94227E-04-6.95639E-14
 -1      1882 1.02761E-02 4.10255E-04-7.42909E-14
 -1      1883 1.04189E-02 4.31729E-04-7.61470E-14
 -1      1884 1.02234E-02 4.36659E-04-7.32327E-14
 -1      1885 1.05618E-02 4.53307E-04-7.80127E-14
 -1      1886 1.07046E-02 4.74984E-04-7.98863E-14
 -1      1887 1.05092E-02 4.79595E-04-7.69397E-14
 -1      1888 1.08474E-02 4.96745E-04-8.17706E-14
 -1      1889 1.09902E-02 5.18583E-04-8.36645E-14
 -1      1890 1.07949E-02 5.22941E-04-8.06865E-14
 -1      1891 1.11329E-02 5.40488E-04-8.55669E-14
 -1      1892 1.12757E-02 5.62454E-04-8.74790E-14
 -1      1893 1.10805E-02 5.66614E-04-8.44693E-14
 -1      1894 1.14185E-02 5.84471E-04-8.93957E-14
 -1      1895 1.15613E-02 6.06534E-04-9.13212E-14
 -1      1896 1.13661E-02 6.10545E-04-8.82884E-14
 -1      1897 1.17040E-02 6.28637E-04-9.32557E-14
 -1      1898 1.18468E-02 6.50774E-04-9.51987E-14
 -1      1899 1.16517E-02 6.54672E-04-9.21354E-14
 -1      1900 1.19896E-02 6.72939E-04-9.71487E-14
 -1      1901 1.21323E-02 6.95131E-04-9.91043E-14
 -1      1902 1.19373E-02 6.98948E-04-9.60158E-14
 -1      1903 1.22751E-02 7.17342E-04-1.01069E-13
 -1      1904 1.24179E-02 7.39573E-04-1.03042E-13
 -1      1905 1.22229E-02 7.43332E-04-9.99280E-14
 -1      1906 1.25607E-02 7.61817E-04-1.05021E-13
 -1      1907 1.27035E-02 7.84074E-04-1.07006E-13
 -1      1908 1.25085E-02 7.87794E-04-1.03869E-13
 -1      1909 1.28463E-02 8.06340E-04-1.08997E-13
 -1      1910 1.29891E-02 8.28614E-04-1.10992E-13
 -1      1911 1.27942E-02 8.32310E-04-1.07837E-13
 -1      1912 1.31320E-02 8.50894E-04-1.12996E-13
 -1      1913 1.32748E-02 8.73178E-04-1.15004E-13
 -1      1914 1.30798E-02 8.76860E-04-1.11827E-13
 -1      1915 1.34176E-02 8.95464E-04-1.17018E-13
 -1      1916 1.35604E-02 9.17753E-04-1.19039E-13
 -1      1917 1.33655E-02 9.21430E-04-1.15844E-13
 -1      1918 1.37033E-02 9.40041E-04-1.21065E-13
 -1      1919 1.38461E-02 9.62329E-04-1.23098E-13
 -1      1920 1.36511E-02 9.66008E-04-1.19881E-13
 -1      1921 1.39890E-02 9.84615E-04-1.25139E-13
 -1      1922 1.41318E-02 1.00690E-03-1.27186E-13
 -1      1923 1.39368E-02 1.01059E-03-1.23948E-13
 -1      1924 1.42589E-02 1.02519E-03-1.29030E-13
 -1      1925 1.44018E-02 1.04746E-03-1.31086E-13
 -1      1926 1.44610E-02 1.08773E-03-1.31528E-13
 -1      1927 1.42068E-02 1.05116E-03-1.27831E-13
 -1      1928 1.34255E-03 4.44620E-04-5.90673E-16
 -1      1929 1.16820E-03 4.00042E-04-4.19031E-16
 -1      1930 1.11768E-03 3.63963E-04-4.44848E-16
 -1      1931 1.69259E-03 5.41572E-04-1.02877E-15
 -1      1932 1.51712E-03 4.91416E-04-7.93460E-16
 -1      1933 1.46239E-03 4.53967E-04-8.21378E-16
 -1      1934 2.04613E-03 6.59198E-04-1.59878E-15
 -1      1935 1.86907E-03 5.97305E-04-1.29704E-15
 -1      1936 1.81058E-03 5.57514E-04-1.32622E-15
 -1      1937 2.40154E-03 8.05968E-04-2.30398E-15
 -1      1938 2.22411E-03 7.28902E-04-1.93407E-15
 -1      1939 2.16358E-03 6.86349E-04-1.96295E-15
 -1      1940 2.75389E-03 9.80832E-04-3.14860E-15
 -1      1941 2.57888E-03 8.90702E-04-2.70861E-15
 -1      1942 2.51972E-03 8.46309E-04-2.73613E-15
 -1      1943 3.09597E-03 1.16645E-03-4.13952E-15
 -1      1944 2.92692E-03 1.07424E-03-3.62533E-15
 -1      1945 2.87363E-03 1.03084E-03-3.65078E-15
 -1      1946 3.42210E-03 1.32691E-03-5.28241E-15
 -1      1947 3.26104E-03 1.25241E-03-4.69129E-15
 -1      1948 3.21732E-03 1.21406E-03-4.71342E-15
 -1      1949 3.73420E-03 1.41949E-03-6.58226E-15
 -1      1950 3.57890E-03 1.38356E-03-5.91301E-15
 -1      1951 3.54585E-03 1.35284E-03-5.93139E-15
 -1      1952 4.04357E-03 1.41896E-03-8.03826E-15
 -1      1953 3.88760E-03 1.43049E-03-7.29080E-15
 -1      1954 3.86420E-03 1.40609E-03-7.30706E-15
 -1      1955 4.36407E-03 1.33681E-03-9.64724E-15
 -1      1956 4.20140E-03 1.38581E-03-8.82370E-15
 -1      1957 4.18623E-03 1.36330E-03-8.83755E-15
 -1      1958 4.70178E-03 1.21252E-03-1.14024E-14
 -1      1959 4.53078E-03 1.27721E-03-1.05066E-14
 -1      1960 4.52291E-03 1.25293E-03-1.05185E-14
 -1      1961 5.05308E-03 1.08888E-03-1.32970E-14
 -1      1962 4.87632E-03 1.14877E-03-1.23328E-14
 -1      1963 4.87386E-03 1.12167E-03-1.23428E-14
 -1      1964 5.41044E-03 9.93495E-04-1.53233E-14
 -1      1965 5.23177E-03 1.03702E-03-1.42948E-14
 -1      1966 5.23127E-03 1.00765E-03-1.43035E-14
 -1      1967 5.76659E-03 9.35830E-04-1.74735E-14
 -1      1968 5.58926E-03 9.60109E-04-1.63831E-14
 -1      1969 5.58733E-03 9.29434E-04-1.63904E-14
 -1      1970 6.11682E-03 9.13411E-04-1.97390E-14
 -1      1971 5.94281E-03 9.20686E-04-1.85921E-14
 -1      1972 5.93704E-03 8.89418E-04-1.85968E-14
 -1      1973 6.45869E-03 9.18856E-04-2.21176E-14
 -1      1974 6.28897E-03 9.13154E-04-2.09139E-14
 -1      1975 6.27832E-03 8.81692E-04-2.09151E-14
 -1      1976 6.79148E-03 9.44135E-04-2.46075E-14
 -1      1977 6.62626E-03 9.29433E-04-2.33495E-14
 -1      1978 6.61076E-03 8.98016E-04-2.33467E-14
 -1      1979 7.11546E-03 9.82467E-04-2.72034E-14
 -1      1980 6.95453E-03 9.61975E-04-2.58922E-14
 -1      1981 6.93482E-03 9.30751E-04-2.58869E-14
 -1      1982 7.43153E-03 1.02878E-03-2.99034E-14
 -1      1983 7.27440E-03 1.00483E-03-2.85398E-14
 -1      1984 7.25134E-03 9.73892E-04-2.85317E-14
 -1      1985 7.74079E-03 1.07953E-03-3.27013E-14
 -1      1986 7.58692E-03 1.05374E-03-3.12911E-14
 -1      1987 7.56134E-03 1.02312E-03-3.12779E-14
 -1      1988 8.04442E-03 1.13241E-03-3.55982E-14
 -1      1989 7.89322E-03 1.10579E-03-3.41382E-14
 -1      1990 7.86584E-03 1.07550E-03-3.41223E-14
 -1      1991 8.34350E-03 1.18592E-03-3.85912E-14
 -1      1992 8.19444E-03 1.15913E-03-3.70822E-14
 -1      1993 8.16583E-03 1.12916E-03-3.70609E-14
 -1      1994 8.63899E-03 1.23920E-03-4.16709E-14
 -1      1995 8.49162E-03 1.21261E-03-4.01202E-14
 -1      1996 8.46221E-03 1.18292E-03-4.00931E-14
 -1      1997 8.93170E-03 1.29175E-03-4.48358E-14
 -1      1998 8.78563E-03 1.26557E-03-4.32440E-14
 -1      1999 8.75573E-03 1.23613E-03-4.32121E-14
 -1      2000 9.22230E-03 1.34334E-03-4.80736E-14
 -1      2001 9.07722E-03 1.31767E-03-4.64453E-14
 -1      2002 9.04705E-03 1.28843E-03-4.64114E-14
 -1      2003 9.51133E-03 1.39391E-03-5.13838E-14
 -1      2004 9.36698E-03 1.36875E-03-4.97201E-14
 -1      2005 9.33668E-03 1.33969E-03-4.96815E-14
 -1      2006 9.79920E-03 1.44347E-03-5.47547E-14
 -1      2007 9.65538E-03 1.41881E-03-5.30616E-14
 -1      2008 9.62505E-03 1.38989E-03-5.30193E-14
 -1      2009 1.00862E-02 1.49212E-03-5.81825E-14
 -1      2010 9.94281E-03 1.46790E-03-5.64620E-14
 -1      2011 9.91250E-03 1.43909E-03-5.64187E-14
 -1      2012 1.03727E-02 1.53996E-03-6.16648E-14
 -1      2013 1.02295E-02 1.51613E-03-5.99168E-14
 -1      2014 1.01993E-02 1.48741E-03-5.98717E-14
 -1      2015 1.06588E-02 1.58710E-03-6.52042E-14
 -1      2016 1.05158E-02 1.56361E-03-6.34272E-14
 -1      2017 1.04856E-02 1.53495E-03-6.33783E-14
 -1      2018 1.09446E-02 1.63366E-03-6.87955E-14
 -1      2019 1.08017E-02 1.61044E-03-6.69933E-14
 -1      2020 1.07716E-02 1.58183E-03-6.69429E-14
 -1      2021 1.12302E-02 1.67974E-03-7.24486E-14
 -1      2022 1.10874E-02 1.65675E-03-7.06158E-14
 -1      2023 1.10574E-02 1.62818E-03-7.05652E-14
 -1      2024 1.15158E-02 1.72544E-03-7.61503E-14
 -1      2025 1.13730E-02 1.70263E-03-7.42932E-14
 -1      2026 1.13430E-02 1.67408E-03-7.42406E-14
 -1      2027 1.18013E-02 1.77084E-03-7.99004E-14
 -1      2028 1.16585E-02 1.74817E-03-7.80184E-14
 -1      2029 1.16286E-02 1.71964E-03-7.79622E-14
 -1      2030 1.20867E-02 1.81600E-03-8.36903E-14
 -1      2031 1.19440E-02 1.79344E-03-8.17923E-14
 -1      2032 1.19142E-02 1.76493E-03-8.17295E-14
 -1      2033 1.23722E-02 1.86099E-03-8.75251E-14
 -1      2034 1.22295E-02 1.83851E-03-8.56028E-14
 -1      2035 1.21997E-02 1.81001E-03-8.55373E-14
 -1      2036 1.26578E-02 1.90584E-03-9.13924E-14
 -1      2037 1.25150E-02 1.88343E-03-8.94531E-14
 -1      2038 1.24852E-02 1.85493E-03-8.93853E-14
 -1      2039 1.29433E-02 1.95060E-03-9.52881E-14
 -1      2040 1.28005E-02 1.92823E-03-9.33369E-14
 -1      2041 1.27708E-02 1.89973E-03-9.32666E-14
 -1      2042 1.32289E-02 1.99528E-03-9.92116E-14
 -1      2043 1.30861E-02 1.97295E-03-9.72477E-14
 -1      2044 1.30564E-02 1.94445E-03-9.71761E-14
 -1      2045 1.35145E-02 2.03992E-03-1.03154E-13
 -1      2046 1.33717E-02 2.01761E-03-1.01181E-13
 -1      2047 1.33420E-02 1.98911E-03-1.01106E-13
 -1      2048 1.38001E-02 2.08454E-03-1.07100E-13
 -1      2049 1.36573E-02 2.06223E-03-1.05128E-13
 -1      2050 1.36276E-02 2.03374E-03-1.05053E-13
 -1      2051 1.40857E-02 2.12913E-03-1.11058E-13
 -1      2052 1.39429E-02 2.10684E-03-1.09078E-13
 -1      2053 1.39132E-02 2.07834E-03-1.09003E-13
 -1      2054 1.43714E-02 2.17372E-03-1.15037E-13
 -1      2055 1.42286E-02 2.15143E-03-1.13042E-13
 -1      2056 1.41989E-02 2.12293E-03-1.12969E-13
 -1      2057 1.46571E-02 2.21832E-03-1.19038E-13
 -1      2058 1.45143E-02 2.19602E-03-1.17036E-13
 -1      2059 1.44846E-02 2.16752E-03-1.16959E-13
 -1      2060 1.49428E-02 2.26292E-03-1.23052E-13
 -1      2061 1.47999E-02 2.24062E-03-1.21045E-13
 -1      2062 1.47703E-02 2.21212E-03-1.20972E-13
 -1      2063 1.51762E-02 2.29662E-03-1.26379E-13
 -1      2064 1.50333E-02 2.27431E-03-1.24366E-13
 -1      2065 1.50036E-02 2.24581E-03-1.24294E-13
 -1      2066 1.51847E-02 2.26858E-03-1.26922E-13
 -1      2067 1.50307E-02 2.02881E-03-1.27854E-13
 -1      2068 1.50526E-02 2.07097E-03-1.27608E-13
 -1      2069 1.50746E-02 2.11313E-03-1.27362E-13
 -1      2070 1.50966E-02 2.15528E-03-1.27115E-13
 -1      2071 1.49399E-02 2.07273E-03-1.25739E-13
 -1      2072 1.51296E-02 2.19086E-03-1.27141E-13
 -1      2073 1.51516E-02 2.23301E-03-1.26893E-13
 -1      2074 1.50611E-02 2.22162E-03-1.25579E-13
 -1      2075 1.49949E-02 2.15046E-03-1.25522E-13
 -1      2076 1.49875E-02 1.94592E-03-1.28330E-13
 -1      2077 1.50091E-02 1.98737E-03-1.28091E-13
 -1      2078 1.48964E-02 1.98913E-03-1.26223E-13
 -1      2079 1.49436E-02 1.86158E-03-1.28813E-13
 -1      2080 1.49656E-02 1.90375E-03-1.28573E-13
 -1      2081 1.48528E-02 1.90552E-03-1.26700E-13
 -1      2082 1.48997E-02 1.77724E-03-1.29291E-13
 -1      2083 1.49217E-02 1.81941E-03-1.29053E-13
 -1      2084 1.48089E-02 1.82119E-03-1.27178E-13
 -1      2085 1.48559E-02 1.69290E-03-1.29760E-13
 -1      2086 1.48778E-02 1.73507E-03-1.29527E-13
 -1      2087 1.47650E-02 1.73685E-03-1.27647E-13
 -1      2088 1.48120E-02 1.60855E-03-1.30216E-13
 -1      2089 1.48339E-02 1.65072E-03-1.29989E-13
 -1      2090 1.47212E-02 1.65251E-03-1.28110E-13
 -1      2091 1.47682E-02 1.52421E-03-1.30666E-13
 -1      2092 1.47901E-02 1.56638E-03-1.30442E-13
 -1      2093 1.46773E-02 1.56817E-03-1.28562E-13
 -1      2094 1.47252E-02 1.44130E-03-1.31104E-13
 -1      2095 1.47467E-02 1.48275E-03-1.30885E-13
 -1      2096 1.46339E-02 1.48454E-03-1.29006E-13
 -1      2097 1.46814E-02 1.35697E-03-1.31542E-13
 -1      2098 1.47033E-02 1.39914E-03-1.31324E-13
 -1      2099 1.45905E-02 1.40092E-03-1.29442E-13
 -1      2100 1.46376E-02 1.27265E-03-1.31969E-13
 -1      2101 1.46595E-02 1.31481E-03-1.31756E-13
 -1      2102 1.45467E-02 1.31660E-03-1.29869E-13
 -1      2103 1.45939E-02 1.18835E-03-1.32382E-13
 -1      2104 1.46158E-02 1.23050E-03-1.32178E-13
 -1      2105 1.45030E-02 1.23229E-03-1.30290E-13
 -1      2106 5.58772E-03 4.54768E-04-1.26124E-14
 -1      2107 5.71028E-03 4.08393E-04-1.29104E-14
 -1      2108 5.91509E-03 3.19983E-04-1.34605E-14
 -1      2109 5.90293E-03 3.04888E-04-1.35748E-14
 -1      2110 5.83264E-03 3.63323E-04-1.31619E-14
 -1      2111 5.89169E-03 3.41003E-04-1.33092E-14
 -1      2112 5.91341E-03 3.29480E-04-1.39018E-14
 -1      2113 5.27178E-03 5.99998E-04-1.18268E-14
 -1      2114 5.43121E-03 5.27429E-04-1.21738E-14
 -1      2115 4.89743E-03 7.85073E-04-1.10277E-14
 -1      2116 5.07790E-03 6.90574E-04-1.14333E-14
 -1      2117 3.32499E-04-4.40817E-05-2.07110E-16
 -1      2118 3.41573E-04-5.96888E-05-2.03030E-16
 -1      2119 4.68578E-04-9.66464E-05-2.96678E-16
 -1      2120 4.43084E-04-5.51732E-05-3.07520E-16
 -1      2121 4.13200E-03 1.18299E-03-8.95695E-15
 -1      2122 4.29744E-03 1.10737E-03-9.43906E-15
 -1      2123 3.80240E-03 1.26485E-03-7.96431E-15
 -1      2124 3.95988E-03 1.23676E-03-8.45298E-15
 -1      2125 4.04874E-03 1.21792E-03-8.76884E-15
 -1      2126 3.42041E-03 1.19983E-03-6.91707E-15
 -1      2127 3.58210E-03 1.24795E-03-7.33167E-15
 -1      2128 3.07606E-03 1.03555E-03-6.14604E-15
 -1      2129 3.24314E-03 1.12617E-03-6.49676E-15
 -1      2130 2.68202E-03 8.02709E-04-5.47225E-15
 -1      2131 2.86863E-03 9.16300E-04-5.76153E-15
 -1      2132 2.25693E-03 5.68350E-04-4.97057E-15
 -1      2133 2.45340E-03 6.76667E-04-5.19528E-15
 -1      2134 1.85512E-03 3.82585E-04-4.62254E-15
 -1      2135 2.03308E-03 4.60295E-04-4.76555E-15
 -1      2136 1.55855E-03 2.60299E-04-4.37361E-15
 -1      2137 1.68704E-03 3.05966E-04-4.45872E-15
 -1      2138 1.37999E-03 2.00022E-04-4.31470E-15
 -1      2139 1.44527E-03 2.22412E-04-4.33655E-15
 -1      2140 1.35452E-03 1.62268E-04-4.34887E-15
 -1      2141 1.34671E-03 1.77006E-04-4.31862E-15
 -1      2142 1.49462E-03 1.10148E-04-4.55162E-15
 -1      2143 1.41062E-03 1.36643E-04-4.42944E-15
 -1      2144 1.75128E-03 2.09487E-05-4.86156E-15
 -1      2145 1.60808E-03 6.96081E-05-4.70235E-15
 -1      2146 1.54602E-03 1.05728E-04-4.42132E-15
 -1      2147 2.14332E-03-1.51434E-04-5.42501E-15
 -1      2148 1.96572E-03-6.70781E-05-5.14999E-15
 -1      2149 2.52682E-03-3.42298E-04-6.04754E-15
 -1      2150 2.33195E-03-2.43973E-04-5.72921E-15
 -1      2151 2.25391E-03-1.82130E-04-5.41944E-15
 -1      2152 2.94237E-03-5.49584E-04-6.85064E-15
 -1      2153 2.75808E-03-4.53966E-04-6.44034E-15
 -1      2154 3.31755E-03-6.91720E-04-7.91432E-15
 -1      2155 3.16100E-03-6.42199E-04-7.44679E-15
 -1      2156 3.64833E-03-7.07590E-04-8.95134E-15
 -1      2157 3.50131E-03-7.15557E-04-8.47884E-15
 -1      2158 3.96896E-03-6.12354E-04-9.93988E-15
 -1      2159 3.80826E-03-6.73431E-04-9.43915E-15
 -1      2160 3.71553E-03-7.00996E-04-9.28272E-15
 -1      2161 4.38104E-03-4.07478E-04-1.10265E-14
 -1      2162 4.19625E-03-5.07956E-04-1.05679E-14
 -1      2163 4.78252E-03-1.77123E-04-1.19931E-14
 -1      2164 4.58582E-03-2.92056E-04-1.15383E-14
 -1      2165 5.24141E-03 3.89243E-05-1.26913E-14
 -1      2166 5.04194E-03-5.06709E-05-1.24133E-14
 -1      2167 5.59252E-03 1.81128E-04-1.31572E-14
 -1      2168 5.43572E-03 1.20822E-04-1.29566E-14
 -1      2169 5.83204E-03 2.71587E-04-1.35033E-14
 -1      2170 5.73270E-03 2.36991E-04-1.33694E-14
 -1      2171 4.49994E-03 1.00842E-03-9.96937E-15
 -1      2172 4.67759E-03 9.07749E-04-1.04434E-14
 -1      2173 4.77344E-03 8.38112E-04-1.09360E-14
 -1      2174 6.76380E-04-2.68259E-04-3.37241E-16
 -1      2175 4.37801E-03 1.06223E-03-9.81029E-15
 -1      2176 7.33178E-04-2.56595E-04-4.41853E-16
 -1      2177 5.78248E-03 3.74229E-04-1.34885E-14
 -1      2178 5.50491E-03 4.72694E-04-1.27809E-14
 -1      2179 1.45346E-02 1.14807E-03-1.31941E-13
 -1      2180 5.87721E-03 3.00240E-04-1.39855E-14
 -1      2181 5.16320E-03 6.27858E-04-1.19342E-14
 -1      2182 5.65991E-03 2.31997E-04-1.36982E-14
 -1      2183 5.32932E-03 1.06885E-04-1.32119E-14
 -1      2184 4.89136E-03-9.72887E-05-1.25107E-14
 -1      2185 4.05672E-03-5.66180E-04-1.04039E-14
 -1      2186 3.41929E-03-7.16023E-04-8.22335E-15
 -1      2187 2.65181E-03-3.89186E-04-6.09823E-15
 -1      2188 1.85904E-03-2.80064E-06-4.84153E-15
 -1      2189 1.75994E-03 4.23604E-05-4.54533E-15
 -1      2190 1.95892E-03-3.52103E-05-4.81789E-15
 -1      2191 1.37366E-03 1.52323E-04-4.20002E-15
 -1      2192 1.35550E-03 1.78278E-04-4.12015E-15
 -1      2193 1.50018E-03 2.19610E-04-4.15063E-15
 -1      2194 1.77715E-03 3.14465E-04-4.34061E-15
 -1      2195 2.16045E-03 4.89477E-04-4.69527E-15
 -1      2196 2.59268E-03 7.23420E-04-5.15819E-15
 -1      2197 2.99578E-03 9.71515E-04-5.79796E-15
 -1      2198 3.62310E-03 1.26515E-03-7.29565E-15
 -1      2199 3.70531E-03 1.27256E-03-7.62668E-15
 -1      2200 3.80822E-03 1.27879E-03-7.92457E-15
 -1      2201 3.34489E-03 1.16758E-03-6.58737E-15
 -1      2202 3.05369E-03-6.00185E-04-7.06369E-15
 -1      2203 4.45535E-03-3.40215E-04-1.15614E-14
 -1      2204 1.15866E-03 3.42846E-04-5.86323E-16
 -1      2205 9.90509E-04 3.00278E-04-4.21917E-16
 -1      2206 4.90265E-04 2.29990E-06-4.38831E-16
 -1      2207 5.04973E-04-1.00190E-05-4.40701E-16
 -1      2208 5.20697E-04-2.51740E-05-4.41528E-16
 -1      2209 5.36691E-04-4.29641E-05-4.40918E-16
 -1      2210 6.20821E-04-2.51526E-05-5.96799E-16
 -1      2211 4.51463E-04 2.71631E-05-4.21782E-16
 -1      2212 4.56792E-04 2.39448E-05-4.27582E-16
 -1      2213 4.52239E-04 3.12206E-05-4.07470E-16
 -1      2214 4.49811E-04 2.93196E-05-4.15168E-16
 -1      2215 5.39647E-04 3.50070E-05-5.66238E-16
 -1      2216 4.68912E-04 3.72398E-05-3.88985E-16
 -1      2217 4.58679E-04 3.35758E-05-3.99000E-16
 -1      2218 5.45344E-04 4.15899E-05-5.46451E-16
 -1      2219 5.00361E-04 5.14811E-05-3.63980E-16
 -1      2220 4.83081E-04 4.30182E-05-3.77384E-16
 -1      2221 5.71553E-04 5.23886E-05-5.20431E-16
 -1      2222 5.42897E-04 7.86094E-05-3.30709E-16
 -1      2223 5.20603E-04 6.32292E-05-3.48544E-16
 -1      2224 6.15498E-04 7.42537E-05-4.86075E-16
 -1      2225 5.93263E-04 1.21878E-04-2.86284E-16
 -1      2226 5.67380E-04 9.81011E-05-3.10312E-16
 -1      2227 6.71910E-04 1.11708E-04-4.40972E-16
 -1      2228 1.49721E-03 4.32369E-04-1.00787E-15
 -1      2229 1.32743E-03 3.86492E-04-7.81249E-16
 -1      2230 1.19616E-03 3.22478E-04-7.36295E-16
 -1      2231 1.00782E-03-3.11260E-04-8.27016E-16
 -1      2232 1.16917E-03-3.52923E-04-1.08193E-15
 -1      2233 4.31089E-03 1.10560E-03-9.73456E-15
 -1      2234 4.47515E-03 1.00846E-03-1.02763E-14
 -1      2235 1.33078E-03-3.94136E-04-1.37290E-15
 -1      2236 1.49267E-03-4.35544E-04-1.70083E-15
 -1      2237 1.22128E-03-3.31879E-04-1.24759E-15
 -1      2238 1.65508E-03-4.78113E-04-2.06538E-15
 -1      2239 1.81754E-03-5.22160E-04-2.46665E-15
 -1      2240 1.54459E-03-4.12141E-04-1.90443E-15
 -1      2241 1.98049E-03-5.68000E-04-2.90496E-15
 -1      2242 2.14304E-03-6.15398E-04-3.38039E-15
 -1      2243 1.87206E-03-4.98643E-04-2.70546E-15
 -1      2244 2.30547E-03-6.63878E-04-3.89313E-15
 -1      2245 2.46671E-03-7.12249E-04-4.44383E-15
 -1      2246 2.20245E-03-5.93451E-04-3.65266E-15
 -1      2247 2.62672E-03-7.59189E-04-5.03251E-15
 -1      2248 2.78478E-03-8.02403E-04-5.66000E-15
 -1      2249 2.53220E-03-6.92601E-04-4.74788E-15
 -1      2250 2.94054E-03-8.39943E-04-6.32595E-15
 -1      2251 3.09434E-03-8.68968E-04-7.03016E-15
 -1      2252 2.85610E-03-7.83647E-04-5.99575E-15
 -1      2253 3.24566E-03-8.87639E-04-7.77289E-15
 -1      2254 3.39618E-03-8.93802E-04-8.55404E-15
 -1      2255 3.17046E-03-8.46607E-04-7.39654E-15
 -1      2256 3.54540E-03-8.86628E-04-9.37317E-15
 -1      2257 3.69570E-03-8.66034E-04-1.02291E-14
 -1      2258 3.47690E-03-8.61289E-04-8.95204E-15
 -1      2259 3.84657E-03-8.32792E-04-1.11219E-14
 -1      2260 3.99985E-03-7.88873E-04-1.20507E-14
 -1      2261 3.78268E-03-8.18293E-04-1.06590E-14
 -1      2262 4.15501E-03-7.36257E-04-1.30126E-14
 -1      2263 4.31255E-03-6.77886E-04-1.40084E-14
 -1      2264 4.09544E-03-7.25713E-04-1.25102E-14
 -1      2265 4.47204E-03-6.15998E-04-1.50358E-14
 -1      2266 4.63284E-03-5.53152E-04-1.60954E-14
 -1      2267 4.41769E-03-6.04101E-04-1.44980E-14
 -1      2268 4.79477E-03-4.91114E-04-1.71851E-14
 -1      2269 4.95671E-03-4.31363E-04-1.83030E-14
 -1      2270 4.74604E-03-4.75563E-04-1.66115E-14
 -1      2271 5.11881E-03-3.74926E-04-1.94506E-14
 -1      2272 5.28001E-03-3.22316E-04-2.06269E-14
 -1      2273 5.07487E-03-3.55635E-04-1.88448E-14
 -1      2274 5.44063E-03-2.73912E-04-2.18297E-14
 -1      2275 5.59992E-03-2.29611E-04-2.30594E-14
 -1      2276 5.39974E-03-2.51644E-04-2.11897E-14
 -1      2277 5.75827E-03-1.89348E-04-2.43159E-14
 -1      2278 5.91521E-03-1.52761E-04-2.55994E-14
 -1      2279 5.71855E-03-1.64940E-04-2.36436E-14
 -1      2280 6.07109E-03-1.19541E-04-2.69072E-14
 -1      2281 6.22568E-03-8.92705E-05-2.82403E-14
 -1      2282 6.03100E-03-9.36479E-05-2.62018E-14
 -1      2283 6.37923E-03-6.15521E-05-2.95989E-14
 -1      2284 6.53167E-03-3.60066E-05-3.09809E-14
 -1      2285 6.33779E-03-3.46534E-05-2.88615E-14
 -1      2286 6.68316E-03-1.22469E-05-3.23867E-14
 -1      2287 6.83372E-03 1.00347E-05-3.38171E-14
 -1      2288 6.63988E-03 1.52959E-05-3.16201E-14
 -1      2289 6.98345E-03 3.11675E-05-3.52726E-14
 -1      2290 7.13243E-03 5.13852E-05-3.67495E-14
 -1      2291 6.93825E-03 5.90759E-05-3.44736E-14
 -1      2292 7.28069E-03 7.09426E-05-3.82504E-14
 -1      2293 7.42834E-03 9.00090E-05-3.97730E-14
 -1      2294 7.23370E-03 9.90027E-05-3.74226E-14
 -1      2295 7.57538E-03 1.08767E-04-4.13177E-14
 -1      2296 7.72193E-03 1.27334E-04-4.28848E-14
 -1      2297 7.52686E-03 1.36820E-04-4.04617E-14
 -1      2298 7.86799E-03 1.45830E-04-4.44726E-14
 -1      2299 8.01365E-03 1.64334E-04-4.60808E-14
 -1      2300 7.81824E-03 1.73768E-04-4.35872E-14
 -1      2301 8.15892E-03 1.82919E-04-4.77077E-14
 -1      2302 8.30387E-03 2.01633E-04-4.93537E-14
 -1      2303 8.10822E-03 2.10674E-04-4.67966E-14
 -1      2304 8.44850E-03 2.20514E-04-5.10167E-14
 -1      2305 8.59288E-03 2.39589E-04-5.26971E-14
 -1      2306 8.39711E-03 2.48050E-04-5.00817E-14
 -1      2307 8.73702E-03 2.58872E-04-5.43955E-14
 -1      2308 8.88097E-03 2.78377E-04-5.61114E-14
 -1      2309 8.68515E-03 2.86180E-04-5.34376E-14
 -1      2310 9.02473E-03 2.98100E-04-5.78425E-14
 -1      2311 9.16835E-03 3.18046E-04-5.95875E-14
 -1      2312 8.97255E-03 3.25186E-04-5.68617E-14
 -1      2313 9.31182E-03 3.38203E-04-6.13476E-14
 -1      2314 9.45518E-03 3.58569E-04-6.31226E-14
 -1      2315 9.25944E-03 3.65084E-04-6.03474E-14
 -1      2316 9.59844E-03 3.79127E-04-6.49102E-14
 -1      2317 9.74163E-03 3.99871E-04-6.67110E-14
 -1      2318 9.54596E-03 4.05825E-04-6.38883E-14
 -1      2319 9.88473E-03 4.20784E-04-6.85229E-14
 -1      2320 1.00278E-02 4.41858E-04-7.03434E-14
 -1      2321 9.83221E-03 4.47326E-04-6.74819E-14
 -1      2322 1.01708E-02 4.63074E-04-7.21744E-14
 -1      2323 1.03137E-02 4.84426E-04-7.40176E-14
 -1      2324 1.01183E-02 4.89485E-04-7.11214E-14
 -1      2325 1.04567E-02 5.05895E-04-7.58696E-14
 -1      2326 1.05996E-02 5.27475E-04-7.77307E-14
 -1      2327 1.04042E-02 5.32198E-04-7.48006E-14
 -1      2328 1.07424E-02 5.49151E-04-7.96024E-14
 -1      2329 1.08853E-02 5.70915E-04-8.14823E-14
 -1      2330 1.06900E-02 5.75367E-04-7.85200E-14
 -1      2331 1.10281E-02 5.92754E-04-8.33729E-14
 -1      2332 1.11710E-02 6.14664E-04-8.52724E-14
 -1      2333 1.09757E-02 6.18903E-04-8.22772E-14
 -1      2334 1.13138E-02 6.36631E-04-8.71794E-14
 -1      2335 1.14566E-02 6.58653E-04-8.90944E-14
 -1      2336 1.12614E-02 6.62727E-04-8.60725E-14
 -1      2337 1.15994E-02 6.80719E-04-9.10171E-14
 -1      2338 1.17422E-02 7.02826E-04-9.29467E-14
 -1      2339 1.15471E-02 7.06774E-04-8.98996E-14
 -1      2340 1.18850E-02 7.24966E-04-9.48860E-14
 -1      2341 1.20279E-02 7.47135E-04-9.68334E-14
 -1      2342 1.18328E-02 7.50991E-04-9.37559E-14
 -1      2343 1.21707E-02 7.69330E-04-9.87869E-14
 -1      2344 1.23135E-02 7.91545E-04-1.00749E-13
 -1      2345 1.21184E-02 7.95334E-04-9.76478E-14
 -1      2346 1.24563E-02 8.13778E-04-1.02719E-13
 -1      2347 1.25991E-02 8.36025E-04-1.04695E-13
 -1      2348 1.24041E-02 8.39767E-04-1.01571E-13
 -1      2349 1.27420E-02 8.58285E-04-1.06677E-13
 -1      2350 1.28848E-02 8.80554E-04-1.08666E-13
 -1      2351 1.26898E-02 8.84264E-04-1.05520E-13
 -1      2352 1.30276E-02 9.02830E-04-1.10660E-13
 -1      2353 1.31704E-02 9.25112E-04-1.12661E-13
 -1      2354 1.29754E-02 9.28803E-04-1.09493E-13
 -1      2355 1.33133E-02 9.47398E-04-1.14669E-13
 -1      2356 1.34561E-02 9.69687E-04-1.16681E-13
 -1      2357 1.32611E-02 9.73368E-04-1.13493E-13
 -1      2358 1.35990E-02 9.91977E-04-1.18697E-13
 -1      2359 1.37418E-02 1.01427E-03-1.20723E-13
 -1      2360 1.35468E-02 1.01795E-03-1.17516E-13
 -1      2361 1.38847E-02 1.03656E-03-1.22756E-13
 -1      2362 1.40275E-02 1.05884E-03-1.24795E-13
 -1      2363 1.38325E-02 1.06253E-03-1.21564E-13
 -1      2364 2.19454E-03 6.71767E-04-2.23752E-15
 -1      2365 2.01743E-03 6.00949E-04-1.88052E-15
 -1      2366 2.55504E-03 8.38291E-04-3.05401E-15
 -1      2367 2.37459E-03 7.50922E-04-2.62835E-15
 -1      2368 2.22542E-03 6.55905E-04-2.51801E-15
 -1      2369 2.91734E-03 1.02940E-03-4.01265E-15
 -1      2370 2.73705E-03 9.32128E-04-3.51520E-15
 -1      2371 2.59322E-03 8.29444E-04-3.37702E-15
 -1      2372 3.27084E-03 1.21451E-03-5.12066E-15
 -1      2373 3.09591E-03 1.12592E-03-4.54785E-15
 -1      2374 2.96591E-03 1.02899E-03-4.37879E-15
 -1      2375 3.60830E-03 1.34318E-03-6.38680E-15
 -1      2376 3.44069E-03 1.28953E-03-5.73383E-15
 -1      2377 3.32884E-03 1.21666E-03-5.53225E-15
 -1      2378 3.93688E-03 1.37247E-03-7.80909E-15
 -1      2379 3.77154E-03 1.37175E-03-7.07771E-15
 -1      2380 3.67453E-03 1.33204E-03-6.84442E-15
 -1      2381 4.27293E-03 1.30075E-03-9.38803E-15
 -1      2382 4.10202E-03 1.34668E-03-8.57968E-15
 -1      2383 4.01432E-03 1.33088E-03-8.31622E-15
 -1      2384 4.62595E-03 1.17150E-03-1.11153E-14
 -1      2385 4.44754E-03 1.23953E-03-1.02331E-14
 -1      2386 4.36735E-03 1.22814E-03-9.94330E-15
 -1      2387 4.98875E-03 1.03778E-03-1.29842E-14
 -1      2388 4.80750E-03 1.10279E-03-1.20327E-14
 -1      2389 4.73711E-03 1.08376E-03-1.17181E-14
 -1      2390 5.34969E-03 9.32056E-04-1.49858E-14
 -1      2391 5.17037E-03 9.80180E-04-1.39689E-14
 -1      2392 5.10904E-03 9.52184E-04-1.36317E-14
 -1      2393 5.70215E-03 8.66605E-04-1.71102E-14
 -1      2394 5.52758E-03 8.94386E-04-1.60329E-14
 -1      2395 5.47048E-03 8.58607E-04-1.56739E-14
 -1      2396 6.04386E-03 8.38630E-04-1.93505E-14
 -1      2397 5.87456E-03 8.48408E-04-1.82167E-14
 -1      2398 5.81699E-03 8.07443E-04-1.78348E-14
 -1      2399 6.37541E-03 8.40345E-04-2.17022E-14
 -1      2400 6.21092E-03 8.36315E-04-2.05128E-14
 -1      2401 6.14946E-03 7.91676E-04-2.01092E-14
 -1      2402 6.69821E-03 8.63339E-04-2.41653E-14
 -1      2403 6.53783E-03 8.49645E-04-2.29193E-14
 -1      2404 6.47094E-03 8.02372E-04-2.24931E-14
 -1      2405 7.01370E-03 9.00486E-04-2.67356E-14
 -1      2406 6.85678E-03 8.80499E-04-2.54376E-14
 -1      2407 6.78427E-03 8.31404E-04-2.49872E-14
 -1      2408 7.32310E-03 9.46399E-04-2.94103E-14
 -1      2409 7.16907E-03 9.22603E-04-2.80608E-14
 -1      2410 7.09156E-03 8.72355E-04-2.75884E-14
 -1      2411 7.62744E-03 9.97278E-04-3.21846E-14
 -1      2412 7.47581E-03 9.71395E-04-3.07860E-14
 -1      2413 7.39423E-03 9.20523E-04-3.02925E-14
 -1      2414 7.92762E-03 1.05058E-03-3.50540E-14
 -1      2415 7.77797E-03 1.02375E-03-3.36067E-14
 -1      2416 7.69324E-03 9.72640E-04-3.30937E-14
 -1      2417 8.22439E-03 1.10469E-03-3.80173E-14
 -1      2418 8.07636E-03 1.07761E-03-3.65226E-14
 -1      2419 7.98932E-03 1.02654E-03-3.59870E-14
 -1      2420 8.51842E-03 1.15861E-03-4.10702E-14
 -1      2421 8.37169E-03 1.13172E-03-3.95328E-14
 -1      2422 8.28302E-03 1.08084E-03-3.89727E-14
 -1      2423 8.81028E-03 1.21179E-03-4.42111E-14
 -1      2424 8.66458E-03 1.18532E-03-4.26314E-14
 -1      2425 8.57480E-03 1.13473E-03-4.20508E-14
 -1      2426 9.10045E-03 1.26397E-03-4.74278E-14
 -1      2427 8.95554E-03 1.23802E-03-4.58111E-14
 -1      2428 8.86505E-03 1.18776E-03-4.52113E-14
 -1      2429 9.38932E-03 1.31506E-03-5.07182E-14
 -1      2430 9.24502E-03 1.28966E-03-4.90640E-14
 -1      2431 9.15408E-03 1.23971E-03-4.84482E-14
 -1      2432 9.67720E-03 1.36507E-03-5.40739E-14
 -1      2433 9.53336E-03 1.34020E-03-5.23880E-14
 -1      2434 9.44218E-03 1.29056E-03-5.17545E-14
 -1      2435 9.96436E-03 1.41409E-03-5.74877E-14
 -1      2436 9.82086E-03 1.38970E-03-5.57738E-14
 -1      2437 9.72955E-03 1.34033E-03-5.51288E-14
 -1      2438 1.02510E-02 1.46223E-03-6.09563E-14
 -1      2439 1.01077E-02 1.43827E-03-5.92152E-14
 -1      2440 1.00164E-02 1.38913E-03-5.85595E-14
 -1      2441 1.05372E-02 1.50962E-03-6.44802E-14
 -1      2442 1.03941E-02 1.48601E-03-6.27104E-14
 -1      2443 1.03028E-02 1.43707E-03-6.20424E-14
 -1      2444 1.08232E-02 1.55637E-03-6.80608E-14
 -1      2445 1.06802E-02 1.53307E-03-6.62643E-14
 -1      2446 1.05890E-02 1.48429E-03-6.55835E-14
 -1      2447 1.11090E-02 1.60260E-03-7.16979E-14
 -1      2448 1.09661E-02 1.57955E-03-6.98720E-14
 -1      2449 1.08749E-02 1.53090E-03-6.91805E-14
 -1      2450 1.13947E-02 1.64842E-03-7.53852E-14
 -1      2451 1.12519E-02 1.62556E-03-7.35348E-14
 -1      2452 1.11608E-02 1.57701E-03-7.28309E-14
 -1      2453 1.16804E-02 1.69390E-03-7.91167E-14
 -1      2454 1.15376E-02 1.67120E-03-7.72452E-14
 -1      2455 1.14465E-02 1.62273E-03-7.65288E-14
 -1      2456 1.19660E-02 1.73913E-03-8.28924E-14
 -1      2457 1.18232E-02 1.71654E-03-8.10010E-14
 -1      2458 1.17322E-02 1.66814E-03-8.02725E-14
 -1      2459 1.22516E-02 1.78416E-03-8.67096E-14
 -1      2460 1.21088E-02 1.76166E-03-8.47957E-14
 -1      2461 1.20178E-02 1.71331E-03-8.40567E-14
 -1      2462 1.25372E-02 1.82904E-03-9.05660E-14
 -1      2463 1.23944E-02 1.80662E-03-8.86323E-14
 -1      2464 1.23035E-02 1.75829E-03-8.78811E-14
 -1      2465 1.28228E-02 1.87382E-03-9.44534E-14
 -1      2466 1.26800E-02 1.85144E-03-9.25062E-14
 -1      2467 1.25891E-02 1.80314E-03-9.17456E-14
 -1      2468 1.31084E-02 1.91852E-03-9.83688E-14
 -1      2469 1.29656E-02 1.89618E-03-9.64093E-14
 -1      2470 1.28747E-02 1.84790E-03-9.56423E-14
 -1      2471 1.33940E-02 1.96317E-03-1.02303E-13
 -1      2472 1.32512E-02 1.94085E-03-1.00333E-13
 -1      2473 1.31604E-02 1.89258E-03-9.95613E-14
 -1      2474 1.36796E-02 2.00778E-03-1.06248E-13
 -1      2475 1.35368E-02 1.98548E-03-1.04276E-13
 -1      2476 1.34460E-02 1.93722E-03-1.03497E-13
 -1      2477 1.39653E-02 2.05238E-03-1.10207E-13
 -1      2478 1.38225E-02 2.03008E-03-1.08227E-13
 -1      2479 1.37317E-02 1.98182E-03-1.07448E-13
 -1      2480 1.42510E-02 2.09697E-03-1.14180E-13
 -1      2481 1.41081E-02 2.07467E-03-1.12191E-13
 -1      2482 1.40174E-02 2.02641E-03-1.11411E-13
 -1      2483 1.45367E-02 2.14156E-03-1.18178E-13
 -1      2484 1.43938E-02 2.11926E-03-1.16174E-13
 -1      2485 1.43031E-02 2.07100E-03-1.15392E-13
 -1      2486 1.48224E-02 2.18615E-03-1.22192E-13
 -1      2487 1.46795E-02 2.16385E-03-1.20184E-13
 -1      2488 1.45887E-02 2.11559E-03-1.19395E-13
 -1      2489 1.49706E-02 2.21023E-03-1.24264E-13
 -1      2490 1.47181E-02 1.86513E-03-1.25070E-13
 -1      2491 1.47401E-02 1.90729E-03-1.24832E-13
 -1      2492 1.46742E-02 1.78079E-03-1.25541E-13
 -1      2493 1.46962E-02 1.82296E-03-1.25306E-13
 -1      2494 1.45834E-02 1.82474E-03-1.23439E-13
 -1      2495 1.48052E-02 2.03234E-03-1.24117E-13
 -1      2496 1.48272E-02 2.07449E-03-1.23873E-13
 -1      2497 1.47618E-02 1.94909E-03-1.24594E-13
 -1      2498 1.47834E-02 1.99054E-03-1.24356E-13
 -1      2499 1.46707E-02 1.99231E-03-1.22491E-13
 -1      2500 1.46271E-02 1.90870E-03-1.22967E-13
 -1      2501 1.46303E-02 1.69646E-03-1.26004E-13
 -1      2502 1.46523E-02 1.73863E-03-1.25773E-13
 -1      2503 1.45395E-02 1.74040E-03-1.23904E-13
 -1      2504 1.45865E-02 1.61212E-03-1.26463E-13
 -1      2505 1.46084E-02 1.65429E-03-1.26236E-13
 -1      2506 1.44956E-02 1.65607E-03-1.24365E-13
 -1      2507 1.45427E-02 1.52778E-03-1.26911E-13
 -1      2508 1.45646E-02 1.56995E-03-1.26686E-13
 -1      2509 1.44518E-02 1.57173E-03-1.24816E-13
 -1      2510 1.44996E-02 1.44487E-03-1.27344E-13
 -1      2511 1.45211E-02 1.48633E-03-1.27128E-13
 -1      2512 1.44084E-02 1.48811E-03-1.25253E-13
 -1      2513 1.44558E-02 1.36054E-03-1.27776E-13
 -1      2514 1.44777E-02 1.40271E-03-1.27561E-13
 -1      2515 1.43649E-02 1.40449E-03-1.25685E-13
 -1      2516 1.44121E-02 1.27622E-03-1.28200E-13
 -1      2517 1.44340E-02 1.31838E-03-1.27990E-13
 -1      2518 1.43212E-02 1.32016E-03-1.26113E-13
 -1      2519 1.43683E-02 1.19191E-03-1.28614E-13
 -1      2520 1.43902E-02 1.23407E-03-1.28407E-13
 -1      2521 1.42774E-02 1.23585E-03-1.26532E-13
 -1      2522 5.41500E-03 5.02979E-04-1.29660E-14
 -1      2523 5.56441E-03 4.45465E-04-1.34194E-14
 -1      2524 1.44075E-02 1.12979E-03-1.30089E-13
 -1      2525 5.91443E-03 3.16662E-04-1.46305E-14
 -1      2526 5.84442E-03 3.01963E-04-1.45595E-14
 -1      2527 1.84173E-03 5.38242E-04-1.55695E-15
 -1      2528 1.66876E-03 4.82500E-04-1.26613E-15
 -1      2529 1.87050E-03 5.18324E-04-1.79484E-15
 -1      2530 5.91103E-03 3.36975E-04-1.44095E-14
 -1      2531 5.93336E-03 3.31049E-04-1.45674E-14
 -1      2532 5.71860E-03 2.67161E-04-1.43840E-14
 -1      2533 5.58393E-03 2.27486E-04-1.41651E-14
 -1      2534 6.41530E-04-1.96199E-04-3.99678E-16
 -1      2535 8.56722E-04-2.64472E-04-6.32171E-16
 -1      2536 9.12047E-04-2.48672E-04-7.59240E-16
 -1      2537 6.21819E-04-1.62604E-04-4.16429E-16
 -1      2538 5.08747E-03 6.58804E-04-1.21372E-14
 -1      2539 5.25610E-03 5.74500E-04-1.25474E-14
 -1      2540 5.34742E-03 5.42606E-04-1.31735E-14
 -1      2541 3.48403E-03-7.31240E-04-8.49462E-15
 -1      2542 3.33824E-03-7.08918E-04-7.93145E-15
 -1      2543 1.39234E-03 1.47500E-04-4.00531E-15
 -1      2544 1.34112E-03 1.56319E-04-3.93231E-15
 -1      2545 4.65516E-04 1.90403E-05-4.32258E-16
 -1      2546 4.76789E-04 1.19535E-05-4.35998E-16
 -1      2547 5.83130E-04 6.09201E-06-5.91432E-16
 -1      2548 5.53831E-04 2.51469E-05-5.81281E-16
 -1      2549 3.28844E-03 1.13522E-03-6.27311E-15
 -1      2550 3.43283E-03 1.20808E-03-6.68175E-15
 -1      2551 3.99258E-03 1.24884E-03-8.58227E-15
 -1      2552 4.12753E-03 1.19503E-03-9.09158E-15
 -1      2553 3.16266E-03-6.54630E-04-7.31929E-15
 -1      2554 2.97867E-03-5.67910E-04-6.73121E-15
 -1      2555 2.92637E-03 9.13010E-04-5.45135E-15
 -1      2556 3.10288E-03 1.02861E-03-5.81853E-15
 -1      2557 2.49336E-03 6.41605E-04-4.79362E-15
 -1      2558 2.69082E-03 7.63328E-04-5.05005E-15
 -1      2559 2.06195E-03 4.15408E-04-4.37637E-15
 -1      2560 2.26403E-03 5.16234E-04-4.56436E-15
 -1      2561 1.71576E-03 2.68329E-04-4.02728E-15
 -1      2562 1.87587E-03 3.29883E-04-4.17877E-15
 -1      2563 1.43841E-03 1.87973E-04-3.87621E-15
 -1      2564 1.54167E-03 2.11177E-04-3.90710E-15
 -1      2565 1.33426E-03 1.65763E-04-3.88981E-15
 -1      2566 1.36700E-03 1.71938E-04-3.88636E-15
 -1      2567 1.59589E-03 9.71236E-05-4.26031E-15
 -1      2568 1.49056E-03 1.23581E-04-4.12126E-15
 -1      2569 2.34678E-03-2.19453E-04-5.39008E-15
 -1      2570 2.17750E-03-1.33670E-04-5.10109E-15
 -1      2571 4.51836E-03-2.83919E-04-1.21957E-14
 -1      2572 4.34366E-03-3.93170E-04-1.16679E-14
 -1      2573 2.74066E-03-4.38565E-04-6.12313E-15
 -1      2574 2.55090E-03-3.28300E-04-5.74872E-15
 -1      2575 2.44839E-03-2.79849E-04-5.41142E-15
 -1      2576 3.77961E-03-6.85860E-04-9.64552E-15
 -1      2577 3.65385E-03-7.19826E-04-9.15134E-15
 -1      2578 4.14607E-03-5.08838E-04-1.10008E-14
 -1      2579 3.96214E-03-6.11071E-04-1.03574E-14
 -1      2580 4.23954E-03-4.56915E-04-1.16124E-14
 -1      2581 5.01043E-03-1.23548E-05-1.32120E-14
 -1      2582 4.78170E-03-1.33753E-04-1.27738E-14
 -1      2583 5.42934E-03 1.70564E-04-1.38841E-14
 -1      2584 5.25254E-03 9.91119E-05-1.36070E-14
 -1      2585 5.52025E-03 2.11486E-04-1.45670E-14
 -1      2586 5.73021E-03 3.87450E-04-1.38766E-14
 -1      2587 5.84173E-03 3.57338E-04-1.41414E-14
 -1      2588 5.89042E-03 3.52334E-04-1.48049E-14
 -1      2589 8.61002E-04 2.71008E-04-3.05176E-16
 -1      2590 6.92726E-04 2.24971E-04-1.95007E-16
 -1      2591 6.53385E-04 1.94950E-04-2.08140E-16
 -1      2592 9.06540E-04 2.53953E-04-4.15371E-16
 -1      2593 4.66193E-03 8.98969E-04-1.08608E-14
 -1      2594 4.85695E-03 7.83860E-04-1.14595E-14
 -1      2595 4.58568E-03 9.56277E-04-1.07776E-14
 -1      2596 3.48172E-03 1.23157E-03-6.62691E-15
 -1      2597 3.54961E-03 1.25247E-03-6.95849E-15
 -1      2598 3.65014E-03 1.28082E-03-7.23846E-15
 -1      2599 6.61140E-04-6.86934E-05-5.95620E-16
 -1      2600 5.52936E-04-6.34085E-05-4.38614E-16
 -1      2601 5.69153E-04-8.63204E-05-4.34372E-16
 -1      2602 1.52859E-03 4.10976E-04-1.20215E-15
 -1      2603 6.22999E-04 1.59803E-04-2.41913E-16
 -1      2604 4.97991E-03 7.26988E-04-1.20544E-14
 -1      2605 2.86703E-03-5.16358E-04-6.35496E-15
 -1      2606 2.75498E-03-4.65737E-04-5.99000E-15
 -1      2607 2.96486E-03-5.83159E-04-6.58764E-15
 -1      2608 5.79804E-03 2.93788E-04-1.50315E-14
 -1      2609 4.66271E-03-2.00423E-04-1.28803E-14
 -1      2610 1.48798E-02 2.16196E-03-1.23477E-13
 -1      2611 1.48467E-02 2.12638E-03-1.23447E-13
 -1      2612 3.55891E-03-7.33225E-04-8.83663E-15
 -1      2613 5.66367E-03 4.18170E-04-1.40645E-14
 -1      2614 3.24000E-03-6.89383E-04-7.56933E-15
 -1      2615 1.42508E-02 1.09136E-03-1.28021E-13
 -1      2616 1.43244E-02 1.15171E-03-1.28428E-13
 -1      2617 1.42116E-02 1.15348E-03-1.26552E-13
 -1      2618 1.41236E-02 1.07307E-03-1.26179E-13
 -1      2619 1.67401E-03 6.93226E-05-4.23363E-15
 -1      2620 5.94292E-03 3.29053E-04-1.51443E-14
 -1      2621 7.40435E-04 1.77256E-04-3.61568E-16
 -1      2622 1.32107E-03 1.55236E-04-3.69878E-15
 -1      2623 1.38619E-03 1.69591E-04-3.64788E-15
 -1      2624 1.42057E-03 1.34689E-04-3.84918E-15
 -1      2625 1.61514E-03 2.27698E-04-3.75080E-15
 -1      2626 1.96756E-03 3.61777E-04-4.05370E-15
 -1      2627 2.36695E-03 5.64967E-04-4.46266E-15
 -1      2628 2.80427E-03 8.33738E-04-5.06596E-15
 -1      2629 2.05234E-03-7.54552E-05-4.78876E-15
 -1      2630 1.93294E-03-3.03261E-05-4.48790E-15
 -1      2631 2.12845E-03-1.20597E-04-4.75528E-15
 -1      2632 6.03696E-04-1.32446E-04-4.28599E-16
 -1      2633 4.24076E-03 1.15406E-03-9.53400E-15
 -1      2634 3.90207E-03 1.27675E-03-8.22815E-15
 -1      2635 3.98984E-03 1.26519E-03-8.53427E-15
 -1      2636 3.82283E-03 1.29167E-03-7.88063E-15
 -1      2637 3.19919E-03 1.08577E-03-5.90278E-15
 -1      2638 3.88773E-03-6.46013E-04-1.02139E-14
 -1      2639 5.14278E-03 5.52769E-05-1.38768E-14
 -1      2640 1.47120E-02 2.08600E-03-1.21828E-13
 -1      2641 1.40715E-02 1.09905E-03-1.24981E-13
 -1      2642 6.40675E-04 5.40019E-05-7.05490E-16
 -1      2643 6.30879E-04 4.89364E-05-7.19531E-16
 -1      2644 6.27609E-04 4.45948E-05-7.32080E-16
 -1      2645 6.30905E-04 3.96224E-05-7.43207E-16
 -1      2646 7.15912E-04 5.56643E-05-9.18482E-16
 -1      2647 7.37757E-04 1.01093E-04-6.25300E-16
 -1      2648 7.06528E-04 8.36535E-05-6.49559E-16
 -1      2649 8.09260E-04 1.49604E-04-5.67038E-16
 -1      2650 7.72475E-04 1.23046E-04-5.98331E-16
 -1      2651 8.68117E-04 1.32764E-04-7.81669E-16
 -1      2652 1.23003E-03 3.02515E-04-8.95429E-16
 -1      2653 1.07041E-03 2.63378E-04-6.87086E-16
 -1      2654 1.30842E-03 1.47035E-04-3.48028E-15
 -1      2655 1.30335E-03 1.49170E-04-3.44184E-15
 -1      2656 4.53088E-03 1.01027E-03-1.06964E-14
 -1      2657 4.69300E-03 9.10541E-04-1.12952E-14
 -1      2658 5.59670E-03 2.36910E-04-1.52686E-14
 -1      2659 5.45590E-03 1.88812E-04-1.49786E-14
 -1      2660 1.55583E-03 3.88853E-04-1.40457E-15
 -1      2661 1.39161E-03 3.43763E-04-1.13435E-15
 -1      2662 1.25933E-03 2.82393E-04-1.06322E-15
 -1      2663 4.32496E-03-4.15786E-04-1.22606E-14
 -1      2664 4.15431E-03-5.17298E-04-1.15771E-14
 -1      2665 1.43431E-03-3.47359E-04-1.74627E-15
 -1      2666 1.59694E-03-3.86955E-04-2.11041E-15
 -1      2667 1.76164E-03-4.28709E-04-2.50990E-15
 -1      2668 1.92776E-03-4.73142E-04-2.94513E-15
 -1      2669 1.64919E-03-3.59885E-04-2.31899E-15
 -1      2670 2.09566E-03-5.20310E-04-3.41681E-15
 -1      2671 2.26407E-03-5.69928E-04-3.92426E-15
 -1      2672 1.98427E-03-4.46003E-04-3.18586E-15
 -1      2673 2.43309E-03-6.21360E-04-4.46945E-15
 -1      2674 2.60101E-03-6.72602E-04-5.05127E-15
 -1      2675 2.32743E-03-5.45924E-04-4.19609E-15
 -1      2676 2.76736E-03-7.22137E-04-5.67042E-15
 -1      2677 2.93122E-03-7.65974E-04-6.32887E-15
 -1      2678 2.67194E-03-6.53964E-04-5.35229E-15
 -1      2679 3.09172E-03-8.01893E-04-7.02606E-15
 -1      2680 3.25003E-03-8.25619E-04-7.76125E-15
 -1      2681 3.00819E-03-7.50630E-04-6.65986E-15
 -1      2682 3.40540E-03-8.35149E-04-8.53576E-15
 -1      2683 3.56071E-03-8.28314E-04-9.34830E-15
 -1      2684 3.33122E-03-8.05422E-04-8.12376E-15
 -1      2685 3.71547E-03-8.05110E-04-1.01993E-14
 -1      2686 3.87292E-03-7.67261E-04-1.10877E-14
 -1      2687 3.64698E-03-7.92353E-04-9.74358E-15
 -1      2688 4.03241E-03-7.16550E-04-1.20112E-14
 -1      2689 4.19519E-03-6.57426E-04-1.29705E-14
 -1      2690 3.96794E-03-7.09815E-04-1.15151E-14
 -1      2691 4.36054E-03-5.92321E-04-1.39628E-14
 -1      2692 4.52757E-03-5.25476E-04-1.49870E-14
 -1      2693 4.30171E-03-5.82282E-04-1.34298E-14
 -1      2694 4.69581E-03-4.58892E-04-1.60421E-14
 -1      2695 4.86357E-03-3.94925E-04-1.71279E-14
 -1      2696 4.64444E-03-4.42183E-04-1.54761E-14
 -1      2697 5.03085E-03-3.34689E-04-1.82420E-14
 -1      2698 5.19618E-03-2.78855E-04-1.93844E-14
 -1      2699 4.98674E-03-3.12493E-04-1.76430E-14
 -1      2700 5.35993E-03-2.27876E-04-2.05546E-14
 -1      2701 5.52125E-03-1.81416E-04-2.17517E-14
 -1      2702 5.32108E-03-2.02529E-04-1.99229E-14
 -1      2703 5.68066E-03-1.39515E-04-2.29754E-14
 -1      2704 5.83779E-03-1.01532E-04-2.42259E-14
 -1      2705 5.64450E-03-1.12831E-04-2.23117E-14
 -1      2706 5.99315E-03-6.72707E-05-2.55023E-14
 -1      2707 6.14666E-03-3.60948E-05-2.68030E-14
 -1      2708 5.95746E-03-4.01701E-05-2.48062E-14
 -1      2709 6.29872E-03-7.70530E-06-2.81294E-14
 -1      2710 6.44938E-03 1.84196E-05-2.94822E-14
 -1      2711 6.26195E-03 1.94693E-05-2.74032E-14
 -1      2712 6.59893E-03 4.26000E-05-3.08570E-14
 -1      2713 6.74747E-03 6.52262E-05-3.22557E-14
 -1      2714 6.56023E-03 6.97698E-05-3.00985E-14
 -1      2715 6.89519E-03 8.65916E-05-3.36794E-14
 -1      2716 7.04220E-03 1.06974E-04-3.51282E-14
 -1      2717 6.85421E-03 1.13758E-04-3.28906E-14
 -1      2718 7.18859E-03 1.26616E-04-3.65992E-14
 -1      2719 7.33450E-03 1.45709E-04-3.80922E-14
 -1      2720 7.14535E-03 1.53783E-04-3.57791E-14
 -1      2721 7.47995E-03 1.64438E-04-3.96095E-14
 -1      2722 7.62505E-03 1.82930E-04-4.11474E-14
 -1      2723 7.43463E-03 1.91592E-04-3.87600E-14
 -1      2724 7.76981E-03 2.01317E-04-4.27059E-14
 -1      2725 7.91433E-03 2.19679E-04-4.42868E-14
 -1      2726 7.72272E-03 2.28434E-04-4.18310E-14
 -1      2727 8.05859E-03 2.38102E-04-4.58894E-14
 -1      2728 8.20267E-03 2.56633E-04-4.75102E-14
 -1      2729 8.01004E-03 2.65153E-04-4.49852E-14
 -1      2730 8.34656E-03 2.75325E-04-4.91496E-14
 -1      2731 8.49031E-03 2.94201E-04-5.08078E-14
 -1      2732 8.29687E-03 3.02287E-04-4.82196E-14
 -1      2733 8.63392E-03 3.13286E-04-5.24817E-14
 -1      2734 8.77744E-03 3.32591E-04-5.41740E-14
 -1      2735 8.58336E-03 3.40143E-04-5.15306E-14
 -1      2736 8.92084E-03 3.52121E-04-5.58849E-14
 -1      2737 9.06416E-03 3.71878E-04-5.76105E-14
 -1      2738 8.86963E-03 3.78865E-04-5.49089E-14
 -1      2739 9.20741E-03 3.91857E-04-5.93502E-14
 -1      2740 9.35060E-03 4.12051E-04-6.11037E-14
 -1      2741 9.15575E-03 4.18487E-04-5.83546E-14
 -1      2742 9.49372E-03 4.32450E-04-6.28706E-14
 -1      2743 9.63681E-03 4.53045E-04-6.46517E-14
 -1      2744 9.44176E-03 4.58971E-04-6.18567E-14
 -1      2745 9.77985E-03 4.73820E-04-6.64457E-14
 -1      2746 9.92286E-03 4.94766E-04-6.82508E-14
 -1      2747 9.72769E-03 5.00241E-04-6.54124E-14
 -1      2748 1.00658E-02 5.15866E-04-7.00702E-14
 -1      2749 1.02088E-02 5.37111E-04-7.18977E-14
 -1      2750 1.00136E-02 5.42199E-04-6.90189E-14
 -1      2751 1.03517E-02 5.58485E-04-7.37340E-14
 -1      2752 1.04946E-02 5.79979E-04-7.55826E-14
 -1      2753 1.02994E-02 5.84742E-04-7.26721E-14
 -1      2754 1.06375E-02 6.01577E-04-7.74413E-14
 -1      2755 1.07804E-02 6.23272E-04-7.93084E-14
 -1      2756 1.05852E-02 6.27769E-04-7.63631E-14
 -1      2757 1.09233E-02 6.45050E-04-8.11853E-14
 -1      2758 1.10662E-02 6.66905E-04-8.30719E-14
 -1      2759 1.08709E-02 6.71189E-04-8.00948E-14
 -1      2760 1.12090E-02 6.88825E-04-8.49672E-14
 -1      2761 1.13519E-02 7.10805E-04-8.68708E-14
 -1      2762 1.11567E-02 7.14921E-04-8.38633E-14
 -1      2763 1.14948E-02 7.32835E-04-8.87830E-14
 -1      2764 1.16376E-02 7.54910E-04-9.07016E-14
 -1      2765 1.14424E-02 7.58897E-04-8.76674E-14
 -1      2766 1.17805E-02 7.77023E-04-9.26281E-14
 -1      2767 1.19233E-02 7.99170E-04-9.45647E-14
 -1      2768 1.17281E-02 8.03058E-04-9.15015E-14
 -1      2769 1.20661E-02 8.21344E-04-9.65089E-14
 -1      2770 1.22090E-02 8.43543E-04-9.84618E-14
 -1      2771 1.20139E-02 8.47359E-04-9.53698E-14
 -1      2772 1.23518E-02 8.65762E-04-1.00422E-13
 -1      2773 1.24947E-02 8.87998E-04-1.02389E-13
 -1      2774 1.22996E-02 8.91761E-04-9.92740E-14
 -1      2775 1.26375E-02 9.10248E-04-1.04363E-13
 -1      2776 1.27804E-02 9.32509E-04-1.06341E-13
 -1      2777 1.25853E-02 9.36236E-04-1.03206E-13
 -1      2778 1.29232E-02 9.54780E-04-1.08328E-13
 -1      2779 1.30661E-02 9.77058E-04-1.10320E-13
 -1      2780 1.28710E-02 9.80761E-04-1.07162E-13
 -1      2781 1.32089E-02 9.99341E-04-1.12320E-13
 -1      2782 1.33518E-02 1.02163E-03-1.14326E-13
 -1      2783 1.31567E-02 1.02532E-03-1.11147E-13
 -1      2784 1.34946E-02 1.04392E-03-1.16335E-13
 -1      2785 1.36375E-02 1.06621E-03-1.18350E-13
 -1      2786 1.34424E-02 1.06989E-03-1.15155E-13
 -1      2787 1.37803E-02 1.08850E-03-1.20373E-13
 -1      2788 1.39232E-02 1.11079E-03-1.22404E-13
 -1      2789 1.37282E-02 1.11448E-03-1.19185E-13
 -1      2790 2.63116E-03 8.17586E-04-3.70412E-15
 -1      2791 2.44097E-03 7.21754E-04-3.23689E-15
 -1      2792 1.75932E-03 3.23275E-05-4.15290E-15
 -1      2793 1.60235E-03 7.84680E-05-3.88242E-15
 -1      2794 2.25337E-03 6.36581E-04-2.80394E-15
 -1      2795 2.07219E-03 5.61234E-04-2.40511E-15
 -1      2796 2.27843E-03 6.14554E-04-3.09530E-15
 -1      2797 3.39274E-03 1.22203E-03-5.94757E-15
 -1      2798 3.20768E-03 1.13336E-03-5.32811E-15
 -1      2799 4.05334E-03 1.28909E-03-8.64509E-15
 -1      2800 3.87311E-03 1.31911E-03-7.87306E-15
 -1      2801 4.46897E-03 1.15169E-03-1.04865E-14
 -1      2802 4.28109E-03 1.22552E-03-9.63070E-15
 -1      2803 4.77824E-03 9.87163E-04-1.19360E-14
 -1      2804 4.58115E-03 1.06866E-03-1.10199E-14
 -1      2805 5.23565E-03 8.63790E-04-1.42866E-14
 -1      2806 5.04938E-03 9.20588E-04-1.32914E-14
 -1      2807 5.59389E-03 7.87120E-04-1.63668E-14
 -1      2808 5.41813E-03 8.20093E-04-1.53115E-14
 -1      2809 5.37020E-03 7.78745E-04-1.49469E-14
 -1      2810 5.93146E-03 7.52000E-04-1.85640E-14
 -1      2811 5.76526E-03 7.65217E-04-1.74518E-14
 -1      2812 5.71905E-03 7.21110E-04-1.70663E-14
 -1      2813 6.25320E-03 7.48663E-04-2.08712E-14
 -1      2814 6.09407E-03 7.47113E-04-1.97036E-14
 -1      2815 6.04446E-03 7.02078E-04-1.92973E-14
 -1      2816 6.56423E-03 7.67873E-04-2.32881E-14
 -1      2817 6.40980E-03 7.56003E-04-2.20660E-14
 -1      2818 6.35420E-03 7.10227E-04-2.16376E-14
 -1      2819 6.86833E-03 8.02289E-04-2.58138E-14
 -1      2820 6.71695E-03 7.83570E-04-2.45374E-14
 -1      2821 6.65463E-03 7.36878E-04-2.40866E-14
 -1      2822 7.16787E-03 8.46414E-04-2.84442E-14
 -1      2823 7.01853E-03 8.23407E-04-2.71163E-14
 -1      2824 6.94984E-03 7.75765E-04-2.66432E-14
 -1      2825 7.46428E-03 8.96300E-04-3.11761E-14
 -1      2826 7.31637E-03 8.70819E-04-2.97975E-14
 -1      2827 7.24218E-03 8.22360E-04-2.93028E-14
 -1      2828 7.75837E-03 9.49226E-04-3.40020E-14
 -1      2829 7.61154E-03 9.22504E-04-3.25779E-14
 -1      2830 7.53285E-03 8.73446E-04-3.20621E-14
 -1      2831 8.05066E-03 1.00338E-03-3.69225E-14
 -1      2832 7.90468E-03 9.76229E-04-3.54507E-14
 -1      2833 7.82247E-03 9.26798E-04-3.49145E-14
 -1      2834 8.34150E-03 1.05763E-03-3.99323E-14
 -1      2835 8.19622E-03 1.03054E-03-3.84156E-14
 -1      2836 8.11132E-03 9.80936E-04-3.78588E-14
 -1      2837 8.63117E-03 1.11130E-03-4.30316E-14
 -1      2838 8.48645E-03 1.08457E-03-4.14710E-14
 -1      2839 8.39957E-03 1.03492E-03-4.08926E-14
 -1      2840 8.91988E-03 1.16402E-03-4.62118E-14
 -1      2841 8.77562E-03 1.13779E-03-4.46117E-14
 -1      2842 8.68731E-03 1.08821E-03-4.40127E-14
 -1      2843 9.20783E-03 1.21566E-03-4.94677E-14
 -1      2844 9.06393E-03 1.18998E-03-4.78314E-14
 -1      2845 8.97461E-03 1.14053E-03-4.72158E-14
 -1      2846 9.49517E-03 1.26618E-03-5.27957E-14
 -1      2847 9.35156E-03 1.24106E-03-5.11234E-14
 -1      2848 9.26155E-03 1.19176E-03-5.04908E-14
 -1      2849 9.78204E-03 1.31567E-03-5.61834E-14
 -1      2850 9.63865E-03 1.29105E-03-5.44811E-14
 -1      2851 9.54819E-03 1.24191E-03-5.38344E-14
 -1      2852 1.00686E-02 1.36421E-03-5.96305E-14
 -1      2853 9.92533E-03 1.34005E-03-5.79009E-14
 -1      2854 9.83458E-03 1.29106E-03-5.72413E-14
 -1      2855 1.03548E-02 1.41193E-03-6.31332E-14
 -1      2856 1.02117E-02 1.38817E-03-6.13756E-14
 -1      2857 1.01208E-02 1.33931E-03-6.07063E-14
 -1      2858 1.06408E-02 1.45896E-03-6.66885E-14
 -1      2859 1.04978E-02 1.43553E-03-6.49022E-14
 -1      2860 1.04068E-02 1.38680E-03-6.42233E-14
 -1      2861 1.09268E-02 1.50542E-03-7.02988E-14
 -1      2862 1.07838E-02 1.48226E-03-6.84875E-14
 -1      2863 1.06928E-02 1.43363E-03-6.77935E-14
 -1      2864 1.12126E-02 1.55141E-03-7.39647E-14
 -1      2865 1.10697E-02 1.52847E-03-7.21272E-14
 -1      2866 1.09786E-02 1.47993E-03-7.14210E-14
 -1      2867 1.14983E-02 1.59703E-03-7.76738E-14
 -1      2868 1.13554E-02 1.57426E-03-7.58124E-14
 -1      2869 1.12644E-02 1.52579E-03-7.50974E-14
 -1      2870 1.17840E-02 1.64236E-03-8.14273E-14
 -1      2871 1.16412E-02 1.61973E-03-7.95459E-14
 -1      2872 1.15502E-02 1.57132E-03-7.88197E-14
 -1      2873 1.20697E-02 1.68747E-03-8.52207E-14
 -1      2874 1.19269E-02 1.66494E-03-8.33189E-14
 -1      2875 1.18359E-02 1.61657E-03-8.25816E-14
 -1      2876 1.23554E-02 1.73242E-03-8.90544E-14
 -1      2877 1.22125E-02 1.70996E-03-8.71317E-14
 -1      2878 1.21216E-02 1.66163E-03-8.63842E-14
 -1      2879 1.26410E-02 1.77723E-03-9.29253E-14
 -1      2880 1.24982E-02 1.75484E-03-9.09854E-14
 -1      2881 1.24073E-02 1.70653E-03-9.02262E-14
 -1      2882 1.29267E-02 1.82196E-03-9.68288E-14
 -1      2883 1.27839E-02 1.79961E-03-9.48747E-14
 -1      2884 1.26930E-02 1.75132E-03-9.41067E-14
 -1      2885 1.32124E-02 1.86663E-03-1.00751E-13
 -1      2886 1.30695E-02 1.84430E-03-9.87877E-14
 -1      2887 1.29787E-02 1.79602E-03-9.80131E-14
 -1      2888 1.34981E-02 1.91126E-03-1.04692E-13
 -1      2889 1.33552E-02 1.88895E-03-1.02721E-13
 -1      2890 1.32644E-02 1.84068E-03-1.01942E-13
 -1      2891 1.37837E-02 1.95586E-03-1.08647E-13
 -1      2892 1.36409E-02 1.93356E-03-1.06667E-13
 -1      2893 1.35501E-02 1.88529E-03-1.05887E-13
 -1      2894 1.40694E-02 2.00044E-03-1.12616E-13
 -1      2895 1.39266E-02 1.97815E-03-1.10630E-13
 -1      2896 1.38358E-02 1.92989E-03-1.09846E-13
 -1      2897 1.43551E-02 2.04503E-03-1.16604E-13
 -1      2898 1.42123E-02 2.02274E-03-1.14606E-13
 -1      2899 1.41215E-02 1.97447E-03-1.13823E-13
 -1      2900 1.46050E-02 2.07666E-03-1.20216E-13
 -1      2901 1.44622E-02 2.05436E-03-1.18212E-13
 -1      2902 1.43714E-02 2.00610E-03-1.17422E-13
 -1      2903 1.45854E-02 2.02477E-03-1.20640E-13
 -1      2904 1.43609E-02 1.61568E-03-1.22722E-13
 -1      2905 1.43829E-02 1.65785E-03-1.22494E-13
 -1      2906 1.40193E-02 1.12502E-03-1.23787E-13
 -1      2907 1.41155E-02 1.13925E-03-1.25168E-13
 -1      2908 1.39671E-02 1.15100E-03-1.22589E-13
 -1      2909 1.44487E-02 1.78435E-03-1.21807E-13
 -1      2910 1.44707E-02 1.82651E-03-1.21574E-13
 -1      2911 1.43171E-02 1.53134E-03-1.23167E-13
 -1      2912 1.43390E-02 1.57351E-03-1.22948E-13
 -1      2913 1.42263E-02 1.57529E-03-1.21083E-13
 -1      2914 1.44048E-02 1.70001E-03-1.22268E-13
 -1      2915 1.44268E-02 1.74218E-03-1.22038E-13
 -1      2916 1.43140E-02 1.74396E-03-1.20177E-13
 -1      2917 1.42701E-02 1.65963E-03-1.20633E-13
 -1      2918 1.89518E-03 4.96187E-04-2.03933E-15
 -1      2919 1.72367E-03 4.38941E-04-1.70564E-15
 -1      2920 1.57842E-03 3.65461E-04-1.61432E-15
 -1      2921 1.91569E-03 4.71404E-04-2.29039E-15
 -1      2922 1.42741E-02 1.44844E-03-1.23598E-13
 -1      2923 1.42956E-02 1.48989E-03-1.23383E-13
 -1      2924 1.41828E-02 1.49167E-03-1.21520E-13
 -1      2925 1.42303E-02 1.36411E-03-1.24027E-13
 -1      2926 1.42522E-02 1.40627E-03-1.23812E-13
 -1      2927 1.41394E-02 1.40805E-03-1.21948E-13
 -1      2928 1.41865E-02 1.27978E-03-1.24452E-13
 -1      2929 1.42084E-02 1.32194E-03-1.24240E-13
 -1      2930 1.40956E-02 1.32372E-03-1.22374E-13
 -1      2931 4.90192E-03 7.94423E-04-1.20690E-14
 -1      2932 5.10505E-03 6.83448E-04-1.27663E-14
 -1      2933 5.87633E-03 3.67162E-04-1.52135E-14
 -1      2934 5.94166E-03 3.52597E-04-1.54919E-14
 -1      2935 8.42378E-04-2.00028E-04-7.12375E-16
 -1      2936 9.88086E-04-2.40252E-04-9.19864E-16
 -1      2937 5.61775E-03 4.51989E-04-1.44391E-14
 -1      2938 5.76464E-03 4.03770E-04-1.49138E-14
 -1      2939 1.33390E-03 1.55689E-04-3.40371E-15
 -1      2940 1.39454E-03 1.64706E-04-3.39269E-15
 -1      2941 1.41594E-02 1.17946E-03-1.25351E-13
 -1      2942 4.81431E-03-1.18209E-04-1.36783E-14
 -1      2943 4.58543E-03-2.55577E-04-1.30766E-14
 -1      2944 3.01774E-03 1.02851E-03-4.74818E-15
 -1      2945 2.82529E-03 9.21485E-04-4.20783E-15
 -1      2946 3.06836E-03 1.03352E-03-5.12130E-15
 -1      2947 1.12989E-03-2.74591E-04-1.15477E-15
 -1      2948 1.28902E-03-3.11604E-04-1.45165E-15
 -1      2949 1.34021E-03-2.87181E-04-1.62796E-15
 -1      2950 1.05611E-03-2.22703E-04-1.09064E-15
 -1      2951 5.30445E-03 5.80653E-04-1.33852E-14
 -1      2952 5.44397E-03 5.18158E-04-1.38187E-14
 -1      2953 4.23473E-03 1.19037E-03-9.52016E-15
 -1      2954 4.39196E-03 1.10469E-03-1.01817E-14
 -1      2955 6.79283E-04 7.05119E-05-6.70565E-16
 -1      2956 6.57131E-04 6.07804E-05-6.89227E-16
 -1      2957 7.39727E-04 6.87064E-05-8.83557E-16
 -1      2958 7.93117E-04 9.20634E-05-8.38779E-16
 -1      2959 5.86800E-03 3.10790E-04-1.57271E-14
 -1      2960 5.75143E-03 2.84009E-04-1.55469E-14
 -1      2961 7.18941E-04-2.23270E-05-7.76357E-16
 -1      2962 7.43296E-04-4.49354E-05-7.78213E-16
 -1      2963 3.15756E-03 1.06570E-03-5.59746E-15
 -1      2964 3.31843E-03 1.16050E-03-6.04046E-15
 -1      2965 2.69148E-03 7.64116E-04-4.65897E-15
 -1      2966 2.90043E-03 9.02042E-04-5.03709E-15
 -1      2967 2.23270E-03 4.90302E-04-4.08484E-15
 -1      2968 2.43226E-03 6.04835E-04-4.29276E-15
 -1      2969 1.88890E-03 3.26078E-04-3.71713E-15
 -1      2970 2.05881E-03 4.01719E-04-3.89875E-15
 -1      2971 2.12664E-03 4.45537E-04-3.74006E-15
 -1      2972 1.43523E-03 1.19946E-04-3.60430E-15
 -1      2973 1.35194E-03 1.35154E-04-3.50007E-15
 -1      2974 1.52030E-03 1.96354E-04-3.42725E-15
 -1      2975 1.67759E-03 2.43839E-04-3.53592E-15
 -1      2976 6.80372E-04-1.29478E-04-5.43944E-16
 -1      2977 5.97683E-03 3.40162E-04-1.58493E-14
 -1      2978 5.95459E-03 3.32451E-04-1.59164E-14
 -1      2979 3.63590E-03-7.29618E-04-9.24944E-15
 -1      2980 3.48747E-03-7.41055E-04-8.58881E-15
 -1      2981 3.95406E-03-6.18794E-04-1.06665E-14
 -1      2982 3.79332E-03-6.88497E-04-9.94455E-15
 -1      2983 3.71183E-03-7.17044E-04-9.67473E-15
 -1      2984 2.49084E-03-3.24462E-04-5.32290E-15
 -1      2985 2.31719E-03-2.26121E-04-4.98473E-15
 -1      2986 5.27662E-03 1.15110E-04-1.46673E-14
 -1      2987 5.06512E-03 1.51093E-05-1.42549E-14
 -1      2988 8.59701E-04 2.02509E-04-4.84544E-16
 -1      2989 3.31971E-03-7.21839E-04-7.88763E-15
 -1      2990 3.16668E-03-6.75777E-04-7.27737E-15
 -1      2991 7.67995E-04-7.08684E-05-7.78051E-16
 -1      2992 7.92298E-04-9.96979E-05-7.75259E-16
 -1      2993 8.72598E-04-7.00349E-05-9.84605E-16
 -1      2994 5.37989E-03 1.48346E-04-1.53671E-14
 -1      2995 7.24975E-04 4.28182E-05-9.45587E-16
 -1      2996 6.40410E-04 3.32120E-05-7.52762E-16
 -1      2997 6.54937E-04 2.42454E-05-7.60893E-16
 -1      2998 4.05367E-03-5.80913E-04-1.12838E-14
 -1      2999 1.29055E-03 1.44924E-04-3.19239E-15
 -1      3000 4.83967E-03 8.57597E-04-1.19797E-14
 -1      3001 2.18883E-03-1.73541E-04-4.67214E-15
 -1      3002 4.47978E-03-3.34770E-04-1.30354E-14
 -1      3003 4.39832E-03-4.06222E-04-1.29884E-14
 -1      3004 4.63451E-03-2.59588E-04-1.38301E-14
 -1      3005 3.06039E-03-6.41567E-04-6.87846E-15
 -1      3006 2.95318E-03-6.03450E-04-6.49152E-15
 -1      3007 3.13952E-03-6.88207E-04-7.17305E-15
 -1      3008 3.74677E-03 1.29732E-03-7.52211E-15
 -1      3009 5.70277E-03 2.64509E-04-1.59671E-14
 -1      3010 1.43268E-03 1.74402E-04-3.18874E-15
 -1      3011 1.75522E-03 2.78421E-04-3.39086E-15
 -1      3012 1.43577E-02 1.82793E-03-1.19714E-13
 -1      3013 1.44924E-02 1.86832E-03-1.21340E-13
 -1      3014 1.45142E-02 1.91012E-03-1.21103E-13
 -1      3015 2.66779E-03 8.05731E-04-4.03526E-15
 -1      3016 1.49187E-03 9.21687E-05-3.52539E-15
 -1      3017 1.29931E-03 1.33021E-04-3.24658E-15
 -1      3018 4.92120E-03 8.81594E-04-1.25403E-14
 -1      3019 2.54052E-03 6.81960E-04-4.26417E-15
 -1      3020 1.45389E-02 1.94655E-03-1.20990E-13
 -1      3021 1.45607E-02 1.98834E-03-1.20753E-13
 -1      3022 1.44537E-02 1.97901E-03-1.19144E-13
 -1      3023 1.44042E-02 1.90616E-03-1.19369E-13
 -1      3024 5.94262E-03 3.27125E-04-1.64425E-14
 -1      3025 5.85007E-03 3.96029E-04-1.56002E-14
 -1      3026 5.22408E-03 6.49862E-04-1.33982E-14
 -1      3027 1.41813E-02 1.22162E-03-1.25148E-13
 -1      3028 5.58071E-03 4.89736E-04-1.46574E-14
 -1      3029 5.99315E-03 3.52695E-04-1.62685E-14
 -1      3030 1.83041E-03-8.44972E-06-4.11895E-15
 -1      3031 4.97142E-03-4.80939E-05-1.44587E-14
 -1      3032 1.40178E-02 1.18720E-03-1.22934E-13
 -1      3033 1.41358E-02 1.24358E-03-1.24107E-13
 -1      3034 1.40231E-02 1.24536E-03-1.22241E-13
 -1      3035 1.39217E-02 1.17296E-03-1.21554E-13
 -1      3036 6.73727E-04 1.22539E-05-7.67385E-16
 -1      3037 6.95327E-04-3.24439E-06-7.72521E-16
 -1      3038 8.14218E-04-1.69573E-05-9.79021E-16
 -1      3039 7.61375E-04 2.04468E-05-9.65563E-16
 -1      3040 7.96322E-04-1.39252E-04-7.22119E-16
 -1      3041 4.50789E-03 1.06382E-03-1.06783E-14
 -1      3042 3.42276E-03 1.21636E-03-6.29440E-15
 -1      3043 3.40310E-03-7.41866E-04-8.26986E-15
 -1      3044 2.61176E-03-4.06260E-04-5.53034E-15
 -1      3045 2.46992E-03-3.56698E-04-5.08891E-15
 -1      3046 2.71182E-03-4.83544E-04-5.73932E-15
 -1      3047 8.99172E-04 1.88805E-04-6.04090E-16
 -1      3048 1.00452E-03 2.00009E-04-7.92443E-16
 -1      3049 1.15228E-03 2.32649E-04-1.01597E-15
 -1      3050 1.05122E-03 1.89117E-04-9.65252E-16
 -1      3051 1.30304E-03 2.67489E-04-1.26994E-15
 -1      3052 1.00076E-03 1.57544E-04-1.00549E-15
 -1      3053 1.24373E-03 1.33935E-04-2.92776E-15
 -1      3054 1.26701E-03 1.37747E-04-2.89309E-15
 -1      3055 9.11104E-04-1.45719E-04-9.26193E-16
 -1      3056 1.86844E-03-3.71026E-04-2.96073E-15
 -1      3057 2.03994E-03-4.16366E-04-3.42684E-15
 -1      3058 2.21492E-03-4.66263E-04-3.92870E-15
 -1      3059 2.39118E-03-5.20429E-04-4.46636E-15
 -1      3060 2.09426E-03-3.84874E-04-3.66847E-15
 -1      3061 2.56922E-03-5.78375E-04-5.04008E-15
 -1      3062 2.74524E-03-6.36203E-04-5.65039E-15
 -1      3063 2.45465E-03-4.95492E-04-4.73456E-15
 -1      3064 2.94000E-03-6.77404E-04-6.38702E-15
 -1      3065 3.11273E-03-7.26388E-04-7.07870E-15
 -1      3066 3.57495E-03-7.82929E-04-9.29489E-15
 -1      3067 3.73651E-03-7.55729E-04-1.01415E-14
 -1      3068 3.89935E-03-7.08710E-04-1.10248E-14
 -1      3069 4.06727E-03-6.48161E-04-1.19461E-14
 -1      3070 3.83120E-03-7.10992E-04-1.05390E-14
 -1      3071 4.23897E-03-5.77308E-04-1.29032E-14
 -1      3072 4.41347E-03-5.03346E-04-1.38935E-14
 -1      3073 4.17617E-03-5.76418E-04-1.23792E-14
 -1      3074 4.58998E-03-4.29080E-04-1.49160E-14
 -1      3075 4.76573E-03-3.58426E-04-1.59688E-14
 -1      3076 4.53567E-03-4.17526E-04-1.43589E-14
 -1      3077 4.94051E-03-2.92744E-04-1.70499E-14
 -1      3078 5.11202E-03-2.32934E-04-1.81609E-14
 -1      3079 4.89528E-03-2.72326E-04-1.64619E-14
 -1      3080 5.28073E-03-1.79354E-04-1.92997E-14
 -1      3081 5.44555E-03-1.31217E-04-2.04655E-14
 -1      3082 5.24224E-03-1.54418E-04-1.86804E-14
 -1      3083 5.60719E-03-8.84854E-05-2.16567E-14
 -1      3084 5.76537E-03-5.00580E-05-2.28744E-14
 -1      3085 5.57217E-03-6.24801E-05-2.10065E-14
 -1      3086 5.92079E-03-1.57429E-05-2.41191E-14
 -1      3087 6.07359E-03 1.54110E-05-2.53892E-14
 -1      3088 5.88650E-03 9.80032E-06-2.34371E-14
 -1      3089 6.22432E-03 4.36441E-05-2.66851E-14
 -1      3090 6.37323E-03 6.96567E-05-2.80057E-14
 -1      3091 6.18894E-03 6.83538E-05-2.59722E-14
 -1      3092 6.52072E-03 9.36970E-05-2.93505E-14
 -1      3093 6.66705E-03 1.16245E-04-3.07193E-14
 -1      3094 6.48326E-03 1.17700E-04-2.86069E-14
 -1      3095 6.81246E-03 1.37534E-04-3.21136E-14
 -1      3096 6.95716E-03 1.57883E-04-3.35309E-14
 -1      3097 6.77251E-03 1.61083E-04-3.13399E-14
 -1      3098 7.10131E-03 1.77493E-04-3.49719E-14
 -1      3099 7.24506E-03 1.96572E-04-3.64362E-14
 -1      3100 7.05884E-03 2.00809E-04-3.41693E-14
 -1      3101 7.38848E-03 2.15283E-04-3.79249E-14
 -1      3102 7.53169E-03 2.33756E-04-3.94358E-14
 -1      3103 7.34367E-03 2.38510E-04-3.70933E-14
 -1      3104 7.67473E-03 2.52116E-04-4.09662E-14
 -1      3105 7.81768E-03 2.70442E-04-4.25186E-14
 -1      3106 7.62786E-03 2.75334E-04-4.01072E-14
 -1      3107 7.96053E-03 2.88820E-04-4.40931E-14
 -1      3108 8.10335E-03 3.07294E-04-4.56887E-14
 -1      3109 7.91193E-03 3.12058E-04-4.32072E-14
 -1      3110 8.24612E-03 3.25922E-04-4.73039E-14
 -1      3111 8.38891E-03 3.44722E-04-4.89377E-14
 -1      3112 8.19613E-03 3.49182E-04-4.63905E-14
 -1      3113 8.53167E-03 3.63728E-04-5.05890E-14
 -1      3114 8.67445E-03 3.82946E-04-5.22587E-14
 -1      3115 8.48057E-03 3.87002E-04-4.96522E-14
 -1      3116 8.81722E-03 4.02389E-04-5.39471E-14
 -1      3117 8.96002E-03 4.22053E-04-5.56517E-14
 -1      3118 8.76527E-03 4.25661E-04-5.29880E-14
 -1      3119 9.10281E-03 4.41941E-04-5.73705E-14
 -1      3120 9.24563E-03 4.62044E-04-5.91054E-14
 -1      3121 9.05023E-03 4.65198E-04-5.63902E-14
 -1      3122 9.38845E-03 4.82354E-04-6.08543E-14
 -1      3123 9.53129E-03 5.02861E-04-6.26161E-14
 -1      3124 9.33541E-03 5.05586E-04-5.98536E-14
 -1      3125 9.67412E-03 5.23554E-04-6.43925E-14
 -1      3126 9.81698E-03 5.44420E-04-6.61815E-14
 -1      3127 9.62076E-03 5.46754E-04-6.33749E-14
 -1      3128 9.95983E-03 5.65446E-04-6.79826E-14
 -1      3129 1.01027E-02 5.86620E-04-6.97966E-14
 -1      3130 9.90624E-03 5.88612E-04-6.69492E-14
 -1      3131 1.02456E-02 6.07929E-04-7.16209E-14
 -1      3132 1.03884E-02 6.29362E-04-7.34542E-14
 -1      3133 1.01918E-02 6.31060E-04-7.05718E-14
 -1      3134 1.05313E-02 6.50904E-04-7.52974E-14
 -1      3135 1.06742E-02 6.72548E-04-7.71527E-14
 -1      3136 1.04775E-02 6.74002E-04-7.42361E-14
 -1      3137 1.08170E-02 6.94280E-04-7.90169E-14
 -1      3138 1.09599E-02 7.16093E-04-8.08905E-14
 -1      3139 1.07632E-02 7.17347E-04-7.79401E-14
 -1      3140 1.11028E-02 7.37975E-04-8.27720E-14
 -1      3141 1.12457E-02 7.59921E-04-8.46639E-14
 -1      3142 1.10489E-02 7.61015E-04-8.16830E-14
 -1      3143 1.13885E-02 7.81920E-04-8.65651E-14
 -1      3144 1.15314E-02 8.03968E-04-8.84725E-14
 -1      3145 1.13347E-02 8.04937E-04-8.54642E-14
 -1      3146 1.16743E-02 8.26057E-04-9.03897E-14
 -1      3147 1.18172E-02 8.48183E-04-9.23147E-14
 -1      3148 1.16204E-02 8.49054E-04-8.92786E-14
 -1      3149 1.19600E-02 8.70339E-04-9.42468E-14
 -1      3150 1.21029E-02 8.92522E-04-9.61890E-14
 -1      3151 1.19062E-02 8.93320E-04-9.31249E-14
 -1      3152 1.22458E-02 9.14727E-04-9.81401E-14
 -1      3153 1.23886E-02 9.36951E-04-1.00098E-13
 -1      3154 1.21919E-02 9.37695E-04-9.70069E-14
 -1      3155 1.25315E-02 9.59191E-04-1.02064E-13
 -1      3156 1.26744E-02 9.81445E-04-1.04036E-13
 -1      3157 1.24777E-02 9.82149E-04-1.00922E-13
 -1      3158 1.28172E-02 1.00371E-03-1.06014E-13
 -1      3159 1.29601E-02 1.02598E-03-1.07998E-13
 -1      3160 1.27634E-02 1.02666E-03-1.04866E-13
 -1      3161 1.31030E-02 1.04826E-03-1.09988E-13
 -1      3162 1.32458E-02 1.07054E-03-1.11987E-13
 -1      3163 1.30492E-02 1.07121E-03-1.08831E-13
 -1      3164 1.33887E-02 1.09283E-03-1.13990E-13
 -1      3165 1.35315E-02 1.11512E-03-1.15997E-13
 -1      3166 1.33349E-02 1.11577E-03-1.12824E-13
 -1      3167 1.36552E-02 1.13290E-03-1.17761E-13
 -1      3168 1.37980E-02 1.15519E-03-1.19780E-13
 -1      3169 1.38487E-02 1.19139E-03-1.20123E-13
 -1      3170 1.36014E-02 1.15584E-03-1.16589E-13
 -1      3171 1.40483E-02 1.45164E-03-1.19875E-13
 -1      3172 1.40698E-02 1.49309E-03-1.19662E-13
 -1      3173 3.74799E-03 1.32332E-03-7.29889E-15
 -1      3174 3.57161E-03 1.29068E-03-6.59936E-15
 -1      3175 4.15133E-03 1.23423E-03-9.14027E-15
 -1      3176 5.50987E-03 6.98373E-04-1.56107E-14
 -1      3177 5.33121E-03 7.34638E-04-1.45759E-14
 -1      3178 6.45155E-03 6.76408E-04-2.24089E-14
 -1      3179 6.30431E-03 6.65094E-04-2.12084E-14
 -1      3180 6.74147E-03 7.09353E-04-2.48901E-14
 -1      3181 6.59702E-03 6.91462E-04-2.36365E-14
 -1      3182 6.54401E-03 6.47136E-04-2.31852E-14
 -1      3183 7.02836E-03 7.51774E-04-2.74773E-14
 -1      3184 6.88509E-03 7.29625E-04-2.61709E-14
 -1      3185 6.82411E-03 6.84938E-04-2.56979E-14
 -1      3186 7.31414E-03 8.00136E-04-3.01660E-14
 -1      3187 7.17127E-03 7.75376E-04-2.88091E-14
 -1      3188 7.10348E-03 7.29893E-04-2.83150E-14
 -1      3189 7.59969E-03 8.51906E-04-3.29498E-14
 -1      3190 7.45688E-03 8.25705E-04-3.15457E-14
 -1      3191 7.38348E-03 7.79347E-04-3.10307E-14
 -1      3192 7.88534E-03 9.05309E-04-3.58307E-14
 -1      3193 7.74246E-03 8.78476E-04-3.43789E-14
 -1      3194 7.66458E-03 8.31347E-04-3.38427E-14
 -1      3195 8.17115E-03 9.59154E-04-3.87967E-14
 -1      3196 8.02820E-03 9.32223E-04-3.73023E-14
 -1      3197 7.94680E-03 8.84494E-04-3.67458E-14
 -1      3198 8.45710E-03 1.01268E-03-4.18559E-14
 -1      3199 8.31409E-03 9.85985E-04-4.03157E-14
 -1      3200 8.23000E-03 9.37833E-04-3.97379E-14
 -1      3201 8.74312E-03 1.06545E-03-4.49977E-14
 -1      3202 8.60009E-03 1.03918E-03-4.34165E-14
 -1      3203 8.51395E-03 9.90752E-04-4.28196E-14
 -1      3204 9.02916E-03 1.11725E-03-4.82199E-14
 -1      3205 8.88613E-03 1.09148E-03-4.65998E-14
 -1      3206 8.79848E-03 1.04290E-03-4.59846E-14
 -1      3207 9.31519E-03 1.16799E-03-5.15159E-14
 -1      3208 9.17217E-03 1.14275E-03-4.98580E-14
 -1      3209 9.08343E-03 1.09410E-03-4.92268E-14
 -1      3210 9.60118E-03 1.21772E-03-5.48756E-14
 -1      3211 9.45818E-03 1.19298E-03-5.31881E-14
 -1      3212 9.36866E-03 1.14431E-03-5.25398E-14
 -1      3213 9.88713E-03 1.26650E-03-5.83008E-14
 -1      3214 9.74416E-03 1.24222E-03-5.65806E-14
 -1      3215 9.65409E-03 1.19357E-03-5.59210E-14
 -1      3216 1.01730E-02 1.31444E-03-6.17820E-14
 -1      3217 1.00301E-02 1.29057E-03-6.00333E-14
 -1      3218 9.93966E-03 1.24196E-03-5.93631E-14
 -1      3219 1.04589E-02 1.36167E-03-6.53148E-14
 -1      3220 1.03160E-02 1.33814E-03-6.35413E-14
 -1      3221 1.02253E-02 1.28957E-03-6.28578E-14
 -1      3222 1.07447E-02 1.40829E-03-6.89022E-14
 -1      3223 1.06018E-02 1.38505E-03-6.71027E-14
 -1      3224 1.05110E-02 1.33653E-03-6.64097E-14
 -1      3225 1.10305E-02 1.45443E-03-7.25438E-14
 -1      3226 1.08876E-02 1.43142E-03-7.07154E-14
 -1      3227 1.07967E-02 1.38295E-03-7.00116E-14
 -1      3228 1.13163E-02 1.50016E-03-7.62302E-14
 -1      3229 1.11734E-02 1.47734E-03-7.43814E-14
 -1      3230 1.10825E-02 1.42891E-03-7.36643E-14
 -1      3231 1.16021E-02 1.54559E-03-7.99642E-14
 -1      3232 1.14592E-02 1.52291E-03-7.80924E-14
 -1      3233 1.13682E-02 1.47452E-03-7.73665E-14
 -1      3234 1.18878E-02 1.59077E-03-8.37351E-14
 -1      3235 1.17449E-02 1.56821E-03-8.18440E-14
 -1      3236 1.16540E-02 1.51984E-03-8.11081E-14
 -1      3237 1.21735E-02 1.63577E-03-8.75480E-14
 -1      3238 1.20307E-02 1.61329E-03-8.56369E-14
 -1      3239 1.19398E-02 1.56495E-03-8.48887E-14
 -1      3240 1.24593E-02 1.68063E-03-9.13990E-14
 -1      3241 1.23164E-02 1.65821E-03-8.94693E-14
 -1      3242 1.22255E-02 1.60990E-03-8.87112E-14
 -1      3243 1.27450E-02 1.72539E-03-9.52853E-14
 -1      3244 1.26021E-02 1.70302E-03-9.33388E-14
 -1      3245 1.25113E-02 1.65472E-03-9.25716E-14
 -1      3246 1.30307E-02 1.77007E-03-9.91978E-14
 -1      3247 1.28878E-02 1.74774E-03-9.72388E-14
 -1      3248 1.27970E-02 1.69945E-03-9.64635E-14
 -1      3249 1.33164E-02 1.81471E-03-1.03132E-13
 -1      3250 1.31736E-02 1.79240E-03-1.01162E-13
 -1      3251 1.30827E-02 1.74412E-03-1.00382E-13
 -1      3252 1.36021E-02 1.85932E-03-1.07081E-13
 -1      3253 1.34593E-02 1.83702E-03-1.05105E-13
 -1      3254 1.33685E-02 1.78875E-03-1.04321E-13
 -1      3255 1.38878E-02 1.90391E-03-1.11047E-13
 -1      3256 1.37450E-02 1.88162E-03-1.09060E-13
 -1      3257 1.36542E-02 1.83335E-03-1.08276E-13
 -1      3258 1.41736E-02 1.94850E-03-1.15030E-13
 -1      3259 1.40307E-02 1.92621E-03-1.13037E-13
 -1      3260 1.39399E-02 1.87794E-03-1.12247E-13
 -1      3261 1.43671E-02 1.96842E-03-1.17889E-13
 -1      3262 1.42601E-02 1.95909E-03-1.16282E-13
 -1      3263 1.41693E-02 1.91082E-03-1.15493E-13
 -1      3264 1.43424E-02 1.93200E-03-1.18000E-13
 -1      3265 8.04710E-04 6.84063E-05-1.12399E-15
 -1      3266 8.00829E-04 6.17051E-05-1.14234E-15
 -1      3267 1.40918E-02 1.53526E-03-1.19445E-13
 -1      3268 1.41137E-02 1.57743E-03-1.19223E-13
 -1      3269 1.39572E-02 1.49523E-03-1.17806E-13
 -1      3270 2.94879E-03 9.41214E-04-5.00690E-15
 -1      3271 2.16531E-03-2.01962E-04-4.41861E-15
 -1      3272 2.00559E-03-1.07135E-04-4.21160E-15
 -1      3273 5.86961E-03 4.25529E-04-1.63196E-14
 -1      3274 5.95965E-03 3.93739E-04-1.66340E-14
 -1      3275 1.40045E-02 1.36730E-03-1.20305E-13
 -1      3276 1.40264E-02 1.40947E-03-1.20092E-13
 -1      3277 1.39134E-02 1.41089E-03-1.18238E-13
 -1      3278 6.15477E-03 6.57892E-04-2.00357E-14
 -1      3279 6.00187E-03 6.56493E-04-1.88898E-14
 -1      3280 6.26013E-03 6.20178E-04-2.07789E-14
 -1      3281 5.84454E-03 6.61119E-04-1.77698E-14
 -1      3282 5.68155E-03 6.74750E-04-1.66777E-14
 -1      3283 5.96655E-03 6.09645E-04-1.84792E-14
 -1      3284 6.02575E-03 3.72571E-04-1.70082E-14
 -1      3285 6.05886E-03 3.61907E-04-1.73799E-14
 -1      3286 6.06289E-03 3.98746E-04-1.77530E-14
 -1      3287 5.26787E-03 6.88764E-04-1.39804E-14
 -1      3288 5.43492E-03 6.03686E-04-1.46294E-14
 -1      3289 1.63260E-03 2.40934E-04-3.05720E-15
 -1      3290 1.82217E-03 3.14284E-04-3.22091E-15
 -1      3291 2.29456E-03 5.88058E-04-3.39004E-15
 -1      3292 2.10696E-03 5.08267E-04-2.95216E-15
 -1      3293 1.53528E-03-2.93037E-04-2.13311E-15
 -1      3294 1.69988E-03-3.30261E-04-2.52974E-15
 -1      3295 1.74848E-03-2.97972E-04-2.74222E-15
 -1      3296 5.59053E-03 5.23985E-04-1.51470E-14
 -1      3297 5.73935E-03 4.72670E-04-1.57935E-14
 -1      3298 5.88358E-03 4.59354E-04-1.68306E-14
 -1      3299 5.62110E-03 5.73678E-04-1.57596E-14
 -1      3300 4.11377E-03-5.72856E-04-1.18296E-14
 -1      3301 3.93214E-03-6.55717E-04-1.09126E-14
 -1      3302 1.39608E-02 1.28298E-03-1.20726E-13
 -1      3303 1.39826E-02 1.32514E-03-1.20516E-13
 -1      3304 1.38697E-02 1.32656E-03-1.18664E-13
 -1      3305 1.54396E-03 5.73657E-05-3.39762E-15
 -1      3306 1.39047E-03 9.33728E-05-3.14082E-15
 -1      3307 5.79583E-03 2.84233E-04-1.67077E-14
 -1      3308 5.65521E-03 2.41787E-04-1.64209E-14
 -1      3309 1.34158E-03 1.54132E-04-2.91283E-15
 -1      3310 1.45124E-03 1.81223E-04-2.94285E-15
 -1      3311 5.50215E-03 1.82579E-04-1.62108E-14
 -1      3312 5.34494E-03 1.16264E-04-1.58871E-14
 -1      3313 5.13648E-03 1.34807E-05-1.54586E-14
 -1      3314 4.91733E-03-1.04567E-04-1.48573E-14
 -1      3315 2.04588E-03 4.21680E-04-3.40032E-15
 -1      3316 2.19991E-03 5.02214E-04-3.56856E-15
 -1      3317 1.27716E-03 1.17863E-04-2.95765E-15
 -1      3318 1.24507E-03 1.26917E-04-2.94344E-15
 -1      3319 1.19683E-03 1.20230E-04-2.65428E-15
 -1      3320 6.01907E-03 3.39818E-04-1.74069E-14
 -1      3321 5.93348E-03 3.19319E-04-1.72123E-14
 -1      3322 1.84131E-03-4.39471E-05-3.88789E-15
 -1      3323 1.68512E-03 5.31409E-06-3.57811E-15
 -1      3324 1.83033E-03-8.12897E-05-3.65558E-15
 -1      3325 3.75737E-03-7.15439E-04-1.00319E-14
 -1      3326 3.61592E-03-7.48747E-04-9.33371E-15
 -1      3327 8.07142E-04 5.45332E-05-1.15861E-15
 -1      3328 8.22408E-04 4.46719E-05-1.17294E-15
 -1      3329 8.87338E-04 6.72140E-05-1.39123E-15
 -1      3330 5.90827E-03 3.04238E-04-1.76797E-14
 -1      3331 1.04556E-03-1.71190E-04-1.16038E-15
 -1      3332 4.81435E-03-1.85114E-04-1.48068E-14
 -1      3333 1.14149E-03 1.81628E-04-1.29283E-15
 -1      3334 9.60125E-04 1.30004E-04-1.07149E-15
 -1      3335 1.24668E-03-2.30052E-04-1.50990E-15
 -1      3336 1.38948E-03-2.60592E-04-1.80761E-15
 -1      3337 1.43617E-03-2.31485E-04-1.99112E-15
 -1      3338 1.42231E-02 1.78772E-03-1.18091E-13
 -1      3339 1.42449E-02 1.82953E-03-1.17859E-13
 -1      3340 2.83567E-03-6.06197E-04-6.02759E-15
 -1      3341 3.25387E-03-7.72379E-04-7.71711E-15
 -1      3342 3.41655E-03-7.87149E-04-8.48453E-15
 -1      3343 2.82848E-03 8.77469E-04-4.59395E-15
 -1      3344 3.45766E-03 1.23412E-03-6.35872E-15
 -1      3345 1.32022E-03 7.22510E-05-2.72020E-15
 -1      3346 1.29645E-03 9.79462E-05-2.83925E-15
 -1      3347 1.21477E-03 9.60644E-05-2.55330E-15
 -1      3348 5.65190E-03 6.26193E-04-1.62849E-14
 -1      3349 8.18860E-04 7.56173E-05-1.10354E-15
 -1      3350 8.95458E-04 8.24250E-05-1.34835E-15
 -1      3351 8.42710E-04 8.54210E-05-1.08019E-15
 -1      3352 1.41792E-02 1.70339E-03-1.18552E-13
 -1      3353 1.42012E-02 1.74556E-03-1.18322E-13
 -1      3354 1.40883E-02 1.74716E-03-1.16472E-13
 -1      3355 9.06522E-04-8.36197E-06-1.20425E-15
 -1      3356 9.40578E-04-3.50944E-05-1.21076E-15
 -1      3357 2.75014E-03-5.43453E-04-5.76808E-15
 -1      3358 1.92774E-03 4.43255E-04-2.54725E-15
 -1      3359 1.75766E-03 3.87450E-04-2.17369E-15
 -1      3360 1.93066E-03 4.11139E-04-2.80952E-15
 -1      3361 4.29879E-03-4.85935E-04-1.27853E-14
 -1      3362 1.41355E-02 1.61933E-03-1.19000E-13
 -1      3363 1.41574E-02 1.66149E-03-1.18776E-13
 -1      3364 1.40445E-02 1.66309E-03-1.16925E-13
 -1      3365 1.40009E-02 1.57929E-03-1.17369E-13
 -1      3366 2.28520E-03-2.79090E-04-4.59952E-15
 -1      3367 2.10307E-03-2.12692E-04-4.13744E-15
 -1      3368 2.39103E-03-3.56113E-04-4.78294E-15
 -1      3369 9.17059E-04 1.09130E-04-1.10380E-15
 -1      3370 3.50233E-03-7.69573E-04-8.84723E-15
 -1      3371 3.44720E-03-7.56422E-04-8.52117E-15
 -1      3372 5.10387E-03 7.88662E-04-1.33548E-14
 -1      3373 1.89460E-03 3.65525E-04-3.06337E-15
 -1      3374 4.44390E-03-4.20202E-04-1.35685E-14
 -1      3375 5.27995E-03 5.87213E-05-1.63014E-14
 -1      3376 6.09310E-03 3.58467E-04-1.81686E-14
 -1      3377 5.62145E-03 2.12495E-04-1.69552E-14
 -1      3378 1.26303E-03 1.38759E-04-2.66046E-15
 -1      3379 1.54936E-03 2.16982E-05-3.18454E-15
 -1      3380 2.62403E-03 7.63273E-04-4.07015E-15
 -1      3381 1.38625E-03 1.75985E-04-2.52941E-15
 -1      3382 1.50218E-03 2.03136E-04-2.78696E-15
 -1      3383 1.54994E-03 2.30629E-04-2.63265E-15
 -1      3384 2.39748E-03 6.22105E-04-3.73932E-15
 -1      3385 1.07525E-03-5.92473E-05-1.46721E-15
 -1      3386 9.75403E-04-6.61673E-05-1.21490E-15
 -1      3387 1.00927E-03-1.00504E-04-1.21601E-15
 -1      3388 3.29322E-03-7.39302E-04-7.82188E-15
 -1      3389 1.38794E-02 1.21908E-03-1.20255E-13
 -1      3390 1.39301E-02 1.25528E-03-1.20598E-13
 -1      3391 1.38171E-02 1.25670E-03-1.18745E-13
 -1      3392 1.37558E-02 1.20131E-03-1.18485E-13
 -1      3393 1.40775E-03 2.88488E-04-1.48667E-15
 -1      3394 1.29287E-03 2.36875E-04-1.42357E-15
 -1      3395 1.23325E-03 1.95986E-04-1.51014E-15
 -1      3396 1.56386E-03 3.28686E-04-1.79440E-15
 -1      3397 3.19337E-03-7.20645E-04-7.40167E-15
 -1      3398 1.96608E-03-3.02477E-04-3.41530E-15
 -1      3399 2.14470E-03-3.50481E-04-3.90913E-15
 -1      3400 2.25237E-03-3.64235E-04-4.25169E-15
 -1      3401 2.43948E-03-4.26580E-04-4.80106E-15
 -1      3402 4.63050E-03-3.36745E-04-1.45828E-14
 -1      3403 4.85776E-03-2.44745E-04-1.58725E-14
 -1      3404 5.03722E-03-1.78971E-04-1.69518E-14
 -1      3405 5.21246E-03-1.22324E-04-1.80597E-14
 -1      3406 5.38142E-03-7.27956E-05-1.91956E-14
 -1      3407 5.18787E-03-8.73753E-05-1.74436E-14
 -1      3408 5.54553E-03-3.02867E-05-2.03565E-14
 -1      3409 5.70462E-03 7.37776E-06-2.15427E-14
 -1      3410 5.52385E-03 4.46936E-06-1.97093E-14
 -1      3411 5.85971E-03 4.03272E-05-2.27558E-14
 -1      3412 6.01130E-03 7.01697E-05-2.39945E-14
 -1      3413 5.83709E-03 7.25161E-05-2.20778E-14
 -1      3414 6.16007E-03 9.70061E-05-2.52578E-14
 -1      3415 6.30664E-03 1.21876E-04-2.65477E-14
 -1      3416 6.13453E-03 1.26449E-04-2.45491E-14
 -1      3417 6.45142E-03 1.44886E-04-2.78627E-14
 -1      3418 6.59493E-03 1.66663E-04-2.92010E-14
 -1      3419 6.42217E-03 1.72205E-04-2.71221E-14
 -1      3420 6.73741E-03 1.87323E-04-3.05640E-14
 -1      3421 6.87926E-03 2.07242E-04-3.19519E-14
 -1      3422 6.70437E-03 2.13271E-04-2.97938E-14
 -1      3423 7.02059E-03 2.26537E-04-3.33641E-14
 -1      3424 7.16168E-03 2.45430E-04-3.47994E-14
 -1      3425 6.98398E-03 2.51732E-04-3.25616E-14
 -1      3426 7.30256E-03 2.64030E-04-3.62564E-14
 -1      3427 7.44343E-03 2.82465E-04-3.77392E-14
 -1      3428 7.26277E-03 2.88906E-04-3.54263E-14
 -1      3429 7.58428E-03 3.00827E-04-3.92436E-14
 -1      3430 7.72523E-03 3.19187E-04-4.07680E-14
 -1      3431 7.54176E-03 3.25655E-04-3.83826E-14
 -1      3432 7.86626E-03 3.37618E-04-4.23152E-14
 -1      3433 8.00745E-03 3.56154E-04-4.38836E-14
 -1      3434 7.82147E-03 3.62547E-04-4.14280E-14
 -1      3435 8.14876E-03 3.74847E-04-4.54723E-14
 -1      3436 8.29024E-03 3.93709E-04-4.70819E-14
 -1      3437 8.10211E-03 3.99946E-04-4.45583E-14
 -1      3438 8.43185E-03 4.12774E-04-4.87100E-14
 -1      3439 8.57362E-03 4.32041E-04-5.03546E-14
 -1      3440 8.38372E-03 4.38060E-04-4.77695E-14
 -1      3441 8.71551E-03 4.51527E-04-5.20214E-14
 -1      3442 8.85754E-03 4.71225E-04-5.37049E-14
 -1      3443 8.66622E-03 4.76989E-04-5.10585E-14
 -1      3444 8.99968E-03 4.91139E-04-5.54021E-14
 -1      3445 9.14193E-03 5.11258E-04-5.71165E-14
 -1      3446 8.94949E-03 5.16752E-04-5.44170E-14
 -1      3447 9.28427E-03 5.31580E-04-5.88466E-14
 -1      3448 9.42670E-03 5.52091E-04-6.05905E-14
 -1      3449 9.23342E-03 5.57315E-04-5.78409E-14
 -1      3450 9.56920E-03 5.72783E-04-6.23488E-14
 -1      3451 9.71177E-03 5.93643E-04-6.41216E-14
 -1      3452 9.51787E-03 5.98612E-04-6.13255E-14
 -1      3453 9.85440E-03 6.14660E-04-6.59068E-14
 -1      3454 9.99707E-03 6.35822E-04-6.77039E-14
 -1      3455 9.80271E-03 6.40558E-04-6.48671E-14
 -1      3456 1.01398E-02 6.57117E-04-6.95136E-14
 -1      3457 1.02825E-02 6.78533E-04-7.13338E-14
 -1      3458 1.00879E-02 6.83062E-04-6.84571E-14
 -1      3459 1.04253E-02 7.00058E-04-7.31630E-14
 -1      3460 1.05681E-02 7.21684E-04-7.50032E-14
 -1      3461 1.03732E-02 7.26035E-04-7.20929E-14
 -1      3462 1.07109E-02 7.43398E-04-7.68549E-14
 -1      3463 1.08538E-02 7.65193E-04-7.87151E-14
 -1      3464 1.06588E-02 7.69394E-04-7.57709E-14
 -1      3465 1.09966E-02 7.87058E-04-8.05850E-14
 -1      3466 1.11395E-02 8.08986E-04-8.24635E-14
 -1      3467 1.09444E-02 8.13064E-04-7.94866E-14
 -1      3468 1.12824E-02 8.30970E-04-8.43519E-14
 -1      3469 1.14253E-02 8.53003E-04-8.62494E-14
 -1      3470 1.12301E-02 8.56979E-04-8.32431E-14
 -1      3471 1.15681E-02 8.75077E-04-8.81557E-14
 -1      3472 1.17110E-02 8.97189E-04-9.00688E-14
 -1      3473 1.15159E-02 9.01086E-04-8.70337E-14
 -1      3474 1.18539E-02 9.19333E-04-9.19919E-14
 -1      3475 1.19968E-02 9.41505E-04-9.39220E-14
 -1      3476 1.18016E-02 9.45339E-04-9.08578E-14
 -1      3477 1.21397E-02 9.63699E-04-9.58618E-14
 -1      3478 1.22826E-02 9.85914E-04-9.78104E-14
 -1      3479 1.20874E-02 9.89701E-04-9.47179E-14
 -1      3480 1.24254E-02 1.00815E-03-9.97673E-14
 -1      3481 1.25683E-02 1.03039E-03-1.01731E-13
 -1      3482 1.23732E-02 1.03414E-03-9.86138E-14
 -1      3483 1.27112E-02 1.05265E-03-1.03700E-13
 -1      3484 1.28541E-02 1.07492E-03-1.05678E-13
 -1      3485 1.26590E-02 1.07864E-03-1.02538E-13
 -1      3486 1.29970E-02 1.09719E-03-1.07663E-13
 -1      3487 1.31398E-02 1.11947E-03-1.09652E-13
 -1      3488 1.29448E-02 1.12318E-03-1.06492E-13
 -1      3489 1.32827E-02 1.14176E-03-1.11647E-13
 -1      3490 1.34256E-02 1.16405E-03-1.13648E-13
 -1      3491 1.32305E-02 1.16774E-03-1.10470E-13
 -1      3492 3.77524E-03 1.30352E-03-7.59503E-15
 -1      3493 6.90214E-03 6.63403E-04-2.65093E-14
 -1      3494 6.76633E-03 6.41975E-04-2.52248E-14
 -1      3495 6.63092E-03 6.22165E-04-2.39649E-14
 -1      3496 6.49527E-03 6.04336E-04-2.27321E-14
 -1      3497 6.71149E-03 6.00702E-04-2.47492E-14
 -1      3498 7.45007E-03 7.59861E-04-3.18970E-14
 -1      3499 7.31219E-03 7.34558E-04-3.05140E-14
 -1      3500 7.72743E-03 8.11671E-04-3.47361E-14
 -1      3501 7.58845E-03 7.85585E-04-3.33050E-14
 -1      3502 7.51386E-03 7.41242E-04-3.27682E-14
 -1      3503 8.00679E-03 8.64278E-04-3.76631E-14
 -1      3504 7.86686E-03 8.37913E-04-3.61895E-14
 -1      3505 7.78821E-03 7.92540E-04-3.56305E-14
 -1      3506 8.28779E-03 9.16916E-04-4.06814E-14
 -1      3507 8.14709E-03 8.90618E-04-3.91605E-14
 -1      3508 8.06526E-03 8.44401E-04-3.85843E-14
 -1      3509 8.57008E-03 9.69089E-04-4.37857E-14
 -1      3510 8.42878E-03 9.43075E-04-4.22229E-14
 -1      3511 8.34449E-03 8.96204E-04-4.16256E-14
 -1      3512 8.85336E-03 1.02051E-03-4.69716E-14
 -1      3513 8.71160E-03 9.94901E-04-4.53690E-14
 -1      3514 8.62544E-03 9.47546E-04-4.47548E-14
 -1      3515 9.13738E-03 1.07106E-03-5.02360E-14
 -1      3516 8.99528E-03 1.04590E-03-4.85948E-14
 -1      3517 8.90771E-03 9.98192E-04-4.79629E-14
 -1      3518 9.42194E-03 1.12069E-03-5.35673E-14
 -1      3519 9.27960E-03 1.09598E-03-5.18922E-14
 -1      3520 9.19098E-03 1.04804E-03-5.12445E-14
 -1      3521 9.70690E-03 1.16945E-03-5.69662E-14
 -1      3522 9.56437E-03 1.14517E-03-5.52594E-14
 -1      3523 9.47500E-03 1.09707E-03-5.45975E-14
 -1      3524 9.99213E-03 1.21742E-03-6.04272E-14
 -1      3525 9.84948E-03 1.19353E-03-5.86901E-14
 -1      3526 9.75956E-03 1.14532E-03-5.80163E-14
 -1      3527 1.02776E-02 1.26470E-03-6.39397E-14
 -1      3528 1.01348E-02 1.24114E-03-6.21769E-14
 -1      3529 1.00445E-02 1.19286E-03-6.14946E-14
 -1      3530 1.05631E-02 1.31138E-03-6.75057E-14
 -1      3531 1.04203E-02 1.28811E-03-6.57164E-14
 -1      3532 1.03298E-02 1.23980E-03-6.50235E-14
 -1      3533 1.08488E-02 1.35758E-03-7.11217E-14
 -1      3534 1.07059E-02 1.33454E-03-6.93078E-14
 -1      3535 1.06152E-02 1.28621E-03-6.86028E-14
 -1      3536 1.11345E-02 1.40338E-03-7.47883E-14
 -1      3537 1.09916E-02 1.38052E-03-7.29487E-14
 -1      3538 1.09008E-02 1.33219E-03-7.22331E-14
 -1      3539 1.14202E-02 1.44885E-03-7.85011E-14
 -1      3540 1.12773E-02 1.42615E-03-7.66391E-14
 -1      3541 1.11865E-02 1.37782E-03-7.59124E-14
 -1      3542 1.17060E-02 1.49408E-03-8.22531E-14
 -1      3543 1.15631E-02 1.47150E-03-8.03731E-14
 -1      3544 1.14722E-02 1.42317E-03-7.96371E-14
 -1      3545 1.19917E-02 1.53912E-03-8.60446E-14
 -1      3546 1.18488E-02 1.51662E-03-8.41432E-14
 -1      3547 1.17579E-02 1.46830E-03-8.33993E-14
 -1      3548 1.22775E-02 1.58401E-03-8.98755E-14
 -1      3549 1.21346E-02 1.56158E-03-8.79551E-14
 -1      3550 1.20437E-02 1.51327E-03-8.71995E-14
 -1      3551 1.25633E-02 1.62880E-03-9.37425E-14
 -1      3552 1.24204E-02 1.60641E-03-9.18050E-14
 -1      3553 1.23295E-02 1.55811E-03-9.10388E-14
 -1      3554 1.28490E-02 1.67350E-03-9.76435E-14
 -1      3555 1.27061E-02 1.65116E-03-9.56902E-14
 -1      3556 1.26153E-02 1.60286E-03-9.49153E-14
 -1      3557 1.31348E-02 1.71816E-03-1.01567E-13
 -1      3558 1.29919E-02 1.69584E-03-9.96014E-14
 -1      3559 1.29011E-02 1.64755E-03-9.88218E-14
 -1      3560 1.34205E-02 1.76278E-03-1.05512E-13
 -1      3561 1.32776E-02 1.74047E-03-1.03536E-13
 -1      3562 1.31868E-02 1.69219E-03-1.02752E-13
 -1      3563 1.37063E-02 1.80737E-03-1.09472E-13
 -1      3564 1.35634E-02 1.78508E-03-1.07490E-13
 -1      3565 1.34726E-02 1.73680E-03-1.06703E-13
 -1      3566 1.39920E-02 1.85196E-03-1.13450E-13
 -1      3567 1.38491E-02 1.82967E-03-1.11458E-13
 -1      3568 1.37583E-02 1.78139E-03-1.10669E-13
 -1      3569 1.38226E-02 1.45484E-03-1.16174E-13
 -1      3570 1.38445E-02 1.49700E-03-1.15958E-13
 -1      3571 8.73994E-04 1.38872E-05-1.19558E-15
 -1      3572 9.94520E-04 2.87217E-06-1.45077E-15
 -1      3573 8.45607E-04 3.14753E-05-1.18532E-15
 -1      3574 2.61150E-03-4.98187E-04-5.30774E-15
 -1      3575 1.42813E-02 1.86255E-03-1.17985E-13
 -1      3576 1.43060E-02 1.89898E-03-1.17874E-13
 -1      3577 1.42195E-02 1.88839E-03-1.16619E-13
 -1      3578 1.41467E-02 1.82234E-03-1.16366E-13
 -1      3579 1.87695E-03-1.38707E-04-3.58384E-15
 -1      3580 1.73084E-03-8.55576E-05-3.28765E-15
 -1      3581 5.77723E-03 5.61244E-04-1.68325E-14
 -1      3582 1.37788E-02 1.37050E-03-1.16602E-13
 -1      3583 1.38007E-02 1.41267E-03-1.16388E-13
 -1      3584 1.36879E-02 1.41445E-03-1.14544E-13
 -1      3585 6.35935E-03 5.88725E-04-2.15270E-14
 -1      3586 6.22200E-03 5.76234E-04-2.03476E-14
 -1      3587 6.45062E-03 5.62869E-04-2.22794E-14
 -1      3588 6.08317E-03 5.67031E-04-1.91949E-14
 -1      3589 5.94056E-03 5.62852E-04-1.80680E-14
 -1      3590 6.19018E-03 5.32905E-04-1.99150E-14
 -1      3591 6.10348E-03 4.27813E-04-1.84577E-14
 -1      3592 6.15862E-03 4.07088E-04-1.88503E-14
 -1      3593 7.17497E-03 7.09943E-04-2.91552E-14
 -1      3594 7.03824E-03 6.86119E-04-2.78194E-14
 -1      3595 7.24275E-03 6.91375E-04-2.99973E-14
 -1      3596 5.44264E-03 1.07936E-04-1.72726E-14
 -1      3597 5.26043E-03 1.58754E-05-1.68253E-14
 -1      3598 1.37350E-02 1.28617E-03-1.17022E-13
 -1      3599 1.37569E-02 1.32834E-03-1.16814E-13
 -1      3600 1.36441E-02 1.33011E-03-1.14968E-13
 -1      3601 1.18546E-03 1.24944E-04-2.38931E-15
 -1      3602 1.25134E-03 1.39762E-04-2.40752E-15
 -1      3603 6.17676E-03 3.79481E-04-1.91405E-14
 -1      3604 6.13398E-03 3.54999E-04-1.91694E-14
 -1      3605 1.09245E-03-1.48085E-04-1.30766E-15
 -1      3606 5.99852E-03 3.15097E-04-1.86360E-14
 -1      3607 5.86318E-03 2.79214E-04-1.81164E-14
 -1      3608 1.15408E-03 1.09008E-04-2.41853E-15
 -1      3609 1.15556E-03 1.15341E-04-2.40671E-15
 -1      3610 5.74338E-03 2.36187E-04-1.78991E-14
 -1      3611 5.61077E-03 1.82084E-04-1.76791E-14
 -1      3612 5.85818E-03 2.54118E-04-1.88602E-14
 -1      3613 1.73341E-03 3.15539E-04-2.65479E-15
 -1      3614 9.93735E-04 1.15151E-04-1.35018E-15
 -1      3615 1.52924E-03-1.29879E-05-2.92476E-15
 -1      3616 1.41213E-03 3.06320E-05-2.76674E-15
 -1      3617 1.58935E-03 2.68081E-04-2.40538E-15
 -1      3618 9.25548E-04 4.42451E-05-1.42521E-15
 -1      3619 5.90973E-03 5.11777E-04-1.75175E-14
 -1      3620 6.01814E-03 4.71436E-04-1.80695E-14
 -1      3621 1.33463E-03-1.74502E-04-1.84549E-15
 -1      3622 1.47675E-03-2.00205E-04-2.17120E-15
 -1      3623 2.10885E-03-2.72935E-04-3.96989E-15
 -1      3624 1.57213E-03 3.01780E-04-2.01578E-15
 -1      3625 4.78295E-03-2.32889E-04-1.50428E-14
 -1      3626 1.35288E-02 1.17379E-03-1.15181E-13
 -1      3627 1.36525E-02 1.19156E-03-1.16942E-13
 -1      3628 1.36832E-02 1.21926E-03-1.17073E-13
 -1      3629 1.34767E-02 1.19977E-03-1.13998E-13
 -1      3630 6.97527E-03 6.44067E-04-2.73235E-14
 -1      3631 1.30051E-03 4.29752E-05-2.48223E-15
 -1      3632 5.21668E-03-3.47620E-05-1.70752E-14
 -1      3633 5.04336E-03-9.64761E-05-1.61084E-14
 -1      3634 1.37315E-02 1.49852E-03-1.14114E-13
 -1      3635 1.38662E-02 1.53891E-03-1.15741E-13
 -1      3636 1.38880E-02 1.58081E-03-1.15522E-13
 -1      3637 6.24110E-03 4.03680E-04-1.98723E-14
 -1      3638 1.41329E-02 1.87780E-03-1.15365E-13
 -1      3639 2.00589E-03-2.04571E-04-3.80887E-15
 -1      3640 1.88806E-03-1.99601E-04-3.42566E-15
 -1      3641 1.07831E-03 1.73262E-05-1.71808E-15
 -1      3642 1.12441E-03-1.27260E-05-1.73110E-15
 -1      3643 1.40057E-02 1.79650E-03-1.14447E-13
 -1      3644 1.40421E-02 1.82952E-03-1.14572E-13
 -1      3645 1.12920E-03 1.42268E-04-1.61630E-15
 -1      3646 1.03473E-03 1.11684E-04-1.59185E-15
 -1      3647 9.58558E-04 8.06443E-05-1.62039E-15
 -1      3648 9.69099E-04 7.13809E-05-1.64243E-15
 -1      3649 1.16113E-03 1.29008E-04-2.01434E-15
 -1      3650 1.25872E-03 1.46846E-04-2.26311E-15
 -1      3651 6.14370E-03 4.72908E-04-1.91748E-14
 -1      3652 3.61331E-03 1.28252E-03-6.96702E-15
 -1      3653 5.58532E-03 1.41916E-04-1.82225E-14
 -1      3654 1.62557E-03-2.28018E-04-2.53051E-15
 -1      3655 1.79267E-03-2.62429E-04-2.95631E-15
 -1      3656 1.12130E-03 1.12818E-04-2.16794E-15
 -1      3657 6.23867E-03 3.63747E-04-2.06288E-14
 -1      3658 6.12443E-03 3.40380E-04-1.96248E-14
 -1      3659 6.10593E-03 3.21860E-04-2.00809E-14
 -1      3660 1.56973E-03-6.03006E-05-2.85763E-15
 -1      3661 1.39618E-02 1.71218E-03-1.14910E-13
 -1      3662 1.39838E-02 1.75434E-03-1.14680E-13
 -1      3663 1.38792E-02 1.76152E-03-1.12892E-13
 -1      3664 1.28386E-03 1.62007E-04-2.12607E-15
 -1      3665 1.83145E-03-2.23860E-04-3.17129E-15
 -1      3666 1.37139E-02 1.24696E-03-1.17200E-13
 -1      3667 1.51453E-03-1.65133E-04-2.36038E-15
 -1      3668 1.24909E-03 1.84435E-04-1.67241E-15
 -1      3669 1.27964E-03 1.73188E-04-1.94705E-15
 -1      3670 1.42448E-03 2.11453E-04-2.19120E-15
 -1      3671 1.40830E-03 2.41187E-04-1.82566E-15
 -1      3672 1.36011E-02 1.24873E-03-1.15355E-13
 -1      3673 1.29446E-03-6.46432E-05-2.02343E-15
 -1      3674 1.19609E-03-7.59545E-05-1.72754E-15
 -1      3675 8.12224E-03 8.24781E-04-3.95073E-14
 -1      3676 7.98421E-03 7.99277E-04-3.80070E-14
 -1      3677 5.38684E-03 1.32904E-05-1.81861E-14
 -1      3678 1.34978E-02 1.23899E-03-1.13822E-13
 -1      3679 5.98668E-03 2.74653E-04-1.99317E-14
 -1      3680 5.88074E-03 2.33357E-04-1.97041E-14
 -1      3681 1.39098E-02 1.62271E-03-1.15302E-13
 -1      3682 1.39316E-02 1.66461E-03-1.15080E-13
 -1      3683 1.37751E-02 1.58232E-03-1.13681E-13
 -1      3684 7.04349E-03 6.26598E-04-2.81406E-14
 -1      3685 6.91375E-03 6.03941E-04-2.68265E-14
 -1      3686 5.54952E-03 5.19764E-05-1.93243E-14
 -1      3687 5.70587E-03 8.55630E-05-2.04869E-14
 -1      3688 5.58322E-03 1.01300E-04-1.89366E-14
 -1      3689 5.85682E-03 1.14132E-04-2.16741E-14
 -1      3690 6.00398E-03 1.39983E-04-2.28875E-14
 -1      3691 5.88169E-03 1.56160E-04-2.12689E-14
 -1      3692 6.14781E-03 1.63210E-04-2.41260E-14
 -1      3693 6.28954E-03 1.85055E-04-2.53892E-14
 -1      3694 6.16410E-03 1.99627E-04-2.37008E-14
 -1      3695 6.42945E-03 2.05592E-04-2.66782E-14
 -1      3696 6.56837E-03 2.25399E-04-2.79927E-14
 -1      3697 6.43841E-03 2.38245E-04-2.62338E-14
 -1      3698 6.70644E-03 2.44568E-04-2.93312E-14
 -1      3699 6.84418E-03 2.63372E-04-3.06924E-14
 -1      3700 6.70941E-03 2.74981E-04-2.88659E-14
 -1      3701 6.98167E-03 2.81905E-04-3.20793E-14
 -1      3702 7.11921E-03 3.00291E-04-3.34908E-14
 -1      3703 6.97983E-03 3.11167E-04-3.15954E-14
 -1      3704 7.25683E-03 3.18620E-04-3.49252E-14
 -1      3705 7.39472E-03 3.36941E-04-3.63831E-14
 -1      3706 7.25115E-03 3.47459E-04-3.44221E-14
 -1      3707 7.53286E-03 3.55334E-04-3.78631E-14
 -1      3708 7.67136E-03 3.73811E-04-3.93662E-14
 -1      3709 7.52411E-03 3.84208E-04-3.73429E-14
 -1      3710 7.81018E-03 3.92439E-04-4.08915E-14
 -1      3711 7.94937E-03 4.11209E-04-4.24365E-14
 -1      3712 7.79899E-03 4.21613E-04-4.03528E-14
 -1      3713 8.08891E-03 4.30174E-04-4.40028E-14
 -1      3714 8.22880E-03 4.49315E-04-4.55903E-14
 -1      3715 8.07580E-03 4.59780E-04-4.34480E-14
 -1      3716 8.36901E-03 4.68669E-04-4.71985E-14
 -1      3717 8.50954E-03 4.88214E-04-4.88247E-14
 -1      3718 8.35440E-03 4.98750E-04-4.66250E-14
 -1      3719 8.65035E-03 5.07973E-04-5.04692E-14
 -1      3720 8.79143E-03 5.27924E-04-5.21338E-14
 -1      3721 8.63457E-03 5.38520E-04-4.98813E-14
 -1      3722 8.93275E-03 5.48079E-04-5.38147E-14
 -1      3723 9.07428E-03 5.68415E-04-5.55107E-14
 -1      3724 8.91608E-03 5.79050E-04-5.32104E-14
 -1      3725 9.21601E-03 5.88939E-04-5.72248E-14
 -1      3726 9.35792E-03 6.09628E-04-5.89542E-14
 -1      3727 9.19868E-03 6.20279E-04-5.66076E-14
 -1      3728 9.49997E-03 6.30483E-04-6.06968E-14
 -1      3729 9.64216E-03 6.51485E-04-6.24558E-14
 -1      3730 9.48215E-03 6.62133E-04-6.00680E-14
 -1      3731 9.78447E-03 6.72629E-04-6.42281E-14
 -1      3732 9.92688E-03 6.93900E-04-6.60121E-14
 -1      3733 9.76629E-03 7.04530E-04-6.35869E-14
 -1      3734 1.00694E-02 7.15290E-04-6.78073E-14
 -1      3735 1.02120E-02 7.36788E-04-6.96150E-14
 -1      3736 1.00510E-02 7.47391E-04-6.71565E-14
 -1      3737 1.03546E-02 7.58384E-04-7.14337E-14
 -1      3738 1.04973E-02 7.80068E-04-7.32618E-14
 -1      3739 1.03360E-02 7.90638E-04-7.07722E-14
 -1      3740 1.06400E-02 8.01832E-04-7.51016E-14
 -1      3741 1.07828E-02 8.23668E-04-7.69517E-14
 -1      3742 1.06213E-02 8.34203E-04-7.44333E-14
 -1      3743 1.09256E-02 8.45568E-04-7.88104E-14
 -1      3744 1.10684E-02 8.67524E-04-8.06798E-14
 -1      3745 1.09068E-02 8.78024E-04-7.81323E-14
 -1      3746 1.12113E-02 8.89529E-04-8.25577E-14
 -1      3747 1.13541E-02 9.11580E-04-8.44442E-14
 -1      3748 1.11924E-02 9.22047E-04-8.18716E-14
 -1      3749 1.14970E-02 9.33668E-04-8.63389E-14
 -1      3750 1.16399E-02 9.55790E-04-8.82423E-14
 -1      3751 1.14782E-02 9.66229E-04-8.56453E-14
 -1      3752 1.17828E-02 9.77941E-04-9.01566E-14
 -1      3753 1.19257E-02 1.00012E-03-9.20787E-14
 -1      3754 1.17639E-02 1.01053E-03-8.94551E-14
 -1      3755 1.20686E-02 1.02232E-03-9.40106E-14
 -1      3756 1.22115E-02 1.04453E-03-9.59501E-14
 -1      3757 1.20497E-02 1.05492E-03-9.33016E-14
 -1      3758 1.23544E-02 1.06677E-03-9.78986E-14
 -1      3759 1.24973E-02 1.08901E-03-9.98544E-14
 -1      3760 1.23355E-02 1.09938E-03-9.71832E-14
 -1      3761 1.26402E-02 1.11127E-03-1.01817E-13
 -1      3762 1.27831E-02 1.13353E-03-1.03787E-13
 -1      3763 1.26213E-02 1.14389E-03-1.01096E-13
 -1      3764 1.29259E-02 1.15581E-03-1.05765E-13
 -1      3765 1.30688E-02 1.17809E-03-1.07751E-13
 -1      3766 1.29071E-02 1.18843E-03-1.05039E-13
 -1      3767 1.32117E-02 1.20037E-03-1.09739E-13
 -1      3768 1.33546E-02 1.22266E-03-1.11735E-13
 -1      3769 1.31929E-02 1.23300E-03-1.09008E-13
 -1      3770 6.78559E-03 5.82277E-04-2.55382E-14
 -1      3771 6.65867E-03 5.61542E-04-2.42731E-14
 -1      3772 6.85320E-03 5.65766E-04-2.63289E-14
 -1      3773 1.34790E-02 1.27162E-03-1.13088E-13
 -1      3774 1.14317E-03 8.40061E-05-2.23416E-15
 -1      3775 1.14636E-03 9.97394E-05-2.34267E-15
 -1      3776 9.97116E-04 5.93390E-05-1.67352E-15
 -1      3777 1.03155E-03 4.12507E-05-1.69100E-15
 -1      3778 1.15132E-03 3.38248E-05-1.99207E-15
 -1      3779 1.05988E-03 7.44681E-05-1.92627E-15
 -1      3780 7.84694E-03 7.73842E-04-3.65298E-14
 -1      3781 7.71044E-03 7.48470E-04-3.50731E-14
 -1      3782 7.90375E-03 7.55277E-04-3.74311E-14
 -1      3783 7.57489E-03 7.23333E-04-3.36403E-14
 -1      3784 7.44028E-03 6.98419E-04-3.22300E-14
 -1      3785 7.63332E-03 7.05729E-04-3.45153E-14
 -1      3786 8.40012E-03 8.75638E-04-4.25757E-14
 -1      3787 8.26088E-03 8.50232E-04-4.10309E-14
 -1      3788 8.17781E-03 8.05194E-04-4.04352E-14
 -1      3789 8.68005E-03 9.26074E-04-4.57251E-14
 -1      3790 8.53985E-03 9.00914E-04-4.41398E-14
 -1      3791 8.45474E-03 8.55046E-04-4.35269E-14
 -1      3792 8.96154E-03 9.75895E-04-4.89555E-14
 -1      3793 8.82061E-03 9.51062E-04-4.73302E-14
 -1      3794 8.73392E-03 9.04546E-04-4.67001E-14
 -1      3795 9.24423E-03 1.02501E-03-5.22586E-14
 -1      3796 9.10275E-03 1.00054E-03-5.05998E-14
 -1      3797 9.01486E-03 9.53528E-04-4.99518E-14
 -1      3798 9.52783E-03 1.07342E-03-5.56316E-14
 -1      3799 9.38593E-03 1.04930E-03-5.39367E-14
 -1      3800 9.29713E-03 1.00192E-03-5.32763E-14
 -1      3801 9.81209E-03 1.12115E-03-5.90688E-14
 -1      3802 9.66988E-03 1.09737E-03-5.73418E-14
 -1      3803 9.58043E-03 1.04970E-03-5.66687E-14
 -1      3804 1.00968E-02 1.16827E-03-6.25626E-14
 -1      3805 9.95442E-03 1.14478E-03-6.08086E-14
 -1      3806 9.86448E-03 1.09692E-03-6.01231E-14
 -1      3807 1.03820E-02 1.21486E-03-6.61060E-14
 -1      3808 1.02394E-02 1.19163E-03-6.43279E-14
 -1      3809 1.01491E-02 1.14362E-03-6.36323E-14
 -1      3810 1.06673E-02 1.26100E-03-6.97009E-14
 -1      3811 1.05246E-02 1.23798E-03-6.78970E-14
 -1      3812 1.04341E-02 1.18987E-03-6.71915E-14
 -1      3813 1.09528E-02 1.30677E-03-7.33452E-14
 -1      3814 1.08101E-02 1.28393E-03-7.15175E-14
 -1      3815 1.07194E-02 1.23575E-03-7.08015E-14
 -1      3816 1.12385E-02 1.35223E-03-7.70385E-14
 -1      3817 1.10957E-02 1.32953E-03-7.51866E-14
 -1      3818 1.10049E-02 1.28131E-03-7.44591E-14
 -1      3819 1.15242E-02 1.39746E-03-8.07742E-14
 -1      3820 1.13813E-02 1.37488E-03-7.89009E-14
 -1      3821 1.12905E-02 1.32662E-03-7.81653E-14
 -1      3822 1.18100E-02 1.44251E-03-8.45446E-14
 -1      3823 1.16671E-02 1.42001E-03-8.26546E-14
 -1      3824 1.15762E-02 1.37173E-03-8.19104E-14
 -1      3825 1.20957E-02 1.48741E-03-8.83571E-14
 -1      3826 1.19528E-02 1.46497E-03-8.64463E-14
 -1      3827 1.18620E-02 1.41669E-03-8.56927E-14
 -1      3828 1.23815E-02 1.53221E-03-9.22020E-14
 -1      3829 1.22386E-02 1.50982E-03-9.02750E-14
 -1      3830 1.21478E-02 1.46153E-03-8.95123E-14
 -1      3831 1.26673E-02 1.57693E-03-9.60873E-14
 -1      3832 1.25244E-02 1.55457E-03-9.41402E-14
 -1      3833 1.24336E-02 1.50629E-03-9.33671E-14
 -1      3834 1.29531E-02 1.62159E-03-9.99993E-14
 -1      3835 1.28102E-02 1.59926E-03-9.80404E-14
 -1      3836 1.27194E-02 1.55098E-03-9.72585E-14
 -1      3837 1.32389E-02 1.66622E-03-1.03937E-13
 -1      3838 1.30960E-02 1.64391E-03-1.01964E-13
 -1      3839 1.30052E-02 1.59562E-03-1.01178E-13
 -1      3840 1.35246E-02 1.71082E-03-1.07894E-13
 -1      3841 1.33818E-02 1.68852E-03-1.05912E-13
 -1      3842 1.32910E-02 1.64024E-03-1.05123E-13
 -1      3843 1.37734E-02 1.74732E-03-1.11382E-13
 -1      3844 1.36305E-02 1.72503E-03-1.09395E-13
 -1      3845 1.35397E-02 1.67675E-03-1.08602E-13
 -1      3846 1.37514E-02 1.70516E-03-1.11613E-13
 -1      3847 1.07751E-03 1.13377E-04-1.81420E-15
 -1      3848 9.67498E-04 9.48572E-05-1.52585E-15
 -1      3849 9.49250E-04 8.59566E-05-1.55215E-15
 -1      3850 1.08647E-03 1.10277E-04-1.94210E-15
 -1      3851 1.24057E-03-1.18336E-04-1.73266E-15
 -1      3852 7.30682E-03 6.73957E-04-3.08428E-14
 -1      3853 7.17447E-03 6.49924E-04-2.94805E-14
 -1      3854 7.36738E-03 6.57138E-04-3.16923E-14
 -1      3855 1.01691E-03 9.21378E-05-1.81683E-15
 -1      3856 6.31458E-03 4.33523E-04-2.07041E-14
 -1      3857 6.32392E-03 4.04064E-04-2.10067E-14
 -1      3858 6.26161E-03 4.88195E-04-2.03275E-14
 -1      3859 6.53354E-03 5.42078E-04-2.30357E-14
 -1      3860 6.40938E-03 5.23758E-04-2.18257E-14
 -1      3861 6.60734E-03 5.24501E-04-2.37978E-14
 -1      3862 1.23052E-03 3.62979E-05-2.23258E-15
 -1      3863 1.16326E-03 6.69143E-05-2.19371E-15
 -1      3864 1.20380E-03-1.46793E-04-1.57486E-15
 -1      3865 1.05862E-03 1.01102E-04-1.95654E-15
 -1      3866 1.35532E-02 1.37406E-03-1.12915E-13
 -1      3867 1.35751E-02 1.41623E-03-1.12702E-13
 -1      3868 1.35009E-02 1.31378E-03-1.12879E-13
 -1      3869 1.71813E-03-1.66258E-04-2.97104E-15
 -1      3870 1.08736E-03 9.61392E-05-2.11016E-15
 -1      3871 5.73210E-03 1.68916E-04-1.93613E-14
 -1      3872 6.34335E-03 4.69232E-04-2.10508E-14
 -1      3873 5.87917E-03 1.98244E-04-2.04449E-14
 -1      3874 6.13494E-03 3.07334E-04-2.09503E-14
 -1      3875 1.38271E-02 1.67179E-03-1.13293E-13
 -1      3876 7.10696E-03 6.10223E-04-2.89617E-14
 -1      3877 1.39158E-03-7.36756E-05-2.26944E-15
 -1      3878 1.52874E-03-8.89003E-05-2.63042E-15
 -1      3879 1.34621E-02 1.41774E-03-1.10867E-13
 -1      3880 1.35968E-02 1.45813E-03-1.12490E-13
 -1      3881 1.36186E-02 1.50003E-03-1.12276E-13
 -1      3882 6.45191E-03 4.67557E-04-2.22176E-14
 -1      3883 1.33881E-02 1.31556E-03-1.11041E-13
 -1      3884 6.34130E-03 3.91170E-04-2.14852E-14
 -1      3885 6.34912E-03 3.77234E-04-2.19635E-14
 -1      3886 6.43651E-03 4.20154E-04-2.23499E-14
 -1      3887 1.58374E-03 2.85546E-04-2.20772E-15
 -1      3888 1.36404E-02 1.54193E-03-1.12060E-13
 -1      3889 1.36622E-02 1.58383E-03-1.11844E-13
 -1      3890 1.35057E-02 1.50154E-03-1.10442E-13
 -1      3891 1.29627E-03 9.26271E-07-2.26526E-15
 -1      3892 6.01537E-03 2.17847E-04-2.16301E-14
 -1      3893 6.14875E-03 2.35751E-04-2.28410E-14
 -1      3894 6.28135E-03 2.53238E-04-2.40756E-14
 -1      3895 6.14051E-03 2.70903E-04-2.19857E-14
 -1      3896 6.41283E-03 2.70237E-04-2.53365E-14
 -1      3897 6.54433E-03 2.87352E-04-2.66208E-14
 -1      3898 6.39114E-03 3.00926E-04-2.44449E-14
 -1      3899 6.67566E-03 3.04507E-04-2.79307E-14
 -1      3900 6.80748E-03 3.21862E-04-2.92647E-14
 -1      3901 6.64405E-03 3.32551E-04-2.70021E-14
 -1      3902 6.93962E-03 3.39430E-04-3.06239E-14
 -1      3903 7.07244E-03 3.57222E-04-3.20071E-14
 -1      3904 6.90057E-03 3.66198E-04-2.96590E-14
 -1      3905 7.20581E-03 3.75278E-04-3.34141E-14
 -1      3906 7.33993E-03 3.93555E-04-3.48452E-14
 -1      3907 7.16112E-03 4.01649E-04-3.24126E-14
 -1      3908 7.47468E-03 4.12104E-04-3.62992E-14
 -1      3909 7.61017E-03 4.30867E-04-3.77766E-14
 -1      3910 7.42563E-03 4.38640E-04-3.52621E-14
 -1      3911 7.74629E-03 4.49892E-04-3.92755E-14
 -1      3912 7.88311E-03 4.69120E-04-4.07968E-14
 -1      3913 7.69386E-03 4.76925E-04-3.82051E-14
 -1      3914 8.02051E-03 4.88593E-04-4.23371E-14
 -1      3915 8.15852E-03 5.08259E-04-4.39001E-14
 -1      3916 7.96542E-03 5.16296E-04-4.12344E-14
 -1      3917 8.29706E-03 5.28149E-04-4.54852E-14
 -1      3918 8.43613E-03 5.48218E-04-4.70880E-14
 -1      3919 8.23990E-03 5.56580E-04-4.43501E-14
 -1      3920 8.57564E-03 5.68490E-04-4.87091E-14
 -1      3921 8.71559E-03 5.88925E-04-5.03509E-14
 -1      3922 8.51686E-03 5.97635E-04-4.75440E-14
 -1      3923 8.85591E-03 6.09540E-04-5.20114E-14
 -1      3924 8.99659E-03 6.30302E-04-5.36877E-14
 -1      3925 8.79588E-03 6.39341E-04-5.08166E-14
 -1      3926 9.13757E-03 6.51220E-04-5.53830E-14
 -1      3927 9.27883E-03 6.72268E-04-5.70940E-14
 -1      3928 9.07659E-03 6.81598E-04-5.41625E-14
 -1      3929 9.42033E-03 6.93451E-04-5.88187E-14
 -1      3930 9.56205E-03 7.14746E-04-6.05592E-14
 -1      3931 9.35864E-03 7.24318E-04-5.75747E-14
 -1      3932 9.70396E-03 7.36154E-04-6.23152E-14
 -1      3933 9.84603E-03 7.57658E-04-6.40841E-14
 -1      3934 9.64173E-03 7.67424E-04-6.10488E-14
 -1      3935 9.98825E-03 7.79256E-04-6.58642E-14
 -1      3936 1.01306E-02 8.00935E-04-6.76582E-14
 -1      3937 9.92563E-03 8.10848E-04-6.45768E-14
 -1      3938 1.02730E-02 8.22690E-04-6.94632E-14
 -1      3939 1.04156E-02 8.44512E-04-7.12798E-14
 -1      3940 1.02101E-02 8.54534E-04-6.81558E-14
 -1      3941 1.05582E-02 8.66395E-04-7.31082E-14
 -1      3942 1.07008E-02 8.88332E-04-7.49449E-14
 -1      3943 1.04951E-02 8.98433E-04-7.17844E-14
 -1      3944 1.08436E-02 9.10318E-04-7.67916E-14
 -1      3945 1.09863E-02 9.32347E-04-7.86498E-14
 -1      3946 1.07803E-02 9.42500E-04-7.54536E-14
 -1      3947 1.11291E-02 9.54414E-04-8.05172E-14
 -1      3948 1.12719E-02 9.76516E-04-8.23917E-14
 -1      3949 1.10658E-02 9.86702E-04-7.91622E-14
 -1      3950 1.14148E-02 9.98646E-04-8.42766E-14
 -1      3951 1.15577E-02 1.02080E-03-8.61701E-14
 -1      3952 1.13515E-02 1.03101E-03-8.29102E-14
 -1      3953 1.17005E-02 1.04298E-03-8.80705E-14
 -1      3954 1.18434E-02 1.06518E-03-8.99829E-14
 -1      3955 1.16372E-02 1.07540E-03-8.66911E-14
 -1      3956 1.19863E-02 1.08739E-03-9.19039E-14
 -1      3957 1.21292E-02 1.10962E-03-9.38347E-14
 -1      3958 1.19230E-02 1.11984E-03-9.05090E-14
 -1      3959 1.22721E-02 1.13187E-03-9.57728E-14
 -1      3960 1.24151E-02 1.15412E-03-9.77183E-14
 -1      3961 1.22088E-02 1.16434E-03-9.43651E-14
 -1      3962 1.25580E-02 1.17638E-03-9.96738E-14
 -1      3963 1.27009E-02 1.19865E-03-1.01636E-13
 -1      3964 1.24946E-02 1.20886E-03-9.82546E-14
 -1      3965 1.28438E-02 1.22092E-03-1.03607E-13
 -1      3966 1.29867E-02 1.24320E-03-1.05586E-13
 -1      3967 1.27804E-02 1.25341E-03-1.02177E-13
 -1      3968 1.31159E-02 1.26824E-03-1.07314E-13
 -1      3969 1.32588E-02 1.29052E-03-1.09303E-13
 -1      3970 1.33111E-02 1.35080E-03-1.09340E-13
 -1      3971 1.30526E-02 1.30073E-03-1.05876E-13
 -1      3972 6.91467E-03 5.50710E-04-2.71245E-14
 -1      3973 6.79233E-03 5.29650E-04-2.58321E-14
 -1      3974 1.08465E-03 7.41721E-05-2.00004E-15
 -1      3975 7.68931E-03 6.88291E-04-3.53948E-14
 -1      3976 7.55629E-03 6.64319E-04-3.39577E-14
 -1      3977 8.78711E-03 8.82923E-04-4.76775E-14
 -1      3978 8.64748E-03 8.58684E-04-4.60697E-14
 -1      3979 9.06769E-03 9.31060E-04-5.09515E-14
 -1      3980 8.92719E-03 9.07042E-04-4.93054E-14
 -1      3981 8.83968E-03 8.61103E-04-4.86595E-14
 -1      3982 9.34971E-03 9.78722E-04-5.42957E-14
 -1      3983 9.20854E-03 9.54948E-04-5.26155E-14
 -1      3984 9.12010E-03 9.08417E-04-5.19538E-14
 -1      3985 9.63281E-03 1.02590E-03-5.77062E-14
 -1      3986 9.49114E-03 1.00237E-03-5.59925E-14
 -1      3987 9.40199E-03 9.55374E-04-5.53183E-14
 -1      3988 9.91673E-03 1.07261E-03-6.11794E-14
 -1      3989 9.77468E-03 1.04930E-03-5.94362E-14
 -1      3990 9.68500E-03 1.00196E-03-5.87489E-14
 -1      3991 1.02012E-02 1.11890E-03-6.47055E-14
 -1      3992 1.00589E-02 1.09580E-03-6.29368E-14
 -1      3993 9.96886E-03 1.04818E-03-6.22395E-14
 -1      3994 1.04862E-02 1.16482E-03-6.82795E-14
 -1      3995 1.03437E-02 1.14190E-03-6.64854E-14
 -1      3996 1.02533E-02 1.09408E-03-6.57807E-14
 -1      3997 1.07715E-02 1.21044E-03-7.19020E-14
 -1      3998 1.06288E-02 1.18767E-03-7.00844E-14
 -1      3999 1.05383E-02 1.13970E-03-6.93675E-14
 -1      4000 1.10569E-02 1.25581E-03-7.55734E-14
 -1      4001 1.09142E-02 1.23315E-03-7.37326E-14
 -1      4002 1.08235E-02 1.18508E-03-7.30047E-14
 -1      4003 1.13426E-02 1.30097E-03-7.92912E-14
 -1      4004 1.11997E-02 1.27841E-03-7.74278E-14
 -1      4005 1.11090E-02 1.23026E-03-7.66902E-14
 -1      4006 1.16283E-02 1.34598E-03-8.30457E-14
 -1      4007 1.14854E-02 1.32349E-03-8.11633E-14
 -1      4008 1.13946E-02 1.27529E-03-8.04170E-14
 -1      4009 1.19140E-02 1.39085E-03-8.68398E-14
 -1      4010 1.17711E-02 1.36843E-03-8.49380E-14
 -1      4011 1.16803E-02 1.32019E-03-8.41833E-14
 -1      4012 1.21998E-02 1.43564E-03-9.06669E-14
 -1      4013 1.20569E-02 1.41326E-03-8.87495E-14
 -1      4014 1.19661E-02 1.36500E-03-8.79864E-14
 -1      4015 1.24856E-02 1.48036E-03-9.45331E-14
 -1      4016 1.23427E-02 1.45801E-03-9.25960E-14
 -1      4017 1.22519E-02 1.40973E-03-9.18256E-14
 -1      4018 1.27714E-02 1.52502E-03-9.84308E-14
 -1      4019 1.26285E-02 1.50269E-03-9.64768E-14
 -1      4020 1.25377E-02 1.45441E-03-9.56973E-14
 -1      4021 1.30572E-02 1.56965E-03-1.02357E-13
 -1      4022 1.29143E-02 1.54734E-03-1.00391E-13
 -1      4023 1.28235E-02 1.49906E-03-9.96030E-14
 -1      4024 1.33430E-02 1.61426E-03-1.06308E-13
 -1      4025 1.32001E-02 1.59196E-03-1.04331E-13
 -1      4026 1.31093E-02 1.54367E-03-1.03537E-13
 -1      4027 8.50839E-03 8.34376E-04-4.44823E-14
 -1      4028 8.36988E-03 8.09979E-04-4.29147E-14
 -1      4029 8.56118E-03 8.13495E-04-4.54401E-14
 -1      4030 7.95876E-03 7.36747E-04-3.83360E-14
 -1      4031 7.82349E-03 7.12420E-04-3.68544E-14
 -1      4032 7.74315E-03 6.70696E-04-3.62767E-14
 -1      4033 1.06852E-03 9.51649E-05-2.03428E-15
 -1      4034 7.42464E-03 6.40709E-04-3.25439E-14
 -1      4035 7.29444E-03 6.17390E-04-3.11535E-14
 -1      4036 7.47901E-03 6.24221E-04-3.33996E-14
 -1      4037 8.23205E-03 7.85567E-04-4.13667E-14
 -1      4038 8.09497E-03 7.61120E-04-3.98393E-14
 -1      4039 8.01218E-03 7.18015E-04-3.92446E-14
 -1      4040 8.28513E-03 7.65725E-04-4.23007E-14
 -1      4041 6.67693E-03 5.07534E-04-2.46223E-14
 -1      4042 6.56031E-03 4.87922E-04-2.33784E-14
 -1      4043 6.51370E-03 4.52650E-04-2.30135E-14
 -1      4044 6.73371E-03 4.93674E-04-2.53921E-14
 -1      4045 7.16594E-03 5.94626E-04-2.97863E-14
 -1      4046 7.03924E-03 5.72289E-04-2.84430E-14
 -1      4047 7.22100E-03 5.79149E-04-3.06135E-14
 -1      4048 1.36917E-02 1.62071E-03-1.11815E-13
 -1      4049 1.37219E-02 1.66828E-03-1.11648E-13
 -1      4050 1.36160E-02 1.65408E-03-1.10139E-13
 -1      4051 1.35570E-02 1.58032E-03-1.10201E-13
 -1      4052 1.05491E-03 8.66509E-05-1.96342E-15
 -1      4053 6.24943E-03 3.19548E-04-2.21455E-14
 -1      4054 1.33329E-02 1.39270E-03-1.09129E-13
 -1      4055 1.33546E-02 1.43460E-03-1.08918E-13
 -1      4056 1.32036E-02 1.36766E-03-1.07396E-13
 -1      4057 6.36012E-03 3.57138E-04-2.26630E-14
 -1      4058 6.38566E-03 3.28785E-04-2.37388E-14
 -1      4059 6.50616E-03 3.43212E-04-2.49911E-14
 -1      4060 6.47763E-03 3.88209E-04-2.35550E-14
 -1      4061 6.54118E-03 4.38702E-04-2.35146E-14
 -1      4062 1.35102E-02 1.63987E-03-1.08637E-13
 -1      4063 6.97069E-03 5.36097E-04-2.79240E-14
 -1      4064 1.34194E-02 1.59159E-03-1.07840E-13
 -1      4065 6.62799E-03 3.58630E-04-2.62667E-14
 -1      4066 6.75187E-03 3.74682E-04-2.75677E-14
 -1      4067 6.61078E-03 3.82337E-04-2.55332E-14
 -1      4068 6.87714E-03 3.91546E-04-2.88944E-14
 -1      4069 7.00409E-03 4.08931E-04-3.02450E-14
 -1      4070 6.85238E-03 4.15025E-04-2.81315E-14
 -1      4071 7.13235E-03 4.26961E-04-3.16189E-14
 -1      4072 7.26205E-03 4.45412E-04-3.30170E-14
 -1      4073 7.10234E-03 4.50739E-04-3.08281E-14
 -1      4074 7.39292E-03 4.64373E-04-3.44404E-14
 -1      4075 7.52503E-03 4.83664E-04-3.58856E-14
 -1      4076 7.35913E-03 4.88809E-04-3.36203E-14
 -1      4077 7.65818E-03 5.03353E-04-3.73548E-14
 -1      4078 7.79238E-03 5.23300E-04-3.88455E-14
 -1      4079 7.62161E-03 5.28671E-04-3.65068E-14
 -1      4080 7.92748E-03 5.43557E-04-4.03581E-14
 -1      4081 8.06347E-03 5.64014E-04-4.18922E-14
 -1      4082 7.88885E-03 5.69866E-04-3.94832E-14
 -1      4083 8.20023E-03 5.84713E-04-4.34474E-14
 -1      4084 8.33772E-03 6.05568E-04-4.50241E-14
 -1      4085 8.16003E-03 6.12035E-04-4.25478E-14
 -1      4086 8.47586E-03 6.26613E-04-4.66198E-14
 -1      4087 8.61460E-03 6.47779E-04-4.82324E-14
 -1      4088 8.43448E-03 6.54905E-04-4.56940E-14
 -1      4089 8.75387E-03 6.69094E-04-4.98677E-14
 -1      4090 8.89363E-03 6.90506E-04-5.15204E-14
 -1      4091 8.71159E-03 6.98276E-04-4.89206E-14
 -1      4092 9.03381E-03 7.12034E-04-5.31889E-14
 -1      4093 9.17437E-03 7.33639E-04-5.48785E-14
 -1      4094 8.99084E-03 7.42000E-04-5.22199E-14
 -1      4095 9.31527E-03 7.55336E-04-5.65842E-14
 -1      4096 9.45648E-03 7.77094E-04-5.83035E-14
 -1      4097 9.27180E-03 7.85973E-04-5.55922E-14
 -1      4098 9.59794E-03 7.98924E-04-6.00392E-14
 -1      4099 9.73964E-03 8.20804E-04-6.17879E-14
 -1      4100 9.55409E-03 8.30123E-04-5.90304E-14
 -1      4101 9.88153E-03 8.42740E-04-6.35509E-14
 -1      4102 1.00236E-02 8.64716E-04-6.53264E-14
 -1      4103 9.83739E-03 8.74395E-04-6.25262E-14
 -1      4104 1.01658E-02 8.86737E-04-6.71156E-14
 -1      4105 1.03081E-02 9.08789E-04-6.89156E-14
 -1      4106 1.01215E-02 9.18756E-04-6.60744E-14
 -1      4107 1.04506E-02 9.30876E-04-7.07267E-14
 -1      4108 1.05931E-02 9.52988E-04-7.25503E-14
 -1      4109 1.04061E-02 9.63180E-04-6.96712E-14
 -1      4110 1.07357E-02 9.75126E-04-7.43815E-14
 -1      4111 1.08784E-02 9.97285E-04-7.62258E-14
 -1      4112 1.06912E-02 1.00765E-03-7.33110E-14
 -1      4113 1.10212E-02 1.01946E-03-7.80798E-14
 -1      4114 1.11639E-02 1.04166E-03-7.99434E-14
 -1      4115 1.09765E-02 1.05215E-03-7.69969E-14
 -1      4116 1.13067E-02 1.06387E-03-8.18171E-14
 -1      4117 1.14496E-02 1.08609E-03-8.36984E-14
 -1      4118 1.12621E-02 1.09668E-03-8.07226E-14
 -1      4119 1.15924E-02 1.10833E-03-8.55880E-14
 -1      4120 1.17353E-02 1.13057E-03-8.74865E-14
 -1      4121 1.15477E-02 1.14122E-03-8.44848E-14
 -1      4122 1.18782E-02 1.15282E-03-8.93959E-14
 -1      4123 1.20211E-02 1.17508E-03-9.13144E-14
 -1      4124 1.18335E-02 1.18578E-03-8.82822E-14
 -1      4125 1.21640E-02 1.19735E-03-9.32429E-14
 -1      4126 1.23069E-02 1.21962E-03-9.51781E-14
 -1      4127 1.21193E-02 1.23034E-03-9.21188E-14
 -1      4128 1.24498E-02 1.24189E-03-9.71239E-14
 -1      4129 1.25928E-02 1.26417E-03-9.90764E-14
 -1      4130 1.24051E-02 1.27491E-03-9.59928E-14
 -1      4131 1.27357E-02 1.28645E-03-1.01038E-13
 -1      4132 1.28786E-02 1.30874E-03-1.03006E-13
 -1      4133 1.26909E-02 1.31949E-03-9.99007E-14
 -1      4134 1.29765E-02 1.32568E-03-1.04335E-13
 -1      4135 1.31057E-02 1.35072E-03-1.06060E-13
 -1      4136 1.31275E-02 1.39261E-03-1.05850E-13
 -1      4137 1.29317E-02 1.35872E-03-1.03191E-13
 -1      4138 9.17212E-03 8.85578E-04-5.29610E-14
 -1      4139 9.03170E-03 8.62341E-04-5.12936E-14
 -1      4140 9.45401E-03 9.31857E-04-5.63429E-14
 -1      4141 9.31290E-03 9.08746E-04-5.46433E-14
 -1      4142 9.22383E-03 8.62492E-04-5.39674E-14
 -1      4143 7.79506E-03 6.52848E-04-3.71620E-14
 -1      4144 7.66224E-03 6.30023E-04-3.56985E-14
 -1      4145 8.89171E-03 8.39061E-04-4.96450E-14
 -1      4146 8.75219E-03 8.15722E-04-4.80128E-14
 -1      4147 8.94328E-03 8.16726E-04-5.06316E-14
 -1      4148 9.73702E-03 9.77877E-04-5.97942E-14
 -1      4149 9.59539E-03 9.54897E-04-5.80613E-14
 -1      4150 9.50581E-03 9.08135E-04-5.73728E-14
 -1      4151 1.00209E-02 1.02364E-03-6.33016E-14
 -1      4152 9.87886E-03 1.00079E-03-6.15410E-14
 -1      4153 9.78890E-03 9.53628E-04-6.08420E-14
 -1      4154 1.03054E-02 1.06918E-03-6.68557E-14
 -1      4155 1.01631E-02 1.04644E-03-6.50732E-14
 -1      4156 1.00728E-02 9.98966E-04-6.43637E-14
 -1      4157 1.05903E-02 1.11450E-03-7.04593E-14
 -1      4158 1.04478E-02 1.09186E-03-6.86511E-14
 -1      4159 1.03574E-02 1.04416E-03-6.79339E-14
 -1      4160 1.08756E-02 1.15966E-03-7.41115E-14
 -1      4161 1.07329E-02 1.13710E-03-7.22787E-14
 -1      4162 1.06423E-02 1.08922E-03-7.15530E-14
 -1      4163 1.11611E-02 1.20467E-03-7.78073E-14
 -1      4164 1.10183E-02 1.18218E-03-7.59538E-14
 -1      4165 1.09276E-02 1.13417E-03-7.52181E-14
 -1      4166 1.14467E-02 1.24957E-03-8.15450E-14
 -1      4167 1.13039E-02 1.22714E-03-7.96721E-14
 -1      4168 1.12131E-02 1.17903E-03-7.89251E-14
 -1      4169 1.17324E-02 1.29438E-03-8.53204E-14
 -1      4170 1.15895E-02 1.27199E-03-8.34268E-14
 -1      4171 1.14988E-02 1.22382E-03-8.26732E-14
 -1      4172 1.20182E-02 1.33912E-03-8.91333E-14
 -1      4173 1.18753E-02 1.31676E-03-8.72231E-14
 -1      4174 1.17845E-02 1.26855E-03-8.64581E-14
 -1      4175 1.23040E-02 1.38381E-03-9.29821E-14
 -1      4176 1.21611E-02 1.36147E-03-9.10541E-14
 -1      4177 1.20703E-02 1.31323E-03-9.02806E-14
 -1      4178 1.25898E-02 1.42846E-03-9.68630E-14
 -1      4179 1.24469E-02 1.40614E-03-9.49179E-14
 -1      4180 1.23561E-02 1.35788E-03-9.41379E-14
 -1      4181 1.28756E-02 1.47309E-03-1.00777E-13
 -1      4182 1.27327E-02 1.45078E-03-9.88174E-14
 -1      4183 1.26419E-02 1.40250E-03-9.80298E-14
 -1      4184 1.31614E-02 1.51769E-03-1.04718E-13
 -1      4185 1.30185E-02 1.49539E-03-1.02746E-13
 -1      4186 1.29278E-02 1.44711E-03-1.01952E-13
 -1      4187 8.61321E-03 7.92367E-04-4.64013E-14
 -1      4188 8.47483E-03 7.68978E-04-4.48108E-14
 -1      4189 8.66460E-03 7.70900E-04-4.73680E-14
 -1      4190 6.79273E-03 4.82921E-04-2.62474E-14
 -1      4191 6.67935E-03 4.62267E-04-2.50295E-14
 -1      4192 7.53078E-03 6.07531E-04-3.42576E-14
 -1      4193 7.40081E-03 5.85303E-04-3.28389E-14
 -1      4194 7.58044E-03 5.90348E-04-3.51197E-14
 -1      4195 1.33899E-02 1.55471E-03-1.07868E-13
 -1      4196 6.59069E-03 4.28174E-04-2.43387E-14
 -1      4197 7.03411E-03 5.22422E-04-2.88737E-14
 -1      4198 6.91204E-03 5.02222E-04-2.75486E-14
 -1      4199 6.84967E-03 4.69568E-04-2.71687E-14
 -1      4200 1.33764E-02 1.47650E-03-1.08706E-13
 -1      4201 1.32991E-02 1.50643E-03-1.07068E-13
 -1      4202 7.27883E-03 5.64016E-04-3.15197E-14
 -1      4203 7.15235E-03 5.42662E-04-3.01474E-14
 -1      4204 7.08742E-03 5.07717E-04-2.97547E-14
 -1      4205 7.32750E-03 5.47903E-04-3.23543E-14
 -1      4206 6.61830E-03 4.09506E-04-2.50728E-14
 -1      4207 8.06416E-03 6.99012E-04-4.01574E-14
 -1      4208 7.92906E-03 6.75831E-04-3.86487E-14
 -1      4209 7.84538E-03 6.34534E-04-3.80511E-14
 -1      4210 1.31480E-02 1.43949E-03-1.05552E-13
 -1      4211 8.38829E-03 7.25125E-04-4.41792E-14
 -1      4212 8.33714E-03 7.45618E-04-4.32377E-14
 -1      4213 8.20022E-03 7.22266E-04-4.16867E-14
 -1      4214 8.96737E-03 7.79534E-04-5.14278E-14
 -1      4215 8.82769E-03 7.57138E-04-4.97771E-14
 -1      4216 6.85410E-03 4.43190E-04-2.76528E-14
 -1      4217 6.97604E-03 4.61174E-04-2.89806E-14
 -1      4218 7.09423E-03 4.79734E-04-3.02559E-14
 -1      4219 7.22033E-03 4.99073E-04-3.16301E-14
 -1      4220 7.34204E-03 5.18740E-04-3.29508E-14
 -1      4221 7.47150E-03 5.39108E-04-3.43711E-14
 -1      4222 7.60243E-03 5.59977E-04-3.58153E-14
 -1      4223 7.73470E-03 5.81103E-04-3.72800E-14
 -1      4224 7.86818E-03 6.02581E-04-3.87690E-14
 -1      4225 8.00274E-03 6.24231E-04-4.02799E-14
 -1      4226 8.13830E-03 6.46121E-04-4.18114E-14
 -1      4227 8.27473E-03 6.68118E-04-4.33643E-14
 -1      4228 8.41197E-03 6.90272E-04-4.49378E-14
 -1      4229 8.54992E-03 7.12486E-04-4.65322E-14
 -1      4230 8.68852E-03 7.34798E-04-4.81452E-14
 -1      4231 9.10749E-03 8.01938E-04-5.30951E-14
 -1      4232 9.24802E-03 8.24371E-04-5.47798E-14
 -1      4233 9.38890E-03 8.46799E-04-5.64838E-14
 -1      4234 9.53009E-03 8.69239E-04-5.82030E-14
 -1      4235 9.67155E-03 8.91668E-04-5.99362E-14
 -1      4236 9.81324E-03 9.14099E-04-6.16858E-14
 -1      4237 9.95513E-03 9.36516E-04-6.34459E-14
 -1      4238 1.00972E-02 9.58929E-04-6.52196E-14
 -1      4239 1.02394E-02 9.81329E-04-6.70058E-14
 -1      4240 1.03818E-02 1.00372E-03-6.88032E-14
 -1      4241 1.05242E-02 1.02610E-03-7.06122E-14
 -1      4242 1.06668E-02 1.04848E-03-7.24342E-14
 -1      4243 1.08094E-02 1.07084E-03-7.42652E-14
 -1      4244 1.09521E-02 1.09319E-03-7.61082E-14
 -1      4245 1.10948E-02 1.11554E-03-7.79620E-14
 -1      4246 1.12376E-02 1.13788E-03-7.98248E-14
 -1      4247 1.13804E-02 1.16021E-03-8.16994E-14
 -1      4248 1.15232E-02 1.18253E-03-8.35800E-14
 -1      4249 1.16661E-02 1.20486E-03-8.54698E-14
 -1      4250 1.18090E-02 1.22717E-03-8.73718E-14
 -1      4251 1.19519E-02 1.24948E-03-8.92819E-14
 -1      4252 1.20948E-02 1.27179E-03-9.12016E-14
 -1      4253 1.22377E-02 1.29410E-03-9.31296E-14
 -1      4254 1.23806E-02 1.31640E-03-9.50653E-14
 -1      4255 1.25235E-02 1.33870E-03-9.70120E-14
 -1      4256 1.26664E-02 1.36100E-03-9.89662E-14
 -1      4257 1.28093E-02 1.38330E-03-1.00928E-13
 -1      4258 6.73478E-03 4.25750E-04-2.63501E-14
 -1      4259 1.30501E-02 1.42254E-03-1.04222E-13
 -1      4260 1.29522E-02 1.40559E-03-1.02894E-13
 -1      4261 8.11497E-03 6.79581E-04-4.10733E-14
 -3
    1PSTEP                         2           1           1          
  100CL  101 1.000000000        4261                     0    1           1
 -4  STRESS      6    1
 -5  SXX         1    4    1    1
 -5  SYY         1    4    2    2
 -5  SZZ         1    4    3    3
 -5  SXY         1    4    1    2
 -5  SYZ         1    4    2    3
 -5  SZX         1    4    3    1
 -1         1 6.61839E+01 8.33813E-01 3.51949E+00 1.53335E-01-5.38805E-14 1.99030E-13
 -1         2-7.30029E-01-2.45061E+01-3.38050E+00 1.35102E-01 1.10489E-12 7.47943E-14
 -1         3 1.99998E+01 3.89613E-05-9.08033E-05 3.87204E-05-3.59961E-13-5.55319E-13
 -1         4 1.99998E+01 3.49535E-05-9.41093E-05-3.54552E-05 1.04832E-13 1.09251E-13
 -1         5 3.51600E+01 6.64890E+00 2.66419E+00 6.27187E+00-4.79686E-14 3.32886E-12
 -1         6 3.77383E+01 1.28607E+01 5.13058E+00-8.81070E+00-2.15494E-13 2.63550E-12
 -1         7 2.30249E+01 6.71071E+00-2.69974E-02-4.38085E+00-2.98928E-14 2.05676E-13
 -1         8 2.13876E+01 6.43886E+00 1.03822E-01-2.54785E+00-2.95944E-14-4.50965E-13
 -1         9 2.02492E+01 6.10279E+00 8.22877E-02-1.55813E+00-2.14967E-14-7.79612E-13
 -1        10 1.93015E+01 5.81481E+00 6.96035E-02-8.28298E-01-1.15880E-14-9.16124E-13
 -1        11 1.84139E+01 5.54654E+00 5.14911E-02-2.71884E-01-5.78010E-15-9.69649E-13
 -1        12 1.75924E+01 5.29902E+00 2.73423E-02 1.12947E-01 1.48492E-15-9.79636E-13
 -1        13 1.68664E+01 5.08149E+00-5.98450E-04 3.32446E-01 2.79290E-15-9.63801E-13
 -1        14 1.63458E+01 4.92603E+00-2.61022E-02 3.89626E-01 8.48800E-15-9.39709E-13
 -1        15 1.61317E+01 4.86254E+00-4.17844E-02 3.28233E-01 1.37487E-14-9.00737E-13
 -1        16 1.62938E+01 4.91173E+00-4.22628E-02 2.25497E-01 1.65146E-14-8.56345E-13
 -1        17 1.68448E+01 5.07703E+00-2.66581E-02 1.77008E-01 2.13891E-14-7.80939E-13
 -1        18 1.77181E+01 5.33972E+00 6.97645E-04 2.69408E-01 2.44735E-14-6.55173E-13
 -1        19 1.88656E+01 5.68465E+00 3.51423E-02 5.79592E-01 3.67206E-14-4.62838E-13
 -1        20 2.02012E+01 6.08682E+00 7.22016E-02 1.17067E+00 4.43395E-14-1.66530E-13
 -1        21 2.17339E+01 6.54782E+00 1.19415E-01 2.14723E+00 4.48669E-14 3.55274E-13
 -1        22 2.39062E+01 7.11835E+00 2.48117E-01 3.86805E+00 6.98053E-15 1.32185E-12
 -1        23 2.56776E+01-1.52687E+00-1.01514E+00-5.82623E-01-1.45464E-13 1.90566E-12
 -1        24 2.26882E+01-9.36343E-02-2.93905E-01 9.66102E-02-3.96835E-14 1.26891E-12
 -1        25 2.24501E+01-4.30137E-02-4.29996E-02 7.44397E-02-1.58231E-14 6.61055E-13
 -1        26 2.24312E+01-4.49785E-03 2.35292E-02 3.57852E-02-1.68204E-14 2.76477E-13
 -1        27 2.23048E+01 9.45734E-03 3.85248E-02 1.12165E-02-1.41958E-14 3.01018E-14
 -1        28 2.18821E+01 1.56959E-02 4.28834E-02-1.50464E-02-8.04164E-15-1.11093E-13
 -1        29 2.10709E+01 1.35450E-02 3.61569E-02-4.21680E-02-1.28492E-14-3.18943E-13
 -1        30 1.99217E+01 2.59784E-03 1.32818E-02-6.25971E-02 5.34544E-15-5.33577E-13
 -1        31 1.86645E+01-1.43226E-02-2.30223E-02-6.50572E-02-2.68803E-14-7.95343E-13
 -1        32 1.76682E+01-3.03573E-02-5.87879E-02-4.25555E-02-6.50283E-15-9.94715E-13
 -1        33 1.72940E+01-3.74784E-02-7.53712E-02-4.95388E-04 5.07834E-14-1.03543E-12
 -1        34 1.77080E+01-3.16832E-02-6.29934E-02 4.34018E-02-7.86762E-15-1.11420E-12
 -1        35 1.87830E+01-1.58608E-02-2.89871E-02 7.02577E-02-1.14050E-14-1.17983E-12
 -1        36 2.01710E+01 2.40370E-03 8.43227E-03 7.25351E-02 2.24809E-14-1.18670E-12
 -1        37 2.14848E+01 1.60025E-02 3.36392E-02 5.60190E-02-6.58458E-15-1.05942E-12
 -1        38 2.24564E+01 2.18971E-02 4.17483E-02 3.24237E-02-1.84768E-14-1.15057E-12
 -1        39 2.29893E+01 2.10601E-02 3.68832E-02 1.13017E-02-9.71011E-16-1.22977E-12
 -1        40 2.31230E+01 1.63391E-02 2.60576E-02-3.07582E-03-6.98898E-15-1.31498E-12
 -1        41 2.29638E+01 1.04692E-02 1.48084E-02-1.06051E-02 2.27172E-14-1.47841E-12
 -1        42 2.26288E+01 5.18056E-03 5.90563E-03-1.30834E-02 1.36416E-14-1.37883E-12
 -1        43 2.22156E+01 1.20378E-03 8.47532E-06-1.25607E-02-5.20958E-14-1.05865E-12
 -1        44 2.17921E+01-1.38642E-03-3.30210E-03-1.06226E-02 5.62540E-14-9.45531E-13
 -1        45 2.13996E+01-2.82478E-03-4.76904E-03-8.26874E-03-3.18116E-14-8.41790E-13
 -1        46 2.10586E+01-3.43025E-03-5.08231E-03-6.03200E-03-3.51724E-14-1.20284E-12
 -1        47 2.07759E+01-3.49483E-03-4.75696E-03-4.14268E-03 5.88058E-14-8.85910E-13
 -1        48 2.05500E+01-3.24492E-03-4.13308E-03-2.65989E-03-1.62164E-14-8.01067E-13
 -1        49 2.03752E+01-2.83919E-03-3.41591E-03-1.55811E-03 3.31500E-14-8.44302E-13
 -1        50 2.02437E+01-2.38037E-03-2.71886E-03-7.77641E-04-1.54986E-14-9.89299E-13
 -1        51 2.01476E+01-1.92994E-03-2.09745E-03-2.51161E-04-1.65748E-14-8.31178E-13
 -1        52 2.00796E+01-1.52107E-03-1.57281E-03 8.37429E-05-1.71801E-14-9.33328E-13
 -1        53 2.00331E+01-1.16852E-03-1.14686E-03 2.79742E-04 2.73206E-14-9.84794E-13
 -1        54 2.00027E+01-8.75828E-04-8.11626E-04 3.78812E-04 1.73415E-14-9.37531E-13
 -1        55 1.99842E+01-6.40077E-04-5.54857E-04 4.13059E-04-5.29464E-14-9.39635E-13
 -1        56 1.99739E+01-4.55089E-04-3.63165E-04 4.06229E-04 3.92560E-14-1.01097E-12
 -1        57 1.99694E+01-3.13387E-04-2.23749E-04 3.75342E-04-3.53043E-14-8.86325E-13
 -1        58 1.99687E+01-2.07372E-04-1.25220E-04 3.32208E-04 1.47407E-14-7.03039E-13
 -1        59 1.99703E+01-1.29977E-04-5.79066E-05 2.84717E-04 2.82923E-16-7.99594E-13
 -1        60 1.99732E+01-7.49756E-05-1.38725E-05 2.37892E-04-6.42711E-14-3.90120E-13
 -1        61 1.99768E+01-3.70901E-05 1.32254E-05 1.94714E-04-7.93118E-14-8.68098E-13
 -1        62 1.99805E+01-1.19668E-05 2.83499E-05 1.56755E-04-7.89466E-14-1.11523E-12
 -1        63 1.99841E+01 3.91186E-06 3.53230E-05 1.24645E-04 1.57937E-14-1.24130E-12
 -1        64 1.99875E+01 1.33522E-05 3.70745E-05 9.83985E-05-1.28471E-13-9.74138E-13
 -1        65 1.99904E+01 1.85845E-05 3.58988E-05 7.76279E-05-2.78435E-14-3.67810E-13
 -1        66 1.99931E+01 2.13932E-05 3.37478E-05 6.16331E-05 3.09171E-16 3.09530E-14
 -1        67 1.99953E+01 2.32181E-05 3.25856E-05 4.93445E-05 1.43232E-13 2.91661E-13
 -1        68 1.99971E+01 2.51626E-05 3.46604E-05 3.89863E-05-8.22537E-14 3.19815E-13
 -1        69 1.99986E+01 2.75084E-05 4.15580E-05 2.71012E-05-1.04367E-13-3.45536E-13
 -1        70 1.99995E+01 2.54021E-05 4.61943E-05 4.13128E-06 1.01342E-13-4.50505E-13
 -1        71 1.99999E+01-4.78964E-06 8.38567E-06-2.88003E-05-5.42632E-14 8.05101E-14
 -1        72 2.45170E+01-4.38899E-01-1.04991E+00-4.39247E-01 3.60025E-14 3.13705E-12
 -1        73 2.41028E+01-6.22914E-02-2.75438E-01-9.01864E-02 1.26075E-14 2.53190E-12
 -1        74 2.44824E+01-1.21611E-02-4.77452E-02-5.11460E-02 3.12809E-14 2.03241E-12
 -1        75 2.51620E+01 6.46811E-03 1.62074E-02-5.25738E-02-4.87621E-15 1.76749E-12
 -1        76 2.57939E+01 2.17572E-02 5.37212E-02-5.31213E-02 1.09696E-14 1.55075E-12
 -1        77 2.59826E+01 3.16403E-02 9.23410E-02-3.72310E-02-7.98406E-16 1.48404E-12
 -1        78 2.53125E+01 2.76481E-02 1.14858E-01 1.07673E-02-2.23515E-14 1.55917E-12
 -1        79 2.35421E+01 3.77094E-03 8.38954E-02 9.12949E-02-1.73509E-14 1.49172E-12
 -1        80 2.09435E+01-3.13853E-02-1.98301E-02 1.67378E-01-3.65951E-15 1.27498E-12
 -1        81 1.84907E+01-5.40672E-02-1.51797E-01 1.72432E-01 1.25555E-14 1.07869E-12
 -1        82 1.74596E+01-4.75813E-02-2.14695E-01 7.42280E-02 5.03902E-14 7.76516E-13
 -1        83 1.84899E+01-1.89588E-02-1.55398E-01-6.80689E-02-3.73096E-15 4.66627E-13
 -1        84 2.10282E+01 1.13087E-02-2.30598E-02-1.58685E-01-6.45618E-15 4.57932E-13
 -1        85 2.38033E+01 2.85367E-02 8.37360E-02-1.58338E-01 8.85771E-15 4.45768E-13
 -1        86 2.57742E+01 3.09216E-02 1.16794E-01-1.02649E-01 1.06317E-15 2.79440E-13
 -1        87 2.66006E+01 2.36582E-02 9.46898E-02-4.14136E-02-3.97139E-14 1.17770E-13
 -1        88 2.64746E+01 1.36278E-02 5.49941E-02 5.99303E-04-2.20612E-14 1.29147E-13
 -1        89 2.57733E+01 5.00779E-03 2.09588E-02 2.11356E-02 8.97799E-14-1.96797E-13
 -1        90 2.48314E+01-7.12887E-04-2.16645E-04 2.71416E-02-5.19417E-14-4.93761E-13
 -1        91 2.38676E+01-3.77701E-03-1.03360E-02 2.57015E-02 4.01293E-15-4.34149E-14
 -1        92 2.29959E+01-4.98357E-03-1.35224E-02 2.14191E-02 2.72622E-14 3.51021E-14
 -1        93 2.22605E+01-5.09480E-03-1.31840E-02 1.66625E-02-7.08622E-14 1.67476E-13
 -1        94 2.16669E+01-4.65350E-03-1.14156E-02 1.24228E-02 8.61995E-14-1.11020E-13
 -1        95 2.12023E+01-3.99160E-03-9.29700E-03 8.98971E-03 2.77646E-14-6.71575E-13
 -1        96 2.08470E+01-3.29055E-03-7.30453E-03 6.34845E-03 2.24786E-14-3.39925E-13
 -1        97 2.05806E+01-2.63870E-03-5.60535E-03 4.37796E-03-4.57881E-14 3.06132E-14
 -1        98 2.03846E+01-2.07184E-03-4.22604E-03 2.93854E-03 6.05762E-14 2.38882E-13
 -1        99 2.02430E+01-1.59827E-03-3.13755E-03 1.90486E-03-2.90859E-14-4.00940E-13
 -1       100 2.01429E+01-1.21315E-03-2.29411E-03 1.17481E-03-5.89202E-15-4.28287E-13
 -1       101 2.00739E+01-9.06157E-04-1.64948E-03 6.68867E-04-1.11053E-14-1.56261E-13
 -1       102 2.00279E+01-6.65438E-04-1.16276E-03 3.26478E-04-3.48172E-14-2.57207E-13
 -1       103 1.99985E+01-4.79481E-04-7.99803E-04 1.02106E-04 1.70409E-14 4.17279E-14
 -1       104 1.99810E+01-3.37915E-04-5.32837E-04-3.82449E-05-4.73610E-14 3.07587E-13
 -1       105 1.99717E+01-2.31774E-04-3.39616E-04-1.19794E-04 1.17094E-13 8.76124E-14
 -1       106 1.99679E+01-1.53509E-04-2.02484E-04-1.61117E-04-1.30933E-13-5.50472E-14
 -1       107 1.99677E+01-9.68822E-05-1.07526E-04-1.75771E-04-4.84393E-14-2.77144E-13
 -1       108 1.99697E+01-5.68160E-05-4.38582E-05-1.73531E-04 1.80092E-13-5.56194E-13
 -1       109 1.99729E+01-2.92282E-05-3.03598E-06-1.61338E-04-2.06763E-15-6.13497E-13
 -1       110 1.99766E+01-1.08740E-05 2.14333E-05-1.44028E-04-4.70843E-14-1.84938E-13
 -1       111 1.99804E+01 8.02476E-07 3.44973E-05-1.24884E-04 6.05020E-14 1.74479E-13
 -1       112 1.99841E+01 7.80308E-06 3.99011E-05-1.06072E-04-5.52519E-14 2.31610E-13
 -1       113 1.99875E+01 1.16969E-05 4.04845E-05-8.89644E-05 1.26264E-13-1.45036E-13
 -1       114 1.99905E+01 1.37277E-05 3.84623E-05-7.43739E-05-1.20175E-13-2.38878E-13
 -1       115 1.99931E+01 1.49016E-05 3.57322E-05-6.27016E-05 4.98924E-14 1.65522E-13
 -1       116 1.99953E+01 1.59995E-05 3.42565E-05-5.39188E-05 8.28505E-14 3.36831E-14
 -1       117 1.99972E+01 1.76004E-05 3.63745E-05-4.73416E-05-1.05782E-14-6.16140E-13
 -1       118 1.99986E+01 1.95754E-05 4.36584E-05-4.08574E-05 7.74153E-15-8.21570E-13
 -1       119 1.99995E+01 1.82404E-05 4.84832E-05-2.55973E-05 5.58516E-14-1.60189E-12
 -1       120 1.99999E+01-1.77853E-05 2.87358E-06 1.67725E-05 1.14443E-13-1.30835E-12
 -1       121 1.99998E+01 4.63807E-05 5.67788E-06 3.03491E-05-1.05001E-12 6.47066E-14
 -1       122 1.99998E+01-3.14879E-04 4.47799E-05-1.36884E-05-5.00786E-13-7.24952E-15
 -1       123 1.99998E+01-1.21753E-03 2.86692E-05-3.73120E-05 1.04721E-14 7.19875E-14
 -1       124 1.99998E+01-2.40055E-03 6.26618E-06-4.47451E-05-2.63688E-13 5.61225E-14
 -1       125 1.99998E+01-3.63336E-03-1.22166E-05-4.19972E-05 2.79039E-13-1.16979E-13
 -1       126 1.99998E+01-4.71023E-03-2.55229E-05-3.38610E-05-1.18959E-12-1.78429E-13
 -1       127 1.99998E+01-5.52108E-03-3.39839E-05-2.16159E-05-1.37799E-12 2.41773E-13
 -1       128 1.99998E+01-5.94865E-03-3.81537E-05-7.31397E-06-4.00900E-13-7.23033E-14
 -1       129 1.99998E+01-5.94405E-03-3.80911E-05 7.61806E-06 7.42229E-14 1.61504E-13
 -1       130 1.99998E+01-5.50799E-03-3.38138E-05 2.18345E-05-1.81677E-13 5.12736E-14
 -1       131 1.99998E+01-4.69093E-03-2.50589E-05 3.43242E-05-8.60575E-13-3.90226E-13
 -1       132 1.99998E+01-3.61114E-03-1.19929E-05 4.20935E-05-1.60122E-12 1.74205E-13
 -1       133 1.99998E+01-2.37835E-03 6.41429E-06 4.45025E-05-5.42500E-13 2.44171E-13
 -1       134 1.99998E+01-1.19564E-03 3.08001E-05 4.02922E-05 2.26872E-13-9.71327E-14
 -1       135 1.99998E+01-3.18390E-04 3.91462E-05 1.91155E-05-2.09544E-13-1.50039E-13
 -1       136 1.99998E+01 3.37591E-05 3.88111E-06-5.61031E-05-1.97593E-13-4.25094E-14
 -1       137-1.40414E+00-2.06753E+01-3.17467E+00-3.90990E+00 2.49464E-12 5.48745E-13
 -1       138-1.76592E+00-9.90559E+00-2.46838E+00-3.52127E+00 3.16636E-12 1.36219E-12
 -1       139 1.79162E+00 1.74866E+00-1.38140E+00 2.16006E+00 3.06921E-12 2.23094E-12
 -1       140 1.29052E+01 9.55798E+00 3.02666E-02 1.10869E+01 2.46075E-12 2.51393E-12
 -1       141 3.14269E+01 1.05356E+01 1.54790E+00 1.78167E+01 1.53877E-12 2.48918E-12
 -1       142 5.24659E+01 6.04321E+00 2.90628E+00 1.68154E+01 4.85431E-13 1.49758E-12
 -1       143 6.65333E+01 1.53281E+00 3.71126E+00 5.97051E+00 5.00676E-14-5.56222E-13
 -1       144 6.54398E+01 1.95999E+00 3.64059E+00-7.72595E+00 3.63293E-13-2.54774E-12
 -1       145 5.10336E+01 6.51455E+00 2.81213E+00-1.71331E+01 1.37980E-12-3.73140E-12
 -1       146 3.05376E+01 1.06515E+01 1.47190E+00-1.76114E+01 2.44960E-12-3.97793E-12
 -1       147 1.19620E+01 9.25341E+00-9.54969E-02-1.05408E+01 3.37502E-12-3.46884E-12
 -1       148 1.15488E+00 7.24204E-01-1.54236E+00-1.40875E+00 3.35321E-12-2.31715E-12
 -1       149-1.88544E+00-1.14751E+01-2.61922E+00 3.91860E+00 2.40252E-12-1.00128E-12
 -1       150-1.18907E+00-2.10796E+01-3.20200E+00 3.45040E+00 9.25732E-13-1.73328E-13
 -1       151-6.98154E-01-2.36888E+01-3.31925E+00-6.71507E-01-8.23945E-13-6.83585E-14
 -1       152-1.42971E+00-1.74639E+01-2.92263E+00-3.78901E+00-2.43494E-12-6.48967E-13
 -1       153-1.10000E+00-5.72728E+00-2.05473E+00-2.01208E+00-3.27854E-12-1.61726E-12
 -1       154 5.10812E+00 5.83965E+00-7.85867E-01 5.70064E+00-3.30552E-12-2.68818E-12
 -1       155 1.90509E+01 1.10814E+01 6.56866E-01 1.43747E+01-2.69423E-12-3.30341E-12
 -1       156 4.07718E+01 8.88474E+00 2.16185E+00 1.81017E+01-1.41984E-12-2.86116E-12
 -1       157 5.89633E+01 3.61390E+00 3.16135E+00 1.24004E+01-4.24848E-13-1.47415E-12
 -1       158 5.90760E+01 3.51053E+00 3.17780E+00-1.27746E+01-3.86483E-13 1.59578E-12
 -1       159 4.03915E+01 9.07535E+00 2.17231E+00-1.85185E+01-1.17031E-12 2.45043E-12
 -1       160 1.99245E+01 1.12959E+01 7.67819E-01-1.48279E+01-2.09271E-12 2.51577E-12
 -1       161 4.69480E+00 5.56337E+00-7.68818E-01-5.31088E+00-2.29827E-12 1.89571E-12
 -1       162-1.20201E+00-6.23447E+00-2.07888E+00 2.27073E+00-1.56480E-12 7.81736E-13
 -1       163-1.43882E+00-1.87383E+01-3.01421E+00 3.76491E+00-6.19171E-13 2.35562E-13
 -1       164 2.32297E+01 3.74045E+00-5.52857E-02-3.02930E+00-4.18662E-13-9.79633E-14
 -1       165 2.16072E+01 4.23581E+00-4.67304E-02-2.04279E+00-3.32541E-13-4.87235E-13
 -1       166 2.04069E+01 4.43106E+00-3.36814E-02-1.26515E+00-2.25956E-13-6.86930E-13
 -1       167 1.93544E+01 4.50032E+00-2.48601E-02-6.30975E-01-1.22053E-13-7.81993E-13
 -1       168 1.83635E+01 4.55856E+00-1.88948E-02-1.45120E-01-4.32310E-14-8.16460E-13
 -1       169 1.74238E+01 4.64079E+00-1.51200E-02 1.92045E-01 3.04999E-14-8.19086E-13
 -1       170 1.66464E+01 4.74576E+00-1.27080E-02 3.61399E-01 9.60195E-14-8.06994E-13
 -1       171 1.61637E+01 4.84609E+00-1.15207E-02 3.82596E-01 1.51037E-13-7.76702E-13
 -1       172 1.60955E+01 4.90881E+00-1.15916E-02 3.15635E-01 2.09342E-13-7.46731E-13
 -1       173 1.65015E+01 4.91411E+00-1.31469E-02 2.51697E-01 2.49445E-13-6.96377E-13
 -1       174 1.73391E+01 4.86434E+00-1.64534E-02 2.85876E-01 3.01225E-13-5.94934E-13
 -1       175 1.85525E+01 4.76763E+00-2.21488E-02 4.95817E-01 3.74927E-13-4.46226E-13
 -1       176 2.00362E+01 4.61210E+00-3.15483E-02 9.33383E-01 4.36939E-13-2.33346E-13
 -1       177 2.17643E+01 4.31413E+00-4.31521E-02 1.62939E+00 4.56789E-13 1.31551E-13
 -1       178 2.39417E+01 3.51607E+00-5.00110E-02 2.54719E+00 4.11275E-13 7.38999E-13
 -1       179 2.58021E+01 1.03225E+00-3.38844E-01 2.29432E+00 2.76862E-13 1.51362E-12
 -1       180 2.46204E+01 8.00564E-01-1.13307E-03-1.54279E+00-3.80460E-13 4.37834E-13
 -1       181 2.33505E+01 1.20011E-01-1.08362E-02-4.47737E-01-3.30487E-13 2.86316E-13
 -1       182 2.27704E+01 1.95923E-02 1.11081E-02-1.44925E-01-2.32753E-13 1.58261E-13
 -1       183 2.24778E+01-5.86303E-02 6.64668E-03-1.57526E-01-1.55220E-13 1.79461E-14
 -1       184 2.21887E+01-1.04441E-01 2.06942E-03-3.37950E-01-1.06033E-13-5.44910E-14
 -1       185 2.17712E+01-1.15290E-01 6.67626E-04-5.96824E-01-1.29311E-13-1.41913E-13
 -1       186 2.11816E+01-7.59557E-02 1.28094E-03-8.26355E-01-1.21763E-13-1.88534E-13
 -1       187 2.04791E+01 1.70343E-02 2.40956E-03-8.96895E-01-1.30968E-13-2.46244E-13
 -1       188 1.98240E+01 1.35704E-01 3.14229E-03-7.08534E-01-1.24071E-13-2.41600E-13
 -1       189 1.94244E+01 2.23854E-01 3.30855E-03-2.65354E-01-9.77374E-14-3.28864E-13
 -1       190 1.94354E+01 2.30474E-01 3.21390E-03 2.94919E-01-1.02916E-13-5.52529E-13
 -1       191 1.98661E+01 1.50805E-01 2.88160E-03 7.63841E-01-7.12585E-14-6.66133E-13
 -1       192 2.05710E+01 3.06451E-02 1.98500E-03 9.84813E-01-2.01131E-14-6.86802E-13
 -1       193 2.13318E+01-7.20584E-02 3.54118E-04 9.30804E-01 2.87849E-14-7.40540E-13
 -1       194 2.19600E+01-1.24923E-01-1.48558E-03 6.85964E-01-6.29223E-14-7.36239E-13
 -1       195 2.23547E+01-1.29083E-01-2.80168E-03 3.71561E-01-1.44502E-14-7.24230E-13
 -1       196 2.25015E+01-1.03595E-01-3.25049E-03 8.33394E-02-1.23792E-14-6.89610E-13
 -1       197 2.24418E+01-6.82602E-02-2.91294E-03-1.30350E-01-1.15945E-14-6.95946E-13
 -1       198 2.22390E+01-3.57449E-02-2.13210E-03-2.60530E-01 1.64355E-14-6.13390E-13
 -1       199 2.19558E+01-1.13107E-02-1.23997E-03-3.20089E-01 1.00322E-13-7.10372E-13
 -1       200 2.16426E+01 4.49318E-03-4.56060E-04-3.29239E-01 2.69253E-14-6.34553E-13
 -1       201 2.13343E+01 1.32304E-02 1.23030E-04-3.07228E-01 1.62520E-14-6.94031E-13
 -1       202 2.10525E+01 1.69684E-02 4.88183E-04-2.69049E-01-5.85352E-14-5.50230E-13
 -1       203 2.08078E+01 1.75382E-02 6.75158E-04-2.25000E-01 7.86849E-14-3.85796E-13
 -1       204 2.06036E+01 1.63131E-02 7.33459E-04-1.81447E-01-2.68547E-14-4.56225E-13
 -1       205 2.04385E+01 1.42236E-02 7.09298E-04-1.41881E-01-4.97850E-14-5.54771E-13
 -1       206 2.03089E+01 1.18525E-02 6.38944E-04-1.07870E-01 1.50160E-14-6.55064E-13
 -1       207 2.02096E+01 9.53691E-03 5.47900E-04-7.97907E-02 6.18013E-14-5.78804E-13
 -1       208 2.01355E+01 7.45136E-03 4.52565E-04-5.73459E-02 3.33198E-14-4.44848E-13
 -1       209 2.00817E+01 5.66887E-03 3.62542E-04-3.98970E-02-1.22128E-13-4.10205E-13
 -1       210 2.00438E+01 4.20252E-03 2.82751E-04-2.66767E-02-9.05575E-14-4.81175E-13
 -1       211 2.00179E+01 3.03257E-03 2.15092E-04-1.69121E-02 1.89594E-14-5.67092E-13
 -1       212 2.00011E+01 2.12351E-03 1.59640E-04-9.89107E-03-4.67390E-14-6.68785E-13
 -1       213 1.99908E+01 1.43436E-03 1.15457E-04-4.99362E-03 1.21116E-13-6.77853E-13
 -1       214 1.99852E+01 9.24582E-04 8.11233E-05-1.70055E-03 1.66397E-13-6.79878E-13
 -1       215 1.99828E+01 5.57194E-04 5.50677E-05 4.09572E-04-2.14462E-14-6.71326E-13
 -1       216 1.99825E+01 3.00124E-04 3.57553E-05 1.67000E-03 9.72257E-14-7.32741E-13
 -1       217 1.99834E+01 1.26560E-04 2.17904E-05 2.33805E-03-2.79504E-13-6.17472E-13
 -1       218 1.99851E+01 1.46862E-05 1.19596E-05 2.60781E-03-1.00157E-13-5.59936E-13
 -1       219 1.99872E+01-5.28792E-05 5.24050E-06 2.62203E-03-9.98532E-14-5.84487E-13
 -1       220 1.99894E+01-8.97930E-05 7.89271E-07 2.48255E-03 1.55256E-13-5.53746E-13
 -1       221 1.99914E+01-1.06750E-04-2.07880E-06 2.25891E-03 4.35803E-13-2.41339E-13
 -1       222 1.99934E+01-1.12254E-04-3.90109E-06 1.99520E-03 2.26123E-13-7.98209E-14
 -1       223 1.99951E+01-1.13355E-04-5.04335E-06 1.71496E-03 2.31749E-13-4.00550E-15
 -1       224 1.99966E+01-1.16374E-04-5.63103E-06 1.42457E-03 1.91733E-14-5.23798E-14
 -1       225 1.99978E+01-1.27440E-04-5.44746E-06 1.11550E-03-2.45148E-13-2.76989E-13
 -1       226 1.99987E+01-1.51661E-04-4.93693E-06 7.68826E-04-6.09495E-14-1.39083E-13
 -1       227 1.99994E+01-1.82736E-04-3.40011E-06 3.74720E-04 3.08877E-13-1.58658E-13
 -1       228 2.48950E+01 2.44527E-01-4.50865E-02 4.75984E-01 3.01301E-13 1.31619E-12
 -1       229 2.44779E+01 1.05364E-01 9.29502E-03-1.84557E-01 2.37237E-13 1.07588E-12
 -1       230 2.46121E+01 1.49567E-02 1.11163E-02-3.83865E-01 1.26707E-13 9.05091E-13
 -1       231 2.48951E+01-7.06927E-02 7.30233E-03-3.13737E-01 1.11626E-13 8.08906E-13
 -1       232 2.50329E+01-1.64038E-01 7.90679E-03 1.90227E-02 2.90740E-15 7.68713E-13
 -1       233 2.47682E+01-2.35144E-01 1.08548E-02 5.90121E-01-2.61171E-14 7.52048E-13
 -1       234 2.39465E+01-2.11686E-01 9.30514E-03 1.23156E+00 5.14120E-14 7.21498E-13
 -1       235 2.26648E+01-3.03367E-02-3.20498E-03 1.57900E+00 1.36159E-13 6.31566E-13
 -1       236 2.13853E+01 2.57080E-01-2.21653E-02 1.24259E+00 1.40731E-13 4.84092E-13
 -1       237 2.07786E+01 4.45270E-01-3.19037E-02 2.05508E-01 2.04853E-13 3.83974E-13
 -1       238 2.12393E+01 3.66468E-01-2.26219E-02-9.78363E-01 1.23217E-13 2.31886E-13
 -1       239 2.25161E+01 9.58045E-02-1.51776E-03-1.62610E+00 4.18483E-14 7.33788E-14
 -1       240 2.39379E+01-1.49967E-01 1.19481E-02-1.50740E+00 9.20770E-14-7.11271E-14
 -1       241 2.49370E+01-2.43166E-01 1.09317E-02-9.10977E-01 6.49810E-14-1.13255E-13
 -1       242 2.53154E+01-2.12787E-01 3.86205E-03-2.42874E-01 1.15344E-13-1.44426E-13
 -1       243 2.51528E+01-1.33990E-01-1.49198E-03 2.56388E-01 1.29467E-14-3.39278E-13
 -1       244 2.46397E+01-6.03086E-02-3.54413E-03 5.32025E-01 1.67910E-13-2.97298E-13
 -1       245 2.39609E+01-1.04524E-02-3.24481E-03 6.29107E-01 8.81286E-14-1.92252E-13
 -1       246 2.32497E+01 1.66073E-02-2.02769E-03 6.15378E-01-1.52773E-13-2.47912E-13
 -1       247 2.25853E+01 2.79468E-02-8.14322E-04 5.46233E-01-6.90007E-14-2.37806E-13
 -1       248 2.20057E+01 3.02385E-02 4.71170E-05 4.57384E-01-6.57486E-14-1.96572E-13
 -1       249 2.15225E+01 2.80680E-02 5.35580E-04 3.68479E-01 2.10535E-13-3.44373E-13
 -1       250 2.11325E+01 2.41260E-02 7.46682E-04 2.88709E-01 1.58036E-13-3.92410E-13
 -1       251 2.08254E+01 1.98212E-02 7.86183E-04 2.21302E-01-2.53441E-13-2.11985E-13
 -1       252 2.05885E+01 1.58084E-02 7.34141E-04 1.66439E-01-2.04858E-13 1.42944E-13
 -1       253 2.04091E+01 1.23385E-02 6.41667E-04 1.22928E-01-5.67358E-14 1.15263E-13
 -1       254 2.02756E+01 9.46309E-03 5.37969E-04 8.90963E-02 2.69202E-13 1.40391E-13
 -1       255 2.01782E+01 7.14395E-03 4.38165E-04 6.32303E-02-6.26320E-14 2.87728E-14
 -1       256 2.01084E+01 5.30933E-03 3.49107E-04 4.37632E-02-9.65757E-14-1.25060E-13
 -1       257 2.00597E+01 3.88040E-03 2.73111E-04 2.93444E-02 7.21183E-15-9.22509E-14
 -1       258 2.00267E+01 2.78290E-03 2.10168E-04 1.88486E-02-1.07969E-13-4.33590E-14
 -1       259 2.00052E+01 1.95153E-03 1.59171E-04 1.13587E-02-6.62082E-14-1.75530E-13
 -1       260 1.99919E+01 1.33091E-03 1.18587E-04 6.13934E-03 2.01728E-13-5.37786E-14
 -1       261 1.99845E+01 8.75095E-04 8.67970E-05 2.60914E-03-4.87770E-14-9.91649E-14
 -1       262 1.99810E+01 5.46584E-04 6.22673E-05 3.14304E-04 2.72663E-15-8.40713E-14
 -1       263 1.99802E+01 3.15121E-04 4.36226E-05-1.09486E-03 1.60869E-13 6.19421E-15
 -1       264 1.99810E+01 1.56583E-04 2.96702E-05-1.88412E-03-5.91364E-14 7.46191E-14
 -1       265 1.99827E+01 5.19357E-05 1.94000E-05-2.25236E-03-1.40853E-13-1.47110E-13
 -1       266 1.99850E+01-1.36874E-05 1.19699E-05-2.34577E-03-1.36754E-13 6.94116E-14
 -1       267 1.99874E+01-5.18086E-05 6.68646E-06-2.26939E-03 9.14906E-14 3.07894E-13
 -1       268 1.99897E+01-7.13281E-05 2.98639E-06-2.09631E-03 1.33535E-13-2.63372E-15
 -1       269 1.99919E+01-7.91754E-05 4.24283E-07-1.87483E-03-1.76034E-13 1.48940E-13
 -1       270 1.99939E+01-8.09235E-05-1.31482E-06-1.63372E-03 9.70132E-14-3.63406E-14
 -1       271 1.99956E+01-8.14030E-05-2.34239E-06-1.38575E-03 1.93949E-13-2.04094E-13
 -1       272 1.99971E+01-8.50050E-05-2.35987E-06-1.12982E-03 1.16037E-13-1.45387E-13
 -1       273 1.99982E+01-9.60055E-05-8.05039E-07-8.53344E-04 2.98398E-13-6.71472E-15
 -1       274 1.99991E+01-1.20527E-04-6.51854E-07-5.35003E-04 2.45295E-13-1.96682E-13
 -1       275 1.99996E+01-1.23986E-04-4.80988E-06-1.82086E-04-3.53722E-13-2.06437E-13
 -1       276 1.99996E+01-4.29970E-04-3.43930E-06-3.88902E-04-1.05930E-13 3.61799E-13
 -1       277 1.99997E+01-1.03306E-03-1.27442E-06-7.22683E-04 5.43406E-14 2.69889E-13
 -1       278 1.99998E+01-1.81603E-03-5.38971E-07-9.18344E-04 3.43410E-14-2.06629E-13
 -1       279 1.99998E+01-2.67218E-03 5.51008E-07-9.51043E-04-8.88242E-14 1.80047E-13
 -1       280 1.99999E+01-3.47100E-03 2.27966E-06-8.44174E-04-3.93235E-13-8.45175E-13
 -1       281 1.99999E+01-4.13505E-03 3.79068E-06-6.24937E-04-1.90760E-13-2.44942E-13
 -1       282 1.99999E+01-4.56600E-03 4.83101E-06-3.29667E-04-2.79543E-13 5.72817E-13
 -1       283 1.99999E+01-4.71316E-03 5.18565E-06 3.59802E-06 1.32147E-13 1.17133E-13
 -1       284 1.99999E+01-4.55948E-03 4.82405E-06 3.36283E-04 6.72349E-14-2.43107E-13
 -1       285 1.99999E+01-4.12292E-03 3.78125E-06 6.30040E-04-2.80438E-13-4.47588E-13
 -1       286 1.99999E+01-3.46859E-03 2.18158E-06 8.44351E-04-2.90143E-13-3.37398E-13
 -1       287 1.99998E+01-2.65501E-03 5.45950E-07 9.51027E-04-1.25515E-13 5.52276E-13
 -1       288 1.99998E+01-1.79980E-03-7.09528E-07 9.15100E-04-1.73182E-13 2.66945E-13
 -1       289 1.99997E+01-1.02627E-03-3.40828E-06 7.12671E-04-1.27687E-13-7.13417E-14
 -1       290 1.99995E+01-5.68204E-04-4.13590E-06 6.17162E-04 2.07212E-13 2.25946E-13
 -1       291-9.46293E-01-1.08953E+01-9.84494E-01 7.61481E-01 7.02362E-13 7.88453E-13
 -1       292 2.31727E+00-8.70039E+00-8.02879E-01 3.20199E+00 8.30558E-13 7.24254E-13
 -1       293 8.36334E+00-5.67454E+00-5.96746E-01 5.06983E+00 1.19116E-12 8.65148E-13
 -1       294 1.71012E+01-1.86344E+00-2.15743E-01 6.82387E+00 1.16715E-12 8.99669E-13
 -1       295 2.78117E+01 1.24846E+00 2.06766E-01 7.12110E+00 1.02568E-12 8.05467E-13
 -1       296 3.79796E+01 4.37488E+00 6.90201E-01 6.45759E+00 9.24500E-13 5.15588E-13
 -1       297 4.55340E+01 6.19669E+00 1.02038E+00 3.63654E+00 8.68139E-13-1.21625E-13
 -1       298 4.45077E+01 7.48705E+00 7.30891E-01-1.65447E-01 1.00447E-12-6.21284E-13
 -1       299 4.42661E+01 6.11599E+00 8.87614E-01-3.66936E+00 9.19792E-13-1.20845E-12
 -1       300 3.71962E+01 4.06803E+00 5.91158E-01-6.08614E+00 1.12955E-12-1.49619E-12
 -1       301 2.73161E+01 1.16655E+00 1.83338E-01-7.24442E+00 1.30709E-12-1.58998E-12
 -1       302 1.66971E+01-2.26664E+00-2.41808E-01-6.78961E+00 1.26724E-12-1.50954E-12
 -1       303 7.30060E+00-5.78609E+00-6.57863E-01-4.83236E+00 1.06287E-12-1.35717E-12
 -1       304 1.49997E+00-8.88663E+00-9.02329E-01-2.61197E+00 6.30940E-13-1.01834E-12
 -1       305-1.08315E+00-1.05070E+01-1.00569E+00-4.63473E-01 4.30628E-14-8.74564E-13
 -1       306-3.67907E-01-9.49379E+00-8.84364E-01 1.78773E+00-5.33490E-13-8.95214E-13
 -1       307 3.50023E+00-7.43327E+00-7.70146E-01 3.85704E+00-1.03814E-12-9.75175E-13
 -1       308 1.17319E+01-4.05759E+00-3.53572E-01 6.42373E+00-1.12010E-12-1.08293E-12
 -1       309 2.04276E+01 2.49795E-01-3.09296E-02 7.63097E+00-1.35256E-12-1.33532E-12
 -1       310 3.15369E+01 2.89706E+00 3.57183E-01 6.92895E+00-1.20756E-12-9.98090E-13
 -1       311 3.92655E+01 5.40929E+00 5.20409E-01 3.91018E+00-1.08540E-12-6.37601E-13
 -1       312 4.47008E+01 6.91068E+00 8.18961E-01 1.60502E+00-8.76715E-13-4.05606E-13
 -1       313 4.64252E+01 6.56396E+00 1.01784E+00-2.09295E+00-6.92266E-13 1.54224E-13
 -1       314 4.06575E+01 5.57824E+00 7.67040E-01-5.34850E+00-6.79200E-13 5.51809E-13
 -1       315 3.15927E+01 3.50299E+00 4.44489E-01-7.70645E+00-7.22422E-13 7.88869E-13
 -1       316 2.12049E+01-5.29272E-01-7.45270E-03-7.33237E+00-5.13645E-13 7.22589E-13
 -1       317 1.04157E+01-4.01801E+00-4.46548E-01-5.93460E+00-4.75509E-13 9.08648E-13
 -1       318 3.18856E+00-8.10910E+00-8.01804E-01-3.64374E+00-2.23932E-13 5.84123E-13
 -1       319-5.75230E-01-9.75066E+00-8.32851E-01-1.68283E+00 3.10682E-13 7.83817E-13
 -1       320 2.15580E+01 2.79075E+00-2.23460E-02-1.31441E+00-3.15837E-13-4.01154E-13
 -1       321 2.28436E+01 2.05306E+00-2.12991E-02-1.72913E+00-4.11414E-13-1.87154E-13
 -1       322 1.93002E+01 3.47752E+00-1.55223E-02-2.15877E-01-9.45973E-14-6.13729E-13
 -1       323 1.81849E+01 3.78307E+00-1.10957E-02 2.22219E-01-9.12031E-16-6.48251E-13
 -1       324 1.71506E+01 4.10965E+00-7.53310E-03 4.86337E-01 9.65559E-14-6.39570E-13
 -1       325 1.63530E+01 4.40896E+00-4.84892E-03 5.45090E-01 1.67065E-13-6.25049E-13
 -1       326 1.59733E+01 4.60094E+00-3.50942E-03 4.31758E-01 2.27441E-13-6.06501E-13
 -1       327 1.61430E+01 4.61894E+00-3.98554E-03 2.45439E-01 2.75621E-13-5.90902E-13
 -1       328 1.68654E+01 4.45022E+00-6.53137E-03 1.18661E-01 3.26960E-13-5.09918E-13
 -1       329 1.80764E+01 4.11873E+00-1.09679E-02 1.50162E-01 3.94649E-13-3.78653E-13
 -1       330 1.96263E+01 3.65660E+00-1.70412E-02 3.84030E-01 4.51951E-13-2.19843E-13
 -1       331 2.14017E+01 3.03365E+00-2.20711E-02 7.76736E-01 5.03181E-13 2.59098E-14
 -1       332 2.32688E+01 2.09451E+00-3.06886E-02 1.12906E+00 4.79708E-13 4.10508E-13
 -1       333 2.43517E+01 1.12504E+00-2.20185E-02 9.14056E-01 4.14514E-13 7.59526E-13
 -1       334 2.40853E+01 4.26707E-01 6.91526E-03-5.84999E-02 3.30259E-13 6.23681E-13
 -1       335 2.29174E+01 4.24832E-01 9.58672E-03-6.34369E-01-3.29400E-13-6.97079E-14
 -1       336 2.26620E+01-1.61889E-03 3.40310E-03-3.44010E-01-2.39194E-13-6.08333E-14
 -1       337 2.25200E+01-2.58180E-01-1.69248E-04-4.19539E-01-1.75091E-13-6.52196E-14
 -1       338 2.23852E+01-3.90379E-01-2.02302E-03-7.19942E-01-1.51525E-13-1.00684E-13
 -1       339 2.21672E+01-3.59904E-01-1.41907E-03-1.10172E+00-1.36959E-13-7.67491E-14
 -1       340 2.18140E+01-1.24160E-01 6.99310E-04-1.37084E+00-1.50693E-13-1.02097E-13
 -1       341 2.13613E+01 2.79447E-01 2.93875E-03-1.31426E+00-1.20175E-13-1.21988E-13
 -1       342 2.09543E+01 6.86748E-01 4.40363E-03-8.18158E-01-1.70180E-13-1.50899E-13
 -1       343 2.07806E+01 8.77072E-01 4.81474E-03 1.38685E-02-2.33105E-13-2.48110E-13
 -1       344 2.09386E+01 7.27833E-01 4.29089E-03 8.68087E-01-1.83369E-13-3.41410E-13
 -1       345 2.13465E+01 3.29010E-01 3.07690E-03 1.41097E+00-1.27567E-13-4.29989E-13
 -1       346 2.18093E+01-1.03100E-01 7.45219E-04 1.49667E+00-1.48780E-14-4.82208E-13
 -1       347 2.21550E+01-3.92073E-01-1.90060E-03 1.20499E+00-1.00514E-14-4.64948E-13
 -1       348 2.23111E+01-4.88142E-01-3.65340E-03 7.28972E-01-3.04407E-14-4.72596E-13
 -1       349 2.22903E+01-4.39185E-01-4.12990E-03 2.45957E-01-7.88150E-15-4.49629E-13
 -1       350 2.21425E+01-3.20957E-01-3.54270E-03-1.40356E-01-5.18325E-15-4.45228E-13
 -1       351 2.19200E+01-1.92767E-01-2.49596E-03-3.96436E-01 5.55879E-14-3.79848E-13
 -1       352 2.16638E+01-8.59976E-02-1.41999E-03-5.32105E-01 8.94342E-15-4.01085E-13
 -1       353 2.14022E+01-1.03934E-02-5.38192E-04-5.75439E-01 2.78728E-14-4.34006E-13
 -1       354 2.11532E+01 3.61369E-02 7.98670E-05-5.57088E-01 2.74078E-14-4.05243E-13
 -1       355 2.09274E+01 6.01823E-02 4.52962E-04-5.02988E-01 3.20518E-14-2.53643E-13
 -1       356 2.07300E+01 6.88043E-02 6.35606E-04-4.32255E-01 6.10937E-14-3.63000E-13
 -1       357 2.05627E+01 6.78723E-02 6.87409E-04-3.57611E-01-3.71242E-15-5.14678E-13
 -1       358 2.04244E+01 6.16786E-02 6.58931E-04-2.86720E-01-6.05791E-14-4.69133E-13
 -1       359 2.03129E+01 5.31032E-02 5.87592E-04-2.23627E-01-5.25840E-14-3.73057E-13
 -1       360 2.02250E+01 4.39410E-02 4.98550E-04-1.69974E-01 1.20222E-13-2.54691E-13
 -1       361 2.01570E+01 3.52221E-02 4.07338E-04-1.25919E-01 8.76510E-14-3.76702E-13
 -1       362 2.01056E+01 2.74697E-02 3.22656E-04-9.07787E-02-2.50814E-14-4.55363E-13
 -1       363 2.00677E+01 2.08881E-02 2.48676E-04-6.34606E-02-1.17806E-13-4.04293E-13
 -1       364 2.00403E+01 1.54924E-02 1.86760E-04-4.27315E-02-9.76579E-14-2.35798E-13
 -1       365 2.00211E+01 1.11938E-02 1.36639E-04-2.73780E-02-6.57890E-14-2.03446E-13
 -1       366 2.00082E+01 7.85482E-03 9.71869E-05-1.62941E-02 6.91651E-14-1.56297E-13
 -1       367 1.99998E+01 5.32245E-03 6.69085E-05-8.52001E-03 1.17234E-13-1.65421E-13
 -1       368 1.99948E+01 3.44719E-03 4.42319E-05-3.25288E-03 1.12688E-13-3.28514E-13
 -1       369 1.99921E+01 2.09348E-03 2.76700E-05 1.59296E-04 9.59985E-15-1.70501E-13
 -1       370 1.99910E+01 1.14397E-03 1.59010E-05 2.23302E-03 8.28650E-15-1.56013E-13
 -1       371 1.99909E+01 5.00539E-04 7.79750E-06 3.36795E-03-1.78751E-13-9.49749E-14
 -1       372 1.99915E+01 8.31994E-05 2.42624E-06 3.86620E-03-5.19198E-14 3.58878E-14
 -1       373 1.99925E+01-1.72020E-04-9.69589E-07 3.95037E-03 1.15166E-13-9.22602E-15
 -1       374 1.99936E+01-3.15684E-04-2.99744E-06 3.77930E-03 3.28681E-13 9.70892E-14
 -1       375 1.99947E+01-3.87729E-04-4.14258E-06 3.46133E-03 3.51549E-13 7.36520E-15
 -1       376 1.99958E+01-4.20132E-04-4.78174E-06 3.06472E-03 3.10587E-13 1.18170E-14
 -1       377 1.99969E+01-4.39137E-04-5.16730E-06 2.62597E-03 1.55846E-13-3.69778E-13
 -1       378 1.99978E+01-4.66449E-04-5.41602E-06 2.15697E-03-2.50202E-13-8.48187E-14
 -1       379 1.99985E+01-5.19323E-04-6.64816E-06 1.65300E-03-8.11904E-14 1.21656E-13
 -1       380 1.99991E+01-5.50899E-04-5.67190E-06 1.14424E-03 9.55190E-14 2.96536E-13
 -1       381 2.40883E+01 9.35348E-02 6.51836E-03-4.84512E-01 2.16928E-13 5.52152E-13
 -1       382 2.43001E+01-1.86206E-01-1.74803E-04-4.89105E-01 1.34130E-13 4.95914E-13
 -1       383 2.45748E+01-4.79347E-01-4.57743E-03-9.32805E-02 4.52060E-14 4.68640E-13
 -1       384 2.47308E+01-7.08027E-01-5.60656E-03 6.74127E-01-4.10392E-15 4.49827E-13
 -1       385 2.45738E+01-6.66647E-01-5.61066E-03 1.60817E+00 2.91360E-14 4.26460E-13
 -1       386 2.39934E+01-1.52409E-01-8.17517E-03 2.21439E+00 1.71786E-13 4.84074E-13
 -1       387 2.31674E+01 7.22490E-01-1.50459E-02 1.87783E+00 2.65937E-13 3.70955E-13
 -1       388 2.26353E+01 1.36085E+00-1.55050E-02 4.52473E-01 2.09575E-13 2.15859E-13
 -1       389 2.28556E+01 1.17555E+00-1.43921E-02-1.29850E+00 2.80186E-13 1.29641E-13
 -1       390 2.36666E+01 3.48070E-01-6.88286E-03-2.30086E+00 1.65694E-13-6.26903E-14
 -1       391 2.44766E+01-4.48183E-01-1.22638E-03-2.14615E+00 1.59519E-13-1.82656E-13
 -1       392 2.48525E+01-7.66058E-01-5.96409E-03-1.27229E+00 8.97329E-14-2.52928E-13
 -1       393 2.47784E+01-6.87546E-01-1.01691E-02-2.87444E-01 9.22582E-14-2.46088E-13
 -1       394 2.43953E+01-4.43387E-01-9.16562E-03 4.53388E-01 1.08025E-13-2.27116E-13
 -1       395 2.38559E+01-2.06365E-01-6.23243E-03 8.68100E-01 1.26042E-13-2.98560E-13
 -1       396 2.32673E+01-4.14433E-02-3.08292E-03 1.01936E+00 8.78328E-14-2.11955E-13
 -1       397 2.26932E+01 5.09379E-02-6.76019E-04 1.00305E+00-1.02029E-13-1.86719E-13
 -1       398 2.21688E+01 9.16240E-02 7.89874E-04 8.99377E-01-8.72415E-14-2.48812E-13
 -1       399 2.17109E+01 1.01592E-01 1.49174E-03 7.61778E-01-8.38934E-15-2.87414E-13
 -1       400 2.13244E+01 9.58160E-02 1.69556E-03 6.20974E-01 2.28276E-13-4.58840E-13
 -1       401 2.10066E+01 8.33780E-02 1.62386E-03 4.92259E-01 1.47578E-13-4.31042E-13
 -1       402 2.07513E+01 6.92003E-02 1.42622E-03 3.81711E-01-3.53539E-13-2.41577E-13
 -1       403 2.05500E+01 5.56758E-02 1.18991E-03 2.90421E-01-4.07755E-13-9.25848E-15
 -1       404 2.03942E+01 4.37960E-02 9.59777E-04 2.17066E-01 7.31658E-15 1.90723E-13
 -1       405 2.02756E+01 3.38329E-02 7.55519E-04 1.59335E-01 2.31156E-13 3.31096E-13
 -1       406 2.01869E+01 2.57192E-02 5.83333E-04 1.14686E-01 8.08229E-14 3.44473E-13
 -1       407 2.01218E+01 1.92477E-02 4.42810E-04 8.07027E-02-5.30814E-14 2.96822E-13
 -1       408 2.00750E+01 1.41704E-02 3.30696E-04 5.52420E-02 5.57257E-14 3.41516E-13
 -1       409 2.00420E+01 1.02444E-02 2.42816E-04 3.64822E-02-2.73160E-14-5.88539E-15
 -1       410 2.00196E+01 7.25107E-03 1.74979E-04 2.29132E-02 3.99663E-14-1.14093E-13
 -1       411 2.00048E+01 5.00176E-03 1.23375E-04 1.33078E-02 3.01766E-14-4.59572E-14
 -1       412 1.99957E+01 3.33823E-03 8.47058E-05 6.68342E-03-1.60281E-14 1.20315E-14
 -1       413 1.99905E+01 2.12996E-03 5.61975E-05 2.26495E-03 7.70121E-14 2.06366E-13
 -1       414 1.99879E+01 1.27087E-03 3.55655E-05-5.51216E-04 5.67500E-14 1.78602E-13
 -1       415 1.99872E+01 6.75741E-04 2.09539E-05-2.22843E-03-4.51332E-14 2.75543E-13
 -1       416 1.99877E+01 2.76945E-04 1.08738E-05-3.11708E-03-6.36869E-14 1.67262E-13
 -1       417 1.99888E+01 2.13304E-05 4.14198E-06-3.47756E-03-3.00605E-13 3.21539E-14
 -1       418 1.99902E+01-1.32507E-04-1.74441E-07-3.49935E-03 4.30426E-14 9.07367E-14
 -1       419 1.99918E+01-2.16679E-04-2.80946E-06-3.31643E-03 8.58275E-14 2.03394E-13
 -1       420 1.99934E+01-2.56188E-04-4.33457E-06-3.01954E-03 9.35874E-16 3.05350E-13
 -1       421 1.99948E+01-2.70904E-04-5.19302E-06-2.66546E-03 1.75762E-13 2.67376E-13
 -1       422 1.99961E+01-2.77349E-04-5.69311E-06-2.28396E-03 1.45873E-13 4.30963E-14
 -1       423 1.99973E+01-2.89839E-04-5.89821E-06-1.88269E-03 1.20539E-13 1.49513E-13
 -1       424 1.99982E+01-3.18270E-04-5.48208E-06-1.45328E-03 2.13986E-13 1.05555E-13
 -1       425 1.99990E+01-3.65601E-04-4.66226E-06-9.82465E-04 1.16525E-13 4.41257E-13
 -1       426 1.99993E+01-4.17984E-04-3.64787E-06-6.92721E-04-1.29853E-13 6.38198E-13
 -1       427 1.99998E+01-2.05082E-03-8.04316E-07-1.62532E-03-1.21505E-13-3.93188E-14
 -1       428 1.99995E+01-1.36996E-03-3.75554E-06-1.47615E-03-2.57591E-13 1.35691E-13
 -1       429 1.99994E+01-8.66993E-04-5.22116E-06-1.13061E-03-1.62572E-13 2.49699E-13
 -1       430 2.00000E+01-2.69502E-03 1.46410E-06-1.54059E-03-2.39804E-14-7.32950E-13
 -1       431 2.00002E+01-3.25806E-03 3.19744E-06-1.25277E-03 1.11709E-13-2.79688E-13
 -1       432 2.00003E+01-3.66818E-03 4.47216E-06-8.11752E-04 2.78165E-13 1.84656E-13
 -1       433 2.00003E+01-3.88287E-03 5.13036E-06-2.76813E-04-6.11287E-14 4.08730E-13
 -1       434 2.00003E+01-3.88003E-03 5.12982E-06 2.89098E-04 4.57294E-14-1.60493E-13
 -1       435 2.00003E+01-3.66000E-03 4.45666E-06 8.22189E-04-8.93982E-15-4.23728E-13
 -1       436 2.00001E+01-3.25435E-03 3.16676E-06 1.25360E-03 1.32696E-13-4.42004E-13
 -1       437 2.00000E+01-2.69127E-03 1.46138E-06 1.54041E-03 3.23928E-13 2.95084E-13
 -1       438 1.99998E+01-2.03564E-03-6.82234E-07 1.62406E-03 4.96999E-14 2.78750E-13
 -1       439 1.99995E+01-1.35524E-03-3.74957E-06 1.47843E-03 3.29567E-14-8.88964E-14
 -1       440 1.04462E+01-5.39856E+00 7.62612E-03 6.71744E+00 9.63118E-15 4.36449E-13
 -1       441 1.41738E+00-3.87686E+00-1.72710E-02-2.32004E-01 1.23706E-13 7.99305E-13
 -1       442 3.02771E+00-4.57186E+00-4.25759E-02 3.53946E+00 4.74690E-14 6.70464E-13
 -1       443 1.78097E+01-5.67707E+00-4.04386E-02 6.63888E+00 2.88686E-13 2.90809E-13
 -1       444 2.58912E+01-4.32954E+00-1.97143E-02 4.52065E+00 3.95392E-13 1.13909E-13
 -1       445 2.04318E+01 3.17021E+00-1.88743E-02-7.68269E-01-2.06378E-13-5.34191E-13
 -1       446 3.49535E+01 4.23008E+00 2.72658E-02-5.48928E-01 9.18418E-13-2.56614E-13
 -1       447 3.52650E+01 7.20608E+00-3.21663E-02-7.67426E-01 1.02474E-12-2.13475E-13
 -1       448 3.63805E+01 7.17186E+00 5.24182E-02 4.51618E-01 9.32865E-13-2.57863E-13
 -1       449 3.51202E+01 3.92733E+00 4.09456E-02 1.67458E-01 7.27057E-13-2.62596E-13
 -1       450 3.17810E+01-7.33598E-01 3.81228E-03-1.65370E+00 5.06734E-13-2.74031E-13
 -1       451 2.55344E+01-4.02171E+00-1.11733E-02-4.92549E+00 3.75741E-13-5.45217E-13
 -1       452 1.64309E+01-5.39528E+00-6.94656E-02-6.79742E+00 2.24154E-13-9.90420E-13
 -1       453 8.85354E+00-4.88244E+00-3.41721E-02-6.36243E+00 5.57748E-14-1.02396E-12
 -1       454 2.69597E+00-4.27483E+00-7.96455E-02-3.30271E+00 4.76216E-14-1.09648E-12
 -1       455 1.15038E+00-3.86830E+00-7.59127E-02 9.05308E-01 7.46972E-15-1.05385E-12
 -1       456 4.79740E+00-4.15469E+00-4.00170E-02 5.22358E+00-3.62210E-14-8.74606E-13
 -1       457 1.07317E+01-4.77450E+00-4.99137E-02 7.01294E+00-1.35308E-13-7.23144E-13
 -1       458 2.08423E+01-4.47112E+00-1.99270E-02 6.41593E+00-3.50192E-13-5.14033E-13
 -1       459 2.76164E+01-2.17248E+00 3.01562E-03 4.34196E+00-6.13690E-13-3.39520E-13
 -1       460 3.22020E+01 1.52802E+00-4.52604E-02 3.93659E-01-7.42736E-13-7.06102E-14
 -1       461 3.49987E+01 6.63851E+00 2.28962E-02-2.57503E-01-1.00769E-12-2.37560E-13
 -1       462 3.49213E+01 8.20686E+00-7.03557E-03 3.74279E-02-9.17433E-13-3.60787E-13
 -1       463 3.51652E+01 6.72215E+00 3.44059E-02 2.27696E-01-7.27501E-13-3.51635E-13
 -1       464 3.30228E+01 2.08437E+00 1.58962E-02-1.23614E+00-3.31991E-13-1.67893E-13
 -1       465 2.86031E+01-2.18973E+00 2.23224E-02-3.57587E+00-1.84644E-14 2.76446E-14
 -1       466 1.96260E+01-4.89620E+00-4.40261E-02-6.71300E+00 1.80661E-13 3.38590E-13
 -1       467 1.09898E+01-5.57839E+00-7.99425E-02-7.03887E+00 2.39170E-13 5.86947E-13
 -1       468 4.35038E+00-4.88467E+00-6.27477E-02-5.04934E+00 2.59404E-13 7.81028E-13
 -1       469 3.23032E+01-1.70416E-01 3.38678E-02 1.79927E+00 6.98070E-13-1.08330E-13
 -1       470 1.77527E+01-4.92708E+00 7.51776E-02 6.96945E+00 1.52253E-13-4.22155E-13
 -1       471 3.18266E+01 7.32422E+00-1.53411E-01-3.70980E-02 1.00697E-12 3.72003E-14
 -1       472 2.30159E+01 6.80011E-01 2.86333E-03-3.67508E-01 3.06907E-13 2.13460E-13
 -1       473 1.78892E+01 3.12020E+00-3.73954E-03 7.51440E-01 6.77256E-14-5.84806E-13
 -1       474 1.91448E+01 2.63113E+00-5.13625E-03 3.62707E-01-9.30313E-15-5.54600E-13
 -1       475 1.59273E+01 4.03269E+00-1.10755E-03 7.23092E-01 1.93402E-13-5.77984E-13
 -1       476 1.57247E+01 4.19739E+00-9.66491E-04 3.51828E-01 2.34590E-13-5.80376E-13
 -1       477 1.62294E+01 4.05346E+00-1.52844E-03-3.86759E-02 2.76688E-13-5.28904E-13
 -1       478 1.73829E+01 3.62816E+00-3.73898E-03-2.74415E-01 3.36830E-13-3.95858E-13
 -1       479 1.89805E+01 3.01753E+00-5.19927E-03-2.63184E-01 3.60746E-13-2.84657E-13
 -1       480 2.07853E+01 2.29628E+00-4.76510E-03-5.79153E-02 4.03254E-13-8.46706E-14
 -1       481 2.32195E+01 2.29295E-02 1.51856E-03-7.64722E-01 2.00868E-13 1.94176E-13
 -1       482 2.24010E+01 4.43810E-01 4.58365E-04-4.91346E-01-2.47788E-13-2.04056E-13
 -1       483 3.08879E+01 3.19146E-01-1.33730E-01-1.83218E+00 5.46521E-13-4.30253E-13
 -1       484 2.25274E+01-1.93407E-01 2.86050E-04-3.48110E-01-1.88540E-13-1.67990E-13
 -1       485 2.26987E+01-6.16861E-01-1.22159E-03-5.33702E-01-1.51819E-13-1.10740E-13
 -1       486 2.28604E+01-7.83194E-01-1.61113E-03-9.59788E-01-1.45054E-13-7.37191E-14
 -1       487 2.28933E+01-5.74256E-01-7.53575E-04-1.45298E+00-1.52315E-13-5.46807E-14
 -1       488 2.26971E+01 7.22224E-02-2.27564E-04-1.72690E+00-1.78636E-13-7.86043E-14
 -1       489 2.23180E+01 9.69921E-01-1.54432E-03-1.46821E+00-1.78825E-13-1.93940E-13
 -1       490 2.19822E+01 1.67338E+00-2.78973E-03-5.93943E-01-2.27720E-13-2.52976E-13
 -1       491 2.19520E+01 1.71814E+00-4.05936E-03 5.93940E-01-2.98647E-13-2.58856E-13
 -1       492 2.22418E+01 1.07143E+00-2.13026E-03 1.53093E+00-2.42866E-13-3.18308E-13
 -1       493 2.26104E+01 1.38065E-01-2.21497E-04 1.84362E+00-7.29218E-14-3.37868E-13
 -1       494 2.27979E+01-6.10233E-01-4.52257E-04 1.56112E+00-2.21157E-14-3.73869E-13
 -1       495 2.27188E+01-9.54932E-01-1.44734E-03 9.62823E-01 3.73808E-14-3.41609E-13
 -1       496 2.24433E+01-9.47484E-01-2.24320E-03 3.27292E-01 7.69540E-15-2.30792E-13
 -1       497 2.20833E+01-7.43877E-01-2.05778E-03-1.87020E-01-5.72616E-14-2.27469E-13
 -1       498 2.17211E+01-4.83815E-01-1.50035E-03-5.31164E-01 2.13737E-15-2.34661E-13
 -1       499 2.13974E+01-2.49433E-01-9.04659E-04-7.18092E-01-7.92792E-14-3.70053E-13
 -1       500 2.11238E+01-7.29886E-02-4.13883E-04-7.84167E-01-4.61609E-16-2.86516E-13
 -1       501 2.08977E+01 4.29345E-02-6.78531E-05-7.68259E-01 9.30304E-14-3.25038E-13
 -1       502 2.07124E+01 1.08833E-01 1.46778E-04-7.03142E-01 5.88903E-14-2.91673E-13
 -1       503 2.05608E+01 1.38467E-01 2.59706E-04-6.13303E-01-4.14060E-14-3.96659E-13
 -1       504 2.04370E+01 1.44305E-01 3.01999E-04-5.15512E-01-3.12085E-14-3.81718E-13
 -1       505 2.03364E+01 1.36014E-01 2.99949E-04-4.20342E-01-2.85578E-14-3.88264E-13
 -1       506 2.02553E+01 1.20418E-01 2.73196E-04-3.33791E-01-2.90135E-14-4.08463E-13
 -1       507 2.01906E+01 1.01996E-01 2.35121E-04-2.58691E-01 1.38926E-13-4.08792E-13
 -1       508 2.01397E+01 8.34840E-02 1.94133E-04-1.95817E-01 7.80074E-14-3.63418E-13
 -1       509 2.01001E+01 6.64084E-02 1.55068E-04-1.44697E-01 1.03965E-13-2.32067E-13
 -1       510 2.00698E+01 5.14988E-02 1.20377E-04-1.04175E-01-2.88974E-14-1.01073E-13
 -1       511 2.00471E+01 3.89856E-02 9.10082E-05-7.27969E-02-4.39361E-14-5.07703E-14
 -1       512 2.00304E+01 2.88064E-02 6.70248E-05-4.90417E-02-1.73485E-13 3.49147E-14
 -1       513 2.00183E+01 2.07424E-02 4.80091E-05-3.14674E-02 6.49734E-14-4.58006E-14
 -1       514 2.00098E+01 1.45056E-02 3.33208E-05-1.87833E-02 1.33417E-13-7.28824E-14
 -1       515 2.00041E+01 9.79203E-03 2.22525E-05-9.88181E-03 1.07024E-13 1.19021E-13
 -1       516 2.00004E+01 6.31245E-03 1.41183E-05-3.84222E-03 9.23595E-14 2.32028E-13
 -1       517 1.99981E+01 3.80803E-03 8.29929E-06 8.04733E-05-1.58297E-14 5.66094E-14
 -1       518 1.99968E+01 2.05659E-03 4.26267E-06 2.47497E-03-1.85390E-13-9.56676E-14
 -1       519 1.99963E+01 8.73203E-04 1.56458E-06 3.79608E-03-9.78061E-14 6.60000E-14
 -1       520 1.99962E+01 1.07505E-04-1.55886E-07 4.38712E-03 1.29915E-13 1.15291E-13
 -1       521 1.99965E+01-3.60733E-04-1.18640E-06 4.50059E-03 3.14093E-13 3.25498E-13
 -1       522 1.99969E+01-6.26700E-04-1.76049E-06 4.31619E-03 1.05111E-13 9.35532E-14
 -1       523 1.99973E+01-7.65752E-04-2.07173E-06 3.95603E-03 4.80048E-14-8.19075E-14
 -1       524 1.99978E+01-8.38115E-04-2.26604E-06 3.49694E-03 4.34285E-14-1.47207E-13
 -1       525 1.99983E+01-8.91144E-04-2.31256E-06 2.98056E-03 2.33145E-13 7.07326E-14
 -1       526 1.99987E+01-9.61915E-04-2.66061E-06 2.42305E-03 8.91169E-16 2.30301E-13
 -1       527 2.43745E+01-1.32363E+00-5.43215E-03-1.36838E-01-2.30868E-14 2.44600E-13
 -1       528 2.51680E+01-1.68760E+00-7.91350E-03 9.27458E-01 2.56674E-15 2.77325E-13
 -1       529 2.56969E+01-1.18795E+00-1.91305E-02 2.16382E+00 8.84956E-14 3.10503E-13
 -1       530 2.56025E+01 5.02848E-01-4.06315E-02 2.72801E+00 2.50642E-13 3.46984E-13
 -1       531 2.50662E+01 2.56778E+00-6.63057E-02 1.70113E+00 4.23869E-13 2.92395E-13
 -1       532 2.48488E+01 3.14839E+00-6.77518E-02-6.62009E-01 4.61515E-13 3.18660E-14
 -1       533 2.53072E+01 1.69265E+00-4.78715E-02-2.53511E+00 4.20129E-13-2.46086E-13
 -1       534 2.56530E+01-4.13734E-01-5.48672E-02-2.81875E+00 2.50388E-13-3.76593E-13
 -1       535 2.54962E+01-1.68469E+00-6.45930E-03-1.71484E+00 1.05744E-13-3.84106E-13
 -1       536 2.47471E+01-1.73119E+00-1.04906E-02-3.67739E-01-1.56119E-14-2.53069E-13
 -1       537 2.38449E+01-1.24354E+00-8.15673E-03 6.57849E-01 8.33415E-14-1.75786E-13
 -1       538 2.30556E+01-6.67221E-01-5.30807E-03 1.23587E+00 1.27345E-13-1.88319E-13
 -1       539 2.24313E+01-2.22306E-01-2.70264E-03 1.46159E+00 6.13072E-14-1.51497E-14
 -1       540 2.19479E+01 5.22060E-02-7.71672E-04 1.46020E+00-1.14227E-13-3.13995E-14
 -1       541 2.15659E+01 1.91224E-01 3.93494E-04 1.33438E+00-9.20233E-14-3.17978E-14
 -1       542 2.12556E+01 2.42340E-01 9.59592E-04 1.15371E+00 1.12841E-13-1.95608E-13
 -1       543 2.09989E+01 2.43893E-01 1.14554E-03 9.60356E-01 7.28842E-14-2.84697E-13
 -1       544 2.07855E+01 2.21236E-01 1.11958E-03 7.77254E-01 1.35090E-13-3.61103E-14
 -1       545 2.06092E+01 1.89286E-01 9.93472E-04 6.15165E-01-1.95879E-13 4.38787E-14
 -1       546 2.04651E+01 1.56022E-01 8.33447E-04 4.77683E-01-4.18644E-13-1.78177E-13
 -1       547 2.03490E+01 1.25276E-01 6.74231E-04 3.64508E-01-2.45027E-13-2.22758E-13
 -1       548 2.02570E+01 9.85733E-02 5.31532E-04 2.73437E-01 9.61198E-15 4.95692E-15
 -1       549 2.01852E+01 7.62449E-02 4.10676E-04 2.01513E-01 1.53959E-13 2.80578E-14
 -1       550 2.01302E+01 5.80484E-02 3.11833E-04 1.45645E-01-5.46692E-14 1.78283E-13
 -1       551 2.00887E+01 4.35040E-02 2.32908E-04 1.02930E-01 6.39865E-14 1.74077E-13
 -1       552 2.00581E+01 3.20648E-02 1.71033E-04 7.07860E-02 1.81199E-13 2.16474E-13
 -1       553 2.00359E+01 2.31994E-02 1.23274E-04 4.70015E-02 3.96277E-14 4.94839E-14
 -1       554 2.00203E+01 1.64275E-02 8.69499E-05 2.97274E-02-1.63805E-13 2.43228E-13
 -1       555 2.00096E+01 1.13319E-02 5.97316E-05 1.74480E-02 3.31444E-14 5.15278E-13
 -1       556 2.00025E+01 7.56024E-03 3.96634E-05 8.94146E-03 2.66073E-15 5.44963E-13
 -1       557 1.99981E+01 4.81974E-03 2.51352E-05 3.23728E-03 4.08285E-15 4.40134E-13
 -1       558 1.99956E+01 2.87128E-03 1.48414E-05-4.23886E-04-3.29539E-14 5.29546E-13
 -1       559 1.99944E+01 1.52195E-03 7.73655E-06-2.62745E-03 2.14940E-14 4.56073E-13
 -1       560 1.99940E+01 6.18042E-04 2.99236E-06-3.81747E-03-9.06492E-15 2.71958E-13
 -1       561 1.99942E+01 3.83267E-05-4.19609E-08-4.32468E-03-2.30412E-13 7.24017E-14
 -1       562 1.99948E+01-3.12020E-04-1.87437E-06-4.38989E-03 1.56899E-13 5.59438E-14
 -1       563 1.99955E+01-5.06932E-04-2.90340E-06-4.18321E-03-7.62322E-15-3.58022E-14
 -1       564 1.99962E+01-6.04311E-04-3.42052E-06-3.81940E-03 2.05984E-14 1.19240E-14
 -1       565 1.99970E+01-6.50212E-04-3.66987E-06-3.37001E-03 1.64484E-13 2.39353E-13
 -1       566 1.99977E+01-6.81845E-04-4.00933E-06-2.87356E-03 8.67350E-14 2.69382E-13
 -1       567 1.99983E+01-7.30605E-04-5.26245E-06-2.34648E-03 1.21288E-13 2.87306E-13
 -1       568 1.99989E+01-8.04755E-04-5.16212E-06-1.78156E-03 1.78633E-13 2.46757E-13
 -1       569 2.00004E+01-2.67030E-03 1.15240E-06-1.86926E-03 4.35322E-13-5.55299E-13
 -1       570 2.00007E+01-3.07164E-03 1.73887E-06-1.37203E-03 5.32200E-13-4.75133E-14
 -1       571 1.99995E+01-1.57189E-03-5.13648E-07-2.15322E-03-1.25959E-13-9.76554E-14
 -1       572 2.00000E+01-2.15693E-03 5.44658E-07-2.14405E-03-1.13246E-13 1.55721E-13
 -1       573 2.00009E+01-3.32420E-03 2.19212E-06-7.20640E-04 3.88776E-13 2.55073E-14
 -1       574 2.00009E+01-3.40863E-03 2.33293E-06 8.72931E-06 3.90378E-14 1.58332E-13
 -1       575 2.00009E+01-3.31843E-03 2.17148E-06 7.36847E-04-4.14338E-14-2.27074E-13
 -1       576 2.00007E+01-3.06681E-03 1.70654E-06 1.37472E-03 2.29999E-14-4.92836E-13
 -1       577 2.00004E+01-2.66434E-03 1.18048E-06 1.86981E-03 4.50605E-13-1.76684E-13
 -1       578 2.00000E+01-2.14465E-03 6.44715E-07 2.14510E-03 3.40302E-13 1.81003E-13
 -1       579 1.99995E+01-1.55647E-03-1.45077E-06 2.14170E-03-1.16215E-13-1.66371E-14
 -1       580 1.77247E+01-5.23980E+00 1.03825E-01 6.45195E+00-2.07882E-13 1.07529E-13
 -1       581 5.63089E+00-1.53443E+00 1.73092E-01-3.22717E+00 2.11046E-13 6.04503E-13
 -1       582 2.36771E+01-6.54630E-01-2.81214E-03-7.03642E-01 9.59083E-14 1.90438E-13
 -1       583 5.41750E+00-1.28000E+00 1.80934E-01 2.03693E+00-1.09301E-13 6.01560E-13
 -1       584 1.11162E+01-3.65446E+00 1.43679E-01-6.68711E+00 4.17090E-13 4.23446E-13
 -1       585 2.21223E+01 1.36395E+00-8.09929E-03-8.61201E-01-2.97067E-13-3.05911E-13
 -1       586 2.36376E+01-5.77169E+00 1.09641E-02 4.56599E+00-4.21330E-14-7.83609E-14
 -1       587 2.99251E+01 7.00307E+00-1.71199E-01-8.78476E-01-8.44616E-13-1.85706E-13
 -1       588 5.35456E+00-1.10008E+00 1.63700E-01 3.33430E+00 2.05110E-13-9.01904E-13
 -1       589 1.67314E+01 3.62757E+00-2.42567E-03 8.84517E-01 1.51693E-13-5.82569E-13
 -1       590 3.13320E+01 4.73667E+00-1.62404E-01 1.87333E+00 6.51576E-13 1.79329E-13
 -1       591 3.05301E+01 4.63457E+00-1.48785E-01-2.13528E+00 8.15029E-13-1.53925E-13
 -1       592 2.95772E+01 3.62362E+00-1.68607E-01-1.87230E+00-7.24053E-13 8.27324E-14
 -1       593 3.10112E+01 4.06767E-01-1.17984E-01 1.67216E+00 3.41262E-13 2.03441E-13
 -1       594 2.85978E+01-3.91623E+00-4.41573E-02-1.38198E+00 5.09089E-14 1.30743E-13
 -1       595 2.28952E+01-5.49155E+00 2.77242E-02-5.09511E+00-1.82042E-13-2.59303E-13
 -1       596 1.62470E+01-4.52417E+00 1.09840E-01-6.60408E+00-2.49051E-13-6.92835E-13
 -1       597 8.47678E+00-2.03644E+00 1.50967E-01-5.08806E+00-1.39944E-13-9.54681E-13
 -1       598 4.57494E+00-9.02411E-01 1.69514E-01-1.42795E+00 2.00343E-14-1.02554E-12
 -1       599 1.08261E+01-2.84938E+00 1.36896E-01 6.57747E+00 2.71443E-13-6.31883E-13
 -1       600 2.54564E+01-4.41524E+00-1.54782E-02 3.86070E+00-6.75501E-14-6.09582E-14
 -1       601 2.92728E+01-1.50614E+00-8.53176E-02 3.34332E-01 5.39013E-14-5.59504E-13
 -1       602 2.92366E+01-1.73840E+00-7.40894E-02 4.03759E-01-3.70971E-13 6.19504E-14
 -1       603 3.03573E+01 6.92729E+00-1.66461E-01 9.82387E-01-7.13832E-13-4.14651E-13
 -1       604 2.99973E+01 3.20381E+00-1.50302E-01 1.81713E+00-3.67983E-13-6.20011E-13
 -1       605 2.52250E+01-5.04953E+00-4.11141E-04-4.05397E+00 3.29521E-13-5.72251E-14
 -1       606 1.73630E+01-5.28595E+00 6.86552E-02-6.92708E+00 4.80935E-13 2.86455E-13
 -1       607 9.62651E+00-3.03678E+00 1.40989E-01 5.68132E+00-3.04062E-13 3.50234E-13
 -1       608 2.31471E+01 1.23743E+00-3.50679E-03 2.63183E-01 4.19690E-13 2.84742E-13
 -1       609 2.91782E+01-3.51649E+00-3.76065E-02 8.13510E-01 2.44603E-13-4.06994E-13
 -1       610 2.88578E+01 5.69414E+00-1.64523E-01 1.21452E+00 7.73992E-13 1.94497E-13
 -1       611 2.03341E+01 2.19747E+00-8.95874E-03-1.42603E-01-1.24697E-13-4.92583E-13
 -1       612 2.83564E+01 6.45289E-01-1.05317E-01-1.85543E+00-4.82007E-13 1.70648E-13
 -1       613 1.99990E+01-1.01886E-03-3.27912E-06 2.01359E-03-9.13368E-14 3.15589E-13
 -1       614 2.24212E+01-4.86659E+00 3.96294E-02 5.09568E+00 2.29664E-13-1.57788E-13
 -1       615 2.86697E+01 5.42977E+00-1.55932E-01-1.53008E+00 8.11635E-13-1.09874E-13
 -1       616 1.53921E+01 3.63528E+00 3.97329E-04-1.23115E-02 2.18424E-13-5.28889E-13
 -1       617 1.52747E+01 3.61699E+00 7.12977E-04 7.40162E-01 2.13092E-13-5.60480E-13
 -1       618 1.81107E+01 2.50818E+00 1.63588E-04-9.17404E-01 2.67023E-13-3.41244E-13
 -1       619 2.00374E+01 1.73164E+00-2.55946E-03-8.31585E-01 2.87353E-13-1.71350E-13
 -1       620 2.17341E+01 7.70613E-01 1.83640E-03-8.53596E-01 2.45884E-13-2.04166E-15
 -1       621 7.21064E+00 7.38470E-01 1.60069E-01 9.21780E-01 1.70485E-13-8.51569E-13
 -1       622 2.85914E+01-2.14685E+00-5.89016E-02-1.59402E+00 2.79500E-13-4.55250E-13
 -1       623 1.62950E+01-3.79885E+00 9.92771E-02-6.27215E+00 4.29743E-13 2.20723E-13
 -1       624 2.21901E+01-2.35422E-01-1.36145E-04-1.27973E+00 1.18371E-13 2.02882E-14
 -1       625 2.72548E+01 3.67158E-01-1.01428E-01 2.09724E+00-1.14606E-13-5.92158E-13
 -1       626 2.24849E+01-5.74245E-01-7.67398E-04-1.02333E-01-1.27101E-13-1.71952E-13
 -1       627 2.30526E+01-1.13473E+00-1.45329E-03-4.07621E-01-1.01586E-13-1.09951E-13
 -1       628 2.35922E+01-1.25163E+00-3.41227E-03-1.00984E+00-1.12881E-13-3.96736E-14
 -1       629 2.39024E+01-6.79730E-01-4.49532E-03-1.69201E+00-1.73896E-13-4.50616E-15
 -1       630 2.37859E+01 6.38946E-01-7.62367E-05-1.99062E+00-2.67636E-13-2.75061E-14
 -1       631 2.33202E+01 2.22336E+00-2.37744E-02-1.44867E+00-2.93523E-13-1.38731E-13
 -1       632 2.30868E+01 2.99681E+00-2.55469E-02-4.52810E-02-3.30925E-13-3.01203E-13
 -1       633 2.32650E+01 2.37769E+00-2.15845E-02 1.40551E+00-2.86170E-13-3.91307E-13
 -1       634 2.36559E+01 8.17495E-01-1.23305E-02 2.07428E+00-1.64310E-13-2.61059E-13
 -1       635 2.37876E+01-6.64145E-01-4.19089E-03 1.81415E+00-8.32083E-14-2.73148E-13
 -1       636 2.34813E+01-1.46664E+00-1.12708E-03 1.03914E+00 9.45029E-15-3.30618E-13
 -1       637 2.28777E+01-1.58682E+00-1.72661E-03 2.28854E-01 1.36120E-13-2.57035E-13
 -1       638 2.22065E+01-1.30545E+00-1.27030E-03-3.89033E-01 2.44682E-14-1.58931E-13
 -1       639 2.16130E+01-8.87494E-01-7.86017E-04-7.70456E-01-8.95776E-14-4.29079E-14
 -1       640 2.11510E+01-4.91459E-01-4.14893E-04-9.56243E-01-1.15795E-13-2.23350E-15
 -1       641 2.08167E+01-1.82713E-01-1.67540E-04-1.00465E+00-1.24496E-14-1.87478E-14
 -1       642 2.05840E+01 2.79652E-02-2.65611E-05-9.65955E-01 7.18698E-15-7.20090E-14
 -1       643 2.04245E+01 1.54387E-01 4.87754E-05-8.77504E-01 2.03495E-14-2.08684E-13
 -1       644 2.03145E+01 2.17615E-01 8.50431E-05-7.65194E-01-5.17175E-14-3.70658E-13
 -1       645 2.02371E+01 2.37780E-01 9.75175E-05-6.46155E-01-1.41477E-14-3.69451E-13
 -1       646 2.01812E+01 2.31108E-01 9.59171E-05-5.31123E-01 8.69156E-14-1.81202E-13
 -1       647 2.01395E+01 2.09472E-01 8.67456E-05-4.26282E-01-1.05335E-13-1.07114E-13
 -1       648 2.01076E+01 1.80971E-01 7.42555E-05-3.34662E-01-8.75053E-15-9.08942E-14
 -1       649 2.00828E+01 1.50780E-01 6.10533E-05-2.57180E-01 1.09124E-13-4.07713E-13
 -1       650 2.00633E+01 1.21968E-01 4.86042E-05-1.93421E-01 1.47173E-13-3.66992E-13
 -1       651 2.00479E+01 9.61595E-02 3.76272E-05-1.42197E-01 4.62333E-14-2.70196E-13
 -1       652 2.00357E+01 7.40377E-02 2.83809E-05-1.01938E-01-1.24848E-14-1.84700E-13
 -1       653 2.00262E+01 5.57048E-02 2.08579E-05-7.09575E-02 2.41810E-14-3.67919E-13
 -1       654 2.00189E+01 4.09284E-02 1.49098E-05-4.76149E-02-9.84556E-14-3.00220E-14
 -1       655 2.00133E+01 2.93062E-02 1.03256E-05-3.04105E-02-2.54722E-14-5.60417E-14
 -1       656 2.00090E+01 2.03707E-02 6.87747E-06-1.80318E-02 5.99665E-14-2.78845E-13
 -1       657 2.00059E+01 1.36531E-02 4.34764E-06-9.36852E-03 1.01026E-13-3.03856E-13
 -1       658 2.00036E+01 8.71905E-03 2.54094E-06-3.50623E-03-8.34658E-14-1.72186E-13
 -1       659 2.00020E+01 5.18584E-03 1.29029E-06 2.90022E-04-2.74538E-13-8.87370E-14
 -1       660 2.00009E+01 2.72833E-03 4.57067E-07 2.59817E-03-1.06473E-14-3.69613E-14
 -1       661 2.00001E+01 1.07767E-03-7.12573E-08 3.86290E-03 3.97589E-15-2.08781E-16
 -1       662 1.99997E+01 1.61668E-05-3.83667E-07 4.41858E-03 8.78695E-14-9.05984E-14
 -1       663 1.99994E+01-6.29857E-04-5.43526E-07 4.51017E-03-1.96199E-14-3.73385E-13
 -1       664 1.99993E+01-9.97738E-04-6.24199E-07 4.31128E-03 2.47499E-14-2.92431E-13
 -1       665 1.99993E+01-1.19613E-03-6.75133E-07 3.93940E-03 1.16658E-13-1.55676E-13
 -1       666 1.99993E+01-1.31046E-03-6.86861E-07 3.46863E-03 1.09236E-13-2.20619E-13
 -1       667 1.99994E+01-1.40709E-03-1.05709E-06 2.93738E-03 1.80125E-13-5.72327E-13
 -1       668 2.62253E+01-2.88382E+00-1.92237E-02 6.26056E-01-5.95665E-14 2.60138E-13
 -1       669 1.70287E+01-3.35465E+00 1.00343E-01 6.18217E+00 3.73344E-13-3.84227E-13
 -1       670 2.44725E+01-2.47265E+00 4.51927E-04-7.01701E-01-7.26517E-14 8.92942E-14
 -1       671 2.80165E+01 2.36947E+00-1.39885E-01 2.76990E+00 4.19297E-13 3.56271E-13
 -1       672 2.74836E+01 4.56082E-01-1.29239E-01-2.98925E+00 4.28952E-13-3.52812E-13
 -1       673 2.52248E+01-3.09226E+00 4.30076E-03 1.28123E-01-7.49021E-14-2.94623E-13
 -1       674 2.35703E+01-2.33284E+00-1.20888E-04 1.26577E+00-8.92282E-14-2.27871E-13
 -1       675 2.22980E+01-1.33843E+00-1.91022E-03 1.79841E+00 4.52290E-14-7.53231E-14
 -1       676 2.14921E+01-5.27377E-01-1.29756E-03 1.93131E+00-6.00738E-15 6.41693E-14
 -1       677 2.10217E+01-3.22116E-03-4.53993E-04 1.84893E+00-1.15077E-13 7.99536E-14
 -1       678 2.07514E+01 2.81810E-01 7.84071E-05 1.66402E+00-2.72352E-14 2.44810E-15
 -1       679 2.05883E+01 4.04355E-01 3.13319E-04 1.43886E+00 6.61683E-14-7.12152E-14
 -1       680 2.04786E+01 4.29957E-01 3.95982E-04 1.20832E+00-3.78328E-15 1.25907E-13
 -1       681 2.03951E+01 4.04159E-01 3.98012E-04 9.91324E-01 9.75028E-14 1.72119E-13
 -1       682 2.03256E+01 3.55246E-01 3.59523E-04 7.97335E-01-1.30638E-14 2.43866E-13
 -1       683 2.02653E+01 2.99376E-01 3.05600E-04 6.30039E-01-2.16352E-13 2.25441E-13
 -1       684 2.02127E+01 2.45030E-01 2.49882E-04 4.89645E-01-1.36612E-13-2.15886E-14
 -1       685 2.01675E+01 1.96161E-01 1.98879E-04 3.74398E-01-2.76516E-13-2.28673E-13
 -1       686 2.01293E+01 1.54200E-01 1.55057E-04 2.81561E-01 7.09165E-14-1.99483E-13
 -1       687 2.00979E+01 1.19257E-01 1.18809E-04 2.08035E-01-2.48753E-14 2.23369E-14
 -1       688 2.00725E+01 9.08018E-02 8.95821E-05 1.50727E-01 4.19540E-14 9.94259E-14
 -1       689 2.00524E+01 6.80446E-02 6.64604E-05 1.06759E-01 2.50228E-15 1.18914E-13
 -1       690 2.00369E+01 5.01291E-02 4.84569E-05 7.35672E-02 2.20347E-13 2.42716E-13
 -1       691 2.00251E+01 3.62335E-02 3.46416E-05 4.89379E-02-1.18723E-13 2.14225E-13
 -1       692 2.00164E+01 2.56149E-02 2.41928E-05 3.10062E-02-1.02121E-13-1.21151E-13
 -1       693 2.00101E+01 1.76261E-02 1.64106E-05 1.82317E-02-6.46983E-14 2.91838E-14
 -1       694 2.00056E+01 1.17169E-02 1.07124E-05 9.36455E-03 8.60966E-14 9.81330E-14
 -1       695 2.00026E+01 7.42911E-03 6.62125E-06 3.40678E-03-5.09361E-14 1.10443E-13
 -1       696 2.00005E+01 4.38654E-03 3.75210E-06-4.25669E-04-7.88612E-14 2.92807E-13
 -1       697 1.99993E+01 2.28508E-03 1.79775E-06-2.73902E-03-5.09663E-14 4.69255E-13
 -1       698 1.99986E+01 8.81772E-04 5.15285E-07-3.99399E-03-2.74494E-14 3.75447E-13
 -1       699 1.99983E+01-1.54296E-05-2.87569E-07-4.53395E-03 2.01881E-13 3.31300E-14
 -1       700 1.99982E+01-5.57141E-04-7.59954E-07-4.60880E-03 2.04695E-13-1.48757E-13
 -1       701 1.99983E+01-8.61155E-04-1.02820E-06-4.39472E-03 1.34242E-13-2.80945E-13
 -1       702 1.99985E+01-1.01980E-03-1.11307E-06-4.01029E-03 1.52268E-14-4.22104E-13
 -1       703 1.99987E+01-1.10619E-03-1.19587E-06-3.52978E-03 7.19008E-14-3.41209E-13
 -1       704 1.99989E+01-1.18001E-03-1.43861E-06-2.99410E-03-3.46488E-14-4.36677E-13
 -1       705 1.99993E+01-1.35986E-03-1.48888E-06-2.59177E-03 5.96541E-14-3.61190E-13
 -1       706 2.00016E+01-3.06853E-03 7.99566E-07-4.28778E-04 2.41249E-13-1.28706E-13
 -1       707 1.99994E+01-1.47429E-03-1.44061E-06 2.55090E-03 1.67812E-13-4.11621E-13
 -1       708 2.00010E+01-2.64105E-03 4.68396E-07-1.97369E-03 3.45105E-13-3.35216E-13
 -1       709 2.00016E+01-3.06513E-03 7.29196E-07 4.51395E-04 1.47253E-13-3.10878E-13
 -1       710 2.00014E+01-2.92494E-03 6.51500E-07-1.26632E-03 3.11711E-13 1.10502E-13
 -1       711 2.30723E+01-1.37997E+00 1.46223E-03-1.29888E+00-4.50459E-15 6.82775E-14
 -1       712 2.00014E+01-2.91899E-03 5.76711E-07 1.27215E-03-5.16349E-14-3.17530E-13
 -1       713 2.00010E+01-2.63248E-03 4.26494E-07 1.97612E-03 1.93574E-13 1.03406E-13
 -1       714 2.00005E+01-2.22142E-03 5.77597E-07 2.46416E-03 5.13897E-13 5.45561E-14
 -1       715 2.64212E+01-4.71474E+00-1.22554E-02 1.44124E+00-2.32384E-14-3.88590E-13
 -1       716 9.73096E+00-9.10392E-01 1.37568E-01 3.76603E+00-2.41827E-13 2.97609E-13
 -1       717 2.16167E+01 1.03581E+00-3.38133E-03-3.29445E-01-1.98016E-13-3.32131E-13
 -1       718 1.57168E+01-3.06994E+00 1.05502E-01 5.56560E+00-3.19446E-13 3.11143E-13
 -1       719 8.71378E+00 2.30342E-01 1.45911E-01-2.86325E+00-3.03767E-14-9.00509E-13
 -1       720 2.66334E+01-3.81414E+00-1.53321E-02-1.13321E+00 1.98559E-13-3.89754E-13
 -1       721 2.75763E+01-1.34596E+00-4.69746E-02 2.25422E+00 1.38703E-13 4.04564E-13
 -1       722 2.20419E+01 1.34792E-01 5.50603E-05-9.72087E-02-1.52644E-13-2.40521E-13
 -1       723 2.15796E+01-4.98562E+00 4.01209E-02 4.65652E+00-2.27138E-13-1.15479E-13
 -1       724 1.64202E+01 3.22333E+00 2.65521E-03-6.34724E-01 2.43226E-13-4.18834E-13
 -1       725 1.05578E+01-1.43646E+00 1.39616E-01-4.92096E+00 2.50980E-13 4.52492E-13
 -1       726 1.88990E+01 1.86590E+00-6.34182E-04 1.06298E+00 5.84187E-14-4.99017E-13
 -1       727 2.85909E+01-2.20821E+00-4.15589E-02 1.29559E+00 9.79442E-14 2.97862E-13
 -1       728 2.57460E+01-4.79411E+00-3.57547E-03-2.34142E+00-2.30798E-13 7.36633E-14
 -1       729 2.15216E+01-4.49511E+00 6.54722E-02-4.71211E+00-3.12399E-13-1.57977E-13
 -1       730 1.05997E+01-2.44637E-01 1.45303E-01 4.59807E+00 3.33577E-13-6.51743E-13
 -1       731 1.44926E+01-2.12731E+00 1.20122E-01-5.45769E+00-2.43951E-13-6.37664E-13
 -1       732 8.15775E+00 2.78857E-01 1.41739E-01-6.23979E-01-5.55302E-14 3.50830E-13
 -1       733 2.69769E+01 6.18613E+00-1.48418E-01 1.90811E-01-5.88342E-13-2.90579E-13
 -1       734 2.74215E+01 4.57719E+00-1.33669E-01 1.93907E+00-4.44290E-13-5.28251E-13
 -1       735 2.66713E+01-3.61562E+00-1.72661E-02 1.27821E+00-2.39260E-14 5.24407E-14
 -1       736 2.19973E+01-5.05369E+00 3.46165E-02-4.84928E+00 4.51542E-13 7.94308E-14
 -1       737 2.68501E+01 4.65733E+00-1.39615E-01-1.76110E+00-6.12191E-13-1.21049E-14
 -1       738 2.02623E+01 1.33676E+00 7.54537E-05 5.11662E-01-2.83659E-14-4.19246E-13
 -1       739 1.60577E+01 3.17739E+00-4.09693E-06 1.27785E+00 1.86031E-13-5.35859E-13
 -1       740 2.64169E+01-2.17652E+00-2.14162E-02 1.03152E+00 2.64762E-15-4.97864E-13
 -1       741 2.64278E+01 2.47051E+00-8.19960E-02-2.25319E+00-5.09599E-13 4.85792E-14
 -1       742 2.00005E+01-2.23458E-03 8.63045E-07-2.46452E-03 1.80810E-14 1.37152E-13
 -1       743 1.99999E+01-1.82355E-03 1.66726E-08-2.64299E-03-1.95877E-13 2.85982E-13
 -1       744 2.00000E+01-1.82488E-03-8.83761E-10 2.77804E-03 3.26682E-13-4.10775E-13
 -1       745 1.74000E+01 2.51809E+00-1.81409E-03 1.38509E+00 1.23799E-13-5.18516E-13
 -1       746 2.68851E+01-1.69038E+00-3.63123E-02-1.10248E+00-1.92494E-13 1.70215E-13
 -1       747 2.03218E+01 6.08874E-01-1.43746E-03-1.57575E+00 1.40152E-13-1.54407E-13
 -1       748 1.02024E+01 1.67966E+00 8.87639E-02-6.53192E-01 1.19790E-13-7.50820E-13
 -1       749 2.35596E+01-1.83191E+00-1.48932E-03 2.25110E-02-3.13901E-14-5.13391E-14
 -1       750 2.46216E+01-1.77270E+00-2.98855E-03-8.75923E-01-9.32154E-14 5.04835E-14
 -1       751 2.52702E+01-6.32864E-01-1.86628E-02-1.89522E+00-2.71815E-13 1.28867E-13
 -1       752 2.45179E+01 4.16729E+00-8.00944E-02 9.15552E-01-4.03686E-13-3.10531E-13
 -1       753 2.49071E+01 2.14066E+00-5.53495E-02 2.19929E+00-1.85104E-13-3.56166E-13
 -1       754 2.50552E+01-3.88530E-01-2.10672E-02 2.03256E+00-1.26882E-13-4.24368E-13
 -1       755 2.45152E+01-1.96753E+00-8.93311E-03 1.00291E+00-1.71271E-14-2.48631E-13
 -1       756 2.35027E+01-2.29660E+00-3.59895E-03-4.88200E-02 1.13138E-13-1.80992E-13
 -1       757 2.24313E+01-1.94674E+00-1.59953E-03-7.78320E-01 1.31733E-13-1.95664E-13
 -1       758 2.15439E+01-1.35026E+00-6.62361E-04-1.15234E+00 1.49845E-14-1.91756E-13
 -1       759 2.09072E+01-7.73326E-01-1.93943E-04-1.27877E+00-2.15586E-14-1.95864E-13
 -1       760 2.04915E+01-3.18446E-01 4.61429E-05-1.25947E+00-5.54389E-14-8.66826E-14
 -1       761 2.02401E+01-2.84359E-03 1.16308E-04-1.16302E+00-6.28816E-14-1.02285E-13
 -1       762 2.00992E+01 1.92172E-01 1.17160E-04-1.03069E+00-1.38867E-13-3.38501E-14
 -1       763 2.00274E+01 2.95528E-01 1.00895E-04-8.86388E-01-1.51511E-13-1.86972E-13
 -1       764 1.99958E+01 3.35075E-01 8.32838E-05-7.43907E-01 3.34276E-14-6.69008E-14
 -1       765 1.99861E+01 3.33587E-01 6.76256E-05-6.11112E-01 9.73758E-14 1.54569E-14
 -1       766 1.99869E+01 3.08087E-01 5.42587E-05-4.92203E-01 3.49882E-14-8.01660E-14
 -1       767 1.99920E+01 2.70503E-01 4.30325E-05-3.88996E-01 5.70922E-15 5.35495E-15
 -1       768 1.99978E+01 2.28722E-01 3.37131E-05-3.01729E-01-2.43067E-13-3.68954E-14
 -1       769 2.00029E+01 1.87626E-01 2.60650E-05-2.29616E-01 6.26718E-14-3.23246E-13
 -1       770 2.00066E+01 1.49978E-01 1.98639E-05-1.71266E-01 1.51596E-13-2.77457E-13
 -1       771 2.00089E+01 1.17107E-01 1.49000E-05-1.24977E-01-2.03844E-13-4.31380E-13
 -1       772 2.00100E+01 8.94198E-02 1.09797E-05-8.89545E-02-1.79631E-14-3.87882E-13
 -1       773 2.00101E+01 6.67670E-02 7.92795E-06-6.14558E-02 1.69385E-13-2.43111E-13
 -1       774 2.00097E+01 4.86904E-02 5.58851E-06-4.08778E-02 6.57738E-15-7.72704E-14
 -1       775 2.00088E+01 3.45901E-02 3.82476E-06-2.58043E-02-6.17143E-14 2.17943E-13
 -1       776 2.00077E+01 2.38287E-02 2.51921E-06-1.50234E-02-1.27702E-14 1.33217E-13
 -1       777 2.00065E+01 1.57943E-02 1.57275E-06-7.52535E-03 1.34770E-15-5.73691E-14
 -1       778 2.00054E+01 9.93389E-03 9.03128E-07-2.48782E-03-1.43030E-13-6.09735E-14
 -1       779 2.00044E+01 5.76812E-03 4.43207E-07 7.44407E-04-1.14465E-13 6.79737E-14
 -1       780 2.00034E+01 2.89425E-03 1.38511E-07 2.68293E-03-3.57718E-14 9.66402E-14
 -1       781 2.00026E+01 9.81863E-04-5.53192E-08 3.71895E-03-4.70681E-14-6.87465E-14
 -1       782 2.00019E+01-2.35171E-04-1.68579E-07 4.14486E-03 3.86778E-14-7.97326E-14
 -1       783 2.00013E+01-9.68366E-04-1.97310E-07 4.17347E-03 6.82076E-14 1.50375E-13
 -1       784 2.00009E+01-1.38421E-03-1.52967E-07 3.95454E-03 3.61596E-14 1.41469E-13
 -1       785 2.00005E+01-1.61403E-03 1.19638E-07 3.58890E-03-4.97621E-14-7.01621E-14
 -1       786 2.00002E+01-1.72777E-03-5.64060E-07 3.20575E-03-4.35049E-14-2.88600E-13
 -1       787 2.00023E+01-2.77103E-03 7.17891E-08 9.95383E-04 8.40721E-14-6.09969E-13
 -1       788 2.76392E+01 5.10079E+00-1.62663E-01 7.65487E-01 7.16337E-13 1.71444E-13
 -1       789 2.30321E+01-3.54570E+00 2.46290E-02 2.55016E+00-1.51567E-13-2.05896E-13
 -1       790 1.98461E+01-5.20438E-02 3.84364E-04 2.22253E+00-1.26607E-13 5.76647E-14
 -1       791 1.97281E+01 3.81152E-01 3.01741E-04 1.90153E+00-1.56655E-13 1.45591E-14
 -1       792 1.97416E+01 5.80180E-01 2.16289E-04 1.60591E+00-2.59103E-14 1.42241E-13
 -1       793 1.98021E+01 6.36302E-01 1.70695E-04 1.34076E+00-1.32279E-13 3.14863E-13
 -1       794 1.98692E+01 6.12831E-01 1.43262E-04 1.10540E+00-9.06653E-14 4.27833E-13
 -1       795 1.99261E+01 5.50171E-01 1.18757E-04 8.99008E-01 2.53486E-14 4.49942E-13
 -1       796 1.99683E+01 4.72544E-01 9.62247E-05 7.20747E-01-7.97892E-14 4.32408E-13
 -1       797 1.99965E+01 3.93543E-01 7.64395E-05 5.69353E-01 2.80186E-14 3.32751E-13
 -1       798 2.00134E+01 3.20175E-01 5.98036E-05 4.42978E-01-2.72489E-14 3.05859E-13
 -1       799 2.00223E+01 2.55546E-01 4.62029E-05 3.39267E-01 4.65671E-16 4.80518E-14
 -1       800 2.00257E+01 2.00559E-01 3.52674E-05 2.55551E-01 6.34621E-14 7.95234E-15
 -1       801 2.00256E+01 1.54940E-01 2.65802E-05 1.89057E-01-1.79439E-13 1.10998E-13
 -1       802 2.00236E+01 1.17841E-01 1.97530E-05 1.37079E-01 7.52532E-14 1.42510E-13
 -1       803 2.00207E+01 8.81807E-02 1.44461E-05 9.70996E-02-5.92551E-14 6.17663E-14
 -1       804 2.00175E+01 6.48357E-02 1.03692E-05 6.68586E-02-5.75410E-15 3.46954E-13
 -1       805 2.00144E+01 4.67371E-02 7.27759E-06 4.43888E-02 8.96650E-14 2.46001E-13
 -1       806 2.00115E+01 3.29196E-02 4.96683E-06 2.80180E-02 5.42971E-14 1.53395E-13
 -1       807 2.00090E+01 2.25399E-02 3.26793E-06 1.63553E-02-9.24830E-14 5.93178E-14
 -1       808 2.00069E+01 1.48795E-02 2.04261E-06 8.26533E-03-2.36683E-13 2.59645E-13
 -1       809 2.00051E+01 9.33769E-03 1.17894E-06 2.83808E-03-2.27481E-13 4.08545E-13
 -1       810 2.00038E+01 5.42064E-03 5.87435E-07-6.43594E-04-8.45297E-14 3.58298E-13
 -1       811 2.00027E+01 2.72846E-03 1.97321E-07-2.73503E-03 1.71238E-13 1.57935E-13
 -1       812 2.00018E+01 9.41379E-04-4.81589E-08-3.85844E-03 2.87474E-13-2.64336E-13
 -1       813 2.00012E+01-1.93625E-04-2.01088E-07-4.32826E-03 2.50593E-13-3.53402E-13
 -1       814 2.00007E+01-8.75194E-04-3.00796E-07-4.37289E-03 1.94731E-13-3.18228E-13
 -1       815 2.00003E+01-1.25898E-03-3.82814E-07-4.15301E-03 1.28037E-13-1.76759E-13
 -1       816 2.00001E+01-1.46543E-03-2.72568E-07-3.77577E-03-3.66768E-14-1.98943E-13
 -1       817 1.99999E+01-1.59186E-03-2.21304E-07-3.30745E-03 2.00961E-13-1.62969E-14
 -1       818 1.99999E+01-1.69972E-03-2.07014E-07-2.98079E-03-8.80959E-14 1.07894E-13
 -1       819 1.43190E+01 3.13889E+00 5.77568E-03 3.93524E-01 1.90984E-13-5.77326E-13
 -1       820 2.00025E+01-2.83779E-03 2.97109E-07 6.52373E-06 2.51563E-13-2.54781E-13
 -1       821 2.35520E+01-3.83978E+00 2.30957E-02 2.93477E+00 2.30906E-13-6.39783E-14
 -1       822 1.44071E+01-7.64299E-01 5.51005E-02 3.86720E+00-2.15435E-13 2.46077E-13
 -1       823 2.00019E+01-2.57921E-03 4.17864E-08 1.89027E-03 1.20850E-13 2.25665E-13
 -1       824 2.02449E+01-8.29681E-01 5.38620E-04 2.54326E+00-6.56432E-14 5.83550E-14
 -1       825 2.11874E+01-2.04178E+00 3.60672E-03 2.75403E+00-1.40063E-13-5.65934E-14
 -1       826 1.15791E+01 7.04979E-01 6.65156E-02 1.51411E+00-1.51802E-13 2.92925E-13
 -1       827 1.90398E+01-2.59459E+00 2.85721E-02-4.36203E+00-2.23129E-13-2.89841E-13
 -1       828 2.43227E+01-3.80671E+00 8.59677E-03-2.19006E+00-1.81333E-13 5.23482E-14
 -1       829 2.24991E+01-1.12411E+00-2.01259E-04 4.57568E-01-4.04967E-14-1.48902E-13
 -1       830 1.89035E+01-2.66575E+00 5.36642E-02 4.29325E+00-3.50655E-13 4.77621E-14
 -1       831 2.00012E+01-2.26414E-03 8.14855E-07 2.59532E-03 3.15510E-13 2.78568E-13
 -1       832 1.54467E+01-1.04084E+00 4.91727E-02 4.86974E+00 3.40908E-13-4.14811E-13
 -1       833 1.48704E+01-2.00438E+00 6.84403E-02-5.12955E+00 2.29559E-13 1.01096E-13
 -1       834 1.30062E+01 2.21821E-01 8.19895E-02-3.58830E+00-1.00885E-13-6.47114E-13
 -1       835 1.97288E+01-3.69078E+00 4.01103E-02-4.78068E+00 3.49070E-13 7.16970E-14
 -1       836 2.40319E+01-4.21416E+00-8.23251E-04-2.32609E+00 3.62637E-13-2.15998E-13
 -1       837 1.10190E+01 1.44424E+00 7.94464E-02 2.38598E+00 2.57357E-13-6.68503E-13
 -1       838 1.18206E+01 2.58492E-01 7.74074E-02-2.70609E+00 5.54014E-14 3.10698E-13
 -1       839 2.00918E+01-2.81968E+00 3.97724E-02 4.38250E+00 3.12293E-13-2.38136E-13
 -1       840 1.49348E+01 2.77881E+00 3.55113E-03 1.53392E+00 2.10427E-13-5.32851E-13
 -1       841 1.76690E+01 1.44138E+00 9.48190E-04-1.90369E+00 9.29322E-14-3.49721E-13
 -1       842 2.17051E+01-2.35609E-01 3.06026E-03 5.08134E-01-5.62886E-14-2.38340E-13
 -1       843 2.00013E+01-2.28523E-03-5.92134E-07-2.58644E-03-1.17995E-13 1.35322E-13
 -1       844 2.47689E+01 4.13474E+00-8.56231E-02-1.04100E+00-4.87776E-13-2.35266E-13
 -1       845 1.42570E+01 8.00494E-01 3.59380E-02 3.51397E+00 2.83235E-13-4.99003E-13
 -1       846 1.50433E+01 2.86179E+00 6.09627E-03-8.15276E-01 1.79017E-13-4.80498E-13
 -1       847 2.00019E+01-2.59248E-03 4.53055E-07-1.87216E-03 1.88225E-13 4.25253E-15
 -1       848 1.85445E+01 1.09557E+00 7.80694E-03 1.92158E+00 1.16193E-13-4.58175E-13
 -1       849 2.20809E+01-2.22190E+00 9.61304E-03-2.54821E+00-9.29066E-14-1.69296E-14
 -1       850 2.00023E+01-2.77792E-03 2.49666E-07-9.78278E-04 2.76385E-13 2.78377E-14
 -1       851 2.53890E+01-3.22061E+00-1.67158E-02 7.37624E-01 7.93853E-14 4.60734E-14
 -1       852 1.68209E+01-5.75887E-01 2.92637E-02-3.72284E+00-1.27561E-13-4.28573E-13
 -1       853 2.01450E+01 4.81927E-01-6.76544E-03 1.26056E+00 4.46696E-14-3.72811E-13
 -1       854 2.00008E+01-2.00352E-03-7.49672E-07 2.94665E-03 7.56266E-14-1.40949E-13
 -1       855 2.04307E+01-2.96545E-01 6.46687E-03-2.15233E+00 3.83861E-14-1.49504E-13
 -1       856 2.40465E+01-2.70724E+00-1.27818E-02 9.00673E-01 6.72021E-14-3.98574E-14
 -1       857 2.42681E+01-3.22639E+00 1.14851E-02-7.83069E-01 2.28057E-13-2.74411E-13
 -1       858 2.25476E+01-2.72960E+00 1.77016E-03-1.60493E+00 1.46811E-13-1.02540E-13
 -1       859 2.12723E+01-1.86091E+00 7.29042E-04-1.85798E+00 2.85429E-14-2.37899E-14
 -1       860 2.04527E+01-1.05286E+00 3.80620E-05-1.80390E+00 3.87873E-17 6.75805E-14
 -1       861 1.99800E+01-4.32402E-01-6.58739E-05-1.62085E+00-3.73899E-14 2.48385E-14
 -1       862 1.97413E+01-7.63946E-03-6.67309E-05-1.40089E+00-4.50224E-14 7.44629E-14
 -1       863 1.96473E+01 2.55237E-01-8.57827E-05-1.18424E+00-7.06579E-14 4.03931E-14
 -1       864 1.96362E+01 3.97221E-01-9.31472E-05-9.85792E-01-1.84113E-13 2.06779E-13
 -1       865 1.96684E+01 4.54962E-01-8.73386E-05-8.09896E-01 3.64499E-14 2.50984E-13
 -1       866 1.97195E+01 4.57693E-01-7.52655E-05-6.56909E-01 1.03693E-13 2.97934E-13
 -1       867 1.97752E+01 4.27280E-01-6.16461E-05-5.25804E-01-5.35572E-14 1.10250E-13
 -1       868 1.98276E+01 3.79291E-01-4.86873E-05-4.15033E-01 2.35119E-15-3.75539E-14
 -1       869 1.98732E+01 3.24287E-01-3.73138E-05-3.22791E-01-7.61975E-14-1.52910E-13
 -1       870 1.99107E+01 2.69034E-01-2.78100E-05-2.47121E-01-2.20961E-13 1.71467E-13
 -1       871 1.99402E+01 2.17543E-01-2.01457E-05-1.85994E-01 6.59305E-14 7.35552E-14
 -1       872 1.99625E+01 1.71908E-01-1.41437E-05-1.37386E-01-5.90223E-14-4.51644E-14
 -1       873 1.99788E+01 1.32939E-01-9.56706E-06-9.93493E-02 3.39233E-14 3.14633E-13
 -1       874 1.99902E+01 1.00638E-01-6.16682E-06-7.00770E-02 2.29483E-13 1.66335E-13
 -1       875 1.99979E+01 7.45329E-02-3.70764E-06-4.79401E-02 1.50291E-13 2.03854E-13
 -1       876 2.00027E+01 5.39073E-02-1.98099E-06-3.15112E-02 4.50368E-14 1.04858E-13
 -1       877 2.00055E+01 3.79556E-02-8.10257E-07-1.95695E-02-8.49325E-15-2.42892E-14
 -1       878 2.00068E+01 2.58758E-02-5.10043E-08-1.10941E-02-9.83744E-14 1.95844E-14
 -1       879 2.00071E+01 1.69247E-02 4.11516E-07-5.24813E-03-7.87965E-15 1.06778E-14
 -1       880 2.00068E+01 1.04459E-02 6.66030E-07-1.35898E-03-6.64158E-14 2.36927E-14
 -1       881 2.00062E+01 5.87864E-03 7.78982E-07 1.10412E-03-1.05232E-13 1.10412E-13
 -1       882 2.00054E+01 2.75718E-03 7.97215E-07 2.55210E-03-1.92190E-13 5.51904E-14
 -1       883 2.00045E+01 7.02239E-04 7.40476E-07 3.29683E-03-6.89198E-14 9.69323E-14
 -1       884 2.00036E+01-5.90100E-04 7.20896E-07 3.56983E-03 2.10197E-13 1.56117E-13
 -1       885 2.00028E+01-1.35989E-03 6.20165E-07 3.53760E-03-7.95393E-15 1.86285E-13
 -1       886 2.00020E+01-1.79839E-03-4.37096E-07 3.31830E-03-1.72173E-13-8.84699E-15
 -1       887 1.87243E+01 7.79783E-01 3.23739E-04 1.62146E+00-1.60206E-13 1.67694E-13
 -1       888 1.84418E+01 5.41629E-01 5.56575E-04 2.00586E+00-7.66288E-14 2.49654E-13
 -1       889 1.92436E+01 8.28679E-01 4.33844E-05 1.09323E+00-8.36343E-14 1.60672E-13
 -1       890 1.94429E+01 7.54370E-01 2.86695E-05 8.95896E-01 9.49524E-14-3.80855E-14
 -1       891 1.95997E+01 6.57981E-01 2.04443E-05 7.27742E-01-2.21960E-14 3.00728E-14
 -1       892 1.97191E+01 5.56564E-01 1.43157E-05 5.84124E-01-5.48061E-15 9.17683E-14
 -1       893 1.98080E+01 4.59719E-01 9.93809E-06 4.62401E-01-1.94435E-14 8.24969E-14
 -1       894 1.98726E+01 3.72324E-01 6.95978E-06 3.60558E-01 6.66413E-14 1.54279E-13
 -1       895 1.99188E+01 2.96368E-01 4.94121E-06 2.76645E-01 1.11597E-13 1.88500E-13
 -1       896 1.99510E+01 2.32146E-01 3.54388E-06 2.08623E-01 2.21011E-14 2.38148E-13
 -1       897 1.99731E+01 1.79018E-01 2.54857E-06 1.54390E-01-9.32622E-14-5.26031E-14
 -1       898 1.99877E+01 1.35872E-01 1.82237E-06 1.11870E-01 8.56138E-14-5.64998E-14
 -1       899 1.99971E+01 1.01412E-01 1.28499E-06 7.90983E-02-1.49751E-13-6.06708E-14
 -1       900 2.00028E+01 7.43182E-02 8.85955E-07 5.42827E-02 6.54374E-14-4.72016E-14
 -1       901 2.00060E+01 5.33450E-02 5.91334E-07 3.58419E-02 6.82799E-15 2.79739E-13
 -1       902 2.00074E+01 3.73662E-02 3.76678E-07 2.24180E-02 3.49109E-14 3.57960E-13
 -1       903 2.00078E+01 2.53966E-02 2.23381E-07 1.28729E-02-6.45507E-14 3.37539E-13
 -1       904 2.00074E+01 1.65944E-02 1.16872E-07 6.27256E-03-2.98888E-13 1.88529E-13
 -1       905 2.00067E+01 1.02554E-02 4.57214E-08 1.86583E-03-1.96293E-13 1.00348E-14
 -1       906 2.00059E+01 5.80036E-03 1.24504E-09-9.40316E-04-8.95312E-14 1.04965E-13
 -1       907 2.00049E+01 2.75988E-03-2.32971E-08-2.60528E-03 2.96384E-13 1.87574E-13
 -1       908 2.00040E+01 7.58786E-04-3.92209E-08-3.47799E-03 3.12203E-13 2.66046E-13
 -1       909 2.00031E+01-4.99757E-04-8.32392E-08-3.81784E-03 1.18455E-13 3.20871E-13
 -1       910 2.00024E+01-1.24877E-03-3.12400E-08-3.81208E-03 3.08956E-14 3.80601E-13
 -1       911 2.00017E+01-1.66973E-03 4.67214E-08-3.59530E-03 5.17737E-14 5.19892E-13
 -1       912 2.00011E+01-1.90983E-03-2.78723E-07-3.24941E-03-1.01096E-13 5.81954E-13
 -1       913 2.00033E+01-2.55407E-03 6.21284E-07 5.62754E-04-1.41398E-14-5.35386E-13
 -1       914 1.65550E+01 1.97307E+00 3.09519E-03 2.06795E+00 1.85567E-13-4.72345E-13
 -1       915 2.00006E+01-2.01772E-03-3.35819E-07-2.87232E-03-1.81244E-13 6.20696E-13
 -1       916 2.24680E+01-2.67628E+00 3.11781E-02 2.46974E+00 1.57690E-13-1.68175E-13
 -1       917 2.00030E+01-2.44945E-03 2.77294E-07 1.61446E-03 1.83869E-13-2.81171E-13
 -1       918 1.82490E+01 1.93572E-02-1.23703E-03 2.54093E+00-1.47262E-13 3.92256E-13
 -1       919 1.83281E+01-9.23935E-01 1.49586E-02 3.27233E+00-2.42098E-13 1.32820E-13
 -1       920 1.47075E+01 4.95437E-01 1.87761E-02 2.36662E+00-2.88787E-13 1.17172E-13
 -1       921 1.90009E+01 8.52311E-01 9.11995E-05 1.32905E+00-1.32545E-13 3.02081E-13
 -1       922 2.16340E+01-3.29508E+00 8.76949E-03-3.07616E+00 2.62087E-13-1.32183E-13
 -1       923 2.00023E+01-2.22670E-03 7.27130E-07 2.52831E-03 2.15721E-14 2.83161E-13
 -1       924 1.29999E+01 1.78064E+00 3.44528E-02-1.77778E+00 5.15722E-14-6.00688E-13
 -1       925 1.32716E+01 1.07049E+00 2.08782E-02-5.62778E-01-2.95605E-14 1.99122E-13
 -1       926 1.50377E+01-6.35581E-01 2.68248E-02-3.67523E+00 1.28758E-13 1.33621E-13
 -1       927 1.20178E+01 2.29452E+00 4.71397E-02 6.70442E-01 2.11173E-13-6.50958E-13
 -1       928 1.81998E+01-2.12297E+00 2.14138E-02-4.10487E+00 1.65990E-13 4.94179E-15
 -1       929 1.83865E+01-8.67400E-01 2.11118E-02 3.68623E+00 2.53129E-13-3.63942E-13
 -1       930 2.12804E+01-6.78219E-01 5.00310E-03 1.40625E+00 5.31873E-14-2.79046E-13
 -1       931 2.00013E+01-1.93489E-03-9.87213E-07 3.16626E-03-2.19554E-13-1.74140E-13
 -1       932 2.00034E+01-2.56089E-03 3.91130E-07-5.35729E-04-4.02581E-15-1.35537E-13
 -1       933 1.77614E+01 2.90397E-01-1.00345E-02 2.92907E+00 1.91973E-13-4.28778E-13
 -1       934 1.50707E+01 1.47692E+00 1.61063E-02-2.27660E+00 2.59113E-14-4.91159E-13
 -1       935 1.33082E+01 2.45070E+00 2.28037E-02 1.37606E+00 2.24306E-13-6.20993E-13
 -1       936 2.24083E+01-1.83901E+00-1.78107E-03 1.42689E+00 6.12986E-14-1.65886E-13
 -1       937 1.47949E+01 6.53098E-01 8.13690E-03-1.92281E+00-4.89646E-14 1.72196E-13
 -1       938 2.00022E+01-2.23780E-03-4.49384E-07-2.59163E-03 5.76007E-14 1.09633E-13
 -1       939 1.89938E+01-4.57393E-01 3.92731E-02-2.91542E+00-7.12524E-14-2.87371E-13
 -1       940 1.94088E+01 7.16530E-01-1.78866E-05 5.19245E-01 1.48312E-14-1.11696E-13
 -1       941 1.74038E+01-7.86374E-01 1.36199E-02-3.18754E+00 6.70700E-14-5.15181E-14
 -1       942 2.00030E+01-2.46178E-03-2.39467E-07-1.58953E-03-4.51972E-14 4.73754E-15
 -1       943 1.81208E+01 1.06387E+00-2.39869E-04 1.12814E+00-8.55204E-14 7.01552E-14
 -1       944 2.01855E+01-2.02568E+00 4.88022E-03-2.87349E+00 1.25078E-13-1.34821E-13
 -1       945 1.94276E+01-1.01011E+00-6.57494E-04-2.42125E+00 1.27371E-13-4.29366E-14
 -1       946 1.91017E+01-2.99170E-01 2.35598E-04-1.96010E+00 3.58973E-14-1.76537E-14
 -1       947 1.90176E+01 1.56368E-01 3.76563E-04-1.56422E+00-1.06073E-13 1.59854E-14
 -1       948 1.90617E+01 4.24426E-01 2.87681E-04-1.24264E+00-7.50791E-14 4.96678E-14
 -1       949 1.91670E+01 5.60417E-01 2.15832E-04-9.86082E-01-4.57860E-14 4.48455E-14
 -1       950 1.92953E+01 6.06929E-01 1.64883E-04-7.81314E-01-4.94610E-14 7.41654E-14
 -1       951 1.94253E+01 5.95669E-01 1.27442E-04-6.16954E-01 8.18270E-14 2.68420E-14
 -1       952 1.95455E+01 5.49800E-01 9.76553E-05-4.84404E-01-4.92246E-15 6.16218E-14
 -1       953 1.96506E+01 4.85837E-01 7.37984E-05-3.77342E-01 1.39826E-13 1.90485E-13
 -1       954 1.97387E+01 4.15107E-01 5.47112E-05-2.91044E-01-6.35143E-15 3.74029E-13
 -1       955 1.98102E+01 3.44975E-01 3.96206E-05-2.21852E-01 2.74445E-14 4.09172E-13
 -1       956 1.98665E+01 2.79881E-01 2.79025E-05-1.66814E-01-8.19460E-14 3.67133E-13
 -1       957 1.99097E+01 2.22171E-01 1.89931E-05-1.23472E-01 1.70646E-14 2.96455E-13
 -1       958 1.99420E+01 1.72762E-01 1.23727E-05-8.97368E-02-2.13848E-14 2.55389E-13
 -1       959 1.99654E+01 1.31641E-01 7.57406E-06-6.38222E-02-1.77831E-13 1.30805E-13
 -1       960 1.99819E+01 9.82432E-02 4.19144E-06-4.42033E-02 1.27296E-13-1.50515E-13
 -1       961 1.99931E+01 7.17054E-02 1.88418E-06-2.95897E-02 7.85614E-14-2.22420E-13
 -1       962 2.00003E+01 5.10498E-02 3.74681E-07-1.89018E-02-1.18828E-13-3.32844E-13
 -1       963 2.00047E+01 3.52952E-02-5.57426E-07-1.12483E-02-2.62653E-15-2.65076E-13
 -1       964 2.00070E+01 2.35257E-02-1.08309E-06-5.90370E-03-1.31416E-13-4.22547E-13
 -1       965 2.00079E+01 1.49259E-02-1.33228E-06-2.28656E-03 9.34063E-14-3.96392E-13
 -1       966 2.00079E+01 8.79487E-03-1.40250E-06 6.22693E-05 7.57353E-14-4.53084E-13
 -1       967 2.00073E+01 4.54638E-03-1.36785E-06 1.49937E-03-1.12507E-13-3.22540E-13
 -1       968 2.00064E+01 1.70054E-03-1.29089E-06 2.29691E-03-4.91250E-14-4.75094E-14
 -1       969 2.00054E+01-1.28423E-04-1.09623E-06 2.65824E-03 8.52431E-14-1.43702E-14
 -1       970 2.00044E+01-1.24500E-03-6.70025E-07 2.73467E-03-5.90549E-14-8.38428E-14
 -1       971 2.00034E+01-1.90481E-03-2.37904E-07 2.63008E-03-6.67695E-14-7.22164E-14
 -1       972 1.75618E+01 1.00363E+00-3.83016E-04 1.40999E+00-1.33802E-13 1.09163E-13
 -1       973 1.31850E+01 2.13742E+00 1.83536E-02 1.84795E+00 2.24689E-13-5.93981E-13
 -1       974 1.50789E+01 1.52548E+00 1.50678E-02 2.76784E+00 2.37777E-13-4.75531E-13
 -1       975 1.91954E+01 8.35046E-01-2.81624E-05 6.33993E-01-3.02957E-14 8.03569E-14
 -1       976 1.89198E+01 9.45413E-01-5.37049E-05 7.67059E-01 3.15042E-14 4.01286E-14
 -1       977 1.95721E+01 6.00609E-01-1.29090E-05 4.19757E-01-1.49391E-14-1.60651E-13
 -1       978 1.96956E+01 4.93505E-01-9.88710E-06 3.34188E-01-2.09182E-14-2.65496E-13
 -1       979 1.97880E+01 3.98360E-01-7.63561E-06 2.61680E-01-7.18033E-14-2.01871E-13
 -1       980 1.98561E+01 3.16298E-01-5.82729E-06 2.01321E-01 3.46606E-14-1.40268E-13
 -1       981 1.99056E+01 2.47177E-01-4.36400E-06 1.52007E-01 5.41585E-14 9.20697E-14
 -1       982 1.99410E+01 1.90118E-01-3.19901E-06 1.12466E-01-2.05628E-14 1.70312E-13
 -1       983 1.99657E+01 1.43855E-01-2.29143E-06 8.13487E-02 1.34764E-14 2.31196E-13
 -1       984 1.99827E+01 1.06965E-01-1.59953E-06 5.73153E-02-1.83238E-14 2.58139E-13
 -1       985 1.99938E+01 7.80195E-02-1.08288E-06 3.91061E-02-2.47857E-13 2.55159E-13
 -1       986 2.00009E+01 5.56711E-02-7.04926E-07 2.55856E-02-2.19116E-14 3.87959E-13
 -1       987 2.00050E+01 3.87003E-02-4.34297E-07 1.57651E-02 8.08386E-14 4.15318E-13
 -1       988 2.00071E+01 2.60393E-02-2.45086E-07 8.80790E-03-1.49629E-13 5.38313E-13
 -1       989 2.00079E+01 1.67755E-02-1.16333E-07 4.02365E-03-2.20727E-13 4.53602E-13
 -1       990 2.00078E+01 1.01452E-02-3.08452E-08 8.55269E-04-8.74358E-15 5.00309E-13
 -1       991 2.00072E+01 5.52057E-03 2.66383E-08-1.13750E-03 5.01280E-14 2.09043E-13
 -1       992 2.00063E+01 2.39374E-03 6.96816E-08-2.29545E-03 1.82464E-13 2.19431E-13
 -1       993 2.00053E+01 3.59171E-04 8.22644E-08-2.87698E-03 1.74516E-13 3.55942E-13
 -1       994 2.00043E+01-9.03746E-04 3.51551E-08-3.07395E-03-7.35070E-15 5.40165E-13
 -1       995 2.00034E+01-1.65066E-03-7.32753E-07-3.02012E-03-3.35413E-15 3.60485E-13
 -1       996 2.00027E+01-1.98769E-03-1.08603E-06-2.83368E-03-4.63661E-14 5.15885E-13
 -1       997 1.35065E+01 2.64893E+00 2.56855E-02-4.28905E-01 1.69517E-13-5.63301E-13
 -1       998 1.85673E+01 1.03051E+00-9.92288E-05 9.26001E-01-1.49675E-14-7.56968E-15
 -1       999 1.50547E+01 1.14489E+00 1.73742E-03 8.12628E-01-1.36548E-13 1.67311E-13
 -1      1000 1.68988E+01 7.91753E-01 1.24098E-03 1.83087E+00-5.00456E-14 7.02457E-14
 -1      1001 2.00042E+01-2.14747E-03-2.70820E-06 1.18595E-03-1.00013E-14-3.89724E-13
 -1      1002 2.00044E+01-2.16269E-03 3.39913E-07 2.46579E-05-2.31177E-13-2.37678E-13
 -1      1003 1.53368E+01 1.18892E+00 4.57995E-03-3.74311E-01-2.58589E-14 1.73857E-13
 -1      1004 2.00042E+01-2.17831E-03 8.20207E-07-1.14656E-03-4.51917E-14-1.67250E-13
 -1      1005 1.75571E+01-3.20023E-02 7.14119E-05-2.32807E+00 1.53096E-14-1.83489E-13
 -1      1006 1.78491E+01 4.19909E-01 4.25348E-04-1.69145E+00 1.41996E-14-2.99179E-13
 -1      1007 1.81769E+01 6.67276E-01 9.69351E-05-1.24198E+00-5.70705E-15-2.42243E-13
 -1      1008 1.84897E+01 7.82276E-01-2.33842E-05-9.21884E-01 6.41947E-14-1.81380E-13
 -1      1009 1.87725E+01 8.09413E-01-4.32752E-05-6.89861E-01 8.82785E-14 5.39820E-14
 -1      1010 1.90201E+01 7.79320E-01-3.47270E-05-5.19147E-01 4.71662E-14 2.22668E-13
 -1      1011 1.92318E+01 7.14384E-01-2.68067E-05-3.91771E-01 2.96508E-14 2.72048E-13
 -1      1012 1.94088E+01 6.31072E-01-2.04056E-05-2.95686E-01 2.78666E-13 2.47676E-13
 -1      1013 1.95539E+01 5.41074E-01-1.50861E-05-2.22599E-01 1.97081E-13 1.96768E-13
 -1      1014 1.96705E+01 4.52295E-01-1.06738E-05-1.66726E-01-2.36573E-14 2.25585E-13
 -1      1015 1.97624E+01 3.69699E-01-7.12796E-06-1.23934E-01-2.49101E-13-5.37319E-14
 -1      1016 1.98334E+01 2.96040E-01-4.38011E-06-9.11962E-02 1.37281E-14-1.01000E-13
 -1      1017 1.98872E+01 2.32484E-01-2.33464E-06-6.62462E-02 1.25571E-13 7.23534E-14
 -1      1018 1.99271E+01 1.79121E-01-8.80449E-07-4.73497E-02-6.51414E-14 9.88196E-14
 -1      1019 1.99559E+01 1.35360E-01 9.70893E-08-3.31601E-02-3.42417E-14 1.96225E-13
 -1      1020 1.99762E+01 1.00228E-01 7.06288E-07-2.26204E-02-1.46940E-13-1.16159E-13
 -1      1021 1.99899E+01 7.25802E-02 1.04272E-06-1.48957E-02-2.74937E-13-5.31912E-13
 -1      1022 1.99989E+01 5.12386E-02 1.18620E-06-9.32533E-03-8.36181E-14-7.76267E-13
 -1      1023 2.00043E+01 3.50835E-02 1.20030E-06-5.38749E-03-1.11195E-13-8.49042E-13
 -1      1024 2.00073E+01 2.31020E-02 1.13355E-06-2.67194E-03-1.54929E-13-6.33845E-13
 -1      1025 2.00086E+01 1.44113E-02 1.02133E-06-8.58517E-04 3.80595E-14-9.19810E-13
 -1      1026 2.00087E+01 8.26390E-03 8.88112E-07 3.00247E-04 1.85727E-13-9.55053E-13
 -1      1027 2.00082E+01 4.04114E-03 7.50940E-07 9.93368E-04 1.01930E-13-7.56524E-13
 -1      1028 2.00073E+01 1.24092E-03 6.51479E-07 1.36304E-03 2.08529E-13-5.47532E-13
 -1      1029 2.00061E+01-5.28386E-04 2.05792E-06 1.51472E-03 8.61237E-15-5.19365E-13
 -1      1030 2.00052E+01-1.51808E-03 2.14379E-06 1.38548E-03 1.15862E-13-1.73250E-13
 -1      1031 1.72585E+01 1.22992E+00 3.70967E-04 6.75078E-01-5.46688E-14-1.85683E-14
 -1      1032 1.88033E+01 9.78991E-01-8.42442E-05 4.29321E-01 3.67327E-14-8.64174E-15
 -1      1033 1.96489E+01 4.96042E-01-2.08721E-05 2.04343E-01 7.30442E-14-9.68768E-15
 -1      1034 1.97521E+01 3.99320E-01-1.72464E-05 1.61438E-01-3.97895E-14-2.73552E-13
 -1      1035 1.98292E+01 3.16207E-01-1.41385E-05 1.24899E-01-1.82489E-13-2.49916E-13
 -1      1036 1.98860E+01 2.46367E-01-1.14312E-05 9.45719E-02-1.28871E-13-1.23164E-13
 -1      1037 1.99272E+01 1.88828E-01-9.09567E-06 6.99966E-02-5.36024E-14-1.35297E-13
 -1      1038 1.99564E+01 1.42274E-01-7.11715E-06 5.05266E-02-9.98196E-14-1.41917E-15
 -1      1039 1.99767E+01 1.05247E-01-5.47402E-06 3.54336E-02-5.58920E-14 1.66768E-13
 -1      1040 1.99903E+01 7.62851E-02-4.13576E-06 2.39843E-02-1.71895E-13-1.24727E-13
 -1      1041 1.99991E+01 5.40083E-02-3.06590E-06 1.54908E-02-2.08102E-13 1.18228E-13
 -1      1042 2.00044E+01 3.71693E-02-2.22580E-06 9.33975E-03-1.19721E-13 4.41177E-13
 -1      1043 2.00072E+01 2.46757E-02-1.57749E-06 5.00428E-03-2.17815E-14 4.39786E-13
 -1      1044 2.00084E+01 1.55948E-02-1.08494E-06 2.04589E-03-3.74732E-14 2.02108E-13
 -1      1045 2.00086E+01 9.14728E-03-7.13062E-07 1.09114E-04-7.83895E-14 3.26989E-13
 -1      1046 2.00080E+01 4.69402E-03-4.23685E-07-1.08738E-03 1.53753E-13 4.63292E-13
 -1      1047 2.00071E+01 1.71897E-03-1.70551E-07-1.76111E-03 5.64348E-14 4.55635E-13
 -1      1048 2.00060E+01-1.88153E-04 4.42540E-08-2.07567E-03 3.83908E-14 2.24875E-13
 -1      1049 2.00049E+01-1.36850E-03-1.74540E-06-2.15855E-03 3.03874E-13-1.34074E-13
 -1      1050 1.95126E+01 6.05687E-01-2.54439E-05 2.53355E-01-1.53782E-14 3.54962E-14
 -1      1051 1.91026E+01 8.52845E-01-4.44675E-05 3.66605E-01 1.33756E-13-3.47398E-14
 -1      1052 1.84169E+01 1.09361E+00-2.42338E-04 4.96820E-01-4.50851E-14 9.82706E-14
 -1      1053 1.93342E+01 7.26055E-01-3.22500E-05 3.07766E-01-7.04112E-14-3.18680E-14
 -1      1054 1.63456E+01 1.23926E+00 4.81869E-03 7.39142E-01-7.02986E-14 7.53084E-14
 -1      1055 1.79156E+01 1.18314E+00-3.28641E-04 5.73887E-01-7.42094E-14 3.36484E-14
 -1      1056 2.00036E+01-2.10372E-03 2.58641E-06-2.04968E-03-4.16315E-14-3.84762E-13
 -1      1057 2.00055E+01-1.55206E-03-2.60159E-06 1.85198E-04 1.78433E-13-2.59744E-13
 -1      1058 1.65089E+01 8.50293E-01 1.19321E-04-1.35652E+00-1.01527E-13 1.83240E-13
 -1      1059 1.72449E+01 9.89106E-01-2.67178E-04-9.18718E-01-4.97397E-15 4.76390E-14
 -1      1060 1.78301E+01 1.03192E+00-6.75425E-04-6.28876E-01 7.44412E-14 5.49067E-14
 -1      1061 1.82958E+01 1.01071E+00-3.97654E-04-4.30334E-01 1.47291E-13 5.74418E-14
 -1      1062 1.86699E+01 9.45998E-01-1.00732E-04-2.93828E-01 2.38265E-13-3.70508E-14
 -1      1063 1.89714E+01 8.54068E-01-4.98773E-05-1.99819E-01 6.39689E-14 5.31370E-14
 -1      1064 1.92140E+01 7.48767E-01-3.31232E-05-1.35438E-01 6.24579E-14-1.10559E-13
 -1      1065 1.94080E+01 6.40085E-01-2.25365E-05-9.14792E-02 5.55053E-14-2.97166E-13
 -1      1066 1.95616E+01 5.35062E-01-1.53349E-05-6.15865E-02 7.21354E-14-5.46981E-13
 -1      1067 1.96816E+01 4.38246E-01-1.01455E-05-4.13299E-02-2.02716E-13-3.98906E-13
 -1      1068 1.97741E+01 3.52182E-01-6.33459E-06-2.76378E-02-9.13708E-15-1.65058E-13
 -1      1069 1.98443E+01 2.77905E-01-3.56279E-06-1.83961E-02 6.52922E-14-2.58168E-13
 -1      1070 1.98965E+01 2.15391E-01-1.60077E-06-1.21613E-02-1.72929E-14-4.31126E-13
 -1      1071 1.99346E+01 1.63927E-01-2.68060E-07-7.95506E-03 6.75440E-14-4.59467E-13
 -1      1072 1.99618E+01 1.22407E-01 5.85244E-07-5.11800E-03-1.21403E-13-4.57047E-13
 -1      1073 1.99806E+01 8.95377E-02 1.08368E-06-3.20727E-03-5.19218E-13-3.51359E-13
 -1      1074 1.99931E+01 6.39924E-02 1.32852E-06-1.92545E-03-3.32018E-13-3.83314E-13
 -1      1075 2.00011E+01 4.45037E-02 1.39982E-06-1.07230E-03-3.03476E-13-5.45081E-13
 -1      1076 2.00058E+01 2.99193E-02 1.35895E-06-5.12227E-04-4.34303E-15-6.01223E-13
 -1      1077 2.00082E+01 1.92291E-02 1.25178E-06-1.52762E-04-9.75151E-14-4.96946E-13
 -1      1078 2.00091E+01 1.15724E-02 1.11334E-06 6.96951E-05 6.39797E-14-5.41446E-13
 -1      1079 2.00090E+01 6.23281E-03 9.76578E-07 1.99235E-04 1.84934E-13-7.71513E-13
 -1      1080 2.00082E+01 2.62547E-03 8.93412E-07 2.66657E-04 3.88452E-13-6.60029E-13
 -1      1081 2.00072E+01 2.82575E-04-1.32522E-07 2.93426E-04 4.01840E-13-4.81083E-13
 -1      1082 2.00063E+01-7.59307E-04-4.71189E-06 2.42438E-04 3.69795E-13-1.42594E-13
 -1      1083 1.97540E+01 3.79419E-01 1.93831E-05 7.10407E-02-3.18230E-14-3.28774E-15
 -1      1084 1.98302E+01 2.99474E-01 1.53837E-05 5.60926E-02-8.50724E-14-2.81101E-13
 -1      1085 1.88423E+01 9.43540E-01 3.29505E-05 1.28368E-01 1.31576E-14-5.01277E-14
 -1      1086 1.96527E+01 4.72619E-01 2.36737E-05 8.72596E-02 1.00968E-13-1.24293E-13
 -1      1087 1.98867E+01 2.32426E-01 1.18656E-05 4.30393E-02-9.13960E-15-4.01172E-13
 -1      1088 1.99278E+01 1.77321E-01 8.89869E-06 3.21019E-02-7.52692E-14-3.76241E-13
 -1      1089 1.99571E+01 1.32869E-01 6.48098E-06 2.32436E-02-5.25160E-14-4.32308E-13
 -1      1090 1.99774E+01 9.76419E-02 4.56891E-06 1.62789E-02-2.77323E-13-3.99313E-13
 -1      1091 1.99910E+01 7.02058E-02 3.09798E-06 1.09509E-02-3.27907E-13-2.94756E-13
 -1      1092 1.99998E+01 4.92097E-02 1.99644E-06 6.98281E-03-3.80381E-13-1.06808E-13
 -1      1093 2.00050E+01 3.34332E-02 1.19399E-06 4.10828E-03-5.81805E-14 1.10268E-13
 -1      1094 2.00078E+01 2.18098E-02 6.27164E-07 2.08869E-03 1.41829E-13 9.63170E-14
 -1      1095 2.00089E+01 1.34314E-02 2.43540E-07 7.20177E-04 8.93809E-15 6.03712E-14
 -1      1096 2.00090E+01 7.54213E-03 8.27200E-09-1.65062E-04 3.63570E-14 7.41147E-14
 -1      1097 2.00083E+01 3.52390E-03-9.21413E-08-7.01003E-04 1.66799E-13-1.04363E-13
 -1      1098 2.00073E+01 8.78877E-04-1.59784E-07-9.91876E-04 2.48014E-13-2.19553E-13
 -1      1099 2.00062E+01-7.92313E-04 3.80672E-06-1.11776E-03 4.97546E-13-4.32716E-13
 -1      1100 1.95198E+01 5.78487E-01 2.78584E-05 1.03548E-01 4.91198E-14-2.60496E-13
 -1      1101 1.66807E+01 1.25449E+00-1.60356E-03-8.81944E-02-8.30407E-14 2.65339E-13
 -1      1102 1.84792E+01 1.06182E+00 2.23914E-04 1.15450E-01 1.75724E-13-2.55266E-14
 -1      1103 1.74701E+01 1.22608E+00 4.20259E-04 4.96183E-03-7.53332E-14 3.22955E-13
 -1      1104 1.80377E+01 1.15766E+00 5.18583E-04 7.44350E-02-1.40081E-14 1.67539E-13
 -1      1105 1.91258E+01 8.18736E-01 3.22898E-05 1.27522E-01-2.78329E-14-1.41766E-13
 -1      1106 1.93475E+01 6.95095E-01 3.11697E-05 1.17936E-01-6.74078E-14-1.12498E-13
 -1      1107 3.01075E+01 9.75663E+00 2.41437E+00-6.64903E+00-6.43929E-14 1.39047E-12
 -1      1108 2.25083E+01 6.84203E+00 2.98391E-01-3.34619E+00-2.96430E-14-4.44159E-14
 -1      1109 2.08596E+01 6.29647E+00 1.28549E-01-2.03333E+00-1.89571E-14-5.96743E-13
 -1      1110 1.97878E+01 5.96336E+00 9.00818E-02-1.18411E+00-9.88098E-15-8.30258E-13
 -1      1111 1.88598E+01 5.67792E+00 6.65406E-02-5.41701E-01-5.02376E-15-9.27577E-13
 -1      1112 1.79998E+01 5.41198E+00 4.01356E-02-7.03546E-02-5.41234E-16-9.56672E-13
 -1      1113 1.72236E+01 5.17018E+00 1.03324E-02 2.32299E-01 1.22125E-15-9.57517E-13
 -1      1114 1.65993E+01 4.97393E+00-1.95199E-02 3.69364E-01 2.10248E-15-9.33799E-13
 -1      1115 1.62321E+01 4.85703E+00-4.20018E-02 3.63841E-01 4.08701E-15-9.05739E-13
 -1      1116 1.62066E+01 4.84681E+00-5.05686E-02 2.76737E-01 7.19910E-15-8.65671E-13
 -1      1117 1.65632E+01 4.95638E+00-4.19978E-02 1.95563E-01 8.39606E-15-8.02633E-13
 -1      1118 1.72785E+01 5.17840E+00-1.71418E-02 2.13627E-01 1.17406E-14-7.04663E-13
 -1      1119 1.82924E+01 5.49351E+00 1.92324E-02 4.11086E-01 1.51268E-14-5.41632E-13
 -1      1120 1.95448E+01 5.88300E+00 6.51937E-02 8.58429E-01 1.98175E-14-2.96374E-13
 -1      1121 2.10073E+01 6.34118E+00 1.29983E-01 1.63415E+00 2.32592E-14 1.08476E-13
 -1      1122 2.28870E+01 6.95011E+00 2.79998E-01 2.94691E+00 2.35922E-14 8.48009E-13
 -1      1123 2.78996E+01 8.83318E+00 1.54417E+00 5.50301E+00 3.97460E-14 2.25769E-12
 -1      1124 3.10569E+01 3.66711E+00 1.17125E+00-4.19961E+00-2.42334E-13 2.28317E-12
 -1      1125 2.31797E+01-1.87008E-01-6.37778E-01-3.59606E-02-8.18512E-14 1.70446E-12
 -1      1126 2.24216E+01-7.92381E-02-2.04071E-01 8.47589E-02-2.81598E-14 9.52589E-13
 -1      1127 2.24151E+01-2.15136E-02-1.65248E-02 4.83685E-02-2.62514E-14 4.47704E-13
 -1      1128 2.23972E+01 1.03738E-02 3.82838E-02 2.19138E-02-2.74186E-14 1.54779E-13
 -1      1129 2.21528E+01 2.83206E-02 5.78356E-02-2.97817E-03-1.05879E-14-3.88778E-14
 -1      1130 2.15420E+01 3.32450E-02 5.93336E-02-2.93091E-02-1.38704E-14-2.09791E-13
 -1      1131 2.05372E+01 2.15290E-02 3.76102E-02-5.27759E-02-5.26228E-15-4.40807E-13
 -1      1132 1.92791E+01-7.09004E-03-8.73978E-03-6.39921E-02-1.58766E-14-6.61339E-13
 -1      1133 1.80842E+01-4.35386E-02-6.61082E-02-5.38443E-02-3.12250E-16-9.27765E-13
 -1      1134 1.73494E+01-7.04748E-02-1.08052E-01-2.15049E-02 2.19373E-14-1.05841E-12
 -1      1135 1.73658E+01-7.22825E-02-1.11251E-01 2.15298E-02 6.93716E-15-1.05991E-12
 -1      1136 1.81553E+01-4.75020E-02-7.36418E-02 5.69596E-02 4.09351E-15-1.14381E-12
 -1      1137 1.94559E+01-1.00066E-02-1.60996E-02 7.16126E-02 9.10730E-18-1.23095E-12
 -1      1138 2.08678E+01 2.24570E-02 3.40723E-02 6.46598E-02-6.26300E-15-1.15791E-12
 -1      1139 2.20440E+01 3.97730E-02 6.07057E-02 4.48076E-02-1.51749E-14-1.07511E-12
 -1      1140 2.28012E+01 4.19208E-02 6.34543E-02 2.25828E-02-5.29611E-15-1.21703E-12
 -1      1141 2.31208E+01 3.44276E-02 5.11755E-02 4.82363E-03 5.71461E-15-1.28414E-12
 -1      1142 2.30872E+01 2.33401E-02 3.36959E-02-6.26997E-03-9.09841E-15-1.42332E-12
 -1      1143 2.28201E+01 1.27209E-02 1.75192E-02-1.14765E-02 3.03577E-15-1.56465E-12
 -1      1144 2.24305E+01 4.43805E-03 5.40915E-03-1.26527E-02-2.65608E-15-1.12849E-12
 -1      1145 2.20019E+01-1.14050E-03-2.33305E-03-1.15772E-02-6.67652E-16-1.02724E-12
 -1      1146 2.15880E+01-4.38757E-03-6.52490E-03-9.53196E-03 2.74910E-14-8.36848E-13
 -1      1147 2.12186E+01-5.90876E-03-8.24185E-03-7.28939E-03-4.47346E-14-1.06985E-12
 -1      1148 2.09061E+01-6.28477E-03-8.42268E-03-5.24398E-03 1.74309E-14-1.12117E-12
 -1      1149 2.06525E+01-5.97593E-03-7.75748E-03-3.55324E-03 9.44882E-15-7.88808E-13
 -1      1150 2.04534E+01-5.30966E-03-6.70321E-03-2.24415E-03 2.14799E-14-7.83558E-13
 -1      1151 2.03016E+01-4.50101E-03-5.53874E-03-1.28118E-03 1.16977E-14-9.57001E-13
 -1      1152 2.01893E+01-3.68101E-03-4.42039E-03-6.05207E-04-7.39827E-15-9.63450E-13
 -1      1153 2.01086E+01-2.92247E-03-3.42572E-03-1.53791E-04-1.31842E-14-8.91337E-13
 -1      1154 2.00525E+01-2.26010E-03-2.58439E-03 1.29492E-04 1.27209E-14-1.05828E-12
 -1      1155 2.00151E+01-1.70498E-03-1.89860E-03 2.91647E-04 2.63934E-14-9.28750E-13
 -1      1156 1.99914E+01-1.25443E-03-1.35607E-03 3.69849E-04 2.91738E-15-1.00795E-12
 -1      1157 1.99776E+01-8.98533E-04-9.37994E-04 3.92379E-04-1.09247E-14-1.00563E-12
 -1      1158 1.99707E+01-6.24217E-04-6.23717E-04 3.80060E-04-3.71842E-15-9.62926E-13
 -1      1159 1.99684E+01-4.17715E-04-3.93330E-04 3.47750E-04 1.45929E-14-7.70628E-13
 -1      1160 1.99691E+01-2.65974E-04-2.28977E-04 3.05701E-04-4.53775E-14-7.44862E-13
 -1      1161 1.99716E+01-1.57357E-04-1.15374E-04 2.60717E-04 2.00473E-14-5.65271E-13
 -1      1162 1.99749E+01-8.19143E-05-3.98768E-05 2.17086E-04-6.06114E-14-6.04106E-13
 -1      1163 1.99786E+01-3.13923E-05 7.70883E-06 1.77312E-04-5.66990E-14-1.12899E-12
 -1      1164 1.99823E+01 8.96633E-07 3.54371E-05 1.42668E-04-3.48614E-14-1.10328E-12
 -1      1165 1.99858E+01 2.02865E-05 4.95924E-05 1.13607E-04-1.95263E-14-1.10745E-12
 -1      1166 1.99890E+01 3.09984E-05 5.50812E-05 9.00311E-05-6.86748E-14-7.62764E-13
 -1      1167 1.99918E+01 3.63846E-05 5.58476E-05 7.14573E-05-3.09605E-15-6.61768E-14
 -1      1168 1.99942E+01 3.91488E-05 5.53239E-05 5.70354E-05 3.42922E-14 1.20080E-13
 -1      1169 1.99963E+01 4.14934E-05 5.68455E-05 4.53704E-05-1.10973E-14 3.33909E-13
 -1      1170 1.99979E+01 4.50556E-05 6.33295E-05 3.39594E-05-6.99199E-14 1.23498E-14
 -1      1171 1.99991E+01 4.94504E-05 7.30840E-05 1.75362E-05 2.82715E-14-3.97441E-13
 -1      1172 1.99998E+01 5.69581E-05 6.32769E-05-1.43680E-05 1.81322E-14-3.19440E-13
 -1      1173 1.99999E+01-2.32156E-05-4.73978E-05-2.41903E-05 8.60447E-15 1.67519E-13
 -1      1174 3.04379E+01 5.39182E-01 1.68816E-01 1.95310E+00-3.83860E-14 3.39051E-12
 -1      1175 2.42185E+01-7.51992E-02-5.93565E-01 8.24858E-02 9.37098E-15 2.87437E-12
 -1      1176 2.41830E+01-3.84392E-02-1.79540E-01-1.03910E-02 1.58953E-14 2.29692E-12
 -1      1177 2.47721E+01-3.93157E-03-2.53675E-02-3.07619E-02 1.10530E-14 1.90098E-12
 -1      1178 2.54926E+01 2.97006E-02 4.36867E-02-4.56272E-02 7.68873E-15 1.69517E-12
 -1      1179 2.59806E+01 6.38964E-02 1.04591E-01-5.16039E-02 3.48853E-15 1.52023E-12
 -1      1180 2.58183E+01 8.42024E-02 1.56217E-01-3.58778E-02-9.93476E-15 1.52420E-12
 -1      1181 2.46334E+01 6.64643E-02 1.57139E-01 1.42001E-02-2.74364E-14 1.57566E-12
 -1      1182 2.23852E+01-5.70888E-04 6.43049E-02 9.08701E-02 2.58170E-15 1.41218E-12
 -1      1183 1.96893E+01-8.56332E-02-1.06345E-01 1.51242E-01 2.14672E-15 1.17473E-12
 -1      1184 1.77610E+01-1.25654E-01-2.52003E-01 1.40630E-01 1.52066E-14 9.54264E-13
 -1      1185 1.76901E+01-9.21500E-02-2.62644E-01 4.99941E-02 1.83725E-14 5.91485E-13
 -1      1186 1.95573E+01-2.07618E-02-1.35348E-01-6.24700E-02 2.02676E-14 4.63740E-13
 -1      1187 2.23642E+01 3.35307E-02 2.57733E-02-1.28056E-01-2.78785E-14 4.96270E-13
 -1      1188 2.48488E+01 5.14138E-02 1.20905E-01-1.26449E-01 3.64682E-14 3.27668E-13
 -1      1189 2.62867E+01 4.49424E-02 1.32266E-01-8.51161E-02-1.16313E-15 2.06786E-13
 -1      1190 2.66265E+01 2.96091E-02 9.65429E-02-3.84150E-02-2.25141E-14 1.43243E-13
 -1      1191 2.61842E+01 1.50522E-02 5.19620E-02-4.50095E-03 2.21836E-14-1.35239E-14
 -1      1192 2.53352E+01 4.63810E-03 1.76538E-02 1.39162E-02 3.96394E-14-3.63886E-13
 -1      1193 2.43627E+01-1.61458E-03-2.62821E-03 2.09032E-02-1.83145E-14-3.06640E-13
 -1      1194 2.34330E+01-4.77465E-03-1.20630E-02 2.13660E-02 1.81829E-14 6.93542E-14
 -1      1195 2.26231E+01-5.96524E-03-1.49465E-02 1.88517E-02 6.41262E-15 3.22034E-14
 -1      1196 2.19559E+01-6.03654E-03-1.45151E-02 1.54042E-02-3.01084E-14 1.69122E-13
 -1      1197 2.14262E+01-5.54334E-03-1.27073E-02 1.20183E-02 4.53902E-14-4.29873E-13
 -1      1198 2.10167E+01-4.81561E-03-1.05289E-02 9.08985E-03 5.80306E-14-6.39129E-13
 -1      1199 2.07067E+01-4.03551E-03-8.43937E-03 6.71541E-03-2.63717E-14-1.08330E-13
 -1      1200 2.04765E+01-3.29575E-03-6.61463E-03 4.86145E-03 6.73029E-15 1.57913E-13
 -1      1201 2.03087E+01-2.63780E-03-5.09622E-03 3.44911E-03 2.40584E-15-3.26728E-14
 -1      1202 2.01888E+01-2.07520E-03-3.86818E-03 2.39266E-03 9.39824E-15-4.59817E-13
 -1      1203 2.01051E+01-1.60699E-03-2.89371E-03 1.61470E-03-1.69722E-14-2.52338E-13
 -1      1204 2.00483E+01-1.22533E-03-2.13172E-03 1.05063E-03 2.94480E-15-2.31800E-13
 -1      1205 2.00112E+01-9.19552E-04-1.54352E-03 6.48595E-04-4.42824E-14-1.51014E-13
 -1      1206 1.99883E+01-6.78369E-04-1.09522E-03 3.67871E-04-2.47218E-15 8.58691E-14
 -1      1207 1.99752E+01-4.90985E-04-7.58151E-04 1.76878E-04 1.45633E-15 2.60055E-13
 -1      1208 1.99690E+01-3.47611E-04-5.08510E-04 5.13688E-05-2.95350E-15-2.47493E-14
 -1      1209 1.99672E+01-2.39675E-04-3.26826E-04-2.71155E-05-5.29456E-14-1.09310E-13
 -1      1210 1.99683E+01-1.59851E-04-1.97332E-04-7.25040E-05 8.18528E-14-4.29546E-13
 -1      1211 1.99710E+01-1.01993E-04-1.07390E-04-9.52007E-05 8.42604E-14-6.36716E-13
 -1      1212 1.99746E+01-6.10280E-05-4.69663E-05-1.02887E-04 3.85504E-15-4.41092E-13
 -1      1213 1.99784E+01-3.28150E-05-8.16917E-06-1.01162E-04-5.46604E-14 3.30964E-15
 -1      1214 1.99822E+01-1.40002E-05 1.51654E-05-9.40468E-05-1.64485E-14 2.38683E-13
 -1      1215 1.99858E+01-1.86371E-06 2.78479E-05-8.43932E-05 3.82245E-14 9.64121E-14
 -1      1216 1.99890E+01 5.83598E-06 3.36907E-05-7.41967E-05 2.56221E-14-3.43759E-13
 -1      1217 1.99918E+01 1.10209E-05 3.58813E-05-6.48368E-05-3.70808E-14-7.31149E-14
 -1      1218 1.99942E+01 1.54345E-05 3.74154E-05-5.72043E-05 6.21012E-14 2.75602E-13
 -1      1219 1.99963E+01 2.06414E-05 4.14774E-05-5.16537E-05 5.64698E-14-3.28279E-13
 -1      1220 1.99979E+01 2.80687E-05 5.11764E-05-4.76234E-05 1.39366E-14-7.35423E-13
 -1      1221 1.99991E+01 3.65658E-05 6.46069E-05-4.11880E-05 6.42673E-14-1.15418E-12
 -1      1222 1.99998E+01 3.16488E-05 5.50240E-05-1.93904E-05 6.42804E-14-1.64772E-12
 -1      1223 1.99999E+01-2.07119E-05-4.88438E-05 2.14892E-05-1.71159E-14-9.25711E-13
 -1      1224 1.99998E+01 6.15864E-05-4.55175E-05 2.01592E-05-8.14588E-13-7.46002E-15
 -1      1225 1.99998E+01-2.78901E-05 5.79358E-05 1.18638E-05-9.92922E-13-1.79137E-14
 -1      1226 1.99998E+01-6.96085E-04 5.76571E-05-2.58968E-05-1.47178E-13 5.06236E-14
 -1      1227 1.99998E+01-1.77940E-03 2.60991E-05-4.09900E-05-7.11002E-14-7.48483E-14
 -1      1228 1.99998E+01-3.02734E-03-6.61281E-06-4.32539E-05 1.88841E-13 9.46877E-15
 -1      1229 1.99998E+01-4.21430E-03-3.26698E-05-3.75011E-05-5.35900E-13-1.62398E-13
 -1      1230 1.99998E+01-5.18185E-03-5.07585E-05-2.77229E-05-1.41423E-12-2.84341E-14
 -1      1231 1.99998E+01-5.81574E-03-6.17403E-05-1.44510E-05-8.63991E-13 7.31325E-14
 -1      1232 1.99998E+01-6.03199E-03-6.52984E-05 1.49769E-07-1.46397E-13-6.46409E-14
 -1      1233 1.99998E+01-5.80661E-03-6.15210E-05 1.47336E-05-1.64379E-14 1.22238E-13
 -1      1234 1.99998E+01-5.16512E-03-5.02893E-05 2.79087E-05-4.93771E-13-2.04857E-13
 -1      1235 1.99998E+01-4.19219E-03-3.19781E-05 3.81544E-05-1.32337E-12-7.44591E-14
 -1      1236 1.99998E+01-3.00427E-03-6.17250E-06 4.32418E-05-1.33484E-12 1.47830E-13
 -1      1237 1.99998E+01-1.75754E-03 2.69234E-05 4.14276E-05 2.31736E-13-4.27313E-14
 -1      1238 1.99998E+01-6.64095E-04 6.27720E-05 3.09408E-05-1.48803E-13 2.59521E-15
 -1      1239 1.99999E+01-4.57976E-05 5.33890E-05-2.67528E-05-1.94902E-13-2.07417E-13
 -1      1240 1.99998E+01 6.85217E-05-4.64937E-05-2.25434E-05-9.22279E-14 9.68167E-14
 -1      1241-1.06781E+00-2.44350E+01-3.78575E+00-2.17296E+00 1.93112E-12 2.98761E-13
 -1      1242-1.89938E+00-1.64311E+01-3.20920E+00-4.33670E+00 2.94653E-12 1.01730E-12
 -1      1243-5.50424E-01-4.45786E+00-2.18361E+00-1.27803E+00 3.20921E-12 1.87128E-12
 -1      1244 6.83845E+00 6.06787E+00-6.87977E-01 6.45014E+00 2.85594E-12 2.46980E-12
 -1      1245 2.21478E+01 1.08213E+01 1.00581E+00 1.48708E+01 1.99729E-12 2.59015E-12
 -1      1246 4.29308E+01 8.92597E+00 2.67622E+00 1.81936E+01 1.04883E-12 2.09077E-12
 -1      1247 6.20075E+01 3.88972E+00 4.03034E+00 1.21947E+01 2.51660E-13 5.67324E-13
 -1      1248 6.85568E+01 2.09176E+00 4.46888E+00-9.69627E-01 1.50470E-13-1.66181E-12
 -1      1249 6.06979E+01 4.59272E+00 4.01963E+00-1.32556E+01 8.80740E-13-3.29858E-12
 -1      1250 4.18243E+01 9.31467E+00 2.63764E+00-1.82411E+01 1.94200E-12-3.99147E-12
 -1      1251 2.12291E+01 1.07680E+01 9.14415E-01-1.45273E+01 2.99472E-12-3.88045E-12
 -1      1252 6.00982E+00 5.36590E+00-8.52543E-01-5.75001E+00 3.46323E-12-3.00715E-12
 -1      1253-8.74901E-01-5.84545E+00-2.33640E+00 1.90942E+00 2.96474E-12-1.70264E-12
 -1      1254-1.76604E+00-1.74997E+01-3.30361E+00 4.25541E+00 1.71219E-12-6.03295E-13
 -1      1255-9.34808E-01-2.41079E+01-3.72396E+00 1.58031E+00 2.96152E-14-1.24529E-13
 -1      1256-1.14682E+00-2.21274E+01-3.55545E+00-2.58075E+00-1.67233E-12-3.66755E-13
 -1      1257-1.57710E+00-1.25706E+01-2.83427E+00-3.59882E+00-3.00227E-12-1.19105E-12
 -1      1258 1.43919E+00 1.09824E-02-1.57378E+00 1.36881E+00-3.37330E-12-2.20457E-12
 -1      1259 1.16747E+01 9.11308E+00 1.42388E-02 1.01064E+01-3.12239E-12-3.17213E-12
 -1      1260 3.05117E+01 1.09204E+01 1.84667E+00 1.71126E+01-2.10632E-12-3.21032E-12
 -1      1261 5.16876E+01 6.90603E+00 3.34528E+00 1.61194E+01-9.10605E-13-2.26175E-12
 -1      1262 6.51423E+01 2.47748E+00 4.12525E+00 6.68791E+00-1.68490E-13-6.82288E-13
 -1      1263 6.51627E+01 2.14757E+00 4.03854E+00-6.68074E+00-1.87114E-13 9.95759E-13
 -1      1264 5.12624E+01 6.75666E+00 3.21700E+00-1.64950E+01-7.54175E-13 2.12941E-12
 -1      1265 3.06000E+01 1.09581E+01 1.80669E+00-1.74502E+01-1.66334E-12 2.57794E-12
 -1      1266 1.19343E+01 9.12593E+00 9.66877E-02-1.01542E+01-2.33547E-12 2.35012E-12
 -1      1267 1.21595E+00-3.47983E-01-1.55634E+00-1.00935E+00-1.96265E-12 1.40021E-12
 -1      1268-1.61626E+00-1.35270E+01-2.90489E+00 3.75275E+00-1.12554E-12 5.19362E-13
 -1      1269-1.14910E+00-2.33116E+01-3.65378E+00 2.25337E+00 1.70142E-13 1.83638E-13
 -1      1270 2.46612E+01 1.98242E+00-7.41042E-01-2.56217E+00-9.18432E-14 1.03700E-12
 -1      1271 2.23032E+01 4.93355E+00-3.71823E-02-2.67187E+00-2.06557E-13-3.09808E-13
 -1      1272 2.30659E+01 5.09213E+00-8.13853E-02-3.67086E+00-2.82108E-13-2.12053E-14
 -1      1273 2.08837E+01 5.15833E+00-1.22665E-02-1.79150E+00-1.77774E-13-7.02612E-13
 -1      1274 2.14994E+01 5.34270E+00 2.23449E-02-2.29145E+00-2.10956E-13-5.39298E-13
 -1      1275 2.24504E+01 4.01588E+00-1.75165E-02-2.40780E+00-3.46542E-13-2.58168E-13
 -1      1276 1.98256E+01 5.11392E+00-2.00504E-03-1.04474E+00-1.18835E-13-8.70401E-13
 -1      1277 2.03438E+01 5.27686E+00 2.57765E-02-1.41084E+00-1.45745E-13-7.97799E-13
 -1      1278 2.10149E+01 4.36801E+00-2.24460E-02-1.64068E+00-2.70166E-13-5.77219E-13
 -1      1279 1.88599E+01 5.01626E+00-2.47305E-03-4.49385E-01-6.00145E-14-9.41563E-13
 -1      1280 1.93437E+01 5.16602E+00 2.47311E-02-7.30788E-01-8.04773E-14-9.13058E-13
 -1      1281 1.98839E+01 4.47419E+00-2.20897E-02-9.42233E-01-1.68816E-13-7.29684E-13
 -1      1282 1.79558E+01 4.92505E+00-8.57391E-03-1.36144E-02-1.31839E-14-9.61139E-13
 -1      1283 1.84081E+01 5.06378E+00 2.14830E-02-2.12346E-01-3.28765E-14-9.53104E-13
 -1      1284 1.88580E+01 4.52605E+00-2.00026E-02-3.81369E-01-8.18026E-14-7.90430E-13
 -1      1285 1.71259E+01 4.86295E+00-1.70144E-02 2.65770E-01 2.11289E-14-9.58320E-13
 -1      1286 1.75310E+01 4.98572E+00 1.45713E-02 1.45992E-01 1.31284E-14-9.66446E-13
 -1      1287 1.78898E+01 4.58823E+00-1.82102E-02 3.08787E-02-5.46438E-16-8.16104E-13
 -1      1288 1.64837E+01 4.84538E+00-2.33692E-02 3.80434E-01 6.15757E-14-9.37775E-13
 -1      1289 1.67798E+01 4.93447E+00 4.04095E-03 3.38149E-01 4.67959E-14-9.50425E-13
 -1      1290 1.70291E+01 4.67680E+00-1.66514E-02 2.84132E-01 5.60871E-14-8.06090E-13
 -1      1291 1.61459E+01 4.87172E+00-2.44818E-02 3.62039E-01 9.26299E-14-9.02025E-13
 -1      1292 1.62736E+01 4.90955E+00-8.43483E-03 3.76331E-01 8.02448E-14-9.23889E-13
 -1      1293 1.63980E+01 4.77676E+00-1.52253E-02 3.77641E-01 1.18432E-13-7.87360E-13
 -1      1294 1.62052E+01 4.93368E+00-1.90096E-02 2.78761E-01 1.27454E-13-8.60645E-13
 -1      1295 1.61227E+01 4.90788E+00-1.97343E-02 3.12560E-01 1.14516E-13-8.86662E-13
 -1      1296 1.61222E+01 4.85747E+00-1.44455E-02 3.51120E-01 1.68817E-13-7.58145E-13
 -1      1297 1.66940E+01 5.02110E+00-8.36164E-03 2.23019E-01 1.52794E-13-7.94963E-13
 -1      1298 1.63937E+01 4.92992E+00-2.66635E-02 2.30586E-01 1.40509E-13-8.37804E-13
 -1      1299 1.62908E+01 4.89215E+00-1.49140E-02 2.81051E-01 2.20667E-13-7.17142E-13
 -1      1300 1.75568E+01 5.12660E+00 5.02227E-03 2.85616E-01 1.81896E-13-6.78181E-13
 -1      1301 1.70759E+01 4.97946E+00-2.77583E-02 2.25611E-01 1.69767E-13-7.46631E-13
 -1      1302 1.69146E+01 4.87255E+00-1.64147E-02 2.62596E-01 2.61124E-13-6.38793E-13
 -1      1303 1.87409E+01 5.24783E+00 1.85889E-02 5.43479E-01 2.31398E-13-5.04976E-13
 -1      1304 1.81067E+01 5.05381E+00-2.47153E-02 3.78649E-01 2.07653E-13-6.05210E-13
 -1      1305 1.79411E+01 4.80582E+00-1.88032E-02 3.81332E-01 3.16934E-13-5.12274E-13
 -1      1306 2.01517E+01 5.36879E+00 3.05803E-02 1.05409E+00 2.73628E-13-2.45127E-13
 -1      1307 1.94095E+01 5.14013E+00-2.10306E-02 7.54443E-01 2.48121E-13-3.99989E-13
 -1      1308 1.92947E+01 4.69358E+00-2.09257E-02 7.03158E-01 3.84796E-13-3.33601E-13
 -1      1309 2.17804E+01 5.44704E+00 4.46349E-02 1.88587E+00 2.89976E-13 2.00708E-13
 -1      1310 2.09202E+01 5.18310E+00-2.20304E-02 1.39850E+00 2.62831E-13-6.44207E-14
 -1      1311 2.09073E+01 4.49798E+00-1.97534E-02 1.26638E+00 4.22620E-13-4.26048E-14
 -1      1312 2.38768E+01 5.24039E+00 5.35728E-02 3.21681E+00 2.30010E-13 9.72916E-13
 -1      1313 2.27416E+01 5.00592E+00-3.07437E-02 2.35852E+00 2.33105E-13 5.05401E-13
 -1      1314 2.28569E+01 4.04588E+00-5.01842E-03 2.06908E+00 4.20948E-13 4.48946E-13
 -1      1315 3.01592E+01 3.34471E+00 8.93908E-01 4.24564E+00 9.14963E-14 2.34912E-12
 -1      1316 2.50110E+01 3.72440E+00-1.71056E-01 3.23862E+00 1.05055E-13 1.40946E-12
 -1      1317 2.52341E+01 2.60788E+00-1.16839E-03 2.58416E+00 3.60587E-13 1.14964E-12
 -1      1318 2.48857E+01 3.08879E-01-7.80209E-01 7.14779E-01 1.80980E-13 2.29700E-12
 -1      1319 2.46964E+01 9.04741E-02-4.14150E-01-1.02381E+00-2.43736E-13 1.14225E-12
 -1      1320 2.36588E+01 2.74025E-01-1.57238E-01-5.80163E-01-2.21885E-13 8.44463E-13
 -1      1321 2.31868E+01 1.26492E-01-6.97066E-02-2.24585E-01-1.79627E-13 7.49175E-13
 -1      1322 2.29219E+01 5.83788E-02-1.01365E-02-1.72563E-01-1.65937E-13 4.74881E-13
 -1      1323 2.37517E+01 3.04592E-01-1.03372E-01-8.97955E-01-3.80716E-13 3.67914E-13
 -1      1324 2.26677E+01 2.90538E-02 6.99475E-03-5.20421E-02-1.30279E-13 4.00194E-13
 -1      1325 2.25953E+01 2.28796E-04 1.57466E-02-5.48763E-02-1.20145E-13 2.17472E-13
 -1      1326 2.29461E+01 7.05801E-02-2.74089E-02-2.73193E-01-2.91121E-13 2.31724E-13
 -1      1327 2.24590E+01-1.55561E-02 1.73198E-02-6.25795E-02-8.51873E-14 1.44051E-13
 -1      1328 2.23667E+01-3.20805E-02 1.35912E-02-8.01053E-02-9.22989E-14 1.40114E-14
 -1      1329 2.26033E+01-2.31611E-02 2.60241E-03-1.41746E-01-1.94098E-13 9.52571E-14
 -1      1330 2.22255E+01-4.28555E-02 1.47146E-02-1.57303E-01-5.12585E-14-9.40307E-15
 -1      1331 2.20064E+01-4.90288E-02 1.03393E-02-1.85973E-01-5.46399E-14-8.40326E-14
 -1      1332 2.23479E+01-7.17026E-02 1.12794E-02-2.42454E-01-1.39445E-13-1.74019E-14
 -1      1333 2.17917E+01-5.43385E-02 1.25414E-02-2.95100E-01-6.98786E-14-1.20015E-13
 -1      1334 2.14014E+01-4.77319E-02 8.42548E-03-3.27037E-01-7.06128E-14-2.19588E-13
 -1      1335 2.20120E+01-9.26118E-02 1.49856E-02-4.66430E-01-1.23359E-13-9.78080E-14
 -1      1336 2.10913E+01-4.35513E-02 9.95966E-03-4.22903E-01-6.09491E-14-2.39333E-13
 -1      1337 2.05554E+01-2.24401E-02 5.40327E-03-4.44932E-01-6.03597E-14-3.47829E-13
 -1      1338 2.15065E+01-7.84191E-02 1.40645E-02-7.16918E-01-1.21010E-13-1.68223E-13
 -1      1339 2.01824E+01-6.66606E-03 4.57699E-03-4.73621E-01-5.27478E-14-3.67654E-13
 -1      1340 1.96070E+01 2.47360E-02-2.93861E-04-4.70681E-01-8.67407E-14-4.90399E-13
 -1      1341 2.08376E+01-2.24397E-02 5.99650E-03-8.73721E-01-1.22638E-13-2.28579E-13
 -1      1342 1.92574E+01 4.72983E-02-3.34029E-03-3.91208E-01-7.74381E-14-5.22200E-13
 -1      1343 1.88074E+01 7.69696E-02-7.36633E-03-3.55478E-01-6.74140E-14-6.07053E-13
 -1      1344 2.01206E+01 6.40763E-02-8.76161E-03-8.18059E-01-1.36597E-13-2.64412E-13
 -1      1345 1.85934E+01 9.46749E-02-1.04256E-02-1.70194E-01-6.62369E-14-6.45831E-13
 -1      1346 1.84270E+01 1.07876E-01-1.20814E-02-1.09712E-01-1.70419E-14-6.83242E-13
 -1      1347 1.95555E+01 1.47075E-01-2.42175E-02-4.98337E-01-1.19934E-13-2.90394E-13
 -1      1348 1.84325E+01 1.09577E-01-1.26484E-02 1.24009E-01-1.92624E-14-7.79512E-13
 -1      1349 1.86214E+01 9.86832E-02-1.11629E-02 1.86403E-01-4.47073E-14-8.44633E-13
 -1      1350 1.93441E+01 1.84669E-01-3.15775E-02 1.39883E-02-8.91631E-14-4.59387E-13
 -1      1351 1.88518E+01 8.33118E-02-9.00899E-03 3.82412E-01-4.67733E-14-8.65079E-13
 -1      1352 1.93404E+01 5.38809E-02-5.01104E-03 4.22466E-01-4.39778E-14-9.01210E-13
 -1      1353 1.95791E+01 1.55957E-01-2.57889E-02 5.39812E-01-9.31547E-14-6.22269E-13
 -1      1354 1.97173E+01 3.15601E-02-2.45606E-03 5.15692E-01-1.45183E-14-9.27168E-13
 -1      1355 2.03531E+01-2.21152E-03 2.51011E-03 5.22536E-01 6.38096E-15-9.05609E-13
 -1      1356 2.01847E+01 7.63809E-02-1.05281E-02 8.90007E-01-3.40769E-14-7.10539E-13
 -1      1357 2.07593E+01-1.92826E-02 2.93462E-03 5.01142E-01 2.55403E-14-9.43814E-13
 -1      1358 2.13691E+01-4.46893E-02 7.36933E-03 4.80397E-01 1.63203E-14-8.95912E-13
 -1      1359 2.09596E+01-1.39480E-02 5.38736E-03 9.71283E-01-1.73965E-14-7.19204E-13
 -1      1360 2.17040E+01-5.06151E-02 5.04168E-03 3.78806E-01-3.00298E-14-9.10234E-13
 -1      1361 2.21633E+01-6.26523E-02 8.22554E-03 3.44731E-01-5.57800E-14-9.38104E-13
 -1      1362 2.16840E+01-7.85161E-02 1.52519E-02 8.15577E-01-7.64840E-15-7.71717E-13
 -1      1363 2.23737E+01-5.89520E-02 4.32719E-03 2.13381E-01-1.07154E-14-9.56723E-13
 -1      1364 2.26332E+01-5.95828E-02 6.27016E-03 1.79233E-01-6.70991E-15-9.67006E-13
 -1      1365 2.22073E+01-1.03332E-01 1.77453E-02 5.29851E-01-6.05401E-14-7.24578E-13
 -1      1366 2.27123E+01-5.11131E-02 2.40008E-03 5.83749E-02 5.20417E-15-9.52467E-13
 -1      1367 2.27849E+01-4.51546E-02 3.41772E-03 3.17227E-02-2.67408E-15-9.80802E-13
 -1      1368 2.24752E+01-9.56192E-02 1.51579E-02 2.24786E-01 2.08167E-17-7.18932E-13
 -1      1369 2.27553E+01-3.62182E-02 6.00033E-04-5.81094E-02-3.08525E-14-9.94765E-13
 -1      1370 2.26873E+01-2.80421E-02 1.02327E-03-7.51358E-02 2.34838E-15-1.02687E-12
 -1      1371 2.25077E+01-7.10688E-02 1.04972E-02-2.75187E-02-3.97755E-14-7.21277E-13
 -1      1372 2.25830E+01-2.09753E-02-4.87296E-04-1.29987E-01 2.85512E-14-1.04781E-12
 -1      1373 2.24281E+01-1.32785E-02-4.40163E-04-1.38503E-01 2.44548E-14-1.02200E-12
 -1      1374 2.23633E+01-4.32585E-02 5.85831E-03-1.99265E-01-3.62644E-15-6.91947E-13
 -1      1375 2.22821E+01-8.71040E-03-8.65600E-04-1.63704E-01 8.68490E-14-1.01037E-12
 -1      1376 2.20864E+01-2.65070E-03-1.06060E-03-1.66020E-01 2.63702E-14-9.02787E-13
 -1      1377 2.21086E+01-1.98090E-02 2.21131E-03-2.93283E-01 7.75662E-14-6.46410E-13
 -1      1378 2.19252E+01-2.78195E-04-7.81426E-04-1.70039E-01-1.22296E-14-8.48129E-13
 -1      1379 2.17219E+01 3.94876E-03-1.12992E-03-1.68464E-01 5.44930E-14-7.67732E-13
 -1      1380 2.18015E+01-3.24109E-03-2.41908E-04-3.26679E-01 2.84077E-14-7.24983E-13
 -1      1381 2.15637E+01 4.74397E-03-4.92963E-04-1.59390E-01 7.58343E-14-8.21874E-13
 -1      1382 2.13732E+01 7.39309E-03-9.26332E-04-1.55740E-01 9.12497E-15-7.57315E-13
 -1      1383 2.14850E+01 6.83509E-03-1.67010E-03-3.19437E-01 3.63932E-14-6.53361E-13
 -1      1384 2.12290E+01 7.21208E-03-1.76012E-04-1.39876E-01-6.50068E-14-7.36708E-13
 -1      1385 2.10622E+01 8.67250E-03-6.38163E-04-1.35400E-01-4.48199E-14-8.68606E-13
 -1      1386 2.11867E+01 1.19309E-02-2.34982E-03-2.88748E-01-4.75727E-14-6.15695E-13
 -1      1387 2.09374E+01 7.97671E-03 8.19978E-05-1.17073E-01 3.38696E-14-7.72357E-13
 -1      1388 2.07982E+01 8.61872E-03-3.66162E-04-1.12542E-01 8.28530E-14-6.73761E-13
 -1      1389 2.09220E+01 1.36732E-02-2.53940E-03-2.47240E-01 2.88272E-14-4.68211E-13
 -1      1390 2.06942E+01 7.71724E-03 2.54815E-04-9.44202E-02 2.78773E-14-6.77862E-13
 -1      1391 2.05823E+01 7.83751E-03-1.50954E-04-9.02590E-02-1.84058E-14-6.33356E-13
 -1      1392 2.06974E+01 1.33940E-02-2.43781E-03-2.03201E-01 2.33880E-14-4.74050E-13
 -1      1393 2.04986E+01 6.91608E-03 3.48483E-04-7.38036E-02-7.21331E-15-6.93849E-13
 -1      1394 2.04115E+01 6.73090E-03 2.55111E-07-7.02072E-02-2.61683E-15-7.15108E-13
 -1      1395 2.05133E+01 1.20446E-02-2.18327E-03-1.61512E-01-4.01557E-14-4.53910E-13
 -1      1396 2.03459E+01 5.88858E-03 3.81352E-04-5.60719E-02 1.59634E-14-7.68642E-13
 -1      1397 2.02800E+01 5.54576E-03 9.54063E-05-5.30948E-02-7.72169E-15-7.77812E-13
 -1      1398 2.03669E+01 1.02440E-02-1.86522E-03-1.24665E-01-1.69956E-14-6.57149E-13
 -1      1399 2.02299E+01 4.82604E-03 3.73248E-04-4.14351E-02 3.06547E-14-7.67531E-13
 -1      1400 2.01815E+01 4.42119E-03 1.47256E-04-3.90525E-02 2.78674E-14-7.02755E-13
 -1      1401 2.02535E+01 8.36451E-03-1.53789E-03-9.36056E-02 4.12783E-14-6.41502E-13
 -1      1402 2.01443E+01 3.83467E-03 3.40861E-04-2.97411E-02-5.24287E-14-6.29605E-13
 -1      1403 2.01097E+01 3.42611E-03 1.68409E-04-2.78881E-02-2.99566E-14-6.63494E-13
 -1      1404 2.01679E+01 6.60991E-03-1.23174E-03-6.83544E-02 3.15960E-14-5.44866E-13
 -1      1405 2.00828E+01 2.96556E-03 2.96538E-04-2.06570E-02-4.83061E-14-6.35587E-13
 -1      1406 2.00590E+01 2.58616E-03 1.69391E-04-1.92532E-02-2.49086E-14-6.97465E-13
 -1      1407 2.01049E+01 5.07651E-03-9.61765E-04-4.84308E-02-3.72145E-14-4.41528E-13
 -1      1408 2.00401E+01 2.23592E-03 2.48613E-04-1.37809E-02-2.45856E-14-6.43431E-13
 -1      1409 2.00244E+01 1.90184E-03 1.58215E-04-1.27446E-02-1.93309E-14-6.49885E-13
 -1      1410 2.00599E+01 3.79567E-03-7.33333E-04-3.31244E-02-8.68257E-14-4.37578E-13
 -1      1411 2.00116E+01 1.64345E-03 2.02237E-04-8.70800E-03 2.44730E-14-7.06719E-13
 -1      1412 2.00018E+01 1.36031E-03 1.40608E-04-7.96346E-03 5.34211E-15-7.24451E-13
 -1      1413 2.00287E+01 2.76204E-03-5.46149E-04-2.16606E-02-5.56040E-14-5.54850E-13
 -1      1414 1.99936E+01 1.17556E-03 1.60264E-04-5.06561E-03-8.54143E-14-7.50401E-13
 -1      1415 1.99880E+01 9.42681E-04 1.20443E-04-4.54683E-03-3.34220E-14-8.38133E-13
 -1      1416 2.00079E+01 1.95152E-03-3.96823E-04-1.32944E-02-6.78711E-16-6.04635E-13
 -1      1417 1.99831E+01 8.15154E-04 1.23989E-04-2.52931E-03 5.51689E-14-7.78793E-13
 -1      1418 1.99805E+01 6.28390E-04 1.00187E-04-2.18102E-03 3.28780E-14-8.15393E-13
 -1      1419 1.99948E+01 1.33214E-03-2.80517E-04-7.35856E-03 2.05597E-15-6.50084E-13
 -1      1420 1.99778E+01 5.44125E-04 9.37137E-05-8.27786E-04 3.20703E-14-7.39974E-13
 -1      1421 1.99772E+01 3.97673E-04 8.12951E-05-6.05117E-04 6.97644E-14-7.02518E-13
 -1      1422 1.99872E+01 8.70511E-04-1.91967E-04-3.28307E-03 1.50944E-13-7.07097E-13
 -1      1423 1.99761E+01 3.45239E-04 6.91514E-05 2.58986E-04 1.62832E-14-7.01287E-13
 -1      1424 1.99767E+01 2.32799E-04 6.45219E-05 3.91497E-04-7.95521E-15-7.18326E-13
 -1      1425 1.99835E+01 5.35241E-04-1.26071E-04-5.97660E-04 8.63663E-14-7.22013E-13
 -1      1426 1.99766E+01 2.03133E-04 4.97020E-05 9.04819E-04 1.06160E-13-7.55236E-13
 -1      1427 1.99779E+01 1.18574E-04 5.01549E-05 9.74549E-04 2.63391E-14-5.87451E-13
 -1      1428 1.99823E+01 2.98628E-04-7.82078E-05 1.07469E-03 5.13384E-14-6.80184E-13
 -1      1429 1.99785E+01 1.04681E-04 3.46315E-05 1.24379E-03-1.61404E-13-4.75116E-13
 -1      1430 1.99801E+01 4.24078E-05 3.81867E-05 1.27139E-03-1.77552E-13-6.96108E-13
 -1      1431 1.99828E+01 1.37227E-04-4.43733E-05 2.02885E-03-1.01884E-13-7.31476E-13
 -1      1432 1.99810E+01 3.90141E-05 2.31836E-05 1.37694E-03-1.09459E-13-7.52060E-13
 -1      1433 1.99828E+01-5.87292E-06 2.84355E-05 1.37761E-03-9.12866E-14-9.18899E-13
 -1      1434 1.99842E+01 3.18088E-05-2.12115E-05 2.49007E-03-2.18659E-13-5.88384E-13
 -1      1435 1.99839E+01-2.65716E-06 1.46443E-05 1.37851E-03-9.00537E-14-7.91755E-13
 -1      1436 1.99856E+01-3.43294E-05 2.06269E-05 1.36313E-03-9.98355E-14-9.69392E-13
 -1      1437 1.99861E+01-3.30317E-05-5.97930E-06 2.62635E-03-4.26766E-14-5.52907E-13
 -1      1438 1.99867E+01-2.73240E-05 8.37729E-06 1.30143E-03 8.33895E-14-9.41590E-13
 -1      1439 1.99884E+01-4.92708E-05 1.44525E-05 1.27750E-03 3.64658E-14-7.90677E-13
 -1      1440 1.99883E+01-6.94246E-05 3.52241E-06 2.55960E-03-3.39636E-14-6.17479E-13
 -1      1441 1.99894E+01-4.05086E-05 3.84639E-06 1.18186E-03 1.46399E-13-5.77961E-13
 -1      1442 1.99909E+01-5.56274E-05 9.61811E-06 1.15424E-03 2.36183E-13-3.47489E-13
 -1      1443 1.99904E+01-8.68446E-05 9.03402E-06 2.37522E-03 2.85209E-13-4.18195E-13
 -1      1444 1.99919E+01-4.66104E-05 6.45066E-07 1.04275E-03 1.19110E-13-1.05438E-13
 -1      1445 1.99932E+01-5.73138E-05 5.91235E-06 1.01421E-03 1.23346E-13 9.59702E-15
 -1      1446 1.99925E+01-9.27501E-05 1.19338E-05 2.12977E-03 3.63155E-13-1.52045E-13
 -1      1447 1.99941E+01-4.92478E-05-1.43271E-06 8.96419E-04 6.26955E-14-5.26767E-14
 -1      1448 1.99951E+01-5.75630E-05 3.32610E-06 8.67993E-04 1.34960E-13 1.12085E-13
 -1      1449 1.99943E+01-9.32158E-05 1.33482E-05 1.85688E-03 2.26392E-13-1.27843E-13
 -1      1450 1.99959E+01-5.15868E-05-2.25030E-06 7.46296E-04 1.08304E-13 8.82497E-14
 -1      1451 1.99968E+01-5.92228E-05 2.18590E-06 7.17400E-04-8.28769E-14 3.66702E-14
 -1      1452 1.99959E+01-9.35596E-05 1.42661E-05 1.57142E-03 1.49035E-13 4.03979E-14
 -1      1453 1.99974E+01-5.65669E-05-1.18264E-06 5.87899E-04-1.51242E-13-2.29898E-16
 -1      1454 1.99981E+01-6.46368E-05 3.02440E-06 5.56256E-04-2.00161E-13-2.81490E-13
 -1      1455 1.99972E+01-9.89829E-05 1.55589E-05 1.27230E-03-1.62451E-13-1.86403E-13
 -1      1456 1.99986E+01-6.62364E-05 2.33380E-06 4.10997E-04-4.60628E-14-2.84468E-13
 -1      1457 1.99991E+01-7.40811E-05 4.31054E-06 3.72503E-04 7.70916E-14-2.46309E-13
 -1      1458 1.99983E+01-1.14181E-04 1.72589E-05 9.45183E-04-1.87936E-13-2.79794E-13
 -1      1459 1.99994E+01-8.58198E-05 3.95941E-06 2.04049E-04 1.87870E-13-2.95263E-13
 -1      1460 1.99996E+01-7.61879E-05-2.61523E-06 1.58160E-04 1.49783E-13-6.00111E-14
 -1      1461 1.99991E+01-1.40877E-04 1.76178E-05 5.76139E-04 1.45312E-13-1.00424E-13
 -1      1462 1.99998E+01-1.75666E-05-9.88853E-06-1.71686E-05-1.30681E-13 1.22030E-13
 -1      1463 1.99997E+01-1.13079E-04 5.77249E-06 1.46370E-04 1.13046E-13-1.14615E-13
 -1      1464 2.46209E+01 6.28299E-02-1.35427E-01 1.15182E-01 1.71946E-13 1.90938E-12
 -1      1465 2.53316E+01 2.23188E-01-2.27221E-01 3.30899E-01 1.52628E-13 2.16972E-12
 -1      1466 2.52918E+01 8.09551E-01-1.07617E-01 1.36815E+00 2.91531E-13 1.48545E-12
 -1      1467 2.45297E+01 2.32068E-02-1.14867E-02-1.42760E-01 1.45155E-13 1.53517E-12
 -1      1468 2.44628E+01 1.09314E-01-5.30340E-02-9.52062E-02 1.26180E-13 1.75107E-12
 -1      1469 2.45502E+01 1.52514E-01-5.95609E-02 1.32218E-01 2.62540E-13 1.21730E-12
 -1      1470 2.48974E+01-4.11236E-03 1.45548E-02-2.22825E-01 5.91185E-14 1.31845E-12
 -1      1471 2.46182E+01 3.47964E-02 6.06143E-03-2.04990E-01 7.87855E-14 1.44006E-12
 -1      1472 2.44861E+01 4.14873E-02-1.15103E-02-2.83082E-01 1.85832E-13 1.01045E-12
 -1      1473 2.53244E+01-3.37182E-02 2.43920E-02-1.68603E-01 6.82321E-14 1.17171E-12
 -1      1474 2.50543E+01-2.05059E-02 1.53018E-02-1.83647E-01 5.37747E-14 1.27082E-12
 -1      1475 2.47428E+01-2.71706E-02 6.64608E-03-3.53781E-01 1.15438E-13 8.67268E-13
 -1      1476 2.54592E+01-6.50645E-02 3.66988E-02 2.51464E-02-2.65760E-15 1.11914E-12
 -1      1477 2.53939E+01-7.79160E-02 1.74332E-02-3.17456E-02-1.20216E-15 1.12670E-12
 -1      1478 2.50021E+01-9.85603E-02 2.23930E-02-1.60422E-01 5.82416E-14 7.94408E-13
 -1      1479 2.49752E+01-8.37841E-02 4.55216E-02 3.46211E-01-2.16910E-14 1.13958E-12
 -1      1480 2.53036E+01-1.28721E-01 2.14026E-02 2.46824E-01-1.70992E-14 1.10654E-12
 -1      1481 2.49861E+01-1.66857E-01 3.92202E-02 2.86495E-01-1.52604E-14 7.79878E-13
 -1      1482 2.36913E+01-6.34236E-02 3.32213E-02 6.98566E-01 2.31308E-14 1.10680E-12
 -1      1483 2.45124E+01-1.38239E-01 2.10860E-02 5.83789E-01 1.26323E-14 1.13280E-12
 -1      1484 2.44691E+01-1.90257E-01 4.59746E-02 8.97363E-01 3.63945E-15 7.57165E-13
 -1      1485 2.18003E+01 1.15240E-02-1.29558E-02 8.77366E-01 6.50682E-14 9.50073E-13
 -1      1486 2.29794E+01-6.75505E-02 5.53022E-03 8.09841E-01 4.53246E-14 1.01159E-12
 -1      1487 2.33960E+01-1.07382E-01 2.81670E-02 1.40905E+00 9.24712E-14 6.63372E-13
 -1      1488 1.99989E+01 1.09662E-01-7.61475E-02 6.70991E-01 7.80574E-14 7.73562E-13
 -1      1489 2.10968E+01 7.62932E-02-2.68496E-02 7.15752E-01 6.52516E-14 8.62393E-13
 -1      1490 2.20405E+01 9.74841E-02-1.44060E-02 1.43401E+00 1.38585E-13 5.97709E-13
 -1      1491 1.92180E+01 1.56071E-01-1.07739E-01 8.28655E-02 1.35348E-13 5.83010E-13
 -1      1492 1.96715E+01 2.07158E-01-5.66414E-02 2.39683E-01 1.01429E-13 7.12097E-13
 -1      1493 2.10081E+01 3.22634E-01-5.45893E-02 7.49683E-01 1.62943E-13 4.25431E-13
 -1      1494 1.99473E+01 1.08516E-01-7.62423E-02-5.70223E-01 5.01092E-14 3.33386E-13
 -1      1495 1.94784E+01 2.22849E-01-5.69329E-02-3.90887E-01 9.82651E-14 4.82316E-13
 -1      1496 2.08887E+01 3.83974E-01-6.44244E-02-3.80079E-01 1.88825E-13 3.16703E-13
 -1      1497 2.18022E+01 1.03148E-02-4.72267E-03-9.12367E-01 7.78197E-15 2.52270E-13
 -1      1498 2.06556E+01 1.17842E-01-2.38406E-02-8.10904E-01 2.74746E-14 2.49287E-13
 -1      1499 2.17722E+01 2.19786E-01-4.16478E-02-1.31347E+00 9.46361E-14 1.45363E-13
 -1      1500 2.38508E+01-6.44661E-02 5.13029E-02-8.28296E-01 2.97167E-14 1.82299E-13
 -1      1501 2.25894E+01-1.78863E-02 1.67290E-02-8.33817E-01 2.39982E-14 1.98397E-13
 -1      1502 2.31711E+01-3.55118E-02-9.78541E-03-1.57926E+00 5.35080E-14 3.60614E-14
 -1      1503 2.53116E+01-8.45833E-02 6.43634E-02-4.88991E-01 1.72657E-14 8.27186E-14
 -1      1504 2.44043E+01-9.86855E-02 3.67101E-02-5.58784E-01 5.81635E-14 1.46105E-13
 -1      1505 2.44292E+01-2.03309E-01 9.24649E-03-1.21321E+00 9.79772E-14-9.51773E-14
 -1      1506 2.59139E+01-6.74971E-02 4.77702E-02-1.22237E-01 2.32687E-14-3.60979E-14
 -1      1507 2.55245E+01-1.10812E-01 3.31935E-02-2.02297E-01 7.62515E-14 7.64527E-14
 -1      1508 2.51487E+01-2.28465E-01 1.44181E-02-5.75057E-01 1.23304E-13-9.94430E-14
 -1      1509 2.57816E+01-3.91166E-02 2.42171E-02 1.44267E-01-1.01828E-15-1.15921E-13
 -1      1510 2.58334E+01-8.36085E-02 1.91022E-02 8.41079E-02-3.34299E-14-1.17818E-13
 -1      1511 2.52678E+01-1.68608E-01 1.20320E-02 9.97573E-03 3.43441E-14-2.48861E-13
 -1      1512 2.51886E+01-1.53039E-02 6.06379E-03 2.86472E-01 1.23345E-13-2.42570E-13
 -1      1513 2.55143E+01-4.75535E-02 6.03018E-03 2.52295E-01 6.96995E-14-1.18515E-13
 -1      1514 2.49278E+01-9.02890E-02 7.79331E-03 3.96259E-01 9.71532E-14-3.41317E-13
 -1      1515 2.43895E+01-2.57189E-04-3.92565E-03 3.32879E-01-1.01971E-14-3.50622E-13
 -1      1516 2.48350E+01-1.85609E-02-1.89270E-03 3.19124E-01 1.10198E-13-2.16754E-13
 -1      1517 2.43235E+01-2.92505E-02 4.13525E-03 5.81262E-01 1.82074E-13-2.12122E-13
 -1      1518 2.35592E+01 7.35248E-03-7.73793E-03 3.21704E-01-5.89847E-14-1.92596E-13
 -1      1519 2.40205E+01-2.44659E-04-5.01159E-03 3.20557E-01-9.14008E-14-3.33959E-13
 -1      1520 2.36193E+01 7.25743E-03 1.73454E-03 6.22155E-01-5.62169E-14-1.71832E-13
 -1      1521 2.27949E+01 1.01573E-02-8.12376E-03 2.82854E-01-1.92246E-14-7.88935E-14
 -1      1522 2.32160E+01 9.26604E-03-5.24261E-03 2.88144E-01-3.99821E-14-1.28069E-13
 -1      1523 2.29239E+01 2.44678E-02 3.81597E-04 5.80477E-01-1.19502E-13-2.85336E-13
 -1      1524 2.21390E+01 1.03414E-02-7.05452E-03 2.34982E-01-4.76349E-14-4.79825E-14
 -1      1525 2.24968E+01 1.30121E-02-4.25775E-03 2.42802E-01-5.10616E-15-7.86263E-14
 -1      1526 2.22967E+01 2.97574E-02-3.08224E-04 5.01533E-01-3.38297E-14-1.79165E-13
 -1      1527 2.16008E+01 9.31393E-03-5.60019E-03 1.88023E-01 1.71529E-13-2.02019E-13
 -1      1528 2.18914E+01 1.35046E-02-3.02543E-03 1.96227E-01 4.43057E-14-5.43159E-14
 -1      1529 2.17621E+01 2.88299E-02-6.28572E-04 4.12809E-01 3.31579E-14-2.22578E-13
 -1      1530 2.11731E+01 7.86342E-03-4.23000E-03 1.46425E-01 8.45647E-14-5.11269E-13
 -1      1531 2.14017E+01 1.24030E-02-1.95797E-03 1.53985E-01 1.40405E-13-2.85216E-13
 -1      1532 2.13239E+01 2.52251E-02-7.52194E-04 3.28622E-01 2.22640E-13-3.67742E-13
 -1      1533 2.08411E+01 6.38414E-03-3.09776E-03 1.11604E-01-1.20059E-13-2.99262E-13
 -1      1534 2.10167E+01 1.06732E-02-1.16261E-03 1.18119E-01-8.98491E-14-4.18394E-13
 -1      1535 2.09748E+01 2.08590E-02-7.70835E-04 2.55143E-01-2.23150E-14-2.97287E-13
 -1      1536 2.05887E+01 5.04843E-03-2.21867E-03 8.34750E-02-1.38876E-13 8.04352E-14
 -1      1537 2.07209E+01 8.82524E-03-6.18224E-04 8.88688E-02-1.26055E-13-5.60316E-14
 -1      1538 2.07028E+01 1.66494E-02-7.32799E-04 1.94072E-01-2.89464E-13-6.71064E-14
 -1      1539 2.04002E+01 3.91414E-03-1.55858E-03 6.13061E-02 2.68926E-15 1.94638E-13
 -1      1540 2.04979E+01 7.10154E-03-2.66973E-04 6.56531E-02-7.90716E-14 6.78964E-14
 -1      1541 2.04949E+01 1.29668E-02-6.65039E-04 1.44912E-01-1.19743E-13 1.49729E-13
 -1      1542 2.02619E+01 2.98488E-03-1.07275E-03 4.41655E-02 1.10502E-13-1.21750E-13
 -1      1543 2.03328E+01 5.59875E-03-5.19527E-05 4.75993E-02 1.81972E-13 1.51290E-13
 -1      1544 2.03389E+01 9.90833E-03-5.83754E-04 1.06241E-01 1.64582E-13 1.45664E-13
 -1      1545 2.01626E+01 2.24134E-03-7.20259E-04 3.11287E-02-5.58665E-14-2.41025E-13
 -1      1546 2.02129E+01 4.33947E-03 7.16743E-05 3.37966E-02-2.68049E-14-2.48960E-13
 -1      1547 2.02240E+01 7.44693E-03-4.99095E-04 7.63778E-02 1.01467E-13 1.19161E-13
 -1      1548 2.00927E+01 1.65671E-03-4.67734E-04 2.13671E-02-6.22732E-14-1.36915E-13
 -1      1549 2.01276E+01 3.31152E-03 1.36053E-04 2.34087E-02-8.15728E-14-2.52987E-13
 -1      1550 2.01409E+01 5.50795E-03-4.17377E-04 5.36880E-02-1.09487E-13-4.50746E-14
 -1      1551 2.00450E+01 1.20366E-03-2.89329E-04 1.41750E-02-1.56985E-14-1.38400E-13
 -1      1552 2.00685E+01 2.48848E-03 1.63152E-04 1.57141E-02 1.15322E-14-1.46371E-13
 -1      1553 2.00821E+01 4.00532E-03-3.42304E-04 3.67184E-02-1.39862E-15-1.39734E-13
 -1      1554 2.00135E+01 8.57343E-04-1.65447E-04 8.96949E-03-7.60412E-14 3.74494E-15
 -1      1555 2.00286E+01 1.83990E-03 1.67598E-04 1.01116E-02-9.28313E-14-1.53346E-13
 -1      1556 2.00416E+01 2.85724E-03-2.75779E-04 2.42343E-02-5.96111E-14-4.51061E-14
 -1      1557 1.99937E+01 5.96244E-04-8.13684E-05 5.27892E-03-7.95796E-14 7.27082E-14
 -1      1558 2.00029E+01 1.33614E-03 1.58969E-04 6.11179E-03-2.46563E-14-4.52059E-14
 -1      1559 2.00147E+01 1.99200E-03-2.18478E-04 1.52165E-02-8.02608E-14-9.79407E-14
 -1      1560 1.99823E+01 4.02324E-04-2.60806E-05 2.72719E-03 1.82032E-13 1.61054E-14
 -1      1561 1.99873E+01 9.50367E-04 1.43450E-04 3.32251E-03 8.88524E-14 1.84495E-13
 -1      1562 1.99976E+01 1.34927E-03-1.70282E-04 8.83961E-03 3.99542E-14-9.71318E-14
 -1      1563 1.99765E+01 2.60721E-04 8.63456E-06 1.01848E-03-1.20265E-13-6.40966E-14
 -1      1564 1.99787E+01 6.59291E-04 1.24969E-04 1.43393E-03 2.08960E-14-4.47326E-14
 -1      1565 1.99875E+01 8.79465E-04-1.30580E-04 4.44568E-03 4.80888E-14-1.02341E-13
 -1      1566 1.99746E+01 1.59358E-04 2.88883E-05-7.70954E-05-1.80188E-14-1.73935E-13
 -1      1567 1.99750E+01 4.43187E-04 1.05955E-04 2.04326E-04-1.76382E-14-6.87730E-14
 -1      1568 1.99822E+01 5.42465E-04-9.84971E-05 1.51714E-03 3.07268E-14-6.93809E-14
 -1      1569 1.99751E+01 8.85356E-05 3.91983E-05-7.35866E-04 2.08944E-13-2.58344E-13
 -1      1570 1.99743E+01 2.85653E-04 8.78447E-05-5.52539E-04 6.72891E-14-1.68021E-13
 -1      1571 1.99802E+01 3.06179E-04-7.30431E-05-3.47976E-04 2.86691E-14-5.00751E-14
 -1      1572 1.99770E+01 4.05461E-05 4.28752E-05-1.09125E-03-4.56989E-14-2.73041E-13
 -1      1573 1.99756E+01 1.73254E-04 7.14200E-05-9.78217E-04 4.40618E-14-1.98725E-13
 -1      1574 1.99803E+01 1.45212E-04-5.32151E-05-1.45770E-03 9.13190E-14 1.38535E-13
 -1      1575 1.99797E+01 9.32900E-06 4.23158E-05-1.24261E-03-1.00624E-13-1.68993E-13
 -1      1576 1.99780E+01 9.51183E-05 5.70343E-05-1.17869E-03-9.25069E-14-3.68218E-13
 -1      1577 1.99817E+01 3.96713E-05-3.80595E-05-2.04471E-03-8.34523E-14-1.01832E-13
 -1      1578 1.99827E+01-9.83724E-06 3.92287E-05-1.26262E-03-1.73389E-14 1.32474E-13
 -1      1579 1.99809E+01 4.25528E-05 4.47667E-05-1.23191E-03-9.95632E-14-4.45179E-14
 -1      1580 1.99837E+01-2.58713E-05-2.67064E-05-2.28192E-03-1.66336E-13-1.09784E-13
 -1      1581 1.99857E+01-2.06056E-05 3.48107E-05-1.20316E-03-5.18448E-15 2.51311E-13
 -1      1582 1.99840E+01 8.66263E-06 3.45271E-05-1.19399E-03 2.67405E-14 2.28800E-13
 -1      1583 1.99861E+01-6.32688E-05-1.83823E-05-2.29530E-03-6.18495E-14 1.91878E-13
 -1      1584 1.99886E+01-2.57999E-05 2.98895E-05-1.10003E-03 1.12305E-13-3.62088E-15
 -1      1585 1.99870E+01-1.19975E-05 2.61283E-05-1.10408E-03 2.40168E-14 8.41139E-14
 -1      1586 1.99885E+01-8.15648E-05-1.24061E-05-2.17423E-03 1.08383E-13 1.16402E-13
 -1      1587 1.99912E+01-2.76304E-05 2.50516E-05-9.76574E-04-1.75030E-13-5.05589E-14
 -1      1588 1.99897E+01-2.37552E-05 1.93410E-05-9.88222E-04 3.76168E-14-2.43138E-15
 -1      1589 1.99908E+01-8.76550E-05-8.16788E-06-1.97973E-03 5.40407E-14 1.22169E-13
 -1      1590 1.99935E+01-2.78972E-05 2.07847E-05-8.46327E-04 5.44660E-14 9.09166E-14
 -1      1591 1.99922E+01-3.01469E-05 1.39509E-05-8.62162E-04-2.31325E-14-4.31242E-14
 -1      1592 1.99929E+01-8.68825E-05-5.08489E-06-1.75064E-03-7.19266E-14 1.04741E-14
 -1      1593 1.99955E+01-2.81877E-05 1.76874E-05-7.14672E-04 1.13366E-13-8.76628E-14
 -1      1594 1.99944E+01-3.42556E-05 9.85509E-06-7.33303E-04 1.19764E-13-4.08279E-14
 -1      1595 1.99948E+01-8.35944E-05-2.50950E-06-1.50805E-03 1.66559E-13-1.11070E-13
 -1      1596 1.99971E+01-2.98990E-05 1.66753E-05-5.79822E-04 2.79564E-14-3.28197E-13
 -1      1597 1.99962E+01-3.89444E-05 7.24407E-06-6.01841E-04 1.08047E-13-1.99916E-13
 -1      1598 1.99964E+01-8.16371E-05 4.06253E-07-1.25815E-03 2.04994E-13-2.17617E-13
 -1      1599 1.99984E+01-3.43637E-05 1.83250E-05-4.33731E-04 1.09746E-13-4.39308E-13
 -1      1600 1.99977E+01-4.69464E-05 6.60978E-06-4.61829E-04 8.56763E-14-3.14239E-13
 -1      1601 1.99977E+01-8.46564E-05 4.65192E-06-9.94400E-04 8.53548E-14 1.57210E-14
 -1      1602 1.99993E+01-4.24220E-05 1.87419E-05-2.62623E-04 1.84031E-13-8.32439E-13
 -1      1603 1.99988E+01-6.05992E-05 7.36117E-06-3.03042E-04 1.83254E-13-4.21588E-13
 -1      1604 1.99987E+01-9.71291E-05 9.75097E-06-7.00794E-04 3.12665E-13-7.34372E-14
 -1      1605 1.99997E+01-4.85931E-05-2.79080E-06-7.50210E-05-2.25910E-13-7.59409E-13
 -1      1606 1.99995E+01-7.00642E-05 4.33557E-06-1.22544E-04-1.25055E-13-9.22461E-13
 -1      1607 1.99994E+01-1.11598E-04 1.17812E-05-3.62737E-04 1.02327E-14-3.07255E-13
 -1      1608 1.99998E+01-2.03952E-05-1.17445E-05 8.24995E-06-4.53833E-13-4.73879E-13
 -1      1609 1.99997E+01-4.08313E-04 1.01724E-05-2.13413E-04-3.49639E-13 1.97086E-13
 -1      1610 1.99997E+01-2.05418E-04-3.82329E-06-1.64251E-04-5.50866E-13 1.23669E-13
 -1      1611 1.99998E+01-1.14538E-03 6.26097E-06-3.86536E-04-1.58082E-14 1.37942E-13
 -1      1612 1.99997E+01-7.16725E-04 6.77145E-06-3.56754E-04-1.08432E-13 4.93371E-14
 -1      1613 1.99997E+01-6.90411E-04 1.26026E-05-5.59200E-04-1.28715E-14 2.57875E-13
 -1      1614 1.99998E+01-2.10563E-03 1.71640E-06-4.80467E-04-1.23290E-13-1.88037E-13
 -1      1615 1.99998E+01-1.54813E-03 4.41448E-06-4.68793E-04 4.39442E-14-7.66091E-14
 -1      1616 1.99997E+01-1.39766E-03 9.99104E-06-8.28950E-04 6.25376E-14 1.04518E-13
 -1      1617 1.99998E+01-3.13214E-03-9.11004E-07-4.90051E-04 5.72851E-14 6.98481E-14
 -1      1618 1.99998E+01-2.54921E-03 1.46256E-06-4.94973E-04-2.01116E-13 1.95322E-13
 -1      1619 1.99998E+01-2.24034E-03 1.32172E-06-9.42797E-04-1.56568E-14-7.96783E-14
 -1      1620 1.99998E+01-4.05680E-03-1.73614E-06-4.28375E-04-7.18853E-13-4.54811E-13
 -1      1621 1.99998E+01-3.54595E-03 3.58951E-08-4.45703E-04-1.49551E-13-4.74375E-13
 -1      1622 1.99998E+01-3.09244E-03-6.75963E-06-9.03881E-04-3.37865E-13-4.19284E-13
 -1      1623 1.99999E+01-4.78705E-03-1.78776E-06-3.10026E-04-7.94701E-13-7.09419E-15
 -1      1624 1.99998E+01-4.40151E-03-6.88953E-07-3.37063E-04-6.96062E-13-2.11319E-13
 -1      1625 1.99999E+01-3.84427E-03-1.28059E-05-7.39541E-04-2.80476E-13-4.96119E-13
 -1      1626 1.99999E+01-5.21407E-03-1.49475E-06-1.54320E-04-3.43723E-13 2.74538E-13
 -1      1627 1.99999E+01-5.01051E-03-9.36740E-07-1.86932E-04-8.15712E-13 4.67984E-13
 -1      1628 1.99999E+01-4.40598E-03-1.69759E-05-4.80287E-04-2.63004E-13 1.94142E-13
 -1      1629 1.99999E+01-5.28820E-03-1.18084E-06 1.90735E-05 1.34188E-13 1.47096E-13
 -1      1630 1.99999E+01-5.29037E-03-1.18290E-06-1.53621E-05-1.60680E-13 5.74994E-14
 -1      1631 1.99999E+01-4.70236E-03-1.90365E-05-1.64014E-04-1.33765E-13 3.65809E-13
 -1      1632 1.99999E+01-5.00092E-03-8.97269E-07 1.90276E-04-9.25567E-14-1.33823E-13
 -1      1633 1.99999E+01-5.20855E-03-1.49542E-06 1.57797E-04 7.07971E-14 1.89310E-14
 -1      1634 1.99999E+01-4.69900E-03-1.89990E-05 1.70991E-04 1.92614E-13-1.65413E-14
 -1      1635 1.99998E+01-4.38606E-03-5.59431E-07 3.39481E-04-5.55088E-13-4.34122E-13
 -1      1636 1.99999E+01-4.77468E-03-1.86120E-06 3.12753E-04-1.99573E-13-8.16775E-14
 -1      1637 1.99999E+01-4.39646E-03-1.68356E-05 4.86210E-04-8.25630E-14-2.91063E-13
 -1      1638 1.99998E+01-3.53475E-03-4.84768E-08 4.45916E-04-9.01505E-13-2.19083E-14
 -1      1639 1.99998E+01-4.04673E-03-1.79982E-06 4.28916E-04-5.57062E-13-3.76951E-13
 -1      1640 1.99999E+01-3.83596E-03-1.27730E-05 7.41983E-04-3.63684E-13-5.18469E-13
 -1      1641 1.99998E+01-2.52971E-03 1.42326E-06 4.94701E-04-4.60718E-13 3.53518E-13
 -1      1642 1.99998E+01-3.11277E-03-9.28671E-07 4.90114E-04-8.08049E-13 3.56443E-13
 -1      1643 1.99998E+01-3.08226E-03-6.55332E-06 9.04338E-04-2.18264E-13 2.14532E-13
 -1      1644 1.99998E+01-1.53095E-03 4.57040E-06 4.68094E-04 3.38613E-14-1.09042E-14
 -1      1645 1.99998E+01-2.08703E-03 1.61440E-06 4.79034E-04-2.83956E-13 4.01076E-13
 -1      1646 1.99998E+01-2.22323E-03 1.43943E-06 9.41196E-04-2.04555E-13 5.46909E-13
 -1      1647 1.99997E+01-7.16809E-04 1.83487E-06 3.55324E-04-1.81914E-13-1.15622E-14
 -1      1648 1.99998E+01-1.13381E-03 6.13851E-06 3.85702E-04-3.41479E-14-6.59483E-14
 -1      1649 1.99997E+01-1.38432E-03 9.69757E-06 8.24549E-04-1.40238E-13-1.65463E-13
 -1      1650 1.99997E+01-2.86806E-04-8.61349E-06 2.50554E-04 3.62851E-14-1.43824E-14
 -1      1651 1.99997E+01-4.94946E-04 5.26567E-06 3.21439E-04 5.29983E-14 1.87278E-14
 -1      1652 1.99996E+01-7.68728E-04 1.04246E-05 6.65635E-04 1.28012E-14 2.50951E-13
 -1      1653 1.99995E+01-3.67953E-04-2.62574E-06 4.99115E-04 2.56471E-13-3.77699E-14
 -1      1654-7.21247E-01-1.52424E+01-1.76571E+00-1.26710E+00 1.56497E-12 6.05210E-13
 -1      1655-6.57424E-01-1.69001E+01-1.88985E+00 1.41211E-01 9.35862E-13 4.35513E-13
 -1      1656 9.71574E-01-9.07450E+00-1.32200E+00 1.86502E-02 1.96076E-12 9.72153E-13
 -1      1657 3.91400E-01-1.38247E+01-1.77265E+00-3.58115E-01 1.62381E-12 6.72087E-13
 -1      1658 5.59924E+00-1.85149E+00-7.56823E-01 3.45659E+00 2.12719E-12 1.49170E-12
 -1      1659 3.09130E+00-7.16141E+00-1.44432E+00 9.94947E-01 2.11420E-12 1.10495E-12
 -1      1660 1.50330E+01 3.93868E+00-3.18544E-03 8.57438E+00 1.83875E-12 1.63869E-12
 -1      1661 9.24414E+00 5.27781E-02-8.69431E-01 4.87782E+00 2.05747E-12 1.53422E-12
 -1      1662 2.91330E+01 6.00262E+00 8.19148E-01 1.20186E+01 1.30851E-12 1.59894E-12
 -1      1663 2.03628E+01 4.88595E+00-9.24103E-02 9.40239E+00 1.65079E-12 1.63825E-12
 -1      1664 4.41792E+01 5.44521E+00 1.59465E+00 1.16030E+01 7.39853E-13 1.03029E-12
 -1      1665 3.45192E+01 6.68118E+00 7.87188E-01 1.21774E+01 1.19543E-12 1.45861E-12
 -1      1666 5.47302E+01 3.65318E+00 1.92298E+00 5.13155E+00 4.76147E-13-2.56850E-13
 -1      1667 4.85481E+01 5.33982E+00 1.55792E+00 9.86136E+00 6.48134E-13 6.50369E-13
 -1      1668 5.38789E+01 4.18370E+00 1.66598E+00-3.37395E+00 6.53977E-13-1.48559E-12
 -1      1669 5.44051E+01 4.10177E+00 1.73804E+00 2.29184E+00 5.40290E-13-6.56253E-13
 -1      1670 4.70561E+01 5.50531E+00 1.39473E+00-9.99469E+00 1.09053E-12-2.41895E-12
 -1      1671 5.33966E+01 3.89021E+00 1.80299E+00-5.90313E+00 6.82149E-13-1.89049E-12
 -1      1672 3.37028E+01 6.51802E+00 6.78419E-01-1.18186E+01 1.71829E-12-2.68741E-12
 -1      1673 4.30171E+01 5.40892E+00 1.44745E+00-1.14315E+01 1.30176E-12-2.55473E-12
 -1      1674 1.95825E+01 4.78815E+00-1.54862E-01-9.23067E+00 2.26885E-12-2.51887E-12
 -1      1675 2.83863E+01 6.03531E+00 7.57658E-01-1.20057E+01 1.92046E-12-2.70983E-12
 -1      1676 8.82271E+00-6.36136E-01-9.32979E-01-4.54676E+00 2.23932E-12-1.93268E-12
 -1      1677 1.44707E+01 3.47166E+00-7.43229E-02-8.26612E+00 2.31482E-12-2.37677E-12
 -1      1678 2.47078E+00-8.00224E+00-1.55469E+00-6.36189E-01 1.71818E-12-1.19704E-12
 -1      1679 4.74757E+00-2.45209E+00-8.75804E-01-2.98298E+00 2.19291E-12-1.75582E-12
 -1      1680 9.74432E-02-1.41830E+01-1.84744E+00 4.93920E-01 7.93809E-13-5.96606E-13
 -1      1681 4.50755E-01-9.90400E+00-1.45431E+00 4.57888E-01 1.48326E-12-9.63368E-13
 -1      1682-6.67964E-01-1.63678E+01-1.87583E+00-2.68160E-01-3.56968E-13-4.54553E-13
 -1      1683-7.23286E-01-1.52376E+01-1.80102E+00 1.16926E+00 4.59521E-13-5.09121E-13
 -1      1684-3.59449E-01-1.30408E+01-1.58683E+00-6.73810E-01-1.43352E-12-7.27501E-13
 -1      1685-4.27594E-01-1.57645E+01-1.83023E+00 3.29513E-01-6.84452E-13-4.92523E-13
 -1      1686 1.75584E+00-6.38314E+00-1.15097E+00 9.53478E-01-2.15183E-12-1.22163E-12
 -1      1687 8.45528E-01-1.16561E+01-1.69028E+00 2.60749E-02-1.72062E-12-8.33916E-13
 -1      1688 8.78884E+00 8.48782E-01-4.07728E-01 5.74644E+00-2.21245E-12-1.78857E-12
 -1      1689 5.11336E+00-4.32790E+00-1.14190E+00 2.58979E+00-2.13274E-12-1.36824E-12
 -1      1690 1.94832E+01 5.81088E+00 3.29490E-01 1.05688E+01-2.05580E-12-2.26941E-12
 -1      1691 1.25473E+01 3.03568E+00-5.23637E-01 7.01778E+00-2.24598E-12-2.03104E-12
 -1      1692 3.50504E+01 5.97563E+00 1.00885E+00 1.21904E+01-1.36169E-12-1.90370E-12
 -1      1693 2.52023E+01 6.30478E+00 2.19476E-01 1.08580E+01-1.85174E-12-2.10165E-12
 -1      1694 4.76675E+01 4.49387E+00 1.43573E+00 8.06639E+00-8.01151E-13-1.06359E-12
 -1      1695 3.97359E+01 6.10573E+00 8.89038E-01 1.05918E+01-1.18169E-12-1.64591E-12
 -1      1696 5.42584E+01 3.68131E+00 1.76119E+00 1.30595E+00-4.60576E-13-1.37002E-13
 -1      1697 5.09506E+01 4.50474E+00 1.47803E+00 6.50543E+00-6.21281E-13-8.57925E-13
 -1      1698 5.21121E+01 4.38384E+00 1.68791E+00-6.98987E+00-5.20584E-13 8.39107E-13
 -1      1699 5.52358E+01 3.38592E+00 1.85429E+00-1.39872E+00-4.01928E-13 2.11706E-13
 -1      1700 4.03087E+01 6.40367E+00 1.08643E+00-1.17151E+01-8.71275E-13 1.45151E-12
 -1      1701 4.87064E+01 4.63067E+00 1.68151E+00-9.16702E+00-5.66939E-13 1.05504E-12
 -1      1702 2.55726E+01 6.81361E+00 3.25832E-01-1.14636E+01-1.34448E-12 1.61515E-12
 -1      1703 3.51749E+01 6.55881E+00 1.18475E+00-1.28781E+01-9.98368E-13 1.57430E-12
 -1      1704 1.29724E+01 2.33012E+00-4.97975E-01-6.80048E+00-1.34859E-12 1.28197E-12
 -1      1705 2.04474E+01 5.37385E+00 4.08635E-01-1.05707E+01-1.33271E-12 1.52633E-12
 -1      1706 4.33200E+00-4.68161E+00-1.25204E+00-2.11769E+00-1.01052E-12 8.55316E-13
 -1      1707 7.86953E+00 7.88706E-01-4.59452E-01-5.33861E+00-1.36513E-12 1.32561E-12
 -1      1708 7.29402E-01-1.25540E+01-1.71905E+00 8.98199E-02-4.01901E-13 3.78478E-13
 -1      1709 1.60931E+00-7.00737E+00-1.17088E+00-7.41084E-01-8.86735E-13 6.34381E-13
 -1      1710-5.04812E-01-1.62435E+01-1.80322E+00-4.98052E-01 6.49009E-13 4.07202E-13
 -1      1711-4.53327E-01-1.37666E+01-1.58854E+00 6.67126E-01-1.13132E-13 4.76147E-13
 -1      1712 2.27240E+01-1.19940E-01 1.21811E-01 7.11087E+00 1.12632E-12 9.29923E-13
 -1      1713 1.25179E+01-3.97261E+00-5.13486E-01 5.89522E+00 1.23135E-12 9.49019E-13
 -1      1714 1.99997E+01-6.72050E-05 3.80734E-06-6.96845E-05-6.61576E-13-1.52933E-13
 -1      1715 1.99996E+01-2.68001E-04 2.63749E-06-2.80670E-04-2.93790E-13 1.57606E-13
 -1      1716 1.98003E-01-1.06319E+01-1.25121E+00 1.92408E+00 8.21954E-13 7.65665E-13
 -1      1717 4.96696E+00-7.82135E+00-9.67623E-01 4.00230E+00 1.04117E-12 7.96870E-13
 -1      1718-1.29696E+00-1.12226E+01-1.29362E+00-4.52843E-01 5.02411E-13 8.40772E-13
 -1      1719 3.34482E+01 3.21733E+00 7.25504E-01 6.91867E+00 1.02995E-12 6.73683E-13
 -1      1720 4.29766E+01 5.94105E+00 1.37155E+00 5.23060E+00 8.90246E-13 2.49578E-13
 -1      1721 4.65876E+01 7.53272E+00 1.46927E+00 1.73311E+00 9.45133E-13-4.18693E-13
 -1      1722 4.59297E+01 7.43119E+00 1.38609E+00-1.96093E+00 9.56402E-13-9.58289E-13
 -1      1723 4.18575E+01 5.74864E+00 1.23641E+00-5.05279E+00 1.02995E-12-1.41309E-12
 -1      1724 3.29152E+01 3.05586E+00 6.95927E-01-6.81112E+00 1.26227E-12-1.62570E-12
 -1      1725 2.21891E+01-4.36738E-01 6.31595E-02-7.08371E+00 1.33782E-12-1.61049E-12
 -1      1726 1.18222E+01-4.19652E+00-5.41354E-01-5.83105E+00 1.20659E-12-1.51279E-12
 -1      1727 3.99050E+00-7.92617E+00-1.04599E+00-3.62115E+00 8.73523E-13-1.23172E-12
 -1      1728-2.49646E-01-1.05447E+01-1.30410E+00-1.45659E+00 3.49831E-13-9.68003E-13
 -1      1729-1.20190E+00-1.08762E+01-1.30590E+00 6.47584E-01-2.76668E-13-9.08273E-13
 -1      1730 1.13425E+00-9.25591E+00-1.14800E+00 2.72181E+00-8.13016E-13-9.79328E-13
 -1      1731 7.28196E+00-5.89448E+00-6.89833E-01 5.19007E+00-1.16562E-12-1.07177E-12
 -1      1732 1.58223E+01-2.15395E+00-3.05506E-01 6.83140E+00-1.27875E-12-1.27709E-12
 -1      1733 2.65091E+01 1.92674E+00 3.99335E-01 7.58302E+00-1.32988E-12-1.23634E-12
 -1      1734 3.65460E+01 4.73722E+00 9.08083E-01 5.56128E+00-1.16678E-12-8.40550E-13
 -1      1735 4.31686E+01 6.88429E+00 1.20730E+00 2.88276E+00-9.97091E-13-5.80924E-13
 -1      1736 4.69854E+01 7.50117E+00 1.52139E+00-2.07933E-01-7.85649E-13-1.55605E-13
 -1      1737 4.48047E+01 6.75024E+00 1.42700E+00-3.84347E+00-6.66467E-13 4.24716E-13
 -1      1738 3.70992E+01 5.05202E+00 1.00640E+00-6.76879E+00-7.22422E-13 7.13651E-13
 -1      1739 2.66434E+01 1.71742E+00 3.74253E-01-7.46742E+00-6.71074E-13 8.06466E-13
 -1      1740 1.58763E+01-2.22358E+00-2.00687E-01-6.79956E+00-5.13367E-13 8.58202E-13
 -1      1741 6.48259E+00-6.49205E+00-8.17031E-01-4.70797E+00-4.02123E-13 8.26866E-13
 -1      1742 8.65668E-01-9.81022E+00-1.15620E+00-2.58161E+00 6.96110E-14 6.93501E-13
 -1      1743 2.53524E+01 2.00770E+00-2.53277E-02-2.36830E+00-2.90847E-13 8.27866E-13
 -1      1744 2.09779E+01 3.57609E+00-3.92157E-02-1.29572E+00-2.60838E-13-4.83315E-13
 -1      1745 2.15737E+01 3.46205E+00-4.18099E-02-1.66407E+00-3.31974E-13-3.87988E-13
 -1      1746 2.22113E+01 3.10823E+00-5.04640E-02-1.89395E+00-3.57296E-13-2.58842E-13
 -1      1747 2.27461E+01 2.75610E+00-1.39836E-01-2.24495E+00-4.10973E-13-8.70901E-14
 -1      1748 2.21767E+01 2.50674E+00-8.22069E-03-1.51250E+00-3.64522E-13-2.89987E-13
 -1      1749 1.88145E+01 4.01328E+00-2.41120E-02-1.83151E-01-7.13006E-14-6.52034E-13
 -1      1750 1.93429E+01 3.99524E+00-1.03171E-02-4.29343E-01-1.10613E-13-6.34950E-13
 -1      1751 1.77838E+01 4.20828E+00-2.12257E-02 2.05467E-01 1.62656E-14-6.67801E-13
 -1      1752 1.82967E+01 4.18485E+00-2.17777E-03 2.92216E-02-2.38386E-14-6.69437E-13
 -1      1753 1.87387E+01 3.62378E+00-1.53283E-02 9.49010E-03-4.94335E-14-6.30995E-13
 -1      1754 1.68785E+01 4.42467E+00-1.85956E-02 4.22863E-01 9.61072E-14-6.54538E-13
 -1      1755 1.73130E+01 4.39281E+00 2.02341E-03 3.28746E-01 6.13867E-14-6.63344E-13
 -1      1756 1.76622E+01 3.93522E+00-1.21042E-02 3.63296E-01 4.73809E-14-6.53684E-13
 -1      1757 1.62449E+01 4.62678E+00-1.45439E-02 4.64109E-01 1.61119E-13-6.35835E-13
 -1      1758 1.65222E+01 4.59362E+00 1.79794E-03 4.44330E-01 1.31367E-13-6.53397E-13
 -1      1759 1.67481E+01 4.25019E+00-6.67092E-03 5.24985E-01 1.26825E-13-6.33186E-13
 -1      1760 1.60333E+01 4.75893E+00-8.91641E-03 3.76491E-01 2.20687E-13-6.13761E-13
 -1      1761 1.60807E+01 4.73452E+00-2.65112E-03 4.01758E-01 1.90120E-13-6.27089E-13
 -1      1762 1.61627E+01 4.50079E+00-1.28706E-03 4.94520E-01 1.90959E-13-6.20251E-13
 -1      1763 1.63348E+01 4.77616E+00-3.56745E-03 2.54865E-01 2.66076E-13-5.80905E-13
 -1      1764 1.61169E+01 4.76802E+00-9.79210E-03 2.79211E-01 2.45040E-13-6.09224E-13
 -1      1765 1.60592E+01 4.60949E+00 1.12362E-03 3.38838E-01 2.45523E-13-6.02781E-13
 -1      1766 1.71253E+01 4.67109E+00-8.67908E-04 2.11211E-01 3.19696E-13-4.96159E-13
 -1      1767 1.66686E+01 4.67953E+00-1.77332E-02 1.87133E-01 2.87181E-13-5.48003E-13
 -1      1768 1.65064E+01 4.53422E+00-5.63697E-04 1.76697E-01 2.96298E-13-5.54328E-13
 -1      1769 1.83421E+01 4.45515E+00-3.16239E-03 3.32653E-01 3.90365E-13-3.57075E-13
 -1      1770 1.76826E+01 4.48350E+00-2.56962E-02 2.22467E-01 3.46782E-13-4.31436E-13
 -1      1771 1.74701E+01 4.28537E+00-5.26285E-03 1.25080E-01 3.51650E-13-4.42341E-13
 -1      1772 1.98545E+01 4.13288E+00-1.32700E-02 6.64290E-01 4.49725E-13-1.80779E-13
 -1      1773 1.90603E+01 4.19619E+00-3.45681E-02 4.47268E-01 4.11926E-13-2.86127E-13
 -1      1774 1.88517E+01 3.89594E+00-9.49747E-03 2.57747E-01 4.14860E-13-2.97930E-13
 -1      1775 2.15791E+01 3.63165E+00-3.55188E-02 1.19325E+00 4.82333E-13 1.14204E-13
 -1      1776 2.06837E+01 3.78924E+00-4.73437E-02 8.67336E-01 4.60998E-13-5.61357E-14
 -1      1777 2.05176E+01 3.37841E+00-8.05977E-03 5.74575E-01 4.68420E-13-8.97043E-14
 -1      1778 2.35907E+01 2.69405E+00-4.99600E-02 1.76783E+00 4.50363E-13 6.02796E-13
 -1      1779 2.25313E+01 3.12992E+00-5.54828E-02 1.41918E+00 4.58716E-13 3.07046E-13
 -1      1780 2.23843E+01 2.63639E+00 2.92019E-03 9.68668E-01 4.85274E-13 2.15730E-13
 -1      1781 2.50397E+01 1.16107E+00-1.20567E-01 1.47437E+00 3.55826E-13 1.16671E-12
 -1      1782 2.42692E+01 2.24289E+00-2.75623E-03 1.75398E+00 4.06265E-13 7.98667E-13
 -1      1783 2.38394E+01 1.64487E+00-1.49158E-02 1.03444E+00 4.53408E-13 5.90025E-13
 -1      1784 2.45600E+01 7.34404E-01-5.14221E-02 6.59168E-01 3.60760E-13 1.04194E-12
 -1      1785 2.42086E+01 2.44614E+00 8.49568E-02-2.55308E+00-3.77897E-13 2.51368E-13
 -1      1786 2.42599E+01 2.51958E-01-6.21267E-03-1.55081E-01 2.80095E-13 8.67112E-13
 -1      1787 2.44764E+01 3.99043E-01-1.03311E-02 2.06884E-01 3.02085E-13 9.60356E-13
 -1      1788 2.41949E+01 7.79188E-01-4.47635E-03 4.20299E-01 3.68643E-13 6.95223E-13
 -1      1789 2.38734E+01 1.65224E+00 7.81574E-02-1.80777E+00-3.89747E-13 1.17559E-13
 -1      1790 2.32036E+01 3.48082E-01 3.21040E-02-5.65905E-01-3.16563E-13 1.05758E-13
 -1      1791 2.28582E+01 1.71242E-01-1.13238E-03-3.70274E-01-2.73535E-13 3.05476E-14
 -1      1792 2.27505E+01 5.30819E-02 2.49250E-02-2.59580E-01-2.35746E-13 4.42285E-14
 -1      1793 2.25727E+01-6.00469E-02-2.29487E-03-2.50399E-01-1.92514E-13-2.12295E-14
 -1      1794 2.27515E+01 1.94503E-01-5.39908E-03-4.66787E-01-2.89893E-13-6.44745E-14
 -1      1795 2.25125E+01-1.33444E-01 1.33490E-02-2.92975E-01-1.58981E-13-2.01688E-14
 -1      1796 2.23458E+01-2.01693E-01-7.94335E-03-3.84451E-01-1.37816E-13-7.15673E-14
 -1      1797 2.25728E+01-1.34854E-01-2.86849E-03-3.68812E-01-2.18614E-13-6.10601E-14
 -1      1798 2.22861E+01-2.39245E-01 4.35843E-03-5.25860E-01-1.37409E-13-7.93315E-14
 -1      1799 2.20671E+01-2.59914E-01-8.69039E-03-6.66207E-01-1.37534E-13-1.32313E-13
 -1      1800 2.24534E+01-3.21551E-01 1.28542E-03-5.62434E-01-1.67273E-13-7.73255E-14
 -1      1801 2.19599E+01-2.48371E-01-1.33942E-03-8.41475E-01-1.33313E-13-1.22875E-13
 -1      1802 2.16703E+01-2.04268E-01-2.74590E-03-9.69110E-01-1.24301E-13-1.56480E-13
 -1      1803 2.22895E+01-3.66719E-01 5.60363E-03-9.11115E-01-1.46872E-13-9.21295E-14
 -1      1804 2.14867E+01-1.29910E-01-4.41204E-03-1.09007E+00-1.39016E-13-1.63170E-13
 -1      1805 2.11573E+01-1.71920E-02 7.73002E-03-1.13077E+00-1.33954E-13-1.92400E-13
 -1      1806 2.20053E+01-2.32190E-01 7.64721E-03-1.24727E+00-1.55210E-13-7.88911E-14
 -1      1807 2.09159E+01 1.08755E-01-3.73433E-03-1.10242E+00-1.21351E-13-1.90535E-13
 -1      1808 2.06194E+01 2.55124E-01 1.70438E-02-9.97383E-01-1.10005E-13-1.70252E-13
 -1      1809 2.15889E+01 8.10985E-02 3.75607E-03-1.36351E+00-1.29756E-13-1.20212E-13
 -1      1810 2.03995E+01 3.81973E-01 2.06969E-03-7.70895E-01-1.51571E-13-1.77434E-13
 -1      1811 2.02236E+01 4.91369E-01 1.92526E-02-5.20394E-01-1.32723E-13-2.31174E-13
 -1      1812 2.11345E+01 4.72675E-01-6.08822E-03-1.08853E+00-1.49724E-13-1.20912E-13
 -1      1813 2.01288E+01 5.50567E-01 1.11945E-02-1.44194E-01-1.69151E-13-2.83305E-13
 -1      1814 2.01359E+01 5.58448E-01 1.29574E-02 1.73749E-01-1.76264E-13-3.62323E-13
 -1      1815 2.08228E+01 7.58208E-01-1.56371E-02-4.13034E-01-2.05446E-13-2.17908E-13
 -1      1816 2.02208E+01 5.11917E-01 1.79494E-02 5.59996E-01-1.66608E-13-4.39030E-13
 -1      1817 2.04138E+01 4.12141E-01 3.12618E-03 8.24764E-01-1.04122E-13-5.04988E-13
 -1      1818 2.08142E+01 7.77988E-01-1.62854E-02 4.49535E-01-2.17219E-13-3.07184E-13
 -1      1819 2.06336E+01 2.87895E-01 1.67488E-02 1.07257E+00-8.96496E-14-5.50120E-13
 -1      1820 2.09534E+01 1.38268E-01-4.02952E-03 1.19478E+00-5.60441E-14-5.45473E-13
 -1      1821 2.11183E+01 5.16673E-01-7.00587E-03 1.16164E+00-1.34795E-13-3.90066E-13
 -1      1822 2.12008E+01 3.54261E-03 7.64799E-03 1.23735E+00-3.84746E-14-6.15853E-13
 -1      1823 2.15549E+01-1.23356E-01-6.56216E-03 1.20339E+00 4.36088E-15-6.02139E-13
 -1      1824 2.15816E+01 1.16661E-01 4.21465E-03 1.47654E+00-8.45837E-14-4.90677E-13
 -1      1825 2.17367E+01-2.13865E-01-3.94312E-03 1.07421E+00 8.67362E-15-6.16731E-13
 -1      1826 2.20391E+01-2.78131E-01-5.93361E-03 9.33591E-01-1.68043E-14-5.77372E-13
 -1      1827 2.20053E+01-2.34866E-01 1.00693E-02 1.36481E+00 9.02056E-17-4.79825E-13
 -1      1828 2.21177E+01-3.09099E-01-1.22917E-02 7.18676E-01-4.33638E-14-5.82159E-13
 -1      1829 2.23167E+01-3.12694E-01-4.25502E-03 5.40258E-01-2.60477E-14-5.84228E-13
 -1      1830 2.22623E+01-4.25801E-01 9.92607E-03 9.70724E-01-2.83710E-14-4.59714E-13
 -1      1831 2.23013E+01-2.98969E-01-1.52299E-02 3.20550E-01 1.04344E-15-5.67036E-13
 -1      1832 2.23840E+01-2.65765E-01-2.74283E-03 1.57635E-01 9.83935E-15-5.49402E-13
 -1      1833 2.23269E+01-4.51799E-01 6.91912E-03 4.84346E-01-1.98496E-14-4.87718E-13
 -1      1834 2.23031E+01-2.30610E-01-1.37856E-02-1.87418E-02-3.22776E-14-5.86354E-13
 -1      1835 2.22847E+01-1.85176E-01-1.61775E-03-1.39498E-01 9.88792E-15-5.74307E-13
 -1      1836 2.22359E+01-3.71780E-01 3.74313E-03 4.68089E-02-1.77722E-14-4.90453E-13
 -1      1837 2.21671E+01-1.46729E-01-1.01132E-02-2.56638E-01 4.38317E-14-5.74878E-13
 -1      1838 2.20759E+01-1.04830E-01-8.07461E-04-3.30336E-01 4.32380E-14-5.12219E-13
 -1      1839 2.20435E+01-2.51995E-01 1.40200E-03-2.74530E-01 2.51990E-14-4.17584E-13
 -1      1840 2.19431E+01-7.26565E-02-6.02253E-03-3.92522E-01 1.16660E-15-4.58933E-13
 -1      1841 2.18091E+01-4.09637E-02-1.89041E-04-4.26299E-01 3.96744E-14-4.92520E-13
 -1      1842 2.17978E+01-1.37300E-01-8.03570E-05-4.69254E-01 4.83287E-14-3.96177E-13
 -1      1843 2.16754E+01-1.80475E-02-2.52868E-03-4.46366E-01 4.55306E-14-5.39144E-13
 -1      1844 2.15236E+01 2.61332E-03 2.91316E-04-4.51460E-01 4.40649E-14-5.29187E-13
 -1      1845 2.15341E+01-4.81688E-02-9.44229E-04-5.57269E-01-5.91356E-15-4.63012E-13
 -1      1846 2.13977E+01 1.68673E-02 2.10050E-06-4.43460E-01 1.77822E-14-5.19238E-13
 -1      1847 2.12462E+01 2.83681E-02 6.41986E-04-4.30655E-01-1.50205E-14-5.14785E-13
 -1      1848 2.12753E+01 1.15181E-02-1.41229E-03-5.68421E-01 4.27892E-14-4.09424E-13
 -1      1849 2.11329E+01 3.59070E-02 1.58747E-03-4.06452E-01-3.25412E-15-4.69760E-13
 -1      1850 2.09930E+01 4.08289E-02 8.65467E-04-3.84232E-01 2.90436E-15-3.93377E-13
 -1      1851 2.10357E+01 4.59912E-02-1.63029E-03-5.31169E-01 1.81352E-14-3.22661E-13
 -1      1852 2.08946E+01 4.37431E-02 2.41274E-03-3.52534E-01 2.65387E-14-4.52549E-13
 -1      1853 2.07721E+01 4.44294E-02 9.74539E-04-3.26793E-01 9.74703E-14-3.96930E-13
 -1      1854 2.08230E+01 6.19456E-02-1.68540E-03-4.68047E-01 2.67340E-14-2.80012E-13
 -1      1855 2.06890E+01 4.44573E-02 2.69988E-03-2.93366E-01 2.87194E-15-4.05389E-13
 -1      1856 2.05862E+01 4.27033E-02 9.91847E-04-2.67794E-01-4.88947E-14-4.39644E-13
 -1      1857 2.06403E+01 6.57210E-02-1.63241E-03-3.94916E-01 6.29660E-14-4.57830E-13
 -1      1858 2.05178E+01 4.11176E-02 2.64509E-03-2.36093E-01-4.52344E-14-4.05611E-13
 -1      1859 2.04343E+01 3.81651E-02 9.43752E-04-2.12748E-01-7.99731E-14-4.36988E-13
 -1      1860 2.04877E+01 6.22901E-02-1.50969E-03-3.21900E-01-1.77097E-14-5.30400E-13
 -1      1861 2.03793E+01 3.58225E-02 2.39831E-03-1.84581E-01-9.04483E-14-4.86256E-13
 -1      1862 2.03134E+01 3.24648E-02 8.54932E-04-1.64414E-01-1.80083E-14-5.06810E-13
 -1      1863 2.03633E+01 5.51539E-02-1.34632E-03-2.54790E-01-9.10770E-14-4.57195E-13
 -1      1864 2.02700E+01 2.99025E-02 2.06347E-03-1.40504E-01 4.42029E-14-4.37694E-13
 -1      1865 2.02193E+01 2.66082E-02 7.45489E-04-1.23773E-01 5.72012E-14-4.36827E-13
 -1      1866 2.02643E+01 4.65874E-02-1.16469E-03-1.96383E-01 5.01579E-14-2.66883E-13
 -1      1867 2.01859E+01 2.41380E-02 1.70705E-03-1.04175E-01 8.76762E-14-4.58012E-13
 -1      1868 2.01480E+01 2.11556E-02 6.30168E-04-9.07346E-02 1.21505E-13-4.10462E-13
 -1      1869 2.01870E+01 3.79609E-02-9.81299E-04-1.47544E-01 1.10921E-13-3.59610E-13
 -1      1870 2.01227E+01 1.89395E-02 1.36795E-03-7.51320E-02 3.77767E-14-4.44124E-13
 -1      1871 2.00950E+01 1.63773E-02 5.18802E-04-6.46288E-02-9.40321E-14-4.82803E-13
 -1      1872 2.01280E+01 3.00244E-02-8.07479E-04-1.07986E-01 1.27466E-14-3.81882E-13
 -1      1873 2.00764E+01 1.44825E-02 1.06627E-03-5.25231E-02-1.52554E-13-4.59737E-13
 -1      1874 2.00568E+01 1.23641E-02 4.17256E-04-4.45213E-02-1.15552E-13-4.94064E-13
 -1      1875 2.00840E+01 2.31268E-02-6.50168E-04-7.68085E-02-3.95447E-14-4.27012E-13
 -1      1876 2.00434E+01 1.08011E-02 8.10011E-04-3.53547E-02-1.38372E-13-4.18917E-13
 -1      1877 2.00299E+01 9.10242E-03 3.28459E-04-2.94085E-02-3.35592E-14-3.99970E-13
 -1      1878 2.00519E+01 1.73710E-02-5.12860E-04-5.28384E-02-1.32867E-13-3.34172E-13
 -1      1879 2.00205E+01 7.85000E-03 5.99853E-04-2.26349E-02-6.28417E-14-3.94905E-13
 -1      1880 2.00117E+01 6.52357E-03 2.53317E-04-1.83296E-02-3.58430E-14-4.46983E-13
 -1      1881 2.00291E+01 1.27187E-02-3.96532E-04-3.48475E-02-6.05814E-14-1.99627E-13
 -1      1882 2.00054E+01 5.54513E-03 4.32427E-04-1.34527E-02 2.01404E-14-4.39929E-13
 -1      1883 1.99999E+01 4.53446E-03 1.91442E-04-1.04243E-02 9.10038E-14-4.05530E-13
 -1      1884 2.00135E+01 9.05872E-03-3.00474E-04-2.16735E-02-1.26650E-14-1.76113E-13
 -1      1885 1.99959E+01 3.78790E-03 3.02418E-04-7.01479E-03 1.76418E-13-4.57647E-13
 -1      1886 1.99928E+01 3.03623E-03 1.41696E-04-4.95664E-03 2.22024E-13-4.04546E-13
 -1      1887 2.00031E+01 6.24945E-03-2.22946E-04-1.22824E-02 8.10560E-14-1.74918E-13
 -1      1888 1.99904E+01 2.47975E-03 2.03870E-04-2.65609E-03 1.67669E-13-5.05756E-13
 -1      1889 1.99890E+01 1.93478E-03 1.02570E-04-1.31774E-03 2.42457E-14-4.54948E-13
 -1      1890 1.99967E+01 4.14404E-03-1.61686E-04-5.79309E-03 1.31857E-13-2.26877E-13
 -1      1891 1.99877E+01 1.53003E-03 1.30951E-04 1.64191E-04-6.31720E-14-3.99075E-13
 -1      1892 1.99874E+01 1.14601E-03 7.24347E-05 9.81870E-04-4.17034E-15-4.06427E-13
 -1      1893 1.99930E+01 2.60455E-03-1.14252E-04-1.47851E-03 8.97838E-14-2.44995E-13
 -1      1894 1.99869E+01 8.59513E-04 7.83573E-05 1.87473E-03 5.29627E-14-4.32247E-13
 -1      1895 1.99873E+01 5.97947E-04 4.96983E-05 2.32634E-03-1.30473E-13-4.17401E-13
 -1      1896 1.99912E+01 1.50889E-03-7.82567E-05 1.24481E-03 5.12979E-15-1.76723E-13
 -1      1897 1.99873E+01 4.01521E-04 4.14962E-05 2.80738E-03-2.12592E-13-3.35018E-13
 -1      1898 1.99881E+01 2.30897E-04 3.28909E-05 3.01017E-03-1.18676E-13-2.76938E-13
 -1      1899 1.99908E+01 7.53228E-04-5.15007E-05 2.83411E-03-9.31627E-14-9.44442E-14
 -1      1900 1.99884E+01 1.01420E-04 1.65281E-05 3.21309E-03-5.90900E-14-1.48870E-13
 -1      1901 1.99894E+01-3.49700E-06 2.07036E-05 3.25382E-03-4.11621E-14-2.11236E-13
 -1      1902 1.99911E+01 2.51874E-04-3.20417E-05 3.63948E-03-8.10984E-14-4.88340E-14
 -1      1903 1.99899E+01-8.46270E-05 3.31091E-07 3.27690E-03 7.39230E-15-2.53500E-13
 -1      1904 1.99909E+01-1.43741E-04 1.19938E-05 3.21789E-03 1.42217E-13-2.12873E-13
 -1      1905 1.99919E+01-6.43127E-05-1.82195E-05 3.92254E-03-1.61040E-14-2.67146E-14
 -1      1906 1.99915E+01-1.91317E-04-9.57339E-06 3.13108E-03 2.56209E-13-1.42205E-13
 -1      1907 1.99925E+01-2.20228E-04 5.77103E-06 3.01529E-03 3.89963E-13-9.97838E-15
 -1      1908 1.99930E+01-2.50269E-04-8.65302E-06 3.87338E-03 2.81293E-13 2.78738E-14
 -1      1909 1.99931E+01-2.46005E-04-1.51064E-05 2.86608E-03 4.02255E-13-8.51015E-14
 -1      1910 1.99940E+01-2.57031E-04 1.18124E-06 2.72116E-03 3.09614E-13-5.44349E-14
 -1      1911 1.99942E+01-3.49368E-04-2.22512E-06 3.62510E-03 3.23588E-13 2.01608E-14
 -1      1912 1.99946E+01-2.70493E-04-1.77025E-05 2.53927E-03 2.67293E-13-3.43864E-14
 -1      1913 1.99955E+01-2.73595E-04-2.47422E-06 2.38059E-03 3.29630E-13 9.65222E-14
 -1      1914 1.99953E+01-3.96079E-04 1.94438E-06 3.26560E-03 3.60135E-13 6.88687E-15
 -1      1915 1.99960E+01-2.82610E-04-1.83349E-05 2.18158E-03 2.37493E-13-8.64668E-14
 -1      1916 1.99967E+01-2.86116E-04-5.66036E-06 2.01443E-03 1.11034E-13-1.07943E-13
 -1      1917 1.99964E+01-4.18365E-04 4.53629E-06 2.84696E-03 2.18552E-13-1.78080E-13
 -1      1918 1.99971E+01-2.97347E-04-1.75056E-05 1.80274E-03-1.25475E-13-3.65696E-15
 -1      1919 1.99978E+01-3.08084E-04-8.36195E-06 1.62420E-03-2.54826E-13-1.00560E-13
 -1      1920 1.99973E+01-4.39441E-04 6.01211E-06 2.39309E-03 1.14233E-14-2.71122E-13
 -1      1921 1.99981E+01-3.26789E-04-1.53017E-05 1.39693E-03-1.66519E-13-1.73577E-13
 -1      1922 1.99986E+01-3.47106E-04-1.02177E-05 1.19829E-03-9.60824E-14-3.29403E-14
 -1      1923 1.99982E+01-4.77473E-04 6.20854E-06 1.90713E-03-2.43688E-13 3.89253E-14
 -1      1924 1.99989E+01-3.60055E-04-1.24400E-05 9.63957E-04 3.00589E-14 6.71760E-14
 -1      1925 1.99992E+01-3.80975E-04-1.23423E-05 7.48592E-04 1.88729E-13 8.62653E-14
 -1      1926 1.99993E+01-5.33147E-04 6.10405E-06 8.81517E-04 1.11398E-13 3.30558E-13
 -1      1927 1.99988E+01-5.20587E-04 9.26367E-06 1.39683E-03 9.43332E-14 1.32518E-13
 -1      1928 2.43349E+01 4.34083E-02 1.84162E-03-4.46934E-01 1.87260E-13 7.35372E-13
 -1      1929 2.42990E+01 1.35251E-01 1.46520E-02-3.18208E-01 2.19711E-13 8.16673E-13
 -1      1930 2.40407E+01 2.46947E-01-8.13170E-03-2.83717E-01 2.68927E-13 5.97754E-13
 -1      1931 2.45715E+01-1.43611E-01-6.04704E-03-3.99470E-01 1.29316E-13 6.48646E-13
 -1      1932 2.44602E+01-5.95662E-02 8.77075E-03-4.30223E-01 1.28636E-13 6.97825E-13
 -1      1933 2.41647E+01-5.26569E-02-6.56226E-03-5.00873E-01 1.80494E-13 5.35835E-13
 -1      1934 2.47639E+01-3.36385E-01-1.16289E-02-1.98498E-02 2.88458E-14 6.27466E-13
 -1      1935 2.47211E+01-2.58518E-01 4.74290E-04-2.12133E-01 6.40616E-14 6.44701E-13
 -1      1936 2.44357E+01-3.30809E-01-3.01860E-03-3.10719E-01 9.47662E-14 4.81887E-13
 -1      1937 2.47075E+01-4.72893E-01-8.96785E-03 6.62889E-01-8.18443E-15 5.90559E-13
 -1      1938 2.48479E+01-4.38866E-01-4.90992E-03 3.20087E-01-2.01054E-15 6.16305E-13
 -1      1939 2.46775E+01-5.80095E-01 4.38379E-03 2.69207E-01 1.30174E-14 4.72933E-13
 -1      1940 2.42398E+01-4.13451E-01 8.75528E-04 1.45338E+00 3.88647E-14 5.84401E-13
 -1      1941 2.46228E+01-4.86950E-01-8.24542E-03 1.05879E+00-1.11387E-14 5.95191E-13
 -1      1942 2.46977E+01-6.61043E-01 1.32501E-02 1.13248E+00 5.66734E-15 4.44873E-13
 -1      1943 2.33459E+01-4.29486E-02 6.35404E-03 1.91253E+00 1.68516E-13 5.55635E-13
 -1      1944 2.39262E+01-2.51494E-01-1.05014E-02 1.68678E+00 1.11947E-13 5.85320E-13
 -1      1945 2.43313E+01-3.79539E-01 1.38264E-02 1.93428E+00 1.09542E-13 4.65175E-13
 -1      1946 2.23129E+01 5.24960E-01-6.81054E-03 1.54419E+00 1.96513E-13 4.14177E-13
 -1      1947 2.29021E+01 2.77991E-01-1.04101E-02 1.72357E+00 2.06165E-13 5.11379E-13
 -1      1948 2.35994E+01 2.94949E-01-4.48052E-03 2.10086E+00 2.21476E-13 4.50324E-13
 -1      1949 2.17229E+01 8.88343E-01-3.04265E-02 2.92165E-01 1.82635E-13 3.08050E-13
 -1      1950 2.20385E+01 8.00321E-01-2.90622E-03 8.80970E-01 1.81691E-13 3.36804E-13
 -1      1951 2.28769E+01 1.01350E+00-3.12285E-02 1.20994E+00 2.33355E-13 2.86425E-13
 -1      1952 2.20334E+01 7.17385E-01-3.99096E-02-1.17046E+00 1.73667E-13 2.04989E-13
 -1      1953 2.18724E+01 8.78067E-01 3.87130E-03-5.07798E-01 2.49314E-13 2.78633E-13
 -1      1954 2.27066E+01 1.23271E+00-3.55459E-02-4.34954E-01 2.63199E-13 1.70371E-13
 -1      1955 2.30744E+01 1.74229E-01-1.91095E-02-1.97776E+00 9.97553E-14 2.32939E-14
 -1      1956 2.25050E+01 4.48420E-01 3.60478E-03-1.62156E+00 1.30198E-13 1.10901E-13
 -1      1957 2.32438E+01 7.50615E-01-1.78690E-02-1.85167E+00 1.99347E-13 2.28151E-14
 -1      1958 2.42129E+01-3.11570E-01 1.03597E-02-1.82838E+00 1.35732E-13-1.37789E-13
 -1      1959 2.35240E+01-1.23510E-01-3.20400E-03-1.88712E+00 1.05534E-13-4.41938E-14
 -1      1960 2.40770E+01-3.21203E-02 3.83272E-03-2.26711E+00 1.66631E-13-1.22777E-13
 -1      1961 2.49227E+01-4.92370E-01 2.17653E-02-1.08561E+00 4.29379E-14-2.13225E-13
 -1      1962 2.43990E+01-4.57963E-01-1.28730E-02-1.39084E+00 9.49432E-14-1.74926E-13
 -1      1963 2.46704E+01-5.87002E-01 5.19823E-03-1.71637E+00 1.25460E-13-2.00288E-13
 -1      1964 2.50778E+01-4.30402E-01 1.73920E-02-2.55749E-01 8.54594E-14-2.04339E-13
 -1      1965 2.48494E+01-4.91940E-01-1.74298E-02-5.98880E-01 9.09984E-14-2.23689E-13
 -1      1966 2.48205E+01-7.18756E-01-4.62699E-03-7.67509E-01 1.16197E-13-2.76660E-13
 -1      1967 2.47952E+01-2.72173E-01 8.63276E-03 3.64324E-01 3.70927E-14-2.90900E-13
 -1      1968 2.48430E+01-3.58226E-01-1.57376E-02 1.05559E-01 7.35072E-14-2.09816E-13
 -1      1969 2.45912E+01-5.65910E-01-9.26472E-03 9.89127E-02 8.65835E-14-2.21972E-13
 -1      1970 2.42569E+01-1.23335E-01 1.37669E-03 7.07335E-01 1.13210E-13-3.06599E-13
 -1      1971 2.44930E+01-1.92585E-01-1.06560E-02 5.60797E-01 6.43843E-14-3.16660E-13
 -1      1972 2.41304E+01-3.27664E-01-8.01884E-03 6.72579E-01 1.20534E-13-2.52198E-13
 -1      1973 2.36143E+01-2.12196E-02-2.43555E-03 8.28624E-01 9.95701E-14-2.03468E-13
 -1      1974 2.39449E+01-6.38977E-02-5.35139E-03 7.73115E-01 1.63506E-13-2.10970E-13
 -1      1975 2.35659E+01-1.26725E-01-4.95007E-03 9.50399E-01 1.24883E-13-2.32410E-13
 -1      1976 2.29668E+01 3.53197E-02-3.58421E-03 8.11037E-01-1.66740E-13-2.07382E-13
 -1      1977 2.33213E+01 1.46009E-02-1.13355E-03 8.13459E-01-2.51870E-14-1.91530E-13
 -1      1978 2.29825E+01 2.37666E-03-2.34161E-03 1.01404E+00-1.52764E-15-2.14172E-13
 -1      1979 2.23708E+01 5.97758E-02-3.33877E-03 7.22787E-01-1.00314E-13-2.69755E-13
 -1      1980 2.27059E+01 5.32355E-02 1.63190E-03 7.55415E-01-1.28335E-13-2.48495E-13
 -1      1981 2.24305E+01 6.91911E-02-8.27414E-04 9.51791E-01-7.71245E-14-1.97654E-13
 -1      1982 2.18521E+01 6.53161E-02-2.59752E-03 6.08452E-01-2.91720E-14-2.69761E-13
 -1      1983 2.21465E+01 6.65321E-02 3.10766E-03 6.52901E-01-2.92886E-14-2.65391E-13
 -1      1984 2.19370E+01 9.46153E-02-1.95746E-04 8.30038E-01-6.96184E-14-2.85838E-13
 -1      1985 2.14180E+01 6.12368E-02-1.81731E-03 4.93051E-01 2.26853E-13-3.99250E-13
 -1      1986 2.16646E+01 6.60035E-02 3.65016E-03 5.38834E-01 4.58947E-14-3.48407E-13
 -1      1987 2.15131E+01 9.67425E-02-6.66106E-05 6.90409E-01 8.39580E-14-3.69283E-13
 -1      1988 2.10653E+01 5.31395E-02-1.17167E-03 3.88637E-01 1.44479E-13-4.39164E-13
 -1      1989 2.12649E+01 5.90537E-02 3.61485E-03 4.30576E-01 1.92420E-13-4.72055E-13
 -1      1990 2.11602E+01 8.76882E-02-1.48235E-04 5.55581E-01 2.18538E-13-4.73583E-13
 -1      1991 2.07851E+01 4.40466E-02-6.94331E-04 2.99711E-01-2.98688E-13-2.40875E-13
 -1      1992 2.09426E+01 4.98816E-02 3.27453E-03 3.35759E-01-1.15891E-13-3.71448E-13
 -1      1993 2.08735E+01 7.44871E-02-2.75714E-04 4.36044E-01-9.89423E-14-3.47721E-13
 -1      1994 2.05669E+01 3.54196E-02-3.64799E-04 2.26802E-01-3.16888E-13 4.19887E-14
 -1      1995 2.06886E+01 4.06324E-02 2.80878E-03 2.56585E-01-3.81565E-13-1.24139E-13
 -1      1996 2.06455E+01 6.07935E-02-3.76680E-04 3.35275E-01-4.01858E-13-9.86705E-14
 -1      1997 2.04000E+01 2.78588E-02-1.48950E-04 1.68585E-01-5.59252E-14 1.44697E-13
 -1      1998 2.04923E+01 3.22705E-02 2.32245E-03 1.92531E-01-5.69059E-14 1.84914E-13
 -1      1999 2.04675E+01 4.82819E-02-4.30990E-04 2.53109E-01-1.59862E-13 9.10734E-14
 -1      2000 2.02745E+01 2.15234E-02-1.47661E-05 1.23029E-01 2.49892E-13 2.39032E-13
 -1      2001 2.03432E+01 2.51337E-02 1.86967E-03 1.41890E-01 9.70408E-14 1.73941E-13
 -1      2002 2.03309E+01 3.75643E-02-4.42360E-04 1.87706E-01 1.06053E-13 2.35490E-13
 -1      2003 2.01818E+01 1.63649E-02 6.32123E-05 8.79854E-02 3.60779E-15 2.20482E-13
 -1      2004 2.02321E+01 1.92514E-02 1.47381E-03 1.02587E-01 1.39888E-13 2.36140E-13
 -1      2005 2.02279E+01 2.87268E-02-4.22425E-04 1.36634E-01 1.51701E-13 3.46326E-13
 -1      2006 2.01146E+01 1.22499E-02 1.03772E-04 6.14506E-02-9.65994E-14 5.38917E-14
 -1      2007 2.01507E+01 1.45168E-02 1.14107E-03 7.25786E-02-7.62375E-14 1.86816E-13
 -1      2008 2.01516E+01 2.16215E-02-3.83275E-04 9.74122E-02-2.03385E-15 3.11726E-13
 -1      2009 2.00670E+01 9.02054E-03 1.20226E-04 4.16751E-02 6.20273E-14 1.11801E-13
 -1      2010 2.00923E+01 1.07737E-02 8.68922E-04 5.00244E-02 1.46388E-14 1.01789E-13
 -1      2011 2.00961E+01 1.60144E-02-3.34685E-04 6.77640E-02 2.61288E-14 2.89853E-13
 -1      2012 2.00342E+01 6.52268E-03 1.21767E-04 2.71849E-02-6.94703E-14-5.31365E-14
 -1      2013 2.00514E+01 7.85897E-03 6.50903E-04 3.33472E-02-6.32795E-14-6.72457E-14
 -1      2014 2.00567E+01 1.16576E-02-2.83581E-04 4.57107E-02 1.25665E-14 1.77910E-13
 -1      2015 2.00123E+01 4.61760E-03 1.14619E-04 1.67684E-02 1.71338E-14-1.90715E-13
 -1      2016 2.00235E+01 5.62129E-03 4.79240E-04 2.12343E-02-2.84667E-14-1.00879E-13
 -1      2017 2.00294E+01 8.31993E-03-2.34392E-04 2.95897E-02-4.04817E-15-6.43553E-14
 -1      2018 1.99984E+01 3.18571E-03 1.02913E-04 9.44697E-03 8.89955E-14-1.17868E-13
 -1      2019 2.00053E+01 3.92770E-03 3.46173E-04 1.26157E-02 8.25934E-15-1.88713E-13
 -1      2020 2.00112E+01 5.79916E-03-1.89645E-04 1.80350E-02 7.74781E-14-4.88667E-14
 -1      2021 1.99901E+01 2.12651E-03 8.93250E-05 4.44175E-03-6.44508E-14-5.31057E-14
 -1      2022 1.99940E+01 2.66531E-03 2.44579E-04 6.63327E-03 3.83051E-14-2.71807E-14
 -1      2023 1.99995E+01 3.92400E-03-1.50531E-04 9.94429E-03 5.15129E-15-2.28980E-14
 -1      2024 1.99858E+01 1.35710E-03 7.55301E-05 1.14124E-03 3.20826E-14 5.06661E-14
 -1      2025 1.99877E+01 1.74022E-03 1.68217E-04 2.60852E-03 1.24437E-14 3.29733E-14
 -1      2026 1.99925E+01 2.55257E-03-1.17370E-04 4.44056E-03 7.97022E-15 1.16592E-13
 -1      2027 1.99841E+01 8.10006E-04 6.25189E-05-9.28376E-04 1.01693E-13-5.62311E-14
 -1      2028 1.99846E+01 1.07555E-03 1.11778E-04 1.19215E-05-2.56131E-15 2.02971E-14
 -1      2029 1.99888E+01 1.56914E-03-8.99483E-05 8.35981E-04 7.43142E-14 2.96801E-13
 -1      2030 1.99842E+01 4.31025E-04 5.08211E-05-2.12917E-03-5.63661E-14 1.22834E-13
 -1      2031 1.99838E+01 6.09169E-04 7.08426E-05-1.56414E-03 5.01148E-14 1.41167E-13
 -1      2032 1.99873E+01 8.80530E-04-6.77524E-05-1.40171E-03 4.10035E-14 2.55745E-13
 -1      2033 1.99853E+01 1.77089E-04 4.06584E-05-2.73361E-03-3.01911E-14 8.68979E-14
 -1      2034 1.99844E+01 2.91448E-04 4.17902E-05-2.42891E-03-6.36632E-14 1.02787E-13
 -1      2035 1.99872E+01 4.12537E-04-5.01300E-05-2.67845E-03-1.04711E-13 1.43801E-13
 -1      2036 1.99869E+01 1.43317E-05 3.20502E-05-2.94315E-03-2.01608E-13 5.01529E-14
 -1      2037 1.99858E+01 8.31887E-05 2.16969E-05-2.81318E-03-1.87719E-13 3.12915E-15
 -1      2038 1.99881E+01 1.06720E-04-3.63891E-05-3.29889E-03-1.46701E-13 1.30495E-13
 -1      2039 1.99888E+01-8.36625E-05 2.48827E-05-2.90350E-03 9.11585E-14 2.41326E-13
 -1      2040 1.99876E+01-4.62944E-05 8.22816E-06-2.88588E-03-1.22968E-13 1.30207E-13
 -1      2041 1.99894E+01-8.25236E-05-2.58588E-05-3.48743E-03-2.10657E-13 1.83131E-14
 -1      2042 1.99908E+01-1.37422E-04 1.89537E-05-2.71693E-03 9.60254E-14 5.93770E-14
 -1      2043 1.99896E+01-1.20871E-04-4.62329E-07-2.76751E-03 1.67625E-13 2.48674E-13
 -1      2044 1.99910E+01-1.90545E-04-1.79233E-05-3.40540E-03 1.85995E-13 1.58269E-13
 -1      2045 1.99927E+01-1.62991E-04 1.40045E-05-2.45186E-03-1.32045E-13 2.58686E-13
 -1      2046 1.99916E+01-1.59119E-04-5.82053E-06-2.54084E-03 8.48683E-14 1.95009E-13
 -1      2047 1.99925E+01-2.44728E-04-1.20357E-05-3.16488E-03-2.06729E-14 1.85488E-13
 -1      2048 1.99944E+01-1.73218E-04 9.74894E-06-2.15016E-03 1.36957E-13 5.70307E-14
 -1      2049 1.99934E+01-1.75706E-04-8.96423E-06-2.25921E-03-1.80153E-14 1.89082E-13
 -1      2050 1.99941E+01-2.66524E-04-7.71662E-06-2.83946E-03 9.59808E-14 3.06554E-13
 -1      2051 1.99959E+01-1.78916E-04 5.94502E-06-1.83233E-03 1.77315E-13-8.42752E-14
 -1      2052 1.99950E+01-1.82641E-04-1.07142E-05-1.95259E-03 1.77523E-13-3.05106E-14
 -1      2053 1.99955E+01-2.73291E-04-4.54513E-06-2.47235E-03 1.94578E-13 1.83882E-13
 -1      2054 1.99972E+01-1.89406E-04 2.69382E-06-1.50087E-03 1.68959E-13 1.61408E-14
 -1      2055 1.99965E+01-1.90315E-04-1.15474E-05-1.63188E-03 1.31078E-13-6.43919E-15
 -1      2056 1.99967E+01-2.79790E-04-2.09822E-06-2.08229E-03 3.57220E-14 7.18763E-14
 -1      2057 1.99982E+01-2.11693E-04 4.29488E-07-1.14520E-03 2.68340E-13 1.85349E-14
 -1      2058 1.99977E+01-2.06735E-04-1.13533E-05-1.29288E-03 9.54535E-14-8.76313E-15
 -1      2059 1.99978E+01-2.97138E-04 3.79153E-07-1.66850E-03 1.72629E-13 1.93237E-13
 -1      2060 1.99990E+01-2.49580E-04-3.68371E-06-7.49481E-04 8.19824E-14 7.88795E-14
 -1      2061 1.99986E+01-2.35423E-04-9.27102E-06-9.23120E-04 3.00099E-13 1.41718E-13
 -1      2062 1.99986E+01-3.34218E-04 2.21476E-06-1.22076E-03 2.51222E-13 1.76275E-13
 -1      2063 1.99995E+01-2.78497E-04-8.19753E-06-4.25918E-04-1.92913E-13 2.42632E-13
 -1      2064 1.99992E+01-2.75168E-04-6.93913E-06-6.16246E-04 3.04503E-14 1.88430E-13
 -1      2065 1.99992E+01-3.83181E-04 3.59127E-06-8.37137E-04-4.63410E-14 6.11817E-13
 -1      2066 1.99995E+01-4.17726E-04 6.67576E-07-5.38155E-04-1.39513E-13 4.69732E-13
 -1      2067 1.99998E+01-2.35254E-03 4.61919E-06-1.28403E-03-7.77638E-15-3.75074E-14
 -1      2068 1.99997E+01-1.94238E-03-5.65258E-06-1.26743E-03-2.90166E-14-1.77363E-13
 -1      2069 1.99997E+01-1.59029E-03 1.22414E-06-1.19986E-03-1.11645E-13-5.10617E-14
 -1      2070 1.99996E+01-1.21329E-03-8.37562E-06-1.08840E-03-1.15384E-13 3.16541E-13
 -1      2071 1.99996E+01-1.70631E-03-4.05888E-07-1.56537E-03-2.07410E-13-9.86762E-15
 -1      2072 1.99995E+01-9.55792E-04-1.45217E-06-9.27026E-04-9.11597E-14 2.61253E-13
 -1      2073 1.99995E+01-6.50363E-04-8.01359E-06-7.44429E-04-7.06372E-14 2.92382E-13
 -1      2074 1.99993E+01-6.40569E-04-5.70938E-06-9.08006E-04-1.45847E-13 4.63939E-13
 -1      2075 1.99995E+01-1.11357E-03 2.25025E-06-1.30393E-03-1.93636E-13 2.54571E-13
 -1      2076 1.99999E+01-3.06649E-03 8.25975E-06-1.18365E-03-2.86451E-13-8.58916E-13
 -1      2077 1.99999E+01-2.68215E-03 3.22085E-07-1.24671E-03-5.53917E-14-2.43714E-13
 -1      2078 1.99999E+01-2.38325E-03-3.63212E-06-1.59315E-03-8.52275E-14-3.39065E-13
 -1      2079 2.00000E+01-3.67382E-03 1.14445E-05-9.26637E-04-3.51411E-14-3.48717E-13
 -1      2080 2.00000E+01-3.35409E-03 5.76084E-06-1.05500E-03-9.48793E-14-4.77701E-13
 -1      2081 2.00001E+01-3.00074E-03-7.07930E-06-1.40522E-03 4.36078E-14-4.36068E-13
 -1      2082 2.00001E+01-4.09084E-03 1.34650E-05-5.56487E-04 1.54314E-14 2.94081E-13
 -1      2083 2.00001E+01-3.88279E-03 1.01914E-05-7.29036E-04 9.04590E-14 3.89312E-14
 -1      2084 2.00002E+01-3.49854E-03-9.93282E-06-1.03807E-03 1.83024E-13-1.88318E-13
 -1      2085 2.00001E+01-4.27124E-03 1.40237E-05-1.21967E-04-8.09522E-15 2.11784E-13
 -1      2086 2.00001E+01-4.20011E-03 1.29962E-05-3.16721E-04-8.21053E-14 4.52114E-13
 -1      2087 2.00003E+01-3.81818E-03-1.16920E-05-5.47201E-04 1.12287E-13 2.54877E-13
 -1      2088 2.00001E+01-4.19554E-03 1.29472E-05 3.26115E-04 8.46079E-14-2.36195E-13
 -1      2089 2.00001E+01-4.26980E-03 1.40502E-05 1.31700E-04 1.52301E-13-5.89351E-14
 -1      2090 2.00003E+01-3.92653E-03-1.22715E-05 6.19969E-06-2.49544E-14 1.61115E-13
 -1      2091 2.00001E+01-3.87277E-03 1.02292E-05 7.36605E-04-1.14505E-13-4.47241E-13
 -1      2092 2.00001E+01-4.08368E-03 1.33594E-05 5.65091E-04 2.22239E-14-2.95519E-13
 -1      2093 2.00003E+01-3.81262E-03-1.16032E-05 5.58684E-04-1.84183E-14-3.27963E-13
 -1      2094 2.00000E+01-3.35074E-03 5.78039E-06 1.05515E-03-7.67597E-14-4.25619E-13
 -1      2095 2.00000E+01-3.66619E-03 1.13331E-05 9.29898E-04-1.45813E-13-4.87135E-13
 -1      2096 2.00002E+01-3.49196E-03-9.94002E-06 1.04358E-03 3.15527E-14-4.39243E-13
 -1      2097 1.99999E+01-2.67225E-03 1.45135E-07 1.24667E-03 1.76516E-13 5.22204E-13
 -1      2098 1.99999E+01-3.06333E-03 8.22885E-06 1.18355E-03 4.63077E-14 4.63127E-14
 -1      2099 2.00001E+01-2.99677E-03-6.97720E-06 1.40539E-03 2.33376E-13-1.86112E-13
 -1      2100 1.99997E+01-1.92603E-03-5.70674E-06 1.26487E-03-6.15995E-14 3.06513E-13
 -1      2101 1.99998E+01-2.33648E-03 4.63399E-06 1.28318E-03 4.80464E-14 4.64553E-13
 -1      2102 1.99999E+01-2.37331E-03-3.32021E-06 1.59263E-03 2.54678E-13 4.06735E-13
 -1      2103 1.99996E+01-1.18555E-03-4.16123E-06 1.08914E-03-4.25965E-14-1.45780E-13
 -1      2104 1.99997E+01-1.57545E-03 1.91979E-06 1.19533E-03-6.27424E-14-9.64408E-14
 -1      2105 1.99996E+01-1.69315E-03-1.51678E-07 1.55922E-03-5.17437E-14 5.48113E-14
 -1      2106 9.75492E+00-5.50962E+00-1.58415E-01 6.08768E+00 5.83200E-13 6.14203E-13
 -1      2107 6.42497E+00-6.73774E+00-3.51833E-01 4.97857E+00 3.64875E-13 6.06626E-13
 -1      2108 3.87775E-01-7.07275E+00-3.95120E-01 5.10729E-01 4.04926E-13 7.91534E-13
 -1      2109 5.17236E-01-6.46870E+00-3.03567E-01-1.15786E+00 2.21767E-13 8.32057E-13
 -1      2110 2.77576E+00-6.41741E+00-3.02802E-01 3.56197E+00 4.39870E-13 6.46982E-13
 -1      2111 1.11634E+00-7.38062E+00-4.30100E-01 1.99453E+00 3.35509E-13 6.93667E-13
 -1      2112 2.08757E+00-4.56296E+00-1.67886E-01 1.63381E+00 8.86374E-14 7.34635E-13
 -1      2113 1.75491E+01-3.74557E+00-4.68753E-02 6.73938E+00 7.35523E-13 6.12177E-13
 -1      2114 1.30025E+01-5.57944E+00-3.64703E-01 5.89428E+00 7.07212E-13 5.86975E-13
 -1      2115 2.66962E+01-1.58906E+00 1.02991E-01 5.77909E+00 7.28639E-13 4.55580E-13
 -1      2116 2.16055E+01-3.35529E+00-2.23960E-01 5.65556E+00 7.26474E-13 5.11591E-13
 -1      2117 1.98735E+01 3.82890E+00-2.92552E-02-6.98160E-01-1.63187E-13-5.95725E-13
 -1      2118 2.04176E+01 3.79241E+00-2.32159E-02-1.01215E+00-2.24066E-13-5.45567E-13
 -1      2119 2.09966E+01 2.99764E+00-1.79247E-02-1.04446E+00-2.52574E-13-4.70211E-13
 -1      2120 1.98617E+01 3.33681E+00-1.40702E-02-4.84388E-01-1.44843E-13-5.78121E-13
 -1      2121 3.94585E+01 5.10362E+00 3.24999E-01 1.65984E+00 8.86458E-13-1.77081E-13
 -1      2122 3.62827E+01 3.89360E+00 1.44130E-01 2.53554E+00 8.72802E-13 8.68194E-14
 -1      2123 3.93283E+01 7.22658E+00 1.59573E-01-2.22798E-01 1.00497E-12-3.84762E-13
 -1      2124 4.02146E+01 6.59714E+00 4.01298E-01 9.63819E-01 9.25593E-13-2.06668E-13
 -1      2125 3.58337E+01 6.19437E+00 3.07289E-01-6.43923E-01 9.67670E-13-2.68147E-13
 -1      2126 4.03473E+01 6.48986E+00 4.15625E-01-1.26322E+00 8.85125E-13-7.07934E-13
 -1      2127 4.00293E+01 7.21092E+00 2.50947E-01-8.85959E-02 9.36695E-13-4.89928E-13
 -1      2128 3.59636E+01 3.66127E+00 1.29626E-01-2.64719E+00 8.67376E-13-8.52540E-13
 -1      2129 3.91677E+01 4.95491E+00 3.46930E-01-1.91672E+00 8.43381E-13-7.03049E-13
 -1      2130 2.95686E+01-1.37135E-01-5.89225E-02-4.26039E+00 8.33333E-13-9.06497E-13
 -1      2131 3.40788E+01 1.61585E+00 2.31986E-01-3.85633E+00 8.43325E-13-8.51319E-13
 -1      2132 2.10848E+01-3.27426E+00-2.29448E-01-5.80476E+00 7.86482E-13-1.01502E-12
 -1      2133 2.62424E+01-1.45792E+00 8.12949E-02-6.05761E+00 8.60256E-13-1.02091E-12
 -1      2134 1.18067E+01-5.49979E+00-4.04640E-01-5.80914E+00 6.06848E-13-1.16328E-12
 -1      2135 1.65864E+01-3.75969E+00-8.50687E-02-6.81741E+00 7.81264E-13-1.22283E-12
 -1      2136 5.17706E+00-6.56824E+00-4.31502E-01-4.49233E+00 3.24185E-13-1.02329E-12
 -1      2137 8.39173E+00-5.28740E+00-2.10061E-01-5.78462E+00 5.45897E-13-1.14905E-12
 -1      2138 8.25901E-01-7.04779E+00-4.65111E-01-1.72833E+00 4.20775E-14-9.57900E-13
 -1      2139 2.29188E+00-6.34891E+00-3.61577E-01-3.17440E+00 3.43947E-13-1.02818E-12
 -1      2140 4.97159E-01-6.39175E+00-3.72134E-01 1.54510E+00-2.62956E-13-9.32254E-13
 -1      2141 1.49268E-01-6.89854E+00-4.45386E-01-4.68579E-03 3.29597E-14-9.57123E-13
 -1      2142 4.40517E+00-5.70349E+00-2.93633E-01 4.76079E+00-5.23581E-13-8.87984E-13
 -1      2143 2.21970E+00-6.48740E+00-4.00865E-01 3.40115E+00-2.59293E-13-8.83515E-13
 -1      2144 1.12033E+01-4.56827E+00-2.09373E-01 6.66625E+00-6.17062E-13-8.47308E-13
 -1      2145 7.12095E+00-6.09673E+00-4.58448E-01 5.37392E+00-5.49893E-13-8.63920E-13
 -1      2146 7.75164E+00-4.75093E+00-1.17242E-01 6.13164E+00-1.08913E-13-8.38912E-13
 -1      2147 2.07095E+01-2.06967E+00 6.77278E-02 7.07796E+00-8.78631E-13-8.88789E-13
 -1      2148 1.63712E+01-3.97925E+00-1.40849E-01 6.56511E+00-7.30527E-13-8.18373E-13
 -1      2149 2.91056E+01 3.02504E-01 8.66122E-02 5.61120E+00-9.30672E-13-6.51257E-13
 -1      2150 2.40262E+01-1.20215E+00-1.24730E-01 5.91104E+00-9.44855E-13-8.16847E-13
 -1      2151 2.43214E+01-3.34846E+00 3.33817E-02 5.42092E+00-4.99545E-13-4.74232E-13
 -1      2152 3.51622E+01 3.40832E+00 1.21854E-01 2.33416E+00-9.33267E-13-3.65874E-13
 -1      2153 3.20092E+01 1.84823E+00 4.92007E-02 3.33451E+00-9.20708E-13-5.00600E-13
 -1      2154 3.94556E+01 6.74584E+00 3.35435E-01 9.37512E-01-9.57401E-13-3.69593E-13
 -1      2155 3.67774E+01 5.80636E+00 9.27134E-02 1.61422E+00-1.01796E-12-4.37428E-13
 -1      2156 4.00921E+01 7.22996E+00 3.18895E-01-6.36739E-01-8.13849E-13-1.50477E-13
 -1      2157 3.92494E+01 7.33680E+00 1.85064E-01 4.82334E-01-9.08051E-13-3.74090E-13
 -1      2158 3.75846E+01 5.84136E+00 1.82275E-01-2.13442E+00-6.72462E-13 9.80882E-14
 -1      2159 4.00993E+01 6.54090E+00 3.39663E-01-1.12425E+00-7.04103E-13-7.99916E-14
 -1      2160 3.56536E+01 7.88773E+00 3.06077E-01 1.31106E-01-8.20510E-13-3.56271E-13
 -1      2161 3.22302E+01 2.37251E+00 4.53329E-02-4.22123E+00-4.53762E-13 2.85549E-13
 -1      2162 3.62841E+01 3.86561E+00 2.87765E-01-3.38230E+00-5.26398E-13 1.95233E-13
 -1      2163 2.49449E+01-1.55759E+00-1.03166E-01-5.37249E+00-2.48024E-13 3.56770E-13
 -1      2164 2.98853E+01 5.82666E-01 2.22638E-01-5.55758E+00-3.69899E-13 3.52385E-13
 -1      2165 1.50334E+01-4.49732E+00-3.07253E-01-6.30141E+00-9.12603E-14 5.40845E-13
 -1      2166 2.02331E+01-2.66279E+00-1.90634E-02-7.03275E+00-1.89737E-13 5.26246E-13
 -1      2167 7.03180E+00-6.61292E+00-4.43315E-01-5.30080E+00-1.03251E-14 5.97744E-13
 -1      2168 1.08677E+01-4.77487E+00-1.70702E-01-6.57409E+00-1.33449E-13 7.49692E-13
 -1      2169 1.89045E+00-6.98549E+00-3.83357E-01-3.22375E+00 2.79776E-13 7.50067E-13
 -1      2170 4.04351E+00-6.40338E+00-3.18867E-01-4.60447E+00 1.30451E-14 6.64302E-13
 -1      2171 3.47198E+01 2.10325E+00 2.94407E-01 4.11027E+00 8.13911E-13 1.87184E-13
 -1      2172 2.98820E+01 2.99820E-01-4.73479E-02 4.32343E+00 8.13627E-13 3.24074E-13
 -1      2173 2.94108E+01-2.19712E+00 1.22032E-01 3.15410E+00 5.80425E-13 1.44329E-15
 -1      2174 2.32240E+01 9.74330E-01-2.64430E-02-1.13794E+00-3.64785E-13 4.04416E-14
 -1      2175 3.43069E+01 2.30973E+00 2.63731E-01 6.78073E-01 8.22287E-13-1.51323E-13
 -1      2176 2.28970E+01 1.12473E+00-2.01819E-02-1.15498E+00-3.75757E-13-1.06422E-13
 -1      2177 6.50089E+00-5.25281E+00-1.10097E-01 5.22866E+00 6.53921E-14 5.94524E-13
 -1      2178 1.40229E+01-5.82035E+00-9.31546E-02 6.61218E+00 1.65201E-13 3.65472E-13
 -1      2179 1.99995E+01-9.57438E-04-5.80864E-06 1.05101E-03 1.14540E-13 2.01680E-13
 -1      2180 2.56344E+00-4.73247E+00-1.57290E-01-2.65044E+00 1.97065E-13 8.25340E-13
 -1      2181 2.20693E+01-4.99600E+00 2.64298E-02 5.70375E+00 3.57159E-13 2.64233E-13
 -1      2182 7.51347E+00-5.54428E+00-1.77093E-01-6.05195E+00 2.32370E-13 7.14789E-13
 -1      2183 1.53185E+01-5.34733E+00-6.92073E-02-6.96686E+00 2.30482E-13 4.69069E-13
 -1      2184 2.44986E+01-3.55783E+00 7.14085E-02-5.32528E+00 3.07532E-14 2.51077E-13
 -1      2185 3.48288E+01 4.73004E+00 2.64205E-01-5.34277E-01-5.41234E-13-2.07778E-13
 -1      2186 3.56305E+01 7.79649E+00 2.59328E-01-1.15272E-01-9.69613E-13-3.09003E-13
 -1      2187 3.06135E+01-8.01781E-02 1.91701E-01 2.50294E+00-6.94542E-13-2.12663E-13
 -1      2188 1.51906E+01-4.67617E+00-1.01810E-01 6.77549E+00-4.04898E-13-7.24171E-13
 -1      2189 1.45511E+01-4.64497E+00 1.33442E-01 7.08693E+00-3.83027E-15-5.46188E-13
 -1      2190 1.89912E+01-5.02549E+00-1.31811E-01 6.58100E+00-6.62803E-14-4.78700E-13
 -1      2191 2.71064E+00-4.32964E+00-1.74659E-01 3.10815E+00-2.71727E-14-9.94316E-13
 -1      2192 1.67134E+00-4.41623E+00-2.15784E-01-1.19714E+00 2.64511E-14-1.10190E-12
 -1      2193 5.59148E+00-4.84623E+00-1.63335E-01-4.89572E+00 7.32192E-14-1.10112E-12
 -1      2194 1.25621E+01-5.40907E+00-1.14675E-01-6.53946E+00 1.28897E-13-1.03546E-12
 -1      2195 2.11276E+01-4.74926E+00-5.31154E-03-5.98918E+00 3.37008E-13-8.17207E-13
 -1      2196 2.91021E+01-2.29821E+00 1.27338E-01-3.36159E+00 4.56940E-13-4.49807E-13
 -1      2197 3.39505E+01 1.81828E+00 2.14337E-01-7.19475E-01 6.41265E-13-3.09919E-13
 -1      2198 3.41826E+01 7.34241E+00-6.26500E-03 1.81917E-01 9.95204E-13-1.00364E-13
 -1      2199 3.76695E+01 7.48529E+00 2.61651E-01-6.83764E-02 1.01502E-12-2.78602E-13
 -1      2200 3.36849E+01 7.32305E+00-3.35248E-02-3.39975E-01 1.02152E-12-9.38138E-14
 -1      2201 3.64144E+01 5.94749E+00 3.11097E-01 2.83690E-01 8.30502E-13-2.90379E-13
 -1      2202 3.39961E+01 4.30197E+00 1.35351E-01 2.86914E-02-9.00446E-13-1.78524E-13
 -1      2203 3.11806E+01 1.24320E-01 1.83851E-01-2.33109E+00-1.55070E-13-5.07372E-14
 -1      2204 2.35623E+01 3.47082E-01-1.42317E-03-4.34247E-01 2.55621E-13 3.83282E-13
 -1      2205 2.35870E+01 6.09041E-01 2.22644E-02-1.86894E-01 3.15154E-13 4.21011E-13
 -1      2206 1.74919E+01 3.60693E+00-1.67828E-02 6.17186E-01 8.58271E-14-6.16272E-13
 -1      2207 1.80652E+01 3.46727E+00 5.19660E-03 4.77968E-01 3.04474E-14-6.22953E-13
 -1      2208 1.86459E+01 3.20233E+00-1.53992E-02 2.92581E-01-4.64689E-16-6.03926E-13
 -1      2209 1.92373E+01 3.06128E+00-2.69137E-03 6.82821E-02-5.85311E-14-5.87998E-13
 -1      2210 1.85099E+01 2.86456E+00-9.13525E-03 5.66429E-01 2.76062E-14-5.70347E-13
 -1      2211 1.59333E+01 4.30721E+00-1.19582E-02 5.72620E-01 2.13578E-13-5.94547E-13
 -1      2212 1.61649E+01 4.23052E+00 4.63108E-03 6.29778E-01 1.80112E-13-6.04394E-13
 -1      2213 1.59359E+01 4.40498E+00-4.98748E-03 2.96186E-01 2.59696E-13-5.87901E-13
 -1      2214 1.58554E+01 4.39857E+00-3.21662E-03 3.93234E-01 2.31198E-13-5.98024E-13
 -1      2215 1.58341E+01 4.12844E+00 1.00554E-02 5.43896E-01 2.11511E-13-5.82150E-13
 -1      2216 1.65677E+01 4.25615E+00 1.31236E-03 4.22280E-02 3.07604E-13-5.23500E-13
 -1      2217 1.61739E+01 4.32547E+00-1.20393E-02 1.08362E-01 2.77020E-13-5.68137E-13
 -1      2218 1.59886E+01 4.14039E+00 1.10876E-02 1.53048E-01 2.53146E-13-5.55081E-13
 -1      2219 1.77580E+01 3.88140E+00 2.44207E-03-5.75007E-02 3.69299E-13-3.94610E-13
 -1      2220 1.70982E+01 4.02390E+00-1.89370E-02-7.18028E-02 3.28964E-13-4.54347E-13
 -1      2221 1.68103E+01 3.85057E+00 5.38293E-03-1.67845E-01 3.01614E-13-4.62621E-13
 -1      2222 1.93237E+01 3.33724E+00-4.03984E-03 6.26736E-02 4.13730E-13-2.50902E-13
 -1      2223 1.85013E+01 3.55031E+00-2.22740E-02-5.15070E-02 3.74097E-13-3.36882E-13
 -1      2224 1.81799E+01 3.32817E+00-1.28191E-03-2.81329E-01 3.39007E-13-3.43708E-13
 -1      2225 2.10796E+01 2.64941E+00-1.94710E-02 3.50271E-01 4.59330E-13-3.42591E-14
 -1      2226 2.01818E+01 2.95780E+00-2.33016E-02 1.70417E-01 4.19013E-13-1.52656E-13
 -1      2227 1.98794E+01 2.67250E+00-1.13362E-03-1.66236E-01 3.76939E-13-1.77120E-13
 -1      2228 2.37638E+01-1.30797E-01-9.54885E-03-6.28017E-01 1.64482E-13 3.50335E-13
 -1      2229 2.36894E+01 1.11439E-01 2.43831E-02-6.07500E-01 2.00636E-13 3.74165E-13
 -1      2230 2.30618E+01 3.35183E-01-1.46086E-02-5.89349E-01 2.56174E-13 2.07599E-13
 -1      2231 2.26687E+01 4.80151E-01 1.70211E-02-5.82488E-01-2.79054E-13-1.35696E-13
 -1      2232 2.25255E+01 1.75475E-01-1.42461E-02-4.11192E-01-2.37219E-13-1.33594E-13
 -1      2233 3.25627E+01 2.10285E+00-1.63654E-01-1.05036E+00 7.45848E-13-3.14415E-13
 -1      2234 3.16551E+01 9.10017E-02-5.67880E-02-1.89943E-01 6.18047E-13-2.75724E-13
 -1      2235 2.26198E+01-5.34129E-02 2.02064E-02-3.59336E-01-2.10207E-13-1.02552E-13
 -1      2236 2.25201E+01-2.60958E-01-1.26762E-02-3.82685E-01-1.83726E-13-1.21127E-13
 -1      2237 2.24452E+01 1.15300E-01-4.17572E-03-4.02011E-01-2.28067E-13-1.76698E-13
 -1      2238 2.26269E+01-4.07032E-01 1.34916E-02-4.84907E-01-1.61375E-13-7.49598E-14
 -1      2239 2.25356E+01-5.24701E-01-1.26417E-02-6.28706E-01-1.48503E-13-9.76370E-14
 -1      2240 2.25923E+01-4.15582E-01-6.31484E-03-4.27470E-01-1.75139E-13-1.44596E-13
 -1      2241 2.26274E+01-5.77100E-01 4.81366E-03-8.40605E-01-1.41966E-13-6.59765E-14
 -1      2242 2.25083E+01-5.70912E-01-8.11183E-03-1.03375E+00-1.33783E-13-5.89459E-14
 -1      2243 2.27722E+01-7.03075E-01-1.48988E-03-7.38299E-01-1.52806E-13-8.77593E-14
 -1      2244 2.25204E+01-4.87209E-01-5.09647E-03-1.26958E+00-1.36745E-13-6.04743E-14
 -1      2245 2.23565E+01-3.16645E-01 3.09710E-03-1.41301E+00-1.43408E-13-7.39170E-14
 -1      2246 2.28865E+01-6.74097E-01 5.70379E-03-1.20842E+00-1.53267E-13-7.39700E-14
 -1      2247 2.22353E+01-7.75221E-02-1.41509E-02-1.53503E+00-1.63743E-13-9.10734E-14
 -1      2248 2.20463E+01 2.36593E-01 1.63327E-02-1.51445E+00-1.60012E-13-1.18735E-13
 -1      2249 2.28168E+01-2.38024E-01 1.11306E-02-1.60876E+00-1.62225E-13-4.38798E-14
 -1      2250 2.18207E+01 5.61980E-01-1.64053E-02-1.38084E+00-1.38932E-13-1.66229E-13
 -1      2251 2.16632E+01 8.89323E-01 2.16717E-02-1.12916E+00-1.50131E-13-1.74097E-13
 -1      2252 2.25218E+01 5.32228E-01 5.76847E-03-1.63012E+00-1.89908E-13-1.50548E-13
 -1      2253 2.14665E+01 1.14107E+00-6.67799E-03-7.08338E-01-2.04232E-13-2.01611E-13
 -1      2254 2.14023E+01 1.29688E+00 1.27408E-02-2.74640E-01-2.35668E-13-2.35428E-13
 -1      2255 2.21440E+01 1.31616E+00-8.68880E-03-1.06078E+00-1.95719E-13-2.16248E-13
 -1      2256 2.13847E+01 1.31357E+00 9.97360E-03 2.89787E-01-2.56917E-13-2.75404E-13
 -1      2257 2.14452E+01 1.19050E+00-4.88629E-03 7.34553E-01-2.25807E-13-2.85490E-13
 -1      2258 2.19463E+01 1.68068E+00-1.85302E-02-1.12183E-03-2.78002E-13-2.62613E-13
 -1      2259 2.16163E+01 9.58820E-01 2.05289E-02 1.18438E+00-2.14904E-13-3.26200E-13
 -1      2260 2.17748E+01 6.35649E-01-1.65732E-02 1.46021E+00-1.75978E-13-3.74096E-13
 -1      2261 2.20875E+01 1.38818E+00-1.14838E-02 1.08874E+00-2.55419E-13-2.72559E-13
 -1      2262 2.19959E+01 2.98418E-01 1.73274E-02 1.62051E+00-1.39765E-13-3.81537E-13
 -1      2263 2.21842E+01-4.20127E-02-1.68865E-02 1.65392E+00-3.56009E-14-3.81828E-13
 -1      2264 2.24420E+01 6.14096E-01 4.75378E-03 1.72161E+00-1.70225E-13-3.37263E-13
 -1      2265 2.23058E+01-3.16534E-01 4.55965E-03 1.53042E+00-3.08672E-15-3.95146E-13
 -1      2266 2.24572E+01-5.33467E-01-9.99225E-03 1.37042E+00-2.94730E-15-3.96903E-13
 -1      2267 2.27327E+01-2.20918E-01 1.31224E-02 1.72539E+00-3.25894E-14-3.75556E-13
 -1      2268 2.24278E+01-6.64471E-01-7.59285E-03 1.08910E+00-2.31928E-14-3.92871E-13
 -1      2269 2.25063E+01-7.26677E-01-2.32130E-03 8.40034E-01 2.13544E-15-3.76401E-13
 -1      2270 2.27813E+01-7.71955E-01 1.06200E-02 1.26872E+00-9.52710E-15-3.64866E-13
 -1      2271 2.23643E+01-7.29556E-01-1.35336E-02 5.33745E-01-1.18950E-14-3.57495E-13
 -1      2272 2.23665E+01-6.81931E-01 2.48063E-03 2.85806E-01-5.32473E-15-3.34525E-13
 -1      2273 2.25912E+01-9.47663E-01 3.78819E-03 6.41372E-01 2.85971E-14-2.97591E-13
 -1      2274 2.21750E+01-6.11474E-01-1.36599E-02 3.41246E-02-4.57464E-14-3.48947E-13
 -1      2275 2.21170E+01-5.15061E-01 4.40035E-03-1.62012E-01-1.86888E-14-3.10649E-13
 -1      2276 2.22633E+01-8.46413E-01-1.33677E-03 6.24234E-02-3.14040E-14-2.68324E-13
 -1      2277 2.19231E+01-4.22049E-01-1.06791E-02-3.32365E-01 1.87209E-14-3.43028E-13
 -1      2278 2.18258E+01-3.21562E-01 4.36792E-03-4.61370E-01 5.13120E-14-2.96465E-13
 -1      2279 2.18972E+01-6.16332E-01-3.56388E-03-3.66909E-01-3.47168E-14-2.20193E-13
 -1      2280 2.16533E+01-2.36602E-01-6.90020E-03-5.55109E-01-2.33103E-14-3.39770E-13
 -1      2281 2.15356E+01-1.54428E-01 3.49635E-03-6.22706E-01-2.28541E-14-3.87661E-13
 -1      2282 2.15529E+01-3.69395E-01-3.87179E-03-6.30937E-01-2.78601E-14-2.91032E-13
 -1      2283 2.13913E+01-8.99507E-02-3.51890E-03-6.57089E-01-4.81332E-15-3.78431E-13
 -1      2284 2.12671E+01-3.23653E-02 2.49006E-03-6.77687E-01 5.37417E-15-3.95339E-13
 -1      2285 2.12544E+01-1.63768E-01-3.35823E-03-7.55596E-01-4.68002E-14-3.32523E-13
 -1      2286 2.11496E+01 1.02879E-02-9.61715E-04-6.71712E-01 5.40202E-14-3.77577E-13
 -1      2287 2.10288E+01 4.54316E-02 1.65293E-03-6.60847E-01 8.64418E-14-3.86617E-13
 -1      2288 2.10052E+01-1.73131E-02-2.68245E-03-7.79044E-01 3.23718E-14-3.03856E-13
 -1      2289 2.09340E+01 6.99111E-02 7.45443E-04-6.30659E-01 4.57270E-14-3.61638E-13
 -1      2290 2.08226E+01 8.78188E-02 1.05482E-03-6.01485E-01 5.21711E-14-2.76467E-13
 -1      2291 2.08001E+01 7.38067E-02-2.11133E-03-7.37269E-01 8.46585E-14-3.36904E-13
 -1      2292 2.07462E+01 9.90809E-02 1.74236E-03-5.59142E-01 5.96685E-15-3.23958E-13
 -1      2293 2.06476E+01 1.05172E-01 6.64162E-04-5.21405E-01-9.99933E-15-3.63645E-13
 -1      2294 2.06320E+01 1.21729E-01-1.69653E-03-6.58900E-01 2.49215E-14-3.40383E-13
 -1      2295 2.05862E+01 1.07743E-01 2.21145E-03-4.75129E-01-2.79415E-15-3.71792E-13
 -1      2296 2.05017E+01 1.06497E-01 4.23235E-04-4.35369E-01-1.92516E-14-4.53133E-13
 -1      2297 2.04947E+01 1.39602E-01-1.40749E-03-5.64503E-01-3.21210E-14-3.80936E-13
 -1      2298 2.04524E+01 1.03893E-01 2.32235E-03-3.90310E-01-1.27723E-14-4.98658E-13
 -1      2299 2.03820E+01 9.85963E-02 2.79777E-04-3.52505E-01-2.70860E-14-4.64269E-13
 -1      2300 2.03828E+01 1.38520E-01-1.19861E-03-4.67675E-01-6.38266E-14-3.95805E-13
 -1      2301 2.03427E+01 9.32991E-02 2.21163E-03-3.11563E-01-3.42609E-14-4.13992E-13
 -1      2302 2.02855E+01 8.61713E-02 1.95505E-04-2.77838E-01 8.15694E-15-3.46817E-13
 -1      2303 2.02923E+01 1.26737E-01-1.03426E-03-3.76631E-01-1.31036E-14-3.88944E-13
 -1      2304 2.02544E+01 7.98060E-02 1.97974E-03-2.42367E-01 6.89806E-14-3.34925E-13
 -1      2305 2.02090E+01 7.22433E-02 1.45349E-04-2.13605E-01 1.68062E-13-2.63118E-13
 -1      2306 2.02198E+01 1.09902E-01-8.93151E-04-2.95733E-01 5.67273E-14-4.78727E-13
 -1      2307 2.01846E+01 6.58029E-02 1.69553E-03-1.83964E-01 1.24238E-13-3.46422E-13
 -1      2308 2.01493E+01 5.86144E-02 1.14076E-04-1.60271E-01 4.84764E-14-3.77871E-13
 -1      2309 2.01624E+01 9.16135E-02-7.65224E-04-2.26744E-01 1.15103E-13-3.43030E-13
 -1      2310 2.01305E+01 5.26532E-02 1.40305E-03-1.36221E-01 7.41917E-14-3.04677E-13
 -1      2311 2.01037E+01 4.62545E-02 9.29769E-05-1.17257E-01 4.99742E-14-3.01192E-13
 -1      2312 2.01175E+01 7.39955E-02-6.47144E-04-1.69783E-01 7.94989E-14-3.11000E-13
 -1      2313 2.00893E+01 4.10392E-02 1.12823E-03-9.82350E-02-1.06521E-14-2.95450E-13
 -1      2314 2.00694E+01 3.55952E-02 7.73408E-05-8.34373E-02-3.33613E-14-2.40276E-13
 -1      2315 2.00830E+01 5.81680E-02-5.38811E-04-1.24019E-01 3.21523E-14-1.29131E-13
 -1      2316 2.00587E+01 3.12126E-02 8.84521E-04-6.87427E-02-7.81366E-14-2.78831E-13
 -1      2317 2.00442E+01 2.67373E-02 6.47673E-05-5.74683E-02-7.05608E-14-1.27704E-13
 -1      2318 2.00569E+01 4.46058E-02-4.41167E-04-8.81327E-02-2.37560E-14-1.50764E-13
 -1      2319 2.00364E+01 2.31691E-02 6.77157E-04-4.63727E-02-1.17755E-13-1.55743E-13
 -1      2320 2.00261E+01 1.95928E-02 5.41121E-05-3.79842E-02-4.37242E-14-9.36887E-14
 -1      2321 2.00375E+01 3.33904E-02-3.55070E-04-6.06290E-02-1.23119E-13-1.01134E-15
 -1      2322 2.00205E+01 1.67642E-02 5.06337E-04-2.97996E-02 1.40478E-14-1.49199E-13
 -1      2323 2.00135E+01 1.39770E-02 4.48694E-05-2.37120E-02 8.40178E-14-1.21552E-13
 -1      2324 2.00233E+01 2.43802E-02-2.80859E-04-4.00221E-02-5.13313E-14 2.36831E-14
 -1      2325 2.00096E+01 1.17879E-02 3.69385E-04-1.78248E-02 1.33038E-13-9.64230E-14
 -1      2326 2.00050E+01 9.66621E-03 3.68279E-05-1.35281E-02 7.62029E-14-1.11920E-13
 -1      2327 2.00133E+01 1.73224E-02-2.18279E-04-2.49435E-02 1.16462E-13-5.29500E-14
 -1      2328 2.00024E+01 8.01077E-03 2.62204E-04-9.41338E-03 2.48541E-14-5.99890E-14
 -1      2329 1.99996E+01 6.43320E-03 2.98911E-05-6.47907E-03 7.35264E-14-1.47847E-13
 -1      2330 2.00064E+01 1.19226E-02-1.66592E-04-1.41935E-02 9.39264E-14 3.96029E-14
 -1      2331 1.99979E+01 5.21036E-03 1.80207E-04-3.70175E-03 1.24390E-13-1.24710E-13
 -1      2332 1.99963E+01 4.06615E-03 2.39900E-05-1.78012E-03 1.20829E-13-3.12585E-14
 -1      2333 2.00018E+01 7.88608E-03-1.24731E-04-6.75793E-03 1.13916E-13 1.83002E-13
 -1      2334 1.99953E+01 3.18534E-03 1.18876E-04 1.08892E-05 3.68463E-14-1.21446E-13
 -1      2335 1.99946E+01 2.37822E-03 1.90456E-05 1.19790E-03-2.80547E-14-3.98649E-14
 -1      2336 1.99989E+01 4.94105E-03-9.14607E-05-1.80476E-03 4.40867E-14 8.83615E-14
 -1      2337 1.99941E+01 1.76165E-03 7.40742E-05 2.27934E-03-5.32577E-14-1.44476E-13
 -1      2338 1.99939E+01 1.21076E-03 1.49558E-05 2.94777E-03-1.71028E-13-6.63025E-14
 -1      2339 1.99972E+01 2.84914E-03-6.54947E-05 1.33197E-03-1.10884E-13-4.36396E-14
 -1      2340 1.99937E+01 7.93628E-04 4.21927E-05 3.53291E-03-1.55653E-13-7.44695E-14
 -1      2341 1.99939E+01 4.32808E-04 1.15941E-05 3.84677E-03-3.64073E-14-5.82913E-14
 -1      2342 1.99964E+01 1.40883E-03-4.55907E-05 3.17307E-03-1.34883E-13 3.90837E-14
 -1      2343 1.99939E+01 1.62386E-04 2.01951E-05 4.09614E-03-6.42922E-15-2.95031E-14
 -1      2344 1.99944E+01-6.14410E-05 8.81139E-06 4.17683E-03 9.04637E-14-6.29276E-15
 -1      2345 1.99962E+01 4.54304E-04-3.06069E-05 4.11670E-03 3.25904E-16 5.86923E-14
 -1      2346 1.99945E+01-2.27354E-04 5.60271E-06 4.20815E-03 2.49541E-13 1.46164E-13
 -1      2347 1.99950E+01-3.56219E-04 6.43876E-06 4.14279E-03 3.39733E-13 1.74917E-13
 -1      2348 1.99963E+01-1.48186E-04-1.95357E-05 4.45993E-03 2.22668E-13 2.45109E-13
 -1      2349 1.99952E+01-4.51097E-04-3.55501E-06 4.03952E-03 2.10996E-13 9.01783E-14
 -1      2350 1.99958E+01-5.18143E-04 4.28975E-06 3.88801E-03 1.97758E-13 1.12700E-13
 -1      2351 1.99966E+01-5.05025E-04-1.15231E-05 4.41818E-03 2.33363E-13 2.17589E-13
 -1      2352 1.99960E+01-5.68586E-04-8.80038E-06 3.70650E-03 1.98381E-13-5.34135E-15
 -1      2353 1.99966E+01-6.00135E-04 2.17725E-06 3.50714E-03 2.09806E-13-1.02549E-13
 -1      2354 1.99971E+01-7.00424E-04-5.88741E-06 4.14177E-03 5.82260E-14 1.80748E-14
 -1      2355 1.99968E+01-6.27566E-04-1.12700E-05 3.28243E-03 1.33463E-13-2.41915E-13
 -1      2356 1.99973E+01-6.44744E-04-1.62791E-08 3.05650E-03 5.89934E-14-3.09173E-13
 -1      2357 1.99976E+01-8.01312E-04-2.10561E-06 3.72972E-03 3.56077E-14-1.47686E-13
 -1      2358 1.99976E+01-6.66355E-04-1.17379E-05 2.80695E-03 2.05959E-13-2.16349E-13
 -1      2359 1.99980E+01-6.85712E-04-2.19532E-06 2.56282E-03 4.84419E-14-1.25505E-13
 -1      2360 1.99981E+01-8.61041E-04 2.42866E-07 3.24081E-03 1.56759E-13-1.37203E-14
 -1      2361 1.99982E+01-7.15332E-04-1.09518E-05 2.29497E-03-1.55488E-13 2.44065E-14
 -1      2362 1.99986E+01-7.47250E-04-5.49568E-06 2.03173E-03-9.50374E-14 1.89280E-13
 -1      2363 1.99985E+01-9.20461E-04 1.37872E-06 2.70392E-03 1.27097E-13 1.36500E-13
 -1      2364 2.45368E+01-1.05429E+00-2.77158E-02 2.86414E-01-1.32568E-14 3.36076E-13
 -1      2365 2.44875E+01-8.48480E-01 1.52954E-02-9.81937E-02 1.10363E-14 3.47128E-13
 -1      2366 2.48570E+01-1.15764E+00-2.20174E-02 1.29074E+00 1.47053E-14 3.31716E-13
 -1      2367 2.49423E+01-1.17252E+00 4.19659E-03 8.10481E-01-4.74187E-15 3.55081E-13
 -1      2368 2.47409E+01-1.51966E+00-1.31874E-02 3.72122E-01-4.99297E-15 2.60543E-13
 -1      2369 2.48573E+01-5.55319E-01-2.99393E-03 2.20284E+00 1.39595E-13 3.91667E-13
 -1      2370 2.51063E+01-9.73328E-01-2.20571E-02 1.87409E+00 6.43075E-14 3.57562E-13
 -1      2371 2.54445E+01-1.43122E+00-9.86115E-04 1.55199E+00 3.56152E-14 3.16397E-13
 -1      2372 2.44290E+01 7.81482E-01 8.36443E-03 2.28520E+00 2.76796E-13 3.65890E-13
 -1      2373 2.47630E+01 4.32815E-02-5.44100E-02 2.43933E+00 1.96999E-13 4.06850E-13
 -1      2374 2.57052E+01-3.20360E-01-4.89273E-03 2.51105E+00 1.70263E-13 3.33728E-13
 -1      2375 2.39004E+01 2.04080E+00-9.76389E-03 1.03678E+00 3.18218E-13 2.37855E-13
 -1      2376 2.41117E+01 1.50314E+00-6.39198E-02 1.76500E+00 3.37938E-13 3.13120E-13
 -1      2377 2.53846E+01 1.55642E+00-3.92532E-02 2.31347E+00 3.37355E-13 3.47271E-13
 -1      2378 2.38712E+01 2.06793E+00-5.12235E-02-9.83450E-01 3.66561E-13 7.37353E-14
 -1      2379 2.37908E+01 2.25207E+00-2.94248E-02-9.14705E-02 3.34850E-13 1.19141E-13
 -1      2380 2.49907E+01 2.90329E+00-6.66667E-02 5.54382E-01 4.42188E-13 1.53978E-13
 -1      2381 2.44425E+01 8.46247E-01-6.85961E-02-2.39186E+00 2.80831E-13-1.48149E-13
 -1      2382 2.41285E+01 1.56229E+00-6.98860E-04-1.90434E+00 3.54203E-13-5.20235E-14
 -1      2383 2.51109E+01 2.39442E+00-6.38264E-02-1.65363E+00 4.58224E-13-9.09238E-14
 -1      2384 2.50380E+01-5.55310E-01-4.30421E-02-2.41531E+00 2.01911E-13-2.71424E-13
 -1      2385 2.47232E+01 9.62451E-02 7.87026E-03-2.52698E+00 2.32925E-13-2.24248E-13
 -1      2386 2.56230E+01 6.74826E-01-7.86168E-03-2.76315E+00 3.29597E-13-3.22135E-13
 -1      2387 2.51245E+01-1.20070E+00-8.27961E-03-1.46984E+00 1.03906E-13-3.17080E-13
 -1      2388 2.49647E+01-9.73842E-01-7.00389E-03-1.91442E+00 1.48517E-13-2.73251E-13
 -1      2389 2.56502E+01-1.06084E+00 1.63748E-03-2.32812E+00 1.88089E-13-3.74072E-13
 -1      2390 2.47450E+01-1.16230E+00 6.48882E-03-3.34753E-01 5.10273E-14-2.35926E-13
 -1      2391 2.47530E+01-1.25194E+00-2.88480E-02-8.23790E-01 7.19641E-14-2.36950E-13
 -1      2392 2.50952E+01-1.68822E+00-1.69245E-02-1.03953E+00 3.83825E-14-3.27297E-13
 -1      2393 2.41209E+01-7.90530E-01 9.00783E-03 5.43030E-01 1.01958E-13-2.15463E-13
 -1      2394 2.42766E+01-9.99449E-01-2.93371E-02 1.82485E-01 7.33589E-14-1.87646E-13
 -1      2395 2.42675E+01-1.50244E+00-1.74845E-02 1.70149E-01 3.33067E-14-2.26045E-13
 -1      2396 2.34626E+01-3.96541E-01 6.39682E-03 1.04290E+00 1.30459E-13-2.18372E-13
 -1      2397 2.37066E+01-5.88072E-01-1.94673E-02 8.42401E-01 1.43198E-13-1.69102E-13
 -1      2398 2.34215E+01-9.67544E-01-1.70798E-02 9.65835E-01 1.08753E-13-1.91397E-13
 -1      2399 2.28582E+01-1.07189E-01 3.54668E-03 1.23537E+00 6.22900E-14-1.50394E-13
 -1      2400 2.31370E+01-2.38008E-01-9.84526E-03 1.16355E+00 1.26612E-13-1.29646E-13
 -1      2401 2.27221E+01-4.52901E-01-1.25300E-02 1.36143E+00 8.94740E-14-9.79624E-14
 -1      2402 2.23298E+01 6.41858E-02 1.76035E-03 1.22904E+00-6.06342E-14-1.23350E-13
 -1      2403 2.26090E+01-8.67227E-03-2.60268E-03 1.23969E+00-9.42172E-17-1.56566E-13
 -1      2404 2.21755E+01-9.03089E-02-7.78614E-03 1.46818E+00-2.31304E-14-4.76020E-14
 -1      2405 2.18763E+01 1.46341E-01 9.17809E-04 1.11545E+00-8.71417E-14-1.38013E-13
 -1      2406 2.21357E+01 1.14428E-01 1.93389E-03 1.16975E+00-9.32958E-14-1.20113E-13
 -1      2407 2.17470E+01 1.17829E-01-4.54465E-03 1.40088E+00-1.18500E-13-2.98446E-14
 -1      2408 2.14916E+01 1.72600E-01 6.20192E-04 9.56682E-01 3.58871E-14-2.46964E-13
 -1      2409 2.17208E+01 1.65215E-01 4.31306E-03 1.02835E+00 7.20582E-15-2.00755E-13
 -1      2410 2.14027E+01 2.13425E-01-2.76606E-03 1.24534E+00 1.41325E-14-6.98760E-14
 -1      2411 2.11691E+01 1.68417E-01 5.63602E-04 7.89643E-01 1.36723E-13-3.73844E-13
 -1      2412 2.13642E+01 1.73824E-01 5.22174E-03 8.63263E-01 5.08315E-14-3.14497E-13
 -1      2413 2.11198E+01 2.39950E-01-1.93335E-03 1.05702E+00 1.15233E-13-2.90586E-13
 -1      2414 2.09027E+01 1.50077E-01 5.77607E-04 6.33698E-01 1.32729E-13-2.14952E-13
 -1      2415 2.10640E+01 1.61041E-01 5.24353E-03 7.01399E-01 1.77907E-13-2.46030E-13
 -1      2416 2.08851E+01 2.29534E-01-1.58197E-03 8.68129E-01 8.66885E-14-1.38045E-13
 -1      2417 2.06858E+01 1.26888E-01 5.88434E-04 4.97367E-01-2.86999E-13-1.02029E-13
 -1      2418 2.08162E+01 1.39391E-01 4.79590E-03 5.55885E-01-5.38983E-14-1.44793E-13
 -1      2419 2.06906E+01 2.02421E-01-1.42534E-03 6.95261E-01-2.14456E-14 3.11466E-14
 -1      2420 2.05122E+01 1.03681E-01 5.74213E-04 3.83019E-01-4.15311E-13-8.71373E-14
 -1      2421 2.06154E+01 1.15702E-01 4.14732E-03 4.31645E-01-3.81616E-13-1.24298E-13
 -1      2422 2.05309E+01 1.70074E-01-1.32020E-03 5.45420E-01-3.15805E-13-5.57575E-14
 -1      2423 2.03754E+01 8.26730E-02 5.35433E-04 2.89834E-01-1.35365E-13-5.25488E-15
 -1      2424 2.04556E+01 9.33309E-02 3.45471E-03 3.29143E-01-2.89829E-13-8.74717E-14
 -1      2425 2.04015E+01 1.38375E-01-1.21023E-03 4.20148E-01-3.19778E-13-2.18428E-13
 -1      2426 2.02693E+01 6.46654E-02 4.79893E-04 2.15540E-01 1.15986E-13 2.12349E-13
 -1      2427 2.03306E+01 7.36869E-02 2.80073E-03 2.46653E-01 3.19368E-14 1.04789E-13
 -1      2428 2.02982E+01 1.09976E-01-1.08279E-03 3.18133E-01-1.20040E-13-1.46743E-13
 -1      2429 2.01884E+01 4.97458E-02 4.16092E-04 1.57373E-01 1.18579E-13 2.16832E-13
 -1      2430 2.02344E+01 5.71563E-02 2.22281E-03 1.81568E-01 1.67893E-13 2.20985E-13
 -1      2431 2.02170E+01 8.57782E-02-9.42970E-04 2.36759E-01 7.65629E-14 3.50481E-14
 -1      2432 2.01278E+01 3.76729E-02 3.50850E-04 1.12566E-01-6.61547E-14 3.03915E-13
 -1      2433 2.01617E+01 4.36304E-02 1.73268E-03 1.31081E-01 3.46744E-14 3.32492E-13
 -1      2434 2.01543E+01 6.58108E-02-8.00390E-04 1.72985E-01 6.18667E-14 7.34683E-14
 -1      2435 2.00832E+01 2.80799E-02 2.88833E-04 7.85885E-02-3.27348E-16 2.69259E-13
 -1      2436 2.01077E+01 3.27875E-02 1.32863E-03 9.25351E-02 1.52523E-15 2.86918E-13
 -1      2437 2.01067E+01 4.97030E-02-6.63685E-04 1.23805E-01-1.77514E-14 1.81489E-13
 -1      2438 2.00511E+01 2.05746E-02 2.32793E-04 5.32353E-02 1.40003E-13 1.55718E-13
 -1      2439 2.00684E+01 2.42389E-02 1.00259E-03 6.35695E-02 1.36174E-13 2.89872E-13
 -1      2440 2.00712E+01 3.69375E-02-5.38792E-04 8.64720E-02 1.44820E-13 1.92204E-13
 -1      2441 2.00285E+01 1.47871E-02 1.84036E-04 3.46436E-02 4.57004E-14-2.78192E-14
 -1      2442 2.00404E+01 1.75985E-02 7.44081E-04 4.21642E-02 5.05268E-14 7.54782E-14
 -1      2443 2.00453E+01 2.69753E-02-4.28940E-04 5.85902E-02 7.98086E-14 1.32673E-13
 -1      2444 2.00131E+01 1.03885E-02 1.42869E-04 2.12750E-02-5.83533E-14 1.76972E-13
 -1      2445 2.00210E+01 1.25139E-02 5.42302E-04 2.66360E-02-4.10721E-14 6.26625E-14
 -1      2446 2.00268E+01 1.93127E-02-3.35231E-04 3.81292E-02-5.85471E-14 4.85698E-14
 -1      2447 2.00030E+01 7.09630E-03 1.08970E-04 1.18815E-02 3.75090E-14 2.26347E-13
 -1      2448 2.00080E+01 8.67798E-03 3.87144E-04 1.56096E-02 5.02487E-14 2.26277E-13
 -1      2449 2.00140E+01 1.35047E-02-2.57303E-04 2.34081E-02-6.50314E-14 4.03003E-13
 -1      2450 1.99968E+01 4.67358E-03 8.16612E-05 5.46576E-03 4.12991E-14 3.40849E-13
 -1      2451 1.99996E+01 5.83002E-03 2.69631E-04 7.97900E-03-2.78448E-14 2.91909E-13
 -1      2452 2.00053E+01 9.17056E-03-1.93914E-04 1.30598E-02-2.00371E-14 6.08023E-13
 -1      2453 1.99932E+01 2.92493E-03 6.00966E-05 1.24242E-03-7.16453E-15 3.64276E-13
 -1      2454 1.99947E+01 3.75332E-03 1.82047E-04 2.86801E-03 6.10865E-14 3.61760E-13
 -1      2455 1.99998E+01 5.99180E-03-1.43360E-04 5.98975E-03 1.91857E-14 4.52995E-13
 -1      2456 1.99915E+01 1.69145E-03 4.33846E-05-1.39829E-03-2.42440E-14 5.27594E-13
 -1      2457 1.99920E+01 2.27045E-03 1.17914E-04-4.07914E-04-1.17137E-14 4.25057E-13
 -1      2458 1.99965E+01 3.70644E-03-1.03781E-04 1.33459E-03-4.55068E-14 4.39408E-13
 -1      2459 1.99911E+01 8.45603E-04 3.06611E-05-2.92276E-03-6.08033E-14 2.92221E-13
 -1      2460 1.99910E+01 1.23806E-03 7.18930E-05-2.37577E-03 3.56152E-15 4.02547E-13
 -1      2461 1.99947E+01 2.10194E-03-7.33377E-05-1.57668E-03 4.10103E-14 5.38544E-13
 -1      2462 1.99914E+01 2.86154E-04 2.11266E-05-3.68185E-03-1.36308E-13 1.00285E-13
 -1      2463 1.99909E+01 5.41729E-04 3.96494E-05-3.43495E-03-2.10198E-14 1.69886E-13
 -1      2464 1.99940E+01 1.00804E-03-5.03316E-05-3.25756E-03-1.44305E-14 3.37571E-13
 -1      2465 1.99922E+01-6.64588E-05 1.40615E-05-3.93447E-03-1.17409E-13 1.25524E-13
 -1      2466 1.99916E+01 9.11274E-05 1.77163E-05-3.88282E-03-3.22161E-13 9.89489E-14
 -1      2467 1.99940E+01 2.89880E-04-3.32550E-05-4.09443E-03-1.50543E-13 1.72515E-13
 -1      2468 1.99933E+01-2.74348E-04 8.82323E-06-3.86699E-03 1.10851E-13 2.25496E-13
 -1      2469 1.99925E+01-1.84467E-04 3.35888E-06-3.93595E-03 1.42667E-13 4.65149E-14
 -1      2470 1.99944E+01-1.58424E-04-2.08152E-05-4.37217E-03-2.57919E-14-3.52676E-14
 -1      2471 1.99944E+01-3.85961E-04 4.84448E-06-3.60894E-03-4.06356E-14 4.10276E-14
 -1      2472 1.99936E+01-3.40179E-04-5.54953E-06-3.74757E-03-4.44234E-14 7.34251E-14
 -1      2473 1.99951E+01-4.19488E-04-1.19355E-05-4.29556E-03 7.99415E-14 1.07119E-13
 -1      2474 1.99955E+01-4.39436E-04 1.63346E-06-3.24537E-03 1.40512E-13 1.78197E-13
 -1      2475 1.99948E+01-4.19113E-04-1.06210E-05-3.42128E-03 9.65490E-14 1.38419E-13
 -1      2476 1.99958E+01-5.57830E-04-5.74294E-06-4.00647E-03 1.63369E-15-4.28222E-14
 -1      2477 1.99965E+01-4.65458E-04-1.19202E-06-2.82630E-03 2.13917E-13 1.63069E-13
 -1      2478 1.99959E+01-4.55525E-04-1.30594E-05-3.02193E-03 1.69580E-13 2.94253E-13
 -1      2479 1.99966E+01-6.24326E-04-1.55570E-06-3.59764E-03 7.69768E-14 1.67954E-13
 -1      2480 1.99975E+01-4.89420E-04-3.90820E-06-2.37431E-03 8.52506E-14 1.46360E-13
 -1      2481 1.99969E+01-4.77518E-04-1.37699E-05-2.58396E-03 7.80598E-14 2.33303E-13
 -1      2482 1.99974E+01-6.59723E-04 1.09958E-06-3.12359E-03 1.41184E-13 2.90812E-13
 -1      2483 1.99983E+01-5.30044E-04-5.76857E-06-1.89017E-03 1.73115E-13 2.40419E-13
 -1      2484 1.99978E+01-5.09054E-04-1.35003E-05-2.11767E-03 1.67509E-13 2.96509E-13
 -1      2485 1.99980E+01-6.95608E-04 3.26171E-06-2.61126E-03 5.13611E-14 2.57409E-13
 -1      2486 1.99989E+01-5.93036E-04-7.74664E-06-1.37075E-03 7.89186E-14 3.85001E-13
 -1      2487 1.99985E+01-5.58495E-04-1.17121E-05-1.61759E-03 1.86296E-13 2.67058E-13
 -1      2488 1.99986E+01-7.53680E-04 6.59197E-06-2.06281E-03 1.95813E-13 3.05400E-13
 -1      2489 1.99992E+01-6.12760E-04-8.28901E-06-1.06100E-03-4.57362E-14 3.95375E-13
 -1      2490 2.00003E+01-2.94563E-03 1.18003E-05-1.55124E-03 2.21511E-13-3.56432E-13
 -1      2491 2.00002E+01-2.68210E-03-1.43610E-06-1.70537E-03 2.74299E-13-7.24112E-13
 -1      2492 2.00005E+01-3.35016E-03 1.21500E-05-1.08137E-03 4.37126E-13 1.09753E-14
 -1      2493 2.00004E+01-3.15781E-03 3.03619E-06-1.31636E-03 3.14864E-13-1.93043E-13
 -1      2494 2.00005E+01-2.89278E-03-7.49591E-06-1.62939E-03 4.12937E-13-2.02469E-13
 -1      2495 1.99997E+01-1.80058E-03 8.48671E-06-1.88034E-03-9.58586E-14 1.70438E-14
 -1      2496 1.99995E+01-1.48043E-03-1.10107E-05-1.81451E-03-2.05503E-13 3.29874E-14
 -1      2497 2.00000E+01-2.41081E-03 1.03380E-05-1.83400E-03-3.74751E-14-3.64770E-13
 -1      2498 1.99998E+01-2.10857E-03-6.09925E-06-1.88204E-03-1.72467E-13 1.06160E-13
 -1      2499 1.99997E+01-1.87480E-03-4.76177E-06-2.15765E-03-9.16989E-14-7.43235E-14
 -1      2500 2.00002E+01-2.42914E-03-5.22558E-06-2.01733E-03 2.30973E-13-2.44058E-13
 -1      2501 2.00006E+01-3.58443E-03 1.14820E-05-4.88456E-04 1.21528E-13 2.81627E-13
 -1      2502 2.00006E+01-3.48352E-03 6.96863E-06-7.73136E-04 3.05749E-13 1.22697E-13
 -1      2503 2.00008E+01-3.22482E-03-9.02070E-06-1.05163E-03 4.73015E-13-8.41450E-14
 -1      2504 2.00006E+01-3.62763E-03 9.74447E-06 1.57955E-04 2.92804E-14 5.71748E-14
 -1      2505 2.00006E+01-3.62896E-03 9.81784E-06-1.43125E-04-4.76961E-14 3.27770E-13
 -1      2506 2.00009E+01-3.39605E-03-9.77462E-06-3.57689E-04 1.88519E-13 1.68506E-13
 -1      2507 2.00006E+01-3.47662E-03 6.99720E-06 7.86306E-04-2.79400E-14-3.66286E-13
 -1      2508 2.00006E+01-3.58020E-03 1.14540E-05 5.02724E-04-3.10016E-15-2.12280E-13
 -1      2509 2.00009E+01-3.39320E-03-9.73421E-06 3.74696E-04 2.40855E-14-7.48981E-14
 -1      2510 2.00004E+01-3.15353E-03 3.05504E-06 1.31794E-03 5.01437E-14-4.66501E-13
 -1      2511 2.00005E+01-3.34379E-03 1.20585E-05 1.08812E-03 3.72643E-14-5.25723E-13
 -1      2512 2.00007E+01-3.21901E-03-9.05118E-06 1.06096E-03-1.35618E-14-4.03774E-13
 -1      2513 2.00002E+01-2.67730E-03-1.49177E-06 1.70519E-03 3.59591E-13-1.23482E-13
 -1      2514 2.00003E+01-2.94096E-03 1.16920E-05 1.55188E-03 3.14951E-13-3.05434E-13
 -1      2515 2.00005E+01-2.88716E-03-7.32808E-06 1.63102E-03 1.92418E-13-2.32832E-13
 -1      2516 1.99998E+01-2.09551E-03-5.94876E-06 1.87931E-03 1.45943E-13 3.22120E-13
 -1      2517 2.00000E+01-2.40389E-03 9.95367E-06 1.83390E-03 2.94381E-13 3.56347E-13
 -1      2518 2.00002E+01-2.41929E-03-4.02088E-06 2.01860E-03 4.35530E-13-4.43639E-14
 -1      2519 1.99995E+01-1.46271E-03-9.03079E-06 1.79921E-03-7.38824E-14-1.08889E-14
 -1      2520 1.99997E+01-1.78747E-03 6.35350E-06 1.87927E-03-5.79105E-14 6.59862E-14
 -1      2521 1.99997E+01-1.85642E-03 2.09906E-07 2.15313E-03 1.19412E-13 5.05839E-14
 -1      2522 1.77350E+01-5.56400E+00 8.70886E-03 6.59486E+00 3.21410E-14 1.53360E-13
 -1      2523 1.41985E+01-5.20437E+00 7.19334E-02 6.51425E+00-9.70057E-14 2.49079E-13
 -1      2524 1.99993E+01-9.46625E-04-6.84615E-06 1.32740E-03 6.37762E-14 2.37066E-13
 -1      2525 3.50420E+00-2.61810E+00 8.02870E-02-1.70058E+00 1.57423E-13 6.97997E-13
 -1      2526 4.96966E+00-3.15291E+00 6.04785E-02-4.22843E+00 2.25042E-13 7.38909E-13
 -1      2527 2.41182E+01-6.19236E-01-2.08057E-02-3.90302E-01 7.88388E-14 3.22153E-13
 -1      2528 2.40136E+01-3.64699E-01 1.97613E-02-5.80235E-01 1.06940E-13 3.46468E-13
 -1      2529 2.39795E+01-1.00903E+00-1.94801E-02-4.45900E-01 4.05114E-14 2.18705E-13
 -1      2530 4.29316E+00-2.86097E+00 7.36817E-02 2.86646E+00-2.98789E-14 6.38600E-13
 -1      2531 3.49147E+00-2.45722E+00 9.95220E-02 8.51765E-01-1.99146E-14 6.64580E-13
 -1      2532 7.83088E+00-4.09678E+00 6.58775E-02-5.85021E+00 3.79252E-13 6.19310E-13
 -1      2533 1.10288E+01-4.63474E+00 2.81265E-02-6.96061E+00 3.02092E-13 5.12534E-13
 -1      2534 2.24592E+01 1.69443E+00-1.26342E-02-1.24724E+00-3.41456E-13-2.56708E-13
 -1      2535 2.24977E+01 8.75537E-01-1.54199E-02-7.55764E-01-3.18185E-13-1.91727E-13
 -1      2536 2.22667E+01 9.24020E-01 5.55813E-03-6.69538E-01-2.75208E-13-2.39739E-13
 -1      2537 2.18568E+01 2.08666E+00-4.93857E-03-1.09813E+00-3.05786E-13-3.48577E-13
 -1      2538 2.44853E+01-5.17437E+00-7.61769E-02 4.63857E+00 1.76054E-13 6.86950E-15
 -1      2539 2.09035E+01-5.65300E+00 1.49611E-03 5.54209E+00 1.12077E-13 9.33836E-14
 -1      2540 2.08073E+01-5.52430E+00 9.00947E-02 5.51059E+00-1.20071E-13 5.08118E-14
 -1      2541 3.22771E+01 7.51739E+00-1.41940E-01-2.96834E-01-8.69249E-13-2.79794E-13
 -1      2542 3.22974E+01 6.80579E+00-1.15537E-01-7.34551E-01-9.25315E-13-1.69864E-13
 -1      2543 4.97391E+00-2.62086E+00 4.10137E-02 4.32944E+00 7.96585E-14-8.68750E-13
 -1      2544 3.32033E+00-2.37534E+00 6.93342E-02 2.05813E+00 1.17274E-13-9.65894E-13
 -1      2545 1.65139E+01 4.00738E+00-1.62959E-02 7.10758E-01 1.62044E-13-6.07787E-13
 -1      2546 1.69737E+01 3.88492E+00 7.81104E-03 6.77022E-01 1.21001E-13-6.12530E-13
 -1      2547 1.73052E+01 3.36554E+00-4.78088E-03 8.32006E-01 1.10092E-13-5.81599E-13
 -1      2548 1.63307E+01 3.83256E+00 3.13831E-03 8.17147E-01 1.67740E-13-5.89363E-13
 -1      2549 3.31484E+01 4.40180E+00-7.94093E-02 1.18965E+00 6.66744E-13-2.30094E-14
 -1      2550 3.35438E+01 5.87070E+00-1.38358E-01 1.02382E+00 8.06910E-13-5.51226E-14
 -1      2551 3.25847E+01 5.83272E+00-1.78384E-01-1.32880E+00 9.31311E-13-1.61607E-13
 -1      2552 3.27053E+01 4.47027E+00-6.91311E-02-1.53528E+00 8.68139E-13-2.27152E-13
 -1      2553 3.21042E+01 5.01428E+00-1.09455E-01-9.72721E-01-8.64309E-13-8.09075E-14
 -1      2554 3.08968E+01 2.69235E+00-1.10290E-01-8.24677E-01-7.40269E-13 2.83107E-15
 -1      2555 3.14694E+01-3.85480E-02-4.06583E-02 1.57527E-01 4.14391E-13-2.79776E-14
 -1      2556 3.27555E+01 1.99226E+00-1.38961E-01 7.68743E-01 5.46507E-13-2.81719E-14
 -1      2557 2.72788E+01-3.90522E+00 1.06631E-02-2.99162E+00 1.81896E-13-1.92180E-13
 -1      2558 2.98047E+01-2.53723E+00-1.38038E-01-1.62128E+00 2.86424E-13-4.01623E-14
 -1      2559 1.98078E+01-5.34602E+00 7.27732E-04-5.88235E+00 1.28231E-14-6.05932E-13
 -1      2560 2.39116E+01-4.90555E+00-7.44664E-02-5.08370E+00 1.04972E-13-3.76976E-13
 -1      2561 1.26795E+01-4.57110E+00 6.64696E-02-6.44287E+00-1.02196E-13-8.38815E-13
 -1      2562 1.62923E+01-5.04141E+00 1.25287E-03-6.78537E+00-1.68754E-14-8.09880E-13
 -1      2563 5.72853E+00-3.01030E+00 7.01173E-02-4.13564E+00-6.56142E-14-1.03867E-12
 -1      2564 8.52619E+00-3.45391E+00 3.16176E-02-5.78232E+00-3.42504E-14-9.59233E-13
 -1      2565 2.86693E+00-2.28148E+00 5.65447E-02-1.98336E-01 1.69136E-15-1.01452E-12
 -1      2566 3.63525E+00-2.53457E+00 4.67571E-02-2.43664E+00 3.34177E-14-1.04294E-12
 -1      2567 1.07894E+01-3.84455E+00 4.66755E-02 6.91404E+00 5.71210E-14-6.82732E-13
 -1      2568 7.97805E+00-3.37687E+00 7.90870E-02 5.84301E+00 1.25844E-13-7.46153E-13
 -1      2569 2.62949E+01-3.42734E+00-6.07603E-02 4.21529E+00-3.59601E-13-2.08666E-13
 -1      2570 2.32319E+01-4.33831E+00 7.59858E-04 5.13939E+00-2.08222E-13-2.82052E-13
 -1      2571 2.90674E+01-1.76510E+00-1.85156E-02-1.38111E+00 4.54949E-14-2.40030E-13
 -1      2572 3.07792E+01 8.70610E-02-1.31066E-01-5.28831E-01-1.50532E-13-3.93185E-13
 -1      2573 3.03082E+01-2.44460E-01-1.79684E-01 4.46281E-01-5.64826E-13 1.01030E-14
 -1      2574 2.87619E+01-1.92073E+00 9.81152E-03 2.23391E+00-4.84016E-13-1.11855E-13
 -1      2575 2.77505E+01-3.10770E+00 4.06242E-02 2.16193E+00-2.36089E-13-5.74540E-15
 -1      2576 3.26152E+01 6.77776E+00-9.75931E-02 7.50248E-01-7.22256E-13-4.22051E-13
 -1      2577 3.24254E+01 7.45599E+00-1.58052E-01 3.78722E-01-7.85427E-13-3.87260E-13
 -1      2578 3.14843E+01 2.64792E+00-9.84941E-02 4.90406E-01-3.23630E-13-4.16611E-13
 -1      2579 3.22344E+01 4.82135E+00-1.56426E-01 9.19561E-01-5.44065E-13-5.00822E-13
 -1      2580 2.98721E+01 9.01155E-01-4.55374E-02 1.13829E+00-1.28897E-13-5.92526E-13
 -1      2581 2.27490E+01-4.87352E+00 4.97896E-02-5.26531E+00 2.48634E-13 1.47771E-13
 -1      2582 2.64756E+01-3.83717E+00-1.28757E-01-3.87545E+00 1.40610E-13 1.13798E-15
 -1      2583 1.43207E+01-5.30076E+00 2.95769E-02-6.90004E+00 4.01235E-13 3.88974E-13
 -1      2584 1.81985E+01-5.24482E+00-6.54564E-02-6.91104E+00 3.16414E-13 3.03039E-13
 -1      2585 1.42893E+01-4.53114E+00 1.20728E-01-6.80630E+00 4.15612E-13 4.06453E-13
 -1      2586 9.87552E+00-4.24096E+00 3.57414E-02 6.25228E+00-1.19238E-13 3.48194E-13
 -1      2587 6.40450E+00-3.65661E+00 7.63483E-02 4.58069E+00-9.68392E-14 5.39568E-13
 -1      2588 7.48673E+00-2.19810E+00 1.71008E-01 3.87524E+00-1.78357E-13 5.09232E-13
 -1      2589 2.36283E+01 8.05758E-01-5.52435E-03 9.27573E-02 3.74888E-13 4.50270E-13
 -1      2590 2.37573E+01 1.20557E+00-4.88102E-03 5.90811E-01 4.06914E-13 5.07318E-13
 -1      2591 2.31792E+01 1.67424E+00-1.73856E-02 6.85010E-01 4.45720E-13 3.43900E-13
 -1      2592 2.30475E+01 9.42997E-01-1.40549E-02-6.91303E-02 3.75153E-13 2.65985E-13
 -1      2593 3.04385E+01-2.04303E+00-8.99317E-02 1.36844E+00 4.85348E-13-2.65954E-13
 -1      2594 2.76295E+01-3.80367E+00-1.68329E-02 2.53745E+00 3.27655E-13-1.81716E-13
 -1      2595 3.03335E+01-1.51531E+00 5.11690E-03-5.15859E-01 3.74496E-13-4.06619E-13
 -1      2596 3.01594E+01 5.38278E+00-8.82476E-02 1.53506E+00 7.34190E-13 1.91222E-13
 -1      2597 3.23595E+01 6.35593E+00-7.90264E-02 8.68814E-01 8.76188E-13 3.83860E-14
 -1      2598 3.02041E+01 6.44040E+00-2.14071E-01 5.55993E-01 8.78575E-13 1.24727E-13
 -1      2599 1.97359E+01 2.41313E+00-8.88852E-03 1.09045E-01-6.69785E-14-5.23662E-13
 -1      2600 1.98115E+01 2.83169E+00-1.54568E-02-1.83883E-01-1.03658E-13-5.53476E-13
 -1      2601 2.03892E+01 2.67249E+00-1.02657E-02-4.48750E-01-1.66704E-13-5.13937E-13
 -1      2602 2.34001E+01-3.36102E-01-1.78465E-02-7.56210E-01 1.52409E-13 1.94169E-13
 -1      2603 2.23012E+01 2.12045E+00-1.38317E-02 5.50151E-01 4.61845E-13 1.46713E-13
 -1      2604 2.66752E+01-4.73884E+00 4.18624E-02 2.72415E+00 1.21694E-13-2.73115E-13
 -1      2605 3.02269E+01 1.05809E+00-6.42505E-02-8.47969E-01-5.89875E-13 4.55191E-14
 -1      2606 2.89720E+01-3.89865E-01-3.26483E-02-6.90991E-01-4.36054E-13 1.01127E-13
 -1      2607 2.88795E+01 2.11381E+00-1.59839E-01-1.91921E+00-6.04336E-13 1.30562E-13
 -1      2608 8.29504E+00-2.66808E+00 1.61101E-01-5.03942E+00 3.67567E-13 5.55861E-13
 -1      2609 2.76552E+01-3.27402E+00 2.43390E-02-1.87117E+00 1.89085E-13-2.51382E-13
 -1      2610 1.99991E+01-8.33450E-04-3.37152E-06-1.45391E-03-4.66642E-14 1.66998E-13
 -1      2611 1.99992E+01-1.07733E-03 1.11111E-06-1.62950E-03-2.10387E-15 1.64196E-13
 -1      2612 3.03930E+01 7.17492E+00-8.51465E-02 5.19840E-02-7.81930E-13-3.08614E-13
 -1      2613 1.36834E+01-4.26125E+00 1.27526E-01 6.20241E+00-2.83912E-13 2.54657E-13
 -1      2614 3.00060E+01 5.40491E+00-9.49899E-02-1.45140E+00-7.81097E-13-3.78864E-14
 -1      2615 1.99990E+01-7.94665E-04-1.04200E-05 1.57381E-03 5.29721E-14 2.41452E-13
 -1      2616 1.99993E+01-1.17722E-03 4.93413E-06 1.74688E-03 2.31942E-14 1.07512E-13
 -1      2617 1.99993E+01-1.28658E-03-3.51857E-06 2.08457E-03-1.41023E-13 1.83947E-13
 -1      2618 1.99987E+01-7.73627E-04-1.28953E-05 1.83482E-03-4.09159E-14 1.70694E-13
 -1      2619 1.42027E+01-4.06327E+00 8.01352E-02 6.73548E+00 2.13024E-13-5.41511E-13
 -1      2620 5.40594E+00-1.44049E+00 1.80995E-01-5.69515E-01 5.20538E-14 6.20781E-13
 -1      2621 2.20041E+01 1.81480E+00 1.13902E-02 1.27419E-01 4.13817E-13 9.91967E-14
 -1      2622 4.82841E+00-1.04055E+00 1.61523E-01 9.70053E-01 1.01259E-13-9.73610E-13
 -1      2623 6.51413E+00-1.51818E+00 1.60224E-01-3.31578E+00-4.39510E-14-1.03761E-12
 -1      2624 8.08907E+00-2.04275E+00 1.57529E-01 5.05942E+00 2.29400E-13-7.96918E-13
 -1      2625 1.23418E+01-3.37992E+00 1.41773E-01-5.97416E+00-1.90320E-13-8.40356E-13
 -1      2626 1.96652E+01-5.06191E+00 1.00038E-01-5.82016E+00-2.21156E-13-5.09384E-13
 -1      2627 2.60165E+01-4.74619E+00 4.50498E-02-3.36405E+00-5.92304E-14-1.00572E-13
 -1      2628 3.01923E+01-1.72862E+00 1.05286E-02 1.98076E-01 2.06715E-13 1.51296E-13
 -1      2629 2.18078E+01-4.84957E+00 1.17398E-02 5.67688E+00-3.99403E-14-3.15276E-13
 -1      2630 2.01669E+01-4.56533E+00 1.48915E-01 6.05471E+00 1.66755E-13-2.76595E-13
 -1      2631 2.37476E+01-4.82879E+00-8.38635E-02 4.46821E+00 8.72635E-14-1.09385E-13
 -1      2632 2.12982E+01 2.27562E+00-1.36514E-02-8.43562E-01-2.52517E-13-4.24341E-13
 -1      2633 3.10542E+01 2.56801E+00-5.33642E-02-2.01326E+00 6.90559E-13-2.96985E-13
 -1      2634 3.18283E+01 6.13494E+00-1.24667E-01-1.13141E+00 9.36029E-13-1.24636E-13
 -1      2635 2.97429E+01 5.24184E+00-4.28270E-02-1.86344E+00 8.16736E-13-1.30382E-13
 -1      2636 3.00866E+01 6.26678E+00-2.42415E-01-7.30183E-01 8.93063E-13-7.50094E-15
 -1      2637 3.14353E+01 2.76578E+00-4.98964E-02 1.87479E+00 4.99739E-13 1.83686E-13
 -1      2638 3.04423E+01 5.23669E+00-6.21647E-02 1.43961E+00-5.63494E-13-5.08760E-13
 -1      2639 2.14925E+01-5.23419E+00 8.27837E-02-5.65120E+00 3.99514E-13 1.26107E-13
 -1      2640 1.99992E+01-1.19193E-03-6.39370E-06-1.98865E-03 1.65607E-14 4.99169E-14
 -1      2641 1.99989E+01-9.79735E-04 4.96063E-06 2.21403E-03-1.07694E-13 2.41435E-13
 -1      2642 1.58272E+01 3.84380E+00 9.70215E-04-2.92266E-02 2.47251E-13-5.28220E-13
 -1      2643 1.55507E+01 3.90391E+00-8.92101E-03 1.77916E-01 2.26939E-13-5.58623E-13
 -1      2644 1.54823E+01 3.89143E+00-1.18124E-02 5.35532E-01 2.23020E-13-5.75199E-13
 -1      2645 1.56274E+01 3.82770E+00 4.64964E-03 7.31926E-01 2.01726E-13-5.65194E-13
 -1      2646 1.53502E+01 3.65767E+00 2.08363E-02 3.65985E-01 2.18659E-13-5.54467E-13
 -1      2647 1.85851E+01 2.77269E+00 8.53538E-03-5.80049E-01 3.15507E-13-3.16322E-13
 -1      2648 1.77091E+01 3.04819E+00-1.97991E-02-5.93443E-01 2.97136E-13-3.65679E-13
 -1      2649 2.04275E+01 2.02796E+00 6.52973E-03-4.46826E-01 3.46165E-13-1.28267E-13
 -1      2650 1.94866E+01 2.37061E+00-1.12534E-02-5.41894E-01 3.17268E-13-2.31765E-13
 -1      2651 1.90645E+01 2.11304E+00-4.45533E-03-8.81070E-01 2.74641E-13-2.59176E-13
 -1      2652 2.24907E+01 3.56516E-01-4.59204E-03-8.17829E-01 2.23727E-13 9.20082E-14
 -1      2653 2.24097E+01 7.62773E-01 2.03229E-02-5.99650E-01 2.65525E-13 1.05774E-13
 -1      2654 6.16087E+00-2.08257E-01 1.12479E-01 2.12975E+00 1.75644E-13-8.59618E-13
 -1      2655 5.86274E+00-9.10615E-02 1.44183E-01-2.66317E-01 9.77031E-14-9.15573E-13
 -1      2656 2.94358E+01-1.00358E+00-1.98763E-01-1.64206E+00 4.19290E-13-4.49724E-13
 -1      2657 2.89852E+01-2.61525E+00-6.15242E-04-4.78513E-01 2.47309E-13-4.44533E-13
 -1      2658 1.38331E+01-3.64890E+00 1.46533E-01-6.39832E+00 4.05134E-13 2.53325E-13
 -1      2659 1.65989E+01-4.61980E+00 1.99292E-04-6.64362E+00 4.50640E-13 2.61430E-13
 -1      2660 2.29512E+01-4.99761E-01-1.07086E-02-1.00598E+00 1.12807E-13 1.05675E-13
 -1      2661 2.27506E+01-4.80820E-02 2.69228E-02-1.00137E+00 1.62644E-13 1.05741E-13
 -1      2662 2.19045E+01 2.54476E-01-1.75770E-02-1.07812E+00 1.90691E-13 6.76932E-15
 -1      2663 2.82460E+01-3.74031E-01-6.52673E-02 1.26928E+00 6.02990E-15-5.84310E-13
 -1      2664 2.84936E+01 1.53564E+00-1.92837E-01 1.83739E+00-2.21129E-13-5.74804E-13
 -1      2665 2.25334E+01-3.42775E-01 1.87926E-02-2.40263E-01-1.46906E-13-1.71152E-13
 -1      2666 2.25885E+01-6.30966E-01-1.48437E-02-3.13438E-01-1.31287E-13-1.55820E-13
 -1      2667 2.28973E+01-8.38935E-01 1.59562E-02-4.82342E-01-1.17900E-13-1.17436E-13
 -1      2668 2.29498E+01-9.81039E-01-1.49384E-02-6.83613E-01-1.22849E-13-1.16514E-13
 -1      2669 2.27370E+01-8.71440E-01-1.03960E-02-2.37096E-01-1.17352E-13-1.41058E-13
 -1      2670 2.32307E+01-1.00529E+00 4.83077E-03-9.86073E-01-1.26728E-13-7.07616E-14
 -1      2671 2.32351E+01-9.05189E-01-9.66146E-03-1.23361E+00-1.38828E-13-5.39714E-14
 -1      2672 2.33069E+01-1.20166E+00-4.14753E-03-6.96817E-01-1.10812E-13-6.95306E-14
 -1      2673 2.33769E+01-6.58137E-01-1.21876E-02-1.55715E+00-1.55831E-13-2.11819E-14
 -1      2674 2.33000E+01-2.43987E-01 5.14760E-03-1.71302E+00-1.66697E-13-2.77835E-14
 -1      2675 2.37594E+01-9.66159E-01 4.16537E-03-1.35130E+00-1.40928E-13-1.89857E-14
 -1      2676 2.31974E+01 2.85496E-01-3.17300E-02-1.83189E+00-2.12345E-13-4.44397E-14
 -1      2677 2.30724E+01 9.11908E-01 2.01197E-02-1.72339E+00-2.42988E-13-9.57598E-14
 -1      2678 2.38771E+01 1.26693E-02 1.05305E-02-1.87673E+00-2.28399E-13-8.37004E-15
 -1      2679 2.27934E+01 1.49406E+00-4.18743E-02-1.42639E+00-2.43588E-13-1.52220E-13
 -1      2680 2.26952E+01 2.00791E+00 1.18985E-02-9.96780E-01-2.42317E-13-2.03892E-13
 -1      2681 2.35917E+01 1.43787E+00 3.89989E-04-1.78180E+00-2.91641E-13-6.46167E-14
 -1      2682 2.25289E+01 2.30494E+00-1.77246E-02-3.20670E-01-2.60739E-13-2.81812E-13
 -1      2683 2.25166E+01 2.33627E+00-1.54644E-02 2.82079E-01-3.17159E-13-2.60977E-13
 -1      2684 2.32494E+01 2.61718E+00-2.07398E-02-7.75503E-01-2.94976E-13-2.13695E-13
 -1      2685 2.26262E+01 2.10387E+00 7.54337E-03 9.84427E-01-3.00031E-13-3.29529E-13
 -1      2686 2.27197E+01 1.63412E+00-3.62951E-02 1.45283E+00-2.54373E-13-3.35765E-13
 -1      2687 2.31837E+01 2.69127E+00-3.07507E-02 7.03229E-01-3.07251E-13-3.39069E-13
 -1      2688 2.29674E+01 1.03931E+00 1.75391E-02 1.79645E+00-2.16994E-13-3.09841E-13
 -1      2689 2.30882E+01 3.86332E-01-3.52185E-02 1.93210E+00-1.00335E-13-3.12356E-13
 -1      2690 2.34944E+01 1.61426E+00-7.98805E-03 1.79382E+00-2.27821E-13-3.52055E-13
 -1      2691 2.32041E+01-1.95267E-01 8.62290E-03 1.83263E+00-7.82291E-14-3.38974E-13
 -1      2692 2.32622E+01-6.87046E-01-1.86961E-02 1.66852E+00-5.07179E-14-3.45702E-13
 -1      2693 2.37686E+01 9.85395E-02 1.18211E-02 1.98186E+00-1.11083E-13-2.51011E-13
 -1      2694 2.31339E+01-1.01835E+00-5.21395E-03 1.30695E+00-1.74292E-14-3.60425E-13
 -1      2695 2.30921E+01-1.21528E+00-1.48173E-03 9.97773E-01 5.55775E-14-3.52317E-13
 -1      2696 2.36655E+01-1.05236E+00 1.41411E-02 1.43696E+00-5.12657E-14-2.97191E-13
 -1      2697 2.27916E+01-1.28216E+00-1.23973E-02 5.99469E-01 7.59275E-14-2.82752E-13
 -1      2698 2.26698E+01-1.24726E+00 7.79815E-03 2.84011E-01 6.43634E-14-2.21344E-13
 -1      2699 2.31791E+01-1.52976E+00 1.79668E-03 6.27122E-01 8.04313E-14-2.92296E-13
 -1      2700 2.23214E+01-1.14892E+00-1.22165E-02-3.02238E-02 1.62045E-14-1.65582E-13
 -1      2701 2.21610E+01-9.98126E-01 1.08113E-02-2.79083E-01-1.84618E-14-1.61343E-13
 -1      2702 2.25230E+01-1.45605E+00-6.75338E-03-9.13734E-02 7.92722E-14-2.39405E-13
 -1      2703 2.18478E+01-8.37377E-01-8.76158E-03-4.79491E-01-6.71500E-14-1.17507E-13
 -1      2704 2.16830E+01-6.61956E-01 9.83752E-03-6.42677E-01-5.82568E-14-1.33560E-13
 -1      2705 2.18851E+01-1.10718E+00-9.48305E-03-5.89627E-01-3.00074E-14-8.27669E-14
 -1      2706 2.14374E+01-5.04261E-01-5.13429E-03-7.44781E-01-6.24886E-14-1.36319E-13
 -1      2707 2.12869E+01-3.52641E-01 7.37193E-03-8.31088E-01-8.38218E-14-2.03857E-13
 -1      2708 2.13602E+01-6.98154E-01-8.70912E-03-8.70452E-01-9.81888E-14-2.85981E-14
 -1      2709 2.11089E+01-2.27217E-01-2.34901E-03-8.62388E-01-3.00621E-14-2.48509E-13
 -1      2710 2.09791E+01-1.15876E-01 4.84657E-03-8.90317E-01 3.24575E-14-1.73255E-13
 -1      2711 2.09675E+01-3.43259E-01-6.68591E-03-9.85080E-01-9.09714E-14-1.53670E-14
 -1      2712 2.08559E+01-2.90890E-02-4.62984E-04-8.75987E-01 1.16999E-16-1.77693E-13
 -1      2713 2.07467E+01 4.27328E-02 2.81906E-03-8.64520E-01 2.97054E-14-1.74644E-13
 -1      2714 2.06892E+01-8.14795E-02-4.65882E-03-9.88088E-01-6.03196E-16-5.18715E-14
 -1      2715 2.06631E+01 9.54893E-02 7.20533E-04-8.23787E-01 8.15868E-14-2.46304E-13
 -1      2716 2.05721E+01 1.35492E-01 1.39357E-03-7.88742E-01 7.22487E-14-2.24994E-13
 -1      2717 2.04970E+01 8.85094E-02-3.08040E-03-9.23223E-01 1.29466E-14-1.65111E-13
 -1      2718 2.05154E+01 1.62415E-01 1.40330E-03-7.35105E-01 1.49583E-14-2.95943E-13
 -1      2719 2.04398E+01 1.79630E-01 4.83370E-04-6.88290E-01-4.73255E-14-3.03042E-13
 -1      2720 2.03648E+01 1.84238E-01-1.99678E-03-8.21972E-01-1.86248E-14-2.93349E-13
 -1      2721 2.04010E+01 1.88841E-01 1.73816E-03-6.30708E-01-3.39229E-14-3.74205E-13
 -1      2722 2.03384E+01 1.91188E-01-4.63949E-05-5.80242E-01 2.06014E-14-3.18837E-13
 -1      2723 2.02726E+01 2.26468E-01-1.30852E-03-7.05735E-01-2.04922E-14-3.94477E-13
 -1      2724 2.03111E+01 1.89317E-01 1.83658E-03-5.24315E-01 3.06940E-14-3.14474E-13
 -1      2725 2.02596E+01 1.82871E-01-3.19218E-04-4.75349E-01 2.51187E-14-2.72607E-13
 -1      2726 2.02068E+01 2.33519E-01-8.92277E-04-5.88358E-01 3.57932E-15-2.58560E-13
 -1      2727 2.02399E+01 1.74792E-01 1.78094E-03-4.24292E-01-7.84044E-14-2.79913E-13
 -1      2728 2.01980E+01 1.63834E-01-4.30169E-04-3.79771E-01-1.21146E-13-3.01119E-13
 -1      2729 2.01585E+01 2.19543E-01-6.45959E-04-4.78236E-01 8.19969E-16-1.52941E-13
 -1      2730 2.01833E+01 1.52871E-01 1.63243E-03-3.35153E-01-5.54598E-14-3.40652E-13
 -1      2731 2.01495E+01 1.40220E-01-4.46121E-04-2.96478E-01 9.97741E-14-3.79077E-13
 -1      2732 2.01221E+01 1.94588E-01-4.98306E-04-3.79927E-01-8.56202E-14-8.22800E-14
 -1      2733 2.01384E+01 1.28494E-01 1.43567E-03-2.58781E-01 1.30697E-13-3.98059E-13
 -1      2734 2.01116E+01 1.15880E-01-4.11327E-04-2.26341E-01 9.71645E-14-4.01446E-13
 -1      2735 2.00939E+01 1.65326E-01-4.04596E-04-2.95366E-01 7.65911E-14-2.28543E-13
 -1      2736 2.01030E+01 1.04646E-01 1.22188E-03-1.95367E-01 1.11097E-13-3.73362E-13
 -1      2737 2.00819E+01 9.30395E-02-3.53582E-04-1.68929E-01 1.29860E-13-2.89741E-13
 -1      2738 2.00719E+01 1.35895E-01-3.39041E-04-2.24779E-01 9.34648E-14-4.37072E-13
 -1      2739 2.00753E+01 8.29608E-02 1.01170E-03-1.44090E-01 8.67480E-14-2.54959E-13
 -1      2740 2.00591E+01 7.28270E-02-2.89401E-04-1.23076E-01 1.45703E-14-1.45784E-13
 -1      2741 2.00546E+01 1.08649E-01-2.87925E-04-1.67342E-01 1.04923E-13-3.06421E-13
 -1      2742 2.00539E+01 6.41853E-02 8.17665E-04-1.03596E-01 1.16545E-14-1.34751E-13
 -1      2743 2.00416E+01 5.56697E-02-2.27903E-04-8.72743E-02 1.88746E-14-6.14500E-14
 -1      2744 2.00410E+01 8.47441E-02-2.44598E-04-1.21666E-01 1.42710E-14-2.32363E-13
 -1      2745 2.00376E+01 4.85102E-02 6.46346E-04-7.23193E-02-3.58920E-14-1.44955E-13
 -1      2746 2.00285E+01 4.15692E-02-1.73548E-04-5.99214E-02-9.41525E-14-1.07910E-13
 -1      2747 2.00303E+01 6.45732E-02-2.06211E-04-8.61125E-02-2.43241E-14-3.13875E-13
 -1      2748 2.00253E+01 3.58025E-02 5.00212E-04-4.86834E-02-1.83280E-13 5.63851E-14
 -1      2749 2.00187E+01 3.02901E-02-1.27993E-04-3.94761E-02-3.25189E-14-2.35552E-14
 -1      2750 2.00220E+01 4.80702E-02-1.71767E-04-5.90136E-02-6.14734E-15-2.01558E-13
 -1      2751 2.00164E+01 2.57585E-02 3.79038E-04-3.12185E-02 6.27606E-14-1.08116E-14
 -1      2752 2.00117E+01 2.14827E-02-9.12922E-05-2.45435E-02 1.20481E-13-1.27140E-13
 -1      2753 2.00156E+01 3.49171E-02-1.41042E-04-3.87960E-02-6.88892E-14-5.91481E-15
 -1      2754 2.00099E+01 1.80026E-02 2.80988E-04-1.86234E-02 8.45309E-14-1.61417E-13
 -1      2755 2.00066E+01 1.47602E-02-6.26728E-05-1.39137E-02 1.00711E-13-3.24596E-14
 -1      2756 2.00107E+01 2.46786E-02-1.14035E-04-2.40526E-02 5.82481E-14-1.72252E-13
 -1      2757 2.00053E+01 1.21474E-02 2.03386E-04-9.78850E-03 1.63219E-13-2.95534E-14
 -1      2758 2.00032E+01 9.74465E-03-4.09994E-05-6.57106E-03 9.03011E-14 3.27214E-14
 -1      2759 2.00071E+01 1.68864E-02-9.07215E-05-1.35717E-02 6.00423E-14-2.85683E-13
 -1      2760 2.00022E+01 7.82854E-03 1.43240E-04-3.79529E-03 1.01952E-14 6.92087E-14
 -1      2761 2.00009E+01 6.09123E-03-2.50518E-05-1.68604E-03-2.84884E-14-1.91382E-14
 -1      2762 2.00045E+01 1.10893E-02-7.09750E-05-6.34156E-03 2.81858E-14-3.21973E-13
 -1      2763 2.00002E+01 4.72168E-03 9.75784E-05 9.75536E-05-1.61018E-13 3.15227E-14
 -1      2764 1.99995E+01 3.49989E-03-1.36769E-05 1.40311E-03-2.98396E-13-6.65207E-14
 -1      2765 2.00026E+01 6.87925E-03-5.45577E-05-1.53823E-03-2.05714E-13-1.11387E-13
 -1      2766 1.99990E+01 2.54951E-03 6.36504E-05 2.47471E-03-1.16957E-13-2.43494E-14
 -1      2767 1.99986E+01 1.71803E-03-5.86316E-06 3.21263E-03-3.69129E-14 2.52590E-14
 -1      2768 2.00013E+01 3.90282E-03-4.11500E-05 1.49379E-03-1.36865E-13 2.41745E-14
 -1      2769 1.99983E+01 1.08158E-03 3.90289E-05 3.78724E-03-8.09201E-14 6.61216E-14
 -1      2770 1.99982E+01 5.38278E-04-7.68893E-07 4.13635E-03 7.35335E-14 1.14096E-13
 -1      2771 2.00004E+01 1.86370E-03-3.03873E-05 3.26488E-03-2.71532E-14-7.36615E-14
 -1      2772 1.99980E+01 1.30625E-04 2.16522E-05 4.37520E-03 1.38505E-13 1.04269E-13
 -1      2773 1.99981E+01-2.06327E-04 2.27984E-06 4.46756E-03 2.09164E-13 1.56832E-13
 -1      2774 1.99998E+01 5.19259E-04-2.18941E-05 4.16368E-03 3.95938E-14-7.49348E-15
 -1      2775 1.99980E+01-4.53075E-04 9.82584E-06 4.48832E-03 1.64268E-13 2.25343E-14
 -1      2776 1.99982E+01-6.48523E-04 3.80553E-06 4.41843E-03 4.93290E-14-1.04214E-13
 -1      2777 1.99995E+01-3.25604E-04-1.53094E-05 4.47910E-03 7.64885E-14-2.44317E-13
 -1      2778 1.99981E+01-7.88114E-04 2.18486E-06 4.30416E-03 8.46058E-15-7.85562E-14
 -1      2779 1.99983E+01-8.93274E-04 4.18099E-06 4.13671E-03-1.26111E-14-2.10747E-13
 -1      2780 1.99993E+01-8.25848E-04-1.03133E-05 4.41974E-03 2.11351E-15-2.43873E-13
 -1      2781 1.99983E+01-9.68366E-04-2.35159E-06 3.94316E-03 9.50313E-14-1.55154E-13
 -1      2782 1.99985E+01-1.02375E-03 3.75158E-06 3.71944E-03 1.01684E-13-7.21646E-14
 -1      2783 1.99993E+01-1.10407E-03-6.68684E-06 4.13066E-03 9.42988E-14-3.18297E-13
 -1      2784 1.99986E+01-1.06875E-03-4.82142E-06 3.48127E-03 1.20001E-13-5.54192E-14
 -1      2785 1.99988E+01-1.10561E-03 2.69480E-06 3.22410E-03 1.79046E-13 7.77523E-15
 -1      2786 1.99993E+01-1.25665E-03-4.18610E-06 3.70683E-03 8.83491E-14-1.23353E-13
 -1      2787 1.99988E+01-1.14666E-03-5.34412E-06 2.96033E-03 2.06480E-13-1.69533E-13
 -1      2788 1.99990E+01-1.18891E-03 3.74192E-07 2.67989E-03 1.76136E-13-1.20441E-13
 -1      2789 1.99993E+01-1.35911E-03-1.77282E-06 3.20500E-03 1.40264E-13-4.14467E-13
 -1      2790 2.59862E+01-1.98428E+00-1.81722E-02 1.37404E+00 2.18304E-14 2.76943E-13
 -1      2791 2.56970E+01-2.22650E+00 8.13919E-03 7.75479E-01-1.89144E-14 2.72692E-13
 -1      2792 1.72698E+01-4.18709E+00 4.73107E-02 6.61355E+00 2.48357E-13-4.03788E-13
 -1      2793 1.40347E+01-3.02375E+00 1.41281E-01 6.37555E+00 3.20854E-13-4.73746E-13
 -1      2794 2.48246E+01-2.12634E+00-2.54467E-02 9.83900E-02-2.05226E-14 1.81496E-13
 -1      2795 2.44789E+01-1.80977E+00 3.75513E-02-3.84174E-01-4.54554E-14 1.80960E-13
 -1      2796 2.51916E+01-2.71640E+00-5.10391E-02-7.25800E-02-5.65320E-14 1.70833E-13
 -1      2797 2.65249E+01 2.68122E+00-6.45910E-02 2.21704E+00 4.38982E-13 3.64882E-13
 -1      2798 2.67160E+01 1.19406E+00-1.37749E-01 2.68046E+00 3.18225E-13 3.57294E-13
 -1      2799 2.67921E+01 3.28478E+00-1.55957E-01-2.05732E+00 5.93081E-13-2.00066E-13
 -1      2800 2.66487E+01 4.31218E+00-9.65731E-02-1.09573E+00 6.39794E-13-7.22200E-14
 -1      2801 2.63875E+01-1.27890E-01-1.84169E-01-2.78889E+00 3.32762E-13-3.59416E-13
 -1      2802 2.63850E+01 1.33072E+00-4.24849E-02-2.75001E+00 4.57787E-13-3.16922E-13
 -1      2803 2.68764E+01-2.05896E+00-3.97588E-02-1.68610E+00 1.67829E-13-3.91531E-13
 -1      2804 2.71392E+01-1.07010E+00-4.16178E-02-2.29423E+00 2.59376E-13-3.93796E-13
 -1      2805 2.50741E+01-2.33529E+00 2.55171E-02-1.39580E-01-5.46774E-14-2.70208E-13
 -1      2806 2.54051E+01-2.41113E+00-5.38866E-03-7.67328E-01 1.49498E-14-3.28368E-13
 -1      2807 2.37600E+01-1.71318E+00 3.05464E-02 9.31526E-01-6.07804E-15-2.08114E-13
 -1      2808 2.41731E+01-2.08413E+00-2.20631E-02 4.62956E-01-5.60637E-14-2.46910E-13
 -1      2809 2.42962E+01-2.75297E+00-4.51637E-02 7.32286E-01-5.25502E-14-2.52959E-13
 -1      2810 2.27178E+01-9.48230E-01 2.12792E-02 1.49549E+00 9.59141E-14-1.21997E-13
 -1      2811 2.30846E+01-1.33625E+00-1.44238E-02 1.23847E+00 7.63270E-14-1.06126E-13
 -1      2812 2.28357E+01-1.87776E+00-3.61273E-02 1.55718E+00-3.61735E-14-1.65500E-13
 -1      2813 2.19874E+01-3.42207E-01 1.19435E-02 1.68395E+00 7.35474E-15 1.98811E-14
 -1      2814 2.22857E+01-6.26005E-01-5.65465E-03 1.58954E+00 7.33294E-14-7.20682E-14
 -1      2815 2.18306E+01-9.55837E-01-2.52751E-02 1.87785E+00 3.44879E-14 7.09415E-15
 -1      2816 2.14986E+01 4.14645E-02 5.45812E-03 1.64819E+00-1.30870E-13 5.58359E-14
 -1      2817 2.17349E+01-1.28157E-01-2.82740E-04 1.65798E+00-3.23377E-14 3.23252E-14
 -1      2818 2.12220E+01-2.76359E-01-1.44042E-02 1.89628E+00-6.29689E-14 5.10526E-14
 -1      2819 2.11651E+01 2.43761E-01 1.67022E-03 1.49610E+00-5.13025E-14-3.33647E-14
 -1      2820 2.13553E+01 1.60273E-01 2.56672E-03 1.56345E+00-1.10909E-13 8.73672E-15
 -1      2821 2.08699E+01 1.34420E-01-7.12420E-03 1.75924E+00-8.48043E-14 8.96503E-14
 -1      2822 2.09247E+01 3.25054E-01-2.53933E-04 1.29473E+00 8.89653E-14-1.43016E-13
 -1      2823 2.10815E+01 2.96459E-01 3.94951E-03 1.38763E+00 2.24052E-14-8.13889E-14
 -1      2824 2.06627E+01 3.41151E-01-3.08900E-03 1.55228E+00 4.76934E-14-6.67900E-14
 -1      2825 2.07399E+01 3.35759E-01-1.04943E-03 1.08342E+00 1.08304E-14-5.07336E-14
 -1      2826 2.08711E+01 3.37972E-01 4.46513E-03 1.18218E+00 7.48767E-14-7.45109E-14
 -1      2827 2.05305E+01 4.16316E-01-1.20221E-03 1.32336E+00 2.15139E-14 3.59661E-14
 -1      2828 2.05909E+01 3.10242E-01-1.24526E-03 8.83602E-01 1.24403E-13 2.05956E-14
 -1      2829 2.07009E+01 3.27508E-01 4.46715E-03 9.77227E-01 8.10378E-14 4.16214E-15
 -1      2830 2.04352E+01 4.16467E-01-4.78393E-04 1.09902E+00 5.05892E-14 1.94497E-13
 -1      2831 2.04679E+01 2.69409E-01-1.16227E-03 7.05639E-01-8.04843E-14 8.05056E-14
 -1      2832 2.05594E+01 2.92411E-01 4.16654E-03 7.88833E-01 7.61406E-14 7.94288E-14
 -1      2833 2.03589E+01 3.79052E-01-3.01271E-04 8.93261E-01 3.55003E-14 1.76246E-13
 -1      2834 2.03657E+01 2.24904E-01-9.74808E-04 5.53285E-01-3.25872E-13-3.61065E-14
 -1      2835 2.04409E+01 2.48589E-01 3.70678E-03 6.24176E-01-1.92231E-13 9.04374E-14
 -1      2836 2.02937E+01 3.26542E-01-3.32497E-04 7.12544E-01-1.32505E-13 2.20932E-13
 -1      2837 2.02814E+01 1.82635E-01-7.69393E-04 4.26538E-01-2.28071E-13-2.02106E-13
 -1      2838 2.03423E+01 2.04527E-01 3.18542E-03 4.85174E-01-2.71446E-13-1.65316E-13
 -1      2839 2.02370E+01 2.71356E-01-4.08740E-04 5.58738E-01-1.55282E-13 9.93572E-14
 -1      2840 2.02128E+01 1.45205E-01-5.83742E-04 3.23429E-01-1.62626E-13-1.59271E-13
 -1      2841 2.02613E+01 1.64288E-01 2.66462E-03 3.70832E-01-2.28397E-13-2.74889E-13
 -1      2842 2.01881E+01 2.19731E-01-4.64738E-04 4.31016E-01-2.12578E-13-1.15163E-13
 -1      2843 2.01578E+01 1.13424E-01-4.30430E-04 2.41108E-01 1.58531E-13-8.29508E-14
 -1      2844 2.01958E+01 1.29460E-01 2.18044E-03 2.78712E-01 6.49855E-14-7.24128E-14
 -1      2845 2.01464E+01 1.74353E-01-4.83603E-04 3.27100E-01-1.02720E-13-2.31075E-13
 -1      2846 2.01145E+01 8.71889E-02-3.10186E-04 1.76474E-01-6.41110E-14 5.00491E-14
 -1      2847 2.01438E+01 1.00327E-01 1.75085E-03 2.05808E-01 6.73288E-14-5.51696E-16
 -1      2848 2.01118E+01 1.35974E-01-4.68984E-04 2.44051E-01 3.31302E-14-1.03970E-13
 -1      2849 2.00810E+01 6.59830E-02-2.18926E-04 1.26525E-01 7.81886E-14 7.77356E-14
 -1      2850 2.01032E+01 7.65382E-02 1.38218E-03 1.49047E-01-7.90180E-16 1.11710E-13
 -1      2851 2.00835E+01 1.04368E-01-4.30993E-04 1.78761E-01-5.38163E-15 1.18743E-13
 -1      2852 2.00556E+01 4.91339E-02-1.51233E-04 8.85269E-02 6.37239E-14 1.71769E-13
 -1      2853 2.00721E+01 5.74757E-02 1.07374E-03 1.05545E-01 9.71641E-14 1.11231E-13
 -1      2854 2.00610E+01 7.88609E-02-3.79912E-04 1.28238E-01 4.01971E-14 4.77925E-14
 -1      2855 2.00367E+01 3.59498E-02-1.01895E-04 6.00897E-02 1.00128E-13 1.28911E-13
 -1      2856 2.00487E+01 4.24441E-02 8.20982E-04 7.27366E-02 1.63627E-13 2.12538E-13
 -1      2857 2.00435E+01 5.86212E-02-3.23920E-04 8.97585E-02 1.14652E-13 2.11642E-13
 -1      2858 2.00230E+01 2.57840E-02-6.64799E-05 3.91815E-02-1.49599E-13 1.41059E-13
 -1      2859 2.00315E+01 3.07662E-02 6.17527E-04 4.84092E-02-3.67098E-14 1.51884E-13
 -1      2860 2.00301E+01 4.28043E-02-2.68675E-04 6.09336E-02 6.70022E-14 2.18197E-13
 -1      2861 2.00132E+01 1.80616E-02-4.14366E-05 2.41120E-02-4.54091E-14 1.95496E-13
 -1      2862 2.00191E+01 2.18262E-02 4.56407E-04 3.07059E-02-1.39188E-13 1.04796E-13
 -1      2863 2.00200E+01 3.06252E-02-2.17635E-04 3.97246E-02-1.19702E-13 2.00237E-14
 -1      2864 2.00064E+01 1.22878E-02-2.40208E-05 1.35007E-02 8.51323E-15 3.88768E-13
 -1      2865 2.00104E+01 1.50863E-02 3.30785E-04 1.80970E-02-1.63387E-14 3.64439E-13
 -1      2866 2.00126E+01 2.13878E-02-1.72592E-04 2.44299E-02-1.05759E-13-4.70918E-14
 -1      2867 2.00020E+01 8.04610E-03-1.21551E-05 6.23811E-03 1.50438E-14 2.94190E-13
 -1      2868 2.00045E+01 1.00887E-02 2.34349E-04 9.34441E-03 3.89519E-14 3.45754E-13
 -1      2869 2.00074E+01 1.44937E-02-1.34192E-04 1.36562E-02 3.31888E-14 1.34074E-13
 -1      2870 1.99992E+01 4.99188E-03-4.28873E-06 1.44660E-03-5.99055E-14 2.29473E-13
 -1      2871 2.00006E+01 6.45157E-03 1.61498E-04 3.46175E-03 1.02664E-14 2.76470E-13
 -1      2872 2.00037E+01 9.43976E-03-1.02344E-04 6.28094E-03 5.16950E-14 8.77808E-14
 -1      2873 1.99975E+01 2.84435E-03 7.21481E-07-1.55771E-03-2.29084E-14 3.29666E-13
 -1      2874 1.99983E+01 3.86134E-03 1.07405E-04-3.25032E-04-2.07161E-14 3.63576E-13
 -1      2875 2.00013E+01 5.80995E-03-7.65342E-05 1.41488E-03-8.62980E-14 1.91665E-13
 -1      2876 1.99967E+01 1.37768E-03 3.70723E-06-3.29912E-03-6.92821E-15 3.69525E-13
 -1      2877 1.99970E+01 2.06424E-03 6.80034E-05-2.61390E-03 1.25152E-14 4.48177E-13
 -1      2878 1.99997E+01 3.26554E-03-5.60365E-05-1.63575E-03-7.92278E-14 4.21140E-13
 -1      2879 1.99965E+01 4.12351E-04 5.26130E-06-4.17262E-03-1.04504E-13 1.98423E-13
 -1      2880 1.99964E+01 8.57335E-04 3.99372E-05-3.85912E-03-2.17100E-14 4.12612E-13
 -1      2881 1.99988E+01 1.53432E-03-4.00544E-05-3.40315E-03-4.00052E-14 4.01364E-13
 -1      2882 1.99965E+01-1.92972E-04 5.79313E-06-4.46967E-03 1.67356E-13 6.87270E-15
 -1      2883 1.99963E+01 8.01553E-05 2.04867E-05-4.39937E-03 5.65994E-16 1.03091E-13
 -1      2884 1.99984E+01 4.00020E-04-2.78103E-05-4.28827E-03 8.08289E-14 2.53429E-13
 -1      2885 1.99969E+01-5.48897E-04 5.56970E-06-4.39973E-03 1.31962E-13-1.07202E-13
 -1      2886 1.99965E+01-3.93204E-04 7.49092E-06-4.48135E-03 1.77757E-13 1.13870E-14
 -1      2887 1.99982E+01-3.07606E-04-1.85976E-05-4.58682E-03 1.55910E-13-6.55049E-14
 -1      2888 1.99973E+01-7.41942E-04 4.77431E-06-4.10788E-03 9.22539E-15-2.18567E-13
 -1      2889 1.99969E+01-6.61171E-04-7.39831E-07-4.27932E-03 1.04822E-13-1.86647E-13
 -1      2890 1.99982E+01-7.21845E-04-1.18105E-05-4.51110E-03 2.04987E-13-2.05661E-13
 -1      2891 1.99977E+01-8.40237E-04 3.53991E-06-3.68888E-03 9.57830E-14-1.93837E-13
 -1      2892 1.99974E+01-8.00896E-04-5.45195E-06-3.91081E-03-9.30556E-15-2.35719E-13
 -1      2893 1.99984E+01-9.47036E-04-6.93590E-06-4.20789E-03 5.28598E-14-3.27158E-13
 -1      2894 1.99982E+01-8.98244E-04 1.55216E-06-3.19877E-03 4.83105E-14-3.04649E-14
 -1      2895 1.99978E+01-8.73665E-04-7.69312E-06-3.44924E-03 6.21254E-14-8.54519E-14
 -1      2896 1.99986E+01-1.06523E-03-3.56534E-06-3.77304E-03 6.87066E-14-4.61293E-13
 -1      2897 1.99986E+01-9.57907E-04-3.05076E-06-2.66307E-03 1.49938E-14-4.94469E-14
 -1      2898 1.99983E+01-9.29147E-04-9.21716E-06-2.93250E-03 6.03457E-15-6.84677E-14
 -1      2899 1.99988E+01-1.14000E-03-2.85253E-07-3.26384E-03-9.11721E-15-3.09955E-13
 -1      2900 1.99990E+01-1.09141E-03-6.61243E-06-2.18741E-03 1.85718E-13-7.89825E-14
 -1      2901 1.99988E+01-1.04914E-03-1.13150E-05-2.48023E-03 1.71471E-13-1.11376E-13
 -1      2902 1.99991E+01-1.25645E-03 9.05998E-06-2.78910E-03 5.31601E-14-3.83104E-13
 -1      2903 1.99994E+01-1.44804E-03 1.16996E-05-2.36920E-03-1.09316E-13-1.64877E-13
 -1      2904 2.00013E+01-3.22617E-03 7.06890E-06-2.03621E-04 1.21825E-13 2.67036E-14
 -1      2905 2.00012E+01-3.18772E-03 4.21837E-06-5.79314E-04 3.81102E-13-5.66506E-14
 -1      2906 1.99991E+01-1.22365E-03-6.83480E-06 2.48956E-03 1.16090E-13-2.54701E-14
 -1      2907 1.99992E+01-1.25212E-03-1.71447E-06 2.28395E-03-2.91217E-14 1.08780E-13
 -1      2908 1.99994E+01-1.44004E-03 3.59155E-07 2.74293E-03 1.86003E-13-5.59730E-13
 -1      2909 2.00009E+01-2.83915E-03 1.11825E-05-1.66418E-03 4.07698E-13-1.19547E-13
 -1      2910 2.00007E+01-2.65644E-03-2.79835E-06-1.92108E-03 3.99640E-13-3.65045E-13
 -1      2911 2.00012E+01-3.18319E-03 4.19160E-06 5.98607E-04 6.28385E-14-2.10862E-13
 -1      2912 2.00013E+01-3.22446E-03 7.08680E-06 2.23581E-04 5.02602E-14-9.18539E-14
 -1      2913 2.00016E+01-3.08534E-03-7.76944E-06 1.13938E-05 1.00854E-13-1.74074E-13
 -1      2914 2.00012E+01-3.10919E-03 9.46215E-06-9.85670E-04 3.81799E-13 4.98627E-14
 -1      2915 2.00010E+01-2.99424E-03 7.06515E-07-1.32149E-03 4.09213E-13 2.12979E-14
 -1      2916 2.00012E+01-2.79920E-03-7.02819E-06-1.62792E-03 2.60534E-13-6.98980E-14
 -1      2917 2.00015E+01-3.01463E-03-7.55051E-06-8.51422E-04 3.16756E-13 7.37633E-15
 -1      2918 2.37338E+01-1.40753E+00-1.82125E-02-7.29790E-01-1.48440E-14 1.64395E-13
 -1      2919 2.34366E+01-9.31378E-01 3.77723E-02-9.61822E-01 4.00247E-14 1.39819E-13
 -1      2920 2.25410E+01-8.56418E-01-3.39873E-02-1.31419E+00 5.81072E-14 5.67667E-14
 -1      2921 2.36418E+01-1.97888E+00-4.29372E-02-1.03913E+00-3.32323E-14 8.09942E-14
 -1      2922 2.00010E+01-2.98901E-03 6.19456E-07 1.32564E-03 8.50713E-15-3.87884E-13
 -1      2923 2.00011E+01-3.10336E-03 9.38483E-06 9.96864E-04-6.11074E-14-2.60585E-13
 -1      2924 2.00015E+01-3.00945E-03-7.61807E-06 8.65637E-04 8.77986E-14-3.53664E-13
 -1      2925 2.00007E+01-2.64977E-03-2.99326E-06 1.92255E-03 2.95241E-13-5.31734E-14
 -1      2926 2.00009E+01-2.83273E-03 1.10622E-05 1.66690E-03 1.38057E-13-2.14759E-13
 -1      2927 2.00012E+01-2.79173E-03-6.86195E-06 1.63223E-03 7.87552E-14-8.06379E-14
 -1      2928 2.00002E+01-2.18763E-03-2.96957E-06 2.29806E-03 5.25760E-13-1.67709E-14
 -1      2929 2.00004E+01-2.42801E-03 1.04876E-05 2.16052E-03 5.41974E-13-5.60553E-14
 -1      2930 2.00007E+01-2.44088E-03-4.53501E-06 2.23439E-03 2.93775E-13 1.14075E-13
 -1      2931 2.75265E+01-4.32459E+00-1.27084E-01 1.23079E+00 1.39909E-13-3.71481E-13
 -1      2932 2.52724E+01-5.04031E+00 7.17081E-02 2.89123E+00-2.86646E-14-2.60902E-13
 -1      2933 9.52365E+00-2.06331E+00 6.70540E-02 4.75343E+00-2.89310E-13 2.95042E-13
 -1      2934 7.59600E+00-1.10806E+00 1.48359E-01 2.85261E+00-1.93144E-13 4.18887E-13
 -1      2935 2.18597E+01 1.20900E+00-5.13721E-03-5.91317E-01-2.41060E-13-3.19698E-13
 -1      2936 2.19858E+01 7.23600E-01-1.50979E-02-4.04165E-01-2.25854E-13-2.78540E-13
 -1      2937 1.64499E+01-4.28687E+00 1.19474E-02 6.05735E+00-2.47607E-13 2.22655E-13
 -1      2938 1.29133E+01-2.95596E+00 1.75777E-01 5.59494E+00-3.47347E-13 3.42573E-13
 -1      2939 6.77161E+00-3.04169E-01 1.70856E-01-2.10248E+00-1.42109E-14-9.74498E-13
 -1      2940 8.39337E+00-9.65482E-01 6.78963E-02-3.97827E+00-6.92640E-14-9.14047E-13
 -1      2941 1.99995E+01-1.51473E-03-2.26473E-06 2.34711E-03 3.80826E-14-1.56206E-13
 -1      2942 2.62523E+01-4.25175E+00 9.48228E-02-2.41880E+00 2.92481E-13-2.15869E-13
 -1      2943 2.76988E+01-2.79202E+00-1.23251E-01-4.27569E-01 1.07126E-13-4.61284E-13
 -1      2944 2.66234E+01-2.24517E-01-2.53883E-02 2.50316E+00 2.07473E-13 3.68136E-13
 -1      2945 2.65912E+01-1.35653E+00-6.68197E-02 2.19107E+00 1.07893E-13 3.37105E-13
 -1      2946 2.79238E+01 4.53816E-01-6.42487E-02 2.62082E+00 2.60958E-13 4.06702E-13
 -1      2947 2.22355E+01 3.28920E-01 1.58486E-02-3.12124E-01-1.90684E-13-2.32928E-13
 -1      2948 2.22689E+01-5.34864E-02-1.34996E-02-2.23173E-01-1.67836E-13-2.07500E-13
 -1      2949 2.22229E+01-2.23406E-01-9.97148E-03-8.59749E-02-1.48601E-13-1.91251E-13
 -1      2950 2.18111E+01 5.73006E-01-8.38072E-03-1.97414E-01-1.82962E-13-2.86957E-13
 -1      2951 2.23542E+01-5.50207E+00-7.15954E-02 4.67873E+00-1.25067E-13-4.74785E-14
 -1      2952 1.97869E+01-4.96604E+00 1.20554E-01 5.41364E+00-2.16951E-13-9.89139E-15
 -1      2953 2.88067E+01 2.20997E+00-2.36504E-01-2.56257E+00 5.89348E-13-2.46955E-13
 -1      2954 2.92693E+01 5.09693E-01-6.05735E-02-2.54231E+00 4.72775E-13-3.88356E-13
 -1      2955 1.69470E+01 3.43827E+00 1.23192E-02-4.43581E-01 2.96043E-13-4.05735E-13
 -1      2956 1.63010E+01 3.60958E+00-1.75573E-02-3.26263E-01 2.60391E-13-4.73268E-13
 -1      2957 1.59349E+01 3.44404E+00 1.78895E-02-3.41895E-01 2.23105E-13-4.76257E-13
 -1      2958 1.72246E+01 2.86060E+00-8.58408E-03-8.00066E-01 2.47049E-13-3.75665E-13
 -1      2959 8.13283E+00-1.48851E+00 1.38041E-01-4.05728E+00 2.55157E-13 5.18141E-13
 -1      2960 1.06899E+01-2.60930E+00 8.72726E-02-5.82776E+00 3.44141E-13 4.19997E-13
 -1      2961 1.83638E+01 2.48611E+00-1.21427E-02 9.08382E-01 6.92731E-14-5.44863E-13
 -1      2962 1.90449E+01 2.26210E+00 7.32728E-03 7.05150E-01 2.87110E-14-5.27330E-13
 -1      2963 2.95420E+01 1.63906E+00-8.46677E-02 2.29849E+00 3.81167E-13 2.73365E-13
 -1      2964 2.95977E+01 3.31659E+00-2.10270E-01 2.23729E+00 5.29604E-13 2.38726E-13
 -1      2965 2.88100E+01-2.85242E+00 3.57487E-02 1.50451E-01 7.11445E-14 2.10387E-13
 -1      2966 2.95524E+01-1.14152E+00-1.68765E-01 1.43675E+00 2.10998E-13 2.31662E-13
 -1      2967 2.44854E+01-4.98977E+00 7.23517E-02-3.62900E+00-2.22850E-13-6.47191E-14
 -1      2968 2.67757E+01-4.59286E+00-1.61648E-01-2.00304E+00-7.49678E-14 9.80188E-14
 -1      2969 1.90394E+01-4.41405E+00 1.19949E-01-5.57589E+00-2.86715E-13-4.01977E-13
 -1      2970 2.19583E+01-5.07647E+00-3.19517E-02-4.95443E+00-2.40669E-13-2.01051E-13
 -1      2971 2.38297E+01-4.58281E+00 1.11466E-01-3.50850E+00-2.86993E-13-5.90847E-14
 -1      2972 1.04806E+01-1.57806E+00 7.84356E-02 5.62159E+00 2.92100E-13-6.40515E-13
 -1      2973 8.13571E+00-5.71488E-01 1.90779E-01 3.93956E+00 2.76633E-13-7.73159E-13
 -1      2974 1.16545E+01-1.98987E+00 1.84507E-01-5.24379E+00-1.93387E-13-7.84817E-13
 -1      2975 1.50820E+01-3.43264E+00 2.44910E-02-6.09029E+00-2.27734E-13-6.61582E-13
 -1      2976 2.10423E+01 2.08504E+00-6.32786E-03-5.59224E-01-2.01845E-13-4.26676E-13
 -1      2977 6.72422E+00-5.08666E-01 1.24000E-01 6.85050E-01-6.38066E-14 4.71539E-13
 -1      2978 6.87508E+00-6.02657E-01 1.35846E-01-1.90377E+00 6.37615E-14 4.07036E-13
 -1      2979 2.86278E+01 6.58460E+00-1.51210E-01 6.55912E-01-6.72601E-13-3.55729E-13
 -1      2980 2.83735E+01 6.62379E+00-1.71050E-01-3.77452E-01-7.28195E-13-2.36852E-13
 -1      2981 2.87432E+01 4.04344E+00-1.06667E-01 1.91606E+00-4.42257E-13-6.03559E-13
 -1      2982 2.87685E+01 5.61500E+00-2.01665E-01 1.37638E+00-5.66491E-13-4.46643E-13
 -1      2983 2.73333E+01 5.46202E+00-1.08006E-01 1.10395E+00-5.10397E-13-4.16112E-13
 -1      2984 2.76213E+01-2.80810E+00-1.27735E-01 8.78716E-01-1.95072E-13 5.00988E-14
 -1      2985 2.63505E+01-3.95947E+00 4.74406E-02 2.43713E+00-2.98164E-14 1.68199E-14
 -1      2986 1.99456E+01-4.99561E+00 1.34191E-01-5.79897E+00 5.01793E-13 1.86367E-13
 -1      2987 2.31709E+01-5.27959E+00-1.28603E-01-4.57484E+00 3.81958E-13 1.65840E-14
 -1      2988 2.19285E+01 1.45877E+00-3.26058E-03-2.03953E-01 3.58605E-13 5.72858E-14
 -1      2989 2.83212E+01 5.71191E+00-1.73477E-01-1.25831E+00-7.10793E-13-1.03778E-13
 -1      2990 2.82192E+01 4.20840E+00-1.45686E-01-1.84594E+00-6.71851E-13 5.06400E-14
 -1      2991 1.96843E+01 1.99096E+00-4.45549E-03 4.37265E-01-1.45751E-14-4.86920E-13
 -1      2992 2.02836E+01 1.77390E+00-6.74165E-03 1.80588E-01-8.00568E-14-4.61470E-13
 -1      2993 1.95664E+01 1.59646E+00-5.86841E-03 7.90935E-01 1.49861E-14-4.55660E-13
 -1      2994 1.92888E+01-4.42575E+00 1.12503E-01-5.61639E+00 4.58730E-13 1.80272E-13
 -1      2995 1.56764E+01 3.41488E+00 1.36869E-02 1.02706E+00 1.98998E-13-5.38978E-13
 -1      2996 1.59510E+01 3.58448E+00-1.92341E-02 9.90115E-01 1.90604E-13-5.57834E-13
 -1      2997 1.64397E+01 3.41914E+00 1.34276E-02 1.07247E+00 1.66085E-13-5.62542E-13
 -1      2998 2.75198E+01 2.49068E+00-7.45837E-02 2.14494E+00-2.86826E-13-5.73611E-13
 -1      2999 7.99637E+00 5.23817E-01 1.98704E-01-1.00427E+00 6.80601E-14-8.89622E-13
 -1      3000 2.76986E+01-3.60858E+00-3.14582E-02-1.79882E-02 1.40648E-13-4.12781E-13
 -1      3001 2.48170E+01-4.25597E+00 2.62234E-02 3.19266E+00 8.41618E-14-3.99819E-14
 -1      3002 2.76943E+01-1.91977E+00-7.05868E-02 7.04711E-01 2.87513E-14-5.32782E-13
 -1      3003 2.68121E+01-8.88226E-01-4.69392E-02 1.59608E+00-5.34989E-14-5.61447E-13
 -1      3004 2.66346E+01-2.81029E+00 5.07502E-02 2.66218E-02 6.55136E-14-4.70284E-13
 -1      3005 2.80397E+01 2.90530E+00-1.28199E-01-2.04523E+00-6.07361E-13 6.76820E-14
 -1      3006 2.74470E+01 1.64158E+00-7.07338E-02-1.99890E+00-5.06067E-13 1.45786E-13
 -1      3007 2.66429E+01 3.59554E+00-1.10811E-01-2.01880E+00-5.68143E-13 3.74700E-16
 -1      3008 2.89767E+01 5.68153E+00-1.46099E-01-1.48340E-01 8.09991E-13 5.50931E-14
 -1      3009 1.34361E+01-2.61197E+00 1.55593E-01-5.68754E+00 3.40589E-13 3.12320E-13
 -1      3010 1.15507E+01-8.91192E-01 1.73634E-01-4.26806E+00-1.30035E-13-7.94823E-13
 -1      3011 1.80115E+01-3.41994E+00 9.97774E-02-5.25071E+00-2.81858E-13-4.21572E-13
 -1      3012 2.00007E+01-2.45245E-03-5.33406E-06-2.23149E-03 2.38847E-13-1.78974E-13
 -1      3013 2.00005E+01-2.43593E-03 1.15109E-05-2.15939E-03 2.59588E-13-2.64064E-13
 -1      3014 2.00002E+01-2.19843E-03-4.06160E-06-2.30029E-03-4.85815E-14 2.62779E-13
 -1      3015 2.68990E+01-2.22821E+00-3.28016E-02 1.42707E+00 1.85355E-14 3.24411E-13
 -1      3016 1.36445E+01-1.84079E+00 1.27727E-01 5.56255E+00 3.61072E-13-5.28008E-13
 -1      3017 8.85639E+00 3.11323E-01 1.87984E-01 2.83611E+00 2.41265E-13-7.73825E-13
 -1      3018 2.66883E+01-2.90303E+00-5.19223E-02-6.90995E-01 9.29708E-14-3.80381E-13
 -1      3019 2.74894E+01-3.59823E+00 1.92382E-02-4.89559E-01-6.48821E-14 1.73514E-13
 -1      3020 2.00000E+01-1.97490E-03 1.08825E-05-2.38661E-03-1.23446E-13 2.36470E-13
 -1      3021 1.99997E+01-1.70214E-03-5.15910E-06-2.39087E-03-1.88765E-13-6.02919E-15
 -1      3022 1.99995E+01-1.60531E-03-1.11205E-05-2.62362E-03-1.52545E-13-1.10091E-13
 -1      3023 2.00002E+01-2.04233E-03-6.81881E-06-2.56302E-03-6.37915E-14 3.32386E-13
 -1      3024 9.32948E+00-5.00389E-01 1.97619E-01-2.76743E+00 1.03015E-13 4.21024E-13
 -1      3025 1.27946E+01-1.97303E+00 1.64144E-01 4.80814E+00-2.73850E-13 3.06477E-13
 -1      3026 2.42267E+01-4.93158E+00 3.25257E-02 3.10885E+00-1.25788E-13-2.53714E-13
 -1      3027 1.99997E+01-1.79892E-03 1.03807E-06 2.34948E-03 2.87631E-13-1.69701E-13
 -1      3028 1.86744E+01-4.10539E+00 8.80695E-02 5.20312E+00-2.76335E-13 8.43631E-14
 -1      3029 8.91257E+00-2.43131E-01 1.93100E-01 1.55438E+00-1.40825E-13 3.58380E-13
 -1      3030 1.96771E+01-4.25132E+00 4.60775E-02 5.61355E+00 3.13055E-13-3.01880E-13
 -1      3031 2.45970E+01-4.60748E+00 3.15966E-02-3.04868E+00 3.23699E-13-1.49568E-13
 -1      3032 1.99997E+01-1.65204E-03 1.57232E-06 2.66072E-03 2.17369E-13-5.28878E-13
 -1      3033 2.00000E+01-1.97931E-03 1.82797E-06 2.46105E-03 4.33019E-13-2.08659E-13
 -1      3034 2.00002E+01-2.02014E-03-2.62116E-06 2.62360E-03 4.99518E-13-1.58437E-13
 -1      3035 1.99997E+01-1.61519E-03-3.42590E-06 2.85390E-03 1.59764E-13-4.94503E-13
 -1      3036 1.70210E+01 3.05733E+00-1.91295E-02 1.12879E+00 1.41787E-13-5.43124E-13
 -1      3037 1.76880E+01 2.84045E+00 1.38893E-02 1.05602E+00 9.90818E-14-5.49031E-13
 -1      3038 1.81360E+01 2.17298E+00-9.89764E-03 1.24101E+00 8.88241E-14-5.13859E-13
 -1      3039 1.67265E+01 2.84420E+00 5.85295E-04 1.35383E+00 1.48958E-13-5.30726E-13
 -1      3040 2.10039E+01 1.62453E+00 2.03077E-03-2.50374E-01-1.60353E-13-4.12283E-13
 -1      3041 2.83875E+01-6.33123E-01 2.09251E-03-2.30374E+00 3.52975E-13-3.90285E-13
 -1      3042 2.84491E+01 4.08132E+00-1.43559E-01 2.05027E+00 6.00575E-13 2.30732E-13
 -1      3043 2.70250E+01 5.48149E+00-1.24086E-01-8.39429E-01-6.00575E-13-1.35739E-13
 -1      3044 2.80531E+01-1.73877E+00-4.19614E-02-4.07350E-01-2.52878E-13 1.01891E-13
 -1      3045 2.67873E+01-2.61668E+00-2.93639E-02 1.34030E-01-1.12303E-13 8.55913E-14
 -1      3046 2.75075E+01-6.53589E-01-1.17269E-01-1.52020E+00-3.36148E-13 1.77705E-13
 -1      3047 2.12319E+01 1.51120E+00-1.02203E-02-4.67503E-01 3.32234E-13-3.21505E-14
 -1      3048 2.08942E+01 1.24286E+00-3.10649E-04-8.42898E-01 2.74576E-13-8.47606E-14
 -1      3049 2.10636E+01 7.20287E-01 1.24137E-02-1.19173E+00 1.97252E-13-8.24168E-14
 -1      3050 2.01640E+01 1.19655E+00 1.77743E-03-1.20521E+00 2.22955E-13-1.58073E-13
 -1      3051 2.13059E+01 1.69477E-01 7.01852E-03-1.41904E+00 1.23892E-13-7.36015E-14
 -1      3052 1.91800E+01 1.57490E+00 2.35170E-03-1.25969E+00 2.04209E-13-2.53975E-13
 -1      3053 8.72006E+00 1.18660E+00 9.60089E-02 1.25709E-01 1.38404E-13-7.96807E-13
 -1      3054 9.33349E+00 9.08571E-01 5.64321E-02-1.73125E+00 5.29576E-14-8.03024E-13
 -1      3055 2.09784E+01 1.20371E+00 7.99553E-03 6.79211E-02-1.09496E-13-3.81197E-13
 -1      3056 2.33344E+01-1.42802E+00 2.20758E-02-2.11497E-01-7.32027E-14-5.67606E-14
 -1      3057 2.35664E+01-1.56968E+00-2.06458E-02-4.90300E-01-8.28821E-14-5.33154E-14
 -1      3058 2.40966E+01-1.49615E+00 6.47206E-03-9.32171E-01-1.04990E-13 8.23386E-15
 -1      3059 2.42253E+01-1.23180E+00-2.14640E-02-1.25586E+00-1.42907E-13 1.48823E-14
 -1      3060 2.40286E+01-1.84377E+00-1.84593E-02-4.09957E-01-6.83707E-14-5.80655E-15
 -1      3061 2.45767E+01-6.70981E-01-1.48209E-02-1.76227E+00-2.18975E-13 6.65774E-14
 -1      3062 2.44986E+01 1.05691E-01 4.21683E-03-1.90301E+00-2.82804E-13 2.73540E-14
 -1      3063 2.49395E+01-1.25417E+00-3.44338E-02-1.37294E+00-1.74258E-13 1.04123E-13
 -1      3064 2.49791E+01 1.38933E+00-6.06770E-02-2.10253E+00-3.80557E-13-1.07145E-14
 -1      3065 2.47951E+01 2.49254E+00-3.58922E-02-1.85157E+00-4.12927E-13-8.27723E-14
 -1      3066 2.38124E+01 3.61408E+00-3.71156E-02 4.25126E-01-3.79530E-13-3.40663E-13
 -1      3067 2.38553E+01 3.17081E+00-7.60435E-02 1.13599E+00-3.40589E-13-3.44617E-13
 -1      3068 2.41185E+01 2.38809E+00-1.62306E-03 1.79393E+00-2.67775E-13-3.80025E-13
 -1      3069 2.42215E+01 1.32665E+00-7.84176E-02 2.09045E+00-1.64172E-13-3.29138E-13
 -1      3070 2.47938E+01 3.19620E+00-4.49466E-02 1.62732E+00-3.18953E-13-3.14401E-13
 -1      3071 2.43714E+01 3.31186E-01 5.32317E-03 2.06000E+00-1.46461E-13-3.19936E-13
 -1      3072 2.43735E+01-6.05300E-01-4.10216E-02 1.89434E+00-8.55735E-14-3.37776E-13
 -1      3073 2.50659E+01 9.05141E-01-9.95695E-03 2.18675E+00-1.26819E-13-4.21777E-13
 -1      3074 2.41514E+01-1.27117E+00-7.25740E-03 1.41797E+00-7.73078E-14-2.64526E-13
 -1      3075 2.39900E+01-1.71153E+00-4.27958E-03 1.01286E+00-1.59569E-14-2.78151E-13
 -1      3076 2.48275E+01-1.17417E+00 5.30421E-03 1.54662E+00-7.81992E-14-3.51982E-13
 -1      3077 2.34788E+01-1.89532E+00-1.64506E-02 4.90581E-01 4.66090E-14-2.42599E-13
 -1      3078 2.32092E+01-1.90471E+00 1.47859E-02 9.86480E-02 1.49433E-13-2.59729E-13
 -1      3079 2.39823E+01-2.13462E+00-9.91749E-03 4.61601E-01 3.03666E-14-1.81953E-13
 -1      3080 2.26488E+01-1.79617E+00-1.48004E-02-2.83906E-01 1.55117E-13-2.62925E-13
 -1      3081 2.23467E+01-1.58353E+00 1.85434E-02-5.68802E-01 8.96481E-14-2.25044E-13
 -1      3082 2.29164E+01-2.14930E+00-1.89998E-02-4.33648E-01 1.29642E-13-2.40261E-13
 -1      3083 2.18772E+01-1.35230E+00-8.29348E-03-7.79631E-01 2.65473E-14-1.92750E-13
 -1      3084 2.16036E+01-1.08538E+00 1.53256E-02-9.48085E-01-3.77450E-14-1.33212E-13
 -1      3085 2.19349E+01-1.67223E+00-1.96171E-02-9.78852E-01 7.35660E-14-1.92031E-13
 -1      3086 2.12653E+01-8.46180E-01-3.21063E-03-1.03126E+00-7.77614E-14-1.42821E-13
 -1      3087 2.10475E+01-6.09823E-01 1.05389E-02-1.10776E+00-6.52424E-14-7.91043E-14
 -1      3088 2.11839E+01-1.07875E+00-1.57365E-02-1.22319E+00-2.84688E-14-2.09771E-13
 -1      3089 2.08267E+01-4.13950E-01-3.18206E-04-1.11210E+00-1.04190E-13-3.11099E-14
 -1      3090 2.06660E+01-2.36781E-01 6.39535E-03-1.12562E+00-5.33166E-14 3.15148E-15
 -1      3091 2.06708E+01-5.56787E-01-1.09793E-02-1.27309E+00-3.93060E-14-1.47918E-13
 -1      3092 2.05330E+01-9.73445E-02 1.05530E-03-1.08624E+00-4.38803E-14-1.33618E-14
 -1      3093 2.04190E+01 2.02291E-02 3.36768E-03-1.06051E+00-2.82180E-14-4.24099E-14
 -1      3094 2.03482E+01-1.67093E-01-6.96203E-03-1.21314E+00-5.77251E-14-1.26615E-13
 -1      3095 2.03452E+01 1.08256E-01 1.60839E-03-9.99538E-01-6.28437E-14-4.91216E-14
 -1      3096 2.02654E+01 1.76930E-01 1.36394E-03-9.51752E-01-6.57879E-14-1.57808E-13
 -1      3097 2.01597E+01 9.11518E-02-4.08388E-03-1.09760E+00-1.22374E-13-5.02942E-14
 -1      3098 2.02286E+01 2.24855E-01 1.78166E-03-8.82498E-01-9.90259E-14-2.07560E-13
 -1      3099 2.01724E+01 2.57693E-01 1.36664E-04-8.24456E-01-1.02945E-13-3.21802E-13
 -1      3100 2.00582E+01 2.42126E-01-2.20294E-03-9.58635E-01-1.35716E-13-1.36600E-13
 -1      3101 2.01573E+01 2.77303E-01 1.78466E-03-7.54790E-01-1.92018E-14-2.68211E-13
 -1      3102 2.01167E+01 2.86029E-01-5.52723E-04-6.94292E-01 6.02179E-16-2.59009E-13
 -1      3103 2.00093E+01 3.14590E-01-1.05736E-03-8.14868E-01-6.95147E-14-1.43681E-13
 -1      3104 2.01134E+01 2.87270E-01 1.70434E-03-6.28763E-01 2.83614E-14-1.96017E-13
 -1      3105 2.00832E+01 2.81102E-01-8.88811E-04-5.70716E-01 1.32628E-13-7.47033E-14
 -1      3106 1.99901E+01 3.34145E-01-4.07518E-04-6.77019E-01 5.81359E-14-2.37988E-14
 -1      3107 2.00856E+01 2.71509E-01 1.57682E-03-5.11784E-01 7.81272E-14-1.33300E-13
 -1      3108 2.00625E+01 2.57130E-01-1.00305E-03-4.59025E-01-4.12335E-15-4.76338E-14
 -1      3109 1.99864E+01 3.20888E-01-7.06112E-05-5.51061E-01 7.98542E-14-3.78252E-14
 -1      3110 2.00671E+01 2.42007E-01 1.42075E-03-4.07791E-01-3.83310E-14-4.39796E-14
 -1      3111 2.00490E+01 2.23969E-01-9.85531E-04-3.61707E-01-5.85955E-15 2.79687E-15
 -1      3112 1.99897E+01 2.89425E-01 8.03835E-05-4.39968E-01 2.00100E-15-5.25184E-14
 -1      3113 2.00540E+01 2.06823E-01 1.24949E-03-3.18383E-01-1.27453E-13-3.37184E-14
 -1      3114 2.00396E+01 1.88039E-01-8.96394E-04-2.79380E-01-5.62292E-14-2.20504E-13
 -1      3115 1.99951E+01 2.49742E-01 1.28301E-04-3.44745E-01-9.55927E-14-3.32938E-16
 -1      3116 2.00440E+01 1.71039E-01 1.07417E-03-2.43612E-01 7.55686E-14-3.79734E-13
 -1      3117 2.00325E+01 1.53239E-01-7.74561E-04-2.11467E-01 1.36180E-13-3.57364E-13
 -1      3118 2.00005E+01 2.08271E-01 1.24283E-04-2.65100E-01-1.35502E-13-2.06519E-13
 -1      3119 2.00359E+01 1.37611E-01 9.03835E-04-1.82569E-01 1.52690E-13-3.27077E-13
 -1      3120 2.00267E+01 1.21712E-01-6.44208E-04-1.56690E-01 9.86365E-14-3.12721E-13
 -1      3121 2.00048E+01 1.68858E-01 9.82049E-05-1.99931E-01 1.27305E-13-3.04284E-13
 -1      3122 2.00292E+01 1.08049E-01 7.45189E-04-1.33811E-01-1.02661E-13-3.28096E-13
 -1      3123 2.00219E+01 9.44290E-02-5.19448E-04-1.13421E-01-1.32432E-13-3.21262E-13
 -1      3124 2.00077E+01 1.33560E-01 6.63925E-05-1.47681E-01-1.96390E-14-3.41240E-13
 -1      3125 2.00236E+01 8.29205E-02 6.02551E-04-9.56575E-02-1.22918E-13-3.85980E-13
 -1      3126 2.00178E+01 7.16257E-02-4.07700E-04-7.99227E-02-3.52948E-14-4.21620E-13
 -1      3127 2.00094E+01 1.03251E-01 3.69379E-05-1.06595E-01-1.57879E-13-4.73942E-13
 -1      3128 2.00188E+01 6.22154E-02 4.78107E-04-6.63987E-02 1.03089E-13-3.04174E-13
 -1      3129 2.00143E+01 5.30987E-02-3.12078E-04-5.45049E-02 5.84521E-14-2.20972E-13
 -1      3130 2.00099E+01 7.80609E-02 1.31699E-05-7.49007E-02 1.10610E-13-2.06522E-13
 -1      3131 2.00147E+01 4.55974E-02 3.72345E-04-4.44153E-02-4.54172E-14-1.26845E-13
 -1      3132 2.00113E+01 3.84124E-02-2.33058E-04-3.56167E-02-6.40275E-14-1.03905E-13
 -1      3133 2.00098E+01 5.76839E-02-4.17043E-06-5.09221E-02 8.49746E-14-2.38982E-13
 -1      3134 2.00114E+01 3.25695E-02 2.84531E-04-2.82520E-02-8.55666E-14 2.58399E-14
 -1      3135 2.00088E+01 2.70318E-02-1.69605E-04-2.18938E-02 3.22739E-14-8.64810E-14
 -1      3136 2.00091E+01 4.15898E-02-1.56180E-05-3.31482E-02-3.57695E-14 6.95717E-14
 -1      3137 2.00086E+01 2.25801E-02 2.13152E-04-1.66485E-02 1.79103E-14-1.47847E-13
 -1      3138 2.00067E+01 1.84048E-02-1.19927E-04-1.21750E-02 2.62524E-14-8.39918E-14
 -1      3139 2.00081E+01 2.91582E-02-2.22285E-05-2.02649E-02-8.70334E-15 1.81903E-13
 -1      3140 2.00064E+01 1.50879E-02 1.56273E-04-8.54583E-03 4.11116E-14-1.51358E-13
 -1      3141 2.00050E+01 1.20104E-02-8.19459E-05-5.49810E-03-5.18534E-14-1.60443E-13
 -1      3142 2.00070E+01 1.97629E-02-2.51671E-05-1.11615E-02-7.77278E-15 1.36778E-13
 -1      3143 2.00047E+01 9.59698E-03 1.11812E-04-3.07632E-03-1.59694E-13-1.04373E-13
 -1      3144 2.00037E+01 7.38391E-03-5.35892E-05-1.08434E-03-1.94201E-13-1.21826E-13
 -1      3145 2.00059E+01 1.28200E-02-2.55046E-05-4.92277E-03-1.10824E-13-1.51205E-13
 -1      3146 2.00033E+01 5.67345E-03 7.77189E-05 4.54843E-04-1.47202E-13-3.43750E-14
 -1      3147 2.00026E+01 4.12603E-03-3.29484E-05 1.68297E-03-9.87862E-14 2.75723E-14
 -1      3148 2.00048E+01 7.81243E-03-2.41337E-05-8.10850E-04-8.66224E-14 2.56256E-14
 -1      3149 2.00022E+01 2.95045E-03 5.20988E-05 2.59242E-03-4.28656E-14-5.02908E-14
 -1      3150 2.00018E+01 1.90394E-03-1.83577E-05 3.28199E-03 2.26473E-14-1.03934E-13
 -1      3151 2.00038E+01 4.29847E-03-2.17516E-05 1.75677E-03-1.24427E-13 9.59903E-14
 -1      3152 2.00014E+01 1.12554E-03 3.32737E-05 3.75449E-03-2.32829E-14-7.63022E-14
 -1      3153 2.00012E+01 4.46221E-04-8.41840E-06 4.07554E-03-6.05602E-14-2.06793E-13
 -1      3154 2.00029E+01 1.91107E-03-1.88773E-05 3.23061E-03-1.25323E-14 3.35671E-14
 -1      3155 2.00008E+01-4.57898E-05 1.98134E-05 4.25471E-03 3.80638E-14-1.40762E-13
 -1      3156 2.00007E+01-4.64737E-04-1.98272E-06 4.33230E-03-6.93079E-15-2.38000E-13
 -1      3157 2.00022E+01 3.51645E-04-1.58826E-05 3.95166E-03-3.07270E-14-1.14396E-13
 -1      3158 2.00004E+01-7.58375E-04 1.05440E-05 4.32220E-03-7.45322E-15-1.32316E-13
 -1      3159 2.00003E+01-1.00142E-03 1.87277E-06 4.24543E-03 8.12787E-14-7.81351E-14
 -1      3160 2.00016E+01-6.18793E-04-1.30081E-05 4.17182E-03 5.87105E-14 3.15013E-14
 -1      3161 2.00001E+01-1.16605E-03 4.48271E-06 4.11899E-03 5.91110E-14-1.79567E-13
 -1      3162 2.00001E+01-1.29977E-03 3.88263E-06 3.94870E-03 6.58200E-14-6.45035E-14
 -1      3163 2.00011E+01-1.18927E-03-1.03823E-05 4.07176E-03 6.70858E-14 1.76040E-13
 -1      3164 1.99999E+01-1.39165E-03 5.37011E-07 3.75460E-03 1.95316E-14-9.25702E-14
 -1      3165 1.99999E+01-1.46670E-03 3.98210E-06 3.52833E-03-7.12225E-15-2.56880E-13
 -1      3166 2.00007E+01-1.50928E-03-8.36077E-06 3.77646E-03 2.77694E-14 4.63858E-14
 -1      3167 1.99997E+01-1.51236E-03-1.97099E-06 3.33215E-03 5.47533E-15-3.53050E-13
 -1      3168 1.99998E+01-1.56980E-03 2.39531E-06 3.06996E-03 2.23747E-14-4.52430E-13
 -1      3169 2.00001E+01-1.77777E-03-9.11201E-07 2.99101E-03 8.06821E-14-3.03343E-13
 -1      3170 2.00003E+01-1.67684E-03-5.54107E-06 3.39982E-03-7.01364E-14-2.19190E-13
 -1      3171 2.00019E+01-2.84358E-03-4.40160E-07 1.13419E-03-2.12885E-14-4.85126E-13
 -1      3172 2.00020E+01-2.90844E-03 6.18955E-06 7.18862E-04 1.66972E-13-4.63354E-13
 -1      3173 2.61217E+01 4.22063E+00-1.01455E-01 5.24028E-02 5.83228E-13 1.03903E-13
 -1      3174 2.62289E+01 3.74910E+00-1.46449E-01 1.20729E+00 5.67088E-13 2.36474E-13
 -1      3175 2.81041E+01 2.91950E+00-1.32862E-01-2.45163E+00 6.21017E-13-2.42681E-13
 -1      3176 2.34194E+01-2.81914E+00 6.73238E-02 1.83993E+00-1.05629E-13-1.72113E-13
 -1      3177 2.42112E+01-3.38336E+00 1.22170E-03 1.37902E+00-1.05336E-13-2.07957E-13
 -1      3178 2.04531E+01-1.59059E-02 5.66910E-03 2.02783E+00-1.24170E-13 5.06498E-14
 -1      3179 2.06928E+01-2.93318E-01 9.23191E-03 2.08571E+00-4.99594E-14 8.62146E-14
 -1      3180 2.02465E+01 3.34260E-01 4.61053E-04 1.78038E+00-1.11509E-13 2.57226E-14
 -1      3181 2.03869E+01 1.89405E-01 7.15786E-03 1.87853E+00-1.53560E-13 4.24811E-14
 -1      3182 1.97669E+01 1.59920E-01-7.97229E-03 2.06105E+00-1.56535E-13-4.98137E-15
 -1      3183 2.01655E+01 4.90915E-01-1.92268E-03 1.52245E+00 5.75724E-15 3.64233E-14
 -1      3184 2.02519E+01 4.33097E-01 5.41684E-03 1.63565E+00-6.62571E-15 6.08255E-14
 -1      3185 1.97309E+01 4.80888E-01-2.09527E-03 1.75238E+00-7.94451E-14 7.58093E-14
 -1      3186 2.01384E+01 5.29957E-01-2.78858E-03 1.27545E+00-7.63897E-14 2.12953E-13
 -1      3187 2.01976E+01 5.23160E-01 4.21156E-03 1.38963E+00-6.18759E-14 1.50677E-13
 -1      3188 1.97746E+01 6.10101E-01 5.16218E-04 1.47212E+00-9.69231E-14 2.18616E-13
 -1      3189 2.01296E+01 5.04632E-01-2.89540E-03 1.04940E+00-1.15650E-16 2.85227E-13
 -1      3190 2.01752E+01 5.24701E-01 3.48835E-03 1.15660E+00-1.22912E-14 2.60195E-13
 -1      3191 1.98404E+01 6.26728E-01 1.43588E-03 1.22191E+00-7.50426E-14 3.82937E-13
 -1      3192 2.01234E+01 4.48757E-01-2.65423E-03 8.49061E-01 5.37297E-15 3.99784E-13
 -1      3193 2.01618E+01 4.80752E-01 3.02053E-03 9.45119E-01 3.09268E-14 3.00001E-13
 -1      3194 1.99022E+01 5.83358E-01 1.52995E-03 1.00104E+00-5.53080E-14 4.07692E-13
 -1      3195 2.01148E+01 3.82238E-01-2.27933E-03 6.76060E-01-2.00195E-13 3.97172E-13
 -1      3196 2.01482E+01 4.17555E-01 2.65979E-03 7.59253E-01-6.19443E-14 4.06652E-13
 -1      3197 1.99507E+01 5.12731E-01 1.28260E-03 8.08745E-01 1.34941E-14 4.37817E-13
 -1      3198 2.01030E+01 3.15952E-01-1.87999E-03 5.29956E-01-1.04166E-14 1.97760E-13
 -1      3199 2.01323E+01 3.50005E-01 2.33560E-03 6.00111E-01-5.69091E-14 3.06113E-13
 -1      3200 1.99848E+01 4.33950E-01 9.44809E-04 6.43971E-01-6.93432E-14 3.32885E-13
 -1      3201 2.00894E+01 2.55280E-01-1.50821E-03 4.08978E-01-1.95387E-13 6.36251E-14
 -1      3202 2.01146E+01 2.85893E-01 2.02403E-03 4.66848E-01-6.14278E-14 2.05013E-13
 -1      3203 2.00064E+01 3.57387E-01 6.29709E-04 5.05169E-01 9.59387E-15 3.66302E-13
 -1      3204 2.00750E+01 2.02436E-01-1.18513E-03 3.10582E-01-1.18830E-14-1.04048E-13
 -1      3205 2.00964E+01 2.28800E-01 1.72375E-03 3.57419E-01-1.20871E-13-1.18124E-13
 -1      3206 2.00186E+01 2.88112E-01 3.77853E-04 3.90229E-01-2.95107E-15 1.44402E-13
 -1      3207 2.00613E+01 1.57893E-01-9.15719E-04 2.31878E-01 7.62386E-15-5.00579E-14
 -1      3208 2.00789E+01 1.79942E-01 1.44116E-03 2.69138E-01 3.32836E-14-1.12890E-13
 -1      3209 2.00242E+01 2.28118E-01 1.94639E-04 2.96629E-01 2.09297E-14 2.12627E-14
 -1      3210 2.00487E+01 1.21235E-01-6.97106E-04 1.69924E-01-9.37097E-14 1.39590E-13
 -1      3211 2.00630E+01 1.39272E-01 1.18315E-03 1.99088E-01-5.26501E-14 5.25634E-14
 -1      3212 2.00256E+01 1.77700E-01 7.08819E-05 2.21639E-01-3.75442E-14-9.84246E-15
 -1      3213 2.00378E+01 9.16345E-02-5.23159E-04 1.21918E-01 9.15075E-15 1.30763E-13
 -1      3214 2.00492E+01 1.06126E-01 9.54385E-04 1.44386E-01 7.99828E-14 1.26657E-13
 -1      3215 2.00244E+01 1.36278E-01-6.77395E-06 1.62514E-01-5.67751E-14 1.31875E-13
 -1      3216 2.00287E+01 6.81246E-02-3.86863E-04 8.53146E-02 7.56547E-14 1.72067E-13
 -1      3217 2.00375E+01 7.95823E-02 7.56847E-04 1.02345E-01-3.55963E-14 1.07288E-13
 -1      3218 2.00218E+01 1.02869E-01-5.11637E-05 1.16635E-01 1.14615E-15 1.04947E-13
 -1      3219 2.00213E+01 4.97350E-02-2.81473E-04 5.78708E-02-2.36630E-14 3.15704E-13
 -1      3220 2.00280E+01 5.86582E-02 5.90212E-04 7.05606E-02 1.43277E-13 3.33239E-13
 -1      3221 2.00187E+01 7.63603E-02-7.28786E-05 8.16138E-02-3.37573E-14 1.94773E-13
 -1      3222 2.00154E+01 3.55647E-02-2.00988E-04 3.76673E-02-3.28099E-14 6.85420E-14
 -1      3223 2.00204E+01 4.24101E-02 4.52544E-04 4.69477E-02-2.29150E-14 2.53697E-13
 -1      3224 2.00156E+01 5.56455E-02-7.99579E-05 5.53347E-02 7.05753E-14 2.23760E-13
 -1      3225 2.00108E+01 2.48129E-02-1.40296E-04 2.30953E-02 2.38612E-15-3.74597E-14
 -1      3226 2.00144E+01 2.99826E-02 3.40943E-04 2.97400E-02 1.21928E-14-1.81089E-14
 -1      3227 2.00126E+01 3.97015E-02-7.81695E-05 3.59786E-02 5.72034E-14 2.77475E-13
 -1      3228 2.00073E+01 1.67884E-02-9.51501E-05 1.28329E-02-2.77743E-15 1.80782E-14
 -1      3229 2.00099E+01 2.06270E-02 2.52061E-04 1.74726E-02-1.04261E-13-8.39297E-14
 -1      3230 2.00099E+01 2.76200E-02-7.14705E-05 2.20146E-02-2.65111E-14 7.58888E-14
 -1      3231 2.00047E+01 1.09079E-02-6.20837E-05 5.81245E-03-1.34892E-13 2.50236E-13
 -1      3232 2.00065E+01 1.37045E-02 1.82469E-04 8.95318E-03-2.96797E-16 5.37363E-14
 -1      3233 2.00077E+01 1.86177E-02-6.24651E-05 1.21810E-02-1.18267E-13 9.65959E-14
 -1      3234 2.00029E+01 6.68747E-03-3.83030E-05 1.18626E-03-1.51121E-13 4.05739E-13
 -1      3235 2.00041E+01 8.68093E-03 1.28896E-04 3.22718E-03-1.70325E-13 3.66599E-13
 -1      3236 2.00058E+01 1.20334E-02-5.27906E-05 5.45629E-03-2.49056E-13 4.21778E-13
 -1      3237 2.00016E+01 3.73245E-03-2.15833E-05-1.70769E-03-9.87795E-14 4.22051E-13
 -1      3238 2.00023E+01 5.11673E-03 8.83689E-05-4.56778E-04-8.24244E-14 3.76519E-13
 -1      3239 2.00043E+01 7.31899E-03-4.34178E-05 1.02832E-03-1.56636E-13 3.58147E-13
 -1      3240 2.00007E+01 1.72485E-03-1.01723E-05-3.37761E-03 2.91727E-14 1.91358E-13
 -1      3241 2.00011E+01 2.65556E-03 5.82814E-05-2.68038E-03-1.06832E-14 2.77050E-13
 -1      3242 2.00031E+01 4.02742E-03-3.48727E-05-1.73791E-03 1.97331E-14 2.74138E-13
 -1      3243 2.00001E+01 4.11719E-04-2.70959E-06-4.20637E-03 2.40929E-13-1.89505E-13
 -1      3244 2.00003E+01 1.01224E-03 3.64163E-05-3.88599E-03 1.27684E-13-1.01722E-14
 -1      3245 2.00021E+01 1.79878E-03-2.73972E-05-3.33005E-03 2.73419E-13-6.00323E-14
 -1      3246 1.99997E+01-4.06338E-04 1.84881E-06-4.47613E-03 2.16864E-13-1.79289E-13
 -1      3247 1.99998E+01-3.90073E-05 2.09319E-05-4.40336E-03 2.18926E-13-2.09711E-13
 -1      3248 2.00014E+01 3.46783E-04-2.10658E-05-4.11542E-03 2.14881E-13-3.17061E-13
 -1      3249 1.99995E+01-8.85586E-04 4.28422E-06-4.38919E-03 1.49571E-13-2.02704E-13
 -1      3250 1.99995E+01-6.75571E-04 1.03419E-05-4.47239E-03 2.19138E-13-2.61648E-13
 -1      3251 2.00009E+01-5.54212E-04-1.58617E-05-4.36460E-03 2.46908E-13-3.84876E-13
 -1      3252 1.99994E+01-1.14838E-03 5.26761E-06-4.08510E-03 1.00140E-13-2.52587E-13
 -1      3253 1.99993E+01-1.03637E-03 3.43893E-06-4.26208E-03 1.78528E-13-2.33053E-13
 -1      3254 2.00005E+01-1.08098E-03-1.17039E-05-4.27146E-03 1.64049E-13-2.23466E-13
 -1      3255 1.99994E+01-1.29065E-03 5.03277E-06-3.65494E-03 8.53008E-14-3.84154E-13
 -1      3256 1.99993E+01-1.22994E-03-5.47701E-07-3.88590E-03-1.09476E-14-2.98633E-13
 -1      3257 2.00002E+01-1.37173E-03-8.38321E-06-3.96902E-03 5.79221E-14-1.40636E-13
 -1      3258 1.99994E+01-1.38986E-03 1.46960E-06-3.15394E-03 5.63042E-14-3.75842E-13
 -1      3259 1.99993E+01-1.34258E-03-2.89938E-06-3.41444E-03 1.56513E-13-2.13389E-13
 -1      3260 2.00000E+01-1.53529E-03-5.78663E-06-3.54558E-03 8.23258E-14-1.53986E-13
 -1      3261 1.99996E+01-1.53171E-03-1.90501E-06-2.78311E-03-3.22872E-14-1.91089E-13
 -1      3262 1.99994E+01-1.44654E-03-7.27382E-06-2.99599E-03-1.19188E-14-3.32646E-13
 -1      3263 1.99999E+01-1.64486E-03-6.39736E-07-3.14178E-03 6.71526E-14 6.18422E-14
 -1      3264 1.99999E+01-1.74888E-03 9.33240E-06-2.80641E-03-1.86082E-13 2.38067E-13
 -1      3265 1.48576E+01 3.37178E+00-5.80449E-03 1.78927E-01 2.11093E-13-5.52728E-13
 -1      3266 1.48135E+01 3.36956E+00-2.51093E-04 5.78204E-01 2.05431E-13-5.70075E-13
 -1      3267 2.00020E+01-2.94616E-03 3.09870E-06 2.31781E-04 2.30737E-13-2.64872E-13
 -1      3268 2.00020E+01-2.94748E-03 3.20705E-06-2.13721E-04 2.53265E-13-1.35642E-13
 -1      3269 2.00024E+01-2.81224E-03-5.08867E-06 5.03013E-04 2.02148E-13-4.17930E-13
 -1      3270 2.90828E+01-6.74616E-01-1.26813E-01 1.94424E+00 2.25708E-13 3.22312E-13
 -1      3271 2.49739E+01-3.83782E+00-3.76365E-02 2.14524E+00 1.04482E-13-1.80064E-15
 -1      3272 2.30734E+01-4.22867E+00 6.76011E-02 3.95473E+00 2.42334E-13-9.66553E-14
 -1      3273 1.47555E+01-1.96807E+00-1.29468E-02 4.70823E+00-2.60549E-13 2.63900E-13
 -1      3274 1.22369E+01-7.88158E-01 1.17212E-01 3.79697E+00-1.83499E-13 2.73198E-13
 -1      3275 2.00014E+01-2.60932E-03-4.09241E-06 1.93204E-03 1.63056E-13 2.39593E-13
 -1      3276 2.00017E+01-2.73600E-03 9.00365E-06 1.57464E-03-1.77025E-14-5.04542E-14
 -1      3277 2.00021E+01-2.68275E-03-5.17519E-06 1.44908E-03 2.99197E-14-2.21765E-13
 -1      3278 2.09114E+01-6.48503E-01 1.61363E-02 2.21824E+00-3.60963E-14 3.64328E-14
 -1      3279 2.13125E+01-1.10203E+00 9.43780E-03 2.19047E+00-9.65200E-15 2.71430E-16
 -1      3280 1.99932E+01-4.55166E-01-1.90718E-02 2.38265E+00-7.32623E-14 1.45283E-14
 -1      3281 2.18178E+01-1.62002E+00 3.68170E-02 2.23876E+00-5.14679E-14-1.06690E-13
 -1      3282 2.24319E+01-2.23230E+00 5.90001E-03 2.04923E+00-1.17805E-13-1.42871E-13
 -1      3283 2.06006E+01-1.47466E+00-3.81418E-02 2.65774E+00-1.14451E-13 5.63447E-14
 -1      3284 1.05851E+01-1.07027E-01 5.37894E-02 2.59913E+00-1.71464E-13 2.86285E-13
 -1      3285 9.86318E+00 4.71795E-01 7.62892E-02 4.89810E-01-1.04113E-13 3.07865E-13
 -1      3286 1.31336E+01 6.75616E-03 1.24638E-01 2.71756E+00-1.50765E-13 2.89428E-13
 -1      3287 2.44194E+01-4.19339E+00-4.73726E-02 2.04915E+00-1.20711E-13-3.13460E-13
 -1      3288 2.25262E+01-4.13091E+00 1.08845E-01 3.48189E+00-2.06880E-13-2.10693E-13
 -1      3289 1.68905E+01-2.29546E+00 1.02518E-01-4.89171E+00-2.34722E-13-4.46060E-13
 -1      3290 2.00194E+01-3.67863E+00-4.01758E-02-4.60199E+00-2.57509E-13-2.25063E-13
 -1      3291 2.54721E+01-3.32444E+00 2.23233E-02-7.36178E-01-1.18535E-13 1.34108E-13
 -1      3292 2.45384E+01-3.01755E+00 7.32676E-02-1.35649E+00-1.31967E-13 7.57866E-14
 -1      3293 2.25290E+01-7.99507E-01 2.32230E-02 1.58373E-01-8.92595E-14-1.56140E-13
 -1      3294 2.27771E+01-1.17258E+00-1.62070E-02 3.34605E-02-7.44318E-14-1.40051E-13
 -1      3295 2.29677E+01-1.50664E+00-1.90768E-02 2.67150E-01-3.45171E-14-9.37822E-14
 -1      3296 1.99250E+01-3.87678E+00-2.33543E-02 4.52641E+00-2.82559E-13-6.99857E-14
 -1      3297 1.74703E+01-2.77778E+00 1.32523E-01 4.82873E+00-3.49425E-13 1.58512E-13
 -1      3298 1.67161E+01-1.71620E+00 9.00145E-02 4.15078E+00-3.18551E-13 1.61825E-13
 -1      3299 2.10780E+01-3.17576E+00 4.46053E-02 3.49218E+00-2.50081E-13-1.15928E-13
 -1      3300 2.61059E+01 1.44204E+00-4.74742E-02 2.18012E+00-1.85643E-13-4.81434E-13
 -1      3301 2.60195E+01 3.15408E+00-1.50051E-01 2.03223E+00-3.02647E-13-3.95996E-13
 -1      3302 2.00008E+01-2.24938E-03-3.10134E-06 2.52800E-03 3.84443E-13 1.80191E-13
 -1      3303 2.00012E+01-2.43392E-03 9.96604E-06 2.28070E-03 2.79321E-13 2.43755E-13
 -1      3304 2.00016E+01-2.42955E-03-3.98873E-06 2.25725E-03 2.48810E-13 2.59522E-13
 -1      3305 1.60386E+01-2.20081E+00 3.40628E-02 5.55496E+00 3.49859E-13-4.08978E-13
 -1      3306 1.31141E+01-6.32978E-01 1.10081E-01 4.78908E+00 3.38472E-13-5.15893E-13
 -1      3307 1.27462E+01-1.71683E+00 9.42316E-02-4.99793E+00 2.47774E-13 2.42376E-13
 -1      3308 1.53768E+01-2.99174E+00 1.02021E-02-5.72129E+00 3.31422E-13 1.67005E-13
 -1      3309 1.09680E+01 2.44280E-01 1.37712E-01-3.26055E+00-7.50025E-14-7.75643E-13
 -1      3310 1.35172E+01-9.71808E-01 4.07787E-02-4.48351E+00-1.76512E-13-6.35117E-13
 -1      3311 1.82204E+01-3.63678E+00 1.33344E-01-5.42757E+00 3.84838E-13 1.90317E-13
 -1      3312 2.05228E+01-4.48753E+00-7.54306E-02-4.87395E+00 3.94552E-13 8.01650E-14
 -1      3313 2.32916E+01-4.40080E+00 1.28342E-01-3.44948E+00 3.79814E-13-7.57554E-14
 -1      3314 2.50595E+01-4.26575E+00-1.29879E-01-1.82568E+00 2.78267E-13-3.06445E-13
 -1      3315 2.31270E+01-4.02894E+00 9.93109E-02-3.31464E+00-2.48641E-13-4.03488E-14
 -1      3316 2.47643E+01-4.40044E+00-9.71641E-02-2.30739E+00-1.97536E-13 5.34056E-14
 -1      3317 1.06447E+01 5.69053E-01 4.98559E-02 3.42586E+00 2.96901E-13-6.57030E-13
 -1      3318 9.20030E+00 1.12584E+00 1.31449E-01 1.70120E+00 2.26087E-13-7.65610E-13
 -1      3319 1.06351E+01 1.61183E+00 1.29833E-01 9.00376E-01 1.87404E-13-7.19293E-13
 -1      3320 9.90972E+00 2.26687E-01 6.29131E-02-1.71829E+00-1.62492E-14 3.33025E-13
 -1      3321 1.11641E+01-5.68176E-01 9.56151E-02-3.80589E+00 1.17205E-13 3.69843E-13
 -1      3322 2.09718E+01-3.84653E+00 1.59142E-03 4.77172E+00 2.81150E-13-2.00978E-13
 -1      3323 1.87194E+01-2.96281E+00 1.12736E-01 5.17603E+00 3.49304E-13-2.94598E-13
 -1      3324 2.18845E+01-3.39327E+00 5.21727E-02 3.67910E+00 2.85313E-13-1.64405E-13
 -1      3325 2.58949E+01 4.50402E+00-8.59812E-02 1.42641E+00-4.50445E-13-3.94289E-13
 -1      3326 2.56449E+01 5.08059E+00-1.42508E-01 5.13092E-01-4.77604E-13-2.85800E-13
 -1      3327 1.50563E+01 3.16897E+00-2.16684E-02 1.11729E+00 2.10995E-13-5.41705E-13
 -1      3328 1.55598E+01 2.99288E+00 1.83264E-02 1.39881E+00 1.96023E-13-5.24917E-13
 -1      3329 1.46469E+01 2.99750E+00 2.92800E-02 9.80156E-01 1.96908E-13-5.59096E-13
 -1      3330 1.32934E+01-8.29636E-01 1.08755E-01-3.95494E+00 1.57437E-13 1.92624E-13
 -1      3331 2.11887E+01 6.95143E-01-5.50985E-03 2.07468E-01-9.30402E-14-3.34641E-13
 -1      3332 2.53674E+01-3.37087E+00-2.75849E-02-6.47666E-01 1.90632E-13-3.65860E-13
 -1      3333 1.90107E+01 9.93225E-01-7.68605E-03-1.76130E+00 1.08286E-13-2.62798E-13
 -1      3334 1.79503E+01 2.00604E+00 2.03501E-02-1.37015E+00 1.88953E-13-3.42279E-13
 -1      3335 2.19069E+01-1.59054E-02 2.00856E-02 1.99453E-01-1.01170E-13-2.44448E-13
 -1      3336 2.20943E+01-4.36826E-01-1.14537E-02 2.07721E-01-1.01412E-13-2.15036E-13
 -1      3337 2.20526E+01-6.98183E-01-1.46557E-02 4.91835E-01-5.70881E-14-1.86643E-13
 -1      3338 2.00012E+01-2.44659E-03 1.04098E-05-2.27548E-03 9.42124E-14-1.81509E-13
 -1      3339 2.00008E+01-2.26398E-03-3.74514E-06-2.52331E-03-4.48549E-14 1.58776E-13
 -1      3340 2.57783E+01 7.89541E-01-5.27140E-02-2.12600E+00-3.98324E-13 1.17139E-13
 -1      3341 2.39769E+01 3.10928E+00-7.43850E-02-1.23025E+00-3.96051E-13-1.96274E-13
 -1      3342 2.38962E+01 3.59737E+00-4.70493E-02-5.54823E-01-4.26124E-13-2.91683E-13
 -1      3343 2.79867E+01-1.64521E+00-1.24821E-02 1.71390E+00 1.33137E-13 3.52891E-13
 -1      3344 2.79344E+01 3.90639E+00-1.19963E-01 1.82632E+00 5.95579E-13 2.53214E-13
 -1      3345 1.47189E+01-1.40890E-01-5.56972E-03 4.15985E+00 3.20762E-13-4.52686E-13
 -1      3346 1.27279E+01 2.75352E-01 1.09491E-01 3.97687E+00 3.17014E-13-5.56957E-13
 -1      3347 1.26572E+01 1.10067E+00 4.67826E-02 3.02918E+00 2.63126E-13-5.71786E-13
 -1      3348 2.19124E+01-2.87513E+00-6.12499E-02 2.67778E+00-1.35445E-13-1.37246E-13
 -1      3349 1.51777E+01 3.21847E+00-2.20914E-02-3.96054E-01 1.93928E-13-4.98542E-13
 -1      3350 1.47047E+01 3.04595E+00 3.37349E-02-2.13861E-01 1.88904E-13-5.41034E-13
 -1      3351 1.57885E+01 3.06012E+00 1.99083E-02-7.35380E-01 2.07563E-13-4.49012E-13
 -1      3352 2.00017E+01-2.74557E-03 9.19701E-06-1.56295E-03 2.16547E-13 5.01636E-14
 -1      3353 2.00015E+01-2.62076E-03-3.72140E-06-1.92185E-03 2.59421E-13-1.89872E-13
 -1      3354 2.00016E+01-2.44531E-03-3.46675E-06-2.24317E-03 6.63710E-14-6.59625E-14
 -1      3355 1.79020E+01 1.80218E+00-1.57714E-02 1.65037E+00 1.22169E-13-4.85088E-13
 -1      3356 1.87536E+01 1.49879E+00 1.50211E-02 1.46850E+00 7.76796E-14-4.76008E-13
 -1      3357 2.66480E+01-1.50096E-01-8.33648E-02-1.83739E+00-3.67602E-13 1.41716E-13
 -1      3358 2.33332E+01-2.40489E+00 1.27636E-03-1.62657E+00-8.45816E-14 1.72169E-14
 -1      3359 2.26892E+01-1.67910E+00 6.45798E-02-1.83565E+00-4.25220E-14 4.75141E-15
 -1      3360 2.29193E+01-3.10510E+00-7.50662E-02-2.40642E+00-1.27854E-13 2.49037E-14
 -1      3361 2.60926E+01-1.53302E-01-9.24222E-02 2.01790E+00-1.42115E-13-5.25299E-13
 -1      3362 2.00020E+01-2.91376E-03 6.26033E-06-6.98930E-04 2.20239E-13-6.64990E-14
 -1      3363 2.00019E+01-2.85003E-03-1.71862E-07-1.12300E-03 3.54019E-13 2.59364E-14
 -1      3364 2.00021E+01-2.69312E-03-5.25464E-06-1.43146E-03 2.48846E-13 4.54674E-14
 -1      3365 2.00024E+01-2.81599E-03-5.20141E-06-4.87856E-04 2.13348E-13-1.19663E-13
 -1      3366 2.60432E+01-3.41691E+00 1.92888E-02 1.05992E+00 4.92280E-14 2.39288E-14
 -1      3367 2.44963E+01-3.49110E+00 2.43259E-02 1.90782E+00 1.53787E-13-2.53304E-14
 -1      3368 2.60990E+01-2.54349E+00-5.79177E-02-1.46835E-01-5.41477E-14 1.08760E-13
 -1      3369 1.69516E+01 2.34192E+00-1.51934E-02-1.23426E+00 1.70438E-13-3.75337E-13
 -1      3370 2.46860E+01 4.21845E+00-7.28572E-02-6.38590E-02-4.35180E-13-2.85534E-13
 -1      3371 2.57957E+01 5.16043E+00-1.18861E-01-4.40019E-01-5.23567E-13-2.50331E-13
 -1      3372 2.58509E+01-3.79053E+00 5.51623E-02 6.55514E-01-8.30423E-14-3.38627E-13
 -1      3373 2.18641E+01-3.28652E+00 5.69204E-02-3.37641E+00-2.09957E-13-1.20455E-13
 -1      3374 2.56632E+01-1.11979E+00-1.67915E-02 1.51774E+00-9.00079E-14-4.64437E-13
 -1      3375 2.20256E+01-3.96811E+00 4.98417E-02-3.61248E+00 3.56201E-13-6.62456E-14
 -1      3376 1.15053E+01 6.15165E-01 1.07566E-01-5.89612E-01-6.44317E-14 3.15276E-13
 -1      3377 1.74048E+01-2.85231E+00 8.89940E-02-5.03040E+00 2.72789E-13 1.32772E-13
 -1      3378 1.15735E+01 1.01736E+00 1.31348E-01-2.19176E+00 9.46118E-15-7.23609E-13
 -1      3379 1.78987E+01-2.00677E+00 6.25133E-02 4.70330E+00 3.26912E-13-3.46161E-13
 -1      3380 2.71982E+01-2.77331E+00-1.06217E-01 8.81137E-01 4.86330E-15 3.09267E-13
 -1      3381 1.49158E+01-1.64058E-01 4.52565E-02-3.68465E+00-1.11050E-13-5.26662E-13
 -1      3382 1.58647E+01-1.30597E+00 1.01628E-01-4.47000E+00-1.93769E-13-5.18953E-13
 -1      3383 1.77649E+01-1.62548E+00-2.76553E-02-4.04510E+00-1.72586E-13-3.68178E-13
 -1      3384 2.61839E+01-3.64766E+00 4.49752E-02-7.16884E-01-1.37593E-13 1.74513E-13
 -1      3385 1.93696E+01 7.75748E-01 3.27133E-03 1.58093E+00 7.71334E-14-4.18223E-13
 -1      3386 1.95111E+01 1.19131E+00-8.82723E-05 1.14965E+00 5.58399E-14-4.32218E-13
 -1      3387 2.02250E+01 9.38719E-01 1.27705E-02 8.83574E-01 1.23849E-14-3.99957E-13
 -1      3388 2.58525E+01 4.38492E+00-1.03800E-01-1.44288E+00-5.43288E-13-1.27183E-13
 -1      3389 2.00004E+01-1.91770E-03 2.44017E-06 2.86102E-03 1.92077E-13-1.71898E-13
 -1      3390 2.00006E+01-2.10891E-03 3.92151E-06 2.70577E-03 2.59220E-13 2.42547E-14
 -1      3391 2.00010E+01-2.13175E-03-1.73669E-06 2.77461E-03 2.58259E-13 5.71973E-14
 -1      3392 2.00005E+01-1.86322E-03-6.21698E-07 3.07303E-03 7.59687E-15-2.15116E-13
 -1      3393 2.13897E+01-2.21325E-01 2.90204E-02-1.68679E+00 7.33758E-14-6.04907E-14
 -1      3394 2.03544E+01 1.26491E-01-1.60538E-02-1.84713E+00 8.84251E-14-1.46129E-13
 -1      3395 1.90435E+01 5.54582E-01 5.16118E-03-2.05555E+00 5.30747E-14-2.70471E-13
 -1      3396 2.17956E+01-8.91749E-01 4.49040E-03-1.76990E+00 2.82612E-14-5.85820E-14
 -1      3397 2.57022E+01 3.42118E+00-6.84084E-02-1.69315E+00-5.01418E-13-1.12330E-13
 -1      3398 2.38774E+01-2.19971E+00 3.51362E-02 4.46226E-01 2.00952E-14-4.86213E-14
 -1      3399 2.44518E+01-2.27310E+00 4.04514E-03-1.01182E-03-1.92231E-14-1.37251E-14
 -1      3400 2.50861E+01-2.38635E+00 1.80053E-02-1.73888E-01-1.36453E-14 6.27033E-14
 -1      3401 2.55513E+01-1.90484E+00-1.67499E-02-7.11649E-01-9.82717E-14 9.12985E-14
 -1      3402 2.54121E+01-2.05719E+00-8.97269E-03 1.00844E+00 3.19814E-14-3.75255E-13
 -1      3403 2.43644E+01-2.61507E+00-2.28733E-02 9.86385E-02 8.80654E-14-2.68185E-13
 -1      3404 2.39263E+01-2.67648E+00 3.33097E-02-3.65578E-01 1.67170E-13-1.81951E-13
 -1      3405 2.30427E+01-2.56079E+00-1.56117E-02-8.41278E-01 1.61222E-13-1.41437E-13
 -1      3406 2.25438E+01-2.26494E+00 3.15787E-02-1.14996E+00 1.50862E-13-1.07288E-13
 -1      3407 2.32812E+01-3.06576E+00-4.53888E-02-1.23369E+00 1.97643E-13-1.84626E-13
 -1      3408 2.18821E+01-1.93407E+00-2.50529E-03-1.32963E+00 8.78397E-14-4.51262E-14
 -1      3409 2.14530E+01-1.56055E+00 2.14983E-02-1.47706E+00 4.16082E-14-7.90435E-14
 -1      3410 2.18056E+01-2.34264E+00-3.58682E-02-1.75127E+00 9.03424E-14-3.72142E-14
 -1      3411 2.10267E+01-1.21533E+00 3.74728E-03-1.48577E+00-3.81112E-14-7.51017E-14
 -1      3412 2.07103E+01-8.89585E-01 1.21853E-02-1.52466E+00-3.30567E-14-6.46121E-14
 -1      3413 2.07943E+01-1.48107E+00-2.37622E-02-1.83800E+00 1.90234E-15-1.24488E-14
 -1      3414 2.04654E+01-6.07445E-01 5.58670E-03-1.45445E+00-1.55887E-14-9.40249E-14
 -1      3415 2.02543E+01-3.65073E-01 6.00424E-03-1.43122E+00-3.44663E-14-9.55217E-14
 -1      3416 2.01767E+01-7.52967E-01-1.38690E-02-1.71388E+00-1.20409E-14 5.89405E-14
 -1      3417 2.01314E+01-1.63347E-01 5.29490E-03-1.33269E+00-6.95782E-14-2.96041E-14
 -1      3418 2.00009E+01-1.91960E-03 2.26391E-03-1.27778E+00-6.00031E-14-5.63363E-14
 -1      3419 1.98404E+01-2.23464E-01-7.22962E-03-1.50993E+00-5.61758E-14 3.51338E-14
 -1      3420 1.99533E+01 1.27548E-01 4.28016E-03-1.17480E+00-5.77259E-14-2.08522E-14
 -1      3421 1.98782E+01 2.23483E-01 1.49263E-04-1.10602E+00-1.11415E-13 2.81379E-14
 -1      3422 1.96857E+01 1.23848E-01-3.17456E-03-1.29090E+00-4.26085E-14 5.43541E-14
 -1      3423 1.98736E+01 2.96586E-01 3.26083E-03-1.00866E+00-1.94673E-13 6.29621E-14
 -1      3424 1.98336E+01 3.44444E-01-9.59144E-04-9.36117E-01-1.67432E-13 3.92460E-14
 -1      3425 1.96398E+01 3.27902E-01-8.57105E-04-1.08326E+00-1.39327E-13 7.97518E-14
 -1      3426 1.98514E+01 3.77265E-01 2.46014E-03-8.48191E-01-8.12779E-14 6.43867E-14
 -1      3427 1.98323E+01 3.92328E-01-1.47185E-03-7.77656E-01 3.67434E-14 1.03488E-13
 -1      3428 1.96538E+01 4.28385E-01 3.89340E-04-8.96228E-01-7.75951E-14 2.37717E-13
 -1      3429 1.98598E+01 3.98401E-01 1.88602E-03-7.00323E-01 6.52203E-14 1.34110E-13
 -1      3430 1.98521E+01 3.92693E-01-1.63920E-03-6.35061E-01 6.36133E-14 1.66754E-13
 -1      3431 1.96970E+01 4.58713E-01 9.89676E-04-7.31975E-01 6.92745E-14 2.87983E-13
 -1      3432 1.98820E+01 3.82394E-01 1.48355E-03-5.68364E-01-7.85125E-16 9.71387E-14
 -1      3433 1.98800E+01 3.64761E-01-1.61029E-03-5.10107E-01-4.68608E-15 6.09748E-14
 -1      3434 1.97508E+01 4.44696E-01 1.20828E-03-5.90118E-01 4.58753E-14 1.85393E-13
 -1      3435 1.99082E+01 3.45555E-01 1.19570E-03-4.53568E-01 1.25159E-14-1.90021E-14
 -1      3436 1.99087E+01 3.22162E-01-1.47532E-03-4.03043E-01 2.52883E-14-6.87680E-15
 -1      3437 1.98047E+01 4.05197E-01 1.21033E-03-4.69356E-01-5.03116E-14 3.46953E-14
 -1      3438 1.99333E+01 2.99133E-01 9.80282E-04-3.55902E-01-4.32003E-14-1.12525E-14
 -1      3439 1.99345E+01 2.74044E-01-1.29009E-03-3.13154E-01-1.49216E-13-7.94561E-14
 -1      3440 1.98534E+01 3.53367E-01 1.09931E-03-3.68009E-01-3.23113E-14-9.86811E-14
 -1      3441 1.99548E+01 2.50458E-01 8.10319E-04-2.74487E-01-2.82243E-13 5.38856E-14
 -1      3442 1.99560E+01 2.26185E-01-1.08918E-03-2.39110E-01-1.23470E-13-1.95203E-14
 -1      3443 1.98944E+01 2.97915E-01 9.38797E-04-2.84198E-01-1.25430E-13-9.97438E-14
 -1      3444 1.99720E+01 2.03989E-01 6.70145E-04-2.07906E-01 7.26115E-14-1.31798E-13
 -1      3445 1.99727E+01 1.81940E-01-8.93480E-04-1.79223E-01 1.21817E-13-6.39794E-14
 -1      3446 1.99274E+01 2.44255E-01 7.66443E-04-2.15930E-01-8.60552E-14 1.52416E-13
 -1      3447 1.99850E+01 1.62162E-01 5.51301E-04-1.54451E-01 1.25411E-14-2.09017E-13
 -1      3448 1.99852E+01 1.42997E-01-7.14771E-04-1.31640E-01-1.21256E-13-2.48713E-13
 -1      3449 1.99528E+01 1.95448E-01 6.03210E-04-1.61178E-01-1.05640E-14-2.99676E-14
 -1      3450 1.99942E+01 1.26059E-01 4.49393E-04-1.12298E-01-1.16923E-13-1.10751E-13
 -1      3451 1.99940E+01 1.09953E-01-5.58747E-04-9.44963E-02 3.07137E-14-1.40864E-14
 -1      3452 1.99717E+01 1.52947E-01 4.59461E-04-1.17956E-01-2.17859E-14 1.21487E-13
 -1      3453 2.00004E+01 9.58911E-02 3.62066E-04-7.96506E-02 1.66631E-13-5.73232E-14
 -1      3454 1.99999E+01 8.27259E-02-4.27149E-04-6.60176E-02 1.92040E-13 1.79498E-14
 -1      3455 1.99853E+01 1.17155E-01 3.39042E-04-8.43878E-02 1.24331E-13 2.25773E-13
 -1      3456 2.00043E+01 7.13538E-02 2.87841E-04-5.48252E-02 1.34101E-13 9.78094E-15
 -1      3457 2.00036E+01 6.08487E-02-3.19261E-04-4.45864E-02 7.31804E-14 8.51132E-14
 -1      3458 1.99946E+01 8.78313E-02 2.41984E-04-5.87554E-02 1.77603E-13 2.28598E-13
 -1      3459 2.00064E+01 5.18630E-02 2.25518E-04-3.63096E-02 4.47235E-14 6.43440E-14
 -1      3460 2.00056E+01 4.36641E-02-2.32976E-04-2.87785E-02 3.83670E-15 1.30387E-13
 -1      3461 2.00006E+01 6.43763E-02 1.66268E-04-3.95319E-02 9.53636E-14 1.24916E-13
 -1      3462 2.00073E+01 3.67170E-02 1.73934E-04-2.27877E-02-5.69538E-14 1.56767E-13
 -1      3463 2.00065E+01 3.04529E-02-1.65520E-04-1.73749E-02-9.50274E-15 5.71680E-14
 -1      3464 2.00043E+01 4.60230E-02 1.08948E-04-2.53948E-02 2.39485E-14 3.35289E-14
 -1      3465 2.00074E+01 2.51956E-02 1.31885E-04-1.31446E-02-8.03805E-14 1.07826E-13
 -1      3466 2.00066E+01 2.05119E-02-1.13926E-04-9.35724E-03-3.59330E-14 2.56795E-15
 -1      3467 2.00062E+01 3.19621E-02 6.68246E-05-1.52246E-02-5.39767E-14-2.65930E-14
 -1      3468 2.00070E+01 1.66201E-02 9.81458E-05-6.45807E-03 4.27942E-15-1.16066E-13
 -1      3469 2.00062E+01 1.31971E-02-7.53310E-05-3.89374E-03-6.33574E-14-1.96146E-14
 -1      3470 2.00070E+01 2.14162E-02 3.68402E-05-8.09386E-03-6.41992E-14-4.07924E-15
 -1      3471 2.00062E+01 1.03838E-02 7.15099E-05-1.98138E-03-1.21334E-13 4.12464E-14
 -1      3472 2.00056E+01 7.94445E-03-4.71364E-05-3.18267E-04-1.00173E-13 9.47001E-14
 -1      3473 2.00070E+01 1.36819E-02 1.62714E-05-3.24930E-03-5.65813E-14 1.97078E-14
 -1      3474 2.00054E+01 5.96462E-03 5.08351E-05 8.78103E-04-1.14601E-13 1.12756E-13
 -1      3475 2.00048E+01 4.27628E-03-2.70867E-05 1.89211E-03-9.60540E-14 1.89561E-13
 -1      3476 2.00065E+01 8.14748E-03 2.80837E-06-9.04636E-05-6.46006E-14 6.48445E-14
 -1      3477 2.00045E+01 2.92616E-03 3.50784E-05 2.58151E-03-1.18198E-13 1.24239E-13
 -1      3478 2.00040E+01 1.79781E-03-1.32876E-05 3.13985E-03-5.99561E-14 6.66528E-14
 -1      3479 2.00057E+01 4.29735E-03-5.44027E-06 1.85235E-03-1.75012E-13 2.76005E-16
 -1      3480 2.00036E+01 9.11552E-04 2.33181E-05 3.48038E-03-5.56940E-14 9.13174E-15
 -1      3481 2.00032E+01 1.89236E-04-4.19815E-06 3.72822E-03-5.69525E-14 3.28619E-14
 -1      3482 2.00049E+01 1.70714E-03-9.98366E-06 2.93957E-03-1.13000E-13 4.06852E-14
 -1      3483 2.00028E+01-3.65947E-04 1.47933E-05 3.83677E-03 1.11559E-13 7.52017E-14
 -1      3484 2.00025E+01-8.04615E-04 1.46611E-06 3.88024E-03 1.26012E-13 1.57240E-13
 -1      3485 2.00040E+01 3.39051E-05-1.20267E-05 3.44215E-03 6.16105E-14 1.10007E-13
 -1      3486 2.00021E+01-1.13402E-03 8.85533E-06 3.84063E-03 7.03203E-14 2.30078E-13
 -1      3487 2.00018E+01-1.38494E-03 4.80222E-06 3.75466E-03 5.80370E-14 2.32747E-13
 -1      3488 2.00031E+01-9.95185E-04-1.22434E-05 3.55829E-03 1.10081E-13 1.87434E-13
 -1      3489 2.00015E+01-1.57121E-03 5.05491E-06 3.62614E-03-9.12419E-14 1.45755E-13
 -1      3490 2.00013E+01-1.70995E-03 4.67585E-06 3.46133E-03-1.10926E-13 6.13546E-14
 -1      3491 2.00023E+01-1.59610E-03-1.19615E-05 3.43064E-03-9.76798E-14 3.04087E-14
 -1      3492 2.82606E+01 5.41375E+00-1.37762E-01-3.08729E-01 7.82679E-13 3.83278E-14
 -1      3493 1.92281E+01 6.70974E-01-5.47442E-03 1.61665E+00-1.07875E-13 1.62736E-13
 -1      3494 1.92314E+01 5.89751E-01 8.17354E-03 1.76103E+00-1.41810E-13 9.81741E-14
 -1      3495 1.90872E+01 4.50475E-01-4.66368E-03 1.95432E+00-1.36215E-13 1.31153E-13
 -1      3496 1.91620E+01 2.58256E-01 1.43228E-02 2.11752E+00-1.33712E-13 1.52355E-13
 -1      3497 1.85940E+01 6.66472E-01 2.95225E-03 1.80802E+00-1.13791E-13 1.79382E-13
 -1      3498 1.95501E+01 7.14557E-01-4.56273E-03 1.10229E+00-1.10879E-13 3.57752E-13
 -1      3499 1.95211E+01 7.36065E-01 2.76779E-03 1.21502E+00-1.02507E-13 2.82277E-13
 -1      3500 1.96791E+01 6.46987E-01-3.88470E-03 8.99912E-01 4.52030E-14 1.63286E-13
 -1      3501 1.96541E+01 6.86397E-01 1.92909E-03 9.98965E-01-3.64849E-14 2.20442E-13
 -1      3502 1.93549E+01 7.96138E-01 3.84412E-03 9.93267E-01-4.03943E-15 1.10173E-13
 -1      3503 1.97795E+01 5.60701E-01-3.24406E-03 7.26180E-01 2.20169E-14 1.96768E-13
 -1      3504 1.97614E+01 6.06617E-01 1.54429E-03 8.12148E-01 4.35692E-14 2.28412E-13
 -1      3505 1.95306E+01 7.09808E-01 3.18349E-03 8.10767E-01 3.90010E-14-1.68640E-14
 -1      3506 1.98543E+01 4.71111E-01-2.66800E-03 5.78213E-01-4.90019E-14 1.87539E-13
 -1      3507 1.98428E+01 5.17019E-01 1.35308E-03 6.51649E-01-5.00644E-14 2.11529E-13
 -1      3508 1.96665E+01 6.10019E-01 2.50375E-03 6.54998E-01-4.84625E-15 1.93780E-14
 -1      3509 1.99080E+01 3.86564E-01-2.16393E-03 4.53787E-01 9.44001E-15 2.10722E-13
 -1      3510 1.99018E+01 4.29026E-01 1.22623E-03 5.15450E-01 2.10728E-14 2.59935E-13
 -1      3511 1.97688E+01 5.10150E-01 1.89660E-03 5.22405E-01-4.81856E-14 1.22102E-13
 -1      3512 1.99454E+01 3.11068E-01-1.73205E-03 3.50715E-01 3.58226E-14 1.96062E-13
 -1      3513 1.99430E+01 3.48520E-01 1.10993E-03 4.01603E-01 6.53997E-14 2.36667E-13
 -1      3514 1.98440E+01 4.17449E-01 1.39495E-03 4.10695E-01 6.70188E-14 9.79906E-14
 -1      3515 1.99707E+01 2.46067E-01-1.36868E-03 2.66675E-01 1.03153E-13 2.06165E-13
 -1      3516 1.99708E+01 2.78043E-01 9.87646E-04 3.07966E-01 5.76151E-14 1.76935E-13
 -1      3517 1.98983E+01 3.35332E-01 1.00044E-03 3.17896E-01 6.38804E-14 1.23979E-13
 -1      3518 1.99872E+01 1.91571E-01-1.06782E-03 1.99249E-01-1.46033E-13 1.67784E-13
 -1      3519 1.99888E+01 2.18211E-01 8.59325E-04 2.32203E-01 4.45508E-14 1.80209E-13
 -1      3520 1.99366E+01 2.64918E-01 7.00667E-04 2.42013E-01 8.84421E-14 2.16234E-13
 -1      3521 1.99976E+01 1.46830E-01-8.22315E-04 1.46019E-01-4.15329E-15 4.37265E-14
 -1      3522 1.99998E+01 1.68590E-01 7.30555E-04 1.71895E-01-1.05991E-13 9.13903E-14
 -1      3523 1.99632E+01 2.06010E-01 4.78741E-04 1.80973E-01-3.99756E-14 1.05865E-13
 -1      3524 2.00037E+01 1.10750E-01-6.24667E-04 1.04678E-01 1.93635E-14 1.87616E-14
 -1      3525 2.00062E+01 1.28220E-01 6.07447E-04 1.24667E-01 8.57195E-14 6.75203E-14
 -1      3526 1.99811E+01 1.57709E-01 3.17929E-04 1.32681E-01-4.03790E-14-8.53461E-14
 -1      3527 2.00069E+01 8.21197E-02-4.67592E-04 7.31067E-02-1.73298E-13 1.03916E-13
 -1      3528 2.00094E+01 9.59243E-02 4.94655E-04 8.82906E-02-1.46250E-13 8.45531E-15
 -1      3529 1.99928E+01 1.18794E-01 2.03633E-04 9.51146E-02-2.82124E-15-4.12532E-14
 -1      3530 2.00083E+01 5.97502E-02-3.44348E-04 4.94177E-02 1.16562E-13 8.05579E-14
 -1      3531 2.00106E+01 7.04918E-02 3.94939E-04 6.07486E-02 4.27216E-14 1.63446E-13
 -1      3532 2.00002E+01 8.79415E-02 1.23948E-04 6.63918E-02-4.54697E-14-9.35782E-14
 -1      3533 2.00085E+01 4.25400E-02-2.48899E-04 3.19794E-02 7.69782E-15 2.84782E-13
 -1      3534 2.00105E+01 5.07692E-02 3.09387E-04 4.02730E-02 6.93058E-14 2.69978E-13
 -1      3535 2.00044E+01 6.38594E-02 6.95650E-05 4.48252E-02 4.35308E-14 1.09053E-13
 -1      3536 2.00081E+01 2.95095E-02-1.75980E-04 1.94138E-02-2.50570E-14 2.41953E-13
 -1      3537 2.00097E+01 3.57120E-02 2.37845E-04 2.53529E-02 8.77190E-15 2.33547E-13
 -1      3538 2.00067E+01 4.53534E-02 3.34008E-05 2.89452E-02 2.94374E-14 3.60057E-13
 -1      3539 2.00073E+01 1.98121E-02-1.21090E-04 1.05813E-02-1.76588E-13 2.29920E-13
 -1      3540 2.00086E+01 2.44051E-02 1.79351E-04 1.47263E-02-3.40941E-14 2.25208E-13
 -1      3541 2.00075E+01 3.13618E-02 1.01656E-05 1.75040E-02-2.52089E-14 3.74172E-13
 -1      3542 2.00063E+01 1.27316E-02-8.04429E-05 4.55799E-03-2.51655E-13 1.98831E-13
 -1      3543 2.00074E+01 1.60661E-02 1.32493E-04 7.36018E-03-3.01698E-13 2.02373E-13
 -1      3544 2.00075E+01 2.09671E-02-4.03513E-06 9.46636E-03-2.00539E-13 2.26823E-13
 -1      3545 2.00052E+01 7.67348E-03-5.09042E-05 6.07976E-04-1.71583E-13 8.64773E-14
 -1      3546 2.00061E+01 1.00397E-02 9.56698E-05 2.42458E-03-2.48669E-13 1.32949E-13
 -1      3547 2.00070E+01 1.33934E-02-1.20364E-05 3.99083E-03-2.25105E-13 1.74717E-13
 -1      3548 2.00043E+01 4.15235E-03-2.99153E-05-1.84400E-03 1.05099E-13 1.65946E-13
 -1      3549 2.00049E+01 5.78631E-03 6.72735E-05-7.35279E-04-6.93136E-14 2.22355E-13
 -1      3550 2.00062E+01 7.99667E-03-1.58814E-05 4.06270E-04-1.62039E-13-2.07881E-16
 -1      3551 2.00034E+01 1.77714E-03-1.54157E-05-3.23957E-03 3.48742E-13 2.05589E-14
 -1      3552 2.00039E+01 2.86819E-03 4.57987E-05-2.62679E-03 3.21808E-13 1.84903E-13
 -1      3553 2.00053E+01 4.25125E-03-1.70284E-05-1.81251E-03 1.10138E-13 1.91503E-13
 -1      3554 2.00026E+01 2.36717E-04-5.77764E-06-3.91104E-03 2.66478E-13-5.31792E-14
 -1      3555 2.00030E+01 9.35097E-04 2.99022E-05-3.63571E-03 2.91910E-13 4.13829E-15
 -1      3556 2.00044E+01 1.73389E-03-1.65110E-05-3.06876E-03 3.10936E-13 2.20961E-13
 -1      3557 2.00019E+01-7.14241E-04 2.47346E-07-4.10274E-03 1.12974E-13-3.05169E-14
 -1      3558 2.00022E+01-2.90344E-04 1.84191E-05-4.04919E-03 2.39241E-13-7.34966E-14
 -1      3559 2.00035E+01 1.07916E-04-1.50743E-05-3.66580E-03 2.70412E-13 3.32353E-13
 -1      3560 2.00014E+01-1.26750E-03 3.92722E-06-3.98888E-03 3.40186E-14 1.38885E-13
 -1      3561 2.00016E+01-1.02609E-03 1.03956E-05-4.07546E-03 1.30756E-13 6.29986E-14
 -1      3562 2.00027E+01-8.92167E-04-1.32218E-05-3.82645E-03 5.02246E-15 2.45024E-13
 -1      3563 2.00009E+01-1.57513E-03 5.50324E-06-3.68938E-03 1.80331E-15 1.85783E-13
 -1      3564 2.00010E+01-1.44433E-03 4.33549E-06-3.86193E-03 5.77770E-14 1.76093E-13
 -1      3565 2.00020E+01-1.47220E-03-1.10734E-05-3.70973E-03 7.68119E-14 5.04950E-13
 -1      3566 2.00005E+01-1.75398E-03 3.46337E-06-3.28367E-03 8.65858E-14 3.49131E-13
 -1      3567 2.00006E+01-1.67213E-03 2.07759E-06-3.50309E-03-4.54109E-14 2.29849E-13
 -1      3568 2.00014E+01-1.80138E-03-7.89503E-06-3.42819E-03-2.33549E-14 4.81364E-13
 -1      3569 2.00028E+01-2.66440E-03-5.59338E-07 7.77944E-04 7.32949E-14-6.29008E-13
 -1      3570 2.00029E+01-2.69334E-03 3.28011E-06 2.83717E-04 1.20126E-13-4.75817E-13
 -1      3571 1.70454E+01 2.27460E+00 2.37935E-02 1.70977E+00 1.51251E-13-5.00880E-13
 -1      3572 1.75119E+01 1.52162E+00-7.15294E-03 2.02745E+00 1.45130E-13-4.64466E-13
 -1      3573 1.62377E+01 2.54663E+00-2.56335E-02 1.66299E+00 1.89595E-13-5.03228E-13
 -1      3574 2.61647E+01-1.00874E+00 2.97281E-02-1.48150E+00-2.38323E-13 1.47500E-13
 -1      3575 2.00005E+01-2.11266E-03 9.78579E-06-2.66213E-03-1.02630E-13 3.47513E-13
 -1      3576 2.00002E+01-1.92243E-03-3.00881E-07-2.75482E-03-1.57941E-13 5.84442E-13
 -1      3577 2.00002E+01-1.86699E-03-2.98315E-06-2.92582E-03-1.42694E-13 5.47161E-13
 -1      3578 2.00009E+01-2.16049E-03-3.71704E-06-2.73920E-03-1.41496E-13 3.29472E-13
 -1      3579 2.28851E+01-3.31696E+00-2.03111E-02 2.72828E+00 1.80713E-13-1.10749E-13
 -1      3580 2.12995E+01-2.68543E+00 4.32974E-02 3.34477E+00 2.30049E-13-1.86676E-13
 -1      3581 2.01801E+01-2.27932E+00 6.16192E-02 3.44153E+00-2.54489E-13-1.36176E-15
 -1      3582 2.00024E+01-2.52300E-03-5.56623E-06 1.74813E-03 1.93272E-13 1.91536E-14
 -1      3583 2.00027E+01-2.60084E-03 6.10369E-06 1.30151E-03 1.69802E-13-4.92335E-13
 -1      3584 2.00032E+01-2.49410E-03-1.25463E-06 1.09347E-03 4.72035E-14-4.62871E-13
 -1      3585 1.90621E+01-2.20763E-02 1.24646E-04 2.37158E+00-1.23676E-13 2.46449E-13
 -1      3586 1.92892E+01-3.86017E-01 2.53171E-02 2.54917E+00-8.79169E-14 2.21080E-13
 -1      3587 1.83401E+01 2.88414E-01 6.06498E-04 2.26434E+00-9.60600E-14 3.07721E-13
 -1      3588 1.93161E+01-8.58525E-01 1.63241E-02 2.86777E+00-1.76996E-13 1.56632E-13
 -1      3589 1.98168E+01-1.47131E+00 3.89668E-02 3.03197E+00-2.10313E-13 1.05623E-13
 -1      3590 1.82186E+01-4.91074E-01-2.41146E-02 2.89773E+00-1.98038E-13 2.55673E-13
 -1      3591 1.44229E+01-2.04717E-01-2.38106E-02 3.10459E+00-2.39253E-13 2.16018E-13
 -1      3592 1.32078E+01 5.79244E-01 4.44566E-02 1.92785E+00-2.23386E-13 2.47760E-13
 -1      3593 1.93950E+01 7.36904E-01-5.18847E-03 1.33819E+00-1.53315E-13 3.15664E-13
 -1      3594 1.93712E+01 7.21690E-01 4.53507E-03 1.46573E+00-7.16966E-14 2.55641E-13
 -1      3595 1.91357E+01 8.46037E-01 4.28214E-03 1.20932E+00-1.13702E-13 2.08445E-13
 -1      3596 2.08769E+01-3.38231E+00 9.32204E-02-3.84872E+00 3.42537E-13-6.69248E-14
 -1      3597 2.25441E+01-3.86950E+00-9.68081E-02-2.77793E+00 3.19328E-13-1.56616E-13
 -1      3598 2.00017E+01-2.25926E-03-6.41582E-06 2.56079E-03 1.39727E-13 2.95986E-13
 -1      3599 2.00021E+01-2.39259E-03 9.44278E-06 2.20802E-03 1.36743E-13 1.44115E-13
 -1      3600 2.00026E+01-2.33654E-03 1.30417E-06 2.08695E-03 9.76700E-14 9.83225E-15
 -1      3601 1.16219E+01 1.71829E+00 5.60374E-02-1.26965E+00 7.86218E-14-6.82440E-13
 -1      3602 1.29562E+01 9.87741E-01 4.10896E-02-2.62461E+00-2.54310E-14-6.24119E-13
 -1      3603 1.23038E+01 8.65397E-01 8.90149E-03 4.18998E-01-8.45639E-14 2.71685E-13
 -1      3604 1.25248E+01 6.71122E-01 3.70060E-02-1.57107E+00-2.23610E-14 2.70978E-13
 -1      3605 2.09563E+01 5.27117E-01-7.25362E-03 5.31904E-01-4.31698E-14-3.19374E-13
 -1      3606 1.34134E+01-2.45484E-01 2.45041E-02-3.26630E+00 1.21798E-13 1.77150E-13
 -1      3607 1.48940E+01-1.29966E+00 3.52343E-02-4.37384E+00 1.68719E-13 8.30447E-14
 -1      3608 1.14522E+01 1.83226E+00 3.53639E-02 1.46922E+00 2.25500E-13-6.61401E-13
 -1      3609 1.11137E+01 1.96689E+00 5.45979E-02 4.45606E-02 1.70347E-13-6.94882E-13
 -1      3610 1.66831E+01-2.01521E+00 7.02790E-02-4.58629E+00 2.07960E-13 5.17260E-14
 -1      3611 1.87084E+01-2.98770E+00-5.68082E-02-4.46122E+00 2.68018E-13 2.51951E-14
 -1      3612 1.67295E+01-1.36237E+00 6.83927E-02-3.91478E+00 1.50036E-13 9.84230E-14
 -1      3613 2.08700E+01-2.30148E+00 1.12277E-01-3.38857E+00-1.66128E-13-1.51110E-13
 -1      3614 1.63434E+01 2.18370E+00 2.04003E-02-1.39929E+00 1.34137E-13-4.06315E-13
 -1      3615 1.89960E+01-1.90297E+00-4.55151E-02 4.03842E+00 2.74485E-13-3.09256E-13
 -1      3616 1.70908E+01-8.49951E-01 9.69881E-02 4.20413E+00 2.95718E-13-3.75797E-13
 -1      3617 1.96383E+01-1.46045E+00 5.46482E-02-3.22882E+00-1.14554E-13-2.24512E-13
 -1      3618 1.57494E+01 2.37595E+00 9.31833E-03 1.83711E+00 1.98621E-13-5.02239E-13
 -1      3619 1.84416E+01-1.84990E+00-3.66190E-02 3.76865E+00-2.88710E-13 1.20876E-13
 -1      3620 1.64975E+01-8.23515E-01 5.25210E-02 3.54905E+00-2.60876E-13 1.64067E-13
 -1      3621 2.15003E+01-3.89571E-01 2.96522E-02 9.21988E-01 1.71673E-15-2.49741E-13
 -1      3622 2.18733E+01-9.19417E-01-2.82338E-03 9.41672E-01 6.04833E-15-2.25498E-13
 -1      3623 2.45530E+01-2.99633E+00-6.31000E-02 8.58095E-01 5.95791E-14 1.18967E-14
 -1      3624 2.10931E+01-1.26226E+00-2.48832E-02-2.38164E+00-1.43748E-14-8.00540E-14
 -1      3625 2.52158E+01-2.86997E+00-5.77403E-02 5.20762E-02 1.12156E-13-3.97580E-13
 -1      3626 2.00009E+01-1.76507E-03 3.37454E-06 3.36958E-03-1.27944E-13-5.65594E-14
 -1      3627 2.00008E+01-1.83418E-03 3.53113E-06 3.18868E-03-9.47061E-14-2.04042E-13
 -1      3628 2.00010E+01-1.97344E-03-4.18982E-06 3.05116E-03-8.25718E-14-3.04693E-13
 -1      3629 2.00016E+01-1.88053E-03-1.13986E-05 3.24201E-03-2.01451E-13-7.14223E-14
 -1      3630 1.88763E+01 8.21958E-01 4.13378E-03 1.47241E+00-1.35676E-13 2.43939E-13
 -1      3631 1.62494E+01-3.36168E-02 2.40734E-02 3.68463E+00 2.67356E-13-4.27658E-13
 -1      3632 2.30366E+01-3.33934E+00 1.09391E-02-1.96171E+00 2.59605E-13-1.71736E-13
 -1      3633 2.43152E+01-3.57955E+00 8.71107E-02-1.48896E+00 3.04828E-13-2.69423E-13
 -1      3634 2.00034E+01-2.55338E-03-4.71320E-07 1.39559E-05 5.05275E-14-3.59183E-13
 -1      3635 2.00029E+01-2.69688E-03 2.80737E-06-2.63814E-04 1.00838E-13-2.42669E-13
 -1      3636 2.00028E+01-2.67011E-03 5.46076E-08-7.56076E-04 9.04115E-14-7.45912E-14
 -1      3637 1.38383E+01 8.82555E-01 4.54903E-02 9.24950E-01-1.17783E-13 2.27519E-13
 -1      3638 2.00002E+01-1.79733E-03 1.27165E-06-3.08372E-03 4.40302E-14 3.91906E-13
 -1      3639 2.38441E+01-3.18454E+00 1.43481E-02 1.84488E+00 1.49152E-13-4.32085E-14
 -1      3640 2.32855E+01-2.71669E+00 8.55114E-03 1.71404E+00 1.19111E-13-1.05803E-13
 -1      3641 1.70436E+01 1.13665E+00-2.61552E-02 2.47842E+00 1.89019E-13-4.45940E-13
 -1      3642 1.82266E+01 7.34421E-01 2.41124E-02 2.41816E+00 1.59544E-13-4.49452E-13
 -1      3643 2.00012E+01-2.08585E-03 6.06416E-06-2.90421E-03-9.27334E-14 4.23333E-13
 -1      3644 2.00008E+01-1.96624E-03-6.23543E-06-3.05791E-03-1.53121E-13 5.43561E-13
 -1      3645 1.64690E+01 1.48996E+00 3.41816E-02-2.08971E+00 5.25855E-14-4.10719E-13
 -1      3646 1.49590E+01 2.14721E+00-2.31605E-02-1.52608E+00 1.08053E-13-4.75765E-13
 -1      3647 1.37796E+01 2.78345E+00-3.69426E-03 8.61119E-01 1.98452E-13-5.91035E-13
 -1      3648 1.41694E+01 2.61949E+00 1.84337E-02 1.45719E+00 2.21852E-13-5.71720E-13
 -1      3649 1.40637E+01 1.61253E+00 1.87537E-02-2.03814E+00 3.98353E-14-5.46823E-13
 -1      3650 1.42216E+01 8.51800E-01 6.70573E-02-2.86062E+00-2.93923E-14-5.59216E-13
 -1      3651 1.65736E+01-2.02635E-01 4.91372E-02 2.90379E+00-2.67404E-13 1.07024E-13
 -1      3652 2.83568E+01 5.34148E+00-1.70278E-01 9.36718E-01 7.43849E-13 1.67935E-13
 -1      3653 2.00197E+01-2.71065E+00 5.01950E-02-3.63951E+00 2.31329E-13-7.29707E-14
 -1      3654 2.25242E+01-1.40285E+00 4.04925E-02 8.86735E-01 1.52547E-14-1.48995E-13
 -1      3655 2.29829E+01-1.88094E+00-1.68813E-02 7.16435E-01 2.65712E-14-1.24936E-13
 -1      3656 1.25219E+01 2.10456E+00 8.43894E-02-5.70919E-01 1.38414E-13-6.29982E-13
 -1      3657 1.40571E+01 8.22308E-01 3.52506E-03-1.30336E+00-3.76539E-14 1.27682E-13
 -1      3658 1.35412E+01 4.58143E-01 6.20482E-02-2.21618E+00 5.38809E-14 2.23906E-13
 -1      3659 1.47627E+01 2.64335E-02-1.74411E-02-2.76412E+00 4.91924E-14 1.71026E-13
 -1      3660 2.03821E+01-1.85291E+00 8.12094E-03 3.14236E+00 2.18447E-13-2.71544E-13
 -1      3661 2.00021E+01-2.40599E-03 8.65091E-06-2.22489E-03 1.62063E-13-7.72751E-15
 -1      3662 2.00017E+01-2.26480E-03-6.43845E-06-2.58397E-03-4.02391E-14 1.11576E-13
 -1      3663 2.00016E+01-2.06820E-03 1.13248E-07-2.92688E-03-8.24753E-14 3.35438E-13
 -1      3664 1.57017E+01 4.16348E-01-4.54467E-02-2.96589E+00-5.22863E-14-4.57082E-13
 -1      3665 2.30597E+01-2.27909E+00-3.49946E-02 1.19316E+00 6.28527E-14-9.66709E-14
 -1      3666 2.00013E+01-2.09153E-03 6.72705E-06 2.87604E-03 1.94577E-14-5.55496E-15
 -1      3667 2.17416E+01-1.31553E+00-4.24303E-02 1.43562E+00 4.94787E-14-2.04886E-13
 -1      3668 1.82011E+01 4.44758E-01-2.82623E-02-2.43469E+00 1.80444E-14-3.23810E-13
 -1      3669 1.70507E+01 5.08201E-01 4.89054E-02-2.69010E+00-2.77781E-14-4.04764E-13
 -1      3670 1.80460E+01-4.56416E-01 8.83147E-02-3.32768E+00-1.01575E-13-3.57797E-13
 -1      3671 1.97257E+01-3.31192E-01 3.63851E-02-2.46977E+00-2.10526E-14-2.12252E-13
 -1      3672 2.00018E+01-2.07880E-03 1.08096E-06 2.85943E-03-8.89252E-14 2.00761E-13
 -1      3673 1.97242E+01-2.36694E-01 1.99853E-02 2.19674E+00 1.25009E-13-3.62371E-13
 -1      3674 1.98743E+01 1.67312E-01-5.83942E-03 1.70552E+00 9.48935E-14-3.77704E-13
 -1      3675 1.95585E+01 6.32385E-01-3.17618E-03 5.54144E-01 2.78914E-14 5.49318E-15
 -1      3676 1.95006E+01 6.88189E-01 1.50247E-04 6.21402E-01-4.75433E-14-1.53698E-15
 -1      3677 2.22053E+01-2.92269E+00 5.38888E-02-2.28893E+00 1.49512E-13-1.48578E-13
 -1      3678 2.00022E+01-2.00415E-03 7.52651E-06 2.90986E-03-5.45281E-14 1.33361E-13
 -1      3679 1.63246E+01-6.81464E-01 4.99960E-02-3.40974E+00 7.71614E-14 8.57439E-14
 -1      3680 1.76255E+01-1.50117E+00-4.23881E-02-3.64149E+00 9.47888E-14-3.50744E-14
 -1      3681 2.00027E+01-2.61377E-03 6.05152E-06-1.28079E-03 1.19719E-13 1.74863E-13
 -1      3682 2.00024E+01-2.53158E-03-3.65861E-06-1.72941E-03 3.56163E-14 1.33999E-13
 -1      3683 2.00032E+01-2.50862E-03-1.80312E-06-1.06561E-03-2.67807E-14-8.36660E-15
 -1      3684 1.85471E+01 9.45035E-01-8.67381E-03 1.23539E+00-1.19535E-13 1.82420E-13
 -1      3685 1.84159E+01 9.29193E-01 3.42153E-03 1.37002E+00-1.31572E-13 1.90457E-13
 -1      3686 2.14233E+01-2.39511E+00 2.10052E-02-2.26870E+00 1.38317E-13-1.29285E-13
 -1      3687 2.07903E+01-1.90523E+00 2.65703E-02-2.33488E+00 6.85192E-14-1.05676E-13
 -1      3688 2.07162E+01-2.72665E+00-6.15334E-02-3.00188E+00 1.78983E-13-1.60558E-13
 -1      3689 2.03865E+01-1.42464E+00 2.04805E-02-2.16453E+00 5.39999E-14-4.36753E-14
 -1      3690 1.99644E+01-1.02255E+00 7.67797E-03-2.10058E+00 8.76677E-14 3.97164E-14
 -1      3691 1.96965E+01-1.56628E+00-4.19308E-02-2.65213E+00 1.03868E-13-7.20938E-14
 -1      3692 1.97960E+01-6.58167E-01 1.57470E-02-1.89817E+00 2.85873E-14 1.19273E-13
 -1      3693 1.95462E+01-3.69924E-01-3.72974E-04-1.78589E+00-3.37089E-14 1.18281E-13
 -1      3694 1.92075E+01-6.73556E-01-2.19860E-02-2.18578E+00 8.53880E-14-1.11499E-14
 -1      3695 1.95067E+01-1.22109E-01 1.06889E-02-1.60197E+00-5.29173E-14 8.99885E-14
 -1      3696 1.93765E+01 6.61321E-02-3.50546E-03-1.48149E+00-2.37845E-14 1.19592E-13
 -1      3697 1.90364E+01-7.91830E-02-9.42476E-03-1.75634E+00-4.24355E-14-3.47201E-14
 -1      3698 1.94035E+01 2.20591E-01 6.91059E-03-1.32682E+00-7.02805E-14 1.08855E-13
 -1      3699 1.93481E+01 3.31256E-01-4.38598E-03-1.21405E+00-8.19601E-14 7.99823E-14
 -1      3700 1.90338E+01 2.88921E-01-2.87294E-03-1.39827E+00-8.79834E-14 3.09063E-14
 -1      3701 1.94061E+01 4.16476E-01 4.27144E-03-1.08749E+00-7.66412E-14 4.93814E-14
 -1      3702 1.93943E+01 4.71225E-01-4.30481E-03-9.87216E-01-1.02133E-13 1.24866E-13
 -1      3703 1.91169E+01 4.93906E-01 3.83135E-04-1.11028E+00-5.31863E-14 7.88950E-14
 -1      3704 1.94634E+01 5.07997E-01 2.56062E-03-8.84270E-01-1.05704E-13 1.98431E-13
 -1      3705 1.94748E+01 5.24615E-01-3.87303E-03-7.97052E-01 4.45599E-15 1.92432E-13
 -1      3706 1.92373E+01 5.86398E-01 1.89568E-03-8.80578E-01-4.55684E-14 6.23095E-15
 -1      3707 1.95440E+01 5.29331E-01 1.49837E-03-7.13248E-01 6.27238E-14 1.59539E-13
 -1      3708 1.95659E+01 5.21537E-01-3.34839E-03-6.38304E-01 8.33717E-14 1.60119E-13
 -1      3709 1.93677E+01 6.04399E-01 2.49070E-03-6.96748E-01 2.42418E-14 6.96276E-14
 -1      3710 1.96297E+01 5.06492E-01 8.58338E-04-5.70038E-01 5.37800E-14 1.54508E-13
 -1      3711 1.96547E+01 4.84412E-01-2.82948E-03-5.06296E-01-2.69945E-14 7.15774E-14
 -1      3712 1.94927E+01 5.75766E-01 2.59341E-03-5.48830E-01 2.38904E-14 4.30674E-14
 -1      3713 1.97104E+01 4.58476E-01 4.83805E-04-4.50791E-01 2.03351E-14 1.14218E-13
 -1      3714 1.97344E+01 4.29278E-01-2.35099E-03-3.97165E-01 3.71119E-14 8.37697E-14
 -1      3715 1.96047E+01 5.20562E-01 2.43539E-03-4.29420E-01 6.46884E-14 8.63410E-14
 -1      3716 1.97811E+01 3.98578E-01 2.71991E-04-3.52251E-01-4.01167E-14 1.31844E-13
 -1      3717 1.98020E+01 3.67100E-01-1.92421E-03-3.07685E-01-5.94391E-14 1.20261E-13
 -1      3718 1.97004E+01 4.52834E-01 2.15088E-03-3.33037E-01 5.37934E-14 2.66973E-13
 -1      3719 1.98400E+01 3.35657E-01 1.56796E-04-2.71612E-01-2.95298E-14 1.37556E-13
 -1      3720 1.98573E+01 3.04969E-01-1.55165E-03-2.35066E-01-4.89204E-14 2.41231E-13
 -1      3721 1.97792E+01 3.82001E-01 1.81918E-03-2.55520E-01-1.68882E-15 4.16147E-13
 -1      3722 1.98873E+01 2.75244E-01 9.69283E-05-2.06371E-01-1.41392E-13 3.25059E-13
 -1      3723 1.99008E+01 2.47132E-01-1.23226E-03-1.76826E-01-1.71397E-14 2.59809E-13
 -1      3724 1.98421E+01 3.14006E-01 1.48684E-03-1.93586E-01-3.92637E-14 3.67240E-13
 -1      3725 1.99240E+01 2.20476E-01 6.73408E-05-1.54257E-01 2.34998E-14 2.10937E-13
 -1      3726 1.99341E+01 1.95827E-01-9.63186E-04-1.30725E-01 7.50009E-15 1.97429E-13
 -1      3727 1.98910E+01 2.52261E-01 1.17989E-03-1.44543E-01-2.64857E-14 3.15067E-13
 -1      3728 1.99516E+01 1.72830E-01 5.33317E-05-1.13198E-01-1.74908E-14 2.52564E-13
 -1      3729 1.99589E+01 1.51932E-01-7.40402E-04-9.47411E-02 3.27930E-14 3.04180E-13
 -1      3730 1.99280E+01 1.98408E-01 9.11210E-04-1.06126E-01-9.93650E-15 3.34304E-13
 -1      3731 1.99716E+01 1.32690E-01 4.66184E-05-8.13204E-02-6.64155E-14 2.70803E-13
 -1      3732 1.99767E+01 1.15455E-01-5.59120E-04-6.70744E-02 9.57663E-15 1.50741E-13
 -1      3733 1.99553E+01 1.52901E-01 6.85268E-04-7.64004E-02-1.00314E-13 1.15341E-13
 -1      3734 1.99858E+01 9.97634E-02 4.27930E-05-5.69545E-02 2.32207E-13 1.09195E-14
 -1      3735 1.99891E+01 8.58859E-02-4.14146E-04-4.61433E-02 1.77203E-13 4.02406E-14
 -1      3736 1.99748E+01 1.15447E-01 5.01375E-04-5.37155E-02-1.56431E-14-4.56481E-14
 -1      3737 1.99953E+01 7.33789E-02 3.97081E-05-3.86418E-02 1.37976E-13 1.36097E-14
 -1      3738 1.99973E+01 6.24455E-02-3.00210E-04-3.05849E-02 4.47561E-14-2.36545E-14
 -1      3739 1.99883E+01 8.53274E-02 3.55910E-04-3.66663E-02 1.18442E-13-1.39785E-13
 -1      3740 2.00014E+01 5.26864E-02 3.64749E-05-2.51305E-02-6.57256E-14-8.71619E-14
 -1      3741 2.00025E+01 4.42495E-02-2.12240E-04-1.92453E-02-5.56971E-14-1.78008E-13
 -1      3742 1.99972E+01 6.16149E-02 2.43841E-04-2.40699E-02-6.65809E-14-2.93722E-13
 -1      3743 2.00050E+01 3.67901E-02 3.28609E-05-1.53671E-02 1.00950E-14-1.71847E-13
 -1      3744 2.00054E+01 3.04131E-02-1.45559E-04-1.11651E-02-4.18133E-14-1.60166E-13
 -1      3745 2.00028E+01 4.33239E-02 1.59708E-04-1.49427E-02-2.97321E-14-3.11081E-13
 -1      3746 2.00069E+01 2.48297E-02 2.89392E-05-8.48086E-03-1.32229E-13-1.89435E-13
 -1      3747 2.00069E+01 2.01123E-02-9.60011E-05-5.56073E-03-1.03406E-13-1.91102E-13
 -1      3748 2.00060E+01 2.94999E-02 9.82247E-05-8.47805E-03-9.18972E-14-3.12378E-13
 -1      3749 2.00075E+01 1.60249E-02 2.48947E-05-3.76508E-03-2.72499E-14-1.69854E-13
 -1      3750 2.00072E+01 1.26158E-02-5.99677E-05-1.80312E-03 1.83601E-15-2.12053E-13
 -1      3751 2.00075E+01 1.92720E-02 5.46102E-05-4.02405E-03-2.32574E-14-4.21724E-13
 -1      3752 2.00074E+01 9.69622E-03 2.09249E-05-6.55854E-04 5.05055E-14-1.76364E-13
 -1      3753 2.00070E+01 7.29673E-03-3.44287E-05 6.04173E-04-1.89567E-14-1.38238E-13
 -1      3754 2.00079E+01 1.18775E-02 2.47415E-05-1.06171E-03 1.10990E-13-4.17956E-13
 -1      3755 2.00068E+01 5.26942E-03 1.71941E-05 1.28881E-03-8.65933E-14-1.08066E-13
 -1      3756 2.00063E+01 3.63215E-03-1.68923E-05 2.04602E-03-1.56649E-13-7.57457E-14
 -1      3757 2.00075E+01 6.66930E-03 5.18571E-06 8.15638E-04-6.07414E-14-4.73337E-13
 -1      3758 2.00059E+01 2.27094E-03 1.38172E-05 2.40910E-03-1.38272E-13 7.10768E-14
 -1      3759 2.00054E+01 1.19490E-03-5.36812E-06 2.81526E-03-2.29724E-14 7.87379E-14
 -1      3760 2.00068E+01 3.11132E-03-6.83764E-06 1.92137E-03-1.08870E-13-1.41417E-13
 -1      3761 2.00050E+01 3.17701E-04 1.08986E-05 2.96178E-03 4.21308E-14 1.72660E-13
 -1      3762 2.00045E+01-3.57639E-04 1.99690E-06 3.13000E-03 1.39662E-13 5.86269E-14
 -1      3763 2.00059E+01 7.68299E-04-1.35427E-05 2.49254E-03 6.48142E-14-1.45488E-14
 -1      3764 2.00040E+01-8.97045E-04 8.07840E-06 3.13760E-03 7.89283E-14 4.66593E-14
 -1      3765 2.00036E+01-1.29951E-03 5.82793E-06 3.15036E-03-8.44983E-14 5.78044E-14
 -1      3766 2.00048E+01-7.06825E-04-1.69161E-05 2.70475E-03 2.95432E-14-5.76443E-14
 -1      3767 2.00031E+01-1.61041E-03 7.75075E-06 3.06637E-03-9.32583E-14 1.05014E-15
 -1      3768 2.00027E+01-1.84066E-03 6.72467E-06 2.98428E-03-7.60844E-14-6.43635E-14
 -1      3769 2.00038E+01-1.59654E-03-1.73521E-05 2.68984E-03-1.00952E-13-9.64137E-14
 -1      3770 1.81279E+01 8.71483E-01-1.17528E-02 1.52213E+00-1.21220E-13 1.44591E-13
 -1      3771 1.79966E+01 7.86757E-01 6.72408E-03 1.70017E+00-6.06403E-14 1.97034E-13
 -1      3772 1.78774E+01 1.04728E+00 1.11969E-02 1.26451E+00-1.25873E-13 1.40091E-13
 -1      3773 2.00028E+01-2.07914E-03-1.27153E-05 2.57077E-03-5.17200E-14 9.57207E-14
 -1      3774 1.35993E+01 1.47649E+00 1.10399E-02 2.62409E+00 2.46286E-13-5.42191E-13
 -1      3775 1.22625E+01 1.82522E+00 8.36785E-02 2.09690E+00 2.37872E-13-6.24910E-13
 -1      3776 1.49367E+01 2.12912E+00-2.08303E-02 2.11670E+00 2.27964E-13-5.05034E-13
 -1      3777 1.59579E+01 1.78065E+00 4.42647E-02 2.37071E+00 2.10002E-13-4.71817E-13
 -1      3778 1.63876E+01 8.70813E-01-7.63008E-03 2.86069E+00 2.10402E-13-4.49859E-13
 -1      3779 1.41429E+01 2.00005E+00 1.73755E-02 2.12040E+00 2.34361E-13-5.50076E-13
 -1      3780 1.93906E+01 7.41434E-01-3.95874E-03 6.84073E-01-5.89600E-14 6.42789E-14
 -1      3781 1.93143E+01 7.95689E-01 1.46618E-04 7.62127E-01 7.40018E-14 1.60584E-14
 -1      3782 1.93140E+01 7.80365E-01 4.11744E-03 5.75977E-01-4.81098E-15-7.98588E-15
 -1      3783 1.91725E+01 8.43384E-01-5.01160E-03 8.35637E-01 9.06779E-14-3.44966E-16
 -1      3784 1.90756E+01 8.88636E-01 4.11555E-04 9.26525E-01-1.43345E-14 5.76085E-14
 -1      3785 1.90732E+01 8.96196E-01 5.27479E-03 6.99723E-01 1.28318E-14 7.79352E-14
 -1      3786 1.96858E+01 5.26667E-01-2.56330E-03 4.42952E-01-6.74356E-14-4.14249E-14
 -1      3787 1.96430E+01 5.79645E-01 2.36283E-04 5.00456E-01-5.85713E-16 2.60618E-14
 -1      3788 1.94994E+01 6.62032E-01 3.17570E-03 4.68920E-01 1.05750E-16-1.50496E-13
 -1      3789 1.97809E+01 4.29953E-01-2.06582E-03 3.48790E-01 1.78313E-14-9.39141E-14
 -1      3790 1.97501E+01 4.77796E-01 3.23227E-04 3.97286E-01 1.07604E-14-1.22872E-13
 -1      3791 1.96405E+01 5.49647E-01 2.42161E-03 3.76420E-01 2.29211E-14-2.16160E-13
 -1      3792 1.98509E+01 3.44867E-01-1.65447E-03 2.70224E-01 2.54509E-14-4.78614E-14
 -1      3793 1.98292E+01 3.86587E-01 3.79716E-04 3.10467E-01-8.21839E-16-4.22353E-14
 -1      3794 1.97467E+01 4.47847E-01 1.82574E-03 2.97410E-01-7.83445E-14-2.32621E-13
 -1      3795 1.99017E+01 2.72138E-01-1.31264E-03 2.05760E-01 6.22842E-14 7.52644E-14
 -1      3796 1.98868E+01 3.07564E-01 4.00393E-04 2.38588E-01 9.61484E-14 1.02785E-13
 -1      3797 1.98256E+01 3.58725E-01 1.36052E-03 2.31015E-01-3.33279E-15-1.64926E-13
 -1      3798 1.99379E+01 2.11382E-01-1.02960E-03 1.53777E-01-3.14153E-14-2.11786E-14
 -1      3799 1.99280E+01 2.40819E-01 3.91187E-04 1.80098E-01 9.09178E-14 1.60948E-13
 -1      3800 1.98834E+01 2.82741E-01 1.00137E-03 1.76227E-01 2.92532E-14-6.69758E-14
 -1      3801 1.99633E+01 1.61605E-01-7.97241E-04 1.12587E-01 7.14044E-15-1.70380E-14
 -1      3802 1.99569E+01 1.85612E-01 3.61349E-04 1.33329E-01-7.27648E-14 1.68136E-14
 -1      3803 1.99251E+01 2.19357E-01 7.27048E-04 1.31855E-01 1.09865E-14 1.76727E-13
 -1      3804 1.99807E+01 1.21524E-01-6.08623E-04 8.05217E-02-1.86595E-14 1.15668E-13
 -1      3805 1.99768E+01 1.40773E-01 3.19714E-04 9.65868E-02 5.60453E-14 8.62167E-14
 -1      3806 1.99546E+01 1.67477E-01 5.19696E-04 9.65823E-02-2.50508E-14 1.82753E-13
 -1      3807 1.99922E+01 8.97709E-02-4.57445E-04 5.60070E-02-5.85129E-14 7.33806E-14
 -1      3808 1.99900E+01 1.04959E-01 2.73282E-04 6.82297E-02-6.19830E-14 1.22866E-13
 -1      3809 1.99750E+01 1.25741E-01 3.64638E-04 6.90618E-02 3.70709E-14 2.36303E-13
 -1      3810 1.99995E+01 6.50105E-02-3.37914E-04 3.76153E-02-1.22992E-13 2.82604E-13
 -1      3811 1.99985E+01 7.68052E-02 2.26964E-04 4.67422E-02-9.44149E-14 1.19067E-13
 -1      3812 1.99888E+01 9.27081E-02 2.50016E-04 4.79911E-02-1.49594E-13 2.05161E-13
 -1      3813 2.00039E+01 4.60093E-02-2.44749E-04 2.40944E-02 6.20035E-14 4.22193E-13
 -1      3814 2.00036E+01 5.50222E-02 1.83839E-04 3.07726E-02 7.00834E-15 3.82758E-13
 -1      3815 1.99977E+01 6.69794E-02 1.66378E-04 3.21710E-02-1.35031E-13 3.70358E-13
 -1      3816 2.00062E+01 3.16694E-02-1.73223E-04 1.43767E-02-3.35158E-15 4.39130E-13
 -1      3817 2.00064E+01 3.84403E-02 1.45572E-04 1.91528E-02 3.29221E-14 4.10305E-13
 -1      3818 2.00031E+01 4.72628E-02 1.06270E-04 2.05389E-02 2.38021E-14 3.75974E-13
 -1      3819 2.00072E+01 2.10406E-02-1.19194E-04 7.57342E-03-2.48860E-13 3.55758E-13
 -1      3820 2.00076E+01 2.60338E-02 1.12824E-04 1.08988E-02-1.02365E-13 4.13361E-13
 -1      3821 2.00062E+01 3.24082E-02 6.38602E-05 1.21820E-02-4.94272E-15 4.59250E-13
 -1      3822 2.00073E+01 1.33187E-02-7.91003E-05 2.96122E-03-1.65585E-13 3.28795E-13
 -1      3823 2.00078E+01 1.69254E-02 8.56039E-05 5.20079E-03-2.50612E-13 4.36516E-13
 -1      3824 2.00075E+01 2.14204E-02 3.46224E-05 6.33734E-03-2.15721E-13 5.16269E-13
 -1      3825 2.00068E+01 7.83650E-03-4.99400E-05-3.70356E-05-1.27599E-13 2.46017E-13
 -1      3826 2.00074E+01 1.03797E-02 6.35345E-05 1.40627E-03-1.11727E-13 2.80658E-13
 -1      3827 2.00079E+01 1.34574E-02 1.50669E-05 2.38182E-03-1.10607E-13 4.70602E-13
 -1      3828 2.00061E+01 4.04899E-03-2.92255E-05-1.87274E-03 1.21912E-13 1.60193E-13
 -1      3829 2.00066E+01 5.79147E-03 4.60397E-05-1.00045E-03 2.57457E-15 1.70389E-13
 -1      3830 2.00075E+01 7.82083E-03 2.52431E-06-1.82515E-04 8.81213E-14 3.84375E-13
 -1      3831 2.00052E+01 1.51781E-03-1.49268E-05-2.89196E-03 2.69802E-13 2.59669E-13
 -1      3832 2.00057E+01 2.67025E-03 3.24697E-05-2.41885E-03 2.21532E-13 2.07885E-13
 -1      3833 2.00067E+01 3.94056E-03-5.03048E-06-1.74545E-03 1.81938E-14 1.69427E-13
 -1      3834 2.00042E+01-1.05507E-04-5.43466E-06-3.35450E-03 2.07115E-13 3.56218E-13
 -1      3835 2.00047E+01 6.23866E-04 2.21678E-05-3.15226E-03 3.24575E-13 2.56193E-13
 -1      3836 2.00058E+01 1.35836E-03-9.12317E-06-2.60587E-03 2.24244E-13 2.42959E-13
 -1      3837 2.00034E+01-1.09566E-03 5.81120E-07-3.45074E-03-1.91579E-14 4.47958E-13
 -1      3838 2.00038E+01-6.57959E-04 1.45010E-05-3.42609E-03 8.31869E-14 3.89472E-13
 -1      3839 2.00048E+01-2.89726E-04-1.09182E-05-2.98829E-03 7.92873E-14 5.01633E-13
 -1      3840 2.00025E+01-1.66284E-03 6.13180E-06-3.31269E-03 3.76148E-14 5.43284E-13
 -1      3841 2.00029E+01-1.42111E-03 8.71478E-06-3.40219E-03 4.29401E-15 3.89459E-13
 -1      3842 2.00038E+01-1.29133E-03-1.11937E-05-3.05664E-03-5.42371E-14 4.24299E-13
 -1      3843 2.00019E+01-1.96424E-03 2.19141E-06-3.05105E-03-1.34444E-13 5.03128E-13
 -1      3844 2.00022E+01-1.81898E-03 1.47542E-06-3.20514E-03 1.10871E-14 5.35400E-13
 -1      3845 2.00030E+01-1.82590E-03-1.00773E-05-2.92378E-03 2.65762E-14 5.15042E-13
 -1      3846 2.00024E+01-2.11406E-03 1.19018E-06-2.71760E-03-3.36333E-14 3.18289E-13
 -1      3847 1.42565E+01 2.11639E+00 4.49610E-02-1.36139E+00 1.05609E-13-5.26443E-13
 -1      3848 1.43018E+01 2.73212E+00 1.01161E-02-6.13537E-01 1.81177E-13-5.22438E-13
 -1      3849 1.38846E+01 2.85463E+00-8.78013E-03-1.19111E-02 1.76711E-13-5.63768E-13
 -1      3850 1.32244E+01 2.20556E+00 2.04396E-02-1.07625E+00 1.16606E-13-5.80338E-13
 -1      3851 2.06123E+01-1.00948E-01-1.81562E-02 1.35003E+00 4.70507E-14-3.19019E-13
 -1      3852 1.88942E+01 9.20690E-01-6.50322E-03 1.01498E+00-4.10344E-14 1.95332E-14
 -1      3853 1.87772E+01 9.44883E-01 1.33006E-03 1.12316E+00-4.78061E-14 1.27229E-13
 -1      3854 1.87638E+01 9.95700E-01 6.69532E-03 8.45305E-01-2.98141E-14 4.45623E-14
 -1      3855 1.33990E+01 2.61045E+00 5.04081E-02 4.61005E-01 1.85512E-13-5.98407E-13
 -1      3856 1.47878E+01 8.40548E-01-3.28282E-03 1.52876E+00-2.11100E-13 1.31509E-13
 -1      3857 1.41727E+01 1.12052E+00 1.73821E-02 1.87501E-01-5.47229E-14 1.88983E-13
 -1      3858 1.65858E+01 2.15267E-01 6.57827E-03 2.51653E+00-2.65712E-13 2.05796E-13
 -1      3859 1.76366E+01 6.37326E-01-1.69525E-02 1.91857E+00-3.28177E-14 1.78544E-13
 -1      3860 1.75624E+01 4.31736E-01 7.78480E-03 2.17302E+00-9.92496E-14 2.43219E-13
 -1      3861 1.72748E+01 9.19233E-01 1.88377E-02 1.60950E+00-8.40291E-14 8.81946E-14
 -1      3862 1.65856E+01 3.42191E-01 1.23660E-02 3.26707E+00 2.51934E-13-4.23918E-13
 -1      3863 1.47498E+01 1.24993E+00 7.92738E-02 3.11760E+00 2.57426E-13-4.90708E-13
 -1      3864 2.09340E+01 9.28909E-02-1.02355E-02 8.98208E-01-6.83221E-15-3.02295E-13
 -1      3865 1.27479E+01 2.46143E+00 2.74026E-02 8.42576E-02 1.89173E-13-6.10637E-13
 -1      3866 2.00036E+01-2.30249E-03-4.85979E-06 1.39251E-03 7.79832E-14-3.82610E-13
 -1      3867 2.00038E+01-2.35600E-03 4.06517E-07 8.76814E-04-6.64590E-14-4.21629E-13
 -1      3868 2.00032E+01-2.17682E-03 3.45879E-06 2.11865E-03 2.08587E-14-1.55332E-13
 -1      3869 2.25045E+01-2.19845E+00 4.93189E-02 1.95118E+00 1.14071E-13-1.83223E-13
 -1      3870 1.26534E+01 2.21578E+00 4.31758E-02 1.30330E+00 2.14797E-13-6.32376E-13
 -1      3871 1.93131E+01-2.01938E+00 4.96285E-02-3.44266E+00 1.23546E-13-6.24644E-14
 -1      3872 1.59550E+01 6.37673E-01 2.16187E-02 2.05989E+00-1.78888E-13 3.47552E-14
 -1      3873 1.88590E+01-1.38892E+00 3.67911E-02-3.06430E+00 1.04305E-13-1.03349E-13
 -1      3874 1.60460E+01-3.64840E-02 2.89271E-02-2.62710E+00-2.16971E-14 1.57731E-13
 -1      3875 2.00026E+01-2.35258E-03-1.52879E-06-2.09967E-03 2.51265E-14 1.49467E-14
 -1      3876 1.83703E+01 1.05732E+00 8.45408E-03 1.02476E+00-2.48265E-14-1.20526E-14
 -1      3877 2.00787E+01-7.62162E-01 3.80028E-02 2.44564E+00 1.44345E-13-3.24756E-13
 -1      3878 2.06382E+01-1.45474E+00 2.24481E-02 2.59818E+00 1.58229E-13-2.76860E-13
 -1      3879 2.00043E+01-2.14587E-03 3.00173E-06 5.96922E-04-1.72409E-13-3.02408E-13
 -1      3880 2.00039E+01-2.36793E-03 9.34400E-07 2.87302E-04-1.11418E-13-2.87185E-13
 -1      3881 2.00039E+01-2.37120E-03 1.57369E-06-2.48325E-04-9.16329E-14-1.58457E-13
 -1      3882 1.59474E+01 9.50955E-01-1.20552E-02 1.38376E+00-1.22907E-13 7.98320E-14
 -1      3883 2.00038E+01-2.00005E-03 7.10312E-06 1.90987E-03 3.60550E-14-2.59689E-13
 -1      3884 1.44571E+01 1.15129E+00 4.24535E-02-4.48858E-01-3.55434E-14 1.41180E-13
 -1      3885 1.49876E+01 9.13515E-01-1.28919E-02-1.09560E+00-2.60070E-14 1.11282E-13
 -1      3886 1.51805E+01 1.14348E+00-5.42717E-03 1.73079E-01-7.47857E-14 2.06495E-13
 -1      3887 2.03762E+01-1.44775E+00-4.24044E-02-2.78899E+00-8.71031E-14-1.36828E-13
 -1      3888 2.00038E+01-2.36667E-03-1.71163E-06-8.43475E-04-6.58753E-14 1.63703E-14
 -1      3889 2.00036E+01-2.31939E-03-4.57318E-06-1.35765E-03-6.84156E-14-7.78682E-14
 -1      3890 2.00043E+01-2.14804E-03 6.74536E-06-5.53189E-04-1.39432E-13-1.83864E-13
 -1      3891 1.80385E+01-2.60271E-01 4.98188E-03 3.28957E+00 2.17212E-13-3.93576E-13
 -1      3892 1.84785E+01-8.92469E-01 1.23406E-02-2.77984E+00 1.17758E-13-1.00918E-13
 -1      3893 1.85570E+01-4.99298E-01 2.83381E-02-2.38227E+00 8.07006E-14-1.69614E-13
 -1      3894 1.83617E+01-1.82314E-01-1.30217E-03-2.13927E+00 5.28280E-14-2.01149E-13
 -1      3895 1.74383E+01-4.45077E-01-1.82514E-02-2.74637E+00 4.70448E-14-1.06556E-13
 -1      3896 1.85106E+01 7.70601E-02 1.78106E-02-1.82955E+00 3.35299E-14-2.42765E-13
 -1      3897 1.84459E+01 2.70232E-01-5.06858E-03-1.63206E+00-8.66596E-14-2.30813E-13
 -1      3898 1.77078E+01 2.02453E-01 3.27843E-03-1.99491E+00 3.63219E-15-2.47437E-13
 -1      3899 1.86141E+01 4.23649E-01 1.07099E-02-1.40455E+00-1.03169E-13-1.24997E-13
 -1      3900 1.86212E+01 5.31031E-01-5.68756E-03-1.24823E+00-1.42243E-14-1.64292E-13
 -1      3901 1.80271E+01 5.50504E-01 4.13974E-03-1.45760E+00 3.15655E-15-2.58514E-13
 -1      3902 1.87829E+01 6.10952E-01 6.17387E-03-1.08245E+00-4.83661E-15-6.59234E-14
 -1      3903 1.88258E+01 6.59581E-01-5.30605E-03-9.59766E-01-6.87330E-16-4.20192E-14
 -1      3904 1.83493E+01 7.31273E-01 4.75376E-03-1.07611E+00 5.74322E-14-2.22054E-13
 -1      3905 1.89720E+01 6.89774E-01 3.51655E-03-8.37581E-01 1.40480E-14 3.70161E-14
 -1      3906 1.90296E+01 6.98869E-01-4.63558E-03-7.40836E-01 2.59156E-14 4.63216E-14
 -1      3907 1.86465E+01 8.01927E-01 4.76544E-03-8.01958E-01 5.11377E-14-5.94503E-14
 -1      3908 1.91575E+01 6.96301E-01 1.96170E-03-6.49611E-01-8.15794E-15 1.02479E-13
 -1      3909 1.92181E+01 6.80086E-01-3.94360E-03-5.72648E-01 7.99094E-14 1.15398E-13
 -1      3910 1.89102E+01 7.99829E-01 4.47881E-03-6.01802E-01 7.87467E-14 1.28268E-13
 -1      3911 1.93271E+01 6.57218E-01 1.05838E-03-5.03717E-01 6.16984E-14 8.70548E-14
 -1      3912 1.93842E+01 6.26144E-01-3.30915E-03-4.42039E-01 4.10195E-14 1.74164E-13
 -1      3913 1.91381E+01 7.51594E-01 4.02804E-03-4.53533E-01 2.05983E-14 2.62393E-13
 -1      3914 1.94753E+01 5.92044E-01 5.43403E-04-3.89474E-01 1.45003E-13 1.92099E-13
 -1      3915 1.95258E+01 5.53647E-01-2.74584E-03-3.39852E-01 2.15663E-13 2.51418E-13
 -1      3916 1.93306E+01 6.76732E-01 3.50727E-03-3.42328E-01 1.76087E-13 2.81209E-13
 -1      3917 1.96003E+01 5.14714E-01 2.62025E-04-2.99514E-01 1.37636E-13 2.35550E-13
 -1      3918 1.96430E+01 4.74193E-01-2.25192E-03-2.59596E-01 1.07327E-13 3.10961E-13
 -1      3919 1.94898E+01 5.89376E-01 2.97633E-03-2.58099E-01 2.08532E-13 1.92759E-13
 -1      3920 1.97029E+01 4.34739E-01 1.17481E-04-2.28550E-01 2.11225E-14 3.65564E-13
 -1      3921 1.97377E+01 3.95480E-01-1.82316E-03-1.96556E-01-1.60974E-14 3.41295E-13
 -1      3922 1.96191E+01 4.99348E-01 2.46811E-03-1.93868E-01 1.53965E-13 2.25670E-13
 -1      3923 1.97849E+01 3.58223E-01 5.04463E-05-1.72667E-01-8.72904E-14 1.58705E-13
 -1      3924 1.98124E+01 3.22250E-01-1.45532E-03-1.47196E-01-9.62916E-14 1.13719E-13
 -1      3925 1.97219E+01 4.13097E-01 2.00234E-03-1.44716E-01-2.00821E-13 7.11967E-14
 -1      3926 1.98488E+01 2.88727E-01 2.50942E-05-1.28870E-01-4.91428E-14 6.13506E-14
 -1      3927 1.98700E+01 2.57077E-01-1.14418E-03-1.08773E-01 8.13438E-15 7.13511E-14
 -1      3928 1.98022E+01 3.34489E-01 1.59019E-03-1.07085E-01-1.03719E-13-1.05471E-13
 -1      3929 1.98976E+01 2.27993E-01 2.02692E-05-9.47934E-02 5.92197E-14 1.73375E-13
 -1      3930 1.99134E+01 2.01019E-01-8.85119E-04-7.91084E-02 5.64970E-14 1.42504E-13
 -1      3931 1.98636E+01 2.65482E-01 1.23637E-03-7.83445E-02 1.04719E-13 7.39201E-14
 -1      3932 1.99339E+01 1.76515E-01 2.39532E-05-6.85281E-02 1.12833E-15 1.25268E-13
 -1      3933 1.99454E+01 1.54129E-01-6.72994E-04-5.64367E-02-7.84345E-14 1.20882E-13
 -1      3934 1.99096E+01 2.06699E-01 9.40728E-04-5.65016E-02 1.14458E-14 2.26392E-14
 -1      3935 1.99602E+01 1.33990E-01 2.97346E-05-4.85100E-02-9.97553E-14 1.56223E-13
 -1      3936 1.99683E+01 1.15836E-01-5.02250E-04-3.93172E-02-3.91867E-14-1.10331E-14
 -1      3937 1.99432E+01 1.57881E-01 6.99730E-04-4.00223E-02-3.40690E-14 2.13849E-13
 -1      3938 1.99788E+01 9.96478E-02 3.45485E-05-3.34516E-02 2.87810E-15-1.25736E-13
 -1      3939 1.99842E+01 8.52338E-02-3.67182E-04-2.65697E-02 8.72969E-15-2.45879E-13
 -1      3940 1.99673E+01 1.18238E-01 5.07780E-04-2.77085E-02-6.24632E-14 6.40786E-14
 -1      3941 1.99914E+01 7.24847E-02 3.72424E-05-2.22934E-02-1.05286E-13-4.36276E-13
 -1      3942 1.99949E+01 6.12673E-02-2.62207E-04-1.72304E-02-1.80600E-13-4.37243E-13
 -1      3943 1.99839E+01 8.66991E-02 3.58276E-04-1.86172E-02-2.35629E-13-3.64876E-13
 -1      3944 1.99995E+01 5.14236E-02 3.76838E-05-1.41682E-02-6.18707E-14-5.67796E-13
 -1      3945 2.00016E+01 4.28650E-02-1.82097E-04-1.05168E-02-2.32740E-14-5.28397E-13
 -1      3946 1.99950E+01 6.20949E-02 2.44399E-04-1.20023E-02-1.97204E-13-5.81569E-13
 -1      3947 2.00045E+01 3.54141E-02 3.62214E-05-8.37157E-03-9.26269E-14-5.24711E-13
 -1      3948 2.00056E+01 2.90158E-02-1.22130E-04-5.79954E-03-1.17028E-13-5.61677E-13
 -1      3949 2.00020E+01 4.32683E-02 1.59636E-04-7.27430E-03-8.07924E-14-8.36831E-13
 -1      3950 2.00071E+01 2.34918E-02 3.33759E-05-4.33761E-03-1.10335E-13-5.76142E-13
 -1      3951 2.00076E+01 1.88114E-02-7.81781E-05-2.57746E-03-8.73899E-15-5.42848E-13
 -1      3952 2.00060E+01 2.91458E-02 9.81007E-05-3.96825E-03-1.47319E-13-7.16502E-13
 -1      3953 2.00083E+01 1.48072E-02 2.96730E-05-1.61677E-03 9.90039E-14-7.10350E-13
 -1      3954 2.00082E+01 1.14653E-02-4.67241E-05-4.56485E-04 6.09011E-14-7.34898E-13
 -1      3955 2.00080E+01 1.87737E-02 5.46792E-05-1.71995E-03-5.35214E-14-7.34422E-13
 -1      3956 2.00083E+01 8.63539E-03 2.55643E-05 1.43315E-04 1.23458E-13-7.04890E-13
 -1      3957 2.00080E+01 6.31502E-03-2.48465E-05 8.69120E-04-1.28298E-15-6.19745E-13
 -1      3958 2.00087E+01 1.13319E-02 2.50737E-05-2.46405E-04 1.27255E-13-9.10821E-13
 -1      3959 2.00078E+01 4.37331E-03 2.14006E-05 1.21480E-03 2.85552E-15-4.90815E-13
 -1      3960 2.00073E+01 2.81502E-03-1.01655E-05 1.63299E-03 1.52487E-15-3.76944E-13
 -1      3961 2.00085E+01 6.13374E-03 5.76555E-06 6.69938E-04 1.31882E-13-8.27410E-13
 -1      3962 2.00069E+01 1.52921E-03 1.74595E-05 1.80458E-03 5.24335E-14-3.18228E-13
 -1      3963 2.00064E+01 5.24598E-04-6.14909E-07 2.01045E-03 1.10869E-13-3.27045E-13
 -1      3964 2.00077E+01 2.61579E-03-6.07580E-06 1.19415E-03 1.54920E-13-5.68538E-13
 -1      3965 2.00058E+01-2.92599E-04 1.38978E-05 2.06686E-03 8.11889E-14-3.35832E-13
 -1      3966 2.00053E+01-9.04581E-04 5.94341E-06 2.12801E-03 5.15385E-15-2.74243E-13
 -1      3967 2.00067E+01 3.23393E-04-1.29719E-05 1.44983E-03 1.39484E-13-5.49617E-13
 -1      3968 2.00048E+01-1.35029E-03 1.15058E-05 2.04565E-03 3.46161E-14-2.34106E-13
 -1      3969 2.00043E+01-1.72962E-03 3.96582E-06 2.02155E-03 5.87770E-14-1.53420E-13
 -1      3970 2.00046E+01-1.85416E-03-1.22299E-05 1.29991E-03 9.12839E-14-2.55566E-13
 -1      3971 2.00056E+01-1.05586E-03-1.69348E-05 1.46435E-03 1.29232E-14-2.99082E-13
 -1      3972 1.76635E+01 1.12987E+00-1.25631E-02 9.12950E-01-9.01716E-14 3.14830E-14
 -1      3973 1.73812E+01 1.11840E+00-4.44607E-03 1.03436E+00-1.34815E-13 5.74070E-14
 -1      3974 1.40630E+01 1.82354E+00 1.86677E-04 2.34528E+00 2.29266E-13-5.30000E-13
 -1      3975 1.89901E+01 9.01975E-01-4.33364E-03 5.35983E-01-1.21218E-14 3.08334E-14
 -1      3976 1.88527E+01 9.60537E-01-1.84306E-03 5.93624E-01 5.06024E-14 2.92164E-14
 -1      3977 1.97152E+01 4.44899E-01-1.75809E-03 2.34486E-01-2.94083E-14-1.53469E-13
 -1      3978 1.96698E+01 4.94839E-01-3.72131E-04 2.67925E-01 1.55475E-14-1.15461E-13
 -1      3979 1.98016E+01 3.55859E-01-1.41592E-03 1.82500E-01-4.73593E-14-2.18141E-13
 -1      3980 1.97683E+01 3.99158E-01-1.82693E-04 2.10617E-01-1.10479E-13-2.23857E-13
 -1      3981 1.97058E+01 4.49767E-01 1.97124E-03 1.82611E-01-2.92287E-14-1.91687E-13
 -1      3982 1.98655E+01 2.80062E-01-1.12927E-03 1.39296E-01-5.25783E-14-8.70624E-14
 -1      3983 1.98414E+01 3.16715E-01-5.57730E-05 1.62464E-01-4.86642E-14-2.44868E-13
 -1      3984 1.97946E+01 3.59320E-01 1.49340E-03 1.42888E-01-1.01555E-13-3.01516E-13
 -1      3985 1.99121E+01 2.16900E-01-8.89460E-04 1.04147E-01-6.47956E-14 6.41241E-14
 -1      3986 1.98950E+01 2.47296E-01 2.29629E-05 1.22859E-01-5.90467E-14 2.88174E-14
 -1      3987 1.98605E+01 2.82435E-01 1.11990E-03 1.09470E-01-1.88016E-13-1.59719E-13
 -1      3988 1.99454E+01 1.65255E-01-6.90626E-04 7.61329E-02-2.92613E-14 4.83162E-14
 -1      3989 1.99336E+01 1.90000E-01 6.68604E-05 9.09556E-02-1.92067E-14 4.07016E-14
 -1      3990 1.99087E+01 2.18432E-01 8.29547E-04 8.20456E-02-4.37081E-14-1.40886E-13
 -1      3991 1.99688E+01 1.23756E-01-5.27860E-04 5.42526E-02-6.21638E-14 1.68962E-13
 -1      3992 1.99608E+01 1.43557E-01 8.69819E-05 6.57703E-02-6.36524E-14 1.15203E-13
 -1      3993 1.99433E+01 1.66147E-01 6.05576E-04 6.00545E-02-7.07837E-14-9.27033E-14
 -1      3994 1.99847E+01 9.09598E-02-3.96570E-04 3.75038E-02-1.88605E-13 1.80323E-13
 -1      3995 1.99795E+01 1.06545E-01 9.18276E-05 4.62814E-02-4.56886E-14 2.71860E-13
 -1      3996 1.99676E+01 1.24177E-01 4.34470E-04 4.28060E-02-1.06615E-13 9.87868E-14
 -1      3997 1.99952E+01 6.54622E-02-2.92319E-04 2.49456E-02-1.14871E-13 6.94453E-14
 -1      3998 1.99920E+01 7.75283E-02 8.75632E-05 3.15018E-02-1.73831E-13 4.78076E-14
 -1      3999 1.99842E+01 9.10494E-02 3.05224E-04 2.95664E-02-8.73853E-14 3.40148E-14
 -1      4000 2.00018E+01 4.59669E-02-2.10883E-04 1.57345E-02-5.31544E-14 2.33054E-13
 -1      4001 2.00000E+01 5.51523E-02 7.84438E-05 2.05267E-02-1.28087E-13 1.85936E-13
 -1      4002 1.99952E+01 6.53325E-02 2.08870E-04 1.96237E-02-1.93241E-13-3.49558E-14
 -1      4003 2.00056E+01 3.13194E-02-1.48343E-04 9.14119E-03-1.15603E-13 5.57892E-13
 -1      4004 2.00047E+01 3.81882E-02 6.72661E-05 1.25604E-02 8.63314E-15 3.99113E-13
 -1      4005 2.00020E+01 4.57047E-02 1.38124E-04 1.23264E-02-1.66012E-13 2.62632E-13
 -1      4006 2.00075E+01 2.05210E-02-1.01175E-04 4.55356E-03-1.54875E-13 4.00365E-13
 -1      4007 2.00072E+01 2.55582E-02 5.57695E-05 6.92493E-03-1.08450E-13 5.16950E-13
 -1      4008 2.00059E+01 3.09893E-02 8.71021E-05 7.10406E-03-6.52924E-14 4.88985E-13
 -1      4009 2.00081E+01 1.27269E-02-6.62877E-05 1.47103E-03-4.53713E-14 3.95434E-13
 -1      4010 2.00082E+01 1.63407E-02 4.49597E-05 3.05871E-03-1.40454E-13 2.66910E-13
 -1      4011 2.00079E+01 2.01685E-02 5.10939E-05 3.47427E-03-2.38961E-14 2.90122E-13
 -1      4012 2.00079E+01 7.23712E-03-4.10424E-05-5.06462E-04-3.34922E-14 4.13776E-13
 -1      4013 2.00082E+01 9.76435E-03 3.53554E-05 5.07488E-04-1.15184E-14 4.66410E-13
 -1      4014 2.00085E+01 1.23822E-02 2.63599E-05 1.04037E-03-7.47347E-14 2.34759E-13
 -1      4015 2.00072E+01 3.48105E-03-2.32338E-05-1.69171E-03 1.32425E-13 3.59296E-13
 -1      4016 2.00077E+01 5.19510E-03 2.71682E-05-1.08809E-03 7.91928E-14 3.64179E-13
 -1      4017 2.00083E+01 6.91798E-03 9.96455E-06-5.15603E-04 6.34063E-14 4.14096E-13
 -1      4018 2.00062E+01 1.00058E-03-1.10692E-05-2.32399E-03 8.24372E-14 4.36035E-13
 -1      4019 2.00068E+01 2.12020E-03 2.04177E-05-2.00619E-03 1.30267E-13 3.31984E-13
 -1      4020 2.00075E+01 3.19586E-03-3.68130E-07-1.44260E-03 8.41090E-14 4.18426E-13
 -1      4021 2.00052E+01-5.66633E-04-2.72423E-06-2.58197E-03-1.23061E-14 3.72098E-13
 -1      4022 2.00057E+01 1.30663E-04 1.49316E-05-2.45736E-03 2.40857E-14 3.76731E-13
 -1      4023 2.00065E+01 7.50709E-04-6.36218E-06-1.93093E-03 5.72031E-14 3.68176E-13
 -1      4024 2.00041E+01-1.51415E-03 2.95408E-06-2.60036E-03 1.72232E-13 6.94281E-14
 -1      4025 2.00046E+01-1.09858E-03 9.66798E-06-2.60031E-03 1.81293E-13 1.91286E-13
 -1      4026 2.00054E+01-7.82910E-04-9.10917E-06-2.12470E-03 1.44943E-13 6.80012E-14
 -1      4027 1.95999E+01 5.46893E-01-2.17134E-03 2.95701E-01-5.57565E-15-8.43876E-14
 -1      4028 1.95388E+01 6.02840E-01-6.36370E-04 3.34685E-01-1.03105E-14-3.64154E-14
 -1      4029 1.95879E+01 5.53633E-01 2.58122E-03 2.28591E-01 8.47963E-14 5.31532E-14
 -1      4030 1.92486E+01 7.80783E-01-3.36662E-03 4.46218E-01 7.52800E-14-1.08457E-13
 -1      4031 1.91424E+01 8.42671E-01-1.38570E-03 4.96848E-01 4.63655E-14-2.06445E-14
 -1      4032 1.89696E+01 9.22227E-01 5.69946E-03 3.97794E-01 8.05699E-14-6.17672E-14
 -1      4033 1.26814E+01 2.34686E+00 2.74273E-02 1.02984E+00 2.18323E-13-6.38690E-13
 -1      4034 1.86562E+01 1.01271E+00-5.78154E-03 6.37657E-01-7.93793E-15 7.51340E-14
 -1      4035 1.84806E+01 1.06086E+00-2.19007E-03 7.05365E-01-4.53077E-14 5.10595E-14
 -1      4036 1.86327E+01 1.04466E+00 7.49189E-03 4.62878E-01 2.67094E-14 4.03695E-14
 -1      4037 1.94477E+01 6.60131E-01-2.68666E-03 3.66279E-01-4.25474E-14-1.44736E-13
 -1      4038 1.93666E+01 7.20510E-01-9.79758E-04 4.10944E-01 2.11335E-15-1.26817E-13
 -1      4039 1.92309E+01 7.94242E-01 4.37108E-03 3.37022E-01 3.93827E-14-1.72798E-14
 -1      4040 1.94328E+01 6.69521E-01 3.36195E-03 2.80345E-01-7.08658E-14-1.99252E-14
 -1      4041 1.69079E+01 1.08933E+00-1.88366E-02 1.09239E+00-1.14090E-13 7.41156E-14
 -1      4042 1.65540E+01 1.01048E+00-7.50642E-03 1.27691E+00-7.24315E-14 7.87776E-14
 -1      4043 1.57965E+01 1.24139E+00 3.96880E-02 7.77181E-01-1.15101E-13 1.41685E-13
 -1      4044 1.68750E+01 1.25393E+00 2.51123E-02 7.01513E-01-3.86647E-14 5.63351E-15
 -1      4045 1.82248E+01 1.09633E+00-8.25621E-03 7.58004E-01-4.11152E-14 1.22726E-14
 -1      4046 1.80030E+01 1.12391E+00-2.34174E-03 8.43145E-01-6.26348E-14-2.38326E-14
 -1      4047 1.81976E+01 1.14986E+00 1.01676E-02 5.34511E-01-6.30886E-14 1.00781E-13
 -1      4048 2.00033E+01-2.28331E-03 3.68887E-06-1.82343E-03-4.83908E-14-3.21157E-13
 -1      4049 2.00029E+01-2.18809E-03-1.23104E-06-2.32237E-03 4.26582E-14-5.16996E-14
 -1      4050 2.00032E+01-2.03748E-03 3.48645E-06-2.44155E-03-3.66142E-14 6.07582E-14
 -1      4051 2.00039E+01-2.12033E-03 4.17557E-06-1.60753E-03-7.53472E-14-3.14108E-13
 -1      4052 1.32452E+01 2.24933E+00 9.70467E-03 1.61492E+00 2.31981E-13-6.17390E-13
 -1      4053 1.61855E+01 2.83641E-01-5.11302E-03-2.20099E+00-3.99375E-14 7.51829E-14
 -1      4054 2.00049E+01-1.85648E-03 3.51627E-06 6.87236E-04 2.53676E-14-2.46585E-13
 -1      4055 2.00049E+01-1.88014E-03-1.04053E-05 9.95659E-05-5.54353E-14-2.79541E-13
 -1      4056 2.00054E+01-1.48474E-03 1.45094E-05 7.69216E-04 1.53447E-13-1.42738E-13
 -1      4057 1.57790E+01 7.65708E-01 2.97195E-02-1.62568E+00-8.36275E-14 1.70568E-13
 -1      4058 1.70081E+01 4.34979E-01 6.87326E-03-1.83693E+00-4.33980E-14 4.89825E-14
 -1      4059 1.71315E+01 5.91202E-01-2.48154E-02-1.53952E+00-4.00957E-14-2.73516E-14
 -1      4060 1.58474E+01 9.97333E-01-2.35497E-02-9.09387E-01-6.44107E-14 1.59791E-13
 -1      4061 1.58077E+01 1.19595E+00-7.87797E-03 2.19767E-01-5.51846E-14 1.61501E-13
 -1      4062 2.00035E+01-1.86823E-03 3.03196E-06-2.51839E-03-2.11113E-14-3.87455E-15
 -1      4063 1.76317E+01 1.22263E+00 1.47233E-02 6.21643E-01-7.56948E-14 2.65955E-16
 -1      4064 2.00042E+01-1.75544E-03-7.95092E-06-2.09827E-03 1.19421E-13-2.91844E-13
 -1      4065 1.75320E+01 7.23937E-01 5.42309E-03-1.30064E+00 1.46738E-14-1.06691E-13
 -1      4066 1.76848E+01 7.98992E-01-1.66675E-02-1.09340E+00-1.90707E-14-1.19692E-13
 -1      4067 1.69453E+01 9.53378E-01 2.71020E-02-1.12134E+00-4.59840E-14 1.27989E-13
 -1      4068 1.79930E+01 8.61001E-01 2.50030E-03-9.31581E-01 2.92600E-14-1.23454E-13
 -1      4069 1.81409E+01 8.86988E-01-1.19611E-02-7.84678E-01 1.00161E-13-8.42266E-14
 -1      4070 1.75930E+01 1.03240E+00 1.85476E-02-7.65173E-01 2.22999E-15 3.46409E-14
 -1      4071 1.83844E+01 9.03303E-01 9.70302E-04-6.72499E-01 1.35231E-13-9.46964E-14
 -1      4072 1.85195E+01 8.95713E-01-8.71310E-03-5.66891E-01 1.42118E-13 4.92940E-14
 -1      4073 1.81037E+01 1.03769E+00 1.35913E-02-5.23857E-01 1.41846E-13 5.92035E-14
 -1      4074 1.87141E+01 8.81382E-01 3.19430E-05-4.88517E-01 1.85566E-13 1.59251E-15
 -1      4075 1.88336E+01 8.51959E-01-6.48022E-03-4.11611E-01 1.54855E-13 1.04974E-13
 -1      4076 1.85134E+01 9.90765E-01 1.04721E-02-3.58409E-01 1.78223E-13 1.16927E-14
 -1      4077 1.89898E+01 8.18737E-01-4.33902E-04-3.56663E-01 3.90020E-14 1.53562E-13
 -1      4078 1.90926E+01 7.76353E-01-4.88252E-03-2.99795E-01 3.92429E-14 2.26052E-13
 -1      4079 1.88441E+01 9.09575E-01 8.23957E-03-2.44267E-01 1.33940E-13-1.36998E-14
 -1      4080 1.92179E+01 7.32597E-01-6.70121E-04-2.61273E-01 5.98461E-14 1.14050E-13
 -1      4081 1.93043E+01 6.84076E-01-3.72195E-03-2.18688E-01 1.83994E-13 9.61096E-14
 -1      4082 1.91109E+01 8.08807E-01 6.46508E-03-1.65895E-01 7.76680E-14-3.48106E-14
 -1      4083 1.94042E+01 6.36004E-01-7.50123E-04-1.91685E-01 1.51141E-13-4.71792E-14
 -1      4084 1.94754E+01 5.86219E-01-2.85446E-03-1.59473E-01 1.54685E-13-9.23022E-14
 -1      4085 1.93252E+01 7.00163E-01 5.09564E-03-1.12285E-01 4.53708E-14-1.52890E-13
 -1      4086 1.95543E+01 5.38162E-01-7.36668E-04-1.40574E-01 1.72326E-13-1.49339E-13
 -1      4087 1.96117E+01 4.90419E-01-2.19187E-03-1.16035E-01 6.10280E-14-2.22368E-13
 -1      4088 1.94958E+01 5.92009E-01 4.01344E-03-7.57504E-02 7.95318E-14-4.04997E-13
 -1      4089 1.96733E+01 4.45197E-01-6.69896E-04-1.02835E-01-1.49093E-13-1.77482E-13
 -1      4090 1.97186E+01 4.01539E-01-1.67832E-03-8.40643E-02-3.01001E-13-2.36790E-13
 -1      4091 1.96301E+01 4.90057E-01 3.14371E-03-5.09465E-02-4.69000E-14-4.89383E-13
 -1      4092 1.97661E+01 3.60799E-01-5.77170E-04-7.48686E-02-1.82352E-13-1.00861E-13
 -1      4093 1.98012E+01 3.22300E-01-1.27722E-03-6.04941E-02-1.58680E-16-1.60721E-13
 -1      4094 1.97344E+01 3.97796E-01 2.44009E-03-3.41574E-02-1.18820E-13-2.65700E-13
 -1      4095 1.98371E+01 2.86820E-01-4.76634E-04-5.41069E-02 7.66459E-14-1.23745E-13
 -1      4096 1.98638E+01 2.53855E-01-9.63336E-04-4.31176E-02 1.05811E-13-9.19797E-14
 -1      4097 1.98141E+01 3.16975E-01 1.87160E-03-2.28152E-02 5.35421E-14-1.47693E-13
 -1      4098 1.98905E+01 2.23802E-01-3.79615E-04-3.86985E-02 3.02290E-14-1.64166E-13
 -1      4099 1.99103E+01 1.96273E-01-7.18348E-04-3.03331E-02-6.78434E-14-1.81134E-13
 -1      4100 1.98740E+01 2.48069E-01 1.41540E-03-1.51594E-02-1.64763E-14-3.79811E-13
 -1      4101 1.99299E+01 1.71418E-01-2.92488E-04-2.72925E-02 1.31186E-14-1.53681E-13
 -1      4102 1.99442E+01 1.48930E-01-5.28274E-04-2.09670E-02 8.02400E-14-1.28113E-13
 -1      4103 1.99182E+01 1.90685E-01 1.05308E-03-9.99201E-03 2.26628E-14-4.60095E-13
 -1      4104 1.99581E+01 1.28809E-01-2.18174E-04-1.88914E-02-4.94344E-14-1.40035E-13
 -1      4105 1.99682E+01 1.10807E-01-3.82074E-04-1.41515E-02-1.67234E-13-2.25052E-13
 -1      4106 1.99501E+01 1.43891E-01 7.68979E-04-6.50376E-03 1.15191E-14-4.24103E-13
 -1      4107 1.99779E+01 9.48371E-02-1.57323E-04-1.27507E-02-4.31054E-13-1.82170E-13
 -1      4108 1.99847E+01 8.06993E-02-2.70831E-04-9.23930E-03-4.34314E-13-3.97119E-13
 -1      4109 1.99725E+01 1.06468E-01 5.49392E-04-4.15014E-03-3.57018E-13-4.00061E-13
 -1      4110 1.99912E+01 6.82637E-02-1.09206E-04-8.30958E-03-3.29628E-13-4.50337E-13
 -1      4111 1.99956E+01 5.73676E-02-1.87268E-04-5.74447E-03-2.31933E-13-5.33869E-13
 -1      4112 1.99877E+01 7.70928E-02 3.82354E-04-2.56557E-03-4.07567E-13-3.75844E-13
 -1      4113 1.99998E+01 4.78659E-02-7.23616E-05-5.14214E-03-1.81244E-13-6.09693E-13
 -1      4114 2.00025E+01 3.96274E-02-1.25432E-04-3.30009E-03-1.76083E-13-7.11076E-13
 -1      4115 1.99977E+01 5.44537E-02 2.57502E-04-1.50431E-03-3.07293E-13-4.03707E-13
 -1      4116 2.00049E+01 3.25082E-02-4.50247E-05-2.92375E-03-7.35203E-14-7.12878E-13
 -1      4117 2.00064E+01 2.64034E-02-8.04685E-05-1.62850E-03-1.08724E-13-6.12000E-13
 -1      4118 2.00038E+01 3.73307E-02 1.65997E-04-8.00543E-04-1.65792E-13-5.57651E-13
 -1      4119 2.00077E+01 2.11798E-02-2.54061E-05-1.40641E-03-1.23411E-13-4.81357E-13
 -1      4120 2.00083E+01 1.67547E-02-4.84512E-05-5.19536E-04-1.00155E-13-6.55342E-13
 -1      4121 2.00072E+01 2.46340E-02 1.00433E-04-3.41593E-04-2.03013E-14-5.61400E-13
 -1      4122 2.00088E+01 1.30101E-02-1.18493E-05-4.00981E-04 1.88711E-14-6.98882E-13
 -1      4123 2.00089E+01 9.88149E-03-2.62292E-05 1.85342E-04 1.12284E-13-8.28317E-13
 -1      4124 2.00088E+01 1.54212E-02 5.47111E-05-5.03040E-05-3.76025E-14-4.34537E-13
 -1      4125 2.00089E+01 7.26789E-03-2.90534E-06 2.36142E-04 2.29585E-13-9.48230E-13
 -1      4126 2.00086E+01 5.11970E-03-1.12911E-05 6.05031E-04 1.69426E-13-8.48061E-13
 -1      4127 2.00091E+01 8.89841E-03 2.39008E-05 1.26618E-04 1.17895E-13-7.41457E-13
 -1      4128 2.00082E+01 3.35240E-03 2.66248E-06 6.13190E-04 2.92364E-13-8.41172E-13
 -1      4129 2.00078E+01 1.92838E-03-1.58545E-06 8.27877E-04 3.72377E-13-6.82961E-13
 -1      4130 2.00086E+01 4.41064E-03 4.08672E-06 2.26264E-04 2.93144E-13-6.83470E-13
 -1      4131 2.00072E+01 7.79070E-04 6.17982E-06 8.11002E-04 3.55193E-13-6.91495E-13
 -1      4132 2.00067E+01-1.17007E-04 5.99380E-06 9.13906E-04 2.24290E-13-5.58431E-13
 -1      4133 2.00076E+01 1.42739E-03-7.97792E-06 2.74401E-04 3.82137E-13-6.26059E-13
 -1      4134 2.00063E+01-6.19657E-04 7.85486E-06 8.58213E-04 1.62154E-13-4.23380E-13
 -1      4135 2.00058E+01-1.15466E-03 2.64067E-06 8.11521E-04 2.11849E-13-1.97775E-13
 -1      4136 2.00059E+01-1.16730E-03-1.59695E-05 2.31022E-04 2.89626E-13-1.68665E-13
 -1      4137 2.00067E+01-2.52908E-04-1.44882E-05 2.66538E-04 4.01102E-13-1.77705E-13
 -1      4138 1.97896E+01 3.46070E-01-1.16922E-03 9.88238E-02-1.60268E-13-1.25528E-13
 -1      4139 1.97515E+01 3.88660E-01-5.49157E-04 1.14882E-01 3.52494E-14-1.25419E-13
 -1      4140 1.98566E+01 2.71481E-01-9.38013E-04 7.59502E-02-1.28657E-13-2.23238E-13
 -1      4141 1.98286E+01 3.07469E-01-3.49040E-04 8.95068E-02-1.65413E-13-1.51723E-13
 -1      4142 1.97972E+01 3.41473E-01 1.96752E-03 6.35388E-02-1.27063E-13-1.26461E-13
 -1      4143 1.89663E+01 8.93978E-01-3.23715E-03 2.51338E-01 8.30775E-14-3.06150E-14
 -1      4144 1.88149E+01 9.55694E-01-3.48868E-03 2.73108E-01 1.01409E-14 4.08643E-15
 -1      4145 1.96999E+01 4.33891E-01-1.43742E-03 1.25514E-01 8.07811E-14-1.99364E-13
 -1      4146 1.96486E+01 4.83127E-01-8.33522E-04 1.43964E-01 7.59567E-14-6.27636E-14
 -1      4147 1.97101E+01 4.28731E-01 2.58973E-03 7.92199E-02 6.57315E-14-7.24679E-14
 -1      4148 1.99058E+01 2.09461E-01-7.40666E-04 5.69577E-02-4.05886E-14-2.96815E-13
 -1      4149 1.98856E+01 2.39246E-01-2.11358E-04 6.80974E-02-3.26423E-14-2.99056E-13
 -1      4150 1.98622E+01 2.67444E-01 1.47806E-03 4.94833E-02-2.09388E-14-3.90886E-13
 -1      4151 1.99412E+01 1.58871E-01-5.74848E-04 4.16206E-02-4.84656E-14-2.04037E-13
 -1      4152 1.99270E+01 1.83061E-01-1.18965E-04 5.05525E-02-9.17594E-14-2.55336E-13
 -1      4153 1.99100E+01 2.05959E-01 1.09522E-03 3.74625E-02-7.20966E-14-4.05911E-13
 -1      4154 1.99662E+01 1.18336E-01-4.38029E-04 2.95462E-02-4.84609E-14-1.70354E-13
 -1      4155 1.99565E+01 1.37636E-01-5.87388E-05 3.65456E-02-3.67303E-14-1.83837E-13
 -1      4156 1.99444E+01 1.55869E-01 7.98395E-04 2.75583E-02-2.95762E-14-3.44400E-13
 -1      4157 1.99834E+01 8.64122E-02-3.27253E-04 2.02671E-02-2.29446E-13-1.81826E-13
 -1      4158 1.99769E+01 1.01547E-01-2.08909E-05 2.56318E-02-1.14195E-13-1.19529E-13
 -1      4159 1.99686E+01 1.15795E-01 5.70816E-04 1.96519E-02-1.81339E-13-4.54144E-13
 -1      4160 1.99947E+01 6.16948E-02-2.39255E-04 1.33048E-02-3.00482E-13-8.19400E-14
 -1      4161 1.99906E+01 7.33622E-02 1.71639E-06 1.73260E-02-2.79428E-13-1.58474E-13
 -1      4162 1.99851E+01 8.42887E-02 3.98592E-04 1.35168E-02-2.84282E-13-3.10604E-13
 -1      4163 2.00018E+01 4.28884E-02-1.70677E-04 8.20893E-03-2.86442E-13 1.51786E-13
 -1      4164 1.99994E+01 5.17247E-02 1.41816E-05 1.11536E-02-3.15504E-13-2.90361E-14
 -1      4165 1.99960E+01 5.99451E-02 2.70203E-04 8.88265E-03-3.52139E-13-2.82217E-13
 -1      4166 2.00059E+01 2.88400E-02-1.18266E-04 4.57923E-03 5.92320E-15 2.66848E-13
 -1      4167 2.00047E+01 3.54076E-02 2.00797E-05 6.68094E-03-6.78701E-14 2.79183E-13
 -1      4168 2.00028E+01 4.14675E-02 1.76132E-04 5.47564E-03-2.29847E-13 1.19676E-13
 -1      4169 2.00080E+01 1.85541E-02-7.90202E-05 2.07404E-03 8.42041E-14 8.12470E-14
 -1      4170 2.00075E+01 2.33356E-02 2.18737E-05 3.53004E-03 8.14720E-14 2.45296E-13
 -1      4171 2.00066E+01 2.77036E-02 1.08584E-04 3.04206E-03 6.25085E-14 1.50875E-13
 -1      4172 2.00087E+01 1.11907E-02-5.02687E-05 4.11349E-04-6.82530E-14 1.61233E-13
 -1      4173 2.00087E+01 1.45913E-02 2.12316E-05 1.38346E-03-1.62483E-14 1.54243E-13
 -1      4174 2.00084E+01 1.76593E-02 6.12494E-05 1.35999E-03 9.50254E-14 1.31753E-14
 -1      4175 2.00085E+01 6.05568E-03-2.97048E-05-6.35202E-04 7.12267E-14 2.83279E-13
 -1      4176 2.00088E+01 8.40868E-03 1.92664E-05-1.76206E-05 1.25667E-15 1.42541E-13
 -1      4177 2.00090E+01 1.04972E-02 2.90868E-05 2.43344E-04-2.94304E-14 1.68786E-14
 -1      4178 2.00077E+01 2.58477E-03-1.53848E-05-1.24272E-03 3.65145E-14 1.60841E-13
 -1      4179 2.00082E+01 4.15999E-03 1.67154E-05-8.78707E-04 8.59400E-14 1.70129E-13
 -1      4180 2.00086E+01 5.52610E-03 8.12676E-06-4.58777E-04 1.56638E-13 7.62769E-15
 -1      4181 2.00067E+01 3.25795E-04-6.06076E-06-1.54635E-03 1.47897E-13-3.87830E-15
 -1      4182 2.00072E+01 1.33885E-03 1.40379E-05-1.35893E-03 1.33451E-13 9.95296E-14
 -1      4183 2.00078E+01 2.18500E-03-4.74144E-06-8.65241E-04 1.81719E-13-1.69128E-13
 -1      4184 2.00055E+01-1.08538E-03 1.05951E-06-1.65374E-03 3.75740E-13-3.50616E-13
 -1      4185 2.00061E+01-4.57520E-04 1.11549E-05-1.57569E-03 2.94401E-13-1.44224E-13
 -1      4186 2.00067E+01 2.38818E-05-1.20945E-05-1.06576E-03 3.79011E-13-2.76652E-13
 -1      4187 1.95813E+01 5.34816E-01-1.74933E-03 1.55522E-01 6.57192E-14-7.76578E-14
 -1      4188 1.95131E+01 5.90190E-01-1.22926E-03 1.75992E-01 1.61371E-14-1.14531E-13
 -1      4189 1.95952E+01 5.29149E-01 3.37970E-03 9.56303E-02 7.82612E-14-1.87458E-13
 -1      4190 1.69428E+01 1.22668E+00-1.12157E-02 3.09679E-01-5.36302E-14 7.10888E-14
 -1      4191 1.64778E+01 1.22597E+00-1.49950E-02 3.01954E-01-5.74172E-14 1.17169E-13
 -1      4192 1.86331E+01 1.01480E+00-4.20033E-03 2.77684E-01 9.88489E-14-1.51772E-14
 -1      4193 1.84361E+01 1.06990E+00-5.12531E-03 2.98726E-01 8.39847E-14 1.97211E-14
 -1      4194 1.86884E+01 1.01340E+00 9.86263E-03 1.23779E-01 9.12082E-14-1.55210E-14
 -1      4195 2.00046E+01-1.78093E-03 2.93991E-06-1.63863E-03 1.52809E-13-2.61288E-13
 -1      4196 1.61084E+01 1.25929E+00 3.35223E-02-2.24379E-01-3.20254E-14 2.21996E-13
 -1      4197 1.76736E+01 1.19242E+00-8.51631E-03 2.98890E-01-9.96749E-14 1.64294E-13
 -1      4198 1.73391E+01 1.21451E+00-9.72803E-03 3.23840E-01-7.36186E-14 1.25233E-13
 -1      4199 1.71486E+01 1.27196E+00 2.69004E-02-3.74025E-02-1.00184E-13 3.09814E-13
 -1      4200 2.00049E+01-1.88009E-03 3.42407E-06-4.97128E-04 7.55924E-14-3.06028E-13
 -1      4201 2.00051E+01-1.54389E-03-1.09217E-05-1.14168E-03 2.67718E-13-4.28237E-13
 -1      4202 1.82150E+01 1.11755E+00-5.76761E-03 2.92551E-01-5.90712E-14 1.20799E-13
 -1      4203 1.79587E+01 1.16009E+00-7.24495E-03 3.13510E-01-6.17267E-14 1.04849E-13
 -1      4204 1.78067E+01 1.21339E+00 1.97149E-02 4.34860E-02-3.68865E-14 2.79930E-13
 -1      4205 1.82959E+01 1.12491E+00 1.39131E-02 9.77204E-02 8.60009E-14 5.08532E-14
 -1      4206 1.65302E+01 1.05976E+00-1.01383E-02-7.02610E-01-9.16420E-14 2.21355E-13
 -1      4207 1.92252E+01 7.68975E-01-2.59004E-03 2.20497E-01-5.69616E-14-2.77136E-14
 -1      4208 1.91085E+01 8.31736E-01-2.49863E-03 2.42751E-01 8.32628E-14-4.35919E-14
 -1      4209 1.90046E+01 8.89347E-01 7.42670E-03 1.29195E-01 1.53823E-14-1.22279E-13
 -1      4210 2.00059E+01-1.17328E-03 1.72292E-06-4.60448E-04 3.46135E-13-3.73830E-13
 -1      4211 1.94454E+01 6.41529E-01 4.38787E-03 1.11204E-01-1.45207E-14-2.09313E-13
 -1      4212 1.94262E+01 6.47515E-01-2.12109E-03 1.87767E-01-4.24094E-14-5.39892E-14
 -1      4213 1.93366E+01 7.07740E-01-1.76987E-03 2.09587E-01-6.28578E-14 2.27146E-14
 -1      4214 1.97132E+01 4.07672E-01-1.54404E-03 1.65728E-02-6.48107E-14-1.86326E-13
 -1      4215 1.96615E+01 4.54328E-01-1.63254E-03 2.16332E-02-2.01895E-14-2.31282E-13
 -1      4216 1.73091E+01 1.10684E+00-1.06409E-02-4.45660E-01-2.60017E-14 1.81772E-13
 -1      4217 1.76034E+01 1.11097E+00-1.59401E-02-3.23289E-01 1.30825E-14 2.04467E-13
 -1      4218 1.78995E+01 1.09401E+00-7.80268E-03-2.69428E-01 5.66292E-14 1.56107E-13
 -1      4219 1.81334E+01 1.07136E+00-1.11568E-02-1.86379E-01 6.85970E-14 1.37929E-13
 -1      4220 1.83623E+01 1.03565E+00-5.70283E-03-1.51917E-01 1.12234E-13 6.05559E-14
 -1      4221 1.85503E+01 9.95141E-01-7.82730E-03-9.58843E-02 1.92636E-13 5.95699E-15
 -1      4222 1.87374E+01 9.44030E-01-4.42941E-03-7.82520E-02 1.22107E-13-1.97901E-14
 -1      4223 1.88888E+01 8.92715E-01-5.73030E-03-4.05826E-02 3.84878E-14-1.87189E-14
 -1      4224 1.90347E+01 8.35368E-01-3.54479E-03-3.24908E-02 1.88497E-14-6.19176E-14
 -1      4225 1.91565E+01 7.79571E-01-4.18194E-03-7.50369E-03-1.37893E-14-1.78783E-13
 -1      4226 1.92702E+01 7.20727E-01-2.88207E-03-5.69773E-03-3.84153E-14-1.51590E-13
 -1      4227 1.93676E+01 6.64795E-01-3.06230E-03 1.06496E-02-2.23069E-14-2.35063E-13
 -1      4228 1.94559E+01 6.08015E-01-2.35425E-03 8.58084E-03 5.02338E-14-3.12918E-13
 -1      4229 1.95331E+01 5.54972E-01-2.24076E-03 1.91177E-02 7.59900E-14-4.44277E-13
 -1      4230 1.96010E+01 5.02592E-01-1.91575E-03 1.49421E-02 7.13633E-14-3.57641E-13
 -1      4231 1.97599E+01 3.65173E-01-1.18067E-03 2.07627E-02-2.22658E-14-8.35580E-14
 -1      4232 1.97987E+01 3.24796E-01-1.22812E-03 1.56058E-02-4.20356E-14-2.45133E-13
 -1      4233 1.98342E+01 2.88378E-01-8.45176E-04 1.81982E-02 2.62701E-14-3.20305E-13
 -1      4234 1.98629E+01 2.54281E-01-9.61810E-04 1.34084E-02 4.31529E-15-3.58062E-13
 -1      4235 1.98894E+01 2.23798E-01-5.97017E-04 1.49991E-02-2.80839E-14-4.08166E-13
 -1      4236 1.99103E+01 1.95622E-01-7.40456E-04 1.08115E-02-5.43600E-14-4.13120E-13
 -1      4237 1.99296E+01 1.70635E-01-4.14601E-04 1.17848E-02-4.48513E-14-4.20243E-13
 -1      4238 1.99445E+01 1.47807E-01-5.59535E-04 8.28270E-03-2.77358E-14-4.19554E-13
 -1      4239 1.99583E+01 1.27716E-01-2.81646E-04 8.88148E-03-6.10324E-14-4.85329E-13
 -1      4240 1.99687E+01 1.09560E-01-4.14306E-04 6.05486E-03-2.33957E-13-4.53912E-13
 -1      4241 1.99782E+01 9.36992E-02-1.85794E-04 6.42917E-03-3.65223E-13-4.26666E-13
 -1      4242 1.99852E+01 7.95157E-02-2.99878E-04 4.21630E-03-3.63094E-13-3.74059E-13
 -1      4243 1.99916E+01 6.72180E-02-1.17635E-04 4.45691E-03-3.17766E-13-3.54114E-13
 -1      4244 1.99961E+01 5.63352E-02-2.11425E-04 2.77225E-03-3.47014E-13-3.05898E-13
 -1      4245 2.00002E+01 4.69719E-02-7.00061E-05 2.93293E-03-3.27282E-13-3.58714E-13
 -1      4246 2.00028E+01 3.87751E-02-1.44396E-04 1.68484E-03-2.34065E-13-3.17273E-13
 -1      4247 2.00053E+01 3.17807E-02-3.74674E-05 1.79685E-03-3.92848E-14-3.17505E-13
 -1      4248 2.00067E+01 2.57280E-02-9.46645E-05 8.97973E-04 7.64615E-14-2.16058E-13
 -1      4249 2.00079E+01 2.06099E-02-1.59007E-05 9.79268E-04 5.11162E-14-2.31780E-13
 -1      4250 2.00085E+01 1.62372E-02-5.86168E-05 3.51937E-04 6.15065E-14-2.37858E-13
 -1      4251 2.00090E+01 1.25776E-02-2.20383E-06 4.12760E-04 1.03261E-13-1.86071E-13
 -1      4252 2.00090E+01 9.49656E-03-3.31741E-05-8.83591E-06 6.89794E-14-2.53657E-13
 -1      4253 2.00090E+01 6.94897E-03 5.94946E-06 3.74444E-05 1.28397E-13-3.01933E-13
 -1      4254 2.00087E+01 4.84117E-03-1.57746E-05-2.32178E-04 2.22460E-13-4.02100E-13
 -1      4255 2.00083E+01 3.12332E-03 1.03022E-05-1.96917E-04 2.93708E-13-3.68900E-13
 -1      4256 2.00078E+01 1.73184E-03-4.27881E-06-3.57120E-04 3.02229E-13-3.56730E-13
 -1      4257 2.00073E+01 6.17343E-04 1.21081E-05-3.31627E-04 3.52103E-13-3.51817E-13
 -1      4258 1.68939E+01 1.09571E+00-2.34265E-02-5.22734E-01-5.03399E-14 2.02031E-13
 -1      4259 2.00063E+01-7.31777E-04 1.48175E-05-4.35276E-04 4.13197E-13-1.79602E-13
 -1      4260 2.00067E+01-2.64309E-04-4.49959E-07-4.13261E-04 4.41818E-13-2.52979E-13
 -1      4261 1.92522E+01 7.63142E-01 5.69277E-03 1.23525E-01-6.77468E-14-9.59621E-14
 -3
    1PSTEP                         3           1           1          
  100CL  101 1.000000000        4261                     0    1           1
 -4  TOSTRAIN    6    1
 -5  EXX         1    4    1    1
 -5  EYY         1    4    2    2
 -5  EZZ         1    4    3    3
 -5  EXY         1    4    1    2
 -5  EYZ         1    4    2    3
 -5  EZX         1    4    3    1
 -1         1 3.08942E-04-9.56057E-05-7.89801E-05 9.49219E-07-3.33413E-19 1.23204E-18
 -1         2 3.63617E-05-1.10824E-04 1.99540E-05 8.36343E-07 6.84011E-18 4.63168E-19
 -1         3 9.52374E-05-2.85709E-05-2.85717E-05 2.39697E-10-2.22833E-18-3.43769E-18
 -1         4 9.52374E-05-2.85709E-05-2.85717E-05-2.19485E-10 6.48958E-19 6.76318E-19
 -1         5 1.54124E-04-2.23730E-05-4.70403E-05 3.88259E-05-2.97097E-19 2.06081E-17
 -1         6 1.54004E-04 2.85779E-10-4.78529E-05-5.45425E-05-1.33461E-18 1.63159E-17
 -1         7 1.00094E-04-8.98357E-07-4.26080E-05-2.71195E-05-1.84547E-19 1.27330E-18
 -1         8 9.24990E-05-4.07818E-08-3.92577E-05-1.57724E-05-1.83171E-19-2.79169E-18
 -1         9 8.75891E-05 1.59032E-08-3.72539E-05-9.64557E-06-1.33302E-19-4.82619E-18
 -1        10 8.35055E-05 1.65974E-08-3.55490E-05-5.12756E-06-7.17860E-20-5.67125E-18
 -1        11 7.96879E-05 3.30363E-08-3.39840E-05-1.68309E-06-3.57342E-20-6.00259E-18
 -1        12 7.61640E-05 6.24086E-08-3.25718E-05 6.99194E-07 9.15854E-21-6.06442E-18
 -1        13 7.30575E-05 1.03653E-07-3.13569E-05 2.05800E-06 1.72583E-20-5.96638E-18
 -1        14 7.08374E-05 1.43380E-07-3.05127E-05 2.41197E-06 5.25293E-20-5.81724E-18
 -1        15 6.99309E-05 1.69344E-07-3.01908E-05 2.03192E-06 8.51111E-20-5.57599E-18
 -1        16 7.06330E-05 1.72741E-07-3.04948E-05 1.39593E-06 1.02253E-19-5.30119E-18
 -1        17 7.29987E-05 1.50375E-07-3.14439E-05 1.09576E-06 1.32428E-19-4.83439E-18
 -1        18 7.67426E-05 1.14699E-07-3.29364E-05 1.66776E-06 1.51301E-19-4.05583E-18
 -1        19 8.16649E-05 6.87470E-08-3.49044E-05 3.58795E-06 2.27322E-19-2.86517E-18
 -1        20 8.73977E-05 2.28335E-08-3.72105E-05 7.24702E-06 2.74492E-19-1.03090E-18
 -1        21 9.39701E-05-3.89178E-08-3.98338E-05 1.32924E-05 2.78039E-19 2.19930E-18
 -1        22 1.03316E-04-6.09311E-07-4.31393E-05 2.39450E-05 4.31987E-20 8.18276E-18
 -1        23 1.25906E-04-4.25029E-05-3.93350E-05-3.60671E-06-9.00475E-19 1.17973E-17
 -1        24 1.08593E-04-3.24378E-05-3.36776E-05 5.98063E-07-2.45640E-19 7.85513E-18
 -1        25 1.07028E-04-3.22150E-05-3.22149E-05 4.60817E-07-9.79556E-20 4.09223E-18
 -1        26 1.06788E-04-3.20995E-05-3.19260E-05 2.21527E-07-1.04124E-19 1.71154E-18
 -1        27 1.06145E-04-3.18739E-05-3.16940E-05 6.94352E-08-8.78813E-20 1.86341E-19
 -1        28 1.04117E-04-3.12467E-05-3.10784E-05-9.31446E-08-4.97814E-20-6.87711E-19
 -1        29 1.00267E-04-3.00884E-05-2.99484E-05-2.61040E-07-7.95392E-20-1.97446E-18
 -1        30 9.48425E-05-2.84662E-05-2.84000E-05-3.87506E-07 3.30920E-20-3.30310E-18
 -1        31 8.89321E-05-2.66990E-05-2.67528E-05-4.02735E-07-1.66402E-19-4.92360E-18
 -1        32 8.42619E-05-2.53009E-05-2.54769E-05-2.63439E-07-4.02572E-20-6.15780E-18
 -1        33 8.25138E-05-2.47766E-05-2.50111E-05-3.06669E-09 3.14382E-19-6.40979E-18
 -1        34 8.44591E-05-2.53580E-05-2.55519E-05 2.68678E-07-4.86961E-20-6.89739E-18
 -1        35 8.95070E-05-2.68670E-05-2.69483E-05 4.34929E-07-7.06007E-20-7.30371E-18
 -1        36 9.60367E-05-2.88163E-05-2.87789E-05 4.49027E-07 1.39165E-19-7.34626E-18
 -1        37 1.02238E-04-3.06645E-05-3.05553E-05 3.46784E-07-4.07602E-20-6.55834E-18
 -1        38 1.06844E-04-3.20359E-05-3.19130E-05 2.00718E-07-1.14376E-19-7.12257E-18
 -1        39 1.09390E-04-3.27943E-05-3.26964E-05 6.99630E-08-6.00699E-21-7.61288E-18
 -1        40 1.10049E-04-3.29923E-05-3.29321E-05-1.90408E-08-4.32690E-20-8.14036E-18
 -1        41 1.09315E-04-3.27767E-05-3.27498E-05-6.56506E-08 1.40633E-19-9.15207E-18
 -1        42 1.07740E-04-3.23107E-05-3.23062E-05-8.09924E-08 8.44473E-20-8.53564E-18
 -1        43 1.05787E-04-3.17308E-05-3.17382E-05-7.77564E-08-3.22498E-19-6.55352E-18
 -1        44 1.03779E-04-3.11335E-05-3.11453E-05-6.57592E-08 3.48240E-19-5.85328E-18
 -1        45 1.01914E-04-3.05775E-05-3.05895E-05-5.11875E-08-1.96929E-19-5.21108E-18
 -1        46 1.00291E-04-3.00928E-05-3.01030E-05-3.73409E-08-2.17735E-19-7.44613E-18
 -1        47 9.89446E-05-2.96897E-05-2.96975E-05-2.56452E-08 3.64037E-19-5.48420E-18
 -1        48 9.78678E-05-2.93667E-05-2.93722E-05-1.64660E-08-1.00387E-19-4.95899E-18
 -1        49 9.70335E-05-2.91160E-05-2.91196E-05-9.64546E-09 2.05213E-19-5.22664E-18
 -1        50 9.64057E-05-2.89270E-05-2.89291E-05-4.81397E-09-9.59433E-20-6.12423E-18
 -1        51 9.59467E-05-2.87885E-05-2.87895E-05-1.55481E-09-1.02606E-19-5.14539E-18
 -1        52 9.56213E-05-2.86901E-05-2.86904E-05 5.18408E-10-1.06353E-19-5.77774E-18
 -1        53 9.53988E-05-2.86226E-05-2.86224E-05 1.73174E-09 1.69128E-19-6.09634E-18
 -1        54 9.52534E-05-2.85783E-05-2.85779E-05 2.34503E-09 1.07352E-19-5.80376E-18
 -1        55 9.51643E-05-2.85510E-05-2.85505E-05 2.55703E-09-3.27763E-19-5.81679E-18
 -1        56 9.51152E-05-2.85358E-05-2.85353E-05 2.51475E-09 2.43014E-19-6.25838E-18
 -1        57 9.50934E-05-2.85290E-05-2.85284E-05 2.32355E-09-2.18550E-19-5.48677E-18
 -1        58 9.50896E-05-2.85275E-05-2.85270E-05 2.05653E-09 9.12520E-20-4.35215E-18
 -1        59 9.50970E-05-2.85296E-05-2.85291E-05 1.76254E-09 1.75142E-21-4.94987E-18
 -1        60 9.51108E-05-2.85335E-05-2.85332E-05 1.47266E-09-3.97869E-19-2.41503E-18
 -1        61 9.51276E-05-2.85385E-05-2.85382E-05 1.20537E-09-4.90978E-19-5.37394E-18
 -1        62 9.51453E-05-2.85437E-05-2.85434E-05 9.70391E-10-4.88717E-19-6.90379E-18
 -1        63 9.51624E-05-2.85488E-05-2.85486E-05 7.71613E-10 9.77707E-20-7.68423E-18
 -1        64 9.51783E-05-2.85535E-05-2.85534E-05 6.09133E-10-7.95296E-19-6.03038E-18
 -1        65 9.51925E-05-2.85577E-05-2.85576E-05 4.80553E-10-1.72364E-19-2.27692E-18
 -1        66 9.52050E-05-2.85615E-05-2.85614E-05 3.81538E-10 1.91392E-21 1.91614E-19
 -1        67 9.52156E-05-2.85646E-05-2.85646E-05 3.05466E-10 8.86674E-19 1.80552E-18
 -1        68 9.52243E-05-2.85672E-05-2.85672E-05 2.41344E-10-5.09189E-19 1.97981E-18
 -1        69 9.52311E-05-2.85693E-05-2.85692E-05 1.67770E-10-6.46085E-19-2.13903E-18
 -1        70 9.52356E-05-2.85707E-05-2.85705E-05 2.55746E-11 6.27354E-19-2.78884E-18
 -1        71 9.52375E-05-2.85713E-05-2.85712E-05-1.78287E-10-3.35915E-19 4.98396E-19
 -1        72 1.18874E-04-3.56144E-05-3.93968E-05-2.71915E-06 2.22981E-19 1.94199E-17
 -1        73 1.15258E-04-3.43357E-05-3.56551E-05-5.58296E-07 7.80296E-20 1.56737E-17
 -1        74 1.16668E-04-3.49645E-05-3.51848E-05-3.16618E-07 1.93644E-19 1.25816E-17
 -1        75 1.19787E-04-3.59381E-05-3.58778E-05-3.25457E-07-3.01827E-20 1.09415E-17
 -1        76 1.22720E-04-3.68216E-05-3.66237E-05-3.28846E-07 6.79090E-20 9.59998E-18
 -1        77 1.23550E-04-3.70992E-05-3.67235E-05-2.30477E-07-4.93661E-21 9.18686E-18
 -1        78 1.20332E-04-3.61931E-05-3.56532E-05 6.66550E-08-1.38366E-19 9.65199E-18
 -1        79 1.11980E-04-3.37335E-05-3.32375E-05 5.65159E-07-1.07408E-19 9.23456E-18
 -1        80 9.98042E-05-3.00404E-05-2.99689E-05 1.03615E-06-2.26490E-20 7.89276E-18
 -1        81 8.83449E-05-2.64559E-05-2.70609E-05 1.06743E-06 7.77384E-20 6.67758E-18
 -1        82 8.35158E-05-2.48622E-05-2.58967E-05 4.59507E-07 3.11950E-19 4.80699E-18
 -1        83 8.82963E-05-2.62824E-05-2.71271E-05-4.21379E-07-2.30998E-20 2.88878E-18
 -1        84 1.00151E-04-2.99536E-05-3.01663E-05-9.82334E-07-3.99675E-20 2.83454E-18
 -1        85 1.13189E-04-3.39885E-05-3.36467E-05-9.80185E-07 5.48288E-20 2.75953E-18
 -1        86 1.22523E-04-3.68399E-05-3.63083E-05-6.35444E-07 6.57609E-21 1.72985E-18
 -1        87 1.26501E-04-3.80235E-05-3.75838E-05-2.56370E-07-2.45856E-19 7.29064E-19
 -1        88 1.25971E-04-3.78345E-05-3.75784E-05 3.70997E-09-1.36565E-19 7.99473E-19
 -1        89 1.22693E-04-3.68250E-05-3.67263E-05 1.30839E-07 5.55779E-19-1.21833E-18
 -1        90 1.18246E-04-3.54766E-05-3.54735E-05 1.68020E-07-3.21544E-19-3.05660E-18
 -1        91 1.13676E-04-3.40998E-05-3.41404E-05 1.59105E-07 2.48418E-20-2.68734E-19
 -1        92 1.09531E-04-3.28557E-05-3.29085E-05 1.32595E-07 1.68765E-19 2.17271E-19
 -1        93 1.06028E-04-3.18061E-05-3.18562E-05 1.03149E-07-4.38672E-19 1.03675E-18
 -1        94 1.03199E-04-3.09586E-05-3.10005E-05 7.69029E-08 5.33616E-19-6.87278E-19
 -1        95 1.00982E-04-3.02947E-05-3.03276E-05 5.56506E-08 1.71875E-19-4.15737E-18
 -1        96 9.92866E-05-2.97867E-05-2.98115E-05 3.92999E-08 1.39153E-19-2.10429E-18
 -1        97 9.80148E-05-2.94054E-05-2.94238E-05 2.71017E-08-2.83450E-19 1.89516E-19
 -1        98 9.70783E-05-2.91246E-05-2.91380E-05 1.81910E-08 3.74995E-19 1.47880E-18
 -1        99 9.64018E-05-2.89216E-05-2.89312E-05 1.17920E-08-1.80056E-19-2.48201E-18
 -1       100 9.59234E-05-2.87780E-05-2.87847E-05 7.27266E-09-3.64744E-20-2.65130E-18
 -1       101 9.55936E-05-2.86789E-05-2.86835E-05 4.14061E-09-6.87471E-20-9.67331E-19
 -1       102 9.53734E-05-2.86127E-05-2.86158E-05 2.02105E-09-2.15535E-19-1.59224E-18
 -1       103 9.52328E-05-2.85704E-05-2.85724E-05 6.32084E-10 1.05491E-19 2.58315E-19
 -1       104 9.51488E-05-2.85451E-05-2.85463E-05-2.36754E-10-2.93187E-19 1.90411E-18
 -1       105 9.51041E-05-2.85316E-05-2.85323E-05-7.41583E-10 7.24865E-19 5.42361E-19
 -1       106 9.50859E-05-2.85261E-05-2.85264E-05-9.97393E-10-8.10535E-19-3.40768E-19
 -1       107 9.50848E-05-2.85257E-05-2.85257E-05-1.08811E-09-2.99862E-19-1.71565E-18
 -1       108 9.50940E-05-2.85284E-05-2.85283E-05-1.07424E-09 1.11485E-18-3.44311E-18
 -1       109 9.51091E-05-2.85328E-05-2.85327E-05-9.98762E-10-1.27996E-20-3.79784E-18
 -1       110 9.51267E-05-2.85381E-05-2.85379E-05-8.91600E-10-2.91474E-19-1.14485E-18
 -1       111 9.51449E-05-2.85435E-05-2.85433E-05-7.73089E-10 3.74536E-19 1.08011E-18
 -1       112 9.51623E-05-2.85487E-05-2.85485E-05-6.56638E-10-3.42035E-19 1.43377E-18
 -1       113 9.51784E-05-2.85535E-05-2.85534E-05-5.50732E-10 7.81636E-19-8.97839E-19
 -1       114 9.51927E-05-2.85578E-05-2.85577E-05-4.60410E-10-7.43941E-19-1.47877E-18
 -1       115 9.52052E-05-2.85616E-05-2.85614E-05-3.88152E-10 3.08858E-19 1.02466E-18
 -1       116 9.52158E-05-2.85647E-05-2.85646E-05-3.33783E-10 5.12884E-19 2.08514E-19
 -1       117 9.52245E-05-2.85673E-05-2.85672E-05-2.93067E-10-6.54841E-20-3.81420E-18
 -1       118 9.52313E-05-2.85694E-05-2.85692E-05-2.52927E-10 4.79238E-20-5.08591E-18
 -1       119 9.52357E-05-2.85707E-05-2.85705E-05-1.58459E-10 3.45748E-19-9.91645E-18
 -1       120 9.52375E-05-2.85713E-05-2.85712E-05 1.03830E-10 7.08457E-19-8.09929E-18
 -1       121 9.52371E-05-2.85709E-05-2.85712E-05 1.87876E-10-6.50005E-18 4.00564E-19
 -1       122 9.52376E-05-2.85727E-05-2.85705E-05-8.47379E-11-3.10010E-18-4.48780E-20
 -1       123 9.52389E-05-2.85770E-05-2.85693E-05-2.30979E-10 6.48275E-20 4.45637E-19
 -1       124 9.52406E-05-2.85826E-05-2.85677E-05-2.76993E-10-1.63235E-18 3.47425E-19
 -1       125 9.52423E-05-2.85884E-05-2.85660E-05-2.59983E-10 1.72738E-18-7.24157E-19
 -1       126 9.52438E-05-2.85935E-05-2.85645E-05-2.09616E-10-7.36411E-18-1.10456E-18
 -1       127 9.52450E-05-2.85974E-05-2.85634E-05-1.33812E-10-8.53042E-18 1.49669E-18
 -1       128 9.52456E-05-2.85994E-05-2.85628E-05-4.52770E-11-2.48176E-18-4.47592E-19
 -1       129 9.52456E-05-2.85994E-05-2.85628E-05 4.71594E-11 4.59475E-19 9.99787E-19
 -1       130 9.52449E-05-2.85973E-05-2.85634E-05 1.35166E-10-1.12466E-18 3.17408E-19
 -1       131 9.52438E-05-2.85934E-05-2.85645E-05 2.12483E-10-5.32737E-18-2.41569E-18
 -1       132 9.52423E-05-2.85883E-05-2.85660E-05 2.60579E-10-9.91232E-18 1.07841E-18
 -1       133 9.52405E-05-2.85825E-05-2.85677E-05 2.75492E-10-3.35834E-18 1.51154E-18
 -1       134 9.52389E-05-2.85769E-05-2.85693E-05 2.49428E-10 1.40444E-18-6.01298E-19
 -1       135 9.52376E-05-2.85727E-05-2.85705E-05 1.18334E-10-1.29718E-18-9.28815E-19
 -1       136 9.52372E-05-2.85710E-05-2.85712E-05-3.47305E-10-1.22320E-18-2.63154E-19
 -1       137 2.73851E-05-9.19129E-05 1.64246E-05-2.42042E-05 1.54435E-17 3.39681E-18
 -1       138 9.26797E-06-4.11205E-05 4.91938E-06-2.17983E-05 1.95999E-17 8.43285E-18
 -1       139 8.00688E-06 7.74095E-06-1.16357E-05 1.33718E-05 1.90023E-17 1.38104E-17
 -1       140 4.77558E-05 2.70350E-05-3.19461E-05 6.86330E-05 1.52352E-17 1.55647E-17
 -1       141 1.32390E-04 3.06268E-06-5.25754E-05 1.10294E-04 9.52616E-18 1.54084E-17
 -1       142 2.37053E-04-5.03259E-05-6.97450E-05 1.04095E-04 3.00548E-18 9.27035E-18
 -1       143 3.09334E-04-9.30503E-05-7.95646E-05 3.69603E-05 3.09868E-19-3.44340E-18
 -1       144 3.03617E-04-8.93531E-05-7.89493E-05-4.78273E-05 2.24903E-18-1.57713E-17
 -1       145 2.29693E-04-4.59008E-05-6.88205E-05-1.06062E-04 8.54169E-18-2.30982E-17
 -1       146 1.28098E-04 4.99356E-06-5.18325E-05-1.09023E-04 1.51649E-17-2.46254E-17
 -1       147 4.38791E-05 2.71117E-05-3.07624E-05-6.52525E-05 2.08938E-17-2.14710E-17
 -1       148 6.66822E-06 4.00214E-06-1.00290E-05-8.72084E-06 2.07574E-17-1.43445E-17
 -1       149 1.11565E-05-4.82083E-05 6.61406E-06 2.42580E-05 1.48739E-17-6.19816E-18
 -1       150 2.90257E-05-9.41059E-05 1.65647E-05 2.13596E-05 5.72997E-18-1.07307E-18
 -1       151 3.52584E-05-1.07065E-04 1.90325E-05-4.15695E-06-5.10062E-18-4.23199E-19
 -1       152 2.23155E-05-7.69440E-05 1.30736E-05-2.34558E-05-1.50734E-17-4.01764E-18
 -1       153 5.87905E-06-2.27660E-05-3.11658E-08-1.24557E-05-2.02983E-17-1.00113E-17
 -1       154 1.71047E-05 2.16332E-05-1.93819E-05 3.52897E-05-2.04647E-17-1.66408E-17
 -1       155 7.39497E-05 2.46144E-05-3.99182E-05 8.89865E-05-1.66777E-17-2.04499E-17
 -1       156 1.78371E-04-1.90255E-05-6.06434E-05 1.12058E-04-8.78966E-18-1.77140E-17
 -1       157 2.71099E-04-7.15404E-05-7.43419E-05 7.67644E-05-2.63004E-18-9.12572E-18
 -1       158 2.71759E-04-7.22172E-05-7.42769E-05-7.90806E-05-2.39260E-18 9.87789E-18
 -1       159 1.76272E-04-1.75895E-05-6.03226E-05-1.14639E-04-7.24573E-18 1.51729E-17
 -1       160 7.76448E-05 2.42296E-05-4.09443E-05-9.17915E-05-1.29554E-17 1.55748E-17
 -1       161 1.55068E-05 2.08837E-05-1.83156E-05-3.28769E-05-1.42272E-17 1.17365E-17
 -1       162 6.15237E-06-2.50010E-05 7.24098E-07 1.40569E-05-9.68667E-18 4.83952E-18
 -1       163 2.42235E-05-8.28687E-05 1.44711E-05 2.33066E-05-3.83282E-18 1.45809E-18
 -1       164 1.05353E-04-1.52946E-05-3.87920E-05-1.87528E-05-2.59175E-18-6.06396E-19
 -1       165 9.69070E-05-1.06302E-05-3.71411E-05-1.26459E-05-2.05859E-18-3.01623E-18
 -1       166 9.08936E-05-8.00425E-06-3.56431E-05-7.83191E-06-1.39881E-18-4.25244E-18
 -1       167 8.57701E-05-6.18347E-06-3.41965E-05-3.90604E-06-7.55537E-19-4.84091E-18
 -1       168 8.09601E-05-4.49918E-06-3.28358E-05-8.98361E-07-2.67600E-19-5.05427E-18
 -1       169 7.63625E-05-2.77059E-06-3.15929E-05 1.18885E-06 1.88786E-19-5.07052E-18
 -1       170 7.25072E-05-1.16362E-06-3.06208E-05 2.23723E-06 5.94395E-19-4.99567E-18
 -1       171 7.00633E-05 2.14026E-09-3.00688E-05 2.36845E-06 9.34994E-19-4.80815E-18
 -1       172 6.96494E-05 3.98224E-07-3.00614E-05 1.95393E-06 1.29593E-18-4.62262E-18
 -1       173 7.15771E-05-1.54264E-07-3.06563E-05 1.55813E-06 1.54418E-18-4.31091E-18
 -1       174 7.56415E-05-1.58307E-06-3.17975E-05 1.76971E-06 1.86474E-18-3.68293E-18
 -1       175 8.15662E-05-3.76901E-06-3.34200E-05 3.06934E-06 2.32098E-18-2.76235E-18
 -1       176 8.88668E-05-6.61568E-06-3.53621E-05 5.77808E-06 2.70487E-18-1.44451E-18
 -1       177 9.75382E-05-1.04868E-05-3.74604E-05 1.00867E-05 2.82778E-18 8.14396E-19
 -1       178 1.09056E-04-1.73878E-05-3.94635E-05 1.57683E-05 2.54596E-18 4.57472E-18
 -1       179 1.21876E-04-3.14606E-05-3.99483E-05 1.42029E-05 1.71388E-18 9.37020E-18
 -1       180 1.16098E-04-3.13582E-05-3.63211E-05-9.55059E-06-2.35518E-18 2.71032E-18
 -1       181 1.11037E-04-3.27710E-05-3.35810E-05-2.77171E-06-2.04586E-18 1.77246E-18
 -1       182 1.08387E-04-3.24517E-05-3.25042E-05-8.97155E-07-1.44085E-18 9.79713E-19
 -1       183 1.07112E-04-3.23999E-05-3.19958E-05-9.75162E-07-9.60886E-19 1.11100E-19
 -1       184 1.05807E-04-3.21985E-05-3.15391E-05-2.09207E-06-6.56394E-19-3.37322E-19
 -1       185 1.03836E-04-3.16517E-05-3.09339E-05-3.69463E-06-8.00491E-19-8.78508E-19
 -1       186 1.00971E-04-3.06230E-05-3.01448E-05-5.11553E-06-7.53772E-19-1.16711E-18
 -1       187 9.74917E-05-2.91782E-05-2.92687E-05-5.55221E-06-8.10752E-19-1.52436E-18
 -1       188 9.42015E-05-2.76782E-05-2.84989E-05-4.38616E-06-7.68052E-19-1.49563E-18
 -1       189 9.21727E-05-2.66879E-05-2.80532E-05-1.64267E-06-6.05030E-19-2.03583E-18
 -1       190 9.22156E-05-2.66719E-05-2.80788E-05 1.82569E-06-6.37088E-19-3.42042E-18
 -1       191 9.43809E-05-2.76661E-05-2.85819E-05 4.72854E-06-4.41122E-19-4.12369E-18
 -1       192 9.79106E-05-2.92441E-05-2.94215E-05 6.09646E-06-1.24510E-19-4.25162E-18
 -1       193 1.01682E-04-3.08176E-05-3.03693E-05 5.76212E-06 1.78191E-19-4.58431E-18
 -1       194 1.04752E-04-3.19642E-05-3.12001E-05 4.24644E-06-3.89529E-19-4.55766E-18
 -1       195 1.06639E-04-3.25460E-05-3.17643E-05 2.30014E-06-8.94497E-20-4.48333E-18
 -1       196 1.07303E-04-3.26337E-05-3.20125E-05 5.15911E-07-7.66366E-20-4.26902E-18
 -1       197 1.06967E-04-3.23806E-05-3.19761E-05-8.06929E-07-7.17728E-20-4.30824E-18
 -1       198 1.05954E-04-3.19372E-05-3.17291E-05-1.61281E-06 1.01743E-19-3.79717E-18
 -1       199 1.04570E-04-3.14176E-05-3.13552E-05-1.98150E-06 6.21041E-19-4.39754E-18
 -1       200 1.03054E-04-3.08959E-05-3.09265E-05-2.03815E-06 1.66680E-19-3.92819E-18
 -1       201 1.01573E-04-3.04148E-05-3.04959E-05-1.90189E-06 1.00608E-19-4.29638E-18
 -1       202 1.00225E-04-2.99949E-05-3.00969E-05-1.66554E-06-3.62361E-19-3.40619E-18
 -1       203 9.90587E-05-2.96429E-05-2.97473E-05-1.39286E-06 4.87097E-19-2.38826E-18
 -1       204 9.80878E-05-2.93570E-05-2.94535E-05-1.12325E-06-1.66243E-19-2.82425E-18
 -1       205 9.73049E-05-2.91312E-05-2.92148E-05-8.78312E-07-3.08193E-19-3.43430E-18
 -1       206 9.66910E-05-2.89571E-05-2.90265E-05-6.67764E-07 9.29563E-20-4.05516E-18
 -1       207 9.62218E-05-2.88262E-05-2.88819E-05-4.93942E-07 3.82579E-19-3.58307E-18
 -1       208 9.58722E-05-2.87302E-05-2.87735E-05-3.54998E-07 2.06266E-19-2.75382E-18
 -1       209 9.56186E-05-2.86617E-05-2.86945E-05-2.46982E-07-7.56033E-19-2.53936E-18
 -1       210 9.54401E-05-2.86143E-05-2.86386E-05-1.65142E-07-5.60594E-19-2.97870E-18
 -1       211 9.53187E-05-2.85829E-05-2.86003E-05-1.04694E-07 1.17368E-19-3.51057E-18
 -1       212 9.52400E-05-2.85631E-05-2.85752E-05-6.12304E-08-2.89336E-19-4.14010E-18
 -1       213 9.51922E-05-2.85517E-05-2.85598E-05-3.09129E-08 7.49763E-19-4.19623E-18
 -1       214 9.51663E-05-2.85460E-05-2.85513E-05-1.05272E-08 1.03008E-18-4.20877E-18
 -1       215 9.51553E-05-2.85443E-05-2.85474E-05 2.53545E-09-1.32762E-19-4.15583E-18
 -1       216 9.51542E-05-2.85450E-05-2.85467E-05 1.03381E-08 6.01873E-19-4.53602E-18
 -1       217 9.51590E-05-2.85472E-05-2.85479E-05 1.44736E-08-1.73026E-18-3.82244E-18
 -1       218 9.51673E-05-2.85502E-05-2.85502E-05 1.61436E-08-6.20022E-19-3.46627E-18
 -1       219 9.51772E-05-2.85534E-05-2.85530E-05 1.62316E-08-6.18139E-19-3.61825E-18
 -1       220 9.51875E-05-2.85567E-05-2.85561E-05 1.53681E-08 9.61109E-19-3.42795E-18
 -1       221 9.51975E-05-2.85597E-05-2.85591E-05 1.39838E-08 2.69783E-18-1.49400E-18
 -1       222 9.52067E-05-2.85625E-05-2.85618E-05 1.23513E-08 1.39981E-18-4.94130E-19
 -1       223 9.52149E-05-2.85650E-05-2.85643E-05 1.06164E-08 1.43463E-18-2.47960E-20
 -1       224 9.52220E-05-2.85671E-05-2.85664E-05 8.81879E-09 1.18692E-19-3.24256E-19
 -1       225 9.52278E-05-2.85689E-05-2.85681E-05 6.90550E-09-1.51758E-18-1.71469E-18
 -1       226 9.52323E-05-2.85703E-05-2.85694E-05 4.75940E-09-3.77306E-19-8.60988E-19
 -1       227 9.52354E-05-2.85714E-05-2.85703E-05 2.31969E-09 1.91210E-18-9.82167E-19
 -1       228 1.18263E-04-3.43355E-05-3.61283E-05 2.94657E-06 1.86519E-18 8.14783E-18
 -1       229 1.16398E-04-3.44800E-05-3.50747E-05-1.14249E-06 1.46861E-18 6.66019E-18
 -1       230 1.17163E-04-3.51049E-05-3.51286E-05-2.37631E-06 7.84380E-19 5.60296E-18
 -1       231 1.18639E-04-3.59115E-05-3.54287E-05-1.94218E-06 6.91022E-19 5.00751E-18
 -1       232 1.19427E-04-3.65537E-05-3.54892E-05 1.17760E-07 1.80094E-20 4.75870E-18
 -1       233 1.18264E-04-3.65184E-05-3.49955E-05 3.65313E-06-1.61681E-19 4.65554E-18
 -1       234 1.14320E-04-3.52305E-05-3.38625E-05 7.62397E-06 3.18266E-19 4.46644E-18
 -1       235 1.07976E-04-3.25182E-05-3.23502E-05 9.77474E-06 8.42887E-19 3.90971E-18
 -1       236 1.01499E-04-2.92945E-05-3.10232E-05 7.69221E-06 8.71180E-19 2.99674E-18
 -1       237 9.83554E-05-2.75179E-05-3.04718E-05 1.27219E-06 1.26815E-18 2.37698E-18
 -1       238 1.00648E-04-2.85645E-05-3.09731E-05-6.05653E-06 7.62786E-19 1.43547E-18
 -1       239 1.07085E-04-3.17075E-05-3.23100E-05-1.00663E-05 2.59056E-19 4.54182E-19
 -1       240 1.14187E-04-3.49282E-05-3.39258E-05-9.33155E-06 5.70004E-19-4.40338E-19
 -1       241 1.19079E-04-3.67978E-05-3.52248E-05-5.63938E-06 4.02255E-19-7.01115E-19
 -1       242 1.20848E-04-3.71837E-05-3.58425E-05-1.50350E-06 7.14045E-19-8.94064E-19
 -1       243 1.19969E-04-3.65684E-05-3.57482E-05 1.58716E-06 8.01339E-20-2.10029E-18
 -1       244 1.17423E-04-3.54817E-05-3.51303E-05 3.29349E-06 1.03944E-18-1.84042E-18
 -1       245 1.14119E-04-3.42751E-05-3.42304E-05 3.89447E-06 5.45556E-19-1.19012E-18
 -1       246 1.10692E-04-3.31319E-05-3.32473E-05 3.80948E-06-9.45736E-19-1.53469E-18
 -1       247 1.07510E-04-3.21305E-05-3.23086E-05 3.38144E-06-4.27144E-19-1.47213E-18
 -1       248 1.04746E-04-3.12928E-05-3.14797E-05 2.83142E-06-4.07017E-19-1.21688E-18
 -1       249 1.02447E-04-3.06136E-05-3.07840E-05 2.28106E-06 1.30331E-18-2.13183E-18
 -1       250 1.00595E-04-3.00754E-05-3.02202E-05 1.78724E-06 9.78316E-19-2.42920E-18
 -1       251 9.91391E-05-2.96573E-05-2.97751E-05 1.36997E-06-1.56892E-18-1.31229E-18
 -1       252 9.80168E-05-2.93379E-05-2.94312E-05 1.03034E-06-1.26817E-18 8.84893E-19
 -1       253 9.71676E-05-2.90980E-05-2.91704E-05 7.60981E-07-3.51222E-19 7.13530E-19
 -1       254 9.65363E-05-2.89209E-05-2.89761E-05 5.51549E-07 1.66649E-18 8.69087E-19
 -1       255 9.60756E-05-2.87925E-05-2.88341E-05 3.91426E-07-3.87721E-19 1.78117E-19
 -1       256 9.57463E-05-2.87015E-05-2.87322E-05 2.70915E-07-5.97849E-19-7.74178E-19
 -1       257 9.55165E-05-2.86386E-05-2.86610E-05 1.81656E-07 4.46443E-20-5.71077E-19
 -1       258 9.53609E-05-2.85966E-05-2.86125E-05 1.16682E-07-6.68378E-19-2.68413E-19
 -1       259 9.52597E-05-2.85697E-05-2.85808E-05 7.03158E-08-4.09860E-19-1.08662E-18
 -1       260 9.51975E-05-2.85537E-05-2.85612E-05 3.80054E-08 1.24879E-18-3.32915E-19
 -1       261 9.51628E-05-2.85452E-05-2.85501E-05 1.61518E-08-3.01953E-19-6.13878E-19
 -1       262 9.51469E-05-2.85418E-05-2.85448E-05 1.94569E-09 1.68792E-20-5.20441E-19
 -1       263 9.51433E-05-2.85417E-05-2.85434E-05-6.77773E-09 9.95858E-19 3.83451E-20
 -1       264 9.51473E-05-2.85436E-05-2.85444E-05-1.16636E-08-3.66083E-19 4.61928E-19
 -1       265 9.51558E-05-2.85466E-05-2.85468E-05-1.39432E-08-8.71948E-19-9.10681E-19
 -1       266 9.51665E-05-2.85500E-05-2.85499E-05-1.45214E-08-8.46573E-19 4.29691E-19
 -1       267 9.51780E-05-2.85536E-05-2.85533E-05-1.40486E-08 5.66371E-19 1.90601E-18
 -1       268 9.51893E-05-2.85571E-05-2.85566E-05-1.29772E-08 8.26646E-19-1.63040E-20
 -1       269 9.51998E-05-2.85603E-05-2.85598E-05-1.16061E-08-1.08973E-18 9.22009E-19
 -1       270 9.52092E-05-2.85631E-05-2.85626E-05-1.01135E-08 6.00558E-19-2.24966E-19
 -1       271 9.52174E-05-2.85656E-05-2.85651E-05-8.57846E-09 1.20063E-18-1.26344E-18
 -1       272 9.52243E-05-2.85677E-05-2.85672E-05-6.99412E-09 7.18324E-19-9.00017E-19
 -1       273 9.52299E-05-2.85694E-05-2.85688E-05-5.28260E-09 1.84722E-18-4.15673E-20
 -1       274 9.52338E-05-2.85707E-05-2.85699E-05-3.31192E-09 1.51849E-18-1.21756E-18
 -1       275 9.52363E-05-2.85714E-05-2.85707E-05-1.12720E-09-2.18971E-18-1.27795E-18
 -1       276 9.52369E-05-2.85729E-05-2.85703E-05-2.40749E-09-6.55758E-19 2.23971E-18
 -1       277 9.52380E-05-2.85759E-05-2.85695E-05-4.47375E-09 3.36394E-19 1.67074E-18
 -1       278 9.52395E-05-2.85797E-05-2.85685E-05-5.68499E-09 2.12587E-19-1.27913E-18
 -1       279 9.52410E-05-2.85839E-05-2.85673E-05-5.88741E-09-5.49864E-19 1.11458E-18
 -1       280 9.52424E-05-2.85878E-05-2.85663E-05-5.22584E-09-2.43431E-18-5.23204E-18
 -1       281 9.52436E-05-2.85910E-05-2.85654E-05-3.86866E-09-1.18089E-18-1.51631E-18
 -1       282 9.52443E-05-2.85931E-05-2.85648E-05-2.04079E-09-1.73051E-18 3.54601E-18
 -1       283 9.52445E-05-2.85938E-05-2.85646E-05 2.22734E-11 8.18052E-19 7.25106E-19
 -1       284 9.52443E-05-2.85930E-05-2.85648E-05 2.08175E-09 4.16216E-19-1.50495E-18
 -1       285 9.52435E-05-2.85909E-05-2.85654E-05 3.90025E-09-1.73604E-18-2.77078E-18
 -1       286 9.52424E-05-2.85878E-05-2.85663E-05 5.22694E-09-1.79613E-18-2.08865E-18
 -1       287 9.52410E-05-2.85838E-05-2.85674E-05 5.88731E-09-7.76996E-19 3.41885E-18
 -1       288 9.52395E-05-2.85796E-05-2.85685E-05 5.66490E-09-1.07208E-18 1.65251E-18
 -1       289 9.52380E-05-2.85758E-05-2.85695E-05 4.41177E-09-7.90442E-19-4.41639E-19
 -1       290 9.52367E-05-2.85735E-05-2.85700E-05 3.82053E-09 1.28274E-18 1.39871E-18
 -1       291 1.24650E-05-4.91241E-05 1.22285E-05 4.71393E-06 4.34787E-18 4.88113E-18
 -1       292 2.46107E-05-4.35939E-05 5.29552E-06 1.98218E-05 5.14128E-18 4.48356E-18
 -1       293 4.87844E-05-3.81168E-05-6.68278E-06 3.13847E-05 7.37406E-18 5.35547E-18
 -1       294 8.44046E-05-3.29956E-05-2.27956E-05 4.22430E-05 7.22540E-18 5.56903E-18
 -1       295 1.30358E-04-3.40813E-05-4.05299E-05 4.40830E-05 6.34968E-18 4.98669E-18
 -1       296 1.73620E-04-3.44099E-05-5.72198E-05 3.99755E-05 5.72311E-18 3.19120E-18
 -1       297 2.06519E-04-3.69983E-05-6.90421E-05 2.25119E-05 5.37432E-18-7.53224E-19
 -1       298 2.00202E-04-2.89740E-05-7.07978E-05-1.02420E-06 6.21828E-18-3.84606E-18
 -1       299 2.00786E-04-3.53816E-05-6.77477E-05-2.27151E-05 5.69376E-18-7.48099E-18
 -1       300 1.70469E-04-3.46104E-05-5.61339E-05-3.76761E-05 6.99247E-18-9.26273E-18
 -1       301 1.28148E-04-3.37300E-05-3.98165E-05-4.48464E-05 8.09181E-18-9.84295E-18
 -1       302 8.30934E-05-3.43011E-05-2.17664E-05-4.20309E-05 7.84480E-18-9.34510E-18
 -1       303 4.39704E-05-3.70424E-05-5.29626E-06-2.99146E-05 6.58060E-18-8.40143E-18
 -1       304 2.11269E-05-4.31710E-05 6.25557E-06-1.61693E-05 3.90588E-18-6.30357E-18
 -1       305 1.12888E-05-4.70492E-05 1.17683E-05-2.86912E-06 2.66657E-19-5.41402E-18
 -1       306 1.30740E-05-4.34196E-05 9.87689E-06 1.10669E-05-3.30279E-18-5.54182E-18
 -1       307 2.83869E-05-3.92967E-05 1.95126E-06 2.38769E-05-6.42580E-18-6.03686E-18
 -1       308 6.21677E-05-3.55765E-05-1.26469E-05 3.97660E-05-6.93424E-18-6.70395E-18
 -1       309 9.69617E-05-2.79486E-05-2.96864E-05 4.72394E-05-8.37292E-18-8.26619E-18
 -1       310 1.45527E-04-3.17675E-05-4.74905E-05 4.28935E-05-7.47549E-18-6.17847E-18
 -1       311 1.78508E-04-3.10785E-05-6.13431E-05 2.42058E-05-6.71909E-18-3.94654E-18
 -1       312 2.01819E-04-3.21202E-05-6.98309E-05 9.93587E-06-5.42747E-18-2.51082E-18
 -1       313 2.10241E-04-3.65188E-05-7.08519E-05-1.29564E-05-4.28546E-18 9.54183E-19
 -1       314 1.84542E-04-3.26148E-05-6.23984E-05-3.31098E-05-4.20467E-18 3.41651E-18
 -1       315 1.44802E-04-2.90865E-05-4.80201E-05-4.77066E-05-4.47212E-18 4.88293E-18
 -1       316 1.01743E-04-3.28024E-05-2.95721E-05-4.53909E-05-3.17976E-18 4.47339E-18
 -1       317 5.59767E-05-3.33751E-05-1.12660E-05-3.67380E-05-2.94429E-18 5.62493E-18
 -1       318 2.79135E-05-4.20244E-05 3.21123E-06-2.25565E-05-1.38617E-18 3.61590E-18
 -1       319 1.23801E-05-4.44201E-05 1.07853E-05-1.04175E-05 1.92308E-18 4.85202E-18
 -1       320 9.87023E-05-1.74759E-05-3.48903E-05-8.13682E-06-1.95518E-18-2.48335E-18
 -1       321 1.05876E-04-2.28268E-05-3.56681E-05-1.07041E-05-2.54685E-18-1.15860E-18
 -1       322 8.69599E-05-1.09899E-05-3.26135E-05-1.33638E-06-5.85605E-19-3.79928E-18
 -1       323 8.12061E-05-7.94791E-06-3.14356E-05 1.37564E-06-5.64303E-21-4.01297E-18
 -1       324 7.58091E-05-4.92029E-06-3.04076E-05 3.01066E-06 5.97727E-19-3.95924E-18
 -1       325 7.15797E-05-2.35940E-06-2.96830E-05 3.37437E-06 1.03421E-18-3.86935E-18
 -1       326 6.94956E-05-9.04748E-07-2.94085E-05 2.67279E-06 1.40796E-18-3.75453E-18
 -1       327 7.02788E-05-1.06082E-06-2.96789E-05 1.51938E-06 1.70623E-18-3.65797E-18
 -1       328 7.39635E-05-2.89262E-06-3.04821E-05 7.34567E-07 2.02404E-18-3.15664E-18
 -1       329 8.02101E-05-6.19484E-06-3.17596E-05 9.29577E-07 2.44307E-18-2.34404E-18
 -1       330 8.82594E-05-1.06009E-05-3.33425E-05 2.37733E-06 2.79778E-18-1.36093E-18
 -1       331 9.76107E-05-1.60964E-05-3.50128E-05 4.80836E-06 3.11493E-18 1.60400E-19
 -1       332 1.07855E-04-2.32234E-05-3.63794E-05 6.98940E-06 2.96961E-18 2.54123E-18
 -1       333 1.14385E-04-2.93994E-05-3.65002E-05 5.65844E-06 2.56606E-18 4.70181E-18
 -1       334 1.14073E-04-3.23856E-05-3.49843E-05-3.62142E-07 2.04444E-18 3.86088E-18
 -1       335 1.08510E-04-3.07298E-05-3.33004E-05-3.92705E-06-2.03914E-18-4.31526E-19
 -1       336 1.07912E-04-3.23869E-05-3.23558E-05-2.12958E-06-1.48073E-18-3.76589E-19
 -1       337 1.07607E-04-3.34007E-05-3.18034E-05-2.59715E-06-1.08389E-18-4.03739E-19
 -1       338 1.07157E-04-3.38349E-05-3.14308E-05-4.45679E-06-9.38012E-19-6.23285E-19
 -1       339 1.06074E-04-3.33793E-05-3.11601E-05-6.82018E-06-8.47836E-19-4.75116E-19
 -1       340 1.04052E-04-3.17550E-05-3.09821E-05-8.48618E-06-9.32862E-19-6.32032E-19
 -1       341 1.01317E-04-2.91896E-05-3.09013E-05-8.13587E-06-7.43941E-19-7.55161E-19
 -1       342 9.87950E-05-2.66708E-05-3.08948E-05-5.06479E-06-1.05350E-18-9.34138E-19
 -1       343 9.76956E-05-2.55170E-05-3.09167E-05 8.58525E-08-1.44303E-18-1.53592E-18
 -1       344 9.86619E-05-2.64526E-05-3.09317E-05 5.37387E-06-1.13513E-18-2.11349E-18
 -1       345 1.01176E-04-2.89327E-05-3.09504E-05 8.73457E-06-7.89700E-19-2.66184E-18
 -1       346 1.04000E-04-3.16482E-05-3.10053E-05 9.26512E-06-9.21012E-20-2.98510E-18
 -1       347 1.06063E-04-3.35143E-05-3.10990E-05 7.45944E-06-6.22230E-20-2.87825E-18
 -1       348 1.06946E-04-3.41922E-05-3.11930E-05 4.51269E-06-1.88447E-19-2.92560E-18
 -1       349 1.06777E-04-3.39287E-05-3.12355E-05 1.52259E-06-4.87921E-20-2.78342E-18
 -1       350 1.05904E-04-3.31555E-05-3.11905E-05-8.68868E-07-3.20855E-20-2.75617E-18
 -1       351 1.04660E-04-3.22287E-05-3.10509E-05-2.45413E-06 3.44118E-19-2.35144E-18
 -1       352 1.03286E-04-3.13558E-05-3.08322E-05-3.29399E-06 5.53642E-20-2.48291E-18
 -1       353 1.01931E-04-3.06233E-05-3.05623E-05-3.56224E-06 1.72546E-19-2.68671E-18
 -1       354 1.00678E-04-3.00468E-05-3.02701E-05-3.44864E-06 1.69668E-19-2.50865E-18
 -1       355 9.95675E-05-2.96103E-05-2.99800E-05-3.11373E-06 1.98416E-19-1.57017E-18
 -1       356 9.86151E-05-2.92876E-05-2.97096E-05-2.67586E-06 3.78199E-19-2.24715E-18
 -1       357 9.78195E-05-2.90530E-05-2.94689E-05-2.21378E-06-2.29818E-20-3.18610E-18
 -1       358 9.71702E-05-2.88850E-05-2.92627E-05-1.77493E-06-3.75013E-19-2.90416E-18
 -1       359 9.66516E-05-2.87664E-05-2.90915E-05-1.38436E-06-3.25519E-19-2.30940E-18
 -1       360 9.62458E-05-2.86843E-05-2.89532E-05-1.05222E-06 7.44233E-19-1.57666E-18
 -1       361 9.59348E-05-2.86286E-05-2.88441E-05-7.79499E-07 5.42602E-19-2.33197E-18
 -1       362 9.57014E-05-2.85920E-05-2.87600E-05-5.61964E-07-1.55266E-19-2.81891E-18
 -1       363 9.55302E-05-2.85690E-05-2.86968E-05-3.92851E-07-7.29275E-19-2.50277E-18
 -1       364 9.54077E-05-2.85555E-05-2.86503E-05-2.64528E-07-6.04549E-19-1.45970E-18
 -1       365 9.53226E-05-2.85485E-05-2.86170E-05-1.69483E-07-4.07265E-19-1.25943E-18
 -1       366 9.52657E-05-2.85458E-05-2.85939E-05-1.00869E-07 4.28165E-19-9.67553E-19
 -1       367 9.52295E-05-2.85459E-05-2.85784E-05-5.27429E-08 7.25731E-19-1.02403E-18
 -1       368 9.52082E-05-2.85476E-05-2.85687E-05-2.01369E-08 6.97594E-19-2.03366E-18
 -1       369 9.51973E-05-2.85502E-05-2.85630E-05 9.86118E-10 5.94276E-20-1.05548E-18
 -1       370 9.51934E-05-2.85531E-05-2.85601E-05 1.38235E-08 5.12973E-20-9.65793E-19
 -1       371 9.51941E-05-2.85561E-05-2.85591E-05 2.08492E-08-1.10655E-18-5.87940E-19
 -1       372 9.51975E-05-2.85589E-05-2.85594E-05 2.39336E-08-3.21409E-19 2.22163E-19
 -1       373 9.52024E-05-2.85615E-05-2.85604E-05 2.44547E-08 7.12932E-19-5.71135E-20
 -1       374 9.52080E-05-2.85638E-05-2.85618E-05 2.33957E-08 2.03469E-18 6.01028E-19
 -1       375 9.52136E-05-2.85657E-05-2.85634E-05 2.14273E-08 2.17625E-18 4.55941E-20
 -1       376 9.52189E-05-2.85675E-05-2.85649E-05 1.89721E-08 1.92268E-18 7.31530E-20
 -1       377 9.52238E-05-2.85690E-05-2.85663E-05 1.62560E-08 9.64760E-19-2.28910E-18
 -1       378 9.52281E-05-2.85704E-05-2.85676E-05 1.33527E-08-1.54887E-18-5.25068E-19
 -1       379 9.52317E-05-2.85718E-05-2.85686E-05 1.02329E-08-5.02607E-19 7.53112E-19
 -1       380 9.52344E-05-2.85727E-05-2.85693E-05 7.08342E-09 5.91308E-19 1.83570E-18
 -1       381 1.14563E-04-3.39758E-05-3.45144E-05-2.99936E-06 1.34288E-18 3.41808E-18
 -1       382 1.15981E-04-3.56009E-05-3.44493E-05-3.02779E-06 8.30327E-19 3.06995E-18
 -1       383 1.17714E-04-3.73829E-05-3.44438E-05-5.77451E-07 2.79852E-19 2.90110E-18
 -1       384 1.18785E-04-3.86933E-05-3.43450E-05 4.17316E-06-2.54077E-20 2.78464E-18
 -1       385 1.17978E-04-3.82719E-05-3.41797E-05 9.95533E-06 1.80362E-19 2.64000E-18
 -1       386 1.14484E-04-3.49903E-05-3.40975E-05 1.37081E-05 1.06344E-18 2.99665E-18
 -1       387 1.09310E-04-2.96343E-05-3.42000E-05 1.16247E-05 1.64627E-18 2.29639E-18
 -1       388 1.05865E-04-2.58337E-05-3.43540E-05 2.80102E-06 1.29743E-18 1.33626E-18
 -1       389 1.07177E-04-2.70325E-05-3.43987E-05-8.03836E-06 1.73454E-18 8.02537E-19
 -1       390 1.12211E-04-3.21421E-05-3.43394E-05-1.42434E-05 1.02574E-18-3.88080E-19
 -1       391 1.17197E-04-3.70990E-05-3.43322E-05-1.32857E-05 9.87495E-19-1.13073E-18
 -1       392 1.19448E-04-3.91430E-05-3.44376E-05-7.87610E-06 5.55501E-19-1.56575E-18
 -1       393 1.18989E-04-3.86572E-05-3.44639E-05-1.77941E-06 5.71119E-19-1.52340E-18
 -1       394 1.16815E-04-3.69487E-05-3.42607E-05 2.80669E-06 6.68726E-19-1.40596E-18
 -1       395 1.13903E-04-3.50537E-05-3.38148E-05 5.37395E-06 7.80268E-19-1.84822E-18
 -1       396 1.10860E-04-3.34319E-05-3.31945E-05 6.31033E-06 5.43726E-19-1.31210E-18
 -1       397 1.07991E-04-3.21753E-05-3.24949E-05 6.20938E-06-6.31610E-19-1.15588E-18
 -1       398 1.05434E-04-3.12346E-05-3.17969E-05 5.56757E-06-5.40068E-19-1.54026E-18
 -1       399 1.03238E-04-3.05340E-05-3.11537E-05 4.71577E-06-5.19333E-20-1.77923E-18
 -1       400 1.01405E-04-3.00095E-05-3.05922E-05 3.84412E-06 1.41313E-18-2.84044E-18
 -1       401 9.99101E-05-2.96147E-05-3.01208E-05 3.04732E-06 9.13577E-19-2.66835E-18
 -1       402 9.87147E-05-2.93172E-05-2.97367E-05 2.36297E-06-2.18858E-18-1.49547E-18
 -1       403 9.77760E-05-2.90938E-05-2.94310E-05 1.79785E-06-2.52420E-18-5.73145E-20
 -1       404 9.70514E-05-2.89274E-05-2.91926E-05 1.34374E-06 4.52925E-20 1.18067E-18
 -1       405 9.65012E-05-2.88052E-05-2.90099E-05 9.86358E-07 1.43096E-18 2.04964E-18
 -1       406 9.60907E-05-2.87168E-05-2.88725E-05 7.09963E-07 5.00332E-19 2.13245E-18
 -1       407 9.57900E-05-2.86544E-05-2.87708E-05 4.99588E-07-3.28600E-19 1.83747E-18
 -1       408 9.55743E-05-2.86115E-05-2.86972E-05 3.41974E-07 3.44969E-19 2.11415E-18
 -1       409 9.54233E-05-2.85830E-05-2.86450E-05 2.25842E-07-1.69099E-19-3.64334E-20
 -1       410 9.53207E-05-2.85651E-05-2.86089E-05 1.41844E-07 2.47411E-19-7.06291E-19
 -1       411 9.52538E-05-2.85547E-05-2.85849E-05 8.23814E-08 1.86808E-19-2.84497E-19
 -1       412 9.52126E-05-2.85495E-05-2.85696E-05 4.13736E-08-9.92216E-20 7.44808E-20
 -1       413 9.51895E-05-2.85477E-05-2.85606E-05 1.40211E-08 4.76741E-19 1.27750E-18
 -1       414 9.51788E-05-2.85482E-05-2.85559E-05-3.41229E-09 3.51310E-19 1.10563E-18
 -1       415 9.51763E-05-2.85500E-05-2.85541E-05-1.37950E-08-2.79396E-19 1.70574E-18
 -1       416 9.51790E-05-2.85525E-05-2.85542E-05-1.92962E-08-3.94252E-19 1.03543E-18
 -1       417 9.51846E-05-2.85553E-05-2.85554E-05-2.15277E-08-1.86089E-18 1.99048E-19
 -1       418 9.51917E-05-2.85581E-05-2.85573E-05-2.16626E-08 2.66454E-19 5.61703E-19
 -1       419 9.51993E-05-2.85607E-05-2.85594E-05-2.05303E-08 5.31313E-19 1.25911E-18
 -1       420 9.52068E-05-2.85632E-05-2.85616E-05-1.86924E-08 5.79351E-21 1.89026E-18
 -1       421 9.52138E-05-2.85653E-05-2.85637E-05-1.65005E-08 1.08805E-18 1.65518E-18
 -1       422 9.52201E-05-2.85672E-05-2.85655E-05-1.41388E-08 9.03026E-19 2.66786E-19
 -1       423 9.52256E-05-2.85689E-05-2.85672E-05-1.16548E-08 7.46194E-19 9.25559E-19
 -1       424 9.52301E-05-2.85704E-05-2.85685E-05-8.99651E-09 1.32468E-18 6.53437E-19
 -1       425 9.52337E-05-2.85717E-05-2.85694E-05-6.08193E-09 7.21347E-19 2.73159E-18
 -1       426 9.52355E-05-2.85725E-05-2.85699E-05-4.28828E-09-8.03854E-19 3.95075E-18
 -1       427 9.52399E-05-2.85808E-05-2.85682E-05-1.00615E-08-7.52172E-19-2.43402E-19
 -1       428 9.52377E-05-2.85772E-05-2.85688E-05-9.13804E-09-1.59461E-18 8.39989E-19
 -1       429 9.52364E-05-2.85747E-05-2.85693E-05-6.99900E-09-1.00640E-18 1.54576E-18
 -1       430 9.52418E-05-2.85842E-05-2.85675E-05-9.53702E-09-1.48450E-19-4.53731E-18
 -1       431 9.52435E-05-2.85872E-05-2.85670E-05-7.75522E-09 6.91534E-19-1.73140E-18
 -1       432 9.52446E-05-2.85893E-05-2.85666E-05-5.02513E-09 1.72197E-18 1.14311E-18
 -1       433 9.52452E-05-2.85904E-05-2.85663E-05-1.71361E-09-3.78416E-19 2.53023E-18
 -1       434 9.52452E-05-2.85904E-05-2.85663E-05 1.78965E-09 2.83087E-19-9.93530E-19
 -1       435 9.52446E-05-2.85892E-05-2.85666E-05 5.08974E-09-5.53417E-20-2.62308E-18
 -1       436 9.52434E-05-2.85871E-05-2.85670E-05 7.76036E-09 8.21450E-19-2.73622E-18
 -1       437 9.52418E-05-2.85842E-05-2.85675E-05 9.53587E-09 2.00527E-18 1.82671E-18
 -1       438 9.52398E-05-2.85808E-05-2.85682E-05 1.00537E-08 3.07666E-19 1.72559E-18
 -1       439 9.52377E-05-2.85772E-05-2.85688E-05 9.15221E-09 2.04017E-19-5.50311E-19
 -1       440 5.74452E-05-4.06415E-05-7.17461E-06 4.15841E-05 5.97158E-20 2.70172E-18
 -1       441 1.23125E-05-2.04614E-05 3.43130E-06-1.43621E-06 7.65759E-19 4.94784E-18
 -1       442 2.10097E-05-2.60352E-05 2.00317E-06 2.19109E-05 2.93815E-19 4.15036E-18
 -1       443 9.29759E-05-5.24183E-05-1.75249E-05 4.10978E-05 1.78703E-18 1.80021E-18
 -1       444 1.29504E-04-5.75761E-05-3.08962E-05 2.79850E-05 2.44782E-18 7.05578E-19
 -1       445 9.27922E-05-1.40651E-05-3.38070E-05-4.75595E-06-1.27758E-18-3.30689E-18
 -1       446 1.60363E-04-2.98293E-05-5.58467E-05-3.39813E-06 5.68571E-18-1.58872E-18
 -1       447 1.57680E-04-1.60180E-05-6.08262E-05-4.75073E-06 6.34385E-18-1.32153E-18
 -1       448 1.62920E-04-1.78953E-05-6.19681E-05 2.79573E-06 5.77465E-18-1.59655E-18
 -1       449 1.61570E-04-3.15286E-05-5.55872E-05 1.03665E-06 4.50044E-18-1.62588E-18
 -1       450 1.52381E-04-4.89002E-05-4.43353E-05-1.02372E-05 3.13684E-18-1.69629E-18
 -1       451 1.27354E-04-5.56128E-05-3.07856E-05-3.04911E-05 2.32638E-18-3.37511E-18
 -1       452 8.60489E-05-4.90652E-05-1.60959E-05-4.20792E-05 1.38776E-18-6.13106E-18
 -1       453 4.91834E-05-3.58488E-05-5.83572E-06-3.93865E-05 3.45060E-19-6.33877E-18
 -1       454 1.90586E-05-2.40939E-05 1.87624E-06-2.04454E-05 2.94820E-19-6.78802E-18
 -1       455 1.11126E-05-1.99554E-05 3.52125E-06 5.60429E-06 4.62162E-20-6.52406E-18
 -1       456 2.88372E-05-2.65805E-05-1.10871E-06 3.23365E-05-2.24146E-19-5.41434E-18
 -1       457 5.79952E-05-3.79954E-05-8.74794E-06 4.34134E-05-8.37504E-19-4.47652E-18
 -1       458 1.05665E-04-5.10373E-05-2.34823E-05 3.97177E-05-2.16809E-18-3.18225E-18
 -1       459 1.34606E-04-4.98015E-05-3.63342E-05 2.68788E-05-3.79884E-18-2.10202E-18
 -1       460 1.51225E-04-3.86619E-05-4.84013E-05 2.43694E-06-4.59788E-18-4.36963E-19
 -1       461 1.57144E-04-1.84189E-05-5.93727E-05-1.59407E-06-6.23797E-18-1.47087E-18
 -1       462 1.54578E-04-1.07973E-05-6.16452E-05 2.31697E-07-5.67936E-18-2.23345E-18
 -1       463 1.57801E-04-1.82749E-05-5.96752E-05 1.40955E-06-4.50389E-18-2.17656E-18
 -1       464 1.54251E-04-3.72726E-05-5.00775E-05-7.65232E-06-2.05519E-18-1.03920E-18
 -1       465 1.39301E-04-5.13207E-05-3.76270E-05-2.21363E-05-1.14244E-19 1.71207E-19
 -1       466 1.00515E-04-5.12895E-05-2.12523E-05-4.15567E-05 1.11882E-18 2.09625E-18
 -1       467 6.04156E-05-4.21493E-05-8.11123E-06-4.35740E-05 1.48019E-18 3.63345E-18
 -1       468 2.77838E-05-2.93855E-05 4.64483E-07-3.12578E-05 1.60576E-18 4.83486E-18
 -1       469 1.54020E-04-4.70074E-05-4.57428E-05 1.11384E-05 4.32149E-18-6.70850E-19
 -1       470 9.14679E-05-4.89306E-05-1.79643E-05 4.31442E-05 9.42430E-19-2.61333E-18
 -1       471 1.41311E-04-1.03703E-05-5.66603E-05-2.29654E-07 6.23342E-18 2.30292E-19
 -1       472 1.08624E-04-2.96458E-05-3.38377E-05-2.27505E-06 1.89991E-18 1.32142E-18
 -1       473 8.07345E-05-1.06926E-05-3.00312E-05 4.65177E-06 4.19255E-19-3.62023E-18
 -1       474 8.74145E-05-1.48133E-05-3.11330E-05 2.24533E-06-5.75927E-20-3.43325E-18
 -1       475 7.00849E-05-3.54841E-06-2.85196E-05 4.47628E-06 1.19725E-18-3.57800E-18
 -1       476 6.88846E-05-2.47487E-06-2.84647E-05 2.17798E-06 1.45222E-18-3.59280E-18
 -1       477 7.14945E-05-3.88050E-06-2.89828E-05-2.39422E-07 1.71283E-18-3.27417E-18
 -1       478 7.75978E-05-7.55036E-06-3.00335E-05-1.69876E-06 2.08514E-18-2.45055E-18
 -1       479 8.60801E-05-1.27384E-05-3.14506E-05-1.62923E-06 2.23319E-18-1.76216E-18
 -1       480 9.57038E-05-1.87518E-05-3.29963E-05-3.58523E-07 2.49633E-18-5.24146E-19
 -1       481 1.10534E-04-3.30637E-05-3.31963E-05-4.73399E-06 1.24347E-18 1.20204E-18
 -1       482 1.06037E-04-2.98886E-05-3.26332E-05-3.04166E-06-1.53393E-18-1.26320E-18
 -1       483 1.46820E-04-4.24148E-05-4.52183E-05-1.13421E-05 3.38326E-18-2.66323E-18
 -1       484 1.07549E-04-3.31035E-05-3.19044E-05-2.15496E-06-1.16715E-18-1.03994E-18
 -1       485 1.08972E-04-3.53625E-05-3.15514E-05-3.30387E-06-9.39833E-19-6.85535E-19
 -1       486 1.09980E-04-3.63849E-05-3.15466E-05-5.94155E-06-8.97951E-19-4.56355E-19
 -1       487 1.09837E-04-3.54382E-05-3.18879E-05-8.99466E-06-9.42905E-19-3.38500E-19
 -1       488 1.07978E-04-3.20801E-05-3.25286E-05-1.06903E-05-1.10584E-18-4.86598E-19
 -1       489 1.04893E-04-2.72620E-05-3.32759E-05-9.08893E-06-1.10701E-18-1.20057E-18
 -1       490 1.02291E-04-2.34307E-05-3.38070E-05-3.67679E-06-1.40969E-18-1.56604E-18
 -1       491 1.02085E-04-2.31726E-05-3.38338E-05 3.67677E-06-1.84877E-18-1.60244E-18
 -1       492 1.04386E-04-2.66689E-05-3.33147E-05 9.47721E-06-1.50346E-18-1.97048E-18
 -1       493 1.07472E-04-3.16428E-05-3.24988E-05 1.14129E-05-4.51423E-19-2.09156E-18
 -1       494 1.09434E-04-3.54737E-05-3.16989E-05 9.66406E-06-1.36908E-19-2.31443E-18
 -1       495 1.09551E-04-3.70007E-05-3.10982E-05 5.96033E-06 2.31405E-19-2.11472E-18
 -1       496 1.08230E-04-3.65705E-05-3.07190E-05 2.02609E-06 4.76371E-20-1.42871E-18
 -1       497 1.06224E-04-3.50869E-05-3.04947E-05-1.15774E-06-3.54478E-19-1.40814E-18
 -1       498 1.04127E-04-3.33319E-05-3.03462E-05-3.28816E-06 1.32315E-20-1.45267E-18
 -1       499 1.02250E-04-3.17543E-05-3.02158E-05-4.44533E-06-4.90776E-19-2.29081E-18
 -1       500 1.00694E-04-3.05238E-05-3.00745E-05-4.85437E-06-2.85768E-21-1.77367E-18
 -1       501 9.94518E-05-2.96494E-05-2.99156E-05-4.75589E-06 5.75903E-19-2.01214E-18
 -1       502 9.84748E-05-2.90711E-05-2.97439E-05-4.35278E-06 3.64559E-19-1.80560E-18
 -1       503 9.77102E-05-2.87135E-05-2.95691E-05-3.79664E-06-2.56323E-19-2.45551E-18
 -1       504 9.71124E-05-2.85089E-05-2.94004E-05-3.19127E-06-1.93195E-19-2.36302E-18
 -1       505 9.66453E-05-2.84047E-05-2.92449E-05-2.60212E-06-1.76786E-19-2.40354E-18
 -1       506 9.62815E-05-2.83631E-05-2.91069E-05-2.06632E-06-1.79607E-19-2.52858E-18
 -1       507 9.59998E-05-2.83584E-05-2.89883E-05-1.60142E-06 8.60017E-19-2.53062E-18
 -1       508 9.57836E-05-2.83737E-05-2.88893E-05-1.21220E-06 4.82903E-19-2.24973E-18
 -1       509 9.56196E-05-2.83984E-05-2.88085E-05-8.95742E-07 6.43593E-19-1.43661E-18
 -1       510 9.54969E-05-2.84261E-05-2.87442E-05-6.44895E-07-1.78889E-19-6.25689E-19
 -1       511 9.54066E-05-2.84532E-05-2.86940E-05-4.50647E-07-2.71985E-19-3.14292E-19
 -1       512 9.53414E-05-2.84777E-05-2.86556E-05-3.03591E-07-1.07395E-18 2.16139E-19
 -1       513 9.52955E-05-2.84989E-05-2.86270E-05-1.94798E-07 4.02216E-19-2.83528E-19
 -1       514 9.52641E-05-2.85164E-05-2.86060E-05-1.16278E-07 8.25918E-19-4.51177E-19
 -1       515 9.52435E-05-2.85307E-05-2.85912E-05-6.11731E-08 6.62532E-19 7.36798E-19
 -1       516 9.52308E-05-2.85419E-05-2.85809E-05-2.37852E-08 5.71749E-19 1.43637E-18
 -1       517 9.52235E-05-2.85506E-05-2.85741E-05 4.98168E-10-9.79935E-20 3.50439E-19
 -1       518 9.52201E-05-2.85571E-05-2.85698E-05 1.53212E-08-1.14765E-18-5.92228E-19
 -1       519 9.52193E-05-2.85620E-05-2.85674E-05 2.34995E-08-6.05466E-19 4.08571E-19
 -1       520 9.52200E-05-2.85655E-05-2.85662E-05 2.71584E-08 8.04234E-19 7.13704E-19
 -1       521 9.52218E-05-2.85681E-05-2.85659E-05 2.78608E-08 1.94438E-18 2.01499E-18
 -1       522 9.52240E-05-2.85699E-05-2.85660E-05 2.67193E-08 6.50687E-19 5.79139E-19
 -1       523 9.52265E-05-2.85713E-05-2.85665E-05 2.44897E-08 2.97172E-19-5.07047E-19
 -1       524 9.52289E-05-2.85723E-05-2.85671E-05 2.16477E-08 2.68843E-19-9.11284E-19
 -1       525 9.52312E-05-2.85732E-05-2.85677E-05 1.84511E-08 1.44328E-18 4.37868E-19
 -1       526 9.52335E-05-2.85742E-05-2.85683E-05 1.49999E-08 5.51676E-21 1.42567E-18
 -1       527 1.17968E-04-4.11159E-05-3.29556E-05-8.47093E-07-1.42921E-19 1.51419E-18
 -1       528 1.22270E-04-4.39792E-05-3.35812E-05 5.74141E-06 1.58926E-20 1.71678E-18
 -1       529 1.24091E-04-4.23395E-05-3.51039E-05 1.33951E-05 5.47825E-19 1.92217E-18
 -1       530 1.21256E-04-3.41224E-05-3.74868E-05 1.68877E-05 1.55159E-18 2.14798E-18
 -1       531 1.15789E-04-2.34866E-05-3.97928E-05 1.05308E-05 2.62395E-18 1.81006E-18
 -1       532 1.13927E-04-2.04092E-05-4.03186E-05-4.09815E-06 2.85704E-18 1.97259E-19
 -1       533 1.18161E-04-2.80245E-05-3.87992E-05-1.56936E-05 2.60075E-18-1.52339E-18
 -1       534 1.22826E-04-3.85389E-05-3.63173E-05-1.74494E-05 1.55006E-18-2.33127E-18
 -1       535 1.23827E-04-4.44363E-05-3.40473E-05-1.06157E-05 6.54584E-19-2.37780E-18
 -1       536 1.20331E-04-4.35818E-05-3.29298E-05-2.27648E-06-9.66490E-20-1.56662E-18
 -1       537 1.15335E-04-3.99741E-05-3.23265E-05 4.07240E-06 5.15918E-19-1.08820E-18
 -1       538 1.10749E-04-3.61062E-05-3.20086E-05 7.65065E-06 7.88327E-19-1.16578E-18
 -1       539 1.07137E-04-3.30994E-05-3.17400E-05 9.04793E-06 3.79520E-19-9.37835E-20
 -1       540 1.04440E-04-3.11044E-05-3.14324E-05 9.03935E-06-7.07117E-19-1.94378E-19
 -1       541 1.02421E-04-2.98984E-05-3.10797E-05 8.26046E-06-5.69667E-19-1.96844E-19
 -1       542 1.00869E-04-2.92125E-05-3.07067E-05 7.14204E-06 6.98540E-19-1.21091E-18
 -1       543 9.96446E-05-2.88386E-05-3.03414E-05 5.94506E-06 4.51187E-19-1.76241E-18
 -1       544 9.86611E-05-2.86417E-05-3.00044E-05 4.81157E-06 8.36270E-19-2.23540E-19
 -1       545 9.78673E-05-2.85418E-05-2.97074E-05 3.80817E-06-1.21258E-18 2.71630E-19
 -1       546 9.72287E-05-2.84941E-05-2.94548E-05 2.95709E-06-2.59160E-18-1.10300E-18
 -1       547 9.67201E-05-2.84744E-05-2.92458E-05 2.25648E-06-1.51683E-18-1.37898E-18
 -1       548 9.63202E-05-2.84699E-05-2.90768E-05 1.69271E-06 5.95028E-20 3.06858E-20
 -1       549 9.60104E-05-2.84735E-05-2.89429E-05 1.24746E-06 9.53078E-19 1.73691E-19
 -1       550 9.57745E-05-2.84814E-05-2.88388E-05 9.01613E-07-3.38428E-19 1.10366E-18
 -1       551 9.55980E-05-2.84913E-05-2.87592E-05 6.37185E-07 3.96107E-19 1.07762E-18
 -1       552 9.54686E-05-2.85020E-05-2.86994E-05 4.38199E-07 1.12171E-18 1.34008E-18
 -1       553 9.53758E-05-2.85125E-05-2.86553E-05 2.90962E-07 2.45314E-19 3.06329E-19
 -1       554 9.53111E-05-2.85223E-05-2.86235E-05 1.84027E-07-1.01403E-18 1.50570E-18
 -1       555 9.52674E-05-2.85312E-05-2.86010E-05 1.08012E-07 2.05180E-19 3.18982E-18
 -1       556 9.52393E-05-2.85391E-05-2.85856E-05 5.53519E-08 1.64712E-20 3.37358E-18
 -1       557 9.52222E-05-2.85458E-05-2.85755E-05 2.00403E-08 2.52748E-20 2.72464E-18
 -1       558 9.52130E-05-2.85515E-05-2.85692E-05-2.62406E-09-2.04000E-19 3.27814E-18
 -1       559 9.52092E-05-2.85562E-05-2.85655E-05-1.62652E-08 1.33058E-19 2.82331E-18
 -1       560 9.52088E-05-2.85600E-05-2.85638E-05-2.36320E-08-5.61161E-20 1.68355E-18
 -1       561 9.52106E-05-2.85630E-05-2.85633E-05-2.67718E-08-1.42636E-18 4.48201E-19
 -1       562 9.52137E-05-2.85654E-05-2.85635E-05-2.71755E-08 9.71279E-19 3.46319E-19
 -1       563 9.52173E-05-2.85674E-05-2.85643E-05-2.58961E-08-4.71914E-20-2.21633E-19
 -1       564 9.52210E-05-2.85689E-05-2.85652E-05-2.36439E-08 1.27514E-19 7.38152E-20
 -1       565 9.52247E-05-2.85702E-05-2.85662E-05-2.08620E-08 1.01824E-18 1.48171E-18
 -1       566 9.52281E-05-2.85714E-05-2.85672E-05-1.77887E-08 5.36931E-19 1.66761E-18
 -1       567 9.52312E-05-2.85725E-05-2.85680E-05-1.45258E-08 7.50831E-19 1.77856E-18
 -1       568 9.52339E-05-2.85737E-05-2.85687E-05-1.10287E-08 1.10582E-18 1.52754E-18
 -1       569 9.52437E-05-2.85847E-05-2.85681E-05-1.15716E-08 2.69485E-18-3.43757E-18
 -1       570 9.52457E-05-2.85870E-05-2.85680E-05-8.49350E-09 3.29457E-18-2.94130E-19
 -1       571 9.52380E-05-2.85782E-05-2.85685E-05-1.33295E-08-7.79749E-19-6.04534E-19
 -1       572 9.52410E-05-2.85817E-05-2.85683E-05-1.32727E-08-7.01045E-19 9.63986E-19
 -1       573 9.52469E-05-2.85885E-05-2.85679E-05-4.46110E-09 2.40671E-18 1.57902E-19
 -1       574 9.52473E-05-2.85890E-05-2.85679E-05 5.40386E-11 2.41663E-19 9.80148E-19
 -1       575 9.52469E-05-2.85884E-05-2.85679E-05 4.56143E-09-2.56495E-19-1.40570E-18
 -1       576 9.52457E-05-2.85870E-05-2.85680E-05 8.51017E-09 1.42380E-19-3.05089E-18
 -1       577 9.52437E-05-2.85846E-05-2.85681E-05 1.15750E-08 2.78946E-18-1.09376E-18
 -1       578 9.52410E-05-2.85816E-05-2.85683E-05 1.32792E-08 2.10663E-18 1.12050E-18
 -1       579 9.52379E-05-2.85781E-05-2.85685E-05 1.32581E-08-7.19425E-19-1.02991E-19
 -1       580 9.17406E-05-5.04208E-05-1.73412E-05 3.99407E-05-1.28696E-18 6.65636E-19
 -1       581 2.87585E-05-1.55982E-05-5.02783E-06-1.99777E-05 1.30642E-18 3.74219E-18
 -1       582 1.13688E-04-3.69378E-05-3.29027E-05-4.35588E-06 5.93717E-19 1.17890E-18
 -1       583 2.73677E-05-1.40930E-05-5.04913E-06 1.26095E-05-6.76647E-19 3.72356E-18
 -1       584 5.79496E-05-3.34877E-05-9.97542E-06-4.13964E-05 2.58213E-18 2.62125E-18
 -1       585 1.03407E-04-2.50968E-05-3.35904E-05-5.33124E-06-1.83899E-18-1.89374E-18
 -1       586 1.20789E-04-6.12679E-05-2.54705E-05 2.82656E-05-2.60727E-19-4.85112E-19
 -1       587 1.32741E-04-9.15761E-06-5.35698E-05-5.43819E-06-5.22884E-18-1.14969E-18
 -1       588 2.68356E-05-1.31217E-05-5.29829E-06 2.06409E-05 1.26970E-18-5.58311E-18
 -1       589 7.44947E-05-6.62443E-06-2.90958E-05 5.47558E-06 9.39055E-19-3.60638E-18
 -1       590 1.42665E-04-2.19724E-05-5.23000E-05 1.15968E-05 4.03389E-18 1.11020E-18
 -1       591 1.38973E-04-2.13325E-05-5.09437E-05-1.32184E-05 5.04562E-18-9.52912E-19
 -1       592 1.35908E-04-2.47569E-05-4.82326E-05-1.15904E-05-4.48234E-18 5.12217E-19
 -1       593 1.47260E-04-4.21961E-05-4.54446E-05 1.03515E-05 2.11255E-18 1.25922E-18
 -1       594 1.41838E-04-5.94396E-05-3.54696E-05-8.55510E-06 3.15202E-19 8.09340E-19
 -1       595 1.16830E-04-5.88972E-05-2.47303E-05-3.15411E-05-1.12671E-18-1.60517E-18
 -1       596 8.36730E-05-4.49106E-05-1.62239E-05-4.08824E-05-1.54171E-18-4.28898E-18
 -1       597 4.30592E-05-2.20227E-05-8.48160E-06-3.14975E-05-8.66356E-19-5.91038E-18
 -1       598 2.28324E-05-1.10750E-05-4.43926E-06-8.83968E-06 1.24024E-19-6.34830E-18
 -1       599 5.54281E-05-2.92300E-05-1.07435E-05 4.07177E-05 1.68025E-18-3.91176E-18
 -1       600 1.27551E-04-5.73692E-05-3.01326E-05 2.38996E-05-4.18223E-19-3.77247E-19
 -1       601 1.41668E-04-4.88686E-05-4.00730E-05 2.06968E-06 3.33645E-19-3.46368E-18
 -1       602 1.41811E-04-4.99388E-05-3.96359E-05 2.49946E-06-2.29648E-18 3.83494E-19
 -1       603 1.34900E-04-1.01427E-05-5.40563E-05 6.08145E-06-4.41929E-18-2.56699E-18
 -1       604 1.38482E-04-2.73824E-05-4.81459E-05 1.12489E-05-2.27799E-18-3.83817E-18
 -1       605 1.27333E-04-6.00805E-05-2.88241E-05-2.50960E-05 2.03992E-18-3.54113E-19
 -1       606 9.01345E-05-5.00736E-05-1.69261E-05-4.28819E-05 2.97700E-18 1.77329E-18
 -1       607 4.99773E-05-2.84144E-05-8.74252E-06 3.51701E-05-1.88227E-18 2.16803E-18
 -1       608 1.08462E-04-2.71698E-05-3.48518E-05 1.62923E-06 2.59808E-18 1.76269E-18
 -1       609 1.44021E-04-5.83746E-05-3.68386E-05 5.03601E-06 1.51415E-18-2.51950E-18
 -1       610 1.29519E-04-1.38755E-05-5.01434E-05 7.51849E-06 4.79151E-18 1.20402E-18
 -1       611 9.37025E-05-1.85718E-05-3.22306E-05-8.82778E-07-7.71934E-19-3.04932E-18
 -1       612 1.34259E-04-3.72859E-05-4.19325E-05-1.14860E-05-2.98383E-18 1.05630E-18
 -1       613 9.52348E-05-2.85749E-05-2.85686E-05 1.24651E-08-5.65418E-19 1.95365E-18
 -1       614 1.13663E-04-5.52612E-05-2.48893E-05 3.15447E-05 1.42172E-18-9.76780E-19
 -1       615 1.28988E-04-1.48779E-05-4.94560E-05-9.47194E-06 5.02423E-18-6.80181E-19
 -1       616 6.81018E-05-4.67840E-06-2.71800E-05-7.62138E-08 1.35215E-18-3.27407E-18
 -1       617 6.75686E-05-4.59826E-06-2.69847E-05 4.58195E-06 1.31914E-18-3.46964E-18
 -1       618 8.26580E-05-1.39289E-05-2.94547E-05-5.67917E-06 1.65300E-18-2.11246E-18
 -1       619 9.29459E-05-2.03752E-05-3.11108E-05-5.14791E-06 1.77885E-18-1.06074E-18
 -1       620 1.02392E-04-2.73818E-05-3.21409E-05-5.28416E-06 1.52213E-18-1.26410E-20
 -1       621 3.30528E-05-7.01306E-06-1.05936E-05 5.70626E-06 1.05539E-18-5.27162E-18
 -1       622 1.39301E-04-5.09838E-05-3.80584E-05-9.86775E-06 1.73024E-18-2.81824E-18
 -1       623 8.28803E-05-4.15101E-05-1.73789E-05-3.88276E-05 2.66024E-18 1.36633E-18
 -1       624 1.06004E-04-3.28210E-05-3.13645E-05-7.92215E-06 7.32774E-19 1.25592E-19
 -1       625 1.29405E-04-3.70421E-05-3.99429E-05 1.29829E-05-7.09470E-19-3.66571E-18
 -1       626 1.07893E-04-3.48548E-05-3.13047E-05-6.33492E-07-7.86814E-19-1.06447E-18
 -1       627 1.11397E-04-3.83337E-05-3.13182E-05-2.52337E-06-6.28864E-19-6.80646E-19
 -1       628 1.14137E-04-3.96584E-05-3.19313E-05-6.25136E-06-6.98785E-19-2.45596E-19
 -1       629 1.14799E-04-3.73767E-05-3.31967E-05-1.04744E-05-1.07650E-18-2.78917E-20
 -1       630 1.12353E-04-3.09371E-05-3.48929E-05-1.23229E-05-1.65680E-18-1.70274E-19
 -1       631 1.07906E-04-2.26931E-05-3.66039E-05-8.96794E-06-1.81705E-18-8.58815E-19
 -1       632 1.05692E-04-1.86741E-05-3.73840E-05-2.80311E-07-2.04859E-18-1.86459E-18
 -1       633 1.07420E-04-2.18825E-05-3.67352E-05 8.70079E-06-1.77152E-18-2.42237E-18
 -1       634 1.11497E-04-2.98837E-05-3.50207E-05 1.28408E-05-1.01716E-18-1.61608E-18
 -1       635 1.14229E-04-3.71388E-05-3.30534E-05 1.12304E-05-5.15098E-19-1.69092E-18
 -1       636 1.13912E-04-4.05271E-05-3.14549E-05 6.43277E-06 5.84995E-20-2.04668E-18
 -1       637 1.11211E-04-4.02362E-05-3.04238E-05 1.41671E-06 8.42649E-19-1.59117E-18
 -1       638 1.07612E-04-3.79381E-05-2.98646E-05-2.40830E-06 1.51470E-19-9.83856E-19
 -1       639 1.04188E-04-3.51007E-05-2.96116E-05-4.76949E-06-5.54528E-19-2.65620E-19
 -1       640 1.01422E-04-3.25554E-05-2.95156E-05-5.91960E-06-7.16828E-19-1.38274E-20
 -1       641 9.93882E-05-3.06079E-05-2.94779E-05-6.21926E-06-7.70693E-20-1.16058E-19
 -1       642 9.79793E-05-2.92726E-05-2.94458E-05-5.97972E-06 4.44905E-20-4.45770E-19
 -1       643 9.70388E-05-2.84427E-05-2.93981E-05-5.43217E-06 1.25973E-19-1.29186E-18
 -1       644 9.64245E-05-2.79845E-05-2.93311E-05-4.73691E-06-3.20156E-19-2.29455E-18
 -1       645 9.60273E-05-2.77780E-05-2.92494E-05-4.00001E-06-8.75810E-20-2.28708E-18
 -1       646 9.57705E-05-2.77298E-05-2.91599E-05-3.28790E-06 5.38049E-19-1.12173E-18
 -1       647 9.56029E-05-2.77733E-05-2.90695E-05-2.63889E-06-6.52074E-19-6.63085E-19
 -1       648 9.54920E-05-2.78635E-05-2.89834E-05-2.07172E-06-5.41699E-20-5.62679E-19
 -1       649 9.54170E-05-2.79718E-05-2.89049E-05-1.59207E-06 6.75527E-19-2.52394E-18
 -1       650 9.53652E-05-2.80811E-05-2.88359E-05-1.19737E-06 9.11068E-19-2.27186E-18
 -1       651 9.53287E-05-2.81820E-05-2.87770E-05-8.80265E-07 2.86206E-19-1.67264E-18
 -1       652 9.53025E-05-2.82700E-05-2.87281E-05-6.31043E-07-7.72868E-20-1.14338E-18
 -1       653 9.52835E-05-2.83437E-05-2.86884E-05-4.39261E-07 1.49692E-19-2.27760E-18
 -1       654 9.52695E-05-2.84035E-05-2.86568E-05-2.94759E-07-6.09487E-19-1.85851E-19
 -1       655 9.52593E-05-2.84508E-05-2.86322E-05-1.88255E-07-1.57685E-19-3.46925E-19
 -1       656 9.52519E-05-2.84873E-05-2.86134E-05-1.11626E-07 3.71221E-19-1.72619E-18
 -1       657 9.52466E-05-2.85148E-05-2.85993E-05-5.79956E-08 6.25398E-19-1.88101E-18
 -1       658 9.52428E-05-2.85351E-05-2.85890E-05-2.17052E-08-5.16693E-19-1.06591E-18
 -1       659 9.52401E-05-2.85496E-05-2.85817E-05 1.79537E-09-1.69952E-18-5.49325E-19
 -1       660 9.52384E-05-2.85597E-05-2.85766E-05 1.60839E-08-6.59121E-20-2.28808E-19
 -1       661 9.52373E-05-2.85665E-05-2.85732E-05 2.39132E-08 2.46127E-20-1.29245E-21
 -1       662 9.52366E-05-2.85709E-05-2.85710E-05 2.73531E-08 5.43954E-19-5.60848E-19
 -1       663 9.52362E-05-2.85736E-05-2.85697E-05 2.79201E-08-1.21457E-19-2.31143E-18
 -1       664 9.52362E-05-2.85752E-05-2.85690E-05 2.66889E-08 1.53214E-19-1.81029E-18
 -1       665 9.52363E-05-2.85761E-05-2.85687E-05 2.43867E-08 7.22169E-19-9.63708E-19
 -1       666 9.52366E-05-2.85766E-05-2.85685E-05 2.14725E-08 6.76221E-19-1.36574E-18
 -1       667 9.52370E-05-2.85772E-05-2.85685E-05 1.81838E-08 1.11506E-18-3.54298E-18
 -1       668 1.29030E-04-5.11697E-05-3.34365E-05 3.87558E-06-3.68757E-19 1.61038E-18
 -1       669 8.57380E-05-4.04446E-05-1.90565E-05 3.82706E-05 2.31108E-18-2.37859E-18
 -1       670 1.20068E-04-4.67359E-05-3.14263E-05-4.34386E-06-4.49753E-19 5.52782E-19
 -1       671 1.30227E-04-2.85405E-05-4.40746E-05 1.71470E-05 2.59565E-18 2.20551E-18
 -1       672 1.30407E-04-3.69058E-05-4.05292E-05-1.85049E-05 2.65538E-18-2.18402E-18
 -1       673 1.24530E-04-5.07667E-05-3.15975E-05 7.93143E-07-4.63679E-19-1.82385E-18
 -1       674 1.15572E-04-4.47805E-05-3.03398E-05 7.83569E-06-5.52372E-19-1.41063E-18
 -1       675 1.08096E-04-3.82250E-05-2.99513E-05 1.11330E-05 2.79987E-19-4.66291E-19
 -1       676 1.03099E-04-3.32125E-05-2.99558E-05 1.19557E-05-3.71880E-20 3.97239E-19
 -1       677 1.00109E-04-3.00457E-05-3.00286E-05 1.14458E-05-7.12384E-19 4.94951E-19
 -1       678 9.84133E-05-2.83030E-05-3.00470E-05 1.03011E-05-1.68599E-19 1.51551E-20
 -1       679 9.74613E-05-2.74868E-05-2.99880E-05 8.90721E-06 4.09614E-19-4.40856E-19
 -1       680 9.69025E-05-2.72083E-05-2.98675E-05 7.48008E-06-2.34203E-20 7.79423E-19
 -1       681 9.65418E-05-2.72119E-05-2.97114E-05 6.13677E-06 6.03589E-19 1.06550E-18
 -1       682 9.62805E-05-2.73454E-05-2.95423E-05 4.93588E-06-8.08711E-20 1.50965E-18
 -1       683 9.60732E-05-2.75252E-05-2.93766E-05 3.90024E-06-1.33932E-18 1.39559E-18
 -1       684 9.59006E-05-2.77088E-05-2.92241E-05 3.03113E-06-8.45696E-19-1.33644E-19
 -1       685 9.57551E-05-2.78769E-05-2.90900E-05 2.31770E-06-1.71177E-18-1.41559E-18
 -1       686 9.56335E-05-2.80221E-05-2.89758E-05 1.74300E-06 4.39007E-19-1.23490E-18
 -1       687 9.55337E-05-2.81435E-05-2.88811E-05 1.28783E-06-1.53990E-19 1.38276E-19
 -1       688 9.54535E-05-2.82427E-05-2.88043E-05 9.33072E-07 2.59715E-19 6.15494E-19
 -1       689 9.53905E-05-2.83224E-05-2.87432E-05 6.60890E-07 1.54904E-20 7.36135E-19
 -1       690 9.53421E-05-2.83855E-05-2.86955E-05 4.55416E-07 1.36405E-18 1.50253E-18
 -1       691 9.53060E-05-2.84348E-05-2.86589E-05 3.02949E-07-7.34955E-19 1.32615E-18
 -1       692 9.52796E-05-2.84729E-05-2.86313E-05 1.91943E-07-6.32176E-19-7.49983E-19
 -1       693 9.52609E-05-2.85019E-05-2.86109E-05 1.12863E-07-4.00513E-19 1.80662E-19
 -1       694 9.52480E-05-2.85237E-05-2.85961E-05 5.79710E-08 5.32979E-19 6.07490E-19
 -1       695 9.52396E-05-2.85397E-05-2.85857E-05 2.10896E-08-3.15319E-19 6.83693E-19
 -1       696 9.52344E-05-2.85513E-05-2.85785E-05-2.63509E-09-4.88188E-19 1.81262E-18
 -1       697 9.52315E-05-2.85596E-05-2.85737E-05-1.69558E-08-3.15506E-19 2.90491E-18
 -1       698 9.52302E-05-2.85652E-05-2.85707E-05-2.47247E-08-1.69925E-19 2.32419E-18
 -1       699 9.52300E-05-2.85691E-05-2.85690E-05-2.80673E-08 1.24974E-18 2.05090E-19
 -1       700 9.52304E-05-2.85715E-05-2.85681E-05-2.85306E-08 1.26716E-18-9.20879E-19
 -1       701 9.52312E-05-2.85731E-05-2.85678E-05-2.72054E-08 8.31021E-19-1.73918E-18
 -1       702 9.52322E-05-2.85741E-05-2.85678E-05-2.48256E-08 9.42614E-20-2.61302E-18
 -1       703 9.52334E-05-2.85748E-05-2.85680E-05-2.18510E-08 4.45100E-19-2.11224E-18
 -1       704 9.52347E-05-2.85755E-05-2.85682E-05-1.85349E-08-2.14493E-19-2.70324E-18
 -1       705 9.52365E-05-2.85768E-05-2.85684E-05-1.60443E-08 3.69287E-19-2.23594E-18
 -1       706 9.52501E-05-2.85883E-05-2.85693E-05-2.65434E-09 1.49344E-18-7.96751E-19
 -1       707 9.52374E-05-2.85776E-05-2.85685E-05 1.57913E-08 1.03883E-18-2.54813E-18
 -1       708 9.52468E-05-2.85855E-05-2.85691E-05-1.22181E-08 2.13637E-18-2.07514E-18
 -1       709 9.52501E-05-2.85883E-05-2.85693E-05 2.79435E-09 9.11569E-19-1.92448E-18
 -1       710 9.52490E-05-2.85874E-05-2.85693E-05-7.83909E-09 1.92964E-18 6.84058E-19
 -1       711 1.11838E-04-3.95338E-05-3.09821E-05-8.04069E-06-2.78826E-20 4.22664E-19
 -1       712 9.52490E-05-2.85873E-05-2.85693E-05 7.87524E-09-3.19645E-19-1.96566E-18
 -1       713 9.52467E-05-2.85854E-05-2.85691E-05 1.22331E-08 1.19831E-18 6.40134E-19
 -1       714 9.52434E-05-2.85827E-05-2.85689E-05 1.52543E-08 3.18127E-18 3.37728E-19
 -1       715 1.32568E-04-6.01782E-05-3.10676E-05 8.92195E-06-1.43890E-19-2.40553E-18
 -1       716 4.74419E-05-1.84331E-05-1.19457E-05 2.33135E-05-1.49710E-18 1.84224E-18
 -1       717 1.01462E-04-2.59438E-05-3.23768E-05-2.03942E-06-1.22581E-18-2.05605E-18
 -1       718 7.90767E-05-3.72220E-05-1.75645E-05 3.44537E-05-1.97748E-18 1.92607E-18
 -1       719 4.09567E-05-1.15598E-05-1.20825E-05-1.77249E-05-1.88041E-19-5.57459E-18
 -1       720 1.32296E-04-5.61883E-05-3.26719E-05-7.01508E-06 1.22919E-18-2.41280E-18
 -1       721 1.33305E-04-4.57369E-05-3.76956E-05 1.39547E-05 8.58600E-19 2.50442E-18
 -1       722 1.04769E-04-3.08466E-05-3.16807E-05-6.01768E-07-9.44938E-19-1.48894E-18
 -1       723 1.09825E-04-5.46263E-05-2.35146E-05 2.88261E-05-1.40600E-18-7.14844E-19
 -1       724 7.35831E-05-8.11210E-06-2.80496E-05-3.92924E-06 1.50568E-18-2.59278E-18
 -1       725 5.21278E-05-2.21223E-05-1.23656E-05-3.04631E-05 1.55372E-18 2.80109E-18
 -1       726 8.73308E-05-1.81125E-05-2.96672E-05 6.58038E-06 3.61638E-19-3.08915E-18
 -1       727 1.39361E-04-5.13000E-05-3.78874E-05 8.02031E-06 6.06343E-19 1.84391E-18
 -1       728 1.29454E-04-5.96041E-05-2.99484E-05-1.44945E-05-1.42876E-18 4.56008E-19
 -1       729 1.08812E-04-5.22439E-05-2.40118E-05-2.91702E-05-1.93394E-18-9.77966E-19
 -1       730 5.06166E-05-1.65149E-05-1.41010E-05 2.84642E-05 2.06500E-18-4.03466E-18
 -1       731 7.18800E-05-3.10054E-05-1.70928E-05-3.37857E-05-1.51013E-18-3.94733E-18
 -1       732 3.82456E-05-1.05285E-05-1.13773E-05-3.86273E-06-3.43748E-19 2.17174E-18
 -1       733 1.19836E-04-8.86861E-06-4.80824E-05 1.18121E-06-3.64203E-18-1.79882E-18
 -1       734 1.24231E-04-1.71864E-05-4.63489E-05 1.20038E-05-2.75058E-18-3.27013E-18
 -1       735 1.32196E-04-5.52944E-05-3.30190E-05 7.91275E-06-1.48118E-19 3.24639E-19
 -1       736 1.11919E-04-5.55394E-05-2.40403E-05-3.00193E-05 2.79531E-18 4.91722E-19
 -1       737 1.21404E-04-1.59800E-05-4.56754E-05-1.09020E-05-3.78968E-18-7.49757E-20
 -1       738 9.45773E-05-2.25807E-05-3.08554E-05 3.16743E-06-1.75599E-19-2.59533E-18
 -1       739 7.19259E-05-7.80909E-06-2.74787E-05 7.91052E-06 1.15162E-18-3.31722E-18
 -1       740 1.28935E-04-4.80723E-05-3.47312E-05 6.38559E-06 1.63980E-20-3.08199E-18
 -1       741 1.22434E-04-2.58725E-05-4.16738E-05-1.39483E-05-3.15462E-18 3.00743E-19
 -1       742 9.52435E-05-2.85827E-05-2.85689E-05-1.52566E-08 1.11930E-19 8.49038E-19
 -1       743 9.52401E-05-2.85799E-05-2.85686E-05-1.63614E-08-1.21257E-18 1.77037E-18
 -1       744 9.52407E-05-2.85801E-05-2.85688E-05 1.71974E-08 2.02232E-18-2.54289E-18
 -1       745 7.92623E-05-1.28636E-05-2.84630E-05 8.57438E-06 7.66373E-19-3.20986E-18
 -1       746 1.30491E-04-4.64048E-05-3.61653E-05-6.82489E-06-1.19160E-18 1.05379E-18
 -1       747 9.59025E-05-2.61296E-05-2.99078E-05-9.75464E-06 8.67610E-19-9.55851E-19
 -1       748 4.60565E-05-6.70326E-06-1.65517E-05-4.04357E-06 7.41558E-19-4.64786E-18
 -1       749 1.14808E-04-4.23778E-05-3.10466E-05 1.39354E-07-1.94321E-19-3.17820E-19
 -1       750 1.19782E-04-4.36109E-05-3.26555E-05-5.42238E-06-5.77058E-19 3.12514E-19
 -1       751 1.21265E-04-3.90872E-05-3.52850E-05-1.17323E-05-1.68266E-18 7.97744E-19
 -1       752 1.10913E-04-1.50669E-05-4.13603E-05 5.66770E-06-2.49901E-18-1.92234E-18
 -1       753 1.15626E-04-2.53088E-05-3.89032E-05 1.36147E-05-1.14589E-18-2.20484E-18
 -1       754 1.19896E-04-3.76132E-05-3.53384E-05 1.25825E-05-7.85461E-19-2.62705E-18
 -1       755 1.19563E-04-4.43782E-05-3.22535E-05 6.20849E-06-1.06021E-19-1.53914E-18
 -1       756 1.15204E-04-4.45064E-05-3.03116E-05-3.02219E-07 7.00380E-19-1.12043E-18
 -1       757 1.09599E-04-4.13126E-05-2.92713E-05-4.81817E-06 8.15488E-19-1.21126E-18
 -1       758 1.04520E-04-3.72059E-05-2.88512E-05-7.13356E-06 9.27613E-20-1.18706E-18
 -1       759 1.00663E-04-3.35497E-05-2.87636E-05-7.91617E-06-1.33459E-19-1.21249E-18
 -1       760 9.80334E-05-3.07901E-05-2.88184E-05-7.79671E-06-3.43193E-19-5.36607E-19
 -1       761 9.63855E-05-2.89282E-05-2.89098E-05-7.19968E-06-3.89267E-19-6.33192E-19
 -1       762 9.54360E-05-2.77983E-05-2.89872E-05-6.38048E-06-8.59650E-19-2.09548E-19
 -1       763 9.49461E-05-2.72034E-05-2.90322E-05-5.48716E-06-9.37927E-19-1.15744E-18
 -1       764 9.47393E-05-2.69700E-05-2.90437E-05-4.60514E-06 2.06933E-19-4.14148E-19
 -1       765 9.46951E-05-2.69631E-05-2.90278E-05-3.78307E-06 6.02802E-19 9.56853E-20
 -1       766 9.47356E-05-2.70857E-05-2.89926E-05-3.04697E-06 2.16593E-19-4.96265E-19
 -1       767 9.48134E-05-2.72719E-05-2.89462E-05-2.40807E-06 3.53428E-20 3.31497E-20
 -1       768 9.49009E-05-2.74792E-05-2.88949E-05-1.86784E-06-1.50470E-18-2.28400E-19
 -1       769 9.49838E-05-2.76821E-05-2.88435E-05-1.42143E-06 3.87968E-19-2.00105E-18
 -1       770 9.50552E-05-2.78667E-05-2.87950E-05-1.06022E-06 9.38452E-19-1.71759E-18
 -1       771 9.51131E-05-2.80265E-05-2.87513E-05-7.73668E-07-1.26189E-18-2.67045E-18
 -1       772 9.51578E-05-2.81599E-05-2.87134E-05-5.50671E-07-1.11200E-19-2.40117E-18
 -1       773 9.51910E-05-2.82680E-05-2.86812E-05-3.80441E-07 1.04858E-18-1.50497E-18
 -1       774 9.52145E-05-2.83534E-05-2.86548E-05-2.53053E-07 4.07171E-20-4.78340E-19
 -1       775 9.52305E-05-2.84193E-05-2.86334E-05-1.59741E-07-3.82041E-19 1.34917E-18
 -1       776 9.52407E-05-2.84690E-05-2.86165E-05-9.30023E-08-7.90538E-20 8.24677E-19
 -1       777 9.52467E-05-2.85056E-05-2.86033E-05-4.65855E-08 8.34292E-21-3.55142E-19
 -1       778 9.52497E-05-2.85319E-05-2.85934E-05-1.54008E-08-8.85426E-19-3.77455E-19
 -1       779 9.52506E-05-2.85502E-05-2.85859E-05 4.60823E-09-7.08594E-19 4.20789E-19
 -1       780 9.52503E-05-2.85625E-05-2.85805E-05 1.66086E-08-2.21445E-19 5.98249E-19
 -1       781 9.52491E-05-2.85705E-05-2.85766E-05 2.30221E-08-2.91374E-19-4.25574E-19
 -1       782 9.52476E-05-2.85753E-05-2.85738E-05 2.56587E-08 2.39434E-19-4.93583E-19
 -1       783 9.52459E-05-2.85780E-05-2.85720E-05 2.58358E-08 4.22238E-19 9.30890E-19
 -1       784 9.52443E-05-2.85793E-05-2.85707E-05 2.44805E-08 2.23845E-19 8.75763E-19
 -1       785 9.52428E-05-2.85798E-05-2.85698E-05 2.22170E-08-3.08051E-19-4.34337E-19
 -1       786 9.52415E-05-2.85799E-05-2.85692E-05 1.98451E-08-2.69316E-19-1.78657E-18
 -1       787 9.52531E-05-2.85879E-05-2.85708E-05 6.16189E-09 5.20446E-19-3.77600E-18
 -1       788 1.24561E-04-1.49626E-05-4.75459E-05 4.73873E-06 4.43443E-18 1.06136E-18
 -1       789 1.14707E-04-4.98225E-05-2.77205E-05 1.57867E-05-9.38262E-19-1.27460E-18
 -1       790 9.45788E-05-2.85999E-05-2.82753E-05 1.37585E-05-7.83757E-19 3.56973E-19
 -1       791 9.33984E-05-2.63684E-05-2.87261E-05 1.17714E-05-9.69769E-19 9.01282E-20
 -1       792 9.31782E-05-2.54398E-05-2.90300E-05 9.94133E-06-1.60397E-19 8.80539E-19
 -1       793 9.33863E-05-2.52589E-05-2.91969E-05 8.29997E-06-8.18870E-19 1.94915E-18
 -1       794 9.37393E-05-2.54665E-05-2.92593E-05 6.84295E-06-5.61261E-19 2.64849E-18
 -1       795 9.41001E-05-2.58462E-05-2.92513E-05 5.56529E-06 1.56920E-19 2.78536E-18
 -1       796 9.44118E-05-2.62760E-05-2.92007E-05 4.46177E-06-4.93933E-19 2.67681E-18
 -1       797 9.46589E-05-2.66925E-05-2.91282E-05 3.52457E-06 1.73449E-19 2.05989E-18
 -1       798 9.48446E-05-2.70661E-05-2.90477E-05 2.74224E-06-1.68684E-19 1.89341E-18
 -1       799 9.49791E-05-2.73864E-05-2.89681E-05 2.10022E-06 2.88265E-21 2.97463E-19
 -1       800 9.50737E-05-2.76531E-05-2.88944E-05 1.58198E-06 3.92861E-19 4.92288E-20
 -1       801 9.51387E-05-2.78703E-05-2.88292E-05 1.17035E-06-1.11081E-18 6.87128E-19
 -1       802 9.51823E-05-2.80441E-05-2.87735E-05 8.48587E-07 4.65853E-19 8.82204E-19
 -1       803 9.52108E-05-2.81812E-05-2.87269E-05 6.01093E-07-3.66817E-19 3.82362E-19
 -1       804 9.52288E-05-2.82877E-05-2.86890E-05 4.13887E-07-3.56206E-20 2.14781E-18
 -1       805 9.52397E-05-2.83694E-05-2.86587E-05 2.74788E-07 5.55069E-19 1.52286E-18
 -1       806 9.52457E-05-2.84311E-05-2.86348E-05 1.73445E-07 3.36125E-19 9.49591E-19
 -1       807 9.52486E-05-2.84769E-05-2.86164E-05 1.01247E-07-5.72514E-19 3.67205E-19
 -1       808 9.52496E-05-2.85104E-05-2.86025E-05 5.11663E-08-1.46518E-18 1.60732E-18
 -1       809 9.52492E-05-2.85343E-05-2.85921E-05 1.75691E-08-1.40822E-18 2.52909E-18
 -1       810 9.52482E-05-2.85510E-05-2.85845E-05-3.98415E-09-5.23279E-19 2.21803E-18
 -1       811 9.52469E-05-2.85622E-05-2.85791E-05-1.69311E-08 1.06005E-18 9.77696E-19
 -1       812 9.52454E-05-2.85695E-05-2.85754E-05-2.38856E-08 1.77960E-18-1.63636E-18
 -1       813 9.52440E-05-2.85740E-05-2.85728E-05-2.67940E-08 1.55129E-18-2.18773E-18
 -1       814 9.52426E-05-2.85766E-05-2.85712E-05-2.70703E-08 1.20548E-18-1.96998E-18
 -1       815 9.52415E-05-2.85779E-05-2.85701E-05-2.57091E-08 7.92613E-19-1.09422E-18
 -1       816 9.52405E-05-2.85785E-05-2.85694E-05-2.33738E-08-2.27047E-19-1.23155E-18
 -1       817 9.52399E-05-2.85789E-05-2.85690E-05-2.04747E-08 1.24405E-18-1.00886E-19
 -1       818 9.52400E-05-2.85794E-05-2.85688E-05-1.84525E-08-5.45356E-19 6.67914E-19
 -1       819 6.36932E-05-5.51684E-06-2.49123E-05 2.43610E-06 1.18229E-18-3.57392E-18
 -1       820 9.52539E-05-2.85885E-05-2.85709E-05 4.03850E-11 1.55729E-18-1.57722E-18
 -1       821 1.17605E-04-5.19633E-05-2.80503E-05 1.81676E-05 1.42944E-18-3.96054E-19
 -1       822 6.96185E-05-2.42998E-05-1.92274E-05 2.39398E-05-1.33364E-18 1.52326E-18
 -1       823 9.52509E-05-2.85864E-05-2.85705E-05 1.17017E-08 7.48118E-19 1.39697E-18
 -1       824 9.75887E-05-3.28729E-05-2.77334E-05 1.57440E-05-4.06364E-19 3.61244E-19
 -1       825 1.03804E-04-3.99957E-05-2.73338E-05 1.70487E-05-8.67062E-19-3.50351E-19
 -1       826 5.40366E-05-1.32796E-05-1.72320E-05 9.37308E-06-9.39730E-19 1.81330E-18
 -1       827 9.43316E-05-3.95957E-05-2.33571E-05-2.70031E-05-1.38127E-18-1.79424E-18
 -1       828 1.21248E-04-5.28862E-05-2.92677E-05-1.35575E-05-1.12253E-18 3.24053E-19
 -1       829 1.08745E-04-3.74943E-05-3.05367E-05 2.83256E-06-2.50693E-19-9.21776E-19
 -1       830 9.37484E-05-3.97757E-05-2.29413E-05 2.65773E-05-2.17075E-18 2.95654E-19
 -1       831 9.52472E-05-2.85840E-05-2.85700E-05 1.60663E-08 1.95316E-18 1.72447E-18
 -1       832 7.49722E-05-2.70933E-05-2.03456E-05 3.01460E-05 2.11040E-18-2.56793E-18
 -1       833 7.35769E-05-3.08858E-05-1.80541E-05-3.17543E-05 1.42104E-18 6.25878E-19
 -1       834 6.15005E-05-1.76412E-05-1.85068E-05-2.22133E-05-6.24525E-19-4.00604E-18
 -1       835 9.91621E-05-4.58165E-05-2.27205E-05-2.95947E-05 2.16086E-18 4.43832E-19
 -1       836 1.20459E-04-5.43976E-05-2.83150E-05-1.43996E-05 2.24490E-18-1.33713E-18
 -1       837 5.02949E-05-8.97762E-06-1.74264E-05 1.47704E-05 1.59318E-18-4.13842E-18
 -1       838 5.58087E-05-1.57662E-05-1.68872E-05-1.67520E-05 3.42942E-19 1.92335E-18
 -1       839 9.96465E-05-4.21864E-05-2.44851E-05 2.71297E-05 1.93328E-18-1.47416E-18
 -1       840 6.71432E-05-8.10803E-06-2.52882E-05 9.49569E-06 1.30265E-18-3.29860E-18
 -1       841 8.20774E-05-1.83790E-05-2.72960E-05-1.17847E-05 5.75293E-19-2.16493E-18
 -1       842 1.03690E-04-3.21337E-05-3.06562E-05 3.14559E-06-3.48453E-19-1.47544E-18
 -1       843 9.52473E-05-2.85841E-05-2.85700E-05-1.60113E-08-7.30443E-19 8.37708E-19
 -1       844 1.12163E-04-1.55725E-05-4.16986E-05-6.44428E-06-3.01951E-18-1.45643E-18
 -1       845 6.66957E-05-1.66067E-05-2.13396E-05 2.17531E-05 1.75336E-18-3.08908E-18
 -1       846 6.75377E-05-7.87155E-06-2.55496E-05-5.04694E-06 1.10820E-18-2.97452E-18
 -1       847 9.52510E-05-2.85865E-05-2.85705E-05-1.15896E-08 1.16520E-18 2.63252E-20
 -1       848 8.67311E-05-2.12863E-05-2.80201E-05 1.18955E-05 7.19286E-19-2.83632E-18
 -1       849 1.08307E-04-4.21383E-05-2.83242E-05-1.57746E-05-5.75132E-19-1.04807E-19
 -1       850 9.52532E-05-2.85880E-05-2.85708E-05-6.05601E-09 1.71096E-18 1.72329E-19
 -1       851 1.25525E-04-5.15823E-05-3.17487E-05 4.56625E-06 4.91451E-19 2.85212E-19
 -1       852 8.08804E-05-2.68140E-05-2.30678E-05-2.30461E-05-7.89680E-19-2.65311E-18
 -1       853 9.52496E-05-2.64740E-05-2.94992E-05 7.80348E-06 2.76525E-19-2.30787E-18
 -1       854 9.52446E-05-2.85821E-05-2.85697E-05 1.82411E-08 4.68165E-19-8.72542E-19
 -1       855 9.77034E-05-3.06081E-05-2.87323E-05-1.33240E-05 2.37631E-19-9.25495E-19
 -1       856 1.18393E-04-4.72255E-05-3.05455E-05 5.57560E-06 4.16017E-19-2.46743E-19
 -1       857 1.20155E-04-5.00489E-05-3.00049E-05-4.84757E-06 1.41179E-18-1.69873E-18
 -1       858 1.11266E-04-4.52114E-05-2.83029E-05-9.93525E-06 9.08824E-19-6.34776E-19
 -1       859 1.03954E-04-3.92515E-05-2.77271E-05-1.15018E-05 1.76695E-19-1.47270E-19
 -1       860 9.88977E-05-3.42318E-05-2.77138E-05-1.11670E-05 2.37711E-22 4.18358E-19
 -1       861 9.57605E-05-3.06018E-05-2.79254E-05-1.00338E-05-2.31462E-19 1.53762E-19
 -1       862 9.40174E-05-2.82382E-05-2.81913E-05-8.67220E-06-2.78710E-19 4.60961E-19
 -1       863 9.31938E-05-2.68520E-05-2.84325E-05-7.33100E-06-4.37406E-19 2.50052E-19
 -1       864 9.29383E-05-2.61600E-05-2.86196E-05-6.10252E-06-1.13975E-18 1.28006E-18
 -1       865 9.30093E-05-2.59311E-05-2.87481E-05-5.01364E-06 2.25642E-19 1.55371E-18
 -1       866 9.32487E-05-2.59911E-05-2.88249E-05-4.06658E-06 6.41909E-19 1.84435E-18
 -1       867 9.35571E-05-2.62155E-05-2.88609E-05-3.25498E-06-3.31544E-19 6.82501E-19
 -1       868 9.38755E-05-2.65190E-05-2.88673E-05-2.56925E-06 1.45551E-20-2.32477E-19
 -1       869 9.41712E-05-2.68461E-05-2.88538E-05-1.99823E-06-4.71699E-19-9.46587E-19
 -1       870 9.44286E-05-2.71627E-05-2.88283E-05-1.52980E-06-1.36786E-18 1.06146E-18
 -1       871 9.46425E-05-2.74500E-05-2.87968E-05-1.15139E-06 4.08141E-19 4.55342E-19
 -1       872 9.48140E-05-2.76992E-05-2.87635E-05-8.50483E-07-3.65376E-19-2.79589E-19
 -1       873 9.49472E-05-2.79081E-05-2.87311E-05-6.15020E-07 2.10001E-19 1.94773E-18
 -1       874 9.50478E-05-2.80782E-05-2.87013E-05-4.33810E-07 1.42061E-18 1.02969E-18
 -1       875 9.51215E-05-2.82135E-05-2.86749E-05-2.96772E-07 9.30371E-19 1.26196E-18
 -1       876 9.51739E-05-2.83186E-05-2.86523E-05-1.95069E-07 2.78799E-19 6.49118E-19
 -1       877 9.52099E-05-2.83985E-05-2.86335E-05-1.21144E-07-5.25773E-20-1.50362E-19
 -1       878 9.52334E-05-2.84579E-05-2.86181E-05-6.86776E-08-6.08984E-19 1.21236E-19
 -1       879 9.52478E-05-2.85010E-05-2.86058E-05-3.24885E-08-4.87788E-20 6.61004E-20
 -1       880 9.52557E-05-2.85315E-05-2.85961E-05-8.41274E-09-4.11145E-19 1.46669E-19
 -1       881 9.52592E-05-2.85523E-05-2.85887E-05 6.83506E-09-6.51438E-19 6.83502E-19
 -1       882 9.52597E-05-2.85660E-05-2.85830E-05 1.57987E-08-1.18974E-18 3.41655E-19
 -1       883 9.52584E-05-2.85745E-05-2.85788E-05 2.04090E-08-4.26646E-19 6.00057E-19
 -1       884 9.52560E-05-2.85794E-05-2.85757E-05 2.20990E-08 1.30122E-18 9.66441E-19
 -1       885 9.52532E-05-2.85818E-05-2.85734E-05 2.18994E-08-4.92386E-20 1.15320E-18
 -1       886 9.52502E-05-2.85829E-05-2.85717E-05 2.05418E-08-1.06583E-18-5.47671E-20
 -1       887 8.80490E-05-2.30362E-05-2.78615E-05 1.00376E-05-9.91749E-19 1.03810E-18
 -1       888 8.70437E-05-2.37671E-05-2.71166E-05 1.24172E-05-4.74368E-19 1.54548E-18
 -1       889 9.04524E-05-2.35449E-05-2.86745E-05 6.76760E-06-5.17736E-19 9.94635E-19
 -1       890 9.15077E-05-2.41834E-05-2.88532E-05 5.54602E-06 5.87801E-19-2.35767E-19
 -1       891 9.23917E-05-2.48663E-05-2.89394E-05 4.50507E-06-1.37404E-19 1.86165E-19
 -1       892 9.31055E-05-2.55199E-05-2.89652E-05 3.61601E-06-3.39276E-20 5.68090E-19
 -1       893 9.36668E-05-2.61079E-05-2.89538E-05 2.86248E-06-1.20364E-19 5.10695E-19
 -1       894 9.40996E-05-2.66165E-05-2.89213E-05 2.23203E-06 4.12541E-19 9.55063E-19
 -1       895 9.44279E-05-2.70441E-05-2.88787E-05 1.71257E-06 6.90838E-19 1.16690E-18
 -1       896 9.46733E-05-2.73960E-05-2.88331E-05 1.29147E-06 1.36816E-19 1.47425E-18
 -1       897 9.48542E-05-2.76805E-05-2.87887E-05 9.55746E-07-5.77337E-19-3.25639E-19
 -1       898 9.49856E-05-2.79069E-05-2.87480E-05 6.92529E-07 5.29990E-19-3.49761E-19
 -1       899 9.50795E-05-2.80844E-05-2.87122E-05 4.89656E-07-9.27027E-19-3.75581E-19
 -1       900 9.51453E-05-2.82215E-05-2.86816E-05 3.36036E-07 4.05089E-19-2.92200E-19
 -1       901 9.51903E-05-2.83259E-05-2.86561E-05 2.21879E-07 4.22685E-20 1.73172E-18
 -1       902 9.52200E-05-2.84041E-05-2.86354E-05 1.38778E-07 2.16115E-19 2.21594E-18
 -1       903 9.52388E-05-2.84616E-05-2.86188E-05 7.96893E-08-3.99600E-19 2.08953E-18
 -1       904 9.52499E-05-2.85030E-05-2.86058E-05 3.88301E-08-1.85026E-18 1.16708E-18
 -1       905 9.52556E-05-2.85322E-05-2.85957E-05 1.15504E-08-1.21515E-18 6.21200E-20
 -1       906 9.52577E-05-2.85522E-05-2.85881E-05-5.82100E-09-5.54240E-19 6.49783E-19
 -1       907 9.52576E-05-2.85653E-05-2.85824E-05-1.61279E-08 1.83476E-18 1.16118E-18
 -1       908 9.52560E-05-2.85735E-05-2.85782E-05-2.15304E-08 1.93269E-18 1.64695E-18
 -1       909 9.52537E-05-2.85783E-05-2.85752E-05-2.36343E-08 7.33294E-19 1.98634E-18
 -1       910 9.52511E-05-2.85807E-05-2.85730E-05-2.35986E-08 1.91259E-19 2.35610E-18
 -1       911 9.52485E-05-2.85818E-05-2.85715E-05-2.22566E-08 3.20504E-19 3.21838E-18
 -1       912 9.52462E-05-2.85821E-05-2.85703E-05-2.01154E-08-6.25833E-19 3.60257E-18
 -1       913 9.52577E-05-2.85884E-05-2.85726E-05 3.48371E-09-8.75322E-20-3.31429E-18
 -1       914 7.60104E-05-1.42589E-05-2.64540E-05 1.28016E-05 1.14874E-18-2.92405E-18
 -1       915 9.52437E-05-2.85819E-05-2.85694E-05-1.77810E-08-1.12199E-18 3.84240E-18
 -1       916 1.10769E-04-4.48859E-05-2.81254E-05 1.52889E-05 9.76169E-19-1.04108E-18
 -1       917 9.52559E-05-2.85874E-05-2.85722E-05 9.99427E-09 1.13824E-18-1.74058E-18
 -1       918 8.68742E-05-2.59761E-05-2.61036E-05 1.57296E-05-9.11620E-19 2.42826E-18
 -1       919 8.85750E-05-3.06040E-05-2.47918E-05 2.02573E-05-1.49870E-18 8.22214E-19
 -1       920 6.93012E-05-1.86783E-05-2.16291E-05 1.46505E-05-1.78774E-18 7.25358E-19
 -1       921 8.92628E-05-2.30857E-05-2.83613E-05 8.22747E-06-8.20519E-19 1.87002E-18
 -1       922 1.07714E-04-4.66090E-05-2.61566E-05-1.90429E-05 1.62245E-18-8.18264E-19
 -1       923 9.52521E-05-2.85853E-05-2.85715E-05 1.56515E-08 1.33542E-19 1.75290E-18
 -1       924 5.93114E-05-1.01413E-05-2.09510E-05-1.10053E-05 3.19257E-19-3.71857E-18
 -1       925 6.16392E-05-1.38917E-05-2.03893E-05-3.48387E-06-1.82991E-19 1.23264E-18
 -1       926 7.24779E-05-2.45474E-05-2.04468E-05-2.27514E-05 7.97094E-19 8.27174E-19
 -1       927 5.38822E-05-6.30930E-06-2.02217E-05 4.15035E-06 1.30726E-18-4.02969E-18
 -1       928 8.96679E-05-3.61397E-05-2.28649E-05-2.54111E-05 1.02757E-18 3.05958E-20
 -1       929 8.87637E-05-3.04271E-05-2.49267E-05 2.28195E-05 1.56699E-18-2.25297E-18
 -1       930 1.02297E-04-3.36373E-05-2.94078E-05 8.70533E-06 3.29253E-19-1.72742E-18
 -1       931 9.52471E-05-2.85825E-05-2.85706E-05 1.96007E-08-1.35914E-18-1.07801E-18
 -1       932 9.52577E-05-2.85884E-05-2.85726E-05-3.31642E-09-2.49217E-20-8.39036E-19
 -1       933 8.41776E-05-2.39763E-05-2.58361E-05 1.81323E-05 1.18840E-18-2.65434E-18
 -1       934 6.96325E-05-1.45197E-05-2.35628E-05-1.40933E-05 1.60407E-19-3.04051E-18
 -1       935 5.98387E-05-7.37425E-06-2.24041E-05 8.51848E-06 1.38856E-18-3.84424E-18
 -1       936 1.09336E-04-4.07665E-05-2.93932E-05 8.83314E-06 3.79468E-19-1.02692E-18
 -1       937 6.95075E-05-1.80373E-05-2.20299E-05-1.19031E-05-3.03120E-19 1.06597E-18
 -1       938 9.52516E-05-2.85852E-05-2.85713E-05-1.60434E-08 3.56576E-19 6.78683E-19
 -1       939 9.10438E-05-2.93681E-05-2.62935E-05-1.80478E-05-4.41083E-19-1.77896E-18
 -1       940 9.13993E-05-2.43148E-05-2.87506E-05 3.21438E-06 9.18117E-20-6.91451E-19
 -1       941 8.39792E-05-2.86267E-05-2.36743E-05-1.97324E-05 4.15192E-19-3.18919E-19
 -1       942 9.52559E-05-2.85874E-05-2.85722E-05-9.83993E-09-2.79792E-19 2.93276E-20
 -1       943 8.47699E-05-2.08204E-05-2.74078E-05 6.98375E-06-5.29412E-19 4.34294E-19
 -1       944 9.90083E-05-3.84895E-05-2.59194E-05-1.77883E-05 7.74293E-19-8.34609E-19
 -1       945 9.39565E-05-3.25629E-05-2.63139E-05-1.49887E-05 7.88485E-19-2.65798E-19
 -1       946 9.13876E-05-2.87131E-05-2.68596E-05-1.21339E-05 2.22222E-19-1.09284E-19
 -1       947 9.03362E-05-2.64240E-05-2.73896E-05-9.68325E-06-6.56642E-19 9.89570E-20
 -1       948 9.01633E-05-2.52103E-05-2.78360E-05-7.69253E-06-4.64776E-19 3.07467E-19
 -1       949 9.04706E-05-2.47131E-05-2.81810E-05-6.10432E-06-2.83437E-19 2.77616E-19
 -1       950 9.10152E-05-2.46748E-05-2.84310E-05-4.83671E-06-3.06187E-19 4.59119E-19
 -1       951 9.16502E-05-2.49141E-05-2.86007E-05-3.81924E-06 5.06548E-19 1.66165E-19
 -1       952 9.22883E-05-2.53042E-05-2.87071E-05-2.99869E-06-3.04725E-20 3.81468E-19
 -1       953 9.28801E-05-2.57589E-05-2.87660E-05-2.33593E-06 8.65587E-19 1.17919E-18
 -1       954 9.34008E-05-2.62215E-05-2.87909E-05-1.80170E-06-3.93183E-20 2.31542E-18
 -1       955 9.38414E-05-2.66576E-05-2.87929E-05-1.37337E-06 1.69894E-19 2.53297E-18
 -1       956 9.42026E-05-2.70480E-05-2.87804E-05-1.03266E-06-5.07285E-19 2.27273E-18
 -1       957 9.44908E-05-2.73845E-05-2.87598E-05-7.64350E-07 1.05638E-19 1.83520E-18
 -1       958 9.47150E-05-2.76659E-05-2.87353E-05-5.55514E-07-1.32382E-19 1.58098E-18
 -1       959 9.48854E-05-2.78952E-05-2.87101E-05-3.95090E-07-1.10086E-18 8.09743E-19
 -1       960 9.50117E-05-2.80778E-05-2.86859E-05-2.73639E-07 7.88021E-19-9.31760E-19
 -1       961 9.51029E-05-2.82201E-05-2.86640E-05-1.83175E-07 4.86332E-19-1.37688E-18
 -1       962 9.51668E-05-2.83288E-05-2.86448E-05-1.17011E-07-7.35600E-19-2.06046E-18
 -1       963 9.52099E-05-2.84100E-05-2.86285E-05-6.96322E-08-1.62594E-20-1.64095E-18
 -1       964 9.52377E-05-2.84693E-05-2.86150E-05-3.65467E-08-8.13529E-19-2.61577E-18
 -1       965 9.52542E-05-2.85116E-05-2.86040E-05-1.41549E-08 5.78230E-19-2.45386E-18
 -1       966 9.52630E-05-2.85408E-05-2.85952E-05 3.85477E-10 4.68838E-19-2.80481E-18
 -1       967 9.52664E-05-2.85602E-05-2.85884E-05 9.28179E-09-6.96473E-19-1.99668E-18
 -1       968 9.52663E-05-2.85725E-05-2.85830E-05 1.42190E-08-3.04107E-19-2.94106E-19
 -1       969 9.52640E-05-2.85798E-05-2.85790E-05 1.64558E-08 5.27696E-19-8.89582E-20
 -1       970 9.52606E-05-2.85836E-05-2.85759E-05 1.69289E-08-3.65578E-19-5.19027E-19
 -1       971 9.52569E-05-2.85853E-05-2.85735E-05 1.62814E-08-4.13335E-19-4.47054E-19
 -1       972 8.21946E-05-2.03086E-05-2.65239E-05 8.72854E-06-8.28299E-19 6.75766E-19
 -1       973 5.97060E-05-8.68375E-06-2.18018E-05 1.14397E-05 1.39094E-18-3.67702E-18
 -1       974 6.96033E-05-1.42985E-05-2.36487E-05 1.71342E-05 1.47195E-18-2.94376E-18
 -1       975 9.02140E-05-2.34456E-05-2.86151E-05 3.92472E-06-1.87545E-19 4.97447E-19
 -1       976 8.87436E-05-2.25262E-05-2.83791E-05 4.74846E-06 1.95026E-19 2.48415E-19
 -1       977 9.23424E-05-2.51001E-05-2.88182E-05 2.59850E-06-9.24803E-20-9.94503E-19
 -1       978 9.30837E-05-2.57866E-05-2.88417E-05 2.06878E-06-1.29494E-19-1.64355E-18
 -1       979 9.36593E-05-2.63715E-05-2.88376E-05 1.61992E-06-4.44497E-19-1.24968E-18
 -1       980 9.41009E-05-2.68596E-05-2.88177E-05 1.24627E-06 2.14566E-19-8.68329E-19
 -1       981 9.44354E-05-2.72595E-05-2.87897E-05 9.40995E-07 3.35267E-19 5.69956E-19
 -1       982 9.46854E-05-2.75818E-05-2.87587E-05 6.96218E-07-1.27294E-19 1.05431E-18
 -1       983 9.48695E-05-2.78375E-05-2.87280E-05 5.03587E-07 8.34254E-20 1.43122E-18
 -1       984 9.50028E-05-2.80373E-05-2.86995E-05 3.54809E-07-1.13433E-19 1.59800E-18
 -1       985 9.50973E-05-2.81911E-05-2.86741E-05 2.42085E-07-1.53435E-18 1.57956E-18
 -1       986 9.51628E-05-2.83076E-05-2.86522E-05 1.58387E-07-1.35643E-19 2.40165E-18
 -1       987 9.52067E-05-2.83943E-05-2.86339E-05 9.75935E-08 5.00429E-19 2.57102E-18
 -1       988 9.52349E-05-2.84576E-05-2.86188E-05 5.45251E-08-9.26274E-19 3.33241E-18
 -1       989 9.52518E-05-2.85028E-05-2.86067E-05 2.49083E-08-1.36641E-18 2.80801E-18
 -1       990 9.52609E-05-2.85343E-05-2.85971E-05 5.29452E-09-5.41269E-20 3.09715E-18
 -1       991 9.52646E-05-2.85555E-05-2.85896E-05-7.04165E-09 3.10316E-19 1.29408E-18
 -1       992 9.52649E-05-2.85691E-05-2.85839E-05-1.42099E-08 1.12954E-18 1.35838E-18
 -1       993 9.52630E-05-2.85773E-05-2.85796E-05-1.78099E-08 1.08034E-18 2.20345E-18
 -1       994 9.52600E-05-2.85819E-05-2.85763E-05-1.90292E-08-4.55044E-20 3.34388E-18
 -1       995 9.52564E-05-2.85841E-05-2.85739E-05-1.86960E-08-2.07637E-20 2.23157E-18
 -1       996 9.52539E-05-2.85848E-05-2.85725E-05-1.75419E-08-2.87028E-19 3.19357E-18
 -1       997 6.04958E-05-6.71777E-06-2.29569E-05-2.65513E-06 1.04939E-18-3.48710E-18
 -1       998 8.69435E-05-2.16173E-05-2.79973E-05 5.73239E-06-9.26564E-20-4.68596E-20
 -1       999 7.00508E-05-1.60573E-05-2.31339E-05 5.03055E-06-8.45296E-19 1.03573E-18
 -1      1000 7.93376E-05-2.03726E-05-2.52663E-05 1.13339E-05-3.09806E-19 4.34851E-19
 -1      1001 9.52611E-05-2.85876E-05-2.85743E-05 7.34158E-09-6.19128E-20-2.41258E-18
 -1      1002 9.52621E-05-2.85880E-05-2.85746E-05 1.52644E-10-1.43110E-18-1.47134E-18
 -1      1003 7.13276E-05-1.62548E-05-2.35864E-05-2.31716E-06-1.60077E-19 1.07625E-18
 -1      1004 9.52613E-05-2.85878E-05-2.85743E-05-7.09778E-09-2.79758E-19-1.03535E-18
 -1      1005 8.36510E-05-2.52341E-05-2.50356E-05-1.44118E-05 9.47742E-20-1.13589E-18
 -1      1006 8.43955E-05-2.34998E-05-2.60966E-05-1.04709E-05 8.79049E-20-1.85206E-18
 -1      1007 8.56031E-05-2.27896E-05-2.69197E-05-7.68845E-06-3.53285E-20-1.49960E-18
 -1      1008 8.69287E-05-2.26887E-05-2.75315E-05-5.70690E-06 3.97396E-19-1.12283E-18
 -1      1009 8.82365E-05-2.29634E-05-2.79743E-05-4.27057E-06 5.46485E-19 3.34174E-19
 -1      1010 8.94587E-05-2.34605E-05-2.82851E-05-3.21376E-06 2.91981E-19 1.37842E-18
 -1      1011 9.05593E-05-2.40721E-05-2.84946E-05-2.42525E-06 1.83553E-19 1.68411E-18
 -1      1012 9.15212E-05-2.47217E-05-2.86285E-05-1.83044E-06 1.72507E-18 1.53323E-18
 -1      1013 9.23407E-05-2.53575E-05-2.87071E-05-1.37800E-06 1.22002E-18 1.21809E-18
 -1      1014 9.30228E-05-2.59469E-05-2.87469E-05-1.03211E-06-1.46450E-19 1.39648E-18
 -1      1015 9.35785E-05-2.64715E-05-2.87602E-05-7.67208E-07-1.54205E-18-3.32626E-19
 -1      1016 9.40220E-05-2.69237E-05-2.87564E-05-5.64548E-07 8.49838E-20-6.25237E-19
 -1      1017 9.43689E-05-2.73032E-05-2.87424E-05-4.10096E-07 7.77344E-19 4.47902E-19
 -1      1018 9.46349E-05-2.76143E-05-2.87231E-05-2.93117E-07-4.03256E-19 6.11740E-19
 -1      1019 9.48346E-05-2.78638E-05-2.87018E-05-2.05277E-07-2.11972E-19 1.21473E-18
 -1      1020 9.49814E-05-2.80601E-05-2.86805E-05-1.40031E-07-9.09629E-19-7.19079E-19
 -1      1021 9.50865E-05-2.82114E-05-2.86607E-05-9.22114E-08-1.70199E-18-3.29279E-18
 -1      1022 9.51596E-05-2.83258E-05-2.86430E-05-5.77282E-08-5.17636E-19-4.80546E-18
 -1      1023 9.52086E-05-2.84106E-05-2.86277E-05-3.33511E-08-6.88347E-19-5.25597E-18
 -1      1024 9.52399E-05-2.84719E-05-2.86149E-05-1.65406E-08-9.59082E-19-3.92380E-18
 -1      1025 9.52584E-05-2.85151E-05-2.86043E-05-5.31463E-09 2.35606E-19-5.69406E-18
 -1      1026 9.52679E-05-2.85446E-05-2.85957E-05 1.85867E-09 1.14974E-18-5.91223E-18
 -1      1027 9.52714E-05-2.85639E-05-2.85889E-05 6.14942E-09 6.30997E-19-4.68325E-18
 -1      1028 9.52709E-05-2.85759E-05-2.85836E-05 8.43788E-09 1.29089E-18-3.38949E-18
 -1      1029 9.52681E-05-2.85827E-05-2.85794E-05 9.37684E-09 5.33147E-20-3.21512E-18
 -1      1030 9.52649E-05-2.85861E-05-2.85767E-05 8.57676E-09 7.17243E-19-1.07250E-18
 -1      1031 8.04256E-05-1.87987E-05-2.64102E-05 4.17905E-06-3.38425E-19-1.14947E-19
 -1      1032 8.81411E-05-2.21999E-05-2.82608E-05 2.65770E-06 2.27393E-19-5.34962E-20
 -1      1033 9.28577E-05-2.57078E-05-2.87786E-05 1.26498E-06 4.52178E-19-5.99714E-20
 -1      1034 9.34871E-05-2.63157E-05-2.87878E-05 9.99377E-07-2.46316E-19-1.69342E-18
 -1      1035 9.39730E-05-2.68217E-05-2.87792E-05 7.73182E-07-1.12969E-18-1.54710E-18
 -1      1036 9.43434E-05-2.72354E-05-2.87606E-05 5.85445E-07-7.97774E-19-7.62441E-19
 -1      1037 9.46217E-05-2.75682E-05-2.87372E-05 4.33312E-07-3.31824E-19-8.37556E-19
 -1      1038 9.48274E-05-2.78317E-05-2.87125E-05 3.12784E-07-6.17931E-19-8.78531E-21
 -1      1039 9.49769E-05-2.80370E-05-2.86885E-05 2.19351E-07-3.45998E-19 1.03237E-18
 -1      1040 9.50831E-05-2.81943E-05-2.86666E-05 1.48474E-07-1.06411E-18-7.72117E-19
 -1      1041 9.51566E-05-2.83129E-05-2.86473E-05 9.58955E-08-1.28825E-18 7.31885E-19
 -1      1042 9.52058E-05-2.84007E-05-2.86308E-05 5.78175E-08-7.41132E-19 2.73109E-18
 -1      1043 9.52372E-05-2.84642E-05-2.86170E-05 3.09789E-08-1.34838E-19 2.72249E-18
 -1      1044 9.52559E-05-2.85092E-05-2.86057E-05 1.26650E-08-2.31977E-19 1.25114E-18
 -1      1045 9.52658E-05-2.85401E-05-2.85967E-05 6.75469E-10-4.85268E-19 2.02422E-18
 -1      1046 9.52696E-05-2.85605E-05-2.85896E-05-6.73142E-09 9.51807E-19 2.86800E-18
 -1      1047 9.52695E-05-2.85734E-05-2.85840E-05-1.09021E-08 3.49358E-19 2.82060E-18
 -1      1048 9.52671E-05-2.85809E-05-2.85798E-05-1.28494E-08 2.37658E-19 1.39208E-18
 -1      1049 9.52633E-05-2.85849E-05-2.85765E-05-1.33625E-08 1.88112E-18-8.29984E-19
 -1      1050 9.20518E-05-2.49908E-05-2.87405E-05 1.56839E-06-9.51984E-20 2.19738E-19
 -1      1051 8.97464E-05-2.32282E-05-2.85080E-05 2.26946E-06 8.28012E-19-2.15056E-19
 -1      1052 8.61373E-05-2.11018E-05-2.78732E-05 3.07555E-06-2.79098E-19 6.08342E-19
 -1      1053 9.10303E-05-2.41628E-05-2.86576E-05 1.90522E-06-4.35879E-19-1.97278E-19
 -1      1054 7.60589E-05-1.74565E-05-2.50983E-05 4.57564E-06-4.35181E-19 4.66191E-19
 -1      1055 8.36229E-05-1.99593E-05-2.72855E-05 3.55263E-06-4.59392E-19 2.08300E-19
 -1      1056 9.52583E-05-2.85866E-05-2.85736E-05-1.26885E-08-2.57719E-19-2.38186E-18
 -1      1057 9.52665E-05-2.85867E-05-2.85771E-05 1.14647E-09 1.10458E-18-1.60794E-18
 -1      1058 7.73988E-05-1.95353E-05-2.47982E-05-8.39753E-06-6.28500E-19 1.13434E-18
 -1      1059 8.07059E-05-1.99251E-05-2.60498E-05-5.68730E-06-3.07904E-20 2.94908E-19
 -1      1060 8.34322E-05-2.05567E-05-2.69490E-05-3.89304E-06 4.60828E-19 3.39899E-19
 -1      1061 8.56794E-05-2.13233E-05-2.75826E-05-2.66397E-06 9.11804E-19 3.55592E-19
 -1      1062 8.75529E-05-2.21663E-05-2.80231E-05-1.81893E-06 1.47497E-18-2.29361E-19
 -1      1063 8.91201E-05-2.30350E-05-2.83224E-05-1.23698E-06 3.95998E-19 3.28944E-19
 -1      1064 9.04258E-05-2.38830E-05-2.85184E-05-8.38423E-07 3.86644E-19-6.84415E-19
 -1      1065 9.15047E-05-2.46777E-05-2.86402E-05-5.66300E-07 3.43604E-19-1.83960E-18
 -1      1066 9.23860E-05-2.53972E-05-2.87096E-05-3.81250E-07 4.46553E-19-3.38607E-18
 -1      1067 9.30960E-05-2.60297E-05-2.87427E-05-2.55851E-07-1.25491E-18-2.46942E-18
 -1      1068 9.36594E-05-2.65717E-05-2.87519E-05-1.71091E-07-5.65629E-20-1.02178E-18
 -1      1069 9.40995E-05-2.70256E-05-2.87460E-05-1.13881E-07 4.04190E-19-1.59818E-18
 -1      1070 9.44375E-05-2.73979E-05-2.87313E-05-7.52845E-08-1.07051E-19-2.66888E-18
 -1      1071 9.46924E-05-2.76974E-05-2.87122E-05-4.92456E-08 4.18129E-19-2.84432E-18
 -1      1072 9.48811E-05-2.79339E-05-2.86917E-05-3.16829E-08-7.51541E-19-2.82934E-18
 -1      1073 9.50176E-05-2.81173E-05-2.86716E-05-1.98545E-08-3.21421E-18-2.17508E-18
 -1      1074 9.51140E-05-2.82569E-05-2.86530E-05-1.19195E-08-2.05535E-18-2.37290E-18
 -1      1075 9.51798E-05-2.83611E-05-2.86366E-05-6.63805E-09-1.87866E-18-3.37431E-18
 -1      1076 9.52231E-05-2.84373E-05-2.86225E-05-3.17093E-09-2.68854E-20-3.72186E-18
 -1      1077 9.52498E-05-2.84916E-05-2.86107E-05-9.45670E-10-6.03665E-19-3.07633E-18
 -1      1078 9.52649E-05-2.85293E-05-2.86010E-05 4.31446E-10 3.96065E-19-3.35181E-18
 -1      1079 9.52719E-05-2.85546E-05-2.85931E-05 1.23336E-09 1.14483E-18-4.77603E-18
 -1      1080 9.52735E-05-2.85707E-05-2.85869E-05 1.65073E-09 2.40470E-18-4.08589E-18
 -1      1081 9.52718E-05-2.85803E-05-2.85821E-05 1.81645E-09 2.48758E-18-2.97813E-18
 -1      1082 9.52692E-05-2.85840E-05-2.85794E-05 1.50081E-09 2.28921E-18-8.82723E-19
 -1      1083 9.35246E-05-2.64133E-05-2.87619E-05 4.39776E-07-1.96999E-19-2.03526E-20
 -1      1084 9.40019E-05-2.69029E-05-2.87567E-05 3.47240E-07-5.26638E-19-1.74015E-18
 -1      1085 8.83770E-05-2.24245E-05-2.82653E-05 7.94656E-07 8.14517E-20-3.10315E-19
 -1      1086 9.29090E-05-2.58247E-05-2.87503E-05 5.40178E-07 6.25038E-19-7.69435E-19
 -1      1087 9.43666E-05-2.73028E-05-2.87416E-05 2.66434E-07-5.65784E-20-2.48344E-18
 -1      1088 9.46410E-05-2.76239E-05-2.87216E-05 1.98726E-07-4.65952E-19-2.32911E-18
 -1      1089 9.48439E-05-2.78774E-05-2.86999E-05 1.43889E-07-3.25099E-19-2.67619E-18
 -1      1090 9.49910E-05-2.80742E-05-2.86786E-05 1.00774E-07-1.71676E-18-2.47193E-18
 -1      1091 9.50951E-05-2.82243E-05-2.86589E-05 6.77916E-08-2.02990E-18-1.82468E-18
 -1      1092 9.51667E-05-2.83368E-05-2.86414E-05 4.32269E-08-2.35474E-18-6.61195E-19
 -1      1093 9.52142E-05-2.84194E-05-2.86263E-05 2.54322E-08-3.60165E-19 6.82612E-19
 -1      1094 9.52440E-05-2.84787E-05-2.86137E-05 1.29300E-08 8.77986E-19 5.96248E-19
 -1      1095 9.52614E-05-2.85202E-05-2.86034E-05 4.45824E-09 5.53310E-20 3.73727E-19
 -1      1096 9.52700E-05-2.85483E-05-2.85950E-05-1.02181E-09 2.25067E-19 4.58805E-19
 -1      1097 9.52727E-05-2.85665E-05-2.85884E-05-4.33954E-09 1.03257E-18-6.46054E-19
 -1      1098 9.52717E-05-2.85777E-05-2.85831E-05-6.14018E-09 1.53532E-18-1.35914E-18
 -1      1099 9.52686E-05-2.85840E-05-2.85791E-05-6.91945E-09 3.08005E-18-2.67872E-18
 -1      1100 9.21250E-05-2.51308E-05-2.87117E-05 6.41009E-07 3.04075E-19-1.61260E-18
 -1      1101 7.76422E-05-1.78536E-05-2.56294E-05-5.45966E-07-5.14063E-19 1.64257E-18
 -1      1102 8.64791E-05-2.13429E-05-2.79147E-05 7.14689E-07 1.08782E-18-1.58022E-19
 -1      1103 8.14389E-05-1.91194E-05-2.67069E-05 3.07161E-08-4.66350E-19 1.99924E-18
 -1      1104 8.42392E-05-2.02562E-05-2.74195E-05 4.60788E-07-8.67161E-20 1.03715E-18
 -1      1105 8.99057E-05-2.34239E-05-2.84921E-05 7.89425E-07-1.72299E-19-8.77597E-19
 -1      1106 9.11377E-05-2.43293E-05-2.86321E-05 7.30082E-07-4.17286E-19-6.96415E-19
 -1      1107 1.25982E-04 2.85779E-10-4.54518E-05-4.11607E-05-3.98105E-19 8.60818E-18
 -1      1108 9.69818E-05 8.87180E-11-4.05081E-05-2.07145E-05-1.83383E-19-2.74915E-19
 -1      1109 9.01530E-05 5.32069E-11-3.81823E-05-1.25873E-05-1.17208E-19-3.69415E-18
 -1      1110 8.55797E-05 3.98648E-11-3.63584E-05-7.33021E-06-6.14099E-20-5.13969E-18
 -1      1111 8.16024E-05 3.06784E-11-3.47371E-05-3.35339E-06-3.11285E-20-5.74215E-18
 -1      1112 7.79245E-05 2.20631E-11-3.32542E-05-4.35529E-07-3.28225E-21-5.92226E-18
 -1      1113 7.46164E-05 1.31830E-11-3.19419E-05 1.43804E-06 7.51742E-21-5.92750E-18
 -1      1114 7.19665E-05 4.87146E-12-3.09118E-05 2.28654E-06 1.29173E-20-5.78066E-18
 -1      1115 7.04172E-05-1.17236E-12-3.03274E-05 2.25235E-06 2.53051E-20-5.60696E-18
 -1      1116 7.03225E-05-3.24488E-12-3.03171E-05 1.71313E-06 4.45751E-20-5.35892E-18
 -1      1117 7.18521E-05-4.23869E-13-3.09423E-05 1.21063E-06 5.20396E-20-4.96868E-18
 -1      1118 7.49052E-05 6.94589E-12-3.21629E-05 1.32245E-06 7.23154E-20-4.36220E-18
 -1      1119 7.92315E-05 1.81427E-11-3.38883E-05 2.54482E-06 9.37030E-20-3.35296E-18
 -1      1120 8.45730E-05 3.26958E-11-3.60149E-05 5.31408E-06 1.22820E-19-1.83469E-18
 -1      1121 9.07900E-05 5.25700E-11-3.84502E-05 1.01162E-05 1.44207E-19 6.71499E-19
 -1      1122 9.86569E-05 8.93999E-11-4.12911E-05 1.82428E-05 1.46113E-19 5.24949E-18
 -1      1123 1.18031E-04 1.98250E-10-4.51223E-05 3.40662E-05 2.45851E-19 1.39767E-17
 -1      1124 1.40978E-04-2.85778E-05-4.40283E-05-2.59976E-05-1.50052E-18 1.41349E-17
 -1      1125 1.11558E-04-3.30933E-05-3.58837E-05-2.22614E-07-5.06685E-19 1.05516E-17
 -1      1126 1.07174E-04-3.21166E-05-3.28894E-05 5.24698E-07-1.74317E-19 5.89699E-18
 -1      1127 1.06793E-04-3.21004E-05-3.20695E-05 2.99424E-07-1.62511E-19 2.77149E-18
 -1      1128 1.06584E-04-3.20013E-05-3.18286E-05 1.35657E-07-1.69733E-19 9.58206E-19
 -1      1129 1.05367E-04-3.15947E-05-3.14120E-05-1.84363E-08-6.55441E-20-2.40657E-19
 -1      1130 1.02449E-04-3.07008E-05-3.05393E-05-1.81437E-07-8.58613E-20-1.29871E-18
 -1      1131 9.77118E-05-2.92901E-05-2.91906E-05-3.26708E-07-3.25744E-20-2.72888E-18
 -1      1132 9.18276E-05-2.75628E-05-2.75730E-05-3.96142E-07-9.82823E-20-4.09397E-18
 -1      1133 8.62721E-05-2.59475E-05-2.60872E-05-3.33322E-07-1.93560E-21-5.74336E-18
 -1      1134 8.28714E-05-2.49662E-05-2.51988E-05-1.33125E-07 1.35803E-19-6.55209E-18
 -1      1135 8.29564E-05-2.49935E-05-2.52348E-05 1.33280E-07 4.29472E-20-6.56130E-18
 -1      1136 8.66269E-05-2.60571E-05-2.62190E-05 3.52607E-07 2.53481E-20-7.08072E-18
 -1      1137 9.26844E-05-2.78188E-05-2.78565E-05 4.43316E-07 5.79026E-23-7.62023E-18
 -1      1138 9.92899E-05-2.97529E-05-2.96810E-05 4.00275E-07-3.87733E-20-7.16802E-18
 -1      1139 1.04828E-04-3.13888E-05-3.12592E-05 2.77380E-07-9.39379E-20-6.65551E-18
 -1      1140 1.08426E-04-3.24641E-05-3.23308E-05 1.39798E-07-3.27795E-20-7.53404E-18
 -1      1141 1.09977E-04-3.29388E-05-3.28352E-05 2.98606E-08 3.53769E-20-7.94947E-18
 -1      1142 1.09858E-04-3.29187E-05-3.28546E-05-3.88141E-08-5.63227E-20-8.81104E-18
 -1      1143 1.08624E-04-3.25646E-05-3.25349E-05-7.10448E-08 1.87927E-20-9.68595E-18
 -1      1144 1.06798E-04-3.20302E-05-3.20242E-05-7.83261E-08-1.64423E-20-6.98589E-18
 -1      1145 1.04776E-04-3.14333E-05-3.14407E-05-7.16686E-08-4.13311E-21-6.35906E-18
 -1      1146 1.02816E-04-3.08516E-05-3.08648E-05-5.90073E-08 1.70183E-19-5.18048E-18
 -1      1147 1.01061E-04-3.03286E-05-3.03430E-05-4.51248E-08-2.76928E-19-6.62290E-18
 -1      1148 9.95740E-05-2.98838E-05-2.98970E-05-3.24628E-08 1.07905E-19-6.94059E-18
 -1      1149 9.83647E-05-2.95209E-05-2.95319E-05-2.19962E-08 5.84932E-20-4.88310E-18
 -1      1150 9.74141E-05-2.92348E-05-2.92434E-05-1.38924E-08 1.32972E-19-4.85059E-18
 -1      1151 9.66889E-05-2.90159E-05-2.90223E-05-7.93112E-09 7.24130E-20-5.92429E-18
 -1      1152 9.61513E-05-2.88531E-05-2.88577E-05-3.74652E-09-4.57995E-20-5.96421E-18
 -1      1153 9.57644E-05-2.87356E-05-2.87387E-05-9.52039E-10-8.16165E-20-5.51780E-18
 -1      1154 9.54951E-05-2.86535E-05-2.86555E-05 8.01615E-10 7.87486E-20-6.55123E-18
 -1      1155 9.53149E-05-2.85983E-05-2.85995E-05 1.80543E-09 1.63388E-19-5.74940E-18
 -1      1156 9.52007E-05-2.85631E-05-2.85638E-05 2.28954E-09 1.80600E-20-6.23970E-18
 -1      1157 9.51340E-05-2.85424E-05-2.85426E-05 2.42901E-09-6.76290E-20-6.22535E-18
 -1      1158 9.51003E-05-2.85316E-05-2.85316E-05 2.35275E-09-2.30188E-20-5.96097E-18
 -1      1159 9.50889E-05-2.85278E-05-2.85276E-05 2.15274E-09 9.03368E-20-4.77055E-18
 -1      1160 9.50917E-05-2.85282E-05-2.85280E-05 1.89243E-09-2.80909E-19-4.61105E-18
 -1      1161 9.51030E-05-2.85314E-05-2.85311E-05 1.61396E-09 1.24102E-19-3.49929E-18
 -1      1162 9.51188E-05-2.85359E-05-2.85357E-05 1.34387E-09-3.75213E-19-3.73970E-18
 -1      1163 9.51363E-05-2.85410E-05-2.85408E-05 1.09765E-09-3.50994E-19-6.98899E-18
 -1      1164 9.51539E-05-2.85462E-05-2.85460E-05 8.83185E-10-2.15809E-19-6.82985E-18
 -1      1165 9.51706E-05-2.85512E-05-2.85510E-05 7.03279E-10-1.20877E-19-6.85564E-18
 -1      1166 9.51857E-05-2.85557E-05-2.85555E-05 5.57335E-10-4.25130E-19-4.72187E-18
 -1      1167 9.51990E-05-2.85597E-05-2.85595E-05 4.42355E-10-1.91660E-20-4.09666E-19
 -1      1168 9.52105E-05-2.85631E-05-2.85630E-05 3.53077E-10 2.12285E-19 7.43351E-19
 -1      1169 9.52202E-05-2.85660E-05-2.85659E-05 2.80864E-10-6.86973E-20 2.06705E-18
 -1      1170 9.52280E-05-2.85683E-05-2.85682E-05 2.10225E-10-4.32837E-19 7.64513E-20
 -1      1171 9.52338E-05-2.85700E-05-2.85699E-05 1.08557E-10 1.75014E-19-2.46035E-18
 -1      1172 9.52369E-05-2.85709E-05-2.85709E-05-8.89449E-11 1.12247E-19-1.97748E-18
 -1      1173 9.52376E-05-2.85713E-05-2.85714E-05-1.49749E-10 5.32657E-20 1.03702E-18
 -1      1174 1.43931E-04-4.11564E-05-4.34491E-05 1.20906E-05-2.37646E-19 2.09895E-17
 -1      1175 1.16282E-04-3.41080E-05-3.73169E-05 5.10626E-07 5.79953E-20 1.77936E-17
 -1      1176 1.15468E-04-3.44737E-05-3.53472E-05-6.43254E-08 9.83948E-20 1.42190E-17
 -1      1177 1.18004E-04-3.53713E-05-3.55040E-05-1.90431E-07 6.84211E-20 1.17679E-17
 -1      1178 1.21288E-04-3.63389E-05-3.62523E-05-2.82454E-07 4.76009E-20 1.04938E-17
 -1      1179 1.23476E-04-3.69602E-05-3.67083E-05-3.19453E-07 2.15960E-20 9.41099E-18
 -1      1180 1.22601E-04-3.67056E-05-3.62598E-05-2.22101E-07-6.14893E-20 9.43550E-18
 -1      1181 1.16982E-04-3.50986E-05-3.45372E-05 8.79052E-08-1.69857E-19 9.75433E-18
 -1      1182 1.06505E-04-3.20734E-05-3.16718E-05 5.62529E-07 1.59811E-20 8.74159E-18
 -1      1183 9.40328E-05-2.83834E-05-2.85116E-05 9.36262E-07 1.33011E-20 7.27188E-18
 -1      1184 8.51156E-05-2.56112E-05-2.63933E-05 8.70566E-07 9.41530E-20 5.90737E-18
 -1      1185 8.47454E-05-2.53352E-05-2.63906E-05 3.09487E-07 1.13741E-19 3.66162E-18
 -1      1186 9.33528E-05-2.78445E-05-2.85538E-05-3.86719E-07 1.25473E-19 2.87102E-18
 -1      1187 1.06412E-04-3.18261E-05-3.18741E-05-7.92727E-07-1.72583E-19 3.07219E-18
 -1      1188 1.18081E-04-3.54262E-05-3.49960E-05-7.82777E-07 2.25754E-19 2.02854E-18
 -1      1189 1.24921E-04-3.75273E-05-3.69868E-05-5.26909E-07-7.19978E-21 1.28013E-18
 -1      1190 1.26612E-04-3.80347E-05-3.76204E-05-2.37807E-07-1.39377E-19 8.86718E-19
 -1      1191 1.24591E-04-3.74085E-05-3.71800E-05-2.78631E-08 1.37325E-19-8.37371E-20
 -1      1192 1.20612E-04-3.61962E-05-3.61157E-05 8.61479E-08 2.45388E-19-2.25263E-18
 -1      1193 1.16019E-04-3.48078E-05-3.48140E-05 1.29401E-07-1.13375E-19-1.89831E-18
 -1      1194 1.11610E-04-3.34812E-05-3.35263E-05 1.32266E-07 1.12560E-19 4.29340E-19
 -1      1195 1.07759E-04-3.23258E-05-3.23814E-05 1.16701E-07 3.96956E-20 1.99331E-19
 -1      1196 1.04581E-04-3.13736E-05-3.14261E-05 9.53591E-08-1.86386E-19 1.04692E-18
 -1      1197 1.02056E-04-3.06171E-05-3.06615E-05 7.43990E-08 2.80985E-19-2.66113E-18
 -1      1198 1.00101E-04-3.00317E-05-3.00671E-05 5.62705E-08 3.59237E-19-3.95651E-18
 -1      1199 9.86213E-05-2.95882E-05-2.96155E-05 4.15716E-08-1.63253E-19-6.70609E-19
 -1      1200 9.75215E-05-2.92584E-05-2.92790E-05 3.00947E-08 4.16630E-20 9.77557E-19
 -1      1201 9.67194E-05-2.90178E-05-2.90330E-05 2.13516E-08 1.48928E-20-2.02261E-19
 -1      1202 9.61458E-05-2.88456E-05-2.88567E-05 1.48117E-08 5.81795E-20-2.84649E-18
 -1      1203 9.57452E-05-2.87251E-05-2.87331E-05 9.99574E-09-1.05066E-19-1.56209E-18
 -1      1204 9.54731E-05-2.86433E-05-2.86489E-05 6.50387E-09 1.82296E-20-1.43496E-18
 -1      1205 9.52951E-05-2.85896E-05-2.85935E-05 4.01511E-09-2.74129E-19-9.34850E-19
 -1      1206 9.51847E-05-2.85563E-05-2.85589E-05 2.27730E-09-1.53040E-20 5.31570E-19
 -1      1207 9.51219E-05-2.85373E-05-2.85390E-05 1.09496E-09 9.01539E-21 1.60986E-18
 -1      1208 9.50917E-05-2.85281E-05-2.85291E-05 3.17997E-10-1.82836E-20-1.53210E-19
 -1      1209 9.50829E-05-2.85253E-05-2.85258E-05-1.67858E-10-3.27758E-19-6.76682E-19
 -1      1210 9.50877E-05-2.85266E-05-2.85269E-05-4.48834E-10 5.06708E-19-2.65909E-18
 -1      1211 9.51004E-05-2.85304E-05-2.85304E-05-5.89338E-10 5.21612E-19-3.94158E-18
 -1      1212 9.51171E-05-2.85353E-05-2.85352E-05-6.36922E-10 2.38646E-20-2.73057E-18
 -1      1213 9.51353E-05-2.85407E-05-2.85406E-05-6.26240E-10-3.38374E-19 2.04880E-20
 -1      1214 9.51533E-05-2.85461E-05-2.85459E-05-5.82195E-10-1.01824E-19 1.47756E-18
 -1      1215 9.51702E-05-2.85511E-05-2.85509E-05-5.22434E-10 2.36628E-19 5.96837E-19
 -1      1216 9.51855E-05-2.85557E-05-2.85555E-05-4.59313E-10 1.58613E-19-2.12803E-18
 -1      1217 9.51989E-05-2.85597E-05-2.85595E-05-4.01371E-10-2.29548E-19-4.52616E-19
 -1      1218 9.52105E-05-2.85632E-05-2.85630E-05-3.54122E-10 3.84436E-19 1.70611E-18
 -1      1219 9.52202E-05-2.85661E-05-2.85659E-05-3.19761E-10 3.49575E-19-2.03221E-18
 -1      1220 9.52280E-05-2.85684E-05-2.85682E-05-2.94812E-10 8.62741E-20-4.55262E-18
 -1      1221 9.52337E-05-2.85701E-05-2.85699E-05-2.54974E-10 3.97845E-19-7.14494E-18
 -1      1222 9.52370E-05-2.85711E-05-2.85709E-05-1.20036E-10 3.97926E-19-1.02002E-17
 -1      1223 9.52375E-05-2.85713E-05-2.85714E-05 1.33028E-10-1.05956E-19-5.73059E-18
 -1      1224 9.52370E-05-2.85708E-05-2.85714E-05 1.24795E-10-5.04269E-18-4.61811E-20
 -1      1225 9.52373E-05-2.85714E-05-2.85709E-05 7.34427E-11-6.14666E-18-1.10894E-19
 -1      1226 9.52382E-05-2.85746E-05-2.85699E-05-1.60314E-10-9.11101E-19 3.13384E-19
 -1      1227 9.52397E-05-2.85797E-05-2.85685E-05-2.53748E-10-4.40144E-19-4.63347E-19
 -1      1228 9.52414E-05-2.85855E-05-2.85668E-05-2.67762E-10 1.16901E-18 5.86162E-20
 -1      1229 9.52431E-05-2.85911E-05-2.85652E-05-2.32150E-10-3.31748E-18-1.00532E-18
 -1      1230 9.52444E-05-2.85957E-05-2.85639E-05-1.71618E-10-8.75473E-18-1.76021E-19
 -1      1231 9.52453E-05-2.85987E-05-2.85631E-05-8.94583E-11-5.34852E-18 4.52725E-19
 -1      1232 9.52456E-05-2.85997E-05-2.85628E-05 9.27144E-13-9.06269E-19-4.00158E-19
 -1      1233 9.52453E-05-2.85986E-05-2.85631E-05 9.12082E-11-1.01758E-19 7.56708E-19
 -1      1234 9.52444E-05-2.85956E-05-2.85640E-05 1.72768E-10-3.05668E-18-1.26816E-18
 -1      1235 9.52431E-05-2.85910E-05-2.85653E-05 2.36194E-10-8.19226E-18-4.60937E-19
 -1      1236 9.52414E-05-2.85854E-05-2.85669E-05 2.67687E-10-8.26330E-18 9.15141E-19
 -1      1237 9.52397E-05-2.85796E-05-2.85685E-05 2.56456E-10 1.43456E-18-2.64527E-19
 -1      1238 9.52382E-05-2.85744E-05-2.85699E-05 1.91538E-10-9.21160E-19 1.60656E-20
 -1      1239 9.52374E-05-2.85715E-05-2.85709E-05-1.65612E-10-1.20654E-18-1.28401E-18
 -1      1240 9.52370E-05-2.85707E-05-2.85714E-05-1.39554E-10-5.70935E-19 5.99342E-19
 -1      1241 3.52306E-05-1.09424E-04 1.84052E-05-1.34517E-05 1.19554E-17 1.84952E-18
 -1      1242 1.90128E-05-7.09452E-05 1.09044E-05-2.68463E-05 1.82409E-17 6.29748E-18
 -1      1243 6.86676E-06-1.73221E-05-3.24347E-06-7.91163E-06 1.98680E-17 1.15849E-17
 -1      1244 2.48785E-05 2.01082E-05-2.17137E-05 3.99294E-05 1.76827E-17 1.52906E-17
 -1      1245 8.85700E-05 1.84536E-05-4.23093E-05 9.20572E-05 1.23650E-17 1.60343E-17
 -1      1246 1.87858E-04-2.26482E-05-6.13371E-05 1.12627E-04 6.49335E-18 1.29427E-17
 -1      1247 2.83960E-04-7.58173E-05-7.49469E-05 7.54908E-05 1.55812E-18 3.51349E-18
 -1      1248 3.17089E-04-9.43616E-05-7.96461E-05-6.00245E-06 9.31524E-19-1.02879E-17
 -1      1249 2.76734E-04-7.05835E-05-7.41312E-05-8.20584E-05 5.45214E-18-2.04186E-17
 -1      1250 1.82088E-04-1.91614E-05-6.04955E-05-1.12921E-04 1.20194E-17-2.47096E-17
 -1      1251 8.44020E-05 1.96423E-05-4.13557E-05-8.99310E-05 1.85382E-17-2.40202E-17
 -1      1252 2.21706E-05 1.81844E-05-2.03108E-05-3.55953E-05 2.14401E-17-1.86161E-17
 -1      1253 7.52216E-06-2.32479E-05-1.52523E-06 1.18202E-05 1.83535E-17-1.05396E-17
 -1      1254 2.13093E-05-7.60894E-05 1.17910E-05 2.63430E-05 1.05998E-17-3.73478E-18
 -1      1255 3.53083E-05-1.08144E-04 1.80421E-05 9.78286E-06 1.83171E-19-7.70932E-19
 -1      1256 3.12288E-05-9.86512E-05 1.63182E-05-1.59761E-05-1.03520E-17-2.27055E-18
 -1      1257 1.44969E-05-5.35579E-05 6.71442E-06-2.22784E-05-1.85873E-17-7.37342E-18
 -1      1258 9.08586E-06 2.44560E-07-9.56585E-06 8.47359E-06-2.08861E-17-1.36465E-17
 -1      1259 4.25549E-05 2.66971E-05-2.96291E-05 6.25636E-05-1.93293E-17-1.96359E-17
 -1      1260 1.27055E-04 5.77566E-06-5.03951E-05 1.05935E-04-1.30392E-17-1.98748E-17
 -1      1261 2.31487E-04-4.57325E-05-6.77753E-05 9.97869E-05-5.63743E-18-1.40015E-17
 -1      1262 3.00769E-04-8.71562E-05-7.69557E-05 4.14013E-05-1.04296E-18-4.22415E-18
 -1      1263 3.01461E-04-8.86323E-05-7.69263E-05-4.13570E-05-1.15840E-18 6.16428E-18
 -1      1264 2.29858E-04-4.56531E-05-6.75653E-05-1.02112E-04-4.66842E-18 1.31841E-17
 -1      1265 1.27479E-04 5.88609E-06-5.07655E-05-1.08025E-04-1.02982E-17 1.59615E-17
 -1      1266 4.36549E-05 2.62697E-05-2.96256E-05-6.28591E-05-1.44555E-17 1.45469E-17
 -1      1267 8.51071E-06-1.17079E-06-8.65110E-06-6.24835E-06-1.21481E-17 8.66854E-18
 -1      1268 1.57777E-05-5.79555E-05 7.80042E-06 2.32313E-05-6.96600E-18 3.21534E-18
 -1      1269 3.30500E-05-1.04146E-04 1.75448E-05 1.39494E-05 1.05413E-18 1.13664E-18
 -1      1270 1.15661E-04-2.47315E-05-4.15911E-05-1.58610E-05-5.68359E-19 6.42009E-18
 -1      1271 9.92107E-05-8.31542E-06-3.90866E-05-1.65402E-05-1.27860E-18-1.91784E-18
 -1      1272 1.02679E-04-8.58682E-06-4.06133E-05-2.27243E-05-1.74637E-18-1.31131E-19
 -1      1273 9.20945E-05-5.25281E-06-3.72613E-05-1.10903E-05-1.10061E-18-4.34951E-18
 -1      1274 9.47138E-05-5.30391E-06-3.82395E-05-1.41852E-05-1.30602E-18-3.33847E-18
 -1      1275 1.01195E-04-1.29237E-05-3.78923E-05-1.49055E-05-2.14527E-18-1.59814E-18
 -1      1276 8.71047E-05-3.96736E-06-3.56374E-05-6.46743E-06-7.35754E-19-5.38819E-18
 -1      1277 8.93002E-05-3.97152E-06-3.64782E-05-8.73377E-06-9.02355E-19-4.93881E-18
 -1      1278 9.38628E-05-9.18910E-06-3.63681E-05-1.01566E-05-1.67244E-18-3.57326E-18
 -1      1279 8.26465E-05-3.05223E-06-3.41206E-05-2.78191E-06-3.71530E-19-5.82875E-18
 -1      1280 8.46977E-05-3.06913E-06-3.48962E-05-4.52393E-06-4.98267E-19-5.65230E-18
 -1      1281 8.83252E-05-7.06838E-06-3.49025E-05-5.83287E-06-1.04508E-18-4.51709E-18
 -1      1282 7.84801E-05-2.18624E-06-3.27277E-05-8.42797E-08-8.15799E-20-5.94993E-18
 -1      1283 8.03930E-05-2.21476E-06-3.34290E-05-1.31452E-06-2.03500E-19-5.90017E-18
 -1      1284 8.33630E-05-5.35889E-06-3.35011E-05-2.36085E-06-5.06393E-19-4.89315E-18
 -1      1285 7.46290E-05-1.28430E-06-3.14936E-05 1.64524E-06 1.30814E-19-5.93243E-18
 -1      1286 7.63376E-05-1.32355E-06-3.20973E-05 9.03759E-07 8.12093E-20-5.98275E-18
 -1      1287 7.86609E-05-3.68214E-06-3.21982E-05 1.91154E-07-3.38813E-21-5.05210E-18
 -1      1288 7.16052E-05-4.41518E-07-3.05814E-05 2.35507E-06 3.81138E-19-5.80527E-18
 -1      1289 7.28489E-05-4.79454E-07-3.10012E-05 2.09330E-06 2.89579E-19-5.88356E-18
 -1      1290 7.44336E-05-2.03301E-06-3.10877E-05 1.75891E-06 3.47204E-19-4.99007E-18
 -1      1291 6.99605E-05 1.68096E-07-3.01417E-05 2.24119E-06 5.73412E-19-5.58397E-18
 -1      1292 7.04915E-05 1.42928E-07-3.03018E-05 2.32967E-06 4.96785E-19-5.71931E-18
 -1      1293 7.12833E-05-6.57401E-07-3.03221E-05 2.33778E-06 7.33153E-19-4.87413E-18
 -1      1294 7.01465E-05 3.70624E-07-3.02889E-05 1.72566E-06 7.89038E-19-5.32780E-18
 -1      1295 6.97915E-05 3.66662E-07-3.01376E-05 1.93489E-06 7.08919E-19-5.48886E-18
 -1      1296 6.98536E-05 1.19760E-07-3.00397E-05 2.17360E-06 1.04506E-18-4.69327E-18
 -1      1297 7.23340E-05 7.34356E-08-3.10614E-05 1.38060E-06 9.45924E-19-4.92120E-18
 -1      1298 7.10607E-05 9.42910E-08-3.05893E-05 1.42743E-06 8.69876E-19-5.18640E-18
 -1      1299 7.06075E-05 4.47333E-08-3.03323E-05 1.73984E-06 1.36604E-18-4.43945E-18
 -1      1300 7.62728E-05-6.75884E-07-3.23809E-05 1.76810E-06 1.12576E-18-4.19827E-18
 -1      1301 7.42401E-05-6.42822E-07-3.16399E-05 1.39664E-06 1.05096E-18-4.62201E-18
 -1      1302 7.36086E-05-9.37685E-07-3.12027E-05 1.62560E-06 1.61648E-18-3.95443E-18
 -1      1303 8.17190E-05-1.80962E-06-3.41811E-05 3.36439E-06 1.43254E-18-3.12605E-18
 -1      1304 7.90382E-05-1.76570E-06-3.32042E-05 2.34402E-06 1.28548E-18-3.74655E-18
 -1      1305 7.85950E-05-2.71837E-06-3.25851E-05 2.36063E-06 1.96195E-18-3.17121E-18
 -1      1306 8.82471E-05-3.26614E-06-3.63122E-05 6.52533E-06 1.69396E-18-1.51743E-18
 -1      1307 8.51132E-05-3.22101E-06-3.51711E-05 4.67036E-06 1.53609E-18-2.47610E-18
 -1      1308 8.52043E-05-5.18358E-06-3.43686E-05 4.35288E-06 2.38209E-18-2.06512E-18
 -1      1309 9.58707E-05-5.24029E-06-3.86837E-05 1.16745E-05 1.79529E-18 1.24249E-18
 -1      1310 9.22472E-05-5.17311E-06-3.73954E-05 8.65738E-06 1.62715E-18-3.98820E-19
 -1      1311 9.31609E-05-8.42034E-06-3.63873E-05 7.83949E-06 2.61625E-18-2.63798E-19
 -1      1312 1.06136E-04-9.23207E-06-4.13409E-05 1.99136E-05 1.42386E-18 6.02272E-18
 -1      1313 1.01186E-04-8.60637E-06-3.97857E-05 1.46004E-05 1.44303E-18 3.12868E-18
 -1      1314 1.03070E-04-1.33794E-05-3.84564E-05 1.28086E-05 2.60587E-18 2.77922E-18
 -1      1315 1.37560E-04-2.84344E-05-4.36060E-05 2.62825E-05 5.66242E-19 1.45425E-17
 -1      1316 1.14024E-04-1.77504E-05-4.18651E-05 2.00486E-05 6.50310E-19 8.72539E-18
 -1      1317 1.16438E-04-2.36285E-05-3.97798E-05 1.59972E-05 2.23218E-18 7.11698E-18
 -1      1318 1.19177E-04-3.29655E-05-3.97075E-05 4.42482E-06 1.12041E-18 1.42196E-17
 -1      1319 1.18065E-04-3.42582E-05-3.73820E-05-6.33787E-06-1.50878E-18 7.07124E-18
 -1      1320 1.12494E-04-3.22687E-05-3.49385E-05-3.59148E-06-1.37346E-18 5.22768E-18
 -1      1321 1.10332E-04-3.24221E-05-3.36367E-05-1.39029E-06-1.11197E-18 4.63774E-18
 -1      1322 1.09083E-04-3.24531E-05-3.28772E-05-1.06825E-06-1.02721E-18 2.93976E-18
 -1      1323 1.12816E-04-3.23328E-05-3.48583E-05-5.55877E-06-2.35676E-18 2.27757E-18
 -1      1324 1.07890E-04-3.22541E-05-3.23907E-05-3.22166E-07-8.06491E-19 2.47741E-18
 -1      1325 1.07574E-04-3.23004E-05-3.22044E-05-3.39710E-07-7.43761E-19 1.34628E-18
 -1      1326 1.09206E-04-3.24049E-05-3.30115E-05-1.69119E-06-1.80217E-18 1.43450E-18
 -1      1327 1.06945E-04-3.21832E-05-3.19796E-05-3.87397E-07-5.27351E-19 8.91793E-19
 -1      1328 1.06534E-04-3.21246E-05-3.18418E-05-4.95890E-07-5.71375E-19 8.67282E-20
 -1      1329 1.07664E-04-3.24045E-05-3.22450E-05-8.77477E-07-1.20156E-18 5.89667E-19
 -1      1330 1.05876E-04-3.19758E-05-3.16194E-05-9.73778E-07-3.17320E-19-5.82004E-20
 -1      1331 1.04848E-04-3.16860E-05-3.13185E-05-1.15126E-06-3.38247E-19-5.20197E-19
 -1      1332 1.06505E-04-3.22831E-05-3.17694E-05-1.50091E-06-8.63229E-19-1.07732E-19
 -1      1333 1.03830E-04-3.14077E-05-3.09936E-05-1.82681E-06-4.32582E-19-7.42960E-19
 -1      1334 1.01967E-04-3.08127E-05-3.04650E-05-2.02451E-06-4.37122E-19-1.35940E-18
 -1      1335 1.04930E-04-3.19081E-05-3.12421E-05-2.88742E-06-7.63656E-19-6.05476E-19
 -1      1336 1.00483E-04-3.03521E-05-3.00209E-05-2.61797E-06-3.77300E-19-1.48162E-18
 -1      1337 9.79070E-05-2.94794E-05-2.93070E-05-2.75434E-06-3.73656E-19-2.15321E-18
 -1      1338 1.02504E-04-3.11171E-05-3.05446E-05-4.43806E-06-7.49101E-19-1.04138E-18
 -1      1339 9.61095E-05-2.88702E-05-2.88006E-05-2.93194E-06-3.26535E-19-2.27590E-18
 -1      1340 9.33318E-05-2.78918E-05-2.80468E-05-2.91374E-06-5.36968E-19-3.03579E-18
 -1      1341 9.92502E-05-2.98834E-05-2.97074E-05-5.40875E-06-7.59190E-19-1.41501E-18
 -1      1342 9.16389E-05-2.72805E-05-2.75940E-05-2.42177E-06-4.79374E-19-3.23265E-18
 -1      1343 8.94595E-05-2.64906E-05-2.70127E-05-2.20058E-06-4.17316E-19-3.75797E-18
 -1      1344 9.57332E-05-2.84260E-05-2.88769E-05-5.06417E-06-8.45600E-19-1.63684E-18
 -1      1345 8.84197E-05-2.60963E-05-2.67469E-05-1.05358E-06-4.10037E-19-3.99802E-18
 -1      1346 8.76105E-05-2.57933E-05-2.65359E-05-6.79168E-07-1.05489E-19-4.22960E-18
 -1      1347 9.29460E-05-2.72015E-05-2.82619E-05-3.08494E-06-7.42451E-19-1.79768E-18
 -1      1348 8.76356E-05-2.57923E-05-2.65490E-05 7.67676E-07-1.19233E-19-4.82555E-18
 -1      1349 8.85481E-05-2.61161E-05-2.67961E-05 1.15392E-06-2.76748E-19-5.22867E-18
 -1      1350 9.18960E-05-2.67099E-05-2.80486E-05 8.65941E-08-5.51935E-19-2.84383E-18
 -1      1351 8.96641E-05-2.65215E-05-2.70930E-05 2.36731E-06-2.89553E-19-5.35523E-18
 -1      1352 9.20273E-05-2.73654E-05-2.77300E-05 2.61527E-06-2.72235E-19-5.57893E-18
 -1      1353 9.30480E-05-2.71907E-05-2.83158E-05 3.34169E-06-5.76684E-19-3.85216E-18
 -1      1354 9.38502E-05-2.80138E-05-2.82243E-05 3.19238E-06-8.98781E-20-5.73965E-18
 -1      1355 9.69191E-05-2.90900E-05-2.90607E-05 3.23474E-06 3.94979E-20-5.60619E-18
 -1      1356 9.60236E-05-2.84565E-05-2.89945E-05 5.50957E-06-2.10944E-19-4.39858E-18
 -1      1357 9.88769E-05-2.97521E-05-2.96146E-05 3.10230E-06 1.58107E-19-5.84270E-18
 -1      1358 1.01811E-04-3.07506E-05-3.04283E-05 2.97389E-06 1.01032E-19-5.54613E-18
 -1      1359 9.98201E-05-3.00165E-05-2.98968E-05 6.01271E-06-1.07692E-19-4.45220E-18
 -1      1360 1.03417E-04-3.12539E-05-3.09094E-05 2.34499E-06-1.85897E-19-5.63475E-18
 -1      1361 1.05617E-04-3.19719E-05-3.15332E-05 2.13405E-06-3.45308E-19-5.80731E-18
 -1      1362 1.03348E-04-3.13729E-05-3.07924E-05 5.04881E-06-4.73478E-20-4.77729E-18
 -1      1363 1.06619E-04-3.22493E-05-3.18576E-05 1.32093E-06-6.63333E-20-5.92259E-18
 -1      1364 1.07853E-04-3.26258E-05-3.22181E-05 1.10954E-06-4.15443E-20-5.98625E-18
 -1      1365 1.05871E-04-3.22422E-05-3.14926E-05 3.28003E-06-3.74772E-19-4.48548E-18
 -1      1366 1.08223E-04-3.26929E-05-3.23616E-05 3.61368E-07 3.22104E-20-5.89624E-18
 -1      1367 1.08559E-04-3.27698E-05-3.24691E-05 1.96379E-07-1.65535E-20-6.07163E-18
 -1      1368 1.07140E-04-3.25844E-05-3.18986E-05 1.39153E-06 1.32349E-22-4.45053E-18
 -1      1369 1.08409E-04-3.26809E-05-3.24530E-05-3.59725E-07-1.90993E-19-6.15807E-18
 -1      1370 1.08074E-04-3.25455E-05-3.23656E-05-4.65127E-07 1.45385E-20-6.35683E-18
 -1      1371 1.07266E-04-3.25073E-05-3.20024E-05-1.70354E-07-2.46225E-19-4.46504E-18
 -1      1372 1.07569E-04-3.23606E-05-3.22338E-05-8.04684E-07 1.76745E-19-6.48647E-18
 -1      1373 1.06820E-04-3.21027E-05-3.20233E-05-8.57400E-07 1.51387E-19-6.32667E-18
 -1      1374 1.06545E-04-3.21620E-05-3.18579E-05-1.23354E-06-2.24464E-20-4.28349E-18
 -1      1375 1.06119E-04-3.18719E-05-3.18233E-05-1.01340E-06 5.37638E-19-6.25466E-18
 -1      1376 1.05179E-04-3.15631E-05-3.15533E-05-1.02774E-06 1.63243E-19-5.58868E-18
 -1      1377 1.05304E-04-3.16812E-05-3.15449E-05-1.81556E-06 4.80170E-19-4.00159E-18
 -1      1378 1.04407E-04-3.13220E-05-3.13251E-05-1.05263E-06-7.57072E-20-5.25032E-18
 -1      1379 1.03433E-04-3.10108E-05-3.10423E-05-1.04287E-06 3.37338E-19-4.75262E-18
 -1      1380 1.03822E-04-3.11601E-05-3.11416E-05-2.02230E-06 1.75858E-19-4.48799E-18
 -1      1381 1.02678E-04-3.07820E-05-3.08144E-05-9.86701E-07 4.69451E-19-5.08780E-18
 -1      1382 1.01768E-04-3.04967E-05-3.05482E-05-9.64103E-07 5.64878E-20-4.68815E-18
 -1      1383 1.02302E-04-3.06579E-05-3.07106E-05-1.97747E-06 2.25291E-19-4.04462E-18
 -1      1384 1.01081E-04-3.02926E-05-3.03383E-05-8.65902E-07-4.02423E-19-4.56058E-18
 -1      1385 1.00285E-04-3.00467E-05-3.01043E-05-8.38192E-07-2.77457E-19-5.37709E-18
 -1      1386 1.00875E-04-3.02065E-05-3.02949E-05-1.78749E-06-2.94499E-19-3.81145E-18
 -1      1387 9.96903E-05-2.98727E-05-2.99215E-05-7.24736E-07 2.09669E-19-4.78126E-18
 -1      1388 9.90270E-05-2.96701E-05-2.97257E-05-6.96688E-07 5.12900E-19-4.17090E-18
 -1      1389 9.96128E-05-2.98199E-05-2.99202E-05-1.53053E-06 1.78453E-19-2.89845E-18
 -1      1390 9.85326E-05-2.95268E-05-2.95730E-05-5.84506E-07 1.72574E-19-4.19629E-18
 -1      1391 9.80001E-05-2.93658E-05-2.94152E-05-5.58746E-07-1.13941E-19-3.92078E-18
 -1      1392 9.85433E-05-2.95004E-05-2.95984E-05-1.25791E-06 1.44783E-19-2.93459E-18
 -1      1393 9.76020E-05-2.92513E-05-2.92919E-05-4.56880E-07-4.46545E-20-4.29526E-18
 -1      1394 9.71878E-05-2.91272E-05-2.91688E-05-4.34616E-07-1.61995E-20-4.42686E-18
 -1      1395 9.76682E-05-2.92442E-05-2.93323E-05-9.99838E-07-2.48583E-19-2.80992E-18
 -1      1396 9.68762E-05-2.90380E-05-2.90721E-05-3.47112E-07 9.88200E-20-4.75826E-18
 -1      1397 9.65632E-05-2.89451E-05-2.89789E-05-3.28682E-07-4.78003E-20-4.81503E-18
 -1      1398 9.69731E-05-2.90441E-05-2.91190E-05-7.71737E-07-1.05211E-19-4.06806E-18
 -1      1399 9.63256E-05-2.88775E-05-2.89050E-05-2.56503E-07 1.89767E-19-4.75138E-18
 -1      1400 9.60958E-05-2.88099E-05-2.88363E-05-2.41753E-07 1.72512E-19-4.35039E-18
 -1      1401 9.64354E-05-2.88915E-05-2.89528E-05-5.79463E-07 2.55533E-19-3.97120E-18
 -1      1402 9.59192E-05-2.87598E-05-2.87814E-05-1.84112E-07-3.24558E-19-3.89756E-18
 -1      1403 9.57555E-05-2.87121E-05-2.87323E-05-1.72641E-07-1.85446E-19-4.10734E-18
 -1      1404 9.60298E-05-2.87780E-05-2.88266E-05-4.23146E-07 1.95595E-19-3.37298E-18
 -1      1405 9.56277E-05-2.86760E-05-2.86925E-05-1.27877E-07-2.99038E-19-3.93459E-18
 -1      1406 9.55151E-05-2.86436E-05-2.86586E-05-1.19187E-07-1.54195E-19-4.31764E-18
 -1      1407 9.57318E-05-2.86957E-05-2.87331E-05-2.99810E-07-2.30376E-19-2.73327E-18
 -1      1408 9.54254E-05-2.86184E-05-2.86307E-05-8.53103E-08-1.52196E-19-3.98315E-18
 -1      1409 9.53513E-05-2.85974E-05-2.86082E-05-7.88950E-08-1.19667E-19-4.02310E-18
 -1      1410 9.55187E-05-2.86378E-05-2.86659E-05-2.05056E-07-5.37493E-19-2.70881E-18
 -1      1411 9.52906E-05-2.85804E-05-2.85894E-05-5.39067E-08 1.51500E-19-4.37493E-18
 -1      1412 9.52446E-05-2.85678E-05-2.85753E-05-4.92976E-08 3.30703E-20-4.48470E-18
 -1      1413 9.53714E-05-2.85984E-05-2.86189E-05-1.34089E-07-3.44215E-19-3.43479E-18
 -1      1414 9.52055E-05-2.85569E-05-2.85631E-05-3.13585E-08-5.28755E-19-4.64534E-18
 -1      1415 9.51796E-05-2.85500E-05-2.85551E-05-2.81470E-08-2.06898E-19-5.18844E-18
 -1      1416 9.52734E-05-2.85728E-05-2.85874E-05-8.22985E-08-4.20166E-21-3.74298E-18
 -1      1417 9.51561E-05-2.85435E-05-2.85478E-05-1.56576E-08 3.41522E-19-4.82110E-18
 -1      1418 9.51441E-05-2.85407E-05-2.85440E-05-1.35015E-08 2.03531E-19-5.04767E-18
 -1      1419 9.52118E-05-2.85573E-05-2.85672E-05-4.55530E-08 1.27275E-20-4.02433E-18
 -1      1420 9.51315E-05-2.85373E-05-2.85401E-05-5.12439E-09 1.98531E-19-4.58079E-18
 -1      1421 9.51287E-05-2.85370E-05-2.85390E-05-3.74596E-09 4.31875E-19-4.34892E-18
 -1      1422 9.51763E-05-2.85488E-05-2.85553E-05-2.03237E-08 9.34413E-19-4.37726E-18
 -1      1423 9.51236E-05-2.85357E-05-2.85374E-05 1.60324E-09 1.00801E-19-4.34130E-18
 -1      1424 9.51265E-05-2.85371E-05-2.85381E-05 2.42355E-09-4.92466E-20-4.44678E-18
 -1      1425 9.51588E-05-2.85451E-05-2.85492E-05-3.69980E-09 5.34649E-19-4.46960E-18
 -1      1426 9.51263E-05-2.85371E-05-2.85381E-05 5.60126E-09 6.57178E-19-4.67527E-18
 -1      1427 9.51326E-05-2.85393E-05-2.85398E-05 6.03292E-09 1.63052E-19-3.63660E-18
 -1      1428 9.51535E-05-2.85446E-05-2.85469E-05 6.65284E-09 3.17809E-19-4.21066E-18
 -1      1429 9.51354E-05-2.85402E-05-2.85407E-05 7.69967E-09-9.99169E-19-2.94120E-18
 -1      1430 9.51432E-05-2.85429E-05-2.85429E-05 7.87051E-09-1.09913E-18-4.30924E-18
 -1      1431 9.51558E-05-2.85461E-05-2.85472E-05 1.25595E-08-6.30709E-19-4.52818E-18
 -1      1432 9.51477E-05-2.85442E-05-2.85443E-05 8.52392E-09-6.77605E-19-4.65561E-18
 -1      1433 9.51561E-05-2.85469E-05-2.85467E-05 8.52805E-09-5.65108E-19-5.68842E-18
 -1      1434 9.51628E-05-2.85487E-05-2.85490E-05 1.54147E-08-1.35360E-18-3.64238E-18
 -1      1435 9.51614E-05-2.85484E-05-2.85483E-05 8.53362E-09-5.57475E-19-4.90134E-18
 -1      1436 9.51696E-05-2.85511E-05-2.85507E-05 8.43842E-09-6.18029E-19-6.00100E-18
 -1      1437 9.51721E-05-2.85518E-05-2.85516E-05 1.62583E-08-2.64189E-19-3.42276E-18
 -1      1438 9.51750E-05-2.85526E-05-2.85524E-05 8.05646E-09 5.16221E-19-5.82889E-18
 -1      1439 9.51827E-05-2.85551E-05-2.85547E-05 7.90834E-09 2.25741E-19-4.89467E-18
 -1      1440 9.51824E-05-2.85550E-05-2.85546E-05 1.58452E-08-2.10251E-19-3.82249E-18
 -1      1441 9.51879E-05-2.85565E-05-2.85563E-05 7.31627E-09 9.06282E-19-3.57785E-18
 -1      1442 9.51948E-05-2.85587E-05-2.85583E-05 7.14533E-09 1.46208E-18-2.15112E-18
 -1      1443 9.51926E-05-2.85582E-05-2.85576E-05 1.47037E-08 1.76558E-18-2.58883E-18
 -1      1444 9.51996E-05-2.85601E-05-2.85598E-05 6.45510E-09 7.37346E-19-6.52713E-19
 -1      1445 9.52057E-05-2.85620E-05-2.85616E-05 6.27847E-09 7.63571E-19 5.94101E-20
 -1      1446 9.52023E-05-2.85611E-05-2.85605E-05 1.31843E-08 2.24810E-18-9.41231E-19
 -1      1447 9.52099E-05-2.85632E-05-2.85629E-05 5.54926E-09 3.88115E-19-3.26094E-19
 -1      1448 9.52151E-05-2.85648E-05-2.85644E-05 5.37329E-09 8.35469E-19 6.93858E-19
 -1      1449 9.52110E-05-2.85637E-05-2.85631E-05 1.14950E-08 1.40148E-18-7.91411E-19
 -1      1450 9.52187E-05-2.85658E-05-2.85655E-05 4.61993E-09 6.70456E-19 5.46308E-19
 -1      1451 9.52230E-05-2.85671E-05-2.85668E-05 4.44105E-09-5.13047E-19 2.27006E-19
 -1      1452 9.52187E-05-2.85660E-05-2.85654E-05 9.72783E-09 9.22596E-19 2.50082E-19
 -1      1453 9.52259E-05-2.85680E-05-2.85677E-05 3.63938E-09-9.36258E-19-1.42316E-21
 -1      1454 9.52292E-05-2.85691E-05-2.85686E-05 3.44349E-09-1.23909E-18-1.74256E-18
 -1      1455 9.52251E-05-2.85680E-05-2.85673E-05 7.87612E-09-1.00565E-18-1.15392E-18
 -1      1456 9.52315E-05-2.85697E-05-2.85693E-05 2.54426E-09-2.85151E-19-1.76099E-18
 -1      1457 9.52338E-05-2.85705E-05-2.85700E-05 2.30597E-09 4.77234E-19-1.52477E-18
 -1      1458 9.52302E-05-2.85696E-05-2.85688E-05 5.85113E-09-1.16341E-18-1.73206E-18
 -1      1459 9.52353E-05-2.85710E-05-2.85704E-05 1.26316E-09 1.16301E-18-1.82782E-18
 -1      1460 9.52363E-05-2.85712E-05-2.85708E-05 9.79086E-10 9.27230E-19-3.71497E-19
 -1      1461 9.52340E-05-2.85709E-05-2.85699E-05 3.56658E-09 8.99549E-19-6.21670E-19
 -1      1462 9.52372E-05-2.85712E-05-2.85712E-05-1.06282E-10-8.08979E-19 7.55426E-19
 -1      1463 9.52366E-05-2.85715E-05-2.85707E-05 9.06102E-10 6.99809E-19-7.09519E-19
 -1      1464 1.17346E-04-3.46801E-05-3.59074E-05 7.13031E-07 1.06446E-18 1.18200E-17
 -1      1465 1.20632E-04-3.48006E-05-3.75889E-05 2.04842E-06 9.44918E-19 1.34316E-17
 -1      1466 1.19434E-04-3.21224E-05-3.78001E-05 8.46948E-06 1.80471E-18 9.19550E-18
 -1      1467 1.16791E-04-3.49155E-05-3.51303E-05-8.83755E-07 8.98583E-19 9.50350E-18
 -1      1468 1.16409E-04-3.43506E-05-3.53556E-05-5.89372E-07 7.81110E-19 1.08399E-17
 -1      1469 1.16773E-04-3.42604E-05-3.55733E-05 8.18490E-07 1.62532E-18 7.53563E-18
 -1      1470 1.18544E-04-3.56081E-05-3.54926E-05-1.37939E-06 3.65974E-19 8.16180E-18
 -1      1471 1.17171E-04-3.50119E-05-3.51897E-05-1.26898E-06 4.87717E-19 8.91460E-18
 -1      1472 1.16558E-04-3.47662E-05-3.50943E-05-1.75241E-06 1.15041E-18 6.25518E-18
 -1      1473 1.20606E-04-3.63732E-05-3.60135E-05-1.04373E-06 4.22395E-19 7.25351E-18
 -1      1474 1.19313E-04-3.59113E-05-3.56896E-05-1.13686E-06 3.32891E-19 7.86695E-18
 -1      1475 1.17852E-04-3.54857E-05-3.52764E-05-2.19007E-06 7.14621E-19 5.36879E-18
 -1      1476 1.21275E-04-3.67326E-05-3.61026E-05 1.55668E-07-1.64576E-20 6.92800E-18
 -1      1477 1.21010E-04-3.66730E-05-3.60827E-05-1.96521E-07-7.43139E-21 6.97483E-18
 -1      1478 1.19167E-04-3.62187E-05-3.54699E-05-9.93090E-07 3.60545E-19 4.91778E-18
 -1      1479 1.18984E-04-3.61428E-05-3.53424E-05 2.14321E-06-1.34275E-19 7.05446E-18
 -1      1480 1.20647E-04-3.67916E-05-3.58622E-05 1.52796E-06-1.05853E-19 6.85000E-18
 -1      1481 1.19164E-04-3.65450E-05-3.52693E-05 1.77354E-06-9.44706E-20 4.82781E-18
 -1      1482 1.12859E-04-3.41942E-05-3.35959E-05 4.32446E-06 1.43188E-19 6.85176E-18
 -1      1483 1.16893E-04-3.57061E-05-3.47198E-05 3.61393E-06 7.81917E-20 7.01264E-18
 -1      1484 1.16726E-04-3.59275E-05-3.44651E-05 5.55510E-06 2.25258E-20 4.68726E-18
 -1      1485 1.03813E-04-3.10698E-05-3.12214E-05 5.43131E-06 4.02802E-19 5.88116E-18
 -1      1486 1.09514E-04-3.31572E-05-3.27048E-05 5.01330E-06 2.80583E-19 6.26211E-18
 -1      1487 1.11523E-04-3.39744E-05-3.31353E-05 8.72271E-06 5.72442E-19 4.10663E-18
 -1      1488 9.51852E-05-2.79389E-05-2.90892E-05 4.15375E-06 4.83219E-19 4.78865E-18
 -1      1489 1.00390E-04-2.97366E-05-3.03751E-05 4.43085E-06 4.03955E-19 5.33874E-18
 -1      1490 1.04836E-04-3.10017E-05-3.16943E-05 8.87723E-06 8.57899E-19 3.70008E-18
 -1      1491 9.14453E-05-2.65572E-05-2.81903E-05 5.12977E-07 8.37874E-19 3.60909E-18
 -1      1492 9.34589E-05-2.70348E-05-2.86678E-05 1.48375E-06 6.27916E-19 4.40822E-18
 -1      1493 9.96555E-05-2.83972E-05-3.07324E-05 4.64089E-06 1.00866E-18 2.63364E-18
 -1      1494 9.49411E-05-2.78705E-05-2.90142E-05-3.52995E-06 3.10226E-19 2.06395E-18
 -1      1495 9.25174E-05-2.66838E-05-2.84158E-05-2.41978E-06 6.08302E-19 2.98574E-18
 -1      1496 9.90133E-05-2.79205E-05-3.06963E-05-2.35287E-06 1.16891E-18 1.96055E-18
 -1      1497 1.03812E-04-3.10902E-05-3.11833E-05-5.64798E-06 4.81717E-20 1.56140E-18
 -1      1498 9.82255E-05-2.89127E-05-2.97898E-05-5.01988E-06 1.70088E-19 1.54324E-18
 -1      1499 1.03423E-04-2.99971E-05-3.16155E-05-8.13100E-06 5.85842E-19 8.99814E-19
 -1      1500 1.13594E-04-3.44529E-05-3.37362E-05-5.12755E-06 1.83958E-19 1.12846E-18
 -1      1501 1.07570E-04-3.23796E-05-3.21653E-05-5.16173E-06 1.48555E-19 1.22809E-18
 -1      1502 1.10403E-04-3.32567E-05-3.30975E-05-9.77638E-06 3.31233E-19 2.23193E-19
 -1      1503 1.20561E-04-3.66542E-05-3.57322E-05-3.02709E-06 1.06885E-19 5.12084E-19
 -1      1504 1.16299E-04-3.53856E-05-3.45474E-05-3.45914E-06 3.60055E-19 9.04419E-19
 -1      1505 1.16607E-04-3.58802E-05-3.45644E-05-7.51036E-06 6.06529E-19-5.89217E-19
 -1      1506 1.23428E-04-3.74095E-05-3.66960E-05-7.56705E-07 1.44042E-19-2.23471E-19
 -1      1507 1.21656E-04-3.70386E-05-3.61472E-05-1.25231E-06 4.72036E-19 4.73253E-19
 -1      1508 1.20062E-04-3.70353E-05-3.55317E-05-3.55987E-06 7.63309E-19-6.15614E-19
 -1      1509 1.22791E-04-3.70517E-05-3.66596E-05 8.93083E-07-6.29981E-21-7.17609E-19
 -1      1510 1.23109E-04-3.73303E-05-3.66945E-05 5.20668E-07-2.06954E-19-7.29355E-19
 -1      1511 1.20547E-04-3.69170E-05-3.57988E-05 6.17545E-08 2.12592E-19-1.54057E-18
 -1      1512 1.19959E-04-3.60652E-05-3.59329E-05 1.77340E-06 7.63574E-19-1.50164E-18
 -1      1513 1.21556E-04-3.66841E-05-3.63524E-05 1.56183E-06 4.31484E-19-7.33663E-19
 -1      1514 1.18821E-04-3.60522E-05-3.54450E-05 2.45303E-06 6.01433E-19-2.11292E-18
 -1      1515 1.16146E-04-3.48377E-05-3.48604E-05 2.06068E-06-6.31255E-20-2.17050E-18
 -1      1516 1.18291E-04-3.55642E-05-3.54610E-05 1.97553E-06 6.82179E-19-1.34183E-18
 -1      1517 1.15862E-04-3.48930E-05-3.46864E-05 3.59829E-06 1.12712E-18-1.31313E-18
 -1      1518 1.12187E-04-3.36099E-05-3.37033E-05 1.99150E-06-3.65143E-19-1.19223E-18
 -1      1519 1.14391E-04-3.43090E-05-3.43385E-05 1.98440E-06-5.65816E-19-2.06737E-18
 -1      1520 1.12460E-04-3.37097E-05-3.37439E-05 3.85144E-06-3.48011E-19-1.06372E-18
 -1      1521 1.08544E-04-3.25042E-05-3.26174E-05 1.75100E-06-1.19010E-19-4.88407E-19
 -1      1522 1.10547E-04-3.31141E-05-3.32039E-05 1.78375E-06-2.47507E-19-7.92757E-19
 -1      1523 1.09126E-04-3.26324E-05-3.27815E-05 3.59343E-06-7.39774E-19-1.76636E-18
 -1      1524 1.05419E-04-3.15678E-05-3.16755E-05 1.45465E-06-2.94883E-19-2.97031E-19
 -1      1525 1.07115E-04-3.20702E-05-3.21771E-05 1.50306E-06-3.16132E-20-4.86740E-19
 -1      1526 1.06133E-04-3.17102E-05-3.18964E-05 3.10473E-06-2.09419E-19-1.10912E-18
 -1      1527 1.02856E-04-3.08060E-05-3.08983E-05 1.16395E-06 1.06185E-18-1.25059E-18
 -1      1528 1.04230E-04-3.12048E-05-3.13071E-05 1.21474E-06 2.74275E-19-3.36259E-19
 -1      1529 1.03589E-04-3.09506E-05-3.11329E-05 2.55548E-06 2.05270E-19-1.37787E-18
 -1      1530 1.00819E-04-3.02037E-05-3.02786E-05 9.06439E-07 5.23493E-19-3.16500E-18
 -1      1531 1.01898E-04-3.05119E-05-3.06008E-05 9.53240E-07 8.69173E-19-1.76564E-18
 -1      1532 1.01508E-04-3.03415E-05-3.05024E-05 2.03432E-06 1.37825E-18-2.27650E-18
 -1      1533 9.92387E-05-2.97382E-05-2.97969E-05 6.90884E-07-7.43222E-19-1.85258E-18
 -1      1534 1.00066E-04-2.99714E-05-3.00447E-05 7.31216E-07-5.56209E-19-2.59006E-18
 -1      1535 9.98511E-05-2.98635E-05-2.99974E-05 1.57946E-06-1.38139E-19-1.84035E-18
 -1      1536 9.80372E-05-2.93852E-05-2.94302E-05 5.16750E-07-8.59709E-19 4.97935E-19
 -1      1537 9.86592E-05-2.95584E-05-2.96168E-05 5.50140E-07-7.80339E-19-3.46863E-19
 -1      1538 9.85618E-05-2.94950E-05-2.96026E-05 1.20140E-06-1.79192E-18-4.15421E-19
 -1      1539 9.71403E-05-2.91222E-05-2.91561E-05 3.79514E-07 1.66478E-20 1.20490E-18
 -1      1540 9.75993E-05-2.92485E-05-2.92941E-05 4.06424E-07-4.89491E-19 4.20313E-19
 -1      1541 9.75773E-05-2.92158E-05-2.93001E-05 8.97072E-07-7.41268E-19 9.26894E-19
 -1      1542 9.64827E-05-2.89299E-05-2.89550E-05 2.73406E-07 6.84058E-19-7.53691E-19
 -1      1543 9.68151E-05-2.90202E-05-2.90552E-05 2.94662E-07 1.12650E-18 9.36558E-19
 -1      1544 9.68388E-05-2.90076E-05-2.90726E-05 6.57684E-07 1.01884E-18 9.01728E-19
 -1      1545 9.60101E-05-2.87920E-05-2.88103E-05 1.92702E-07-3.45840E-19-1.49206E-18
 -1      1546 9.62458E-05-2.88551E-05-2.88815E-05 2.09217E-07-1.65935E-19-1.54118E-18
 -1      1547 9.62948E-05-2.88552E-05-2.89044E-05 4.72815E-07 6.28130E-19 7.37661E-19
 -1      1548 9.56780E-05-2.86954E-05-2.87085E-05 1.32273E-07-3.85500E-19-8.47572E-19
 -1      1549 9.58410E-05-2.87382E-05-2.87579E-05 1.44911E-07-5.04974E-19-1.56611E-18
 -1      1550 9.59017E-05-2.87459E-05-2.87825E-05 3.32354E-07-6.77779E-19-2.79033E-19
 -1      1551 9.54511E-05-2.86296E-05-2.86388E-05 8.77498E-08-9.71819E-20-8.56761E-19
 -1      1552 9.55603E-05-2.86576E-05-2.86720E-05 9.72775E-08 7.13898E-20-9.06107E-19
 -1      1553 9.56238E-05-2.86692E-05-2.86961E-05 2.27304E-07-8.65851E-21-8.65023E-19
 -1      1554 9.53014E-05-2.85864E-05-2.85927E-05 5.55254E-08-4.70732E-19 2.31826E-20
 -1      1555 9.53715E-05-2.86038E-05-2.86141E-05 6.25957E-08-5.74670E-19-9.49287E-19
 -1      1556 9.54327E-05-2.86169E-05-2.86363E-05 1.50022E-07-3.69021E-19-2.79229E-19
 -1      1557 9.52075E-05-2.85595E-05-2.85637E-05 3.26790E-08-4.92635E-19 4.50098E-19
 -1      1558 9.52498E-05-2.85694E-05-2.85767E-05 3.78349E-08-1.52634E-19-2.79846E-19
 -1      1559 9.53055E-05-2.85826E-05-2.85963E-05 9.41974E-08-4.96853E-19-6.06299E-19
 -1      1560 9.51532E-05-2.85442E-05-2.85468E-05 1.68826E-08 1.12686E-18 9.96995E-20
 -1      1561 9.51760E-05-2.85490E-05-2.85539E-05 2.05679E-08 5.50039E-19 1.14211E-18
 -1      1562 9.52249E-05-2.85613E-05-2.85707E-05 5.47214E-08 2.47336E-19-6.01292E-19
 -1      1563 9.51260E-05-2.85367E-05-2.85382E-05 6.30487E-09-7.44499E-19-3.96788E-19
 -1      1564 9.51357E-05-2.85381E-05-2.85414E-05 8.87671E-09 1.29356E-19-2.76916E-19
 -1      1565 9.51774E-05-2.85492E-05-2.85554E-05 2.75209E-08 2.97693E-19-6.33542E-19
 -1      1566 9.51169E-05-2.85344E-05-2.85352E-05-4.77257E-10-1.11545E-19-1.07674E-18
 -1      1567 9.51181E-05-2.85337E-05-2.85358E-05 1.26488E-09-1.09189E-19-4.25738E-19
 -1      1568 9.51528E-05-2.85433E-05-2.85473E-05 9.39181E-09 1.90214E-19-4.29501E-19
 -1      1569 9.51194E-05-2.85355E-05-2.85358E-05-4.55536E-09 1.29346E-18-1.59927E-18
 -1      1570 9.51153E-05-2.85335E-05-2.85347E-05-3.42048E-09 4.16552E-19-1.04013E-18
 -1      1571 9.51435E-05-2.85416E-05-2.85439E-05-2.15414E-09 1.77475E-19-3.09989E-19
 -1      1572 9.51286E-05-2.85385E-05-2.85385E-05-6.75533E-09-2.82898E-19-1.69025E-18
 -1      1573 9.51217E-05-2.85359E-05-2.85365E-05-6.05563E-09 2.72764E-19-1.23020E-18
 -1      1574 9.51442E-05-2.85425E-05-2.85438E-05-9.02384E-09 5.65308E-19 8.57601E-19
 -1      1575 9.51415E-05-2.85425E-05-2.85423E-05-7.69236E-09-6.22911E-19-1.04615E-18
 -1      1576 9.51332E-05-2.85396E-05-2.85399E-05-7.29663E-09-5.72662E-19-2.27945E-18
 -1      1577 9.51508E-05-2.85450E-05-2.85455E-05-1.26577E-08-5.16610E-19-6.30391E-19
 -1      1578 9.51558E-05-2.85469E-05-2.85466E-05-7.81625E-09-1.07336E-19 8.20079E-19
 -1      1579 9.51472E-05-2.85440E-05-2.85440E-05-7.62612E-09-6.16344E-19-2.75587E-19
 -1      1580 9.51607E-05-2.85483E-05-2.85483E-05-1.41262E-08-1.02970E-18-6.79613E-19
 -1      1581 9.51702E-05-2.85512E-05-2.85509E-05-7.44814E-09-3.20944E-20 1.55573E-18
 -1      1582 9.51618E-05-2.85486E-05-2.85484E-05-7.39138E-09 1.65537E-19 1.41638E-18
 -1      1583 9.51719E-05-2.85518E-05-2.85515E-05-1.42090E-08-3.82878E-19 1.18782E-18
 -1      1584 9.51838E-05-2.85553E-05-2.85550E-05-6.80969E-09 6.95224E-19-2.24150E-20
 -1      1585 9.51761E-05-2.85529E-05-2.85527E-05-6.83480E-09 1.48675E-19 5.20705E-19
 -1      1586 9.51834E-05-2.85554E-05-2.85549E-05-1.34595E-08 6.70941E-19 7.20583E-19
 -1      1587 9.51962E-05-2.85590E-05-2.85587E-05-6.04546E-09-1.08352E-18-3.12983E-19
 -1      1588 9.51893E-05-2.85569E-05-2.85567E-05-6.11757E-09 2.32866E-19-1.50515E-20
 -1      1589 9.51944E-05-2.85587E-05-2.85582E-05-1.22555E-08 3.34538E-19 7.56286E-19
 -1      1590 9.52071E-05-2.85623E-05-2.85620E-05-5.23917E-09 3.37171E-19 5.62817E-19
 -1      1591 9.52011E-05-2.85605E-05-2.85602E-05-5.33719E-09-1.43201E-19-2.66960E-19
 -1      1592 9.52044E-05-2.85617E-05-2.85612E-05-1.08373E-08-4.45260E-19 6.48397E-20
 -1      1593 9.52165E-05-2.85651E-05-2.85648E-05-4.42416E-09 7.01789E-19-5.42675E-19
 -1      1594 9.52114E-05-2.85636E-05-2.85633E-05-4.53950E-09 7.41399E-19-2.52744E-19
 -1      1595 9.52133E-05-2.85643E-05-2.85638E-05-9.33555E-09 1.03108E-18-6.87575E-19
 -1      1596 9.52243E-05-2.85675E-05-2.85672E-05-3.58938E-09 1.73064E-19-2.03170E-18
 -1      1597 9.52201E-05-2.85662E-05-2.85659E-05-3.72568E-09 6.68861E-19-1.23758E-18
 -1      1598 9.52209E-05-2.85666E-05-2.85661E-05-7.78857E-09 1.26901E-18-1.34716E-18
 -1      1599 9.52304E-05-2.85693E-05-2.85690E-05-2.68500E-09 6.79382E-19-2.71952E-18
 -1      1600 9.52272E-05-2.85684E-05-2.85680E-05-2.85894E-09 5.30377E-19-1.94529E-18
 -1      1601 9.52272E-05-2.85685E-05-2.85680E-05-6.15581E-09 5.28387E-19 9.73204E-20
 -1      1602 9.52346E-05-2.85706E-05-2.85702E-05-1.62576E-09 1.13924E-18-5.15319E-18
 -1      1603 9.52325E-05-2.85700E-05-2.85696E-05-1.87597E-09 1.13443E-18-2.60983E-18
 -1      1604 9.52320E-05-2.85700E-05-2.85694E-05-4.33825E-09 1.93555E-18-4.54611E-19
 -1      1605 9.52367E-05-2.85712E-05-2.85709E-05-4.64416E-10-1.39849E-18-4.70110E-18
 -1      1606 9.52359E-05-2.85711E-05-2.85706E-05-7.58607E-10-7.74148E-19-5.71047E-18
 -1      1607 9.52352E-05-2.85711E-05-2.85703E-05-2.24552E-09 6.33456E-20-1.90205E-18
 -1      1608 9.52372E-05-2.85712E-05-2.85712E-05 5.10711E-11-2.80945E-18-2.93354E-18
 -1      1609 9.52374E-05-2.85730E-05-2.85704E-05-1.32113E-09-2.16443E-18 1.22005E-18
 -1      1610 9.52371E-05-2.85720E-05-2.85708E-05-1.01679E-09-3.41013E-18 7.65571E-19
 -1      1611 9.52386E-05-2.85765E-05-2.85694E-05-2.39284E-09-9.78605E-20 8.53929E-19
 -1      1612 9.52379E-05-2.85745E-05-2.85700E-05-2.20848E-09-6.71246E-19 3.05420E-19
 -1      1613 9.52375E-05-2.85743E-05-2.85699E-05-3.46172E-09-7.96806E-20 1.59637E-18
 -1      1614 9.52401E-05-2.85812E-05-2.85681E-05-2.97432E-09-7.63225E-19-1.16404E-18
 -1      1615 9.52392E-05-2.85785E-05-2.85689E-05-2.90205E-09 2.72036E-19-4.74247E-19
 -1      1616 9.52388E-05-2.85777E-05-2.85690E-05-5.13160E-09 3.87138E-19 6.47014E-19
 -1      1617 9.52417E-05-2.85861E-05-2.85667E-05-3.03365E-09 3.54622E-19 4.32393E-19
 -1      1618 9.52408E-05-2.85833E-05-2.85675E-05-3.06412E-09-1.24500E-18 1.20914E-18
 -1      1619 9.52403E-05-2.85818E-05-2.85679E-05-5.83636E-09-9.69228E-20-4.93247E-19
 -1      1620 9.52431E-05-2.85905E-05-2.85654E-05-2.65184E-09-4.45004E-18-2.81549E-18
 -1      1621 9.52423E-05-2.85881E-05-2.85661E-05-2.75911E-09-9.25795E-19-2.93661E-18
 -1      1622 9.52417E-05-2.85859E-05-2.85668E-05-5.59545E-09-2.09155E-18-2.59557E-18
 -1      1623 9.52442E-05-2.85940E-05-2.85644E-05-1.91921E-09-4.91958E-18-4.39164E-20
 -1      1624 9.52436E-05-2.85922E-05-2.85649E-05-2.08658E-09-4.30895E-18-1.30816E-18
 -1      1625 9.52430E-05-2.85895E-05-2.85658E-05-4.57811E-09-1.73628E-18-3.07121E-18
 -1      1626 9.52449E-05-2.85961E-05-2.85638E-05-9.55316E-10-2.12781E-18 1.69952E-18
 -1      1627 9.52446E-05-2.85951E-05-2.85641E-05-1.15720E-09-5.04964E-18 2.89704E-18
 -1      1628 9.52439E-05-2.85922E-05-2.85651E-05-2.97321E-09-1.62812E-18 1.20183E-18
 -1      1629 9.52450E-05-2.85964E-05-2.85637E-05 1.18074E-10 8.30686E-19 9.10596E-19
 -1      1630 9.52450E-05-2.85964E-05-2.85637E-05-9.50989E-11-9.94683E-19 3.55949E-19
 -1      1631 9.52444E-05-2.85937E-05-2.85647E-05-1.01533E-09-8.28066E-19 2.26453E-18
 -1      1632 9.52446E-05-2.85950E-05-2.85641E-05 1.17790E-09-5.72970E-19-8.28431E-19
 -1      1633 9.52449E-05-2.85960E-05-2.85638E-05 9.76838E-10 4.38268E-19 1.17192E-19
 -1      1634 9.52444E-05-2.85936E-05-2.85647E-05 1.05852E-09 1.19237E-18-1.02399E-19
 -1      1635 9.52436E-05-2.85921E-05-2.85649E-05 2.10155E-09-3.43626E-18-2.68742E-18
 -1      1636 9.52442E-05-2.85940E-05-2.85644E-05 1.93609E-09-1.23545E-18-5.05623E-19
 -1      1637 9.52439E-05-2.85922E-05-2.85651E-05 3.00987E-09-5.11104E-19-1.80182E-18
 -1      1638 9.52423E-05-2.85880E-05-2.85661E-05 2.76043E-09-5.58074E-18-1.35623E-19
 -1      1639 9.52431E-05-2.85905E-05-2.85654E-05 2.65519E-09-3.44848E-18-2.33350E-18
 -1      1640 9.52430E-05-2.85895E-05-2.85658E-05 4.59323E-09-2.25138E-18-3.20957E-18
 -1      1641 9.52407E-05-2.85832E-05-2.85675E-05 3.06243E-09-2.85207E-18 2.18845E-18
 -1      1642 9.52417E-05-2.85860E-05-2.85667E-05 3.03404E-09-5.00221E-18 2.20655E-18
 -1      1643 9.52417E-05-2.85859E-05-2.85668E-05 5.59829E-09-1.35116E-18 1.32806E-18
 -1      1644 9.52392E-05-2.85784E-05-2.85689E-05 2.89773E-09 2.09618E-19-6.75019E-20
 -1      1645 9.52401E-05-2.85811E-05-2.85681E-05 2.96545E-09-1.75782E-18 2.48285E-18
 -1      1646 9.52402E-05-2.85817E-05-2.85679E-05 5.82645E-09-1.26629E-18 3.38563E-18
 -1      1647 9.52378E-05-2.85745E-05-2.85700E-05 2.19962E-09-1.12613E-18-7.15753E-20
 -1      1648 9.52386E-05-2.85765E-05-2.85694E-05 2.38768E-09-2.11392E-19-4.08251E-19
 -1      1649 9.52388E-05-2.85776E-05-2.85690E-05 5.10435E-09-8.68138E-19-1.02430E-18
 -1      1650 9.52370E-05-2.85723E-05-2.85706E-05 1.55105E-09 2.24622E-19-8.90339E-20
 -1      1651 9.52373E-05-2.85733E-05-2.85702E-05 1.98986E-09 3.28085E-19 1.15934E-19
 -1      1652 9.52374E-05-2.85746E-05-2.85697E-05 4.12060E-09 7.92456E-20 1.55350E-18
 -1      1653 9.52360E-05-2.85724E-05-2.85701E-05 3.08976E-09 1.58768E-18-2.33814E-19
 -1      1654 2.08628E-05-6.90300E-05 1.43971E-05-7.84394E-06 9.68836E-18 3.74643E-18
 -1      1655 2.37122E-05-7.68377E-05 1.60829E-05 8.74164E-07 5.79339E-18 2.69611E-18
 -1      1656 1.94787E-05-4.27113E-05 5.28038E-06 1.15454E-07 1.21371E-17 6.01817E-18
 -1      1657 2.41457E-05-6.38587E-05 1.07493E-05-2.21690E-06 1.00517E-17 4.16041E-18
 -1      1658 3.03892E-05-1.57344E-05-8.95784E-06 2.13979E-05 1.31688E-17 9.23393E-18
 -1      1659 2.70144E-05-3.64548E-05-1.06327E-06 6.15920E-06 1.30875E-17 6.84021E-18
 -1      1660 6.59635E-05-2.71552E-06-2.71175E-05 5.30795E-05 1.13841E-17 1.01449E-17
 -1      1661 4.51863E-05-1.17125E-05-1.74215E-05 3.01960E-05 1.27377E-17 9.49778E-18
 -1      1662 1.28983E-04-1.42049E-05-4.62931E-05 7.44008E-05 8.10102E-18 9.89758E-18
 -1      1663 9.01177E-05-5.69125E-06-3.65097E-05 5.82053E-05 1.02195E-17 1.01424E-17
 -1      1664 2.00320E-04-3.94616E-05-6.32984E-05 7.18284E-05 4.58033E-18 6.37646E-18
 -1      1665 1.53708E-04-1.86226E-05-5.51092E-05 7.53840E-05 7.40053E-18 9.02852E-18
 -1      1666 2.52654E-04-6.35371E-05-7.42478E-05 3.17667E-05 2.94789E-18-1.58946E-18
 -1      1667 2.21327E-04-4.61523E-05-6.95640E-05 6.10465E-05 4.01271E-18 4.02595E-18
 -1      1668 2.48210E-04-5.94275E-05-7.50134E-05-2.08864E-05 4.04839E-18-9.19624E-18
 -1      1669 2.50729E-04-6.06722E-05-7.53049E-05 1.41876E-05 3.34430E-18-4.06279E-18
 -1      1670 2.14220E-04-4.29997E-05-6.84462E-05-6.18719E-05 6.75112E-18-1.49747E-17
 -1      1671 2.46137E-04-6.03318E-05-7.32527E-05-3.65432E-05 4.22257E-18-1.17035E-17
 -1      1672 1.50209E-04-1.80778E-05-5.42277E-05-7.31627E-05 1.06375E-17-1.66357E-17
 -1      1673 1.95049E-04-3.77640E-05-6.22874E-05-7.07663E-05 8.05846E-18-1.58141E-17
 -1      1674 8.66312E-05-4.95310E-06-3.55527E-05-5.71423E-05 1.40455E-17-1.55939E-17
 -1      1675 1.25469E-04-1.28946E-05-4.55658E-05-7.43209E-05 1.18890E-17-1.67755E-17
 -1      1676 4.42545E-05-1.43003E-05-1.61379E-05-2.81466E-05 1.38600E-17-1.19652E-17
 -1      1677 6.40548E-05-4.03456E-06-2.59859E-05-5.11712E-05 1.43318E-17-1.47130E-17
 -1      1678 2.54184E-05-3.94146E-05 4.98784E-07-3.93831E-06 1.06362E-17-7.40984E-18
 -1      1679 2.73616E-05-1.72077E-05-7.44974E-06-1.84661E-05 1.35746E-17-1.08691E-17
 -1      1680 2.33647E-05-6.50383E-05 1.13250E-05 3.05760E-06 4.91321E-18-3.69338E-18
 -1      1681 1.83726E-05-4.57283E-05 6.57937E-06 2.83454E-06 9.18353E-18-5.96348E-18
 -1      1682 2.28815E-05-7.43078E-05 1.54042E-05-1.66004E-06-2.20980E-18-2.81384E-18
 -1      1683 2.08967E-05-6.89541E-05 1.42251E-05 7.23829E-06 2.84434E-18-3.15202E-18
 -1      1684 1.91849E-05-5.93184E-05 1.15868E-05-4.17121E-06-8.87521E-18-4.50399E-18
 -1      1685 2.30991E-05-7.18434E-05 1.44162E-05 2.03984E-06-4.23728E-18-3.04890E-18
 -1      1686 1.91242E-05-3.12600E-05 1.12961E-06 5.90248E-06-1.33221E-17-7.56273E-18
 -1      1687 2.30926E-05-5.42986E-05 7.39475E-06 1.61416E-07-1.06514E-17-5.16251E-18
 -1      1688 4.12215E-05-7.93120E-06-1.57096E-05 3.55732E-05-1.36974E-17-1.10724E-17
 -1      1689 3.21633E-05-2.62826E-05-6.55968E-06 1.60320E-05-1.32044E-17-8.46991E-18
 -1      1690 8.40051E-05-6.32975E-07-3.45654E-05 6.54262E-05-1.27258E-17-1.40489E-17
 -1      1691 5.61602E-05-2.72098E-06-2.47548E-05 4.34434E-05-1.39049E-17-1.25751E-17
 -1      1692 1.56929E-04-2.30579E-05-5.38046E-05 7.54645E-05-8.42967E-18-1.17865E-17
 -1      1693 1.10691E-04-6.29404E-06-4.39650E-05 6.72160E-05-1.14629E-17-1.30113E-17
 -1      1694 2.18517E-04-4.87482E-05-6.76795E-05 4.99348E-05-4.95954E-18-6.58229E-18
 -1      1695 1.79226E-04-2.89607E-05-6.12545E-05 6.55683E-05-7.31540E-18-1.01898E-17
 -1      1696 2.50598E-04-6.24980E-05-7.43844E-05 8.08446E-06-2.85132E-18-8.47986E-19
 -1      1697 2.34075E-04-5.34469E-05-7.21837E-05 4.02717E-05-3.84595E-18-5.31174E-18
 -1      1698 2.39479E-04-5.59818E-05-7.26709E-05-4.32707E-05-3.22264E-18 5.19485E-18
 -1      1699 2.55541E-04-6.54338E-05-7.49153E-05-8.65877E-06-2.48816E-18 1.31047E-18
 -1      1700 1.81246E-04-2.86422E-05-6.15585E-05-7.25218E-05-5.39412E-18 8.98702E-18
 -1      1701 2.22918E-04-4.99320E-05-6.81887E-05-5.67482E-05-3.50976E-18 6.53147E-18
 -1      1702 1.11575E-04-4.55194E-06-4.47144E-05-7.09651E-05-8.32379E-18 9.99838E-18
 -1      1703 1.56437E-04-2.07100E-05-5.39779E-05-7.97216E-05-6.18080E-18 9.74596E-18
 -1      1704 5.91559E-05-6.72476E-06-2.42320E-05-4.20982E-05-8.34751E-18 7.93755E-18
 -1      1705 8.91078E-05-4.20457E-06-3.49416E-05-6.54377E-05-8.25010E-18 9.44950E-18
 -1      1706 2.91052E-05-2.66933E-05-5.46265E-06-1.31095E-05-6.25364E-18 5.29438E-18
 -1      1707 3.70036E-05-6.83009E-06-1.45568E-05-3.30486E-05-8.45085E-18 8.20606E-18
 -1      1708 2.38634E-05-5.83672E-05 8.70633E-06 5.56028E-07-2.48689E-18 2.34287E-18
 -1      1709 1.93466E-05-3.39947E-05 2.13589E-06-4.58766E-06-5.48877E-18 3.92706E-18
 -1      1710 2.33772E-05-7.40529E-05 1.53394E-05-3.08318E-06 4.01790E-18 2.52162E-18
 -1      1711 1.97773E-05-6.26385E-05 1.27498E-05 4.12983E-06-6.99649E-19 2.94789E-18
 -1      1712 1.08207E-04-3.32080E-05-3.17114E-05 4.40197E-05 6.97320E-18 5.75559E-18
 -1      1713 6.60176E-05-3.60663E-05-1.46527E-05 3.64942E-05 7.62330E-18 5.87460E-18
 -1      1714 9.52369E-05-2.85714E-05-2.85709E-05-4.31380E-10-4.09547E-18-9.46727E-19
 -1      1715 9.52366E-05-2.85722E-05-2.85705E-05-1.73748E-09-1.81870E-18 9.75657E-19
 -1      1716 1.79187E-05-4.91235E-05 8.94744E-06 1.19110E-05 5.08728E-18 4.74021E-18
 -1      1717 3.62079E-05-4.29579E-05-5.30034E-07 2.47761E-05 6.44423E-18 4.93309E-18
 -1      1718 1.17043E-05-4.97401E-05 1.17250E-05-2.80332E-06 3.11025E-18 5.20459E-18
 -1      1719 1.53644E-04-3.34989E-05-4.89245E-05 4.28299E-05 6.37583E-18 4.16994E-18
 -1      1720 1.94204E-04-3.50638E-05-6.33512E-05 3.23799E-05 5.51111E-18 1.54499E-18
 -1      1721 2.08986E-04-3.27826E-05-7.03182E-05 1.07288E-05 5.85130E-18-2.59192E-18
 -1      1722 2.06117E-04-3.22074E-05-6.96294E-05-1.21391E-05 5.92076E-18-5.93241E-18
 -1      1723 1.89343E-04-3.41882E-05-6.21211E-05-3.12792E-05 6.37615E-18-8.74816E-18
 -1      1724 1.51379E-04-3.34642E-05-4.80733E-05-4.21641E-05 7.81388E-18-1.00653E-17
 -1      1725 1.06196E-04-3.38686E-05-3.07740E-05-4.38516E-05 8.28271E-18-9.96958E-18
 -1      1726 6.30647E-05-3.60990E-05-1.34717E-05-3.60970E-05 7.46998E-18-9.36564E-18
 -1      1727 3.18198E-05-4.19501E-05 6.41478E-07-2.24166E-05 5.40746E-18-7.62478E-18
 -1      1728 1.57381E-05-4.79933E-05 9.21052E-06-9.01699E-06 2.16586E-18-5.99233E-18
 -1      1729 1.16797E-05-4.82091E-05 1.10359E-05 4.00886E-06-1.71270E-18-5.62303E-18
 -1      1730 2.02639E-05-4.40561E-05 6.13569E-06 1.68493E-05-5.03265E-18-6.06221E-18
 -1      1731 4.40822E-05-3.74863E-05-5.26704E-06 3.21290E-05-7.21503E-18-6.63460E-18
 -1      1732 7.88578E-05-3.24238E-05-2.09810E-05 4.22896E-05-7.91637E-18-7.90621E-18
 -1      1733 1.22911E-04-2.92656E-05-3.87210E-05 4.69425E-05-8.23316E-18-7.65210E-18
 -1      1734 1.65964E-04-3.09476E-05-5.46518E-05 3.44270E-05-7.22291E-18-5.20163E-18
 -1      1735 1.94005E-04-3.06118E-05-6.57551E-05 1.78456E-05-6.17275E-18-3.59608E-18
 -1      1736 2.10851E-04-3.35756E-05-7.05933E-05-1.28721E-06-4.86366E-18-9.63394E-19
 -1      1737 2.01674E-04-3.39012E-05-6.68546E-05-2.37929E-05-4.12569E-18 2.62919E-18
 -1      1738 1.68008E-04-3.03794E-05-5.54237E-05-4.19021E-05-4.47202E-18 4.41812E-18
 -1      1739 1.23885E-04-3.04185E-05-3.87333E-05-4.62269E-05-4.15427E-18 4.99241E-18
 -1      1740 7.90645E-05-3.29822E-05-2.04595E-05-4.20925E-05-3.17807E-18 5.31259E-18
 -1      1741 4.13110E-05-3.90082E-05-3.87711E-06-2.91446E-05-2.48943E-18 5.11851E-18
 -1      1742 1.97886E-05-4.63003E-05 7.27220E-06-1.59814E-05 4.30716E-19 4.29319E-18
 -1      1743 1.17894E-04-2.66210E-05-3.92064E-05-1.46609E-05-1.80042E-18 5.12518E-18
 -1      1744 9.48420E-05-1.28834E-05-3.52639E-05-8.02109E-06-1.61471E-18-2.99196E-18
 -1      1745 9.78458E-05-1.42739E-05-3.59644E-05-1.03014E-05-2.05506E-18-2.40179E-18
 -1      1746 1.01400E-04-1.68573E-05-3.64111E-05-1.17244E-05-2.21181E-18-1.60237E-18
 -1      1747 1.04577E-04-1.91704E-05-3.70976E-05-1.38973E-05-2.54413E-18-5.39136E-19
 -1      1748 1.02034E-04-1.97324E-05-3.53012E-05-9.36307E-06-2.25657E-18-1.79513E-18
 -1      1749 8.38940E-05-7.73256E-06-3.27259E-05-1.13379E-06-4.41397E-19-4.03642E-18
 -1      1750 8.64163E-05-8.59300E-06-3.33893E-05-2.65784E-06-6.84740E-19-3.93064E-18
 -1      1751 7.87034E-05-5.33570E-06-3.15184E-05 1.27194E-06 1.00704E-19-4.13400E-18
 -1      1752 8.11521E-05-6.20726E-06-3.21269E-05 1.80896E-07-1.47562E-19-4.14412E-18
 -1      1753 8.40771E-05-9.49164E-06-3.20194E-05 5.87483E-08-3.06024E-19-3.90616E-18
 -1      1754 7.40793E-05-3.01568E-06-3.05216E-05 2.61772E-06 5.94955E-19-4.05191E-18
 -1      1755 7.61646E-05-3.81764E-06-3.09987E-05 2.03509E-06 3.80007E-19-4.10642E-18
 -1      1756 7.85013E-05-6.47529E-06-3.09111E-05 2.24897E-06 2.93312E-19-4.04661E-18
 -1      1757 7.07678E-05-1.15394E-06-2.98860E-05 2.87305E-06 9.97404E-19-3.93613E-18
 -1      1758 7.21124E-05-1.73137E-06-3.01569E-05 2.75061E-06 8.13231E-19-4.04483E-18
 -1      1759 7.36906E-05-3.67729E-06-3.00293E-05 3.24991E-06 7.85107E-19-3.91972E-18
 -1      1760 6.95631E-05-2.30359E-07-2.97456E-05 2.33066E-06 1.36616E-18-3.79947E-18
 -1      1761 6.98148E-05-4.23269E-07-2.97486E-05 2.48707E-06 1.17693E-18-3.88198E-18
 -1      1762 7.05374E-05-1.65539E-06-2.95254E-05 3.06131E-06 1.18213E-18-3.83965E-18
 -1      1763 7.09669E-05-5.86752E-07-3.01755E-05 1.57774E-06 1.64713E-18-3.59608E-18
 -1      1764 6.99499E-05-3.05373E-07-2.98823E-05 1.72845E-06 1.51692E-18-3.77139E-18
 -1      1765 6.98857E-05-9.93340E-07-2.95213E-05 2.09757E-06 1.51990E-18-3.73150E-18
 -1      1766 7.48774E-05-2.22020E-06-3.11419E-05 1.30750E-06 1.97908E-18-3.07146E-18
 -1      1767 7.27147E-05-1.50351E-06-3.05818E-05 1.15844E-06 1.77778E-18-3.39239E-18
 -1      1768 7.21251E-05-1.98819E-06-3.00607E-05 1.09384E-06 1.83423E-18-3.43156E-18
 -1      1769 8.09834E-05-4.98350E-06-3.25826E-05 2.05928E-06 2.41656E-18-2.21046E-18
 -1      1770 7.78347E-05-3.87420E-06-3.17883E-05 1.37718E-06 2.14676E-18-2.67081E-18
 -1      1771 7.70763E-05-4.54318E-06-3.11042E-05 7.74305E-07 2.17687E-18-2.73830E-18
 -1      1772 8.86601E-05-8.66422E-06-3.43309E-05 4.11227E-06 2.78400E-18-1.11912E-18
 -1      1773 8.48180E-05-7.19773E-06-3.33881E-05 2.76880E-06 2.55002E-18-1.77125E-18
 -1      1774 8.42178E-05-8.36532E-06-3.25418E-05 1.59557E-06 2.56817E-18-1.84433E-18
 -1      1775 9.76204E-05-1.34830E-05-3.61845E-05 7.38680E-06 2.98584E-18 7.06955E-19
 -1      1776 9.31484E-05-1.14366E-05-3.51868E-05 5.36923E-06 2.85380E-18-3.47495E-19
 -1      1777 9.28883E-05-1.32117E-05-3.41756E-05 3.55689E-06 2.89974E-18-5.55323E-19
 -1      1778 1.08559E-04-2.08008E-05-3.77875E-05 1.09437E-05 2.78796E-18 3.73160E-18
 -1      1779 1.02900E-04-1.72039E-05-3.69230E-05 8.78539E-06 2.83967E-18 1.90074E-18
 -1      1780 1.02821E-04-1.94274E-05-3.57299E-05 5.99652E-06 3.00408E-18 1.33545E-18
 -1      1781 1.17750E-04-3.00698E-05-3.80038E-05 9.12705E-06 2.20282E-18 7.22260E-18
 -1      1782 1.12368E-04-2.39860E-05-3.78876E-05 1.08579E-05 2.51497E-18 4.94403E-18
 -1      1783 1.11193E-04-2.62023E-05-3.64772E-05 6.40366E-06 2.80682E-18 3.65251E-18
 -1      1784 1.15977E-04-3.15151E-05-3.63797E-05 4.08057E-06 2.23326E-18 6.45012E-18
 -1      1785 1.11663E-04-2.30568E-05-3.76736E-05-1.58048E-05-2.33936E-18 1.55589E-18
 -1      1786 1.15172E-04-3.34483E-05-3.50465E-05-9.60025E-07 1.73393E-18 5.36786E-18
 -1      1787 1.15999E-04-3.30513E-05-3.55855E-05 1.28071E-06 1.87006E-18 5.94505E-18
 -1      1788 1.14107E-04-3.08474E-05-3.56986E-05 2.60185E-06 2.28209E-18 4.30374E-18
 -1      1789 1.11211E-04-2.63487E-05-3.60930E-05-1.11910E-05-2.41277E-18 7.27760E-19
 -1      1790 1.09950E-04-3.15363E-05-3.34924E-05-3.50322E-06-1.95966E-18 6.54687E-19
 -1      1791 1.08606E-04-3.18375E-05-3.29046E-05-2.29217E-06-1.69331E-18 1.89100E-19
 -1      1792 1.08224E-04-3.22836E-05-3.24579E-05-1.60692E-06-1.45938E-18 2.73790E-19
 -1      1793 1.07578E-04-3.25294E-05-3.21719E-05-1.55009E-06-1.19176E-18-1.31409E-19
 -1      1794 1.08071E-04-3.15683E-05-3.28058E-05-2.88964E-06-1.79457E-18-3.99125E-19
 -1      1795 1.07374E-04-3.28152E-05-3.19065E-05-1.81365E-06-9.84163E-19-1.24858E-19
 -1      1796 1.06708E-04-3.28717E-05-3.16723E-05-2.37994E-06-8.53144E-19-4.43031E-19
 -1      1797 1.07686E-04-3.28850E-05-3.20679E-05-2.28312E-06-1.35332E-18-3.77992E-19
 -1      1798 1.06460E-04-3.29828E-05-3.14747E-05-3.25532E-06-8.50626E-19-4.91094E-19
 -1      1799 1.05465E-04-3.27497E-05-3.11945E-05-4.12414E-06-8.51397E-19-8.19083E-19
 -1      1800 1.07379E-04-3.36094E-05-3.16108E-05-3.48173E-06-1.03550E-18-4.78679E-19
 -1      1801 1.04928E-04-3.25521E-05-3.10229E-05-5.20913E-06-8.25268E-19-7.60655E-19
 -1      1802 1.03488E-04-3.19264E-05-3.06789E-05-5.99925E-06-7.69480E-19-9.68688E-19
 -1      1803 1.06656E-04-3.35964E-05-3.12915E-05-5.64024E-06-9.09204E-19-5.70326E-19
 -1      1804 1.02510E-04-3.13076E-05-3.05308E-05-6.74808E-06-8.60577E-19-1.01010E-18
 -1      1805 1.00763E-04-3.03176E-05-3.01634E-05-6.99999E-06-8.29236E-19-1.19104E-18
 -1      1806 1.05108E-04-3.25528E-05-3.10681E-05-7.72119E-06-9.60822E-19-4.88377E-19
 -1      1807 9.94497E-05-2.93567E-05-3.00531E-05-6.82451E-06-7.51221E-19-1.17950E-18
 -1      1808 9.77988E-05-2.82658E-05-2.97396E-05-6.17427E-06-6.80978E-19-1.05394E-18
 -1      1809 1.02683E-04-3.04605E-05-3.09393E-05-8.44078E-06-8.03255E-19-7.44170E-19
 -1      1810 9.65918E-05-2.73262E-05-2.96779E-05-4.77221E-06-9.38301E-19-1.09840E-18
 -1      1811 9.55734E-05-2.65785E-05-2.95011E-05-3.22149E-06-8.21622E-19-1.43108E-18
 -1      1812 9.99738E-05-2.79326E-05-3.08963E-05-6.73853E-06-9.26866E-19-7.48499E-19
 -1      1813 9.50489E-05-2.61497E-05-2.94886E-05-8.92629E-07-1.04713E-18-1.75379E-18
 -1      1814 9.50688E-05-2.61247E-05-2.95016E-05 1.07559E-06-1.09115E-18-2.24295E-18
 -1      1815 9.80956E-05-2.61141E-05-3.09045E-05-2.55688E-06-1.27181E-18-1.34895E-18
 -1      1816 9.55326E-05-2.64748E-05-2.95327E-05 3.46664E-06-1.03138E-18-2.71780E-18
 -1      1817 9.66153E-05-2.72045E-05-2.97364E-05 5.10568E-06-6.44566E-19-3.12613E-18
 -1      1818 9.80272E-05-2.60066E-05-3.09236E-05 2.78284E-06-1.34469E-18-1.90162E-18
 -1      1819 9.78198E-05-2.81295E-05-2.98080E-05 6.63972E-06-5.54972E-19-3.40551E-18
 -1      1820 9.95862E-05-2.92692E-05-3.01501E-05 7.39625E-06-3.46938E-19-3.37674E-18
 -1      1821 9.98352E-05-2.76986E-05-3.09404E-05 7.19111E-06-8.34440E-19-2.41470E-18
 -1      1822 1.00940E-04-3.02810E-05-3.02556E-05 7.65976E-06-2.38175E-19-3.81242E-18
 -1      1823 1.02828E-04-3.13707E-05-3.06477E-05 7.44957E-06 2.69975E-20-3.72753E-18
 -1      1824 1.02597E-04-3.02814E-05-3.09775E-05 9.14050E-06-5.23614E-19-3.03753E-18
 -1      1825 1.03819E-04-3.20653E-05-3.07657E-05 6.64987E-06 5.36973E-20-3.81787E-18
 -1      1826 1.05354E-04-3.28004E-05-3.11154E-05 5.77937E-06-1.04036E-19-3.57421E-18
 -1      1827 1.05108E-04-3.25689E-05-3.10526E-05 8.44879E-06 5.59174E-22-2.97034E-18
 -1      1828 1.05782E-04-3.30511E-05-3.12137E-05 4.44895E-06-2.68457E-19-3.60384E-18
 -1      1829 1.06723E-04-3.33640E-05-3.14546E-05 3.34446E-06-1.61247E-19-3.61665E-18
 -1      1830 1.06605E-04-3.38450E-05-3.11477E-05 6.00924E-06-1.75630E-19-2.84585E-18
 -1      1831 1.06646E-04-3.32609E-05-3.15045E-05 1.98436E-06 6.46524E-21-3.51022E-18
 -1      1832 1.06974E-04-3.32388E-05-3.16105E-05 9.75835E-07 6.09070E-20-3.40106E-18
 -1      1833 1.06954E-04-3.40569E-05-3.12172E-05 2.99833E-06-1.22883E-19-3.01921E-18
 -1      1834 1.06555E-04-3.29401E-05-3.15978E-05-1.16021E-07-1.99807E-19-3.62981E-18
 -1      1835 1.06385E-04-3.27148E-05-3.15785E-05-8.63560E-07 6.12147E-20-3.55523E-18
 -1      1836 1.06411E-04-3.35412E-05-3.12166E-05 2.89769E-07-1.10018E-19-3.03614E-18
 -1      1837 1.05782E-04-3.23515E-05-3.15058E-05-1.58871E-06 2.71345E-19-3.55877E-18
 -1      1838 1.05274E-04-3.20350E-05-3.13911E-05-2.04493E-06 2.67669E-19-3.17088E-18
 -1      1839 1.05327E-04-3.26927E-05-3.11240E-05-1.69947E-06 1.55995E-19-2.58504E-18
 -1      1840 1.04603E-04-3.16846E-05-3.12721E-05-2.42990E-06 7.22294E-21-2.84101E-18
 -1      1841 1.03912E-04-3.13506E-05-3.10982E-05-2.63899E-06 2.45605E-19-3.04893E-18
 -1      1842 1.03996E-04-3.17935E-05-3.09440E-05-2.90490E-06 2.99180E-19-2.45253E-18
 -1      1843 1.03245E-04-3.10471E-05-3.09511E-05-2.76322E-06 2.81856E-19-3.33756E-18
 -1      1844 1.02489E-04-3.07360E-05-3.07504E-05-2.79475E-06 2.72783E-19-3.27592E-18
 -1      1845 1.02613E-04-3.09910E-05-3.06986E-05-3.44976E-06-3.66077E-20-2.86627E-18
 -1      1846 1.01870E-04-3.04878E-05-3.05922E-05-2.74523E-06 1.10080E-19-3.21433E-18
 -1      1847 1.01131E-04-3.02176E-05-3.03892E-05-2.66596E-06-9.29846E-20-3.18676E-18
 -1      1848 1.01297E-04-3.03364E-05-3.04165E-05-3.51879E-06 2.64886E-19-2.53453E-18
 -1      1849 1.00579E-04-3.00212E-05-3.02336E-05-2.51613E-06-2.01439E-20-2.90804E-18
 -1      1850 9.99072E-05-2.97968E-05-3.00442E-05-2.37858E-06 1.79788E-20-2.43519E-18
 -1      1851 1.00107E-04-2.98297E-05-3.01245E-05-3.28819E-06 1.12266E-19-1.99742E-18
 -1      1852 9.94320E-05-2.96445E-05-2.99004E-05-2.18235E-06 1.64286E-19-2.80149E-18
 -1      1853 9.88501E-05-2.94643E-05-2.97333E-05-2.02300E-06 6.03388E-19-2.45719E-18
 -1      1854 9.90712E-05-2.94498E-05-2.98437E-05-2.89744E-06 1.65496E-19-1.73341E-18
 -1      1855 9.84519E-05-2.93479E-05-2.96064E-05-1.81608E-06 1.77794E-20-2.50955E-18
 -1      1856 9.79673E-05-2.92070E-05-2.94652E-05-1.65777E-06-3.02681E-19-2.72161E-18
 -1      1857 9.81957E-05-2.91709E-05-2.95878E-05-2.44472E-06 3.89789E-19-2.83419E-18
 -1      1858 9.76414E-05-2.91192E-05-2.93573E-05-1.46153E-06-2.80022E-19-2.51093E-18
 -1      1859 9.72504E-05-2.90115E-05-2.92419E-05-1.31701E-06-4.95072E-19-2.70516E-18
 -1      1860 9.74737E-05-2.89694E-05-2.93643E-05-1.99271E-06-1.09632E-19-3.28343E-18
 -1      1861 9.69896E-05-2.89461E-05-2.91530E-05-1.14264E-06-5.59916E-19-3.01016E-18
 -1      1862 9.66827E-05-2.88657E-05-2.90614E-05-1.01780E-06-1.11480E-19-3.13739E-18
 -1      1863 9.68914E-05-2.88259E-05-2.91757E-05-1.57727E-06-5.63810E-19-2.83025E-18
 -1      1864 9.64783E-05-2.88177E-05-2.89901E-05-8.69785E-07 2.73637E-19-2.70954E-18
 -1      1865 9.62435E-05-2.87591E-05-2.89192E-05-7.66214E-07 3.54102E-19-2.70417E-18
 -1      1866 9.64316E-05-2.87254E-05-2.90210E-05-1.21570E-06 3.10501E-19-1.65213E-18
 -1      1867 9.60866E-05-2.87245E-05-2.88634E-05-6.44894E-07 5.42758E-19-2.83531E-18
 -1      1868 9.59115E-05-2.86829E-05-2.88100E-05-5.61691E-07 7.52176E-19-2.54095E-18
 -1      1869 9.60757E-05-2.86564E-05-2.88975E-05-9.13365E-07 6.86653E-19-2.22616E-18
 -1      1870 9.57936E-05-2.86585E-05-2.87673E-05-4.65103E-07 2.33856E-19-2.74934E-18
 -1      1871 9.56664E-05-2.86299E-05-2.87281E-05-4.00083E-07-5.82104E-19-2.98878E-18
 -1      1872 9.58061E-05-2.86102E-05-2.88011E-05-6.68486E-07 7.89072E-20-2.36403E-18
 -1      1873 9.55798E-05-2.86132E-05-2.86962E-05-3.25143E-07-9.44380E-19-2.84599E-18
 -1      1874 9.54901E-05-2.85942E-05-2.86682E-05-2.75608E-07-7.15324E-19-3.05849E-18
 -1      1875 9.56061E-05-2.85804E-05-2.87276E-05-4.75481E-07-2.44801E-19-2.64340E-18
 -1      1876 9.54280E-05-2.85831E-05-2.86450E-05-2.18863E-07-8.56588E-19-2.59330E-18
 -1      1877 9.53670E-05-2.85713E-05-2.86256E-05-1.82052E-07-2.07747E-19-2.47600E-18
 -1      1878 9.54613E-05-2.85622E-05-2.86729E-05-3.27095E-07-8.22508E-19-2.06868E-18
 -1      1879 9.53238E-05-2.85642E-05-2.86091E-05-1.40121E-07-3.89020E-19-2.44465E-18
 -1      1880 9.52841E-05-2.85574E-05-2.85963E-05-1.13469E-07-2.21885E-19-2.76704E-18
 -1      1881 9.53593E-05-2.85519E-05-2.86331E-05-2.15722E-07-3.75028E-19-1.23579E-18
 -1      1882 9.52552E-05-2.85533E-05-2.85850E-05-8.32788E-08 1.24679E-19-2.72337E-18
 -1      1883 9.52310E-05-2.85500E-05-2.85769E-05-6.45316E-08 5.63357E-19-2.51042E-18
 -1      1884 9.52897E-05-2.85471E-05-2.86050E-05-1.34169E-07-7.84026E-20-1.09023E-18
 -1      1885 9.52125E-05-2.85479E-05-2.85695E-05-4.34249E-08 1.09211E-18-2.83305E-18
 -1      1886 9.51994E-05-2.85469E-05-2.85648E-05-3.06839E-08 1.37443E-18-2.50433E-18
 -1      1887 9.52443E-05-2.85458E-05-2.85859E-05-7.60342E-08 5.01775E-19-1.08283E-18
 -1      1888 9.51885E-05-2.85462E-05-2.85603E-05-1.64425E-08 1.03795E-18-3.13087E-18
 -1      1889 9.51828E-05-2.85466E-05-2.85580E-05-8.15746E-09 1.50092E-19-2.81634E-18
 -1      1890 9.52165E-05-2.85467E-05-2.85733E-05-3.58620E-08 8.16259E-19-1.40447E-18
 -1      1891 9.51771E-05-2.85468E-05-2.85554E-05 1.01642E-09-3.91065E-19-2.47046E-18
 -1      1892 9.51764E-05-2.85481E-05-2.85547E-05 6.07825E-09-2.58164E-20-2.51597E-18
 -1      1893 9.52011E-05-2.85488E-05-2.85657E-05-9.15269E-09 5.55805E-19-1.51664E-18
 -1      1894 9.51743E-05-2.85487E-05-2.85536E-05 1.16055E-08 3.27864E-19-2.67581E-18
 -1      1895 9.51766E-05-2.85505E-05-2.85539E-05 1.44011E-08-8.07690E-19-2.58391E-18
 -1      1896 9.51943E-05-2.85516E-05-2.85614E-05 7.70595E-09 3.17558E-20-1.09400E-18
 -1      1897 9.51769E-05-2.85514E-05-2.85536E-05 1.73790E-08-1.31605E-18-2.07392E-18
 -1      1898 9.51810E-05-2.85533E-05-2.85546E-05 1.86344E-08-7.34662E-19-1.71438E-18
 -1      1899 9.51931E-05-2.85546E-05-2.85595E-05 1.75445E-08-5.76721E-19-5.84654E-19
 -1      1900 9.51826E-05-2.85544E-05-2.85549E-05 1.98905E-08-3.65795E-19-9.21578E-19
 -1      1901 9.51875E-05-2.85563E-05-2.85562E-05 2.01427E-08-2.54813E-19-1.30765E-18
 -1      1902 9.51954E-05-2.85575E-05-2.85592E-05 2.25301E-08-5.02038E-19-3.02306E-19
 -1      1903 9.51899E-05-2.85573E-05-2.85568E-05 2.02856E-08 4.57619E-20-1.56929E-18
 -1      1904 9.51950E-05-2.85592E-05-2.85582E-05 1.99203E-08 8.80390E-19-1.31778E-18
 -1      1905 9.51997E-05-2.85602E-05-2.85599E-05 2.42824E-08-9.96913E-20-1.65376E-19
 -1      1906 9.51978E-05-2.85601E-05-2.85590E-05 1.93829E-08 1.58606E-18-8.80317E-19
 -1      1907 9.52027E-05-2.85618E-05-2.85604E-05 1.86661E-08 2.41406E-18-6.17709E-20
 -1      1908 9.52051E-05-2.85626E-05-2.85611E-05 2.39781E-08 1.74134E-18 1.72552E-19
 -1      1909 9.52055E-05-2.85627E-05-2.85613E-05 1.77424E-08 2.49015E-18-5.26819E-19
 -1      1910 9.52101E-05-2.85642E-05-2.85626E-05 1.68453E-08 1.91666E-18-3.36978E-19
 -1      1911 9.52108E-05-2.85647E-05-2.85626E-05 2.24411E-08 2.00316E-18 1.24805E-19
 -1      1912 9.52128E-05-2.85650E-05-2.85634E-05 1.57193E-08 1.65467E-18-2.12868E-19
 -1      1913 9.52169E-05-2.85662E-05-2.85646E-05 1.47370E-08 2.04057E-18 5.97519E-19
 -1      1914 9.52163E-05-2.85666E-05-2.85642E-05 2.02156E-08 2.22941E-18 4.26330E-20
 -1      1915 9.52193E-05-2.85670E-05-2.85653E-05 1.35050E-08 1.47019E-18-5.35271E-19
 -1      1916 9.52228E-05-2.85681E-05-2.85663E-05 1.24703E-08 6.87351E-19-6.68218E-19
 -1      1917 9.52215E-05-2.85683E-05-2.85656E-05 1.76240E-08 1.35294E-18-1.10240E-18
 -1      1918 9.52250E-05-2.85687E-05-2.85670E-05 1.11598E-08-7.76751E-19-2.26383E-20
 -1      1919 9.52279E-05-2.85697E-05-2.85678E-05 1.00546E-08-1.57749E-18-6.22514E-19
 -1      1920 9.52261E-05-2.85697E-05-2.85670E-05 1.48143E-08 7.07156E-20-1.67838E-18
 -1      1921 9.52297E-05-2.85703E-05-2.85684E-05 8.64764E-09-1.03083E-18-1.07452E-18
 -1      1922 9.52319E-05-2.85711E-05-2.85690E-05 7.41802E-09-5.94796E-19-2.03916E-19
 -1      1923 9.52300E-05-2.85711E-05-2.85681E-05 1.18060E-08-1.50855E-18 2.40966E-19
 -1      1924 9.52333E-05-2.85715E-05-2.85694E-05 5.96735E-09 1.86079E-19 4.15852E-19
 -1      1925 9.52349E-05-2.85721E-05-2.85698E-05 4.63414E-09 1.16832E-18 5.34023E-19
 -1      1926 9.52355E-05-2.85730E-05-2.85696E-05 5.45701E-09 6.89608E-19 2.04631E-18
 -1      1927 9.52332E-05-2.85722E-05-2.85690E-05 8.64706E-09 5.83967E-19 8.20349E-19
 -1      1928 1.15816E-04-3.45601E-05-3.48174E-05-2.76673E-06 1.15922E-18 4.55233E-18
 -1      1929 1.15495E-04-3.40898E-05-3.48363E-05-1.96986E-06 1.36012E-18 5.05558E-18
 -1      1930 1.14138E-04-3.31563E-05-3.47354E-05-1.75634E-06 1.66476E-18 3.70038E-18
 -1      1931 1.17221E-04-3.57774E-05-3.49258E-05-2.47291E-06 8.00526E-19 4.01543E-18
 -1      1932 1.16550E-04-3.52393E-05-3.48163E-05-2.66328E-06 7.96317E-19 4.31989E-18
 -1      1933 1.15155E-04-3.47624E-05-3.44770E-05-3.10064E-06 1.11734E-18 3.31708E-18
 -1      1934 1.18421E-04-3.69622E-05-3.49518E-05-1.22880E-07 1.78578E-19 3.88431E-18
 -1      1935 1.18088E-04-3.65476E-05-3.49443E-05-1.31320E-06 3.96577E-19 3.99101E-18
 -1      1936 1.16837E-04-3.64791E-05-3.44499E-05-1.92350E-06 5.86650E-19 2.98312E-18
 -1      1937 1.18343E-04-3.75355E-05-3.46636E-05 4.10360E-06-5.06698E-20 3.65585E-18
 -1      1938 1.18957E-04-3.75798E-05-3.48934E-05 1.98149E-06-1.24408E-20 3.81522E-18
 -1      1939 1.18335E-04-3.80223E-05-3.44041E-05 1.66652E-06 8.05872E-20 2.92768E-18
 -1      1940 1.16017E-04-3.65984E-05-3.40335E-05 8.99711E-06 2.40590E-19 3.61776E-18
 -1      1941 1.17959E-04-3.74825E-05-3.45191E-05 6.55440E-06-6.89670E-20 3.68451E-18
 -1      1942 1.18534E-04-3.84492E-05-3.42750E-05 7.01059E-06 3.50791E-20 2.75399E-18
 -1      1943 1.11223E-04-3.35648E-05-3.32596E-05 1.18395E-05 1.04319E-18 3.43962E-18
 -1      1944 1.14308E-04-3.53628E-05-3.38710E-05 1.04420E-05 6.92999E-19 3.62340E-18
 -1      1945 1.16386E-04-3.65860E-05-3.41509E-05 1.19741E-05 6.78116E-19 2.87966E-18
 -1      1946 1.05512E-04-2.93660E-05-3.26579E-05 9.55926E-06 1.21652E-18 2.56396E-18
 -1      1947 1.08675E-04-3.13786E-05-3.31639E-05 1.06697E-05 1.27625E-18 3.16571E-18
 -1      1948 1.11963E-04-3.23025E-05-3.41561E-05 1.30053E-05 1.37104E-18 2.78772E-18
 -1      1949 1.02217E-04-2.67590E-05-3.24466E-05 1.80864E-06 1.13060E-18 1.90698E-18
 -1      1950 1.03806E-04-2.76684E-05-3.26407E-05 5.45363E-06 1.12478E-18 2.08498E-18
 -1      1951 1.07534E-04-2.78104E-05-3.42778E-05 7.49009E-06 1.44464E-18 1.77310E-18
 -1      1952 1.03953E-04-2.80032E-05-3.26912E-05-7.24571E-06 1.07510E-18 1.26899E-18
 -1      1953 1.02894E-04-2.70705E-05-3.24822E-05-3.14351E-06 1.54343E-18 1.72488E-18
 -1      1954 1.06416E-04-2.65171E-05-3.43682E-05-2.69257E-06 1.62935E-18 1.05467E-18
 -1      1955 1.09656E-04-3.21064E-05-3.33033E-05-1.22433E-05 6.17547E-19 1.44181E-19
 -1      1956 1.06521E-04-3.00198E-05-3.27734E-05-1.00382E-05 8.06005E-19 6.86520E-19
 -1      1957 1.09638E-04-2.96055E-05-3.43628E-05-1.14627E-05 1.23407E-18 1.41230E-19
 -1      1958 1.15730E-04-3.60883E-05-3.40954E-05-1.13185E-05 8.40243E-19-8.53015E-19
 -1      1959 1.12200E-04-3.41893E-05-3.34445E-05-1.16822E-05 6.53301E-19-2.73592E-19
 -1      1960 1.14693E-04-3.45542E-05-3.43316E-05-1.40345E-05 1.03153E-18-7.60066E-19
 -1      1961 1.19352E-04-3.79795E-05-3.47968E-05-6.72043E-06 2.65823E-19-1.31997E-18
 -1      1962 1.16858E-04-3.70180E-05-3.42627E-05-8.60999E-06 5.87748E-19-1.08289E-18
 -1      1963 1.18309E-04-3.80461E-05-3.43801E-05-1.06252E-05 7.76650E-19-1.23986E-18
 -1      1964 1.20008E-04-3.78998E-05-3.51278E-05-1.58321E-06 5.29025E-19-1.26495E-18
 -1      1965 1.19058E-04-3.78168E-05-3.48794E-05-3.70735E-06 5.63343E-19-1.38474E-18
 -1      1966 1.19226E-04-3.88739E-05-3.44531E-05-4.75125E-06 7.19329E-19-1.71266E-18
 -1      1967 1.18449E-04-3.67301E-05-3.49917E-05 2.25534E-06 2.29625E-19-1.80082E-18
 -1      1968 1.18834E-04-3.71734E-05-3.50532E-05 6.53463E-07 4.55042E-19-1.29886E-18
 -1      1969 1.17923E-04-3.78119E-05-3.43660E-05 6.12317E-07 5.36006E-19-1.37411E-18
 -1      1970 1.15683E-04-3.52420E-05-3.44699E-05 4.37874E-06 7.00827E-19-1.89802E-18
 -1      1971 1.16924E-04-3.58919E-05-3.47657E-05 3.47160E-06 3.98575E-19-1.96027E-18
 -1      1972 1.15386E-04-3.60209E-05-3.40421E-05 4.16358E-06 7.46176E-19-1.56122E-18
 -1      1973 1.12483E-04-3.38322E-05-3.37159E-05 5.12958E-06 6.16387E-19-1.25956E-18
 -1      1974 1.14122E-04-3.45036E-05-3.41412E-05 4.78595E-06 1.01218E-18-1.30601E-18
 -1      1975 1.12407E-04-3.42620E-05-3.35082E-05 5.88342E-06 7.73086E-19-1.43873E-18
 -1      1976 1.09321E-04-3.26365E-05-3.28773E-05 5.02071E-06-1.03220E-18-1.28379E-18
 -1      1977 1.11035E-04-3.32450E-05-3.33424E-05 5.03570E-06-1.55920E-19-1.18566E-18
 -1      1978 1.09440E-04-3.28175E-05-3.28467E-05 6.27740E-06-9.45633E-21-1.32582E-18
 -1      1979 1.06447E-04-3.16688E-05-3.20595E-05 4.47439E-06-6.20989E-19-1.66991E-18
 -1      1980 1.08045E-04-3.21858E-05-3.25053E-05 4.67638E-06-7.94451E-19-1.53830E-18
 -1      1981 1.06714E-04-3.17130E-05-3.21464E-05 5.89204E-06-4.77438E-19-1.22357E-18
 -1      1982 1.03968E-04-3.09025E-05-3.13229E-05 3.76661E-06-1.80592E-19-1.66995E-18
 -1      1983 1.05360E-04-3.13255E-05-3.17181E-05 4.04177E-06-1.81306E-19-1.64290E-18
 -1      1984 1.04327E-04-3.08877E-05-3.14747E-05 5.13833E-06-4.30971E-19-1.76948E-18
 -1      1985 1.01906E-04-3.03030E-05-3.06933E-05 3.05222E-06 1.40433E-18-2.47154E-18
 -1      1986 1.03065E-04-3.06403E-05-3.10263E-05 3.33564E-06 2.84110E-19-2.15680E-18
 -1      1987 1.02305E-04-3.02723E-05-3.08716E-05 4.27396E-06 5.19741E-19-2.28604E-18
 -1      1988 1.00236E-04-2.98385E-05-3.01747E-05 2.40585E-06 8.94392E-19-2.71863E-18
 -1      1989 1.01172E-04-3.01023E-05-3.04455E-05 2.66547E-06 1.19117E-18-2.92224E-18
 -1      1990 1.00638E-04-2.98111E-05-3.03548E-05 3.43931E-06 1.35286E-18-2.93170E-18
 -1      1991 9.89146E-05-2.94822E-05-2.97592E-05 1.85535E-06-1.84902E-18-1.49113E-18
 -1      1992 9.96506E-05-2.96851E-05-2.99736E-05 2.07851E-06-7.17420E-19-2.29944E-18
 -1      1993 9.92916E-05-2.94642E-05-2.99270E-05 2.69932E-06-6.12499E-19-2.15256E-18
 -1      1994 9.78874E-05-2.92121E-05-2.94336E-05 1.40401E-06-1.96169E-18 2.59930E-19
 -1      1995 9.84550E-05-2.93656E-05-2.95998E-05 1.58838E-06-2.36207E-18-7.68479E-19
 -1      1996 9.82255E-05-2.92035E-05-2.95822E-05 2.07551E-06-2.48769E-18-6.10817E-19
 -1      1997 9.71031E-05-2.90099E-05-2.91833E-05 1.04362E-06-3.46203E-19 8.95746E-19
 -1      1998 9.75328E-05-2.91243E-05-2.93097E-05 1.19186E-06-3.52276E-19 1.14470E-18
 -1      1999 9.73958E-05-2.90087E-05-2.93103E-05 1.56687E-06-9.89622E-19 5.63788E-19
 -1      2000 9.65143E-05-2.88610E-05-2.89943E-05 7.61610E-07 1.54695E-18 1.47972E-18
 -1      2001 9.68340E-05-2.89448E-05-2.90888E-05 8.78368E-07 6.00728E-19 1.07678E-18
 -1      2002 9.67608E-05-2.88646E-05-2.90999E-05 1.16199E-06 6.56522E-19 1.45780E-18
 -1      2003 9.60802E-05-2.87533E-05-2.88542E-05 5.44672E-07 2.23339E-20 1.36489E-18
 -1      2004 9.63136E-05-2.88134E-05-2.89235E-05 6.35064E-07 8.65973E-19 1.46182E-18
 -1      2005 9.62829E-05-2.87596E-05-2.89401E-05 8.45829E-07 9.39102E-19 2.14392E-18
 -1      2006 9.57663E-05-2.86770E-05-2.87522E-05 3.80409E-07-5.97997E-19 3.33615E-19
 -1      2007 9.59332E-05-2.87192E-05-2.88020E-05 4.49296E-07-4.71946E-19 1.15648E-18
 -1      2008 9.59297E-05-2.86845E-05-2.88207E-05 6.03028E-07-1.25905E-20 1.92973E-18
 -1      2009 9.55442E-05-2.86244E-05-2.86795E-05 2.57989E-07 3.83978E-19 6.92100E-19
 -1      2010 9.56609E-05-2.86532E-05-2.87145E-05 3.09675E-07 9.06205E-20 6.30121E-19
 -1      2011 9.56736E-05-2.86320E-05-2.87333E-05 4.19491E-07 1.61749E-19 1.79433E-18
 -1      2012 9.53915E-05-2.85894E-05-2.86290E-05 1.68288E-07-4.30054E-19-3.28940E-19
 -1      2013 9.54705E-05-2.86083E-05-2.86529E-05 2.06435E-07-3.91730E-19-4.16283E-19
 -1      2014 9.54920E-05-2.85966E-05-2.86705E-05 2.82971E-07 7.77928E-20 1.10135E-18
 -1      2015 9.52899E-05-2.85672E-05-2.85951E-05 1.03805E-07 1.06066E-19-1.18061E-18
 -1      2016 9.53414E-05-2.85790E-05-2.86108E-05 1.31450E-07-1.76223E-19-6.24487E-19
 -1      2017 9.53667E-05-2.85735E-05-2.86265E-05 1.83174E-07-2.50596E-20-3.98390E-19
 -1      2018 9.52256E-05-2.85541E-05-2.85732E-05 5.84813E-08 5.50925E-19-7.29659E-19
 -1      2019 9.52573E-05-2.85608E-05-2.85830E-05 7.80969E-08 5.11293E-20-1.16822E-18
 -1      2020 9.52832E-05-2.85595E-05-2.85966E-05 1.11645E-07 4.79626E-19-3.02508E-19
 -1      2021 9.51878E-05-2.85473E-05-2.85599E-05 2.74966E-08-3.98981E-19-3.28750E-19
 -1      2022 9.52056E-05-2.85506E-05-2.85656E-05 4.10631E-08 2.37127E-19-1.68261E-19
 -1      2023 9.52302E-05-2.85518E-05-2.85770E-05 6.15599E-08 3.18889E-20-1.41750E-19
 -1      2024 9.51684E-05-2.85448E-05-2.85527E-05 7.06485E-09 1.98606E-19 3.13647E-19
 -1      2025 9.51766E-05-2.85458E-05-2.85555E-05 1.61480E-08 7.70326E-20 2.04120E-19
 -1      2026 9.51988E-05-2.85484E-05-2.85649E-05 2.74892E-08 4.93395E-20 7.21762E-19
 -1      2027 9.51612E-05-2.85450E-05-2.85496E-05-5.74709E-09 6.29526E-19-3.48098E-19
 -1      2028 9.51632E-05-2.85445E-05-2.85505E-05 7.37996E-11-1.58557E-20 1.25649E-19
 -1      2029 9.51826E-05-2.85478E-05-2.85581E-05 5.17512E-09 4.60040E-19 1.83734E-18
 -1      2030 9.51620E-05-2.85468E-05-2.85492E-05-1.31806E-08-3.48933E-19 7.60400E-19
 -1      2031 9.51601E-05-2.85455E-05-2.85489E-05-9.68277E-09 3.10234E-19 8.73888E-19
 -1      2032 9.51764E-05-2.85490E-05-2.85549E-05-8.67728E-09 2.53831E-19 1.58318E-18
 -1      2033 9.51676E-05-2.85496E-05-2.85504E-05-1.69224E-08-1.86897E-19 5.37939E-19
 -1      2034 9.51634E-05-2.85478E-05-2.85494E-05-1.50361E-08-3.94106E-19 6.36300E-19
 -1      2035 9.51769E-05-2.85512E-05-2.85540E-05-1.65809E-08-6.48213E-19 8.90197E-19
 -1      2036 9.51757E-05-2.85527E-05-2.85526E-05-1.82195E-08-1.24805E-18 3.10470E-19
 -1      2037 9.51704E-05-2.85508E-05-2.85512E-05-1.74149E-08-1.16207E-18 1.93709E-20
 -1      2038 9.51812E-05-2.85538E-05-2.85547E-05-2.04217E-08-9.08147E-19 8.07826E-19
 -1      2039 9.51850E-05-2.85559E-05-2.85552E-05-1.79741E-08 5.64315E-19 1.49392E-18
 -1      2040 9.51793E-05-2.85540E-05-2.85537E-05-1.78650E-08-7.61232E-19 8.06042E-19
 -1      2041 9.51878E-05-2.85566E-05-2.85563E-05-2.15889E-08-1.30406E-18 1.13366E-19
 -1      2042 9.51944E-05-2.85590E-05-2.85580E-05-1.68191E-08 5.94443E-19 3.67572E-19
 -1      2043 9.51888E-05-2.85572E-05-2.85564E-05-1.71322E-08 1.03768E-18 1.53941E-18
 -1      2044 9.51953E-05-2.85594E-05-2.85583E-05-2.10810E-08 1.15140E-18 9.79760E-19
 -1      2045 9.52034E-05-2.85618E-05-2.85607E-05-1.51782E-08-8.17423E-19 1.60139E-18
 -1      2046 9.51981E-05-2.85601E-05-2.85592E-05-1.57290E-08 5.25375E-19 1.20720E-18
 -1      2047 9.52030E-05-2.85619E-05-2.85605E-05-1.95921E-08-1.27975E-19 1.14826E-18
 -1      2048 9.52116E-05-2.85643E-05-2.85631E-05-1.33105E-08 8.47830E-19 3.53047E-19
 -1      2049 9.52069E-05-2.85628E-05-2.85618E-05-1.39856E-08-1.11523E-19 1.17051E-18
 -1      2050 9.52103E-05-2.85642E-05-2.85626E-05-1.75776E-08 5.94167E-19 1.89771E-18
 -1      2051 9.52189E-05-2.85664E-05-2.85653E-05-1.13430E-08 1.09767E-18-5.21704E-19
 -1      2052 9.52147E-05-2.85652E-05-2.85641E-05-1.20875E-08 1.09895E-18-1.88875E-19
 -1      2053 9.52170E-05-2.85663E-05-2.85646E-05-1.53050E-08 1.20453E-18 1.13831E-18
 -1      2054 9.52250E-05-2.85683E-05-2.85671E-05-9.29113E-09 1.04594E-18 9.99195E-20
 -1      2055 9.52215E-05-2.85673E-05-2.85662E-05-1.01021E-08 8.11437E-19-3.98617E-20
 -1      2056 9.52229E-05-2.85681E-05-2.85664E-05-1.28904E-08 2.21136E-19 4.44949E-19
 -1      2057 9.52300E-05-2.85699E-05-2.85686E-05-7.08931E-09 1.66115E-18 1.14740E-19
 -1      2058 9.52272E-05-2.85690E-05-2.85678E-05-8.00356E-09 5.90902E-19-5.42480E-20
 -1      2059 9.52279E-05-2.85697E-05-2.85678E-05-1.03288E-08 1.06866E-18 1.19623E-18
 -1      2060 9.52337E-05-2.85712E-05-2.85697E-05-4.63965E-09 5.07510E-19 4.88302E-19
 -1      2061 9.52317E-05-2.85705E-05-2.85691E-05-5.71456E-09 1.85775E-18 8.77301E-19
 -1      2062 9.52320E-05-2.85710E-05-2.85690E-05-7.55707E-09 1.55518E-18 1.09122E-18
 -1      2063 9.52359E-05-2.85720E-05-2.85703E-05-2.63663E-09-1.19422E-18 1.50201E-18
 -1      2064 9.52346E-05-2.85716E-05-2.85699E-05-3.81485E-09 1.88502E-19 1.16647E-18
 -1      2065 9.52347E-05-2.85721E-05-2.85697E-05-5.18228E-09-2.86873E-19 3.78744E-18
 -1      2066 9.52362E-05-2.85727E-05-2.85701E-05-3.33144E-09-8.63651E-19 2.90787E-18
 -1      2067 9.52406E-05-2.85824E-05-2.85678E-05-7.94878E-09-4.81395E-20-2.32188E-19
 -1      2068 9.52396E-05-2.85803E-05-2.85683E-05-7.84597E-09-1.79627E-19-1.09796E-18
 -1      2069 9.52387E-05-2.85785E-05-2.85687E-05-7.42771E-09-6.91135E-19-3.16096E-19
 -1      2070 9.52378E-05-2.85766E-05-2.85691E-05-6.73769E-09-7.14279E-19 1.95954E-18
 -1      2071 9.52388E-05-2.85790E-05-2.85685E-05-9.69039E-09-1.28397E-18-6.10853E-20
 -1      2072 9.52373E-05-2.85753E-05-2.85694E-05-5.73873E-09-5.64322E-19 1.61728E-18
 -1      2073 9.52366E-05-2.85738E-05-2.85698E-05-4.60837E-09-4.37278E-19 1.80999E-18
 -1      2074 9.52359E-05-2.85735E-05-2.85696E-05-5.62099E-09-9.02860E-19 2.87200E-18
 -1      2075 9.52371E-05-2.85760E-05-2.85691E-05-8.07192E-09-1.19870E-18 1.57592E-18
 -1      2076 9.52422E-05-2.85860E-05-2.85669E-05-7.32736E-09-1.77327E-18-5.31710E-18
 -1      2077 9.52414E-05-2.85840E-05-2.85674E-05-7.71773E-09-3.42901E-19-1.50871E-18
 -1      2078 9.52409E-05-2.85826E-05-2.85678E-05-9.86238E-09-5.27599E-19-2.09897E-18
 -1      2079 9.52436E-05-2.85890E-05-2.85662E-05-5.73632E-09-2.17540E-19-2.15872E-18
 -1      2080 9.52429E-05-2.85874E-05-2.85666E-05-6.53097E-09-5.87348E-19-2.95720E-18
 -1      2081 9.52426E-05-2.85858E-05-2.85673E-05-8.69900E-09 2.69953E-19-2.69947E-18
 -1      2082 9.52445E-05-2.85911E-05-2.85657E-05-3.44492E-09 9.55278E-20 1.82050E-18
 -1      2083 9.52440E-05-2.85901E-05-2.85660E-05-4.51308E-09 5.59984E-19 2.41002E-19
 -1      2084 9.52440E-05-2.85884E-05-2.85668E-05-6.42613E-09 1.13300E-18-1.16578E-18
 -1      2085 9.52449E-05-2.85920E-05-2.85655E-05-7.55036E-10-5.01132E-20 1.31105E-18
 -1      2086 9.52447E-05-2.85916E-05-2.85656E-05-1.96065E-09-5.08271E-19 2.79880E-18
 -1      2087 9.52449E-05-2.85900E-05-2.85664E-05-3.38743E-09 6.95110E-19 1.57781E-18
 -1      2088 9.52447E-05-2.85916E-05-2.85656E-05 2.01881E-09 5.23763E-19-1.46216E-18
 -1      2089 9.52449E-05-2.85920E-05-2.85655E-05 8.15283E-10 9.42814E-19-3.64836E-19
 -1      2090 9.52452E-05-2.85905E-05-2.85663E-05 3.83791E-11-1.54480E-19 9.97381E-19
 -1      2091 9.52440E-05-2.85900E-05-2.85660E-05 4.55994E-09-7.08838E-19-2.76864E-18
 -1      2092 9.52445E-05-2.85911E-05-2.85657E-05 3.49819E-09 1.37576E-19-1.82940E-18
 -1      2093 9.52449E-05-2.85900E-05-2.85664E-05 3.45852E-09-1.14018E-19-2.03025E-18
 -1      2094 9.52429E-05-2.85874E-05-2.85666E-05 6.53190E-09-4.75179E-19-2.63478E-18
 -1      2095 9.52435E-05-2.85890E-05-2.85662E-05 5.75651E-09-9.02654E-19-3.01560E-18
 -1      2096 9.52440E-05-2.85883E-05-2.85668E-05 6.46024E-09 1.95326E-19-2.71912E-18
 -1      2097 9.52413E-05-2.85840E-05-2.85674E-05 7.71746E-09 1.09272E-18 3.23269E-18
 -1      2098 9.52422E-05-2.85859E-05-2.85669E-05 7.32673E-09 2.86666E-19 2.86698E-19
 -1      2099 9.52426E-05-2.85858E-05-2.85673E-05 8.70002E-09 1.44471E-18-1.15212E-18
 -1      2100 9.52396E-05-2.85802E-05-2.85683E-05 7.83018E-09-3.81330E-19 1.89746E-18
 -1      2101 9.52405E-05-2.85823E-05-2.85678E-05 7.94349E-09 2.97430E-19 2.87581E-18
 -1      2102 9.52408E-05-2.85825E-05-2.85679E-05 9.85911E-09 1.57658E-18 2.51789E-18
 -1      2103 9.52377E-05-2.85764E-05-2.85691E-05 6.74230E-09-2.63692E-19-9.02449E-19
 -1      2104 9.52387E-05-2.85784E-05-2.85687E-05 7.39969E-09-3.88406E-19-5.97014E-19
 -1      2105 9.52388E-05-2.85790E-05-2.85685E-05 9.65231E-09-3.20318E-19 3.39308E-19
 -1      2106 5.45492E-05-3.99456E-05-6.81907E-06 3.76856E-05 3.61048E-18 3.80204E-18
 -1      2107 4.07231E-05-4.07604E-05-1.22858E-06 3.08197E-05 2.25819E-18 3.75532E-18
 -1      2108 1.25149E-05-3.36693E-05 7.66844E-06 3.16166E-06 2.50648E-18 4.89966E-18
 -1      2109 1.21377E-05-3.11086E-05 7.05654E-06-7.16773E-06 1.37293E-18 5.15038E-18
 -1      2110 2.28182E-05-3.40919E-05 3.76044E-06 2.20503E-05 2.72321E-18 4.00541E-18
 -1      2111 1.64741E-05-3.61261E-05 6.90086E-06 1.23471E-05 2.07650E-18 4.29446E-18
 -1      2112 1.66992E-05-2.44708E-05 2.73681E-06 1.01141E-05 5.48454E-19 4.54730E-18
 -1      2113 8.89847E-05-4.28392E-05-1.99425E-05 4.17200E-05 4.55280E-18 3.78920E-18
 -1      2114 7.04084E-05-4.46228E-05-1.23411E-05 3.64884E-05 4.37704E-18 3.63367E-18
 -1      2115 1.29248E-04-4.58514E-05-3.53769E-05 3.57753E-05 4.51045E-18 2.82020E-18
 -1      2116 1.07997E-04-4.65227E-05-2.71383E-05 3.50106E-05 4.49690E-18 3.16706E-18
 -1      2117 8.92075E-05-1.01160E-05-3.39998E-05-4.32194E-06-1.01021E-18-3.68778E-18
 -1      2118 9.18420E-05-1.10757E-05-3.46963E-05-6.26571E-06-1.38708E-18-3.37731E-18
 -1      2119 9.57272E-05-1.56951E-05-3.43629E-05-6.46568E-06-1.56355E-18-2.91086E-18
 -1      2120 8.98326E-05-1.24641E-05-3.32077E-05-2.99859E-06-8.96651E-19-3.57883E-18
 -1      2121 1.80142E-04-3.25306E-05-6.21125E-05 1.02752E-05 5.48708E-18-1.09606E-18
 -1      2122 1.67006E-04-3.34973E-05-5.67083E-05 1.56962E-05 5.40333E-18 5.37442E-19
 -1      2123 1.76726E-04-2.19990E-05-6.57471E-05-1.37923E-06 6.22188E-18-2.38186E-18
 -1      2124 1.81501E-04-2.66078E-05-6.49630E-05 5.96650E-06 5.73018E-18-1.27902E-18
 -1      2125 1.61348E-04-2.21329E-05-5.85768E-05-3.98619E-06 5.99022E-18-1.65997E-18
 -1      2126 1.82265E-04-2.73286E-05-6.49311E-05-7.81996E-06 5.47946E-18-4.38255E-18
 -1      2127 1.79956E-04-2.32055E-05-6.62911E-05-5.48451E-07 5.79836E-18-3.03301E-18
 -1      2128 1.65839E-04-3.41271E-05-5.59896E-05-1.63874E-05 5.36934E-18-5.27786E-18
 -1      2129 1.78939E-04-3.28546E-05-6.13802E-05-1.18654E-05 5.22069E-18-4.35206E-18
 -1      2130 1.41083E-04-4.28097E-05-4.23255E-05-2.63739E-05 5.15843E-18-5.61117E-18
 -1      2131 1.59640E-04-4.13208E-05-4.98876E-05-2.38725E-05 5.22042E-18-5.27109E-18
 -1      2132 1.05409E-04-4.53851E-05-2.65362E-05-3.59342E-05 4.86917E-18-6.28244E-18
 -1      2133 1.26930E-04-4.45478E-05-3.50193E-05-3.74995E-05 5.32572E-18-6.32056E-18
 -1      2134 6.46571E-05-4.24781E-05-1.09367E-05-3.59613E-05 3.75744E-18-7.20116E-18
 -1      2135 8.44754E-05-4.14766E-05-1.87290E-05-4.22030E-05 4.83571E-18-7.56972E-18
 -1      2136 3.46523E-05-3.80567E-05-6.73683E-08-2.78097E-05 2.00620E-18-6.33475E-18
 -1      2137 4.78142E-05-3.68662E-05-5.43505E-06-3.58095E-05 3.37966E-18-7.11328E-18
 -1      2138 1.46656E-05-3.40763E-05 6.67359E-06-1.06992E-05 2.60463E-19-5.93008E-18
 -1      2139 2.05001E-05-3.29905E-05 4.07395E-06-1.96510E-05 2.12902E-18-6.36461E-18
 -1      2140 1.20301E-05-3.06155E-05 6.64878E-06 9.56491E-06-1.62821E-18-5.77211E-18
 -1      2141 1.12021E-05-3.24272E-05 7.52094E-06-2.90073E-08 2.04135E-19-5.92500E-18
 -1      2142 2.95443E-05-3.30331E-05 4.56490E-07 2.94716E-05-3.24075E-18-5.49682E-18
 -1      2143 2.04104E-05-3.34907E-05 4.18785E-06 2.10547E-05-1.60534E-18-5.46929E-18
 -1      2144 6.01744E-05-3.74593E-05-1.04757E-05 4.12673E-05-3.81927E-18-5.24525E-18
 -1      2145 4.32738E-05-3.85499E-05-3.64626E-06 3.32671E-05-3.40423E-18-5.34817E-18
 -1      2146 4.38671E-05-3.35298E-05-4.84502E-06 3.79578E-05-6.74238E-19-5.19316E-18
 -1      2147 1.01477E-04-3.95373E-05-2.63058E-05 4.38159E-05-5.43965E-18-5.50233E-18
 -1      2148 8.38439E-05-4.21350E-05-1.83735E-05 4.06412E-05-4.52231E-18-5.06632E-18
 -1      2149 1.38042E-04-4.02626E-05-4.15991E-05 3.47360E-05-5.76152E-18-4.03188E-18
 -1      2150 1.16306E-04-3.98695E-05-3.31997E-05 3.65922E-05-5.84876E-18-5.05594E-18
 -1      2151 1.20552E-04-5.07376E-05-2.98024E-05 3.35581E-05-3.09252E-18-2.93539E-18
 -1      2152 1.62396E-04-3.41757E-05-5.45205E-05 1.44495E-05-5.77740E-18-2.26497E-18
 -1      2153 1.49714E-04-3.69967E-05-4.81335E-05 2.06422E-05-5.69990E-18-3.09845E-18
 -1      2154 1.77767E-04-2.47212E-05-6.44047E-05 5.80365E-06-5.92627E-18-2.28805E-18
 -1      2155 1.66703E-04-2.50223E-05-6.03925E-05 9.99278E-06-6.30150E-18-2.70796E-18
 -1      2156 1.80131E-04-2.33017E-05-6.60845E-05-3.94172E-06-5.03858E-18-9.31736E-19
 -1      2157 1.76156E-04-2.13978E-05-6.56704E-05 2.98588E-06-5.62133E-18-2.31589E-18
 -1      2158 1.70369E-04-2.61367E-05-6.11691E-05-1.32131E-05-4.16274E-18 6.07323E-19
 -1      2159 1.81120E-04-2.66228E-05-6.50115E-05-6.95963E-06-4.35926E-18-4.95726E-19
 -1      2160 1.58073E-04-1.38103E-05-6.07443E-05 8.11609E-07-5.07966E-18-2.20546E-18
 -1      2161 1.50023E-04-3.48102E-05-4.92166E-05-2.61315E-05-2.80887E-18 1.76776E-18
 -1      2162 1.66848E-04-3.38378E-05-5.59864E-05-2.09380E-05-3.25896E-18 1.20829E-18
 -1      2163 1.21158E-04-4.29053E-05-3.39017E-05-3.32582E-05-1.53504E-18 2.20821E-18
 -1      2164 1.41160E-04-4.02367E-05-4.24655E-05-3.44041E-05-2.28974E-18 2.18196E-18
 -1      2165 7.84512E-05-4.24531E-05-1.65146E-05-3.90087E-05-5.64971E-19 3.34811E-18
 -1      2166 1.00179E-04-4.15571E-05-2.51911E-05-4.35361E-05-1.17441E-18 3.25769E-18
 -1      2167 4.35651E-05-4.09022E-05-2.70943E-06-3.28145E-05-6.43745E-20 3.70037E-18
 -1      2168 5.88162E-05-3.80189E-05-9.51697E-06-4.06967E-05-8.26704E-19 4.64089E-18
 -1      2169 1.95291E-05-3.54172E-05 5.45311E-06-1.99566E-05 1.73218E-18 4.64386E-18
 -1      2170 2.88580E-05-3.58132E-05 1.85283E-06-2.85039E-05 8.00446E-20 4.11213E-18
 -1      2171 1.61907E-04-4.00048E-05-5.12024E-05 2.54445E-05 5.03858E-18 1.15789E-18
 -1      2172 1.41935E-04-4.11932E-05-4.33424E-05 2.67641E-05 5.03667E-18 2.00577E-18
 -1      2173 1.43016E-04-5.26522E-05-3.82956E-05 1.95254E-05 3.59311E-18 8.89385E-21
 -1      2174 1.09236E-04-2.84997E-05-3.46949E-05-7.04440E-06-2.25819E-18 2.50351E-19
 -1      2175 1.59690E-04-3.83879E-05-5.10536E-05 4.19760E-06 5.09056E-18-9.36818E-19
 -1      2176 1.07455E-04-2.73253E-05-3.44129E-05-7.14987E-06-2.32610E-18-6.58806E-19
 -1      2177 3.86179E-05-3.41431E-05-2.30724E-06 3.23679E-05 4.04246E-19 3.68057E-18
 -1      2178 7.52237E-05-4.76157E-05-1.21616E-05 4.09326E-05 1.02322E-18 2.26237E-18
 -1      2179 9.52370E-05-2.85752E-05-2.85694E-05 6.50625E-09 7.09060E-19 1.24850E-18
 -1      2180 1.91922E-05-2.59729E-05 2.34961E-06-1.64075E-05 1.22015E-18 5.10930E-18
 -1      2181 1.12191E-04-5.53558E-05-2.42646E-05 3.53090E-05 2.21118E-18 1.63562E-18
 -1      2182 4.39518E-05-3.68819E-05-3.65644E-06-3.74644E-05 1.43826E-18 4.42469E-18
 -1      2183 8.06833E-05-4.72482E-05-1.45741E-05-4.31282E-05 1.42683E-18 2.90373E-18
 -1      2184 1.21641E-04-5.20421E-05-2.95754E-05-3.29660E-05 1.91006E-19 1.55473E-18
 -1      2185 1.58717E-04-2.76089E-05-5.52545E-05-3.30743E-06-3.35044E-18-1.28664E-18
 -1      2186 1.58161E-04-1.41450E-05-6.08037E-05-7.13589E-07-6.00208E-18-1.91302E-18
 -1      2187 1.45619E-04-4.43892E-05-4.27061E-05 1.54944E-05-4.29954E-18-1.31629E-18
 -1      2188 7.91616E-05-4.38228E-05-1.55054E-05 4.19435E-05-2.50595E-18-4.48292E-18
 -1      2189 7.57360E-05-4.30968E-05-1.35162E-05 4.38714E-05-2.37169E-20-3.38125E-18
 -1      2190 9.78020E-05-5.08729E-05-2.05787E-05 4.07395E-05-4.10811E-19-2.96340E-18
 -1      2191 1.93425E-05-2.42402E-05 1.48114E-06 1.92409E-05-1.68136E-19-6.15539E-18
 -1      2192 1.45759E-05-2.31090E-05 2.89373E-06-7.41088E-06 1.63689E-19-6.82116E-18
 -1      2193 3.37826E-05-3.08318E-05-1.84242E-06-3.03069E-05 4.53374E-19-6.81629E-18
 -1      2194 6.77105E-05-4.35395E-05-1.07647E-05-4.04824E-05 7.97905E-19-6.40997E-18
 -1      2195 1.07400E-04-5.27902E-05-2.34230E-05-3.70759E-05 2.08709E-18-5.05890E-18
 -1      2196 1.41683E-04-5.27003E-05-3.76850E-05-2.08098E-05 2.82909E-18-2.78420E-18
 -1      2197 1.58765E-04-4.01485E-05-5.00777E-05-4.45389E-06 3.96951E-18-1.91853E-18
 -1      2198 1.52294E-04-1.38594E-05-5.93512E-05 1.12616E-06 6.16005E-18-6.21246E-19
 -1      2199 1.68311E-04-1.85431E-05-6.32609E-05-4.23282E-07 6.28371E-18-1.72466E-18
 -1      2200 1.49991E-04-1.32017E-05-5.87424E-05-2.10461E-06 6.32395E-18-5.80800E-19
 -1      2201 1.64461E-04-2.41436E-05-5.90356E-05 1.75617E-06 5.14170E-18-1.79762E-18
 -1      2202 1.55547E-04-2.82737E-05-5.40670E-05 1.77614E-07-5.57390E-18-1.10495E-18
 -1      2203 1.48039E-04-4.42143E-05-4.38458E-05-1.44306E-05-9.59847E-19-3.13402E-19
 -1      2204 1.11707E-04-3.20056E-05-3.41630E-05-2.68820E-06 1.58241E-18 2.37270E-18
 -1      2205 1.11417E-04-3.08273E-05-3.44597E-05-1.15696E-06 1.95094E-18 2.60626E-18
 -1      2206 7.81658E-05-7.78854E-06-3.02210E-05 3.82067E-06 5.31311E-19-3.81501E-18
 -1      2207 8.10643E-05-9.30410E-06-3.07360E-05 2.95885E-06 1.88485E-19-3.85638E-18
 -1      2208 8.42373E-05-1.13659E-05-3.12851E-05 1.81121E-06-2.87693E-21-3.73859E-18
 -1      2209 8.72367E-05-1.29005E-05-3.18679E-05 4.22699E-07-3.62337E-19-3.63999E-18
 -1      2210 8.40630E-05-1.27889E-05-3.05784E-05 3.50647E-06 1.70894E-19-3.53072E-18
 -1      2211 6.97370E-05-2.23432E-06-2.89720E-05 3.54479E-06 1.32215E-18-3.68053E-18
 -1      2212 7.09255E-05-2.95402E-06-2.91143E-05 3.89863E-06 1.11498E-18-3.74149E-18
 -1      2213 6.95996E-05-1.78234E-06-2.90822E-05 1.83353E-06 1.60764E-18-3.63939E-18
 -1      2214 6.92230E-05-1.70043E-06-2.89496E-05 2.43430E-06 1.43122E-18-3.70205E-18
 -1      2215 6.94882E-05-2.97520E-06-2.84700E-05 3.36697E-06 1.30936E-18-3.60379E-18
 -1      2216 7.28118E-05-3.40265E-06-2.97421E-05 2.61411E-07 1.90422E-18-3.24072E-18
 -1      2217 7.08563E-05-2.49084E-06-2.93421E-05 6.70810E-07 1.71488E-18-3.51704E-18
 -1      2218 7.02054E-05-3.14051E-06-2.87029E-05 9.47443E-07 1.56709E-18-3.43622E-18
 -1      2219 7.90133E-05-6.88914E-06-3.09017E-05-3.55957E-07 2.28613E-18-2.44282E-18
 -1      2220 7.56985E-05-5.23749E-06-3.02646E-05-4.44493E-07 2.03644E-18-2.81263E-18
 -1      2221 7.45405E-05-5.68634E-06-2.94899E-05-1.03904E-06 1.86714E-18-2.86384E-18
 -1      2222 8.72559E-05-1.17079E-05-3.23920E-05 3.87979E-07 2.56118E-18-1.55320E-18
 -1      2223 8.30615E-05-9.49241E-06-3.16084E-05-3.18853E-07 2.31584E-18-2.08546E-18
 -1      2224 8.18183E-05-1.01210E-05-3.07319E-05-1.74156E-06 2.09862E-18-2.12772E-18
 -1      2225 9.66220E-05-1.74697E-05-3.39913E-05 2.16835E-06 2.84347E-18-2.12096E-19
 -1      2226 9.19115E-05-1.47131E-05-3.31675E-05 1.05496E-06 2.59389E-18-9.45017E-19
 -1      2227 9.08477E-05-1.56714E-05-3.22224E-05-1.02908E-06 2.33343E-18-1.09646E-18
 -1      2228 1.13361E-04-3.45575E-05-3.38069E-05-3.88772E-06 1.01822E-18 2.16874E-18
 -1      2229 1.12613E-04-3.33462E-05-3.38851E-05-3.76072E-06 1.24202E-18 2.31625E-18
 -1      2230 1.09360E-04-3.13285E-05-3.34939E-05-3.64835E-06 1.58584E-18 1.28514E-18
 -1      2231 1.07236E-04-3.01217E-05-3.29887E-05-3.60588E-06-1.72748E-18-8.40022E-19
 -1      2232 1.07034E-04-3.13234E-05-3.24979E-05-2.54547E-06-1.46851E-18-8.27009E-19
 -1      2233 1.52290E-04-3.62708E-05-5.03015E-05-6.50224E-06 4.61718E-18-1.94648E-18
 -1      2234 1.50690E-04-4.47071E-05-4.56220E-05-1.17584E-06 3.82594E-18-1.70635E-18
 -1      2235 1.07761E-04-3.25972E-05-3.21415E-05-2.22446E-06-1.30128E-18-6.34843E-19
 -1      2236 1.07629E-04-3.33961E-05-3.18591E-05-2.36900E-06-1.13735E-18-7.49832E-19
 -1      2237 1.06723E-04-3.15095E-05-3.22491E-05-2.48864E-06-1.41185E-18-1.09384E-18
 -1      2238 1.08309E-04-3.42816E-05-3.16784E-05-3.00180E-06-9.98989E-19-4.64038E-19
 -1      2239 1.08080E-04-3.46742E-05-3.15043E-05-3.89199E-06-9.19305E-19-6.04419E-19
 -1      2240 1.08185E-04-3.42446E-05-3.17111E-05-2.64624E-06-1.08420E-18-8.95116E-19
 -1      2241 1.08567E-04-3.50799E-05-3.14776E-05-5.20375E-06-8.78840E-19-4.08426E-19
 -1      2242 1.08010E-04-3.48618E-05-3.13778E-05-6.39941E-06-8.28180E-19-3.64904E-19
 -1      2243 1.09446E-04-3.58776E-05-3.15344E-05-4.57042E-06-9.45938E-19-5.43272E-19
 -1      2244 1.07943E-04-3.44848E-05-3.15003E-05-7.85930E-06-8.46517E-19-3.74365E-19
 -1      2245 1.06908E-04-3.34502E-05-3.14708E-05-8.74721E-06-8.87762E-19-4.57585E-19
 -1      2246 1.09938E-04-3.59132E-05-3.17049E-05-7.48072E-06-9.48797E-19-4.57910E-19
 -1      2247 1.06013E-04-3.21136E-05-3.17213E-05-9.50257E-06-1.01365E-18-5.63790E-19
 -1      2248 1.04621E-04-3.03914E-05-3.17549E-05-9.37520E-06-9.90549E-19-7.35028E-19
 -1      2249 1.08975E-04-3.37448E-05-3.22024E-05-9.95901E-06-1.00425E-18-2.71638E-19
 -1      2250 1.03129E-04-2.84729E-05-3.20534E-05-8.54806E-06-8.60058E-19-1.02904E-18
 -1      2251 1.01856E-04-2.67435E-05-3.21146E-05-6.99001E-06-9.29387E-19-1.07775E-18
 -1      2252 1.06478E-04-2.96478E-05-3.29068E-05-1.00912E-05-1.17562E-18-9.31965E-19
 -1      2253 1.00601E-04-2.52233E-05-3.23284E-05-4.38495E-06-1.26430E-18-1.24807E-18
 -1      2254 1.00045E-04-2.44173E-05-3.23667E-05-1.70015E-06-1.45890E-18-1.45741E-18
 -1      2255 1.03580E-04-2.53545E-05-3.35559E-05-6.56676E-06-1.21159E-18-1.33868E-18
 -1      2256 9.99411E-05-2.43087E-05-3.23786E-05 1.79392E-06-1.59044E-18-1.70488E-18
 -1      2257 1.00426E-04-2.49600E-05-3.23600E-05 4.54723E-06-1.39784E-18-1.76732E-18
 -1      2258 1.02132E-04-2.33221E-05-3.38410E-05-6.94465E-09-1.72097E-18-1.62570E-18
 -1      2259 1.01536E-04-2.63439E-05-3.21524E-05 7.33191E-06-1.33036E-18-2.01933E-18
 -1      2260 1.02805E-04-2.80563E-05-3.20938E-05 9.03942E-06-1.08939E-18-2.31583E-18
 -1      2261 1.03212E-04-2.49268E-05-3.35914E-05 6.73983E-06-1.58117E-18-1.68727E-18
 -1      2262 1.04291E-04-3.00264E-05-3.17665E-05 1.00317E-05-8.65214E-19-2.36190E-18
 -1      2263 1.05723E-04-3.18677E-05-3.17122E-05 1.02386E-05-2.20385E-19-2.36370E-18
 -1      2264 1.05983E-04-2.91426E-05-3.29147E-05 1.06576E-05-1.05378E-18-2.08782E-18
 -1      2265 1.06664E-04-3.33792E-05-3.13915E-05 9.47404E-06-1.91079E-20-2.44614E-18
 -1      2266 1.07716E-04-3.46078E-05-3.13672E-05 8.48357E-06-1.82443E-20-2.45702E-18
 -1      2267 1.08548E-04-3.35460E-05-3.20972E-05 1.06810E-05-2.01744E-19-2.32487E-18
 -1      2268 1.07759E-04-3.51930E-05-3.11266E-05 6.74204E-06-1.43575E-19-2.43206E-18
 -1      2269 1.08214E-04-3.56089E-05-3.11248E-05 5.20021E-06 1.32183E-20-2.33010E-18
 -1      2270 1.09570E-04-3.62359E-05-3.13914E-05 7.85398E-06-5.89780E-20-2.25869E-18
 -1      2271 1.07558E-04-3.54037E-05-3.09712E-05 3.30414E-06-7.36356E-20-2.21307E-18
 -1      2272 1.07478E-04-3.52030E-05-3.09662E-05 1.76927E-06-3.29648E-20-2.07087E-18
 -1      2273 1.08925E-04-3.67912E-05-3.09013E-05 3.97040E-06 1.77031E-19-1.84223E-18
 -1      2274 1.06488E-04-3.45708E-05-3.08700E-05 2.11247E-07-2.83194E-19-2.16014E-18
 -1      2275 1.06048E-04-3.40546E-05-3.08389E-05-1.00293E-06-1.15693E-19-1.92307E-18
 -1      2276 1.07227E-04-3.58333E-05-3.06019E-05 3.86430E-07-1.94409E-19-1.66105E-18
 -1      2277 1.05014E-04-3.33132E-05-3.07667E-05-2.05750E-06 1.15891E-19-2.12351E-18
 -1      2278 1.04386E-04-3.27173E-05-3.06996E-05-2.85610E-06 3.17646E-19-1.83526E-18
 -1      2279 1.05158E-04-3.42115E-05-3.04181E-05-2.27134E-06-2.14914E-19-1.36310E-18
 -1      2280 1.03459E-04-3.20502E-05-3.06282E-05-3.43639E-06-1.44300E-19-2.10334E-18
 -1      2281 1.02766E-04-3.15055E-05-3.05278E-05-3.85485E-06-1.41478E-19-2.39981E-18
 -1      2282 1.03166E-04-3.25433E-05-3.02805E-05-3.90580E-06-1.72469E-19-1.80163E-18
 -1      2283 1.01997E-04-3.09822E-05-3.04472E-05-4.06769E-06-2.97959E-20-2.34267E-18
 -1      2284 1.01315E-04-3.05393E-05-3.03235E-05-4.19520E-06 3.32684E-20-2.44734E-18
 -1      2285 1.01450E-04-3.11385E-05-3.01455E-05-4.67750E-06-2.89715E-19-2.05848E-18
 -1      2286 1.00699E-04-3.01634E-05-3.02330E-05-4.15822E-06 3.34411E-19-2.33738E-18
 -1      2287 1.00070E-04-2.98271E-05-3.00982E-05-4.09095E-06 5.35116E-19-2.39334E-18
 -1      2288 1.00054E-04-3.00861E-05-2.99955E-05-4.82265E-06 2.00397E-19-1.88101E-18
 -1      2289 9.95847E-05-2.95738E-05-3.00020E-05-3.90408E-06 2.83072E-19-2.23871E-18
 -1      2290 9.90282E-05-2.93299E-05-2.98670E-05-3.72348E-06 3.22964E-19-1.71146E-18
 -1      2291 9.89457E-05-2.93600E-05-2.98299E-05-4.56404E-06 5.24076E-19-2.08560E-18
 -1      2292 9.86476E-05-2.91682E-05-2.97707E-05-3.46135E-06 3.69373E-20-2.00545E-18
 -1      2293 9.81709E-05-2.89968E-05-2.96437E-05-3.22775E-06-6.19010E-20-2.25114E-18
 -1      2294 9.80764E-05-2.88923E-05-2.96563E-05-4.07890E-06 1.54276E-19-2.10713E-18
 -1      2295 9.78724E-05-2.88989E-05-2.95522E-05-2.94127E-06-1.72968E-20-2.30157E-18
 -1      2296 9.74745E-05-2.87817E-05-2.94383E-05-2.69514E-06-1.19177E-19-2.80511E-18
 -1      2297 9.73963E-05-2.86113E-05-2.94842E-05-3.49454E-06-1.98844E-19-2.35818E-18
 -1      2298 9.72406E-05-2.87263E-05-2.93551E-05-2.41621E-06-7.90665E-20-3.08693E-18
 -1      2299 9.69161E-05-2.86481E-05-2.92567E-05-2.18217E-06-1.67676E-19-2.87404E-18
 -1      2300 9.68648E-05-2.84570E-05-2.93219E-05-2.89513E-06-3.95117E-19-2.45022E-18
 -1      2301 9.67334E-05-2.86198E-05-2.91837E-05-1.92872E-06-2.12091E-19-2.56281E-18
 -1      2302 9.64743E-05-2.85692E-05-2.91015E-05-1.71995E-06 5.04952E-20-2.14697E-18
 -1      2303 9.64506E-05-2.83841E-05-2.91750E-05-2.33153E-06-8.11177E-20-2.40775E-18
 -1      2304 9.63325E-05-2.85576E-05-2.90394E-05-1.50037E-06 4.27023E-19-2.07334E-18
 -1      2305 9.61297E-05-2.85261E-05-2.89725E-05-1.32232E-06 1.04038E-18-1.62883E-18
 -1      2306 9.61292E-05-2.83609E-05-2.90467E-05-1.83073E-06 3.51169E-19-2.96355E-18
 -1      2307 9.60206E-05-2.85242E-05-2.89210E-05-1.13883E-06 7.69091E-19-2.14451E-18
 -1      2308 9.58652E-05-2.85058E-05-2.88679E-05-9.92156E-07 3.00092E-19-2.33920E-18
 -1      2309 9.58817E-05-2.83661E-05-2.89380E-05-1.40365E-06 7.12544E-19-2.12352E-18
 -1      2310 9.57822E-05-2.85091E-05-2.88264E-05-8.43272E-07 4.59282E-19-1.88609E-18
 -1      2311 9.56655E-05-2.84994E-05-2.87851E-05-7.25875E-07 3.09364E-19-1.86452E-18
 -1      2312 9.56930E-05-2.83861E-05-2.88481E-05-1.05104E-06 4.92136E-19-1.92524E-18
 -1      2313 9.56033E-05-2.85052E-05-2.87523E-05-6.08122E-07-6.59418E-20-1.82898E-18
 -1      2314 9.55176E-05-2.85012E-05-2.87210E-05-5.16516E-07-2.06522E-19-1.48742E-18
 -1      2315 9.55510E-05-2.84123E-05-2.87757E-05-7.67736E-07 1.99038E-19-7.99383E-19
 -1      2316 9.54717E-05-2.85079E-05-2.86956E-05-4.25550E-07-4.83703E-19-1.72609E-18
 -1      2317 9.54104E-05-2.85074E-05-2.86725E-05-3.55756E-07-4.36805E-19-7.90551E-19
 -1      2318 9.54458E-05-2.84396E-05-2.87185E-05-5.45584E-07-1.47061E-19-9.33301E-19
 -1      2319 9.53772E-05-2.85140E-05-2.86532E-05-2.87069E-07-7.28961E-19-9.64125E-19
 -1      2320 9.53345E-05-2.85156E-05-2.86365E-05-2.35140E-07-2.70673E-19-5.79978E-19
 -1      2321 9.53692E-05-2.84654E-05-2.86743E-05-3.75322E-07-7.62165E-19-6.26072E-21
 -1      2322 9.53111E-05-2.85216E-05-2.86223E-05-1.84473E-07 8.69626E-20-9.23610E-19
 -1      2323 9.52825E-05-2.85243E-05-2.86105E-05-1.46789E-07 5.20110E-19-7.52466E-19
 -1      2324 9.53147E-05-2.84882E-05-2.86409E-05-2.47756E-07-3.17765E-19 1.46609E-19
 -1      2325 9.52665E-05-2.85295E-05-2.86002E-05-1.10344E-07 8.23571E-19-5.96904E-19
 -1      2326 9.52483E-05-2.85327E-05-2.85923E-05-8.37456E-08 4.71732E-19-6.92837E-19
 -1      2327 9.52769E-05-2.85076E-05-2.86162E-05-1.54412E-07 7.20955E-19-3.27786E-19
 -1      2328 9.52377E-05-2.85371E-05-2.85850E-05-5.82733E-08 1.53859E-19-3.71361E-19
 -1      2329 9.52269E-05-2.85403E-05-2.85799E-05-4.01085E-08 4.55163E-19-9.15246E-19
 -1      2330 9.52516E-05-2.85235E-05-2.85984E-05-8.78644E-08 5.81449E-19 2.45161E-19
 -1      2331 9.52203E-05-2.85439E-05-2.85750E-05-2.29156E-08 7.70036E-19-7.72016E-19
 -1      2332 9.52148E-05-2.85469E-05-2.85719E-05-1.10198E-08 7.47987E-19-1.93505E-19
 -1      2333 9.52355E-05-2.85362E-05-2.85858E-05-4.18348E-08 7.05196E-19 1.13287E-18
 -1      2334 9.52110E-05-2.85497E-05-2.85687E-05 6.74092E-11 2.28096E-19-7.51808E-19
 -1      2335 9.52090E-05-2.85524E-05-2.85670E-05 7.41555E-09-1.73672E-19-2.46783E-19
 -1      2336 9.52259E-05-2.85462E-05-2.85774E-05-1.11723E-08 2.72918E-19 5.47000E-19
 -1      2337 9.52072E-05-2.85547E-05-2.85651E-05 1.41102E-08-3.29690E-19-8.94374E-19
 -1      2338 9.52075E-05-2.85570E-05-2.85644E-05 1.82481E-08-1.05875E-18-4.10444E-19
 -1      2339 9.52210E-05-2.85538E-05-2.85719E-05 8.24551E-09-6.86427E-19-2.70150E-19
 -1      2340 9.52070E-05-2.85587E-05-2.85634E-05 2.18704E-08-9.63566E-19-4.61002E-19
 -1      2341 9.52086E-05-2.85607E-05-2.85633E-05 2.38133E-08-2.25378E-19-3.60851E-19
 -1      2342 9.52191E-05-2.85595E-05-2.85685E-05 1.96428E-08-8.34992E-19 2.41947E-19
 -1      2343 9.52090E-05-2.85620E-05-2.85629E-05 2.53571E-08-3.97999E-20-1.82638E-19
 -1      2344 9.52114E-05-2.85637E-05-2.85633E-05 2.58566E-08 5.60014E-19-3.89552E-20
 -1      2345 9.52193E-05-2.85638E-05-2.85668E-05 2.54843E-08 2.01750E-21 3.63333E-19
 -1      2346 9.52122E-05-2.85647E-05-2.85632E-05 2.60504E-08 1.54478E-18 9.04828E-19
 -1      2347 9.52149E-05-2.85660E-05-2.85638E-05 2.56459E-08 2.10311E-18 1.08282E-18
 -1      2348 9.52207E-05-2.85668E-05-2.85660E-05 2.76091E-08 1.37842E-18 1.51734E-18
 -1      2349 9.52160E-05-2.85668E-05-2.85640E-05 2.50066E-08 1.30617E-18 5.58247E-19
 -1      2350 9.52188E-05-2.85679E-05-2.85647E-05 2.40686E-08 1.22422E-18 6.97667E-19
 -1      2351 9.52228E-05-2.85690E-05-2.85659E-05 2.73506E-08 1.44463E-18 1.34698E-18
 -1      2352 9.52200E-05-2.85685E-05-2.85650E-05 2.29450E-08 1.22807E-18-3.30655E-20
 -1      2353 9.52227E-05-2.85694E-05-2.85657E-05 2.17109E-08 1.29880E-18-6.34829E-19
 -1      2354 9.52252E-05-2.85706E-05-2.85663E-05 2.56395E-08 3.60447E-19 1.11891E-19
 -1      2355 9.52239E-05-2.85699E-05-2.85661E-05 2.03198E-08 8.26201E-19-1.49757E-18
 -1      2356 9.52263E-05-2.85707E-05-2.85667E-05 1.89212E-08 3.65197E-19-1.91393E-18
 -1      2357 9.52277E-05-2.85718E-05-2.85668E-05 2.30888E-08 2.20429E-19-9.14244E-19
 -1      2358 9.52275E-05-2.85711E-05-2.85671E-05 1.73763E-08 1.27498E-18-1.33930E-18
 -1      2359 9.52296E-05-2.85719E-05-2.85676E-05 1.58651E-08 2.99878E-19-7.76937E-19
 -1      2360 9.52301E-05-2.85728E-05-2.85674E-05 2.00621E-08 9.70415E-19-8.49352E-20
 -1      2361 9.52308E-05-2.85723E-05-2.85679E-05 1.42070E-08-9.62544E-19 1.51088E-19
 -1      2362 9.52325E-05-2.85730E-05-2.85684E-05 1.25774E-08-5.88327E-19 1.17173E-18
 -1      2363 9.52324E-05-2.85737E-05-2.85680E-05 1.67385E-08 7.86790E-19 8.44999E-19
 -1      2364 1.18388E-04-4.00334E-05-3.36784E-05 1.77304E-06-8.20696E-20 2.08047E-18
 -1      2365 1.17797E-04-3.90444E-05-3.36972E-05-6.07866E-07 6.83119E-20 2.14889E-18
 -1      2366 1.20052E-04-4.09911E-05-3.39610E-05 7.99027E-06 9.10362E-20 2.05349E-18
 -1      2367 1.20442E-04-4.12213E-05-3.39369E-05 5.01726E-06-2.93550E-20 2.19813E-18
 -1      2368 1.20004E-04-4.25619E-05-3.32361E-05 2.30361E-06-3.09035E-20 1.61289E-18
 -1      2369 1.19166E-04-3.81505E-05-3.47313E-05 1.36366E-05 8.64146E-19 2.42462E-18
 -1      2370 1.20976E-04-4.04695E-05-3.45807E-05 1.16015E-05 3.98092E-19 2.21348E-18
 -1      2371 1.23210E-04-4.31632E-05-3.43093E-05 9.60753E-06 2.20470E-19 1.95865E-18
 -1      2372 1.15200E-04-3.11891E-05-3.59751E-05 1.41465E-05 1.71349E-18 2.26503E-18
 -1      2373 1.17935E-04-3.50919E-05-3.56967E-05 1.51006E-05 1.21950E-18 2.51860E-18
 -1      2374 1.22871E-04-3.82403E-05-3.62874E-05 1.55446E-05 1.05401E-18 2.06594E-18
 -1      2375 1.10910E-04-2.44114E-05-3.71054E-05 6.41814E-06 1.96993E-18 1.47244E-18
 -1      2376 1.12762E-04-2.71962E-05-3.68971E-05 1.09262E-05 2.09204E-18 1.93836E-18
 -1      2377 1.18712E-04-2.87961E-05-3.86741E-05 1.43215E-05 2.08836E-18 2.14976E-18
 -1      2378 1.10791E-04-2.41812E-05-3.72998E-05-6.08803E-06 2.26920E-18 4.56445E-19
 -1      2379 1.10114E-04-2.32207E-05-3.73442E-05-5.66246E-07 2.07287E-18 7.37527E-19
 -1      2380 1.14951E-04-2.17806E-05-4.01660E-05 3.43189E-06 2.73729E-18 9.53202E-19
 -1      2381 1.15282E-04-3.07901E-05-3.64534E-05-1.48068E-05 1.73846E-18-9.17112E-19
 -1      2382 1.12667E-04-2.70287E-05-3.67044E-05-1.17888E-05 2.19265E-18-3.22058E-19
 -1      2383 1.16246E-04-2.43795E-05-3.95972E-05-1.02367E-05 2.83661E-18-5.62853E-19
 -1      2384 1.20083E-04-3.83513E-05-3.51802E-05-1.49519E-05 1.24994E-18-1.68024E-18
 -1      2385 1.17581E-04-3.48718E-05-3.54188E-05-1.56432E-05 1.44189E-18-1.38820E-18
 -1      2386 1.21061E-04-3.33796E-05-3.76057E-05-1.71052E-05 2.04029E-18-1.99417E-18
 -1      2387 1.21368E-04-4.15980E-05-3.42164E-05-9.09903E-06 6.43242E-19-1.96288E-18
 -1      2388 1.20281E-04-4.02912E-05-3.43060E-05-1.18512E-05 9.19388E-19-1.69155E-18
 -1      2389 1.23657E-04-4.16971E-05-3.51199E-05-1.44122E-05 1.16439E-18-2.31568E-18
 -1      2390 1.19484E-04-4.08940E-05-3.36586E-05-2.07228E-06 3.15884E-19-1.46049E-18
 -1      2391 1.19701E-04-4.12818E-05-3.37103E-05-5.09965E-06 4.45513E-19-1.46683E-18
 -1      2392 1.21937E-04-4.38653E-05-3.35192E-05-6.43520E-06 2.37586E-19-2.02612E-18
 -1      2393 1.15978E-04-3.82357E-05-3.32861E-05 3.36161E-06 6.31162E-19-1.33382E-18
 -1      2394 1.17073E-04-3.93982E-05-3.33928E-05 1.12967E-06 4.54129E-19-1.16162E-18
 -1      2395 1.17731E-04-4.17974E-05-3.26048E-05 1.05330E-06 2.06175E-19-1.39932E-18
 -1      2396 1.12284E-04-3.54155E-05-3.29211E-05 6.45606E-06 8.07600E-19-1.35183E-18
 -1      2397 1.13756E-04-3.66391E-05-3.31191E-05 5.21487E-06 8.86473E-19-1.04682E-18
 -1      2398 1.12938E-04-3.80423E-05-3.21584E-05 5.97898E-06 6.73232E-19-1.18484E-18
 -1      2399 1.08996E-04-3.31700E-05-3.24845E-05 7.64752E-06 3.85607E-19-9.31012E-19
 -1      2400 1.10530E-04-3.41721E-05-3.27597E-05 7.20296E-06 7.83793E-19-8.02564E-19
 -1      2401 1.08865E-04-3.45989E-05-3.18728E-05 8.42790E-06 5.53885E-19-6.06434E-19
 -1      2402 1.06238E-04-3.15965E-05-3.19830E-05 7.60835E-06-3.75355E-19-7.63594E-19
 -1      2403 1.07678E-04-3.23362E-05-3.22986E-05 7.67429E-06-5.83990E-22-9.69217E-19
 -1      2404 1.05738E-04-3.20982E-05-3.15873E-05 9.08873E-06-1.43187E-19-2.94680E-19
 -1      2405 1.03962E-04-3.05563E-05-3.14566E-05 6.90514E-06-5.39448E-19-8.54367E-19
 -1      2406 1.05242E-04-3.10804E-05-3.17768E-05 7.24130E-06-5.77545E-19-7.43553E-19
 -1      2407 1.03395E-04-3.04996E-05-3.12571E-05 8.67213E-06-7.33570E-19-1.84753E-19
 -1      2408 1.02093E-04-2.98813E-05-3.09459E-05 5.92232E-06 2.22159E-19-1.52883E-18
 -1      2409 1.03190E-04-3.02491E-05-3.12452E-05 6.36597E-06 4.46065E-20-1.24277E-18
 -1      2410 1.01617E-04-2.95550E-05-3.08933E-05 7.70923E-06 8.74859E-20-4.32566E-19
 -1      2411 1.00564E-04-2.94404E-05-3.04795E-05 4.88827E-06 8.46382E-19-2.31427E-18
 -1      2412 1.01479E-04-2.97001E-05-3.07438E-05 5.34401E-06 3.14669E-19-1.94688E-18
 -1      2413 1.00231E-04-2.90258E-05-3.05232E-05 6.54345E-06 7.13348E-19-1.79886E-18
 -1      2414 9.93213E-05-2.91471E-05-3.00726E-05 3.92289E-06 8.21659E-19-1.33066E-18
 -1      2415 1.00067E-04-2.93321E-05-3.02966E-05 4.34200E-06 1.10133E-18-1.52304E-18
 -1      2416 9.91273E-05-2.87406E-05-3.01713E-05 5.37413E-06 5.36643E-19-8.54563E-19
 -1      2417 9.83219E-05-2.89478E-05-2.97297E-05 3.07894E-06-1.77666E-18-6.31609E-19
 -1      2418 9.89187E-05-2.90805E-05-2.99137E-05 3.44119E-06-3.33657E-19-8.96341E-19
 -1      2419 9.82397E-05-2.85921E-05-2.98540E-05 4.30399E-06-1.32760E-19 1.92812E-19
 -1      2420 9.75283E-05-2.88103E-05-2.94486E-05 2.37107E-06-2.57097E-18-5.39422E-19
 -1      2421 9.79973E-05-2.89055E-05-2.95961E-05 2.67209E-06-2.36238E-18-7.69465E-19
 -1      2422 9.75252E-05-2.85181E-05-2.95791E-05 3.37641E-06-1.95498E-18-3.45166E-19
 -1      2423 9.69069E-05-2.87148E-05-2.92233E-05 1.79421E-06-8.37974E-19-3.25301E-20
 -1      2424 9.72692E-05-2.87828E-05-2.93391E-05 2.03755E-06-1.79418E-18-5.41491E-19
 -1      2425 9.69539E-05-2.84843E-05-2.93484E-05 2.60092E-06-1.97958E-18-1.35217E-18
 -1      2426 9.64276E-05-2.86489E-05-2.90463E-05 1.33430E-06 7.18010E-19 1.31454E-18
 -1      2427 9.67029E-05-2.86968E-05-2.91356E-05 1.52690E-06 1.97703E-19 6.48695E-19
 -1      2428 9.65023E-05-2.84721E-05-2.91596E-05 1.96939E-06-7.43107E-19-9.08409E-19
 -1      2429 9.60638E-05-2.86043E-05-2.89097E-05 9.74213E-07 7.34059E-19 1.34229E-18
 -1      2430 9.62695E-05-2.86373E-05-2.89774E-05 1.12399E-06 1.03934E-18 1.36800E-18
 -1      2431 9.61502E-05-2.84716E-05-2.90084E-05 1.46565E-06 4.73961E-19 2.16964E-19
 -1      2432 9.57925E-05-2.85751E-05-2.88062E-05 6.96836E-07-4.09529E-19 1.88138E-18
 -1      2433 9.59433E-05-2.85971E-05-2.88565E-05 8.11452E-07 2.14652E-19 2.05828E-18
 -1      2434 9.58799E-05-2.84773E-05-2.88897E-05 1.07086E-06 3.82984E-19 4.54804E-19
 -1      2435 9.55939E-05-2.85570E-05-2.87291E-05 4.86500E-07-2.02659E-21 1.66684E-18
 -1      2436 9.57022E-05-2.85711E-05-2.87658E-05 5.72836E-07 9.44144E-21 1.77616E-18
 -1      2437 9.56761E-05-2.84862E-05-2.87980E-05 7.66409E-07-1.09889E-19 1.12350E-18
 -1      2438 9.54517E-05-2.85468E-05-2.86727E-05 3.29552E-07 8.66688E-19 9.63966E-19
 -1      2439 9.55277E-05-2.85551E-05-2.86990E-05 3.93526E-07 8.42982E-19 1.79445E-18
 -1      2440 9.55252E-05-2.84965E-05-2.87285E-05 5.35303E-07 8.96502E-19 1.18983E-18
 -1      2441 9.53525E-05-2.85420E-05-2.86324E-05 2.14460E-07 2.82907E-19-1.72214E-19
 -1      2442 9.54042E-05-2.85464E-05-2.86507E-05 2.61016E-07 3.12785E-19 4.67246E-19
 -1      2443 9.54159E-05-2.85071E-05-2.86767E-05 3.62701E-07 4.94053E-19 8.21307E-19
 -1      2444 9.52855E-05-2.85409E-05-2.86043E-05 1.31703E-07-3.61235E-19 1.09554E-18
 -1      2445 9.53193E-05-2.85426E-05-2.86167E-05 1.64889E-07-2.54256E-19 3.87911E-19
 -1      2446 9.53386E-05-2.85173E-05-2.86389E-05 2.36038E-07-3.62435E-19 3.00670E-19
 -1      2447 9.52422E-05-2.85421E-05-2.85854E-05 7.35522E-08 2.32198E-19 1.40120E-18
 -1      2448 9.52631E-05-2.85420E-05-2.85934E-05 9.66307E-08 3.11063E-19 1.40076E-18
 -1      2449 9.52856E-05-2.85267E-05-2.86119E-05 1.44907E-07-4.02575E-19 2.49478E-18
 -1      2450 9.52158E-05-2.85446E-05-2.85731E-05 3.38357E-08 2.55661E-19 2.11002E-18
 -1      2451 9.52276E-05-2.85435E-05-2.85779E-05 4.93938E-08-1.72373E-19 1.80706E-18
 -1      2452 9.52506E-05-2.85351E-05-2.85931E-05 8.08465E-08-1.24039E-19 3.76395E-18
 -1      2453 9.52015E-05-2.85479E-05-2.85656E-05 7.69118E-09-4.43518E-20 2.25504E-18
 -1      2454 9.52070E-05-2.85462E-05-2.85683E-05 1.77544E-08 3.78155E-19 2.23946E-18
 -1      2455 9.52288E-05-2.85424E-05-2.85804E-05 3.70794E-08 1.18769E-19 2.80425E-18
 -1      2456 9.51953E-05-2.85513E-05-2.85615E-05-8.65609E-09-1.50082E-19 3.26606E-18
 -1      2457 9.51967E-05-2.85494E-05-2.85627E-05-2.52518E-09-7.25136E-20 2.63130E-18
 -1      2458 9.52162E-05-2.85486E-05-2.85722E-05 8.26174E-09-2.81709E-19 2.72015E-18
 -1      2459 9.51944E-05-2.85547E-05-2.85598E-05-1.80933E-08-3.76402E-19 1.80898E-18
 -1      2460 9.51932E-05-2.85527E-05-2.85600E-05-1.47071E-08 2.20475E-20 2.49196E-18
 -1      2461 9.52101E-05-2.85538E-05-2.85673E-05-9.76039E-09 2.53873E-19 3.33384E-18
 -1      2462 9.51969E-05-2.85579E-05-2.85595E-05-2.27924E-08-8.43813E-19 6.20813E-19
 -1      2463 9.51941E-05-2.85560E-05-2.85591E-05-2.12640E-08-1.30123E-19 1.05168E-18
 -1      2464 9.52084E-05-2.85580E-05-2.85646E-05-2.01659E-08-8.93317E-20 2.08972E-18
 -1      2465 9.52012E-05-2.85607E-05-2.85602E-05-2.43563E-08-7.26821E-19 7.77051E-19
 -1      2466 9.51977E-05-2.85590E-05-2.85594E-05-2.40365E-08-1.99433E-18 6.12541E-19
 -1      2467 9.52093E-05-2.85615E-05-2.85635E-05-2.53464E-08-9.31935E-19 1.06795E-18
 -1      2468 9.52065E-05-2.85631E-05-2.85614E-05-2.39385E-08 6.86223E-19 1.39593E-18
 -1      2469 9.52027E-05-2.85616E-05-2.85605E-05-2.43654E-08 8.83177E-19 2.87949E-19
 -1      2470 9.52119E-05-2.85642E-05-2.85634E-05-2.70658E-08-1.59664E-19-2.18324E-19
 -1      2471 9.52120E-05-2.85653E-05-2.85629E-05-2.23411E-08-2.51554E-19 2.53981E-19
 -1      2472 9.52083E-05-2.85639E-05-2.85619E-05-2.31992E-08-2.75002E-19 4.54536E-19
 -1      2473 9.52153E-05-2.85664E-05-2.85639E-05-2.65915E-08 4.94876E-19 6.63118E-19
 -1      2474 9.52173E-05-2.85671E-05-2.85644E-05-2.00904E-08 8.69837E-19 1.10312E-18
 -1      2475 9.52139E-05-2.85660E-05-2.85634E-05-2.11794E-08 5.97684E-19 8.56879E-19
 -1      2476 9.52191E-05-2.85681E-05-2.85647E-05-2.48020E-08 1.01133E-20-2.65090E-19
 -1      2477 9.52223E-05-2.85687E-05-2.85658E-05-1.74961E-08 1.32425E-18 1.00947E-18
 -1      2478 9.52192E-05-2.85677E-05-2.85650E-05-1.87072E-08 1.04978E-18 1.82156E-18
 -1      2479 9.52229E-05-2.85696E-05-2.85657E-05-2.22711E-08 4.76523E-19 1.03972E-18
 -1      2480 9.52267E-05-2.85701E-05-2.85671E-05-1.46981E-08 5.27742E-19 9.06035E-19
 -1      2481 9.52240E-05-2.85692E-05-2.85664E-05-1.59959E-08 4.83227E-19 1.44426E-18
 -1      2482 9.52264E-05-2.85708E-05-2.85667E-05-1.93365E-08 8.73996E-19 1.80027E-18
 -1      2483 9.52305E-05-2.85715E-05-2.85682E-05-1.17010E-08 1.07166E-18 1.48831E-18
 -1      2484 9.52283E-05-2.85707E-05-2.85676E-05-1.31094E-08 1.03696E-18 1.83553E-18
 -1      2485 9.52297E-05-2.85719E-05-2.85676E-05-1.61650E-08 3.17950E-19 1.59348E-18
 -1      2486 9.52337E-05-2.85727E-05-2.85691E-05-8.48561E-09 4.88543E-19 2.38334E-18
 -1      2487 9.52319E-05-2.85720E-05-2.85686E-05-1.00137E-08 1.15326E-18 1.65321E-18
 -1      2488 9.52326E-05-2.85731E-05-2.85684E-05-1.27698E-08 1.21218E-18 1.89057E-18
 -1      2489 9.52350E-05-2.85731E-05-2.85694E-05-6.56813E-09-2.83129E-19 2.44756E-18
 -1      2490 9.52437E-05-2.85859E-05-2.85676E-05-9.60291E-09 1.37126E-18-2.20648E-18
 -1      2491 9.52427E-05-2.85844E-05-2.85678E-05-1.05571E-08 1.69804E-18-4.48260E-18
 -1      2492 9.52452E-05-2.85881E-05-2.85673E-05-6.69420E-09 2.70602E-18 6.79424E-20
 -1      2493 9.52445E-05-2.85870E-05-2.85675E-05-8.14891E-09 1.94916E-18-1.19503E-18
 -1      2494 9.52447E-05-2.85859E-05-2.85681E-05-1.00867E-08 2.55627E-18-1.25338E-18
 -1      2495 9.52391E-05-2.85795E-05-2.85683E-05-1.16402E-08-5.93410E-19 1.05509E-19
 -1      2496 9.52377E-05-2.85777E-05-2.85686E-05-1.12327E-08-1.27216E-18 2.04208E-19
 -1      2497 9.52416E-05-2.85829E-05-2.85679E-05-1.13534E-08-2.31989E-19-2.25810E-18
 -1      2498 9.52403E-05-2.85812E-05-2.85682E-05-1.16507E-08-1.06765E-18 6.57180E-19
 -1      2499 9.52395E-05-2.85800E-05-2.85684E-05-1.33569E-08-5.67660E-19-4.60098E-19
 -1      2500 9.52424E-05-2.85832E-05-2.85682E-05-1.24883E-08 1.42984E-18-1.51083E-18
 -1      2501 9.52461E-05-2.85894E-05-2.85671E-05-3.02377E-09 7.52318E-19 1.74340E-18
 -1      2502 9.52457E-05-2.85888E-05-2.85672E-05-4.78608E-09 1.89273E-18 7.59553E-19
 -1      2503 9.52463E-05-2.85878E-05-2.85679E-05-6.51010E-09 2.92819E-18-5.20898E-19
 -1      2504 9.52462E-05-2.85896E-05-2.85671E-05 9.77820E-10 1.81260E-19 3.53939E-19
 -1      2505 9.52463E-05-2.85896E-05-2.85671E-05-8.86011E-10-2.95261E-19 2.02905E-18
 -1      2506 9.52471E-05-2.85888E-05-2.85679E-05-2.21427E-09 1.16702E-18 1.04313E-18
 -1      2507 9.52457E-05-2.85888E-05-2.85672E-05 4.86761E-09-1.72962E-19-2.26748E-18
 -1      2508 9.52461E-05-2.85894E-05-2.85671E-05 3.11210E-09-1.91915E-20-1.31411E-18
 -1      2509 9.52471E-05-2.85888E-05-2.85679E-05 2.31955E-09 1.49101E-19-4.63655E-19
 -1      2510 9.52445E-05-2.85870E-05-2.85675E-05 8.15870E-09 3.10414E-19-2.88786E-18
 -1      2511 9.52452E-05-2.85881E-05-2.85673E-05 6.73600E-09 2.30684E-19-3.25448E-18
 -1      2512 9.52463E-05-2.85878E-05-2.85679E-05 6.56786E-09-8.39537E-20-2.49955E-18
 -1      2513 9.52426E-05-2.85844E-05-2.85678E-05 1.05560E-08 2.22604E-18-7.64411E-19
 -1      2514 9.52436E-05-2.85859E-05-2.85676E-05 9.60690E-09 1.94970E-18-1.89078E-18
 -1      2515 9.52447E-05-2.85859E-05-2.85681E-05 1.00968E-08 1.19116E-18-1.44134E-18
 -1      2516 9.52403E-05-2.85812E-05-2.85682E-05 1.16338E-08 9.03457E-19 1.99407E-18
 -1      2517 9.52415E-05-2.85829E-05-2.85680E-05 1.13527E-08 1.82236E-18 2.20596E-18
 -1      2518 9.52424E-05-2.85832E-05-2.85682E-05 1.24961E-08 2.69614E-18-2.74634E-19
 -1      2519 9.52377E-05-2.85776E-05-2.85686E-05 1.11380E-08-4.57367E-19-6.74073E-20
 -1      2520 9.52390E-05-2.85795E-05-2.85684E-05 1.16336E-08-3.58493E-19 4.08486E-19
 -1      2521 9.52395E-05-2.85799E-05-2.85684E-05 1.33289E-08 7.39216E-19 3.13139E-19
 -1      2522 9.23887E-05-5.18434E-05-1.73457E-05 4.08253E-05 1.99053E-19 9.49339E-19
 -1      2523 7.49439E-05-4.51690E-05-1.25062E-05 4.03263E-05-6.00335E-19 1.54202E-18
 -1      2524 9.52360E-05-2.85749E-05-2.85691E-05 8.21726E-09 3.94805E-19 1.46755E-18
 -1      2525 2.03121E-05-1.75878E-05-8.83534E-07-1.05274E-05 9.74617E-19 4.32072E-18
 -1      2526 2.80828E-05-2.21997E-05-2.30737E-06-2.61760E-05 1.39295E-18 4.57398E-18
 -1      2527 1.15763E-04-3.73735E-05-3.36690E-05-2.41615E-06 4.88056E-19 1.99427E-18
 -1      2528 1.14843E-04-3.60701E-05-3.36901E-05-3.59193E-06 6.62009E-19 2.14481E-18
 -1      2529 1.15658E-04-3.90336E-05-3.29078E-05-2.76034E-06 2.50786E-19 1.35389E-18
 -1      2530 2.44255E-05-1.98620E-05-1.69512E-06 1.77447E-05-1.84971E-19 3.95289E-18
 -1      2531 1.99942E-05-1.68310E-05-1.00357E-06 5.27283E-06-1.23296E-19 4.11362E-18
 -1      2532 4.30484E-05-3.07896E-05-5.02073E-06-3.62156E-05 2.34798E-18 3.83346E-18
 -1      2533 5.90992E-05-3.78659E-05-9.00051E-06-4.30895E-05 1.86983E-18 3.17267E-18
 -1      2534 1.04546E-04-2.39978E-05-3.45654E-05-7.72099E-06-2.11377E-18-1.58914E-18
 -1      2535 1.05903E-04-2.79484E-05-3.34638E-05-4.67854E-06-1.96972E-18-1.18688E-18
 -1      2536 1.04704E-04-2.74175E-05-3.31032E-05-4.14476E-06-1.70367E-18-1.48410E-18
 -1      2537 1.01106E-04-2.12804E-05-3.42284E-05-6.79794E-06-1.89296E-18-2.15787E-18
 -1      2538 1.24097E-04-5.95100E-05-2.79498E-05 2.87150E-05 1.08971E-18 4.23516E-20
 -1      2539 1.07614E-04-5.67833E-05-2.17793E-05 3.43082E-05 6.93720E-19 5.78100E-19
 -1      2540 1.06845E-04-5.61596E-05-2.14038E-05 3.41132E-05-7.43271E-19 3.14501E-19
 -1      2541 1.43164E-04-1.01103E-05-5.75252E-05-1.83754E-06-5.38120E-18-1.73208E-18
 -1      2542 1.44240E-04-1.35656E-05-5.64118E-05-4.54722E-06-5.72806E-18-1.05149E-18
 -1      2543 2.73708E-05-1.96445E-05-3.16620E-06 2.68013E-05 4.93185E-19-5.37760E-18
 -1      2544 1.91054E-05-1.61535E-05-1.01982E-06 1.27408E-05 7.25907E-19-5.97921E-18
 -1      2545 7.29363E-05-4.48531E-06-2.93938E-05 4.39993E-06 1.00313E-18-3.76249E-18
 -1      2546 7.52661E-05-5.75967E-06-2.97608E-05 4.19109E-06 7.49055E-19-3.79186E-18
 -1      2547 7.76044E-05-8.68843E-06-2.95523E-05 5.15051E-06 6.81517E-19-3.60038E-18
 -1      2548 7.22856E-05-5.08375E-06-2.87897E-05 5.05853E-06 1.03839E-18-3.64844E-18
 -1      2549 1.51675E-04-2.62805E-05-5.40213E-05 7.36451E-06 4.12759E-18-1.42302E-19
 -1      2550 1.51544E-04-1.97664E-05-5.69653E-05 6.33795E-06 4.99538E-18-3.41248E-19
 -1      2551 1.47087E-04-1.85198E-05-5.57314E-05-8.22588E-06 5.76554E-18-1.00024E-18
 -1      2552 1.49452E-04-2.53361E-05-5.34372E-05-9.50411E-06 5.37442E-18-1.40650E-18
 -1      2553 1.45870E-04-2.18293E-05-5.35477E-05-6.02161E-06-5.35050E-18-5.00808E-19
 -1      2554 1.43439E-04-3.11600E-05-4.85097E-05-5.10514E-06-4.58266E-18 1.75759E-20
 -1      2555 1.49967E-04-4.50817E-05-4.50948E-05 9.75170E-07 2.56535E-18-1.73854E-19
 -1      2556 1.53331E-04-3.71081E-05-5.03014E-05 4.75889E-06 3.38294E-18-1.74489E-19
 -1      2557 1.35463E-04-5.75812E-05-3.33400E-05-1.85195E-05 1.12624E-18-1.18945E-18
 -1      2558 1.45749E-04-5.44630E-05-3.96108E-05-1.00365E-05 1.77305E-18-2.48604E-19
 -1      2559 1.01959E-04-5.37551E-05-2.06562E-05-3.64146E-05 7.96211E-20-3.75093E-18
 -1      2560 1.20979E-04-5.74128E-05-2.75061E-05-3.14705E-05 6.50521E-19-2.33379E-18
 -1      2561 6.68139E-05-3.99757E-05-1.12669E-05-3.98844E-05-6.32310E-19-5.19263E-18
 -1      2562 8.47825E-05-4.72832E-05-1.60667E-05-4.20047E-05-1.04185E-19-5.01354E-18
 -1      2563 3.14790E-05-2.26185E-05-3.54930E-06-2.56016E-05-4.05835E-19-6.43046E-18
 -1      2564 4.54899E-05-2.86726E-05-7.09556E-06-3.57953E-05-2.11758E-19-5.93812E-18
 -1      2565 1.68305E-05-1.50406E-05-5.67105E-07-1.22779E-06 1.04622E-20-6.27990E-18
 -1      2566 2.08647E-05-1.73294E-05-1.34975E-06-1.50840E-05 2.06782E-19-6.45651E-18
 -1      2567 5.68036E-05-3.37875E-05-9.69894E-06 4.28012E-05 3.54060E-19-4.22648E-18
 -1      2568 4.27018E-05-2.75905E-05-6.19651E-06 3.61710E-05 7.78847E-19-4.61929E-18
 -1      2569 1.30197E-04-5.37980E-05-3.29573E-05 2.60947E-05-2.22600E-18-1.29194E-18
 -1      2570 1.16824E-04-5.38481E-05-2.69872E-05 3.18153E-05-1.28940E-18-1.74563E-18
 -1      2571 1.40964E-04-4.99037E-05-3.90915E-05-8.54973E-06 2.81612E-19-1.48612E-18
 -1      2572 1.46630E-04-4.33685E-05-4.47188E-05-3.27372E-06-9.31842E-19-2.43416E-18
 -1      2573 1.44931E-04-4.42048E-05-4.38039E-05 2.76269E-06-3.49650E-18 6.22569E-20
 -1      2574 1.39691E-04-5.02488E-05-3.82978E-05 1.38289E-05-2.99627E-18-6.92449E-19
 -1      2575 1.36527E-04-5.45002E-05-3.50106E-05 1.33834E-05-1.46156E-18-3.51519E-20
 -1      2576 1.45767E-04-1.41787E-05-5.67404E-05 4.64439E-06-4.47128E-18-2.61278E-18
 -1      2577 1.43981E-04-1.05915E-05-5.77260E-05 2.34447E-06-4.86282E-18-2.39731E-18
 -1      2578 1.46283E-04-3.22278E-05-4.92294E-05 3.03585E-06-2.00344E-18-2.57900E-18
 -1      2579 1.46833E-04-2.28669E-05-5.36817E-05 5.69252E-06-3.36823E-18-3.10014E-18
 -1      2580 1.41026E-04-3.83182E-05-4.41787E-05 7.04654E-06-7.97905E-19-3.66765E-18
 -1      2581 1.15220E-04-5.57769E-05-2.52993E-05-3.25948E-05 1.53906E-18 9.14796E-19
 -1      2582 1.31740E-04-5.59105E-05-3.29537E-05-2.39909E-05 8.70644E-19 7.19978E-21
 -1      2583 7.57239E-05-4.57420E-05-1.27447E-05-4.27145E-05 2.48392E-18 2.40801E-18
 -1      2584 9.42457E-05-5.08797E-05-1.88170E-05-4.27826E-05 1.95876E-18 1.87594E-18
 -1      2585 7.43450E-05-4.21626E-05-1.33654E-05-4.21342E-05 2.57286E-18 2.51622E-18
 -1      2586 5.30337E-05-3.43540E-05-7.87917E-06 3.87046E-05-7.37766E-19 2.15549E-18
 -1      2587 3.56123E-05-2.66708E-05-3.56200E-06 2.83566E-05-5.99488E-19 3.34049E-18
 -1      2588 3.85469E-05-2.14068E-05-6.74085E-06 2.39896E-05-1.10411E-18 3.15244E-18
 -1      2589 1.11372E-04-2.99098E-05-3.49320E-05 5.74212E-07 2.32072E-18 2.78739E-18
 -1      2590 1.11415E-04-2.81912E-05-3.56845E-05 3.65740E-06 2.51900E-18 3.14055E-18
 -1      2591 1.08010E-04-2.51157E-05-3.55877E-05 4.24054E-06 2.75921E-18 2.12894E-18
 -1      2592 1.08423E-04-2.84145E-05-3.43391E-05-4.27949E-07 2.32238E-18 1.64657E-18
 -1      2593 1.47992E-04-5.30838E-05-4.09931E-05 8.47128E-06 3.00458E-18-1.64642E-18
 -1      2594 1.37027E-04-5.75595E-05-3.41171E-05 1.57080E-05 2.02822E-18-1.12486E-18
 -1      2595 1.46602E-04-5.05566E-05-4.11444E-05-3.19341E-06 2.31836E-18-2.51653E-18
 -1      2596 1.36053E-04-1.73265E-05-5.11948E-05 9.50272E-06 4.54518E-18 1.18368E-18
 -1      2597 1.45126E-04-1.58486E-05-5.56840E-05 5.37837E-06 5.42440E-18 2.37593E-19
 -1      2598 1.34934E-04-1.21743E-05-5.33687E-05 3.44186E-06 5.43901E-18 7.72123E-19
 -1      2599 9.05456E-05-1.66903E-05-3.16837E-05 6.75041E-07-4.14629E-19-3.24172E-18
 -1      2600 9.03171E-05-1.47958E-05-3.24210E-05-1.13832E-06-6.41697E-19-3.42629E-18
 -1      2601 9.32884E-05-1.63867E-05-3.29942E-05-2.77798E-06-1.03198E-18-3.18151E-18
 -1      2602 1.11935E-04-3.50036E-05-3.30335E-05-4.68130E-06 9.43487E-19 1.20200E-18
 -1      2603 1.03187E-04-2.17417E-05-3.49539E-05 3.40570E-06 2.85905E-18 9.08231E-19
 -1      2604 1.33735E-04-6.07332E-05-3.11383E-05 1.68638E-05 7.53436E-19-1.69068E-18
 -1      2605 1.42518E-04-3.80510E-05-4.49988E-05-5.24933E-06-3.65156E-18 2.81427E-19
 -1      2606 1.38565E-04-4.31984E-05-4.09870E-05-4.27756E-06-2.69939E-18 6.25851E-19
 -1      2607 1.34730E-04-3.09623E-05-4.50373E-05-1.18808E-05-3.74134E-18 8.07964E-19
 -1      2608 4.30816E-05-2.47853E-05-7.27137E-06-3.11964E-05 2.27524E-18 3.44107E-18
 -1      2609 1.36334E-04-5.51328E-05-3.47144E-05-1.15835E-05 1.17055E-18-1.55621E-18
 -1      2610 9.52352E-05-2.85742E-05-2.85690E-05-9.00040E-09-2.88874E-19 1.03380E-18
 -1      2611 9.52360E-05-2.85755E-05-2.85688E-05-1.00874E-08-1.30239E-20 1.01645E-18
 -1      2612 1.34600E-04-9.13059E-06-5.40739E-05 3.21806E-07-4.84101E-18-1.91050E-18
 -1      2613 7.10644E-05-4.00216E-05-1.28530E-05 3.83959E-05-1.75759E-18 1.57654E-18
 -1      2614 1.35300E-04-1.69924E-05-5.10394E-05-8.98487E-06-4.83529E-18-2.34416E-19
 -1      2615 9.52345E-05-2.85738E-05-2.85689E-05 9.74264E-09 3.27923E-19 1.49470E-18
 -1      2616 9.52364E-05-2.85760E-05-2.85687E-05 1.08140E-08 1.43583E-19 6.65548E-19
 -1      2617 9.52364E-05-2.85765E-05-2.85685E-05 1.29045E-08-8.72998E-19 1.13872E-18
 -1      2618 9.52332E-05-2.85733E-05-2.85686E-05 1.13584E-08-2.53289E-19 1.05668E-18
 -1      2619 7.33220E-05-3.97529E-05-1.41033E-05 4.16959E-05 1.31841E-18-3.35213E-18
 -1      2620 2.75419E-05-1.48408E-05-4.80305E-06-3.52557E-06 3.22243E-19 3.84299E-18
 -1      2621 1.02173E-04-2.28088E-05-3.39728E-05 7.88782E-07 2.56173E-18 6.14079E-19
 -1      2622 2.42482E-05-1.20835E-05-4.64207E-06 6.00509E-06 6.26831E-19-6.02685E-18
 -1      2623 3.29596E-05-1.67642E-05-6.37409E-06-2.05263E-05-2.72003E-19-6.42326E-18
 -1      2624 4.12126E-05-2.15082E-05-7.88747E-06 3.13202E-05 1.42005E-18-4.93312E-18
 -1      2625 6.33963E-05-3.39285E-05-1.21275E-05-3.69829E-05-1.17780E-18-5.20216E-18
 -1      2626 1.00732E-04-5.23404E-05-2.03855E-05-3.60295E-05-1.36881E-18-3.15333E-18
 -1      2627 1.30604E-04-5.98317E-05-3.01716E-05-2.08250E-05-3.66448E-19-6.22569E-19
 -1      2628 1.46227E-04-5.13784E-05-4.06123E-05 1.22618E-06 1.27966E-18 9.36395E-19
 -1      2629 1.10758E-04-5.42639E-05-2.41701E-05 3.51426E-05-2.46910E-19-1.95156E-18
 -1      2630 1.02342E-04-5.07623E-05-2.15789E-05 3.74816E-05 1.03232E-18-1.71222E-18
 -1      2631 1.20102E-04-5.67996E-05-2.74262E-05 2.76603E-05 5.40195E-19-6.77044E-19
 -1      2632 9.81885E-05-1.95702E-05-3.37418E-05-5.22205E-06-1.56320E-18-2.62689E-18
 -1      2633 1.44285E-04-3.20582E-05-4.82858E-05-1.24630E-05 4.27487E-18-1.83849E-18
 -1      2634 1.42977E-04-1.60770E-05-5.48269E-05-7.00399E-06 5.79455E-18-7.71647E-19
 -1      2635 1.34205E-04-1.74675E-05-5.01821E-05-1.15356E-05 5.05615E-18-8.07169E-19
 -1      2636 1.34663E-04-1.27927E-05-5.30877E-05-4.52018E-06 5.52816E-18-4.64809E-20
 -1      2637 1.45812E-04-3.16660E-05-4.90963E-05 1.16058E-05 3.09379E-18 1.13714E-18
 -1      2638 1.37571E-04-1.84636E-05-5.12660E-05 8.91187E-06-3.48808E-18-3.14969E-18
 -1      2639 1.09705E-04-5.57466E-05-2.28320E-05-3.49836E-05 2.47312E-18 7.80753E-19
 -1      2640 9.52359E-05-2.85759E-05-2.85686E-05-1.23107E-08 1.02519E-19 3.09009E-19
 -1      2641 9.52342E-05-2.85745E-05-2.85684E-05 1.37059E-08-6.66679E-19 1.49460E-18
 -1      2642 6.98749E-05-4.30781E-06-2.80968E-05-1.80927E-07 1.53060E-18-3.26993E-18
 -1      2643 6.84869E-05-3.61255E-06-2.78348E-05 1.10138E-06 1.40486E-18-3.45815E-18
 -1      2644 6.81832E-05-3.57016E-06-2.77331E-05 3.31520E-06 1.38060E-18-3.56076E-18
 -1      2645 6.89412E-05-4.10429E-06-2.77708E-05 4.53097E-06 1.24878E-18-3.49882E-18
 -1      2646 6.78411E-05-4.54113E-06-2.70548E-05 2.26562E-06 1.35360E-18-3.43242E-18
 -1      2647 8.45273E-05-1.33591E-05-3.04705E-05-3.59078E-06 1.95314E-18-1.95818E-18
 -1      2648 8.00028E-05-1.07552E-05-2.97476E-05-3.67370E-06 1.83942E-18-2.26373E-18
 -1      2649 9.43675E-05-1.95346E-05-3.20482E-05-2.76607E-06 2.14293E-18-7.94035E-19
 -1      2650 8.94228E-05-1.65333E-05-3.12782E-05-3.35458E-06 1.96404E-18-1.43473E-18
 -1      2651 8.77711E-05-1.71666E-05-3.02748E-05-5.45424E-06 1.70016E-18-1.60442E-18
 -1      2652 1.06596E-04-3.04253E-05-3.26607E-05-5.06275E-06 1.38498E-18 5.69574E-19
 -1      2653 1.05594E-04-2.84107E-05-3.30068E-05-3.71212E-06 1.64373E-18 6.54787E-19
 -1      2654 2.94743E-05-9.95363E-06-7.96813E-06 1.31842E-05 1.08727E-18-5.32106E-18
 -1      2655 2.78419E-05-9.01495E-06-7.55867E-06-1.64863E-06 6.04821E-19-5.66750E-18
 -1      2656 1.41888E-04-4.65462E-05-4.15640E-05-1.01651E-05 2.59568E-18-2.78409E-18
 -1      2657 1.41761E-04-5.38601E-05-3.76742E-05-2.96222E-06 1.53099E-18-2.75180E-18
 -1      2658 7.08755E-05-3.73467E-05-1.38511E-05-3.96087E-05 2.50785E-18 1.56828E-18
 -1      2659 8.56420E-05-4.57121E-05-1.71121E-05-4.11272E-05 2.78970E-18 1.61831E-18
 -1      2660 1.10021E-04-3.51520E-05-3.21245E-05-6.22750E-06 6.98326E-19 6.54181E-19
 -1      2661 1.08367E-04-3.27683E-05-3.23040E-05-6.19893E-06 1.00685E-18 6.54588E-19
 -1      2662 1.03969E-04-3.00553E-05-3.17394E-05-6.67406E-06 1.18047E-18 4.19099E-20
 -1      2663 1.35132E-04-4.20392E-05-4.01279E-05 7.85745E-06 3.73224E-20-3.61725E-18
 -1      2664 1.33765E-04-3.31170E-05-4.38171E-05 1.13743E-05-1.36891E-18-3.55828E-18
 -1      2665 1.07765E-04-3.38496E-05-3.16114E-05-1.48734E-06-9.09418E-19-1.05951E-18
 -1      2666 1.08487E-04-3.52527E-05-3.14386E-05-1.94033E-06-8.12728E-19-9.64598E-19
 -1      2667 1.10210E-04-3.67282E-05-3.14360E-05-2.98592E-06-7.29859E-19-7.26981E-19
 -1      2668 1.10708E-04-3.74357E-05-3.14551E-05-4.23189E-06-7.60496E-19-7.21275E-19
 -1      2669 1.09531E-04-3.66163E-05-3.12861E-05-1.46774E-06-7.26463E-19-8.73217E-19
 -1      2670 1.12052E-04-3.79807E-05-3.17276E-05-6.10426E-06-7.84509E-19-4.38048E-19
 -1      2671 1.11950E-04-3.74896E-05-3.19459E-05-7.63664E-06-8.59411E-19-3.34109E-19
 -1      2672 1.12708E-04-3.90118E-05-3.15986E-05-4.31363E-06-6.85981E-19-4.30427E-19
 -1      2673 1.12276E-04-3.65122E-05-3.25134E-05-9.63953E-06-9.64665E-19-1.31128E-19
 -1      2674 1.11294E-04-3.44549E-05-3.29126E-05-1.06044E-05-1.03193E-18-1.71988E-19
 -1      2675 1.14514E-04-3.85487E-05-3.25419E-05-8.36519E-06-8.72410E-19-1.17529E-19
 -1      2676 1.10101E-04-3.17343E-05-3.36981E-05-1.13403E-05-1.31452E-18-2.75100E-19
 -1      2677 1.08537E-04-2.86469E-05-3.41675E-05-1.06686E-05-1.50422E-18-5.92793E-19
 -1      2678 1.13667E-04-3.40649E-05-3.40781E-05-1.16178E-05-1.41389E-18-5.18146E-20
 -1      2679 1.06466E-04-2.53877E-05-3.48958E-05-8.83000E-06-1.50792E-18-9.42311E-19
 -1      2680 1.05187E-04-2.28773E-05-3.52335E-05-6.17054E-06-1.50006E-18-1.26218E-18
 -1      2681 1.10287E-04-2.68559E-05-3.57546E-05-1.10302E-05-1.80542E-18-4.00011E-19
 -1      2682 1.04013E-04-2.11830E-05-3.55614E-05-1.98510E-06-1.61411E-18-1.74455E-18
 -1      2683 1.03906E-04-2.10194E-05-3.55777E-05 1.74621E-06-1.96340E-18-1.61557E-18
 -1      2684 1.07002E-04-2.07210E-05-3.70509E-05-4.80073E-06-1.82604E-18-1.32288E-18
 -1      2685 1.04728E-04-2.23155E-05-3.52928E-05 6.09407E-06-1.85733E-18-2.03994E-18
 -1      2686 1.05906E-04-2.46234E-05-3.49640E-05 8.99368E-06-1.57469E-18-2.07854E-18
 -1      2687 1.06598E-04-2.02601E-05-3.71107E-05 4.35332E-06-1.90203E-18-2.09900E-18
 -1      2688 1.07859E-04-2.78865E-05-3.42118E-05 1.11209E-05-1.34329E-18-1.91806E-18
 -1      2689 1.09442E-04-3.10932E-05-3.37028E-05 1.19606E-05-6.21126E-19-1.93363E-18
 -1      2690 1.09584E-04-2.58651E-05-3.59076E-05 1.11046E-05-1.41033E-18-2.17938E-18
 -1      2691 1.10762E-04-3.40909E-05-3.28287E-05 1.13448E-05-4.84271E-19-2.09840E-18
 -1      2692 1.11780E-04-3.64766E-05-3.23392E-05 1.03289E-05-3.13966E-19-2.14006E-18
 -1      2693 1.13026E-04-3.35028E-05-3.40397E-05 1.22687E-05-6.87648E-19-1.55389E-18
 -1      2694 1.11624E-04-3.78903E-05-3.16185E-05 8.09066E-06-1.07896E-19-2.23120E-18
 -1      2695 1.11701E-04-3.87736E-05-3.12596E-05 6.17669E-06 3.44052E-19-2.18101E-18
 -1      2696 1.14176E-04-3.88393E-05-3.22371E-05 8.89544E-06-3.17362E-19-1.83976E-18
 -1      2697 1.10381E-04-3.86472E-05-3.07868E-05 3.71100E-06 4.70029E-19-1.75037E-18
 -1      2698 1.09722E-04-3.83359E-05-3.05665E-05 1.75816E-06 3.98440E-19-1.37023E-18
 -1      2699 1.12559E-04-4.04001E-05-3.09190E-05 3.88219E-06 4.97907E-19-1.80945E-18
 -1      2700 1.07951E-04-3.73413E-05-3.03045E-05-1.87100E-07 1.00312E-19-1.02503E-18
 -1      2701 1.06939E-04-3.64269E-05-3.01811E-05-1.72766E-06-1.14287E-19-9.98791E-19
 -1      2702 1.09342E-04-3.90996E-05-3.01278E-05-5.65645E-07 4.90733E-19-1.48203E-18
 -1      2703 1.05246E-04-3.51861E-05-3.00566E-05-2.96828E-06-4.15690E-19-7.27425E-19
 -1      2704 1.04184E-04-3.41419E-05-2.99832E-05-3.97847E-06-3.60637E-19-8.26803E-19
 -1      2705 1.05810E-04-3.65232E-05-2.97279E-05-3.65007E-06-1.85760E-19-5.12367E-19
 -1      2706 1.02810E-04-3.30187E-05-2.99289E-05-4.61055E-06-3.86836E-19-8.43879E-19
 -1      2707 1.01859E-04-3.20996E-05-2.98709E-05-5.14483E-06-5.18897E-19-1.26197E-18
 -1      2708 1.02725E-04-3.38266E-05-2.95586E-05-5.38851E-06-6.07835E-19-1.77036E-19
 -1      2709 1.00847E-04-3.12342E-05-2.98422E-05-5.33859E-06-1.86098E-19-1.53839E-18
 -1      2710 1.00059E-04-3.05289E-05-2.97816E-05-5.51149E-06 2.00927E-19-1.07253E-18
 -1      2711 1.00345E-04-3.15786E-05-2.94950E-05-6.09811E-06-5.63157E-19-9.51295E-20
 -1      2712 9.93559E-05-2.99319E-05-2.97547E-05-5.42278E-06 7.24197E-22-1.10000E-18
 -1      2713 9.87288E-05-2.94387E-05-2.96858E-05-5.35179E-06 1.83890E-19-1.08113E-18
 -1      2714 9.86431E-05-2.99374E-05-2.94618E-05-6.11674E-06-3.73400E-21-3.21109E-19
 -1      2715 9.82581E-05-2.90650E-05-2.96516E-05-5.09963E-06 5.05061E-19-1.52474E-18
 -1      2716 9.77666E-05-2.87454E-05-2.95756E-05-4.88269E-06 4.47254E-19-1.39282E-18
 -1      2717 9.74827E-05-2.88555E-05-2.94225E-05-5.71519E-06 8.01457E-20-1.02211E-18
 -1      2718 9.74584E-05-2.85363E-05-2.95331E-05-4.55065E-06 9.25989E-20-1.83203E-18
 -1      2719 9.70751E-05-2.83450E-05-2.94540E-05-4.26084E-06-2.92967E-19-1.87597E-18
 -1      2720 9.67147E-05-2.82123E-05-2.93652E-05-5.08840E-06-1.15296E-19-1.81597E-18
 -1      2721 9.68751E-05-2.82475E-05-2.94057E-05-3.90438E-06-2.09999E-19-2.31651E-18
 -1      2722 9.65763E-05-2.81443E-05-2.93282E-05-3.59197E-06 1.27533E-19-1.97375E-18
 -1      2723 9.62146E-05-2.78806E-05-2.92906E-05-4.36884E-06-1.26856E-19-2.44200E-18
 -1      2724 9.64464E-05-2.81170E-05-2.92775E-05-3.24576E-06 1.90010E-19-1.94674E-18
 -1      2725 9.62135E-05-2.80710E-05-2.92051E-05-2.94264E-06 1.55497E-19-1.68757E-18
 -1      2726 9.58907E-05-2.77536E-05-2.92048E-05-3.64222E-06 2.21577E-20-1.60061E-18
 -1      2727 9.61283E-05-2.80844E-05-2.91554E-05-2.62657E-06-4.85361E-19-1.73279E-18
 -1      2728 9.59473E-05-2.80734E-05-2.90903E-05-2.35096E-06-7.49953E-19-1.86407E-18
 -1      2729 9.56803E-05-2.77515E-05-2.91146E-05-2.96051E-06 5.07612E-21-9.46779E-19
 -1      2730 9.58904E-05-2.81077E-05-2.90439E-05-2.07476E-06-3.43322E-19-2.10880E-18
 -1      2731 9.57504E-05-2.81167E-05-2.89875E-05-1.83534E-06 6.17649E-19-2.34667E-18
 -1      2732 9.55421E-05-2.78185E-05-2.90262E-05-2.35193E-06-5.30030E-19-5.09352E-19
 -1      2733 9.57116E-05-2.81593E-05-2.89459E-05-1.60198E-06 8.09079E-19-2.46417E-18
 -1      2734 9.56043E-05-2.81784E-05-2.88983E-05-1.40116E-06 6.01495E-19-2.48514E-18
 -1      2735 9.54498E-05-2.79178E-05-2.89437E-05-1.82846E-06 4.74135E-19-1.41479E-18
 -1      2736 9.55773E-05-2.82220E-05-2.88622E-05-1.20942E-06 6.87746E-19-2.31129E-18
 -1      2737 9.54959E-05-2.82449E-05-2.88231E-05-1.04575E-06 8.03895E-19-1.79364E-18
 -1      2738 9.53870E-05-2.80266E-05-2.88699E-05-1.39149E-06 5.78592E-19-2.70568E-18
 -1      2739 9.54766E-05-2.82854E-05-2.87927E-05-8.91983E-07 5.37011E-19-1.57832E-18
 -1      2740 9.54158E-05-2.83086E-05-2.87612E-05-7.61899E-07 9.01971E-20-9.02472E-19
 -1      2741 9.53433E-05-2.81316E-05-2.88060E-05-1.03593E-06 6.49522E-19-1.89689E-18
 -1      2742 9.54018E-05-2.83439E-05-2.87362E-05-6.41307E-07 7.21472E-20-8.34174E-19
 -1      2743 9.53570E-05-2.83654E-05-2.87115E-05-5.40270E-07 1.16842E-19-3.80405E-19
 -1      2744 9.53124E-05-2.82260E-05-2.87522E-05-7.53168E-07 8.83442E-20-1.43844E-18
 -1      2745 9.53468E-05-2.83950E-05-2.86913E-05-4.47691E-07-2.22188E-19-8.97339E-19
 -1      2746 9.53145E-05-2.84139E-05-2.86723E-05-3.70942E-07-5.82849E-19-6.68016E-19
 -1      2747 9.52903E-05-2.83069E-05-2.87079E-05-5.33077E-07-1.50577E-19-1.94303E-18
 -1      2748 9.53069E-05-2.84379E-05-2.86564E-05-3.01373E-07-1.13459E-18 3.49050E-19
 -1      2749 9.52842E-05-2.84538E-05-2.86421E-05-2.44376E-07-2.01307E-19-1.45818E-19
 -1      2750 9.52742E-05-2.83736E-05-2.86723E-05-3.65322E-07-3.80550E-20-1.24774E-18
 -1      2751 9.52786E-05-2.84727E-05-2.86298E-05-1.93257E-07 3.88518E-19-6.69291E-20
 -1      2752 9.52630E-05-2.84857E-05-2.86192E-05-1.51936E-07 7.45832E-19-7.87060E-19
 -1      2753 9.52626E-05-2.84272E-05-2.86442E-05-2.40166E-07-4.26457E-19-3.66155E-20
 -1      2754 9.52590E-05-2.85002E-05-2.86099E-05-1.15288E-07 5.23287E-19-9.99246E-19
 -1      2755 9.52487E-05-2.85105E-05-2.86023E-05-8.61323E-08 6.23449E-19-2.00940E-19
 -1      2756 9.52541E-05-2.84691E-05-2.86226E-05-1.48897E-07 3.60583E-19-1.06632E-18
 -1      2757 9.52458E-05-2.85215E-05-2.85954E-05-6.05955E-08 1.01041E-18-1.82950E-19
 -1      2758 9.52394E-05-2.85295E-05-2.85901E-05-4.06780E-08 5.59007E-19 2.02561E-19
 -1      2759 9.52480E-05-2.85011E-05-2.86062E-05-8.40154E-08 3.71691E-19-1.76851E-18
 -1      2760 9.52373E-05-2.85375E-05-2.85851E-05-2.34946E-08 6.31132E-20 4.28435E-19
 -1      2761 9.52337E-05-2.85437E-05-2.85815E-05-1.04374E-08-1.76357E-19-1.18474E-19
 -1      2762 9.52437E-05-2.85249E-05-2.85940E-05-3.92573E-08 1.74484E-19-1.99317E-18
 -1      2763 9.52323E-05-2.85494E-05-2.85780E-05 6.03903E-10-9.96781E-19 1.95140E-19
 -1      2764 9.52305E-05-2.85540E-05-2.85757E-05 8.68590E-09-1.84721E-18-4.11795E-19
 -1      2765 9.52407E-05-2.85423E-05-2.85852E-05-9.52237E-09-1.27347E-18-6.89540E-19
 -1      2766 9.52296E-05-2.85579E-05-2.85733E-05 1.53196E-08-7.24018E-19-1.50735E-19
 -1      2767 9.52291E-05-2.85613E-05-2.85720E-05 1.98877E-08-2.28509E-19 1.56365E-19
 -1      2768 9.52387E-05-2.85546E-05-2.85790E-05 9.24730E-09-8.47260E-19 1.49652E-19
 -1      2769 9.52285E-05-2.85639E-05-2.85704E-05 2.34448E-08-5.00934E-19 4.09324E-19
 -1      2770 9.52289E-05-2.85663E-05-2.85697E-05 2.56060E-08 4.55207E-19 7.06308E-19
 -1      2771 9.52374E-05-2.85631E-05-2.85748E-05 2.02111E-08-1.68091E-19-4.56000E-19
 -1      2772 9.52285E-05-2.85680E-05-2.85687E-05 2.70845E-08 8.57412E-19 6.45477E-19
 -1      2773 9.52293E-05-2.85697E-05-2.85684E-05 2.76563E-08 1.29482E-18 9.70863E-19
 -1      2774 9.52366E-05-2.85687E-05-2.85720E-05 2.57752E-08 2.45104E-19-4.63882E-20
 -1      2775 9.52291E-05-2.85707E-05-2.85679E-05 2.77849E-08 1.01690E-18 1.39498E-19
 -1      2776 9.52302E-05-2.85719E-05-2.85678E-05 2.73522E-08 3.05370E-19-6.45132E-19
 -1      2777 9.52362E-05-2.85722E-05-2.85703E-05 2.77278E-08 4.73500E-19-1.51244E-18
 -1      2778 9.52302E-05-2.85725E-05-2.85676E-05 2.66448E-08 5.23750E-20-4.86301E-19
 -1      2779 9.52314E-05-2.85733E-05-2.85677E-05 2.56082E-08-7.80685E-20-1.30462E-18
 -1      2780 9.52361E-05-2.85744E-05-2.85693E-05 2.73603E-08 1.30836E-20-1.50969E-18
 -1      2781 9.52314E-05-2.85736E-05-2.85676E-05 2.44100E-08 5.88289E-19-9.60476E-19
 -1      2782 9.52326E-05-2.85742E-05-2.85679E-05 2.30251E-08 6.29469E-19-4.46733E-19
 -1      2783 9.52361E-05-2.85756E-05-2.85688E-05 2.55707E-08 5.83755E-19-1.97041E-18
 -1      2784 9.52328E-05-2.85744E-05-2.85679E-05 2.15507E-08 7.42860E-19-3.43071E-19
 -1      2785 9.52339E-05-2.85750E-05-2.85681E-05 1.99587E-08 1.10838E-18 4.81324E-20
 -1      2786 9.52364E-05-2.85764E-05-2.85686E-05 2.29470E-08 5.46923E-19-7.63615E-19
 -1      2787 9.52342E-05-2.85752E-05-2.85681E-05 1.83258E-08 1.27821E-18-1.04949E-18
 -1      2788 9.52352E-05-2.85757E-05-2.85684E-05 1.65898E-08 1.09036E-18-7.45589E-19
 -1      2789 9.52368E-05-2.85769E-05-2.85685E-05 1.98405E-08 8.68299E-19-2.56575E-18
 -1      2790 1.26605E-04-4.65462E-05-3.43750E-05 8.50598E-06 1.35138E-19 1.71441E-18
 -1      2791 1.25536E-04-4.73240E-05-3.34905E-05 4.80059E-06-1.17092E-19 1.68810E-18
 -1      2792 8.81509E-05-4.46772E-05-1.84642E-05 4.09410E-05 1.53715E-18-2.49965E-18
 -1      2793 7.09499E-05-3.46503E-05-1.50572E-05 3.94677E-05 1.98619E-18-2.93264E-18
 -1      2794 1.21286E-04-4.55528E-05-3.25473E-05 6.09081E-07-1.27035E-19 1.12355E-18
 -1      2795 1.19098E-04-4.36414E-05-3.22056E-05-2.37822E-06-2.81393E-19 1.12023E-18
 -1      2796 1.23914E-04-4.88504E-05-3.23505E-05-4.49305E-07-3.49957E-19 1.05754E-18
 -1      2797 1.22571E-04-2.50326E-05-4.20306E-05 1.37245E-05 2.71760E-18 2.25877E-18
 -1      2798 1.25710E-04-3.22829E-05-4.05274E-05 1.65933E-05 1.96988E-18 2.21181E-18
 -1      2799 1.23112E-04-2.24098E-05-4.37097E-05-1.27358E-05 3.67146E-18-1.23849E-18
 -1      2800 1.20876E-04-1.73974E-05-4.46897E-05-6.78309E-06 3.96051E-18-4.47075E-19
 -1      2801 1.26101E-04-3.80424E-05-3.83908E-05-1.72645E-05 2.05998E-18-2.22490E-18
 -1      2802 1.23802E-04-3.12954E-05-3.97961E-05-1.70239E-05 2.83385E-18-1.96191E-18
 -1      2803 1.30981E-04-4.81426E-05-3.56428E-05-1.04378E-05 1.03890E-18-2.42377E-18
 -1      2804 1.30822E-04-4.38065E-05-3.74397E-05-1.42024E-05 1.60566E-18-2.43773E-18
 -1      2805 1.22700E-04-4.69770E-05-3.23625E-05-8.64067E-07-3.38482E-19-1.67273E-18
 -1      2806 1.24429E-04-4.77668E-05-3.28741E-05-4.75013E-06 9.25251E-20-2.03274E-18
 -1      2807 1.15547E-04-4.21445E-05-3.13500E-05 5.76659E-06-3.76301E-20-1.28832E-18
 -1      2808 1.18119E-04-4.44259E-05-3.16607E-05 2.86591E-06-3.47065E-19-1.52850E-18
 -1      2809 1.19694E-04-4.77537E-05-3.09911E-05 4.53320E-06-3.25315E-19-1.56594E-18
 -1      2810 1.09504E-04-3.69998E-05-3.09981E-05 9.25780E-06 5.93753E-19-7.55219E-19
 -1      2811 1.11856E-04-3.93205E-05-3.11377E-05 7.66675E-06 4.72499E-19-6.56977E-19
 -1      2812 1.11476E-04-4.15126E-05-3.01120E-05 9.63968E-06-2.23936E-19-1.02453E-18
 -1      2813 1.05174E-04-3.30572E-05-3.08649E-05 1.04245E-05 4.55301E-20 1.23074E-19
 -1      2814 1.07025E-04-3.48096E-05-3.09694E-05 9.84000E-06 4.53942E-19-4.46133E-19
 -1      2815 1.05357E-04-3.57020E-05-2.99414E-05 1.16248E-05 2.13496E-19 4.39183E-20
 -1      2816 1.02307E-04-3.05226E-05-3.07455E-05 1.02031E-05-8.10146E-19 3.45650E-19
 -1      2817 1.03683E-04-3.16597E-05-3.08681E-05 1.02637E-05-2.00188E-19 2.00108E-19
 -1      2818 1.01472E-04-3.16125E-05-2.99909E-05 1.17389E-05-3.89807E-19 3.16039E-19
 -1      2819 1.00436E-04-2.90775E-05-3.05762E-05 9.26158E-06-3.17587E-19-2.06544E-19
 -1      2820 1.01459E-04-2.97481E-05-3.07244E-05 9.67847E-06-6.86580E-19 5.40838E-20
 -1      2821 9.91989E-05-2.91639E-05-3.00402E-05 1.08906E-05-5.24979E-19 5.54978E-19
 -1      2822 9.91775E-05-2.83442E-05-3.03580E-05 8.01500E-06 5.50738E-19-8.85340E-19
 -1      2823 9.99589E-05-2.87103E-05-3.05211E-05 8.59012E-06 1.38699E-19-5.03837E-19
 -1      2824 9.79111E-05-2.78893E-05-3.00203E-05 9.60933E-06 2.95245E-19-4.13462E-19
 -1      2825 9.82833E-05-2.80281E-05-3.01131E-05 6.70689E-06 6.70451E-20-3.14065E-19
 -1      2826 9.88969E-05-2.82128E-05-3.02774E-05 7.31823E-06 4.63523E-19-4.61258E-19
 -1      2827 9.71712E-05-2.73451E-05-2.99297E-05 8.19223E-06 1.33181E-19 2.22648E-19
 -1      2828 9.76106E-05-2.79365E-05-2.98647E-05 5.46992E-06 7.70112E-19 1.27496E-19
 -1      2829 9.81015E-05-2.80195E-05-3.00193E-05 6.04950E-06 5.01663E-19 2.57660E-20
 -1      2830 9.67164E-05-2.72093E-05-2.97904E-05 6.80345E-06 3.13172E-19 1.20403E-18
 -1      2831 9.70828E-05-2.79552E-05-2.96302E-05 4.36824E-06-4.98237E-19 4.98369E-19
 -1      2832 9.74783E-05-2.79841E-05-2.97685E-05 4.88325E-06 4.71346E-19 4.91702E-19
 -1      2833 9.64059E-05-2.72786E-05-2.96270E-05 5.52971E-06 2.19764E-19 1.09105E-18
 -1      2834 9.66595E-05-2.80214E-05-2.94197E-05 3.42510E-06-2.01730E-18-2.23516E-19
 -1      2835 9.69773E-05-2.80229E-05-2.95388E-05 3.86395E-06-1.19000E-18 5.59851E-19
 -1      2836 9.61706E-05-2.74356E-05-2.94591E-05 4.41099E-06-8.20267E-19 1.36767E-18
 -1      2837 9.63182E-05-2.81026E-05-2.92380E-05 2.64048E-06-1.41187E-18-1.25113E-18
 -1      2838 9.65714E-05-2.80911E-05-2.93375E-05 3.00346E-06-1.68038E-18-1.02339E-18
 -1      2839 9.59798E-05-2.76173E-05-2.92997E-05 3.45885E-06-9.61267E-19 6.15068E-19
 -1      2840 9.60447E-05-2.81831E-05-2.90856E-05 2.00218E-06-1.00673E-18-9.85963E-19
 -1      2841 9.62439E-05-2.81662E-05-2.91667E-05 2.29563E-06-1.41389E-18-1.70169E-18
 -1      2842 9.58204E-05-2.77931E-05-2.91562E-05 2.66820E-06-1.31596E-18-7.12915E-19
 -1      2843 9.58281E-05-2.82561E-05-2.89609E-05 1.49257E-06 9.81379E-19-5.13505E-19
 -1      2844 9.59824E-05-2.82378E-05-2.90257E-05 1.72536E-06 4.02291E-19-4.48270E-19
 -1      2845 9.56869E-05-2.79497E-05-2.90320E-05 2.02491E-06-6.35883E-19-1.43047E-18
 -1      2846 9.56592E-05-2.83194E-05-2.88610E-05 1.09246E-06-3.96877E-19 3.09828E-19
 -1      2847 9.57769E-05-2.83016E-05-2.89118E-05 1.27405E-06 4.16797E-19-3.41517E-21
 -1      2848 9.55767E-05-2.80829E-05-2.89276E-05 1.51079E-06 2.05091E-19-6.43623E-19
 -1      2849 9.55300E-05-2.83727E-05-2.87825E-05 7.83251E-07 4.84025E-19 4.81221E-19
 -1      2850 9.56181E-05-2.83563E-05-2.88216E-05 9.22671E-07-4.89143E-21 6.91537E-19
 -1      2851 9.54874E-05-2.81932E-05-2.88419E-05 1.10661E-06-3.33149E-20 7.35078E-19
 -1      2852 9.54330E-05-2.84167E-05-2.87218E-05 5.48024E-07 3.94482E-19 1.06333E-18
 -1      2853 9.54976E-05-2.84022E-05-2.87514E-05 6.53376E-07 6.01492E-19 6.88575E-19
 -1      2854 9.54167E-05-2.82826E-05-2.87731E-05 7.93853E-07 2.48839E-19 2.95859E-19
 -1      2855 9.53617E-05-2.84525E-05-2.86757E-05 3.71984E-07 6.19842E-19 7.98019E-19
 -1      2856 9.54081E-05-2.84400E-05-2.86977E-05 4.50274E-07 1.01293E-18 1.31571E-18
 -1      2857 9.53619E-05-2.83539E-05-2.87188E-05 5.55648E-07 7.09753E-19 1.31017E-18
 -1      2858 9.53107E-05-2.84813E-05-2.86414E-05 2.42552E-07-9.26088E-19 8.73223E-19
 -1      2859 9.53431E-05-2.84708E-05-2.86574E-05 2.99676E-07-2.27251E-19 9.40236E-19
 -1      2860 9.53204E-05-2.84101E-05-2.86768E-05 3.77208E-07 4.14776E-19 1.35074E-18
 -1      2861 9.52751E-05-2.85042E-05-2.86163E-05 1.49265E-07-2.81104E-19 1.21022E-18
 -1      2862 9.52970E-05-2.84954E-05-2.86277E-05 1.90084E-07-8.61643E-19 6.48737E-19
 -1      2863 9.52899E-05-2.84538E-05-2.86448E-05 2.45914E-07-7.41015E-19 1.23956E-19
 -1      2864 9.52513E-05-2.85221E-05-2.85983E-05 8.35756E-08 5.27009E-20 2.40666E-18
 -1      2865 9.52654E-05-2.85149E-05-2.86062E-05 1.12029E-07-1.01144E-19 2.25605E-18
 -1      2866 9.52679E-05-2.84874E-05-2.86208E-05 1.51233E-07-6.54697E-19-2.91520E-19
 -1      2867 9.52360E-05-2.85359E-05-2.85858E-05 3.86169E-08 9.31284E-20 1.82118E-18
 -1      2868 9.52446E-05-2.85301E-05-2.85911E-05 5.78463E-08 2.41131E-19 2.14038E-18
 -1      2869 9.52527E-05-2.85128E-05-2.86033E-05 8.45382E-08 2.05454E-19 8.29985E-19
 -1      2870 9.52270E-05-2.85465E-05-2.85774E-05 8.95512E-09-3.70843E-19 1.42055E-18
 -1      2871 9.52316E-05-2.85418E-05-2.85808E-05 2.14299E-08 6.35536E-20 1.71148E-18
 -1      2872 9.52425E-05-2.85317E-05-2.85907E-05 3.88820E-08 3.20017E-19 5.43405E-19
 -1      2873 9.52223E-05-2.85544E-05-2.85720E-05-9.64296E-09-1.41814E-19 2.04079E-18
 -1      2874 9.52242E-05-2.85507E-05-2.85740E-05-2.01210E-09-1.28242E-19 2.25071E-18
 -1      2875 9.52360E-05-2.85455E-05-2.85819E-05 8.75877E-09-5.34225E-19 1.18650E-18
 -1      2876 9.52205E-05-2.85602E-05-2.85687E-05-2.04231E-08-4.28889E-20 2.28754E-18
 -1      2877 9.52207E-05-2.85574E-05-2.85698E-05-1.61813E-08 7.74752E-20 2.77443E-18
 -1      2878 9.52323E-05-2.85554E-05-2.85760E-05-1.01261E-08-4.90458E-19 2.60706E-18
 -1      2879 9.52206E-05-2.85644E-05-2.85669E-05-2.58305E-08-6.46929E-19 1.22833E-18
 -1      2880 9.52198E-05-2.85623E-05-2.85673E-05-2.38898E-08-1.34395E-19 2.55426E-18
 -1      2881 9.52304E-05-2.85624E-05-2.85721E-05-2.10671E-08-2.47651E-19 2.48464E-18
 -1      2882 9.52219E-05-2.85674E-05-2.85662E-05-2.76694E-08 1.03601E-18 4.25453E-20
 -1      2883 9.52205E-05-2.85658E-05-2.85662E-05-2.72342E-08 3.50378E-21 6.38180E-19
 -1      2884 9.52297E-05-2.85671E-05-2.85698E-05-2.65464E-08 5.00369E-19 1.56885E-18
 -1      2885 9.52239E-05-2.85696E-05-2.85661E-05-2.72364E-08 8.16905E-19-6.63633E-19
 -1      2886 9.52221E-05-2.85684E-05-2.85659E-05-2.77417E-08 1.10040E-18 7.04907E-20
 -1      2887 9.52299E-05-2.85703E-05-2.85685E-05-2.83946E-08 9.65155E-19-4.05507E-19
 -1      2888 9.52261E-05-2.85711E-05-2.85664E-05-2.54297E-08 5.71096E-20-1.35303E-18
 -1      2889 9.52243E-05-2.85701E-05-2.85661E-05-2.64910E-08 6.48901E-19-1.15544E-18
 -1      2890 9.52306E-05-2.85723E-05-2.85679E-05-2.79259E-08 1.26897E-18-1.27314E-18
 -1      2891 9.52285E-05-2.85722E-05-2.85670E-05-2.28360E-08 5.92942E-19-1.19994E-18
 -1      2892 9.52266E-05-2.85715E-05-2.85665E-05-2.42098E-08-5.76059E-20-1.45921E-18
 -1      2893 9.52316E-05-2.85736E-05-2.85678E-05-2.60488E-08 3.27227E-19-2.02526E-18
 -1      2894 9.52307E-05-2.85731E-05-2.85675E-05-1.98019E-08 2.99065E-19-1.88592E-19
 -1      2895 9.52290E-05-2.85725E-05-2.85671E-05-2.13524E-08 3.84586E-19-5.28988E-19
 -1      2896 9.52328E-05-2.85744E-05-2.85679E-05-2.33569E-08 4.25326E-19-2.85562E-18
 -1      2897 9.52329E-05-2.85740E-05-2.85681E-05-1.64856E-08 9.28186E-20-3.06100E-19
 -1      2898 9.52314E-05-2.85734E-05-2.85677E-05-1.81535E-08 3.73569E-20-4.23848E-19
 -1      2899 9.52340E-05-2.85751E-05-2.85681E-05-2.02047E-08-5.64399E-20-1.91877E-18
 -1      2900 9.52351E-05-2.85752E-05-2.85685E-05-1.35411E-08 1.14968E-18-4.88940E-19
 -1      2901 9.52338E-05-2.85747E-05-2.85682E-05-1.53538E-08 1.06149E-18-6.89469E-19
 -1      2902 9.52357E-05-2.85762E-05-2.85683E-05-1.72659E-08 3.29087E-19-2.37160E-18
 -1      2903 9.52373E-05-2.85775E-05-2.85685E-05-1.46664E-08-6.76716E-19-1.02066E-18
 -1      2904 9.52487E-05-2.85886E-05-2.85686E-05-1.26051E-09 7.54153E-19 1.65308E-19
 -1      2905 9.52485E-05-2.85884E-05-2.85686E-05-3.58623E-09 2.35920E-18-3.50694E-19
 -1      2906 9.52354E-05-2.85759E-05-2.85684E-05 1.54115E-08 7.18652E-19-1.57672E-19
 -1      2907 9.52361E-05-2.85763E-05-2.85685E-05 1.41387E-08-1.80277E-19 6.73402E-19
 -1      2908 9.52372E-05-2.85774E-05-2.85685E-05 1.69801E-08 1.15144E-18-3.46500E-18
 -1      2909 9.52463E-05-2.85862E-05-2.85686E-05-1.03021E-08 2.52384E-18-7.40051E-19
 -1      2910 9.52451E-05-2.85850E-05-2.85686E-05-1.18924E-08 2.47396E-18-2.25980E-18
 -1      2911 9.52485E-05-2.85883E-05-2.85686E-05 3.70566E-09 3.89000E-19-1.30534E-18
 -1      2912 9.52487E-05-2.85886E-05-2.85686E-05 1.38407E-09 3.11134E-19-5.68620E-19
 -1      2913 9.52501E-05-2.85884E-05-2.85693E-05 7.05333E-11 6.24335E-19-1.07760E-18
 -1      2914 9.52480E-05-2.85879E-05-2.85686E-05-6.10177E-09 2.36352E-18 3.08674E-19
 -1      2915 9.52473E-05-2.85872E-05-2.85686E-05-8.18067E-09 2.53322E-18 1.31844E-19
 -1      2916 9.52479E-05-2.85865E-05-2.85692E-05-1.00776E-08 1.61283E-18-4.32702E-19
 -1      2917 9.52496E-05-2.85879E-05-2.85693E-05-5.27071E-09 1.96087E-18 4.56630E-20
 -1      2918 1.15055E-04-4.05819E-05-3.19814E-05-4.51775E-06-9.18898E-20 1.01768E-18
 -1      2919 1.12879E-04-3.79699E-05-3.19704E-05-5.95413E-06 2.47769E-19 8.65544E-19
 -1      2920 1.08610E-04-3.62311E-05-3.11399E-05-8.13548E-06 3.59714E-19 3.51406E-19
 -1      2921 1.15468E-04-4.31359E-05-3.11515E-05-6.43272E-06-2.05726E-19 5.01394E-19
 -1      2922 9.52472E-05-2.85871E-05-2.85686E-05 8.20637E-09 5.26632E-20-2.40119E-18
 -1      2923 9.52480E-05-2.85879E-05-2.85686E-05 6.17106E-09-3.78284E-19-1.61315E-18
 -1      2924 9.52495E-05-2.85879E-05-2.85693E-05 5.35871E-09 5.43515E-19-2.18935E-18
 -1      2925 9.52451E-05-2.85850E-05-2.85686E-05 1.19015E-08 1.82768E-18-3.29169E-19
 -1      2926 9.52463E-05-2.85862E-05-2.85686E-05 1.03189E-08 8.54636E-19-1.32946E-18
 -1      2927 9.52479E-05-2.85864E-05-2.85692E-05 1.01043E-08 4.87532E-19-4.99187E-19
 -1      2928 9.52421E-05-2.85821E-05-2.85686E-05 1.42261E-08 3.25470E-18-1.03820E-19
 -1      2929 9.52437E-05-2.85836E-05-2.85685E-05 1.33747E-08 3.35508E-18-3.47009E-19
 -1      2930 9.52451E-05-2.85841E-05-2.85690E-05 1.38319E-08 1.81861E-18 7.06181E-19
 -1      2931 1.37438E-04-5.97353E-05-3.37507E-05 7.61916E-06 8.66038E-19-2.29959E-18
 -1      2932 1.27443E-04-6.02073E-05-2.85615E-05 1.78981E-05-1.77453E-19-1.61503E-18
 -1      2933 4.82025E-05-2.35263E-05-1.03383E-05 2.94260E-05-1.79105E-18 1.82641E-18
 -1      2934 3.75424E-05-1.63398E-05-8.56202E-06 1.76590E-05-1.19564E-18 2.59277E-18
 -1      2935 1.02374E-04-2.54637E-05-3.29798E-05-3.66054E-06-1.49228E-18-1.97908E-18
 -1      2936 1.03682E-04-2.79410E-05-3.25139E-05-2.50198E-06-1.39815E-18-1.72430E-18
 -1      2937 8.44399E-05-4.39306E-05-1.73189E-05 3.74979E-05-1.53260E-18 1.37844E-18
 -1      2938 6.54638E-05-3.27748E-05-1.33878E-05 3.46354E-05-2.15040E-18 2.12055E-18
 -1      2939 3.24362E-05-1.13662E-05-8.42561E-06-1.30153E-05-8.79855E-20-6.03257E-18
 -1      2940 4.12507E-05-1.66851E-05-1.02880E-05-2.46274E-05-4.28810E-19-5.65839E-18
 -1      2941 9.52377E-05-2.85779E-05-2.85685E-05 1.45297E-08 2.35749E-19-9.66988E-19
 -1      2942 1.30949E-04-5.78851E-05-3.09778E-05-1.49735E-05 1.81059E-18-1.33641E-18
 -1      2943 1.36064E-04-5.26889E-05-3.61680E-05-2.64686E-06 6.63134E-19-2.85577E-18
 -1      2944 1.27135E-04-3.90663E-05-3.78336E-05 1.54957E-05 1.28439E-18 2.27893E-18
 -1      2945 1.28658E-04-4.43516E-05-3.63677E-05 1.35637E-05 6.67912E-19 2.08685E-18
 -1      2946 1.32414E-04-3.76383E-05-4.08454E-05 1.62241E-05 1.61545E-18 2.51770E-18
 -1      2947 1.05391E-04-3.02213E-05-3.21594E-05-1.93219E-06-1.18042E-18-1.44193E-18
 -1      2948 1.06138E-04-3.20482E-05-3.18006E-05-1.38155E-06-1.03898E-18-1.28452E-18
 -1      2949 1.06157E-04-3.27967E-05-3.14754E-05-5.32225E-07-9.19913E-19-1.18393E-18
 -1      2950 1.03056E-04-2.84181E-05-3.20172E-05-1.22209E-06-1.13262E-18-1.77640E-18
 -1      2951 1.14411E-04-5.80326E-05-2.44154E-05 2.89636E-05-7.74188E-19-2.93927E-19
 -1      2952 1.01145E-04-5.20870E-05-2.05986E-05 3.35130E-05-1.34308E-18-6.12246E-20
 -1      2953 1.34355E-04-3.02909E-05-4.54357E-05-1.58635E-05 3.64838E-18-1.52889E-18
 -1      2954 1.38736E-04-3.92997E-05-4.28299E-05-1.57381E-05 2.92660E-18-2.40388E-18
 -1      2955 7.57708E-05-7.85496E-06-2.90632E-05-2.74598E-06 1.83265E-18-2.51169E-18
 -1      2956 7.24925E-05-6.07365E-06-2.85273E-05-2.01972E-06 1.61195E-18-2.92975E-18
 -1      2957 7.09348E-05-6.38948E-06-2.75990E-05-2.11649E-06 1.38113E-18-2.94825E-18
 -1      2958 7.79478E-05-1.09725E-05-2.87341E-05-4.95279E-06 1.52934E-18-2.32555E-18
 -1      2959 4.06570E-05-1.89037E-05-8.83455E-06-2.51165E-05 1.57950E-18 3.20750E-18
 -1      2960 5.45072E-05-2.78212E-05-1.11281E-05-3.60766E-05 2.13039E-18 2.60007E-18
 -1      2961 8.39123E-05-1.43780E-05-2.98434E-05 5.62332E-06 4.28835E-19-3.37296E-18
 -1      2962 8.74480E-05-1.64456E-05-3.04037E-05 4.36521E-06 1.77735E-19-3.26442E-18
 -1      2963 1.38455E-04-3.42768E-05-4.49475E-05 1.42287E-05 2.35962E-18 1.69237E-18
 -1      2964 1.36504E-04-2.61888E-05-4.80217E-05 1.38499E-05 3.27865E-18 1.47765E-18
 -1      2965 1.41214E-04-5.47912E-05-3.69121E-05 9.31366E-07 4.40431E-19 1.30231E-18
 -1      2966 1.42597E-04-4.74123E-05-4.13906E-05 8.89416E-06 1.30618E-18 1.43403E-18
 -1      2967 1.23622E-04-5.88433E-05-2.75064E-05-2.24652E-05-1.37939E-18-4.00594E-19
 -1      2968 1.34295E-04-5.98908E-05-3.24595E-05-1.23997E-05-4.64068E-19 6.06793E-19
 -1      2969 9.67984E-05-4.83898E-05-2.03222E-05-3.45174E-05-1.77485E-18-2.48845E-18
 -1      2970 1.11861E-04-5.54970E-05-2.42691E-05-3.06703E-05-1.48983E-18-1.24460E-18
 -1      2971 1.19863E-04-5.60246E-05-2.69648E-05-2.17193E-05-1.77676E-18-3.65733E-19
 -1      2972 5.20498E-05-2.25989E-05-1.23444E-05 3.48003E-05 1.80820E-18-3.96496E-18
 -1      2973 3.92853E-05-1.46163E-05-9.89755E-06 2.43877E-05 1.71259E-18-4.78637E-18
 -1      2974 5.80765E-05-2.63884E-05-1.29279E-05-3.24616E-05-1.19718E-18-4.85848E-18
 -1      2975 7.66878E-05-3.79266E-05-1.65253E-05-3.77018E-05-1.40967E-18-4.09540E-18
 -1      2976 9.72317E-05-2.01226E-05-3.30692E-05-3.46186E-06-1.24951E-18-2.64133E-18
 -1      2977 3.25696E-05-1.22054E-05-8.28889E-06 4.24078E-06-3.94982E-19 2.91909E-18
 -1      2978 3.34054E-05-1.28854E-05-8.31372E-06-1.17853E-05 3.94611E-19 2.51971E-18
 -1      2979 1.27132E-04-9.32556E-06-5.10235E-05 4.06041E-06-4.16380E-18-2.20213E-18
 -1      2980 1.25894E-04-8.74740E-06-5.08107E-05-2.33661E-06-4.50791E-18-1.46627E-18
 -1      2981 1.31248E-04-2.16548E-05-4.73460E-05 1.18613E-05-2.73782E-18-3.73647E-18
 -1      2982 1.29259E-04-1.40716E-05-5.00795E-05 8.52044E-06-3.50714E-18-2.76487E-18
 -1      2983 1.22510E-04-1.28837E-05-4.73648E-05 6.83398E-06-3.15964E-18-2.57585E-18
 -1      2984 1.35724E-04-5.26484E-05-3.60556E-05 5.43967E-06-1.20762E-18 3.10173E-19
 -1      2985 1.31067E-04-5.65660E-05-3.17613E-05 1.50870E-05-1.84653E-19 1.04079E-19
 -1      2986 1.01924E-04-5.24740E-05-2.07181E-05-3.58984E-05 3.10618E-18 1.15369E-18
 -1      2987 1.18063E-04-5.80584E-05-2.61713E-05-2.83204E-05 2.36470E-18 1.02756E-19
 -1      2988 1.02342E-04-2.43752E-05-3.34259E-05-1.26256E-06 2.21994E-18 3.54632E-19
 -1      2989 1.26951E-04-1.30114E-05-4.94447E-05-7.78952E-06-4.40012E-18-6.42474E-19
 -1      2990 1.28573E-04-2.00649E-05-4.70188E-05-1.14272E-05-4.15893E-18 3.13508E-19
 -1      2991 9.08970E-05-1.86333E-05-3.09859E-05 2.70688E-06-9.02272E-20-3.01426E-18
 -1      2992 9.40642E-05-2.05198E-05-3.15429E-05 1.11793E-06-4.95587E-19-2.85672E-18
 -1      2993 9.09011E-05-2.03414E-05-3.02606E-05 4.89626E-06 9.27708E-20-2.82076E-18
 -1      2994 9.80134E-05-4.87912E-05-2.06972E-05-3.47681E-05 2.83978E-18 1.11591E-18
 -1      2995 6.97518E-05-6.15317E-06-2.72081E-05 6.35801E-06 1.23189E-18-3.33653E-18
 -1      2996 7.08639E-05-5.69070E-06-2.79994E-05 6.12928E-06 1.17993E-18-3.45326E-18
 -1      2997 7.33805E-05-7.22283E-06-2.83058E-05 6.63911E-06 1.02815E-18-3.48240E-18
 -1      2998 1.27595E-04-2.73470E-05-4.32272E-05 1.32782E-05-1.77559E-18-3.55097E-18
 -1      2999 3.70458E-05-9.21288E-06-1.12255E-05-6.21693E-06 4.21293E-19-5.50720E-18
 -1      3000 1.37098E-04-5.67082E-05-3.45641E-05-1.11356E-07 8.70644E-19-2.55523E-18
 -1      3001 1.24219E-04-5.57569E-05-2.92481E-05 1.97641E-05 5.20978E-19-2.47519E-19
 -1      3002 1.34721E-04-4.86042E-05-3.71568E-05 4.36250E-06 1.77970E-19-3.29824E-18
 -1      3003 1.29012E-04-4.24656E-05-3.72576E-05 9.88049E-06-3.31243E-19-3.47559E-18
 -1      3004 1.30774E-04-5.15043E-05-3.37931E-05 1.64801E-07 4.05543E-19-2.91128E-18
 -1      3005 1.29555E-04-2.60388E-05-4.48175E-05-1.26609E-05-3.75977E-18 4.18964E-19
 -1      3006 1.28456E-04-3.12920E-05-4.18920E-05-1.23741E-05-3.13275E-18 9.02408E-19
 -1      3007 1.21893E-04-2.07813E-05-4.37254E-05-1.24973E-05-3.51720E-18 2.27640E-21
 -1      3008 1.30077E-04-1.41318E-05-5.02075E-05-9.18293E-07 5.01401E-18 3.41010E-19
 -1      3009 6.74904E-05-3.18546E-05-1.47221E-05-3.52086E-05 2.10848E-18 1.93346E-18
 -1      3010 5.60285E-05-2.09928E-05-1.44011E-05-2.64213E-05-8.04893E-19-4.92041E-18
 -1      3011 9.05120E-05-4.21586E-05-2.03699E-05-3.25044E-05-1.74478E-18-2.60976E-18
 -1      3012 9.52452E-05-2.85842E-05-2.85690E-05-1.38140E-08 1.47857E-18-1.10794E-18
 -1      3013 9.52437E-05-2.85837E-05-2.85685E-05-1.33676E-08 1.60697E-18-1.63468E-18
 -1      3014 9.52422E-05-2.85822E-05-2.85686E-05-1.42399E-08-3.00742E-19 1.62673E-18
 -1      3015 1.31321E-04-4.89908E-05-3.54002E-05 8.83422E-06 1.14720E-19 2.00826E-18
 -1      3016 6.74209E-05-2.84402E-05-1.62542E-05 3.44348E-05 2.23521E-18-3.26870E-18
 -1      3017 4.14600E-05-1.14380E-05-1.22016E-05 1.75568E-05 1.49353E-18-4.79061E-18
 -1      3018 1.31308E-04-5.18759E-05-3.42262E-05-4.27759E-06 5.75499E-19-2.35470E-18
 -1      3019 1.36015E-04-5.64325E-05-3.40387E-05-3.03061E-06-4.01626E-19 1.07420E-18
 -1      3020 9.52407E-05-2.85808E-05-2.85685E-05-1.47742E-08-7.64190E-19 1.46386E-18
 -1      3021 9.52389E-05-2.85790E-05-2.85685E-05-1.48006E-08-1.16854E-18-3.73236E-20
 -1      3022 9.52382E-05-2.85784E-05-2.85685E-05-1.62415E-08-9.44323E-19-6.81518E-19
 -1      3023 9.52418E-05-2.85814E-05-2.85688E-05-1.58663E-08-3.94900E-19 2.05763E-18
 -1      3024 4.48586E-05-1.59929E-05-1.16719E-05-1.71317E-05 6.37657E-19 2.60653E-18
 -1      3025 6.35106E-05-2.79078E-05-1.46777E-05 2.97647E-05-1.69544E-18 1.89714E-18
 -1      3026 1.22364E-04-5.81398E-05-2.74096E-05 1.92453E-05-7.78741E-19-1.57061E-18
 -1      3027 9.52393E-05-2.85796E-05-2.85685E-05 1.45444E-08 1.78057E-18-1.05053E-18
 -1      3028 9.46647E-05-4.63530E-05-2.03935E-05 3.22098E-05-1.71069E-18 5.22249E-19
 -1      3029 4.25123E-05-1.41659E-05-1.14654E-05 9.62233E-06-8.71809E-19 2.21849E-18
 -1      3030 9.97081E-05-4.84204E-05-2.18175E-05 3.47505E-05 1.93780E-18-1.86877E-18
 -1      3031 1.23665E-04-5.71240E-05-2.84060E-05-1.88728E-05 2.00403E-18-9.25966E-19
 -1      3032 9.52391E-05-2.85789E-05-2.85687E-05 1.64711E-08 1.34562E-18-3.27400E-18
 -1      3033 9.52409E-05-2.85809E-05-2.85686E-05 1.52351E-08 2.68059E-18-1.29170E-18
 -1      3034 9.52420E-05-2.85814E-05-2.85689E-05 1.62413E-08 3.09225E-18-9.80801E-19
 -1      3035 9.52388E-05-2.85786E-05-2.85687E-05 1.76670E-08 9.89014E-19-3.06121E-18
 -1      3036 7.67122E-05-9.72971E-06-2.87745E-05 6.98774E-06 8.77732E-19-3.36220E-18
 -1      3037 8.01511E-05-1.17625E-05-2.92602E-05 6.53725E-06 6.13364E-19-3.39876E-18
 -1      3038 8.32717E-05-1.55469E-05-2.90599E-05 7.68243E-06 5.49865E-19-3.18103E-18
 -1      3039 7.55862E-05-1.03521E-05-2.79554E-05 8.38086E-06 9.22123E-19-3.28545E-18
 -1      3040 9.76947E-05-2.22725E-05-3.23166E-05-1.54994E-06-9.92661E-19-2.55223E-18
 -1      3041 1.36080E-04-4.35714E-05-3.96391E-05-1.42612E-05 2.18508E-18-2.41595E-18
 -1      3042 1.29847E-04-2.10017E-05-4.71557E-05 1.26922E-05 3.71784E-18 1.42820E-18
 -1      3043 1.21037E-04-1.23276E-05-4.70287E-05-5.19647E-06-3.71784E-18-8.40257E-19
 -1      3044 1.36130E-04-4.82957E-05-3.77916E-05-2.52169E-06-1.56545E-18 6.30722E-19
 -1      3045 1.31339E-04-5.06861E-05-3.46693E-05 8.29710E-07-6.95202E-19 5.29872E-19
 -1      3046 1.32089E-04-4.22412E-05-3.89211E-05-9.41078E-06-2.08100E-18 1.10008E-18
 -1      3047 9.89598E-05-2.31204E-05-3.25387E-05-2.89407E-06 2.05669E-18-1.99023E-19
 -1      3048 9.77211E-05-2.39300E-05-3.16258E-05-5.21794E-06 1.69976E-18-5.24709E-19
 -1      3049 9.92561E-05-2.66786E-05-3.10607E-05-7.37736E-06 1.22108E-18-5.10199E-19
 -1      3050 9.43072E-05-2.31104E-05-3.05066E-05-7.46085E-06 1.38020E-18-9.78548E-19
 -1      3051 1.01204E-04-2.96400E-05-3.06457E-05-8.78452E-06 7.66956E-19-4.55628E-19
 -1      3052 8.90802E-05-1.99039E-05-2.96387E-05-7.79805E-06 1.26415E-18-1.57223E-18
 -1      3053 3.96918E-05-6.94393E-06-1.36952E-05 7.78201E-07 8.56787E-19-4.93270E-18
 -1      3054 4.30666E-05-9.08764E-06-1.43628E-05-1.07173E-05 3.27802E-19-4.97102E-18
 -1      3055 9.81659E-05-2.42485E-05-3.16506E-05 4.20464E-07-6.77831E-19-2.35979E-18
 -1      3056 1.13125E-04-4.01666E-05-3.11898E-05-1.30927E-06-4.53158E-19-3.51371E-19
 -1      3057 1.14493E-04-4.11115E-05-3.15222E-05-3.03519E-06-5.13080E-19-3.30045E-19
 -1      3058 1.16874E-04-4.15574E-05-3.22555E-05-5.77058E-06-6.49936E-19 5.09709E-20
 -1      3059 1.17149E-04-4.04427E-05-3.29501E-05-7.77437E-06-8.84673E-19 9.21272E-20
 -1      3060 1.17082E-04-4.30801E-05-3.17806E-05-2.53783E-06-4.23252E-19-3.59393E-20
 -1      3061 1.18011E-04-3.82835E-05-3.42216E-05-1.09093E-05-1.35556E-18 4.12153E-19
 -1      3062 1.16503E-04-3.45008E-05-3.51290E-05-1.17806E-05-1.75068E-18 1.69334E-19
 -1      3063 1.20600E-04-4.15509E-05-3.40001E-05-8.49912E-06-1.07874E-18 6.44566E-19
 -1      3064 1.17050E-04-2.89819E-05-3.79582E-05-1.30157E-05-2.35584E-18-6.63200E-20
 -1      3065 1.14562E-04-2.35011E-05-3.91532E-05-1.14621E-05-2.55624E-18-5.12402E-19
 -1      3066 1.08283E-04-1.67548E-05-3.93575E-05 2.63173E-06-2.34951E-18-2.10887E-18
 -1      3067 1.09175E-04-1.88712E-05-3.89708E-05 7.03235E-06-2.10840E-18-2.13335E-18
 -1      3068 1.11441E-04-2.30808E-05-3.78743E-05 1.11053E-05-1.65767E-18-2.35254E-18
 -1      3069 1.13557E-04-2.81727E-05-3.68707E-05 1.29409E-05-1.01631E-18-2.03752E-18
 -1      3070 1.13564E-04-2.01355E-05-4.01998E-05 1.00739E-05-1.97443E-18-1.94630E-18
 -1      3071 1.15574E-04-3.32468E-05-3.52640E-05 1.27524E-05-9.06656E-19-1.98057E-18
 -1      3072 1.16988E-04-3.76431E-05-3.41499E-05 1.17269E-05-5.29743E-19-2.09101E-18
 -1      3073 1.18082E-04-3.14840E-05-3.71489E-05 1.35370E-05-7.85094E-19-2.61103E-18
 -1      3074 1.16833E-04-4.05448E-05-3.27206E-05 8.77791E-06-4.78572E-19-1.63754E-18
 -1      3075 1.16689E-04-4.24154E-05-3.18467E-05 6.27011E-06-9.87852E-20-1.72189E-18
 -1      3076 1.19896E-04-4.10667E-05-3.37652E-05 9.57430E-06-4.84083E-19-2.17891E-18
 -1      3077 1.14535E-04-4.25430E-05-3.09119E-05 3.03693E-06 2.88529E-19-1.50181E-18
 -1      3078 1.13220E-04-4.22472E-05-3.03646E-05 6.10678E-07 9.25058E-19-1.60785E-18
 -1      3079 1.17265E-04-4.44111E-05-3.12582E-05 2.85753E-06 1.87992E-19-1.12638E-18
 -1      3080 1.10439E-04-4.08876E-05-2.98600E-05-1.75751E-06 9.60250E-19-1.62763E-18
 -1      3081 1.08649E-04-3.94910E-05-2.95734E-05-3.52116E-06 5.54967E-19-1.39313E-18
 -1      3082 1.12223E-04-4.29454E-05-2.97578E-05-2.68449E-06 8.02547E-19-1.48733E-18
 -1      3083 1.06121E-04-3.76808E-05-2.93608E-05-4.82629E-06 1.64339E-19-1.19321E-18
 -1      3084 1.04403E-04-3.60526E-05-2.92387E-05-5.86910E-06-2.33659E-19-8.24643E-19
 -1      3085 1.06869E-04-3.92706E-05-2.90401E-05-6.05956E-06 4.55409E-19-1.18877E-18
 -1      3086 1.02477E-04-3.44038E-05-2.91855E-05-6.38397E-06-4.81380E-19-8.84127E-19
 -1      3087 1.01082E-04-3.29869E-05-2.91465E-05-6.85755E-06-4.03881E-19-4.89694E-19
 -1      3088 1.02439E-04-3.53772E-05-2.87966E-05-7.57213E-06-1.76236E-19-1.29858E-18
 -1      3089 9.97667E-05-3.17232E-05-2.91626E-05-6.88444E-06-6.44983E-19-1.92586E-19
 -1      3090 9.87387E-05-3.06596E-05-2.91542E-05-6.96815E-06-3.30055E-19 1.95090E-20
 -1      3091 9.92436E-05-3.21654E-05-2.87866E-05-7.88106E-06-2.43322E-19-9.15683E-19
 -1      3092 9.79137E-05-2.97979E-05-2.91887E-05-6.72434E-06-2.71640E-19-8.27151E-20
 -1      3093 9.71998E-05-2.90785E-05-2.91829E-05-6.56508E-06-1.74683E-19-2.62537E-19
 -1      3094 9.71446E-05-2.98545E-05-2.88632E-05-7.50992E-06-3.57346E-19-7.83808E-19
 -1      3095 9.67249E-05-2.85513E-05-2.92115E-05-6.18762E-06-3.89032E-19-3.04086E-19
 -1      3096 9.62473E-05-2.81100E-05-2.91969E-05-5.89180E-06-4.07258E-19-9.76908E-19
 -1      3097 9.58740E-05-2.83596E-05-2.89492E-05-6.79468E-06-7.57553E-19-3.11345E-19
 -1      3098 9.60031E-05-2.78299E-05-2.92108E-05-5.46308E-06-6.13018E-19-1.28489E-18
 -1      3099 9.56905E-05-2.75907E-05-2.91851E-05-5.10377E-06-6.37276E-19-1.99211E-18
 -1      3100 9.51723E-05-2.74984E-05-2.90109E-05-5.93441E-06-8.40148E-19-8.45617E-19
 -1      3101 9.55885E-05-2.74782E-05-2.91838E-05-4.67251E-06-1.18868E-19-1.66036E-18
 -1      3102 9.53858E-05-2.73753E-05-2.91493E-05-4.29800E-06 3.72780E-21-1.60339E-18
 -1      3103 9.48344E-05-2.70851E-05-2.90391E-05-5.04442E-06-4.30329E-19-8.89453E-19
 -1      3104 9.53653E-05-2.73679E-05-2.91357E-05-3.89234E-06 1.75571E-19-1.21344E-18
 -1      3105 9.52339E-05-2.73504E-05-2.90961E-05-3.53300E-06 8.21029E-19-4.62449E-19
 -1      3106 9.47144E-05-2.69656E-05-2.90366E-05-4.19107E-06 3.59889E-19-1.47326E-19
 -1      3107 9.52557E-05-2.74031E-05-2.90741E-05-3.16819E-06 4.83645E-19-8.25193E-19
 -1      3108 9.51698E-05-2.74348E-05-2.90328E-05-2.84158E-06-2.55255E-20-2.94876E-19
 -1      3109 9.47151E-05-2.70239E-05-2.90108E-05-3.41133E-06 4.94336E-19-2.34156E-19
 -1      3110 9.52101E-05-2.75170E-05-2.90063E-05-2.52442E-06-2.37287E-19-2.72255E-19
 -1      3111 9.51530E-05-2.75735E-05-2.89661E-05-2.23914E-06-3.62734E-20 1.73139E-20
 -1      3112 9.47752E-05-2.71785E-05-2.89697E-05-2.72361E-06 1.23871E-20-3.25114E-19
 -1      3113 9.51979E-05-2.76655E-05-2.89381E-05-1.97094E-06-7.88997E-19-2.08733E-19
 -1      3114 9.51593E-05-2.77313E-05-2.89009E-05-1.72949E-06-3.48086E-19-1.36502E-18
 -1      3115 9.48580E-05-2.73754E-05-2.89206E-05-2.13414E-06-5.91764E-19-2.06102E-21
 -1      3116 9.52016E-05-2.78213E-05-2.88735E-05-1.50808E-06 4.67805E-19-2.35073E-18
 -1      3117 9.51748E-05-2.78870E-05-2.88404E-05-1.30908E-06 8.43016E-19-2.21225E-18
 -1      3118 9.49429E-05-2.75806E-05-2.88691E-05-1.64109E-06-8.38824E-19-1.27845E-18
 -1      3119 9.52112E-05-2.79687E-05-2.88150E-05-1.13019E-06 9.45224E-19-2.02476E-18
 -1      3120 9.51923E-05-2.80291E-05-2.87865E-05-9.69984E-07 6.10607E-19-1.93589E-18
 -1      3121 9.50197E-05-2.77744E-05-2.88191E-05-1.23767E-06 7.88077E-19-1.88366E-18
 -1      3122 9.52218E-05-2.80997E-05-2.87640E-05-8.28352E-07-6.35521E-19-2.03107E-18
 -1      3123 9.52082E-05-2.81523E-05-2.87401E-05-7.02129E-07-8.19815E-19-1.98877E-18
 -1      3124 9.50840E-05-2.79466E-05-2.87730E-05-9.14214E-07-1.21575E-19-2.11244E-18
 -1      3125 9.52309E-05-2.82111E-05-2.87207E-05-5.92166E-07-7.60922E-19-2.38940E-18
 -1      3126 9.52211E-05-2.82552E-05-2.87011E-05-4.94760E-07-2.18491E-19-2.61003E-18
 -1      3127 9.51351E-05-2.80932E-05-2.87321E-05-6.59874E-07-9.77343E-19-2.93393E-18
 -1      3128 9.52379E-05-2.83027E-05-2.86848E-05-4.11039E-07 6.38170E-19-1.88298E-18
 -1      3129 9.52307E-05-2.83385E-05-2.86692E-05-3.37411E-07 3.61846E-19-1.36792E-18
 -1      3130 9.51739E-05-2.82139E-05-2.86971E-05-4.63671E-07 6.84730E-19-1.27847E-18
 -1      3131 9.52426E-05-2.83759E-05-2.86558E-05-2.74952E-07-2.81154E-19-7.85231E-19
 -1      3132 9.52373E-05-2.84043E-05-2.86435E-05-2.20484E-07-3.96361E-19-6.43224E-19
 -1      3133 9.52021E-05-2.83107E-05-2.86678E-05-3.15232E-07 5.26033E-19-1.47941E-18
 -1      3134 9.52454E-05-2.84330E-05-2.86329E-05-1.74893E-07-5.29698E-19 1.59961E-19
 -1      3135 9.52416E-05-2.84550E-05-2.86234E-05-1.35533E-07 1.99791E-19-5.35359E-19
 -1      3136 9.52219E-05-2.83863E-05-2.86439E-05-2.05203E-07-2.21430E-19 4.30682E-19
 -1      3137 9.52467E-05-2.84766E-05-2.86150E-05-1.03062E-07 1.10873E-19-9.15243E-19
 -1      3138 9.52440E-05-2.84932E-05-2.86079E-05-7.53691E-08 1.62515E-19-5.19949E-19
 -1      3139 9.52350E-05-2.84441E-05-2.86248E-05-1.25449E-07-5.38778E-20 1.12606E-18
 -1      3140 9.52470E-05-2.85090E-05-2.86014E-05-5.29027E-08 2.54500E-19-9.36980E-19
 -1      3141 9.52450E-05-2.85213E-05-2.85962E-05-3.40359E-08-3.20997E-19-9.93221E-19
 -1      3142 9.52432E-05-2.84873E-05-2.86098E-05-6.90949E-08-4.81172E-20 8.46723E-19
 -1      3143 9.52465E-05-2.85326E-05-2.85913E-05-1.90439E-08-9.88584E-19-6.46117E-19
 -1      3144 9.52451E-05-2.85414E-05-2.85875E-05-6.71255E-09-1.20220E-18-7.54160E-19
 -1      3145 9.52477E-05-2.85187E-05-2.85982E-05-3.04743E-08-6.86056E-19-9.36033E-19
 -1      3146 9.52456E-05-2.85492E-05-2.85839E-05 2.81570E-09-9.11253E-19-2.12798E-19
 -1      3147 9.52447E-05-2.85555E-05-2.85812E-05 1.04184E-08-6.11533E-19 1.70686E-19
 -1      3148 9.52497E-05-2.85410E-05-2.85895E-05-5.01955E-09-5.36234E-19 1.58634E-19
 -1      3149 9.52445E-05-2.85607E-05-2.85786E-05 1.60483E-08-2.65359E-19-3.11324E-19
 -1      3150 9.52439E-05-2.85649E-05-2.85768E-05 2.03171E-08 1.40197E-19-6.43404E-19
 -1      3151 9.52501E-05-2.85564E-05-2.85831E-05 1.08752E-08-7.70261E-19 5.94226E-19
 -1      3152 9.52433E-05-2.85682E-05-2.85749E-05 2.32421E-08-1.44132E-19-4.72347E-19
 -1      3153 9.52430E-05-2.85709E-05-2.85738E-05 2.52296E-08-3.74896E-19-1.28015E-18
 -1      3154 9.52494E-05-2.85665E-05-2.85785E-05 1.99990E-08-7.75812E-20 2.07796E-19
 -1      3155 9.52422E-05-2.85729E-05-2.85725E-05 2.63387E-08 2.35633E-19-8.71385E-19
 -1      3156 9.52420E-05-2.85746E-05-2.85717E-05 2.68190E-08-4.29049E-20-1.47333E-18
 -1      3157 9.52481E-05-2.85729E-05-2.85752E-05 2.44627E-08-1.90215E-19-7.08163E-19
 -1      3158 9.52411E-05-2.85756E-05-2.85709E-05 2.67565E-08-4.61390E-20-8.19101E-19
 -1      3159 9.52411E-05-2.85767E-05-2.85705E-05 2.62812E-08 5.03154E-19-4.83693E-19
 -1      3160 9.52466E-05-2.85766E-05-2.85729E-05 2.58256E-08 3.63446E-19 1.95008E-19
 -1      3161 9.52403E-05-2.85771E-05-2.85699E-05 2.54985E-08 3.65925E-19-1.11161E-18
 -1      3162 9.52403E-05-2.85777E-05-2.85697E-05 2.44443E-08 4.07457E-19-3.99307E-19
 -1      3163 9.52449E-05-2.85786E-05-2.85713E-05 2.52061E-08 4.15293E-19 1.08977E-18
 -1      3164 9.52396E-05-2.85779E-05-2.85693E-05 2.32428E-08 1.20910E-19-5.73053E-19
 -1      3165 9.52397E-05-2.85783E-05-2.85692E-05 2.18421E-08-4.40901E-20-1.59021E-18
 -1      3166 9.52434E-05-2.85796E-05-2.85703E-05 2.33781E-08 1.71906E-19 2.87150E-19
 -1      3167 9.52390E-05-2.85783E-05-2.85689E-05 2.06276E-08 3.38949E-20-2.18555E-18
 -1      3168 9.52393E-05-2.85786E-05-2.85689E-05 1.90045E-08 1.38510E-19-2.80076E-18
 -1      3169 9.52411E-05-2.85800E-05-2.85690E-05 1.85158E-08 4.99461E-19-1.87784E-18
 -1      3170 9.52421E-05-2.85799E-05-2.85695E-05 2.10465E-08-4.34178E-19-1.35689E-18
 -1      3171 9.52510E-05-2.85876E-05-2.85700E-05 7.02120E-09-1.31786E-19-3.00316E-18
 -1      3172 9.52516E-05-2.85881E-05-2.85701E-05 4.45010E-09 1.03363E-18-2.86838E-18
 -1      3173 1.18505E-04-1.70736E-05-4.38294E-05 3.24399E-07 3.61058E-18 6.43242E-19
 -1      3174 1.19753E-04-1.94078E-05-4.35231E-05 7.47372E-06 3.51053E-18 1.46390E-18
 -1      3175 1.29848E-04-2.60565E-05-4.49521E-05-1.51768E-05 3.84436E-18-1.50221E-18
 -1      3176 1.15452E-04-4.69769E-05-2.91084E-05 1.13901E-05-6.53906E-19-1.06546E-18
 -1      3177 1.20123E-04-5.07004E-05-2.97482E-05 8.53676E-06-6.52083E-19-1.28735E-18
 -1      3178 9.74102E-05-2.93025E-05-2.91690E-05 1.25532E-05-7.68671E-19 3.13546E-19
 -1      3179 9.89431E-05-3.09711E-05-2.90982E-05 1.29115E-05-3.09274E-19 5.33710E-19
 -1      3180 9.59337E-05-2.73325E-05-2.93989E-05 1.10214E-05-6.90295E-19 1.59236E-19
 -1      3181 9.67998E-05-2.82325E-05-2.93607E-05 1.16290E-05-9.50606E-19 2.62979E-19
 -1      3182 9.39109E-05-2.74655E-05-2.85048E-05 1.27589E-05-9.69023E-19-3.08373E-20
 -1      3183 9.53277E-05-2.64675E-05-2.95184E-05 9.42467E-06 3.56402E-20 2.25477E-19
 -1      3184 9.58113E-05-2.68767E-05-2.95242E-05 1.01254E-05-4.10161E-20 3.76539E-19
 -1      3185 9.32728E-05-2.58941E-05-2.88840E-05 1.08481E-05-4.91803E-19 4.69296E-19
 -1      3186 9.51442E-05-2.62416E-05-2.95396E-05 7.89565E-06-4.72888E-19 1.31828E-18
 -1      3187 9.54255E-05-2.63684E-05-2.95810E-05 8.60246E-06-3.83041E-19 9.32762E-19
 -1      3188 9.32926E-05-2.53450E-05-2.91186E-05 9.11310E-06-6.00000E-19 1.35334E-18
 -1      3189 9.51383E-05-2.63494E-05-2.94912E-05 6.49629E-06-7.15718E-22 1.76569E-18
 -1      3190 9.53178E-05-2.63281E-05-2.95547E-05 7.15990E-06-7.60882E-20 1.61073E-18
 -1      3191 9.35806E-05-2.53610E-05-2.92319E-05 7.56419E-06-4.64549E-19 2.37056E-18
 -1      3192 9.51884E-05-2.66070E-05-2.94014E-05 5.25609E-06 3.32612E-20 2.47486E-18
 -1      3193 9.53172E-05-2.65175E-05-2.94749E-05 5.85074E-06 1.91451E-19 1.85715E-18
 -1      3194 9.39367E-05-2.56560E-05-2.92577E-05 6.19694E-06-3.42383E-19 2.52381E-18
 -1      3195 9.52417E-05-2.69119E-05-2.92923E-05 4.18513E-06-1.23930E-18 2.45868E-18
 -1      3196 9.53435E-05-2.67986E-05-2.93670E-05 4.70014E-06-3.83465E-19 2.51737E-18
 -1      3197 9.42692E-05-2.60613E-05-2.92274E-05 5.00652E-06 8.35350E-20 2.71030E-18
 -1      3198 9.52801E-05-2.72114E-05-2.91789E-05 3.28068E-06-6.44840E-20 1.22423E-18
 -1      3199 9.53647E-05-2.70971E-05-2.92493E-05 3.71497E-06-3.52295E-19 1.89499E-18
 -1      3200 9.45444E-05-2.64846E-05-2.91651E-05 3.98649E-06-4.29267E-19 2.06071E-18
 -1      3201 9.53010E-05-2.74813E-05-2.90709E-05 2.53177E-06-1.20954E-18 3.93870E-19
 -1      3202 9.53724E-05-2.73766E-05-2.91339E-05 2.89001E-06-3.80267E-19 1.26913E-18
 -1      3203 9.47572E-05-2.68797E-05-2.90881E-05 3.12723E-06 5.93905E-20 2.26758E-18
 -1      3204 9.53080E-05-2.77130E-05-2.89735E-05 1.92265E-06-7.35616E-20-6.44104E-19
 -1      3205 9.53677E-05-2.76220E-05-2.90278E-05 2.21259E-06-7.48248E-19-7.31246E-19
 -1      3206 9.49145E-05-2.72266E-05-2.90078E-05 2.41570E-06-1.82686E-20 8.93916E-19
 -1      3207 9.53056E-05-2.79058E-05-2.88889E-05 1.43544E-06 4.71954E-20-3.09882E-19
 -1      3208 9.53547E-05-2.78293E-05-2.89344E-05 1.66609E-06 2.06041E-19-6.98841E-19
 -1      3209 9.50272E-05-2.75200E-05-2.89310E-05 1.83628E-06 1.29565E-19 1.31626E-19
 -1      3210 9.52980E-05-2.80627E-05-2.88176E-05 1.05191E-06-5.80108E-19 8.64131E-19
 -1      3211 9.53375E-05-2.79999E-05-2.88548E-05 1.23245E-06-3.25929E-19 3.25392E-19
 -1      3212 9.51058E-05-2.77619E-05-2.88615E-05 1.37205E-06-2.32417E-19-6.09295E-20
 -1      3213 9.52881E-05-2.81884E-05-2.87589E-05 7.54733E-07 5.66475E-20 8.09487E-19
 -1      3214 9.53193E-05-2.81377E-05-2.87887E-05 8.93816E-07 4.95131E-19 7.84068E-19
 -1      3215 9.51595E-05-2.79573E-05-2.88010E-05 1.00604E-06-3.51465E-19 8.16371E-19
 -1      3216 9.52780E-05-2.82875E-05-2.87116E-05 5.28138E-07 4.68338E-19 1.06518E-18
 -1      3217 9.53020E-05-2.82471E-05-2.87351E-05 6.33562E-07-2.20358E-19 6.64165E-19
 -1      3218 9.51952E-05-2.81127E-05-2.87498E-05 7.22028E-07 7.09521E-21 6.49672E-19
 -1      3219 9.52687E-05-2.83646E-05-2.86742E-05 3.58248E-07-1.46485E-19 1.95436E-18
 -1      3220 9.52867E-05-2.83329E-05-2.86924E-05 4.36803E-07 8.86950E-19 2.06291E-18
 -1      3221 9.52183E-05-2.82345E-05-2.87076E-05 5.05228E-07-2.08974E-19 1.20574E-18
 -1      3222 9.52607E-05-2.84237E-05-2.86451E-05 2.33178E-07-2.03109E-19 4.24308E-19
 -1      3223 9.52739E-05-2.83992E-05-2.86590E-05 2.90629E-07-1.41855E-19 1.57051E-18
 -1      3224 9.52328E-05-2.83286E-05-2.86735E-05 3.42548E-07 4.36895E-19 1.38518E-18
 -1      3225 9.52542E-05-2.84685E-05-2.86229E-05 1.42971E-07 1.47712E-20-2.31893E-19
 -1      3226 9.52635E-05-2.84498E-05-2.86333E-05 1.84104E-07 7.54791E-20-1.12103E-19
 -1      3227 9.52414E-05-2.84002E-05-2.86465E-05 2.22724E-07 3.54116E-19 1.71770E-18
 -1      3228 9.52491E-05-2.85018E-05-2.86063E-05 7.94419E-08-1.71936E-20 1.11912E-19
 -1      3229 9.52555E-05-2.84877E-05-2.86139E-05 1.08164E-07-6.45422E-19-5.19565E-19
 -1      3230 9.52461E-05-2.84540E-05-2.86254E-05 1.36281E-07-1.64116E-19 4.69788E-19
 -1      3231 9.52452E-05-2.85262E-05-2.85941E-05 3.59819E-08-8.35044E-19 1.54908E-18
 -1      3232 9.52494E-05-2.85158E-05-2.85995E-05 5.54244E-08-1.83732E-21 3.32653E-19
 -1      3233 9.52481E-05-2.84937E-05-2.86093E-05 7.54060E-08-7.32129E-19 5.97974E-19
 -1      3234 9.52423E-05-2.85436E-05-2.85853E-05 7.34354E-09-9.35509E-19 2.51172E-18
 -1      3235 9.52449E-05-2.85361E-05-2.85890E-05 1.99778E-08-1.05439E-18 2.26942E-18
 -1      3236 9.52486E-05-2.85223E-05-2.85972E-05 3.37771E-08-1.54177E-18 2.61101E-18
 -1      3237 9.52402E-05-2.85558E-05-2.85791E-05-1.05714E-08-6.11492E-19 2.61270E-18
 -1      3238 9.52417E-05-2.85505E-05-2.85816E-05-2.82767E-09-5.10246E-19 2.33083E-18
 -1      3239 9.52481E-05-2.85426E-05-2.85882E-05 6.36582E-09-9.69648E-19 2.21710E-18
 -1      3240 9.52388E-05-2.85641E-05-2.85749E-05-2.09090E-08 1.80593E-19 1.18460E-18
 -1      3241 9.52395E-05-2.85604E-05-2.85765E-05-1.65928E-08-6.61341E-20 1.71507E-18
 -1      3242 9.52471E-05-2.85566E-05-2.85818E-05-1.07585E-08 1.22157E-19 1.69705E-18
 -1      3243 9.52379E-05-2.85696E-05-2.85721E-05-2.60394E-08 1.49147E-18-1.17312E-18
 -1      3244 9.52380E-05-2.85671E-05-2.85731E-05-2.40561E-08 7.90426E-19-6.29707E-20
 -1      3245 9.52458E-05-2.85659E-05-2.85772E-05-2.06146E-08 1.69259E-18-3.71628E-19
 -1      3246 9.52373E-05-2.85729E-05-2.85704E-05-2.77094E-08 1.34249E-18-1.10988E-18
 -1      3247 9.52371E-05-2.85713E-05-2.85710E-05-2.72589E-08 1.35526E-18-1.29821E-18
 -1      3248 9.52444E-05-2.85718E-05-2.85741E-05-2.54764E-08 1.33021E-18-1.96276E-18
 -1      3249 9.52370E-05-2.85749E-05-2.85694E-05-2.71712E-08 9.25914E-19-1.25483E-18
 -1      3250 9.52366E-05-2.85739E-05-2.85697E-05-2.76862E-08 1.35657E-18-1.61973E-18
 -1      3251 9.52431E-05-2.85753E-05-2.85720E-05-2.70189E-08 1.52848E-18-2.38256E-18
 -1      3252 9.52369E-05-2.85761E-05-2.85689E-05-2.52887E-08 6.19914E-19-1.56363E-18
 -1      3253 9.52364E-05-2.85754E-05-2.85690E-05-2.63843E-08 1.10517E-18-1.44271E-18
 -1      3254 9.52419E-05-2.85772E-05-2.85706E-05-2.64424E-08 1.01554E-18-1.38336E-18
 -1      3255 9.52370E-05-2.85767E-05-2.85687E-05-2.26258E-08 5.28053E-19-2.37810E-18
 -1      3256 9.52364E-05-2.85763E-05-2.85686E-05-2.40556E-08-6.77709E-20-1.84868E-18
 -1      3257 9.52409E-05-2.85782E-05-2.85698E-05-2.45701E-08 3.58566E-19-8.70607E-19
 -1      3258 9.52372E-05-2.85772E-05-2.85686E-05-1.95244E-08 3.48550E-19-2.32664E-18
 -1      3259 9.52367E-05-2.85768E-05-2.85685E-05-2.11370E-08 9.68889E-19-1.32098E-18
 -1      3260 9.52401E-05-2.85787E-05-2.85692E-05-2.19488E-08 5.09636E-19-9.53245E-19
 -1      3261 9.52382E-05-2.85781E-05-2.85686E-05-1.72288E-08-1.99873E-19-1.18293E-18
 -1      3262 9.52373E-05-2.85774E-05-2.85685E-05-1.85466E-08-7.37828E-20-2.05923E-18
 -1      3263 9.52399E-05-2.85791E-05-2.85689E-05-1.94491E-08 4.15706E-19 3.82833E-19
 -1      3264 9.52401E-05-2.85796E-05-2.85687E-05-1.73730E-08-1.15194E-18 1.47375E-18
 -1      3265 6.59420E-05-5.16078E-06-2.60696E-05 1.10764E-06 1.30677E-18-3.42165E-18
 -1      3266 6.57271E-05-5.11621E-06-2.59770E-05 3.57936E-06 1.27172E-18-3.52904E-18
 -1      3267 9.52520E-05-2.85884E-05-2.85701E-05 1.43483E-09 1.42837E-18-1.63969E-18
 -1      3268 9.52520E-05-2.85884E-05-2.85701E-05-1.32304E-09 1.56783E-18-8.39691E-19
 -1      3269 9.52535E-05-2.85882E-05-2.85709E-05 3.11389E-09 1.25139E-18-2.58719E-18
 -1      3270 1.39634E-04-4.45781E-05-4.11870E-05 1.20357E-05 1.39726E-18 1.99519E-18
 -1      3271 1.24460E-04-5.38985E-05-3.03736E-05 1.32800E-05 6.46789E-19-1.10908E-20
 -1      3272 1.15818E-04-5.31951E-05-2.65991E-05 2.44817E-05 1.50020E-18-5.98323E-19
 -1      3273 7.30943E-05-3.04325E-05-1.83294E-05 2.91462E-05-1.61286E-18 1.63361E-18
 -1      3274 5.92297E-05-2.14019E-05-1.57973E-05 2.35050E-05-1.13592E-18 1.69110E-18
 -1      3275 9.52487E-05-2.85859E-05-2.85698E-05 1.19602E-08 1.00940E-18 1.48319E-18
 -1      3276 9.52500E-05-2.85869E-05-2.85699E-05 9.74777E-09-1.09587E-19-3.12336E-19
 -1      3277 9.52520E-05-2.85872E-05-2.85706E-05 8.97047E-09 1.85217E-19-1.37283E-18
 -1      3278 1.00481E-04-3.29845E-05-2.88701E-05 1.37320E-05-2.23453E-19 2.25538E-19
 -1      3279 1.03049E-04-3.57077E-05-2.88272E-05 1.35601E-05-5.97506E-20 1.67794E-21
 -1      3280 9.58834E-05-3.07020E-05-2.80024E-05 1.47498E-05-4.53531E-19 8.99377E-20
 -1      3281 1.06156E-04-3.89353E-05-2.86787E-05 1.38590E-05-3.18613E-19-6.60462E-19
 -1      3282 1.09999E-04-4.26840E-05-2.88285E-05 1.26857E-05-7.29269E-19-8.84435E-19
 -1      3283 1.00259E-04-3.63972E-05-2.75044E-05 1.64527E-05-7.08512E-19 3.48799E-19
 -1      3284 5.04812E-05-1.57080E-05-1.47125E-05 1.60898E-05-1.06141E-18 1.77220E-18
 -1      3285 4.61846E-05-1.19526E-05-1.44010E-05 3.03216E-06-6.44511E-19 1.90572E-18
 -1      3286 6.23533E-05-1.89082E-05-1.81785E-05 1.68230E-05-9.33298E-19 1.79169E-18
 -1      3287 1.22341E-04-5.47857E-05-2.91199E-05 1.26852E-05-7.47229E-19-1.94047E-18
 -1      3288 1.13014E-04-5.20068E-05-2.57607E-05 2.15545E-05-1.28069E-18-1.30428E-18
 -1      3289 8.35635E-05-3.52064E-05-2.03618E-05-3.02820E-05-1.45303E-18-2.76133E-18
 -1      3290 1.00643E-04-4.60589E-05-2.35352E-05-2.84885E-05-1.59406E-18-1.39326E-18
 -1      3291 1.26013E-04-5.22513E-05-3.15332E-05-4.55729E-06-7.33822E-19 8.30185E-19
 -1      3292 1.21055E-04-4.95288E-05-3.03951E-05-8.39730E-06-8.16943E-19 4.69157E-19
 -1      3293 1.08390E-04-3.60246E-05-3.09315E-05 9.80404E-07-5.52559E-19-9.66579E-19
 -1      3294 1.10160E-04-3.80992E-05-3.09407E-05 2.07137E-07-4.60766E-19-8.66982E-19
 -1      3295 1.11550E-04-3.99582E-05-3.07495E-05 1.65379E-06-2.13675E-19-5.80558E-19
 -1      3296 1.00453E-04-4.68918E-05-2.30373E-05 2.80206E-05-1.74912E-18-4.33231E-19
 -1      3297 8.69708E-05-3.83744E-05-2.03582E-05 2.98921E-05-2.16311E-18 9.81235E-19
 -1      3298 8.19235E-05-3.21811E-05-2.09998E-05 2.56953E-05-1.97197E-18 1.00170E-18
 -1      3299 1.04845E-04-4.52979E-05-2.53623E-05 2.16183E-05-1.54816E-18-7.17649E-19
 -1      3300 1.22322E-04-3.03595E-05-3.95803E-05 1.34960E-05-1.14926E-18-2.98029E-18
 -1      3301 1.19611E-04-2.19369E-05-4.23910E-05 1.25805E-05-1.87353E-18-2.45145E-18
 -1      3302 9.52452E-05-2.85833E-05-2.85694E-05 1.56495E-08 2.37989E-18 1.11547E-18
 -1      3303 9.52471E-05-2.85847E-05-2.85696E-05 1.41186E-08 1.72913E-18 1.50896E-18
 -1      3304 9.52490E-05-2.85852E-05-2.85702E-05 1.39735E-08 1.54025E-18 1.60656E-18
 -1      3305 7.94699E-05-3.34411E-05-1.96061E-05 3.43879E-05 2.16576E-18-2.53178E-18
 -1      3306 6.31953E-05-2.19059E-05-1.73060E-05 2.96467E-05 2.09529E-18-3.19358E-18
 -1      3307 6.30144E-05-2.65189E-05-1.53076E-05-3.09395E-05 1.53382E-18 1.50041E-18
 -1      3308 7.74820E-05-3.62278E-05-1.76443E-05-3.54175E-05 2.05167E-18 1.03386E-18
 -1      3309 5.16831E-05-1.47021E-05-1.53618E-05-2.01844E-05-4.64306E-19-4.80141E-18
 -1      3310 6.56974E-05-2.39961E-05-1.77277E-05-2.77550E-05-1.09265E-18-3.93172E-18
 -1      3311 9.17687E-05-4.35376E-05-2.01988E-05-3.35992E-05 2.38228E-18 1.17820E-18
 -1      3312 1.04246E-04-5.05797E-05-2.32667E-05-3.01721E-05 2.44247E-18 4.96282E-19
 -1      3313 1.17016E-04-5.44133E-05-2.63758E-05-2.13539E-05 2.35124E-18-4.68912E-19
 -1      3314 1.25610E-04-5.59269E-05-3.03238E-05-1.13018E-05 1.72260E-18-1.89704E-18
 -1      3315 1.15743E-04-5.23659E-05-2.68101E-05-2.05192E-05-1.53922E-18-2.49792E-19
 -1      3316 1.24350E-04-5.61932E-05-2.95539E-05-1.42839E-05-1.22282E-18 3.30624E-19
 -1      3317 4.98050E-05-1.25682E-05-1.57823E-05 2.12077E-05 1.83801E-18-4.06745E-18
 -1      3318 4.20148E-05-7.96993E-06-1.41257E-05 1.05313E-05 1.39960E-18-4.73968E-18
 -1      3319 4.81552E-05-7.70308E-06-1.68773E-05 5.57376E-06 1.16012E-18-4.45275E-18
 -1      3320 4.67754E-05-1.31672E-05-1.41810E-05-1.06370E-05-1.00598E-19 2.06157E-18
 -1      3321 5.38374E-05-1.87909E-05-1.46817E-05-2.35603E-05 7.25563E-19 2.28942E-18
 -1      3322 1.05359E-04-4.82789E-05-2.44571E-05 2.95392E-05 1.74044E-18-1.24424E-18
 -1      3323 9.32113E-05-4.10116E-05-2.19725E-05 3.20421E-05 2.16242E-18-1.82371E-18
 -1      3324 1.08985E-04-4.74966E-05-2.61676E-05 2.27754E-05 1.76628E-18-1.01774E-18
 -1      3325 1.16998E-04-1.54222E-05-4.38365E-05 8.83017E-06-2.78854E-18-2.44083E-18
 -1      3326 1.15064E-04-1.22387E-05-4.45722E-05 3.17628E-06-2.95667E-18-1.76924E-18
 -1      3327 6.72007E-05-6.38777E-06-2.61393E-05 6.91657E-06 1.30616E-18-3.35341E-18
 -1      3328 6.97928E-05-8.00272E-06-2.64166E-05 8.65929E-06 1.21348E-18-3.24949E-18
 -1      3329 6.54232E-05-6.69215E-06-2.50669E-05 6.06763E-06 1.21896E-18-3.46107E-18
 -1      3330 6.43317E-05-2.30966E-05-1.72875E-05-2.44830E-05 9.74578E-19 1.19246E-18
 -1      3331 9.99134E-05-2.69515E-05-3.12889E-05 1.28432E-06-5.75964E-19-2.07158E-18
 -1      3332 1.25652E-04-5.22515E-05-3.15550E-05-4.00936E-06 1.18012E-18-2.26491E-18
 -1      3333 8.91192E-05-2.24175E-05-2.86136E-05-1.09033E-05 6.70339E-19-1.62685E-18
 -1      3334 8.25830E-05-1.61198E-05-2.84122E-05-8.48186E-06 1.16970E-18-2.11887E-18
 -1      3335 1.04313E-04-3.14001E-05-3.11773E-05 1.23471E-06-6.26290E-19-1.51325E-18
 -1      3336 1.05851E-04-3.36270E-05-3.09937E-05 1.28589E-06-6.27790E-19-1.33118E-18
 -1      3337 1.06031E-04-3.48074E-05-3.05761E-05 3.04469E-06-3.53403E-19-1.15541E-18
 -1      3338 9.52471E-05-2.85848E-05-2.85696E-05-1.40863E-08 5.83219E-19-1.12362E-18
 -1      3339 9.52453E-05-2.85834E-05-2.85694E-05-1.56205E-08-2.77673E-19 9.82897E-19
 -1      3340 1.21701E-04-3.29911E-05-3.82051E-05-1.31610E-05-2.46577E-18 7.25140E-19
 -1      3341 1.09840E-04-1.93403E-05-3.90487E-05-7.61584E-06-2.45171E-18-1.21502E-18
 -1      3342 1.08719E-04-1.69398E-05-3.95005E-05-3.43462E-06-2.63798E-18-1.80567E-18
 -1      3343 1.35638E-04-4.77974E-05-3.76901E-05 1.06099E-05 8.24190E-19 2.18458E-18
 -1      3344 1.27612E-04-2.11331E-05-4.60581E-05 1.13058E-05 3.68703E-18 1.56765E-18
 -1      3345 7.02993E-05-2.16900E-05-2.08523E-05 2.57514E-05 1.98568E-18-2.80236E-18
 -1      3346 6.00593E-05-1.70279E-05-1.80547E-05 2.46187E-05 1.96247E-18-3.44795E-18
 -1      3347 5.86330E-05-1.29072E-05-1.94313E-05 1.87521E-05 1.62890E-18-3.53964E-18
 -1      3348 1.08540E-04-4.49070E-05-2.74878E-05 1.65768E-05-8.38467E-19-8.49627E-19
 -1      3349 6.77086E-05-6.32486E-06-2.63855E-05-2.45176E-06 1.20050E-18-3.08621E-18
 -1      3350 6.56229E-05-6.55042E-06-2.51975E-05-1.32390E-06 1.16941E-18-3.34925E-18
 -1      3351 7.07832E-05-8.01141E-06-2.68318E-05-4.55235E-06 1.28492E-18-2.77959E-18
 -1      3352 9.52500E-05-2.85869E-05-2.85699E-05-9.67538E-09 1.34053E-18 3.10537E-19
 -1      3353 9.52488E-05-2.85860E-05-2.85698E-05-1.18972E-08 1.60594E-18-1.17540E-18
 -1      3354 9.52492E-05-2.85853E-05-2.85702E-05-1.38863E-08 4.10868E-19-4.08339E-19
 -1      3355 8.26954E-05-1.69699E-05-2.82239E-05 1.02166E-05 7.56286E-19-3.00293E-18
 -1      3356 8.71400E-05-1.96752E-05-2.88604E-05 9.09074E-06 4.80870E-19-2.94671E-18
 -1      3357 1.27229E-04-3.86642E-05-3.82511E-05-1.13743E-05-2.27561E-18 8.77235E-19
 -1      3358 1.14544E-04-4.47868E-05-2.98915E-05-1.00692E-05-5.23585E-19 1.06589E-19
 -1      3359 1.10350E-04-4.05012E-05-2.97070E-05-1.13635E-05-2.63224E-19 2.94063E-20
 -1      3360 1.13683E-04-4.74208E-05-2.86634E-05-1.48969E-05-7.91446E-19 1.54160E-19
 -1      3361 1.24601E-04-3.78731E-05-3.74962E-05 1.24917E-05-8.79803E-19-3.25187E-18
 -1      3362 9.52517E-05-2.85881E-05-2.85701E-05-4.32671E-09 1.36338E-18-4.11660E-19
 -1      3363 9.52510E-05-2.85877E-05-2.85700E-05-6.95193E-09 2.19155E-18 1.60559E-19
 -1      3364 9.52520E-05-2.85873E-05-2.85706E-05-8.86142E-09 1.54047E-18 2.81465E-19
 -1      3365 9.52535E-05-2.85882E-05-2.85708E-05-3.02006E-09 1.32072E-18-7.40774E-19
 -1      3366 1.28869E-04-5.35031E-05-3.22314E-05 6.56143E-06 3.04773E-19 1.48085E-19
 -1      3367 1.21602E-04-5.16538E-05-2.98916E-05 1.18103E-05 9.52052E-19-1.56807E-19
 -1      3368 1.27997E-04-4.93134E-05-3.39266E-05-9.08976E-07-3.35187E-19 6.73338E-19
 -1      3369 7.73982E-05-1.30430E-05-2.76346E-05-7.64063E-06 1.05509E-18-2.32351E-18
 -1      3370 1.11630E-04-1.50738E-05-4.16390E-05-3.95318E-07-2.69399E-18-1.76760E-18
 -1      3371 1.15634E-04-1.21077E-05-4.47890E-05-2.72393E-06-3.24128E-18-1.54967E-18
 -1      3372 1.28436E-04-5.50588E-05-3.12521E-05 4.05795E-06-5.14083E-19-2.09621E-18
 -1      3373 1.08729E-04-4.69659E-05-2.62684E-05-2.09016E-05-1.29972E-18-7.45693E-19
 -1      3374 1.23829E-04-4.19700E-05-3.51420E-05 9.39556E-06-5.57215E-19-2.87507E-18
 -1      3375 1.10481E-04-5.04321E-05-2.55591E-05-2.23629E-05 2.20501E-18-4.10093E-19
 -1      3376 5.37545E-05-1.36604E-05-1.68027E-05-3.64998E-06-3.98870E-19 1.95172E-18
 -1      3377 8.68278E-05-3.85736E-05-2.03655E-05-3.11406E-05 1.68861E-18 8.21913E-19
 -1      3378 5.34711E-05-1.18767E-05-1.73616E-05-1.35681E-05 5.85512E-20-4.47953E-18
 -1      3379 8.80092E-05-3.52149E-05-2.24050E-05 2.91157E-05 2.02375E-18-2.14297E-18
 -1      3380 1.33629E-04-5.19090E-05-3.53984E-05 5.45466E-06 3.01028E-20 1.91451E-18
 -1      3381 7.11975E-05-2.21542E-05-2.08585E-05-2.28097E-05-6.87420E-19-3.26039E-18
 -1      3382 7.72669E-05-2.90280E-05-2.03143E-05-2.76714E-05-1.19950E-18-3.21258E-18
 -1      3383 8.69565E-05-3.30793E-05-2.31880E-05-2.50411E-05-1.06841E-18-2.27926E-18
 -1      3384 1.29832E-04-5.48396E-05-3.19805E-05-4.43785E-06-8.51804E-19 1.08031E-18
 -1      3385 9.11234E-05-2.39815E-05-2.87635E-05 9.78671E-06 4.77492E-19-2.58899E-18
 -1      3386 9.12081E-05-2.21999E-05-2.95752E-05 7.11688E-06 3.45669E-19-2.67562E-18
 -1      3387 9.49504E-05-2.44410E-05-3.01731E-05 5.46975E-06 7.66664E-20-2.47592E-18
 -1      3388 1.16991E-04-1.59032E-05-4.36906E-05-8.93213E-06-3.36314E-18-7.87291E-19
 -1      3389 9.52426E-05-2.85811E-05-2.85692E-05 1.77111E-08 1.18905E-18-1.06413E-18
 -1      3390 9.52440E-05-2.85824E-05-2.85693E-05 1.67500E-08 1.60470E-18 1.50148E-19
 -1      3391 9.52459E-05-2.85830E-05-2.85698E-05 1.71761E-08 1.59875E-18 3.54078E-19
 -1      3392 9.52430E-05-2.85810E-05-2.85695E-05 1.90235E-08 4.70282E-20-1.33167E-18
 -1      3393 1.02131E-04-3.16521E-05-3.01024E-05-1.04420E-05 4.54235E-19-3.74469E-19
 -1      3394 9.67678E-05-2.84524E-05-2.93348E-05-1.14346E-05 5.47393E-19-9.04610E-19
 -1      3395 8.98837E-05-2.45715E-05-2.79727E-05-1.27248E-05 3.28558E-19-1.67434E-18
 -1      3396 1.05056E-04-3.53894E-05-2.98412E-05-1.09565E-05 1.74949E-19-3.62656E-19
 -1      3397 1.17602E-04-2.03284E-05-4.19306E-05-1.04814E-05-3.10406E-18-6.95381E-19
 -1      3398 1.16794E-04-4.46356E-05-3.08008E-05 2.76235E-06 1.24392E-19-3.00999E-19
 -1      3399 1.19679E-04-4.57612E-05-3.16646E-05-6.26368E-09-1.19006E-19-8.49614E-20
 -1      3400 1.22841E-04-4.72266E-05-3.23425E-05-1.07645E-06-8.44717E-20 3.88153E-19
 -1      3401 1.24418E-04-4.55486E-05-3.38605E-05-4.40545E-06-6.08353E-19 5.65143E-19
 -1      3402 1.23962E-04-4.60863E-05-3.34069E-05 6.24269E-06 1.97984E-19-2.32297E-18
 -1      3403 1.19790E-04-4.72264E-05-3.11794E-05 6.10619E-07 5.45170E-19-1.66020E-18
 -1      3404 1.17711E-04-4.69731E-05-3.01983E-05-2.26310E-06 1.03487E-18-1.12637E-18
 -1      3405 1.13408E-04-4.50900E-05-2.93342E-05-5.20791E-06 9.98036E-19-8.75574E-19
 -1      3406 1.10542E-04-4.30360E-05-2.88194E-05-7.11882E-06 9.33907E-19-6.64166E-19
 -1      3407 1.15307E-04-4.77929E-05-2.90954E-05-7.63710E-06 1.22350E-18-1.14293E-18
 -1      3408 1.06967E-04-4.04664E-05-2.85091E-05-8.23103E-06 5.43769E-19-2.79359E-19
 -1      3409 1.04356E-04-3.81091E-05-2.83154E-05-9.14368E-06 2.57574E-19-4.89320E-19
 -1      3410 1.07234E-04-4.22550E-05-2.79751E-05-1.08412E-05 5.59258E-19-2.30366E-19
 -1      3411 1.01858E-04-3.58308E-05-2.82841E-05-9.19761E-06-2.35928E-19-4.64916E-19
 -1      3412 9.98738E-05-3.38396E-05-2.82573E-05-9.43836E-06-2.04637E-19-3.99978E-19
 -1      3413 1.01170E-04-3.67249E-05-2.77035E-05-1.13781E-05 1.17733E-20-7.70601E-20
 -1      3414 9.83143E-05-3.21369E-05-2.83420E-05-9.00372E-06-9.65022E-20-5.82060E-19
 -1      3415 9.69619E-05-3.06817E-05-2.83846E-05-8.85995E-06-2.13363E-19-5.91325E-19
 -1      3416 9.71751E-05-3.23896E-05-2.78143E-05-1.06097E-05-7.45410E-20 3.64869E-19
 -1      3417 9.60897E-05-2.95446E-05-2.85006E-05-8.24997E-06-4.30723E-19-1.83263E-19
 -1      3418 9.52421E-05-2.85852E-05-2.85593E-05-7.91007E-06-3.71448E-19-3.48748E-19
 -1      3419 9.48078E-05-2.93972E-05-2.80587E-05-9.34719E-06-3.47755E-19 2.17496E-19
 -1      3420 9.48273E-05-2.79034E-05-2.86665E-05-7.27256E-06-3.57351E-19-1.29085E-19
 -1      3421 9.43386E-05-2.73334E-05-2.87160E-05-6.84677E-06-6.89714E-19 1.74187E-19
 -1      3422 9.35693E-05-2.75282E-05-2.83145E-05-7.99128E-06-2.63767E-19 3.36477E-19
 -1      3423 9.42078E-05-2.69832E-05-2.87990E-05-6.24407E-06-1.20512E-18 3.89765E-19
 -1      3424 9.39552E-05-2.66922E-05-2.88304E-05-5.79501E-06-1.03648E-18 2.42951E-19
 -1      3425 9.30554E-05-2.64941E-05-2.85293E-05-6.70592E-06-8.62499E-19 4.93702E-19
 -1      3426 9.39881E-05-2.65662E-05-2.88864E-05-5.25070E-06-5.03149E-19 3.98585E-19
 -1      3427 9.38811E-05-2.64615E-05-2.88993E-05-4.81406E-06 2.27459E-19 6.40643E-19
 -1      3428 9.29768E-05-2.60374E-05-2.86869E-05-5.54808E-06-4.80351E-19 1.47158E-18
 -1      3429 9.39986E-05-2.64767E-05-2.89313E-05-4.33534E-06 4.03745E-19 8.30206E-19
 -1      3430 9.39752E-05-2.64879E-05-2.89290E-05-3.93133E-06 3.93796E-19 1.03229E-18
 -1      3431 9.31383E-05-2.59556E-05-2.87891E-05-4.53127E-06 4.28842E-19 1.78275E-18
 -1      3432 9.41276E-05-2.65840E-05-2.89420E-05-3.51844E-06-4.86020E-21 6.01335E-19
 -1      3433 9.41481E-05-2.66608E-05-2.89288E-05-3.15781E-06-2.90091E-20 3.77463E-19
 -1      3434 9.34144E-05-2.60995E-05-2.88449E-05-3.65311E-06 2.83990E-19 1.14767E-18
 -1      3435 9.43055E-05-2.67965E-05-2.89282E-05-2.80780E-06 7.74794E-20-1.17632E-19
 -1      3436 9.43454E-05-2.69049E-05-2.89083E-05-2.49503E-06 1.56547E-19-4.25706E-20
 -1      3437 9.37277E-05-2.63647E-05-2.88656E-05-2.90554E-06-3.11453E-19 2.14781E-19
 -1      3438 9.44917E-05-2.70531E-05-2.88988E-05-2.20320E-06-2.67430E-19-6.96586E-20
 -1      3439 9.45368E-05-2.71711E-05-2.88756E-05-1.93857E-06-9.23720E-19-4.91871E-19
 -1      3440 9.40335E-05-2.66808E-05-2.88615E-05-2.27815E-06-2.00023E-19-6.10883E-19
 -1      3441 9.46640E-05-2.73154E-05-2.88608E-05-1.69920E-06-1.74722E-18 3.33578E-19
 -1      3442 9.47068E-05-2.74299E-05-2.88368E-05-1.48021E-06-7.64340E-19-1.20840E-19
 -1      3443 9.43083E-05-2.70033E-05-2.88417E-05-1.75932E-06-7.76472E-19-6.17462E-19
 -1      3444 9.48124E-05-2.75610E-05-2.88197E-05-1.28704E-06 4.49500E-19-8.15893E-19
 -1      3445 9.48495E-05-2.76648E-05-2.87966E-05-1.10947E-06 7.54106E-19-3.96063E-19
 -1      3446 9.45421E-05-2.73056E-05-2.88129E-05-1.33671E-06-5.32723E-19 9.43527E-19
 -1      3447 9.49341E-05-2.77785E-05-2.87790E-05-9.56124E-07 7.76351E-20-1.29391E-18
 -1      3448 9.49642E-05-2.78683E-05-2.87579E-05-8.14913E-07-7.50631E-19-1.53965E-18
 -1      3449 9.47332E-05-2.75741E-05-2.87803E-05-9.97769E-07-6.53963E-20-1.85514E-19
 -1      3450 9.50298E-05-2.79635E-05-2.87411E-05-6.95180E-07-7.23807E-19-6.85601E-19
 -1      3451 9.50532E-05-2.80385E-05-2.87226E-05-5.84977E-07 1.90132E-19-8.72017E-20
 -1      3452 9.48842E-05-2.78034E-05-2.87473E-05-7.30205E-07-1.34865E-19 7.52065E-19
 -1      3453 9.51026E-05-2.81159E-05-2.87073E-05-4.93075E-07 1.03153E-18-3.54858E-19
 -1      3454 9.51201E-05-2.81767E-05-2.86915E-05-4.08681E-07 1.18882E-18 1.11118E-19
 -1      3455 9.50000E-05-2.79930E-05-2.87161E-05-5.22401E-07 7.69666E-19 1.39765E-18
 -1      3456 9.51562E-05-2.82382E-05-2.86781E-05-3.39394E-07 8.30149E-19 6.05486E-20
 -1      3457 9.51687E-05-2.82863E-05-2.86650E-05-2.76011E-07 4.53022E-19 5.26891E-19
 -1      3458 9.50863E-05-2.81457E-05-2.86880E-05-3.63724E-07 1.09945E-18 1.41513E-18
 -1      3459 9.51943E-05-2.83340E-05-2.86536E-05-2.24774E-07 2.76860E-19 3.98320E-19
 -1      3460 9.52028E-05-2.83712E-05-2.86429E-05-1.78153E-07 2.37510E-20 8.07156E-19
 -1      3461 9.51488E-05-2.82660E-05-2.86635E-05-2.44721E-07 5.90346E-19 7.73290E-19
 -1      3462 9.52203E-05-2.84073E-05-2.86335E-05-1.41067E-07-3.52571E-19 9.70461E-19
 -1      3463 9.52258E-05-2.84355E-05-2.86250E-05-1.07559E-07-5.88265E-20 3.53897E-19
 -1      3464 9.51925E-05-2.83585E-05-2.86427E-05-1.57206E-07 1.48253E-19 2.07560E-19
 -1      3465 9.52372E-05-2.84622E-05-2.86174E-05-8.13713E-08-4.97593E-19 6.67496E-19
 -1      3466 9.52405E-05-2.84830E-05-2.86107E-05-5.79258E-08-2.22443E-19 1.58968E-20
 -1      3467 9.52219E-05-2.84282E-05-2.86256E-05-9.42475E-08-3.34141E-19-1.64623E-19
 -1      3468 9.52474E-05-2.85024E-05-2.86047E-05-3.99785E-08 2.64917E-20-7.18504E-19
 -1      3469 9.52491E-05-2.85174E-05-2.85996E-05-2.41041E-08-3.92212E-19-1.21424E-19
 -1      3470 9.52406E-05-2.84794E-05-2.86118E-05-5.01049E-08-3.97424E-19-2.52524E-20
 -1      3471 9.52529E-05-2.85310E-05-2.85948E-05-1.22657E-08-7.51114E-19 2.55335E-19
 -1      3472 9.52535E-05-2.85415E-05-2.85910E-05-1.97023E-09-6.20118E-19 5.86239E-19
 -1      3473 9.52516E-05-2.85162E-05-2.86008E-05-2.01147E-08-3.50265E-19 1.22001E-19
 -1      3474 9.52551E-05-2.85508E-05-2.85874E-05 5.43587E-09-7.09435E-19 6.98013E-19
 -1      3475 9.52550E-05-2.85579E-05-2.85846E-05 1.17130E-08-5.94620E-19 1.17348E-18
 -1      3476 9.52573E-05-2.85419E-05-2.85923E-05-5.60013E-10-3.99909E-19 4.01418E-19
 -1      3477 9.52551E-05-2.85639E-05-2.85818E-05 1.59807E-08-7.31704E-19 7.69100E-19
 -1      3478 9.52546E-05-2.85686E-05-2.85798E-05 1.94371E-08-3.71157E-19 4.12613E-19
 -1      3479 9.52592E-05-2.85591E-05-2.85858E-05 1.14669E-08-1.08341E-18 1.70860E-21
 -1      3480 9.52539E-05-2.85722E-05-2.85777E-05 2.15452E-08-3.44772E-19 5.65298E-20
 -1      3481 9.52531E-05-2.85751E-05-2.85763E-05 2.30795E-08-3.52563E-19 2.03431E-19
 -1      3482 9.52588E-05-2.85702E-05-2.85809E-05 1.81973E-08-6.99523E-19 2.51861E-19
 -1      3483 9.52519E-05-2.85772E-05-2.85748E-05 2.37514E-08 6.90601E-19 4.65535E-19
 -1      3484 9.52511E-05-2.85788E-05-2.85738E-05 2.40205E-08 7.80074E-19 9.73392E-19
 -1      3485 9.52570E-05-2.85769E-05-2.85772E-05 2.13085E-08 3.81399E-19 6.80998E-19
 -1      3486 9.52496E-05-2.85798E-05-2.85727E-05 2.37753E-08 4.35316E-19 1.42429E-18
 -1      3487 9.52488E-05-2.85806E-05-2.85720E-05 2.32432E-08 3.59277E-19 1.44081E-18
 -1      3488 9.52544E-05-2.85806E-05-2.85745E-05 2.20275E-08 6.81454E-19 1.16030E-18
 -1      3489 9.52473E-05-2.85810E-05-2.85713E-05 2.24475E-08-5.64831E-19 9.02292E-19
 -1      3490 9.52465E-05-2.85814E-05-2.85708E-05 2.14273E-08-6.86683E-19 3.79814E-19
 -1      3491 9.52515E-05-2.85824E-05-2.85726E-05 2.12373E-08-6.04685E-19 1.88244E-19
 -1      3492 1.27037E-04-1.43957E-05-4.87622E-05-1.91118E-06 4.84482E-18 2.37275E-19
 -1      3493 9.06115E-05-2.42657E-05-2.84533E-05 1.00079E-05-6.67799E-19 1.00741E-18
 -1      3494 9.07238E-05-2.46767E-05-2.82770E-05 1.09016E-05-8.77871E-19 6.07745E-19
 -1      3495 9.02544E-05-2.51156E-05-2.79331E-05 1.20982E-05-8.43233E-19 8.11902E-19
 -1      3496 9.08581E-05-2.61649E-05-2.76750E-05 1.31085E-05-8.27739E-19 9.43148E-19
 -1      3497 8.75866E-05-2.33934E-05-2.75009E-05 1.11925E-05-7.04418E-19 1.11046E-18
 -1      3498 9.20815E-05-2.45196E-05-2.89713E-05 6.82369E-06-6.86391E-19 2.21465E-18
 -1      3499 9.19021E-05-2.43862E-05-2.89256E-05 7.52157E-06-6.34569E-19 1.74743E-18
 -1      3500 9.27911E-05-2.50265E-05-2.90557E-05 5.57088E-06 2.79828E-19 1.01082E-18
 -1      3501 9.26076E-05-2.48115E-05-2.90487E-05 6.18407E-06-2.25859E-19 1.36464E-18
 -1      3502 9.10233E-05-2.38642E-05-2.87689E-05 6.14880E-06-2.50057E-20 6.82021E-19
 -1      3503 9.33917E-05-2.55818E-05-2.90729E-05 4.49540E-06 1.36295E-19 1.21809E-18
 -1      3504 9.32329E-05-2.53441E-05-2.90898E-05 5.02758E-06 2.69714E-19 1.41398E-18
 -1      3505 9.19843E-05-2.45254E-05-2.88997E-05 5.01903E-06 2.41435E-19-1.04396E-19
 -1      3506 9.38749E-05-2.61160E-05-2.90489E-05 3.57941E-06-3.03345E-19 1.16095E-18
 -1      3507 9.37488E-05-2.58867E-05-2.90790E-05 4.03402E-06-3.09922E-19 1.30946E-18
 -1      3508 9.27749E-05-2.51937E-05-2.89545E-05 4.05475E-06-3.00007E-20 1.19959E-19
 -1      3509 9.42508E-05-2.65961E-05-2.90025E-05 2.80916E-06 5.84381E-20 1.30447E-18
 -1      3510 9.41559E-05-2.63899E-05-2.90382E-05 3.19088E-06 1.30451E-19 1.60912E-18
 -1      3511 9.34054E-05-2.58145E-05-2.89608E-05 3.23394E-06-2.98292E-19 7.55867E-19
 -1      3512 9.45362E-05-2.70097E-05-2.89461E-05 2.17109E-06 2.21759E-19 1.21372E-18
 -1      3513 9.44674E-05-2.68320E-05-2.89827E-05 2.48611E-06 4.04855E-19 1.46508E-18
 -1      3514 9.38969E-05-2.63627E-05-2.89383E-05 2.54240E-06 4.14878E-19 6.06609E-19
 -1      3515 9.47490E-05-2.73559E-05-2.88876E-05 1.65085E-06 6.38566E-19 1.27626E-18
 -1      3516 9.47004E-05-2.72071E-05-2.89222E-05 1.90646E-06 3.56665E-19 1.09531E-18
 -1      3517 9.42732E-05-2.68307E-05-2.89004E-05 1.96793E-06 3.95450E-19 7.67490E-19
 -1      3518 9.49051E-05-2.76394E-05-2.88319E-05 1.23344E-06-9.04017E-19 1.03867E-18
 -1      3519 9.48717E-05-2.75175E-05-2.88630E-05 1.43745E-06 2.75791E-19 1.11558E-18
 -1      3520 9.45569E-05-2.72204E-05-2.88560E-05 1.49818E-06 5.47498E-19 1.33859E-18
 -1      3521 9.50179E-05-2.78676E-05-2.87816E-05 9.03926E-07-2.57108E-20 2.70688E-19
 -1      3522 9.49955E-05-2.77694E-05-2.88086E-05 1.06411E-06-6.56138E-19 5.65749E-19
 -1      3523 9.47678E-05-2.75385E-05-2.88108E-05 1.12031E-06-2.47468E-19 6.55352E-19
 -1      3524 9.50983E-05-2.80484E-05-2.87379E-05 6.48009E-07 1.19869E-19 1.16143E-19
 -1      3525 9.50835E-05-2.79706E-05-2.87606E-05 7.71750E-07 5.30644E-19 4.17983E-19
 -1      3526 9.49223E-05-2.77939E-05-2.87682E-05 8.21360E-07-2.49965E-19-5.28333E-19
 -1      3527 9.51544E-05-2.81896E-05-2.87009E-05 4.52566E-07-1.07279E-18 6.43291E-19
 -1      3528 9.51451E-05-2.81288E-05-2.87195E-05 5.46561E-07-9.05358E-19 5.23424E-20
 -1      3529 9.50339E-05-2.79958E-05-2.87299E-05 5.88804E-07-1.74649E-20-2.55377E-19
 -1      3530 9.51928E-05-2.82983E-05-2.86703E-05 3.05919E-07 7.21575E-19 4.98692E-19
 -1      3531 9.51872E-05-2.82514E-05-2.86854E-05 3.76063E-07 2.64467E-19 1.01181E-18
 -1      3532 9.51130E-05-2.81531E-05-2.86967E-05 4.10997E-07-2.81479E-19-5.79294E-19
 -1      3533 9.52184E-05-2.83807E-05-2.86456E-05 1.97968E-07 4.76532E-20 1.76294E-18
 -1      3534 9.52152E-05-2.83451E-05-2.86575E-05 2.49309E-07 4.29036E-19 1.67129E-18
 -1      3535 9.51679E-05-2.82738E-05-2.86687E-05 2.77490E-07 2.69477E-19 6.75087E-19
 -1      3536 9.52347E-05-2.84422E-05-2.86260E-05 1.20181E-07-1.55115E-19 1.49781E-18
 -1      3537 9.52331E-05-2.84156E-05-2.86352E-05 1.56947E-07 5.43022E-20 1.44577E-18
 -1      3538 9.52050E-05-2.83650E-05-2.86456E-05 1.79184E-07 1.82232E-19 2.22893E-18
 -1      3539 9.52445E-05-2.84873E-05-2.86107E-05 6.55036E-08-1.09316E-18 1.42331E-18
 -1      3540 9.52440E-05-2.84678E-05-2.86177E-05 9.11629E-08-2.11059E-19 1.39414E-18
 -1      3541 9.52291E-05-2.84329E-05-2.86269E-05 1.08358E-07-1.56055E-19 2.31630E-18
 -1      3542 9.52499E-05-2.85196E-05-2.85989E-05 2.82161E-08-1.55787E-18 1.23086E-18
 -1      3543 9.52500E-05-2.85056E-05-2.86043E-05 4.55630E-08-1.86766E-18 1.25278E-18
 -1      3544 9.52440E-05-2.84823E-05-2.86122E-05 5.86013E-08-1.24143E-18 1.40414E-18
 -1      3545 9.52522E-05-2.85423E-05-2.85901E-05 3.76366E-09-1.06218E-18 5.35336E-19
 -1      3546 9.52526E-05-2.85325E-05-2.85940E-05 1.50093E-08-1.53938E-18 8.23018E-19
 -1      3547 9.52524E-05-2.85176E-05-2.86006E-05 2.47052E-08-1.39351E-18 1.08158E-18
 -1      3548 9.52525E-05-2.85577E-05-2.85836E-05-1.14152E-08 6.50611E-19 1.02728E-18
 -1      3549 9.52532E-05-2.85510E-05-2.85864E-05-4.55173E-09-4.29084E-19 1.37649E-18
 -1      3550 9.52563E-05-2.85422E-05-2.85918E-05 2.51500E-09-1.00310E-18-1.28688E-21
 -1      3551 9.52516E-05-2.85678E-05-2.85789E-05-2.00545E-08 2.15888E-18 1.27270E-19
 -1      3552 9.52524E-05-2.85634E-05-2.85808E-05-1.62611E-08 1.99215E-18 1.14464E-18
 -1      3553 9.52573E-05-2.85587E-05-2.85852E-05-1.12203E-08 6.81805E-19 1.18549E-18
 -1      3554 9.52501E-05-2.85740E-05-2.85755E-05-2.42112E-08 1.64963E-18-3.29205E-19
 -1      3555 9.52508E-05-2.85713E-05-2.85769E-05-2.25068E-08 1.80706E-18 2.56180E-20
 -1      3556 9.52565E-05-2.85694E-05-2.85802E-05-1.89971E-08 1.92484E-18 1.36785E-18
 -1      3557 9.52483E-05-2.85776E-05-2.85731E-05-2.53979E-08 6.99364E-19-1.88914E-19
 -1      3558 9.52489E-05-2.85760E-05-2.85741E-05-2.50664E-08 1.48101E-18-4.54979E-19
 -1      3559 9.52546E-05-2.85759E-05-2.85767E-05-2.26930E-08 1.67398E-18 2.05743E-18
 -1      3560 9.52464E-05-2.85794E-05-2.85715E-05-2.46930E-08 2.10592E-19 8.59762E-19
 -1      3561 9.52469E-05-2.85785E-05-2.85721E-05-2.52290E-08 8.09444E-19 3.89991E-19
 -1      3562 9.52522E-05-2.85795E-05-2.85741E-05-2.36875E-08 3.10914E-20 1.51681E-18
 -1      3563 9.52446E-05-2.85802E-05-2.85704E-05-2.28390E-08 1.11634E-20 1.15008E-18
 -1      3564 9.52451E-05-2.85798E-05-2.85708E-05-2.39072E-08 3.57667E-19 1.09010E-18
 -1      3565 9.52497E-05-2.85813E-05-2.85722E-05-2.29650E-08 4.75502E-19 3.12588E-18
 -1      3566 9.52430E-05-2.85805E-05-2.85696E-05-2.03274E-08 5.36007E-19 2.16129E-18
 -1      3567 9.52434E-05-2.85803E-05-2.85699E-05-2.16858E-08-2.81115E-19 1.42287E-18
 -1      3568 9.52472E-05-2.85820E-05-2.85709E-05-2.12221E-08-1.44578E-19 2.97987E-18
 -1      3569 9.52554E-05-2.85882E-05-2.85717E-05 4.81584E-09 4.53730E-19-3.89386E-18
 -1      3570 9.52558E-05-2.85884E-05-2.85717E-05 1.75634E-09 7.43640E-19-2.94553E-18
 -1      3571 7.78850E-05-1.35531E-05-2.74867E-05 1.05843E-05 9.36314E-19-3.10068E-18
 -1      3572 8.12265E-05-1.77610E-05-2.72248E-05 1.25509E-05 8.98411E-19-2.87527E-18
 -1      3573 7.37210E-05-1.10333E-05-2.69568E-05 1.02947E-05 1.17368E-18-3.11523E-18
 -1      3574 1.25992E-04-4.22242E-05-3.57956E-05-9.17119E-06-1.47532E-18 9.13181E-19
 -1      3575 9.52437E-05-2.85823E-05-2.85691E-05-1.64799E-08-6.35329E-19 2.15127E-18
 -1      3576 9.52418E-05-2.85809E-05-2.85690E-05-1.70537E-08-9.77728E-19 3.61797E-18
 -1      3577 9.52419E-05-2.85806E-05-2.85691E-05-1.81122E-08-8.83345E-19 3.38719E-18
 -1      3578 9.52455E-05-2.85830E-05-2.85697E-05-1.69570E-08-8.75929E-19 2.03959E-18
 -1      3579 1.13744E-04-4.84590E-05-2.80512E-05 1.68893E-05 1.11869E-18-6.85587E-19
 -1      3580 1.05201E-04-4.32775E-05-2.63853E-05 2.07057E-05 1.42410E-18-1.15560E-18
 -1      3581 9.92638E-05-3.97707E-05-2.52791E-05 2.13047E-05-1.57542E-18-8.45709E-21
 -1      3582 9.52533E-05-2.85869E-05-2.85713E-05 1.08218E-08 1.19644E-18 1.18570E-19
 -1      3583 9.52545E-05-2.85876E-05-2.85715E-05 8.05694E-09 1.05116E-18-3.04779E-18
 -1      3584 9.52567E-05-2.85878E-05-2.85724E-05 6.76909E-09 2.92212E-19-2.86539E-18
 -1      3585 9.08032E-05-2.73368E-05-2.71994E-05 1.46812E-05-7.65615E-19 1.52564E-18
 -1      3586 9.23684E-05-2.94303E-05-2.68839E-05 1.57806E-05-5.44245E-19 1.36859E-18
 -1      3587 8.69208E-05-2.48276E-05-2.66092E-05 1.40174E-05-5.94655E-19 1.90494E-18
 -1      3588 9.31846E-05-3.17060E-05-2.62902E-05 1.77528E-05-1.09569E-18 9.69628E-19
 -1      3589 9.64121E-05-3.53717E-05-2.60223E-05 1.87693E-05-1.30194E-18 6.53849E-19
 -1      3590 8.74913E-05-2.83306E-05-2.54399E-05 1.79383E-05-1.22595E-18 1.58275E-18
 -1      3591 6.90067E-05-2.15449E-05-2.04250E-05 1.92189E-05-1.48110E-18 1.33723E-18
 -1      3592 6.20031E-05-1.61734E-05-1.94840E-05 1.19343E-05-1.38286E-18 1.53371E-18
 -1      3593 9.13120E-05-2.41907E-05-2.87846E-05 8.28405E-06-9.49096E-19 1.95411E-18
 -1      3594 9.12064E-05-2.42430E-05-2.86825E-05 9.07357E-06-4.43836E-19 1.58254E-18
 -1      3595 8.99077E-05-2.33141E-05-2.85250E-05 7.48630E-06-7.03867E-19 1.29037E-18
 -1      3596 1.04113E-04-4.60636E-05-2.45484E-05-2.38254E-05 2.12043E-18-4.14285E-19
 -1      3597 1.13019E-04-5.04937E-05-2.71390E-05-1.71967E-05 1.97676E-18-9.69522E-19
 -1      3598 9.52496E-05-2.85846E-05-2.85707E-05 1.58525E-08 8.64977E-19 1.83230E-18
 -1      3599 9.52516E-05-2.85859E-05-2.85710E-05 1.36687E-08 8.46503E-19 8.92138E-19
 -1      3600 9.52540E-05-2.85863E-05-2.85719E-05 1.29192E-08 6.04624E-19 6.08663E-20
 -1      3601 5.28076E-05-8.50042E-06-1.87906E-05-7.85971E-06 4.86711E-19-4.22468E-18
 -1      3602 6.02263E-05-1.38640E-05-1.97242E-05-1.62476E-05-1.57429E-19-3.86363E-18
 -1      3603 5.73407E-05-1.34687E-05-1.87708E-05 2.59380E-06-5.23493E-19 1.68178E-18
 -1      3604 5.86303E-05-1.47496E-05-1.86751E-05-9.72565E-06-1.38417E-19 1.67750E-18
 -1      3605 9.90492E-05-2.74171E-05-3.07251E-05 3.29274E-06-2.67242E-19-1.97707E-18
 -1      3606 6.41890E-05-2.03660E-05-1.86946E-05-2.02199E-05 7.53978E-19 1.09664E-18
 -1      3607 7.27300E-05-2.75163E-05-1.92527E-05-2.70762E-05 1.04447E-18 5.14149E-19
 -1      3608 5.18664E-05-7.68579E-06-1.88094E-05 9.09517E-06 1.39594E-18-4.09440E-18
 -1      3609 5.00344E-05-6.58852E-06-1.84265E-05 2.75852E-07 1.05453E-18-4.30166E-18
 -1      3610 8.22218E-05-3.35296E-05-2.06195E-05-2.83913E-05 1.28737E-18 3.20205E-19
 -1      3611 9.34369E-05-4.08723E-05-2.27286E-05-2.76171E-05 1.65913E-18 1.55933E-19
 -1      3612 8.15128E-05-3.04845E-05-2.16274E-05-2.42343E-05 9.28798E-19 6.09268E-19
 -1      3613 1.02508E-04-4.09341E-05-2.59918E-05-2.09769E-05-1.02840E-18-9.35455E-19
 -1      3614 7.46768E-05-1.29783E-05-2.63701E-05-8.66225E-06 8.30370E-19-2.51528E-18
 -1      3615 9.32405E-05-3.61338E-05-2.46353E-05 2.49998E-05 1.69923E-18-1.91445E-18
 -1      3616 8.24605E-05-2.86014E-05-2.27394E-05 2.60256E-05 1.83065E-18-2.32643E-18
 -1      3617 9.55238E-05-3.50872E-05-2.57081E-05-1.99879E-05-7.09125E-19-1.38986E-18
 -1      3618 7.15896E-05-1.11984E-05-2.58490E-05 1.13726E-05 1.22956E-18-3.10910E-18
 -1      3619 9.05123E-05-3.51019E-05-2.38768E-05 2.33297E-05-1.78727E-18 7.48274E-19
 -1      3620 7.96612E-05-2.75645E-05-2.21414E-05 2.19703E-05-1.61493E-18 1.01566E-18
 -1      3621 1.02897E-04-3.26122E-05-3.00170E-05 5.70754E-06 1.06284E-20-1.54602E-18
 -1      3622 1.05476E-04-3.56218E-05-2.99476E-05 5.82940E-06 3.74398E-20-1.39594E-18
 -1      3623 1.21289E-04-4.92538E-05-3.10957E-05 5.31202E-06 3.68837E-19 7.36257E-20
 -1      3624 1.02282E-04-3.61082E-05-2.84483E-05-1.47435E-05-8.89914E-20-4.95567E-19
 -1      3625 1.24258E-04-4.96066E-05-3.21976E-05 3.22377E-07 6.94315E-19-2.46121E-18
 -1      3626 9.52450E-05-2.85812E-05-2.85702E-05 2.08593E-08-7.92033E-19-3.50130E-19
 -1      3627 9.52443E-05-2.85812E-05-2.85699E-05 1.97394E-08-5.86276E-19-1.26312E-18
 -1      3628 9.52458E-05-2.85823E-05-2.85701E-05 1.88881E-08-5.11159E-19-1.88620E-18
 -1      3629 9.52486E-05-2.85827E-05-2.85711E-05 2.00696E-08-1.24708E-18-4.42138E-19
 -1      3630 8.87072E-05-2.30580E-05-2.81207E-05 9.11489E-06-8.39896E-19 1.51010E-18
 -1      3631 7.73916E-05-2.34079E-05-2.30507E-05 2.28096E-05 1.65509E-18-2.64739E-18
 -1      3632 1.14453E-04-4.88267E-05-2.80869E-05-1.21439E-05 1.60707E-18-1.06311E-18
 -1      3633 1.20776E-04-5.19060E-05-2.92076E-05-9.21737E-06 1.88703E-18-1.66786E-18
 -1      3634 9.52577E-05-2.85884E-05-2.85726E-05 8.63934E-11 3.12789E-19-2.22352E-18
 -1      3635 9.52558E-05-2.85884E-05-2.85717E-05-1.63313E-09 6.24238E-19-1.50224E-18
 -1      3636 9.52554E-05-2.85882E-05-2.85717E-05-4.68047E-09 5.59690E-19-4.61755E-19
 -1      3637 6.45708E-05-1.56313E-05-2.08131E-05 5.72588E-06-7.29133E-19 1.40844E-18
 -1      3638 9.52419E-05-2.85803E-05-2.85692E-05-1.90897E-08 2.72568E-19 2.42609E-18
 -1      3639 1.18072E-04-4.92479E-05-2.94453E-05 1.14207E-05 9.23319E-19-2.67497E-19
 -1      3640 1.14752E-04-4.62138E-05-2.93433E-05 1.06107E-05 7.37355E-19-6.54975E-19
 -1      3641 7.95738E-05-1.88981E-05-2.60964E-05 1.53426E-05 1.17011E-18-2.76057E-18
 -1      3642 8.57098E-05-2.25752E-05-2.69724E-05 1.49696E-05 9.87640E-19-2.78232E-18
 -1      3643 9.52469E-05-2.85831E-05-2.85702E-05-1.79784E-08-5.74064E-19 2.62063E-18
 -1      3644 9.52448E-05-2.85820E-05-2.85698E-05-1.89299E-08-9.47889E-19 3.36490E-18
 -1      3645 7.62467E-05-1.64810E-05-2.54930E-05-1.29363E-05 3.25538E-19-2.54254E-18
 -1      3646 6.81991E-05-1.11121E-05-2.45478E-05-9.44717E-06 6.68895E-19-2.94522E-18
 -1      3647 6.16460E-05-6.42534E-06-2.36791E-05 5.33073E-06 1.22851E-18-3.65878E-18
 -1      3648 6.37051E-05-7.79465E-06-2.38964E-05 9.02072E-06 1.37337E-18-3.53921E-18
 -1      3649 6.46396E-05-1.24391E-05-2.23053E-05-1.26171E-05 2.46586E-19-3.38511E-18
 -1      3650 6.64094E-05-1.63562E-05-2.12141E-05-1.77086E-05-1.81940E-19-3.46182E-18
 -1      3651 7.91411E-05-2.47117E-05-2.31531E-05 1.79758E-05-1.65537E-18 6.62532E-19
 -1      3652 1.27645E-04-1.48308E-05-4.89512E-05 5.79873E-06 4.60468E-18 1.03963E-18
 -1      3653 9.91328E-05-4.15792E-05-2.44883E-05-2.25303E-05 1.43204E-18-4.51730E-19
 -1      3654 1.09204E-04-3.89155E-05-2.99805E-05 5.48931E-06 9.44342E-20-9.22351E-19
 -1      3655 1.12154E-04-4.17655E-05-3.02261E-05 4.43507E-06 1.64490E-19-7.73422E-19
 -1      3656 5.65011E-05-7.98729E-06-2.04931E-05-3.53426E-06 8.56852E-19-3.89987E-18
 -1      3657 6.57586E-05-1.61708E-05-2.12395E-05-8.06841E-06-2.33093E-19 7.90401E-19
 -1      3658 6.37389E-05-1.72516E-05-1.97036E-05-1.37192E-05 3.33526E-19 1.38608E-18
 -1      3659 7.02858E-05-2.09388E-05-2.12104E-05-1.71112E-05 3.04523E-19 1.05874E-18
 -1      3660 9.96931E-05-3.79523E-05-2.64316E-05 1.94527E-05 1.35227E-18-1.68098E-18
 -1      3661 9.52514E-05-2.85859E-05-2.85709E-05-1.37731E-08 1.00324E-18-4.78369E-20
 -1      3662 9.52494E-05-2.85846E-05-2.85706E-05-1.59960E-08-2.49099E-19 6.90709E-19
 -1      3663 9.52489E-05-2.85836E-05-2.85708E-05-1.81188E-08-5.10561E-19 2.07652E-18
 -1      3664 7.42400E-05-2.03834E-05-2.32422E-05-1.83603E-05-3.23692E-19-2.82957E-18
 -1      3665 1.13114E-04-4.37452E-05-2.98532E-05 7.38623E-06 3.89088E-19-5.98435E-19
 -1      3666 9.52473E-05-2.85833E-05-2.85703E-05 1.78040E-08 1.20452E-19-3.43878E-20
 -1      3667 1.05472E-04-3.72633E-05-2.93822E-05 8.88717E-06 3.06293E-19-1.26835E-18
 -1      3668 8.60768E-05-2.38433E-05-2.67715E-05-1.50719E-05 1.11709E-19-2.00453E-18
 -1      3669 8.03981E-05-2.20080E-05-2.48513E-05-1.66530E-05-1.71948E-19-2.50567E-18
 -1      3670 8.64591E-05-2.80795E-05-2.47074E-05-2.05999E-05-6.28809E-19-2.21492E-18
 -1      3671 9.43529E-05-2.98086E-05-2.75331E-05-1.52891E-05-1.30324E-19-1.31393E-18
 -1      3672 9.52497E-05-2.85839E-05-2.85710E-05 1.77012E-08-5.50489E-19 1.24281E-18
 -1      3673 9.42344E-05-2.93331E-05-2.77441E-05 1.35989E-05 7.73864E-19-2.24324E-18
 -1      3674 9.44088E-05-2.75868E-05-2.86587E-05 1.05580E-05 5.87434E-19-2.33816E-18
 -1      3675 9.22370E-05-2.49249E-05-2.88593E-05 3.43041E-06 1.72661E-19 3.40054E-20
 -1      3676 9.18767E-05-2.45811E-05-2.88404E-05 3.84677E-06-2.94316E-19-9.51470E-21
 -1      3677 1.09838E-04-4.57164E-05-2.72900E-05-1.41696E-05 9.25546E-19-9.19770E-19
 -1      3678 9.52513E-05-2.85841E-05-2.85716E-05 1.80134E-08-3.37555E-19 8.25565E-19
 -1      3679 7.86382E-05-2.66373E-05-2.21092E-05-2.11079E-05 4.77674E-19 5.30812E-19
 -1      3680 8.61362E-05-3.22672E-05-2.32366E-05-2.25425E-05 5.86782E-19-2.17118E-19
 -1      3681 9.52546E-05-2.85877E-05-2.85715E-05-7.92872E-09 7.41117E-19 1.08248E-18
 -1      3682 9.52534E-05-2.85870E-05-2.85713E-05-1.07059E-08 2.20482E-19 8.29520E-19
 -1      3683 9.52568E-05-2.85879E-05-2.85724E-05-6.59664E-09-1.65785E-19-5.17932E-20
 -1      3684 8.69817E-05-2.19833E-05-2.78872E-05 7.64766E-06-7.39978E-19 1.12927E-18
 -1      3685 8.63626E-05-2.18886E-05-2.76196E-05 8.48107E-06-8.14494E-19 1.17902E-18
 -1      3686 1.05407E-04-4.20399E-05-2.70830E-05-1.40443E-05 8.56254E-19-8.00339E-19
 -1      3687 1.01685E-04-3.88109E-05-2.68521E-05-1.44540E-05 4.24168E-19-6.54182E-19
 -1      3688 1.02632E-04-4.24907E-05-2.59924E-05-1.85831E-05 1.10799E-18-9.93927E-19
 -1      3689 9.90845E-05-3.59368E-05-2.69908E-05-1.33995E-05 3.34282E-19-2.70368E-19
 -1      3690 9.65183E-05-3.34008E-05-2.70232E-05-1.30036E-05 5.42703E-19 2.45865E-19
 -1      3691 9.60903E-05-3.55364E-05-2.61000E-05-1.64180E-05 6.42991E-19-4.46297E-19
 -1      3692 9.51843E-05-3.14366E-05-2.72647E-05-1.17506E-05 1.76967E-19 7.38356E-19
 -1      3693 9.36061E-05-2.96841E-05-2.73965E-05-1.10555E-05-2.08675E-19 7.32217E-19
 -1      3694 9.24581E-05-3.06153E-05-2.65818E-05-1.35310E-05 5.28593E-19-6.90216E-20
 -1      3695 9.30481E-05-2.84634E-05-2.76413E-05-9.91695E-06-3.27584E-19 5.57071E-19
 -1      3696 9.21794E-05-2.73607E-05-2.77918E-05-9.17116E-06-1.47237E-19 7.40332E-19
 -1      3697 9.07760E-05-2.75584E-05-2.71266E-05-1.08726E-05-2.62696E-19-2.14934E-19
 -1      3698 9.20728E-05-2.66788E-05-2.80016E-05-8.21365E-06-4.35070E-19 6.73866E-19
 -1      3699 9.16669E-05-2.60565E-05-2.81343E-05-7.51554E-06-5.07372E-19 4.95128E-19
 -1      3700 9.02283E-05-2.58112E-05-2.76175E-05-8.65593E-06-5.44659E-19 1.91324E-19
 -1      3701 9.18090E-05-2.57459E-05-2.82976E-05-6.73208E-06-4.74446E-19 3.05694E-19
 -1      3702 9.16868E-05-2.54561E-05-2.83998E-05-6.11134E-06-6.32250E-19 7.72978E-19
 -1      3703 9.03266E-05-2.49584E-05-2.80136E-05-6.87317E-06-3.29249E-19 4.88398E-19
 -1      3704 9.19533E-05-2.53894E-05-2.85183E-05-5.47405E-06-6.54361E-19 1.22838E-18
 -1      3705 9.19930E-05-2.53174E-05-2.85890E-05-4.93413E-06 2.75845E-20 1.19125E-18
 -1      3706 9.07660E-05-2.46923E-05-2.83106E-05-5.45120E-06-2.82090E-19 3.85725E-20
 -1      3707 9.23084E-05-2.54015E-05-2.86691E-05-4.41534E-06 3.88290E-19 9.87621E-19
 -1      3708 9.24309E-05-2.54630E-05-2.87123E-05-3.95141E-06 5.16110E-19 9.91212E-19
 -1      3709 9.13601E-05-2.47936E-05-2.85197E-05-4.31320E-06 1.50068E-19 4.31028E-19
 -1      3710 9.27501E-05-2.56318E-05-2.87619E-05-3.52881E-06 3.32923E-19 9.56476E-19
 -1      3711 9.29059E-05-2.57674E-05-2.87837E-05-3.13421E-06-1.67109E-19 4.43098E-19
 -1      3712 9.19963E-05-2.51087E-05-2.86569E-05-3.39752E-06 1.47893E-19 2.66608E-19
 -1      3713 9.32034E-05-2.59752E-05-2.88104E-05-2.79061E-06 1.25884E-19 7.07061E-19
 -1      3714 9.33632E-05-2.61444E-05-2.88164E-05-2.45864E-06 2.29740E-19 5.18574E-19
 -1      3715 9.26086E-05-2.55313E-05-2.87388E-05-2.65831E-06 4.00452E-19 5.34492E-19
 -1      3716 9.36259E-05-2.63611E-05-2.88268E-05-2.18060E-06-2.48341E-19 8.16178E-19
 -1      3717 9.37737E-05-2.65378E-05-2.88222E-05-1.90471E-06-3.67956E-19 7.44473E-19
 -1      3718 9.31613E-05-2.59901E-05-2.87801E-05-2.06166E-06 3.33007E-19 1.65269E-18
 -1      3719 9.39966E-05-2.67448E-05-2.88217E-05-1.68140E-06-1.82803E-19 8.51538E-19
 -1      3720 9.41249E-05-2.69130E-05-2.88106E-05-1.45517E-06-3.02841E-19 1.49334E-18
 -1      3721 9.36382E-05-2.64395E-05-2.87930E-05-1.58179E-06-1.04547E-20 2.57615E-18
 -1      3722 9.43082E-05-2.70999E-05-2.88032E-05-1.27753E-06-8.75281E-19 2.01227E-18
 -1      3723 9.44145E-05-2.72511E-05-2.87886E-05-1.09464E-06-1.06103E-19 1.60834E-18
 -1      3724 9.40356E-05-2.68527E-05-2.87874E-05-1.19839E-06-2.43061E-19 2.27339E-18
 -1      3725 9.45611E-05-2.74131E-05-2.87775E-05-9.54926E-07 1.45475E-19 1.30580E-18
 -1      3726 9.46461E-05-2.75434E-05-2.87617E-05-8.09248E-07 4.64291E-20 1.22218E-18
 -1      3727 9.43571E-05-2.72162E-05-2.87705E-05-8.94793E-07-1.63959E-19 1.95041E-18
 -1      3728 9.47604E-05-2.76793E-05-2.87489E-05-7.00752E-07-1.08277E-19 1.56349E-18
 -1      3729 9.48263E-05-2.77881E-05-2.87333E-05-5.86493E-07 2.03004E-19 1.88302E-18
 -1      3730 9.46107E-05-2.75251E-05-2.87477E-05-6.56968E-07-6.15116E-20 2.06950E-18
 -1      3731 9.49134E-05-2.78991E-05-2.87202E-05-5.03412E-07-4.11143E-19 1.67640E-18
 -1      3732 9.49630E-05-2.79875E-05-2.87057E-05-4.15222E-07 5.92839E-20 9.33159E-19
 -1      3733 9.48059E-05-2.77805E-05-2.87228E-05-4.72955E-07-6.20994E-19 7.14013E-19
 -1      3734 9.50278E-05-2.80761E-05-2.86934E-05-3.52576E-07 1.43747E-18 6.75969E-20
 -1      3735 9.50640E-05-2.81462E-05-2.86805E-05-2.85649E-07 1.09697E-18 2.49108E-19
 -1      3736 9.49525E-05-2.79864E-05-2.86980E-05-3.32525E-07-9.68384E-20-2.82583E-19
 -1      3737 9.51109E-05-2.82154E-05-2.86694E-05-2.39211E-07 8.54136E-19 8.42507E-20
 -1      3738 9.51365E-05-2.82698E-05-2.86582E-05-1.89335E-07 2.77062E-19-1.46432E-19
 -1      3739 9.50599E-05-2.81489E-05-2.86749E-05-2.26982E-07 7.33211E-19-8.65338E-19
 -1      3740 9.51695E-05-2.83226E-05-2.86486E-05-1.55570E-07-4.06873E-19-5.39574E-19
 -1      3741 9.51870E-05-2.83640E-05-2.86392E-05-1.19137E-07-3.44792E-19-1.10195E-18
 -1      3742 9.51365E-05-2.82744E-05-2.86543E-05-1.49004E-07-4.12168E-19-1.81828E-18
 -1      3743 9.52094E-05-2.84035E-05-2.86310E-05-9.51294E-08 6.24929E-20-1.06381E-18
 -1      3744 9.52208E-05-2.84342E-05-2.86233E-05-6.91171E-08-2.58844E-19-9.91501E-19
 -1      3745 9.51893E-05-2.83694E-05-2.86366E-05-9.25023E-08-1.84056E-19-1.92574E-18
 -1      3746 9.52353E-05-2.84630E-05-2.86166E-05-5.25006E-08-8.18563E-19-1.17270E-18
 -1      3747 9.52422E-05-2.84853E-05-2.86104E-05-3.44235E-08-6.40130E-19-1.18301E-18
 -1      3748 9.52243E-05-2.84396E-05-2.86216E-05-5.24831E-08-5.68887E-19-1.93377E-18
 -1      3749 9.52510E-05-2.85059E-05-2.86049E-05-2.33076E-08-1.68690E-19-1.05148E-18
 -1      3750 9.52547E-05-2.85216E-05-2.86001E-05-1.11622E-08 1.13658E-20-1.31271E-18
 -1      3751 9.52461E-05-2.84904E-05-2.86094E-05-2.49108E-08-1.43974E-19-2.61067E-18
 -1      3752 9.52594E-05-2.85358E-05-2.85957E-05-4.06005E-09 3.12653E-19-1.09178E-18
 -1      3753 9.52609E-05-2.85466E-05-2.85920E-05 3.74012E-09-1.17351E-19-8.55756E-19
 -1      3754 9.52586E-05-2.85261E-05-2.85995E-05-6.57251E-09 6.87083E-19-2.58735E-18
 -1      3755 9.52629E-05-2.85561E-05-2.85886E-05 7.97832E-09-5.36054E-19-6.68981E-19
 -1      3756 9.52630E-05-2.85631E-05-2.85857E-05 1.26658E-08-9.69735E-19-4.68902E-19
 -1      3757 9.52645E-05-2.85505E-05-2.85917E-05 5.04919E-09-3.76018E-19-2.93018E-18
 -1      3758 9.52631E-05-2.85691E-05-2.85831E-05 1.49135E-08-8.55968E-19 4.39999E-19
 -1      3759 9.52623E-05-2.85735E-05-2.85809E-05 1.74278E-08-1.42210E-19 4.87425E-19
 -1      3760 9.52661E-05-2.85663E-05-2.85856E-05 1.18942E-08-6.73958E-19-8.75436E-19
 -1      3761 9.52613E-05-2.85770E-05-2.85789E-05 1.83348E-08 2.60810E-19 1.06885E-18
 -1      3762 9.52601E-05-2.85796E-05-2.85773E-05 1.93762E-08 8.64576E-19 3.62928E-19
 -1      3763 9.52649E-05-2.85761E-05-2.85810E-05 1.54300E-08 4.01231E-19-9.00638E-20
 -1      3764 9.52585E-05-2.85814E-05-2.85758E-05 1.94232E-08 4.88604E-19 2.88843E-19
 -1      3765 9.52570E-05-2.85827E-05-2.85747E-05 1.95022E-08-5.23084E-19 3.57837E-19
 -1      3766 9.52621E-05-2.85817E-05-2.85774E-05 1.67437E-08 1.82886E-19-3.56846E-19
 -1      3767 9.52551E-05-2.85835E-05-2.85735E-05 1.89823E-08-5.77313E-19 6.50088E-21
 -1      3768 9.52536E-05-2.85841E-05-2.85726E-05 1.84741E-08-4.70998E-19-3.98441E-19
 -1      3769 9.52585E-05-2.85844E-05-2.85747E-05 1.66514E-08-6.24944E-19-5.96847E-19
 -1      3770 8.50953E-05-2.17303E-05-2.71980E-05 9.42273E-06-7.50413E-19 8.95089E-19
 -1      3771 8.45644E-05-2.19725E-05-2.68013E-05 1.05249E-05-3.75392E-19 1.21973E-18
 -1      3772 8.36184E-05-2.05681E-05-2.69820E-05 7.82793E-06-7.79214E-19 8.67227E-19
 -1      3773 9.52543E-05-2.85853E-05-2.85725E-05 1.59143E-08-3.20172E-19 5.92557E-19
 -1      3774 6.26337E-05-1.24125E-05-2.14843E-05 1.62444E-05 1.52463E-18-3.35643E-18
 -1      3775 5.56661E-05-8.94594E-06-1.97269E-05 1.29808E-05 1.47256E-18-3.86848E-18
 -1      3776 6.81154E-05-1.11697E-05-2.44790E-05 1.31034E-05 1.41121E-18-3.12641E-18
 -1      3777 7.33832E-05-1.43810E-05-2.51301E-05 1.46758E-05 1.30001E-18-2.92077E-18
 -1      3778 7.68030E-05-1.92532E-05-2.46912E-05 1.77090E-05 1.30249E-18-2.78487E-18
 -1      3779 6.44649E-05-1.07048E-05-2.29786E-05 1.31263E-05 1.45081E-18-3.40523E-18
 -1      3780 9.12826E-05-2.41645E-05-2.87789E-05 4.23474E-06-3.64990E-19 3.97917E-19
 -1      3781 9.08362E-05-2.38031E-05-2.87279E-05 4.71793E-06 4.58106E-19 9.94096E-20
 -1      3782 9.08508E-05-2.38813E-05-2.86866E-05 3.56557E-06-2.97826E-20-4.94364E-20
 -1      3783 9.00999E-05-2.33660E-05-2.86180E-05 5.17299E-06 5.61339E-19-2.13495E-21
 -1      3784 8.95663E-05-2.30199E-05-2.85184E-05 5.73563E-06-8.87366E-20 3.56624E-19
 -1      3785 8.95370E-05-2.29874E-05-2.85026E-05 4.33162E-06 7.94352E-20 4.82456E-19
 -1      3786 9.29932E-05-2.56110E-05-2.88872E-05 2.74209E-06-4.17459E-19-2.56440E-19
 -1      3787 9.27099E-05-2.53016E-05-2.88884E-05 3.09806E-06-3.62595E-21 1.61335E-19
 -1      3788 9.19040E-05-2.47083E-05-2.87869E-05 2.90284E-06 6.54610E-22-9.31642E-19
 -1      3789 9.35834E-05-2.62081E-05-2.88825E-05 2.15917E-06 1.10384E-19-5.81373E-19
 -1      3790 9.33649E-05-2.59396E-05-2.88954E-05 2.45939E-06 6.66122E-20-7.60634E-19
 -1      3791 9.27377E-05-2.54440E-05-2.88316E-05 2.33022E-06 1.41892E-19-1.33813E-18
 -1      3792 9.40378E-05-2.67138E-05-2.88590E-05 1.67282E-06 1.57553E-19-2.96285E-19
 -1      3793 9.38720E-05-2.64871E-05-2.88779E-05 1.92194E-06-5.08768E-21-2.61457E-19
 -1      3794 9.33896E-05-2.60796E-05-2.88407E-05 1.84111E-06-4.84989E-19-1.44003E-18
 -1      3795 9.43830E-05-2.71332E-05-2.88260E-05 1.27375E-06 3.85569E-19 4.65923E-19
 -1      3796 9.42591E-05-2.69457E-05-2.88472E-05 1.47697E-06 5.95205E-19 6.36286E-19
 -1      3797 9.38932E-05-2.66160E-05-2.88283E-05 1.43009E-06-2.06314E-20-1.02097E-18
 -1      3798 9.46421E-05-2.74747E-05-2.87897E-05 9.51953E-07-1.94476E-19-1.31106E-19
 -1      3799 9.45507E-05-2.73224E-05-2.88107E-05 1.11489E-06 5.62824E-19 9.96346E-19
 -1      3800 9.42774E-05-2.70599E-05-2.88040E-05 1.09093E-06 1.81091E-19-4.14612E-19
 -1      3801 9.48337E-05-2.77484E-05-2.87537E-05 6.96967E-07 4.42028E-20-1.05473E-19
 -1      3802 9.47673E-05-2.76266E-05-2.87733E-05 8.25373E-07-4.50449E-19 1.04084E-19
 -1      3803 9.45669E-05-2.74209E-05-2.87743E-05 8.16242E-07 6.80119E-20 1.09403E-18
 -1      3804 9.49734E-05-2.79643E-05-2.87203E-05 4.98468E-07-1.15511E-19 7.16042E-19
 -1      3805 9.49259E-05-2.78684E-05-2.87378E-05 5.97918E-07 3.46947E-19 5.33722E-19
 -1      3806 9.47819E-05-2.77098E-05-2.87433E-05 5.97890E-07-1.55077E-19 1.13133E-18
 -1      3807 9.50734E-05-2.81322E-05-2.86907E-05 3.46710E-07-3.62223E-19 4.54261E-19
 -1      3808 9.50401E-05-2.80577E-05-2.87058E-05 4.22375E-07-3.83704E-19 7.60598E-19
 -1      3809 9.49391E-05-2.79375E-05-2.87137E-05 4.27526E-07 2.29487E-19 1.46283E-18
 -1      3810 9.51435E-05-2.82607E-05-2.86652E-05 2.32856E-07-7.61378E-19 1.74945E-18
 -1      3811 9.51207E-05-2.82038E-05-2.86779E-05 2.89356E-07-5.84473E-19 7.37079E-19
 -1      3812 9.50520E-05-2.81143E-05-2.86867E-05 2.97088E-07-9.26060E-19 1.27005E-18
 -1      3813 9.51913E-05-2.83576E-05-2.86439E-05 1.49156E-07 3.83831E-19 2.61357E-18
 -1      3814 9.51762E-05-2.83148E-05-2.86543E-05 1.90497E-07 4.33850E-20 2.36946E-18
 -1      3815 9.51312E-05-2.82494E-05-2.86630E-05 1.99154E-07-8.35908E-19 2.29269E-18
 -1      3816 9.52227E-05-2.84293E-05-2.86264E-05 8.89984E-08-2.07479E-20 2.71842E-18
 -1      3817 9.52132E-05-2.83977E-05-2.86347E-05 1.18565E-07 2.03803E-19 2.53998E-18
 -1      3818 9.51854E-05-2.83510E-05-2.86429E-05 1.27145E-07 1.47346E-19 2.32746E-18
 -1      3819 9.52424E-05-2.84813E-05-2.86123E-05 4.68831E-08-1.54056E-18 2.20231E-18
 -1      3820 9.52368E-05-2.84584E-05-2.86189E-05 6.74685E-08-6.33690E-19 2.55890E-18
 -1      3821 9.52211E-05-2.84260E-05-2.86262E-05 7.54124E-08-3.05978E-20 2.84298E-18
 -1      3822 9.52538E-05-2.85183E-05-2.86012E-05 1.83314E-08-1.02505E-18 2.03540E-18
 -1      3823 9.52509E-05-2.85021E-05-2.86063E-05 3.21954E-08-1.55141E-18 2.70224E-18
 -1      3824 9.52434E-05-2.84803E-05-2.86126E-05 3.92311E-08-1.33541E-18 3.19595E-18
 -1      3825 9.52594E-05-2.85438E-05-2.85926E-05-2.29268E-10-7.89901E-19 1.52296E-18
 -1      3826 9.52583E-05-2.85326E-05-2.85965E-05 8.70546E-09-6.91646E-19 1.73740E-18
 -1      3827 9.52562E-05-2.85186E-05-2.86018E-05 1.47446E-08-6.84711E-19 2.91325E-18
 -1      3828 9.52612E-05-2.85608E-05-2.85860E-05-1.15931E-08 7.54693E-19 9.91669E-19
 -1      3829 9.52613E-05-2.85534E-05-2.85889E-05-6.19324E-09 1.59378E-20 1.05479E-18
 -1      3830 9.52626E-05-2.85449E-05-2.85933E-05-1.12985E-09 5.45513E-19 2.37946E-18
 -1      3831 9.52606E-05-2.85716E-05-2.85811E-05-1.79026E-08 1.67020E-18 1.60747E-18
 -1      3832 9.52613E-05-2.85669E-05-2.85832E-05-1.49738E-08 1.37139E-18 1.28690E-18
 -1      3833 9.52646E-05-2.85623E-05-2.85867E-05-1.08051E-08 1.12628E-19 1.04883E-18
 -1      3834 9.52585E-05-2.85780E-05-2.85774E-05-2.07659E-08 1.28214E-18 2.20516E-18
 -1      3835 9.52596E-05-2.85752E-05-2.85789E-05-1.95140E-08 2.00927E-18 1.58596E-18
 -1      3836 9.52637E-05-2.85732E-05-2.85817E-05-1.61316E-08 1.38818E-18 1.50403E-18
 -1      3837 9.52556E-05-2.85814E-05-2.85747E-05-2.13617E-08-1.18597E-19 2.77307E-18
 -1      3838 9.52569E-05-2.85800E-05-2.85758E-05-2.12091E-08 5.14967E-19 2.41102E-18
 -1      3839 9.52613E-05-2.85796E-05-2.85779E-05-1.84990E-08 4.90826E-19 3.10535E-18
 -1      3840 9.52525E-05-2.85830E-05-2.85726E-05-2.05071E-08 2.32854E-19 3.36319E-18
 -1      3841 9.52538E-05-2.85823E-05-2.85735E-05-2.10612E-08 2.65820E-20 2.41094E-18
 -1      3842 9.52580E-05-2.85830E-05-2.85751E-05-1.89221E-08-3.35753E-19 2.62661E-18
 -1      3843 9.52501E-05-2.85835E-05-2.85714E-05-1.88875E-08-8.32271E-19 3.11460E-18
 -1      3844 9.52513E-05-2.85833E-05-2.85720E-05-1.98413E-08 6.86344E-20 3.31438E-18
 -1      3845 9.52551E-05-2.85844E-05-2.85732E-05-1.80996E-08 1.64519E-19 3.18835E-18
 -1      3846 9.52528E-05-2.85850E-05-2.85719E-05-1.68232E-08-2.08206E-19 1.97036E-18
 -1      3847 6.48004E-05-1.03526E-05-2.31757E-05-8.42764E-06 6.53774E-19-3.25893E-18
 -1      3848 6.41862E-05-7.43546E-06-2.42860E-05-3.79808E-06 1.12157E-18-3.23415E-18
 -1      3849 6.20517E-05-6.22914E-06-2.39550E-05-7.37357E-08 1.09392E-18-3.49000E-18
 -1      3850 5.97935E-05-8.41856E-06-2.19455E-05-6.66249E-06 7.21847E-19-3.59256E-18
 -1      3851 9.83239E-05-2.99009E-05-2.93884E-05 8.35733E-06 2.91267E-19-1.97487E-18
 -1      3852 8.86665E-05-2.25982E-05-2.83380E-05 6.28321E-06-2.54022E-19 1.20920E-19
 -1      3853 8.80636E-05-2.23271E-05-2.81681E-05 6.95290E-06-2.95942E-19 7.87608E-19
 -1      3854 8.79196E-05-2.20736E-05-2.81960E-05 5.23284E-06-1.84564E-19 2.75862E-19
 -1      3855 6.00034E-05-6.78267E-06-2.26306E-05 2.85384E-06 1.14841E-18-3.70442E-18
 -1      3856 6.92219E-05-1.71181E-05-2.23418E-05 9.46375E-06-1.30681E-18 8.14091E-19
 -1      3857 6.58635E-05-1.49357E-05-2.17647E-05 1.16072E-06-3.38767E-19 1.16990E-18
 -1      3858 7.86633E-05-2.26784E-05-2.39703E-05 1.55785E-05-1.64488E-18 1.27398E-18
 -1      3859 8.30973E-05-2.21360E-05-2.61863E-05 1.18769E-05-2.03157E-19 1.10527E-18
 -1      3860 8.30025E-05-2.30443E-05-2.56688E-05 1.34520E-05-6.14403E-19 1.50564E-18
 -1      3861 8.09211E-05-2.03280E-05-2.59018E-05 9.96356E-06-5.20180E-19 5.45959E-19
 -1      3862 7.84727E-05-2.20819E-05-2.41237E-05 2.02247E-05 1.55959E-18-2.62427E-18
 -1      3863 6.83383E-05-1.52323E-05-2.24793E-05 1.92994E-05 1.59359E-18-3.03772E-18
 -1      3864 9.95676E-05-2.94488E-05-3.00872E-05 5.56034E-06-4.22921E-20-1.87135E-18
 -1      3865 5.71489E-05-6.52935E-06-2.15971E-05 5.21595E-07 1.17107E-18-3.78012E-18
 -1      3866 9.52584E-05-2.85875E-05-2.85733E-05 8.62029E-09 4.82753E-19-2.36854E-18
 -1      3867 9.52594E-05-2.85880E-05-2.85734E-05 5.42789E-09-4.11413E-19-2.61008E-18
 -1      3868 9.52565E-05-2.85864E-05-2.85729E-05 1.31154E-08 1.29125E-19-9.61579E-19
 -1      3869 1.10235E-04-4.26886E-05-2.87738E-05 1.20787E-05 7.06161E-19-1.13424E-18
 -1      3870 5.70270E-05-7.58659E-06-2.10360E-05 8.06803E-06 1.32970E-18-3.91464E-18
 -1      3871 9.47809E-05-3.72771E-05-2.44689E-05-2.13117E-05 7.64812E-19-3.86682E-19
 -1      3872 7.50343E-05-1.97872E-05-2.36009E-05 1.27517E-05-1.10740E-18 2.15146E-19
 -1      3873 9.17364E-05-3.36079E-05-2.47820E-05-1.89695E-05 6.45684E-19-6.39776E-19
 -1      3874 7.64206E-05-2.31380E-05-2.27331E-05-1.62630E-05-1.34314E-19 9.76424E-19
 -1      3875 9.52538E-05-2.85863E-05-2.85718E-05-1.29980E-08 1.55545E-19 9.25274E-20
 -1      3876 8.59553E-05-2.12206E-05-2.77135E-05 6.34375E-06-1.53688E-19-7.46117E-20
 -1      3877 9.66472E-05-3.23674E-05-2.74140E-05 1.51396E-05 8.93573E-19-2.01039E-18
 -1      3878 1.00323E-04-3.64426E-05-2.72981E-05 1.60839E-05 9.79521E-19-1.71390E-18
 -1      3879 9.52616E-05-2.85878E-05-2.85745E-05 3.69523E-09-1.06729E-18-1.87205E-18
 -1      3880 9.52599E-05-2.85882E-05-2.85736E-05 1.77854E-09-6.89729E-19-1.77781E-18
 -1      3881 9.52600E-05-2.85883E-05-2.85736E-05-1.53725E-09-5.67251E-19-9.80925E-19
 -1      3882 7.45987E-05-1.82364E-05-2.41979E-05 8.56611E-06-7.60854E-19 4.94184E-19
 -1      3883 9.52591E-05-2.85864E-05-2.85740E-05 1.18230E-08 2.23198E-19-1.60760E-18
 -1      3884 6.71381E-05-1.52313E-05-2.20956E-05-2.77865E-06-2.20030E-19 8.73973E-19
 -1      3885 7.00831E-05-1.70424E-05-2.27773E-05-6.78228E-06-1.60983E-19 6.88879E-19
 -1      3886 7.06625E-05-1.62336E-05-2.33459E-05 1.07144E-06-4.62956E-19 1.27831E-18
 -1      3887 9.91581E-05-3.59423E-05-2.72425E-05-1.72652E-05-5.39216E-19-8.47020E-19
 -1      3888 9.52595E-05-2.85881E-05-2.85735E-05-5.22151E-09-4.07799E-19 1.01340E-19
 -1      3889 9.52585E-05-2.85876E-05-2.85733E-05-8.40449E-09-4.23525E-19-4.82041E-19
 -1      3890 9.52617E-05-2.85878E-05-2.85745E-05-3.42450E-09-8.63152E-19-1.13821E-18
 -1      3891 8.62625E-05-2.70158E-05-2.53738E-05 2.03640E-05 1.34464E-18-2.43641E-18
 -1      3892 8.92503E-05-3.06654E-05-2.50642E-05-1.72086E-05 7.28976E-19-6.24734E-19
 -1      3893 8.90393E-05-2.89281E-05-2.56617E-05-1.47474E-05 4.99575E-19-1.04999E-18
 -1      3894 8.76990E-05-2.70973E-05-2.59768E-05-1.32431E-05 3.27033E-19-1.24521E-18
 -1      3895 8.37016E-05-2.70053E-05-2.43630E-05-1.70013E-05 2.91237E-19-6.59630E-19
 -1      3896 8.80102E-05-2.61022E-05-2.64690E-05-1.13258E-05 2.07566E-19-1.50283E-18
 -1      3897 8.74589E-05-2.50573E-05-2.67615E-05-1.01032E-05-5.36465E-19-1.42884E-18
 -1      3898 8.40291E-05-2.43375E-05-2.55705E-05-1.23494E-05 2.24857E-20-1.53175E-18
 -1      3899 8.80182E-05-2.45895E-05-2.71458E-05-8.69483E-06-6.38666E-19-7.73790E-19
 -1      3900 8.79219E-05-2.40649E-05-2.73874E-05-7.72713E-06-8.80555E-20-1.01704E-18
 -1      3901 8.50511E-05-2.31375E-05-2.65198E-05-9.02326E-06 1.95401E-20-1.60032E-18
 -1      3902 8.85609E-05-2.39323E-05-2.76761E-05-6.70090E-06-2.99414E-20-4.08097E-19
 -1      3903 8.87119E-05-2.37455E-05-2.78615E-05-5.94141E-06-4.25481E-21-2.60118E-19
 -1      3904 8.63262E-05-2.27378E-05-2.72353E-05-6.66166E-06 3.55533E-19-1.37462E-18
 -1      3905 8.93525E-05-2.38232E-05-2.80715E-05-5.18503E-06 8.69635E-20 2.29148E-19
 -1      3906 8.96255E-05-2.38506E-05-2.82056E-05-4.58612E-06 1.60429E-19 2.86752E-19
 -1      3907 8.76405E-05-2.28260E-05-2.77608E-05-4.96450E-06 3.16567E-19-3.68026E-19
 -1      3908 9.02285E-05-2.40549E-05-2.83532E-05-4.02140E-06-5.05014E-20 6.34393E-19
 -1      3909 9.05486E-05-2.42102E-05-2.84447E-05-3.54496E-06 4.94677E-19 7.14369E-19
 -1      3910 8.88998E-05-2.32123E-05-2.81359E-05-3.72544E-06 4.87479E-19 7.94040E-19
 -1      3911 9.10933E-05-2.44820E-05-2.85440E-05-3.11825E-06 3.81943E-19 5.38911E-19
 -1      3912 9.14161E-05-2.47054E-05-2.86020E-05-2.73643E-06 2.53931E-19 1.07816E-18
 -1      3913 9.00543E-05-2.37669E-05-2.83947E-05-2.80759E-06 1.27513E-19 1.62434E-18
 -1      3914 9.18928E-05-2.50033E-05-2.86650E-05-2.41103E-06 8.97636E-19 1.18918E-18
 -1      3915 9.21930E-05-2.52537E-05-2.86980E-05-2.10385E-06 1.33506E-18 1.55640E-18
 -1      3916 9.10785E-05-2.43976E-05-2.85651E-05-2.11917E-06 1.09006E-18 1.74082E-18
 -1      3917 9.25993E-05-2.55498E-05-2.87345E-05-1.85414E-06 8.52034E-19 1.45817E-18
 -1      3918 9.28639E-05-2.58002E-05-2.87496E-05-1.60702E-06 6.64406E-19 1.92500E-18
 -1      3919 9.19626E-05-2.50403E-05-2.86704E-05-1.59775E-06 1.29091E-18 1.19327E-18
 -1      3920 9.32021E-05-2.60770E-05-2.87675E-05-1.41483E-06 1.30758E-19 2.26301E-18
 -1      3921 9.34265E-05-2.63108E-05-2.87703E-05-1.21678E-06-9.96507E-20 2.11278E-18
 -1      3922 9.27074E-05-2.56530E-05-2.87289E-05-1.20014E-06 9.53116E-19 1.39700E-18
 -1      3923 9.37018E-05-2.65583E-05-2.87756E-05-1.06889E-06-5.40369E-19 9.82458E-19
 -1      3924 9.38863E-05-2.67668E-05-2.87706E-05-9.11213E-07-5.96091E-19 7.03972E-19
 -1      3925 9.33210E-05-2.62099E-05-2.87548E-05-8.95859E-07-1.24318E-18 4.40741E-19
 -1      3926 9.41058E-05-2.69806E-05-2.87678E-05-7.97765E-07-3.04217E-19 3.79790E-19
 -1      3927 9.42532E-05-2.71599E-05-2.87584E-05-6.73359E-07 5.03557E-20 4.41697E-19
 -1      3928 9.38161E-05-2.66983E-05-2.87591E-05-6.62909E-07-6.42068E-19-6.52918E-19
 -1      3929 9.44248E-05-2.73395E-05-2.87508E-05-5.86816E-07 3.66598E-19 1.07327E-18
 -1      3930 9.45398E-05-2.74892E-05-2.87391E-05-4.89718E-07 3.49743E-19 8.82165E-19
 -1      3931 9.42075E-05-2.71141E-05-2.87499E-05-4.84990E-07 6.48260E-19 4.57601E-19
 -1      3932 9.46712E-05-2.76365E-05-2.87291E-05-4.24222E-07 6.98486E-21 7.75468E-19
 -1      3933 9.47587E-05-2.77585E-05-2.87168E-05-3.49370E-07-4.85547E-19 7.48319E-19
 -1      3934 9.45109E-05-2.74593E-05-2.87331E-05-3.49772E-07 7.08551E-20 1.40148E-19
 -1      3935 9.48573E-05-2.78766E-05-2.87059E-05-3.00300E-07-6.17533E-19 9.67093E-19
 -1      3936 9.49223E-05-2.79738E-05-2.86940E-05-2.43392E-07-2.42584E-19-6.83000E-20
 -1      3937 9.47413E-05-2.77395E-05-2.87126E-05-2.47757E-07-2.10903E-19 1.32383E-18
 -1      3938 9.49946E-05-2.80666E-05-2.86833E-05-2.07081E-07 1.78168E-20-7.78368E-19
 -1      3939 9.50417E-05-2.81425E-05-2.86724E-05-1.64479E-07 5.40409E-20-1.52211E-18
 -1      3940 9.49126E-05-2.79624E-05-2.86912E-05-1.71529E-07-3.86677E-19 3.96677E-19
 -1      3941 9.50934E-05-2.82140E-05-2.86625E-05-1.38007E-07-6.51770E-19-2.70076E-18
 -1      3942 9.51265E-05-2.82720E-05-2.86529E-05-1.06664E-07-1.11800E-18-2.70674E-18
 -1      3943 9.50371E-05-2.81361E-05-2.86706E-05-1.15249E-07-1.45865E-18-2.25876E-18
 -1      3944 9.51623E-05-2.83259E-05-2.86440E-05-8.77077E-08-3.83009E-19-3.51493E-18
 -1      3945 9.51848E-05-2.83694E-05-2.86358E-05-6.51041E-08-1.44077E-19-3.27103E-18
 -1      3946 9.51251E-05-2.82689E-05-2.86518E-05-7.43001E-08-1.22079E-18-3.60019E-18
 -1      3947 9.52088E-05-2.84092E-05-2.86282E-05-5.18240E-08-5.73404E-19-3.24821E-18
 -1      3948 9.52233E-05-2.84410E-05-2.86214E-05-3.59019E-08-7.24461E-19-3.47705E-18
 -1      3949 9.51854E-05-2.83684E-05-2.86353E-05-4.50314E-08-5.00144E-19-5.18038E-18
 -1      3950 9.52385E-05-2.84698E-05-2.86150E-05-2.68519E-08-6.83024E-19-3.56659E-18
 -1      3951 9.52473E-05-2.84925E-05-2.86095E-05-1.59557E-08-5.40985E-20-3.36049E-18
 -1      3952 9.52250E-05-2.84414E-05-2.86212E-05-2.45654E-08-9.11974E-19-4.43549E-18
 -1      3953 9.52562E-05-2.85128E-05-2.86042E-05-1.00085E-08 6.12881E-19-4.39740E-18
 -1      3954 9.52609E-05-2.85285E-05-2.85998E-05-2.82586E-09 3.77007E-19-4.54937E-18
 -1      3955 9.52495E-05-2.84936E-05-2.86095E-05-1.06473E-08-3.31323E-19-4.54642E-18
 -1      3956 9.52655E-05-2.85423E-05-2.85956E-05 8.87191E-10 7.64264E-19-4.36360E-18
 -1      3957 9.52674E-05-2.85528E-05-2.85921E-05 5.38027E-09-7.94226E-21-3.83652E-18
 -1      3958 9.52632E-05-2.85299E-05-2.85999E-05-1.52537E-09 7.87770E-19-5.63841E-18
 -1      3959 9.52689E-05-2.85618E-05-2.85887E-05 7.52017E-09 1.76770E-20-3.03838E-18
 -1      3960 9.52691E-05-2.85685E-05-2.85860E-05 1.01090E-08 9.43965E-21-2.33346E-18
 -1      3961 9.52696E-05-2.85543E-05-2.85922E-05 4.14723E-09 8.16411E-19-5.12206E-18
 -1      3962 9.52687E-05-2.85740E-05-2.85834E-05 1.11712E-08 3.24588E-19-1.96998E-18
 -1      3963 9.52677E-05-2.85780E-05-2.85813E-05 1.24456E-08 6.86329E-19-2.02456E-18
 -1      3964 9.52710E-05-2.85700E-05-2.85862E-05 7.39234E-09 9.59026E-19-3.51952E-18
 -1      3965 9.52662E-05-2.85812E-05-2.85793E-05 1.27948E-08 5.02598E-19-2.07896E-18
 -1      3966 9.52646E-05-2.85833E-05-2.85777E-05 1.31734E-08 3.19048E-20-1.69769E-18
 -1      3967 9.52693E-05-2.85794E-05-2.85815E-05 8.97512E-09 8.63469E-19-3.40239E-18
 -1      3968 9.52629E-05-2.85847E-05-2.85763E-05 1.26635E-08 2.14290E-19-1.44923E-18
 -1      3969 9.52610E-05-2.85858E-05-2.85751E-05 1.25144E-08 3.63858E-19-9.49743E-19
 -1      3970 9.52629E-05-2.85869E-05-2.85755E-05 8.04707E-09 5.65091E-19-1.58208E-18
 -1      3971 9.52663E-05-2.85844E-05-2.85780E-05 9.06502E-09 8.00008E-20-1.85146E-18
 -1      3972 8.25160E-05-1.98353E-05-2.69076E-05 5.65160E-06-5.58205E-19 1.94896E-19
 -1      3973 8.11760E-05-1.94982E-05-2.64491E-05 6.40320E-06-8.34568E-19 3.55377E-19
 -1      3974 6.43615E-05-1.14068E-05-2.26942E-05 1.45184E-05 1.41926E-18-3.28098E-18
 -1      3975 8.91469E-05-2.28275E-05-2.84380E-05 3.31799E-06-7.50400E-20 1.90873E-19
 -1      3976 8.84054E-05-2.23559E-05-2.83135E-05 3.67481E-06 3.13252E-19 1.80864E-19
 -1      3977 9.32488E-05-2.60435E-05-2.88085E-05 1.45158E-06-1.82051E-19-9.50049E-19
 -1      3978 9.29591E-05-2.57427E-05-2.88083E-05 1.65858E-06 9.62463E-20-7.14758E-19
 -1      3979 9.37869E-05-2.65914E-05-2.88031E-05 1.12976E-06-2.93176E-19-1.35039E-18
 -1      3980 9.35646E-05-2.63394E-05-2.88115E-05 1.30382E-06-6.83920E-19-1.38578E-18
 -1      3981 9.31919E-05-2.60123E-05-2.87843E-05 1.13045E-06-1.80939E-19-1.18664E-18
 -1      3982 9.41990E-05-2.70440E-05-2.87847E-05 8.62311E-07-3.25485E-19-5.38958E-19
 -1      3983 9.40307E-05-2.68367E-05-2.87976E-05 1.00573E-06-3.01254E-19-1.51585E-18
 -1      3984 9.37445E-05-2.65691E-05-2.87842E-05 8.84544E-07-6.28671E-19-1.86653E-18
 -1      3985 9.45107E-05-2.74117E-05-2.87599E-05 6.44717E-07-4.01116E-19 3.96959E-19
 -1      3986 9.43848E-05-2.72439E-05-2.87746E-05 7.60557E-07-3.65527E-19 1.78394E-19
 -1      3987 9.41688E-05-2.70288E-05-2.87703E-05 6.77674E-07-1.16391E-18-9.88740E-19
 -1      3988 9.47430E-05-2.77055E-05-2.87328E-05 4.71299E-07-1.81141E-19 2.99100E-19
 -1      3989 9.46503E-05-2.75719E-05-2.87477E-05 5.63059E-07-1.18899E-19 2.51962E-19
 -1      3990 9.44901E-05-2.74020E-05-2.87491E-05 5.07901E-07-2.70574E-19-8.72150E-19
 -1      3991 9.49133E-05-2.79367E-05-2.87061E-05 3.35849E-07-3.84823E-19 1.04595E-18
 -1      3992 9.48462E-05-2.78319E-05-2.87201E-05 4.07149E-07-3.94039E-19 7.13163E-19
 -1      3993 9.47299E-05-2.77001E-05-2.87249E-05 3.71766E-07-4.38185E-19-5.73877E-19
 -1      3994 9.50359E-05-2.81159E-05-2.86814E-05 2.32166E-07-1.16756E-18 1.11628E-18
 -1      3995 9.49883E-05-2.80350E-05-2.86940E-05 2.86504E-07-2.82834E-19 1.68295E-18
 -1      3996 9.49058E-05-2.79345E-05-2.87005E-05 2.64989E-07-6.59996E-19 6.11537E-19
 -1      3997 9.51222E-05-2.82524E-05-2.86595E-05 1.54425E-07-7.11109E-19 4.29899E-19
 -1      3998 9.50892E-05-2.81910E-05-2.86704E-05 1.95011E-07-1.07609E-18 2.95952E-19
 -1      3999 9.50324E-05-2.81157E-05-2.86775E-05 1.83030E-07-5.40957E-19 2.10568E-19
 -1      4000 9.51812E-05-2.83548E-05-2.86406E-05 9.74042E-08-3.29051E-19 1.44271E-18
 -1      4001 9.51591E-05-2.83089E-05-2.86498E-05 1.27070E-07-7.92918E-19 1.15103E-18
 -1      4002 9.51214E-05-2.82537E-05-2.86568E-05 1.21480E-07-1.19625E-18-2.16393E-19
 -1      4003 9.52201E-05-2.84300E-05-2.86248E-05 5.65883E-08-7.15635E-19 3.45362E-18
 -1      4004 9.52059E-05-2.83964E-05-2.86324E-05 7.77549E-08 5.34432E-20 2.47070E-18
 -1      4005 9.51821E-05-2.83568E-05-2.86389E-05 7.63061E-08-1.02769E-18 1.62582E-18
 -1      4006 9.52444E-05-2.84842E-05-2.86119E-05 2.81887E-08-9.58751E-19 2.47845E-18
 -1      4007 9.52359E-05-2.84601E-05-2.86180E-05 4.28686E-08-6.71358E-19 3.20017E-18
 -1      4008 9.52220E-05-2.84325E-05-2.86238E-05 4.39775E-08-4.04191E-19 3.02705E-18
 -1      4009 9.52584E-05-2.85222E-05-2.86014E-05 9.10635E-09-2.80870E-19 2.44793E-18
 -1      4010 9.52538E-05-2.85054E-05-2.86063E-05 1.89349E-08-8.69478E-19 1.65230E-18
 -1      4011 9.52468E-05-2.84867E-05-2.86113E-05 2.15074E-08-1.47928E-19 1.79599E-18
 -1      4012 9.52652E-05-2.85481E-05-2.85932E-05-3.13524E-09-2.07333E-19 2.56147E-18
 -1      4013 9.52633E-05-2.85368E-05-2.85970E-05 3.14159E-09-7.13042E-20 2.88730E-18
 -1      4014 9.52609E-05-2.85247E-05-2.86012E-05 6.44036E-09-4.62643E-19 1.45327E-18
 -1      4015 9.52673E-05-2.85651E-05-2.85868E-05-1.04725E-08 8.19775E-19 2.22421E-18
 -1      4016 9.52672E-05-2.85577E-05-2.85897E-05-6.73581E-09 4.90241E-19 2.25444E-18
 -1      4017 9.52676E-05-2.85503E-05-2.85931E-05-3.19183E-09 3.92515E-19 2.56345E-18
 -1      4018 9.52664E-05-2.85755E-05-2.85818E-05-1.43866E-08 5.10325E-19 2.69927E-18
 -1      4019 9.52673E-05-2.85710E-05-2.85840E-05-1.24192E-08 8.06415E-19 2.05514E-18
 -1      4020 9.52694E-05-2.85670E-05-2.85868E-05-8.93036E-09 5.20674E-19 2.59025E-18
 -1      4021 9.52636E-05-2.85815E-05-2.85780E-05-1.59836E-08-7.61807E-20 2.30346E-18
 -1      4022 9.52651E-05-2.85790E-05-2.85797E-05-1.52122E-08 1.49102E-19 2.33214E-18
 -1      4023 9.52681E-05-2.85772E-05-2.85819E-05-1.19534E-08 3.54114E-19 2.27918E-18
 -1      4024 9.52600E-05-2.85846E-05-2.85752E-05-1.60975E-08 1.06620E-18 4.29793E-19
 -1      4025 9.52617E-05-2.85833E-05-2.85764E-05-1.60972E-08 1.12229E-18 1.18415E-18
 -1      4026 9.52650E-05-2.85829E-05-2.85781E-05-1.31529E-08 8.97264E-19 4.20960E-19
 -1      4027 9.25546E-05-2.53925E-05-2.87915E-05 1.83053E-06-3.45159E-20-5.22400E-19
 -1      4028 9.21816E-05-2.50410E-05-2.87768E-05 2.07186E-06-6.38270E-20-2.25429E-19
 -1      4029 9.24809E-05-2.53500E-05-2.87613E-05 1.41509E-06 5.24930E-19 3.29043E-19
 -1      4030 9.05496E-05-2.37752E-05-2.86295E-05 2.76230E-06 4.66019E-19-6.71398E-19
 -1      4031 8.99525E-05-2.33316E-05-2.85567E-05 3.07573E-06 2.87025E-19-1.27800E-19
 -1      4032 8.90058E-05-2.27160E-05-2.83897E-05 2.46254E-06 4.98766E-19-3.82369E-19
 -1      4033 5.69959E-05-6.97997E-06-2.13384E-05 6.37522E-06 1.35152E-18-3.95376E-18
 -1      4034 8.74006E-05-2.18210E-05-2.81260E-05 3.94740E-06-4.91395E-20 4.65115E-19
 -1      4035 8.64904E-05-2.13460E-05-2.79268E-05 4.36654E-06-2.80477E-19 3.16083E-19
 -1      4036 8.72241E-05-2.16543E-05-2.80749E-05 2.86544E-06 1.65343E-19 2.49907E-19
 -1      4037 9.16689E-05-2.46351E-05-2.87383E-05 2.26744E-06-2.63388E-19-8.95986E-19
 -1      4038 9.11941E-05-2.42342E-05-2.87006E-05 2.54394E-06 1.30825E-20-7.85058E-19
 -1      4039 9.04348E-05-2.36968E-05-2.85865E-05 2.08633E-06 2.43798E-19-1.06970E-19
 -1      4040 9.15760E-05-2.45778E-05-2.87016E-05 1.73547E-06-4.38693E-19-1.23346E-19
 -1      4041 7.89847E-05-1.89400E-05-2.58001E-05 6.76239E-06-7.06270E-19 4.58806E-19
 -1      4042 7.73956E-05-1.88260E-05-2.51278E-05 7.90467E-06-4.48385E-19 4.87666E-19
 -1      4043 7.33911E-05-1.67117E-05-2.41508E-05 4.81112E-06-7.12525E-19 8.77096E-19
 -1      4044 7.85302E-05-1.81720E-05-2.57790E-05 4.34270E-06-2.39352E-19 3.48739E-20
 -1      4045 8.52304E-05-2.08030E-05-2.76409E-05 4.69240E-06-2.54523E-19 7.59734E-20
 -1      4046 8.41263E-05-2.03632E-05-2.73353E-05 5.21947E-06-3.87741E-19-1.47535E-19
 -1      4047 8.49980E-05-2.05356E-05-2.75908E-05 3.30888E-06-3.90549E-19 6.23879E-19
 -1      4048 9.52571E-05-2.85870E-05-2.85729E-05-1.12879E-08-2.99562E-19-1.98811E-18
 -1      4049 9.52549E-05-2.85860E-05-2.85724E-05-1.43765E-08 2.64075E-19-3.20045E-19
 -1      4050 9.52562E-05-2.85857E-05-2.85730E-05-1.51144E-08-2.26659E-19 3.76122E-19
 -1      4051 9.52597E-05-2.85871E-05-2.85740E-05-9.95135E-09-4.66435E-19-1.94448E-18
 -1      4052 5.98451E-05-8.22446E-06-2.20888E-05 9.99715E-06 1.43608E-18-3.82193E-18
 -1      4053 7.66760E-05-2.17642E-05-2.35517E-05-1.36252E-05-2.47231E-19 4.65421E-19
 -1      4054 9.52639E-05-2.85872E-05-2.85757E-05 4.25432E-09 1.57038E-19-1.52648E-18
 -1      4055 9.52642E-05-2.85874E-05-2.85758E-05 6.16360E-10-3.43171E-19-1.73049E-18
 -1      4056 9.52657E-05-2.85862E-05-2.85769E-05 4.76182E-09 9.49912E-19-8.83614E-19
 -1      4057 7.40017E-05-1.89377E-05-2.34938E-05-1.00638E-05-5.17694E-19 1.05589E-18
 -1      4058 8.03599E-05-2.22358E-05-2.48860E-05-1.13715E-05-2.68652E-19 3.03227E-19
 -1      4059 8.07696E-05-2.16229E-05-2.54363E-05-9.53034E-06-2.48210E-19-1.69317E-19
 -1      4060 7.40725E-05-1.78563E-05-2.41760E-05-5.62954E-06-3.98731E-19 9.89181E-19
 -1      4061 7.35775E-05-1.68762E-05-2.43284E-05 1.36046E-06-3.41619E-19 9.99767E-19
 -1      4062 9.52574E-05-2.85853E-05-2.85738E-05-1.55900E-08-1.30689E-19-2.39853E-20
 -1      4063 8.21927E-05-1.93871E-05-2.68646E-05 3.84826E-06-4.68587E-19 1.64692E-21
 -1      4064 9.52607E-05-2.85858E-05-2.85750E-05-1.29893E-08 7.39274E-19-1.80665E-18
 -1      4065 8.24437E-05-2.16061E-05-2.60541E-05-8.05159E-06 9.08377E-20-6.60463E-19
 -1      4066 8.30958E-05-2.14355E-05-2.64848E-05-6.76866E-06-1.18056E-19-7.40951E-19
 -1      4067 7.92913E-05-1.97064E-05-2.54405E-05-6.94163E-06-2.84666E-19 7.92313E-19
 -1      4068 8.44475E-05-2.16079E-05-2.69224E-05-5.76693E-06 1.81134E-19-7.64234E-19
 -1      4069 8.51350E-05-2.16747E-05-2.72396E-05-4.85753E-06 6.20045E-19-5.21403E-19
 -1      4070 8.22746E-05-2.02431E-05-2.65193E-05-4.73679E-06 1.38056E-20 2.14445E-19
 -1      4071 8.62530E-05-2.19634E-05-2.75493E-05-4.16309E-06 8.37146E-19-5.86215E-19
 -1      4072 8.69210E-05-2.21787E-05-2.77775E-05-3.50932E-06 8.79779E-19 3.05153E-19
 -1      4073 8.47063E-05-2.09405E-05-2.72801E-05-3.24292E-06 8.78092E-19 3.66498E-19
 -1      4074 8.78556E-05-2.25374E-05-2.79934E-05-3.02415E-06 1.14874E-18 9.85780E-21
 -1      4075 8.84759E-05-2.28389E-05-2.81531E-05-2.54807E-06 9.58624E-19 6.49841E-19
 -1      4076 8.67286E-05-2.17447E-05-2.78132E-05-2.21872E-06 1.10328E-18 7.23841E-20
 -1      4077 8.92586E-05-2.32289E-05-2.83000E-05-2.20791E-06 2.41441E-19 9.50620E-19
 -1      4078 8.98151E-05-2.35713E-05-2.84075E-05-1.85588E-06 2.42932E-19 1.39937E-18
 -1      4079 8.84228E-05-2.26007E-05-2.81803E-05-1.51213E-06 8.29151E-19-8.48088E-20
 -1      4080 9.04681E-05-2.39646E-05-2.85039E-05-1.61741E-06 3.70475E-19 7.06026E-19
 -1      4081 9.09535E-05-2.43148E-05-2.85726E-05-1.35379E-06 1.13901E-18 5.94964E-19
 -1      4082 8.98396E-05-2.34590E-05-2.84259E-05-1.02697E-06 4.80801E-19-2.15494E-19
 -1      4083 9.14935E-05-2.46906E-05-2.86325E-05-1.18662E-06 9.35637E-19-2.92062E-19
 -1      4084 9.19065E-05-2.50264E-05-2.86730E-05-9.87216E-07 9.57574E-19-5.71394E-19
 -1      4085 9.10170E-05-2.42805E-05-2.85833E-05-6.95096E-07 2.80867E-19-9.46460E-19
 -1      4086 9.23479E-05-2.53710E-05-2.87070E-05-8.70220E-07 1.06678E-18-9.24482E-19
 -1      4087 9.26914E-05-2.56782E-05-2.87277E-05-7.18310E-07 3.77792E-19-1.37656E-18
 -1      4088 9.19856E-05-2.50378E-05-2.86777E-05-4.68931E-07 4.92340E-19-2.50712E-18
 -1      4089 9.30472E-05-2.59837E-05-2.87439E-05-6.36599E-07-9.22959E-19-1.09870E-18
 -1      4090 9.33270E-05-2.62550E-05-2.87511E-05-5.20398E-07-1.86334E-18-1.46584E-18
 -1      4091 9.27720E-05-2.57139E-05-2.87281E-05-3.15383E-07-2.90333E-19-3.02951E-18
 -1      4092 9.36095E-05-2.65183E-05-2.87554E-05-4.63473E-07-1.12885E-18-6.24376E-19
 -1      4093 9.38327E-05-2.67508E-05-2.87539E-05-3.74487E-07-9.82329E-22-9.94941E-19
 -1      4094 9.34014E-05-2.63012E-05-2.87486E-05-2.11451E-07-7.35554E-19-1.64481E-18
 -1      4095 9.40534E-05-2.69723E-05-2.87508E-05-3.34947E-07 4.74474E-19-7.66041E-19
 -1      4096 9.42281E-05-2.71666E-05-2.87441E-05-2.66918E-07 6.55018E-19-5.69398E-19
 -1      4097 9.38974E-05-2.67991E-05-2.87498E-05-1.41237E-07 3.31451E-19-9.14290E-19
 -1      4098 9.43977E-05-2.73488E-05-2.87366E-05-2.39562E-07 1.87132E-19-1.01627E-18
 -1      4099 9.45316E-05-2.75076E-05-2.87271E-05-1.87776E-07-4.19983E-19-1.12131E-18
 -1      4100 9.42818E-05-2.72122E-05-2.87391E-05-9.38437E-08-1.01996E-19-2.35121E-18
 -1      4101 9.46596E-05-2.76545E-05-2.87175E-05-1.68954E-07 8.12104E-20-9.51358E-19
 -1      4102 9.47602E-05-2.77817E-05-2.87069E-05-1.29796E-07 4.96724E-19-7.93079E-19
 -1      4103 9.45747E-05-2.75481E-05-2.87220E-05-6.18553E-08 1.40293E-19-2.84821E-18
 -1      4104 9.48549E-05-2.78979E-05-2.86966E-05-1.16947E-07-3.06022E-19-8.66886E-19
 -1      4105 9.49288E-05-2.79978E-05-2.86861E-05-8.76043E-08-1.03526E-18-1.39318E-18
 -1      4106 9.47938E-05-2.78160E-05-2.87020E-05-4.02614E-08 7.13085E-20-2.62540E-18
 -1      4107 9.49974E-05-2.80880E-05-2.86760E-05-7.89331E-08-2.66843E-18-1.12772E-18
 -1      4108 9.50504E-05-2.81649E-05-2.86662E-05-5.71956E-08-2.68861E-18-2.45836E-18
 -1      4109 9.49542E-05-2.80259E-05-2.86816E-05-2.56914E-08-2.21011E-18-2.47657E-18
 -1      4110 9.50988E-05-2.82336E-05-2.86569E-05-5.14402E-08-2.04056E-18-2.78780E-18
 -1      4111 9.51357E-05-2.82918E-05-2.86480E-05-3.55610E-08-1.43577E-18-3.30490E-18
 -1      4112 9.50691E-05-2.81874E-05-2.86622E-05-1.58821E-08-2.52303E-18-2.32665E-18
 -1      4113 9.51688E-05-2.83431E-05-2.86398E-05-3.18323E-08-1.12199E-18-3.77429E-18
 -1      4114 9.51935E-05-2.83861E-05-2.86322E-05-2.04291E-08-1.09004E-18-4.40190E-18
 -1      4115 9.51490E-05-2.83092E-05-2.86447E-05-9.31242E-09-1.90229E-18-2.49914E-18
 -1      4116 9.52153E-05-2.84236E-05-2.86251E-05-1.80994E-08-4.55126E-19-4.41306E-18
 -1      4117 9.52311E-05-2.84548E-05-2.86187E-05-1.00812E-08-6.73055E-19-3.78857E-18
 -1      4118 9.52027E-05-2.83994E-05-2.86294E-05-4.95574E-09-1.02633E-18-3.45212E-18
 -1      4119 9.52445E-05-2.84815E-05-2.86128E-05-8.70633E-09-7.63973E-19-2.97983E-18
 -1      4120 9.52539E-05-2.85035E-05-2.86075E-05-3.21618E-09-6.20007E-19-4.05688E-18
 -1      4121 9.52372E-05-2.84646E-05-2.86165E-05-2.11462E-09-1.25675E-19-3.47534E-18
 -1      4122 9.52615E-05-2.85220E-05-2.86027E-05-2.48226E-09 1.16821E-19-4.32641E-18
 -1      4123 9.52663E-05-2.85370E-05-2.85984E-05 1.14735E-09 6.95091E-19-5.12768E-18
 -1      4124 9.52577E-05-2.85106E-05-2.86057E-05-3.11406E-10-2.32777E-19-2.68999E-18
 -1      4125 9.52699E-05-2.85495E-05-2.85945E-05 1.46183E-09 1.42124E-18-5.86999E-18
 -1      4126 9.52717E-05-2.85593E-05-2.85911E-05 3.74543E-09 1.04883E-18-5.24990E-18
 -1      4127 9.52685E-05-2.85420E-05-2.85970E-05 7.83827E-10 7.29829E-19-4.58997E-18
 -1      4128 9.52725E-05-2.85672E-05-2.85880E-05 3.79594E-09 1.80987E-18-5.20725E-18
 -1      4129 9.52723E-05-2.85733E-05-2.85853E-05 5.12495E-09 2.30519E-18-4.22785E-18
 -1      4130 9.52726E-05-2.85627E-05-2.85900E-05 1.40068E-09 1.81470E-18-4.23101E-18
 -1      4131 9.52714E-05-2.85781E-05-2.85829E-05 5.02049E-09 2.19881E-18-4.28068E-18
 -1      4132 9.52700E-05-2.85815E-05-2.85808E-05 5.65751E-09 1.38846E-18-3.45695E-18
 -1      4133 9.52725E-05-2.85755E-05-2.85844E-05 1.69867E-09 2.36561E-18-3.87560E-18
 -1      4134 9.52688E-05-2.85833E-05-2.85794E-05 5.31275E-09 1.00381E-18-2.62093E-18
 -1      4135 9.52672E-05-2.85852E-05-2.85780E-05 5.02370E-09 1.31145E-18-1.22432E-18
 -1      4136 9.52677E-05-2.85853E-05-2.85782E-05 1.43014E-09 1.79292E-18-1.04412E-18
 -1      4137 9.52703E-05-2.85822E-05-2.85807E-05 1.65000E-09 2.48301E-18-1.10008E-18
 -1      4138 9.37437E-05-2.66213E-05-2.87709E-05 6.11767E-07-9.92132E-19-7.77080E-19
 -1      4139 9.35003E-05-2.63649E-05-2.87743E-05 7.11172E-07 2.18211E-19-7.76405E-19
 -1      4140 9.41687E-05-2.70725E-05-2.87589E-05 4.70168E-07-7.96450E-19-1.38195E-18
 -1      4141 9.39834E-05-2.68620E-05-2.87675E-05 5.54090E-07-1.02398E-18-9.39235E-19
 -1      4142 9.37816E-05-2.66584E-05-2.87601E-05 3.93335E-07-7.86583E-19-7.82851E-19
 -1      4143 8.90431E-05-2.28330E-05-2.83872E-05 1.55590E-06 5.14289E-19-1.89522E-19
 -1      4144 8.82344E-05-2.23225E-05-2.82603E-05 1.69067E-06 6.27770E-20 2.52967E-20
 -1      4145 9.31914E-05-2.60745E-05-2.87694E-05 7.76994E-07 5.00073E-19-1.23416E-18
 -1      4146 9.28759E-05-2.57677E-05-2.87636E-05 8.91204E-07 4.70208E-19-3.88537E-19
 -1      4147 9.32414E-05-2.61194E-05-2.87574E-05 4.90409E-07 4.06910E-19-4.48611E-19
 -1      4148 9.44912E-05-2.74383E-05-2.87396E-05 3.52595E-07-2.51263E-19-1.83742E-18
 -1      4149 9.43520E-05-2.72685E-05-2.87508E-05 4.21555E-07-2.02071E-19-1.85130E-18
 -1      4150 9.41977E-05-2.71031E-05-2.87496E-05 3.06325E-07-1.29621E-19-2.41977E-18
 -1      4151 9.47321E-05-2.77301E-05-2.87172E-05 2.57651E-07-3.00025E-19-1.26309E-18
 -1      4152 9.46292E-05-2.75953E-05-2.87293E-05 3.12944E-07-5.68035E-19-1.58065E-18
 -1      4153 9.45136E-05-2.74636E-05-2.87318E-05 2.31911E-07-4.46312E-19-2.51278E-18
 -1      4154 9.49088E-05-2.79590E-05-2.86943E-05 1.82905E-07-2.99996E-19-1.05457E-18
 -1      4155 9.48342E-05-2.78537E-05-2.87061E-05 2.26234E-07-2.27378E-19-1.13804E-18
 -1      4156 9.47494E-05-2.77509E-05-2.87108E-05 1.70599E-07-1.83091E-19-2.13200E-18
 -1      4157 9.50359E-05-2.81357E-05-2.86727E-05 1.25463E-07-1.42038E-18-1.12559E-18
 -1      4158 9.49829E-05-2.80548E-05-2.86835E-05 1.58673E-07-7.06923E-19-7.39943E-19
 -1      4159 9.49223E-05-2.79760E-05-2.86893E-05 1.21655E-07-1.12257E-18-2.81137E-18
 -1      4160 9.51251E-05-2.82697E-05-2.86531E-05 8.23628E-08-1.86013E-18-5.07248E-19
 -1      4161 9.50884E-05-2.82086E-05-2.86628E-05 1.07256E-07-1.72979E-18-9.81027E-19
 -1      4162 9.50463E-05-2.81494E-05-2.86687E-05 8.36755E-08-1.75984E-18-1.92279E-18
 -1      4163 9.51857E-05-2.83696E-05-2.86361E-05 5.08172E-08-1.77321E-18 9.39628E-19
 -1      4164 9.51612E-05-2.83242E-05-2.86444E-05 6.90463E-08-1.95312E-18-1.79747E-19
 -1      4165 9.51330E-05-2.82806E-05-2.86501E-05 5.49878E-08-2.17991E-18-1.74705E-18
 -1      4166 9.52254E-05-2.84424E-05-2.86217E-05 2.83476E-08 3.66674E-20 1.65191E-18
 -1      4167 9.52097E-05-2.84095E-05-2.86286E-05 4.13582E-08-4.20148E-19 1.72828E-18
 -1      4168 9.51917E-05-2.83781E-05-2.86338E-05 3.38968E-08-1.42286E-18 7.40849E-19
 -1      4169 9.52498E-05-2.84944E-05-2.86097E-05 1.28393E-08 5.21264E-19 5.02958E-19
 -1      4170 9.52405E-05-2.84711E-05-2.86154E-05 2.18527E-08 5.04350E-19 1.51850E-18
 -1      4171 9.52298E-05-2.84491E-05-2.86199E-05 1.88318E-08 3.86957E-19 9.33986E-19
 -1      4172 9.52635E-05-2.85305E-05-2.86000E-05 2.54645E-09-4.22518E-19 9.98108E-19
 -1      4173 9.52586E-05-2.85144E-05-2.86046E-05 8.56426E-09-1.00584E-19 9.54839E-19
 -1      4174 9.52530E-05-2.84995E-05-2.86084E-05 8.41900E-09 5.88253E-19 8.15614E-20
 -1      4175 9.52697E-05-2.85546E-05-2.85923E-05-3.93220E-09 4.40927E-19 1.75363E-18
 -1      4176 9.52679E-05-2.85440E-05-2.85959E-05-1.09080E-10 7.77940E-21 8.82398E-19
 -1      4177 9.52657E-05-2.85343E-05-2.85991E-05 1.50641E-09-1.82188E-19 1.04487E-19
 -1      4178 9.52711E-05-2.85701E-05-2.85862E-05-7.69302E-09 2.26042E-19 9.95682E-19
 -1      4179 9.52712E-05-2.85634E-05-2.85890E-05-5.43961E-09 5.32010E-19 1.05318E-18
 -1      4180 9.52712E-05-2.85574E-05-2.85916E-05-2.84005E-09 9.69663E-19 4.72190E-20
 -1      4181 9.52694E-05-2.85794E-05-2.85815E-05-9.57265E-09 9.15554E-19-2.40085E-20
 -1      4182 9.52707E-05-2.85754E-05-2.85836E-05-8.41242E-09 8.26123E-19 6.16135E-19
 -1      4183 9.52720E-05-2.85721E-05-2.85857E-05-5.35626E-09 1.12493E-18-1.04698E-18
 -1      4184 9.52659E-05-2.85845E-05-2.85778E-05-1.02374E-08 2.32601E-18-2.17048E-18
 -1      4185 9.52678E-05-2.85824E-05-2.85795E-05-9.75430E-09 1.82248E-18-8.92813E-19
 -1      4186 9.52699E-05-2.85808E-05-2.85811E-05-6.59757E-09 2.34626E-18-1.71261E-18
 -1      4187 9.24827E-05-2.54240E-05-2.87456E-05 9.62755E-07 4.06833E-19-4.80739E-19
 -1      4188 9.20784E-05-2.50637E-05-2.87249E-05 1.08947E-06 9.98965E-20-7.09000E-19
 -1      4189 9.25497E-05-2.54782E-05-2.87330E-05 5.91997E-07 4.84474E-19-1.16046E-18
 -1      4190 7.89435E-05-1.83466E-05-2.60098E-05 1.91706E-06-3.31996E-19 4.40072E-19
 -1      4191 7.67355E-05-1.76803E-05-2.53624E-05 1.86924E-06-3.55443E-19 7.25332E-19
 -1      4192 8.72855E-05-2.17804E-05-2.80885E-05 1.71900E-06 6.11922E-19-9.39545E-20
 -1      4193 8.62699E-05-2.12352E-05-2.78901E-05 1.84925E-06 5.19906E-19 1.22083E-19
 -1      4194 8.75307E-05-2.18861E-05-2.80985E-05 7.66250E-07 5.64621E-19-9.60824E-20
 -1      4195 9.52624E-05-2.85864E-05-2.85754E-05-1.01439E-08 9.45959E-19-1.61750E-18
 -1      4196 7.48599E-05-1.70633E-05-2.46514E-05-1.38901E-06-1.98251E-19 1.37426E-18
 -1      4197 8.24686E-05-1.95576E-05-2.69920E-05 1.85027E-06-6.17035E-19 1.01706E-18
 -1      4198 8.08462E-05-1.89729E-05-2.65515E-05 2.00473E-06-4.55737E-19 7.75249E-19
 -1      4199 7.98043E-05-1.84794E-05-2.61869E-05-2.31539E-07-6.20188E-19 1.91789E-18
 -1      4200 9.52640E-05-2.85874E-05-2.85757E-05-3.07746E-09 4.67953E-19-1.89446E-18
 -1      4201 9.52647E-05-2.85861E-05-2.85766E-05-7.06754E-09 1.65730E-18-2.65099E-18
 -1      4202 8.51498E-05-2.06915E-05-2.76454E-05 1.81103E-06-3.65678E-19 7.47803E-19
 -1      4203 8.38707E-05-2.01207E-05-2.73471E-05 1.94077E-06-3.82116E-19 6.49066E-19
 -1      4204 8.30323E-05-1.96883E-05-2.70777E-05 2.69199E-07-2.28346E-19 1.73290E-18
 -1      4205 8.54963E-05-2.08001E-05-2.76777E-05 6.04936E-07 5.32386E-19 3.14805E-19
 -1      4206 7.72156E-05-1.85535E-05-2.51767E-05-4.34949E-06-5.67305E-19 1.37029E-18
 -1      4207 9.04537E-05-2.37991E-05-2.85754E-05 1.36498E-06-3.52620E-19-1.71560E-19
 -1      4208 8.98080E-05-2.33336E-05-2.84979E-05 1.50275E-06 5.15437E-19-2.69855E-19
 -1      4209 8.92168E-05-2.29250E-05-2.83845E-05 7.99776E-07 9.52238E-20-7.56964E-19
 -1      4210 9.52676E-05-2.85854E-05-2.85781E-05-2.85039E-09 2.14274E-18-2.31418E-18
 -1      4211 9.16745E-05-2.47305E-05-2.86748E-05 6.88405E-07-8.98902E-20-1.29575E-18
 -1      4212 9.15837E-05-2.46653E-05-2.86868E-05 1.16236E-06-2.62535E-19-3.34219E-19
 -1      4213 9.10706E-05-2.42510E-05-2.86432E-05 1.29744E-06-3.89120E-19 1.40615E-19
 -1      4214 9.32922E-05-2.62182E-05-2.87514E-05 1.02594E-07-4.01209E-19-1.15344E-18
 -1      4215 9.29794E-05-2.59220E-05-2.87446E-05 1.33920E-07-1.24983E-19-1.43175E-18
 -1      4216 8.08584E-05-1.94415E-05-2.63592E-05-2.75885E-06-1.60963E-19 1.12526E-18
 -1      4217 8.22614E-05-1.98346E-05-2.68107E-05-2.00131E-06 8.09893E-20 1.26575E-18
 -1      4218 8.36838E-05-2.03499E-05-2.71707E-05-1.66789E-06 3.50564E-19 9.66374E-19
 -1      4219 8.48348E-05-2.07871E-05-2.74884E-05-1.15378E-06 4.24646E-19 8.53848E-19
 -1      4220 8.59680E-05-2.12920E-05-2.77385E-05-9.40440E-07 6.94785E-19 3.74870E-19
 -1      4221 8.69242E-05-2.17505E-05-2.79593E-05-5.93569E-07 1.19251E-18 3.68784E-20
 -1      4222 8.78835E-05-2.22660E-05-2.81374E-05-4.84417E-07 7.55899E-19-1.22510E-19
 -1      4223 8.86794E-05-2.27247E-05-2.82865E-05-2.51226E-07 2.38258E-19-1.15879E-19
 -1      4224 8.94530E-05-2.32094E-05-2.84026E-05-2.01133E-07 1.16689E-19-3.83299E-19
 -1      4225 9.01135E-05-2.36481E-05-2.84999E-05-4.64514E-08-8.53632E-20-1.10675E-18
 -1      4226 9.07373E-05-2.40927E-05-2.85722E-05-3.52716E-08-2.37809E-19-9.38412E-19
 -1      4227 9.12815E-05-2.44980E-05-2.86323E-05 6.59264E-08-1.38091E-19-1.45515E-18
 -1      4228 9.17818E-05-2.48954E-05-2.86739E-05 5.31195E-08 3.10971E-19-1.93711E-18
 -1      4229 9.22252E-05-2.52585E-05-2.87079E-05 1.18348E-07 4.70415E-19-2.75029E-18
 -1      4230 9.26229E-05-2.56054E-05-2.87286E-05 9.24989E-08 4.41773E-19-2.21397E-18
 -1      4231 9.35746E-05-2.64878E-05-2.87557E-05 1.28531E-07-1.37836E-19-5.17264E-19
 -1      4232 9.38174E-05-2.67355E-05-2.87537E-05 9.66071E-08-2.60220E-19-1.51749E-18
 -1      4233 9.40377E-05-2.69601E-05-2.87505E-05 1.12655E-07 1.62624E-19-1.98284E-18
 -1      4234 9.42235E-05-2.71634E-05-2.87435E-05 8.30047E-08 2.67137E-20-2.21657E-18
 -1      4235 9.43925E-05-2.73468E-05-2.87360E-05 9.28517E-08-1.73853E-19-2.52674E-18
 -1      4236 9.45325E-05-2.75107E-05-2.87263E-05 6.69284E-08-3.36514E-19-2.55741E-18
 -1      4237 9.46598E-05-2.76578E-05-2.87166E-05 7.29537E-08-2.77651E-19-2.60150E-18
 -1      4238 9.47635E-05-2.77875E-05-2.87060E-05 5.12738E-08-1.71698E-19-2.59724E-18
 -1      4239 9.48576E-05-2.79033E-05-2.86957E-05 5.49806E-08-3.77820E-19-3.00442E-18
 -1      4240 9.49329E-05-2.80043E-05-2.86851E-05 3.74825E-08-1.44830E-18-2.80993E-18
 -1      4241 9.50009E-05-2.80939E-05-2.86751E-05 3.97996E-08-2.26090E-18-2.64127E-18
 -1      4242 9.50543E-05-2.81712E-05-2.86653E-05 2.61009E-08-2.24772E-18-2.31560E-18
 -1      4243 9.51023E-05-2.82392E-05-2.86560E-05 2.75904E-08-1.96712E-18-2.19213E-18
 -1      4244 9.51391E-05-2.82972E-05-2.86473E-05 1.71616E-08-2.14818E-18-1.89366E-18
 -1      4245 9.51718E-05-2.83479E-05-2.86391E-05 1.81562E-08-2.02603E-18-2.22061E-18
 -1      4246 9.51963E-05-2.83906E-05-2.86315E-05 1.04299E-08-1.44897E-18-1.96407E-18
 -1      4247 9.52178E-05-2.84275E-05-2.86245E-05 1.11234E-08-2.43192E-19-1.96551E-18
 -1      4248 9.52333E-05-2.84583E-05-2.86182E-05 5.55888E-09 4.73333E-19-1.33750E-18
 -1      4249 9.52465E-05-2.84846E-05-2.86123E-05 6.06214E-09 3.16433E-19-1.43483E-18
 -1      4250 9.52555E-05-2.85062E-05-2.86071E-05 2.17866E-09 3.80755E-19-1.47245E-18
 -1      4251 9.52630E-05-2.85244E-05-2.86023E-05 2.55518E-09 6.39235E-19-1.15187E-18
 -1      4252 9.52675E-05-2.85390E-05-2.85980E-05-5.46985E-11 4.27016E-19-1.57025E-18
 -1      4253 9.52709E-05-2.85512E-05-2.85942E-05 2.31798E-10 7.94841E-19-1.86911E-18
 -1      4254 9.52725E-05-2.85607E-05-2.85908E-05-1.43729E-09 1.37714E-18-2.48919E-18
 -1      4255 9.52732E-05-2.85684E-05-2.85877E-05-1.21901E-09 1.81819E-18-2.28367E-18
 -1      4256 9.52728E-05-2.85743E-05-2.85851E-05-2.21074E-09 1.87094E-18-2.20833E-18
 -1      4257 9.52719E-05-2.85789E-05-2.85827E-05-2.05293E-09 2.17969E-18-2.17792E-18
 -1      4258 7.89152E-05-1.88830E-05-2.58110E-05-3.23597E-06-3.11629E-19 1.25067E-18
 -1      4259 9.52691E-05-2.85839E-05-2.85793E-05-2.69456E-09 2.55789E-18-1.11182E-18
 -1      4260 9.52703E-05-2.85822E-05-2.85806E-05-2.55828E-09 2.73506E-18-1.56606E-18
 -1      4261 9.05787E-05-2.38772E-05-2.85662E-05 7.64682E-07-4.19385E-19-5.94051E-19
 -3
    1PSTEP                         4           1           1          
  100CL  101 1.000000000        4261                     0    1           1
 -4  ERROR       1    1
 -5  STR(%)      1    1    0    0
 -1         1 1.26102E+01
 -1         2 2.53253E+01
 -1         3 1.97021E-04
 -1         4 2.29116E-04
 -1         5 1.21832E+01
 -1         6 1.21639E+01
 -1         7 1.21639E+01
 -1         8 3.88918E+00
 -1         9 2.43271E+00
 -1        10 1.91242E+00
 -1        11 1.69104E+00
 -1        12 1.53683E+00
 -1        13 1.39084E+00
 -1        14 1.10766E+00
 -1        15 6.56918E-01
 -1        16 1.15421E+00
 -1        17 1.63960E+00
 -1        18 2.03611E+00
 -1        19 2.35748E+00
 -1        20 2.81916E+00
 -1        21 3.88323E+00
 -1        22 7.88930E+00
 -1        23 1.21639E+01
 -1        24 3.23230E+00
 -1        25 1.88699E+00
 -1        26 6.88391E-01
 -1        27 4.77380E-01
 -1        28 8.93695E-01
 -1        29 1.29797E+00
 -1        30 2.18841E+00
 -1        31 3.01070E+00
 -1        32 3.29045E+00
 -1        33 3.31440E+00
 -1        34 3.31440E+00
 -1        35 3.03851E+00
 -1        36 2.17181E+00
 -1        37 1.39114E+00
 -1        38 1.05219E+00
 -1        39 9.66147E-01
 -1        40 9.12007E-01
 -1        41 9.00000E-01
 -1        42 8.53090E-01
 -1        43 7.32641E-01
 -1        44 5.85885E-01
 -1        45 4.66915E-01
 -1        46 3.78537E-01
 -1        47 3.25586E-01
 -1        48 2.68522E-01
 -1        49 2.13799E-01
 -1        50 1.64964E-01
 -1        51 1.23542E-01
 -1        52 9.32487E-02
 -1        53 7.86723E-02
 -1        54 6.46058E-02
 -1        55 5.18200E-02
 -1        56 4.06790E-02
 -1        57 3.12802E-02
 -1        58 2.35576E-02
 -1        59 1.87933E-02
 -1        60 1.54609E-02
 -1        61 1.24496E-02
 -1        62 9.82301E-03
 -1        63 7.59109E-03
 -1        64 5.85941E-03
 -1        65 4.44290E-03
 -1        66 3.24836E-03
 -1        67 2.63104E-03
 -1        68 2.22405E-03
 -1        69 1.78824E-03
 -1        70 1.38129E-03
 -1        71 1.00995E-03
 -1        72 1.21832E+01
 -1        73 2.28560E+00
 -1        74 1.11926E+00
 -1        75 8.18458E-01
 -1        76 1.19519E+00
 -1        77 1.63335E+00
 -1        78 1.79833E+00
 -1        79 2.37393E+00
 -1        80 3.46037E+00
 -1        81 4.81303E+00
 -1        82 5.46168E+00
 -1        83 5.46168E+00
 -1        84 5.01503E+00
 -1        85 2.97330E+00
 -1        86 1.78517E+00
 -1        87 1.65788E+00
 -1        88 1.87458E+00
 -1        89 1.87458E+00
 -1        90 1.76781E+00
 -1        91 1.51146E+00
 -1        92 1.26295E+00
 -1        93 1.01589E+00
 -1        94 7.85217E-01
 -1        95 5.86631E-01
 -1        96 4.24675E-01
 -1        97 3.26670E-01
 -1        98 2.47188E-01
 -1        99 1.83074E-01
 -1       100 1.32651E-01
 -1       101 9.38309E-02
 -1       102 6.45199E-02
 -1       103 4.82734E-02
 -1       104 3.98100E-02
 -1       105 3.21903E-02
 -1       106 2.55600E-02
 -1       107 1.99429E-02
 -1       108 1.70621E-02
 -1       109 1.47244E-02
 -1       110 1.23860E-02
 -1       111 1.01929E-02
 -1       112 8.22141E-03
 -1       113 6.59262E-03
 -1       114 5.24102E-03
 -1       115 4.05554E-03
 -1       116 3.02215E-03
 -1       117 2.21525E-03
 -1       118 1.77992E-03
 -1       119 1.25737E-03
 -1       120 7.40396E-04
 -1       121 3.38029E-04
 -1       122 3.38029E-04
 -1       123 2.57843E-04
 -1       124 1.15345E-04
 -1       125 1.55002E-04
 -1       126 2.33984E-04
 -1       127 2.79686E-04
 -1       128 2.92381E-04
 -1       129 2.92381E-04
 -1       130 2.78748E-04
 -1       131 2.30383E-04
 -1       132 1.53755E-04
 -1       133 1.17644E-04
 -1       134 2.58718E-04
 -1       135 4.47916E-04
 -1       136 5.21637E-04
 -1       137 2.49798E+01
 -1       138 3.17530E+01
 -1       139 3.17530E+01
 -1       140 2.46962E+01
 -1       141 1.21928E+01
 -1       142 1.24032E+01
 -1       143 1.31288E+01
 -1       144 1.31288E+01
 -1       145 1.28646E+01
 -1       146 1.26516E+01
 -1       147 2.70144E+01
 -1       148 2.91261E+01
 -1       149 2.90685E+01
 -1       150 2.50335E+01
 -1       151 2.51935E+01
 -1       152 2.51935E+01
 -1       153 4.40912E+01
 -1       154 4.40912E+01
 -1       155 1.69682E+01
 -1       156 1.33379E+01
 -1       157 1.33379E+01
 -1       158 1.22567E+01
 -1       159 1.22567E+01
 -1       160 1.78481E+01
 -1       161 4.56229E+01
 -1       162 4.56229E+01
 -1       163 2.53253E+01
 -1       164 6.13607E+00
 -1       165 2.80910E+00
 -1       166 2.13352E+00
 -1       167 1.77699E+00
 -1       168 1.53683E+00
 -1       169 1.47126E+00
 -1       170 1.32812E+00
 -1       171 9.68525E-01
 -1       172 8.43678E-01
 -1       173 1.45258E+00
 -1       174 1.88611E+00
 -1       175 2.10580E+00
 -1       176 2.43121E+00
 -1       177 3.05246E+00
 -1       178 4.02873E+00
 -1       179 1.21832E+01
 -1       180 3.23230E+00
 -1       181 1.88699E+00
 -1       182 8.74097E-01
 -1       183 4.16913E-01
 -1       184 6.38625E-01
 -1       185 1.02187E+00
 -1       186 1.53106E+00
 -1       187 2.18841E+00
 -1       188 3.01070E+00
 -1       189 3.29045E+00
 -1       190 3.31440E+00
 -1       191 3.03851E+00
 -1       192 2.17181E+00
 -1       193 1.41240E+00
 -1       194 1.05219E+00
 -1       195 9.66147E-01
 -1       196 9.12007E-01
 -1       197 9.00000E-01
 -1       198 8.53090E-01
 -1       199 7.32641E-01
 -1       200 6.04129E-01
 -1       201 5.11963E-01
 -1       202 4.32345E-01
 -1       203 3.47202E-01
 -1       204 2.68522E-01
 -1       205 2.13799E-01
 -1       206 1.67170E-01
 -1       207 1.29990E-01
 -1       208 9.83714E-02
 -1       209 7.86723E-02
 -1       210 6.46058E-02
 -1       211 5.18200E-02
 -1       212 4.06790E-02
 -1       213 3.12802E-02
 -1       214 2.40744E-02
 -1       215 1.87933E-02
 -1       216 1.54609E-02
 -1       217 1.24496E-02
 -1       218 9.82568E-03
 -1       219 7.88941E-03
 -1       220 6.18739E-03
 -1       221 4.94177E-03
 -1       222 3.83729E-03
 -1       223 2.87160E-03
 -1       224 2.22405E-03
 -1       225 1.78824E-03
 -1       226 1.38129E-03
 -1       227 1.00995E-03
 -1       228 2.28560E+00
 -1       229 1.11926E+00
 -1       230 7.67598E-01
 -1       231 8.35127E-01
 -1       232 1.19519E+00
 -1       233 1.63335E+00
 -1       234 1.79833E+00
 -1       235 2.37393E+00
 -1       236 3.46037E+00
 -1       237 4.81303E+00
 -1       238 5.46168E+00
 -1       239 5.01503E+00
 -1       240 2.97330E+00
 -1       241 1.78517E+00
 -1       242 1.51291E+00
 -1       243 1.65788E+00
 -1       244 1.87458E+00
 -1       245 1.76781E+00
 -1       246 1.51146E+00
 -1       247 1.26295E+00
 -1       248 1.03579E+00
 -1       249 8.23327E-01
 -1       250 6.31819E-01
 -1       251 4.70144E-01
 -1       252 3.40312E-01
 -1       253 2.47188E-01
 -1       254 1.83074E-01
 -1       255 1.33611E-01
 -1       256 9.68647E-02
 -1       257 6.86100E-02
 -1       258 4.82734E-02
 -1       259 3.98100E-02
 -1       260 3.21903E-02
 -1       261 2.55600E-02
 -1       262 1.99429E-02
 -1       263 1.70621E-02
 -1       264 1.47244E-02
 -1       265 1.23860E-02
 -1       266 1.01929E-02
 -1       267 8.22141E-03
 -1       268 6.59262E-03
 -1       269 5.24102E-03
 -1       270 4.05554E-03
 -1       271 3.07990E-03
 -1       272 2.23632E-03
 -1       273 1.77992E-03
 -1       274 1.25737E-03
 -1       275 7.40396E-04
 -1       276 4.20780E-04
 -1       277 4.20780E-04
 -1       278 3.79540E-04
 -1       279 2.49831E-04
 -1       280 4.07885E-04
 -1       281 5.05441E-04
 -1       282 5.43471E-04
 -1       283 5.43471E-04
 -1       284 5.43166E-04
 -1       285 5.01545E-04
 -1       286 4.06304E-04
 -1       287 2.51995E-04
 -1       288 3.77490E-04
 -1       289 3.77490E-04
 -1       290 5.39989E-04
 -1       291 3.15148E+01
 -1       292 3.12544E+01
 -1       293 3.17530E+01
 -1       294 2.63839E+01
 -1       295 1.21928E+01
 -1       296 1.17289E+01
 -1       297 1.24032E+01
 -1       298 1.31288E+01
 -1       299 1.28646E+01
 -1       300 1.19455E+01
 -1       301 1.26516E+01
 -1       302 2.91261E+01
 -1       303 3.40533E+01
 -1       304 3.40533E+01
 -1       305 3.06865E+01
 -1       306 3.06865E+01
 -1       307 3.86740E+01
 -1       308 4.40912E+01
 -1       309 1.70323E+01
 -1       310 1.16703E+01
 -1       311 1.33379E+01
 -1       312 1.26102E+01
 -1       313 1.17984E+01
 -1       314 1.22567E+01
 -1       315 1.09850E+01
 -1       316 1.92524E+01
 -1       317 4.56229E+01
 -1       318 2.80205E+01
 -1       319 3.15148E+01
 -1       320 1.84318E+00
 -1       321 2.76780E+00
 -1       322 1.48626E+00
 -1       323 1.52126E+00
 -1       324 1.52126E+00
 -1       325 1.36095E+00
 -1       326 8.65088E-01
 -1       327 1.28567E+00
 -1       328 1.85498E+00
 -1       329 2.05801E+00
 -1       330 2.13586E+00
 -1       331 2.52908E+00
 -1       332 2.28559E+00
 -1       333 1.74462E+00
 -1       334 1.44071E+00
 -1       335 1.10071E+00
 -1       336 6.43814E-01
 -1       337 3.96471E-01
 -1       338 7.46827E-01
 -1       339 1.18682E+00
 -1       340 1.56651E+00
 -1       341 1.93650E+00
 -1       342 2.14409E+00
 -1       343 2.02618E+00
 -1       344 2.13606E+00
 -1       345 1.90031E+00
 -1       346 1.46987E+00
 -1       347 1.03212E+00
 -1       348 5.73312E-01
 -1       349 4.66258E-01
 -1       350 5.62113E-01
 -1       351 6.59609E-01
 -1       352 6.55188E-01
 -1       353 5.90686E-01
 -1       354 5.25816E-01
 -1       355 4.65258E-01
 -1       356 3.95049E-01
 -1       357 3.20970E-01
 -1       358 2.50971E-01
 -1       359 1.89354E-01
 -1       360 1.37841E-01
 -1       361 9.83714E-02
 -1       362 7.24434E-02
 -1       363 5.20953E-02
 -1       364 3.93218E-02
 -1       365 3.30642E-02
 -1       366 2.71355E-02
 -1       367 2.17889E-02
 -1       368 1.71392E-02
 -1       369 1.32352E-02
 -1       370 1.11299E-02
 -1       371 9.34381E-03
 -1       372 7.64716E-03
 -1       373 6.17251E-03
 -1       374 4.96325E-03
 -1       375 3.87869E-03
 -1       376 3.03350E-03
 -1       377 2.30423E-03
 -1       378 1.67530E-03
 -1       379 1.25172E-03
 -1       380 8.85026E-04
 -1       381 1.35990E+00
 -1       382 1.27244E+00
 -1       383 1.09157E+00
 -1       384 1.10385E+00
 -1       385 1.48433E+00
 -1       386 2.33871E+00
 -1       387 2.75217E+00
 -1       388 3.09023E+00
 -1       389 3.18417E+00
 -1       390 2.98064E+00
 -1       391 2.12865E+00
 -1       392 1.07428E+00
 -1       393 1.06139E+00
 -1       394 1.33005E+00
 -1       395 1.38301E+00
 -1       396 1.37746E+00
 -1       397 1.26474E+00
 -1       398 1.12215E+00
 -1       399 9.54568E-01
 -1       400 7.75031E-01
 -1       401 6.06648E-01
 -1       402 4.60608E-01
 -1       403 3.40312E-01
 -1       404 2.44839E-01
 -1       405 1.80493E-01
 -1       406 1.33611E-01
 -1       407 9.68647E-02
 -1       408 6.86100E-02
 -1       409 4.72739E-02
 -1       410 3.14530E-02
 -1       411 2.59183E-02
 -1       412 2.18753E-02
 -1       413 1.80364E-02
 -1       414 1.45611E-02
 -1       415 1.15214E-02
 -1       416 9.43384E-03
 -1       417 8.05039E-03
 -1       418 6.67935E-03
 -1       419 5.41233E-03
 -1       420 4.48164E-03
 -1       421 3.60791E-03
 -1       422 2.81379E-03
 -1       423 2.10791E-03
 -1       424 1.55839E-03
 -1       425 1.17407E-03
 -1       426 7.39867E-04
 -1       427 4.44057E-04
 -1       428 8.26097E-04
 -1       429 8.26097E-04
 -1       430 5.46768E-04
 -1       431 6.87048E-04
 -1       432 7.48955E-04
 -1       433 7.48955E-04
 -1       434 7.46210E-04
 -1       435 7.46210E-04
 -1       436 6.85093E-04
 -1       437 5.44407E-04
 -1       438 4.31459E-04
 -1       439 7.04708E-04
 -1       440 3.12544E+01
 -1       441 3.36629E+01
 -1       442 3.36629E+01
 -1       443 1.85989E+01
 -1       444 1.07172E+01
 -1       445 1.84318E+00
 -1       446 1.00807E+01
 -1       447 1.06424E+01
 -1       448 9.26287E+00
 -1       449 9.10094E+00
 -1       450 6.91982E+00
 -1       451 1.13674E+01
 -1       452 2.00455E+01
 -1       453 3.40533E+01
 -1       454 3.73134E+01
 -1       455 3.73134E+01
 -1       456 2.85967E+01
 -1       457 2.56477E+01
 -1       458 1.47769E+01
 -1       459 8.17655E+00
 -1       460 7.70768E+00
 -1       461 9.92966E+00
 -1       462 1.13034E+01
 -1       463 1.06982E+01
 -1       464 8.27837E+00
 -1       465 9.57798E+00
 -1       466 1.57775E+01
 -1       467 2.80205E+01
 -1       468 2.86149E+01
 -1       469 7.59024E+00
 -1       470 1.40275E+01
 -1       471 9.10363E+00
 -1       472 2.46040E+00
 -1       473 1.75375E+00
 -1       474 1.60651E+00
 -1       475 1.52055E+00
 -1       476 1.59670E+00
 -1       477 1.92881E+00
 -1       478 2.23179E+00
 -1       479 2.23179E+00
 -1       480 2.52908E+00
 -1       481 1.75099E+00
 -1       482 9.88686E-01
 -1       483 4.50711E+00
 -1       484 7.68286E-01
 -1       485 8.19633E-01
 -1       486 9.36567E-01
 -1       487 1.28504E+00
 -1       488 1.50905E+00
 -1       489 1.83169E+00
 -1       490 1.94518E+00
 -1       491 1.90151E+00
 -1       492 1.79910E+00
 -1       493 1.45933E+00
 -1       494 1.26280E+00
 -1       495 9.84367E-01
 -1       496 8.59049E-01
 -1       497 7.14652E-01
 -1       498 6.79734E-01
 -1       499 6.66229E-01
 -1       500 6.10556E-01
 -1       501 5.51763E-01
 -1       502 4.94671E-01
 -1       503 4.28913E-01
 -1       504 3.57123E-01
 -1       505 2.87315E-01
 -1       506 2.24164E-01
 -1       507 1.69883E-01
 -1       508 1.25035E-01
 -1       509 8.91776E-02
 -1       510 6.13302E-02
 -1       511 4.02903E-02
 -1       512 2.70326E-02
 -1       513 1.88787E-02
 -1       514 1.68513E-02
 -1       515 1.45402E-02
 -1       516 1.21981E-02
 -1       517 9.98148E-03
 -1       518 7.97717E-03
 -1       519 6.89268E-03
 -1       520 5.83132E-03
 -1       521 4.78217E-03
 -1       522 3.86024E-03
 -1       523 3.05420E-03
 -1       524 2.32597E-03
 -1       525 1.73999E-03
 -1       526 1.27119E-03
 -1       527 1.83367E+00
 -1       528 2.20275E+00
 -1       529 2.19459E+00
 -1       530 2.75217E+00
 -1       531 4.16615E+00
 -1       532 5.25331E+00
 -1       533 3.49191E+00
 -1       534 3.37229E+00
 -1       535 3.41121E+00
 -1       536 2.06639E+00
 -1       537 1.84217E+00
 -1       538 1.70777E+00
 -1       539 1.49630E+00
 -1       540 1.32214E+00
 -1       541 1.19674E+00
 -1       542 1.02612E+00
 -1       543 8.43542E-01
 -1       544 6.71056E-01
 -1       545 5.19623E-01
 -1       546 3.92964E-01
 -1       547 2.90650E-01
 -1       548 2.10197E-01
 -1       549 1.48338E-01
 -1       550 1.01729E-01
 -1       551 6.72936E-02
 -1       552 4.51856E-02
 -1       553 3.18931E-02
 -1       554 2.59183E-02
 -1       555 2.18753E-02
 -1       556 1.80364E-02
 -1       557 1.45611E-02
 -1       558 1.15214E-02
 -1       559 9.43384E-03
 -1       560 8.05039E-03
 -1       561 6.67935E-03
 -1       562 5.40250E-03
 -1       563 4.36043E-03
 -1       564 3.42324E-03
 -1       565 2.61565E-03
 -1       566 1.99130E-03
 -1       567 1.44064E-03
 -1       568 1.01816E-03
 -1       569 8.66387E-04
 -1       570 9.55830E-04
 -1       571 8.95894E-04
 -1       572 6.88199E-04
 -1       573 9.55830E-04
 -1       574 9.50781E-04
 -1       575 9.53893E-04
 -1       576 9.53893E-04
 -1       577 8.62311E-04
 -1       578 7.23300E-04
 -1       579 7.23300E-04
 -1       580 1.34924E+01
 -1       581 2.86149E+01
 -1       582 1.82363E+00
 -1       583 3.36629E+01
 -1       584 2.00469E+01
 -1       585 1.84318E+00
 -1       586 8.63991E+00
 -1       587 7.46709E+00
 -1       588 2.85967E+01
 -1       589 1.75375E+00
 -1       590 6.67207E+00
 -1       591 6.50739E+00
 -1       592 5.81551E+00
 -1       593 4.30764E+00
 -1       594 7.01852E+00
 -1       595 9.77750E+00
 -1       596 1.47053E+01
 -1       597 2.32271E+01
 -1       598 3.73134E+01
 -1       599 1.82674E+01
 -1       600 6.95264E+00
 -1       601 5.48011E+00
 -1       602 5.00522E+00
 -1       603 7.35499E+00
 -1       604 6.22471E+00
 -1       605 9.75912E+00
 -1       606 1.26278E+01
 -1       607 2.32307E+01
 -1       608 2.52908E+00
 -1       609 6.40465E+00
 -1       610 8.21697E+00
 -1       611 1.61445E+00
 -1       612 3.90520E+00
 -1       613 7.83619E-04
 -1       614 7.62772E+00
 -1       615 7.67148E+00
 -1       616 2.57610E+00
 -1       617 2.11333E+00
 -1       618 2.94127E+00
 -1       619 2.77632E+00
 -1       620 2.46040E+00
 -1       621 1.42959E+01
 -1       622 3.53077E+00
 -1       623 1.00848E+01
 -1       624 2.31507E+00
 -1       625 2.95905E+00
 -1       626 1.11828E+00
 -1       627 1.38826E+00
 -1       628 1.44591E+00
 -1       629 1.81396E+00
 -1       630 2.63301E+00
 -1       631 3.90266E+00
 -1       632 2.73547E+00
 -1       633 2.53840E+00
 -1       634 1.79910E+00
 -1       635 1.59981E+00
 -1       636 1.42760E+00
 -1       637 1.36624E+00
 -1       638 1.07993E+00
 -1       639 8.89895E-01
 -1       640 7.93578E-01
 -1       641 6.76581E-01
 -1       642 6.10556E-01
 -1       643 5.40953E-01
 -1       644 4.59707E-01
 -1       645 3.76563E-01
 -1       646 2.98984E-01
 -1       647 2.30759E-01
 -1       648 1.74762E-01
 -1       649 1.31488E-01
 -1       650 9.68327E-02
 -1       651 6.95181E-02
 -1       652 4.84493E-02
 -1       653 3.25453E-02
 -1       654 2.08087E-02
 -1       655 1.29157E-02
 -1       656 9.54015E-03
 -1       657 9.23038E-03
 -1       658 8.44127E-03
 -1       659 7.40538E-03
 -1       660 6.28033E-03
 -1       661 5.21036E-03
 -1       662 4.48300E-03
 -1       663 3.72006E-03
 -1       664 2.97918E-03
 -1       665 2.29489E-03
 -1       666 1.74074E-03
 -1       667 1.27119E-03
 -1       668 3.18188E+00
 -1       669 1.08828E+01
 -1       670 3.31053E+00
 -1       671 4.16615E+00
 -1       672 4.07319E+00
 -1       673 3.81913E+00
 -1       674 2.99513E+00
 -1       675 2.39199E+00
 -1       676 1.86734E+00
 -1       677 1.58683E+00
 -1       678 1.34784E+00
 -1       679 1.11174E+00
 -1       680 8.97552E-01
 -1       681 7.11935E-01
 -1       682 5.55682E-01
 -1       683 4.27018E-01
 -1       684 3.23021E-01
 -1       685 2.40356E-01
 -1       686 1.75671E-01
 -1       687 1.25826E-01
 -1       688 8.80062E-02
 -1       689 5.97708E-02
 -1       690 3.90582E-02
 -1       691 2.41619E-02
 -1       692 1.58377E-02
 -1       693 1.32989E-02
 -1       694 1.19487E-02
 -1       695 1.03550E-02
 -1       696 8.71261E-03
 -1       697 7.14093E-03
 -1       698 5.96406E-03
 -1       699 5.04125E-03
 -1       700 4.16061E-03
 -1       701 3.32889E-03
 -1       702 2.63188E-03
 -1       703 2.00042E-03
 -1       704 1.46582E-03
 -1       705 1.20232E-03
 -1       706 1.17622E-03
 -1       707 8.24908E-04
 -1       708 1.17073E-03
 -1       709 1.17284E-03
 -1       710 1.17622E-03
 -1       711 3.29869E+00
 -1       712 1.17284E-03
 -1       713 1.15871E-03
 -1       714 9.97436E-04
 -1       715 6.02955E+00
 -1       716 1.53355E+01
 -1       717 1.81085E+00
 -1       718 1.17345E+01
 -1       719 1.57373E+01
 -1       720 6.21801E+00
 -1       721 2.88729E+00
 -1       722 2.14101E+00
 -1       723 7.74365E+00
 -1       724 3.30568E+00
 -1       725 1.57028E+01
 -1       726 1.97299E+00
 -1       727 4.59551E+00
 -1       728 5.40617E+00
 -1       729 9.32054E+00
 -1       730 1.52871E+01
 -1       731 1.29757E+01
 -1       732 1.31190E+01
 -1       733 5.53666E+00
 -1       734 4.53154E+00
 -1       735 5.85027E+00
 -1       736 7.62174E+00
 -1       737 4.41374E+00
 -1       738 2.14101E+00
 -1       739 2.20719E+00
 -1       740 3.60233E+00
 -1       741 3.90266E+00
 -1       742 1.01662E-03
 -1       743 9.07561E-04
 -1       744 1.01121E-03
 -1       745 2.20719E+00
 -1       746 3.14092E+00
 -1       747 3.22558E+00
 -1       748 1.08945E+01
 -1       749 2.10952E+00
 -1       750 1.81396E+00
 -1       751 3.14092E+00
 -1       752 4.53154E+00
 -1       753 2.95905E+00
 -1       754 2.50864E+00
 -1       755 2.71896E+00
 -1       756 2.13588E+00
 -1       757 1.57575E+00
 -1       758 1.37765E+00
 -1       759 1.12950E+00
 -1       760 8.94145E-01
 -1       761 7.57022E-01
 -1       762 6.29692E-01
 -1       763 5.17593E-01
 -1       764 4.16028E-01
 -1       765 3.27271E-01
 -1       766 2.52576E-01
 -1       767 1.91730E-01
 -1       768 1.44767E-01
 -1       769 1.07723E-01
 -1       770 7.83653E-02
 -1       771 5.58751E-02
 -1       772 3.87896E-02
 -1       773 2.60287E-02
 -1       774 1.66786E-02
 -1       775 9.97808E-03
 -1       776 5.75586E-03
 -1       777 5.38197E-03
 -1       778 5.45578E-03
 -1       779 5.13492E-03
 -1       780 4.59072E-03
 -1       781 3.94157E-03
 -1       782 3.46308E-03
 -1       783 2.96287E-03
 -1       784 2.43634E-03
 -1       785 1.92454E-03
 -1       786 1.41997E-03
 -1       787 1.40031E-03
 -1       788 5.25331E+00
 -1       789 5.47953E+00
 -1       790 2.14428E+00
 -1       791 1.61744E+00
 -1       792 1.23223E+00
 -1       793 9.61650E-01
 -1       794 7.65648E-01
 -1       795 5.95117E-01
 -1       796 4.52765E-01
 -1       797 3.37812E-01
 -1       798 2.47209E-01
 -1       799 1.79130E-01
 -1       800 1.31877E-01
 -1       801 9.53739E-02
 -1       802 6.75158E-02
 -1       803 4.65526E-02
 -1       804 3.10294E-02
 -1       805 1.97445E-02
 -1       806 1.17167E-02
 -1       807 7.42194E-03
 -1       808 7.46156E-03
 -1       809 7.13060E-03
 -1       810 6.45348E-03
 -1       811 5.60726E-03
 -1       812 4.70856E-03
 -1       813 4.07301E-03
 -1       814 3.42822E-03
 -1       815 2.77957E-03
 -1       816 2.16792E-03
 -1       817 1.61042E-03
 -1       818 1.20293E-03
 -1       819 3.43994E+00
 -1       820 1.32774E-03
 -1       821 4.37983E+00
 -1       822 8.93715E+00
 -1       823 1.40031E-03
 -1       824 2.79870E+00
 -1       825 3.57295E+00
 -1       826 9.53055E+00
 -1       827 7.69837E+00
 -1       828 6.36779E+00
 -1       829 1.72972E+00
 -1       830 6.86503E+00
 -1       831 1.35698E-03
 -1       832 9.95608E+00
 -1       833 8.98257E+00
 -1       834 1.01265E+01
 -1       835 6.77717E+00
 -1       836 5.50029E+00
 -1       837 1.08945E+01
 -1       838 9.60731E+00
 -1       839 6.32019E+00
 -1       840 3.43994E+00
 -1       841 4.61989E+00
 -1       842 2.14101E+00
 -1       843 1.21823E-03
 -1       844 3.90266E+00
 -1       845 6.89556E+00
 -1       846 4.61989E+00
 -1       847 1.41884E-03
 -1       848 3.34488E+00
 -1       849 6.94489E+00
 -1       850 1.41884E-03
 -1       851 3.98776E+00
 -1       852 6.94489E+00
 -1       853 2.79085E+00
 -1       854 1.30245E-03
 -1       855 3.44328E+00
 -1       856 2.21016E+00
 -1       857 3.62380E+00
 -1       858 2.95384E+00
 -1       859 2.21349E+00
 -1       860 1.78864E+00
 -1       861 1.43770E+00
 -1       862 1.09465E+00
 -1       863 8.10814E-01
 -1       864 6.09105E-01
 -1       865 4.70272E-01
 -1       866 3.90744E-01
 -1       867 3.15560E-01
 -1       868 2.48622E-01
 -1       869 1.91406E-01
 -1       870 1.44005E-01
 -1       871 1.05751E-01
 -1       872 7.55977E-02
 -1       873 5.24392E-02
 -1       874 3.59678E-02
 -1       875 2.36613E-02
 -1       876 1.46776E-02
 -1       877 8.29061E-03
 -1       878 3.95031E-03
 -1       879 3.39859E-03
 -1       880 4.00635E-03
 -1       881 4.10067E-03
 -1       882 3.87390E-03
 -1       883 3.46308E-03
 -1       884 3.02172E-03
 -1       885 2.62888E-03
 -1       886 2.18678E-03
 -1       887 1.56516E+00
 -1       888 2.09172E+00
 -1       889 9.54472E-01
 -1       890 7.35059E-01
 -1       891 5.61412E-01
 -1       892 4.24754E-01
 -1       893 3.17780E-01
 -1       894 2.34623E-01
 -1       895 1.70538E-01
 -1       896 1.21658E-01
 -1       897 8.48221E-02
 -1       898 5.88234E-02
 -1       899 3.96210E-02
 -1       900 2.56031E-02
 -1       901 1.57113E-02
 -1       902 8.81221E-03
 -1       903 4.54431E-03
 -1       904 4.43838E-03
 -1       905 4.83498E-03
 -1       906 4.74406E-03
 -1       907 4.36209E-03
 -1       908 3.82526E-03
 -1       909 3.29638E-03
 -1       910 2.84843E-03
 -1       911 2.35745E-03
 -1       912 2.02430E-03
 -1       913 1.57042E-03
 -1       914 3.09511E+00
 -1       915 1.37979E-03
 -1       916 4.71581E+00
 -1       917 1.57042E-03
 -1       918 4.49028E+00
 -1       919 5.70758E+00
 -1       920 6.44909E+00
 -1       921 1.22820E+00
 -1       922 4.49341E+00
 -1       923 1.47847E-03
 -1       924 7.07346E+00
 -1       925 6.44909E+00
 -1       926 6.55935E+00
 -1       927 7.07346E+00
 -1       928 5.06069E+00
 -1       929 6.34682E+00
 -1       930 4.21433E+00
 -1       931 1.71781E-03
 -1       932 1.52135E-03
 -1       933 4.97220E+00
 -1       934 6.11508E+00
 -1       935 3.65019E+00
 -1       936 4.39652E+00
 -1       937 5.07697E+00
 -1       938 1.98976E-03
 -1       939 6.11508E+00
 -1       940 4.74551E-01
 -1       941 4.76913E+00
 -1       942 1.81002E-03
 -1       943 1.50045E+00
 -1       944 3.76362E+00
 -1       945 2.80364E+00
 -1       946 2.06052E+00
 -1       947 1.52374E+00
 -1       948 1.14476E+00
 -1       949 8.61667E-01
 -1       950 6.69683E-01
 -1       951 5.28225E-01
 -1       952 4.12688E-01
 -1       953 3.19107E-01
 -1       954 2.43845E-01
 -1       955 1.83801E-01
 -1       956 1.36364E-01
 -1       957 9.93154E-02
 -1       958 7.07604E-02
 -1       959 5.00615E-02
 -1       960 3.45305E-02
 -1       961 2.29717E-02
 -1       962 1.45348E-02
 -1       963 8.51565E-03
 -1       964 4.33919E-03
 -1       965 2.23666E-03
 -1       966 2.69497E-03
 -1       967 2.92476E-03
 -1       968 2.85545E-03
 -1       969 2.70599E-03
 -1       970 2.53092E-03
 -1       971 2.48169E-03
 -1       972 2.15939E+00
 -1       973 5.03456E+00
 -1       974 4.97220E+00
 -1       975 6.25899E-01
 -1       976 8.28258E-01
 -1       977 3.58900E-01
 -1       978 2.69599E-01
 -1       979 2.00427E-01
 -1       980 1.46986E-01
 -1       981 1.05979E-01
 -1       982 7.48257E-02
 -1       983 5.14545E-02
 -1       984 3.51657E-02
 -1       985 2.32444E-02
 -1       986 1.46051E-02
 -1       987 8.48779E-03
 -1       988 4.40807E-03
 -1       989 2.57619E-03
 -1       990 3.29644E-03
 -1       991 3.50199E-03
 -1       992 3.38146E-03
 -1       993 3.06848E-03
 -1       994 2.65462E-03
 -1       995 2.31596E-03
 -1       996 2.02430E-03
 -1       997 3.90549E+00
 -1       998 1.10810E+00
 -1       999 3.60317E+00
 -1      1000 4.33008E+00
 -1      1001 2.12700E-03
 -1      1002 1.63320E-03
 -1      1003 3.60317E+00
 -1      1004 2.43122E-03
 -1      1005 3.82292E+00
 -1      1006 1.99970E+00
 -1      1007 1.52374E+00
 -1      1008 1.14476E+00
 -1      1009 8.61667E-01
 -1      1010 6.50997E-01
 -1      1011 4.92937E-01
 -1      1012 3.73066E-01
 -1      1013 2.81333E-01
 -1      1014 2.10732E-01
 -1      1015 1.56311E-01
 -1      1016 1.14463E-01
 -1      1017 8.24725E-02
 -1      1018 5.82313E-02
 -1      1019 4.00719E-02
 -1      1020 2.68239E-02
 -1      1021 1.78134E-02
 -1      1022 1.12708E-02
 -1      1023 7.14866E-03
 -1      1024 4.26424E-03
 -1      1025 2.23666E-03
 -1      1026 2.35313E-03
 -1      1027 2.69028E-03
 -1      1028 2.70599E-03
 -1      1029 2.53092E-03
 -1      1030 2.48169E-03
 -1      1031 1.58866E+00
 -1      1032 6.12814E-01
 -1      1033 2.06032E-01
 -1      1034 1.54460E-01
 -1      1035 1.14157E-01
 -1      1036 8.29012E-02
 -1      1037 5.89302E-02
 -1      1038 4.07961E-02
 -1      1039 2.77474E-02
 -1      1040 1.85728E-02
 -1      1041 1.18622E-02
 -1      1042 7.30961E-03
 -1      1043 4.40564E-03
 -1      1044 2.36875E-03
 -1      1045 2.30801E-03
 -1      1046 2.60861E-03
 -1      1047 2.60713E-03
 -1      1048 2.41937E-03
 -1      1049 2.40249E-03
 -1      1050 2.71836E-01
 -1      1051 4.66097E-01
 -1      1052 8.18792E-01
 -1      1053 3.56184E-01
 -1      1054 2.50602E+00
 -1      1055 1.12306E+00
 -1      1056 1.82912E-03
 -1      1057 2.43122E-03
 -1      1058 3.59003E+00
 -1      1059 1.79541E+00
 -1      1060 1.19965E+00
 -1      1061 8.24321E-01
 -1      1062 5.76885E-01
 -1      1063 4.09614E-01
 -1      1064 3.21207E-01
 -1      1065 2.51164E-01
 -1      1066 1.94729E-01
 -1      1067 1.49292E-01
 -1      1068 1.12927E-01
 -1      1069 8.40931E-02
 -1      1070 6.14959E-02
 -1      1071 4.40232E-02
 -1      1072 3.07710E-02
 -1      1073 2.14144E-02
 -1      1074 1.46506E-02
 -1      1075 9.62482E-03
 -1      1076 5.96652E-03
 -1      1077 3.36553E-03
 -1      1078 1.56727E-03
 -1      1079 1.46586E-03
 -1      1080 1.67147E-03
 -1      1081 1.70331E-03
 -1      1082 1.74007E-03
 -1      1083 1.25196E-01
 -1      1084 9.33987E-02
 -1      1085 4.85342E-01
 -1      1086 1.65729E-01
 -1      1087 6.86174E-02
 -1      1088 4.94884E-02
 -1      1089 3.48981E-02
 -1      1090 2.43162E-02
 -1      1091 1.68342E-02
 -1      1092 1.12553E-02
 -1      1093 7.17109E-03
 -1      1094 4.24345E-03
 -1      1095 2.19648E-03
 -1      1096 1.67164E-03
 -1      1097 1.94528E-03
 -1      1098 1.97626E-03
 -1      1099 2.43122E-03
 -1      1100 2.17276E-01
 -1      1101 2.14974E+00
 -1      1102 6.11644E-01
 -1      1103 1.16995E+00
 -1      1104 8.10026E-01
 -1      1105 3.70317E-01
 -1      1106 2.83057E-01
 -1      1107 1.21639E+01
 -1      1108 8.02656E+00
 -1      1109 3.16095E+00
 -1      1110 2.17257E+00
 -1      1111 1.80173E+00
 -1      1112 1.61394E+00
 -1      1113 1.46383E+00
 -1      1114 1.24925E+00
 -1      1115 8.82291E-01
 -1      1116 9.05566E-01
 -1      1117 1.39691E+00
 -1      1118 1.83786E+00
 -1      1119 2.19679E+00
 -1      1120 2.58832E+00
 -1      1121 3.35120E+00
 -1      1122 5.88626E+00
 -1      1123 1.00362E+01
 -1      1124 1.21639E+01
 -1      1125 7.69812E+00
 -1      1126 2.55965E+00
 -1      1127 1.28769E+00
 -1      1128 5.82886E-01
 -1      1129 6.85538E-01
 -1      1130 1.09583E+00
 -1      1131 1.74319E+00
 -1      1132 2.59956E+00
 -1      1133 3.15058E+00
 -1      1134 3.30243E+00
 -1      1135 3.31440E+00
 -1      1136 3.17645E+00
 -1      1137 2.60516E+00
 -1      1138 1.78147E+00
 -1      1139 1.22166E+00
 -1      1140 1.00917E+00
 -1      1141 9.39077E-01
 -1      1142 9.06003E-01
 -1      1143 8.76545E-01
 -1      1144 7.92865E-01
 -1      1145 6.59263E-01
 -1      1146 5.26400E-01
 -1      1147 4.22726E-01
 -1      1148 3.52062E-01
 -1      1149 2.97054E-01
 -1      1150 2.41160E-01
 -1      1151 1.89381E-01
 -1      1152 1.44253E-01
 -1      1153 1.08395E-01
 -1      1154 8.59605E-02
 -1      1155 7.16390E-02
 -1      1156 5.82129E-02
 -1      1157 4.62495E-02
 -1      1158 3.59796E-02
 -1      1159 2.74189E-02
 -1      1160 2.11754E-02
 -1      1161 1.71271E-02
 -1      1162 1.39553E-02
 -1      1163 1.11363E-02
 -1      1164 8.70705E-03
 -1      1165 6.72525E-03
 -1      1166 5.15115E-03
 -1      1167 3.84563E-03
 -1      1168 2.93970E-03
 -1      1169 2.42755E-03
 -1      1170 2.00615E-03
 -1      1171 1.58477E-03
 -1      1172 1.19562E-03
 -1      1173 6.19534E-04
 -1      1174 1.21832E+01
 -1      1175 7.23438E+00
 -1      1176 1.70243E+00
 -1      1177 9.68857E-01
 -1      1178 1.00682E+00
 -1      1179 1.41427E+00
 -1      1180 1.71584E+00
 -1      1181 2.08613E+00
 -1      1182 2.91715E+00
 -1      1183 4.13670E+00
 -1      1184 5.13735E+00
 -1      1185 5.46168E+00
 -1      1186 5.23835E+00
 -1      1187 3.99416E+00
 -1      1188 2.37923E+00
 -1      1189 1.72152E+00
 -1      1190 1.76623E+00
 -1      1191 1.87458E+00
 -1      1192 1.82119E+00
 -1      1193 1.63963E+00
 -1      1194 1.38720E+00
 -1      1195 1.13942E+00
 -1      1196 9.00554E-01
 -1      1197 6.85924E-01
 -1      1198 5.05653E-01
 -1      1199 3.75672E-01
 -1      1200 2.86929E-01
 -1      1201 2.15131E-01
 -1      1202 1.57863E-01
 -1      1203 1.13241E-01
 -1      1204 7.91754E-02
 -1      1205 5.63966E-02
 -1      1206 4.40417E-02
 -1      1207 3.60001E-02
 -1      1208 2.88751E-02
 -1      1209 2.27514E-02
 -1      1210 1.85025E-02
 -1      1211 1.58933E-02
 -1      1212 1.35552E-02
 -1      1213 1.12895E-02
 -1      1214 9.20717E-03
 -1      1215 7.40701E-03
 -1      1216 5.91682E-03
 -1      1217 4.64828E-03
 -1      1218 3.53884E-03
 -1      1219 2.61870E-03
 -1      1220 1.99759E-03
 -1      1221 1.51865E-03
 -1      1222 9.98885E-04
 -1      1223 4.68708E-04
 -1      1224 2.67525E-04
 -1      1225 3.38029E-04
 -1      1226 2.97936E-04
 -1      1227 1.86594E-04
 -1      1228 1.35174E-04
 -1      1229 1.94493E-04
 -1      1230 2.56835E-04
 -1      1231 2.86034E-04
 -1      1232 2.92381E-04
 -1      1233 2.85565E-04
 -1      1234 2.54565E-04
 -1      1235 1.92069E-04
 -1      1236 1.35699E-04
 -1      1237 1.88181E-04
 -1      1238 3.53317E-04
 -1      1239 4.84777E-04
 -1      1240 3.75376E-04
 -1      1241 2.51526E+01
 -1      1242 2.83664E+01
 -1      1243 3.17530E+01
 -1      1244 2.82246E+01
 -1      1245 1.84445E+01
 -1      1246 1.22980E+01
 -1      1247 1.27660E+01
 -1      1248 1.31288E+01
 -1      1249 1.29967E+01
 -1      1250 1.27581E+01
 -1      1251 1.98330E+01
 -1      1252 2.80703E+01
 -1      1253 2.90973E+01
 -1      1254 2.70510E+01
 -1      1255 2.51135E+01
 -1      1256 2.51935E+01
 -1      1257 3.46423E+01
 -1      1258 4.40912E+01
 -1      1259 3.05297E+01
 -1      1260 1.51531E+01
 -1      1261 1.33379E+01
 -1      1262 1.29741E+01
 -1      1263 1.24335E+01
 -1      1264 1.22567E+01
 -1      1265 1.50524E+01
 -1      1266 3.17355E+01
 -1      1267 4.56229E+01
 -1      1268 3.54741E+01
 -1      1269 2.53253E+01
 -1      1270 1.21639E+01
 -1      1271 5.01262E+00
 -1      1272 9.15000E+00
 -1      1273 2.62091E+00
 -1      1274 3.34914E+00
 -1      1275 4.47258E+00
 -1      1276 2.02297E+00
 -1      1277 2.28312E+00
 -1      1278 2.47131E+00
 -1      1279 1.73402E+00
 -1      1280 1.84471E+00
 -1      1281 1.95526E+00
 -1      1282 1.53683E+00
 -1      1283 1.61394E+00
 -1      1284 1.65691E+00
 -1      1285 1.43105E+00
 -1      1286 1.50405E+00
 -1      1287 1.50405E+00
 -1      1288 1.21789E+00
 -1      1289 1.35948E+00
 -1      1290 1.39969E+00
 -1      1291 8.12722E-01
 -1      1292 1.03809E+00
 -1      1293 1.14832E+00
 -1      1294 9.98945E-01
 -1      1295 7.50298E-01
 -1      1296 9.06102E-01
 -1      1297 1.54609E+00
 -1      1298 1.30340E+00
 -1      1299 1.14813E+00
 -1      1300 1.96111E+00
 -1      1301 1.76285E+00
 -1      1302 1.66934E+00
 -1      1303 2.23164E+00
 -1      1304 2.07096E+00
 -1      1305 1.99595E+00
 -1      1306 2.62519E+00
 -1      1307 2.39434E+00
 -1      1308 2.26851E+00
 -1      1309 3.46785E+00
 -1      1310 2.93581E+00
 -1      1311 2.74184E+00
 -1      1312 5.95901E+00
 -1      1313 3.95598E+00
 -1      1314 3.54060E+00
 -1      1315 1.21832E+01
 -1      1316 1.00362E+01
 -1      1317 8.10594E+00
 -1      1318 1.21832E+01
 -1      1319 7.69812E+00
 -1      1320 3.23230E+00
 -1      1321 2.55965E+00
 -1      1322 1.88699E+00
 -1      1323 2.55965E+00
 -1      1324 1.38055E+00
 -1      1325 7.81244E-01
 -1      1326 1.38055E+00
 -1      1327 5.52652E-01
 -1      1328 4.47147E-01
 -1      1329 6.45505E-01
 -1      1330 5.58003E-01
 -1      1331 7.66160E-01
 -1      1332 5.27769E-01
 -1      1333 9.57782E-01
 -1      1334 1.15992E+00
 -1      1335 8.30247E-01
 -1      1336 1.41451E+00
 -1      1337 1.85973E+00
 -1      1338 1.27646E+00
 -1      1339 2.18841E+00
 -1      1340 2.59956E+00
 -1      1341 1.85973E+00
 -1      1342 3.01070E+00
 -1      1343 3.15058E+00
 -1      1344 2.59956E+00
 -1      1345 3.29045E+00
 -1      1346 3.30243E+00
 -1      1347 3.15058E+00
 -1      1348 3.31440E+00
 -1      1349 3.31440E+00
 -1      1350 3.30243E+00
 -1      1351 3.17645E+00
 -1      1352 3.03851E+00
 -1      1353 3.17645E+00
 -1      1354 2.60516E+00
 -1      1355 2.17181E+00
 -1      1356 2.60516E+00
 -1      1357 1.79211E+00
 -1      1358 1.40177E+00
 -1      1359 1.79211E+00
 -1      1360 1.22166E+00
 -1      1361 1.05219E+00
 -1      1362 1.23230E+00
 -1      1363 1.00917E+00
 -1      1364 9.66147E-01
 -1      1365 1.00917E+00
 -1      1366 9.39077E-01
 -1      1367 9.12007E-01
 -1      1368 9.39077E-01
 -1      1369 9.06003E-01
 -1      1370 9.00000E-01
 -1      1371 9.06003E-01
 -1      1372 8.76545E-01
 -1      1373 8.53090E-01
 -1      1374 8.76545E-01
 -1      1375 7.92865E-01
 -1      1376 7.32641E-01
 -1      1377 7.92865E-01
 -1      1378 6.68385E-01
 -1      1379 5.95007E-01
 -1      1380 6.68385E-01
 -1      1381 5.48924E-01
 -1      1382 4.89439E-01
 -1      1383 5.58046E-01
 -1      1384 4.49630E-01
 -1      1385 4.05441E-01
 -1      1386 4.72154E-01
 -1      1387 3.62870E-01
 -1      1388 3.36394E-01
 -1      1389 3.89773E-01
 -1      1390 2.97054E-01
 -1      1391 2.68522E-01
 -1      1392 3.07862E-01
 -1      1393 2.41160E-01
 -1      1394 2.13799E-01
 -1      1395 2.41160E-01
 -1      1396 1.90484E-01
 -1      1397 1.66067E-01
 -1      1398 1.90484E-01
 -1      1399 1.47477E-01
 -1      1400 1.26766E-01
 -1      1401 1.48580E-01
 -1      1402 1.10957E-01
 -1      1403 9.58101E-02
 -1      1404 1.14181E-01
 -1      1405 8.59605E-02
 -1      1406 7.86723E-02
 -1      1407 8.85219E-02
 -1      1408 7.16390E-02
 -1      1409 6.46058E-02
 -1      1410 7.16390E-02
 -1      1411 5.82129E-02
 -1      1412 5.18200E-02
 -1      1413 5.82129E-02
 -1      1414 4.62495E-02
 -1      1415 4.06790E-02
 -1      1416 4.62495E-02
 -1      1417 3.59796E-02
 -1      1418 3.12802E-02
 -1      1419 3.59796E-02
 -1      1420 2.76773E-02
 -1      1421 2.38160E-02
 -1      1422 2.76773E-02
 -1      1423 2.11754E-02
 -1      1424 1.87933E-02
 -1      1425 2.14338E-02
 -1      1426 1.71271E-02
 -1      1427 1.54609E-02
 -1      1428 1.71271E-02
 -1      1429 1.39553E-02
 -1      1430 1.24496E-02
 -1      1431 1.39553E-02
 -1      1432 1.11376E-02
 -1      1433 9.82435E-03
 -1      1434 1.11376E-02
 -1      1435 8.85621E-03
 -1      1436 7.74025E-03
 -1      1437 8.85755E-03
 -1      1438 6.88924E-03
 -1      1439 6.02340E-03
 -1      1440 7.03840E-03
 -1      1441 5.40059E-03
 -1      1442 4.69234E-03
 -1      1443 5.56458E-03
 -1      1444 4.14010E-03
 -1      1445 3.54282E-03
 -1      1446 4.38953E-03
 -1      1447 3.05998E-03
 -1      1448 2.75132E-03
 -1      1449 3.35445E-03
 -1      1450 2.42755E-03
 -1      1451 2.22405E-03
 -1      1452 2.54783E-03
 -1      1453 2.00615E-03
 -1      1454 1.78824E-03
 -1      1455 2.00615E-03
 -1      1456 1.58477E-03
 -1      1457 1.38129E-03
 -1      1458 1.58477E-03
 -1      1459 1.19562E-03
 -1      1460 1.00995E-03
 -1      1461 1.19562E-03
 -1      1462 7.65795E-04
 -1      1463 7.65795E-04
 -1      1464 2.28560E+00
 -1      1465 7.23438E+00
 -1      1466 7.23438E+00
 -1      1467 1.11926E+00
 -1      1468 1.70243E+00
 -1      1469 1.70243E+00
 -1      1470 7.93028E-01
 -1      1471 9.43428E-01
 -1      1472 9.43428E-01
 -1      1473 1.01516E+00
 -1      1474 8.26792E-01
 -1      1475 8.01362E-01
 -1      1476 1.41427E+00
 -1      1477 1.19519E+00
 -1      1478 1.01516E+00
 -1      1479 1.71584E+00
 -1      1480 1.63335E+00
 -1      1481 1.41427E+00
 -1      1482 2.08613E+00
 -1      1483 1.79833E+00
 -1      1484 1.71584E+00
 -1      1485 2.91715E+00
 -1      1486 2.37393E+00
 -1      1487 2.08613E+00
 -1      1488 4.13670E+00
 -1      1489 3.46037E+00
 -1      1490 2.91715E+00
 -1      1491 5.13735E+00
 -1      1492 4.81303E+00
 -1      1493 4.13670E+00
 -1      1494 5.46168E+00
 -1      1495 5.46168E+00
 -1      1496 5.13735E+00
 -1      1497 5.01503E+00
 -1      1498 5.23835E+00
 -1      1499 5.23835E+00
 -1      1500 2.97330E+00
 -1      1501 3.99416E+00
 -1      1502 3.99416E+00
 -1      1503 1.78517E+00
 -1      1504 2.37923E+00
 -1      1505 2.37923E+00
 -1      1506 1.58539E+00
 -1      1507 1.64904E+00
 -1      1508 1.64904E+00
 -1      1509 1.76623E+00
 -1      1510 1.65788E+00
 -1      1511 1.58539E+00
 -1      1512 1.87458E+00
 -1      1513 1.87458E+00
 -1      1514 1.76623E+00
 -1      1515 1.76781E+00
 -1      1516 1.82119E+00
 -1      1517 1.82119E+00
 -1      1518 1.51146E+00
 -1      1519 1.63963E+00
 -1      1520 1.63963E+00
 -1      1521 1.26295E+00
 -1      1522 1.38720E+00
 -1      1523 1.38720E+00
 -1      1524 1.02584E+00
 -1      1525 1.14937E+00
 -1      1526 1.14937E+00
 -1      1527 8.04272E-01
 -1      1528 9.19609E-01
 -1      1529 9.29558E-01
 -1      1530 6.09225E-01
 -1      1531 7.08518E-01
 -1      1532 7.27573E-01
 -1      1533 4.47409E-01
 -1      1534 5.28388E-01
 -1      1535 5.50982E-01
 -1      1536 3.33491E-01
 -1      1537 3.82494E-01
 -1      1538 4.05228E-01
 -1      1539 2.47188E-01
 -1      1540 2.86929E-01
 -1      1541 2.93750E-01
 -1      1542 1.83074E-01
 -1      1543 2.15131E-01
 -1      1544 2.15131E-01
 -1      1545 1.33131E-01
 -1      1546 1.58343E-01
 -1      1547 1.58343E-01
 -1      1548 9.53478E-02
 -1      1549 1.14758E-01
 -1      1550 1.15238E-01
 -1      1551 6.65649E-02
 -1      1552 8.12204E-02
 -1      1553 8.27373E-02
 -1      1554 4.82734E-02
 -1      1555 5.63966E-02
 -1      1556 5.84417E-02
 -1      1557 3.98100E-02
 -1      1558 4.40417E-02
 -1      1559 4.40417E-02
 -1      1560 3.21903E-02
 -1      1561 3.60001E-02
 -1      1562 3.60001E-02
 -1      1563 2.55600E-02
 -1      1564 2.88751E-02
 -1      1565 2.88751E-02
 -1      1566 1.99429E-02
 -1      1567 2.27514E-02
 -1      1568 2.27514E-02
 -1      1569 1.70621E-02
 -1      1570 1.85025E-02
 -1      1571 1.85025E-02
 -1      1572 1.47244E-02
 -1      1573 1.58933E-02
 -1      1574 1.58933E-02
 -1      1575 1.23860E-02
 -1      1576 1.35552E-02
 -1      1577 1.35552E-02
 -1      1578 1.01929E-02
 -1      1579 1.12895E-02
 -1      1580 1.12895E-02
 -1      1581 8.22141E-03
 -1      1582 9.20717E-03
 -1      1583 9.20717E-03
 -1      1584 6.59262E-03
 -1      1585 7.40701E-03
 -1      1586 7.40701E-03
 -1      1587 5.24102E-03
 -1      1588 5.91682E-03
 -1      1589 5.91682E-03
 -1      1590 4.05554E-03
 -1      1591 4.64828E-03
 -1      1592 4.64828E-03
 -1      1593 3.05102E-03
 -1      1594 3.56772E-03
 -1      1595 3.56772E-03
 -1      1596 2.22578E-03
 -1      1597 2.62923E-03
 -1      1598 2.65811E-03
 -1      1599 1.77992E-03
 -1      1600 1.99759E-03
 -1      1601 2.00812E-03
 -1      1602 1.25737E-03
 -1      1603 1.51865E-03
 -1      1604 1.51865E-03
 -1      1605 7.40396E-04
 -1      1606 9.98885E-04
 -1      1607 9.98885E-04
 -1      1608 5.39212E-04
 -1      1609 3.79405E-04
 -1      1610 3.79405E-04
 -1      1611 3.39311E-04
 -1      1612 3.79405E-04
 -1      1613 4.20780E-04
 -1      1614 2.47443E-04
 -1      1615 3.18691E-04
 -1      1616 4.00160E-04
 -1      1617 2.02417E-04
 -1      1618 1.82588E-04
 -1      1619 3.14686E-04
 -1      1620 3.20934E-04
 -1      1621 2.81443E-04
 -1      1622 3.28858E-04
 -1      1623 3.92564E-04
 -1      1624 3.69713E-04
 -1      1625 4.56663E-04
 -1      1626 4.17926E-04
 -1      1627 4.11579E-04
 -1      1628 5.24456E-04
 -1      1629 4.17926E-04
 -1      1630 4.17926E-04
 -1      1631 5.43471E-04
 -1      1632 4.10957E-04
 -1      1633 4.17774E-04
 -1      1634 5.43319E-04
 -1      1635 3.65964E-04
 -1      1636 3.90146E-04
 -1      1637 5.22356E-04
 -1      1638 2.80029E-04
 -1      1639 3.18343E-04
 -1      1640 4.53924E-04
 -1      1641 1.84819E-04
 -1      1642 2.02875E-04
 -1      1643 3.29149E-04
 -1      1644 3.18104E-04
 -1      1645 2.47567E-04
 -1      1646 3.14743E-04
 -1      1647 4.12703E-04
 -1      1648 3.18104E-04
 -1      1649 3.77490E-04
 -1      1650 5.30813E-04
 -1      1651 4.93952E-04
 -1      1652 4.58740E-04
 -1      1653 7.74970E-04
 -1      1654 2.82473E+01
 -1      1655 2.84201E+01
 -1      1656 3.15037E+01
 -1      1657 2.81171E+01
 -1      1658 3.17530E+01
 -1      1659 3.17530E+01
 -1      1660 2.55400E+01
 -1      1661 2.90684E+01
 -1      1662 1.21928E+01
 -1      1663 1.84445E+01
 -1      1664 1.20660E+01
 -1      1665 1.19609E+01
 -1      1666 1.27660E+01
 -1      1667 1.24032E+01
 -1      1668 1.31288E+01
 -1      1669 1.31288E+01
 -1      1670 1.28646E+01
 -1      1671 1.29967E+01
 -1      1672 1.22986E+01
 -1      1673 1.24050E+01
 -1      1674 1.98330E+01
 -1      1675 1.26516E+01
 -1      1676 2.91261E+01
 -1      1677 2.80703E+01
 -1      1678 3.15609E+01
 -1      1679 3.15897E+01
 -1      1680 2.95434E+01
 -1      1681 3.15609E+01
 -1      1682 2.79400E+01
 -1      1683 2.78600E+01
 -1      1684 2.79400E+01
 -1      1685 2.79400E+01
 -1      1686 4.13826E+01
 -1      1687 3.19337E+01
 -1      1688 4.40912E+01
 -1      1689 4.40912E+01
 -1      1690 1.70002E+01
 -1      1691 3.05618E+01
 -1      1692 1.25041E+01
 -1      1693 1.43193E+01
 -1      1694 1.33379E+01
 -1      1695 1.33379E+01
 -1      1696 1.26102E+01
 -1      1697 1.29741E+01
 -1      1698 1.20276E+01
 -1      1699 1.22043E+01
 -1      1700 1.22567E+01
 -1      1701 1.22567E+01
 -1      1702 1.44165E+01
 -1      1703 1.16208E+01
 -1      1704 3.24377E+01
 -1      1705 1.85503E+01
 -1      1706 4.56229E+01
 -1      1707 4.56229E+01
 -1      1708 2.66729E+01
 -1      1709 3.68217E+01
 -1      1710 2.84201E+01
 -1      1711 2.84201E+01
 -1      1712 1.92884E+01
 -1      1713 2.90684E+01
 -1      1714 5.39212E-04
 -1      1715 5.80588E-04
 -1      1716 3.13846E+01
 -1      1717 3.15037E+01
 -1      1718 3.15148E+01
 -1      1719 1.19609E+01
 -1      1720 1.20660E+01
 -1      1721 1.27660E+01
 -1      1722 1.29967E+01
 -1      1723 1.24050E+01
 -1      1724 1.22986E+01
 -1      1725 2.08889E+01
 -1      1726 3.15897E+01
 -1      1727 3.40533E+01
 -1      1728 3.23699E+01
 -1      1729 3.06865E+01
 -1      1730 3.46803E+01
 -1      1731 4.13826E+01
 -1      1732 3.05618E+01
 -1      1733 1.43513E+01
 -1      1734 1.25041E+01
 -1      1735 1.29741E+01
 -1      1736 1.22043E+01
 -1      1737 1.20276E+01
 -1      1738 1.16208E+01
 -1      1739 1.51187E+01
 -1      1740 3.24377E+01
 -1      1741 3.68217E+01
 -1      1742 2.97677E+01
 -1      1743 9.15000E+00
 -1      1744 1.98835E+00
 -1      1745 2.32614E+00
 -1      1746 2.78845E+00
 -1      1747 4.45193E+00
 -1      1748 2.30549E+00
 -1      1749 1.51154E+00
 -1      1750 1.63163E+00
 -1      1751 1.49626E+00
 -1      1752 1.52904E+00
 -1      1753 1.50376E+00
 -1      1754 1.42469E+00
 -1      1755 1.49626E+00
 -1      1756 1.52126E+00
 -1      1757 1.16474E+00
 -1      1758 1.34454E+00
 -1      1759 1.44111E+00
 -1      1760 8.54383E-01
 -1      1761 9.16807E-01
 -1      1762 1.11302E+00
 -1      1763 1.36913E+00
 -1      1764 1.06467E+00
 -1      1765 1.07538E+00
 -1      1766 1.87054E+00
 -1      1767 1.65378E+00
 -1      1768 1.57033E+00
 -1      1769 2.08191E+00
 -1      1770 1.97206E+00
 -1      1771 1.95650E+00
 -1      1772 2.28353E+00
 -1      1773 2.12083E+00
 -1      1774 2.09693E+00
 -1      1775 2.79077E+00
 -1      1776 2.48015E+00
 -1      1777 2.33247E+00
 -1      1778 3.15716E+00
 -1      1779 2.66903E+00
 -1      1780 2.40734E+00
 -1      1781 6.96389E+00
 -1      1782 2.88667E+00
 -1      1783 2.01511E+00
 -1      1784 2.01511E+00
 -1      1785 4.68418E+00
 -1      1786 1.27998E+00
 -1      1787 1.86315E+00
 -1      1788 1.59266E+00
 -1      1789 3.00005E+00
 -1      1790 1.49385E+00
 -1      1791 9.87404E-01
 -1      1792 7.58956E-01
 -1      1793 5.30364E-01
 -1      1794 8.72262E-01
 -1      1795 4.06692E-01
 -1      1796 5.17548E-01
 -1      1797 5.20143E-01
 -1      1798 6.92726E-01
 -1      1799 8.84347E-01
 -1      1800 5.71649E-01
 -1      1801 1.10435E+00
 -1      1802 1.35894E+00
 -1      1803 9.66826E-01
 -1      1804 1.54879E+00
 -1      1805 1.87746E+00
 -1      1806 1.37667E+00
 -1      1807 2.06246E+00
 -1      1808 2.47360E+00
 -1      1809 1.75151E+00
 -1      1810 2.57740E+00
 -1      1811 2.71727E+00
 -1      1812 2.04030E+00
 -1      1813 2.65832E+00
 -1      1814 2.67029E+00
 -1      1815 2.08513E+00
 -1      1816 2.72523E+00
 -1      1817 2.58728E+00
 -1      1818 2.08112E+00
 -1      1819 2.46941E+00
 -1      1820 2.03606E+00
 -1      1821 2.01819E+00
 -1      1822 1.82084E+00
 -1      1823 1.44114E+00
 -1      1824 1.68509E+00
 -1      1825 1.22226E+00
 -1      1826 1.04216E+00
 -1      1827 1.25100E+00
 -1      1828 8.12752E-01
 -1      1829 7.69730E-01
 -1      1830 8.02716E-01
 -1      1831 7.16202E-01
 -1      1832 6.89132E-01
 -1      1833 5.19785E-01
 -1      1834 7.37060E-01
 -1      1835 7.31056E-01
 -1      1836 5.14185E-01
 -1      1837 7.79804E-01
 -1      1838 7.56349E-01
 -1      1839 6.10861E-01
 -1      1840 7.54139E-01
 -1      1841 6.93915E-01
 -1      1842 6.57398E-01
 -1      1843 6.61664E-01
 -1      1844 5.97408E-01
 -1      1845 6.22937E-01
 -1      1846 5.64972E-01
 -1      1847 5.18890E-01
 -1      1848 5.58251E-01
 -1      1849 4.88611E-01
 -1      1850 4.48802E-01
 -1      1851 4.95537E-01
 -1      1852 4.13697E-01
 -1      1853 3.71125E-01
 -1      1854 4.30154E-01
 -1      1855 3.34086E-01
 -1      1856 2.94746E-01
 -1      1857 3.58009E-01
 -1      1858 2.59747E-01
 -1      1859 2.32385E-01
 -1      1860 2.85970E-01
 -1      1861 2.01576E-01
 -1      1862 1.78262E-01
 -1      1863 2.20162E-01
 -1      1864 1.52506E-01
 -1      1865 1.33916E-01
 -1      1866 1.63597E-01
 -1      1867 1.14181E-01
 -1      1868 9.83714E-02
 -1      1869 1.18106E-01
 -1      1870 8.54074E-02
 -1      1871 7.55579E-02
 -1      1872 8.54074E-02
 -1      1873 6.53838E-02
 -1      1874 5.83505E-02
 -1      1875 6.22694E-02
 -1      1876 5.19638E-02
 -1      1877 4.55709E-02
 -1      1878 4.57085E-02
 -1      1879 4.24421E-02
 -1      1880 3.68716E-02
 -1      1881 3.61930E-02
 -1      1882 3.39073E-02
 -1      1883 2.92078E-02
 -1      1884 3.00998E-02
 -1      1885 2.65346E-02
 -1      1886 2.29317E-02
 -1      1887 2.44622E-02
 -1      1888 2.06068E-02
 -1      1889 1.79662E-02
 -1      1890 1.94641E-02
 -1      1891 1.60143E-02
 -1      1892 1.43481E-02
 -1      1893 1.51872E-02
 -1      1894 1.32954E-02
 -1      1895 1.17898E-02
 -1      1896 1.21826E-02
 -1      1897 1.08967E-02
 -1      1898 9.58475E-03
 -1      1899 1.02369E-02
 -1      1900 8.73642E-03
 -1      1901 7.76829E-03
 -1      1902 8.49549E-03
 -1      1903 7.03096E-03
 -1      1904 6.17995E-03
 -1      1905 6.90984E-03
 -1      1906 5.57532E-03
 -1      1907 4.95251E-03
 -1      1908 5.56788E-03
 -1      1909 4.41023E-03
 -1      1910 3.85799E-03
 -1      1911 4.42097E-03
 -1      1912 3.43540E-03
 -1      1913 2.95255E-03
 -1      1914 3.45610E-03
 -1      1915 2.58792E-03
 -1      1916 2.26414E-03
 -1      1917 2.66886E-03
 -1      1918 1.94968E-03
 -1      1919 1.73177E-03
 -1      1920 1.98977E-03
 -1      1921 1.51998E-03
 -1      1922 1.31650E-03
 -1      1923 1.46351E-03
 -1      1924 1.13316E-03
 -1      1925 9.47489E-04
 -1      1926 7.12507E-04
 -1      1927 1.06837E-03
 -1      1928 1.06375E+00
 -1      1929 1.23958E+00
 -1      1930 1.40030E+00
 -1      1931 1.05379E+00
 -1      1932 1.02002E+00
 -1      1933 1.31617E+00
 -1      1934 1.14338E+00
 -1      1935 9.63349E-01
 -1      1936 1.18201E+00
 -1      1937 1.36860E+00
 -1      1938 1.14952E+00
 -1      1939 1.09771E+00
 -1      1940 1.64133E+00
 -1      1941 1.55884E+00
 -1      1942 1.29409E+00
 -1      1943 2.35632E+00
 -1      1944 2.06852E+00
 -1      1945 1.91152E+00
 -1      1946 3.10627E+00
 -1      1947 2.56305E+00
 -1      1948 2.54544E+00
 -1      1949 3.95163E+00
 -1      1950 3.27530E+00
 -1      1951 2.92120E+00
 -1      1952 4.32293E+00
 -1      1953 3.99860E+00
 -1      1954 3.13720E+00
 -1      1955 3.99783E+00
 -1      1956 4.22116E+00
 -1      1957 3.08241E+00
 -1      1958 2.55098E+00
 -1      1959 3.57184E+00
 -1      1960 2.55465E+00
 -1      1961 1.42972E+00
 -1      1962 2.02379E+00
 -1      1963 1.60146E+00
 -1      1964 1.28715E+00
 -1      1965 1.42328E+00
 -1      1966 1.06783E+00
 -1      1967 1.49397E+00
 -1      1968 1.42148E+00
 -1      1969 1.19572E+00
 -1      1970 1.62880E+00
 -1      1971 1.52044E+00
 -1      1972 1.35653E+00
 -1      1973 1.57263E+00
 -1      1974 1.62602E+00
 -1      1975 1.38023E+00
 -1      1976 1.38810E+00
 -1      1977 1.51627E+00
 -1      1978 1.32110E+00
 -1      1979 1.19255E+00
 -1      1980 1.31680E+00
 -1      1981 1.19344E+00
 -1      1982 9.95179E-01
 -1      1983 1.10876E+00
 -1      1984 1.03836E+00
 -1      1985 7.99179E-01
 -1      1986 9.05410E-01
 -1      1987 8.64799E-01
 -1      1988 6.19234E-01
 -1      1989 7.14988E-01
 -1      1990 6.90839E-01
 -1      1991 4.65376E-01
 -1      1992 5.46214E-01
 -1      1993 5.33628E-01
 -1      1994 3.40312E-01
 -1      1995 4.05228E-01
 -1      1996 4.00460E-01
 -1      1997 2.46014E-01
 -1      1998 2.92576E-01
 -1      1999 2.92576E-01
 -1      2000 1.81784E-01
 -1      2001 2.13840E-01
 -1      2002 2.12666E-01
 -1      2003 1.33611E-01
 -1      2004 1.58343E-01
 -1      2005 1.57052E-01
 -1      2006 9.68647E-02
 -1      2007 1.15238E-01
 -1      2008 1.15238E-01
 -1      2009 6.86100E-02
 -1      2010 8.27373E-02
 -1      2011 8.27373E-02
 -1      2012 4.77737E-02
 -1      2013 5.79420E-02
 -1      2014 5.79420E-02
 -1      2015 3.56315E-02
 -1      2016 3.98632E-02
 -1      2017 3.93635E-02
 -1      2018 2.90543E-02
 -1      2019 3.28641E-02
 -1      2020 2.86857E-02
 -1      2021 2.37176E-02
 -1      2022 2.70328E-02
 -1      2023 2.38968E-02
 -1      2024 1.89896E-02
 -1      2025 2.17982E-02
 -1      2026 1.99558E-02
 -1      2027 1.58116E-02
 -1      2028 1.72520E-02
 -1      2029 1.62987E-02
 -1      2030 1.31229E-02
 -1      2031 1.42918E-02
 -1      2032 1.30413E-02
 -1      2033 1.09099E-02
 -1      2034 1.20791E-02
 -1      2035 1.04776E-02
 -1      2036 9.12166E-03
 -1      2037 1.02182E-02
 -1      2038 8.74212E-03
 -1      2039 7.45038E-03
 -1      2040 8.43614E-03
 -1      2041 7.36487E-03
 -1      2042 6.00247E-03
 -1      2043 6.81687E-03
 -1      2044 6.04584E-03
 -1      2045 4.86133E-03
 -1      2046 5.53713E-03
 -1      2047 4.94698E-03
 -1      2048 3.83173E-03
 -1      2049 4.42446E-03
 -1      2050 4.04477E-03
 -1      2051 2.94685E-03
 -1      2052 3.43467E-03
 -1      2053 3.21085E-03
 -1      2054 2.17212E-03
 -1      2055 2.59391E-03
 -1      2056 2.46085E-03
 -1      2057 1.66915E-03
 -1      2058 1.89735E-03
 -1      2059 1.83315E-03
 -1      2060 1.21572E-03
 -1      2061 1.47700E-03
 -1      2062 1.36623E-03
 -1      2063 7.40131E-04
 -1      2064 9.98621E-04
 -1      2065 9.56967E-04
 -1      2066 5.80324E-04
 -1      2067 3.46944E-04
 -1      2068 4.11798E-04
 -1      2069 6.02819E-04
 -1      2070 6.23439E-04
 -1      2071 6.35077E-04
 -1      2072 6.23439E-04
 -1      2073 6.23439E-04
 -1      2074 7.82982E-04
 -1      2075 8.26097E-04
 -1      2076 4.77326E-04
 -1      2077 3.98299E-04
 -1      2078 4.95412E-04
 -1      2079 5.96245E-04
 -1      2080 5.47466E-04
 -1      2081 6.16908E-04
 -1      2082 6.46213E-04
 -1      2083 6.27198E-04
 -1      2084 7.18002E-04
 -1      2085 6.46213E-04
 -1      2086 6.46213E-04
 -1      2087 7.48955E-04
 -1      2088 6.44688E-04
 -1      2089 6.44840E-04
 -1      2090 7.47582E-04
 -1      2091 6.23877E-04
 -1      2092 6.44688E-04
 -1      2093 7.46210E-04
 -1      2094 5.45699E-04
 -1      2095 5.93319E-04
 -1      2096 7.15652E-04
 -1      2097 3.98201E-04
 -1      2098 4.75355E-04
 -1      2099 6.14750E-04
 -1      2100 4.04475E-04
 -1      2101 3.41727E-04
 -1      2102 4.87933E-04
 -1      2103 5.41099E-04
 -1      2104 5.41099E-04
 -1      2105 5.68084E-04
 -1      2106 3.15037E+01
 -1      2107 3.12544E+01
 -1      2108 3.25889E+01
 -1      2109 3.25889E+01
 -1      2110 3.24587E+01
 -1      2111 3.25889E+01
 -1      2112 3.36629E+01
 -1      2113 2.24914E+01
 -1      2114 2.51760E+01
 -1      2115 1.14550E+01
 -1      2116 1.85505E+01
 -1      2117 1.81009E+00
 -1      2118 1.98835E+00
 -1      2119 1.84318E+00
 -1      2120 1.66472E+00
 -1      2121 1.12420E+01
 -1      2122 1.09048E+01
 -1      2123 1.18856E+01
 -1      2124 1.15228E+01
 -1      2125 1.03616E+01
 -1      2126 1.10637E+01
 -1      2127 1.11958E+01
 -1      2128 1.05232E+01
 -1      2129 1.09828E+01
 -1      2130 9.78572E+00
 -1      2131 9.43265E+00
 -1      2132 2.02468E+01
 -1      2133 1.20095E+01
 -1      2134 2.70494E+01
 -1      2135 2.45858E+01
 -1      2136 3.40533E+01
 -1      2137 3.40533E+01
 -1      2138 3.40000E+01
 -1      2139 3.56834E+01
 -1      2140 3.40000E+01
 -1      2141 3.40000E+01
 -1      2142 3.36354E+01
 -1      2143 2.96416E+01
 -1      2144 3.48695E+01
 -1      2145 3.21608E+01
 -1      2146 2.71222E+01
 -1      2147 1.59046E+01
 -1      2148 2.94341E+01
 -1      2149 9.92344E+00
 -1      2150 1.26044E+01
 -1      2151 1.14767E+01
 -1      2152 1.05228E+01
 -1      2153 9.68900E+00
 -1      2154 1.12699E+01
 -1      2155 1.16338E+01
 -1      2156 1.15509E+01
 -1      2157 1.19568E+01
 -1      2158 1.14775E+01
 -1      2159 1.12483E+01
 -1      2160 1.10008E+01
 -1      2161 9.63166E+00
 -1      2162 1.02675E+01
 -1      2163 1.44152E+01
 -1      2164 1.02815E+01
 -1      2165 3.07002E+01
 -1      2166 1.75150E+01
 -1      2167 2.80205E+01
 -1      2168 3.68217E+01
 -1      2169 3.00649E+01
 -1      2170 2.83177E+01
 -1      2171 9.65956E+00
 -1      2172 9.89154E+00
 -1      2173 9.15371E+00
 -1      2174 2.32740E+00
 -1      2175 8.83548E+00
 -1      2176 1.93426E+00
 -1      2177 3.24587E+01
 -1      2178 2.49267E+01
 -1      2179 6.22349E-04
 -1      2180 3.11389E+01
 -1      2181 1.46581E+01
 -1      2182 2.83177E+01
 -1      2183 2.18990E+01
 -1      2184 1.26777E+01
 -1      2185 9.48829E+00
 -1      2186 1.06165E+01
 -1      2187 7.94212E+00
 -1      2188 2.90593E+01
 -1      2189 1.98376E+01
 -1      2190 1.44022E+01
 -1      2191 3.29551E+01
 -1      2192 3.73134E+01
 -1      2193 3.56834E+01
 -1      2194 2.70494E+01
 -1      2195 1.57065E+01
 -1      2196 9.14362E+00
 -1      2197 8.01038E+00
 -1      2198 9.18325E+00
 -1      2199 1.11162E+01
 -1      2200 9.87302E+00
 -1      2201 9.18191E+00
 -1      2202 8.81867E+00
 -1      2203 8.92817E+00
 -1      2204 1.91015E+00
 -1      2205 1.95056E+00
 -1      2206 1.63751E+00
 -1      2207 1.63751E+00
 -1      2208 1.56388E+00
 -1      2209 1.54638E+00
 -1      2210 1.68013E+00
 -1      2211 1.19282E+00
 -1      2212 1.44075E+00
 -1      2213 1.44119E+00
 -1      2214 1.23089E+00
 -1      2215 1.55863E+00
 -1      2216 1.89190E+00
 -1      2217 1.60724E+00
 -1      2218 1.76276E+00
 -1      2219 2.14490E+00
 -1      2220 2.04339E+00
 -1      2221 2.08030E+00
 -1      2222 2.18382E+00
 -1      2223 2.14490E+00
 -1      2224 2.23179E+00
 -1      2225 2.52908E+00
 -1      2226 2.33247E+00
 -1      2227 2.38044E+00
 -1      2228 1.51172E+00
 -1      2229 1.55544E+00
 -1      2230 2.10570E+00
 -1      2231 1.04470E+00
 -1      2232 8.16250E-01
 -1      2233 7.29391E+00
 -1      2234 6.04867E+00
 -1      2235 7.06050E-01
 -1      2236 5.82379E-01
 -1      2237 8.78486E-01
 -1      2238 6.08052E-01
 -1      2239 7.83230E-01
 -1      2240 7.93960E-01
 -1      2241 8.41697E-01
 -1      2242 1.06170E+00
 -1      2243 8.78100E-01
 -1      2244 1.23593E+00
 -1      2245 1.42578E+00
 -1      2246 1.11080E+00
 -1      2247 1.53778E+00
 -1      2248 1.72278E+00
 -1      2249 1.39705E+00
 -1      2250 1.88410E+00
 -1      2251 1.98789E+00
 -1      2252 1.67037E+00
 -1      2253 2.04463E+00
 -1      2254 1.98568E+00
 -1      2255 1.88844E+00
 -1      2256 1.96384E+00
 -1      2257 2.01879E+00
 -1      2258 1.92335E+00
 -1      2259 1.96758E+00
 -1      2260 1.84970E+00
 -1      2261 1.85031E+00
 -1      2262 1.67982E+00
 -1      2263 1.46460E+00
 -1      2264 1.62921E+00
 -1      2265 1.36633E+00
 -1      2266 1.14746E+00
 -1      2267 1.36106E+00
 -1      2268 1.00824E+00
 -1      2269 7.78840E-01
 -1      2270 1.12358E+00
 -1      2271 7.16181E-01
 -1      2272 6.62653E-01
 -1      2273 9.21708E-01
 -1      2274 5.90455E-01
 -1      2275 6.38382E-01
 -1      2276 7.86850E-01
 -1      2277 6.20923E-01
 -1      2278 6.69671E-01
 -1      2279 6.97193E-01
 -1      2280 6.62919E-01
 -1      2281 6.60708E-01
 -1      2282 6.72982E-01
 -1      2283 6.32872E-01
 -1      2284 6.00621E-01
 -1      2285 6.38393E-01
 -1      2286 5.71225E-01
 -1      2287 5.38790E-01
 -1      2288 5.81160E-01
 -1      2289 5.10244E-01
 -1      2290 4.79965E-01
 -1      2291 5.23217E-01
 -1      2292 4.47086E-01
 -1      2293 4.11981E-01
 -1      2294 4.61792E-01
 -1      2295 3.76086E-01
 -1      2296 3.39047E-01
 -1      2297 3.93018E-01
 -1      2298 3.04142E-01
 -1      2299 2.69143E-01
 -1      2300 3.22219E-01
 -1      2301 2.37567E-01
 -1      2302 2.06759E-01
 -1      2303 2.55739E-01
 -1      2304 1.79618E-01
 -1      2305 1.53862E-01
 -1      2306 1.97023E-01
 -1      2307 1.31438E-01
 -1      2308 1.11703E-01
 -1      2309 1.47459E-01
 -1      2310 9.37745E-02
 -1      2311 8.08105E-02
 -1      2312 1.07106E-01
 -1      2313 6.68868E-02
 -1      2314 5.67128E-02
 -1      2315 7.52539E-02
 -1      2316 4.61928E-02
 -1      2317 3.98061E-02
 -1      2318 5.08103E-02
 -1      2319 3.31772E-02
 -1      2320 3.00484E-02
 -1      2321 3.36615E-02
 -1      2322 2.59714E-02
 -1      2323 2.30071E-02
 -1      2324 2.29556E-02
 -1      2325 2.19934E-02
 -1      2326 1.93201E-02
 -1      2327 1.78650E-02
 -1      2328 1.81646E-02
 -1      2329 1.58397E-02
 -1      2330 1.56957E-02
 -1      2331 1.46686E-02
 -1      2332 1.27167E-02
 -1      2333 1.33691E-02
 -1      2334 1.16084E-02
 -1      2335 1.05557E-02
 -1      2336 1.10898E-02
 -1      2337 9.55355E-03
 -1      2338 8.66049E-03
 -1      2339 8.97932E-03
 -1      2340 8.11824E-03
 -1      2341 7.26992E-03
 -1      2342 7.43492E-03
 -1      2343 6.73924E-03
 -1      2344 6.00191E-03
 -1      2345 6.36200E-03
 -1      2346 5.47734E-03
 -1      2347 4.87271E-03
 -1      2348 5.30674E-03
 -1      2349 4.41174E-03
 -1      2350 3.86946E-03
 -1      2351 4.32120E-03
 -1      2352 3.46645E-03
 -1      2353 3.04385E-03
 -1      2354 3.45722E-03
 -1      2355 2.67974E-03
 -1      2356 2.31510E-03
 -1      2357 2.69009E-03
 -1      2358 2.02211E-03
 -1      2359 1.70764E-03
 -1      2360 2.03298E-03
 -1      2361 1.47324E-03
 -1      2362 1.26145E-03
 -1      2363 1.50559E-03
 -1      2364 1.46876E+00
 -1      2365 1.46262E+00
 -1      2366 1.84354E+00
 -1      2367 1.65330E+00
 -1      2368 2.01821E+00
 -1      2369 2.26665E+00
 -1      2370 1.83946E+00
 -1      2371 2.19867E+00
 -1      2372 2.75217E+00
 -1      2373 2.54544E+00
 -1      2374 2.47338E+00
 -1      2375 3.62819E+00
 -1      2376 3.45916E+00
 -1      2377 3.45916E+00
 -1      2378 4.21874E+00
 -1      2379 4.17177E+00
 -1      2380 4.70973E+00
 -1      2381 3.23628E+00
 -1      2382 3.33804E+00
 -1      2383 4.37261E+00
 -1      2384 2.75047E+00
 -1      2385 3.17646E+00
 -1      2386 3.43210E+00
 -1      2387 2.24274E+00
 -1      2388 2.76993E+00
 -1      2389 3.39175E+00
 -1      2390 1.56389E+00
 -1      2391 1.57034E+00
 -1      2392 2.73880E+00
 -1      2393 1.58611E+00
 -1      2394 1.45178E+00
 -1      2395 1.95428E+00
 -1      2396 1.54539E+00
 -1      2397 1.51891E+00
 -1      2398 1.77497E+00
 -1      2399 1.43688E+00
 -1      2400 1.43966E+00
 -1      2401 1.60204E+00
 -1      2402 1.29344E+00
 -1      2403 1.34980E+00
 -1      2404 1.40922E+00
 -1      2405 1.15945E+00
 -1      2406 1.23074E+00
 -1      2407 1.25944E+00
 -1      2408 9.90342E-01
 -1      2409 1.07413E+00
 -1      2410 1.11143E+00
 -1      2411 8.09286E-01
 -1      2412 8.99055E-01
 -1      2413 9.34829E-01
 -1      2414 6.38852E-01
 -1      2415 7.23043E-01
 -1      2416 7.57299E-01
 -1      2417 4.90115E-01
 -1      2418 5.63135E-01
 -1      2419 5.95339E-01
 -1      2420 3.66638E-01
 -1      2421 4.26786E-01
 -1      2422 4.56293E-01
 -1      2423 2.67744E-01
 -1      2424 3.15481E-01
 -1      2425 3.41807E-01
 -1      2426 1.95345E-01
 -1      2427 2.27518E-01
 -1      2428 2.50423E-01
 -1      2429 1.40975E-01
 -1      2430 1.64416E-01
 -1      2431 1.79267E-01
 -1      2432 9.92970E-02
 -1      2433 1.17670E-01
 -1      2434 1.25034E-01
 -1      2435 6.79518E-02
 -1      2436 8.20791E-02
 -1      2437 8.45114E-02
 -1      2438 4.62298E-02
 -1      2439 5.68978E-02
 -1      2440 5.62396E-02
 -1      2441 3.16730E-02
 -1      2442 3.95835E-02
 -1      2443 3.85393E-02
 -1      2444 2.59183E-02
 -1      2445 2.86857E-02
 -1      2446 2.89057E-02
 -1      2447 2.18753E-02
 -1      2448 2.38968E-02
 -1      2449 2.38968E-02
 -1      2450 1.80364E-02
 -1      2451 1.99558E-02
 -1      2452 1.99558E-02
 -1      2453 1.45611E-02
 -1      2454 1.62987E-02
 -1      2455 1.62987E-02
 -1      2456 1.15214E-02
 -1      2457 1.30413E-02
 -1      2458 1.30413E-02
 -1      2459 9.43384E-03
 -1      2460 1.04776E-02
 -1      2461 1.04776E-02
 -1      2462 8.05039E-03
 -1      2463 8.74212E-03
 -1      2464 8.74212E-03
 -1      2465 6.67935E-03
 -1      2466 7.36487E-03
 -1      2467 7.36487E-03
 -1      2468 5.40741E-03
 -1      2469 6.04092E-03
 -1      2470 6.04092E-03
 -1      2471 4.42104E-03
 -1      2472 4.88638E-03
 -1      2473 4.88147E-03
 -1      2474 3.51558E-03
 -1      2475 3.95244E-03
 -1      2476 3.89184E-03
 -1      2477 2.71472E-03
 -1      2478 3.11178E-03
 -1      2479 3.01945E-03
 -1      2480 2.04961E-03
 -1      2481 2.40255E-03
 -1      2482 2.30348E-03
 -1      2483 1.49951E-03
 -1      2484 1.77428E-03
 -1      2485 1.71597E-03
 -1      2486 1.09611E-03
 -1      2487 1.28827E-03
 -1      2488 1.22940E-03
 -1      2489 1.00008E-03
 -1      2490 7.76718E-04
 -1      2491 7.06577E-04
 -1      2492 8.52393E-04
 -1      2493 8.21439E-04
 -1      2494 9.11109E-04
 -1      2495 6.69976E-04
 -1      2496 8.60996E-04
 -1      2497 6.17483E-04
 -1      2498 5.66128E-04
 -1      2499 7.92047E-04
 -1      2500 7.77293E-04
 -1      2501 8.52393E-04
 -1      2502 8.52393E-04
 -1      2503 9.55830E-04
 -1      2504 8.48496E-04
 -1      2505 8.49868E-04
 -1      2506 9.53306E-04
 -1      2507 8.50052E-04
 -1      2508 8.50052E-04
 -1      2509 9.52337E-04
 -1      2510 8.19493E-04
 -1      2511 8.50052E-04
 -1      2512 9.53893E-04
 -1      2513 7.03359E-04
 -1      2514 7.73702E-04
 -1      2515 9.08102E-04
 -1      2516 5.77380E-04
 -1      2517 6.33853E-04
 -1      2518 7.92805E-04
 -1      2519 7.14004E-04
 -1      2520 5.77380E-04
 -1      2521 7.23300E-04
 -1      2522 1.60456E+01
 -1      2523 2.23734E+01
 -1      2524 7.94867E-04
 -1      2525 3.11389E+01
 -1      2526 2.86149E+01
 -1      2527 1.45760E+00
 -1      2528 1.54804E+00
 -1      2529 1.82865E+00
 -1      2530 3.36629E+01
 -1      2531 3.36629E+01
 -1      2532 2.43309E+01
 -1      2533 2.40337E+01
 -1      2534 2.30549E+00
 -1      2535 1.47195E+00
 -1      2536 1.41593E+00
 -1      2537 1.84318E+00
 -1      2538 9.67855E+00
 -1      2539 1.36194E+01
 -1      2540 1.10661E+01
 -1      2541 9.38523E+00
 -1      2542 8.69837E+00
 -1      2543 2.85967E+01
 -1      2544 3.29551E+01
 -1      2545 1.55735E+00
 -1      2546 1.63751E+00
 -1      2547 1.75375E+00
 -1      2548 1.63715E+00
 -1      2549 7.88651E+00
 -1      2550 7.96747E+00
 -1      2551 8.57490E+00
 -1      2552 8.29405E+00
 -1      2553 7.87259E+00
 -1      2554 6.76160E+00
 -1      2555 5.61373E+00
 -1      2556 6.70429E+00
 -1      2557 9.19297E+00
 -1      2558 6.96917E+00
 -1      2559 1.49115E+01
 -1      2560 1.05725E+01
 -1      2561 2.43793E+01
 -1      2562 1.73754E+01
 -1      2563 3.02703E+01
 -1      2564 2.86402E+01
 -1      2565 3.73134E+01
 -1      2566 3.73134E+01
 -1      2567 2.19575E+01
 -1      2568 2.34321E+01
 -1      2569 7.56460E+00
 -1      2570 1.08648E+01
 -1      2571 7.52905E+00
 -1      2572 6.87924E+00
 -1      2573 6.35645E+00
 -1      2574 6.59089E+00
 -1      2575 5.97893E+00
 -1      2576 9.02661E+00
 -1      2577 9.32918E+00
 -1      2578 7.25154E+00
 -1      2579 8.46146E+00
 -1      2580 5.85241E+00
 -1      2581 1.27683E+01
 -1      2582 9.66855E+00
 -1      2583 2.03242E+01
 -1      2584 1.42026E+01
 -1      2585 1.63374E+01
 -1      2586 2.72426E+01
 -1      2587 2.84468E+01
 -1      2588 2.84468E+01
 -1      2589 1.98490E+00
 -1      2590 2.13685E+00
 -1      2591 2.40734E+00
 -1      2592 2.49474E+00
 -1      2593 6.99745E+00
 -1      2594 8.56092E+00
 -1      2595 5.45588E+00
 -1      2596 7.44452E+00
 -1      2597 8.73992E+00
 -1      2598 8.66030E+00
 -1      2599 1.61048E+00
 -1      2600 1.55036E+00
 -1      2601 1.72882E+00
 -1      2602 1.78731E+00
 -1      2603 2.52908E+00
 -1      2604 7.52228E+00
 -1      2605 5.80644E+00
 -1      2606 4.45521E+00
 -1      2607 4.86036E+00
 -1      2608 2.43309E+01
 -1      2609 7.61962E+00
 -1      2610 9.22128E-04
 -1      2611 9.22128E-04
 -1      2612 7.41104E+00
 -1      2613 1.83616E+01
 -1      2614 6.64130E+00
 -1      2615 8.34323E-04
 -1      2616 7.44164E-04
 -1      2617 7.53460E-04
 -1      2618 1.01767E-03
 -1      2619 1.61474E+01
 -1      2620 3.11389E+01
 -1      2621 2.52908E+00
 -1      2622 3.29551E+01
 -1      2623 3.02703E+01
 -1      2624 2.34321E+01
 -1      2625 1.89662E+01
 -1      2626 1.22414E+01
 -1      2627 8.39801E+00
 -1      2628 5.66308E+00
 -1      2629 1.12023E+01
 -1      2630 1.08276E+01
 -1      2631 7.29018E+00
 -1      2632 1.84318E+00
 -1      2633 5.50725E+00
 -1      2634 9.15694E+00
 -1      2635 7.08944E+00
 -1      2636 8.38756E+00
 -1      2637 5.48986E+00
 -1      2638 6.78985E+00
 -1      2639 1.11935E+01
 -1      2640 9.57027E-04
 -1      2641 1.02740E-03
 -1      2642 2.25245E+00
 -1      2643 2.08640E+00
 -1      2644 1.85502E+00
 -1      2645 1.81694E+00
 -1      2646 2.34471E+00
 -1      2647 2.58653E+00
 -1      2648 2.58653E+00
 -1      2649 2.65270E+00
 -1      2650 2.50406E+00
 -1      2651 2.85880E+00
 -1      2652 2.10570E+00
 -1      2653 2.46040E+00
 -1      2654 2.14463E+01
 -1      2655 2.58047E+01
 -1      2656 4.01894E+00
 -1      2657 4.96771E+00
 -1      2658 1.50659E+01
 -1      2659 1.13563E+01
 -1      2660 2.06935E+00
 -1      2661 2.03303E+00
 -1      2662 2.38774E+00
 -1      2663 4.21958E+00
 -1      2664 4.59188E+00
 -1      2665 9.43282E-01
 -1      2666 9.68956E-01
 -1      2667 1.10395E+00
 -1      2668 1.16241E+00
 -1      2669 1.25327E+00
 -1      2670 1.19124E+00
 -1      2671 1.36548E+00
 -1      2672 1.41708E+00
 -1      2673 1.54950E+00
 -1      2674 1.66151E+00
 -1      2675 1.62994E+00
 -1      2676 2.07103E+00
 -1      2677 2.23235E+00
 -1      2678 2.22349E+00
 -1      2679 2.86718E+00
 -1      2680 2.92392E+00
 -1      2681 3.26783E+00
 -1      2682 2.34033E+00
 -1      2683 2.31849E+00
 -1      2684 3.31906E+00
 -1      2685 2.21996E+00
 -1      2686 2.16875E+00
 -1      2687 2.63694E+00
 -1      2688 1.79910E+00
 -1      2689 1.62921E+00
 -1      2690 2.16875E+00
 -1      2691 1.52957E+00
 -1      2692 1.43130E+00
 -1      2693 1.69946E+00
 -1      2694 1.34520E+00
 -1      2695 1.20598E+00
 -1      2696 1.51370E+00
 -1      2697 1.17530E+00
 -1      2698 1.11265E+00
 -1      2699 1.39692E+00
 -1      2700 9.69488E-01
 -1      2701 8.97289E-01
 -1      2702 1.22308E+00
 -1      2703 8.02273E-01
 -1      2704 7.84815E-01
 -1      2705 9.84911E-01
 -1      2706 7.36656E-01
 -1      2707 7.29904E-01
 -1      2708 8.41737E-01
 -1      2709 6.71405E-01
 -1      2710 6.43569E-01
 -1      2711 7.35080E-01
 -1      2712 6.10556E-01
 -1      2713 5.81160E-01
 -1      2714 6.43569E-01
 -1      2715 5.46358E-01
 -1      2716 5.17812E-01
 -1      2717 5.75755E-01
 -1      2718 4.77189E-01
 -1      2719 4.44310E-01
 -1      2720 5.00330E-01
 -1      2721 4.02738E-01
 -1      2722 3.66843E-01
 -1      2723 4.18135E-01
 -1      2724 3.28053E-01
 -1      2725 2.93149E-01
 -1      2726 3.37773E-01
 -1      2727 2.59037E-01
 -1      2728 2.27461E-01
 -1      2729 2.64871E-01
 -1      2730 1.99463E-01
 -1      2731 1.72323E-01
 -1      2732 2.02761E-01
 -1      2733 1.50686E-01
 -1      2734 1.28262E-01
 -1      2735 1.53125E-01
 -1      2736 1.10934E-01
 -1      2737 9.30051E-02
 -1      2738 1.14160E-01
 -1      2739 7.93478E-02
 -1      2740 6.54242E-02
 -1      2741 8.31754E-02
 -1      2742 5.48898E-02
 -1      2743 4.43698E-02
 -1      2744 5.89837E-02
 -1      2745 3.64178E-02
 -1      2746 2.97890E-02
 -1      2747 4.04973E-02
 -1      2748 2.39207E-02
 -1      2749 1.98437E-02
 -1      2750 2.66770E-02
 -1      2751 1.58972E-02
 -1      2752 1.48835E-02
 -1      2753 1.68622E-02
 -1      2754 1.31957E-02
 -1      2755 1.20402E-02
 -1      2756 1.12279E-02
 -1      2757 1.18853E-02
 -1      2758 1.07142E-02
 -1      2759 9.38526E-03
 -1      2760 1.03197E-02
 -1      2761 9.21137E-03
 -1      2762 8.83582E-03
 -1      2763 8.69343E-03
 -1      2764 7.69127E-03
 -1      2765 7.92332E-03
 -1      2766 7.12875E-03
 -1      2767 6.58650E-03
 -1      2768 6.84285E-03
 -1      2769 6.05152E-03
 -1      2770 5.52084E-03
 -1      2771 5.74535E-03
 -1      2772 5.15716E-03
 -1      2773 4.63258E-03
 -1      2774 4.84668E-03
 -1      2775 4.25111E-03
 -1      2776 3.79015E-03
 -1      2777 4.10153E-03
 -1      2778 3.41971E-03
 -1      2779 3.01669E-03
 -1      2780 3.34962E-03
 -1      2781 2.67455E-03
 -1      2782 2.31043E-03
 -1      2783 2.63704E-03
 -1      2784 2.03336E-03
 -1      2785 1.74036E-03
 -1      2786 2.01782E-03
 -1      2787 1.50559E-03
 -1      2788 1.27119E-03
 -1      2789 1.50596E-03
 -1      2790 2.68823E+00
 -1      2791 2.69231E+00
 -1      2792 1.24551E+01
 -1      2793 1.45751E+01
 -1      2794 2.75664E+00
 -1      2795 2.57210E+00
 -1      2796 3.24621E+00
 -1      2797 4.16615E+00
 -1      2798 3.45916E+00
 -1      2799 5.58170E+00
 -1      2800 6.46240E+00
 -1      2801 3.72274E+00
 -1      2802 3.78255E+00
 -1      2803 3.47099E+00
 -1      2804 3.45153E+00
 -1      2805 2.94276E+00
 -1      2806 3.61517E+00
 -1      2807 2.41865E+00
 -1      2808 2.53076E+00
 -1      2809 3.40713E+00
 -1      2810 2.04988E+00
 -1      2811 2.11708E+00
 -1      2812 2.69356E+00
 -1      2813 1.68182E+00
 -1      2814 1.78756E+00
 -1      2815 2.12967E+00
 -1      2816 1.45448E+00
 -1      2817 1.54156E+00
 -1      2818 1.72708E+00
 -1      2819 1.27229E+00
 -1      2820 1.33499E+00
 -1      2821 1.46733E+00
 -1      2822 1.06893E+00
 -1      2823 1.15424E+00
 -1      2824 1.22979E+00
 -1      2825 8.70547E-01
 -1      2826 9.61834E-01
 -1      2827 1.00464E+00
 -1      2828 6.91496E-01
 -1      2829 7.77739E-01
 -1      2830 8.04743E-01
 -1      2831 5.37652E-01
 -1      2832 6.13369E-01
 -1      2833 6.33809E-01
 -1      2834 4.09991E-01
 -1      2835 4.73320E-01
 -1      2836 4.91350E-01
 -1      2837 3.06835E-01
 -1      2838 3.57992E-01
 -1      2839 3.75020E-01
 -1      2840 2.25276E-01
 -1      2841 2.65503E-01
 -1      2842 2.81689E-01
 -1      2843 1.62005E-01
 -1      2844 1.92934E-01
 -1      2845 2.08014E-01
 -1      2846 1.13778E-01
 -1      2847 1.37082E-01
 -1      2848 1.50749E-01
 -1      2849 7.76499E-02
 -1      2850 9.48677E-02
 -1      2851 1.06916E-01
 -1      2852 5.24782E-02
 -1      2853 6.35322E-02
 -1      2854 7.38885E-02
 -1      2855 3.54756E-02
 -1      2856 4.21219E-02
 -1      2857 4.94145E-02
 -1      2858 2.50401E-02
 -1      2859 2.80275E-02
 -1      2860 3.16101E-02
 -1      2861 1.88565E-02
 -1      2862 2.08780E-02
 -1      2863 1.99998E-02
 -1      2864 1.56676E-02
 -1      2865 1.75871E-02
 -1      2866 1.45683E-02
 -1      2867 1.32549E-02
 -1      2868 1.49925E-02
 -1      2869 1.26238E-02
 -1      2870 1.09382E-02
 -1      2871 1.24580E-02
 -1      2872 1.11519E-02
 -1      2873 9.07322E-03
 -1      2874 1.01170E-02
 -1      2875 9.53379E-03
 -1      2876 7.59566E-03
 -1      2877 8.28739E-03
 -1      2878 7.92677E-03
 -1      2879 6.32170E-03
 -1      2880 7.00722E-03
 -1      2881 6.55249E-03
 -1      2882 5.22187E-03
 -1      2883 5.86030E-03
 -1      2884 5.50265E-03
 -1      2885 4.26052E-03
 -1      2886 4.78156E-03
 -1      2887 4.60093E-03
 -1      2888 3.37607E-03
 -1      2889 3.84466E-03
 -1      2890 3.74475E-03
 -1      2891 2.62377E-03
 -1      2892 3.02756E-03
 -1      2893 2.98039E-03
 -1      2894 1.99586E-03
 -1      2895 2.30804E-03
 -1      2896 2.31615E-03
 -1      2897 1.45323E-03
 -1      2898 1.72856E-03
 -1      2899 1.73312E-03
 -1      2900 1.11024E-03
 -1      2901 1.32148E-03
 -1      2902 1.33407E-03
 -1      2903 1.04911E-03
 -1      2904 1.06350E-03
 -1      2905 1.06602E-03
 -1      2906 1.04805E-03
 -1      2907 8.04264E-04
 -1      2908 1.04805E-03
 -1      2909 1.06328E-03
 -1      2910 1.01856E-03
 -1      2911 1.06337E-03
 -1      2912 1.06181E-03
 -1      2913 1.17453E-03
 -1      2914 1.06602E-03
 -1      2915 1.06602E-03
 -1      2916 1.17347E-03
 -1      2917 1.17622E-03
 -1      2918 2.56618E+00
 -1      2919 2.56116E+00
 -1      2920 2.80688E+00
 -1      2921 3.30461E+00
 -1      2922 1.06337E-03
 -1      2923 1.06337E-03
 -1      2924 1.17284E-03
 -1      2925 1.01051E-03
 -1      2926 1.05630E-03
 -1      2927 1.16577E-03
 -1      2928 8.60368E-04
 -1      2929 9.29873E-04
 -1      2930 1.07807E-03
 -1      2931 6.21710E+00
 -1      2932 7.33473E+00
 -1      2933 1.92831E+01
 -1      2934 2.44992E+01
 -1      2935 1.82702E+00
 -1      2936 1.39977E+00
 -1      2937 1.26134E+01
 -1      2938 1.74826E+01
 -1      2939 2.65254E+01
 -1      2940 1.94822E+01
 -1      2941 7.74104E-04
 -1      2942 7.98857E+00
 -1      2943 5.84906E+00
 -1      2944 2.81973E+00
 -1      2945 2.54094E+00
 -1      2946 3.52672E+00
 -1      2947 1.56485E+00
 -1      2948 1.45465E+00
 -1      2949 1.62965E+00
 -1      2950 1.97593E+00
 -1      2951 8.19178E+00
 -1      2952 1.06180E+01
 -1      2953 5.29029E+00
 -1      2954 4.29015E+00
 -1      2955 2.76873E+00
 -1      2956 2.61724E+00
 -1      2957 2.94089E+00
 -1      2958 3.12347E+00
 -1      2959 2.21589E+01
 -1      2960 1.78749E+01
 -1      2961 1.86337E+00
 -1      2962 1.78975E+00
 -1      2963 4.23690E+00
 -1      2964 5.41911E+00
 -1      2965 5.80702E+00
 -1      2966 4.45158E+00
 -1      2967 7.59184E+00
 -1      2968 6.21235E+00
 -1      2969 1.20129E+01
 -1      2970 9.54902E+00
 -1      2971 7.36336E+00
 -1      2972 1.67772E+01
 -1      2973 2.19419E+01
 -1      2974 1.81014E+01
 -1      2975 1.38405E+01
 -1      2976 1.82702E+00
 -1      2977 2.33910E+01
 -1      2978 2.08670E+01
 -1      2979 6.44583E+00
 -1      2980 6.50187E+00
 -1      2981 5.37812E+00
 -1      2982 5.94327E+00
 -1      2983 5.03410E+00
 -1      2984 5.42774E+00
 -1      2985 6.40145E+00
 -1      2986 1.01248E+01
 -1      2987 8.69043E+00
 -1      2988 2.49474E+00
 -1      2989 5.94042E+00
 -1      2990 5.11463E+00
 -1      2991 1.87376E+00
 -1      2992 1.87773E+00
 -1      2993 2.05700E+00
 -1      2994 8.85328E+00
 -1      2995 2.16026E+00
 -1      2996 1.86387E+00
 -1      2997 1.98047E+00
 -1      2998 3.74529E+00
 -1      2999 1.50166E+01
 -1      3000 4.78016E+00
 -1      3001 6.73899E+00
 -1      3002 4.54122E+00
 -1      3003 3.28069E+00
 -1      3004 4.91017E+00
 -1      3005 4.85909E+00
 -1      3006 3.90393E+00
 -1      3007 4.15820E+00
 -1      3008 7.94423E+00
 -1      3009 1.28938E+01
 -1      3010 1.43565E+01
 -1      3011 1.11481E+01
 -1      3012 1.09367E-03
 -1      3013 9.41503E-04
 -1      3014 8.52409E-04
 -1      3015 3.03459E+00
 -1      3016 1.30849E+01
 -1      3017 1.47915E+01
 -1      3018 3.67495E+00
 -1      3019 5.00084E+00
 -1      3020 7.97880E-04
 -1      3021 9.01727E-04
 -1      3022 1.05494E-03
 -1      3023 9.62090E-04
 -1      3024 1.44109E+01
 -1      3025 1.35350E+01
 -1      3026 6.88660E+00
 -1      3027 7.74104E-04
 -1      3028 9.73906E+00
 -1      3029 1.42273E+01
 -1      3030 9.25526E+00
 -1      3031 6.91988E+00
 -1      3032 9.18060E-04
 -1      3033 8.67256E-04
 -1      3034 1.00432E-03
 -1      3035 1.14120E-03
 -1      3036 1.98047E+00
 -1      3037 1.98047E+00
 -1      3038 2.09009E+00
 -1      3039 2.20719E+00
 -1      3040 1.71265E+00
 -1      3041 3.80198E+00
 -1      3042 6.19156E+00
 -1      3043 4.97520E+00
 -1      3044 4.07307E+00
 -1      3045 4.49559E+00
 -1      3046 3.52306E+00
 -1      3047 2.49474E+00
 -1      3048 2.61836E+00
 -1      3049 2.84299E+00
 -1      3050 3.00095E+00
 -1      3051 2.77033E+00
 -1      3052 3.08343E+00
 -1      3053 1.25952E+01
 -1      3054 1.33159E+01
 -1      3055 1.97593E+00
 -1      3056 1.74889E+00
 -1      3057 1.77772E+00
 -1      3058 1.62994E+00
 -1      3059 1.81396E+00
 -1      3060 1.96174E+00
 -1      3061 2.47744E+00
 -1      3062 2.88696E+00
 -1      3063 2.47744E+00
 -1      3064 3.26783E+00
 -1      3065 3.90266E+00
 -1      3066 3.63350E+00
 -1      3067 3.53497E+00
 -1      3068 2.74873E+00
 -1      3069 2.37908E+00
 -1      3070 3.74529E+00
 -1      3071 2.15387E+00
 -1      3072 2.05423E+00
 -1      3073 2.73385E+00
 -1      3074 2.15938E+00
 -1      3075 2.07328E+00
 -1      3076 2.61380E+00
 -1      3077 1.78174E+00
 -1      3078 1.75106E+00
 -1      3079 2.42742E+00
 -1      3080 1.47100E+00
 -1      3081 1.32784E+00
 -1      3082 1.85582E+00
 -1      3083 1.22879E+00
 -1      3084 1.13377E+00
 -1      3085 1.47670E+00
 -1      3086 1.00970E+00
 -1      3087 9.61540E-01
 -1      3088 1.25358E+00
 -1      3089 8.43861E-01
 -1      3090 7.85363E-01
 -1      3091 1.01182E+00
 -1      3092 7.16802E-01
 -1      3093 6.83789E-01
 -1      3094 8.25584E-01
 -1      3095 6.20124E-01
 -1      3096 5.85323E-01
 -1      3097 6.93357E-01
 -1      3098 5.29273E-01
 -1      3099 4.88650E-01
 -1      3100 5.73643E-01
 -1      3101 4.37867E-01
 -1      3102 3.96295E-01
 -1      3103 4.66810E-01
 -1      3104 3.51917E-01
 -1      3105 3.13127E-01
 -1      3106 3.71650E-01
 -1      3107 2.75780E-01
 -1      3108 2.41668E-01
 -1      3109 2.89924E-01
 -1      3110 2.11245E-01
 -1      3111 1.83246E-01
 -1      3112 2.22153E-01
 -1      3113 1.59764E-01
 -1      3114 1.38127E-01
 -1      3115 1.68248E-01
 -1      3116 1.19606E-01
 -1      3117 1.02278E-01
 -1      3118 1.26245E-01
 -1      3119 8.75990E-02
 -1      3120 7.39417E-02
 -1      3121 9.30442E-02
 -1      3122 6.26966E-02
 -1      3123 5.21622E-02
 -1      3124 6.71202E-02
 -1      3125 4.36195E-02
 -1      3126 3.56675E-02
 -1      3127 4.73324E-02
 -1      3128 2.92870E-02
 -1      3129 2.34187E-02
 -1      3130 3.24092E-02
 -1      3131 1.87437E-02
 -1      3132 1.47971E-02
 -1      3133 2.13537E-02
 -1      3134 1.14469E-02
 -1      3135 9.75911E-03
 -1      3136 1.33283E-02
 -1      3137 7.64800E-03
 -1      3138 7.49312E-03
 -1      3139 7.86697E-03
 -1      3140 7.30617E-03
 -1      3141 6.91162E-03
 -1      3142 5.56892E-03
 -1      3143 6.94853E-03
 -1      3144 6.43058E-03
 -1      3145 5.41888E-03
 -1      3146 6.27015E-03
 -1      3147 5.70762E-03
 -1      3148 5.29535E-03
 -1      3149 5.43552E-03
 -1      3150 4.90054E-03
 -1      3151 4.86282E-03
 -1      3152 4.57596E-03
 -1      3153 4.21228E-03
 -1      3154 4.26614E-03
 -1      3155 3.97304E-03
 -1      3156 3.59157E-03
 -1      3157 3.70232E-03
 -1      3158 3.34146E-03
 -1      3159 2.97103E-03
 -1      3160 3.21297E-03
 -1      3161 2.70776E-03
 -1      3162 2.36562E-03
 -1      3163 2.69961E-03
 -1      3164 2.10971E-03
 -1      3165 1.83264E-03
 -1      3166 2.18044E-03
 -1      3167 1.58035E-03
 -1      3168 1.34558E-03
 -1      3169 1.21559E-03
 -1      3170 1.67225E-03
 -1      3171 1.28657E-03
 -1      3172 1.28657E-03
 -1      3173 5.25331E+00
 -1      3174 4.70973E+00
 -1      3175 5.87234E+00
 -1      3176 4.23733E+00
 -1      3177 4.64933E+00
 -1      3178 1.86555E+00
 -1      3179 2.00581E+00
 -1      3180 1.48264E+00
 -1      3181 1.60213E+00
 -1      3182 1.88086E+00
 -1      3183 1.17198E+00
 -1      3184 1.29004E+00
 -1      3185 1.42484E+00
 -1      3186 9.29601E-01
 -1      3187 1.03669E+00
 -1      3188 1.09694E+00
 -1      3189 7.38791E-01
 -1      3190 8.31600E-01
 -1      3191 8.63649E-01
 -1      3192 5.75400E-01
 -1      3193 6.53526E-01
 -1      3194 6.80382E-01
 -1      3195 4.39892E-01
 -1      3196 5.04224E-01
 -1      3197 5.23941E-01
 -1      3198 3.30417E-01
 -1      3199 3.82415E-01
 -1      3200 3.95288E-01
 -1      3201 2.43783E-01
 -1      3202 2.85115E-01
 -1      3203 2.92511E-01
 -1      3204 1.77401E-01
 -1      3205 2.09743E-01
 -1      3206 2.13170E-01
 -1      3207 1.28852E-01
 -1      3208 1.53774E-01
 -1      3209 1.55504E-01
 -1      3210 9.16900E-02
 -1      3211 1.10600E-01
 -1      3212 1.13625E-01
 -1      3213 6.36433E-02
 -1      3214 7.77610E-02
 -1      3215 8.14448E-02
 -1      3216 4.28054E-02
 -1      3217 5.31617E-02
 -1      3218 5.70342E-02
 -1      3219 2.75957E-02
 -1      3220 3.50438E-02
 -1      3221 3.87910E-02
 -1      3222 1.77911E-02
 -1      3223 2.19532E-02
 -1      3224 2.53870E-02
 -1      3225 1.25078E-02
 -1      3226 1.37772E-02
 -1      3227 1.57306E-02
 -1      3228 9.68534E-03
 -1      3229 1.03604E-02
 -1      3230 9.56934E-03
 -1      3231 8.90827E-03
 -1      3232 9.70515E-03
 -1      3233 7.44175E-03
 -1      3234 7.92161E-03
 -1      3235 8.74279E-03
 -1      3236 7.29608E-03
 -1      3237 6.79721E-03
 -1      3238 7.58304E-03
 -1      3239 6.79204E-03
 -1      3240 5.78566E-03
 -1      3241 6.37410E-03
 -1      3242 6.03037E-03
 -1      3243 4.87491E-03
 -1      3244 5.33631E-03
 -1      3245 5.15791E-03
 -1      3246 4.11681E-03
 -1      3247 4.55713E-03
 -1      3248 4.39079E-03
 -1      3249 3.37856E-03
 -1      3250 3.79442E-03
 -1      3251 3.75062E-03
 -1      3252 2.70572E-03
 -1      3253 3.05423E-03
 -1      3254 3.10390E-03
 -1      3255 2.08417E-03
 -1      3256 2.39990E-03
 -1      3257 2.47374E-03
 -1      3258 1.53812E-03
 -1      3259 1.80542E-03
 -1      3260 1.88917E-03
 -1      3261 1.20262E-03
 -1      3262 1.33438E-03
 -1      3263 1.40667E-03
 -1      3264 1.05525E-03
 -1      3265 3.00802E+00
 -1      3266 2.77664E+00
 -1      3267 1.25029E-03
 -1      3268 1.25198E-03
 -1      3269 1.36402E-03
 -1      3270 3.59747E+00
 -1      3271 5.11505E+00
 -1      3272 6.00377E+00
 -1      3273 1.03358E+01
 -1      3274 1.21363E+01
 -1      3275 1.27951E-03
 -1      3276 1.28657E-03
 -1      3277 1.40031E-03
 -1      3278 2.33302E+00
 -1      3279 2.59534E+00
 -1      3280 2.47149E+00
 -1      3281 2.98247E+00
 -1      3282 3.28404E+00
 -1      3283 3.18583E+00
 -1      3284 1.24330E+01
 -1      3285 1.13248E+01
 -1      3286 9.23385E+00
 -1      3287 5.75454E+00
 -1      3288 6.61159E+00
 -1      3289 1.03370E+01
 -1      3290 8.50945E+00
 -1      3291 4.77484E+00
 -1      3292 4.83916E+00
 -1      3293 1.42400E+00
 -1      3294 1.55899E+00
 -1      3295 1.91962E+00
 -1      3296 7.30434E+00
 -1      3297 9.29974E+00
 -1      3298 7.90109E+00
 -1      3299 6.17228E+00
 -1      3300 2.95905E+00
 -1      3301 3.74529E+00
 -1      3302 1.17721E-03
 -1      3303 1.25784E-03
 -1      3304 1.37864E-03
 -1      3305 1.04194E+01
 -1      3306 1.26216E+01
 -1      3307 1.23427E+01
 -1      3308 9.53370E+00
 -1      3309 1.29319E+01
 -1      3310 1.15511E+01
 -1      3311 8.43100E+00
 -1      3312 7.19945E+00
 -1      3313 6.56102E+00
 -1      3314 5.85915E+00
 -1      3315 7.84416E+00
 -1      3316 5.88698E+00
 -1      3317 1.30908E+01
 -1      3318 1.25952E+01
 -1      3319 1.08945E+01
 -1      3320 1.13632E+01
 -1      3321 1.26551E+01
 -1      3322 6.97395E+00
 -1      3323 8.60150E+00
 -1      3324 5.35001E+00
 -1      3325 4.53154E+00
 -1      3326 5.03410E+00
 -1      3327 2.77664E+00
 -1      3328 2.82357E+00
 -1      3329 3.43994E+00
 -1      3330 9.29494E+00
 -1      3331 2.14101E+00
 -1      3332 4.55131E+00
 -1      3333 3.92274E+00
 -1      3334 3.78058E+00
 -1      3335 2.14101E+00
 -1      3336 1.62965E+00
 -1      3337 1.93537E+00
 -1      3338 1.19448E-03
 -1      3339 1.11743E-03
 -1      3340 3.52179E+00
 -1      3341 3.90266E+00
 -1      3342 3.31906E+00
 -1      3343 3.74140E+00
 -1      3344 4.70973E+00
 -1      3345 8.42582E+00
 -1      3346 1.10913E+01
 -1      3347 8.89503E+00
 -1      3348 4.52624E+00
 -1      3349 3.59799E+00
 -1      3350 4.02992E+00
 -1      3351 3.96279E+00
 -1      3352 1.29753E-03
 -1      3353 1.29478E-03
 -1      3354 1.31854E-03
 -1      3355 2.77604E+00
 -1      3356 2.65894E+00
 -1      3357 3.52306E+00
 -1      3358 5.12771E+00
 -1      3359 5.12179E+00
 -1      3360 6.65634E+00
 -1      3361 2.73385E+00
 -1      3362 1.29753E-03
 -1      3363 1.29753E-03
 -1      3364 1.41884E-03
 -1      3365 1.37329E-03
 -1      3366 4.91901E+00
 -1      3367 4.18380E+00
 -1      3368 3.56434E+00
 -1      3369 3.96279E+00
 -1      3370 4.21710E+00
 -1      3371 4.71966E+00
 -1      3372 4.92434E+00
 -1      3373 7.03308E+00
 -1      3374 3.05549E+00
 -1      3375 6.13873E+00
 -1      3376 9.56893E+00
 -1      3377 7.87987E+00
 -1      3378 1.05105E+01
 -1      3379 8.13814E+00
 -1      3380 3.88870E+00
 -1      3381 8.53571E+00
 -1      3382 9.96031E+00
 -1      3383 7.32163E+00
 -1      3384 4.29403E+00
 -1      3385 3.06787E+00
 -1      3386 2.38192E+00
 -1      3387 2.46593E+00
 -1      3388 4.15820E+00
 -1      3389 1.15683E-03
 -1      3390 1.14994E-03
 -1      3391 1.32971E-03
 -1      3392 1.36121E-03
 -1      3393 2.87918E+00
 -1      3394 3.33443E+00
 -1      3395 4.03159E+00
 -1      3396 3.37098E+00
 -1      3397 3.90266E+00
 -1      3398 2.15984E+00
 -1      3399 2.01206E+00
 -1      3400 2.90086E+00
 -1      3401 3.56434E+00
 -1      3402 3.16065E+00
 -1      3403 3.17138E+00
 -1      3404 2.87984E+00
 -1      3405 2.54486E+00
 -1      3406 2.26479E+00
 -1      3407 3.28882E+00
 -1      3408 1.89462E+00
 -1      3409 1.79557E+00
 -1      3410 2.58366E+00
 -1      3411 1.58315E+00
 -1      3412 1.45907E+00
 -1      3413 2.00107E+00
 -1      3414 1.28360E+00
 -1      3415 1.16592E+00
 -1      3416 1.61317E+00
 -1      3417 9.94398E-01
 -1      3418 9.25837E-01
 -1      3419 1.26618E+00
 -1      3420 7.83918E-01
 -1      3421 7.20253E-01
 -1      3422 9.52733E-01
 -1      3423 6.19399E-01
 -1      3424 5.63349E-01
 -1      3425 7.09960E-01
 -1      3426 4.93933E-01
 -1      3427 4.43150E-01
 -1      3428 5.39689E-01
 -1      3429 4.03386E-01
 -1      3430 3.59008E-01
 -1      3431 4.30508E-01
 -1      3432 3.21416E-01
 -1      3433 2.84068E-01
 -1      3434 3.53152E-01
 -1      3435 2.50599E-01
 -1      3436 2.20176E-01
 -1      3437 2.82091E-01
 -1      3438 1.91568E-01
 -1      3439 1.68086E-01
 -1      3440 2.20014E-01
 -1      3441 1.44386E-01
 -1      3442 1.25864E-01
 -1      3443 1.67706E-01
 -1      3444 1.06737E-01
 -1      3445 9.20582E-02
 -1      3446 1.24878E-01
 -1      3447 7.69815E-02
 -1      3448 6.57364E-02
 -1      3449 9.06744E-02
 -1      3450 5.41571E-02
 -1      3451 4.56144E-02
 -1      3452 6.40184E-02
 -1      3453 3.73787E-02
 -1      3454 3.09983E-02
 -1      3455 4.42035E-02
 -1      3456 2.48450E-02
 -1      3457 2.01699E-02
 -1      3458 2.98146E-02
 -1      3459 1.56781E-02
 -1      3460 1.23278E-02
 -1      3461 1.91694E-02
 -1      3462 9.13434E-03
 -1      3463 7.02323E-03
 -1      3464 1.14841E-02
 -1      3465 4.85309E-03
 -1      3466 4.66614E-03
 -1      3467 6.12046E-03
 -1      3468 4.39028E-03
 -1      3469 4.42719E-03
 -1      3470 3.67445E-03
 -1      3471 4.73107E-03
 -1      3472 4.57063E-03
 -1      3473 3.70247E-03
 -1      3474 4.61779E-03
 -1      3475 4.34569E-03
 -1      3476 4.05351E-03
 -1      3477 4.23231E-03
 -1      3478 3.90773E-03
 -1      3479 3.98729E-03
 -1      3480 3.70232E-03
 -1      3481 3.46308E-03
 -1      3482 3.66849E-03
 -1      3483 3.24240E-03
 -1      3484 2.99230E-03
 -1      3485 3.24240E-03
 -1      3486 2.79588E-03
 -1      3487 2.53261E-03
 -1      3488 2.82530E-03
 -1      3489 2.31156E-03
 -1      3490 2.05566E-03
 -1      3491 2.40783E-03
 -1      3492 6.46240E+00
 -1      3493 1.39870E+00
 -1      3494 1.59130E+00
 -1      3495 1.85458E+00
 -1      3496 2.11800E+00
 -1      3497 1.82844E+00
 -1      3498 8.60060E-01
 -1      3499 9.58061E-01
 -1      3500 6.65088E-01
 -1      3501 7.50353E-01
 -1      3502 8.44766E-01
 -1      3503 5.07088E-01
 -1      3504 5.78264E-01
 -1      3505 6.48235E-01
 -1      3506 3.81283E-01
 -1      3507 4.38760E-01
 -1      3508 4.93083E-01
 -1      3509 2.82494E-01
 -1      3510 3.27796E-01
 -1      3511 3.71267E-01
 -1      3512 2.06877E-01
 -1      3513 2.40916E-01
 -1      3514 2.76201E-01
 -1      3515 1.51207E-01
 -1      3516 1.74834E-01
 -1      3517 2.02581E-01
 -1      3518 1.08516E-01
 -1      3519 1.26768E-01
 -1      3520 1.46098E-01
 -1      3521 7.61690E-02
 -1      3522 9.00980E-02
 -1      3523 1.03240E-01
 -1      3524 5.26880E-02
 -1      3525 6.31696E-02
 -1      3526 7.18228E-02
 -1      3527 3.53252E-02
 -1      3528 4.30868E-02
 -1      3529 4.92222E-02
 -1      3530 2.26738E-02
 -1      3531 2.83162E-02
 -1      3532 3.26121E-02
 -1      3533 1.37140E-02
 -1      3534 1.77279E-02
 -1      3535 2.06572E-02
 -1      3536 8.11707E-03
 -1      3537 1.02645E-02
 -1      3538 1.22618E-02
 -1      3539 6.00294E-03
 -1      3540 5.98313E-03
 -1      3541 6.67826E-03
 -1      3542 5.78449E-03
 -1      3543 5.94997E-03
 -1      3544 4.49134E-03
 -1      3545 5.64423E-03
 -1      3546 5.98279E-03
 -1      3547 4.63668E-03
 -1      3548 5.17566E-03
 -1      3549 5.59877E-03
 -1      3550 4.78952E-03
 -1      3551 4.53533E-03
 -1      3552 4.98468E-03
 -1      3553 4.55307E-03
 -1      3554 3.94913E-03
 -1      3555 4.26691E-03
 -1      3556 4.09368E-03
 -1      3557 3.36230E-03
 -1      3558 3.68470E-03
 -1      3559 3.56082E-03
 -1      3560 2.81400E-03
 -1      3561 3.13833E-03
 -1      3562 3.07241E-03
 -1      3563 2.26269E-03
 -1      3564 2.56851E-03
 -1      3565 2.60294E-03
 -1      3566 1.81736E-03
 -1      3567 2.09611E-03
 -1      3568 2.19087E-03
 -1      3569 1.48537E-03
 -1      3570 1.44908E-03
 -1      3571 2.65115E+00
 -1      3572 3.22000E+00
 -1      3573 2.65115E+00
 -1      3574 3.14092E+00
 -1      3575 1.19821E-03
 -1      3576 1.14368E-03
 -1      3577 1.29136E-03
 -1      3578 1.29901E-03
 -1      3579 4.54782E+00
 -1      3580 5.51800E+00
 -1      3581 5.21899E+00
 -1      3582 1.48537E-03
 -1      3583 1.48537E-03
 -1      3584 1.57042E-03
 -1      3585 3.31728E+00
 -1      3586 3.64449E+00
 -1      3587 3.29100E+00
 -1      3588 4.25314E+00
 -1      3589 4.64027E+00
 -1      3590 5.09893E+00
 -1      3591 7.69312E+00
 -1      3592 7.98982E+00
 -1      3593 1.09492E+00
 -1      3594 1.23021E+00
 -1      3595 1.09133E+00
 -1      3596 5.63529E+00
 -1      3597 4.99685E+00
 -1      3598 1.41772E-03
 -1      3599 1.43939E-03
 -1      3600 1.52445E-03
 -1      3601 8.98398E+00
 -1      3602 8.59999E+00
 -1      3603 7.98982E+00
 -1      3604 8.02820E+00
 -1      3605 2.14101E+00
 -1      3606 8.08333E+00
 -1      3607 7.77096E+00
 -1      3608 8.98398E+00
 -1      3609 8.98398E+00
 -1      3610 7.02163E+00
 -1      3611 5.91893E+00
 -1      3612 5.81002E+00
 -1      3613 7.32163E+00
 -1      3614 4.61989E+00
 -1      3615 6.33351E+00
 -1      3616 8.15145E+00
 -1      3617 6.94489E+00
 -1      3618 3.26753E+00
 -1      3619 6.28630E+00
 -1      3620 7.32236E+00
 -1      3621 3.17767E+00
 -1      3622 2.97203E+00
 -1      3623 3.09896E+00
 -1      3624 5.19409E+00
 -1      3625 3.61307E+00
 -1      3626 1.82118E-03
 -1      3627 1.56889E-03
 -1      3628 1.51013E-03
 -1      3629 1.95230E-03
 -1      3630 1.39668E+00
 -1      3631 6.62119E+00
 -1      3632 4.05860E+00
 -1      3633 4.56205E+00
 -1      3634 1.54589E-03
 -1      3635 1.42454E-03
 -1      3636 1.47010E-03
 -1      3637 6.44909E+00
 -1      3638 1.49511E-03
 -1      3639 3.29499E+00
 -1      3640 3.46298E+00
 -1      3641 4.03366E+00
 -1      3642 4.15854E+00
 -1      3643 1.62127E-03
 -1      3644 1.70205E-03
 -1      3645 5.36749E+00
 -1      3646 5.36749E+00
 -1      3647 3.54507E+00
 -1      3648 3.54507E+00
 -1      3649 6.59427E+00
 -1      3650 8.12080E+00
 -1      3651 6.07833E+00
 -1      3652 6.73514E+00
 -1      3653 4.77705E+00
 -1      3654 3.06312E+00
 -1      3655 3.25302E+00
 -1      3656 7.07346E+00
 -1      3657 5.76303E+00
 -1      3658 7.34214E+00
 -1      3659 5.81816E+00
 -1      3660 5.53131E+00
 -1      3661 1.70430E-03
 -1      3662 1.60399E-03
 -1      3663 2.00703E-03
 -1      3664 6.52999E+00
 -1      3665 3.30334E+00
 -1      3666 1.53740E-03
 -1      3667 4.30542E+00
 -1      3668 5.36749E+00
 -1      3669 6.11508E+00
 -1      3670 6.52999E+00
 -1      3671 4.77918E+00
 -1      3672 1.59814E-03
 -1      3673 4.59327E+00
 -1      3674 3.77961E+00
 -1      3675 4.49653E-01
 -1      3676 5.17981E-01
 -1      3677 3.72362E+00
 -1      3678 1.83262E-03
 -1      3679 5.66424E+00
 -1      3680 4.91491E+00
 -1      3681 1.61443E-03
 -1      3682 1.61443E-03
 -1      3683 1.66568E-03
 -1      3684 1.36432E+00
 -1      3685 1.53281E+00
 -1      3686 3.35873E+00
 -1      3687 2.98855E+00
 -1      3688 4.12851E+00
 -1      3689 2.50856E+00
 -1      3690 2.29614E+00
 -1      3691 3.28363E+00
 -1      3692 1.92458E+00
 -1      3693 1.74911E+00
 -1      3694 2.43208E+00
 -1      3695 1.48072E+00
 -1      3696 1.30920E+00
 -1      3697 1.79213E+00
 -1      3698 1.11970E+00
 -1      3699 9.77785E-01
 -1      3700 1.33425E+00
 -1      3701 8.36241E-01
 -1      3702 7.35386E-01
 -1      3703 1.00321E+00
 -1      3704 6.39394E-01
 -1      3705 5.69978E-01
 -1      3706 7.65675E-01
 -1      3707 4.99249E-01
 -1      3708 4.59484E-01
 -1      3709 5.98954E-01
 -1      3710 4.01716E-01
 -1      3711 3.64124E-01
 -1      3712 4.70457E-01
 -1      3713 3.17334E-01
 -1      3714 2.83865E-01
 -1      3715 3.65898E-01
 -1      3716 2.46234E-01
 -1      3717 2.17626E-01
 -1      3718 2.81476E-01
 -1      3719 1.87604E-01
 -1      3720 1.63903E-01
 -1      3721 2.13823E-01
 -1      3722 1.40185E-01
 -1      3723 1.21057E-01
 -1      3724 1.60083E-01
 -1      3725 1.02533E-01
 -1      3726 8.74565E-02
 -1      3727 1.17840E-01
 -1      3728 7.31790E-02
 -1      3729 6.15998E-02
 -1      3730 8.50379E-02
 -1      3731 5.12503E-02
 -1      3732 4.30147E-02
 -1      3733 6.04109E-02
 -1      3734 3.52492E-02
 -1      3735 2.90959E-02
 -1      3736 4.22960E-02
 -1      3737 2.33165E-02
 -1      3738 1.88246E-02
 -1      3739 2.87511E-02
 -1      3740 1.46062E-02
 -1      3741 1.14127E-02
 -1      3742 1.87533E-02
 -1      3743 8.40313E-03
 -1      3744 6.23298E-03
 -1      3745 1.15252E-02
 -1      3746 4.14475E-03
 -1      3747 3.86889E-03
 -1      3748 6.42742E-03
 -1      3749 2.81763E-03
 -1      3750 3.12151E-03
 -1      3751 3.28792E-03
 -1      3752 3.35066E-03
 -1      3753 3.39782E-03
 -1      3754 2.46581E-03
 -1      3755 3.51272E-03
 -1      3756 3.39933E-03
 -1      3757 2.80987E-03
 -1      3758 3.36468E-03
 -1      3759 3.15927E-03
 -1      3760 2.89011E-03
 -1      3761 3.08453E-03
 -1      3762 2.86386E-03
 -1      3763 2.78072E-03
 -1      3764 2.77632E-03
 -1      3765 2.57990E-03
 -1      3766 2.61845E-03
 -1      3767 2.55529E-03
 -1      3768 2.33424E-03
 -1      3769 2.50631E-03
 -1      3770 1.86228E+00
 -1      3771 2.12556E+00
 -1      3772 1.82992E+00
 -1      3773 1.98008E-03
 -1      3774 5.96506E+00
 -1      3775 7.96453E+00
 -1      3776 4.20607E+00
 -1      3777 4.03366E+00
 -1      3778 4.97220E+00
 -1      3779 4.31119E+00
 -1      3780 5.93656E-01
 -1      3781 6.80479E-01
 -1      3782 5.50225E-01
 -1      3783 7.81658E-01
 -1      3784 8.91365E-01
 -1      3785 7.27079E-01
 -1      3786 3.38340E-01
 -1      3787 3.91827E-01
 -1      3788 4.16726E-01
 -1      3789 2.52111E-01
 -1      3790 2.93689E-01
 -1      3791 3.14250E-01
 -1      3792 1.85483E-01
 -1      3793 2.17525E-01
 -1      3794 2.35013E-01
 -1      3795 1.34322E-01
 -1      3796 1.58762E-01
 -1      3797 1.73707E-01
 -1      3798 9.54007E-02
 -1      3799 1.13819E-01
 -1      3800 1.26483E-01
 -1      3801 6.68245E-02
 -1      3802 7.98239E-02
 -1      3803 9.04024E-02
 -1      3804 4.55378E-02
 -1      3805 5.51389E-02
 -1      3806 6.31401E-02
 -1      3807 3.03844E-02
 -1      3808 3.73934E-02
 -1      3809 4.33101E-02
 -1      3810 1.94778E-02
 -1      3811 2.44237E-02
 -1      3812 2.92051E-02
 -1      3813 1.17087E-02
 -1      3814 1.51582E-02
 -1      3815 1.89248E-02
 -1      3816 6.51605E-03
 -1      3817 8.65000E-03
 -1      3818 1.15465E-02
 -1      3819 4.42322E-03
 -1      3820 4.47619E-03
 -1      3821 6.44793E-03
 -1      3822 3.70558E-03
 -1      3823 3.50728E-03
 -1      3824 3.49213E-03
 -1      3825 4.02025E-03
 -1      3826 4.06571E-03
 -1      3827 2.93631E-03
 -1      3828 3.93204E-03
 -1      3829 4.12302E-03
 -1      3830 3.39922E-03
 -1      3831 3.60336E-03
 -1      3832 3.87178E-03
 -1      3833 3.44172E-03
 -1      3834 3.18243E-03
 -1      3835 3.44687E-03
 -1      3836 3.22497E-03
 -1      3837 2.75153E-03
 -1      3838 2.97550E-03
 -1      3839 2.86155E-03
 -1      3840 2.33671E-03
 -1      3841 2.58219E-03
 -1      3842 2.48529E-03
 -1      3843 2.02430E-03
 -1      3844 2.19087E-03
 -1      3845 2.17013E-03
 -1      3846 2.00703E-03
 -1      3847 5.01028E+00
 -1      3848 4.26269E+00
 -1      3849 3.67272E+00
 -1      3850 5.48947E+00
 -1      3851 3.50259E+00
 -1      3852 1.03128E+00
 -1      3853 1.16815E+00
 -1      3854 9.68177E-01
 -1      3855 3.77784E+00
 -1      3856 5.02613E+00
 -1      3857 5.02613E+00
 -1      3858 5.46969E+00
 -1      3859 3.21090E+00
 -1      3860 4.41018E+00
 -1      3861 3.24474E+00
 -1      3862 5.65951E+00
 -1      3863 5.93388E+00
 -1      3864 2.46593E+00
 -1      3865 5.48947E+00
 -1      3866 1.84871E-03
 -1      3867 1.84871E-03
 -1      3868 2.02606E-03
 -1      3869 4.55616E+00
 -1      3870 6.05401E+00
 -1      3871 4.41215E+00
 -1      3872 5.38959E+00
 -1      3873 4.26638E+00
 -1      3874 4.92305E+00
 -1      3875 1.89989E-03
 -1      3876 1.30427E+00
 -1      3877 5.28058E+00
 -1      3878 5.37167E+00
 -1      3879 1.88010E-03
 -1      3880 1.60181E-03
 -1      3881 1.57727E-03
 -1      3882 3.96662E+00
 -1      3883 2.30435E-03
 -1      3884 5.02613E+00
 -1      3885 4.34007E+00
 -1      3886 3.60317E+00
 -1      3887 6.52999E+00
 -1      3888 1.97628E-03
 -1      3889 2.12062E-03
 -1      3890 2.03221E-03
 -1      3891 5.65951E+00
 -1      3892 3.78639E+00
 -1      3893 3.31328E+00
 -1      3894 2.94172E+00
 -1      3895 4.29603E+00
 -1      3896 2.03011E+00
 -1      3897 1.76172E+00
 -1      3898 2.91131E+00
 -1      3899 1.52374E+00
 -1      3900 1.33425E+00
 -1      3901 1.76172E+00
 -1      3902 1.14476E+00
 -1      3903 1.00321E+00
 -1      3904 1.33425E+00
 -1      3905 8.61667E-01
 -1      3906 7.65675E-01
 -1      3907 1.00321E+00
 -1      3908 6.60340E-01
 -1      3909 5.89611E-01
 -1      3910 7.56332E-01
 -1      3911 5.10581E-01
 -1      3912 4.52813E-01
 -1      3913 5.71967E-01
 -1      3914 3.92877E-01
 -1      3915 3.46087E-01
 -1      3916 4.33002E-01
 -1      3917 3.00220E-01
 -1      3918 2.62589E-01
 -1      3919 3.27200E-01
 -1      3920 2.27289E-01
 -1      3921 1.97267E-01
 -1      3922 2.46033E-01
 -1      3923 1.70056E-01
 -1      3924 1.46337E-01
 -1      3925 1.83521E-01
 -1      3926 1.25413E-01
 -1      3927 1.06889E-01
 -1      3928 1.35387E-01
 -1      3929 9.08939E-02
 -1      3930 7.66165E-02
 -1      3931 9.84678E-02
 -1      3932 6.44959E-02
 -1      3933 5.41464E-02
 -1      3934 7.03519E-02
 -1      3935 4.50667E-02
 -1      3936 3.73012E-02
 -1      3937 4.91516E-02
 -1      3938 3.06772E-02
 -1      3939 2.48978E-02
 -1      3940 3.34479E-02
 -1      3941 2.03926E-02
 -1      3942 1.61741E-02
 -1      3943 2.23187E-02
 -1      3944 1.29028E-02
 -1      3945 9.89321E-03
 -1      3946 1.45421E-02
 -1      3947 7.83215E-03
 -1      3948 5.74392E-03
 -1      3949 9.20971E-03
 -1      3950 4.30171E-03
 -1      3951 3.25045E-03
 -1      3952 5.70645E-03
 -1      3953 2.23666E-03
 -1      3954 2.46581E-03
 -1      3955 3.25045E-03
 -1      3956 2.52405E-03
 -1      3957 2.63895E-03
 -1      3958 2.29489E-03
 -1      3959 2.80752E-03
 -1      3960 2.77287E-03
 -1      3961 2.52170E-03
 -1      3962 2.78072E-03
 -1      3963 2.70599E-03
 -1      3964 2.69813E-03
 -1      3965 2.61845E-03
 -1      3966 2.53092E-03
 -1      3967 2.61845E-03
 -1      3968 2.50631E-03
 -1      3969 2.48169E-03
 -1      3970 2.30435E-03
 -1      3971 2.50631E-03
 -1      3972 1.54456E+00
 -1      3973 1.87403E+00
 -1      3974 5.00338E+00
 -1      3975 6.19357E-01
 -1      3976 7.20536E-01
 -1      3977 2.03230E-01
 -1      3978 2.37816E-01
 -1      3979 1.50723E-01
 -1      3980 1.77444E-01
 -1      3981 1.80246E-01
 -1      3982 1.10068E-01
 -1      3983 1.30571E-01
 -1      3984 1.34309E-01
 -1      3985 7.88635E-02
 -1      3986 9.44402E-02
 -1      3987 9.85290E-02
 -1      3988 5.51923E-02
 -1      3989 6.68779E-02
 -1      3990 7.09157E-02
 -1      3991 3.79809E-02
 -1      3992 4.61253E-02
 -1      3993 4.98631E-02
 -1      3994 2.54959E-02
 -1      3995 3.14566E-02
 -1      3996 3.42717E-02
 -1      3997 1.65890E-02
 -1      3998 2.09086E-02
 -1      3999 2.31601E-02
 -1      4000 1.01750E-02
 -1      4001 1.32337E-02
 -1      4002 1.52175E-02
 -1      4003 5.85884E-03
 -1      4004 7.89870E-03
 -1      4005 9.58592E-03
 -1      4006 3.49092E-03
 -1      4007 4.40686E-03
 -1      4008 5.85763E-03
 -1      4009 2.83260E-03
 -1      4010 2.47247E-03
 -1      4011 3.38720E-03
 -1      4012 2.90500E-03
 -1      4013 2.80223E-03
 -1      4014 2.33838E-03
 -1      4015 2.99503E-03
 -1      4016 3.05530E-03
 -1      4017 2.45831E-03
 -1      4018 2.83781E-03
 -1      4019 2.99430E-03
 -1      4020 2.60787E-03
 -1      4021 2.53700E-03
 -1      4022 2.74392E-03
 -1      4023 2.51325E-03
 -1      4024 2.35922E-03
 -1      4025 2.52855E-03
 -1      4026 2.41093E-03
 -1      4027 2.70718E-01
 -1      4028 3.15368E-01
 -1      4029 2.38934E-01
 -1      4030 4.70324E-01
 -1      4031 5.45998E-01
 -1      4032 5.39455E-01
 -1      4033 5.36182E+00
 -1      4034 8.23525E-01
 -1      4035 9.63444E-01
 -1      4036 7.15803E-01
 -1      4037 3.57542E-01
 -1      4038 4.15367E-01
 -1      4039 4.11141E-01
 -1      4040 3.14010E-01
 -1      4041 2.33271E+00
 -1      4042 3.41805E+00
 -1      4043 3.05459E+00
 -1      4044 2.04734E+00
 -1      4045 1.11558E+00
 -1      4046 1.31175E+00
 -1      4047 9.70925E-01
 -1      4048 1.81957E-03
 -1      4049 1.90944E-03
 -1      4050 1.92671E-03
 -1      4051 2.13017E-03
 -1      4052 4.34237E+00
 -1      4053 4.44994E+00
 -1      4054 2.27911E-03
 -1      4055 2.03221E-03
 -1      4056 2.45646E-03
 -1      4057 4.33350E+00
 -1      4058 3.70648E+00
 -1      4059 2.79487E+00
 -1      4060 3.59660E+00
 -1      4061 3.05459E+00
 -1      4062 2.07254E-03
 -1      4063 1.35586E+00
 -1      4064 2.11581E-03
 -1      4065 1.89756E+00
 -1      4066 1.65958E+00
 -1      4067 2.69272E+00
 -1      4068 1.36170E+00
 -1      4069 1.17220E+00
 -1      4070 1.49753E+00
 -1      4071 9.84538E-01
 -1      4072 8.42994E-01
 -1      4073 1.01199E+00
 -1      4074 7.19276E-01
 -1      4075 6.13941E-01
 -1      4076 7.00603E-01
 -1      4077 5.30306E-01
 -1      4078 4.51276E-01
 -1      4079 4.93250E-01
 -1      4080 4.07072E-01
 -1      4081 3.47136E-01
 -1      4082 3.65411E-01
 -1      4083 3.12115E-01
 -1      4084 2.66249E-01
 -1      4085 2.86185E-01
 -1      4086 2.38031E-01
 -1      4087 2.02730E-01
 -1      4088 2.22946E-01
 -1      4089 1.80012E-01
 -1      4090 1.52802E-01
 -1      4091 1.72011E-01
 -1      4092 1.34619E-01
 -1      4093 1.13695E-01
 -1      4094 1.31110E-01
 -1      4095 9.92781E-02
 -1      4096 8.32828E-02
 -1      4097 9.85102E-02
 -1      4098 7.19842E-02
 -1      4099 5.98636E-02
 -1      4100 7.27945E-02
 -1      4101 5.11273E-02
 -1      4102 4.20475E-02
 -1      4103 5.27596E-02
 -1      4104 3.54214E-02
 -1      4105 2.87975E-02
 -1      4106 3.73971E-02
 -1      4107 2.41191E-02
 -1      4108 1.96139E-02
 -1      4109 2.60927E-02
 -1      4110 1.62320E-02
 -1      4111 1.29607E-02
 -1      4112 1.80325E-02
 -1      4113 1.04478E-02
 -1      4114 8.38674E-03
 -1      4115 1.21377E-02
 -1      4116 6.55759E-03
 -1      4117 5.11538E-03
 -1      4118 7.79567E-03
 -1      4119 3.81489E-03
 -1      4120 2.80110E-03
 -1      4121 4.66602E-03
 -1      4122 1.90197E-03
 -1      4123 1.96020E-03
 -1      4124 2.46640E-03
 -1      4125 1.90949E-03
 -1      4126 2.07807E-03
 -1      4127 1.51657E-03
 -1      4128 2.18087E-03
 -1      4129 2.18873E-03
 -1      4130 1.56866E-03
 -1      4131 2.20465E-03
 -1      4132 2.11711E-03
 -1      4133 1.68739E-03
 -1      4134 2.13549E-03
 -1      4135 2.11088E-03
 -1      4136 2.08565E-03
 -1      4137 1.72169E-03
 -1      4138 1.19676E-01
 -1      4139 1.39828E-01
 -1      4140 8.81499E-02
 -1      4141 1.03778E-01
 -1      4142 1.09297E-01
 -1      4143 4.75720E-01
 -1      4144 5.49078E-01
 -1      4145 1.60095E-01
 -1      4146 1.85881E-01
 -1      4147 1.45463E-01
 -1      4148 6.37738E-02
 -1      4149 7.57593E-02
 -1      4150 8.10080E-02
 -1      4151 4.51423E-02
 -1      4152 5.42093E-02
 -1      4153 5.90529E-02
 -1      4154 3.13228E-02
 -1      4155 3.78471E-02
 -1      4156 4.21933E-02
 -1      4157 2.14445E-02
 -1      4158 2.60318E-02
 -1      4159 2.96072E-02
 -1      4160 1.43482E-02
 -1      4161 1.77035E-02
 -1      4162 2.05752E-02
 -1      4163 9.28245E-03
 -1      4164 1.15588E-02
 -1      4165 1.40447E-02
 -1      4166 5.78837E-03
 -1      4167 7.24035E-03
 -1      4168 9.21319E-03
 -1      4169 3.30610E-03
 -1      4170 4.32455E-03
 -1      4171 5.70727E-03
 -1      4172 2.25224E-03
 -1      4173 2.28262E-03
 -1      4174 3.21997E-03
 -1      4175 2.14012E-03
 -1      4176 1.98982E-03
 -1      4177 1.93406E-03
 -1      4178 2.27621E-03
 -1      4179 2.27694E-03
 -1      4180 1.80846E-03
 -1      4181 2.19781E-03
 -1      4182 2.29170E-03
 -1      4183 1.96077E-03
 -1      4184 2.41685E-03
 -1      4185 2.42529E-03
 -1      4186 2.20374E-03
 -1      4187 2.11654E-01
 -1      4188 2.44556E-01
 -1      4189 1.91503E-01
 -1      4190 1.86920E+00
 -1      4191 2.32788E+00
 -1      4192 6.12229E-01
 -1      4193 7.15218E-01
 -1      4194 5.48493E-01
 -1      4195 2.41685E-03
 -1      4196 2.87645E+00
 -1      4197 1.14650E+00
 -1      4198 1.37931E+00
 -1      4199 1.65985E+00
 -1      4200 2.43122E-03
 -1      4201 2.43122E-03
 -1      4202 8.14409E-01
 -1      4203 9.66542E-01
 -1      4204 9.89988E-01
 -1      4205 7.10835E-01
 -1      4206 2.86989E+00
 -1      4207 3.63251E-01
 -1      4208 4.18207E-01
 -1      4209 4.27830E-01
 -1      4210 2.43122E-03
 -1      4211 2.50167E-01
 -1      4212 2.77447E-01
 -1      4213 3.19621E-01
 -1      4214 1.37244E-01
 -1      4215 1.57511E-01
 -1      4216 1.48268E+00
 -1      4217 1.18480E+00
 -1      4218 1.00484E+00
 -1      4219 8.17173E-01
 -1      4220 7.17982E-01
 -1      4221 5.94264E-01
 -1      4222 5.31114E-01
 -1      4223 4.47478E-01
 -1      4224 3.89966E-01
 -1      4225 3.45762E-01
 -1      4226 3.02132E-01
 -1      4227 2.67111E-01
 -1      4228 2.34220E-01
 -1      4229 2.06003E-01
 -1      4230 1.80229E-01
 -1      4231 1.19062E-01
 -1      4232 1.03163E-01
 -1      4233 8.87459E-02
 -1      4234 7.63553E-02
 -1      4235 6.50567E-02
 -1      4236 5.54922E-02
 -1      4237 4.67558E-02
 -1      4238 3.94607E-02
 -1      4239 3.28346E-02
 -1      4240 2.75436E-02
 -1      4241 2.28653E-02
 -1      4242 1.91243E-02
 -1      4243 1.57424E-02
 -1      4244 1.29530E-02
 -1      4245 1.04401E-02
 -1      4246 8.39796E-03
 -1      4247 6.56880E-03
 -1      4248 5.10499E-03
 -1      4249 3.80449E-03
 -1      4250 2.78100E-03
 -1      4251 1.88187E-03
 -1      4252 1.61946E-03
 -1      4253 1.56875E-03
 -1      4254 1.70557E-03
 -1      4255 1.80837E-03
 -1      4256 1.82386E-03
 -1      4257 1.83978E-03
 -1      4258 1.97258E+00
 -1      4259 2.08565E-03
 -1      4260 2.06727E-03
 -1      4261 3.26687E-01
 -3
 9999
