    1C
    1UUSER                                                              
    1UDATE              27.october.2022                                 
    1UTIME              00:41:32                                        
    1UHOST                                                              
    1UPGM               CalculiX                                        
    1UVERSION           Version 2.17                             
    1UCOMPILETIME       Thu Jul 23 21:43:50 CEST 2020                    
    1UDIR                                                               
    1UDBN                                                               
    1UMAT    1SOLIDMATERIAL                                             
    2C                          4304                                     1
 -1         1 8.45455E+01 4.20666E+01 0.00000E+00
 -1         2 9.66383E+01 3.72642E+01 0.00000E+00
 -1         3 1.50000E+02 0.00000E+00 0.00000E+00
 -1         4 1.50000E+02 5.00000E+01 0.00000E+00
 -1         5 0.00000E+00 0.00000E+00 0.00000E+00
 -1         6 0.00000E+00 5.00000E+01 0.00000E+00
 -1         7 0.00000E+00 4.70500E+01 0.00000E+00
 -1         8 0.00000E+00 4.41000E+01 0.00000E+00
 -1         9 0.00000E+00 4.11500E+01 0.00000E+00
 -1        10 0.00000E+00 3.82000E+01 0.00000E+00
 -1        11 0.00000E+00 3.52500E+01 0.00000E+00
 -1        12 0.00000E+00 3.23500E+01 0.00000E+00
 -1        13 0.00000E+00 2.94000E+01 0.00000E+00
 -1        14 0.00000E+00 2.64500E+01 0.00000E+00
 -1        15 0.00000E+00 2.35000E+01 0.00000E+00
 -1        16 0.00000E+00 2.05500E+01 0.00000E+00
 -1        17 0.00000E+00 1.76000E+01 0.00000E+00
 -1        18 0.00000E+00 1.47000E+01 0.00000E+00
 -1        19 0.00000E+00 1.17500E+01 0.00000E+00
 -1        20 0.00000E+00 8.80000E+00 0.00000E+00
 -1        21 0.00000E+00 5.85000E+00 0.00000E+00
 -1        22 0.00000E+00 2.90000E+00 0.00000E+00
 -1        23 3.15000E+00 5.00000E+01 0.00000E+00
 -1        24 6.15000E+00 5.00000E+01 0.00000E+00
 -1        25 9.15000E+00 5.00000E+01 0.00000E+00
 -1        26 1.21500E+01 5.00000E+01 0.00000E+00
 -1        27 1.51500E+01 5.00000E+01 0.00000E+00
 -1        28 1.81500E+01 5.00000E+01 0.00000E+00
 -1        29 2.11500E+01 5.00000E+01 0.00000E+00
 -1        30 2.41500E+01 5.00000E+01 0.00000E+00
 -1        31 2.71500E+01 5.00000E+01 0.00000E+00
 -1        32 3.01500E+01 5.00000E+01 0.00000E+00
 -1        33 3.31500E+01 5.00000E+01 0.00000E+00
 -1        34 3.61500E+01 5.00000E+01 0.00000E+00
 -1        35 3.91500E+01 5.00000E+01 0.00000E+00
 -1        36 4.21500E+01 5.00000E+01 0.00000E+00
 -1        37 4.51500E+01 5.00000E+01 0.00000E+00
 -1        38 4.81500E+01 5.00000E+01 0.00000E+00
 -1        39 5.11500E+01 5.00000E+01 0.00000E+00
 -1        40 5.43000E+01 5.00000E+01 0.00000E+00
 -1        41 5.73000E+01 5.00000E+01 0.00000E+00
 -1        42 6.03000E+01 5.00000E+01 0.00000E+00
 -1        43 6.33000E+01 5.00000E+01 0.00000E+00
 -1        44 6.63000E+01 5.00000E+01 0.00000E+00
 -1        45 6.93000E+01 5.00000E+01 0.00000E+00
 -1        46 7.23000E+01 5.00000E+01 0.00000E+00
 -1        47 7.53000E+01 5.00000E+01 0.00000E+00
 -1        48 7.83000E+01 5.00000E+01 0.00000E+00
 -1        49 8.10000E+01 5.00000E+01 0.00000E+00
 -1        50 8.34000E+01 5.00000E+01 0.00000E+00
 -1        51 8.58000E+01 5.00000E+01 0.00000E+00
 -1        52 8.82000E+01 5.00000E+01 0.00000E+00
 -1        53 9.09000E+01 5.00000E+01 0.00000E+00
 -1        54 9.34500E+01 5.00000E+01 0.00000E+00
 -1        55 9.58500E+01 5.00000E+01 0.00000E+00
 -1        56 9.90000E+01 5.00000E+01 0.00000E+00
 -1        57 1.02000E+02 5.00000E+01 0.00000E+00
 -1        58 1.05000E+02 5.00000E+01 0.00000E+00
 -1        59 1.08000E+02 5.00000E+01 0.00000E+00
 -1        60 1.11000E+02 5.00000E+01 0.00000E+00
 -1        61 1.14000E+02 5.00000E+01 0.00000E+00
 -1        62 1.17000E+02 5.00000E+01 0.00000E+00
 -1        63 1.20000E+02 5.00000E+01 0.00000E+00
 -1        64 1.23000E+02 5.00000E+01 0.00000E+00
 -1        65 1.26000E+02 5.00000E+01 0.00000E+00
 -1        66 1.29000E+02 5.00000E+01 0.00000E+00
 -1        67 1.32000E+02 5.00000E+01 0.00000E+00
 -1        68 1.35000E+02 5.00000E+01 0.00000E+00
 -1        69 1.38000E+02 5.00000E+01 0.00000E+00
 -1        70 1.41000E+02 5.00000E+01 0.00000E+00
 -1        71 1.44000E+02 5.00000E+01 0.00000E+00
 -1        72 1.47000E+02 5.00000E+01 0.00000E+00
 -1        73 3.15000E+00 0.00000E+00 0.00000E+00
 -1        74 6.15000E+00 0.00000E+00 0.00000E+00
 -1        75 9.15000E+00 0.00000E+00 0.00000E+00
 -1        76 1.21500E+01 0.00000E+00 0.00000E+00
 -1        77 1.51500E+01 0.00000E+00 0.00000E+00
 -1        78 1.81500E+01 0.00000E+00 0.00000E+00
 -1        79 2.11500E+01 0.00000E+00 0.00000E+00
 -1        80 2.41500E+01 0.00000E+00 0.00000E+00
 -1        81 2.71500E+01 0.00000E+00 0.00000E+00
 -1        82 3.01500E+01 0.00000E+00 0.00000E+00
 -1        83 3.31500E+01 0.00000E+00 0.00000E+00
 -1        84 3.61500E+01 0.00000E+00 0.00000E+00
 -1        85 3.91500E+01 0.00000E+00 0.00000E+00
 -1        86 4.21500E+01 0.00000E+00 0.00000E+00
 -1        87 4.51500E+01 0.00000E+00 0.00000E+00
 -1        88 4.81500E+01 0.00000E+00 0.00000E+00
 -1        89 5.11500E+01 0.00000E+00 0.00000E+00
 -1        90 5.41500E+01 0.00000E+00 0.00000E+00
 -1        91 5.71500E+01 0.00000E+00 0.00000E+00
 -1        92 6.01500E+01 0.00000E+00 0.00000E+00
 -1        93 6.31500E+01 0.00000E+00 0.00000E+00
 -1        94 6.61500E+01 0.00000E+00 0.00000E+00
 -1        95 6.91500E+01 0.00000E+00 0.00000E+00
 -1        96 7.21500E+01 0.00000E+00 0.00000E+00
 -1        97 7.51500E+01 0.00000E+00 0.00000E+00
 -1        98 7.81500E+01 0.00000E+00 0.00000E+00
 -1        99 8.11500E+01 0.00000E+00 0.00000E+00
 -1       100 8.41500E+01 0.00000E+00 0.00000E+00
 -1       101 8.71500E+01 0.00000E+00 0.00000E+00
 -1       102 9.01500E+01 0.00000E+00 0.00000E+00
 -1       103 9.31500E+01 0.00000E+00 0.00000E+00
 -1       104 9.61500E+01 0.00000E+00 0.00000E+00
 -1       105 9.91500E+01 0.00000E+00 0.00000E+00
 -1       106 1.02150E+02 0.00000E+00 0.00000E+00
 -1       107 1.05150E+02 0.00000E+00 0.00000E+00
 -1       108 1.08150E+02 0.00000E+00 0.00000E+00
 -1       109 1.11150E+02 0.00000E+00 0.00000E+00
 -1       110 1.14150E+02 0.00000E+00 0.00000E+00
 -1       111 1.17150E+02 0.00000E+00 0.00000E+00
 -1       112 1.20150E+02 0.00000E+00 0.00000E+00
 -1       113 1.23150E+02 0.00000E+00 0.00000E+00
 -1       114 1.26150E+02 0.00000E+00 0.00000E+00
 -1       115 1.29150E+02 0.00000E+00 0.00000E+00
 -1       116 1.32150E+02 0.00000E+00 0.00000E+00
 -1       117 1.35150E+02 0.00000E+00 0.00000E+00
 -1       118 1.38150E+02 0.00000E+00 0.00000E+00
 -1       119 1.41150E+02 0.00000E+00 0.00000E+00
 -1       120 1.44150E+02 0.00000E+00 0.00000E+00
 -1       121 1.47150E+02 0.00000E+00 0.00000E+00
 -1       122 1.50000E+02 2.95000E+00 0.00000E+00
 -1       123 1.50000E+02 5.90000E+00 0.00000E+00
 -1       124 1.50000E+02 8.85000E+00 0.00000E+00
 -1       125 1.50000E+02 1.18000E+01 0.00000E+00
 -1       126 1.50000E+02 1.47500E+01 0.00000E+00
 -1       127 1.50000E+02 1.76500E+01 0.00000E+00
 -1       128 1.50000E+02 2.06000E+01 0.00000E+00
 -1       129 1.50000E+02 2.35500E+01 0.00000E+00
 -1       130 1.50000E+02 2.65000E+01 0.00000E+00
 -1       131 1.50000E+02 2.94500E+01 0.00000E+00
 -1       132 1.50000E+02 3.24000E+01 0.00000E+00
 -1       133 1.50000E+02 3.53000E+01 0.00000E+00
 -1       134 1.50000E+02 3.82500E+01 0.00000E+00
 -1       135 1.50000E+02 4.12000E+01 0.00000E+00
 -1       136 1.50000E+02 4.41500E+01 0.00000E+00
 -1       137 1.50000E+02 4.71000E+01 0.00000E+00
 -1       138 9.64846E+01 3.58055E+01 0.00000E+00
 -1       139 9.59963E+01 3.43357E+01 0.00000E+00
 -1       140 9.52480E+01 3.30771E+01 0.00000E+00
 -1       141 9.41398E+01 3.19035E+01 0.00000E+00
 -1       142 9.29440E+01 3.10939E+01 0.00000E+00
 -1       143 9.15380E+01 3.05269E+01 0.00000E+00
 -1       144 8.99289E+01 3.02702E+01 0.00000E+00
 -1       145 8.84529E+01 3.03652E+01 0.00000E+00
 -1       146 8.68979E+01 3.08228E+01 0.00000E+00
 -1       147 8.55512E+01 3.15812E+01 0.00000E+00
 -1       148 8.44585E+01 3.25556E+01 0.00000E+00
 -1       149 8.36124E+01 3.37021E+01 0.00000E+00
 -1       150 8.29605E+01 3.51647E+01 0.00000E+00
 -1       151 8.26733E+01 3.65648E+01 0.00000E+00
 -1       152 8.26883E+01 3.80994E+01 0.00000E+00
 -1       153 8.30197E+01 3.95431E+01 0.00000E+00
 -1       154 8.36612E+01 4.09075E+01 0.00000E+00
 -1       155 8.57208E+01 4.30653E+01 0.00000E+00
 -1       156 8.70666E+01 4.37747E+01 0.00000E+00
 -1       157 8.85012E+01 4.41712E+01 0.00000E+00
 -1       158 9.01131E+01 4.42480E+01 0.00000E+00
 -1       159 9.15513E+01 4.39977E+01 0.00000E+00
 -1       160 9.29400E+01 4.34366E+01 0.00000E+00
 -1       161 9.41650E+01 4.26035E+01 0.00000E+00
 -1       162 9.52109E+01 4.15004E+01 0.00000E+00
 -1       163 9.60287E+01 4.01211E+01 0.00000E+00
 -1       164 9.64831E+01 3.87299E+01 0.00000E+00
 -1       165 2.59800E+00 4.55750E+01 0.00000E+00
 -1       166 2.59800E+00 4.26250E+01 0.00000E+00
 -1       167 2.59800E+00 3.96750E+01 0.00000E+00
 -1       168 2.59800E+00 3.67250E+01 0.00000E+00
 -1       169 2.59800E+00 3.38250E+01 0.00000E+00
 -1       170 2.59800E+00 3.08750E+01 0.00000E+00
 -1       171 2.59800E+00 2.79250E+01 0.00000E+00
 -1       172 2.59800E+00 2.49750E+01 0.00000E+00
 -1       173 2.59800E+00 2.20250E+01 0.00000E+00
 -1       174 2.59800E+00 1.90750E+01 0.00000E+00
 -1       175 2.59800E+00 1.61750E+01 0.00000E+00
 -1       176 2.59800E+00 1.32250E+01 0.00000E+00
 -1       177 2.59800E+00 1.02750E+01 0.00000E+00
 -1       178 2.59800E+00 7.32500E+00 0.00000E+00
 -1       179 2.59800E+00 4.37500E+00 0.00000E+00
 -1       180 2.87400E+00 2.18750E+00 0.00000E+00
 -1       181 4.65000E+00 4.74020E+01 0.00000E+00
 -1       182 7.65000E+00 4.74020E+01 0.00000E+00
 -1       183 1.06500E+01 4.74020E+01 0.00000E+00
 -1       184 1.36500E+01 4.74020E+01 0.00000E+00
 -1       185 1.66500E+01 4.74020E+01 0.00000E+00
 -1       186 1.96500E+01 4.74020E+01 0.00000E+00
 -1       187 2.26500E+01 4.74020E+01 0.00000E+00
 -1       188 2.56500E+01 4.74020E+01 0.00000E+00
 -1       189 2.86500E+01 4.74020E+01 0.00000E+00
 -1       190 3.16500E+01 4.74020E+01 0.00000E+00
 -1       191 3.46500E+01 4.74020E+01 0.00000E+00
 -1       192 3.76500E+01 4.74020E+01 0.00000E+00
 -1       193 4.06500E+01 4.74020E+01 0.00000E+00
 -1       194 4.36500E+01 4.74020E+01 0.00000E+00
 -1       195 4.66500E+01 4.74020E+01 0.00000E+00
 -1       196 4.96500E+01 4.74020E+01 0.00000E+00
 -1       197 5.28000E+01 4.74020E+01 0.00000E+00
 -1       198 5.58000E+01 4.74020E+01 0.00000E+00
 -1       199 5.88000E+01 4.74020E+01 0.00000E+00
 -1       200 6.18000E+01 4.74020E+01 0.00000E+00
 -1       201 6.48000E+01 4.74020E+01 0.00000E+00
 -1       202 6.78000E+01 4.74020E+01 0.00000E+00
 -1       203 7.08000E+01 4.74020E+01 0.00000E+00
 -1       204 7.38000E+01 4.74020E+01 0.00000E+00
 -1       205 7.68000E+01 4.74020E+01 0.00000E+00
 -1       206 7.95000E+01 4.74020E+01 0.00000E+00
 -1       207 8.19000E+01 4.74020E+01 0.00000E+00
 -1       208 8.70000E+01 4.79497E+01 0.00000E+00
 -1       209 8.97000E+01 4.79497E+01 0.00000E+00
 -1       210 9.22500E+01 4.79497E+01 0.00000E+00
 -1       211 9.46500E+01 4.79497E+01 0.00000E+00
 -1       212 9.78000E+01 4.79497E+01 0.00000E+00
 -1       213 1.00800E+02 4.79497E+01 0.00000E+00
 -1       214 1.03800E+02 4.79497E+01 0.00000E+00
 -1       215 1.06800E+02 4.79497E+01 0.00000E+00
 -1       216 1.09800E+02 4.79497E+01 0.00000E+00
 -1       217 1.12800E+02 4.79497E+01 0.00000E+00
 -1       218 1.15800E+02 4.79497E+01 0.00000E+00
 -1       219 1.18800E+02 4.79497E+01 0.00000E+00
 -1       220 1.21800E+02 4.79497E+01 0.00000E+00
 -1       221 1.24800E+02 4.79497E+01 0.00000E+00
 -1       222 1.27800E+02 4.79497E+01 0.00000E+00
 -1       223 1.30800E+02 4.79497E+01 0.00000E+00
 -1       224 1.33800E+02 4.79497E+01 0.00000E+00
 -1       225 1.36800E+02 4.79497E+01 0.00000E+00
 -1       226 1.39800E+02 4.79497E+01 0.00000E+00
 -1       227 1.42800E+02 4.79497E+01 0.00000E+00
 -1       228 1.45800E+02 4.79497E+01 0.00000E+00
 -1       229 1.47900E+02 4.75249E+01 0.00000E+00
 -1       230 5.87400E+00 2.18750E+00 0.00000E+00
 -1       231 8.87400E+00 2.18750E+00 0.00000E+00
 -1       232 1.18740E+01 2.18750E+00 0.00000E+00
 -1       233 1.48740E+01 2.18750E+00 0.00000E+00
 -1       234 1.78740E+01 2.18750E+00 0.00000E+00
 -1       235 2.08740E+01 2.18750E+00 0.00000E+00
 -1       236 2.38740E+01 2.18750E+00 0.00000E+00
 -1       237 2.68740E+01 2.18750E+00 0.00000E+00
 -1       238 2.98740E+01 2.18750E+00 0.00000E+00
 -1       239 3.28740E+01 2.18750E+00 0.00000E+00
 -1       240 3.58740E+01 2.18750E+00 0.00000E+00
 -1       241 3.88740E+01 2.18750E+00 0.00000E+00
 -1       242 4.18740E+01 2.18750E+00 0.00000E+00
 -1       243 4.48740E+01 2.18750E+00 0.00000E+00
 -1       244 4.78740E+01 2.18750E+00 0.00000E+00
 -1       245 5.08740E+01 2.18750E+00 0.00000E+00
 -1       246 5.38740E+01 2.18750E+00 0.00000E+00
 -1       247 5.68740E+01 2.18750E+00 0.00000E+00
 -1       248 5.98740E+01 2.18750E+00 0.00000E+00
 -1       249 6.28740E+01 2.18750E+00 0.00000E+00
 -1       250 6.58740E+01 2.18750E+00 0.00000E+00
 -1       251 6.88740E+01 2.18750E+00 0.00000E+00
 -1       252 7.18740E+01 2.18750E+00 0.00000E+00
 -1       253 7.48740E+01 2.18750E+00 0.00000E+00
 -1       254 7.78740E+01 2.18750E+00 0.00000E+00
 -1       255 8.08740E+01 2.18750E+00 0.00000E+00
 -1       256 8.38740E+01 2.18750E+00 0.00000E+00
 -1       257 8.68740E+01 2.18750E+00 0.00000E+00
 -1       258 8.98740E+01 2.18750E+00 0.00000E+00
 -1       259 9.28740E+01 2.18750E+00 0.00000E+00
 -1       260 9.58740E+01 2.18750E+00 0.00000E+00
 -1       261 9.88740E+01 2.18750E+00 0.00000E+00
 -1       262 1.01874E+02 2.18750E+00 0.00000E+00
 -1       263 1.04874E+02 2.18750E+00 0.00000E+00
 -1       264 1.07874E+02 2.18750E+00 0.00000E+00
 -1       265 1.10874E+02 2.18750E+00 0.00000E+00
 -1       266 1.13874E+02 2.18750E+00 0.00000E+00
 -1       267 1.16874E+02 2.18750E+00 0.00000E+00
 -1       268 1.19874E+02 2.18750E+00 0.00000E+00
 -1       269 1.22874E+02 2.18750E+00 0.00000E+00
 -1       270 1.25874E+02 2.18750E+00 0.00000E+00
 -1       271 1.28874E+02 2.18750E+00 0.00000E+00
 -1       272 1.31874E+02 2.18750E+00 0.00000E+00
 -1       273 1.34874E+02 2.18750E+00 0.00000E+00
 -1       274 1.37874E+02 2.18750E+00 0.00000E+00
 -1       275 1.40874E+02 2.18750E+00 0.00000E+00
 -1       276 1.43874E+02 2.18750E+00 0.00000E+00
 -1       277 1.46874E+02 2.18750E+00 0.00000E+00
 -1       278 1.47402E+02 4.42500E+00 0.00000E+00
 -1       279 1.47402E+02 7.37500E+00 0.00000E+00
 -1       280 1.47402E+02 1.03250E+01 0.00000E+00
 -1       281 1.47402E+02 1.32750E+01 0.00000E+00
 -1       282 1.47402E+02 1.61750E+01 0.00000E+00
 -1       283 1.47402E+02 1.91250E+01 0.00000E+00
 -1       284 1.47402E+02 2.20750E+01 0.00000E+00
 -1       285 1.47402E+02 2.50250E+01 0.00000E+00
 -1       286 1.47402E+02 2.79750E+01 0.00000E+00
 -1       287 1.47402E+02 3.09250E+01 0.00000E+00
 -1       288 1.47402E+02 3.38250E+01 0.00000E+00
 -1       289 1.47402E+02 3.67750E+01 0.00000E+00
 -1       290 1.47402E+02 3.97250E+01 0.00000E+00
 -1       291 1.47402E+02 4.26750E+01 0.00000E+00
 -1       292 1.47651E+02 4.50999E+01 0.00000E+00
 -1       293 9.77672E+01 3.64078E+01 0.00000E+00
 -1       294 9.74705E+01 3.46619E+01 0.00000E+00
 -1       295 9.66642E+01 3.30868E+01 0.00000E+00
 -1       296 9.56972E+01 3.15429E+01 0.00000E+00
 -1       297 9.42216E+01 3.04948E+01 0.00000E+00
 -1       298 9.27571E+01 2.95306E+01 0.00000E+00
 -1       299 9.09773E+01 2.88703E+01 0.00000E+00
 -1       300 8.91130E+01 2.91078E+01 0.00000E+00
 -1       301 8.72859E+01 2.92702E+01 0.00000E+00
 -1       302 8.55886E+01 3.00726E+01 0.00000E+00
 -1       303 8.41980E+01 3.11635E+01 0.00000E+00
 -1       304 8.30600E+01 3.24089E+01 0.00000E+00
 -1       305 8.18729E+01 3.38034E+01 0.00000E+00
 -1       306 8.16293E+01 3.56211E+01 0.00000E+00
 -1       307 8.13847E+01 3.73448E+01 0.00000E+00
 -1       308 8.16723E+01 3.90925E+01 0.00000E+00
 -1       309 8.22432E+01 4.07412E+01 0.00000E+00
 -1       310 8.31394E+01 4.22224E+01 0.00000E+00
 -1       311 8.43481E+01 4.34898E+01 0.00000E+00
 -1       312 8.57503E+01 4.46408E+01 0.00000E+00
 -1       313 8.74609E+01 4.51415E+01 0.00000E+00
 -1       314 8.92414E+01 4.55880E+01 0.00000E+00
 -1       315 9.10401E+01 4.53173E+01 0.00000E+00
 -1       316 9.27312E+01 4.49189E+01 0.00000E+00
 -1       317 9.42343E+01 4.40226E+01 0.00000E+00
 -1       318 9.55678E+01 4.28861E+01 0.00000E+00
 -1       319 9.68068E+01 4.15145E+01 0.00000E+00
 -1       320 9.74084E+01 3.98019E+01 0.00000E+00
 -1       321 9.77664E+01 3.81247E+01 0.00000E+00
 -1       322 8.46000E+01 4.77822E+01 0.00000E+00
 -1       323 5.19600E+00 4.11500E+01 0.00000E+00
 -1       324 5.19600E+00 4.41000E+01 0.00000E+00
 -1       325 5.19600E+00 3.52750E+01 0.00000E+00
 -1       326 5.19600E+00 3.23250E+01 0.00000E+00
 -1       327 5.19600E+00 2.93750E+01 0.00000E+00
 -1       328 5.19600E+00 2.64250E+01 0.00000E+00
 -1       329 5.19600E+00 2.34750E+01 0.00000E+00
 -1       330 5.19600E+00 2.05250E+01 0.00000E+00
 -1       331 5.19600E+00 1.76250E+01 0.00000E+00
 -1       332 5.19600E+00 1.46750E+01 0.00000E+00
 -1       333 5.19600E+00 1.17250E+01 0.00000E+00
 -1       334 5.19600E+00 8.77500E+00 0.00000E+00
 -1       335 5.19600E+00 5.82500E+00 0.00000E+00
 -1       336 5.53500E+00 4.00625E+00 0.00000E+00
 -1       337 8.53500E+00 4.00625E+00 0.00000E+00
 -1       338 9.15000E+00 4.48040E+01 0.00000E+00
 -1       339 1.21500E+01 4.48040E+01 0.00000E+00
 -1       340 1.51500E+01 4.48040E+01 0.00000E+00
 -1       341 1.81500E+01 4.48040E+01 0.00000E+00
 -1       342 2.11500E+01 4.48040E+01 0.00000E+00
 -1       343 2.41500E+01 4.48040E+01 0.00000E+00
 -1       344 2.71500E+01 4.48040E+01 0.00000E+00
 -1       345 3.01500E+01 4.48040E+01 0.00000E+00
 -1       346 3.31500E+01 4.48040E+01 0.00000E+00
 -1       347 3.61500E+01 4.48040E+01 0.00000E+00
 -1       348 3.91500E+01 4.48040E+01 0.00000E+00
 -1       349 4.21500E+01 4.48040E+01 0.00000E+00
 -1       350 4.51500E+01 4.48040E+01 0.00000E+00
 -1       351 4.81500E+01 4.48040E+01 0.00000E+00
 -1       352 5.13000E+01 4.48040E+01 0.00000E+00
 -1       353 5.43000E+01 4.48040E+01 0.00000E+00
 -1       354 5.73000E+01 4.48040E+01 0.00000E+00
 -1       355 6.03000E+01 4.48040E+01 0.00000E+00
 -1       356 6.33000E+01 4.48040E+01 0.00000E+00
 -1       357 6.63000E+01 4.48040E+01 0.00000E+00
 -1       358 6.93000E+01 4.48040E+01 0.00000E+00
 -1       359 7.23000E+01 4.48040E+01 0.00000E+00
 -1       360 7.53000E+01 4.48040E+01 0.00000E+00
 -1       361 7.80000E+01 4.48040E+01 0.00000E+00
 -1       362 9.93143E+01 3.72670E+01 0.00000E+00
 -1       363 9.62250E+01 4.57319E+01 0.00000E+00
 -1       364 9.93000E+01 4.55644E+01 0.00000E+00
 -1       365 1.02300E+02 4.55644E+01 0.00000E+00
 -1       366 1.05300E+02 4.55644E+01 0.00000E+00
 -1       367 1.08300E+02 4.55644E+01 0.00000E+00
 -1       368 1.11300E+02 4.55644E+01 0.00000E+00
 -1       369 1.14300E+02 4.55644E+01 0.00000E+00
 -1       370 1.17300E+02 4.55644E+01 0.00000E+00
 -1       371 1.20300E+02 4.55644E+01 0.00000E+00
 -1       372 1.23300E+02 4.55644E+01 0.00000E+00
 -1       373 1.26300E+02 4.55644E+01 0.00000E+00
 -1       374 1.29300E+02 4.55644E+01 0.00000E+00
 -1       375 1.32300E+02 4.55644E+01 0.00000E+00
 -1       376 1.35300E+02 4.55644E+01 0.00000E+00
 -1       377 1.38300E+02 4.55644E+01 0.00000E+00
 -1       378 1.41300E+02 4.55644E+01 0.00000E+00
 -1       379 1.44300E+02 4.55644E+01 0.00000E+00
 -1       380 1.33740E+01 4.78550E+00 0.00000E+00
 -1       381 1.63740E+01 4.78550E+00 0.00000E+00
 -1       382 1.93740E+01 4.78550E+00 0.00000E+00
 -1       383 2.23740E+01 4.78550E+00 0.00000E+00
 -1       384 2.53740E+01 4.78550E+00 0.00000E+00
 -1       385 2.83740E+01 4.78550E+00 0.00000E+00
 -1       386 3.13740E+01 4.78550E+00 0.00000E+00
 -1       387 3.43740E+01 4.78550E+00 0.00000E+00
 -1       388 3.73740E+01 4.78550E+00 0.00000E+00
 -1       389 4.03740E+01 4.78550E+00 0.00000E+00
 -1       390 4.33740E+01 4.78550E+00 0.00000E+00
 -1       391 4.63740E+01 4.78550E+00 0.00000E+00
 -1       392 4.93740E+01 4.78550E+00 0.00000E+00
 -1       393 5.23740E+01 4.78550E+00 0.00000E+00
 -1       394 5.53740E+01 4.78550E+00 0.00000E+00
 -1       395 5.83740E+01 4.78550E+00 0.00000E+00
 -1       396 6.13740E+01 4.78550E+00 0.00000E+00
 -1       397 6.43740E+01 4.78550E+00 0.00000E+00
 -1       398 6.73740E+01 4.78550E+00 0.00000E+00
 -1       399 7.03740E+01 4.78550E+00 0.00000E+00
 -1       400 7.33740E+01 4.78550E+00 0.00000E+00
 -1       401 7.63740E+01 4.78550E+00 0.00000E+00
 -1       402 7.93740E+01 4.78550E+00 0.00000E+00
 -1       403 8.23740E+01 4.78550E+00 0.00000E+00
 -1       404 8.53740E+01 4.78550E+00 0.00000E+00
 -1       405 8.83740E+01 4.78550E+00 0.00000E+00
 -1       406 9.13740E+01 4.78550E+00 0.00000E+00
 -1       407 9.43740E+01 4.78550E+00 0.00000E+00
 -1       408 9.73740E+01 4.78550E+00 0.00000E+00
 -1       409 1.00374E+02 4.78550E+00 0.00000E+00
 -1       410 1.03374E+02 4.78550E+00 0.00000E+00
 -1       411 1.06374E+02 4.78550E+00 0.00000E+00
 -1       412 1.09374E+02 4.78550E+00 0.00000E+00
 -1       413 1.12374E+02 4.78550E+00 0.00000E+00
 -1       414 1.15374E+02 4.78550E+00 0.00000E+00
 -1       415 1.18374E+02 4.78550E+00 0.00000E+00
 -1       416 1.21374E+02 4.78550E+00 0.00000E+00
 -1       417 1.24374E+02 4.78550E+00 0.00000E+00
 -1       418 1.27374E+02 4.78550E+00 0.00000E+00
 -1       419 1.30374E+02 4.78550E+00 0.00000E+00
 -1       420 1.33374E+02 4.78550E+00 0.00000E+00
 -1       421 1.36374E+02 4.78550E+00 0.00000E+00
 -1       422 1.39374E+02 4.78550E+00 0.00000E+00
 -1       423 1.42374E+02 4.78550E+00 0.00000E+00
 -1       424 1.44888E+02 4.60525E+00 0.00000E+00
 -1       425 1.44804E+02 1.18000E+01 0.00000E+00
 -1       426 1.44804E+02 8.85000E+00 0.00000E+00
 -1       427 1.44804E+02 1.47000E+01 0.00000E+00
 -1       428 1.44804E+02 1.76500E+01 0.00000E+00
 -1       429 1.44804E+02 2.06000E+01 0.00000E+00
 -1       430 1.44804E+02 2.35500E+01 0.00000E+00
 -1       431 1.44804E+02 2.65000E+01 0.00000E+00
 -1       432 1.44804E+02 2.94500E+01 0.00000E+00
 -1       433 1.44804E+02 3.23500E+01 0.00000E+00
 -1       434 1.44804E+02 3.53000E+01 0.00000E+00
 -1       435 1.44804E+02 3.82500E+01 0.00000E+00
 -1       436 1.44804E+02 4.12000E+01 0.00000E+00
 -1       437 1.09545E+01 4.39587E+00 0.00000E+00
 -1       438 9.85195E+01 3.31310E+01 0.00000E+00
 -1       439 9.57100E+01 2.99621E+01 0.00000E+00
 -1       440 8.34891E+01 4.58937E+01 0.00000E+00
 -1       441 5.19600E+00 3.82125E+01 0.00000E+00
 -1       442 9.42022E+01 2.89301E+01 0.00000E+00
 -1       443 9.23180E+01 2.79852E+01 0.00000E+00
 -1       444 8.98495E+01 2.74539E+01 0.00000E+00
 -1       445 8.80224E+01 2.76163E+01 0.00000E+00
 -1       446 8.57758E+01 2.82723E+01 0.00000E+00
 -1       447 8.38864E+01 2.93346E+01 0.00000E+00
 -1       448 8.26103E+01 3.08553E+01 0.00000E+00
 -1       449 8.13518E+01 3.21574E+01 0.00000E+00
 -1       450 8.03834E+01 3.45289E+01 0.00000E+00
 -1       451 8.01388E+01 3.62526E+01 0.00000E+00
 -1       452 8.01668E+01 3.84427E+01 0.00000E+00
 -1       453 8.07329E+01 4.03410E+01 0.00000E+00
 -1       454 8.13673E+01 4.22829E+01 0.00000E+00
 -1       455 8.28057E+01 4.37507E+01 0.00000E+00
 -1       456 8.42268E+01 4.50672E+01 0.00000E+00
 -1       457 8.62415E+01 4.61351E+01 0.00000E+00
 -1       458 8.80155E+01 4.67033E+01 0.00000E+00
 -1       459 9.41896E+01 4.56560E+01 0.00000E+00
 -1       460 9.57418E+01 4.44409E+01 0.00000E+00
 -1       461 9.72113E+01 4.31254E+01 0.00000E+00
 -1       462 9.84096E+01 4.11155E+01 0.00000E+00
 -1       463 9.89370E+01 3.92513E+01 0.00000E+00
 -1       464 9.75525E+01 3.15871E+01 0.00000E+00
 -1       465 9.91445E+01 3.52756E+01 0.00000E+00
 -1       466 8.07000E+01 4.55193E+01 0.00000E+00
 -1       467 9.31273E+01 4.59523E+01 0.00000E+00
 -1       468 1.44552E+02 4.33822E+01 0.00000E+00
 -1       469 9.75653E+01 3.00063E+01 0.00000E+00
 -1       470 7.98623E+01 3.28829E+01 0.00000E+00
 -1       471 9.11903E+01 2.65688E+01 0.00000E+00
 -1       472 7.79400E+00 3.08500E+01 0.00000E+00
 -1       473 7.79400E+00 3.38000E+01 0.00000E+00
 -1       474 7.79400E+00 2.49500E+01 0.00000E+00
 -1       475 7.79400E+00 2.20000E+01 0.00000E+00
 -1       476 7.79400E+00 1.91000E+01 0.00000E+00
 -1       477 7.79400E+00 1.61500E+01 0.00000E+00
 -1       478 7.79400E+00 1.32000E+01 0.00000E+00
 -1       479 7.79400E+00 1.02500E+01 0.00000E+00
 -1       480 7.79400E+00 7.30000E+00 0.00000E+00
 -1       481 8.16450E+00 5.65312E+00 0.00000E+00
 -1       482 1.06500E+01 4.22060E+01 0.00000E+00
 -1       483 1.00938E+02 3.61256E+01 0.00000E+00
 -1       484 1.36500E+01 4.22060E+01 0.00000E+00
 -1       485 1.66500E+01 4.22060E+01 0.00000E+00
 -1       486 1.96500E+01 4.22060E+01 0.00000E+00
 -1       487 2.26500E+01 4.22060E+01 0.00000E+00
 -1       488 2.56500E+01 4.22060E+01 0.00000E+00
 -1       489 2.86500E+01 4.22060E+01 0.00000E+00
 -1       490 3.16500E+01 4.22060E+01 0.00000E+00
 -1       491 3.46500E+01 4.22060E+01 0.00000E+00
 -1       492 3.76500E+01 4.22060E+01 0.00000E+00
 -1       493 4.06500E+01 4.22060E+01 0.00000E+00
 -1       494 4.36500E+01 4.22060E+01 0.00000E+00
 -1       495 4.66500E+01 4.22060E+01 0.00000E+00
 -1       496 4.98000E+01 4.22060E+01 0.00000E+00
 -1       497 5.28000E+01 4.22060E+01 0.00000E+00
 -1       498 5.58000E+01 4.22060E+01 0.00000E+00
 -1       499 5.88000E+01 4.22060E+01 0.00000E+00
 -1       500 6.18000E+01 4.22060E+01 0.00000E+00
 -1       501 6.48000E+01 4.22060E+01 0.00000E+00
 -1       502 6.78000E+01 4.22060E+01 0.00000E+00
 -1       503 7.08000E+01 4.22060E+01 0.00000E+00
 -1       504 7.38000E+01 4.22060E+01 0.00000E+00
 -1       505 7.66500E+01 4.29213E+01 0.00000E+00
 -1       506 9.59248E+01 2.80307E+01 0.00000E+00
 -1       507 1.00318E+02 3.37703E+01 0.00000E+00
 -1       508 1.03800E+02 4.29664E+01 0.00000E+00
 -1       509 1.06800E+02 4.29664E+01 0.00000E+00
 -1       510 1.09800E+02 4.29664E+01 0.00000E+00
 -1       511 1.12800E+02 4.29664E+01 0.00000E+00
 -1       512 1.15800E+02 4.29664E+01 0.00000E+00
 -1       513 1.18800E+02 4.29664E+01 0.00000E+00
 -1       514 1.21800E+02 4.29664E+01 0.00000E+00
 -1       515 1.24800E+02 4.29664E+01 0.00000E+00
 -1       516 1.27800E+02 4.29664E+01 0.00000E+00
 -1       517 1.30800E+02 4.29664E+01 0.00000E+00
 -1       518 1.33800E+02 4.29664E+01 0.00000E+00
 -1       519 1.36800E+02 4.29664E+01 0.00000E+00
 -1       520 1.39800E+02 4.29664E+01 0.00000E+00
 -1       521 1.42176E+02 4.31743E+01 0.00000E+00
 -1       522 2.08740E+01 7.38350E+00 0.00000E+00
 -1       523 1.78740E+01 7.38350E+00 0.00000E+00
 -1       524 1.48740E+01 7.38350E+00 0.00000E+00
 -1       525 2.38740E+01 7.38350E+00 0.00000E+00
 -1       526 2.68740E+01 7.38350E+00 0.00000E+00
 -1       527 2.98740E+01 7.38350E+00 0.00000E+00
 -1       528 3.28740E+01 7.38350E+00 0.00000E+00
 -1       529 3.58740E+01 7.38350E+00 0.00000E+00
 -1       530 3.88740E+01 7.38350E+00 0.00000E+00
 -1       531 4.18740E+01 7.38350E+00 0.00000E+00
 -1       532 4.48740E+01 7.38350E+00 0.00000E+00
 -1       533 4.78740E+01 7.38350E+00 0.00000E+00
 -1       534 5.08740E+01 7.38350E+00 0.00000E+00
 -1       535 5.38740E+01 7.38350E+00 0.00000E+00
 -1       536 5.68740E+01 7.38350E+00 0.00000E+00
 -1       537 5.98740E+01 7.38350E+00 0.00000E+00
 -1       538 6.28740E+01 7.38350E+00 0.00000E+00
 -1       539 6.58740E+01 7.38350E+00 0.00000E+00
 -1       540 6.88740E+01 7.38350E+00 0.00000E+00
 -1       541 7.18740E+01 7.38350E+00 0.00000E+00
 -1       542 7.48740E+01 7.38350E+00 0.00000E+00
 -1       543 7.78740E+01 7.38350E+00 0.00000E+00
 -1       544 8.08740E+01 7.38350E+00 0.00000E+00
 -1       545 8.38740E+01 7.38350E+00 0.00000E+00
 -1       546 8.68740E+01 7.38350E+00 0.00000E+00
 -1       547 8.98740E+01 7.38350E+00 0.00000E+00
 -1       548 9.28740E+01 7.38350E+00 0.00000E+00
 -1       549 9.58740E+01 7.38350E+00 0.00000E+00
 -1       550 9.88740E+01 7.38350E+00 0.00000E+00
 -1       551 1.01874E+02 7.38350E+00 0.00000E+00
 -1       552 1.04874E+02 7.38350E+00 0.00000E+00
 -1       553 1.07874E+02 7.38350E+00 0.00000E+00
 -1       554 1.10874E+02 7.38350E+00 0.00000E+00
 -1       555 1.13874E+02 7.38350E+00 0.00000E+00
 -1       556 1.16874E+02 7.38350E+00 0.00000E+00
 -1       557 1.19874E+02 7.38350E+00 0.00000E+00
 -1       558 1.22874E+02 7.38350E+00 0.00000E+00
 -1       559 1.25874E+02 7.38350E+00 0.00000E+00
 -1       560 1.28874E+02 7.38350E+00 0.00000E+00
 -1       561 1.31874E+02 7.38350E+00 0.00000E+00
 -1       562 1.34874E+02 7.38350E+00 0.00000E+00
 -1       563 1.37874E+02 7.38350E+00 0.00000E+00
 -1       564 1.40874E+02 7.38350E+00 0.00000E+00
 -1       565 1.42206E+02 1.61750E+01 0.00000E+00
 -1       566 1.42206E+02 1.32750E+01 0.00000E+00
 -1       567 1.42206E+02 1.03250E+01 0.00000E+00
 -1       568 1.42206E+02 1.91250E+01 0.00000E+00
 -1       569 1.42206E+02 2.20750E+01 0.00000E+00
 -1       570 1.42206E+02 2.50250E+01 0.00000E+00
 -1       571 1.42206E+02 2.79750E+01 0.00000E+00
 -1       572 1.42206E+02 3.08750E+01 0.00000E+00
 -1       573 1.42206E+02 3.38250E+01 0.00000E+00
 -1       574 1.42206E+02 3.67750E+01 0.00000E+00
 -1       575 1.42206E+02 3.97250E+01 0.00000E+00
 -1       576 7.92300E+00 4.16780E+01 0.00000E+00
 -1       577 1.00001E+02 4.05591E+01 0.00000E+00
 -1       578 9.40407E+01 2.70858E+01 0.00000E+00
 -1       579 7.79400E+00 2.79000E+01 0.00000E+00
 -1       580 7.97892E+01 4.35037E+01 0.00000E+00
 -1       581 8.87842E+01 2.58267E+01 0.00000E+00
 -1       582 7.88063E+01 3.98820E+01 0.00000E+00
 -1       583 8.64184E+01 2.62980E+01 0.00000E+00
 -1       584 8.19345E+01 2.89925E+01 0.00000E+00
 -1       585 8.06761E+01 3.02945E+01 0.00000E+00
 -1       586 7.88118E+01 3.51851E+01 0.00000E+00
 -1       587 7.85216E+01 3.73686E+01 0.00000E+00
 -1       588 7.95790E+01 4.17925E+01 0.00000E+00
 -1       589 8.39085E+01 2.71623E+01 0.00000E+00
 -1       590 9.92116E+01 4.29559E+01 0.00000E+00
 -1       591 9.94895E+01 3.14487E+01 0.00000E+00
 -1       592 1.00728E+02 3.85639E+01 0.00000E+00
 -1       593 7.79400E+00 3.67375E+01 0.00000E+00
 -1       594 1.05840E+01 6.04275E+00 0.00000E+00
 -1       595 9.77421E+01 4.42714E+01 0.00000E+00
 -1       596 8.23228E+01 4.40066E+01 0.00000E+00
 -1       597 1.27290E+01 6.71313E+00 0.00000E+00
 -1       598 7.91865E+01 3.10200E+01 0.00000E+00
 -1       599 9.29129E+01 2.56695E+01 0.00000E+00
 -1       600 7.82907E+01 3.35391E+01 0.00000E+00
 -1       601 1.03920E+01 2.05500E+01 0.00000E+00
 -1       602 1.03920E+01 2.35000E+01 0.00000E+00
 -1       603 1.03920E+01 1.46750E+01 0.00000E+00
 -1       604 1.03920E+01 1.17250E+01 0.00000E+00
 -1       605 1.02135E+01 7.68962E+00 0.00000E+00
 -1       606 1.21500E+01 3.96080E+01 0.00000E+00
 -1       607 7.78863E+01 4.27664E+01 0.00000E+00
 -1       608 1.51500E+01 3.96080E+01 0.00000E+00
 -1       609 1.81500E+01 3.96080E+01 0.00000E+00
 -1       610 2.11500E+01 3.96080E+01 0.00000E+00
 -1       611 2.41500E+01 3.96080E+01 0.00000E+00
 -1       612 2.71500E+01 3.96080E+01 0.00000E+00
 -1       613 3.01500E+01 3.96080E+01 0.00000E+00
 -1       614 3.31500E+01 3.96080E+01 0.00000E+00
 -1       615 3.61500E+01 3.96080E+01 0.00000E+00
 -1       616 3.91500E+01 3.96080E+01 0.00000E+00
 -1       617 4.21500E+01 3.96080E+01 0.00000E+00
 -1       618 4.51500E+01 3.96080E+01 0.00000E+00
 -1       619 4.83000E+01 3.96080E+01 0.00000E+00
 -1       620 5.13000E+01 3.96080E+01 0.00000E+00
 -1       621 5.43000E+01 3.96080E+01 0.00000E+00
 -1       622 5.73000E+01 3.96080E+01 0.00000E+00
 -1       623 6.03000E+01 3.96080E+01 0.00000E+00
 -1       624 6.33000E+01 3.96080E+01 0.00000E+00
 -1       625 6.63000E+01 3.96080E+01 0.00000E+00
 -1       626 6.93000E+01 3.96080E+01 0.00000E+00
 -1       627 7.23000E+01 3.96080E+01 0.00000E+00
 -1       628 9.84513E+01 2.76017E+01 0.00000E+00
 -1       629 1.39206E+02 1.03250E+01 0.00000E+00
 -1       630 8.72335E+01 2.42159E+01 0.00000E+00
 -1       631 7.70496E+01 3.60619E+01 0.00000E+00
 -1       632 1.08300E+02 4.04134E+01 0.00000E+00
 -1       633 1.11300E+02 4.04134E+01 0.00000E+00
 -1       634 1.14300E+02 4.04134E+01 0.00000E+00
 -1       635 1.17300E+02 4.04134E+01 0.00000E+00
 -1       636 1.20300E+02 4.04134E+01 0.00000E+00
 -1       637 1.23300E+02 4.04134E+01 0.00000E+00
 -1       638 1.26300E+02 4.04134E+01 0.00000E+00
 -1       639 1.29300E+02 4.04134E+01 0.00000E+00
 -1       640 1.32300E+02 4.04134E+01 0.00000E+00
 -1       641 1.35300E+02 4.04134E+01 0.00000E+00
 -1       642 1.38300E+02 4.04134E+01 0.00000E+00
 -1       643 1.93740E+01 9.98150E+00 0.00000E+00
 -1       644 2.23740E+01 9.98150E+00 0.00000E+00
 -1       645 1.63740E+01 9.98150E+00 0.00000E+00
 -1       646 2.83740E+01 9.98150E+00 0.00000E+00
 -1       647 3.13740E+01 9.98150E+00 0.00000E+00
 -1       648 3.43740E+01 9.98150E+00 0.00000E+00
 -1       649 3.73740E+01 9.98150E+00 0.00000E+00
 -1       650 4.03740E+01 9.98150E+00 0.00000E+00
 -1       651 4.33740E+01 9.98150E+00 0.00000E+00
 -1       652 4.63740E+01 9.98150E+00 0.00000E+00
 -1       653 4.93740E+01 9.98150E+00 0.00000E+00
 -1       654 5.23740E+01 9.98150E+00 0.00000E+00
 -1       655 5.53740E+01 9.98150E+00 0.00000E+00
 -1       656 5.83740E+01 9.98150E+00 0.00000E+00
 -1       657 6.13740E+01 9.98150E+00 0.00000E+00
 -1       658 6.43740E+01 9.98150E+00 0.00000E+00
 -1       659 6.73740E+01 9.98150E+00 0.00000E+00
 -1       660 7.03740E+01 9.98150E+00 0.00000E+00
 -1       661 7.33740E+01 9.98150E+00 0.00000E+00
 -1       662 7.63740E+01 9.98150E+00 0.00000E+00
 -1       663 7.93740E+01 9.98150E+00 0.00000E+00
 -1       664 8.23740E+01 9.98150E+00 0.00000E+00
 -1       665 8.53740E+01 9.98150E+00 0.00000E+00
 -1       666 8.83740E+01 9.98150E+00 0.00000E+00
 -1       667 9.13740E+01 9.98150E+00 0.00000E+00
 -1       668 9.43740E+01 9.98150E+00 0.00000E+00
 -1       669 9.73740E+01 9.98150E+00 0.00000E+00
 -1       670 1.00374E+02 9.98150E+00 0.00000E+00
 -1       671 1.03374E+02 9.98150E+00 0.00000E+00
 -1       672 1.06374E+02 9.98150E+00 0.00000E+00
 -1       673 1.09374E+02 9.98150E+00 0.00000E+00
 -1       674 1.12374E+02 9.98150E+00 0.00000E+00
 -1       675 1.15374E+02 9.98150E+00 0.00000E+00
 -1       676 1.18374E+02 9.98150E+00 0.00000E+00
 -1       677 1.21374E+02 9.98150E+00 0.00000E+00
 -1       678 1.24374E+02 9.98150E+00 0.00000E+00
 -1       679 1.27374E+02 9.98150E+00 0.00000E+00
 -1       680 1.30374E+02 9.98150E+00 0.00000E+00
 -1       681 1.33374E+02 9.98150E+00 0.00000E+00
 -1       682 1.36290E+02 1.01532E+01 0.00000E+00
 -1       683 1.02709E+02 3.75064E+01 0.00000E+00
 -1       684 1.39608E+02 2.06000E+01 0.00000E+00
 -1       685 8.44958E+01 2.47916E+01 0.00000E+00
 -1       686 1.39608E+02 1.76500E+01 0.00000E+00
 -1       687 1.39608E+02 2.35500E+01 0.00000E+00
 -1       688 2.53740E+01 9.98150E+00 0.00000E+00
 -1       689 1.39608E+02 2.65000E+01 0.00000E+00
 -1       690 1.39608E+02 2.94000E+01 0.00000E+00
 -1       691 1.39608E+02 3.23500E+01 0.00000E+00
 -1       692 1.39608E+02 3.53000E+01 0.00000E+00
 -1       693 1.02206E+02 3.45323E+01 0.00000E+00
 -1       694 1.01993E+02 3.18643E+01 0.00000E+00
 -1       695 1.01976E+02 4.01488E+01 0.00000E+00
 -1       696 7.69597E+01 3.88183E+01 0.00000E+00
 -1       697 8.16415E+01 2.66968E+01 0.00000E+00
 -1       698 9.04927E+01 2.45588E+01 0.00000E+00
 -1       699 8.03830E+01 2.79988E+01 0.00000E+00
 -1       700 7.71136E+01 4.08560E+01 0.00000E+00
 -1       701 1.39608E+02 1.47500E+01 0.00000E+00
 -1       702 1.00376E+02 2.90440E+01 0.00000E+00
 -1       703 9.58267E+01 2.58754E+01 0.00000E+00
 -1       704 1.05300E+02 4.04134E+01 0.00000E+00
 -1       705 1.03920E+01 3.23250E+01 0.00000E+00
 -1       706 1.03920E+01 1.76125E+01 0.00000E+00
 -1       707 1.03920E+01 2.64500E+01 0.00000E+00
 -1       708 1.03920E+01 2.93875E+01 0.00000E+00
 -1       709 1.03920E+01 3.52625E+01 0.00000E+00
 -1       710 7.88935E+01 2.87243E+01 0.00000E+00
 -1       711 1.33741E+01 9.98153E+00 0.00000E+00
 -1       712 1.05210E+01 3.87342E+01 0.00000E+00
 -1       713 8.89420E+01 2.29480E+01 0.00000E+00
 -1       714 7.53799E+01 4.05122E+01 0.00000E+00
 -1       715 1.39608E+02 3.82500E+01 0.00000E+00
 -1       716 7.76150E+01 3.16762E+01 0.00000E+00
 -1       717 7.65285E+01 3.44158E+01 0.00000E+00
 -1       718 9.46990E+01 2.44590E+01 0.00000E+00
 -1       719 8.22288E+01 2.43261E+01 0.00000E+00
 -1       720 1.29900E+01 1.32000E+01 0.00000E+00
 -1       721 1.04477E+02 3.30085E+01 0.00000E+00
 -1       722 7.94175E+01 2.58065E+01 0.00000E+00
 -1       723 1.66500E+01 3.70100E+01 0.00000E+00
 -1       724 1.96500E+01 3.70100E+01 0.00000E+00
 -1       725 2.26500E+01 3.70100E+01 0.00000E+00
 -1       726 2.56500E+01 3.70100E+01 0.00000E+00
 -1       727 2.86500E+01 3.70100E+01 0.00000E+00
 -1       728 3.16500E+01 3.70100E+01 0.00000E+00
 -1       729 3.46500E+01 3.70100E+01 0.00000E+00
 -1       730 3.76500E+01 3.70100E+01 0.00000E+00
 -1       731 4.06500E+01 3.70100E+01 0.00000E+00
 -1       732 4.36500E+01 3.70100E+01 0.00000E+00
 -1       733 4.68000E+01 3.70100E+01 0.00000E+00
 -1       734 4.98000E+01 3.70100E+01 0.00000E+00
 -1       735 5.28000E+01 3.70100E+01 0.00000E+00
 -1       736 5.58000E+01 3.70100E+01 0.00000E+00
 -1       737 5.88000E+01 3.70100E+01 0.00000E+00
 -1       738 6.18000E+01 3.70100E+01 0.00000E+00
 -1       739 6.48000E+01 3.70100E+01 0.00000E+00
 -1       740 6.78000E+01 3.70100E+01 0.00000E+00
 -1       741 7.08000E+01 3.70100E+01 0.00000E+00
 -1       742 1.48741E+01 1.25795E+01 0.00000E+00
 -1       743 1.12800E+02 3.78604E+01 0.00000E+00
 -1       744 1.15800E+02 3.78604E+01 0.00000E+00
 -1       745 1.18800E+02 3.78604E+01 0.00000E+00
 -1       746 1.21800E+02 3.78604E+01 0.00000E+00
 -1       747 1.24800E+02 3.78604E+01 0.00000E+00
 -1       748 1.27800E+02 3.78604E+01 0.00000E+00
 -1       749 1.30800E+02 3.78604E+01 0.00000E+00
 -1       750 1.33800E+02 3.78604E+01 0.00000E+00
 -1       751 1.36704E+02 3.80552E+01 0.00000E+00
 -1       752 1.37010E+02 3.08750E+01 0.00000E+00
 -1       753 1.04980E+02 3.59826E+01 0.00000E+00
 -1       754 2.08740E+01 1.25795E+01 0.00000E+00
 -1       755 1.78740E+01 1.25795E+01 0.00000E+00
 -1       756 3.28740E+01 1.25795E+01 0.00000E+00
 -1       757 2.98740E+01 1.25795E+01 0.00000E+00
 -1       758 3.88740E+01 1.25795E+01 0.00000E+00
 -1       759 4.18740E+01 1.25795E+01 0.00000E+00
 -1       760 4.48740E+01 1.25795E+01 0.00000E+00
 -1       761 4.78740E+01 1.25795E+01 0.00000E+00
 -1       762 5.08740E+01 1.25795E+01 0.00000E+00
 -1       763 5.38740E+01 1.25795E+01 0.00000E+00
 -1       764 5.68740E+01 1.25795E+01 0.00000E+00
 -1       765 5.98740E+01 1.25795E+01 0.00000E+00
 -1       766 6.28740E+01 1.25795E+01 0.00000E+00
 -1       767 6.58740E+01 1.25795E+01 0.00000E+00
 -1       768 6.88740E+01 1.25795E+01 0.00000E+00
 -1       769 7.18740E+01 1.25795E+01 0.00000E+00
 -1       770 7.48740E+01 1.25795E+01 0.00000E+00
 -1       771 7.78740E+01 1.25795E+01 0.00000E+00
 -1       772 8.08740E+01 1.25795E+01 0.00000E+00
 -1       773 8.38740E+01 1.25795E+01 0.00000E+00
 -1       774 8.68740E+01 1.25795E+01 0.00000E+00
 -1       775 8.98740E+01 1.25795E+01 0.00000E+00
 -1       776 9.28740E+01 1.25795E+01 0.00000E+00
 -1       777 9.58740E+01 1.25795E+01 0.00000E+00
 -1       778 9.88740E+01 1.25795E+01 0.00000E+00
 -1       779 1.01874E+02 1.25795E+01 0.00000E+00
 -1       780 1.04874E+02 1.25795E+01 0.00000E+00
 -1       781 1.07874E+02 1.25795E+01 0.00000E+00
 -1       782 1.10874E+02 1.25795E+01 0.00000E+00
 -1       783 1.13874E+02 1.25795E+01 0.00000E+00
 -1       784 1.16874E+02 1.25795E+01 0.00000E+00
 -1       785 1.19874E+02 1.25795E+01 0.00000E+00
 -1       786 1.22874E+02 1.25795E+01 0.00000E+00
 -1       787 1.25874E+02 1.25795E+01 0.00000E+00
 -1       788 1.28874E+02 1.25795E+01 0.00000E+00
 -1       789 1.31874E+02 1.25795E+01 0.00000E+00
 -1       790 1.37010E+02 2.79750E+01 0.00000E+00
 -1       791 8.54083E+01 2.23334E+01 0.00000E+00
 -1       792 1.37010E+02 3.38250E+01 0.00000E+00
 -1       793 7.38799E+01 3.79142E+01 0.00000E+00
 -1       794 1.01235E+02 4.22941E+01 0.00000E+00
 -1       795 1.27710E+01 3.74352E+01 0.00000E+00
 -1       796 1.36692E+02 1.45782E+01 0.00000E+00
 -1       797 1.37010E+02 1.91250E+01 0.00000E+00
 -1       798 3.58740E+01 1.25795E+01 0.00000E+00
 -1       799 1.09800E+02 3.78604E+01 0.00000E+00
 -1       800 9.22787E+01 2.33484E+01 0.00000E+00
 -1       801 1.37010E+02 2.20750E+01 0.00000E+00
 -1       802 1.36851E+02 1.68516E+01 0.00000E+00
 -1       803 1.00643E+02 2.66823E+01 0.00000E+00
 -1       804 1.29900E+01 2.20250E+01 0.00000E+00
 -1       805 1.06800E+02 3.83631E+01 0.00000E+00
 -1       806 1.02963E+02 2.94344E+01 0.00000E+00
 -1       807 9.82657E+01 2.50256E+01 0.00000E+00
 -1       808 1.37010E+02 2.50250E+01 0.00000E+00
 -1       809 1.05447E+02 3.05786E+01 0.00000E+00
 -1       810 1.29900E+01 3.08563E+01 0.00000E+00
 -1       811 1.29900E+01 2.49750E+01 0.00000E+00
 -1       812 8.11470E+01 4.41038E+01 0.00000E+00
 -1       813 1.29900E+01 1.61375E+01 0.00000E+00
 -1       814 1.29900E+01 3.37938E+01 0.00000E+00
 -1       815 7.73219E+01 2.93805E+01 0.00000E+00
 -1       816 9.07281E+01 2.17376E+01 0.00000E+00
 -1       817 8.71168E+01 2.10655E+01 0.00000E+00
 -1       818 2.38740E+01 1.25795E+01 0.00000E+00
 -1       819 2.68740E+01 1.25795E+01 0.00000E+00
 -1       820 1.34283E+02 1.35789E+01 0.00000E+00
 -1       821 1.03230E+02 2.70727E+01 0.00000E+00
 -1       822 8.31413E+01 2.18679E+01 0.00000E+00
 -1       823 7.79280E+01 2.65320E+01 0.00000E+00
 -1       824 7.58528E+01 3.25530E+01 0.00000E+00
 -1       825 9.71380E+01 2.36092E+01 0.00000E+00
 -1       826 1.29900E+01 1.90875E+01 0.00000E+00
 -1       827 7.45149E+01 3.53625E+01 0.00000E+00
 -1       828 1.29900E+01 2.79188E+01 0.00000E+00
 -1       829 7.96127E+01 2.27676E+01 0.00000E+00
 -1       830 1.07980E+02 3.54799E+01 0.00000E+00
 -1       831 2.11500E+01 3.44120E+01 0.00000E+00
 -1       832 2.41500E+01 3.44120E+01 0.00000E+00
 -1       833 2.71500E+01 3.44120E+01 0.00000E+00
 -1       834 3.01500E+01 3.44120E+01 0.00000E+00
 -1       835 3.31500E+01 3.44120E+01 0.00000E+00
 -1       836 3.61500E+01 3.44120E+01 0.00000E+00
 -1       837 3.91500E+01 3.44120E+01 0.00000E+00
 -1       838 4.21500E+01 3.44120E+01 0.00000E+00
 -1       839 4.53000E+01 3.44120E+01 0.00000E+00
 -1       840 4.83000E+01 3.44120E+01 0.00000E+00
 -1       841 5.13000E+01 3.44120E+01 0.00000E+00
 -1       842 5.43000E+01 3.44120E+01 0.00000E+00
 -1       843 5.73000E+01 3.44120E+01 0.00000E+00
 -1       844 6.03000E+01 3.44120E+01 0.00000E+00
 -1       845 6.33000E+01 3.44120E+01 0.00000E+00
 -1       846 6.63000E+01 3.44120E+01 0.00000E+00
 -1       847 6.93000E+01 3.44120E+01 0.00000E+00
 -1       848 9.42741E+01 2.21926E+01 0.00000E+00
 -1       849 1.17300E+02 3.52624E+01 0.00000E+00
 -1       850 1.20300E+02 3.52624E+01 0.00000E+00
 -1       851 1.23300E+02 3.52624E+01 0.00000E+00
 -1       852 1.26300E+02 3.52624E+01 0.00000E+00
 -1       853 1.29300E+02 3.52624E+01 0.00000E+00
 -1       854 1.32300E+02 3.52624E+01 0.00000E+00
 -1       855 1.34655E+02 3.45437E+01 0.00000E+00
 -1       856 1.06714E+02 3.30292E+01 0.00000E+00
 -1       857 3.13740E+01 1.51775E+01 0.00000E+00
 -1       858 4.33740E+01 1.51775E+01 0.00000E+00
 -1       859 4.03740E+01 1.51775E+01 0.00000E+00
 -1       860 4.93740E+01 1.51775E+01 0.00000E+00
 -1       861 5.23740E+01 1.51775E+01 0.00000E+00
 -1       862 5.53740E+01 1.51775E+01 0.00000E+00
 -1       863 5.83740E+01 1.51775E+01 0.00000E+00
 -1       864 6.13740E+01 1.51775E+01 0.00000E+00
 -1       865 6.43740E+01 1.51775E+01 0.00000E+00
 -1       866 6.73740E+01 1.51775E+01 0.00000E+00
 -1       867 7.03740E+01 1.51775E+01 0.00000E+00
 -1       868 7.33740E+01 1.51775E+01 0.00000E+00
 -1       869 7.63740E+01 1.51775E+01 0.00000E+00
 -1       870 7.93740E+01 1.51775E+01 0.00000E+00
 -1       871 8.23740E+01 1.51775E+01 0.00000E+00
 -1       872 8.53740E+01 1.51775E+01 0.00000E+00
 -1       873 8.83740E+01 1.51775E+01 0.00000E+00
 -1       874 9.13740E+01 1.51775E+01 0.00000E+00
 -1       875 9.43740E+01 1.51775E+01 0.00000E+00
 -1       876 9.73740E+01 1.51775E+01 0.00000E+00
 -1       877 1.00374E+02 1.51775E+01 0.00000E+00
 -1       878 1.03374E+02 1.51775E+01 0.00000E+00
 -1       879 1.06374E+02 1.51775E+01 0.00000E+00
 -1       880 1.09374E+02 1.51775E+01 0.00000E+00
 -1       881 1.12374E+02 1.51775E+01 0.00000E+00
 -1       882 1.15374E+02 1.51775E+01 0.00000E+00
 -1       883 1.18374E+02 1.51775E+01 0.00000E+00
 -1       884 1.21374E+02 1.51775E+01 0.00000E+00
 -1       885 1.24374E+02 1.51775E+01 0.00000E+00
 -1       886 1.27374E+02 1.51775E+01 0.00000E+00
 -1       887 1.30374E+02 1.51775E+01 0.00000E+00
 -1       888 1.34412E+02 2.94250E+01 0.00000E+00
 -1       889 4.63740E+01 1.51775E+01 0.00000E+00
 -1       890 1.34533E+02 3.19844E+01 0.00000E+00
 -1       891 7.19074E+01 3.48873E+01 0.00000E+00
 -1       892 1.11300E+02 3.53074E+01 0.00000E+00
 -1       893 1.14300E+02 3.52624E+01 0.00000E+00
 -1       894 1.34412E+02 2.06000E+01 0.00000E+00
 -1       895 1.81500E+01 3.44120E+01 0.00000E+00
 -1       896 1.34412E+02 2.64750E+01 0.00000E+00
 -1       897 1.48741E+01 1.55170E+01 0.00000E+00
 -1       898 1.00818E+02 2.38969E+01 0.00000E+00
 -1       899 7.38391E+01 3.34997E+01 0.00000E+00
 -1       900 1.34412E+02 2.35375E+01 0.00000E+00
 -1       901 7.81231E+01 2.34930E+01 0.00000E+00
 -1       902 1.05715E+02 2.82169E+01 0.00000E+00
 -1       903 1.55880E+01 2.35000E+01 0.00000E+00
 -1       904 1.55700E+01 3.26341E+01 0.00000E+00
 -1       905 9.27234E+01 2.05818E+01 0.00000E+00
 -1       906 1.03405E+02 2.42873E+01 0.00000E+00
 -1       907 7.55597E+01 3.02573E+01 0.00000E+00
 -1       908 8.89028E+01 1.98550E+01 0.00000E+00
 -1       909 8.49408E+01 1.99185E+01 0.00000E+00
 -1       910 2.83740E+01 1.51775E+01 0.00000E+00
 -1       911 1.34442E+02 1.58523E+01 0.00000E+00
 -1       912 3.73740E+01 1.51775E+01 0.00000E+00
 -1       913 2.23740E+01 1.51775E+01 0.00000E+00
 -1       914 1.93740E+01 1.51775E+01 0.00000E+00
 -1       915 1.55700E+01 2.96966E+01 0.00000E+00
 -1       916 1.34253E+02 1.83266E+01 0.00000E+00
 -1       917 3.43740E+01 1.51775E+01 0.00000E+00
 -1       918 9.96905E+01 2.24805E+01 0.00000E+00
 -1       919 1.55880E+01 2.05625E+01 0.00000E+00
 -1       920 1.83342E+01 3.13838E+01 0.00000E+00
 -1       921 2.56500E+01 3.18140E+01 0.00000E+00
 -1       922 2.86500E+01 3.18140E+01 0.00000E+00
 -1       923 3.16500E+01 3.18140E+01 0.00000E+00
 -1       924 3.46500E+01 3.18140E+01 0.00000E+00
 -1       925 3.76500E+01 3.18140E+01 0.00000E+00
 -1       926 4.06500E+01 3.18140E+01 0.00000E+00
 -1       927 4.38000E+01 3.18140E+01 0.00000E+00
 -1       928 4.68000E+01 3.18140E+01 0.00000E+00
 -1       929 4.98000E+01 3.18140E+01 0.00000E+00
 -1       930 5.28000E+01 3.18140E+01 0.00000E+00
 -1       931 5.58000E+01 3.18140E+01 0.00000E+00
 -1       932 5.88000E+01 3.18140E+01 0.00000E+00
 -1       933 6.18000E+01 3.18140E+01 0.00000E+00
 -1       934 6.48000E+01 3.18140E+01 0.00000E+00
 -1       935 6.78000E+01 3.18140E+01 0.00000E+00
 -1       936 9.66894E+01 2.09130E+01 0.00000E+00
 -1       937 2.53740E+01 1.51775E+01 0.00000E+00
 -1       938 1.21800E+02 3.26644E+01 0.00000E+00
 -1       939 1.24800E+02 3.26644E+01 0.00000E+00
 -1       940 1.27800E+02 3.26644E+01 0.00000E+00
 -1       941 1.30800E+02 3.26644E+01 0.00000E+00
 -1       942 1.32667E+02 3.23244E+01 0.00000E+00
 -1       943 4.18740E+01 1.77755E+01 0.00000E+00
 -1       944 5.38740E+01 1.77755E+01 0.00000E+00
 -1       945 5.08740E+01 1.77755E+01 0.00000E+00
 -1       946 5.98740E+01 1.77755E+01 0.00000E+00
 -1       947 6.28740E+01 1.77755E+01 0.00000E+00
 -1       948 6.58740E+01 1.77755E+01 0.00000E+00
 -1       949 6.88740E+01 1.77755E+01 0.00000E+00
 -1       950 7.18740E+01 1.77755E+01 0.00000E+00
 -1       951 7.48740E+01 1.77755E+01 0.00000E+00
 -1       952 7.78740E+01 1.77755E+01 0.00000E+00
 -1       953 8.08740E+01 1.77755E+01 0.00000E+00
 -1       954 8.98740E+01 1.77755E+01 0.00000E+00
 -1       955 9.28740E+01 1.77755E+01 0.00000E+00
 -1       956 9.58740E+01 1.77755E+01 0.00000E+00
 -1       957 9.88740E+01 1.77755E+01 0.00000E+00
 -1       958 1.01874E+02 1.77755E+01 0.00000E+00
 -1       959 1.04874E+02 1.77755E+01 0.00000E+00
 -1       960 1.07874E+02 1.77755E+01 0.00000E+00
 -1       961 1.10874E+02 1.77755E+01 0.00000E+00
 -1       962 1.13874E+02 1.77755E+01 0.00000E+00
 -1       963 1.16874E+02 1.77755E+01 0.00000E+00
 -1       964 1.19874E+02 1.77755E+01 0.00000E+00
 -1       965 1.22874E+02 1.77755E+01 0.00000E+00
 -1       966 1.25874E+02 1.77755E+01 0.00000E+00
 -1       967 1.28874E+02 1.77755E+01 0.00000E+00
 -1       968 7.10696E+01 3.20937E+01 0.00000E+00
 -1       969 1.12761E+02 3.26872E+01 0.00000E+00
 -1       970 1.09737E+02 3.28582E+01 0.00000E+00
 -1       971 5.68740E+01 1.77755E+01 0.00000E+00
 -1       972 7.50838E+01 2.74156E+01 0.00000E+00
 -1       973 1.55880E+01 2.64438E+01 0.00000E+00
 -1       974 1.15761E+02 3.26872E+01 0.00000E+00
 -1       975 1.18800E+02 3.26644E+01 0.00000E+00
 -1       976 1.31814E+02 2.79500E+01 0.00000E+00
 -1       977 8.07351E+01 1.98003E+01 0.00000E+00
 -1       978 7.35461E+01 3.12040E+01 0.00000E+00
 -1       979 2.26500E+01 3.18140E+01 0.00000E+00
 -1       980 1.52310E+01 1.80398E+01 0.00000E+00
 -1       981 8.77454E+01 1.81215E+01 0.00000E+00
 -1       982 1.05890E+02 2.54314E+01 0.00000E+00
 -1       983 1.31814E+02 2.50125E+01 0.00000E+00
 -1       984 1.02287E+02 2.15705E+01 0.00000E+00
 -1       985 2.38740E+01 1.77755E+01 0.00000E+00
 -1       986 1.81860E+01 2.20313E+01 0.00000E+00
 -1       987 3.88740E+01 1.77755E+01 0.00000E+00
 -1       988 4.48740E+01 1.77755E+01 0.00000E+00
 -1       989 2.98740E+01 1.77755E+01 0.00000E+00
 -1       990 1.32240E+02 3.01372E+01 0.00000E+00
 -1       991 4.78740E+01 1.77755E+01 0.00000E+00
 -1       992 7.52789E+01 2.43767E+01 0.00000E+00
 -1       993 2.08740E+01 1.77755E+01 0.00000E+00
 -1       994 1.81860E+01 2.49750E+01 0.00000E+00
 -1       995 7.77303E+01 2.07946E+01 0.00000E+00
 -1       996 1.31814E+02 2.20750E+01 0.00000E+00
 -1       997 1.80525E+01 1.79076E+01 0.00000E+00
 -1       998 3.28740E+01 1.77755E+01 0.00000E+00
 -1       999 1.08471E+02 3.04076E+01 0.00000E+00
 -1      1000 1.00129E+02 1.95737E+01 0.00000E+00
 -1      1001 9.05301E+01 1.90955E+01 0.00000E+00
 -1      1002 3.01500E+01 2.92160E+01 0.00000E+00
 -1      1003 3.31500E+01 2.92160E+01 0.00000E+00
 -1      1004 3.61500E+01 2.92160E+01 0.00000E+00
 -1      1005 3.91500E+01 2.92160E+01 0.00000E+00
 -1      1006 4.23000E+01 2.92160E+01 0.00000E+00
 -1      1007 4.53000E+01 2.92160E+01 0.00000E+00
 -1      1008 4.83000E+01 2.92160E+01 0.00000E+00
 -1      1009 5.13000E+01 2.92160E+01 0.00000E+00
 -1      1010 5.43000E+01 2.92160E+01 0.00000E+00
 -1      1011 5.73000E+01 2.92160E+01 0.00000E+00
 -1      1012 6.03000E+01 2.92160E+01 0.00000E+00
 -1      1013 6.33000E+01 2.92160E+01 0.00000E+00
 -1      1014 6.63000E+01 2.92160E+01 0.00000E+00
 -1      1015 9.43650E+01 1.94449E+01 0.00000E+00
 -1      1016 2.41500E+01 2.92160E+01 0.00000E+00
 -1      1017 1.05248E+02 2.19398E+01 0.00000E+00
 -1      1018 1.23300E+02 3.00664E+01 0.00000E+00
 -1      1019 5.53740E+01 2.03735E+01 0.00000E+00
 -1      1020 1.26300E+02 3.00664E+01 0.00000E+00
 -1      1021 1.17261E+02 3.00779E+01 0.00000E+00
 -1      1022 7.14294E+01 2.92039E+01 0.00000E+00
 -1      1023 1.08709E+02 2.72785E+01 0.00000E+00
 -1      1024 6.43740E+01 2.03735E+01 0.00000E+00
 -1      1025 6.13740E+01 2.03735E+01 0.00000E+00
 -1      1026 7.03740E+01 2.03735E+01 0.00000E+00
 -1      1027 7.33740E+01 2.03735E+01 0.00000E+00
 -1      1028 1.06374E+02 2.03735E+01 0.00000E+00
 -1      1029 1.09374E+02 2.03735E+01 0.00000E+00
 -1      1030 1.12374E+02 2.03735E+01 0.00000E+00
 -1      1031 1.15374E+02 2.03735E+01 0.00000E+00
 -1      1032 1.18374E+02 2.03735E+01 0.00000E+00
 -1      1033 1.21374E+02 2.03735E+01 0.00000E+00
 -1      1034 1.24374E+02 2.03735E+01 0.00000E+00
 -1      1035 1.27374E+02 2.03735E+01 0.00000E+00
 -1      1036 1.20300E+02 3.00664E+01 0.00000E+00
 -1      1037 2.07498E+01 2.90137E+01 0.00000E+00
 -1      1038 1.31830E+02 1.90782E+01 0.00000E+00
 -1      1039 1.81689E+01 2.77287E+01 0.00000E+00
 -1      1040 1.14261E+02 3.00779E+01 0.00000E+00
 -1      1041 5.83740E+01 2.03735E+01 0.00000E+00
 -1      1042 3.58740E+01 1.77755E+01 0.00000E+00
 -1      1043 6.73740E+01 2.03735E+01 0.00000E+00
 -1      1044 2.68740E+01 1.77755E+01 0.00000E+00
 -1      1045 7.32566E+01 2.83098E+01 0.00000E+00
 -1      1046 2.71500E+01 2.92160E+01 0.00000E+00
 -1      1047 6.88647E+01 2.92099E+01 0.00000E+00
 -1      1048 5.23740E+01 2.03735E+01 0.00000E+00
 -1      1049 1.29216E+02 2.64813E+01 0.00000E+00
 -1      1050 2.53740E+01 2.03735E+01 0.00000E+00
 -1      1051 4.93740E+01 2.03735E+01 0.00000E+00
 -1      1052 4.03740E+01 2.03735E+01 0.00000E+00
 -1      1053 7.34517E+01 2.52708E+01 0.00000E+00
 -1      1054 1.29300E+02 3.00664E+01 0.00000E+00
 -1      1055 1.10735E+02 2.99828E+01 0.00000E+00
 -1      1056 1.03580E+02 1.96730E+01 0.00000E+00
 -1      1057 2.10075E+01 2.18991E+01 0.00000E+00
 -1      1058 4.33740E+01 2.03735E+01 0.00000E+00
 -1      1059 2.10075E+01 2.48429E+01 0.00000E+00
 -1      1060 3.13740E+01 2.03735E+01 0.00000E+00
 -1      1061 1.29216E+02 2.35438E+01 0.00000E+00
 -1      1062 1.29224E+02 2.05625E+01 0.00000E+00
 -1      1063 2.83740E+01 2.03735E+01 0.00000E+00
 -1      1064 1.13874E+02 2.29715E+01 0.00000E+00
 -1      1065 2.86500E+01 2.66180E+01 0.00000E+00
 -1      1066 3.46500E+01 2.66180E+01 0.00000E+00
 -1      1067 3.76500E+01 2.66180E+01 0.00000E+00
 -1      1068 4.08000E+01 2.66180E+01 0.00000E+00
 -1      1069 4.38000E+01 2.66180E+01 0.00000E+00
 -1      1070 4.68000E+01 2.66180E+01 0.00000E+00
 -1      1071 4.98000E+01 2.66180E+01 0.00000E+00
 -1      1072 5.28000E+01 2.66180E+01 0.00000E+00
 -1      1073 5.58000E+01 2.66180E+01 0.00000E+00
 -1      1074 5.88000E+01 2.66180E+01 0.00000E+00
 -1      1075 6.18000E+01 2.66180E+01 0.00000E+00
 -1      1076 6.48000E+01 2.66180E+01 0.00000E+00
 -1      1077 1.12568E+02 2.74333E+01 0.00000E+00
 -1      1078 1.10874E+02 2.29715E+01 0.00000E+00
 -1      1079 1.18771E+02 2.74742E+01 0.00000E+00
 -1      1080 4.63740E+01 2.03735E+01 0.00000E+00
 -1      1081 1.08723E+02 2.41817E+01 0.00000E+00
 -1      1082 1.08061E+02 2.24556E+01 0.00000E+00
 -1      1083 1.16874E+02 2.29715E+01 0.00000E+00
 -1      1084 1.19874E+02 2.29715E+01 0.00000E+00
 -1      1085 1.22874E+02 2.29715E+01 0.00000E+00
 -1      1086 1.25874E+02 2.29715E+01 0.00000E+00
 -1      1087 6.28740E+01 2.29715E+01 0.00000E+00
 -1      1088 2.26042E+01 2.65214E+01 0.00000E+00
 -1      1089 1.24800E+02 2.74684E+01 0.00000E+00
 -1      1090 2.40477E+01 2.35889E+01 0.00000E+00
 -1      1091 1.26618E+02 2.50125E+01 0.00000E+00
 -1      1092 5.38740E+01 2.29715E+01 0.00000E+00
 -1      1093 7.19129E+01 2.28222E+01 0.00000E+00
 -1      1094 5.98740E+01 2.29715E+01 0.00000E+00
 -1      1095 3.73740E+01 2.03735E+01 0.00000E+00
 -1      1096 6.89129E+01 2.28222E+01 0.00000E+00
 -1      1097 3.43740E+01 2.03735E+01 0.00000E+00
 -1      1098 7.16245E+01 2.61649E+01 0.00000E+00
 -1      1099 3.16500E+01 2.66180E+01 0.00000E+00
 -1      1100 2.56271E+01 2.65697E+01 0.00000E+00
 -1      1101 1.21800E+02 2.74684E+01 0.00000E+00
 -1      1102 6.58740E+01 2.29715E+01 0.00000E+00
 -1      1103 1.15771E+02 2.74742E+01 0.00000E+00
 -1      1104 5.68740E+01 2.29715E+01 0.00000E+00
 -1      1105 6.73647E+01 2.66119E+01 0.00000E+00
 -1      1106 5.08740E+01 2.29715E+01 0.00000E+00
 -1      1107 4.18740E+01 2.29715E+01 0.00000E+00
 -1      1108 3.28740E+01 2.29715E+01 0.00000E+00
 -1      1109 2.98740E+01 2.29715E+01 0.00000E+00
 -1      1110 3.88740E+01 2.29715E+01 0.00000E+00
 -1      1111 2.69608E+01 2.32802E+01 0.00000E+00
 -1      1112 1.18374E+02 2.55695E+01 0.00000E+00
 -1      1113 4.83000E+01 2.40200E+01 0.00000E+00
 -1      1114 4.48740E+01 2.29715E+01 0.00000E+00
 -1      1115 1.23837E+02 2.52200E+01 0.00000E+00
 -1      1116 3.58740E+01 2.29715E+01 0.00000E+00
 -1      1117 1.20837E+02 2.52200E+01 0.00000E+00
 -1      1118 0.00000E+00 4.85250E+01 0.00000E+00
 -1      1119 0.00000E+00 4.55750E+01 0.00000E+00
 -1      1120 0.00000E+00 4.26250E+01 0.00000E+00
 -1      1121 0.00000E+00 3.96750E+01 0.00000E+00
 -1      1122 0.00000E+00 3.67250E+01 0.00000E+00
 -1      1123 0.00000E+00 3.38000E+01 0.00000E+00
 -1      1124 0.00000E+00 3.08750E+01 0.00000E+00
 -1      1125 0.00000E+00 2.79250E+01 0.00000E+00
 -1      1126 0.00000E+00 2.49750E+01 0.00000E+00
 -1      1127 0.00000E+00 2.20250E+01 0.00000E+00
 -1      1128 0.00000E+00 1.90750E+01 0.00000E+00
 -1      1129 0.00000E+00 1.61500E+01 0.00000E+00
 -1      1130 0.00000E+00 1.32250E+01 0.00000E+00
 -1      1131 0.00000E+00 1.02750E+01 0.00000E+00
 -1      1132 0.00000E+00 7.32500E+00 0.00000E+00
 -1      1133 0.00000E+00 4.37500E+00 0.00000E+00
 -1      1134 0.00000E+00 1.45000E+00 0.00000E+00
 -1      1135 1.57500E+00 5.00000E+01 0.00000E+00
 -1      1136 4.65000E+00 5.00000E+01 0.00000E+00
 -1      1137 7.65000E+00 5.00000E+01 0.00000E+00
 -1      1138 1.06500E+01 5.00000E+01 0.00000E+00
 -1      1139 1.36500E+01 5.00000E+01 0.00000E+00
 -1      1140 1.66500E+01 5.00000E+01 0.00000E+00
 -1      1141 1.96500E+01 5.00000E+01 0.00000E+00
 -1      1142 2.26500E+01 5.00000E+01 0.00000E+00
 -1      1143 2.56500E+01 5.00000E+01 0.00000E+00
 -1      1144 2.86500E+01 5.00000E+01 0.00000E+00
 -1      1145 3.16500E+01 5.00000E+01 0.00000E+00
 -1      1146 3.46500E+01 5.00000E+01 0.00000E+00
 -1      1147 3.76500E+01 5.00000E+01 0.00000E+00
 -1      1148 4.06500E+01 5.00000E+01 0.00000E+00
 -1      1149 4.36500E+01 5.00000E+01 0.00000E+00
 -1      1150 4.66500E+01 5.00000E+01 0.00000E+00
 -1      1151 4.96500E+01 5.00000E+01 0.00000E+00
 -1      1152 5.27250E+01 5.00000E+01 0.00000E+00
 -1      1153 5.58000E+01 5.00000E+01 0.00000E+00
 -1      1154 5.88000E+01 5.00000E+01 0.00000E+00
 -1      1155 6.18000E+01 5.00000E+01 0.00000E+00
 -1      1156 6.48000E+01 5.00000E+01 0.00000E+00
 -1      1157 6.78000E+01 5.00000E+01 0.00000E+00
 -1      1158 7.08000E+01 5.00000E+01 0.00000E+00
 -1      1159 7.38000E+01 5.00000E+01 0.00000E+00
 -1      1160 7.68000E+01 5.00000E+01 0.00000E+00
 -1      1161 7.96500E+01 5.00000E+01 0.00000E+00
 -1      1162 8.22000E+01 5.00000E+01 0.00000E+00
 -1      1163 8.46000E+01 5.00000E+01 0.00000E+00
 -1      1164 8.70000E+01 5.00000E+01 0.00000E+00
 -1      1165 8.95500E+01 5.00000E+01 0.00000E+00
 -1      1166 9.21750E+01 5.00000E+01 0.00000E+00
 -1      1167 9.46500E+01 5.00000E+01 0.00000E+00
 -1      1168 9.74250E+01 5.00000E+01 0.00000E+00
 -1      1169 1.00500E+02 5.00000E+01 0.00000E+00
 -1      1170 1.03500E+02 5.00000E+01 0.00000E+00
 -1      1171 1.06500E+02 5.00000E+01 0.00000E+00
 -1      1172 1.09500E+02 5.00000E+01 0.00000E+00
 -1      1173 1.12500E+02 5.00000E+01 0.00000E+00
 -1      1174 1.15500E+02 5.00000E+01 0.00000E+00
 -1      1175 1.18500E+02 5.00000E+01 0.00000E+00
 -1      1176 1.21500E+02 5.00000E+01 0.00000E+00
 -1      1177 1.24500E+02 5.00000E+01 0.00000E+00
 -1      1178 1.27500E+02 5.00000E+01 0.00000E+00
 -1      1179 1.30500E+02 5.00000E+01 0.00000E+00
 -1      1180 1.33500E+02 5.00000E+01 0.00000E+00
 -1      1181 1.36500E+02 5.00000E+01 0.00000E+00
 -1      1182 1.39500E+02 5.00000E+01 0.00000E+00
 -1      1183 1.42500E+02 5.00000E+01 0.00000E+00
 -1      1184 1.45500E+02 5.00000E+01 0.00000E+00
 -1      1185 1.48500E+02 5.00000E+01 0.00000E+00
 -1      1186 1.57500E+00 0.00000E+00 0.00000E+00
 -1      1187 4.65000E+00 0.00000E+00 0.00000E+00
 -1      1188 7.65000E+00 0.00000E+00 0.00000E+00
 -1      1189 1.06500E+01 0.00000E+00 0.00000E+00
 -1      1190 1.36500E+01 0.00000E+00 0.00000E+00
 -1      1191 1.66500E+01 0.00000E+00 0.00000E+00
 -1      1192 1.96500E+01 0.00000E+00 0.00000E+00
 -1      1193 2.26500E+01 0.00000E+00 0.00000E+00
 -1      1194 2.56500E+01 0.00000E+00 0.00000E+00
 -1      1195 2.86500E+01 0.00000E+00 0.00000E+00
 -1      1196 3.16500E+01 0.00000E+00 0.00000E+00
 -1      1197 3.46500E+01 0.00000E+00 0.00000E+00
 -1      1198 3.76500E+01 0.00000E+00 0.00000E+00
 -1      1199 4.06500E+01 0.00000E+00 0.00000E+00
 -1      1200 4.36500E+01 0.00000E+00 0.00000E+00
 -1      1201 4.66500E+01 0.00000E+00 0.00000E+00
 -1      1202 4.96500E+01 0.00000E+00 0.00000E+00
 -1      1203 5.26500E+01 0.00000E+00 0.00000E+00
 -1      1204 5.56500E+01 0.00000E+00 0.00000E+00
 -1      1205 5.86500E+01 0.00000E+00 0.00000E+00
 -1      1206 6.16500E+01 0.00000E+00 0.00000E+00
 -1      1207 6.46500E+01 0.00000E+00 0.00000E+00
 -1      1208 6.76500E+01 0.00000E+00 0.00000E+00
 -1      1209 7.06500E+01 0.00000E+00 0.00000E+00
 -1      1210 7.36500E+01 0.00000E+00 0.00000E+00
 -1      1211 7.66500E+01 0.00000E+00 0.00000E+00
 -1      1212 7.96500E+01 0.00000E+00 0.00000E+00
 -1      1213 8.26500E+01 0.00000E+00 0.00000E+00
 -1      1214 8.56500E+01 0.00000E+00 0.00000E+00
 -1      1215 8.86500E+01 0.00000E+00 0.00000E+00
 -1      1216 9.16500E+01 0.00000E+00 0.00000E+00
 -1      1217 9.46500E+01 0.00000E+00 0.00000E+00
 -1      1218 9.76500E+01 0.00000E+00 0.00000E+00
 -1      1219 1.00650E+02 0.00000E+00 0.00000E+00
 -1      1220 1.03650E+02 0.00000E+00 0.00000E+00
 -1      1221 1.06650E+02 0.00000E+00 0.00000E+00
 -1      1222 1.09650E+02 0.00000E+00 0.00000E+00
 -1      1223 1.12650E+02 0.00000E+00 0.00000E+00
 -1      1224 1.15650E+02 0.00000E+00 0.00000E+00
 -1      1225 1.18650E+02 0.00000E+00 0.00000E+00
 -1      1226 1.21650E+02 0.00000E+00 0.00000E+00
 -1      1227 1.24650E+02 0.00000E+00 0.00000E+00
 -1      1228 1.27650E+02 0.00000E+00 0.00000E+00
 -1      1229 1.30650E+02 0.00000E+00 0.00000E+00
 -1      1230 1.33650E+02 0.00000E+00 0.00000E+00
 -1      1231 1.36650E+02 0.00000E+00 0.00000E+00
 -1      1232 1.39650E+02 0.00000E+00 0.00000E+00
 -1      1233 1.42650E+02 0.00000E+00 0.00000E+00
 -1      1234 1.45650E+02 0.00000E+00 0.00000E+00
 -1      1235 1.48575E+02 0.00000E+00 0.00000E+00
 -1      1236 1.50000E+02 1.47500E+00 0.00000E+00
 -1      1237 1.50000E+02 4.42500E+00 0.00000E+00
 -1      1238 1.50000E+02 7.37500E+00 0.00000E+00
 -1      1239 1.50000E+02 1.03250E+01 0.00000E+00
 -1      1240 1.50000E+02 1.32750E+01 0.00000E+00
 -1      1241 1.50000E+02 1.62000E+01 0.00000E+00
 -1      1242 1.50000E+02 1.91250E+01 0.00000E+00
 -1      1243 1.50000E+02 2.20750E+01 0.00000E+00
 -1      1244 1.50000E+02 2.50250E+01 0.00000E+00
 -1      1245 1.50000E+02 2.79750E+01 0.00000E+00
 -1      1246 1.50000E+02 3.09250E+01 0.00000E+00
 -1      1247 1.50000E+02 3.38500E+01 0.00000E+00
 -1      1248 1.50000E+02 3.67750E+01 0.00000E+00
 -1      1249 1.50000E+02 3.97250E+01 0.00000E+00
 -1      1250 1.50000E+02 4.26750E+01 0.00000E+00
 -1      1251 1.50000E+02 4.56250E+01 0.00000E+00
 -1      1252 1.50000E+02 4.85500E+01 0.00000E+00
 -1      1253 9.65998E+01 3.65308E+01 0.00000E+00
 -1      1254 9.62812E+01 3.50571E+01 0.00000E+00
 -1      1255 9.56551E+01 3.36868E+01 0.00000E+00
 -1      1256 9.47278E+01 3.24583E+01 0.00000E+00
 -1      1257 9.35628E+01 3.14678E+01 0.00000E+00
 -1      1258 9.22564E+01 3.07722E+01 0.00000E+00
 -1      1259 9.07410E+01 3.03516E+01 0.00000E+00
 -1      1260 8.91884E+01 3.02786E+01 0.00000E+00
 -1      1261 8.76621E+01 3.05489E+01 0.00000E+00
 -1      1262 8.62036E+01 3.11647E+01 0.00000E+00
 -1      1263 8.49793E+01 3.20398E+01 0.00000E+00
 -1      1264 8.40062E+01 3.31073E+01 0.00000E+00
 -1      1265 8.32445E+01 3.44147E+01 0.00000E+00
 -1      1266 8.27811E+01 3.58574E+01 0.00000E+00
 -1      1267 8.26386E+01 3.73325E+01 0.00000E+00
 -1      1268 8.28157E+01 3.88301E+01 0.00000E+00
 -1      1269 8.33036E+01 4.02427E+01 0.00000E+00
 -1      1270 8.40731E+01 4.15101E+01 0.00000E+00
 -1      1271 8.51056E+01 4.25984E+01 0.00000E+00
 -1      1272 8.63744E+01 4.34567E+01 0.00000E+00
 -1      1273 8.77734E+01 4.40112E+01 0.00000E+00
 -1      1274 8.93049E+01 4.42562E+01 0.00000E+00
 -1      1275 9.08387E+01 4.41604E+01 0.00000E+00
 -1      1276 9.22607E+01 4.37544E+01 0.00000E+00
 -1      1277 9.35746E+01 4.30525E+01 0.00000E+00
 -1      1278 9.47180E+01 4.20804E+01 0.00000E+00
 -1      1279 9.56595E+01 4.08342E+01 0.00000E+00
 -1      1280 9.62924E+01 3.94374E+01 0.00000E+00
 -1      1281 9.65994E+01 3.80011E+01 0.00000E+00
 -1      1282 1.57500E+00 4.85250E+01 0.00000E+00
 -1      1283 1.29900E+00 4.48375E+01 0.00000E+00
 -1      1284 1.29900E+00 4.63125E+01 0.00000E+00
 -1      1285 1.29900E+00 4.18875E+01 0.00000E+00
 -1      1286 1.29900E+00 4.33625E+01 0.00000E+00
 -1      1287 2.59800E+00 4.41000E+01 0.00000E+00
 -1      1288 1.29900E+00 3.89375E+01 0.00000E+00
 -1      1289 1.29900E+00 4.04125E+01 0.00000E+00
 -1      1290 2.59800E+00 4.11500E+01 0.00000E+00
 -1      1291 1.29900E+00 3.59875E+01 0.00000E+00
 -1      1292 1.29900E+00 3.74625E+01 0.00000E+00
 -1      1293 2.59800E+00 3.82000E+01 0.00000E+00
 -1      1294 1.29900E+00 3.30875E+01 0.00000E+00
 -1      1295 1.29900E+00 3.45375E+01 0.00000E+00
 -1      1296 2.59800E+00 3.52750E+01 0.00000E+00
 -1      1297 1.29900E+00 3.01375E+01 0.00000E+00
 -1      1298 1.29900E+00 3.16125E+01 0.00000E+00
 -1      1299 2.59800E+00 3.23500E+01 0.00000E+00
 -1      1300 1.29900E+00 2.71875E+01 0.00000E+00
 -1      1301 1.29900E+00 2.86625E+01 0.00000E+00
 -1      1302 2.59800E+00 2.94000E+01 0.00000E+00
 -1      1303 1.29900E+00 2.42375E+01 0.00000E+00
 -1      1304 1.29900E+00 2.57125E+01 0.00000E+00
 -1      1305 2.59800E+00 2.64500E+01 0.00000E+00
 -1      1306 1.29900E+00 2.12875E+01 0.00000E+00
 -1      1307 1.29900E+00 2.27625E+01 0.00000E+00
 -1      1308 2.59800E+00 2.35000E+01 0.00000E+00
 -1      1309 1.29900E+00 1.83375E+01 0.00000E+00
 -1      1310 1.29900E+00 1.98125E+01 0.00000E+00
 -1      1311 2.59800E+00 2.05500E+01 0.00000E+00
 -1      1312 1.29900E+00 1.54375E+01 0.00000E+00
 -1      1313 1.29900E+00 1.68875E+01 0.00000E+00
 -1      1314 2.59800E+00 1.76250E+01 0.00000E+00
 -1      1315 1.29900E+00 1.24875E+01 0.00000E+00
 -1      1316 1.29900E+00 1.39625E+01 0.00000E+00
 -1      1317 2.59800E+00 1.47000E+01 0.00000E+00
 -1      1318 1.29900E+00 9.53750E+00 0.00000E+00
 -1      1319 1.29900E+00 1.10125E+01 0.00000E+00
 -1      1320 2.59800E+00 1.17500E+01 0.00000E+00
 -1      1321 1.29900E+00 6.58750E+00 0.00000E+00
 -1      1322 1.29900E+00 8.06250E+00 0.00000E+00
 -1      1323 2.59800E+00 8.80000E+00 0.00000E+00
 -1      1324 1.29900E+00 3.63750E+00 0.00000E+00
 -1      1325 1.29900E+00 5.11250E+00 0.00000E+00
 -1      1326 2.59800E+00 5.85000E+00 0.00000E+00
 -1      1327 1.43700E+00 1.09375E+00 0.00000E+00
 -1      1328 1.43700E+00 2.54375E+00 0.00000E+00
 -1      1329 2.73600E+00 3.28125E+00 0.00000E+00
 -1      1330 3.01200E+00 1.09375E+00 0.00000E+00
 -1      1331 3.90000E+00 4.87010E+01 0.00000E+00
 -1      1332 5.40000E+00 4.87010E+01 0.00000E+00
 -1      1333 6.90000E+00 4.87010E+01 0.00000E+00
 -1      1334 8.40000E+00 4.87010E+01 0.00000E+00
 -1      1335 6.15000E+00 4.74020E+01 0.00000E+00
 -1      1336 9.90000E+00 4.87010E+01 0.00000E+00
 -1      1337 1.14000E+01 4.87010E+01 0.00000E+00
 -1      1338 9.15000E+00 4.74020E+01 0.00000E+00
 -1      1339 1.29000E+01 4.87010E+01 0.00000E+00
 -1      1340 1.44000E+01 4.87010E+01 0.00000E+00
 -1      1341 1.21500E+01 4.74020E+01 0.00000E+00
 -1      1342 1.59000E+01 4.87010E+01 0.00000E+00
 -1      1343 1.74000E+01 4.87010E+01 0.00000E+00
 -1      1344 1.51500E+01 4.74020E+01 0.00000E+00
 -1      1345 1.89000E+01 4.87010E+01 0.00000E+00
 -1      1346 2.04000E+01 4.87010E+01 0.00000E+00
 -1      1347 1.81500E+01 4.74020E+01 0.00000E+00
 -1      1348 2.19000E+01 4.87010E+01 0.00000E+00
 -1      1349 2.34000E+01 4.87010E+01 0.00000E+00
 -1      1350 2.11500E+01 4.74020E+01 0.00000E+00
 -1      1351 2.49000E+01 4.87010E+01 0.00000E+00
 -1      1352 2.64000E+01 4.87010E+01 0.00000E+00
 -1      1353 2.41500E+01 4.74020E+01 0.00000E+00
 -1      1354 2.79000E+01 4.87010E+01 0.00000E+00
 -1      1355 2.94000E+01 4.87010E+01 0.00000E+00
 -1      1356 2.71500E+01 4.74020E+01 0.00000E+00
 -1      1357 3.09000E+01 4.87010E+01 0.00000E+00
 -1      1358 3.24000E+01 4.87010E+01 0.00000E+00
 -1      1359 3.01500E+01 4.74020E+01 0.00000E+00
 -1      1360 3.39000E+01 4.87010E+01 0.00000E+00
 -1      1361 3.54000E+01 4.87010E+01 0.00000E+00
 -1      1362 3.31500E+01 4.74020E+01 0.00000E+00
 -1      1363 3.69000E+01 4.87010E+01 0.00000E+00
 -1      1364 3.84000E+01 4.87010E+01 0.00000E+00
 -1      1365 3.61500E+01 4.74020E+01 0.00000E+00
 -1      1366 3.99000E+01 4.87010E+01 0.00000E+00
 -1      1367 4.14000E+01 4.87010E+01 0.00000E+00
 -1      1368 3.91500E+01 4.74020E+01 0.00000E+00
 -1      1369 4.29000E+01 4.87010E+01 0.00000E+00
 -1      1370 4.44000E+01 4.87010E+01 0.00000E+00
 -1      1371 4.21500E+01 4.74020E+01 0.00000E+00
 -1      1372 4.59000E+01 4.87010E+01 0.00000E+00
 -1      1373 4.74000E+01 4.87010E+01 0.00000E+00
 -1      1374 4.51500E+01 4.74020E+01 0.00000E+00
 -1      1375 4.89000E+01 4.87010E+01 0.00000E+00
 -1      1376 5.04000E+01 4.87010E+01 0.00000E+00
 -1      1377 4.81500E+01 4.74020E+01 0.00000E+00
 -1      1378 5.19750E+01 4.87010E+01 0.00000E+00
 -1      1379 5.35500E+01 4.87010E+01 0.00000E+00
 -1      1380 5.12250E+01 4.74020E+01 0.00000E+00
 -1      1381 5.50500E+01 4.87010E+01 0.00000E+00
 -1      1382 5.65500E+01 4.87010E+01 0.00000E+00
 -1      1383 5.43000E+01 4.74020E+01 0.00000E+00
 -1      1384 5.80500E+01 4.87010E+01 0.00000E+00
 -1      1385 5.95500E+01 4.87010E+01 0.00000E+00
 -1      1386 5.73000E+01 4.74020E+01 0.00000E+00
 -1      1387 6.10500E+01 4.87010E+01 0.00000E+00
 -1      1388 6.25500E+01 4.87010E+01 0.00000E+00
 -1      1389 6.03000E+01 4.74020E+01 0.00000E+00
 -1      1390 6.40500E+01 4.87010E+01 0.00000E+00
 -1      1391 6.55500E+01 4.87010E+01 0.00000E+00
 -1      1392 6.33000E+01 4.74020E+01 0.00000E+00
 -1      1393 6.70500E+01 4.87010E+01 0.00000E+00
 -1      1394 6.85500E+01 4.87010E+01 0.00000E+00
 -1      1395 6.63000E+01 4.74020E+01 0.00000E+00
 -1      1396 7.00500E+01 4.87010E+01 0.00000E+00
 -1      1397 7.15500E+01 4.87010E+01 0.00000E+00
 -1      1398 6.93000E+01 4.74020E+01 0.00000E+00
 -1      1399 7.30500E+01 4.87010E+01 0.00000E+00
 -1      1400 7.45500E+01 4.87010E+01 0.00000E+00
 -1      1401 7.23000E+01 4.74020E+01 0.00000E+00
 -1      1402 7.60500E+01 4.87010E+01 0.00000E+00
 -1      1403 7.75500E+01 4.87010E+01 0.00000E+00
 -1      1404 7.53000E+01 4.74020E+01 0.00000E+00
 -1      1405 7.89000E+01 4.87010E+01 0.00000E+00
 -1      1406 8.02500E+01 4.87010E+01 0.00000E+00
 -1      1407 7.81500E+01 4.74020E+01 0.00000E+00
 -1      1408 8.14500E+01 4.87010E+01 0.00000E+00
 -1      1409 8.26500E+01 4.87010E+01 0.00000E+00
 -1      1410 8.07000E+01 4.74020E+01 0.00000E+00
 -1      1411 8.64000E+01 4.89749E+01 0.00000E+00
 -1      1412 8.76000E+01 4.89749E+01 0.00000E+00
 -1      1413 8.89500E+01 4.89749E+01 0.00000E+00
 -1      1414 9.03000E+01 4.89749E+01 0.00000E+00
 -1      1415 8.83500E+01 4.79497E+01 0.00000E+00
 -1      1416 9.15750E+01 4.89749E+01 0.00000E+00
 -1      1417 9.28500E+01 4.89749E+01 0.00000E+00
 -1      1418 9.09750E+01 4.79497E+01 0.00000E+00
 -1      1419 9.40500E+01 4.89749E+01 0.00000E+00
 -1      1420 9.52500E+01 4.89749E+01 0.00000E+00
 -1      1421 9.34500E+01 4.79497E+01 0.00000E+00
 -1      1422 9.68250E+01 4.89749E+01 0.00000E+00
 -1      1423 9.84000E+01 4.89749E+01 0.00000E+00
 -1      1424 9.62250E+01 4.79497E+01 0.00000E+00
 -1      1425 9.99000E+01 4.89749E+01 0.00000E+00
 -1      1426 1.01400E+02 4.89749E+01 0.00000E+00
 -1      1427 9.93000E+01 4.79497E+01 0.00000E+00
 -1      1428 1.02900E+02 4.89749E+01 0.00000E+00
 -1      1429 1.04400E+02 4.89749E+01 0.00000E+00
 -1      1430 1.02300E+02 4.79497E+01 0.00000E+00
 -1      1431 1.05900E+02 4.89749E+01 0.00000E+00
 -1      1432 1.07400E+02 4.89749E+01 0.00000E+00
 -1      1433 1.05300E+02 4.79497E+01 0.00000E+00
 -1      1434 1.08900E+02 4.89749E+01 0.00000E+00
 -1      1435 1.10400E+02 4.89749E+01 0.00000E+00
 -1      1436 1.08300E+02 4.79497E+01 0.00000E+00
 -1      1437 1.11900E+02 4.89749E+01 0.00000E+00
 -1      1438 1.13400E+02 4.89749E+01 0.00000E+00
 -1      1439 1.11300E+02 4.79497E+01 0.00000E+00
 -1      1440 1.14900E+02 4.89749E+01 0.00000E+00
 -1      1441 1.16400E+02 4.89749E+01 0.00000E+00
 -1      1442 1.14300E+02 4.79497E+01 0.00000E+00
 -1      1443 1.17900E+02 4.89749E+01 0.00000E+00
 -1      1444 1.19400E+02 4.89749E+01 0.00000E+00
 -1      1445 1.17300E+02 4.79497E+01 0.00000E+00
 -1      1446 1.20900E+02 4.89749E+01 0.00000E+00
 -1      1447 1.22400E+02 4.89749E+01 0.00000E+00
 -1      1448 1.20300E+02 4.79497E+01 0.00000E+00
 -1      1449 1.23900E+02 4.89749E+01 0.00000E+00
 -1      1450 1.25400E+02 4.89749E+01 0.00000E+00
 -1      1451 1.23300E+02 4.79497E+01 0.00000E+00
 -1      1452 1.26900E+02 4.89749E+01 0.00000E+00
 -1      1453 1.28400E+02 4.89749E+01 0.00000E+00
 -1      1454 1.26300E+02 4.79497E+01 0.00000E+00
 -1      1455 1.29900E+02 4.89749E+01 0.00000E+00
 -1      1456 1.31400E+02 4.89749E+01 0.00000E+00
 -1      1457 1.29300E+02 4.79497E+01 0.00000E+00
 -1      1458 1.32900E+02 4.89749E+01 0.00000E+00
 -1      1459 1.34400E+02 4.89749E+01 0.00000E+00
 -1      1460 1.32300E+02 4.79497E+01 0.00000E+00
 -1      1461 1.35900E+02 4.89749E+01 0.00000E+00
 -1      1462 1.37400E+02 4.89749E+01 0.00000E+00
 -1      1463 1.35300E+02 4.79497E+01 0.00000E+00
 -1      1464 1.38900E+02 4.89749E+01 0.00000E+00
 -1      1465 1.40400E+02 4.89749E+01 0.00000E+00
 -1      1466 1.38300E+02 4.79497E+01 0.00000E+00
 -1      1467 1.41900E+02 4.89749E+01 0.00000E+00
 -1      1468 1.43400E+02 4.89749E+01 0.00000E+00
 -1      1469 1.41300E+02 4.79497E+01 0.00000E+00
 -1      1470 1.44900E+02 4.89749E+01 0.00000E+00
 -1      1471 1.46400E+02 4.89749E+01 0.00000E+00
 -1      1472 1.44300E+02 4.79497E+01 0.00000E+00
 -1      1473 1.47450E+02 4.87624E+01 0.00000E+00
 -1      1474 1.48950E+02 4.87624E+01 0.00000E+00
 -1      1475 1.48950E+02 4.73124E+01 0.00000E+00
 -1      1476 1.46850E+02 4.77373E+01 0.00000E+00
 -1      1477 6.01200E+00 1.09375E+00 0.00000E+00
 -1      1478 4.51200E+00 1.09375E+00 0.00000E+00
 -1      1479 4.37400E+00 2.18750E+00 0.00000E+00
 -1      1480 9.01200E+00 1.09375E+00 0.00000E+00
 -1      1481 7.51200E+00 1.09375E+00 0.00000E+00
 -1      1482 7.37400E+00 2.18750E+00 0.00000E+00
 -1      1483 1.20120E+01 1.09375E+00 0.00000E+00
 -1      1484 1.05120E+01 1.09375E+00 0.00000E+00
 -1      1485 1.03740E+01 2.18750E+00 0.00000E+00
 -1      1486 1.50120E+01 1.09375E+00 0.00000E+00
 -1      1487 1.35120E+01 1.09375E+00 0.00000E+00
 -1      1488 1.33740E+01 2.18750E+00 0.00000E+00
 -1      1489 1.80120E+01 1.09375E+00 0.00000E+00
 -1      1490 1.65120E+01 1.09375E+00 0.00000E+00
 -1      1491 1.63740E+01 2.18750E+00 0.00000E+00
 -1      1492 2.10120E+01 1.09375E+00 0.00000E+00
 -1      1493 1.95120E+01 1.09375E+00 0.00000E+00
 -1      1494 1.93740E+01 2.18750E+00 0.00000E+00
 -1      1495 2.40120E+01 1.09375E+00 0.00000E+00
 -1      1496 2.25120E+01 1.09375E+00 0.00000E+00
 -1      1497 2.23740E+01 2.18750E+00 0.00000E+00
 -1      1498 2.70120E+01 1.09375E+00 0.00000E+00
 -1      1499 2.55120E+01 1.09375E+00 0.00000E+00
 -1      1500 2.53740E+01 2.18750E+00 0.00000E+00
 -1      1501 3.00120E+01 1.09375E+00 0.00000E+00
 -1      1502 2.85120E+01 1.09375E+00 0.00000E+00
 -1      1503 2.83740E+01 2.18750E+00 0.00000E+00
 -1      1504 3.30120E+01 1.09375E+00 0.00000E+00
 -1      1505 3.15120E+01 1.09375E+00 0.00000E+00
 -1      1506 3.13740E+01 2.18750E+00 0.00000E+00
 -1      1507 3.60120E+01 1.09375E+00 0.00000E+00
 -1      1508 3.45120E+01 1.09375E+00 0.00000E+00
 -1      1509 3.43740E+01 2.18750E+00 0.00000E+00
 -1      1510 3.90120E+01 1.09375E+00 0.00000E+00
 -1      1511 3.75120E+01 1.09375E+00 0.00000E+00
 -1      1512 3.73740E+01 2.18750E+00 0.00000E+00
 -1      1513 4.20120E+01 1.09375E+00 0.00000E+00
 -1      1514 4.05120E+01 1.09375E+00 0.00000E+00
 -1      1515 4.03740E+01 2.18750E+00 0.00000E+00
 -1      1516 4.50120E+01 1.09375E+00 0.00000E+00
 -1      1517 4.35120E+01 1.09375E+00 0.00000E+00
 -1      1518 4.33740E+01 2.18750E+00 0.00000E+00
 -1      1519 4.80120E+01 1.09375E+00 0.00000E+00
 -1      1520 4.65120E+01 1.09375E+00 0.00000E+00
 -1      1521 4.63740E+01 2.18750E+00 0.00000E+00
 -1      1522 5.10120E+01 1.09375E+00 0.00000E+00
 -1      1523 4.95120E+01 1.09375E+00 0.00000E+00
 -1      1524 4.93740E+01 2.18750E+00 0.00000E+00
 -1      1525 5.40120E+01 1.09375E+00 0.00000E+00
 -1      1526 5.25120E+01 1.09375E+00 0.00000E+00
 -1      1527 5.23740E+01 2.18750E+00 0.00000E+00
 -1      1528 5.70120E+01 1.09375E+00 0.00000E+00
 -1      1529 5.55120E+01 1.09375E+00 0.00000E+00
 -1      1530 5.53740E+01 2.18750E+00 0.00000E+00
 -1      1531 6.00120E+01 1.09375E+00 0.00000E+00
 -1      1532 5.85120E+01 1.09375E+00 0.00000E+00
 -1      1533 5.83740E+01 2.18750E+00 0.00000E+00
 -1      1534 6.30120E+01 1.09375E+00 0.00000E+00
 -1      1535 6.15120E+01 1.09375E+00 0.00000E+00
 -1      1536 6.13740E+01 2.18750E+00 0.00000E+00
 -1      1537 6.60120E+01 1.09375E+00 0.00000E+00
 -1      1538 6.45120E+01 1.09375E+00 0.00000E+00
 -1      1539 6.43740E+01 2.18750E+00 0.00000E+00
 -1      1540 6.90120E+01 1.09375E+00 0.00000E+00
 -1      1541 6.75120E+01 1.09375E+00 0.00000E+00
 -1      1542 6.73740E+01 2.18750E+00 0.00000E+00
 -1      1543 7.20120E+01 1.09375E+00 0.00000E+00
 -1      1544 7.05120E+01 1.09375E+00 0.00000E+00
 -1      1545 7.03740E+01 2.18750E+00 0.00000E+00
 -1      1546 7.50120E+01 1.09375E+00 0.00000E+00
 -1      1547 7.35120E+01 1.09375E+00 0.00000E+00
 -1      1548 7.33740E+01 2.18750E+00 0.00000E+00
 -1      1549 7.80120E+01 1.09375E+00 0.00000E+00
 -1      1550 7.65120E+01 1.09375E+00 0.00000E+00
 -1      1551 7.63740E+01 2.18750E+00 0.00000E+00
 -1      1552 8.10120E+01 1.09375E+00 0.00000E+00
 -1      1553 7.95120E+01 1.09375E+00 0.00000E+00
 -1      1554 7.93740E+01 2.18750E+00 0.00000E+00
 -1      1555 8.40120E+01 1.09375E+00 0.00000E+00
 -1      1556 8.25120E+01 1.09375E+00 0.00000E+00
 -1      1557 8.23740E+01 2.18750E+00 0.00000E+00
 -1      1558 8.70120E+01 1.09375E+00 0.00000E+00
 -1      1559 8.55120E+01 1.09375E+00 0.00000E+00
 -1      1560 8.53740E+01 2.18750E+00 0.00000E+00
 -1      1561 9.00120E+01 1.09375E+00 0.00000E+00
 -1      1562 8.85120E+01 1.09375E+00 0.00000E+00
 -1      1563 8.83740E+01 2.18750E+00 0.00000E+00
 -1      1564 9.30120E+01 1.09375E+00 0.00000E+00
 -1      1565 9.15120E+01 1.09375E+00 0.00000E+00
 -1      1566 9.13740E+01 2.18750E+00 0.00000E+00
 -1      1567 9.60120E+01 1.09375E+00 0.00000E+00
 -1      1568 9.45120E+01 1.09375E+00 0.00000E+00
 -1      1569 9.43740E+01 2.18750E+00 0.00000E+00
 -1      1570 9.90120E+01 1.09375E+00 0.00000E+00
 -1      1571 9.75120E+01 1.09375E+00 0.00000E+00
 -1      1572 9.73740E+01 2.18750E+00 0.00000E+00
 -1      1573 1.02012E+02 1.09375E+00 0.00000E+00
 -1      1574 1.00512E+02 1.09375E+00 0.00000E+00
 -1      1575 1.00374E+02 2.18750E+00 0.00000E+00
 -1      1576 1.05012E+02 1.09375E+00 0.00000E+00
 -1      1577 1.03512E+02 1.09375E+00 0.00000E+00
 -1      1578 1.03374E+02 2.18750E+00 0.00000E+00
 -1      1579 1.08012E+02 1.09375E+00 0.00000E+00
 -1      1580 1.06512E+02 1.09375E+00 0.00000E+00
 -1      1581 1.06374E+02 2.18750E+00 0.00000E+00
 -1      1582 1.11012E+02 1.09375E+00 0.00000E+00
 -1      1583 1.09512E+02 1.09375E+00 0.00000E+00
 -1      1584 1.09374E+02 2.18750E+00 0.00000E+00
 -1      1585 1.14012E+02 1.09375E+00 0.00000E+00
 -1      1586 1.12512E+02 1.09375E+00 0.00000E+00
 -1      1587 1.12374E+02 2.18750E+00 0.00000E+00
 -1      1588 1.17012E+02 1.09375E+00 0.00000E+00
 -1      1589 1.15512E+02 1.09375E+00 0.00000E+00
 -1      1590 1.15374E+02 2.18750E+00 0.00000E+00
 -1      1591 1.20012E+02 1.09375E+00 0.00000E+00
 -1      1592 1.18512E+02 1.09375E+00 0.00000E+00
 -1      1593 1.18374E+02 2.18750E+00 0.00000E+00
 -1      1594 1.23012E+02 1.09375E+00 0.00000E+00
 -1      1595 1.21512E+02 1.09375E+00 0.00000E+00
 -1      1596 1.21374E+02 2.18750E+00 0.00000E+00
 -1      1597 1.26012E+02 1.09375E+00 0.00000E+00
 -1      1598 1.24512E+02 1.09375E+00 0.00000E+00
 -1      1599 1.24374E+02 2.18750E+00 0.00000E+00
 -1      1600 1.29012E+02 1.09375E+00 0.00000E+00
 -1      1601 1.27512E+02 1.09375E+00 0.00000E+00
 -1      1602 1.27374E+02 2.18750E+00 0.00000E+00
 -1      1603 1.32012E+02 1.09375E+00 0.00000E+00
 -1      1604 1.30512E+02 1.09375E+00 0.00000E+00
 -1      1605 1.30374E+02 2.18750E+00 0.00000E+00
 -1      1606 1.35012E+02 1.09375E+00 0.00000E+00
 -1      1607 1.33512E+02 1.09375E+00 0.00000E+00
 -1      1608 1.33374E+02 2.18750E+00 0.00000E+00
 -1      1609 1.38012E+02 1.09375E+00 0.00000E+00
 -1      1610 1.36512E+02 1.09375E+00 0.00000E+00
 -1      1611 1.36374E+02 2.18750E+00 0.00000E+00
 -1      1612 1.41012E+02 1.09375E+00 0.00000E+00
 -1      1613 1.39512E+02 1.09375E+00 0.00000E+00
 -1      1614 1.39374E+02 2.18750E+00 0.00000E+00
 -1      1615 1.44012E+02 1.09375E+00 0.00000E+00
 -1      1616 1.42512E+02 1.09375E+00 0.00000E+00
 -1      1617 1.42374E+02 2.18750E+00 0.00000E+00
 -1      1618 1.47012E+02 1.09375E+00 0.00000E+00
 -1      1619 1.45512E+02 1.09375E+00 0.00000E+00
 -1      1620 1.45374E+02 2.18750E+00 0.00000E+00
 -1      1621 1.48575E+02 1.47500E+00 0.00000E+00
 -1      1622 1.48701E+02 5.16250E+00 0.00000E+00
 -1      1623 1.48701E+02 3.68750E+00 0.00000E+00
 -1      1624 1.48701E+02 8.11250E+00 0.00000E+00
 -1      1625 1.48701E+02 6.63750E+00 0.00000E+00
 -1      1626 1.47402E+02 5.90000E+00 0.00000E+00
 -1      1627 1.48701E+02 1.10625E+01 0.00000E+00
 -1      1628 1.48701E+02 9.58750E+00 0.00000E+00
 -1      1629 1.47402E+02 8.85000E+00 0.00000E+00
 -1      1630 1.48701E+02 1.40125E+01 0.00000E+00
 -1      1631 1.48701E+02 1.25375E+01 0.00000E+00
 -1      1632 1.47402E+02 1.18000E+01 0.00000E+00
 -1      1633 1.48701E+02 1.69125E+01 0.00000E+00
 -1      1634 1.48701E+02 1.54625E+01 0.00000E+00
 -1      1635 1.47402E+02 1.47250E+01 0.00000E+00
 -1      1636 1.48701E+02 1.98625E+01 0.00000E+00
 -1      1637 1.48701E+02 1.83875E+01 0.00000E+00
 -1      1638 1.47402E+02 1.76500E+01 0.00000E+00
 -1      1639 1.48701E+02 2.28125E+01 0.00000E+00
 -1      1640 1.48701E+02 2.13375E+01 0.00000E+00
 -1      1641 1.47402E+02 2.06000E+01 0.00000E+00
 -1      1642 1.48701E+02 2.57625E+01 0.00000E+00
 -1      1643 1.48701E+02 2.42875E+01 0.00000E+00
 -1      1644 1.47402E+02 2.35500E+01 0.00000E+00
 -1      1645 1.48701E+02 2.87125E+01 0.00000E+00
 -1      1646 1.48701E+02 2.72375E+01 0.00000E+00
 -1      1647 1.47402E+02 2.65000E+01 0.00000E+00
 -1      1648 1.48701E+02 3.16625E+01 0.00000E+00
 -1      1649 1.48701E+02 3.01875E+01 0.00000E+00
 -1      1650 1.47402E+02 2.94500E+01 0.00000E+00
 -1      1651 1.48701E+02 3.45625E+01 0.00000E+00
 -1      1652 1.48701E+02 3.31125E+01 0.00000E+00
 -1      1653 1.47402E+02 3.23750E+01 0.00000E+00
 -1      1654 1.48701E+02 3.75125E+01 0.00000E+00
 -1      1655 1.48701E+02 3.60375E+01 0.00000E+00
 -1      1656 1.47402E+02 3.53000E+01 0.00000E+00
 -1      1657 1.48701E+02 4.04625E+01 0.00000E+00
 -1      1658 1.48701E+02 3.89875E+01 0.00000E+00
 -1      1659 1.47402E+02 3.82500E+01 0.00000E+00
 -1      1660 1.48701E+02 4.34125E+01 0.00000E+00
 -1      1661 1.48701E+02 4.19375E+01 0.00000E+00
 -1      1662 1.47402E+02 4.12000E+01 0.00000E+00
 -1      1663 1.48826E+02 4.61000E+01 0.00000E+00
 -1      1664 1.48826E+02 4.46250E+01 0.00000E+00
 -1      1665 1.47527E+02 4.38875E+01 0.00000E+00
 -1      1666 1.47775E+02 4.63124E+01 0.00000E+00
 -1      1667 9.71259E+01 3.61067E+01 0.00000E+00
 -1      1668 9.72027E+01 3.68360E+01 0.00000E+00
 -1      1669 9.67334E+01 3.44988E+01 0.00000E+00
 -1      1670 9.69776E+01 3.52337E+01 0.00000E+00
 -1      1671 9.59561E+01 3.30819E+01 0.00000E+00
 -1      1672 9.63303E+01 3.37112E+01 0.00000E+00
 -1      1673 9.49185E+01 3.17232E+01 0.00000E+00
 -1      1674 9.54726E+01 3.23100E+01 0.00000E+00
 -1      1675 9.35828E+01 3.07943E+01 0.00000E+00
 -1      1676 9.41807E+01 3.11992E+01 0.00000E+00
 -1      1677 9.21476E+01 3.00287E+01 0.00000E+00
 -1      1678 9.28506E+01 3.03122E+01 0.00000E+00
 -1      1679 9.04531E+01 2.95702E+01 0.00000E+00
 -1      1680 9.12576E+01 2.96986E+01 0.00000E+00
 -1      1681 8.87830E+01 2.97365E+01 0.00000E+00
 -1      1682 8.95210E+01 2.96890E+01 0.00000E+00
 -1      1683 8.70919E+01 3.00465E+01 0.00000E+00
 -1      1684 8.78694E+01 2.98177E+01 0.00000E+00
 -1      1685 8.55699E+01 3.08269E+01 0.00000E+00
 -1      1686 8.62433E+01 3.04477E+01 0.00000E+00
 -1      1687 8.43283E+01 3.18596E+01 0.00000E+00
 -1      1688 8.48746E+01 3.13724E+01 0.00000E+00
 -1      1689 8.33362E+01 3.30555E+01 0.00000E+00
 -1      1690 8.37593E+01 3.24822E+01 0.00000E+00
 -1      1691 8.24167E+01 3.44841E+01 0.00000E+00
 -1      1692 8.27427E+01 3.37527E+01 0.00000E+00
 -1      1693 8.21513E+01 3.60930E+01 0.00000E+00
 -1      1694 8.22949E+01 3.53929E+01 0.00000E+00
 -1      1695 8.20365E+01 3.77221E+01 0.00000E+00
 -1      1696 8.20290E+01 3.69548E+01 0.00000E+00
 -1      1697 8.23460E+01 3.93178E+01 0.00000E+00
 -1      1698 8.21803E+01 3.85960E+01 0.00000E+00
 -1      1699 8.29522E+01 4.08244E+01 0.00000E+00
 -1      1700 8.26314E+01 4.01422E+01 0.00000E+00
 -1      1701 8.38424E+01 4.21445E+01 0.00000E+00
 -1      1702 8.34003E+01 4.15650E+01 0.00000E+00
 -1      1703 8.50345E+01 4.32776E+01 0.00000E+00
 -1      1704 8.44468E+01 4.27782E+01 0.00000E+00
 -1      1705 8.64085E+01 4.42077E+01 0.00000E+00
 -1      1706 8.57356E+01 4.38531E+01 0.00000E+00
 -1      1707 8.79811E+01 4.46563E+01 0.00000E+00
 -1      1708 8.72638E+01 4.44581E+01 0.00000E+00
 -1      1709 8.96773E+01 4.49180E+01 0.00000E+00
 -1      1710 8.88713E+01 4.48796E+01 0.00000E+00
 -1      1711 9.12957E+01 4.46575E+01 0.00000E+00
 -1      1712 9.05766E+01 4.47827E+01 0.00000E+00
 -1      1713 9.28356E+01 4.41777E+01 0.00000E+00
 -1      1714 9.21413E+01 4.44583E+01 0.00000E+00
 -1      1715 9.41996E+01 4.33130E+01 0.00000E+00
 -1      1716 9.35871E+01 4.37296E+01 0.00000E+00
 -1      1717 9.53893E+01 4.21933E+01 0.00000E+00
 -1      1718 9.48664E+01 4.27448E+01 0.00000E+00
 -1      1719 9.64178E+01 4.08178E+01 0.00000E+00
 -1      1720 9.60089E+01 4.15075E+01 0.00000E+00
 -1      1721 9.69458E+01 3.92659E+01 0.00000E+00
 -1      1722 9.67186E+01 3.99615E+01 0.00000E+00
 -1      1723 9.72023E+01 3.76944E+01 0.00000E+00
 -1      1724 9.71247E+01 3.84273E+01 0.00000E+00
 -1      1725 8.40000E+01 4.88911E+01 0.00000E+00
 -1      1726 8.52000E+01 4.88911E+01 0.00000E+00
 -1      1727 9.77668E+01 3.72663E+01 0.00000E+00
 -1      1728 9.61807E+01 3.23148E+01 0.00000E+00
 -1      1729 8.32500E+01 4.75921E+01 0.00000E+00
 -1      1730 1.48437E+02 2.56875E+00 0.00000E+00
 -1      1731 1.47138E+02 3.30625E+00 0.00000E+00
 -1      1732 9.76189E+01 3.55349E+01 0.00000E+00
 -1      1733 9.70674E+01 3.38744E+01 0.00000E+00
 -1      1734 9.49594E+01 3.10188E+01 0.00000E+00
 -1      1735 9.34894E+01 3.00127E+01 0.00000E+00
 -1      1736 9.18672E+01 2.92004E+01 0.00000E+00
 -1      1737 9.00451E+01 2.89891E+01 0.00000E+00
 -1      1738 8.81994E+01 2.91890E+01 0.00000E+00
 -1      1739 8.64372E+01 2.96714E+01 0.00000E+00
 -1      1740 8.48933E+01 3.06181E+01 0.00000E+00
 -1      1741 8.36290E+01 3.17862E+01 0.00000E+00
 -1      1742 8.24665E+01 3.31061E+01 0.00000E+00
 -1      1743 8.17511E+01 3.47123E+01 0.00000E+00
 -1      1744 8.15070E+01 3.64830E+01 0.00000E+00
 -1      1745 8.15285E+01 3.82187E+01 0.00000E+00
 -1      1746 8.19578E+01 3.99169E+01 0.00000E+00
 -1      1747 8.26913E+01 4.14818E+01 0.00000E+00
 -1      1748 8.37437E+01 4.28561E+01 0.00000E+00
 -1      1749 8.50492E+01 4.40653E+01 0.00000E+00
 -1      1750 8.66056E+01 4.48911E+01 0.00000E+00
 -1      1751 8.83512E+01 4.53648E+01 0.00000E+00
 -1      1752 9.01408E+01 4.54527E+01 0.00000E+00
 -1      1753 9.18857E+01 4.51181E+01 0.00000E+00
 -1      1754 9.34828E+01 4.44707E+01 0.00000E+00
 -1      1755 9.49010E+01 4.34544E+01 0.00000E+00
 -1      1756 9.61873E+01 4.22003E+01 0.00000E+00
 -1      1757 9.71076E+01 4.06582E+01 0.00000E+00
 -1      1758 9.75874E+01 3.89633E+01 0.00000E+00
 -1      1759 8.58000E+01 4.78660E+01 0.00000E+00
 -1      1760 2.87400E+00 4.77875E+01 0.00000E+00
 -1      1761 3.89700E+00 4.04125E+01 0.00000E+00
 -1      1762 3.89700E+00 4.18875E+01 0.00000E+00
 -1      1763 3.89700E+00 4.33625E+01 0.00000E+00
 -1      1764 3.89700E+00 4.48375E+01 0.00000E+00
 -1      1765 5.19600E+00 4.26250E+01 0.00000E+00
 -1      1766 3.89700E+00 3.45500E+01 0.00000E+00
 -1      1767 3.89700E+00 3.60000E+01 0.00000E+00
 -1      1768 3.89700E+00 3.16000E+01 0.00000E+00
 -1      1769 3.89700E+00 3.30750E+01 0.00000E+00
 -1      1770 5.19600E+00 3.38000E+01 0.00000E+00
 -1      1771 3.89700E+00 2.86500E+01 0.00000E+00
 -1      1772 3.89700E+00 3.01250E+01 0.00000E+00
 -1      1773 5.19600E+00 3.08500E+01 0.00000E+00
 -1      1774 3.89700E+00 2.57000E+01 0.00000E+00
 -1      1775 3.89700E+00 2.71750E+01 0.00000E+00
 -1      1776 5.19600E+00 2.79000E+01 0.00000E+00
 -1      1777 3.89700E+00 2.27500E+01 0.00000E+00
 -1      1778 3.89700E+00 2.42250E+01 0.00000E+00
 -1      1779 5.19600E+00 2.49500E+01 0.00000E+00
 -1      1780 3.89700E+00 1.98000E+01 0.00000E+00
 -1      1781 3.89700E+00 2.12750E+01 0.00000E+00
 -1      1782 5.19600E+00 2.20000E+01 0.00000E+00
 -1      1783 3.89700E+00 1.69000E+01 0.00000E+00
 -1      1784 3.89700E+00 1.83500E+01 0.00000E+00
 -1      1785 5.19600E+00 1.90750E+01 0.00000E+00
 -1      1786 3.89700E+00 1.39500E+01 0.00000E+00
 -1      1787 3.89700E+00 1.54250E+01 0.00000E+00
 -1      1788 5.19600E+00 1.61500E+01 0.00000E+00
 -1      1789 3.89700E+00 1.10000E+01 0.00000E+00
 -1      1790 3.89700E+00 1.24750E+01 0.00000E+00
 -1      1791 5.19600E+00 1.32000E+01 0.00000E+00
 -1      1792 3.89700E+00 8.05000E+00 0.00000E+00
 -1      1793 3.89700E+00 9.52500E+00 0.00000E+00
 -1      1794 5.19600E+00 1.02500E+01 0.00000E+00
 -1      1795 3.89700E+00 5.10000E+00 0.00000E+00
 -1      1796 3.89700E+00 6.57500E+00 0.00000E+00
 -1      1797 5.19600E+00 7.30000E+00 0.00000E+00
 -1      1798 4.20450E+00 3.09687E+00 0.00000E+00
 -1      1799 4.06650E+00 4.19063E+00 0.00000E+00
 -1      1800 5.36550E+00 4.91563E+00 0.00000E+00
 -1      1801 5.70450E+00 3.09687E+00 0.00000E+00
 -1      1802 3.62400E+00 4.64885E+01 0.00000E+00
 -1      1803 8.70450E+00 3.09687E+00 0.00000E+00
 -1      1804 7.20450E+00 3.09687E+00 0.00000E+00
 -1      1805 7.03500E+00 4.00625E+00 0.00000E+00
 -1      1806 4.92300E+00 4.57510E+01 0.00000E+00
 -1      1807 8.40000E+00 4.61030E+01 0.00000E+00
 -1      1808 9.90000E+00 4.61030E+01 0.00000E+00
 -1      1809 1.14000E+01 4.61030E+01 0.00000E+00
 -1      1810 1.29000E+01 4.61030E+01 0.00000E+00
 -1      1811 1.06500E+01 4.48040E+01 0.00000E+00
 -1      1812 1.44000E+01 4.61030E+01 0.00000E+00
 -1      1813 1.59000E+01 4.61030E+01 0.00000E+00
 -1      1814 1.36500E+01 4.48040E+01 0.00000E+00
 -1      1815 1.74000E+01 4.61030E+01 0.00000E+00
 -1      1816 1.89000E+01 4.61030E+01 0.00000E+00
 -1      1817 1.66500E+01 4.48040E+01 0.00000E+00
 -1      1818 2.04000E+01 4.61030E+01 0.00000E+00
 -1      1819 2.19000E+01 4.61030E+01 0.00000E+00
 -1      1820 1.96500E+01 4.48040E+01 0.00000E+00
 -1      1821 2.34000E+01 4.61030E+01 0.00000E+00
 -1      1822 2.49000E+01 4.61030E+01 0.00000E+00
 -1      1823 2.26500E+01 4.48040E+01 0.00000E+00
 -1      1824 2.64000E+01 4.61030E+01 0.00000E+00
 -1      1825 2.79000E+01 4.61030E+01 0.00000E+00
 -1      1826 2.56500E+01 4.48040E+01 0.00000E+00
 -1      1827 2.94000E+01 4.61030E+01 0.00000E+00
 -1      1828 3.09000E+01 4.61030E+01 0.00000E+00
 -1      1829 2.86500E+01 4.48040E+01 0.00000E+00
 -1      1830 3.24000E+01 4.61030E+01 0.00000E+00
 -1      1831 3.39000E+01 4.61030E+01 0.00000E+00
 -1      1832 3.16500E+01 4.48040E+01 0.00000E+00
 -1      1833 3.54000E+01 4.61030E+01 0.00000E+00
 -1      1834 3.69000E+01 4.61030E+01 0.00000E+00
 -1      1835 3.46500E+01 4.48040E+01 0.00000E+00
 -1      1836 3.84000E+01 4.61030E+01 0.00000E+00
 -1      1837 3.99000E+01 4.61030E+01 0.00000E+00
 -1      1838 3.76500E+01 4.48040E+01 0.00000E+00
 -1      1839 4.14000E+01 4.61030E+01 0.00000E+00
 -1      1840 4.29000E+01 4.61030E+01 0.00000E+00
 -1      1841 4.06500E+01 4.48040E+01 0.00000E+00
 -1      1842 4.44000E+01 4.61030E+01 0.00000E+00
 -1      1843 4.59000E+01 4.61030E+01 0.00000E+00
 -1      1844 4.36500E+01 4.48040E+01 0.00000E+00
 -1      1845 4.74000E+01 4.61030E+01 0.00000E+00
 -1      1846 4.89000E+01 4.61030E+01 0.00000E+00
 -1      1847 4.66500E+01 4.48040E+01 0.00000E+00
 -1      1848 5.04750E+01 4.61030E+01 0.00000E+00
 -1      1849 5.20500E+01 4.61030E+01 0.00000E+00
 -1      1850 4.97250E+01 4.48040E+01 0.00000E+00
 -1      1851 5.35500E+01 4.61030E+01 0.00000E+00
 -1      1852 5.50500E+01 4.61030E+01 0.00000E+00
 -1      1853 5.28000E+01 4.48040E+01 0.00000E+00
 -1      1854 5.65500E+01 4.61030E+01 0.00000E+00
 -1      1855 5.80500E+01 4.61030E+01 0.00000E+00
 -1      1856 5.58000E+01 4.48040E+01 0.00000E+00
 -1      1857 5.95500E+01 4.61030E+01 0.00000E+00
 -1      1858 6.10500E+01 4.61030E+01 0.00000E+00
 -1      1859 5.88000E+01 4.48040E+01 0.00000E+00
 -1      1860 6.25500E+01 4.61030E+01 0.00000E+00
 -1      1861 6.40500E+01 4.61030E+01 0.00000E+00
 -1      1862 6.18000E+01 4.48040E+01 0.00000E+00
 -1      1863 6.55500E+01 4.61030E+01 0.00000E+00
 -1      1864 6.70500E+01 4.61030E+01 0.00000E+00
 -1      1865 6.48000E+01 4.48040E+01 0.00000E+00
 -1      1866 6.85500E+01 4.61030E+01 0.00000E+00
 -1      1867 7.00500E+01 4.61030E+01 0.00000E+00
 -1      1868 6.78000E+01 4.48040E+01 0.00000E+00
 -1      1869 7.15500E+01 4.61030E+01 0.00000E+00
 -1      1870 7.30500E+01 4.61030E+01 0.00000E+00
 -1      1871 7.08000E+01 4.48040E+01 0.00000E+00
 -1      1872 7.45500E+01 4.61030E+01 0.00000E+00
 -1      1873 7.60500E+01 4.61030E+01 0.00000E+00
 -1      1874 7.38000E+01 4.48040E+01 0.00000E+00
 -1      1875 7.74000E+01 4.61030E+01 0.00000E+00
 -1      1876 7.87500E+01 4.61030E+01 0.00000E+00
 -1      1877 7.66500E+01 4.48040E+01 0.00000E+00
 -1      1878 9.85407E+01 3.68374E+01 0.00000E+00
 -1      1879 9.85403E+01 3.76958E+01 0.00000E+00
 -1      1880 9.03700E+01 4.66335E+01 0.00000E+00
 -1      1881 9.16451E+01 4.66335E+01 0.00000E+00
 -1      1882 9.54375E+01 4.68408E+01 0.00000E+00
 -1      1883 9.70125E+01 4.68408E+01 0.00000E+00
 -1      1884 9.85500E+01 4.67570E+01 0.00000E+00
 -1      1885 1.00050E+02 4.67570E+01 0.00000E+00
 -1      1886 1.01550E+02 4.67570E+01 0.00000E+00
 -1      1887 1.03050E+02 4.67570E+01 0.00000E+00
 -1      1888 1.00800E+02 4.55644E+01 0.00000E+00
 -1      1889 1.04550E+02 4.67570E+01 0.00000E+00
 -1      1890 1.06050E+02 4.67570E+01 0.00000E+00
 -1      1891 1.03800E+02 4.55644E+01 0.00000E+00
 -1      1892 1.07550E+02 4.67570E+01 0.00000E+00
 -1      1893 1.09050E+02 4.67570E+01 0.00000E+00
 -1      1894 1.06800E+02 4.55644E+01 0.00000E+00
 -1      1895 1.10550E+02 4.67570E+01 0.00000E+00
 -1      1896 1.12050E+02 4.67570E+01 0.00000E+00
 -1      1897 1.09800E+02 4.55644E+01 0.00000E+00
 -1      1898 1.13550E+02 4.67570E+01 0.00000E+00
 -1      1899 1.15050E+02 4.67570E+01 0.00000E+00
 -1      1900 1.12800E+02 4.55644E+01 0.00000E+00
 -1      1901 1.16550E+02 4.67570E+01 0.00000E+00
 -1      1902 1.18050E+02 4.67570E+01 0.00000E+00
 -1      1903 1.15800E+02 4.55644E+01 0.00000E+00
 -1      1904 1.19550E+02 4.67570E+01 0.00000E+00
 -1      1905 1.21050E+02 4.67570E+01 0.00000E+00
 -1      1906 1.18800E+02 4.55644E+01 0.00000E+00
 -1      1907 1.22550E+02 4.67570E+01 0.00000E+00
 -1      1908 1.24050E+02 4.67570E+01 0.00000E+00
 -1      1909 1.21800E+02 4.55644E+01 0.00000E+00
 -1      1910 1.25550E+02 4.67570E+01 0.00000E+00
 -1      1911 1.27050E+02 4.67570E+01 0.00000E+00
 -1      1912 1.24800E+02 4.55644E+01 0.00000E+00
 -1      1913 1.28550E+02 4.67570E+01 0.00000E+00
 -1      1914 1.30050E+02 4.67570E+01 0.00000E+00
 -1      1915 1.27800E+02 4.55644E+01 0.00000E+00
 -1      1916 1.31550E+02 4.67570E+01 0.00000E+00
 -1      1917 1.33050E+02 4.67570E+01 0.00000E+00
 -1      1918 1.30800E+02 4.55644E+01 0.00000E+00
 -1      1919 1.34550E+02 4.67570E+01 0.00000E+00
 -1      1920 1.36050E+02 4.67570E+01 0.00000E+00
 -1      1921 1.33800E+02 4.55644E+01 0.00000E+00
 -1      1922 1.37550E+02 4.67570E+01 0.00000E+00
 -1      1923 1.39050E+02 4.67570E+01 0.00000E+00
 -1      1924 1.36800E+02 4.55644E+01 0.00000E+00
 -1      1925 1.40550E+02 4.67570E+01 0.00000E+00
 -1      1926 1.42050E+02 4.67570E+01 0.00000E+00
 -1      1927 1.39800E+02 4.55644E+01 0.00000E+00
 -1      1928 1.43550E+02 4.67570E+01 0.00000E+00
 -1      1929 1.45050E+02 4.67570E+01 0.00000E+00
 -1      1930 1.42800E+02 4.55644E+01 0.00000E+00
 -1      1931 1.46725E+02 4.65248E+01 0.00000E+00
 -1      1932 1.41240E+01 3.48650E+00 0.00000E+00
 -1      1933 1.26240E+01 3.48650E+00 0.00000E+00
 -1      1934 1.71240E+01 3.48650E+00 0.00000E+00
 -1      1935 1.56240E+01 3.48650E+00 0.00000E+00
 -1      1936 1.48740E+01 4.78550E+00 0.00000E+00
 -1      1937 2.01240E+01 3.48650E+00 0.00000E+00
 -1      1938 1.86240E+01 3.48650E+00 0.00000E+00
 -1      1939 1.78740E+01 4.78550E+00 0.00000E+00
 -1      1940 2.31240E+01 3.48650E+00 0.00000E+00
 -1      1941 2.16240E+01 3.48650E+00 0.00000E+00
 -1      1942 2.08740E+01 4.78550E+00 0.00000E+00
 -1      1943 2.61240E+01 3.48650E+00 0.00000E+00
 -1      1944 2.46240E+01 3.48650E+00 0.00000E+00
 -1      1945 2.38740E+01 4.78550E+00 0.00000E+00
 -1      1946 2.91240E+01 3.48650E+00 0.00000E+00
 -1      1947 2.76240E+01 3.48650E+00 0.00000E+00
 -1      1948 2.68740E+01 4.78550E+00 0.00000E+00
 -1      1949 3.21240E+01 3.48650E+00 0.00000E+00
 -1      1950 3.06240E+01 3.48650E+00 0.00000E+00
 -1      1951 2.98740E+01 4.78550E+00 0.00000E+00
 -1      1952 3.51240E+01 3.48650E+00 0.00000E+00
 -1      1953 3.36240E+01 3.48650E+00 0.00000E+00
 -1      1954 3.28740E+01 4.78550E+00 0.00000E+00
 -1      1955 3.81240E+01 3.48650E+00 0.00000E+00
 -1      1956 3.66240E+01 3.48650E+00 0.00000E+00
 -1      1957 3.58740E+01 4.78550E+00 0.00000E+00
 -1      1958 4.11240E+01 3.48650E+00 0.00000E+00
 -1      1959 3.96240E+01 3.48650E+00 0.00000E+00
 -1      1960 3.88740E+01 4.78550E+00 0.00000E+00
 -1      1961 4.41240E+01 3.48650E+00 0.00000E+00
 -1      1962 4.26240E+01 3.48650E+00 0.00000E+00
 -1      1963 4.18740E+01 4.78550E+00 0.00000E+00
 -1      1964 4.71240E+01 3.48650E+00 0.00000E+00
 -1      1965 4.56240E+01 3.48650E+00 0.00000E+00
 -1      1966 4.48740E+01 4.78550E+00 0.00000E+00
 -1      1967 5.01240E+01 3.48650E+00 0.00000E+00
 -1      1968 4.86240E+01 3.48650E+00 0.00000E+00
 -1      1969 4.78740E+01 4.78550E+00 0.00000E+00
 -1      1970 5.31240E+01 3.48650E+00 0.00000E+00
 -1      1971 5.16240E+01 3.48650E+00 0.00000E+00
 -1      1972 5.08740E+01 4.78550E+00 0.00000E+00
 -1      1973 5.61240E+01 3.48650E+00 0.00000E+00
 -1      1974 5.46240E+01 3.48650E+00 0.00000E+00
 -1      1975 5.38740E+01 4.78550E+00 0.00000E+00
 -1      1976 5.91240E+01 3.48650E+00 0.00000E+00
 -1      1977 5.76240E+01 3.48650E+00 0.00000E+00
 -1      1978 5.68740E+01 4.78550E+00 0.00000E+00
 -1      1979 6.21240E+01 3.48650E+00 0.00000E+00
 -1      1980 6.06240E+01 3.48650E+00 0.00000E+00
 -1      1981 5.98740E+01 4.78550E+00 0.00000E+00
 -1      1982 6.51240E+01 3.48650E+00 0.00000E+00
 -1      1983 6.36240E+01 3.48650E+00 0.00000E+00
 -1      1984 6.28740E+01 4.78550E+00 0.00000E+00
 -1      1985 6.81240E+01 3.48650E+00 0.00000E+00
 -1      1986 6.66240E+01 3.48650E+00 0.00000E+00
 -1      1987 6.58740E+01 4.78550E+00 0.00000E+00
 -1      1988 7.11240E+01 3.48650E+00 0.00000E+00
 -1      1989 6.96240E+01 3.48650E+00 0.00000E+00
 -1      1990 6.88740E+01 4.78550E+00 0.00000E+00
 -1      1991 7.41240E+01 3.48650E+00 0.00000E+00
 -1      1992 7.26240E+01 3.48650E+00 0.00000E+00
 -1      1993 7.18740E+01 4.78550E+00 0.00000E+00
 -1      1994 7.71240E+01 3.48650E+00 0.00000E+00
 -1      1995 7.56240E+01 3.48650E+00 0.00000E+00
 -1      1996 7.48740E+01 4.78550E+00 0.00000E+00
 -1      1997 8.01240E+01 3.48650E+00 0.00000E+00
 -1      1998 7.86240E+01 3.48650E+00 0.00000E+00
 -1      1999 7.78740E+01 4.78550E+00 0.00000E+00
 -1      2000 8.31240E+01 3.48650E+00 0.00000E+00
 -1      2001 8.16240E+01 3.48650E+00 0.00000E+00
 -1      2002 8.08740E+01 4.78550E+00 0.00000E+00
 -1      2003 8.61240E+01 3.48650E+00 0.00000E+00
 -1      2004 8.46240E+01 3.48650E+00 0.00000E+00
 -1      2005 8.38740E+01 4.78550E+00 0.00000E+00
 -1      2006 8.91240E+01 3.48650E+00 0.00000E+00
 -1      2007 8.76240E+01 3.48650E+00 0.00000E+00
 -1      2008 8.68740E+01 4.78550E+00 0.00000E+00
 -1      2009 9.21240E+01 3.48650E+00 0.00000E+00
 -1      2010 9.06240E+01 3.48650E+00 0.00000E+00
 -1      2011 8.98740E+01 4.78550E+00 0.00000E+00
 -1      2012 9.51240E+01 3.48650E+00 0.00000E+00
 -1      2013 9.36240E+01 3.48650E+00 0.00000E+00
 -1      2014 9.28740E+01 4.78550E+00 0.00000E+00
 -1      2015 9.81240E+01 3.48650E+00 0.00000E+00
 -1      2016 9.66240E+01 3.48650E+00 0.00000E+00
 -1      2017 9.58740E+01 4.78550E+00 0.00000E+00
 -1      2018 1.01124E+02 3.48650E+00 0.00000E+00
 -1      2019 9.96240E+01 3.48650E+00 0.00000E+00
 -1      2020 9.88740E+01 4.78550E+00 0.00000E+00
 -1      2021 1.04124E+02 3.48650E+00 0.00000E+00
 -1      2022 1.02624E+02 3.48650E+00 0.00000E+00
 -1      2023 1.01874E+02 4.78550E+00 0.00000E+00
 -1      2024 1.07124E+02 3.48650E+00 0.00000E+00
 -1      2025 1.05624E+02 3.48650E+00 0.00000E+00
 -1      2026 1.04874E+02 4.78550E+00 0.00000E+00
 -1      2027 1.10124E+02 3.48650E+00 0.00000E+00
 -1      2028 1.08624E+02 3.48650E+00 0.00000E+00
 -1      2029 1.07874E+02 4.78550E+00 0.00000E+00
 -1      2030 1.13124E+02 3.48650E+00 0.00000E+00
 -1      2031 1.11624E+02 3.48650E+00 0.00000E+00
 -1      2032 1.10874E+02 4.78550E+00 0.00000E+00
 -1      2033 1.16124E+02 3.48650E+00 0.00000E+00
 -1      2034 1.14624E+02 3.48650E+00 0.00000E+00
 -1      2035 1.13874E+02 4.78550E+00 0.00000E+00
 -1      2036 1.19124E+02 3.48650E+00 0.00000E+00
 -1      2037 1.17624E+02 3.48650E+00 0.00000E+00
 -1      2038 1.16874E+02 4.78550E+00 0.00000E+00
 -1      2039 1.22124E+02 3.48650E+00 0.00000E+00
 -1      2040 1.20624E+02 3.48650E+00 0.00000E+00
 -1      2041 1.19874E+02 4.78550E+00 0.00000E+00
 -1      2042 1.25124E+02 3.48650E+00 0.00000E+00
 -1      2043 1.23624E+02 3.48650E+00 0.00000E+00
 -1      2044 1.22874E+02 4.78550E+00 0.00000E+00
 -1      2045 1.28124E+02 3.48650E+00 0.00000E+00
 -1      2046 1.26624E+02 3.48650E+00 0.00000E+00
 -1      2047 1.25874E+02 4.78550E+00 0.00000E+00
 -1      2048 1.31124E+02 3.48650E+00 0.00000E+00
 -1      2049 1.29624E+02 3.48650E+00 0.00000E+00
 -1      2050 1.28874E+02 4.78550E+00 0.00000E+00
 -1      2051 1.34124E+02 3.48650E+00 0.00000E+00
 -1      2052 1.32624E+02 3.48650E+00 0.00000E+00
 -1      2053 1.31874E+02 4.78550E+00 0.00000E+00
 -1      2054 1.37124E+02 3.48650E+00 0.00000E+00
 -1      2055 1.35624E+02 3.48650E+00 0.00000E+00
 -1      2056 1.34874E+02 4.78550E+00 0.00000E+00
 -1      2057 1.40124E+02 3.48650E+00 0.00000E+00
 -1      2058 1.38624E+02 3.48650E+00 0.00000E+00
 -1      2059 1.37874E+02 4.78550E+00 0.00000E+00
 -1      2060 1.43124E+02 3.48650E+00 0.00000E+00
 -1      2061 1.41624E+02 3.48650E+00 0.00000E+00
 -1      2062 1.40874E+02 4.78550E+00 0.00000E+00
 -1      2063 1.45881E+02 3.39637E+00 0.00000E+00
 -1      2064 1.44381E+02 3.39637E+00 0.00000E+00
 -1      2065 1.43631E+02 4.69537E+00 0.00000E+00
 -1      2066 1.46145E+02 4.51512E+00 0.00000E+00
 -1      2067 1.46103E+02 1.25375E+01 0.00000E+00
 -1      2068 1.46103E+02 1.10625E+01 0.00000E+00
 -1      2069 1.46103E+02 9.58750E+00 0.00000E+00
 -1      2070 1.46103E+02 8.11250E+00 0.00000E+00
 -1      2071 1.44804E+02 1.03250E+01 0.00000E+00
 -1      2072 1.46145E+02 5.99013E+00 0.00000E+00
 -1      2073 1.46103E+02 1.54375E+01 0.00000E+00
 -1      2074 1.46103E+02 1.39875E+01 0.00000E+00
 -1      2075 1.44804E+02 1.32500E+01 0.00000E+00
 -1      2076 1.46103E+02 1.83875E+01 0.00000E+00
 -1      2077 1.46103E+02 1.69125E+01 0.00000E+00
 -1      2078 1.44804E+02 1.61750E+01 0.00000E+00
 -1      2079 1.46103E+02 2.13375E+01 0.00000E+00
 -1      2080 1.46103E+02 1.98625E+01 0.00000E+00
 -1      2081 1.44804E+02 1.91250E+01 0.00000E+00
 -1      2082 1.46103E+02 2.42875E+01 0.00000E+00
 -1      2083 1.46103E+02 2.28125E+01 0.00000E+00
 -1      2084 1.44804E+02 2.20750E+01 0.00000E+00
 -1      2085 1.46103E+02 2.72375E+01 0.00000E+00
 -1      2086 1.46103E+02 2.57625E+01 0.00000E+00
 -1      2087 1.44804E+02 2.50250E+01 0.00000E+00
 -1      2088 1.46103E+02 3.01875E+01 0.00000E+00
 -1      2089 1.46103E+02 2.87125E+01 0.00000E+00
 -1      2090 1.44804E+02 2.79750E+01 0.00000E+00
 -1      2091 1.46103E+02 3.30875E+01 0.00000E+00
 -1      2092 1.46103E+02 3.16375E+01 0.00000E+00
 -1      2093 1.44804E+02 3.09000E+01 0.00000E+00
 -1      2094 1.46103E+02 3.60375E+01 0.00000E+00
 -1      2095 1.46103E+02 3.45625E+01 0.00000E+00
 -1      2096 1.44804E+02 3.38250E+01 0.00000E+00
 -1      2097 1.46103E+02 3.89875E+01 0.00000E+00
 -1      2098 1.46103E+02 3.75125E+01 0.00000E+00
 -1      2099 1.44804E+02 3.67750E+01 0.00000E+00
 -1      2100 1.46103E+02 4.19375E+01 0.00000E+00
 -1      2101 1.46103E+02 4.04625E+01 0.00000E+00
 -1      2102 1.44804E+02 3.97250E+01 0.00000E+00
 -1      2103 1.14143E+01 3.29169E+00 0.00000E+00
 -1      2104 9.91425E+00 3.29169E+00 0.00000E+00
 -1      2105 9.74475E+00 4.20106E+00 0.00000E+00
 -1      2106 1.21643E+01 4.59069E+00 0.00000E+00
 -1      2107 9.75919E+01 3.31089E+01 0.00000E+00
 -1      2108 9.79950E+01 3.38965E+01 0.00000E+00
 -1      2109 9.49658E+01 3.02284E+01 0.00000E+00
 -1      2110 9.57036E+01 3.07525E+01 0.00000E+00
 -1      2111 8.26946E+01 4.66479E+01 0.00000E+00
 -1      2112 8.40446E+01 4.68379E+01 0.00000E+00
 -1      2113 3.89700E+00 3.74688E+01 0.00000E+00
 -1      2114 3.89700E+00 3.89437E+01 0.00000E+00
 -1      2115 5.19600E+00 3.96813E+01 0.00000E+00
 -1      2116 5.19600E+00 3.67438E+01 0.00000E+00
 -1      2117 9.34797E+01 2.92303E+01 0.00000E+00
 -1      2118 9.42119E+01 2.97124E+01 0.00000E+00
 -1      2119 9.16476E+01 2.84277E+01 0.00000E+00
 -1      2120 9.25376E+01 2.87579E+01 0.00000E+00
 -1      2121 8.94813E+01 2.82809E+01 0.00000E+00
 -1      2122 9.04134E+01 2.81621E+01 0.00000E+00
 -1      2123 8.76541E+01 2.84433E+01 0.00000E+00
 -1      2124 8.85677E+01 2.83621E+01 0.00000E+00
 -1      2125 8.89360E+01 2.75351E+01 0.00000E+00
 -1      2126 8.56822E+01 2.91724E+01 0.00000E+00
 -1      2127 8.65308E+01 2.87713E+01 0.00000E+00
 -1      2128 8.40422E+01 3.02490E+01 0.00000E+00
 -1      2129 8.47375E+01 2.97036E+01 0.00000E+00
 -1      2130 8.28351E+01 3.16321E+01 0.00000E+00
 -1      2131 8.34041E+01 3.10094E+01 0.00000E+00
 -1      2132 8.16124E+01 3.29804E+01 0.00000E+00
 -1      2133 8.22059E+01 3.22831E+01 0.00000E+00
 -1      2134 8.10063E+01 3.50750E+01 0.00000E+00
 -1      2135 8.11282E+01 3.41662E+01 0.00000E+00
 -1      2136 8.07617E+01 3.67987E+01 0.00000E+00
 -1      2137 8.08840E+01 3.59369E+01 0.00000E+00
 -1      2138 8.02611E+01 3.53908E+01 0.00000E+00
 -1      2139 8.09196E+01 3.87676E+01 0.00000E+00
 -1      2140 8.07758E+01 3.78938E+01 0.00000E+00
 -1      2141 8.14881E+01 4.05411E+01 0.00000E+00
 -1      2142 8.12026E+01 3.97168E+01 0.00000E+00
 -1      2143 8.22533E+01 4.22527E+01 0.00000E+00
 -1      2144 8.18052E+01 4.15121E+01 0.00000E+00
 -1      2145 8.35769E+01 4.36203E+01 0.00000E+00
 -1      2146 8.29726E+01 4.29866E+01 0.00000E+00
 -1      2147 8.49886E+01 4.48540E+01 0.00000E+00
 -1      2148 8.42874E+01 4.42785E+01 0.00000E+00
 -1      2149 8.68512E+01 4.56383E+01 0.00000E+00
 -1      2150 8.59959E+01 4.53879E+01 0.00000E+00
 -1      2151 8.86285E+01 4.61456E+01 0.00000E+00
 -1      2152 8.77382E+01 4.59224E+01 0.00000E+00
 -1      2153 8.94707E+01 4.67689E+01 0.00000E+00
 -1      2154 9.42119E+01 4.48393E+01 0.00000E+00
 -1      2155 9.34604E+01 4.52874E+01 0.00000E+00
 -1      2156 9.56548E+01 4.36635E+01 0.00000E+00
 -1      2157 9.49880E+01 4.42317E+01 0.00000E+00
 -1      2158 9.70091E+01 4.23200E+01 0.00000E+00
 -1      2159 9.63895E+01 4.30058E+01 0.00000E+00
 -1      2160 9.79090E+01 4.04587E+01 0.00000E+00
 -1      2161 9.76082E+01 4.13150E+01 0.00000E+00
 -1      2162 9.83517E+01 3.86880E+01 0.00000E+00
 -1      2163 9.81727E+01 3.95266E+01 0.00000E+00
 -1      2164 8.54207E+01 4.69586E+01 0.00000E+00
 -1      2165 8.66207E+01 4.70424E+01 0.00000E+00
 -1      2166 9.66249E+01 3.15650E+01 0.00000E+00
 -1      2167 9.71084E+01 3.23370E+01 0.00000E+00
 -1      2168 9.80360E+01 3.23591E+01 0.00000E+00
 -1      2169 9.83075E+01 3.49688E+01 0.00000E+00
 -1      2170 9.84558E+01 3.58417E+01 0.00000E+00
 -1      2171 9.91256E+01 3.82592E+01 0.00000E+00
 -1      2172 6.42300E+00 4.57510E+01 0.00000E+00
 -1      2173 9.92294E+01 3.62713E+01 0.00000E+00
 -1      2174 9.49561E+01 2.94461E+01 0.00000E+00
 -1      2175 7.17300E+00 4.44520E+01 0.00000E+00
 -1      2176 8.01000E+01 4.64607E+01 0.00000E+00
 -1      2177 8.13000E+01 4.64607E+01 0.00000E+00
 -1      2178 9.20837E+01 4.56348E+01 0.00000E+00
 -1      2179 9.26887E+01 4.69510E+01 0.00000E+00
 -1      2180 9.77625E+01 4.56481E+01 0.00000E+00
 -1      2181 9.38887E+01 4.69510E+01 0.00000E+00
 -1      2182 1.45975E+02 4.53321E+01 0.00000E+00
 -1      2183 1.44846E+02 6.72762E+00 0.00000E+00
 -1      2184 8.20946E+01 4.57065E+01 0.00000E+00
 -1      2185 1.46102E+02 4.42411E+01 0.00000E+00
 -1      2186 1.45977E+02 4.30286E+01 0.00000E+00
 -1      2187 1.44678E+02 4.22911E+01 0.00000E+00
 -1      2188 1.44426E+02 4.44733E+01 0.00000E+00
 -1      2189 9.88320E+01 3.42033E+01 0.00000E+00
 -1      2190 9.66377E+01 2.99842E+01 0.00000E+00
 -1      2191 9.66313E+01 3.07746E+01 0.00000E+00
 -1      2192 9.75589E+01 3.07967E+01 0.00000E+00
 -1      2193 8.48653E+01 4.60144E+01 0.00000E+00
 -1      2194 9.86733E+01 4.01834E+01 0.00000E+00
 -1      2195 9.78105E+01 4.21205E+01 0.00000E+00
 -1      2196 9.64765E+01 4.37831E+01 0.00000E+00
 -1      2197 8.71285E+01 4.64192E+01 0.00000E+00
 -1      2198 8.35163E+01 4.44090E+01 0.00000E+00
 -1      2199 8.20865E+01 4.30168E+01 0.00000E+00
 -1      2200 8.10501E+01 4.13120E+01 0.00000E+00
 -1      2201 8.01528E+01 3.73477E+01 0.00000E+00
 -1      2202 8.08676E+01 3.33431E+01 0.00000E+00
 -1      2203 8.06070E+01 3.25201E+01 0.00000E+00
 -1      2204 8.01228E+01 3.37059E+01 0.00000E+00
 -1      2205 8.19810E+01 3.15063E+01 0.00000E+00
 -1      2206 8.32483E+01 3.00949E+01 0.00000E+00
 -1      2207 8.68991E+01 2.79443E+01 0.00000E+00
 -1      2208 9.32601E+01 2.84576E+01 0.00000E+00
 -1      2209 9.10838E+01 2.77195E+01 0.00000E+00
 -1      2210 9.17542E+01 2.72770E+01 0.00000E+00
 -1      2211 9.05199E+01 2.70114E+01 0.00000E+00
 -1      2212 8.75078E+01 4.73265E+01 0.00000E+00
 -1      2213 8.88578E+01 4.73265E+01 0.00000E+00
 -1      2214 8.48311E+01 2.88034E+01 0.00000E+00
 -1      2215 8.04499E+01 3.93919E+01 0.00000E+00
 -1      2216 9.49657E+01 4.50484E+01 0.00000E+00
 -1      2217 9.29293E+01 4.54356E+01 0.00000E+00
 -1      2218 9.36584E+01 4.58041E+01 0.00000E+00
 -1      2219 7.93500E+01 4.51617E+01 0.00000E+00
 -1      2220 6.49500E+00 3.01125E+01 0.00000E+00
 -1      2221 6.49500E+00 3.15875E+01 0.00000E+00
 -1      2222 6.49500E+00 3.30625E+01 0.00000E+00
 -1      2223 6.49500E+00 3.45375E+01 0.00000E+00
 -1      2224 7.79400E+00 3.23250E+01 0.00000E+00
 -1      2225 6.49500E+00 2.42125E+01 0.00000E+00
 -1      2226 6.49500E+00 2.56875E+01 0.00000E+00
 -1      2227 6.49500E+00 2.12625E+01 0.00000E+00
 -1      2228 6.49500E+00 2.27375E+01 0.00000E+00
 -1      2229 7.79400E+00 2.34750E+01 0.00000E+00
 -1      2230 6.49500E+00 1.83625E+01 0.00000E+00
 -1      2231 6.49500E+00 1.98125E+01 0.00000E+00
 -1      2232 7.79400E+00 2.05500E+01 0.00000E+00
 -1      2233 6.49500E+00 1.54125E+01 0.00000E+00
 -1      2234 6.49500E+00 1.68875E+01 0.00000E+00
 -1      2235 7.79400E+00 1.76250E+01 0.00000E+00
 -1      2236 6.49500E+00 1.24625E+01 0.00000E+00
 -1      2237 6.49500E+00 1.39375E+01 0.00000E+00
 -1      2238 7.79400E+00 1.46750E+01 0.00000E+00
 -1      2239 6.49500E+00 9.51250E+00 0.00000E+00
 -1      2240 6.49500E+00 1.09875E+01 0.00000E+00
 -1      2241 7.79400E+00 1.17250E+01 0.00000E+00
 -1      2242 6.49500E+00 6.56250E+00 0.00000E+00
 -1      2243 6.49500E+00 8.03750E+00 0.00000E+00
 -1      2244 7.79400E+00 8.77500E+00 0.00000E+00
 -1      2245 6.84975E+00 4.82969E+00 0.00000E+00
 -1      2246 6.68025E+00 5.73906E+00 0.00000E+00
 -1      2247 7.97925E+00 6.47656E+00 0.00000E+00
 -1      2248 8.34975E+00 4.82969E+00 0.00000E+00
 -1      2249 9.90000E+00 4.35050E+01 0.00000E+00
 -1      2250 1.14000E+01 4.35050E+01 0.00000E+00
 -1      2251 1.00041E+02 3.57006E+01 0.00000E+00
 -1      2252 1.00126E+02 3.66963E+01 0.00000E+00
 -1      2253 1.29000E+01 4.35050E+01 0.00000E+00
 -1      2254 1.44000E+01 4.35050E+01 0.00000E+00
 -1      2255 1.21500E+01 4.22060E+01 0.00000E+00
 -1      2256 1.59000E+01 4.35050E+01 0.00000E+00
 -1      2257 1.74000E+01 4.35050E+01 0.00000E+00
 -1      2258 1.51500E+01 4.22060E+01 0.00000E+00
 -1      2259 1.89000E+01 4.35050E+01 0.00000E+00
 -1      2260 2.04000E+01 4.35050E+01 0.00000E+00
 -1      2261 1.81500E+01 4.22060E+01 0.00000E+00
 -1      2262 2.19000E+01 4.35050E+01 0.00000E+00
 -1      2263 2.34000E+01 4.35050E+01 0.00000E+00
 -1      2264 2.11500E+01 4.22060E+01 0.00000E+00
 -1      2265 2.49000E+01 4.35050E+01 0.00000E+00
 -1      2266 2.64000E+01 4.35050E+01 0.00000E+00
 -1      2267 2.41500E+01 4.22060E+01 0.00000E+00
 -1      2268 2.79000E+01 4.35050E+01 0.00000E+00
 -1      2269 2.94000E+01 4.35050E+01 0.00000E+00
 -1      2270 2.71500E+01 4.22060E+01 0.00000E+00
 -1      2271 3.09000E+01 4.35050E+01 0.00000E+00
 -1      2272 3.24000E+01 4.35050E+01 0.00000E+00
 -1      2273 3.01500E+01 4.22060E+01 0.00000E+00
 -1      2274 3.39000E+01 4.35050E+01 0.00000E+00
 -1      2275 3.54000E+01 4.35050E+01 0.00000E+00
 -1      2276 3.31500E+01 4.22060E+01 0.00000E+00
 -1      2277 3.69000E+01 4.35050E+01 0.00000E+00
 -1      2278 3.84000E+01 4.35050E+01 0.00000E+00
 -1      2279 3.61500E+01 4.22060E+01 0.00000E+00
 -1      2280 3.99000E+01 4.35050E+01 0.00000E+00
 -1      2281 4.14000E+01 4.35050E+01 0.00000E+00
 -1      2282 3.91500E+01 4.22060E+01 0.00000E+00
 -1      2283 4.29000E+01 4.35050E+01 0.00000E+00
 -1      2284 4.44000E+01 4.35050E+01 0.00000E+00
 -1      2285 4.21500E+01 4.22060E+01 0.00000E+00
 -1      2286 4.59000E+01 4.35050E+01 0.00000E+00
 -1      2287 4.74000E+01 4.35050E+01 0.00000E+00
 -1      2288 4.51500E+01 4.22060E+01 0.00000E+00
 -1      2289 4.89750E+01 4.35050E+01 0.00000E+00
 -1      2290 5.05500E+01 4.35050E+01 0.00000E+00
 -1      2291 4.82250E+01 4.22060E+01 0.00000E+00
 -1      2292 5.20500E+01 4.35050E+01 0.00000E+00
 -1      2293 5.35500E+01 4.35050E+01 0.00000E+00
 -1      2294 5.13000E+01 4.22060E+01 0.00000E+00
 -1      2295 5.50500E+01 4.35050E+01 0.00000E+00
 -1      2296 5.65500E+01 4.35050E+01 0.00000E+00
 -1      2297 5.43000E+01 4.22060E+01 0.00000E+00
 -1      2298 5.80500E+01 4.35050E+01 0.00000E+00
 -1      2299 5.95500E+01 4.35050E+01 0.00000E+00
 -1      2300 5.73000E+01 4.22060E+01 0.00000E+00
 -1      2301 6.10500E+01 4.35050E+01 0.00000E+00
 -1      2302 6.25500E+01 4.35050E+01 0.00000E+00
 -1      2303 6.03000E+01 4.22060E+01 0.00000E+00
 -1      2304 6.40500E+01 4.35050E+01 0.00000E+00
 -1      2305 6.55500E+01 4.35050E+01 0.00000E+00
 -1      2306 6.33000E+01 4.22060E+01 0.00000E+00
 -1      2307 6.70500E+01 4.35050E+01 0.00000E+00
 -1      2308 6.85500E+01 4.35050E+01 0.00000E+00
 -1      2309 6.63000E+01 4.22060E+01 0.00000E+00
 -1      2310 7.00500E+01 4.35050E+01 0.00000E+00
 -1      2311 7.15500E+01 4.35050E+01 0.00000E+00
 -1      2312 6.93000E+01 4.22060E+01 0.00000E+00
 -1      2313 7.30500E+01 4.35050E+01 0.00000E+00
 -1      2314 7.45500E+01 4.35050E+01 0.00000E+00
 -1      2315 7.23000E+01 4.22060E+01 0.00000E+00
 -1      2316 7.59750E+01 4.38627E+01 0.00000E+00
 -1      2317 7.73250E+01 4.38627E+01 0.00000E+00
 -1      2318 9.50635E+01 2.84804E+01 0.00000E+00
 -1      2319 9.58174E+01 2.89964E+01 0.00000E+00
 -1      2320 9.94186E+01 3.34507E+01 0.00000E+00
 -1      2321 9.97311E+01 3.45230E+01 0.00000E+00
 -1      2322 1.43589E+02 6.81775E+00 0.00000E+00
 -1      2323 1.03050E+02 4.42654E+01 0.00000E+00
 -1      2324 1.04550E+02 4.42654E+01 0.00000E+00
 -1      2325 1.06050E+02 4.42654E+01 0.00000E+00
 -1      2326 1.07550E+02 4.42654E+01 0.00000E+00
 -1      2327 1.05300E+02 4.29664E+01 0.00000E+00
 -1      2328 1.09050E+02 4.42654E+01 0.00000E+00
 -1      2329 1.10550E+02 4.42654E+01 0.00000E+00
 -1      2330 1.08300E+02 4.29664E+01 0.00000E+00
 -1      2331 1.12050E+02 4.42654E+01 0.00000E+00
 -1      2332 1.13550E+02 4.42654E+01 0.00000E+00
 -1      2333 1.11300E+02 4.29664E+01 0.00000E+00
 -1      2334 1.15050E+02 4.42654E+01 0.00000E+00
 -1      2335 1.16550E+02 4.42654E+01 0.00000E+00
 -1      2336 1.14300E+02 4.29664E+01 0.00000E+00
 -1      2337 1.18050E+02 4.42654E+01 0.00000E+00
 -1      2338 1.19550E+02 4.42654E+01 0.00000E+00
 -1      2339 1.17300E+02 4.29664E+01 0.00000E+00
 -1      2340 1.21050E+02 4.42654E+01 0.00000E+00
 -1      2341 1.22550E+02 4.42654E+01 0.00000E+00
 -1      2342 1.20300E+02 4.29664E+01 0.00000E+00
 -1      2343 1.24050E+02 4.42654E+01 0.00000E+00
 -1      2344 1.25550E+02 4.42654E+01 0.00000E+00
 -1      2345 1.23300E+02 4.29664E+01 0.00000E+00
 -1      2346 1.27050E+02 4.42654E+01 0.00000E+00
 -1      2347 1.28550E+02 4.42654E+01 0.00000E+00
 -1      2348 1.26300E+02 4.29664E+01 0.00000E+00
 -1      2349 1.30050E+02 4.42654E+01 0.00000E+00
 -1      2350 1.31550E+02 4.42654E+01 0.00000E+00
 -1      2351 1.29300E+02 4.29664E+01 0.00000E+00
 -1      2352 1.33050E+02 4.42654E+01 0.00000E+00
 -1      2353 1.34550E+02 4.42654E+01 0.00000E+00
 -1      2354 1.32300E+02 4.29664E+01 0.00000E+00
 -1      2355 1.36050E+02 4.42654E+01 0.00000E+00
 -1      2356 1.37550E+02 4.42654E+01 0.00000E+00
 -1      2357 1.35300E+02 4.29664E+01 0.00000E+00
 -1      2358 1.39050E+02 4.42654E+01 0.00000E+00
 -1      2359 1.40550E+02 4.42654E+01 0.00000E+00
 -1      2360 1.38300E+02 4.29664E+01 0.00000E+00
 -1      2361 1.41738E+02 4.43693E+01 0.00000E+00
 -1      2362 1.43238E+02 4.43693E+01 0.00000E+00
 -1      2363 1.43364E+02 4.32782E+01 0.00000E+00
 -1      2364 1.40988E+02 4.30703E+01 0.00000E+00
 -1      2365 2.16240E+01 6.08450E+00 0.00000E+00
 -1      2366 2.01240E+01 6.08450E+00 0.00000E+00
 -1      2367 1.86240E+01 6.08450E+00 0.00000E+00
 -1      2368 1.71240E+01 6.08450E+00 0.00000E+00
 -1      2369 1.93740E+01 7.38350E+00 0.00000E+00
 -1      2370 1.56240E+01 6.08450E+00 0.00000E+00
 -1      2371 1.41240E+01 6.08450E+00 0.00000E+00
 -1      2372 1.63740E+01 7.38350E+00 0.00000E+00
 -1      2373 2.46240E+01 6.08450E+00 0.00000E+00
 -1      2374 2.31240E+01 6.08450E+00 0.00000E+00
 -1      2375 2.23740E+01 7.38350E+00 0.00000E+00
 -1      2376 2.76240E+01 6.08450E+00 0.00000E+00
 -1      2377 2.61240E+01 6.08450E+00 0.00000E+00
 -1      2378 2.53740E+01 7.38350E+00 0.00000E+00
 -1      2379 3.06240E+01 6.08450E+00 0.00000E+00
 -1      2380 2.91240E+01 6.08450E+00 0.00000E+00
 -1      2381 2.83740E+01 7.38350E+00 0.00000E+00
 -1      2382 3.36240E+01 6.08450E+00 0.00000E+00
 -1      2383 3.21240E+01 6.08450E+00 0.00000E+00
 -1      2384 3.13740E+01 7.38350E+00 0.00000E+00
 -1      2385 3.66240E+01 6.08450E+00 0.00000E+00
 -1      2386 3.51240E+01 6.08450E+00 0.00000E+00
 -1      2387 3.43740E+01 7.38350E+00 0.00000E+00
 -1      2388 3.96240E+01 6.08450E+00 0.00000E+00
 -1      2389 3.81240E+01 6.08450E+00 0.00000E+00
 -1      2390 3.73740E+01 7.38350E+00 0.00000E+00
 -1      2391 4.26240E+01 6.08450E+00 0.00000E+00
 -1      2392 4.11240E+01 6.08450E+00 0.00000E+00
 -1      2393 4.03740E+01 7.38350E+00 0.00000E+00
 -1      2394 4.56240E+01 6.08450E+00 0.00000E+00
 -1      2395 4.41240E+01 6.08450E+00 0.00000E+00
 -1      2396 4.33740E+01 7.38350E+00 0.00000E+00
 -1      2397 4.86240E+01 6.08450E+00 0.00000E+00
 -1      2398 4.71240E+01 6.08450E+00 0.00000E+00
 -1      2399 4.63740E+01 7.38350E+00 0.00000E+00
 -1      2400 5.16240E+01 6.08450E+00 0.00000E+00
 -1      2401 5.01240E+01 6.08450E+00 0.00000E+00
 -1      2402 4.93740E+01 7.38350E+00 0.00000E+00
 -1      2403 5.46240E+01 6.08450E+00 0.00000E+00
 -1      2404 5.31240E+01 6.08450E+00 0.00000E+00
 -1      2405 5.23740E+01 7.38350E+00 0.00000E+00
 -1      2406 5.76240E+01 6.08450E+00 0.00000E+00
 -1      2407 5.61240E+01 6.08450E+00 0.00000E+00
 -1      2408 5.53740E+01 7.38350E+00 0.00000E+00
 -1      2409 6.06240E+01 6.08450E+00 0.00000E+00
 -1      2410 5.91240E+01 6.08450E+00 0.00000E+00
 -1      2411 5.83740E+01 7.38350E+00 0.00000E+00
 -1      2412 6.36240E+01 6.08450E+00 0.00000E+00
 -1      2413 6.21240E+01 6.08450E+00 0.00000E+00
 -1      2414 6.13740E+01 7.38350E+00 0.00000E+00
 -1      2415 6.66240E+01 6.08450E+00 0.00000E+00
 -1      2416 6.51240E+01 6.08450E+00 0.00000E+00
 -1      2417 6.43740E+01 7.38350E+00 0.00000E+00
 -1      2418 6.96240E+01 6.08450E+00 0.00000E+00
 -1      2419 6.81240E+01 6.08450E+00 0.00000E+00
 -1      2420 6.73740E+01 7.38350E+00 0.00000E+00
 -1      2421 7.26240E+01 6.08450E+00 0.00000E+00
 -1      2422 7.11240E+01 6.08450E+00 0.00000E+00
 -1      2423 7.03740E+01 7.38350E+00 0.00000E+00
 -1      2424 7.56240E+01 6.08450E+00 0.00000E+00
 -1      2425 7.41240E+01 6.08450E+00 0.00000E+00
 -1      2426 7.33740E+01 7.38350E+00 0.00000E+00
 -1      2427 7.86240E+01 6.08450E+00 0.00000E+00
 -1      2428 7.71240E+01 6.08450E+00 0.00000E+00
 -1      2429 7.63740E+01 7.38350E+00 0.00000E+00
 -1      2430 8.16240E+01 6.08450E+00 0.00000E+00
 -1      2431 8.01240E+01 6.08450E+00 0.00000E+00
 -1      2432 7.93740E+01 7.38350E+00 0.00000E+00
 -1      2433 8.46240E+01 6.08450E+00 0.00000E+00
 -1      2434 8.31240E+01 6.08450E+00 0.00000E+00
 -1      2435 8.23740E+01 7.38350E+00 0.00000E+00
 -1      2436 8.76240E+01 6.08450E+00 0.00000E+00
 -1      2437 8.61240E+01 6.08450E+00 0.00000E+00
 -1      2438 8.53740E+01 7.38350E+00 0.00000E+00
 -1      2439 9.06240E+01 6.08450E+00 0.00000E+00
 -1      2440 8.91240E+01 6.08450E+00 0.00000E+00
 -1      2441 8.83740E+01 7.38350E+00 0.00000E+00
 -1      2442 9.36240E+01 6.08450E+00 0.00000E+00
 -1      2443 9.21240E+01 6.08450E+00 0.00000E+00
 -1      2444 9.13740E+01 7.38350E+00 0.00000E+00
 -1      2445 9.66240E+01 6.08450E+00 0.00000E+00
 -1      2446 9.51240E+01 6.08450E+00 0.00000E+00
 -1      2447 9.43740E+01 7.38350E+00 0.00000E+00
 -1      2448 9.96240E+01 6.08450E+00 0.00000E+00
 -1      2449 9.81240E+01 6.08450E+00 0.00000E+00
 -1      2450 9.73740E+01 7.38350E+00 0.00000E+00
 -1      2451 1.02624E+02 6.08450E+00 0.00000E+00
 -1      2452 1.01124E+02 6.08450E+00 0.00000E+00
 -1      2453 1.00374E+02 7.38350E+00 0.00000E+00
 -1      2454 1.05624E+02 6.08450E+00 0.00000E+00
 -1      2455 1.04124E+02 6.08450E+00 0.00000E+00
 -1      2456 1.03374E+02 7.38350E+00 0.00000E+00
 -1      2457 1.08624E+02 6.08450E+00 0.00000E+00
 -1      2458 1.07124E+02 6.08450E+00 0.00000E+00
 -1      2459 1.06374E+02 7.38350E+00 0.00000E+00
 -1      2460 1.11624E+02 6.08450E+00 0.00000E+00
 -1      2461 1.10124E+02 6.08450E+00 0.00000E+00
 -1      2462 1.09374E+02 7.38350E+00 0.00000E+00
 -1      2463 1.14624E+02 6.08450E+00 0.00000E+00
 -1      2464 1.13124E+02 6.08450E+00 0.00000E+00
 -1      2465 1.12374E+02 7.38350E+00 0.00000E+00
 -1      2466 1.17624E+02 6.08450E+00 0.00000E+00
 -1      2467 1.16124E+02 6.08450E+00 0.00000E+00
 -1      2468 1.15374E+02 7.38350E+00 0.00000E+00
 -1      2469 1.20624E+02 6.08450E+00 0.00000E+00
 -1      2470 1.19124E+02 6.08450E+00 0.00000E+00
 -1      2471 1.18374E+02 7.38350E+00 0.00000E+00
 -1      2472 1.23624E+02 6.08450E+00 0.00000E+00
 -1      2473 1.22124E+02 6.08450E+00 0.00000E+00
 -1      2474 1.21374E+02 7.38350E+00 0.00000E+00
 -1      2475 1.26624E+02 6.08450E+00 0.00000E+00
 -1      2476 1.25124E+02 6.08450E+00 0.00000E+00
 -1      2477 1.24374E+02 7.38350E+00 0.00000E+00
 -1      2478 1.29624E+02 6.08450E+00 0.00000E+00
 -1      2479 1.28124E+02 6.08450E+00 0.00000E+00
 -1      2480 1.27374E+02 7.38350E+00 0.00000E+00
 -1      2481 1.32624E+02 6.08450E+00 0.00000E+00
 -1      2482 1.31124E+02 6.08450E+00 0.00000E+00
 -1      2483 1.30374E+02 7.38350E+00 0.00000E+00
 -1      2484 1.35624E+02 6.08450E+00 0.00000E+00
 -1      2485 1.34124E+02 6.08450E+00 0.00000E+00
 -1      2486 1.33374E+02 7.38350E+00 0.00000E+00
 -1      2487 1.38624E+02 6.08450E+00 0.00000E+00
 -1      2488 1.37124E+02 6.08450E+00 0.00000E+00
 -1      2489 1.36374E+02 7.38350E+00 0.00000E+00
 -1      2490 1.41624E+02 6.08450E+00 0.00000E+00
 -1      2491 1.40124E+02 6.08450E+00 0.00000E+00
 -1      2492 1.39374E+02 7.38350E+00 0.00000E+00
 -1      2493 1.43505E+02 1.69125E+01 0.00000E+00
 -1      2494 1.43505E+02 1.54375E+01 0.00000E+00
 -1      2495 1.43505E+02 1.39875E+01 0.00000E+00
 -1      2496 1.43505E+02 1.25375E+01 0.00000E+00
 -1      2497 1.42206E+02 1.47250E+01 0.00000E+00
 -1      2498 1.43505E+02 1.10625E+01 0.00000E+00
 -1      2499 1.43505E+02 9.58750E+00 0.00000E+00
 -1      2500 1.42206E+02 1.18000E+01 0.00000E+00
 -1      2501 1.43505E+02 1.98625E+01 0.00000E+00
 -1      2502 1.43505E+02 1.83875E+01 0.00000E+00
 -1      2503 1.42206E+02 1.76500E+01 0.00000E+00
 -1      2504 1.43505E+02 2.28125E+01 0.00000E+00
 -1      2505 1.43505E+02 2.13375E+01 0.00000E+00
 -1      2506 1.42206E+02 2.06000E+01 0.00000E+00
 -1      2507 1.43505E+02 2.57625E+01 0.00000E+00
 -1      2508 1.43505E+02 2.42875E+01 0.00000E+00
 -1      2509 1.42206E+02 2.35500E+01 0.00000E+00
 -1      2510 1.43505E+02 2.87125E+01 0.00000E+00
 -1      2511 1.43505E+02 2.72375E+01 0.00000E+00
 -1      2512 1.42206E+02 2.65000E+01 0.00000E+00
 -1      2513 1.43505E+02 3.16125E+01 0.00000E+00
 -1      2514 1.43505E+02 3.01625E+01 0.00000E+00
 -1      2515 1.42206E+02 2.94250E+01 0.00000E+00
 -1      2516 1.43505E+02 3.45625E+01 0.00000E+00
 -1      2517 1.43505E+02 3.30875E+01 0.00000E+00
 -1      2518 1.42206E+02 3.23500E+01 0.00000E+00
 -1      2519 1.43505E+02 3.75125E+01 0.00000E+00
 -1      2520 1.43505E+02 3.60375E+01 0.00000E+00
 -1      2521 1.42206E+02 3.53000E+01 0.00000E+00
 -1      2522 1.43505E+02 4.04625E+01 0.00000E+00
 -1      2523 1.43505E+02 3.89875E+01 0.00000E+00
 -1      2524 1.42206E+02 3.82500E+01 0.00000E+00
 -1      2525 6.55950E+00 4.28890E+01 0.00000E+00
 -1      2526 8.53650E+00 4.32410E+01 0.00000E+00
 -1      2527 9.28650E+00 4.19420E+01 0.00000E+00
 -1      2528 6.55950E+00 4.14140E+01 0.00000E+00
 -1      2529 9.94691E+01 3.99052E+01 0.00000E+00
 -1      2530 9.92054E+01 4.08373E+01 0.00000E+00
 -1      2531 8.52342E+01 4.56012E+01 0.00000E+00
 -1      2532 9.31793E+01 2.75355E+01 0.00000E+00
 -1      2533 9.41214E+01 2.80080E+01 0.00000E+00
 -1      2534 9.49827E+01 2.75583E+01 0.00000E+00
 -1      2535 9.44198E+01 4.68029E+01 0.00000E+00
 -1      2536 6.49500E+00 2.71625E+01 0.00000E+00
 -1      2537 6.49500E+00 2.86375E+01 0.00000E+00
 -1      2538 7.79400E+00 2.93750E+01 0.00000E+00
 -1      2539 7.79400E+00 2.64250E+01 0.00000E+00
 -1      2540 7.88946E+01 4.41539E+01 0.00000E+00
 -1      2541 8.02446E+01 4.45115E+01 0.00000E+00
 -1      2542 8.84033E+01 2.67215E+01 0.00000E+00
 -1      2543 8.93169E+01 2.66403E+01 0.00000E+00
 -1      2544 7.97696E+01 4.01115E+01 0.00000E+00
 -1      2545 7.94866E+01 3.91624E+01 0.00000E+00
 -1      2546 8.60971E+01 2.72851E+01 0.00000E+00
 -1      2547 8.72204E+01 2.69571E+01 0.00000E+00
 -1      2548 8.22724E+01 2.99239E+01 0.00000E+00
 -1      2549 8.29104E+01 2.91635E+01 0.00000E+00
 -1      2550 8.10139E+01 3.12259E+01 0.00000E+00
 -1      2551 8.16432E+01 3.05749E+01 0.00000E+00
 -1      2552 8.13053E+01 2.96435E+01 0.00000E+00
 -1      2553 7.94753E+01 3.57189E+01 0.00000E+00
 -1      2554 7.95976E+01 3.48570E+01 0.00000E+00
 -1      2555 9.59834E+01 4.50864E+01 0.00000E+00
 -1      2556 9.52073E+01 4.56939E+01 0.00000E+00
 -1      2557 7.93442E+01 3.79056E+01 0.00000E+00
 -1      2558 7.93302E+01 3.68106E+01 0.00000E+00
 -1      2559 8.04732E+01 4.20377E+01 0.00000E+00
 -1      2560 8.01560E+01 4.10667E+01 0.00000E+00
 -1      2561 8.38974E+01 2.82484E+01 0.00000E+00
 -1      2562 8.48421E+01 2.77173E+01 0.00000E+00
 -1      2563 1.42839E+02 8.11675E+00 0.00000E+00
 -1      2564 9.88106E+01 4.20357E+01 0.00000E+00
 -1      2565 9.82115E+01 4.30406E+01 0.00000E+00
 -1      2566 9.85210E+01 3.15179E+01 0.00000E+00
 -1      2567 9.90045E+01 3.22899E+01 0.00000E+00
 -1      2568 1.00021E+02 3.79155E+01 0.00000E+00
 -1      2569 9.98326E+01 3.89076E+01 0.00000E+00
 -1      2570 7.79400E+00 3.52687E+01 0.00000E+00
 -1      2571 6.49500E+00 3.60062E+01 0.00000E+00
 -1      2572 6.49500E+00 3.74750E+01 0.00000E+00
 -1      2573 1.00365E+02 3.95615E+01 0.00000E+00
 -1      2574 9.55950E+00 5.02450E+00 0.00000E+00
 -1      2575 9.37425E+00 5.84794E+00 0.00000E+00
 -1      2576 1.07692E+01 5.21931E+00 0.00000E+00
 -1      2577 1.00628E+02 3.49480E+01 0.00000E+00
 -1      2578 1.41540E+02 8.85425E+00 0.00000E+00
 -1      2579 1.00833E+02 3.73448E+01 0.00000E+00
 -1      2580 7.52250E+01 4.25637E+01 0.00000E+00
 -1      2581 9.67451E+01 2.90185E+01 0.00000E+00
 -1      2582 9.96064E+01 4.17575E+01 0.00000E+00
 -1      2583 1.00756E+02 4.42601E+01 0.00000E+00
 -1      2584 1.01506E+02 4.29611E+01 0.00000E+00
 -1      2585 9.84769E+01 4.36136E+01 0.00000E+00
 -1      2586 9.74767E+01 4.36984E+01 0.00000E+00
 -1      2587 9.67420E+01 4.43561E+01 0.00000E+00
 -1      2588 8.15114E+01 4.47630E+01 0.00000E+00
 -1      2589 8.29059E+01 4.49502E+01 0.00000E+00
 -1      2590 6.55950E+00 3.99453E+01 0.00000E+00
 -1      2591 1.30515E+01 5.74931E+00 0.00000E+00
 -1      2592 1.18418E+01 5.55450E+00 0.00000E+00
 -1      2593 1.16565E+01 6.37794E+00 0.00000E+00
 -1      2594 1.38015E+01 7.04831E+00 0.00000E+00
 -1      2595 8.51634E+01 2.67301E+01 0.00000E+00
 -1      2596 1.43490E+02 4.21871E+01 0.00000E+00
 -1      2597 8.02692E+01 3.15887E+01 0.00000E+00
 -1      2598 7.99313E+01 3.06573E+01 0.00000E+00
 -1      2599 7.95244E+01 3.19514E+01 0.00000E+00
 -1      2600 9.26155E+01 2.68273E+01 0.00000E+00
 -1      2601 9.34768E+01 2.63777E+01 0.00000E+00
 -1      2602 9.20516E+01 2.61191E+01 0.00000E+00
 -1      2603 7.93371E+01 3.40340E+01 0.00000E+00
 -1      2604 7.90765E+01 3.32110E+01 0.00000E+00
 -1      2605 7.85513E+01 3.43621E+01 0.00000E+00
 -1      2606 8.29215E+01 2.80774E+01 0.00000E+00
 -1      2607 8.05782E+01 4.28933E+01 0.00000E+00
 -1      2608 7.96841E+01 4.26481E+01 0.00000E+00
 -1      2609 7.91927E+01 4.08373E+01 0.00000E+00
 -1      2610 9.92558E+01 4.42601E+01 0.00000E+00
 -1      2611 8.76013E+01 2.60623E+01 0.00000E+00
 -1      2612 8.99872E+01 2.61978E+01 0.00000E+00
 -1      2613 7.86640E+01 3.86253E+01 0.00000E+00
 -1      2614 9.69836E+01 4.50016E+01 0.00000E+00
 -1      2615 7.86667E+01 3.62768E+01 0.00000E+00
 -1      2616 9.85274E+01 3.07275E+01 0.00000E+00
 -1      2617 1.42191E+02 4.14496E+01 0.00000E+00
 -1      2618 8.12975E+01 4.36272E+01 0.00000E+00
 -1      2619 9.99036E+01 3.26095E+01 0.00000E+00
 -1      2620 9.09300E+00 1.98250E+01 0.00000E+00
 -1      2621 9.09300E+00 2.12750E+01 0.00000E+00
 -1      2622 9.09300E+00 2.27500E+01 0.00000E+00
 -1      2623 9.09300E+00 2.42250E+01 0.00000E+00
 -1      2624 1.03920E+01 2.20250E+01 0.00000E+00
 -1      2625 9.09300E+00 1.39375E+01 0.00000E+00
 -1      2626 9.09300E+00 1.54125E+01 0.00000E+00
 -1      2627 9.09300E+00 1.09875E+01 0.00000E+00
 -1      2628 9.09300E+00 1.24625E+01 0.00000E+00
 -1      2629 1.03920E+01 1.32000E+01 0.00000E+00
 -1      2630 9.18900E+00 6.67137E+00 0.00000E+00
 -1      2631 9.00375E+00 7.49481E+00 0.00000E+00
 -1      2632 1.03988E+01 6.86619E+00 0.00000E+00
 -1      2633 1.14000E+01 4.09070E+01 0.00000E+00
 -1      2634 1.29000E+01 4.09070E+01 0.00000E+00
 -1      2635 7.79432E+01 4.37852E+01 0.00000E+00
 -1      2636 7.88378E+01 4.31351E+01 0.00000E+00
 -1      2637 1.44000E+01 4.09070E+01 0.00000E+00
 -1      2638 1.59000E+01 4.09070E+01 0.00000E+00
 -1      2639 1.36500E+01 3.96080E+01 0.00000E+00
 -1      2640 1.74000E+01 4.09070E+01 0.00000E+00
 -1      2641 1.89000E+01 4.09070E+01 0.00000E+00
 -1      2642 1.66500E+01 3.96080E+01 0.00000E+00
 -1      2643 2.04000E+01 4.09070E+01 0.00000E+00
 -1      2644 2.19000E+01 4.09070E+01 0.00000E+00
 -1      2645 1.96500E+01 3.96080E+01 0.00000E+00
 -1      2646 2.34000E+01 4.09070E+01 0.00000E+00
 -1      2647 2.49000E+01 4.09070E+01 0.00000E+00
 -1      2648 2.26500E+01 3.96080E+01 0.00000E+00
 -1      2649 2.64000E+01 4.09070E+01 0.00000E+00
 -1      2650 2.79000E+01 4.09070E+01 0.00000E+00
 -1      2651 2.56500E+01 3.96080E+01 0.00000E+00
 -1      2652 2.94000E+01 4.09070E+01 0.00000E+00
 -1      2653 3.09000E+01 4.09070E+01 0.00000E+00
 -1      2654 2.86500E+01 3.96080E+01 0.00000E+00
 -1      2655 3.24000E+01 4.09070E+01 0.00000E+00
 -1      2656 3.39000E+01 4.09070E+01 0.00000E+00
 -1      2657 3.16500E+01 3.96080E+01 0.00000E+00
 -1      2658 3.54000E+01 4.09070E+01 0.00000E+00
 -1      2659 3.69000E+01 4.09070E+01 0.00000E+00
 -1      2660 3.46500E+01 3.96080E+01 0.00000E+00
 -1      2661 3.84000E+01 4.09070E+01 0.00000E+00
 -1      2662 3.99000E+01 4.09070E+01 0.00000E+00
 -1      2663 3.76500E+01 3.96080E+01 0.00000E+00
 -1      2664 4.14000E+01 4.09070E+01 0.00000E+00
 -1      2665 4.29000E+01 4.09070E+01 0.00000E+00
 -1      2666 4.06500E+01 3.96080E+01 0.00000E+00
 -1      2667 4.44000E+01 4.09070E+01 0.00000E+00
 -1      2668 4.59000E+01 4.09070E+01 0.00000E+00
 -1      2669 4.36500E+01 3.96080E+01 0.00000E+00
 -1      2670 4.74750E+01 4.09070E+01 0.00000E+00
 -1      2671 4.90500E+01 4.09070E+01 0.00000E+00
 -1      2672 4.67250E+01 3.96080E+01 0.00000E+00
 -1      2673 5.05500E+01 4.09070E+01 0.00000E+00
 -1      2674 5.20500E+01 4.09070E+01 0.00000E+00
 -1      2675 4.98000E+01 3.96080E+01 0.00000E+00
 -1      2676 5.35500E+01 4.09070E+01 0.00000E+00
 -1      2677 5.50500E+01 4.09070E+01 0.00000E+00
 -1      2678 5.28000E+01 3.96080E+01 0.00000E+00
 -1      2679 5.65500E+01 4.09070E+01 0.00000E+00
 -1      2680 5.80500E+01 4.09070E+01 0.00000E+00
 -1      2681 5.58000E+01 3.96080E+01 0.00000E+00
 -1      2682 5.95500E+01 4.09070E+01 0.00000E+00
 -1      2683 6.10500E+01 4.09070E+01 0.00000E+00
 -1      2684 5.88000E+01 3.96080E+01 0.00000E+00
 -1      2685 6.25500E+01 4.09070E+01 0.00000E+00
 -1      2686 6.40500E+01 4.09070E+01 0.00000E+00
 -1      2687 6.18000E+01 3.96080E+01 0.00000E+00
 -1      2688 6.55500E+01 4.09070E+01 0.00000E+00
 -1      2689 6.70500E+01 4.09070E+01 0.00000E+00
 -1      2690 6.48000E+01 3.96080E+01 0.00000E+00
 -1      2691 6.85500E+01 4.09070E+01 0.00000E+00
 -1      2692 7.00500E+01 4.09070E+01 0.00000E+00
 -1      2693 6.78000E+01 3.96080E+01 0.00000E+00
 -1      2694 7.15500E+01 4.09070E+01 0.00000E+00
 -1      2695 7.30500E+01 4.09070E+01 0.00000E+00
 -1      2696 7.08000E+01 3.96080E+01 0.00000E+00
 -1      2697 9.71881E+01 2.78162E+01 0.00000E+00
 -1      2698 9.80083E+01 2.88040E+01 0.00000E+00
 -1      2699 1.40706E+02 1.03250E+01 0.00000E+00
 -1      2700 1.40040E+02 8.85425E+00 0.00000E+00
 -1      2701 1.38540E+02 8.85425E+00 0.00000E+00
 -1      2702 8.68259E+01 2.52569E+01 0.00000E+00
 -1      2703 8.80088E+01 2.50213E+01 0.00000E+00
 -1      2704 7.72682E+01 4.28439E+01 0.00000E+00
 -1      2705 9.85211E+01 4.49179E+01 0.00000E+00
 -1      2706 7.77856E+01 3.67152E+01 0.00000E+00
 -1      2707 7.79307E+01 3.56235E+01 0.00000E+00
 -1      2708 1.07550E+02 4.16899E+01 0.00000E+00
 -1      2709 1.09050E+02 4.16899E+01 0.00000E+00
 -1      2710 1.10550E+02 4.16899E+01 0.00000E+00
 -1      2711 1.12050E+02 4.16899E+01 0.00000E+00
 -1      2712 1.09800E+02 4.04134E+01 0.00000E+00
 -1      2713 1.13550E+02 4.16899E+01 0.00000E+00
 -1      2714 1.15050E+02 4.16899E+01 0.00000E+00
 -1      2715 1.12800E+02 4.04134E+01 0.00000E+00
 -1      2716 1.16550E+02 4.16899E+01 0.00000E+00
 -1      2717 1.18050E+02 4.16899E+01 0.00000E+00
 -1      2718 1.15800E+02 4.04134E+01 0.00000E+00
 -1      2719 1.19550E+02 4.16899E+01 0.00000E+00
 -1      2720 1.21050E+02 4.16899E+01 0.00000E+00
 -1      2721 1.18800E+02 4.04134E+01 0.00000E+00
 -1      2722 1.22550E+02 4.16899E+01 0.00000E+00
 -1      2723 1.24050E+02 4.16899E+01 0.00000E+00
 -1      2724 1.21800E+02 4.04134E+01 0.00000E+00
 -1      2725 1.25550E+02 4.16899E+01 0.00000E+00
 -1      2726 1.27050E+02 4.16899E+01 0.00000E+00
 -1      2727 1.24800E+02 4.04134E+01 0.00000E+00
 -1      2728 1.28550E+02 4.16899E+01 0.00000E+00
 -1      2729 1.30050E+02 4.16899E+01 0.00000E+00
 -1      2730 1.27800E+02 4.04134E+01 0.00000E+00
 -1      2731 1.31550E+02 4.16899E+01 0.00000E+00
 -1      2732 1.33050E+02 4.16899E+01 0.00000E+00
 -1      2733 1.30800E+02 4.04134E+01 0.00000E+00
 -1      2734 1.34550E+02 4.16899E+01 0.00000E+00
 -1      2735 1.36050E+02 4.16899E+01 0.00000E+00
 -1      2736 1.33800E+02 4.04134E+01 0.00000E+00
 -1      2737 1.37550E+02 4.16899E+01 0.00000E+00
 -1      2738 1.39050E+02 4.16899E+01 0.00000E+00
 -1      2739 1.36800E+02 4.04134E+01 0.00000E+00
 -1      2740 1.41003E+02 4.13457E+01 0.00000E+00
 -1      2741 2.01240E+01 8.68250E+00 0.00000E+00
 -1      2742 1.86240E+01 8.68250E+00 0.00000E+00
 -1      2743 2.31240E+01 8.68250E+00 0.00000E+00
 -1      2744 2.16240E+01 8.68250E+00 0.00000E+00
 -1      2745 2.08740E+01 9.98150E+00 0.00000E+00
 -1      2746 1.71240E+01 8.68250E+00 0.00000E+00
 -1      2747 1.56240E+01 8.68250E+00 0.00000E+00
 -1      2748 1.78740E+01 9.98150E+00 0.00000E+00
 -1      2749 2.91240E+01 8.68250E+00 0.00000E+00
 -1      2750 2.76240E+01 8.68250E+00 0.00000E+00
 -1      2751 3.21240E+01 8.68250E+00 0.00000E+00
 -1      2752 3.06240E+01 8.68250E+00 0.00000E+00
 -1      2753 2.98740E+01 9.98150E+00 0.00000E+00
 -1      2754 3.51240E+01 8.68250E+00 0.00000E+00
 -1      2755 3.36240E+01 8.68250E+00 0.00000E+00
 -1      2756 3.28740E+01 9.98150E+00 0.00000E+00
 -1      2757 3.81240E+01 8.68250E+00 0.00000E+00
 -1      2758 3.66240E+01 8.68250E+00 0.00000E+00
 -1      2759 3.58740E+01 9.98150E+00 0.00000E+00
 -1      2760 4.11240E+01 8.68250E+00 0.00000E+00
 -1      2761 3.96240E+01 8.68250E+00 0.00000E+00
 -1      2762 3.88740E+01 9.98150E+00 0.00000E+00
 -1      2763 4.41240E+01 8.68250E+00 0.00000E+00
 -1      2764 4.26240E+01 8.68250E+00 0.00000E+00
 -1      2765 4.18740E+01 9.98150E+00 0.00000E+00
 -1      2766 4.71240E+01 8.68250E+00 0.00000E+00
 -1      2767 4.56240E+01 8.68250E+00 0.00000E+00
 -1      2768 4.48740E+01 9.98150E+00 0.00000E+00
 -1      2769 5.01240E+01 8.68250E+00 0.00000E+00
 -1      2770 4.86240E+01 8.68250E+00 0.00000E+00
 -1      2771 4.78740E+01 9.98150E+00 0.00000E+00
 -1      2772 5.31240E+01 8.68250E+00 0.00000E+00
 -1      2773 5.16240E+01 8.68250E+00 0.00000E+00
 -1      2774 5.08740E+01 9.98150E+00 0.00000E+00
 -1      2775 5.61240E+01 8.68250E+00 0.00000E+00
 -1      2776 5.46240E+01 8.68250E+00 0.00000E+00
 -1      2777 5.38740E+01 9.98150E+00 0.00000E+00
 -1      2778 5.91240E+01 8.68250E+00 0.00000E+00
 -1      2779 5.76240E+01 8.68250E+00 0.00000E+00
 -1      2780 5.68740E+01 9.98150E+00 0.00000E+00
 -1      2781 6.21240E+01 8.68250E+00 0.00000E+00
 -1      2782 6.06240E+01 8.68250E+00 0.00000E+00
 -1      2783 5.98740E+01 9.98150E+00 0.00000E+00
 -1      2784 6.51240E+01 8.68250E+00 0.00000E+00
 -1      2785 6.36240E+01 8.68250E+00 0.00000E+00
 -1      2786 6.28740E+01 9.98150E+00 0.00000E+00
 -1      2787 6.81240E+01 8.68250E+00 0.00000E+00
 -1      2788 6.66240E+01 8.68250E+00 0.00000E+00
 -1      2789 6.58740E+01 9.98150E+00 0.00000E+00
 -1      2790 7.11240E+01 8.68250E+00 0.00000E+00
 -1      2791 6.96240E+01 8.68250E+00 0.00000E+00
 -1      2792 6.88740E+01 9.98150E+00 0.00000E+00
 -1      2793 7.41240E+01 8.68250E+00 0.00000E+00
 -1      2794 7.26240E+01 8.68250E+00 0.00000E+00
 -1      2795 7.18740E+01 9.98150E+00 0.00000E+00
 -1      2796 7.71240E+01 8.68250E+00 0.00000E+00
 -1      2797 7.56240E+01 8.68250E+00 0.00000E+00
 -1      2798 7.48740E+01 9.98150E+00 0.00000E+00
 -1      2799 8.01240E+01 8.68250E+00 0.00000E+00
 -1      2800 7.86240E+01 8.68250E+00 0.00000E+00
 -1      2801 7.78740E+01 9.98150E+00 0.00000E+00
 -1      2802 8.31240E+01 8.68250E+00 0.00000E+00
 -1      2803 8.16240E+01 8.68250E+00 0.00000E+00
 -1      2804 8.08740E+01 9.98150E+00 0.00000E+00
 -1      2805 8.61240E+01 8.68250E+00 0.00000E+00
 -1      2806 8.46240E+01 8.68250E+00 0.00000E+00
 -1      2807 8.38740E+01 9.98150E+00 0.00000E+00
 -1      2808 8.91240E+01 8.68250E+00 0.00000E+00
 -1      2809 8.76240E+01 8.68250E+00 0.00000E+00
 -1      2810 8.68740E+01 9.98150E+00 0.00000E+00
 -1      2811 9.21240E+01 8.68250E+00 0.00000E+00
 -1      2812 9.06240E+01 8.68250E+00 0.00000E+00
 -1      2813 8.98740E+01 9.98150E+00 0.00000E+00
 -1      2814 9.51240E+01 8.68250E+00 0.00000E+00
 -1      2815 9.36240E+01 8.68250E+00 0.00000E+00
 -1      2816 9.28740E+01 9.98150E+00 0.00000E+00
 -1      2817 9.81240E+01 8.68250E+00 0.00000E+00
 -1      2818 9.66240E+01 8.68250E+00 0.00000E+00
 -1      2819 9.58740E+01 9.98150E+00 0.00000E+00
 -1      2820 1.01124E+02 8.68250E+00 0.00000E+00
 -1      2821 9.96240E+01 8.68250E+00 0.00000E+00
 -1      2822 9.88740E+01 9.98150E+00 0.00000E+00
 -1      2823 1.04124E+02 8.68250E+00 0.00000E+00
 -1      2824 1.02624E+02 8.68250E+00 0.00000E+00
 -1      2825 1.01874E+02 9.98150E+00 0.00000E+00
 -1      2826 1.07124E+02 8.68250E+00 0.00000E+00
 -1      2827 1.05624E+02 8.68250E+00 0.00000E+00
 -1      2828 1.04874E+02 9.98150E+00 0.00000E+00
 -1      2829 1.10124E+02 8.68250E+00 0.00000E+00
 -1      2830 1.08624E+02 8.68250E+00 0.00000E+00
 -1      2831 1.07874E+02 9.98150E+00 0.00000E+00
 -1      2832 1.13124E+02 8.68250E+00 0.00000E+00
 -1      2833 1.11624E+02 8.68250E+00 0.00000E+00
 -1      2834 1.10874E+02 9.98150E+00 0.00000E+00
 -1      2835 1.16124E+02 8.68250E+00 0.00000E+00
 -1      2836 1.14624E+02 8.68250E+00 0.00000E+00
 -1      2837 1.13874E+02 9.98150E+00 0.00000E+00
 -1      2838 1.19124E+02 8.68250E+00 0.00000E+00
 -1      2839 1.17624E+02 8.68250E+00 0.00000E+00
 -1      2840 1.16874E+02 9.98150E+00 0.00000E+00
 -1      2841 1.22124E+02 8.68250E+00 0.00000E+00
 -1      2842 1.20624E+02 8.68250E+00 0.00000E+00
 -1      2843 1.19874E+02 9.98150E+00 0.00000E+00
 -1      2844 1.25124E+02 8.68250E+00 0.00000E+00
 -1      2845 1.23624E+02 8.68250E+00 0.00000E+00
 -1      2846 1.22874E+02 9.98150E+00 0.00000E+00
 -1      2847 1.28124E+02 8.68250E+00 0.00000E+00
 -1      2848 1.26624E+02 8.68250E+00 0.00000E+00
 -1      2849 1.25874E+02 9.98150E+00 0.00000E+00
 -1      2850 1.31124E+02 8.68250E+00 0.00000E+00
 -1      2851 1.29624E+02 8.68250E+00 0.00000E+00
 -1      2852 1.28874E+02 9.98150E+00 0.00000E+00
 -1      2853 1.34124E+02 8.68250E+00 0.00000E+00
 -1      2854 1.32624E+02 8.68250E+00 0.00000E+00
 -1      2855 1.31874E+02 9.98150E+00 0.00000E+00
 -1      2856 1.37082E+02 8.76838E+00 0.00000E+00
 -1      2857 1.35582E+02 8.76838E+00 0.00000E+00
 -1      2858 1.34832E+02 1.00674E+01 0.00000E+00
 -1      2859 1.37748E+02 1.02391E+01 0.00000E+00
 -1      2860 1.01824E+02 3.68160E+01 0.00000E+00
 -1      2861 1.01719E+02 3.80351E+01 0.00000E+00
 -1      2862 1.40907E+02 2.13375E+01 0.00000E+00
 -1      2863 1.40907E+02 1.98625E+01 0.00000E+00
 -1      2864 8.42021E+01 2.59770E+01 0.00000E+00
 -1      2865 8.54571E+01 2.55448E+01 0.00000E+00
 -1      2866 1.40907E+02 1.83875E+01 0.00000E+00
 -1      2867 1.40907E+02 1.69125E+01 0.00000E+00
 -1      2868 1.39608E+02 1.91250E+01 0.00000E+00
 -1      2869 1.40706E+02 1.18000E+01 0.00000E+00
 -1      2870 1.40907E+02 2.42875E+01 0.00000E+00
 -1      2871 1.40907E+02 2.28125E+01 0.00000E+00
 -1      2872 1.39608E+02 2.20750E+01 0.00000E+00
 -1      2873 7.85850E+00 3.92077E+01 0.00000E+00
 -1      2874 2.61240E+01 8.68250E+00 0.00000E+00
 -1      2875 2.46240E+01 8.68250E+00 0.00000E+00
 -1      2876 2.38740E+01 9.98150E+00 0.00000E+00
 -1      2877 2.68740E+01 9.98150E+00 0.00000E+00
 -1      2878 1.40907E+02 2.72375E+01 0.00000E+00
 -1      2879 1.40907E+02 2.57625E+01 0.00000E+00
 -1      2880 1.39608E+02 2.50250E+01 0.00000E+00
 -1      2881 1.40907E+02 3.01375E+01 0.00000E+00
 -1      2882 1.40907E+02 2.86875E+01 0.00000E+00
 -1      2883 1.39608E+02 2.79500E+01 0.00000E+00
 -1      2884 1.40907E+02 3.30875E+01 0.00000E+00
 -1      2885 1.40907E+02 3.16125E+01 0.00000E+00
 -1      2886 1.39608E+02 3.08750E+01 0.00000E+00
 -1      2887 1.40907E+02 3.60375E+01 0.00000E+00
 -1      2888 1.40907E+02 3.45625E+01 0.00000E+00
 -1      2889 1.39608E+02 3.38250E+01 0.00000E+00
 -1      2890 1.01262E+02 3.41513E+01 0.00000E+00
 -1      2891 1.01572E+02 3.53290E+01 0.00000E+00
 -1      2892 8.38580E+01 4.54805E+01 0.00000E+00
 -1      2893 1.00741E+02 3.16565E+01 0.00000E+00
 -1      2894 1.01155E+02 3.28173E+01 0.00000E+00
 -1      2895 1.01352E+02 3.93563E+01 0.00000E+00
 -1      2896 1.00989E+02 4.03539E+01 0.00000E+00
 -1      2897 7.78830E+01 3.93502E+01 0.00000E+00
 -1      2898 7.77407E+01 3.80934E+01 0.00000E+00
 -1      2899 8.17880E+01 2.78446E+01 0.00000E+00
 -1      2900 8.27750E+01 2.69296E+01 0.00000E+00
 -1      2901 8.96384E+01 2.51928E+01 0.00000E+00
 -1      2902 9.08415E+01 2.55638E+01 0.00000E+00
 -1      2903 7.87327E+01 4.22795E+01 0.00000E+00
 -1      2904 8.05295E+01 2.91467E+01 0.00000E+00
 -1      2905 8.11588E+01 2.84957E+01 0.00000E+00
 -1      2906 8.10123E+01 2.73478E+01 0.00000E+00
 -1      2907 8.32748E+01 4.45369E+01 0.00000E+00
 -1      2908 1.40253E+02 4.00692E+01 0.00000E+00
 -1      2909 7.75000E+01 4.18112E+01 0.00000E+00
 -1      2910 7.83463E+01 4.13242E+01 0.00000E+00
 -1      2911 7.79599E+01 4.03690E+01 0.00000E+00
 -1      2912 1.40907E+02 1.54625E+01 0.00000E+00
 -1      2913 1.40907E+02 1.40125E+01 0.00000E+00
 -1      2914 1.39608E+02 1.62000E+01 0.00000E+00
 -1      2915 9.89704E+01 2.95252E+01 0.00000E+00
 -1      2916 9.99325E+01 3.02464E+01 0.00000E+00
 -1      2917 9.94134E+01 2.83229E+01 0.00000E+00
 -1      2918 9.49337E+01 2.64806E+01 0.00000E+00
 -1      2919 9.58758E+01 2.69531E+01 0.00000E+00
 -1      2920 1.04550E+02 4.16899E+01 0.00000E+00
 -1      2921 1.06050E+02 4.16899E+01 0.00000E+00
 -1      2922 1.06800E+02 4.04134E+01 0.00000E+00
 -1      2923 9.09300E+00 3.15875E+01 0.00000E+00
 -1      2924 9.09300E+00 3.30625E+01 0.00000E+00
 -1      2925 9.09300E+00 1.68813E+01 0.00000E+00
 -1      2926 9.09300E+00 1.83563E+01 0.00000E+00
 -1      2927 1.03920E+01 1.90812E+01 0.00000E+00
 -1      2928 1.03920E+01 1.61437E+01 0.00000E+00
 -1      2929 1.03920E+01 2.49750E+01 0.00000E+00
 -1      2930 9.09300E+00 2.57000E+01 0.00000E+00
 -1      2931 9.09300E+00 2.71750E+01 0.00000E+00
 -1      2932 9.00375E+00 8.96981E+00 0.00000E+00
 -1      2933 9.09300E+00 2.86437E+01 0.00000E+00
 -1      2934 9.09300E+00 3.01187E+01 0.00000E+00
 -1      2935 1.03920E+01 3.08563E+01 0.00000E+00
 -1      2936 1.03920E+01 2.79188E+01 0.00000E+00
 -1      2937 9.71390E+01 2.67385E+01 0.00000E+00
 -1      2938 1.02343E+02 3.88276E+01 0.00000E+00
 -1      2939 8.58647E+01 2.45038E+01 0.00000E+00
 -1      2940 7.68818E+01 4.18886E+01 0.00000E+00
 -1      2941 1.03920E+01 3.37938E+01 0.00000E+00
 -1      2942 9.09300E+00 3.45313E+01 0.00000E+00
 -1      2943 9.09300E+00 3.60000E+01 0.00000E+00
 -1      2944 7.70047E+01 3.74401E+01 0.00000E+00
 -1      2945 7.70367E+01 3.98371E+01 0.00000E+00
 -1      2946 7.90400E+01 2.98722E+01 0.00000E+00
 -1      2947 7.97848E+01 2.95094E+01 0.00000E+00
 -1      2948 7.96383E+01 2.83616E+01 0.00000E+00
 -1      2949 1.48740E+01 9.98151E+00 0.00000E+00
 -1      2950 1.41240E+01 8.68251E+00 0.00000E+00
 -1      2951 1.02457E+02 3.60193E+01 0.00000E+00
 -1      2952 9.15750E+00 3.77359E+01 0.00000E+00
 -1      2953 9.22200E+00 4.02061E+01 0.00000E+00
 -1      2954 1.05855E+01 4.04701E+01 0.00000E+00
 -1      2955 1.04565E+01 3.69984E+01 0.00000E+00
 -1      2956 8.80878E+01 2.35820E+01 0.00000E+00
 -1      2957 8.88631E+01 2.43874E+01 0.00000E+00
 -1      2958 8.97173E+01 2.37534E+01 0.00000E+00
 -1      2959 1.39407E+02 1.25375E+01 0.00000E+00
 -1      2960 7.60149E+01 4.17167E+01 0.00000E+00
 -1      2961 7.62467E+01 4.06841E+01 0.00000E+00
 -1      2962 7.61698E+01 3.96652E+01 0.00000E+00
 -1      2963 7.45899E+01 4.13591E+01 0.00000E+00
 -1      2964 1.01184E+02 3.04542E+01 0.00000E+00
 -1      2965 1.13355E+01 3.91711E+01 0.00000E+00
 -1      2966 1.02099E+02 3.31983E+01 0.00000E+00
 -1      2967 1.40907E+02 3.89875E+01 0.00000E+00
 -1      2968 1.40907E+02 3.75125E+01 0.00000E+00
 -1      2969 1.30515E+01 8.34733E+00 0.00000E+00
 -1      2970 1.02888E+02 4.15575E+01 0.00000E+00
 -1      2971 1.03638E+02 4.02811E+01 0.00000E+00
 -1      2972 1.39608E+02 3.67750E+01 0.00000E+00
 -1      2973 7.87386E+01 3.22795E+01 0.00000E+00
 -1      2974 7.84007E+01 3.13481E+01 0.00000E+00
 -1      2975 7.79529E+01 3.26076E+01 0.00000E+00
 -1      2976 9.17028E+01 2.51141E+01 0.00000E+00
 -1      2977 7.76702E+01 3.48005E+01 0.00000E+00
 -1      2978 7.74096E+01 3.39774E+01 0.00000E+00
 -1      2979 7.67891E+01 3.52389E+01 0.00000E+00
 -1      2980 9.38060E+01 2.50642E+01 0.00000E+00
 -1      2981 9.43698E+01 2.57724E+01 0.00000E+00
 -1      2982 9.52629E+01 2.51672E+01 0.00000E+00
 -1      2983 1.03027E+01 9.70731E+00 0.00000E+00
 -1      2984 8.30686E+01 2.57442E+01 0.00000E+00
 -1      2985 8.33623E+01 2.45589E+01 0.00000E+00
 -1      2986 8.19352E+01 2.55114E+01 0.00000E+00
 -1      2987 1.38954E+02 3.93317E+01 0.00000E+00
 -1      2988 7.38399E+01 4.00601E+01 0.00000E+00
 -1      2989 1.16910E+01 1.24625E+01 0.00000E+00
 -1      2990 1.16910E+01 1.39375E+01 0.00000E+00
 -1      2991 1.14712E+01 7.20138E+00 0.00000E+00
 -1      2992 1.03235E+02 3.24364E+01 0.00000E+00
 -1      2993 1.03341E+02 3.37704E+01 0.00000E+00
 -1      2994 7.99003E+01 2.69027E+01 0.00000E+00
 -1      2995 8.05295E+01 2.62517E+01 0.00000E+00
 -1      2996 1.59000E+01 3.83090E+01 0.00000E+00
 -1      2997 1.74000E+01 3.83090E+01 0.00000E+00
 -1      2998 1.89000E+01 3.83090E+01 0.00000E+00
 -1      2999 2.04000E+01 3.83090E+01 0.00000E+00
 -1      3000 1.81500E+01 3.70100E+01 0.00000E+00
 -1      3001 2.19000E+01 3.83090E+01 0.00000E+00
 -1      3002 2.34000E+01 3.83090E+01 0.00000E+00
 -1      3003 2.11500E+01 3.70100E+01 0.00000E+00
 -1      3004 2.49000E+01 3.83090E+01 0.00000E+00
 -1      3005 2.64000E+01 3.83090E+01 0.00000E+00
 -1      3006 2.41500E+01 3.70100E+01 0.00000E+00
 -1      3007 2.79000E+01 3.83090E+01 0.00000E+00
 -1      3008 2.94000E+01 3.83090E+01 0.00000E+00
 -1      3009 2.71500E+01 3.70100E+01 0.00000E+00
 -1      3010 3.09000E+01 3.83090E+01 0.00000E+00
 -1      3011 3.24000E+01 3.83090E+01 0.00000E+00
 -1      3012 3.01500E+01 3.70100E+01 0.00000E+00
 -1      3013 3.39000E+01 3.83090E+01 0.00000E+00
 -1      3014 3.54000E+01 3.83090E+01 0.00000E+00
 -1      3015 3.31500E+01 3.70100E+01 0.00000E+00
 -1      3016 3.69000E+01 3.83090E+01 0.00000E+00
 -1      3017 3.84000E+01 3.83090E+01 0.00000E+00
 -1      3018 3.61500E+01 3.70100E+01 0.00000E+00
 -1      3019 3.99000E+01 3.83090E+01 0.00000E+00
 -1      3020 4.14000E+01 3.83090E+01 0.00000E+00
 -1      3021 3.91500E+01 3.70100E+01 0.00000E+00
 -1      3022 4.29000E+01 3.83090E+01 0.00000E+00
 -1      3023 4.44000E+01 3.83090E+01 0.00000E+00
 -1      3024 4.21500E+01 3.70100E+01 0.00000E+00
 -1      3025 4.59750E+01 3.83090E+01 0.00000E+00
 -1      3026 4.75500E+01 3.83090E+01 0.00000E+00
 -1      3027 4.52250E+01 3.70100E+01 0.00000E+00
 -1      3028 4.90500E+01 3.83090E+01 0.00000E+00
 -1      3029 5.05500E+01 3.83090E+01 0.00000E+00
 -1      3030 4.83000E+01 3.70100E+01 0.00000E+00
 -1      3031 5.20500E+01 3.83090E+01 0.00000E+00
 -1      3032 5.35500E+01 3.83090E+01 0.00000E+00
 -1      3033 5.13000E+01 3.70100E+01 0.00000E+00
 -1      3034 5.50500E+01 3.83090E+01 0.00000E+00
 -1      3035 5.65500E+01 3.83090E+01 0.00000E+00
 -1      3036 5.43000E+01 3.70100E+01 0.00000E+00
 -1      3037 5.80500E+01 3.83090E+01 0.00000E+00
 -1      3038 5.95500E+01 3.83090E+01 0.00000E+00
 -1      3039 5.73000E+01 3.70100E+01 0.00000E+00
 -1      3040 6.10500E+01 3.83090E+01 0.00000E+00
 -1      3041 6.25500E+01 3.83090E+01 0.00000E+00
 -1      3042 6.03000E+01 3.70100E+01 0.00000E+00
 -1      3043 6.40500E+01 3.83090E+01 0.00000E+00
 -1      3044 6.55500E+01 3.83090E+01 0.00000E+00
 -1      3045 6.33000E+01 3.70100E+01 0.00000E+00
 -1      3046 6.70500E+01 3.83090E+01 0.00000E+00
 -1      3047 6.85500E+01 3.83090E+01 0.00000E+00
 -1      3048 6.63000E+01 3.70100E+01 0.00000E+00
 -1      3049 7.00500E+01 3.83090E+01 0.00000E+00
 -1      3050 7.15500E+01 3.83090E+01 0.00000E+00
 -1      3051 6.93000E+01 3.70100E+01 0.00000E+00
 -1      3052 1.04005E+02 3.89599E+01 0.00000E+00
 -1      3053 1.56240E+01 1.12805E+01 0.00000E+00
 -1      3054 1.41241E+01 1.12805E+01 0.00000E+00
 -1      3055 1.12050E+02 3.91369E+01 0.00000E+00
 -1      3056 1.13550E+02 3.91369E+01 0.00000E+00
 -1      3057 1.15050E+02 3.91369E+01 0.00000E+00
 -1      3058 1.16550E+02 3.91369E+01 0.00000E+00
 -1      3059 1.14300E+02 3.78604E+01 0.00000E+00
 -1      3060 1.18050E+02 3.91369E+01 0.00000E+00
 -1      3061 1.19550E+02 3.91369E+01 0.00000E+00
 -1      3062 1.17300E+02 3.78604E+01 0.00000E+00
 -1      3063 1.21050E+02 3.91369E+01 0.00000E+00
 -1      3064 1.22550E+02 3.91369E+01 0.00000E+00
 -1      3065 1.20300E+02 3.78604E+01 0.00000E+00
 -1      3066 1.24050E+02 3.91369E+01 0.00000E+00
 -1      3067 1.25550E+02 3.91369E+01 0.00000E+00
 -1      3068 1.23300E+02 3.78604E+01 0.00000E+00
 -1      3069 1.27050E+02 3.91369E+01 0.00000E+00
 -1      3070 1.28550E+02 3.91369E+01 0.00000E+00
 -1      3071 1.26300E+02 3.78604E+01 0.00000E+00
 -1      3072 1.30050E+02 3.91369E+01 0.00000E+00
 -1      3073 1.31550E+02 3.91369E+01 0.00000E+00
 -1      3074 1.29300E+02 3.78604E+01 0.00000E+00
 -1      3075 1.33050E+02 3.91369E+01 0.00000E+00
 -1      3076 1.34550E+02 3.91369E+01 0.00000E+00
 -1      3077 1.32300E+02 3.78604E+01 0.00000E+00
 -1      3078 1.36002E+02 3.92343E+01 0.00000E+00
 -1      3079 1.37502E+02 3.92343E+01 0.00000E+00
 -1      3080 1.38156E+02 3.81526E+01 0.00000E+00
 -1      3081 1.35252E+02 3.79578E+01 0.00000E+00
 -1      3082 1.38309E+02 3.16125E+01 0.00000E+00
 -1      3083 1.38309E+02 3.01375E+01 0.00000E+00
 -1      3084 1.03593E+02 3.52574E+01 0.00000E+00
 -1      3085 1.03845E+02 3.67445E+01 0.00000E+00
 -1      3086 1.04729E+02 3.44955E+01 0.00000E+00
 -1      3087 2.16240E+01 1.12805E+01 0.00000E+00
 -1      3088 2.01240E+01 1.12805E+01 0.00000E+00
 -1      3089 1.86240E+01 1.12805E+01 0.00000E+00
 -1      3090 1.71240E+01 1.12805E+01 0.00000E+00
 -1      3091 1.63741E+01 1.25795E+01 0.00000E+00
 -1      3092 1.93740E+01 1.25795E+01 0.00000E+00
 -1      3093 3.36240E+01 1.12805E+01 0.00000E+00
 -1      3094 3.21240E+01 1.12805E+01 0.00000E+00
 -1      3095 3.06240E+01 1.12805E+01 0.00000E+00
 -1      3096 2.91240E+01 1.12805E+01 0.00000E+00
 -1      3097 3.13740E+01 1.25795E+01 0.00000E+00
 -1      3098 3.96240E+01 1.12805E+01 0.00000E+00
 -1      3099 3.81240E+01 1.12805E+01 0.00000E+00
 -1      3100 4.26240E+01 1.12805E+01 0.00000E+00
 -1      3101 4.11240E+01 1.12805E+01 0.00000E+00
 -1      3102 4.03740E+01 1.25795E+01 0.00000E+00
 -1      3103 4.56240E+01 1.12805E+01 0.00000E+00
 -1      3104 4.41240E+01 1.12805E+01 0.00000E+00
 -1      3105 4.33740E+01 1.25795E+01 0.00000E+00
 -1      3106 4.86240E+01 1.12805E+01 0.00000E+00
 -1      3107 4.71240E+01 1.12805E+01 0.00000E+00
 -1      3108 4.63740E+01 1.25795E+01 0.00000E+00
 -1      3109 5.16240E+01 1.12805E+01 0.00000E+00
 -1      3110 5.01240E+01 1.12805E+01 0.00000E+00
 -1      3111 4.93740E+01 1.25795E+01 0.00000E+00
 -1      3112 5.46240E+01 1.12805E+01 0.00000E+00
 -1      3113 5.31240E+01 1.12805E+01 0.00000E+00
 -1      3114 5.23740E+01 1.25795E+01 0.00000E+00
 -1      3115 5.76240E+01 1.12805E+01 0.00000E+00
 -1      3116 5.61240E+01 1.12805E+01 0.00000E+00
 -1      3117 5.53740E+01 1.25795E+01 0.00000E+00
 -1      3118 6.06240E+01 1.12805E+01 0.00000E+00
 -1      3119 5.91240E+01 1.12805E+01 0.00000E+00
 -1      3120 5.83740E+01 1.25795E+01 0.00000E+00
 -1      3121 6.36240E+01 1.12805E+01 0.00000E+00
 -1      3122 6.21240E+01 1.12805E+01 0.00000E+00
 -1      3123 6.13740E+01 1.25795E+01 0.00000E+00
 -1      3124 6.66240E+01 1.12805E+01 0.00000E+00
 -1      3125 6.51240E+01 1.12805E+01 0.00000E+00
 -1      3126 6.43740E+01 1.25795E+01 0.00000E+00
 -1      3127 6.96240E+01 1.12805E+01 0.00000E+00
 -1      3128 6.81240E+01 1.12805E+01 0.00000E+00
 -1      3129 6.73740E+01 1.25795E+01 0.00000E+00
 -1      3130 7.26240E+01 1.12805E+01 0.00000E+00
 -1      3131 7.11240E+01 1.12805E+01 0.00000E+00
 -1      3132 7.03740E+01 1.25795E+01 0.00000E+00
 -1      3133 7.56240E+01 1.12805E+01 0.00000E+00
 -1      3134 7.41240E+01 1.12805E+01 0.00000E+00
 -1      3135 7.33740E+01 1.25795E+01 0.00000E+00
 -1      3136 7.86240E+01 1.12805E+01 0.00000E+00
 -1      3137 7.71240E+01 1.12805E+01 0.00000E+00
 -1      3138 7.63740E+01 1.25795E+01 0.00000E+00
 -1      3139 8.16240E+01 1.12805E+01 0.00000E+00
 -1      3140 8.01240E+01 1.12805E+01 0.00000E+00
 -1      3141 7.93740E+01 1.25795E+01 0.00000E+00
 -1      3142 8.46240E+01 1.12805E+01 0.00000E+00
 -1      3143 8.31240E+01 1.12805E+01 0.00000E+00
 -1      3144 8.23740E+01 1.25795E+01 0.00000E+00
 -1      3145 8.76240E+01 1.12805E+01 0.00000E+00
 -1      3146 8.61240E+01 1.12805E+01 0.00000E+00
 -1      3147 8.53740E+01 1.25795E+01 0.00000E+00
 -1      3148 9.06240E+01 1.12805E+01 0.00000E+00
 -1      3149 8.91240E+01 1.12805E+01 0.00000E+00
 -1      3150 8.83740E+01 1.25795E+01 0.00000E+00
 -1      3151 9.36240E+01 1.12805E+01 0.00000E+00
 -1      3152 9.21240E+01 1.12805E+01 0.00000E+00
 -1      3153 9.13740E+01 1.25795E+01 0.00000E+00
 -1      3154 9.66240E+01 1.12805E+01 0.00000E+00
 -1      3155 9.51240E+01 1.12805E+01 0.00000E+00
 -1      3156 9.43740E+01 1.25795E+01 0.00000E+00
 -1      3157 9.96240E+01 1.12805E+01 0.00000E+00
 -1      3158 9.81240E+01 1.12805E+01 0.00000E+00
 -1      3159 9.73740E+01 1.25795E+01 0.00000E+00
 -1      3160 1.02624E+02 1.12805E+01 0.00000E+00
 -1      3161 1.01124E+02 1.12805E+01 0.00000E+00
 -1      3162 1.00374E+02 1.25795E+01 0.00000E+00
 -1      3163 1.05624E+02 1.12805E+01 0.00000E+00
 -1      3164 1.04124E+02 1.12805E+01 0.00000E+00
 -1      3165 1.03374E+02 1.25795E+01 0.00000E+00
 -1      3166 1.08624E+02 1.12805E+01 0.00000E+00
 -1      3167 1.07124E+02 1.12805E+01 0.00000E+00
 -1      3168 1.06374E+02 1.25795E+01 0.00000E+00
 -1      3169 1.11624E+02 1.12805E+01 0.00000E+00
 -1      3170 1.10124E+02 1.12805E+01 0.00000E+00
 -1      3171 1.09374E+02 1.25795E+01 0.00000E+00
 -1      3172 1.14624E+02 1.12805E+01 0.00000E+00
 -1      3173 1.13124E+02 1.12805E+01 0.00000E+00
 -1      3174 1.12374E+02 1.25795E+01 0.00000E+00
 -1      3175 1.17624E+02 1.12805E+01 0.00000E+00
 -1      3176 1.16124E+02 1.12805E+01 0.00000E+00
 -1      3177 1.15374E+02 1.25795E+01 0.00000E+00
 -1      3178 1.20624E+02 1.12805E+01 0.00000E+00
 -1      3179 1.19124E+02 1.12805E+01 0.00000E+00
 -1      3180 1.18374E+02 1.25795E+01 0.00000E+00
 -1      3181 1.23624E+02 1.12805E+01 0.00000E+00
 -1      3182 1.22124E+02 1.12805E+01 0.00000E+00
 -1      3183 1.21374E+02 1.25795E+01 0.00000E+00
 -1      3184 1.26624E+02 1.12805E+01 0.00000E+00
 -1      3185 1.25124E+02 1.12805E+01 0.00000E+00
 -1      3186 1.24374E+02 1.25795E+01 0.00000E+00
 -1      3187 1.29624E+02 1.12805E+01 0.00000E+00
 -1      3188 1.28124E+02 1.12805E+01 0.00000E+00
 -1      3189 1.27374E+02 1.25795E+01 0.00000E+00
 -1      3190 1.32624E+02 1.12805E+01 0.00000E+00
 -1      3191 1.31124E+02 1.12805E+01 0.00000E+00
 -1      3192 1.30374E+02 1.25795E+01 0.00000E+00
 -1      3193 1.38309E+02 2.86875E+01 0.00000E+00
 -1      3194 1.38309E+02 2.72375E+01 0.00000E+00
 -1      3195 1.37010E+02 2.94250E+01 0.00000E+00
 -1      3196 8.49520E+01 2.35625E+01 0.00000E+00
 -1      3197 8.63209E+01 2.32747E+01 0.00000E+00
 -1      3198 1.38309E+02 3.45625E+01 0.00000E+00
 -1      3199 1.38309E+02 3.30875E+01 0.00000E+00
 -1      3200 1.37010E+02 3.23500E+01 0.00000E+00
 -1      3201 7.30899E+01 3.87611E+01 0.00000E+00
 -1      3202 7.46299E+01 3.92132E+01 0.00000E+00
 -1      3203 7.23399E+01 3.74621E+01 0.00000E+00
 -1      3204 1.17938E+01 8.83558E+00 0.00000E+00
 -1      3205 1.38156E+02 3.66776E+01 0.00000E+00
 -1      3206 1.00618E+02 4.14266E+01 0.00000E+00
 -1      3207 1.00224E+02 4.26250E+01 0.00000E+00
 -1      3208 1.16460E+01 3.80848E+01 0.00000E+00
 -1      3209 1.24605E+01 3.85216E+01 0.00000E+00
 -1      3210 1.39605E+01 3.85216E+01 0.00000E+00
 -1      3211 1.15815E+01 3.63489E+01 0.00000E+00
 -1      3212 1.01606E+02 4.12214E+01 0.00000E+00
 -1      3213 7.54198E+01 3.83662E+01 0.00000E+00
 -1      3214 1.38150E+02 1.46641E+01 0.00000E+00
 -1      3215 1.37949E+02 1.24516E+01 0.00000E+00
 -1      3216 1.36491E+02 1.23658E+01 0.00000E+00
 -1      3217 1.38309E+02 1.98625E+01 0.00000E+00
 -1      3218 1.38309E+02 1.83875E+01 0.00000E+00
 -1      3219 3.66240E+01 1.12805E+01 0.00000E+00
 -1      3220 3.51240E+01 1.12805E+01 0.00000E+00
 -1      3221 3.43740E+01 1.25795E+01 0.00000E+00
 -1      3222 3.73740E+01 1.25795E+01 0.00000E+00
 -1      3223 1.09050E+02 3.91369E+01 0.00000E+00
 -1      3224 1.10550E+02 3.91369E+01 0.00000E+00
 -1      3225 1.11300E+02 3.78604E+01 0.00000E+00
 -1      3226 9.13857E+01 2.39536E+01 0.00000E+00
 -1      3227 9.25958E+01 2.45089E+01 0.00000E+00
 -1      3228 9.34889E+01 2.39037E+01 0.00000E+00
 -1      3229 1.38309E+02 2.28125E+01 0.00000E+00
 -1      3230 1.38309E+02 2.13375E+01 0.00000E+00
 -1      3231 1.37010E+02 2.06000E+01 0.00000E+00
 -1      3232 1.38230E+02 1.72508E+01 0.00000E+00
 -1      3233 1.38230E+02 1.58008E+01 0.00000E+00
 -1      3234 1.36771E+02 1.57149E+01 0.00000E+00
 -1      3235 1.36930E+02 1.79883E+01 0.00000E+00
 -1      3236 9.95472E+01 2.71420E+01 0.00000E+00
 -1      3237 1.00509E+02 2.78632E+01 0.00000E+00
 -1      3238 1.18830E+01 1.08533E+01 0.00000E+00
 -1      3239 1.16910E+01 2.12875E+01 0.00000E+00
 -1      3240 1.16910E+01 2.27625E+01 0.00000E+00
 -1      3241 1.06050E+02 3.93883E+01 0.00000E+00
 -1      3242 1.07550E+02 3.93883E+01 0.00000E+00
 -1      3243 8.25642E+01 4.38787E+01 0.00000E+00
 -1      3244 7.54648E+01 3.69880E+01 0.00000E+00
 -1      3245 1.01669E+02 2.92392E+01 0.00000E+00
 -1      3246 1.02478E+02 3.06494E+01 0.00000E+00
 -1      3247 9.70462E+01 2.54505E+01 0.00000E+00
 -1      3248 9.83585E+01 2.63137E+01 0.00000E+00
 -1      3249 1.38309E+02 2.57625E+01 0.00000E+00
 -1      3250 1.38309E+02 2.42875E+01 0.00000E+00
 -1      3251 1.37010E+02 2.65000E+01 0.00000E+00
 -1      3252 1.04755E+02 3.79347E+01 0.00000E+00
 -1      3253 1.36857E+02 3.59401E+01 0.00000E+00
 -1      3254 1.03720E+02 3.12215E+01 0.00000E+00
 -1      3255 1.04962E+02 3.17935E+01 0.00000E+00
 -1      3256 1.04205E+02 3.00065E+01 0.00000E+00
 -1      3257 1.16910E+01 3.01219E+01 0.00000E+00
 -1      3258 1.16910E+01 3.15906E+01 0.00000E+00
 -1      3259 8.08232E+01 2.50663E+01 0.00000E+00
 -1      3260 1.29900E+01 2.35000E+01 0.00000E+00
 -1      3261 1.16910E+01 2.42375E+01 0.00000E+00
 -1      3262 1.16910E+01 2.57125E+01 0.00000E+00
 -1      3263 8.04681E+01 4.38037E+01 0.00000E+00
 -1      3264 8.09235E+01 4.48115E+01 0.00000E+00
 -1      3265 1.08300E+02 3.81118E+01 0.00000E+00
 -1      3266 1.16910E+01 1.54063E+01 0.00000E+00
 -1      3267 1.16910E+01 1.68750E+01 0.00000E+00
 -1      3268 1.29900E+01 1.46687E+01 0.00000E+00
 -1      3269 1.16910E+01 3.30594E+01 0.00000E+00
 -1      3270 1.16910E+01 3.45281E+01 0.00000E+00
 -1      3271 1.29900E+01 3.23250E+01 0.00000E+00
 -1      3272 7.82542E+01 3.02003E+01 0.00000E+00
 -1      3273 7.81077E+01 2.90524E+01 0.00000E+00
 -1      3274 7.74685E+01 3.05284E+01 0.00000E+00
 -1      3275 8.98350E+01 2.23428E+01 0.00000E+00
 -1      3276 9.06104E+01 2.31482E+01 0.00000E+00
 -1      3277 9.15034E+01 2.25430E+01 0.00000E+00
 -1      3278 8.62625E+01 2.16995E+01 0.00000E+00
 -1      3279 8.71751E+01 2.26407E+01 0.00000E+00
 -1      3280 8.80294E+01 2.20068E+01 0.00000E+00
 -1      3281 1.05890E+02 3.71728E+01 0.00000E+00
 -1      3282 2.31240E+01 1.12805E+01 0.00000E+00
 -1      3283 2.23740E+01 1.25795E+01 0.00000E+00
 -1      3284 2.46240E+01 1.12805E+01 0.00000E+00
 -1      3285 2.83740E+01 1.25795E+01 0.00000E+00
 -1      3286 2.76240E+01 1.12805E+01 0.00000E+00
 -1      3287 2.61240E+01 1.12805E+01 0.00000E+00
 -1      3288 1.35286E+02 1.18661E+01 0.00000E+00
 -1      3289 1.33829E+02 1.17802E+01 0.00000E+00
 -1      3290 1.33079E+02 1.30792E+01 0.00000E+00
 -1      3291 1.35488E+02 1.40786E+01 0.00000E+00
 -1      3292 1.01937E+02 2.68775E+01 0.00000E+00
 -1      3293 1.01803E+02 2.80584E+01 0.00000E+00
 -1      3294 1.03096E+02 2.82536E+01 0.00000E+00
 -1      3295 8.17349E+01 4.40552E+01 0.00000E+00
 -1      3296 8.38185E+01 2.33298E+01 0.00000E+00
 -1      3297 8.42748E+01 2.21007E+01 0.00000E+00
 -1      3298 8.26851E+01 2.30970E+01 0.00000E+00
 -1      3299 7.84107E+01 2.76282E+01 0.00000E+00
 -1      3300 7.91555E+01 2.72654E+01 0.00000E+00
 -1      3301 7.86727E+01 2.61693E+01 0.00000E+00
 -1      3302 1.47105E+01 3.72226E+01 0.00000E+00
 -1      3303 7.70717E+01 3.30460E+01 0.00000E+00
 -1      3304 7.67339E+01 3.21146E+01 0.00000E+00
 -1      3305 7.61906E+01 3.34844E+01 0.00000E+00
 -1      3306 9.94544E+01 2.58540E+01 0.00000E+00
 -1      3307 1.37010E+02 2.35500E+01 0.00000E+00
 -1      3308 9.59185E+01 2.40341E+01 0.00000E+00
 -1      3309 9.64823E+01 2.47423E+01 0.00000E+00
 -1      3310 9.77018E+01 2.43174E+01 0.00000E+00
 -1      3311 1.39320E+01 1.28898E+01 0.00000E+00
 -1      3312 1.31820E+01 1.15908E+01 0.00000E+00
 -1      3313 1.16910E+01 1.98188E+01 0.00000E+00
 -1      3314 1.29900E+01 2.05562E+01 0.00000E+00
 -1      3315 1.16910E+01 1.83500E+01 0.00000E+00
 -1      3316 7.41974E+01 3.66383E+01 0.00000E+00
 -1      3317 7.57823E+01 3.57122E+01 0.00000E+00
 -1      3318 7.55217E+01 3.48892E+01 0.00000E+00
 -1      3319 1.16910E+01 2.71844E+01 0.00000E+00
 -1      3320 1.16910E+01 2.86531E+01 0.00000E+00
 -1      3321 1.29900E+01 2.93875E+01 0.00000E+00
 -1      3322 7.95151E+01 2.42870E+01 0.00000E+00
 -1      3323 8.09207E+01 2.35468E+01 0.00000E+00
 -1      3324 1.07390E+02 3.69215E+01 0.00000E+00
 -1      3325 1.08890E+02 3.66701E+01 0.00000E+00
 -1      3326 1.06480E+02 3.57312E+01 0.00000E+00
 -1      3327 2.04000E+01 3.57110E+01 0.00000E+00
 -1      3328 2.19000E+01 3.57110E+01 0.00000E+00
 -1      3329 2.34000E+01 3.57110E+01 0.00000E+00
 -1      3330 2.49000E+01 3.57110E+01 0.00000E+00
 -1      3331 2.26500E+01 3.44120E+01 0.00000E+00
 -1      3332 2.64000E+01 3.57110E+01 0.00000E+00
 -1      3333 2.79000E+01 3.57110E+01 0.00000E+00
 -1      3334 2.56500E+01 3.44120E+01 0.00000E+00
 -1      3335 2.94000E+01 3.57110E+01 0.00000E+00
 -1      3336 3.09000E+01 3.57110E+01 0.00000E+00
 -1      3337 2.86500E+01 3.44120E+01 0.00000E+00
 -1      3338 3.24000E+01 3.57110E+01 0.00000E+00
 -1      3339 3.39000E+01 3.57110E+01 0.00000E+00
 -1      3340 3.16500E+01 3.44120E+01 0.00000E+00
 -1      3341 3.54000E+01 3.57110E+01 0.00000E+00
 -1      3342 3.69000E+01 3.57110E+01 0.00000E+00
 -1      3343 3.46500E+01 3.44120E+01 0.00000E+00
 -1      3344 3.84000E+01 3.57110E+01 0.00000E+00
 -1      3345 3.99000E+01 3.57110E+01 0.00000E+00
 -1      3346 3.76500E+01 3.44120E+01 0.00000E+00
 -1      3347 4.14000E+01 3.57110E+01 0.00000E+00
 -1      3348 4.29000E+01 3.57110E+01 0.00000E+00
 -1      3349 4.06500E+01 3.44120E+01 0.00000E+00
 -1      3350 4.44750E+01 3.57110E+01 0.00000E+00
 -1      3351 4.60500E+01 3.57110E+01 0.00000E+00
 -1      3352 4.37250E+01 3.44120E+01 0.00000E+00
 -1      3353 4.75500E+01 3.57110E+01 0.00000E+00
 -1      3354 4.90500E+01 3.57110E+01 0.00000E+00
 -1      3355 4.68000E+01 3.44120E+01 0.00000E+00
 -1      3356 5.05500E+01 3.57110E+01 0.00000E+00
 -1      3357 5.20500E+01 3.57110E+01 0.00000E+00
 -1      3358 4.98000E+01 3.44120E+01 0.00000E+00
 -1      3359 5.35500E+01 3.57110E+01 0.00000E+00
 -1      3360 5.50500E+01 3.57110E+01 0.00000E+00
 -1      3361 5.28000E+01 3.44120E+01 0.00000E+00
 -1      3362 5.65500E+01 3.57110E+01 0.00000E+00
 -1      3363 5.80500E+01 3.57110E+01 0.00000E+00
 -1      3364 5.58000E+01 3.44120E+01 0.00000E+00
 -1      3365 5.95500E+01 3.57110E+01 0.00000E+00
 -1      3366 6.10500E+01 3.57110E+01 0.00000E+00
 -1      3367 5.88000E+01 3.44120E+01 0.00000E+00
 -1      3368 6.25500E+01 3.57110E+01 0.00000E+00
 -1      3369 6.40500E+01 3.57110E+01 0.00000E+00
 -1      3370 6.18000E+01 3.44120E+01 0.00000E+00
 -1      3371 6.55500E+01 3.57110E+01 0.00000E+00
 -1      3372 6.70500E+01 3.57110E+01 0.00000E+00
 -1      3373 6.48000E+01 3.44120E+01 0.00000E+00
 -1      3374 6.85500E+01 3.57110E+01 0.00000E+00
 -1      3375 7.00500E+01 3.57110E+01 0.00000E+00
 -1      3376 6.78000E+01 3.44120E+01 0.00000E+00
 -1      3377 9.32764E+01 2.27705E+01 0.00000E+00
 -1      3378 9.44865E+01 2.33258E+01 0.00000E+00
 -1      3379 1.16550E+02 3.65614E+01 0.00000E+00
 -1      3380 1.18050E+02 3.65614E+01 0.00000E+00
 -1      3381 1.19550E+02 3.65614E+01 0.00000E+00
 -1      3382 1.21050E+02 3.65614E+01 0.00000E+00
 -1      3383 1.18800E+02 3.52624E+01 0.00000E+00
 -1      3384 1.22550E+02 3.65614E+01 0.00000E+00
 -1      3385 1.24050E+02 3.65614E+01 0.00000E+00
 -1      3386 1.21800E+02 3.52624E+01 0.00000E+00
 -1      3387 1.25550E+02 3.65614E+01 0.00000E+00
 -1      3388 1.27050E+02 3.65614E+01 0.00000E+00
 -1      3389 1.24800E+02 3.52624E+01 0.00000E+00
 -1      3390 1.28550E+02 3.65614E+01 0.00000E+00
 -1      3391 1.30050E+02 3.65614E+01 0.00000E+00
 -1      3392 1.27800E+02 3.52624E+01 0.00000E+00
 -1      3393 1.31550E+02 3.65614E+01 0.00000E+00
 -1      3394 1.33050E+02 3.65614E+01 0.00000E+00
 -1      3395 1.30800E+02 3.52624E+01 0.00000E+00
 -1      3396 1.34227E+02 3.62021E+01 0.00000E+00
 -1      3397 1.35680E+02 3.62995E+01 0.00000E+00
 -1      3398 1.35833E+02 3.41844E+01 0.00000E+00
 -1      3399 1.33477E+02 3.49031E+01 0.00000E+00
 -1      3400 1.05595E+02 3.30189E+01 0.00000E+00
 -1      3401 1.05847E+02 3.45059E+01 0.00000E+00
 -1      3402 1.07347E+02 3.42545E+01 0.00000E+00
 -1      3403 1.06080E+02 3.18039E+01 0.00000E+00
 -1      3404 3.21240E+01 1.38785E+01 0.00000E+00
 -1      3405 3.06240E+01 1.38785E+01 0.00000E+00
 -1      3406 4.41240E+01 1.38785E+01 0.00000E+00
 -1      3407 4.26240E+01 1.38785E+01 0.00000E+00
 -1      3408 4.11240E+01 1.38785E+01 0.00000E+00
 -1      3409 3.96240E+01 1.38785E+01 0.00000E+00
 -1      3410 4.18740E+01 1.51775E+01 0.00000E+00
 -1      3411 5.01240E+01 1.38785E+01 0.00000E+00
 -1      3412 4.86240E+01 1.38785E+01 0.00000E+00
 -1      3413 5.31240E+01 1.38785E+01 0.00000E+00
 -1      3414 5.16240E+01 1.38785E+01 0.00000E+00
 -1      3415 5.08740E+01 1.51775E+01 0.00000E+00
 -1      3416 5.61240E+01 1.38785E+01 0.00000E+00
 -1      3417 5.46240E+01 1.38785E+01 0.00000E+00
 -1      3418 5.38740E+01 1.51775E+01 0.00000E+00
 -1      3419 5.91240E+01 1.38785E+01 0.00000E+00
 -1      3420 5.76240E+01 1.38785E+01 0.00000E+00
 -1      3421 5.68740E+01 1.51775E+01 0.00000E+00
 -1      3422 6.21240E+01 1.38785E+01 0.00000E+00
 -1      3423 6.06240E+01 1.38785E+01 0.00000E+00
 -1      3424 5.98740E+01 1.51775E+01 0.00000E+00
 -1      3425 6.51240E+01 1.38785E+01 0.00000E+00
 -1      3426 6.36240E+01 1.38785E+01 0.00000E+00
 -1      3427 6.28740E+01 1.51775E+01 0.00000E+00
 -1      3428 6.81240E+01 1.38785E+01 0.00000E+00
 -1      3429 6.66240E+01 1.38785E+01 0.00000E+00
 -1      3430 6.58740E+01 1.51775E+01 0.00000E+00
 -1      3431 7.11240E+01 1.38785E+01 0.00000E+00
 -1      3432 6.96240E+01 1.38785E+01 0.00000E+00
 -1      3433 6.88740E+01 1.51775E+01 0.00000E+00
 -1      3434 7.41240E+01 1.38785E+01 0.00000E+00
 -1      3435 7.26240E+01 1.38785E+01 0.00000E+00
 -1      3436 7.18740E+01 1.51775E+01 0.00000E+00
 -1      3437 7.71240E+01 1.38785E+01 0.00000E+00
 -1      3438 7.56240E+01 1.38785E+01 0.00000E+00
 -1      3439 7.48740E+01 1.51775E+01 0.00000E+00
 -1      3440 8.01240E+01 1.38785E+01 0.00000E+00
 -1      3441 7.86240E+01 1.38785E+01 0.00000E+00
 -1      3442 7.78740E+01 1.51775E+01 0.00000E+00
 -1      3443 8.31240E+01 1.38785E+01 0.00000E+00
 -1      3444 8.16240E+01 1.38785E+01 0.00000E+00
 -1      3445 8.08740E+01 1.51775E+01 0.00000E+00
 -1      3446 8.61240E+01 1.38785E+01 0.00000E+00
 -1      3447 8.46240E+01 1.38785E+01 0.00000E+00
 -1      3448 8.38740E+01 1.51775E+01 0.00000E+00
 -1      3449 8.91240E+01 1.38785E+01 0.00000E+00
 -1      3450 8.76240E+01 1.38785E+01 0.00000E+00
 -1      3451 8.68740E+01 1.51775E+01 0.00000E+00
 -1      3452 9.21240E+01 1.38785E+01 0.00000E+00
 -1      3453 9.06240E+01 1.38785E+01 0.00000E+00
 -1      3454 8.98740E+01 1.51775E+01 0.00000E+00
 -1      3455 9.51240E+01 1.38785E+01 0.00000E+00
 -1      3456 9.36240E+01 1.38785E+01 0.00000E+00
 -1      3457 9.28740E+01 1.51775E+01 0.00000E+00
 -1      3458 9.81240E+01 1.38785E+01 0.00000E+00
 -1      3459 9.66240E+01 1.38785E+01 0.00000E+00
 -1      3460 9.58740E+01 1.51775E+01 0.00000E+00
 -1      3461 1.01124E+02 1.38785E+01 0.00000E+00
 -1      3462 9.96240E+01 1.38785E+01 0.00000E+00
 -1      3463 9.88740E+01 1.51775E+01 0.00000E+00
 -1      3464 1.04124E+02 1.38785E+01 0.00000E+00
 -1      3465 1.02624E+02 1.38785E+01 0.00000E+00
 -1      3466 1.01874E+02 1.51775E+01 0.00000E+00
 -1      3467 1.07124E+02 1.38785E+01 0.00000E+00
 -1      3468 1.05624E+02 1.38785E+01 0.00000E+00
 -1      3469 1.04874E+02 1.51775E+01 0.00000E+00
 -1      3470 1.10124E+02 1.38785E+01 0.00000E+00
 -1      3471 1.08624E+02 1.38785E+01 0.00000E+00
 -1      3472 1.07874E+02 1.51775E+01 0.00000E+00
 -1      3473 1.13124E+02 1.38785E+01 0.00000E+00
 -1      3474 1.11624E+02 1.38785E+01 0.00000E+00
 -1      3475 1.10874E+02 1.51775E+01 0.00000E+00
 -1      3476 1.16124E+02 1.38785E+01 0.00000E+00
 -1      3477 1.14624E+02 1.38785E+01 0.00000E+00
 -1      3478 1.13874E+02 1.51775E+01 0.00000E+00
 -1      3479 1.19124E+02 1.38785E+01 0.00000E+00
 -1      3480 1.17624E+02 1.38785E+01 0.00000E+00
 -1      3481 1.16874E+02 1.51775E+01 0.00000E+00
 -1      3482 1.22124E+02 1.38785E+01 0.00000E+00
 -1      3483 1.20624E+02 1.38785E+01 0.00000E+00
 -1      3484 1.19874E+02 1.51775E+01 0.00000E+00
 -1      3485 1.25124E+02 1.38785E+01 0.00000E+00
 -1      3486 1.23624E+02 1.38785E+01 0.00000E+00
 -1      3487 1.22874E+02 1.51775E+01 0.00000E+00
 -1      3488 1.28124E+02 1.38785E+01 0.00000E+00
 -1      3489 1.26624E+02 1.38785E+01 0.00000E+00
 -1      3490 1.25874E+02 1.51775E+01 0.00000E+00
 -1      3491 1.31124E+02 1.38785E+01 0.00000E+00
 -1      3492 1.29624E+02 1.38785E+01 0.00000E+00
 -1      3493 1.28874E+02 1.51775E+01 0.00000E+00
 -1      3494 1.35711E+02 3.01500E+01 0.00000E+00
 -1      3495 1.35711E+02 2.87000E+01 0.00000E+00
 -1      3496 4.71240E+01 1.38785E+01 0.00000E+00
 -1      3497 4.56240E+01 1.38785E+01 0.00000E+00
 -1      3498 4.48740E+01 1.51775E+01 0.00000E+00
 -1      3499 4.78740E+01 1.51775E+01 0.00000E+00
 -1      3500 1.35772E+02 3.29047E+01 0.00000E+00
 -1      3501 1.35772E+02 3.14297E+01 0.00000E+00
 -1      3502 1.34473E+02 3.07047E+01 0.00000E+00
 -1      3503 1.34594E+02 3.32640E+01 0.00000E+00
 -1      3504 7.13537E+01 3.59486E+01 0.00000E+00
 -1      3505 7.28937E+01 3.64007E+01 0.00000E+00
 -1      3506 7.32112E+01 3.51249E+01 0.00000E+00
 -1      3507 7.06037E+01 3.46496E+01 0.00000E+00
 -1      3508 1.28805E+01 3.56145E+01 0.00000E+00
 -1      3509 8.19764E+01 4.39272E+01 0.00000E+00
 -1      3510 1.02518E+02 4.26302E+01 0.00000E+00
 -1      3511 1.10550E+02 3.65839E+01 0.00000E+00
 -1      3512 1.12050E+02 3.65839E+01 0.00000E+00
 -1      3513 1.13550E+02 3.65614E+01 0.00000E+00
 -1      3514 1.15050E+02 3.65614E+01 0.00000E+00
 -1      3515 1.15800E+02 3.52624E+01 0.00000E+00
 -1      3516 1.35711E+02 2.13375E+01 0.00000E+00
 -1      3517 1.35711E+02 1.98625E+01 0.00000E+00
 -1      3518 1.74000E+01 3.57110E+01 0.00000E+00
 -1      3519 1.89000E+01 3.57110E+01 0.00000E+00
 -1      3520 1.96500E+01 3.44120E+01 0.00000E+00
 -1      3521 1.35711E+02 2.72250E+01 0.00000E+00
 -1      3522 1.35711E+02 2.57500E+01 0.00000E+00
 -1      3523 1.34412E+02 2.79500E+01 0.00000E+00
 -1      3524 1.48741E+01 1.40483E+01 0.00000E+00
 -1      3525 1.39320E+01 1.43585E+01 0.00000E+00
 -1      3526 1.39320E+01 1.58273E+01 0.00000E+00
 -1      3527 9.95419E+01 2.44613E+01 0.00000E+00
 -1      3528 1.00731E+02 2.52896E+01 0.00000E+00
 -1      3529 7.41770E+01 3.44311E+01 0.00000E+00
 -1      3530 7.51838E+01 3.39578E+01 0.00000E+00
 -1      3531 7.48459E+01 3.30263E+01 0.00000E+00
 -1      3532 1.35711E+02 2.42813E+01 0.00000E+00
 -1      3533 1.35711E+02 2.28062E+01 0.00000E+00
 -1      3534 1.34412E+02 2.20688E+01 0.00000E+00
 -1      3535 1.34412E+02 2.50063E+01 0.00000E+00
 -1      3536 1.48200E+01 3.54019E+01 0.00000E+00
 -1      3537 7.87703E+01 2.46498E+01 0.00000E+00
 -1      3538 7.88679E+01 2.31303E+01 0.00000E+00
 -1      3539 7.80255E+01 2.50125E+01 0.00000E+00
 -1      3540 1.04339E+02 2.88256E+01 0.00000E+00
 -1      3541 1.05581E+02 2.93977E+01 0.00000E+00
 -1      3542 1.04472E+02 2.76448E+01 0.00000E+00
 -1      3543 8.13770E+01 2.23177E+01 0.00000E+00
 -1      3544 1.09640E+02 3.53936E+01 0.00000E+00
 -1      3545 1.42890E+01 2.27625E+01 0.00000E+00
 -1      3546 1.42890E+01 2.42375E+01 0.00000E+00
 -1      3547 1.42800E+01 3.32139E+01 0.00000E+00
 -1      3548 1.61100E+01 3.48221E+01 0.00000E+00
 -1      3549 1.68600E+01 3.35231E+01 0.00000E+00
 -1      3550 1.42800E+01 3.17452E+01 0.00000E+00
 -1      3551 9.57060E+01 2.29009E+01 0.00000E+00
 -1      3552 9.25011E+01 2.19651E+01 0.00000E+00
 -1      3553 9.34988E+01 2.13872E+01 0.00000E+00
 -1      3554 9.17257E+01 2.11597E+01 0.00000E+00
 -1      3555 7.28733E+01 3.41935E+01 0.00000E+00
 -1      3556 1.02112E+02 2.40921E+01 0.00000E+00
 -1      3557 1.02024E+02 2.54848E+01 0.00000E+00
 -1      3558 1.03318E+02 2.56800E+01 0.00000E+00
 -1      3559 7.65873E+01 3.09668E+01 0.00000E+00
 -1      3560 7.64408E+01 2.98189E+01 0.00000E+00
 -1      3561 7.57062E+01 3.14051E+01 0.00000E+00
 -1      3562 8.89224E+01 2.14015E+01 0.00000E+00
 -1      3563 8.98155E+01 2.07963E+01 0.00000E+00
 -1      3564 8.80098E+01 2.04603E+01 0.00000E+00
 -1      3565 8.51745E+01 2.11260E+01 0.00000E+00
 -1      3566 8.60288E+01 2.04920E+01 0.00000E+00
 -1      3567 2.53740E+01 1.25795E+01 0.00000E+00
 -1      3568 2.91240E+01 1.38785E+01 0.00000E+00
 -1      3569 2.76240E+01 1.38785E+01 0.00000E+00
 -1      3570 2.98740E+01 1.51775E+01 0.00000E+00
 -1      3571 1.63741E+01 1.40483E+01 0.00000E+00
 -1      3572 1.35567E+02 1.52153E+01 0.00000E+00
 -1      3573 1.34363E+02 1.47156E+01 0.00000E+00
 -1      3574 1.35646E+02 1.63519E+01 0.00000E+00
 -1      3575 3.88740E+01 1.51775E+01 0.00000E+00
 -1      3576 3.81240E+01 1.38785E+01 0.00000E+00
 -1      3577 3.66240E+01 1.38785E+01 0.00000E+00
 -1      3578 1.32329E+02 1.43782E+01 0.00000E+00
 -1      3579 2.31240E+01 1.38785E+01 0.00000E+00
 -1      3580 2.16240E+01 1.38785E+01 0.00000E+00
 -1      3581 1.12800E+02 3.52849E+01 0.00000E+00
 -1      3582 7.76249E+01 2.79563E+01 0.00000E+00
 -1      3583 2.08740E+01 1.51775E+01 0.00000E+00
 -1      3584 2.01240E+01 1.38785E+01 0.00000E+00
 -1      3585 1.86240E+01 1.38785E+01 0.00000E+00
 -1      3586 1.42800E+01 2.88077E+01 0.00000E+00
 -1      3587 1.42800E+01 3.02764E+01 0.00000E+00
 -1      3588 1.55700E+01 3.11654E+01 0.00000E+00
 -1      3589 1.34333E+02 1.94633E+01 0.00000E+00
 -1      3590 1.35632E+02 1.87258E+01 0.00000E+00
 -1      3591 1.35552E+02 1.75891E+01 0.00000E+00
 -1      3592 3.51240E+01 1.38785E+01 0.00000E+00
 -1      3593 3.36240E+01 1.38785E+01 0.00000E+00
 -1      3594 3.28740E+01 1.51775E+01 0.00000E+00
 -1      3595 3.58740E+01 1.51775E+01 0.00000E+00
 -1      3596 1.29900E+01 2.64469E+01 0.00000E+00
 -1      3597 9.89781E+01 2.37531E+01 0.00000E+00
 -1      3598 1.00254E+02 2.31887E+01 0.00000E+00
 -1      3599 9.84142E+01 2.30449E+01 0.00000E+00
 -1      3600 1.29900E+01 1.76125E+01 0.00000E+00
 -1      3601 8.40411E+01 2.08932E+01 0.00000E+00
 -1      3602 1.42890E+01 1.98250E+01 0.00000E+00
 -1      3603 1.42890E+01 2.12938E+01 0.00000E+00
 -1      3604 1.55880E+01 2.20313E+01 0.00000E+00
 -1      3605 1.69521E+01 3.20090E+01 0.00000E+00
 -1      3606 1.82421E+01 3.28979E+01 0.00000E+00
 -1      3607 2.49000E+01 3.31130E+01 0.00000E+00
 -1      3608 2.64000E+01 3.31130E+01 0.00000E+00
 -1      3609 2.79000E+01 3.31130E+01 0.00000E+00
 -1      3610 2.94000E+01 3.31130E+01 0.00000E+00
 -1      3611 2.71500E+01 3.18140E+01 0.00000E+00
 -1      3612 3.09000E+01 3.31130E+01 0.00000E+00
 -1      3613 3.24000E+01 3.31130E+01 0.00000E+00
 -1      3614 3.01500E+01 3.18140E+01 0.00000E+00
 -1      3615 3.39000E+01 3.31130E+01 0.00000E+00
 -1      3616 3.54000E+01 3.31130E+01 0.00000E+00
 -1      3617 3.31500E+01 3.18140E+01 0.00000E+00
 -1      3618 3.69000E+01 3.31130E+01 0.00000E+00
 -1      3619 3.84000E+01 3.31130E+01 0.00000E+00
 -1      3620 3.61500E+01 3.18140E+01 0.00000E+00
 -1      3621 3.99000E+01 3.31130E+01 0.00000E+00
 -1      3622 4.14000E+01 3.31130E+01 0.00000E+00
 -1      3623 3.91500E+01 3.18140E+01 0.00000E+00
 -1      3624 4.29750E+01 3.31130E+01 0.00000E+00
 -1      3625 4.45500E+01 3.31130E+01 0.00000E+00
 -1      3626 4.22250E+01 3.18140E+01 0.00000E+00
 -1      3627 4.60500E+01 3.31130E+01 0.00000E+00
 -1      3628 4.75500E+01 3.31130E+01 0.00000E+00
 -1      3629 4.53000E+01 3.18140E+01 0.00000E+00
 -1      3630 4.90500E+01 3.31130E+01 0.00000E+00
 -1      3631 5.05500E+01 3.31130E+01 0.00000E+00
 -1      3632 4.83000E+01 3.18140E+01 0.00000E+00
 -1      3633 5.20500E+01 3.31130E+01 0.00000E+00
 -1      3634 5.35500E+01 3.31130E+01 0.00000E+00
 -1      3635 5.13000E+01 3.18140E+01 0.00000E+00
 -1      3636 5.50500E+01 3.31130E+01 0.00000E+00
 -1      3637 5.65500E+01 3.31130E+01 0.00000E+00
 -1      3638 5.43000E+01 3.18140E+01 0.00000E+00
 -1      3639 5.80500E+01 3.31130E+01 0.00000E+00
 -1      3640 5.95500E+01 3.31130E+01 0.00000E+00
 -1      3641 5.73000E+01 3.18140E+01 0.00000E+00
 -1      3642 6.10500E+01 3.31130E+01 0.00000E+00
 -1      3643 6.25500E+01 3.31130E+01 0.00000E+00
 -1      3644 6.03000E+01 3.18140E+01 0.00000E+00
 -1      3645 6.40500E+01 3.31130E+01 0.00000E+00
 -1      3646 6.55500E+01 3.31130E+01 0.00000E+00
 -1      3647 6.33000E+01 3.18140E+01 0.00000E+00
 -1      3648 6.70500E+01 3.31130E+01 0.00000E+00
 -1      3649 6.85500E+01 3.31130E+01 0.00000E+00
 -1      3650 6.63000E+01 3.18140E+01 0.00000E+00
 -1      3651 9.54817E+01 2.15528E+01 0.00000E+00
 -1      3652 9.69137E+01 2.22611E+01 0.00000E+00
 -1      3653 2.61240E+01 1.38785E+01 0.00000E+00
 -1      3654 2.46240E+01 1.38785E+01 0.00000E+00
 -1      3655 2.38740E+01 1.51775E+01 0.00000E+00
 -1      3656 2.68740E+01 1.51775E+01 0.00000E+00
 -1      3657 1.21050E+02 3.39634E+01 0.00000E+00
 -1      3658 1.22550E+02 3.39634E+01 0.00000E+00
 -1      3659 1.24050E+02 3.39634E+01 0.00000E+00
 -1      3660 1.25550E+02 3.39634E+01 0.00000E+00
 -1      3661 1.23300E+02 3.26644E+01 0.00000E+00
 -1      3662 1.27050E+02 3.39634E+01 0.00000E+00
 -1      3663 1.28550E+02 3.39634E+01 0.00000E+00
 -1      3664 1.26300E+02 3.26644E+01 0.00000E+00
 -1      3665 1.30050E+02 3.39634E+01 0.00000E+00
 -1      3666 1.31550E+02 3.39634E+01 0.00000E+00
 -1      3667 1.29300E+02 3.26644E+01 0.00000E+00
 -1      3668 1.32483E+02 3.37934E+01 0.00000E+00
 -1      3669 1.33661E+02 3.34340E+01 0.00000E+00
 -1      3670 1.33600E+02 3.21544E+01 0.00000E+00
 -1      3671 1.31733E+02 3.24944E+01 0.00000E+00
 -1      3672 4.26240E+01 1.64765E+01 0.00000E+00
 -1      3673 4.11240E+01 1.64765E+01 0.00000E+00
 -1      3674 5.46240E+01 1.64765E+01 0.00000E+00
 -1      3675 5.31240E+01 1.64765E+01 0.00000E+00
 -1      3676 5.16240E+01 1.64765E+01 0.00000E+00
 -1      3677 5.01240E+01 1.64765E+01 0.00000E+00
 -1      3678 5.23740E+01 1.77755E+01 0.00000E+00
 -1      3679 6.06240E+01 1.64765E+01 0.00000E+00
 -1      3680 5.91240E+01 1.64765E+01 0.00000E+00
 -1      3681 6.36240E+01 1.64765E+01 0.00000E+00
 -1      3682 6.21240E+01 1.64765E+01 0.00000E+00
 -1      3683 6.13740E+01 1.77755E+01 0.00000E+00
 -1      3684 6.66240E+01 1.64765E+01 0.00000E+00
 -1      3685 6.51240E+01 1.64765E+01 0.00000E+00
 -1      3686 6.43740E+01 1.77755E+01 0.00000E+00
 -1      3687 6.96240E+01 1.64765E+01 0.00000E+00
 -1      3688 6.81240E+01 1.64765E+01 0.00000E+00
 -1      3689 6.73740E+01 1.77755E+01 0.00000E+00
 -1      3690 7.26240E+01 1.64765E+01 0.00000E+00
 -1      3691 7.11240E+01 1.64765E+01 0.00000E+00
 -1      3692 7.03740E+01 1.77755E+01 0.00000E+00
 -1      3693 7.56240E+01 1.64765E+01 0.00000E+00
 -1      3694 7.41240E+01 1.64765E+01 0.00000E+00
 -1      3695 7.33740E+01 1.77755E+01 0.00000E+00
 -1      3696 7.86240E+01 1.64765E+01 0.00000E+00
 -1      3697 7.71240E+01 1.64765E+01 0.00000E+00
 -1      3698 7.63740E+01 1.77755E+01 0.00000E+00
 -1      3699 8.16240E+01 1.64765E+01 0.00000E+00
 -1      3700 8.01240E+01 1.64765E+01 0.00000E+00
 -1      3701 7.93740E+01 1.77755E+01 0.00000E+00
 -1      3702 8.51574E+01 1.75480E+01 0.00000E+00
 -1      3703 8.36574E+01 1.75480E+01 0.00000E+00
 -1      3704 9.06240E+01 1.64765E+01 0.00000E+00
 -1      3705 8.91240E+01 1.64765E+01 0.00000E+00
 -1      3706 9.36240E+01 1.64765E+01 0.00000E+00
 -1      3707 9.21240E+01 1.64765E+01 0.00000E+00
 -1      3708 9.13740E+01 1.77755E+01 0.00000E+00
 -1      3709 9.66240E+01 1.64765E+01 0.00000E+00
 -1      3710 9.51240E+01 1.64765E+01 0.00000E+00
 -1      3711 9.43740E+01 1.77755E+01 0.00000E+00
 -1      3712 9.96240E+01 1.64765E+01 0.00000E+00
 -1      3713 9.81240E+01 1.64765E+01 0.00000E+00
 -1      3714 9.73740E+01 1.77755E+01 0.00000E+00
 -1      3715 1.02624E+02 1.64765E+01 0.00000E+00
 -1      3716 1.01124E+02 1.64765E+01 0.00000E+00
 -1      3717 1.00374E+02 1.77755E+01 0.00000E+00
 -1      3718 1.05624E+02 1.64765E+01 0.00000E+00
 -1      3719 1.04124E+02 1.64765E+01 0.00000E+00
 -1      3720 1.03374E+02 1.77755E+01 0.00000E+00
 -1      3721 1.08624E+02 1.64765E+01 0.00000E+00
 -1      3722 1.07124E+02 1.64765E+01 0.00000E+00
 -1      3723 1.06374E+02 1.77755E+01 0.00000E+00
 -1      3724 1.11624E+02 1.64765E+01 0.00000E+00
 -1      3725 1.10124E+02 1.64765E+01 0.00000E+00
 -1      3726 1.09374E+02 1.77755E+01 0.00000E+00
 -1      3727 1.14624E+02 1.64765E+01 0.00000E+00
 -1      3728 1.13124E+02 1.64765E+01 0.00000E+00
 -1      3729 1.12374E+02 1.77755E+01 0.00000E+00
 -1      3730 1.17624E+02 1.64765E+01 0.00000E+00
 -1      3731 1.16124E+02 1.64765E+01 0.00000E+00
 -1      3732 1.15374E+02 1.77755E+01 0.00000E+00
 -1      3733 1.20624E+02 1.64765E+01 0.00000E+00
 -1      3734 1.19124E+02 1.64765E+01 0.00000E+00
 -1      3735 1.18374E+02 1.77755E+01 0.00000E+00
 -1      3736 1.23624E+02 1.64765E+01 0.00000E+00
 -1      3737 1.22124E+02 1.64765E+01 0.00000E+00
 -1      3738 1.21374E+02 1.77755E+01 0.00000E+00
 -1      3739 1.26624E+02 1.64765E+01 0.00000E+00
 -1      3740 1.25124E+02 1.64765E+01 0.00000E+00
 -1      3741 1.24374E+02 1.77755E+01 0.00000E+00
 -1      3742 1.29624E+02 1.64765E+01 0.00000E+00
 -1      3743 1.28124E+02 1.64765E+01 0.00000E+00
 -1      3744 1.27374E+02 1.77755E+01 0.00000E+00
 -1      3745 7.01848E+01 3.32529E+01 0.00000E+00
 -1      3746 7.14885E+01 3.34905E+01 0.00000E+00
 -1      3747 1.12031E+02 3.39973E+01 0.00000E+00
 -1      3748 1.13531E+02 3.39748E+01 0.00000E+00
 -1      3749 1.08859E+02 3.41690E+01 0.00000E+00
 -1      3750 1.10519E+02 3.40828E+01 0.00000E+00
 -1      3751 1.11249E+02 3.27727E+01 0.00000E+00
 -1      3752 1.08226E+02 3.29437E+01 0.00000E+00
 -1      3753 5.76240E+01 1.64765E+01 0.00000E+00
 -1      3754 5.61240E+01 1.64765E+01 0.00000E+00
 -1      3755 5.53740E+01 1.77755E+01 0.00000E+00
 -1      3756 7.24544E+01 3.27967E+01 0.00000E+00
 -1      3757 7.62029E+01 2.83981E+01 0.00000E+00
 -1      3758 7.65059E+01 2.69738E+01 0.00000E+00
 -1      3759 1.55880E+01 2.49719E+01 0.00000E+00
 -1      3760 1.42890E+01 2.57094E+01 0.00000E+00
 -1      3761 1.42890E+01 2.71812E+01 0.00000E+00
 -1      3762 1.15031E+02 3.39748E+01 0.00000E+00
 -1      3763 1.16531E+02 3.39748E+01 0.00000E+00
 -1      3764 1.14261E+02 3.26872E+01 0.00000E+00
 -1      3765 1.18050E+02 3.39634E+01 0.00000E+00
 -1      3766 1.19550E+02 3.39634E+01 0.00000E+00
 -1      3767 1.20300E+02 3.26644E+01 0.00000E+00
 -1      3768 1.97421E+01 3.28979E+01 0.00000E+00
 -1      3769 1.33113E+02 2.86875E+01 0.00000E+00
 -1      3770 1.33113E+02 2.72125E+01 0.00000E+00
 -1      3771 1.32408E+02 1.55149E+01 0.00000E+00
 -1      3772 1.71241E+01 1.53473E+01 0.00000E+00
 -1      3773 8.01739E+01 2.12839E+01 0.00000E+00
 -1      3774 8.19382E+01 2.08341E+01 0.00000E+00
 -1      3775 7.36926E+01 3.23518E+01 0.00000E+00
 -1      3776 7.46994E+01 3.18785E+01 0.00000E+00
 -1      3777 7.45529E+01 3.07307E+01 0.00000E+00
 -1      3778 2.19000E+01 3.31130E+01 0.00000E+00
 -1      3779 2.34000E+01 3.31130E+01 0.00000E+00
 -1      3780 2.41500E+01 3.18140E+01 0.00000E+00
 -1      3781 8.28380E+01 1.98594E+01 0.00000E+00
 -1      3782 1.41105E+01 1.70886E+01 0.00000E+00
 -1      3783 1.41105E+01 1.85636E+01 0.00000E+00
 -1      3784 1.54095E+01 1.93011E+01 0.00000E+00
 -1      3785 1.50525E+01 1.67784E+01 0.00000E+00
 -1      3786 8.65597E+01 1.66495E+01 0.00000E+00
 -1      3787 8.63431E+01 1.90200E+01 0.00000E+00
 -1      3788 8.74311E+01 1.95935E+01 0.00000E+00
 -1      3789 8.80597E+01 1.66495E+01 0.00000E+00
 -1      3790 1.04560E+02 2.62521E+01 0.00000E+00
 -1      3791 1.05802E+02 2.68242E+01 0.00000E+00
 -1      3792 1.04648E+02 2.48594E+01 0.00000E+00
 -1      3793 1.34348E+02 1.70894E+01 0.00000E+00
 -1      3794 1.31814E+02 2.64813E+01 0.00000E+00
 -1      3795 1.33113E+02 2.57437E+01 0.00000E+00
 -1      3796 1.33113E+02 2.42750E+01 0.00000E+00
 -1      3797 6.94348E+01 3.19539E+01 0.00000E+00
 -1      3798 1.00989E+02 2.20255E+01 0.00000E+00
 -1      3799 1.01553E+02 2.27337E+01 0.00000E+00
 -1      3800 9.81899E+01 2.16968E+01 0.00000E+00
 -1      3801 1.02846E+02 2.29289E+01 0.00000E+00
 -1      3802 2.46240E+01 1.64765E+01 0.00000E+00
 -1      3803 2.31240E+01 1.64765E+01 0.00000E+00
 -1      3804 8.83241E+01 1.89883E+01 0.00000E+00
 -1      3805 1.68870E+01 2.12969E+01 0.00000E+00
 -1      3806 1.68870E+01 2.27656E+01 0.00000E+00
 -1      3807 4.03740E+01 1.77755E+01 0.00000E+00
 -1      3808 3.96240E+01 1.64765E+01 0.00000E+00
 -1      3809 3.81240E+01 1.64765E+01 0.00000E+00
 -1      3810 7.23078E+01 3.16489E+01 0.00000E+00
 -1      3811 5.83740E+01 1.77755E+01 0.00000E+00
 -1      3812 4.41240E+01 1.64765E+01 0.00000E+00
 -1      3813 4.33740E+01 1.77755E+01 0.00000E+00
 -1      3814 4.56240E+01 1.64765E+01 0.00000E+00
 -1      3815 3.06240E+01 1.64765E+01 0.00000E+00
 -1      3816 2.91240E+01 1.64765E+01 0.00000E+00
 -1      3817 1.33387E+02 3.10608E+01 0.00000E+00
 -1      3818 1.33326E+02 2.97811E+01 0.00000E+00
 -1      3819 1.32027E+02 2.90436E+01 0.00000E+00
 -1      3820 1.32454E+02 3.12308E+01 0.00000E+00
 -1      3821 4.93740E+01 1.77755E+01 0.00000E+00
 -1      3822 4.86240E+01 1.64765E+01 0.00000E+00
 -1      3823 4.71240E+01 1.64765E+01 0.00000E+00
 -1      3824 8.29074E+01 1.88470E+01 0.00000E+00
 -1      3825 8.88097E+01 1.79485E+01 0.00000E+00
 -1      3826 7.51814E+01 2.58962E+01 0.00000E+00
 -1      3827 7.66035E+01 2.54543E+01 0.00000E+00
 -1      3828 7.67010E+01 2.39349E+01 0.00000E+00
 -1      3829 1.32314E+02 1.67521E+01 0.00000E+00
 -1      3830 1.31564E+02 1.80511E+01 0.00000E+00
 -1      3831 2.23740E+01 1.77755E+01 0.00000E+00
 -1      3832 2.16240E+01 1.64765E+01 0.00000E+00
 -1      3833 2.01240E+01 1.64765E+01 0.00000E+00
 -1      3834 1.81860E+01 2.35031E+01 0.00000E+00
 -1      3835 1.68870E+01 2.42375E+01 0.00000E+00
 -1      3836 1.68870E+01 2.57094E+01 0.00000E+00
 -1      3837 2.04921E+01 3.15989E+01 0.00000E+00
 -1      3838 7.53218E+01 2.88365E+01 0.00000E+00
 -1      3839 1.55790E+01 2.80702E+01 0.00000E+00
 -1      3840 1.69521E+01 3.05402E+01 0.00000E+00
 -1      3841 7.79267E+01 2.21438E+01 0.00000E+00
 -1      3842 7.86715E+01 2.17811E+01 0.00000E+00
 -1      3843 1.33113E+02 2.28062E+01 0.00000E+00
 -1      3844 1.33113E+02 2.13375E+01 0.00000E+00
 -1      3845 1.31814E+02 2.35438E+01 0.00000E+00
 -1      3846 1.17281E+02 3.26758E+01 0.00000E+00
 -1      3847 7.92327E+01 2.02974E+01 0.00000E+00
 -1      3848 1.87133E+01 1.65426E+01 0.00000E+00
 -1      3849 1.64633E+01 1.67123E+01 0.00000E+00
 -1      3850 1.66418E+01 1.79737E+01 0.00000E+00
 -1      3851 1.94633E+01 1.78416E+01 0.00000E+00
 -1      3852 3.36240E+01 1.64765E+01 0.00000E+00
 -1      3853 3.21240E+01 1.64765E+01 0.00000E+00
 -1      3854 3.13740E+01 1.77755E+01 0.00000E+00
 -1      3855 1.06959E+02 3.04931E+01 0.00000E+00
 -1      3856 1.07592E+02 3.17184E+01 0.00000E+00
 -1      3857 1.09104E+02 3.16329E+01 0.00000E+00
 -1      3858 1.07093E+02 2.93122E+01 0.00000E+00
 -1      3859 9.99099E+01 2.10271E+01 0.00000E+00
 -1      3860 1.01208E+02 2.05721E+01 0.00000E+00
 -1      3861 9.84093E+01 2.02434E+01 0.00000E+00
 -1      3862 9.06291E+01 2.04165E+01 0.00000E+00
 -1      3863 9.16268E+01 1.98386E+01 0.00000E+00
 -1      3864 2.94000E+01 3.05150E+01 0.00000E+00
 -1      3865 3.09000E+01 3.05150E+01 0.00000E+00
 -1      3866 3.24000E+01 3.05150E+01 0.00000E+00
 -1      3867 3.39000E+01 3.05150E+01 0.00000E+00
 -1      3868 3.16500E+01 2.92160E+01 0.00000E+00
 -1      3869 3.54000E+01 3.05150E+01 0.00000E+00
 -1      3870 3.69000E+01 3.05150E+01 0.00000E+00
 -1      3871 3.46500E+01 2.92160E+01 0.00000E+00
 -1      3872 3.84000E+01 3.05150E+01 0.00000E+00
 -1      3873 3.99000E+01 3.05150E+01 0.00000E+00
 -1      3874 3.76500E+01 2.92160E+01 0.00000E+00
 -1      3875 4.14750E+01 3.05150E+01 0.00000E+00
 -1      3876 4.30500E+01 3.05150E+01 0.00000E+00
 -1      3877 4.07250E+01 2.92160E+01 0.00000E+00
 -1      3878 4.45500E+01 3.05150E+01 0.00000E+00
 -1      3879 4.60500E+01 3.05150E+01 0.00000E+00
 -1      3880 4.38000E+01 2.92160E+01 0.00000E+00
 -1      3881 4.75500E+01 3.05150E+01 0.00000E+00
 -1      3882 4.90500E+01 3.05150E+01 0.00000E+00
 -1      3883 4.68000E+01 2.92160E+01 0.00000E+00
 -1      3884 5.05500E+01 3.05150E+01 0.00000E+00
 -1      3885 5.20500E+01 3.05150E+01 0.00000E+00
 -1      3886 4.98000E+01 2.92160E+01 0.00000E+00
 -1      3887 5.35500E+01 3.05150E+01 0.00000E+00
 -1      3888 5.50500E+01 3.05150E+01 0.00000E+00
 -1      3889 5.28000E+01 2.92160E+01 0.00000E+00
 -1      3890 5.65500E+01 3.05150E+01 0.00000E+00
 -1      3891 5.80500E+01 3.05150E+01 0.00000E+00
 -1      3892 5.58000E+01 2.92160E+01 0.00000E+00
 -1      3893 5.95500E+01 3.05150E+01 0.00000E+00
 -1      3894 6.10500E+01 3.05150E+01 0.00000E+00
 -1      3895 5.88000E+01 2.92160E+01 0.00000E+00
 -1      3896 6.25500E+01 3.05150E+01 0.00000E+00
 -1      3897 6.40500E+01 3.05150E+01 0.00000E+00
 -1      3898 6.18000E+01 2.92160E+01 0.00000E+00
 -1      3899 6.55500E+01 3.05150E+01 0.00000E+00
 -1      3900 6.70500E+01 3.05150E+01 0.00000E+00
 -1      3901 6.48000E+01 2.92160E+01 0.00000E+00
 -1      3902 9.43196E+01 2.08187E+01 0.00000E+00
 -1      3903 9.55272E+01 2.01790E+01 0.00000E+00
 -1      3904 2.34000E+01 3.05150E+01 0.00000E+00
 -1      3905 2.49000E+01 3.05150E+01 0.00000E+00
 -1      3906 8.93884E+01 1.88153E+01 0.00000E+00
 -1      3907 1.03768E+02 2.17551E+01 0.00000E+00
 -1      3908 1.04327E+02 2.31135E+01 0.00000E+00
 -1      3909 1.22550E+02 3.13654E+01 0.00000E+00
 -1      3910 1.24050E+02 3.13654E+01 0.00000E+00
 -1      3911 5.61240E+01 1.90745E+01 0.00000E+00
 -1      3912 5.46240E+01 1.90745E+01 0.00000E+00
 -1      3913 1.25550E+02 3.13654E+01 0.00000E+00
 -1      3914 1.27050E+02 3.13654E+01 0.00000E+00
 -1      3915 1.24800E+02 3.00664E+01 0.00000E+00
 -1      3916 1.16511E+02 3.13826E+01 0.00000E+00
 -1      3917 1.18031E+02 3.13711E+01 0.00000E+00
 -1      3918 7.12495E+01 3.06488E+01 0.00000E+00
 -1      3919 7.24878E+01 3.02039E+01 0.00000E+00
 -1      3920 1.07212E+02 2.77477E+01 0.00000E+00
 -1      3921 1.08590E+02 2.88430E+01 0.00000E+00
 -1      3922 6.51240E+01 1.90745E+01 0.00000E+00
 -1      3923 6.36240E+01 1.90745E+01 0.00000E+00
 -1      3924 6.21240E+01 1.90745E+01 0.00000E+00
 -1      3925 6.06240E+01 1.90745E+01 0.00000E+00
 -1      3926 6.28740E+01 2.03735E+01 0.00000E+00
 -1      3927 7.11240E+01 1.90745E+01 0.00000E+00
 -1      3928 6.96240E+01 1.90745E+01 0.00000E+00
 -1      3929 7.41240E+01 1.90745E+01 0.00000E+00
 -1      3930 7.26240E+01 1.90745E+01 0.00000E+00
 -1      3931 7.18740E+01 2.03735E+01 0.00000E+00
 -1      3932 8.08046E+01 1.87879E+01 0.00000E+00
 -1      3933 7.93046E+01 1.87879E+01 0.00000E+00
 -1      3934 1.01002E+02 1.86746E+01 0.00000E+00
 -1      3935 9.95016E+01 1.86746E+01 0.00000E+00
 -1      3936 1.07124E+02 1.90745E+01 0.00000E+00
 -1      3937 1.05624E+02 1.90745E+01 0.00000E+00
 -1      3938 1.10124E+02 1.90745E+01 0.00000E+00
 -1      3939 1.08624E+02 1.90745E+01 0.00000E+00
 -1      3940 1.07874E+02 2.03735E+01 0.00000E+00
 -1      3941 1.13124E+02 1.90745E+01 0.00000E+00
 -1      3942 1.11624E+02 1.90745E+01 0.00000E+00
 -1      3943 1.10874E+02 2.03735E+01 0.00000E+00
 -1      3944 1.16124E+02 1.90745E+01 0.00000E+00
 -1      3945 1.14624E+02 1.90745E+01 0.00000E+00
 -1      3946 1.13874E+02 2.03735E+01 0.00000E+00
 -1      3947 1.19124E+02 1.90745E+01 0.00000E+00
 -1      3948 1.17624E+02 1.90745E+01 0.00000E+00
 -1      3949 1.16874E+02 2.03735E+01 0.00000E+00
 -1      3950 1.22124E+02 1.90745E+01 0.00000E+00
 -1      3951 1.20624E+02 1.90745E+01 0.00000E+00
 -1      3952 1.19874E+02 2.03735E+01 0.00000E+00
 -1      3953 1.25124E+02 1.90745E+01 0.00000E+00
 -1      3954 1.23624E+02 1.90745E+01 0.00000E+00
 -1      3955 1.22874E+02 2.03735E+01 0.00000E+00
 -1      3956 1.28124E+02 1.90745E+01 0.00000E+00
 -1      3957 1.26624E+02 1.90745E+01 0.00000E+00
 -1      3958 1.25874E+02 2.03735E+01 0.00000E+00
 -1      3959 1.19550E+02 3.13654E+01 0.00000E+00
 -1      3960 1.21050E+02 3.13654E+01 0.00000E+00
 -1      3961 1.21800E+02 3.00664E+01 0.00000E+00
 -1      3962 1.95420E+01 3.01988E+01 0.00000E+00
 -1      3963 2.16999E+01 3.04139E+01 0.00000E+00
 -1      3964 7.65046E+01 2.25856E+01 0.00000E+00
 -1      3965 1.31822E+02 2.05766E+01 0.00000E+00
 -1      3966 1.33121E+02 1.98391E+01 0.00000E+00
 -1      3967 1.68694E+01 2.87127E+01 0.00000E+00
 -1      3968 1.82515E+01 2.95563E+01 0.00000E+00
 -1      3969 1.94593E+01 2.83712E+01 0.00000E+00
 -1      3970 1.68784E+01 2.70862E+01 0.00000E+00
 -1      3971 1.13511E+02 3.13826E+01 0.00000E+00
 -1      3972 1.15011E+02 3.13826E+01 0.00000E+00
 -1      3973 1.15761E+02 3.00779E+01 0.00000E+00
 -1      3974 1.68203E+01 1.92351E+01 0.00000E+00
 -1      3975 1.33042E+02 1.87024E+01 0.00000E+00
 -1      3976 5.91240E+01 1.90745E+01 0.00000E+00
 -1      3977 5.76240E+01 1.90745E+01 0.00000E+00
 -1      3978 5.98740E+01 2.03735E+01 0.00000E+00
 -1      3979 3.66240E+01 1.64765E+01 0.00000E+00
 -1      3980 3.51240E+01 1.64765E+01 0.00000E+00
 -1      3981 3.73740E+01 1.77755E+01 0.00000E+00
 -1      3982 7.78021E+01 1.92850E+01 0.00000E+00
 -1      3983 6.81240E+01 1.90745E+01 0.00000E+00
 -1      3984 6.66240E+01 1.90745E+01 0.00000E+00
 -1      3985 6.88740E+01 2.03735E+01 0.00000E+00
 -1      3986 8.97165E+01 1.94753E+01 0.00000E+00
 -1      3987 2.76240E+01 1.64765E+01 0.00000E+00
 -1      3988 2.61240E+01 1.64765E+01 0.00000E+00
 -1      3989 2.53740E+01 1.77755E+01 0.00000E+00
 -1      3990 7.34014E+01 2.97569E+01 0.00000E+00
 -1      3991 7.44082E+01 2.92835E+01 0.00000E+00
 -1      3992 7.41702E+01 2.78627E+01 0.00000E+00
 -1      3993 7.23430E+01 2.87568E+01 0.00000E+00
 -1      3994 9.35442E+01 2.00133E+01 0.00000E+00
 -1      3995 2.64000E+01 3.05150E+01 0.00000E+00
 -1      3996 2.79000E+01 3.05150E+01 0.00000E+00
 -1      3997 2.56500E+01 2.92160E+01 0.00000E+00
 -1      3998 9.51195E+01 1.86102E+01 0.00000E+00
 -1      3999 9.36195E+01 1.86102E+01 0.00000E+00
 -1      4000 6.83324E+01 3.05120E+01 0.00000E+00
 -1      4001 6.99671E+01 3.06518E+01 0.00000E+00
 -1      4002 7.01471E+01 2.92069E+01 0.00000E+00
 -1      4003 6.75824E+01 2.92130E+01 0.00000E+00
 -1      4004 5.31240E+01 1.90745E+01 0.00000E+00
 -1      4005 5.16240E+01 1.90745E+01 0.00000E+00
 -1      4006 5.38740E+01 2.03735E+01 0.00000E+00
 -1      4007 9.62817E+01 1.93442E+01 0.00000E+00
 -1      4008 9.27987E+01 1.91786E+01 0.00000E+00
 -1      4009 7.63021E+01 1.92850E+01 0.00000E+00
 -1      4010 7.55521E+01 2.05840E+01 0.00000E+00
 -1      4011 1.30515E+02 2.72156E+01 0.00000E+00
 -1      4012 1.30515E+02 2.57469E+01 0.00000E+00
 -1      4013 9.77817E+01 1.93442E+01 0.00000E+00
 -1      4014 2.61240E+01 1.90745E+01 0.00000E+00
 -1      4015 2.46240E+01 1.90745E+01 0.00000E+00
 -1      4016 5.08740E+01 2.03735E+01 0.00000E+00
 -1      4017 5.01240E+01 1.90745E+01 0.00000E+00
 -1      4018 4.86240E+01 1.90745E+01 0.00000E+00
 -1      4019 4.11240E+01 1.90745E+01 0.00000E+00
 -1      4020 3.96240E+01 1.90745E+01 0.00000E+00
 -1      4021 2.86500E+01 2.92160E+01 0.00000E+00
 -1      4022 7.33542E+01 2.67903E+01 0.00000E+00
 -1      4023 7.42678E+01 2.63432E+01 0.00000E+00
 -1      4024 7.43653E+01 2.48237E+01 0.00000E+00
 -1      4025 9.02021E+01 1.84355E+01 0.00000E+00
 -1      4026 1.81193E+01 1.99694E+01 0.00000E+00
 -1      4027 1.18781E+02 3.00721E+01 0.00000E+00
 -1      4028 1.28550E+02 3.13654E+01 0.00000E+00
 -1      4029 1.30050E+02 3.13654E+01 0.00000E+00
 -1      4030 1.31520E+02 3.14008E+01 0.00000E+00
 -1      4031 4.63740E+01 1.77755E+01 0.00000E+00
 -1      4032 1.09603E+02 3.01952E+01 0.00000E+00
 -1      4033 1.10236E+02 3.14205E+01 0.00000E+00
 -1      4034 1.11748E+02 3.13350E+01 0.00000E+00
 -1      4035 1.09722E+02 2.86306E+01 0.00000E+00
 -1      4036 1.30770E+02 3.01018E+01 0.00000E+00
 -1      4037 1.30557E+02 2.90082E+01 0.00000E+00
 -1      4038 1.29258E+02 2.82738E+01 0.00000E+00
 -1      4039 1.02727E+02 1.87242E+01 0.00000E+00
 -1      4040 1.01855E+02 1.96234E+01 0.00000E+00
 -1      4041 1.02934E+02 2.06217E+01 0.00000E+00
 -1      4042 1.04227E+02 1.87242E+01 0.00000E+00
 -1      4043 1.04414E+02 2.08064E+01 0.00000E+00
 -1      4044 1.95300E+01 1.99034E+01 0.00000E+00
 -1      4045 1.95968E+01 2.19652E+01 0.00000E+00
 -1      4046 2.09408E+01 1.98373E+01 0.00000E+00
 -1      4047 3.43740E+01 1.77755E+01 0.00000E+00
 -1      4048 6.58740E+01 2.03735E+01 0.00000E+00
 -1      4049 2.24499E+01 2.91149E+01 0.00000E+00
 -1      4050 7.43265E+01 2.23751E+01 0.00000E+00
 -1      4051 2.24408E+01 1.98373E+01 0.00000E+00
 -1      4052 1.05569E+02 2.36856E+01 0.00000E+00
 -1      4053 4.26240E+01 1.90745E+01 0.00000E+00
 -1      4054 4.18740E+01 2.03735E+01 0.00000E+00
 -1      4055 4.41240E+01 1.90745E+01 0.00000E+00
 -1      4056 2.10075E+01 2.33710E+01 0.00000E+00
 -1      4057 1.95968E+01 2.34371E+01 0.00000E+00
 -1      4058 1.95968E+01 2.49089E+01 0.00000E+00
 -1      4059 1.04977E+02 2.00232E+01 0.00000E+00
 -1      4060 9.17021E+01 1.84355E+01 0.00000E+00
 -1      4061 1.07299E+02 2.63549E+01 0.00000E+00
 -1      4062 3.21240E+01 1.90745E+01 0.00000E+00
 -1      4063 3.06240E+01 1.90745E+01 0.00000E+00
 -1      4064 2.83740E+01 1.77755E+01 0.00000E+00
 -1      4065 1.81774E+01 2.63519E+01 0.00000E+00
 -1      4066 2.31908E+01 2.11363E+01 0.00000E+00
 -1      4067 1.30515E+02 2.42781E+01 0.00000E+00
 -1      4068 1.30515E+02 2.28094E+01 0.00000E+00
 -1      4069 1.29216E+02 2.50125E+01 0.00000E+00
 -1      4070 1.30519E+02 2.13187E+01 0.00000E+00
 -1      4071 1.30527E+02 1.98204E+01 0.00000E+00
 -1      4072 1.27800E+02 3.00664E+01 0.00000E+00
 -1      4073 1.12498E+02 3.00304E+01 0.00000E+00
 -1      4074 5.68740E+01 2.03735E+01 0.00000E+00
 -1      4075 1.29220E+02 2.20531E+01 0.00000E+00
 -1      4076 2.91240E+01 1.90745E+01 0.00000E+00
 -1      4077 2.76240E+01 1.90745E+01 0.00000E+00
 -1      4078 2.68740E+01 2.03735E+01 0.00000E+00
 -1      4079 2.98740E+01 2.03735E+01 0.00000E+00
 -1      4080 1.14624E+02 2.16725E+01 0.00000E+00
 -1      4081 1.13124E+02 2.16725E+01 0.00000E+00
 -1      4082 2.79000E+01 2.79170E+01 0.00000E+00
 -1      4083 2.94000E+01 2.79170E+01 0.00000E+00
 -1      4084 3.39000E+01 2.79170E+01 0.00000E+00
 -1      4085 3.54000E+01 2.79170E+01 0.00000E+00
 -1      4086 3.69000E+01 2.79170E+01 0.00000E+00
 -1      4087 3.84000E+01 2.79170E+01 0.00000E+00
 -1      4088 3.61500E+01 2.66180E+01 0.00000E+00
 -1      4089 3.99750E+01 2.79170E+01 0.00000E+00
 -1      4090 4.15500E+01 2.79170E+01 0.00000E+00
 -1      4091 3.92250E+01 2.66180E+01 0.00000E+00
 -1      4092 4.30500E+01 2.79170E+01 0.00000E+00
 -1      4093 4.45500E+01 2.79170E+01 0.00000E+00
 -1      4094 4.23000E+01 2.66180E+01 0.00000E+00
 -1      4095 4.60500E+01 2.79170E+01 0.00000E+00
 -1      4096 4.75500E+01 2.79170E+01 0.00000E+00
 -1      4097 4.53000E+01 2.66180E+01 0.00000E+00
 -1      4098 4.90500E+01 2.79170E+01 0.00000E+00
 -1      4099 5.05500E+01 2.79170E+01 0.00000E+00
 -1      4100 4.83000E+01 2.66180E+01 0.00000E+00
 -1      4101 5.20500E+01 2.79170E+01 0.00000E+00
 -1      4102 5.35500E+01 2.79170E+01 0.00000E+00
 -1      4103 5.13000E+01 2.66180E+01 0.00000E+00
 -1      4104 5.50500E+01 2.79170E+01 0.00000E+00
 -1      4105 5.65500E+01 2.79170E+01 0.00000E+00
 -1      4106 5.43000E+01 2.66180E+01 0.00000E+00
 -1      4107 5.80500E+01 2.79170E+01 0.00000E+00
 -1      4108 5.95500E+01 2.79170E+01 0.00000E+00
 -1      4109 5.73000E+01 2.66180E+01 0.00000E+00
 -1      4110 6.10500E+01 2.79170E+01 0.00000E+00
 -1      4111 6.25500E+01 2.79170E+01 0.00000E+00
 -1      4112 6.03000E+01 2.66180E+01 0.00000E+00
 -1      4113 6.40500E+01 2.79170E+01 0.00000E+00
 -1      4114 6.55500E+01 2.79170E+01 0.00000E+00
 -1      4115 6.33000E+01 2.66180E+01 0.00000E+00
 -1      4116 1.11652E+02 2.87081E+01 0.00000E+00
 -1      4117 1.13415E+02 2.87556E+01 0.00000E+00
 -1      4118 1.11624E+02 2.16725E+01 0.00000E+00
 -1      4119 1.10124E+02 2.16725E+01 0.00000E+00
 -1      4120 1.12374E+02 2.29715E+01 0.00000E+00
 -1      4121 1.18016E+02 2.87760E+01 0.00000E+00
 -1      4122 1.19535E+02 2.87703E+01 0.00000E+00
 -1      4123 4.71240E+01 1.90745E+01 0.00000E+00
 -1      4124 4.56240E+01 1.90745E+01 0.00000E+00
 -1      4125 4.78740E+01 2.03735E+01 0.00000E+00
 -1      4126 1.10639E+02 2.73559E+01 0.00000E+00
 -1      4127 1.27758E+02 2.82738E+01 0.00000E+00
 -1      4128 1.07306E+02 2.48066E+01 0.00000E+00
 -1      4129 1.08716E+02 2.57301E+01 0.00000E+00
 -1      4130 1.05811E+02 2.11566E+01 0.00000E+00
 -1      4131 1.08718E+02 2.14146E+01 0.00000E+00
 -1      4132 1.07218E+02 2.14146E+01 0.00000E+00
 -1      4133 1.06655E+02 2.21977E+01 0.00000E+00
 -1      4134 1.09468E+02 2.27136E+01 0.00000E+00
 -1      4135 1.17624E+02 2.16725E+01 0.00000E+00
 -1      4136 1.16124E+02 2.16725E+01 0.00000E+00
 -1      4137 1.15374E+02 2.29715E+01 0.00000E+00
 -1      4138 1.20624E+02 2.16725E+01 0.00000E+00
 -1      4139 1.19124E+02 2.16725E+01 0.00000E+00
 -1      4140 1.18374E+02 2.29715E+01 0.00000E+00
 -1      4141 1.23624E+02 2.16725E+01 0.00000E+00
 -1      4142 1.22124E+02 2.16725E+01 0.00000E+00
 -1      4143 1.21374E+02 2.29715E+01 0.00000E+00
 -1      4144 1.26624E+02 2.16725E+01 0.00000E+00
 -1      4145 1.25124E+02 2.16725E+01 0.00000E+00
 -1      4146 1.24374E+02 2.29715E+01 0.00000E+00
 -1      4147 1.29049E+02 1.91690E+01 0.00000E+00
 -1      4148 1.28299E+02 2.04680E+01 0.00000E+00
 -1      4149 6.36240E+01 2.16725E+01 0.00000E+00
 -1      4150 6.21240E+01 2.16725E+01 0.00000E+00
 -1      4151 2.16770E+01 2.77676E+01 0.00000E+00
 -1      4152 2.33771E+01 2.78687E+01 0.00000E+00
 -1      4153 1.24050E+02 2.87674E+01 0.00000E+00
 -1      4154 1.25550E+02 2.87674E+01 0.00000E+00
 -1      4155 2.47108E+01 2.19812E+01 0.00000E+00
 -1      4156 2.25276E+01 2.27440E+01 0.00000E+00
 -1      4157 1.27917E+02 2.57469E+01 0.00000E+00
 -1      4158 1.27917E+02 2.42781E+01 0.00000E+00
 -1      4159 5.46240E+01 2.16725E+01 0.00000E+00
 -1      4160 5.31240E+01 2.16725E+01 0.00000E+00
 -1      4161 2.03865E+01 2.71251E+01 0.00000E+00
 -1      4162 7.35959E+01 2.35994E+01 0.00000E+00
 -1      4163 7.26434E+01 2.15978E+01 0.00000E+00
 -1      4164 7.11434E+01 2.15978E+01 0.00000E+00
 -1      4165 7.26823E+01 2.40465E+01 0.00000E+00
 -1      4166 6.06240E+01 2.16725E+01 0.00000E+00
 -1      4167 5.91240E+01 2.16725E+01 0.00000E+00
 -1      4168 6.13740E+01 2.29715E+01 0.00000E+00
 -1      4169 3.88740E+01 2.03735E+01 0.00000E+00
 -1      4170 3.81240E+01 1.90745E+01 0.00000E+00
 -1      4171 3.66240E+01 1.90745E+01 0.00000E+00
 -1      4172 6.96434E+01 2.15978E+01 0.00000E+00
 -1      4173 6.81434E+01 2.15978E+01 0.00000E+00
 -1      4174 7.04129E+01 2.28222E+01 0.00000E+00
 -1      4175 3.51240E+01 1.90745E+01 0.00000E+00
 -1      4176 3.36240E+01 1.90745E+01 0.00000E+00
 -1      4177 3.28740E+01 2.03735E+01 0.00000E+00
 -1      4178 3.58740E+01 2.03735E+01 0.00000E+00
 -1      4179 1.95882E+01 2.62858E+01 0.00000E+00
 -1      4180 7.15270E+01 2.76844E+01 0.00000E+00
 -1      4181 7.24406E+01 2.72373E+01 0.00000E+00
 -1      4182 7.25381E+01 2.57179E+01 0.00000E+00
 -1      4183 3.09000E+01 2.79170E+01 0.00000E+00
 -1      4184 3.24000E+01 2.79170E+01 0.00000E+00
 -1      4185 3.01500E+01 2.66180E+01 0.00000E+00
 -1      4186 2.48885E+01 2.78929E+01 0.00000E+00
 -1      4187 2.63885E+01 2.78929E+01 0.00000E+00
 -1      4188 2.71385E+01 2.65939E+01 0.00000E+00
 -1      4189 2.41156E+01 2.65456E+01 0.00000E+00
 -1      4190 1.21050E+02 2.87674E+01 0.00000E+00
 -1      4191 1.22550E+02 2.87674E+01 0.00000E+00
 -1      4192 1.23300E+02 2.74684E+01 0.00000E+00
 -1      4193 6.66240E+01 2.16725E+01 0.00000E+00
 -1      4194 6.51240E+01 2.16725E+01 0.00000E+00
 -1      4195 6.43740E+01 2.29715E+01 0.00000E+00
 -1      4196 1.15016E+02 2.87760E+01 0.00000E+00
 -1      4197 1.16516E+02 2.87760E+01 0.00000E+00
 -1      4198 1.17271E+02 2.74742E+01 0.00000E+00
 -1      4199 5.76240E+01 2.16725E+01 0.00000E+00
 -1      4200 5.61240E+01 2.16725E+01 0.00000E+00
 -1      4201 5.53740E+01 2.29715E+01 0.00000E+00
 -1      4202 5.83740E+01 2.29715E+01 0.00000E+00
 -1      4203 1.10646E+02 2.58075E+01 0.00000E+00
 -1      4204 2.25276E+01 2.42159E+01 0.00000E+00
 -1      4205 6.60824E+01 2.66150E+01 0.00000E+00
 -1      4206 6.68324E+01 2.79140E+01 0.00000E+00
 -1      4207 6.81147E+01 2.79109E+01 0.00000E+00
 -1      4208 1.14169E+02 2.74537E+01 0.00000E+00
 -1      4209 1.27008E+02 2.69748E+01 0.00000E+00
 -1      4210 3.31500E+01 2.66180E+01 0.00000E+00
 -1      4211 5.16240E+01 2.16725E+01 0.00000E+00
 -1      4212 5.01240E+01 2.16725E+01 0.00000E+00
 -1      4213 5.23740E+01 2.29715E+01 0.00000E+00
 -1      4214 4.48740E+01 2.03735E+01 0.00000E+00
 -1      4215 4.26240E+01 2.16725E+01 0.00000E+00
 -1      4216 4.11240E+01 2.16725E+01 0.00000E+00
 -1      4217 3.36240E+01 2.16725E+01 0.00000E+00
 -1      4218 3.21240E+01 2.16725E+01 0.00000E+00
 -1      4219 1.06975E+02 2.39435E+01 0.00000E+00
 -1      4220 1.30352E+02 1.84269E+01 0.00000E+00
 -1      4221 3.06240E+01 2.16725E+01 0.00000E+00
 -1      4222 2.91240E+01 2.16725E+01 0.00000E+00
 -1      4223 3.13740E+01 2.29715E+01 0.00000E+00
 -1      4224 1.25709E+02 2.62405E+01 0.00000E+00
 -1      4225 1.28295E+02 2.19586E+01 0.00000E+00
 -1      4226 1.20285E+02 2.74713E+01 0.00000E+00
 -1      4227 4.03740E+01 2.29715E+01 0.00000E+00
 -1      4228 3.96240E+01 2.16725E+01 0.00000E+00
 -1      4229 3.81240E+01 2.16725E+01 0.00000E+00
 -1      4230 1.26246E+02 2.39920E+01 0.00000E+00
 -1      4231 1.27545E+02 2.32576E+01 0.00000E+00
 -1      4232 2.76674E+01 2.18269E+01 0.00000E+00
 -1      4233 2.61674E+01 2.18269E+01 0.00000E+00
 -1      4234 2.55043E+01 2.34346E+01 0.00000E+00
 -1      4235 2.84174E+01 2.31259E+01 0.00000E+00
 -1      4236 6.73934E+01 2.28968E+01 0.00000E+00
 -1      4237 7.02446E+01 2.76874E+01 0.00000E+00
 -1      4238 1.19124E+02 2.42705E+01 0.00000E+00
 -1      4239 1.17624E+02 2.42705E+01 0.00000E+00
 -1      4240 3.82620E+01 2.47948E+01 0.00000E+00
 -1      4241 3.98370E+01 2.47948E+01 0.00000E+00
 -1      4242 4.13370E+01 2.47948E+01 0.00000E+00
 -1      4243 4.28370E+01 2.47948E+01 0.00000E+00
 -1      4244 4.75500E+01 2.53190E+01 0.00000E+00
 -1      4245 4.90500E+01 2.53190E+01 0.00000E+00
 -1      4246 5.03370E+01 2.47948E+01 0.00000E+00
 -1      4247 5.18370E+01 2.47948E+01 0.00000E+00
 -1      4248 5.33370E+01 2.47948E+01 0.00000E+00
 -1      4249 5.48370E+01 2.47948E+01 0.00000E+00
 -1      4250 5.63370E+01 2.47948E+01 0.00000E+00
 -1      4251 5.78370E+01 2.47948E+01 0.00000E+00
 -1      4252 5.93370E+01 2.47948E+01 0.00000E+00
 -1      4253 6.08370E+01 2.47948E+01 0.00000E+00
 -1      4254 6.23370E+01 2.47948E+01 0.00000E+00
 -1      4255 6.38370E+01 2.47948E+01 0.00000E+00
 -1      4256 1.16322E+02 2.52228E+01 0.00000E+00
 -1      4257 1.14822E+02 2.52228E+01 0.00000E+00
 -1      4258 4.41240E+01 2.16725E+01 0.00000E+00
 -1      4259 4.33740E+01 2.29715E+01 0.00000E+00
 -1      4260 4.56240E+01 2.16725E+01 0.00000E+00
 -1      4261 1.24318E+02 2.63442E+01 0.00000E+00
 -1      4262 1.25228E+02 2.51162E+01 0.00000E+00
 -1      4263 1.24855E+02 2.40957E+01 0.00000E+00
 -1      4264 1.22818E+02 2.63442E+01 0.00000E+00
 -1      4265 6.53370E+01 2.47948E+01 0.00000E+00
 -1      4266 1.08392E+02 2.33187E+01 0.00000E+00
 -1      4267 1.09799E+02 2.35766E+01 0.00000E+00
 -1      4268 1.23355E+02 2.40957E+01 0.00000E+00
 -1      4269 2.18058E+01 2.56822E+01 0.00000E+00
 -1      4270 2.33259E+01 2.50552E+01 0.00000E+00
 -1      4271 6.66194E+01 2.47917E+01 0.00000E+00
 -1      4272 3.22620E+01 2.47948E+01 0.00000E+00
 -1      4273 3.37620E+01 2.47948E+01 0.00000E+00
 -1      4274 7.17687E+01 2.44935E+01 0.00000E+00
 -1      4275 4.88370E+01 2.21968E+01 0.00000E+00
 -1      4276 4.73370E+01 2.21968E+01 0.00000E+00
 -1      4277 2.48374E+01 2.50793E+01 0.00000E+00
 -1      4278 7.02687E+01 2.44935E+01 0.00000E+00
 -1      4279 3.66240E+01 2.16725E+01 0.00000E+00
 -1      4280 3.51240E+01 2.16725E+01 0.00000E+00
 -1      4281 3.43740E+01 2.29715E+01 0.00000E+00
 -1      4282 3.73740E+01 2.29715E+01 0.00000E+00
 -1      4283 2.92620E+01 2.47948E+01 0.00000E+00
 -1      4284 3.07620E+01 2.47948E+01 0.00000E+00
 -1      4285 1.13221E+02 2.52024E+01 0.00000E+00
 -1      4286 6.94946E+01 2.63884E+01 0.00000E+00
 -1      4287 3.52620E+01 2.47948E+01 0.00000E+00
 -1      4288 3.67620E+01 2.47948E+01 0.00000E+00
 -1      4289 6.81388E+01 2.47170E+01 0.00000E+00
 -1      4290 4.43370E+01 2.47948E+01 0.00000E+00
 -1      4291 2.62940E+01 2.49250E+01 0.00000E+00
 -1      4292 2.78054E+01 2.49491E+01 0.00000E+00
 -1      4293 4.95870E+01 2.34958E+01 0.00000E+00
 -1      4294 4.58370E+01 2.47948E+01 0.00000E+00
 -1      4295 1.22337E+02 2.52200E+01 0.00000E+00
 -1      4296 1.21855E+02 2.40957E+01 0.00000E+00
 -1      4297 1.20355E+02 2.40957E+01 0.00000E+00
 -1      4298 1.21318E+02 2.63442E+01 0.00000E+00
 -1      4299 4.65870E+01 2.34958E+01 0.00000E+00
 -1      4300 1.17072E+02 2.65218E+01 0.00000E+00
 -1      4301 1.18572E+02 2.65218E+01 0.00000E+00
 -1      4302 1.11721E+02 2.52024E+01 0.00000E+00
 -1      4303 1.19605E+02 2.53947E+01 0.00000E+00
 -1      4304 1.19804E+02 2.63471E+01 0.00000E+00
 -3
    3C                          2070                                     1
 -1       165    8    0    1
 -2         6         7        23      1118      1282      1135
 -1       166    8    0    1
 -2         7         8       165      1119      1283      1284
 -1       167    8    0    1
 -2         8         9       166      1120      1285      1286
 -1       168    8    0    1
 -2         8       166       165      1286      1287      1283
 -1       169    8    0    1
 -2         9        10       167      1121      1288      1289
 -1       170    8    0    1
 -2         9       167       166      1289      1290      1285
 -1       171    8    0    1
 -2        10        11       168      1122      1291      1292
 -1       172    8    0    1
 -2        10       168       167      1292      1293      1288
 -1       173    8    0    1
 -2        11        12       169      1123      1294      1295
 -1       174    8    0    1
 -2        11       169       168      1295      1296      1291
 -1       175    8    0    1
 -2        12        13       170      1124      1297      1298
 -1       176    8    0    1
 -2        12       170       169      1298      1299      1294
 -1       177    8    0    1
 -2        13        14       171      1125      1300      1301
 -1       178    8    0    1
 -2        13       171       170      1301      1302      1297
 -1       179    8    0    1
 -2        14        15       172      1126      1303      1304
 -1       180    8    0    1
 -2        14       172       171      1304      1305      1300
 -1       181    8    0    1
 -2        15        16       173      1127      1306      1307
 -1       182    8    0    1
 -2        15       173       172      1307      1308      1303
 -1       183    8    0    1
 -2        16        17       174      1128      1309      1310
 -1       184    8    0    1
 -2        16       174       173      1310      1311      1306
 -1       185    8    0    1
 -2        17        18       175      1129      1312      1313
 -1       186    8    0    1
 -2        17       175       174      1313      1314      1309
 -1       187    8    0    1
 -2        18        19       176      1130      1315      1316
 -1       188    8    0    1
 -2        18       176       175      1316      1317      1312
 -1       189    8    0    1
 -2        19        20       177      1131      1318      1319
 -1       190    8    0    1
 -2        19       177       176      1319      1320      1315
 -1       191    8    0    1
 -2        20        21       178      1132      1321      1322
 -1       192    8    0    1
 -2        20       178       177      1322      1323      1318
 -1       193    8    0    1
 -2        21        22       179      1133      1324      1325
 -1       194    8    0    1
 -2        21       179       178      1325      1326      1321
 -1       195    8    0    1
 -2        22         5       180      1134      1327      1328
 -1       196    8    0    1
 -2       179        22       180      1324      1328      1329
 -1       197    8    0    1
 -2         5        73       180      1186      1330      1327
 -1       198    8    0    1
 -2        24        23       181      1136      1331      1332
 -1       199    8    0    1
 -2        25        24       182      1137      1333      1334
 -1       200    8    0    1
 -2        24       181       182      1332      1335      1333
 -1       201    8    0    1
 -2        26        25       183      1138      1336      1337
 -1       202    8    0    1
 -2        25       182       183      1334      1338      1336
 -1       203    8    0    1
 -2        27        26       184      1139      1339      1340
 -1       204    8    0    1
 -2        26       183       184      1337      1341      1339
 -1       205    8    0    1
 -2        28        27       185      1140      1342      1343
 -1       206    8    0    1
 -2        27       184       185      1340      1344      1342
 -1       207    8    0    1
 -2        29        28       186      1141      1345      1346
 -1       208    8    0    1
 -2        28       185       186      1343      1347      1345
 -1       209    8    0    1
 -2        30        29       187      1142      1348      1349
 -1       210    8    0    1
 -2        29       186       187      1346      1350      1348
 -1       211    8    0    1
 -2        31        30       188      1143      1351      1352
 -1       212    8    0    1
 -2        30       187       188      1349      1353      1351
 -1       213    8    0    1
 -2        32        31       189      1144      1354      1355
 -1       214    8    0    1
 -2        31       188       189      1352      1356      1354
 -1       215    8    0    1
 -2        33        32       190      1145      1357      1358
 -1       216    8    0    1
 -2        32       189       190      1355      1359      1357
 -1       217    8    0    1
 -2        34        33       191      1146      1360      1361
 -1       218    8    0    1
 -2        33       190       191      1358      1362      1360
 -1       219    8    0    1
 -2        35        34       192      1147      1363      1364
 -1       220    8    0    1
 -2        34       191       192      1361      1365      1363
 -1       221    8    0    1
 -2        36        35       193      1148      1366      1367
 -1       222    8    0    1
 -2        35       192       193      1364      1368      1366
 -1       223    8    0    1
 -2        37        36       194      1149      1369      1370
 -1       224    8    0    1
 -2        36       193       194      1367      1371      1369
 -1       225    8    0    1
 -2        38        37       195      1150      1372      1373
 -1       226    8    0    1
 -2        37       194       195      1370      1374      1372
 -1       227    8    0    1
 -2        39        38       196      1151      1375      1376
 -1       228    8    0    1
 -2        38       195       196      1373      1377      1375
 -1       229    8    0    1
 -2        40        39       197      1152      1378      1379
 -1       230    8    0    1
 -2        39       196       197      1376      1380      1378
 -1       231    8    0    1
 -2        41        40       198      1153      1381      1382
 -1       232    8    0    1
 -2        40       197       198      1379      1383      1381
 -1       233    8    0    1
 -2        42        41       199      1154      1384      1385
 -1       234    8    0    1
 -2        41       198       199      1382      1386      1384
 -1       235    8    0    1
 -2        43        42       200      1155      1387      1388
 -1       236    8    0    1
 -2        42       199       200      1385      1389      1387
 -1       237    8    0    1
 -2        44        43       201      1156      1390      1391
 -1       238    8    0    1
 -2        43       200       201      1388      1392      1390
 -1       239    8    0    1
 -2        45        44       202      1157      1393      1394
 -1       240    8    0    1
 -2        44       201       202      1391      1395      1393
 -1       241    8    0    1
 -2        46        45       203      1158      1396      1397
 -1       242    8    0    1
 -2        45       202       203      1394      1398      1396
 -1       243    8    0    1
 -2        47        46       204      1159      1399      1400
 -1       244    8    0    1
 -2        46       203       204      1397      1401      1399
 -1       245    8    0    1
 -2        48        47       205      1160      1402      1403
 -1       246    8    0    1
 -2        47       204       205      1400      1404      1402
 -1       247    8    0    1
 -2        49        48       206      1161      1405      1406
 -1       248    8    0    1
 -2        48       205       206      1403      1407      1405
 -1       249    8    0    1
 -2        50        49       207      1162      1408      1409
 -1       250    8    0    1
 -2        49       206       207      1406      1410      1408
 -1       251    8    0    1
 -2        52        51       208      1164      1411      1412
 -1       252    8    0    1
 -2        53        52       209      1165      1413      1414
 -1       253    8    0    1
 -2        52       208       209      1412      1415      1413
 -1       254    8    0    1
 -2        54        53       210      1166      1416      1417
 -1       255    8    0    1
 -2        53       209       210      1414      1418      1416
 -1       256    8    0    1
 -2        55        54       211      1167      1419      1420
 -1       257    8    0    1
 -2        54       210       211      1417      1421      1419
 -1       258    8    0    1
 -2        56        55       212      1168      1422      1423
 -1       259    8    0    1
 -2        55       211       212      1420      1424      1422
 -1       260    8    0    1
 -2        57        56       213      1169      1425      1426
 -1       261    8    0    1
 -2        56       212       213      1423      1427      1425
 -1       262    8    0    1
 -2        58        57       214      1170      1428      1429
 -1       263    8    0    1
 -2        57       213       214      1426      1430      1428
 -1       264    8    0    1
 -2        59        58       215      1171      1431      1432
 -1       265    8    0    1
 -2        58       214       215      1429      1433      1431
 -1       266    8    0    1
 -2        60        59       216      1172      1434      1435
 -1       267    8    0    1
 -2        59       215       216      1432      1436      1434
 -1       268    8    0    1
 -2        61        60       217      1173      1437      1438
 -1       269    8    0    1
 -2        60       216       217      1435      1439      1437
 -1       270    8    0    1
 -2        62        61       218      1174      1440      1441
 -1       271    8    0    1
 -2        61       217       218      1438      1442      1440
 -1       272    8    0    1
 -2        63        62       219      1175      1443      1444
 -1       273    8    0    1
 -2        62       218       219      1441      1445      1443
 -1       274    8    0    1
 -2        64        63       220      1176      1446      1447
 -1       275    8    0    1
 -2        63       219       220      1444      1448      1446
 -1       276    8    0    1
 -2        65        64       221      1177      1449      1450
 -1       277    8    0    1
 -2        64       220       221      1447      1451      1449
 -1       278    8    0    1
 -2        66        65       222      1178      1452      1453
 -1       279    8    0    1
 -2        65       221       222      1450      1454      1452
 -1       280    8    0    1
 -2        67        66       223      1179      1455      1456
 -1       281    8    0    1
 -2        66       222       223      1453      1457      1455
 -1       282    8    0    1
 -2        68        67       224      1180      1458      1459
 -1       283    8    0    1
 -2        67       223       224      1456      1460      1458
 -1       284    8    0    1
 -2        69        68       225      1181      1461      1462
 -1       285    8    0    1
 -2        68       224       225      1459      1463      1461
 -1       286    8    0    1
 -2        70        69       226      1182      1464      1465
 -1       287    8    0    1
 -2        69       225       226      1462      1466      1464
 -1       288    8    0    1
 -2        71        70       227      1183      1467      1468
 -1       289    8    0    1
 -2        70       226       227      1465      1469      1467
 -1       290    8    0    1
 -2        72        71       228      1184      1470      1471
 -1       291    8    0    1
 -2        71       227       228      1468      1472      1470
 -1       292    8    0    1
 -2         4        72       229      1185      1473      1474
 -1       293    8    0    1
 -2       137         4       229      1252      1474      1475
 -1       294    8    0    1
 -2        72       228       229      1471      1476      1473
 -1       295    8    0    1
 -2        73        74       230      1187      1477      1478
 -1       296    8    0    1
 -2        73       230       180      1478      1479      1330
 -1       297    8    0    1
 -2        74        75       231      1188      1480      1481
 -1       298    8    0    1
 -2        74       231       230      1481      1482      1477
 -1       299    8    0    1
 -2        75        76       232      1189      1483      1484
 -1       300    8    0    1
 -2        75       232       231      1484      1485      1480
 -1       301    8    0    1
 -2        76        77       233      1190      1486      1487
 -1       302    8    0    1
 -2        76       233       232      1487      1488      1483
 -1       303    8    0    1
 -2        77        78       234      1191      1489      1490
 -1       304    8    0    1
 -2        77       234       233      1490      1491      1486
 -1       305    8    0    1
 -2        78        79       235      1192      1492      1493
 -1       306    8    0    1
 -2        78       235       234      1493      1494      1489
 -1       307    8    0    1
 -2        79        80       236      1193      1495      1496
 -1       308    8    0    1
 -2        79       236       235      1496      1497      1492
 -1       309    8    0    1
 -2        80        81       237      1194      1498      1499
 -1       310    8    0    1
 -2        80       237       236      1499      1500      1495
 -1       311    8    0    1
 -2        81        82       238      1195      1501      1502
 -1       312    8    0    1
 -2        81       238       237      1502      1503      1498
 -1       313    8    0    1
 -2        82        83       239      1196      1504      1505
 -1       314    8    0    1
 -2        82       239       238      1505      1506      1501
 -1       315    8    0    1
 -2        83        84       240      1197      1507      1508
 -1       316    8    0    1
 -2        83       240       239      1508      1509      1504
 -1       317    8    0    1
 -2        84        85       241      1198      1510      1511
 -1       318    8    0    1
 -2        84       241       240      1511      1512      1507
 -1       319    8    0    1
 -2        85        86       242      1199      1513      1514
 -1       320    8    0    1
 -2        85       242       241      1514      1515      1510
 -1       321    8    0    1
 -2        86        87       243      1200      1516      1517
 -1       322    8    0    1
 -2        86       243       242      1517      1518      1513
 -1       323    8    0    1
 -2        87        88       244      1201      1519      1520
 -1       324    8    0    1
 -2        87       244       243      1520      1521      1516
 -1       325    8    0    1
 -2        88        89       245      1202      1522      1523
 -1       326    8    0    1
 -2        88       245       244      1523      1524      1519
 -1       327    8    0    1
 -2        89        90       246      1203      1525      1526
 -1       328    8    0    1
 -2        89       246       245      1526      1527      1522
 -1       329    8    0    1
 -2        90        91       247      1204      1528      1529
 -1       330    8    0    1
 -2        90       247       246      1529      1530      1525
 -1       331    8    0    1
 -2        91        92       248      1205      1531      1532
 -1       332    8    0    1
 -2        91       248       247      1532      1533      1528
 -1       333    8    0    1
 -2        92        93       249      1206      1534      1535
 -1       334    8    0    1
 -2        92       249       248      1535      1536      1531
 -1       335    8    0    1
 -2        93        94       250      1207      1537      1538
 -1       336    8    0    1
 -2        93       250       249      1538      1539      1534
 -1       337    8    0    1
 -2        94        95       251      1208      1540      1541
 -1       338    8    0    1
 -2        94       251       250      1541      1542      1537
 -1       339    8    0    1
 -2        95        96       252      1209      1543      1544
 -1       340    8    0    1
 -2        95       252       251      1544      1545      1540
 -1       341    8    0    1
 -2        96        97       253      1210      1546      1547
 -1       342    8    0    1
 -2        96       253       252      1547      1548      1543
 -1       343    8    0    1
 -2        97        98       254      1211      1549      1550
 -1       344    8    0    1
 -2        97       254       253      1550      1551      1546
 -1       345    8    0    1
 -2        98        99       255      1212      1552      1553
 -1       346    8    0    1
 -2        98       255       254      1553      1554      1549
 -1       347    8    0    1
 -2        99       100       256      1213      1555      1556
 -1       348    8    0    1
 -2        99       256       255      1556      1557      1552
 -1       349    8    0    1
 -2       100       101       257      1214      1558      1559
 -1       350    8    0    1
 -2       100       257       256      1559      1560      1555
 -1       351    8    0    1
 -2       101       102       258      1215      1561      1562
 -1       352    8    0    1
 -2       101       258       257      1562      1563      1558
 -1       353    8    0    1
 -2       102       103       259      1216      1564      1565
 -1       354    8    0    1
 -2       102       259       258      1565      1566      1561
 -1       355    8    0    1
 -2       103       104       260      1217      1567      1568
 -1       356    8    0    1
 -2       103       260       259      1568      1569      1564
 -1       357    8    0    1
 -2       104       105       261      1218      1570      1571
 -1       358    8    0    1
 -2       104       261       260      1571      1572      1567
 -1       359    8    0    1
 -2       105       106       262      1219      1573      1574
 -1       360    8    0    1
 -2       105       262       261      1574      1575      1570
 -1       361    8    0    1
 -2       106       107       263      1220      1576      1577
 -1       362    8    0    1
 -2       106       263       262      1577      1578      1573
 -1       363    8    0    1
 -2       107       108       264      1221      1579      1580
 -1       364    8    0    1
 -2       107       264       263      1580      1581      1576
 -1       365    8    0    1
 -2       108       109       265      1222      1582      1583
 -1       366    8    0    1
 -2       108       265       264      1583      1584      1579
 -1       367    8    0    1
 -2       109       110       266      1223      1585      1586
 -1       368    8    0    1
 -2       109       266       265      1586      1587      1582
 -1       369    8    0    1
 -2       110       111       267      1224      1588      1589
 -1       370    8    0    1
 -2       110       267       266      1589      1590      1585
 -1       371    8    0    1
 -2       111       112       268      1225      1591      1592
 -1       372    8    0    1
 -2       111       268       267      1592      1593      1588
 -1       373    8    0    1
 -2       112       113       269      1226      1594      1595
 -1       374    8    0    1
 -2       112       269       268      1595      1596      1591
 -1       375    8    0    1
 -2       113       114       270      1227      1597      1598
 -1       376    8    0    1
 -2       113       270       269      1598      1599      1594
 -1       377    8    0    1
 -2       114       115       271      1228      1600      1601
 -1       378    8    0    1
 -2       114       271       270      1601      1602      1597
 -1       379    8    0    1
 -2       115       116       272      1229      1603      1604
 -1       380    8    0    1
 -2       115       272       271      1604      1605      1600
 -1       381    8    0    1
 -2       116       117       273      1230      1606      1607
 -1       382    8    0    1
 -2       116       273       272      1607      1608      1603
 -1       383    8    0    1
 -2       117       118       274      1231      1609      1610
 -1       384    8    0    1
 -2       117       274       273      1610      1611      1606
 -1       385    8    0    1
 -2       118       119       275      1232      1612      1613
 -1       386    8    0    1
 -2       118       275       274      1613      1614      1609
 -1       387    8    0    1
 -2       119       120       276      1233      1615      1616
 -1       388    8    0    1
 -2       119       276       275      1616      1617      1612
 -1       389    8    0    1
 -2       120       121       277      1234      1618      1619
 -1       390    8    0    1
 -2       120       277       276      1619      1620      1615
 -1       391    8    0    1
 -2       121         3       122      1235      1236      1621
 -1       392    8    0    1
 -2       122       123       278      1237      1622      1623
 -1       393    8    0    1
 -2       123       124       279      1238      1624      1625
 -1       394    8    0    1
 -2       123       279       278      1625      1626      1622
 -1       395    8    0    1
 -2       124       125       280      1239      1627      1628
 -1       396    8    0    1
 -2       124       280       279      1628      1629      1624
 -1       397    8    0    1
 -2       125       126       281      1240      1630      1631
 -1       398    8    0    1
 -2       125       281       280      1631      1632      1627
 -1       399    8    0    1
 -2       126       127       282      1241      1633      1634
 -1       400    8    0    1
 -2       126       282       281      1634      1635      1630
 -1       401    8    0    1
 -2       127       128       283      1242      1636      1637
 -1       402    8    0    1
 -2       127       283       282      1637      1638      1633
 -1       403    8    0    1
 -2       128       129       284      1243      1639      1640
 -1       404    8    0    1
 -2       128       284       283      1640      1641      1636
 -1       405    8    0    1
 -2       129       130       285      1244      1642      1643
 -1       406    8    0    1
 -2       129       285       284      1643      1644      1639
 -1       407    8    0    1
 -2       130       131       286      1245      1645      1646
 -1       408    8    0    1
 -2       130       286       285      1646      1647      1642
 -1       409    8    0    1
 -2       131       132       287      1246      1648      1649
 -1       410    8    0    1
 -2       131       287       286      1649      1650      1645
 -1       411    8    0    1
 -2       132       133       288      1247      1651      1652
 -1       412    8    0    1
 -2       132       288       287      1652      1653      1648
 -1       413    8    0    1
 -2       133       134       289      1248      1654      1655
 -1       414    8    0    1
 -2       133       289       288      1655      1656      1651
 -1       415    8    0    1
 -2       134       135       290      1249      1657      1658
 -1       416    8    0    1
 -2       134       290       289      1658      1659      1654
 -1       417    8    0    1
 -2       135       136       291      1250      1660      1661
 -1       418    8    0    1
 -2       135       291       290      1661      1662      1657
 -1       419    8    0    1
 -2       136       137       292      1251      1663      1664
 -1       420    8    0    1
 -2       291       136       292      1660      1664      1665
 -1       421    8    0    1
 -2       137       229       292      1475      1666      1663
 -1       422    8    0    1
 -2         2       138       293      1253      1667      1668
 -1       423    8    0    1
 -2       138       139       294      1254      1669      1670
 -1       424    8    0    1
 -2       139       140       295      1255      1671      1672
 -1       425    8    0    1
 -2       140       141       296      1256      1673      1674
 -1       426    8    0    1
 -2       141       142       297      1257      1675      1676
 -1       427    8    0    1
 -2       142       143       298      1258      1677      1678
 -1       428    8    0    1
 -2       143       144       299      1259      1679      1680
 -1       429    8    0    1
 -2       144       145       300      1260      1681      1682
 -1       430    8    0    1
 -2       145       146       301      1261      1683      1684
 -1       431    8    0    1
 -2       146       147       302      1262      1685      1686
 -1       432    8    0    1
 -2       147       148       303      1263      1687      1688
 -1       433    8    0    1
 -2       148       149       304      1264      1689      1690
 -1       434    8    0    1
 -2       149       150       305      1265      1691      1692
 -1       435    8    0    1
 -2       150       151       306      1266      1693      1694
 -1       436    8    0    1
 -2       151       152       307      1267      1695      1696
 -1       437    8    0    1
 -2       152       153       308      1268      1697      1698
 -1       438    8    0    1
 -2       153       154       309      1269      1699      1700
 -1       439    8    0    1
 -2       154         1       310      1270      1701      1702
 -1       440    8    0    1
 -2         1       155       311      1271      1703      1704
 -1       441    8    0    1
 -2       155       156       312      1272      1705      1706
 -1       442    8    0    1
 -2       156       157       313      1273      1707      1708
 -1       443    8    0    1
 -2       157       158       314      1274      1709      1710
 -1       444    8    0    1
 -2       158       159       315      1275      1711      1712
 -1       445    8    0    1
 -2       159       160       316      1276      1713      1714
 -1       446    8    0    1
 -2       160       161       317      1277      1715      1716
 -1       447    8    0    1
 -2       161       162       318      1278      1717      1718
 -1       448    8    0    1
 -2       162       163       319      1279      1719      1720
 -1       449    8    0    1
 -2       163       164       320      1280      1721      1722
 -1       450    8    0    1
 -2       164         2       321      1281      1723      1724
 -1       451    8    0    1
 -2        51        50       322      1163      1725      1726
 -1       452    8    0    1
 -2         2       293       321      1668      1727      1723
 -1       453    8    0    1
 -2       295       140       296      1671      1674      1728
 -1       454    8    0    1
 -2        50       207       322      1409      1729      1725
 -1       455    8    0    1
 -2       121       122       277      1621      1730      1618
 -1       456    8    0    1
 -2       122       278       277      1623      1731      1730
 -1       457    8    0    1
 -2       293       138       294      1667      1670      1732
 -1       458    8    0    1
 -2       294       139       295      1669      1672      1733
 -1       459    8    0    1
 -2       141       297       296      1676      1734      1673
 -1       460    8    0    1
 -2       142       298       297      1678      1735      1675
 -1       461    8    0    1
 -2       143       299       298      1680      1736      1677
 -1       462    8    0    1
 -2       144       300       299      1682      1737      1679
 -1       463    8    0    1
 -2       145       301       300      1684      1738      1681
 -1       464    8    0    1
 -2       146       302       301      1686      1739      1683
 -1       465    8    0    1
 -2       147       303       302      1688      1740      1685
 -1       466    8    0    1
 -2       148       304       303      1690      1741      1687
 -1       467    8    0    1
 -2       149       305       304      1692      1742      1689
 -1       468    8    0    1
 -2       150       306       305      1694      1743      1691
 -1       469    8    0    1
 -2       151       307       306      1696      1744      1693
 -1       470    8    0    1
 -2       152       308       307      1698      1745      1695
 -1       471    8    0    1
 -2       153       309       308      1700      1746      1697
 -1       472    8    0    1
 -2       154       310       309      1702      1747      1699
 -1       473    8    0    1
 -2         1       311       310      1704      1748      1701
 -1       474    8    0    1
 -2       155       312       311      1706      1749      1703
 -1       475    8    0    1
 -2       156       313       312      1708      1750      1705
 -1       476    8    0    1
 -2       157       314       313      1710      1751      1707
 -1       477    8    0    1
 -2       158       315       314      1712      1752      1709
 -1       478    8    0    1
 -2       159       316       315      1714      1753      1711
 -1       479    8    0    1
 -2       160       317       316      1716      1754      1713
 -1       480    8    0    1
 -2       161       318       317      1718      1755      1715
 -1       481    8    0    1
 -2       162       319       318      1720      1756      1717
 -1       482    8    0    1
 -2       163       320       319      1722      1757      1719
 -1       483    8    0    1
 -2       164       321       320      1724      1758      1721
 -1       484    8    0    1
 -2        51       322       208      1726      1759      1411
 -1       485    8    0    1
 -2        23         7       165      1282      1284      1760
 -1       486    8    0    1
 -2       166       167       323      1290      1761      1762
 -1       487    8    0    1
 -2       165       166       324      1287      1763      1764
 -1       488    8    0    1
 -2       166       323       324      1762      1765      1763
 -1       489    8    0    1
 -2       168       169       325      1296      1766      1767
 -1       490    8    0    1
 -2       169       170       326      1299      1768      1769
 -1       491    8    0    1
 -2       169       326       325      1769      1770      1766
 -1       492    8    0    1
 -2       170       171       327      1302      1771      1772
 -1       493    8    0    1
 -2       170       327       326      1772      1773      1768
 -1       494    8    0    1
 -2       171       172       328      1305      1774      1775
 -1       495    8    0    1
 -2       171       328       327      1775      1776      1771
 -1       496    8    0    1
 -2       172       173       329      1308      1777      1778
 -1       497    8    0    1
 -2       172       329       328      1778      1779      1774
 -1       498    8    0    1
 -2       173       174       330      1311      1780      1781
 -1       499    8    0    1
 -2       173       330       329      1781      1782      1777
 -1       500    8    0    1
 -2       174       175       331      1314      1783      1784
 -1       501    8    0    1
 -2       174       331       330      1784      1785      1780
 -1       502    8    0    1
 -2       175       176       332      1317      1786      1787
 -1       503    8    0    1
 -2       175       332       331      1787      1788      1783
 -1       504    8    0    1
 -2       176       177       333      1320      1789      1790
 -1       505    8    0    1
 -2       176       333       332      1790      1791      1786
 -1       506    8    0    1
 -2       177       178       334      1323      1792      1793
 -1       507    8    0    1
 -2       177       334       333      1793      1794      1789
 -1       508    8    0    1
 -2       178       179       335      1326      1795      1796
 -1       509    8    0    1
 -2       178       335       334      1796      1797      1792
 -1       510    8    0    1
 -2       179       180       336      1329      1798      1799
 -1       511    8    0    1
 -2       335       179       336      1795      1799      1800
 -1       512    8    0    1
 -2       180       230       336      1479      1801      1798
 -1       513    8    0    1
 -2       181        23       165      1331      1760      1802
 -1       514    8    0    1
 -2       230       231       337      1482      1803      1804
 -1       515    8    0    1
 -2       230       337       336      1804      1805      1801
 -1       516    8    0    1
 -2       181       165       324      1802      1764      1806
 -1       517    8    0    1
 -2       183       182       338      1338      1807      1808
 -1       518    8    0    1
 -2       184       183       339      1341      1809      1810
 -1       519    8    0    1
 -2       183       338       339      1808      1811      1809
 -1       520    8    0    1
 -2       185       184       340      1344      1812      1813
 -1       521    8    0    1
 -2       184       339       340      1810      1814      1812
 -1       522    8    0    1
 -2       186       185       341      1347      1815      1816
 -1       523    8    0    1
 -2       185       340       341      1813      1817      1815
 -1       524    8    0    1
 -2       187       186       342      1350      1818      1819
 -1       525    8    0    1
 -2       186       341       342      1816      1820      1818
 -1       526    8    0    1
 -2       188       187       343      1353      1821      1822
 -1       527    8    0    1
 -2       187       342       343      1819      1823      1821
 -1       528    8    0    1
 -2       189       188       344      1356      1824      1825
 -1       529    8    0    1
 -2       188       343       344      1822      1826      1824
 -1       530    8    0    1
 -2       190       189       345      1359      1827      1828
 -1       531    8    0    1
 -2       189       344       345      1825      1829      1827
 -1       532    8    0    1
 -2       191       190       346      1362      1830      1831
 -1       533    8    0    1
 -2       190       345       346      1828      1832      1830
 -1       534    8    0    1
 -2       192       191       347      1365      1833      1834
 -1       535    8    0    1
 -2       191       346       347      1831      1835      1833
 -1       536    8    0    1
 -2       193       192       348      1368      1836      1837
 -1       537    8    0    1
 -2       192       347       348      1834      1838      1836
 -1       538    8    0    1
 -2       194       193       349      1371      1839      1840
 -1       539    8    0    1
 -2       193       348       349      1837      1841      1839
 -1       540    8    0    1
 -2       195       194       350      1374      1842      1843
 -1       541    8    0    1
 -2       194       349       350      1840      1844      1842
 -1       542    8    0    1
 -2       196       195       351      1377      1845      1846
 -1       543    8    0    1
 -2       195       350       351      1843      1847      1845
 -1       544    8    0    1
 -2       197       196       352      1380      1848      1849
 -1       545    8    0    1
 -2       196       351       352      1846      1850      1848
 -1       546    8    0    1
 -2       198       197       353      1383      1851      1852
 -1       547    8    0    1
 -2       197       352       353      1849      1853      1851
 -1       548    8    0    1
 -2       199       198       354      1386      1854      1855
 -1       549    8    0    1
 -2       198       353       354      1852      1856      1854
 -1       550    8    0    1
 -2       200       199       355      1389      1857      1858
 -1       551    8    0    1
 -2       199       354       355      1855      1859      1857
 -1       552    8    0    1
 -2       201       200       356      1392      1860      1861
 -1       553    8    0    1
 -2       200       355       356      1858      1862      1860
 -1       554    8    0    1
 -2       202       201       357      1395      1863      1864
 -1       555    8    0    1
 -2       201       356       357      1861      1865      1863
 -1       556    8    0    1
 -2       203       202       358      1398      1866      1867
 -1       557    8    0    1
 -2       202       357       358      1864      1868      1866
 -1       558    8    0    1
 -2       204       203       359      1401      1869      1870
 -1       559    8    0    1
 -2       203       358       359      1867      1871      1869
 -1       560    8    0    1
 -2       205       204       360      1404      1872      1873
 -1       561    8    0    1
 -2       204       359       360      1870      1874      1872
 -1       562    8    0    1
 -2       206       205       361      1407      1875      1876
 -1       563    8    0    1
 -2       205       360       361      1873      1877      1875
 -1       564    8    0    1
 -2       321       293       362      1727      1878      1879
 -1       565    8    0    1
 -2       210       209       315      1418      1880      1881
 -1       566    8    0    1
 -2       212       211       363      1424      1882      1883
 -1       567    8    0    1
 -2       213       212       364      1427      1884      1885
 -1       568    8    0    1
 -2       214       213       365      1430      1886      1887
 -1       569    8    0    1
 -2       213       364       365      1885      1888      1886
 -1       570    8    0    1
 -2       215       214       366      1433      1889      1890
 -1       571    8    0    1
 -2       214       365       366      1887      1891      1889
 -1       572    8    0    1
 -2       216       215       367      1436      1892      1893
 -1       573    8    0    1
 -2       215       366       367      1890      1894      1892
 -1       574    8    0    1
 -2       217       216       368      1439      1895      1896
 -1       575    8    0    1
 -2       216       367       368      1893      1897      1895
 -1       576    8    0    1
 -2       218       217       369      1442      1898      1899
 -1       577    8    0    1
 -2       217       368       369      1896      1900      1898
 -1       578    8    0    1
 -2       219       218       370      1445      1901      1902
 -1       579    8    0    1
 -2       218       369       370      1899      1903      1901
 -1       580    8    0    1
 -2       220       219       371      1448      1904      1905
 -1       581    8    0    1
 -2       219       370       371      1902      1906      1904
 -1       582    8    0    1
 -2       221       220       372      1451      1907      1908
 -1       583    8    0    1
 -2       220       371       372      1905      1909      1907
 -1       584    8    0    1
 -2       222       221       373      1454      1910      1911
 -1       585    8    0    1
 -2       221       372       373      1908      1912      1910
 -1       586    8    0    1
 -2       223       222       374      1457      1913      1914
 -1       587    8    0    1
 -2       222       373       374      1911      1915      1913
 -1       588    8    0    1
 -2       224       223       375      1460      1916      1917
 -1       589    8    0    1
 -2       223       374       375      1914      1918      1916
 -1       590    8    0    1
 -2       225       224       376      1463      1919      1920
 -1       591    8    0    1
 -2       224       375       376      1917      1921      1919
 -1       592    8    0    1
 -2       226       225       377      1466      1922      1923
 -1       593    8    0    1
 -2       225       376       377      1920      1924      1922
 -1       594    8    0    1
 -2       227       226       378      1469      1925      1926
 -1       595    8    0    1
 -2       226       377       378      1923      1927      1925
 -1       596    8    0    1
 -2       228       227       379      1472      1928      1929
 -1       597    8    0    1
 -2       227       378       379      1926      1930      1928
 -1       598    8    0    1
 -2       229       228       292      1476      1931      1666
 -1       599    8    0    1
 -2       232       233       380      1488      1932      1933
 -1       600    8    0    1
 -2       233       234       381      1491      1934      1935
 -1       601    8    0    1
 -2       233       381       380      1935      1936      1932
 -1       602    8    0    1
 -2       234       235       382      1494      1937      1938
 -1       603    8    0    1
 -2       234       382       381      1938      1939      1934
 -1       604    8    0    1
 -2       235       236       383      1497      1940      1941
 -1       605    8    0    1
 -2       235       383       382      1941      1942      1937
 -1       606    8    0    1
 -2       236       237       384      1500      1943      1944
 -1       607    8    0    1
 -2       236       384       383      1944      1945      1940
 -1       608    8    0    1
 -2       237       238       385      1503      1946      1947
 -1       609    8    0    1
 -2       237       385       384      1947      1948      1943
 -1       610    8    0    1
 -2       238       239       386      1506      1949      1950
 -1       611    8    0    1
 -2       238       386       385      1950      1951      1946
 -1       612    8    0    1
 -2       239       240       387      1509      1952      1953
 -1       613    8    0    1
 -2       239       387       386      1953      1954      1949
 -1       614    8    0    1
 -2       240       241       388      1512      1955      1956
 -1       615    8    0    1
 -2       240       388       387      1956      1957      1952
 -1       616    8    0    1
 -2       241       242       389      1515      1958      1959
 -1       617    8    0    1
 -2       241       389       388      1959      1960      1955
 -1       618    8    0    1
 -2       242       243       390      1518      1961      1962
 -1       619    8    0    1
 -2       242       390       389      1962      1963      1958
 -1       620    8    0    1
 -2       243       244       391      1521      1964      1965
 -1       621    8    0    1
 -2       243       391       390      1965      1966      1961
 -1       622    8    0    1
 -2       244       245       392      1524      1967      1968
 -1       623    8    0    1
 -2       244       392       391      1968      1969      1964
 -1       624    8    0    1
 -2       245       246       393      1527      1970      1971
 -1       625    8    0    1
 -2       245       393       392      1971      1972      1967
 -1       626    8    0    1
 -2       246       247       394      1530      1973      1974
 -1       627    8    0    1
 -2       246       394       393      1974      1975      1970
 -1       628    8    0    1
 -2       247       248       395      1533      1976      1977
 -1       629    8    0    1
 -2       247       395       394      1977      1978      1973
 -1       630    8    0    1
 -2       248       249       396      1536      1979      1980
 -1       631    8    0    1
 -2       248       396       395      1980      1981      1976
 -1       632    8    0    1
 -2       249       250       397      1539      1982      1983
 -1       633    8    0    1
 -2       249       397       396      1983      1984      1979
 -1       634    8    0    1
 -2       250       251       398      1542      1985      1986
 -1       635    8    0    1
 -2       250       398       397      1986      1987      1982
 -1       636    8    0    1
 -2       251       252       399      1545      1988      1989
 -1       637    8    0    1
 -2       251       399       398      1989      1990      1985
 -1       638    8    0    1
 -2       252       253       400      1548      1991      1992
 -1       639    8    0    1
 -2       252       400       399      1992      1993      1988
 -1       640    8    0    1
 -2       253       254       401      1551      1994      1995
 -1       641    8    0    1
 -2       253       401       400      1995      1996      1991
 -1       642    8    0    1
 -2       254       255       402      1554      1997      1998
 -1       643    8    0    1
 -2       254       402       401      1998      1999      1994
 -1       644    8    0    1
 -2       255       256       403      1557      2000      2001
 -1       645    8    0    1
 -2       255       403       402      2001      2002      1997
 -1       646    8    0    1
 -2       256       257       404      1560      2003      2004
 -1       647    8    0    1
 -2       256       404       403      2004      2005      2000
 -1       648    8    0    1
 -2       257       258       405      1563      2006      2007
 -1       649    8    0    1
 -2       257       405       404      2007      2008      2003
 -1       650    8    0    1
 -2       258       259       406      1566      2009      2010
 -1       651    8    0    1
 -2       258       406       405      2010      2011      2006
 -1       652    8    0    1
 -2       259       260       407      1569      2012      2013
 -1       653    8    0    1
 -2       259       407       406      2013      2014      2009
 -1       654    8    0    1
 -2       260       261       408      1572      2015      2016
 -1       655    8    0    1
 -2       260       408       407      2016      2017      2012
 -1       656    8    0    1
 -2       261       262       409      1575      2018      2019
 -1       657    8    0    1
 -2       261       409       408      2019      2020      2015
 -1       658    8    0    1
 -2       262       263       410      1578      2021      2022
 -1       659    8    0    1
 -2       262       410       409      2022      2023      2018
 -1       660    8    0    1
 -2       263       264       411      1581      2024      2025
 -1       661    8    0    1
 -2       263       411       410      2025      2026      2021
 -1       662    8    0    1
 -2       264       265       412      1584      2027      2028
 -1       663    8    0    1
 -2       264       412       411      2028      2029      2024
 -1       664    8    0    1
 -2       265       266       413      1587      2030      2031
 -1       665    8    0    1
 -2       265       413       412      2031      2032      2027
 -1       666    8    0    1
 -2       266       267       414      1590      2033      2034
 -1       667    8    0    1
 -2       266       414       413      2034      2035      2030
 -1       668    8    0    1
 -2       267       268       415      1593      2036      2037
 -1       669    8    0    1
 -2       267       415       414      2037      2038      2033
 -1       670    8    0    1
 -2       268       269       416      1596      2039      2040
 -1       671    8    0    1
 -2       268       416       415      2040      2041      2036
 -1       672    8    0    1
 -2       269       270       417      1599      2042      2043
 -1       673    8    0    1
 -2       269       417       416      2043      2044      2039
 -1       674    8    0    1
 -2       270       271       418      1602      2045      2046
 -1       675    8    0    1
 -2       270       418       417      2046      2047      2042
 -1       676    8    0    1
 -2       271       272       419      1605      2048      2049
 -1       677    8    0    1
 -2       271       419       418      2049      2050      2045
 -1       678    8    0    1
 -2       272       273       420      1608      2051      2052
 -1       679    8    0    1
 -2       272       420       419      2052      2053      2048
 -1       680    8    0    1
 -2       273       274       421      1611      2054      2055
 -1       681    8    0    1
 -2       273       421       420      2055      2056      2051
 -1       682    8    0    1
 -2       274       275       422      1614      2057      2058
 -1       683    8    0    1
 -2       274       422       421      2058      2059      2054
 -1       684    8    0    1
 -2       275       276       423      1617      2060      2061
 -1       685    8    0    1
 -2       275       423       422      2061      2062      2057
 -1       686    8    0    1
 -2       276       277       424      1620      2063      2064
 -1       687    8    0    1
 -2       423       276       424      2060      2064      2065
 -1       688    8    0    1
 -2       277       278       424      1731      2066      2063
 -1       689    8    0    1
 -2       280       281       425      1632      2067      2068
 -1       690    8    0    1
 -2       279       280       426      1629      2069      2070
 -1       691    8    0    1
 -2       280       425       426      2068      2071      2069
 -1       692    8    0    1
 -2       278       279       424      1626      2072      2066
 -1       693    8    0    1
 -2       281       282       427      1635      2073      2074
 -1       694    8    0    1
 -2       281       427       425      2074      2075      2067
 -1       695    8    0    1
 -2       282       283       428      1638      2076      2077
 -1       696    8    0    1
 -2       282       428       427      2077      2078      2073
 -1       697    8    0    1
 -2       283       284       429      1641      2079      2080
 -1       698    8    0    1
 -2       283       429       428      2080      2081      2076
 -1       699    8    0    1
 -2       284       285       430      1644      2082      2083
 -1       700    8    0    1
 -2       284       430       429      2083      2084      2079
 -1       701    8    0    1
 -2       285       286       431      1647      2085      2086
 -1       702    8    0    1
 -2       285       431       430      2086      2087      2082
 -1       703    8    0    1
 -2       286       287       432      1650      2088      2089
 -1       704    8    0    1
 -2       286       432       431      2089      2090      2085
 -1       705    8    0    1
 -2       287       288       433      1653      2091      2092
 -1       706    8    0    1
 -2       287       433       432      2092      2093      2088
 -1       707    8    0    1
 -2       288       289       434      1656      2094      2095
 -1       708    8    0    1
 -2       288       434       433      2095      2096      2091
 -1       709    8    0    1
 -2       289       290       435      1659      2097      2098
 -1       710    8    0    1
 -2       289       435       434      2098      2099      2094
 -1       711    8    0    1
 -2       290       291       436      1662      2100      2101
 -1       712    8    0    1
 -2       290       436       435      2101      2102      2097
 -1       713    8    0    1
 -2       231       232       437      1485      2103      2104
 -1       714    8    0    1
 -2       337       231       437      1803      2104      2105
 -1       715    8    0    1
 -2       232       380       437      1933      2106      2103
 -1       716    8    0    1
 -2       294       295       438      1733      2107      2108
 -1       717    8    0    1
 -2       296       297       439      1734      2109      2110
 -1       718    8    0    1
 -2       322       207       440      1729      2111      2112
 -1       719    8    0    1
 -2       167       168       441      1293      2113      2114
 -1       720    8    0    1
 -2       323       167       441      1761      2114      2115
 -1       721    8    0    1
 -2       168       325       441      1767      2116      2113
 -1       722    8    0    1
 -2       297       298       442      1735      2117      2118
 -1       723    8    0    1
 -2       298       299       443      1736      2119      2120
 -1       724    8    0    1
 -2       299       300       444      1737      2121      2122
 -1       725    8    0    1
 -2       300       301       445      1738      2123      2124
 -1       726    8    0    1
 -2       300       445       444      2124      2125      2121
 -1       727    8    0    1
 -2       301       302       446      1739      2126      2127
 -1       728    8    0    1
 -2       302       303       447      1740      2128      2129
 -1       729    8    0    1
 -2       303       304       448      1741      2130      2131
 -1       730    8    0    1
 -2       304       305       449      1742      2132      2133
 -1       731    8    0    1
 -2       305       306       450      1743      2134      2135
 -1       732    8    0    1
 -2       306       307       451      1744      2136      2137
 -1       733    8    0    1
 -2       306       451       450      2137      2138      2134
 -1       734    8    0    1
 -2       307       308       452      1745      2139      2140
 -1       735    8    0    1
 -2       308       309       453      1746      2141      2142
 -1       736    8    0    1
 -2       309       310       454      1747      2143      2144
 -1       737    8    0    1
 -2       310       311       455      1748      2145      2146
 -1       738    8    0    1
 -2       311       312       456      1749      2147      2148
 -1       739    8    0    1
 -2       312       313       457      1750      2149      2150
 -1       740    8    0    1
 -2       313       314       458      1751      2151      2152
 -1       741    8    0    1
 -2       314       315       209      1752      1880      2153
 -1       742    8    0    1
 -2       316       317       459      1754      2154      2155
 -1       743    8    0    1
 -2       317       318       460      1755      2156      2157
 -1       744    8    0    1
 -2       318       319       461      1756      2158      2159
 -1       745    8    0    1
 -2       319       320       462      1757      2160      2161
 -1       746    8    0    1
 -2       320       321       463      1758      2162      2163
 -1       747    8    0    1
 -2       208       322       457      1759      2164      2165
 -1       748    8    0    1
 -2       295       296       464      1728      2166      2167
 -1       749    8    0    1
 -2       295       464       438      2167      2168      2107
 -1       750    8    0    1
 -2       293       294       465      1732      2169      2170
 -1       751    8    0    1
 -2       321       362       463      1879      2171      2162
 -1       752    8    0    1
 -2       181       324       182      1806      2172      1335
 -1       753    8    0    1
 -2       293       465       362      2170      2173      1878
 -1       754    8    0    1
 -2       297       442       439      2118      2174      2109
 -1       755    8    0    1
 -2       338       182       324      1807      2172      2175
 -1       756    8    0    1
 -2       207       206       466      1410      2176      2177
 -1       757    8    0    1
 -2       210       315       467      1881      2178      2179
 -1       758    8    0    1
 -2       212       363       364      1883      2180      1884
 -1       759    8    0    1
 -2       211       210       467      1421      2179      2181
 -1       760    8    0    1
 -2       292       228       379      1931      1929      2182
 -1       761    8    0    1
 -2       424       279       426      2072      2070      2183
 -1       762    8    0    1
 -2       440       207       466      2111      2177      2184
 -1       763    8    0    1
 -2       291       292       468      1665      2185      2186
 -1       764    8    0    1
 -2       436       291       468      2100      2186      2187
 -1       765    8    0    1
 -2       292       379       468      2182      2188      2185
 -1       766    8    0    1
 -2       294       438       465      2108      2189      2169
 -1       767    8    0    1
 -2       296       439       469      2110      2190      2191
 -1       768    8    0    1
 -2       296       469       464      2191      2192      2166
 -1       769    8    0    1
 -2       322       440       457      2112      2193      2164
 -1       770    8    0    1
 -2       462       320       463      2160      2163      2194
 -1       771    8    0    1
 -2       461       319       462      2158      2161      2195
 -1       772    8    0    1
 -2       460       318       461      2156      2159      2196
 -1       773    8    0    1
 -2       457       313       458      2149      2152      2197
 -1       774    8    0    1
 -2       455       311       456      2145      2148      2198
 -1       775    8    0    1
 -2       454       310       455      2143      2146      2199
 -1       776    8    0    1
 -2       453       309       454      2141      2144      2200
 -1       777    8    0    1
 -2       451       307       452      2136      2140      2201
 -1       778    8    0    1
 -2       449       305       470      2132      2202      2203
 -1       779    8    0    1
 -2       305       450       470      2135      2204      2202
 -1       780    8    0    1
 -2       448       304       449      2130      2133      2205
 -1       781    8    0    1
 -2       447       303       448      2128      2131      2206
 -1       782    8    0    1
 -2       445       301       446      2123      2127      2207
 -1       783    8    0    1
 -2       442       298       443      2117      2120      2208
 -1       784    8    0    1
 -2       443       299       471      2119      2209      2210
 -1       785    8    0    1
 -2       299       444       471      2122      2211      2209
 -1       786    8    0    1
 -2       209       208       458      1415      2212      2213
 -1       787    8    0    1
 -2       209       458       314      2213      2151      2153
 -1       788    8    0    1
 -2       446       302       447      2126      2129      2214
 -1       789    8    0    1
 -2       452       308       453      2139      2142      2215
 -1       790    8    0    1
 -2       459       317       460      2154      2157      2216
 -1       791    8    0    1
 -2       315       316       467      1753      2217      2178
 -1       792    8    0    1
 -2       467       316       459      2217      2155      2218
 -1       793    8    0    1
 -2       208       457       458      2165      2197      2212
 -1       794    8    0    1
 -2       466       206       361      2176      1876      2219
 -1       795    8    0    1
 -2       326       327       472      1773      2220      2221
 -1       796    8    0    1
 -2       325       326       473      1770      2222      2223
 -1       797    8    0    1
 -2       326       472       473      2221      2224      2222
 -1       798    8    0    1
 -2       328       329       474      1779      2225      2226
 -1       799    8    0    1
 -2       329       330       475      1782      2227      2228
 -1       800    8    0    1
 -2       329       475       474      2228      2229      2225
 -1       801    8    0    1
 -2       330       331       476      1785      2230      2231
 -1       802    8    0    1
 -2       330       476       475      2231      2232      2227
 -1       803    8    0    1
 -2       331       332       477      1788      2233      2234
 -1       804    8    0    1
 -2       331       477       476      2234      2235      2230
 -1       805    8    0    1
 -2       332       333       478      1791      2236      2237
 -1       806    8    0    1
 -2       332       478       477      2237      2238      2233
 -1       807    8    0    1
 -2       333       334       479      1794      2239      2240
 -1       808    8    0    1
 -2       333       479       478      2240      2241      2236
 -1       809    8    0    1
 -2       334       335       480      1797      2242      2243
 -1       810    8    0    1
 -2       334       480       479      2243      2244      2239
 -1       811    8    0    1
 -2       335       336       481      1800      2245      2246
 -1       812    8    0    1
 -2       480       335       481      2242      2246      2247
 -1       813    8    0    1
 -2       336       337       481      1805      2248      2245
 -1       814    8    0    1
 -2       339       338       482      1811      2249      2250
 -1       815    8    0    1
 -2       362       465       483      2173      2251      2252
 -1       816    8    0    1
 -2       340       339       484      1814      2253      2254
 -1       817    8    0    1
 -2       339       482       484      2250      2255      2253
 -1       818    8    0    1
 -2       341       340       485      1817      2256      2257
 -1       819    8    0    1
 -2       340       484       485      2254      2258      2256
 -1       820    8    0    1
 -2       342       341       486      1820      2259      2260
 -1       821    8    0    1
 -2       341       485       486      2257      2261      2259
 -1       822    8    0    1
 -2       343       342       487      1823      2262      2263
 -1       823    8    0    1
 -2       342       486       487      2260      2264      2262
 -1       824    8    0    1
 -2       344       343       488      1826      2265      2266
 -1       825    8    0    1
 -2       343       487       488      2263      2267      2265
 -1       826    8    0    1
 -2       345       344       489      1829      2268      2269
 -1       827    8    0    1
 -2       344       488       489      2266      2270      2268
 -1       828    8    0    1
 -2       346       345       490      1832      2271      2272
 -1       829    8    0    1
 -2       345       489       490      2269      2273      2271
 -1       830    8    0    1
 -2       347       346       491      1835      2274      2275
 -1       831    8    0    1
 -2       346       490       491      2272      2276      2274
 -1       832    8    0    1
 -2       348       347       492      1838      2277      2278
 -1       833    8    0    1
 -2       347       491       492      2275      2279      2277
 -1       834    8    0    1
 -2       349       348       493      1841      2280      2281
 -1       835    8    0    1
 -2       348       492       493      2278      2282      2280
 -1       836    8    0    1
 -2       350       349       494      1844      2283      2284
 -1       837    8    0    1
 -2       349       493       494      2281      2285      2283
 -1       838    8    0    1
 -2       351       350       495      1847      2286      2287
 -1       839    8    0    1
 -2       350       494       495      2284      2288      2286
 -1       840    8    0    1
 -2       352       351       496      1850      2289      2290
 -1       841    8    0    1
 -2       351       495       496      2287      2291      2289
 -1       842    8    0    1
 -2       353       352       497      1853      2292      2293
 -1       843    8    0    1
 -2       352       496       497      2290      2294      2292
 -1       844    8    0    1
 -2       354       353       498      1856      2295      2296
 -1       845    8    0    1
 -2       353       497       498      2293      2297      2295
 -1       846    8    0    1
 -2       355       354       499      1859      2298      2299
 -1       847    8    0    1
 -2       354       498       499      2296      2300      2298
 -1       848    8    0    1
 -2       356       355       500      1862      2301      2302
 -1       849    8    0    1
 -2       355       499       500      2299      2303      2301
 -1       850    8    0    1
 -2       357       356       501      1865      2304      2305
 -1       851    8    0    1
 -2       356       500       501      2302      2306      2304
 -1       852    8    0    1
 -2       358       357       502      1868      2307      2308
 -1       853    8    0    1
 -2       357       501       502      2305      2309      2307
 -1       854    8    0    1
 -2       359       358       503      1871      2310      2311
 -1       855    8    0    1
 -2       358       502       503      2308      2312      2310
 -1       856    8    0    1
 -2       360       359       504      1874      2313      2314
 -1       857    8    0    1
 -2       359       503       504      2311      2315      2313
 -1       858    8    0    1
 -2       361       360       505      1877      2316      2317
 -1       859    8    0    1
 -2       439       442       506      2174      2318      2319
 -1       860    8    0    1
 -2       465       438       507      2189      2320      2321
 -1       861    8    0    1
 -2       424       426       423      2183      2322      2065
 -1       862    8    0    1
 -2       366       365       508      1891      2323      2324
 -1       863    8    0    1
 -2       367       366       509      1894      2325      2326
 -1       864    8    0    1
 -2       366       508       509      2324      2327      2325
 -1       865    8    0    1
 -2       368       367       510      1897      2328      2329
 -1       866    8    0    1
 -2       367       509       510      2326      2330      2328
 -1       867    8    0    1
 -2       369       368       511      1900      2331      2332
 -1       868    8    0    1
 -2       368       510       511      2329      2333      2331
 -1       869    8    0    1
 -2       370       369       512      1903      2334      2335
 -1       870    8    0    1
 -2       369       511       512      2332      2336      2334
 -1       871    8    0    1
 -2       371       370       513      1906      2337      2338
 -1       872    8    0    1
 -2       370       512       513      2335      2339      2337
 -1       873    8    0    1
 -2       372       371       514      1909      2340      2341
 -1       874    8    0    1
 -2       371       513       514      2338      2342      2340
 -1       875    8    0    1
 -2       373       372       515      1912      2343      2344
 -1       876    8    0    1
 -2       372       514       515      2341      2345      2343
 -1       877    8    0    1
 -2       374       373       516      1915      2346      2347
 -1       878    8    0    1
 -2       373       515       516      2344      2348      2346
 -1       879    8    0    1
 -2       375       374       517      1918      2349      2350
 -1       880    8    0    1
 -2       374       516       517      2347      2351      2349
 -1       881    8    0    1
 -2       376       375       518      1921      2352      2353
 -1       882    8    0    1
 -2       375       517       518      2350      2354      2352
 -1       883    8    0    1
 -2       377       376       519      1924      2355      2356
 -1       884    8    0    1
 -2       376       518       519      2353      2357      2355
 -1       885    8    0    1
 -2       378       377       520      1927      2358      2359
 -1       886    8    0    1
 -2       377       519       520      2356      2360      2358
 -1       887    8    0    1
 -2       379       378       521      1930      2361      2362
 -1       888    8    0    1
 -2       468       379       521      2188      2362      2363
 -1       889    8    0    1
 -2       378       520       521      2359      2364      2361
 -1       890    8    0    1
 -2       382       383       522      1942      2365      2366
 -1       891    8    0    1
 -2       381       382       523      1939      2367      2368
 -1       892    8    0    1
 -2       382       522       523      2366      2369      2367
 -1       893    8    0    1
 -2       380       381       524      1936      2370      2371
 -1       894    8    0    1
 -2       381       523       524      2368      2372      2370
 -1       895    8    0    1
 -2       383       384       525      1945      2373      2374
 -1       896    8    0    1
 -2       383       525       522      2374      2375      2365
 -1       897    8    0    1
 -2       384       385       526      1948      2376      2377
 -1       898    8    0    1
 -2       384       526       525      2377      2378      2373
 -1       899    8    0    1
 -2       385       386       527      1951      2379      2380
 -1       900    8    0    1
 -2       385       527       526      2380      2381      2376
 -1       901    8    0    1
 -2       386       387       528      1954      2382      2383
 -1       902    8    0    1
 -2       386       528       527      2383      2384      2379
 -1       903    8    0    1
 -2       387       388       529      1957      2385      2386
 -1       904    8    0    1
 -2       387       529       528      2386      2387      2382
 -1       905    8    0    1
 -2       388       389       530      1960      2388      2389
 -1       906    8    0    1
 -2       388       530       529      2389      2390      2385
 -1       907    8    0    1
 -2       389       390       531      1963      2391      2392
 -1       908    8    0    1
 -2       389       531       530      2392      2393      2388
 -1       909    8    0    1
 -2       390       391       532      1966      2394      2395
 -1       910    8    0    1
 -2       390       532       531      2395      2396      2391
 -1       911    8    0    1
 -2       391       392       533      1969      2397      2398
 -1       912    8    0    1
 -2       391       533       532      2398      2399      2394
 -1       913    8    0    1
 -2       392       393       534      1972      2400      2401
 -1       914    8    0    1
 -2       392       534       533      2401      2402      2397
 -1       915    8    0    1
 -2       393       394       535      1975      2403      2404
 -1       916    8    0    1
 -2       393       535       534      2404      2405      2400
 -1       917    8    0    1
 -2       394       395       536      1978      2406      2407
 -1       918    8    0    1
 -2       394       536       535      2407      2408      2403
 -1       919    8    0    1
 -2       395       396       537      1981      2409      2410
 -1       920    8    0    1
 -2       395       537       536      2410      2411      2406
 -1       921    8    0    1
 -2       396       397       538      1984      2412      2413
 -1       922    8    0    1
 -2       396       538       537      2413      2414      2409
 -1       923    8    0    1
 -2       397       398       539      1987      2415      2416
 -1       924    8    0    1
 -2       397       539       538      2416      2417      2412
 -1       925    8    0    1
 -2       398       399       540      1990      2418      2419
 -1       926    8    0    1
 -2       398       540       539      2419      2420      2415
 -1       927    8    0    1
 -2       399       400       541      1993      2421      2422
 -1       928    8    0    1
 -2       399       541       540      2422      2423      2418
 -1       929    8    0    1
 -2       400       401       542      1996      2424      2425
 -1       930    8    0    1
 -2       400       542       541      2425      2426      2421
 -1       931    8    0    1
 -2       401       402       543      1999      2427      2428
 -1       932    8    0    1
 -2       401       543       542      2428      2429      2424
 -1       933    8    0    1
 -2       402       403       544      2002      2430      2431
 -1       934    8    0    1
 -2       402       544       543      2431      2432      2427
 -1       935    8    0    1
 -2       403       404       545      2005      2433      2434
 -1       936    8    0    1
 -2       403       545       544      2434      2435      2430
 -1       937    8    0    1
 -2       404       405       546      2008      2436      2437
 -1       938    8    0    1
 -2       404       546       545      2437      2438      2433
 -1       939    8    0    1
 -2       405       406       547      2011      2439      2440
 -1       940    8    0    1
 -2       405       547       546      2440      2441      2436
 -1       941    8    0    1
 -2       406       407       548      2014      2442      2443
 -1       942    8    0    1
 -2       406       548       547      2443      2444      2439
 -1       943    8    0    1
 -2       407       408       549      2017      2445      2446
 -1       944    8    0    1
 -2       407       549       548      2446      2447      2442
 -1       945    8    0    1
 -2       408       409       550      2020      2448      2449
 -1       946    8    0    1
 -2       408       550       549      2449      2450      2445
 -1       947    8    0    1
 -2       409       410       551      2023      2451      2452
 -1       948    8    0    1
 -2       409       551       550      2452      2453      2448
 -1       949    8    0    1
 -2       410       411       552      2026      2454      2455
 -1       950    8    0    1
 -2       410       552       551      2455      2456      2451
 -1       951    8    0    1
 -2       411       412       553      2029      2457      2458
 -1       952    8    0    1
 -2       411       553       552      2458      2459      2454
 -1       953    8    0    1
 -2       412       413       554      2032      2460      2461
 -1       954    8    0    1
 -2       412       554       553      2461      2462      2457
 -1       955    8    0    1
 -2       413       414       555      2035      2463      2464
 -1       956    8    0    1
 -2       413       555       554      2464      2465      2460
 -1       957    8    0    1
 -2       414       415       556      2038      2466      2467
 -1       958    8    0    1
 -2       414       556       555      2467      2468      2463
 -1       959    8    0    1
 -2       415       416       557      2041      2469      2470
 -1       960    8    0    1
 -2       415       557       556      2470      2471      2466
 -1       961    8    0    1
 -2       416       417       558      2044      2472      2473
 -1       962    8    0    1
 -2       416       558       557      2473      2474      2469
 -1       963    8    0    1
 -2       417       418       559      2047      2475      2476
 -1       964    8    0    1
 -2       417       559       558      2476      2477      2472
 -1       965    8    0    1
 -2       418       419       560      2050      2478      2479
 -1       966    8    0    1
 -2       418       560       559      2479      2480      2475
 -1       967    8    0    1
 -2       419       420       561      2053      2481      2482
 -1       968    8    0    1
 -2       419       561       560      2482      2483      2478
 -1       969    8    0    1
 -2       420       421       562      2056      2484      2485
 -1       970    8    0    1
 -2       420       562       561      2485      2486      2481
 -1       971    8    0    1
 -2       421       422       563      2059      2487      2488
 -1       972    8    0    1
 -2       421       563       562      2488      2489      2484
 -1       973    8    0    1
 -2       422       423       564      2062      2490      2491
 -1       974    8    0    1
 -2       422       564       563      2491      2492      2487
 -1       975    8    0    1
 -2       427       428       565      2078      2493      2494
 -1       976    8    0    1
 -2       425       427       566      2075      2495      2496
 -1       977    8    0    1
 -2       427       565       566      2494      2497      2495
 -1       978    8    0    1
 -2       426       425       567      2071      2498      2499
 -1       979    8    0    1
 -2       425       566       567      2496      2500      2498
 -1       980    8    0    1
 -2       428       429       568      2081      2501      2502
 -1       981    8    0    1
 -2       428       568       565      2502      2503      2493
 -1       982    8    0    1
 -2       429       430       569      2084      2504      2505
 -1       983    8    0    1
 -2       429       569       568      2505      2506      2501
 -1       984    8    0    1
 -2       430       431       570      2087      2507      2508
 -1       985    8    0    1
 -2       430       570       569      2508      2509      2504
 -1       986    8    0    1
 -2       431       432       571      2090      2510      2511
 -1       987    8    0    1
 -2       431       571       570      2511      2512      2507
 -1       988    8    0    1
 -2       432       433       572      2093      2513      2514
 -1       989    8    0    1
 -2       432       572       571      2514      2515      2510
 -1       990    8    0    1
 -2       433       434       573      2096      2516      2517
 -1       991    8    0    1
 -2       433       573       572      2517      2518      2513
 -1       992    8    0    1
 -2       434       435       574      2099      2519      2520
 -1       993    8    0    1
 -2       434       574       573      2520      2521      2516
 -1       994    8    0    1
 -2       435       436       575      2102      2522      2523
 -1       995    8    0    1
 -2       435       575       574      2523      2524      2519
 -1       996    8    0    1
 -2       338       324       576      2175      2525      2526
 -1       997    8    0    1
 -2       482       338       576      2249      2526      2527
 -1       998    8    0    1
 -2       324       323       576      1765      2528      2525
 -1       999    8    0    1
 -2       462       463       577      2194      2529      2530
 -1      1000    8    0    1
 -2       456       312       457      2147      2150      2531
 -1      1001    8    0    1
 -2       442       443       578      2208      2532      2533
 -1      1002    8    0    1
 -2       442       578       506      2533      2534      2318
 -1      1003    8    0    1
 -2       211       467       459      2181      2218      2535
 -1      1004    8    0    1
 -2       327       328       579      1776      2536      2537
 -1      1005    8    0    1
 -2       472       327       579      2220      2537      2538
 -1      1006    8    0    1
 -2       328       474       579      2226      2539      2536
 -1      1007    8    0    1
 -2       466       361       580      2219      2540      2541
 -1      1008    8    0    1
 -2       444       445       581      2125      2542      2543
 -1      1009    8    0    1
 -2       452       453       582      2215      2544      2545
 -1      1010    8    0    1
 -2       445       446       583      2207      2546      2547
 -1      1011    8    0    1
 -2       447       448       584      2206      2548      2549
 -1      1012    8    0    1
 -2       448       449       585      2205      2550      2551
 -1      1013    8    0    1
 -2       448       585       584      2551      2552      2548
 -1      1014    8    0    1
 -2       450       451       586      2138      2553      2554
 -1      1015    8    0    1
 -2       459       460       363      2216      2555      2556
 -1      1016    8    0    1
 -2       451       452       587      2201      2557      2558
 -1      1017    8    0    1
 -2       453       454       588      2200      2559      2560
 -1      1018    8    0    1
 -2       446       447       589      2214      2561      2562
 -1      1019    8    0    1
 -2       211       459       363      2535      2556      1882
 -1      1020    8    0    1
 -2       423       426       564      2322      2563      2490
 -1      1021    8    0    1
 -2       461       462       590      2195      2564      2565
 -1      1022    8    0    1
 -2       438       464       591      2168      2566      2567
 -1      1023    8    0    1
 -2       463       362       592      2171      2568      2569
 -1      1024    8    0    1
 -2       325       473       593      2223      2570      2571
 -1      1025    8    0    1
 -2       325       593       441      2571      2572      2116
 -1      1026    8    0    1
 -2       577       463       592      2529      2569      2573
 -1      1027    8    0    1
 -2       481       337       594      2248      2574      2575
 -1      1028    8    0    1
 -2       337       437       594      2105      2576      2574
 -1      1029    8    0    1
 -2       483       465       507      2251      2321      2577
 -1      1030    8    0    1
 -2       564       426       567      2563      2499      2578
 -1      1031    8    0    1
 -2       362       483       592      2252      2579      2568
 -1      1032    8    0    1
 -2       360       504       505      2314      2580      2316
 -1      1033    8    0    1
 -2       439       506       469      2319      2581      2190
 -1      1034    8    0    1
 -2       590       462       577      2564      2530      2582
 -1      1035    8    0    1
 -2       508       365       590      2323      2583      2584
 -1      1036    8    0    1
 -2       461       590       595      2565      2585      2586
 -1      1037    8    0    1
 -2       461       595       460      2586      2587      2196
 -1      1038    8    0    1
 -2       440       466       596      2184      2588      2589
 -1      1039    8    0    1
 -2       576       323       441      2528      2115      2590
 -1      1040    8    0    1
 -2       437       380       597      2106      2591      2592
 -1      1041    8    0    1
 -2       594       437       597      2576      2592      2593
 -1      1042    8    0    1
 -2       380       524       597      2371      2594      2591
 -1      1043    8    0    1
 -2       583       446       589      2546      2562      2595
 -1      1044    8    0    1
 -2       436       468       521      2187      2363      2596
 -1      1045    8    0    1
 -2       585       449       598      2550      2597      2598
 -1      1046    8    0    1
 -2       449       470       598      2203      2599      2597
 -1      1047    8    0    1
 -2       578       443       599      2532      2600      2601
 -1      1048    8    0    1
 -2       443       471       599      2210      2602      2600
 -1      1049    8    0    1
 -2       470       450       600      2204      2603      2604
 -1      1050    8    0    1
 -2       450       586       600      2554      2605      2603
 -1      1051    8    0    1
 -2       589       447       584      2561      2549      2606
 -1      1052    8    0    1
 -2       588       454       580      2559      2607      2608
 -1      1053    8    0    1
 -2       582       453       588      2544      2560      2609
 -1      1054    8    0    1
 -2       365       364       590      1888      2610      2583
 -1      1055    8    0    1
 -2       581       445       583      2542      2547      2611
 -1      1056    8    0    1
 -2       471       444       581      2211      2543      2612
 -1      1057    8    0    1
 -2       587       452       582      2557      2545      2613
 -1      1058    8    0    1
 -2       363       460       595      2555      2587      2614
 -1      1059    8    0    1
 -2       586       451       587      2553      2558      2615
 -1      1060    8    0    1
 -2       591       464       469      2566      2192      2616
 -1      1061    8    0    1
 -2       436       521       575      2596      2617      2522
 -1      1062    8    0    1
 -2       454       455       580      2199      2618      2607
 -1      1063    8    0    1
 -2       507       438       591      2320      2567      2619
 -1      1064    8    0    1
 -2       475       476       601      2232      2620      2621
 -1      1065    8    0    1
 -2       474       475       602      2229      2622      2623
 -1      1066    8    0    1
 -2       475       601       602      2621      2624      2622
 -1      1067    8    0    1
 -2       477       478       603      2238      2625      2626
 -1      1068    8    0    1
 -2       478       479       604      2241      2627      2628
 -1      1069    8    0    1
 -2       478       604       603      2628      2629      2625
 -1      1070    8    0    1
 -2       480       481       605      2247      2630      2631
 -1      1071    8    0    1
 -2       481       594       605      2575      2632      2630
 -1      1072    8    0    1
 -2       484       482       606      2255      2633      2634
 -1      1073    8    0    1
 -2       580       361       607      2540      2635      2636
 -1      1074    8    0    1
 -2       485       484       608      2258      2637      2638
 -1      1075    8    0    1
 -2       484       606       608      2634      2639      2637
 -1      1076    8    0    1
 -2       486       485       609      2261      2640      2641
 -1      1077    8    0    1
 -2       485       608       609      2638      2642      2640
 -1      1078    8    0    1
 -2       487       486       610      2264      2643      2644
 -1      1079    8    0    1
 -2       486       609       610      2641      2645      2643
 -1      1080    8    0    1
 -2       488       487       611      2267      2646      2647
 -1      1081    8    0    1
 -2       487       610       611      2644      2648      2646
 -1      1082    8    0    1
 -2       489       488       612      2270      2649      2650
 -1      1083    8    0    1
 -2       488       611       612      2647      2651      2649
 -1      1084    8    0    1
 -2       490       489       613      2273      2652      2653
 -1      1085    8    0    1
 -2       489       612       613      2650      2654      2652
 -1      1086    8    0    1
 -2       491       490       614      2276      2655      2656
 -1      1087    8    0    1
 -2       490       613       614      2653      2657      2655
 -1      1088    8    0    1
 -2       492       491       615      2279      2658      2659
 -1      1089    8    0    1
 -2       491       614       615      2656      2660      2658
 -1      1090    8    0    1
 -2       493       492       616      2282      2661      2662
 -1      1091    8    0    1
 -2       492       615       616      2659      2663      2661
 -1      1092    8    0    1
 -2       494       493       617      2285      2664      2665
 -1      1093    8    0    1
 -2       493       616       617      2662      2666      2664
 -1      1094    8    0    1
 -2       495       494       618      2288      2667      2668
 -1      1095    8    0    1
 -2       494       617       618      2665      2669      2667
 -1      1096    8    0    1
 -2       496       495       619      2291      2670      2671
 -1      1097    8    0    1
 -2       495       618       619      2668      2672      2670
 -1      1098    8    0    1
 -2       497       496       620      2294      2673      2674
 -1      1099    8    0    1
 -2       496       619       620      2671      2675      2673
 -1      1100    8    0    1
 -2       498       497       621      2297      2676      2677
 -1      1101    8    0    1
 -2       497       620       621      2674      2678      2676
 -1      1102    8    0    1
 -2       499       498       622      2300      2679      2680
 -1      1103    8    0    1
 -2       498       621       622      2677      2681      2679
 -1      1104    8    0    1
 -2       500       499       623      2303      2682      2683
 -1      1105    8    0    1
 -2       499       622       623      2680      2684      2682
 -1      1106    8    0    1
 -2       501       500       624      2306      2685      2686
 -1      1107    8    0    1
 -2       500       623       624      2683      2687      2685
 -1      1108    8    0    1
 -2       502       501       625      2309      2688      2689
 -1      1109    8    0    1
 -2       501       624       625      2686      2690      2688
 -1      1110    8    0    1
 -2       503       502       626      2312      2691      2692
 -1      1111    8    0    1
 -2       502       625       626      2689      2693      2691
 -1      1112    8    0    1
 -2       504       503       627      2315      2694      2695
 -1      1113    8    0    1
 -2       503       626       627      2692      2696      2694
 -1      1114    8    0    1
 -2       469       506       628      2581      2697      2698
 -1      1115    8    0    1
 -2       564       567       629      2578      2699      2700
 -1      1116    8    0    1
 -2       564       629       563      2700      2701      2492
 -1      1117    8    0    1
 -2       581       583       630      2611      2702      2703
 -1      1118    8    0    1
 -2       361       505       607      2317      2704      2635
 -1      1119    8    0    1
 -2       364       363       595      2180      2614      2705
 -1      1120    8    0    1
 -2       586       587       631      2615      2706      2707
 -1      1121    8    0    1
 -2       510       509       632      2330      2708      2709
 -1      1122    8    0    1
 -2       511       510       633      2333      2710      2711
 -1      1123    8    0    1
 -2       510       632       633      2709      2712      2710
 -1      1124    8    0    1
 -2       512       511       634      2336      2713      2714
 -1      1125    8    0    1
 -2       511       633       634      2711      2715      2713
 -1      1126    8    0    1
 -2       513       512       635      2339      2716      2717
 -1      1127    8    0    1
 -2       512       634       635      2714      2718      2716
 -1      1128    8    0    1
 -2       514       513       636      2342      2719      2720
 -1      1129    8    0    1
 -2       513       635       636      2717      2721      2719
 -1      1130    8    0    1
 -2       515       514       637      2345      2722      2723
 -1      1131    8    0    1
 -2       514       636       637      2720      2724      2722
 -1      1132    8    0    1
 -2       516       515       638      2348      2725      2726
 -1      1133    8    0    1
 -2       515       637       638      2723      2727      2725
 -1      1134    8    0    1
 -2       517       516       639      2351      2728      2729
 -1      1135    8    0    1
 -2       516       638       639      2726      2730      2728
 -1      1136    8    0    1
 -2       518       517       640      2354      2731      2732
 -1      1137    8    0    1
 -2       517       639       640      2729      2733      2731
 -1      1138    8    0    1
 -2       519       518       641      2357      2734      2735
 -1      1139    8    0    1
 -2       518       640       641      2732      2736      2734
 -1      1140    8    0    1
 -2       520       519       642      2360      2737      2738
 -1      1141    8    0    1
 -2       519       641       642      2735      2739      2737
 -1      1142    8    0    1
 -2       521       520       575      2364      2740      2617
 -1      1143    8    0    1
 -2       523       522       643      2369      2741      2742
 -1      1144    8    0    1
 -2       522       525       644      2375      2743      2744
 -1      1145    8    0    1
 -2       522       644       643      2744      2745      2741
 -1      1146    8    0    1
 -2       524       523       645      2372      2746      2747
 -1      1147    8    0    1
 -2       523       643       645      2742      2748      2746
 -1      1148    8    0    1
 -2       526       527       646      2381      2749      2750
 -1      1149    8    0    1
 -2       527       528       647      2384      2751      2752
 -1      1150    8    0    1
 -2       527       647       646      2752      2753      2749
 -1      1151    8    0    1
 -2       528       529       648      2387      2754      2755
 -1      1152    8    0    1
 -2       528       648       647      2755      2756      2751
 -1      1153    8    0    1
 -2       529       530       649      2390      2757      2758
 -1      1154    8    0    1
 -2       529       649       648      2758      2759      2754
 -1      1155    8    0    1
 -2       530       531       650      2393      2760      2761
 -1      1156    8    0    1
 -2       530       650       649      2761      2762      2757
 -1      1157    8    0    1
 -2       531       532       651      2396      2763      2764
 -1      1158    8    0    1
 -2       531       651       650      2764      2765      2760
 -1      1159    8    0    1
 -2       532       533       652      2399      2766      2767
 -1      1160    8    0    1
 -2       532       652       651      2767      2768      2763
 -1      1161    8    0    1
 -2       533       534       653      2402      2769      2770
 -1      1162    8    0    1
 -2       533       653       652      2770      2771      2766
 -1      1163    8    0    1
 -2       534       535       654      2405      2772      2773
 -1      1164    8    0    1
 -2       534       654       653      2773      2774      2769
 -1      1165    8    0    1
 -2       535       536       655      2408      2775      2776
 -1      1166    8    0    1
 -2       535       655       654      2776      2777      2772
 -1      1167    8    0    1
 -2       536       537       656      2411      2778      2779
 -1      1168    8    0    1
 -2       536       656       655      2779      2780      2775
 -1      1169    8    0    1
 -2       537       538       657      2414      2781      2782
 -1      1170    8    0    1
 -2       537       657       656      2782      2783      2778
 -1      1171    8    0    1
 -2       538       539       658      2417      2784      2785
 -1      1172    8    0    1
 -2       538       658       657      2785      2786      2781
 -1      1173    8    0    1
 -2       539       540       659      2420      2787      2788
 -1      1174    8    0    1
 -2       539       659       658      2788      2789      2784
 -1      1175    8    0    1
 -2       540       541       660      2423      2790      2791
 -1      1176    8    0    1
 -2       540       660       659      2791      2792      2787
 -1      1177    8    0    1
 -2       541       542       661      2426      2793      2794
 -1      1178    8    0    1
 -2       541       661       660      2794      2795      2790
 -1      1179    8    0    1
 -2       542       543       662      2429      2796      2797
 -1      1180    8    0    1
 -2       542       662       661      2797      2798      2793
 -1      1181    8    0    1
 -2       543       544       663      2432      2799      2800
 -1      1182    8    0    1
 -2       543       663       662      2800      2801      2796
 -1      1183    8    0    1
 -2       544       545       664      2435      2802      2803
 -1      1184    8    0    1
 -2       544       664       663      2803      2804      2799
 -1      1185    8    0    1
 -2       545       546       665      2438      2805      2806
 -1      1186    8    0    1
 -2       545       665       664      2806      2807      2802
 -1      1187    8    0    1
 -2       546       547       666      2441      2808      2809
 -1      1188    8    0    1
 -2       546       666       665      2809      2810      2805
 -1      1189    8    0    1
 -2       547       548       667      2444      2811      2812
 -1      1190    8    0    1
 -2       547       667       666      2812      2813      2808
 -1      1191    8    0    1
 -2       548       549       668      2447      2814      2815
 -1      1192    8    0    1
 -2       548       668       667      2815      2816      2811
 -1      1193    8    0    1
 -2       549       550       669      2450      2817      2818
 -1      1194    8    0    1
 -2       549       669       668      2818      2819      2814
 -1      1195    8    0    1
 -2       550       551       670      2453      2820      2821
 -1      1196    8    0    1
 -2       550       670       669      2821      2822      2817
 -1      1197    8    0    1
 -2       551       552       671      2456      2823      2824
 -1      1198    8    0    1
 -2       551       671       670      2824      2825      2820
 -1      1199    8    0    1
 -2       552       553       672      2459      2826      2827
 -1      1200    8    0    1
 -2       552       672       671      2827      2828      2823
 -1      1201    8    0    1
 -2       553       554       673      2462      2829      2830
 -1      1202    8    0    1
 -2       553       673       672      2830      2831      2826
 -1      1203    8    0    1
 -2       554       555       674      2465      2832      2833
 -1      1204    8    0    1
 -2       554       674       673      2833      2834      2829
 -1      1205    8    0    1
 -2       555       556       675      2468      2835      2836
 -1      1206    8    0    1
 -2       555       675       674      2836      2837      2832
 -1      1207    8    0    1
 -2       556       557       676      2471      2838      2839
 -1      1208    8    0    1
 -2       556       676       675      2839      2840      2835
 -1      1209    8    0    1
 -2       557       558       677      2474      2841      2842
 -1      1210    8    0    1
 -2       557       677       676      2842      2843      2838
 -1      1211    8    0    1
 -2       558       559       678      2477      2844      2845
 -1      1212    8    0    1
 -2       558       678       677      2845      2846      2841
 -1      1213    8    0    1
 -2       559       560       679      2480      2847      2848
 -1      1214    8    0    1
 -2       559       679       678      2848      2849      2844
 -1      1215    8    0    1
 -2       560       561       680      2483      2850      2851
 -1      1216    8    0    1
 -2       560       680       679      2851      2852      2847
 -1      1217    8    0    1
 -2       561       562       681      2486      2853      2854
 -1      1218    8    0    1
 -2       561       681       680      2854      2855      2850
 -1      1219    8    0    1
 -2       562       563       682      2489      2856      2857
 -1      1220    8    0    1
 -2       681       562       682      2853      2857      2858
 -1      1221    8    0    1
 -2       563       629       682      2701      2859      2856
 -1      1222    8    0    1
 -2       592       483       683      2579      2860      2861
 -1      1223    8    0    1
 -2       568       569       684      2506      2862      2863
 -1      1224    8    0    1
 -2       583       589       685      2595      2864      2865
 -1      1225    8    0    1
 -2       565       568       686      2503      2866      2867
 -1      1226    8    0    1
 -2       568       684       686      2863      2868      2866
 -1      1227    8    0    1
 -2       567       566       629      2500      2869      2699
 -1      1228    8    0    1
 -2       569       570       687      2509      2870      2871
 -1      1229    8    0    1
 -2       569       687       684      2871      2872      2862
 -1      1230    8    0    1
 -2       576       441       593      2590      2572      2873
 -1      1231    8    0    1
 -2       525       526       688      2378      2874      2875
 -1      1232    8    0    1
 -2       644       525       688      2743      2875      2876
 -1      1233    8    0    1
 -2       526       646       688      2750      2877      2874
 -1      1234    8    0    1
 -2       570       571       689      2512      2878      2879
 -1      1235    8    0    1
 -2       570       689       687      2879      2880      2870
 -1      1236    8    0    1
 -2       571       572       690      2515      2881      2882
 -1      1237    8    0    1
 -2       571       690       689      2882      2883      2878
 -1      1238    8    0    1
 -2       572       573       691      2518      2884      2885
 -1      1239    8    0    1
 -2       572       691       690      2885      2886      2881
 -1      1240    8    0    1
 -2       573       574       692      2521      2887      2888
 -1      1241    8    0    1
 -2       573       692       691      2888      2889      2884
 -1      1242    8    0    1
 -2       483       507       693      2577      2890      2891
 -1      1243    8    0    1
 -2       457       440       456      2193      2892      2531
 -1      1244    8    0    1
 -2       507       591       694      2619      2893      2894
 -1      1245    8    0    1
 -2       577       592       695      2573      2895      2896
 -1      1246    8    0    1
 -2       587       582       696      2613      2897      2898
 -1      1247    8    0    1
 -2       589       584       697      2606      2899      2900
 -1      1248    8    0    1
 -2       471       581       698      2612      2901      2902
 -1      1249    8    0    1
 -2       588       580       607      2608      2636      2903
 -1      1250    8    0    1
 -2       584       585       699      2552      2904      2905
 -1      1251    8    0    1
 -2       584       699       697      2905      2906      2899
 -1      1252    8    0    1
 -2       364       595       590      2705      2585      2610
 -1      1253    8    0    1
 -2       456       440       596      2892      2589      2907
 -1      1254    8    0    1
 -2       575       520       642      2740      2738      2908
 -1      1255    8    0    1
 -2       588       607       700      2903      2909      2910
 -1      1256    8    0    1
 -2       588       700       582      2910      2911      2609
 -1      1257    8    0    1
 -2       566       565       701      2497      2912      2913
 -1      1258    8    0    1
 -2       565       686       701      2867      2914      2912
 -1      1259    8    0    1
 -2       591       469       702      2616      2915      2916
 -1      1260    8    0    1
 -2       469       628       702      2698      2917      2915
 -1      1261    8    0    1
 -2       506       578       703      2534      2918      2919
 -1      1262    8    0    1
 -2       509       508       704      2327      2920      2921
 -1      1263    8    0    1
 -2       509       704       632      2921      2922      2708
 -1      1264    8    0    1
 -2       473       472       705      2224      2923      2924
 -1      1265    8    0    1
 -2       476       477       706      2235      2925      2926
 -1      1266    8    0    1
 -2       601       476       706      2620      2926      2927
 -1      1267    8    0    1
 -2       477       603       706      2626      2928      2925
 -1      1268    8    0    1
 -2       474       602       707      2623      2929      2930
 -1      1269    8    0    1
 -2       474       707       579      2930      2931      2539
 -1      1270    8    0    1
 -2       480       605       479      2631      2932      2244
 -1      1271    8    0    1
 -2       472       579       708      2538      2933      2934
 -1      1272    8    0    1
 -2       705       472       708      2923      2934      2935
 -1      1273    8    0    1
 -2       579       707       708      2931      2936      2933
 -1      1274    8    0    1
 -2       506       703       628      2919      2937      2697
 -1      1275    8    0    1
 -2       592       683       695      2861      2938      2895
 -1      1276    8    0    1
 -2       630       583       685      2702      2865      2939
 -1      1277    8    0    1
 -2       607       505       700      2704      2940      2909
 -1      1278    8    0    1
 -2       473       705       709      2924      2941      2942
 -1      1279    8    0    1
 -2       473       709       593      2942      2943      2570
 -1      1280    8    0    1
 -2       631       587       696      2706      2898      2944
 -1      1281    8    0    1
 -2       582       700       696      2911      2945      2897
 -1      1282    8    0    1
 -2       585       598       710      2598      2946      2947
 -1      1283    8    0    1
 -2       585       710       699      2947      2948      2904
 -1      1284    8    0    1
 -2       524       645       711      2747      2949      2950
 -1      1285    8    0    1
 -2       683       483       693      2860      2891      2951
 -1      1286    8    0    1
 -2       576       593       712      2873      2952      2953
 -1      1287    8    0    1
 -2       482       576       712      2527      2953      2954
 -1      1288    8    0    1
 -2       593       709       712      2943      2955      2952
 -1      1289    8    0    1
 -2       581       630       713      2703      2956      2957
 -1      1290    8    0    1
 -2       581       713       698      2957      2958      2901
 -1      1291    8    0    1
 -2       629       566       701      2869      2913      2959
 -1      1292    8    0    1
 -2       700       505       714      2940      2960      2961
 -1      1293    8    0    1
 -2       696       700       714      2945      2961      2962
 -1      1294    8    0    1
 -2       505       504       714      2580      2963      2960
 -1      1295    8    0    1
 -2       591       702       694      2916      2964      2893
 -1      1296    8    0    1
 -2       482       712       606      2954      2965      2633
 -1      1297    8    0    1
 -2       693       507       694      2890      2894      2966
 -1      1298    8    0    1
 -2       574       575       715      2524      2967      2968
 -1      1299    8    0    1
 -2       597       524       711      2594      2950      2969
 -1      1300    8    0    1
 -2       704       508       695      2920      2970      2971
 -1      1301    8    0    1
 -2       574       715       692      2968      2972      2887
 -1      1302    8    0    1
 -2       598       470       716      2599      2973      2974
 -1      1303    8    0    1
 -2       470       600       716      2604      2975      2973
 -1      1304    8    0    1
 -2       599       471       698      2602      2902      2976
 -1      1305    8    0    1
 -2       600       586       717      2605      2977      2978
 -1      1306    8    0    1
 -2       586       631       717      2707      2979      2977
 -1      1307    8    0    1
 -2       578       599       718      2601      2980      2981
 -1      1308    8    0    1
 -2       578       718       703      2981      2982      2918
 -1      1309    8    0    1
 -2       479       605       604      2932      2983      2627
 -1      1310    8    0    1
 -2       685       589       719      2864      2984      2985
 -1      1311    8    0    1
 -2       589       697       719      2900      2986      2984
 -1      1312    8    0    1
 -2       575       642       715      2908      2987      2967
 -1      1313    8    0    1
 -2       504       627       714      2695      2988      2963
 -1      1314    8    0    1
 -2       603       604       720      2629      2989      2990
 -1      1315    8    0    1
 -2       605       594       597      2632      2593      2991
 -1      1316    8    0    1
 -2       693       694       721      2966      2992      2993
 -1      1317    8    0    1
 -2       697       699       722      2906      2994      2995
 -1      1318    8    0    1
 -2       609       608       723      2642      2996      2997
 -1      1319    8    0    1
 -2       610       609       724      2645      2998      2999
 -1      1320    8    0    1
 -2       609       723       724      2997      3000      2998
 -1      1321    8    0    1
 -2       611       610       725      2648      3001      3002
 -1      1322    8    0    1
 -2       610       724       725      2999      3003      3001
 -1      1323    8    0    1
 -2       612       611       726      2651      3004      3005
 -1      1324    8    0    1
 -2       611       725       726      3002      3006      3004
 -1      1325    8    0    1
 -2       613       612       727      2654      3007      3008
 -1      1326    8    0    1
 -2       612       726       727      3005      3009      3007
 -1      1327    8    0    1
 -2       614       613       728      2657      3010      3011
 -1      1328    8    0    1
 -2       613       727       728      3008      3012      3010
 -1      1329    8    0    1
 -2       615       614       729      2660      3013      3014
 -1      1330    8    0    1
 -2       614       728       729      3011      3015      3013
 -1      1331    8    0    1
 -2       616       615       730      2663      3016      3017
 -1      1332    8    0    1
 -2       615       729       730      3014      3018      3016
 -1      1333    8    0    1
 -2       617       616       731      2666      3019      3020
 -1      1334    8    0    1
 -2       616       730       731      3017      3021      3019
 -1      1335    8    0    1
 -2       618       617       732      2669      3022      3023
 -1      1336    8    0    1
 -2       617       731       732      3020      3024      3022
 -1      1337    8    0    1
 -2       619       618       733      2672      3025      3026
 -1      1338    8    0    1
 -2       618       732       733      3023      3027      3025
 -1      1339    8    0    1
 -2       620       619       734      2675      3028      3029
 -1      1340    8    0    1
 -2       619       733       734      3026      3030      3028
 -1      1341    8    0    1
 -2       621       620       735      2678      3031      3032
 -1      1342    8    0    1
 -2       620       734       735      3029      3033      3031
 -1      1343    8    0    1
 -2       622       621       736      2681      3034      3035
 -1      1344    8    0    1
 -2       621       735       736      3032      3036      3034
 -1      1345    8    0    1
 -2       623       622       737      2684      3037      3038
 -1      1346    8    0    1
 -2       622       736       737      3035      3039      3037
 -1      1347    8    0    1
 -2       624       623       738      2687      3040      3041
 -1      1348    8    0    1
 -2       623       737       738      3038      3042      3040
 -1      1349    8    0    1
 -2       625       624       739      2690      3043      3044
 -1      1350    8    0    1
 -2       624       738       739      3041      3045      3043
 -1      1351    8    0    1
 -2       626       625       740      2693      3046      3047
 -1      1352    8    0    1
 -2       625       739       740      3044      3048      3046
 -1      1353    8    0    1
 -2       627       626       741      2696      3049      3050
 -1      1354    8    0    1
 -2       626       740       741      3047      3051      3049
 -1      1355    8    0    1
 -2       695       683       704      2938      3052      2971
 -1      1356    8    0    1
 -2       711       645       742      2949      3053      3054
 -1      1357    8    0    1
 -2       634       633       743      2715      3055      3056
 -1      1358    8    0    1
 -2       635       634       744      2718      3057      3058
 -1      1359    8    0    1
 -2       634       743       744      3056      3059      3057
 -1      1360    8    0    1
 -2       636       635       745      2721      3060      3061
 -1      1361    8    0    1
 -2       635       744       745      3058      3062      3060
 -1      1362    8    0    1
 -2       637       636       746      2724      3063      3064
 -1      1363    8    0    1
 -2       636       745       746      3061      3065      3063
 -1      1364    8    0    1
 -2       638       637       747      2727      3066      3067
 -1      1365    8    0    1
 -2       637       746       747      3064      3068      3066
 -1      1366    8    0    1
 -2       639       638       748      2730      3069      3070
 -1      1367    8    0    1
 -2       638       747       748      3067      3071      3069
 -1      1368    8    0    1
 -2       640       639       749      2733      3072      3073
 -1      1369    8    0    1
 -2       639       748       749      3070      3074      3072
 -1      1370    8    0    1
 -2       641       640       750      2736      3075      3076
 -1      1371    8    0    1
 -2       640       749       750      3073      3077      3075
 -1      1372    8    0    1
 -2       642       641       751      2739      3078      3079
 -1      1373    8    0    1
 -2       715       642       751      2987      3079      3080
 -1      1374    8    0    1
 -2       641       750       751      3076      3081      3078
 -1      1375    8    0    1
 -2       690       691       752      2886      3082      3083
 -1      1376    8    0    1
 -2       683       693       753      2951      3084      3085
 -1      1377    8    0    1
 -2       693       721       753      2993      3086      3084
 -1      1378    8    0    1
 -2       643       644       754      2745      3087      3088
 -1      1379    8    0    1
 -2       645       643       755      2748      3089      3090
 -1      1380    8    0    1
 -2       742       645       755      3053      3090      3091
 -1      1381    8    0    1
 -2       643       754       755      3088      3092      3089
 -1      1382    8    0    1
 -2       647       648       756      2756      3093      3094
 -1      1383    8    0    1
 -2       646       647       757      2753      3095      3096
 -1      1384    8    0    1
 -2       647       756       757      3094      3097      3095
 -1      1385    8    0    1
 -2       649       650       758      2762      3098      3099
 -1      1386    8    0    1
 -2       650       651       759      2765      3100      3101
 -1      1387    8    0    1
 -2       650       759       758      3101      3102      3098
 -1      1388    8    0    1
 -2       651       652       760      2768      3103      3104
 -1      1389    8    0    1
 -2       651       760       759      3104      3105      3100
 -1      1390    8    0    1
 -2       652       653       761      2771      3106      3107
 -1      1391    8    0    1
 -2       652       761       760      3107      3108      3103
 -1      1392    8    0    1
 -2       653       654       762      2774      3109      3110
 -1      1393    8    0    1
 -2       653       762       761      3110      3111      3106
 -1      1394    8    0    1
 -2       654       655       763      2777      3112      3113
 -1      1395    8    0    1
 -2       654       763       762      3113      3114      3109
 -1      1396    8    0    1
 -2       655       656       764      2780      3115      3116
 -1      1397    8    0    1
 -2       655       764       763      3116      3117      3112
 -1      1398    8    0    1
 -2       656       657       765      2783      3118      3119
 -1      1399    8    0    1
 -2       656       765       764      3119      3120      3115
 -1      1400    8    0    1
 -2       657       658       766      2786      3121      3122
 -1      1401    8    0    1
 -2       657       766       765      3122      3123      3118
 -1      1402    8    0    1
 -2       658       659       767      2789      3124      3125
 -1      1403    8    0    1
 -2       658       767       766      3125      3126      3121
 -1      1404    8    0    1
 -2       659       660       768      2792      3127      3128
 -1      1405    8    0    1
 -2       659       768       767      3128      3129      3124
 -1      1406    8    0    1
 -2       660       661       769      2795      3130      3131
 -1      1407    8    0    1
 -2       660       769       768      3131      3132      3127
 -1      1408    8    0    1
 -2       661       662       770      2798      3133      3134
 -1      1409    8    0    1
 -2       661       770       769      3134      3135      3130
 -1      1410    8    0    1
 -2       662       663       771      2801      3136      3137
 -1      1411    8    0    1
 -2       662       771       770      3137      3138      3133
 -1      1412    8    0    1
 -2       663       664       772      2804      3139      3140
 -1      1413    8    0    1
 -2       663       772       771      3140      3141      3136
 -1      1414    8    0    1
 -2       664       665       773      2807      3142      3143
 -1      1415    8    0    1
 -2       664       773       772      3143      3144      3139
 -1      1416    8    0    1
 -2       665       666       774      2810      3145      3146
 -1      1417    8    0    1
 -2       665       774       773      3146      3147      3142
 -1      1418    8    0    1
 -2       666       667       775      2813      3148      3149
 -1      1419    8    0    1
 -2       666       775       774      3149      3150      3145
 -1      1420    8    0    1
 -2       667       668       776      2816      3151      3152
 -1      1421    8    0    1
 -2       667       776       775      3152      3153      3148
 -1      1422    8    0    1
 -2       668       669       777      2819      3154      3155
 -1      1423    8    0    1
 -2       668       777       776      3155      3156      3151
 -1      1424    8    0    1
 -2       669       670       778      2822      3157      3158
 -1      1425    8    0    1
 -2       669       778       777      3158      3159      3154
 -1      1426    8    0    1
 -2       670       671       779      2825      3160      3161
 -1      1427    8    0    1
 -2       670       779       778      3161      3162      3157
 -1      1428    8    0    1
 -2       671       672       780      2828      3163      3164
 -1      1429    8    0    1
 -2       671       780       779      3164      3165      3160
 -1      1430    8    0    1
 -2       672       673       781      2831      3166      3167
 -1      1431    8    0    1
 -2       672       781       780      3167      3168      3163
 -1      1432    8    0    1
 -2       673       674       782      2834      3169      3170
 -1      1433    8    0    1
 -2       673       782       781      3170      3171      3166
 -1      1434    8    0    1
 -2       674       675       783      2837      3172      3173
 -1      1435    8    0    1
 -2       674       783       782      3173      3174      3169
 -1      1436    8    0    1
 -2       675       676       784      2840      3175      3176
 -1      1437    8    0    1
 -2       675       784       783      3176      3177      3172
 -1      1438    8    0    1
 -2       676       677       785      2843      3178      3179
 -1      1439    8    0    1
 -2       676       785       784      3179      3180      3175
 -1      1440    8    0    1
 -2       677       678       786      2846      3181      3182
 -1      1441    8    0    1
 -2       677       786       785      3182      3183      3178
 -1      1442    8    0    1
 -2       678       679       787      2849      3184      3185
 -1      1443    8    0    1
 -2       678       787       786      3185      3186      3181
 -1      1444    8    0    1
 -2       679       680       788      2852      3187      3188
 -1      1445    8    0    1
 -2       679       788       787      3188      3189      3184
 -1      1446    8    0    1
 -2       680       681       789      2855      3190      3191
 -1      1447    8    0    1
 -2       680       789       788      3191      3192      3187
 -1      1448    8    0    1
 -2       689       690       790      2883      3193      3194
 -1      1449    8    0    1
 -2       690       752       790      3083      3195      3193
 -1      1450    8    0    1
 -2       630       685       791      2939      3196      3197
 -1      1451    8    0    1
 -2       691       692       792      2889      3198      3199
 -1      1452    8    0    1
 -2       691       792       752      3199      3200      3082
 -1      1453    8    0    1
 -2       714       627       793      2988      3201      3202
 -1      1454    8    0    1
 -2       627       741       793      3050      3203      3201
 -1      1455    8    0    1
 -2       597       711       605      2969      3204      2991
 -1      1456    8    0    1
 -2       692       715       751      2972      3080      3205
 -1      1457    8    0    1
 -2       590       577       794      2582      3206      3207
 -1      1458    8    0    1
 -2       606       712       795      2965      3208      3209
 -1      1459    8    0    1
 -2       608       606       795      2639      3209      3210
 -1      1460    8    0    1
 -2       712       709       795      2955      3211      3208
 -1      1461    8    0    1
 -2       577       695       794      2896      3212      3206
 -1      1462    8    0    1
 -2       696       714       793      2962      3202      3213
 -1      1463    8    0    1
 -2       629       701       796      2959      3214      3215
 -1      1464    8    0    1
 -2       629       796       682      3215      3216      2859
 -1      1465    8    0    1
 -2       686       684       797      2868      3217      3218
 -1      1466    8    0    1
 -2       648       649       798      2759      3219      3220
 -1      1467    8    0    1
 -2       756       648       798      3093      3220      3221
 -1      1468    8    0    1
 -2       649       758       798      3099      3222      3219
 -1      1469    8    0    1
 -2       633       632       799      2712      3223      3224
 -1      1470    8    0    1
 -2       633       799       743      3224      3225      3055
 -1      1471    8    0    1
 -2       599       698       800      2976      3226      3227
 -1      1472    8    0    1
 -2       599       800       718      3227      3228      2980
 -1      1473    8    0    1
 -2       684       687       801      2872      3229      3230
 -1      1474    8    0    1
 -2       684       801       797      3230      3231      3217
 -1      1475    8    0    1
 -2       701       686       802      2914      3232      3233
 -1      1476    8    0    1
 -2       796       701       802      3214      3233      3234
 -1      1477    8    0    1
 -2       686       797       802      3218      3235      3232
 -1      1478    8    0    1
 -2       702       628       803      2917      3236      3237
 -1      1479    8    0    1
 -2       604       605       711      2983      3204      3238
 -1      1480    8    0    1
 -2       602       601       804      2624      3239      3240
 -1      1481    8    0    1
 -2       632       704       805      2922      3241      3242
 -1      1482    8    0    1
 -2       455       456       596      2198      2907      3243
 -1      1483    8    0    1
 -2       631       696       793      2944      3213      3244
 -1      1484    8    0    1
 -2       694       702       806      2964      3245      3246
 -1      1485    8    0    1
 -2       628       703       807      2937      3247      3248
 -1      1486    8    0    1
 -2       687       689       808      2880      3249      3250
 -1      1487    8    0    1
 -2       689       790       808      3194      3251      3249
 -1      1488    8    0    1
 -2       704       683       805      3052      3252      3241
 -1      1489    8    0    1
 -2       692       751       792      3205      3253      3198
 -1      1490    8    0    1
 -2       721       694       809      2992      3254      3255
 -1      1491    8    0    1
 -2       694       806       809      3246      3256      3254
 -1      1492    8    0    1
 -2       705       708       810      2935      3257      3258
 -1      1493    8    0    1
 -2       697       722       719      2995      3259      2986
 -1      1494    8    0    1
 -2       602       804       811      3240      3260      3261
 -1      1495    8    0    1
 -2       602       811       707      3261      3262      2929
 -1      1496    8    0    1
 -2       466       580       812      2541      3263      3264
 -1      1497    8    0    1
 -2       799       632       805      3223      3242      3265
 -1      1498    8    0    1
 -2       706       603       813      2928      3266      3267
 -1      1499    8    0    1
 -2       603       720       813      2990      3268      3266
 -1      1500    8    0    1
 -2       709       705       814      2941      3269      3270
 -1      1501    8    0    1
 -2       705       810       814      3258      3271      3269
 -1      1502    8    0    1
 -2       710       598       815      2946      3272      3273
 -1      1503    8    0    1
 -2       598       716       815      2974      3274      3272
 -1      1504    8    0    1
 -2       698       713       816      2958      3275      3276
 -1      1505    8    0    1
 -2       698       816       800      3276      3277      3226
 -1      1506    8    0    1
 -2       630       791       817      3197      3278      3279
 -1      1507    8    0    1
 -2       630       817       713      3279      3280      2956
 -1      1508    8    0    1
 -2       683       753       805      3085      3281      3252
 -1      1509    8    0    1
 -2       754       644       818      3087      3282      3283
 -1      1510    8    0    1
 -2       644       688       818      2876      3284      3282
 -1      1511    8    0    1
 -2       646       757       819      3096      3285      3286
 -1      1512    8    0    1
 -2       646       819       688      3286      3287      2877
 -1      1513    8    0    1
 -2       681       682       820      2858      3288      3289
 -1      1514    8    0    1
 -2       789       681       820      3190      3289      3290
 -1      1515    8    0    1
 -2       682       796       820      3216      3291      3288
 -1      1516    8    0    1
 -2       702       803       821      3237      3292      3293
 -1      1517    8    0    1
 -2       702       821       806      3293      3294      3245
 -1      1518    8    0    1
 -2       596       466       812      2588      3264      3295
 -1      1519    8    0    1
 -2       791       685       822      3196      3296      3297
 -1      1520    8    0    1
 -2       685       719       822      2985      3298      3296
 -1      1521    8    0    1
 -2       699       710       823      2948      3299      3300
 -1      1522    8    0    1
 -2       699       823       722      3300      3301      2994
 -1      1523    8    0    1
 -2       608       795       723      3210      3302      2996
 -1      1524    8    0    1
 -2       716       600       824      2975      3303      3304
 -1      1525    8    0    1
 -2       600       717       824      2978      3305      3303
 -1      1526    8    0    1
 -2       803       628       807      3236      3248      3306
 -1      1527    8    0    1
 -2       801       687       808      3229      3250      3307
 -1      1528    8    0    1
 -2       703       718       825      2982      3308      3309
 -1      1529    8    0    1
 -2       703       825       807      3309      3310      3247
 -1      1530    8    0    1
 -2       711       742       720      3054      3311      3312
 -1      1531    8    0    1
 -2       604       711       720      3238      3312      2989
 -1      1532    8    0    1
 -2       804       601       826      3239      3313      3314
 -1      1533    8    0    1
 -2       601       706       826      2927      3315      3313
 -1      1534    8    0    1
 -2       631       793       827      3244      3316      3317
 -1      1535    8    0    1
 -2       631       827       717      3317      3318      2979
 -1      1536    8    0    1
 -2       708       707       828      2936      3319      3320
 -1      1537    8    0    1
 -2       708       828       810      3320      3321      3257
 -1      1538    8    0    1
 -2       719       722       829      3259      3322      3323
 -1      1539    8    0    1
 -2       799       805       830      3265      3324      3325
 -1      1540    8    0    1
 -2       805       753       830      3281      3326      3324
 -1      1541    8    0    1
 -2       725       724       831      3003      3327      3328
 -1      1542    8    0    1
 -2       726       725       832      3006      3329      3330
 -1      1543    8    0    1
 -2       725       831       832      3328      3331      3329
 -1      1544    8    0    1
 -2       727       726       833      3009      3332      3333
 -1      1545    8    0    1
 -2       726       832       833      3330      3334      3332
 -1      1546    8    0    1
 -2       728       727       834      3012      3335      3336
 -1      1547    8    0    1
 -2       727       833       834      3333      3337      3335
 -1      1548    8    0    1
 -2       729       728       835      3015      3338      3339
 -1      1549    8    0    1
 -2       728       834       835      3336      3340      3338
 -1      1550    8    0    1
 -2       730       729       836      3018      3341      3342
 -1      1551    8    0    1
 -2       729       835       836      3339      3343      3341
 -1      1552    8    0    1
 -2       731       730       837      3021      3344      3345
 -1      1553    8    0    1
 -2       730       836       837      3342      3346      3344
 -1      1554    8    0    1
 -2       732       731       838      3024      3347      3348
 -1      1555    8    0    1
 -2       731       837       838      3345      3349      3347
 -1      1556    8    0    1
 -2       733       732       839      3027      3350      3351
 -1      1557    8    0    1
 -2       732       838       839      3348      3352      3350
 -1      1558    8    0    1
 -2       734       733       840      3030      3353      3354
 -1      1559    8    0    1
 -2       733       839       840      3351      3355      3353
 -1      1560    8    0    1
 -2       735       734       841      3033      3356      3357
 -1      1561    8    0    1
 -2       734       840       841      3354      3358      3356
 -1      1562    8    0    1
 -2       736       735       842      3036      3359      3360
 -1      1563    8    0    1
 -2       735       841       842      3357      3361      3359
 -1      1564    8    0    1
 -2       737       736       843      3039      3362      3363
 -1      1565    8    0    1
 -2       736       842       843      3360      3364      3362
 -1      1566    8    0    1
 -2       738       737       844      3042      3365      3366
 -1      1567    8    0    1
 -2       737       843       844      3363      3367      3365
 -1      1568    8    0    1
 -2       739       738       845      3045      3368      3369
 -1      1569    8    0    1
 -2       738       844       845      3366      3370      3368
 -1      1570    8    0    1
 -2       740       739       846      3048      3371      3372
 -1      1571    8    0    1
 -2       739       845       846      3369      3373      3371
 -1      1572    8    0    1
 -2       741       740       847      3051      3374      3375
 -1      1573    8    0    1
 -2       740       846       847      3372      3376      3374
 -1      1574    8    0    1
 -2       718       800       848      3228      3377      3378
 -1      1575    8    0    1
 -2       745       744       849      3062      3379      3380
 -1      1576    8    0    1
 -2       746       745       850      3065      3381      3382
 -1      1577    8    0    1
 -2       745       849       850      3380      3383      3381
 -1      1578    8    0    1
 -2       747       746       851      3068      3384      3385
 -1      1579    8    0    1
 -2       746       850       851      3382      3386      3384
 -1      1580    8    0    1
 -2       748       747       852      3071      3387      3388
 -1      1581    8    0    1
 -2       747       851       852      3385      3389      3387
 -1      1582    8    0    1
 -2       749       748       853      3074      3390      3391
 -1      1583    8    0    1
 -2       748       852       853      3388      3392      3390
 -1      1584    8    0    1
 -2       750       749       854      3077      3393      3394
 -1      1585    8    0    1
 -2       749       853       854      3391      3395      3393
 -1      1586    8    0    1
 -2       751       750       855      3081      3396      3397
 -1      1587    8    0    1
 -2       792       751       855      3253      3397      3398
 -1      1588    8    0    1
 -2       750       854       855      3394      3399      3396
 -1      1589    8    0    1
 -2       753       721       856      3086      3400      3401
 -1      1590    8    0    1
 -2       830       753       856      3326      3401      3402
 -1      1591    8    0    1
 -2       721       809       856      3255      3403      3400
 -1      1592    8    0    1
 -2       757       756       857      3097      3404      3405
 -1      1593    8    0    1
 -2       759       760       858      3105      3406      3407
 -1      1594    8    0    1
 -2       758       759       859      3102      3408      3409
 -1      1595    8    0    1
 -2       759       858       859      3407      3410      3408
 -1      1596    8    0    1
 -2       761       762       860      3111      3411      3412
 -1      1597    8    0    1
 -2       762       763       861      3114      3413      3414
 -1      1598    8    0    1
 -2       762       861       860      3414      3415      3411
 -1      1599    8    0    1
 -2       763       764       862      3117      3416      3417
 -1      1600    8    0    1
 -2       763       862       861      3417      3418      3413
 -1      1601    8    0    1
 -2       764       765       863      3120      3419      3420
 -1      1602    8    0    1
 -2       764       863       862      3420      3421      3416
 -1      1603    8    0    1
 -2       765       766       864      3123      3422      3423
 -1      1604    8    0    1
 -2       765       864       863      3423      3424      3419
 -1      1605    8    0    1
 -2       766       767       865      3126      3425      3426
 -1      1606    8    0    1
 -2       766       865       864      3426      3427      3422
 -1      1607    8    0    1
 -2       767       768       866      3129      3428      3429
 -1      1608    8    0    1
 -2       767       866       865      3429      3430      3425
 -1      1609    8    0    1
 -2       768       769       867      3132      3431      3432
 -1      1610    8    0    1
 -2       768       867       866      3432      3433      3428
 -1      1611    8    0    1
 -2       769       770       868      3135      3434      3435
 -1      1612    8    0    1
 -2       769       868       867      3435      3436      3431
 -1      1613    8    0    1
 -2       770       771       869      3138      3437      3438
 -1      1614    8    0    1
 -2       770       869       868      3438      3439      3434
 -1      1615    8    0    1
 -2       771       772       870      3141      3440      3441
 -1      1616    8    0    1
 -2       771       870       869      3441      3442      3437
 -1      1617    8    0    1
 -2       772       773       871      3144      3443      3444
 -1      1618    8    0    1
 -2       772       871       870      3444      3445      3440
 -1      1619    8    0    1
 -2       773       774       872      3147      3446      3447
 -1      1620    8    0    1
 -2       773       872       871      3447      3448      3443
 -1      1621    8    0    1
 -2       774       775       873      3150      3449      3450
 -1      1622    8    0    1
 -2       774       873       872      3450      3451      3446
 -1      1623    8    0    1
 -2       775       776       874      3153      3452      3453
 -1      1624    8    0    1
 -2       775       874       873      3453      3454      3449
 -1      1625    8    0    1
 -2       776       777       875      3156      3455      3456
 -1      1626    8    0    1
 -2       776       875       874      3456      3457      3452
 -1      1627    8    0    1
 -2       777       778       876      3159      3458      3459
 -1      1628    8    0    1
 -2       777       876       875      3459      3460      3455
 -1      1629    8    0    1
 -2       778       779       877      3162      3461      3462
 -1      1630    8    0    1
 -2       778       877       876      3462      3463      3458
 -1      1631    8    0    1
 -2       779       780       878      3165      3464      3465
 -1      1632    8    0    1
 -2       779       878       877      3465      3466      3461
 -1      1633    8    0    1
 -2       780       781       879      3168      3467      3468
 -1      1634    8    0    1
 -2       780       879       878      3468      3469      3464
 -1      1635    8    0    1
 -2       781       782       880      3171      3470      3471
 -1      1636    8    0    1
 -2       781       880       879      3471      3472      3467
 -1      1637    8    0    1
 -2       782       783       881      3174      3473      3474
 -1      1638    8    0    1
 -2       782       881       880      3474      3475      3470
 -1      1639    8    0    1
 -2       783       784       882      3177      3476      3477
 -1      1640    8    0    1
 -2       783       882       881      3477      3478      3473
 -1      1641    8    0    1
 -2       784       785       883      3180      3479      3480
 -1      1642    8    0    1
 -2       784       883       882      3480      3481      3476
 -1      1643    8    0    1
 -2       785       786       884      3183      3482      3483
 -1      1644    8    0    1
 -2       785       884       883      3483      3484      3479
 -1      1645    8    0    1
 -2       786       787       885      3186      3485      3486
 -1      1646    8    0    1
 -2       786       885       884      3486      3487      3482
 -1      1647    8    0    1
 -2       787       788       886      3189      3488      3489
 -1      1648    8    0    1
 -2       787       886       885      3489      3490      3485
 -1      1649    8    0    1
 -2       788       789       887      3192      3491      3492
 -1      1650    8    0    1
 -2       788       887       886      3492      3493      3488
 -1      1651    8    0    1
 -2       790       752       888      3195      3494      3495
 -1      1652    8    0    1
 -2       760       761       889      3108      3496      3497
 -1      1653    8    0    1
 -2       858       760       889      3406      3497      3498
 -1      1654    8    0    1
 -2       761       860       889      3412      3499      3496
 -1      1655    8    0    1
 -2       752       792       890      3200      3500      3501
 -1      1656    8    0    1
 -2       888       752       890      3494      3501      3502
 -1      1657    8    0    1
 -2       792       855       890      3398      3503      3500
 -1      1658    8    0    1
 -2       793       741       891      3203      3504      3505
 -1      1659    8    0    1
 -2       827       793       891      3316      3505      3506
 -1      1660    8    0    1
 -2       741       847       891      3375      3507      3504
 -1      1661    8    0    1
 -2       795       709       814      3211      3270      3508
 -1      1662    8    0    1
 -2       580       455       812      2618      3509      3263
 -1      1663    8    0    1
 -2       695       508       794      2970      3510      3212
 -1      1664    8    0    1
 -2       743       799       892      3225      3511      3512
 -1      1665    8    0    1
 -2       744       743       893      3059      3513      3514
 -1      1666    8    0    1
 -2       744       893       849      3514      3515      3379
 -1      1667    8    0    1
 -2       797       801       894      3231      3516      3517
 -1      1668    8    0    1
 -2       724       723       895      3000      3518      3519
 -1      1669    8    0    1
 -2       724       895       831      3519      3520      3327
 -1      1670    8    0    1
 -2       808       790       896      3251      3521      3522
 -1      1671    8    0    1
 -2       790       888       896      3495      3523      3521
 -1      1672    8    0    1
 -2       720       742       897      3311      3524      3525
 -1      1673    8    0    1
 -2       720       897       813      3525      3526      3268
 -1      1674    8    0    1
 -2       803       807       898      3306      3527      3528
 -1      1675    8    0    1
 -2       717       827       899      3318      3529      3530
 -1      1676    8    0    1
 -2       717       899       824      3530      3531      3305
 -1      1677    8    0    1
 -2       801       808       900      3307      3532      3533
 -1      1678    8    0    1
 -2       894       801       900      3516      3533      3534
 -1      1679    8    0    1
 -2       808       896       900      3522      3535      3532
 -1      1680    8    0    1
 -2       723       795       814      3302      3508      3536
 -1      1681    8    0    1
 -2       829       722       901      3322      3537      3538
 -1      1682    8    0    1
 -2       722       823       901      3301      3539      3537
 -1      1683    8    0    1
 -2       809       806       902      3256      3540      3541
 -1      1684    8    0    1
 -2       806       821       902      3294      3542      3540
 -1      1685    8    0    1
 -2       719       829       822      3323      3543      3298
 -1      1686    8    0    1
 -2       799       830       892      3325      3544      3511
 -1      1687    8    0    1
 -2       811       804       903      3260      3545      3546
 -1      1688    8    0    1
 -2       723       814       904      3536      3547      3548
 -1      1689    8    0    1
 -2       895       723       904      3518      3548      3549
 -1      1690    8    0    1
 -2       814       810       904      3271      3550      3547
 -1      1691    8    0    1
 -2       718       848       825      3378      3551      3308
 -1      1692    8    0    1
 -2       848       800       905      3377      3552      3553
 -1      1693    8    0    1
 -2       800       816       905      3277      3554      3552
 -1      1694    8    0    1
 -2       827       891       899      3506      3555      3529
 -1      1695    8    0    1
 -2       803       898       906      3528      3556      3557
 -1      1696    8    0    1
 -2       803       906       821      3557      3558      3292
 -1      1697    8    0    1
 -2       815       716       907      3274      3559      3560
 -1      1698    8    0    1
 -2       716       824       907      3304      3561      3559
 -1      1699    8    0    1
 -2       816       713       908      3275      3562      3563
 -1      1700    8    0    1
 -2       713       817       908      3280      3564      3562
 -1      1701    8    0    1
 -2       817       791       909      3278      3565      3566
 -1      1702    8    0    1
 -2       818       688       819      3284      3287      3567
 -1      1703    8    0    1
 -2       819       757       910      3285      3568      3569
 -1      1704    8    0    1
 -2       757       857       910      3405      3570      3568
 -1      1705    8    0    1
 -2       742       755       897      3091      3571      3524
 -1      1706    8    0    1
 -2       820       796       911      3291      3572      3573
 -1      1707    8    0    1
 -2       796       802       911      3234      3574      3572
 -1      1708    8    0    1
 -2       758       859       912      3409      3575      3576
 -1      1709    8    0    1
 -2       758       912       798      3576      3577      3222
 -1      1710    8    0    1
 -2       887       789       820      3491      3290      3578
 -1      1711    8    0    1
 -2       754       818       913      3283      3579      3580
 -1      1712    8    0    1
 -2       743       892       893      3512      3581      3513
 -1      1713    8    0    1
 -2       823       710       815      3299      3273      3582
 -1      1714    8    0    1
 -2       754       913       914      3580      3583      3584
 -1      1715    8    0    1
 -2       754       914       755      3584      3585      3092
 -1      1716    8    0    1
 -2       810       828       915      3321      3586      3587
 -1      1717    8    0    1
 -2       810       915       904      3587      3588      3550
 -1      1718    8    0    1
 -2       797       894       916      3517      3589      3590
 -1      1719    8    0    1
 -2       797       916       802      3590      3591      3235
 -1      1720    8    0    1
 -2       756       798       917      3221      3592      3593
 -1      1721    8    0    1
 -2       857       756       917      3404      3593      3594
 -1      1722    8    0    1
 -2       798       912       917      3577      3595      3592
 -1      1723    8    0    1
 -2       707       811       828      3262      3596      3319
 -1      1724    8    0    1
 -2       508       590       794      2584      3207      3510
 -1      1725    8    0    1
 -2       898       807       918      3527      3597      3598
 -1      1726    8    0    1
 -2       807       825       918      3310      3599      3597
 -1      1727    8    0    1
 -2       706       813       826      3267      3600      3315
 -1      1728    8    0    1
 -2       791       822       909      3297      3601      3565
 -1      1729    8    0    1
 -2       804       826       919      3314      3602      3603
 -1      1730    8    0    1
 -2       804       919       903      3603      3604      3545
 -1      1731    8    0    1
 -2       895       904       920      3549      3605      3606
 -1      1732    8    0    1
 -2       833       832       921      3334      3607      3608
 -1      1733    8    0    1
 -2       834       833       922      3337      3609      3610
 -1      1734    8    0    1
 -2       833       921       922      3608      3611      3609
 -1      1735    8    0    1
 -2       835       834       923      3340      3612      3613
 -1      1736    8    0    1
 -2       834       922       923      3610      3614      3612
 -1      1737    8    0    1
 -2       836       835       924      3343      3615      3616
 -1      1738    8    0    1
 -2       835       923       924      3613      3617      3615
 -1      1739    8    0    1
 -2       837       836       925      3346      3618      3619
 -1      1740    8    0    1
 -2       836       924       925      3616      3620      3618
 -1      1741    8    0    1
 -2       838       837       926      3349      3621      3622
 -1      1742    8    0    1
 -2       837       925       926      3619      3623      3621
 -1      1743    8    0    1
 -2       839       838       927      3352      3624      3625
 -1      1744    8    0    1
 -2       838       926       927      3622      3626      3624
 -1      1745    8    0    1
 -2       840       839       928      3355      3627      3628
 -1      1746    8    0    1
 -2       839       927       928      3625      3629      3627
 -1      1747    8    0    1
 -2       841       840       929      3358      3630      3631
 -1      1748    8    0    1
 -2       840       928       929      3628      3632      3630
 -1      1749    8    0    1
 -2       842       841       930      3361      3633      3634
 -1      1750    8    0    1
 -2       841       929       930      3631      3635      3633
 -1      1751    8    0    1
 -2       843       842       931      3364      3636      3637
 -1      1752    8    0    1
 -2       842       930       931      3634      3638      3636
 -1      1753    8    0    1
 -2       844       843       932      3367      3639      3640
 -1      1754    8    0    1
 -2       843       931       932      3637      3641      3639
 -1      1755    8    0    1
 -2       845       844       933      3370      3642      3643
 -1      1756    8    0    1
 -2       844       932       933      3640      3644      3642
 -1      1757    8    0    1
 -2       846       845       934      3373      3645      3646
 -1      1758    8    0    1
 -2       845       933       934      3643      3647      3645
 -1      1759    8    0    1
 -2       847       846       935      3376      3648      3649
 -1      1760    8    0    1
 -2       846       934       935      3646      3650      3648
 -1      1761    8    0    1
 -2       825       848       936      3551      3651      3652
 -1      1762    8    0    1
 -2       818       819       937      3567      3653      3654
 -1      1763    8    0    1
 -2       913       818       937      3579      3654      3655
 -1      1764    8    0    1
 -2       819       910       937      3569      3656      3653
 -1      1765    8    0    1
 -2       851       850       938      3386      3657      3658
 -1      1766    8    0    1
 -2       852       851       939      3389      3659      3660
 -1      1767    8    0    1
 -2       851       938       939      3658      3661      3659
 -1      1768    8    0    1
 -2       853       852       940      3392      3662      3663
 -1      1769    8    0    1
 -2       852       939       940      3660      3664      3662
 -1      1770    8    0    1
 -2       854       853       941      3395      3665      3666
 -1      1771    8    0    1
 -2       853       940       941      3663      3667      3665
 -1      1772    8    0    1
 -2       855       854       942      3399      3668      3669
 -1      1773    8    0    1
 -2       890       855       942      3503      3669      3670
 -1      1774    8    0    1
 -2       854       941       942      3666      3671      3668
 -1      1775    8    0    1
 -2       859       858       943      3410      3672      3673
 -1      1776    8    0    1
 -2       861       862       944      3418      3674      3675
 -1      1777    8    0    1
 -2       860       861       945      3415      3676      3677
 -1      1778    8    0    1
 -2       861       944       945      3675      3678      3676
 -1      1779    8    0    1
 -2       863       864       946      3424      3679      3680
 -1      1780    8    0    1
 -2       864       865       947      3427      3681      3682
 -1      1781    8    0    1
 -2       864       947       946      3682      3683      3679
 -1      1782    8    0    1
 -2       865       866       948      3430      3684      3685
 -1      1783    8    0    1
 -2       865       948       947      3685      3686      3681
 -1      1784    8    0    1
 -2       866       867       949      3433      3687      3688
 -1      1785    8    0    1
 -2       866       949       948      3688      3689      3684
 -1      1786    8    0    1
 -2       867       868       950      3436      3690      3691
 -1      1787    8    0    1
 -2       867       950       949      3691      3692      3687
 -1      1788    8    0    1
 -2       868       869       951      3439      3693      3694
 -1      1789    8    0    1
 -2       868       951       950      3694      3695      3690
 -1      1790    8    0    1
 -2       869       870       952      3442      3696      3697
 -1      1791    8    0    1
 -2       869       952       951      3697      3698      3693
 -1      1792    8    0    1
 -2       870       871       953      3445      3699      3700
 -1      1793    8    0    1
 -2       870       953       952      3700      3701      3696
 -1      1794    8    0    1
 -2       871       872       909      3448      3702      3703
 -1      1795    8    0    1
 -2       873       874       954      3454      3704      3705
 -1      1796    8    0    1
 -2       874       875       955      3457      3706      3707
 -1      1797    8    0    1
 -2       874       955       954      3707      3708      3704
 -1      1798    8    0    1
 -2       875       876       956      3460      3709      3710
 -1      1799    8    0    1
 -2       875       956       955      3710      3711      3706
 -1      1800    8    0    1
 -2       876       877       957      3463      3712      3713
 -1      1801    8    0    1
 -2       876       957       956      3713      3714      3709
 -1      1802    8    0    1
 -2       877       878       958      3466      3715      3716
 -1      1803    8    0    1
 -2       877       958       957      3716      3717      3712
 -1      1804    8    0    1
 -2       878       879       959      3469      3718      3719
 -1      1805    8    0    1
 -2       878       959       958      3719      3720      3715
 -1      1806    8    0    1
 -2       879       880       960      3472      3721      3722
 -1      1807    8    0    1
 -2       879       960       959      3722      3723      3718
 -1      1808    8    0    1
 -2       880       881       961      3475      3724      3725
 -1      1809    8    0    1
 -2       880       961       960      3725      3726      3721
 -1      1810    8    0    1
 -2       881       882       962      3478      3727      3728
 -1      1811    8    0    1
 -2       881       962       961      3728      3729      3724
 -1      1812    8    0    1
 -2       882       883       963      3481      3730      3731
 -1      1813    8    0    1
 -2       882       963       962      3731      3732      3727
 -1      1814    8    0    1
 -2       883       884       964      3484      3733      3734
 -1      1815    8    0    1
 -2       883       964       963      3734      3735      3730
 -1      1816    8    0    1
 -2       884       885       965      3487      3736      3737
 -1      1817    8    0    1
 -2       884       965       964      3737      3738      3733
 -1      1818    8    0    1
 -2       885       886       966      3490      3739      3740
 -1      1819    8    0    1
 -2       885       966       965      3740      3741      3736
 -1      1820    8    0    1
 -2       886       887       967      3493      3742      3743
 -1      1821    8    0    1
 -2       886       967       966      3743      3744      3739
 -1      1822    8    0    1
 -2       891       847       968      3507      3745      3746
 -1      1823    8    0    1
 -2       893       892       969      3581      3747      3748
 -1      1824    8    0    1
 -2       892       830       970      3544      3749      3750
 -1      1825    8    0    1
 -2       969       892       970      3747      3750      3751
 -1      1826    8    0    1
 -2       830       856       970      3402      3752      3749
 -1      1827    8    0    1
 -2       862       863       971      3421      3753      3754
 -1      1828    8    0    1
 -2       862       971       944      3754      3755      3674
 -1      1829    8    0    1
 -2       899       891       968      3555      3746      3756
 -1      1830    8    0    1
 -2       823       815       972      3582      3757      3758
 -1      1831    8    0    1
 -2       811       903       973      3546      3759      3760
 -1      1832    8    0    1
 -2       811       973       828      3760      3761      3596
 -1      1833    8    0    1
 -2       849       893       974      3515      3762      3763
 -1      1834    8    0    1
 -2       893       969       974      3748      3764      3762
 -1      1835    8    0    1
 -2       850       849       975      3383      3765      3766
 -1      1836    8    0    1
 -2       850       975       938      3766      3767      3657
 -1      1837    8    0    1
 -2       831       895       920      3520      3606      3768
 -1      1838    8    0    1
 -2       896       888       976      3523      3769      3770
 -1      1839    8    0    1
 -2       887       820       911      3578      3573      3771
 -1      1840    8    0    1
 -2       897       755       914      3571      3585      3772
 -1      1841    8    0    1
 -2       822       829       977      3543      3773      3774
 -1      1842    8    0    1
 -2       824       899       978      3531      3775      3776
 -1      1843    8    0    1
 -2       824       978       907      3776      3777      3561
 -1      1844    8    0    1
 -2       832       831       979      3331      3778      3779
 -1      1845    8    0    1
 -2       832       979       921      3779      3780      3607
 -1      1846    8    0    1
 -2       909       822       977      3601      3774      3781
 -1      1847    8    0    1
 -2       826       813       980      3600      3782      3783
 -1      1848    8    0    1
 -2       919       826       980      3602      3783      3784
 -1      1849    8    0    1
 -2       813       897       980      3526      3785      3782
 -1      1850    8    0    1
 -2       909       872       981      3702      3786      3787
 -1      1851    8    0    1
 -2       817       909       981      3566      3787      3788
 -1      1852    8    0    1
 -2       872       873       981      3451      3789      3786
 -1      1853    8    0    1
 -2       902       821       982      3542      3790      3791
 -1      1854    8    0    1
 -2       821       906       982      3558      3792      3790
 -1      1855    8    0    1
 -2       802       916       911      3591      3793      3574
 -1      1856    8    0    1
 -2       896       976       983      3770      3794      3795
 -1      1857    8    0    1
 -2       896       983       900      3795      3796      3535
 -1      1858    8    0    1
 -2       847       935       968      3649      3797      3745
 -1      1859    8    0    1
 -2       898       918       984      3598      3798      3799
 -1      1860    8    0    1
 -2       825       936       918      3652      3800      3599
 -1      1861    8    0    1
 -2       906       898       984      3556      3799      3801
 -1      1862    8    0    1
 -2       913       937       985      3655      3802      3803
 -1      1863    8    0    1
 -2       908       817       981      3564      3788      3804
 -1      1864    8    0    1
 -2       903       919       986      3604      3805      3806
 -1      1865    8    0    1
 -2       859       943       987      3673      3807      3808
 -1      1866    8    0    1
 -2       859       987       912      3808      3809      3575
 -1      1867    8    0    1
 -2       899       968       978      3756      3810      3775
 -1      1868    8    0    1
 -2       863       946       971      3680      3811      3753
 -1      1869    8    0    1
 -2       943       858       988      3672      3812      3813
 -1      1870    8    0    1
 -2       858       889       988      3498      3814      3812
 -1      1871    8    0    1
 -2       910       857       989      3570      3815      3816
 -1      1872    8    0    1
 -2       888       890       990      3502      3817      3818
 -1      1873    8    0    1
 -2       976       888       990      3769      3818      3819
 -1      1874    8    0    1
 -2       890       942       990      3670      3820      3817
 -1      1875    8    0    1
 -2       860       945       991      3677      3821      3822
 -1      1876    8    0    1
 -2       860       991       889      3822      3823      3499
 -1      1877    8    0    1
 -2       871       909       953      3703      3824      3699
 -1      1878    8    0    1
 -2       873       954       981      3705      3825      3789
 -1      1879    8    0    1
 -2       823       972       992      3758      3826      3827
 -1      1880    8    0    1
 -2       823       992       901      3827      3828      3539
 -1      1881    8    0    1
 -2       967       887       916      3742      3829      3830
 -1      1882    8    0    1
 -2       913       985       993      3803      3831      3832
 -1      1883    8    0    1
 -2       913       993       914      3832      3833      3583
 -1      1884    8    0    1
 -2       903       986       994      3806      3834      3835
 -1      1885    8    0    1
 -2       903       994       973      3835      3836      3759
 -1      1886    8    0    1
 -2       831       920       979      3768      3837      3778
 -1      1887    8    0    1
 -2       815       907       972      3560      3838      3757
 -1      1888    8    0    1
 -2       812       455       596      3509      3243      3295
 -1      1889    8    0    1
 -2       915       828       973      3586      3761      3839
 -1      1890    8    0    1
 -2       904       915       920      3588      3840      3605
 -1      1891    8    0    1
 -2       829       901       995      3538      3841      3842
 -1      1892    8    0    1
 -2       894       900       996      3534      3843      3844
 -1      1893    8    0    1
 -2       900       983       996      3796      3845      3843
 -1      1894    8    0    1
 -2       975       849       974      3765      3763      3846
 -1      1895    8    0    1
 -2       977       829       995      3773      3842      3847
 -1      1896    8    0    1
 -2       897       914       997      3772      3848      3849
 -1      1897    8    0    1
 -2       980       897       997      3785      3849      3850
 -1      1898    8    0    1
 -2       914       993       997      3833      3851      3848
 -1      1899    8    0    1
 -2       857       917       998      3594      3852      3853
 -1      1900    8    0    1
 -2       857       998       989      3853      3854      3815
 -1      1901    8    0    1
 -2       856       809       999      3403      3855      3856
 -1      1902    8    0    1
 -2       856       999       970      3856      3857      3752
 -1      1903    8    0    1
 -2       809       902       999      3541      3858      3855
 -1      1904    8    0    1
 -2       984       918      1000      3798      3859      3860
 -1      1905    8    0    1
 -2       918       936      1000      3800      3861      3859
 -1      1906    8    0    1
 -2       905       816      1001      3554      3862      3863
 -1      1907    8    0    1
 -2       923       922      1002      3614      3864      3865
 -1      1908    8    0    1
 -2       924       923      1003      3617      3866      3867
 -1      1909    8    0    1
 -2       923      1002      1003      3865      3868      3866
 -1      1910    8    0    1
 -2       925       924      1004      3620      3869      3870
 -1      1911    8    0    1
 -2       924      1003      1004      3867      3871      3869
 -1      1912    8    0    1
 -2       926       925      1005      3623      3872      3873
 -1      1913    8    0    1
 -2       925      1004      1005      3870      3874      3872
 -1      1914    8    0    1
 -2       927       926      1006      3626      3875      3876
 -1      1915    8    0    1
 -2       926      1005      1006      3873      3877      3875
 -1      1916    8    0    1
 -2       928       927      1007      3629      3878      3879
 -1      1917    8    0    1
 -2       927      1006      1007      3876      3880      3878
 -1      1918    8    0    1
 -2       929       928      1008      3632      3881      3882
 -1      1919    8    0    1
 -2       928      1007      1008      3879      3883      3881
 -1      1920    8    0    1
 -2       930       929      1009      3635      3884      3885
 -1      1921    8    0    1
 -2       929      1008      1009      3882      3886      3884
 -1      1922    8    0    1
 -2       931       930      1010      3638      3887      3888
 -1      1923    8    0    1
 -2       930      1009      1010      3885      3889      3887
 -1      1924    8    0    1
 -2       932       931      1011      3641      3890      3891
 -1      1925    8    0    1
 -2       931      1010      1011      3888      3892      3890
 -1      1926    8    0    1
 -2       933       932      1012      3644      3893      3894
 -1      1927    8    0    1
 -2       932      1011      1012      3891      3895      3893
 -1      1928    8    0    1
 -2       934       933      1013      3647      3896      3897
 -1      1929    8    0    1
 -2       933      1012      1013      3894      3898      3896
 -1      1930    8    0    1
 -2       935       934      1014      3650      3899      3900
 -1      1931    8    0    1
 -2       934      1013      1014      3897      3901      3899
 -1      1932    8    0    1
 -2       936       848      1015      3651      3902      3903
 -1      1933    8    0    1
 -2       921       979      1016      3780      3904      3905
 -1      1934    8    0    1
 -2       908       981       954      3804      3825      3906
 -1      1935    8    0    1
 -2       906       984      1017      3801      3907      3908
 -1      1936    8    0    1
 -2       939       938      1018      3661      3909      3910
 -1      1937    8    0    1
 -2       944       971      1019      3755      3911      3912
 -1      1938    8    0    1
 -2       940       939      1020      3664      3913      3914
 -1      1939    8    0    1
 -2       939      1018      1020      3910      3915      3913
 -1      1940    8    0    1
 -2       975       974      1021      3846      3916      3917
 -1      1941    8    0    1
 -2       978       968      1022      3810      3918      3919
 -1      1942    8    0    1
 -2       999       902      1023      3858      3920      3921
 -1      1943    8    0    1
 -2       947       948      1024      3686      3922      3923
 -1      1944    8    0    1
 -2       946       947      1025      3683      3924      3925
 -1      1945    8    0    1
 -2       947      1024      1025      3923      3926      3924
 -1      1946    8    0    1
 -2       949       950      1026      3692      3927      3928
 -1      1947    8    0    1
 -2       950       951      1027      3695      3929      3930
 -1      1948    8    0    1
 -2       950      1027      1026      3930      3931      3927
 -1      1949    8    0    1
 -2       952       953       977      3701      3932      3933
 -1      1950    8    0    1
 -2       957       958      1000      3717      3934      3935
 -1      1951    8    0    1
 -2       959       960      1028      3723      3936      3937
 -1      1952    8    0    1
 -2       960       961      1029      3726      3938      3939
 -1      1953    8    0    1
 -2       960      1029      1028      3939      3940      3936
 -1      1954    8    0    1
 -2       961       962      1030      3729      3941      3942
 -1      1955    8    0    1
 -2       961      1030      1029      3942      3943      3938
 -1      1956    8    0    1
 -2       962       963      1031      3732      3944      3945
 -1      1957    8    0    1
 -2       962      1031      1030      3945      3946      3941
 -1      1958    8    0    1
 -2       963       964      1032      3735      3947      3948
 -1      1959    8    0    1
 -2       963      1032      1031      3948      3949      3944
 -1      1960    8    0    1
 -2       964       965      1033      3738      3950      3951
 -1      1961    8    0    1
 -2       964      1033      1032      3951      3952      3947
 -1      1962    8    0    1
 -2       965       966      1034      3741      3953      3954
 -1      1963    8    0    1
 -2       965      1034      1033      3954      3955      3950
 -1      1964    8    0    1
 -2       966       967      1035      3744      3956      3957
 -1      1965    8    0    1
 -2       966      1035      1034      3957      3958      3953
 -1      1966    8    0    1
 -2       916       887       911      3829      3771      3793
 -1      1967    8    0    1
 -2       938       975      1036      3767      3959      3960
 -1      1968    8    0    1
 -2       938      1036      1018      3960      3961      3909
 -1      1969    8    0    1
 -2       953       909       977      3824      3781      3932
 -1      1970    8    0    1
 -2       979       920      1037      3837      3962      3963
 -1      1971    8    0    1
 -2       995       901       992      3841      3828      3964
 -1      1972    8    0    1
 -2       894       996      1038      3844      3965      3966
 -1      1973    8    0    1
 -2       920       915      1039      3840      3967      3968
 -1      1974    8    0    1
 -2      1037       920      1039      3962      3968      3969
 -1      1975    8    0    1
 -2       915       973      1039      3839      3970      3967
 -1      1976    8    0    1
 -2       974       969      1040      3764      3971      3972
 -1      1977    8    0    1
 -2       974      1040      1021      3972      3973      3916
 -1      1978    8    0    1
 -2       919       980       997      3784      3850      3974
 -1      1979    8    0    1
 -2       916       894      1038      3589      3966      3975
 -1      1980    8    0    1
 -2       971       946      1041      3811      3976      3977
 -1      1981    8    0    1
 -2       946      1025      1041      3925      3978      3976
 -1      1982    8    0    1
 -2       917       912      1042      3595      3979      3980
 -1      1983    8    0    1
 -2       912       987      1042      3809      3981      3979
 -1      1984    8    0    1
 -2       977       995       952      3847      3982      3933
 -1      1985    8    0    1
 -2       948       949      1043      3689      3983      3984
 -1      1986    8    0    1
 -2       949      1026      1043      3928      3985      3983
 -1      1987    8    0    1
 -2       816       908      1001      3563      3986      3862
 -1      1988    8    0    1
 -2       937       910      1044      3656      3987      3988
 -1      1989    8    0    1
 -2       937      1044       985      3988      3989      3802
 -1      1990    8    0    1
 -2       907       978      1045      3777      3990      3991
 -1      1991    8    0    1
 -2       972       907      1045      3838      3991      3992
 -1      1992    8    0    1
 -2       978      1022      1045      3919      3993      3990
 -1      1993    8    0    1
 -2       848       905      1015      3553      3994      3902
 -1      1994    8    0    1
 -2       922       921      1046      3611      3995      3996
 -1      1995    8    0    1
 -2       921      1016      1046      3905      3997      3995
 -1      1996    8    0    1
 -2       955       956      1015      3711      3998      3999
 -1      1997    8    0    1
 -2       968       935      1047      3797      4000      4001
 -1      1998    8    0    1
 -2      1022       968      1047      3918      4001      4002
 -1      1999    8    0    1
 -2       935      1014      1047      3900      4003      4000
 -1      2000    8    0    1
 -2       945       944      1048      3678      4004      4005
 -1      2001    8    0    1
 -2       944      1019      1048      3912      4006      4004
 -1      2002    8    0    1
 -2       936      1015       956      3903      3998      4007
 -1      2003    8    0    1
 -2       955      1015       905      3999      3994      4008
 -1      2004    8    0    1
 -2       952       995       951      3982      4009      3698
 -1      2005    8    0    1
 -2       951       995      1027      4009      4010      3929
 -1      2006    8    0    1
 -2       983       976      1049      3794      4011      4012
 -1      2007    8    0    1
 -2      1000       936       957      3861      4013      3935
 -1      2008    8    0    1
 -2       985      1044      1050      3989      4014      4015
 -1      2009    8    0    1
 -2       945      1048      1051      4005      4016      4017
 -1      2010    8    0    1
 -2       945      1051       991      4017      4018      3821
 -1      2011    8    0    1
 -2       987       943      1052      3807      4019      4020
 -1      2012    8    0    1
 -2       922      1046      1002      3996      4021      3864
 -1      2013    8    0    1
 -2       972      1045      1053      3992      4022      4023
 -1      2014    8    0    1
 -2       972      1053       992      4023      4024      3826
 -1      2015    8    0    1
 -2       908       954      1001      3906      4025      3986
 -1      2016    8    0    1
 -2       986       919       997      3805      3974      4026
 -1      2017    8    0    1
 -2       975      1021      1036      3917      4027      3959
 -1      2018    8    0    1
 -2       936       956       957      4007      3714      4013
 -1      2019    8    0    1
 -2       941       940      1054      3667      4028      4029
 -1      2020    8    0    1
 -2       942       941       990      3671      4030      3820
 -1      2021    8    0    1
 -2       988       889       991      3814      3823      4031
 -1      2022    8    0    1
 -2       970       999      1055      3857      4032      4033
 -1      2023    8    0    1
 -2       969       970      1055      3751      4033      4034
 -1      2024    8    0    1
 -2       999      1023      1055      3921      4035      4032
 -1      2025    8    0    1
 -2       976       990      1054      3819      4036      4037
 -1      2026    8    0    1
 -2      1049       976      1054      4011      4037      4038
 -1      2027    8    0    1
 -2      1000       958      1056      3934      4039      4040
 -1      2028    8    0    1
 -2       984      1000      1056      3860      4040      4041
 -1      2029    8    0    1
 -2       958       959      1056      3720      4042      4039
 -1      2030    8    0    1
 -2       984      1056      1017      4041      4043      3907
 -1      2031    8    0    1
 -2       986       997      1057      4026      4044      4045
 -1      2032    8    0    1
 -2       997       993      1057      3851      4046      4044
 -1      2033    8    0    1
 -2       917      1042       998      3980      4047      3852
 -1      2034    8    0    1
 -2       948      1043      1024      3984      4048      3922
 -1      2035    8    0    1
 -2       979      1037      1016      3963      4049      3904
 -1      2036    8    0    1
 -2      1027       995       992      4010      3964      4050
 -1      2037    8    0    1
 -2       993       985      1057      3831      4051      4046
 -1      2038    8    0    1
 -2       906      1017       982      3908      4052      3792
 -1      2039    8    0    1
 -2       941      1054       990      4029      4036      4030
 -1      2040    8    0    1
 -2      1052       943      1058      4019      4053      4054
 -1      2041    8    0    1
 -2       943       988      1058      3813      4055      4053
 -1      2042    8    0    1
 -2       986      1057      1059      4045      4056      4057
 -1      2043    8    0    1
 -2       986      1059       994      4057      4058      3834
 -1      2044    8    0    1
 -2      1056       959      1028      4042      3937      4059
 -1      2045    8    0    1
 -2      1001       954       955      4025      3708      4060
 -1      2046    8    0    1
 -2       902       982      1023      3791      4061      3920
 -1      2047    8    0    1
 -2      1001       955       905      4060      4008      3863
 -1      2048    8    0    1
 -2       989       998      1060      3854      4062      4063
 -1      2049    8    0    1
 -2       910       989      1044      3816      4064      3987
 -1      2050    8    0    1
 -2      1039       973       994      3970      3836      4065
 -1      2051    8    0    1
 -2      1057       985      1050      4051      4015      4066
 -1      2052    8    0    1
 -2       996       983      1061      3845      4067      4068
 -1      2053    8    0    1
 -2       983      1049      1061      4012      4069      4067
 -1      2054    8    0    1
 -2      1038       996      1062      3965      4070      4071
 -1      2055    8    0    1
 -2      1054       940      1020      4028      3914      4072
 -1      2056    8    0    1
 -2      1040       969      1055      3971      4034      4073
 -1      2057    8    0    1
 -2      1019       971      1041      3911      3977      4074
 -1      2058    8    0    1
 -2       996      1061      1062      4068      4075      4070
 -1      2059    8    0    1
 -2      1044       989      1063      4064      4076      4077
 -1      2060    8    0    1
 -2      1050      1044      1063      4014      4077      4078
 -1      2061    8    0    1
 -2       989      1060      1063      4063      4079      4076
 -1      2062    8    0    1
 -2      1030      1031      1064      3946      4080      4081
 -1      2063    8    0    1
 -2      1002      1046      1065      4021      4082      4083
 -1      2064    8    0    1
 -2      1004      1003      1066      3871      4084      4085
 -1      2065    8    0    1
 -2      1005      1004      1067      3874      4086      4087
 -1      2066    8    0    1
 -2      1004      1066      1067      4085      4088      4086
 -1      2067    8    0    1
 -2      1006      1005      1068      3877      4089      4090
 -1      2068    8    0    1
 -2      1005      1067      1068      4087      4091      4089
 -1      2069    8    0    1
 -2      1007      1006      1069      3880      4092      4093
 -1      2070    8    0    1
 -2      1006      1068      1069      4090      4094      4092
 -1      2071    8    0    1
 -2      1008      1007      1070      3883      4095      4096
 -1      2072    8    0    1
 -2      1007      1069      1070      4093      4097      4095
 -1      2073    8    0    1
 -2      1009      1008      1071      3886      4098      4099
 -1      2074    8    0    1
 -2      1008      1070      1071      4096      4100      4098
 -1      2075    8    0    1
 -2      1010      1009      1072      3889      4101      4102
 -1      2076    8    0    1
 -2      1009      1071      1072      4099      4103      4101
 -1      2077    8    0    1
 -2      1011      1010      1073      3892      4104      4105
 -1      2078    8    0    1
 -2      1010      1072      1073      4102      4106      4104
 -1      2079    8    0    1
 -2      1012      1011      1074      3895      4107      4108
 -1      2080    8    0    1
 -2      1011      1073      1074      4105      4109      4107
 -1      2081    8    0    1
 -2      1013      1012      1075      3898      4110      4111
 -1      2082    8    0    1
 -2      1012      1074      1075      4108      4112      4110
 -1      2083    8    0    1
 -2      1014      1013      1076      3901      4113      4114
 -1      2084    8    0    1
 -2      1013      1075      1076      4111      4115      4113
 -1      2085    8    0    1
 -2      1040      1055      1077      4073      4116      4117
 -1      2086    8    0    1
 -2      1029      1030      1078      3943      4118      4119
 -1      2087    8    0    1
 -2      1030      1064      1078      4081      4120      4118
 -1      2088    8    0    1
 -2      1036      1021      1079      4027      4121      4122
 -1      2089    8    0    1
 -2       988       991      1080      4031      4123      4124
 -1      2090    8    0    1
 -2       991      1051      1080      4018      4125      4123
 -1      2091    8    0    1
 -2      1055      1023      1077      4035      4126      4116
 -1      2092    8    0    1
 -2      1049      1054      1020      4038      4072      4127
 -1      2093    8    0    1
 -2      1023       982      1081      4061      4128      4129
 -1      2094    8    0    1
 -2      1017      1056      1028      4043      4059      4130
 -1      2095    8    0    1
 -2      1028      1029      1082      3940      4131      4132
 -1      2096    8    0    1
 -2      1017      1028      1082      4130      4132      4133
 -1      2097    8    0    1
 -2      1029      1078      1082      4119      4134      4131
 -1      2098    8    0    1
 -2      1031      1032      1083      3949      4135      4136
 -1      2099    8    0    1
 -2      1031      1083      1064      4136      4137      4080
 -1      2100    8    0    1
 -2      1032      1033      1084      3952      4138      4139
 -1      2101    8    0    1
 -2      1032      1084      1083      4139      4140      4135
 -1      2102    8    0    1
 -2      1033      1034      1085      3955      4141      4142
 -1      2103    8    0    1
 -2      1033      1085      1084      4142      4143      4138
 -1      2104    8    0    1
 -2      1034      1035      1086      3958      4144      4145
 -1      2105    8    0    1
 -2      1034      1086      1085      4145      4146      4141
 -1      2106    8    0    1
 -2      1035       967      1062      3956      4147      4148
 -1      2107    8    0    1
 -2      1025      1024      1087      3926      4149      4150
 -1      2108    8    0    1
 -2      1016      1037      1088      4049      4151      4152
 -1      2109    8    0    1
 -2      1020      1018      1089      3915      4153      4154
 -1      2110    8    0    1
 -2      1057      1050      1090      4066      4155      4156
 -1      2111    8    0    1
 -2      1061      1049      1091      4069      4157      4158
 -1      2112    8    0    1
 -2      1048      1019      1092      4006      4159      4160
 -1      2113    8    0    1
 -2      1037      1039      1088      3969      4161      4151
 -1      2114    8    0    1
 -2      1027       992      1093      4050      4162      4163
 -1      2115    8    0    1
 -2      1026      1027      1093      3931      4163      4164
 -1      2116    8    0    1
 -2       992      1053      1093      4024      4165      4162
 -1      2117    8    0    1
 -2      1041      1025      1094      3978      4166      4167
 -1      2118    8    0    1
 -2      1025      1087      1094      4150      4168      4166
 -1      2119    8    0    1
 -2       987      1052      1095      4020      4169      4170
 -1      2120    8    0    1
 -2       987      1095      1042      4170      4171      3981
 -1      2121    8    0    1
 -2      1043      1026      1096      3985      4172      4173
 -1      2122    8    0    1
 -2      1026      1093      1096      4164      4174      4172
 -1      2123    8    0    1
 -2       998      1042      1097      4047      4175      4176
 -1      2124    8    0    1
 -2      1060       998      1097      4062      4176      4177
 -1      2125    8    0    1
 -2      1042      1095      1097      4171      4178      4175
 -1      2126    8    0    1
 -2      1039       994      1059      4065      4058      4179
 -1      2127    8    0    1
 -2      1045      1022      1098      3993      4180      4181
 -1      2128    8    0    1
 -2      1045      1098      1053      4181      4182      4022
 -1      2129    8    0    1
 -2      1003      1002      1099      3868      4183      4184
 -1      2130    8    0    1
 -2      1002      1065      1099      4083      4185      4183
 -1      2131    8    0    1
 -2      1046      1016      1100      3997      4186      4187
 -1      2132    8    0    1
 -2      1065      1046      1100      4082      4187      4188
 -1      2133    8    0    1
 -2      1016      1088      1100      4152      4189      4186
 -1      2134    8    0    1
 -2      1018      1036      1101      3961      4190      4191
 -1      2135    8    0    1
 -2      1018      1101      1089      4191      4192      4153
 -1      2136    8    0    1
 -2      1024      1043      1102      4048      4193      4194
 -1      2137    8    0    1
 -2      1024      1102      1087      4194      4195      4149
 -1      2138    8    0    1
 -2      1021      1040      1103      3973      4196      4197
 -1      2139    8    0    1
 -2      1021      1103      1079      4197      4198      4121
 -1      2140    8    0    1
 -2      1019      1041      1104      4074      4199      4200
 -1      2141    8    0    1
 -2      1092      1019      1104      4159      4200      4201
 -1      2142    8    0    1
 -2      1041      1094      1104      4167      4202      4199
 -1      2143    8    0    1
 -2      1077      1023      1081      4126      4129      4203
 -1      2144    8    0    1
 -2      1059      1057      1090      4056      4156      4204
 -1      2145    8    0    1
 -2      1014      1076      1105      4114      4205      4206
 -1      2146    8    0    1
 -2      1014      1105      1047      4206      4207      4003
 -1      2147    8    0    1
 -2      1040      1077      1103      4117      4208      4196
 -1      2148    8    0    1
 -2      1049      1020      1089      4127      4154      4209
 -1      2149    8    0    1
 -2      1003      1099      1066      4184      4210      4084
 -1      2150    8    0    1
 -2      1051      1048      1106      4016      4211      4212
 -1      2151    8    0    1
 -2      1048      1092      1106      4160      4213      4211
 -1      2152    8    0    1
 -2       988      1080      1058      4124      4214      4055
 -1      2153    8    0    1
 -2      1052      1058      1107      4054      4215      4216
 -1      2154    8    0    1
 -2      1060      1097      1108      4177      4217      4218
 -1      2155    8    0    1
 -2       982      1017      1082      4052      4133      4219
 -1      2156    8    0    1
 -2      1038      1062       967      4071      4147      4220
 -1      2157    8    0    1
 -2      1063      1060      1109      4079      4221      4222
 -1      2158    8    0    1
 -2      1060      1108      1109      4218      4223      4221
 -1      2159    8    0    1
 -2      1091      1049      1089      4157      4209      4224
 -1      2160    8    0    1
 -2      1035      1062      1061      4148      4075      4225
 -1      2161    8    0    1
 -2      1101      1036      1079      4190      4122      4226
 -1      2162    8    0    1
 -2      1052      1107      1110      4216      4227      4228
 -1      2163    8    0    1
 -2      1052      1110      1095      4228      4229      4169
 -1      2164    8    0    1
 -2      1061      1091      1086      4158      4230      4231
 -1      2165    8    0    1
 -2      1050      1063      1111      4078      4232      4233
 -1      2166    8    0    1
 -2      1090      1050      1111      4155      4233      4234
 -1      2167    8    0    1
 -2      1063      1109      1111      4222      4235      4232
 -1      2168    8    0    1
 -2      1061      1086      1035      4231      4144      4225
 -1      2169    8    0    1
 -2      1043      1096      1102      4173      4236      4193
 -1      2170    8    0    1
 -2      1098      1022      1047      4180      4002      4237
 -1      2171    8    0    1
 -2      1083      1084      1112      4140      4238      4239
 -1      2172    8    0    1
 -2      1068      1067      1110      4091      4240      4241
 -1      2173    8    0    1
 -2      1069      1068      1107      4094      4242      4243
 -1      2174    8    0    1
 -2      1071      1070      1113      4100      4244      4245
 -1      2175    8    0    1
 -2      1072      1071      1106      4103      4246      4247
 -1      2176    8    0    1
 -2      1073      1072      1092      4106      4248      4249
 -1      2177    8    0    1
 -2      1074      1073      1104      4109      4250      4251
 -1      2178    8    0    1
 -2      1075      1074      1094      4112      4252      4253
 -1      2179    8    0    1
 -2      1076      1075      1087      4115      4254      4255
 -1      2180    8    0    1
 -2      1064      1083      1103      4137      4256      4257
 -1      2181    8    0    1
 -2      1107      1058      1114      4215      4258      4259
 -1      2182    8    0    1
 -2      1058      1080      1114      4214      4260      4258
 -1      2183    8    0    1
 -2      1091      1089      1115      4224      4261      4262
 -1      2184    8    0    1
 -2      1086      1091      1115      4230      4262      4263
 -1      2185    8    0    1
 -2      1089      1101      1115      4192      4264      4261
 -1      2186    8    0    1
 -2      1087      1102      1076      4195      4265      4255
 -1      2187    8    0    1
 -2       982      1082      1081      4219      4266      4128
 -1      2188    8    0    1
 -2      1094      1087      1075      4168      4254      4253
 -1      2189    8    0    1
 -2      1094      1074      1104      4252      4251      4202
 -1      2190    8    0    1
 -2      1082      1078      1081      4134      4267      4266
 -1      2191    8    0    1
 -2      1085      1086      1115      4146      4263      4268
 -1      2192    8    0    1
 -2      1107      1068      1110      4242      4241      4227
 -1      2193    8    0    1
 -2      1039      1059      1088      4179      4269      4161
 -1      2194    8    0    1
 -2      1088      1059      1090      4269      4204      4270
 -1      2195    8    0    1
 -2      1038       967       916      4220      3830      3975
 -1      2196    8    0    1
 -2      1076      1102      1105      4265      4271      4205
 -1      2197    8    0    1
 -2      1066      1099      1108      4210      4272      4273
 -1      2198    8    0    1
 -2      1092      1072      1106      4248      4247      4213
 -1      2199    8    0    1
 -2      1053      1098      1093      4182      4274      4165
 -1      2200    8    0    1
 -2      1080      1051      1113      4125      4275      4276
 -1      2201    8    0    1
 -2      1088      1090      1100      4270      4277      4189
 -1      2202    8    0    1
 -2      1096      1093      1098      4174      4274      4278
 -1      2203    8    0    1
 -2      1097      1095      1116      4178      4279      4280
 -1      2204    8    0    1
 -2      1108      1097      1116      4217      4280      4281
 -1      2205    8    0    1
 -2      1095      1110      1116      4229      4282      4279
 -1      2206    8    0    1
 -2      1099      1065      1109      4185      4283      4284
 -1      2207    8    0    1
 -2      1103      1077      1064      4208      4285      4257
 -1      2208    8    0    1
 -2      1098      1047      1105      4237      4207      4286
 -1      2209    8    0    1
 -2      1067      1066      1116      4088      4287      4288
 -1      2210    8    0    1
 -2      1102      1096      1105      4236      4289      4271
 -1      2211    8    0    1
 -2      1066      1108      1116      4273      4281      4287
 -1      2212    8    0    1
 -2      1069      1107      1114      4243      4259      4290
 -1      2213    8    0    1
 -2      1073      1092      1104      4249      4201      4250
 -1      2214    8    0    1
 -2      1108      1099      1109      4272      4284      4223
 -1      2215    8    0    1
 -2      1065      1100      1111      4188      4291      4292
 -1      2216    8    0    1
 -2      1071      1113      1106      4245      4293      4246
 -1      2217    8    0    1
 -2      1070      1069      1114      4097      4290      4294
 -1      2218    8    0    1
 -2      1085      1115      1117      4268      4295      4296
 -1      2219    8    0    1
 -2      1084      1085      1117      4143      4296      4297
 -1      2220    8    0    1
 -2      1115      1101      1117      4264      4298      4295
 -1      2221    8    0    1
 -2      1098      1105      1096      4286      4289      4278
 -1      2222    8    0    1
 -2      1114      1080      1113      4260      4276      4299
 -1      2223    8    0    1
 -2      1109      1065      1111      4283      4292      4235
 -1      2224    8    0    1
 -2      1103      1083      1112      4256      4239      4300
 -1      2225    8    0    1
 -2      1079      1103      1112      4198      4300      4301
 -1      2226    8    0    1
 -2      1070      1114      1113      4294      4299      4244
 -1      2227    8    0    1
 -2      1113      1051      1106      4275      4212      4293
 -1      2228    8    0    1
 -2      1100      1090      1111      4277      4234      4291
 -1      2229    8    0    1
 -2      1067      1116      1110      4288      4282      4240
 -1      2230    8    0    1
 -2      1078      1064      1077      4120      4285      4302
 -1      2231    8    0    1
 -2      1112      1084      1117      4238      4297      4303
 -1      2232    8    0    1
 -2      1077      1081      1078      4203      4267      4302
 -1      2233    8    0    1
 -2      1079      1112      1117      4301      4303      4304
 -1      2234    8    0    1
 -2      1101      1079      1117      4226      4304      4298
 -3
    1PSTEP                         1           1           1          
  100CL  101 1.000000000        4304                     0    1           1
 -4  DISP        4    1
 -5  D1          1    2    1    0
 -5  D2          1    2    2    0
 -5  D3          1    2    3    0
 -5  ALL         1    2    0    0    1ALL
 -1         1 7.60564E-03-1.54353E-03-1.48183E-14
 -1         2 1.19822E-02-1.15462E-03-1.89445E-14
 -1         3 1.36702E-02-3.34410E-03-4.11622E-14
 -1         4 1.70293E-02-4.75924E-03-4.12328E-14
 -1         5 0.00000E+00 0.00000E+00 0.00000E+00
 -1         6 0.00000E+00 0.00000E+00 0.00000E+00
 -1         7 0.00000E+00 0.00000E+00 0.00000E+00
 -1         8 0.00000E+00 0.00000E+00 0.00000E+00
 -1         9 0.00000E+00 0.00000E+00 0.00000E+00
 -1        10 0.00000E+00 0.00000E+00 0.00000E+00
 -1        11 0.00000E+00 0.00000E+00 0.00000E+00
 -1        12 0.00000E+00 0.00000E+00 0.00000E+00
 -1        13 0.00000E+00 0.00000E+00 0.00000E+00
 -1        14 0.00000E+00 0.00000E+00 0.00000E+00
 -1        15 0.00000E+00 0.00000E+00 0.00000E+00
 -1        16 0.00000E+00 0.00000E+00 0.00000E+00
 -1        17 0.00000E+00 0.00000E+00 0.00000E+00
 -1        18 0.00000E+00 0.00000E+00 0.00000E+00
 -1        19 0.00000E+00 0.00000E+00 0.00000E+00
 -1        20 0.00000E+00 0.00000E+00 0.00000E+00
 -1        21 0.00000E+00 0.00000E+00 0.00000E+00
 -1        22 0.00000E+00 0.00000E+00 0.00000E+00
 -1        23 4.11283E-04-2.60677E-04 1.81943E-18
 -1        24 7.03189E-04-4.00854E-04-4.58753E-17
 -1        25 9.73184E-04-4.98133E-04-1.39984E-16
 -1        26 1.23760E-03-5.66739E-04-2.78684E-16
 -1        27 1.50107E-03-6.15805E-04-4.60240E-16
 -1        28 1.76568E-03-6.50706E-04-6.84338E-16
 -1        29 2.03240E-03-6.75135E-04-9.52306E-16
 -1        30 2.30160E-03-6.91769E-04-1.26240E-15
 -1        31 2.57337E-03-7.02602E-04-1.61538E-15
 -1        32 2.84760E-03-7.09132E-04-2.01313E-15
 -1        33 3.12410E-03-7.12476E-04-2.45278E-15
 -1        34 3.40267E-03-7.13450E-04-2.92887E-15
 -1        35 3.68315E-03-7.12631E-04-3.44457E-15
 -1        36 3.96544E-03-7.10406E-04-3.99919E-15
 -1        37 4.24956E-03-7.07013E-04-4.59383E-15
 -1        38 4.53571E-03-7.02573E-04-5.23012E-15
 -1        39 4.82436E-03-6.97140E-04-5.89791E-15
 -1        40 5.13110E-03-6.90411E-04-6.63477E-15
 -1        41 5.42834E-03-6.83206E-04-7.36679E-15
 -1        42 5.73318E-03-6.75769E-04-8.11705E-15
 -1        43 6.04982E-03-6.69526E-04-8.89800E-15
 -1        44 6.38493E-03-6.67829E-04-9.70030E-15
 -1        45 6.74869E-03-6.78029E-04-1.05229E-14
 -1        46 7.15550E-03-7.15307E-04-1.13680E-14
 -1        47 7.62217E-03-8.08697E-04-1.22329E-14
 -1        48 8.15852E-03-1.00667E-03-1.31153E-14
 -1        49 8.68420E-03-1.32318E-03-1.39283E-14
 -1        50 9.13708E-03-1.72511E-03-1.46808E-14
 -1        51 9.51221E-03-2.18422E-03-1.54577E-14
 -1        52 9.76727E-03-2.55101E-03-1.62611E-14
 -1        53 9.97767E-03-2.65402E-03-1.72004E-14
 -1        54 1.02432E-02-2.44549E-03-1.81158E-14
 -1        55 1.06166E-02-2.14697E-03-1.90032E-14
 -1        56 1.12173E-02-1.85118E-03-2.01935E-14
 -1        57 1.17912E-02-1.75311E-03-2.13428E-14
 -1        58 1.23038E-02-1.79853E-03-2.25082E-14
 -1        59 1.27482E-02-1.92977E-03-2.36631E-14
 -1        60 1.31384E-02-2.10521E-03-2.48211E-14
 -1        61 1.34911E-02-2.30125E-03-2.59990E-14
 -1        62 1.38191E-02-2.50595E-03-2.71978E-14
 -1        63 1.41315E-02-2.71362E-03-2.83932E-14
 -1        64 1.44338E-02-2.92173E-03-2.96036E-14
 -1        65 1.47299E-02-3.12926E-03-3.08433E-14
 -1        66 1.50220E-02-3.33586E-03-3.21084E-14
 -1        67 1.53115E-02-3.54147E-03-3.33816E-14
 -1        68 1.55993E-02-3.74617E-03-3.46357E-14
 -1        69 1.58861E-02-3.95002E-03-3.59050E-14
 -1        70 1.61722E-02-4.15313E-03-3.72142E-14
 -1        71 1.64580E-02-4.35559E-03-3.85419E-14
 -1        72 1.67436E-02-4.55754E-03-3.98832E-14
 -1        73 4.13736E-04 2.61377E-04 3.83875E-17
 -1        74 7.03027E-04 4.03557E-04 5.33699E-17
 -1        75 9.73735E-04 4.99898E-04 4.26769E-17
 -1        76 1.23846E-03 5.68433E-04 7.52165E-19
 -1        77 1.50209E-03 6.17558E-04-7.46033E-17
 -1        78 1.76680E-03 6.52563E-04-1.83698E-16
 -1        79 2.03362E-03 6.77131E-04-3.29557E-16
 -1        80 2.30293E-03 6.93945E-04-5.11960E-16
 -1        81 2.57482E-03 7.05018E-04-7.30376E-16
 -1        82 2.84920E-03 7.11879E-04-9.87888E-16
 -1        83 3.12589E-03 7.15698E-04-1.28703E-15
 -1        84 3.40467E-03 7.17375E-04-1.62697E-15
 -1        85 3.68533E-03 7.17607E-04-2.00487E-15
 -1        86 3.96767E-03 7.16957E-04-2.42413E-15
 -1        87 4.25150E-03 7.15895E-04-2.88900E-15
 -1        88 4.53664E-03 7.14847E-04-3.40072E-15
 -1        89 4.82289E-03 7.14219E-04-3.95457E-15
 -1        90 5.10992E-03 7.14411E-04-4.55126E-15
 -1        91 5.39731E-03 7.15801E-04-5.19042E-15
 -1        92 5.68436E-03 7.18681E-04-5.87745E-15
 -1        93 5.97007E-03 7.23145E-04-6.61609E-15
 -1        94 6.25304E-03 7.28908E-04-7.40268E-15
 -1        95 6.53149E-03 7.35054E-04-8.23026E-15
 -1        96 6.80338E-03 7.39771E-04-9.09313E-15
 -1        97 7.06665E-03 7.40122E-04-9.98586E-15
 -1        98 7.31969E-03 7.31981E-04-1.09079E-14
 -1        99 7.56182E-03 7.10274E-04-1.18608E-14
 -1       100 7.79383E-03 6.69589E-04-1.28395E-14
 -1       101 8.01812E-03 6.05095E-04-1.38569E-14
 -1       102 8.23858E-03 5.13564E-04-1.49122E-14
 -1       103 8.45984E-03 3.94130E-04-1.59950E-14
 -1       104 8.68636E-03 2.48506E-04-1.71199E-14
 -1       105 8.92158E-03 8.05574E-05-1.82802E-14
 -1       106 9.16737E-03-1.04584E-04-1.94668E-14
 -1       107 9.42399E-03-3.01540E-04-2.06970E-14
 -1       108 9.69040E-03-5.05525E-04-2.19698E-14
 -1       109 9.96478E-03-7.12820E-04-2.32683E-14
 -1       110 1.02451E-02-9.20900E-04-2.45894E-14
 -1       111 1.05293E-02-1.12830E-03-2.59330E-14
 -1       112 1.08159E-02-1.33435E-03-2.72969E-14
 -1       113 1.11037E-02-1.53892E-03-2.86932E-14
 -1       114 1.13918E-02-1.74218E-03-3.01041E-14
 -1       115 1.16798E-02-1.94443E-03-3.15062E-14
 -1       116 1.19674E-02-2.14601E-03-3.29007E-14
 -1       117 1.22544E-02-2.34721E-03-3.42809E-14
 -1       118 1.25410E-02-2.54829E-03-3.56650E-14
 -1       119 1.28272E-02-2.74944E-03-3.70579E-14
 -1       120 1.31130E-02-2.95080E-03-3.84490E-14
 -1       121 1.33987E-02-3.15241E-03-3.98432E-14
 -1       122 1.38686E-02-3.42841E-03-4.12323E-14
 -1       123 1.40672E-02-3.51271E-03-4.13091E-14
 -1       124 1.42661E-02-3.59685E-03-4.13729E-14
 -1       125 1.44651E-02-3.68072E-03-4.14367E-14
 -1       126 1.46642E-02-3.76425E-03-4.14898E-14
 -1       127 1.48599E-02-3.84601E-03-4.15411E-14
 -1       128 1.50587E-02-3.92883E-03-4.15846E-14
 -1       129 1.52572E-02-4.01138E-03-4.16271E-14
 -1       130 1.54553E-02-4.09380E-03-4.16435E-14
 -1       131 1.56530E-02-4.17623E-03-4.16187E-14
 -1       132 1.58504E-02-4.25886E-03-4.15827E-14
 -1       133 1.60441E-02-4.34044E-03-4.15588E-14
 -1       134 1.62412E-02-4.42386E-03-4.15061E-14
 -1       135 1.64385E-02-4.50774E-03-4.14155E-14
 -1       136 1.66362E-02-4.59197E-03-4.13316E-14
 -1       137 1.68343E-02-4.67634E-03-4.12798E-14
 -1       138 1.18360E-02-9.63237E-04-1.88490E-14
 -1       139 1.15802E-02-7.67483E-04-1.86292E-14
 -1       140 1.12545E-02-5.91130E-04-1.83246E-14
 -1       141 1.08174E-02-4.13382E-04-1.78954E-14
 -1       142 1.03724E-02-2.76189E-04-1.74438E-14
 -1       143 9.87075E-03-1.60577E-04-1.69271E-14
 -1       144 9.31799E-03-7.50847E-05-1.63547E-14
 -1       145 8.81756E-03-3.71468E-05-1.58451E-14
 -1       146 8.30341E-03-4.05684E-05-1.53250E-14
 -1       147 7.86268E-03-8.65666E-05-1.48884E-14
 -1       148 7.50781E-03-1.66577E-04-1.45516E-14
 -1       149 7.23472E-03-2.76170E-04-1.43024E-14
 -1       150 7.02468E-03-4.29887E-04-1.41231E-14
 -1       151 6.93277E-03-5.95857E-04-1.40673E-14
 -1       152 6.94018E-03-7.98752E-04-1.41187E-14
 -1       153 7.05470E-03-1.02128E-03-1.42659E-14
 -1       154 7.28137E-03-1.27454E-03-1.45021E-14
 -1       155 8.05849E-03-1.84197E-03-1.52290E-14
 -1       156 8.60198E-03-2.11821E-03-1.56883E-14
 -1       157 9.20656E-03-2.32006E-03-1.61770E-14
 -1       158 9.88570E-03-2.40672E-03-1.67353E-14
 -1       159 1.04798E-02-2.35266E-03-1.72377E-14
 -1       160 1.10143E-02-2.19882E-03-1.77225E-14
 -1       161 1.14425E-02-1.99764E-03-1.81546E-14
 -1       162 1.17609E-02-1.77749E-03-1.85139E-14
 -1       163 1.19619E-02-1.55138E-03-1.87810E-14
 -1       164 1.20264E-02-1.35090E-03-1.89176E-14
 -1       165 2.40375E-04-1.25491E-04-1.38032E-17
 -1       166 2.25267E-04-9.45941E-05-1.83637E-17
 -1       167 2.19528E-04-7.27505E-05-2.02983E-17
 -1       168 2.16725E-04-5.50803E-05-2.07828E-17
 -1       169 2.15243E-04-3.99418E-05-2.04033E-17
 -1       170 2.14410E-04-2.58935E-05-1.94919E-17
 -1       171 2.13992E-04-1.26299E-05-1.84043E-17
 -1       172 2.13869E-04 2.77357E-07-1.72659E-17
 -1       173 2.14009E-04 1.31963E-05-1.57582E-17
 -1       174 2.14447E-04 2.64978E-05-1.37355E-17
 -1       175 2.15287E-04 4.03708E-05-1.12079E-17
 -1       176 2.16829E-04 5.58854E-05-7.90112E-18
 -1       177 2.19682E-04 7.37851E-05-3.48639E-18
 -1       178 2.25432E-04 9.59905E-05 2.51399E-18
 -1       179 2.39307E-04 1.27559E-04 1.13807E-17
 -1       180 2.97658E-04 1.85457E-04 2.20025E-17
 -1       181 4.68541E-04-2.63478E-04-3.64834E-17
 -1       182 7.66633E-04-3.81985E-04-1.13143E-16
 -1       183 1.05044E-03-4.64747E-04-2.32670E-16
 -1       184 1.32779E-03-5.23353E-04-3.95032E-16
 -1       185 1.60238E-03-5.64817E-04-5.98368E-16
 -1       186 1.87627E-03-5.93809E-04-8.43550E-16
 -1       187 2.15061E-03-6.13615E-04-1.13073E-15
 -1       188 2.42603E-03-6.26633E-04-1.45922E-15
 -1       189 2.70280E-03-6.34646E-04-1.83044E-15
 -1       190 2.98104E-03-6.38976E-04-2.24413E-15
 -1       191 3.26076E-03-6.40590E-04-2.69715E-15
 -1       192 3.54193E-03-6.40177E-04-3.18753E-15
 -1       193 3.82454E-03-6.38200E-04-3.71721E-15
 -1       194 4.10864E-03-6.34941E-04-4.28416E-15
 -1       195 4.39436E-03-6.30536E-04-4.89191E-15
 -1       196 4.68200E-03-6.25010E-04-5.53631E-15
 -1       197 4.98667E-03-6.17945E-04-6.24869E-15
 -1       198 5.28027E-03-6.09977E-04-6.95964E-15
 -1       199 5.57862E-03-6.00906E-04-7.69557E-15
 -1       200 5.88379E-03-5.91332E-04-8.45964E-15
 -1       201 6.19885E-03-5.83020E-04-9.24815E-15
 -1       202 6.52814E-03-5.80340E-04-1.00581E-14
 -1       203 6.87745E-03-5.93102E-04-1.08908E-14
 -1       204 7.25395E-03-6.41683E-04-1.17411E-14
 -1       205 7.66526E-03-7.64216E-04-1.26130E-14
 -1       206 8.07086E-03-9.87149E-04-1.34123E-14
 -1       207 8.45973E-03-1.31278E-03-1.41448E-14
 -1       208 9.39850E-03-2.31476E-03-1.57996E-14
 -1       209 9.82079E-03-2.59600E-03-1.67184E-14
 -1       210 1.02179E-02-2.49488E-03-1.76203E-14
 -1       211 1.06142E-02-2.19525E-03-1.84947E-14
 -1       212 1.11507E-02-1.82556E-03-1.96782E-14
 -1       213 1.16447E-02-1.66293E-03-2.08255E-14
 -1       214 1.20993E-02-1.67095E-03-2.19868E-14
 -1       215 1.25111E-02-1.78567E-03-2.31529E-14
 -1       216 1.28858E-02-1.95581E-03-2.43143E-14
 -1       217 1.32325E-02-2.15152E-03-2.54879E-14
 -1       218 1.35590E-02-2.35765E-03-2.66842E-14
 -1       219 1.38718E-02-2.56715E-03-2.78938E-14
 -1       220 1.41754E-02-2.77695E-03-2.91054E-14
 -1       221 1.44727E-02-2.98587E-03-3.03408E-14
 -1       222 1.47660E-02-3.19356E-03-3.16006E-14
 -1       223 1.50565E-02-3.40003E-03-3.28708E-14
 -1       224 1.53452E-02-3.60539E-03-3.41407E-14
 -1       225 1.56327E-02-3.80977E-03-3.54168E-14
 -1       226 1.59193E-02-4.01329E-03-3.67233E-14
 -1       227 1.62055E-02-4.21608E-03-3.80537E-14
 -1       228 1.64914E-02-4.41824E-03-3.93897E-14
 -1       229 1.66628E-02-4.54734E-03-4.03327E-14
 -1       230 6.04468E-04 3.30931E-04 2.71457E-17
 -1       231 8.93524E-04 4.32464E-04 7.35902E-18
 -1       232 1.17236E-03 5.04054E-04-4.19078E-17
 -1       233 1.44670E-03 5.54953E-04-1.23846E-16
 -1       234 1.71952E-03 5.90946E-04-2.40107E-16
 -1       235 1.99246E-03 6.16019E-04-3.92708E-16
 -1       236 2.26638E-03 6.33034E-04-5.81431E-16
 -1       237 2.54171E-03 6.44118E-04-8.06606E-16
 -1       238 2.81862E-03 6.50874E-04-1.07038E-15
 -1       239 3.09712E-03 6.54519E-04-1.37435E-15
 -1       240 3.37716E-03 6.55982E-04-1.71883E-15
 -1       241 3.65863E-03 6.55978E-04-2.10219E-15
 -1       242 3.94142E-03 6.55079E-04-2.52436E-15
 -1       243 4.22540E-03 6.53759E-04-2.99076E-15
 -1       244 4.51042E-03 6.52452E-04-3.50152E-15
 -1       245 4.79631E-03 6.51573E-04-4.05465E-15
 -1       246 5.08283E-03 6.51547E-04-4.65019E-15
 -1       247 5.36962E-03 6.52788E-04-5.28908E-15
 -1       248 5.65614E-03 6.55653E-04-5.97253E-15
 -1       249 5.94165E-03 6.60329E-04-6.70782E-15
 -1       250 6.22513E-03 6.66649E-04-7.48879E-15
 -1       251 6.50533E-03 6.73838E-04-8.31031E-15
 -1       252 6.78081E-03 6.80216E-04-9.16731E-15
 -1       253 7.05012E-03 6.82927E-04-1.00545E-14
 -1       254 7.31215E-03 6.77832E-04-1.09745E-14
 -1       255 7.56642E-03 6.59699E-04-1.19227E-14
 -1       256 7.81342E-03 6.22797E-04-1.28994E-14
 -1       257 8.05480E-03 5.61878E-04-1.39085E-14
 -1       258 8.29320E-03 4.73280E-04-1.49568E-14
 -1       259 8.53187E-03 3.55824E-04-1.60376E-14
 -1       260 8.77397E-03 2.11108E-04-1.71550E-14
 -1       261 9.02203E-03 4.31025E-05-1.83089E-14
 -1       262 9.27750E-03-1.42804E-04-1.94949E-14
 -1       263 9.54073E-03-3.40918E-04-2.07166E-14
 -1       264 9.81112E-03-5.46168E-04-2.19750E-14
 -1       265 1.00875E-02-7.54629E-04-2.32576E-14
 -1       266 1.03684E-02-9.63662E-04-2.45667E-14
 -1       267 1.06525E-02-1.17176E-03-2.58993E-14
 -1       268 1.09386E-02-1.37828E-03-2.72548E-14
 -1       269 1.12257E-02-1.58312E-03-2.86347E-14
 -1       270 1.15132E-02-1.78651E-03-3.00296E-14
 -1       271 1.18007E-02-1.98878E-03-3.14286E-14
 -1       272 1.20880E-02-2.19032E-03-3.28205E-14
 -1       273 1.23750E-02-2.39144E-03-3.42036E-14
 -1       274 1.26615E-02-2.59243E-03-3.55838E-14
 -1       275 1.29478E-02-2.79349E-03-3.69741E-14
 -1       276 1.32338E-02-2.99478E-03-3.83741E-14
 -1       277 1.35196E-02-3.19635E-03-3.97677E-14
 -1       278 1.37204E-02-3.29575E-03-4.00662E-14
 -1       279 1.39192E-02-3.37987E-03-4.01330E-14
 -1       280 1.41182E-02-3.46380E-03-4.01987E-14
 -1       281 1.43174E-02-3.54748E-03-4.02586E-14
 -1       282 1.45132E-02-3.62946E-03-4.03097E-14
 -1       283 1.47123E-02-3.71259E-03-4.03570E-14
 -1       284 1.49110E-02-3.79547E-03-4.03904E-14
 -1       285 1.51094E-02-3.87817E-03-4.04147E-14
 -1       286 1.53073E-02-3.96081E-03-4.04166E-14
 -1       287 1.55047E-02-4.04351E-03-4.03925E-14
 -1       288 1.56985E-02-4.12499E-03-4.03588E-14
 -1       289 1.58955E-02-4.20816E-03-4.03145E-14
 -1       290 1.60925E-02-4.29167E-03-4.02602E-14
 -1       291 1.62899E-02-4.37551E-03-4.01996E-14
 -1       292 1.64762E-02-4.46136E-03-4.02669E-14
 -1       293 1.19372E-02-1.16513E-03-1.93649E-14
 -1       294 1.16771E-02-1.04450E-03-1.92105E-14
 -1       295 1.13099E-02-8.68254E-04-1.88648E-14
 -1       296 1.08444E-02-6.72222E-04-1.84634E-14
 -1       297 1.03899E-02-4.26965E-04-1.78870E-14
 -1       298 9.92155E-03-2.20215E-04-1.73240E-14
 -1       299 9.46171E-03-4.37814E-05-1.66675E-14
 -1       300 9.05551E-03 2.83697E-05-1.60275E-14
 -1       301 8.64313E-03 2.19642E-05-1.54094E-14
 -1       302 8.21859E-03-7.29869E-05-1.48664E-14
 -1       303 7.81758E-03-2.01721E-04-1.44423E-14
 -1       304 7.46509E-03-3.35822E-04-1.41104E-14
 -1       305 7.16507E-03-4.79495E-04-1.37768E-14
 -1       306 6.95750E-03-5.73985E-04-1.37432E-14
 -1       307 6.89170E-03-6.72661E-04-1.37137E-14
 -1       308 6.98003E-03-7.95189E-04-1.38478E-14
 -1       309 7.21805E-03-9.62284E-04-1.40666E-14
 -1       310 7.58623E-03-1.19826E-03-1.43844E-14
 -1       311 8.05709E-03-1.51890E-03-1.48003E-14
 -1       312 8.61586E-03-1.89428E-03-1.52863E-14
 -1       313 9.11345E-03-2.25846E-03-1.58655E-14
 -1       314 9.63178E-03-2.48813E-03-1.64837E-14
 -1       315 1.01030E-02-2.47593E-03-1.71035E-14
 -1       316 1.05675E-02-2.28537E-03-1.76955E-14
 -1       317 1.10431E-02-2.01139E-03-1.82188E-14
 -1       318 1.14708E-02-1.74635E-03-1.86876E-14
 -1       319 1.18094E-02-1.51953E-03-1.91194E-14
 -1       320 1.20122E-02-1.37927E-03-1.93056E-14
 -1       321 1.20503E-02-1.26942E-03-1.94053E-14
 -1       322 8.97748E-03-1.84396E-03-1.50078E-14
 -1       323 4.55397E-04-1.64718E-04-6.82675E-17
 -1       324 4.74221E-04-2.12900E-04-6.18775E-17
 -1       325 4.40488E-04-9.39443E-05-7.10423E-17
 -1       326 4.37529E-04-6.48513E-05-6.92941E-17
 -1       327 4.35909E-04-3.78636E-05-6.68343E-17
 -1       328 4.35197E-04-1.19972E-05-6.34462E-17
 -1       329 4.35225E-04 1.35317E-05-5.94753E-17
 -1       330 4.35999E-04 3.94532E-05-5.42745E-17
 -1       331 4.37660E-04 6.60891E-05-4.81555E-17
 -1       332 4.40708E-04 9.53501E-05-4.04238E-17
 -1       333 4.46079E-04 1.28253E-04-3.05643E-17
 -1       334 4.55985E-04 1.67232E-04-1.77301E-17
 -1       335 4.75844E-04 2.16891E-04-8.23316E-19
 -1       336 5.31923E-04 2.69858E-04 1.10419E-17
 -1       337 8.24385E-04 3.73273E-04-1.49518E-17
 -1       338 8.63194E-04-3.57197E-04-1.85720E-16
 -1       339 1.14954E-03-4.25804E-04-3.29137E-16
 -1       340 1.43232E-03-4.74774E-04-5.13241E-16
 -1       341 1.71306E-03-5.09243E-04-7.37461E-16
 -1       342 1.99289E-03-5.32986E-04-1.00218E-15
 -1       343 2.27258E-03-5.48804E-04-1.30756E-15
 -1       344 2.55263E-03-5.58786E-04-1.65358E-15
 -1       345 2.83331E-03-5.64484E-04-2.04156E-15
 -1       346 3.11479E-03-5.67045E-04-2.47029E-15
 -1       347 3.39715E-03-5.67290E-04-2.93731E-15
 -1       348 3.68042E-03-5.65790E-04-3.44201E-15
 -1       349 3.96466E-03-5.62906E-04-3.98455E-15
 -1       350 4.24992E-03-5.58837E-04-4.56376E-15
 -1       351 4.53632E-03-5.53652E-04-5.18276E-15
 -1       352 4.83844E-03-5.46978E-04-5.87096E-15
 -1       353 5.12777E-03-5.39391E-04-6.55990E-15
 -1       354 5.41897E-03-5.30613E-04-7.27783E-15
 -1       355 5.71241E-03-5.20948E-04-8.02445E-15
 -1       356 6.00847E-03-5.11432E-04-8.79909E-15
 -1       357 6.30741E-03-5.04712E-04-9.59695E-15
 -1       358 6.60946E-03-5.06726E-04-1.04176E-14
 -1       359 6.91531E-03-5.29687E-04-1.12571E-14
 -1       360 7.22847E-03-5.97006E-04-1.21154E-14
 -1       361 7.52597E-03-7.29360E-04-1.29036E-14
 -1       362 1.20299E-02-1.27860E-03-1.99862E-14
 -1       363 1.10981E-02-1.84601E-03-1.90166E-14
 -1       364 1.15801E-02-1.58724E-03-2.01817E-14
 -1       365 1.19656E-02-1.54671E-03-2.13418E-14
 -1       366 1.23149E-02-1.63289E-03-2.25122E-14
 -1       367 1.26445E-02-1.78835E-03-2.36846E-14
 -1       368 1.29626E-02-1.97763E-03-2.48554E-14
 -1       369 1.32725E-02-2.18178E-03-2.60433E-14
 -1       370 1.35761E-02-2.39136E-03-2.72558E-14
 -1       371 1.38748E-02-2.60205E-03-2.84775E-14
 -1       372 1.41698E-02-2.81206E-03-2.97092E-14
 -1       373 1.44620E-02-3.02080E-03-3.09631E-14
 -1       374 1.47522E-02-3.22818E-03-3.22333E-14
 -1       375 1.50410E-02-3.43430E-03-3.35117E-14
 -1       376 1.53287E-02-3.63932E-03-3.47953E-14
 -1       377 1.56156E-02-3.84337E-03-3.60978E-14
 -1       378 1.59021E-02-4.04660E-03-3.74302E-14
 -1       379 1.61881E-02-4.24911E-03-3.87663E-14
 -1       380 1.27158E-03 4.60736E-04-1.34468E-16
 -1       381 1.55251E-03 5.03401E-04-2.45318E-16
 -1       382 1.83192E-03 5.33279E-04-3.91475E-16
 -1       383 2.11086E-03 5.53704E-04-5.73272E-16
 -1       384 2.39001E-03 5.67172E-04-7.91190E-16
 -1       385 2.66975E-03 5.75558E-04-1.04683E-15
 -1       386 2.95030E-03 5.80276E-04-1.34126E-15
 -1       387 3.23174E-03 5.82400E-04-1.67563E-15
 -1       388 3.51410E-03 5.82745E-04-2.04893E-15
 -1       389 3.79736E-03 5.81946E-04-2.46096E-15
 -1       390 4.08148E-03 5.80516E-04-2.91230E-15
 -1       391 4.36639E-03 5.78899E-04-3.40753E-15
 -1       392 4.65204E-03 5.77515E-04-3.94322E-15
 -1       393 4.93831E-03 5.76788E-04-4.52141E-15
 -1       394 5.22506E-03 5.77160E-04-5.14127E-15
 -1       395 5.51206E-03 5.79058E-04-5.80637E-15
 -1       396 5.79894E-03 5.82829E-04-6.51769E-15
 -1       397 6.08519E-03 5.88593E-04-7.27624E-15
 -1       398 6.37010E-03 5.96023E-04-8.07657E-15
 -1       399 6.65273E-03 6.04043E-04-8.91509E-15
 -1       400 6.93201E-03 6.10498E-04-9.78645E-15
 -1       401 7.20683E-03 6.11889E-04-1.06869E-14
 -1       402 7.47635E-03 6.03332E-04-1.16165E-14
 -1       403 7.74026E-03 5.78918E-04-1.25775E-14
 -1       404 7.99916E-03 5.32557E-04-1.35685E-14
 -1       405 8.25462E-03 4.59199E-04-1.45935E-14
 -1       406 8.50897E-03 3.56060E-04-1.56560E-14
 -1       407 8.76482E-03 2.23380E-04-1.67533E-14
 -1       408 9.02443E-03 6.43537E-05-1.78878E-14
 -1       409 9.28921E-03-1.15729E-04-1.90527E-14
 -1       410 9.55961E-03-3.10744E-04-2.02515E-14
 -1       411 9.83523E-03-5.14916E-04-2.14856E-14
 -1       412 1.01152E-02-7.23584E-04-2.27445E-14
 -1       413 1.03983E-02-9.33487E-04-2.40319E-14
 -1       414 1.06837E-02-1.14268E-03-2.53422E-14
 -1       415 1.09703E-02-1.35023E-03-2.66759E-14
 -1       416 1.12576E-02-1.55592E-03-2.80317E-14
 -1       417 1.15451E-02-1.75991E-03-2.94082E-14
 -1       418 1.18325E-02-1.96257E-03-3.07946E-14
 -1       419 1.21198E-02-2.16428E-03-3.21864E-14
 -1       420 1.24067E-02-2.36544E-03-3.35694E-14
 -1       421 1.26933E-02-2.56635E-03-3.49488E-14
 -1       422 1.29796E-02-2.76726E-03-3.63354E-14
 -1       423 1.32657E-02-2.96834E-03-3.77325E-14
 -1       424 1.34931E-02-3.13193E-03-3.88998E-14
 -1       425 1.39705E-02-3.33109E-03-3.90221E-14
 -1       426 1.37713E-02-3.24726E-03-3.89579E-14
 -1       427 1.41664E-02-3.41326E-03-3.90732E-14
 -1       428 1.43657E-02-3.49658E-03-3.91179E-14
 -1       429 1.45647E-02-3.57965E-03-3.91569E-14
 -1       430 1.47633E-02-3.66250E-03-3.91844E-14
 -1       431 1.49615E-02-3.74520E-03-3.91981E-14
 -1       432 1.51592E-02-3.82785E-03-3.91963E-14
 -1       433 1.53530E-02-3.90917E-03-3.91749E-14
 -1       434 1.55499E-02-3.99208E-03-3.91379E-14
 -1       435 1.57467E-02-4.07528E-03-3.90918E-14
 -1       436 1.59438E-02-4.15884E-03-3.90523E-14
 -1       437 1.04884E-03 4.24419E-04-6.31243E-17
 -1       438 1.14381E-02-1.09195E-03-1.95793E-14
 -1       439 1.04833E-02-6.11223E-04-1.84206E-14
 -1       440 8.47850E-03-1.49854E-03-1.46002E-14
 -1       441 4.45625E-04-1.26410E-04-7.08594E-17
 -1       442 1.00652E-02-3.71356E-04-1.78281E-14
 -1       443 9.62050E-03-1.31517E-04-1.71113E-14
 -1       444 9.15790E-03 4.61790E-05-1.62242E-14
 -1       445 8.85156E-03 7.40234E-05-1.56030E-14
 -1       446 8.44826E-03-5.06759E-06-1.48734E-14
 -1       447 8.05341E-03-1.54024E-04-1.42944E-14
 -1       448 7.68080E-03-3.07225E-04-1.39348E-14
 -1       449 7.36313E-03-4.33785E-04-1.35818E-14
 -1       450 7.01502E-03-5.55348E-04-1.33492E-14
 -1       451 6.89369E-03-6.07120E-04-1.33200E-14
 -1       452 6.91104E-03-6.67127E-04-1.33834E-14
 -1       453 7.10308E-03-7.65587E-04-1.36017E-14
 -1       454 7.46367E-03-9.18208E-04-1.38446E-14
 -1       455 7.92749E-03-1.22177E-03-1.43259E-14
 -1       456 8.44136E-03-1.59044E-03-1.48100E-14
 -1       457 9.02723E-03-2.08630E-03-1.54943E-14
 -1       458 9.44969E-03-2.41734E-03-1.61022E-14
 -1       459 1.07492E-02-2.11882E-03-1.82523E-14
 -1       460 1.11973E-02-1.81448E-03-1.87966E-14
 -1       461 1.15964E-02-1.56915E-03-1.93176E-14
 -1       462 1.19394E-02-1.39696E-03-1.97263E-14
 -1       463 1.20667E-02-1.32374E-03-1.98858E-14
 -1       464 1.10462E-02-9.22101E-04-1.91671E-14
 -1       465 1.18254E-02-1.21731E-03-1.98742E-14
 -1       466 7.97578E-03-1.02181E-03-1.37276E-14
 -1       467 1.05111E-02-2.29053E-03-1.78732E-14
 -1       468 1.60658E-02-4.20389E-03-3.89083E-14
 -1       469 1.07422E-02-8.36922E-04-1.91223E-14
 -1       470 7.15447E-03-4.96902E-04-1.31526E-14
 -1       471 9.32649E-03-1.63482E-05-1.66614E-14
 -1       472 6.65904E-04-7.50464E-05-1.45568E-16
 -1       473 6.69861E-04-1.15777E-04-1.49261E-16
 -1       474 6.63229E-04 1.11629E-06-1.32750E-16
 -1       475 6.63944E-04 3.87351E-05-1.24131E-16
 -1       476 6.66077E-04 7.67487E-05-1.13665E-16
 -1       477 6.70161E-04 1.17625E-04-1.00943E-16
 -1       478 6.77151E-04 1.62218E-04-8.52589E-17
 -1       479 6.88970E-04 2.12575E-04-6.55942E-17
 -1       480 7.09754E-04 2.71607E-04-4.10709E-17
 -1       481 7.63452E-04 3.20327E-04-2.99680E-17
 -1       482 9.76277E-04-3.28383E-04-2.64105E-16
 -1       483 1.19716E-02-1.32312E-03-2.05876E-14
 -1       484 1.26221E-03-3.83061E-04-4.28931E-16
 -1       485 1.54725E-03-4.22591E-04-6.33083E-16
 -1       486 1.83142E-03-4.50341E-04-8.76872E-16
 -1       487 2.11503E-03-4.69202E-04-1.15975E-15
 -1       488 2.39841E-03-4.81441E-04-1.48212E-15
 -1       489 2.68181E-03-4.88795E-04-1.84512E-15
 -1       490 2.96542E-03-4.92569E-04-2.24831E-15
 -1       491 3.24935E-03-4.93725E-04-2.69191E-15
 -1       492 3.53366E-03-4.92944E-04-3.17297E-15
 -1       493 3.81838E-03-4.90691E-04-3.69098E-15
 -1       494 4.10352E-03-4.87256E-04-4.24475E-15
 -1       495 4.38903E-03-4.82799E-04-4.83695E-15
 -1       496 4.68914E-03-4.77100E-04-5.49966E-15
 -1       497 4.97507E-03-4.70744E-04-6.16604E-15
 -1       498 5.26074E-03-4.63592E-04-6.86479E-15
 -1       499 5.54548E-03-4.55979E-04-7.59250E-15
 -1       500 5.82809E-03-4.48762E-04-8.35184E-15
 -1       501 6.10654E-03-4.43842E-04-9.13738E-15
 -1       502 6.37773E-03-4.45014E-04-9.94638E-15
 -1       503 6.63741E-03-4.59280E-04-1.07763E-14
 -1       504 6.88112E-03-4.98887E-04-1.16235E-14
 -1       505 7.17113E-03-5.94595E-04-1.24621E-14
 -1       506 1.01968E-02-5.42177E-04-1.84352E-14
 -1       507 1.16570E-02-1.24286E-03-2.02898E-14
 -1       508 1.22101E-02-1.50501E-03-2.18628E-14
 -1       509 1.24671E-02-1.64177E-03-2.30407E-14
 -1       510 1.27335E-02-1.81764E-03-2.42189E-14
 -1       511 1.30091E-02-2.01317E-03-2.54044E-14
 -1       512 1.32908E-02-2.21788E-03-2.66088E-14
 -1       513 1.35761E-02-2.42615E-03-2.78344E-14
 -1       514 1.38630E-02-2.63516E-03-2.90723E-14
 -1       515 1.41504E-02-2.84367E-03-3.03247E-14
 -1       516 1.44379E-02-3.05119E-03-3.15934E-14
 -1       517 1.47252E-02-3.25762E-03-3.28736E-14
 -1       518 1.50121E-02-3.46300E-03-3.41654E-14
 -1       519 1.52987E-02-3.66745E-03-3.54681E-14
 -1       520 1.55850E-02-3.87105E-03-3.67908E-14
 -1       521 1.58254E-02-4.03768E-03-3.78475E-14
 -1       522 1.95100E-03 4.72338E-04-5.54969E-16
 -1       523 1.66765E-03 4.48232E-04-3.79948E-16
 -1       524 1.38347E-03 4.13560E-04-2.39903E-16
 -1       525 2.23393E-03 4.88530E-04-7.65281E-16
 -1       526 2.51678E-03 4.98883E-04-1.01262E-15
 -1       527 2.79980E-03 5.04986E-04-1.29830E-15
 -1       528 3.08313E-03 5.08048E-04-1.62261E-15
 -1       529 3.36688E-03 5.08987E-04-1.98581E-15
 -1       530 3.65108E-03 5.08502E-04-2.38710E-15
 -1       531 3.93578E-03 5.07144E-04-2.82830E-15
 -1       532 4.22100E-03 5.05363E-04-3.30849E-15
 -1       533 4.50676E-03 5.03568E-04-3.82976E-15
 -1       534 4.79311E-03 5.02156E-04-4.39094E-15
 -1       535 5.08008E-03 5.01548E-04-4.99249E-15
 -1       536 5.36770E-03 5.02184E-04-5.63897E-15
 -1       537 5.65598E-03 5.04498E-04-6.33107E-15
 -1       538 5.94482E-03 5.08826E-04-7.06735E-15
 -1       539 6.23400E-03 5.15243E-04-7.84818E-15
 -1       540 6.52305E-03 5.23305E-04-8.66741E-15
 -1       541 6.81121E-03 5.31694E-04-9.52162E-15
 -1       542 7.09741E-03 5.37826E-04-1.04057E-14
 -1       543 7.38038E-03 5.37536E-04-1.13163E-14
 -1       544 7.65903E-03 5.25078E-04-1.22573E-14
 -1       545 7.93292E-03 4.93674E-04-1.32315E-14
 -1       546 8.20266E-03 4.36729E-04-1.42366E-14
 -1       547 8.47005E-03 3.49443E-04-1.52770E-14
 -1       548 8.73765E-03 2.30230E-04-1.63562E-14
 -1       549 9.00795E-03 8.12288E-05-1.74704E-14
 -1       550 9.28258E-03-9.23795E-05-1.86180E-14
 -1       551 9.56198E-03-2.83876E-04-1.97956E-14
 -1       552 9.84556E-03-4.86599E-04-2.10041E-14
 -1       553 1.01322E-02-6.95047E-04-2.22413E-14
 -1       554 1.04206E-02-9.05333E-04-2.35064E-14
 -1       555 1.07098E-02-1.11511E-03-2.47963E-14
 -1       556 1.09991E-02-1.32325E-03-2.61088E-14
 -1       557 1.12881E-02-1.52941E-03-2.74426E-14
 -1       558 1.15766E-02-1.73374E-03-2.88013E-14
 -1       559 1.18645E-02-1.93659E-03-3.01717E-14
 -1       560 1.21519E-02-2.13838E-03-3.15533E-14
 -1       561 1.24389E-02-2.33951E-03-3.29373E-14
 -1       562 1.27255E-02-2.54032E-03-3.43193E-14
 -1       563 1.30118E-02-2.74106E-03-3.57017E-14
 -1       564 1.32979E-02-2.94193E-03-3.70931E-14
 -1       565 1.40189E-02-3.28083E-03-3.78846E-14
 -1       566 1.38229E-02-3.19873E-03-3.78369E-14
 -1       567 1.36235E-02-3.11496E-03-3.77793E-14
 -1       568 1.42182E-02-3.36406E-03-3.79267E-14
 -1       569 1.44172E-02-3.44701E-03-3.79587E-14
 -1       570 1.46157E-02-3.52970E-03-3.79801E-14
 -1       571 1.48137E-02-3.61222E-03-3.79895E-14
 -1       572 1.50077E-02-3.69329E-03-3.79826E-14
 -1       573 1.52046E-02-3.77586E-03-3.79585E-14
 -1       574 1.54013E-02-3.85868E-03-3.79260E-14
 -1       575 1.55979E-02-3.94187E-03-3.78957E-14
 -1       576 7.12624E-04-2.51678E-04-1.50104E-16
 -1       577 1.20515E-02-1.36374E-03-2.03287E-14
 -1       578 9.79983E-03-2.87008E-04-1.77029E-14
 -1       579 6.63842E-04-3.64687E-05-1.40099E-16
 -1       580 7.53421E-03-8.12727E-04-1.34016E-14
 -1       581 8.94906E-03 8.81745E-05-1.57997E-14
 -1       582 6.98690E-03-6.28811E-04-1.30184E-14
 -1       583 8.61465E-03 6.93344E-05-1.50191E-14
 -1       584 7.80663E-03-2.37666E-04-1.36706E-14
 -1       585 7.51760E-03-3.55469E-04-1.33240E-14
 -1       586 6.90849E-03-5.59897E-04-1.29019E-14
 -1       587 6.85156E-03-5.85006E-04-1.28723E-14
 -1       588 7.25193E-03-7.24238E-04-1.32945E-14
 -1       589 8.21998E-03-5.33475E-05-1.42301E-14
 -1       590 1.18147E-02-1.45347E-03-2.00802E-14
 -1       591 1.12133E-02-1.09385E-03-1.99061E-14
 -1       592 1.21041E-02-1.34340E-03-2.05635E-14
 -1       593 6.76681E-04-1.59920E-04-1.50823E-16
 -1       594 9.90389E-04 3.72627E-04-8.05257E-17
 -1       595 1.15040E-02-1.59920E-03-1.95505E-14
 -1       596 7.92108E-03-1.15745E-03-1.41839E-14
 -1       597 1.18677E-03 3.97966E-04-1.49894E-16
 -1       598 7.28326E-03-4.14957E-04-1.28978E-14
 -1       599 9.51639E-03-1.39399E-04-1.72425E-14
 -1       600 6.99181E-03-5.10152E-04-1.27054E-14
 -1       601 8.99838E-04 7.40280E-05-2.09197E-16
 -1       602 8.97756E-04 2.51606E-05-2.24176E-16
 -1       603 9.11884E-04 1.78034E-04-1.69979E-16
 -1       604 9.24235E-04 2.36504E-04-1.43687E-16
 -1       605 9.36635E-04 3.23283E-04-9.39156E-17
 -1       606 1.09777E-03-2.94337E-04-3.47531E-16
 -1       607 7.25616E-03-6.49186E-04-1.28194E-14
 -1       608 1.38337E-03-3.36542E-04-5.31950E-16
 -1       609 1.66958E-03-3.67206E-04-7.55035E-16
 -1       610 1.95583E-03-3.88643E-04-1.01587E-15
 -1       611 2.24191E-03-4.02997E-04-1.31535E-15
 -1       612 2.52782E-03-4.12026E-04-1.65429E-15
 -1       613 2.81360E-03-4.17119E-04-2.03278E-15
 -1       614 3.09928E-03-4.19332E-04-2.45131E-15
 -1       615 3.38491E-03-4.19443E-04-2.90867E-15
 -1       616 3.67047E-03-4.18010E-04-3.40344E-15
 -1       617 3.95593E-03-4.15420E-04-3.93318E-15
 -1       618 4.24116E-03-4.11936E-04-4.49962E-15
 -1       619 4.54018E-03-4.07528E-04-5.13589E-15
 -1       620 4.82411E-03-4.02806E-04-5.77911E-15
 -1       621 5.10654E-03-3.97848E-04-6.45572E-15
 -1       622 5.38637E-03-3.93147E-04-7.16475E-15
 -1       623 5.66182E-03-3.89642E-04-7.90574E-15
 -1       624 5.93012E-03-3.89046E-04-8.67635E-15
 -1       625 6.18706E-03-3.94305E-04-9.47593E-15
 -1       626 6.42655E-03-4.10128E-04-1.02960E-14
 -1       627 6.63986E-03-4.43274E-04-1.11360E-14
 -1       628 1.05001E-02-7.87033E-04-1.93781E-14
 -1       629 1.33377E-02-2.91409E-03-3.63875E-14
 -1       630 8.71245E-03 1.12350E-04-1.52122E-14
 -1       631 6.81459E-03-5.29141E-04-1.24096E-14
 -1       632 1.25389E-02-1.68708E-03-2.35751E-14
 -1       633 1.27733E-02-1.86685E-03-2.47633E-14
 -1       634 1.30273E-02-2.06035E-03-2.59642E-14
 -1       635 1.32941E-02-2.26133E-03-2.71845E-14
 -1       636 1.35689E-02-2.46591E-03-2.84249E-14
 -1       637 1.38487E-02-2.67187E-03-2.96787E-14
 -1       638 1.41313E-02-2.87801E-03-3.09481E-14
 -1       639 1.44156E-02-3.08377E-03-3.22296E-14
 -1       640 1.47006E-02-3.28890E-03-3.35261E-14
 -1       641 1.49861E-02-3.49334E-03-3.48317E-14
 -1       642 1.52718E-02-3.69708E-03-3.61477E-14
 -1       643 1.78980E-03 3.90035E-04-5.26800E-16
 -1       644 2.07563E-03 4.08734E-04-7.29902E-16
 -1       645 1.50378E-03 3.62892E-04-3.58996E-16
 -1       646 2.64669E-03 4.28651E-04-1.24561E-15
 -1       647 2.93208E-03 4.32813E-04-1.56077E-15
 -1       648 3.21747E-03 4.34530E-04-1.91396E-15
 -1       649 3.50293E-03 4.34555E-04-2.30514E-15
 -1       650 3.78852E-03 4.33461E-04-2.73516E-15
 -1       651 4.07431E-03 4.31701E-04-3.20287E-15
 -1       652 4.36041E-03 4.29652E-04-3.71066E-15
 -1       653 4.64695E-03 4.27666E-04-4.25881E-15
 -1       654 4.93411E-03 4.26099E-04-4.84444E-15
 -1       655 5.22213E-03 4.25346E-04-5.47186E-15
 -1       656 5.51130E-03 4.25842E-04-6.14471E-15
 -1       657 5.80193E-03 4.28034E-04-6.86276E-15
 -1       658 6.09425E-03 4.32304E-04-7.62486E-15
 -1       659 6.38834E-03 4.38787E-04-8.42497E-15
 -1       660 6.68388E-03 4.47072E-04-9.26048E-15
 -1       661 6.98005E-03 4.55751E-04-1.01264E-14
 -1       662 7.27540E-03 4.61869E-04-1.10220E-14
 -1       663 7.56810E-03 4.60444E-04-1.19446E-14
 -1       664 7.85645E-03 4.44448E-04-1.28974E-14
 -1       665 8.13982E-03 4.05688E-04-1.38854E-14
 -1       666 8.41920E-03 3.36723E-04-1.49068E-14
 -1       667 8.69721E-03 2.33195E-04-1.59625E-14
 -1       668 8.97708E-03 9.54862E-05-1.70583E-14
 -1       669 9.26121E-03-7.14328E-05-1.81851E-14
 -1       670 9.55033E-03-2.59840E-04-1.93430E-14
 -1       671 9.84358E-03-4.61638E-04-2.05308E-14
 -1       672 1.01392E-02-6.70113E-04-2.17473E-14
 -1       673 1.04354E-02-8.80635E-04-2.29931E-14
 -1       674 1.07308E-02-1.09054E-03-2.42610E-14
 -1       675 1.10246E-02-1.29864E-03-2.55550E-14
 -1       676 1.13167E-02-1.50464E-03-2.68688E-14
 -1       677 1.16072E-02-1.70874E-03-2.82064E-14
 -1       678 1.18963E-02-1.91135E-03-2.95608E-14
 -1       679 1.21843E-02-2.11291E-03-3.09284E-14
 -1       680 1.24715E-02-2.31381E-03-3.23068E-14
 -1       681 1.27581E-02-2.51440E-03-3.36871E-14
 -1       682 1.30480E-02-2.71420E-03-3.50354E-14
 -1       683 1.21247E-02-1.40300E-03-2.13069E-14
 -1       684 1.40709E-02-3.23181E-03-3.67389E-14
 -1       685 8.35792E-03 5.47950E-05-1.43330E-14
 -1       686 1.38716E-02-3.14872E-03-3.67040E-14
 -1       687 1.42699E-02-3.31452E-03-3.67650E-14
 -1       688 2.36124E-03 4.21055E-04-9.69019E-16
 -1       689 1.44683E-02-3.39691E-03-3.67847E-14
 -1       690 1.46627E-02-3.47768E-03-3.67951E-14
 -1       691 1.48597E-02-3.55980E-03-3.67863E-14
 -1       692 1.50562E-02-3.64208E-03-3.67695E-14
 -1       693 1.18563E-02-1.35214E-03-2.10395E-14
 -1       694 1.15009E-02-1.26921E-03-2.08836E-14
 -1       695 1.21500E-02-1.39647E-03-2.10836E-14
 -1       696 6.85124E-03-5.45384E-04-1.24519E-14
 -1       697 7.91511E-03-1.20548E-04-1.34989E-14
 -1       698 9.13479E-03 3.88505E-05-1.63406E-14
 -1       699 7.67226E-03-2.29669E-04-1.31587E-14
 -1       700 6.99911E-03-5.71908E-04-1.25464E-14
 -1       701 1.36753E-02-3.06670E-03-3.66595E-14
 -1       702 1.09383E-02-1.03361E-03-2.01701E-14
 -1       703 9.94192E-03-4.32878E-04-1.83203E-14
 -1       704 1.23316E-02-1.52996E-03-2.23908E-14
 -1       705 9.03936E-04-1.22044E-04-2.54184E-16
 -1       706 9.04280E-04 1.24474E-04-1.91372E-16
 -1       707 8.97701E-04-2.31085E-05-2.36637E-16
 -1       708 8.99652E-04-7.17144E-05-2.46697E-16
 -1       709 9.11326E-04-1.75420E-04-2.58321E-16
 -1       710 7.43550E-03-2.95635E-04-1.27346E-14
 -1       711 1.21787E-03 3.24965E-04-2.25395E-16
 -1       712 9.38275E-04-2.46923E-04-2.65047E-16
 -1       713 8.88980E-03 1.04216E-04-1.57411E-14
 -1       714 6.87493E-03-5.12480E-04-1.20362E-14
 -1       715 1.52524E-02-3.72474E-03-3.67454E-14
 -1       716 7.08269E-03-4.36922E-04-1.24532E-14
 -1       717 6.84194E-03-4.93234E-04-1.22155E-14
 -1       718 9.67535E-03-2.72927E-04-1.78475E-14
 -1       719 8.05945E-03 9.37732E-06-1.35901E-14
 -1       720 1.16163E-03 2.43317E-04-2.53558E-16
 -1       721 1.18269E-02-1.41994E-03-2.18859E-14
 -1       722 7.65134E-03-1.28351E-04-1.27806E-14
 -1       723 1.51034E-03-2.85965E-04-6.37396E-16
 -1       724 1.79741E-03-3.08637E-04-8.77299E-16
 -1       725 2.08506E-03-3.24369E-04-1.15401E-15
 -1       726 2.37283E-03-3.34687E-04-1.46946E-15
 -1       727 2.66047E-03-3.40927E-04-1.82395E-15
 -1       728 2.94785E-03-3.44153E-04-2.21743E-15
 -1       729 3.23490E-03-3.45188E-04-2.65070E-15
 -1       730 3.52155E-03-3.44648E-04-3.12203E-15
 -1       731 3.80772E-03-3.42990E-04-3.62832E-15
 -1       732 4.09325E-03-3.40565E-04-4.17072E-15
 -1       733 4.39210E-03-3.37515E-04-4.78057E-15
 -1       734 4.67537E-03-3.34449E-04-5.40029E-15
 -1       735 4.95661E-03-3.31645E-04-6.05425E-15
 -1       736 5.23476E-03-3.29742E-04-6.74143E-15
 -1       737 5.50812E-03-3.29782E-04-7.46263E-15
 -1       738 5.77418E-03-3.33447E-04-8.21808E-15
 -1       739 6.02928E-03-3.43346E-04-9.00382E-15
 -1       740 6.26819E-03-3.63242E-04-9.81623E-15
 -1       741 6.48344E-03-3.97904E-04-1.06489E-14
 -1       742 1.34369E-03 2.80302E-04-3.29591E-16
 -1       743 1.27702E-02-1.92000E-03-2.53173E-14
 -1       744 1.30189E-02-2.10897E-03-2.65339E-14
 -1       745 1.32810E-02-2.30536E-03-2.77702E-14
 -1       746 1.35519E-02-2.50598E-03-2.90240E-14
 -1       747 1.38286E-02-2.70878E-03-3.02935E-14
 -1       748 1.41088E-02-2.91251E-03-3.15771E-14
 -1       749 1.43913E-02-3.11648E-03-3.28729E-14
 -1       750 1.46751E-02-3.32030E-03-3.41811E-14
 -1       751 1.49635E-02-3.52269E-03-3.54606E-14
 -1       752 1.45153E-02-3.34423E-03-3.56180E-14
 -1       753 1.21289E-02-1.48576E-03-2.21626E-14
 -1       754 1.91735E-03 3.28968E-04-6.85761E-16
 -1       755 1.63013E-03 3.08735E-04-4.90246E-16
 -1       756 3.06661E-03 3.59371E-04-1.83378E-15
 -1       757 2.77956E-03 3.56826E-04-1.49019E-15
 -1       758 3.64009E-03 3.59357E-04-2.63434E-15
 -1       759 3.92663E-03 3.57811E-04-3.09021E-15
 -1       760 4.21319E-03 3.55723E-04-3.58474E-15
 -1       761 4.49994E-03 3.53376E-04-4.12019E-15
 -1       762 4.78715E-03 3.51037E-04-4.69240E-15
 -1       763 5.07518E-03 3.48997E-04-5.30364E-15
 -1       764 5.36451E-03 3.47604E-04-5.95816E-15
 -1       765 5.65575E-03 3.47292E-04-6.65839E-15
 -1       766 5.94959E-03 3.48577E-04-7.40175E-15
 -1       767 6.24664E-03 3.52006E-04-8.18397E-15
 -1       768 6.54729E-03 3.57979E-04-9.00441E-15
 -1       769 6.85131E-03 3.66385E-04-9.85279E-15
 -1       770 7.15758E-03 3.75960E-04-1.07283E-14
 -1       771 7.46390E-03 3.83375E-04-1.16347E-14
 -1       772 7.76740E-03 3.82366E-04-1.25705E-14
 -1       773 8.06556E-03 3.63682E-04-1.35370E-14
 -1       774 8.35780E-03 3.16727E-04-1.45387E-14
 -1       775 8.64622E-03 2.32853E-04-1.55748E-14
 -1       776 8.93499E-03 1.09035E-04-1.66465E-14
 -1       777 9.22808E-03-5.06658E-05-1.77532E-14
 -1       778 9.52720E-03-2.37027E-04-1.88923E-14
 -1       779 9.83133E-03-4.39464E-04-2.00635E-14
 -1       780 1.01378E-02-6.49174E-04-2.12634E-14
 -1       781 1.04438E-02-8.60413E-04-2.24873E-14
 -1       782 1.07474E-02-1.07025E-03-2.37396E-14
 -1       783 1.10474E-02-1.27767E-03-2.50127E-14
 -1       784 1.13438E-02-1.48269E-03-2.63090E-14
 -1       785 1.16371E-02-1.68577E-03-2.76276E-14
 -1       786 1.19279E-02-1.88745E-03-2.89641E-14
 -1       787 1.22168E-02-2.08825E-03-3.03173E-14
 -1       788 1.25044E-02-2.28857E-03-3.16829E-14
 -1       789 1.27912E-02-2.48870E-03-3.30569E-14
 -1       790 1.43213E-02-3.26401E-03-3.56035E-14
 -1       791 8.45677E-03 1.33449E-04-1.45298E-14
 -1       792 1.47118E-02-3.42582E-03-3.56138E-14
 -1       793 6.68344E-03-4.59823E-04-1.15437E-14
 -1       794 1.20327E-02-1.42177E-03-2.08480E-14
 -1       795 1.14357E-03-2.53283E-04-3.83560E-16
 -1       796 1.33861E-02-2.86707E-03-3.53135E-14
 -1       797 1.37244E-02-3.01692E-03-3.55261E-14
 -1       798 3.35344E-03 3.60022E-04-2.21570E-15
 -1       799 1.25416E-02-1.74295E-03-2.41166E-14
 -1       800 9.30335E-03-5.39183E-05-1.69244E-14
 -1       801 1.39240E-02-3.09978E-03-3.55587E-14
 -1       802 1.35553E-02-2.94213E-03-3.54243E-14
 -1       803 1.06780E-02-9.25683E-04-2.01892E-14
 -1       804 1.13833E-03 5.89714E-05-3.35520E-16
 -1       805 1.23652E-02-1.58767E-03-2.29357E-14
 -1       806 1.12746E-02-1.22400E-03-2.11865E-14
 -1       807 1.01983E-02-6.33096E-04-1.92114E-14
 -1       808 1.41230E-02-3.18212E-03-3.55839E-14
 -1       809 1.16416E-02-1.39994E-03-2.21991E-14
 -1       810 1.14212E-03-1.14985E-04-3.83113E-16
 -1       811 1.13697E-03 1.21527E-06-3.54761E-16
 -1       812 7.79087E-03-9.93042E-04-1.38270E-14
 -1       813 1.14987E-03 1.78858E-04-2.85809E-16
 -1       814 1.14928E-03-1.75780E-04-3.91539E-16
 -1       815 7.21345E-03-3.33515E-04-1.22916E-14
 -1       816 9.05417E-03 5.13014E-05-1.63116E-14
 -1       817 8.62799E-03 1.54639E-04-1.50433E-14
 -1       818 2.20484E-03 3.42756E-04-9.17001E-16
 -1       819 2.49229E-03 3.51620E-04-1.18430E-15
 -1       820 1.30888E-02-2.67794E-03-3.41846E-14
 -1       821 1.10308E-02-1.13125E-03-2.12136E-14
 -1       822 8.17723E-03 1.17925E-04-1.37755E-14
 -1       823 7.43505E-03-1.85724E-04-1.23631E-14
 -1       824 6.88815E-03-4.36080E-04-1.19653E-14
 -1       825 9.93380E-03-4.67505E-04-1.87267E-14
 -1       826 1.14244E-03 1.17633E-04-3.12965E-16
 -1       827 6.70796E-03-4.55542E-04-1.16609E-14
 -1       828 1.13818E-03-5.63977E-05-3.70655E-16
 -1       829 7.73942E-03 2.33300E-05-1.27110E-14
 -1       830 1.22740E-02-1.62025E-03-2.33387E-14
 -1       831 1.92961E-03-2.46902E-04-1.00012E-15
 -1       832 2.21830E-03-2.57652E-04-1.29212E-15
 -1       833 2.50723E-03-2.64518E-04-1.62204E-15
 -1       834 2.79601E-03-2.68459E-04-1.99092E-15
 -1       835 3.08440E-03-2.70260E-04-2.40018E-15
 -1       836 3.37222E-03-2.70534E-04-2.84713E-15
 -1       837 3.65934E-03-2.69766E-04-3.33011E-15
 -1       838 3.94559E-03-2.68347E-04-3.84864E-15
 -1       839 4.24496E-03-2.66545E-04-4.43406E-15
 -1       840 4.52855E-03-2.64925E-04-5.02873E-15
 -1       841 4.81009E-03-2.63896E-04-5.65990E-15
 -1       842 5.08871E-03-2.64162E-04-6.32458E-15
 -1       843 5.36318E-03-2.66779E-04-7.02357E-15
 -1       844 5.63171E-03-2.73328E-04-7.76030E-15
 -1       845 5.89186E-03-2.86097E-04-8.52997E-15
 -1       846 6.14043E-03-3.08178E-04-9.33085E-15
 -1       847 6.37347E-03-3.43221E-04-1.01569E-14
 -1       848 9.48682E-03-1.78239E-04-1.76020E-14
 -1       849 1.29892E-02-2.15269E-03-2.71118E-14
 -1       850 1.32531E-02-2.34560E-03-2.83601E-14
 -1       851 1.35243E-02-2.54313E-03-2.96328E-14
 -1       852 1.38006E-02-2.74338E-03-3.09155E-14
 -1       853 1.40803E-02-2.94510E-03-3.22108E-14
 -1       854 1.43621E-02-3.14753E-03-3.35217E-14
 -1       855 1.45368E-02-3.28685E-03-3.45622E-14
 -1       856 1.19889E-02-1.52306E-03-2.27728E-14
 -1       857 2.91515E-03 2.83697E-04-1.74538E-15
 -1       858 4.06548E-03 2.81732E-04-3.45289E-15
 -1       859 3.77840E-03 2.83630E-04-2.97011E-15
 -1       860 4.63957E-03 2.76528E-04-4.53439E-15
 -1       861 4.92722E-03 2.73535E-04-5.13147E-15
 -1       862 5.21599E-03 2.70523E-04-5.77051E-15
 -1       863 5.50664E-03 2.67782E-04-6.45285E-15
 -1       864 5.80016E-03 2.65761E-04-7.17868E-15
 -1       865 6.09767E-03 2.65137E-04-7.94528E-15
 -1       866 6.40030E-03 2.66821E-04-8.74709E-15
 -1       867 6.70882E-03 2.71810E-04-9.58179E-15
 -1       868 7.02311E-03 2.80710E-04-1.04417E-14
 -1       869 7.34154E-03 2.92751E-04-1.13305E-14
 -1       870 7.66069E-03 3.04028E-04-1.22484E-14
 -1       871 7.97603E-03 3.06034E-04-1.31948E-14
 -1       872 8.28422E-03 2.85403E-04-1.41752E-14
 -1       873 8.58522E-03 2.27593E-04-1.51902E-14
 -1       874 8.88349E-03 1.23108E-04-1.62419E-14
 -1       875 9.18540E-03-2.73176E-05-1.73283E-14
 -1       876 9.49478E-03-2.12826E-04-1.84455E-14
 -1       877 9.81103E-03-4.18589E-04-1.95983E-14
 -1       878 1.01303E-02-6.31999E-04-2.07840E-14
 -1       879 1.04482E-02-8.45316E-04-2.19930E-14
 -1       880 1.07616E-02-1.05530E-03-2.32269E-14
 -1       881 1.10691E-02-1.26146E-03-2.44839E-14
 -1       882 1.13707E-02-1.46456E-03-2.57589E-14
 -1       883 1.16673E-02-1.66559E-03-2.70601E-14
 -1       884 1.19600E-02-1.86546E-03-2.83836E-14
 -1       885 1.22499E-02-2.06479E-03-2.97177E-14
 -1       886 1.25379E-02-2.26400E-03-3.10678E-14
 -1       887 1.28247E-02-2.46334E-03-3.24277E-14
 -1       888 1.41731E-02-3.13022E-03-3.44443E-14
 -1       889 4.35245E-03 2.79311E-04-3.97409E-15
 -1       890 1.43554E-02-3.20849E-03-3.45078E-14
 -1       891 6.55457E-03-3.93595E-04-1.09038E-14
 -1       892 1.25009E-02-1.79344E-03-2.46629E-14
 -1       893 1.27360E-02-1.96718E-03-2.58796E-14
 -1       894 1.35777E-02-2.88546E-03-3.43584E-14
 -1       895 1.64167E-03-2.31156E-04-7.44830E-16
 -1       896 1.39750E-02-3.04906E-03-3.44229E-14
 -1       897 1.32997E-03 2.10172E-04-3.69615E-16
 -1       898 1.04275E-02-7.96564E-04-2.01532E-14
 -1       899 6.70889E-03-4.12985E-04-1.14141E-14
 -1       900 1.37767E-02-2.96763E-03-3.43932E-14
 -1       901 7.54545E-03-3.07481E-05-1.22926E-14
 -1       902 1.14174E-02-1.33051E-03-2.22323E-14
 -1       903 1.38107E-03 3.40555E-05-4.92811E-16
 -1       904 1.38953E-03-1.70939E-04-5.48518E-16
 -1       905 9.23204E-03-4.02193E-05-1.69730E-14
 -1       906 1.07760E-02-1.01000E-03-2.11843E-14
 -1       907 6.98588E-03-3.55114E-04-1.18046E-14
 -1       908 8.78893E-03 1.37739E-04-1.55990E-14
 -1       909 8.35680E-03 1.84295E-04-1.42685E-14
 -1       910 2.62666E-03 2.80481E-04-1.41089E-15
 -1       911 1.32583E-02-2.75326E-03-3.43016E-14
 -1       912 3.49103E-03 2.84800E-04-2.52563E-15
 -1       913 2.04926E-03 2.65090E-04-8.56784E-16
 -1       914 1.76104E-03 2.50884E-04-6.33337E-16
 -1       915 1.38277E-03-1.03739E-04-5.34908E-16
 -1       916 1.34083E-02-2.81082E-03-3.42564E-14
 -1       917 3.20329E-03 2.84955E-04-2.11686E-15
 -1       918 1.01736E-02-6.39437E-04-1.96581E-14
 -1       919 1.38420E-03 9.96419E-05-4.65722E-16
 -1       920 1.64953E-03-1.55770E-04-7.43878E-16
 -1       921 2.35500E-03-1.88658E-04-1.42897E-15
 -1       922 2.64471E-03-1.92738E-04-1.77287E-15
 -1       923 2.93416E-03-1.94930E-04-2.15676E-15
 -1       924 3.22307E-03-1.95777E-04-2.57988E-15
 -1       925 3.51120E-03-1.95724E-04-3.03961E-15
 -1       926 3.79839E-03-1.95151E-04-3.53428E-15
 -1       927 4.09867E-03-1.94383E-04-4.09296E-15
 -1       928 4.38317E-03-1.93898E-04-4.66470E-15
 -1       929 4.66583E-03-1.94153E-04-5.27115E-15
 -1       930 4.94608E-03-1.95829E-04-5.91204E-15
 -1       931 5.22318E-03-1.99891E-04-6.58862E-15
 -1       932 5.49613E-03-2.07704E-04-7.30339E-15
 -1       933 5.76371E-03-2.21126E-04-8.05691E-15
 -1       934 6.02464E-03-2.42516E-04-8.84354E-15
 -1       935 6.27790E-03-2.74508E-04-9.65838E-15
 -1       936 9.70574E-03-3.32987E-04-1.84479E-14
 -1       937 2.33794E-03 2.74586E-04-1.11552E-15
 -1       938 1.32179E-02-2.38169E-03-2.89600E-14
 -1       939 1.34917E-02-2.57750E-03-3.02435E-14
 -1       940 1.37692E-02-2.77615E-03-3.15391E-14
 -1       941 1.40494E-02-2.97651E-03-3.28499E-14
 -1       942 1.42022E-02-3.09247E-03-3.36728E-14
 -1       943 3.91777E-03 2.07620E-04-3.31418E-15
 -1       944 5.06671E-03 1.95102E-04-5.57897E-15
 -1       945 4.77902E-03 1.99162E-04-4.95525E-15
 -1       946 5.64734E-03 1.85492E-04-6.95369E-15
 -1       947 5.94278E-03 1.80639E-04-7.70423E-15
 -1       948 6.24384E-03 1.76876E-04-8.49159E-15
 -1       949 6.55234E-03 1.75771E-04-9.31071E-15
 -1       950 6.86969E-03 1.79401E-04-1.01570E-14
 -1       951 7.19601E-03 1.89668E-04-1.10290E-14
 -1       952 7.52900E-03 2.07209E-04-1.19311E-14
 -1       953 7.86357E-03 2.26679E-04-1.28587E-14
 -1       954 8.82243E-03 1.36796E-04-1.58394E-14
 -1       955 9.13427E-03 1.46477E-06-1.69045E-14
 -1       956 9.45489E-03-1.83481E-04-1.80068E-14
 -1       957 9.78504E-03-3.96583E-04-1.91393E-14
 -1       958 1.01197E-02-6.17878E-04-2.03078E-14
 -1       959 1.04519E-02-8.35784E-04-2.15028E-14
 -1       960 1.07768E-02-1.04662E-03-2.27198E-14
 -1       961 1.10926E-02-1.25101E-03-2.39617E-14
 -1       962 1.13996E-02-1.45107E-03-2.52214E-14
 -1       963 1.16994E-02-1.64884E-03-2.65024E-14
 -1       964 1.19937E-02-1.84578E-03-2.78065E-14
 -1       965 1.22842E-02-2.04277E-03-2.91278E-14
 -1       966 1.25723E-02-2.24025E-03-3.04586E-14
 -1       967 1.28588E-02-2.43838E-03-3.18024E-14
 -1       968 6.53886E-03-3.29662E-04-1.05811E-14
 -1       969 1.24330E-02-1.82902E-03-2.51997E-14
 -1       970 1.22029E-02-1.66872E-03-2.39790E-14
 -1       971 5.35580E-03 1.90477E-04-6.24429E-15
 -1       972 7.06910E-03-2.30936E-04-1.15598E-14
 -1       973 1.38099E-03-3.11609E-05-5.15941E-16
 -1       974 1.26857E-02-2.00396E-03-2.64321E-14
 -1       975 1.29492E-02-2.19038E-03-2.76944E-14
 -1       976 1.38295E-02-2.91670E-03-3.32683E-14
 -1       977 7.87226E-03 1.56774E-04-1.29183E-14
 -1       978 6.76536E-03-3.52940E-04-1.12564E-14
 -1       979 2.06548E-03-1.82027E-04-1.12289E-15
 -1       980 1.35577E-03 1.54856E-04-4.18539E-16
 -1       981 8.61265E-03 1.90581E-04-1.51216E-14
 -1       982 1.11626E-02-1.22672E-03-2.22115E-14
 -1       983 1.36310E-02-2.83611E-03-3.32397E-14
 -1       984 1.04200E-02-8.03060E-04-2.06347E-14
 -1       985 2.18490E-03 1.98504E-04-1.03925E-15
 -1       986 1.62925E-03 7.29959E-05-6.50355E-16
 -1       987 3.63013E-03 2.09137E-04-2.84344E-15
 -1       988 4.20498E-03 2.05424E-04-3.82350E-15
 -1       989 2.76398E-03 2.07885E-04-1.64814E-15
 -1       990 1.40163E-02-3.00460E-03-3.34724E-14
 -1       991 4.49195E-03 2.02602E-04-4.37045E-15
 -1       992 7.18629E-03-9.15417E-05-1.14871E-14
 -1       993 1.89584E-03 1.89455E-04-7.88821E-16
 -1       994 1.62752E-03 1.51969E-06-6.81367E-16
 -1       995 7.52258E-03 8.64710E-05-1.20449E-14
 -1       996 1.34316E-02-2.75447E-03-3.32016E-14
 -1       997 1.62477E-03 1.74015E-04-5.88285E-16
 -1       998 3.05321E-03 2.09545E-04-2.00995E-15
 -1       999 1.18881E-02-1.54788E-03-2.34036E-14
 -1      1000 1.00307E-02-5.54976E-04-1.97049E-14
 -1      1001 8.93685E-03 9.23150E-05-1.61299E-14
 -1      1002 2.78492E-03-1.19634E-04-1.92264E-15
 -1      1003 3.07467E-03-1.20645E-04-2.32004E-15
 -1      1004 3.36372E-03-1.21010E-04-2.75598E-15
 -1      1005 3.65184E-03-1.21036E-04-3.22706E-15
 -1      1006 3.95317E-03-1.21032E-04-3.75988E-15
 -1      1007 4.23880E-03-1.21356E-04-4.30673E-15
 -1      1008 4.52289E-03-1.22438E-04-4.88934E-15
 -1      1009 4.80515E-03-1.24862E-04-5.50663E-15
 -1      1010 5.08523E-03-1.29430E-04-6.15859E-15
 -1      1011 5.36276E-03-1.37222E-04-6.84999E-15
 -1      1012 5.63746E-03-1.49625E-04-7.58280E-15
 -1      1013 5.90933E-03-1.68266E-04-8.35177E-15
 -1      1014 6.17906E-03-1.94695E-04-9.15230E-15
 -1      1015 9.36512E-03-1.22772E-04-1.75221E-14
 -1      1016 2.20467E-03-1.14257E-04-1.24473E-15
 -1      1017 1.07913E-02-1.03313E-03-2.18272E-14
 -1      1018 1.31794E-02-2.41379E-03-2.95670E-14
 -1      1019 5.20486E-03 1.15869E-04-6.03424E-15
 -1      1020 1.34564E-02-2.60911E-03-3.08581E-14
 -1      1021 1.26322E-02-2.03454E-03-2.70051E-14
 -1      1022 6.64342E-03-2.58066E-04-1.05807E-14
 -1      1023 1.16234E-02-1.46410E-03-2.34073E-14
 -1      1024 6.08101E-03 9.15896E-05-8.23220E-15
 -1      1025 5.78479E-03 1.00628E-04-7.45941E-15
 -1      1026 6.69835E-03 7.79287E-05-9.87242E-15
 -1      1027 7.02485E-03 7.99401E-05-1.07302E-14
 -1      1028 1.07978E-02-1.04522E-03-2.22177E-14
 -1      1029 1.11221E-02-1.24723E-03-2.34401E-14
 -1      1030 1.14339E-02-1.44285E-03-2.46867E-14
 -1      1031 1.17358E-02-1.63584E-03-2.59522E-14
 -1      1032 1.20307E-02-1.82856E-03-2.72385E-14
 -1      1033 1.23209E-02-2.02221E-03-2.85409E-14
 -1      1034 1.26083E-02-2.21726E-03-2.98541E-14
 -1      1035 1.28941E-02-2.41372E-03-3.11836E-14
 -1      1036 1.29054E-02-2.22241E-03-2.82855E-14
 -1      1037 1.87644E-03-1.02943E-04-9.24960E-16
 -1      1038 1.32292E-02-2.67121E-03-3.31634E-14
 -1      1039 1.62725E-03-6.53146E-05-7.05080E-16
 -1      1040 1.23657E-02-1.85645E-03-2.57571E-14
 -1      1041 5.49339E-03 1.08899E-04-6.72563E-15
 -1      1042 3.34195E-03 2.09852E-04-2.40874E-15
 -1      1043 6.38458E-03 8.31663E-05-9.03891E-15
 -1      1044 2.47444E-03 2.04407E-04-1.32496E-15
 -1      1045 6.84601E-03-2.51468E-04-1.10672E-14
 -1      1046 2.49477E-03-1.17636E-04-1.56411E-15
 -1      1047 6.40966E-03-2.23912E-04-9.85775E-15
 -1      1048 4.91784E-03 1.21462E-04-5.38440E-15
 -1      1049 1.34860E-02-2.70479E-03-3.20949E-14
 -1      1050 2.32379E-03 1.29393E-04-1.23193E-15
 -1      1051 4.63140E-03 1.25816E-04-4.77371E-15
 -1      1052 3.77057E-03 1.33322E-04-3.16886E-15
 -1      1053 6.95872E-03-1.28966E-04-1.09945E-14
 -1      1054 1.37359E-02-2.80705E-03-3.21700E-14
 -1      1055 1.20482E-02-1.65658E-03-2.43091E-14
 -1      1056 1.04343E-02-8.18119E-04-2.10677E-14
 -1      1057 1.90002E-03 8.15977E-05-8.64204E-16
 -1      1058 4.05805E-03 1.31595E-04-3.66577E-15
 -1      1059 1.89809E-03 5.02967E-06-9.02937E-16
 -1      1060 2.90393E-03 1.34113E-04-1.89540E-15
 -1      1061 1.32860E-02-2.62393E-03-3.20565E-14
 -1      1062 1.30829E-02-2.54087E-03-3.20136E-14
 -1      1063 2.61393E-03 1.32464E-04-1.54417E-15
 -1      1064 1.17799E-02-1.62649E-03-2.54033E-14
 -1      1065 2.63730E-03-4.49181E-05-1.69782E-15
 -1      1066 3.21729E-03-4.59065E-05-2.47975E-15
 -1      1067 3.50621E-03-4.62115E-05-2.92638E-15
 -1      1068 3.80849E-03-4.66742E-05-3.43367E-15
 -1      1069 4.09522E-03-4.75042E-05-3.95494E-15
 -1      1070 4.38069E-03-4.90464E-05-4.51295E-15
 -1      1071 4.66482E-03-5.17445E-05-5.10609E-15
 -1      1072 4.94757E-03-5.62002E-05-5.73441E-15
 -1      1073 5.22896E-03-6.31926E-05-6.40113E-15
 -1      1074 5.50927E-03-7.36741E-05-7.10985E-15
 -1      1075 5.78918E-03-8.86613E-05-7.85847E-15
 -1      1076 6.07014E-03-1.08941E-04-8.64208E-15
 -1      1077 1.20044E-02-1.68822E-03-2.49912E-14
 -1      1078 1.14780E-02-1.44012E-03-2.41523E-14
 -1      1079 1.25819E-02-2.06034E-03-2.75890E-14
 -1      1080 4.34491E-03 1.29135E-04-4.20186E-15
 -1      1081 1.13545E-02-1.35191E-03-2.33108E-14
 -1      1082 1.11425E-02-1.24243E-03-2.29805E-14
 -1      1083 1.20731E-02-1.81350E-03-2.66755E-14
 -1      1084 1.23613E-02-2.00273E-03-2.79594E-14
 -1      1085 1.26467E-02-2.19467E-03-2.92585E-14
 -1      1086 1.29308E-02-2.38908E-03-3.05677E-14
 -1      1087 5.91660E-03 1.35497E-05-7.96879E-15
 -1      1088 2.05241E-03-3.96279E-05-1.06428E-15
 -1      1089 1.31403E-02-2.44275E-03-3.01729E-14
 -1      1090 2.19183E-03 3.95462E-05-1.15997E-15
 -1      1091 1.31417E-02-2.49431E-03-3.09285E-14
 -1      1092 5.05546E-03 4.38257E-05-5.82001E-15
 -1      1093 6.83817E-03-2.17113E-05-1.04359E-14
 -1      1094 5.62724E-03 2.62243E-05-7.21311E-15
 -1      1095 3.48238E-03 1.34361E-04-2.70837E-15
 -1      1096 6.52071E-03-1.09192E-05-9.59049E-15
 -1      1097 3.19348E-03 1.34669E-04-2.28392E-15
 -1      1098 6.74284E-03-1.53664E-04-1.05099E-14
 -1      1099 2.92757E-03-4.55341E-05-2.07040E-15
 -1      1100 2.34463E-03-4.25328E-05-1.36208E-15
 -1      1101 1.28616E-02-2.25024E-03-2.88812E-14
 -1      1102 6.21124E-03-1.28006E-06-8.76461E-15
 -1      1103 1.23050E-02-1.87768E-03-2.63228E-14
 -1      1104 5.34073E-03 3.62673E-05-6.49578E-15
 -1      1105 6.31329E-03-1.30257E-04-9.33589E-15
 -1      1106 4.77044E-03 4.93100E-05-5.18491E-15
 -1      1107 3.91213E-03 5.76741E-05-3.50279E-15
 -1      1108 3.04617E-03 5.95012E-05-2.15204E-15
 -1      1109 2.75607E-03 5.90823E-05-1.77422E-15
 -1      1110 3.62434E-03 5.88068E-05-3.01727E-15
 -1      1111 2.47386E-03 4.94104E-05-1.44977E-15
 -1      1112 1.24066E-02-1.98340E-03-2.73806E-14
 -1      1113 4.52457E-03 2.29412E-05-4.71108E-15
 -1      1114 4.19903E-03 5.58745E-05-4.02679E-15
 -1      1115 1.28947E-02-2.31964E-03-2.97183E-14
 -1      1116 3.33565E-03 5.94005E-05-2.56678E-15
 -1      1117 1.26130E-02-2.12802E-03-2.84268E-14
 -1      1118 0.00000E+00 0.00000E+00 0.00000E+00
 -1      1119 0.00000E+00 0.00000E+00 0.00000E+00
 -1      1120 0.00000E+00 0.00000E+00 0.00000E+00
 -1      1121 0.00000E+00 0.00000E+00 0.00000E+00
 -1      1122 0.00000E+00 0.00000E+00 0.00000E+00
 -1      1123 0.00000E+00 0.00000E+00 0.00000E+00
 -1      1124 0.00000E+00 0.00000E+00 0.00000E+00
 -1      1125 0.00000E+00 0.00000E+00 0.00000E+00
 -1      1126 0.00000E+00 0.00000E+00 0.00000E+00
 -1      1127 0.00000E+00 0.00000E+00 0.00000E+00
 -1      1128 0.00000E+00 0.00000E+00 0.00000E+00
 -1      1129 0.00000E+00 0.00000E+00 0.00000E+00
 -1      1130 0.00000E+00 0.00000E+00 0.00000E+00
 -1      1131 0.00000E+00 0.00000E+00 0.00000E+00
 -1      1132 0.00000E+00 0.00000E+00 0.00000E+00
 -1      1133 0.00000E+00 0.00000E+00 0.00000E+00
 -1      1134 0.00000E+00 0.00000E+00 0.00000E+00
 -1      1135 2.11614E-04-1.48304E-04 6.77626E-20
 -1      1136 5.51491E-04-3.37424E-04-2.86636E-17
 -1      1137 8.33230E-04-4.58828E-04-9.83778E-17
 -1      1138 1.10273E-03-5.40387E-04-2.14631E-16
 -1      1139 1.36807E-03-5.97467E-04-3.75351E-16
 -1      1140 1.63283E-03-6.37952E-04-5.78191E-16
 -1      1141 1.89885E-03-6.66479E-04-8.24346E-16
 -1      1142 2.16699E-03-6.86147E-04-1.11381E-15
 -1      1143 2.43758E-03-6.99222E-04-1.44511E-15
 -1      1144 2.71063E-03-7.07401E-04-1.82021E-15
 -1      1145 2.98602E-03-7.11957E-04-2.23912E-15
 -1      1146 3.26358E-03-7.13830E-04-2.69590E-15
 -1      1147 3.54313E-03-7.13698E-04-3.19215E-15
 -1      1148 3.82454E-03-7.12025E-04-3.72797E-15
 -1      1149 4.10778E-03-7.09104E-04-4.30163E-15
 -1      1150 4.39298E-03-7.05092E-04-4.91732E-15
 -1      1151 4.68049E-03-7.00043E-04-5.56921E-15
 -1      1152 4.97832E-03-6.93781E-04-6.27019E-15
 -1      1153 5.28063E-03-6.86434E-04-7.00583E-15
 -1      1154 5.58203E-03-6.78373E-04-7.74658E-15
 -1      1155 5.89323E-03-6.70061E-04-8.51200E-15
 -1      1156 6.21958E-03-6.63249E-04-9.30357E-15
 -1      1157 6.56924E-03-6.62255E-04-1.01163E-14
 -1      1158 6.95401E-03-6.77011E-04-1.09488E-14
 -1      1159 7.38911E-03-7.28894E-04-1.18030E-14
 -1      1160 7.88913E-03-8.59316E-04-1.26781E-14
 -1      1161 8.42374E-03-1.11392E-03-1.35249E-14
 -1      1162 8.92022E-03-1.49226E-03-1.43090E-14
 -1      1163 9.34386E-03-1.96207E-03-1.50769E-14
 -1      1164 9.65947E-03-2.42675E-03-1.58688E-14
 -1      1165 9.87339E-03-2.69937E-03-1.67391E-14
 -1      1166 1.00893E-02-2.61384E-03-1.76685E-14
 -1      1167 1.04099E-02-2.30422E-03-1.85674E-14
 -1      1168 1.09053E-02-1.95537E-03-1.96021E-14
 -1      1169 1.15044E-02-1.74690E-03-2.07705E-14
 -1      1170 1.20489E-02-1.73212E-03-2.19293E-14
 -1      1171 1.25255E-02-1.83617E-03-2.30886E-14
 -1      1172 1.29415E-02-2.00161E-03-2.42443E-14
 -1      1173 1.33126E-02-2.19490E-03-2.54138E-14
 -1      1174 1.36532E-02-2.39951E-03-2.66016E-14
 -1      1175 1.39738E-02-2.60792E-03-2.77996E-14
 -1      1176 1.42816E-02-2.81695E-03-2.89999E-14
 -1      1177 1.45811E-02-3.02532E-03-3.02244E-14
 -1      1178 1.48754E-02-3.23264E-03-3.14781E-14
 -1      1179 1.51664E-02-3.43885E-03-3.27507E-14
 -1      1180 1.54552E-02-3.64405E-03-3.40184E-14
 -1      1181 1.57426E-02-3.84832E-03-3.52772E-14
 -1      1182 1.60291E-02-4.05179E-03-3.65606E-14
 -1      1183 1.63150E-02-4.25455E-03-3.78728E-14
 -1      1184 1.66007E-02-4.45670E-03-3.92090E-14
 -1      1185 1.68864E-02-4.65845E-03-4.05571E-14
 -1      1186 2.28372E-04 1.60675E-04 1.90549E-17
 -1      1187 5.53676E-04 3.42056E-04 4.32055E-17
 -1      1188 8.34180E-04 4.61011E-04 4.47233E-17
 -1      1189 1.10365E-03 5.42072E-04 1.77809E-17
 -1      1190 1.36903E-03 5.99132E-04-4.17418E-17
 -1      1191 1.63386E-03 6.39713E-04-1.34184E-16
 -1      1192 1.89998E-03 6.68364E-04-2.61889E-16
 -1      1193 2.16824E-03 6.88190E-04-4.26091E-16
 -1      1194 2.43894E-03 7.01467E-04-6.27509E-16
 -1      1195 2.71213E-03 7.09917E-04-8.64611E-16
 -1      1196 2.98770E-03 7.14854E-04-1.14223E-15
 -1      1197 3.26544E-03 7.17285E-04-1.46232E-15
 -1      1198 3.54516E-03 7.17987E-04-1.82118E-15
 -1      1199 3.82665E-03 7.17571E-04-2.21957E-15
 -1      1200 4.10971E-03 7.16538E-04-2.66128E-15
 -1      1201 4.39417E-03 7.15324E-04-3.15134E-15
 -1      1202 4.67983E-03 7.14342E-04-3.68485E-15
 -1      1203 4.96642E-03 7.14000E-04-4.25849E-15
 -1      1204 5.25356E-03 7.14705E-04-4.87736E-15
 -1      1205 5.54069E-03 7.16827E-04-5.54096E-15
 -1      1206 5.82697E-03 7.20615E-04-6.25478E-15
 -1      1207 6.11119E-03 7.26047E-04-7.01625E-15
 -1      1208 6.39178E-03 7.32603E-04-7.82194E-15
 -1      1209 6.66687E-03 7.38993E-04-8.66759E-15
 -1      1210 6.93440E-03 7.42870E-04-9.54591E-15
 -1      1211 7.19257E-03 7.40648E-04-1.04504E-14
 -1      1212 7.44023E-03 7.27572E-04-1.13847E-14
 -1      1213 7.67742E-03 6.98136E-04-1.23535E-14
 -1      1214 7.90573E-03 6.46901E-04-1.33513E-14
 -1      1215 8.12829E-03 5.69560E-04-1.43907E-14
 -1      1216 8.34934E-03 4.63913E-04-1.54602E-14
 -1      1217 8.57340E-03 3.30421E-04-1.65632E-14
 -1      1218 8.80442E-03 1.72082E-04-1.77065E-14
 -1      1219 9.04503E-03-6.29614E-06-1.88790E-14
 -1      1220 9.29629E-03-1.99154E-04-2.00832E-14
 -1      1221 9.55780E-03-4.01181E-04-2.13340E-14
 -1      1222 9.82814E-03-6.08010E-04-2.26189E-14
 -1      1223 1.01054E-02-8.16504E-04-2.39349E-14
 -1      1224 1.03875E-02-1.02472E-03-2.52665E-14
 -1      1225 1.06729E-02-1.23167E-03-2.66178E-14
 -1      1226 1.09600E-02-1.43704E-03-2.79990E-14
 -1      1227 1.12478E-02-1.64092E-03-2.94038E-14
 -1      1228 1.15358E-02-1.84359E-03-3.08058E-14
 -1      1229 1.18236E-02-2.04541E-03-3.22001E-14
 -1      1230 1.21109E-02-2.24670E-03-3.35910E-14
 -1      1231 1.23977E-02-2.44776E-03-3.49746E-14
 -1      1232 1.26841E-02-2.64883E-03-3.63618E-14
 -1      1233 1.29701E-02-2.85005E-03-3.77569E-14
 -1      1234 1.32559E-02-3.05154E-03-3.91443E-14
 -1      1235 1.35344E-02-3.24821E-03-4.05022E-14
 -1      1236 1.37693E-02-3.38622E-03-4.11969E-14
 -1      1237 1.39678E-02-3.47053E-03-4.12699E-14
 -1      1238 1.41666E-02-3.55475E-03-4.13402E-14
 -1      1239 1.43655E-02-3.63876E-03-4.14033E-14
 -1      1240 1.45646E-02-3.72246E-03-4.14640E-14
 -1      1241 1.47621E-02-3.80510E-03-4.15132E-14
 -1      1242 1.49594E-02-3.88739E-03-4.15586E-14
 -1      1243 1.51581E-02-3.97009E-03-4.16058E-14
 -1      1244 1.53564E-02-4.05258E-03-4.16410E-14
 -1      1245 1.55543E-02-4.13502E-03-4.16300E-14
 -1      1246 1.57518E-02-4.21756E-03-4.15941E-14
 -1      1247 1.59473E-02-4.29967E-03-4.15684E-14
 -1      1248 1.61426E-02-4.38218E-03-4.15400E-14
 -1      1249 1.63398E-02-4.46583E-03-4.14643E-14
 -1      1250 1.65372E-02-4.54989E-03-4.13750E-14
 -1      1251 1.67351E-02-4.63420E-03-4.13083E-14
 -1      1252 1.69317E-02-4.71784E-03-4.12584E-14
 -1      1253 1.19665E-02-1.07581E-03-1.89111E-14
 -1      1254 1.17439E-02-9.03689E-04-1.87513E-14
 -1      1255 1.14216E-02-7.23097E-04-1.84874E-14
 -1      1256 1.10133E-02-5.32898E-04-1.81283E-14
 -1      1257 1.05549E-02-3.49487E-04-1.76880E-14
 -1      1258 1.00840E-02-1.94526E-04-1.72066E-14
 -1      1259 9.57427E-03-7.25400E-05-1.66613E-14
 -1      1260 9.07383E-03-6.27693E-06-1.61169E-14
 -1      1261 8.58917E-03-3.68331E-06-1.55915E-14
 -1      1262 8.12126E-03-5.56394E-05-1.51053E-14
 -1      1263 7.71559E-03-1.46403E-04-1.47174E-14
 -1      1264 7.37936E-03-2.59476E-04-1.44228E-14
 -1      1265 7.10530E-03-3.93545E-04-1.41991E-14
 -1      1266 6.92959E-03-5.39233E-04-1.40796E-14
 -1      1267 6.87255E-03-6.95542E-04-1.40780E-14
 -1      1268 6.93785E-03-8.77433E-04-1.41851E-14
 -1      1269 7.12821E-03-1.09312E-03-1.43794E-14
 -1      1270 7.43438E-03-1.35136E-03-1.46627E-14
 -1      1271 7.84977E-03-1.65697E-03-1.50339E-14
 -1      1272 8.36375E-03-1.98806E-03-1.54679E-14
 -1      1273 8.93227E-03-2.27625E-03-1.59409E-14
 -1      1274 9.55306E-03-2.44869E-03-1.64668E-14
 -1      1275 1.01646E-02-2.45265E-03-1.70019E-14
 -1      1276 1.07155E-02-2.30839E-03-1.75034E-14
 -1      1277 1.12024E-02-2.08369E-03-1.79639E-14
 -1      1278 1.15988E-02-1.83932E-03-1.83596E-14
 -1      1279 1.18909E-02-1.60783E-03-1.86701E-14
 -1      1280 1.20476E-02-1.40983E-03-1.88614E-14
 -1      1281 1.20688E-02-1.23961E-03-1.89423E-14
 -1      1282 1.66662E-04-1.10324E-04-5.97666E-18
 -1      1283 1.12529E-04-5.69694E-05-1.15739E-17
 -1      1284 1.17604E-04-6.75753E-05-9.94755E-18
 -1      1285 1.08422E-04-4.34875E-05-1.42437E-17
 -1      1286 1.10279E-04-4.96020E-05-1.35254E-17
 -1      1287 2.26312E-04-1.07607E-04-3.19704E-17
 -1      1288 1.06846E-04-3.36020E-05-1.51517E-17
 -1      1289 1.07691E-04-3.83262E-05-1.49620E-17
 -1      1290 2.19111E-04-8.24408E-05-3.60768E-17
 -1      1291 1.06070E-04-2.53461E-05-1.55447E-17
 -1      1292 1.06498E-04-2.93776E-05-1.55719E-17
 -1      1293 2.15875E-04-6.32559E-05-3.78522E-17
 -1      1294 1.05674E-04-1.80833E-05-1.52466E-17
 -1      1295 1.05902E-04-2.16514E-05-1.53957E-17
 -1      1296 2.14231E-04-4.71707E-05-3.81097E-17
 -1      1297 1.05454E-04-1.12318E-05-1.47994E-17
 -1      1298 1.05577E-04-1.46162E-05-1.50026E-17
 -1      1299 2.13323E-04-3.27335E-05-3.72559E-17
 -1      1300 1.05354E-04-4.68422E-06-1.40269E-17
 -1      1301 1.05407E-04-7.93584E-06-1.42573E-17
 -1      1302 2.12826E-04-1.91745E-05-3.58871E-17
 -1      1303 1.05343E-04 1.74445E-06-1.33492E-17
 -1      1304 1.05341E-04-1.46689E-06-1.36203E-17
 -1      1305 2.12612E-04-6.15156E-06-3.42879E-17
 -1      1306 1.05414E-04 8.22258E-06-1.23328E-17
 -1      1307 1.05358E-04 4.96482E-06-1.26716E-17
 -1      1308 2.12619E-04 6.70910E-06-3.23770E-17
 -1      1309 1.05590E-04 1.49268E-05-1.09640E-17
 -1      1310 1.05464E-04 1.15285E-05-1.14248E-17
 -1      1311 2.12848E-04 1.97567E-05-2.96258E-17
 -1      1312 1.05921E-04 2.19436E-05-9.09375E-18
 -1      1313 1.05688E-04 1.83536E-05-9.67650E-18
 -1      1314 2.13357E-04 3.32524E-05-2.60886E-17
 -1      1315 1.06541E-04 2.98086E-05-6.85758E-18
 -1      1316 1.06103E-04 2.57328E-05-7.67073E-18
 -1      1317 2.14291E-04 4.77756E-05-2.16840E-17
 -1      1318 1.07734E-04 3.89064E-05-3.97089E-18
 -1      1319 1.06884E-04 3.41114E-05-5.04154E-18
 -1      1320 2.15993E-04 6.41824E-05-1.62359E-17
 -1      1321 1.10261E-04 5.03430E-05-1.76183E-19
 -1      1322 1.08431E-04 4.41607E-05-1.84314E-18
 -1      1323 2.19223E-04 8.36891E-05-9.37835E-18
 -1      1324 1.16913E-04 6.76053E-05 5.33970E-18
 -1      1325 1.12168E-04 5.77624E-05 2.79182E-18
 -1      1326 2.26291E-04 1.09423E-04-3.65918E-19
 -1      1327 1.57544E-04 1.09835E-04 1.31595E-17
 -1      1328 1.35636E-04 8.60724E-05 8.79559E-18
 -1      1329 2.55991E-04 1.52055E-04 1.03135E-17
 -1      1330 3.35011E-04 2.20682E-04 2.41642E-17
 -1      1331 4.21443E-04-2.61676E-04-2.94496E-17
 -1      1332 5.74504E-04-3.36697E-04-5.36816E-17
 -1      1333 7.21659E-04-3.97254E-04-9.04496E-17
 -1      1334 8.64794E-04-4.46497E-04-1.38656E-16
 -1      1335 6.11958E-04-3.30778E-04-8.16404E-17
 -1      1336 1.00479E-03-4.87507E-04-1.97555E-16
 -1      1337 1.14260E-03-5.21423E-04-2.67283E-16
 -1      1338 9.05141E-04-4.31369E-04-1.79517E-16
 -1      1339 1.27907E-03-5.50111E-04-3.47663E-16
 -1      1340 1.41469E-03-5.74049E-04-4.39265E-16
 -1      1341 1.18753E-03-5.00642E-04-3.20382E-16
 -1      1342 1.54992E-03-5.94300E-04-5.40800E-16
 -1      1343 1.68500E-03-6.11197E-04-6.52730E-16
 -1      1344 1.46444E-03-5.49215E-04-5.03151E-16
 -1      1345 1.82018E-03-6.25365E-04-7.75611E-16
 -1      1346 1.95557E-03-6.37096E-04-9.08927E-16
 -1      1347 1.73912E-03-5.83255E-04-7.27242E-16
 -1      1348 2.09129E-03-6.46786E-04-1.05290E-15
 -1      1349 2.22739E-03-6.54686E-04-1.20819E-15
 -1      1350 2.01345E-03-6.06726E-04-9.93454E-16
 -1      1351 2.36394E-03-6.61064E-04-1.37302E-15
 -1      1352 2.50093E-03-6.66124E-04-1.54819E-15
 -1      1353 2.28845E-03-6.22417E-04-1.30121E-15
 -1      1354 2.63841E-03-6.70056E-04-1.73537E-15
 -1      1355 2.77634E-03-6.73021E-04-1.93301E-15
 -1      1356 2.56460E-03-6.32375E-04-1.65128E-15
 -1      1357 2.91475E-03-6.75150E-04-2.14045E-15
 -1      1358 3.05361E-03-6.76571E-04-2.35807E-15
 -1      1359 2.84213E-03-6.38118E-04-2.04357E-15
 -1      1360 3.19292E-03-6.77370E-04-2.58562E-15
 -1      1361 3.33267E-03-6.77647E-04-2.82242E-15
 -1      1362 3.12112E-03-6.40766E-04-2.47624E-15
 -1      1363 3.47284E-03-6.77454E-04-3.06915E-15
 -1      1364 3.61344E-03-6.76866E-04-3.32601E-15
 -1      1365 3.40157E-03-6.41125E-04-2.94793E-15
 -1      1366 3.75445E-03-6.75907E-04-3.59265E-15
 -1      1367 3.89588E-03-6.74636E-04-3.86820E-15
 -1      1368 3.68348E-03-6.39751E-04-3.45859E-15
 -1      1369 4.03774E-03-6.73050E-04-4.15365E-15
 -1      1370 4.18005E-03-6.71198E-04-4.44897E-15
 -1      1371 3.96686E-03-6.37001E-04-4.00716E-15
 -1      1372 4.32284E-03-6.69051E-04-4.75465E-15
 -1      1373 4.46614E-03-6.66656E-04-5.07005E-15
 -1      1374 4.25182E-03-6.33062E-04-4.59442E-15
 -1      1375 4.61003E-03-6.63958E-04-5.39323E-15
 -1      1376 4.75458E-03-6.61010E-04-5.72585E-15
 -1      1377 4.53859E-03-6.27990E-04-5.21988E-15
 -1      1378 4.90719E-03-6.57555E-04-6.08350E-15
 -1      1379 5.06080E-03-6.53824E-04-6.44878E-15
 -1      1380 4.83486E-03-6.21555E-04-5.89733E-15
 -1      1381 5.20822E-03-6.49887E-04-6.80548E-15
 -1      1382 5.35698E-03-6.45721E-04-7.16965E-15
 -1      1383 5.13427E-03-6.13749E-04-6.60894E-15
 -1      1384 5.50733E-03-6.41178E-04-7.53914E-15
 -1      1385 5.65966E-03-6.36512E-04-7.91411E-15
 -1      1386 5.43059E-03-6.04701E-04-7.33212E-15
 -1      1387 5.81438E-03-6.31581E-04-8.29632E-15
 -1      1388 5.97206E-03-6.26840E-04-8.68491E-15
 -1      1389 5.73285E-03-5.94351E-04-8.08140E-15
 -1      1390 6.13330E-03-6.22257E-04-9.07901E-15
 -1      1391 6.29895E-03-6.18649E-04-9.48010E-15
 -1      1392 6.04363E-03-5.83435E-04-8.85715E-15
 -1      1393 6.46984E-03-6.16373E-04-9.88696E-15
 -1      1394 6.64713E-03-6.16896E-04-1.02969E-14
 -1      1395 6.36651E-03-5.74267E-04-9.65670E-15
 -1      1396 6.83187E-03-6.21575E-04-1.07128E-14
 -1      1397 7.02551E-03-6.33122E-04-1.11345E-14
 -1      1398 6.70623E-03-5.72769E-04-1.04785E-14
 -1      1399 7.22916E-03-6.54983E-04-1.15614E-14
 -1      1400 7.44417E-03-6.92187E-04-1.19918E-14
 -1      1401 7.06863E-03-5.92641E-04-1.13202E-14
 -1      1402 7.67133E-03-7.51495E-04-1.24282E-14
 -1      1403 7.91096E-03-8.41642E-04-1.28706E-14
 -1      1404 7.46069E-03-6.62793E-04-1.21808E-14
 -1      1405 8.13694E-03-9.56565E-04-1.32729E-14
 -1      1406 8.37009E-03-1.11218E-03-1.36782E-14
 -1      1407 7.86829E-03-8.24025E-04-1.30181E-14
 -1      1408 8.58211E-03-1.28631E-03-1.40470E-14
 -1      1409 8.79325E-03-1.49786E-03-1.44232E-14
 -1      1410 8.26782E-03-1.10030E-03-1.37869E-14
 -1      1411 9.44200E-03-2.28455E-03-1.56417E-14
 -1      1412 9.60272E-03-2.49236E-03-1.60428E-14
 -1      1413 9.76632E-03-2.64793E-03-1.65027E-14
 -1      1414 9.92283E-03-2.69515E-03-1.69711E-14
 -1      1415 9.61798E-03-2.55477E-03-1.62674E-14
 -1      1416 1.00743E-02-2.63751E-03-1.74230E-14
 -1      1417 1.02436E-02-2.50636E-03-1.78804E-14
 -1      1418 1.00120E-02-2.64049E-03-1.71785E-14
 -1      1419 1.04216E-02-2.33909E-03-1.83174E-14
 -1      1420 1.06159E-02-2.16486E-03-1.87599E-14
 -1      1421 1.04018E-02-2.37648E-03-1.80673E-14
 -1      1422 1.08899E-02-1.95904E-03-1.93476E-14
 -1      1423 1.11719E-02-1.80171E-03-1.99415E-14
 -1      1424 1.08746E-02-1.97482E-03-1.90926E-14
 -1      1425 1.14390E-02-1.71018E-03-2.05132E-14
 -1      1426 1.16986E-02-1.66903E-03-2.10901E-14
 -1      1427 1.13977E-02-1.68557E-03-2.02560E-14
 -1      1428 1.19463E-02-1.67096E-03-2.16698E-14
 -1      1429 1.21812E-02-1.70554E-03-2.22514E-14
 -1      1430 1.18719E-02-1.61704E-03-2.14102E-14
 -1      1431 1.24029E-02-1.76394E-03-2.28302E-14
 -1      1432 1.26122E-02-1.83930E-03-2.34089E-14
 -1      1433 1.23029E-02-1.69498E-03-2.25728E-14
 -1      1434 1.28105E-02-1.92585E-03-2.39894E-14
 -1      1435 1.29990E-02-2.02000E-03-2.45743E-14
 -1      1436 1.26949E-02-1.85114E-03-2.37361E-14
 -1      1437 1.31793E-02-2.11890E-03-2.51620E-14
 -1      1438 1.33526E-02-2.22078E-03-2.57528E-14
 -1      1439 1.30557E-02-2.04298E-03-2.49066E-14
 -1      1440 1.35202E-02-2.32443E-03-2.63468E-14
 -1      1441 1.36829E-02-2.42898E-03-2.69452E-14
 -1      1442 1.33930E-02-2.24908E-03-2.60916E-14
 -1      1443 1.38419E-02-2.53400E-03-2.75460E-14
 -1      1444 1.39976E-02-2.63906E-03-2.81473E-14
 -1      1445 1.37134E-02-2.45974E-03-2.72926E-14
 -1      1446 1.41508E-02-2.74406E-03-2.87524E-14
 -1      1447 1.43020E-02-2.84879E-03-2.93636E-14
 -1      1448 1.40222E-02-2.67087E-03-2.85025E-14
 -1      1449 1.44515E-02-2.95328E-03-2.99787E-14
 -1      1450 1.45996E-02-3.05741E-03-3.05982E-14
 -1      1451 1.43231E-02-2.88098E-03-2.97282E-14
 -1      1452 1.47467E-02-3.16125E-03-3.12249E-14
 -1      1453 1.48929E-02-3.26474E-03-3.18583E-14
 -1      1454 1.46187E-02-3.08966E-03-3.09741E-14
 -1      1455 1.50384E-02-3.36796E-03-3.24945E-14
 -1      1456 1.51833E-02-3.47087E-03-3.31297E-14
 -1      1457 1.49108E-02-3.29691E-03-3.22383E-14
 -1      1458 1.53277E-02-3.57353E-03-3.37638E-14
 -1      1459 1.54718E-02-3.67593E-03-3.43991E-14
 -1      1460 1.52006E-02-3.50290E-03-3.35122E-14
 -1      1461 1.56156E-02-3.77810E-03-3.50337E-14
 -1      1462 1.57591E-02-3.88005E-03-3.56716E-14
 -1      1463 1.54887E-02-3.70779E-03-3.47842E-14
 -1      1464 1.59024E-02-3.98180E-03-3.63174E-14
 -1      1465 1.60456E-02-4.08336E-03-3.69718E-14
 -1      1466 1.57759E-02-3.91174E-03-3.60723E-14
 -1      1467 1.61887E-02-4.18474E-03-3.76305E-14
 -1      1468 1.63317E-02-4.28595E-03-3.82913E-14
 -1      1469 1.60624E-02-4.11488E-03-3.73855E-14
 -1      1470 1.64746E-02-4.38702E-03-3.89624E-14
 -1      1471 1.66174E-02-4.48796E-03-3.96366E-14
 -1      1472 1.63484E-02-4.31731E-03-3.87166E-14
 -1      1473 1.67031E-02-4.55250E-03-4.01106E-14
 -1      1474 1.68460E-02-4.65333E-03-4.07820E-14
 -1      1475 1.67485E-02-4.61190E-03-4.08079E-14
 -1      1476 1.65771E-02-4.48287E-03-3.98617E-14
 -1      1477 6.42938E-04 3.71899E-04 3.30953E-17
 -1      1478 4.92843E-04 3.03606E-04 3.16316E-17
 -1      1479 4.44795E-04 2.65816E-04 2.14672E-17
 -1      1480 9.28469E-04 4.71777E-04 1.64799E-17
 -1      1481 7.87643E-04 4.26336E-04 2.82164E-17
 -1      1482 7.44616E-04 3.90566E-04 1.36881E-17
 -1      1483 1.20330E-03 5.41019E-04-3.02357E-17
 -1      1484 1.06666E-03 5.09422E-04-2.77827E-18
 -1      1485 1.03061E-03 4.75867E-04-2.15350E-17
 -1      1486 1.47383E-03 5.90018E-04-1.09491E-16
 -1      1487 1.33879E-03 5.67653E-04-6.57569E-17
 -1      1488 1.30849E-03 5.35497E-04-8.77391E-17
 -1      1489 1.74336E-03 6.24664E-04-2.22844E-16
 -1      1490 1.60855E-03 6.08889E-04-1.61777E-16
 -1      1491 1.58273E-03 5.77575E-04-1.87364E-16
 -1      1492 2.01360E-03 6.48808E-04-3.71990E-16
 -1      1493 1.87831E-03 6.37874E-04-2.92843E-16
 -1      1494 1.85592E-03 6.07026E-04-3.21927E-16
 -1      1495 2.28538E-03 6.65192E-04-5.57605E-16
 -1      1496 2.14926E-03 6.57839E-04-4.60379E-16
 -1      1497 2.12951E-03 6.27225E-04-4.92567E-16
 -1      1498 2.55904E-03 6.75851E-04-7.80490E-16
 -1      1499 2.42196E-03 6.71137E-04-6.64182E-16
 -1      1500 2.40421E-03 6.40612E-04-6.99798E-16
 -1      1501 2.83468E-03 6.82329E-04-1.04044E-15
 -1      1502 2.69661E-03 6.79536E-04-9.05675E-16
 -1      1503 2.68037E-03 6.49014E-04-9.43920E-16
 -1      1504 3.11223E-03 6.85799E-04-1.34228E-15
 -1      1505 2.97322E-03 6.84381E-04-1.18632E-15
 -1      1506 2.95808E-03 6.53808E-04-1.22798E-15
 -1      1507 3.39158E-03 6.87159E-04-1.68408E-15
 -1      1508 3.25169E-03 6.86697E-04-1.50783E-15
 -1      1509 3.23735E-03 6.56041E-04-1.55195E-15
 -1      1510 3.67258E-03 6.87104E-04-2.06404E-15
 -1      1511 3.53189E-03 6.87272E-04-1.86922E-15
 -1      1512 3.51809E-03 6.56514E-04-1.91494E-15
 -1      1513 3.95508E-03 6.86187E-04-2.48621E-15
 -1      1514 3.81365E-03 6.86724E-04-2.27005E-15
 -1      1515 3.80021E-03 6.55852E-04-2.31809E-15
 -1      1516 4.23891E-03 6.84875E-04-2.95255E-15
 -1      1517 4.09684E-03 6.85555E-04-2.71358E-15
 -1      1518 4.08357E-03 6.54565E-04-2.76299E-15
 -1      1519 4.52390E-03 6.83592E-04-3.46438E-15
 -1      1520 4.38127E-03 6.84207E-04-3.20250E-15
 -1      1521 4.36804E-03 6.53093E-04-3.25271E-15
 -1      1522 4.80984E-03 6.82750E-04-4.01705E-15
 -1      1523 4.66676E-03 6.83094E-04-3.73604E-15
 -1      1524 4.65345E-03 6.51858E-04-3.78481E-15
 -1      1525 5.09644E-03 6.82771E-04-4.61365E-15
 -1      1526 4.95308E-03 6.82635E-04-4.30992E-15
 -1      1527 4.93960E-03 6.51283E-04-4.35903E-15
 -1      1528 5.38327E-03 6.84069E-04-5.25346E-15
 -1      1529 5.23986E-03 6.83250E-04-4.92779E-15
 -1      1530 5.22618E-03 6.51804E-04-4.97662E-15
 -1      1531 5.66971E-03 6.87002E-04-5.94120E-15
 -1      1532 5.52659E-03 6.85336E-04-5.59100E-15
 -1      1533 5.51273E-03 6.53837E-04-5.63906E-15
 -1      1534 5.95487E-03 6.91753E-04-6.67553E-15
 -1      1535 5.81251E-03 6.89181E-04-6.30201E-15
 -1      1536 5.79861E-03 6.57706E-04-6.34822E-15
 -1      1537 6.23756E-03 6.98146E-04-7.45851E-15
 -1      1538 6.09661E-03 6.94815E-04-7.06198E-15
 -1      1539 6.08296E-03 6.63489E-04-7.10551E-15
 -1      1540 6.51631E-03 7.05385E-04-8.28088E-15
 -1      1541 6.37753E-03 7.01786E-04-7.86490E-15
 -1      1542 6.36465E-03 6.70798E-04-7.90656E-15
 -1      1543 6.78946E-03 7.11751E-04-9.14075E-15
 -1      1544 6.65370E-03 7.08873E-04-8.70641E-15
 -1      1545 6.64234E-03 6.78477E-04-8.74511E-15
 -1      1546 7.05540E-03 7.14333E-04-1.00310E-14
 -1      1547 6.92343E-03 7.13784E-04-9.58223E-15
 -1      1548 6.91464E-03 6.84294E-04-9.61763E-15
 -1      1549 7.31287E-03 7.08926E-04-1.09470E-14
 -1      1550 7.18526E-03 7.12956E-04-1.04855E-14
 -1      1551 7.18029E-03 6.84717E-04-1.05191E-14
 -1      1552 7.56142E-03 6.90234E-04-1.18983E-14
 -1      1553 7.43827E-03 7.01589E-04-1.14192E-14
 -1      1554 7.43850E-03 6.74918E-04-1.14513E-14
 -1      1555 7.80172E-03 6.52497E-04-1.28784E-14
 -1      1556 7.68252E-03 6.74058E-04-1.23846E-14
 -1      1557 7.68929E-03 6.49168E-04-1.24152E-14
 -1      1558 8.03571E-03 5.90483E-04-1.38929E-14
 -1      1559 7.91934E-03 6.24734E-04-1.33806E-14
 -1      1560 7.93371E-03 6.01669E-04-1.34080E-14
 -1      1561 8.26648E-03 5.00608E-04-1.49444E-14
 -1      1562 8.15127E-03 5.49084E-04-1.44148E-14
 -1      1563 8.17388E-03 5.27675E-04-1.44384E-14
 -1      1564 8.49770E-03 3.81810E-04-1.60288E-14
 -1      1565 8.38179E-03 4.44708E-04-1.54821E-14
 -1      1566 8.41270E-03 4.24598E-04-1.55032E-14
 -1      1567 8.73300E-03 2.35817E-04-1.71471E-14
 -1      1568 8.61463E-03 3.11950E-04-1.65833E-14
 -1      1569 8.65336E-03 2.92657E-04-1.66019E-14
 -1      1570 8.97519E-03 6.67096E-05-1.83054E-14
 -1      1571 8.85308E-03 1.53802E-04-1.77215E-14
 -1      1572 8.89866E-03 1.34829E-04-1.77374E-14
 -1      1573 9.22592E-03-1.20055E-04-1.94902E-14
 -1      1574 9.09942E-03-2.48334E-05-1.88938E-14
 -1      1575 9.15057E-03-4.39106E-05-1.89067E-14
 -1      1576 9.48557E-03-3.18763E-04-2.07168E-14
 -1      1577 9.35464E-03-2.18242E-04-2.00984E-14
 -1      1578 9.40997E-03-2.37715E-04-2.01094E-14
 -1      1579 9.75345E-03-5.24363E-04-2.19743E-14
 -1      1580 9.61855E-03-4.20952E-04-2.13416E-14
 -1      1581 9.67675E-03-4.40968E-04-2.13484E-14
 -1      1582 1.00282E-02-7.32979E-04-2.32703E-14
 -1      1583 9.89006E-03-6.28461E-04-2.26188E-14
 -1      1584 9.95003E-03-6.49045E-04-2.26182E-14
 -1      1585 1.03082E-02-9.42033E-04-2.45862E-14
 -1      1586 1.01676E-02-8.37545E-04-2.39256E-14
 -1      1587 1.02285E-02-8.58639E-04-2.39167E-14
 -1      1588 1.05918E-02-1.15007E-03-2.59241E-14
 -1      1589 1.04496E-02-1.04622E-03-2.52527E-14
 -1      1590 1.05109E-02-1.06772E-03-2.52384E-14
 -1      1591 1.08777E-02-1.35650E-03-2.72824E-14
 -1      1592 1.07346E-02-1.25349E-03-2.65997E-14
 -1      1593 1.07958E-02-1.27529E-03-2.65815E-14
 -1      1594 1.11649E-02-1.56125E-03-2.86716E-14
 -1      1595 1.10212E-02-1.45907E-03-2.79736E-14
 -1      1596 1.10823E-02-1.48106E-03-2.79485E-14
 -1      1597 1.14525E-02-1.76455E-03-3.00687E-14
 -1      1598 1.13087E-02-1.66306E-03-2.93696E-14
 -1      1599 1.13695E-02-1.68516E-03-2.93357E-14
 -1      1600 1.17402E-02-1.96676E-03-3.14645E-14
 -1      1601 1.15964E-02-1.86577E-03-3.07678E-14
 -1      1602 1.16570E-02-1.88792E-03-3.07302E-14
 -1      1603 1.20275E-02-2.16826E-03-3.28562E-14
 -1      1604 1.18839E-02-2.06758E-03-3.21620E-14
 -1      1605 1.19444E-02-2.08974E-03-3.21236E-14
 -1      1606 1.23145E-02-2.36937E-03-3.42450E-14
 -1      1607 1.21711E-02-2.26885E-03-3.35505E-14
 -1      1608 1.22315E-02-2.29098E-03-3.35111E-14
 -1      1609 1.26011E-02-2.57036E-03-3.56271E-14
 -1      1610 1.24579E-02-2.46986E-03-3.49370E-14
 -1      1611 1.25182E-02-2.49196E-03-3.48955E-14
 -1      1612 1.28874E-02-2.77144E-03-3.70197E-14
 -1      1613 1.27443E-02-2.67088E-03-3.63216E-14
 -1      1614 1.28046E-02-2.69293E-03-3.62824E-14
 -1      1615 1.31733E-02-2.97275E-03-3.84105E-14
 -1      1616 1.30304E-02-2.87206E-03-3.77139E-14
 -1      1617 1.30907E-02-2.89407E-03-3.76749E-14
 -1      1618 1.34591E-02-3.17434E-03-3.98006E-14
 -1      1619 1.33162E-02-3.07351E-03-3.91064E-14
 -1      1620 1.33766E-02-3.09549E-03-3.90667E-14
 -1      1621 1.36336E-02-3.29036E-03-4.05365E-14
 -1      1622 1.38938E-02-3.40414E-03-4.06839E-14
 -1      1623 1.37945E-02-3.36204E-03-4.06498E-14
 -1      1624 1.40926E-02-3.48825E-03-4.07524E-14
 -1      1625 1.39932E-02-3.44622E-03-4.07182E-14
 -1      1626 1.38198E-02-3.33778E-03-4.00972E-14
 -1      1627 1.42917E-02-3.57213E-03-4.08138E-14
 -1      1628 1.41921E-02-3.53022E-03-4.07827E-14
 -1      1629 1.40187E-02-3.42181E-03-4.01622E-14
 -1      1630 1.44908E-02-3.65574E-03-4.08714E-14
 -1      1631 1.43912E-02-3.61397E-03-4.08444E-14
 -1      1632 1.42178E-02-3.50561E-03-4.02238E-14
 -1      1633 1.46866E-02-3.73762E-03-4.09212E-14
 -1      1634 1.45887E-02-3.69672E-03-4.08971E-14
 -1      1635 1.44153E-02-3.58844E-03-4.02792E-14
 -1      1636 1.48856E-02-3.82063E-03-4.09639E-14
 -1      1637 1.47861E-02-3.77916E-03-4.09440E-14
 -1      1638 1.46128E-02-3.67100E-03-4.03275E-14
 -1      1639 1.50842E-02-3.90339E-03-4.10067E-14
 -1      1640 1.49849E-02-3.86203E-03-4.09837E-14
 -1      1641 1.48117E-02-3.75400E-03-4.03682E-14
 -1      1642 1.52825E-02-3.98600E-03-4.10220E-14
 -1      1643 1.51834E-02-3.94471E-03-4.10191E-14
 -1      1644 1.50103E-02-3.83681E-03-4.03980E-14
 -1      1645 1.54802E-02-4.06860E-03-4.10101E-14
 -1      1646 1.53814E-02-4.02729E-03-4.10216E-14
 -1      1647 1.52085E-02-3.91950E-03-4.04096E-14
 -1      1648 1.56776E-02-4.15131E-03-4.09832E-14
 -1      1649 1.55790E-02-4.10993E-03-4.09967E-14
 -1      1650 1.54061E-02-4.00218E-03-4.03985E-14
 -1      1651 1.58713E-02-4.23286E-03-4.09557E-14
 -1      1652 1.57745E-02-4.19204E-03-4.09698E-14
 -1      1653 1.56017E-02-4.08428E-03-4.03731E-14
 -1      1654 1.60683E-02-4.31615E-03-4.09154E-14
 -1      1655 1.59698E-02-4.27446E-03-4.09383E-14
 -1      1656 1.57970E-02-4.16661E-03-4.03409E-14
 -1      1657 1.62654E-02-4.39982E-03-4.08447E-14
 -1      1658 1.61668E-02-4.35794E-03-4.08838E-14
 -1      1659 1.59939E-02-4.24995E-03-4.02942E-14
 -1      1660 1.64629E-02-4.48381E-03-4.07748E-14
 -1      1661 1.63641E-02-4.44178E-03-4.08061E-14
 -1      1662 1.61911E-02-4.33362E-03-4.02351E-14
 -1      1663 1.66552E-02-4.56889E-03-4.07718E-14
 -1      1664 1.65561E-02-4.52677E-03-4.08028E-14
 -1      1665 1.63829E-02-4.41848E-03-4.02343E-14
 -1      1666 1.65694E-02-4.50440E-03-4.03003E-14
 -1      1667 1.19307E-02-1.10890E-03-1.91064E-14
 -1      1668 1.20154E-02-1.16235E-03-1.91527E-14
 -1      1669 1.16406E-02-9.71855E-04-1.89168E-14
 -1      1670 1.17920E-02-1.04195E-03-1.90290E-14
 -1      1671 1.12604E-02-7.89625E-04-1.85946E-14
 -1      1672 1.14445E-02-8.74371E-04-1.87453E-14
 -1      1673 1.07807E-02-5.78043E-04-1.81822E-14
 -1      1674 1.10077E-02-6.87424E-04-1.83990E-14
 -1      1675 1.03289E-02-3.48542E-04-1.76768E-14
 -1      1676 1.05366E-02-4.46809E-04-1.79018E-14
 -1      1677 9.86151E-03-1.51891E-04-1.71415E-14
 -1      1678 1.00693E-02-2.40912E-04-1.74005E-14
 -1      1679 9.39485E-03 8.50032E-07-1.65315E-14
 -1      1680 9.60223E-03-5.92009E-05-1.68167E-14
 -1      1681 8.97796E-03 4.63758E-05-1.59550E-14
 -1      1682 9.16743E-03 3.41238E-05-1.62111E-14
 -1      1683 8.54706E-03 1.27887E-05-1.53792E-14
 -1      1684 8.74927E-03 4.17169E-05-1.56413E-14
 -1      1685 8.11512E-03-9.50179E-05-1.48881E-14
 -1      1686 8.30897E-03-3.90839E-05-1.51030E-14
 -1      1687 7.71512E-03-2.28538E-04-1.45054E-14
 -1      1688 7.89240E-03-1.64620E-04-1.46713E-14
 -1      1689 7.36850E-03-3.63403E-04-1.42136E-14
 -1      1690 7.52188E-03-3.02153E-04-1.43369E-14
 -1      1691 7.07513E-03-5.08140E-04-1.39526E-14
 -1      1692 7.20684E-03-4.50232E-04-1.40416E-14
 -1      1693 6.89600E-03-6.05056E-04-1.39023E-14
 -1      1694 6.95877E-03-5.57774E-04-1.39299E-14
 -1      1695 6.85828E-03-7.14544E-04-1.39155E-14
 -1      1696 6.85746E-03-6.63218E-04-1.38893E-14
 -1      1697 6.97303E-03-8.50769E-04-1.40606E-14
 -1      1698 6.90171E-03-7.84779E-04-1.39865E-14
 -1      1699 7.23669E-03-1.03946E-03-1.42901E-14
 -1      1700 7.09638E-03-9.43641E-04-1.41725E-14
 -1      1701 7.62004E-03-1.29735E-03-1.46142E-14
 -1      1702 7.43084E-03-1.16899E-03-1.44528E-14
 -1      1703 8.10875E-03-1.64304E-03-1.50306E-14
 -1      1704 7.87002E-03-1.47150E-03-1.48272E-14
 -1      1705 8.66506E-03-2.02498E-03-1.54992E-14
 -1      1706 8.41678E-03-1.84330E-03-1.52730E-14
 -1      1707 9.17953E-03-2.36124E-03-1.60341E-14
 -1      1708 8.93765E-03-2.22190E-03-1.57876E-14
 -1      1709 9.72081E-03-2.53732E-03-1.66194E-14
 -1      1710 9.47477E-03-2.48583E-03-1.63421E-14
 -1      1711 1.02204E-02-2.47099E-03-1.71827E-14
 -1      1712 9.99613E-03-2.52485E-03-1.69300E-14
 -1      1713 1.07072E-02-2.24530E-03-1.77279E-14
 -1      1714 1.04804E-02-2.36519E-03-1.74826E-14
 -1      1715 1.11846E-02-1.95932E-03-1.82030E-14
 -1      1716 1.09727E-02-2.09354E-03-1.79899E-14
 -1      1717 1.15986E-02-1.69480E-03-1.86134E-14
 -1      1718 1.14169E-02-1.81237E-03-1.84337E-14
 -1      1719 1.19107E-02-1.47497E-03-1.89576E-14
 -1      1720 1.17781E-02-1.56441E-03-1.88254E-14
 -1      1721 1.20727E-02-1.33603E-03-1.91090E-14
 -1      1722 1.20200E-02-1.39624E-03-1.90438E-14
 -1      1723 1.20755E-02-1.22222E-03-1.91710E-14
 -1      1724 1.20930E-02-1.27271E-03-1.91563E-14
 -1      1725 9.05677E-03-1.77861E-03-1.48563E-14
 -1      1726 9.25156E-03-2.03322E-03-1.52450E-14
 -1      1727 1.20558E-02-1.22045E-03-1.93808E-14
 -1      1728 1.10633E-02-8.13560E-04-1.86635E-14
 -1      1729 8.72747E-03-1.55004E-03-1.45845E-14
 -1      1730 1.36941E-02-3.31232E-03-4.04989E-14
 -1      1731 1.36200E-02-3.24601E-03-3.99133E-14
 -1      1732 1.18542E-02-1.13572E-03-1.92852E-14
 -1      1733 1.15118E-02-1.00419E-03-1.90351E-14
 -1      1734 1.05812E-02-5.70996E-04-1.81798E-14
 -1      1735 1.01080E-02-3.16671E-04-1.76184E-14
 -1      1736 9.65525E-03-9.59259E-05-1.70129E-14
 -1      1737 9.26095E-03 4.40472E-05-1.63667E-14
 -1      1738 8.86841E-03 6.98564E-05-1.57339E-14
 -1      1739 8.47417E-03-5.83312E-06-1.51481E-14
 -1      1740 8.06173E-03-1.48958E-04-1.46621E-14
 -1      1741 7.66722E-03-3.05123E-04-1.42825E-14
 -1      1742 7.31118E-03-4.57996E-04-1.39470E-14
 -1      1743 7.02535E-03-5.64713E-04-1.37589E-14
 -1      1744 6.86711E-03-6.41514E-04-1.37251E-14
 -1      1745 6.87242E-03-7.16964E-04-1.37810E-14
 -1      1746 7.04774E-03-8.32596E-04-1.39612E-14
 -1      1747 7.37810E-03-1.01749E-03-1.42326E-14
 -1      1748 7.82934E-03-1.30204E-03-1.46045E-14
 -1      1749 8.37248E-03-1.68257E-03-1.50562E-14
 -1      1750 8.90187E-03-2.10720E-03-1.55859E-14
 -1      1751 9.39954E-03-2.45366E-03-1.61820E-14
 -1      1752 9.85136E-03-2.57131E-03-1.68010E-14
 -1      1753 1.03013E-02-2.43452E-03-1.74116E-14
 -1      1754 1.07635E-02-2.14895E-03-1.79735E-14
 -1      1755 1.12350E-02-1.83497E-03-1.84677E-14
 -1      1756 1.16502E-02-1.56783E-03-1.89135E-14
 -1      1757 1.19529E-02-1.39573E-03-1.92156E-14
 -1      1758 1.20914E-02-1.29494E-03-1.93511E-14
 -1      1759 9.20350E-03-2.11046E-03-1.54137E-14
 -1      1760 2.85183E-04-1.76195E-04-2.40015E-17
 -1      1761 3.32199E-04-1.16726E-04-5.63514E-17
 -1      1762 3.36325E-04-1.32972E-04-5.45896E-17
 -1      1763 3.42190E-04-1.51961E-04-5.17571E-17
 -1      1764 3.51726E-04-1.73961E-04-4.75694E-17
 -1      1765 4.58320E-04-1.87997E-04-7.92958E-17
 -1      1766 3.24603E-04-6.53313E-05-5.80319E-17
 -1      1767 3.25736E-04-7.66289E-05-5.84114E-17
 -1      1768 3.23114E-04-4.38478E-05-5.65276E-17
 -1      1769 3.23766E-04-5.43324E-05-5.73407E-17
 -1      1770 4.36561E-04-7.92126E-05-8.51505E-17
 -1      1771 3.22333E-04-2.37435E-05-5.43727E-17
 -1      1772 3.22664E-04-3.36497E-05-5.56467E-17
 -1      1773 4.34566E-04-5.12604E-05-8.28602E-17
 -1      1774 3.22040E-04-4.32595E-06-5.16758E-17
 -1      1775 3.22137E-04-1.39695E-05-5.30039E-17
 -1      1776 4.33549E-04-2.48894E-05-7.95127E-17
 -1      1777 3.22160E-04 1.49736E-05-4.84096E-17
 -1      1778 3.22047E-04 5.32044E-06-5.01986E-17
 -1      1779 4.33251E-04 7.65707E-07-7.53385E-17
 -1      1780 3.22721E-04 3.47049E-05-4.39508E-17
 -1      1781 3.22372E-04 2.47676E-05-4.62548E-17
 -1      1782 4.33602E-04 2.64484E-05-7.01208E-17
 -1      1783 3.23842E-04 5.51279E-05-3.85434E-17
 -1      1784 3.23183E-04 4.47721E-05-4.15656E-17
 -1      1785 4.34672E-04 5.26785E-05-6.36698E-17
 -1      1786 3.25886E-04 7.77687E-05-3.19433E-17
 -1      1787 3.24696E-04 6.61928E-05-3.55483E-17
 -1      1788 4.36717E-04 8.05381E-05-5.59719E-17
 -1      1789 3.29563E-04 1.03596E-04-2.33917E-17
 -1      1790 3.27416E-04 9.02540E-05-2.80537E-17
 -1      1791 4.40344E-04 1.11497E-04-4.61735E-17
 -1      1792 3.36624E-04 1.35077E-04-1.25090E-17
 -1      1793 3.32465E-04 1.18551E-04-1.83772E-17
 -1      1794 4.46829E-04 1.47262E-04-3.37322E-17
 -1      1795 3.52223E-04 1.77516E-04 2.03288E-18
 -1      1796 3.42768E-04 1.54680E-04-5.85469E-18
 -1      1797 4.59269E-04 1.91350E-04-1.76589E-17
 -1      1798 4.07609E-04 2.33607E-04 1.42573E-17
 -1      1799 3.78018E-04 2.02599E-04 6.97955E-18
 -1      1800 4.95791E-04 2.43916E-04-2.31748E-18
 -1      1801 5.58437E-04 3.02396E-04 1.19940E-17
 -1      1802 3.39967E-04-1.90861E-04-3.75812E-17
 -1      1803 8.53473E-04 4.06897E-04-1.22786E-17
 -1      1804 7.07059E-04 3.59196E-04 3.32037E-18
 -1      1805 6.73337E-04 3.28645E-04-5.92245E-18
 -1      1806 4.58894E-04-2.36639E-04-6.28024E-17
 -1      1807 8.07120E-04-3.73916E-04-1.60909E-16
 -1      1808 9.52372E-04-4.15035E-04-2.21611E-16
 -1      1809 1.09520E-03-4.49646E-04-2.92409E-16
 -1      1810 1.23686E-03-4.78450E-04-3.73724E-16
 -1      1811 1.00384E-03-3.97620E-04-2.64559E-16
 -1      1812 1.37726E-03-5.02827E-04-4.65421E-16
 -1      1813 1.51695E-03-5.23079E-04-5.67377E-16
 -1      1814 1.28952E-03-4.55396E-04-4.28043E-16
 -1      1815 1.65612E-03-5.40120E-04-6.79334E-16
 -1      1816 1.79498E-03-5.54186E-04-8.01578E-16
 -1      1817 1.57195E-03-4.96099E-04-6.31697E-16
 -1      1818 1.93372E-03-5.65881E-04-9.34447E-16
 -1      1819 2.07241E-03-5.75409E-04-1.07741E-15
 -1      1820 1.85260E-03-5.24324E-04-8.76157E-16
 -1      1821 2.21121E-03-5.83181E-04-1.23066E-15
 -1      1822 2.35011E-03-5.89367E-04-1.39413E-15
 -1      1823 2.13258E-03-5.43383E-04-1.16094E-15
 -1      1824 2.48924E-03-5.94257E-04-1.56831E-15
 -1      1825 2.62856E-03-5.97990E-04-1.75328E-15
 -1      1826 2.41259E-03-5.55705E-04-1.48682E-15
 -1      1827 2.76817E-03-6.00768E-04-1.94837E-15
 -1      1828 2.90801E-03-6.02703E-04-2.15295E-15
 -1      1829 2.69303E-03-5.63090E-04-1.85390E-15
 -1      1830 3.04816E-03-6.03936E-04-2.36863E-15
 -1      1831 3.18857E-03-6.04552E-04-2.59375E-15
 -1      1832 2.97417E-03-5.66865E-04-2.26220E-15
 -1      1833 3.32930E-03-6.04643E-04-2.82772E-15
 -1      1834 3.47030E-03-6.04277E-04-3.07198E-15
 -1      1835 3.25612E-03-5.67996E-04-2.70945E-15
 -1      1836 3.61162E-03-6.03506E-04-3.32564E-15
 -1      1837 3.75323E-03-6.02380E-04-3.58948E-15
 -1      1838 3.53897E-03-5.67161E-04-3.19504E-15
 -1      1839 3.89516E-03-6.00921E-04-3.86223E-15
 -1      1840 4.03741E-03-5.99168E-04-4.14440E-15
 -1      1841 3.82276E-03-5.64808E-04-3.71866E-15
 -1      1842 4.18000E-03-5.97112E-04-4.43666E-15
 -1      1843 4.32296E-03-5.94785E-04-4.73794E-15
 -1      1844 4.10756E-03-5.61199E-04-4.28015E-15
 -1      1845 4.46630E-03-5.92152E-04-5.04803E-15
 -1      1846 4.61010E-03-5.89244E-04-5.36767E-15
 -1      1847 4.39346E-03-5.56445E-04-4.87913E-15
 -1      1848 4.76158E-03-5.85830E-04-5.71370E-15
 -1      1849 4.91372E-03-5.82084E-04-6.06813E-15
 -1      1850 4.68781E-03-5.50367E-04-5.53122E-15
 -1      1851 5.05919E-03-5.78126E-04-6.41306E-15
 -1      1852 5.20548E-03-5.73839E-04-6.76622E-15
 -1      1853 4.98371E-03-5.42968E-04-6.21954E-15
 -1      1854 5.35249E-03-5.69140E-04-7.12736E-15
 -1      1855 5.50063E-03-5.64113E-04-7.49430E-15
 -1      1856 5.27419E-03-5.34349E-04-6.92344E-15
 -1      1857 5.64970E-03-5.58717E-04-7.86880E-15
 -1      1858 5.80036E-03-5.53096E-04-8.24946E-15
 -1      1859 5.56680E-03-5.24334E-04-7.65577E-15
 -1      1860 5.95218E-03-5.47359E-04-8.63628E-15
 -1      1861 6.10621E-03-5.41765E-04-9.02932E-15
 -1      1862 5.86188E-03-5.13300E-04-8.41647E-15
 -1      1863 6.26166E-03-5.36804E-04-9.42886E-15
 -1      1864 6.42011E-03-5.32978E-04-9.83442E-15
 -1      1865 6.15964E-03-5.02601E-04-9.20169E-15
 -1      1866 6.58028E-03-5.31604E-04-1.02445E-14
 -1      1867 6.74435E-03-5.33741E-04-1.06595E-14
 -1      1868 6.46004E-03-4.95772E-04-1.00109E-14
 -1      1869 6.91073E-03-5.42217E-04-1.10795E-14
 -1      1870 7.08211E-03-5.59573E-04-1.15043E-14
 -1      1871 6.76297E-03-5.00778E-04-1.08405E-14
 -1      1872 7.25751E-03-5.90850E-04-1.19351E-14
 -1      1873 7.43964E-03-6.42052E-04-1.23700E-14
 -1      1874 7.06984E-03-5.34169E-04-1.16901E-14
 -1      1875 7.61104E-03-7.10398E-04-1.27646E-14
 -1      1876 7.79031E-03-8.10165E-04-1.31655E-14
 -1      1877 7.37219E-03-6.20965E-04-1.25145E-14
 -1      1878 1.20288E-02-1.24433E-03-1.96740E-14
 -1      1879 1.20873E-02-1.26101E-03-1.96919E-14
 -1      1880 9.89967E-03-2.61879E-03-1.69223E-14
 -1      1881 1.01463E-02-2.54271E-03-1.73742E-14
 -1      1882 1.08303E-02-2.00570E-03-1.87668E-14
 -1      1883 1.11017E-02-1.80271E-03-1.93566E-14
 -1      1884 1.13651E-02-1.66154E-03-1.99365E-14
 -1      1885 1.15930E-02-1.58423E-03-2.05112E-14
 -1      1886 1.18110E-02-1.56075E-03-2.10886E-14
 -1      1887 1.20144E-02-1.57471E-03-2.16695E-14
 -1      1888 1.17766E-02-1.51024E-03-2.07691E-14
 -1      1889 1.22092E-02-1.61920E-03-2.22507E-14
 -1      1890 1.23961E-02-1.68521E-03-2.28332E-14
 -1      1891 1.21428E-02-1.55039E-03-2.19284E-14
 -1      1892 1.25761E-02-1.76593E-03-2.34173E-14
 -1      1893 1.27512E-02-1.85686E-03-2.40023E-14
 -1      1894 1.24792E-02-1.68640E-03-2.30987E-14
 -1      1895 1.29208E-02-1.95409E-03-2.45899E-14
 -1      1896 1.30871E-02-2.05557E-03-2.51803E-14
 -1      1897 1.28016E-02-1.86896E-03-2.42727E-14
 -1      1898 1.32490E-02-2.15942E-03-2.57747E-14
 -1      1899 1.34083E-02-2.26463E-03-2.63729E-14
 -1      1900 1.31154E-02-2.07196E-03-2.54560E-14
 -1      1901 1.35646E-02-2.37050E-03-2.69729E-14
 -1      1902 1.37189E-02-2.47649E-03-2.75787E-14
 -1      1903 1.34225E-02-2.28248E-03-2.66549E-14
 -1      1904 1.38710E-02-2.58244E-03-2.81872E-14
 -1      1905 1.40217E-02-2.68806E-03-2.87984E-14
 -1      1906 1.37240E-02-2.49464E-03-2.78695E-14
 -1      1907 1.41708E-02-2.79339E-03-2.94139E-14
 -1      1908 1.43190E-02-2.89827E-03-3.00339E-14
 -1      1909 1.40213E-02-2.70610E-03-2.90973E-14
 -1      1910 1.44661E-02-3.00279E-03-3.06590E-14
 -1      1911 1.46125E-02-3.10689E-03-3.12874E-14
 -1      1912 1.43152E-02-2.91606E-03-3.03421E-14
 -1      1913 1.47582E-02-3.21065E-03-3.19195E-14
 -1      1914 1.49034E-02-3.31403E-03-3.25554E-14
 -1      1915 1.46066E-02-3.12442E-03-3.16024E-14
 -1      1916 1.50481E-02-3.41711E-03-3.31922E-14
 -1      1917 1.51924E-02-3.51988E-03-3.38313E-14
 -1      1918 1.48963E-02-3.33131E-03-3.28728E-14
 -1      1919 1.53365E-02-3.62239E-03-3.44729E-14
 -1      1920 1.54803E-02-3.72463E-03-3.51150E-14
 -1      1921 1.51846E-02-3.53695E-03-3.41574E-14
 -1      1922 1.56238E-02-3.82665E-03-3.57625E-14
 -1      1923 1.57672E-02-3.92844E-03-3.64168E-14
 -1      1924 1.54720E-02-3.74152E-03-3.54489E-14
 -1      1925 1.59105E-02-4.03004E-03-3.70758E-14
 -1      1926 1.60536E-02-4.13144E-03-3.77390E-14
 -1      1927 1.57587E-02-3.94516E-03-3.67631E-14
 -1      1928 1.61967E-02-4.23268E-03-3.84055E-14
 -1      1929 1.63397E-02-4.33375E-03-3.90748E-14
 -1      1930 1.60450E-02-4.14801E-03-3.80935E-14
 -1      1931 1.64837E-02-4.43988E-03-3.98267E-14
 -1      1932 1.35825E-03 5.11619E-04-1.40133E-16
 -1      1933 1.21822E-03 4.86654E-04-9.58164E-17
 -1      1934 1.63613E-03 5.50265E-04-2.54354E-16
 -1      1935 1.49744E-03 5.32728E-04-1.92852E-16
 -1      1936 1.41103E-03 4.86814E-04-1.95617E-16
 -1      1937 1.91280E-03 5.77108E-04-4.03201E-16
 -1      1938 1.77454E-03 5.64984E-04-3.24082E-16
 -1      1939 1.69170E-03 5.22089E-04-3.23987E-16
 -1      1940 2.18945E-03 5.95290E-04-5.88491E-16
 -1      1941 2.05109E-03 5.87145E-04-4.91238E-16
 -1      1942 1.97116E-03 5.46405E-04-4.87606E-16
 -1      1943 2.46676E-03 6.07122E-04-8.10509E-16
 -1      1944 2.32801E-03 6.01895E-04-6.94906E-16
 -1      1945 2.25038E-03 5.62673E-04-6.87398E-16
 -1      1946 2.74507E-03 6.14332E-04-1.07032E-15
 -1      1947 2.60579E-03 6.11224E-04-9.35897E-16
 -1      1948 2.52992E-03 5.73058E-04-9.24567E-16
 -1      1949 3.02454E-03 6.18222E-04-1.36958E-15
 -1      1950 2.88466E-03 6.16630E-04-1.21492E-15
 -1      1951 2.81012E-03 5.79179E-04-1.19955E-15
 -1      1952 3.30520E-03 6.19779E-04-1.70877E-15
 -1      1953 3.16473E-03 6.19244E-04-1.53440E-15
 -1      1954 3.09114E-03 5.82258E-04-1.51372E-15
 -1      1955 3.58703E-03 6.19756E-04-2.08624E-15
 -1      1956 3.44598E-03 6.19927E-04-1.89254E-15
 -1      1957 3.37305E-03 5.83219E-04-1.86733E-15
 -1      1958 3.86996E-03 6.18746E-04-2.50344E-15
 -1      1959 3.72836E-03 6.19344E-04-2.28954E-15
 -1      1960 3.65586E-03 5.82770E-04-2.25957E-15
 -1      1961 4.15391E-03 6.17236E-04-2.96390E-15
 -1      1962 4.01182E-03 6.18027E-04-2.72850E-15
 -1      1963 3.93954E-03 5.81470E-04-2.69159E-15
 -1      1964 4.43878E-03 6.15660E-04-3.46632E-15
 -1      1965 4.29624E-03 6.16432E-04-3.20973E-15
 -1      1966 4.22403E-03 5.79787E-04-3.16583E-15
 -1      1967 4.72442E-03 6.14439E-04-4.01114E-15
 -1      1968 4.58151E-03 6.14982E-04-3.73406E-15
 -1      1969 4.50929E-03 5.78146E-04-3.68203E-15
 -1      1970 5.01067E-03 6.14007E-04-4.59809E-15
 -1      1971 4.86749E-03 6.14102E-04-4.29906E-15
 -1      1972 4.79520E-03 5.76968E-04-4.23884E-15
 -1      1973 5.29726E-03 6.14813E-04-5.22848E-15
 -1      1974 5.15395E-03 6.14235E-04-4.90820E-15
 -1      1975 5.08165E-03 5.76696E-04-4.83860E-15
 -1      1976 5.58379E-03 6.17280E-04-5.90425E-15
 -1      1977 5.44058E-03 6.15824E-04-5.55975E-15
 -1      1978 5.36845E-03 5.77786E-04-5.48181E-15
 -1      1979 5.86973E-03 6.21719E-04-6.62612E-15
 -1      1980 5.72690E-03 6.19251E-04-6.25984E-15
 -1      1981 5.65530E-03 5.80664E-04-6.17060E-15
 -1      1982 6.15432E-03 6.28156E-04-7.39498E-15
 -1      1983 6.01228E-03 6.24710E-04-7.00442E-15
 -1      1984 5.94177E-03 5.85620E-04-6.90516E-15
 -1      1985 6.43662E-03 6.36086E-04-8.20425E-15
 -1      1986 6.29586E-03 6.31997E-04-7.79471E-15
 -1      1987 6.22727E-03 5.92624E-04-7.68370E-15
 -1      1988 6.71548E-03 6.44155E-04-9.05020E-15
 -1      1989 6.57659E-03 6.40225E-04-8.62255E-15
 -1      1990 6.51099E-03 6.01050E-04-8.50215E-15
 -1      1991 6.98974E-03 6.49839E-04-9.92977E-15
 -1      1992 6.85330E-03 6.47491E-04-9.48556E-15
 -1      1993 6.79193E-03 6.09344E-04-9.35542E-15
 -1      1994 7.25834E-03 6.49240E-04-1.08366E-14
 -1      1995 7.12482E-03 6.50600E-04-1.03805E-14
 -1      1996 7.06903E-03 6.14688E-04-1.02413E-14
 -1      1997 7.52066E-03 6.37151E-04-1.17768E-14
 -1      1998 7.39030E-03 6.44967E-04-1.13023E-14
 -1      1999 7.34130E-03 6.12815E-04-1.11559E-14
 -1      2000 7.77682E-03 6.07566E-04-1.27467E-14
 -1      2001 7.64944E-03 6.24898E-04-1.22582E-14
 -1      2002 7.60813E-03 5.98138E-04-1.21013E-14
 -1      2003 8.02787E-03 5.54625E-04-1.37476E-14
 -1      2004 7.90282E-03 5.84317E-04-1.32429E-14
 -1      2005 7.86963E-03 5.64373E-04-1.30783E-14
 -1      2006 8.27581E-03 4.73849E-04-1.47848E-14
 -1      2007 8.15200E-03 5.17898E-04-1.42619E-14
 -1      2008 8.12687E-03 5.05627E-04-1.40868E-14
 -1      2009 8.52326E-03 3.63228E-04-1.58581E-14
 -1      2010 8.39934E-03 4.22282E-04-1.53161E-14
 -1      2011 8.38179E-03 4.17735E-04-1.51306E-14
 -1      2012 8.77296E-03 2.23754E-04-1.69637E-14
 -1      2013 8.64760E-03 2.96938E-04-1.64063E-14
 -1      2014 8.63692E-03 2.99341E-04-1.62114E-14
 -1      2015 9.02717E-03 5.91567E-05-1.81063E-14
 -1      2016 8.89934E-03 1.44307E-04-1.75295E-14
 -1      2017 8.89472E-03 1.52277E-04-1.73248E-14
 -1      2018 9.28730E-03-1.25048E-04-1.92833E-14
 -1      2019 9.15642E-03-3.08448E-05-1.86916E-14
 -1      2020 9.15702E-03-1.89465E-05-1.84752E-14
 -1      2021 9.55378E-03-3.22791E-04-2.04928E-14
 -1      2022 9.41976E-03-2.22569E-04-1.98826E-14
 -1      2023 9.42473E-03-2.08302E-04-1.96592E-14
 -1      2024 9.82621E-03-5.28531E-04-2.17328E-14
 -1      2025 9.68932E-03-4.24947E-04-2.11105E-14
 -1      2026 9.69783E-03-4.09565E-04-2.08720E-14
 -1      2027 1.01037E-02-7.37913E-04-2.30080E-14
 -1      2028 9.96443E-03-6.32975E-04-2.23666E-14
 -1      2029 9.97565E-03-6.17347E-04-2.21188E-14
 -1      2030 1.03851E-02-9.47972E-04-2.43047E-14
 -1      2031 1.02440E-02-8.42990E-04-2.36518E-14
 -1      2032 1.02572E-02-8.27627E-04-2.33917E-14
 -1      2033 1.06692E-02-1.15701E-03-2.56272E-14
 -1      2034 1.05269E-02-1.05269E-03-2.49633E-14
 -1      2035 1.05414E-02-1.03782E-03-2.46906E-14
 -1      2036 1.09551E-02-1.36427E-03-2.69707E-14
 -1      2037 1.08120E-02-1.26088E-03-2.62970E-14
 -1      2038 1.08273E-02-1.24656E-03-2.60134E-14
 -1      2039 1.12419E-02-1.56964E-03-2.83370E-14
 -1      2040 1.10984E-02-1.46719E-03-2.76496E-14
 -1      2041 1.11142E-02-1.45335E-03-2.73567E-14
 -1      2042 1.15292E-02-1.77336E-03-2.97204E-14
 -1      2043 1.13856E-02-1.67169E-03-2.90291E-14
 -1      2044 1.14015E-02-1.65823E-03-2.87238E-14
 -1      2045 1.18166E-02-1.97580E-03-3.11111E-14
 -1      2046 1.16729E-02-1.87472E-03-3.04158E-14
 -1      2047 1.16889E-02-1.86151E-03-3.01036E-14
 -1      2048 1.21038E-02-2.17739E-03-3.24994E-14
 -1      2049 1.19602E-02-2.07669E-03-3.18046E-14
 -1      2050 1.19762E-02-2.06363E-03-3.14886E-14
 -1      2051 1.23907E-02-2.37849E-03-3.38865E-14
 -1      2052 1.22473E-02-2.27798E-03-3.31936E-14
 -1      2053 1.22632E-02-2.26499E-03-3.28765E-14
 -1      2054 1.26773E-02-2.57940E-03-3.52699E-14
 -1      2055 1.25340E-02-2.47895E-03-3.45780E-14
 -1      2056 1.25500E-02-2.46595E-03-3.42610E-14
 -1      2057 1.29636E-02-2.78035E-03-3.66595E-14
 -1      2058 1.28205E-02-2.67986E-03-3.59639E-14
 -1      2059 1.28364E-02-2.66680E-03-3.56459E-14
 -1      2060 1.32496E-02-2.98152E-03-3.80520E-14
 -1      2061 1.31066E-02-2.88090E-03-3.73566E-14
 -1      2062 1.31226E-02-2.86775E-03-3.70366E-14
 -1      2063 1.35063E-02-3.16409E-03-3.93311E-14
 -1      2064 1.33634E-02-3.06332E-03-3.86339E-14
 -1      2065 1.33794E-02-3.05007E-03-3.83158E-14
 -1      2066 1.36067E-02-3.21377E-03-3.94807E-14
 -1      2067 1.41440E-02-3.43918E-03-3.96359E-14
 -1      2068 1.40443E-02-3.39734E-03-3.96061E-14
 -1      2069 1.39448E-02-3.35544E-03-3.95760E-14
 -1      2070 1.38452E-02-3.31348E-03-3.95451E-14
 -1      2071 1.38709E-02-3.28916E-03-3.89880E-14
 -1      2072 1.37061E-02-3.25584E-03-3.95151E-14
 -1      2073 1.43399E-02-3.52126E-03-3.96870E-14
 -1      2074 1.42419E-02-3.48025E-03-3.96621E-14
 -1      2075 1.40685E-02-3.37215E-03-3.90446E-14
 -1      2076 1.45390E-02-3.60450E-03-3.97335E-14
 -1      2077 1.44395E-02-3.56291E-03-3.97119E-14
 -1      2078 1.42661E-02-3.45490E-03-3.90934E-14
 -1      2079 1.47379E-02-3.68750E-03-3.97703E-14
 -1      2080 1.46385E-02-3.64602E-03-3.97529E-14
 -1      2081 1.44652E-02-3.53810E-03-3.91376E-14
 -1      2082 1.49364E-02-3.77031E-03-3.97945E-14
 -1      2083 1.48372E-02-3.72892E-03-3.97828E-14
 -1      2084 1.46641E-02-3.62107E-03-3.91682E-14
 -1      2085 1.51345E-02-3.85302E-03-3.98032E-14
 -1      2086 1.50355E-02-3.81167E-03-3.98030E-14
 -1      2087 1.48625E-02-3.70385E-03-3.91904E-14
 -1      2088 1.53320E-02-3.93573E-03-3.97910E-14
 -1      2089 1.52333E-02-3.89436E-03-3.97989E-14
 -1      2090 1.50604E-02-3.78653E-03-3.91968E-14
 -1      2091 1.55258E-02-4.01715E-03-3.97663E-14
 -1      2092 1.54289E-02-3.97642E-03-3.97794E-14
 -1      2093 1.52562E-02-3.86851E-03-3.91857E-14
 -1      2094 1.57226E-02-4.10021E-03-3.97312E-14
 -1      2095 1.56242E-02-4.05865E-03-3.97511E-14
 -1      2096 1.54515E-02-3.95063E-03-3.91601E-14
 -1      2097 1.59195E-02-4.18357E-03-3.96828E-14
 -1      2098 1.58211E-02-4.14185E-03-3.97052E-14
 -1      2099 1.56483E-02-4.03368E-03-3.91217E-14
 -1      2100 1.61167E-02-4.26727E-03-3.96323E-14
 -1      2101 1.60181E-02-4.22539E-03-3.96587E-14
 -1      2102 1.58452E-02-4.11707E-03-3.90769E-14
 -1      2103 1.10787E-03 4.68305E-04-6.22739E-17
 -1      2104 9.65504E-04 4.34004E-04-3.31495E-17
 -1      2105 9.33298E-04 4.04566E-04-4.46827E-17
 -1      2106 1.15811E-03 4.47558E-04-1.05032E-16
 -1      2107 1.13687E-02-1.04115E-03-1.92184E-14
 -1      2108 1.15657E-02-1.11521E-03-1.93928E-14
 -1      2109 1.03890E-02-5.38806E-04-1.81613E-14
 -1      2110 1.06143E-02-6.75334E-04-1.84475E-14
 -1      2111 8.48937E-03-1.37357E-03-1.43850E-14
 -1      2112 8.75498E-03-1.66036E-03-1.48168E-14
 -1      2113 3.27156E-04-8.89356E-05-5.81268E-17
 -1      2114 3.29259E-04-1.02079E-04-5.73950E-17
 -1      2115 4.46334E-04-1.45025E-04-8.42154E-17
 -1      2116 4.40036E-04-1.09867E-04-8.58010E-17
 -1      2117 9.95144E-03-2.84832E-04-1.75890E-14
 -1      2118 1.01626E-02-4.07336E-04-1.78696E-14
 -1      2119 9.52164E-03-5.11487E-05-1.69064E-14
 -1      2120 9.71530E-03-1.54163E-04-1.72337E-14
 -1      2121 9.12471E-03 8.38739E-05-1.61427E-14
 -1      2122 9.28236E-03 4.48844E-05-1.64629E-14
 -1      2123 8.79568E-03 8.16269E-05-1.55193E-14
 -1      2124 8.95826E-03 9.67489E-05-1.58308E-14
 -1      2125 9.01474E-03 1.03312E-04-1.59254E-14
 -1      2126 8.40082E-03-3.45626E-05-1.48819E-14
 -1      2127 8.57993E-03 3.18390E-05-1.51519E-14
 -1      2128 7.99972E-03-2.05568E-04-1.43775E-14
 -1      2129 8.18406E-03-1.22508E-04-1.45875E-14
 -1      2130 7.61104E-03-3.68360E-04-1.40304E-14
 -1      2131 7.78968E-03-2.92215E-04-1.41934E-14
 -1      2132 7.26917E-03-5.04897E-04-1.36842E-14
 -1      2133 7.43557E-03-4.41657E-04-1.38509E-14
 -1      2134 6.95994E-03-5.99466E-04-1.35461E-14
 -1      2135 7.07189E-03-5.68777E-04-1.35645E-14
 -1      2136 6.84752E-03-6.43900E-04-1.35170E-14
 -1      2137 6.88738E-03-6.25879E-04-1.35305E-14
 -1      2138 6.91423E-03-6.08226E-04-1.33357E-14
 -1      2139 6.90088E-03-6.97695E-04-1.36190E-14
 -1      2140 6.85245E-03-6.71657E-04-1.35510E-14
 -1      2141 7.13320E-03-8.02158E-04-1.38384E-14
 -1      2142 7.00122E-03-7.47635E-04-1.37291E-14
 -1      2143 7.52934E-03-9.83405E-04-1.41228E-14
 -1      2144 7.32965E-03-8.81783E-04-1.39627E-14
 -1      2145 8.02391E-03-1.31328E-03-1.45758E-14
 -1      2146 7.77877E-03-1.14927E-03-1.43665E-14
 -1      2147 8.57053E-03-1.72465E-03-1.50594E-14
 -1      2148 8.30262E-03-1.51530E-03-1.48201E-14
 -1      2149 9.10477E-03-2.20874E-03-1.56908E-14
 -1      2150 8.88301E-03-1.99793E-03-1.54022E-14
 -1      2151 9.53830E-03-2.52580E-03-1.63028E-14
 -1      2152 9.33490E-03-2.39003E-03-1.59953E-14
 -1      2153 9.74012E-03-2.61635E-03-1.66133E-14
 -1      2154 1.08338E-02-2.04482E-03-1.82538E-14
 -1      2155 1.06171E-02-2.20973E-03-1.79916E-14
 -1      2156 1.12956E-02-1.72706E-03-1.87560E-14
 -1      2157 1.10794E-02-1.87284E-03-1.85236E-14
 -1      2158 1.17005E-02-1.48338E-03-1.92295E-14
 -1      2159 1.15137E-02-1.58849E-03-1.90151E-14
 -1      2160 1.20054E-02-1.34260E-03-1.95171E-14
 -1      2161 1.18909E-02-1.38929E-03-1.94281E-14
 -1      2162 1.21061E-02-1.28316E-03-1.96416E-14
 -1      2163 1.20792E-02-1.30441E-03-1.95938E-14
 -1      2164 9.02360E-03-1.97463E-03-1.52632E-14
 -1      2165 9.25087E-03-2.23613E-03-1.56595E-14
 -1      2166 1.09178E-02-8.44879E-04-1.88136E-14
 -1      2167 1.11529E-02-9.48051E-04-1.90159E-14
 -1      2168 1.12419E-02-1.05131E-03-1.93701E-14
 -1      2169 1.17780E-02-1.18015E-03-1.95378E-14
 -1      2170 1.19175E-02-1.21347E-03-1.96158E-14
 -1      2171 1.21070E-02-1.28655E-03-1.99335E-14
 -1      2172 6.07799E-04-2.98005E-04-9.92045E-17
 -1      2173 1.19790E-02-1.26462E-03-1.99261E-14
 -1      2174 1.02317E-02-4.99908E-04-1.81331E-14
 -1      2175 6.63544E-04-2.92268E-04-1.28207E-16
 -1      2176 8.03769E-03-9.64674E-04-1.35818E-14
 -1      2177 8.22294E-03-1.12689E-03-1.39477E-14
 -1      2178 1.02920E-02-2.44139E-03-1.74995E-14
 -1      2179 1.03201E-02-2.42916E-03-1.77618E-14
 -1      2180 1.13374E-02-1.65125E-03-1.96077E-14
 -1      2181 1.05383E-02-2.25206E-03-1.81976E-14
 -1      2182 1.63321E-02-4.35538E-03-3.95121E-14
 -1      2183 1.36321E-02-3.18960E-03-3.89281E-14
 -1      2184 8.23181E-03-1.20184E-03-1.41727E-14
 -1      2185 1.62709E-02-4.33274E-03-3.95885E-14
 -1      2186 1.61778E-02-4.28984E-03-3.95551E-14
 -1      2187 1.60047E-02-4.18141E-03-3.89827E-14
 -1      2188 1.61268E-02-4.22655E-03-3.88356E-14
 -1      2189 1.16644E-02-1.19384E-03-1.97211E-14
 -1      2190 1.05828E-02-7.54911E-04-1.87735E-14
 -1      2191 1.07412E-02-8.03162E-04-1.87939E-14
 -1      2192 1.08657E-02-9.14628E-04-1.91455E-14
 -1      2193 8.77469E-03-1.78594E-03-1.50558E-14
 -1      2194 1.20505E-02-1.31897E-03-1.98060E-14
 -1      2195 1.17968E-02-1.41953E-03-1.95285E-14
 -1      2196 1.13893E-02-1.63473E-03-1.90699E-14
 -1      2197 9.27126E-03-2.30313E-03-1.58080E-14
 -1      2198 8.20660E-03-1.36147E-03-1.45781E-14
 -1      2199 7.68758E-03-1.00618E-03-1.40933E-14
 -1      2200 7.24789E-03-7.89030E-04-1.37288E-14
 -1      2201 6.84085E-03-6.38070E-04-1.33547E-14
 -1      2202 7.16460E-03-5.43389E-04-1.34692E-14
 -1      2203 7.25581E-03-5.10060E-04-1.33714E-14
 -1      2204 7.07257E-03-5.61891E-04-1.32552E-14
 -1      2205 7.53654E-03-4.12107E-04-1.37624E-14
 -1      2206 7.90509E-03-2.54197E-04-1.41208E-14
 -1      2207 8.68274E-03 6.85156E-05-1.52470E-14
 -1      2208 9.80025E-03-2.30966E-04-1.74814E-14
 -1      2209 9.36650E-03 8.41985E-06-1.66816E-14
 -1      2210 9.43929E-03-4.20457E-05-1.68999E-14
 -1      2211 9.23961E-03 5.10269E-05-1.64558E-14
 -1      2212 9.43319E-03-2.41552E-03-1.59633E-14
 -1      2213 9.66468E-03-2.58584E-03-1.64210E-14
 -1      2214 8.29348E-03-7.55300E-05-1.45915E-14
 -1      2215 6.95240E-03-6.84132E-04-1.34971E-14
 -1      2216 1.09415E-02-1.93996E-03-1.85395E-14
 -1      2217 1.04887E-02-2.30630E-03-1.78020E-14
 -1      2218 1.05945E-02-2.21116E-03-1.80794E-14
 -1      2219 7.74045E-03-8.15586E-04-1.33224E-14
 -1      2220 5.47848E-04-5.52368E-05-1.16796E-16
 -1      2221 5.48884E-04-7.19405E-05-1.18612E-16
 -1      2222 5.50301E-04-8.92507E-05-1.20035E-16
 -1      2223 5.52171E-04-1.07215E-04-1.21282E-16
 -1      2224 6.65357E-04-9.53857E-05-1.61763E-16
 -1      2225 5.46463E-04 8.85824E-06-1.05683E-16
 -1      2226 5.46444E-04-6.96271E-06-1.08813E-16
 -1      2227 5.47213E-04 4.08361E-05-9.81338E-17
 -1      2228 5.46715E-04 2.47780E-05-1.02240E-16
 -1      2229 6.61403E-04 1.99202E-05-1.41502E-16
 -1      2230 5.49035E-04 7.34279E-05-8.92976E-17
 -1      2231 5.47975E-04 5.69499E-05-9.39190E-17
 -1      2232 6.62725E-04 5.77325E-05-1.31514E-16
 -1      2233 5.52419E-04 1.08876E-04-7.81032E-17
 -1      2234 5.50500E-04 9.08123E-05-8.39850E-17
 -1      2235 6.65581E-04 9.71616E-05-1.19303E-16
 -1      2236 5.58278E-04 1.48200E-04-6.43067E-17
 -1      2237 5.54974E-04 1.27978E-04-7.17200E-17
 -1      2238 6.70666E-04 1.39898E-04-1.04341E-16
 -1      2239 5.68612E-04 1.93772E-04-4.71628E-17
 -1      2240 5.62732E-04 1.70079E-04-5.64056E-17
 -1      2241 6.79279E-04 1.87427E-04-8.60585E-17
 -1      2242 5.88002E-04 2.49378E-04-2.50451E-17
 -1      2243 5.76887E-04 2.20123E-04-3.68222E-17
 -1      2244 6.94237E-04 2.42338E-04-6.31277E-17
 -1      2245 6.42095E-04 3.01161E-04-1.29698E-17
 -1      2246 6.14389E-04 2.73670E-04-1.98951E-17
 -1      2247 7.31496E-04 2.97629E-04-4.43303E-17
 -1      2248 7.88527E-04 3.49498E-04-3.10488E-17
 -1      2249 9.15129E-04-3.46132E-04-2.36830E-16
 -1      2250 1.05922E-03-3.79374E-04-3.08781E-16
 -1      2251 1.19304E-02-1.29509E-03-2.02261E-14
 -1      2252 1.20346E-02-1.30488E-03-2.02848E-14
 -1      2253 1.20248E-03-4.07652E-04-3.90692E-16
 -1      2254 1.34530E-03-4.31418E-04-4.82849E-16
 -1      2255 1.11696E-03-3.60136E-04-3.54019E-16
 -1      2256 1.48748E-03-4.51516E-04-5.84548E-16
 -1      2257 1.62928E-03-4.68213E-04-6.96532E-16
 -1      2258 1.40331E-03-4.06688E-04-5.38090E-16
 -1      2259 1.77072E-03-4.82181E-04-8.18451E-16
 -1      2260 1.91192E-03-4.93632E-04-9.50520E-16
 -1      2261 1.68846E-03-4.39646E-04-7.61666E-16
 -1      2262 2.05299E-03-5.03056E-04-1.09237E-15
 -1      2263 2.19395E-03-5.10629E-04-1.24427E-15
 -1      2264 1.97270E-03-4.62315E-04-1.02449E-15
 -1      2265 2.33492E-03-5.16705E-04-1.40613E-15
 -1      2266 2.47588E-03-5.21425E-04-1.57871E-15
 -1      2267 2.25643E-03-4.77319E-04-1.32691E-15
 -1      2268 2.61692E-03-5.25046E-04-1.76135E-15
 -1      2269 2.75803E-03-5.27678E-04-1.95394E-15
 -1      2270 2.53997E-03-4.86665E-04-1.66966E-15
 -1      2271 2.89927E-03-5.29505E-04-2.15674E-15
 -1      2272 3.04063E-03-5.30614E-04-2.36981E-15
 -1      2273 2.82358E-03-4.91866E-04-2.05302E-15
 -1      2274 3.18214E-03-5.31130E-04-2.59235E-15
 -1      2275 3.32379E-03-5.31120E-04-2.82403E-15
 -1      2276 3.10743E-03-4.94043E-04-2.47606E-15
 -1      2277 3.46561E-03-5.30664E-04-3.06528E-15
 -1      2278 3.60758E-03-5.29811E-04-3.31664E-15
 -1      2279 3.39161E-03-4.94003E-04-2.93747E-15
 -1      2280 3.74974E-03-5.28609E-04-3.57712E-15
 -1      2281 3.89206E-03-5.27091E-04-3.84678E-15
 -1      2282 3.67618E-03-4.92304E-04-3.43712E-15
 -1      2283 4.03457E-03-5.25275E-04-4.12567E-15
 -1      2284 4.17727E-03-5.23186E-04-4.41452E-15
 -1      2285 3.96116E-03-4.89308E-04-3.97332E-15
 -1      2286 4.32015E-03-5.20818E-04-4.71296E-15
 -1      2287 4.46324E-03-5.18187E-04-5.01960E-15
 -1      2288 4.24655E-03-4.85218E-04-4.54725E-15
 -1      2289 4.61368E-03-5.15118E-04-5.35155E-15
 -1      2290 4.76438E-03-5.11745E-04-5.69426E-15
 -1      2291 4.53944E-03-4.79983E-04-5.17459E-15
 -1      2292 4.90806E-03-5.08222E-04-6.02815E-15
 -1      2293 5.05200E-03-5.04402E-04-6.37012E-15
 -1      2294 4.83258E-03-4.73708E-04-5.83817E-15
 -1      2295 5.19604E-03-5.00274E-04-6.72052E-15
 -1      2296 5.34036E-03-4.95843E-04-7.07870E-15
 -1      2297 5.11853E-03-4.66592E-04-6.51993E-15
 -1      2298 5.48464E-03-4.91158E-04-7.44457E-15
 -1      2299 5.62918E-03-4.86224E-04-7.81736E-15
 -1      2300 5.40390E-03-4.58606E-04-7.23343E-15
 -1      2301 5.77342E-03-4.81247E-04-8.19623E-15
 -1      2302 5.91782E-03-4.76232E-04-8.58143E-15
 -1      2303 5.68771E-03-4.50171E-04-7.97646E-15
 -1      2304 6.06147E-03-4.71717E-04-8.97471E-15
 -1      2305 6.20502E-03-4.67726E-04-9.37394E-15
 -1      2306 5.96825E-03-4.42390E-04-8.74794E-15
 -1      2307 6.34709E-03-4.65426E-04-9.77754E-15
 -1      2308 6.48868E-03-4.64934E-04-1.01872E-14
 -1      2309 6.24268E-03-4.37709E-04-9.54496E-15
 -1      2310 6.62784E-03-4.68482E-04-1.06023E-14
 -1      2311 6.76619E-03-4.76480E-04-1.10214E-14
 -1      2312 6.50682E-03-4.40960E-04-1.03640E-14
 -1      2313 6.90153E-03-4.92584E-04-1.14454E-14
 -1      2314 7.03681E-03-5.18598E-04-1.18752E-14
 -1      2315 6.75555E-03-4.60664E-04-1.12028E-14
 -1      2316 7.20072E-03-5.66128E-04-1.22952E-14
 -1      2317 7.33157E-03-6.21904E-04-1.26881E-14
 -1      2318 1.00919E-02-4.63427E-04-1.81401E-14
 -1      2319 1.02886E-02-5.92727E-04-1.84360E-14
 -1      2320 1.15618E-02-1.20971E-03-1.99310E-14
 -1      2321 1.17601E-02-1.25823E-03-2.00780E-14
 -1      2322 1.35184E-02-3.10780E-03-3.83464E-14
 -1      2323 1.21066E-02-1.48628E-03-2.16068E-14
 -1      2324 1.22559E-02-1.54137E-03-2.21892E-14
 -1      2325 1.24020E-02-1.61252E-03-2.27738E-14
 -1      2326 1.25488E-02-1.69617E-03-2.33623E-14
 -1      2327 1.23440E-02-1.54711E-03-2.24522E-14
 -1      2328 1.26944E-02-1.78764E-03-2.39530E-14
 -1      2329 1.28414E-02-1.88529E-03-2.45438E-14
 -1      2330 1.26018E-02-1.71387E-03-2.36316E-14
 -1      2331 1.29878E-02-1.98618E-03-2.51367E-14
 -1      2332 1.31352E-02-2.08975E-03-2.57342E-14
 -1      2333 1.28709E-02-1.90597E-03-2.48162E-14
 -1      2334 1.32819E-02-2.19441E-03-2.63358E-14
 -1      2335 1.34291E-02-2.29994E-03-2.69389E-14
 -1      2336 1.31489E-02-2.11008E-03-2.60125E-14
 -1      2337 1.35756E-02-2.40561E-03-2.75493E-14
 -1      2338 1.37222E-02-2.51133E-03-2.81636E-14
 -1      2339 1.34324E-02-2.31897E-03-2.72288E-14
 -1      2340 1.38682E-02-2.61682E-03-2.87769E-14
 -1      2341 1.40140E-02-2.72202E-03-2.93979E-14
 -1      2342 1.37186E-02-2.52902E-03-2.84579E-14
 -1      2343 1.41594E-02-2.82687E-03-3.00225E-14
 -1      2344 1.43046E-02-2.93135E-03-3.06510E-14
 -1      2345 1.40060E-02-2.73859E-03-2.97008E-14
 -1      2346 1.44494E-02-3.03547E-03-3.12825E-14
 -1      2347 1.45939E-02-3.13922E-03-3.19157E-14
 -1      2348 1.42937E-02-2.94706E-03-3.09606E-14
 -1      2349 1.47382E-02-3.24264E-03-3.25552E-14
 -1      2350 1.48823E-02-3.34574E-03-3.31958E-14
 -1      2351 1.45812E-02-3.15428E-03-3.22336E-14
 -1      2352 1.50261E-02-3.44855E-03-3.38388E-14
 -1      2353 1.51698E-02-3.55108E-03-3.44862E-14
 -1      2354 1.48683E-02-3.36033E-03-3.35221E-14
 -1      2355 1.53134E-02-3.65337E-03-3.51349E-14
 -1      2356 1.54568E-02-3.75541E-03-3.57889E-14
 -1      2357 1.51552E-02-3.56531E-03-3.48184E-14
 -1      2358 1.56001E-02-3.85725E-03-3.64479E-14
 -1      2359 1.57433E-02-3.95887E-03-3.71093E-14
 -1      2360 1.54417E-02-3.76937E-03-3.61291E-14
 -1      2361 1.58636E-02-4.04219E-03-3.76382E-14
 -1      2362 1.60066E-02-4.14348E-03-3.83063E-14
 -1      2363 1.59455E-02-4.12090E-03-3.83785E-14
 -1      2364 1.57051E-02-3.95448E-03-3.73176E-14
 -1      2365 2.03097E-03 5.14891E-04-5.75169E-16
 -1      2366 1.89023E-03 5.05056E-04-4.81670E-16
 -1      2367 1.74932E-03 4.93003E-04-3.96804E-16
 -1      2368 1.60817E-03 4.78529E-04-3.21208E-16
 -1      2369 1.80866E-03 4.63244E-04-4.73105E-16
 -1      2370 1.46666E-03 4.61040E-04-2.54123E-16
 -1      2371 1.32464E-03 4.40292E-04-1.95549E-16
 -1      2372 1.52445E-03 4.34548E-04-3.15787E-16
 -1      2373 2.31229E-03 5.29362E-04-7.90017E-16
 -1      2374 2.17165E-03 5.22938E-04-6.78087E-16
 -1      2375 2.09209E-03 4.82768E-04-6.66025E-16
 -1      2376 2.59373E-03 5.38413E-04-1.04184E-15
 -1      2377 2.45299E-03 5.34476E-04-9.10974E-16
 -1      2378 2.37516E-03 4.95515E-04-8.95077E-16
 -1      2379 2.87556E-03 5.43551E-04-1.33156E-15
 -1      2380 2.73460E-03 5.41403E-04-1.18189E-15
 -1      2381 2.65821E-03 5.03312E-04-1.16132E-15
 -1      2382 3.15796E-03 5.45914E-04-1.66066E-15
 -1      2383 3.01669E-03 5.45027E-04-1.49089E-15
 -1      2384 2.94146E-03 5.07546E-04-1.46614E-15
 -1      2385 3.44098E-03 5.46361E-04-2.02822E-15
 -1      2386 3.29939E-03 5.46336E-04-1.83992E-15
 -1      2387 3.22504E-03 5.09265E-04-1.80941E-15
 -1      2388 3.72466E-03 5.45556E-04-2.43521E-15
 -1      2389 3.58274E-03 5.46083E-04-2.22732E-15
 -1      2390 3.50904E-03 5.09264E-04-2.19211E-15
 -1      2391 4.00901E-03 5.44022E-04-2.88231E-15
 -1      2392 3.86676E-03 5.44854E-04-2.65284E-15
 -1      2393 3.79350E-03 5.08155E-04-2.61339E-15
 -1      2394 4.29401E-03 5.42206E-04-3.36973E-15
 -1      2395 4.15144E-03 5.43126E-04-3.12108E-15
 -1      2396 4.07845E-03 5.06427E-04-3.07362E-15
 -1      2397 4.57965E-03 5.40522E-04-3.89876E-15
 -1      2398 4.43676E-03 5.41325E-04-3.62901E-15
 -1      2399 4.36391E-03 5.04503E-04-3.57487E-15
 -1      2400 4.86588E-03 5.39389E-04-4.46777E-15
 -1      2401 4.72270E-03 5.39863E-04-4.17814E-15
 -1      2402 4.64993E-03 5.02780E-04-4.11642E-15
 -1      2403 5.15266E-03 5.39253E-04-5.08053E-15
 -1      2404 5.00921E-03 5.39171E-04-4.76885E-15
 -1      2405 4.93654E-03 5.01673E-04-4.69886E-15
 -1      2406 5.43988E-03 5.40573E-04-5.73744E-15
 -1      2407 5.29624E-03 5.39706E-04-5.40384E-15
 -1      2408 5.22378E-03 5.01624E-04-5.32449E-15
 -1      2409 5.72738E-03 5.43776E-04-6.43858E-15
 -1      2410 5.58363E-03 5.41919E-04-6.08159E-15
 -1      2411 5.51167E-03 5.03096E-04-5.99370E-15
 -1      2412 6.01487E-03 5.49136E-04-7.18476E-15
 -1      2413 5.87118E-03 5.46181E-04-6.80621E-15
 -1      2414 5.80017E-03 5.06516E-04-6.70693E-15
 -1      2415 6.30189E-03 5.56572E-04-7.97393E-15
 -1      2416 6.15851E-03 5.52618E-04-7.57500E-15
 -1      2417 6.08916E-03 5.12150E-04-7.46652E-15
 -1      2418 6.58777E-03 5.65358E-04-8.80077E-15
 -1      2419 6.44507E-03 5.60871E-04-8.38235E-15
 -1      2420 6.37831E-03 5.19888E-04-8.26472E-15
 -1      2421 6.87159E-03 5.73760E-04-9.66184E-15
 -1      2422 6.73004E-03 5.69756E-04-9.22686E-15
 -1      2423 6.66703E-03 5.28927E-04-9.10032E-15
 -1      2424 7.15227E-03 5.78680E-04-1.05536E-14
 -1      2425 7.01242E-03 5.76898E-04-1.01045E-14
 -1      2426 6.95440E-03 5.37376E-04-9.96786E-15
 -1      2427 7.42874E-03 5.75471E-04-1.14739E-14
 -1      2428 7.29110E-03 5.78429E-04-1.10103E-14
 -1      2429 7.23922E-03 5.41856E-04-1.08659E-14
 -1      2430 7.70032E-03 5.58125E-04-1.24257E-14
 -1      2431 7.56514E-03 5.68968E-04-1.19457E-14
 -1      2432 7.52023E-03 5.37303E-04-1.17923E-14
 -1      2433 7.96705E-03 5.20022E-04-1.34090E-14
 -1      2434 7.83419E-03 5.42068E-04-1.29132E-14
 -1      2435 7.79657E-03 5.17214E-04-1.27498E-14
 -1      2436 8.23002E-03 4.55198E-04-1.44252E-14
 -1      2437 8.09881E-03 4.91252E-04-1.39125E-14
 -1      2438 8.06825E-03 4.74551E-04-1.37395E-14
 -1      2439 8.49129E-03 3.59828E-04-1.54780E-14
 -1      2440 8.36061E-03 4.11452E-04-1.49470E-14
 -1      2441 8.33651E-03 4.03265E-04-1.47639E-14
 -1      2442 8.75339E-03 2.33302E-04-1.65647E-14
 -1      2443 8.62199E-03 3.00361E-04-1.60162E-14
 -1      2444 8.60364E-03 2.99944E-04-1.58232E-14
 -1      2445 9.01863E-03 7.84157E-05-1.76857E-14
 -1      2446 8.88543E-03 1.59118E-04-1.71212E-14
 -1      2447 8.87230E-03 1.64884E-04-1.69176E-14
 -1      2448 9.28846E-03-9.94497E-05-1.88427E-14
 -1      2449 9.15289E-03-8.03635E-06-1.82598E-14
 -1      2450 9.14467E-03 1.99340E-06-1.80478E-14
 -1      2451 9.56329E-03-2.93746E-04-2.00326E-14
 -1      2452 9.42526E-03-1.94948E-04-1.94347E-14
 -1      2453 9.42179E-03-1.82415E-04-1.92102E-14
 -1      2454 9.84265E-03-4.98155E-04-2.12498E-14
 -1      2455 9.70249E-03-3.95031E-04-2.06371E-14
 -1      2456 9.70349E-03-3.81314E-04-2.04046E-14
 -1      2457 1.01256E-02-7.07536E-04-2.25000E-14
 -1      2458 9.98377E-03-6.02476E-04-2.18714E-14
 -1      2459 9.98883E-03-5.88401E-04-2.16268E-14
 -1      2460 1.04109E-02-9.18285E-04-2.37751E-14
 -1      2461 1.02681E-02-8.12898E-04-2.31355E-14
 -1      2462 1.02765E-02-7.98893E-04-2.28802E-14
 -1      2463 1.06978E-02-1.12825E-03-2.50754E-14
 -1      2464 1.05543E-02-1.02345E-03-2.44212E-14
 -1      2465 1.05655E-02-1.00968E-03-2.41556E-14
 -1      2466 1.09854E-02-1.33643E-03-2.63971E-14
 -1      2467 1.08416E-02-1.23259E-03-2.57337E-14
 -1      2468 1.08547E-02-1.21910E-03-2.54573E-14
 -1      2469 1.12733E-02-1.54256E-03-2.77429E-14
 -1      2470 1.11293E-02-1.43975E-03-2.70679E-14
 -1      2471 1.11439E-02-1.42648E-03-2.67803E-14
 -1      2472 1.15610E-02-1.74683E-03-2.91080E-14
 -1      2473 1.14172E-02-1.64491E-03-2.84225E-14
 -1      2474 1.14325E-02-1.63182E-03-2.81266E-14
 -1      2475 1.18486E-02-1.94963E-03-3.04848E-14
 -1      2476 1.17048E-02-1.84839E-03-2.97959E-14
 -1      2477 1.17207E-02-1.83540E-03-2.94886E-14
 -1      2478 1.21358E-02-2.15139E-03-3.18667E-14
 -1      2479 1.19922E-02-2.05062E-03-3.11772E-14
 -1      2480 1.20083E-02-2.03768E-03-3.08643E-14
 -1      2481 1.24227E-02-2.35252E-03-3.32544E-14
 -1      2482 1.22793E-02-2.25202E-03-3.25600E-14
 -1      2483 1.22955E-02-2.23908E-03-3.22473E-14
 -1      2484 1.27093E-02-2.55335E-03-3.46357E-14
 -1      2485 1.25660E-02-2.45296E-03-3.39435E-14
 -1      2486 1.25822E-02-2.43999E-03-3.36284E-14
 -1      2487 1.29956E-02-2.75415E-03-3.60248E-14
 -1      2488 1.28525E-02-2.65374E-03-3.53304E-14
 -1      2489 1.28687E-02-2.64070E-03-3.50130E-14
 -1      2490 1.32817E-02-2.95511E-03-3.74137E-14
 -1      2491 1.31387E-02-2.85460E-03-3.67178E-14
 -1      2492 1.31548E-02-2.84146E-03-3.64006E-14
 -1      2493 1.41923E-02-3.38863E-03-3.85007E-14
 -1      2494 1.40927E-02-3.34695E-03-3.84773E-14
 -1      2495 1.39947E-02-3.30592E-03-3.84543E-14
 -1      2496 1.38967E-02-3.26482E-03-3.84276E-14
 -1      2497 1.39209E-02-3.23978E-03-3.78635E-14
 -1      2498 1.37970E-02-3.22296E-03-3.83993E-14
 -1      2499 1.36974E-02-3.18104E-03-3.83687E-14
 -1      2500 1.37232E-02-3.15684E-03-3.78107E-14
 -1      2501 1.43915E-02-3.47179E-03-3.85398E-14
 -1      2502 1.42920E-02-3.43024E-03-3.85211E-14
 -1      2503 1.41186E-02-3.32245E-03-3.79068E-14
 -1      2504 1.45903E-02-3.55470E-03-3.85668E-14
 -1      2505 1.44910E-02-3.51327E-03-3.85548E-14
 -1      2506 1.43178E-02-3.40554E-03-3.79428E-14
 -1      2507 1.47887E-02-3.63741E-03-3.85905E-14
 -1      2508 1.46896E-02-3.59607E-03-3.85810E-14
 -1      2509 1.45166E-02-3.48836E-03-3.79716E-14
 -1      2510 1.49865E-02-3.72001E-03-3.85911E-14
 -1      2511 1.48876E-02-3.67872E-03-3.85900E-14
 -1      2512 1.47148E-02-3.57096E-03-3.79873E-14
 -1      2513 1.51804E-02-3.80123E-03-3.85787E-14
 -1      2514 1.50835E-02-3.76061E-03-3.85873E-14
 -1      2515 1.49108E-02-3.65275E-03-3.79886E-14
 -1      2516 1.53772E-02-3.88399E-03-3.85556E-14
 -1      2517 1.52788E-02-3.84258E-03-3.85685E-14
 -1      2518 1.51062E-02-3.73455E-03-3.79768E-14
 -1      2519 1.55739E-02-3.96703E-03-3.85177E-14
 -1      2520 1.54756E-02-3.92547E-03-3.85378E-14
 -1      2521 1.53029E-02-3.81724E-03-3.79526E-14
 -1      2522 1.57707E-02-4.05043E-03-3.84791E-14
 -1      2523 1.56723E-02-4.00868E-03-3.84962E-14
 -1      2524 1.54995E-02-3.90025E-03-3.79194E-14
 -1      2525 5.88481E-04-2.37857E-04-1.15115E-16
 -1      2526 7.81268E-04-3.04632E-04-1.81509E-16
 -1      2527 8.40728E-04-2.93381E-04-2.16339E-16
 -1      2528 5.78973E-04-2.10061E-04-1.19073E-16
 -1      2529 1.20912E-02-1.31506E-03-2.01065E-14
 -1      2530 1.20225E-02-1.33156E-03-2.00295E-14
 -1      2531 8.77108E-03-1.83738E-03-1.51617E-14
 -1      2532 9.68251E-03-1.91108E-04-1.74199E-14
 -1      2533 9.88064E-03-3.22480E-04-1.77784E-14
 -1      2534 9.96308E-03-4.09609E-04-1.80778E-14
 -1      2535 1.06467E-02-2.15569E-03-1.83892E-14
 -1      2536 5.46660E-04-2.28666E-05-1.11863E-16
 -1      2537 5.47118E-04-3.88925E-05-1.14560E-16
 -1      2538 6.62588E-04-5.57422E-05-1.56965E-16
 -1      2539 6.61356E-04-1.76718E-05-1.50026E-16
 -1      2540 7.53498E-03-7.26513E-04-1.31604E-14
 -1      2541 7.75142E-03-8.67450E-04-1.35757E-14
 -1      2542 8.92276E-03 1.14905E-04-1.57137E-14
 -1      2543 9.04906E-03 1.02706E-04-1.60245E-14
 -1      2544 7.01409E-03-6.54887E-04-1.33144E-14
 -1      2545 6.91224E-03-6.29955E-04-1.32070E-14
 -1      2546 8.57804E-03 5.16336E-05-1.49583E-14
 -1      2547 8.74989E-03 9.97357E-05-1.53211E-14
 -1      2548 7.78737E-03-3.02005E-04-1.38089E-14
 -1      2549 7.96267E-03-2.17479E-04-1.39863E-14
 -1      2550 7.46400E-03-4.32138E-04-1.34593E-14
 -1      2551 7.62501E-03-3.70921E-04-1.36337E-14
 -1      2552 7.68335E-03-3.22695E-04-1.35015E-14
 -1      2553 6.87234E-03-6.00722E-04-1.31132E-14
 -1      2554 6.93597E-03-5.90099E-04-1.31276E-14
 -1      2555 1.11141E-02-1.79378E-03-1.89206E-14
 -1      2556 1.09001E-02-1.95588E-03-1.86488E-14
 -1      2557 6.84216E-03-6.13305E-04-1.31322E-14
 -1      2558 6.83391E-03-6.09399E-04-1.30986E-14
 -1      2559 7.34095E-03-7.61925E-04-1.35766E-14
 -1      2560 7.15806E-03-7.03083E-04-1.34549E-14
 -1      2561 8.18988E-03-1.08805E-04-1.42727E-14
 -1      2562 8.36816E-03-2.49572E-05-1.45609E-14
 -1      2563 1.35346E-02-3.09451E-03-3.80255E-14
 -1      2564 1.18874E-02-1.37733E-03-1.99089E-14
 -1      2565 1.17096E-02-1.44723E-03-1.97082E-14
 -1      2566 1.11182E-02-1.05133E-03-1.95337E-14
 -1      2567 1.13174E-02-1.13194E-03-1.97395E-14
 -1      2568 1.21070E-02-1.30968E-03-2.02768E-14
 -1      2569 1.21218E-02-1.30782E-03-2.02268E-14
 -1      2570 6.70305E-04-1.37823E-04-1.64284E-16
 -1      2571 5.54672E-04-1.26108E-04-1.21675E-16
 -1      2572 5.57820E-04-1.46102E-04-1.21336E-16
 -1      2573 1.21245E-02-1.32612E-03-2.04495E-14
 -1      2574 9.02544E-04 3.77698E-04-5.34512E-17
 -1      2575 8.73430E-04 3.51322E-04-6.10406E-17
 -1      2576 1.01617E-03 4.01484E-04-8.11525E-17
 -1      2577 1.18545E-02-1.30773E-03-2.04364E-14
 -1      2578 1.34606E-02-3.02845E-03-3.74375E-14
 -1      2579 1.20902E-02-1.33242E-03-2.05776E-14
 -1      2580 7.01198E-03-5.15480E-04-1.20462E-14
 -1      2581 1.04341E-02-7.06620E-04-1.87827E-14
 -1      2582 1.19690E-02-1.36084E-03-2.02086E-14
 -1      2583 1.18655E-02-1.45086E-03-2.07173E-14
 -1      2584 1.20249E-02-1.41047E-03-2.09756E-14
 -1      2585 1.16692E-02-1.46976E-03-1.98252E-14
 -1      2586 1.15368E-02-1.53313E-03-1.94474E-14
 -1      2587 1.13378E-02-1.64965E-03-1.91865E-14
 -1      2588 7.97118E-03-1.03901E-03-1.39680E-14
 -1      2589 8.22135E-03-1.28478E-03-1.44039E-14
 -1      2590 5.71845E-04-1.85091E-04-1.21444E-16
 -1      2591 1.22685E-03 4.32084E-04-1.52493E-16
 -1      2592 1.11408E-03 4.15082E-04-1.13272E-16
 -1      2593 1.08601E-03 3.89368E-04-1.21878E-16
 -1      2594 1.28323E-03 4.09275E-04-2.02109E-16
 -1      2595 8.44910E-03 2.71489E-05-1.46314E-14
 -1      2596 1.58845E-02-4.09837E-03-3.84501E-14
 -1      2597 7.34004E-03-4.67292E-04-1.32443E-14
 -1      2598 7.40679E-03-4.17087E-04-1.31150E-14
 -1      2599 7.22480E-03-4.88234E-04-1.30316E-14
 -1      2600 9.53394E-03-1.14425E-04-1.71914E-14
 -1      2601 9.62460E-03-1.93852E-04-1.74853E-14
 -1      2602 9.40731E-03-5.10862E-05-1.69635E-14
 -1      2603 6.99542E-03-5.66242E-04-1.30299E-14
 -1      2604 7.05955E-03-5.37096E-04-1.29333E-14
 -1      2605 6.92928E-03-5.57657E-04-1.28083E-14
 -1      2606 8.05006E-03-1.51827E-04-1.39556E-14
 -1      2607 7.50378E-03-8.10387E-04-1.36314E-14
 -1      2608 7.37899E-03-7.22645E-04-1.33578E-14
 -1      2609 7.08121E-03-6.37508E-04-1.31640E-14
 -1      2610 1.16936E-02-1.47542E-03-2.01392E-14
 -1      2611 8.80012E-03 1.15576E-04-1.54180E-14
 -1      2612 9.12734E-03 7.98164E-05-1.62397E-14
 -1      2613 6.86363E-03-5.91684E-04-1.29511E-14
 -1      2614 1.12915E-02-1.67481E-03-1.92951E-14
 -1      2615 6.83386E-03-5.84859E-04-1.28913E-14
 -1      2616 1.09714E-02-1.00321E-03-1.95128E-14
 -1      2617 1.57115E-02-3.98975E-03-3.78747E-14
 -1      2618 7.72710E-03-9.36608E-04-1.38704E-14
 -1      2619 1.14503E-02-1.20484E-03-2.00957E-14
 -1      2620 7.80262E-04 7.72520E-05-1.69827E-16
 -1      2621 7.79004E-04 5.54165E-05-1.76684E-16
 -1      2622 7.78161E-04 3.35321E-05-1.82918E-16
 -1      2623 7.77741E-04 1.18960E-05-1.88665E-16
 -1      2624 8.96570E-04 4.96262E-05-2.29512E-16
 -1      2625 7.91586E-04 1.72957E-04-1.34346E-16
 -1      2626 7.87584E-04 1.47565E-04-1.44551E-16
 -1      2627 8.03401E-04 2.28138E-04-1.10778E-16
 -1      2628 7.96826E-04 1.99749E-04-1.23206E-16
 -1      2629 9.14888E-04 2.07586E-04-1.68038E-16
 -1      2630 8.45735E-04 3.25901E-04-6.76949E-17
 -1      2631 8.19578E-04 3.01331E-04-7.35631E-17
 -1      2632 9.59914E-04 3.50129E-04-9.66431E-17
 -1      2633 1.03373E-03-3.13943E-04-3.17956E-16
 -1      2634 1.17696E-03-3.39958E-04-4.00111E-16
 -1      2635 7.38258E-03-6.51225E-04-1.28681E-14
 -1      2636 7.37940E-03-6.81285E-04-1.31177E-14
 -1      2637 1.32017E-03-3.62261E-04-4.92377E-16
 -1      2638 1.46341E-03-3.81132E-04-5.94089E-16
 -1      2639 1.23845E-03-3.18623E-04-4.47288E-16
 -1      2640 1.60645E-03-3.97080E-04-7.05355E-16
 -1      2641 1.74940E-03-4.10329E-04-8.26650E-16
 -1      2642 1.52505E-03-3.54763E-04-6.50426E-16
 -1      2643 1.89220E-03-4.21348E-04-9.57879E-16
 -1      2644 2.03488E-03-4.30329E-04-1.09851E-15
 -1      2645 1.81175E-03-3.80346E-04-8.91973E-16
 -1      2646 2.17747E-03-4.37639E-04-1.24906E-15
 -1      2647 2.31997E-03-4.43429E-04-1.40938E-15
 -1      2648 2.09825E-03-3.97785E-04-1.17225E-15
 -1      2649 2.46244E-03-4.47982E-04-1.57976E-15
 -1      2650 2.60486E-03-4.51417E-04-1.76022E-15
 -1      2651 2.38448E-03-4.09069E-04-1.49128E-15
 -1      2652 2.74728E-03-4.53946E-04-1.95099E-15
 -1      2653 2.88969E-03-4.55660E-04-2.15140E-15
 -1      2654 2.67049E-03-4.15785E-04-1.85030E-15
 -1      2655 3.03213E-03-4.56712E-04-2.36166E-15
 -1      2656 3.17458E-03-4.57171E-04-2.58166E-15
 -1      2657 2.95635E-03-4.19153E-04-2.24865E-15
 -1      2658 3.31708E-03-4.57143E-04-2.81090E-15
 -1      2659 3.45960E-03-4.56680E-04-3.04998E-15
 -1      2660 3.24210E-03-4.20083E-04-2.68610E-15
 -1      2661 3.60216E-03-4.55851E-04-3.29802E-15
 -1      2662 3.74476E-03-4.54693E-04-3.55594E-15
 -1      2663 3.52777E-03-4.19231E-04-3.16132E-15
 -1      2664 3.88739E-03-4.53248E-04-3.82264E-15
 -1      2665 4.03005E-03-4.51539E-04-4.09839E-15
 -1      2666 3.81334E-03-4.17057E-04-3.67341E-15
 -1      2667 4.17272E-03-4.49590E-04-4.38354E-15
 -1      2668 4.31540E-03-4.47415E-04-4.67828E-15
 -1      2669 4.09875E-03-4.13868E-04-4.22211E-15
 -1      2670 4.46517E-03-4.44902E-04-4.99760E-15
 -1      2671 4.61490E-03-4.42160E-04-5.32678E-15
 -1      2672 4.39096E-03-4.09762E-04-4.82290E-15
 -1      2673 4.75736E-03-4.39357E-04-5.65056E-15
 -1      2674 4.89970E-03-4.36360E-04-5.98164E-15
 -1      2675 4.68252E-03-4.04976E-04-5.46358E-15
 -1      2676 5.04173E-03-4.33220E-04-6.32053E-15
 -1      2677 5.18349E-03-4.29919E-04-6.66802E-15
 -1      2678 4.96580E-03-3.99839E-04-6.12361E-15
 -1      2679 5.32465E-03-4.26582E-04-7.02384E-15
 -1      2680 5.46526E-03-4.23170E-04-7.38750E-15
 -1      2681 5.24702E-03-3.94557E-04-6.81595E-15
 -1      2682 5.60481E-03-4.19963E-04-7.75818E-15
 -1      2683 5.74332E-03-4.16884E-04-8.13587E-15
 -1      2684 5.52472E-03-3.89749E-04-7.54007E-15
 -1      2685 5.88002E-03-4.14500E-04-8.52144E-15
 -1      2686 6.01491E-03-4.12664E-04-8.91417E-15
 -1      2687 5.79650E-03-3.86610E-04-8.29596E-15
 -1      2688 6.14682E-03-4.12448E-04-9.31232E-15
 -1      2689 6.27575E-03-4.13562E-04-9.71585E-15
 -1      2690 6.05867E-03-3.87306E-04-9.07895E-15
 -1      2691 6.40003E-03-4.17909E-04-1.01270E-14
 -1      2692 6.51972E-03-4.24885E-04-1.05412E-14
 -1      2693 6.30570E-03-3.95492E-04-9.88947E-15
 -1      2694 6.63260E-03-4.37600E-04-1.09607E-14
 -1      2695 6.73927E-03-4.54754E-04-1.13849E-14
 -1      2696 6.52964E-03-4.16781E-04-1.07193E-14
 -1      2697 1.03254E-02-6.81439E-04-1.89100E-14
 -1      2698 1.05824E-02-8.32584E-04-1.92534E-14
 -1      2699 1.34806E-02-3.01446E-03-3.70816E-14
 -1      2700 1.33177E-02-2.92800E-03-3.67387E-14
 -1      2701 1.31747E-02-2.82761E-03-3.60473E-14
 -1      2702 8.68941E-03 1.14341E-04-1.51278E-14
 -1      2703 8.83594E-03 1.26494E-04-1.55175E-14
 -1      2704 7.20360E-03-5.88788E-04-1.26466E-14
 -1      2705 1.15279E-02-1.54568E-03-1.98774E-14
 -1      2706 6.80426E-03-5.58751E-04-1.26444E-14
 -1      2707 6.83456E-03-5.59813E-04-1.26585E-14
 -1      2708 1.25184E-02-1.64959E-03-2.33055E-14
 -1      2709 1.26379E-02-1.73943E-03-2.39003E-14
 -1      2710 1.27618E-02-1.83320E-03-2.44921E-14
 -1      2711 1.28906E-02-1.93127E-03-2.50896E-14
 -1      2712 1.26581E-02-1.76749E-03-2.41687E-14
 -1      2713 1.30224E-02-2.03122E-03-2.56911E-14
 -1      2714 1.31576E-02-2.13334E-03-2.62943E-14
 -1      2715 1.29005E-02-1.95757E-03-2.53660E-14
 -1      2716 1.32945E-02-2.23623E-03-2.69054E-14
 -1      2717 1.34334E-02-2.34003E-03-2.75182E-14
 -1      2718 1.31602E-02-2.15710E-03-2.65795E-14
 -1      2719 1.35734E-02-2.44399E-03-2.81340E-14
 -1      2720 1.37145E-02-2.54821E-03-2.87530E-14
 -1      2721 1.34308E-02-2.36139E-03-2.78090E-14
 -1      2722 1.38561E-02-2.65230E-03-2.93776E-14
 -1      2723 1.39984E-02-2.75633E-03-3.00071E-14
 -1      2724 1.37082E-02-2.56760E-03-2.90535E-14
 -1      2725 1.41409E-02-2.86013E-03-3.06407E-14
 -1      2726 1.42837E-02-2.96374E-03-3.12754E-14
 -1      2727 1.39895E-02-2.77423E-03-3.03153E-14
 -1      2728 1.44266E-02-3.06708E-03-3.19134E-14
 -1      2729 1.45697E-02-3.17019E-03-3.25565E-14
 -1      2730 1.42730E-02-2.98053E-03-3.15931E-14
 -1      2731 1.47127E-02-3.27306E-03-3.32023E-14
 -1      2732 1.48558E-02-3.37568E-03-3.38505E-14
 -1      2733 1.45578E-02-3.18619E-03-3.28798E-14
 -1      2734 1.49989E-02-3.47808E-03-3.44983E-14
 -1      2735 1.51420E-02-3.58027E-03-3.51530E-14
 -1      2736 1.48432E-02-3.39110E-03-3.41790E-14
 -1      2737 1.52851E-02-3.68225E-03-3.58119E-14
 -1      2738 1.54281E-02-3.78403E-03-3.64702E-14
 -1      2739 1.51288E-02-3.59526E-03-3.54886E-14
 -1      2740 1.55913E-02-3.90651E-03-3.73427E-14
 -1      2741 1.86963E-03 4.32760E-04-5.52130E-16
 -1      2742 1.72701E-03 4.21230E-04-4.62182E-16
 -1      2743 2.15446E-03 4.50004E-04-7.59497E-16
 -1      2744 2.01210E-03 4.42294E-04-6.51199E-16
 -1      2745 1.93195E-03 4.01666E-04-6.34245E-16
 -1      2746 1.58425E-03 4.07259E-04-3.80487E-16
 -1      2747 1.44127E-03 3.90638E-04-3.07913E-16
 -1      2748 1.64562E-03 3.79245E-04-4.48656E-16
 -1      2749 2.72338E-03 4.67750E-04-1.28376E-15
 -1      2750 2.58119E-03 4.64920E-04-1.13848E-15
 -1      2751 3.00784E-03 4.71164E-04-1.60293E-15
 -1      2752 2.86560E-03 4.69802E-04-1.43847E-15
 -1      2753 2.78922E-03 4.31821E-04-1.40877E-15
 -1      2754 3.29244E-03 4.72315E-04-1.96127E-15
 -1      2755 3.15012E-03 4.71979E-04-1.77762E-15
 -1      2756 3.07470E-03 4.34486E-04-1.74298E-15
 -1      2757 3.57728E-03 4.71931E-04-2.35781E-15
 -1      2758 3.43483E-03 4.72282E-04-2.15434E-15
 -1      2759 3.36018E-03 4.35132E-04-2.11545E-15
 -1      2760 3.86241E-03 4.70568E-04-2.79270E-15
 -1      2761 3.71981E-03 4.71345E-04-2.57049E-15
 -1      2762 3.64573E-03 4.34414E-04-2.52554E-15
 -1      2763 4.14789E-03 4.68679E-04-3.26685E-15
 -1      2764 4.00510E-03 4.69667E-04-3.02477E-15
 -1      2765 3.93143E-03 4.32834E-04-2.97435E-15
 -1      2766 4.43378E-03 4.66656E-04-3.78214E-15
 -1      2767 4.29078E-03 4.67663E-04-3.51944E-15
 -1      2768 4.21737E-03 4.30800E-04-3.46217E-15
 -1      2769 4.72019E-03 4.64878E-04-4.33586E-15
 -1      2770 4.57692E-03 4.65714E-04-4.05385E-15
 -1      2771 4.50366E-03 4.28671E-04-3.99079E-15
 -1      2772 5.00724E-03 4.63745E-04-4.93068E-15
 -1      2773 4.86363E-03 4.64206E-04-4.62807E-15
 -1      2774 4.79046E-03 4.26799E-04-4.55659E-15
 -1      2775 5.29506E-03 4.63693E-04-5.56986E-15
 -1      2776 5.15105E-03 4.63555E-04-5.24465E-15
 -1      2777 5.07800E-03 4.25565E-04-5.16487E-15
 -1      2778 5.58382E-03 4.65187E-04-6.25133E-15
 -1      2779 5.43933E-03 4.64216E-04-5.90535E-15
 -1      2780 5.36654E-03 4.25395E-04-5.81688E-15
 -1      2781 5.87365E-03 4.68661E-04-6.97813E-15
 -1      2782 5.72862E-03 4.66649E-04-6.60919E-15
 -1      2783 5.65639E-03 4.26759E-04-6.51170E-15
 -1      2784 6.16458E-03 4.74396E-04-7.74859E-15
 -1      2785 6.01902E-03 4.71234E-04-7.35794E-15
 -1      2786 5.94787E-03 4.30114E-04-7.25082E-15
 -1      2787 6.45640E-03 4.82285E-04-8.55578E-15
 -1      2788 6.31044E-03 4.78092E-04-8.14783E-15
 -1      2789 6.24116E-03 4.35782E-04-8.03116E-15
 -1      2790 6.74857E-03 4.91498E-04-9.39862E-15
 -1      2791 6.60254E-03 4.86810E-04-8.97260E-15
 -1      2792 6.53616E-03 4.43713E-04-8.84713E-15
 -1      2793 7.04010E-03 5.00022E-04-1.02733E-14
 -1      2794 6.89454E-03 4.96027E-04-9.83281E-15
 -1      2795 6.83235E-03 4.53097E-04-9.69766E-15
 -1      2796 7.32955E-03 5.04205E-04-1.11763E-14
 -1      2797 7.18521E-03 5.02963E-04-1.07212E-14
 -1      2798 7.12854E-03 4.61835E-04-1.05782E-14
 -1      2799 7.61539E-03 4.98502E-04-1.21085E-14
 -1      2800 7.47301E-03 5.03022E-04-1.16385E-14
 -1      2801 7.42299E-03 4.65965E-04-1.14863E-14
 -1      2802 7.89650E-03 4.75771E-04-1.30729E-14
 -1      2803 7.75653E-03 4.89767E-04-1.25868E-14
 -1      2804 7.71376E-03 4.59330E-04-1.24249E-14
 -1      2805 8.17290E-03 4.28425E-04-1.40710E-14
 -1      2806 8.03516E-03 4.55642E-04-1.35681E-14
 -1      2807 7.99949E-03 4.33971E-04-1.33972E-14
 -1      2808 8.44607E-03 3.50258E-04-1.51029E-14
 -1      2809 8.30963E-03 3.93484E-04-1.45826E-14
 -1      2810 8.28030E-03 3.81589E-04-1.44029E-14
 -1      2811 8.71871E-03 2.38366E-04-1.61685E-14
 -1      2812 8.58216E-03 2.98536E-04-1.56316E-14
 -1      2813 8.55814E-03 2.95835E-04-1.54402E-14
 -1      2814 8.99372E-03 9.41796E-05-1.72715E-14
 -1      2815 8.85568E-03 1.70036E-04-1.67155E-14
 -1      2816 8.83625E-03 1.74556E-04-1.65149E-14
 -1      2817 9.27311E-03-7.70472E-05-1.84079E-14
 -1      2818 9.13275E-03 1.14892E-05-1.78356E-14
 -1      2819 9.11774E-03 2.06476E-05-1.76247E-14
 -1      2820 9.55739E-03-2.67969E-04-1.95771E-14
 -1      2821 9.41465E-03-1.70548E-04-1.89881E-14
 -1      2822 9.40431E-03-1.59075E-04-1.87670E-14
 -1      2823 9.84577E-03-4.71131E-04-2.07740E-14
 -1      2824 9.70117E-03-3.68453E-04-2.01727E-14
 -1      2825 9.69578E-03-3.56225E-04-1.99403E-14
 -1      2826 1.01368E-02-6.80384E-04-2.20009E-14
 -1      2827 9.99108E-03-5.75307E-04-2.13841E-14
 -1      2828 9.99065E-03-5.63077E-04-2.11433E-14
 -1      2829 1.04289E-02-8.91451E-04-2.32579E-14
 -1      2830 1.02828E-02-7.85878E-04-2.26263E-14
 -1      2831 1.02870E-02-7.73842E-04-2.23743E-14
 -1      2832 1.07210E-02-1.10182E-03-2.45349E-14
 -1      2833 1.05751E-02-9.96813E-04-2.38941E-14
 -1      2834 1.05831E-02-9.84896E-04-2.36334E-14
 -1      2835 1.10124E-02-1.31033E-03-2.58366E-14
 -1      2836 1.08668E-02-1.20634E-03-2.51823E-14
 -1      2837 1.08779E-02-1.19440E-03-2.49129E-14
 -1      2838 1.13027E-02-1.51669E-03-2.71630E-14
 -1      2839 1.11577E-02-1.41377E-03-2.64965E-14
 -1      2840 1.11709E-02-1.40171E-03-2.62160E-14
 -1      2841 1.15921E-02-1.72108E-03-2.85050E-14
 -1      2842 1.14475E-02-1.61911E-03-2.78324E-14
 -1      2843 1.14622E-02-1.60687E-03-2.75417E-14
 -1      2844 1.18805E-02-1.92392E-03-2.98694E-14
 -1      2845 1.17364E-02-1.82267E-03-2.91867E-14
 -1      2846 1.17519E-02-1.81025E-03-2.88866E-14
 -1      2847 1.21681E-02-2.12565E-03-3.12425E-14
 -1      2848 1.20244E-02-2.02489E-03-3.05545E-14
 -1      2849 1.20404E-02-2.01230E-03-3.02480E-14
 -1      2850 1.24551E-02-2.32668E-03-3.26226E-14
 -1      2851 1.23117E-02-2.22623E-03-3.19323E-14
 -1      2852 1.23280E-02-2.21349E-03-3.16202E-14
 -1      2853 1.27418E-02-2.52737E-03-3.40039E-14
 -1      2854 1.25985E-02-2.42705E-03-3.33145E-14
 -1      2855 1.26149E-02-2.41418E-03-3.29982E-14
 -1      2856 1.30299E-02-2.72763E-03-3.53719E-14
 -1      2857 1.28867E-02-2.62732E-03-3.46761E-14
 -1      2858 1.29031E-02-2.61432E-03-3.43619E-14
 -1      2859 1.31929E-02-2.81413E-03-3.57096E-14
 -1      2860 1.20793E-02-1.36795E-03-2.09487E-14
 -1      2861 1.21434E-02-1.36220E-03-2.09414E-14
 -1      2862 1.42441E-02-3.33934E-03-3.73475E-14
 -1      2863 1.41446E-02-3.29788E-03-3.73318E-14
 -1      2864 8.32691E-03 1.15188E-05-1.42917E-14
 -1      2865 8.50596E-03 7.48495E-05-1.46845E-14
 -1      2866 1.40449E-02-3.25633E-03-3.73145E-14
 -1      2867 1.39452E-02-3.21471E-03-3.72941E-14
 -1      2868 1.39713E-02-3.19029E-03-3.67224E-14
 -1      2869 1.35803E-02-3.05641E-03-3.71122E-14
 -1      2870 1.44429E-02-3.42204E-03-3.73751E-14
 -1      2871 1.43436E-02-3.38073E-03-3.73625E-14
 -1      2872 1.41706E-02-3.27319E-03-3.67556E-14
 -1      2873 6.88577E-04-2.03866E-04-1.65680E-16
 -1      2874 2.43898E-03 4.61117E-04-1.00260E-15
 -1      2875 2.29675E-03 4.56231E-04-8.76455E-16
 -1      2876 2.21794E-03 4.16716E-04-8.55517E-16
 -1      2877 2.50367E-03 4.26276E-04-1.11333E-15
 -1      2878 1.46411E-02-3.50449E-03-3.73871E-14
 -1      2879 1.45421E-02-3.46329E-03-3.73835E-14
 -1      2880 1.43693E-02-3.35573E-03-3.67784E-14
 -1      2881 1.48352E-02-3.58542E-03-3.73899E-14
 -1      2882 1.47382E-02-3.54496E-03-3.73902E-14
 -1      2883 1.45657E-02-3.43729E-03-3.67933E-14
 -1      2884 1.50321E-02-3.66778E-03-3.73773E-14
 -1      2885 1.49337E-02-3.62658E-03-3.73838E-14
 -1      2886 1.47613E-02-3.51871E-03-3.67945E-14
 -1      2887 1.52286E-02-3.75035E-03-3.73553E-14
 -1      2888 1.51304E-02-3.70902E-03-3.73668E-14
 -1      2889 1.49580E-02-3.60088E-03-3.67833E-14
 -1      2890 1.17772E-02-1.32178E-03-2.06658E-14
 -1      2891 1.19372E-02-1.34983E-03-2.08160E-14
 -1      2892 8.49309E-03-1.51730E-03-1.47184E-14
 -1      2893 1.13633E-02-1.21410E-03-2.03923E-14
 -1      2894 1.15803E-02-1.28102E-03-2.05860E-14
 -1      2895 1.21561E-02-1.35302E-03-2.08289E-14
 -1      2896 1.21257E-02-1.34760E-03-2.07092E-14
 -1      2897 6.88753E-03-5.64099E-04-1.27402E-14
 -1      2898 6.82022E-03-5.59980E-04-1.26664E-14
 -1      2899 7.89890E-03-1.90828E-04-1.35922E-14
 -1      2900 8.09126E-03-9.42077E-05-1.38713E-14
 -1      2901 9.04768E-03 9.63045E-05-1.60820E-14
 -1      2902 9.21464E-03 3.99864E-05-1.65154E-14
 -1      2903 7.24666E-03-6.45916E-04-1.30642E-14
 -1      2904 7.62388E-03-3.13796E-04-1.32490E-14
 -1      2905 7.76406E-03-2.53549E-04-1.34192E-14
 -1      2906 7.81616E-03-1.86216E-04-1.33354E-14
 -1      2907 8.19658E-03-1.32467E-03-1.45072E-14
 -1      2908 1.54348E-02-3.81964E-03-3.70222E-14
 -1      2909 7.10143E-03-5.76178E-04-1.26892E-14
 -1      2910 7.09798E-03-6.02651E-04-1.29262E-14
 -1      2911 6.97358E-03-5.74091E-04-1.27881E-14
 -1      2912 1.38472E-02-3.17371E-03-3.72717E-14
 -1      2913 1.37491E-02-3.13265E-03-3.72482E-14
 -1      2914 1.37735E-02-3.10773E-03-3.66836E-14
 -1      2915 1.08220E-02-9.68483E-04-1.96458E-14
 -1      2916 1.10569E-02-1.08981E-03-2.00379E-14
 -1      2917 1.07067E-02-9.30609E-04-1.97765E-14
 -1      2918 9.84429E-03-3.56352E-04-1.80223E-14
 -1      2919 1.00296E-02-4.87376E-04-1.83881E-14
 -1      2920 1.22977E-02-1.49272E-03-2.21314E-14
 -1      2921 1.24055E-02-1.56746E-03-2.27180E-14
 -1      2922 1.24411E-02-1.59398E-03-2.29847E-14
 -1      2923 7.81817E-04-9.78469E-05-2.09942E-16
 -1      2924 7.84122E-04-1.21184E-04-2.12287E-16
 -1      2925 7.84445E-04 1.23330E-04-1.53577E-16
 -1      2926 7.82062E-04 9.99176E-05-1.62075E-16
 -1      2927 8.99676E-04 9.93291E-05-2.12477E-16
 -1      2928 9.05404E-04 1.51412E-04-1.92161E-16
 -1      2929 8.95552E-04 1.02622E-06-2.43430E-16
 -1      2930 7.77715E-04-9.69327E-06-1.93760E-16
 -1      2931 7.78081E-04-3.13138E-05-1.98775E-16
 -1      2932 8.07522E-04 2.68124E-04-8.92976E-17
 -1      2933 7.78862E-04-5.30733E-05-2.02990E-16
 -1      2934 7.80081E-04-7.52392E-05-2.06690E-16
 -1      2935 8.99421E-04-9.69544E-05-2.64017E-16
 -1      2936 8.96455E-04-4.74436E-05-2.54815E-16
 -1      2937 1.01935E-02-6.14146E-04-1.88543E-14
 -1      2938 1.21811E-02-1.38444E-03-2.12015E-14
 -1      2939 8.55503E-03 1.08348E-04-1.47790E-14
 -1      2940 7.06797E-03-5.54846E-04-1.25101E-14
 -1      2941 9.04968E-04-1.48884E-04-2.70075E-16
 -1      2942 7.87174E-04-1.45324E-04-2.14008E-16
 -1      2943 7.91082E-04-1.70487E-04-2.14984E-16
 -1      2944 6.78751E-03-5.35547E-04-1.24354E-14
 -1      2945 6.89216E-03-5.39023E-04-1.25045E-14
 -1      2946 7.37477E-03-3.78020E-04-1.28224E-14
 -1      2947 7.49716E-03-3.50846E-04-1.30340E-14
 -1      2948 7.56598E-03-2.81166E-04-1.29509E-14
 -1      2949 1.35906E-03 3.47137E-04-2.97912E-16
 -1      2950 1.29816E-03 3.70826E-04-2.44162E-16
 -1      2951 1.20348E-02-1.38726E-03-2.11808E-14
 -1      2952 8.03131E-04-2.03160E-04-2.17572E-16
 -1      2953 8.21697E-04-2.53663E-04-2.17654E-16
 -1      2954 9.52824E-04-2.88004E-04-2.78450E-16
 -1      2955 9.21250E-04-2.11062E-04-2.75604E-16
 -1      2956 8.81213E-03 1.34070E-04-1.54869E-14
 -1      2957 8.92673E-03 1.19652E-04-1.57834E-14
 -1      2958 9.00740E-03 9.74262E-05-1.60532E-14
 -1      2959 1.35065E-02-2.99046E-03-3.65246E-14
 -1      2960 6.99401E-03-5.24227E-04-1.22542E-14
 -1      2961 6.91903E-03-5.19089E-04-1.22964E-14
 -1      2962 6.84327E-03-5.12985E-04-1.22489E-14
 -1      2963 6.86971E-03-4.85668E-04-1.18351E-14
 -1      2964 1.12253E-02-1.18088E-03-2.05291E-14
 -1      2965 1.01525E-03-2.72114E-04-3.17644E-16
 -1      2966 1.16987E-02-1.33306E-03-2.09668E-14
 -1      2967 1.54250E-02-3.83333E-03-3.73248E-14
 -1      2968 1.53268E-02-3.79178E-03-3.73414E-14
 -1      2969 1.19878E-03 3.63236E-04-1.97731E-16
 -1      2970 1.21902E-02-1.42279E-03-2.14776E-14
 -1      2971 1.22502E-02-1.43959E-03-2.17407E-14
 -1      2972 1.51543E-02-3.68333E-03-3.67632E-14
 -1      2973 7.12332E-03-4.98498E-04-1.28064E-14
 -1      2974 7.17930E-03-4.53139E-04-1.26787E-14
 -1      2975 7.03152E-03-4.97192E-04-1.25837E-14
 -1      2976 9.30550E-03-1.50826E-05-1.68020E-14
 -1      2977 6.86150E-03-5.43146E-04-1.25604E-14
 -1      2978 6.89737E-03-5.22366E-04-1.24629E-14
 -1      2979 6.80496E-03-5.21402E-04-1.23154E-14
 -1      2980 9.57788E-03-1.92542E-04-1.75549E-14
 -1      2981 9.70338E-03-2.70442E-04-1.77878E-14
 -1      2982 9.78200E-03-3.42569E-04-1.80947E-14
 -1      2983 9.25342E-04 2.80066E-04-1.29671E-16
 -1      2984 8.17144E-03-2.37982E-05-1.39209E-14
 -1      2985 8.22593E-03 3.68164E-05-1.39685E-14
 -1      2986 8.01652E-03-5.46487E-05-1.35542E-14
 -1      2987 1.52620E-02-3.71090E-03-3.64502E-14
 -1      2988 6.74439E-03-4.60709E-04-1.15894E-14
 -1      2989 1.04033E-03 2.43015E-04-2.05104E-16
 -1      2990 1.03370E-03 2.11286E-04-2.20649E-16
 -1      2991 1.05905E-03 3.64165E-04-1.29345E-16
 -1      2992 1.16798E-02-1.36366E-03-2.13864E-14
 -1      2993 1.18484E-02-1.39821E-03-2.14671E-14
 -1      2994 7.68495E-03-1.88836E-04-1.29770E-14
 -1      2995 7.79913E-03-1.35245E-04-1.31450E-14
 -1      2996 1.44466E-03-3.13201E-04-5.96813E-16
 -1      2997 1.58817E-03-3.27534E-04-7.07374E-16
 -1      2998 1.73177E-03-3.39623E-04-8.27368E-16
 -1      2999 1.87545E-03-3.49658E-04-9.57337E-16
 -1      3000 1.65247E-03-2.99416E-04-7.64715E-16
 -1      3001 2.01912E-03-3.57952E-04-1.09681E-15
 -1      3002 2.16277E-03-3.64654E-04-1.24571E-15
 -1      3003 1.94026E-03-3.18304E-04-1.02267E-15
 -1      3004 2.30638E-03-3.70037E-04-1.40403E-15
 -1      3005 2.44993E-03-3.74226E-04-1.57254E-15
 -1      3006 2.22829E-03-3.30999E-04-1.31869E-15
 -1      3007 2.59343E-03-3.77438E-04-1.75134E-15
 -1      3008 2.73686E-03-3.79769E-04-1.93971E-15
 -1      3009 2.51622E-03-3.38977E-04-1.65376E-15
 -1      3010 2.88024E-03-3.81385E-04-2.13736E-15
 -1      3011 3.02354E-03-3.82360E-04-2.34521E-15
 -1      3012 2.80390E-03-3.43449E-04-2.02785E-15
 -1      3013 3.16679E-03-3.82816E-04-2.56296E-15
 -1      3014 3.30997E-03-3.82807E-04-2.78983E-15
 -1      3015 3.09125E-03-3.45359E-04-2.44097E-15
 -1      3016 3.45309E-03-3.82423E-04-3.02616E-15
 -1      3017 3.59613E-03-3.81700E-04-3.27162E-15
 -1      3018 3.37821E-03-3.45420E-04-2.89287E-15
 -1      3019 3.73909E-03-3.80704E-04-3.52603E-15
 -1      3020 3.88196E-03-3.79458E-04-3.78976E-15
 -1      3021 3.66470E-03-3.44160E-04-3.38083E-15
 -1      3022 4.02470E-03-3.78012E-04-4.06283E-15
 -1      3023 4.16732E-03-3.76382E-04-4.34490E-15
 -1      3024 3.95062E-03-3.41969E-04-3.90523E-15
 -1      3025 4.31686E-03-3.74518E-04-4.65058E-15
 -1      3026 4.46618E-03-3.72507E-04-4.96718E-15
 -1      3027 4.24290E-03-3.39077E-04-4.48074E-15
 -1      3028 4.60807E-03-3.70516E-04-5.27864E-15
 -1      3029 4.74962E-03-3.68447E-04-5.59939E-15
 -1      3030 4.53401E-03-3.35827E-04-5.09597E-15
 -1      3031 4.89068E-03-3.66394E-04-5.92698E-15
 -1      3032 5.03119E-03-3.64347E-04-6.26258E-15
 -1      3033 4.81634E-03-3.32653E-04-5.73223E-15
 -1      3034 5.17089E-03-3.62472E-04-6.60888E-15
 -1      3035 5.30969E-03-3.60745E-04-6.96226E-15
 -1      3036 5.09608E-03-3.29964E-04-6.40278E-15
 -1      3037 5.44720E-03-3.59469E-04-7.32377E-15
 -1      3038 5.58324E-03-3.58592E-04-7.69308E-15
 -1      3039 5.37184E-03-3.28555E-04-7.10739E-15
 -1      3040 5.71726E-03-3.58652E-04-8.07049E-15
 -1      3041 5.84894E-03-3.59532E-04-8.45535E-15
 -1      3042 5.64143E-03-3.29737E-04-7.84586E-15
 -1      3043 5.97750E-03-3.62162E-04-8.84727E-15
 -1      3044 6.10241E-03-3.66276E-04-9.24560E-15
 -1      3045 5.90162E-03-3.35625E-04-8.61476E-15
 -1      3046 6.22262E-03-3.73424E-04-9.65058E-15
 -1      3047 6.33727E-03-3.82972E-04-1.00615E-14
 -1      3048 6.14768E-03-3.49453E-04-9.41275E-15
 -1      3049 6.44501E-03-3.97438E-04-1.04768E-14
 -1      3050 6.54472E-03-4.15395E-04-1.08969E-14
 -1      3051 6.37287E-03-3.75801E-04-1.02339E-14
 -1      3052 1.22509E-02-1.45346E-03-2.18542E-14
 -1      3053 1.42154E-03 3.22512E-04-3.55388E-16
 -1      3054 1.27829E-03 3.04704E-04-2.86365E-16
 -1      3055 1.27795E-02-1.88926E-03-2.50415E-14
 -1      3056 1.29013E-02-1.98472E-03-2.56465E-14
 -1      3057 1.30274E-02-2.08193E-03-2.62543E-14
 -1      3058 1.31572E-02-2.18129E-03-2.68668E-14
 -1      3059 1.28949E-02-2.01075E-03-2.59284E-14
 -1      3060 1.32898E-02-2.28158E-03-2.74847E-14
 -1      3061 1.34249E-02-2.38299E-03-2.81030E-14
 -1      3062 1.31497E-02-2.20465E-03-2.71565E-14
 -1      3063 1.35616E-02-2.48482E-03-2.87272E-14
 -1      3064 1.36999E-02-2.58715E-03-2.93559E-14
 -1      3065 1.34160E-02-2.40406E-03-2.83999E-14
 -1      3066 1.38392E-02-2.68961E-03-2.99889E-14
 -1      3067 1.39795E-02-2.79224E-03-3.06262E-14
 -1      3068 1.36898E-02-2.60638E-03-2.96612E-14
 -1      3069 1.41203E-02-2.89483E-03-3.12648E-14
 -1      3070 1.42617E-02-2.99741E-03-3.19067E-14
 -1      3071 1.39683E-02-2.81006E-03-3.09353E-14
 -1      3072 1.44035E-02-3.09987E-03-3.25545E-14
 -1      3073 1.45456E-02-3.20224E-03-3.32030E-14
 -1      3074 1.42497E-02-3.01417E-03-3.22253E-14
 -1      3075 1.46878E-02-3.30447E-03-3.38549E-14
 -1      3076 1.48303E-02-3.40655E-03-3.45077E-14
 -1      3077 1.45329E-02-3.21823E-03-3.35270E-14
 -1      3078 1.49747E-02-3.50796E-03-3.51462E-14
 -1      3079 1.51174E-02-3.60976E-03-3.58084E-14
 -1      3080 1.51078E-02-3.62373E-03-3.61063E-14
 -1      3081 1.48191E-02-3.42143E-03-3.48216E-14
 -1      3082 1.46875E-02-3.45189E-03-3.62021E-14
 -1      3083 1.45890E-02-3.41096E-03-3.62021E-14
 -1      3084 1.20147E-02-1.42795E-03-2.16035E-14
 -1      3085 1.21449E-02-1.44279E-03-2.17388E-14
 -1      3086 1.20037E-02-1.46455E-03-2.20291E-14
 -1      3087 1.99557E-03 3.69919E-04-7.19300E-16
 -1      3088 1.85203E-03 3.61139E-04-6.14959E-16
 -1      3089 1.70849E-03 3.50458E-04-5.20173E-16
 -1      3090 1.56495E-03 3.37700E-04-4.33396E-16
 -1      3091 1.48522E-03 2.96841E-04-4.16334E-16
 -1      3092 1.77256E-03 3.20915E-04-5.94129E-16
 -1      3093 3.14206E-03 3.97514E-04-1.88570E-15
 -1      3094 2.99892E-03 3.96792E-04-1.70634E-15
 -1      3095 2.85573E-03 3.95522E-04-1.53713E-15
 -1      3096 2.71251E-03 3.93636E-04-1.37771E-15
 -1      3097 2.92287E-03 3.58929E-04-1.66834E-15
 -1      3098 3.71441E-03 3.96719E-04-2.69577E-15
 -1      3099 3.57134E-03 3.97345E-04-2.47892E-15
 -1      3100 4.00058E-03 3.94953E-04-3.15735E-15
 -1      3101 3.85749E-03 3.95911E-04-2.92198E-15
 -1      3102 3.78332E-03 3.58893E-04-2.86747E-15
 -1      3103 4.28691E-03 3.92781E-04-3.66005E-15
 -1      3104 4.14372E-03 3.93900E-04-3.40396E-15
 -1      3105 4.06988E-03 3.56959E-04-3.34333E-15
 -1      3106 4.57355E-03 3.90522E-04-4.20016E-15
 -1      3107 4.43018E-03 3.91645E-04-3.92522E-15
 -1      3108 4.35652E-03 3.54641E-04-3.85811E-15
 -1      3109 4.86074E-03 3.88495E-04-4.77900E-15
 -1      3110 4.71706E-03 3.89459E-04-4.48438E-15
 -1      3111 4.64346E-03 3.52211E-04-4.41098E-15
 -1      3112 5.14880E-03 3.87053E-04-5.40154E-15
 -1      3113 5.00465E-03 3.87674E-04-5.08507E-15
 -1      3114 4.93102E-03 3.49945E-04-5.00365E-15
 -1      3115 5.43815E-03 3.86612E-04-6.06579E-15
 -1      3116 5.29330E-03 3.86674E-04-5.72798E-15
 -1      3117 5.21964E-03 3.48166E-04-5.63845E-15
 -1      3118 5.72927E-03 3.87648E-04-6.77349E-15
 -1      3119 5.58348E-03 3.86905E-04-6.41386E-15
 -1      3120 5.50988E-03 3.47274E-04-6.31574E-15
 -1      3121 6.02265E-03 3.90664E-04-7.52430E-15
 -1      3122 5.87567E-03 3.88867E-04-7.14299E-15
 -1      3123 5.80241E-03 3.47767E-04-7.03608E-15
 -1      3124 6.31865E-03 3.96066E-04-8.31504E-15
 -1      3125 6.17034E-03 3.93035E-04-7.91533E-15
 -1      3126 6.09793E-03 3.50219E-04-7.79890E-15
 -1      3127 6.61730E-03 4.03919E-04-9.13934E-15
 -1      3128 6.46771E-03 3.99691E-04-8.72353E-15
 -1      3129 6.39699E-03 3.55181E-04-8.59902E-15
 -1      3130 6.91803E-03 4.13515E-04-9.99576E-15
 -1      3131 6.76752E-03 4.08584E-04-9.56353E-15
 -1      3132 6.69973E-03 3.62917E-04-9.43204E-15
 -1      3133 7.21942E-03 4.22714E-04-1.08817E-14
 -1      3134 7.06881E-03 4.18382E-04-1.04358E-14
 -1      3135 7.00549E-03 3.72896E-04-1.02938E-14
 -1      3136 7.51928E-03 4.27213E-04-1.17970E-14
 -1      3137 7.36973E-03 4.25954E-04-1.13358E-14
 -1      3138 7.31252E-03 3.82976E-04-1.11858E-14
 -1      3139 7.81517E-03 4.20076E-04-1.27412E-14
 -1      3140 7.66786E-03 4.25684E-04-1.22653E-14
 -1      3141 7.61806E-03 3.88395E-04-1.21069E-14
 -1      3142 8.10545E-03 3.92234E-04-1.37209E-14
 -1      3143 7.96099E-03 4.09402E-04-1.32271E-14
 -1      3144 7.91907E-03 3.81148E-04-1.30581E-14
 -1      3145 8.39043E-03 3.34499E-04-1.47330E-14
 -1      3146 8.24838E-03 3.67681E-04-1.42221E-14
 -1      3147 8.21369E-03 3.50745E-04-1.40442E-14
 -1      3148 8.67275E-03 2.40298E-04-1.57781E-14
 -1      3149 8.53154E-03 2.92177E-04-1.52510E-14
 -1      3150 8.50269E-03 2.86801E-04-1.50618E-14
 -1      3151 8.95639E-03 1.08564E-04-1.68595E-14
 -1      3152 8.81404E-03 1.78903E-04-1.63149E-14
 -1      3153 8.78968E-03 1.82823E-04-1.61154E-14
 -1      3154 9.24463E-03-5.58555E-05-1.79762E-14
 -1      3155 9.09973E-03 2.98918E-05-1.74141E-14
 -1      3156 9.07938E-03 3.94219E-05-1.72042E-14
 -1      3157 9.53866E-03-2.44302E-04-1.91246E-14
 -1      3158 9.39092E-03-1.47743E-04-1.85463E-14
 -1      3159 9.37503E-03-1.36109E-04-1.83272E-14
 -1      3160 9.83739E-03-4.47349E-04-2.03034E-14
 -1      3161 9.68759E-03-3.44584E-04-1.97102E-14
 -1      3162 9.67693E-03-3.33093E-04-1.94813E-14
 -1      3163 1.01385E-02-6.57226E-04-2.15119E-14
 -1      3164 9.98787E-03-5.51836E-04-2.09047E-14
 -1      3165 9.98291E-03-5.41292E-04-2.06671E-14
 -1      3166 1.04397E-02-8.68759E-04-2.27475E-14
 -1      3167 1.02893E-02-7.63005E-04-2.21259E-14
 -1      3168 1.02899E-02-7.53250E-04-2.18807E-14
 -1      3169 1.07392E-02-1.07916E-03-2.40063E-14
 -1      3170 1.05898E-02-9.74188E-04-2.33737E-14
 -1      3171 1.05953E-02-9.64696E-04-2.31175E-14
 -1      3172 1.10361E-02-1.28733E-03-2.52888E-14
 -1      3173 1.08880E-02-1.18353E-03-2.46462E-14
 -1      3174 1.08974E-02-1.17382E-03-2.43797E-14
 -1      3175 1.13304E-02-1.49315E-03-2.65965E-14
 -1      3176 1.11836E-02-1.39051E-03-2.59394E-14
 -1      3177 1.11958E-02-1.38027E-03-2.56660E-14
 -1      3178 1.16222E-02-1.69696E-03-2.79190E-14
 -1      3179 1.14766E-02-1.59527E-03-2.72547E-14
 -1      3180 1.14908E-02-1.58440E-03-2.69715E-14
 -1      3181 1.19121E-02-1.89926E-03-2.92659E-14
 -1      3182 1.17674E-02-1.79826E-03-2.85903E-14
 -1      3183 1.17828E-02-1.78678E-03-2.82987E-14
 -1      3184 1.22005E-02-2.10052E-03-3.06244E-14
 -1      3185 1.20565E-02-1.99999E-03-2.99434E-14
 -1      3186 1.20726E-02-1.98800E-03-2.96429E-14
 -1      3187 1.24879E-02-2.30118E-03-3.19938E-14
 -1      3188 1.23443E-02-2.20090E-03-3.13077E-14
 -1      3189 1.23608E-02-2.18851E-03-3.09993E-14
 -1      3190 1.27746E-02-2.50155E-03-3.33729E-14
 -1      3191 1.26313E-02-2.40138E-03-3.26835E-14
 -1      3192 1.26479E-02-2.38869E-03-3.23693E-14
 -1      3193 1.44920E-02-3.37073E-03-3.62026E-14
 -1      3194 1.43948E-02-3.33045E-03-3.61958E-14
 -1      3195 1.44185E-02-3.30409E-03-3.56143E-14
 -1      3196 8.43092E-03 1.09988E-04-1.44407E-14
 -1      3197 8.59407E-03 1.37738E-04-1.48801E-14
 -1      3198 1.48839E-02-3.53384E-03-3.61943E-14
 -1      3199 1.47858E-02-3.49283E-03-3.61973E-14
 -1      3200 1.46137E-02-3.38495E-03-3.56144E-14
 -1      3201 6.64883E-03-4.42612E-04-1.13437E-14
 -1      3202 6.74853E-03-4.72773E-04-1.17939E-14
 -1      3203 6.57605E-03-4.22983E-04-1.10982E-14
 -1      3204 1.07417E-03 3.29186E-04-1.62861E-16
 -1      3205 1.50099E-02-3.58246E-03-3.61171E-14
 -1      3206 1.20572E-02-1.35801E-03-2.05907E-14
 -1      3207 1.19413E-02-1.38893E-03-2.04696E-14
 -1      3208 1.03836E-03-2.52784E-04-3.34829E-16
 -1      3209 1.11807E-03-2.75216E-04-3.78780E-16
 -1      3210 1.26083E-03-2.95951E-04-4.67684E-16
 -1      3211 1.02413E-03-2.14284E-04-3.31481E-16
 -1      3212 1.21226E-02-1.37575E-03-2.09708E-14
 -1      3213 6.75137E-03-4.90460E-04-1.20000E-14
 -1      3214 1.35308E-02-2.96684E-03-3.59835E-14
 -1      3215 1.33618E-02-2.89057E-03-3.58482E-14
 -1      3216 1.32170E-02-2.79073E-03-3.51740E-14
 -1      3217 1.38978E-02-3.12431E-03-3.61314E-14
 -1      3218 1.37980E-02-3.08276E-03-3.61144E-14
 -1      3219 3.42826E-03 3.97721E-04-2.27158E-15
 -1      3220 3.28518E-03 3.97807E-04-2.07374E-15
 -1      3221 3.20990E-03 3.60318E-04-2.03040E-15
 -1      3222 3.49670E-03 3.60139E-04-2.43028E-15
 -1      3223 1.25538E-02-1.70869E-03-2.38449E-14
 -1      3224 1.26634E-02-1.79756E-03-2.44421E-14
 -1      3225 1.26577E-02-1.82629E-03-2.47174E-14
 -1      3226 9.21409E-03 1.62588E-05-1.66442E-14
 -1      3227 9.38753E-03-7.56442E-05-1.70967E-14
 -1      3228 9.46921E-03-1.39831E-04-1.73947E-14
 -1      3229 1.40971E-02-3.20707E-03-3.61653E-14
 -1      3230 1.39975E-02-3.16574E-03-3.61488E-14
 -1      3231 1.38243E-02-3.05840E-03-3.55455E-14
 -1      3232 1.37135E-02-3.04537E-03-3.60626E-14
 -1      3233 1.36153E-02-3.00436E-03-3.60410E-14
 -1      3234 1.34708E-02-2.90463E-03-3.53660E-14
 -1      3235 1.36399E-02-2.97955E-03-3.54750E-14
 -1      3236 1.05747E-02-8.71065E-04-1.97862E-14
 -1      3237 1.07898E-02-9.92634E-04-2.01823E-14
 -1      3238 1.06772E-03 2.82377E-04-1.92907E-16
 -1      3239 1.01663E-03 6.81152E-05-2.80700E-16
 -1      3240 1.01547E-03 4.11760E-05-2.89794E-16
 -1      3241 1.23686E-02-1.54801E-03-2.26670E-14
 -1      3242 1.24617E-02-1.62740E-03-2.32565E-14
 -1      3243 7.94308E-03-1.13929E-03-1.42668E-14
 -1      3244 6.72805E-03-4.92889E-04-1.19784E-14
 -1      3245 1.11070E-02-1.15073E-03-2.06780E-14
 -1      3246 1.13822E-02-1.26413E-03-2.10373E-14
 -1      3247 1.00524E-02-5.37473E-04-1.87726E-14
 -1      3248 1.03198E-02-7.14567E-04-1.93010E-14
 -1      3249 1.42958E-02-3.28941E-03-3.61863E-14
 -1      3250 1.41965E-02-3.24829E-03-3.61772E-14
 -1      3251 1.42223E-02-3.22308E-03-3.55996E-14
 -1      3252 1.22501E-02-1.48358E-03-2.21237E-14
 -1      3253 1.48377E-02-3.47409E-03-3.55377E-14
 -1      3254 1.15688E-02-1.34853E-03-2.15413E-14
 -1      3255 1.17389E-02-1.42171E-03-2.20476E-14
 -1      3256 1.14658E-02-1.32747E-03-2.16947E-14
 -1      3257 1.01819E-03-9.28301E-05-3.24041E-16
 -1      3258 1.02058E-03-1.20505E-04-3.28689E-16
 -1      3259 7.87344E-03-6.25410E-05-1.31897E-14
 -1      3260 1.13555E-03 3.01309E-05-3.57719E-16
 -1      3261 1.01487E-03 1.44441E-05-2.98223E-16
 -1      3262 1.01484E-03-1.21891E-05-3.05691E-16
 -1      3263 7.65888E-03-8.49899E-04-1.36246E-14
 -1      3264 7.89523E-03-9.63589E-04-1.37898E-14
 -1      3265 1.24586E-02-1.65833E-03-2.35269E-14
 -1      3266 1.02838E-03 1.80935E-04-2.34689E-16
 -1      3267 1.02420E-03 1.51635E-04-2.47713E-16
 -1      3268 1.15311E-03 2.11503E-04-2.81242E-16
 -1      3269 1.02376E-03-1.48878E-04-3.32376E-16
 -1      3270 1.02781E-03-1.78079E-04-3.35100E-16
 -1      3271 1.14338E-03-1.45618E-04-4.00423E-16
 -1      3272 7.26022E-03-3.96213E-04-1.25976E-14
 -1      3273 7.32860E-03-3.33418E-04-1.25149E-14
 -1      3274 7.15237E-03-4.05086E-04-1.23751E-14
 -1      3275 8.97390E-03 1.00160E-04-1.60363E-14
 -1      3276 9.09003E-03 6.37809E-05-1.63402E-14
 -1      3277 9.16869E-03 2.04784E-05-1.66294E-14
 -1      3278 8.55396E-03 1.61707E-04-1.47943E-14
 -1      3279 8.68181E-03 1.48922E-04-1.51402E-14
 -1      3280 8.76073E-03 1.47846E-04-1.54024E-14
 -1      3281 1.22667E-02-1.53311E-03-2.25526E-14
 -1      3282 2.13906E-03 3.77118E-04-8.32559E-16
 -1      3283 2.06028E-03 3.37576E-04-8.07514E-16
 -1      3284 2.28251E-03 3.82879E-04-9.54491E-16
 -1      3285 2.63557E-03 3.55305E-04-1.34367E-15
 -1      3286 2.56923E-03 3.90979E-04-1.22726E-15
 -1      3287 2.42590E-03 3.87461E-04-1.08611E-15
 -1      3288 1.30684E-02-2.69606E-03-3.46106E-14
 -1      3289 1.29235E-02-2.59627E-03-3.39379E-14
 -1      3290 1.29401E-02-2.58337E-03-3.36211E-14
 -1      3291 1.32375E-02-2.77252E-03-3.47469E-14
 -1      3292 1.08507E-02-1.04228E-03-2.07032E-14
 -1      3293 1.09721E-02-1.09760E-03-2.06910E-14
 -1      3294 1.11447E-02-1.18978E-03-2.12032E-14
 -1      3295 7.86678E-03-1.02334E-03-1.40175E-14
 -1      3296 8.28575E-03 9.21366E-05-1.40643E-14
 -1      3297 8.32809E-03 1.36233E-04-1.41582E-14
 -1      3298 8.13957E-03 7.25744E-05-1.36925E-14
 -1      3299 7.45219E-03-2.52781E-04-1.25527E-14
 -1      3300 7.56849E-03-2.22997E-04-1.27631E-14
 -1      3301 7.55366E-03-1.66406E-04-1.25746E-14
 -1      3302 1.32471E-03-2.73100E-04-5.15457E-16
 -1      3303 6.93607E-03-4.92461E-04-1.23375E-14
 -1      3304 6.97432E-03-4.56416E-04-1.22101E-14
 -1      3305 6.85217E-03-4.79069E-04-1.20923E-14
 -1      3306 1.04224E-02-7.87950E-04-1.97045E-14
 -1      3307 1.40237E-02-3.14099E-03-3.55768E-14
 -1      3308 9.78931E-03-3.64929E-04-1.82949E-14
 -1      3309 9.91522E-03-4.48761E-04-1.85342E-14
 -1      3310 1.00470E-02-5.48016E-04-1.89776E-14
 -1      3311 1.25057E-03 2.63223E-04-3.00988E-16
 -1      3312 1.18658E-03 2.84562E-04-2.51359E-16
 -1      3313 1.01843E-03 9.53356E-05-2.70969E-16
 -1      3314 1.13820E-03 8.84222E-05-3.36672E-16
 -1      3315 1.02090E-03 1.23070E-04-2.59829E-16
 -1      3316 6.66933E-03-4.58977E-04-1.16047E-14
 -1      3317 6.74820E-03-4.96215E-04-1.20359E-14
 -1      3318 6.75652E-03-4.83017E-04-1.19384E-14
 -1      3319 1.01537E-03-3.88524E-05-3.12386E-16
 -1      3320 1.01646E-03-6.56503E-05-3.18552E-16
 -1      3321 1.13798E-03-8.58073E-05-3.89771E-16
 -1      3322 7.71736E-03-5.23108E-05-1.27533E-14
 -1      3323 7.91111E-03 1.36881E-05-1.31559E-14
 -1      3324 1.23385E-02-1.60250E-03-2.31402E-14
 -1      3325 1.24196E-02-1.67824E-03-2.37303E-14
 -1      3326 1.22079E-02-1.55166E-03-2.27523E-14
 -1      3327 1.86195E-03-2.79101E-04-9.50113E-16
 -1      3328 2.00617E-03-2.86262E-04-1.08789E-15
 -1      3329 2.15045E-03-2.92125E-04-1.23492E-15
 -1      3330 2.29477E-03-2.96808E-04-1.39142E-15
 -1      3331 2.07300E-03-2.53558E-04-1.15268E-15
 -1      3332 2.43907E-03-3.00508E-04-1.55773E-15
 -1      3333 2.58333E-03-3.03320E-04-1.73426E-15
 -1      3334 2.36211E-03-2.62132E-04-1.46413E-15
 -1      3335 2.72752E-03-3.05405E-04-1.91984E-15
 -1      3336 2.87161E-03-3.06836E-04-2.11547E-15
 -1      3337 2.65118E-03-2.67318E-04-1.81365E-15
 -1      3338 3.01560E-03-3.07740E-04-2.32064E-15
 -1      3339 3.15947E-03-3.08172E-04-2.53575E-15
 -1      3340 2.93994E-03-2.69996E-04-2.20243E-15
 -1      3341 3.30321E-03-3.08230E-04-2.76072E-15
 -1      3342 3.44680E-03-3.07953E-04-2.99416E-15
 -1      3343 3.22817E-03-2.70866E-04-2.62979E-15
 -1      3344 3.59024E-03-3.07419E-04-3.23713E-15
 -1      3345 3.73349E-03-3.06653E-04-3.48854E-15
 -1      3346 3.51575E-03-2.70472E-04-3.09488E-15
 -1      3347 3.87655E-03-3.05722E-04-3.74966E-15
 -1      3348 4.01939E-03-3.04644E-04-4.01998E-15
 -1      3349 3.80252E-03-2.69242E-04-3.59576E-15
 -1      3350 4.16908E-03-3.03420E-04-4.31347E-15
 -1      3351 4.31845E-03-3.02121E-04-4.61703E-15
 -1      3352 4.09542E-03-2.67491E-04-4.14734E-15
 -1      3353 4.46032E-03-3.00892E-04-4.91476E-15
 -1      3354 4.60176E-03-2.99682E-04-5.22336E-15
 -1      3355 4.38694E-03-2.65619E-04-4.73699E-15
 -1      3356 4.74267E-03-2.98601E-04-5.54006E-15
 -1      3357 4.88295E-03-2.97660E-04-5.86469E-15
 -1      3358 4.66955E-03-2.64106E-04-5.34874E-15
 -1      3359 5.02243E-03-2.97031E-04-6.19863E-15
 -1      3360 5.16097E-03-2.96725E-04-6.54164E-15
 -1      3361 4.94966E-03-2.63479E-04-5.99652E-15
 -1      3362 5.29833E-03-2.97024E-04-6.89298E-15
 -1      3363 5.43429E-03-2.97933E-04-7.25308E-15
 -1      3364 5.22618E-03-2.64602E-04-6.67940E-15
 -1      3365 5.56850E-03-2.99911E-04-7.62087E-15
 -1      3366 5.70061E-03-3.02938E-04-7.99754E-15
 -1      3367 5.49756E-03-2.68784E-04-7.39700E-15
 -1      3368 5.83019E-03-3.07747E-04-8.38208E-15
 -1      3369 5.95665E-03-3.14245E-04-8.77424E-15
 -1      3370 5.76157E-03-2.77988E-04-8.14909E-15
 -1      3371 6.07952E-03-3.23560E-04-9.17356E-15
 -1      3372 6.19783E-03-3.35427E-04-9.57916E-15
 -1      3373 6.01524E-03-2.95020E-04-8.93354E-15
 -1      3374 6.31119E-03-3.51572E-04-9.98954E-15
 -1      3375 6.41799E-03-3.71207E-04-1.04063E-14
 -1      3376 6.25472E-03-3.23676E-04-9.74503E-15
 -1      3377 9.38596E-03-1.00939E-04-1.72741E-14
 -1      3378 9.56130E-03-2.12503E-04-1.77372E-14
 -1      3379 1.30074E-02-2.12993E-03-2.68277E-14
 -1      3380 1.31369E-02-2.22677E-03-2.74466E-14
 -1      3381 1.32690E-02-2.32480E-03-2.80722E-14
 -1      3382 1.34032E-02-2.42410E-03-2.86991E-14
 -1      3383 1.31211E-02-2.24749E-03-2.77391E-14
 -1      3384 1.35392E-02-2.52407E-03-2.93305E-14
 -1      3385 1.36767E-02-2.62474E-03-2.99671E-14
 -1      3386 1.33885E-02-2.44321E-03-2.89986E-14
 -1      3387 1.38152E-02-2.72575E-03-3.06076E-14
 -1      3388 1.39547E-02-2.82710E-03-3.12484E-14
 -1      3389 1.36622E-02-2.64249E-03-3.02747E-14
 -1      3390 1.40948E-02-2.92859E-03-3.18957E-14
 -1      3391 1.42356E-02-3.03022E-03-3.25472E-14
 -1      3392 1.39402E-02-2.84376E-03-3.15655E-14
 -1      3393 1.43768E-02-3.13187E-03-3.31993E-14
 -1      3394 1.45184E-02-3.23354E-03-3.38547E-14
 -1      3395 1.42210E-02-3.04603E-03-3.28679E-14
 -1      3396 1.46060E-02-3.30342E-03-3.43729E-14
 -1      3397 1.47500E-02-3.40440E-03-3.50161E-14
 -1      3398 1.46243E-02-3.35629E-03-3.50861E-14
 -1      3399 1.44494E-02-3.21709E-03-3.40428E-14
 -1      3400 1.19157E-02-1.47855E-03-2.23307E-14
 -1      3401 1.20723E-02-1.51098E-03-2.24699E-14
 -1      3402 1.21474E-02-1.57595E-03-2.30585E-14
 -1      3403 1.18281E-02-1.47256E-03-2.24893E-14
 -1      3404 2.99063E-03 3.22043E-04-1.80117E-15
 -1      3405 2.84671E-03 3.20938E-04-1.62709E-15
 -1      3406 4.13933E-03 3.18854E-04-3.53080E-15
 -1      3407 3.99592E-03 3.19965E-04-3.28057E-15
 -1      3408 3.85249E-03 3.20943E-04-3.04125E-15
 -1      3409 3.70902E-03 3.21772E-04-2.81184E-15
 -1      3410 3.92188E-03 2.82915E-04-3.21745E-15
 -1      3411 4.71338E-03 3.13718E-04-4.62323E-15
 -1      3412 4.56973E-03 3.15054E-04-4.33604E-15
 -1      3413 5.00126E-03 3.11112E-04-5.23027E-15
 -1      3414 4.85720E-03 3.12390E-04-4.92153E-15
 -1      3415 4.78326E-03 2.75045E-04-4.83858E-15
 -1      3416 5.29041E-03 3.08840E-04-5.87766E-15
 -1      3417 5.14565E-03 3.09907E-04-5.54857E-15
 -1      3418 5.07140E-03 2.71977E-04-5.45767E-15
 -1      3419 5.58156E-03 3.07286E-04-6.56761E-15
 -1      3420 5.43569E-03 3.07932E-04-6.21673E-15
 -1      3421 5.36104E-03 2.69031E-04-6.11788E-15
 -1      3422 5.87557E-03 3.06978E-04-7.30087E-15
 -1      3423 5.72816E-03 3.06920E-04-6.92952E-15
 -1      3424 5.65308E-03 2.66577E-04-6.82158E-15
 -1      3425 6.17338E-03 3.08600E-04-8.07476E-15
 -1      3426 6.02397E-03 3.07477E-04-7.68310E-15
 -1      3427 5.94861E-03 2.65192E-04-7.56761E-15
 -1      3428 6.47576E-03 3.12907E-04-8.88314E-15
 -1      3429 6.32400E-03 3.10348E-04-8.47441E-15
 -1      3430 6.24884E-03 2.65714E-04-8.35017E-15
 -1      3431 6.78298E-03 3.20458E-04-9.72382E-15
 -1      3432 6.62884E-03 3.16238E-04-9.30034E-15
 -1      3433 6.55480E-03 2.69193E-04-9.16803E-15
 -1      3434 7.09430E-03 3.31029E-04-1.05915E-14
 -1      3435 6.93830E-03 3.25439E-04-1.01536E-14
 -1      3436 6.86690E-03 2.76626E-04-1.00154E-14
 -1      3437 7.40755E-03 3.42528E-04-1.14900E-14
 -1      3438 7.25095E-03 3.36936E-04-1.10376E-14
 -1      3439 7.18427E-03 2.88205E-04-1.08894E-14
 -1      3440 7.71926E-03 3.49597E-04-1.24159E-14
 -1      3441 7.56390E-03 3.47167E-04-1.19491E-14
 -1      3442 7.50422E-03 3.01898E-04-1.17931E-14
 -1      3443 8.02561E-03 3.42897E-04-1.33750E-14
 -1      3444 7.87329E-03 3.48830E-04-1.28916E-14
 -1      3445 7.82237E-03 3.11585E-04-1.27263E-14
 -1      3446 8.32440E-03 3.09955E-04-1.43665E-14
 -1      3447 8.17579E-03 3.30626E-04-1.38668E-14
 -1      3448 8.13396E-03 3.05888E-04-1.36908E-14
 -1      3449 8.61735E-03 2.38906E-04-1.53918E-14
 -1      3450 8.47121E-03 2.79893E-04-1.48752E-14
 -1      3451 8.43687E-03 2.69852E-04-1.46889E-14
 -1      3452 8.90923E-03 1.23514E-04-1.64530E-14
 -1      3453 8.76286E-03 1.86732E-04-1.59176E-14
 -1      3454 8.73407E-03 1.89811E-04-1.57210E-14
 -1      3455 9.20561E-03-3.30931E-05-1.75477E-14
 -1      3456 9.05644E-03 4.97111E-05-1.69958E-14
 -1      3457 9.03175E-03 6.08181E-05-1.67888E-14
 -1      3458 9.50940E-03-2.20454E-04-1.86760E-14
 -1      3459 9.35652E-03-1.23873E-04-1.81080E-14
 -1      3460 9.33610E-03-1.10399E-04-1.78911E-14
 -1      3461 9.81960E-03-4.25700E-04-1.98404E-14
 -1      3462 9.66391E-03-3.21692E-04-1.92551E-14
 -1      3463 9.64901E-03-3.09651E-04-1.90279E-14
 -1      3464 1.01327E-02-6.38132E-04-2.10298E-14
 -1      3465 9.97612E-03-5.31582E-04-2.04295E-14
 -1      3466 9.96774E-03-5.22172E-04-2.01967E-14
 -1      3467 1.04450E-02-8.51070E-04-2.22476E-14
 -1      3468 1.02893E-02-7.44801E-04-2.16363E-14
 -1      3469 1.02875E-02-7.37411E-04-2.13919E-14
 -1      3470 1.07538E-02-1.06149E-03-2.34886E-14
 -1      3471 1.06000E-02-9.56663E-04-2.28655E-14
 -1      3472 1.06041E-02-9.50044E-04-2.26138E-14
 -1      3473 1.10578E-02-1.26869E-03-2.47537E-14
 -1      3474 1.09064E-02-1.16546E-03-2.41178E-14
 -1      3475 1.09152E-02-1.15853E-03-2.38590E-14
 -1      3476 1.13570E-02-1.47305E-03-2.60412E-14
 -1      3477 1.12080E-02-1.37115E-03-2.53953E-14
 -1      3478 1.12201E-02-1.36327E-03-2.51261E-14
 -1      3479 1.16520E-02-1.67533E-03-2.73466E-14
 -1      3480 1.15050E-02-1.57438E-03-2.66913E-14
 -1      3481 1.15193E-02-1.56532E-03-2.64130E-14
 -1      3482 1.19438E-02-1.87626E-03-2.86756E-14
 -1      3483 1.17983E-02-1.77591E-03-2.80088E-14
 -1      3484 1.18140E-02-1.76571E-03-2.77231E-14
 -1      3485 1.22333E-02-2.07643E-03-3.00191E-14
 -1      3486 1.20888E-02-1.97640E-03-2.93459E-14
 -1      3487 1.21052E-02-1.96525E-03-2.90516E-14
 -1      3488 1.25211E-02-2.27625E-03-3.13738E-14
 -1      3489 1.23773E-02-2.17635E-03-3.06960E-14
 -1      3490 1.23941E-02-2.16446E-03-3.03931E-14
 -1      3491 1.28079E-02-2.47601E-03-3.27441E-14
 -1      3492 1.26646E-02-2.37612E-03-3.20579E-14
 -1      3493 1.26814E-02-2.36370E-03-3.17471E-14
 -1      3494 1.43442E-02-3.23703E-03-3.50286E-14
 -1      3495 1.42472E-02-3.19709E-03-3.50244E-14
 -1      3496 4.42620E-03 3.16374E-04-4.05790E-15
 -1      3497 4.28275E-03 3.17651E-04-3.78961E-15
 -1      3498 4.20890E-03 2.80673E-04-3.71839E-15
 -1      3499 4.49592E-03 2.77999E-04-4.25965E-15
 -1      3500 1.45335E-02-3.31693E-03-3.50587E-14
 -1      3501 1.44353E-02-3.27633E-03-3.50589E-14
 -1      3502 1.42644E-02-3.16928E-03-3.44733E-14
 -1      3503 1.44462E-02-3.24754E-03-3.45344E-14
 -1      3504 6.50516E-03-3.95234E-04-1.07787E-14
 -1      3505 6.59896E-03-4.26966E-04-1.12270E-14
 -1      3506 6.62325E-03-4.25720E-04-1.12814E-14
 -1      3507 6.45958E-03-3.67924E-04-1.05299E-14
 -1      3508 1.14350E-03-2.14912E-04-4.01588E-16
 -1      3509 7.87385E-03-1.05003E-03-1.40867E-14
 -1      3510 1.21268E-02-1.42603E-03-2.13589E-14
 -1      3511 1.25305E-02-1.76708E-03-2.43942E-14
 -1      3512 1.26424E-02-1.85352E-03-2.49966E-14
 -1      3513 1.27587E-02-1.94250E-03-2.56005E-14
 -1      3514 1.28811E-02-2.03525E-03-2.62128E-14
 -1      3515 1.28631E-02-2.05770E-03-2.64971E-14
 -1      3516 1.37510E-02-2.99256E-03-3.49609E-14
 -1      3517 1.36511E-02-2.95114E-03-3.49419E-14
 -1      3518 1.57412E-03-2.60091E-04-7.03268E-16
 -1      3519 1.71792E-03-2.70421E-04-8.22164E-16
 -1      3520 1.78431E-03-2.40507E-04-8.79789E-16
 -1      3521 1.41482E-02-3.15638E-03-3.50151E-14
 -1      3522 1.40490E-02-3.11555E-03-3.50039E-14
 -1      3523 1.40743E-02-3.08965E-03-3.44321E-14
 -1      3524 1.33450E-03 2.45864E-04-3.61229E-16
 -1      3525 1.24355E-03 2.28822E-04-3.19975E-16
 -1      3526 1.23784E-03 1.95379E-04-3.37295E-16
 -1      3527 1.03021E-02-7.21549E-04-1.96867E-14
 -1      3528 1.05335E-02-8.65280E-04-2.01776E-14
 -1      3529 6.69386E-03-4.41298E-04-1.15373E-14
 -1      3530 6.76873E-03-4.61632E-04-1.18142E-14
 -1      3531 6.78528E-03-4.35816E-04-1.16887E-14
 -1      3532 1.39500E-02-3.07477E-03-3.49934E-14
 -1      3533 1.38504E-02-3.03365E-03-3.49783E-14
 -1      3534 1.36774E-02-2.92663E-03-3.43782E-14
 -1      3535 1.38761E-02-3.00840E-03-3.44103E-14
 -1      3536 1.32647E-03-2.30497E-04-5.19753E-16
 -1      3537 7.61331E-03-8.36079E-05-1.25421E-14
 -1      3538 7.65236E-03-5.40926E-06-1.25044E-14
 -1      3539 7.50848E-03-1.12060E-04-1.23316E-14
 -1      3540 1.13429E-02-1.28758E-03-2.17102E-14
 -1      3541 1.15296E-02-1.37490E-03-2.22208E-14
 -1      3542 1.12267E-02-1.24292E-03-2.17254E-14
 -1      3543 7.97229E-03 7.57448E-05-1.32435E-14
 -1      3544 1.23902E-02-1.70371E-03-2.40046E-14
 -1      3545 1.25752E-03 4.77750E-05-4.22215E-16
 -1      3546 1.25679E-03 1.67731E-05-4.33464E-16
 -1      3547 1.26730E-03-1.75308E-04-4.79895E-16
 -1      3548 1.44689E-03-2.27799E-04-6.06001E-16
 -1      3549 1.51361E-03-2.01397E-04-6.55387E-16
 -1      3550 1.26337E-03-1.42758E-04-4.74881E-16
 -1      3551 9.69049E-03-3.07858E-04-1.81723E-14
 -1      3552 9.25865E-03-3.35831E-05-1.69620E-14
 -1      3553 9.34745E-03-9.29094E-05-1.72987E-14
 -1      3554 9.13971E-03 2.29272E-05-1.66527E-14
 -1      3555 6.61855E-03-4.07486E-04-1.11582E-14
 -1      3556 1.05962E-02-9.09912E-04-2.06716E-14
 -1      3557 1.07154E-02-9.75412E-04-2.06875E-14
 -1      3558 1.08920E-02-1.07668E-03-2.12031E-14
 -1      3559 7.03752E-03-4.12628E-04-1.21314E-14
 -1      3560 7.09650E-03-3.61173E-04-1.20484E-14
 -1      3561 6.93245E-03-4.11117E-04-1.18875E-14
 -1      3562 8.84186E-03 1.35584E-04-1.56824E-14
 -1      3563 8.91821E-03 1.13097E-04-1.59659E-14
 -1      3564 8.71381E-03 1.63985E-04-1.53300E-14
 -1      3565 8.41683E-03 1.68736E-04-1.44089E-14
 -1      3566 8.49778E-03 1.82722E-04-1.46639E-14
 -1      3567 2.34802E-03 3.48567E-04-1.05673E-15
 -1      3568 2.70270E-03 3.19249E-04-1.46281E-15
 -1      3569 2.55861E-03 3.16909E-04-1.30759E-15
 -1      3570 2.77053E-03 2.82874E-04-1.58398E-15
 -1      3571 1.47758E-03 2.59709E-04-4.39942E-16
 -1      3572 1.33222E-02-2.81013E-03-3.48035E-14
 -1      3573 1.31736E-02-2.71565E-03-3.42433E-14
 -1      3574 1.34069E-02-2.84769E-03-3.48615E-14
 -1      3575 3.63462E-03 2.84548E-04-2.75364E-15
 -1      3576 3.56549E-03 3.22397E-04-2.59088E-15
 -1      3577 3.42190E-03 3.22798E-04-2.37930E-15
 -1      3578 1.29568E-02-2.57053E-03-3.33057E-14
 -1      3579 2.12607E-03 3.04614E-04-8.98248E-16
 -1      3580 1.98189E-03 2.98307E-04-7.79975E-16
 -1      3581 1.26199E-02-1.87759E-03-2.52747E-14
 -1      3582 7.33711E-03-2.73769E-04-1.23298E-14
 -1      3583 1.90401E-03 2.59479E-04-7.51203E-16
 -1      3584 1.83779E-03 2.90585E-04-6.71243E-16
 -1      3585 1.69382E-03 2.81326E-04-5.71198E-16
 -1      3586 1.25813E-03-7.94128E-05-4.61572E-16
 -1      3587 1.26033E-03-1.10837E-04-4.68795E-16
 -1      3588 1.38407E-03-1.37598E-04-5.55193E-16
 -1      3589 1.34931E-02-2.84819E-03-3.43070E-14
 -1      3590 1.35665E-02-2.91382E-03-3.48900E-14
 -1      3591 1.34818E-02-2.87642E-03-3.48367E-14
 -1      3592 3.27823E-03 3.22904E-04-2.17743E-15
 -1      3593 3.13448E-03 3.22683E-04-1.98473E-15
 -1      3594 3.05898E-03 2.84930E-04-1.93662E-15
 -1      3595 3.34701E-03 2.85332E-04-2.32656E-15
 -1      3596 1.13548E-03-2.76251E-05-3.75500E-16
 -1      3597 1.01694E-02-6.37514E-04-1.94434E-14
 -1      3598 1.02885E-02-7.18834E-04-1.99137E-14
 -1      3599 1.00432E-02-5.54360E-04-1.92013E-14
 -1      3600 1.14379E-03 1.48477E-04-3.11383E-16
 -1      3601 8.28089E-03 1.64383E-04-1.40293E-14
 -1      3602 1.26117E-03 1.10276E-04-3.97496E-16
 -1      3603 1.25897E-03 7.88607E-05-4.10533E-16
 -1      3604 1.38066E-03 6.69615E-05-4.91903E-16
 -1      3605 1.51771E-03-1.65032E-04-6.55360E-16
 -1      3606 1.64374E-03-1.93977E-04-7.57369E-16
 -1      3607 2.28550E-03-2.23988E-04-1.37268E-15
 -1      3608 2.43029E-03-2.26972E-04-1.53661E-15
 -1      3609 2.57506E-03-2.29282E-04-1.71026E-15
 -1      3610 2.71977E-03-2.30981E-04-1.89349E-15
 -1      3611 2.49922E-03-1.91381E-04-1.60873E-15
 -1      3612 2.86438E-03-2.32187E-04-2.08626E-15
 -1      3613 3.00887E-03-2.32948E-04-2.28924E-15
 -1      3614 2.78901E-03-1.94367E-04-1.97253E-15
 -1      3615 3.15320E-03-2.33363E-04-2.50125E-15
 -1      3616 3.29736E-03-2.33465E-04-2.72330E-15
 -1      3617 3.07836E-03-1.95751E-04-2.37503E-15
 -1      3618 3.44133E-03-2.33337E-04-2.95407E-15
 -1      3619 3.58508E-03-2.33003E-04-3.19373E-15
 -1      3620 3.36701E-03-1.96026E-04-2.81537E-15
 -1      3621 3.72859E-03-2.32536E-04-3.44324E-15
 -1      3622 3.87183E-03-2.31954E-04-3.70171E-15
 -1      3623 3.65476E-03-1.95599E-04-3.29259E-15
 -1      3624 4.02193E-03-2.31295E-04-3.98244E-15
 -1      3625 4.17165E-03-2.30611E-04-4.27384E-15
 -1      3626 3.94859E-03-1.94810E-04-3.81952E-15
 -1      3627 4.31386E-03-2.30020E-04-4.55965E-15
 -1      3628 4.45564E-03-2.29510E-04-4.85447E-15
 -1      3629 4.24103E-03-1.94056E-04-4.38417E-15
 -1      3630 4.59692E-03-2.29189E-04-5.15969E-15
 -1      3631 4.73762E-03-2.29084E-04-5.47315E-15
 -1      3632 4.52464E-03-1.93796E-04-4.97214E-15
 -1      3633 4.87763E-03-2.29354E-04-5.79555E-15
 -1      3634 5.01685E-03-2.30035E-04-6.12619E-15
 -1      3635 4.80610E-03-1.94587E-04-5.59608E-15
 -1      3636 5.15513E-03-2.31367E-04-6.46695E-15
 -1      3637 5.29229E-03-2.33398E-04-6.81642E-15
 -1      3638 5.08474E-03-1.97247E-04-6.25556E-15
 -1      3639 5.42818E-03-2.36484E-04-7.17507E-15
 -1      3640 5.56250E-03-2.40687E-04-7.54134E-15
 -1      3641 5.35965E-03-2.02952E-04-6.95230E-15
 -1      3642 5.69513E-03-2.46527E-04-7.91675E-15
 -1      3643 5.82560E-03-2.54062E-04-8.30148E-15
 -1      3644 5.62966E-03-2.13362E-04-7.68522E-15
 -1      3645 5.95387E-03-2.64023E-04-8.69338E-15
 -1      3646 6.07924E-03-2.76419E-04-9.09331E-15
 -1      3647 5.89342E-03-2.30710E-04-8.45324E-15
 -1      3648 6.20191E-03-2.92214E-04-9.49941E-15
 -1      3649 6.32079E-03-3.11308E-04-9.91071E-15
 -1      3650 6.14962E-03-2.57761E-04-9.25184E-15
 -1      3651 9.58731E-03-2.48099E-04-1.80329E-14
 -1      3652 9.80147E-03-3.92265E-04-1.85976E-14
 -1      3653 2.41446E-03 3.13765E-04-1.16186E-15
 -1      3654 2.27027E-03 3.09731E-04-1.02556E-15
 -1      3655 2.19279E-03 2.71076E-04-9.92235E-16
 -1      3656 2.48174E-03 2.78531E-04-1.26953E-15
 -1      3657 1.32368E-02-2.36357E-03-2.86664E-14
 -1      3658 1.33721E-02-2.46149E-03-2.93009E-14
 -1      3659 1.35088E-02-2.56021E-03-2.99396E-14
 -1      3660 1.36466E-02-2.65970E-03-3.05826E-14
 -1      3661 1.33547E-02-2.47879E-03-2.96048E-14
 -1      3662 1.37854E-02-2.75967E-03-3.12293E-14
 -1      3663 1.39249E-02-2.86008E-03-3.18797E-14
 -1      3664 1.36303E-02-2.67626E-03-3.08915E-14
 -1      3665 1.40651E-02-2.96074E-03-3.25344E-14
 -1      3666 1.42058E-02-3.06162E-03-3.31900E-14
 -1      3667 1.39092E-02-2.87596E-03-3.21968E-14
 -1      3668 1.42823E-02-3.11985E-03-3.36028E-14
 -1      3669 1.43694E-02-3.18935E-03-3.41245E-14
 -1      3670 1.42788E-02-3.15036E-03-3.40915E-14
 -1      3671 1.41258E-02-3.03432E-03-3.32663E-14
 -1      3672 3.99149E-03 2.44820E-04-3.39499E-15
 -1      3673 3.84784E-03 2.45801E-04-3.15188E-15
 -1      3674 5.14134E-03 2.32531E-04-5.68728E-15
 -1      3675 4.99704E-03 2.34390E-04-5.36593E-15
 -1      3676 4.85305E-03 2.36194E-04-5.05534E-15
 -1      3677 4.70928E-03 2.37905E-04-4.75390E-15
 -1      3678 4.92268E-03 1.97172E-04-5.27338E-15
 -1      3679 5.72417E-03 2.25100E-04-7.07758E-15
 -1      3680 5.57734E-03 2.26832E-04-6.71368E-15
 -1      3681 6.02114E-03 2.22322E-04-7.83468E-15
 -1      3682 5.87206E-03 2.23523E-04-7.45071E-15
 -1      3683 5.79465E-03 1.82783E-04-7.33368E-15
 -1      3684 6.32379E-03 2.21420E-04-8.62693E-15
 -1      3685 6.17169E-03 2.21515E-04-8.22653E-15
 -1      3686 6.09294E-03 1.78265E-04-8.10169E-15
 -1      3687 6.63345E-03 2.23829E-04-9.45194E-15
 -1      3688 6.47772E-03 2.22067E-04-9.03554E-15
 -1      3689 6.39796E-03 1.75608E-04-8.90378E-15
 -1      3690 6.95077E-03 2.31112E-04-1.03054E-14
 -1      3691 6.79124E-03 2.26730E-04-9.87601E-15
 -1      3692 6.71147E-03 1.76751E-04-9.73647E-15
 -1      3693 7.27485E-03 2.44144E-04-1.11876E-14
 -1      3694 7.11222E-03 2.36937E-04-1.07429E-14
 -1      3695 7.03441E-03 1.84119E-04-1.05971E-14
 -1      3696 7.60234E-03 2.60873E-04-1.20954E-14
 -1      3697 7.43864E-03 2.52382E-04-1.16380E-14
 -1      3698 7.36584E-03 1.99285E-04-1.14834E-14
 -1      3699 7.92770E-03 2.74371E-04-1.30343E-14
 -1      3700 7.76581E-03 2.68873E-04-1.25607E-14
 -1      3701 7.70150E-03 2.20308E-04-1.23974E-14
 -1      3702 8.32885E-03 2.43898E-04-1.42345E-14
 -1      3703 8.16901E-03 2.48557E-04-1.37438E-14
 -1      3704 8.85357E-03 1.39739E-04-1.60485E-14
 -1      3705 8.70267E-03 1.92363E-04-1.55251E-14
 -1      3706 9.15791E-03-5.43590E-06-1.71242E-14
 -1      3707 9.00461E-03 7.32645E-05-1.65824E-14
 -1      3708 8.97602E-03 8.65189E-05-1.63755E-14
 -1      3709 9.47151E-03-1.93019E-04-1.82332E-14
 -1      3710 9.31329E-03-9.53577E-05-1.76751E-14
 -1      3711 9.28922E-03-7.79240E-05-1.74592E-14
 -1      3712 9.79449E-03-4.04114E-04-1.93793E-14
 -1      3713 9.63211E-03-2.96968E-04-1.88015E-14
 -1      3714 9.61392E-03-2.82465E-04-1.85773E-14
 -1      3715 1.01218E-02-6.22623E-04-2.05521E-14
 -1      3716 9.95810E-03-5.13300E-04-1.99635E-14
 -1      3717 9.94759E-03-5.04038E-04-1.97283E-14
 -1      3718 1.04475E-02-8.38980E-04-2.17536E-14
 -1      3719 1.02853E-02-7.31396E-04-2.11483E-14
 -1      3720 1.02828E-02-7.26298E-04-2.09085E-14
 -1      3721 1.07673E-02-1.04988E-03-2.29792E-14
 -1      3722 1.06084E-02-9.45121E-04-2.23636E-14
 -1      3723 1.06130E-02-9.41803E-04-2.21140E-14
 -1      3724 1.10795E-02-1.25551E-03-2.42260E-14
 -1      3725 1.09245E-02-1.15323E-03-2.36005E-14
 -1      3726 1.09344E-02-1.14964E-03-2.33422E-14
 -1      3727 1.13843E-02-1.45734E-03-2.54975E-14
 -1      3728 1.12328E-02-1.35675E-03-2.48598E-14
 -1      3729 1.12463E-02-1.35172E-03-2.45945E-14
 -1      3730 1.16828E-02-1.65692E-03-2.67845E-14
 -1      3731 1.15342E-02-1.55729E-03-2.61378E-14
 -1      3732 1.15499E-02-1.55041E-03-2.58648E-14
 -1      3733 1.19765E-02-1.85545E-03-2.80965E-14
 -1      3734 1.18302E-02-1.75624E-03-2.74377E-14
 -1      3735 1.18470E-02-1.74757E-03-2.71555E-14
 -1      3736 1.22669E-02-2.05370E-03-2.94235E-14
 -1      3737 1.21220E-02-1.95456E-03-2.87589E-14
 -1      3738 1.21393E-02-1.94439E-03-2.84671E-14
 -1      3739 1.25550E-02-2.25210E-03-3.07640E-14
 -1      3740 1.24111E-02-2.15285E-03-3.00925E-14
 -1      3741 1.24285E-02-2.14154E-03-2.97916E-14
 -1      3742 1.28417E-02-2.45086E-03-3.21157E-14
 -1      3743 1.26985E-02-2.35142E-03-3.14382E-14
 -1      3744 1.27158E-02-2.33929E-03-3.11316E-14
 -1      3745 6.44492E-03-3.39609E-04-1.03697E-14
 -1      3746 6.53672E-03-3.67240E-04-1.07444E-14
 -1      3747 1.24721E-02-1.81245E-03-2.49370E-14
 -1      3748 1.25904E-02-1.89759E-03-2.55452E-14
 -1      3749 1.22461E-02-1.64712E-03-2.36599E-14
 -1      3750 1.23614E-02-1.73176E-03-2.43265E-14
 -1      3751 1.23201E-02-1.74822E-03-2.45905E-14
 -1      3752 1.20999E-02-1.59725E-03-2.33752E-14
 -1      3753 5.43136E-03 2.28716E-04-6.36055E-15
 -1      3754 5.28608E-03 2.30614E-04-6.01877E-15
 -1      3755 5.21098E-03 1.92763E-04-5.91820E-15
 -1      3756 6.62161E-03-3.75477E-04-1.09959E-14
 -1      3757 7.15041E-03-2.93644E-04-1.19269E-14
 -1      3758 7.25250E-03-2.22727E-04-1.19609E-14
 -1      3759 1.37908E-03 1.44947E-06-5.16853E-16
 -1      3760 1.25675E-03-1.40994E-05-4.43805E-16
 -1      3761 1.25741E-03-4.50259E-05-4.52871E-16
 -1      3762 1.27141E-02-1.98594E-03-2.61584E-14
 -1      3763 1.28408E-02-2.07728E-03-2.67757E-14
 -1      3764 1.25605E-02-1.91518E-03-2.58183E-14
 -1      3765 1.29713E-02-2.17159E-03-2.74070E-14
 -1      3766 1.31030E-02-2.26693E-03-2.80349E-14
 -1      3767 1.30836E-02-2.28495E-03-2.83308E-14
 -1      3768 1.78770E-03-2.01236E-04-8.79600E-16
 -1      3769 1.40013E-02-3.02322E-03-3.38569E-14
 -1      3770 1.39022E-02-2.98283E-03-3.38473E-14
 -1      3771 1.30417E-02-2.60829E-03-3.33640E-14
 -1      3772 1.54350E-03 2.33061E-04-5.03070E-16
 -1      3773 7.82264E-03 9.63673E-05-1.28212E-14
 -1      3774 8.03249E-03 1.40522E-04-1.33528E-14
 -1      3775 6.72804E-03-3.93048E-04-1.13355E-14
 -1      3776 6.82537E-03-4.04583E-04-1.16106E-14
 -1      3777 6.86805E-03-3.66396E-04-1.15306E-14
 -1      3778 1.99612E-03-2.15502E-04-1.07299E-15
 -1      3779 2.14076E-03-2.20187E-04-1.21805E-15
 -1      3780 2.20934E-03-1.86192E-04-1.28340E-15
 -1      3781 8.12368E-03 1.81994E-04-1.35928E-14
 -1      3782 1.25069E-03 1.68810E-04-3.60077E-16
 -1      3783 1.24691E-03 1.36484E-04-3.75595E-16
 -1      3784 1.36805E-03 1.27752E-04-4.54172E-16
 -1      3785 1.34083E-03 1.83183E-04-4.05370E-16
 -1      3786 8.44877E-03 2.47178E-04-1.46576E-14
 -1      3787 8.49370E-03 2.06167E-04-1.47004E-14
 -1      3788 8.62636E-03 1.85009E-04-1.50941E-14
 -1      3789 8.60146E-03 2.18261E-04-1.51669E-14
 -1      3790 1.10918E-02-1.18544E-03-2.17135E-14
 -1      3791 1.12851E-02-1.28562E-03-2.22266E-14
 -1      3792 1.09677E-02-1.12578E-03-2.16999E-14
 -1      3793 1.33334E-02-2.78209E-03-3.42779E-14
 -1      3794 1.37305E-02-2.87648E-03-3.32564E-14
 -1      3795 1.38032E-02-2.94243E-03-3.38297E-14
 -1      3796 1.37039E-02-2.90181E-03-3.38162E-14
 -1      3797 6.40606E-03-3.02528E-04-1.01182E-14
 -1      3798 1.02906E-02-7.23463E-04-2.01516E-14
 -1      3799 1.04136E-02-8.01219E-04-2.04001E-14
 -1      3800 9.92464E-03-4.79644E-04-1.90599E-14
 -1      3801 1.05868E-02-9.08434E-04-2.09149E-14
 -1      3802 2.26043E-03 2.36953E-04-1.08904E-15
 -1      3803 2.11576E-03 2.32776E-04-9.56849E-16
 -1      3804 8.70183E-03 1.76411E-04-1.53711E-14
 -1      3805 1.50487E-03 8.75777E-05-5.66197E-16
 -1      3806 1.50323E-03 5.30680E-05-5.81092E-16
 -1      3807 3.77386E-03 2.08620E-04-3.08390E-15
 -1      3808 3.70409E-03 2.46605E-04-2.91767E-15
 -1      3809 3.56023E-03 2.47226E-04-2.69291E-15
 -1      3810 6.64401E-03-3.47534E-04-1.09174E-14
 -1      3811 5.50121E-03 1.87856E-04-6.60530E-15
 -1      3812 4.13507E-03 2.43694E-04-3.64778E-15
 -1      3813 4.06130E-03 2.06704E-04-3.57491E-15
 -1      3814 4.27860E-03 2.42425E-04-3.90980E-15
 -1      3815 2.83906E-03 2.46187E-04-1.70846E-15
 -1      3816 2.69449E-03 2.44811E-04-1.53972E-15
 -1      3817 1.41859E-02-3.10627E-03-3.39906E-14
 -1      3818 1.40947E-02-3.06731E-03-3.39578E-14
 -1      3819 1.39231E-02-2.96058E-03-3.33762E-14
 -1      3820 1.41094E-02-3.04839E-03-3.35800E-14
 -1      3821 4.63536E-03 2.00971E-04-4.66912E-15
 -1      3822 4.56565E-03 2.39524E-04-4.46308E-15
 -1      3823 4.42211E-03 2.41034E-04-4.18194E-15
 -1      3824 8.11368E-03 2.11731E-04-1.35655E-14
 -1      3825 8.71912E-03 1.78364E-04-1.54875E-14
 -1      3826 7.13738E-03-1.68068E-04-1.15278E-14
 -1      3827 7.32007E-03-1.45123E-04-1.19271E-14
 -1      3828 7.37089E-03-6.76997E-05-1.18894E-14
 -1      3829 1.31168E-02-2.63727E-03-3.33436E-14
 -1      3830 1.31339E-02-2.62442E-03-3.30248E-14
 -1      3831 2.03927E-03 1.94954E-04-9.20488E-16
 -1      3832 1.97121E-03 2.27603E-04-8.34307E-16
 -1      3833 1.82686E-03 2.21336E-04-7.20859E-16
 -1      3834 1.62658E-03 3.73274E-05-6.78616E-16
 -1      3835 1.50240E-03 1.86645E-05-5.95322E-16
 -1      3836 1.50236E-03-1.56849E-05-6.08454E-16
 -1      3837 1.85598E-03-1.70175E-04-9.35626E-16
 -1      3838 7.03353E-03-3.05080E-04-1.16861E-14
 -1      3839 1.37981E-03-6.75512E-05-5.38591E-16
 -1      3840 1.51415E-03-1.29679E-04-6.47472E-16
 -1      3841 7.54555E-03 2.84074E-05-1.21737E-14
 -1      3842 7.63910E-03 5.42887E-05-1.23832E-14
 -1      3843 1.36043E-02-2.86097E-03-3.37991E-14
 -1      3844 1.35047E-02-2.81990E-03-3.37788E-14
 -1      3845 1.35315E-02-2.79541E-03-3.32214E-14
 -1      3846 1.28179E-02-2.09583E-03-2.70660E-14
 -1      3847 7.70635E-03 1.24374E-04-1.24835E-14
 -1      3848 1.69114E-03 2.12597E-04-6.23010E-16
 -1      3849 1.47525E-03 1.94810E-04-4.83649E-16
 -1      3850 1.48840E-03 1.65498E-04-5.10998E-16
 -1      3851 1.75889E-03 1.82719E-04-6.96058E-16
 -1      3852 3.12790E-03 2.47600E-04-2.07435E-15
 -1      3853 2.98354E-03 2.47104E-04-1.88642E-15
 -1      3854 2.90823E-03 2.09247E-04-1.83501E-15
 -1      3855 1.17685E-02-1.47992E-03-2.28023E-14
 -1      3856 1.19407E-02-1.54160E-03-2.30891E-14
 -1      3857 1.20544E-02-1.61370E-03-2.36945E-14
 -1      3858 1.16623E-02-1.44973E-03-2.28207E-14
 -1      3859 1.00900E-02-5.94217E-04-1.96930E-14
 -1      3860 1.02151E-02-6.77289E-04-2.01759E-14
 -1      3861 9.86260E-03-4.42464E-04-1.90812E-14
 -1      3862 8.99259E-03 8.51218E-05-1.62329E-14
 -1      3863 9.07801E-03 4.43904E-05-1.65604E-14
 -1      3864 2.71396E-03-1.56618E-04-1.86086E-15
 -1      3865 2.85891E-03-1.57495E-04-2.05081E-15
 -1      3866 3.00374E-03-1.58089E-04-2.25086E-15
 -1      3867 3.14840E-03-1.58425E-04-2.46014E-15
 -1      3868 2.92941E-03-1.20420E-04-2.12880E-15
 -1      3869 3.29287E-03-1.58578E-04-2.67898E-15
 -1      3870 3.43711E-03-1.58567E-04-2.90677E-15
 -1      3871 3.21896E-03-1.21022E-04-2.54462E-15
 -1      3872 3.58111E-03-1.58460E-04-3.14386E-15
 -1      3873 3.72485E-03-1.58273E-04-3.39040E-15
 -1      3874 3.50766E-03-1.21134E-04-2.99744E-15
 -1      3875 3.87545E-03-1.58063E-04-3.65836E-15
 -1      3876 4.02569E-03-1.57862E-04-3.93648E-15
 -1      3877 3.80249E-03-1.21057E-04-3.49887E-15
 -1      3878 4.16842E-03-1.57758E-04-4.21039E-15
 -1      3879 4.31076E-03-1.57763E-04-4.49330E-15
 -1      3880 4.09601E-03-1.21125E-04-4.03788E-15
 -1      3881 4.45267E-03-1.57975E-04-4.78655E-15
 -1      3882 4.59409E-03-1.58427E-04-5.08815E-15
 -1      3883 4.38091E-03-1.21724E-04-4.60219E-15
 -1      3884 4.73498E-03-1.59251E-04-5.39842E-15
 -1      3885 4.87525E-03-1.60498E-04-5.71707E-15
 -1      3886 4.66408E-03-1.23357E-04-5.20206E-15
 -1      3887 5.01487E-03-1.62352E-04-6.04520E-15
 -1      3888 5.15370E-03-1.64882E-04-6.38350E-15
 -1      3889 4.94521E-03-1.26722E-04-5.83715E-15
 -1      3890 5.29171E-03-1.68347E-04-6.73126E-15
 -1      3891 5.42874E-03-1.72841E-04-7.08813E-15
 -1      3892 5.22391E-03-1.32773E-04-6.51063E-15
 -1      3893 5.56479E-03-1.78706E-04-7.45351E-15
 -1      3894 5.69963E-03-1.86066E-04-7.82817E-15
 -1      3895 5.49983E-03-1.42794E-04-7.22195E-15
 -1      3896 5.83341E-03-1.95343E-04-8.21179E-15
 -1      3897 5.96577E-03-2.06675E-04-8.60375E-15
 -1      3898 5.77276E-03-1.58395E-04-7.97089E-15
 -1      3899 6.09716E-03-2.20507E-04-9.00377E-15
 -1      3900 6.22709E-03-2.36985E-04-9.40960E-15
 -1      3901 6.04300E-03-1.81391E-04-8.75369E-15
 -1      3902 9.41515E-03-1.40153E-04-1.75742E-14
 -1      3903 9.52349E-03-2.14840E-04-1.79918E-14
 -1      3904 2.13377E-03-1.48899E-04-1.19569E-15
 -1      3905 2.27875E-03-1.51585E-04-1.34764E-15
 -1      3906 8.80730E-03 1.49656E-04-1.57291E-14
 -1      3907 1.06024E-02-9.21664E-04-2.12338E-14
 -1      3908 1.07768E-02-1.02360E-03-2.15083E-14
 -1      3909 1.31994E-02-2.39793E-03-2.92665E-14
 -1      3910 1.33365E-02-2.49525E-03-2.99079E-14
 -1      3911 5.28017E-03 1.52715E-04-6.15113E-15
 -1      3912 5.13593E-03 1.55478E-04-5.81722E-15
 -1      3913 1.34745E-02-2.59338E-03-3.05552E-14
 -1      3914 1.36134E-02-2.69225E-03-3.12052E-14
 -1      3915 1.33179E-02-2.51089E-03-3.02148E-14
 -1      3916 1.26605E-02-2.02010E-03-2.67213E-14
 -1      3917 1.27934E-02-2.11246E-03-2.73565E-14
 -1      3918 6.58462E-03-3.01925E-04-1.05823E-14
 -1      3919 6.70569E-03-3.11576E-04-1.09181E-14
 -1      3920 1.15202E-02-1.40193E-03-2.28212E-14
 -1      3921 1.17568E-02-1.51282E-03-2.34100E-14
 -1      3922 6.16342E-03 1.33020E-04-8.37035E-15
 -1      3923 6.01295E-03 1.36192E-04-7.97641E-15
 -1      3924 5.86413E-03 1.39662E-04-7.59195E-15
 -1      3925 5.71669E-03 1.43091E-04-7.21673E-15
 -1      3926 5.93235E-03 9.56601E-05-7.85084E-15
 -1      3927 6.78787E-03 1.27752E-04-1.00202E-14
 -1      3928 6.62789E-03 1.27154E-04-9.59668E-15
 -1      3929 7.11672E-03 1.35112E-04-1.08867E-14
 -1      3930 6.95096E-03 1.30139E-04-1.04499E-14
 -1      3931 6.86228E-03 7.67089E-05-1.03037E-14
 -1      3932 7.87591E-03 1.96724E-04-1.28954E-14
 -1      3933 7.70469E-03 1.83281E-04-1.24291E-14
 -1      3934 1.00705E-02-5.84860E-04-2.00134E-14
 -1      3935 9.89959E-03-4.71012E-04-1.94317E-14
 -1      3936 1.07838E-02-1.04541E-03-2.24734E-14
 -1      3937 1.06190E-02-9.40446E-04-2.18659E-14
 -1      3938 1.11049E-02-1.24886E-03-2.37043E-14
 -1      3939 1.09459E-02-1.14796E-03-2.30854E-14
 -1      3940 1.09595E-02-1.14829E-03-2.28300E-14
 -1      3941 1.14152E-02-1.44682E-03-2.49588E-14
 -1      3942 1.12613E-02-1.34824E-03-2.43288E-14
 -1      3943 1.12783E-02-1.34647E-03-2.40646E-14
 -1      3944 1.17166E-02-1.64227E-03-2.62326E-14
 -1      3945 1.15668E-02-1.54466E-03-2.55941E-14
 -1      3946 1.15854E-02-1.54018E-03-2.53206E-14
 -1      3947 1.20116E-02-1.83714E-03-2.75233E-14
 -1      3948 1.18648E-02-1.73966E-03-2.68746E-14
 -1      3949 1.18838E-02-1.73260E-03-2.65962E-14
 -1      3950 1.23022E-02-2.03250E-03-2.88331E-14
 -1      3951 1.21573E-02-1.93470E-03-2.81771E-14
 -1      3952 1.21762E-02-1.92551E-03-2.78876E-14
 -1      3953 1.25901E-02-2.22878E-03-3.01575E-14
 -1      3954 1.24464E-02-2.13050E-03-2.94939E-14
 -1      3955 1.24649E-02-2.11972E-03-2.91965E-14
 -1      3956 1.28764E-02-2.42607E-03-3.14943E-14
 -1      3957 1.27334E-02-2.32730E-03-3.08251E-14
 -1      3958 1.27514E-02-2.31541E-03-3.05188E-14
 -1      3959 1.29283E-02-2.20680E-03-2.79943E-14
 -1      3960 1.30632E-02-2.30174E-03-2.86285E-14
 -1      3961 1.30425E-02-2.31740E-03-2.89264E-14
 -1      3962 1.76129E-03-1.30738E-04-8.44946E-16
 -1      3963 1.96947E-03-1.42360E-04-1.03377E-15
 -1      3964 7.36856E-03-4.58541E-06-1.17688E-14
 -1      3965 1.33305E-02-2.71297E-03-3.31847E-14
 -1      3966 1.34036E-02-2.77833E-03-3.37621E-14
 -1      3967 1.50309E-03-8.60071E-05-6.30355E-16
 -1      3968 1.63634E-03-1.10584E-04-7.37718E-16
 -1      3969 1.75027E-03-8.40335E-05-8.23438E-16
 -1      3970 1.50222E-03-4.78463E-05-6.18944E-16
 -1      3971 1.24014E-02-1.84442E-03-2.54828E-14
 -1      3972 1.25299E-02-1.93103E-03-2.60992E-14
 -1      3973 1.24999E-02-1.94489E-03-2.63825E-14
 -1      3974 1.50228E-03 1.36216E-04-5.38171E-16
 -1      3975 1.33188E-02-2.74096E-03-3.37078E-14
 -1      3976 5.57037E-03 1.46496E-04-6.85117E-15
 -1      3977 5.42492E-03 1.49692E-04-6.49631E-15
 -1      3978 5.63863E-03 1.04607E-04-7.09841E-15
 -1      3979 3.41625E-03 2.47616E-04-2.47790E-15
 -1      3980 3.27214E-03 2.47763E-04-2.27176E-15
 -1      3981 3.48589E-03 2.09812E-04-2.63105E-15
 -1      3982 7.53527E-03 1.50178E-04-1.19949E-14
 -1      3983 6.47057E-03 1.28192E-04-9.18037E-15
 -1      3984 6.31589E-03 1.30173E-04-8.77170E-15
 -1      3985 6.54126E-03 7.90279E-05-9.45812E-15
 -1      3986 8.86355E-03 1.30512E-04-1.58729E-14
 -1      3987 2.54983E-03 2.42865E-04-1.37997E-15
 -1      3988 2.40513E-03 2.40291E-04-1.22995E-15
 -1      3989 2.32888E-03 2.02291E-04-1.18856E-15
 -1      3990 6.80480E-03-3.12662E-04-1.11635E-14
 -1      3991 6.92067E-03-3.11945E-04-1.14368E-14
 -1      3992 6.95613E-03-2.50790E-04-1.13130E-14
 -1      3993 6.74113E-03-2.61868E-04-1.08230E-14
 -1      3994 9.29311E-03-7.00656E-05-1.72573E-14
 -1      3995 2.42382E-03-1.53729E-04-1.50891E-15
 -1      3996 2.56891E-03-1.55375E-04-1.68000E-15
 -1      3997 2.34890E-03-1.16416E-04-1.41150E-15
 -1      3998 9.40511E-03-1.45612E-04-1.77725E-14
 -1      3999 9.24287E-03-4.83657E-05-1.72221E-14
 -1      4000 6.33787E-03-2.53400E-04-9.76195E-15
 -1      4001 6.47484E-03-2.81044E-04-1.02220E-14
 -1      4002 6.52387E-03-2.44562E-04-1.02185E-14
 -1      4003 6.29243E-03-2.10683E-04-9.50673E-15
 -1      4004 4.99207E-03 1.58018E-04-5.49384E-15
 -1      4005 4.84844E-03 1.60307E-04-5.17990E-15
 -1      4006 5.06112E-03 1.18753E-04-5.71539E-15
 -1      4007 9.56821E-03-2.48474E-04-1.82358E-14
 -1      4008 9.17786E-03-9.26222E-06-1.69505E-14
 -1      4009 7.36313E-03 1.38571E-04-1.15429E-14
 -1      4010 7.27432E-03 7.89109E-05-1.13868E-14
 -1      4011 1.36579E-02-2.81051E-03-3.26864E-14
 -1      4012 1.35585E-02-2.77036E-03-3.26675E-14
 -1      4013 9.73915E-03-3.61960E-04-1.88028E-14
 -1      4014 2.39815E-03 1.67097E-04-1.29020E-15
 -1      4015 2.25313E-03 1.64671E-04-1.14497E-15
 -1      4016 4.77447E-03 1.23766E-04-5.08514E-15
 -1      4017 4.70498E-03 1.62373E-04-4.87609E-15
 -1      4018 4.56159E-03 1.64220E-04-4.58208E-15
 -1      4019 3.84391E-03 1.70614E-04-3.25289E-15
 -1      4020 3.70001E-03 1.71371E-04-3.01499E-15
 -1      4021 2.63927E-03-1.19008E-04-1.75074E-15
 -1      4022 6.90684E-03-1.97904E-04-1.10342E-14
 -1      4023 7.02028E-03-1.85512E-04-1.12806E-14
 -1      4024 7.07473E-03-1.16114E-04-1.12428E-14
 -1      4025 8.87840E-03 1.26292E-04-1.59938E-14
 -1      4026 1.62474E-03 1.23687E-04-6.32483E-16
 -1      4027 1.27692E-02-2.12770E-03-2.76470E-14
 -1      4028 1.37529E-02-2.79162E-03-3.18585E-14
 -1      4029 1.38929E-02-2.89146E-03-3.25171E-14
 -1      4030 1.40331E-02-2.99056E-03-3.31644E-14
 -1      4031 4.34837E-03 2.04147E-04-4.10324E-15
 -1      4032 1.19703E-02-1.60486E-03-2.38557E-14
 -1      4033 1.21295E-02-1.66685E-03-2.41443E-14
 -1      4034 1.22483E-02-1.74558E-03-2.47574E-14
 -1      4035 1.18421E-02-1.56685E-03-2.38615E-14
 -1      4036 1.38760E-02-2.90553E-03-3.28248E-14
 -1      4037 1.37827E-02-2.86187E-03-3.27218E-14
 -1      4038 1.36115E-02-2.75606E-03-3.21403E-14
 -1      4039 1.02702E-02-7.16190E-04-2.06935E-14
 -1      4040 1.02281E-02-6.87120E-04-2.03885E-14
 -1      4041 1.04213E-02-8.10580E-04-2.08559E-14
 -1      4042 1.04392E-02-8.26231E-04-2.12896E-14
 -1      4043 1.06061E-02-9.26746E-04-2.14526E-14
 -1      4044 1.76011E-03 1.30017E-04-7.31918E-16
 -1      4045 1.76314E-03 7.76961E-05-7.64918E-16
 -1      4046 1.89595E-03 1.35784E-04-8.39593E-16
 -1      4047 3.19734E-03 2.10112E-04-2.21454E-15
 -1      4048 6.23227E-03 8.64501E-05-8.63955E-15
 -1      4049 2.03935E-03-1.09162E-04-1.09073E-15
 -1      4050 7.11679E-03-5.53200E-06-1.11149E-14
 -1      4051 2.04056E-03 1.39390E-04-9.63544E-16
 -1      4052 1.09682E-02-1.13375E-03-2.20258E-14
 -1      4053 3.98767E-03 1.69691E-04-3.49978E-15
 -1      4054 3.91422E-03 1.32638E-04-3.42330E-15
 -1      4055 4.13128E-03 1.68589E-04-3.75648E-15
 -1      4056 1.89749E-03 4.34103E-05-8.95781E-16
 -1      4057 1.76178E-03 4.04332E-05-7.83336E-16
 -1      4058 1.76126E-03 3.25584E-06-8.00223E-16
 -1      4059 1.06132E-02-9.33547E-04-2.16457E-14
 -1      4060 9.03419E-03 6.10355E-05-1.65228E-14
 -1      4061 1.13967E-02-1.35361E-03-2.28108E-14
 -1      4062 2.97802E-03 1.72068E-04-1.96365E-15
 -1      4063 2.83317E-03 1.71423E-04-1.78149E-15
 -1      4064 2.61866E-03 2.06819E-04-1.49297E-15
 -1      4065 1.62564E-03-3.19650E-05-7.06304E-16
 -1      4066 2.11063E-03 1.05620E-04-1.05151E-15
 -1      4067 1.34587E-02-2.72991E-03-3.26479E-14
 -1      4068 1.33587E-02-2.68911E-03-3.26296E-14
 -1      4069 1.33863E-02-2.66454E-03-3.20816E-14
 -1      4070 1.32575E-02-2.64766E-03-3.26093E-14
 -1      4071 1.31560E-02-2.60595E-03-3.25885E-14
 -1      4072 1.35961E-02-2.70765E-03-3.15194E-14
 -1      4073 1.22088E-02-1.75637E-03-2.50309E-14
 -1      4074 5.34878E-03 1.12391E-04-6.38621E-15
 -1      4075 1.31846E-02-2.58260E-03-3.20392E-14
 -1      4076 2.68822E-03 1.70407E-04-1.60858E-15
 -1      4077 2.54319E-03 1.68994E-04-1.44475E-15
 -1      4078 2.46814E-03 1.31417E-04-1.39465E-15
 -1      4079 2.75842E-03 1.33687E-04-1.72600E-15
 -1      4080 1.17564E-02-1.63156E-03-2.56830E-14
 -1      4081 1.16062E-02-1.53681E-03-2.50492E-14
 -1      4082 2.56505E-03-8.16297E-05-1.64327E-15
 -1      4083 2.71029E-03-8.23086E-05-1.82141E-15
 -1      4084 3.14536E-03-8.34129E-05-2.41265E-15
 -1      4085 3.29002E-03-8.35603E-05-2.62812E-15
 -1      4086 3.43446E-03-8.36668E-05-2.85210E-15
 -1      4087 3.57865E-03-8.37367E-05-3.08587E-15
 -1      4088 3.36155E-03-4.60821E-05-2.70965E-15
 -1      4089 3.72976E-03-8.38352E-05-3.34133E-15
 -1      4090 3.88054E-03-8.39703E-05-3.60658E-15
 -1      4091 3.65726E-03-4.64140E-05-3.18517E-15
 -1      4092 4.02382E-03-8.42024E-05-3.86851E-15
 -1      4093 4.16676E-03-8.45514E-05-4.13925E-15
 -1      4094 3.95181E-03-4.70082E-05-3.69977E-15
 -1      4095 4.30935E-03-8.51014E-05-4.41918E-15
 -1      4096 4.45156E-03-8.58776E-05-4.70892E-15
 -1      4097 4.23795E-03-4.81297E-05-4.23842E-15
 -1      4098 4.59337E-03-8.69837E-05-5.00739E-15
 -1      4099 4.73474E-03-8.84682E-05-5.31414E-15
 -1      4100 4.52275E-03-5.01802E-05-4.81371E-15
 -1      4101 4.87569E-03-9.04695E-05-5.63065E-15
 -1      4102 5.01614E-03-9.30468E-05-5.95644E-15
 -1      4103 4.80614E-03-5.36730E-05-5.42552E-15
 -1      4104 5.15613E-03-9.63856E-05-6.29154E-15
 -1      4105 5.29559E-03-1.00569E-04-6.63726E-15
 -1      4106 5.08812E-03-5.93300E-05-6.07443E-15
 -1      4107 5.43462E-03-1.05820E-04-6.99121E-15
 -1      4108 5.57312E-03-1.12247E-04-7.35555E-15
 -1      4109 5.36882E-03-6.80502E-05-6.76104E-15
 -1      4110 5.71134E-03-1.20089E-04-7.73019E-15
 -1      4111 5.84915E-03-1.29476E-04-8.11219E-15
 -1      4112 5.64868E-03-8.08948E-05-7.48903E-15
 -1      4113 5.98704E-03-1.40589E-04-8.50356E-15
 -1      4114 6.12490E-03-1.53571E-04-8.90355E-15
 -1      4115 5.92876E-03-9.89181E-05-8.25331E-15
 -1      4116 1.20256E-02-1.67481E-03-2.46501E-14
 -1      4117 1.21891E-02-1.77522E-03-2.53784E-14
 -1      4118 1.14537E-02-1.44198E-03-2.44237E-14
 -1      4119 1.12982E-02-1.34634E-03-2.38024E-14
 -1      4120 1.16298E-02-1.53476E-03-2.47806E-14
 -1      4121 1.26075E-02-2.04822E-03-2.72983E-14
 -1      4122 1.27455E-02-2.14185E-03-2.79417E-14
 -1      4123 4.41821E-03 1.65865E-04-4.29706E-15
 -1      4124 4.27479E-03 1.67319E-04-4.02211E-15
 -1      4125 4.48806E-03 1.27615E-04-4.49329E-15
 -1      4126 1.18170E-02-1.57857E-03-2.42001E-14
 -1      4127 1.34712E-02-2.65722E-03-3.14793E-14
 -1      4128 1.12571E-02-1.29235E-03-2.27633E-14
 -1      4129 1.14863E-02-1.41272E-03-2.33645E-14
 -1      4130 1.07907E-02-1.04013E-03-2.20263E-14
 -1      4131 1.11294E-02-1.24566E-03-2.32125E-14
 -1      4132 1.09669E-02-1.14645E-03-2.26031E-14
 -1      4133 1.09661E-02-1.14148E-03-2.24054E-14
 -1      4134 1.13108E-02-1.34410E-03-2.35689E-14
 -1      4135 1.20510E-02-1.82128E-03-2.69563E-14
 -1      4136 1.19045E-02-1.72620E-03-2.63178E-14
 -1      4137 1.19272E-02-1.72056E-03-2.60392E-14
 -1      4138 1.23406E-02-2.01265E-03-2.82476E-14
 -1      4139 1.21963E-02-1.91668E-03-2.75994E-14
 -1      4140 1.22178E-02-1.90822E-03-2.73143E-14
 -1      4141 1.26273E-02-2.20610E-03-2.95575E-14
 -1      4142 1.24842E-02-2.10910E-03-2.89026E-14
 -1      4143 1.25044E-02-2.09862E-03-2.86077E-14
 -1      4144 1.29124E-02-2.40149E-03-3.08779E-14
 -1      4145 1.27700E-02-2.30356E-03-3.02160E-14
 -1      4146 1.27890E-02-2.29172E-03-2.99140E-14
 -1      4147 1.29709E-02-2.48980E-03-3.19115E-14
 -1      4148 1.29886E-02-2.47729E-03-3.16000E-14
 -1      4149 5.99880E-03 5.09475E-05-8.11012E-15
 -1      4150 5.85158E-03 5.67930E-05-7.72379E-15
 -1      4151 1.96294E-03-7.20878E-05-1.00602E-15
 -1      4152 2.12722E-03-7.67604E-05-1.16470E-15
 -1      4153 1.31602E-02-2.42851E-03-2.98732E-14
 -1      4154 1.32991E-02-2.52585E-03-3.05226E-14
 -1      4155 2.25646E-03 8.43146E-05-1.20796E-15
 -1      4156 2.04459E-03 6.14289E-05-1.01773E-15
 -1      4157 1.33142E-02-2.59935E-03-3.15180E-14
 -1      4158 1.32138E-02-2.55899E-03-3.14948E-14
 -1      4159 5.12974E-03 7.94683E-05-5.93854E-15
 -1      4160 4.98669E-03 8.25398E-05-5.61264E-15
 -1      4161 1.83803E-03-5.36990E-05-8.88002E-16
 -1      4162 7.01427E-03-6.00529E-05-1.09609E-14
 -1      4163 6.93633E-03 2.65362E-05-1.05876E-14
 -1      4164 6.77204E-03 2.74535E-05-1.01584E-14
 -1      4165 6.90363E-03-7.76217E-05-1.07191E-14
 -1      4166 5.70569E-03 6.23421E-05-7.34749E-15
 -1      4167 5.56078E-03 6.73540E-05-6.98039E-15
 -1      4168 5.77133E-03 1.96758E-05-7.59698E-15
 -1      4169 3.62634E-03 1.34053E-04-2.94439E-15
 -1      4170 3.55594E-03 1.71939E-04-2.78618E-15
 -1      4171 3.41170E-03 1.72323E-04-2.56734E-15
 -1      4172 6.61164E-03 3.09102E-05-9.73586E-15
 -1      4173 6.45496E-03 3.55654E-05-9.31972E-15
 -1      4174 6.67900E-03-1.91528E-05-1.00134E-14
 -1      4175 3.26730E-03 1.72483E-04-2.35688E-15
 -1      4176 3.12273E-03 1.72417E-04-2.15546E-15
 -1      4177 3.04836E-03 1.34711E-04-2.09503E-15
 -1      4178 3.33771E-03 1.34773E-04-2.50108E-15
 -1      4179 1.76076E-03-3.14974E-05-8.14168E-16
 -1      4180 6.69365E-03-2.13161E-04-1.05476E-14
 -1      4181 6.79814E-03-2.07336E-04-1.07897E-14
 -1      4182 6.85062E-03-1.47047E-04-1.07537E-14
 -1      4183 2.85546E-03-8.28189E-05-2.00884E-15
 -1      4184 3.00049E-03-8.31672E-05-2.20536E-15
 -1      4185 2.78192E-03-4.53326E-05-1.89085E-15
 -1      4186 2.27344E-03-7.88864E-05-1.31539E-15
 -1      4187 2.41866E-03-8.00338E-05-1.47403E-15
 -1      4188 2.49023E-03-4.38654E-05-1.53698E-15
 -1      4189 2.19751E-03-4.12551E-05-1.22047E-15
 -1      4190 1.28839E-02-2.23675E-03-2.85852E-14
 -1      4191 1.30217E-02-2.33211E-03-2.92256E-14
 -1      4192 1.30012E-02-2.34604E-03-2.95291E-14
 -1      4193 6.29867E-03 3.87054E-05-8.90768E-15
 -1      4194 6.14768E-03 4.47450E-05-8.50417E-15
 -1      4195 6.06317E-03 5.42979E-06-8.36930E-15
 -1      4196 1.23357E-02-1.86844E-03-2.60435E-14
 -1      4197 1.24713E-02-1.95738E-03-2.66690E-14
 -1      4198 1.24441E-02-1.96877E-03-2.69565E-14
 -1      4199 5.41663E-03 7.19110E-05-6.62338E-15
 -1      4200 5.27300E-03 7.59210E-05-6.27600E-15
 -1      4201 5.19784E-03 4.02027E-05-6.16410E-15
 -1      4202 5.48358E-03 3.12940E-05-6.86148E-15
 -1      4203 1.16860E-02-1.52789E-03-2.41549E-14
 -1      4204 2.04368E-03 2.20101E-05-1.03910E-15
 -1      4205 6.19058E-03-1.20694E-04-8.99149E-15
 -1      4206 6.24349E-03-1.65951E-04-9.24940E-15
 -1      4207 6.36261E-03-1.79855E-04-9.60060E-15
 -1      4208 1.21561E-02-1.78336E-03-2.56582E-14
 -1      4209 1.33128E-02-2.57319E-03-3.11338E-14
 -1      4210 3.07210E-03-4.57860E-05-2.28206E-15
 -1      4211 4.84376E-03 8.52072E-05-5.29668E-15
 -1      4212 4.70084E-03 8.75000E-05-4.98969E-15
 -1      4213 4.91280E-03 4.67534E-05-5.50908E-15
 -1      4214 4.20141E-03 1.30522E-04-3.93956E-15
 -1      4215 3.98477E-03 9.47218E-05-3.59582E-15
 -1      4216 3.84103E-03 9.55370E-05-3.34535E-15
 -1      4217 3.11925E-03 9.72015E-05-2.22901E-15
 -1      4218 2.97433E-03 9.70462E-05-2.03349E-15
 -1      4219 1.11462E-02-1.23621E-03-2.25990E-14
 -1      4220 1.30442E-02-2.55483E-03-3.24842E-14
 -1      4221 2.82927E-03 9.66847E-05-1.84672E-15
 -1      4222 2.68410E-03 9.61156E-05-1.66996E-15
 -1      4223 2.90069E-03 5.94586E-05-1.97008E-15
 -1      4224 1.31410E-02-2.46866E-03-3.05562E-14
 -1      4225 1.30905E-02-2.51911E-03-3.16244E-14
 -1      4226 1.27221E-02-2.15484E-03-2.82354E-14
 -1      4227 3.76813E-03 5.83719E-05-3.26529E-15
 -1      4228 3.69709E-03 9.61797E-05-3.10398E-15
 -1      4229 3.55294E-03 9.66742E-05-2.87133E-15
 -1      4230 1.30366E-02-2.44187E-03-3.07550E-14
 -1      4231 1.31087E-02-2.50629E-03-3.13130E-14
 -1      4232 2.54289E-03 9.09401E-05-1.50972E-15
 -1      4233 2.39764E-03 8.99022E-05-1.35090E-15
 -1      4234 2.33196E-03 4.45902E-05-1.31207E-15
 -1      4235 2.61434E-03 5.43894E-05-1.61955E-15
 -1      4236 6.36499E-03-7.87618E-06-9.17810E-15
 -1      4237 6.56905E-03-1.97581E-04-1.01860E-14
 -1      4238 1.23835E-02-1.99351E-03-2.76684E-14
 -1      4239 1.22408E-02-1.89984E-03-2.70293E-14
 -1      4240 3.56461E-03 6.32478E-06-2.98386E-15
 -1      4241 3.71590E-03 5.97983E-06-3.23374E-15
 -1      4242 3.85973E-03 5.52141E-06-3.48140E-15
 -1      4243 4.00328E-03 4.94113E-06-3.73773E-15
 -1      4244 4.45222E-03-1.30164E-05-4.62216E-15
 -1      4245 4.59454E-03-1.45335E-05-4.91724E-15
 -1      4246 4.71697E-03-1.43757E-06-5.15798E-15
 -1      4247 4.85894E-03-3.77509E-06-5.47017E-15
 -1      4248 5.00074E-03-6.64412E-06-5.79005E-15
 -1      4249 5.14235E-03-1.01192E-05-6.12100E-15
 -1      4250 5.28394E-03-1.42979E-05-6.46279E-15
 -1      4251 5.42548E-03-1.92848E-05-6.81296E-15
 -1      4252 5.56725E-03-2.51399E-05-7.17486E-15
 -1      4253 5.70927E-03-3.20022E-05-7.54578E-15
 -1      4254 5.85196E-03-3.98174E-05-7.92491E-15
 -1      4255 5.99539E-03-4.87649E-05-8.31500E-15
 -1      4256 1.21876E-02-1.84764E-03-2.65027E-14
 -1      4257 1.20445E-02-1.75661E-03-2.58739E-14
 -1      4258 4.12831E-03 9.37335E-05-3.85625E-15
 -1      4259 4.05552E-03 5.69156E-05-3.77058E-15
 -1      4260 4.27166E-03 9.25414E-05-4.12516E-15
 -1      4261 1.30181E-02-2.38141E-03-2.99514E-14
 -1      4262 1.30183E-02-2.40673E-03-3.03272E-14
 -1      4263 1.29127E-02-2.35441E-03-3.01459E-14
 -1      4264 1.28781E-02-2.28506E-03-2.93008E-14
 -1      4265 6.14024E-03-5.84976E-05-8.71100E-15
 -1      4266 1.12463E-02-1.30003E-03-2.31506E-14
 -1      4267 1.14151E-02-1.39744E-03-2.37353E-14
 -1      4268 1.27712E-02-2.25756E-03-2.94931E-14
 -1      4269 1.97397E-03-1.70269E-05-9.93983E-16
 -1      4270 2.12069E-03-4.59074E-07-1.12398E-15
 -1      4271 6.26534E-03-6.75454E-05-9.05574E-15
 -1      4272 2.98592E-03 6.92191E-06-2.12421E-15
 -1      4273 3.13090E-03 6.86543E-06-2.32606E-15
 -1      4274 6.79551E-03-9.20285E-05-1.04774E-14
 -1      4275 4.57752E-03 7.42046E-05-4.75465E-15
 -1      4276 4.43457E-03 7.59040E-05-4.46457E-15
 -1      4277 2.26692E-03-1.12402E-06-1.27116E-15
 -1      4278 6.63743E-03-8.33223E-05-1.00522E-14
 -1      4279 3.40857E-03 9.70056E-05-2.64822E-15
 -1      4280 3.26401E-03 9.71907E-05-2.43370E-15
 -1      4281 3.19063E-03 5.95955E-05-2.36497E-15
 -1      4282 3.47982E-03 5.92365E-05-2.79743E-15
 -1      4283 2.69553E-03 6.93514E-06-1.74979E-15
 -1      4284 2.84078E-03 6.95524E-06-1.93241E-15
 -1      4285 1.18889E-02-1.66007E-03-2.52021E-14
 -1      4286 6.52384E-03-1.45690E-04-9.92008E-15
 -1      4287 3.27569E-03 6.74258E-06-2.53625E-15
 -1      4288 3.42027E-03 6.57826E-06-2.75531E-15
 -1      4289 6.41693E-03-7.61082E-05-9.46931E-15
 -1      4290 4.14656E-03 4.17551E-06-4.00355E-15
 -1      4291 2.40798E-03 3.17418E-06-1.41914E-15
 -1      4292 2.55441E-03 2.52796E-06-1.58410E-15
 -1      4293 4.64728E-03 3.62627E-05-4.95610E-15
 -1      4294 4.28955E-03 3.21900E-06-4.27804E-15
 -1      4295 1.27542E-02-2.22358E-03-2.90714E-14
 -1      4296 1.26296E-02-2.16144E-03-2.88409E-14
 -1      4297 1.24877E-02-2.06608E-03-2.81914E-14
 -1      4298 1.27382E-02-2.18963E-03-2.86532E-14
 -1      4299 4.36184E-03 3.95544E-05-4.37286E-15
 -1      4300 1.23553E-02-1.93067E-03-2.68504E-14
 -1      4301 1.24951E-02-2.02266E-03-2.74859E-14
 -1      4302 1.17425E-02-1.57077E-03-2.45794E-14
 -1      4303 1.25102E-02-2.05569E-03-2.79006E-14
 -1      4304 1.25972E-02-2.09444E-03-2.80067E-14
 -3
    1PSTEP                         2           1           1          
  100CL  101 1.000000000        4304                     0    1           1
 -4  STRESS      6    1
 -5  SXX         1    4    1    1
 -5  SYY         1    4    2    2
 -5  SZZ         1    4    3    3
 -5  SXY         1    4    1    2
 -5  SYZ         1    4    2    3
 -5  SZX         1    4    3    1
 -1         1 4.26981E+00 3.06010E+00-1.96654E+00 4.11164E+00-5.03375E-13-4.59299E-13
 -1         2-6.72537E-01-2.76874E+01-3.50544E+00 1.64695E-01-7.66331E-14-6.98851E-14
 -1         3 1.99992E+01-6.03890E-04 1.96230E-03-6.09197E-04-2.55148E-13-3.57515E-13
 -1         4 1.99990E+01-7.71280E-04 3.36665E-03 5.46917E-04-3.52048E-14 2.57083E-13
 -1         5 3.27594E+01 6.14099E+00 2.74138E+00 6.22290E+00-1.82285E-14 1.18811E-12
 -1         6 3.57426E+01 1.22600E+01 5.12397E+00-8.64475E+00-6.37268E-14 6.56142E-13
 -1         7 2.08146E+01 6.09850E+00-1.28625E-01-4.72481E+00-1.25316E-14 6.02643E-15
 -1         8 1.96699E+01 5.93439E+00 5.09968E-02-3.27438E+00-3.90660E-15-1.61339E-13
 -1         9 1.91374E+01 5.77190E+00 4.92275E-02-2.52613E+00-3.82333E-15-2.49502E-13
 -1        10 1.88960E+01 5.69240E+00 5.10132E-02-1.95066E+00 5.14346E-16-2.71907E-13
 -1        11 1.87757E+01 5.65181E+00 5.03308E-02-1.45561E+00-1.38301E-15-2.65460E-13
 -1        12 1.87128E+01 5.63039E+00 4.88597E-02-1.01460E+00 3.56529E-15-2.53912E-13
 -1        13 1.86796E+01 5.61903E+00 4.74353E-02-5.94882E-01 3.27158E-15-2.30523E-13
 -1        14 1.86655E+01 5.61422E+00 4.66922E-02-1.90926E-01 5.88139E-15-2.10095E-13
 -1        15 1.86660E+01 5.61435E+00 4.67283E-02 2.08235E-01 8.46724E-15-1.83624E-13
 -1        16 1.86809E+01 5.61945E+00 4.75549E-02 6.12971E-01 9.08572E-15-1.54791E-13
 -1        17 1.87152E+01 5.63103E+00 4.90847E-02 1.03454E+00 7.89646E-15-1.07920E-13
 -1        18 1.87794E+01 5.65288E+00 5.08307E-02 1.47848E+00 1.17211E-14-4.88296E-14
 -1        19 1.89020E+01 5.69410E+00 5.16946E-02 1.97947E+00 1.35864E-14 3.44629E-14
 -1        20 1.91430E+01 5.77452E+00 4.91779E-02 2.56336E+00 1.53280E-14 1.47207E-13
 -1        21 1.96650E+01 5.94890E+00 4.58393E-02 3.30827E+00 1.47590E-14 3.36800E-13
 -1        22 2.11973E+01 6.38024E+00 1.39444E-01 4.52213E+00 1.34615E-15 6.40857E-13
 -1        23 2.30226E+01-1.37888E+00-9.38173E-01-7.11070E-01-4.51306E-14 4.33889E-13
 -1        24 1.93605E+01-9.94787E-02-3.09781E-01 6.31741E-02-4.86590E-15 2.73399E-13
 -1        25 1.86724E+01-5.63352E-02-6.87936E-02 6.06697E-02-3.08716E-15 1.20522E-13
 -1        26 1.84702E+01-2.21162E-02-6.49330E-03 3.29293E-02 7.29234E-15-1.89015E-14
 -1        27 1.84822E+01-1.18455E-02 1.57614E-03 2.25298E-02-3.96265E-15-1.03783E-13
 -1        28 1.85973E+01-6.31213E-03 1.74475E-03 1.62077E-02-5.70935E-15-1.40769E-13
 -1        29 1.87589E+01-3.19546E-03 1.65689E-03 1.20421E-02 8.16233E-15-1.75271E-13
 -1        30 1.89362E+01-1.39397E-03 1.80454E-03 9.06070E-03 4.19666E-15-2.44382E-13
 -1        31 1.91120E+01-3.76593E-04 1.90797E-03 6.80632E-03-3.27832E-15-2.56830E-13
 -1        32 1.92777E+01 1.35326E-04 1.85113E-03 5.04720E-03-7.04942E-15-3.10199E-13
 -1        33 1.94297E+01 2.92935E-04 1.62532E-03 3.65190E-03 2.85776E-14-3.07156E-13
 -1        34 1.95685E+01 1.73170E-04 1.23998E-03 2.53849E-03-2.20264E-14-3.78736E-13
 -1        35 1.96977E+01-2.00186E-04 6.82243E-04 1.65451E-03 1.12276E-14-4.16536E-13
 -1        36 1.98239E+01-8.51805E-04-1.04381E-04 9.73474E-04 6.19464E-15-4.11738E-13
 -1        37 1.99574E+01-1.86128E-03-1.24490E-03 5.03969E-04-3.60563E-14-4.72304E-13
 -1        38 2.01137E+01-3.33418E-03-2.96183E-03 3.35222E-04-4.62491E-14-5.71898E-13
 -1        39 2.03159E+01-6.01678E-03-5.77565E-03 1.65462E-04 2.25747E-14-4.48601E-13
 -1        40 2.06171E+01-9.05760E-03-1.04485E-02 2.03547E-03-1.29680E-14-4.49826E-13
 -1        41 2.10482E+01-1.42936E-02-1.82471E-02 5.08075E-03-1.10066E-14-3.79765E-13
 -1        42 2.17102E+01-2.14829E-02-3.13571E-02 1.20799E-02 2.13844E-14-1.75398E-13
 -1        43 2.27420E+01-3.09771E-02-5.28250E-02 2.66943E-02 1.90362E-14-2.06501E-13
 -1        44 2.43495E+01-4.14887E-02-8.43933E-02 5.58023E-02 2.13770E-14-9.10799E-14
 -1        45 2.68081E+01-4.77697E-02-1.17681E-01 1.09962E-01 1.04227E-14-7.56270E-14
 -1        46 3.03920E+01-3.59589E-02-1.10236E-01 1.97873E-01-1.75979E-14-6.77930E-15
 -1        47 3.50793E+01 1.85934E-02 4.41573E-02 2.98041E-01-3.20897E-14-1.00336E-14
 -1        48 3.97128E+01 1.05017E-01 4.31048E-01 2.38696E-01-2.16546E-14 2.61631E-13
 -1        49 4.11456E+01 1.42534E-01 7.48932E-01-2.72086E-01-8.96852E-16 1.18461E-13
 -1        50 3.71603E+01 2.04977E-01 4.94471E-01-9.62008E-01-1.08779E-13 8.29337E-14
 -1        51 2.73271E+01-7.26260E-03-8.88389E-01-1.25593E+00 9.86537E-14-5.16809E-14
 -1        52 1.70810E+01-1.68265E-01-2.61372E+00-7.89980E-01 3.08573E-14 2.06113E-13
 -1        53 1.66860E+01-1.31941E-01-2.69018E+00 6.50933E-01-2.36755E-14 1.21791E-13
 -1        54 2.71603E+01-6.59009E-02-9.17974E-01 1.18878E+00 7.88484E-14 3.23075E-13
 -1        55 3.74801E+01 1.11039E-01 5.68886E-01 7.65852E-01-2.08427E-14 4.74509E-13
 -1        56 4.14663E+01 8.87927E-02 7.43199E-01 4.62980E-03-3.16682E-14-4.92870E-14
 -1        57 3.83212E+01 4.81737E-02 2.68544E-01-2.10337E-01 4.35271E-14-1.06165E-14
 -1        58 3.33411E+01-7.21478E-03-4.20763E-02-1.87059E-01 6.65613E-14 4.86014E-13
 -1        59 2.89705E+01-2.99679E-02-1.28512E-01-1.16904E-01-1.94981E-13 6.01255E-13
 -1        60 2.58062E+01-3.19386E-02-1.12025E-01-6.36363E-02 6.87191E-14 3.55348E-13
 -1        61 2.36919E+01-2.58494E-02-7.56090E-02-3.25420E-02-4.61126E-14 2.61915E-13
 -1        62 2.23286E+01-1.87102E-02-4.64267E-02-1.59735E-02 7.67256E-14 1.53872E-13
 -1        63 2.14624E+01-1.28309E-02-2.76076E-02-7.55110E-03-5.76789E-14 5.18115E-13
 -1        64 2.09140E+01-8.56251E-03-1.63385E-02-3.39330E-03 5.85176E-15 5.12294E-13
 -1        65 2.05659E+01-5.64492E-03-9.73477E-03-1.39657E-03-7.22917E-14 2.34032E-13
 -1        66 2.03434E+01-3.71385E-03-5.87191E-03-4.76216E-04-7.53531E-14-2.08377E-13
 -1        67 2.02001E+01-2.46214E-03-3.61626E-03-8.25617E-05 2.09453E-13 6.84705E-13
 -1        68 2.01075E+01-1.66701E-03-2.33376E-03 6.58583E-05 1.38552E-13 1.24064E-12
 -1        69 2.00482E+01-1.17486E-03-1.67937E-03 1.24564E-04-2.05522E-13 1.21184E-12
 -1        70 2.00123E+01-8.70914E-04-1.42658E-03 2.13320E-04 8.96191E-14 7.85080E-13
 -1        71 1.99950E+01-6.67765E-04-1.18562E-03 4.74968E-04-2.02453E-13 1.75503E-13
 -1        72 1.99939E+01-1.14347E-04 3.05931E-04 1.40703E-03 1.14744E-13-5.67116E-13
 -1        73 2.10362E+01-4.05028E-01-9.80433E-01-3.11527E-01 1.52413E-14 1.17061E-12
 -1        74 1.93257E+01-6.65898E-02-2.90765E-01-5.38304E-02 2.14802E-15 1.03619E-12
 -1        75 1.86824E+01-2.12543E-02-6.37142E-02-2.09846E-02 1.56665E-14 9.43299E-13
 -1        76 1.84811E+01-1.05114E-02-9.10489E-03-1.60104E-02-9.17506E-15 8.66005E-13
 -1        77 1.84934E+01-5.42916E-03 5.42017E-04-1.26430E-02-1.08984E-14 8.27777E-13
 -1        78 1.86086E+01-2.68627E-03 1.61277E-03-1.01088E-02 1.47923E-14 8.18732E-13
 -1        79 1.87707E+01-1.15585E-03 1.78358E-03-8.23618E-03-1.73651E-15 7.46849E-13
 -1        80 1.89488E+01-2.85547E-04 1.93839E-03-6.74331E-03 8.79957E-15 7.67103E-13
 -1        81 1.91261E+01 1.95893E-04 2.00711E-03-5.49779E-03-1.48780E-14 7.84912E-13
 -1        82 1.92934E+01 4.39472E-04 1.93413E-03-4.45453E-03 2.19707E-14 7.66735E-13
 -1        83 1.94466E+01 5.41595E-04 1.74264E-03-3.60260E-03 3.84074E-15 6.04051E-13
 -1        84 1.95848E+01 5.71804E-04 1.48668E-03-2.94546E-03 1.11792E-14 5.67862E-13
 -1        85 1.97086E+01 5.87137E-04 1.22968E-03-2.49347E-03-1.95791E-14 4.71531E-13
 -1        86 1.98192E+01 6.40117E-04 1.04335E-03-2.25913E-03-4.46098E-15 4.22641E-13
 -1        87 1.99173E+01 7.82708E-04 1.01315E-03-2.25075E-03 3.30305E-14 1.04302E-13
 -1        88 2.00020E+01 1.06618E-03 1.24287E-03-2.46130E-03-6.99789E-14 1.54722E-13
 -1        89 2.00693E+01 1.53550E-03 1.85286E-03-2.85001E-03 1.18243E-15 2.98317E-13
 -1        90 2.01111E+01 2.21596E-03 2.96453E-03-3.31535E-03 4.60076E-14 2.41719E-14
 -1        91 2.01139E+01 3.09053E-03 4.66205E-03-3.66217E-03-5.33993E-14-1.20847E-13
 -1        92 2.00579E+01 4.06879E-03 6.92303E-03-3.57339E-03 2.48055E-14-1.09325E-13
 -1        93 1.99177E+01 4.95527E-03 9.51953E-03-2.60867E-03-1.45467E-14-1.66666E-13
 -1        94 1.96656E+01 5.43494E-03 1.19131E-02-2.66156E-04-2.41143E-15-1.78646E-13
 -1        95 1.92771E+01 5.10531E-03 1.32073E-02 3.85394E-03-1.71816E-14-2.59742E-13
 -1        96 1.87410E+01 3.58581E-03 1.22593E-02 9.77237E-03-7.28370E-14 3.95239E-14
 -1        97 1.80709E+01 7.07729E-04 8.04398E-03 1.68109E-02 6.63849E-15 6.07334E-13
 -1        98 1.73159E+01-3.27458E-03 2.57479E-04 2.34239E-02 2.27009E-14 2.31641E-13
 -1        99 1.65622E+01-7.58783E-03-1.00990E-02 2.74365E-02-1.63682E-15-1.24463E-13
 -1       100 1.59228E+01-1.10938E-02-2.05945E-02 2.68101E-02-1.32095E-14-4.09318E-13
 -1       101 1.55110E+01-1.27027E-02-2.80440E-02 2.06770E-02 1.89452E-14-5.01711E-13
 -1       102 1.54077E+01-1.18689E-02-2.98620E-02 1.00455E-02-3.59646E-14-5.67557E-13
 -1       103 1.56340E+01-8.86082E-03-2.53594E-02-2.39597E-03-4.11379E-15-3.91484E-13
 -1       104 1.61438E+01-4.62194E-03-1.61320E-02-1.34040E-02-7.44511E-15-4.18467E-13
 -1       105 1.68402E+01-3.27292E-04-5.21949E-03-2.05579E-02-6.63372E-14 1.26789E-13
 -1       106 1.76061E+01 3.07995E-03 4.34672E-03-2.30517E-02 7.96936E-14 1.17283E-13
 -1       107 1.83370E+01 5.14007E-03 1.06842E-02-2.15855E-02-8.36638E-14-1.84488E-13
 -1       108 1.89609E+01 5.86785E-03 1.33874E-02-1.76704E-02 4.29995E-14-6.09371E-13
 -1       109 1.94435E+01 5.58004E-03 1.31478E-02-1.28715E-02 6.74227E-14-7.60890E-13
 -1       110 1.97829E+01 4.69297E-03 1.11152E-02-8.33967E-03-1.56235E-13-5.31008E-13
 -1       111 1.99973E+01 3.57677E-03 8.37407E-03-4.68612E-03 1.91277E-14-3.07064E-13
 -1       112 2.01142E+01 2.48898E-03 5.68584E-03-2.07987E-03 6.20542E-14-5.92191E-13
 -1       113 2.01622E+01 1.56927E-03 3.45312E-03-4.20219E-04 8.20241E-15-6.07580E-13
 -1       114 2.01661E+01 8.65453E-04 1.80180E-03 5.09816E-04-1.14564E-13-3.01930E-13
 -1       115 2.01449E+01 3.67687E-04 6.90488E-04 9.42227E-04 3.63607E-14-1.60007E-13
 -1       116 2.01122E+01 3.75690E-05-2.19265E-07 1.07265E-03 5.41349E-14-4.61983E-13
 -1       117 2.00770E+01-1.71518E-04-4.13237E-04 1.04194E-03-7.12998E-14-3.94825E-13
 -1       118 2.00447E+01-3.00694E-04-6.87071E-04 9.29960E-04 4.91032E-14-3.70903E-13
 -1       119 2.00190E+01-3.64877E-04-9.18773E-04 7.51396E-04 6.27268E-15-5.17279E-13
 -1       120 2.00027E+01-3.22889E-04-9.70271E-04 3.70975E-04-8.71061E-14-2.36060E-13
 -1       121 1.99979E+01 3.53608E-04 3.40097E-05-4.90993E-04 1.80618E-13-2.74041E-13
 -1       122 1.99998E+01-1.55588E-03 3.12820E-05-7.78132E-04-3.68744E-13-1.16492E-13
 -1       123 1.99993E+01 3.32853E-03-8.65107E-04-3.48341E-06-1.75907E-13-1.01814E-13
 -1       124 1.99994E+01 1.87932E-02-6.92560E-04 5.07682E-04 1.69621E-13 1.28119E-13
 -1       125 1.99996E+01 4.11841E-02-3.37223E-04 6.98397E-04-6.68594E-14-1.65541E-13
 -1       126 1.99998E+01 6.69892E-02-1.08377E-05 7.70323E-04 2.35971E-13 7.12312E-14
 -1       127 2.00000E+01 9.23613E-02 3.10078E-04 7.32365E-04 3.77742E-13-5.05987E-14
 -1       128 2.00003E+01 1.14534E-01 6.28810E-04 5.76155E-04-2.83941E-13-2.74893E-13
 -1       129 2.00004E+01 1.29458E-01 9.11090E-04 2.93666E-04-4.04888E-13 1.73484E-13
 -1       130 2.00006E+01 1.33989E-01 1.08793E-03-1.01893E-04 4.10677E-13 6.04959E-14
 -1       131 2.00006E+01 1.26212E-01 1.07864E-03-5.57787E-04 4.78180E-13-1.78046E-14
 -1       132 2.00004E+01 1.06284E-01 8.13937E-04-9.89554E-04-3.18053E-13-3.58438E-13
 -1       133 2.00001E+01 7.75358E-02 2.92201E-04-1.22588E-03-7.00405E-13 3.95213E-13
 -1       134 1.99997E+01 4.44725E-02-4.55654E-04-1.17616E-03 6.88748E-13-4.65168E-14
 -1       135 1.99993E+01 1.50267E-02-1.19585E-03-6.78748E-04 1.15410E-12 1.16939E-13
 -1       136 1.99994E+01-3.22019E-03-1.34352E-03 5.21763E-04 7.99268E-13-4.65181E-13
 -1       137 1.99994E+01-5.89470E-03 1.14638E-04 1.69440E-03-8.55118E-14 3.51642E-14
 -1       138-1.33138E+00-1.98884E+01-2.96205E+00-3.72796E+00-1.44162E-13 5.58720E-14
 -1       139-9.02330E-01-5.96896E+00-1.98033E+00-1.83739E+00 5.53280E-13 2.03837E-13
 -1       140 4.89951E+00 6.57972E+00-7.06204E-01 5.85626E+00 1.30984E-12 1.23790E-12
 -1       141 2.01809E+01 1.29609E+01 7.90840E-01 1.59825E+01 1.15224E-12 1.33721E-12
 -1       142 4.03337E+01 1.09764E+01 2.08894E+00 2.04051E+01 6.21420E-13 1.04278E-12
 -1       143 6.00849E+01 5.20965E+00 3.07747E+00 1.58883E+01 7.07351E-14 2.88380E-13
 -1       144 7.09002E+01 1.08388E+00 3.56795E+00 3.22174E+00 2.36235E-14-5.75109E-13
 -1       145 6.67070E+01 2.73672E+00 3.40062E+00-1.12628E+01 4.44821E-13-1.73953E-12
 -1       146 4.90765E+01 8.79990E+00 2.57773E+00-1.98364E+01 6.56669E-13-1.98053E-12
 -1       147 2.72096E+01 1.30128E+01 1.31117E+00-1.84966E+01 1.04694E-12-1.49181E-12
 -1       148 1.01117E+01 1.04298E+01-7.11699E-02-1.03044E+01 1.13615E-12-1.13343E-12
 -1       149 1.14919E+00 3.72073E-01-1.38336E+00-1.47422E+00 1.55798E-12-7.80653E-13
 -1       150-1.57781E+00-1.41268E+01-2.54583E+00 3.74635E+00 9.92983E-13-4.67654E-13
 -1       151-8.20799E-01-2.50571E+01-3.29472E+00 2.04989E+00-6.00076E-14-6.08864E-14
 -1       152-1.11231E+00-2.80524E+01-3.64363E+00-3.21941E+00-9.57300E-13-1.35020E-13
 -1       153-2.99043E+00-2.15687E+01-3.58575E+00-6.95097E+00-5.14921E-13-5.71904E-14
 -1       154-3.02286E+00-8.98656E+00-3.08455E+00-4.58671E+00-4.79616E-13-4.05342E-13
 -1       155 2.49377E+01 9.51665E+00 3.12488E-01 1.52921E+01 2.14662E-13 3.50164E-13
 -1       156 5.51461E+01 8.07949E+00 3.46962E+00 2.01223E+01 2.45304E-13 3.91243E-13
 -1       157 8.19984E+01 3.22071E+00 6.33880E+00 1.20514E+01-5.89563E-14 4.99600E-14
 -1       158 8.80410E+01 1.84388E+00 7.02290E+00-5.19975E+00 4.50959E-14-4.34569E-13
 -1       159 6.90085E+01 5.89655E+00 4.97670E+00-1.80781E+01-1.79023E-14-2.79221E-13
 -1       160 3.85697E+01 9.72257E+00 1.74858E+00-1.89497E+01 2.17604E-14-6.99441E-14
 -1       161 1.28777E+01 7.41969E+00-9.56142E-01-1.00047E+01 3.46390E-14-6.43929E-14
 -1       162-5.94431E-01-2.86500E+00-2.64039E+00 8.90468E-01-4.99711E-13 3.67817E-13
 -1       163-3.65053E+00-1.66263E+01-3.43182E+00 6.82069E+00-7.44904E-13 4.23828E-13
 -1       164-1.81165E+00-2.63035E+01-3.65714E+00 5.37214E+00-2.31495E-13-3.86423E-14
 -1       165 2.10102E+01 3.69344E+00-5.73291E-02-3.60957E+00-1.16161E-13-7.05304E-14
 -1       166 1.99899E+01 4.20745E+00-4.57111E-02-2.80870E+00-8.64916E-14-1.65926E-13
 -1       167 1.95095E+01 4.47711E+00-3.15795E-02-2.19351E+00-5.06847E-14-2.10398E-13
 -1       168 1.92690E+01 4.61559E+00-2.37248E-02-1.67470E+00-1.97071E-14-2.26595E-13
 -1       169 1.91396E+01 4.69766E+00-1.94710E-02-1.21829E+00 4.12181E-15-2.12028E-13
 -1       170 1.90661E+01 4.74910E+00-1.73982E-02-7.91369E-01 3.29693E-14-1.97232E-13
 -1       171 1.90290E+01 4.77720E+00-1.64050E-02-3.86430E-01 5.72200E-14-1.79592E-13
 -1       172 1.90181E+01 4.78582E+00-1.61170E-02 8.42516E-03 7.60075E-14-1.55449E-13
 -1       173 1.90305E+01 4.77596E+00-1.64502E-02 4.03593E-01 8.78992E-14-1.27499E-13
 -1       174 1.90694E+01 4.74620E+00-1.75036E-02 8.09558E-01 1.06966E-13-9.55685E-14
 -1       175 1.91435E+01 4.69348E+00-1.96697E-02 1.23088E+00 1.22105E-13-4.80787E-14
 -1       176 1.92782E+01 4.60611E+00-2.39714E-02 1.69741E+00 1.46055E-13 1.37442E-14
 -1       177 1.95245E+01 4.45983E+00-3.26038E-02 2.22484E+00 1.63777E-13 9.98698E-14
 -1       178 2.00116E+01 4.18381E+00-4.71556E-02 2.84703E+00 1.63773E-13 2.40398E-13
 -1       179 2.11319E+01 3.46308E+00-6.00482E-02 3.53541E+00 1.25436E-13 4.34527E-13
 -1       180 2.24146E+01 1.14342E+00-3.36504E-01 3.01411E+00 6.58362E-14 6.80567E-13
 -1       181 2.19670E+01 8.58135E-01 6.59301E-04-1.95860E+00-1.04257E-13 7.99812E-14
 -1       182 2.04431E+01 1.90165E-01-9.98253E-03-7.63934E-01-8.80060E-14 2.70374E-14
 -1       183 1.96681E+01 1.01803E-01 1.35704E-02-2.85300E-01-5.91974E-14-1.17571E-14
 -1       184 1.93293E+01 4.72631E-02 1.00231E-02-6.72936E-02-6.32847E-14-5.36598E-14
 -1       185 1.92010E+01 2.27591E-02 5.17606E-03 4.04015E-02-2.16784E-14-5.98122E-14
 -1       186 1.91897E+01 9.86557E-03 2.45779E-03 9.38144E-02-1.91309E-14-8.25967E-14
 -1       187 1.92416E+01 2.63743E-03 1.17262E-03 1.17413E-01-4.16392E-14-6.72723E-14
 -1       188 1.93259E+01-1.34667E-03 5.60225E-04 1.24134E-01-1.64380E-14-1.02576E-13
 -1       189 1.94246E+01-3.28180E-03 2.55707E-04 1.21665E-01-4.27981E-14-1.06298E-13
 -1       190 1.95276E+01-3.81313E-03 1.14179E-04 1.15000E-01-4.58215E-14-1.58450E-13
 -1       191 1.96303E+01-3.28385E-03 8.03581E-05 1.07682E-01-2.23671E-14-2.48657E-13
 -1       192 1.97318E+01-1.82802E-03 1.34781E-04 1.02529E-01-2.84877E-14-2.36194E-13
 -1       193 1.98347E+01 6.12021E-04 2.77313E-04 1.02195E-01 1.93714E-14-1.98750E-13
 -1       194 1.99442E+01 4.31698E-03 5.23882E-04 1.09704E-01-1.00665E-15-1.30742E-13
 -1       195 2.00695E+01 9.86569E-03 9.05193E-04 1.29130E-01-8.06020E-14-1.87340E-14
 -1       196 2.02243E+01 1.81995E-02 1.50759E-03 1.66284E-01 7.05756E-15-3.81157E-14
 -1       197 2.04404E+01 3.21148E-02 2.34901E-03 2.34859E-01-1.07569E-14-8.84350E-14
 -1       198 2.07288E+01 5.27632E-02 3.53628E-03 3.43833E-01 2.27810E-14-7.68889E-14
 -1       199 2.11407E+01 8.48323E-02 4.95028E-03 5.17125E-01 6.96708E-14-1.48796E-13
 -1       200 2.17358E+01 1.33375E-01 6.18210E-03 7.87195E-01 2.86715E-14-1.47046E-13
 -1       201 2.25924E+01 2.02555E-01 6.19640E-03 1.19506E+00 6.06967E-14-1.61333E-13
 -1       202 2.38013E+01 2.87321E-01 3.52113E-03 1.77788E+00 8.18417E-14-1.94360E-13
 -1       203 2.54449E+01 3.48541E-01-1.47938E-03 2.52113E+00 1.10732E-13-9.13913E-14
 -1       204 2.75528E+01 2.59368E-01 8.08590E-04 3.22874E+00 1.14992E-14 1.14578E-14
 -1       205 3.00407E+01-2.78617E-01 2.80545E-02 3.29217E+00 5.72337E-14 5.26159E-14
 -1       206 3.24427E+01-1.36661E+00 7.05371E-02 1.82025E+00 3.72341E-14 9.03626E-14
 -1       207 3.44852E+01-2.45953E+00 4.56823E-02-1.27797E+00-7.56582E-14 1.14915E-13
 -1       208 3.38423E+01 1.09758E+00-4.21863E-01-5.53132E+00 1.42386E-13 1.98167E-13
 -1       209 3.24291E+01 3.36857E+00-6.40630E-01 2.31100E-01 4.47697E-14 1.24227E-13
 -1       210 3.37466E+01 1.09661E+00-4.28013E-01 5.63095E+00 1.42691E-13 4.04912E-13
 -1       211 3.51861E+01-1.41856E+00-1.52884E-01 5.42016E+00 1.66187E-14 2.55643E-13
 -1       212 3.52578E+01-1.63091E+00 1.29118E-01 9.06096E-01-3.04291E-13 8.68732E-14
 -1       213 3.31185E+01-5.84598E-01 9.09293E-02-2.11666E+00 4.22370E-14 4.79512E-14
 -1       214 3.02446E+01 2.55916E-02 1.28631E-02-2.86991E+00 2.19633E-13 1.96350E-13
 -1       215 2.74740E+01 2.19382E-01-1.49457E-02-2.48593E+00 3.34841E-14 1.41233E-13
 -1       216 2.52204E+01 2.14170E-01-1.24512E-02-1.82154E+00-4.09820E-14 2.89792E-13
 -1       217 2.35461E+01 1.59755E-01-4.55272E-03-1.23910E+00-4.97449E-14 2.18957E-13
 -1       218 2.23682E+01 1.07769E-01 3.00228E-04-8.13513E-01-3.85373E-14 2.99419E-13
 -1       219 2.15651E+01 6.94883E-02 2.01477E-03-5.25829E-01 1.09437E-13-3.44911E-14
 -1       220 2.10266E+01 4.39425E-02 2.15407E-03-3.38303E-01-3.58242E-15 9.31373E-14
 -1       221 2.06681E+01 2.76125E-02 1.76322E-03-2.18012E-01-2.37798E-13 4.88287E-14
 -1       222 2.04298E+01 1.73802E-02 1.30436E-03-1.41222E-01-1.49875E-13 6.69107E-14
 -1       223 2.02711E+01 1.10397E-02 9.23668E-04-9.20449E-02 3.63176E-13 3.31600E-13
 -1       224 2.01652E+01 7.16620E-03 6.39611E-04-6.01593E-02 2.17067E-13 1.12857E-13
 -1       225 2.00949E+01 4.88048E-03 4.25080E-04-3.88802E-02-2.69536E-14 4.94480E-13
 -1       226 2.00490E+01 3.66244E-03 2.47670E-04-2.38162E-02-9.94801E-14 4.29352E-13
 -1       227 2.00209E+01 3.13307E-03 1.14425E-04-1.21095E-02-2.12028E-13 1.05451E-13
 -1       228 2.00061E+01 2.66609E-03 2.15059E-04-2.70920E-03-2.29631E-13 1.65946E-13
 -1       229 2.00016E+01 1.15937E-03 1.74268E-04 1.22452E-03 4.19569E-13 1.06225E-13
 -1       230 2.09600E+01 2.77995E-01-5.08009E-02 1.16483E+00 7.82464E-14 6.05597E-13
 -1       231 1.98709E+01 1.30634E-01 1.00236E-02 4.46555E-01 6.48310E-14 5.39978E-13
 -1       232 1.93668E+01 5.64422E-02 1.34289E-02 1.48209E-01 3.87147E-14 4.88046E-13
 -1       233 1.91559E+01 2.27974E-02 7.35055E-03 5.76717E-03 2.44099E-14 4.30548E-13
 -1       234 1.91056E+01 1.01538E-02 3.60191E-03-6.34785E-02 1.86495E-14 3.79423E-13
 -1       235 1.91431E+01 3.58774E-03 1.75359E-03-9.61139E-02 1.75396E-14 3.80913E-13
 -1       236 1.92261E+01-4.48541E-05 8.96834E-04-1.08648E-01 9.31069E-15 3.70881E-13
 -1       237 1.93302E+01-1.99188E-03 4.65743E-04-1.09829E-01-4.20209E-15 3.50463E-13
 -1       238 1.94408E+01-2.88987E-03 2.22599E-04-1.04881E-01 5.28826E-14 3.05852E-13
 -1       239 1.95501E+01-3.13451E-03 7.37911E-05-9.70435E-02 3.61990E-14 3.38732E-13
 -1       240 1.96537E+01-3.00763E-03-2.27488E-05-8.82784E-02 3.85206E-14 2.62227E-13
 -1       241 1.97498E+01-2.74017E-03-9.10982E-05-7.96115E-02 5.00017E-14 2.29133E-13
 -1       242 1.98373E+01-2.54969E-03-1.47838E-04-7.12754E-02 4.43098E-14 1.80070E-13
 -1       243 1.99154E+01-2.66550E-03-2.04898E-04-6.27419E-02 1.06441E-13 1.72915E-13
 -1       244 1.99825E+01-3.34254E-03-2.69673E-04-5.26857E-02-4.32880E-14 1.95940E-13
 -1       245 2.00348E+01-4.85783E-03-3.43793E-04-3.89326E-02 3.30265E-14 4.25895E-14
 -1       246 2.00659E+01-7.47698E-03-4.21243E-04-1.84684E-02 7.04646E-14 1.02182E-13
 -1       247 2.00660E+01-1.13737E-02-4.86904E-04 1.23727E-02 1.19505E-13 1.15749E-13
 -1       248 2.00212E+01-1.64876E-02-5.17407E-04 5.73737E-02 1.36559E-14 2.52407E-14
 -1       249 1.99146E+01-2.23221E-02-4.86662E-04 1.19379E-01 1.12069E-14 3.79574E-14
 -1       250 1.97281E+01-2.77295E-02-3.76980E-04 1.98617E-01-3.25020E-14 1.15562E-14
 -1       251 1.94467E+01-3.08002E-02-1.95134E-04 2.90556E-01-9.69266E-15 1.48437E-13
 -1       252 1.90646E+01-2.90581E-02 1.77366E-05 3.83923E-01-1.42499E-13 1.75370E-13
 -1       253 1.85925E+01-2.01729E-02 1.93815E-04 4.60125E-01-1.97354E-13 1.25962E-13
 -1       254 1.80638E+01-3.21284E-03 2.72116E-04 4.95656E-01 2.21703E-13 1.42011E-13
 -1       255 1.75361E+01 2.00136E-02 2.53223E-04 4.68440E-01 1.61409E-13 3.74527E-14
 -1       256 1.70843E+01 4.44505E-02 2.13015E-04 3.66988E-01 9.59697E-14 9.75606E-14
 -1       257 1.67843E+01 6.30184E-02 2.72175E-04 1.98498E-01-2.87912E-14 4.86423E-14
 -1       258 1.66922E+01 6.94756E-02 5.05022E-04-9.24778E-03 3.57143E-14 4.67084E-14
 -1       259 1.68259E+01 6.14999E-02 8.59440E-04-2.15110E-01-1.02959E-13-1.78870E-14
 -1       260 1.71591E+01 4.19594E-02 1.16415E-03-3.78603E-01-2.20570E-15 9.38589E-14
 -1       261 1.76307E+01 1.73834E-02 1.24205E-03-4.73613E-01-2.00794E-13-4.39265E-14
 -1       262 1.81635E+01-5.24362E-03 1.02304E-03-4.94884E-01 8.83648E-14-3.30855E-14
 -1       263 1.86854E+01-2.12262E-02 5.75247E-04-4.55330E-01 5.43437E-14 1.54643E-13
 -1       264 1.91438E+01-2.91283E-02 5.19366E-05-3.77570E-01 3.12901E-13 1.86264E-13
 -1       265 1.95103E+01-3.01045E-02-3.96880E-04-2.84922E-01 1.58818E-14-1.08543E-13
 -1       266 1.97784E+01-2.65362E-02-6.83074E-04-1.95442E-01-3.03728E-13-1.36534E-13
 -1       267 1.99567E+01-2.08429E-02-7.91634E-04-1.19852E-01-1.02978E-14-7.34790E-14
 -1       268 2.00617E+01-1.48369E-02-7.58069E-04-6.23118E-02 1.16199E-13-1.26825E-14
 -1       269 2.01125E+01-9.57306E-03-6.37591E-04-2.24440E-02-7.49647E-14-1.80053E-14
 -1       270 2.01264E+01-5.47905E-03-4.81744E-04 2.54393E-03-9.17824E-14 9.67507E-14
 -1       271 2.01178E+01-2.57258E-03-3.27454E-04 1.62451E-02 9.98325E-14-1.43683E-13
 -1       272 2.00973E+01-6.58564E-04-1.96052E-04 2.20574E-02 1.78560E-13-2.39231E-13
 -1       273 2.00725E+01 5.36665E-04-9.83605E-05 2.27033E-02 3.05844E-14-3.38990E-13
 -1       274 2.00482E+01 1.29032E-03-4.20232E-05 2.00839E-02 3.00245E-14-2.70255E-13
 -1       275 2.00276E+01 1.81715E-03-3.31225E-05 1.53550E-02-9.57890E-14-5.50427E-14
 -1       276 2.00125E+01 2.31901E-03-2.09942E-05 9.10307E-03-1.17445E-13-1.20149E-13
 -1       277 2.00034E+01 2.16861E-03 1.20005E-04 2.48354E-03 5.72256E-14-3.02995E-13
 -1       278 2.00029E+01 7.58235E-03 8.15561E-05 6.34650E-03 1.04632E-13 1.02590E-13
 -1       279 2.00024E+01 1.88293E-02 3.68543E-05 1.30163E-02 1.14290E-13-8.77373E-14
 -1       280 2.00014E+01 3.45606E-02 3.72620E-05 1.79276E-02 1.01285E-13 1.00529E-13
 -1       281 2.00003E+01 5.32338E-02 1.17589E-05 2.05128E-02 2.99093E-13-2.34350E-14
 -1       282 1.99993E+01 7.26529E-02-3.08446E-05 2.04886E-02-1.22377E-13-1.05525E-13
 -1       283 1.99981E+01 9.11485E-02-7.40703E-05 1.76759E-02 5.27809E-15-3.88433E-13
 -1       284 1.99970E+01 1.05818E-01-1.11285E-04 1.20482E-02 2.08788E-13-1.35294E-13
 -1       285 1.99962E+01 1.14233E-01-1.33250E-04 3.97867E-03 9.40286E-14 3.49041E-13
 -1       286 1.99959E+01 1.14525E-01-1.34690E-04-5.58260E-03 1.65600E-13 1.22226E-13
 -1       287 1.99963E+01 1.05939E-01-1.13179E-04-1.50669E-02 1.92709E-13-2.17814E-13
 -1       288 1.99975E+01 8.96410E-02-7.32831E-05-2.23625E-02 2.35446E-13-1.73630E-13
 -1       289 1.99996E+01 6.75540E-02-3.41833E-05-2.57202E-02 3.26203E-13 5.18846E-13
 -1       290 2.00021E+01 4.38237E-02-7.45665E-06-2.35975E-02 2.55585E-14-9.49320E-14
 -1       291 2.00041E+01 2.28880E-02 1.51456E-05-1.59111E-02-3.04126E-13-8.58851E-14
 -1       292 2.00039E+01 9.23526E-03 2.38607E-05-6.09718E-03-2.32796E-14-3.67414E-13
 -1       293-7.92611E-01-1.17483E+01-9.74228E-01 2.68426E+00-1.65978E-14 1.22444E-13
 -1       294 3.79663E+00-8.11660E+00-6.78626E-01 5.03127E+00 2.45776E-13 3.20431E-13
 -1       295 1.10782E+01-3.77371E+00-4.03717E-01 6.97784E+00 2.28706E-13 1.03753E-12
 -1       296 2.22431E+01-1.81406E-01 4.31414E-03 8.43616E+00 4.58439E-13 4.17361E-13
 -1       297 3.26344E+01 4.26886E+00 4.39270E-01 9.09993E+00 6.42972E-13 2.64011E-13
 -1       298 4.17329E+01 6.01914E+00 6.36797E-01 6.37297E+00 3.91374E-13-1.38556E-13
 -1       299 4.59916E+01 7.79509E+00 6.40570E-01 2.25683E+00 5.45369E-13-5.59316E-13
 -1       300 5.04797E+01 7.35003E+00 1.02405E+00-1.45479E+00 5.22776E-13-9.51995E-13
 -1       301 4.49111E+01 6.81245E+00 7.55159E-01-5.02679E+00 4.48225E-13-9.64756E-13
 -1       302 3.66760E+01 4.90387E+00 5.36629E-01-8.17989E+00 4.49571E-13-1.19105E-12
 -1       303 2.57723E+01 2.35366E+00 1.90130E-01-9.12526E+00 6.10401E-13-9.66949E-13
 -1       304 1.54086E+01-1.64108E+00-2.24146E-01-7.82935E+00 6.43041E-13-5.76234E-13
 -1       305 8.16512E+00-6.14129E+00-3.63823E-01-6.93300E+00 2.71311E-13-5.15052E-13
 -1       306 7.97782E-01-1.03627E+01-8.53408E-01-3.59931E+00 1.76109E-13-5.21083E-13
 -1       307-1.72761E+00-1.20761E+01-9.74970E-01-1.73021E+00-3.04617E-14-3.96683E-13
 -1       308-9.40305E-01-1.24754E+01-1.13175E+00 1.10101E-01-2.38434E-13 7.92977E-14
 -1       309 3.66835E+00-9.94831E+00-1.08194E+00 2.31736E+00-2.27568E-13-2.04795E-13
 -1       310 1.27574E+01-6.50648E+00-8.64704E-01 4.61958E+00-1.31728E-13-1.44967E-13
 -1       311 2.61776E+01-2.91048E+00-3.16795E-01 5.79577E+00-3.08975E-13 2.20657E-13
 -1       312 4.12917E+01 6.05575E-02 5.01135E-01 3.21511E+00-1.29480E-14 2.35922E-14
 -1       313 5.30487E+01 4.51109E+00 1.59261E+00 1.95022E+00 1.17503E-13 4.71290E-14
 -1       314 5.59164E+01 7.25375E+00 1.89074E+00 1.91583E-02 2.07528E-13 9.49241E-14
 -1       315 5.55342E+01 6.42044E+00 1.92347E+00-7.29192E-01 1.03528E-13-1.16379E-13
 -1       316 4.71337E+01 2.01653E+00 9.68483E-01-2.76536E+00 3.27169E-14-2.76223E-13
 -1       317 3.37569E+01-1.22861E+00 1.02089E-01-5.43887E+00-1.27398E-14-1.04639E-13
 -1       318 1.89523E+01-4.70803E+00-6.37680E-01-5.37996E+00-3.30125E-13-1.49908E-13
 -1       319 8.14430E+00-8.23516E+00-8.49215E-01-3.97027E+00-2.52964E-13 9.02282E-14
 -1       320 5.16107E-01-1.15549E+01-1.10637E+00-1.03423E+00-8.97615E-14 2.45276E-13
 -1       321-1.83602E+00-1.29231E+01-1.10512E+00 9.05035E-01-1.79530E-13-7.63278E-15
 -1       322 3.54544E+01-1.47385E+00-1.08955E-01-5.28665E+00-3.92256E-14 1.91234E-13
 -1       323 2.01455E+01 3.01532E+00-1.79032E-02-2.10900E+00-8.10808E-14-1.31871E-13
 -1       324 2.07540E+01 2.20818E+00-1.78466E-02-2.36258E+00-1.16159E-13-8.22207E-14
 -1       325 1.95864E+01 3.69275E+00-1.51063E-02-1.31542E+00-4.94830E-16-1.54719E-13
 -1       326 1.94627E+01 3.85049E+00-1.35714E-02-9.22373E-01 2.09317E-14-1.53870E-13
 -1       327 1.93939E+01 3.94162E+00-1.26799E-02-5.43035E-01 5.11228E-14-1.42480E-13
 -1       328 1.93633E+01 3.98320E+00-1.22811E-02-1.72824E-01 8.28853E-14-1.21003E-13
 -1       329 1.93645E+01 3.98164E+00-1.23030E-02 1.94331E-01 1.01929E-13-9.29443E-14
 -1       330 1.93977E+01 3.93656E+00-1.27510E-02 5.64808E-01 1.15215E-13-6.25463E-14
 -1       331 1.94683E+01 3.84285E+00-1.37637E-02 9.38351E-01 1.42736E-13-3.50713E-14
 -1       332 1.95948E+01 3.67985E+00-1.56791E-02 1.33232E+00 1.59964E-13 2.19811E-14
 -1       333 1.98089E+01 3.41072E+00-1.90514E-02 1.73835E+00 1.77747E-13 8.86765E-14
 -1       334 2.01752E+01 2.95131E+00-2.32714E-02 2.12261E+00 1.78349E-13 1.72472E-13
 -1       335 2.07577E+01 2.10606E+00-2.94837E-02 2.30616E+00 1.60182E-13 3.01504E-13
 -1       336 2.10901E+01 1.18619E+00-2.41194E-02 1.91388E+00 1.15404E-13 4.11659E-13
 -1       337 2.03795E+01 4.93891E-01 7.81685E-03 9.24428E-01 8.28183E-14 3.43320E-13
 -1       338 2.04565E+01 6.75451E-01 1.23614E-02-1.02456E+00-9.11745E-14-7.09457E-14
 -1       339 2.00359E+01 3.37363E-01 7.20238E-03-4.56163E-01-7.36611E-14-5.60679E-14
 -1       340 1.97831E+01 1.77164E-01 4.13318E-03-1.46819E-01-5.43322E-14-4.37763E-14
 -1       341 1.96493E+01 9.18171E-02 1.89133E-03 2.57288E-02-2.06854E-14-4.26057E-14
 -1       342 1.95968E+01 4.33259E-02 8.09996E-04 1.18925E-01-2.40723E-14-3.56965E-14
 -1       343 1.95957E+01 1.52946E-02 3.08072E-04 1.65025E-01-3.23611E-14-2.28234E-14
 -1       344 1.96257E+01-3.27950E-04 6.97808E-05 1.83382E-01-4.61110E-14-5.66005E-14
 -1       345 1.96736E+01-7.81286E-03-3.77840E-05 1.86315E-01-6.23942E-14-1.01650E-13
 -1       346 1.97316E+01-9.51553E-03-6.49594E-05 1.82246E-01-8.12106E-14-1.02752E-13
 -1       347 1.97953E+01-6.64877E-03-3.00923E-05 1.77411E-01-3.69052E-14-7.85757E-14
 -1       348 1.98633E+01 4.35122E-04 6.37592E-05 1.76989E-01 5.83518E-14-8.64139E-14
 -1       349 1.99366E+01 1.22135E-02 2.25659E-04 1.86018E-01 7.45657E-14 6.97415E-15
 -1       350 2.00178E+01 3.01387E-02 4.77832E-04 2.10317E-01 3.85673E-14 6.13837E-14
 -1       351 2.01117E+01 5.68732E-02 8.73027E-04 2.57438E-01 1.69958E-14 1.81209E-13
 -1       352 2.02305E+01 9.96293E-02 1.48724E-03 3.43690E-01-2.24466E-14 2.08865E-13
 -1       353 2.03706E+01 1.61860E-01 2.38126E-03 4.77779E-01-2.97444E-14 1.79266E-13
 -1       354 2.05449E+01 2.55339E-01 3.67919E-03 6.85745E-01-1.24954E-15 1.47558E-13
 -1       355 2.07585E+01 3.93439E-01 5.38141E-03 9.99966E-01 3.34626E-14 1.50075E-13
 -1       356 2.10102E+01 5.88459E-01 7.29401E-03 1.46114E+00-2.68952E-14 8.52628E-14
 -1       357 2.12875E+01 8.37425E-01 8.89463E-03 2.11128E+00-9.51930E-16-2.34730E-16
 -1       358 2.15710E+01 1.08158E+00 9.84440E-03 2.97070E+00 1.37816E-13-7.97919E-14
 -1       359 2.18796E+01 1.10938E+00 1.20896E-02 3.98223E+00 1.31313E-13-9.58062E-14
 -1       360 2.24336E+01 4.01094E-01 3.29549E-02 4.87956E+00 1.35045E-13-3.19415E-14
 -1       361 2.37074E+01-1.57467E+00 6.24039E-02 5.12178E+00 5.62432E-14 2.21965E-13
 -1       362 7.91389E-01-4.08604E+00-4.74034E-03 2.20906E+00 8.17714E-14-5.17086E-14
 -1       363 3.36545E+01-5.11661E+00-4.65478E-02 4.60625E-01-2.70679E-13-1.68962E-13
 -1       364 2.80892E+01-3.32727E+00 6.61984E-02-3.49409E+00-5.26038E-14 1.52885E-13
 -1       365 2.52902E+01-5.92279E-01 4.98513E-02-4.64364E+00 6.92866E-14-1.30825E-13
 -1       366 2.37401E+01 6.53776E-01 1.51063E-02-4.32215E+00 5.68853E-14-4.12033E-13
 -1       367 2.28696E+01 8.99180E-01 1.00351E-02-3.37488E+00 1.94309E-13-4.17523E-13
 -1       368 2.21898E+01 7.68867E-01 9.30037E-03-2.43894E+00 1.05011E-13-2.60595E-13
 -1       369 2.16368E+01 5.62867E-01 8.83569E-03-1.68583E+00-6.30277E-14-4.82071E-14
 -1       370 2.11956E+01 3.84054E-01 7.18336E-03-1.13771E+00-2.22106E-13-3.04358E-13
 -1       371 2.08561E+01 2.53281E-01 5.24345E-03-7.58801E-01-1.95107E-14-6.00927E-13
 -1       372 2.06027E+01 1.64422E-01 3.59068E-03-5.03962E-01-1.49181E-14-5.92174E-13
 -1       373 2.04177E+01 1.06177E-01 2.37932E-03-3.34888E-01-1.58648E-13-2.83265E-13
 -1       374 2.02844E+01 6.87331E-02 1.55729E-03-2.23212E-01 1.09302E-13-1.19986E-13
 -1       375 2.01894E+01 4.49979E-02 1.02125E-03-1.49179E-01 2.58585E-13-2.30420E-13
 -1       376 2.01221E+01 3.02476E-02 6.79571E-04-9.94140E-02 3.28115E-13-3.06966E-13
 -1       377 2.00748E+01 2.14266E-02 4.53643E-04-6.49271E-02 1.25021E-13 1.49062E-15
 -1       378 2.00421E+01 1.65877E-02 3.45069E-04-3.97465E-02-2.42363E-13 9.70884E-14
 -1       379 2.00196E+01 1.34459E-02 2.22732E-04-2.02971E-02-3.28472E-13-1.54728E-13
 -1       380 1.98406E+01 2.25912E-01 6.88229E-03 2.73352E-01 6.78168E-14 2.77930E-13
 -1       381 1.96481E+01 1.13705E-01 3.31920E-03 4.47232E-02 5.77085E-14 2.59860E-13
 -1       382 1.95599E+01 5.67962E-02 1.51142E-03-7.89481E-02 5.45364E-14 2.06756E-13
 -1       383 1.95406E+01 2.41191E-02 6.31067E-04-1.42934E-01 1.00810E-14 1.71579E-13
 -1       384 1.95628E+01 5.27924E-03 2.08167E-04-1.71544E-01 5.57221E-15 1.41166E-13
 -1       385 1.96087E+01-5.16786E-03-6.49907E-06-1.79327E-01 9.97505E-15 1.41477E-13
 -1       386 1.96667E+01-1.03605E-02-1.16204E-04-1.75372E-01 4.69530E-14 1.64651E-13
 -1       387 1.97295E+01-1.23391E-02-1.68957E-04-1.65403E-01 4.15698E-14 1.96672E-13
 -1       388 1.97929E+01-1.26068E-02-1.93180E-04-1.52838E-01 6.97315E-14 2.18245E-13
 -1       389 1.98543E+01-1.24252E-02-2.10416E-04-1.39312E-01 9.04096E-14 8.32432E-14
 -1       390 1.99120E+01-1.29921E-02-2.39759E-04-1.24908E-01-3.28119E-14 2.82672E-14
 -1       391 1.99647E+01-1.55449E-02-2.99263E-04-1.08213E-01 1.19949E-14 9.51229E-14
 -1       392 2.00103E+01-2.13867E-02-4.05513E-04-8.62866E-02 5.97969E-14 4.72120E-14
 -1       393 2.00459E+01-3.17949E-02-5.71185E-04-5.46661E-02 3.03983E-14 1.00300E-13
 -1       394 2.00666E+01-4.77506E-02-8.00135E-04-7.56379E-03 8.74987E-14 4.78446E-14
 -1       395 2.00654E+01-6.94202E-02-1.08006E-03 6.14973E-02 4.94707E-14 8.00500E-14
 -1       396 2.00330E+01-9.53678E-02-1.37400E-03 1.58318E-01-1.84745E-14 9.13774E-14
 -1       397 1.99578E+01-1.21612E-01-1.61409E-03 2.85673E-01-5.30092E-14 1.79745E-13
 -1       398 1.98276E+01-1.40893E-01-1.70166E-03 4.39969E-01-1.37900E-15 1.98150E-13
 -1       399 1.96322E+01-1.42879E-01-1.52869E-03 6.07493E-01-1.14307E-13 2.32252E-13
 -1       400 1.93679E+01-1.16247E-01-1.01177E-03 7.61777E-01-1.67916E-13 2.82074E-13
 -1       401 1.90434E+01-5.32637E-02-1.41108E-04 8.64656E-01 2.12308E-14 1.52922E-13
 -1       402 1.86855E+01 4.39939E-02 9.77688E-04 8.73702E-01 2.03484E-13 2.71689E-13
 -1       403 1.83403E+01 1.59030E-01 2.15630E-03 7.56614E-01 3.97046E-14 2.92513E-13
 -1       404 1.80665E+01 2.62435E-01 3.12083E-03 5.08224E-01 1.39714E-14 3.70222E-13
 -1       405 1.79195E+01 3.21806E-01 3.63835E-03 1.61105E-01 2.13165E-14 2.91287E-13
 -1       406 1.79325E+01 3.16421E-01 3.58227E-03-2.19051E-01 6.60012E-14 2.68359E-13
 -1       407 1.81025E+01 2.48155E-01 2.95256E-03-5.54616E-01-7.05280E-14 1.36925E-13
 -1       408 1.83918E+01 1.40578E-01 1.90559E-03-7.83946E-01-9.93052E-14 1.49779E-13
 -1       409 1.87433E+01 2.67465E-02 6.97281E-04-8.80595E-01-1.67287E-14 1.80895E-14
 -1       410 1.90995E+01-6.54767E-02-4.10788E-04-8.55164E-01-3.01125E-14 7.03268E-14
 -1       411 1.94174E+01-1.22029E-01-1.22127E-03-7.42843E-01 6.12573E-14 7.61505E-14
 -1       412 1.96736E+01-1.42816E-01-1.65557E-03-5.86285E-01 1.78114E-13 4.32440E-13
 -1       413 1.98621E+01-1.36518E-01-1.74475E-03-4.22264E-01-2.58866E-14 4.08851E-13
 -1       414 1.99884E+01-1.14524E-01-1.58627E-03-2.75377E-01-7.71637E-14 3.39426E-14
 -1       415 2.00636E+01-8.67412E-02-1.29291E-03-1.57753E-01 1.63145E-13-2.10211E-14
 -1       416 2.01007E+01-5.98639E-02-9.59576E-04-7.19992E-02 2.18140E-14-9.43672E-14
 -1       417 2.01116E+01-3.73820E-02-6.49225E-04-1.49628E-02-6.81841E-14-3.54724E-13
 -1       418 2.01058E+01-2.03909E-02-3.93284E-04 1.90810E-02 1.59204E-15-2.30544E-13
 -1       419 2.00910E+01-8.53745E-03-2.00100E-04 3.62620E-02 2.82105E-13-2.27511E-13
 -1       420 2.00722E+01-7.91308E-04-6.39055E-05 4.19276E-02 1.16909E-13-4.04263E-14
 -1       421 2.00530E+01 4.07651E-03 2.61181E-05 4.01755E-02-5.02413E-14 1.81624E-14
 -1       422 2.00354E+01 7.17813E-03 8.36833E-05 3.38127E-02-2.33591E-13 3.96013E-14
 -1       423 2.00206E+01 9.15789E-03 1.23449E-04 2.47470E-02-1.59965E-13 1.79488E-13
 -1       424 2.00105E+01 9.29172E-03 9.68019E-05 1.53750E-02 6.37150E-14 1.66558E-13
 -1       425 2.00038E+01 4.25401E-02 3.99110E-05 3.48044E-02 1.72992E-13 9.76525E-14
 -1       426 2.00074E+01 2.71157E-02 8.24415E-05 2.91915E-02 9.79478E-14-1.53454E-14
 -1       427 1.99998E+01 5.90334E-02-5.71006E-06 3.69935E-02 1.29588E-13-3.63236E-13
 -1       428 1.99954E+01 7.61485E-02-4.91824E-05 3.48076E-02-5.66909E-14 2.65620E-14
 -1       429 1.99909E+01 9.18772E-02-9.09358E-05 2.78358E-02 1.45021E-13-4.24947E-13
 -1       430 1.99870E+01 1.04155E-01-1.23382E-04 1.61783E-02-8.06723E-14 1.96103E-13
 -1       431 1.99844E+01 1.10865E-01-1.39460E-04 8.11268E-04 3.64540E-14 4.18147E-13
 -1       432 1.99844E+01 1.10327E-01-1.31379E-04-1.62081E-02 1.51908E-13 8.14662E-14
 -1       433 1.99875E+01 1.02036E-01-9.75710E-05-3.16028E-02 2.47370E-13-4.17926E-13
 -1       434 1.99939E+01 8.63415E-02-4.40410E-05-4.24721E-02 2.48015E-13 4.52027E-13
 -1       435 2.00025E+01 6.53782E-02 1.73460E-05-4.55574E-02-1.96472E-13-2.73202E-13
 -1       436 2.00112E+01 4.25258E-02 8.16045E-05-3.93455E-02-5.42274E-13-3.34841E-13
 -1       437 2.00386E+01 3.29253E-01 1.05045E-02 5.35815E-01 6.64495E-14 3.17593E-13
 -1       438 1.27111E+01-5.12910E+00 3.68072E-02 8.60954E+00-2.57239E-13 5.73253E-13
 -1       439 2.94554E+01-1.30918E+00 3.01442E-02 5.21893E+00-1.24900E-16-4.14224E-13
 -1       440 3.48118E+01-4.72354E+00-6.12619E-02-1.41122E+00-9.93511E-14 1.09968E-13
 -1       441 1.97877E+01 3.44041E+00-2.09357E-02-1.72531E+00-4.14291E-14-1.59973E-13
 -1       442 3.48343E+01 2.29725E+00 5.86346E-02 2.77857E+00 2.46005E-13-4.50612E-13
 -1       443 3.73334E+01 6.51508E+00 1.00278E-02 4.20481E-01 4.55302E-13-5.79981E-13
 -1       444 3.74260E+01 9.26497E+00-4.61115E-02 9.13070E-03 5.15588E-13-4.81361E-13
 -1       445 3.74923E+01 8.28593E+00-4.71259E-03 1.02726E-01 4.20164E-13-5.43232E-13
 -1       446 3.57266E+01 4.00151E+00-1.62065E-02-1.02843E+00 2.75960E-13-5.73042E-13
 -1       447 3.16145E+01-8.23128E-01-1.18668E-02-3.69014E+00 1.38119E-13-6.95916E-13
 -1       448 2.47578E+01-3.63026E+00-7.12513E-03-6.95895E+00 3.17149E-13-5.48880E-13
 -1       449 1.75799E+01-5.16797E+00 1.43748E-02-8.39412E+00 2.99719E-13-6.18842E-13
 -1       450 6.80170E+00-4.81848E+00 3.86093E-03-7.39075E+00 1.24872E-13-7.23477E-13
 -1       451 1.77189E+00-4.69900E+00-4.42443E-02-4.41491E+00 3.81639E-14-4.63934E-13
 -1       452 7.08079E-01-4.78875E+00-8.65136E-02 5.03237E-01 1.94678E-13-1.56680E-13
 -1       453 4.94759E+00-5.93647E+00-1.53169E-01 4.30445E+00-4.96408E-14 1.28217E-13
 -1       454 1.48971E+01-6.51181E+00-8.53983E-02 6.13746E+00 1.81771E-13 5.96606E-14
 -1       455 2.51606E+01-6.76156E+00-1.75406E-01 4.45258E+00-8.47655E-14 3.13458E-13
 -1       456 3.54203E+01-4.77525E+00-6.73239E-02 3.49575E-01-2.04212E-13 1.35864E-13
 -1       457 4.16232E+01 4.58526E-01 2.11542E-01-4.03501E+00 9.92262E-15-7.74103E-14
 -1       458 4.15409E+01 4.40435E+00 1.35044E-01-3.43864E+00 1.25455E-14-3.11140E-14
 -1       459 3.88947E+01-2.55799E+00 9.95554E-02 2.38728E+00-5.80248E-14-3.49998E-14
 -1       460 3.08396E+01-5.95129E+00-1.19785E-01-2.55655E+00-2.87381E-13-1.65867E-13
 -1       461 2.03796E+01-6.93252E+00-1.39343E-01-5.59738E+00-1.35086E-13-1.59407E-13
 -1       462 8.34510E+00-5.94868E+00-1.38245E-01-5.47614E+00 1.22680E-14 2.36061E-13
 -1       463 1.97385E+00-5.16163E+00-9.60218E-02-2.28598E+00 6.77652E-14-3.86080E-14
 -1       464 2.02714E+01-4.81661E+00-9.41181E-03 7.96478E+00-2.84037E-13 5.22082E-14
 -1       465 4.39360E+00-4.48063E+00 1.66660E-02 6.36957E+00-8.07965E-14 4.47434E-13
 -1       466 2.90768E+01-4.16605E+00 9.75106E-02 2.88071E+00 2.31273E-14 7.83332E-14
 -1       467 4.12052E+01 2.31235E-01 8.47996E-02 3.68837E+00 2.92544E-14-2.24515E-13
 -1       468 2.00168E+01 2.73572E-02 1.73994E-04-3.13982E-02-3.78481E-13-1.85446E-13
 -1       469 2.61926E+01-4.94065E+00 5.78156E-03 5.66918E+00-3.85102E-13-4.73524E-13
 -1       470 1.40965E+01-4.42605E+00 1.16158E-01-8.54566E+00 1.91167E-13-6.78076E-13
 -1       471 3.33650E+01 8.18641E+00-1.49948E-01-8.91758E-01 4.56593E-13-5.66013E-13
 -1       472 1.97352E+01 3.10694E+00-5.34681E-03-6.32602E-01 3.76102E-14-1.23989E-13
 -1       473 1.98307E+01 2.93331E+00-5.80247E-03-9.49051E-01 1.43652E-14-1.31988E-13
 -1       474 1.96672E+01 3.23047E+00-5.01946E-03 9.06339E-03 7.57656E-14-9.32666E-14
 -1       475 1.96855E+01 3.19739E+00-5.10232E-03 3.29946E-01 9.62559E-14-6.52002E-14
 -1       476 1.97392E+01 3.10022E+00-5.41499E-03 6.44690E-01 1.16551E-13-2.99108E-14
 -1       477 1.98375E+01 2.92186E+00-5.93869E-03 9.59632E-01 1.42505E-13 4.39601E-15
 -1       478 1.99934E+01 2.63498E+00-6.56085E-03 1.25430E+00 1.48003E-13 6.23874E-14
 -1       479 2.02230E+01 2.19493E+00-5.81559E-03 1.48819E+00 1.50992E-13 1.23479E-13
 -1       480 2.04776E+01 1.54651E+00-3.25299E-03 1.54090E+00 1.42001E-13 2.09433E-13
 -1       481 2.05320E+01 9.90921E-01 3.20222E-03 1.29669E+00 1.16782E-13 2.58081E-13
 -1       482 2.03433E+01 9.76688E-01 2.96322E-03-9.41757E-01-6.20859E-14-6.49482E-14
 -1       483 5.41974E+00-6.77129E-01 1.99273E-01 4.37471E+00 3.38653E-14 8.22814E-14
 -1       484 2.01729E+01 5.44172E-01 1.81728E-03-4.65373E-01-6.05135E-14-3.37965E-14
 -1       485 2.00267E+01 3.06387E-01 1.04493E-03-1.62329E-01-3.14398E-14-1.37244E-14
 -1       486 1.99282E+01 1.65360E-01 4.51439E-04 2.16491E-02-3.66840E-14-3.02183E-14
 -1       487 1.98722E+01 8.08138E-02 1.70209E-04 1.27574E-01-2.52833E-14-1.83197E-14
 -1       488 1.98486E+01 3.06111E-02 4.07754E-05 1.83821E-01-5.45720E-14-4.31859E-14
 -1       489 1.98477E+01 2.68325E-03-1.85254E-05 2.09481E-01-7.31738E-14-4.65440E-14
 -1       490 1.98620E+01-9.85696E-03-4.01811E-05 2.17934E-01-6.06633E-14-3.57383E-14
 -1       491 1.98861E+01-1.09452E-02-3.48515E-05 2.18904E-01-4.62718E-14 9.21720E-15
 -1       492 1.99164E+01-2.51144E-03-5.75083E-06 2.19905E-01 3.54442E-14 4.64888E-15
 -1       493 1.99509E+01 1.51848E-02 4.85777E-05 2.27348E-01 8.07447E-14 3.33419E-15
 -1       494 1.99878E+01 4.35834E-02 1.34639E-04 2.47497E-01 9.01958E-14-7.40973E-15
 -1       495 2.00255E+01 8.60352E-02 2.63694E-04 2.87348E-01 2.27844E-14-3.43048E-14
 -1       496 2.00625E+01 1.52571E-01 4.86193E-04 3.60198E-01-2.70408E-14-8.37968E-14
 -1       497 2.00882E+01 2.46945E-01 7.86424E-04 4.71453E-01 1.46048E-14-2.40111E-14
 -1       498 2.00923E+01 3.85196E-01 1.24871E-03 6.39159E-01-4.41625E-14 8.01819E-15
 -1       499 2.00505E+01 5.85427E-01 1.89058E-03 8.83361E-01-2.71914E-14-1.85637E-14
 -1       500 1.99202E+01 8.66516E-01 2.71697E-03 1.22773E+00-3.98409E-14 1.39756E-14
 -1       501 1.96325E+01 1.23681E+00 3.82134E-03 1.69708E+00-7.43309E-14-7.17639E-14
 -1       502 1.90886E+01 1.66300E+00 6.07491E-03 2.31367E+00 4.17875E-14 1.02113E-13
 -1       503 1.81830E+01 1.99702E+00 1.46150E-02 3.09739E+00 8.91483E-14-1.37620E-14
 -1       504 1.68520E+01 1.82700E+00 4.02713E-02 4.05668E+00 2.32236E-13-5.67654E-14
 -1       505 1.74824E+01 1.07432E-01 9.63116E-02 5.38990E+00 1.81070E-13-8.62574E-14
 -1       506 3.10900E+01-1.45570E+00-6.58053E-02 1.30875E+00-5.31346E-14-5.70800E-13
 -1       507 1.08840E+01-3.00847E+00 1.47854E-01 7.88436E+00-4.04732E-13 1.01238E-13
 -1       508 1.78591E+01 1.10512E+00 1.11692E-01-5.07842E+00 2.97175E-14-1.10946E-13
 -1       509 1.87091E+01 1.74970E+00 2.20071E-02-3.90525E+00-3.22615E-14-3.12477E-13
 -1       510 1.94497E+01 1.66885E+00 8.53233E-03-2.91656E+00 2.58173E-13-4.44169E-13
 -1       511 1.99150E+01 1.31174E+00 5.55169E-03-2.12332E+00 2.07148E-13-2.42505E-13
 -1       512 2.01500E+01 9.44058E-01 4.24289E-03-1.51160E+00-2.93001E-13-2.69302E-13
 -1       513 2.02377E+01 6.49458E-01 3.12416E-03-1.05927E+00-3.18056E-13-2.08735E-13
 -1       514 2.02460E+01 4.36222E-01 2.15963E-03-7.35068E-01-4.04632E-14-1.20076E-13
 -1       515 2.02181E+01 2.89612E-01 1.43331E-03-5.07579E-01 2.97725E-14-1.47319E-13
 -1       516 2.01778E+01 1.91640E-01 9.33837E-04-3.49946E-01 1.03324E-13 1.44743E-14
 -1       517 2.01369E+01 1.27351E-01 6.07861E-04-2.41256E-01 2.68627E-13 1.49133E-13
 -1       518 2.01005E+01 8.58291E-02 3.99901E-04-1.66085E-01 3.38104E-13 1.44653E-13
 -1       519 2.00703E+01 5.96248E-02 2.84425E-04-1.13480E-01 4.40332E-13 6.40537E-14
 -1       520 2.00456E+01 4.36306E-02 1.59467E-04-7.57831E-02-1.73562E-13-4.30477E-13
 -1       521 2.00304E+01 3.42436E-02 1.98785E-04-5.13557E-02-2.46422E-13-1.28349E-13
 -1       522 1.98575E+01 1.11534E-01 4.04636E-04-8.13721E-02 6.08742E-14 1.63345E-13
 -1       523 1.99366E+01 2.14972E-01 9.99567E-04 5.98530E-02 7.91190E-14 1.73854E-13
 -1       524 2.00682E+01 3.89466E-01 1.14714E-03 3.01300E-01 4.41984E-14 1.61471E-13
 -1       525 1.98195E+01 4.94096E-02 1.49068E-04-1.59197E-01 2.12442E-14 1.46269E-13
 -1       526 1.98105E+01 1.25819E-02 2.43463E-05-1.96960E-01 4.53288E-14 1.14916E-13
 -1       527 1.98205E+01-8.18485E-03-3.87039E-05-2.10101E-01 1.60992E-14 1.11789E-13
 -1       528 1.98424E+01-1.87225E-02-6.94323E-05-2.08875E-01-1.56741E-14 9.19461E-14
 -1       529 1.98713E+01-2.31079E-02-8.27097E-05-1.99928E-01 6.95388E-14 7.68762E-14
 -1       530 1.99039E+01-2.45259E-02-8.86666E-05-1.87199E-01 1.30020E-13 1.27967E-13
 -1       531 1.99386E+01-2.57712E-02-9.60788E-05-1.72404E-01 6.89254E-14 1.89635E-13
 -1       532 1.99744E+01-2.95611E-02-1.13300E-04-1.55258E-01 9.18794E-14 2.81677E-14
 -1       533 2.00108E+01-3.86952E-02-1.48546E-04-1.33515E-01 2.45026E-14 1.09162E-14
 -1       534 2.00473E+01-5.60164E-02-2.09359E-04-1.02944E-01 1.15443E-14 5.60686E-14
 -1       535 2.00834E+01-8.40735E-02-3.01030E-04-5.73765E-02 9.88968E-14-8.25000E-14
 -1       536 2.01173E+01-1.24343E-01-4.23651E-04 1.09332E-02 5.52156E-14 2.40547E-14
 -1       537 2.01456E+01-1.75886E-01-5.68007E-04 1.10321E-01 2.21336E-14 4.30489E-14
 -1       538 2.01623E+01-2.33485E-01-7.10467E-04 2.47685E-01-7.91992E-14-9.12888E-15
 -1       539 2.01578E+01-2.85664E-01-8.10278E-04 4.25056E-01-9.13608E-14 1.65846E-13
 -1       540 2.01187E+01-3.13645E-01-8.04198E-04 6.34774E-01-1.42893E-13 2.80088E-13
 -1       541 2.00294E+01-2.93087E-01-6.43272E-04 8.54131E-01-1.29081E-13 2.02228E-13
 -1       542 1.98774E+01-2.00718E-01-3.08607E-04 1.04196E+00 1.36810E-15 1.31811E-13
 -1       543 1.96620E+01-2.65916E-02 1.66761E-04 1.14146E+00 5.52606E-14 1.53552E-13
 -1       544 1.94045E+01 2.11760E-01 6.74719E-04 1.09393E+00 8.98621E-14 2.57499E-13
 -1       545 1.91521E+01 4.62938E-01 1.18946E-03 8.63309E-01 9.52054E-15 2.28193E-13
 -1       546 1.89679E+01 6.53429E-01 1.57418E-03 4.61871E-01-2.91678E-14 1.52701E-13
 -1       547 1.89072E+01 7.17482E-01 1.74170E-03-4.02094E-02 5.07596E-15 3.76843E-13
 -1       548 1.89899E+01 6.31128E-01 1.61766E-03-5.33447E-01 6.45246E-14 4.44831E-13
 -1       549 1.91894E+01 4.26368E-01 1.24648E-03-9.11882E-01 3.07729E-15 2.26928E-13
 -1       550 1.94473E+01 1.72918E-01 7.24741E-04-1.11376E+00-3.31048E-14-4.36734E-14
 -1       551 1.97014E+01-5.72314E-02 1.50978E-04-1.13597E+00 1.00154E-14-7.01879E-14
 -1       552 1.99087E+01-2.17898E-01-3.42345E-04-1.02025E+00 5.88938E-14-1.69290E-13
 -1       553 2.00520E+01-2.96726E-01-6.66238E-04-8.26512E-01-3.74115E-14-2.01481E-13
 -1       554 2.01349E+01-3.06631E-01-7.99782E-04-6.09787E-01-3.25648E-14-3.55639E-14
 -1       555 2.01710E+01-2.71625E-01-7.81044E-04-4.08549E-01 7.07459E-14 7.42169E-14
 -1       556 2.01760E+01-2.15399E-01-6.67477E-04-2.43101E-01 1.06189E-13 3.31619E-14
 -1       557 2.01630E+01-1.55542E-01-5.14433E-04-1.19522E-01-5.52355E-14 1.17799E-13
 -1       558 2.01413E+01-1.02383E-01-3.61551E-04-3.50561E-02 1.16052E-13 2.78011E-13
 -1       559 2.01168E+01-6.03056E-02-2.30137E-04 1.72755E-02-7.82677E-14 6.90742E-14
 -1       560 2.00929E+01-2.97593E-02-1.28946E-04 4.55193E-02 2.25449E-13-1.73697E-13
 -1       561 2.00712E+01-9.10625E-03-5.39399E-05 5.69756E-02 6.17853E-14-2.75633E-13
 -1       562 2.00523E+01 4.05445E-03 3.83581E-06 5.75010E-02-5.77614E-14-1.54089E-13
 -1       563 2.00363E+01 1.22146E-02 3.42454E-05 5.13342E-02-3.23966E-13 1.67032E-13
 -1       564 2.00228E+01 1.73131E-02 5.09010E-05 4.12543E-02-5.02534E-14 2.45014E-13
 -1       565 1.99958E+01 6.34851E-02-1.13700E-05 5.15437E-02 5.05153E-14-4.21302E-13
 -1       566 2.00043E+01 4.69457E-02 5.06745E-05 5.08804E-02-3.08998E-14-1.55464E-13
 -1       567 2.00116E+01 3.17432E-02 3.05774E-06 4.53214E-02 9.31053E-14 1.65538E-13
 -1       568 1.99863E+01 8.10605E-02-3.19340E-05 4.64262E-02-1.41935E-13 9.89110E-14
 -1       569 1.99770E+01 9.77658E-02-4.82817E-05 3.46618E-02 1.42671E-13-3.11275E-13
 -1       570 1.99694E+01 1.11213E-01-5.95495E-05 1.65126E-02 2.70958E-14 5.23921E-13
 -1       571 1.99659E+01 1.18751E-01-6.25904E-05-6.31346E-03 3.46497E-14 3.89719E-13
 -1       572 1.99684E+01 1.18205E-01-5.61332E-05-3.00710E-02 2.22116E-13-2.83589E-13
 -1       573 1.99778E+01 1.08410E-01-3.41063E-05-5.10638E-02 7.76361E-14-2.44812E-13
 -1       574 1.99934E+01 8.98401E-02-2.67648E-05-6.40208E-02-2.22542E-13-1.53526E-13
 -1       575 2.00120E+01 6.49873E-02 1.87333E-05-6.53813E-02-2.79609E-13-2.90912E-13
 -1       576 2.03919E+01 1.77212E+00-5.65575E-03-1.54506E+00-7.94156E-14-9.12758E-14
 -1       577 8.05700E+00-2.41561E+00 1.28406E-01-4.84354E+00-1.43774E-14 1.75221E-13
 -1       578 3.25306E+01 2.90038E+00-1.38411E-01-8.79454E-01 2.52846E-13-5.51136E-13
 -1       579 1.96830E+01 3.20162E+00-5.09768E-03-3.11955E-01 5.72801E-14-1.10406E-13
 -1       580 2.03701E+01-4.06231E+00 9.02175E-02 5.93274E+00 4.54428E-14 3.72896E-14
 -1       581 3.13643E+01 8.33225E+00-2.10891E-01 6.39454E-01 3.90410E-13-3.14415E-13
 -1       582 6.58934E+00-1.17872E+00 2.07919E-01 3.58396E+00 2.91156E-13 8.48488E-14
 -1       583 3.19390E+01 5.47122E+00-1.66891E-01 1.60370E+00 2.45734E-13-2.69715E-13
 -1       584 2.82413E+01-4.07260E+00-4.58479E-02-3.76997E+00 8.96158E-14-4.18082E-13
 -1       585 2.37058E+01-5.13412E+00 3.84952E-02-6.42429E+00 2.18894E-13-2.77960E-13
 -1       586 6.79231E+00-1.87178E+00 1.88233E-01-6.15035E+00 1.84852E-13-7.20216E-13
 -1       587 3.83922E+00-5.50751E-01 1.88727E-01-1.76152E+00 1.56193E-13-2.76723E-13
 -1       588 1.27111E+01-3.18922E+00 1.42272E-01 6.09758E+00 1.47493E-13 2.24265E-13
 -1       589 3.13369E+01 6.94016E-02-1.12181E-01 3.18138E-01 8.15667E-15-2.66495E-13
 -1       590 1.81148E+01-4.28031E+00 7.55131E-02-6.33543E+00-5.42344E-14-5.41303E-14
 -1       591 1.91890E+01-4.89694E+00 8.95642E-02 7.91624E+00-5.50275E-13 1.25186E-13
 -1       592 4.39110E+00-4.89174E-01 1.92643E-01-9.03929E-01 2.39114E-14-1.16684E-13
 -1       593 1.99814E+01 2.66383E+00-6.55299E-03-1.25256E+00-1.41725E-14-1.26590E-13
 -1       594 2.02659E+01 6.55084E-01 6.23658E-03 7.94476E-01 8.60111E-14 2.19782E-13
 -1       595 2.58556E+01-6.04750E+00 8.42802E-03-4.12973E+00-1.35530E-13-2.88311E-15
 -1       596 2.59690E+01-6.54969E+00-1.01080E-01 4.05715E+00-9.04832E-14 3.90549E-13
 -1       597 2.01397E+01 5.02268E-01 3.55452E-03 5.15262E-01 8.31726E-14 1.71781E-13
 -1       598 2.00436E+01-4.56779E+00 8.48059E-02-7.32934E+00 4.55885E-15-3.49344E-13
 -1       599 3.05388E+01 5.29645E+00-1.64778E-01-1.84605E+00 3.74208E-13-5.82704E-13
 -1       600 1.21332E+01-2.34661E+00 1.53907E-01-7.49142E+00 1.93880E-13-6.94216E-13
 -1       601 1.99614E+01 2.45455E+00-1.60980E-03 3.92925E-01 1.00229E-13-5.05200E-14
 -1       602 1.99297E+01 2.52974E+00-1.51978E-03 1.35571E-01 7.50966E-14-7.25158E-14
 -1       603 2.01205E+01 2.05016E+00-1.79337E-03 8.48212E-01 1.26229E-13 2.89376E-14
 -1       604 2.02415E+01 1.68549E+00-2.01244E-03 9.99304E-01 1.22382E-13 9.48234E-14
 -1       605 2.03636E+01 1.02702E+00 3.46889E-03 1.00820E+00 1.03082E-13 1.80336E-13
 -1       606 2.02926E+01 1.12520E+00 1.57746E-03-7.58088E-01-3.97963E-14-6.77499E-14
 -1       607 1.70045E+01-1.11096E+00 1.50619E-01 5.75388E+00 1.81050E-13-1.27488E-13
 -1       608 2.02429E+01 6.70968E-01-6.11326E-04-3.89485E-01-4.30609E-14-6.20106E-14
 -1       609 2.01714E+01 3.96765E-01 2.47468E-04-1.32602E-01-4.78440E-14-7.11623E-14
 -1       610 2.01068E+01 2.19968E-01 6.57484E-05 3.18703E-02-2.08594E-14-7.08009E-14
 -1       611 2.00584E+01 1.09281E-01 1.22211E-05 1.31663E-01-6.09721E-14-8.61224E-14
 -1       612 2.00256E+01 4.24931E-02-7.12105E-06 1.87090E-01-4.31551E-14-6.17514E-14
 -1       613 2.00059E+01 6.10055E-03-1.55168E-05 2.14456E-01-2.13773E-14 2.30833E-14
 -1       614 1.99957E+01-8.26942E-03-1.63538E-05 2.26032E-01-6.92486E-15 1.24059E-13
 -1       615 1.99920E+01-5.51676E-03-1.06971E-05 2.31127E-01-1.89588E-14 1.46247E-13
 -1       616 1.99914E+01 1.21239E-02 1.39830E-06 2.37060E-01 9.23762E-15 1.02883E-13
 -1       617 1.99903E+01 4.48150E-02 2.09537E-05 2.49974E-01 2.22147E-14-1.29471E-14
 -1       618 1.99839E+01 9.51225E-02 4.29808E-05 2.75508E-01 3.94455E-14-5.58774E-14
 -1       619 1.99631E+01 1.73189E-01 1.05063E-04 3.22120E-01 4.92855E-17-8.60300E-14
 -1       620 1.99166E+01 2.81266E-01 1.60185E-04 3.91669E-01-1.53276E-14-3.17403E-14
 -1       621 1.98238E+01 4.35384E-01 2.56557E-04 4.91963E-01-2.04439E-14-2.70953E-14
 -1       622 1.96510E+01 6.53018E-01 3.85285E-04 6.28511E-01-2.47356E-14-7.08532E-14
 -1       623 1.93442E+01 9.53312E-01 5.43332E-04 8.04178E-01-1.09903E-13-6.95054E-14
 -1       624 1.88203E+01 1.34994E+00 8.29901E-04 1.01631E+00-1.02590E-13-1.61139E-13
 -1       625 1.79558E+01 1.83288E+00 2.16252E-03 1.25498E+00 4.44683E-14-1.53315E-13
 -1       626 1.65797E+01 2.33203E+00 9.78345E-03 1.50507E+00 7.78562E-14-1.88866E-13
 -1       627 1.44329E+01 2.63195E+00 3.01278E-02 1.78745E+00 2.08896E-13 3.43692E-14
 -1       628 2.76393E+01-4.02507E+00-4.06495E-02 2.39069E+00-1.95062E-13-4.00732E-13
 -1       629 2.00207E+01 2.57453E-02 1.85599E-05 5.91440E-02-3.68347E-13 1.01973E-13
 -1       630 2.81408E+01 5.97927E+00-1.46036E-01 1.67824E+00 1.47785E-13-8.76799E-14
 -1       631 7.78761E+00 7.27658E-01 1.76766E-01-3.71943E+00 2.48544E-13-5.70287E-13
 -1       632 1.61706E+01 2.43374E+00 1.31711E-02-2.19398E+00-1.04051E-13 2.21769E-14
 -1       633 1.77309E+01 2.03568E+00 4.35502E-03-1.73811E+00 2.38584E-13-3.92860E-13
 -1       634 1.87222E+01 1.54288E+00 1.57658E-03-1.35134E+00 2.84092E-14-5.27261E-13
 -1       635 1.93216E+01 1.10997E+00 1.07285E-03-1.02696E+00-2.33011E-13-1.13500E-13
 -1       636 1.96681E+01 7.74406E-01 7.82611E-04-7.65144E-01-1.61506E-13-8.78496E-14
 -1       637 1.98594E+01 5.30922E-01 5.43311E-04-5.61617E-01-1.13611E-14-3.81410E-13
 -1       638 1.99590E+01 3.60842E-01 3.62012E-04-4.08012E-01 1.42786E-13-1.66273E-13
 -1       639 2.00066E+01 2.44863E-01 2.40374E-04-2.94423E-01 2.95988E-13 2.45325E-13
 -1       640 2.00254E+01 1.67281E-01 1.52670E-04-2.11342E-01 2.83885E-13 4.24653E-13
 -1       641 2.00296E+01 1.16001E-01 8.56480E-05-1.50543E-01 2.34579E-13 1.77390E-13
 -1       642 2.00258E+01 8.34743E-02 5.87123E-05-1.05755E-01 1.19439E-13 1.22026E-13
 -1       643 2.01136E+01 2.91564E-01 1.91143E-04 4.55246E-02 8.96992E-14 5.76038E-14
 -1       644 2.00535E+01 1.54254E-01 6.65755E-05-8.67185E-02 2.55387E-14 6.01345E-14
 -1       645 2.01913E+01 5.08565E-01 4.05709E-04 2.59714E-01 7.76123E-14 7.91764E-14
 -1       646 1.99874E+01 1.70658E-02-1.11451E-05-2.01538E-01 3.03057E-14 6.27466E-14
 -1       647 1.99751E+01-1.22170E-02-2.29080E-05-2.16565E-01 1.05093E-14 3.44917E-14
 -1       648 1.99722E+01-2.71094E-02-2.79512E-05-2.17552E-01 5.47777E-14-4.34469E-14
 -1       649 1.99766E+01-3.36135E-02-2.94340E-05-2.10920E-01 3.83306E-14-1.83912E-14
 -1       650 1.99868E+01-3.66981E-02-3.01538E-05-2.00463E-01 4.78848E-14-2.05309E-14
 -1       651 2.00026E+01-4.09172E-02-3.28642E-05-1.87697E-01 8.45300E-14 2.44407E-14
 -1       652 2.00248E+01-5.08103E-02-4.02220E-05-1.71997E-01 6.50452E-14 4.92269E-14
 -1       653 2.00549E+01-7.10594E-02-5.51803E-05-1.50562E-01 2.06575E-14-2.05975E-14
 -1       654 2.00955E+01-1.06285E-01-8.06284E-05-1.18308E-01 5.87650E-14 6.77456E-14
 -1       655 2.01492E+01-1.60302E-01-1.18702E-04-6.78189E-02 5.46083E-14-5.24834E-14
 -1       656 2.02186E+01-2.34563E-01-1.69559E-04 1.03832E-02-1.24748E-14-9.08455E-14
 -1       657 2.03036E+01-3.25621E-01-2.29030E-04 1.26815E-01-4.79201E-14 4.41620E-14
 -1       658 2.04002E+01-4.21753E-01-2.84394E-04 2.90630E-01-2.07190E-13 3.65046E-14
 -1       659 2.04965E+01-4.99641E-01-3.12642E-04 5.05128E-01-1.90532E-13 6.97838E-14
 -1       660 2.05713E+01-5.23225E-01-2.49018E-04 7.60826E-01-1.18985E-13 1.14410E-13
 -1       661 2.05951E+01-4.48497E-01-1.15257E-04 1.02691E+00 8.89048E-15 4.22835E-14
 -1       662 2.05384E+01-2.38273E-01 2.68161E-05 1.24497E+00 8.70472E-14 1.48775E-14
 -1       663 2.03888E+01 1.11958E-01 1.22914E-04 1.33329E+00-3.36462E-14 5.65872E-14
 -1       664 2.01705E+01 5.48638E-01 7.12797E-05 1.21116E+00 9.34561E-14 7.56987E-14
 -1       665 1.99508E+01 9.56396E-01 3.66767E-04 8.42077E-01 4.28682E-14-1.09081E-14
 -1       666 1.98165E+01 1.19720E+00 7.83325E-04 2.71514E-01-1.22428E-13 6.02571E-14
 -1       667 1.98289E+01 1.17601E+00 8.02096E-04-3.69327E-01-8.48380E-14 1.56141E-13
 -1       668 1.99823E+01 9.01516E-01 6.40788E-04-9.15790E-01 1.46451E-13 1.72786E-13
 -1       669 2.02082E+01 4.79952E-01 5.00731E-04-1.24752E+00 2.33468E-13 8.79687E-14
 -1       670 2.04196E+01 5.14844E-02 2.76775E-04-1.33325E+00 9.73099E-14-1.28310E-13
 -1       671 2.05556E+01-2.77136E-01 3.22765E-05-1.22038E+00-1.38168E-14-3.98760E-14
 -1       672 2.05990E+01-4.62876E-01-1.68634E-04-9.92358E-01 2.65210E-14 5.01155E-14
 -1       673 2.05663E+01-5.17298E-01-2.77483E-04-7.28152E-01-3.21805E-17-3.80917E-14
 -1       674 2.04879E+01-4.79815E-01-3.05063E-04-4.81968E-01-1.09892E-13 7.69837E-14
 -1       675 2.03924E+01-3.93796E-01-2.72672E-04-2.81053E-01 1.10310E-13 5.94540E-14
 -1       676 2.02996E+01-2.93340E-01-2.12300E-04-1.32615E-01-7.60204E-14 1.17975E-13
 -1       677 2.02198E+01-1.99688E-01-1.50080E-04-3.23387E-02-3.72034E-14 7.33466E-14
 -1       678 2.01566E+01-1.22984E-01-9.59782E-05 2.90471E-02 8.33206E-14 8.53618E-14
 -1       679 2.01092E+01-6.57582E-02-5.50961E-05 6.17477E-02 1.13214E-13 3.11267E-13
 -1       680 2.00749E+01-2.61053E-02-2.54921E-05 7.48623E-02 2.81256E-13 3.20416E-13
 -1       681 2.00508E+01-4.84315E-04 2.32030E-05 7.52685E-02 5.17160E-14 2.77834E-13
 -1       682 2.00335E+01 1.53461E-02 1.08981E-05 6.93016E-02-2.47710E-13 1.82427E-13
 -1       683 7.74232E+00 1.70001E+00 1.78565E-01 1.01084E+00 8.29718E-15 9.38069E-14
 -1       684 1.99706E+01 8.98240E-02-1.19545E-05 5.81685E-02 5.74933E-14 1.09349E-13
 -1       685 2.87481E+01 2.20329E+00-1.18687E-01 2.03043E+00 5.75581E-14-1.17198E-13
 -1       686 1.99870E+01 6.84990E-02-3.57216E-06 6.64298E-02 1.23359E-13-3.15559E-13
 -1       687 1.99551E+01 1.10861E-01-1.61648E-05 4.08050E-02 2.76992E-13-1.13159E-13
 -1       688 2.00123E+01 6.87153E-02 1.41362E-05-1.62820E-01 4.83408E-14 6.77852E-14
 -1       689 1.99440E+01 1.28102E-01-1.93322E-05 1.48667E-02-1.93776E-14 3.95667E-13
 -1       690 1.99411E+01 1.37524E-01-2.84467E-05-1.63674E-02-9.78041E-14 3.27627E-13
 -1       691 1.99494E+01 1.36200E-01-2.90427E-05-4.90150E-02-8.49925E-14-4.62401E-13
 -1       692 1.99695E+01 1.22318E-01-1.26337E-05-7.55502E-02-1.02792E-13-3.77457E-13
 -1       693 1.02964E+01-3.84375E-01 1.50024E-01 5.87608E+00-8.34680E-14 2.67772E-14
 -1       694 1.67152E+01-2.68420E+00 9.89701E-02 7.07180E+00-3.91916E-13 9.57116E-14
 -1       695 9.61726E+00 7.84437E-01 1.89382E-01-3.56503E+00-1.18343E-14 3.05672E-13
 -1       696 7.81730E+00 1.37565E+00 1.83385E-01 1.29685E+00 2.78017E-13-3.76713E-14
 -1       697 2.85235E+01-2.65183E+00-5.46632E-02-8.14340E-01 2.81147E-14-1.74633E-13
 -1       698 2.86576E+01 7.44623E+00-1.80411E-01-7.09381E-01 3.45543E-13-2.90747E-13
 -1       699 2.67810E+01-4.29968E+00-1.68674E-02-3.24303E+00 6.63532E-16-1.38650E-13
 -1       700 1.14982E+01 6.02148E-01 1.70938E-01 4.37532E+00 2.52076E-13 2.26520E-13
 -1       701 2.00016E+01 4.96073E-02-1.31719E-05 6.70074E-02 5.12761E-14-1.94656E-13
 -1       702 2.38260E+01-4.62788E+00 4.88873E-02 5.21460E+00-2.84113E-13-1.81081E-13
 -1       703 2.96681E+01-2.27235E-03-9.03493E-02-1.09319E+00 1.01946E-13-4.39832E-13
 -1       704 1.38669E+01 2.43302E+00 7.35669E-02-2.87116E+00-7.16215E-14 3.08725E-13
 -1       705 2.00215E+01 2.30830E+00-1.64018E-03-6.27131E-01 3.06650E-14-1.00303E-13
 -1       706 2.00251E+01 2.29938E+00-1.70061E-03 6.35976E-01 1.08558E-13 4.81657E-17
 -1       707 1.99290E+01 2.53136E+00-1.50546E-03-1.25773E-01 4.76155E-14-9.08835E-14
 -1       708 1.99591E+01 2.46001E+00-1.53629E-03-3.82509E-01 2.90622E-14-9.69226E-14
 -1       709 2.01156E+01 2.06695E+00-1.67242E-03-8.44000E-01-1.35069E-14-1.05702E-13
 -1       710 2.41874E+01-4.44410E+00 3.06829E-02-4.71554E+00-3.83756E-14-2.61366E-13
 -1       711 2.02753E+01 8.58566E-01 1.74661E-03 5.81565E-01 7.97973E-14 1.17405E-13
 -1       712 2.02567E+01 1.60361E+00-9.30659E-04-9.90920E-01-3.57532E-14-8.57665E-14
 -1       713 2.63428E+01 6.33742E+00-1.07564E-01 5.04526E-01 2.02567E-13-2.94437E-13
 -1       714 1.25727E+01 1.93374E+00 1.06319E-01 3.26943E+00 2.88506E-13 1.71894E-13
 -1       715 1.99996E+01 9.70509E-02 1.58988E-04-9.00614E-02-7.02633E-14-3.92811E-13
 -1       716 1.72973E+01-3.05041E+00 8.78249E-02-7.09680E+00 8.92585E-14-3.60073E-13
 -1       717 1.12455E+01-1.02968E-01 1.33122E-01-5.49231E+00 2.12733E-13-7.36466E-13
 -1       718 2.84059E+01 2.39171E+00-9.65536E-02-2.13011E+00 3.66832E-13-6.46368E-13
 -1       719 2.77208E+01-6.81677E-01-3.64771E-02 1.28290E+00 6.63809E-14-1.77100E-13
 -1       720 2.02670E+01 1.31286E+00-4.84496E-04 6.27632E-01 1.02007E-13 6.58609E-14
 -1       721 1.46382E+01-1.48225E-01 6.77761E-02 5.12303E+00-1.83883E-13 1.38483E-14
 -1       722 2.64225E+01-3.34826E+00-1.82650E-02-1.30369E+00 2.23170E-14-3.94266E-13
 -1       723 2.02998E+01 7.29916E-01 5.32554E-04-2.88358E-01-6.25813E-14-6.18343E-14
 -1       724 2.02644E+01 4.41738E-01-7.13543E-05-8.52458E-02-3.76929E-14-7.04536E-14
 -1       725 2.02249E+01 2.47598E-01 1.21652E-05 4.86542E-02-4.19079E-14-6.21326E-14
 -1       726 2.01834E+01 1.22913E-01-6.31309E-06 1.31442E-01-7.41372E-15-4.72261E-14
 -1       727 2.01453E+01 4.78386E-02-6.62006E-06 1.78682E-01-1.43176E-14-1.65903E-14
 -1       728 2.01117E+01 8.75649E-03-6.22104E-06 2.03030E-01 2.21863E-14-1.72964E-14
 -1       729 2.00818E+01-3.24126E-03-5.31650E-06 2.14462E-01 2.29734E-14 5.85774E-14
 -1       730 2.00536E+01 6.55653E-03-3.83487E-06 2.20614E-01-1.58038E-14 7.43938E-14
 -1       731 2.00235E+01 3.58871E-02-1.69172E-06 2.27247E-01-2.86702E-14 1.30957E-13
 -1       732 1.99862E+01 8.52301E-02-7.47086E-06 2.38640E-01-2.12395E-14 4.46814E-14
 -1       733 1.99302E+01 1.62519E-01 1.16173E-05 2.58811E-01 1.46740E-14-4.61132E-14
 -1       734 1.98470E+01 2.67413E-01 5.20614E-06 2.87128E-01 3.80639E-14-8.66090E-14
 -1       735 1.97149E+01 4.12592E-01 5.91883E-06 3.23088E-01-1.00904E-14-9.18351E-14
 -1       736 1.95031E+01 6.10873E-01-4.35648E-07 3.61160E-01-1.34642E-13-2.07600E-13
 -1       737 1.91651E+01 8.75775E-01-3.20285E-05 3.88612E-01-6.88499E-14-2.11260E-13
 -1       738 1.86325E+01 1.21651E+00-7.74722E-05 3.81096E-01-7.45686E-14-9.53664E-14
 -1       739 1.78062E+01 1.62684E+00 2.63605E-04 2.97670E-01-4.00849E-14-1.19155E-13
 -1       740 1.65428E+01 2.06598E+00 3.79944E-03 7.70648E-02 3.58646E-14-1.32591E-13
 -1       741 1.46507E+01 2.39729E+00 1.45223E-02-3.53996E-01 2.88566E-13-2.69331E-13
 -1       742 2.02881E+01 9.36405E-01 9.76986E-04 4.41342E-01 9.54726E-14 9.19748E-14
 -1       743 1.73168E+01 1.92902E+00 1.33581E-03-5.43902E-01-6.14797E-14-7.36336E-14
 -1       744 1.83488E+01 1.46703E+00 1.57120E-04-5.61868E-01 1.99936E-13-1.39509E-13
 -1       745 1.90063E+01 1.07330E+00 5.43085E-05-5.12164E-01-1.07587E-13 1.32938E-13
 -1       746 1.94167E+01 7.66325E-01 6.91847E-05-4.34281E-01-1.92889E-13 1.67811E-13
 -1       747 1.96677E+01 5.39107E-01 6.38101E-05-3.51772E-01 1.53266E-13 1.56523E-13
 -1       748 1.98181E+01 3.76462E-01 4.92696E-05-2.76418E-01 3.11784E-13 4.44702E-14
 -1       749 1.99061E+01 2.62715E-01 2.78585E-05-2.12681E-01 2.74339E-13-1.71648E-13
 -1       750 1.99560E+01 1.85212E-01 6.64276E-05-1.61519E-01 2.45527E-13-2.34912E-13
 -1       751 1.99851E+01 1.32322E-01 3.56924E-05-1.23058E-01 8.16630E-14-1.43590E-13
 -1       752 1.99095E+01 1.68085E-01-4.57524E-05-3.18533E-02-8.93201E-14-3.57835E-13
 -1       753 1.15286E+01 1.96093E+00 6.93765E-02 2.47884E+00-1.85750E-13-9.81541E-14
 -1       754 2.02285E+01 3.33075E-01 3.99619E-05 1.70175E-02 6.15606E-14 1.21398E-13
 -1       755 2.02712E+01 5.67125E-01-4.03732E-04 1.90544E-01 8.95138E-14 1.11228E-13
 -1       756 2.00826E+01-1.74739E-02-7.75365E-06-2.06359E-01 6.99507E-14 3.70355E-14
 -1       757 2.01098E+01 1.65178E-02-6.69693E-06-1.92098E-01 5.38351E-14 6.37432E-14
 -1       758 2.00490E+01-4.20132E-02-7.03232E-06-2.06002E-01 5.06921E-14 5.48095E-14
 -1       759 2.00433E+01-4.67682E-02-6.65931E-06-2.00451E-01 8.27497E-14 2.44610E-14
 -1       760 2.00469E+01-5.50369E-02-7.29348E-06-1.93833E-01 4.58060E-14 1.95304E-14
 -1       761 2.00627E+01-7.33007E-02-9.24936E-06-1.85504E-01 3.05063E-14 1.19469E-13
 -1       762 2.00954E+01-1.08296E-01-1.39311E-05-1.72589E-01 4.62337E-14 8.55509E-14
 -1       763 2.01511E+01-1.66615E-01-2.32743E-05-1.49653E-01 1.52284E-13-1.72794E-14
 -1       764 2.02370E+01-2.53438E-01-3.98136E-05-1.08228E-01 4.70236E-14 6.29559E-14
 -1       765 2.03604E+01-3.69958E-01-6.52559E-05-3.65804E-02-1.11726E-13 1.62635E-13
 -1       766 2.05254E+01-5.09233E-01-1.00769E-04 7.97515E-02-1.62706E-13 1.13988E-13
 -1       767 2.07285E+01-6.50569E-01-1.35125E-04 2.55531E-01-1.72756E-13-1.35493E-14
 -1       768 2.09529E+01-7.54086E-01-1.44763E-04 4.99938E-01-1.45956E-13 1.85296E-14
 -1       769 2.11632E+01-7.58890E-01 4.45897E-05 8.05905E-01-5.11015E-14-6.42645E-14
 -1       770 2.13065E+01-5.92592E-01 1.55268E-04 1.13453E+00-2.39533E-14-1.79324E-14
 -1       771 2.13270E+01-1.99747E-01-3.59833E-05 1.40055E+00-2.10678E-14 6.68937E-14
 -1       772 2.12013E+01 4.05217E-01-4.85371E-04 1.48117E+00-8.09813E-14 1.08916E-13
 -1       773 2.09705E+01 1.09813E+00-1.04032E-03 1.25812E+00 9.21812E-14 2.53566E-13
 -1       774 2.07513E+01 1.65589E+00 7.60525E-04 7.05372E-01-3.43442E-14 3.15063E-13
 -1       775 2.06715E+01 1.84775E+00 1.17567E-03-6.25231E-02-5.08880E-14 1.34955E-13
 -1       776 2.07800E+01 1.58840E+00 4.14897E-04-8.11476E-01-7.75179E-14-5.95547E-15
 -1       777 2.10110E+01 9.94209E-01 2.39579E-04-1.31762E+00 1.87831E-13 1.74194E-13
 -1       778 2.12310E+01 3.02556E-01 1.70419E-04-1.48738E+00 2.47360E-13 9.63634E-14
 -1       779 2.13348E+01-2.72590E-01 5.99707E-05-1.37047E+00-2.94761E-14 4.12609E-14
 -1       780 2.12920E+01-6.25642E-01-1.69415E-05-1.08923E+00-7.98913E-14 4.04599E-14
 -1       781 2.11347E+01-7.58153E-01-8.02624E-05-7.63022E-01 4.13417E-14 2.24814E-14
 -1       782 2.09192E+01-7.29913E-01-1.32421E-04-4.69032E-01-1.74031E-13-5.65611E-14
 -1       783 2.06962E+01-6.12837E-01-1.30055E-04-2.40687E-01 2.52226E-14-1.35518E-13
 -1       784 2.04981E+01-4.64751E-01-9.23105E-05-8.18251E-02-2.55260E-14 1.32302E-13
 -1       785 2.03390E+01-3.22128E-01-5.68762E-05 1.80152E-02-2.20620E-13 2.69826E-14
 -1       786 2.02206E+01-2.02979E-01-2.99496E-05 7.35119E-02-2.14104E-13 8.19451E-14
 -1       787 2.01378E+01-1.12706E-01-1.40695E-05 9.85091E-02-2.34513E-13 3.45990E-13
 -1       788 2.00829E+01-4.95630E-02-2.81769E-05 1.04106E-01 1.55323E-13 5.60961E-13
 -1       789 2.00484E+01-7.80978E-03 3.89111E-05 9.83340E-02 1.98293E-13 4.56510E-13
 -1       790 1.99091E+01 1.56462E-01-7.64033E-06 1.15221E-02-2.24557E-13 3.18020E-13
 -1       791 2.61061E+01 3.42769E+00-6.58595E-02 2.06901E+00 3.18530E-14-3.08250E-13
 -1       792 1.99284E+01 1.64429E-01-4.06572E-05-7.61584E-02-5.32039E-14-2.66625E-13
 -1       793 1.17225E+01 2.65236E+00 7.58179E-02-4.92671E-02 3.27782E-13-1.56580E-13
 -1       794 1.54511E+01-1.06003E+00 2.06142E-01-5.49040E+00-7.01834E-14-8.41618E-14
 -1       795 2.02748E+01 1.28679E+00 1.05015E-03-6.66404E-01-3.02896E-14-1.01100E-13
 -1       796 2.00079E+01 3.81266E-02 4.28158E-05 8.48303E-02 2.58734E-15 1.21312E-13
 -1       797 1.99724E+01 7.56097E-02-7.94347E-06 8.45605E-02 2.85939E-13-9.82166E-14
 -1       798 2.00623E+01-3.44544E-02-7.56895E-06-2.09110E-01 2.67702E-14 2.23225E-14
 -1       799 1.57216E+01 2.38936E+00 9.18714E-03-4.14276E-01-1.41042E-14 2.04827E-13
 -1       800 2.70376E+01 5.35342E+00-1.13139E-01-1.72697E+00 2.51986E-13-4.03346E-13
 -1       801 1.99468E+01 1.04345E-01 7.59911E-07 7.27843E-02 4.85930E-14-4.13310E-14
 -1       802 1.99909E+01 5.54780E-02 1.36019E-05 8.71007E-02 2.16088E-13-4.00164E-13
 -1       803 2.54897E+01-3.82756E+00-9.79651E-03 2.56830E+00-1.01930E-13-5.37350E-13
 -1       804 2.01392E+01 1.89647E+00-3.17437E-04 1.98237E-01 8.16336E-14-2.72193E-14
 -1       805 1.35189E+01 2.68994E+00 3.03627E-02-6.09633E-01-1.61590E-13 1.49422E-13
 -1       806 2.06314E+01-3.04304E+00 2.22014E-02 5.25516E+00-1.93673E-13-8.48592E-14
 -1       807 2.74575E+01-2.11739E+00-2.94101E-02-1.58580E-01-2.07806E-13-3.72105E-13
 -1       808 1.99236E+01 1.33201E-01 2.81064E-06 4.81159E-02 1.31587E-13-6.26557E-14
 -1       809 1.81526E+01-1.20746E+00 1.97214E-02 4.73028E+00-1.42683E-13 4.55092E-14
 -1       810 2.01697E+01 1.78934E+00-2.61164E-04-3.73623E-01 2.46719E-14-1.18913E-13
 -1       811 2.01277E+01 1.93490E+00-3.08298E-04 3.71854E-03 4.63586E-14-7.56264E-14
 -1       812 2.43513E+01-5.58884E+00 3.77039E-02 4.35428E+00 8.18512E-14 2.27589E-13
 -1       813 2.02171E+01 1.58980E+00-7.39436E-04 5.30276E-01 8.32619E-14 7.59990E-15
 -1       814 2.02222E+01 1.59562E+00-2.02351E-04-5.31742E-01 1.21783E-15-4.25167E-14
 -1       815 2.16786E+01-3.76565E+00 2.84813E-02-5.44163E+00-3.30378E-14-2.75051E-13
 -1       816 2.51994E+01 5.45789E+00-6.69834E-02-6.86385E-01 2.34555E-13-3.82453E-13
 -1       817 2.47828E+01 4.44183E+00-4.56979E-02 1.39199E+00 1.55116E-13-1.89091E-13
 -1       818 2.01844E+01 1.76572E-01 3.26307E-06-9.30744E-02 3.50985E-14 5.88834E-14
 -1       819 2.01439E+01 7.69987E-02-4.15332E-06-1.58084E-01 5.15939E-14 6.36018E-14
 -1       820 2.00243E+01 1.79550E-02-1.79141E-05 9.45216E-02 1.54817E-13 3.98204E-13
 -1       821 2.29864E+01-3.25104E+00 5.76531E-03 3.46680E+00-2.53639E-14-2.22681E-13
 -1       822 2.58993E+01 1.10205E+00-2.31319E-02 2.03298E+00-1.09155E-13-4.37922E-14
 -1       823 2.49358E+01-3.70720E+00 9.34630E-03-2.70515E+00-1.77211E-14-2.73814E-13
 -1       824 1.51904E+01-1.11416E+00 7.20039E-02-5.98186E+00-1.72952E-14-4.30267E-13
 -1       825 2.70778E+01-3.82180E-01-4.34015E-02-1.48971E+00 7.47666E-14-6.03550E-13
 -1       826 2.01708E+01 1.78314E+00-4.95933E-04 3.77799E-01 9.04959E-14-2.64310E-14
 -1       827 1.19617E+01 1.49713E+00 9.37641E-02-3.16939E+00 2.18724E-13-5.10715E-13
 -1       828 2.01386E+01 1.89952E+00-2.20456E-04-1.91288E-01 3.47516E-14-8.85803E-14
 -1       829 2.57223E+01-1.76087E+00-1.96297E-02 6.45043E-01 5.57080E-14 7.75057E-14
 -1       830 1.45397E+01 2.01165E+00 2.39647E-02 1.66129E+00 1.29287E-14-2.12756E-13
 -1       831 2.03323E+01 4.41671E-01-3.47790E-04-3.68619E-02-2.85403E-14 1.19423E-14
 -1       832 2.03033E+01 2.48144E-01 5.80208E-06 6.20248E-02 3.11504E-15 1.75581E-14
 -1       833 2.02643E+01 1.21099E-01-9.35479E-06 1.23384E-01-6.10872E-15 1.50258E-14
 -1       834 2.02205E+01 4.60959E-02-3.33193E-06 1.58535E-01-2.20769E-14-4.29984E-16
 -1       835 2.01749E+01 1.00055E-02-2.05672E-06 1.76516E-01 1.40268E-14-8.67693E-14
 -1       836 2.01282E+01 3.94280E-03-1.86812E-06 1.84441E-01 1.48842E-14-1.03579E-13
 -1       837 2.00785E+01 2.24902E-02-2.32323E-06 1.87400E-01-4.51530E-15-6.29873E-14
 -1       838 2.00220E+01 6.31973E-02-1.06889E-05 1.88531E-01-3.42565E-14-5.25343E-14
 -1       839 1.99479E+01 1.30338E-01-5.14981E-07 1.88687E-01-3.80540E-14-1.50983E-14
 -1       840 1.98525E+01 2.20696E-01-1.23829E-05 1.86013E-01 6.04891E-14-5.69627E-14
 -1       841 1.97174E+01 3.41900E-01-2.06930E-05 1.75018E-01-1.26313E-14-8.76555E-14
 -1       842 1.95202E+01 5.00511E-01-3.33867E-05 1.44373E-01-1.03546E-13-1.11352E-13
 -1       843 1.92296E+01 7.02056E-01-6.28341E-05 7.40015E-02-8.65238E-14-6.41859E-14
 -1       844 1.88028E+01 9.46611E-01-1.20343E-04-6.94166E-02-4.75954E-14-6.22618E-14
 -1       845 1.81837E+01 1.22024E+00-1.21104E-04-3.38306E-01-4.24958E-14-1.19489E-13
 -1       846 1.73006E+01 1.47996E+00 5.37330E-04-8.10884E-01 3.83715E-14-7.42720E-14
 -1       847 1.60799E+01 1.62940E+00 9.81049E-03-1.59557E+00 8.72051E-15-8.51236E-14
 -1       848 2.60682E+01 2.99315E+00-5.27529E-02-2.13883E+00 2.04092E-13-4.21800E-13
 -1       849 1.84741E+01 1.19391E+00-1.43867E-04 3.97331E-02 1.19509E-13-4.19989E-14
 -1       850 1.90185E+01 9.04048E-01-1.09099E-04-9.88453E-02-1.60629E-13 5.78242E-14
 -1       851 1.93796E+01 6.67688E-01-5.15515E-05-1.53926E-01 2.78059E-14 2.69423E-13
 -1       852 1.96150E+01 4.85583E-01-1.64272E-05-1.63742E-01-5.29553E-14 5.29164E-14
 -1       853 1.97663E+01 3.50388E-01-2.58230E-05-1.51472E-01 7.74595E-14-3.20391E-13
 -1       854 1.98612E+01 2.53373E-01-1.64815E-04-1.30708E-01 9.96286E-14-2.92488E-13
 -1       855 1.98990E+01 2.02814E-01-7.60272E-05-1.00295E-01 2.87446E-13-4.02665E-13
 -1       856 1.54602E+01 6.75410E-01 2.52453E-02 3.72376E+00-2.48106E-13 7.68743E-15
 -1       857 2.01895E+01 1.10487E-02-2.46050E-06-1.71547E-01 8.55685E-14 8.51697E-15
 -1       858 2.00744E+01-5.14987E-02 8.54102E-08-1.93831E-01 3.20153E-14 1.09539E-13
 -1       859 2.00916E+01-4.59420E-02-7.28622E-07-1.91136E-01 7.07849E-14 5.62751E-14
 -1       860 2.00843E+01-9.10117E-02 4.73713E-07-2.05483E-01 7.51586E-14 3.15487E-14
 -1       861 2.01247E+01-1.42357E-01 3.97380E-07-2.12125E-01 7.07935E-14 7.75960E-14
 -1       862 2.02021E+01-2.26786E-01-5.74534E-06-2.13343E-01 1.11894E-14 2.30838E-13
 -1       863 2.03296E+01-3.51465E-01-1.79537E-05-1.99652E-01-1.35313E-13 1.97064E-13
 -1       864 2.05208E+01-5.18045E-01-4.34248E-05-1.55928E-01-1.12721E-13 2.20662E-13
 -1       865 2.07855E+01-7.16216E-01-9.11593E-05-6.05853E-02-1.13028E-13 1.91054E-13
 -1       866 2.11223E+01-9.14365E-01-1.34235E-04 1.12454E-01-1.73852E-13 1.00625E-13
 -1       867 2.15079E+01-1.05038E+00-1.59747E-04 3.85938E-01-9.01264E-14 8.68927E-14
 -1       868 2.18872E+01-1.02612E+00 6.35731E-04 7.61778E-01-2.35803E-15 6.69616E-14
 -1       869 2.21676E+01-7.21547E-01 6.49408E-04 1.19422E+00-1.03368E-13 1.24457E-13
 -1       870 2.22565E+01-6.21843E-02-1.40020E-03 1.54578E+00-2.17280E-13 3.51694E-13
 -1       871 2.21110E+01 8.88707E-01 3.23778E-03 1.61238E+00-1.01526E-13 3.35114E-13
 -1       872 2.18077E+01 1.91962E+00-1.21973E-03 1.24951E+00-2.80001E-15 3.85417E-13
 -1       873 2.16175E+01 2.54899E+00 2.81293E-04 4.20395E-01 2.45769E-14 4.76431E-13
 -1       874 2.16383E+01 2.50212E+00-8.91104E-06-5.68741E-01 3.81938E-14 4.65625E-13
 -1       875 2.18769E+01 1.78051E+00-1.26294E-03-1.33181E+00 6.80857E-14 1.53496E-13
 -1       876 2.21495E+01 7.48534E-01-1.06756E-03-1.63481E+00 1.62822E-13-1.47159E-14
 -1       877 2.22566E+01-1.80961E-01-3.85827E-04-1.50440E+00 2.48338E-14 2.02005E-13
 -1       878 2.21342E+01-7.85235E-01-1.80771E-04-1.12923E+00-3.71426E-14 1.45872E-13
 -1       879 2.18308E+01-1.03471E+00 3.00385E-05-7.04217E-01 1.32292E-14 5.54201E-15
 -1       880 2.14450E+01-1.02263E+00-6.73242E-05-3.45295E-01 5.02131E-15 9.16372E-14
 -1       881 2.10625E+01-8.66402E-01-1.22444E-04-9.25681E-02-1.14555E-13 1.19321E-13
 -1       882 2.07339E+01-6.59169E-01-7.56212E-05 6.09464E-02-6.10403E-14 1.08834E-13
 -1       883 2.04778E+01-4.57743E-01-3.08236E-05 1.39650E-01-2.02423E-13 3.54384E-14
 -1       884 2.02928E+01-2.89235E-01 2.34271E-06 1.68909E-01-2.80570E-13 6.90460E-14
 -1       885 2.01678E+01-1.61665E-01 6.09809E-06 1.69010E-01-5.08074E-13 5.66214E-14
 -1       886 2.00884E+01-7.24060E-02 1.21410E-05 1.53923E-01-1.37843E-13-6.16540E-14
 -1       887 2.00404E+01-1.28422E-02 4.41975E-05 1.33162E-01 1.97495E-13-1.09706E-13
 -1       888 1.98621E+01 1.99062E-01 2.39077E-05 5.53432E-03-1.45968E-13 3.05764E-13
 -1       889 2.00702E+01-6.36949E-02 1.44339E-06-1.98645E-01 1.49766E-14 1.17219E-13
 -1       890 1.98700E+01 2.09678E-01-3.53109E-05-4.84187E-02 1.32714E-14 4.11973E-16
 -1       891 1.43603E+01 1.74049E+00 2.68081E-02-2.35261E+00 1.98326E-13-2.93699E-13
 -1       892 1.64907E+01 1.81761E+00 1.02213E-03 8.13560E-01-2.15498E-13-1.25943E-13
 -1       893 1.76667E+01 1.51657E+00 2.14819E-04 3.21306E-01 2.21914E-14 1.69658E-14
 -1       894 1.99505E+01 8.56825E-02-6.23449E-05 1.09638E-01 1.93917E-13-1.01600E-13
 -1       895 2.03382E+01 7.37196E-01 6.32069E-04-1.84255E-01-5.16078E-14 9.33200E-16
 -1       896 1.98792E+01 1.67449E-01 2.20515E-05 5.80771E-02-3.79400E-13-6.45710E-14
 -1       897 2.02938E+01 1.18385E+00 2.28831E-04 3.99711E-01 8.60929E-14 3.59554E-14
 -1       898 2.54736E+01-2.60160E+00-9.37343E-03 4.73147E-01-2.88722E-13-1.94317E-13
 -1       899 1.44301E+01 5.59687E-01 3.94164E-02-4.21619E+00 3.81986E-14-3.92950E-13
 -1       900 1.99122E+01 1.26819E-01 5.98261E-06 9.33038E-02-2.09558E-13-2.24950E-13
 -1       901 2.52928E+01-2.48325E+00 8.08222E-03-3.29893E-01-1.16442E-13 6.12722E-14
 -1       902 2.05293E+01-2.00349E+00 8.10106E-03 3.85855E+00-9.65851E-14 2.21945E-14
 -1       903 2.02743E+01 1.41697E+00-2.59745E-05 6.91063E-02 4.43422E-14-3.48868E-14
 -1       904 2.03000E+01 1.20086E+00-9.98845E-04-3.05932E-01 2.20632E-16-5.99250E-14
 -1       905 2.45259E+01 3.89669E+00-3.72557E-02-1.52652E+00 2.67271E-13-3.58118E-13
 -1       906 2.39757E+01-2.81020E+00 3.88364E-03 1.55361E+00-1.48492E-15-4.83882E-13
 -1       907 1.91523E+01-2.33277E+00 3.68315E-02-5.43914E+00-5.04640E-14-3.72392E-13
 -1       908 2.38124E+01 4.49434E+00-3.15971E-02 3.81564E-01 6.57044E-14-5.60938E-14
 -1       909 2.42879E+01 2.58519E+00-2.47605E-02 1.90060E+00-8.16821E-14 7.00256E-14
 -1       910 2.02306E+01 7.35051E-02-1.02603E-06-1.44881E-01 5.95694E-14 3.40210E-14
 -1       911 2.00036E+01 3.42829E-02-3.36775E-04 1.05100E-01 1.41721E-13-4.33799E-13
 -1       912 2.01180E+01-3.91134E-02-1.32037E-06-1.88919E-01 4.73282E-14 2.51480E-14
 -1       913 2.03066E+01 3.38954E-01-1.20797E-04-1.25435E-02 8.04711E-14 5.40727E-14
 -1       914 2.03287E+01 5.79916E-01 4.07401E-04 1.14817E-01 8.16849E-14 5.99606E-14
 -1       915 2.02861E+01 1.34345E+00 1.13706E-04-2.03984E-01 4.85379E-14-8.20154E-14
 -1       916 1.99770E+01 5.89046E-02-6.56312E-05 1.13375E-01 9.45399E-14-8.51158E-14
 -1       917 2.01512E+01-2.30306E-02-1.87945E-06-1.84000E-01 5.05078E-14 1.15263E-14
 -1       918 2.55556E+01-1.65501E+00-1.93399E-02-7.23328E-01 2.50743E-15-4.77646E-13
 -1       919 2.02848E+01 1.34832E+00 9.58402E-05 1.95329E-01 7.63420E-14 3.97249E-15
 -1       920 2.03639E+01 8.59356E-01 1.18165E-04-1.41211E-01-4.49428E-15-2.03283E-14
 -1       921 2.03521E+01 2.25862E-01-2.55495E-05 6.46782E-02-2.77463E-14 2.79589E-14
 -1       922 2.03108E+01 1.06274E-01-3.83650E-06 1.04062E-01-1.24128E-14-2.08952E-14
 -1       923 2.02602E+01 3.81977E-02 2.41272E-07 1.25813E-01-2.40009E-14 1.91744E-14
 -1       924 2.02041E+01 9.33428E-03 9.82053E-07 1.35456E-01 2.60081E-14 3.18528E-14
 -1       925 2.01436E+01 1.09417E-02 1.01821E-06 1.36981E-01-3.05405E-15 1.74860E-14
 -1       926 2.00771E+01 3.73280E-02-4.78798E-06 1.32487E-01 8.54035E-15 3.50926E-14
 -1       927 1.99966E+01 8.85242E-02 4.64550E-06 1.20917E-01-2.80236E-14 6.79049E-14
 -1       928 1.99027E+01 1.58810E-01-6.30769E-06 1.00091E-01 3.31365E-14 1.06119E-13
 -1       929 1.97826E+01 2.50389E-01-1.04579E-05 6.25755E-02-6.42588E-15 1.50782E-14
 -1       930 1.96228E+01 3.64023E-01-4.07488E-06-4.39876E-03-7.25368E-14-5.85829E-14
 -1       931 1.94069E+01 4.97994E-01 3.98054E-07-1.21423E-01-4.78682E-14-9.22234E-14
 -1       932 1.91156E+01 6.44300E-01 3.41116E-06-3.20270E-01-9.22291E-14-3.23524E-14
 -1       933 1.87299E+01 7.81374E-01-3.63918E-06-6.47596E-01 1.79177E-14 6.73527E-16
 -1       934 1.82379E+01 8.62188E-01 2.30825E-05-1.16832E+00-3.82586E-14 2.82020E-14
 -1       935 1.76566E+01 7.96231E-01 9.88792E-04-1.97203E+00 4.09178E-15-1.29304E-13
 -1       936 2.51725E+01 8.23405E-01-1.64436E-02-1.96249E+00 6.56983E-14-2.17684E-13
 -1       937 2.02715E+01 1.77354E-01 2.04316E-05-9.53636E-02 3.02570E-14 6.48113E-14
 -1       938 1.91993E+01 6.80603E-01-6.46358E-05 1.62687E-01 6.21120E-15-6.58314E-14
 -1       939 1.94643E+01 5.26423E-01-1.49238E-05 3.74218E-02-1.71690E-13-1.56270E-13
 -1       940 1.96485E+01 3.98865E-01-2.47171E-05-2.62991E-02-2.39929E-13-4.46399E-15
 -1       941 1.97737E+01 2.99979E-01-3.56836E-05-5.39288E-02 1.50372E-13-1.89065E-13
 -1       942 1.98285E+01 2.50598E-01 3.77865E-04-5.20976E-02 1.73731E-13-8.40249E-15
 -1       943 2.01060E+01-4.20627E-02-2.28354E-07-1.70739E-01 9.14347E-14-1.93999E-14
 -1       944 2.01288E+01-1.61185E-01 6.72157E-06-2.78772E-01-4.68568E-14 1.83464E-13
 -1       945 2.00812E+01-9.48908E-02 1.21817E-05-2.39180E-01 3.14017E-14 1.59142E-13
 -1       946 2.03981E+01-4.37243E-01-2.09705E-06-3.60216E-01-7.38486E-14 1.45797E-13
 -1       947 2.06638E+01-6.62417E-01-2.74532E-05-3.72190E-01-8.83781E-14 4.37863E-14
 -1       948 2.10453E+01-9.35732E-01-1.22184E-04-3.25194E-01-1.52042E-13 1.16477E-13
 -1       949 2.15477E+01-1.21325E+00-1.34635E-04-1.73864E-01-1.11943E-13 1.01882E-13
 -1       950 2.21456E+01-1.40496E+00-1.55137E-04 1.33793E-01-1.70908E-14 1.84589E-13
 -1       951 2.27485E+01-1.36418E+00 1.25359E-04 6.12311E-01-2.28987E-13 2.76521E-13
 -1       952 2.32042E+01-8.44582E-01 1.25568E-03 1.20604E+00-2.13580E-13 2.80395E-13
 -1       953 2.33697E+01 2.30547E-01 6.30799E-03 1.71321E+00-1.09115E-13 1.83084E-13
 -1       954 2.26949E+01 3.58421E+00-1.20291E-02-1.05216E-01-1.00347E-14 1.84207E-13
 -1       955 2.28942E+01 2.92917E+00-6.31690E-03-1.25541E+00 2.37709E-13 2.20406E-13
 -1       956 2.32178E+01 1.49292E+00-1.08458E-02-1.79980E+00 2.30005E-13 7.32771E-14
 -1       957 2.33770E+01 7.93389E-03-1.54748E-03-1.64699E+00-5.96894E-14 9.31641E-14
 -1       958 2.31561E+01-9.64892E-01-3.02020E-03-1.11783E+00 1.30241E-13 2.80390E-14
 -1       959 2.26602E+01-1.37194E+00 2.65102E-04-5.31789E-01-5.00326E-14 4.34435E-14
 -1       960 2.20447E+01-1.37159E+00 1.35172E-04-7.83413E-02 1.03136E-13-6.90131E-15
 -1       961 2.14559E+01-1.15278E+00-7.78161E-05 1.97514E-01-2.92826E-14-1.33519E-13
 -1       962 2.09682E+01-8.64468E-01-6.70502E-05 3.24817E-01-3.87186E-14 2.71584E-16
 -1       963 2.06014E+01-5.90010E-01-1.23847E-05 3.54625E-01-3.26394E-13 1.13293E-13
 -1       964 2.03455E+01-3.65103E-01 6.47002E-05 3.30816E-01-1.99863E-13 2.51176E-13
 -1       965 2.01788E+01-1.98270E-01 3.05148E-05 2.83491E-01-2.75814E-13 6.66689E-14
 -1       966 2.00778E+01-8.39508E-02 2.33193E-05 2.30777E-01-1.61179E-13-7.07361E-14
 -1       967 2.00201E+01-9.70579E-03 3.19082E-05 1.81734E-01 1.12408E-13-9.71692E-14
 -1       968 1.67797E+01 5.00723E-01 9.10101E-03-3.20266E+00-3.23157E-15-1.54259E-13
 -1       969 1.76212E+01 1.11275E+00 2.03210E-03 1.39758E+00-1.13462E-13-1.28251E-13
 -1       970 1.66831E+01 1.06695E+00 5.54120E-03 2.32886E+00-1.42709E-13-1.78462E-13
 -1       971 2.02276E+01-2.71686E-01 8.24916E-06-3.22486E-01-9.74004E-14 2.21357E-13
 -1       972 2.21087E+01-2.84719E+00 1.42363E-02-3.67031E+00 6.18775E-14-7.42827E-14
 -1       973 2.02734E+01 1.41855E+00-1.98023E-04-6.38353E-02 4.85237E-14-9.96756E-14
 -1       974 1.83044E+01 1.01811E+00-1.18786E-04 7.74131E-01 7.20929E-14-7.29452E-14
 -1       975 1.88263E+01 8.52109E-01-1.17663E-04 3.88094E-01 1.66709E-13-1.85238E-13
 -1       976 1.98158E+01 2.18663E-01-2.40606E-05 6.97576E-02-1.08340E-13 5.57656E-13
 -1       977 2.44228E+01-2.13809E-01-1.30511E-02 1.65287E+00-1.11352E-13 5.63237E-14
 -1       978 1.73882E+01-7.57711E-01 2.34692E-02-4.60351E+00 1.26852E-16-2.43694E-13
 -1       979 2.03783E+01 4.11383E-01 2.56577E-04 1.67923E-04 2.00762E-14 3.93302E-14
 -1       980 2.02845E+01 1.30198E+00 1.42069E-03 3.04325E-01 7.92820E-14-2.32366E-14
 -1       981 2.29186E+01 3.47863E+00-1.77919E-02 8.04596E-01-3.09557E-14 1.18361E-13
 -1       982 2.22419E+01-2.33331E+00 1.61531E-03 2.45602E+00 9.36957E-15-5.36358E-13
 -1       983 1.98615E+01 1.61419E-01 1.69816E-05 1.22370E-01-1.96577E-13-3.25917E-13
 -1       984 2.42896E+01-2.03190E+00-2.03875E-03-9.37142E-02-2.03375E-13-3.03410E-14
 -1       985 2.03606E+01 3.13628E-01-2.35317E-04-3.13778E-02 6.85718E-14 2.29804E-14
 -1       986 2.03639E+01 9.85144E-01-2.33620E-04 7.57861E-02 6.93083E-14 3.55870E-14
 -1       987 2.01430E+01-3.85149E-02 7.01791E-07-1.60812E-01 2.64214E-14-5.09675E-14
 -1       988 2.00796E+01-4.63276E-02 7.18568E-06-1.85577E-01-1.42071E-14 9.56469E-15
 -1       989 2.02819E+01 6.06560E-02-1.92970E-06-1.22148E-01 1.08280E-13-5.02208E-14
 -1       990 1.98110E+01 2.43144E-01 6.75110E-06 1.05491E-02 2.07509E-13 4.12344E-13
 -1       991 2.00686E+01-6.04369E-02 3.21148E-06-2.07995E-01 2.19703E-14 1.03941E-13
 -1       992 2.36298E+01-2.78684E+00-8.54108E-03-1.72213E+00-2.56790E-13-1.73041E-14
 -1       993 2.03694E+01 5.54504E-01 3.25427E-04 5.38443E-02 7.30818E-14 3.75812E-14
 -1       994 2.03646E+01 1.01716E+00 7.82085E-04 2.82669E-03 3.80507E-14-8.34168E-14
 -1       995 2.43360E+01-1.68131E+00-2.38282E-03 5.82854E-01-1.12662E-13 1.34091E-13
 -1       996 1.99186E+01 1.01566E-01 1.73830E-05 1.47045E-01-1.13960E-13-6.04977E-13
 -1       997 2.03543E+01 8.62821E-01-7.97180E-04 1.62819E-01 3.64719E-14-2.15844E-14
 -1       998 2.02341E+01 2.78943E-03 2.58431E-07-1.41322E-01 5.50054E-14-2.70910E-14
 -1       999 1.81070E+01-1.83964E-01 6.90259E-03 3.30990E+00-2.44846E-13 1.08506E-13
 -1      1000 2.41309E+01-8.55877E-01-1.69536E-03-1.26815E+00 1.47942E-14-8.27258E-14
 -1      1001 2.33960E+01 4.12363E+00-1.79056E-02-4.44937E-01-3.06426E-14 2.35987E-14
 -1      1002 2.03290E+01 8.21230E-02-1.87034E-05 7.17041E-02 1.48230E-14 3.61797E-14
 -1      1003 2.02716E+01 2.56255E-02-1.12504E-05 8.07344E-02-5.60321E-15 1.12545E-13
 -1      1004 2.02074E+01 6.05012E-03-8.04498E-06 8.14409E-02 2.11844E-15 7.99246E-14
 -1      1005 2.01378E+01 1.45975E-02-1.20893E-05 7.48021E-02-4.27916E-15 5.46188E-14
 -1      1006 2.00578E+01 4.71988E-02 7.85798E-07 5.87006E-02 3.87369E-14 1.06273E-13
 -1      1007 1.99720E+01 9.62122E-02-1.77411E-06 3.08971E-02-6.35125E-15 1.49630E-13
 -1      1008 1.98723E+01 1.59222E-01-1.86865E-05-1.58231E-02-4.88137E-14 6.40896E-14
 -1      1009 1.97532E+01 2.32137E-01-8.12116E-06-9.31657E-02-1.02052E-13-5.64212E-14
 -1      1010 1.96092E+01 3.08439E-01 1.73927E-05-2.18298E-01-5.24506E-14-2.27776E-14
 -1      1011 1.94371E+01 3.75414E-01 5.40633E-05-4.16339E-01-8.82604E-14 3.12430E-14
 -1      1012 1.92408E+01 4.08709E-01 1.14424E-04-7.21060E-01-1.34634E-14 2.58129E-14
 -1      1013 1.90401E+01 3.64462E-01 2.14976E-04-1.17518E+00-5.62162E-14-1.25854E-13
 -1      1014 1.88881E+01 1.66014E-01-3.06428E-04-1.82527E+00-1.00548E-13-1.48390E-13
 -1      1015 2.40008E+01 2.54441E+00-1.89546E-02-1.80071E+00 3.79159E-13-1.23531E-13
 -1      1016 2.04050E+01 3.55832E-01 7.49186E-05 1.80205E-02-6.81490E-15-4.66369E-14
 -1      1017 2.31690E+01-2.14847E+00 1.29811E-03 7.68680E-01 3.45087E-14-1.26534E-13
 -1      1018 1.94276E+01 4.63561E-01-1.17909E-04 2.89779E-01-4.95782E-14 2.00807E-13
 -1      1019 2.00870E+01-1.48853E-01 3.32184E-05-3.76461E-01-4.21327E-16 2.71493E-13
 -1      1020 1.95959E+01 3.81859E-01 2.10691E-04 1.45144E-01-2.76376E-13 2.68506E-13
 -1      1021 1.89499E+01 5.67697E-01-1.11524E-04 9.03362E-01 9.70997E-14-1.76643E-13
 -1      1022 1.91138E+01-8.96990E-01-5.00969E-03-3.45479E+00-1.39122E-13-2.20072E-13
 -1      1023 2.01689E+01-1.17359E+00-3.83983E-03 2.80522E+00-3.32020E-13-1.22962E-13
 -1      1024 2.07348E+01-7.81006E-01 6.96475E-05-7.08759E-01-1.12388E-13 7.80764E-15
 -1      1025 2.03990E+01-4.87485E-01 5.56119E-05-6.02908E-01-3.83940E-14 1.12590E-13
 -1      1026 2.19520E+01-1.55259E+00 6.47429E-04-6.55249E-01-2.19911E-13 1.26902E-13
 -1      1027 2.28353E+01-1.84559E+00 9.20776E-04-3.04980E-01-1.35790E-13 1.89023E-13
 -1      1028 2.26874E+01-1.80237E+00 1.77276E-03 3.92268E-01 1.96211E-13 1.37248E-13
 -1      1029 2.18187E+01-1.47268E+00 5.46263E-04 6.82029E-01 7.43041E-14 3.04031E-14
 -1      1030 2.11393E+01-1.06339E+00 1.66350E-04 7.42623E-01-5.58707E-14-1.43343E-13
 -1      1031 2.06568E+01-6.95455E-01 2.60784E-04 6.82878E-01-2.65383E-13 7.69223E-14
 -1      1032 2.03369E+01-4.07585E-01 3.23073E-04 5.70127E-01-3.32143E-13 1.94623E-13
 -1      1033 2.01404E+01-2.02688E-01 7.76403E-05 4.46927E-01-1.66732E-13 2.36328E-13
 -1      1034 2.00303E+01-6.86670E-02 7.32311E-06 3.36228E-01-4.76445E-14 3.08446E-14
 -1      1035 1.99753E+01 1.26589E-02 4.64381E-05 2.47023E-01 1.22991E-13-3.45131E-13
 -1      1036 1.92134E+01 5.35607E-01-1.18297E-04 5.26706E-01 2.14352E-13 5.07262E-14
 -1      1037 2.04034E+01 6.48043E-01-6.15820E-04-4.08076E-02 2.13770E-14-5.76119E-14
 -1      1038 1.99749E+01 5.08231E-02 6.67228E-04 1.46087E-01 1.40388E-13 3.04152E-14
 -1      1039 2.03665E+01 9.88963E-01 1.97697E-05-6.64409E-02 3.63074E-14-1.06715E-13
 -1      1040 1.86640E+01 5.04108E-01 1.36836E-04 1.46697E+00 1.96776E-14-1.05762E-13
 -1      1041 2.01962E+01-2.81039E-01 5.34270E-05-4.84127E-01-7.20260E-14 1.27515E-13
 -1      1042 2.01867E+01-2.66954E-02 5.73796E-07-1.52441E-01 2.85625E-14-3.49590E-14
 -1      1043 2.12436E+01-1.15335E+00 9.78000E-05-7.50077E-01-2.58604E-13-5.08472E-14
 -1      1044 2.03256E+01 1.59942E-01 1.22872E-05-8.85001E-02 9.98865E-14-1.41070E-14
 -1      1045 2.04066E+01-1.88420E+00 7.25309E-03-3.79156E+00-1.73214E-13-2.60397E-13
 -1      1046 2.03756E+01 1.87289E-01-3.22912E-05 5.18825E-02-3.08154E-14 1.61823E-14
 -1      1047 1.88778E+01-2.07252E-01 1.26446E-03-2.56875E+00-4.93733E-14-1.34405E-13
 -1      1048 2.00411E+01-7.32441E-02 5.30777E-05-2.89566E-01-4.69505E-14 3.08730E-13
 -1      1049 1.97884E+01 2.12061E-01 8.98954E-05 1.62477E-01 5.49898E-14 1.77380E-13
 -1      1050 2.03911E+01 2.69954E-01 2.72556E-04-3.61442E-02 6.54270E-14-2.90837E-14
 -1      1051 2.00357E+01-3.70190E-02 2.17672E-05-2.24623E-01-2.91929E-14 1.89352E-13
 -1      1052 2.01402E+01-2.94978E-02-3.68784E-06-1.27279E-01-3.36252E-15-2.38767E-14
 -1      1053 2.23579E+01-2.35139E+00 8.20061E-03-2.35413E+00-1.31555E-13 2.56960E-14
 -1      1054 1.97207E+01 3.05415E-01-7.59328E-05 5.93500E-02 1.29024E-14 6.03339E-13
 -1      1055 1.84390E+01 1.40047E-01 4.04374E-03 2.45664E+00-1.88135E-13-1.06305E-13
 -1      1056 2.34216E+01-1.67660E+00 1.25462E-03-3.52578E-01-8.53906E-14 6.34601E-14
 -1      1057 2.04129E+01 6.39310E-01 2.92188E-04 2.95268E-02 7.36758E-14-1.08949E-14
 -1      1058 2.00930E+01-2.62410E-02-1.27465E-05-1.47308E-01-3.24227E-14 7.68810E-14
 -1      1059 2.04169E+01 6.61249E-01-7.35246E-04 1.69694E-03 3.75423E-14-6.37378E-14
 -1      1060 2.03034E+01 4.26356E-02-1.79266E-05-8.92966E-02 7.36799E-14 4.64844E-14
 -1      1061 1.98696E+01 1.26878E-01 3.74290E-05 2.01871E-01 1.90670E-13-6.37971E-13
 -1      1062 1.99537E+01 4.72719E-02-3.81458E-04 2.01804E-01 1.51663E-13-3.92942E-13
 -1      1063 2.03525E+01 1.29763E-01-4.41134E-05-6.92750E-02 1.01164E-13 3.78453E-14
 -1      1064 2.05701E+01-7.53600E-01-7.59922E-04 1.15620E+00-1.86284E-13 1.88617E-13
 -1      1065 2.03764E+01 1.39880E-01-2.02641E-06 2.28728E-02 1.15482E-14 4.98768E-14
 -1      1066 2.02614E+01 1.04624E-02-4.56767E-06 2.53324E-02-1.40910E-14 1.18496E-13
 -1      1067 2.01933E+01-2.99976E-04-4.55984E-06 1.79477E-02-3.55301E-14 1.94612E-13
 -1      1068 2.01176E+01 1.32282E-02-1.09368E-05 1.85508E-03 9.05121E-15 2.09937E-13
 -1      1069 2.00414E+01 4.24665E-02-5.24584E-05-2.50500E-02 1.45849E-14 1.58111E-13
 -1      1070 1.99618E+01 8.08732E-02 2.96940E-05-6.92873E-02-6.25042E-14 7.03984E-14
 -1      1071 1.98760E+01 1.22480E-01-8.50271E-05-1.40469E-01-1.08848E-13 7.16187E-14
 -1      1072 1.97893E+01 1.55327E-01-7.07707E-05-2.51358E-01-4.21136E-14 1.15277E-13
 -1      1073 1.97045E+01 1.67394E-01-1.25077E-04-4.18583E-01-4.78348E-14 4.53014E-14
 -1      1074 1.96374E+01 1.34776E-01-1.67203E-04-6.63509E-01-5.81809E-14 9.09646E-14
 -1      1075 1.96179E+01 2.15763E-02-2.47992E-04-1.00812E+00-1.80449E-13 3.95828E-14
 -1      1076 1.97043E+01-2.28534E-01-1.13255E-03-1.46708E+00-7.47168E-14-1.18302E-14
 -1      1077 1.95389E+01-2.91984E-01-6.21445E-04 1.92883E+00-1.12678E-13-1.11739E-13
 -1      1078 2.11509E+01-1.23287E+00 2.97340E-03 1.36395E+00 9.51797E-14 2.39425E-14
 -1      1079 1.94579E+01 2.35616E-01-5.10499E-04 8.34064E-01 2.46489E-13-2.03548E-14
 -1      1080 2.00568E+01-2.59052E-02 7.68207E-06-1.78286E-01-1.64019E-14 1.00158E-13
 -1      1081 2.14892E+01-1.62742E+00 9.94653E-04 1.85777E+00-5.14875E-14-4.41125E-13
 -1      1082 2.20500E+01-1.76743E+00-2.92180E-03 1.23250E+00 5.12361E-14-5.44734E-14
 -1      1083 2.02044E+01-3.88837E-01-1.49650E-03 8.90396E-01-2.79181E-13-2.47215E-14
 -1      1084 2.00120E+01-1.48031E-01 2.41580E-04 6.51786E-01-2.13744E-13-3.51543E-13
 -1      1085 1.99206E+01-7.35730E-03 1.67913E-05 4.61792E-01 4.24873E-14-4.86003E-13
 -1      1086 1.98869E+01 7.04569E-02-3.67824E-05 3.18219E-01 2.56973E-13-5.91382E-13
 -1      1087 2.02780E+01-4.73894E-01 1.59066E-04-9.31912E-01-6.62693E-14 3.40685E-13
 -1      1088 2.04257E+01 5.03737E-01 3.82163E-04-7.60919E-04 4.53067E-14-7.99449E-14
 -1      1089 1.96396E+01 2.84152E-01 4.49364E-05 3.18801E-01 4.59483E-14-1.63222E-13
 -1      1090 2.04231E+01 3.88379E-01-1.35976E-04-5.15970E-03 7.28645E-14-1.52154E-14
 -1      1091 1.97962E+01 1.63791E-01-2.66308E-04 2.79356E-01 2.80567E-13-4.01539E-13
 -1      1092 1.99489E+01-1.29985E-02 1.08902E-04-3.52803E-01-2.86960E-15 1.76116E-13
 -1      1093 2.22662E+01-1.92542E+00 2.01868E-03-1.35236E+00-2.37268E-13 1.64029E-14
 -1      1094 2.00699E+01-2.31247E-01 1.22879E-04-6.96777E-01-1.18678E-13 2.19743E-13
 -1      1095 2.01931E+01-2.55218E-02-4.99764E-06-1.13800E-01 3.42795E-14-6.49111E-14
 -1      1096 2.13270E+01-1.36372E+00-1.10037E-03-1.34339E+00-1.87375E-13 9.17862E-14
 -1      1097 2.02487E+01-4.97113E-03-8.72297E-06-1.02590E-01 8.00879E-14-3.80649E-14
 -1      1098 2.11380E+01-1.73146E+00 2.57052E-03-2.63723E+00-2.37756E-13 1.31662E-14
 -1      1099 2.03238E+01 5.34110E-02-2.22931E-06 2.68103E-02 4.39286E-14 7.37936E-14
 -1      1100 2.04133E+01 2.85326E-01 5.74069E-05 1.27565E-02 6.20648E-14-1.73236E-14
 -1      1101 1.95436E+01 2.86853E-01-8.51023E-05 5.26370E-01 3.20442E-14-3.67660E-13
 -1      1102 2.06574E+01-8.44298E-01 6.09964E-06-1.18711E+00-6.61692E-14 2.49179E-13
 -1      1103 1.94321E+01 7.09521E-02-1.99966E-03 1.28273E+00 1.63775E-13 9.02241E-15
 -1      1104 1.99748E+01-8.72379E-02 1.34386E-04-5.01849E-01 2.17574E-14 1.74402E-13
 -1      1105 1.99266E+01-5.96495E-01 8.69313E-04-1.95478E+00-3.62957E-15 4.03884E-14
 -1      1106 1.99638E+01 1.55801E-02 4.50755E-05-2.45368E-01-9.15930E-14 1.62638E-13
 -1      1107 2.01125E+01-8.79192E-03 3.18359E-05-8.97165E-02-5.07644E-14 8.78414E-14
 -1      1108 2.02993E+01 2.49312E-02 2.87425E-05-4.69992E-02 1.07667E-13 4.63654E-14
 -1      1109 2.03548E+01 9.44309E-02 1.15267E-05-3.70015E-02 8.59604E-14-3.09225E-14
 -1      1110 2.01746E+01-1.62292E-02 1.96741E-05-6.97321E-02 1.00567E-15 1.08731E-13
 -1      1111 2.03989E+01 2.11344E-01 3.80605E-05-2.04380E-02 7.54598E-14-6.39067E-14
 -1      1112 1.97665E+01-9.25340E-03 3.24243E-03 8.78230E-01 8.45997E-14-5.83714E-13
 -1      1113 1.99750E+01 4.03378E-02-7.36938E-05-1.61998E-01-1.39268E-13 9.78133E-14
 -1      1114 2.00544E+01 5.18962E-03 8.72284E-05-1.21299E-01-5.27177E-14 8.96969E-14
 -1      1115 1.97589E+01 1.49035E-01 7.89677E-05 4.18925E-01 2.20194E-13-5.10881E-13
 -1      1116 2.02379E+01-8.16041E-03 2.70499E-05-5.67701E-02 4.36409E-14 1.34504E-13
 -1      1117 1.97593E+01 7.25578E-02-3.02861E-04 6.33509E-01 1.59896E-14-7.95633E-13
 -1      1118 2.79565E+01 9.08440E+00 2.32467E+00-6.69706E+00-2.07612E-14 3.21548E-13
 -1      1119 2.05443E+01 6.22622E+00 2.09691E-01-3.90365E+00-8.24341E-15-5.35544E-14
 -1      1120 1.94336E+01 5.85272E+00 7.54234E-02-2.88775E+00-4.23273E-15-2.02893E-13
 -1      1121 1.90264E+01 5.72604E+00 6.03758E-02-2.23467E+00-2.32800E-15-2.55883E-13
 -1      1122 1.88411E+01 5.66960E+00 5.75775E-02-1.70110E+00-1.23165E-15-2.64073E-13
 -1      1123 1.87484E+01 5.64120E+00 5.56168E-02-1.23373E+00 6.71338E-16-2.54639E-13
 -1      1124 1.86999E+01 5.62611E+00 5.38270E-02-8.03898E-01 3.98119E-16-2.40584E-13
 -1      1125 1.86760E+01 5.61858E+00 5.25428E-02-3.92504E-01 1.75185E-15-2.14567E-13
 -1      1126 1.86692E+01 5.61640E+00 5.21322E-02 8.63634E-03 2.63786E-15-1.93587E-13
 -1      1127 1.86769E+01 5.61888E+00 5.26448E-02 4.10160E-01 4.56623E-15-1.64774E-13
 -1      1128 1.87017E+01 5.62673E+00 5.40416E-02 8.22818E-01 3.54404E-15-1.29195E-13
 -1      1129 1.87519E+01 5.64244E+00 5.62534E-02 1.25510E+00 4.85723E-15-7.22478E-14
 -1      1130 1.88464E+01 5.67147E+00 5.85141E-02 1.72678E+00 4.86243E-15-1.98452E-15
 -1      1131 1.90323E+01 5.72790E+00 6.07184E-02 2.26787E+00 6.04031E-15 9.58504E-14
 -1      1132 1.94303E+01 5.84994E+00 6.94769E-02 2.92831E+00 7.27196E-15 2.44454E-13
 -1      1133 2.04501E+01 6.18091E+00 1.52928E-01 3.87800E+00 5.55112E-15 4.94337E-13
 -1      1134 2.52115E+01 7.99243E+00 1.42978E+00 5.84526E+00 1.05471E-15 9.03833E-13
 -1      1135 2.88047E+01 3.61539E+00 1.27080E+00-4.21624E+00-7.13596E-14 5.48950E-13
 -1      1136 2.02212E+01-1.77710E-01-6.16238E-01-1.09920E-01-2.54380E-14 3.83166E-13
 -1      1137 1.88273E+01-9.63708E-02-2.36335E-01 6.24748E-02-3.30985E-15 1.91978E-13
 -1      1138 1.84935E+01-4.81208E-02-5.96360E-02 4.04633E-02 5.77229E-16 4.77743E-14
 -1      1139 1.84389E+01-2.46615E-02-1.52377E-02 2.67374E-02 4.79131E-15-7.64215E-14
 -1      1140 1.85214E+01-1.31550E-02-5.05480E-03 1.89846E-02-7.29755E-15-1.12535E-13
 -1      1141 1.86696E+01-6.76679E-03-1.61553E-03 1.40230E-02-3.02286E-15-1.54802E-13
 -1      1142 1.88445E+01-3.06780E-03 3.52041E-04 1.05753E-02 2.69701E-15-2.32739E-13
 -1      1143 1.90241E+01-9.40351E-04 1.56755E-03 8.01373E-03-2.29928E-15-2.39905E-13
 -1      1144 1.91964E+01 2.00352E-04 2.15745E-03 6.03144E-03-3.03256E-15-2.94377E-13
 -1      1145 1.93557E+01 6.72672E-04 2.23274E-03 4.46488E-03 1.65957E-14-3.28711E-13
 -1      1146 1.95008E+01 6.49545E-04 1.88493E-03 3.21768E-03-1.00078E-14-3.17809E-13
 -1      1147 1.96339E+01 2.08346E-04 1.15113E-03 2.23004E-03 7.29203E-15-4.19952E-13
 -1      1148 1.97601E+01-6.52931E-04-7.92546E-06 1.46954E-03-2.11360E-15-4.02187E-13
 -1      1149 1.98875E+01-2.01972E-03-1.73405E-03 9.36101E-04-8.90753E-15-4.35769E-13
 -1      1150 2.00286E+01-4.08336E-03-4.32040E-03 6.78862E-04-3.17943E-14-5.75669E-13
 -1      1151 2.02022E+01-7.33972E-03-8.34139E-03 7.99698E-04-2.07234E-15-5.00568E-13
 -1      1152 2.04443E+01-1.18275E-02-1.47190E-02 1.50824E-03-7.59841E-15-4.06121E-13
 -1      1153 2.07975E+01-1.91132E-02-2.50904E-02 4.42957E-03-7.00633E-15-4.93833E-13
 -1      1154 2.13233E+01-2.95012E-02-4.15315E-02 9.96501E-03 1.63819E-14-2.19210E-13
 -1      1155 2.21397E+01-4.42811E-02-6.75102E-02 2.13810E-02 1.50145E-14-1.91624E-13
 -1      1156 2.34178E+01-6.37109E-02-1.05736E-01 4.38784E-02 4.57967E-16-1.86684E-13
 -1      1157 2.54042E+01-8.48480E-02-1.51554E-01 8.57982E-02 1.82311E-14-1.79301E-14
 -1      1158 2.84024E+01-9.59793E-02-1.73117E-01 1.56000E-01 4.68722E-15-1.20237E-13
 -1      1159 3.26195E+01-6.59427E-02-7.70240E-02 2.47835E-01-2.12825E-14-4.88498E-14
 -1      1160 3.76325E+01 6.13460E-02 2.80165E-01 2.74111E-01-1.40790E-14 8.50431E-14
 -1      1161 4.12014E+01 2.72710E-01 8.07848E-01-2.87011E-04-3.24810E-14 2.19061E-13
 -1      1162 4.00836E+01 5.40837E-01 9.42392E-01-6.36506E-01 2.05391E-15 8.11573E-14
 -1      1163 3.29788E+01 3.68405E-01 7.79223E-02-1.13997E+00 2.54935E-14-5.55112E-16
 -1      1164 2.16402E+01-2.39906E-01-1.93045E+00-1.07058E+00 3.75325E-14 5.82867E-14
 -1      1165 1.51408E+01-6.18275E-01-3.19326E+00-1.04954E-01 2.15800E-14 1.76137E-13
 -1      1166 2.11507E+01-2.41142E-01-2.03783E+00 9.83625E-01 4.76702E-15 2.31482E-13
 -1      1167 3.27555E+01 2.21629E-01-6.45100E-03 9.76398E-01 3.58394E-15 2.74447E-13
 -1      1168 4.04209E+01 3.03463E-01 9.04090E-01 4.50047E-01-1.20372E-14 2.31593E-13
 -1      1169 4.03748E+01 1.04766E-01 6.04274E-01-7.30234E-02-3.99299E-14-7.60850E-14
 -1      1170 3.58933E+01-2.20762E-02 1.06648E-01-1.86566E-01 6.87385E-14 2.15050E-13
 -1      1171 3.10533E+01-6.29389E-02-1.21128E-01-1.57285E-01-7.42696E-14 6.57141E-13
 -1      1172 2.72631E+01-5.98430E-02-1.54583E-01-1.01712E-01-2.75474E-14 4.07618E-13
 -1      1173 2.46480E+01-4.63521E-02-1.19846E-01-5.90925E-02-3.22832E-15 3.57728E-13
 -1      1174 2.29388E+01-3.28148E-02-7.92535E-02-3.26179E-02-2.18488E-15 1.05110E-13
 -1      1175 2.18479E+01-2.22407E-02-4.92967E-02-1.75022E-02 3.83719E-14 4.34909E-13
 -1      1176 2.11573E+01-1.47432E-02-3.00712E-02-9.22413E-03-1.86543E-14 4.80312E-13
 -1      1177 2.07201E+01-9.67549E-03-1.83242E-02-4.78803E-03-2.10237E-14 4.28723E-13
 -1      1178 2.04419E+01-6.33702E-03-1.12486E-02-2.44607E-03-7.39829E-14 1.95039E-14
 -1      1179 2.02636E+01-4.17446E-03-7.00185E-03-1.22851E-03 2.67382E-14 2.10128E-13
 -1      1180 2.01484E+01-2.79667E-03-4.48059E-03-6.05796E-04 1.28440E-13 1.00544E-12
 -1      1181 2.00741E+01-1.94367E-03-3.05124E-03-2.82603E-04-4.09799E-14 1.34192E-12
 -1      1182 2.00274E+01-1.44351E-03-2.33736E-03-7.30877E-05 2.56274E-14 8.41749E-13
 -1      1183 2.00013E+01-1.15508E-03-1.96184E-03 1.88841E-04-6.05181E-14 7.09920E-13
 -1      1184 1.99925E+01-6.81036E-04-1.02760E-03 6.75357E-04-9.86772E-14-3.97758E-13
 -1      1185 1.99973E+01-5.02621E-04 1.91392E-03 1.03352E-03-3.08353E-15 2.15035E-14
 -1      1186 2.77851E+01 5.25552E-01 3.76641E-01 1.96624E+00-1.04985E-14 1.21370E-12
 -1      1187 2.00792E+01-6.66423E-02-5.73579E-01 1.29512E-01 4.56232E-15 1.10595E-12
 -1      1188 1.89015E+01-4.19805E-02-1.93196E-01 1.93470E-02 9.69710E-16 1.00651E-12
 -1      1189 1.85231E+01-2.26939E-02-5.04755E-02 1.22086E-03 7.46365E-15 9.06646E-13
 -1      1190 1.84532E+01-1.37788E-02-1.37952E-02-4.31743E-03-8.54872E-15 8.53876E-13
 -1      1191 1.85302E+01-8.00221E-03-5.02777E-03-5.54374E-03-7.93354E-15 8.45258E-13
 -1      1192 1.86767E+01-4.58016E-03-2.17757E-03-5.64123E-03 3.59532E-15 7.84822E-13
 -1      1193 1.88517E+01-2.46356E-03-5.62517E-04-5.29679E-03 2.28333E-15 7.78873E-13
 -1      1194 1.90325E+01-1.15942E-03 4.92068E-04-4.76456E-03 6.83752E-16 7.62605E-13
 -1      1195 1.92068E+01-3.82605E-04 1.09383E-03-4.15681E-03 8.78697E-15 8.11282E-13
 -1      1196 1.93684E+01 5.06871E-05 1.33618E-03-3.54902E-03 6.88577E-15 6.75772E-13
 -1      1197 1.95148E+01 2.73456E-04 1.33535E-03-3.00020E-03-2.93424E-15 5.67419E-13
 -1      1198 1.96462E+01 3.95179E-04 1.21252E-03-2.56101E-03 1.96161E-15 5.57254E-13
 -1      1199 1.97637E+01 5.18349E-04 1.09360E-03-2.27837E-03-2.98171E-14 4.60108E-13
 -1      1200 1.98683E+01 7.49231E-04 1.11890E-03-2.19657E-03 1.32213E-14 2.72270E-13
 -1      1201 1.99603E+01 1.20306E-03 1.45307E-03-2.35346E-03 1.04034E-14 6.86083E-14
 -1      1202 2.00374E+01 2.00097E-03 2.28754E-03-2.76929E-03-4.49048E-14 2.92271E-13
 -1      1203 2.00939E+01 3.25372E-03 3.82646E-03-3.42553E-03 1.97030E-14 1.16262E-13
 -1      1204 2.01192E+01 5.02598E-03 6.24359E-03-4.23228E-03 5.50200E-15-2.40346E-14
 -1      1205 2.00969E+01 7.27693E-03 9.59745E-03-4.98755E-03-3.93847E-15-7.59711E-14
 -1      1206 2.00042E+01 9.78141E-03 1.37000E-02-5.34143E-03-5.61497E-15-1.14444E-13
 -1      1207 1.98142E+01 1.20545E-02 1.79596E-02-4.79248E-03 2.07026E-14-1.82553E-13
 -1      1208 1.94994E+01 1.33286E-02 2.12637E-02-2.75912E-03-4.51744E-15-2.26973E-13
 -1      1209 1.90403E+01 1.26580E-02 2.20275E-02 1.23244E-03-3.25957E-14-1.09183E-13
 -1      1210 1.84359E+01 9.21576E-03 1.85539E-02 7.24025E-03-5.23262E-14 2.65205E-13
 -1      1211 1.77159E+01 2.75601E-03 9.76350E-03 1.45740E-02 2.12303E-14 5.16941E-13
 -1      1212 1.69476E+01-5.94079E-03-3.90347E-03 2.16551E-02 1.69855E-14 3.21930E-14
 -1      1213 1.62327E+01-1.49853E-02-1.99461E-02 2.63075E-02 2.29732E-15-2.13492E-13
 -1      1214 1.56885E+01-2.18886E-02-3.41960E-02 2.65459E-02-1.23274E-15-4.28900E-13
 -1      1215 1.54172E+01-2.45760E-02-4.23157E-02 2.15466E-02-3.30768E-15-5.46391E-13
 -1      1216 1.54734E+01-2.23656E-02-4.17576E-02 1.22337E-02 9.03054E-15-4.83078E-13
 -1      1217 1.58454E+01-1.62701E-02-3.30112E-02 1.01844E-03 2.32303E-14-4.63279E-13
 -1      1218 1.64594E+01-8.41419E-03-1.92847E-02-9.22462E-03-4.61419E-14-1.65819E-13
 -1      1219 1.72044E+01-1.01038E-03-4.86273E-03-1.63219E-02-4.96483E-15 1.81029E-13
 -1      1220 1.79658E+01 4.45612E-03 6.73327E-03-1.94486E-02 3.38997E-15 1.61711E-14
 -1      1221 1.86527E+01 7.48929E-03 1.37816E-02-1.90510E-02-1.66190E-14-3.94688E-13
 -1      1222 1.92115E+01 8.37115E-03 1.63382E-02-1.63022E-02 2.66696E-14-7.34001E-13
 -1      1223 1.96245E+01 7.76500E-03 1.55531E-02-1.24957E-02-1.19589E-14-6.63043E-13
 -1      1224 1.99009E+01 6.37307E-03 1.28876E-02-8.64692E-03-3.83792E-14-4.04168E-13
 -1      1225 2.00648E+01 4.74572E-03 9.58389E-03-5.35775E-03 1.66556E-14-4.59637E-13
 -1      1226 2.01451E+01 3.22733E-03 6.45469E-03-2.86285E-03 1.76437E-14-5.98029E-13
 -1      1227 2.01689E+01 1.98203E-03 3.89960E-03-1.15094E-03-2.65955E-14-5.24590E-13
 -1      1228 2.01584E+01 1.04823E-03 2.01985E-03-8.52063E-05-4.26867E-14-1.89052E-13
 -1      1229 2.01302E+01 3.92016E-04 7.43589E-04 5.09330E-04 1.53771E-14-3.89186E-13
 -1      1230 2.00952E+01-5.36239E-05-8.01769E-05 7.95087E-04-1.89829E-14-4.37229E-13
 -1      1231 2.00607E+01-3.62457E-04-6.24712E-04 8.96129E-04 1.54839E-14-2.44936E-13
 -1      1232 2.00312E+01-5.93875E-04-1.04153E-03 8.83836E-04 5.31025E-14-5.62602E-13
 -1      1233 2.00096E+01-7.40096E-04-1.33956E-03 7.27708E-04-2.34153E-14-3.19050E-13
 -1      1234 1.99986E+01-5.45490E-04-1.00924E-03 2.36103E-04 8.46141E-14-2.93585E-13
 -1      1235 1.99986E+01 4.45678E-04 1.09913E-03-4.52323E-04-1.29094E-14-3.46889E-13
 -1      1236 2.00002E+01-1.32298E-03 1.05235E-03-4.46794E-04-3.50289E-13-1.59886E-13
 -1      1237 1.99991E+01-1.07879E-03-1.00814E-03-4.27737E-04-4.19924E-13-1.08992E-13
 -1      1238 1.99989E+01 9.48504E-03-1.27378E-03 2.64266E-04 4.46785E-14-6.17074E-15
 -1      1239 1.99993E+01 2.90112E-02-8.11682E-04 5.94765E-04 1.46533E-13-4.34520E-14
 -1      1240 1.99996E+01 5.37637E-02-2.75169E-04 7.27235E-04 1.59874E-13-2.44748E-14
 -1      1241 2.00000E+01 8.00427E-02 2.65079E-04 7.37860E-04 2.45748E-13 1.36183E-14
 -1      1242 2.00004E+01 1.04525E-01 8.08890E-04 6.43279E-04 1.74739E-13-1.87058E-13
 -1      1243 2.00008E+01 1.23753E-01 1.32823E-03 4.21939E-04-5.54729E-13-7.42609E-14
 -1      1244 2.00011E+01 1.33990E-01 1.72404E-03 8.41965E-05 4.83712E-14 6.27572E-14
 -1      1245 2.00012E+01 1.32552E-01 1.87214E-03-3.38105E-04 6.45748E-13-5.66429E-14
 -1      1246 2.00011E+01 1.18419E-01 1.65140E-03-7.70185E-04 1.64247E-13-1.93048E-13
 -1      1247 2.00007E+01 9.32699E-02 1.01725E-03-1.10291E-03-8.04389E-13 5.26821E-14
 -1      1248 2.00000E+01 6.11476E-02-4.59323E-06-1.19023E-03-7.22061E-14 1.85288E-13
 -1      1249 1.99992E+01 2.84300E-02-1.20364E-03-9.08396E-04 1.11301E-12 1.57323E-14
 -1      1250 1.99987E+01 3.57230E-03-1.98948E-03-1.09646E-04 1.20121E-12-5.45536E-14
 -1      1251 1.99988E+01-6.81734E-03-1.37600E-03 1.18823E-03 2.68848E-13-3.17974E-13
 -1      1252 1.99990E+01-2.52103E-03 1.80112E-03 9.92307E-04-1.38551E-13 4.64498E-14
 -1      1253-1.01784E+00-2.54567E+01-3.68944E+00-2.13595E+00-2.14162E-13-1.08441E-13
 -1      1254-1.45270E+00-1.38439E+01-2.80059E+00-3.45869E+00 2.16938E-13 1.25566E-13
 -1      1255 1.45059E+00 3.08904E-01-1.48345E+00 1.48622E+00 1.02185E-12 7.01661E-13
 -1      1256 1.21666E+01 1.04819E+01 1.42273E-01 1.10155E+01 1.31584E-12 1.26876E-12
 -1      1257 3.07369E+01 1.28581E+01 1.82677E+00 1.89756E+01 9.08607E-13 1.37002E-12
 -1      1258 5.18990E+01 8.83496E+00 3.27521E+00 1.91241E+01 3.03646E-13 7.12097E-13
 -1      1259 6.78896E+01 3.53913E+00 4.07902E+00 1.00881E+01 3.31957E-14-1.40554E-13
 -1      1260 7.17473E+01 1.86841E+00 4.30100E+00-4.26200E+00 1.87114E-13-1.15502E-12
 -1      1261 5.98146E+01 6.21205E+00 3.63232E+00-1.63804E+01 5.51781E-13-1.97398E-12
 -1      1262 3.89667E+01 1.17696E+01 2.42249E+00-2.00611E+01 9.51683E-13-1.78479E-12
 -1      1263 1.85420E+01 1.25595E+01 8.31369E-01-1.47342E+01 1.04317E-12-1.28653E-12
 -1      1264 5.01111E+00 5.64795E+00-8.40971E-01-5.56819E+00 1.38867E-12-9.29923E-13
 -1      1265-7.45833E-01-7.36395E+00-2.22623E+00 1.75933E+00 1.47171E-12-7.44071E-13
 -1      1266-1.31137E+00-2.11230E+01-3.36879E+00 3.51362E+00 4.88276E-13-1.98536E-13
 -1      1267-9.81236E-01-2.83532E+01-3.95138E+00-5.12633E-01-6.20171E-13-1.15491E-13
 -1      1268-2.13899E+00-2.65476E+01-4.10718E+00-5.61371E+00-8.74023E-13-1.32790E-13
 -1      1269-3.49359E+00-1.63503E+01-3.74494E+00-6.62734E+00-3.30624E-13-1.66922E-13
 -1      1270-2.60975E-01-3.25276E+00-2.83464E+00-9.63409E-01-6.37490E-13-5.70433E-13
 -1      1271 1.37381E+01 6.85554E+00-8.83850E-01 9.65619E+00-1.22347E-13-8.08242E-14
 -1      1272 4.03554E+01 9.67130E+00 2.22293E+00 1.84985E+01 3.22853E-13 5.60441E-13
 -1      1273 7.14739E+01 6.17540E+00 5.85926E+00 1.74850E+01 8.29337E-14 1.67422E-13
 -1      1274 8.93848E+01 2.85089E+00 7.94015E+00 3.70875E+00 2.57849E-14-1.64480E-13
 -1      1275 8.25165E+01 4.26303E+00 7.23306E+00-1.26577E+01 6.11455E-14-3.41949E-13
 -1      1276 5.50514E+01 8.62523E+00 3.93284E+00-1.96585E+01 9.54792E-15-1.98508E-13
 -1      1277 2.53256E+01 9.33253E+00 5.11405E-01-1.48841E+01 1.20126E-13-1.91402E-13
 -1      1278 5.06984E+00 2.37861E+00-2.05912E+00-4.03291E+00-1.99618E-13 1.82299E-13
 -1      1279-2.88920E+00-1.05027E+01-3.42742E+00 4.74185E+00-7.83151E-13 4.72955E-13
 -1      1280-2.94961E+00-2.30411E+01-4.02661E+00 6.84018E+00-5.40012E-13 2.33674E-13
 -1      1281-1.24497E+00-2.87908E+01-4.06426E+00 2.97106E+00-5.45397E-14-6.98053E-15
 -1      1282 2.22611E+01 1.83792E+00-7.25731E-01-2.79027E+00-3.09475E-14 2.16938E-13
 -1      1283 2.03568E+01 4.68966E+00-4.86065E-02-3.30660E+00-5.56777E-14-1.26232E-13
 -1      1284 2.08631E+01 4.80981E+00-1.13355E-01-4.16066E+00-8.07410E-14-5.35891E-14
 -1      1285 1.95312E+01 4.99316E+00-1.95716E-02-2.65423E+00-4.56024E-14-2.26118E-13
 -1      1286 1.98282E+01 5.08978E+00 2.83180E-04-3.04525E+00-5.06609E-14-1.83756E-13
 -1      1287 2.05238E+01 3.95243E+00-2.58783E-02-3.07442E+00-9.28216E-14-1.08011E-13
 -1      1288 1.91849E+01 5.08434E+00-3.62452E-03-2.06987E+00-2.53825E-14-2.62630E-13
 -1      1289 1.93335E+01 5.13940E+00 1.06278E-02-2.36304E+00-3.30118E-14-2.46865E-13
 -1      1290 1.97540E+01 4.36595E+00-2.42502E-02-2.48898E+00-6.85146E-14-1.86344E-13
 -1      1291 1.90107E+01 5.13137E+00 3.29634E-03-1.56427E+00-9.69363E-15-2.64228E-13
 -1      1292 1.90877E+01 5.16112E+00 1.25912E-02-1.81425E+00-1.23755E-14-2.67317E-13
 -1      1293 1.93937E+01 4.55597E+00-1.95195E-02-1.93057E+00-3.27195E-14-2.18606E-13
 -1      1294 1.89181E+01 5.16139E+00 6.60872E-03-1.11648E+00 6.41154E-15-2.51632E-13
 -1      1295 1.89601E+01 5.17760E+00 1.27598E-02-1.33796E+00 5.73326E-16-2.56628E-13
 -1      1296 1.92078E+01 4.66204E+00-1.60328E-02-1.44424E+00-7.83748E-15-2.13843E-13
 -1      1297 1.88670E+01 5.18145E+00 8.20112E-03-6.93294E-01 2.05426E-14-2.29509E-13
 -1      1298 1.88898E+01 5.19027E+00 1.20528E-02-9.03445E-01 1.86587E-14-2.42511E-13
 -1      1299 1.91055E+01 4.72782E+00-1.39209E-02-1.00354E+00 1.76859E-14-2.07053E-13
 -1      1300 1.88432E+01 5.19351E+00 9.28609E-03-2.88824E-01 3.66406E-14-2.11118E-13
 -1      1301 1.88530E+01 5.19732E+00 1.10797E-02-4.90826E-01 2.93437E-14-2.19796E-13
 -1      1302 1.90500E+01 4.76710E+00-1.28857E-02-5.88228E-01 4.04372E-14-1.83152E-13
 -1      1303 1.88394E+01 5.19849E+00 1.02180E-02 1.08302E-01 4.65891E-14-1.86772E-13
 -1      1304 1.88391E+01 5.19837E+00 1.01510E-02-9.12265E-02 4.12063E-14-2.00848E-13
 -1      1305 1.90259E+01 4.78526E+00-1.24479E-02-1.88798E-01 6.53862E-14-1.67828E-13
 -1      1306 1.88545E+01 5.19695E+00 1.11628E-02 5.08451E-01 5.45254E-14-1.59013E-13
 -1      1307 1.88440E+01 5.19288E+00 9.22158E-03 3.06053E-01 5.14352E-14-1.75098E-13
 -1      1308 1.90266E+01 4.78465E+00-1.24668E-02 2.05770E-01 7.83128E-14-1.39909E-13
 -1      1309 1.88927E+01 5.18911E+00 1.21070E-02 9.22485E-01 6.29150E-14-1.17486E-13
 -1      1310 1.88692E+01 5.18013E+00 8.12996E-03 7.11418E-01 6.21363E-14-1.41789E-13
 -1      1311 1.90523E+01 4.76508E+00-1.29529E-02 6.05851E-01 9.42866E-14-1.09347E-13
 -1      1312 1.89640E+01 5.17587E+00 1.29100E-02 1.35556E+00 7.52948E-14-6.26305E-14
 -1      1313 1.89211E+01 5.15922E+00 6.45294E-03 1.13274E+00 6.90468E-14-9.33576E-14
 -1      1314 1.91094E+01 4.72439E+00-1.39767E-02 1.01894E+00 1.07987E-13-6.98885E-14
 -1      1315 1.90959E+01 5.15721E+00 1.29158E-02 1.84008E+00 8.88265E-14 1.36523E-14
 -1      1316 1.90168E+01 5.12694E+00 3.15702E-03 1.58734E+00 8.27793E-14-2.91798E-14
 -1      1317 1.92141E+01 4.65573E+00-1.61297E-02 1.46192E+00 1.26860E-13-1.29237E-14
 -1      1318 1.93444E+01 5.13328E+00 1.04588E-02 2.39704E+00 1.01627E-13 1.17049E-13
 -1      1319 1.91944E+01 5.07658E+00-4.16723E-03 2.09972E+00 9.30749E-14 5.81271E-14
 -1      1320 1.94060E+01 4.54294E+00-1.98967E-02 1.95721E+00 1.44770E-13 5.80369E-14
 -1      1321 1.98530E+01 5.09901E+00 6.03404E-03 3.08367E+00 9.81021E-14 2.78361E-13
 -1      1322 1.95429E+01 4.98438E+00-2.02273E-02 2.69648E+00 9.37722E-14 1.83575E-13
 -1      1323 1.97736E+01 4.34573E+00-2.47623E-02 2.52751E+00 1.58916E-13 1.75214E-13
 -1      1324 2.10991E+01 4.90578E+00 7.96689E-03 4.05309E+00 6.91114E-14 5.26593E-13
 -1      1325 2.03310E+01 4.73341E+00-4.80699E-02 3.41551E+00 7.19702E-14 3.77594E-13
 -1      1326 2.05607E+01 3.91557E+00-2.28566E-02 3.17808E+00 1.37911E-13 3.40103E-13
 -1      1327 2.71959E+01 3.20460E+00 9.28561E-01 4.58137E+00 1.31839E-14 9.19098E-13
 -1      1328 2.20152E+01 3.52162E+00-1.82096E-01 3.88432E+00 2.46192E-14 6.57419E-13
 -1      1329 2.21089E+01 2.56131E+00-3.25314E-02 3.45614E+00 1.02510E-13 5.62217E-13
 -1      1330 2.14211E+01 3.59577E-01-7.63563E-01 1.18358E+00 4.23550E-14 9.22096E-13
 -1      1331 2.19951E+01 1.31368E-01-4.00819E-01-1.28555E+00-6.56974E-14 2.44416E-13
 -1      1332 2.06726E+01 3.06679E-01-1.64790E-01-8.05659E-01-5.55528E-14 1.75929E-13
 -1      1333 2.00751E+01 1.53468E-01-7.35182E-02-4.02063E-01-4.08319E-14 1.41778E-13
 -1      1334 1.96053E+01 9.12036E-02-1.49208E-02-3.29912E-01-4.30246E-14 7.25739E-14
 -1      1335 2.09676E+01 3.69140E-01-1.04226E-01-1.27371E+00-1.04042E-13 5.71730E-14
 -1      1336 1.92481E+01 6.45513E-02 3.03620E-03-1.35228E-01-3.54577E-14 5.46681E-14
 -1      1337 1.90939E+01 4.13308E-02 1.32212E-02-1.17390E-01-3.18912E-14-7.87564E-15
 -1      1338 1.99173E+01 1.33916E-01-3.51692E-02-5.03773E-01-7.31915E-14 8.87658E-15
 -1      1339 1.89340E+01 3.15687E-02 1.32546E-02-2.77515E-02-2.32253E-14-3.55063E-14
 -1      1340 1.89148E+01 1.94424E-02 1.10817E-02-1.83590E-02-3.13465E-14-8.50257E-14
 -1      1341 1.94407E+01 5.55525E-02-8.52537E-03-1.69539E-01-6.41518E-14-3.06387E-14
 -1      1342 1.88594E+01 1.60908E-02 8.79672E-03 2.54485E-02-1.13163E-14-8.48523E-14
 -1      1343 1.89022E+01 9.19769E-03 6.45974E-03 3.01240E-02-1.06165E-14-1.02999E-13
 -1      1344 1.92328E+01 2.44827E-02-3.53661E-03-1.03993E-02-4.21174E-14-6.32038E-14
 -1      1345 1.89032E+01 8.00376E-03 4.69815E-03 5.16024E-02-1.64323E-14-1.16086E-13
 -1      1346 1.89745E+01 3.70105E-03 3.67793E-03 5.35757E-02-5.78877E-15-1.22508E-13
 -1      1347 1.91775E+01 1.03780E-02-2.27327E-03 6.88708E-02-2.41794E-14-7.18336E-14
 -1      1348 1.90055E+01 3.41364E-03 2.48383E-03 6.28633E-02-1.19141E-14-1.26532E-13
 -1      1349 1.90876E+01 6.21322E-04 2.26901E-03 6.32524E-02-2.40132E-14-1.61264E-13
 -1      1350 1.92061E+01 3.08698E-03-1.39554E-03 1.06688E-01-2.29054E-14-8.22445E-14
 -1      1351 1.91336E+01 7.80653E-04 1.39171E-03 6.56650E-02-3.94674E-15-1.56981E-13
 -1      1352 1.92171E+01-1.03500E-03 1.52400E-03 6.51632E-02-1.19058E-14-1.81324E-13
 -1      1353 1.92791E+01-8.41052E-04-6.61308E-04 1.21434E-01-3.32049E-14-7.03936E-14
 -1      1354 1.92693E+01-6.38419E-04 8.28951E-04 6.38572E-02-2.08045E-14-1.79637E-13
 -1      1355 1.93491E+01-1.77534E-03 1.09219E-03 6.29253E-02-2.80603E-14-2.08029E-13
 -1      1356 1.93734E+01-2.81034E-03-1.47396E-04 1.23288E-01-2.90510E-14-1.22669E-13
 -1      1357 1.94028E+01-1.24282E-03 5.22421E-04 5.99485E-02-2.70215E-14-2.13913E-13
 -1      1358 1.94768E+01-1.87662E-03 8.34144E-04 5.89113E-02-7.79490E-15-2.41005E-13
 -1      1359 1.94757E+01-3.52009E-03 1.40385E-04 1.18528E-01-4.53426E-14-1.31557E-13
 -1      1360 1.95298E+01-1.25010E-03 3.59631E-04 5.57161E-02 2.21970E-15-2.75407E-13
 -1      1361 1.95981E+01-1.48280E-03 6.96836E-04 5.48226E-02-3.10625E-14-3.02475E-13
 -1      1362 1.95791E+01-3.33362E-03 2.37866E-04 1.11388E-01-2.88865E-14-2.39064E-13
 -1      1363 1.96501E+01-7.61142E-04 2.92070E-04 5.25673E-02-2.83570E-14-2.86305E-13
 -1      1364 1.97143E+01-6.40265E-04 6.61067E-04 5.20355E-02-1.64736E-14-3.29167E-13
 -1      1365 1.96811E+01-2.41654E-03 1.79678E-04 1.05025E-01-2.91444E-14-2.22594E-13
 -1      1366 1.97665E+01 2.20506E-04 2.95930E-04 5.18143E-02 2.28538E-14-3.08040E-13
 -1      1367 1.98300E+01 6.98171E-04 7.23745E-04 5.18754E-02 1.04429E-14-3.07225E-13
 -1      1368 1.97825E+01-7.77898E-04-1.69727E-05 1.02156E-01 1.73319E-15-2.31552E-13
 -1      1369 1.98853E+01 1.79621E-03 3.56561E-04 5.49463E-02 1.18579E-15-2.75849E-13
 -1      1370 1.99531E+01 2.69073E-03 8.91234E-04 5.58968E-02-2.59009E-14-2.96367E-13
 -1      1371 1.98872E+01 1.74015E-03-3.57342E-04 1.05594E-01 6.70303E-15-1.69937E-13
 -1      1372 2.00162E+01 4.20346E-03 4.58798E-04 6.39620E-02-6.00282E-14-2.63103E-13
 -1      1373 2.00962E+01 5.63066E-03 1.16472E-03 6.62407E-02-6.64974E-14-3.20413E-13
 -1      1374 2.00023E+01 5.51258E-03-8.74524E-04 1.18855E-01-4.69837E-14-7.70913E-14
 -1      1375 2.01741E+01 7.99721E-03 6.14658E-04 8.18397E-02-4.51505E-15-2.99450E-13
 -1      1376 2.02781E+01 9.97285E-03 1.60104E-03 8.60779E-02 2.83367E-14-2.66233E-13
 -1      1377 2.01389E+01 1.11872E-02-1.65065E-03 1.46909E-01-2.80438E-14-3.02999E-14
 -1      1378 2.03870E+01 1.37701E-02 6.53211E-04 1.14489E-01-2.95662E-15-2.80367E-13
 -1      1379 2.05420E+01 1.71978E-02 2.00359E-03 1.22696E-01-2.20193E-14-2.65351E-13
 -1      1380 2.03186E+01 2.03513E-02-2.83473E-03 1.98990E-01-1.36718E-15-6.28842E-14
 -1      1381 2.06883E+01 2.29431E-02 4.24887E-04 1.68435E-01 2.79464E-15-2.66991E-13
 -1      1382 2.09093E+01 2.78717E-02 2.35432E-03 1.80917E-01-7.82013E-15-2.53166E-13
 -1      1383 2.05640E+01 3.46999E-02-4.55512E-03 2.87360E-01-7.75031E-15-8.20910E-14
 -1      1384 2.11192E+01 3.67673E-02-6.17756E-04 2.53955E-01 4.45919E-14-2.39840E-13
 -1      1385 2.14570E+01 4.39124E-02 1.88617E-03 2.74295E-01 6.21486E-14-2.05259E-13
 -1      1386 2.09034E+01 5.72213E-02-7.09161E-03 4.27282E-01 5.02758E-14-7.97084E-14
 -1      1387 2.17627E+01 5.79557E-02-3.46748E-03 3.88463E-01 1.42664E-14-1.73517E-13
 -1      1388 2.22850E+01 6.73328E-02-5.94594E-04 4.20907E-01 2.12937E-15-1.60934E-13
 -1      1389 2.13927E+01 9.18646E-02-1.11320E-02 6.47414E-01 5.63733E-14-2.11270E-13
 -1      1390 2.27290E+01 8.86763E-02-1.00113E-02 5.93872E-01 3.72202E-14-1.82014E-13
 -1      1391 2.35330E+01 9.87044E-02-6.87916E-03 6.44283E-01 4.54185E-14-1.28998E-13
 -1      1392 2.21008E+01 1.43133E-01-1.73911E-02 9.84504E-01 1.92520E-14-1.49835E-13
 -1      1393 2.41661E+01 1.28271E-01-2.21212E-02 8.92133E-01 4.67491E-14-1.02043E-13
 -1      1394 2.53747E+01 1.32127E-01-1.70673E-02 9.66333E-01 3.36970E-14-1.03445E-13
 -1      1395 2.31153E+01 2.11017E-01-2.62457E-02 1.47863E+00 8.34610E-14-1.58735E-13
 -1      1396 2.62450E+01 1.64013E-01-3.70400E-02 1.28263E+00 6.16451E-14-8.92064E-14
 -1      1397 2.79624E+01 1.41934E-01-2.14668E-02 1.37855E+00 6.45300E-14-5.29160E-14
 -1      1398 2.45315E+01 2.76115E-01-3.52248E-02 2.14464E+00 8.26266E-14-1.45293E-13
 -1      1399 2.90870E+01 1.49645E-01-3.41688E-02 1.67767E+00-2.81199E-14 5.27078E-14
 -1      1400 3.12523E+01 6.11945E-02 1.32646E-02 1.75976E+00-2.67863E-14 1.52656E-14
 -1      1401 2.64224E+01 2.61932E-01-3.29939E-02 2.88754E+00 6.45838E-14-6.78277E-14
 -1      1402 3.25743E+01-3.49371E-02 3.57845E-02 1.77804E+00 3.91978E-14 4.17860E-14
 -1      1403 3.46234E+01-2.43081E-01 1.23818E-01 1.70936E+00 3.87225E-14 1.22624E-13
 -1      1404 2.87775E+01-1.46970E-02 5.76190E-03 3.32478E+00 2.99101E-14 1.69829E-14
 -1      1405 3.58235E+01-4.75441E-01 2.02428E-01 1.03186E+00-2.32037E-14 2.38046E-13
 -1      1406 3.64239E+01-7.48074E-01 2.25431E-01 6.45991E-01-2.42861E-14 1.50602E-13
 -1      1407 3.13295E+01-7.89704E-01 8.98134E-02 2.66690E+00 3.94268E-14 2.71675E-14
 -1      1408 3.72773E+01-1.04161E+00 2.85920E-01-7.83970E-01 2.32245E-14 1.79884E-13
 -1      1409 3.56767E+01-1.04876E+00 1.37509E-01-1.37416E+00-8.73190E-14 1.18516E-13
 -1      1410 3.35705E+01-1.74820E+00 1.56914E-01 3.77434E-01 1.35031E-14 1.64205E-13
 -1      1411 3.04244E+01 1.49171E-01-6.73829E-01-3.31412E+00 1.01058E-13 1.03473E-13
 -1      1412 2.61625E+01 7.64164E-01-1.24680E+00-2.99211E+00 9.67004E-14 1.53544E-13
 -1      1413 2.53995E+01 1.23551E+00-1.39806E+00-5.47181E-01 8.93730E-15 2.40807E-13
 -1      1414 2.52428E+01 1.21020E+00-1.44627E+00 5.14314E-01 1.02141E-14 1.69559E-13
 -1      1415 3.32379E+01 2.11874E+00-5.63142E-01-3.01166E+00 1.05471E-13 1.68475E-13
 -1      1416 2.59382E+01 8.63782E-01-1.27722E+00 2.94732E+00 8.56537E-14 2.68674E-13
 -1      1417 3.04213E+01 1.42426E-01-6.58255E-01 3.34416E+00 1.30784E-13 4.08396E-13
 -1      1418 3.31166E+01 2.30351E+00-5.44881E-01 3.34047E+00 1.39555E-13 2.23287E-13
 -1      1419 3.13675E+01-2.74359E-01-4.30258E-01 3.21460E+00 5.50532E-14 2.52465E-13
 -1      1420 3.58439E+01-6.88825E-01 1.46220E-01 2.87468E+00 4.35554E-14 3.59879E-13
 -1      1421 3.45318E+01-2.49789E-01-2.81739E-01 5.78472E+00 3.79696E-14 3.37421E-13
 -1      1422 3.62887E+01-6.72937E-01 2.52837E-01 9.63455E-01-1.51296E-13 3.67706E-13
 -1      1423 3.80993E+01-6.01045E-01 4.10110E-01 3.20870E-01-1.28314E-13 8.49321E-14
 -1      1424 3.53849E+01-1.47171E+00 5.59752E-02 3.23118E+00-1.25285E-13 1.66755E-13
 -1      1425 3.69735E+01-3.97403E-01 2.66088E-01-9.53840E-01-4.66016E-14-1.01447E-14
 -1      1426 3.56495E+01-1.22243E-01 1.84937E-01-1.19168E+00 3.20681E-14 2.52992E-14
 -1      1427 3.43286E+01-1.00535E+00 1.77383E-01-7.45493E-01-1.63022E-13 4.63015E-14
 -1      1428 3.41092E+01-1.00204E-01 7.38114E-02-1.49118E+00 1.42756E-13 1.04028E-13
 -1      1429 3.18353E+01 8.40519E-02 1.65671E-03-1.50025E+00 1.51124E-13 3.41005E-13
 -1      1430 3.17487E+01-2.68577E-01 7.26903E-02-2.58673E+00 1.35600E-13 1.47771E-13
 -1      1431 3.03671E+01 4.66639E-02-2.88981E-02-1.33092E+00 5.78114E-14 3.09142E-13
 -1      1432 2.82882E+01 1.24843E-01-5.74200E-02-1.26119E+00-1.07824E-13 4.32460E-13
 -1      1433 2.88369E+01 9.05804E-02-1.46878E-02-2.71252E+00 1.73329E-13 1.69455E-13
 -1      1434 2.71167E+01 8.27449E-02-4.59663E-02-9.81114E-01-1.09791E-13 4.67099E-13
 -1      1435 2.55695E+01 1.01718E-01-5.19077E-02-9.08354E-01-2.64355E-14 3.31471E-13
 -1      1436 2.62822E+01 1.82608E-01-3.91295E-02-2.15915E+00-3.15199E-14 2.99497E-13
 -1      1437 2.47116E+01 7.36861E-02-3.23331E-02-6.67144E-01-1.56212E-14 2.49654E-13
 -1      1438 2.36590E+01 7.07815E-02-3.29125E-02-6.11285E-01-5.83943E-14 2.32696E-13
 -1      1439 2.43124E+01 1.56728E-01-3.47158E-02-1.52755E+00-6.64260E-14 2.12450E-13
 -1      1440 2.30616E+01 5.46343E-02-1.73699E-02-4.36894E-01-7.09103E-14 2.31225E-13
 -1      1441 2.23748E+01 4.60824E-02-1.81590E-02-3.98429E-01 2.46470E-14 1.07303E-13
 -1      1442 2.28971E+01 1.10692E-01-2.38045E-02-1.02234E+00-7.88050E-14 2.72049E-13
 -1      1443 2.19705E+01 3.74712E-02-8.02026E-03-2.81460E-01 1.21897E-13 2.79429E-14
 -1      1444 2.15306E+01 2.91174E-02-9.46001E-03-2.56215E-01 3.82975E-14 1.92073E-13
 -1      1445 2.19214E+01 7.21101E-02-1.49819E-02-6.66419E-01 5.44998E-14 4.80160E-14
 -1      1446 2.12610E+01 2.47816E-02-3.28511E-03-1.80449E-01-2.05938E-14 2.41351E-13
 -1      1447 2.09809E+01 1.81865E-02-4.83448E-03-1.64222E-01-1.74413E-14 2.50354E-13
 -1      1448 2.12638E+01 4.52987E-02-9.26892E-03-4.29776E-01 6.16850E-14 8.54458E-14
 -1      1449 2.08021E+01 1.61222E-02-1.14291E-03-1.15882E-01-9.51851E-14 3.08235E-13
 -1      1450 2.06236E+01 1.13380E-02-2.46222E-03-1.05529E-01-1.34317E-13 1.51850E-13
 -1      1451 2.08254E+01 2.80322E-02-5.78920E-03-2.76641E-01-1.30234E-13 8.13872E-14
 -1      1452 2.05051E+01 1.04340E-02-2.51319E-04-7.48156E-02-1.12911E-13 1.30843E-13
 -1      1453 2.03908E+01 7.10268E-03-1.25261E-03-6.82060E-02-8.36256E-14-4.12974E-14
 -1      1454 2.05341E+01 1.72875E-02-3.67546E-03-1.78641E-01-2.35235E-13 1.77653E-14
 -1      1455 2.03121E+01 6.77376E-03 8.14957E-05-4.86217E-02 1.90904E-13 1.08218E-13
 -1      1456 2.02383E+01 4.50479E-03-6.38011E-04-4.43701E-02 3.20900E-13 6.07804E-13
 -1      1457 2.03405E+01 1.07111E-02-2.37353E-03-1.16015E-01 1.67427E-13 2.73440E-13
 -1      1458 2.01859E+01 4.45912E-03 1.70641E-04-3.17202E-02 2.03653E-13 3.95729E-13
 -1      1459 2.01381E+01 2.93195E-03-3.41838E-04-2.89335E-02 1.08044E-13 6.89251E-13
 -1      1460 2.02114E+01 6.73684E-03-1.56575E-03-7.57192E-02 2.78258E-13 2.04970E-13
 -1      1461 2.01034E+01 3.03856E-03 1.42370E-04-2.05177E-02 1.21443E-13 7.99658E-13
 -1      1462 2.00728E+01 2.00820E-03-2.38203E-04-1.86117E-02-1.39958E-13 8.54049E-13
 -1      1463 2.01254E+01 4.39421E-03-1.07511E-03-4.92949E-02 1.42646E-13 4.24059E-13
 -1      1464 2.00502E+01 2.23315E-03 3.91018E-05-1.26648E-02-1.78931E-13 8.42265E-13
 -1      1465 2.00317E+01 1.49902E-03-2.59023E-04-1.12370E-02 2.41945E-15 6.18645E-13
 -1      1466 2.00687E+01 3.10750E-03-8.01477E-04-3.12367E-02-1.30488E-13 4.87519E-13
 -1      1467 2.00179E+01 1.85509E-03-9.58802E-05-6.61883E-03-5.24424E-14 4.70991E-13
 -1      1468 2.00087E+01 1.21825E-03-2.56775E-04-5.38601E-03-2.10683E-13 2.12525E-13
 -1      1469 2.00326E+01 2.51229E-03-6.62496E-04-1.79250E-02-7.01421E-14 2.22326E-13
 -1      1470 2.00016E+01 1.47699E-03-9.91448E-05-1.66602E-03-2.59809E-13-2.87241E-14
 -1      1471 2.00002E+01 1.07474E-03 3.53385E-04-6.26157E-04 1.01849E-14-2.71809E-13
 -1      1472 2.00116E+01 2.17802E-03-4.92262E-04-7.28736E-03-3.76765E-13 4.45249E-14
 -1      1473 1.99984E+01 8.34203E-04 4.03474E-04 1.24871E-03 2.68449E-13-1.37271E-13
 -1      1474 2.00003E+01 1.52514E-04 1.75132E-03 8.10722E-04 1.87077E-13 1.83916E-13
 -1      1475 2.00006E+01-1.77637E-03 3.07276E-04 1.30075E-03 1.60127E-13 5.02494E-14
 -1      1476 2.00034E+01 1.88976E-03 3.08356E-05-5.89409E-04 1.57094E-13 2.48662E-13
 -1      1477 2.02540E+01 7.58272E-02-1.51741E-01 4.83529E-01 4.09534E-14 8.13308E-13
 -1      1478 2.15245E+01 2.16060E-01-2.29237E-01 7.20999E-01 4.19109E-14 8.67542E-13
 -1      1479 2.17241E+01 8.82139E-01-8.52652E-02 2.06489E+00 7.56062E-14 6.56961E-13
 -1      1480 1.93244E+01 3.41683E-02-2.07773E-02 1.85218E-01 4.38712E-14 7.32730E-13
 -1      1481 1.97473E+01 1.14145E-01-6.19552E-02 2.38923E-01 3.34142E-14 7.70928E-13
 -1      1482 2.02989E+01 1.86280E-01-5.54966E-02 7.87991E-01 6.91877E-14 5.78254E-13
 -1      1483 1.89444E+01 1.66669E-02 6.06958E-03 5.23838E-02 1.78113E-14 6.66057E-13
 -1      1484 1.90845E+01 5.14139E-02 1.68585E-03 7.98117E-02 3.07887E-14 7.03607E-13
 -1      1485 1.95507E+01 6.68559E-02-1.53539E-02 2.96996E-01 5.34052E-14 5.27809E-13
 -1      1486 1.88355E+01 8.60604E-03 7.17085E-03-9.34034E-03 1.52716E-14 6.19666E-13
 -1      1487 1.88516E+01 2.54392E-02 1.15255E-02 5.71604E-03 7.79541E-15 6.45692E-13
 -1      1488 1.92165E+01 2.11943E-02-6.94833E-03 7.59456E-02 3.11903E-14 4.62991E-13
 -1      1489 1.88637E+01 3.87924E-03 4.80234E-03-4.00162E-02 2.41723E-14 5.88666E-13
 -1      1490 1.88198E+01 1.35994E-02 8.53795E-03-3.16998E-02 1.24033E-16 5.96604E-13
 -1      1491 1.91018E+01 7.11677E-03-4.70598E-03-2.91069E-02 1.00740E-14 4.05726E-13
 -1      1492 1.89610E+01 1.28678E-03 3.25439E-03-5.39280E-02 1.33065E-14 5.59709E-13
 -1      1493 1.88891E+01 7.30530E-03 5.30785E-03-4.94174E-02 2.26265E-14 5.91107E-13
 -1      1494 1.91070E+01 1.14719E-03-3.27082E-03-7.97395E-02 2.82023E-14 3.90953E-13
 -1      1495 1.90901E+01-1.56390E-04 2.42004E-03-5.85773E-02 2.21568E-15 5.69506E-13
 -1      1496 1.90074E+01 3.68187E-03 3.38780E-03-5.63690E-02 9.98062E-16 5.53699E-13
 -1      1497 1.91743E+01-1.69104E-03-2.16022E-03-1.02253E-01 1.67786E-14 3.83317E-13
 -1      1498 1.92297E+01-9.23590E-04 1.91342E-03-5.80242E-02-1.62794E-14 5.50076E-13
 -1      1499 1.91457E+01 1.51593E-03 2.28885E-03-5.72078E-02 1.02720E-15 5.52045E-13
 -1      1500 1.92722E+01-3.04844E-03-1.30956E-03-1.09085E-01 4.07161E-15 3.75089E-13
 -1      1501 1.93681E+01-1.27055E-03 1.53762E-03-5.47275E-02 5.14346E-14 5.33400E-13
 -1      1502 1.92878E+01 2.56385E-04 1.60996E-03-5.47150E-02 2.06541E-14 5.45574E-13
 -1      1503 1.93822E+01-3.55861E-03-7.18387E-04-1.07195E-01 1.29045E-14 3.25036E-13
 -1      1504 1.94990E+01-1.35889E-03 1.22290E-03-5.02219E-02 3.28062E-14 4.77473E-13
 -1      1505 1.94247E+01-4.18613E-04 1.14742E-03-5.06251E-02 3.10176E-14 5.34449E-13
 -1      1506 1.94939E+01-3.56177E-03-3.43025E-04-1.00805E-01 4.52647E-14 3.26326E-13
 -1      1507 1.96196E+01-1.30455E-03 9.49411E-04-4.54343E-02 3.14380E-14 4.06452E-13
 -1      1508 1.95523E+01-7.24818E-04 8.10268E-04-4.60046E-02 1.09571E-14 4.42618E-13
 -1      1509 1.96013E+01-3.28240E-03-1.25621E-04-9.25111E-02 2.95300E-14 3.17180E-13
 -1      1510 1.97294E+01-1.20214E-03 7.14573E-04-4.08364E-02 2.38357E-14 3.51860E-13
 -1      1511 1.96689E+01-8.28867E-04 5.54309E-04-4.14339E-02 4.24011E-14 4.01071E-13
 -1      1512 1.97018E+01-2.89376E-03-1.15920E-05-8.38130E-02 4.87660E-14 2.47112E-13
 -1      1513 1.98283E+01-1.13952E-03 5.23900E-04-3.65073E-02 3.01698E-14 3.04257E-13
 -1      1514 1.97742E+01-8.79359E-04 3.54432E-04-3.70909E-02 6.65966E-15 3.26319E-13
 -1      1515 1.97939E+01-2.55232E-03 4.86958E-05-7.53473E-02 3.50716E-14 2.22665E-13
 -1      1516 1.99162E+01-1.20709E-03 3.90017E-04-3.21414E-02 7.54124E-14 1.36620E-13
 -1      1517 1.98683E+01-1.02696E-03 1.95150E-04-3.27721E-02 6.27898E-14 2.81840E-13
 -1      1518 1.98771E+01-2.41910E-03 1.04168E-04-6.69781E-02 7.33530E-14 1.74845E-13
 -1      1519 1.99916E+01-1.50226E-03 3.33954E-04-2.70230E-02-7.19659E-14 1.42767E-13
 -1      1520 1.99507E+01-1.43715E-03 6.80635E-05-2.78774E-02 2.08820E-15 1.32869E-13
 -1      1521 1.99503E+01-2.67228E-03 2.08082E-04-5.77945E-02 5.95107E-14 1.92337E-13
 -1      1522 2.00507E+01-2.12645E-03 3.85840E-04-1.99925E-02 1.18863E-14 1.78469E-13
 -1      1523 2.00187E+01-2.29348E-03-2.81699E-05-2.13807E-02-5.36941E-14 1.13087E-13
 -1      1524 2.00109E+01-3.50836E-03 4.21529E-04-4.60642E-02-4.56386E-14 1.02260E-13
 -1      1525 2.00861E+01-3.17002E-03 5.82304E-04-9.44465E-03 5.32718E-14 4.81976E-14
 -1      1526 2.00672E+01-3.78491E-03-8.73928E-05-1.18225E-02 5.68278E-14 1.51602E-13
 -1      1527 2.00540E+01-5.12371E-03 8.13258E-04-2.92083E-02 8.39506E-14 5.69052E-14
 -1      1528 2.00860E+01-4.67926E-03 9.56883E-04 6.57699E-03 1.20745E-14-3.37303E-14
 -1      1529 2.00869E+01-6.06722E-03-9.68335E-05 2.62013E-03 7.40514E-14 5.71447E-14
 -1      1530 2.00718E+01-7.66484E-03 1.45251E-03-3.89147E-03 8.78954E-14 1.29047E-13
 -1      1531 2.00336E+01-6.60073E-03 1.51914E-03 3.01011E-02 4.66760E-14-7.48942E-14
 -1      1532 2.00639E+01-9.18817E-03-4.17918E-05 2.39053E-02-4.89214E-15-7.67090E-14
 -1      1533 2.00523E+01-1.11355E-02 2.39037E-03 3.36296E-02 5.75334E-14 6.16414E-14
 -1      1534 1.99080E+01-8.70618E-03 2.22038E-03 6.26661E-02-1.96403E-14-9.59703E-14
 -1      1535 1.99796E+01-1.29731E-02 8.31565E-05 5.36492E-02-2.52185E-15-3.64422E-14
 -1      1536 1.99801E+01-1.52591E-02 3.62542E-03 8.67275E-02 8.18204E-15 5.59502E-14
 -1      1537 1.96865E+01-1.05181E-02 2.91106E-03 1.04418E-01-3.38466E-14-8.66442E-14
 -1      1538 1.98124E+01-1.68884E-02 2.55664E-04 9.23350E-02-1.89414E-14-8.92108E-14
 -1      1539 1.98373E+01-1.93201E-02 5.05440E-03 1.57051E-01 6.97055E-15-1.46926E-14
 -1      1540 1.93502E+01-1.12839E-02 3.30949E-03 1.52947E-01-1.97451E-14-4.91725E-14
 -1      1541 1.95413E+01-1.99399E-02 4.03487E-04 1.38252E-01-3.38011E-15-3.22867E-14
 -1      1542 1.96066E+01-2.20576E-02 6.41942E-03 2.42608E-01-1.51992E-14 3.88762E-14
 -1      1543 1.88912E+01-1.00737E-02 3.02182E-03 2.02212E-01-1.26400E-13 1.06276E-13
 -1      1544 1.91517E+01-2.07120E-02 3.94051E-04 1.86427E-01-9.22918E-14-3.34455E-14
 -1      1545 1.92763E+01-2.17433E-02 7.28250E-03 3.35672E-01-7.40272E-14 2.07582E-13
 -1      1546 1.83224E+01-6.07641E-03 1.65708E-03 2.42227E-01-9.60617E-14 3.08101E-13
 -1      1547 1.86446E+01-1.76775E-02 5.88266E-05 2.28121E-01-1.44317E-13 8.19310E-14
 -1      1548 1.88476E+01-1.65923E-02 7.07997E-03 4.21409E-01-1.73121E-13 1.51061E-13
 -1      1549 1.76852E+01 9.14473E-04-9.48990E-04 2.60392E-01 1.11754E-13 1.77653E-13
 -1      1550 1.80452E+01-9.83755E-03-7.28420E-04 2.51669E-01 1.12057E-13 3.70324E-13
 -1      1551 1.83415E+01-5.56754E-03 5.30228E-03 4.78682E-01 2.59160E-14 1.18140E-13
 -1      1552 1.70510E+01 1.00181E-02-4.48246E-03 2.44966E-01 7.76885E-14-3.28019E-14
 -1      1553 1.74077E+01 2.47692E-03-1.92852E-03 2.45296E-01 9.42484E-14 7.07854E-14
 -1      1554 1.78033E+01 1.06466E-02 1.79037E-03 4.84356E-01 1.86230E-13 8.14600E-14
 -1      1555 1.65123E+01 1.91436E-02-8.05966E-03 1.90047E-01 4.85011E-14-1.85005E-13
 -1      1556 1.68131E+01 1.70915E-02-3.25101E-03 2.01574E-01 4.81256E-14-7.31082E-14
 -1      1557 1.73006E+01 2.90764E-02-2.98260E-03 4.21114E-01 1.27482E-13 7.05200E-14
 -1      1558 1.61620E+01 2.55497E-02-1.04534E-02 9.98837E-02-4.12517E-15-2.63627E-13
 -1      1559 1.63547E+01 3.03092E-02-4.19079E-03 1.21892E-01-3.86470E-14-2.29948E-13
 -1      1560 1.69116E+01 4.48987E-02-7.88326E-03 2.86332E-01 2.49366E-15 1.22750E-13
 -1      1561 1.60671E+01 2.69879E-02-1.06349E-02-1.02766E-02-3.26692E-14-2.46137E-13
 -1      1562 1.61147E+01 3.82155E-02-4.23629E-03 1.83015E-02 2.14464E-14-2.75800E-13
 -1      1563 1.67058E+01 5.31299E-02-1.14650E-02 9.73673E-02 2.68917E-14-7.11540E-15
 -1      1564 1.62465E+01 2.28473E-02-8.34095E-03-1.18300E-01-7.18028E-14-1.67168E-13
 -1      1565 1.61395E+01 3.84274E-02-3.16155E-03-8.91279E-02-6.80636E-14-3.34162E-13
 -1      1566 1.67228E+01 5.08426E-02-1.26167E-02-1.10974E-01-5.34225E-14-2.68598E-14
 -1      1567 1.66648E+01 1.45194E-02-4.27699E-03-2.02813E-01-1.16010E-14-1.62335E-13
 -1      1568 1.64243E+01 3.12358E-02-1.20331E-03-1.78926E-01 1.52725E-14-1.91000E-13
 -1      1569 1.69593E+01 3.86330E-02-1.11257E-02-2.97226E-01-1.17935E-14 4.35520E-14
 -1      1570 1.72441E+01 4.68086E-03 2.39226E-04-2.50474E-01-1.27719E-13-2.20657E-15
 -1      1571 1.69147E+01 1.93601E-02 1.02553E-03-2.35631E-01-1.44465E-13-2.03429E-13
 -1      1572 1.73702E+01 2.03880E-02-7.73340E-03-4.27514E-01-1.66534E-13 2.78501E-14
 -1      1573 1.78887E+01-3.98776E-03 3.92939E-03-2.59179E-01 8.36672E-14 9.82721E-15
 -1      1574 1.75246E+01 6.53151E-03 2.84594E-03-2.54159E-01 9.40471E-15 5.11553E-14
 -1      1575 1.78833E+01 1.44754E-03-3.67877E-03-4.85942E-01-3.83259E-14-3.73764E-14
 -1      1576 1.85113E+01-9.81235E-03 6.06467E-03-2.36344E-01-2.31039E-14-2.26034E-15
 -1      1577 1.81616E+01-4.11175E-03 3.82365E-03-2.39431E-01 5.85441E-14 9.87647E-14
 -1      1578 1.84212E+01-1.36621E-02-9.68434E-05-4.76488E-01 6.99302E-14 1.93508E-14
 -1      1579 1.90499E+01-1.24092E-02 6.59150E-03-1.94231E-01 1.98385E-13-1.97450E-13
 -1      1580 1.87491E+01-1.09433E-02 3.89647E-03-2.02448E-01 1.05460E-13-5.62571E-15
 -1      1581 1.89195E+01-2.26391E-02 2.36553E-03-4.17242E-01 1.67383E-13 2.07493E-13
 -1      1582 1.94733E+01-1.23562E-02 5.92495E-03-1.45157E-01 5.69629E-14-4.63579E-13
 -1      1583 1.92384E+01-1.38641E-02 3.29712E-03-1.55488E-01 4.63219E-14-3.92620E-13
 -1      1584 1.93368E+01-2.55096E-02 3.59229E-03-3.31460E-01 1.61268E-13 2.77903E-15
 -1      1585 1.97768E+01-1.06412E-02 4.63569E-03-9.84405E-02-2.14562E-13-3.42859E-13
 -1      1586 1.96099E+01-1.37517E-02 2.37384E-03-1.08593E-01-7.14778E-14-4.09022E-13
 -1      1587 1.96560E+01-2.38075E-02 3.82006E-03-2.39988E-01-1.22700E-13-1.47645E-13
 -1      1588 1.99736E+01-8.21292E-03 3.21228E-03-5.94470E-02 4.83944E-14-1.25134E-13
 -1      1589 1.98666E+01-1.18101E-02 1.43314E-03-6.80760E-02-9.21338E-14-2.25756E-13
 -1      1590 1.98788E+01-1.95407E-02 3.41540E-03-1.57247E-01-1.92668E-13-1.26012E-13
 -1      1591 2.00852E+01-5.75562E-03 1.96114E-03-3.01010E-02 1.09519E-13-2.50139E-13
 -1      1592 2.00256E+01-9.11255E-03 6.63320E-04-3.66847E-02 7.04619E-14-1.52451E-13
 -1      1593 2.00187E+01-1.44471E-02 2.71706E-03-9.06336E-02 6.31372E-14-7.99114E-14
 -1      1594 2.01354E+01-3.65072E-03 1.01274E-03-1.00135E-02-1.07625E-14-2.82838E-13
 -1      1595 2.01096E+01-6.40291E-03 1.33096E-04-1.45829E-02 1.05287E-14-2.82362E-13
 -1      1596 2.00945E+01-9.67805E-03 1.96602E-03-4.19763E-02 1.94807E-14 1.53139E-14
 -1      1597 2.01449E+01-2.03891E-03 3.76153E-04 2.39245E-03-1.09090E-13-9.30223E-14
 -1      1598 2.01411E+01-4.08479E-03-1.71192E-04-4.81674E-04-1.61777E-14-2.17325E-13
 -1      1599 2.01246E+01-5.80241E-03 1.29894E-03-9.63528E-03-5.93835E-14 1.03275E-13
 -1      1600 2.01305E+01-9.08738E-04-2.65639E-06 9.04588E-03 7.61531E-14-1.51309E-13
 -1      1601 2.01395E+01-2.30111E-03-3.02764E-04 7.45575E-03-3.24041E-14-1.60034E-13
 -1      1602 2.01254E+01-2.96169E-03 7.71359E-04 9.61938E-03-2.83381E-14-2.59771E-14
 -1      1603 2.01044E+01-1.73197E-04-1.98847E-04 1.17282E-02 1.42016E-13-3.02199E-13
 -1      1604 2.01194E+01-1.03226E-03-3.23163E-04 1.10359E-02 1.63293E-13-1.66357E-13
 -1      1605 2.01094E+01-1.04878E-03 3.86803E-04 1.93028E-02 1.71587E-13-1.97218E-13
 -1      1606 2.00747E+01 2.79327E-04-2.87065E-04 1.18405E-02-9.37803E-14-4.09907E-13
 -1      1607 2.00913E+01-1.76059E-04-2.86752E-04 1.17419E-02 7.44861E-15-4.23088E-13
 -1      1608 2.00857E+01 1.54549E-04 1.21170E-04 2.24838E-02 9.14528E-14-3.04954E-13
 -1      1609 2.00466E+01 5.56394E-04-3.34393E-04 1.03394E-02 6.92778E-14-2.76537E-13
 -1      1610 2.00621E+01 4.00229E-04-2.37673E-04 1.06335E-02 4.06256E-14-3.66248E-13
 -1      1611 2.00604E+01 8.89500E-04-6.34981E-05 2.14771E-02 3.42889E-14-2.74728E-13
 -1      1612 2.00237E+01 7.42553E-04-3.85218E-04 7.78508E-03-1.13206E-14-3.36907E-13
 -1      1613 2.00361E+01 8.20837E-04-2.10150E-04 8.36501E-03 4.31052E-14-2.65582E-13
 -1      1614 2.00375E+01 1.36602E-03-2.08500E-04 1.78047E-02 2.75577E-14-1.25497E-13
 -1      1615 2.00081E+01 8.64435E-04-3.74210E-04 4.43780E-03-1.53688E-13-1.72384E-13
 -1      1616 2.00161E+01 1.17411E-03-2.02279E-04 5.29255E-03-1.37628E-13-3.07447E-13
 -1      1617 2.00193E+01 1.74696E-03-3.15954E-04 1.23538E-02-1.49942E-13-1.73087E-13
 -1      1618 2.00011E+01 8.58317E-04 1.04219E-04 9.00641E-04 1.09148E-13-1.83209E-13
 -1      1619 2.00038E+01 1.29291E-03-8.94129E-05 1.83907E-03 1.79008E-14-2.55525E-13
 -1      1620 2.00070E+01 1.98042E-03-2.70722E-04 5.84249E-03-1.26530E-14-2.48686E-13
 -1      1621 1.99996E+01 1.31435E-04 3.38397E-04-3.84039E-04-8.94710E-14-1.72381E-13
 -1      1622 2.00011E+01 6.23070E-03-1.67391E-04 3.39276E-03-3.03387E-14 2.50046E-14
 -1      1623 2.00012E+01 3.17219E-03 1.42273E-04 2.54002E-03-1.22590E-13 5.07431E-15
 -1      1624 2.00009E+01 1.94089E-02-1.07788E-04 6.92958E-03 1.07595E-13 3.61305E-15
 -1      1625 2.00011E+01 1.19103E-02-1.05643E-04 6.20389E-03 1.05490E-14-5.69458E-14
 -1      1626 2.00023E+01 1.23337E-02-2.65087E-04 9.68228E-03 8.17377E-14 2.73926E-14
 -1      1627 2.00004E+01 3.80839E-02-4.04302E-05 9.38970E-03 6.82885E-14-1.15164E-13
 -1      1628 2.00007E+01 2.73925E-02-8.69467E-05 8.99206E-03 1.13571E-13 1.93241E-13
 -1      1629 2.00015E+01 2.59007E-02-2.94458E-04 1.56003E-02 7.52732E-14 5.04286E-14
 -1      1630 1.99999E+01 5.99692E-02-9.91291E-06 1.06076E-02 3.00360E-13 4.23340E-14
 -1      1631 2.00002E+01 4.76588E-02-3.77916E-05 1.04708E-02 9.16992E-14-6.76256E-14
 -1      1632 2.00006E+01 4.34377E-02-1.55351E-04 1.93505E-02 2.36586E-13-5.82740E-14
 -1      1633 1.99994E+01 8.20105E-02-4.40284E-06 1.04638E-02 1.23660E-13 1.05935E-14
 -1      1634 1.99997E+01 6.99405E-02-1.68944E-05 1.05932E-02 4.23554E-15 2.87337E-14
 -1      1635 1.99998E+01 6.29584E-02-1.11346E-05 2.06325E-02 1.13129E-13-1.66135E-13
 -1      1636 1.99988E+01 1.02028E-01-1.81712E-06 8.86730E-03-4.62804E-14-2.56740E-13
 -1      1637 1.99992E+01 9.15237E-02-2.41222E-08 9.28567E-03 1.14553E-13-1.72919E-13
 -1      1638 1.99989E+01 8.24400E-02 1.46739E-04 1.92251E-02-1.69160E-13-2.52100E-13
 -1      1639 1.99984E+01 1.16578E-01 5.31540E-06 5.82011E-03-6.11767E-14 4.46600E-14
 -1      1640 1.99986E+01 1.09565E-01 1.94276E-05 6.51805E-03-5.60186E-14-2.25531E-13
 -1      1641 1.99980E+01 9.95608E-02 3.14563E-04 1.49958E-02 1.86340E-13-2.82199E-13
 -1      1642 1.99980E+01 1.22946E-01 1.75030E-05 1.53912E-03 2.71796E-13 2.05918E-13
 -1      1643 1.99982E+01 1.20883E-01 4.31568E-05 2.45932E-03-9.94607E-14 2.67251E-13
 -1      1644 1.99973E+01 1.11571E-01 4.69059E-04 8.11422E-03 7.73430E-14 1.26236E-13
 -1      1645 1.99980E+01 1.19306E-01 2.54080E-05-3.45039E-03 3.21369E-13 6.71743E-14
 -1      1646 1.99979E+01 1.23049E-01 6.27344E-05-2.43512E-03 2.01143E-13 1.64855E-13
 -1      1647 1.99968E+01 1.16212E-01 5.74426E-04-7.66451E-04 1.43695E-13 2.63781E-13
 -1      1648 1.99983E+01 1.05391E-01 1.51773E-05-8.29918E-03 1.30337E-15-4.63651E-13
 -1      1649 1.99980E+01 1.14814E-01 6.68538E-05-7.38288E-03 2.69955E-13-1.12566E-13
 -1      1650 1.99969E+01 1.12068E-01 5.88835E-04-1.03825E-02 2.39734E-13 4.41270E-15
 -1      1651 1.99990E+01 8.34249E-02-2.31100E-05-1.18995E-02-2.73238E-13 1.39300E-13
 -1      1652 1.99985E+01 9.69040E-02 3.15243E-05-1.13159E-02-3.93485E-14-3.32285E-13
 -1      1653 1.99976E+01 9.92478E-02 4.88432E-04-1.88744E-02 2.19254E-13-3.84843E-13
 -1      1654 2.00000E+01 5.65100E-02-1.09559E-04-1.33312E-02 3.80102E-13 1.37631E-13
 -1      1655 1.99994E+01 7.19610E-02-5.08800E-05-1.32600E-02-1.25708E-13 4.86533E-13
 -1      1656 1.99989E+01 7.93822E-02 2.54749E-04-2.42966E-02 1.84248E-13 4.04887E-13
 -1      1657 2.00011E+01 3.04942E-02-2.11587E-04-1.18088E-02 5.10301E-13 8.51512E-14
 -1      1658 2.00005E+01 4.42609E-02-1.90269E-04-1.23938E-02 3.89520E-13-1.63436E-14
 -1      1659 2.00008E+01 5.55632E-02-7.25720E-05-2.49580E-02 1.64251E-13 2.23023E-14
 -1      1660 2.00020E+01 1.09913E-02-2.17815E-04-7.37735E-03 2.32197E-13-2.70551E-13
 -1      1661 2.00015E+01 1.97787E-02-3.49307E-04-8.57945E-03 3.91795E-13 1.19645E-14
 -1      1662 2.00026E+01 3.23591E-02-3.93780E-04-2.00142E-02-6.39532E-14-9.15890E-14
 -1      1663 2.00015E+01 1.67088E-03 1.73173E-04-1.98928E-03 6.25534E-14-1.42727E-13
 -1      1664 2.00015E+01 4.04086E-03-3.95336E-04-3.11334E-03 4.08188E-13-5.32771E-13
 -1      1665 2.00034E+01 1.49087E-02-4.74025E-04-1.08918E-02-2.04435E-13-2.59039E-13
 -1      1666 2.00030E+01 4.54730E-03 1.99667E-05-2.46386E-03 1.94469E-13-1.39742E-13
 -1      1667-4.73677E-01-1.53797E+01-1.63231E+00-2.32753E-01-8.93730E-14 8.82905E-14
 -1      1668-6.37421E-01-1.89235E+01-1.98607E+00 1.11876E+00-9.13714E-14-6.51423E-14
 -1      1669 2.16750E+00-6.93529E+00-1.03096E+00 1.66492E+00 3.61933E-13 1.99979E-13
 -1      1670 1.04841E+00-1.31851E+01-1.66472E+00 6.76835E-01 1.08136E-13 2.35714E-13
 -1      1671 8.29971E+00 1.51028E+00-3.79687E-01 6.11224E+00 7.23865E-13 1.13454E-12
 -1      1672 4.71916E+00-4.38159E+00-1.20085E+00 2.81360E+00 4.01679E-13 6.15397E-13
 -1      1673 2.09918E+01 6.45087E+00 4.09575E-01 1.16772E+01 8.57203E-13 8.08131E-13
 -1      1674 1.34446E+01 3.18277E+00-4.67260E-01 7.66574E+00 9.20597E-13 8.45990E-13
 -1      1675 3.56266E+01 7.77826E+00 1.09623E+00 1.44001E+01 6.42375E-13 6.39933E-13
 -1      1676 2.61810E+01 8.03109E+00 3.23025E-01 1.27262E+01 8.60978E-13 8.91287E-13
 -1      1677 4.94217E+01 5.59675E+00 1.44768E+00 1.10327E+01 2.46997E-13 9.85878E-14
 -1      1678 4.07110E+01 7.56255E+00 9.41583E-01 1.31417E+01 5.07705E-13 4.36318E-13
 -1      1679 5.70889E+01 4.33091E+00 1.66075E+00 3.11060E+00 2.82968E-13-5.38181E-13
 -1      1680 5.23563E+01 5.65608E+00 1.35111E+00 8.50830E+00 3.06477E-13-1.32339E-13
 -1      1681 5.77379E+01 4.43418E+00 1.75686E+00-5.86068E+00 4.69014E-13-1.24911E-12
 -1      1682 5.95423E+01 3.76311E+00 1.81451E+00 4.64704E-01 2.64788E-13-7.75387E-13
 -1      1683 4.66436E+01 6.79206E+00 1.21120E+00-1.20487E+01 4.66086E-13-1.44218E-12
 -1      1684 5.45413E+01 4.80339E+00 1.73004E+00-8.30277E+00 4.82045E-13-1.31495E-12
 -1      1685 3.17725E+01 8.09412E+00 5.61384E-01-1.34008E+01 7.48734E-13-1.32339E-12
 -1      1686 4.17868E+01 7.00870E+00 1.32310E+00-1.37857E+01 5.92637E-13-1.53821E-12
 -1      1687 1.77317E+01 6.06184E+00-1.51280E-01-1.00704E+01 8.27782E-13-1.00941E-12
 -1      1688 2.60181E+01 7.85586E+00 7.14661E-01-1.33847E+01 8.49876E-13-1.16751E-12
 -1      1689 8.03940E+00-2.35790E-01-8.07155E-01-5.00986E+00 1.04161E-12-6.21059E-13
 -1      1690 1.29624E+01 4.56077E+00 9.65691E-03-8.70638E+00 9.40803E-13-8.63198E-13
 -1      1691 3.13806E+00-9.26287E+00-1.28685E+00-1.96482E+00 5.96634E-13-5.54778E-13
 -1      1692 5.36323E+00-3.03995E+00-6.27846E-01-4.13256E+00 8.96838E-13-6.30385E-13
 -1      1693-1.17247E-01-1.68481E+01-1.86648E+00-5.68511E-01 9.93650E-14-2.68535E-13
 -1      1694 1.78660E-01-1.19003E+01-1.39345E+00-6.87585E-02 5.72875E-13-4.72969E-13
 -1      1695-1.10861E+00-1.92679E+01-1.98048E+00-2.09451E+00-4.61103E-13-2.62679E-13
 -1      1696-8.56167E-01-1.79160E+01-1.79618E+00-1.99691E-01-5.47895E-14-2.89047E-13
 -1      1697-1.28646E+00-1.65276E+01-1.99029E+00-3.07749E+00-4.22218E-13 2.33841E-14
 -1      1698-9.48883E-01-1.93548E+01-2.09811E+00-1.77573E+00-5.64021E-13-5.88141E-14
 -1      1699 1.18486E+00-9.21207E+00-1.70514E+00-1.03753E+00-3.39284E-13-3.38063E-13
 -1      1700 1.54382E-01-1.49083E+01-2.15738E+00-2.21712E+00-3.16525E-13-1.59303E-13
 -1      1701 9.18023E+00-1.55057E+00-1.10328E+00 4.09272E+00-3.59268E-13-3.05533E-13
 -1      1702 4.64425E+00-7.17245E+00-1.91688E+00 4.46054E-01-3.19966E-13-2.96874E-13
 -1      1703 2.52547E+01 3.45629E+00 3.28744E-02 1.00604E+01-4.24105E-14 2.00950E-13
 -1      1704 1.50491E+01 8.08767E-02-1.24863E+00 5.52606E+00-3.14859E-13-7.77156E-14
 -1      1705 4.69555E+01 4.04152E+00 1.69255E+00 1.11035E+01 1.47660E-13 2.10498E-13
 -1      1706 3.34754E+01 3.90819E+00 1.59142E-01 9.50773E+00 1.09246E-13 2.33147E-13
 -1      1707 6.54280E+01 3.82944E+00 3.36619E+00 7.34116E+00 2.09555E-14 6.48370E-14
 -1      1708 5.37051E+01 5.39199E+00 2.07269E+00 1.07904E+01 1.52212E-13 1.21680E-13
 -1      1709 7.01438E+01 4.10550E+00 3.73804E+00-1.58424E+00 8.95950E-14-1.82798E-13
 -1      1710 6.77051E+01 4.50069E+00 3.45114E+00 5.22515E+00 8.44880E-14 1.08802E-14
 -1      1711 6.17889E+01 4.93612E+00 2.85215E+00-9.05317E+00-2.19269E-15-1.85629E-13
 -1      1712 6.97970E+01 3.62834E+00 3.71885E+00-3.83837E+00 5.42344E-14-2.76668E-13
 -1      1713 4.29588E+01 4.95859E+00 1.00711E+00-1.07705E+01-2.00950E-14-1.47660E-13
 -1      1714 5.64603E+01 4.14934E+00 2.59167E+00-1.02446E+01-1.87350E-14-2.94431E-13
 -1      1715 2.32994E+01 2.73655E+00-6.08260E-01-8.24781E+00 1.11022E-14 1.82077E-14
 -1      1716 3.54398E+01 4.41845E+00 8.40984E-01-1.17313E+01 5.39568E-14-1.68754E-14
 -1      1717 8.99746E+00-3.35495E+00-1.62046E+00-2.80970E+00-3.65930E-13 3.86358E-14
 -1      1718 1.62431E+01 1.57507E+00-5.65178E-01-7.30002E+00-1.41442E-13-1.30562E-13
 -1      1719 2.12243E+00-1.15829E+01-1.96604E+00 1.02628E+00-4.50306E-13 2.62290E-13
 -1      1720 4.75532E+00-5.46384E+00-1.36022E+00-1.49790E+00-3.85691E-13 2.19158E-13
 -1      1721-7.30086E-01-1.80311E+01-2.14988E+00 2.26935E+00-1.29785E-13 1.34198E-13
 -1      1722-7.70516E-01-1.36798E+01-1.88042E+00 2.64316E+00-3.70037E-13 3.71259E-13
 -1      1723-9.91119E-01-1.95625E+01-1.99536E+00 8.67078E-01-1.75110E-13 1.47660E-14
 -1      1724-1.33802E+00-1.89988E+01-2.04436E+00 2.76385E+00-1.74499E-13-1.30174E-14
 -1      1725 3.57067E+01-7.76435E-01 5.66703E-02-2.98399E+00-1.11980E-13 1.41331E-13
 -1      1726 3.15813E+01-3.55097E-01-4.30259E-01-3.30837E+00 1.82909E-14 5.19584E-14
 -1      1727-1.83852E+00-1.33572E+01-1.45359E+00 1.79539E+00-1.96981E-13-6.66134E-16
 -1      1728 1.67047E+01-1.70302E+00-1.21766E-01 7.96848E+00 4.10005E-13 7.71605E-13
 -1      1729 3.54367E+01-1.84306E+00 1.25245E-01-3.40603E+00-9.84664E-14 1.49613E-13
 -1      1730 2.00011E+01 8.02616E-04 5.46917E-06 7.09466E-04-1.19553E-13-2.33323E-13
 -1      1731 2.00032E+01 4.75400E-03 3.18957E-05 4.24704E-03 3.20450E-14-1.67859E-13
 -1      1732 1.03312E+00-1.07074E+01-1.16033E+00 3.78698E+00 1.76414E-13 3.58963E-13
 -1      1733 7.12484E+00-6.47870E+00-7.54716E-01 5.86229E+00 2.41696E-13 5.14228E-13
 -1      1734 2.75057E+01 2.29178E+00 3.23376E-01 8.74401E+00 5.89861E-13 4.40092E-13
 -1      1735 3.81956E+01 5.70144E+00 9.63699E-01 8.01890E+00 5.36557E-13 5.70655E-14
 -1      1736 4.53142E+01 7.50734E+00 1.18470E+00 4.49795E+00 4.12448E-13-2.95375E-13
 -1      1737 4.96359E+01 8.28034E+00 1.39928E+00 5.35578E-01 5.19917E-13-8.11212E-13
 -1      1738 4.90679E+01 7.84879E+00 1.48437E+00-3.40890E+00 5.65437E-13-9.19154E-13
 -1      1739 4.19852E+01 6.49209E+00 1.14295E+00-6.82656E+00 4.23502E-13-1.13443E-12
 -1      1740 3.19064E+01 4.10992E+00 6.88782E-01-8.86896E+00 5.75984E-13-1.08802E-12
 -1      1741 2.06456E+01 5.02054E-01 4.24690E-02-8.55659E+00 6.20393E-13-8.05467E-13
 -1      1742 1.14033E+01-4.58501E+00-5.46473E-01-7.06742E+00 4.90497E-13-4.79866E-13
 -1      1743 4.02608E+00-8.46761E+00-7.95837E-01-5.29659E+00 2.62235E-13-6.18616E-13
 -1      1744-9.39427E-01-1.22008E+01-1.29700E+00-2.60565E+00 4.80171E-14-4.64184E-13
 -1      1745-1.86386E+00-1.32597E+01-1.45610E+00-8.74176E-01-1.54911E-13-1.71640E-13
 -1      1746 8.10901E-01-1.20860E+01-1.48251E+00 1.02972E+00-2.19824E-13-7.54952E-15
 -1      1747 7.72229E+00-8.76751E+00-1.24482E+00 3.34226E+00-1.83853E-13-2.31815E-13
 -1      1748 1.91754E+01-4.88969E+00-7.07044E-01 5.20171E+00-2.41585E-13 8.42659E-14
 -1      1749 3.44893E+01-1.21074E+00 3.37550E-01 4.84600E+00-1.97065E-13 1.50768E-13
 -1      1750 4.81076E+01 2.83886E+00 1.48803E+00 2.52685E+00 1.43593E-13-2.70894E-14
 -1      1751 5.68158E+01 6.91773E+00 2.64550E+00 9.12012E-01 1.49325E-13 1.70974E-13
 -1      1752 5.78675E+01 8.15628E+00 2.83236E+00-1.22470E-01 1.66867E-13 2.73670E-14
 -1      1753 5.31029E+01 5.06415E+00 2.16487E+00-2.36278E+00 2.58682E-14-2.36033E-13
 -1      1754 4.14654E+01 8.49944E-01 9.12816E-01-4.21530E+00 4.42979E-14-2.63345E-13
 -1      1755 2.63773E+01-2.98204E+00-2.61196E-01-5.52781E+00-1.72085E-13-1.17573E-13
 -1      1756 1.30703E+01-7.03159E+00-9.97347E-01-4.46976E+00-4.02900E-13-1.10467E-14
 -1      1757 3.77395E+00-1.04914E+01-1.29080E+00-2.42130E+00-2.04059E-13 2.77861E-13
 -1      1758-1.20354E+00-1.32419E+01-1.51711E+00 6.81283E-02-5.49560E-14 8.59313E-14
 -1      1759 3.48807E+01-2.44434E-01-2.05447E-01-5.69065E+00 3.24185E-14 1.88002E-13
 -1      1760 2.28544E+01 1.98460E+00-2.35863E-02-2.72196E+00-8.18581E-14 1.65007E-13
 -1      1761 1.98256E+01 3.71370E+00-3.54595E-02-2.15194E+00-6.29531E-14-1.56052E-13
 -1      1762 2.00576E+01 3.56257E+00-4.02377E-02-2.44423E+00-8.91127E-14-1.34510E-13
 -1      1763 2.03622E+01 3.18133E+00-4.57707E-02-2.58418E+00-9.37150E-14-9.68670E-14
 -1      1764 2.05812E+01 2.80945E+00-1.42509E-01-2.85250E+00-1.15560E-13-5.87447E-14
 -1      1765 2.04233E+01 2.69286E+00-4.23124E-03-2.22348E+00-9.77382E-14-1.05131E-13
 -1      1766 1.93572E+01 4.18980E+00-2.00559E-02-1.26937E+00-1.34788E-15-1.66875E-13
 -1      1767 1.94309E+01 4.15004E+00-1.68749E-02-1.49376E+00-1.20060E-14-1.72935E-13
 -1      1768 1.92607E+01 4.29618E+00-1.67527E-02-8.58646E-01 2.95402E-14-1.57260E-13
 -1      1769 1.93034E+01 4.27208E+00-1.42264E-02-1.06930E+00 1.02826E-14-1.63834E-13
 -1      1770 1.95292E+01 3.78469E+00-8.93356E-03-1.11814E+00 1.88629E-15-1.57391E-13
 -1      1771 1.92093E+01 4.35690E+00-1.47949E-02-4.66123E-01 5.34246E-14-1.45130E-13
 -1      1772 1.92312E+01 4.34395E+00-1.32937E-02-6.66272E-01 4.25007E-14-1.56382E-13
 -1      1773 1.94320E+01 3.90536E+00-9.13588E-03-7.32144E-01 3.97530E-14-1.47736E-13
 -1      1774 1.91899E+01 4.38269E+00-1.36680E-02-8.33431E-02 8.24457E-14-1.19639E-13
 -1      1775 1.91963E+01 4.37873E+00-1.32065E-02-2.78603E-01 7.17076E-14-1.37158E-13
 -1      1776 1.93818E+01 3.97013E+00-9.12377E-03-3.57635E-01 6.32572E-14-1.35614E-13
 -1      1777 1.91978E+01 4.37740E+00-1.31671E-02 2.97982E-01 9.62605E-14-8.86635E-14
 -1      1778 1.91903E+01 4.38189E+00-1.37493E-02 1.02573E-01 9.28690E-14-1.07336E-13
 -1      1779 1.93669E+01 3.98970E+00-9.11724E-03 1.07436E-02 9.31499E-14-1.07673E-13
 -1      1780 1.92349E+01 4.34002E+00-1.33214E-02 6.86308E-01 1.16117E-13-6.18255E-14
 -1      1781 1.92118E+01 4.35381E+00-1.49184E-02 4.85683E-01 1.02089E-13-7.78891E-14
 -1      1782 1.93842E+01 3.96692E+00-9.16122E-03 3.79272E-01 9.96888E-14-7.53009E-14
 -1      1783 1.93082E+01 4.26628E+00-1.43898E-02 1.08366E+00 1.33121E-13-2.89629E-14
 -1      1784 1.92649E+01 4.29087E+00-1.69801E-02 8.75818E-01 1.22009E-13-4.91239E-14
 -1      1785 1.94369E+01 3.89913E+00-9.17040E-03 7.50966E-01 1.29048E-13-4.48860E-14
 -1      1786 1.94392E+01 4.13865E+00-1.74038E-02 1.51358E+00 1.55748E-13 2.72039E-14
 -1      1787 1.93631E+01 4.18132E+00-2.05102E-02 1.28411E+00 1.41614E-13-8.76035E-16
 -1      1788 1.95363E+01 3.77467E+00-9.22481E-03 1.13443E+00 1.49959E-13-7.43156E-15
 -1      1789 1.96668E+01 3.92198E+00-2.53120E-02 1.97860E+00 1.71248E-13 9.94933E-14
 -1      1790 1.95351E+01 3.99884E+00-2.69119E-02 1.72133E+00 1.61055E-13 5.80890E-14
 -1      1791 1.97089E+01 3.56691E+00-8.82829E-03 1.53426E+00 1.61550E-13 5.39811E-14
 -1      1792 2.00783E+01 3.52252E+00-4.42931E-02 2.47495E+00 1.75485E-13 2.11171E-13
 -1      1793 1.98411E+01 3.68408E+00-3.79492E-02 2.18004E+00 1.70105E-13 1.39395E-13
 -1      1794 2.00031E+01 3.22223E+00-6.25111E-03 1.93056E+00 1.73483E-13 1.31863E-13
 -1      1795 2.09165E+01 2.66938E+00-6.21007E-02 2.85440E+00 1.45880E-13 3.72619E-13
 -1      1796 2.04112E+01 3.10019E+00-4.96516E-02 2.61237E+00 1.59235E-13 2.79068E-13
 -1      1797 2.04973E+01 2.60888E+00-6.81243E-04 2.23746E+00 1.67659E-13 2.40533E-13
 -1      1798 2.17257E+01 1.21137E+00-1.23359E-01 2.32801E+00 1.01412E-13 5.50393E-13
 -1      1799 2.12742E+01 2.27227E+00 3.30169E-03 2.74080E+00 1.22662E-13 4.33459E-13
 -1      1800 2.09564E+01 1.68901E+00-1.37098E-02 2.14454E+00 1.44249E-13 3.59601E-13
 -1      1801 2.09560E+01 7.78664E-01-6.06024E-02 1.52287E+00 1.02710E-13 5.12422E-13
 -1      1802 2.17937E+01 2.45788E+00 9.09023E-02-3.04753E+00-1.04208E-13 2.75752E-14
 -1      1803 2.01167E+01 2.99671E-01-4.92522E-03 6.62087E-01 7.53703E-14 4.45744E-13
 -1      1804 2.06470E+01 4.38395E-01-1.42908E-02 1.03250E+00 8.32806E-14 4.71842E-13
 -1      1805 2.07454E+01 8.47109E-01 5.40935E-03 1.40793E+00 9.53994E-14 3.79642E-13
 -1      1806 2.15047E+01 1.74218E+00 7.94249E-02-2.33645E+00-1.13333E-13-3.40006E-15
 -1      1807 2.05188E+01 5.00691E-01 3.24123E-02-9.20986E-01-8.64274E-14-2.38408E-14
 -1      1808 2.00874E+01 3.52267E-01 7.59488E-03-6.29043E-01-6.24119E-14-4.64585E-14
 -1      1809 1.98934E+01 2.57641E-01 2.74386E-02-3.90284E-01-6.51146E-14-4.12803E-14
 -1      1810 1.97030E+01 1.78316E-01 1.04579E-02-2.52301E-01-6.88121E-14-5.06635E-14
 -1      1811 2.01983E+01 4.83741E-01-5.99063E-03-7.21492E-01-8.28998E-14-6.71364E-14
 -1      1812 1.95816E+01 1.33029E-01 1.66719E-02-1.18586E-01-5.80191E-14-4.49918E-14
 -1      1813 1.95041E+01 9.35541E-02 7.01244E-03-4.75483E-02-3.21384E-14-4.58938E-14
 -1      1814 1.98736E+01 2.44340E-01-5.78169E-03-2.93850E-01-7.05460E-14-4.50213E-14
 -1      1815 1.94401E+01 6.90587E-02 8.70399E-03 2.64901E-02-2.58274E-14-4.19270E-14
 -1      1816 1.94267E+01 4.75659E-02 4.17589E-03 6.31234E-02-1.05835E-14-5.55354E-14
 -1      1817 1.96923E+01 1.26057E-01-4.70674E-03-5.62791E-02-3.92212E-14-4.81364E-14
 -1      1818 1.94019E+01 3.33963E-02 4.28100E-03 1.02633E-01-2.32961E-14-6.12052E-14
 -1      1819 1.94234E+01 2.12010E-02 2.54236E-03 1.20088E-01-3.41815E-14-5.58492E-14
 -1      1820 1.96080E+01 6.23453E-02-3.52464E-03 7.48549E-02-2.29599E-14-4.58911E-14
 -1      1821 1.94236E+01 1.28181E-02 1.92060E-03 1.39170E-01-4.26240E-14-4.32803E-14
 -1      1822 1.94631E+01 6.01170E-03 1.61685E-03 1.45619E-01-1.83254E-14-6.35993E-14
 -1      1823 1.95870E+01 2.61373E-02-2.42201E-03 1.43480E-01-3.54373E-14-1.82942E-14
 -1      1824 1.94784E+01 1.19469E-03 6.47731E-04 1.52731E-01-3.33508E-14-7.33529E-14
 -1      1825 1.95264E+01-2.23556E-03 1.08598E-03 1.53044E-01-3.99770E-14-7.12982E-14
 -1      1826 1.96052E+01 5.65193E-03-1.55403E-03 1.75083E-01-3.49484E-14-3.09323E-14
 -1      1827 1.95503E+01-4.67625E-03-3.64701E-05 1.53565E-01-5.45915E-14-8.12244E-14
 -1      1828 1.96013E+01-5.82269E-03 8.11466E-04 1.50914E-01-5.77752E-14-1.08132E-13
 -1      1829 1.96465E+01-5.06538E-03-9.51469E-04 1.85310E-01-4.51400E-14-8.19129E-14
 -1      1830 1.96300E+01-6.55416E-03-3.73145E-04 1.48516E-01-6.73014E-14-1.41539E-13
 -1      1831 1.96815E+01-6.00436E-03 7.40079E-04 1.45149E-01-4.31077E-14-1.62649E-13
 -1      1832 1.97008E+01-9.18547E-03-5.76112E-04 1.84443E-01-8.78511E-14-1.28932E-13
 -1      1833 1.97129E+01-5.37842E-03-4.87210E-04 1.42554E-01-2.84951E-14-1.59786E-13
 -1      1834 1.97643E+01-3.38217E-03 8.61194E-04 1.40246E-01-1.90883E-14-1.75351E-13
 -1      1835 1.97622E+01-8.40029E-03-3.77263E-04 1.79756E-01-4.35269E-14-8.10727E-14
 -1      1836 1.97978E+01-1.50933E-03-4.49692E-04 1.39724E-01 2.15381E-14-1.81188E-13
 -1      1837 1.98503E+01 1.97387E-03 1.19637E-03 1.40115E-01 2.79179E-14-1.42917E-13
 -1      1838 1.98281E+01-3.43596E-03-3.12749E-04 1.76917E-01 1.14026E-14-9.99812E-14
 -1      1839 1.98861E+01 5.21865E-03-3.03220E-04 1.43892E-01 5.70829E-14-1.16217E-13
 -1      1840 1.99426E+01 1.05442E-02 1.80254E-03 1.48807E-01 6.90774E-14-5.79524E-14
 -1      1841 1.98983E+01 5.79967E-03-3.50591E-04 1.80996E-01 5.42373E-14-6.22947E-14
 -1      1842 1.99821E+01 1.55654E-02-7.47024E-05 1.59482E-01 1.20686E-14-3.39614E-14
 -1      1843 2.00472E+01 2.34896E-02 2.78191E-03 1.71310E-01-2.09265E-14 5.87045E-14
 -1      1844 1.99746E+01 2.02803E-02-4.64240E-04 1.97381E-01 5.36290E-14 2.84120E-14
 -1      1845 2.00926E+01 3.11049E-02 2.27962E-04 1.92373E-01-4.01011E-14 8.24545E-14
 -1      1846 2.01737E+01 4.29949E-02 4.42398E-03 2.14492E-01-1.14594E-14 8.66390E-14
 -1      1847 2.00607E+01 4.21017E-02-6.28492E-04 2.32760E-01 2.95033E-14 9.77512E-14
 -1      1848 2.02308E+01 5.51344E-02 5.37309E-04 2.52956E-01-2.41814E-14 8.20046E-14
 -1      1849 2.03440E+01 7.41784E-02 6.81350E-03 2.93452E-01 1.22393E-14 8.43644E-14
 -1      1850 2.01648E+01 7.56540E-02-9.38029E-04 2.98568E-01-1.46118E-14 2.06486E-13
 -1      1851 2.04106E+01 9.18340E-02 9.06228E-04 3.53897E-01-9.16194E-15 8.77677E-14
 -1      1852 2.05619E+01 1.19300E-01 1.01264E-02 4.16698E-01 1.43809E-15 9.74320E-14
 -1      1853 2.02923E+01 1.27497E-01-8.61291E-04 4.08198E-01-3.01712E-15 1.86995E-13
 -1      1854 2.06438E+01 1.46093E-01 9.88189E-04 5.11165E-01 1.33049E-14 4.61753E-14
 -1      1855 2.08598E+01 1.87600E-01 1.49148E-02 6.09870E-01 1.53558E-14 7.36145E-14
 -1      1856 2.04471E+01 2.04184E-01-6.22159E-04 5.77891E-01-3.29355E-14 1.35211E-13
 -1      1857 2.09587E+01 2.27322E-01 5.61330E-04 7.53669E-01 4.21434E-14-9.77300E-15
 -1      1858 2.12698E+01 2.87963E-01 2.10418E-02 9.05128E-01 7.03448E-14 6.58067E-15
 -1      1859 2.06392E+01 3.18802E-01 9.40416E-05 8.37278E-01 2.04684E-14 1.16552E-13
 -1      1860 2.13839E+01 3.44385E-01-1.10095E-03 1.11806E+00 2.85249E-14-2.18098E-14
 -1      1861 2.18290E+01 4.27464E-01 2.78175E-02 1.34277E+00 1.66100E-14-2.61112E-14
 -1      1862 2.08719E+01 4.84614E-01 1.60002E-03 1.22287E+00 5.47999E-15 1.07850E-13
 -1      1863 2.19516E+01 4.99824E-01-4.83226E-03 1.64632E+00 3.10862E-14-1.13291E-13
 -1      1864 2.25747E+01 5.97707E-01 3.33502E-02 1.96089E+00 6.82839E-14-1.51269E-13
 -1      1865 2.11406E+01 7.07255E-01 4.13074E-03 1.77654E+00-2.42367E-14 5.62411E-14
 -1      1866 2.26976E+01 6.68100E-01-9.93306E-03 2.36757E+00 1.04253E-13-2.07252E-13
 -1      1867 2.35359E+01 7.38063E-01 3.48862E-02 2.75995E+00 1.20601E-13-9.44956E-14
 -1      1868 2.14306E+01 9.57447E-01 7.59668E-03 2.53094E+00 6.48101E-14-6.66299E-14
 -1      1869 2.36784E+01 7.40321E-01-8.71796E-03 3.24501E+00 9.79859E-14-1.13958E-13
 -1      1870 2.47389E+01 6.54747E-01 3.19491E-02 3.61389E+00 9.25731E-14-8.17055E-14
 -1      1871 2.17336E+01 1.10209E+00 1.07848E-02 3.47163E+00 1.39600E-13-5.81592E-14
 -1      1872 2.50403E+01 4.17223E-01 2.32456E-02 4.04308E+00 1.03827E-13-4.95628E-14
 -1      1873 2.62681E+01-6.27102E-02 3.77259E-02 4.09467E+00 6.24674E-14 9.87578E-15
 -1      1874 2.21345E+01 7.60962E-01 8.06465E-03 4.45264E+00 1.49800E-13-1.07225E-13
 -1      1875 2.69978E+01-7.61344E-01 9.59542E-02 4.15395E+00 6.07431E-14 1.18860E-13
 -1      1876 2.81315E+01-1.74928E+00 2.70629E-02 3.51383E+00 7.64389E-14 7.07958E-14
 -1      1877 2.29746E+01-5.52696E-01 1.97429E-02 5.03961E+00 1.04472E-13 1.00395E-13
 -1      1878 1.31370E-01-7.49711E+00-3.34458E-01 2.72126E+00-1.67921E-14 9.40914E-14
 -1      1879-3.59155E-01-8.06020E+00-4.09460E-01 1.29809E+00-8.97823E-14-8.67084E-14
 -1      1880 4.31628E+01 5.15516E+00 3.74583E-01 8.56717E-01 1.41553E-13-3.88578E-16
 -1      1881 4.31727E+01 3.44534E+00 3.91697E-01 3.04231E+00 1.53433E-13 1.66089E-13
 -1      1882 3.50425E+01-3.06661E+00-5.38836E-02 2.96610E+00-8.52443E-14 1.07553E-14
 -1      1883 3.46176E+01-3.41835E+00 1.20842E-01 7.92097E-01-2.54949E-13-1.00253E-13
 -1      1884 3.16992E+01-2.74399E+00 1.80091E-02-1.28458E+00-2.66953E-13-1.05818E-14
 -1      1885 3.07201E+01-1.71253E+00 1.53670E-01-2.74472E+00 1.61954E-14 5.06227E-14
 -1      1886 2.91445E+01-8.25028E-01 2.50032E-02-3.39279E+00 9.70959E-14-3.61933E-14
 -1      1887 2.78304E+01-1.20359E-01 7.56513E-02-3.74604E+00 1.52510E-13 2.53270E-15
 -1      1888 2.64775E+01-1.82065E+00 2.29166E-02-4.15076E+00 4.53804E-14 5.80647E-14
 -1      1889 2.70013E+01 2.26669E-01 1.39661E-02-3.60845E+00 1.42608E-13-2.01939E-13
 -1      1890 2.56631E+01 4.91743E-01 5.15219E-03-3.38939E+00 7.93933E-14-2.14846E-13
 -1      1891 2.44290E+01-4.56896E-02-5.76689E-03-4.57583E+00 9.32934E-14-3.11034E-13
 -1      1892 2.52119E+01 5.47195E-01 2.43091E-02-2.94345E+00 1.07744E-13-2.13315E-13
 -1      1893 2.40817E+01 5.57380E-01-9.94078E-03-2.58480E+00 1.10681E-13-1.00231E-13
 -1      1894 2.32920E+01 7.77239E-01 4.82347E-03-3.85111E+00 9.17672E-14-3.91343E-13
 -1      1895 2.37521E+01 5.11064E-01 2.72763E-02-2.14739E+00 5.56465E-14-2.68986E-14
 -1      1896 2.28973E+01 4.49289E-01-6.44344E-03-1.82581E+00 3.39225E-14 8.34736E-14
 -1      1897 2.25146E+01 8.26978E-01 2.15545E-03-2.90114E+00 1.72446E-13-3.07631E-13
 -1      1898 2.26341E+01 3.87253E-01 2.63378E-02-1.47842E+00-5.76501E-14 1.88767E-13
 -1      1899 2.20248E+01 3.19763E-01-1.56646E-03-1.23841E+00-7.59011E-14 2.69677E-13
 -1      1900 2.18923E+01 6.56259E-01 7.56589E-04-2.05325E+00 3.08486E-14-1.40431E-13
 -1      1901 2.18155E+01 2.68481E-01 2.17696E-02-9.88342E-01-1.11563E-13 6.48676E-14
 -1      1902 2.13966E+01 2.14871E-01 9.66737E-04-8.22994E-01-7.50866E-14-1.06148E-13
 -1      1903 2.13935E+01 4.63905E-01-1.86938E-04-1.40366E+00-1.42598E-13-1.90805E-13
 -1      1904 2.12352E+01 1.78411E-01 1.62616E-02-6.51707E-01 5.92304E-14-2.43276E-13
 -1      1905 2.09527E+01 1.40501E-01 1.75805E-03-5.42092E-01 3.59391E-14-2.11355E-13
 -1      1906 2.10053E+01 3.10573E-01-8.97974E-04-9.42159E-01-1.49062E-13-4.57777E-13
 -1      1907 2.08319E+01 1.16205E-01 1.14313E-02-4.27764E-01-2.48638E-14-2.05297E-13
 -1      1908 2.06432E+01 9.07935E-02 1.73769E-03-3.56389E-01-1.50063E-13-2.68595E-13
 -1      1909 2.07126E+01 2.02525E-01-1.26192E-03-6.27128E-01-1.03749E-14-5.33836E-13
 -1      1910 2.05547E+01 7.50988E-02 7.76209E-03-2.81025E-01-2.33646E-13-4.24361E-14
 -1      1911 2.04291E+01 5.85244E-02 1.45349E-03-2.34841E-01-1.69898E-13-1.01124E-13
 -1      1912 2.04974E+01 1.30570E-01-1.32434E-03-4.16569E-01-1.17188E-13-4.68611E-13
 -1      1913 2.03651E+01 4.85496E-02 5.17804E-03-1.85337E-01 8.40040E-15 7.11616E-14
 -1      1914 2.02814E+01 3.79144E-02 1.14192E-03-1.55394E-01 1.99739E-13 6.41684E-14
 -1      1915 2.03416E+01 8.40062E-02-1.20453E-03-2.77174E-01-9.93021E-15-9.89423E-14
 -1      1916 2.02356E+01 3.16519E-02 3.42961E-03-1.22737E-01 2.26977E-13-6.08543E-14
 -1      1917 2.01798E+01 2.49346E-02 8.83192E-04-1.03107E-01 2.39824E-13-1.51921E-13
 -1      1918 2.02300E+01 5.43783E-02-1.01074E-03-1.84982E-01 2.03580E-13-2.00837E-13
 -1      1919 2.01473E+01 2.10805E-02 2.26785E-03-8.12419E-02 3.78207E-13-8.86114E-14
 -1      1920 2.01103E+01 1.69509E-02 6.88788E-04-6.80311E-02 1.62106E-13 1.78117E-13
 -1      1921 2.01508E+01 3.58305E-02-8.08789E-04-1.23527E-01 3.19800E-13-2.73792E-13
 -1      1922 2.00873E+01 1.46756E-02 1.48682E-03-5.29182E-02 8.56802E-15 1.62669E-13
 -1      1923 2.00632E+01 1.22759E-02 5.41276E-04-4.35611E-02-1.29281E-14 1.13262E-13
 -1      1924 2.00949E+01 2.45429E-02-6.30689E-04-8.16982E-02 2.07488E-13-1.68216E-13
 -1      1925 2.00472E+01 1.10534E-02 9.46188E-04-3.25188E-02-7.66651E-14 8.54146E-14
 -1      1926 2.00324E+01 9.72458E-03 4.24916E-04-2.53623E-02-1.41299E-13 1.21019E-13
 -1      1927 2.00559E+01 1.81118E-02-4.52099E-04-5.20712E-02-7.68067E-14 8.12286E-14
 -1      1928 2.00214E+01 8.96999E-03 5.75372E-04-1.67362E-02-2.29977E-13-9.03227E-14
 -1      1929 2.00133E+01 7.94524E-03 3.70894E-04-1.11642E-02-2.03310E-13 6.83407E-14
 -1      1930 2.00290E+01 1.43367E-02-3.65905E-04-2.97679E-02-3.18817E-13-2.35368E-14
 -1      1931 2.00056E+01 6.57042E-03 2.85619E-04-4.87317E-03-1.34385E-13 3.61396E-14
 -1      1932 1.95130E+01 1.12925E-01 9.67529E-03 1.25843E-01 4.04650E-14 3.61383E-13
 -1      1933 1.96281E+01 1.59333E-01 1.71613E-02 2.19853E-01 4.07721E-14 3.87725E-13
 -1      1934 1.93848E+01 5.82611E-02 6.17019E-03-1.61168E-02 2.68236E-14 3.19222E-13
 -1      1935 1.94197E+01 8.30581E-02 1.20030E-02 3.09528E-02 3.58914E-14 3.41017E-13
 -1      1936 1.97162E+01 1.54997E-01-4.70121E-03 1.51813E-01 6.82380E-14 2.73618E-13
 -1      1937 1.93556E+01 2.84414E-02 3.75065E-03-9.16430E-02 3.01538E-14 2.82835E-13
 -1      1938 1.93427E+01 4.22667E-02 6.27758E-03-6.79526E-02 3.82563E-14 2.93207E-13
 -1      1939 1.95839E+01 7.83801E-02-4.11420E-03-2.03404E-02 5.07576E-14 2.32350E-13
 -1      1940 1.93851E+01 1.12024E-02 2.33817E-03-1.28269E-01 1.71328E-14 2.68333E-13
 -1      1941 1.93469E+01 1.90631E-02 3.01425E-03-1.17704E-01 9.21485E-15 2.59155E-13
 -1      1942 1.95379E+01 3.62037E-02-2.95183E-03-1.12840E-01 3.44129E-14 1.95358E-13
 -1      1943 1.94469E+01 1.28609E-03 1.49413E-03-1.42122E-01 1.90700E-14 2.49060E-13
 -1      1944 1.93967E+01 5.64348E-03 1.25068E-03-1.39139E-01 1.35352E-14 2.63158E-13
 -1      1945 1.95444E+01 1.22281E-02-1.94233E-03-1.58377E-01 9.07220E-15 1.68735E-13
 -1      1946 1.95244E+01-4.11796E-03 9.60175E-04-1.42881E-01 2.19488E-14 2.17764E-13
 -1      1947 1.94699E+01-1.91549E-03 2.81551E-04-1.44153E-01 1.04304E-14 2.46188E-13
 -1      1948 1.95817E+01-1.26447E-03-1.18456E-03-1.76105E-01 1.59936E-14 1.47648E-13
 -1      1949 1.96077E+01-6.68686E-03 6.10018E-04-1.36577E-01 4.32679E-14 2.39522E-13
 -1      1950 1.95533E+01-5.81517E-03-2.50497E-04-1.40023E-01 5.40299E-14 2.34553E-13
 -1      1951 1.96357E+01-8.35580E-03-6.63232E-04-1.77718E-01 1.94720E-14 1.56731E-13
 -1      1952 1.96907E+01-7.55212E-03 3.69359E-04-1.26964E-01 4.50667E-14 2.10288E-13
 -1      1953 1.96389E+01-7.44533E-03-5.27893E-04-1.31307E-01 3.07083E-14 2.25394E-13
 -1      1954 1.96974E+01-1.14983E-02-3.24786E-04-1.70566E-01 4.07296E-14 1.62275E-13
 -1      1955 1.97703E+01-7.58047E-03 1.81790E-04-1.16191E-01 5.69416E-14 2.12841E-13
 -1      1956 1.97221E+01-7.79692E-03-6.55020E-04-1.20743E-01 6.54827E-14 2.12157E-13
 -1      1957 1.97613E+01-1.23634E-02-1.14270E-04-1.59193E-01 6.05603E-14 2.22631E-13
 -1      1958 1.98446E+01-7.52880E-03-4.45427E-06-1.05130E-01 4.43025E-14 9.69515E-14
 -1      1959 1.98008E+01-7.67448E-03-6.99585E-04-1.09700E-01 5.51713E-14 1.49853E-13
 -1      1960 1.98242E+01-1.22554E-02 1.52336E-05-1.46109E-01 9.75968E-14 1.66253E-13
 -1      1961 1.99123E+01-8.13911E-03-2.41588E-04-9.34967E-02 3.63278E-14 1.06185E-13
 -1      1962 1.98733E+01-7.82013E-03-7.09978E-04-9.83630E-02 2.50808E-14 1.05404E-13
 -1      1963 1.98841E+01-1.23384E-02 1.03232E-04-1.32171E-01 2.89517E-14 4.14678E-14
 -1      1964 1.99717E+01-1.01909E-02-5.82949E-04-7.98587E-02 7.32476E-15 1.90266E-13
 -1      1965 1.99386E+01-8.98918E-03-7.22892E-04-8.57848E-02 6.30969E-14 1.76081E-13
 -1      1966 1.99397E+01-1.37705E-02 1.84859E-04-1.16713E-01-1.82496E-14 7.25140E-14
 -1      1967 2.00200E+01-1.45011E-02-1.07900E-03-6.15950E-02 5.42284E-14 5.87464E-14
 -1      1968 1.99946E+01-1.19805E-02-7.66570E-04-6.98541E-02 2.41603E-14 1.54895E-13
 -1      1969 1.99895E+01-1.77647E-02 2.93647E-04-9.75619E-02 5.63485E-14 7.62022E-14
 -1      1970 2.00523E+01-2.18418E-02-1.76688E-03-3.49083E-02 4.05021E-14 1.33425E-13
 -1      1971 2.00379E+01-1.76023E-02-8.61403E-04-4.72708E-02 4.78143E-14 9.03511E-14
 -1      1972 2.00310E+01-2.55560E-02 4.63178E-04-7.10142E-02 2.25562E-14 2.87616E-14
 -1      1973 2.00613E+01-3.27348E-02-2.65187E-03 4.96536E-03 1.19412E-13 1.25788E-13
 -1      1974 2.00630E+01-2.65378E-02-1.01851E-03-1.36488E-02 7.39712E-14 1.23308E-13
 -1      1975 2.00604E+01-3.82248E-02 7.26932E-04-3.19300E-02 6.82632E-14 1.12916E-13
 -1      1976 2.00368E+01-4.70836E-02-3.68099E-03 6.31446E-02 8.25165E-15 1.00758E-13
 -1      1977 2.00613E+01-3.90661E-02-1.23680E-03 3.60743E-02 1.10590E-13 1.16563E-13
 -1      1978 2.00719E+01-5.63127E-02 1.11480E-03 2.58636E-02 7.57569E-14 3.00069E-14
 -1      1979 1.99659E+01-6.36450E-02-4.71405E-03 1.43854E-01 1.08932E-14 1.10733E-13
 -1      1980 2.00214E+01-5.46140E-02-1.49884E-03 1.06692E-01-2.17636E-14 1.16954E-13
 -1      1981 2.00572E+01-7.91890E-02 1.64361E-03 1.08586E-01 9.43256E-18 9.35207E-14
 -1      1982 1.98342E+01-7.94461E-02-5.50499E-03 2.48374E-01-3.95827E-14 1.08377E-13
 -1      1983 1.99291E+01-7.11800E-02-1.76607E-03 2.01036E-01 4.89040E-15 1.26554E-13
 -1      1984 2.00056E+01-1.04215E-01 2.29858E-03 2.20654E-01-2.20486E-14 1.07045E-13
 -1      1985 1.96289E+01-8.94328E-02-5.71724E-03 3.72270E-01-2.80641E-14 1.70305E-13
 -1      1986 1.97699E+01-8.48115E-02-1.97192E-03 3.17475E-01-8.89306E-15 1.40616E-13
 -1      1987 1.99049E+01-1.25943E-01 3.00429E-03 3.61833E-01-2.45546E-14 1.95376E-13
 -1      1988 1.93424E+01-8.68527E-02-5.00096E-03 5.02568E-01-1.02915E-13 2.16922E-13
 -1      1989 1.95315E+01-8.95308E-02-2.01639E-03 4.46984E-01-4.77153E-14 2.14909E-13
 -1      1990 1.97431E+01-1.35886E-01 3.58838E-03 5.23642E-01-5.88392E-14 2.03431E-13
 -1      1991 1.89788E+01-6.49473E-02-3.14221E-03 6.16266E-01-1.99339E-13 2.40055E-13
 -1      1992 1.92098E+01-7.82779E-02-1.75740E-03 5.70849E-01-1.46563E-13 2.16608E-13
 -1      1993 1.95123E+01-1.23669E-01 3.75477E-03 6.86071E-01-1.48227E-13 2.36858E-13
 -1      1994 1.85587E+01-2.01582E-02-2.50059E-04 6.82303E-01 1.31299E-13 1.82743E-13
 -1      1995 1.88150E+01-4.53612E-02-1.01662E-03 6.60886E-01-8.66623E-14 1.56862E-13
 -1      1996 1.92141E+01-8.02850E-02 3.12164E-03 8.16644E-01-9.09197E-14 1.83311E-13
 -1      1997 1.81233E+01 4.40681E-02 3.13658E-03 6.68725E-01 2.00408E-13 1.41690E-13
 -1      1998 1.83774E+01 9.82432E-03 3.71146E-04 6.84299E-01 2.18627E-13 2.18440E-13
 -1      1999 1.88658E+01-3.27172E-03 1.37217E-03 8.74549E-01 1.12138E-13 2.66869E-13
 -1      2000 1.77312E+01 1.15209E-01 6.15110E-03 5.54580E-01 5.93987E-14 2.37442E-13
 -1      2001 1.79480E+01 7.94655E-02 2.45745E-03 6.13893E-01 1.06513E-13 1.56120E-13
 -1      2002 1.85043E+01 9.82126E-02-1.46825E-03 8.21601E-01 1.60058E-13 2.66176E-13
 -1      2003 1.74475E+01 1.73943E-01 7.92667E-03 3.42262E-01-2.29382E-14 2.65200E-13
 -1      2004 1.75922E+01 1.47088E-01 4.99414E-03 4.41026E-01 3.72055E-14 3.10601E-13
 -1      2005 1.81841E+01 2.02191E-01-4.78919E-03 6.38281E-01 7.61110E-15 3.32473E-13
 -1      2006 1.73269E+01 2.01355E-01 8.02687E-03 6.31821E-02 4.31695E-14 2.20139E-13
 -1      2007 1.73737E+01 1.92423E-01 7.37596E-03 1.84977E-01-4.39839E-15 2.32113E-13
 -1      2008 1.79655E+01 2.79376E-01-7.50998E-03 3.38063E-01 9.11987E-15 3.22046E-13
 -1      2009 1.73951E+01 1.87862E-01 6.66438E-03-2.28790E-01-2.24439E-14 1.41640E-13
 -1      2010 1.73353E+01 2.00067E-01 8.77320E-03-1.08194E-01 4.53639E-14 2.33098E-13
 -1      2011 1.78957E+01 3.04858E-01-8.51025E-03-2.92743E-02 2.83783E-14 2.47384E-13
 -1      2012 1.76391E+01 1.38316E-01 4.51978E-03-4.75171E-01-1.67063E-14 1.19127E-13
 -1      2013 1.74838E+01 1.67301E-01 8.50437E-03-3.79461E-01-6.47299E-14 8.73546E-14
 -1      2014 1.79907E+01 2.69854E-01-7.35963E-03-3.90723E-01 1.45287E-14 2.04803E-13
 -1      2015 1.80118E+01 6.94507E-02 2.34093E-03-6.33299E-01-1.63746E-13 3.82125E-14
 -1      2016 1.77883E+01 1.05599E-01 6.45591E-03-5.77558E-01-6.49715E-14 1.79732E-13
 -1      2017 1.82289E+01 1.86276E-01-4.61087E-03-6.75359E-01-6.79016E-14 1.57285E-13
 -1      2018 1.84478E+01 1.49429E-03 6.12897E-04-6.88521E-01 3.45236E-14 1.34610E-14
 -1      2019 1.81913E+01 3.46073E-02 3.19382E-03-6.75590E-01-5.38375E-14-2.54766E-14
 -1      2020 1.85599E+01 8.07500E-02-1.39643E-03-8.38622E-01-6.12338E-14 4.08618E-14
 -1      2021 1.88831E+01-5.02542E-02-5.17865E-04-6.53324E-01 1.40212E-14 9.10192E-14
 -1      2022 1.86280E+01-2.70003E-02-3.31656E-04-6.75562E-01 5.89034E-14 2.22209E-14
 -1      2023 1.89232E+01-1.78430E-02 1.24544E-03-8.72954E-01 1.24887E-14 7.11152E-14
 -1      2024 1.92699E+01-7.94094E-02-1.12240E-03-5.56793E-01 1.22838E-13 2.06119E-13
 -1      2025 1.90423E+01-6.80920E-02-3.23808E-03-6.01084E-01 3.09212E-14 1.77008E-13
 -1      2026 1.92669E+01-8.93652E-02 2.81530E-03-8.02077E-01-1.11108E-14 1.20245E-14
 -1      2027 1.95817E+01-8.75686E-02-1.34879E-03-4.31727E-01 1.11843E-13 2.60647E-13
 -1      2028 1.93969E+01-8.65008E-02-5.03031E-03-4.84669E-01 3.12104E-13 3.21250E-13
 -1      2029 1.95573E+01-1.26796E-01 3.34906E-03-6.65694E-01 1.62382E-13 2.56950E-13
 -1      2030 1.98116E+01-8.07750E-02-1.33493E-03-3.05205E-01-2.03869E-13 1.46093E-13
 -1      2031 1.96740E+01-8.64730E-02-5.65556E-03-3.56463E-01-4.58923E-14 2.03454E-13
 -1      2032 1.97803E+01-1.34039E-01 3.16362E-03-5.03970E-01 4.23188E-14 4.23360E-13
 -1      2033 1.99659E+01-6.59742E-02-1.18350E-03-1.94565E-01-4.71441E-14-6.79415E-14
 -1      2034 1.98725E+01-7.48742E-02-5.36465E-03-2.37995E-01-2.10209E-13-4.67057E-14
 -1      2035 1.99365E+01-1.20628E-01 2.61147E-03-3.47702E-01-6.91489E-14 2.34892E-13
 -1      2036 2.00580E+01-4.88159E-02-9.65089E-04-1.07705E-01 8.05317E-14-4.49074E-14
 -1      2037 2.00014E+01-5.82178E-02-4.52193E-03-1.40897E-01 2.82396E-14-8.64348E-14
 -1      2038 2.00352E+01-9.67855E-02 1.95556E-03-2.15153E-01 3.11602E-14-2.96144E-15
 -1      2039 2.01036E+01-3.29005E-02-7.27716E-04-4.55890E-02-5.28745E-14-1.28483E-13
 -1      2040 2.00748E+01-4.12030E-02-3.46237E-03-6.87056E-02 9.81422E-14-6.70291E-14
 -1      2041 2.00891E+01-7.05278E-02 1.34629E-03-1.13512E-01 1.19826E-13 2.95642E-14
 -1      2042 2.01172E+01-1.99550E-02-5.02107E-04-5.16494E-03-9.02439E-14-1.37417E-13
 -1      2043 2.01077E+01-2.64833E-02-2.42411E-03-1.97545E-02-1.12137E-13-2.27170E-13
 -1      2044 2.01109E+01-4.67896E-02 8.47828E-04-4.23411E-02-3.55296E-14-2.44701E-13
 -1      2045 2.01110E+01-1.03804E-02-3.04632E-04 1.82503E-02 7.57181E-14-2.39809E-13
 -1      2046 2.01135E+01-1.50782E-02-1.53979E-03 1.01692E-02-1.25930E-14-1.73123E-13
 -1      2047 2.01117E+01-2.78003E-02 4.73253E-04 2.92171E-03-3.51176E-14-2.38823E-13
 -1      2048 2.00940E+01-3.81820E-03-1.41141E-04 2.94123E-02 2.04093E-13-3.08281E-13
 -1      2049 2.01031E+01-6.95930E-03-8.58516E-04 2.59155E-02 2.12404E-13-2.38635E-13
 -1      2050 2.01000E+01-1.39270E-02 2.09752E-04 2.82754E-02 1.30318E-13-2.36764E-13
 -1      2051 2.00726E+01 4.18828E-04-1.01769E-05 3.23345E-02 1.34823E-13-2.16383E-13
 -1      2052 2.00843E+01-1.56629E-03-3.76474E-04 3.18665E-02 1.33236E-13-2.03998E-13
 -1      2053 2.00822E+01-4.50606E-03 3.48598E-05 3.94908E-02 1.86252E-13-1.29719E-13
 -1      2054 2.00511E+01 3.08341E-03 8.96058E-05 2.99872E-02-5.33839E-14-5.65116E-14
 -1      2055 2.00628E+01 1.84989E-03-6.59047E-05 3.14478E-02 7.90541E-14-1.10696E-13
 -1      2056 2.00626E+01 1.55822E-03-7.14848E-05 4.13017E-02 6.87033E-15-4.96048E-14
 -1      2057 2.00321E+01 4.81266E-03 1.55562E-04 2.43218E-02-1.54614E-13 8.88568E-14
 -1      2058 2.00422E+01 4.01809E-03 1.06529E-04 2.70318E-02-1.21533E-13-8.19785E-14
 -1      2059 2.00438E+01 5.38905E-03-1.31738E-04 3.71524E-02-1.37873E-13 2.36705E-14
 -1      2060 2.00170E+01 6.03277E-03 1.79160E-04 1.65367E-02-8.11635E-14 4.16961E-14
 -1      2061 2.00246E+01 5.47203E-03 1.58765E-04 2.01127E-02-1.72864E-13 1.38440E-13
 -1      2062 2.00273E+01 7.85098E-03-1.92817E-04 2.93863E-02-1.74425E-13 9.94063E-14
 -1      2063 2.00070E+01 5.82462E-03 1.71402E-04 8.52442E-03 7.96920E-14-1.47834E-13
 -1      2064 2.00120E+01 5.83588E-03 1.46917E-04 1.21317E-02 6.74558E-14 7.38978E-14
 -1      2065 2.00152E+01 8.86183E-03-9.36926E-05 1.99584E-02-9.98212E-14 2.04028E-13
 -1      2066 2.00066E+01 8.43642E-03 5.54338E-05 1.06839E-02 7.62836E-14 5.44813E-14
 -1      2067 2.00018E+01 4.78966E-02-1.01231E-06 2.76879E-02 2.71305E-13 4.00369E-14
 -1      2068 2.00030E+01 3.88602E-02 1.82862E-04 2.62037E-02 1.19147E-13 1.27774E-13
 -1      2069 2.00042E+01 3.10674E-02 7.22688E-05 2.35042E-02 9.77492E-14 3.14958E-14
 -1      2070 2.00053E+01 2.32536E-02 1.73088E-04 2.07825E-02 1.40269E-13-1.34497E-13
 -1      2071 2.00054E+01 3.44436E-02-1.28099E-04 3.20325E-02 7.03252E-14 1.28730E-13
 -1      2072 2.00063E+01 1.42559E-02 1.20743E-04 1.45387E-02 4.09501E-14 1.39395E-14
 -1      2073 1.99991E+01 6.56459E-02-1.25335E-04 2.86557E-02 2.23410E-14-3.62779E-13
 -1      2074 2.00005E+01 5.62911E-02 1.02445E-04 2.86567E-02 1.70659E-13-1.72919E-13
 -1      2075 2.00017E+01 5.05655E-02-8.19972E-05 3.60794E-02 1.68628E-13-1.06059E-13
 -1      2076 1.99962E+01 8.32096E-02-2.68377E-04 2.60320E-02-1.06976E-14-2.66121E-13
 -1      2077 1.99977E+01 7.43864E-02 1.47937E-05 2.76614E-02-1.18288E-13-4.85287E-14
 -1      2078 1.99977E+01 6.77047E-02 6.00431E-06 3.61133E-02 3.75173E-14-2.30230E-13
 -1      2079 1.99934E+01 9.81841E-02-3.98899E-04 1.96047E-02 1.74791E-13-3.67874E-13
 -1      2080 1.99948E+01 9.12756E-02-8.40066E-05 2.28914E-02 1.12635E-13-3.83879E-13
 -1      2081 1.99934E+01 8.45308E-02 1.19002E-04 3.15472E-02 1.43275E-14-1.66810E-13
 -1      2082 1.99910E+01 1.08374E-01-4.82107E-04 9.64319E-03-4.87894E-14 2.59243E-13
 -1      2083 1.99921E+01 1.04521E-01-1.88547E-04 1.43797E-02 1.18993E-14 6.20134E-15
 -1      2084 1.99893E+01 9.89604E-02 2.50898E-04 2.22120E-02 7.61997E-14-2.74586E-13
 -1      2085 1.99897E+01 1.11841E-01-4.86282E-04-2.85816E-03 1.89343E-13 1.09686E-13
 -1      2086 1.99902E+01 1.11882E-01-2.88749E-04 2.77855E-03 9.77878E-14 3.67648E-13
 -1      2087 1.99863E+01 1.08825E-01 3.77418E-04 8.63009E-03-2.95863E-14 5.14154E-13
 -1      2088 1.99902E+01 1.07401E-01-3.93532E-04-1.60564E-02 1.98868E-13 7.77424E-14
 -1      2089 1.99898E+01 1.11631E-01-3.64347E-04-1.04356E-02 1.52380E-13 1.06453E-14
 -1      2090 1.99851E+01 1.12133E-01 4.65014E-04-7.68470E-03 3.86359E-14 6.20503E-14
 -1      2091 1.99928E+01 9.53799E-02-2.06299E-04-2.72614E-02 3.02820E-13-3.40474E-13
 -1      2092 1.99912E+01 1.03172E-01-4.02056E-04-2.28794E-02 1.66293E-13-9.08274E-14
 -1      2093 1.99867E+01 1.07681E-01 4.89362E-04-2.40489E-02 1.64397E-13-1.26144E-14
 -1      2094 1.99974E+01 7.68711E-02 3.46199E-05-3.41710E-02 3.71735E-13 7.25196E-13
 -1      2095 1.99948E+01 8.72932E-02-3.79654E-04-3.20313E-02 1.62818E-13 2.33566E-13
 -1      2096 1.99913E+01 9.54241E-02 4.17036E-04-3.73460E-02 2.08433E-13-2.10046E-13
 -1      2097 2.00032E+01 5.48976E-02 2.52581E-04-3.44161E-02-6.92303E-14-3.00154E-13
 -1      2098 2.00001E+01 6.60308E-02-2.99001E-04-3.54152E-02 9.98409E-14 1.14891E-13
 -1      2099 1.99985E+01 7.65881E-02 2.63852E-04-4.44493E-02 8.88998E-14 3.07007E-13
 -1      2100 2.00084E+01 3.31305E-02 3.55535E-04-2.72699E-02-3.57756E-13-2.29371E-13
 -1      2101 2.00060E+01 4.30366E-02-1.45773E-04-3.15249E-02-2.84093E-13-3.35330E-13
 -1      2102 2.00069E+01 5.40181E-02 4.79774E-05-4.29386E-02-3.92713E-13-4.02675E-13
 -1      2103 1.97234E+01 1.78879E-01 1.26464E-02 3.26006E-01 5.80282E-14 4.13844E-13
 -1      2104 1.99777E+01 2.56322E-01 1.69919E-02 5.04274E-01 6.73142E-14 4.37136E-13
 -1      2105 2.01756E+01 4.15522E-01-4.07613E-04 7.31132E-01 7.42895E-14 3.40511E-13
 -1      2106 1.99066E+01 2.64279E-01-3.79741E-03 4.01482E-01 6.34119E-14 3.03341E-13
 -1      2107 1.21877E+01-4.52054E+00-7.39020E-02 7.92951E+00 1.35447E-14 8.21801E-13
 -1      2108 8.26926E+00-6.34397E+00-3.04297E-01 6.86466E+00-5.88418E-15 4.09756E-13
 -1      2109 3.09820E+01 1.56655E+00 3.04478E-01 7.23964E+00 3.54494E-13-8.44880E-14
 -1      2110 2.59959E+01-7.62289E-01-4.64524E-04 6.95992E+00 1.47493E-13 5.48450E-14
 -1      2111 3.47472E+01-3.86069E+00 6.90424E-03-1.22060E+00-1.19127E-13 3.82194E-14
 -1      2112 3.52456E+01-2.82546E+00-7.51947E-02-3.45436E+00-6.15584E-14 2.00215E-13
 -1      2113 1.95200E+01 4.01609E+00-2.70196E-02-1.70193E+00-2.86776E-14-1.76777E-13
 -1      2114 1.96473E+01 3.94632E+00-2.46361E-02-1.95328E+00-4.83329E-14-1.64313E-13
 -1      2115 1.99722E+01 3.24724E+00-1.38960E-02-1.91739E+00-5.80517E-14-1.47292E-13
 -1      2116 1.96989E+01 3.58576E+00-7.26737E-03-1.51966E+00-1.66152E-14-1.55077E-13
 -1      2117 3.77798E+01 4.13690E+00 2.44712E-01 4.70946E+00 3.21708E-13-3.38951E-13
 -1      2118 3.37711E+01 2.88031E+00 1.05617E-01 5.73719E+00 4.50848E-13-1.86295E-13
 -1      2119 4.11287E+01 7.07447E+00 1.80781E-01 1.56455E+00 4.39537E-13-5.62772E-13
 -1      2120 3.96401E+01 6.06693E+00 2.64073E-01 3.07880E+00 3.48360E-13-4.18443E-13
 -1      2121 4.36659E+01 8.29548E+00 4.26608E-01-3.08571E-01 5.23859E-13-7.53564E-13
 -1      2122 4.13500E+01 8.36416E+00 1.46270E-01 8.85399E-01 5.68268E-13-5.57387E-13
 -1      2123 4.07291E+01 7.23525E+00 1.30222E-01-2.07415E+00 4.15112E-13-8.03690E-13
 -1      2124 4.33408E+01 7.72345E+00 3.38893E-01-9.81841E-01 4.68792E-13-7.99055E-13
 -1      2125 3.81180E+01 9.25079E+00 2.85675E-01 2.36868E-02 4.96381E-13-5.49311E-13
 -1      2126 3.60551E+01 4.01549E+00 5.92058E-02-4.24792E+00 2.85501E-13-9.29590E-13
 -1      2127 3.96642E+01 5.40039E+00 2.31441E-01-3.14670E+00 3.46639E-13-7.48679E-13
 -1      2128 2.87790E+01 2.85868E-01-8.25975E-02-6.25557E+00 3.54661E-13-8.51097E-13
 -1      2129 3.36617E+01 1.95372E+00 1.75195E-01-5.84127E+00 2.97012E-13-8.94951E-13
 -1      2130 2.00213E+01-2.73593E+00-2.25248E-01-7.42701E+00 4.45421E-13-6.28386E-13
 -1      2131 2.51652E+01-6.38362E-01 1.18282E-01-7.95724E+00 4.42868E-13-7.90090E-13
 -1      2132 1.28836E+01-5.24285E+00-1.13549E-01-7.73554E+00 3.14859E-13-5.21836E-13
 -1      2133 1.67690E+01-3.42956E+00 2.36950E-02-8.23745E+00 4.75286E-13-5.64743E-13
 -1      2134 3.78362E+00-7.53195E+00-4.55017E-01-5.39029E+00 1.12077E-13-6.22669E-13
 -1      2135 7.34528E+00-5.56201E+00-1.98079E-01-7.09918E+00 1.87572E-13-6.07014E-13
 -1      2136 8.14069E-02-8.03670E+00-4.22454E-01-2.86410E+00 3.11140E-14-3.80473E-13
 -1      2137 1.49701E+00-7.35542E+00-3.36527E-01-4.26603E+00 6.86118E-14-4.60632E-13
 -1      2138 4.15295E+00-5.05764E+00-1.20972E-01-5.93467E+00 4.05231E-14-6.31217E-13
 -1      2139 1.70971E-01-8.38286E+00-4.75503E-01 6.06711E-01-1.96232E-14-6.10623E-16
 -1      2140-4.62546E-01-8.05795E+00-4.22581E-01-8.22432E-01 9.53473E-14-2.12219E-13
 -1      2141 4.65330E+00-7.76453E+00-4.54478E-01 3.50723E+00-1.32006E-13-1.67921E-14
 -1      2142 1.89948E+00-8.83345E+00-5.96780E-01 2.07467E+00-1.64146E-13 1.06748E-13
 -1      2143 1.42876E+01-6.51540E+00-3.04379E-01 5.53031E+00 3.33067E-14-9.73666E-14
 -1      2144 9.26262E+00-7.95398E+00-5.84231E-01 4.34398E+00-2.75335E-14-4.20636E-14
 -1      2145 2.58581E+01-4.78817E+00-1.42736E-01 5.08385E+00-2.48912E-13 2.55351E-13
 -1      2146 1.89245E+01-6.57240E+00-6.10757E-01 4.57128E+00-1.11355E-13 8.87068E-14
 -1      2147 3.79496E+01-2.33331E+00 1.76193E-01 1.99234E+00-1.72362E-13 6.51701E-14
 -1      2148 3.09331E+01-4.14119E+00-3.19920E-01 2.81549E+00-2.54186E-13 2.01172E-13
 -1      2149 4.66883E+01 2.11594E+00 6.92221E-01-7.49229E-01 5.25135E-14-5.08482E-14
 -1      2150 4.12526E+01 2.20279E-01 1.93212E-01-7.12442E-01 1.87766E-14-1.53655E-13
 -1      2151 4.77245E+01 5.50920E+00 6.86727E-01-1.63594E+00 1.16795E-13 2.66454E-14
 -1      2152 4.71495E+01 4.42368E+00 7.65897E-01-1.42205E+00 9.74776E-14 2.37588E-14
 -1      2153 4.26320E+01 5.14879E+00 1.51383E-01-2.75643E-01 1.67533E-13 7.55229E-14
 -1      2154 3.64810E+01-2.21848E+00-5.14589E-02-1.26934E+00-6.48370E-14-1.84408E-13
 -1      2155 4.24147E+01-3.27366E-01 4.45710E-01-2.64818E-01 2.25792E-14-1.35003E-13
 -1      2156 2.49134E+01-5.41381E+00-4.84761E-01-3.95695E+00-2.68674E-13-1.26565E-13
 -1      2157 3.21810E+01-3.61684E+00 1.39552E-02-3.96663E+00-1.72751E-13-2.10720E-13
 -1      2158 1.41740E+01-7.39290E+00-5.35320E-01-4.79324E+00-2.53242E-13-9.38694E-14
 -1      2159 2.00605E+01-5.88133E+00-2.50871E-01-5.51331E+00-2.77223E-13-1.27232E-13
 -1      2160 4.35585E+00-8.44900E+00-6.11082E-01-3.20074E+00-9.96980E-14 2.34313E-13
 -1      2161 8.50631E+00-6.91429E+00-3.43287E-01-4.85896E+00-1.11244E-13 1.59178E-13
 -1      2162 3.40295E-02-8.58113E+00-5.01867E-01-5.32856E-01-2.30371E-14-6.46150E-14
 -1      2163 1.57081E+00-8.11160E+00-4.39205E-01-1.92764E+00-7.18314E-14 4.20775E-14
 -1      2164 3.81558E+01-1.26212E+00-1.10726E-01-4.67799E+00 3.73868E-14 8.52374E-14
 -1      2165 3.77029E+01 1.35023E+00-4.35618E-02-4.97526E+00 6.67244E-14 1.28231E-13
 -1      2166 2.10565E+01-2.70474E+00-4.64462E-02 8.00764E+00 3.61933E-14 1.68476E-13
 -1      2167 1.57626E+01-4.50045E+00-3.08132E-01 7.44165E+00-3.30846E-14 5.70766E-13
 -1      2168 1.66262E+01-5.15357E+00 5.35041E-03 8.26808E+00-2.50189E-13 4.27675E-13
 -1      2169 4.28111E+00-6.06063E+00-1.84047E-01 5.92734E+00 1.11688E-13 4.43090E-13
 -1      2170 1.82848E+00-7.69221E+00-4.02686E-01 4.40772E+00-1.13798E-14 4.05398E-13
 -1      2171 1.04983E+00-5.06068E+00-2.26650E-01 4.58426E-03 8.88456E-14-2.14329E-13
 -1      2172 2.07330E+01 1.10842E+00-2.07519E-02-1.61529E+00-1.01634E-13-3.09770E-14
 -1      2173 2.34946E+00-4.68487E+00-1.49025E-01 4.32413E+00-1.13520E-14 3.70481E-13
 -1      2174 3.26010E+01 6.45066E-01 2.15694E-01 4.02633E+00 1.78496E-13-4.57412E-13
 -1      2175 2.06247E+01 1.33012E+00-1.86794E-02-1.67684E+00-1.05221E-13-7.36997E-14
 -1      2176 3.09303E+01-2.61266E+00 1.66757E-01 2.32577E+00 6.78485E-14 8.58723E-14
 -1      2177 3.17211E+01-3.45735E+00 5.58926E-03 8.98263E-01-7.61613E-14 9.43750E-14
 -1      2178 4.79944E+01 3.36124E+00 9.73488E-01 1.43453E+00 7.98805E-14-2.07390E-13
 -1      2179 3.74104E+01 9.72259E-01-2.17816E-01 4.62817E+00 1.00475E-14 8.06022E-14
 -1      2180 3.05450E+01-4.41559E+00-1.85712E-02-1.58868E+00-2.52187E-13-1.29168E-14
 -1      2181 3.79565E+01-1.06357E+00-8.81520E-02 4.44682E+00-4.05509E-14 1.01030E-13
 -1      2182 2.00109E+01 1.14657E-02-1.33557E-04-1.30003E-02-1.80199E-13-2.27332E-13
 -1      2183 2.00091E+01 1.77987E-02 2.61480E-05 2.24776E-02 4.51302E-14 3.21619E-14
 -1      2184 3.17242E+01-4.67019E+00-2.56177E-02 8.05552E-01-1.03612E-13 1.50310E-13
 -1      2185 2.00107E+01 1.85083E-02 3.28930E-04-1.81747E-02-2.58543E-13-2.31208E-13
 -1      2186 2.00103E+01 2.52960E-02 6.32384E-05-2.36576E-02-2.71115E-13-1.35600E-13
 -1      2187 2.00135E+01 3.46552E-02-1.28413E-04-3.54305E-02-3.98802E-13-1.82169E-13
 -1      2188 2.00187E+01 2.05089E-02 3.04644E-04-2.59517E-02-4.55585E-13-9.63039E-14
 -1      2189 8.38200E+00-5.11695E+00-7.19168E-02 7.58475E+00-1.38334E-13 3.42226E-13
 -1      2190 2.74007E+01-3.58733E+00-2.03262E-01 5.37258E+00-2.46969E-13-3.32762E-13
 -1      2191 2.45456E+01-2.95214E+00 2.79927E-03 6.86473E+00-9.63674E-14-5.52336E-14
 -1      2192 2.35753E+01-4.54064E+00 1.76287E-01 6.87438E+00-3.55382E-13-3.08448E-13
 -1      2193 3.80266E+01-2.43108E+00 1.73983E-02-2.89523E+00-3.31124E-14 1.34337E-14
 -1      2194 4.91797E+00-5.88924E+00-2.50363E-01-3.88489E+00-1.62093E-14 1.99007E-13
 -1      2195 1.42136E+01-6.69874E+00-2.06608E-01-5.62966E+00-5.25691E-14-1.24900E-15
 -1      2196 2.55706E+01-6.60300E+00-1.77591E-01-4.12268E+00-2.09610E-13-1.62148E-13
 -1      2197 4.24435E+01 2.85481E+00 4.77102E-01-3.91945E+00 1.93179E-14 8.20455E-14
 -1      2198 3.04413E+01-5.76080E+00-1.23885E-01 2.44360E+00-2.02949E-13 3.00260E-13
 -1      2199 1.98887E+01-7.02354E+00-2.48990E-01 5.35526E+00 7.87148E-14 1.23040E-13
 -1      2200 9.67761E+00-6.47011E+00-2.40347E-01 5.31208E+00 9.21485E-14 1.16601E-13
 -1      2201 9.09586E-01-5.16981E+00-2.16241E-01-1.99367E+00 1.59123E-13-3.11584E-13
 -1      2202 1.14850E+01-5.24128E+00-5.41065E-02-7.89505E+00 2.27984E-13-5.62626E-13
 -1      2203 1.54693E+01-5.17301E+00-1.13971E-01-8.38401E+00 2.20934E-13-6.84147E-13
 -1      2204 1.06912E+01-4.38449E+00 1.77735E-01-8.14143E+00 2.26930E-13-6.57252E-13
 -1      2205 2.10594E+01-4.61328E+00-5.58924E-02-7.65609E+00 3.25240E-13-5.79758E-13
 -1      2206 2.86227E+01-2.07560E+00 1.35715E-01-5.49978E+00 2.23904E-13-6.47371E-13
 -1      2207 3.73657E+01 6.50463E+00 2.53082E-01-4.93894E-01 3.78808E-13-5.13756E-13
 -1      2208 3.67858E+01 4.74706E+00 2.72201E-01 1.69831E+00 3.11029E-13-4.47475E-13
 -1      2209 3.91034E+01 8.03408E+00 1.89928E-01 4.76924E-01 5.30687E-13-6.34465E-13
 -1      2210 3.54600E+01 7.49382E+00 5.00078E-03-2.67615E-01 5.22027E-13-5.66325E-13
 -1      2211 3.53209E+01 8.68011E+00-1.24955E-01-4.70789E-01 4.44367E-13-5.10869E-13
 -1      2212 3.75281E+01 2.28756E+00-2.95749E-01-4.24156E+00 5.44009E-14 8.50153E-14
 -1      2213 3.74106E+01 4.66604E+00 6.92969E-02-1.53442E+00-3.07532E-14-3.26961E-14
 -1      2214 3.42407E+01 1.82879E+00 2.09554E-01-2.36563E+00 1.94879E-13-6.57085E-13
 -1      2215 2.52123E+00-5.78734E+00-2.87736E-01 2.36506E+00 3.25573E-14 1.24345E-14
 -1      2216 3.54228E+01-4.20886E+00 9.31078E-02-2.79812E-01-1.80411E-13-1.51101E-13
 -1      2217 4.36837E+01 7.03424E-01 2.90394E-01 8.24598E-01 9.48130E-14-2.63123E-13
 -1      2218 4.05338E+01-7.42102E-01 4.05639E-01 2.97809E+00 3.26961E-14-1.27676E-13
 -1      2219 2.60727E+01-2.92005E+00 4.08891E-03 4.12863E+00 5.74818E-14 1.27259E-13
 -1      2220 1.95623E+01 3.51869E+00-1.10981E-02-5.90464E-01 4.50544E-14-1.27134E-13
 -1      2221 1.95977E+01 3.47271E+00-1.04212E-02-7.74656E-01 2.99243E-14-1.42960E-13
 -1      2222 1.96441E+01 3.38445E+00-1.26796E-02-9.38897E-01 1.73847E-14-1.47541E-13
 -1      2223 1.97051E+01 3.30322E+00-1.26526E-02-1.12813E+00 4.57235E-15-1.40767E-13
 -1      2224 1.97889E+01 3.03613E+00 3.16039E-04-7.90920E-01 2.67912E-14-1.33042E-13
 -1      2225 1.95148E+01 3.60174E+00-9.62551E-03 9.95359E-02 9.39038E-14-9.48174E-14
 -1      2226 1.95142E+01 3.60254E+00-9.62613E-03-7.97078E-02 7.78900E-14-1.05744E-13
 -1      2227 1.95407E+01 3.56221E+00-9.72382E-03 4.45051E-01 1.01838E-13-6.39679E-14
 -1      2228 1.95234E+01 3.58487E+00-1.01468E-02 2.64456E-01 9.47208E-14-8.18902E-14
 -1      2229 1.96807E+01 3.22520E+00-8.73763E-04 1.69496E-01 8.83789E-14-8.12917E-14
 -1      2230 1.96024E+01 3.46528E+00-1.06173E-02 7.88572E-01 1.31745E-13-2.93411E-14
 -1      2231 1.95662E+01 3.51250E+00-1.12239E-02 6.07317E-01 1.13789E-13-5.06557E-14
 -1      2232 1.97173E+01 3.16145E+00-4.78485E-04 4.87303E-01 1.02006E-13-4.87470E-14
 -1      2233 1.97130E+01 3.29088E+00-1.29415E-02 1.14156E+00 1.52671E-13 1.39463E-14
 -1      2234 1.96504E+01 3.37454E+00-1.29050E-02 9.52389E-01 1.38799E-13-1.68728E-14
 -1      2235 1.97942E+01 3.02735E+00 2.90055E-04 8.02421E-01 1.26124E-13-8.32017E-15
 -1      2236 1.98920E+01 3.00441E+00-1.81370E-02 1.48842E+00 1.66734E-13 7.58456E-14
 -1      2237 1.97925E+01 3.14578E+00-1.52810E-02 1.29820E+00 1.50965E-13 3.81648E-14
 -1      2238 1.99236E+01 2.80143E+00 2.03800E-03 1.10809E+00 1.43264E-13 2.79191E-14
 -1      2239 2.01676E+01 2.53790E+00-2.87027E-02 1.78500E+00 1.63307E-13 1.48690E-13
 -1      2240 2.00153E+01 2.78441E+00-1.81058E-02 1.62051E+00 1.64639E-13 1.04838E-13
 -1      2241 2.01182E+01 2.44943E+00 5.83577E-03 1.37601E+00 1.51223E-13 9.63934E-14
 -1      2242 2.05836E+01 1.79516E+00-2.65649E-02 1.88964E+00 1.50881E-13 2.50350E-13
 -1      2243 2.03633E+01 2.22548E+00-1.08133E-02 1.85181E+00 1.57785E-13 1.92844E-13
 -1      2244 2.03881E+01 1.91258E+00 1.40388E-02 1.53074E+00 1.42537E-13 1.71255E-13
 -1      2245 2.07896E+01 1.06716E+00-1.78242E-02 1.58980E+00 1.15543E-13 3.31221E-13
 -1      2246 2.06766E+01 1.53588E+00 8.77543E-04 1.79091E+00 1.40398E-13 2.80619E-13
 -1      2247 2.05029E+01 1.28033E+00 4.59628E-04 1.41930E+00 1.31953E-13 2.33606E-13
 -1      2248 2.04473E+01 7.43703E-01-1.83347E-03 1.11053E+00 1.01245E-13 2.98134E-13
 -1      2249 2.04004E+01 8.55602E-01 1.29986E-02-9.99400E-01-7.72108E-14-6.93280E-14
 -1      2250 2.01901E+01 6.28825E-01-3.97715E-03-6.88985E-01-6.57304E-14-6.62122E-14
 -1      2251 4.81802E+00-2.53372E+00 8.64628E-02 5.44200E+00-5.62050E-14 3.33455E-13
 -1      2252 3.27732E+00-2.24455E+00 1.38263E-01 3.20494E+00 8.40300E-14 1.48215E-13
 -1      2253 2.01250E+01 4.69742E-01 1.61520E-02-4.73248E-01-6.83455E-14-4.28996E-14
 -1      2254 1.99844E+01 3.45297E-01 5.09550E-05-3.01460E-01-6.18264E-14-4.61313E-14
 -1      2255 2.02452E+01 7.45636E-01-1.93112E-03-6.91819E-01-6.45053E-14-4.69044E-14
 -1      2256 1.99215E+01 2.61090E-01 1.08585E-02-1.63147E-01-4.69353E-14-3.04437E-14
 -1      2257 1.98436E+01 1.90088E-01 7.42198E-04-6.51593E-02-2.59391E-14-3.05292E-14
 -1      2258 2.00817E+01 4.17939E-01-3.86210E-03-3.07326E-01-4.86001E-14-2.03757E-14
 -1      2259 1.98003E+01 1.40944E-01 6.39702E-03 1.80374E-02-2.56001E-14-3.10122E-14
 -1      2260 1.97667E+01 9.90985E-02 8.08183E-04 7.23969E-02-2.26625E-14-3.00089E-14
 -1      2261 1.99628E+01 2.30349E-01-3.68278E-03-6.61984E-02-3.43248E-14-3.02304E-14
 -1      2262 1.97421E+01 6.97735E-02 3.58377E-03 1.19567E-01-1.76998E-14-2.87188E-14
 -1      2263 1.97369E+01 4.50329E-02 7.64116E-04 1.47682E-01-2.98404E-14-2.12969E-14
 -1      2264 1.98894E+01 1.19128E-01-2.99878E-03 7.72129E-02-2.86778E-14-3.23580E-14
 -1      2265 1.97270E+01 2.76216E-02 1.86679E-03 1.72090E-01-4.43822E-14-4.41909E-14
 -1      2266 1.97392E+01 1.35132E-02 7.08849E-04 1.84490E-01-5.50583E-14-5.89554E-14
 -1      2267 1.98529E+01 5.30291E-02-2.20820E-03 1.57335E-01-4.09980E-14-1.78654E-14
 -1      2268 1.97396E+01 3.80698E-03 8.04100E-04 1.95000E-01-5.74707E-14-6.20371E-14
 -1      2269 1.97622E+01-3.23366E-03 6.85310E-04 1.98486E-01-5.15341E-14-8.02532E-14
 -1      2270 1.98431E+01 1.48704E-02-1.54404E-03 1.97624E-01-6.88110E-14-3.79881E-14
 -1      2271 1.97695E+01-7.61130E-03 1.45905E-04 2.01280E-01-6.80108E-14-8.31402E-14
 -1      2272 1.97980E+01-9.61813E-03 7.21777E-04 2.00528E-01-7.56916E-14-7.24672E-14
 -1      2273 1.98515E+01-4.74801E-03-1.05253E-03 2.14207E-01-6.78707E-14-3.98367E-14
 -1      2274 1.98097E+01-1.00158E-02-2.57091E-04 2.00096E-01-4.62550E-14-4.28359E-14
 -1      2275 1.98418E+01-8.08061E-03 8.43502E-04 1.98567E-01-2.47214E-14-1.99253E-14
 -1      2276 1.98717E+01-1.11697E-02-7.12393E-04 2.18567E-01-4.55918E-14-3.18070E-14
 -1      2277 1.98563E+01-5.15080E-03-5.05055E-04 1.98387E-01-1.78625E-14-1.66856E-14
 -1      2278 1.98912E+01 3.42766E-04 1.07939E-03 1.98932E-01 5.76667E-14-2.67186E-14
 -1      2279 1.98996E+01-7.27201E-03-4.85560E-04 2.19267E-01-1.30272E-14 8.32550E-15
 -1      2280 1.99072E+01 6.53327E-03-6.74739E-04 2.01994E-01 7.99103E-14-1.86753E-14
 -1      2281 1.99453E+01 1.58620E-02 1.46919E-03 2.07338E-01 7.40960E-14 2.87842E-14
 -1      2282 1.99324E+01 5.89779E-03-3.29548E-04 2.23229E-01 5.85447E-14-1.79654E-14
 -1      2283 1.99622E+01 2.58533E-02-8.35896E-04 2.16610E-01 6.39803E-14 3.59283E-14
 -1      2284 2.00050E+01 4.00426E-02 2.07304E-03 2.29822E-01 7.79677E-14 3.90614E-14
 -1      2285 1.99682E+01 2.89757E-02-1.94654E-04 2.36752E-01 8.57684E-14 1.13109E-14
 -1      2286 2.00214E+01 5.50872E-02-1.07107E-03 2.48728E-01 3.30453E-14 3.52815E-14
 -1      2287 2.00717E+01 7.62111E-02 3.09070E-03 2.73702E-01 3.18272E-14 7.81366E-14
 -1      2288 2.00056E+01 6.44876E-02-1.14254E-05 2.66458E-01 5.54671E-14-3.79579E-14
 -1      2289 2.00868E+01 9.99367E-02-1.48870E-03 3.08428E-01 1.52610E-14 5.93617E-14
 -1      2290 2.01504E+01 1.32920E-01 4.46123E-03 3.53765E-01-2.74507E-14 4.88289E-14
 -1      2291 2.00431E+01 1.18529E-01 1.59139E-04 3.22165E-01-6.97565E-15-6.20409E-14
 -1      2292 2.01581E+01 1.66745E-01-2.16126E-03 4.07671E-01-1.25406E-14 9.06540E-14
 -1      2293 2.02339E+01 2.13526E-01 6.16250E-03 4.76691E-01-3.46912E-15 7.19245E-14
 -1      2294 2.00757E+01 1.99770E-01 1.01022E-03 4.13833E-01-1.02144E-14-5.43374E-14
 -1      2295 2.02287E+01 2.63820E-01-3.37100E-03 5.58908E-01-5.18238E-14 6.23872E-14
 -1      2296 2.03234E+01 3.32697E-01 8.61672E-03 6.64676E-01-2.48521E-14 8.95515E-14
 -1      2297 2.00932E+01 3.16705E-01 2.31224E-03 5.52460E-01-1.06230E-14-1.67291E-14
 -1      2298 2.02918E+01 4.06337E-01-5.38474E-03 7.85987E-01-8.94684E-16 4.90399E-14
 -1      2299 2.04083E+01 5.05697E-01 1.16351E-02 9.43403E-01 1.37234E-14 6.60429E-14
 -1      2300 2.00795E+01 4.87513E-01 4.68085E-03 7.57410E-01-5.18493E-14-1.13041E-14
 -1      2301 2.03279E+01 6.10237E-01-8.62272E-03 1.11734E+00-1.93235E-14 9.48197E-14
 -1      2302 2.04656E+01 7.47413E-01 1.49479E-02 1.34428E+00-3.23331E-14 6.95341E-14
 -1      2303 2.00033E+01 7.31324E-01 8.75728E-03 1.05054E+00-2.86080E-14-1.67854E-14
 -1      2304 2.03012E+01 8.86284E-01-1.34060E-02 1.58644E+00-3.73638E-14 4.62198E-14
 -1      2305 2.04536E+01 1.05901E+00 1.81837E-02 1.89960E+00-2.46400E-14 5.41425E-14
 -1      2306 1.98117E+01 1.06286E+00 1.53776E-02 1.45628E+00-3.87867E-14-2.40318E-14
 -1      2307 2.01565E+01 1.21788E+00-1.90428E-02 2.22607E+00-4.55365E-17 8.40599E-14
 -1      2308 2.03143E+01 1.39183E+00 2.20617E-02 2.62969E+00 8.57552E-14 3.61253E-14
 -1      2309 1.94233E+01 1.47105E+00 2.56002E-02 1.99830E+00-2.68639E-14-3.55575E-15
 -1      2310 1.98366E+01 1.50721E+00-2.02871E-02 3.05576E+00 1.28393E-13-1.64092E-14
 -1      2311 2.00128E+01 1.56328E+00 3.24475E-02 3.52025E+00 1.25609E-13-4.10258E-14
 -1      2312 1.87324E+01 1.86597E+00 4.08262E-02 2.69737E+00 6.25077E-14 8.10192E-14
 -1      2313 1.93553E+01 1.47197E+00 3.79507E-03 4.06229E+00 1.95137E-13-4.27765E-14
 -1      2314 1.96053E+01 1.08952E+00 5.75118E-02 4.50661E+00 1.72378E-13-1.46272E-14
 -1      2315 1.76311E+01 1.95449E+00 5.31399E-02 3.56443E+00 1.78002E-13-4.55486E-14
 -1      2316 2.00120E+01 3.10081E-01 6.86672E-02 5.07503E+00 1.68698E-13-2.28428E-14
 -1      2317 2.05912E+01-8.20562E-01 7.46761E-02 5.26075E+00 1.47729E-13 7.92144E-14
 -1      2318 3.25616E+01 2.40445E-01-1.10638E-01 2.09231E+00 8.71248E-14-4.96325E-13
 -1      2319 3.05151E+01-1.47149E+00-1.32175E-02 3.07561E+00-6.07847E-15-5.73430E-13
 -1      2320 1.15503E+01-4.13618E+00 3.06258E-02 8.29954E+00-3.45224E-13 2.26291E-13
 -1      2321 7.79802E+00-3.60616E+00 1.26718E-01 7.03623E+00-2.14995E-13 1.14658E-13
 -1      2322 2.00139E+01 1.78025E-02 1.03454E-04 2.74594E-02-4.21320E-14 1.01791E-13
 -1      2323 2.15515E+01 2.09846E-02 4.79891E-02-4.95022E+00 7.35245E-14-1.03841E-13
 -1      2324 2.08613E+01 9.18992E-01 7.17880E-02-4.66266E+00 9.28320E-14-1.80890E-13
 -1      2325 2.12299E+01 1.17667E+00 4.01350E-02-4.09739E+00-3.54144E-15-3.09821E-13
 -1      2326 2.07839E+01 1.30756E+00-6.97477E-03-3.65438E+00 6.16139E-14-4.00231E-13
 -1      2327 1.83979E+01 1.39320E+00 7.65655E-02-4.44562E+00 3.05762E-14-1.41005E-13
 -1      2328 2.11533E+01 1.29853E+00 2.92370E-02-3.14113E+00 2.30560E-13-4.08273E-13
 -1      2329 2.08013E+01 1.19037E+00-1.60258E-02-2.69313E+00 1.77831E-13-4.05670E-13
 -1      2330 1.91623E+01 1.74447E+00 3.99264E-02-3.39748E+00 1.16037E-13-4.39348E-13
 -1      2331 2.10514E+01 1.06396E+00 2.39269E-02-2.28228E+00 1.93130E-13-3.14400E-13
 -1      2332 2.07633E+01 9.09457E-01-1.22913E-02-1.91323E+00 1.37066E-13-2.68689E-13
 -1      2333 1.97408E+01 1.51149E+00 2.55955E-02-2.51184E+00 1.98423E-13-3.52329E-13
 -1      2334 2.08985E+01 7.77101E-01 2.01880E-02-1.60309E+00-1.74616E-13-2.09306E-13
 -1      2335 2.06667E+01 6.41913E-01-7.64102E-03-1.32870E+00-2.62728E-13-3.14645E-13
 -1      2336 2.00659E+01 1.13813E+00 1.58247E-02-1.80979E+00-3.42816E-14-2.53443E-13
 -1      2337 2.07247E+01 5.36535E-01 1.59280E-02-1.10369E+00-3.30009E-13-3.96181E-13
 -1      2338 2.05450E+01 4.35347E-01-4.35322E-03-9.10488E-01-2.19572E-13-5.15476E-13
 -1      2339 2.02095E+01 8.00873E-01 9.06443E-03-1.27913E+00-3.53434E-13-3.04220E-13
 -1      2340 2.05594E+01 3.59893E-01 1.18324E-02-7.51697E-01-3.25026E-14-4.69783E-13
 -1      2341 2.04247E+01 2.89340E-01-2.36133E-03-6.19695E-01-1.30601E-14-4.73635E-13
 -1      2342 2.02473E+01 5.43787E-01 4.72316E-03-8.92345E-01-1.19957E-13-6.44422E-14
 -1      2343 2.04177E+01 2.38021E-01 8.43092E-03-5.09655E-01 3.57611E-14-5.07161E-13
 -1      2344 2.03191E+01 1.90615E-01-1.21556E-03-4.20871E-01-5.56057E-14-3.98892E-13
 -1      2345 2.02324E+01 3.62429E-01 2.15855E-03-6.17824E-01-1.09489E-14-1.06246E-13
 -1      2346 2.03036E+01 1.56655E-01 5.85632E-03-3.45395E-01-1.77982E-14-2.66444E-13
 -1      2347 2.02325E+01 1.25473E-01-5.69477E-04-2.86040E-01 3.93127E-14-1.19931E-13
 -1      2348 2.01961E+01 2.39612E-01 7.66320E-04-4.26308E-01 8.04875E-14-9.09195E-14
 -1      2349 2.02152E+01 1.03380E-01 4.00920E-03-2.34438E-01 1.25366E-13-6.39899E-14
 -1      2350 2.01645E+01 8.31836E-02-2.09236E-04-1.94666E-01 2.76636E-13-4.51302E-14
 -1      2351 2.01548E+01 1.58395E-01 7.81332E-05-2.93921E-01 1.21024E-13 1.56062E-13
 -1      2352 2.01483E+01 6.90334E-02 2.72114E-03-1.59232E-01 2.79830E-13-7.79838E-14
 -1      2353 2.01124E+01 5.61924E-02-8.40568E-06-1.32257E-01 2.61079E-13-1.21138E-13
 -1      2354 2.01162E+01 1.05581E-01-2.22725E-04-2.02539E-01 3.51117E-13 8.32137E-14
 -1      2355 2.00986E+01 4.73589E-02 1.83638E-03-1.07571E-01 3.89798E-13-2.31715E-14
 -1      2356 2.00734E+01 3.94590E-02 1.04351E-04-8.87751E-02 3.76211E-13 2.47183E-14
 -1      2357 2.00833E+01 7.18942E-02-3.06961E-04-1.39026E-01 3.62880E-13 1.92352E-13
 -1      2358 2.00619E+01 3.40016E-02 1.15242E-03-7.10674E-02-2.92602E-15-1.64821E-13
 -1      2359 2.00447E+01 2.95985E-02 1.86352E-04-5.75162E-02-3.11800E-13-2.24155E-13
 -1      2360 2.00563E+01 5.09369E-02-3.16247E-04-9.40765E-02 1.44231E-13-2.29804E-13
 -1      2361 2.00375E+01 2.61702E-02 7.62170E-04-4.57914E-02-3.32649E-13 3.29455E-15
 -1      2362 2.00258E+01 2.35635E-02 3.55936E-04-3.54056E-02-4.11054E-13-5.69723E-14
 -1      2363 2.00235E+01 3.04594E-02 1.17852E-04-4.11636E-02-3.52250E-13-1.12641E-13
 -1      2364 2.00373E+01 3.90071E-02 9.80716E-06-6.34069E-02-1.83262E-13-3.26789E-13
 -1      2365 1.97028E+01 6.39947E-02 1.07985E-03-1.13941E-01 2.85824E-14 1.64888E-13
 -1      2366 1.97184E+01 9.40375E-02 5.03472E-03-7.54700E-02 5.76254E-14 1.90612E-13
 -1      2367 1.97537E+01 1.29271E-01 1.36288E-03-1.23972E-02 6.70985E-14 1.89782E-13
 -1      2368 1.98069E+01 1.79917E-01 8.85957E-03 5.95824E-02 6.71249E-14 2.23898E-13
 -1      2369 1.98836E+01 1.58198E-01-3.48730E-03-1.41541E-02 7.42482E-14 1.63896E-13
 -1      2370 1.98647E+01 2.41469E-01 1.77304E-03 1.67705E-01 5.71643E-14 2.13674E-13
 -1      2371 1.99676E+01 3.26224E-01 1.09656E-02 2.97943E-01 6.49190E-14 2.06907E-13
 -1      2372 1.99838E+01 2.94896E-01-4.23091E-03 1.73434E-01 6.20539E-14 1.75306E-13
 -1      2373 1.96937E+01 2.51432E-02 8.58257E-04-1.66466E-01 1.70262E-14 1.30169E-13
 -1      2374 1.96862E+01 4.28717E-02 2.69369E-03-1.48112E-01 1.85706E-14 1.51052E-13
 -1      2375 1.98291E+01 7.70950E-02-2.64094E-03-1.22391E-01 3.31286E-14 1.51874E-13
 -1      2376 1.97112E+01 2.49889E-03 6.78000E-04-1.88773E-01 3.82984E-14 1.21691E-13
 -1      2377 1.96904E+01 1.25860E-02 1.27792E-03-1.82460E-01 2.02228E-14 1.24453E-13
 -1      2378 1.98088E+01 2.87933E-02-1.85134E-03-1.79391E-01 3.56680E-14 1.42912E-13
 -1      2379 1.97445E+01-9.86338E-03 5.35046E-04-1.93062E-01 2.16113E-14 1.51988E-13
 -1      2380 1.97167E+01-4.61994E-03 4.20745E-04-1.93690E-01 8.78328E-15 1.29981E-13
 -1      2381 1.98115E+01 8.27268E-04-1.23166E-03-2.04318E-01 3.67517E-14 1.13482E-13
 -1      2382 1.97865E+01-1.57542E-02 4.18138E-04-1.87270E-01 1.12353E-14 1.72605E-13
 -1      2383 1.97556E+01-1.35103E-02-8.41825E-05-1.91597E-01 1.07471E-14 1.43494E-13
 -1      2384 1.98291E+01-1.42601E-02-7.85439E-04-2.09929E-01 4.79180E-15 1.01629E-13
 -1      2385 1.98323E+01-1.79094E-02 3.07563E-04-1.76385E-01 4.95286E-14 1.72935E-13
 -1      2386 1.98008E+01-1.73082E-02-3.57606E-04-1.82451E-01 6.18421E-14 1.85765E-13
 -1      2387 1.98555E+01-2.13505E-02-4.81549E-04-2.04624E-01 2.80451E-14 8.90002E-14
 -1      2388 1.98791E+01-1.85379E-02 1.75772E-04-1.63156E-01 1.38652E-13 1.54285E-13
 -1      2389 1.98484E+01-1.84552E-02-4.74758E-04-1.69990E-01 1.13717E-13 1.81743E-13
 -1      2390 1.98869E+01-2.40162E-02-2.84822E-04-1.93669E-01 1.06014E-13 6.36030E-14
 -1      2391 1.99251E+01-1.96463E-02-1.20129E-05-1.48452E-01-1.45242E-14 1.04971E-13
 -1      2392 1.98962E+01-1.90352E-02-4.84163E-04-1.55934E-01 6.58165E-14 1.52663E-13
 -1      2393 1.99211E+01-2.52000E-02-1.64916E-04-1.79878E-01 9.29033E-14 1.66795E-13
 -1      2394 1.99689E+01-2.32367E-02-2.96609E-04-1.31393E-01 2.58253E-14 1.96024E-14
 -1      2395 1.99429E+01-2.10344E-02-4.17295E-04-1.40214E-01 1.32210E-14 1.67758E-14
 -1      2396 1.99566E+01-2.76193E-02-9.70788E-05-1.63962E-01 8.49708E-14 1.12856E-13
 -1      2397 2.00095E+01-3.13874E-02-7.21556E-04-1.09359E-01 6.24182E-14 5.21860E-16
 -1      2398 1.99874E+01-2.64875E-02-2.95121E-04-1.21030E-01 4.40936E-14-2.87922E-14
 -1      2399 1.99930E+01-3.39994E-02-6.01505E-05-1.44657E-01 6.39641E-14-7.87381E-15
 -1      2400 2.00449E+01-4.61678E-02-1.32541E-03-7.79823E-02 3.43201E-15 1.85831E-14
 -1      2401 2.00284E+01-3.74880E-02-1.34183E-04-9.48207E-02 2.04710E-14 3.51643E-14
 -1      2402 2.00297E+01-4.71311E-02-3.34790E-05-1.18727E-01 2.39727E-14 7.02876E-14
 -1      2403 2.00724E+01-6.93037E-02-2.12694E-03-3.12748E-02 1.10126E-13-5.63200E-14
 -1      2404 2.00642E+01-5.59982E-02 4.63059E-05-5.62979E-02 9.33714E-14-5.01106E-15
 -1      2405 2.00664E+01-6.96803E-02 7.29472E-06-8.09660E-02 3.58141E-14-3.27578E-14
 -1      2406 2.00877E+01-1.01485E-01-3.10120E-03 3.78660E-02 4.58296E-14 1.67033E-14
 -1      2407 2.00913E+01-8.33580E-02 2.15441E-04 1.27386E-03 6.75020E-14 5.30056E-15
 -1      2408 2.01019E+01-1.03626E-01 9.59828E-05-2.43942E-02 9.33158E-14-3.01849E-14
 -1      2409 2.00846E+01-1.41252E-01-4.14723E-03 1.36467E-01-1.49446E-14 3.84216E-14
 -1      2410 2.01046E+01-1.19394E-01 3.20611E-04 8.52621E-02 2.48063E-14 4.29546E-14
 -1      2411 2.01338E+01-1.49200E-01 2.80240E-04 5.90904E-02 3.43684E-14 1.44947E-14
 -1      2412 2.00544E+01-1.83551E-01-5.05485E-03 2.69277E-01-7.41703E-14 4.79991E-14
 -1      2413 2.00962E+01-1.61123E-01 2.81342E-04 2.01971E-01-2.16724E-14 4.06639E-14
 -1      2414 2.01575E+01-2.03285E-01 6.20337E-04 1.77221E-01-1.95366E-14 3.04167E-14
 -1      2415 1.99866E+01-2.18397E-01-5.48751E-03 4.35367E-01-4.58271E-14 1.36908E-13
 -1      2416 2.00555E+01-2.01276E-01-3.83691E-06 3.53765E-01-7.34467E-14 1.66295E-13
 -1      2417 2.01651E+01-2.57508E-01 1.17206E-03 3.34648E-01-9.09630E-14 5.45234E-14
 -1      2418 1.98698E+01-2.30599E-01-5.01976E-03 6.23836E-01-1.35220E-13 2.61376E-13
 -1      2419 1.99697E+01-2.27312E-01-6.17460E-04 5.35019E-01-5.51260E-14 2.20396E-13
 -1      2420 2.01449E+01-2.96773E-01 1.94364E-03 5.28805E-01-1.23463E-13 2.35482E-13
 -1      2421 1.96950E+01-2.01992E-01-3.27684E-03 8.09845E-01-1.36945E-13 2.57886E-13
 -1      2422 1.98260E+01-2.22136E-01-1.55694E-03 7.27628E-01-1.46004E-13 2.38268E-13
 -1      2423 2.00822E+01-2.99667E-01 2.81343E-03 7.44755E-01-1.36467E-13 2.52402E-13
 -1      2424 1.94606E+01-1.17545E-01-1.82951E-04 9.53518E-01-2.61690E-14 1.37486E-13
 -1      2425 1.96167E+01-1.68058E-01-2.61587E-03 8.98061E-01-7.14330E-14 2.02211E-13
 -1      2426 1.99619E+01-2.42763E-01 3.42054E-03 9.50650E-01-4.48972E-14 1.47213E-13
 -1      2427 1.91790E+01 2.49690E-02 3.75779E-03 1.00528E+00 1.10489E-13 2.24363E-13
 -1      2428 1.93468E+01-5.48496E-02-3.30138E-03 9.99328E-01 3.59403E-14 1.77038E-13
 -1      2429 1.97764E+01-1.10086E-01 3.17932E-03 1.09720E+00-1.63178E-15 1.50795E-13
 -1      2430 1.88828E+01 2.05791E-01 7.41323E-03 9.20098E-01 7.51004E-14 2.39503E-13
 -1      2431 1.90409E+01 1.10013E-01-2.92919E-03 9.81382E-01 1.50417E-13 2.35344E-13
 -1      2432 1.95349E+01 9.39794E-02 1.54108E-03 1.12573E+00 1.03885E-13 2.17096E-13
 -1      2433 1.86230E+01 3.81907E-01 9.41039E-03 6.78351E-01 2.14856E-14 2.76639E-13
 -1      2434 1.87462E+01 2.94953E-01-9.12269E-04 8.10207E-01 9.21247E-15 2.62490E-13
 -1      2435 1.92721E+01 3.34853E-01-1.49914E-03 9.87495E-01 2.57357E-14 2.75854E-13
 -1      2436 1.84574E+01 4.99583E-01 8.83259E-03 3.03514E-01 1.89241E-14 2.17094E-13
 -1      2437 1.85228E+01 4.49311E-01 2.58828E-03 4.88773E-01 3.84588E-14 2.49029E-13
 -1      2438 1.90454E+01 5.51337E-01-4.90044E-03 6.69555E-01 2.08676E-14 1.63353E-13
 -1      2439 1.84301E+01 5.17773E-01 5.92285E-03-1.35969E-01 1.92611E-14 2.92775E-13
 -1      2440 1.84244E+01 5.22242E-01 6.50156E-03 6.72198E-02 1.61256E-14 2.78152E-13
 -1      2441 1.89177E+01 6.75709E-01-7.11551E-03 2.13215E-01-2.14891E-14 2.59671E-13
 -1      2442 1.85508E+01 4.29719E-01 2.01656E-03-5.47153E-01-4.53153E-15 3.18053E-13
 -1      2443 1.84752E+01 4.87310E-01 9.17373E-03-3.68192E-01 1.11538E-13 3.36990E-13
 -1      2444 1.89292E+01 6.64821E-01-6.86890E-03-2.90046E-01 4.68941E-14 3.79765E-13
 -1      2445 1.87898E+01 2.67058E-01-1.27082E-03-8.47598E-01-6.08103E-14 1.77344E-13
 -1      2446 1.86593E+01 3.57292E-01 9.35704E-03-7.26093E-01-3.05591E-14 2.06780E-13
 -1      2447 1.90763E+01 5.22526E-01-4.29857E-03-7.30134E-01 3.60394E-14 3.51525E-13
 -1      2448 1.90907E+01 8.25512E-02-2.99260E-03-9.94399E-01-5.40681E-14-8.94586E-15
 -1      2449 1.89291E+01 1.77073E-01 7.00418E-03-9.44145E-01-4.47274E-14-1.05678E-14
 -1      2450 1.93135E+01 2.97856E-01-8.14694E-04-1.02173E+00 1.69553E-15 3.62582E-14
 -1      2451 1.93944E+01-7.50999E-02-3.16368E-03-9.91738E-01-1.02474E-14 6.46482E-14
 -1      2452 1.92266E+01 3.44076E-04 3.16580E-03-1.00645E+00-9.65472E-15-2.84322E-14
 -1      2453 1.95769E+01 5.96670E-02 1.98102E-03-1.13255E+00-5.47487E-14-6.49131E-14
 -1      2454 1.96573E+01-1.78222E-01-2.37250E-03-8.77822E-01 6.11061E-14-7.89001E-14
 -1      2455 1.95034E+01-1.33097E-01-7.36560E-04-9.38287E-01-3.71349E-14-1.23444E-14
 -1      2456 1.98121E+01-1.33848E-01 3.31711E-03-1.08310E+00 5.52718E-14-6.57768E-14
 -1      2457 1.98583E+01-2.22775E-01-1.29011E-03-7.03387E-01 1.27579E-14 8.80502E-14
 -1      2458 1.97306E+01-2.07408E-01-3.64700E-03-7.86785E-01 9.03560E-14-9.85245E-14
 -1      2459 1.99888E+01-2.53250E-01 3.34025E-03-9.25538E-01 2.90295E-14-2.15092E-13
 -1      2460 1.99954E+01-2.20757E-01-3.62450E-04-5.13881E-01 1.11562E-14 1.65538E-13
 -1      2461 1.98985E+01-2.27495E-01-5.17556E-03-6.00818E-01 2.59977E-14 1.62282E-13
 -1      2462 2.01012E+01-2.98165E-01 2.63672E-03-7.18126E-01-3.23970E-14-9.85811E-14
 -1      2463 2.00778E+01-1.90120E-01 2.37540E-04-3.40581E-01-8.48854E-15-1.04828E-14
 -1      2464 2.00105E+01-2.09374E-01-5.46993E-03-4.18233E-01 8.16933E-14 1.79432E-13
 -1      2465 2.01592E+01-2.86472E-01 1.74816E-03-5.07859E-01 9.21892E-15 6.95720E-14
 -1      2466 2.01188E+01-1.47358E-01 5.25624E-04-1.99618E-01 1.43974E-13-5.76560E-14
 -1      2467 2.00767E+01-1.70982E-01-4.93028E-03-2.61735E-01-1.18887E-14 5.54725E-15
 -1      2468 2.01780E+01-2.41683E-01 9.86559E-04-3.23996E-01 7.49138E-14 4.18135E-14
 -1      2469 2.01314E+01-1.04123E-01 5.94818E-04-9.53449E-02 1.06630E-14-1.94049E-14
 -1      2470 2.01089E+01-1.26714E-01-3.97536E-03-1.40634E-01 1.54943E-13-2.87856E-14
 -1      2471 2.01725E+01-1.84308E-01 4.51234E-04-1.79473E-01 4.93430E-14 3.91163E-14
 -1      2472 2.01263E+01-6.68806E-02 5.43626E-04-2.48473E-02 4.38726E-14-2.28084E-14
 -1      2473 2.01177E+01-8.56761E-02-2.92411E-03-5.49968E-02 3.84973E-14 9.11016E-14
 -1      2474 2.01540E+01-1.28292E-01 1.22479E-04-7.57114E-02 3.17101E-14 2.57451E-13
 -1      2475 2.01114E+01-3.80558E-02 4.47191E-04 1.81844E-02-9.45770E-14-1.05719E-14
 -1      2476 2.01120E+01-5.22286E-02-1.96977E-03 1.63117E-04-6.44618E-14-1.30356E-13
 -1      2477 2.01301E+01-8.10171E-02-5.71479E-05-7.67039E-03 5.31200E-14 1.91457E-13
 -1      2478 2.00922E+01-1.75126E-02 3.51354E-04 4.08038E-02 1.97937E-13-1.19743E-13
 -1      2479 2.00980E+01-2.73952E-02-1.20166E-03 3.16930E-02 9.83240E-14-1.76220E-13
 -1      2480 2.01053E+01-4.49342E-02-1.42375E-04 3.22682E-02 1.05478E-13-9.01706E-14
 -1      2481 2.00720E+01-3.83476E-03 2.78350E-04 4.93108E-02 6.20354E-14-1.29364E-13
 -1      2482 2.00803E+01-1.02872E-02-6.37997E-04 4.63035E-02 1.60678E-13-1.97050E-13
 -1      2483 2.00821E+01-1.94754E-02-1.74351E-04 5.18280E-02 1.10954E-13-1.47663E-13
 -1      2484 2.00530E+01 4.80947E-03 2.36144E-04 4.86703E-02-5.13920E-14-5.34068E-14
 -1      2485 2.00620E+01 7.80570E-04-2.60231E-04 4.95947E-02 4.41211E-14 8.78948E-15
 -1      2486 2.00615E+01-2.64573E-03-1.74853E-04 5.76083E-02-3.37761E-14-1.76723E-13
 -1      2487 2.00362E+01 1.01929E-02 2.16609E-04 4.24001E-02-2.89436E-13 1.34407E-13
 -1      2488 2.00446E+01 7.68869E-03-3.02398E-05 4.57491E-02-1.87856E-13 7.76203E-14
 -1      2489 2.00440E+01 7.95470E-03-1.57567E-04 5.46508E-02-1.70690E-13-2.59780E-15
 -1      2490 2.00221E+01 1.35761E-02 2.69528E-04 3.28884E-02-1.36937E-13 9.01377E-14
 -1      2491 2.00294E+01 1.20016E-02 1.17359E-04 3.75174E-02-1.97316E-13 1.77124E-13
 -1      2492 2.00293E+01 1.45314E-02-1.37193E-04 4.63540E-02-1.72573E-13 3.13013E-13
 -1      2493 1.99949E+01 6.95202E-02-2.59269E-04 4.30677E-02 3.12984E-14-1.51969E-13
 -1      2494 1.99984E+01 6.15114E-02 1.88947E-04 4.41425E-02 1.23737E-13-3.91387E-13
 -1      2495 2.00016E+01 5.28811E-02-1.07189E-04 4.38805E-02 6.69680E-14-1.30095E-13
 -1      2496 2.00047E+01 4.50485E-02 2.35053E-04 4.25796E-02 1.29187E-13-4.06512E-14
 -1      2497 1.99999E+01 5.49868E-02-1.02498E-04 5.14887E-02-1.23681E-14-2.60065E-13
 -1      2498 2.00073E+01 3.73173E-02-1.27842E-05 4.00333E-02 1.21823E-13 1.47762E-13
 -1      2499 2.00100E+01 2.99680E-02 2.80141E-04 3.69737E-02 6.36192E-14 9.31859E-14
 -1      2500 2.00076E+01 3.91344E-02-1.20266E-04 4.81955E-02 6.90476E-14-2.55304E-14
 -1      2501 1.99878E+01 8.59703E-02-3.90810E-04 3.69065E-02 4.33960E-14-1.36643E-13
 -1      2502 1.99915E+01 7.87344E-02 1.49210E-04 4.05569E-02-9.20894E-14 1.23329E-13
 -1      2503 1.99910E+01 7.22963E-02-2.56762E-05 4.92852E-02-6.36287E-14-6.50831E-14
 -1      2504 1.99811E+01 1.00286E-01-4.87538E-04 2.50958E-02 8.58062E-14-8.94649E-14
 -1      2505 1.99845E+01 9.47728E-02 6.88870E-05 3.12929E-02 1.14297E-13-3.17123E-13
 -1      2506 1.99818E+01 8.97937E-02 1.01376E-04 4.08521E-02-4.97472E-14-7.71426E-14
 -1      2507 1.99763E+01 1.10271E-01-5.10747E-04 8.27412E-03 3.09198E-14 6.74149E-13
 -1      2508 1.99785E+01 1.07403E-01-5.62328E-05 1.65224E-02-7.38891E-14 5.11314E-13
 -1      2509 1.99735E+01 1.05299E-01 2.66264E-04 2.58538E-02 1.53286E-13 7.61332E-14
 -1      2510 1.99749E+01 1.13804E-01-4.32619E-04-1.16444E-02 1.32211E-13 1.30309E-13
 -1      2511 1.99751E+01 1.14274E-01-2.14606E-04-2.42923E-03-1.33492E-14 3.26456E-13
 -1      2512 1.99682E+01 1.16202E-01 4.31136E-04 5.25308E-03 6.19975E-14 4.06787E-13
 -1      2513 1.99781E+01 1.09567E-01-2.44912E-04-3.11524E-02 1.71349E-13-3.32589E-13
 -1      2514 1.99758E+01 1.13499E-01-3.85894E-04-2.27137E-02 2.33304E-13 2.99580E-14
 -1      2515 1.99678E+01 1.19952E-01 5.53063E-04-1.82229E-02 2.03599E-13 5.56621E-14
 -1      2516 1.99866E+01 9.71160E-02 1.92924E-05-4.69360E-02 1.89287E-13-3.12070E-14
 -1      2517 1.99816E+01 1.04304E-01-5.21177E-04-4.08237E-02 1.73403E-13-3.78569E-13
 -1      2518 1.99738E+01 1.14866E-01 5.96315E-04-4.08271E-02 3.35844E-14-3.12600E-13
 -1      2519 1.99991E+01 7.76859E-02 2.67106E-04-5.47924E-02-2.51720E-13-1.01560E-13
 -1      2520 1.99923E+01 8.71863E-02-5.82249E-04-5.27531E-02 3.27635E-14 1.44015E-13
 -1      2521 1.99862E+01 1.00463E-01 5.08212E-04-5.80205E-02-3.46707E-15-1.95384E-13
 -1      2522 2.00130E+01 5.38725E-02 3.93544E-04-5.22844E-02-4.56103E-13-4.10718E-13
 -1      2523 2.00060E+01 6.45317E-02-4.62952E-04-5.51417E-02-3.47151E-13-4.47921E-13
 -1      2524 2.00030E+01 7.84435E-02 3.19966E-04-6.52355E-02-2.79146E-13-2.96520E-13
 -1      2525 2.05467E+01 1.95534E+00-1.36748E-02-1.89727E+00-9.69971E-14-9.14373E-14
 -1      2526 2.04101E+01 1.21461E+00-7.21127E-03-1.28598E+00-9.19542E-14-8.57968E-14
 -1      2527 2.03815E+01 1.38097E+00 7.22685E-03-1.23562E+00-6.65943E-14-7.49071E-14
 -1      2528 2.02897E+01 2.38523E+00-4.84906E-03-1.84130E+00-8.02804E-14-1.06987E-13
 -1      2529 5.03655E+00-3.65266E+00 2.91259E-02-3.46522E+00 6.84452E-14 9.95315E-14
 -1      2530 8.14699E+00-4.18930E+00-2.35353E-02-5.27519E+00 2.19269E-14 2.24487E-13
 -1      2531 3.91466E+01-1.93075E+00 2.46148E-01-1.71117E+00-1.09288E-13-9.98090E-14
 -1      2532 3.45260E+01 4.61958E+00-1.80387E-01-1.46039E-01 3.57631E-13-5.30298E-13
 -1      2533 3.37289E+01 2.59425E+00-5.92649E-02 7.76276E-01 2.04309E-13-4.73732E-13
 -1      2534 3.21181E+01 8.51790E-01 3.77842E-03 1.63926E-01 9.94899E-14-5.14810E-13
 -1      2535 3.71410E+01-2.12796E+00-3.49999E-02 4.26885E+00-4.15223E-14 8.09630E-14
 -1      2536 1.95215E+01 3.58779E+00-1.01012E-02-2.44662E-01 6.95850E-14-1.18602E-13
 -1      2537 1.95376E+01 3.56700E+00-9.64275E-03-4.25174E-01 5.41782E-14-1.27189E-13
 -1      2538 1.97139E+01 3.16691E+00-5.32229E-04-4.72247E-01 4.89209E-14-1.13365E-13
 -1      2539 1.96794E+01 3.22723E+00-8.86996E-04-1.51438E-01 6.00091E-14-1.05991E-13
 -1      2540 2.23272E+01-2.53399E+00 1.91399E-01 5.36547E+00 1.38223E-14 1.96315E-13
 -1      2541 2.47239E+01-4.23758E+00 2.96614E-02 4.57579E+00 3.56659E-14 2.91017E-14
 -1      2542 3.42665E+01 8.24168E+00-1.54885E-01 5.51883E-01 4.65405E-13-3.98043E-13
 -1      2543 3.43260E+01 8.69312E+00-1.70832E-01 9.57325E-02 4.48475E-13-4.30215E-13
 -1      2544 5.87877E+00-3.51508E+00 5.14555E-02 4.09018E+00 1.38195E-13 1.26676E-13
 -1      2545 3.63847E+00-2.77529E+00 8.68610E-02 2.00855E+00 2.51882E-13-6.83342E-14
 -1      2546 3.37876E+01 4.77318E+00-1.14707E-01 4.67608E-01 2.86188E-13-4.36789E-13
 -1      2547 3.44259E+01 6.74162E+00-1.75612E-01 7.18999E-01 3.74645E-13-4.17860E-13
 -1      2548 2.66398E+01-3.85450E+00-2.15380E-02-5.26120E+00 1.94872E-13-4.75675E-13
 -1      2549 2.95622E+01-2.59989E+00-1.23198E-01-3.81393E+00 1.01502E-13-6.01519E-13
 -1      2550 2.07144E+01-5.01676E+00 3.88374E-02-7.42186E+00 2.30038E-13-4.48322E-13
 -1      2551 2.41429E+01-4.45719E+00 2.24174E-02-6.78424E+00 2.91073E-13-3.83596E-13
 -1      2552 2.60919E+01-4.61029E+00 4.67800E-02-5.12325E+00 1.74818E-13-3.74478E-13
 -1      2553 4.40014E+00-3.20814E+00 9.43931E-02-5.19487E+00 8.40994E-14-6.23168E-13
 -1      2554 6.68482E+00-3.38776E+00 6.73529E-02-6.80819E+00 1.54460E-13-7.23643E-13
 -1      2555 3.25307E+01-5.51085E+00-9.33302E-03-8.10799E-01-2.63151E-13-1.53599E-13
 -1      2556 3.58471E+01-4.02573E+00-1.22197E-01 1.43610E+00-1.64632E-13-7.82152E-14
 -1      2557 2.34064E+00-2.51589E+00 8.76178E-02-5.42430E-01 1.84085E-13-2.77889E-13
 -1      2558 2.75054E+00-2.54679E+00 7.38865E-02-3.16673E+00 1.14603E-13-3.61822E-13
 -1      2559 1.36640E+01-4.77503E+00 2.78259E-02 6.11622E+00 1.37557E-13 1.93123E-13
 -1      2560 8.96018E+00-4.39855E+00 3.22649E-02 5.15881E+00 9.70890E-14 2.37255E-13
 -1      2561 3.15845E+01-3.01665E-01-5.14832E-02-1.50907E+00 5.35891E-14-5.44786E-13
 -1      2562 3.31447E+01 1.84238E+00-1.71221E-01-4.79370E-01 1.44995E-13-4.66682E-13
 -1      2563 2.00144E+01 2.21613E-02-8.74268E-05 3.54643E-02-2.68932E-14 1.29140E-13
 -1      2564 1.33982E+01-4.90733E+00 5.21516E-02-5.84689E+00 2.68674E-14 1.07137E-14
 -1      2565 1.91096E+01-5.64537E+00-1.95085E-02-5.98545E+00-6.03961E-14-7.48013E-14
 -1      2566 1.96635E+01-4.95196E+00 1.99310E-02 8.07699E+00-4.14446E-13 1.04711E-13
 -1      2567 1.61936E+01-4.86599E+00 1.13741E-01 8.15633E+00-4.42063E-13 4.15445E-13
 -1      2568 2.52238E+00-2.20448E+00 8.42587E-02 6.89982E-01 6.34978E-14-2.06446E-13
 -1      2569 3.34201E+00-2.72053E+00 9.58965E-02-1.69457E+00 8.09908E-14-1.62648E-13
 -1      2570 1.99152E+01 2.81789E+00 2.58323E-03-1.09683E+00-2.81893E-15-1.29416E-13
 -1      2571 1.97845E+01 3.16155E+00-1.45565E-02-1.28281E+00-1.41830E-15-1.36351E-13
 -1      2572 1.98786E+01 3.03775E+00-1.75098E-02-1.48181E+00-2.72232E-14-1.40557E-13
 -1      2573 6.11589E+00-1.53303E+00 1.42596E-01-2.80566E+00 2.50078E-14 5.93969E-14
 -1      2574 2.03302E+01 5.90366E-01 9.13364E-03 8.70201E-01 8.30603E-14 2.80560E-13
 -1      2575 2.03919E+01 8.36319E-01 6.81580E-03 1.04621E+00 1.00399E-13 2.42356E-13
 -1      2576 2.01606E+01 4.89166E-01 7.92504E-03 6.61234E-01 7.32955E-14 2.63453E-13
 -1      2577 8.09732E+00-1.93300E+00 1.80601E-01 6.18367E+00-1.83548E-13 7.34413E-14
 -1      2578 2.00172E+01 2.42180E-02-2.83487E-05 4.34392E-02 2.55314E-14 1.89062E-13
 -1      2579 4.79647E+00-6.83834E-01 1.80543E-01 1.79968E+00 2.16355E-14 3.96905E-14
 -1      2580 1.70801E+01 1.00623E+00 5.05476E-02 4.75492E+00 1.74603E-13-7.86524E-14
 -1      2581 2.89837E+01-3.14006E+00 3.23513E-02 3.65371E+00-1.66811E-13-5.12812E-13
 -1      2582 1.29467E+01-3.44843E+00 9.77693E-02-5.81401E+00-1.31006E-14 6.98608E-14
 -1      2583 2.21183E+01-2.05616E+00 1.63449E-01-5.31147E+00-4.40759E-14-9.63396E-14
 -1      2584 1.77686E+01-1.29978E+00 8.36640E-02-5.64812E+00-3.83443E-14-1.30201E-13
 -1      2585 2.19523E+01-5.34330E+00 2.22869E-02-5.15905E+00-9.31477E-14 8.91752E-14
 -1      2586 2.31011E+01-6.38503E+00-7.45550E-02-4.65311E+00-1.05249E-13-2.15661E-14
 -1      2587 2.79740E+01-6.12341E+00-1.24216E-01-3.45184E+00-2.38254E-13-8.27671E-14
 -1      2588 2.77378E+01-5.45833E+00 3.04616E-02 3.32841E+00 2.02616E-15 2.29483E-13
 -1      2589 3.06980E+01-5.52132E+00-5.74602E-03 1.59875E+00-1.36224E-13 3.16053E-13
 -1      2590 2.01138E+01 2.62196E+00-1.16897E-02-1.67730E+00-5.85983E-14-1.29157E-13
 -1      2591 2.00026E+01 3.65852E-01 8.28384E-03 3.91238E-01 8.25165E-14 2.16980E-13
 -1      2592 2.00964E+01 4.33603E-01 1.17110E-02 5.34027E-01 6.34137E-14 2.34435E-13
 -1      2593 2.01848E+01 5.66218E-01-3.11978E-03 6.51293E-01 7.97556E-14 1.97527E-13
 -1      2594 2.00853E+01 4.38450E-01-5.40274E-03 4.05269E-01 6.79383E-14 1.64176E-13
 -1      2595 3.19264E+01 2.84433E+00-6.55237E-02 1.02936E+00 1.14797E-13-2.73670E-13
 -1      2596 2.00200E+01 3.82129E-02-9.60555E-05-4.55148E-02-3.67753E-13-1.74591E-13
 -1      2597 1.90285E+01-4.92635E+00 8.61747E-02-7.88848E+00 1.53544E-13-5.02339E-13
 -1      2598 2.16872E+01-5.00577E+00-8.92573E-03-6.84706E+00 7.50788E-14-2.46249E-13
 -1      2599 1.71811E+01-4.27869E+00 1.72251E-01-8.02698E+00 9.31200E-14-5.51406E-13
 -1      2600 3.38607E+01 5.84299E+00-4.88658E-02-7.99630E-01 4.97269E-13-6.83481E-13
 -1      2601 3.17249E+01 4.21060E+00-7.23568E-02-1.31429E+00 3.46556E-13-6.31495E-13
 -1      2602 3.17418E+01 6.62932E+00-2.38872E-01-1.40913E+00 4.40536E-13-5.60024E-13
 -1      2603 9.76176E+00-3.49395E+00 1.34051E-01-7.52714E+00 1.72556E-13-7.14956E-13
 -1      2604 1.28263E+01-3.54384E+00 3.09784E-02-7.90040E+00 2.05419E-13-6.61443E-13
 -1      2605 9.54497E+00-2.09162E+00 1.88229E-01-6.93630E+00 2.00506E-13-7.35301E-13
 -1      2606 3.01834E+01-1.97347E+00 2.86041E-03-1.79836E+00 4.33369E-14-3.90687E-13
 -1      2607 1.78772E+01-5.11717E+00 9.26320E-02 5.83417E+00 1.14186E-13 4.35624E-14
 -1      2608 1.66703E+01-3.72581E+00 9.45368E-02 6.08603E+00 5.40124E-14 1.01169E-13
 -1      2609 9.55782E+00-2.40054E+00 1.15245E-01 4.90022E+00 2.30815E-13 2.08167E-13
 -1      2610 2.34464E+01-3.98334E+00 5.76942E-02-4.96689E+00-2.39253E-14 1.23734E-13
 -1      2611 3.19677E+01 7.09774E+00-8.44629E-02 1.12789E+00 3.72008E-13-3.56201E-13
 -1      2612 3.26271E+01 8.42395E+00-1.32561E-01-8.26603E-02 4.00069E-13-4.92710E-13
 -1      2613 4.97246E+00-9.72345E-01 1.62867E-01 9.22451E-01 2.28401E-13-1.52933E-13
 -1      2614 2.98472E+01-5.67053E+00-1.12159E-02-2.10514E+00-2.61513E-13-1.33282E-13
 -1      2615 5.21529E+00-1.36304E+00 1.66438E-01-4.02245E+00 1.62578E-13-4.87721E-13
 -1      2616 2.26083E+01-5.07872E+00 3.01729E-02 6.73343E+00-4.84196E-13-2.72136E-13
 -1      2617 2.00211E+01 4.96395E-02-6.32266E-05-5.90281E-02-1.61905E-13-2.05308E-13
 -1      2618 2.25122E+01-5.59337E+00-1.20839E-02 5.21531E+00 6.06182E-14 1.36696E-13
 -1      2619 1.51232E+01-4.04483E+00 1.29701E-01 8.06863E+00-5.05679E-13 2.12191E-13
 -1      2620 1.98466E+01 2.76927E+00-6.30088E-03 5.15096E-01 1.08559E-13-4.20924E-14
 -1      2621 1.98217E+01 2.81919E+00-5.72344E-03 3.64587E-01 1.00338E-13-5.43359E-14
 -1      2622 1.98049E+01 2.85686E+00-5.62950E-03 2.29530E-01 9.04288E-14-7.41850E-14
 -1      2623 1.97964E+01 2.87379E+00-5.44667E-03 7.52897E-02 7.64130E-14-8.79951E-14
 -1      2624 1.99510E+01 2.50645E+00 3.65781E-03 2.64558E-01 8.77027E-14-6.06694E-14
 -1      2625 2.00447E+01 2.32643E+00-1.09399E-02 1.04363E+00 1.38407E-13 4.43708E-14
 -1      2626 1.99804E+01 2.47643E+00-6.38991E-03 9.08401E-01 1.38991E-13 1.58007E-14
 -1      2627 2.02069E+01 1.91591E+00-1.64995E-02 1.23212E+00 1.37857E-13 1.03601E-13
 -1      2628 2.01257E+01 2.14880E+00-4.79901E-03 1.12990E+00 1.35380E-13 7.91255E-14
 -1      2629 2.01909E+01 1.89419E+00 7.75842E-03 9.25179E-01 1.26621E-13 6.51560E-14
 -1      2630 2.04429E+01 1.01369E+00 2.22529E-03 1.15273E+00 1.02677E-13 2.25546E-13
 -1      2631 2.04001E+01 1.27559E+00-7.16759E-03 1.26509E+00 1.23186E-13 2.00271E-13
 -1      2632 2.03133E+01 8.47288E-01 6.15692E-03 8.97154E-01 9.28259E-14 2.07378E-13
 -1      2633 2.03135E+01 1.06218E+00 3.26687E-03-8.54919E-01-5.47520E-14-6.12178E-14
 -1      2634 2.02267E+01 8.18079E-01-5.71713E-03-6.08777E-01-5.39313E-14-5.06721E-14
 -1      2635 2.03317E+01-1.42896E+00 7.51096E-02 5.51375E+00 9.15240E-14 4.22717E-14
 -1      2636 1.84792E+01-2.45021E+00 8.72359E-02 5.78852E+00 9.46604E-14-3.21965E-14
 -1      2637 2.02194E+01 6.29137E-01 8.62611E-03-4.34837E-01-4.72799E-14-5.08799E-14
 -1      2638 2.01343E+01 4.79113E-01-3.32939E-03-2.74590E-01-3.40132E-14-3.63765E-14
 -1      2639 2.02604E+01 8.84820E-01-3.38712E-03-5.65228E-01-4.38439E-14-6.79483E-14
 -1      2640 2.01094E+01 3.66753E-01 6.70052E-03-1.53004E-01-3.41161E-14-4.26109E-14
 -1      2641 2.00513E+01 2.72438E-01-1.68470E-03-5.41123E-02-4.32983E-14-5.28310E-14
 -1      2642 2.01977E+01 5.33972E-01-1.65589E-03-2.55936E-01-4.62120E-14-6.36546E-14
 -1      2643 2.00257E+01 2.03083E-01 4.47137E-03 2.25604E-02-2.93608E-14-3.72299E-14
 -1      2644 1.99914E+01 1.44849E-01-7.12082E-04 8.09572E-02-2.25104E-14-3.67621E-14
 -1      2645 2.01307E+01 3.04977E-01-2.11311E-03-4.71838E-02-3.62849E-14-6.43681E-14
 -1      2646 1.99712E+01 1.02096E-01 2.85732E-03 1.26628E-01-4.28327E-14-3.95311E-14
 -1      2647 1.99552E+01 6.65805E-02-1.32222E-04 1.58689E-01-5.11219E-14-5.71335E-14
 -1      2648 2.00756E+01 1.61974E-01-1.94141E-03 8.40796E-02-4.36355E-14-7.76509E-14
 -1      2649 1.99412E+01 4.10422E-02 1.66829E-03 1.83401E-01-4.52027E-14-6.07309E-14
 -1      2650 1.99382E+01 2.07612E-02 2.25836E-04 1.99019E-01-5.67654E-14-5.13624E-14
 -1      2651 2.00365E+01 7.38732E-02-1.56827E-03 1.60876E-01-5.70994E-14-7.63721E-14
 -1      2652 1.99295E+01 6.99946E-03 8.23071E-04 2.10603E-01-5.10670E-14-2.58258E-14
 -1      2653 1.99352E+01-2.58935E-03 4.64669E-04 2.16782E-01-4.25992E-14 7.27093E-18
 -1      2654 2.00117E+01 2.28173E-02-1.18887E-03 2.01671E-01-2.94378E-14-3.08778E-14
 -1      2655 1.99305E+01-7.85154E-03 2.21521E-04 2.21116E-01-2.60236E-14 3.48551E-14
 -1      2656 1.99421E+01-9.46351E-03 6.52454E-04 2.22970E-01-2.48734E-14 6.63243E-14
 -1      2657 1.99978E+01-2.14160E-03-8.57799E-04 2.20695E-01-1.28550E-14 8.52824E-14
 -1      2658 1.99399E+01-8.09759E-03-2.24487E-04 2.24508E-01-5.32593E-14 8.98762E-14
 -1      2659 1.99553E+01-3.15739E-03 8.34119E-04 2.25981E-01 5.79457E-15 5.94753E-14
 -1      2660 1.99918E+01-7.62102E-03-5.74813E-04 2.28687E-01-1.04922E-14 1.49512E-13
 -1      2661 1.99541E+01 4.03288E-03-5.93962E-04 2.28246E-01 2.93352E-14 6.27789E-14
 -1      2662 1.99722E+01 1.51732E-02 1.04125E-03 2.32663E-01 4.15357E-14 1.79359E-14
 -1      2663 1.99904E+01 2.84808E-03-3.13127E-04 2.33923E-01-6.50236E-15 1.45194E-13
 -1      2664 1.99702E+01 2.83550E-02-9.65142E-04 2.38659E-01 4.54418E-14-6.24880E-15
 -1      2665 1.99902E+01 4.64093E-02 1.30017E-03 2.49193E-01 6.61995E-14-1.55441E-14
 -1      2666 1.99904E+01 2.82802E-02-2.56680E-05 2.43103E-01 1.48377E-14 3.03081E-14
 -1      2667 1.99847E+01 6.67416E-02-1.43983E-03 2.61773E-01 5.25416E-14-4.71640E-14
 -1      2668 2.00059E+01 9.37118E-02 1.71106E-03 2.81861E-01 3.32972E-14-6.87324E-14
 -1      2669 1.99875E+01 7.01896E-02 3.65492E-04 2.62105E-01 3.18091E-14-3.64187E-14
 -1      2670 1.99925E+01 1.25509E-01-2.11061E-03 3.05238E-01 5.28238E-15-4.81925E-14
 -1      2671 2.00134E+01 1.66962E-01 2.13045E-03 3.41476E-01-3.55996E-14-6.57209E-14
 -1      2672 1.99754E+01 1.34421E-01 8.36328E-04 2.97820E-01 3.44515E-14-6.74691E-14
 -1      2673 1.99857E+01 2.11409E-01-3.10998E-03 3.77241E-01-2.30646E-14-4.72291E-14
 -1      2674 2.00019E+01 2.68859E-01 2.41060E-03 4.31356E-01 1.00701E-15-4.00528E-14
 -1      2675 1.99443E+01 2.28861E-01 1.99651E-03 3.55729E-01-7.11431E-15-5.84280E-14
 -1      2676 1.99496E+01 3.33360E-01-4.60737E-03 4.84019E-01-1.37297E-14-2.35832E-14
 -1      2677 1.99554E+01 4.15780E-01 2.70961E-03 5.64339E-01-4.55518E-14-3.00069E-14
 -1      2678 1.98792E+01 3.61327E-01 3.65949E-03 4.40342E-01-2.01351E-14-5.10716E-15
 -1      2679 1.98606E+01 5.08299E-01-6.88758E-03 6.37978E-01-2.40465E-14-2.26835E-14
 -1      2680 1.98436E+01 6.24894E-01 2.66743E-03 7.52663E-01-3.09339E-14-1.66465E-14
 -1      2681 1.97539E+01 5.49743E-01 6.42941E-03 5.58531E-01-2.47608E-14-1.02417E-13
 -1      2682 1.96789E+01 7.54670E-01-1.02753E-02 8.51049E-01-6.17029E-14-2.31116E-14
 -1      2683 1.96171E+01 9.14551E-01 1.89993E-03 1.00882E+00-6.77357E-14-5.10020E-14
 -1      2684 1.95266E+01 8.12990E-01 1.09148E-02 7.14579E-01-5.29754E-14-6.44504E-14
 -1      2685 1.93402E+01 1.08858E+00-1.51492E-02 1.13454E+00-9.03402E-14-1.01288E-13
 -1      2686 1.91980E+01 1.29508E+00 1.38945E-04 1.34283E+00-1.24228E-13-1.51641E-13
 -1      2687 1.91317E+01 1.16849E+00 1.80186E-02 9.08760E-01-1.13007E-13-1.33532E-13
 -1      2688 1.87464E+01 1.50858E+00-2.15792E-02 1.49699E+00-4.26094E-14-1.14942E-13
 -1      2689 1.84733E+01 1.74486E+00-1.68777E-03 1.75953E+00 7.79641E-14-3.88422E-14
 -1      2690 1.84698E+01 1.61941E+00 2.92829E-02 1.13480E+00-3.91295E-14-1.54612E-13
 -1      2691 1.77596E+01 1.96114E+00-2.76530E-02 1.94476E+00 6.23715E-14-3.72471E-14
 -1      2692 1.73099E+01 2.16304E+00 6.54866E-03 2.26035E+00 5.39907E-14-7.73149E-14
 -1      2693 1.73980E+01 2.12554E+00 4.81633E-02 1.38105E+00 7.83173E-14-2.21246E-13
 -1      2694 1.62173E+01 2.27347E+00-1.92793E-02 2.52033E+00 1.54547E-13 3.59088E-15
 -1      2695 1.56132E+01 2.24322E+00 5.41765E-02 2.88190E+00 2.18998E-13-2.10942E-15
 -1      2696 1.56853E+01 2.55008E+00 7.48129E-02 1.64050E+00 1.52612E-13-7.19190E-14
 -1      2697 2.90301E+01-2.97910E+00-1.69656E-01 1.94871E+00-1.58502E-13-5.03986E-13
 -1      2698 2.70428E+01-4.21148E+00 4.43318E-02 3.92825E+00-2.70478E-13-5.18349E-13
 -1      2699 2.00160E+01 2.88725E-02 2.48107E-06 5.23031E-02-1.23013E-13 1.28884E-13
 -1      2700 2.00221E+01 2.20706E-02 1.82639E-04 4.99739E-02-2.07911E-13 1.61168E-13
 -1      2701 2.00286E+01 1.86904E-02 1.99727E-05 5.52048E-02-4.16807E-13 6.76617E-14
 -1      2702 3.00219E+01 5.83973E+00-1.37666E-01 1.71468E+00 1.70919E-13-9.32310E-14
 -1      2703 2.96041E+01 7.09667E+00-2.14680E-01 1.11622E+00 2.27734E-13-1.02925E-13
 -1      2704 1.73499E+01-5.31266E-01 1.41690E-01 5.54402E+00 1.93734E-13-1.02113E-13
 -1      2705 2.72653E+01-4.60280E+00 1.49076E-01-3.78467E+00-7.25253E-14 1.51563E-13
 -1      2706 5.89157E+00 1.29243E-01 2.02908E-01-2.72534E+00 1.72112E-13-4.17999E-13
 -1      2707 7.22968E+00-6.37969E-01 1.56276E-01-4.95611E+00 2.06363E-13-6.49952E-13
 -1      2708 1.73567E+01 2.10023E+00 1.85042E-02-3.01408E+00-1.00077E-13-1.15258E-13
 -1      2709 1.77265E+01 2.01285E+00-2.90413E-02-2.60021E+00 8.53254E-14-1.84201E-13
 -1      2710 1.85425E+01 1.85660E+00 6.42196E-03-2.29962E+00 2.65728E-13-3.15669E-13
 -1      2711 1.87696E+01 1.64132E+00-2.45801E-02-1.95450E+00 1.92007E-13-2.63584E-13
 -1      2712 1.70847E+01 2.29012E+00 5.39601E-02-1.96265E+00 9.51197E-14-1.99128E-13
 -1      2713 1.92898E+01 1.43344E+00 4.48303E-03-1.72131E+00 1.03292E-13-2.89364E-13
 -1      2714 1.94020E+01 1.21888E+00-1.76967E-02-1.44546E+00-1.00988E-13-3.25974E-13
 -1      2715 1.83205E+01 1.82111E+00 3.41908E-02-1.54246E+00 1.34481E-13-5.22210E-13
 -1      2716 1.97209E+01 1.03531E+00 5.10784E-03-1.26125E+00-3.10830E-13-1.88599E-13
 -1      2717 1.97588E+01 8.61374E-01-1.18994E-02-1.05103E+00-2.76990E-13-6.05139E-14
 -1      2718 1.90791E+01 1.34576E+00 2.10522E-02-1.18648E+00-1.70628E-13-3.13044E-13
 -1      2719 1.99464E+01 7.20534E-01 5.09307E-03-9.08750E-01-1.34153E-13 1.57934E-14
 -1      2720 1.99448E+01 5.92018E-01-7.79193E-03-7.54403E-01-8.63954E-14-5.07304E-15
 -1      2721 1.95281E+01 9.53219E-01 1.27297E-02-8.93401E-01-1.37445E-13-9.61091E-15
 -1      2722 2.00508E+01 4.91260E-01 4.47045E-03-6.47286E-01-7.54613E-14-1.84821E-13
 -1      2723 2.00317E+01 4.00892E-01-5.01579E-03-5.36817E-01 2.13523E-15-1.52155E-13
 -1      2724 1.97822E+01 6.58698E-01 7.43330E-03-6.61035E-01-1.46768E-13-2.73509E-13
 -1      2725 2.00889E+01 3.31512E-01 3.61879E-03-4.57867E-01 5.68883E-14-7.93638E-14
 -1      2726 2.00646E+01 2.69785E-01-3.18259E-03-3.80045E-01 1.70862E-13 4.35717E-14
 -1      2727 1.99189E+01 4.49011E-01 4.17244E-03-4.82901E-01 8.66877E-14-3.60342E-13
 -1      2728 2.00934E+01 2.23104E-01 2.78393E-03-3.22703E-01 2.40673E-13 1.40501E-13
 -1      2729 2.00697E+01 1.81756E-01-1.98531E-03-2.68289E-01 3.08780E-13 2.36529E-13
 -1      2730 1.99876E+01 3.04347E-01 2.23847E-03-3.49741E-01 2.19675E-13 1.84407E-14
 -1      2731 2.00826E+01 1.50901E-01 2.07133E-03-2.26922E-01 3.34889E-13 2.93203E-13
 -1      2732 2.00620E+01 1.23654E-01-1.22384E-03-1.88826E-01 3.72347E-13 3.66460E-13
 -1      2733 2.00181E+01 2.06667E-01 1.13346E-03-2.51804E-01 3.00790E-13 3.68166E-13
 -1      2734 2.00663E+01 1.03583E-01 1.50048E-03-1.58915E-01 3.40907E-13 1.91523E-13
 -1      2735 2.00496E+01 8.60230E-02-6.86492E-04-1.32003E-01 3.07587E-13 6.43691E-14
 -1      2736 2.00281E+01 1.41794E-01 4.78380E-04-1.80106E-01 2.44845E-13 2.92185E-13
 -1      2737 2.00492E+01 7.34886E-02 1.10850E-03-1.10129E-01 1.67697E-13 5.14249E-14
 -1      2738 2.00356E+01 6.25762E-02-3.24650E-04-9.04978E-02-5.65516E-14-1.32465E-13
 -1      2739 2.00276E+01 9.96706E-02 1.20837E-04-1.27724E-01 2.03737E-13 1.43178E-13
 -1      2740 2.00285E+01 5.53060E-02 4.20479E-04-7.11934E-02-6.76580E-14-2.23491E-13
 -1      2741 1.99877E+01 1.94525E-01-9.40653E-04-1.93416E-02 7.80855E-14 1.13507E-13
 -1      2742 2.00351E+01 2.66352E-01 5.92971E-03 5.77775E-02 8.52950E-14 1.14582E-13
 -1      2743 1.99385E+01 9.73774E-02-2.88377E-04-1.24083E-01 1.88844E-14 1.16534E-13
 -1      2744 1.99629E+01 1.41806E-01 3.80685E-03-8.03540E-02 5.35064E-14 1.16709E-13
 -1      2745 2.00752E+01 2.19772E-01-2.22099E-03-2.34438E-02 6.16211E-14 4.85397E-14
 -1      2746 2.00661E+01 3.51343E-01-1.83626E-03 1.57831E-01 7.42053E-14 1.26296E-13
 -1      2747 2.01429E+01 4.64560E-01 7.99987E-03 2.85145E-01 5.60076E-14 1.30982E-13
 -1      2748 2.01426E+01 3.96150E-01-2.37026E-03 1.48177E-01 8.66668E-14 6.27429E-14
 -1      2749 1.99052E+01 2.92690E-03 2.76419E-04-2.06392E-01 2.76443E-14 8.05833E-14
 -1      2750 1.99023E+01 1.85164E-02 1.28201E-03-1.97544E-01 3.94077E-14 8.81795E-14
 -1      2751 1.99097E+01-1.62149E-02 3.71876E-04-2.13116E-01-1.18594E-15 5.67250E-14
 -1      2752 1.98999E+01-8.01144E-03 5.96171E-04-2.12237E-01 1.55443E-14 6.61085E-14
 -1      2753 1.99777E+01 1.17164E-03-1.05405E-03-2.09817E-01 1.21653E-14 6.34500E-14
 -1      2754 1.99225E+01-2.53885E-02 4.00078E-04-2.09008E-01 5.48719E-14 1.37376E-14
 -1      2755 1.99086E+01-2.17217E-02 1.64601E-04-2.12536E-01 1.84433E-14 1.37708E-14
 -1      2756 1.99712E+01-2.05343E-02-7.64543E-04-2.17490E-01 3.39122E-14-2.38415E-14
 -1      2757 1.99408E+01-2.91317E-02 3.72696E-04-1.99231E-01 6.69027E-14 3.77236E-14
 -1      2758 1.99246E+01-2.77634E-02-7.49842E-05-2.05021E-01 6.26686E-14-6.83460E-15
 -1      2759 1.99727E+01-3.09688E-02-5.63597E-04-2.14456E-01 5.63509E-14-2.93241E-14
 -1      2760 1.99631E+01-3.13044E-02 2.85949E-04-1.86523E-01 7.18255E-14 1.02985E-13
 -1      2761 1.99458E+01-3.02815E-02-1.63056E-04-1.93589E-01 6.91368E-14 5.72963E-14
 -1      2762 1.99804E+01-3.55980E-02-4.44447E-04-2.05801E-01 4.14689E-14-3.31866E-14
 -1      2763 1.99887E+01-3.55448E-02 1.24487E-04-1.71488E-01 8.36742E-14 6.90108E-14
 -1      2764 1.99709E+01-3.29854E-02-1.22362E-04-1.79880E-01 1.01001E-13 1.13207E-13
 -1      2765 1.99937E+01-3.91684E-02-4.00833E-04-1.94171E-01 7.19527E-14 1.78900E-14
 -1      2766 2.00177E+01-4.55400E-02-1.35984E-04-1.52675E-01 1.44971E-14 7.88801E-14
 -1      2767 1.99999E+01-3.95143E-02 3.79416E-05-1.63451E-01 8.88697E-14 6.43240E-14
 -1      2768 2.00128E+01-4.62183E-02-4.29270E-04-1.80010E-01 7.54912E-14 3.18403E-14
 -1      2769 2.00507E+01-6.50716E-02-5.25174E-04-1.26560E-01 2.49782E-14 5.00517E-14
 -1      2770 2.00334E+01-5.36095E-02 3.16047E-04-1.41788E-01-8.30374E-15 4.99524E-14
 -1      2771 2.00388E+01-6.13523E-02-5.26089E-04-1.61609E-01 4.19885E-14 1.09903E-14
 -1      2772 2.00886E+01-9.77247E-02-1.07192E-03-8.75063E-02 6.33503E-14 2.57087E-14
 -1      2773 2.00723E+01-7.90135E-02 7.08474E-04-1.10245E-01 6.00910E-14 6.52381E-14
 -1      2774 2.00739E+01-8.92156E-02-6.83029E-04-1.35032E-01 3.39914E-14 4.81069E-15
 -1      2775 2.01318E+01-1.46091E-01-1.79090E-03-2.79261E-02 4.87980E-14 1.67975E-14
 -1      2776 2.01176E+01-1.18961E-01 1.19589E-03-6.20497E-02 5.81517E-14-3.65781E-14
 -1      2777 2.01207E+01-1.34009E-01-8.75796E-04-9.40290E-02 6.65055E-14 1.75873E-14
 -1      2778 2.01800E+01-2.10267E-01-2.65953E-03 6.10939E-02-8.97329E-15-8.11669E-15
 -1      2779 2.01696E+01-1.75064E-01 1.72187E-03 1.13661E-02 6.44894E-15 8.57414E-16
 -1      2780 2.01819E+01-1.98325E-01-1.04887E-03-3.01329E-02 1.46238E-14-7.29549E-14
 -1      2781 2.02300E+01-2.85583E-01-3.58132E-03 1.88259E-01-7.76830E-14 9.68157E-15
 -1      2782 2.02266E+01-2.45432E-01 2.16783E-03 1.19343E-01 3.35458E-15 6.61064E-14
 -1      2783 2.02589E+01-2.81080E-01-1.09926E-03 6.67178E-02-3.96964E-14-3.61734E-14
 -1      2784 2.02753E+01-3.59865E-01-4.34122E-03 3.59136E-01-1.54501E-13 9.46491E-14
 -1      2785 2.02830E+01-3.22111E-01 2.33419E-03 2.69766E-01-1.59619E-13 2.77483E-14
 -1      2786 2.03502E+01-3.74541E-01-8.68727E-04 2.06497E-01-1.26507E-13 3.41096E-14
 -1      2787 2.03034E+01-4.11250E-01-4.56330E-03 5.71473E-01-1.85664E-13 1.64656E-13
 -1      2788 2.03279E+01-3.88436E-01 1.94810E-03 4.65119E-01-1.44406E-13 1.36882E-13
 -1      2789 2.04480E+01-4.60993E-01-1.70233E-04 3.95677E-01-1.93351E-13 6.91087E-14
 -1      2790 2.02966E+01-4.08668E-01-3.74395E-03 8.09001E-01-9.33747E-14 1.41552E-13
 -1      2791 2.03436E+01-4.17791E-01 7.53346E-04 6.96671E-01-1.06437E-13 2.04345E-13
 -1      2792 2.05362E+01-5.10585E-01 1.13372E-03 6.31537E-01-1.65857E-13 8.33723E-14
 -1      2793 2.02344E+01-3.18053E-01-1.46238E-03 1.03544E+00 2.27832E-14 1.27351E-13
 -1      2794 2.03078E+01-3.76461E-01-1.37526E-03 9.37677E-01-5.68339E-14 1.52287E-13
 -1      2795 2.05891E+01-4.83262E-01 2.93505E-03 8.94347E-01-5.54174E-14 1.07255E-13
 -1      2796 2.01022E+01-1.16783E-01 2.23196E-03 1.19281E+00 3.99875E-14 9.96078E-14
 -1      2797 2.02001E+01-2.33584E-01-4.12220E-03 1.13877E+00 3.57678E-14 8.72871E-14
 -1      2798 2.05759E+01-3.38953E-01 4.56384E-03 1.13972E+00 6.67355E-14-9.54911E-16
 -1      2799 1.99037E+01 1.85668E-01 6.40712E-03 1.21087E+00 3.41840E-14 1.77708E-13
 -1      2800 2.00155E+01 2.05609E-02-6.49085E-03 1.23166E+00 3.36333E-14 1.01981E-13
 -1      2801 2.04734E+01-5.80314E-02 4.85519E-03 1.29706E+00 1.37598E-14 5.07970E-14
 -1      2802 1.96727E+01 5.32243E-01 9.29243E-03 1.03189E+00 5.74208E-14 1.65025E-13
 -1      2803 1.97784E+01 3.54438E-01-7.05009E-03 1.14771E+00 7.36130E-14 2.12217E-13
 -1      2804 2.02856E+01 3.33785E-01 2.78306E-03 1.28355E+00-1.04436E-16 8.80580E-14
 -1      2805 1.94718E+01 8.25238E-01 9.24105E-03 6.45204E-01-2.91135E-14 8.72022E-14
 -1      2806 1.95471E+01 6.88410E-01-4.44126E-03 8.50960E-01 5.51406E-14 8.94846E-14
 -1      2807 2.00586E+01 7.51496E-01-1.39577E-03 1.03808E+00 1.14032E-13 3.45034E-15
 -1      2808 1.93707E+01 9.63272E-01 5.66134E-03 1.10019E-01-8.35226E-14 2.57417E-13
 -1      2809 1.93952E+01 9.16900E-01 8.23960E-04 3.69369E-01-1.32334E-13 1.48266E-13
 -1      2810 1.98733E+01 1.07110E+00-5.32021E-03 5.63985E-01-5.42404E-14 3.94552E-14
 -1      2811 1.94112E+01 8.92755E-01 3.45036E-06-4.53381E-01-8.44604E-15 3.40709E-13
 -1      2812 1.93777E+01 9.55216E-01 6.44630E-03-1.98760E-01 2.25503E-15 3.14630E-13
 -1      2813 1.98092E+01 1.17908E+00-6.75011E-03-4.95541E-02-1.23087E-13 1.00449E-13
 -1      2814 1.95805E+01 6.41321E-01-4.85180E-03-9.11529E-01 2.19663E-14 2.51822E-13
 -1      2815 1.94987E+01 7.88173E-01 9.67849E-03-7.17923E-01 4.33028E-14 3.47469E-13
 -1      2816 1.98963E+01 1.03367E+00-4.63497E-03-6.50696E-01 4.28280E-14 1.59818E-13
 -1      2817 1.98183E+01 3.00802E-01-6.87951E-03-1.17552E+00 1.10580E-13 7.86312E-14
 -1      2818 1.97097E+01 4.79713E-01 9.24901E-03-1.07473E+00 1.23308E-13 1.70533E-13
 -1      2819 2.00946E+01 6.90644E-01-2.40539E-04-1.09344E+00 1.91199E-13 1.15738E-13
 -1      2820 2.00508E+01-2.38371E-02-6.05760E-03-1.22898E+00 3.06778E-14-1.77455E-13
 -1      2821 1.99397E+01 1.34871E-01 5.91105E-03-1.22117E+00 3.03181E-14-7.39014E-14
 -1      2822 2.03208E+01 2.69586E-01 3.54705E-03-1.30126E+00 1.81010E-13-1.19059E-14
 -1      2823 2.02249E+01-2.60105E-01-3.60142E-03-1.11594E+00 6.08029E-14-9.46505E-14
 -1      2824 2.01298E+01-1.53090E-01 1.60803E-03-1.17804E+00 3.83522E-14-9.63950E-14
 -1      2825 2.04975E+01-1.07711E-01 5.01327E-03-1.28404E+00 9.77869E-15-1.48323E-13
 -1      2826 2.03217E+01-3.84180E-01-9.24314E-04-9.06938E-01 2.98101E-15-2.86214E-14
 -1      2827 2.02516E+01-3.35213E-01-1.94476E-03-1.00742E+00 7.52486E-14-5.14721E-14
 -1      2828 2.05859E+01-3.65886E-01 4.31556E-03-1.10951E+00 2.43781E-14-6.90101E-15
 -1      2829 2.03498E+01-4.10417E-01 1.09237E-03-6.68126E-01-4.28342E-14-7.01484E-14
 -1      2830 2.03053E+01-4.08466E-01-3.99028E-03-7.78861E-01-3.90799E-14-1.37842E-13
 -1      2831 2.05878E+01-4.87824E-01 2.58567E-03-8.60309E-01 2.03762E-14-1.47598E-14
 -1      2832 2.03306E+01-3.70956E-01 2.18361E-03-4.45492E-01-4.42906E-14 1.01092E-13
 -1      2833 2.03073E+01-3.98354E-01-4.61654E-03-5.47348E-01-7.45411E-14 1.61092E-14
 -1      2834 2.05288E+01-4.97973E-01 8.52189E-04-6.03382E-01-6.17820E-14 4.99562E-14
 -1      2835 2.02862E+01-2.98780E-01 2.49428E-03-2.62830E-01 1.14292E-13 5.76447E-14
 -1      2836 2.02781E+01-3.39093E-01-4.29054E-03-3.46019E-01 5.63497E-14 1.20145E-13
 -1      2837 2.04394E+01-4.37289E-01-3.60292E-04-3.79202E-01-2.59153E-14 8.56903E-14
 -1      2838 2.02335E+01-2.18917E-01 2.30688E-03-1.26955E-01-9.40038E-14 1.45326E-13
 -1      2839 2.02350E+01-2.60473E-01-3.49950E-03-1.88787E-01 6.74800E-14 8.82797E-14
 -1      2840 2.03439E+01-3.44533E-01-9.78063E-04-2.04569E-01 2.11291E-14 6.92810E-14
 -1      2841 2.01825E+01-1.46455E-01 1.88209E-03-3.45107E-02 3.77252E-14 2.01805E-13
 -1      2842 2.01894E+01-1.82690E-01-2.59281E-03-7.65958E-02-8.19222E-14 2.14179E-13
 -1      2843 2.02573E+01-2.47570E-01-1.15265E-03-8.05750E-02-5.49675E-14 9.73180E-14
 -1      2844 2.01383E+01-8.81847E-02 1.40274E-03 2.25013E-02 4.16878E-14 5.47736E-14
 -1      2845 2.01477E+01-1.16512E-01-1.76439E-03-3.44890E-03 1.03088E-13 1.08504E-13
 -1      2846 2.01861E+01-1.62279E-01-1.07083E-03-2.00301E-04 4.68826E-15-1.25684E-14
 -1      2847 2.01022E+01-4.53283E-02 9.70796E-04 5.31378E-02 1.85397E-13-9.36032E-14
 -1      2848 2.01123E+01-6.56934E-02-1.09755E-03 3.92426E-02 2.02114E-14 3.52876E-14
 -1      2849 2.01311E+01-9.51328E-02-8.80510E-04 4.64105E-02 1.06073E-13 2.47868E-13
 -1      2850 2.00739E+01-1.59688E-02 6.47667E-04 6.55567E-02 2.12767E-13-3.54852E-14
 -1      2851 2.00835E+01-2.96577E-02-6.11031E-04 6.00395E-02 2.55924E-13 4.45756E-14
 -1      2852 2.00907E+01-4.65219E-02-6.67573E-04 6.89619E-02 1.89131E-13 3.09532E-13
 -1      2853 2.00522E+01 2.87215E-03 4.58294E-04 6.60967E-02-5.75578E-14-5.67183E-14
 -1      2854 2.00607E+01-5.81233E-03-3.10258E-04 6.60160E-02 5.74984E-14-7.94136E-14
 -1      2855 2.00617E+01-1.36060E-02-4.99487E-04 7.54751E-02 1.74289E-13 2.92741E-13
 -1      2856 2.00353E+01 1.44949E-02 2.92055E-04 6.00841E-02-3.16965E-13 3.05526E-14
 -1      2857 2.00427E+01 9.11099E-03-1.32049E-04 6.33423E-02-1.51751E-13-1.58976E-13
 -1      2858 2.00412E+01 7.23814E-03-3.43468E-04 7.25949E-02-5.99370E-14 2.53984E-13
 -1      2859 2.00264E+01 2.02126E-02-3.11240E-04 6.43771E-02-3.74765E-13 1.85598E-13
 -1      2860 6.40130E+00 4.40267E-01 1.30026E-01 2.73701E+00 4.79408E-14-3.30291E-15
 -1      2861 6.21019E+00 6.75800E-01 2.35396E-01 3.27409E-02 3.09371E-14 3.20577E-14
 -1      2862 1.99727E+01 9.32295E-02-4.80516E-04 4.61825E-02 1.06887E-14-1.17412E-13
 -1      2863 1.99794E+01 8.57748E-02 3.27242E-04 5.21421E-02-4.82601E-14 7.48344E-14
 -1      2864 3.00526E+01 1.31557E+00-9.00833E-02 1.23629E+00 5.16392E-14-1.20834E-13
 -1      2865 3.01998E+01 3.66171E+00-1.96130E-01 1.72901E+00 1.33837E-13-1.03056E-13
 -1      2866 1.99857E+01 7.44470E-02-3.55834E-04 5.63328E-02-1.04106E-13-9.61345E-14
 -1      2867 1.99922E+01 6.64185E-02 3.27026E-04 5.88431E-02 4.24488E-14-3.36007E-13
 -1      2868 1.99787E+01 7.89885E-02-8.52033E-05 6.26914E-02 1.06501E-13-4.04535E-14
 -1      2869 2.00117E+01 3.60887E-02-9.35711E-05 5.53456E-02-1.68936E-13-1.04265E-13
 -1      2870 1.99613E+01 1.10282E-01-5.57056E-04 2.83177E-02 1.57537E-13 9.38939E-14
 -1      2871 1.99669E+01 1.04434E-01 2.41213E-04 3.76971E-02 2.73254E-13-2.69447E-13
 -1      2872 1.99629E+01 1.00588E-01 8.82114E-05 4.99018E-02 1.33356E-13-1.24818E-14
 -1      2873 2.01816E+01 2.27376E+00 3.58548E-04-1.42187E+00-4.31391E-14-1.09749E-13
 -1      2874 1.99130E+01 3.79590E-02 7.98375E-05-1.80705E-01 4.57731E-14 1.06014E-13
 -1      2875 1.99210E+01 6.49223E-02 2.31088E-03-1.58453E-01 3.31383E-14 1.27035E-13
 -1      2876 2.00263E+01 1.09044E-01-1.86092E-03-1.26708E-01 3.29394E-14 6.43938E-14
 -1      2877 1.99950E+01 4.11182E-02-1.43087E-03-1.83434E-01 4.64396E-14 6.09119E-14
 -1      2878 1.99542E+01 1.22596E-01-5.32232E-04 3.86593E-03 1.14158E-14 4.77586E-13
 -1      2879 1.99572E+01 1.19459E-01 6.40543E-05 1.58356E-02 4.12423E-15 4.39152E-13
 -1      2880 1.99499E+01 1.20299E-01 3.31723E-04 2.81896E-02 1.01544E-13 1.17272E-13
 -1      2881 1.99545E+01 1.27105E-01-3.84421E-04-2.36167E-02 1.22161E-13-5.65063E-14
 -1      2882 1.99534E+01 1.27550E-01-1.91840E-04-1.10103E-02-5.11740E-14 4.81916E-13
 -1      2883 1.99432E+01 1.34175E-01 5.74124E-04-5.78256E-04-4.34537E-14 4.21419E-13
 -1      2884 1.99642E+01 1.21825E-01-9.37391E-05-5.03813E-02-1.61066E-14-3.38822E-13
 -1      2885 1.99581E+01 1.26236E-01-4.81818E-04-3.89999E-02 7.91807E-14-4.53430E-13
 -1      2886 1.99460E+01 1.38664E-01 7.29888E-04-3.27687E-02-6.88466E-14-2.48300E-13
 -1      2887 1.99828E+01 1.05992E-01 2.39938E-04-6.98913E-02-1.46287E-13-2.34922E-13
 -1      2888 1.99724E+01 1.13999E-01-7.20943E-04-6.27239E-02 6.94971E-15-2.24292E-13
 -1      2889 1.99608E+01 1.31038E-01 8.41993E-04-6.28602E-02-1.35404E-13-2.96206E-13
 -1      2890 1.03861E+01-1.79470E+00 6.30965E-02 6.91068E+00-2.34798E-13 4.80727E-14
 -1      2891 7.98833E+00-4.74663E-01 2.11963E-01 5.07503E+00-3.42504E-14-9.68114E-14
 -1      2892 3.52890E+01-4.96378E+00-6.58604E-02-6.04201E-01-7.81042E-14 8.08797E-14
 -1      2893 1.75943E+01-3.90671E+00-1.41500E-02 7.58769E+00-4.65780E-13 1.77608E-13
 -1      2894 1.41188E+01-2.67932E+00 2.06314E-01 7.39108E+00-4.23758E-13 2.01478E-13
 -1      2895 6.85002E+00 1.03591E-01 1.27892E-01-2.16310E+00-7.77156E-16 1.69975E-13
 -1      2896 8.89561E+00-7.76147E-01 1.74287E-01-4.20844E+00-8.44186E-14 2.17326E-13
 -1      2897 7.13960E+00 1.54055E-01 1.89635E-01 2.43680E+00 2.52506E-13-3.33067E-14
 -1      2898 5.74956E+00 3.92068E-01 1.52957E-01-2.60526E-01 1.88849E-13-1.50435E-13
 -1      2899 2.85578E+01-3.27283E+00-1.56600E-02-2.19845E+00 6.25142E-14-2.83509E-13
 -1      2900 2.97389E+01-1.41312E+00-1.27270E-01-2.82002E-01 2.04142E-14-1.85851E-13
 -1      2901 2.99749E+01 7.95636E+00-1.94773E-01-6.46143E-02 3.47139E-13-2.93710E-13
 -1      2902 3.10918E+01 7.77916E+00-1.55880E-01-8.58442E-01 3.72424E-13-3.71154E-13
 -1      2903 1.50834E+01-2.03086E+00 2.06481E-01 5.82781E+00 1.54349E-13 3.19744E-14
 -1      2904 2.53642E+01-4.66975E+00 9.20856E-03-4.80465E+00 1.38174E-13-3.12764E-13
 -1      2905 2.73472E+01-4.22944E+00-7.74822E-02-3.58561E+00 6.77444E-14-2.86979E-13
 -1      2906 2.78531E+01-3.52230E+00 1.98310E-03-2.01770E+00 1.58233E-14-1.60004E-13
 -1      2907 3.03835E+01-5.69967E+00-1.33839E-01 2.27957E+00-1.66589E-13 3.36287E-13
 -1      2908 2.00178E+01 7.37520E-02-1.52924E-04-8.48587E-02-5.88937E-14 4.21207E-14
 -1      2909 1.41602E+01-3.45499E-01 1.36097E-01 5.12819E+00 2.24473E-13 7.23865E-14
 -1      2910 1.18996E+01-1.19629E+00 1.42108E-01 5.23190E+00 2.12511E-13 2.18492E-13
 -1      2911 9.23494E+00-1.86719E-01 2.25118E-01 3.87781E+00 2.45276E-13 1.81716E-13
 -1      2912 1.99978E+01 5.64745E-02-2.42314E-04 5.91521E-02 3.99799E-14-3.46260E-13
 -1      2913 2.00036E+01 4.87528E-02 3.10397E-04 5.89719E-02-1.08689E-14-2.24616E-13
 -1      2914 1.99943E+01 5.87889E-02-7.83369E-05 6.68845E-02 1.00374E-13-2.91014E-13
 -1      2915 2.46737E+01-4.86773E+00-4.65898E-02 5.54163E+00-3.27946E-13-4.20657E-13
 -1      2916 2.17267E+01-4.60534E+00 1.31487E-01 6.47935E+00-3.84470E-13-1.88858E-13
 -1      2917 2.58230E+01-4.37413E+00 3.48366E-02 3.80329E+00-2.63720E-13-3.46799E-13
 -1      2918 3.08219E+01 1.32394E+00-1.98100E-01-9.02819E-01 1.90542E-13-4.80310E-13
 -1      2919 3.04648E+01-5.49679E-01-2.67757E-02-6.27183E-02 1.38778E-17-3.62405E-13
 -1      2920 1.57238E+01 1.58060E+00 3.67981E-02-3.87430E+00-2.83610E-14 6.95971E-14
 -1      2921 1.61711E+01 2.00762E+00-9.29322E-03-3.40854E+00-3.50223E-14 5.01058E-14
 -1      2922 1.52385E+01 2.46254E+00 1.00320E-01-2.51043E+00-1.03707E-13 1.66903E-13
 -1      2923 1.98771E+01 2.69986E+00-6.15644E-03-6.33413E-01 3.50881E-14-1.22516E-13
 -1      2924 1.99196E+01 2.60986E+00-7.80493E-03-7.82854E-01 2.34164E-14-1.16148E-13
 -1      2925 1.99249E+01 2.59968E+00-7.87217E-03 7.92700E-01 1.29950E-13 3.90486E-15
 -1      2926 1.98812E+01 2.69200E+00-6.15469E-03 6.44046E-01 1.16112E-13-1.13338E-14
 -1      2927 1.99995E+01 2.39330E+00 4.28347E-03 5.15217E-01 1.01898E-13-2.74892E-14
 -1      2928 2.00808E+01 2.19481E+00 5.50468E-03 7.43754E-01 1.14215E-13 1.29860E-14
 -1      2929 1.99346E+01 2.54414E+00 3.46892E-03 4.91602E-03 6.50839E-14-7.98233E-14
 -1      2930 1.97959E+01 2.87458E+00-5.50367E-03-6.13851E-02 5.93946E-14-9.09294E-14
 -1      2931 1.98034E+01 2.85983E+00-5.55583E-03-2.15743E-01 4.70304E-14-9.98594E-14
 -1      2932 2.03237E+01 1.60459E+00 1.62063E-03 1.26870E+00 1.32001E-13 1.53355E-13
 -1      2933 1.98192E+01 2.82407E+00-5.72665E-03-3.50413E-01 4.92191E-14-9.60980E-14
 -1      2934 1.98435E+01 2.77546E+00-6.17823E-03-5.03796E-01 3.35173E-14-1.04101E-13
 -1      2935 1.99966E+01 2.40077E+00 4.43403E-03-5.05383E-01 2.54070E-14-1.08143E-13
 -1      2936 1.99495E+01 2.50993E+00 3.70502E-03-2.54427E-01 3.75590E-14-9.67916E-14
 -1      2937 2.89360E+01-2.05320E+00-1.72167E-02 6.18371E-01-6.10406E-14-3.21201E-13
 -1      2938 8.41893E+00 1.19922E+00 1.56255E-01-1.19023E+00 3.80806E-14 2.44582E-13
 -1      2939 2.86541E+01 4.15220E+00-9.81895E-02 1.93316E+00 9.11493E-14-1.40277E-13
 -1      2940 1.44323E+01 3.21644E-01 1.08406E-01 4.93859E+00 1.98230E-13 5.32907E-14
 -1      2941 2.00765E+01 2.20686E+00 5.80502E-03-7.36127E-01 1.15868E-14-1.00274E-13
 -1      2942 1.99734E+01 2.48815E+00-6.83427E-03-8.99547E-01 4.48087E-16-1.19394E-13
 -1      2943 2.00282E+01 2.34249E+00-1.42909E-02-1.03773E+00-1.93025E-14-1.20912E-13
 -1      2944 7.63980E+00 1.03076E+00 1.85435E-01-1.27501E+00 2.50095E-13-2.55046E-13
 -1      2945 9.73585E+00 9.13111E-01 1.90538E-01 2.85700E+00 2.61964E-13 8.23785E-14
 -1      2946 2.21673E+01-4.48684E+00 5.15013E-02-6.07195E+00 6.45317E-15-3.05523E-13
 -1      2947 2.40556E+01-4.81490E+00 4.86296E-02-5.55428E+00 1.07706E-13-2.75505E-13
 -1      2948 2.54711E+01-4.41236E+00 7.35335E-03-3.95639E+00-3.02189E-14-2.21354E-13
 -1      2949 2.02204E+01 6.77406E-01-2.22413E-03 4.14034E-01 7.95299E-14 1.08153E-13
 -1      2950 2.01797E+01 6.19314E-01 1.48801E-03 4.42710E-01 5.98913E-14 1.44474E-13
 -1      2951 8.81590E+00 6.34664E-01 1.81874E-01 3.55396E+00-3.02189E-14 4.14391E-14
 -1      2952 2.01427E+01 2.13142E+00 1.33364E-03-1.13991E+00-2.18856E-14-1.13795E-13
 -1      2953 2.02918E+01 1.68271E+00-1.10020E-02-1.24653E+00-5.30834E-14-8.86496E-14
 -1      2954 2.02881E+01 1.30471E+00-1.21447E-03-9.73148E-01-4.88555E-14-6.79970E-14
 -1      2955 2.02060E+01 1.85921E+00 9.10274E-03-9.26704E-01-2.92263E-14-9.92858E-14
 -1      2956 2.73073E+01 6.23545E+00-9.55690E-02 1.02213E+00 1.87850E-13-1.93200E-13
 -1      2957 2.87300E+01 7.23090E+00-1.56922E-01 5.85449E-01 2.24154E-13-1.93831E-13
 -1      2958 2.74373E+01 6.92419E+00-1.44674E-01-3.58966E-02 2.45318E-13-2.85393E-13
 -1      2959 2.00116E+01 3.71586E-02 3.80685E-05 6.35810E-02-1.25329E-13-2.16104E-14
 -1      2960 1.49376E+01 9.96926E-01 1.13201E-01 4.40617E+00 2.16584E-13 2.18020E-14
 -1      2961 1.21363E+01 1.22443E+00 1.46784E-01 3.80246E+00 2.88686E-13 2.12608E-13
 -1      2962 1.01449E+01 1.65455E+00 1.01866E-01 2.32161E+00 3.06970E-13 8.96505E-14
 -1      2963 1.46858E+01 1.86301E+00 4.22990E-02 3.64463E+00 2.48523E-13-6.59195E-16
 -1      2964 2.03313E+01-3.80964E+00 7.59192E-02 6.31323E+00-3.32831E-13-7.14298E-14
 -1      2965 2.02765E+01 1.36924E+00 2.13964E-03-8.77881E-01-3.55991E-14-6.70715E-14
 -1      2966 1.35970E+01-1.58136E+00 1.39254E-01 6.59511E+00-2.35367E-13 6.40044E-14
 -1      2967 2.00066E+01 8.01269E-02 2.08019E-05-7.71477E-02-2.35919E-13-2.91227E-13
 -1      2968 1.99947E+01 9.19970E-02-7.65027E-04-7.67973E-02-1.73648E-13-4.20140E-13
 -1      2969 2.02108E+01 6.99694E-01 6.59128E-03 5.55526E-01 8.27120E-14 1.45243E-13
 -1      2970 1.37554E+01 8.88214E-01 9.65605E-02-4.51877E+00 1.48492E-14 5.45813E-14
 -1      2971 1.20244E+01 1.79629E+00 2.10850E-01-3.25995E+00 9.74221E-15 2.97817E-13
 -1      2972 1.99836E+01 1.10853E-01 1.20573E-04-8.35503E-02-5.73045E-14-4.00783E-13
 -1      2973 1.58873E+01-3.66063E+00 1.48566E-01-7.79471E+00 1.34004E-13-5.49227E-13
 -1      2974 1.84336E+01-3.93658E+00 1.81355E-03-7.14431E+00 9.18710E-15-3.88169E-13
 -1      2975 1.47763E+01-2.63838E+00 1.46280E-01-7.38925E+00 1.80439E-13-5.01627E-13
 -1      2976 2.97795E+01 6.52535E+00-1.44170E-01-1.26703E+00 3.33844E-13-3.60253E-13
 -1      2977 9.25155E+00-9.17938E-01 1.99839E-01-5.80114E+00 2.09832E-13-7.41684E-13
 -1      2978 1.14773E+01-1.28162E+00 9.05380E-02-6.42276E+00 2.13760E-13-7.30055E-13
 -1      2979 9.58361E+00 2.22310E-01 1.48075E-01-4.72518E+00 2.51230E-13-6.88116E-13
 -1      2980 2.92733E+01 3.72885E+00-1.97205E-01-1.98768E+00 3.59920E-13-5.79002E-13
 -1      2981 3.04407E+01 2.62490E+00-9.68463E-02-1.55838E+00 3.63237E-13-6.49827E-13
 -1      2982 2.90855E+01 1.30795E+00-5.41133E-02-1.55418E+00 2.98740E-13-6.66217E-13
 -1      2983 2.03173E+01 1.39204E+00 8.89459E-03 1.02159E+00 1.14925E-13 1.32696E-13
 -1      2984 2.93852E+01-4.06841E-01-9.07193E-02 8.34770E-01 3.95343E-14-1.40638E-13
 -1      2985 2.81815E+01 7.70353E-01-6.79973E-02 1.69907E+00 6.63289E-14-1.72209E-13
 -1      2986 2.82342E+01-1.57046E+00-6.45952E-04 2.46123E-01 5.14311E-14-1.40832E-13
 -1      2987 2.00132E+01 9.10709E-02 5.26206E-04-9.78447E-02 1.05330E-13-5.68893E-14
 -1      2988 1.35876E+01 2.35201E+00 9.12380E-02 2.50786E+00 2.24602E-13 7.97001E-14
 -1      2989 2.02372E+01 1.47922E+00-9.92936E-03 8.04589E-01 1.13383E-13 7.72509E-14
 -1      2990 2.02018E+01 1.67000E+00-1.49538E-03 7.41655E-01 1.14739E-13 4.58139E-14
 -1      2991 2.02587E+01 7.56295E-01 6.68816E-03 7.53234E-01 9.12473E-14 1.76765E-13
 -1      2992 1.53989E+01-1.38042E+00 3.22498E-02 6.04082E+00-2.32429E-13-7.18176E-15
 -1      2993 1.27130E+01-2.09246E-01 1.49649E-01 5.44625E+00-1.44343E-13 7.01383E-14
 -1      2994 2.66054E+01-3.71264E+00 1.37873E-02-2.22841E+00-7.27515E-14-2.37893E-13
 -1      2995 2.73202E+01-3.15423E+00-9.86794E-02-1.14862E+00-4.33681E-17-2.91763E-13
 -1      2996 2.02806E+01 7.21398E-01 8.48268E-03-3.41224E-01-5.21878E-14-6.62297E-14
 -1      2997 2.02302E+01 5.56896E-01-3.32827E-03-2.08757E-01-5.45471E-14-7.54705E-14
 -1      2998 2.02247E+01 4.29693E-01 4.18251E-03-1.12562E-01-4.86467E-14-6.86426E-14
 -1      2999 2.01856E+01 3.23628E-01-2.21724E-03-2.62342E-02-2.94704E-14-8.23300E-14
 -1      3000 2.02732E+01 5.86066E-01-9.54869E-04-1.81645E-01-4.72717E-14-6.32531E-14
 -1      3001 2.01714E+01 2.41966E-01 3.14742E-03 3.73669E-02-4.01126E-14-7.95265E-14
 -1      3002 2.01422E+01 1.73506E-01-1.19347E-03 9.07282E-02-5.99552E-14-8.03582E-14
 -1      3003 2.02403E+01 3.42973E-01-8.96820E-04-1.56361E-02-4.16661E-14-6.45866E-14
 -1      3004 2.01252E+01 1.21833E-01 2.14627E-03 1.29329E-01-3.07681E-14-6.71245E-14
 -1      3005 2.01054E+01 7.96079E-02-4.86141E-04 1.59866E-01-2.26554E-14-4.40452E-14
 -1      3006 2.01999E+01 1.83649E-01-9.96323E-04 9.18583E-02-2.64802E-14-5.32994E-14
 -1      3007 2.00886E+01 4.89270E-02 1.32612E-03 1.81253E-01-2.16515E-14-3.37565E-14
 -1      3008 2.00766E+01 2.52830E-02-1.22121E-05 1.97127E-01-7.87640E-15 4.86641E-15
 -1      3009 2.01607E+01 8.39787E-02-9.41567E-04 1.56283E-01-1.49925E-14-4.46978E-14
 -1      3010 2.00609E+01 9.63222E-03 6.73228E-04 2.07605E-01 5.96764E-15 2.33384E-14
 -1      3011 2.00547E+01-4.01351E-04 2.99939E-04 2.15029E-01 1.94914E-15 4.55403E-14
 -1      3012 2.01255E+01 2.71856E-02-7.79523E-04 1.91593E-01 7.48350E-15-9.00958E-16
 -1      3013 2.00401E+01-4.77201E-03 1.51932E-04 2.19516E-01-9.21171E-15 8.22950E-14
 -1      3014 2.00378E+01-4.25186E-03 5.04410E-04 2.23220E-01 1.36515E-14 9.84472E-14
 -1      3015 2.00946E+01 1.93822E-03-5.66454E-04 2.09112E-01 1.41179E-14 1.11701E-14
 -1      3016 2.00233E+01 5.20558E-04-2.89209E-04 2.25485E-01-9.18787E-15 1.14065E-13
 -1      3017 2.00232E+01 1.00412E-02 6.32599E-04 2.29166E-01-5.82303E-15 1.02336E-13
 -1      3018 2.00664E+01 1.14331E-03-3.09552E-04 2.17623E-01 6.95511E-15 7.57410E-14
 -1      3019 2.00072E+01 2.31618E-02-7.09617E-04 2.32096E-01-2.50165E-14 1.02548E-13
 -1      3020 2.00073E+01 4.14738E-02 6.96343E-04 2.38791E-01-1.28490E-14 6.14851E-14
 -1      3021 2.00382E+01 2.10562E-02 1.59003E-05 2.23807E-01-2.57279E-14 1.11245E-13
 -1      3022 1.99871E+01 6.33772E-02-1.19236E-03 2.44602E-01-7.60669E-15 1.47934E-14
 -1      3023 1.99850E+01 9.16599E-02 7.27950E-04 2.57001E-01 2.30459E-14-1.30655E-14
 -1      3024 2.00057E+01 6.09100E-02 4.70398E-04 2.32665E-01-2.49459E-14 1.01836E-13
 -1      3025 1.99550E+01 1.26185E-01-1.78660E-03 2.67922E-01 8.88351E-15-3.24133E-14
 -1      3026 1.99455E+01 1.69405E-01 5.86636E-04 2.89945E-01-6.04002E-15-1.05633E-13
 -1      3027 1.99609E+01 1.24537E-01 1.05556E-03 2.48323E-01 1.61413E-14-8.61941E-18
 -1      3028 1.99009E+01 2.16895E-01-2.60979E-03 3.06152E-01 2.24515E-14-1.19062E-13
 -1      3029 1.98788E+01 2.75379E-01 8.91874E-05 3.38031E-01 4.79094E-15-8.64916E-14
 -1      3030 1.98940E+01 2.17022E-01 2.19351E-03 2.72571E-01 2.10895E-14-6.74301E-14
 -1      3031 1.98092E+01 3.42462E-01-3.70740E-03 3.59984E-01-2.86129E-14-3.65664E-14
 -1      3032 1.97632E+01 4.23926E-01-7.85711E-04 4.04718E-01-7.11383E-15-3.63684E-14
 -1      3033 1.97909E+01 3.43509E-01 3.76309E-03 3.04815E-01 1.43057E-14-8.88191E-14
 -1      3034 1.96529E+01 5.17546E-01-5.26857E-03 4.30910E-01-6.94492E-14-8.90356E-14
 -1      3035 1.95655E+01 6.29517E-01-2.45469E-03 4.89559E-01-1.10216E-13-1.12222E-13
 -1      3036 1.96258E+01 5.17685E-01 6.21428E-03 3.42163E-01-6.47641E-14-1.68344E-13
 -1      3037 1.93912E+01 7.57722E-01-7.43913E-03 5.15695E-01-5.80592E-14-1.12217E-13
 -1      3038 1.92342E+01 9.07676E-01-5.43399E-03 5.86989E-01-8.41119E-14-1.22704E-13
 -1      3039 1.93617E+01 7.53103E-01 9.95911E-03 3.75657E-01-1.03826E-13-2.15901E-13
 -1      3040 1.89619E+01 1.07725E+00-1.04363E-02 6.04205E-01-1.24919E-13-8.42568E-14
 -1      3041 1.86918E+01 1.26892E+00-1.03239E-02 6.82607E-01-8.53065E-14-6.60152E-14
 -1      3042 1.89431E+01 1.06181E+00 1.56015E-02 3.86995E-01-5.66881E-14-1.75793E-13
 -1      3043 1.82715E+01 1.47954E+00-1.44671E-02 6.75622E-01-5.49233E-14-9.79965E-14
 -1      3044 1.78241E+01 1.70466E+00-1.71108E-02 7.49639E-01 8.44377E-16-1.09362E-13
 -1      3045 1.82893E+01 1.44624E+00 2.41738E-02 3.43818E-01-5.72779E-14-9.67230E-14
 -1      3046 1.71836E+01 1.93704E+00-1.88367E-02 6.96744E-01 1.32888E-14-1.69032E-13
 -1      3047 1.64744E+01 2.16180E+00-2.05275E-02 7.48458E-01 7.08877E-14-1.89319E-13
 -1      3048 1.72844E+01 1.88316E+00 3.82498E-02 1.95596E-01-2.89079E-14-1.35778E-13
 -1      3049 1.55145E+01 2.34276E+00-1.87366E-02 6.35919E-01 2.16420E-13-1.64467E-13
 -1      3050 1.45017E+01 2.50393E+00 1.71460E-02 6.28560E-01 2.55887E-13-6.61103E-14
 -1      3051 1.57492E+01 2.29743E+00 6.19793E-02-1.22553E-01 1.85736E-13-2.18741E-13
 -1      3052 1.07148E+01 2.12170E+00 9.07369E-02-1.17289E+00-2.13544E-14 2.58710E-13
 -1      3053 2.02368E+01 7.10030E-01-4.05285E-03 3.47453E-01 8.14392E-14 8.33122E-14
 -1      3054 2.02798E+01 9.02866E-01 1.36923E-03 5.13253E-01 8.65901E-14 9.81868E-14
 -1      3055 1.74593E+01 1.96022E+00-1.44234E-02-1.10869E+00 5.84654E-14-2.73482E-13
 -1      3056 1.79670E+01 1.72004E+00-1.91976E-02-9.72469E-01 5.68859E-15-4.28267E-13
 -1      3057 1.84951E+01 1.49121E+00-1.00334E-02-9.36867E-01 7.58161E-14-3.76607E-13
 -1      3058 1.88024E+01 1.27636E+00-1.36446E-02-8.09141E-01-2.72430E-14-1.90020E-13
 -1      3059 1.79221E+01 1.72907E+00 3.10841E-02-5.57440E-01 5.01460E-14-1.40680E-13
 -1      3060 1.91403E+01 1.08531E+00-5.16261E-03-7.58082E-01-1.17861E-13-2.73716E-14
 -1      3061 1.93166E+01 9.14201E-01-9.50870E-03-6.47567E-01-1.88856E-13 1.84444E-14
 -1      3062 1.87340E+01 1.28982E+00 1.98134E-02-5.38915E-01 7.50271E-14 5.57714E-15
 -1      3063 1.95292E+01 7.68585E-01-2.10657E-03-5.93340E-01-2.45126E-13-5.15140E-14
 -1      3064 1.96252E+01 6.41033E-01-6.55078E-03-5.03271E-01-1.20457E-13-8.11248E-14
 -1      3065 1.92463E+01 9.32008E-01 1.25389E-02-4.73764E-01-1.83231E-13 1.15532E-13
 -1      3066 1.97565E+01 5.35568E-01-4.58206E-04-4.53333E-01 1.08007E-13-1.43531E-13
 -1      3067 1.98055E+01 4.44184E-01-4.46263E-03-3.83016E-01 1.56296E-13-5.61129E-14
 -1      3068 1.95633E+01 6.60102E-01 7.80556E-03-3.92852E-01-3.50726E-14 1.84477E-13
 -1      3069 1.98851E+01 3.70173E-01 3.19299E-04-3.40567E-01 2.29062E-13-8.49579E-14
 -1      3070 1.99076E+01 3.06373E-01-3.00256E-03-2.87215E-01 3.09431E-13 7.38559E-14
 -1      3071 1.97554E+01 4.62159E-01 4.75747E-03-3.13624E-01 2.49835E-13 6.86288E-14
 -1      3072 1.99549E+01 2.55556E-01 6.21092E-04-2.52842E-01 3.07253E-13 1.00325E-13
 -1      3073 1.99629E+01 2.11844E-01-2.04492E-03-2.13007E-01 2.94851E-13 1.03842E-13
 -1      3074 1.98693E+01 3.22109E-01 2.82839E-03-2.44019E-01 2.77314E-13-5.06007E-14
 -1      3075 1.99904E+01 1.78045E-01 7.93392E-04-1.86167E-01 1.78052E-13 1.11792E-13
 -1      3076 1.99908E+01 1.48457E-01-1.39641E-03-1.56355E-01 1.72241E-13 3.64199E-14
 -1      3077 1.99353E+01 2.24851E-01 1.59898E-03-1.86463E-01 2.72899E-13-2.27833E-13
 -1      3078 2.00080E+01 1.25059E-01 6.01345E-04-1.36327E-01 1.99268E-13 9.77522E-14
 -1      3079 2.00053E+01 1.06082E-01-7.35641E-04-1.14278E-01 2.13507E-13 3.37479E-14
 -1      3080 1.99939E+01 1.14428E-01 5.36778E-04-1.05671E-01 3.63086E-14-1.62981E-13
 -1      3081 1.99727E+01 1.59001E-01 7.05040E-04-1.41948E-01 1.73369E-13-2.15174E-13
 -1      3082 1.99294E+01 1.51133E-01-4.36523E-04-4.08082E-02-9.05515E-14-4.82077E-13
 -1      3083 1.99251E+01 1.52004E-01-2.56459E-04-2.36050E-02-1.30851E-13-2.93780E-14
 -1      3084 1.06862E+01 8.36532E-01 6.82891E-02 4.13066E+00-1.52683E-13 9.86711E-15
 -1      3085 9.66862E+00 1.84012E+00 1.03519E-01 1.79118E+00-1.00386E-13 1.19071E-14
 -1      3086 1.30436E+01 8.75752E-01 8.60661E-02 3.91575E+00-2.44112E-13-4.64698E-14
 -1      3087 2.01414E+01 2.37294E-01-1.64968E-03-3.55228E-02 3.41376E-14 8.61335E-14
 -1      3088 2.01779E+01 3.22274E-01 4.02211E-03 3.46215E-02 7.41535E-14 8.93433E-14
 -1      3089 2.01902E+01 4.23747E-01-2.73386E-03 1.17361E-01 8.72072E-14 9.05696E-14
 -1      3090 2.02396E+01 5.53271E-01 5.78270E-03 2.29960E-01 8.29989E-14 8.53022E-14
 -1      3091 2.02751E+01 7.39790E-01-3.08936E-03 3.09847E-01 8.64395E-14 9.82100E-14
 -1      3092 2.02431E+01 4.51993E-01-6.60857E-04 9.97256E-02 8.17878E-14 1.25726E-13
 -1      3093 2.00284E+01-2.29300E-02 3.02277E-04-2.12377E-01 5.58584E-14-2.08487E-14
 -1      3094 2.00308E+01-1.28555E-02 6.02361E-04-2.10462E-01 4.87240E-14 2.09470E-14
 -1      3095 2.00434E+01 7.36501E-04 9.35588E-05-2.04825E-01 2.40623E-14 5.63671E-14
 -1      3096 2.00514E+01 2.00439E-02 1.12035E-03-1.95383E-01 3.45907E-14 6.34150E-14
 -1      3097 2.00933E+01-1.54140E-03-8.23188E-04-1.99865E-01 6.38887E-14 6.01555E-14
 -1      3098 2.00187E+01-3.92671E-02 4.54713E-04-2.03551E-01 5.09189E-14 1.35295E-14
 -1      3099 2.00137E+01-3.71917E-02 8.48679E-05-2.07976E-01 4.64463E-14 2.85764E-14
 -1      3100 2.00237E+01-4.37324E-02 4.31429E-04-1.94365E-01 7.85170E-14 1.79628E-14
 -1      3101 2.00158E+01-4.13086E-02 4.78789E-05-2.00072E-01 7.22513E-14 3.05555E-15
 -1      3102 2.00444E+01-4.50233E-02-6.01944E-04-2.03282E-01 6.73384E-14 5.40132E-14
 -1      3103 2.00366E+01-5.30143E-02 3.41223E-04-1.83202E-01 5.26336E-14 2.64849E-14
 -1      3104 2.00255E+01-4.74444E-02 1.53704E-04-1.90378E-01 6.24587E-14-1.16619E-14
 -1      3105 2.00433E+01-5.15620E-02-6.75077E-04-1.97180E-01 6.69960E-14 1.09700E-14
 -1      3106 2.00595E+01-7.27154E-02 1.68112E-04-1.68338E-01 4.49354E-14 4.42799E-14
 -1      3107 2.00448E+01-6.10923E-02 4.14034E-04-1.78252E-01 5.88270E-14 4.78436E-14
 -1      3108 2.00527E+01-6.49718E-02-8.54340E-04-1.89777E-01 2.31849E-14 5.68200E-14
 -1      3109 2.00961E+01-1.08548E-01-1.17310E-04-1.45797E-01 1.67770E-14 5.04938E-14
 -1      3110 2.00768E+01-8.79338E-02 8.45542E-04-1.60847E-01 1.91211E-14 3.46188E-14
 -1      3111 2.00763E+01-9.18783E-02-1.15386E-03-1.79325E-01 4.86809E-14 1.43740E-13
 -1      3112 2.01507E+01-1.65749E-01-5.56831E-04-1.09144E-01 1.17720E-13-4.44871E-14
 -1      3113 2.01256E+01-1.33551E-01 1.46041E-03-1.32895E-01 1.04671E-13 5.69366E-15
 -1      3114 2.01194E+01-1.38967E-01-1.58093E-03-1.61689E-01 1.05451E-13-5.69294E-15
 -1      3115 2.02282E+01-2.47624E-01-1.19534E-03-4.93790E-02 3.46461E-14-5.32794E-14
 -1      3116 2.01965E+01-2.02464E-01 2.24403E-03-8.64740E-02 4.85597E-14-4.52513E-14
 -1      3117 2.01889E+01-2.12111E-01-2.10563E-03-1.29937E-01 8.81521E-14 2.58191E-14
 -1      3118 2.03319E+01-3.52929E-01-2.05677E-03 4.46711E-02-1.09159E-13 6.53102E-14
 -1      3119 2.02939E+01-2.96140E-01 3.12091E-03-1.10414E-02-4.85235E-14-9.82825E-15
 -1      3120 2.02921E+01-3.14438E-01-2.63992E-03-7.39768E-02-2.99444E-14 1.16257E-13
 -1      3121 2.04619E+01-4.71976E-01-3.08888E-03 1.84891E-01-1.75222E-13 4.09395E-14
 -1      3122 2.04197E+01-4.09757E-01 3.90792E-03 1.05738E-01-8.94541E-14 7.97704E-14
 -1      3123 2.04352E+01-4.42911E-01-2.99638E-03 1.93303E-02-1.33339E-13 1.38044E-13
 -1      3124 2.06105E+01-5.82031E-01-4.07884E-03 3.80381E-01-1.49519E-13 2.54417E-14
 -1      3125 2.05695E+01-5.27835E-01 4.27339E-03 2.75548E-01-1.55336E-13 2.12142E-14
 -1      3126 2.06192E+01-5.83404E-01-2.86376E-03 1.64751E-01-1.63212E-13 7.63779E-14
 -1      3127 2.07589E+01-6.43912E-01-4.52016E-03 6.31013E-01-1.95979E-13 4.33855E-14
 -1      3128 2.07283E+01-6.19938E-01 3.73141E-03 5.04242E-01-1.78709E-13 6.59610E-14
 -1      3129 2.08348E+01-7.05196E-01-1.84825E-03 3.74591E-01-1.67021E-13-2.80771E-14
 -1      3130 2.08756E+01-6.03654E-01-3.62819E-03 9.17632E-01-3.22102E-14-6.22435E-14
 -1      3131 2.08673E+01-6.39032E-01 1.82108E-03 7.83148E-01-1.19596E-13 7.32169E-15
 -1      3132 2.10568E+01-7.57479E-01 4.32887E-04 6.50519E-01-1.11612E-13-2.24970E-14
 -1      3133 2.09205E+01-4.05478E-01-7.62836E-04 1.19104E+00 7.46611E-14-8.20261E-15
 -1      3134 2.09451E+01-5.27928E-01-1.86592E-03 1.07728E+00 2.74065E-14-4.22840E-14
 -1      3135 2.12408E+01-6.73198E-01 3.88445E-03 9.70365E-01-7.54919E-15-6.14974E-14
 -1      3136 2.08604E+01-2.12795E-02 3.91479E-03 1.36703E+00-1.83423E-14 6.49047E-14
 -1      3137 2.09206E+01-2.39410E-01-6.82772E-03 1.31581E+00 6.28921E-14 7.11459E-14
 -1      3138 2.13302E+01-3.89733E-01 6.96019E-03 1.27282E+00-4.19645E-14 5.64441E-14
 -1      3139 2.06942E+01 5.09981E-01 8.77244E-03 1.34341E+00 6.25357E-15 7.73789E-14
 -1      3140 2.07787E+01 2.26363E-01-1.10976E-02 1.39795E+00-5.25411E-14 9.80380E-14
 -1      3141 2.12811E+01 1.11700E-01 7.62455E-03 1.45238E+00-4.62115E-14 8.62020E-14
 -1      3142 2.04735E+01 1.05939E+00 1.09236E-02 1.04448E+00 5.12711E-14 8.62123E-14
 -1      3143 2.05556E+01 7.87316E-01-1.19268E-02 1.22684E+00 1.13402E-13 1.28021E-13
 -1      3144 2.10985E+01 7.58862E-01 4.08585E-03 1.38632E+00 1.68636E-14 1.50133E-13
 -1      3145 2.02941E+01 1.44363E+00 8.52103E-03 4.82163E-01-4.79070E-14 1.31718E-13
 -1      3146 2.03439E+01 1.28000E+00-6.39649E-03 7.71410E-01-1.91184E-14 1.24385E-13
 -1      3147 2.08633E+01 1.37551E+00-1.97217E-03 9.96710E-01-1.69136E-17 3.07157E-13
 -1      3148 2.02517E+01 1.50483E+00 9.80082E-04-2.18605E-01-1.27465E-13 8.20441E-14
 -1      3149 2.02474E+01 1.51936E+00 2.41735E-03 1.07840E-01-7.47241E-14 8.40005E-14
 -1      3150 2.07046E+01 1.74732E+00-5.21984E-03 3.26276E-01-3.10973E-14 2.64276E-13
 -1      3151 2.03723E+01 1.21669E+00-7.33455E-03-8.59957E-01 9.13104E-14 7.15946E-14
 -1      3152 2.03156E+01 1.40284E+00 9.39932E-03-5.83918E-01-5.80428E-14 4.74518E-14
 -1      3153 2.07193E+01 1.71330E+00-5.39094E-03-4.44252E-01-5.88958E-14 2.28575E-14
 -1      3154 2.05940E+01 7.00829E-01-1.13517E-02-1.27421E+00 2.15860E-13 1.45125E-13
 -1      3155 2.05086E+01 9.81292E-01 1.15127E-02-1.11131E+00 2.36150E-13 1.54026E-13
 -1      3156 2.08991E+01 1.29244E+00-2.68562E-04-1.08006E+00 4.42035E-14 7.48706E-14
 -1      3157 2.08095E+01 1.46321E-01-1.02176E-02-1.40130E+00 1.92578E-13 3.23890E-14
 -1      3158 2.07270E+01 4.22865E-01 8.52435E-03-1.36527E+00 2.40539E-13 1.13398E-13
 -1      3159 2.11348E+01 6.55633E-01 5.68120E-03-1.41833E+00 2.30226E-13 1.82239E-13
 -1      3160 2.09342E+01-2.92940E-01-5.93876E-03-1.28895E+00-6.84095E-14 3.25443E-14
 -1      3161 2.08787E+01-8.99785E-02 3.18396E-03-1.35222E+00 3.62100E-14 3.79643E-14
 -1      3162 2.12997E+01 2.35021E-02 7.97671E-03-1.43951E+00 1.08996E-13 4.11029E-14
 -1      3163 2.09409E+01-5.49768E-01-1.21142E-03-1.03798E+00-1.77390E-14 5.19346E-14
 -1      3164 2.09215E+01-4.43386E-01-1.44297E-03-1.15615E+00-4.98956E-14 1.99739E-14
 -1      3165 2.13258E+01-4.43260E-01 6.47650E-03-1.23405E+00-9.30650E-14-4.05437E-14
 -1      3166 2.08513E+01-6.34506E-01 2.25179E-03-7.45786E-01 5.03601E-14-1.91803E-14
 -1      3167 2.08633E+01-6.11674E-01-3.97762E-03-8.78846E-01 9.72754E-15 1.11666E-14
 -1      3168 2.12181E+01-6.90018E-01 3.16093E-03-9.25737E-01-1.93567E-15 6.78822E-14
 -1      3169 2.07076E+01-5.97336E-01 3.99494E-03-4.77444E-01-1.46356E-13 3.92925E-14
 -1      3170 2.07397E+01-6.29465E-01-4.57830E-03-5.99128E-01-5.21477E-14-3.87182E-14
 -1      3171 2.10247E+01-7.45386E-01-2.63389E-05-6.13360E-01-2.98216E-14 3.09637E-14
 -1      3172 2.05496E+01-4.94772E-01 4.37181E-03-2.63430E-01 8.28052E-14-1.21439E-14
 -1      3173 2.05902E+01-5.53462E-01-4.01511E-03-3.61316E-01-3.04976E-14-2.65168E-14
 -1      3174 2.08013E+01-6.74442E-01-2.07996E-03-3.51644E-01-1.10525E-13-1.10805E-13
 -1      3175 2.04040E+01-3.71328E-01 3.93553E-03-1.09685E-01-7.88230E-14 1.21855E-13
 -1      3176 2.04444E+01-4.35787E-01-3.01644E-03-1.81115E-01 5.44796E-14 7.15392E-15
 -1      3177 2.05892E+01-5.42314E-01-2.92646E-03-1.58385E-01 4.08840E-15-8.39091E-15
 -1      3178 2.02838E+01-2.54763E-01 3.14368E-03-9.19920E-03-1.25199E-13 5.51320E-14
 -1      3179 2.03192E+01-3.12882E-01-2.02827E-03-5.68673E-02-1.38995E-13 1.00062E-13
 -1      3180 2.04110E+01-3.96670E-01-2.94197E-03-2.96820E-02-1.31782E-13 1.73404E-13
 -1      3181 2.01919E+01-1.58501E-01 2.30110E-03 4.97543E-02-8.36780E-14 1.16840E-13
 -1      3182 2.02205E+01-2.05028E-01-1.23284E-03 2.10053E-02-1.05076E-13 1.05835E-13
 -1      3183 2.02735E+01-2.65167E-01-2.52362E-03 4.73300E-02-1.71481E-13 5.21182E-14
 -1      3184 2.01258E+01-8.62027E-02 1.56034E-03 7.90610E-02-2.79442E-14 4.70140E-13
 -1      3185 2.01477E+01-1.20288E-01-6.61595E-04 6.41282E-02-8.19178E-14 3.02318E-13
 -1      3186 2.01744E+01-1.59780E-01-1.95847E-03 8.70346E-02-2.65447E-13 1.54067E-13
 -1      3187 2.00805E+01-3.59557E-02 9.62516E-04 8.87914E-02 2.03450E-13 5.06348E-13
 -1      3188 2.00966E+01-5.91449E-02-2.89352E-04 8.32073E-02 1.64981E-13 5.11496E-13
 -1      3189 2.01070E+01-8.24988E-02-1.42690E-03 1.01926E-01-2.58035E-14 4.52357E-13
 -1      3190 2.00509E+01-2.90658E-03 7.39657E-04 8.66010E-02 1.44961E-13 4.27850E-13
 -1      3191 2.00623E+01-1.79551E-02-3.51136E-05 8.69408E-02 2.44062E-13 4.44841E-13
 -1      3192 2.00636E+01-2.98072E-02-9.41655E-04 1.01531E-01 1.61625E-13 4.60097E-13
 -1      3193 1.99243E+01 1.45915E-01-6.45555E-04-2.89277E-03-1.42315E-13 3.42801E-13
 -1      3194 1.99272E+01 1.42059E-01 1.28156E-04 1.33645E-02-7.44824E-14 2.68907E-13
 -1      3195 1.99100E+01 1.64033E-01 7.63350E-04-9.95606E-03-2.06714E-13 3.41500E-14
 -1      3196 2.74405E+01 2.92763E+00-7.47229E-02 2.08563E+00 2.42861E-14-2.53363E-13
 -1      3197 2.70511E+01 4.61043E+00-1.31562E-01 1.85982E+00 9.70474E-14-2.79776E-13
 -1      3198 1.99504E+01 1.42917E-01 1.74679E-04-7.63570E-02-1.61772E-13-4.40634E-13
 -1      3199 1.99375E+01 1.48823E-01-7.58287E-04-6.17301E-02-1.29145E-13-2.40811E-13
 -1      3200 1.99196E+01 1.68431E-01 8.57046E-04-5.39809E-02 5.15356E-14-3.00358E-13
 -1      3201 1.29731E+01 2.54061E+00-7.58023E-03 9.07077E-01 2.53916E-13-6.58848E-14
 -1      3202 1.21201E+01 2.30229E+00 1.12071E-01 1.55728E+00 3.07712E-13 2.68674E-14
 -1      3203 1.34532E+01 2.54601E+00 1.04482E-01-2.19902E-01 2.60995E-13-2.05266E-13
 -1      3204 2.02903E+01 9.31543E-01-7.25811E-03 7.79003E-01 9.28159E-14 1.38877E-13
 -1      3205 1.99742E+01 1.26794E-01-6.38695E-04-9.78412E-02-1.56694E-14-3.29166E-13
 -1      3206 1.18246E+01-1.76734E+00 1.43630E-01-5.19114E+00-7.76046E-14 9.30089E-14
 -1      3207 1.64675E+01-2.84799E+00 2.45398E-02-6.07205E+00-5.83422E-14-4.26603E-14
 -1      3208 2.02488E+01 1.43393E+00-7.12329E-03-8.21286E-01-3.88298E-14-9.67544E-14
 -1      3209 2.02916E+01 1.22581E+00 9.47384E-03-7.14468E-01-3.20598E-14-9.34347E-14
 -1      3210 2.02538E+01 9.58099E-01-6.46655E-03-5.24218E-01-3.64072E-14-8.92791E-14
 -1      3211 2.02056E+01 1.67391E+00 3.39539E-04-7.67459E-01-2.07451E-14-9.41084E-14
 -1      3212 1.24632E+01-1.53504E-01 2.05524E-01-4.58934E+00-5.73847E-14 8.27116E-14
 -1      3213 9.95970E+00 2.14127E+00 1.72236E-01 6.34337E-01 3.57690E-13-7.79238E-14
 -1      3214 2.00039E+01 4.36496E-02-3.26828E-04 7.59155E-02 4.09243E-14-4.55541E-14
 -1      3215 2.00155E+01 3.22821E-02 3.04707E-04 7.15229E-02-1.50338E-13 1.45264E-13
 -1      3216 2.00214E+01 2.58791E-02 3.03520E-05 7.72384E-02-1.61955E-13 2.46457E-13
 -1      3217 1.99703E+01 8.23169E-02-4.52867E-04 7.13569E-02 2.02802E-13 6.57568E-14
 -1      3218 1.99808E+01 7.26730E-02 4.69322E-04 7.51646E-02 2.53070E-13-1.66448E-13
 -1      3219 2.00203E+01-3.41873E-02 4.14841E-04-2.10377E-01 2.55606E-14 2.12786E-14
 -1      3220 2.00186E+01-2.96497E-02 2.65238E-04-2.12643E-01 3.00333E-14 1.71055E-15
 -1      3221 2.00702E+01-2.68111E-02-6.94249E-04-2.08080E-01 3.37055E-14 1.99116E-14
 -1      3222 2.00538E+01-3.89332E-02-6.14236E-04-2.07712E-01 4.98952E-14 2.42757E-14
 -1      3223 1.58814E+01 2.38833E+00-1.63217E-03-1.24721E+00-2.72785E-14 1.03640E-13
 -1      3224 1.66488E+01 2.18126E+00-2.41798E-02-1.11963E+00 1.26503E-13-1.18541E-13
 -1      3225 1.66566E+01 2.20457E+00 4.96694E-02-4.87154E-01-1.38565E-14 6.65828E-14
 -1      3226 2.77912E+01 6.40892E+00-1.59509E-01-1.22194E+00 2.89407E-13-3.45106E-13
 -1      3227 2.88137E+01 5.39091E+00-1.22005E-01-1.83079E+00 2.59126E-13-3.80210E-13
 -1      3228 2.78709E+01 3.93973E+00-8.53019E-02-1.95651E+00 2.66939E-13-4.81115E-13
 -1      3229 1.99495E+01 1.06908E-01-6.28025E-04 5.65344E-02 1.43661E-13-9.29315E-15
 -1      3230 1.99601E+01 9.76689E-02 5.39108E-04 6.51855E-02 6.81846E-14 2.70918E-14
 -1      3231 1.99593E+01 8.94966E-02-1.88059E-04 7.92745E-02 1.52747E-13-5.25792E-14
 -1      3232 1.99882E+01 6.17818E-02-2.84596E-04 7.67201E-02 2.70628E-13-3.83745E-13
 -1      3233 1.99971E+01 5.30016E-02 3.05966E-04 7.65496E-02 1.30005E-13-3.14792E-13
 -1      3234 1.99993E+01 4.64572E-02-8.44774E-05 8.60987E-02 5.75030E-14-2.43296E-13
 -1      3235 1.99815E+01 6.50428E-02-1.71093E-04 8.61981E-02 3.36912E-13-2.20499E-13
 -1      3236 2.63773E+01-4.04551E+00-9.31139E-02 2.59663E+00-1.64774E-13-4.20060E-13
 -1      3237 2.46711E+01-4.09138E+00 3.17662E-02 3.81621E+00-1.92308E-13-3.18516E-13
 -1      3238 2.02767E+01 1.26240E+00 3.49883E-03 7.96767E-01 1.01019E-13 1.10106E-13
 -1      3239 2.00456E+01 2.16706E+00-4.32463E-03 2.91602E-01 9.35861E-14-3.71904E-14
 -1      3240 2.00326E+01 2.20595E+00-3.34101E-03 1.70333E-01 7.34611E-14-4.98062E-14
 -1      3241 1.35552E+01 2.53078E+00 1.37975E-02-1.67227E+00-1.62109E-13 2.46990E-13
 -1      3242 1.47015E+01 2.51083E+00-2.77485E-02-1.44432E+00-1.63725E-13 1.22825E-13
 -1      3243 2.56237E+01-6.57233E+00-1.19520E-01 4.26830E+00-1.20459E-13 3.70259E-13
 -1      3244 9.64214E+00 1.81160E+00 1.04991E-01-1.75978E+00 3.33455E-13-3.44530E-13
 -1      3245 2.20301E+01-3.89676E+00-8.93315E-03 5.28552E+00-2.54803E-13-7.54397E-14
 -1      3246 1.88518E+01-2.86311E+00 8.15304E-02 6.14623E+00-3.16525E-13-1.99459E-14
 -1      3247 2.84131E+01-1.23685E+00-1.24810E-01-5.81117E-01-5.15976E-14-4.73815E-13
 -1      3248 2.77082E+01-2.88002E+00 2.55011E-02 1.02817E+00-1.96527E-13-3.11147E-13
 -1      3249 1.99325E+01 1.29702E-01-7.06671E-04 3.10803E-02 4.19871E-14 1.11219E-13
 -1      3250 1.99405E+01 1.22309E-01 4.17401E-04 4.43530E-02 2.00248E-13-9.64346E-14
 -1      3251 1.99168E+01 1.45852E-01 4.61856E-04 3.03006E-02 1.25479E-15 1.58457E-13
 -1      3252 1.10071E+01 2.31780E+00 1.39025E-01 1.27952E-01-7.62211E-14 8.62088E-14
 -1      3253 1.99555E+01 1.51251E-01 4.86843E-04-1.01244E-01-6.54488E-14-3.30438E-13
 -1      3254 1.75452E+01-1.90128E+00 6.30790E-02 5.81223E+00-2.21240E-13 4.71775E-14
 -1      3255 1.63661E+01-7.21999E-01 7.92492E-03 4.97716E+00-1.38254E-13 4.67577E-14
 -1      3256 1.93771E+01-2.08449E+00 4.09308E-02 4.94745E+00-1.66372E-13-3.54404E-14
 -1      3257 2.00637E+01 2.11711E+00-3.16300E-03-3.81412E-01 2.34428E-14-1.08646E-13
 -1      3258 2.00890E+01 2.03848E+00-5.25526E-03-4.94772E-01 2.63067E-14-1.01481E-13
 -1      3259 2.72490E+01-2.14676E+00-2.27022E-02-1.46973E-02 8.50101E-14-2.52194E-13
 -1      3260 2.01391E+01 1.93033E+00 5.00932E-03 1.01190E-01 5.98728E-14-5.22341E-14
 -1      3261 2.00256E+01 2.22482E+00-3.70060E-03 6.60788E-02 6.00381E-14-6.63305E-14
 -1      3262 2.00254E+01 2.22572E+00-3.61662E-03-5.74419E-02 5.08424E-14-8.15971E-14
 -1      3263 2.22260E+01-5.02000E+00 1.21358E-02 5.32023E+00 6.46705E-14 9.33975E-14
 -1      3264 2.71330E+01-4.57774E+00 2.41839E-01 3.70870E+00 9.09273E-14 1.51344E-13
 -1      3265 1.47791E+01 2.60805E+00 8.35017E-02-5.05511E-01-1.15501E-13 1.90877E-13
 -1      3266 2.01596E+01 1.80672E+00-6.73159E-03 6.83747E-01 1.00864E-13 1.39934E-14
 -1      3267 2.01246E+01 1.93536E+00-2.66529E-03 5.87294E-01 9.24868E-14-3.76468E-15
 -1      3268 2.02488E+01 1.46510E+00 4.36360E-03 5.80843E-01 9.78043E-14 3.78938E-14
 -1      3269 2.01191E+01 1.94597E+00-3.15187E-03-5.80699E-01 1.82556E-14-6.44178E-14
 -1      3270 2.01517E+01 1.81789E+00-8.91708E-03-6.76525E-01-3.53060E-15-7.61419E-14
 -1      3271 2.02030E+01 1.71503E+00 7.81452E-03-4.54467E-01 1.46099E-14-8.62350E-14
 -1      3272 2.10194E+01-4.08955E+00 1.07988E-01-6.32162E+00-1.26288E-14-2.97519E-13
 -1      3273 2.27872E+01-4.18146E+00-2.25748E-02-5.09344E+00-5.20625E-14-2.20758E-13
 -1      3274 1.95091E+01-3.40736E+00 5.59967E-02-6.32721E+00 5.04458E-15-2.88852E-13
 -1      3275 2.58163E+01 5.95009E+00-7.07195E-02-1.49965E-01 2.08264E-13-3.35069E-13
 -1      3276 2.68703E+01 6.33252E+00-1.25220E-01-6.71649E-01 2.90490E-13-3.43447E-13
 -1      3277 2.61089E+01 5.45295E+00-8.05063E-02-1.14553E+00 2.65649E-13-3.70733E-13
 -1      3278 2.54961E+01 3.94655E+00-4.57644E-02 1.69369E+00 1.01946E-13-2.65169E-13
 -1      3279 2.63993E+01 5.14063E+00-9.28927E-02 1.53456E+00 1.76623E-13-2.40585E-13
 -1      3280 2.55146E+01 5.38617E+00-8.73048E-02 9.83888E-01 2.03053E-13-3.05370E-13
 -1      3281 1.25192E+01 2.32787E+00 4.21534E-02 7.68832E-01-9.32796E-14 3.42157E-14
 -1      3282 2.01242E+01 1.72600E-01 2.78018E-03-8.72159E-02 2.58725E-14 6.81302E-14
 -1      3283 2.02017E+01 2.52892E-01-1.08327E-03-4.03211E-02 4.64707E-14 9.26362E-14
 -1      3284 2.00992E+01 1.18493E-01-8.00263E-04-1.28591E-01 4.35014E-14 6.67975E-14
 -1      3285 2.01233E+01 4.54248E-02-9.74789E-04-1.76140E-01 4.89215E-14 6.46842E-14
 -1      3286 2.00666E+01 4.44778E-02-2.52888E-04-1.80380E-01 4.28660E-14 7.39997E-14
 -1      3287 2.00820E+01 7.78407E-02 1.84639E-03-1.58450E-01 4.96240E-14 7.16581E-14
 -1      3288 2.00303E+01 1.71558E-02 4.80958E-04 8.16317E-02-2.99470E-15 3.12731E-13
 -1      3289 2.00382E+01 7.35738E-03-1.09953E-04 8.49078E-02 1.07116E-13 3.34903E-13
 -1      3290 2.00361E+01 5.89158E-03 1.85617E-04 9.63334E-02 1.51100E-13 4.45078E-13
 -1      3291 2.00152E+01 2.78818E-02-2.55686E-04 9.02491E-02 9.09484E-14 3.18576E-13
 -1      3292 2.41875E+01-3.51269E+00 9.63302E-03 3.01206E+00-3.09934E-14-5.13684E-13
 -1      3293 2.34166E+01-3.88814E+00 3.13110E-02 4.23861E+00-1.80685E-13-7.12256E-14
 -1      3294 2.18263E+01-3.19804E+00-7.98692E-03 4.40740E+00-1.12748E-13-5.36099E-14
 -1      3295 2.50072E+01-5.97705E+00-3.38893E-02 4.11604E+00 2.13163E-14 2.94126E-13
 -1      3296 2.72514E+01 1.51808E+00-9.13475E-02 1.98976E+00-9.01362E-15-1.24428E-13
 -1      3297 2.60063E+01 2.32523E+00-2.38619E-02 2.08509E+00-4.16472E-14-1.36911E-13
 -1      3298 2.68117E+01 3.80938E-01 5.82469E-03 1.66725E+00-1.59421E-14-1.53174E-13
 -1      3299 2.46584E+01-3.98394E+00 6.76008E-02-3.66141E+00-6.78832E-14-1.90641E-13
 -1      3300 2.57337E+01-4.01759E+00-1.49160E-02-3.00350E+00-1.73160E-14-1.30206E-13
 -1      3301 2.56643E+01-3.47875E+00 1.39887E-02-2.00536E+00-3.97252E-16-4.18757E-13
 -1      3302 2.02763E+01 9.87356E-01-5.35843E-03-4.65665E-01-4.24116E-14-8.20504E-14
 -1      3303 1.38413E+01-1.65464E+00 1.60999E-01-6.70866E+00 7.68274E-14-5.77760E-13
 -1      3304 1.60310E+01-2.14762E+00 2.19237E-02-6.48588E+00 6.35880E-14-4.63192E-13
 -1      3305 1.32205E+01-6.20871E-01 1.00388E-01-5.82345E+00 8.97477E-14-5.43343E-13
 -1      3306 2.66857E+01-3.03900E+00 1.60307E-02 1.17558E+00-2.23210E-13-4.07646E-13
 -1      3307 1.99352E+01 1.18942E-01 9.76759E-05 6.10396E-02 6.13194E-14-3.68078E-14
 -1      3308 2.76441E+01 9.05559E-01-1.09670E-01-1.79584E+00 2.12594E-13-6.28414E-13
 -1      3309 2.83709E+01-1.72662E-01-3.17048E-02-1.31274E+00 6.88546E-14-6.13253E-13
 -1      3310 2.72805E+01-1.24233E+00-2.94489E-02-7.45434E-01-4.35173E-14-5.66517E-13
 -1      3311 2.02781E+01 1.13373E+00 2.88378E-03 5.39981E-01 9.76508E-14 8.14681E-14
 -1      3312 2.02819E+01 1.09866E+00 5.33287E-03 6.12327E-01 9.00941E-14 8.82421E-14
 -1      3313 2.00664E+01 2.11105E+00-3.07690E-03 3.89386E-01 9.39946E-14-3.64368E-14
 -1      3314 2.01613E+01 1.85458E+00 5.06940E-03 2.88826E-01 9.06748E-14-3.06171E-14
 -1      3315 2.00917E+01 2.03101E+00-5.22133E-03 5.02831E-01 9.67597E-14-1.58390E-14
 -1      3316 1.16610E+01 2.01191E+00 4.64523E-02-1.61202E+00 2.84085E-13-3.61156E-13
 -1      3317 1.00261E+01 1.15209E+00 1.43069E-01-3.36185E+00 2.86389E-13-5.68129E-13
 -1      3318 1.14486E+01 6.99382E-01 7.22148E-02-4.28607E+00 2.22504E-13-6.50285E-13
 -1      3319 2.00315E+01 2.20815E+00-3.43478E-03-1.61861E-01 4.24528E-14-8.91290E-14
 -1      3320 2.00441E+01 2.17138E+00-4.24760E-03-2.82656E-01 2.48195E-14-9.39686E-14
 -1      3321 2.01608E+01 1.85993E+00 5.58878E-03-2.83670E-01 2.05759E-14-1.05066E-13
 -1      3322 2.61433E+01-2.45032E+00 7.40037E-03-2.79981E-01 7.95631E-14-1.19307E-13
 -1      3323 2.65762E+01-1.37799E+00-9.51210E-02 8.87635E-01 5.18439E-14-1.07804E-13
 -1      3324 1.38826E+01 2.29224E+00-3.32815E-03 6.11906E-01-4.24903E-14-2.60868E-14
 -1      3325 1.50100E+01 2.19548E+00-1.28988E-02 5.82354E-01-1.74947E-14 1.66533E-14
 -1      3326 1.32781E+01 2.05108E+00 1.08046E-01 2.04696E+00-7.92569E-14-1.53568E-13
 -1      3327 2.03028E+01 4.50775E-01 2.93578E-03-6.36138E-02-3.09726E-14-3.60544E-14
 -1      3328 2.02766E+01 3.40961E-01-2.06649E-03 5.92508E-03-2.41917E-14-2.19918E-14
 -1      3329 2.02679E+01 2.53809E-01 2.13636E-03 5.34852E-02-1.86646E-14-2.88093E-14
 -1      3330 2.02432E+01 1.81514E-01-1.21673E-03 9.69939E-02-1.25432E-14-1.84602E-14
 -1      3331 2.03144E+01 3.46665E-01 3.64050E-05 1.49380E-02-1.32233E-14 2.09388E-14
 -1      3332 2.02268E+01 1.26276E-01 1.47364E-03 1.25845E-01-1.35109E-14-2.15622E-14
 -1      3333 2.02052E+01 8.19527E-02-5.65453E-04 1.51403E-01-1.84247E-14-1.76849E-14
 -1      3334 2.02813E+01 1.83669E-01-3.55352E-04 9.40410E-02-7.83457E-15 3.34420E-14
 -1      3335 2.01852E+01 4.98289E-02 9.34703E-04 1.67394E-01-2.78437E-14 8.17247E-15
 -1      3336 2.01667E+01 2.60354E-02-1.26720E-04 1.81182E-01-1.71391E-15-4.24536E-15
 -1      3337 2.02400E+01 8.26879E-02-4.70132E-04 1.41868E-01-6.19893E-15 1.74532E-14
 -1      3338 2.01449E+01 1.10729E-02 4.59318E-04 1.88905E-01 2.13818E-14-5.20518E-14
 -1      3339 2.01290E+01 2.79855E-03 1.41182E-04 1.95850E-01 2.90956E-14-2.33632E-14
 -1      3340 2.01957E+01 2.72783E-02-4.29005E-04 1.68083E-01-7.47674E-15-5.32144E-14
 -1      3341 2.01058E+01 1.10701E-03 4.66641E-05 1.98912E-01 1.38210E-14-3.50790E-14
 -1      3342 2.00913E+01 5.18811E-03 2.66150E-04 2.02780E-01-2.76465E-15-2.96909E-14
 -1      3343 2.01501E+01 6.42595E-03-2.77488E-04 1.80775E-01 1.39946E-14-1.06960E-13
 -1      3344 2.00662E+01 1.45387E-02-3.28719E-04 2.03796E-01-1.53163E-14-1.32488E-14
 -1      3345 2.00511E+01 2.93801E-02 2.55351E-04 2.07382E-01-2.23104E-15 2.91695E-14
 -1      3346 2.01027E+01 1.29791E-02-1.87576E-05 1.86042E-01-3.90907E-15-7.79957E-14
 -1      3347 2.00220E+01 4.89688E-02-7.14755E-04 2.08015E-01-3.11618E-14 3.67710E-14
 -1      3348 2.00035E+01 7.43971E-02 1.03025E-04 2.13315E-01-4.58711E-14 2.70115E-14
 -1      3349 2.00508E+01 4.30826E-02 3.77574E-04 1.87984E-01 8.80999E-16-5.62183E-14
 -1      3350 1.99656E+01 1.06686E-01-1.11873E-03 2.14297E-01-3.31350E-14 6.86506E-15
 -1      3351 1.99373E+01 1.46153E-01-2.86694E-04 2.22930E-01 3.17466E-14-2.75224E-14
 -1      3352 1.99872E+01 9.74038E-02 9.23172E-04 1.88655E-01-5.33425E-14-2.92548E-14
 -1      3353 1.98882E+01 1.90316E-01-1.61159E-03 2.23620E-01 4.33042E-14-4.32568E-14
 -1      3354 1.98460E+01 2.42647E-01-1.07294E-03 2.34881E-01 3.53625E-14-5.09462E-14
 -1      3355 1.99048E+01 1.77287E-01 1.83258E-03 1.87506E-01 1.71207E-14-3.02713E-14
 -1      3356 1.97773E+01 3.03325E-01-2.14945E-03 2.33148E-01 5.52889E-15-7.38526E-14
 -1      3357 1.97094E+01 3.73819E-01-2.35629E-03 2.45975E-01-3.72348E-15-9.49363E-14
 -1      3358 1.97930E+01 2.84263E-01 3.05392E-03 1.81008E-01 1.29720E-14-7.94923E-14
 -1      3359 1.96100E+01 4.55619E-01-2.79596E-03 2.37069E-01-4.77380E-14-9.43210E-14
 -1      3360 1.95001E+01 5.48766E-01-4.48206E-03 2.47492E-01-1.01828E-13-1.60966E-13
 -1      3361 1.96320E+01 4.26039E-01 4.84216E-03 1.60803E-01-4.44926E-14-1.18405E-13
 -1      3362 1.93548E+01 6.56665E-01-3.50796E-03 2.22797E-01-1.07507E-13-1.66199E-13
 -1      3363 1.91785E+01 7.76225E-01-7.91056E-03 2.22620E-01-7.97915E-14-1.52381E-13
 -1      3364 1.93954E+01 6.08842E-01 7.38818E-03 1.11374E-01-1.00806E-13-1.02590E-13
 -1      3365 1.89667E+01 9.13693E-01-4.22621E-03 1.67600E-01-6.56069E-14-1.25881E-13
 -1      3366 1.86877E+01 1.05983E+00-1.32500E-02 1.41969E-01-3.78060E-14-1.01443E-13
 -1      3367 1.90473E+01 8.35784E-01 1.09243E-02 6.26257E-03-5.74752E-14-4.28524E-14
 -1      3368 1.83824E+01 1.22478E+00-4.83536E-03 3.35743E-02-7.41703E-14-1.24724E-13
 -1      3369 1.79484E+01 1.38848E+00-2.10361E-02-4.18867E-02-5.79109E-14-1.57061E-13
 -1      3370 1.85392E+01 1.10029E+00 1.57566E-02-1.97066E-01-2.69280E-14-9.49102E-14
 -1      3371 1.75145E+01 1.56528E+00-4.92528E-03-2.37785E-01-2.93971E-14-1.50689E-13
 -1      3372 1.68506E+01 1.71956E+00-3.04687E-02-3.99904E-01 1.77718E-14-8.65668E-14
 -1      3373 1.78089E+01 1.37461E+00 2.26205E-02-5.63343E-01-1.42410E-15-1.21624E-13
 -1      3374 1.62470E+01 1.85743E+00-3.35840E-03-7.31967E-01 3.34650E-14-7.77317E-14
 -1      3375 1.52673E+01 1.95070E+00-2.96763E-02-1.03409E+00 1.20141E-13-2.05480E-13
 -1      3376 1.67841E+01 1.58926E+00 3.54088E-02-1.18260E+00 2.58040E-14-6.50748E-14
 -1      3377 2.64979E+01 4.13275E+00-1.02447E-01-1.92301E+00 2.62936E-13-4.80071E-13
 -1      3378 2.73068E+01 2.77620E+00-4.37870E-02-2.15123E+00 2.72705E-13-4.96991E-13
 -1      3379 1.83722E+01 1.30544E+00-1.58765E-02-2.43066E-01 1.82583E-13-1.69270E-14
 -1      3380 1.87159E+01 1.13426E+00-6.72040E-03-2.47303E-01 1.33546E-14 8.08899E-14
 -1      3381 1.89879E+01 9.74090E-01-9.54977E-03-2.94403E-01-1.53936E-13 7.81996E-14
 -1      3382 1.92018E+01 8.34182E-01-5.14548E-03-2.73695E-01-2.01796E-13 1.22407E-13
 -1      3383 1.87886E+01 1.06436E+00 1.47471E-02-3.41457E-02-1.22511E-14-2.27279E-14
 -1      3384 1.93831E+01 7.09032E-01-5.45305E-03-2.87384E-01-4.00366E-14 1.90420E-13
 -1      3385 1.95133E+01 6.01541E-01-3.87956E-03-2.57397E-01 8.29975E-14 2.59749E-13
 -1      3386 1.92269E+01 7.95972E-01 9.90487E-03-1.28903E-01-8.41842E-14 1.18657E-13
 -1      3387 1.96325E+01 5.08365E-01-2.94128E-03-2.53807E-01 1.01563E-13 2.08632E-13
 -1      3388 1.97099E+01 4.28964E-01-2.85980E-03-2.22955E-01 2.05446E-13 6.48640E-14
 -1      3389 1.95153E+01 5.83159E-01 6.54308E-03-1.60095E-01-3.84784E-14 2.88033E-13
 -1      3390 1.97871E+01 3.61738E-01-1.46609E-03-2.11693E-01 1.79132E-13-1.00437E-13
 -1      3391 1.98319E+01 3.04574E-01-2.10408E-03-1.83825E-01 1.19202E-13-2.51927E-13
 -1      3392 1.97021E+01 4.22124E-01 4.23992E-03-1.58181E-01 4.36716E-14-2.19976E-13
 -1      3393 1.98814E+01 2.57924E-01-4.40970E-04-1.70223E-01 2.07753E-13-2.30415E-13
 -1      3394 1.99057E+01 2.17220E-01-1.69788E-03-1.46402E-01 2.64889E-13-2.93816E-13
 -1      3395 1.98210E+01 3.03595E-01 2.40405E-03-1.41283E-01 8.35345E-14-2.49883E-13
 -1      3396 1.99265E+01 1.95729E-01 3.89140E-04-1.31069E-01 3.06403E-13-4.27730E-13
 -1      3397 1.99416E+01 1.66918E-01-7.77793E-04-1.14073E-01 1.45181E-13-3.56112E-13
 -1      3398 1.99140E+01 1.82529E-01-2.55686E-04-8.77223E-02 1.38193E-13-3.27240E-13
 -1      3399 1.98819E+01 2.29065E-01 7.99529E-04-1.14502E-01 2.36344E-13-4.00065E-13
 -1      3400 1.50758E+01 2.44404E-01 4.81761E-02 4.42621E+00-2.34592E-13 5.80092E-14
 -1      3401 1.34820E+01 1.27542E+00 2.79907E-02 3.23205E+00-2.33400E-13-4.39648E-14
 -1      3402 1.49200E+01 1.37628E+00 2.38152E-02 2.66392E+00-9.36473E-14-1.08127E-13
 -1      3403 1.68192E+01-2.66454E-01 4.36748E-02 4.23488E+00-2.16513E-13 5.67463E-14
 -1      3404 2.01369E+01-4.26792E-03 6.12565E-05-1.89397E-01 7.31820E-14 3.92232E-14
 -1      3405 2.01518E+01 1.63148E-02 8.56628E-04-1.80686E-01 6.66274E-14 4.49903E-14
 -1      3406 2.00619E+01-5.27340E-02 6.62452E-04-1.94353E-01 4.04393E-14 9.35343E-14
 -1      3407 2.00598E+01-4.88416E-02 1.35730E-04-1.96662E-01 4.79046E-14 7.15260E-14
 -1      3408 2.00685E+01-4.59336E-02 5.93106E-04-1.96262E-01 8.50086E-14 3.32511E-14
 -1      3409 2.00712E+01-4.35409E-02 1.25749E-04-1.98060E-01 6.90749E-14 5.37233E-14
 -1      3410 2.00809E+01-4.95046E-02-7.51288E-04-1.92416E-01 6.21697E-14 5.88183E-14
 -1      3411 2.00916E+01-9.94974E-02 6.68520E-04-1.89843E-01 6.18719E-14 1.00065E-13
 -1      3412 2.00752E+01-8.12201E-02 6.35290E-04-1.94693E-01 4.05169E-14 1.14274E-13
 -1      3413 2.01401E+01-1.54942E-01 5.45593E-04-1.81950E-01 1.07801E-13 4.69823E-14
 -1      3414 2.01127E+01-1.23466E-01 1.20029E-03-1.91137E-01 7.92452E-14 9.39930E-14
 -1      3415 2.00999E+01-1.18474E-01-1.86038E-03-2.08875E-01 7.37100E-14 3.90906E-14
 -1      3416 2.02221E+01-2.41606E-01 2.44225E-04-1.62161E-01 8.84584E-15 1.92432E-13
 -1      3417 2.01805E+01-1.93377E-01 2.03211E-03-1.79651E-01 5.72989E-14 1.37317E-13
 -1      3418 2.01568E+01-1.87155E-01-2.62742E-03-2.13099E-01 4.34115E-14 1.47031E-13
 -1      3419 2.03478E+01-3.63790E-01-3.49359E-04-1.19816E-01-1.29132E-13 2.28301E-13
 -1      3420 2.02889E+01-2.97063E-01 3.14229E-03-1.51253E-01-4.28429E-14 2.09286E-13
 -1      3421 2.02568E+01-2.92781E-01-3.59305E-03-2.07365E-01-6.36602E-14 2.28136E-13
 -1      3422 2.05256E+01-5.18862E-01-1.36146E-03-4.00012E-02-1.52832E-13 1.76354E-13
 -1      3423 2.04481E+01-4.36006E-01 4.46406E-03-9.25952E-02-8.68059E-14 2.43625E-13
 -1      3424 2.04132E+01-4.39688E-01-4.63772E-03-1.79444E-01-1.27891E-13 1.79835E-13
 -1      3425 2.07585E+01-6.90980E-01-2.82327E-03 9.56601E-02-1.57409E-13 8.93631E-14
 -1      3426 2.06645E+01-6.01982E-01 5.75841E-03 1.41143E-02-1.38421E-13 1.48036E-13
 -1      3427 2.06386E+01-6.23309E-01-5.47334E-03-1.11008E-01-1.26614E-13 1.93218E-13
 -1      3428 2.10370E+01-8.43429E-01-4.52717E-03 3.04968E-01-1.37434E-13 3.68034E-14
 -1      3429 2.09348E+01-7.69868E-01 6.53508E-03 1.88830E-01-1.85118E-13 3.28219E-14
 -1      3430 2.09385E+01-8.22140E-01-5.55730E-03 2.19467E-02-1.27632E-13 1.62444E-13
 -1      3431 2.13325E+01-9.12659E-01-5.63774E-03 5.96012E-01-7.92075E-14 7.05499E-14
 -1      3432 2.12377E+01-8.90563E-01 5.97676E-03 4.46809E-01-1.05521E-13 4.74980E-14
 -1      3433 2.13021E+01-9.88582E-01-4.18598E-03 2.44246E-01-1.48352E-13 2.76363E-14
 -1      3434 2.15919E+01-8.10554E-01-4.68968E-03 9.50121E-01-3.22506E-14 4.86328E-14
 -1      3435 2.15266E+01-8.87368E-01 3.35616E-03 7.84861E-01-4.06874E-15 5.75006E-14
 -1      3436 2.16921E+01-1.04151E+00-3.14614E-04 5.69422E-01-2.22668E-14 1.35148E-13
 -1      3437 2.17434E+01-4.46685E-01-9.68845E-04 1.29933E+00-7.71131E-14 4.63074E-14
 -1      3438 2.17286E+01-6.66660E-01-2.72190E-03 1.15916E+00-7.87698E-14 8.26986E-15
 -1      3439 2.20358E+01-8.69567E-01 6.59275E-03 9.77470E-01-4.92703E-14 7.40074E-14
 -1      3440 2.17314E+01 2.06540E-01 5.62606E-03 1.51487E+00-1.45907E-13 2.09167E-13
 -1      3441 2.17724E+01-1.59826E-01-1.13924E-02 1.46118E+00-1.09061E-13 1.52586E-13
 -1      3442 2.22325E+01-3.82930E-01 9.63881E-03 1.37647E+00-1.64763E-13 2.66525E-13
 -1      3443 2.15566E+01 1.05266E+00 1.34390E-02 1.43406E+00-1.31232E-14 3.04324E-13
 -1      3444 2.16299E+01 6.09999E-01-1.86982E-02 1.53384E+00-1.16368E-13 2.45644E-13
 -1      3445 2.22082E+01 4.38448E-01 9.27941E-03 1.60129E+00-1.51038E-13 3.55899E-13
 -1      3446 2.12999E+01 1.82620E+00 1.16168E-02 9.66027E-01-2.99613E-14 3.67044E-13
 -1      3447 2.13740E+01 1.45795E+00-1.95465E-02 1.23784E+00 2.36339E-14 3.55372E-13
 -1      3448 2.19825E+01 1.38669E+00 3.37325E-03 1.45671E+00-6.45751E-14 3.30085E-13
 -1      3449 2.11471E+01 2.20739E+00 4.43789E-03 1.74569E-01-1.04612E-14 3.45043E-13
 -1      3450 2.11808E+01 2.08203E+00-4.00283E-03 5.58577E-01 9.43950E-15 3.77138E-13
 -1      3451 2.17290E+01 2.23522E+00-2.74778E-03 8.41984E-01 2.29076E-14 3.94003E-13
 -1      3452 2.11982E+01 2.01428E+00-8.08278E-03-6.86659E-01-6.80592E-14 2.44253E-13
 -1      3453 2.11616E+01 2.18850E+00 7.66281E-03-3.10506E-01-1.00815E-14 2.94519E-13
 -1      3454 2.16243E+01 2.53362E+00-5.48677E-03-7.55163E-02 3.07840E-14 4.71137E-13
 -1      3455 2.14215E+01 1.33628E+00-1.70537E-02-1.31268E+00 6.35156E-14 1.17722E-13
 -1      3456 2.13415E+01 1.72512E+00 1.35354E-02-1.06524E+00-2.15314E-14 1.06480E-13
 -1      3457 2.17648E+01 2.14247E+00-2.63609E-03-9.68569E-01 4.45414E-14 3.17204E-13
 -1      3458 2.16652E+01 4.80018E-01-1.66436E-02-1.54635E+00 2.27371E-13 2.24816E-14
 -1      3459 2.15893E+01 9.16965E-01 1.17847E-02-1.47398E+00 2.02023E-13 7.40907E-14
 -1      3460 2.20359E+01 1.27404E+00 6.02888E-03-1.50776E+00 1.39068E-13 6.75380E-14
 -1      3461 2.17784E+01-2.53690E-01-9.84334E-03-1.42716E+00 4.69966E-14 1.27838E-13
 -1      3462 2.17451E+01 9.08000E-02 4.67454E-03-1.49743E+00 1.45965E-13 1.03675E-13
 -1      3463 2.22314E+01 2.98260E-01 1.19200E-02-1.58565E+00 4.57562E-14 7.23766E-14
 -1      3464 2.17065E+01-7.11881E-01-1.91764E-03-1.10550E+00-1.07239E-13 5.98417E-14
 -1      3465 2.17305E+01-5.17973E-01-2.02512E-03-1.25258E+00-2.95498E-14 1.01506E-13
 -1      3466 2.22159E+01-4.73713E-01 1.01172E-02-1.32306E+00 1.25516E-14 2.05170E-13
 -1      3467 2.14854E+01-8.89659E-01 3.77741E-03-7.35032E-01 2.19327E-14 5.15890E-15
 -1      3468 2.15566E+01-8.32767E-01-5.33095E-03-8.98250E-01-7.30712E-15 3.59322E-14
 -1      3469 2.19879E+01-9.07695E-01 4.33488E-03-9.15225E-01 7.49143E-15 4.45562E-14
 -1      3470 2.11899E+01-8.63991E-01 6.29353E-03-4.11333E-01-2.40307E-14 1.58634E-14
 -1      3471 2.12870E+01-8.99040E-01-5.64336E-03-5.54013E-01 1.91946E-14 1.87034E-14
 -1      3472 2.16310E+01-1.03245E+00-1.14353E-03-5.19990E-01-4.56577E-14-1.72329E-14
 -1      3473 2.08888E+01-7.27008E-01 6.55415E-03-1.71509E-01-9.74985E-14-7.76315E-14
 -1      3474 2.09906E+01-8.07421E-01-4.34078E-03-2.79473E-01-1.89343E-13-1.63359E-14
 -1      3475 2.12400E+01-9.50983E-01-4.47492E-03-2.14005E-01-7.50012E-15 2.10560E-13
 -1      3476 2.06248E+01-5.51446E-01 5.65801E-03-1.48663E-02-5.13220E-14 6.98843E-14
 -1      3477 2.07166E+01-6.43435E-01-2.66973E-03-8.80424E-02-1.59814E-14-3.29539E-14
 -1      3478 2.08828E+01-7.69561E-01-5.57842E-03-1.19546E-02-8.55474E-14 1.36203E-13
 -1      3479 2.04156E+01-3.82160E-01 4.34964E-03 7.53246E-02-2.23575E-13 7.82196E-14
 -1      3480 2.04904E+01-4.66338E-01-1.29900E-03 3.07416E-02-1.35000E-13 1.98884E-13
 -1      3481 2.05918E+01-5.64377E-01-5.29281E-03 1.02909E-01-1.94072E-13 1.05041E-13
 -1      3482 2.02620E+01-2.40844E-01 3.06873E-03 1.18674E-01-2.97790E-13 7.79085E-14
 -1      3483 2.03184E+01-3.08766E-01-3.94493E-04 9.50369E-02-2.50597E-13-1.56476E-14
 -1      3484 2.03740E+01-3.78121E-01-4.36905E-03 1.55869E-01-1.41968E-13-3.91259E-14
 -1      3485 2.01564E+01-1.33880E-01 2.00735E-03 1.32063E-01-3.77866E-13 1.46982E-13
 -1      3486 2.01964E+01-1.83956E-01 1.06320E-04 1.22482E-01-4.01321E-13 3.08463E-15
 -1      3487 2.02220E+01-2.28805E-01-3.29726E-03 1.69813E-01-4.40889E-13 1.42179E-13
 -1      3488 2.00879E+01-5.92026E-02 1.13816E-03 1.27885E-01 2.94305E-15 2.81012E-13
 -1      3489 2.01149E+01-9.32365E-02 3.40761E-04 1.27108E-01-2.32663E-13 1.52123E-13
 -1      3490 2.01223E+01-1.19279E-01-2.31425E-03 1.61902E-01-3.52645E-13-7.35580E-15
 -1      3491 2.00451E+01-1.07037E-02 7.05556E-05 1.14826E-01 1.52943E-13 2.08896E-13
 -1      3492 2.00636E+01-3.20340E-02 3.99309E-04 1.19220E-01 1.82044E-13 2.53725E-13
 -1      3493 2.00613E+01-4.55736E-02-1.74554E-03 1.43621E-01 3.59215E-14-1.22736E-13
 -1      3494 1.98848E+01 1.82154E-01-8.36642E-04-1.36045E-02-1.83839E-13-2.82134E-14
 -1      3495 1.98866E+01 1.77370E-01 2.12525E-04 8.87797E-03-2.75504E-13 3.50915E-13
 -1      3496 2.00679E+01-6.80447E-02 6.92462E-04-1.92705E-01 3.22817E-15 1.20090E-13
 -1      3497 2.00597E+01-5.89295E-02 2.94363E-04-1.95671E-01 3.81517E-14 9.29999E-14
 -1      3498 2.00698E+01-5.85260E-02-9.51562E-04-1.96127E-01 2.37169E-14 1.39362E-13
 -1      3499 2.00740E+01-7.86026E-02-1.30787E-03-2.01999E-01 5.17333E-14 6.46854E-14
 -1      3500 1.98989E+01 1.85637E-01-7.03275E-04-6.24257E-02 7.08145E-14-1.36188E-13
 -1      3501 1.98899E+01 1.87880E-01-2.33908E-04-3.96503E-02-4.21619E-14-1.95453E-13
 -1      3502 1.98664E+01 2.06112E-01 6.90967E-04-2.13153E-02-7.78746E-14 1.14389E-13
 -1      3503 1.98857E+01 2.07815E-01 8.22465E-04-7.41702E-02 1.45350E-13-1.21830E-13
 -1      3504 1.43593E+01 2.04363E+00-1.92650E-02-1.32523E+00 2.22192E-13-3.36930E-13
 -1      3505 1.29693E+01 2.16285E+00 3.49641E-02-1.31964E+00 2.14179E-13-2.53554E-13
 -1      3506 1.33283E+01 1.68084E+00 1.18397E-01-2.78073E+00 1.84410E-13-3.41165E-13
 -1      3507 1.53929E+01 1.75112E+00 8.06991E-02-1.96291E+00 1.08332E-13-2.18031E-13
 -1      3508 2.02648E+01 1.46339E+00 9.57472E-03-6.06348E-01-1.55298E-14-6.20607E-14
 -1      3509 2.47241E+01-6.07810E+00-1.14885E-02 4.20173E+00 6.66134E-16 2.65357E-13
 -1      3510 1.68010E+01 3.53089E-01 2.68256E-01-5.28409E+00-4.87076E-14-1.72029E-13
 -1      3511 1.60177E+01 2.05175E+00-3.07476E-02 2.45841E-01-1.54781E-13-1.72952E-15
 -1      3512 1.68448E+01 1.87867E+00-1.02932E-02 1.08558E-01-1.39233E-13-5.99471E-14
 -1      3513 1.74320E+01 1.68294E+00-2.41706E-02-8.27318E-02-1.32394E-14 3.18643E-14
 -1      3514 1.79710E+01 1.49515E+00-8.39469E-03-1.37252E-01 1.54374E-13-2.54125E-14
 -1      3515 1.81345E+01 1.37841E+00 2.20078E-02 1.72545E-01 1.00239E-13 2.48653E-14
 -1      3516 1.99471E+01 9.45551E-02-6.30984E-04 9.12442E-02 1.04056E-13-9.88606E-14
 -1      3517 1.99629E+01 8.16403E-02 6.46438E-04 9.64583E-02 1.81719E-13-1.80828E-13
 -1      3518 2.03140E+01 7.36986E-01-1.13458E-03-2.36999E-01-6.17649E-14-3.52246E-14
 -1      3519 2.02965E+01 5.82143E-01-3.27270E-03-1.31897E-01-4.37686E-14-2.92574E-14
 -1      3520 2.03318E+01 5.83294E-01-1.63725E-03-1.05292E-01-4.22431E-14 5.63190E-15
 -1      3521 1.98923E+01 1.60714E-01-9.72552E-04 3.41929E-02-2.85943E-13 1.44234E-13
 -1      3522 1.99031E+01 1.50771E-01 6.19688E-04 5.29103E-02-8.26243E-14-1.28538E-13
 -1      3523 1.98713E+01 1.84660E-01 7.32984E-04 3.24550E-02-2.58453E-13 2.55566E-13
 -1      3524 2.02973E+01 1.07442E+00 5.24644E-03 4.26555E-01 9.48016E-14 6.46061E-14
 -1      3525 2.02698E+01 1.24900E+00-3.82913E-03 5.09731E-01 9.41368E-14 5.28367E-14
 -1      3526 2.02522E+01 1.39037E+00-4.57976E-04 4.68560E-01 9.01117E-14 2.87186E-14
 -1      3527 2.63493E+01-2.45412E+00-5.94844E-02 1.96702E-01-2.34677E-13-2.55538E-13
 -1      3528 2.55570E+01-3.16621E+00 3.49256E-03 1.46179E+00-1.60630E-13-3.27525E-13
 -1      3529 1.31395E+01 1.00558E+00 4.67436E-02-3.77838E+00 9.44696E-14-4.13277E-13
 -1      3530 1.30079E+01 2.96881E-01 1.26906E-01-4.81631E+00 1.05114E-13-5.24136E-13
 -1      3531 1.46449E+01-3.06475E-01 1.07497E-02-5.05347E+00 1.89241E-14-4.03774E-13
 -1      3532 1.99159E+01 1.29073E-01-8.87640E-04 7.03447E-02-6.22275E-14-2.51828E-14
 -1      3533 1.99315E+01 1.16522E-01 8.30951E-04 8.26011E-02-3.59404E-14-1.85905E-13
 -1      3534 1.99311E+01 1.05477E-01-2.98489E-04 1.02452E-01 3.62927E-14-2.61241E-13
 -1      3535 1.98958E+01 1.47392E-01 1.84932E-04 7.65338E-02-3.19144E-13-1.32162E-13
 -1      3536 2.02728E+01 1.14520E+00-1.24713E-03-4.18802E-01-2.94736E-14-4.10237E-14
 -1      3537 2.58118E+01-2.92144E+00-2.83390E-02-8.22780E-01-4.46518E-15-1.79193E-13
 -1      3538 2.55509E+01-2.06780E+00 2.25577E-02 1.71034E-01-2.80834E-14 1.34878E-13
 -1      3539 2.50790E+01-3.10059E+00-2.44247E-02-1.49972E+00-5.48019E-14-1.90615E-13
 -1      3540 2.06694E+01-2.49281E+00 4.28907E-02 4.53479E+00-1.38429E-13-1.63498E-14
 -1      3541 1.92658E+01-1.65869E+00-2.16150E-02 4.31121E+00-1.38512E-13-4.09863E-14
 -1      3542 2.17459E+01-2.60758E+00 2.06575E-02 3.66179E+00-7.28317E-14-1.62361E-14
 -1      3543 2.59407E+01-4.23009E-01-1.30979E-02 1.39414E+00-1.14039E-14-1.89154E-14
 -1      3544 1.56730E+01 1.95318E+00 5.38039E-02 1.21251E+00-1.42955E-13-1.86712E-13
 -1      3545 2.02028E+01 1.64892E+00-3.23631E-03 1.29681E-01 6.61731E-14-2.59586E-14
 -1      3546 2.01986E+01 1.66868E+00-2.68492E-03 3.99702E-02 4.21378E-14-6.71978E-14
 -1      3547 2.02539E+01 1.38206E+00-6.62633E-03-4.16368E-01-3.88524E-15-5.73100E-14
 -1      3548 2.03128E+01 9.81474E-01 4.95292E-03-3.07149E-01-3.92552E-14-5.07208E-14
 -1      3549 2.03233E+01 9.71903E-01 1.75912E-03-2.51135E-01-2.21922E-14-2.29686E-14
 -1      3550 2.02366E+01 1.48603E+00-2.29546E-03-3.43326E-01 1.68101E-14-9.76937E-14
 -1      3551 2.66848E+01 1.33551E+00-4.05961E-02-1.89795E+00 1.79343E-13-4.75793E-13
 -1      3552 2.57533E+01 4.53210E+00-7.87990E-02-1.60466E+00 2.76446E-13-3.92263E-13
 -1      3553 2.52862E+01 3.46849E+00-4.65529E-02-1.78929E+00 2.24345E-13-4.04031E-13
 -1      3554 2.48844E+01 4.72970E+00-3.69817E-02-1.14837E+00 2.55976E-13-3.52971E-13
 -1      3555 1.42593E+01 1.11050E+00-1.11613E-02-3.22618E+00 1.22141E-13-3.05509E-13
 -1      3556 2.47342E+01-2.70337E+00 8.58038E-03 1.00204E+00-1.64287E-13-2.84915E-13
 -1      3557 2.47081E+01-3.31421E+00-3.45962E-03 2.05115E+00-1.66911E-14-4.69483E-13
 -1      3558 2.34608E+01-3.03625E+00-1.41683E-02 2.51138E+00 2.47560E-14-4.08398E-13
 -1      3559 1.83624E+01-2.60929E+00 1.15769E-01-6.22681E+00-1.87766E-14-3.00780E-13
 -1      3560 2.02535E+01-3.05951E+00 1.50337E-03-5.41839E+00-1.18794E-14-3.61215E-13
 -1      3561 1.71609E+01-1.76996E+00 4.14738E-02-5.78734E+00-5.62397E-14-3.42979E-13
 -1      3562 2.50532E+01 5.32731E+00-7.77030E-02 4.51186E-01 2.06397E-13-2.33558E-13
 -1      3563 2.44896E+01 5.00484E+00-4.95200E-02-1.03846E-01 1.66464E-13-2.72645E-13
 -1      3564 2.43433E+01 4.48282E+00-3.02046E-02 8.47525E-01 1.51698E-13-1.27556E-13
 -1      3565 2.52088E+01 2.92740E+00-6.55345E-02 1.97080E+00-8.63892E-15-1.02710E-13
 -1      3566 2.45365E+01 3.56926E+00-3.35329E-02 1.63961E+00 3.60267E-14-3.21149E-14
 -1      3567 2.01599E+01 1.25164E-01-1.10053E-03-1.27188E-01 4.64220E-14 5.43455E-14
 -1      3568 2.01708E+01 4.29528E-02-3.18574E-04-1.68908E-01 6.04093E-14 4.28616E-14
 -1      3569 2.01901E+01 7.90778E-02 1.34638E-03-1.49999E-01 5.41710E-14 3.91976E-14
 -1      3570 2.02074E+01 4.12935E-02-6.26432E-04-1.58986E-01 6.44347E-14 2.38314E-14
 -1      3571 2.02873E+01 8.58679E-01-3.13746E-03 2.99819E-01 8.48575E-14 7.35306E-14
 -1      3572 2.00067E+01 3.74287E-02 4.58967E-04 9.46495E-02 7.80715E-14-1.43910E-13
 -1      3573 2.00135E+01 2.54009E-02-5.23304E-04 1.00107E-01 1.55442E-13 2.02616E-14
 -1      3574 1.99968E+01 4.54404E-02-1.11566E-04 9.58774E-02 1.09010E-13-4.53000E-13
 -1      3575 2.01027E+01-4.32774E-02-6.56686E-04-1.90061E-01 5.44107E-14 3.52849E-14
 -1      3576 2.00845E+01-4.04251E-02 4.83790E-04-1.97911E-01 4.68845E-14 2.00833E-14
 -1      3577 2.00913E+01-3.59312E-02 2.45700E-04-1.98378E-01 5.47505E-14 2.88292E-14
 -1      3578 2.00318E+01 4.39370E-03 2.07573E-04 1.12355E-01 1.57309E-13 1.82551E-13
 -1      3579 2.02450E+01 2.52836E-01-1.68729E-03-5.28308E-02 5.70352E-14 5.00768E-14
 -1      3580 2.02714E+01 3.43152E-01 2.44560E-03 4.43256E-03 7.53482E-14 8.88967E-14
 -1      3581 1.71713E+01 1.70323E+00 3.32960E-02 5.55709E-01-1.04737E-13-1.82766E-14
 -1      3582 2.33668E+01-3.83226E+00-7.20520E-03-4.10819E+00-6.85077E-14-2.13132E-13
 -1      3583 2.03152E+01 4.58630E-01-2.06472E-04 4.94149E-02 8.51898E-14 5.86953E-14
 -1      3584 2.02762E+01 4.48908E-01-3.18915E-03 6.57692E-02 8.02800E-14 9.76152E-14
 -1      3585 2.03054E+01 5.83104E-01 3.87898E-03 1.53535E-01 8.79528E-14 9.45961E-14
 -1      3586 2.02106E+01 1.61480E+00-2.37104E-03-2.01514E-01 4.31820E-14-8.89321E-14
 -1      3587 2.02215E+01 1.55649E+00-4.24570E-03-2.84997E-01 2.82665E-14-1.02729E-13
 -1      3588 2.03007E+01 1.28582E+00 5.41593E-03-2.55798E-01 2.22301E-14-7.49195E-14
 -1      3589 1.99634E+01 7.03427E-02-7.36637E-04 1.12034E-01 1.62699E-13-7.70147E-14
 -1      3590 1.99749E+01 6.65133E-02-2.11843E-04 9.87784E-02 1.48584E-13-5.29290E-14
 -1      3591 1.99864E+01 5.71084E-02 5.82650E-04 9.94924E-02 8.45210E-14-1.32535E-13
 -1      3592 2.01077E+01-2.90834E-02 3.15950E-04-1.97003E-01 4.39243E-14 2.87683E-14
 -1      3593 2.01185E+01-1.87077E-02 4.88944E-04-1.94331E-01 5.89280E-14 5.15562E-14
 -1      3594 2.01680E+01-6.87762E-03-6.35475E-04-1.78217E-01 7.33498E-14 2.33367E-14
 -1      3595 2.01325E+01-3.18686E-02-6.31177E-04-1.86661E-01 4.91492E-14 2.32146E-14
 -1      3596 2.01390E+01 1.93181E+00 5.11189E-03-9.39587E-02 4.56162E-14-7.62667E-14
 -1      3597 2.64851E+01-1.81418E+00-1.03258E-03-4.64212E-01-7.98459E-14-3.86365E-13
 -1      3598 2.55399E+01-2.14519E+00-1.31527E-02-8.34963E-02-1.70365E-13-3.53622E-13
 -1      3599 2.62198E+01-1.10106E+00-6.90793E-02-1.05555E+00 4.97258E-14-5.27823E-13
 -1      3600 2.02003E+01 1.70105E+00 4.56244E-03 4.55333E-01 8.16607E-14-7.00761E-15
 -1      3601 2.51271E+01 2.01305E+00 1.01405E-02 1.97031E+00-1.25230E-13-9.74047E-15
 -1      3602 2.02212E+01 1.55836E+00-3.70757E-03 2.81371E-01 8.94747E-14-1.75138E-14
 -1      3603 2.02104E+01 1.61595E+00-2.15616E-03 2.00377E-01 8.22402E-14-9.36400E-15
 -1      3604 2.02854E+01 1.39681E+00 5.23953E-03 1.33045E-01 6.21942E-14-2.23866E-15
 -1      3605 2.03211E+01 1.02336E+00-4.81544E-03-2.17034E-01 8.56845E-16-4.70084E-14
 -1      3606 2.03576E+01 8.11213E-01 5.20103E-03-1.67096E-01-3.03767E-14-1.50517E-14
 -1      3607 2.03298E+01 2.41035E-01 1.23748E-03 6.21885E-02 2.33457E-15 2.16059E-14
 -1      3608 2.03078E+01 1.70570E-01-1.04191E-03 9.40802E-02-1.98957E-14 2.15095E-14
 -1      3609 2.02895E+01 1.16634E-01 9.10596E-04 1.12656E-01-1.76416E-15-2.09615E-15
 -1      3610 2.02658E+01 7.43287E-02-5.12468E-04 1.31536E-01-1.62848E-14-1.34748E-14
 -1      3611 2.03301E+01 1.65577E-01 9.57509E-06 8.52168E-02-1.87717E-14 1.17088E-14
 -1      3612 2.02419E+01 4.41731E-02 5.90496E-04 1.41308E-01-2.77771E-14 8.10293E-15
 -1      3613 2.02179E+01 2.30141E-02-1.84551E-04 1.51440E-01-2.02591E-14-1.97235E-14
 -1      3614 2.02840E+01 7.16554E-02-1.65224E-04 1.15557E-01-2.15447E-14-2.14820E-15
 -1      3615 2.01906E+01 1.09334E-02 2.85514E-04 1.55357E-01 1.79796E-14-2.26293E-14
 -1      3616 2.01664E+01 6.02474E-03-2.82736E-05 1.60160E-01 3.03225E-14-2.27454E-14
 -1      3617 2.02308E+01 2.32534E-02-1.80348E-04 1.31043E-01-4.49022E-16 2.51087E-14
 -1      3618 2.01364E+01 8.12842E-03 1.10017E-05 1.60343E-01 7.42865E-15-2.95644E-14
 -1      3619 2.01110E+01 1.62653E-02-3.94914E-05 1.62232E-01-3.20501E-15-1.95968E-14
 -1      3620 2.01730E+01 9.81856E-03-5.74093E-05 1.36493E-01 4.71471E-15 2.50051E-14
 -1      3621 2.00776E+01 3.02178E-02-2.44035E-04 1.59840E-01 4.46536E-15-1.27220E-14
 -1      3622 2.00489E+01 4.96190E-02-2.42242E-04 1.60245E-01 7.93216E-16-2.41401E-14
 -1      3623 2.01103E+01 2.41708E-02 2.06780E-04 1.34946E-01 1.02349E-14 3.53817E-14
 -1      3624 2.00086E+01 7.59861E-02-4.55613E-04 1.55061E-01-3.77972E-14-1.08638E-14
 -1      3625 1.99705E+01 1.08122E-01-6.77372E-04 1.54032E-01-5.60494E-14 4.12932E-14
 -1      3626 2.00382E+01 6.33138E-02 6.19930E-04 1.27020E-01-5.17403E-15 4.58218E-14
 -1      3627 1.99236E+01 1.44897E-01-6.50255E-04 1.45082E-01-1.42896E-14 4.39509E-14
 -1      3628 1.98743E+01 1.87151E-01-1.46030E-03 1.41552E-01 6.14570E-14 3.16545E-14
 -1      3629 1.99527E+01 1.24858E-01 1.23063E-03 1.10973E-01-1.08852E-14 9.03951E-14
 -1      3630 1.98147E+01 2.36454E-01-7.37228E-04 1.25562E-01 2.63697E-14-3.83135E-14
 -1      3631 1.97443E+01 2.91355E-01-2.69860E-03 1.16186E-01-1.98808E-14-5.39697E-14
 -1      3632 1.98480E+01 2.06599E-01 2.02043E-03 8.22220E-02 1.14176E-14 7.68844E-14
 -1      3633 1.96659E+01 3.55111E-01-6.90206E-04 8.73115E-02-2.54977E-14-6.35003E-14
 -1      3634 1.95623E+01 4.23977E-01-4.60793E-03 6.57467E-02-9.88758E-14-8.96128E-14
 -1      3635 1.97111E+01 3.10405E-01 3.11004E-03 3.06406E-02-1.56220E-14-1.74586E-14
 -1      3636 1.94576E+01 5.03661E-01-3.59185E-04 1.44533E-02-8.43100E-14-9.63669E-14
 -1      3637 1.93041E+01 5.86365E-01-7.47758E-03-3.02985E-02-6.45487E-14-6.78837E-14
 -1      3638 1.95274E+01 4.35798E-01 4.50692E-03-6.02751E-02-8.35924E-14-7.10052E-14
 -1      3639 1.91646E+01 6.81356E-01 4.82390E-04-1.18887E-01-9.02869E-14-1.29818E-14
 -1      3640 1.89383E+01 7.73875E-01-1.16506E-02-2.04695E-01-7.79457E-14-1.66893E-14
 -1      3641 1.92789E+01 5.77948E-01 6.17661E-03-2.16561E-01-6.11173E-14-8.04683E-14
 -1      3642 1.87560E+01 8.78099E-01 2.19829E-03-3.52657E-01-2.79107E-14-4.17206E-14
 -1      3643 1.84270E+01 9.68013E-01-1.74557E-02-5.07128E-01 1.28171E-14-1.70978E-14
 -1      3644 1.89461E+01 7.22019E-01 7.95817E-03-4.77225E-01-4.31491E-14-1.67377E-14
 -1      3645 1.81980E+01 1.06414E+00 5.38686E-03-7.45729E-01-2.08460E-15-4.63139E-14
 -1      3646 1.77283E+01 1.12309E+00-2.51303E-02-1.00895E+00 3.77823E-14 1.88944E-14
 -1      3647 1.85125E+01 8.33634E-01 9.48060E-03-8.97955E-01 6.19920E-16 5.45354E-17
 -1      3648 1.74566E+01 1.17450E+00 1.08035E-02-1.38203E+00 4.36004E-14-1.05541E-13
 -1      3649 1.68040E+01 1.15222E+00-3.19527E-02-1.80366E+00 2.90620E-14-7.01201E-14
 -1      3650 1.79764E+01 8.45167E-01 1.10845E-02-1.55480E+00-1.96401E-14-6.71234E-14
 -1      3651 2.55555E+01 1.83497E+00-6.59512E-02-2.03657E+00 1.33289E-13-2.45800E-13
 -1      3652 2.61958E+01 3.58958E-01 9.63963E-03-1.77602E+00 7.31810E-14-4.06860E-13
 -1      3653 2.02079E+01 1.23807E-01-8.67606E-04-1.27045E-01 4.01150E-14 4.27620E-14
 -1      3654 2.02315E+01 1.82415E-01 1.94611E-03-9.23534E-02 2.68928E-14 4.40287E-14
 -1      3655 2.02864E+01 2.57375E-01-3.63257E-04-5.55992E-02 5.44641E-14 5.23530E-14
 -1      3656 2.02482E+01 1.24409E-01-5.44481E-04-1.21288E-01 5.02649E-14 6.32303E-14
 -1      3657 1.90899E+01 7.75310E-01-9.65996E-03 4.07424E-02-3.33464E-14 5.16816E-14
 -1      3658 1.92806E+01 6.78804E-01-1.10693E-03 9.92017E-06-2.63639E-14 1.04520E-13
 -1      3659 1.94095E+01 5.86671E-01-6.00955E-03-5.24835E-02-5.83590E-14 6.41563E-14
 -1      3660 1.95334E+01 5.08152E-01-1.26119E-03-6.61177E-02-1.99174E-13-3.32468E-14
 -1      3661 1.93499E+01 6.10368E-01 6.42742E-03 9.68343E-02-8.40086E-14-1.60209E-13
 -1      3662 1.96238E+01 4.36235E-01-3.62031E-03-9.13473E-02-2.10849E-13-7.39644E-14
 -1      3663 1.97031E+01 3.75400E-01-1.18761E-03-9.09570E-02-4.70551E-14-2.25410E-13
 -1      3664 1.95688E+01 4.67385E-01 4.51476E-03 3.69790E-03-2.56359E-13 1.91490E-14
 -1      3665 1.97655E+01 3.22162E-01-1.91762E-03-1.00508E-01 1.12874E-13-1.81012E-13
 -1      3666 1.98145E+01 2.76116E-01-1.28843E-03-9.38856E-02 8.84869E-14-2.07423E-13
 -1      3667 1.97195E+01 3.52078E-01 2.92683E-03-4.14969E-02-3.84519E-14-1.14866E-13
 -1      3668 1.98430E+01 2.52928E-01 2.30939E-05-9.11808E-02 5.54284E-14-1.31293E-13
 -1      3669 1.98619E+01 2.25084E-01-1.04358E-03-7.66324E-02 1.73299E-13-7.50496E-14
 -1      3670 1.98501E+01 2.29282E-01 1.22985E-04-5.04149E-02 1.07236E-13 2.07211E-14
 -1      3671 1.98040E+01 2.76691E-01 1.45928E-03-5.25753E-02 2.22061E-13-1.81004E-13
 -1      3672 2.00917E+01-4.58262E-02 8.06126E-04-1.82908E-01 5.73263E-14 3.77104E-14
 -1      3673 2.00997E+01-4.39695E-02 5.26136E-05-1.80462E-01 6.87805E-14 2.90462E-14
 -1      3674 2.01695E+01-1.93022E-01 1.52487E-03-2.47950E-01-1.74068E-15 1.55730E-13
 -1      3675 2.01302E+01-1.50332E-01 1.29406E-03-2.43821E-01-2.20378E-16 9.27805E-14
 -1      3676 2.01060E+01-1.17243E-01 1.40761E-03-2.27034E-01 3.01944E-14 8.61642E-14
 -1      3677 2.00849E+01-9.25198E-02 6.24998E-04-2.21308E-01 5.56260E-14 4.15062E-14
 -1      3678 2.00987E+01-1.30405E-01-2.50723E-03-2.58645E-01-1.78163E-14 1.58713E-13
 -1      3679 2.04653E+01-4.79736E-01 8.87027E-04-2.61304E-01-1.10130E-13 1.95751E-13
 -1      3680 2.03719E+01-3.88294E-01 3.87542E-03-2.76015E-01-9.88024E-14 1.79012E-13
 -1      3681 2.07305E+01-6.94739E-01-4.17449E-04-2.20169E-01-1.07625E-13 1.51773E-13
 -1      3682 2.06034E+01-5.80106E-01 5.87782E-03-2.58462E-01-1.07470E-13 1.51161E-13
 -1      3683 2.05124E+01-5.57299E-01-7.04893E-03-3.67798E-01-1.01790E-13 7.09009E-14
 -1      3684 2.10883E+01-9.34765E-01-2.64715E-03-1.10130E-01-1.83512E-13 1.64243E-13
 -1      3685 2.09295E+01-8.10923E-01 8.07511E-03-1.85618E-01-1.36343E-13 1.64900E-13
 -1      3686 2.08311E+01-8.08948E-01-8.75681E-03-3.52109E-01-1.07556E-13 4.75218E-14
 -1      3687 2.15288E+01-1.14580E+00-5.75998E-03 1.03079E-01-1.15067E-13 5.04889E-14
 -1      3688 2.13505E+01-1.04439E+00 9.80433E-03-2.23483E-02-1.40043E-13 9.79122E-14
 -1      3689 2.12701E+01-1.08604E+00-9.45230E-03-2.55167E-01-9.55368E-14 1.50798E-13
 -1      3690 2.20120E+01-1.22771E+00-7.52994E-03 4.46920E-01-6.74157E-16 8.85052E-14
 -1      3691 2.18390E+01-1.20702E+00 9.59751E-03 2.66299E-01-2.47817E-14 1.20667E-13
 -1      3692 2.18220E+01-1.32029E+00-7.95646E-03-2.91064E-02-8.90479E-14 1.20919E-13
 -1      3693 2.24577E+01-1.04238E+00-5.75540E-03 9.10735E-01-1.44161E-13 2.43874E-13
 -1      3694 2.23228E+01-1.18177E+00 4.88683E-03 6.89245E-01-1.16017E-13 1.34921E-13
 -1      3695 2.24332E+01-1.38629E+00-3.08546E-03 3.64789E-01-1.20352E-13 2.31813E-13
 -1      3696 2.27348E+01-4.32314E-01-6.40507E-04 1.37768E+00-2.53223E-13 3.59374E-13
 -1      3697 2.26753E+01-7.90513E-01-4.17294E-03 1.19618E+00-1.91505E-13 2.53725E-13
 -1      3698 2.29962E+01-1.08703E+00 1.34742E-02 9.22146E-01-2.22044E-13 2.79438E-13
 -1      3699 2.27215E+01 5.95583E-01 7.69273E-03 1.64981E+00-8.73533E-14 2.63074E-13
 -1      3700 2.27889E+01 3.71110E-02-1.80600E-02 1.61879E+00-1.80750E-13 2.50884E-13
 -1      3701 2.33262E+01-3.38780E-01 6.74467E-03 1.46626E+00-1.59763E-13 2.02388E-13
 -1      3702 2.29855E+01 2.31126E+00-1.85935E-03 1.54301E+00-2.09503E-14 2.37422E-13
 -1      3703 2.31326E+01 1.62800E+00-1.64641E-02 1.72811E+00-7.00113E-14 2.28108E-13
 -1      3704 2.21568E+01 3.03002E+00-7.46992E-03-3.35029E-01 1.87320E-14 3.91758E-13
 -1      3705 2.21479E+01 3.07465E+00 2.89961E-04 1.59666E-01 7.26069E-15 3.76053E-13
 -1      3706 2.23567E+01 2.29094E+00-2.23552E-02-1.27816E+00 1.65786E-13 2.08534E-13
 -1      3707 2.22611E+01 2.76099E+00 8.44698E-03-9.00850E-01 1.68658E-13 3.89384E-13
 -1      3708 2.27950E+01 3.30039E+00-1.07156E-02-6.91992E-01 6.14248E-14 2.47719E-13
 -1      3709 2.26486E+01 1.04953E+00-2.85872E-02-1.69372E+00 1.53143E-13 1.10025E-13
 -1      3710 2.25594E+01 1.70143E+00 1.26642E-02-1.55710E+00 1.72232E-13 1.21309E-13
 -1      3711 2.30935E+01 2.21277E+00-3.12227E-03-1.55120E+00 2.59520E-13 7.78570E-14
 -1      3712 2.27863E+01-1.17686E-01-1.75330E-02-1.56177E+00-4.62358E-14 9.38715E-14
 -1      3713 2.27660E+01 4.34939E-01 6.64527E-03-1.64742E+00 8.62288E-15 2.96235E-14
 -1      3714 2.33372E+01 7.51652E-01 7.15943E-03-1.75507E+00 6.80148E-14 1.33935E-13
 -1      3715 2.26341E+01-8.80674E-01-4.90566E-03-1.11932E+00 4.65470E-14 9.68309E-14
 -1      3716 2.27037E+01-5.52899E-01-3.28528E-03-1.32009E+00 5.18357E-14 8.83600E-14
 -1      3717 2.32947E+01-4.66583E-01 9.17847E-03-1.39270E+00 1.34347E-14 2.86897E-14
 -1      3718 2.22508E+01-1.19017E+00 6.20923E-03-6.22493E-01-2.40484E-14 3.78700E-14
 -1      3719 2.23918E+01-1.08365E+00-7.45835E-03-8.35068E-01-7.34043E-15 4.75437E-14
 -1      3720 2.29131E+01-1.16401E+00 5.09862E-03-8.20512E-01 7.26932E-14 3.81023E-14
 -1      3721 2.17586E+01-1.17655E+00 1.00196E-02-2.19567E-01 7.25873E-16 2.84821E-14
 -1      3722 2.19349E+01-1.21753E+00-7.74820E-03-3.90531E-01 4.17771E-14 4.59504E-14
 -1      3723 2.23381E+01-1.37747E+00-2.39047E-03-2.96587E-01 2.73057E-14 6.30108E-14
 -1      3724 2.12746E+01-9.90592E-01 9.68020E-03 4.42077E-02-6.76165E-14 6.56383E-14
 -1      3725 2.14522E+01-1.10129E+00-5.17999E-03-7.08147E-02-1.75270E-14 5.40850E-14
 -1      3726 2.17255E+01-1.27377E+00-8.14337E-03 6.75655E-02 2.57325E-14-1.63483E-13
 -1      3727 2.08647E+01-7.47478E-01 7.78585E-03 1.85861E-01-6.32822E-14 1.16257E-13
 -1      3728 2.10201E+01-8.74645E-01-2.30395E-03 1.19913E-01-6.40117E-14 4.39342E-14
 -1      3729 2.11861E+01-1.01990E+00-9.34034E-03 2.66515E-01-4.65846E-14-7.42416E-14
 -1      3730 2.05502E+01-5.14331E-01 5.58793E-03 2.41874E-01-2.50268E-13 7.52862E-14
 -1      3731 2.06734E+01-6.29540E-01-2.48509E-04 2.11396E-01-1.90258E-13 1.07564E-13
 -1      3732 2.07624E+01-7.36577E-01-8.38985E-03 3.42754E-01-1.87959E-13 6.15781E-14
 -1      3733 2.03267E+01-3.21463E-01 3.69019E-03 2.46225E-01-1.92330E-13 8.86793E-14
 -1      3734 2.04171E+01-4.13384E-01 8.71387E-04 2.38260E-01-1.40277E-13 4.77912E-14
 -1      3735 2.04561E+01-4.84508E-01-6.57971E-03 3.44181E-01-2.41654E-13 2.00857E-13
 -1      3736 2.01782E+01-1.76954E-01 2.20939E-03 2.23919E-01-3.87630E-13 4.89566E-14
 -1      3737 2.02404E+01-2.43915E-01 1.28766E-03 2.28507E-01-3.18315E-13 7.64734E-14
 -1      3738 2.02498E+01-2.86549E-01-4.77525E-03 3.07622E-01-2.52045E-13 1.50611E-13
 -1      3739 2.00863E+01-7.67386E-02 1.27209E-03 1.91064E-01-1.45077E-13-1.01586E-13
 -1      3740 2.01263E+01-1.22094E-01 1.29233E-03 2.01533E-01-3.27987E-13-1.15884E-13
 -1      3741 2.01201E+01-1.44272E-01-3.24750E-03 2.57040E-01-1.98956E-13-8.13405E-14
 -1      3742 2.00318E+01-1.21804E-02 2.17750E-04 1.56495E-01 1.02296E-13-1.72247E-13
 -1      3743 2.00576E+01-4.00926E-02 1.37347E-03 1.68551E-01 9.33262E-15-8.12967E-14
 -1      3744 2.00445E+01-4.88287E-02-1.87849E-03 2.05823E-01-2.12391E-14 5.78984E-14
 -1      3745 1.63498E+01 1.08217E+00 4.54396E-03-2.38255E+00-1.58337E-15-1.06501E-13
 -1      3746 1.55381E+01 1.04565E+00-9.75844E-03-2.82135E+00 1.00977E-13-2.24121E-13
 -1      3747 1.69956E+01 1.40206E+00-3.24733E-02 1.13854E+00-1.03924E-13-9.19496E-14
 -1      3748 1.76211E+01 1.33348E+00 3.19326E-03 8.48223E-01-8.71631E-14-3.43627E-14
 -1      3749 1.55424E+01 1.46378E+00-2.94518E-02 2.02847E+00-1.08404E-13-2.47540E-13
 -1      3750 1.65507E+01 1.47939E+00 9.37446E-03 1.54428E+00-1.70201E-13-1.78643E-13
 -1      3751 1.72244E+01 1.12738E+00 3.11392E-02 1.84070E+00-1.02967E-13-1.74685E-13
 -1      3752 1.61529E+01 9.00397E-01 3.69565E-02 3.00525E+00-2.09220E-13-1.18475E-13
 -1      3753 2.02836E+01-3.11639E-01 1.43025E-03-2.63607E-01-1.05974E-13 1.94255E-13
 -1      3754 2.02203E+01-2.46016E-01 2.34564E-03-2.65333E-01-1.37285E-14 2.27170E-13
 -1      3755 2.01688E+01-2.20057E-01-3.68701E-03-3.00552E-01-5.32759E-14 2.14839E-13
 -1      3756 1.57565E+01 5.89427E-01 7.13497E-02-3.67284E+00 3.22192E-14-2.89151E-13
 -1      3757 2.20070E+01-3.22347E+00 7.23839E-02-4.51857E+00 1.74617E-14-2.32059E-13
 -1      3758 2.34332E+01-3.32446E+00-4.82241E-04-3.21976E+00 1.98105E-14-1.57782E-13
 -1      3759 2.02796E+01 1.43139E+00 4.92578E-03 2.65689E-03 3.92206E-14-6.62475E-14
 -1      3760 2.01984E+01 1.66919E+00-2.75522E-03-3.36006E-02 4.61243E-14-8.47757E-14
 -1      3761 2.02026E+01 1.65127E+00-3.15159E-03-1.23713E-01 4.68614E-14-9.33464E-14
 -1      3762 1.79433E+01 1.22706E+00-2.25972E-02 5.66635E-01 4.41600E-14-9.56364E-14
 -1      3763 1.83722E+01 1.12149E+00 9.21691E-04 3.97379E-01 1.29014E-13-1.26834E-13
 -1      3764 1.80115E+01 1.08037E+00 1.58181E-02 1.07273E+00-3.58245E-14-3.27491E-14
 -1      3765 1.86220E+01 9.96059E-01-1.50486E-02 2.27281E-01 1.21861E-13-1.87548E-13
 -1      3766 1.89101E+01 8.86892E-01-4.76030E-04 1.38465E-01 2.93090E-14-1.35635E-13
 -1      3767 1.90380E+01 7.76003E-01 8.76929E-03 2.70160E-01 1.43767E-13-1.42836E-13
 -1      3768 2.03507E+01 6.40584E-01-1.92455E-03-9.31747E-02-2.74987E-14-1.55651E-15
 -1      3769 1.98369E+01 2.08033E-01-9.93869E-04 3.63321E-02-8.64162E-14 4.44998E-13
 -1      3770 1.98496E+01 1.93578E-01 7.39798E-04 6.39261E-02-2.76305E-13 3.02022E-13
 -1      3771 2.00206E+01 1.30998E-02 1.43404E-04 1.19431E-01 2.10616E-13-2.67445E-13
 -1      3772 2.03146E+01 8.66004E-01-1.46465E-04 2.51907E-01 7.50662E-14 4.73928E-14
 -1      3773 2.51337E+01-8.42869E-01 2.48318E-02 1.18329E+00-3.01842E-16 7.35675E-14
 -1      3774 2.50752E+01 2.95614E-01-7.58538E-02 1.82148E+00-1.01959E-13-6.81573E-15
 -1      3775 1.59067E+01-1.41030E-01 2.63895E-02-4.47585E+00 2.08236E-14-2.94088E-13
 -1      3776 1.64341E+01-8.54406E-01 1.00383E-01-5.24927E+00-3.06838E-14-2.50525E-13
 -1      3777 1.80985E+01-1.57476E+00-1.31781E-02-5.01256E+00-4.94882E-14-3.27061E-13
 -1      3778 2.03588E+01 4.32244E-01 2.15243E-03-1.88125E-02 7.96292E-16 1.53061E-14
 -1      3779 2.03389E+01 3.25429E-01-2.09387E-03 3.12020E-02 2.47174E-14 2.11877E-14
 -1      3780 2.03641E+01 3.19698E-01 5.29792E-04 3.35395E-02-8.87799E-16 4.17596E-14
 -1      3781 2.44307E+01 1.12480E+00-2.10910E-02 1.84621E+00-1.23053E-13 2.11862E-14
 -1      3782 2.02449E+01 1.43867E+00-3.33447E-03 4.12441E-01 8.39863E-14-6.01090E-15
 -1      3783 2.02292E+01 1.53552E+00-9.86080E-04 3.43387E-01 8.41266E-14-2.60375E-14
 -1      3784 2.02891E+01 1.33419E+00 4.27627E-03 2.51368E-01 7.67973E-14-8.94033E-15
 -1      3785 2.02854E+01 1.25587E+00 2.63377E-03 3.50763E-01 8.68589E-14 9.94436E-15
 -1      3786 2.23372E+01 2.69399E+00-9.55101E-03 1.03398E+00-5.12177E-15 2.75944E-13
 -1      3787 2.36025E+01 3.12682E+00-1.97730E-02 1.33978E+00-4.90424E-14 1.14536E-13
 -1      3788 2.38617E+01 3.93732E+00-3.43113E-02 1.08950E+00 6.40391E-14-2.67269E-14
 -1      3789 2.22741E+01 3.00764E+00-7.40347E-04 6.21358E-01 5.26792E-15 3.08166E-13
 -1      3790 2.26176E+01-2.76161E+00 1.38117E-02 2.95657E+00 4.26031E-14-3.70778E-13
 -1      3791 2.13581E+01-2.22116E+00-2.57815E-02 3.16986E+00-3.58394E-15-2.08915E-13
 -1      3792 2.31095E+01-2.56801E+00 1.02028E-02 2.01279E+00-8.89046E-16-5.47421E-13
 -1      3793 1.99911E+01 4.50388E-02-3.74120E-04 1.09747E-01 8.60648E-14-2.87965E-13
 -1      3794 1.98391E+01 1.90717E-01 4.76302E-04 9.75103E-02-1.77973E-13 1.13420E-13
 -1      3795 1.98675E+01 1.62977E-01-1.29309E-03 8.96355E-02-3.54984E-13-1.79169E-13
 -1      3796 1.98898E+01 1.45383E-01 1.19399E-03 1.07212E-01-2.60369E-13-2.77841E-13
 -1      3797 1.72486E+01 6.62325E-01 1.13052E-02-2.56054E+00-1.14359E-14-1.01112E-13
 -1      3798 2.48448E+01-1.84977E+00-2.71172E-02-3.71210E-01-9.63318E-14-2.73412E-13
 -1      3799 2.49161E+01-2.27724E+00 1.61591E-02 1.72075E-01-2.93087E-13-1.36425E-13
 -1      3800 2.54753E+01-4.52423E-01-1.24549E-02-1.39498E+00 2.00760E-14-4.37888E-13
 -1      3801 2.41436E+01-2.45084E+00-1.47169E-02 7.28046E-01-1.30239E-13-2.36092E-13
 -1      3802 2.03144E+01 2.43243E-01-1.33134E-03-6.35433E-02 4.26137E-14 4.37498E-14
 -1      3803 2.03371E+01 3.32483E-01 2.09823E-03-2.03578E-02 6.79374E-14 4.59990E-14
 -1      3804 2.33676E+01 3.99090E+00-2.39833E-02 5.80300E-01 1.02349E-14-3.04934E-14
 -1      3805 2.03214E+01 1.16021E+00-2.59599E-03 1.32573E-01 7.07786E-14 1.07156E-14
 -1      3806 2.03179E+01 1.19383E+00-2.04615E-03 7.59395E-02 6.18489E-14 9.72692E-16
 -1      3807 2.01225E+01-4.10356E-02-6.67072E-04-1.65630E-01 5.20446E-14-4.99320E-14
 -1      3808 2.01185E+01-4.16395E-02 6.15920E-04-1.76512E-01 3.58366E-14 1.74195E-14
 -1      3809 2.01315E+01-3.84115E-02 1.37506E-04-1.74321E-01 4.17904E-14-6.25817E-15
 -1      3810 1.69292E+01-1.53144E-01-2.96014E-02-3.87816E+00 2.19594E-14-2.14979E-13
 -1      3811 2.02993E+01-3.59777E-01-5.23457E-03-3.41853E-01-8.63740E-14 2.01835E-13
 -1      3812 2.00780E+01-4.90251E-02 7.86894E-05-1.89212E-01-4.65760E-15 5.41526E-14
 -1      3813 2.00904E+01-4.50518E-02-8.47624E-04-1.77907E-01 4.36231E-14-2.73147E-15
 -1      3814 2.00767E+01-5.37364E-02 1.01134E-03-1.92876E-01-2.94025E-14 4.82170E-14
 -1      3815 2.02362E+01 3.44871E-02-2.28588E-04-1.47204E-01 9.28709E-14-4.69893E-14
 -1      3816 2.02582E+01 6.97150E-02 8.66489E-04-1.32455E-01 7.11277E-14-1.52333E-14
 -1      3817 1.98389E+01 2.26386E-01-6.59993E-04-1.98975E-02 9.32976E-14 1.58529E-13
 -1      3818 1.98379E+01 2.20482E-01 1.70165E-04 7.78559E-03 9.98525E-14 2.58852E-13
 -1      3819 1.98160E+01 2.32464E-01 1.21575E-03 3.94090E-02 9.64805E-14 4.96513E-13
 -1      3820 1.98176E+01 2.48007E-01 1.18886E-05-2.03745E-02 2.08136E-13 1.44999E-13
 -1      3821 2.00706E+01-7.93453E-02-1.70637E-03-2.23202E-01 4.82152E-14 1.39357E-13
 -1      3822 2.00788E+01-7.43449E-02 1.21328E-03-2.07742E-01 6.82159E-14 3.74346E-14
 -1      3823 2.00708E+01-6.21079E-02 2.47564E-04-2.02661E-01 2.35299E-14 6.31129E-14
 -1      3824 2.38280E+01 1.28489E+00-2.02294E-02 1.83508E+00-7.94490E-14 1.61683E-13
 -1      3825 2.28201E+01 3.52743E+00-1.79049E-02 3.47817E-01 3.44343E-15 1.28905E-13
 -1      3826 2.28566E+01-2.83889E+00-1.21209E-02-2.71025E+00-7.70928E-14-8.09266E-14
 -1      3827 2.42921E+01-3.21022E+00 2.22016E-02-2.19551E+00-1.10268E-13-1.88042E-13
 -1      3828 2.44457E+01-2.70912E+00-1.38038E-02-1.05807E+00-2.00129E-13 4.21330E-14
 -1      3829 2.00077E+01 2.55076E-02 6.30605E-04 1.25904E-01 1.96000E-13-2.22470E-13
 -1      3830 1.99940E+01 2.85618E-02-2.70604E-04 1.47117E-01 1.38389E-13-2.14770E-13
 -1      3831 2.03647E+01 4.29757E-01-7.05112E-04 8.14320E-03 7.10756E-14 2.88930E-14
 -1      3832 2.03360E+01 4.40110E-01-2.41472E-03 1.95211E-02 8.26438E-14 5.75806E-14
 -1      3833 2.03498E+01 5.71511E-01 1.04458E-03 8.74077E-02 8.17263E-14 5.21408E-14
 -1      3834 2.03675E+01 1.01073E+00 3.50061E-03 3.82562E-02 6.35541E-14-1.49119E-14
 -1      3835 2.03174E+01 1.20855E+00-2.33771E-03 3.25680E-02 3.86795E-14-6.02225E-14
 -1      3836 2.03172E+01 1.20907E+00-2.35404E-03-2.77647E-02 3.96411E-14-9.87385E-14
 -1      3837 2.03737E+01 6.25401E-01 2.95894E-04-6.78754E-02-4.51204E-16 1.36181E-14
 -1      3838 2.06603E+01-2.64826E+00 1.67696E-03-4.58347E+00 3.00246E-14-2.95594E-13
 -1      3839 2.02842E+01 1.39635E+00 4.79365E-03-1.34038E-01 5.17664E-14-8.43447E-14
 -1      3840 2.03250E+01 1.09734E+00-8.04234E-04-1.76029E-01 2.90669E-14-5.56475E-14
 -1      3841 2.48729E+01-2.00585E+00 3.84562E-02 1.44546E-01-1.09959E-13 1.74854E-13
 -1      3842 2.49168E+01-1.76979E+00-5.42203E-02 5.57916E-01-3.55636E-14 1.62027E-13
 -1      3843 1.99128E+01 1.13418E-01-9.85617E-04 1.20020E-01-1.62852E-13-4.54278E-13
 -1      3844 1.99372E+01 9.51380E-02 1.14510E-03 1.27632E-01 7.18005E-14-3.27647E-13
 -1      3845 1.98895E+01 1.30410E-01-3.72997E-04 1.35970E-01-1.61048E-13-4.90316E-13
 -1      3846 1.86003E+01 9.48484E-01 1.16816E-02 5.72405E-01 1.01839E-13-1.16000E-13
 -1      3847 2.44232E+01-9.11618E-01 9.10472E-03 1.13939E+00-1.06201E-13 8.98509E-14
 -1      3848 2.03390E+01 7.20438E-01-1.08710E-03 1.38831E-01 5.77427E-14 2.16647E-14
 -1      3849 2.03230E+01 1.02031E+00-1.10672E-04 2.74429E-01 6.46669E-14 6.25788E-15
 -1      3850 2.03190E+01 1.07547E+00-6.44340E-04 2.34756E-01 5.97824E-14-1.95984E-14
 -1      3851 2.03617E+01 7.11262E-01 1.02449E-03 1.08337E-01 4.76788E-14 8.58704E-15
 -1      3852 2.01935E+01-1.06542E-02 1.33471E-04-1.63099E-01 5.40750E-14-3.44226E-14
 -1      3853 2.02134E+01 8.62523E-03 5.57498E-04-1.55572E-01 8.56582E-14-3.02779E-14
 -1      3854 2.02560E+01 3.09798E-02-4.02360E-04-1.32205E-01 8.72967E-14-4.89687E-14
 -1      3855 1.81134E+01-6.60011E-01 2.10312E-02 3.99922E+00-2.33833E-13 8.03836E-14
 -1      3856 1.67958E+01 1.87864E-01-1.30731E-02 3.51419E+00-2.88145E-13 1.97420E-14
 -1      3857 1.74147E+01 4.65003E-01 2.43680E-02 2.80577E+00-1.88964E-13-5.56282E-14
 -1      3858 1.92761E+01-1.06389E+00 2.26710E-02 3.62087E+00-1.67727E-13 3.21722E-14
 -1      3859 2.48891E+01-1.17630E+00 1.64370E-02-1.02771E+00 8.59209E-15-2.61794E-13
 -1      3860 2.42459E+01-1.47490E+00-1.02195E-02-6.96772E-01-4.36903E-14-2.75051E-14
 -1      3861 2.46165E+01-1.06807E-01-2.40270E-02-1.60050E+00 2.83367E-14-1.77650E-13
 -1      3862 2.42801E+01 4.71806E+00-5.72849E-02-5.48531E-01 1.19377E-13-2.43970E-13
 -1      3863 2.39549E+01 4.06580E+00-2.53818E-02-9.59461E-01 1.32328E-13-2.40586E-13
 -1      3864 2.03211E+01 9.61084E-02 5.01890E-04 8.71735E-02-1.05766E-14-1.14701E-15
 -1      3865 2.02947E+01 5.89486E-02-4.08850E-04 9.89394E-02 9.73817E-16 1.24231E-14
 -1      3866 2.02670E+01 3.33312E-02 3.58465E-04 1.02661E-01-5.88777E-15 4.17179E-14
 -1      3867 2.02380E+01 1.66545E-02-2.22424E-04 1.08280E-01 9.22954E-16 4.96050E-14
 -1      3868 2.02991E+01 5.34394E-02-7.05448E-05 7.66138E-02 1.59702E-14 9.12546E-14
 -1      3869 2.02065E+01 8.74596E-03 2.19575E-04 1.07988E-01 1.76273E-14 2.93236E-14
 -1      3870 2.01755E+01 7.76723E-03-2.04473E-04 1.09289E-01 6.16247E-16 3.08540E-14
 -1      3871 2.02385E+01 1.54464E-02-9.99387E-05 8.14010E-02-1.01829E-14 9.16930E-14
 -1      3872 2.01410E+01 1.36497E-02 1.01521E-04 1.05595E-01-5.97101E-15 2.82532E-14
 -1      3873 2.01069E+01 2.49788E-02-3.83203E-04 1.03489E-01 3.65949E-15 5.23089E-14
 -1      3874 2.01721E+01 1.01360E-02 7.06852E-06 7.84177E-02-6.42190E-15 6.76746E-14
 -1      3875 2.00674E+01 4.31763E-02 4.77738E-05 9.56183E-02 8.17715E-15 7.94819E-14
 -1      3876 2.00259E+01 6.61914E-02-7.60712E-04 8.92636E-02 3.24822E-15 9.66585E-14
 -1      3877 2.00981E+01 3.09502E-02 2.57739E-04 6.71744E-02 2.32804E-14 8.28233E-14
 -1      3878 1.99838E+01 9.36939E-02 7.16728E-05 7.61050E-02-7.19876E-15 1.17105E-13
 -1      3879 1.99350E+01 1.24693E-01-1.39053E-03 6.43955E-02 1.29955E-14 1.26621E-13
 -1      3880 2.00162E+01 7.22125E-02 5.82432E-04 4.54057E-02 2.47259E-14 1.23058E-13
 -1      3881 1.98866E+01 1.61186E-01 2.43323E-04 4.26428E-02-2.35315E-15 7.13543E-14
 -1      3882 1.98234E+01 2.00039E-01-2.39070E-03 2.15349E-02-2.01652E-14 3.50278E-14
 -1      3883 1.99248E+01 1.28828E-01 1.03189E-03 8.50708E-03-3.22235E-14 1.08688E-13
 -1      3884 1.97665E+01 2.44929E-01 6.76541E-04-1.44654E-02-3.03861E-14 4.00979E-16
 -1      3885 1.96817E+01 2.90448E-01-3.82448E-03-5.16704E-02-7.53557E-14-6.44247E-14
 -1      3886 1.98169E+01 1.97201E-01 1.48048E-03-5.29124E-02-7.80110E-14 1.24492E-14
 -1      3887 1.96145E+01 3.42415E-01 1.52928E-03-1.10196E-01-7.63050E-14-6.73692E-14
 -1      3888 1.94990E+01 3.91485E-01-5.81747E-03-1.74114E-01-6.31012E-14-6.23374E-14
 -1      3889 1.96870E+01 2.72563E-01 2.00899E-03-1.53196E-01-7.32164E-14-6.08333E-14
 -1      3890 1.94207E+01 4.46686E-01 3.02345E-03-2.67484E-01-5.95234E-14-6.72158E-14
 -1      3891 1.92640E+01 4.92532E-01-8.44562E-03-3.74191E-01-8.64482E-14-2.47329E-14
 -1      3892 1.95302E+01 3.44827E-01 2.37094E-03-3.13515E-01-6.05315E-14-9.49886E-15
 -1      3893 1.91780E+01 5.42041E-01 5.53668E-03-5.19253E-01-5.16059E-14-3.03145E-14
 -1      3894 1.89698E+01 5.70603E-01-1.16621E-02-6.91923E-01 1.44044E-14 7.41367E-15
 -1      3895 1.93461E+01 3.95304E-01 2.27014E-03-5.63167E-01-6.37207E-14 3.22521E-14
 -1      3896 1.88875E+01 5.96088E-01 9.53871E-03-9.10417E-01-4.65811E-15-5.81522E-14
 -1      3897 1.86219E+01 5.81239E-01-1.49297E-02-1.18064E+00-4.76415E-14-5.75145E-14
 -1      3898 1.91448E+01 3.89295E-01 1.06192E-03-9.40303E-01-3.64432E-14-2.18418E-15
 -1      3899 1.85694E+01 5.47100E-01 1.50234E-02-1.49647E+00-1.01901E-13-5.55280E-14
 -1      3900 1.82623E+01 4.44435E-01-1.46383E-02-1.90533E+00-5.36147E-14-1.37486E-13
 -1      3901 1.89574E+01 2.68110E-01-2.38284E-03-1.48950E+00-6.94695E-14-1.70001E-13
 -1      3902 2.50356E+01 2.77622E+00-1.91139E-02-1.96894E+00 2.88429E-13-2.53561E-13
 -1      3903 2.46071E+01 1.70323E+00-2.18350E-02-1.89316E+00 2.31018E-13-1.41851E-13
 -1      3904 2.03923E+01 3.87772E-01 8.70808E-04 8.13217E-03 7.01593E-15-4.59485E-16
 -1      3905 2.03772E+01 2.87972E-01-1.44869E-03 4.13204E-02-2.04237E-14-6.43240E-15
 -1      3906 2.32633E+01 4.02942E+00-2.22611E-02 1.43931E-01 1.08507E-14 6.57347E-14
 -1      3907 2.37050E+01-2.09386E+00-1.59094E-03 3.49394E-01-1.25647E-13-6.96079E-14
 -1      3908 2.36015E+01-2.43323E+00 2.14667E-02 1.14594E+00 2.55447E-14-3.43130E-13
 -1      3909 1.93010E+01 5.57007E-01-7.78350E-03 2.32116E-01-4.40999E-15-2.50983E-14
 -1      3910 1.94429E+01 5.02173E-01 1.42029E-03 1.61423E-01-9.58379E-14 1.41385E-14
 -1      3911 2.01635E+01-2.07024E-01 2.92018E-03-3.52250E-01-6.54669E-14 2.18465E-13
 -1      3912 2.01117E+01-1.54789E-01 9.72412E-04-3.25807E-01-2.08048E-14 2.51748E-13
 -1      3913 1.95206E+01 4.44921E-01-5.02090E-03 9.48153E-02-2.20945E-13 2.29201E-14
 -1      3914 1.96196E+01 3.95031E-01 8.40851E-04 5.78166E-02-2.67310E-13 1.44430E-13
 -1      3915 1.95209E+01 4.27685E-01 3.63975E-03 2.13872E-01-2.24226E-13 3.32462E-13
 -1      3916 1.86055E+01 7.61145E-01-1.56738E-02 8.49387E-01 4.96600E-14-1.36085E-13
 -1      3917 1.88850E+01 7.29035E-01 5.95463E-03 6.42598E-01 1.47335E-13-1.50337E-13
 -1      3918 1.80000E+01-2.08511E-01 2.16349E-02-3.36297E+00-6.63350E-14-1.92708E-13
 -1      3919 1.83824E+01-7.76291E-01 5.04615E-02-3.99817E+00-3.88457E-14-2.60756E-13
 -1      3920 2.03670E+01-1.55132E+00 1.44026E-02 3.31386E+00-1.79709E-13-2.79273E-14
 -1      3921 1.91150E+01-7.56441E-01-2.98372E-02 3.09365E+00-2.30802E-13 3.17116E-14
 -1      3922 2.09007E+01-8.63948E-01 1.14768E-03-5.23276E-01-1.48799E-13-7.09621E-15
 -1      3923 2.07149E+01-7.09213E-01 7.41630E-03-5.32459E-01-9.52981E-14 4.35876E-15
 -1      3924 2.05414E+01-5.75135E-01 2.85902E-03-4.92657E-01-7.43755E-14 4.73210E-14
 -1      3925 2.04090E+01-4.56214E-01 4.33533E-03-4.76455E-01-4.44917E-14 1.06904E-13
 -1      3926 2.05403E+01-6.44504E-01-9.96324E-03-6.56912E-01-7.29800E-14 7.56337E-14
 -1      3927 2.20552E+01-1.50154E+00-6.77394E-03-2.66904E-01-1.16015E-13 1.65190E-13
 -1      3928 2.17752E+01-1.35257E+00 1.51424E-02-4.00355E-01-1.49377E-13 1.48119E-13
 -1      3929 2.27763E+01-1.62802E+00-1.10675E-02 1.29461E-01-1.86704E-13 2.41036E-13
 -1      3930 2.25132E+01-1.58551E+00 1.71611E-02-7.92896E-02-7.73877E-14 2.34362E-13
 -1      3931 2.23417E+01-1.72253E+00-1.77375E-02-4.90806E-01-1.82837E-13 1.63478E-13
 -1      3932 2.39198E+01 5.18202E-02 1.65785E-02 1.68702E+00-1.19225E-13 1.23318E-13
 -1      3933 2.37573E+01-5.93660E-01-2.80406E-02 1.37144E+00-1.42441E-13 1.40551E-13
 -1      3934 2.36343E+01-9.31937E-01-7.93596E-03-1.17426E+00 5.49535E-14-5.42131E-14
 -1      3935 2.37307E+01-4.04583E-01-3.36988E-03-1.43491E+00-2.39791E-14 8.99844E-15
 -1      3936 2.23881E+01-1.55545E+00 1.50978E-02 1.38927E-01 1.34141E-13 7.18630E-14
 -1      3937 2.26768E+01-1.61021E+00-9.69527E-03-7.31551E-02 1.31993E-14 1.22450E-13
 -1      3938 2.16630E+01-1.28437E+00 1.44621E-02 4.23769E-01 4.75141E-14-1.53889E-13
 -1      3939 2.19378E+01-1.44366E+00-6.34584E-03 3.05145E-01 1.02053E-13-3.10237E-14
 -1      3940 2.22127E+01-1.65353E+00-1.10585E-02 5.50017E-01 1.58612E-13 1.10936E-13
 -1      3941 2.10748E+01-9.45303E-01 1.06372E-02 5.23158E-01-6.79723E-14-7.89487E-14
 -1      3942 2.13080E+01-1.12057E+00-1.35080E-03 4.76600E-01-7.46182E-14-1.42140E-13
 -1      3943 2.14396E+01-1.28471E+00-1.38689E-02 7.19836E-01-2.38715E-14-1.10734E-13
 -1      3944 2.06435E+01-6.31726E-01 6.84099E-03 5.11423E-01-3.08834E-13 1.30104E-13
 -1      3945 2.08232E+01-7.84485E-01 1.66187E-03 5.09913E-01-1.40232E-13 7.62969E-14
 -1      3946 2.08656E+01-8.93588E-01-1.20705E-02 7.15590E-01-1.49478E-13-2.05801E-14
 -1      3947 2.03507E+01-3.80792E-01 4.07130E-03 4.45670E-01-2.54827E-13 2.13818E-13
 -1      3948 2.04785E+01-4.98718E-01 2.90822E-03 4.67142E-01-3.31606E-13 1.63886E-13
 -1      3949 2.04724E+01-5.60427E-01-8.76395E-03 6.27133E-01-3.10487E-13 1.49719E-13
 -1      3950 2.01655E+01-1.98543E-01 2.04101E-03 3.62403E-01-1.94081E-13 2.14055E-13
 -1      3951 2.02505E+01-2.81663E-01 3.03335E-03 3.92381E-01-1.88272E-13 2.98459E-13
 -1      3952 2.02220E+01-3.11116E-01-6.15138E-03 5.08240E-01-2.35952E-13 2.01782E-13
 -1      3953 2.00572E+01-7.62168E-02 8.17194E-04 2.81954E-01-9.03435E-14 2.01905E-15
 -1      3954 2.01100E+01-1.30459E-01 2.61704E-03 3.12276E-01-1.64346E-13 1.07646E-13
 -1      3955 2.00749E+01-1.39528E-01-4.08039E-03 3.90721E-01-1.15600E-13 1.38372E-13
 -1      3956 2.00008E+01 6.02050E-04 5.70338E-04 2.13357E-01 1.59824E-13-9.23435E-14
 -1      3957 2.00300E+01-3.32153E-02 1.83826E-03 2.40167E-01 4.70868E-15-8.30099E-14
 -1      3958 1.99964E+01-3.04138E-02-2.61348E-03 2.90411E-01 6.46348E-14-1.79267E-13
 -1      3959 1.90026E+01 6.71455E-01-1.13572E-02 4.65610E-01 2.12405E-13-3.60746E-14
 -1      3960 1.92029E+01 6.19924E-01 3.06034E-03 3.42290E-01 9.08950E-14-1.26101E-14
 -1      3961 1.93320E+01 5.04412E-01 3.81403E-03 4.03658E-01 5.54009E-14 1.12026E-13
 -1      3962 2.03829E+01 7.52354E-01-1.10506E-03-8.79910E-02 1.08579E-14-3.29353E-14
 -1      3963 2.03892E+01 5.26681E-01-1.65618E-03-2.13470E-02 1.31706E-14-1.49918E-15
 -1      3964 2.40934E+01-2.31233E+00-1.32506E-02-5.41259E-01-2.08458E-13 1.18089E-13
 -1      3965 1.99457E+01 7.39043E-02-5.83694E-04 1.47796E-01 1.61041E-14-3.12391E-13
 -1      3966 1.99608E+01 6.77259E-02-3.59893E-04 1.28445E-01 1.88499E-13 4.70012E-14
 -1      3967 2.03206E+01 1.16088E+00-3.22770E-03-1.32147E-01 4.75192E-14-8.25915E-14
 -1      3968 2.03661E+01 9.41145E-01 3.39701E-03-1.04983E-01 2.42686E-14-6.06219E-14
 -1      3969 2.03843E+01 8.14244E-01-1.43194E-03-5.72831E-02 3.25933E-14-8.47458E-14
 -1      3970 2.03178E+01 1.19809E+00-2.12874E-03-6.98109E-02 4.43000E-14-1.04863E-13
 -1      3971 1.81096E+01 7.63534E-01-2.23424E-02 1.44231E+00-7.67252E-14-9.47595E-14
 -1      3972 1.84851E+01 7.89164E-01 1.13516E-02 1.11876E+00 4.28478E-14-3.80099E-14
 -1      3973 1.88172E+01 5.38022E-01 2.08608E-03 1.17686E+00 4.97631E-14-1.47151E-13
 -1      3974 2.03222E+01 1.10110E+00-1.13921E-03 1.86825E-01 5.51411E-14-1.18568E-14
 -1      3975 1.99754E+01 5.54374E-02 2.49032E-04 1.28006E-01 1.42070E-13-1.71397E-14
 -1      3976 2.03053E+01-3.56785E-01 3.19381E-03-4.26021E-01-6.25209E-14 1.28822E-13
 -1      3977 2.02184E+01-2.74042E-01 2.25751E-03-4.00188E-01-9.56201E-14 1.59771E-13
 -1      3978 2.02795E+01-3.91198E-01-6.94843E-03-5.43228E-01-4.23914E-14 1.19760E-13
 -1      3979 2.01533E+01-3.28018E-02 4.01700E-04-1.71167E-01 2.98347E-14-4.30462E-15
 -1      3980 2.01702E+01-2.39014E-02 3.10230E-04-1.67539E-01 4.25875E-14-4.53092E-14
 -1      3981 2.01629E+01-3.33361E-02-5.71099E-04-1.56646E-01 2.31155E-14-3.10653E-14
 -1      3982 2.37598E+01-1.19936E+00 8.71754E-03 9.24983E-01-1.33463E-13 1.77166E-13
 -1      3983 2.14050E+01-1.19625E+00-2.09332E-03-4.68185E-01-1.68674E-13 5.13540E-14
 -1      3984 2.11665E+01-1.02384E+00 1.13442E-02-5.26289E-01-1.74106E-13 5.27468E-14
 -1      3985 2.15547E+01-1.37062E+00-1.49005E-02-7.10771E-01-2.42679E-13 7.03354E-14
 -1      3986 2.36343E+01 4.32579E+00-1.74887E-02-4.72226E-02-2.77278E-14 7.55394E-14
 -1      3987 2.02782E+01 1.14265E-01-7.17969E-04-1.16883E-01 7.58436E-14 6.92548E-16
 -1      3988 2.03010E+01 1.72460E-01 1.30677E-03-9.07015E-02 5.54631E-14 3.12416E-14
 -1      3989 2.03402E+01 2.38200E-01 1.44186E-04-6.15138E-02 7.88091E-14 2.07595E-15
 -1      3990 1.89234E+01-1.37112E+00 6.10270E-03-4.24362E+00-6.82007E-14-3.36774E-13
 -1      3991 1.99128E+01-2.03823E+00 6.79733E-02-4.57338E+00-8.90824E-14-3.90760E-13
 -1      3992 2.11476E+01-2.38479E+00-1.96164E-02-3.73098E+00-5.69416E-14-1.08732E-13
 -1      3993 1.96370E+01-1.40660E+00-3.35678E-02-3.63042E+00-1.68838E-13-2.56637E-13
 -1      3994 2.42555E+01 3.23920E+00-2.21417E-02-1.66860E+00 3.48582E-13-2.19816E-13
 -1      3995 2.03651E+01 2.08998E-01 5.88740E-04 5.74923E-02-3.49117E-14 1.25688E-14
 -1      3996 2.03429E+01 1.44933E-01-7.61592E-04 7.80453E-02-2.68835E-14-1.49630E-14
 -1      3997 2.03900E+01 2.71748E-01 5.50126E-04 3.55888E-02-1.69678E-14-1.25874E-14
 -1      3998 2.35689E+01 1.95986E+00-4.32401E-02-1.78754E+00 2.83476E-13-3.71848E-14
 -1      3999 2.34625E+01 2.78215E+00 3.24747E-03-1.51597E+00 3.09487E-13 2.25369E-14
 -1      4000 1.83070E+01 3.24358E-01 2.38313E-02-2.27011E+00-5.20924E-14-1.34300E-13
 -1      4001 1.78836E+01 1.37741E-01 5.02809E-03-2.88332E+00-3.03399E-14-1.59278E-13
 -1      4002 1.89524E+01-5.70513E-01-1.72793E-02-3.00685E+00-9.77866E-14-1.74877E-13
 -1      4003 1.88522E+01-4.50741E-02-1.68711E-02-2.18732E+00-6.58540E-14-1.04701E-13
 -1      4004 2.00894E+01-1.13957E-01 2.42150E-03-2.86081E-01-5.07120E-14 2.84327E-13
 -1      4005 2.00633E+01-8.46228E-02 3.41306E-04-2.63358E-01-4.56239E-15 2.37158E-13
 -1      4006 2.00565E+01-1.13846E-01-2.97447E-03-3.31932E-01-1.95040E-14 3.01151E-13
 -1      4007 2.41785E+01 1.26033E+00 3.99585E-03-1.87873E+00 1.61090E-13-4.81234E-14
 -1      4008 2.36917E+01 3.35099E+00-3.49199E-02-1.38044E+00 2.43282E-13-9.12178E-14
 -1      4009 2.35211E+01-1.51733E+00 8.05467E-03 5.88411E-01-1.98888E-13 1.71554E-13
 -1      4010 2.35439E+01-1.83384E+00-1.54761E-02 9.95507E-02-1.37317E-13 1.08266E-13
 -1      4011 1.97972E+01 2.14816E-01-1.50609E-03 1.15908E-01-2.93866E-14 3.39424E-13
 -1      4012 1.98279E+01 1.88641E-01 1.44420E-03 1.41901E-01-3.66163E-14-1.38999E-13
 -1      4013 2.42231E+01 3.42327E-01-2.00181E-02-1.77101E+00 5.80135E-15-1.85785E-14
 -1      4014 2.03569E+01 2.13051E-01-1.04716E-03-6.34918E-02 9.19267E-14-2.23282E-14
 -1      4015 2.03764E+01 2.93550E-01 3.71494E-04-3.28484E-02 7.71168E-14-7.37767E-15
 -1      4016 2.00330E+01-5.65870E-02-1.98603E-03-2.56245E-01-3.83462E-14 2.31049E-13
 -1      4017 2.00614E+01-6.31062E-02 1.82944E-03-2.32833E-01 2.43624E-14 2.18049E-13
 -1      4018 2.00532E+01-4.97967E-02-1.11814E-04-2.15205E-01 3.99645E-15 1.67512E-13
 -1      4019 2.01245E+01-3.45863E-02 7.94730E-04-1.49603E-01 4.74627E-14-4.62659E-14
 -1      4020 2.01423E+01-3.41691E-02-4.96248E-05-1.43642E-01 2.96246E-15-5.68775E-14
 -1      4021 2.03514E+01 1.34400E-01 1.22032E-04 6.23423E-02-1.48014E-14 9.59676E-15
 -1      4022 2.13899E+01-2.17254E+00-9.27692E-03-3.09591E+00-1.24181E-13-7.50389E-14
 -1      4023 2.23071E+01-2.55383E+00 3.97151E-02-2.97711E+00-1.56503E-14-2.62906E-14
 -1      4024 2.29508E+01-2.55091E+00-3.51593E-04-2.05844E+00-1.87917E-13-1.80329E-14
 -1      4025 2.30563E+01 3.85141E+00-1.44580E-02-2.82731E-01-2.83940E-14 1.12857E-13
 -1      4026 2.03620E+01 9.39324E-01 2.74691E-03 1.21293E-01 4.70033E-14 1.81491E-15
 -1      4027 1.90940E+01 5.57616E-01 3.91736E-03 7.08065E-01 2.13226E-13-9.67738E-14
 -1      4028 1.96781E+01 3.46372E-01-3.36889E-03 1.82308E-02-1.29295E-13 2.55815E-13
 -1      4029 1.97449E+01 3.05594E-01 5.61296E-05 1.00495E-03 6.42425E-14 1.77272E-13
 -1      4030 1.97895E+01 2.68999E-01-1.34675E-03-1.99532E-02 1.48778E-13 1.20260E-13
 -1      4031 2.00711E+01-5.44682E-02-1.15598E-03-1.96380E-01-1.47138E-14 5.07219E-14
 -1      4032 1.83139E+01-1.24776E-02 1.79541E-02 2.85967E+00-2.14768E-13 2.80002E-14
 -1      4033 1.75203E+01 5.37323E-01-2.58931E-02 2.42583E+00-1.54431E-13-1.02366E-13
 -1      4034 1.80097E+01 6.66576E-01 1.56340E-02 1.93095E+00-1.56749E-13-1.99535E-13
 -1      4035 1.93264E+01-4.98422E-01 1.88952E-02 2.64927E+00-2.63881E-13-4.37092E-14
 -1      4036 1.97689E+01 2.74262E-01 5.84185E-04 3.39425E-02 1.06620E-13 5.59286E-13
 -1      4037 1.97699E+01 2.60440E-01-8.82413E-06 6.61857E-02-1.68212E-14 5.95126E-13
 -1      4038 1.97543E+01 2.62703E-01 1.60445E-03 1.13815E-01 4.06467E-14 4.69992E-13
 -1      4039 2.32782E+01-1.32696E+00-8.92287E-03-7.32105E-01 7.76603E-14 4.24504E-14
 -1      4040 2.37881E+01-1.29967E+00-7.95331E-04-8.08052E-01-3.52279E-14-8.64380E-14
 -1      4041 2.38820E+01-1.82556E+00 1.64947E-02-2.21015E-01-1.49200E-13-2.69826E-14
 -1      4042 2.30508E+01-1.50593E+00 8.74969E-03-4.43647E-01-6.60688E-14 1.49875E-13
 -1      4043 2.32780E+01-1.94933E+00-1.73083E-02 2.11060E-01-5.90233E-14-2.23239E-14
 -1      4044 2.03793E+01 7.55218E-01-1.80348E-03 8.83885E-02 5.51586E-14-2.50829E-14
 -1      4045 2.03861E+01 8.11731E-01-3.51752E-04 5.34573E-02 6.73858E-14 2.01396E-14
 -1      4046 2.03935E+01 6.06153E-01 1.80360E-03 4.37044E-02 6.72127E-14-1.18250E-14
 -1      4047 2.02084E+01-1.26971E-02-4.99793E-04-1.47103E-01 4.48298E-14-2.40242E-14
 -1      4048 2.09545E+01-9.82961E-01-1.31769E-02-7.33582E-01-1.81358E-13-5.17985E-14
 -1      4049 2.04054E+01 5.05009E-01 1.81354E-03-9.79863E-03 8.20242E-15-5.28246E-14
 -1      4050 2.32946E+01-2.23504E+00 2.52039E-02-9.45988E-01-2.01687E-13 6.40156E-14
 -1      4051 2.03903E+01 4.71433E-01-7.54463E-04 4.67608E-03 7.51182E-14-1.80217E-14
 -1      4052 2.27474E+01-2.29198E+00-1.31941E-02 1.60313E+00-2.94773E-15-3.00782E-13
 -1      4053 2.01002E+01-3.47616E-02-1.53897E-04-1.58666E-01 5.46163E-14 4.16169E-14
 -1      4054 2.01148E+01-2.85581E-02-6.22639E-04-1.36894E-01-1.09205E-14 2.49795E-14
 -1      4055 2.00881E+01-3.45865E-02 1.10486E-03-1.67195E-01-4.11227E-15 6.65077E-14
 -1      4056 2.04166E+01 6.62226E-01 3.27998E-03 1.39582E-02 5.27787E-14-1.24791E-14
 -1      4057 2.03896E+01 8.19288E-01-1.87229E-03 3.24163E-02 5.57045E-14-4.12508E-15
 -1      4058 2.03901E+01 8.36395E-01-5.46625E-04 1.63416E-03 4.27921E-14-7.68671E-14
 -1      4059 2.30503E+01-1.74871E+00-4.83026E-04 2.87199E-02 2.51356E-14 1.44622E-13
 -1      4060 2.31431E+01 3.56056E+00-6.83248E-03-8.62791E-01 6.31613E-14 1.21548E-13
 -1      4061 2.12127E+01-1.71567E+00 2.31403E-02 2.64812E+00-1.34061E-13-3.53535E-13
 -1      4062 2.02693E+01 2.21427E-02-5.33479E-05-1.15670E-01 5.97927E-14 3.60930E-14
 -1      4063 2.02939E+01 5.31935E-02 4.41362E-04-1.04991E-01 1.02101E-13 2.67295E-14
 -1      4064 2.03019E+01 1.09576E-01-2.25218E-04-1.06072E-01 1.07762E-13-2.69503E-14
 -1      4065 2.03678E+01 1.01161E+00 2.82677E-03-3.05380E-02 3.27462E-14-9.95501E-14
 -1      4066 2.04037E+01 4.44782E-01 3.76187E-05-1.76531E-03 6.55646E-14-2.35564E-14
 -1      4067 1.98621E+01 1.42798E-01-1.40396E-03 1.61653E-01-1.50693E-14-4.78106E-13
 -1      4068 1.98987E+01 1.15741E-01 1.68963E-03 1.73109E-01 6.39553E-14-6.18847E-13
 -1      4069 1.98278E+01 1.67901E-01-5.74350E-04 1.83074E-01 5.52647E-14-2.95502E-13
 -1      4070 1.99333E+01 7.52797E-02-7.66317E-04 1.74391E-01 1.27190E-14-5.34091E-13
 -1      4071 1.99673E+01 5.12623E-02 1.54791E-03 1.73115E-01 1.49430E-13-1.68931E-13
 -1      4072 1.96634E+01 3.42207E-01 8.79293E-04 1.00570E-01-1.13411E-13 3.98093E-13
 -1      4073 1.85537E+01 3.33249E-01 2.36907E-03 1.94393E+00-9.98741E-14-1.22010E-13
 -1      4074 2.01297E+01-2.19378E-01-4.61496E-03-4.29412E-01-5.43261E-14 1.93390E-13
 -1      4075 1.99120E+01 8.49042E-02-5.59249E-04 2.04057E-01 2.33054E-13-5.76700E-13
 -1      4076 2.03173E+01 9.38475E-02-4.52851E-04-9.59476E-02 1.15058E-13 1.74606E-14
 -1      4077 2.03402E+01 1.46933E-01 5.47084E-04-7.80254E-02 1.08000E-13 2.44528E-14
 -1      4078 2.03703E+01 1.99946E-01 1.44064E-04-5.41733E-02 7.91644E-14-2.18052E-15
 -1      4079 2.03265E+01 8.56132E-02-1.37192E-04-7.97062E-02 9.40728E-14 4.45356E-14
 -1      4080 2.06248E+01-7.08604E-01 6.52130E-03 9.03816E-01-2.63493E-13 1.18004E-13
 -1      4081 2.08715E+01-9.07163E-01 5.63358E-03 9.52183E-01-8.74721E-14-2.05961E-14
 -1      4082 2.03765E+01 1.64764E-01 2.77917E-04 3.68896E-02-1.16260E-14 6.59943E-14
 -1      4083 2.03522E+01 1.09853E-01-4.98070E-04 4.77426E-02 1.30660E-14 5.55677E-14
 -1      4084 2.02671E+01 1.91242E-02 3.48637E-04 5.24885E-02-1.14757E-14 1.31235E-13
 -1      4085 2.02341E+01 7.56143E-03-2.50025E-04 5.37625E-02-1.53918E-14 1.38138E-13
 -1      4086 2.02009E+01 4.02830E-03 3.64444E-04 4.92514E-02-3.40609E-14 1.59644E-13
 -1      4087 2.01649E+01 6.20417E-03-3.99354E-04 4.66225E-02-4.00303E-14 1.25412E-13
 -1      4088 2.02256E+01 4.33242E-03-3.77450E-04 2.21181E-02-1.52571E-14 1.61179E-13
 -1      4089 2.01282E+01 1.53119E-02 4.34109E-04 3.81408E-02-2.53598E-15 1.33710E-13
 -1      4090 2.00866E+01 2.87425E-02-6.91151E-04 3.02836E-02 2.97557E-14 1.44023E-13
 -1      4091 2.01542E+01 5.75452E-03-3.19161E-04 1.05528E-02-2.20583E-14 2.10898E-13
 -1      4092 2.00501E+01 4.68321E-02 6.12121E-04 1.67344E-02 5.54107E-14 1.39991E-13
 -1      4093 2.00049E+01 6.68653E-02-1.20627E-03 2.64399E-03 1.88671E-14 1.51714E-13
 -1      4094 2.00788E+01 2.73825E-02-2.52174E-04-1.07833E-02 2.89208E-14 1.65317E-13
 -1      4095 1.99674E+01 9.14664E-02 9.57589E-04-1.92616E-02-4.64931E-14 9.11233E-14
 -1      4096 1.99143E+01 1.16414E-01-1.77813E-03-4.35729E-02-5.12457E-14 7.72389E-14
 -1      4097 2.00016E+01 6.13208E-02-8.32671E-05-4.59469E-02-3.90374E-14 9.49118E-14
 -1      4098 1.98746E+01 1.45005E-01 1.31045E-03-7.76444E-02-8.40739E-14 9.84622E-14
 -1      4099 1.98106E+01 1.71090E-01-2.94994E-03-1.17706E-01-1.14109E-13 3.50975E-14
 -1      4100 1.99192E+01 1.02527E-01 2.14047E-04-1.03445E-01-7.48848E-14 8.00229E-14
 -1      4101 1.97725E+01 2.01003E-01 2.63428E-03-1.71611E-01-8.43890E-14 4.92726E-14
 -1      4102 1.96931E+01 2.23531E-01-4.21556E-03-2.35883E-01-4.56991E-14 7.38750E-14
 -1      4103 1.98329E+01 1.37842E-01-5.18617E-04-1.93590E-01-8.44390E-14 1.24450E-13
 -1      4104 1.96592E+01 2.48842E-01 4.28951E-03-3.17821E-01-4.19240E-14 3.44245E-14
 -1      4105 1.95630E+01 2.60037E-01-5.66365E-03-4.18548E-01-6.76570E-14 6.92084E-14
 -1      4106 1.97445E+01 1.59875E-01-1.55232E-03-3.31396E-01-3.97919E-14 7.50866E-14
 -1      4107 1.95416E+01 2.70983E-01 6.77928E-03-5.39674E-01-8.27088E-14 1.10256E-13
 -1      4108 1.94303E+01 2.57431E-01-6.98197E-03-6.92871E-01-4.09628E-14 7.27250E-14
 -1      4109 1.96641E+01 1.47955E-01-3.44811E-03-5.36243E-01-4.47500E-14 7.24991E-14
 -1      4110 1.94372E+01 2.37143E-01 1.03437E-02-8.65466E-01-1.09353E-13 4.19129E-14
 -1      4111 1.93216E+01 1.77092E-01-7.42211E-03-1.09046E+00-1.43307E-13-2.31519E-14
 -1      4112 1.96119E+01 7.19939E-02-6.96860E-03-8.29789E-01-1.22954E-13 7.17956E-14
 -1      4113 1.93856E+01 9.64745E-02 1.47496E-02-1.32489E+00-9.51397E-14-1.17219E-13
 -1      4114 1.93009E+01-4.07328E-02-3.86575E-03-1.64109E+00-1.01024E-13-1.19402E-13
 -1      4115 1.96280E+01-1.13730E-01-1.32855E-02-1.23098E+00-1.10777E-13 3.00710E-14
 -1      4116 1.89836E+01-9.26536E-02-1.19612E-02 2.16376E+00-1.00385E-13-1.03590E-13
 -1      4117 1.91347E+01 1.44050E-01 2.16730E-02 1.68260E+00-8.02722E-15-1.21926E-13
 -1      4118 2.11768E+01-1.12275E+00 1.51240E-02 1.02415E+00 8.01552E-14-3.09273E-14
 -1      4119 2.14907E+01-1.36951E+00-3.13167E-03 1.02176E+00 7.30767E-14 5.74990E-14
 -1      4120 2.08186E+01-1.03430E+00-2.21846E-02 1.26588E+00-3.56772E-14 1.30588E-13
 -1      4121 1.91978E+01 3.82759E-01-7.81632E-03 8.74309E-01 1.78196E-13-3.00576E-14
 -1      4122 1.93379E+01 4.02124E-01 6.51012E-03 6.82821E-01 2.60060E-13-2.18533E-14
 -1      4123 2.00652E+01-4.05354E-02 1.63364E-03-1.94246E-01-1.51229E-14 1.29054E-13
 -1      4124 2.00686E+01-3.67178E-02-1.77668E-04-1.81568E-01 5.88451E-17 9.29217E-14
 -1      4125 2.00431E+01-3.36830E-02-1.50708E-03-2.00630E-01-2.74046E-14 1.35557E-13
 -1      4126 1.97991E+01-7.03975E-01-7.60168E-03 2.36090E+00-2.83884E-13-8.21847E-14
 -1      4127 1.96922E+01 2.87843E-01-2.43014E-03 1.58813E-01-4.28295E-14 2.81452E-13
 -1      4128 2.18333E+01-1.94252E+00 3.86900E-03 2.13467E+00 6.53980E-15-5.02466E-13
 -1      4129 2.08095E+01-1.43311E+00-1.93749E-02 2.31530E+00-1.90254E-13-3.68067E-13
 -1      4130 2.29592E+01-1.93392E+00 2.40332E-02 5.77521E-01 1.56168E-13-2.90604E-14
 -1      4131 2.19690E+01-1.58188E+00 1.98223E-02 9.51656E-01 7.18436E-14 9.14036E-14
 -1      4132 2.23575E+01-1.82188E+00-1.31539E-02 8.36371E-01 1.84029E-13 6.21813E-14
 -1      4133 2.25823E+01-1.97327E+00-9.48829E-03 1.01750E+00 5.17553E-14-1.01776E-13
 -1      4134 2.15531E+01-1.49388E+00-8.71492E-03 1.29943E+00 5.95236E-14-6.02853E-14
 -1      4135 2.02805E+01-3.94132E-01 2.84075E-03 7.24872E-01-3.65728E-13 1.24468E-13
 -1      4136 2.04505E+01-5.35434E-01 7.82849E-03 7.91774E-01-2.99051E-13 2.58951E-14
 -1      4137 2.03492E+01-5.79303E-01-1.31891E-02 1.01976E+00-2.44336E-13 9.50446E-14
 -1      4138 2.00824E+01-1.76354E-01 1.25829E-03 5.47126E-01-1.78603E-13-5.58178E-14
 -1      4139 2.01855E+01-2.71265E-01 5.93338E-03 6.15967E-01-2.59860E-13 7.55353E-15
 -1      4140 2.00860E+01-2.69396E-01-6.91943E-03 7.68925E-01-2.49924E-13-1.21059E-13
 -1      4141 1.99785E+01-3.97330E-02 2.39118E-04 3.98085E-01-4.03072E-14-1.05875E-13
 -1      4142 2.00369E+01-9.85808E-02 4.20318E-03 4.58302E-01-1.17936E-13-1.18238E-13
 -1      4143 1.99543E+01-8.22057E-02-4.78972E-03 5.54882E-01-9.57338E-14-4.89685E-13
 -1      4144 1.99326E+01 4.00988E-02-4.63618E-05 2.82316E-01 1.97252E-13-5.26483E-13
 -1      4145 1.99631E+01 6.12607E-03 3.10463E-03 3.29656E-01 1.41955E-13-3.54736E-13
 -1      4146 1.98968E+01 2.82054E-02-3.10209E-03 3.88276E-01 1.99692E-13-5.16879E-13
 -1      4147 1.99895E+01 1.69069E-02 4.08200E-05 1.92306E-01 1.28751E-13-2.02182E-13
 -1      4148 1.99630E+01 2.91792E-02-8.06463E-04 2.24280E-01 1.16099E-13-4.01012E-13
 -1      4149 2.05190E+01-6.20317E-01 6.83627E-03-8.27629E-01-3.85883E-14 2.41367E-13
 -1      4150 2.03464E+01-4.73194E-01 4.16533E-03-7.60173E-01-1.93092E-14 2.71897E-13
 -1      4151 2.04175E+01 5.79767E-01 1.76794E-03-1.85633E-02 3.08057E-14-6.25445E-14
 -1      4152 2.04132E+01 4.26819E-01-1.78218E-03 7.21104E-03 1.31406E-14-5.59094E-14
 -1      4153 1.95251E+01 3.62009E-01-5.78982E-03 3.07608E-01-4.80878E-14 1.53659E-14
 -1      4154 1.96170E+01 3.40820E-01 2.45951E-03 2.30695E-01-1.32960E-13 1.65410E-13
 -1      4155 2.04085E+01 3.32365E-01 1.08529E-03-1.98087E-02 6.08454E-14-1.17972E-14
 -1      4156 2.04161E+01 5.06191E-01-1.56268E-03 9.55543E-03 6.61291E-14 2.96402E-15
 -1      4157 1.97903E+01 1.92222E-01 4.49663E-04 2.18493E-01 1.47488E-13-9.05195E-14
 -1      4158 1.98361E+01 1.48463E-01 1.57416E-03 2.39087E-01 1.58689E-13-4.97067E-13
 -1      4159 2.00240E+01-7.40885E-02 4.09979E-03-3.66606E-01 9.37404E-15 2.40991E-13
 -1      4160 1.99953E+01-4.52063E-02-5.99348E-04-3.19599E-01-9.34334E-15 2.83168E-13
 -1      4161 2.03992E+01 7.37121E-01 4.14644E-04-3.04447E-02 3.94221E-14-9.13178E-14
 -1      4162 2.28378E+01-2.31793E+00-1.41241E-02-1.55322E+00-2.46633E-13-5.45484E-15
 -1      4163 2.25942E+01-1.91811E+00 1.53747E-04-8.21547E-01-1.91925E-13 8.62283E-14
 -1      4164 2.21602E+01-1.70165E+00 2.58772E-02-9.85838E-01-2.42440E-13 2.37620E-14
 -1      4165 2.23308E+01-2.09402E+00 2.39163E-02-1.82671E+00-2.06697E-13 5.02773E-14
 -1      4166 2.02450E+01-3.50938E-01 6.28103E-03-6.54770E-01-1.06682E-13 1.96449E-13
 -1      4167 2.01369E+01-2.54441E-01 1.36671E-03-5.85948E-01-7.36933E-14 1.69299E-13
 -1      4168 2.01422E+01-3.65978E-01-1.24765E-02-8.11845E-01-1.21929E-13 3.39391E-13
 -1      4169 2.01649E+01-2.81545E-02-5.12369E-04-1.20348E-01 1.76853E-14-5.26021E-14
 -1      4170 2.01691E+01-3.13604E-02 5.32923E-04-1.37824E-01 3.91259E-14-6.12673E-14
 -1      4171 2.01907E+01-2.57710E-02 9.60168E-05-1.32615E-01 4.63921E-14-4.10354E-14
 -1      4172 2.16450E+01-1.46769E+00-5.13954E-04-1.00989E+00-2.36450E-13 8.99005E-14
 -1      4173 2.13147E+01-1.22050E+00 1.88056E-02-1.02760E+00-2.45299E-13-1.78030E-14
 -1      4174 2.17259E+01-1.66381E+00-2.35197E-02-1.35618E+00-2.13128E-13 6.18455E-14
 -1      4175 2.02185E+01-1.57442E-02 2.65513E-04-1.27965E-01 4.88730E-14-1.44928E-14
 -1      4176 2.02425E+01-1.76765E-04 2.66971E-04-1.21332E-01 5.11858E-14-7.49436E-15
 -1      4177 2.02744E+01 1.82144E-02-3.15150E-04-9.61218E-02 6.94981E-14 6.25902E-15
 -1      4178 2.02192E+01-1.58902E-02-4.27306E-04-1.08181E-01 6.04796E-14-5.36619E-14
 -1      4179 2.03938E+01 8.25136E-01 3.86463E-04-2.66744E-02 3.67679E-14-1.00986E-13
 -1      4180 2.01217E+01-1.34165E+00-9.04516E-03-3.07696E+00-2.20628E-13-1.24771E-13
 -1      4181 2.08775E+01-1.75549E+00 4.52329E-02-3.17183E+00-2.25212E-13-1.00048E-13
 -1      4182 2.16864E+01-2.08061E+00-2.21183E-02-2.50044E+00-1.85521E-13 2.42536E-14
 -1      4183 2.03270E+01 6.88999E-02 3.45004E-04 4.86735E-02 4.27947E-14 7.39441E-14
 -1      4184 2.02974E+01 3.87480E-02-2.86019E-04 5.42337E-02 3.82791E-14 1.14206E-13
 -1      4185 2.03486E+01 9.60208E-02-8.67302E-05 2.53324E-02 2.70566E-14 4.35658E-14
 -1      4186 2.04092E+01 3.22185E-01 2.09923E-04 1.47967E-02 2.85049E-14-2.65181E-14
 -1      4187 2.03935E+01 2.34725E-01-8.53656E-04 3.23951E-02 1.84707E-14 2.07410E-14
 -1      4188 2.03942E+01 2.12259E-01 3.84565E-04 1.81439E-02 3.31741E-14 3.17080E-14
 -1      4189 2.04187E+01 3.96336E-01 9.22993E-04 5.05815E-03 5.61916E-14-6.16329E-14
 -1      4190 1.93704E+01 3.96773E-01-6.66752E-03 5.31024E-01 1.27985E-13-1.01967E-13
 -1      4191 1.94854E+01 3.87015E-01 4.02246E-03 4.09066E-01-2.45851E-15-9.00175E-14
 -1      4192 1.95920E+01 2.86826E-01 1.90579E-04 4.20070E-01 9.37098E-15-3.83954E-13
 -1      4193 2.09602E+01-1.00435E+00 2.40049E-03-9.79049E-01-1.91414E-13 9.25221E-14
 -1      4194 2.07112E+01-7.96077E-01 8.48207E-03-9.35395E-01-9.89656E-14 1.31200E-13
 -1      4195 2.04179E+01-6.77987E-01-1.89402E-02-1.05717E+00-6.52853E-14 2.77361E-13
 -1      4196 1.90346E+01 2.68982E-01-1.08339E-02 1.36984E+00 4.29411E-14-1.23551E-13
 -1      4197 1.91920E+01 3.49363E-01 1.04913E-02 1.08896E+00 9.42453E-14-4.28373E-14
 -1      4198 1.94273E+01 1.60644E-01-4.66149E-03 1.04201E+00 2.44819E-13 1.40159E-13
 -1      4199 2.00936E+01-1.76026E-01 5.28213E-03-4.96154E-01-3.56922E-14 1.69685E-13
 -1      4200 2.00323E+01-1.19138E-01-6.32632E-05-4.36510E-01-1.70348E-15 2.54725E-13
 -1      4201 1.99508E+01-5.48745E-02-4.49512E-03-4.24574E-01-1.09169E-14 1.77754E-13
 -1      4202 2.00033E+01-1.67297E-01-7.62402E-03-5.96280E-01-1.00725E-14 1.69201E-13
 -1      4203 2.04740E+01-9.55503E-01 4.25969E-03 1.95326E+00-1.90482E-13-2.73247E-13
 -1      4204 2.04197E+01 5.23272E-01-3.73935E-04 2.00119E-03 4.92715E-14-3.66477E-14
 -1      4205 1.97630E+01-4.43883E-01-2.55830E-02-1.70118E+00-4.78093E-14 3.65324E-14
 -1      4206 1.94478E+01-1.91240E-01 2.07674E-02-1.89003E+00-8.44044E-14-5.86727E-14
 -1      4207 1.94151E+01-3.98470E-01 4.92915E-03-2.24769E+00-3.38661E-14-7.90859E-14
 -1      4208 1.94593E+01-1.21225E-01-1.46044E-02 1.58448E+00 2.70003E-14-7.58511E-14
 -1      4209 1.97211E+01 2.47227E-01 1.07373E-03 2.36190E-01 1.12179E-13 9.15405E-14
 -1      4210 2.02907E+01 3.11639E-02-3.19586E-04 2.65439E-02 1.62899E-14 8.70840E-14
 -1      4211 2.00072E+01-2.39069E-02 3.03860E-03-2.68276E-01-6.72499E-14 2.57124E-13
 -1      4212 2.00017E+01-1.15046E-02 2.40961E-04-2.34624E-01-7.52696E-14 2.03220E-13
 -1      4213 1.99498E+01-1.57213E-03-2.73566E-03-2.96510E-01-3.69827E-14 1.79868E-13
 -1      4214 2.00721E+01-2.65732E-02-9.00931E-04-1.62167E-01-2.92956E-14 8.55197E-14
 -1      4215 2.01042E+01-1.54987E-02 1.07901E-03-1.19014E-01-4.10504E-14 7.17195E-14
 -1      4216 2.01262E+01-1.99603E-02-3.53368E-04-1.07999E-01-1.98544E-14 5.44900E-14
 -1      4217 2.02745E+01 1.01623E-02 2.49631E-04-7.53213E-02 1.03079E-13 1.00621E-14
 -1      4218 2.03017E+01 3.43040E-02 1.11104E-04-6.74656E-02 8.37392E-14 3.03616E-14
 -1      4219 2.21690E+01-2.01091E+00 6.36701E-03 1.79590E+00-2.21221E-15-3.53211E-13
 -1      4220 1.99954E+01 2.16780E-02 5.95686E-05 1.64529E-01 1.37364E-13-1.36786E-13
 -1      4221 2.03293E+01 6.80800E-02-5.57422E-05-6.36528E-02 7.04308E-14 9.76606E-15
 -1      4222 2.03540E+01 1.12711E-01 7.32364E-05-5.24969E-02 8.70627E-14 6.74400E-15
 -1      4223 2.03251E+01 5.88041E-02-2.70659E-04-4.19487E-02 8.50046E-14 3.04327E-15
 -1      4224 1.97160E+01 2.17745E-01-2.57265E-03 3.00194E-01 2.37525E-13-2.69631E-13
 -1      4225 1.99220E+01 7.21284E-02 9.06589E-04 2.27745E-01 1.56894E-13-5.82108E-13
 -1      4226 1.94984E+01 2.62400E-01-1.06199E-03 6.75912E-01 9.31280E-14-1.92351E-13
 -1      4227 2.01416E+01-1.33836E-02-6.07605E-04-7.91041E-02-2.99772E-14 1.04450E-13
 -1      4228 2.01585E+01-2.14973E-02 7.83810E-04-9.90625E-02-1.59674E-15 4.39491E-14
 -1      4229 2.01839E+01-2.11662E-02-1.56202E-04-9.12427E-02-2.27426E-15 1.55906E-15
 -1      4230 1.98461E+01 1.19551E-01 2.03105E-03 2.99889E-01 2.09882E-13-4.86627E-13
 -1      4231 1.98733E+01 9.91741E-02-1.42652E-03 2.58369E-01 2.01081E-13-5.78841E-13
 -1      4232 2.03757E+01 1.69892E-01-3.86987E-04-4.52769E-02 7.74024E-14-4.86399E-15
 -1      4233 2.03949E+01 2.40924E-01-4.06265E-04-2.82865E-02 6.28439E-14-2.11798E-14
 -1      4234 2.04098E+01 3.02565E-01 7.97275E-04-1.21004E-02 7.53650E-14-3.41607E-14
 -1      4235 2.03755E+01 1.52434E-01 1.03121E-04-2.85437E-02 8.66935E-14-6.24904E-14
 -1      4236 2.09269E+01-1.14210E+00-2.70599E-02-1.27390E+00-1.26443E-13 1.92538E-13
 -1      4237 1.99636E+01-9.73949E-01 7.69431E-03-2.68746E+00-1.67753E-13-8.98832E-14
 -1      4238 1.98876E+01-8.39518E-02-5.12481E-04 7.60431E-01-8.27782E-14-4.99895E-13
 -1      4239 1.99886E+01-1.88028E-01 5.56836E-03 8.88925E-01-4.51015E-14-2.53763E-13
 -1      4240 2.01859E+01-6.67747E-03 6.93280E-04-2.66748E-02 2.73807E-15 1.53103E-13
 -1      4241 2.01475E+01-2.70889E-03-1.55222E-04-3.44130E-02 4.60913E-15 1.80167E-13
 -1      4242 2.01169E+01 4.27187E-03 9.15963E-04-4.49438E-02-1.93562E-14 1.56263E-13
 -1      4243 2.00779E+01 1.49740E-02-4.09754E-04-5.82942E-02-2.60975E-14 1.29822E-13
 -1      4244 1.99703E+01 6.42752E-02 1.61315E-03-1.15094E-01-9.29754E-14 9.29956E-14
 -1      4245 1.99262E+01 7.93105E-02-4.87611E-04-1.51861E-01-1.07509E-13 4.43500E-14
 -1      4246 1.99224E+01 7.34638E-02 2.21959E-03-1.95674E-01-1.01877E-13 6.14512E-14
 -1      4247 1.98794E+01 8.03984E-02-7.82587E-04-2.50889E-01-5.61637E-14 7.73936E-14
 -1      4248 1.98757E+01 7.79015E-02 4.22889E-03-3.05935E-01-3.30703E-14 8.05656E-14
 -1      4249 1.98329E+01 7.07975E-02-4.30399E-04-3.88804E-01-4.87477E-14 6.73141E-14
 -1      4250 1.98512E+01 4.87202E-02 6.32493E-03-4.65902E-01-1.47099E-14 7.90163E-14
 -1      4251 1.98184E+01 1.68626E-02 6.74043E-04-5.85631E-01-2.26598E-16 9.99621E-14
 -1      4252 1.98733E+01-3.80317E-02 9.19507E-03-6.88464E-01-8.38772E-14 1.25691E-13
 -1      4253 1.98670E+01-1.10411E-01 3.12697E-03-8.53834E-01-1.48933E-13 1.27291E-13
 -1      4254 1.99804E+01-2.16038E-01 1.27397E-02-9.82005E-01-1.47863E-13 1.36412E-13
 -1      4255 2.00309E+01-3.51439E-01 7.35542E-03-1.19611E+00-8.62633E-14 1.36969E-13
 -1      4256 1.98619E+01-1.79983E-01 2.49037E-03 1.10086E+00 8.48280E-15-7.29626E-14
 -1      4257 2.00359E+01-3.29385E-01 1.47505E-02 1.25672E+00 4.26705E-14 5.69998E-14
 -1      4258 2.00733E+01-1.19380E-02-5.91528E-04-1.33645E-01-3.60865E-14 5.47257E-14
 -1      4259 2.00817E+01-2.53560E-03-5.41974E-04-1.04768E-01-3.55154E-14 7.56541E-14
 -1      4260 2.00577E+01-7.48797E-03 1.55508E-03-1.49999E-01-3.57099E-14 6.37756E-14
 -1      4261 1.97047E+01 2.25112E-01 4.53524E-03 3.70865E-01 9.50761E-14-3.40298E-13
 -1      4262 1.97750E+01 1.52866E-01-1.95775E-03 3.47021E-01 2.98781E-13-4.40932E-13
 -1      4263 1.98240E+01 1.07083E-01-6.27899E-04 3.67416E-01 2.77732E-13-5.30548E-13
 -1      4264 1.96514E+01 2.11072E-01-2.38813E-03 4.72456E-01 6.65263E-14-4.95095E-13
 -1      4265 2.02320E+01-5.26671E-01 1.69677E-02-1.34190E+00-4.54440E-14 1.12662E-13
 -1      4266 2.17763E+01-1.71243E+00-8.02094E-03 1.53715E+00 2.08446E-14-2.51136E-13
 -1      4267 2.13368E+01-1.39055E+00 1.95704E-02 1.62184E+00-7.01110E-15-2.49525E-13
 -1      4268 1.98460E+01 7.67101E-02 3.89552E-03 4.42601E-01 2.04364E-13-6.01229E-13
 -1      4269 2.04179E+01 5.80175E-01-1.72919E-03 2.02074E-03 4.76679E-14-8.55368E-14
 -1      4270 2.04249E+01 4.50743E-01 8.48927E-04-3.42985E-03 6.46172E-14-6.21427E-14
 -1      4271 2.03578E+01-7.07655E-01 1.71116E-02-1.56345E+00 1.18566E-14 1.63314E-13
 -1      4272 2.03136E+01 4.04607E-02 3.83648E-04-1.07616E-02 5.76886E-14 4.47230E-14
 -1      4273 2.02823E+01 1.73534E-02 7.18716E-06-1.09207E-02 4.25724E-14 6.74773E-14
 -1      4274 2.17496E+01-1.86979E+00-5.59249E-03-1.97851E+00-2.08819E-13 1.86087E-15
 -1      4275 2.00076E+01 4.56767E-03 1.61461E-03-1.96320E-01-9.78857E-14 1.40328E-13
 -1      4276 2.00177E+01 4.42510E-03-4.84016E-04-1.70667E-01-8.73835E-14 9.49567E-14
 -1      4277 2.04176E+01 3.36864E-01-8.09979E-04 3.39434E-03 7.37625E-14-3.78010E-14
 -1      4278 2.12967E+01-1.50094E+00 2.16601E-02-1.93135E+00-1.62844E-13 8.28634E-14
 -1      4279 2.02163E+01-1.60916E-02 5.09825E-04-8.58269E-02 1.32561E-15 2.02379E-14
 -1      4280 2.02435E+01-6.44638E-03-1.44949E-06-7.90651E-02 6.29945E-14-8.47772E-16
 -1      4281 2.02665E+01 7.45174E-03-4.56768E-04-5.16664E-02 9.04040E-14 1.04284E-13
 -1      4282 2.02042E+01-1.30433E-02-5.37231E-04-6.28718E-02 1.74902E-14 1.21700E-13
 -1      4283 2.03674E+01 1.18630E-01 2.04445E-04-7.61465E-03 6.18422E-14-2.38923E-14
 -1      4284 2.03412E+01 7.37187E-02-9.01399E-05-5.30060E-03 5.44686E-14 2.02847E-15
 -1      4285 2.01214E+01-5.33175E-01 7.82229E-03 1.53498E+00-9.46402E-14-9.39537E-15
 -1      4286 2.03994E+01-1.15319E+00-2.29699E-02-2.31466E+00-1.19384E-13 3.22186E-14
 -1      4287 2.02517E+01 2.50528E-03 5.34812E-04-1.64400E-02 3.01387E-14 1.35327E-13
 -1      4288 2.02173E+01-4.86824E-03-2.59947E-05-1.96090E-02 2.91003E-14 1.72325E-13
 -1      4289 2.06715E+01-1.00163E+00 7.64955E-03-1.68539E+00-5.22724E-14 6.41243E-14
 -1      4290 2.00494E+01 2.66548E-02 1.19289E-03-7.47538E-02-4.58664E-14 1.43273E-13
 -1      4291 2.04072E+01 2.49656E-01 1.57375E-04-4.15875E-03 7.22443E-14-4.85963E-14
 -1      4292 2.03887E+01 1.75149E-01-3.18664E-04 8.53037E-04 5.41625E-14-3.57665E-14
 -1      4293 1.99638E+01 2.67188E-02-1.94638E-03-2.03253E-01-1.18628E-13 1.51941E-13
 -1      4294 2.00082E+01 3.94449E-02-1.03311E-03-9.64100E-02-7.21766E-14 1.00604E-13
 -1      4295 1.97511E+01 1.07846E-01-3.38910E-03 5.23663E-01 9.58380E-14-6.43304E-13
 -1      4296 1.98422E+01 3.11192E-02-2.52325E-04 5.44663E-01 6.72236E-14-7.15381E-13
 -1      4297 1.98941E+01-2.96361E-02 5.24853E-03 6.45851E-01-1.06138E-13-6.23772E-13
 -1      4298 1.96606E+01 1.88388E-01 5.52006E-03 5.82197E-01 5.37038E-14-6.05423E-13
 -1      4299 2.00145E+01 2.15121E-02-4.60911E-04-1.39785E-01-1.07105E-13 9.36923E-14
 -1      4300 1.96061E+01 1.97230E-02-3.53526E-03 1.07079E+00 1.50392E-13-2.08581E-13
 -1      4301 1.96241E+01 1.18566E-01 6.59743E-03 8.59880E-01 1.91426E-13-3.28838E-13
 -1      4302 2.03808E+01-8.07475E-01 1.93304E-03 1.70189E+00-4.48656E-14-7.60930E-14
 -1      4303 1.97523E+01 2.06939E-02-4.92573E-03 7.53305E-01 3.03029E-15-7.17077E-13
 -1      4304 1.96104E+01 1.47415E-01-2.81701E-03 7.32936E-01 9.23600E-14-5.01031E-13
 -3
    1PSTEP                         3           1           1          
  100CL  101 1.000000000        4304                     0    1           1
 -4  TOSTRAIN    6    1
 -5  EXX         1    4    1    1
 -5  EYY         1    4    2    2
 -5  EZZ         1    4    3    3
 -5  EXY         1    4    1    2
 -5  EYZ         1    4    2    3
 -5  EZX         1    4    3    1
 -1         1 1.87702E-05 1.12815E-05-1.98358E-05 2.54530E-05-3.11793E-18-2.84391E-18
 -1         2 4.13586E-05-1.25876E-04 2.38216E-05 1.01954E-06-4.74338E-19-4.32675E-19
 -1         3 9.52325E-05-2.85760E-05-2.85601E-05-3.77122E-09-1.57949E-18-2.21319E-18
 -1         4 9.52298E-05-2.85785E-05-2.85529E-05 3.38568E-09-2.17935E-19 1.59147E-18
 -1         5 1.43308E-04-2.14726E-05-4.25178E-05 3.85227E-05-1.12655E-19 7.35489E-18
 -1         6 1.45368E-04 2.57490E-10-4.41753E-05-5.35151E-05-3.94400E-19 4.06142E-18
 -1         7 9.05885E-05-5.10838E-07-3.90597E-05-2.92488E-05-7.77153E-20 3.73489E-20
 -1         8 8.51155E-05 8.63396E-08-3.63347E-05-2.02700E-05-2.41140E-20-9.98744E-19
 -1         9 8.28143E-05 7.58204E-08-3.53502E-05-1.56379E-05-2.36110E-20-1.54452E-18
 -1        10 8.17761E-05 3.94783E-08-3.48834E-05-1.20755E-05 3.17637E-21-1.68323E-18
 -1        11 8.12620E-05 1.91021E-08-3.46567E-05-9.01091E-06-8.54974E-21-1.64332E-18
 -1        12 8.09955E-05 8.96227E-09-3.45434E-05-6.28089E-06 2.20758E-20-1.57183E-18
 -1        13 8.08553E-05 4.43409E-09-3.44864E-05-3.68260E-06 2.02510E-20-1.42705E-18
 -1        14 8.07965E-05 2.60821E-09-3.44630E-05-1.18192E-06 3.64081E-20-1.30060E-18
 -1        15 8.07983E-05 2.60217E-09-3.44637E-05 1.28908E-06 5.24160E-20-1.13672E-18
 -1        16 8.08608E-05 4.38664E-09-3.44883E-05 3.79458E-06 5.62425E-20-9.58236E-19
 -1        17 8.10057E-05 8.27973E-09-3.45466E-05 6.40432E-06 4.88864E-20-6.68086E-19
 -1        18 8.12777E-05 1.80875E-08-3.46612E-05 9.15250E-06 7.25570E-20-3.02262E-19
 -1        19 8.18010E-05 3.81447E-08-3.48911E-05 1.22539E-05 8.41408E-20 2.13330E-19
 -1        20 8.28374E-05 8.03709E-08-3.53622E-05 1.58684E-05 9.48148E-20 9.11283E-19
 -1        21 8.50787E-05 1.69840E-07-3.63729E-05 2.04798E-05 9.12943E-20 2.08494E-18
 -1        22 9.16259E-05-9.90314E-08-3.87325E-05 2.79941E-05 8.36445E-21 3.96722E-18
 -1        23 1.12941E-04-3.81152E-05-3.53870E-05-4.40186E-06-2.79415E-19 2.68552E-18
 -1        24 9.27777E-05-2.76891E-05-2.89910E-05 3.91078E-07-3.01425E-20 1.69242E-18
 -1        25 8.90949E-05-2.68448E-05-2.69219E-05 3.75574E-07-1.90930E-20 7.46077E-19
 -1        26 8.79944E-05-2.64821E-05-2.63854E-05 2.03848E-07 4.51467E-20-1.17076E-19
 -1        27 8.80251E-05-2.64618E-05-2.63787E-05 1.39470E-07-2.45317E-20-6.42481E-19
 -1        28 8.85651E-05-2.66001E-05-2.65502E-05 1.00333E-07-3.53444E-20-8.71438E-19
 -1        29 8.93302E-05-2.68160E-05-2.67860E-05 7.45464E-08 5.05283E-20-1.08501E-18
 -1        30 9.01716E-05-2.70609E-05-2.70411E-05 5.60901E-08 2.59796E-20-1.51285E-18
 -1        31 9.10075E-05-2.73074E-05-2.72933E-05 4.21344E-08-2.02944E-20-1.58990E-18
 -1        32 9.17956E-05-2.75415E-05-2.75309E-05 3.12446E-08-4.36393E-20-1.92027E-18
 -1        33 9.25195E-05-2.77576E-05-2.77494E-05 2.26070E-08 1.76909E-19-1.90144E-18
 -1        34 9.31812E-05-2.79559E-05-2.79493E-05 1.57144E-08-1.36354E-19-2.34455E-18
 -1        35 9.37978E-05-2.81415E-05-2.81360E-05 1.02422E-08 6.95044E-20-2.57855E-18
 -1        36 9.44010E-05-2.83238E-05-2.83192E-05 6.02627E-09 3.83478E-20-2.54885E-18
 -1        37 9.50399E-05-2.85177E-05-2.85139E-05 3.11981E-09-2.23205E-19-2.92379E-18
 -1        38 9.57885E-05-2.87455E-05-2.87432E-05 2.07518E-09-2.86305E-19-3.54032E-18
 -1        39 9.67590E-05-2.90430E-05-2.90416E-05 1.02429E-09 1.39747E-19-2.77705E-18
 -1        40 9.82046E-05-2.94812E-05-2.94898E-05 1.26005E-08-8.02787E-20-2.78464E-18
 -1        41 1.00276E-04-3.01109E-05-3.01354E-05 3.14523E-08-6.81382E-20-2.35093E-18
 -1        42 1.03457E-04-3.10720E-05-3.11331E-05 7.47806E-08 1.32375E-19-1.08581E-18
 -1        43 1.08415E-04-3.25606E-05-3.26958E-05 1.65250E-07 1.17845E-19-1.27832E-18
 -1        44 1.16130E-04-3.48619E-05-3.51275E-05 3.45443E-07 1.32329E-19-5.63753E-19
 -1        45 1.27894E-04-3.83567E-05-3.87895E-05 6.80715E-07 6.45300E-20-4.68145E-19
 -1        46 1.44932E-04-4.34308E-05-4.38907E-05 1.22493E-06-1.08923E-19-4.18752E-20
 -1        47 1.66955E-04-5.00879E-05-4.99296E-05 1.84502E-06-1.98645E-19-6.16746E-20
 -1        48 1.88343E-04-5.68483E-05-5.48300E-05 1.47764E-06-1.34063E-19 1.61942E-18
 -1        49 1.94658E-04-5.91707E-05-5.54168E-05-1.68434E-06-5.53218E-21 7.33425E-19
 -1        50 1.75955E-04-5.28164E-05-5.10243E-05-5.95529E-06-6.73391E-19 5.13302E-19
 -1        51 1.31409E-04-3.78042E-05-4.32588E-05-7.77480E-06 6.10777E-19-3.19331E-19
 -1        52 8.53121E-05-2.14687E-05-3.66073E-05-4.89035E-06 1.90900E-19 1.27542E-18
 -1        53 8.34889E-05-2.06224E-05-3.64591E-05 4.02959E-06-1.46643E-19 7.53330E-19
 -1        54 1.30741E-04-3.78029E-05-4.30777E-05 7.35912E-06 4.88156E-19 1.99857E-18
 -1        55 1.77505E-04-5.38270E-05-5.09927E-05 4.74099E-06-1.29000E-19 2.93624E-18
 -1        56 1.96270E-04-5.98765E-05-5.58254E-05 2.86607E-08-1.96062E-19-3.05144E-19
 -1        57 1.82029E-04-5.48988E-05-5.35346E-05-1.30209E-06 2.69452E-19-6.56451E-20
 -1        58 1.58837E-04-4.76044E-05-4.78202E-05-1.15799E-06 4.12045E-19 3.00861E-18
 -1        59 1.38181E-04-4.13455E-05-4.19555E-05-7.23690E-07-1.20702E-18 3.72202E-18
 -1        60 1.23093E-04-3.68581E-05-3.73539E-05-3.93939E-07 4.25396E-19 2.19980E-18
 -1        61 1.12963E-04-3.38606E-05-3.41687E-05-2.01450E-07-2.85453E-19 1.62134E-18
 -1        62 1.06420E-04-3.19207E-05-3.20923E-05-9.88835E-08 4.74966E-19 9.52541E-19
 -1        63 1.02260E-04-3.06822E-05-3.07737E-05-4.67449E-08-3.57064E-19 3.20737E-18
 -1        64 9.96262E-05-2.98946E-05-2.99428E-05-2.10061E-08 3.62231E-20 3.17134E-18
 -1        65 9.79546E-05-2.93928E-05-2.94181E-05-8.64545E-09-4.47519E-19 1.44877E-18
 -1        66 9.68869E-05-2.90713E-05-2.90846E-05-2.94800E-09-4.66470E-19-1.28995E-18
 -1        67 9.61998E-05-2.88639E-05-2.88710E-05-5.11096E-10 1.29661E-18 4.23865E-18
 -1        68 9.57556E-05-2.87296E-05-2.87337E-05 4.07694E-10 8.57700E-19 7.68013E-18
 -1        69 9.54715E-05-2.86434E-05-2.86465E-05 7.71113E-10-1.27228E-18 7.50189E-18
 -1        70 9.52999E-05-2.85911E-05-2.85945E-05 1.32055E-09 5.54785E-19 4.86002E-18
 -1        71 9.52169E-05-2.85658E-05-2.85690E-05 2.94028E-09-1.25328E-18 1.08645E-18
 -1        72 9.52088E-05-2.85637E-05-2.85611E-05 8.71017E-09 7.10323E-19-3.51072E-18
 -1        73 1.02151E-04-3.05797E-05-3.41418E-05-1.92850E-06 9.41795E-20 7.24668E-18
 -1        74 9.25375E-05-2.75098E-05-2.88975E-05-3.33236E-07 1.32978E-20 6.41455E-18
 -1        75 8.90851E-05-2.66993E-05-2.69622E-05-1.29905E-07 9.69844E-20 5.83948E-18
 -1        76 8.80334E-05-2.64387E-05-2.64300E-05-9.91119E-08-5.67950E-20 5.36096E-18
 -1        77 8.80707E-05-2.64457E-05-2.64088E-05-7.82660E-08-6.74665E-20 5.12434E-18
 -1        78 8.86139E-05-2.65988E-05-2.65722E-05-6.25781E-08 9.15710E-20 5.06835E-18
 -1        79 8.93832E-05-2.68233E-05-2.68051E-05-5.09859E-08-1.07503E-20 4.62337E-18
 -1        80 9.02301E-05-2.70739E-05-2.70601E-05-4.17443E-08 5.44732E-20 4.74873E-18
 -1        81 9.10734E-05-2.73249E-05-2.73137E-05-3.40339E-08-9.21021E-20 4.85898E-18
 -1        82 9.18699E-05-2.75626E-05-2.75534E-05-2.75757E-08 1.36009E-19 4.74647E-18
 -1        83 9.25998E-05-2.77808E-05-2.77734E-05-2.23018E-08 2.37760E-20 3.73937E-18
 -1        84 9.32582E-05-2.79778E-05-2.79721E-05-1.82338E-08 6.92044E-20 3.51534E-18
 -1        85 9.38481E-05-2.81542E-05-2.81502E-05-1.54357E-08-1.21204E-19 2.91900E-18
 -1        86 9.43749E-05-2.83116E-05-2.83091E-05-1.39851E-08-2.76157E-20 2.61634E-18
 -1        87 9.48419E-05-2.84511E-05-2.84496E-05-1.39332E-08 2.04475E-19 6.45679E-19
 -1        88 9.52442E-05-2.85710E-05-2.85699E-05-1.52366E-08-4.33203E-19 9.57796E-19
 -1        89 9.55632E-05-2.86657E-05-2.86638E-05-1.76429E-08 7.31993E-21 1.84673E-18
 -1        90 9.57599E-05-2.87239E-05-2.87192E-05-2.05236E-08 2.84809E-19 1.49636E-19
 -1        91 9.57694E-05-2.87261E-05-2.87164E-05-2.26706E-08-3.30568E-19-7.48102E-19
 -1        92 9.54979E-05-2.86446E-05-2.86269E-05-2.21210E-08 1.53561E-19-6.76771E-19
 -1        93 9.48257E-05-2.84439E-05-2.84157E-05-1.61489E-08-9.00492E-20-1.03174E-18
 -1        94 9.36211E-05-2.80849E-05-2.80448E-05-1.64763E-09-1.49290E-20-1.10590E-18
 -1        95 9.17696E-05-2.75333E-05-2.74831E-05 2.38577E-08-1.06363E-19-1.60794E-18
 -1        96 8.92201E-05-2.67733E-05-2.67196E-05 6.04957E-08-4.50897E-19 2.44706E-19
 -1        97 8.60395E-05-2.58237E-05-2.57783E-05 1.04068E-07 4.10966E-20 3.75968E-18
 -1        98 8.24608E-05-2.47529E-05-2.47310E-05 1.45005E-07 1.40529E-19 1.43396E-18
 -1        99 7.88929E-05-2.36820E-05-2.36975E-05 1.69845E-07-1.01319E-20-7.70482E-19
 -1       100 7.58679E-05-2.27702E-05-2.28290E-05 1.65967E-07-8.17751E-20-2.53386E-18
 -1       101 7.39200E-05-2.21790E-05-2.22739E-05 1.28001E-07 1.17278E-19-3.10582E-18
 -1       102 7.34295E-05-2.20248E-05-2.21362E-05 6.21865E-08-2.22636E-19-3.51345E-18
 -1       103 7.44964E-05-2.23402E-05-2.24423E-05-1.48322E-08-2.54631E-20-2.42348E-18
 -1       104 7.69051E-05-2.30616E-05-2.31328E-05-8.29770E-08-4.60876E-20-2.59051E-18
 -1       105 8.01992E-05-2.40515E-05-2.40818E-05-1.27263E-07-4.10659E-19 7.84895E-19
 -1       106 8.38280E-05-2.51431E-05-2.51353E-05-1.42701E-07 4.93341E-19 7.26033E-19
 -1       107 8.72966E-05-2.61865E-05-2.61522E-05-1.33625E-07-5.17919E-19-1.14210E-18
 -1       108 9.02623E-05-2.70781E-05-2.70316E-05-1.09388E-07 2.66187E-19-3.77230E-18
 -1       109 9.25615E-05-2.77687E-05-2.77219E-05-7.96807E-08 4.17379E-19-4.71027E-18
 -1       110 9.41818E-05-2.82548E-05-2.82151E-05-5.16265E-08-9.67168E-19-3.28719E-18
 -1       111 9.52081E-05-2.85625E-05-2.85328E-05-2.90093E-08 1.18410E-19-1.90087E-18
 -1       112 9.57703E-05-2.87309E-05-2.87111E-05-1.28754E-08 3.84144E-19-3.66594E-18
 -1       113 9.60034E-05-2.88006E-05-2.87890E-05-2.60135E-09 5.07770E-20-3.76121E-18
 -1       114 9.60251E-05-2.88071E-05-2.88013E-05 3.15601E-09-7.09204E-19-1.86909E-18
 -1       115 9.59266E-05-2.87777E-05-2.87757E-05 5.83283E-09 2.25090E-19-9.90517E-19
 -1       116 9.57725E-05-2.87316E-05-2.87318E-05 6.64019E-09 3.35121E-19-2.85990E-18
 -1       117 9.56054E-05-2.86816E-05-2.86831E-05 6.45009E-09-4.41380E-19-2.44416E-18
 -1       118 9.54524E-05-2.86357E-05-2.86381E-05 5.75689E-09 3.03972E-19-2.29607E-18
 -1       119 9.53305E-05-2.85990E-05-2.86025E-05 4.65150E-09 3.88308E-20-3.20220E-18
 -1       120 9.52528E-05-2.85754E-05-2.85794E-05 2.29651E-09-5.39228E-19-1.46132E-18
 -1       121 9.52274E-05-2.85668E-05-2.85687E-05-3.03948E-09 1.11811E-18-1.69645E-18
 -1       122 9.52394E-05-2.85786E-05-2.85688E-05-4.81701E-09-2.28270E-18-7.21140E-19
 -1       123 9.52314E-05-2.85534E-05-2.85794E-05-2.15640E-11-1.08895E-18-6.30274E-19
 -1       124 9.52094E-05-2.84801E-05-2.86007E-05 3.14279E-09 1.05003E-18 7.93119E-19
 -1       125 9.51778E-05-2.83743E-05-2.86313E-05 4.32341E-09-4.13891E-19-1.02478E-18
 -1       126 9.51415E-05-2.82521E-05-2.86669E-05 4.76867E-09 1.46078E-18 4.40955E-19
 -1       127 9.51059E-05-2.81321E-05-2.87019E-05 4.53369E-09 2.33840E-18-3.13230E-19
 -1       128 9.50748E-05-2.80273E-05-2.87324E-05 3.56667E-09-1.75773E-18-1.70172E-18
 -1       129 9.50540E-05-2.79569E-05-2.87527E-05 1.81793E-09-2.50645E-18 1.07395E-18
 -1       130 9.50478E-05-2.79357E-05-2.87585E-05-6.30767E-10 2.54228E-18 3.74498E-19
 -1       131 9.50589E-05-2.79727E-05-2.87474E-05-3.45297E-09 2.96016E-18-1.10219E-19
 -1       132 9.50869E-05-2.80670E-05-2.87199E-05-6.12581E-09-1.96890E-18-2.21890E-18
 -1       133 9.51273E-05-2.82027E-05-2.86809E-05-7.58878E-09-4.33584E-18 2.44655E-18
 -1       134 9.51737E-05-2.83585E-05-2.86367E-05-7.28101E-09 4.26368E-18-2.87961E-19
 -1       135 9.52149E-05-2.84971E-05-2.85976E-05-4.20177E-09 7.14444E-18 7.23909E-19
 -1       136 9.52416E-05-2.85839E-05-2.85723E-05 3.22996E-09 4.94785E-18-2.87969E-18
 -1       137 9.52437E-05-2.85989E-05-2.85617E-05 1.04892E-08-5.29359E-19 2.17683E-19
 -1       138 2.63036E-05-8.85733E-05 1.62090E-05-2.30778E-05-8.91502E-19 3.45801E-19
 -1       139 7.05933E-06-2.43055E-05 3.85973E-07-1.13743E-05 3.42413E-18 1.26293E-18
 -1       140 1.49403E-05 2.53416E-05-1.97618E-05 3.62531E-05 8.11076E-18 7.66268E-18
 -1       141 7.64542E-05 3.17591E-05-4.35796E-05 9.89395E-05 7.13413E-18 8.27805E-18
 -1       142 1.73400E-04-8.33500E-06-6.33528E-05 1.26317E-04 3.84638E-18 6.45651E-18
 -1       143 2.74280E-04-6.54241E-05-7.86233E-05 9.83562E-05 4.38128E-19 1.78597E-18
 -1       144 3.30975E-04-1.01222E-04-8.58443E-05 1.99441E-05 1.46404E-19-3.56008E-18
 -1       145 3.08885E-04-8.71217E-05-8.30119E-05-6.97221E-05 2.75368E-18-1.07675E-17
 -1       146 2.17444E-04-3.18875E-05-7.04057E-05-1.22797E-04 4.06565E-18-1.22587E-17
 -1       147 1.09107E-04 2.12219E-05-5.12169E-05-1.14503E-04 6.48065E-18-9.23351E-18
 -1       148 3.33529E-05 3.53221E-05-2.96839E-05-6.37890E-05 7.03588E-18-7.01724E-18
 -1       149 6.91703E-06 2.10630E-06-8.76066E-06-9.12614E-06 9.64305E-18-4.83381E-18
 -1       150 1.63047E-05-6.13797E-05 1.03122E-05 2.31917E-05 6.14861E-18-2.89495E-18
 -1       151 3.65940E-05-1.13440E-04 2.12793E-05 1.26898E-05-3.71847E-19-3.76850E-19
 -1       152 3.99833E-05-1.26789E-04 2.43132E-05-1.99297E-05-5.92621E-18-8.35889E-19
 -1       153 2.16947E-05-9.33134E-05 1.80094E-05-4.30298E-05-3.18823E-18-3.54113E-19
 -1       154 2.84984E-06-3.40682E-05 2.46798E-06-2.83939E-05-2.96843E-18-2.50870E-18
 -1       155 1.04710E-04 9.24565E-06-4.77325E-05 9.46655E-05 1.32857E-18 2.16671E-18
 -1       156 2.46102E-04-4.52629E-05-7.38002E-05 1.24566E-04 1.51661E-18 2.42082E-18
 -1       157 3.76812E-04-1.10859E-04-9.15568E-05 7.46042E-05-3.64886E-19 3.07049E-19
 -1       158 4.06576E-04-1.27025E-04-9.49645E-05-3.21889E-05 2.79203E-19-2.68996E-18
 -1       159 3.13079E-04-7.76144E-05-8.33087E-05-1.11912E-04-1.11914E-19-1.72625E-18
 -1       160 1.67278E-04-1.12995E-05-6.06623E-05-1.17308E-04 1.35102E-19-4.29446E-19
 -1       161 5.20888E-05 1.83010E-05-3.35494E-05-6.19337E-05 2.15993E-19-3.98105E-19
 -1       162 5.03423E-06-9.02171E-06-7.63123E-06 5.51242E-06-3.09252E-18 2.27852E-18
 -1       163 1.12710E-05-6.90552E-05 1.26249E-05 4.22233E-05-4.61209E-18 2.62390E-18
 -1       164 3.41741E-05-1.17442E-04 2.27496E-05 3.32561E-05-1.43297E-18-2.39287E-19
 -1       165 9.48541E-05-1.23448E-05-3.55639E-05-2.23449E-05-7.19065E-19-4.36645E-19
 -1       166 8.92449E-05-8.45626E-06-3.47854E-05-1.73872E-05-5.35417E-19-1.02724E-18
 -1       167 8.65514E-05-6.50597E-06-3.44169E-05-1.35789E-05-3.13763E-19-1.30246E-18
 -1       168 8.51973E-05-5.51425E-06-3.42338E-05-1.03672E-05-1.21996E-19-1.40273E-18
 -1       169 8.44579E-05-4.94471E-06-3.41460E-05-7.54180E-06 2.55152E-20-1.31260E-18
 -1       170 8.40313E-05-4.59764E-06-3.41045E-05-4.89895E-06 2.04094E-19-1.22095E-18
 -1       171 8.38132E-05-4.41228E-06-3.40870E-05-2.39219E-06 3.54218E-19-1.11176E-18
 -1       172 8.37485E-05-4.35603E-06-3.40823E-05 5.21558E-08 4.70522E-19-9.62302E-19
 -1       173 8.38221E-05-4.42027E-06-3.40876E-05 2.49843E-06 5.44139E-19-7.89263E-19
 -1       174 8.40513E-05-4.61601E-06-3.41056E-05 5.01155E-06 6.62170E-19-5.91606E-19
 -1       175 8.44825E-05-4.96983E-06-3.41464E-05 7.61971E-06 7.55888E-19-2.97639E-19
 -1       176 8.52551E-05-5.57221E-06-3.42346E-05 1.05078E-05 9.04150E-19 8.50673E-20
 -1       177 8.66494E-05-6.60836E-06-3.44186E-05 1.37728E-05 1.01386E-18 6.18215E-19
 -1       178 8.93838E-05-8.59773E-06-3.47894E-05 1.76245E-05 1.01380E-18 1.48814E-18
 -1       179 9.57665E-05-1.36118E-05-3.54216E-05 2.18859E-05 7.76531E-19 2.68989E-18
 -1       180 1.05584E-04-2.60953E-05-3.52568E-05 1.86588E-05 4.07535E-19 4.21293E-18
 -1       181 1.03378E-04-2.72960E-05-3.26042E-05-1.21247E-05-6.45466E-19 4.95197E-19
 -1       182 9.70907E-05-2.82846E-05-2.95236E-05-4.72912E-06-5.44788E-19 1.67378E-19
 -1       183 9.34928E-05-2.76319E-05-2.81781E-05-1.76614E-06-3.66451E-19-7.27919E-20
 -1       184 9.19626E-05-2.74026E-05-2.76331E-05-4.16580E-07-3.91761E-19-3.32176E-19
 -1       185 9.13933E-05-2.73290E-05-2.74378E-05 2.50105E-07-1.34202E-19-3.70268E-19
 -1       186 9.13618E-05-2.73704E-05-2.74162E-05 5.80756E-07-1.18430E-19-5.11314E-19
 -1       187 9.16215E-05-2.74772E-05-2.74863E-05 7.26842E-07-2.57766E-19-4.16446E-19
 -1       188 9.20294E-05-2.76157E-05-2.76039E-05 7.68450E-07-1.01759E-19-6.34995E-19
 -1       189 9.25023E-05-2.77654E-05-2.77435E-05 7.53167E-07-2.64941E-19-6.58036E-19
 -1       190 9.29937E-05-2.79149E-05-2.78905E-05 7.11908E-07-2.83657E-19-9.80881E-19
 -1       191 9.34821E-05-2.80590E-05-2.80382E-05 6.66600E-07-1.38463E-19-1.53931E-18
 -1       192 9.39636E-05-2.81972E-05-2.81851E-05 6.34705E-07-1.76353E-19-1.46216E-18
 -1       193 9.44495E-05-2.83327E-05-2.83348E-05 6.32634E-07 1.19918E-19-1.23036E-18
 -1       194 9.49656E-05-2.84719E-05-2.84954E-05 6.79120E-07-6.23074E-21-8.09354E-19
 -1       195 9.55538E-05-2.86251E-05-2.86806E-05 7.99374E-07-4.98965E-19-1.15972E-19
 -1       196 9.62781E-05-2.88074E-05-2.89107E-05 1.02938E-06 4.36900E-20-2.35955E-19
 -1       197 9.72860E-05-2.90510E-05-2.92353E-05 1.45389E-06-6.65913E-20-5.47455E-19
 -1       198 9.86282E-05-2.93664E-05-2.96711E-05 2.12849E-06 1.41023E-19-4.75980E-19
 -1       199 1.00542E-04-2.98041E-05-3.02986E-05 3.20125E-06 4.31297E-19-9.21116E-19
 -1       200 1.03305E-04-3.04249E-05-3.12123E-05 4.87311E-06 1.77486E-19-9.10284E-19
 -1       201 1.07285E-04-3.13192E-05-3.25347E-05 7.39796E-06 3.75758E-19-9.98730E-19
 -1       202 1.12924E-04-3.26387E-05-3.43955E-05 1.10059E-05 5.06635E-19-1.20320E-18
 -1       203 1.20670E-04-3.46880E-05-3.68548E-05 1.56070E-05 6.85471E-19-5.65758E-19
 -1       204 1.30832E-04-3.81273E-05-3.97279E-05 1.99874E-05 7.11892E-20 7.09522E-20
 -1       205 1.43409E-04-4.42821E-05-4.23836E-05 2.03801E-05 3.54278E-19 3.25764E-19
 -1       206 1.56341E-04-5.29551E-05-4.40585E-05 1.12682E-05 2.30578E-19 5.59396E-19
 -1       207 1.67664E-04-6.10419E-05-4.55334E-05-7.91122E-06-4.68277E-19 7.11349E-19
 -1       208 1.60188E-04-4.25168E-05-5.19229E-05-3.42415E-05 8.81338E-19 1.22697E-18
 -1       209 1.50527E-04-2.93714E-05-5.41902E-05 1.43062E-06 2.78674E-19 7.69036E-19
 -1       210 1.59743E-04-4.23761E-05-5.18142E-05 3.48583E-05 8.83667E-19 2.50671E-18
 -1       211 1.69798E-04-5.68024E-05-4.89673E-05 3.35534E-05 1.02809E-19 1.58242E-18
 -1       212 1.70040E-04-5.83190E-05-4.74236E-05 5.60917E-06-1.88370E-18 5.37787E-19
 -1       213 1.58412E-04-5.02258E-05-4.60440E-05-1.31031E-05 2.61535E-19 2.96872E-19
 -1       214 1.43967E-04-4.31030E-05-4.31818E-05-1.77661E-05 1.35963E-18 1.21557E-18
 -1       215 1.30537E-04-3.81826E-05-3.96332E-05-1.53891E-05 2.07278E-19 8.74244E-19
 -1       216 1.19809E-04-3.49915E-05-3.63944E-05-1.12762E-05-2.53713E-19 1.79394E-18
 -1       217 1.11902E-04-3.28700E-05-3.38871E-05-7.67059E-06-3.07949E-19 1.35547E-18
 -1       218 1.06361E-04-3.14418E-05-3.21071E-05-5.03603E-06-2.38572E-19 1.85355E-18
 -1       219 1.02589E-04-3.04792E-05-3.08969E-05-3.25513E-06 6.77471E-19-2.13518E-19
 -1       220 1.00061E-04-2.98318E-05-3.00905E-05-2.09425E-06-2.21751E-20 5.76564E-19
 -1       221 9.83774E-05-2.93968E-05-2.95569E-05-1.34960E-06-1.47209E-18 3.02273E-19
 -1       222 9.72579E-05-2.91045E-05-2.92040E-05-8.74230E-07-9.27796E-19 4.14210E-19
 -1       223 9.65118E-05-2.89074E-05-2.89700E-05-5.69802E-07 2.24823E-18 2.05276E-18
 -1       224 9.60136E-05-2.87742E-05-2.88146E-05-3.72414E-07 1.34375E-18 6.98638E-19
 -1       225 9.56822E-05-2.86843E-05-2.87119E-05-2.40687E-07-1.66856E-19 3.06107E-18
 -1       226 9.54660E-05-2.86244E-05-2.86455E-05-1.47433E-07-6.15829E-19 2.65789E-18
 -1       227 9.53329E-05-2.85865E-05-2.86052E-05-7.49635E-08-1.31256E-18 6.52793E-19
 -1       228 9.52629E-05-2.85677E-05-2.85829E-05-1.67713E-08-1.42153E-18 1.02729E-18
 -1       229 9.52436E-05-2.85684E-05-2.85745E-05 7.58034E-09 2.59733E-18 6.57586E-19
 -1       230 9.94849E-05-2.85465E-05-3.05819E-05 7.21088E-06 4.84370E-19 3.74893E-18
 -1       231 9.44225E-05-2.77793E-05-2.85259E-05 2.76439E-06 4.01341E-19 3.34272E-18
 -1       232 9.21232E-05-2.74173E-05-2.76836E-05 9.17487E-07 2.39664E-19 3.02124E-18
 -1       233 9.11755E-05-2.72675E-05-2.73631E-05 3.57015E-08 1.51104E-19 2.66529E-18
 -1       234 9.09594E-05-2.72505E-05-2.72911E-05-3.92962E-07 1.15450E-19 2.34881E-18
 -1       235 9.11499E-05-2.73327E-05-2.73440E-05-5.94991E-07 1.08578E-19 2.35804E-18
 -1       236 9.15519E-05-2.74674E-05-2.74616E-05-6.72583E-07 5.76380E-20 2.29593E-18
 -1       237 9.20506E-05-2.76247E-05-2.76095E-05-6.79893E-07-2.60127E-20 2.16953E-18
 -1       238 9.25793E-05-2.77867E-05-2.77674E-05-6.49265E-07 3.27368E-19 1.89337E-18
 -1       239 9.31002E-05-2.79438E-05-2.79239E-05-6.00745E-07 2.24089E-19 2.09691E-18
 -1       240 9.35936E-05-2.80911E-05-2.80726E-05-5.46486E-07 2.38461E-19 1.62331E-18
 -1       241 9.40506E-05-2.82269E-05-2.82105E-05-4.92833E-07 3.09535E-19 1.41844E-18
 -1       242 9.44671E-05-2.83509E-05-2.83360E-05-4.41229E-07 2.74299E-19 1.11472E-18
 -1       243 9.48395E-05-2.84630E-05-2.84478E-05-3.88402E-07 6.58919E-19 1.07042E-18
 -1       244 9.51598E-05-2.85619E-05-2.85429E-05-3.26149E-07-2.67974E-19 1.21296E-18
 -1       245 9.54111E-05-2.86437E-05-2.86158E-05-2.41012E-07 2.04449E-19 2.63650E-19
 -1       246 9.55633E-05-2.87006E-05-2.86569E-05-1.14328E-07 4.36209E-19 6.32558E-19
 -1       247 9.55693E-05-2.87192E-05-2.86518E-05 7.65928E-08 7.39791E-19 7.16540E-19
 -1       248 9.53633E-05-2.86795E-05-2.85806E-05 3.55171E-07 8.45362E-20 1.56252E-19
 -1       249 9.48639E-05-2.85550E-05-2.84198E-05 7.39013E-07 6.93756E-20 2.34974E-19
 -1       250 9.39834E-05-2.83145E-05-2.81452E-05 1.22954E-06-2.01201E-19 7.15379E-20
 -1       251 9.26477E-05-2.79274E-05-2.77379E-05 1.79868E-06-5.99987E-20 9.18898E-19
 -1       252 9.08253E-05-2.73735E-05-2.71935E-05 2.37667E-06-8.82135E-19 1.08563E-18
 -1       253 8.85641E-05-2.66570E-05-2.65309E-05 2.84839E-06-1.22172E-18 7.79760E-19
 -1       254 8.60221E-05-2.58210E-05-2.57995E-05 3.06835E-06 1.37245E-18 8.79116E-19
 -1       255 8.34762E-05-2.49566E-05-2.50789E-05 2.89987E-06 9.99199E-19 2.31854E-19
 -1       256 8.12898E-05-2.41947E-05-2.44686E-05 2.27183E-06 5.94091E-19 6.03944E-19
 -1       257 7.98349E-05-2.36779E-05-2.40663E-05 1.22880E-06-1.78229E-19 3.01113E-19
 -1       258 7.93867E-05-2.35159E-05-2.39428E-05-5.72482E-08 2.21087E-19 2.89147E-19
 -1       259 8.00341E-05-2.37453E-05-2.41207E-05-1.33163E-06-6.37374E-19-1.10726E-19
 -1       260 8.16486E-05-2.43149E-05-2.45675E-05-2.34373E-06-1.36510E-20 5.81038E-19
 -1       261 8.39291E-05-2.51057E-05-2.52056E-05-2.93189E-06-1.24301E-18-2.71926E-19
 -1       262 8.64988E-05-2.59743E-05-2.59355E-05-3.06357E-06 5.47020E-19-2.04812E-19
 -1       263 8.90076E-05-2.67953E-05-2.66604E-05-2.81871E-06 3.36413E-19 9.57321E-19
 -1       264 9.12024E-05-2.74871E-05-2.73064E-05-2.33734E-06 1.93700E-18 1.15306E-18
 -1       265 9.29498E-05-2.80147E-05-2.78308E-05-1.76380E-06 9.83154E-20-6.71933E-19
 -1       266 9.42217E-05-2.83802E-05-2.82202E-05-1.20988E-06-1.88022E-18-8.45210E-19
 -1       267 9.50627E-05-2.86076E-05-2.84835E-05-7.41943E-07-6.37475E-20-4.54870E-19
 -1       268 9.55544E-05-2.87292E-05-2.86420E-05-3.85740E-07 7.19329E-19-7.85106E-20
 -1       269 9.57883E-05-2.87768E-05-2.87215E-05-1.38939E-07-4.64066E-19-1.11461E-19
 -1       270 9.58484E-05-2.87774E-05-2.87464E-05 1.57481E-08-5.68177E-19 5.98932E-19
 -1       271 9.58030E-05-2.87514E-05-2.87375E-05 1.00565E-07 6.18011E-19-8.89464E-19
 -1       272 9.57027E-05-2.87133E-05-2.87104E-05 1.36546E-07 1.10537E-18-1.48095E-18
 -1       273 9.55827E-05-2.86723E-05-2.86762E-05 1.40544E-07 1.89332E-19-2.09851E-18
 -1       274 9.54660E-05-2.86341E-05-2.86424E-05 1.24329E-07 1.85866E-19-1.67301E-18
 -1       275 9.53672E-05-2.86022E-05-2.86137E-05 9.50547E-08-5.92980E-19-3.40741E-19
 -1       276 9.52942E-05-2.85782E-05-2.85927E-05 5.63523E-08-7.27038E-19-7.43778E-19
 -1       277 9.52511E-05-2.85661E-05-2.85788E-05 1.53743E-08 3.54254E-19-1.87569E-18
 -1       278 9.52410E-05-2.85396E-05-2.85860E-05 3.92879E-08 6.47719E-19 6.35081E-19
 -1       279 9.52225E-05-2.84852E-05-2.86016E-05 8.05771E-08 7.07512E-19-5.43136E-19
 -1       280 9.51951E-05-2.84088E-05-2.86226E-05 1.10981E-07 6.27002E-19 6.22325E-19
 -1       281 9.51636E-05-2.83184E-05-2.86479E-05 1.26984E-07 1.85153E-18-1.45074E-19
 -1       282 9.51308E-05-2.82243E-05-2.86743E-05 1.26834E-07-7.57575E-19-6.53252E-19
 -1       283 9.50990E-05-2.81346E-05-2.86993E-05 1.09422E-07 3.26738E-20-2.40458E-18
 -1       284 9.50729E-05-2.80631E-05-2.87189E-05 7.45844E-08 1.29249E-18-8.37533E-19
 -1       285 9.50570E-05-2.80218E-05-2.87298E-05 2.46299E-08 5.82082E-19 2.16073E-18
 -1       286 9.50550E-05-2.80200E-05-2.87298E-05-3.45589E-08 1.02514E-18 7.56637E-19
 -1       287 9.50692E-05-2.80615E-05-2.87180E-05-9.32712E-08 1.19296E-18-1.34837E-18
 -1       288 9.50985E-05-2.81410E-05-2.86963E-05-1.38434E-07 1.45752E-18-1.07485E-18
 -1       289 9.51397E-05-2.82491E-05-2.86675E-05-1.59220E-07 2.01935E-18 3.21190E-18
 -1       290 9.51853E-05-2.83657E-05-2.86370E-05-1.46080E-07 1.58219E-19-5.87674E-19
 -1       291 9.52249E-05-2.84683E-05-2.86099E-05-9.84974E-08-1.88268E-18-5.31670E-19
 -1       292 9.52433E-05-2.85330E-05-2.85900E-05-3.77444E-08-1.44112E-19-2.27447E-18
 -1       293 1.44007E-05-5.34202E-05 1.32764E-05 1.66169E-05-1.02703E-19 7.57777E-19
 -1       294 3.06438E-05-4.31048E-05 2.93983E-06 3.11460E-05 1.52212E-18 1.98365E-18
 -1       295 5.87211E-05-3.32193E-05-1.23575E-05 4.31962E-05 1.41582E-18 6.42252E-18
 -1       296 1.06173E-04-3.26459E-05-3.14962E-05 5.22238E-05 2.83798E-18 2.58366E-18
 -1       297 1.48676E-04-2.69202E-05-5.06272E-05 5.63329E-05 3.98031E-18 1.63414E-18
 -1       298 1.89219E-04-3.18655E-05-6.51848E-05 3.94517E-05 2.42281E-18-8.56774E-19
 -1       299 2.06957E-04-2.94979E-05-7.37877E-05 1.39708E-05 3.37606E-18-3.46225E-18
 -1       300 2.28416E-04-3.85766E-05-7.77374E-05-9.00586E-06 3.23609E-18-5.89334E-18
 -1       301 2.03052E-04-3.27974E-05-7.02948E-05-3.11182E-05 2.77520E-18-5.97264E-18
 -1       302 1.66876E-04-2.98092E-05-5.68445E-05-5.06374E-05 2.78287E-18-7.37279E-18
 -1       303 1.19091E-04-2.58813E-05-3.92745E-05-5.64897E-05 3.77883E-18-5.98577E-18
 -1       304 7.60390E-05-2.95068E-05-2.07353E-05-4.84674E-05 3.98063E-18-3.56728E-18
 -1       305 4.81746E-05-4.03889E-05-4.62369E-06-4.29185E-05 1.68009E-18-3.18846E-18
 -1       306 1.98219E-05-4.92665E-05 9.60027E-06-2.22815E-05 1.08992E-18-3.22582E-18
 -1       307 1.04177E-05-5.36446E-05 1.50769E-05-1.07108E-05-1.88730E-19-2.45597E-18
 -1       308 1.49611E-05-5.64465E-05 1.37760E-05 6.81579E-07-1.47606E-18 4.91067E-19
 -1       309 3.32258E-05-5.10678E-05 3.81927E-06 1.43456E-05-1.40925E-18-1.26777E-18
 -1       310 7.12798E-05-4.79728E-05-1.30475E-05 2.85974E-05-8.16540E-19-8.97537E-19
 -1       311 1.29266E-04-5.08034E-05-3.47473E-05 3.58786E-05-1.91387E-18 1.36415E-18
 -1       312 1.95825E-04-5.94157E-05-5.66883E-05 1.99030E-05-7.97270E-20 1.45266E-19
 -1       313 2.43893E-04-5.65776E-05-7.46443E-05 1.20728E-05 7.27390E-19 2.90532E-19
 -1       314 2.53205E-04-4.80399E-05-8.12395E-05 1.18599E-07 1.28453E-18 5.87417E-19
 -1       315 2.52529E-04-5.15088E-05-7.93472E-05-4.51405E-06 6.40569E-19-7.19978E-19
 -1       316 2.20182E-04-5.91149E-05-6.56028E-05-1.71189E-05 2.02494E-19-1.70974E-18
 -1       317 1.62356E-04-5.42205E-05-4.59828E-05-3.36692E-05-7.96211E-20-6.47133E-19
 -1       318 9.78856E-05-4.85829E-05-2.33855E-05-3.33045E-05-2.04347E-18-9.28348E-19
 -1       319 5.17600E-05-4.96366E-05-3.91408E-06-2.45779E-05-1.56553E-18 5.58526E-19
 -1       320 2.05453E-05-5.41803E-05 1.05013E-05-6.40235E-06-5.55654E-19 1.51809E-18
 -1       321 1.12974E-05-5.73371E-05 1.58220E-05 5.60260E-06-1.11129E-18-4.70103E-20
 -1       322 1.71091E-04-5.75118E-05-4.90624E-05-3.27269E-05-2.42993E-19 1.18383E-18
 -1       323 9.16490E-05-1.43951E-05-3.31722E-05-1.30557E-05-5.01928E-19-8.16348E-19
 -1       324 9.56993E-05-1.91079E-05-3.28881E-05-1.46255E-05-7.19068E-19-5.08941E-19
 -1       325 8.80147E-05-1.03745E-05-3.33278E-05-8.14305E-06-3.06429E-21-9.57776E-19
 -1       326 8.71983E-05-9.44885E-06-3.33692E-05-5.70993E-06 1.29577E-19-9.52515E-19
 -1       327 8.67391E-05-8.91783E-06-3.33968E-05-3.36165E-06 3.16474E-19-8.82009E-19
 -1       328 8.65336E-05-8.67675E-06-3.34107E-05-1.06986E-06 5.13099E-19-7.49062E-19
 -1       329 8.65415E-05-8.68583E-06-3.34103E-05 1.20300E-06 6.30989E-19-5.75374E-19
 -1       330 8.67647E-05-8.94733E-06-3.33954E-05 3.49643E-06 7.13237E-19-3.87183E-19
 -1       331 8.72361E-05-9.49294E-06-3.33672E-05 5.80884E-06 8.83603E-19-2.17118E-19
 -1       332 8.80742E-05-1.04471E-05-3.33242E-05 8.24773E-06 9.90256E-19 1.36071E-19
 -1       333 8.94831E-05-1.20298E-05-3.32617E-05 1.07612E-05 1.10033E-18 5.48937E-19
 -1       334 9.18894E-05-1.47346E-05-3.31487E-05 1.31400E-05 1.10406E-18 1.06767E-18
 -1       335 9.58797E-05-1.95829E-05-3.28029E-05 1.42762E-05 9.91603E-19 1.86640E-18
 -1       336 9.87687E-05-2.44457E-05-3.19381E-05 1.18478E-05 7.14393E-19 2.54838E-18
 -1       337 9.63284E-05-2.67728E-05-2.97819E-05 5.72265E-06 5.12687E-19 2.12532E-18
 -1       338 9.64294E-05-2.60248E-05-3.01297E-05-6.34251E-06-5.64425E-19-4.39192E-19
 -1       339 9.49169E-05-2.70265E-05-2.90704E-05-2.82386E-06-4.56000E-19-3.47085E-19
 -1       340 9.39460E-05-2.74238E-05-2.84949E-05-9.08878E-07-3.36343E-19-2.70997E-19
 -1       341 9.34345E-05-2.76360E-05-2.81927E-05 1.59273E-07-1.28052E-19-2.63750E-19
 -1       342 9.32552E-05-2.77903E-05-2.80535E-05 7.36200E-07-1.49018E-19-2.20978E-19
 -1       343 9.32905E-05-2.79215E-05-2.80142E-05 1.02158E-06-2.00331E-19-1.41287E-19
 -1       344 9.34559E-05-2.80383E-05-2.80359E-05 1.13522E-06-2.85449E-19-3.50384E-19
 -1       345 9.36952E-05-2.81423E-05-2.80942E-05 1.15338E-06-3.86250E-19-6.29265E-19
 -1       346 9.39736E-05-2.82332E-05-2.81747E-05 1.12819E-06-5.02732E-19-6.36086E-19
 -1       347 9.42728E-05-2.83106E-05-2.82696E-05 1.09826E-06-2.28461E-19-4.86421E-19
 -1       348 9.45866E-05-2.83742E-05-2.83765E-05 1.09565E-06 3.61225E-19-5.34943E-19
 -1       349 9.49183E-05-2.84230E-05-2.84972E-05 1.15154E-06 4.61598E-19 4.31733E-20
 -1       350 9.52792E-05-2.84540E-05-2.86377E-05 1.30196E-06 2.38750E-19 3.79994E-19
 -1       351 9.56876E-05-2.84614E-05-2.88081E-05 1.59366E-06 1.05211E-19 1.12177E-18
 -1       352 9.61912E-05-2.84284E-05-2.90359E-05 2.12761E-06-1.38956E-19 1.29298E-18
 -1       353 9.67684E-05-2.83336E-05-2.93208E-05 2.95768E-06-1.84132E-19 1.10974E-18
 -1       354 9.74629E-05-2.81392E-05-2.96971E-05 4.24509E-06-7.74076E-21 9.13450E-19
 -1       355 9.82803E-05-2.77892E-05-3.01914E-05 6.19027E-06 2.07148E-19 9.29036E-19
 -1       356 9.91974E-05-2.72228E-05-3.08205E-05 9.04513E-06-1.66497E-19 5.27815E-19
 -1       357 1.00160E-04-2.64358E-05-3.15647E-05 1.30698E-05-5.89118E-21-1.45253E-21
 -1       358 1.01160E-04-2.56794E-05-3.23140E-05 1.83901E-05 8.53151E-19-4.93949E-19
 -1       359 1.02587E-04-2.59911E-05-3.27839E-05 2.46519E-05 8.12893E-19-5.93091E-19
 -1       360 1.06206E-04-3.01850E-05-3.24640E-05 3.02068E-05 8.36008E-19-1.97729E-19
 -1       361 1.15053E-04-4.14553E-05-3.13210E-05 3.17062E-05 3.48157E-19 1.37403E-18
 -1       362 9.61249E-06-2.05811E-05 4.68407E-06 1.36751E-05 5.06129E-19-3.20178E-19
 -1       363 1.67636E-04-7.23762E-05-4.09901E-05 2.85149E-06-1.67585E-18-1.04587E-18
 -1       364 1.38417E-04-5.60661E-05-3.50590E-05-2.16301E-05-3.25711E-19 9.46427E-19
 -1       365 1.21205E-04-3.90205E-05-3.50454E-05-2.87463E-05 4.28969E-19-8.09856E-19
 -1       366 1.12092E-04-3.08228E-05-3.47764E-05-2.67562E-05 3.52146E-19-2.55069E-18
 -1       367 1.07604E-04-2.84033E-05-3.39076E-05-2.08921E-05 1.20286E-18-2.58467E-18
 -1       368 1.04554E-04-2.80517E-05-3.27538E-05-1.50982E-05 6.50061E-19-1.61321E-18
 -1       369 1.02216E-04-2.82420E-05-3.16717E-05-1.04361E-05-3.90171E-19-2.98426E-19
 -1       370 1.00372E-04-2.84608E-05-3.07939E-05-7.04294E-06-1.37494E-18-1.88412E-18
 -1       371 9.89453E-05-2.85958E-05-3.01312E-05-4.69734E-06-1.20783E-19-3.72002E-18
 -1       372 9.78680E-05-2.86546E-05-2.96502E-05-3.11976E-06-9.23539E-20-3.66584E-18
 -1       373 9.70719E-05-2.86659E-05-2.93084E-05-2.07312E-06-9.82107E-19-1.75355E-18
 -1       374 9.64921E-05-2.86527E-05-2.90685E-05-1.38179E-06 6.76632E-19-7.42774E-19
 -1       375 9.60741E-05-2.86291E-05-2.89014E-05-9.23489E-07 1.60076E-18-1.42641E-18
 -1       376 9.57752E-05-2.86027E-05-2.87858E-05-6.15420E-07 2.03119E-18-1.90027E-18
 -1       377 9.55631E-05-2.85769E-05-2.87068E-05-4.01929E-07 7.73941E-19 9.22777E-21
 -1       378 9.54143E-05-2.85531E-05-2.86536E-05-2.46050E-07-1.50034E-18 6.01023E-19
 -1       379 9.53119E-05-2.85357E-05-2.86176E-05-1.25648E-07-2.03340E-18-9.57841E-19
 -1       380 9.41467E-05-2.72778E-05-2.86337E-05 1.69218E-06 4.19814E-19 1.72052E-18
 -1       381 9.33950E-05-2.75319E-05-2.82153E-05 2.76858E-07 3.57244E-19 1.60865E-18
 -1       382 9.30592E-05-2.76745E-05-2.80167E-05-4.88727E-07 3.37606E-19 1.27992E-18
 -1       383 9.30151E-05-2.78012E-05-2.79466E-05-8.84831E-07 6.24062E-20 1.06216E-18
 -1       384 9.31485E-05-2.79221E-05-2.79535E-05-1.06194E-06 3.44947E-20 8.73883E-19
 -1       385 9.33822E-05-2.80370E-05-2.80051E-05-1.11012E-06 6.17504E-20 8.75812E-19
 -1       386 9.36658E-05-2.81444E-05-2.80810E-05-1.08563E-06 2.90662E-19 1.01927E-18
 -1       387 9.39679E-05-2.82435E-05-2.81682E-05-1.02392E-06 2.57337E-19 1.21749E-18
 -1       388 9.42702E-05-2.83353E-05-2.82585E-05-9.46138E-07 4.31671E-19 1.35104E-18
 -1       389 9.45623E-05-2.84221E-05-2.83465E-05-8.62408E-07 5.59678E-19 5.15315E-19
 -1       390 9.48382E-05-2.85073E-05-2.84284E-05-7.73243E-07-2.03121E-19 1.74988E-19
 -1       391 9.50926E-05-2.85946E-05-2.85002E-05-6.69890E-07 7.42539E-20 5.88856E-19
 -1       392 9.53185E-05-2.86875E-05-2.85576E-05-5.34155E-07 3.70171E-19 2.92264E-19
 -1       393 9.55029E-05-2.87876E-05-2.85943E-05-3.38409E-07 1.88180E-19 6.20906E-19
 -1       394 9.56245E-05-2.88928E-05-2.86021E-05-4.68235E-08 5.41659E-19 2.96181E-19
 -1       395 9.56503E-05-2.89939E-05-2.85708E-05 3.80698E-07 3.06247E-19 4.95548E-19
 -1       396 9.55333E-05-2.90707E-05-2.84888E-05 9.80064E-07-1.14365E-19 5.65670E-19
 -1       397 9.52131E-05-2.90879E-05-2.83451E-05 1.76845E-06-3.28152E-19 1.11271E-18
 -1       398 9.46208E-05-2.89936E-05-2.81320E-05 2.72362E-06-8.53692E-21 1.22664E-18
 -1       399 9.36929E-05-2.87242E-05-2.78491E-05 3.76067E-06-7.07617E-19 1.43775E-18
 -1       400 9.23954E-05-2.82205E-05-2.75071E-05 4.71576E-06-1.03948E-18 1.74617E-18
 -1       401 9.07592E-05-2.74583E-05-2.71294E-05 5.35263E-06 1.31429E-19 9.46661E-19
 -1       402 8.89145E-05-2.64855E-05-2.67518E-05 5.40863E-06 1.25966E-18 1.68188E-18
 -1       403 8.71046E-05-2.54463E-05-2.64174E-05 4.68380E-06 2.45789E-19 1.81080E-18
 -1       404 8.56514E-05-2.45640E-05-2.61693E-05 3.14615E-06 8.64875E-20 2.29185E-18
 -1       405 8.48660E-05-2.40721E-05-2.60417E-05 9.97318E-07 1.31964E-19 1.80320E-18
 -1       406 8.49355E-05-2.41162E-05-2.60528E-05-1.35603E-06 4.08583E-19 1.66127E-18
 -1       407 8.58434E-05-2.46832E-05-2.62011E-05-3.43334E-06-4.36602E-19 8.47627E-19
 -1       408 8.73766E-05-2.56074E-05-2.64658E-05-4.85300E-06-6.14747E-19 9.27202E-19
 -1       409 8.92146E-05-2.66498E-05-2.68110E-05-5.45130E-06-1.03558E-19 1.11983E-19
 -1       410 9.10440E-05-2.75962E-05-2.71934E-05-5.29387E-06-1.86412E-19 4.35356E-19
 -1       411 9.26397E-05-2.83184E-05-2.75706E-05-4.59855E-06 3.79214E-19 4.71409E-19
 -1       412 9.38902E-05-2.87829E-05-2.79090E-05-3.62939E-06 1.10261E-18 2.67701E-18
 -1       413 9.47790E-05-2.90220E-05-2.81877E-05-2.61402E-06-1.60252E-19 2.53098E-18
 -1       414 9.53485E-05-2.90979E-05-2.83987E-05-1.70472E-06-4.77680E-19 2.10121E-19
 -1       415 9.56668E-05-2.90735E-05-2.85446E-05-9.76565E-07 1.00994E-18-1.30130E-19
 -1       416 9.58047E-05-2.89990E-05-2.86344E-05-4.45710E-07 1.35040E-19-5.84178E-19
 -1       417 9.58237E-05-2.89079E-05-2.86805E-05-9.26269E-08-4.22092E-19-2.19591E-18
 -1       418 9.57718E-05-2.88192E-05-2.86954E-05 1.18121E-07 9.85544E-21-1.42718E-18
 -1       419 9.56838E-05-2.87418E-05-2.86902E-05 2.24479E-07 1.74636E-18-1.40840E-18
 -1       420 9.55832E-05-2.86783E-05-2.86738E-05 2.59552E-07 7.23724E-19-2.50258E-19
 -1       421 9.54845E-05-2.86277E-05-2.86528E-05 2.48706E-07-3.11017E-19 1.12434E-19
 -1       422 9.53962E-05-2.85879E-05-2.86318E-05 2.09317E-07-1.44604E-18 2.45151E-19
 -1       423 9.53228E-05-2.85574E-05-2.86133E-05 1.53196E-07-9.90258E-19 1.11112E-18
 -1       424 9.52745E-05-2.85423E-05-2.85992E-05 9.51783E-08 3.94426E-19 1.03108E-18
 -1       425 9.51954E-05-2.83744E-05-2.86375E-05 2.15456E-07 1.07090E-18 6.04515E-19
 -1       426 9.52344E-05-2.84530E-05-2.86203E-05 1.80709E-07 6.06343E-19-9.49954E-20
 -1       427 9.51530E-05-2.82901E-05-2.86555E-05 2.29008E-07 8.02209E-19-2.24860E-18
 -1       428 9.51076E-05-2.82022E-05-2.86739E-05 2.15476E-07-3.50944E-19 1.64432E-19
 -1       429 9.50637E-05-2.81208E-05-2.86901E-05 1.72317E-07 8.97747E-19-2.63063E-18
 -1       430 9.50273E-05-2.80566E-05-2.87022E-05 1.00151E-07-4.99400E-19 1.21397E-18
 -1       431 9.50058E-05-2.80211E-05-2.87082E-05 5.02214E-09 2.25668E-19 2.58853E-18
 -1       432 9.50065E-05-2.80236E-05-2.87074E-05-1.00336E-07 9.40380E-19 5.04314E-19
 -1       433 9.50330E-05-2.80676E-05-2.86998E-05-1.95636E-07 1.53134E-18-2.58716E-18
 -1       434 9.50856E-05-2.81515E-05-2.86862E-05-2.62922E-07 1.53533E-18 2.79826E-18
 -1       435 9.51567E-05-2.82637E-05-2.86684E-05-2.82022E-07-1.21625E-18-1.69125E-18
 -1       436 9.52307E-05-2.83851E-05-2.86478E-05-2.43567E-07-3.35693E-18-2.07282E-18
 -1       437 9.49364E-05-2.70737E-05-2.90469E-05 3.31695E-06 4.11360E-19 1.96605E-18
 -1       438 6.78037E-05-4.26355E-05-1.06561E-05 5.32972E-05-1.59242E-18 3.54878E-18
 -1       439 1.42091E-04-4.83564E-05-4.00653E-05 3.23077E-05-7.94093E-22-2.56482E-18
 -1       440 1.72606E-04-7.21367E-05-4.32749E-05-8.73615E-06-6.15052E-19 6.80962E-19
 -1       441 8.93424E-05-1.18554E-05-3.32828E-05-1.06805E-05-2.56469E-19-9.90307E-19
 -1       442 1.62512E-04-3.89078E-05-5.27659E-05 1.72007E-05 1.52299E-18-2.78970E-18
 -1       443 1.68457E-04-2.23236E-05-6.25930E-05 2.60298E-06 2.81829E-18-3.59026E-18
 -1       444 1.65049E-04-9.28094E-06-6.69210E-05 5.65234E-08 3.19162E-18-2.97984E-18
 -1       445 1.66705E-04-1.40970E-05-6.54200E-05 6.35920E-07 2.60060E-18-3.36283E-18
 -1       446 1.64434E-04-3.19601E-05-5.68317E-05-6.36645E-06 1.70847E-18-3.54737E-18
 -1       447 1.51738E-04-4.90662E-05-4.40442E-05-2.28437E-05 8.55000E-19-4.30801E-18
 -1       448 1.23090E-04-5.26450E-05-3.02161E-05-4.30792E-05 1.96342E-18-3.39798E-18
 -1       449 9.10761E-05-4.97441E-05-1.76629E-05-5.19636E-05 1.85511E-18-3.83094E-18
 -1       450 3.92671E-05-3.26674E-05-2.81478E-06-4.57522E-05 7.73023E-19-4.47869E-18
 -1       451 1.52136E-05-2.48443E-05 3.97090E-06-2.73304E-05 2.36269E-19-2.87197E-18
 -1       452 1.03365E-05-2.36915E-05 5.41756E-06 3.11528E-06 1.20520E-18-9.70064E-19
 -1       453 3.22594E-05-3.51181E-05 6.83304E-07 2.66466E-05-3.07155E-19 7.93352E-19
 -1       454 8.03633E-05-5.21682E-05-1.23857E-05 3.79938E-05 1.12571E-18 3.69306E-19
 -1       455 1.29722E-04-6.78910E-05-2.71196E-05 2.75636E-05-5.24313E-19 1.94045E-18
 -1       456 1.75586E-04-7.32435E-05-4.40993E-05 2.16403E-06-1.26430E-18 8.41104E-19
 -1       457 1.97249E-04-5.75805E-05-5.91094E-05-2.49786E-05 6.17275E-20-4.78785E-19
 -1       458 1.91329E-04-3.85640E-05-6.49930E-05-2.12868E-05 7.83505E-20-1.92594E-19
 -1       459 1.88725E-04-6.78870E-05-5.14355E-05 1.47784E-05-3.59195E-19-2.16629E-19
 -1       460 1.55528E-04-7.22250E-05-3.61252E-05-1.58262E-05-1.77888E-18-1.02660E-18
 -1       461 1.07148E-04-6.19267E-05-1.98737E-05-3.46505E-05-8.36445E-19-9.86635E-19
 -1       462 4.84342E-05-4.00511E-05-4.08177E-06-3.38999E-05 7.60212E-20 1.46103E-18
 -1       463 1.69102E-05-2.72618E-05 4.09672E-06-1.41513E-05 4.19652E-19-2.38969E-19
 -1       464 1.03425E-04-5.18820E-05-2.21231E-05 4.93058E-05-1.75823E-18 3.23196E-19
 -1       465 2.72990E-05-2.76367E-05 2.03679E-07 3.94307E-05-5.00279E-19 2.76990E-18
 -1       466 1.44273E-04-6.15159E-05-3.51225E-05 1.78329E-05 1.43202E-19 4.84890E-19
 -1       467 1.95764E-04-5.78846E-05-5.87911E-05 2.28328E-05 1.81159E-19-1.38977E-18
 -1       468 9.52789E-05-2.84654E-05-2.86337E-05-1.94370E-07-2.34298E-18-1.14800E-18
 -1       469 1.31777E-04-6.09532E-05-3.03324E-05 3.50949E-05-2.38397E-18-2.93132E-18
 -1       470 7.32830E-05-4.13802E-05-1.32617E-05-5.29017E-05 1.18357E-18-4.19768E-18
 -1       471 1.47400E-04-8.46716E-06-6.00732E-05-5.52041E-06 2.82644E-18-3.50391E-18
 -1       472 8.95462E-05-1.33905E-05-3.26571E-05-3.91611E-06 2.32825E-19-7.67553E-19
 -1       473 9.02496E-05-1.43531E-05-3.25476E-05-5.87508E-06 8.89275E-20-8.17072E-19
 -1       474 8.90457E-05-1.27057E-05-3.27349E-05 5.61067E-08 4.69025E-19-5.77365E-19
 -1       475 8.91802E-05-1.28892E-05-3.27142E-05 2.04252E-06 5.95869E-19-4.03623E-19
 -1       476 8.95749E-05-1.34281E-05-3.26535E-05 3.99094E-06 7.21507E-19-1.85160E-19
 -1       477 9.02989E-05-1.44172E-05-3.25417E-05 5.94058E-06 8.82176E-19 2.72151E-20
 -1       478 9.14516E-05-1.60050E-05-3.23575E-05 7.76474E-06 9.16207E-19 3.86206E-19
 -1       479 9.31725E-05-1.84296E-05-3.20532E-05 9.21263E-06 9.34718E-19 7.64389E-19
 -1       480 9.53076E-05-2.18847E-05-3.14785E-05 9.53888E-06 8.79055E-19 1.29649E-18
 -1       481 9.63515E-05-2.46174E-05-3.07318E-05 8.02710E-06 7.22939E-19 1.59764E-18
 -1       482 9.54733E-05-2.44152E-05-3.04430E-05-5.82993E-06-3.84338E-19-4.02061E-19
 -1       483 2.64909E-05-1.12516E-05-5.82624E-06 2.70815E-05 2.09588E-19 5.09384E-19
 -1       484 9.52814E-05-2.62297E-05-2.95871E-05-2.88088E-06-3.74608E-19-2.09217E-19
 -1       485 9.49261E-05-2.71521E-05-2.90423E-05-1.00489E-06-1.94627E-19-8.49607E-20
 -1       486 9.46591E-05-2.76820E-05-2.87029E-05 1.34018E-07-2.27091E-19-1.87066E-19
 -1       487 9.45137E-05-2.80042E-05-2.85034E-05 7.89747E-07-1.56516E-19-1.13408E-19
 -1       488 9.44734E-05-2.82094E-05-2.83987E-05 1.13794E-06-3.37827E-19-2.67341E-19
 -1       489 9.45092E-05-2.83411E-05-2.83578E-05 1.29678E-06-4.52980E-19-2.88130E-19
 -1       490 9.45951E-05-2.84212E-05-2.83604E-05 1.34911E-06-3.75535E-19-2.21237E-19
 -1       491 9.47112E-05-2.84607E-05-2.83932E-05 1.35512E-06-2.86444E-19 5.70589E-20
 -1       492 9.48438E-05-2.84640E-05-2.84485E-05 1.36132E-06 2.19417E-19 2.87789E-20
 -1       493 9.49824E-05-2.84290E-05-2.85227E-05 1.40739E-06 4.99848E-19 2.06402E-20
 -1       494 9.51175E-05-2.83467E-05-2.86156E-05 1.53212E-06 5.58355E-19-4.58698E-20
 -1       495 9.52364E-05-2.81986E-05-2.87296E-05 1.77882E-06 1.41046E-19-2.12363E-19
 -1       496 9.53168E-05-2.79348E-05-2.88763E-05 2.22980E-06-1.67396E-19-5.18742E-19
 -1       497 9.53044E-05-2.75227E-05-2.90465E-05 2.91852E-06 9.04113E-20-1.48641E-19
 -1       498 9.51258E-05-2.68709E-05-2.92477E-05 3.95670E-06-2.73387E-19 4.96360E-20
 -1       499 9.46394E-05-2.58585E-05-2.94708E-05 5.46843E-06-1.68329E-19-1.14917E-19
 -1       500 9.36161E-05-2.43350E-05-2.96823E-05 7.60022E-06-2.46634E-19 8.65141E-20
 -1       501 9.17160E-05-2.21624E-05-2.97952E-05 1.05057E-05-4.60141E-19-4.44254E-19
 -1       502 8.85138E-05-1.93591E-05-2.96162E-05 1.43227E-05 2.58681E-19 6.32127E-19
 -1       503 8.37120E-05-1.64870E-05-2.87590E-05 1.91743E-05 5.51867E-19-8.51847E-20
 -1       504 7.75800E-05-1.54318E-05-2.64925E-05 2.51128E-05 1.43764E-18-3.51400E-19
 -1       505 8.29586E-05-2.46009E-05-2.46697E-05 3.33660E-05 1.12092E-18-5.33869E-19
 -1       506 1.50221E-04-5.12522E-05-4.26481E-05 8.10176E-06-3.28966E-19-3.53345E-18
 -1       507 5.59150E-05-3.00858E-05-1.05466E-05 4.88079E-05-2.50558E-18 6.26699E-19
 -1       508 8.33052E-05-2.04102E-05-2.65599E-05-3.14378E-05 1.83945E-19-6.86785E-19
 -1       509 8.65597E-05-1.84268E-05-2.91220E-05-2.41753E-05-1.99705E-19-1.93438E-18
 -1       510 9.02214E-05-1.98506E-05-3.01288E-05-1.80549E-05 1.59821E-18-2.74962E-18
 -1       511 9.29513E-05-2.22115E-05-3.02974E-05-1.31443E-05 1.28235E-18-1.50122E-18
 -1       512 9.45975E-05-2.42962E-05-3.01141E-05-9.35749E-06-1.81382E-18-1.66711E-18
 -1       513 9.54376E-05-2.58228E-05-2.98239E-05-6.55736E-06-1.96892E-18-1.29217E-18
 -1       514 9.57835E-05-2.68488E-05-2.95358E-05-4.55042E-06-2.50489E-19-7.43330E-19
 -1       515 9.58609E-05-2.75060E-05-2.92899E-05-3.14216E-06 1.84307E-19-9.11977E-19
 -1       516 9.58094E-05-2.79141E-05-2.90947E-05-2.16633E-06 6.39623E-19 8.96027E-20
 -1       517 9.57070E-05-2.81614E-05-2.89460E-05-1.49349E-06 1.66293E-18 9.23203E-19
 -1       518 9.55936E-05-2.83069E-05-2.88357E-05-1.02815E-06 2.09302E-18 8.95470E-19
 -1       519 9.54871E-05-2.83883E-05-2.87556E-05-7.02498E-07 2.72586E-18 3.96523E-19
 -1       520 9.53929E-05-2.84291E-05-2.86982E-05-4.69134E-07-1.07443E-18-2.66486E-18
 -1       521 9.53339E-05-2.84521E-05-2.86629E-05-3.17916E-07-1.52547E-18-7.94544E-19
 -1       522 9.43995E-05-2.78373E-05-2.85252E-05-5.03732E-07 3.76840E-19 1.01119E-18
 -1       523 9.46279E-05-2.74587E-05-2.87833E-05 3.70518E-07 4.89784E-19 1.07624E-18
 -1       524 9.50050E-05-2.68159E-05-2.92198E-05 1.86519E-06 2.73609E-19 9.99581E-19
 -1       525 9.43078E-05-2.80785E-05-2.83835E-05-9.85504E-07 1.31512E-19 9.05474E-19
 -1       526 9.43176E-05-2.82408E-05-2.83186E-05-1.21928E-06 2.80607E-19 7.11386E-19
 -1       527 9.43952E-05-2.83540E-05-2.83035E-05-1.30062E-06 9.96619E-20 6.92026E-19
 -1       528 9.45145E-05-2.84354E-05-2.83199E-05-1.29303E-06-9.70301E-20 5.69190E-19
 -1       529 9.46581E-05-2.84974E-05-2.83549E-05-1.23765E-06 4.30478E-19 4.75900E-19
 -1       530 9.48158E-05-2.85509E-05-2.83996E-05-1.15885E-06 8.04887E-19 7.92175E-19
 -1       531 9.49829E-05-2.86064E-05-2.84474E-05-1.06726E-06 4.26681E-19 1.17393E-18
 -1       532 9.51586E-05-2.86755E-05-2.84932E-05-9.61121E-07 5.68777E-19 1.74372E-19
 -1       533 9.53449E-05-2.87709E-05-2.85322E-05-8.26524E-07 1.51683E-19 6.75763E-20
 -1       534 9.55438E-05-2.89055E-05-2.85600E-05-6.37272E-07 7.14645E-20 3.47091E-19
 -1       535 9.57557E-05-2.90905E-05-2.85719E-05-3.55188E-07 6.12218E-19-5.10714E-19
 -1       536 9.59747E-05-2.93304E-05-2.85633E-05 6.76814E-08 3.41811E-19 1.48910E-19
 -1       537 9.61834E-05-2.96162E-05-2.85309E-05 6.82941E-07 1.37018E-19 2.66493E-19
 -1       538 9.63456E-05-2.99141E-05-2.84732E-05 1.53329E-06-4.90280E-19-5.65121E-20
 -1       539 9.63989E-05-3.01561E-05-2.83927E-05 2.63130E-06-5.65567E-19 1.02666E-18
 -1       540 9.62525E-05-3.02334E-05-2.82968E-05 3.92955E-06-8.84574E-19 1.73388E-18
 -1       541 9.57977E-05-3.00082E-05-2.81978E-05 5.28748E-06-7.99076E-19 1.25189E-18
 -1       542 9.49415E-05-2.93517E-05-2.81110E-05 6.45022E-06 8.46836E-21 8.15970E-19
 -1       543 9.36666E-05-2.82155E-05-2.80499E-05 7.06618E-06 3.42089E-19 9.50562E-19
 -1       544 9.20989E-05-2.67133E-05-2.80200E-05 6.77193E-06 5.56290E-19 1.59404E-18
 -1       545 9.05372E-05-2.51573E-05-2.80158E-05 5.34429E-06 5.89372E-20 1.41263E-18
 -1       546 8.93876E-05-2.39877E-05-2.80230E-05 2.85920E-06-1.80563E-19 9.45290E-19
 -1       547 8.90070E-05-2.35962E-05-2.80270E-05-2.48915E-07 3.14234E-20 2.33284E-18
 -1       548 8.95243E-05-2.41254E-05-2.80224E-05-3.30229E-06 3.99438E-19 2.75371E-18
 -1       549 9.07673E-05-2.53849E-05-2.80166E-05-5.64499E-06 1.90500E-20 1.40479E-18
 -1       550 9.23581E-05-2.69595E-05-2.80254E-05-6.89470E-06-2.04935E-19-2.70360E-19
 -1       551 9.38977E-05-2.84176E-05-2.80624E-05-7.03217E-06 6.20005E-20-4.34497E-19
 -1       552 9.51149E-05-2.94781E-05-2.81313E-05-6.31585E-06 3.64581E-19-1.04799E-18
 -1       553 9.59107E-05-3.00578E-05-2.82250E-05-5.11651E-06-2.31595E-19-1.24726E-18
 -1       554 9.63198E-05-3.02232E-05-2.83299E-05-3.77487E-06-2.01591E-19-2.20158E-19
 -1       555 9.64417E-05-3.01081E-05-2.84314E-05-2.52911E-06 4.37951E-19 4.59438E-19
 -1       556 9.63848E-05-2.98476E-05-2.85183E-05-1.50491E-06 6.57363E-19 2.05288E-19
 -1       557 9.62371E-05-2.95442E-05-2.85845E-05-7.39899E-07-3.41934E-19 7.29231E-19
 -1       558 9.60577E-05-2.92603E-05-2.86287E-05-2.17014E-07 7.18419E-19 1.72102E-18
 -1       559 9.58810E-05-2.90252E-05-2.86533E-05 1.06944E-07-4.84514E-19 4.27602E-19
 -1       560 9.57233E-05-2.88457E-05-2.86623E-05 2.81786E-07 1.39564E-18-1.07527E-18
 -1       561 9.55902E-05-2.87164E-05-2.86604E-05 3.52706E-07 3.82481E-19-1.70630E-18
 -1       562 9.54815E-05-2.86269E-05-2.86520E-05 3.55959E-07-3.57570E-19-9.53882E-19
 -1       563 9.53937E-05-2.85652E-05-2.86406E-05 3.17783E-07-2.00551E-18 1.03401E-18
 -1       564 9.53220E-05-2.85217E-05-2.86285E-05 2.55384E-07-3.11093E-19 1.51676E-18
 -1       565 9.51272E-05-2.82630E-05-2.86561E-05 3.19080E-07 3.12714E-19-2.60806E-18
 -1       566 9.51914E-05-2.83541E-05-2.86444E-05 3.14974E-07-1.91284E-19-9.62393E-19
 -1       567 9.52479E-05-2.84368E-05-2.86333E-05 2.80561E-07 5.76366E-19 1.02476E-18
 -1       568 9.50571E-05-2.81658E-05-2.86678E-05 2.87401E-07-8.78646E-19 6.12306E-19
 -1       569 9.49888E-05-2.80729E-05-2.86784E-05 2.14573E-07 8.83202E-19-1.92694E-18
 -1       570 9.49337E-05-2.79981E-05-2.86869E-05 1.02221E-07 1.67736E-19 3.24332E-18
 -1       571 9.49063E-05-2.79572E-05-2.86927E-05-3.90833E-08 2.14498E-19 2.41254E-18
 -1       572 9.49187E-05-2.79633E-05-2.86954E-05-1.86154E-07 1.37500E-18-1.75555E-18
 -1       573 9.49777E-05-2.80235E-05-2.86948E-05-3.16109E-07 4.80604E-19-1.51551E-18
 -1       574 9.50782E-05-2.81341E-05-2.86904E-05-3.96319E-07-1.37764E-18-9.50401E-19
 -1       575 9.52022E-05-2.82791E-05-2.86813E-05-4.04741E-07-1.73091E-18-1.80088E-18
 -1       576 9.45806E-05-2.06845E-05-3.16898E-05-9.56465E-06-4.91615E-19-5.65040E-19
 -1       577 4.16341E-05-2.31964E-05-7.44766E-06-2.99838E-05-8.92032E-20 1.08494E-18
 -1       578 1.50962E-04-3.24632E-05-5.12748E-05-5.44424E-06 1.56526E-18-3.41169E-18
 -1       579 8.91622E-05-1.28655E-05-3.27166E-05-1.93115E-06 3.54591E-19-6.83466E-19
 -1       580 1.02675E-04-4.85734E-05-2.28672E-05 3.67265E-05 2.81162E-19 2.30869E-19
 -1       581 1.37752E-04-4.82752E-06-5.77136E-05 3.95853E-06 2.41669E-18-1.94632E-18
 -1       582 3.27646E-05-1.53233E-05-6.73936E-06 2.21864E-05 1.80243E-18 5.25372E-19
 -1       583 1.44513E-04-1.93353E-05-5.42379E-05 9.92764E-06 1.52111E-18-1.66961E-18
 -1       584 1.40366E-04-5.96725E-05-3.47450E-05-2.33379E-05 5.54727E-19-2.58800E-18
 -1       585 1.20164E-04-5.83685E-05-2.63476E-05-3.97694E-05 1.35515E-18-1.72076E-18
 -1       586 3.47494E-05-1.88854E-05-6.13299E-06-3.80736E-05 1.14439E-18-4.45857E-18
 -1       587 1.87992E-05-8.37684E-06-3.79912E-06-1.09046E-05 9.66921E-19-1.71281E-18
 -1       588 6.48819E-05-3.35487E-05-1.29252E-05 3.77469E-05 9.13102E-19 1.38808E-18
 -1       589 1.49285E-04-4.42763E-05-4.54004E-05 1.96943E-06 5.03985E-20-1.64970E-18
 -1       590 9.22677E-05-4.63686E-05-1.94040E-05-3.92193E-05-3.35637E-19-3.35213E-19
 -1       591 9.82438E-05-5.08595E-05-1.99907E-05 4.90053E-05-3.40666E-18 7.74903E-19
 -1       592 2.13336E-05-8.87760E-06-4.65683E-06-5.59575E-06 1.48006E-19-7.22413E-19
 -1       593 9.13534E-05-1.58506E-05-3.23815E-05-7.75395E-06-8.77341E-20-7.83653E-19
 -1       594 9.55596E-05-2.58408E-05-2.98574E-05 4.91818E-06 5.32456E-19 1.36056E-18
 -1       595 1.31749E-04-6.57463E-05-2.82572E-05-2.55650E-05-8.39410E-19-1.77083E-20
 -1       596 1.33163E-04-6.81432E-05-2.82233E-05 2.51157E-05-5.60630E-19 2.41780E-18
 -1       597 9.51805E-05-2.63843E-05-2.94715E-05 3.18972E-06 5.14878E-19 1.06341E-18
 -1       598 1.01850E-04-5.05062E-05-2.17044E-05-4.53721E-05 2.81109E-20-2.16263E-18
 -1       599 1.38092E-04-1.81703E-05-5.19779E-05-1.14279E-05 2.31664E-18-3.60714E-18
 -1       600 6.09096E-05-2.87273E-05-1.32480E-05-4.63755E-05 1.20025E-18-4.29742E-18
 -1       601 9.15499E-05-1.68256E-05-3.20304E-05 2.43239E-06 6.20464E-19-3.12744E-19
 -1       602 9.12915E-05-1.64224E-05-3.20921E-05 8.39249E-07 4.64883E-19-4.48908E-19
 -1       603 9.28856E-05-1.89783E-05-3.16809E-05 5.25083E-06 7.81416E-19 1.79137E-19
 -1       604 9.39832E-05-2.08874E-05-3.13339E-05 6.18617E-06 7.57603E-19 5.87003E-19
 -1       605 9.54972E-05-2.42052E-05-3.05415E-05 6.24122E-06 6.38128E-19 1.11636E-18
 -1       606 9.50217E-05-2.36336E-05-3.05893E-05-4.69293E-06-2.46358E-19-4.19404E-19
 -1       607 8.23459E-05-2.97976E-05-2.19879E-05 3.56192E-05 1.12068E-18-7.89196E-19
 -1       608 9.54372E-05-2.57225E-05-2.98799E-05-2.41110E-06-2.66568E-19-3.83876E-19
 -1       609 9.54870E-05-2.69273E-05-2.93819E-05-8.20867E-07-2.96177E-19-4.40529E-19
 -1       610 9.54325E-05-2.76767E-05-2.90380E-05 1.97292E-07-1.29130E-19-4.38291E-19
 -1       611 9.53598E-05-2.81344E-05-2.88108E-05 8.15059E-07-3.77446E-19-5.33139E-19
 -1       612 9.52994E-05-2.84057E-05-2.86688E-05 1.15817E-06-2.67150E-19-3.82270E-19
 -1       613 9.52573E-05-2.85507E-05-2.85886E-05 1.32758E-06-1.32336E-19 1.42897E-19
 -1       614 9.52296E-05-2.86047E-05-2.85536E-05 1.39925E-06-4.28682E-20 7.67986E-19
 -1       615 9.52078E-05-2.85862E-05-2.85521E-05 1.43079E-06-1.17364E-19 9.05339E-19
 -1       616 9.51798E-05-2.85014E-05-2.85765E-05 1.46752E-06 5.71853E-20 6.36894E-19
 -1       617 9.51279E-05-2.83442E-05-2.86215E-05 1.54746E-06 1.37519E-19-8.01485E-20
 -1       618 9.50256E-05-2.80956E-05-2.86842E-05 1.70552E-06 2.44186E-19-3.45908E-19
 -1       619 9.48146E-05-2.76941E-05-2.87656E-05 1.99408E-06 3.04986E-22-5.32567E-19
 -1       620 9.44389E-05-2.71132E-05-2.88533E-05 2.42462E-06-9.48852E-20-1.96487E-19
 -1       621 9.37769E-05-2.62469E-05-2.89405E-05 3.04548E-06-1.26557E-19-1.67733E-19
 -1       622 9.26426E-05-2.49637E-05-2.90038E-05 3.89078E-06-1.53125E-19-4.38616E-19
 -1       623 9.07526E-05-2.30958E-05-2.89938E-05 4.97824E-06-6.80352E-19-4.30272E-19
 -1       624 8.76908E-05-2.04590E-05-2.88107E-05 6.29142E-06-6.35081E-19-9.97529E-19
 -1       625 8.28825E-05-1.69263E-05-2.82593E-05 7.76892E-06 2.75278E-19-9.49093E-19
 -1       626 7.56054E-05-1.25943E-05-2.69701E-05 9.31711E-06 4.81969E-19-1.16917E-18
 -1       627 6.49253E-05-8.12843E-06-2.42349E-05 1.10652E-05 1.29316E-18 2.12751E-19
 -1       628 1.37424E-04-5.85936E-05-3.39281E-05 1.47995E-05-1.20750E-18-2.48083E-18
 -1       629 9.52999E-05-2.84784E-05-2.86377E-05 3.66130E-07-2.28024E-18 6.31262E-19
 -1       630 1.25670E-04-1.15197E-05-4.94383E-05 1.03891E-05 9.14796E-19-5.42763E-19
 -1       631 3.57918E-05-7.91265E-06-1.13229E-05-2.30250E-05 1.53865E-18-3.53065E-18
 -1       632 7.35070E-05-1.15304E-05-2.65148E-05-1.35818E-05-6.44115E-19 1.37286E-19
 -1       633 8.15184E-05-1.56423E-05-2.82172E-05-1.07597E-05 1.47695E-18-2.43199E-18
 -1       634 8.69468E-05-1.94012E-05-2.89426E-05-8.36545E-06 1.75865E-19-3.26400E-18
 -1       635 9.04205E-05-2.23183E-05-2.91829E-05-6.35734E-06-1.44245E-18-7.02618E-19
 -1       636 9.25504E-05-2.44108E-05-2.91999E-05-4.73660E-06-9.99803E-19-5.43830E-19
 -1       637 9.38092E-05-2.58431E-05-2.91264E-05-3.47668E-06-7.03300E-20-2.36111E-18
 -1       638 9.45269E-05-2.67951E-05-2.90267E-05-2.52579E-06 8.83911E-19-1.02931E-18
 -1       639 9.49192E-05-2.74151E-05-2.89295E-05-1.82262E-06 1.83231E-18 1.51868E-18
 -1       640 9.51200E-05-2.78114E-05-2.88460E-05-1.30831E-06 1.75738E-18 2.62881E-18
 -1       641 9.52133E-05-2.80615E-05-2.87791E-05-9.31933E-07 1.45215E-18 1.09813E-18
 -1       642 9.52416E-05-2.82109E-05-2.87273E-05-6.54673E-07 7.39386E-19 7.55399E-19
 -1       643 9.53625E-05-2.73457E-05-2.91494E-05 2.81819E-07 5.55280E-19 3.56595E-19
 -1       644 9.52722E-05-2.79134E-05-2.88679E-05-5.36829E-07 1.58097E-19 3.72261E-19
 -1       645 9.54222E-05-2.64236E-05-2.95694E-05 1.60775E-06 4.80457E-19 4.90140E-19
 -1       646 9.51535E-05-2.84721E-05-2.85778E-05-1.24762E-06 1.87607E-19 3.88431E-19
 -1       647 9.51368E-05-2.85939E-05-2.85185E-05-1.34064E-06 6.50576E-20 2.13520E-19
 -1       648 9.51446E-05-2.86608E-05-2.84932E-05-1.34675E-06 3.39100E-19-2.68957E-19
 -1       649 9.51745E-05-2.86980E-05-2.84901E-05-1.30570E-06 2.37285E-19-1.13850E-19
 -1       650 9.52276E-05-2.87273E-05-2.85003E-05-1.24096E-06 2.96430E-19-1.27096E-19
 -1       651 9.53091E-05-2.87700E-05-2.85169E-05-1.16194E-06 5.23281E-19 1.51299E-19
 -1       652 9.54288E-05-2.88487E-05-2.85345E-05-1.06474E-06 4.02661E-19 3.04738E-19
 -1       653 9.56013E-05-2.89882E-05-2.85487E-05-9.32048E-07 1.27880E-19-1.27508E-19
 -1       654 9.58447E-05-2.92138E-05-2.85564E-05-7.32380E-07 3.63783E-19 4.19377E-19
 -1       655 9.61780E-05-2.95478E-05-2.85562E-05-4.19831E-07 3.38052E-19-3.24897E-19
 -1       656 9.66141E-05-3.00004E-05-2.85494E-05 6.42771E-08-7.72252E-20-5.62377E-19
 -1       657 9.71494E-05-3.05554E-05-2.85411E-05 7.85048E-07-2.96648E-19 2.73384E-19
 -1       658 9.77465E-05-3.11510E-05-2.85419E-05 1.79914E-06-1.28260E-18 2.25980E-19
 -1       659 9.83164E-05-3.16595E-05-2.85684E-05 3.12698E-06-1.17948E-18 4.31995E-19
 -1       660 9.87063E-05-3.18787E-05-2.86413E-05 4.70988E-06-7.36576E-19 7.08255E-19
 -1       661 9.87129E-05-3.15571E-05-2.87814E-05 6.35706E-06 5.50360E-20 2.61755E-19
 -1       662 9.81423E-05-3.04753E-05-2.90001E-05 7.70693E-06 5.38864E-19 9.20989E-20
 -1       663 9.69295E-05-2.85939E-05-2.92862E-05 8.25373E-06-2.08286E-19 3.50301E-19
 -1       664 9.52660E-05-2.62025E-05-2.95984E-05 7.49766E-06 5.78538E-19 4.68610E-19
 -1       665 9.36370E-05-2.39474E-05-2.98657E-05 5.21286E-06 2.65374E-19-6.75271E-20
 -1       666 9.26530E-05-2.26095E-05-3.00159E-05 1.68080E-06-7.57889E-19 3.73021E-19
 -1       667 9.27423E-05-2.27281E-05-3.00032E-05-2.28631E-06-5.25188E-19 9.66585E-19
 -1       668 9.38648E-05-2.42541E-05-2.98309E-05-5.66918E-06 9.06603E-19 1.06963E-18
 -1       669 9.55433E-05-2.65841E-05-2.95522E-05-7.72277E-06 1.44528E-18 5.44569E-19
 -1       670 9.71623E-05-2.89261E-05-2.92431E-05-8.25342E-06 6.02394E-19-7.94298E-19
 -1       671 9.82797E-05-3.06849E-05-2.89691E-05-7.55474E-06-8.55326E-20-2.46852E-19
 -1       672 9.87520E-05-3.16311E-05-2.87667E-05-6.14317E-06 1.64177E-19 3.10239E-19
 -1       673 9.86742E-05-3.18434E-05-2.86428E-05-4.50761E-06-1.99351E-22-2.35806E-19
 -1       674 9.82472E-05-3.15528E-05-2.85844E-05-2.98361E-06-6.80284E-19 4.76567E-19
 -1       675 9.76695E-05-3.10068E-05-2.85707E-05-1.73985E-06 6.82872E-19 3.68049E-19
 -1       676 9.70839E-05-3.03959E-05-2.85813E-05-8.20950E-07-4.70602E-19 7.30320E-19
 -1       677 9.65705E-05-2.98362E-05-2.86009E-05-2.00192E-07-2.30307E-19 4.54050E-19
 -1       678 9.61598E-05-2.93807E-05-2.86200E-05 1.79815E-07 5.15794E-19 5.28430E-19
 -1       679 9.58522E-05-2.90405E-05-2.86338E-05 3.82248E-07 7.00850E-19 1.92689E-18
 -1       680 9.56322E-05-2.88027E-05-2.86413E-05 4.63433E-07 1.74111E-18 1.98353E-18
 -1       681 9.54807E-05-2.86463E-05-2.86432E-05 4.65948E-07 3.20146E-19 1.71992E-18
 -1       682 9.53755E-05-2.85462E-05-2.86411E-05 4.29010E-07-1.53344E-18 1.12931E-18
 -1       683 3.41845E-05-3.22025E-06-1.26387E-05 6.25755E-06 5.13745E-20 5.80694E-19
 -1       684 9.49699E-05-2.81017E-05-2.86578E-05 3.60091E-07 3.55911E-19 6.76922E-19
 -1       685 1.33918E-04-3.04073E-05-4.47814E-05 1.25693E-05 3.56336E-19-7.25510E-19
 -1       686 9.50784E-05-2.82267E-05-2.86507E-05 4.11232E-07 7.63654E-19-1.95346E-18
 -1       687 9.48660E-05-2.79794E-05-2.86658E-05 2.52603E-07 1.71471E-18-7.00506E-19
 -1       688 9.51984E-05-2.82618E-05-2.86871E-05-1.00794E-06 2.99252E-19 4.19623E-19
 -1       689 9.47884E-05-2.78814E-05-2.86745E-05 9.20322E-08-1.19957E-19 2.44936E-18
 -1       690 9.47612E-05-2.78324E-05-2.86839E-05-1.01322E-07-6.05454E-19 2.02817E-18
 -1       691 9.48028E-05-2.78506E-05-2.86939E-05-3.03426E-07-5.26144E-19-2.86249E-18
 -1       692 9.49182E-05-2.79454E-05-2.87027E-05-4.67692E-07-6.36333E-19-2.33664E-18
 -1       693 4.93652E-05-1.67538E-05-1.34456E-05 3.63757E-05-5.16690E-19 1.65860E-19
 -1       694 8.32892E-05-3.68021E-05-1.95730E-05 4.37778E-05-2.42614E-18 5.92513E-19
 -1       695 4.44053E-05-1.02741E-05-1.39577E-05-2.20692E-05-7.33213E-20 1.89222E-18
 -1       696 3.49981E-05-4.87885E-06-1.22595E-05 8.02813E-06 1.72108E-18-2.33305E-19
 -1       697 1.39693E-04-5.32975E-05-3.72198E-05-5.04115E-06 1.73999E-19-1.08105E-18
 -1       698 1.26085E-04-5.22348E-06-5.24360E-05-4.39140E-06 2.13918E-18-1.79986E-18
 -1       699 1.33695E-04-5.87091E-05-3.21964E-05-2.00759E-05 4.05649E-21-8.58256E-19
 -1       700 5.36488E-05-1.38028E-05-1.64722E-05 2.70853E-05 1.56042E-18 1.40232E-18
 -1       701 9.51747E-05-2.83374E-05-2.86446E-05 4.14807E-07 3.17424E-19-1.20501E-18
 -1       702 1.19999E-04-5.61445E-05-2.71931E-05 3.22808E-05-1.75878E-18-1.12098E-18
 -1       703 1.41409E-04-4.22648E-05-4.28100E-05-6.76738E-06 6.31119E-19-2.72287E-18
 -1       704 6.24520E-05-8.32916E-06-2.29353E-05-1.77738E-05-4.43382E-19 1.91118E-18
 -1       705 9.20453E-05-1.76079E-05-3.19076E-05-3.88224E-06 1.89831E-19-6.20923E-19
 -1       706 9.20753E-05-1.76554E-05-3.19002E-05 3.93699E-06 6.72024E-19 2.98199E-22
 -1       707 9.12858E-05-1.64137E-05-3.20934E-05-7.78598E-07 2.94762E-19-5.62613E-19
 -1       708 9.15311E-05-1.67964E-05-3.20346E-05-2.36791E-06 1.79909E-19-5.99997E-19
 -1       709 9.28384E-05-1.88916E-05-3.16974E-05-5.22476E-06-8.36143E-20-6.54344E-19
 -1       710 1.21483E-04-5.57597E-05-2.80586E-05-2.91914E-05-2.37573E-19-1.61800E-18
 -1       711 9.53200E-05-2.48788E-05-3.01829E-05 3.60016E-06 4.93984E-19 7.26791E-19
 -1       712 9.41710E-05-2.13006E-05-3.12335E-05-6.13427E-06-2.21329E-19-5.30936E-19
 -1       713 1.16542E-04-7.30071E-06-4.71982E-05 3.12326E-06 1.25411E-18-1.82272E-18
 -1       714 5.69558E-05-8.90467E-06-2.02173E-05 2.02393E-05 1.78600E-18 1.06414E-18
 -1       715 9.50974E-05-2.81090E-05-2.87088E-05-5.57523E-07-4.34963E-19-2.43169E-18
 -1       716 8.66001E-05-3.93616E-05-1.99344E-05-4.39326E-05 5.52504E-19-2.22903E-18
 -1       717 5.35071E-05-1.67455E-05-1.52840E-05-3.40000E-05 1.31690E-18-4.55910E-18
 -1       718 1.31987E-04-2.90528E-05-4.44563E-05-1.31864E-05 2.27087E-18-4.00130E-18
 -1       719 1.33030E-04-4.27951E-05-3.88010E-05 7.94179E-06 4.10957E-19-1.09633E-18
 -1       720 9.46345E-05-2.27004E-05-3.08306E-05 3.88534E-06 6.31473E-19 4.07712E-19
 -1       721 6.98206E-05-2.17143E-05-2.03772E-05 3.17140E-05-1.13834E-18 8.56959E-20
 -1       722 1.30631E-04-5.36644E-05-3.30502E-05-8.07049E-06 1.38146E-19-2.44072E-18
 -1       723 9.56222E-05-2.55247E-05-3.00399E-05-1.78507E-06-3.87408E-19-3.82784E-19
 -1       724 9.58662E-05-2.68455E-05-2.95805E-05-5.27712E-07-2.33337E-19-4.36141E-19
 -1       725 9.59554E-05-2.77137E-05-2.92464E-05 3.01193E-07-2.59430E-19-3.84630E-19
 -1       726 9.59360E-05-2.82482E-05-2.90091E-05 8.13691E-07-4.58945E-20-2.92352E-19
 -1       727 9.58617E-05-2.85512E-05-2.88474E-05 1.10613E-06-8.86326E-20-1.02702E-19
 -1       728 9.57574E-05-2.86893E-05-2.87435E-05 1.25686E-06 1.37344E-19-1.07073E-19
 -1       729 9.56324E-05-2.87038E-05-2.86837E-05 1.32762E-06 1.42216E-19 3.62622E-19
 -1       730 9.54841E-05-2.86168E-05-2.86574E-05 1.36571E-06-9.78329E-20 4.60533E-19
 -1       731 9.52988E-05-2.84341E-05-2.86563E-05 1.40677E-06-1.77482E-19 8.10684E-19
 -1       732 9.50508E-05-2.81459E-05-2.86736E-05 1.47730E-06-1.31483E-19 2.76599E-19
 -1       733 9.46734E-05-2.76978E-05-2.87038E-05 1.60216E-06 9.08391E-20-2.85462E-19
 -1       734 9.41276E-05-2.70795E-05-2.87349E-05 1.77746E-06 2.35634E-19-5.36151E-19
 -1       735 9.32913E-05-2.61995E-05-2.87536E-05 2.00007E-06-6.24640E-20-5.68503E-19
 -1       736 9.19991E-05-2.49526E-05-2.87342E-05 2.23576E-06-8.33500E-19-1.28514E-18
 -1       737 9.00112E-05-2.32083E-05-2.86299E-05 2.40569E-06-4.26214E-19-1.30780E-18
 -1       738 8.69884E-05-2.08248E-05-2.83561E-05 2.35916E-06-4.61613E-19-5.90366E-19
 -1       739 8.24668E-05-1.76909E-05-2.77602E-05 1.84272E-06-2.48145E-19-7.37628E-19
 -1       740 7.58185E-05-1.38000E-05-2.65659E-05 4.77068E-07 2.22018E-19-8.20798E-19
 -1       741 6.63200E-05-9.53469E-06-2.42852E-05-2.19140E-06 1.78636E-18-1.66728E-18
 -1       742 9.52710E-05-2.45254E-05-3.03161E-05 2.73212E-06 5.91022E-19 5.69368E-19
 -1       743 7.97032E-05-1.55543E-05-2.74876E-05-3.36701E-06-3.80591E-19-4.55825E-19
 -1       744 8.52791E-05-1.92269E-05-2.83075E-05-3.47823E-06 1.23770E-18-8.63625E-19
 -1       745 8.89727E-05-2.20410E-05-2.86848E-05-3.17054E-06-6.66012E-19 8.22947E-19
 -1       746 9.13654E-05-2.40890E-05-2.88325E-05-2.68841E-06-1.19407E-18 1.03883E-18
 -1       747 9.28855E-05-2.55296E-05-2.88666E-05-2.17764E-06 9.48791E-19 9.68951E-19
 -1       748 9.38340E-05-2.65190E-05-2.88491E-05-1.71116E-06 1.93009E-18 2.75292E-19
 -1       749 9.44156E-05-2.71863E-05-2.88125E-05-1.31660E-06 1.69829E-18-1.06258E-18
 -1       750 9.47637E-05-2.76267E-05-2.87728E-05-9.99882E-07 1.51993E-18-1.45422E-18
 -1       751 9.49783E-05-2.79202E-05-2.87391E-05-7.61790E-07 5.05533E-19-8.88893E-19
 -1       752 9.45669E-05-2.76416E-05-2.86824E-05-1.97187E-07-5.52934E-19-2.21517E-18
 -1       753 5.19976E-05-7.23076E-06-1.89404E-05 1.53452E-05-1.14987E-18-6.07534E-19
 -1       754 9.58504E-05-2.73119E-05-2.93735E-05 1.05346E-07 3.81089E-19 7.51509E-19
 -1       755 9.57197E-05-2.62576E-05-2.97709E-05 1.17956E-06 5.54133E-19 6.88555E-19
 -1       756 9.56566E-05-2.87727E-05-2.86645E-05-1.27746E-06 4.33029E-19 2.29267E-19
 -1       757 9.57375E-05-2.86496E-05-2.87519E-05-1.18918E-06 3.33265E-19 3.94601E-19
 -1       758 9.55315E-05-2.88415E-05-2.85815E-05-1.27525E-06 3.13808E-19 3.39297E-19
 -1       759 9.55112E-05-2.88560E-05-2.85665E-05-1.24088E-06 5.12260E-19 1.51425E-19
 -1       760 9.55400E-05-2.89005E-05-2.85598E-05-1.19992E-06 2.83561E-19 1.20903E-19
 -1       761 9.56416E-05-2.90101E-05-2.85564E-05-1.14836E-06 1.88849E-19 7.39569E-19
 -1       762 9.58472E-05-2.92234E-05-2.85531E-05-1.06841E-06 2.86209E-19 5.29601E-19
 -1       763 9.61954E-05-2.95806E-05-2.85493E-05-9.26425E-07 9.42712E-19-1.06968E-19
 -1       764 9.67288E-05-3.01168E-05-2.85482E-05-6.69982E-07 2.91099E-19 3.89727E-19
 -1       765 9.74830E-05-3.08479E-05-2.85581E-05-2.26450E-07-6.91635E-19 1.00679E-18
 -1       766 9.84676E-05-3.17468E-05-2.85950E-05 4.93700E-07-1.00723E-18 7.05643E-19
 -1       767 9.96368E-05-3.27099E-05-2.86834E-05 1.58186E-06-1.06944E-18-8.38770E-20
 -1       768 1.00853E-04-3.35234E-05-2.88561E-05 3.09485E-06-9.03536E-19 1.14707E-19
 -1       769 1.01861E-04-3.38470E-05-2.91489E-05 4.98894E-06-3.16342E-19-3.97828E-19
 -1       770 1.02306E-04-3.32599E-05-2.95906E-05 7.02329E-06-1.48282E-19-1.11010E-19
 -1       771 1.01843E-04-3.14183E-05-3.01820E-05 8.67008E-06-1.30420E-19 4.14103E-19
 -1       772 1.00380E-04-2.83573E-05-3.08688E-05 9.16915E-06-5.01314E-19 6.74243E-19
 -1       773 9.82923E-05-2.47272E-05-3.15316E-05 7.78839E-06 5.70647E-19 1.56970E-18
 -1       774 9.64491E-05-2.17606E-05-3.20067E-05 4.36659E-06-2.12607E-19 1.95039E-18
 -1       775 9.57942E-05-2.07335E-05-3.21647E-05-3.87048E-07-3.15020E-19 8.35434E-19
 -1       776 9.66828E-05-2.21226E-05-3.19529E-05-5.02342E-06-4.79872E-19-3.68683E-20
 -1       777 9.86319E-05-2.52818E-05-3.14349E-05-8.15668E-06 1.16276E-18 1.07834E-18
 -1       778 1.00667E-04-2.88894E-05-3.07614E-05-9.20758E-06 1.53128E-18 5.96535E-19
 -1       779 1.01984E-04-3.17764E-05-3.00886E-05-8.48383E-06-1.82471E-19 2.55424E-19
 -1       780 1.02284E-04-3.33964E-05-2.95235E-05-6.74284E-06-4.94565E-19 2.50466E-19
 -1       781 1.01725E-04-3.38026E-05-2.91097E-05-4.72347E-06 2.55925E-19 1.39171E-19
 -1       782 1.00658E-04-3.33601E-05-2.88424E-05-2.90353E-06-1.07733E-18-3.50140E-19
 -1       783 9.94290E-05-3.24841E-05-2.86911E-05-1.48997E-06 1.56140E-19-8.38921E-19
 -1       784 9.82739E-05-3.14959E-05-2.86195E-05-5.06536E-07-1.58018E-19 8.19010E-19
 -1       785 9.73125E-05-3.05895E-05-2.85958E-05 1.11523E-07-1.36574E-18 1.67035E-19
 -1       786 9.65784E-05-2.98530E-05-2.85967E-05 4.55073E-07-1.32541E-18 5.07279E-19
 -1       787 9.60551E-05-2.93049E-05-2.86073E-05 6.09818E-07-1.45175E-18 2.14184E-18
 -1       788 9.57038E-05-2.89259E-05-2.86192E-05 6.44466E-07 9.61525E-19 3.47262E-18
 -1       789 9.54795E-05-2.86778E-05-2.86292E-05 6.08735E-07 1.22753E-18 2.82601E-18
 -1       790 9.45818E-05-2.76965E-05-2.86651E-05 7.13272E-08-1.39011E-18 1.96869E-18
 -1       791 1.19512E-04-2.08780E-05-4.25047E-05 1.28081E-05 1.97200E-19-1.90821E-18
 -1       792 9.46622E-05-2.76860E-05-2.87042E-05-4.71457E-07-3.29358E-19-1.65054E-18
 -1       793 5.19240E-05-4.22444E-06-2.01745E-05-3.04987E-07 2.02913E-18-9.69297E-19
 -1       794 7.47965E-05-2.74152E-05-1.95770E-05-3.39882E-05-4.34554E-19-5.20952E-19
 -1       795 9.47068E-05-2.28379E-05-3.07972E-05-4.12536E-06-1.87506E-19-6.25860E-19
 -1       796 9.52213E-05-2.84013E-05-2.86370E-05 5.25140E-07 1.60169E-20 7.50979E-19
 -1       797 9.49985E-05-2.81719E-05-2.86400E-05 5.23470E-07 1.77010E-18-6.08008E-19
 -1       798 9.55842E-05-2.88245E-05-2.86113E-05-1.29449E-06 1.65720E-19 1.38187E-19
 -1       799 7.14384E-05-1.10947E-05-2.58291E-05-2.56457E-06-8.73205E-20 1.26798E-18
 -1       800 1.21264E-04-1.29711E-05-4.68117E-05-1.06908E-05 1.55997E-18-2.49692E-18
 -1       801 9.48356E-05-2.79985E-05-2.86445E-05 4.50569E-07 3.00814E-19-2.55859E-19
 -1       802 9.51157E-05-2.82943E-05-2.86377E-05 5.39195E-07 1.33769E-18-2.47720E-18
 -1       803 1.26861E-04-5.46263E-05-3.09926E-05 1.58990E-05-6.31033E-19-3.32645E-18
 -1       804 9.31921E-05-1.97390E-05-3.14810E-05 1.22718E-06 5.05351E-19-1.68500E-19
 -1       805 6.04897E-05-6.54689E-06-2.30109E-05-3.77392E-06-1.00031E-18 9.24990E-19
 -1       806 1.02560E-04-4.39958E-05-2.50205E-05 3.25320E-05-1.19892E-18-5.25293E-19
 -1       807 1.33817E-04-4.92658E-05-3.63403E-05-9.81685E-07-1.28640E-18-2.30353E-18
 -1       808 9.46840E-05-2.78280E-05-2.86526E-05 2.97861E-07 8.14584E-19-3.87868E-19
 -1       809 8.81377E-05-3.17103E-05-2.41134E-05 2.92827E-05-8.83278E-19 2.81715E-19
 -1       810 9.34905E-05-2.02929E-05-3.13714E-05-2.31291E-06 1.52731E-19-7.36126E-19
 -1       811 9.30824E-05-1.95396E-05-3.15194E-05 2.30196E-08 2.86982E-19-4.68164E-19
 -1       812 1.23889E-04-6.14550E-05-2.66240E-05 2.69550E-05 5.07055E-19 1.40885E-18
 -1       813 9.40019E-05-2.13100E-05-3.11563E-05 3.28266E-06 5.15430E-19 4.70471E-20
 -1       814 9.40168E-05-2.12903E-05-3.11692E-05-3.29173E-06 7.53944E-21-2.63197E-19
 -1       815 1.08570E-04-4.89418E-05-2.54543E-05-3.36863E-05-2.04532E-19-1.70270E-18
 -1       816 1.12296E-04-9.91350E-06-4.41151E-05-4.24905E-06 1.45203E-18-2.36757E-18
 -1       817 1.11733E-04-1.41872E-05-4.19671E-05 8.61709E-06 9.60231E-19-1.17057E-18
 -1       818 9.58640E-05-2.79940E-05-2.90871E-05-5.76175E-07 2.17276E-19 3.64517E-19
 -1       819 9.58135E-05-2.84104E-05-2.88871E-05-9.78617E-07 3.19391E-19 3.93726E-19
 -1       820 9.53283E-05-2.85206E-05-2.86319E-05 5.85134E-07 9.58392E-19 2.46507E-18
 -1       821 1.14095E-04-4.83271E-05-2.81659E-05 2.14611E-05-1.57011E-19-1.37850E-18
 -1       822 1.21789E-04-3.17181E-05-3.86835E-05 1.25851E-05-6.75717E-19-2.71090E-19
 -1       823 1.24025E-04-5.32893E-05-3.02821E-05-1.67462E-05-1.09711E-19-1.69504E-18
 -1       824 7.38243E-05-2.71090E-05-1.97661E-05-3.70306E-05-1.07070E-19-2.66356E-18
 -1       825 1.29550E-04-4.04405E-05-3.83433E-05-9.22201E-06 4.62867E-19-3.73626E-18
 -1       826 9.35049E-05-2.03236E-05-3.13652E-05 2.33876E-06 5.60213E-19-1.63621E-19
 -1       827 5.46880E-05-1.00930E-05-1.87805E-05-1.96200E-05 1.35400E-18-3.16152E-18
 -1       828 9.31850E-05-1.97238E-05-3.14841E-05-1.18416E-06 2.15129E-19-5.48354E-19
 -1       829 1.25031E-04-4.51033E-05-3.43241E-05 3.99312E-06 3.44871E-19 4.79801E-19
 -1       830 6.63285E-05-1.12259E-05-2.35306E-05 1.02842E-05 8.00363E-20-1.31708E-18
 -1       831 9.61901E-05-2.69425E-05-2.96788E-05-2.28193E-07-1.76678E-19 7.39288E-20
 -1       832 9.63278E-05-2.78231E-05-2.93592E-05 3.83963E-07 1.92836E-20 1.08693E-19
 -1       833 9.63237E-05-2.83723E-05-2.91220E-05 7.63808E-07-3.78159E-20 9.30172E-20
 -1       834 9.62221E-05-2.86669E-05-2.89523E-05 9.81406E-07-1.36667E-19-2.66173E-21
 -1       835 9.60568E-05-2.87737E-05-2.88356E-05 1.09272E-06 8.68326E-20-5.37143E-19
 -1       836 9.58428E-05-2.87357E-05-2.87602E-05 1.14178E-06 9.21401E-20-6.41203E-19
 -1       837 9.55796E-05-2.85764E-05-2.87157E-05 1.16010E-06-2.79518E-20-3.89921E-19
 -1       838 9.52525E-05-2.83019E-05-2.86931E-05 1.16710E-06-2.12064E-19-3.25212E-19
 -1       839 9.48040E-05-2.78764E-05-2.86833E-05 1.16806E-06-2.35573E-19-9.34656E-20
 -1       840 9.42204E-05-2.73097E-05-2.86760E-05 1.15151E-06 3.74456E-19-3.52627E-19
 -1       841 9.34038E-05-2.65395E-05-2.86562E-05 1.08345E-06-7.81936E-20-5.42629E-19
 -1       842 9.22382E-05-2.55025E-05-2.86011E-05 8.93738E-07-6.41000E-19-6.89325E-19
 -1       843 9.05665E-05-2.41276E-05-2.84740E-05 4.58105E-07-5.35624E-19-3.97341E-19
 -1       844 8.81850E-05-2.23533E-05-2.82140E-05-4.29722E-07-2.94638E-19-3.85430E-19
 -1       845 8.48460E-05-2.01659E-05-2.77205E-05-2.09427E-06-2.63070E-19-7.39694E-19
 -1       846 8.02687E-05-1.76685E-05-2.68268E-05-5.01976E-06 2.37537E-19-4.59777E-19
 -1       847 7.42292E-05-1.52262E-05-2.52523E-05-9.87737E-06 5.39843E-20-5.26960E-19
 -1       848 1.19934E-04-2.29119E-05-4.17675E-05-1.32403E-05 1.26343E-18-2.61118E-18
 -1       849 8.62665E-05-2.07061E-05-2.80978E-05 2.45967E-07 7.39819E-19-2.59992E-19
 -1       850 8.92731E-05-2.28642E-05-2.84614E-05-6.11899E-07-9.94369E-19 3.57959E-19
 -1       851 9.13298E-05-2.45055E-05-2.86392E-05-9.52873E-07 1.72132E-19 1.66786E-18
 -1       852 9.27112E-05-2.57091E-05-2.87152E-05-1.01364E-06-3.27819E-19 3.27578E-19
 -1       853 9.36247E-05-2.65690E-05-2.87382E-05-9.37685E-07 4.79511E-19-1.98338E-18
 -1       854 9.42153E-05-2.71663E-05-2.87359E-05-8.09144E-07 6.16749E-19-1.81064E-18
 -1       855 9.44675E-05-2.74613E-05-2.87172E-05-6.20875E-07 1.77943E-18-2.49269E-18
 -1       856 7.26192E-05-1.89059E-05-2.29307E-05 2.30518E-05-1.53590E-18 4.75794E-20
 -1       857 9.61246E-05-2.87895E-05-2.88579E-05-1.06195E-06 5.29710E-19 5.27241E-20
 -1       858 9.56662E-05-2.89230E-05-2.86042E-05-1.19991E-06 1.98190E-19 6.78098E-19
 -1       859 9.57398E-05-2.89210E-05-2.86366E-05-1.18323E-06 4.38192E-19 3.48370E-19
 -1       860 9.57696E-05-2.91253E-05-2.85619E-05-1.27204E-06 4.65267E-19 1.95301E-19
 -1       861 9.60354E-05-2.94275E-05-2.85462E-05-1.31315E-06 4.38246E-19 4.80356E-19
 -1       862 9.65246E-05-2.99401E-05-2.85362E-05-1.32069E-06 6.92675E-20 1.42900E-18
 -1       863 9.73098E-05-3.07159E-05-2.85403E-05-1.23594E-06-8.37649E-19 1.21992E-18
 -1       864 9.84581E-05-3.17822E-05-2.85755E-05-9.65269E-07-6.97797E-19 1.36600E-18
 -1       865 1.00002E-04-3.31040E-05-2.86708E-05-3.75052E-07-6.99694E-19 1.18272E-18
 -1       866 1.01889E-04-3.45286E-05-2.88691E-05 6.96141E-07-1.07623E-18 6.22915E-19
 -1       867 1.03919E-04-3.57271E-05-2.92258E-05 2.38914E-06-5.57925E-19 5.37907E-19
 -1       868 1.05690E-04-3.61546E-05-2.97985E-05 4.71577E-06-1.45977E-20 4.14524E-19
 -1       869 1.06590E-04-3.51049E-05-3.06341E-05 7.39282E-06-6.39899E-19 7.70447E-19
 -1       870 1.06074E-04-3.20891E-05-3.17128E-05 9.56908E-06-1.34507E-18 2.17716E-18
 -1       871 1.04016E-04-2.73599E-05-3.28413E-05 9.98138E-06-6.28494E-19 2.07452E-18
 -1       872 1.01105E-04-2.20110E-05-3.39019E-05 7.73509E-06-1.73361E-20 2.38591E-18
 -1       873 9.92985E-05-1.87444E-05-3.45222E-05 2.60244E-06 1.52145E-19 2.94933E-18
 -1       874 9.94649E-05-1.89970E-05-3.44863E-05-3.52078E-06 2.36437E-19 2.88244E-18
 -1       875 1.01634E-04-2.27722E-05-3.38022E-05-8.24453E-06 4.21482E-19 9.50213E-19
 -1       876 1.04406E-04-2.80762E-05-3.27166E-05-1.01202E-05 1.00795E-18-9.11013E-20
 -1       877 1.06243E-04-3.26563E-05-3.15385E-05-9.31296E-06 1.53733E-19 1.25051E-18
 -1       878 1.06523E-04-3.53592E-05-3.04993E-05-6.99048E-06-2.29930E-19 9.03015E-19
 -1       879 1.05434E-04-3.61141E-05-2.97085E-05-4.35944E-06 8.18953E-20 3.43071E-20
 -1       880 1.03580E-04-3.55053E-05-2.91751E-05-2.13754E-06 3.10849E-20 5.67278E-19
 -1       881 1.01535E-04-3.42148E-05-2.88521E-05-5.73040E-07-7.09150E-19 7.38655E-19
 -1       882 9.96744E-05-3.27586E-05-2.86785E-05 3.77287E-07-3.77869E-19 6.73735E-19
 -1       883 9.81673E-05-3.14337E-05-2.86002E-05 8.64500E-07-1.25309E-18 2.19381E-19
 -1       884 9.70458E-05-3.03671E-05-2.85766E-05 1.04563E-06-1.73686E-18 4.27428E-19
 -1       885 9.62681E-05-2.95810E-05-2.85802E-05 1.04625E-06-3.14522E-18 3.50513E-19
 -1       886 9.57626E-05-2.90426E-05-2.85943E-05 9.52856E-07-8.53311E-19-3.81667E-19
 -1       887 9.54486E-05-2.86903E-05-2.86105E-05 8.24334E-07 1.22259E-18-6.79133E-19
 -1       888 9.42971E-05-2.74266E-05-2.86587E-05 3.42601E-08-9.03610E-19 1.89283E-18
 -1       889 9.56633E-05-2.89750E-05-2.85807E-05-1.22971E-06 9.27124E-20 7.25644E-19
 -1       890 9.43197E-05-2.73872E-05-2.86855E-05-2.99735E-07 8.21563E-20 2.55038E-21
 -1       891 6.58578E-05-1.22650E-05-2.28735E-05-1.45638E-05 1.22773E-18-1.81814E-18
 -1       892 7.59293E-05-1.49044E-05-2.61499E-05 5.03632E-06-1.33404E-18-7.79653E-19
 -1       893 8.19604E-05-1.80167E-05-2.74037E-05 1.98903E-06 1.37374E-19 1.05025E-19
 -1       894 9.48802E-05-2.80927E-05-2.86235E-05 6.78715E-07 1.20044E-18-6.28954E-19
 -1       895 9.57945E-05-2.55450E-05-3.01047E-05-1.14062E-06-3.19477E-19 5.77672E-21
 -1       896 9.44237E-05-2.76015E-05-2.86380E-05 3.59525E-07-2.34867E-18-3.99725E-19
 -1       897 9.49456E-05-2.33541E-05-3.06813E-05 2.47440E-06 5.32956E-19 2.22581E-19
 -1       898 1.25033E-04-4.87660E-05-3.27189E-05 2.92901E-06-1.78733E-18-1.20293E-18
 -1       899 6.78589E-05-1.80056E-05-2.12263E-05-2.61002E-05 2.36466E-19-2.43255E-18
 -1       900 9.46389E-05-2.78421E-05-2.86272E-05 5.77595E-07-1.29726E-18-1.39255E-18
 -1       901 1.23978E-04-4.79692E-05-3.25467E-05-2.04220E-06-7.20835E-19 3.79295E-19
 -1       902 1.00609E-04-3.88796E-05-2.64269E-05 2.38863E-05-5.97911E-19 1.37399E-19
 -1       903 9.45200E-05-2.22158E-05-3.09876E-05 4.27801E-07 2.74499E-19-2.15966E-19
 -1       904 9.49527E-05-2.32802E-05-3.07203E-05-1.89387E-06 1.36634E-21-3.70965E-19
 -1       905 1.11276E-04-1.64281E-05-4.07811E-05-9.44991E-06 1.65450E-18-2.21692E-18
 -1       906 1.18179E-04-4.76384E-05-3.02179E-05 9.61757E-06-9.18667E-21-2.99546E-18
 -1       907 9.44812E-05-3.85214E-05-2.38525E-05-3.36709E-05-3.12383E-19-2.30530E-18
 -1       908 1.07017E-04-1.25709E-05-4.05886E-05 2.36206E-06 4.06754E-19-3.47248E-19
 -1       909 1.11999E-04-2.23512E-05-3.85080E-05 1.17656E-05-5.05642E-19 4.33509E-19
 -1       910 9.62312E-05-2.85508E-05-2.90059E-05-8.96885E-07 3.68763E-19 2.10606E-19
 -1       911 9.52068E-05-2.84129E-05-2.86272E-05 6.50621E-07 8.77318E-19-2.68542E-18
 -1       912 9.58557E-05-2.89262E-05-2.86841E-05-1.16950E-06 2.92984E-19 1.55678E-19
 -1       913 9.62142E-05-2.73952E-05-2.94943E-05-7.76501E-08 4.98154E-19 3.34736E-19
 -1       914 9.59745E-05-2.62801E-05-2.98676E-05 7.10774E-07 5.05668E-19 3.71184E-19
 -1       915 9.46812E-05-2.25830E-05-3.08989E-05-1.26276E-06 3.00473E-19-5.07715E-19
 -1       916 9.50447E-05-2.82580E-05-2.86231E-05 7.01846E-07 5.85247E-19-5.26908E-19
 -1       917 9.59912E-05-2.88972E-05-2.87546E-05-1.13905E-06 3.12668E-19 7.13534E-20
 -1       918 1.24085E-04-4.43613E-05-3.42358E-05-4.47774E-06 1.55196E-20-2.95686E-18
 -1       919 9.46681E-05-2.25579E-05-3.09040E-05 1.20918E-06 4.72593E-19 2.45916E-20
 -1       920 9.57429E-05-2.49992E-05-3.03183E-05-8.74166E-07-2.78217E-20-1.25842E-19
 -1       921 9.65921E-05-2.79988E-05-2.93972E-05 4.00389E-07-1.71763E-19 1.73079E-19
 -1       922 9.65664E-05-2.85094E-05-2.91673E-05 6.44196E-07-7.68411E-20-1.29351E-19
 -1       923 9.64227E-05-2.87613E-05-2.89978E-05 7.78841E-07-1.48577E-19 1.18699E-19
 -1       924 9.61968E-05-2.88186E-05-2.88764E-05 8.38534E-07 1.61003E-19 1.97184E-19
 -1       925 9.59060E-05-2.87244E-05-2.87921E-05 8.47979E-07-1.89060E-20 1.08247E-19
 -1       926 9.55518E-05-2.85038E-05-2.87349E-05 8.20159E-07 5.28689E-20 2.17240E-19
 -1       927 9.50954E-05-2.81450E-05-2.86930E-05 7.48537E-07-1.73480E-19 4.20364E-19
 -1       928 9.45481E-05-2.76763E-05-2.86594E-05 6.19611E-07 2.05131E-19 6.56928E-19
 -1       929 9.38450E-05-2.70685E-05-2.86186E-05 3.87372E-07-3.97792E-20 9.33409E-20
 -1       930 9.29219E-05-2.62991E-05-2.85526E-05-2.72304E-08-4.49037E-19-3.62656E-19
 -1       931 9.17025E-05-2.53528E-05-2.84356E-05-7.51664E-07-2.96327E-19-5.70907E-19
 -1       932 9.01064E-05-2.42399E-05-2.82285E-05-1.98262E-06-5.70941E-19-2.00276E-19
 -1       933 8.80736E-05-2.30361E-05-2.78732E-05-4.00893E-06 1.10919E-19 4.16840E-21
 -1       934 8.56154E-05-2.19485E-05-2.72857E-05-7.23248E-06-2.36841E-19 1.74583E-19
 -1       935 8.29400E-05-2.14335E-05-2.63564E-05-1.22078E-05 2.53274E-20-8.00456E-19
 -1       936 1.18716E-04-3.20163E-05-3.72153E-05-1.21488E-05 4.06705E-19-1.34755E-18
 -1       937 9.62777E-05-2.81148E-05-2.92126E-05-5.90346E-07 1.87305E-19 4.01213E-19
 -1       938 9.04532E-05-2.41865E-05-2.84002E-05 1.00711E-06 3.84509E-20-4.07528E-19
 -1       939 9.19352E-05-2.52994E-05-2.85583E-05 2.31659E-07-1.06284E-18-9.67389E-19
 -1       940 9.29947E-05-2.61699E-05-2.86393E-05-1.62804E-07-1.48527E-18-2.76343E-20
 -1       941 9.37319E-05-2.68196E-05-2.86768E-05-3.33845E-07 9.30876E-19-1.17040E-18
 -1       942 9.40629E-05-2.71337E-05-2.86826E-05-3.22509E-07 1.07548E-18-5.20155E-20
 -1       943 9.58030E-05-2.89232E-05-2.86628E-05-1.05696E-06 5.66024E-19-1.20095E-19
 -1       944 9.60818E-05-2.95230E-05-2.85252E-05-1.72573E-06-2.90066E-19 1.13573E-18
 -1       945 9.57603E-05-2.91393E-05-2.85518E-05-1.48064E-06 1.94392E-19 9.85162E-19
 -1       946 9.77584E-05-3.12222E-05-2.85155E-05-2.22991E-06-4.57158E-19 9.02555E-19
 -1       947 9.93454E-05-3.26740E-05-2.85735E-05-2.30403E-06-5.47103E-19 2.71058E-19
 -1       948 1.01552E-04-3.45203E-05-2.87285E-05-2.01311E-06-9.41215E-19 7.21048E-19
 -1       949 1.04341E-04-3.65596E-05-2.90498E-05-1.07630E-06-6.92983E-19 6.30696E-19
 -1       950 1.07463E-04-3.83267E-05-2.96303E-05 8.28241E-07-1.05801E-19 1.14269E-18
 -1       951 1.10275E-04-3.89941E-05-3.05484E-05 3.79050E-06-1.41755E-18 1.71180E-18
 -1       952 1.11701E-04-3.71725E-05-3.19363E-05 7.46597E-06-1.32216E-18 1.73578E-18
 -1       953 1.10946E-04-3.22965E-05-3.36846E-05 1.06056E-05-6.75482E-19 1.13338E-18
 -1       954 1.02968E-04-1.53365E-05-3.75989E-05-6.51335E-07-6.21171E-20 1.14033E-18
 -1       955 1.04844E-04-1.87485E-05-3.69206E-05-7.77160E-06 1.47154E-18 1.36442E-18
 -1       956 1.08443E-04-2.60436E-05-3.53526E-05-1.11416E-05 1.42384E-18 4.53618E-19
 -1       957 1.11310E-04-3.33557E-05-3.34144E-05-1.01957E-05-3.69507E-19 5.76723E-19
 -1       958 1.11650E-04-3.76706E-05-3.17161E-05-6.91989E-06 8.06255E-19 1.73577E-19
 -1       959 1.09865E-04-3.89051E-05-3.04105E-05-3.29203E-06-3.09726E-19 2.68935E-19
 -1       960 1.06934E-04-3.80240E-05-2.95323E-05-4.84970E-07 6.38462E-19-4.27222E-20
 -1       961 1.03818E-04-3.61406E-05-2.90048E-05 1.22271E-06-1.81274E-19-8.26547E-19
 -1       962 1.01084E-04-3.40710E-05-2.87200E-05 2.01077E-06-2.39688E-19 1.68166E-21
 -1       963 9.89450E-05-3.22402E-05-2.85878E-05 2.19530E-06-2.02053E-18 7.01338E-19
 -1       964 9.74050E-05-3.08037E-05-2.85432E-05 2.04791E-06-1.23725E-18 1.55490E-18
 -1       965 9.63729E-05-2.97711E-05-2.85435E-05 1.75495E-06-1.70742E-18 4.12712E-19
 -1       966 9.57286E-05-2.90824E-05-2.85626E-05 1.42862E-06-9.97776E-19-4.37890E-19
 -1       967 9.53476E-05-2.86464E-05-2.85861E-05 1.12502E-06 6.95856E-19-6.01524E-19
 -1       968 7.91749E-05-2.15996E-05-2.46430E-05-1.98260E-05-2.00033E-20-9.54939E-19
 -1       969 8.23178E-05-1.98772E-05-2.67531E-05 8.65169E-06-7.02387E-19-7.93936E-19
 -1       970 7.79110E-05-1.87602E-05-2.53308E-05 1.44168E-05-8.83435E-19-1.10477E-18
 -1       971 9.67100E-05-3.01903E-05-2.85084E-05-1.99634E-06-6.02955E-19 1.37030E-18
 -1       972 1.09326E-04-4.51622E-05-2.74486E-05-2.27210E-05 3.83050E-19-4.59844E-19
 -1       973 9.45137E-05-2.22067E-05-3.09894E-05-3.95171E-07 3.00385E-19-6.17039E-19
 -1       974 8.57096E-05-2.13008E-05-2.76042E-05 4.79224E-06 4.46290E-19-4.51567E-19
 -1       975 8.84318E-05-2.28369E-05-2.81125E-05 2.40249E-06 1.03201E-18-1.14671E-18
 -1       976 9.40487E-05-2.72670E-05-2.86208E-05 4.31833E-07-6.70674E-19 3.45216E-18
 -1       977 1.16623E-04-3.58892E-05-3.46464E-05 1.02320E-05-6.89320E-19 3.48673E-19
 -1       978 8.38497E-05-2.84819E-05-2.36460E-05-2.84979E-05 7.77550E-22-1.50859E-18
 -1       979 9.64517E-05-2.71533E-05-2.96984E-05 1.03952E-09 1.24281E-19 2.43473E-19
 -1       980 9.47311E-05-2.27800E-05-3.08311E-05 1.88392E-06 4.90793E-19-1.43846E-19
 -1       981 1.04192E-04-1.61506E-05-3.77951E-05 4.98083E-06-1.91630E-19 7.32703E-19
 -1       982 1.09245E-04-4.28874E-05-2.84331E-05 1.52039E-05 5.80052E-20-3.32031E-18
 -1       983 9.43477E-05-2.76049E-05-2.86040E-05 7.57527E-07-1.21691E-18-2.01758E-18
 -1       984 1.18571E-04-4.43723E-05-3.18065E-05-5.80136E-07-1.25899E-18-1.87823E-19
 -1       985 9.65077E-05-2.75928E-05-2.95358E-05-1.94243E-07 4.24493E-19 1.42260E-19
 -1       986 9.55640E-05-2.43998E-05-3.04998E-05 4.69152E-07 4.29051E-19 2.20300E-19
 -1       987 9.59739E-05-2.89591E-05-2.87206E-05-9.95501E-07 1.63561E-19-3.15513E-19
 -1       988 9.56831E-05-2.89057E-05-2.86189E-05-1.14881E-06-8.79485E-20 5.92100E-20
 -1       989 9.64938E-05-2.86853E-05-2.90608E-05-7.56152E-07 6.70303E-19-3.10891E-19
 -1       990 9.39906E-05-2.71436E-05-2.86487E-05 6.53037E-08 1.28458E-18 2.55261E-18
 -1       991 9.56510E-05-2.89572E-05-2.85830E-05-1.28759E-06 1.36007E-19 6.43442E-19
 -1       992 1.16516E-04-4.70153E-05-2.98163E-05-1.06608E-05-1.58966E-18-1.07121E-19
 -1       993 9.62045E-05-2.64591E-05-2.98897E-05 3.33322E-07 4.52411E-19 2.32646E-19
 -1       994 9.55199E-05-2.42497E-05-3.05416E-05 1.74986E-08 2.35552E-19-5.16390E-19
 -1       995 1.18291E-04-4.27686E-05-3.23752E-05 3.60815E-06-6.97426E-19 8.30079E-19
 -1       996 9.47054E-05-2.79715E-05-2.86002E-05 9.10281E-07-7.05466E-19-3.74509E-18
 -1       997 9.56940E-05-2.49678E-05-3.03140E-05 1.00793E-06 2.25779E-19-1.33618E-19
 -1       998 9.63487E-05-2.88925E-05-2.89098E-05-8.74847E-07 3.40510E-19-1.67706E-19
 -1       999 8.64768E-05-2.67530E-05-2.55715E-05 2.04898E-05-1.51571E-18 6.71698E-19
 -1      1000 1.16134E-04-3.85459E-05-3.32581E-05-7.85045E-06 9.15788E-20-5.12112E-19
 -1      1001 1.05544E-04-1.37610E-05-3.93990E-05-2.75437E-06-1.89686E-19 1.46084E-19
 -1      1002 9.66875E-05-2.86503E-05-2.91588E-05 4.43883E-07 9.17618E-20 2.23969E-19
 -1      1003 9.64950E-05-2.88374E-05-2.89961E-05 4.99785E-07-3.46866E-20 6.96708E-19
 -1      1004 9.62173E-05-2.88389E-05-2.88765E-05 5.04158E-07 1.31142E-20 4.94771E-19
 -1      1005 9.58735E-05-2.86988E-05-2.87892E-05 4.63061E-07-2.64900E-20 3.38116E-19
 -1      1006 9.54460E-05-2.84293E-05-2.87215E-05 3.63385E-07 2.39800E-19 6.57881E-19
 -1      1007 9.49675E-05-2.80733E-05-2.86689E-05 1.91267E-07-3.93172E-20 9.26278E-19
 -1      1008 9.44026E-05-2.76308E-05-2.86166E-05-9.79524E-08-3.02180E-19 3.96745E-19
 -1      1009 9.37312E-05-2.71134E-05-2.85505E-05-5.76740E-07-6.31751E-19-3.49274E-19
 -1      1010 9.29367E-05-2.65445E-05-2.84537E-05-1.35137E-06-3.24694E-19-1.41004E-19
 -1      1011 9.20214E-05-2.59797E-05-2.83034E-05-2.57734E-06-5.46374E-19 1.93409E-19
 -1      1012 9.10389E-05-2.55408E-05-2.80702E-05-4.46370E-06-8.33450E-20 1.59795E-19
 -1      1013 9.01462E-05-2.54649E-05-2.77198E-05-7.27493E-06-3.48006E-19-7.79097E-19
 -1      1014 8.97066E-05-2.61920E-05-2.72216E-05-1.12993E-05-6.22441E-19-9.18603E-19
 -1      1015 1.10682E-04-2.21435E-05-3.80120E-05-1.11473E-05 2.34718E-18-7.64714E-19
 -1      1016 9.66584E-05-2.74557E-05-2.96580E-05 1.11555E-07-4.21875E-20-2.88705E-19
 -1      1017 1.13396E-04-4.33312E-05-3.00231E-05 4.75850E-06 2.13625E-19-7.83302E-19
 -1      1018 9.18505E-05-2.55462E-05-2.84166E-05 1.79387E-06-3.06913E-19 1.24309E-18
 -1      1019 9.58651E-05-2.94046E-05-2.84829E-05-2.33048E-06-2.60831E-21 1.68067E-18
 -1      1020 9.27681E-05-2.61761E-05-2.85387E-05 8.98511E-07-1.71090E-18 1.66218E-18
 -1      1021 8.94268E-05-2.43678E-05-2.78828E-05 5.59224E-06 6.01093E-19-1.09350E-18
 -1      1022 9.23064E-05-3.15696E-05-2.60478E-05-2.13868E-05-8.61241E-19-1.36235E-18
 -1      1023 9.77244E-05-3.43958E-05-2.71544E-05 1.73656E-05-2.05536E-18-7.61194E-19
 -1      1024 9.98527E-05-3.33403E-05-2.85051E-05-4.38755E-06-6.95734E-19 4.83316E-20
 -1      1025 9.78346E-05-3.14629E-05-2.84448E-05-3.73229E-06-2.37677E-19 6.96986E-19
 -1      1026 1.06751E-04-3.87543E-05-2.91390E-05-4.05631E-06-1.36135E-18 7.85586E-19
 -1      1027 1.11375E-04-4.14117E-05-2.99809E-05-1.88797E-06-8.40609E-19 1.17014E-18
 -1      1028 1.10608E-04-4.09958E-05-2.98273E-05 2.42833E-06 1.21464E-18 8.49631E-19
 -1      1029 1.06001E-04-3.81831E-05-2.90631E-05 4.22208E-06 4.59976E-19 1.88208E-19
 -1      1030 1.02182E-04-3.52631E-05-2.86791E-05 4.59719E-06-3.45868E-19-8.87361E-19
 -1      1031 9.93587E-05-3.28217E-05-2.85149E-05 4.22734E-06-1.64285E-18 4.76185E-19
 -1      1032 9.74240E-05-3.09940E-05-2.84689E-05 3.52935E-06-2.05612E-18 1.20481E-18
 -1      1033 9.61962E-05-2.97373E-05-2.84821E-05 2.76669E-06-1.03215E-18 1.46298E-18
 -1      1034 9.54804E-05-2.89417E-05-2.85166E-05 2.08141E-06-2.94942E-19 1.90943E-19
 -1      1035 9.51024E-05-2.84760E-05-2.85540E-05 1.52919E-06 7.61375E-19-2.13653E-18
 -1      1036 9.07275E-05-2.48971E-05-2.82135E-05 3.26056E-06 1.32694E-18 3.14019E-19
 -1      1037 9.62339E-05-2.60609E-05-3.00764E-05-2.52619E-07 1.32334E-19-3.56645E-19
 -1      1038 9.50452E-05-2.82946E-05-2.86051E-05 9.04345E-07 8.69071E-19 1.88285E-19
 -1      1039 9.55703E-05-2.43856E-05-3.05077E-05-4.11301E-07 2.24761E-19-6.60616E-19
 -1      1040 8.81557E-05-2.42625E-05-2.73823E-05 9.08121E-06 1.21814E-19-6.54717E-19
 -1      1041 9.65737E-05-3.01901E-05-2.84500E-05-2.99697E-06-4.45875E-19 7.89380E-19
 -1      1042 9.61651E-05-2.89652E-05-2.87999E-05-9.43682E-07 1.76815E-19-2.16413E-19
 -1      1043 1.02808E-04-3.58403E-05-2.86999E-05-4.64333E-06-1.60088E-18-3.14769E-19
 -1      1044 9.65599E-05-2.82749E-05-2.92650E-05-5.47858E-07 6.18345E-19-8.73292E-20
 -1      1045 9.98556E-05-3.81350E-05-2.64260E-05-2.34716E-05-1.07228E-18-1.61198E-18
 -1      1046 9.67593E-05-2.82161E-05-2.93757E-05 3.21177E-07-1.90762E-19 1.00176E-19
 -1      1047 9.01884E-05-2.79570E-05-2.66662E-05-1.59018E-05-3.05647E-19-8.32030E-19
 -1      1048 9.55383E-05-2.89790E-05-2.85252E-05-1.79255E-06-2.90646E-19 1.91119E-18
 -1      1049 9.39275E-05-2.72595E-05-2.85717E-05 1.00581E-06 3.40413E-19 1.09807E-18
 -1      1050 9.67144E-05-2.78450E-05-2.95145E-05-2.23750E-07 4.05024E-19-1.80042E-19
 -1      1051 9.54607E-05-2.87987E-05-2.85694E-05-1.39053E-06-1.80718E-19 1.17218E-18
 -1      1052 9.59477E-05-2.89121E-05-2.87295E-05-7.87915E-07-2.08156E-20-1.47808E-19
 -1      1053 1.09814E-04-4.31487E-05-2.85417E-05-1.45732E-05-8.14383E-19 1.59077E-19
 -1      1054 9.34718E-05-2.67179E-05-2.86091E-05 3.67405E-07 7.98717E-20 3.73496E-18
 -1      1055 8.75987E-05-2.56803E-05-2.65222E-05 1.52078E-05-1.16465E-18-6.58083E-19
 -1      1056 1.13925E-04-4.14450E-05-3.10583E-05-2.18263E-06-5.28608E-19 3.92848E-19
 -1      1057 9.62904E-05-2.61173E-05-3.00731E-05 1.82785E-07 4.56089E-19-6.74446E-20
 -1      1058 9.57185E-05-2.88293E-05-2.86669E-05-9.11904E-07-2.00712E-19 4.75930E-19
 -1      1059 9.62796E-05-2.60171E-05-3.01151E-05 1.05048E-08 2.32405E-19-3.94567E-19
 -1      1060 9.66220E-05-2.88018E-05-2.90659E-05-5.52789E-07 4.56114E-19 2.87761E-19
 -1      1061 9.44357E-05-2.77810E-05-2.85662E-05 1.24968E-06 1.18034E-18-3.94935E-18
 -1      1062 9.49506E-05-2.82796E-05-2.85746E-05 1.24927E-06 9.38864E-19-2.43250E-18
 -1      1063 9.67315E-05-2.84571E-05-2.92606E-05-4.28845E-07 6.26254E-19 2.34280E-19
 -1      1064 9.90306E-05-3.29734E-05-2.83129E-05 7.15742E-06-1.15319E-18 1.16763E-18
 -1      1065 9.68305E-05-2.84430E-05-2.93089E-05 1.41593E-07 7.14891E-20 3.08761E-19
 -1      1066 9.64678E-05-2.88950E-05-2.89598E-05 1.56820E-07-8.72299E-20 7.33548E-19
 -1      1067 9.61588E-05-2.88489E-05-2.88471E-05 1.11105E-07-2.19948E-19 1.20474E-18
 -1      1068 9.57790E-05-2.86764E-05-2.87583E-05 1.14838E-08 5.60315E-20 1.29961E-18
 -1      1069 9.53749E-05-2.84283E-05-2.86916E-05-1.55072E-07 9.02872E-20 9.78779E-19
 -1      1070 9.49407E-05-2.81318E-05-2.86323E-05-4.28921E-07-3.86931E-19 4.35799E-19
 -1      1071 9.44728E-05-2.78109E-05-2.85697E-05-8.69573E-07-6.73820E-19 4.43354E-19
 -1      1072 9.40129E-05-2.75307E-05-2.84927E-05-1.55602E-06-2.60703E-19 7.13622E-19
 -1      1073 9.35921E-05-2.73520E-05-2.83890E-05-2.59123E-06-2.96120E-19 2.80438E-19
 -1      1074 9.33190E-05-2.74114E-05-2.82467E-05-4.10744E-06-3.60168E-19 5.63114E-19
 -1      1075 9.33881E-05-2.79225E-05-2.80576E-05-6.24073E-06-1.11706E-18 2.45037E-19
 -1      1076 9.41583E-05-2.92357E-05-2.78280E-05-9.08195E-06-4.62536E-19-7.32331E-20
 -1      1077 9.34603E-05-2.93022E-05-2.74985E-05 1.19404E-05-6.97531E-19-6.91718E-19
 -1      1078 1.02476E-04-3.60907E-05-2.84402E-05 8.44352E-06 5.89210E-19 1.48216E-19
 -1      1079 9.23209E-05-2.66743E-05-2.81360E-05 5.16325E-06 1.52589E-18-1.26006E-19
 -1      1080 9.55455E-05-2.87759E-05-2.86155E-05-1.10368E-06-1.01536E-19 6.20025E-19
 -1      1081 1.04653E-04-3.84499E-05-2.83693E-05 1.15005E-05-3.18735E-19-2.73077E-18
 -1      1082 1.07529E-04-3.99121E-05-2.89890E-05 7.62976E-06 3.17176E-19-3.37214E-19
 -1      1083 9.67689E-05-3.07129E-05-2.83150E-05 5.51198E-06-1.72826E-18-1.53038E-19
 -1      1084 9.55061E-05-2.92938E-05-2.83759E-05 4.03486E-06-1.32318E-18-2.17622E-18
 -1      1085 9.48703E-05-2.84930E-05-2.84474E-05 2.85872E-06 2.63016E-19-3.00859E-18
 -1      1086 9.45991E-05-2.80744E-05-2.85107E-05 1.96993E-06 1.59079E-18-3.66094E-18
 -1      1087 9.72388E-05-3.12255E-05-2.82909E-05-5.76898E-06-4.10238E-19 2.10900E-18
 -1      1088 9.65451E-05-2.67814E-05-2.98974E-05-4.71045E-09 2.80470E-19-4.94897E-19
 -1      1089 9.31159E-05-2.67035E-05-2.84623E-05 1.97353E-06 2.84442E-19-1.01042E-18
 -1      1090 9.66981E-05-2.73262E-05-2.97313E-05-3.19410E-08 4.51066E-19-9.41904E-20
 -1      1091 9.40339E-05-2.74999E-05-2.85155E-05 1.72934E-06 1.73684E-18-2.48572E-18
 -1      1092 9.50131E-05-2.85605E-05-2.84793E-05-2.18402E-06-1.77642E-20 1.09024E-18
 -1      1093 1.08777E-04-4.09804E-05-2.90487E-05-8.37174E-06-1.46880E-18 1.01540E-19
 -1      1094 9.59010E-05-2.97726E-05-2.83403E-05-4.31338E-06-7.34671E-19 1.36031E-18
 -1      1095 9.61941E-05-2.89688E-05-2.88109E-05-7.04474E-07 2.12207E-19-4.01831E-19
 -1      1096 1.03507E-04-3.69595E-05-2.85243E-05-8.31625E-06-1.15994E-18 5.68201E-19
 -1      1097 9.64296E-05-2.89504E-05-2.89197E-05-6.35079E-07 4.95783E-19-2.35640E-19
 -1      1098 1.03127E-04-3.84458E-05-2.77114E-05-1.63257E-05-1.47183E-18 8.15062E-20
 -1      1099 9.67037E-05-2.87796E-05-2.91103E-05 1.65969E-07 2.71939E-19 4.56818E-19
 -1      1100 9.67984E-05-2.78032E-05-2.95692E-05 7.89690E-08 3.84211E-19-1.07241E-19
 -1      1101 9.26549E-05-2.65533E-05-2.83296E-05 3.25848E-06 1.98369E-19-2.27599E-18
 -1      1102 9.95745E-05-3.35310E-05-2.83044E-05-7.34875E-06-4.09619E-19 1.54253E-18
 -1      1103 9.24353E-05-2.74194E-05-2.78710E-05 7.94068E-06 1.01385E-18 5.58541E-20
 -1      1104 9.52423E-05-2.89510E-05-2.84101E-05-3.10669E-06 1.34688E-19 1.07963E-18
 -1      1105 9.57396E-05-3.13083E-05-2.76103E-05-1.21010E-05-2.24718E-20 2.50023E-19
 -1      1106 9.50432E-05-2.84455E-05-2.85417E-05-1.51895E-06-5.67004E-19 1.00681E-18
 -1      1107 9.57863E-05-2.87741E-05-2.87194E-05-5.55388E-07-3.14256E-19 5.43780E-19
 -1      1108 9.66276E-05-2.88803E-05-2.90345E-05-2.90947E-07 6.66508E-19 2.87024E-19
 -1      1109 9.67928E-05-2.86287E-05-2.92132E-05-2.29057E-07 5.32136E-19-1.91425E-19
 -1      1110 9.60928E-05-2.88982E-05-2.87976E-05-4.31675E-07 6.22555E-21 6.73094E-19
 -1      1111 9.68357E-05-2.81350E-05-2.94431E-05-1.26521E-07 4.67132E-19-3.95613E-19
 -1      1112 9.41347E-05-2.82865E-05-2.82092E-05 5.43666E-06 5.23712E-19-3.61347E-18
 -1      1113 9.50615E-05-2.83435E-05-2.85937E-05-1.00284E-06-8.62133E-19 6.05511E-19
 -1      1114 9.54897E-05-2.86246E-05-2.86562E-05-7.50896E-07-3.26348E-19 5.55267E-19
 -1      1115 9.38771E-05-2.75175E-05-2.84396E-05 2.59335E-06 1.36310E-18-3.16260E-18
 -1      1116 9.63824E-05-2.89501E-05-2.88994E-05-3.51434E-07 2.70158E-19 8.32645E-19
 -1      1117 9.39888E-05-2.78816E-05-2.83327E-05 3.92172E-06 9.89830E-20-4.92535E-18
 -1      1118 1.16827E-04 2.57490E-10-4.18456E-05-4.14580E-05-1.28749E-19 1.99032E-18
 -1      1119 8.86360E-05 7.19049E-11-3.72451E-05-2.41654E-05-5.10337E-20-3.31508E-19
 -1      1120 8.40723E-05 4.14543E-11-3.57642E-05-1.78765E-05-2.61521E-20-1.25599E-18
 -1      1121 8.23356E-05 3.20290E-11-3.50731E-05-1.38336E-05-1.43202E-20-1.58403E-18
 -1      1122 8.15377E-05 2.73325E-11-3.47410E-05-1.05306E-05-7.64977E-21-1.63473E-18
 -1      1123 8.11396E-05 2.46080E-11-3.45774E-05-7.63737E-06 4.16237E-21-1.57633E-18
 -1      1124 8.09328E-05 2.29447E-11-3.44951E-05-4.97651E-06 2.46500E-21-1.48933E-18
 -1      1125 8.08319E-05 2.20448E-11-3.44564E-05-2.42978E-06 1.08410E-20-1.32828E-18
 -1      1126 8.08030E-05 2.17718E-11-3.44454E-05 5.34631E-08 1.63302E-20-1.19840E-18
 -1      1127 8.08356E-05 2.20865E-11-3.44576E-05 2.53909E-06 2.82648E-20-1.02003E-18
 -1      1128 8.09404E-05 2.30393E-11-3.44976E-05 5.09364E-06 2.19468E-20-7.99784E-19
 -1      1129 8.11536E-05 2.47588E-11-3.45811E-05 7.76969E-06 3.00697E-20-4.47240E-19
 -1      1130 8.15590E-05 2.76331E-11-3.47469E-05 1.06896E-05 3.01226E-20-1.22687E-20
 -1      1131 8.23604E-05 3.25084E-11-3.50825E-05 1.40392E-05 3.74018E-20 5.93360E-19
 -1      1132 8.40689E-05 4.19138E-11-3.57838E-05 1.81276E-05 4.49986E-20 1.51325E-18
 -1      1133 8.83329E-05 6.67318E-11-3.73160E-05 2.40067E-05 3.40931E-20 3.06014E-18
 -1      1134 1.06595E-04 1.63883E-10-4.06257E-05 3.61849E-05 6.77626E-21 5.59539E-18
 -1      1135 1.30185E-04-2.57489E-05-4.02630E-05-2.61005E-05-4.41834E-19 3.39745E-18
 -1      1136 9.74259E-05-2.88534E-05-3.15681E-05-6.80456E-07-1.57442E-19 2.37222E-18
 -1      1137 9.01291E-05-2.70174E-05-2.78839E-05 3.86749E-07-2.04744E-20 1.18843E-18
 -1      1138 8.82183E-05-2.65633E-05-2.66346E-05 2.50487E-07 3.57342E-21 2.95694E-19
 -1      1139 8.78611E-05-2.64369E-05-2.63785E-05 1.65517E-07 2.96594E-20-4.73121E-19
 -1      1140 8.82230E-05-2.65145E-05-2.64644E-05 1.17524E-07-4.51765E-20-6.96685E-19
 -1      1141 8.89146E-05-2.67007E-05-2.66688E-05 8.68092E-08-1.87125E-20-9.58285E-19
 -1      1142 8.97394E-05-2.69358E-05-2.69146E-05 6.54660E-08 1.66956E-20-1.44075E-18
 -1      1143 9.05899E-05-2.71840E-05-2.71684E-05 4.96088E-08-1.42338E-20-1.48513E-18
 -1      1144 9.14079E-05-2.74255E-05-2.74134E-05 3.73375E-08-1.87730E-20-1.82233E-18
 -1      1145 9.21658E-05-2.76510E-05-2.76413E-05 2.76397E-08 1.02735E-19-2.03487E-18
 -1      1146 9.28576E-05-2.78580E-05-2.78503E-05 1.99190E-08-6.19528E-20-1.96739E-18
 -1      1147 9.34931E-05-2.80491E-05-2.80433E-05 1.38050E-08 4.51412E-20-2.59970E-18
 -1      1148 9.40965E-05-2.82318E-05-2.82278E-05 9.09717E-09-1.30841E-20-2.48973E-18
 -1      1149 9.47077E-05-2.84178E-05-2.84161E-05 5.79491E-09-5.51417E-20-2.69762E-18
 -1      1150 9.53865E-05-2.86256E-05-2.86271E-05 4.20248E-09-1.96822E-19-3.56366E-18
 -1      1151 9.62235E-05-2.88834E-05-2.88896E-05 4.95051E-09-1.28300E-20-3.09875E-18
 -1      1152 9.73917E-05-2.92414E-05-2.92593E-05 9.33670E-09-4.70360E-20-2.51409E-18
 -1      1153 9.90988E-05-2.97659E-05-2.98029E-05 2.74211E-08-4.33707E-20-3.05705E-18
 -1      1154 1.01641E-04-3.05430E-05-3.06174E-05 6.16882E-08 1.01407E-19-1.35703E-18
 -1      1155 1.05587E-04-3.17426E-05-3.18864E-05 1.32359E-07 9.29453E-20-1.18624E-18
 -1      1156 1.11755E-04-3.36063E-05-3.38665E-05 2.71628E-07 2.84550E-21-1.15551E-18
 -1      1157 1.21310E-04-3.64793E-05-3.68922E-05 5.31132E-07 1.12867E-19-1.10855E-19
 -1      1158 1.35634E-04-4.07846E-05-4.12622E-05 9.65714E-07 2.90307E-20-7.44118E-19
 -1      1159 1.55535E-04-4.68032E-05-4.68718E-05 1.53422E-06-1.31743E-19-3.02391E-19
 -1      1160 1.78714E-04-5.38688E-05-5.25142E-05 1.69688E-06-8.71319E-20 5.26431E-19
 -1      1161 1.94653E-04-5.87146E-05-5.54018E-05-1.77674E-09-2.01064E-19 1.35621E-18
 -1      1162 1.88755E-04-5.60332E-05-5.35474E-05-3.94028E-06 1.27055E-20 5.02714E-19
 -1      1163 1.56404E-04-4.54696E-05-4.72678E-05-7.05698E-06 1.57866E-19-1.69407E-21
 -1      1164 1.06149E-04-2.92993E-05-3.97645E-05-6.62740E-06 2.32299E-19 3.59989E-19
 -1      1165 7.75440E-05-2.00121E-05-3.59524E-05-6.49716E-07 1.33567E-19 1.09013E-18
 -1      1166 1.03973E-04-2.84524E-05-3.95748E-05 6.08911E-06 2.95932E-20 1.43233E-18
 -1      1167 1.55671E-04-4.57290E-05-4.71409E-05 6.04437E-06 2.21684E-20 1.69830E-18
 -1      1168 1.90756E-04-5.75907E-05-5.38725E-05 2.78601E-06-7.44727E-20 1.43403E-18
 -1      1169 1.91248E-04-5.80426E-05-5.49505E-05-4.52050E-07-2.47188E-19-4.70686E-19
 -1      1170 1.70800E-04-5.15337E-05-5.07368E-05-1.15493E-06 4.25522E-19 1.33111E-18
 -1      1171 1.48136E-04-4.44885E-05-4.48487E-05-9.73670E-07-4.59760E-19 4.06788E-18
 -1      1172 1.30130E-04-3.90114E-05-3.95978E-05-6.29645E-07-1.70528E-19 2.52321E-18
 -1      1173 1.17609E-04-3.52609E-05-3.57159E-05-3.65811E-07-1.99880E-20 2.21457E-18
 -1      1174 1.09392E-04-3.28128E-05-3.31002E-05-2.01920E-07-1.35244E-20 6.50733E-19
 -1      1175 1.04140E-04-3.12467E-05-3.14142E-05-1.08347E-07 2.37538E-19 2.69229E-18
 -1      1176 1.00813E-04-3.02520E-05-3.03469E-05-5.71017E-08-1.15480E-19 2.97335E-18
 -1      1177 9.87072E-05-2.96201E-05-2.96736E-05-2.96402E-08-1.30148E-19 2.65400E-18
 -1      1178 9.73676E-05-2.92168E-05-2.92472E-05-1.51424E-08-4.57988E-19 1.20739E-19
 -1      1179 9.65091E-05-2.89578E-05-2.89753E-05-7.60504E-09 1.65523E-19 1.30079E-18
 -1      1180 9.59552E-05-2.87904E-05-2.88008E-05-3.75017E-09 7.95103E-19 6.22416E-18
 -1      1181 9.55982E-05-2.86822E-05-2.86891E-05-1.74945E-09-2.53686E-19 8.30711E-18
 -1      1182 9.53742E-05-2.86142E-05-2.86197E-05-4.52448E-10 1.58646E-19 5.21083E-18
 -1      1183 9.52487E-05-2.85760E-05-2.85810E-05 1.16902E-09-3.74636E-19 4.39474E-18
 -1      1184 9.52046E-05-2.85624E-05-2.85646E-05 4.18078E-09-6.10859E-19-2.46231E-18
 -1      1185 9.52231E-05-2.85727E-05-2.85577E-05 6.39795E-09-1.90885E-20 1.33115E-19
 -1      1186 1.31021E-04-3.77284E-05-3.86503E-05 1.21720E-05-6.49304E-20 7.51318E-18
 -1      1187 9.65301E-05-2.81826E-05-3.13208E-05 8.01738E-07 2.82168E-20 6.84667E-18
 -1      1188 9.03430E-05-2.69260E-05-2.78621E-05 1.19767E-07 5.99541E-21 6.23073E-18
 -1      1189 8.83100E-05-2.64976E-05-2.66696E-05 7.55770E-09 4.62096E-20 5.61255E-18
 -1      1190 8.79120E-05-2.64077E-05-2.64078E-05-2.67269E-08-5.29197E-20 5.28586E-18
 -1      1191 8.82578E-05-2.65027E-05-2.64843E-05-3.43184E-08-4.91130E-20 5.23255E-18
 -1      1192 8.89463E-05-2.66997E-05-2.66848E-05-3.49219E-08 2.22561E-20 4.85844E-18
 -1      1193 8.97743E-05-2.69419E-05-2.69301E-05-3.27896E-08 1.41344E-20 4.82160E-18
 -1      1194 9.06321E-05-2.71956E-05-2.71853E-05-2.94949E-08 4.23258E-21 4.72090E-18
 -1      1195 9.14601E-05-2.74417E-05-2.74326E-05-2.57326E-08 5.43957E-20 5.02223E-18
 -1      1196 9.22283E-05-2.76708E-05-2.76628E-05-2.19701E-08 4.26263E-20 4.18336E-18
 -1      1197 9.29254E-05-2.78789E-05-2.78723E-05-1.85726E-08-1.81644E-20 3.51260E-18
 -1      1198 9.35511E-05-2.80659E-05-2.80608E-05-1.58538E-08 1.21434E-20 3.44967E-18
 -1      1199 9.41105E-05-2.82329E-05-2.82294E-05-1.41042E-08-1.84582E-19 2.84829E-18
 -1      1200 9.46085E-05-2.83814E-05-2.83791E-05-1.35978E-08 8.18462E-20 1.68548E-18
 -1      1201 9.50453E-05-2.85111E-05-2.85095E-05-1.45690E-08 6.44020E-20 4.24721E-19
 -1      1202 9.54100E-05-2.86186E-05-2.86168E-05-1.71432E-08-2.77982E-19 1.80930E-18
 -1      1203 9.56751E-05-2.86955E-05-2.86920E-05-2.12056E-08 1.21971E-19 7.19717E-19
 -1      1204 9.57897E-05-2.87267E-05-2.87192E-05-2.61998E-08 3.40596E-20-1.48785E-19
 -1      1205 9.56752E-05-2.86889E-05-2.86745E-05-3.08753E-08-2.43820E-20-4.70296E-19
 -1      1206 9.52246E-05-2.85505E-05-2.85262E-05-3.30660E-08-3.47573E-20-7.08459E-19
 -1      1207 9.43103E-05-2.82742E-05-2.82377E-05-2.96677E-08 1.28161E-19-1.13009E-18
 -1      1208 9.28048E-05-2.78232E-05-2.77741E-05-1.70803E-08-2.79670E-20-1.40507E-18
 -1      1209 9.06183E-05-2.71716E-05-2.71136E-05 7.62937E-09-2.01781E-19-6.75879E-19
 -1      1210 8.77503E-05-2.63196E-05-2.62618E-05 4.48206E-08-3.23925E-19 1.64174E-18
 -1      1211 8.43434E-05-2.53092E-05-2.52658E-05 9.02201E-08 1.31426E-19 3.20012E-18
 -1      1212 8.07169E-05-2.42336E-05-2.42210E-05 1.34056E-07 1.05149E-19 1.99265E-19
 -1      1213 7.73486E-05-2.32325E-05-2.32632E-05 1.62856E-07 1.42201E-20-1.32158E-18
 -1      1214 7.47874E-05-2.24676E-05-2.25438E-05 1.64332E-07-7.63653E-21-2.65509E-18
 -1      1215 7.35108E-05-2.20811E-05-2.21910E-05 1.33383E-07-2.04760E-20-3.38241E-18
 -1      1216 7.37744E-05-2.21517E-05-2.22717E-05 7.57323E-08 5.59042E-20-2.99050E-18
 -1      1217 7.55248E-05-2.26666E-05-2.27703E-05 6.30461E-09 1.43807E-19-2.86793E-18
 -1      1218 7.84178E-05-2.35260E-05-2.35933E-05-5.71048E-08-2.85642E-19-1.02652E-18
 -1      1219 8.19342E-05-2.45756E-05-2.45994E-05-1.01041E-07-3.07360E-20 1.12062E-18
 -1      1220 8.55353E-05-2.56538E-05-2.56397E-05-1.20396E-07 2.09858E-20 1.00056E-19
 -1      1221 8.87922E-05-2.66308E-05-2.65918E-05-1.17935E-07-1.02879E-19-2.44332E-18
 -1      1222 9.14481E-05-2.74285E-05-2.73792E-05-1.00918E-07 1.65098E-19-4.54383E-18
 -1      1223 9.34168E-05-2.80203E-05-2.79721E-05-7.73541E-08-7.40327E-20-4.10455E-18
 -1      1224 9.47388E-05-2.84180E-05-2.83776E-05-5.35286E-08-2.37584E-19-2.50199E-18
 -1      1225 9.55262E-05-2.86551E-05-2.86251E-05-3.31670E-08 1.03105E-19-2.84537E-18
 -1      1226 9.59150E-05-2.87725E-05-2.87525E-05-1.77224E-08 1.09223E-19-3.70208E-18
 -1      1227 9.60338E-05-2.88088E-05-2.87969E-05-7.12486E-09-1.64639E-19-3.24746E-18
 -1      1228 9.59882E-05-2.87957E-05-2.87897E-05-5.27467E-10-2.64251E-19-1.17032E-18
 -1      1229 9.58563E-05-2.87566E-05-2.87544E-05 3.15299E-09 9.51918E-20-2.40925E-18
 -1      1230 9.56918E-05-2.87076E-05-2.87078E-05 4.92197E-09-1.17513E-19-2.70665E-18
 -1      1231 9.55288E-05-2.86590E-05-2.86607E-05 5.54747E-09 9.58524E-20-1.51627E-18
 -1      1232 9.53889E-05-2.86173E-05-2.86201E-05 5.47136E-09 3.28730E-19-3.48277E-18
 -1      1233 9.52867E-05-2.85867E-05-2.85904E-05 4.50486E-09-1.44952E-19-1.97507E-18
 -1      1234 9.52335E-05-2.85705E-05-2.85734E-05 1.46159E-09 5.23801E-19-1.81743E-18
 -1      1235 9.52290E-05-2.85688E-05-2.85648E-05-2.80010E-09-7.99153E-20-2.14741E-18
 -1      1236 9.52395E-05-2.85796E-05-2.85648E-05-2.76587E-09-2.16846E-18-9.89768E-19
 -1      1237 9.52366E-05-2.85738E-05-2.85733E-05-2.64789E-09-2.59953E-18-6.74715E-19
 -1      1238 9.52214E-05-2.85229E-05-2.85895E-05 1.63593E-09 2.76581E-19-3.81998E-20
 -1      1239 9.51943E-05-2.84311E-05-2.86157E-05 3.68188E-09 9.07109E-19-2.68989E-19
 -1      1240 9.51599E-05-2.83145E-05-2.86490E-05 4.50193E-09 9.89694E-19-1.51511E-19
 -1      1241 9.51234E-05-2.81907E-05-2.86845E-05 4.56771E-09 1.52130E-18 8.43036E-20
 -1      1242 9.50896E-05-2.80754E-05-2.87175E-05 3.98220E-09 1.08172E-18-1.15798E-18
 -1      1243 9.50632E-05-2.79852E-05-2.87430E-05 2.61200E-09-3.43404E-18-4.59710E-19
 -1      1244 9.50495E-05-2.79374E-05-2.87562E-05 5.21217E-10 2.99441E-19 3.88497E-19
 -1      1245 9.50519E-05-2.79446E-05-2.87536E-05-2.09303E-09 3.99749E-18-3.50646E-19
 -1      1246 9.50716E-05-2.80114E-05-2.87343E-05-4.76781E-09 1.01677E-18-1.19506E-18
 -1      1247 9.51065E-05-2.81297E-05-2.87008E-05-6.82752E-09-4.97955E-18 3.26127E-19
 -1      1248 9.51506E-05-2.82802E-05-2.86588E-05-7.36809E-09-4.46990E-19 1.14702E-18
 -1      1249 9.51952E-05-2.84331E-05-2.86166E-05-5.62341E-09 6.89008E-18 9.73904E-20
 -1      1250 9.52295E-05-2.85497E-05-2.85841E-05-6.78759E-10 7.43608E-18-3.37713E-19
 -1      1251 9.52439E-05-2.86002E-05-2.85665E-05 7.35572E-09 1.66430E-18-1.96841E-18
 -1      1252 9.52346E-05-2.85846E-05-2.85579E-05 6.14285E-09-8.57700E-19 2.87546E-19
 -1      1253 3.67905E-05-1.14498E-04 2.02520E-05-1.32225E-05-1.32561E-18-6.71300E-19
 -1      1254 1.68602E-05-5.98473E-05 8.51614E-06-2.14110E-05 1.34339E-18 7.77576E-19
 -1      1255 8.58552E-06 1.51791E-06-9.57764E-06 9.20039E-06 6.32903E-18 4.34358E-18
 -1      1256 4.27587E-05 3.23299E-05-3.16775E-05 6.81915E-05 8.14846E-18 7.85369E-18
 -1      1257 1.25388E-04 1.47093E-05-5.35797E-05 1.17468E-04 5.62260E-18 8.48219E-18
 -1      1258 2.29838E-04-3.67490E-05-7.11665E-05 1.18387E-04 1.87957E-18 4.40881E-18
 -1      1259 3.12401E-04-8.59593E-05-8.26171E-05 6.24502E-05 2.05697E-19-8.69903E-19
 -1      1260 3.32840E-04-9.97433E-05-8.46844E-05-2.63838E-05 1.15842E-18-7.14959E-18
 -1      1261 2.70768E-04-6.10573E-05-7.70271E-05-1.01402E-04 3.41587E-18-1.22193E-17
 -1      1262 1.65281E-04-3.08185E-06-6.09447E-05-1.24188E-04 5.89027E-18-1.10453E-17
 -1      1263 6.91656E-05 3.21308E-05-4.04718E-05-9.12115E-05 6.45778E-18-7.96380E-18
 -1      1264 1.69953E-05 2.09377E-05-1.92319E-05-3.44698E-05 8.59738E-18-5.75813E-18
 -1      1265 1.01487E-05-3.08206E-05 9.84317E-07 1.08911E-05 9.11069E-18-4.60744E-18
 -1      1266 2.87437E-05-9.39000E-05 1.60073E-05 2.17510E-05 3.02221E-18-1.22904E-18
 -1      1267 4.14768E-05-1.27968E-04 2.30902E-05-3.17344E-06-3.83918E-18-7.15002E-19
 -1      1268 3.36069E-05-1.17494E-04 2.14229E-05-3.47515E-05-5.41085E-18-8.22098E-19
 -1      1269 1.20714E-05-6.75180E-05 1.05154E-05-4.10264E-05-2.04558E-18-1.03338E-18
 -1      1270 7.45355E-06-1.10670E-05-8.47868E-06-5.96396E-06-3.94717E-18-3.53043E-18
 -1      1271 5.68883E-05 1.42823E-05-3.36282E-05 5.97764E-05-7.60636E-19-5.01444E-19
 -1      1272 1.75177E-04-1.47723E-05-6.08813E-05 1.14514E-04 1.99730E-18 3.46606E-18
 -1      1273 3.23159E-04-8.10692E-05-8.30263E-05 1.08241E-04 5.12878E-19 1.03507E-18
 -1      1274 4.10226E-04-1.25460E-04-9.39550E-05 2.29590E-05 1.59295E-19-1.01898E-18
 -1      1275 3.76513E-04-1.07914E-04-8.95277E-05-7.83571E-05 3.77777E-19-2.11589E-18
 -1      1276 2.44209E-04-4.31906E-05-7.22388E-05-1.21695E-04 5.84453E-20-1.22650E-18
 -1      1277 1.06536E-04 7.53054E-06-4.70764E-05-9.21400E-05 7.45389E-19-1.18585E-18
 -1      1278 2.36857E-05 7.02570E-06-2.04460E-05-2.49657E-05-1.23667E-18 1.12994E-18
 -1      1279 6.14210E-06-4.09892E-05 2.81029E-06 2.93543E-05-4.84842E-18 2.92904E-18
 -1      1280 2.46223E-05-9.97533E-05 1.79552E-05 4.23440E-05-3.34324E-18 1.44652E-18
 -1      1281 4.10074E-05-1.29514E-04 2.35546E-05 1.83923E-05-3.37331E-19-4.32516E-20
 -1      1282 1.04417E-04-2.20129E-05-3.78831E-05-1.72731E-05-1.91641E-19 1.34234E-18
 -1      1283 9.03069E-05-6.67993E-06-3.60121E-05-2.04694E-05-3.44848E-19-7.81441E-19
 -1      1284 9.26387E-05-6.73857E-06-3.72153E-05-2.57564E-05-4.99749E-19-3.31613E-19
 -1      1285 8.59007E-05-4.09684E-06-3.51281E-05-1.64309E-05-2.82274E-19-1.39977E-18
 -1      1286 8.71487E-05-4.08943E-06-3.55958E-05-1.88515E-05-3.13614E-19-1.13754E-18
 -1      1287 9.21232E-05-1.04617E-05-3.50893E-05-1.90321E-05-5.74659E-19-6.68733E-19
 -1      1288 8.40983E-05-3.19061E-06-3.46875E-05-1.28135E-05-1.57125E-19-1.62585E-18
 -1      1289 8.47073E-05-3.16120E-06-3.49107E-05-1.46284E-05-2.04294E-19-1.52823E-18
 -1      1290 8.78643E-05-7.39514E-06-3.45726E-05-1.54080E-05-4.24125E-19-1.15355E-18
 -1      1291 8.31920E-05-2.72781E-06-3.44730E-05-9.68357E-06-6.00004E-20-1.63570E-18
 -1      1292 8.35030E-05-2.70941E-06-3.45813E-05-1.12311E-05-7.66168E-20-1.65481E-18
 -1      1293 8.58701E-05-5.98226E-06-3.43067E-05-1.19512E-05-2.02553E-19-1.35329E-18
 -1      1294 8.27034E-05-2.45725E-06-3.43678E-05-6.91154E-06 3.96947E-20-1.55769E-18
 -1      1295 8.28715E-05-2.44889E-06-3.44217E-05-8.28262E-06 3.56680E-21-1.58866E-18
 -1      1296 8.48285E-05-5.21660E-06-3.41761E-05-8.94054E-06-4.85191E-20-1.32381E-18
 -1      1297 8.24290E-05-2.29099E-06-3.43159E-05-4.29182E-06 1.27169E-19-1.42078E-18
 -1      1298 8.25196E-05-2.28711E-06-3.43427E-05-5.59275E-06 1.15504E-19-1.50123E-18
 -1      1299 8.42445E-05-4.76029E-06-3.41139E-05-6.21242E-06 1.09479E-19-1.28175E-18
 -1      1300 8.22968E-05-2.20109E-06-3.42939E-05-1.78796E-06 2.26822E-19-1.30692E-18
 -1      1301 8.23357E-05-2.19954E-06-3.43049E-05-3.03844E-06 1.81652E-19-1.36063E-18
 -1      1302 8.39224E-05-4.49537E-06-3.40857E-05-3.64141E-06 2.50325E-19-1.13377E-18
 -1      1303 8.22705E-05-2.17332E-06-3.42912E-05 6.70440E-07 2.88409E-19-1.15621E-18
 -1      1304 8.22693E-05-2.17337E-06-3.42909E-05-5.64736E-07 2.55087E-19-1.24335E-18
 -1      1305 8.37810E-05-4.37503E-06-3.40752E-05-1.16875E-06 4.04771E-19-1.03891E-18
 -1      1306 8.23433E-05-2.20359E-06-3.43061E-05 3.14755E-06 3.37536E-19-9.84358E-19
 -1      1307 8.23019E-05-2.20522E-06-3.42945E-05 1.89461E-06 3.18408E-19-1.08394E-18
 -1      1308 8.37854E-05-4.37901E-06-3.40754E-05 1.27382E-06 4.84793E-19-8.66104E-19
 -1      1309 8.25351E-05-2.29689E-06-3.43450E-05 5.71062E-06 3.89476E-19-7.27310E-19
 -1      1310 8.24414E-05-2.30026E-06-3.43174E-05 4.40401E-06 3.84651E-19-8.77764E-19
 -1      1311 8.39366E-05-4.50824E-06-3.40865E-05 3.75051E-06 5.83678E-19-6.76938E-19
 -1      1312 8.28923E-05-2.46290E-06-3.44241E-05 8.39158E-06 4.66113E-19-3.87716E-19
 -1      1313 8.27210E-05-2.47163E-06-3.43697E-05 7.01219E-06 4.27431E-19-5.77941E-19
 -1      1314 8.42677E-05-4.78203E-06-3.41147E-05 6.30770E-06 6.68494E-19-4.32649E-19
 -1      1315 8.35471E-05-2.74023E-06-3.45858E-05 1.13910E-05 5.49883E-19 8.44915E-20
 -1      1316 8.32275E-05-2.75738E-06-3.44760E-05 9.82639E-06 5.12435E-19-1.80656E-19
 -1      1317 8.48679E-05-5.25559E-06-3.41766E-05 9.04997E-06 7.85319E-19-8.00181E-20
 -1      1318 8.47678E-05-3.20556E-06-3.49183E-05 1.48388E-05 6.29107E-19 7.24584E-19
 -1      1319 8.41554E-05-3.24034E-06-3.46926E-05 1.29983E-05 5.76194E-19 3.59751E-19
 -1      1320 8.59479E-05-6.06138E-06-3.43075E-05 1.21161E-05 8.96201E-19 3.59221E-19
 -1      1321 8.72451E-05-4.08900E-06-3.56170E-05 1.90894E-05 6.07217E-19 1.72318E-18
 -1      1322 8.59696E-05-4.15435E-06-3.51352E-05 1.66925E-05 5.80456E-19 1.13640E-18
 -1      1323 8.79871E-05-7.51864E-06-3.45741E-05 1.56465E-05 9.83763E-19 1.08468E-18
 -1      1324 9.34523E-05-6.79211E-06-3.71119E-05 2.50905E-05 4.27752E-19 3.25981E-18
 -1      1325 9.01211E-05-6.43564E-06-3.60352E-05 2.11437E-05 4.45592E-19 2.33739E-18
 -1      1326 9.23469E-05-1.06941E-05-3.50749E-05 1.96738E-05 8.53756E-19 2.10535E-18
 -1      1327 1.23600E-04-2.49178E-05-3.90076E-05 2.83609E-05 8.15269E-20 5.68994E-18
 -1      1328 1.00064E-04-1.44206E-05-3.73484E-05 2.40458E-05 1.52466E-19 4.06978E-18
 -1      1329 1.01668E-04-1.93409E-05-3.53981E-05 2.13952E-05 6.34573E-19 3.48067E-18
 -1      1330 1.02582E-04-2.77984E-05-3.47512E-05 7.32694E-06 2.62157E-19 5.70858E-18
 -1      1331 1.05123E-04-3.02234E-05-3.35179E-05-7.95815E-06-4.06682E-19 1.51301E-18
 -1      1332 9.82381E-05-2.78365E-05-3.07551E-05-4.98741E-06-3.43895E-19 1.08907E-18
 -1      1333 9.54813E-05-2.78428E-05-2.92480E-05-2.48896E-06-2.52733E-19 8.77649E-19
 -1      1334 9.32497E-05-2.75520E-05-2.82089E-05-2.04231E-06-2.66312E-19 4.49272E-19
 -1      1335 9.94674E-05-2.80470E-05-3.09774E-05-7.88488E-06-6.44010E-19 3.53980E-19
 -1      1336 9.15613E-05-2.71943E-05-2.75751E-05-8.37127E-07-2.19494E-19 3.38469E-19
 -1      1337 9.08456E-05-2.70991E-05-2.72732E-05-7.26702E-07-1.97412E-19-4.87573E-20
 -1      1338 9.47031E-05-2.77653E-05-2.88120E-05-3.11859E-06-4.53110E-19 5.49513E-20
 -1      1339 9.00979E-05-2.69172E-05-2.70306E-05-1.71795E-07-1.43784E-19-2.19832E-19
 -1      1340 9.00271E-05-2.69445E-05-2.69962E-05-1.13651E-07-1.94053E-19-5.26338E-19
 -1      1341 9.25075E-05-2.74957E-05-2.78924E-05-1.04953E-06-3.97126E-19-1.89669E-19
 -1      1342 8.97709E-05-2.68779E-05-2.69230E-05 1.57539E-07-7.00556E-20-5.25306E-19
 -1      1343 8.99882E-05-2.69686E-05-2.69856E-05 1.86482E-07-6.57245E-20-6.37604E-19
 -1      1344 9.15547E-05-2.73538E-05-2.75272E-05-6.43769E-08-2.60727E-19-3.91250E-19
 -1      1345 8.99971E-05-2.69732E-05-2.69936E-05 3.19443E-07-1.01724E-19-7.18635E-19
 -1      1346 9.03441E-05-2.70940E-05-2.70942E-05 3.31659E-07-3.58368E-20-7.58386E-19
 -1      1347 9.13098E-05-2.73437E-05-2.74221E-05 4.26343E-07-1.49682E-19-4.44689E-19
 -1      1348 9.04939E-05-2.71380E-05-2.71438E-05 3.89154E-07-7.37547E-20-7.83287E-19
 -1      1349 9.08894E-05-2.72683E-05-2.72581E-05 3.91562E-07-1.48653E-19-9.98308E-19
 -1      1350 9.14554E-05-2.74207E-05-2.74484E-05 6.60452E-07-1.41795E-19-5.09128E-19
 -1      1351 9.11094E-05-2.73320E-05-2.73282E-05 4.06498E-07-2.44321E-20-9.71788E-19
 -1      1352 9.15092E-05-2.74601E-05-2.74442E-05 4.03392E-07-7.37025E-20-1.12248E-18
 -1      1353 9.18075E-05-2.75447E-05-2.75436E-05 7.51736E-07-2.05554E-19-4.35766E-19
 -1      1354 9.17583E-05-2.75318E-05-2.75227E-05 3.95307E-07-1.28790E-19-1.11204E-18
 -1      1355 9.21395E-05-2.76516E-05-2.76338E-05 3.89537E-07-1.73706E-19-1.28780E-18
 -1      1356 9.22585E-05-2.76894E-05-2.76730E-05 7.63213E-07-1.79840E-19-7.59377E-19
 -1      1357 9.23952E-05-2.77249E-05-2.77140E-05 3.71110E-07-1.67276E-19-1.32422E-18
 -1      1358 9.27483E-05-2.78342E-05-2.78174E-05 3.64689E-07-4.82541E-20-1.49193E-18
 -1      1359 9.27463E-05-2.78394E-05-2.78167E-05 7.33744E-07-2.80692E-19-8.14397E-19
 -1      1360 9.30003E-05-2.79062E-05-2.78962E-05 3.44909E-07 1.37411E-20-1.70490E-18
 -1      1361 9.33255E-05-2.80054E-05-2.79919E-05 3.39378E-07-1.92292E-19-1.87247E-18
 -1      1362 9.32383E-05-2.79864E-05-2.79643E-05 6.89542E-07-1.78821E-19-1.47992E-18
 -1      1363 9.35723E-05-2.80755E-05-2.80690E-05 3.25417E-07-1.75543E-19-1.77236E-18
 -1      1364 9.38776E-05-2.81673E-05-2.81592E-05 3.22125E-07-1.01979E-19-2.03770E-18
 -1      1365 9.37227E-05-2.81276E-05-2.81115E-05 6.50156E-07-1.80418E-19-1.37796E-18
 -1      1366 9.41255E-05-2.82373E-05-2.82368E-05 3.20755E-07 1.41476E-19-1.90691E-18
 -1      1367 9.44264E-05-2.83262E-05-2.83261E-05 3.21134E-07 6.46466E-20-1.90187E-18
 -1      1368 9.42035E-05-2.82644E-05-2.82597E-05 6.32393E-07 1.07292E-20-1.43341E-18
 -1      1369 9.46889E-05-2.83995E-05-2.84084E-05 3.40144E-07 7.34081E-21-1.70763E-18
 -1      1370 9.50097E-05-2.84929E-05-2.85040E-05 3.46028E-07-1.60338E-19-1.83465E-18
 -1      1371 9.46990E-05-2.84015E-05-2.84145E-05 6.53679E-07 4.14951E-20-1.05199E-18
 -1      1372 9.53087E-05-2.85752E-05-2.85984E-05 3.95955E-07-3.71602E-19-1.62873E-18
 -1      1373 9.56864E-05-2.86837E-05-2.87113E-05 4.10061E-07-4.11650E-19-1.98351E-18
 -1      1374 9.52426E-05-2.85473E-05-2.85868E-05 7.35769E-07-2.90851E-19-4.77232E-19
 -1      1375 9.60548E-05-2.87829E-05-2.88286E-05 5.06627E-07-2.79504E-20-1.85374E-18
 -1      1376 9.65460E-05-2.89236E-05-2.89754E-05 5.32863E-07 1.75414E-19-1.64811E-18
 -1      1377 9.58860E-05-2.87143E-05-2.87937E-05 9.09437E-07-1.73605E-19-1.87571E-19
 -1      1378 9.70604E-05-2.90597E-05-2.91409E-05 7.08740E-07-1.83039E-20-1.73561E-18
 -1      1379 9.77917E-05-2.92667E-05-2.93608E-05 7.59547E-07-1.36309E-19-1.64265E-18
 -1      1380 9.67304E-05-2.89257E-05-2.90692E-05 1.23184E-06-8.46371E-21-3.89284E-19
 -1      1381 9.84822E-05-2.94460E-05-2.95854E-05 1.04269E-06 1.72980E-20-1.65280E-18
 -1      1382 9.95250E-05-2.97411E-05-2.98990E-05 1.11996E-06-4.84132E-20-1.56721E-18
 -1      1383 9.78805E-05-2.92053E-05-2.94483E-05 1.77890E-06-4.79831E-20-5.08185E-19
 -1      1384 1.00516E-04-2.99944E-05-3.02258E-05 1.57210E-06 2.76047E-19-1.48472E-18
 -1      1385 1.02111E-04-3.04465E-05-3.07067E-05 1.69802E-06 3.84725E-19-1.27066E-18
 -1      1386 9.94686E-05-2.95794E-05-2.99776E-05 2.64508E-06 3.11225E-19-4.93435E-19
 -1      1387 1.03554E-04-3.08087E-05-3.11889E-05 2.40477E-06 8.83098E-20-1.07414E-18
 -1      1388 1.06024E-04-3.15142E-05-3.19347E-05 2.60562E-06 1.31886E-20-9.96230E-19
 -1      1389 1.01754E-04-3.01076E-05-3.07452E-05 4.00780E-06 3.48978E-19-1.30786E-18
 -1      1390 1.08121E-04-3.20334E-05-3.26443E-05 3.67635E-06 2.30426E-19-1.12670E-18
 -1      1391 1.11931E-04-3.31387E-05-3.37923E-05 3.98842E-06 2.81175E-19-7.98487E-19
 -1      1392 1.05062E-04-3.08661E-05-3.18598E-05 6.09455E-06 1.19167E-19-9.27549E-19
 -1      1393 1.14925E-04-3.38806E-05-3.48116E-05 5.52273E-06 2.89407E-19-6.31728E-19
 -1      1394 1.20668E-04-3.55960E-05-3.65196E-05 5.98206E-06 2.08595E-19-6.40410E-19
 -1      1395 1.09809E-04-3.19795E-05-3.34482E-05 9.15343E-06 5.16664E-19-9.82651E-19
 -1      1396 1.24795E-04-3.66589E-05-3.79035E-05 7.94008E-06 3.81602E-19-5.52213E-19
 -1      1397 1.32982E-04-3.92397E-05-4.02512E-05 8.53389E-06 3.99482E-19-3.27272E-19
 -1      1398 1.16472E-04-3.36798E-05-3.56071E-05 1.32763E-05 5.11502E-19-8.99430E-19
 -1      1399 1.38345E-04-4.07915E-05-4.19294E-05 1.03856E-05-1.74069E-19 3.26319E-19
 -1      1400 1.48714E-04-4.43736E-05-4.46703E-05 1.08937E-05-1.65817E-19 9.47618E-20
 -1      1401 1.25494E-04-3.64519E-05-3.82776E-05 1.78752E-05 3.99806E-19-4.19917E-19
 -1      1402 1.55115E-04-4.67522E-05-4.63144E-05 1.10069E-05 2.42648E-19 2.58874E-19
 -1      1403 1.65044E-04-5.07965E-05-4.85252E-05 1.05818E-05 2.39710E-19 7.59100E-19
 -1      1404 1.37048E-04-4.11889E-05-4.10622E-05 2.05820E-05 1.85130E-19 1.05111E-19
 -1      1405 1.70978E-04-5.37296E-05-4.95332E-05 6.38768E-06-1.43678E-19 1.47357E-18
 -1      1406 1.74194E-04-5.59184E-05-4.98919E-05 3.99899E-06-1.50190E-19 9.32160E-19
 -1      1407 1.50188E-04-4.86453E-05-4.32006E-05 1.65094E-05 2.44104E-19 1.68182E-19
 -1      1408 1.78591E-04-5.86218E-05-5.04038E-05-4.85315E-06 1.43784E-19 1.11342E-18
 -1      1409 1.71191E-04-5.61572E-05-4.88136E-05-8.50671E-06-5.40566E-19 7.33531E-19
 -1      1410 1.62133E-04-5.65067E-05-4.47132E-05 2.33650E-06 8.36445E-20 1.01653E-18
 -1      1411 1.45628E-04-4.17905E-05-4.68853E-05-2.05160E-05 6.25322E-19 6.40357E-19
 -1      1412 1.25273E-04-3.19550E-05-4.44039E-05-1.85226E-05 5.98005E-19 9.50371E-19
 -1      1413 1.21182E-04-2.84043E-05-4.47074E-05-3.38731E-06 5.63277E-20 1.49078E-18
 -1      1414 1.20541E-04-2.82322E-05-4.46770E-05 3.18385E-06 6.43745E-20 1.04947E-18
 -1      1415 1.56054E-04-3.65891E-05-5.31912E-05-1.86436E-05 6.52639E-19 1.04291E-18
 -1      1416 1.24106E-04-3.11168E-05-4.43706E-05 1.82453E-05 5.31090E-19 1.66336E-18
 -1      1417 1.45600E-04-4.18405E-05-4.67971E-05 2.07020E-05 8.09552E-19 2.52839E-18
 -1      1418 1.55186E-04-3.55619E-05-5.31949E-05 2.06791E-05 8.64821E-19 1.38228E-18
 -1      1419 1.50376E-04-4.55026E-05-4.64677E-05 1.98999E-05 3.40931E-19 1.56193E-18
 -1      1420 1.71460E-04-5.46946E-05-4.95252E-05 1.77956E-05 2.69568E-19 2.22770E-18
 -1      1421 1.65197E-04-5.01182E-05-5.03159E-05 3.58102E-05 2.34628E-19 2.08870E-18
 -1      1422 1.73404E-04-5.54067E-05-4.96757E-05 5.96425E-06-9.36607E-19 2.27598E-18
 -1      1423 1.81698E-04-5.78756E-05-5.16161E-05 1.98634E-06-7.94332E-19 5.25796E-19
 -1      1424 1.70522E-04-5.76380E-05-4.81809E-05 2.00025E-05-7.75644E-19 1.03232E-18
 -1      1425 1.76252E-04-5.50918E-05-5.09845E-05-5.90472E-06-2.88521E-19-6.27863E-20
 -1      1426 1.69670E-04-5.17742E-05-4.98726E-05-7.37705E-06 1.98550E-19 1.56701E-19
 -1      1427 1.64653E-04-5.40817E-05-4.67600E-05-4.61496E-06-1.00913E-18 2.86575E-19
 -1      1428 1.62462E-04-4.93100E-05-4.82328E-05-9.23109E-06 8.83727E-19 6.43851E-19
 -1      1429 1.51474E-04-4.50811E-05-4.55912E-05-9.28729E-06 9.35528E-19 2.11102E-18
 -1      1430 1.51464E-04-4.67380E-05-4.46254E-05-1.60131E-05 8.39463E-19 9.14796E-19
 -1      1431 1.44580E-04-4.31181E-05-4.35858E-05-8.23902E-06 3.57885E-19 1.91334E-18
 -1      1432 1.34609E-04-3.97352E-05-4.08635E-05-7.80734E-06-6.67475E-19 2.67705E-18
 -1      1433 1.37210E-04-4.07433E-05-4.13950E-05-1.67918E-05 1.07298E-18 1.04894E-18
 -1      1434 1.29074E-04-3.82784E-05-3.90752E-05-6.07356E-06-6.79651E-19 2.89135E-18
 -1      1435 1.21688E-04-3.59694E-05-3.69204E-05-5.62314E-06-1.63643E-19 2.05199E-18
 -1      1436 1.24948E-04-3.66205E-05-3.79931E-05-1.33662E-05-1.95122E-19 1.85400E-18
 -1      1437 1.17615E-04-3.49052E-05-3.55615E-05-4.12994E-06-9.67007E-20 1.54552E-18
 -1      1438 1.12608E-04-3.34145E-05-3.40564E-05-3.78414E-06-3.61498E-19 1.44043E-18
 -1      1439 1.15599E-04-3.39361E-05-3.51212E-05-9.45628E-06-4.11208E-19 1.31520E-18
 -1      1440 1.09764E-04-3.26602E-05-3.31059E-05-2.70458E-06-4.38968E-19 1.43138E-18
 -1      1441 1.06507E-04-3.17186E-05-3.21163E-05-2.46647E-06 1.52572E-19 6.64259E-19
 -1      1442 1.08910E-04-3.21491E-05-3.29817E-05-6.32879E-06-4.87838E-19 1.68413E-18
 -1      1443 1.04579E-04-3.11965E-05-3.14781E-05-1.74237E-06 7.54607E-19 1.72940E-19
 -1      1444 1.02499E-04-3.06059E-05-3.08447E-05-1.58609E-06 2.37077E-19 1.18902E-18
 -1      1445 1.04306E-04-3.09516E-05-3.14907E-05-4.12545E-06 3.37371E-19 2.97239E-19
 -1      1446 1.01212E-04-3.02501E-05-3.04238E-05-1.11706E-06-1.27485E-19 1.49409E-18
 -1      1447 9.98901E-05-2.98792E-05-3.00218E-05-1.01661E-06-1.07974E-19 1.54981E-18
 -1      1448 1.01205E-04-3.01479E-05-3.04857E-05-2.66052E-06 3.81866E-19 5.28950E-19
 -1      1449 9.90364E-05-2.96389E-05-2.97458E-05-7.17363E-07-5.89240E-19 1.90812E-18
 -1      1450 9.81952E-05-2.94048E-05-2.94903E-05-6.53272E-07-8.31490E-19 9.40024E-19
 -1      1451 9.91366E-05-2.96088E-05-2.98181E-05-1.71254E-06-8.06210E-19 5.03826E-19
 -1      1452 9.76290E-05-2.92430E-05-2.93092E-05-4.63144E-07-6.98973E-19 8.09982E-19
 -1      1453 9.70906E-05-2.90941E-05-2.91458E-05-4.22227E-07-5.17683E-19-2.55652E-19
 -1      1454 9.77621E-05-2.92469E-05-2.93766E-05-1.10587E-06-1.45622E-18 1.09976E-19
 -1      1455 9.67143E-05-2.89851E-05-2.90265E-05-3.00992E-07 1.18179E-18 6.69921E-19
 -1      1456 9.63674E-05-2.88895E-05-2.89213E-05-2.74672E-07 1.98653E-18 3.76260E-18
 -1      1457 9.68475E-05-2.90034E-05-2.90844E-05-7.18188E-07 1.03645E-18 1.69272E-18
 -1      1458 9.61166E-05-2.88160E-05-2.88425E-05-1.96363E-07 1.26071E-18 2.44975E-18
 -1      1459 9.58922E-05-2.87543E-05-2.87746E-05-1.79112E-07 6.68843E-19 4.26679E-18
 -1      1460 9.62376E-05-2.88392E-05-2.88906E-05-4.68738E-07 1.72255E-18 1.26886E-18
 -1      1461 9.57257E-05-2.87048E-05-2.87227E-05-1.27014E-07 7.51791E-19 4.95026E-18
 -1      1462 9.55822E-05-2.86655E-05-2.86794E-05-1.15215E-07-8.66406E-19 5.28697E-18
 -1      1463 9.58307E-05-2.87282E-05-2.87620E-05-3.05159E-07 8.83043E-19 2.62513E-18
 -1      1464 9.54738E-05-2.86325E-05-2.86461E-05-7.84013E-08-1.10767E-18 5.21402E-18
 -1      1465 9.53871E-05-2.86092E-05-2.86200E-05-6.95626E-08 1.49778E-20 3.82970E-18
 -1      1466 9.55619E-05-2.86536E-05-2.86778E-05-1.93370E-07-8.07782E-19 3.01797E-18
 -1      1467 9.53208E-05-2.85880E-05-2.86001E-05-4.09737E-08-3.24643E-19 2.91566E-18
 -1      1468 9.52783E-05-2.85777E-05-2.85869E-05-3.33420E-08-1.30423E-18 1.31563E-18
 -1      1469 9.53905E-05-2.86050E-05-2.86247E-05-1.10964E-07-4.34213E-19 1.37631E-18
 -1      1470 9.52438E-05-2.85666E-05-2.85763E-05-1.03135E-08-1.60834E-18-1.77816E-19
 -1      1471 9.52371E-05-2.85671E-05-2.85716E-05-3.87621E-09 6.30494E-20-1.68263E-18
 -1      1472 9.52911E-05-2.85770E-05-2.85935E-05-4.51122E-08-2.33235E-18 2.75631E-19
 -1      1473 9.52286E-05-2.85657E-05-2.85684E-05 7.73008E-09 1.66183E-18-8.49775E-19
 -1      1474 9.52366E-05-2.85736E-05-2.85637E-05 5.01875E-09 1.15809E-18 1.13853E-18
 -1      1475 9.52432E-05-2.85812E-05-2.85683E-05 8.05224E-09 9.91262E-19 3.11068E-19
 -1      1476 9.52518E-05-2.85674E-05-2.85789E-05-3.64872E-09 9.72489E-19 1.53934E-18
 -1      1477 9.65560E-05-2.83564E-05-2.97652E-05 2.99327E-06 2.53501E-19 5.03476E-18
 -1      1478 1.02517E-04-2.93930E-05-3.21496E-05 4.46333E-06 2.59351E-19 5.37051E-18
 -1      1479 1.02310E-04-2.67119E-05-3.27006E-05 1.27827E-05 4.67986E-19 4.06692E-18
 -1      1480 9.20019E-05-2.74139E-05-2.77541E-05 1.14658E-06 2.71567E-19 4.53597E-18
 -1      1481 9.39601E-05-2.75783E-05-2.86685E-05 1.47905E-06 2.06848E-19 4.77239E-18
 -1      1482 9.64747E-05-2.80321E-05-2.95289E-05 4.87804E-06 4.28334E-19 3.57967E-18
 -1      1483 9.01792E-05-2.69928E-05-2.70584E-05 3.24281E-07 1.10260E-19 4.12322E-18
 -1      1484 9.08027E-05-2.70211E-05-2.73290E-05 4.94072E-07 1.90602E-19 4.35568E-18
 -1      1485 9.30249E-05-2.75893E-05-2.80982E-05 1.83854E-06 3.30621E-19 3.26738E-18
 -1      1486 8.96704E-05-2.68771E-05-2.68860E-05-5.78212E-08 9.45335E-20 3.83603E-18
 -1      1487 8.97169E-05-2.68263E-05-2.69124E-05 3.53850E-08 4.82544E-20 3.99708E-18
 -1      1488 9.14869E-05-2.73413E-05-2.75155E-05 4.70140E-07 1.93071E-19 2.86613E-18
 -1      1489 8.98147E-05-2.69365E-05-2.69308E-05-2.47720E-07 1.49637E-19 3.64412E-18
 -1      1490 8.95863E-05-2.68328E-05-2.68641E-05-1.96237E-07 7.65969E-22 3.69328E-18
 -1      1491 9.09575E-05-2.72477E-05-2.73209E-05-1.80185E-07 6.23628E-20 2.51164E-18
 -1      1492 9.02841E-05-2.70857E-05-2.70735E-05-3.33840E-07 8.23740E-20 3.46487E-18
 -1      1493 8.99301E-05-2.69572E-05-2.69696E-05-3.05917E-07 1.40069E-19 3.65923E-18
 -1      1494 9.09888E-05-2.72856E-05-2.73129E-05-4.93626E-07 1.74588E-19 2.42018E-18
 -1      1495 9.09019E-05-2.72757E-05-2.72598E-05-3.62622E-07 1.37155E-20 3.52552E-18
 -1      1496 9.05014E-05-2.71408E-05-2.71426E-05-3.48951E-07 6.17821E-21 3.42766E-18
 -1      1497 9.13118E-05-2.73968E-05-2.73998E-05-6.32997E-07 1.03868E-19 2.37292E-18
 -1      1498 9.15687E-05-2.74782E-05-2.74606E-05-3.59198E-07-1.00777E-19 3.40523E-18
 -1      1499 9.11646E-05-2.73471E-05-2.73423E-05-3.54144E-07 6.35900E-21 3.41743E-18
 -1      1500 9.17786E-05-2.75444E-05-2.75336E-05-6.75287E-07 2.52050E-20 2.32198E-18
 -1      1501 9.22286E-05-2.76769E-05-2.76596E-05-3.38790E-07 3.18404E-19 3.30200E-18
 -1      1502 9.18438E-05-2.75550E-05-2.75466E-05-3.38712E-07 1.27859E-19 3.37736E-18
 -1      1503 9.23025E-05-2.77048E-05-2.76873E-05-6.63591E-07 7.98852E-20 2.01213E-18
 -1      1504 9.28524E-05-2.78639E-05-2.78479E-05-3.10897E-07 2.03086E-19 2.95578E-18
 -1      1505 9.24977E-05-2.77533E-05-2.77436E-05-3.13394E-07 1.92014E-19 3.30850E-18
 -1      1506 9.28336E-05-2.78649E-05-2.78450E-05-6.24028E-07 2.80211E-19 2.02011E-18
 -1      1507 9.34274E-05-2.80356E-05-2.80217E-05-2.81260E-07 1.94616E-19 2.51613E-18
 -1      1508 9.31062E-05-2.79365E-05-2.79270E-05-2.84790E-07 6.78292E-20 2.74002E-18
 -1      1509 9.33446E-05-2.80174E-05-2.79978E-05-5.72688E-07 1.82805E-19 1.96350E-18
 -1      1510 9.39502E-05-2.81916E-05-2.81797E-05-2.52797E-07 1.47554E-19 2.17818E-18
 -1      1511 9.36617E-05-2.81031E-05-2.80946E-05-2.56496E-07 2.62483E-19 2.48282E-18
 -1      1512 9.38221E-05-2.81592E-05-2.81413E-05-5.18842E-07 3.01884E-19 1.52974E-18
 -1      1513 9.44214E-05-2.83323E-05-2.83220E-05-2.25998E-07 1.86766E-19 1.88350E-18
 -1      1514 9.41635E-05-2.82535E-05-2.82459E-05-2.29610E-07 4.12263E-20 2.02007E-18
 -1      1515 9.42604E-05-2.82893E-05-2.82732E-05-4.66435E-07 2.17110E-19 1.37840E-18
 -1      1516 9.48402E-05-2.84580E-05-2.84481E-05-1.98971E-07 4.66838E-19 8.45741E-19
 -1      1517 9.46123E-05-2.83885E-05-2.83809E-05-2.02875E-07 3.88698E-19 1.74473E-18
 -1      1518 9.46564E-05-2.84076E-05-2.83920E-05-4.14627E-07 4.54090E-19 1.08237E-18
 -1      1519 9.51999E-05-2.85671E-05-2.85557E-05-1.67285E-07-4.45503E-19 8.83796E-19
 -1      1520 9.50051E-05-2.85079E-05-2.84986E-05-1.72575E-07 1.29268E-20 8.22525E-19
 -1      1521 9.50049E-05-2.85134E-05-2.84956E-05-3.57775E-07 3.68399E-19 1.19066E-18
 -1      1522 9.54821E-05-2.86546E-05-2.86390E-05-1.23763E-07 7.35814E-20 1.10481E-18
 -1      1523 9.53306E-05-2.86091E-05-2.85951E-05-1.32357E-07-3.32393E-19 7.00059E-19
 -1      1524 9.52942E-05-2.86042E-05-2.85799E-05-2.85159E-07-2.82524E-19 6.33038E-19
 -1      1525 9.56520E-05-2.87104E-05-2.86872E-05-5.84669E-08 3.29778E-19 2.98365E-19
 -1      1526 9.55638E-05-2.86854E-05-2.86625E-05-7.31869E-08 3.51791E-19 9.38489E-19
 -1      1527 9.55015E-05-2.86742E-05-2.86374E-05-1.80813E-07 5.19695E-19 3.52270E-19
 -1      1528 9.56530E-05-2.87180E-05-2.86831E-05 4.07147E-08 7.47473E-20-2.08806E-19
 -1      1529 9.56608E-05-2.87244E-05-2.86874E-05 1.62199E-08 4.58414E-19 3.53754E-19
 -1      1530 9.55887E-05-2.87125E-05-2.86561E-05-2.40900E-08 5.44113E-19 7.98865E-19
 -1      1531 9.54054E-05-2.86530E-05-2.86028E-05 1.86340E-07 2.88946E-19-4.63631E-19
 -1      1532 9.55555E-05-2.87064E-05-2.86498E-05 1.47985E-07-3.02856E-20-4.74865E-19
 -1      1533 9.54996E-05-2.87026E-05-2.86188E-05 2.08183E-07 3.56159E-19 3.81590E-19
 -1      1534 9.48092E-05-2.84846E-05-2.84170E-05 3.87933E-07-1.21582E-19-5.94101E-19
 -1      1535 9.51594E-05-2.86042E-05-2.85234E-05 3.32114E-07-1.56106E-20-2.25593E-19
 -1      1536 9.51600E-05-2.86209E-05-2.85040E-05 5.36885E-07 5.06499E-20 3.46359E-19
 -1      1537 9.37563E-05-2.81779E-05-2.80947E-05 6.46395E-07-2.09528E-19-5.36364E-19
 -1      1538 9.43687E-05-2.83843E-05-2.82781E-05 5.71598E-07-1.17255E-19-5.52259E-19
 -1      1539 9.44838E-05-2.84383E-05-2.82874E-05 9.72218E-07 4.31524E-20-9.09543E-20
 -1      1540 9.21552E-05-2.77016E-05-2.76113E-05 9.46812E-07-1.22231E-19-3.04396E-19
 -1      1541 9.30815E-05-2.80116E-05-2.78857E-05 8.55845E-07-2.09227E-20-1.99873E-19
 -1      1542 9.33871E-05-2.81236E-05-2.79473E-05 1.50186E-06-9.40901E-20 2.40662E-19
 -1      1543 8.99681E-05-2.70397E-05-2.69586E-05 1.25179E-06-7.82475E-19 6.57906E-19
 -1      1544 9.12274E-05-2.74587E-05-2.73281E-05 1.15407E-06-5.71330E-19-2.07053E-19
 -1      1545 9.18127E-05-2.76516E-05-2.74719E-05 2.07797E-06-4.58260E-19 1.28503E-18
 -1      1546 8.72559E-05-2.62062E-05-2.61583E-05 1.49950E-06-5.94667E-19 1.90728E-18
 -1      1547 8.88091E-05-2.67194E-05-2.66096E-05 1.41218E-06-8.93393E-19 5.07187E-19
 -1      1548 8.97642E-05-2.70143E-05-2.68678E-05 2.60872E-06-1.07170E-18 9.35141E-19
 -1      1549 8.42153E-05-2.52589E-05-2.52704E-05 1.61195E-06 6.91812E-19 1.09977E-18
 -1      1550 8.59444E-05-2.58246E-05-2.57682E-05 1.55795E-06 6.93690E-19 2.29247E-18
 -1      1551 8.73408E-05-2.62362E-05-2.61689E-05 2.96327E-06 1.60433E-19 7.31334E-19
 -1      1552 8.11875E-05-2.43045E-05-2.43943E-05 1.51646E-06 4.80929E-19-2.03076E-19
 -1      1553 8.28930E-05-2.48536E-05-2.48809E-05 1.51850E-06 5.83443E-19 4.38181E-19
 -1      1554 8.47599E-05-2.53851E-05-2.54400E-05 2.99840E-06 1.15286E-18 5.04282E-19
 -1      1555 7.86142E-05-2.34863E-05-2.36547E-05 1.17648E-06 3.00247E-19-1.14527E-18
 -1      1556 8.00428E-05-2.39327E-05-2.40587E-05 1.24784E-06 2.97919E-19-4.52580E-19
 -1      1557 8.23465E-05-2.45724E-05-2.47709E-05 2.60690E-06 7.89163E-19 4.36553E-19
 -1      1558 7.69403E-05-2.29520E-05-2.31749E-05 6.18328E-07-2.55367E-20-1.63198E-18
 -1      1559 7.78424E-05-2.32136E-05-2.34272E-05 7.54572E-07-2.39244E-19-1.42349E-18
 -1      1560 8.04786E-05-2.39344E-05-2.42611E-05 1.77253E-06 1.54352E-20 7.59881E-19
 -1      1561 7.64864E-05-2.28092E-05-2.30421E-05-6.36169E-08-2.02232E-19-1.52370E-18
 -1      1562 7.66883E-05-2.28330E-05-2.30958E-05 1.13295E-07 1.32759E-19-1.70733E-18
 -1      1563 7.94917E-05-2.35960E-05-2.39959E-05 6.02750E-07 1.66482E-19-4.40515E-20
 -1      1564 7.73436E-05-2.30886E-05-2.32817E-05-7.32330E-07-4.44497E-19-1.03486E-18
 -1      1565 7.68045E-05-2.28690E-05-2.31264E-05-5.51744E-07-4.21349E-19-2.06862E-18
 -1      1566 7.95776E-05-2.36295E-05-2.40224E-05-6.86981E-07-3.30713E-19-1.66273E-19
 -1      1567 7.93418E-05-2.37317E-05-2.38480E-05-1.25551E-06-7.18142E-20-1.00493E-18
 -1      1568 7.81680E-05-2.33128E-05-2.35136E-05-1.10764E-06 9.45467E-20-1.18238E-18
 -1      1569 8.07193E-05-2.40277E-05-2.43358E-05-1.83997E-06-7.30070E-20 2.69608E-19
 -1      1570 8.21077E-05-2.46125E-05-2.46400E-05-1.55055E-06-7.90642E-19-1.36716E-20
 -1      1571 8.05169E-05-2.40731E-05-2.41866E-05-1.45866E-06-8.94306E-19-1.25933E-18
 -1      1572 8.26970E-05-2.47064E-05-2.48805E-05-2.64652E-06-1.03093E-18 1.72398E-19
 -1      1573 8.51844E-05-2.55799E-05-2.55309E-05-1.60444E-06 5.17940E-19 6.08276E-20
 -1      1574 8.34369E-05-2.50081E-05-2.50309E-05-1.57337E-06 5.82196E-20 3.16671E-19
 -1      1575 8.51619E-05-2.55355E-05-2.55672E-05-3.00821E-06-2.37257E-19-2.31366E-19
 -1      1576 8.81543E-05-2.65001E-05-2.64018E-05-1.46308E-06-1.43025E-19-1.40290E-20
 -1      1577 8.64842E-05-2.59702E-05-2.59210E-05-1.48219E-06 3.62415E-19 6.11399E-19
 -1      1578 8.77399E-05-2.63810E-05-2.62970E-05-2.94969E-06 4.32902E-19 1.19789E-19
 -1      1579 9.07220E-05-2.72826E-05-2.71650E-05-1.20238E-06 1.22809E-18-1.22231E-18
 -1      1580 8.92916E-05-2.68421E-05-2.67503E-05-1.25325E-06 6.52849E-19-3.48342E-20
 -1      1581 9.01219E-05-2.71391E-05-2.69843E-05-2.58292E-06 1.03617E-18 1.28448E-18
 -1      1582 9.27391E-05-2.78863E-05-2.77731E-05-8.98592E-07 3.52629E-19-2.86977E-18
 -1      1583 9.16267E-05-2.75542E-05-2.74480E-05-9.62548E-07 2.86755E-19-2.43051E-18
 -1      1584 9.21114E-05-2.77506E-05-2.75705E-05-2.05190E-06 9.98328E-19 1.72037E-20
 -1      1585 9.41839E-05-2.83099E-05-2.82153E-05-6.09394E-07-1.32824E-18-2.12246E-18
 -1      1586 9.33966E-05-2.80830E-05-2.79832E-05-6.72241E-07-4.42484E-19-2.53205E-18
 -1      1587 9.36283E-05-2.81988E-05-2.80277E-05-1.48564E-06-7.59573E-19-9.13990E-19
 -1      1588 9.51193E-05-2.85773E-05-2.85066E-05-3.68005E-07 2.99585E-19-7.74638E-19
 -1      1589 9.46175E-05-2.84391E-05-2.83571E-05-4.21423E-07-5.70351E-19-1.39753E-18
 -1      1590 9.46838E-05-2.84961E-05-2.83540E-05-9.73431E-07-1.19271E-18-7.80072E-19
 -1      1591 9.56494E-05-2.87234E-05-2.86756E-05-1.86339E-07 6.77974E-19-1.54848E-18
 -1      1592 9.53719E-05-2.86523E-05-2.85918E-05-2.27096E-07 4.36191E-19-9.43743E-19
 -1      1593 9.53441E-05-2.86709E-05-2.85646E-05-5.61065E-07 3.90851E-19-4.94690E-19
 -1      1594 9.58865E-05-2.87836E-05-2.87548E-05-6.19882E-08-6.66244E-20-1.75090E-18
 -1      1595 9.57688E-05-2.87586E-05-2.87182E-05-9.02750E-08 6.51794E-20-1.74795E-18
 -1      1596 9.56989E-05-2.87553E-05-2.86832E-05-2.59853E-07 1.20593E-19 9.48011E-20
 -1      1597 9.59305E-05-2.87887E-05-2.87737E-05 1.48104E-08-6.75318E-19-5.75851E-19
 -1      1598 9.59163E-05-2.87923E-05-2.87680E-05-2.98179E-09-1.00148E-19-1.34535E-18
 -1      1599 9.58379E-05-2.87789E-05-2.87350E-05-5.96470E-08-3.67612E-19 6.39323E-19
 -1      1600 9.58610E-05-2.87622E-05-2.87566E-05 5.59983E-08 4.71424E-19-9.36676E-19
 -1      1601 9.59062E-05-2.87813E-05-2.87689E-05 4.61546E-08-2.00597E-19-9.90686E-19
 -1      1602 9.58383E-05-2.87658E-05-2.87427E-05 5.95485E-08-1.75427E-19-1.60810E-19
 -1      1603 9.57357E-05-2.87211E-05-2.87213E-05 7.26031E-08 8.79147E-19-1.87075E-18
 -1      1604 9.58088E-05-2.87465E-05-2.87421E-05 6.83175E-08 1.01086E-18-1.02983E-18
 -1      1605 9.57599E-05-2.87332E-05-2.87244E-05 1.19494E-07 1.06220E-18-1.22087E-18
 -1      1606 9.55936E-05-2.86764E-05-2.86799E-05 7.32981E-08-5.80545E-19-2.53752E-18
 -1      1607 9.56736E-05-2.87023E-05-2.87030E-05 7.26883E-08 4.61104E-20-2.61912E-18
 -1      1608 9.56458E-05-2.86933E-05-2.86935E-05 1.39185E-07 5.66137E-19-1.88781E-18
 -1      1609 9.54599E-05-2.86349E-05-2.86405E-05 6.40058E-08 4.28863E-19-1.71189E-18
 -1      1610 9.55334E-05-2.86578E-05-2.86618E-05 6.58263E-08 2.51492E-19-2.26725E-18
 -1      1611 9.55246E-05-2.86534E-05-2.86593E-05 1.32954E-07 2.12265E-19-1.70070E-18
 -1      1612 9.53506E-05-2.86012E-05-2.86082E-05 4.81933E-08-7.00799E-20-2.08561E-18
 -1      1613 9.54089E-05-2.86187E-05-2.86251E-05 5.17834E-08 2.66842E-19-1.64408E-18
 -1      1614 9.54149E-05-2.86182E-05-2.86279E-05 1.10220E-07 1.70595E-19-7.76885E-19
 -1      1615 9.52762E-05-2.85784E-05-2.85861E-05 2.74721E-08-9.51402E-19-1.06714E-18
 -1      1616 9.53133E-05-2.85885E-05-2.85970E-05 3.27634E-08-8.51983E-19-1.90325E-18
 -1      1617 9.53278E-05-2.85902E-05-2.86030E-05 7.64758E-08-9.28213E-19-1.07149E-18
 -1      1618 9.52419E-05-2.85690E-05-2.85737E-05 5.57539E-09 6.75679E-19-1.13415E-18
 -1      1619 9.52544E-05-2.85705E-05-2.85791E-05 1.13847E-08 1.10814E-19-1.58182E-18
 -1      1620 9.52691E-05-2.85717E-05-2.85856E-05 3.61678E-08-7.83281E-20-1.53948E-18
 -1      1621 9.52355E-05-2.85707E-05-2.85694E-05-2.37739E-09-5.53869E-19-1.06712E-18
 -1      1622 9.52348E-05-2.85431E-05-2.85827E-05 2.10028E-08-1.87811E-19 1.54790E-19
 -1      1623 9.52392E-05-2.85583E-05-2.85770E-05 1.57239E-08-7.58889E-19 3.14124E-20
 -1      1624 9.52148E-05-2.84801E-05-2.86010E-05 4.28974E-08 6.66063E-19 2.23667E-20
 -1      1625 9.52266E-05-2.85162E-05-2.85906E-05 3.84050E-08 6.53033E-20-3.52521E-19
 -1      1626 9.52319E-05-2.85156E-05-2.85936E-05 5.99379E-08 5.05995E-19 1.69573E-19
 -1      1627 9.51856E-05-2.83906E-05-2.86266E-05 5.81267E-08 4.22739E-19-7.12921E-19
 -1      1628 9.52022E-05-2.84418E-05-2.86119E-05 5.56651E-08 7.03057E-19 1.19626E-18
 -1      1629 9.52084E-05-2.84497E-05-2.86119E-05 9.65734E-08 4.65977E-19 3.12177E-19
 -1      1630 9.51519E-05-2.82857E-05-2.86570E-05 6.56658E-08 1.85937E-18 2.62067E-19
 -1      1631 9.51710E-05-2.83447E-05-2.86400E-05 6.48195E-08 5.67662E-19-4.18634E-19
 -1      1632 9.51793E-05-2.83653E-05-2.86351E-05 1.19789E-07 1.46458E-18-3.60744E-19
 -1      1633 9.51180E-05-2.81800E-05-2.86877E-05 6.47756E-08 7.65517E-19 6.55790E-20
 -1      1634 9.51368E-05-2.82379E-05-2.86710E-05 6.55769E-08 2.62212E-20 1.77875E-19
 -1      1635 9.51471E-05-2.82713E-05-2.86611E-05 1.27725E-07 7.00321E-19-1.02846E-18
 -1      1636 9.50868E-05-2.80839E-05-2.87155E-05 5.48928E-08-2.86498E-19-1.58934E-18
 -1      1637 9.51033E-05-2.81344E-05-2.87010E-05 5.74827E-08 7.09140E-19-1.07045E-18
 -1      1638 9.51149E-05-2.81775E-05-2.86869E-05 1.19013E-07-1.04718E-18-1.56062E-18
 -1      1639 9.50637E-05-2.80139E-05-2.87356E-05 3.60292E-08-3.78713E-19 2.76467E-19
 -1      1640 9.50749E-05-2.80477E-05-2.87259E-05 4.03498E-08-3.46782E-19-1.39614E-18
 -1      1641 9.50860E-05-2.80950E-05-2.87093E-05 9.28313E-08 1.15353E-18-1.74695E-18
 -1      1642 9.50530E-05-2.79832E-05-2.87442E-05 9.52790E-09 1.68255E-18 1.27473E-18
 -1      1643 9.50566E-05-2.79932E-05-2.87413E-05 1.52244E-08-6.15709E-19 1.65441E-18
 -1      1644 9.50651E-05-2.80369E-05-2.87247E-05 5.02309E-08 4.78790E-19 7.81460E-19
 -1      1645 9.50579E-05-2.80004E-05-2.87388E-05-2.13596E-08 1.98942E-18 4.15841E-19
 -1      1646 9.50523E-05-2.79826E-05-2.87439E-05-1.50746E-08 1.24517E-18 1.02053E-18
 -1      1647 9.50562E-05-2.80143E-05-2.87302E-05-4.74470E-09 8.89543E-19 1.63293E-18
 -1      1648 9.50793E-05-2.80671E-05-2.87194E-05-5.13759E-08 8.06791E-21-2.87022E-18
 -1      1649 9.50645E-05-2.80219E-05-2.87323E-05-4.57036E-08 1.67115E-18-6.96835E-19
 -1      1650 9.50624E-05-2.80342E-05-2.87243E-05-6.42728E-08 1.48407E-18 2.73168E-20
 -1      1651 9.51140E-05-2.81727E-05-2.86892E-05-7.36634E-08-1.69147E-18 8.62332E-19
 -1      1652 9.50924E-05-2.81079E-05-2.87076E-05-7.00510E-08-2.43586E-19-2.05700E-18
 -1      1653 9.50843E-05-2.80961E-05-2.87075E-05-1.16842E-07 1.35729E-18-2.38236E-18
 -1      1654 9.51575E-05-2.83022E-05-2.86527E-05-8.25266E-08 2.35301E-18 8.51999E-19
 -1      1655 9.51324E-05-2.82278E-05-2.86736E-05-8.20855E-08-7.78191E-19 3.01187E-18
 -1      1656 9.51193E-05-2.81923E-05-2.86821E-05-1.50407E-07 1.14058E-18 2.50644E-18
 -1      1657 9.52002E-05-2.84275E-05-2.86176E-05-7.31023E-08 3.15900E-18 5.27126E-19
 -1      1658 9.51775E-05-2.83611E-05-2.86363E-05-7.67236E-08 2.41132E-18-1.01174E-19
 -1      1659 9.51625E-05-2.83078E-05-2.86523E-05-1.54502E-07 1.01679E-18 1.38062E-19
 -1      1660 9.52322E-05-2.85216E-05-2.85910E-05-4.56693E-08 1.43741E-18-1.67484E-18
 -1      1661 9.52175E-05-2.84789E-05-2.86035E-05-5.31109E-08 2.42540E-18 7.40656E-20
 -1      1662 9.52049E-05-2.84205E-05-2.86233E-05-1.23898E-07-3.95901E-19-5.66979E-19
 -1      1663 9.52428E-05-2.85659E-05-2.85752E-05-1.23146E-08 3.87236E-19-8.83545E-19
 -1      1664 9.52403E-05-2.85538E-05-2.85813E-05-1.92731E-08 2.52688E-18-3.29811E-18
 -1      1665 9.52334E-05-2.85045E-05-2.85998E-05-6.74253E-08-1.26555E-18-1.60358E-18
 -1      1666 9.52458E-05-2.85541E-05-2.85821E-05-1.52524E-08 1.20386E-18-8.65071E-19
 -1      1667 2.20472E-05-7.02280E-05 1.48747E-05-1.44085E-06-5.53960E-19 5.46336E-19
 -1      1668 2.68356E-05-8.63643E-05 1.84868E-05 6.92569E-06-5.66242E-19-4.03188E-19
 -1      1669 2.17018E-05-3.46488E-05 1.90179E-06 1.03067E-05 2.23956E-18 1.23815E-18
 -1      1670 2.62065E-05-6.19059E-05 9.41093E-06 4.18993E-06 6.69156E-19 1.45925E-18
 -1      1671 3.79073E-05-4.12252E-06-1.58223E-05 3.78377E-05 4.48080E-18 7.02190E-18
 -1      1672 3.04471E-05-2.58909E-05-6.20055E-06 1.74175E-05 2.48604E-18 3.81080E-18
 -1      1673 9.01603E-05 1.45023E-07-3.72534E-05 7.22872E-05 5.30666E-18 5.00088E-18
 -1      1674 6.01424E-05-3.38296E-06-2.59784E-05 4.74546E-05 5.69968E-18 5.23636E-18
 -1      1675 1.56973E-04-1.54219E-05-5.67869E-05 8.91437E-05 3.97682E-18 3.96073E-18
 -1      1676 1.12737E-04 3.80460E-07-4.73361E-05 7.87815E-05 5.33038E-18 5.51673E-18
 -1      1677 2.25278E-04-4.60193E-05-7.17040E-05 6.82975E-05 1.52911E-18 6.10711E-19
 -1      1678 1.81713E-04-2.34916E-05-6.44785E-05 8.13531E-05 3.14313E-18 2.70119E-18
 -1      1679 2.63292E-04-6.33047E-05-7.98343E-05 1.92561E-05 1.75209E-18-3.33138E-18
 -1      1680 2.39306E-04-4.97912E-05-7.64410E-05 5.26704E-05 1.89735E-18-8.18657E-19
 -1      1681 2.66098E-04-6.38774E-05-8.04513E-05-3.62804E-05 2.90363E-18-7.73256E-18
 -1      1682 2.75567E-04-6.97330E-05-8.17958E-05 2.87674E-06 1.63901E-18-4.80000E-18
 -1      1683 2.10679E-04-3.60209E-05-7.05691E-05-7.45870E-05 2.88552E-18-8.92773E-18
 -1      1684 2.50387E-04-5.75144E-05-7.65399E-05-5.13981E-05 2.98410E-18-8.13999E-18
 -1      1685 1.38933E-04-7.64788E-06-5.42791E-05-8.29576E-05 4.63412E-18-8.19166E-18
 -1      1686 1.87082E-04-2.82108E-05-6.34074E-05-8.53399E-05 3.66892E-18-9.52234E-18
 -1      1687 7.59931E-05 3.75101E-06-3.47112E-05-6.23404E-05 5.12455E-18-6.24941E-18
 -1      1688 1.11652E-04-7.80811E-07-4.49882E-05-8.28574E-05 5.26092E-18-7.22519E-18
 -1      1689 3.97728E-05-1.14546E-05-1.49916E-05-3.10134E-05 6.44761E-18-3.84384E-18
 -1      1690 5.51964E-05 3.18649E-06-2.49871E-05-5.38966E-05 5.82589E-18-5.34393E-18
 -1      1691 3.00142E-05-4.67535E-05 2.62186E-06-1.21632E-05 3.69476E-18-3.43430E-18
 -1      1692 3.07789E-05-2.12408E-05-6.30871E-06-2.55825E-05 5.55145E-18-3.90355E-18
 -1      1693 2.61769E-05-7.73954E-05 1.53483E-05-3.51936E-06 6.14946E-19-1.66230E-18
 -1      1694 1.98418E-05-5.49326E-05 1.01097E-05-4.25648E-07 3.54737E-18-2.92788E-18
 -1      1695 2.50758E-05-8.73391E-05 1.96785E-05-1.29660E-05-2.85461E-18-1.62609E-18
 -1      1696 2.40833E-05-8.15253E-05 1.82642E-05-1.23619E-06-3.38813E-19-1.78872E-18
 -1      1697 2.03282E-05-7.40219E-05 1.59711E-05-1.90511E-05-2.61437E-18 1.44737E-19
 -1      1698 2.61285E-05-8.78128E-05 1.90143E-05-1.09926E-05-3.49126E-18-3.64012E-19
 -1      1699 2.12382E-05-4.31238E-05 3.34775E-06-6.42282E-06-2.10064E-18-2.09302E-18
 -1      1700 2.51147E-05-6.81303E-05 1.08037E-05-1.37250E-05-1.96088E-18-9.86264E-19
 -1      1701 4.75066E-05-1.89222E-05-1.61533E-05 2.53359E-05-2.22431E-18-1.89142E-18
 -1      1702 3.51002E-05-3.80507E-05-5.51629E-06 2.76129E-06-1.98206E-18-1.83849E-18
 -1      1703 1.15276E-04-1.96667E-05-4.08592E-05 6.22785E-05-2.61733E-19 1.24344E-18
 -1      1704 7.33307E-05-1.93299E-05-2.75602E-05 3.42090E-05-1.94902E-18-4.84503E-19
 -1      1705 2.15406E-04-5.02518E-05-6.47931E-05 6.87360E-05 9.13102E-19 1.30274E-18
 -1      1706 1.53596E-04-2.94390E-05-5.26473E-05 5.88574E-05 6.76779E-19 1.44165E-18
 -1      1707 3.01282E-04-8.00420E-05-8.29097E-05 4.54452E-05 1.30020E-19 3.99800E-19
 -1      1708 2.45075E-04-5.40064E-05-7.45545E-05 6.67977E-05 9.41477E-19 7.52165E-19
 -1      1709 3.22813E-04-8.59955E-05-8.82702E-05-9.80719E-06 5.54807E-19-1.13132E-18
 -1      1710 3.11046E-04-8.02200E-05-8.67172E-05 3.23461E-05 5.23043E-19 6.60686E-20
 -1      1711 2.83107E-04-6.88390E-05-8.17398E-05-5.60435E-05-1.39760E-20-1.14858E-18
 -1      1712 3.21871E-04-8.77448E-05-8.71845E-05-2.37613E-05 3.36272E-19-1.71185E-18
 -1      1713 1.96043E-04-3.91961E-05-6.36576E-05-6.66748E-05-1.24514E-19-9.13102E-19
 -1      1714 2.59228E-04-6.46012E-05-7.42439E-05-6.34192E-05-1.16255E-19-1.82281E-18
 -1      1715 1.07909E-04-1.93847E-05-4.00906E-05-5.10579E-05 6.86097E-20 1.13502E-19
 -1      1716 1.61247E-04-3.07894E-05-5.29357E-05-7.26224E-05 3.33731E-19-1.03338E-19
 -1      1717 4.99527E-05-2.65145E-05-1.57772E-05-1.73934E-05-2.26497E-18 2.39710E-19
 -1      1718 7.59054E-05-1.48967E-05-2.81459E-05-4.51906E-05-8.75832E-19-8.08069E-19
 -1      1719 2.94624E-05-5.53801E-05 4.15287E-06 6.35318E-06-2.78674E-18 1.62376E-18
 -1      1720 3.23930E-05-3.08684E-05-5.46505E-06-9.27272E-06-2.38609E-18 1.35779E-18
 -1      1721 2.53534E-05-8.17483E-05 1.65642E-05 1.40484E-05-8.03834E-19 8.30516E-19
 -1      1722 1.85598E-05-6.13549E-05 1.16889E-05 1.63624E-05-2.28953E-18 2.29795E-18
 -1      1723 2.60773E-05-8.88882E-05 1.98605E-05 5.36762E-06-1.08399E-18 9.10560E-20
 -1      1724 2.36901E-05-8.56384E-05 1.93175E-05 1.71095E-05-1.08039E-18-8.04681E-20
 -1      1725 1.71060E-04-5.47879E-05-4.96306E-05-1.84723E-05-6.93244E-19 8.74562E-19
 -1      1726 1.51509E-04-4.61925E-05-4.66578E-05-2.04804E-05 1.13397E-19 3.21873E-19
 -1      1727 1.24034E-05-5.89026E-05 1.47863E-05 1.11143E-05-1.21909E-18-3.81165E-21
 -1      1728 8.21530E-05-3.17995E-05-2.20108E-05 4.93287E-05 2.53856E-18 4.77642E-18
 -1      1729 1.71200E-04-5.95792E-05-4.73945E-05-2.10850E-05-6.09625E-19 9.26164E-19
 -1      1730 9.52422E-05-2.85692E-05-2.85741E-05 4.39193E-09-7.40092E-19-1.44438E-18
 -1      1731 9.52464E-05-2.85534E-05-2.85826E-05 2.62912E-08 1.98374E-19-1.03913E-18
 -1      1732 2.18735E-05-5.08059E-05 8.29506E-06 2.34432E-05 1.09183E-18 2.22177E-18
 -1      1733 4.42613E-05-3.99511E-05-4.51694E-06 3.62904E-05 1.49586E-18 3.18326E-18
 -1      1734 1.27243E-04-2.88425E-05-4.10279E-05 5.41296E-05 3.65114E-18 2.72490E-18
 -1      1735 1.72362E-04-2.87922E-05-5.81211E-05 4.96408E-05 3.32164E-18 3.54060E-19
 -1      1736 2.03365E-04-3.06778E-05-6.98180E-05 2.78445E-05 2.55338E-18-1.82747E-18
 -1      1737 2.22533E-04-3.34772E-05-7.60743E-05 3.31548E-06 3.21873E-18-5.02153E-18
 -1      1738 2.20324E-04-3.48423E-05-7.42411E-05-2.11027E-05 3.50036E-18-5.68910E-18
 -1      1739 1.89022E-04-3.06969E-05-6.38106E-05-4.22596E-05 2.62188E-18-7.02360E-18
 -1      1740 1.45080E-04-2.69935E-05-4.81720E-05-5.49031E-05 3.56516E-18-6.73391E-18
 -1      1741 9.75344E-05-2.71636E-05-3.00087E-05-5.29694E-05 3.84129E-18-4.98564E-18
 -1      1742 6.16321E-05-3.73431E-05-1.23427E-05-4.37507E-05 3.03746E-18-2.97097E-18
 -1      1743 3.24053E-05-4.49366E-05 2.55534E-06-3.27884E-05 1.62292E-18-3.82954E-18
 -1      1744 1.48091E-05-5.49040E-05 1.25955E-05-1.61302E-05 2.97309E-19-2.87314E-18
 -1      1745 1.21471E-05-5.83987E-05 1.46713E-05-5.41157E-06-9.58894E-19-1.06303E-18
 -1      1746 2.32450E-05-5.65929E-05 9.04771E-06 6.37446E-06-1.36076E-18-4.63751E-20
 -1      1747 5.10761E-05-5.10036E-05-4.43453E-06 2.06902E-05-1.13841E-18-1.43530E-18
 -1      1748 9.93070E-05-4.96677E-05-2.37751E-05 3.22011E-05-1.49755E-18 5.21772E-19
 -1      1749 1.65482E-04-5.55181E-05-4.59334E-05 2.99991E-05-1.22100E-18 9.33430E-19
 -1      1750 2.22903E-04-5.73325E-05-6.56948E-05 1.56424E-05 8.88961E-19-1.69407E-19
 -1      1751 2.56890E-04-5.20032E-05-7.84503E-05 5.64579E-06 9.23689E-19 1.05710E-18
 -1      1752 2.59861E-04-4.78746E-05-8.08322E-05-7.58148E-07 1.03338E-18 1.70254E-19
 -1      1753 2.42544E-04-5.48390E-05-7.27869E-05-1.46268E-05 1.59877E-19-1.46028E-18
 -1      1754 1.94936E-04-5.64929E-05-5.61037E-05-2.60947E-05 2.73592E-19-1.62715E-18
 -1      1755 1.30240E-04-5.15090E-05-3.46657E-05-3.42198E-05-1.06557E-18-7.26754E-19
 -1      1756 7.37094E-05-5.07308E-05-1.33760E-05-2.76699E-05-2.49451E-18-6.86097E-20
 -1      1757 3.48028E-05-5.35062E-05 3.44965E-06-1.49890E-05-1.26208E-18 1.72011E-18
 -1      1758 1.53532E-05-5.91701E-05 1.34121E-05 4.21747E-07-3.40084E-19 5.31937E-19
 -1      1759 1.66741E-04-5.07001E-05-5.04587E-05-3.52278E-05 2.00747E-19 1.16385E-18
 -1      1760 1.06029E-04-2.31650E-05-3.55966E-05-1.68502E-05-5.06764E-19 1.02110E-18
 -1      1761 8.91531E-05-1.05874E-05-3.37965E-05-1.33215E-05-3.89708E-19-9.66015E-19
 -1      1762 9.04805E-05-1.16316E-05-3.39347E-05-1.51309E-05-5.51663E-19-8.32713E-19
 -1      1763 9.24833E-05-1.38742E-05-3.38515E-05-1.59973E-05-5.80151E-19-5.99646E-19
 -1      1764 9.41960E-05-1.58198E-05-3.40939E-05-1.76584E-05-7.15385E-19-3.63589E-19
 -1      1765 9.34131E-05-1.63470E-05-3.30433E-05-1.37644E-05-6.05051E-19-6.50812E-19
 -1      1766 8.62202E-05-7.67300E-06-3.37340E-05-7.85801E-06-8.34625E-21-1.03305E-18
 -1      1767 8.66235E-05-7.97220E-06-3.37674E-05-9.24706E-06-7.43205E-20-1.07057E-18
 -1      1768 8.56041E-05-7.03334E-06-3.37324E-05-5.31543E-06 1.82867E-19-9.73492E-19
 -1      1769 8.58382E-05-7.21269E-06-3.37470E-05-6.61948E-06 6.36524E-20-1.01422E-18
 -1      1770 8.76024E-05-9.86383E-06-3.33482E-05-6.92183E-06 1.16757E-20-9.74313E-19
 -1      1771 8.52699E-05-6.67357E-06-3.37365E-05-2.88552E-06 3.30724E-19-8.98411E-19
 -1      1772 8.53905E-05-6.76867E-06-3.37421E-05-4.12454E-06 2.63099E-19-9.68079E-19
 -1      1773 8.69671E-05-9.14994E-06-3.33825E-05-4.53232E-06 2.46090E-19-9.14531E-19
 -1      1774 8.51388E-05-6.52461E-06-3.37402E-05-5.15934E-07 5.10378E-19-7.40598E-19
 -1      1775 8.51746E-05-6.55335E-06-3.37415E-05-1.72468E-06 4.43904E-19-8.49071E-19
 -1      1776 8.66355E-05-8.76982E-06-3.34033E-05-2.21393E-06 3.91592E-19-8.39509E-19
 -1      1777 8.51835E-05-6.56189E-06-3.37416E-05 1.84465E-06 5.95899E-19-5.48877E-19
 -1      1778 8.51422E-05-6.52893E-06-3.37400E-05 6.34979E-07 5.74902E-19-6.64471E-19
 -1      1779 8.65368E-05-8.65542E-06-3.34100E-05 6.65081E-08 5.76643E-19-6.66542E-19
 -1      1780 8.54138E-05-6.79265E-06-3.37419E-05 4.24857E-06 7.18820E-19-3.82713E-19
 -1      1781 8.52863E-05-6.69169E-06-3.37362E-05 3.00661E-06 6.31978E-19-4.82174E-19
 -1      1782 8.66518E-05-8.78853E-06-3.34024E-05 2.34788E-06 6.17122E-19-4.66153E-19
 -1      1783 8.58696E-05-7.24692E-06-3.37463E-05 6.70837E-06 8.24084E-19-1.79293E-19
 -1      1784 8.56323E-05-7.06439E-06-3.37320E-05 5.42173E-06 7.55297E-19-3.04098E-19
 -1      1785 8.69994E-05-9.18652E-06-3.33808E-05 4.64884E-06 7.98867E-19-2.77867E-19
 -1      1786 8.66802E-05-8.03761E-06-3.37655E-05 9.36980E-06 9.64148E-19 1.68427E-19
 -1      1787 8.62612E-05-7.72121E-06-3.37326E-05 7.94927E-06 8.76654E-19-5.41307E-21
 -1      1788 8.76508E-05-9.92121E-06-3.33453E-05 7.02268E-06 9.28322E-19-4.59912E-20
 -1      1789 8.80848E-05-9.38318E-06-3.38188E-05 1.22485E-05 1.06011E-18 6.15872E-19
 -1      1790 8.73500E-05-8.82672E-06-3.37480E-05 1.06558E-05 9.97004E-19 3.59605E-19
 -1      1791 8.87688E-05-1.11576E-05-3.32931E-05 9.49782E-06 1.00007E-18 3.34168E-19
 -1      1792 9.06421E-05-1.18461E-05-3.39264E-05 1.53211E-05 1.08633E-18 1.30721E-18
 -1      1793 8.92727E-05-1.07470E-05-3.37881E-05 1.34955E-05 1.05303E-18 8.62968E-19
 -1      1794 9.06584E-05-1.32229E-05-3.32088E-05 1.19511E-05 1.07395E-18 8.16302E-19
 -1      1795 9.58776E-05-1.70807E-05-3.39898E-05 1.76701E-05 9.03086E-19 2.30674E-18
 -1      1796 9.28383E-05-1.43251E-05-3.38242E-05 1.61718E-05 9.85738E-19 1.72752E-18
 -1      1797 9.38804E-05-1.68577E-05-3.30121E-05 1.38509E-05 1.03789E-18 1.48898E-18
 -1      1798 1.01901E-04-2.50921E-05-3.33547E-05 1.44115E-05 6.27757E-19 3.40719E-18
 -1      1799 9.80547E-05-1.95761E-05-3.36220E-05 1.69668E-05 7.59319E-19 2.68335E-18
 -1      1800 9.73989E-05-2.18752E-05-3.24158E-05 1.32757E-05 8.92945E-19 2.22608E-18
 -1      1801 9.87647E-05-2.61427E-05-3.13381E-05 9.42728E-06 6.35804E-19 3.17218E-18
 -1      1802 1.00138E-04-1.95595E-05-3.42122E-05-1.88657E-05-6.45069E-19 1.70677E-19
 -1      1803 9.53727E-05-2.73041E-05-2.91897E-05 4.09863E-06 4.66596E-19 2.75938E-18
 -1      1804 9.77134E-05-2.73878E-05-3.01901E-05 6.39168E-06 5.15631E-19 2.92092E-18
 -1      1805 9.75698E-05-2.56102E-05-3.08207E-05 8.71578E-06 5.90620E-19 2.35017E-18
 -1      1806 9.98010E-05-2.25384E-05-3.28316E-05-1.44638E-05-7.01555E-19-2.09641E-20
 -1      1807 9.69468E-05-2.69746E-05-2.98734E-05-5.70134E-06-5.35060E-19-1.47598E-19
 -1      1808 9.51401E-05-2.70297E-05-2.91633E-05-3.89408E-06-3.86366E-19-2.87601E-19
 -1      1809 9.43231E-05-2.72314E-05-2.86565E-05-2.41604E-06-4.03088E-19-2.55539E-19
 -1      1810 9.35541E-05-2.73129E-05-2.83521E-05-1.56186E-06-4.25978E-19-3.13637E-19
 -1      1811 9.55000E-05-2.65427E-05-2.95743E-05-4.46638E-06-5.13183E-19-4.15609E-19
 -1      1812 9.30317E-05-2.73640E-05-2.80843E-05-7.34104E-07-3.59162E-19-2.78518E-19
 -1      1813 9.27331E-05-2.74276E-05-2.79633E-05-2.94346E-07-1.98953E-19-2.84110E-19
 -1      1814 9.42956E-05-2.72191E-05-2.87675E-05-1.81907E-06-4.36715E-19-2.78704E-19
 -1      1815 9.24608E-05-2.74552E-05-2.78288E-05 1.63987E-07-1.59882E-19-2.59549E-19
 -1      1816 9.24340E-05-2.75318E-05-2.78004E-05 3.90764E-07-6.55177E-20-3.43792E-19
 -1      1817 9.35996E-05-2.75249E-05-2.83344E-05-3.48394E-07-2.42799E-19-2.97990E-19
 -1      1818 9.23364E-05-2.75641E-05-2.77444E-05 6.35349E-07-1.44214E-19-3.78888E-19
 -1      1819 9.24583E-05-2.76503E-05-2.77658E-05 7.43405E-07-2.11600E-19-3.45733E-19
 -1      1820 9.32873E-05-2.77095E-05-2.81172E-05 4.63388E-07-1.42134E-19-2.84089E-19
 -1      1821 9.24721E-05-2.76896E-05-2.77571E-05 8.61526E-07-2.63863E-19-2.67925E-19
 -1      1822 9.26706E-05-2.77781E-05-2.78053E-05 9.01451E-07-1.13443E-19-3.93709E-19
 -1      1823 9.32374E-05-2.78535E-05-2.80303E-05 8.88210E-07-2.19374E-19-1.13250E-19
 -1      1824 9.27515E-05-2.78215E-05-2.78249E-05 9.45476E-07-2.06457E-19-4.54090E-19
 -1      1825 9.29843E-05-2.79070E-05-2.78864E-05 9.47417E-07-2.47476E-19-4.41370E-19
 -1      1826 9.33521E-05-2.79782E-05-2.80228E-05 1.08384E-06-2.16347E-19-1.91485E-19
 -1      1827 9.31034E-05-2.79512E-05-2.79225E-05 9.50640E-07-3.37948E-19-5.02817E-19
 -1      1828 9.33467E-05-2.80308E-05-2.79897E-05 9.34232E-07-3.57656E-19-6.69391E-19
 -1      1829 9.35633E-05-2.80892E-05-2.80637E-05 1.14716E-06-2.79438E-19-5.07081E-19
 -1      1830 9.34862E-05-2.80736E-05-2.80353E-05 9.19385E-07-4.16628E-19-8.76196E-19
 -1      1831 9.37289E-05-2.81461E-05-2.81043E-05 8.98543E-07-2.66857E-19-1.00688E-18
 -1      1832 9.38273E-05-2.81869E-05-2.81336E-05 1.14179E-06-5.43840E-19-7.98149E-19
 -1      1833 9.38794E-05-2.81862E-05-2.81560E-05 8.82477E-07-1.76398E-19-9.89154E-19
 -1      1834 9.41194E-05-2.82521E-05-2.82258E-05 8.68191E-07-1.18166E-19-1.08551E-18
 -1      1835 9.41184E-05-2.82712E-05-2.82216E-05 1.11278E-06-2.69452E-19-5.01878E-19
 -1      1836 9.42778E-05-2.82891E-05-2.82825E-05 8.64957E-07 1.33331E-19-1.12164E-18
 -1      1837 9.45206E-05-2.83498E-05-2.83547E-05 8.67378E-07 1.72825E-19-8.84724E-19
 -1      1838 9.44250E-05-2.83418E-05-2.83225E-05 1.09520E-06 7.05877E-20-6.18931E-19
 -1      1839 9.46887E-05-2.83834E-05-2.84176E-05 8.90758E-07 3.53371E-19-7.19440E-19
 -1      1840 9.49469E-05-2.84417E-05-2.84958E-05 9.21185E-07 4.27623E-19-3.58753E-19
 -1      1841 9.47461E-05-2.83980E-05-2.84361E-05 1.12045E-06 3.35755E-19-3.85634E-19
 -1      1842 9.51307E-05-2.84716E-05-2.85684E-05 9.87272E-07 7.47114E-20-2.10237E-19
 -1      1843 9.54253E-05-2.85310E-05-2.86592E-05 1.06049E-06-1.29545E-19 3.63409E-19
 -1      1844 9.50889E-05-2.84379E-05-2.85664E-05 1.22188E-06 3.31989E-19 1.75884E-19
 -1      1845 9.56341E-05-2.85559E-05-2.87470E-05 1.19088E-06-2.48244E-19 5.10432E-19
 -1      1846 9.59976E-05-2.86212E-05-2.88600E-05 1.32781E-06-7.09382E-20 5.36337E-19
 -1      1847 9.54681E-05-2.84568E-05-2.87213E-05 1.44090E-06 1.82639E-19 6.05126E-19
 -1      1848 9.62577E-05-2.86394E-05-2.89774E-05 1.56592E-06-1.49693E-19 5.07647E-19
 -1      1849 9.67603E-05-2.87193E-05-2.91363E-05 1.81661E-06 7.57664E-20 5.22254E-19
 -1      1850 9.59161E-05-2.84453E-05-2.89194E-05 1.84828E-06-9.04539E-20 1.27825E-18
 -1      1851 9.70608E-05-2.87220E-05-2.92849E-05 2.19079E-06-5.67214E-20 5.43323E-19
 -1      1852 9.77288E-05-2.88205E-05-2.94963E-05 2.57956E-06 8.90046E-21 6.03149E-19
 -1      1853 9.64490E-05-2.83806E-05-2.91752E-05 2.52694E-06-1.86777E-20 1.15759E-18
 -1      1854 9.80936E-05-2.87968E-05-2.96951E-05 3.16435E-06 8.23607E-20 2.85847E-19
 -1      1855 9.90431E-05-2.89277E-05-2.99967E-05 3.77539E-06 9.50563E-20 4.55708E-19
 -1      1856 9.70764E-05-2.82370E-05-2.95048E-05 3.57742E-06-2.03890E-19 8.37017E-19
 -1      1857 9.94775E-05-2.88592E-05-3.02630E-05 4.66557E-06 2.60889E-19-6.04967E-20
 -1      1858 1.00843E-04-2.90442E-05-3.06965E-05 5.60317E-06 4.35468E-19 4.07386E-20
 -1      1859 9.78262E-05-2.79665E-05-2.99395E-05 5.18315E-06 1.26708E-19 7.21514E-19
 -1      1860 1.01338E-04-2.89069E-05-3.10456E-05 6.92135E-06 1.76587E-19-1.35012E-19
 -1      1861 1.03297E-04-2.91885E-05-3.16626E-05 8.31240E-06 1.02822E-19-1.61639E-19
 -1      1862 9.86954E-05-2.75116E-05-3.05017E-05 7.57012E-06 3.39276E-20 6.67645E-19
 -1      1863 1.03824E-04-2.89724E-05-3.20964E-05 1.01915E-05 1.92442E-19-7.01327E-19
 -1      1864 1.06597E-04-2.94510E-05-3.29446E-05 1.21389E-05 4.22696E-19-9.36431E-19
 -1      1865 9.96534E-05-2.68389E-05-3.11916E-05 1.09976E-05-1.50051E-19 3.48158E-19
 -1      1866 1.07144E-04-2.92295E-05-3.34269E-05 1.46564E-05 6.45373E-19-1.28299E-18
 -1      1867 1.10971E-04-3.01579E-05-3.45109E-05 1.70854E-05 7.46567E-19-5.84976E-19
 -1      1868 1.00672E-04-2.60667E-05-3.19467E-05 1.56677E-05 4.01209E-19-4.12469E-19
 -1      1869 1.11709E-04-3.02885E-05-3.49254E-05 2.00882E-05 6.06568E-19-7.05453E-19
 -1      1870 1.16823E-04-3.22690E-05-3.61245E-05 2.23717E-05 5.73074E-19-5.05785E-19
 -1      1871 1.01903E-04-2.58153E-05-3.25710E-05 2.14911E-05 8.64195E-19-3.60035E-19
 -1      1872 1.18610E-04-3.38182E-05-3.62571E-05 2.50286E-05 6.42766E-19-3.06838E-19
 -1      1873 1.25122E-04-3.78784E-05-3.72566E-05 2.53479E-05 3.86644E-19 6.11320E-20
 -1      1874 1.04304E-04-2.80086E-05-3.26694E-05 2.75640E-05 9.27342E-19-6.63769E-19
 -1      1875 1.29511E-04-4.23308E-05-3.70237E-05 2.57149E-05 3.75924E-19 7.35767E-19
 -1      1876 1.36420E-04-4.85564E-05-3.75600E-05 2.17523E-05 4.73174E-19 4.38247E-19
 -1      1877 1.10164E-04-3.54809E-05-3.19373E-05 3.11976E-05 6.46763E-19 6.21457E-19
 -1      1878 1.18135E-05-3.54104E-05 8.92983E-06 1.68459E-05-1.03762E-19 5.82335E-19
 -1      1879 1.03892E-05-3.72839E-05 1.00778E-05 8.03580E-06-5.55759E-19-5.36172E-19
 -1      1880 1.97637E-04-3.76478E-05-6.72419E-05 5.30348E-06 8.75832E-19-1.27055E-21
 -1      1881 2.00103E-04-4.58285E-05-6.47320E-05 1.88333E-05 9.49524E-19 1.02787E-18
 -1      1882 1.71327E-04-6.45866E-05-4.59364E-05 1.83616E-05-5.27649E-19 6.67038E-20
 -1      1883 1.69556E-04-6.59041E-05-4.39949E-05 4.90346E-06-1.57834E-18-6.20452E-19
 -1      1884 1.54843E-04-5.83769E-05-4.12788E-05-7.95214E-06-1.65256E-18-6.53804E-20
 -1      1885 1.48513E-04-5.22603E-05-4.07076E-05-1.69911E-05 1.00373E-19 3.13323E-19
 -1      1886 1.39926E-04-4.55994E-05-4.03373E-05-2.10030E-05 6.01076E-19-2.24040E-19
 -1      1887 1.32589E-04-4.04389E-05-3.92255E-05-2.31897E-05 9.44177E-19 1.56701E-20
 -1      1888 1.28651E-04-4.65275E-05-3.51149E-05-2.56952E-05 2.81003E-19 3.59460E-19
 -1      1889 1.28234E-04-3.75139E-05-3.88306E-05-2.23380E-05 8.82813E-19-1.25011E-18
 -1      1890 1.21495E-04-3.43273E-05-3.73395E-05-2.09819E-05 4.91471E-19-1.33003E-18
 -1      1891 1.16402E-04-3.51078E-05-3.48607E-05-2.83265E-05 5.77571E-19-1.92544E-18
 -1      1892 1.19240E-04-3.34461E-05-3.66830E-05-1.82214E-05 6.66986E-19-1.32052E-18
 -1      1893 1.13893E-04-3.17341E-05-3.52460E-05-1.60012E-05 6.85137E-19-6.20478E-19
 -1      1894 1.09797E-04-2.95800E-05-3.43616E-05-2.38402E-05 5.68077E-19-2.42260E-18
 -1      1895 1.12336E-04-3.15369E-05-3.45318E-05-1.32934E-05 3.44464E-19-1.66482E-19
 -1      1896 1.08402E-04-3.05617E-05-3.33829E-05-1.13026E-05 2.09972E-19 5.16746E-19
 -1      1897 1.06028E-04-2.82287E-05-3.33348E-05-1.79595E-05 1.06751E-18-1.90438E-18
 -1      1898 1.07190E-04-3.05279E-05-3.27622E-05-9.15214E-06-3.56879E-19 1.16856E-18
 -1      1899 1.04425E-04-2.99391E-05-3.19283E-05-7.66635E-06-4.69852E-19 1.66943E-18
 -1      1900 1.03311E-04-2.81508E-05-3.22087E-05-1.27106E-05 1.90940E-19-8.69336E-19
 -1      1901 1.03469E-04-2.99177E-05-3.14449E-05-6.11831E-06-6.90616E-19 4.01562E-19
 -1      1902 1.01580E-04-2.95447E-05-3.08689E-05-5.09472E-06-4.64823E-19-6.57105E-19
 -1      1903 1.01211E-04-2.83528E-05-3.12258E-05-8.68933E-06-8.82747E-19-1.18118E-18
 -1      1904 1.00842E-04-2.95096E-05-3.05134E-05-4.03438E-06 3.66666E-19-1.50600E-18
 -1      1905 9.95716E-05-2.92659E-05-3.01248E-05-3.35581E-06 2.22475E-19-1.30839E-18
 -1      1906 9.95829E-05-2.85274E-05-3.04555E-05-5.83241E-06-9.22776E-19-2.83386E-18
 -1      1907 9.90171E-05-2.92228E-05-2.98714E-05-2.64807E-06-1.53922E-19-1.27088E-18
 -1      1908 9.81689E-05-2.90605E-05-2.96118E-05-2.20622E-06-9.28957E-19-1.66273E-18
 -1      1909 9.83441E-05-2.86233E-05-2.98848E-05-3.88222E-06-6.42289E-20-3.30470E-18
 -1      1910 9.77610E-05-2.90173E-05-2.94341E-05-1.73968E-06-1.44638E-18-2.62699E-19
 -1      1911 9.71956E-05-2.89078E-05-2.92611E-05-1.45378E-06-1.05174E-18-6.26007E-19
 -1      1912 9.74218E-05-2.86583E-05-2.94748E-05-2.57876E-06-7.25449E-19-2.90093E-18
 -1      1913 9.68997E-05-2.88692E-05-2.91376E-05-1.14733E-06 5.20082E-20 4.40524E-19
 -1      1914 9.65223E-05-2.87945E-05-2.90222E-05-9.61963E-07 1.23648E-18 3.97233E-19
 -1      1915 9.67463E-05-2.86576E-05-2.91851E-05-1.71584E-06-6.14711E-20-6.12501E-19
 -1      1916 9.63098E-05-2.87622E-05-2.89369E-05-7.59797E-07 1.40510E-18-3.76717E-19
 -1      1917 9.60575E-05-2.87108E-05-2.88597E-05-6.38279E-07 1.48463E-18-9.40465E-19
 -1      1918 9.62572E-05-2.86396E-05-2.89825E-05-1.14513E-06 1.26026E-18-1.24328E-18
 -1      1919 9.59060E-05-2.86847E-05-2.88011E-05-5.02926E-07 2.34128E-18-5.48547E-19
 -1      1920 9.57380E-05-2.86492E-05-2.87499E-05-4.21145E-07 1.00352E-18 1.10263E-18
 -1      1921 9.59060E-05-2.86150E-05-2.88419E-05-7.64692E-07 1.97971E-18-1.69490E-18
 -1      1922 9.56308E-05-2.86284E-05-2.87101E-05-3.27589E-07 5.30401E-20 1.00700E-18
 -1      1923 9.55210E-05-2.86041E-05-2.86767E-05-2.69664E-07-8.00310E-20 7.01146E-19
 -1      1924 9.56557E-05-2.85892E-05-2.87450E-05-5.05751E-07 1.28445E-18-1.04134E-18
 -1      1925 9.54459E-05-2.85876E-05-2.86502E-05-2.01307E-07-4.74593E-19 5.28757E-19
 -1      1926 9.53779E-05-2.85720E-05-2.86296E-05-1.57005E-07-8.74710E-19 7.49162E-19
 -1      1927 9.54790E-05-2.85644E-05-2.86793E-05-3.22346E-07-4.75470E-19 5.02844E-19
 -1      1928 9.53262E-05-2.85601E-05-2.86120E-05-1.03605E-07-1.42367E-18-5.59140E-19
 -1      1929 9.52896E-05-2.85531E-05-2.86000E-05-6.91117E-08-1.25859E-18 4.23061E-19
 -1      1930 9.53562E-05-2.85440E-05-2.86351E-05-1.84278E-07-1.97363E-18-1.45704E-19
 -1      1931 9.52552E-05-2.85486E-05-2.85875E-05-3.01672E-08-8.31910E-19 2.23721E-19
 -1      1932 9.27440E-05-2.73518E-05-2.79910E-05 7.79026E-07 2.50503E-19 2.23713E-18
 -1      1933 9.32149E-05-2.73059E-05-2.81860E-05 1.36099E-06 2.52396E-19 2.40022E-18
 -1      1934 9.22165E-05-2.74239E-05-2.77464E-05-9.97708E-08 1.66053E-19 1.97614E-18
 -1      1935 9.23391E-05-2.73641E-05-2.78040E-05 1.91613E-07 2.22182E-19 2.11106E-18
 -1      1936 9.36719E-05-2.74212E-05-2.84098E-05 9.39792E-07 4.22428E-19 1.69382E-18
 -1      1937 9.21234E-05-2.75207E-05-2.76736E-05-5.67314E-07 1.86667E-19 1.75088E-18
 -1      1938 9.20388E-05-2.74402E-05-2.76629E-05-4.20659E-07 2.36824E-19 1.81509E-18
 -1      1939 9.31504E-05-2.75978E-05-2.81085E-05-1.25916E-07 3.14213E-19 1.43836E-18
 -1      1940 9.22907E-05-2.76430E-05-2.76979E-05-7.94049E-07 1.06061E-19 1.66111E-18
 -1      1941 9.20966E-05-2.75520E-05-2.76513E-05-7.28641E-07 5.70440E-20 1.60429E-18
 -1      1942 9.29902E-05-2.77347E-05-2.79771E-05-6.98532E-07 2.13032E-19 1.20936E-18
 -1      1943 9.26004E-05-2.77773E-05-2.77760E-05-8.79805E-07 1.18052E-19 1.54180E-18
 -1      1944 9.23553E-05-2.76844E-05-2.77116E-05-8.61336E-07 8.37895E-20 1.62907E-18
 -1      1945 9.30539E-05-2.78596E-05-2.79473E-05-9.80431E-07 5.61614E-20 1.04455E-18
 -1      1946 9.29780E-05-2.79130E-05-2.78816E-05-8.84500E-07 1.35873E-19 1.34806E-18
 -1      1947 9.27163E-05-2.78237E-05-2.78101E-05-8.92374E-07 6.45690E-20 1.52402E-18
 -1      1948 9.32498E-05-2.79782E-05-2.79777E-05-1.09017E-06 9.90082E-20 9.14009E-19
 -1      1949 9.33785E-05-2.80437E-05-2.79985E-05-8.45476E-07 2.67849E-19 1.48275E-18
 -1      1950 9.31196E-05-2.79606E-05-2.79262E-05-8.66810E-07 3.34471E-19 1.45199E-18
 -1      1951 9.35162E-05-2.80898E-05-2.80422E-05-1.10016E-06 1.20541E-19 9.70237E-19
 -1      1952 9.37756E-05-2.81661E-05-2.81171E-05-7.85966E-07 2.78984E-19 1.30178E-18
 -1      1953 9.35298E-05-2.80902E-05-2.80474E-05-8.12851E-07 1.90099E-19 1.39530E-18
 -1      1954 9.38140E-05-2.81934E-05-2.81242E-05-1.05589E-06 2.52136E-19 1.00456E-18
 -1      1955 9.41549E-05-2.82797E-05-2.82316E-05-7.19278E-07 3.52496E-19 1.31759E-18
 -1      1956 9.39271E-05-2.82107E-05-2.81665E-05-7.47459E-07 4.05369E-19 1.31336E-18
 -1      1957 9.41192E-05-2.82891E-05-2.82133E-05-9.85478E-07 3.74897E-19 1.37819E-18
 -1      1958 9.45090E-05-2.83853E-05-2.83387E-05-6.50805E-07 2.74254E-19 6.00176E-19
 -1      1959 9.43013E-05-2.83223E-05-2.82792E-05-6.79096E-07 3.41537E-19 9.27663E-19
 -1      1960 9.44183E-05-2.83786E-05-2.83027E-05-9.04486E-07 6.04170E-19 1.02919E-18
 -1      1961 9.48326E-05-2.84846E-05-2.84357E-05-5.78789E-07 2.24887E-19 6.57338E-19
 -1      1962 9.46470E-05-2.84267E-05-2.83826E-05-6.08914E-07 1.55262E-19 6.52499E-19
 -1      1963 9.47038E-05-2.84648E-05-2.83878E-05-8.18202E-07 1.79225E-19 2.56705E-19
 -1      1964 9.51189E-05-2.85787E-05-2.85193E-05-4.94364E-07 4.53442E-20 1.17783E-18
 -1      1965 9.49594E-05-2.85254E-05-2.84742E-05-5.31049E-07 3.90599E-19 1.09003E-18
 -1      1966 9.49705E-05-2.85512E-05-2.84648E-05-7.22511E-07-1.12974E-19 4.48896E-19
 -1      1967 9.53554E-05-2.86675E-05-2.85844E-05-3.81303E-07 3.35699E-19 3.63668E-19
 -1      1968 9.52304E-05-2.86196E-05-2.85502E-05-4.32430E-07 1.49563E-19 9.58874E-19
 -1      1969 9.52130E-05-2.86414E-05-2.85296E-05-6.03955E-07 3.48824E-19 4.71728E-19
 -1      1970 9.55207E-05-2.87476E-05-2.86233E-05-2.16099E-07 2.50728E-19 8.25965E-19
 -1      1971 9.54451E-05-2.87082E-05-2.86046E-05-2.92629E-07 2.95993E-19 5.59316E-19
 -1      1972 9.54214E-05-2.87380E-05-2.85770E-05-4.39612E-07 1.39634E-19 1.78048E-19
 -1      1973 9.55805E-05-2.88111E-05-2.86248E-05 3.07379E-08 7.39216E-19 7.78688E-19
 -1      1974 9.55774E-05-2.87863E-05-2.86284E-05-8.44924E-08 4.57916E-19 7.63338E-19
 -1      1975 9.55792E-05-2.88407E-05-2.85996E-05-1.97662E-07 4.22582E-19 6.99002E-19
 -1      1976 9.54858E-05-2.88429E-05-2.85742E-05 3.90895E-07 5.10825E-20 6.23737E-19
 -1      1977 9.55876E-05-2.88433E-05-2.86091E-05 2.23317E-07 6.84607E-19 7.21580E-19
 -1      1978 9.56592E-05-2.89438E-05-2.85883E-05 1.60108E-07 4.68971E-19 1.85757E-19
 -1      1979 9.51732E-05-2.88190E-05-2.84542E-05 8.90527E-07 6.74351E-20 6.85489E-19
 -1      1980 9.54199E-05-2.88599E-05-2.85310E-05 6.60476E-07-1.34726E-19 7.24000E-19
 -1      1981 9.56211E-05-2.90325E-05-2.85321E-05 6.72197E-07 5.87298E-23 5.78938E-19
 -1      1982 9.45701E-05-2.87051E-05-2.82473E-05 1.53755E-06-2.45034E-19 6.70906E-19
 -1      1983 9.50048E-05-2.88066E-05-2.83769E-05 1.24451E-06 3.02748E-20 7.83432E-19
 -1      1984 9.54105E-05-2.90790E-05-2.84196E-05 1.36595E-06-1.36490E-19 6.62658E-19
 -1      1985 9.36068E-05-2.84590E-05-2.79407E-05 2.30453E-06-1.73728E-19 1.05427E-18
 -1      1986 9.42663E-05-2.86437E-05-2.81309E-05 1.96532E-06-5.50538E-20 8.70476E-19
 -1      1987 9.49610E-05-2.90396E-05-2.82414E-05 2.23992E-06-1.52008E-19 1.20947E-18
 -1      1988 9.22381E-05-2.80385E-05-2.75318E-05 3.11114E-06-6.37093E-19 1.34285E-18
 -1      1989 9.31379E-05-2.83256E-05-2.77838E-05 2.76704E-06-2.95378E-19 1.33039E-18
 -1      1990 9.42039E-05-2.88567E-05-2.79933E-05 3.24160E-06-3.64244E-19 1.25933E-18
 -1      1991 9.04724E-05-2.74173E-05-2.70347E-05 3.81498E-06-1.23401E-18 1.48606E-18
 -1      1992 9.15896E-05-2.78128E-05-2.73391E-05 3.53382E-06-9.07295E-19 1.34091E-18
 -1      1993 9.30872E-05-2.84690E-05-2.76802E-05 4.24711E-06-9.17601E-19 1.46626E-18
 -1      1994 8.84041E-05-2.66081E-05-2.64849E-05 4.22378E-06 8.12807E-19 1.13126E-18
 -1      1995 8.96617E-05-2.70932E-05-2.68187E-05 4.09120E-06-5.36480E-19 9.71046E-19
 -1      1996 9.16060E-05-2.78355E-05-2.73192E-05 5.05542E-06-5.62837E-19 1.13478E-18
 -1      1997 8.62342E-05-2.56851E-05-2.59385E-05 4.13973E-06 1.24062E-18 8.77136E-19
 -1      1998 8.74967E-05-2.62071E-05-2.62657E-05 4.23613E-06 1.35341E-18 1.35225E-18
 -1      1999 8.98397E-05-2.69686E-05-2.69399E-05 5.41387E-06 6.94189E-19 1.65205E-18
 -1      2000 8.42608E-05-2.47904E-05-2.54655E-05 3.43311E-06 3.67703E-19 1.46988E-18
 -1      2001 8.53496E-05-2.52651E-05-2.57418E-05 3.80029E-06 6.59366E-19 9.66461E-19
 -1      2002 8.79774E-05-2.59649E-05-2.65820E-05 5.08610E-06 9.90833E-19 1.64775E-18
 -1      2003 8.28235E-05-2.41080E-05-2.51357E-05 2.11876E-06-1.42000E-19 1.64171E-18
 -1      2004 8.35550E-05-2.44384E-05-2.53180E-05 2.73016E-06 2.30320E-19 1.92277E-18
 -1      2005 8.63091E-05-2.50077E-05-2.62890E-05 3.95126E-06 4.71179E-20 2.05817E-18
 -1      2006 8.22099E-05-2.38053E-05-2.50021E-05 3.91127E-07 2.67239E-19 1.36276E-18
 -1      2007 8.24465E-05-2.39138E-05-2.50593E-05 1.14510E-06-2.72242E-20 1.43689E-18
 -1      2008 8.51617E-05-2.43239E-05-2.60999E-05 2.09277E-06 5.64600E-20 1.99362E-18
 -1      2009 8.25558E-05-2.39650E-05-2.50867E-05-1.41632E-06-1.38930E-19 8.76821E-19
 -1      2010 8.22507E-05-2.38245E-05-2.50087E-05-6.69773E-07 2.80825E-19 1.44299E-18
 -1      2011 8.47940E-05-2.41014E-05-2.60413E-05-1.81222E-07 1.75673E-19 1.53143E-18
 -1      2012 8.37919E-05-2.45466E-05-2.53748E-05-2.94154E-06-1.03414E-19 7.37458E-19
 -1      2013 8.30052E-05-2.41924E-05-2.51754E-05-2.34905E-06-4.00709E-19 5.40768E-19
 -1      2014 8.52948E-05-2.44054E-05-2.61215E-05-2.41876E-06 8.99410E-20 1.26783E-18
 -1      2015 8.56681E-05-2.54038E-05-2.58193E-05-3.92042E-06-1.01367E-18 2.36554E-19
 -1      2016 8.45459E-05-2.49182E-05-2.55319E-05-3.57536E-06-4.02198E-19 1.11263E-18
 -1      2017 8.65447E-05-2.51477E-05-2.63293E-05-4.18079E-06-4.20342E-19 9.73669E-19
 -1      2018 8.78435E-05-2.63477E-05-2.63532E-05-4.26228E-06 2.13718E-19 8.33368E-20
 -1      2019 8.65712E-05-2.58273E-05-2.60218E-05-4.18223E-06-3.33279E-19-1.57710E-19
 -1      2020 8.82669E-05-2.61276E-05-2.66361E-05-5.19147E-06-3.79065E-19 2.52953E-19
 -1      2021 8.99919E-05-2.72144E-05-2.69065E-05-4.04439E-06 8.67985E-20 5.63452E-19
 -1      2022 8.87437E-05-2.67395E-05-2.65744E-05-4.18205E-06 3.64640E-19 1.37563E-19
 -1      2023 9.01341E-05-2.71199E-05-2.70017E-05-5.40400E-06 7.73113E-20 4.40239E-19
 -1      2024 9.18763E-05-2.79049E-05-2.74203E-05-3.44681E-06 7.60422E-19 1.27597E-18
 -1      2025 9.07796E-05-2.75229E-05-2.71215E-05-3.72100E-06 1.91418E-19 1.09576E-18
 -1      2026 9.18707E-05-2.79537E-05-2.73830E-05-4.96524E-06-6.87817E-20 7.44388E-20
 -1      2027 9.33734E-05-2.83890E-05-2.78553E-05-2.67259E-06 6.92363E-19 1.61353E-18
 -1      2028 9.24967E-05-2.81145E-05-2.76102E-05-3.00033E-06 1.93208E-18 1.98869E-18
 -1      2029 9.33064E-05-2.85476E-05-2.77419E-05-4.12096E-06 1.00522E-18 1.59064E-18
 -1      2030 9.44583E-05-2.86850E-05-2.81933E-05-1.88936E-06-1.26205E-18 9.04383E-19
 -1      2031 9.38174E-05-2.85094E-05-2.80091E-05-2.20668E-06-2.84097E-19 1.25948E-18
 -1      2032 9.43789E-05-2.89004E-05-2.80510E-05-3.11981E-06 2.61975E-19 2.62080E-18
 -1      2033 9.51715E-05-2.88351E-05-2.84341E-05-1.20445E-06-2.91844E-19-4.20590E-19
 -1      2034 9.47456E-05-2.87382E-05-2.83079E-05-1.47331E-06-1.30130E-18-2.89131E-19
 -1      2035 9.51044E-05-2.90589E-05-2.82960E-05-2.15244E-06-4.28064E-19 1.45409E-18
 -1      2036 9.55853E-05-2.88853E-05-2.85891E-05-6.66746E-07 4.98529E-19-2.77998E-19
 -1      2037 9.53345E-05-2.88442E-05-2.85118E-05-8.72217E-07 1.74813E-19-5.35072E-19
 -1      2038 9.55412E-05-2.90854E-05-2.84741E-05-1.33190E-06 1.92895E-19-1.83324E-20
 -1      2039 9.57794E-05-2.88750E-05-2.86759E-05-2.82218E-07-3.27319E-19-7.95369E-19
 -1      2040 9.56583E-05-2.88696E-05-2.86360E-05-4.25321E-07 6.07546E-19-4.14942E-19
 -1      2041 9.57611E-05-2.90364E-05-2.85915E-05-7.02696E-07 7.41782E-19 1.83016E-19
 -1      2042 9.58256E-05-2.88332E-05-2.87128E-05-3.19734E-08-5.58652E-19-8.50678E-19
 -1      2043 9.57924E-05-2.88480E-05-2.86991E-05-1.22289E-07-6.94182E-19-1.40629E-18
 -1      2044 9.58318E-05-2.89539E-05-2.86590E-05-2.62112E-07-2.19945E-19-1.51481E-18
 -1      2045 9.57820E-05-2.87790E-05-2.87166E-05 1.12978E-07 4.68731E-19-1.48453E-18
 -1      2046 9.58025E-05-2.88032E-05-2.87194E-05 6.29521E-08-7.79568E-20-1.07171E-18
 -1      2047 9.58089E-05-2.88640E-05-2.86890E-05 1.80868E-08-2.17394E-19-1.47843E-18
 -1      2048 9.56913E-05-2.87237E-05-2.87009E-05 1.82076E-07 1.26343E-18-1.90841E-18
 -1      2049 9.57400E-05-2.87506E-05-2.87128E-05 1.60430E-07 1.31488E-18-1.47726E-18
 -1      2050 9.57339E-05-2.87809E-05-2.86934E-05 1.75038E-07 8.06732E-19-1.46568E-18
 -1      2051 9.55832E-05-2.86731E-05-2.86758E-05 2.00166E-07 8.34621E-19-1.33951E-18
 -1      2052 9.56423E-05-2.86988E-05-2.86914E-05 1.97269E-07 8.24794E-19-1.26285E-18
 -1      2053 9.56360E-05-2.87104E-05-2.86823E-05 2.44467E-07 1.15299E-18-8.03019E-19
 -1      2054 9.54768E-05-2.86298E-05-2.86484E-05 1.85635E-07-3.30472E-19-3.49834E-19
 -1      2055 9.55348E-05-2.86523E-05-2.86642E-05 1.94677E-07 4.89383E-19-6.85258E-19
 -1      2056 9.55339E-05-2.86533E-05-2.86634E-05 2.55677E-07 4.25306E-20-3.07077E-19
 -1      2057 9.53838E-05-2.85946E-05-2.86234E-05 1.50563E-07-9.57132E-19 5.50066E-19
 -1      2058 9.54333E-05-2.86128E-05-2.86370E-05 1.67340E-07-7.52347E-19-5.07486E-19
 -1      2059 9.54390E-05-2.86081E-05-2.86423E-05 2.29991E-07-8.53497E-19 1.46531E-19
 -1      2060 9.53100E-05-2.85672E-05-2.86034E-05 1.02370E-07-5.02440E-19 2.58119E-19
 -1      2061 9.53472E-05-2.85807E-05-2.86136E-05 1.24507E-07-1.07011E-18 8.57008E-19
 -1      2062 9.53570E-05-2.85727E-05-2.86225E-05 1.81915E-07-1.07977E-18 6.15372E-19
 -1      2063 9.52628E-05-2.85539E-05-2.85889E-05 5.27702E-08 4.93331E-19-9.15161E-19
 -1      2064 9.52869E-05-2.85610E-05-2.85963E-05 7.51009E-08 4.17584E-19 4.57463E-19
 -1      2065 9.52979E-05-2.85508E-05-2.86062E-05 1.23552E-07-6.17941E-19 1.26303E-18
 -1      2066 9.52573E-05-2.85407E-05-2.85926E-05 6.61382E-08 4.72232E-19 3.37265E-19
 -1      2067 9.51780E-05-2.83459E-05-2.86424E-05 1.71401E-07 1.67951E-18 2.47847E-19
 -1      2068 9.51968E-05-2.83910E-05-2.86304E-05 1.62214E-07 7.37579E-19 7.90983E-19
 -1      2069 9.52134E-05-2.84295E-05-2.86214E-05 1.45502E-07 6.05114E-19 1.94974E-19
 -1      2070 9.52299E-05-2.84685E-05-2.86114E-05 1.28654E-07 8.68334E-19-8.32602E-19
 -1      2071 9.52148E-05-2.84149E-05-2.86290E-05 1.98297E-07 4.35347E-19 7.96902E-19
 -1      2072 9.52478E-05-2.85128E-05-2.86003E-05 9.00016E-08 2.53501E-19 8.62923E-20
 -1      2073 9.51402E-05-2.82574E-05-2.86645E-05 1.77392E-07 1.38301E-19-2.24578E-18
 -1      2074 9.51600E-05-2.83043E-05-2.86521E-05 1.77399E-07 1.05646E-18-1.07045E-18
 -1      2075 9.51740E-05-2.83329E-05-2.86465E-05 2.23349E-07 1.04389E-18-6.56553E-19
 -1      2076 9.51015E-05-2.81694E-05-2.86862E-05 1.61151E-07-6.62232E-20-1.64741E-18
 -1      2077 9.51210E-05-2.82140E-05-2.86744E-05 1.71238E-07-7.32259E-19-3.00416E-19
 -1      2078 9.51302E-05-2.82457E-05-2.86648E-05 2.23558E-07 2.32250E-19-1.42524E-18
 -1      2079 9.50667E-05-2.80938E-05-2.87041E-05 1.21362E-07 1.08204E-18-2.27732E-18
 -1      2080 9.50832E-05-2.81293E-05-2.86948E-05 1.41709E-07 6.97266E-19-2.37640E-18
 -1      2081 9.50856E-05-2.81596E-05-2.86822E-05 1.95292E-07 8.86939E-20-1.03263E-18
 -1      2082 9.50410E-05-2.80418E-05-2.87157E-05 5.96959E-08-3.02029E-19 1.60484E-18
 -1      2083 9.50517E-05-2.80622E-05-2.87104E-05 8.90175E-08 7.36625E-20 3.83891E-20
 -1      2084 9.50456E-05-2.80853E-05-2.86964E-05 1.37503E-07 4.71713E-19-1.69982E-18
 -1      2085 9.50302E-05-2.80235E-05-2.87189E-05-1.76934E-08 1.17212E-18 6.79007E-19
 -1      2086 9.50322E-05-2.80243E-05-2.87187E-05 1.72005E-08 6.05353E-19 2.27592E-18
 -1      2087 9.50168E-05-2.80342E-05-2.87055E-05 5.34244E-08-1.83154E-19 3.18286E-18
 -1      2088 9.50388E-05-2.80455E-05-2.87128E-05-9.93967E-08 1.23109E-18 4.81263E-19
 -1      2089 9.50304E-05-2.80247E-05-2.87180E-05-6.46012E-08 9.43307E-19 6.58994E-20
 -1      2090 9.50064E-05-2.80169E-05-2.87081E-05-4.75720E-08 2.39175E-19 3.84121E-19
 -1      2091 9.50679E-05-2.81067E-05-2.86984E-05-1.68761E-07 1.87460E-18-2.10770E-18
 -1      2092 9.50495E-05-2.80670E-05-2.87082E-05-1.41634E-07 1.02943E-18-5.62265E-19
 -1      2093 9.50202E-05-2.80403E-05-2.87039E-05-1.48874E-07 1.01769E-18-7.80891E-20
 -1      2094 9.51159E-05-2.82017E-05-2.86774E-05-2.11535E-07 2.30122E-18 4.48931E-18
 -1      2095 9.50892E-05-2.81478E-05-2.86905E-05-1.98289E-07 1.00792E-18 1.44588E-18
 -1      2096 9.50595E-05-2.81051E-05-2.86933E-05-2.31190E-07 1.29030E-18-1.30028E-18
 -1      2097 9.51745E-05-2.83149E-05-2.86532E-05-2.13052E-07-4.28569E-19-1.85809E-18
 -1      2098 9.51447E-05-2.82567E-05-2.86673E-05-2.19237E-07 6.18063E-19 7.11233E-19
 -1      2099 9.51212E-05-2.82050E-05-2.86775E-05-2.75162E-07 5.50332E-19 1.90052E-18
 -1      2100 9.52304E-05-2.84262E-05-2.86291E-05-1.68814E-07-2.21468E-18-1.41991E-18
 -1      2101 9.52053E-05-2.83748E-05-2.86421E-05-1.95154E-07-1.75867E-18-2.07585E-18
 -1      2102 9.51937E-05-2.83241E-05-2.86582E-05-2.65810E-07-2.43108E-18-2.49275E-18
 -1      2103 9.36473E-05-2.73425E-05-2.83716E-05 2.01813E-06 3.59228E-19 2.56190E-18
 -1      2104 9.47415E-05-2.73433E-05-2.88248E-05 3.12170E-06 4.16727E-19 2.70608E-18
 -1      2105 9.54814E-05-2.68431E-05-2.94179E-05 4.52605E-06 4.59886E-19 2.10791E-18
 -1      2106 9.44213E-05-2.71741E-05-2.88336E-05 2.48536E-06 3.92547E-19 1.87783E-18
 -1      2107 6.46001E-05-3.88318E-05-1.13050E-05 4.90874E-05 8.30092E-20 5.08717E-18
 -1      2108 4.88749E-05-4.15879E-05-4.19943E-06 4.24955E-05-3.64224E-20 2.53665E-18
 -1      2109 1.44860E-04-3.72351E-05-4.50480E-05 4.48168E-05 2.19403E-18-5.22619E-19
 -1      2110 1.24880E-04-4.07663E-05-3.60503E-05 4.30852E-05 9.12678E-19 3.39660E-19
 -1      2111 1.70968E-04-6.80330E-05-4.40907E-05-7.55608E-06-7.37342E-19 2.36534E-19
 -1      2112 1.71980E-04-6.36980E-05-4.66725E-05-2.13841E-05-3.81191E-19 1.23942E-18
 -1      2113 8.72537E-05-8.72288E-06-3.37516E-05-1.05358E-05-1.77526E-19-1.09433E-18
 -1      2114 8.79564E-05-9.24045E-06-3.38226E-05-1.20917E-05-2.99208E-19-1.01717E-18
 -1      2115 9.04868E-05-1.30488E-05-3.32368E-05-1.18695E-05-3.59367E-19-9.11791E-19
 -1      2116 8.86923E-05-1.10559E-05-3.32984E-05-9.40742E-06-1.02858E-19-9.59993E-19
 -1      2117 1.73644E-04-3.46212E-05-5.87157E-05 2.91538E-05 1.99153E-18-2.09810E-18
 -1      2118 1.56549E-04-3.46796E-05-5.18563E-05 3.55159E-05 2.79108E-18-1.15493E-18
 -1      2119 1.85486E-04-2.53256E-05-6.80009E-05 9.68533E-06 2.72067E-18-3.48342E-18
 -1      2120 1.79718E-04-2.81158E-05-6.40382E-05 1.90593E-05 2.15655E-18-2.59023E-18
 -1      2121 1.95473E-04-2.34870E-05-7.21991E-05-1.91020E-06 3.24329E-18-4.66498E-18
 -1      2122 1.84747E-04-1.94510E-05-7.03237E-05 5.48104E-06 3.51815E-18-3.45039E-18
 -1      2123 1.83426E-04-2.39168E-05-6.79004E-05-1.28400E-05 2.56947E-18-4.97505E-18
 -1      2124 1.94867E-04-2.56212E-05-7.13351E-05-6.07806E-06 2.90236E-18-4.94657E-18
 -1      2125 1.67891E-04-1.08110E-05-6.63093E-05 1.46633E-07 3.07261E-18-3.40063E-18
 -1      2126 1.65870E-04-3.24705E-05-5.69618E-05-2.62967E-05 1.76760E-18-5.75389E-18
 -1      2127 1.80832E-04-3.12777E-05-6.32759E-05-1.94796E-05 2.14553E-18-4.63496E-18
 -1      2128 1.36752E-04-3.96336E-05-4.19145E-05-3.87250E-05 2.19593E-18-5.26854E-18
 -1      2129 1.57252E-04-3.90350E-05-5.00449E-05-3.61603E-05 1.83880E-18-5.54044E-18
 -1      2130 9.95696E-05-4.13083E-05-2.57659E-05-4.59767E-05 2.75752E-18-3.88958E-18
 -1      2131 1.20577E-04-3.91591E-05-3.44752E-05-4.92591E-05 2.74185E-18-4.89077E-18
 -1      2132 6.90024E-05-4.32089E-05-1.14561E-05-4.78867E-05 1.94987E-18-3.23045E-18
 -1      2133 8.47180E-05-4.03209E-05-1.89435E-05-5.09938E-05 2.94175E-18-3.49613E-18
 -1      2134 2.94272E-05-4.06216E-05 3.18801E-06-3.33685E-05 6.93720E-19-3.85464E-18
 -1      2135 4.32062E-05-3.66961E-05-3.49076E-06-4.39473E-05 1.16128E-18-3.75754E-18
 -1      2136 1.24722E-05-3.77828E-05 9.35301E-06-1.77302E-05 1.92488E-19-2.35518E-18
 -1      2137 1.81171E-05-3.66836E-05 6.76665E-06-2.64087E-05 4.24787E-19-2.85111E-18
 -1      2138 2.71740E-05-2.98440E-05 7.16361E-07-3.67384E-05 2.50934E-19-3.90779E-18
 -1      2139 1.34689E-05-3.94833E-05 9.46697E-06 3.75583E-06-1.21549E-19-2.96462E-21
 -1      2140 9.91244E-06-3.71067E-05 1.01598E-05-5.09125E-06 5.90329E-19-1.31502E-18
 -1      2141 3.39000E-05-4.29723E-05 2.28043E-06 2.17114E-05-8.16963E-19-1.03973E-19
 -1      2142 2.25169E-05-4.39251E-05 7.06386E-06 1.28432E-05-1.01644E-18 6.61109E-19
 -1      2143 7.77786E-05-5.10017E-05-1.25525E-05 3.42352E-05 2.06676E-19-6.02664E-19
 -1      2144 5.63052E-05-5.02738E-05-4.65154E-06 2.68913E-05-1.70677E-19-2.60357E-19
 -1      2145 1.30178E-04-5.95370E-05-3.07796E-05 3.14714E-05-1.54160E-18 1.58141E-18
 -1      2146 1.00378E-04-5.74596E-05-2.05542E-05 2.82984E-05-6.91179E-19 5.49301E-19
 -1      2147 1.83794E-04-6.55764E-05-5.00414E-05 1.23336E-05-1.06684E-18 4.04035E-19
 -1      2148 1.53673E-04-6.34530E-05-3.97975E-05 1.74292E-05-1.57421E-18 1.24514E-18
 -1      2149 2.18313E-04-5.76105E-05-6.64240E-05-4.63809E-06 3.25261E-19-3.15096E-19
 -1      2150 1.95850E-04-5.81594E-05-5.83270E-05-4.41036E-06 1.16255E-19-9.51218E-19
 -1      2151 2.18408E-04-4.29246E-05-7.27780E-05-1.01273E-05 7.22519E-19 1.64748E-19
 -1      2152 2.17108E-04-4.73854E-05-7.00288E-05-8.80320E-06 6.03511E-19 1.46537E-19
 -1      2153 1.95438E-04-3.66010E-05-6.75373E-05-1.70636E-06 1.03846E-18 4.67562E-19
 -1      2154 1.76962E-04-6.26064E-05-4.91915E-05-7.85779E-06-4.01494E-19-1.14011E-18
 -1      2155 2.01806E-04-6.27881E-05-5.80024E-05-1.63935E-06 1.39760E-19-8.34327E-19
 -1      2156 1.27062E-04-6.06782E-05-3.01650E-05-2.44954E-05-1.66315E-18-7.84353E-19
 -1      2157 1.58390E-04-6.32159E-05-4.07395E-05-2.45553E-05-1.06938E-18-1.30358E-18
 -1      2158 7.88213E-05-5.46881E-05-1.22364E-05-2.96725E-05-1.56828E-18-5.81276E-19
 -1      2159 1.04287E-04-5.63059E-05-2.14506E-05-3.41300E-05-1.71609E-18-7.87317E-19
 -1      2160 3.36851E-05-4.55830E-05 2.93745E-06-1.98141E-05-6.16640E-19 1.45012E-18
 -1      2161 5.08742E-05-4.45866E-05-3.90901E-06-3.00793E-05-6.88214E-19 9.85523E-19
 -1      2162 1.31378E-05-4.01942E-05 9.82031E-06-3.29863E-06-1.42619E-19-3.99800E-19
 -1      2163 1.96955E-05-4.02433E-05 7.25254E-06-1.19330E-05-4.44269E-19 2.60463E-19
 -1      2164 1.83656E-04-6.03603E-05-5.32326E-05-2.89590E-05 2.31452E-19 5.27490E-19
 -1      2165 1.77671E-04-4.73694E-05-5.59977E-05-3.07993E-05 4.13776E-19 7.94305E-19
 -1      2166 1.04199E-04-4.28941E-05-2.64380E-05 4.95711E-05 2.24464E-19 1.04312E-18
 -1      2167 8.19296E-05-4.35086E-05-1.75561E-05 4.60673E-05-2.05405E-19 3.53340E-18
 -1      2168 8.65272E-05-4.83002E-05-1.63640E-05 5.11833E-05-1.54838E-18 2.64753E-18
 -1      2169 2.93072E-05-3.47131E-05 1.66575E-06 3.66930E-05 6.92026E-19 2.74269E-18
 -1      2170 2.02712E-05-3.86664E-05 6.45920E-06 2.72859E-05-7.03037E-20 2.50976E-18
 -1      2171 1.25525E-05-2.52745E-05 4.65050E-06 2.83787E-08 5.50148E-19-1.32645E-18
 -1      2172 9.71749E-05-2.43108E-05-3.13009E-05-9.99941E-06-6.29134E-19-1.91774E-19
 -1      2173 1.80935E-05-2.54524E-05 2.62666E-06 2.67684E-05-7.05155E-20 2.29419E-18
 -1      2174 1.54013E-04-4.38093E-05-4.64673E-05 2.49249E-05 1.10495E-18-2.83205E-18
 -1      2175 9.63392E-05-2.31032E-05-3.14529E-05-1.03804E-05-6.51355E-19-4.56220E-19
 -1      2176 1.50781E-04-5.68655E-05-3.96597E-05 1.43976E-05 4.20022E-19 5.31619E-19
 -1      2177 1.55984E-04-6.17874E-05-4.03501E-05 5.56068E-06-4.71268E-19 5.84218E-19
 -1      2178 2.22352E-04-5.39482E-05-6.87295E-05 8.88043E-06 4.94244E-19-1.28325E-18
 -1      2179 1.77067E-04-4.85025E-05-5.58696E-05 2.86506E-05 6.18334E-20 4.98479E-19
 -1      2180 1.51787E-04-6.46358E-05-3.74162E-05-9.83468E-06-1.56172E-18-7.97534E-20
 -1      2181 1.82391E-04-5.91623E-05-5.31240E-05 2.75280E-05-2.51145E-19 6.25534E-19
 -1      2182 9.52738E-05-2.85322E-05-2.86040E-05-8.04783E-08-1.11552E-18-1.40729E-18
 -1      2183 9.52558E-05-2.84997E-05-2.86097E-05 1.39147E-07 2.79377E-19 1.99098E-19
 -1      2184 1.57776E-04-6.75226E-05-3.87705E-05 4.98675E-06-6.41627E-19 9.30783E-19
 -1      2185 9.52620E-05-2.84990E-05-2.86115E-05-1.12510E-07-1.60051E-18-1.43129E-18
 -1      2186 9.52507E-05-2.84657E-05-2.86219E-05-1.46452E-07-1.67833E-18-8.39432E-19
 -1      2187 9.52530E-05-2.84255E-05-2.86408E-05-2.19331E-07-2.46877E-18-1.12771E-18
 -1      2188 9.52972E-05-2.85009E-05-2.86259E-05-1.60653E-07-2.82029E-18-5.96167E-19
 -1      2189 4.73269E-05-3.62380E-05-5.00682E-06 4.69532E-05-8.56774E-19 2.11864E-18
 -1      2190 1.35894E-04-5.59360E-05-3.49870E-05 3.32589E-05-1.52889E-18-2.05956E-18
 -1      2191 1.21097E-04-4.91269E-05-3.08344E-05 4.24959E-05-5.96311E-19-3.42201E-19
 -1      2192 1.18498E-04-5.55530E-05-2.63529E-05 4.25557E-05-2.19974E-18-1.90964E-18
 -1      2193 1.84527E-04-6.59252E-05-5.07680E-05-1.79229E-05-2.04929E-19 8.34327E-20
 -1      2194 3.21898E-05-3.47120E-05 1.95323E-07-2.40493E-05-1.00797E-19 1.23159E-18
 -1      2195 7.75486E-05-5.19088E-05-1.17194E-05-3.48503E-05-3.25684E-19-7.51742E-21
 -1      2196 1.31451E-04-6.77186E-05-2.79422E-05-2.55214E-05-1.29808E-18-1.00331E-18
 -1      2197 1.97352E-04-4.77208E-05-6.24399E-05-2.42633E-05 1.19432E-19 5.07796E-19
 -1      2198 1.53365E-04-7.07430E-05-3.58478E-05 1.51270E-05-1.25615E-18 1.85881E-18
 -1      2199 1.05097E-04-6.15021E-05-1.95644E-05 3.31516E-05 4.87891E-19 7.61906E-19
 -1      2200 5.56702E-05-4.42918E-05-5.72665E-06 3.28843E-05 5.70053E-19 7.21884E-19
 -1      2201 1.20257E-05-2.56086E-05 5.05632E-06-1.23418E-05 9.85099E-19-1.92827E-18
 -1      2202 6.22554E-05-4.12883E-05-9.17729E-06-4.88741E-05 1.41200E-18-3.48289E-18
 -1      2203 8.12164E-05-4.65696E-05-1.52518E-05-5.19010E-05 1.36775E-18-4.23522E-18
 -1      2204 5.69201E-05-3.64056E-05-8.16321E-06-5.03993E-05 1.40502E-18-4.06830E-18
 -1      2205 1.06953E-04-5.19729E-05-2.37605E-05-4.73948E-05 2.01297E-18-3.58909E-18
 -1      2206 1.39070E-04-5.09672E-05-3.72781E-05-3.40463E-05 1.38617E-18-4.00774E-18
 -1      2207 1.68278E-04-2.27666E-05-6.14667E-05-3.05744E-06 2.34459E-18-3.18019E-18
 -1      2208 1.68000E-04-3.03350E-05-5.80365E-05 1.05133E-05 1.92531E-18-2.76980E-18
 -1      2209 1.74458E-04-1.78758E-05-6.64348E-05 2.95239E-06 3.28479E-18-3.92790E-18
 -1      2210 1.58144E-04-1.49794E-05-6.13387E-05-1.65666E-06 3.23122E-18-3.50566E-18
 -1      2211 1.55973E-04-8.94603E-06-6.34536E-05-2.91441E-06 2.75074E-18-3.16250E-18
 -1      2212 1.75860E-04-4.22959E-05-5.82878E-05-2.62573E-05 3.36272E-19 5.26431E-19
 -1      2213 1.71381E-04-3.13235E-05-5.97795E-05-9.49876E-06-1.90582E-19-2.02335E-19
 -1      2214 1.60139E-04-4.05061E-05-5.05300E-05-1.46444E-05 1.20655E-18-4.06745E-18
 -1      2215 2.06845E-05-3.07495E-05 3.29570E-06 1.46409E-05 2.01382E-19 7.70800E-20
 -1      2216 1.74560E-04-7.07792E-05-4.41480E-05-1.73217E-06-1.11639E-18-9.35124E-19
 -1      2217 2.06598E-04-5.94704E-05-6.20273E-05 5.10466E-06 5.86782E-19-1.62969E-18
 -1      2218 1.93499E-04-6.20187E-05-5.49137E-05 1.84358E-05 2.02441E-19-7.90282E-19
 -1      2219 1.28321E-04-5.11575E-05-3.30557E-05 2.55582E-05 3.55754E-19 7.87767E-19
 -1      2220 8.81429E-05-1.11746E-05-3.30257E-05-3.65525E-06 2.78908E-19-7.87019E-19
 -1      2221 8.83764E-05-1.14452E-05-3.30074E-05-4.79549E-06 1.85246E-19-8.84984E-19
 -1      2222 8.87264E-05-1.19284E-05-3.29583E-05-5.81222E-06 1.07620E-19-9.13346E-19
 -1      2223 8.91328E-05-1.24024E-05-3.29292E-05-6.98367E-06 2.83041E-20-8.71405E-19
 -1      2224 8.98949E-05-1.38125E-05-3.26056E-05-4.89617E-06 1.65850E-19-8.23597E-19
 -1      2225 8.77958E-05-1.07133E-05-3.30694E-05 6.16175E-07 5.81309E-19-5.86974E-19
 -1      2226 8.77918E-05-1.07087E-05-3.30697E-05-4.93429E-07 4.82176E-19-6.54604E-19
 -1      2227 8.79761E-05-1.09385E-05-3.30505E-05 2.75508E-06 6.30425E-19-3.96001E-19
 -1      2228 8.78616E-05-1.08052E-05-3.30601E-05 1.63711E-06 5.86367E-19-5.06943E-19
 -1      2229 8.91112E-05-1.27559E-05-3.27268E-05 1.04926E-06 5.47107E-19-5.03237E-19
 -1      2230 8.84097E-05-1.14870E-05-3.30045E-05 4.88164E-06 8.15565E-19-1.81642E-19
 -1      2231 8.81706E-05-1.12095E-05-3.30230E-05 3.75958E-06 7.04409E-19-3.13581E-19
 -1      2232 8.93764E-05-1.31124E-05-3.26863E-05 3.01664E-06 6.31463E-19-3.01769E-19
 -1      2233 8.91887E-05-1.24721E-05-3.29243E-05 7.06681E-06 9.45103E-19 8.63378E-20
 -1      2234 8.87708E-05-1.19843E-05-3.29542E-05 5.89574E-06 8.59230E-19-1.04456E-19
 -1      2235 8.99331E-05-1.38620E-05-3.26009E-05 4.96737E-06 7.80766E-19-5.15069E-20
 -1      2236 9.04578E-05-1.40845E-05-3.27956E-05 9.21403E-06 1.03216E-18 4.69508E-19
 -1      2237 8.97781E-05-1.32733E-05-3.28418E-05 8.03650E-06 9.34542E-19 2.36256E-19
 -1      2238 9.08693E-05-1.51250E-05-3.24546E-05 6.85958E-06 8.86869E-19 1.72841E-19
 -1      2239 9.24515E-05-1.66846E-05-3.25731E-05 1.10500E-05 1.01095E-18 9.20447E-19
 -1      2240 9.13590E-05-1.53083E-05-3.26572E-05 1.00317E-05 1.01919E-18 6.48993E-19
 -1      2241 9.22935E-05-1.70847E-05-3.22117E-05 8.51815E-06 9.36144E-19 5.96728E-19
 -1      2242 9.54907E-05-2.08188E-05-3.20962E-05 1.16978E-05 9.34019E-19 1.54978E-18
 -1      2243 9.38045E-05-1.84775E-05-3.23212E-05 1.14636E-05 9.76768E-19 1.19379E-18
 -1      2244 9.43337E-05-2.00383E-05-3.17912E-05 9.47600E-06 8.82373E-19 1.06015E-18
 -1      2245 9.74989E-05-2.45922E-05-3.13088E-05 9.84161E-06 7.15266E-19 2.05040E-18
 -1      2246 9.62648E-05-2.22256E-05-3.17280E-05 1.10866E-05 8.69109E-19 1.73713E-18
 -1      2247 9.58034E-05-2.31938E-05-3.11168E-05 8.78616E-06 8.16871E-19 1.44612E-18
 -1      2248 9.63084E-05-2.56664E-05-3.02816E-05 6.87471E-06 6.26791E-19 1.84560E-18
 -1      2249 9.59038E-05-2.50877E-05-3.03038E-05-6.18676E-06-4.77965E-19-4.29173E-19
 -1      2250 9.52507E-05-2.58429E-05-2.97603E-05-4.26514E-06-4.06900E-19-4.09885E-19
 -1      2251 2.64390E-05-1.90718E-05-2.85154E-06 3.36886E-05-3.48554E-19 2.06507E-18
 -1      2252 1.86152E-05-1.55677E-05-8.16992E-07 1.98401E-05 5.20237E-19 9.17760E-19
 -1      2253 9.51391E-05-2.65362E-05-2.93441E-05-2.92963E-06-4.23090E-19-2.65568E-19
 -1      2254 9.46705E-05-2.69050E-05-2.90422E-05-1.86618E-06-3.82730E-19-2.85573E-19
 -1      2255 9.53435E-05-2.53684E-05-2.99962E-05-4.28269E-06-3.99319E-19-2.90360E-19
 -1      2256 9.44758E-05-2.72315E-05-2.87806E-05-1.00996E-06-2.90551E-19-1.88462E-19
 -1      2257 9.42209E-05-2.74439E-05-2.86161E-05-4.03367E-07-1.60576E-19-1.88990E-19
 -1      2258 9.50358E-05-2.66925E-05-2.93037E-05-1.90249E-06-3.00856E-19-1.26137E-19
 -1      2259 9.40767E-05-2.76241E-05-2.84570E-05 1.11660E-07-1.58477E-19-1.91981E-19
 -1      2260 9.39845E-05-2.77674E-05-2.83759E-05 4.48171E-07-1.40291E-19-1.85769E-19
 -1      2261 9.47372E-05-2.74161E-05-2.88649E-05-4.09800E-07-2.12487E-19-1.87141E-19
 -1      2262 9.39052E-05-2.78759E-05-2.82856E-05 7.40178E-07-1.09570E-19-1.77784E-19
 -1      2263 9.39198E-05-2.79822E-05-2.82563E-05 9.14224E-07-1.84726E-19-1.31838E-19
 -1      2264 9.45457E-05-2.78419E-05-2.85979E-05 4.77985E-07-1.77529E-19-2.00312E-19
 -1      2265 9.38958E-05-2.80525E-05-2.82119E-05 1.06532E-06-2.74747E-19-2.73563E-19
 -1      2266 9.39759E-05-2.81355E-05-2.82148E-05 1.14208E-06-3.40837E-19-3.64962E-19
 -1      2267 9.44650E-05-2.81056E-05-2.84476E-05 9.73979E-07-2.53797E-19-1.10595E-19
 -1      2268 9.39916E-05-2.81825E-05-2.82011E-05 1.20714E-06-3.55771E-19-3.84039E-19
 -1      2269 9.41093E-05-2.82481E-05-2.82238E-05 1.22872E-06-3.19021E-19-4.96806E-19
 -1      2270 9.44720E-05-2.82743E-05-2.83759E-05 1.22339E-06-4.25973E-19-2.35164E-19
 -1      2271 9.41511E-05-2.82786E-05-2.82305E-05 1.24602E-06-4.21019E-19-5.14678E-19
 -1      2272 9.42888E-05-2.83297E-05-2.82657E-05 1.24136E-06-4.68567E-19-4.48606E-19
 -1      2273 9.45392E-05-2.83804E-05-2.83575E-05 1.32605E-06-4.20152E-19-2.46608E-19
 -1      2274 9.43466E-05-2.83469E-05-2.82865E-05 1.23869E-06-2.86340E-19-2.65175E-19
 -1      2275 9.44951E-05-2.83851E-05-2.83299E-05 1.22923E-06-1.53037E-19-1.23347E-19
 -1      2276 9.46443E-05-2.84404E-05-2.83756E-05 1.35303E-06-2.82235E-19-1.96900E-19
 -1      2277 9.45617E-05-2.83899E-05-2.83611E-05 1.22811E-06-1.10577E-19-1.03292E-19
 -1      2278 9.47177E-05-2.84158E-05-2.84113E-05 1.23148E-06 3.56984E-19-1.65401E-19
 -1      2279 9.47711E-05-2.84619E-05-2.84199E-05 1.35737E-06-8.06446E-20 5.15388E-20
 -1      2280 9.47880E-05-2.84068E-05-2.84515E-05 1.25044E-06 4.94683E-19-1.15609E-19
 -1      2281 9.49530E-05-2.84199E-05-2.85090E-05 1.28352E-06 4.58689E-19 1.78188E-19
 -1      2282 9.49080E-05-2.84462E-05-2.84848E-05 1.38189E-06 3.62419E-19-1.11214E-19
 -1      2283 9.50222E-05-2.83931E-05-2.85583E-05 1.34092E-06 3.96068E-19 2.22413E-19
 -1      2284 9.52016E-05-2.83908E-05-2.86258E-05 1.42270E-06 4.82657E-19 2.41809E-19
 -1      2285 9.50455E-05-2.83877E-05-2.85683E-05 1.46561E-06 5.30947E-19 7.00196E-20
 -1      2286 9.52630E-05-2.83382E-05-2.86859E-05 1.53975E-06 2.04566E-19 2.18409E-19
 -1      2287 9.54664E-05-2.83154E-05-2.87681E-05 1.69434E-06 1.97025E-19 4.83703E-19
 -1      2288 9.51726E-05-2.82723E-05-2.86716E-05 1.64950E-06 3.43368E-19-2.34977E-19
 -1      2289 9.55110E-05-2.82175E-05-2.88453E-05 1.90932E-06 9.44723E-20 3.67477E-19
 -1      2290 9.57579E-05-2.81597E-05-2.89549E-05 2.18997E-06-1.69933E-19 3.02274E-19
 -1      2291 9.52738E-05-2.80688E-05-2.88016E-05 1.99436E-06-4.31826E-20-3.84062E-19
 -1      2292 9.57559E-05-2.80002E-05-2.90458E-05 2.52368E-06-7.76326E-20 5.61191E-19
 -1      2293 9.60382E-05-2.78976E-05-2.91813E-05 2.95094E-06-2.14753E-20 4.45247E-19
 -1      2294 9.53117E-05-2.77297E-05-2.89601E-05 2.56182E-06-6.32318E-20-3.36375E-19
 -1      2295 9.59550E-05-2.76370E-05-2.92910E-05 3.45991E-06-3.20815E-19 3.86206E-19
 -1      2296 9.62905E-05-2.74615E-05-2.94677E-05 4.11466E-06-1.53849E-19 5.54364E-19
 -1      2297 9.52262E-05-2.71998E-05-2.91460E-05 3.41999E-06-6.57617E-20-1.03561E-19
 -1      2298 9.60548E-05-2.70457E-05-2.95944E-05 4.86563E-06-5.54046E-21 3.03579E-19
 -1      2299 9.64433E-05-2.67632E-05-2.98217E-05 5.84012E-06 8.49548E-20 4.08837E-19
 -1      2300 9.49136E-05-2.63702E-05-2.93592E-05 4.68873E-06-3.20973E-19-6.99778E-20
 -1      2301 9.59403E-05-2.61217E-05-2.99527E-05 6.91686E-06-1.19622E-19 5.86978E-19
 -1      2302 9.63662E-05-2.56988E-05-3.02331E-05 8.32175E-06-2.00164E-19 4.30447E-19
 -1      2303 9.41967E-05-2.51062E-05-2.95792E-05 6.50334E-06-1.77096E-19-1.03909E-19
 -1      2304 9.54253E-05-2.47621E-05-3.03316E-05 9.82080E-06-2.31296E-19 2.86121E-19
 -1      2305 9.58593E-05-2.42025E-05-3.06457E-05 1.17594E-05-1.52539E-19 3.35169E-19
 -1      2306 9.28012E-05-2.32632E-05-2.97476E-05 9.01507E-06-2.40106E-19-1.48770E-19
 -1      2307 9.42709E-05-2.29684E-05-3.06256E-05 1.37804E-05-2.84550E-22 5.20371E-19
 -1      2308 9.47147E-05-2.24241E-05-3.09037E-05 1.62790E-05 5.30865E-19 2.23630E-19
 -1      2309 9.03538E-05-2.07791E-05-2.97271E-05 1.23704E-05-1.66296E-19-2.20113E-20
 -1      2310 9.23359E-05-2.11319E-05-3.05878E-05 1.89166E-05 7.94814E-19-1.01578E-19
 -1      2311 9.30194E-05-2.11919E-05-3.06684E-05 2.17920E-05 7.77583E-19-2.53974E-19
 -1      2312 8.64777E-05-1.79333E-05-2.92318E-05 1.66980E-05 3.86947E-19 5.01548E-19
 -1      2313 9.00599E-05-2.06465E-05-2.97352E-05 2.51475E-05 1.20799E-18-2.64804E-19
 -1      2314 9.17198E-05-2.29015E-05-2.92901E-05 2.78981E-05 1.06712E-18-9.05134E-20
 -1      2315 8.10894E-05-1.59561E-05-2.77263E-05 2.20655E-05 1.10190E-18-2.81956E-19
 -1      2316 9.47543E-05-2.72101E-05-2.87046E-05 3.14169E-05 1.04439E-18-1.41349E-19
 -1      2317 9.91189E-05-3.34301E-05-2.78882E-05 3.25665E-05 9.14372E-19 4.90379E-19
 -1      2318 1.54870E-04-4.52136E-05-4.73869E-05 1.29524E-05 5.39388E-19-3.07240E-18
 -1      2319 1.47431E-04-5.05813E-05-4.15539E-05 1.90395E-05-3.75871E-20-3.55034E-18
 -1      2320 6.08665E-05-3.62402E-05-1.04458E-05 5.13781E-05-2.13749E-18 1.40120E-18
 -1      2321 4.21040E-05-2.84932E-05-5.38495E-06 4.35576E-05-1.33111E-18 7.09814E-19
 -1      2322 9.52785E-05-2.85066E-05-2.86162E-05 1.69987E-07-2.60817E-19 6.30133E-19
 -1      2323 1.02528E-04-3.07565E-05-3.05894E-05-3.06442E-05 4.55174E-19-6.42872E-19
 -1      2324 9.79242E-05-2.55283E-05-3.07729E-05-2.88641E-05 5.74685E-19-1.11986E-18
 -1      2325 9.93564E-05-2.47826E-05-3.18182E-05-2.53648E-05-2.19186E-20-1.91794E-18
 -1      2326 9.71128E-05-2.34548E-05-3.15924E-05-2.26223E-05 3.81425E-19-2.47763E-18
 -1      2327 8.55096E-05-1.97579E-05-2.79084E-05-2.75205E-05 1.89285E-19-8.72920E-19
 -1      2328 9.88330E-05-2.40773E-05-3.19348E-05-1.94451E-05 1.42727E-18-2.52741E-18
 -1      2329 9.73759E-05-2.40247E-05-3.14929E-05-1.66718E-05 1.10086E-18-2.51129E-18
 -1      2330 8.87000E-05-1.91248E-05-2.96767E-05-2.10320E-05 7.18317E-19-2.71978E-18
 -1      2331 9.86905E-05-2.50411E-05-3.14794E-05-1.41284E-05 1.19556E-18-1.94629E-18
 -1      2332 9.75914E-05-2.53136E-05-3.10197E-05-1.18438E-05 8.48492E-19-1.66331E-18
 -1      2333 9.18079E-05-2.10401E-05-3.02385E-05-1.55495E-05 1.22834E-18-2.18108E-18
 -1      2334 9.83779E-05-2.61834E-05-3.08691E-05-9.92388E-06-1.08095E-18-1.29571E-18
 -1      2335 9.75067E-05-2.64562E-05-3.04773E-05-8.22527E-06-1.62641E-18-1.94780E-18
 -1      2336 9.39034E-05-2.32685E-05-3.02161E-05-1.12035E-05-2.12218E-19-1.56893E-18
 -1      2337 9.78998E-05-2.70745E-05-3.02973E-05-6.83236E-06-2.04291E-18-2.45255E-18
 -1      2338 9.72178E-05-2.72708E-05-2.99927E-05-5.63635E-06-1.35926E-18-3.19104E-18
 -1      2339 9.50786E-05-2.50700E-05-2.99716E-05-7.91841E-06-2.18792E-18-1.88326E-18
 -1      2340 9.73710E-05-2.76737E-05-2.98284E-05-4.65337E-06-2.01207E-19-2.90818E-18
 -1      2341 9.68505E-05-2.77970E-05-2.96027E-05-3.83621E-06-8.08486E-20-2.93203E-18
 -1      2342 9.56323E-05-2.63421E-05-2.96791E-05-5.52404E-06-7.42593E-19-3.98928E-19
 -1      2343 9.68752E-05-2.80468E-05-2.94681E-05-3.15501E-06 2.21373E-19-3.13957E-18
 -1      2344 9.64870E-05-2.81179E-05-2.93054E-05-2.60539E-06-3.44226E-19-2.46933E-18
 -1      2345 9.58241E-05-2.71807E-05-2.94110E-05-3.82463E-06-6.77808E-20-6.57713E-19
 -1      2346 9.64517E-05-2.82675E-05-2.92011E-05-2.13816E-06-1.10179E-19-1.64942E-18
 -1      2347 9.61669E-05-2.83053E-05-2.90856E-05-1.77072E-06 2.43366E-19-7.42432E-19
 -1      2348 9.58286E-05-2.77117E-05-2.91902E-05-2.63905E-06 4.98256E-19-5.62835E-19
 -1      2349 9.61092E-05-2.83922E-05-2.90074E-05-1.45128E-06 7.76077E-19-3.96128E-19
 -1      2350 9.59027E-05-2.84100E-05-2.89262E-05-1.20508E-06 1.71251E-18-2.79377E-19
 -1      2351 9.57490E-05-2.80385E-05-2.90185E-05-1.81951E-06 7.49198E-19 9.66101E-19
 -1      2352 9.58417E-05-2.84584E-05-2.88689E-05-9.85721E-07 1.73228E-18-4.82757E-19
 -1      2353 9.56933E-05-2.84645E-05-2.88124E-05-8.18735E-07 1.61620E-18-7.49899E-19
 -1      2354 9.56411E-05-2.82344E-05-2.88894E-05-1.25381E-06 2.17358E-18 5.15133E-19
 -1      2355 9.56372E-05-2.84893E-05-2.87711E-05-6.65917E-07 2.41303E-18-1.43442E-19
 -1      2356 9.55312E-05-2.84886E-05-2.87322E-05-5.49560E-07 2.32892E-18 1.53018E-19
 -1      2357 9.55323E-05-2.83476E-05-2.87945E-05-8.60639E-07 2.24640E-18 1.19075E-18
 -1      2358 9.54826E-05-2.84996E-05-2.87029E-05-4.39941E-07-1.81132E-20-1.02032E-18
 -1      2359 9.54082E-05-2.84945E-05-2.86766E-05-3.56053E-07-1.93019E-18-1.38763E-18
 -1      2360 9.54338E-05-2.84088E-05-2.87261E-05-5.82378E-07 8.92856E-19-1.42259E-18
 -1      2361 9.53783E-05-2.85015E-05-2.86588E-05-2.83470E-07-2.05925E-18 2.03949E-20
 -1      2362 9.53267E-05-2.84966E-05-2.86402E-05-2.19178E-07-2.54462E-18-3.52686E-19
 -1      2363 9.53065E-05-2.84602E-05-2.86480E-05-2.54822E-07-2.18060E-18-6.97304E-19
 -1      2364 9.53599E-05-2.84390E-05-2.86804E-05-3.92519E-07-1.13448E-18-2.02298E-18
 -1      2365 9.37299E-05-2.78437E-05-2.82331E-05-7.05351E-07 1.76939E-19 1.02074E-18
 -1      2366 9.37555E-05-2.77285E-05-2.82795E-05-4.67195E-07 3.56728E-19 1.17998E-18
 -1      2367 9.38787E-05-2.76060E-05-2.83978E-05-7.67447E-08 4.15371E-19 1.17484E-18
 -1      2368 9.40489E-05-2.74515E-05-2.85104E-05 3.68844E-07 4.15536E-19 1.38603E-18
 -1      2369 9.44630E-05-2.76469E-05-2.86478E-05-8.76206E-08 4.59632E-19 1.01459E-18
 -1      2370 9.42461E-05-2.72308E-05-2.87146E-05 1.03818E-06 3.53874E-19 1.32274E-18
 -1      2371 9.46022E-05-2.69874E-05-2.89390E-05 1.84441E-06 4.01877E-19 1.28086E-18
 -1      2372 9.47457E-05-2.71380E-05-2.89897E-05 1.07364E-06 3.84143E-19 1.08522E-18
 -1      2373 9.37422E-05-2.80153E-05-2.81656E-05-1.03050E-06 1.05400E-19 8.05810E-19
 -1      2374 9.36787E-05-2.79228E-05-2.81715E-05-9.16884E-07 1.14961E-19 9.35085E-19
 -1      2375 9.43181E-05-2.79564E-05-2.84501E-05-7.57657E-07 2.05082E-19 9.40175E-19
 -1      2376 9.38582E-05-2.81479E-05-2.81592E-05-1.16859E-06 2.37086E-19 7.53325E-19
 -1      2377 9.37439E-05-2.80710E-05-2.81410E-05-1.12951E-06 1.25189E-19 7.70422E-19
 -1      2378 9.42890E-05-2.81585E-05-2.83482E-05-1.11051E-06 2.20802E-19 8.84696E-19
 -1      2379 9.40350E-05-2.82542E-05-2.81899E-05-1.19514E-06 1.33784E-19 9.40880E-19
 -1      2380 9.38951E-05-2.81893E-05-2.81581E-05-1.19903E-06 5.43726E-20 8.04643E-19
 -1      2381 9.43412E-05-2.82965E-05-2.83092E-05-1.26483E-06 2.27511E-19 7.02507E-19
 -1      2382 9.42433E-05-2.83420E-05-2.82419E-05-1.15929E-06 6.95519E-20 1.06850E-18
 -1      2383 9.40936E-05-2.82865E-05-2.82034E-05-1.18608E-06 6.65300E-20 8.88297E-19
 -1      2384 9.44456E-05-2.83940E-05-2.83106E-05-1.29956E-06 2.96634E-20 6.29131E-19
 -1      2385 9.44647E-05-2.84176E-05-2.83048E-05-1.09191E-06 3.06606E-19 1.07055E-18
 -1      2386 9.43145E-05-2.83687E-05-2.82638E-05-1.12946E-06 3.82832E-19 1.14997E-18
 -1      2387 9.45811E-05-2.84660E-05-2.83368E-05-1.26672E-06 1.73613E-19 5.50954E-19
 -1      2388 9.46886E-05-2.84872E-05-2.83714E-05-1.01002E-06 8.58319E-19 9.55095E-19
 -1      2389 9.45432E-05-2.84421E-05-2.83308E-05-1.05232E-06 7.03960E-19 1.12507E-18
 -1      2390 9.47344E-05-2.85239E-05-2.83769E-05-1.19890E-06 6.56280E-19 3.93733E-19
 -1      2391 9.49093E-05-2.85579E-05-2.84364E-05-9.18990E-07-8.99114E-20 6.49819E-19
 -1      2392 9.47719E-05-2.85131E-05-2.83983E-05-9.65305E-07 4.07435E-19 9.45054E-19
 -1      2393 9.48985E-05-2.85784E-05-2.84235E-05-1.11353E-06 5.75115E-19 1.03254E-18
 -1      2394 9.51238E-05-2.86373E-05-2.84953E-05-8.13384E-07 1.59871E-19 1.21348E-19
 -1      2395 9.49968E-05-2.85894E-05-2.84618E-05-8.67994E-07 8.18440E-20 1.03850E-19
 -1      2396 9.50712E-05-2.86409E-05-2.84705E-05-1.01500E-06 5.26010E-19 6.98634E-19
 -1      2397 9.53290E-05-2.87334E-05-2.85435E-05-6.76985E-07 3.86399E-19 3.23053E-21
 -1      2398 9.52162E-05-2.86791E-05-2.85169E-05-7.49234E-07 2.72960E-19-1.78238E-19
 -1      2399 9.52533E-05-2.87232E-05-2.85131E-05-8.95495E-07 3.95968E-19-4.87427E-20
 -1      2400 9.55196E-05-2.88535E-05-2.85759E-05-4.82747E-07 2.12453E-20 1.15038E-19
 -1      2401 9.54273E-05-2.87904E-05-2.85591E-05-5.86985E-07 1.26725E-19 2.17683E-19
 -1      2402 9.54470E-05-2.88383E-05-2.85467E-05-7.34974E-07 1.48403E-19 4.35114E-19
 -1      2403 9.56848E-05-2.90018E-05-2.85860E-05-1.93606E-07 6.81732E-19-3.48648E-19
 -1      2404 9.56237E-05-2.89298E-05-2.85829E-05-3.48511E-07 5.78013E-19-3.10205E-20
 -1      2405 9.56539E-05-2.89981E-05-2.85667E-05-5.01218E-07 2.21706E-19-2.02787E-19
 -1      2406 9.58052E-05-2.91756E-05-2.85665E-05 2.34408E-07 2.83706E-19 1.03401E-19
 -1      2407 9.57917E-05-2.90991E-05-2.85818E-05 7.88578E-09 4.17870E-19 3.28129E-20
 -1      2408 9.58714E-05-2.92106E-05-2.85685E-05-1.51012E-07 5.77670E-19-1.86859E-19
 -1      2409 9.58485E-05-2.93589E-05-2.85102E-05 8.44798E-07-9.25152E-20 2.37848E-19
 -1      2410 9.59063E-05-2.92899E-05-2.85488E-05 5.27813E-07 1.53562E-19 2.65910E-19
 -1      2411 9.60882E-05-2.94735E-05-2.85482E-05 3.65798E-07 2.12757E-19 8.97291E-20
 -1      2412 9.57665E-05-2.95159E-05-2.84110E-05 1.66696E-06-4.59149E-19 2.97137E-19
 -1      2413 9.59261E-05-2.94765E-05-2.84774E-05 1.25030E-06-1.34162E-19 2.51729E-19
 -1      2414 9.62776E-05-2.97653E-05-2.85031E-05 1.09708E-06-1.20941E-19 1.88294E-19
 -1      2415 9.54940E-05-2.95844E-05-2.82664E-05 2.69513E-06-2.83691E-19 8.47527E-19
 -1      2416 9.57900E-05-2.96092E-05-2.83632E-05 2.18997E-06-4.54671E-19 1.02944E-18
 -1      2417 9.63904E-05-3.00352E-05-2.84338E-05 2.07163E-06-5.63104E-19 3.37525E-19
 -1      2418 9.49549E-05-2.94764E-05-2.80800E-05 3.86184E-06-8.37082E-19 1.61804E-18
 -1      2419 9.54193E-05-2.96097E-05-2.82063E-05 3.31202E-06-3.41255E-19 1.36436E-18
 -1      2420 9.63495E-05-3.01945E-05-2.83453E-05 3.27356E-06-7.64296E-19 1.45774E-18
 -1      2421 9.40792E-05-2.90930E-05-2.78628E-05 5.01333E-06-8.47756E-19 1.59644E-18
 -1      2422 9.47290E-05-2.93784E-05-2.80129E-05 4.50436E-06-9.03837E-19 1.47499E-18
 -1      2423 9.60535E-05-3.01198E-05-2.82473E-05 4.61039E-06-8.44795E-19 1.56249E-18
 -1      2424 9.28375E-05-2.83603E-05-2.76337E-05 5.90273E-06-1.61999E-19 8.51106E-19
 -1      2425 9.36569E-05-2.88205E-05-2.77963E-05 5.55942E-06-4.42204E-19 1.25178E-18
 -1      2426 9.53987E-05-2.96779E-05-2.81539E-05 5.88498E-06-2.77936E-19 9.11320E-19
 -1      2427 9.12875E-05-2.72850E-05-2.74163E-05 6.22314E-06 6.83980E-19 1.38891E-18
 -1      2428 9.22107E-05-2.78948E-05-2.75757E-05 6.18632E-06 2.22488E-19 1.09595E-18
 -1      2429 9.43260E-05-2.87807E-05-2.80796E-05 6.79218E-06-1.01017E-20 9.33493E-19
 -1      2430 8.96134E-05-2.60060E-05-2.72341E-05 5.69584E-06 4.64906E-19 1.48264E-18
 -1      2431 9.05182E-05-2.66733E-05-2.73725E-05 6.07522E-06 9.31150E-19 1.45689E-18
 -1      2432 9.28869E-05-2.74617E-05-2.80339E-05 6.96880E-06 6.43096E-19 1.34393E-18
 -1      2433 8.81217E-05-2.47991E-05-2.71050E-05 4.19931E-06 1.33004E-19 1.71253E-18
 -1      2434 8.88476E-05-2.53745E-05-2.72060E-05 5.01557E-06 5.70275E-20 1.62494E-18
 -1      2435 9.12955E-05-2.59348E-05-2.80170E-05 6.11307E-06 1.59317E-19 1.70767E-18
 -1      2436 8.71662E-05-2.40014E-05-2.70394E-05 1.87890E-06 1.17152E-19 1.34392E-18
 -1      2437 8.75584E-05-2.43253E-05-2.70907E-05 3.02574E-06 2.38079E-19 1.54161E-18
 -1      2438 8.99118E-05-2.45753E-05-2.80187E-05 4.14486E-06 1.29180E-19 1.01123E-18
 -1      2439 8.70141E-05-2.38716E-05-2.70402E-05-8.41714E-07 1.19236E-19 1.81242E-18
 -1      2440 8.69799E-05-2.38430E-05-2.70357E-05 4.16123E-07 9.98275E-20 1.72190E-18
 -1      2441 8.91292E-05-2.37975E-05-2.80245E-05 1.31990E-06-1.33028E-19 1.60749E-18
 -1      2442 8.77205E-05-2.44578E-05-2.71055E-05-3.38714E-06-2.80547E-20 1.96890E-18
 -1      2443 8.72679E-05-2.40857E-05-2.70456E-05-2.27928E-06 6.90474E-19 2.08613E-18
 -1      2444 8.91991E-05-2.38661E-05-2.80242E-05-1.79552E-06 2.90295E-19 2.35093E-18
 -1      2445 8.90954E-05-2.55690E-05-2.72301E-05-5.24703E-06-3.76447E-19 1.09784E-18
 -1      2446 8.83300E-05-2.49681E-05-2.71220E-05-4.49486E-06-1.89175E-19 1.28007E-18
 -1      2447 9.00991E-05-2.47575E-05-2.80188E-05-4.51988E-06 2.23104E-19 2.17611E-18
 -1      2448 9.07945E-05-2.68751E-05-2.74046E-05-6.15581E-06-3.34707E-19-5.53781E-20
 -1      2449 8.98756E-05-2.62084E-05-2.72612E-05-5.84471E-06-2.76885E-19-6.54205E-20
 -1      2450 9.15445E-05-2.61711E-05-2.80201E-05-6.32501E-06 1.04961E-20 2.24455E-19
 -1      2451 9.24660E-05-2.80594E-05-2.76140E-05-6.13933E-06-6.34361E-20 4.00203E-19
 -1      2452 9.15504E-05-2.74695E-05-2.74520E-05-6.23044E-06-5.97675E-20-1.76008E-19
 -1      2453 9.31354E-05-2.76857E-05-2.80428E-05-7.01099E-06-3.38920E-19-4.01843E-19
 -1      2454 9.38640E-05-2.89271E-05-2.78385E-05-5.43414E-06 3.78276E-19-4.88429E-19
 -1      2455 9.30646E-05-2.84948E-05-2.76754E-05-5.80845E-06-2.29883E-19-7.64174E-20
 -1      2456 9.45297E-05-2.89451E-05-2.80960E-05-6.70491E-06 3.42159E-19-4.07189E-19
 -1      2457 9.48834E-05-2.94280E-05-2.80569E-05-4.35430E-06 7.89776E-20 5.45073E-19
 -1      2458 9.42568E-05-2.91690E-05-2.79076E-05-4.87057E-06 5.59348E-19-6.09914E-19
 -1      2459 9.55417E-05-2.97661E-05-2.81777E-05-5.72952E-06 1.79706E-19-1.33152E-18
 -1      2460 9.55321E-05-2.96156E-05-2.82512E-05-3.18117E-06 6.90621E-20 1.02476E-18
 -1      2461 9.50870E-05-2.95023E-05-2.81260E-05-3.71935E-06 1.60938E-19 1.00460E-18
 -1      2462 9.61424E-05-3.01397E-05-2.82776E-05-4.44554E-06-2.00552E-19-6.10264E-19
 -1      2463 9.58798E-05-2.95882E-05-2.84098E-05-2.10836E-06-5.25475E-20-6.48937E-20
 -1      2464 9.55949E-05-2.95756E-05-2.83133E-05-2.58906E-06 5.05721E-19 1.11077E-18
 -1      2465 9.64027E-05-3.01654E-05-2.83812E-05-3.14389E-06 5.70693E-20 4.30684E-19
 -1      2466 9.60135E-05-2.94436E-05-2.85281E-05-1.23573E-06 8.91266E-19-3.56918E-19
 -1      2467 9.58546E-05-2.94881E-05-2.84602E-05-1.62026E-06-7.35984E-20 3.43404E-20
 -1      2468 9.64294E-05-2.99779E-05-2.84757E-05-2.00569E-06 4.63752E-19 2.58845E-19
 -1      2469 9.60117E-05-2.92558E-05-2.86076E-05-5.90230E-07 6.60090E-20-1.20126E-19
 -1      2470 9.59432E-05-2.93247E-05-2.85649E-05-8.70594E-07 9.59172E-19-1.78197E-19
 -1      2471 9.63219E-05-2.96961E-05-2.85523E-05-1.11102E-06 3.05456E-19 2.42148E-19
 -1      2472 9.59344E-05-2.90711E-05-2.86538E-05-1.53817E-07 2.71592E-19-1.41195E-19
 -1      2473 9.59253E-05-2.91434E-05-2.86311E-05-3.40456E-07 2.38317E-19 5.63962E-19
 -1      2474 9.61543E-05-2.94025E-05-2.86075E-05-4.68690E-07 1.96301E-19 1.59374E-18
 -1      2475 9.58225E-05-2.89125E-05-2.86741E-05 1.12570E-07-5.85476E-19-6.54452E-20
 -1      2476 9.58487E-05-2.89773E-05-2.86661E-05 1.00977E-09-3.99049E-19-8.06965E-19
 -1      2477 9.59732E-05-2.91429E-05-2.86418E-05-4.74834E-08 3.28838E-19 1.18521E-18
 -1      2478 9.57015E-05-2.87870E-05-2.86764E-05 2.52595E-07 1.22532E-18-7.41267E-19
 -1      2479 9.57456E-05-2.88402E-05-2.86780E-05 1.96195E-07 6.08672E-19-1.09089E-18
 -1      2480 9.58039E-05-2.89356E-05-2.86583E-05 1.99755E-07 6.52957E-19-5.58199E-19
 -1      2481 9.55859E-05-2.86929E-05-2.86674E-05 3.05257E-07 3.84028E-19-8.00823E-19
 -1      2482 9.56363E-05-2.87343E-05-2.86745E-05 2.86640E-07 9.94673E-19-1.21984E-18
 -1      2483 9.56570E-05-2.87812E-05-2.86617E-05 3.20840E-07 6.86855E-19-9.14106E-19
 -1      2484 9.54830E-05-2.86245E-05-2.86528E-05 3.01292E-07-3.18141E-19-3.30613E-19
 -1      2485 9.55324E-05-2.86558E-05-2.86623E-05 3.07015E-07 2.73130E-19 5.44110E-20
 -1      2486 9.55351E-05-2.86717E-05-2.86564E-05 3.56623E-07-2.09090E-19-1.09400E-18
 -1      2487 9.53955E-05-2.85749E-05-2.86366E-05 2.62477E-07-1.79175E-18 8.32044E-19
 -1      2488 9.54396E-05-2.85985E-05-2.86463E-05 2.83209E-07-1.16292E-18 4.80506E-19
 -1      2489 9.54364E-05-2.85962E-05-2.86464E-05 3.38315E-07-1.05665E-18-1.60816E-20
 -1      2490 9.53236E-05-2.85387E-05-2.86211E-05 2.03595E-07-8.47708E-19 5.57995E-19
 -1      2491 9.53606E-05-2.85564E-05-2.86300E-05 2.32251E-07-1.22148E-18 1.09648E-18
 -1      2492 9.53569E-05-2.85439E-05-2.86347E-05 2.86954E-07-1.06831E-18 1.93770E-18
 -1      2493 9.51149E-05-2.82327E-05-2.86647E-05 2.66610E-07 1.93752E-19-9.40759E-19
 -1      2494 9.51424E-05-2.82765E-05-2.86561E-05 2.73263E-07 7.65993E-19-2.42287E-18
 -1      2495 9.51704E-05-2.83218E-05-2.86498E-05 2.71641E-07 4.14564E-19-8.05348E-19
 -1      2496 9.51957E-05-2.83639E-05-2.86414E-05 2.63588E-07 7.99730E-19-2.51650E-19
 -1      2497 9.51592E-05-2.83093E-05-2.86503E-05 3.18740E-07-7.65642E-20-1.60993E-18
 -1      2498 9.52195E-05-2.84041E-05-2.86352E-05 2.47825E-07 7.54140E-19 9.14716E-19
 -1      2499 9.52426E-05-2.84434E-05-2.86272E-05 2.28885E-07 3.93833E-19 5.76865E-19
 -1      2500 9.52184E-05-2.83957E-05-2.86387E-05 2.98353E-07 4.27437E-19-1.58045E-19
 -1      2501 9.50578E-05-2.81441E-05-2.86787E-05 2.28469E-07 2.68642E-19-8.45885E-19
 -1      2502 9.50850E-05-2.81846E-05-2.86711E-05 2.51067E-07-5.70078E-19 7.63464E-19
 -1      2503 9.50920E-05-2.82143E-05-2.86620E-05 3.05099E-07-3.93892E-19-4.02896E-19
 -1      2504 9.50057E-05-2.80662E-05-2.86901E-05 1.55355E-07 5.31181E-19-5.53830E-19
 -1      2505 9.50288E-05-2.80981E-05-2.86843E-05 1.93718E-07 7.07554E-19-1.96314E-18
 -1      2506 9.50229E-05-2.81179E-05-2.86732E-05 2.52894E-07-3.07959E-19-4.77549E-19
 -1      2507 9.49684E-05-2.80117E-05-2.86975E-05 5.12208E-08 1.91408E-19 4.17330E-18
 -1      2508 9.49824E-05-2.80292E-05-2.86944E-05 1.02281E-07-4.57409E-19 3.16528E-18
 -1      2509 9.49613E-05-2.80326E-05-2.86828E-05 1.60047E-07 9.48911E-19 4.71301E-19
 -1      2510 9.49564E-05-2.79930E-05-2.87002E-05-7.20842E-08 8.18451E-19 8.06677E-19
 -1      2511 9.49567E-05-2.79914E-05-2.87002E-05-1.50381E-08-8.26378E-20 2.02092E-18
 -1      2512 9.49201E-05-2.79733E-05-2.86900E-05 3.25191E-08 3.83794E-19 2.51820E-18
 -1      2513 9.49778E-05-2.80181E-05-2.86979E-05-1.92848E-07 1.06073E-18-2.05888E-18
 -1      2514 9.49615E-05-2.79959E-05-2.87009E-05-1.40608E-07 1.44426E-18 1.85454E-19
 -1      2515 9.49128E-05-2.79551E-05-2.86942E-05-1.12808E-07 1.26037E-18 3.44575E-19
 -1      2516 9.50355E-05-2.80898E-05-2.86909E-05-2.90556E-07 1.17178E-18-1.93186E-19
 -1      2517 9.50024E-05-2.80478E-05-2.86967E-05-2.52718E-07 1.07344E-18-2.34352E-18
 -1      2518 9.49484E-05-2.79879E-05-2.86953E-05-2.52739E-07 2.07903E-19-1.93515E-18
 -1      2519 9.51224E-05-2.82006E-05-2.86798E-05-3.39191E-07-1.55827E-18-6.28704E-19
 -1      2520 9.50775E-05-2.81444E-05-2.86877E-05-3.26567E-07 2.02822E-19 8.91522E-19
 -1      2521 9.50282E-05-2.80741E-05-2.86928E-05-3.59174E-07-2.14628E-20-1.20952E-18
 -1      2522 9.52223E-05-2.83340E-05-2.86650E-05-3.23665E-07-2.82349E-18-2.54254E-18
 -1      2523 9.51752E-05-2.82721E-05-2.86744E-05-3.41353E-07-2.14903E-18-2.77284E-18
 -1      2524 9.51398E-05-2.82026E-05-2.86862E-05-4.03839E-07-1.72805E-18-1.83560E-18
 -1      2525 9.50676E-05-2.00218E-05-3.22109E-05-1.17450E-05-6.00454E-19-5.66017E-19
 -1      2526 9.54659E-05-2.33631E-05-3.09267E-05-7.96086E-06-5.69239E-19-5.31122E-19
 -1      2527 9.50715E-05-2.25507E-05-3.10548E-05-7.64905E-06-4.12249E-19-4.63711E-19
 -1      2528 9.32169E-05-1.76201E-05-3.24158E-05-1.13985E-05-4.96977E-19-6.62300E-19
 -1      2529 2.91600E-05-2.46303E-05-1.83829E-06-2.14513E-05 4.23516E-19 6.16640E-19
 -1      2530 4.48135E-05-3.15540E-05-5.76591E-06-3.26559E-05 1.35102E-19 1.38956E-18
 -1      2531 1.88819E-04-6.54694E-05-5.19934E-05-1.05929E-05-6.76356E-19-6.17487E-19
 -1      2532 1.58068E-04-2.70671E-05-5.67812E-05-9.04049E-07 2.21351E-18-3.28310E-18
 -1      2533 1.56993E-04-3.57460E-05-5.21725E-05 4.80552E-06 1.26483E-18-2.93222E-18
 -1      2534 1.51721E-04-4.18322E-05-4.70818E-05 1.01478E-06 6.15793E-19-3.18675E-18
 -1      2535 1.79952E-04-6.31418E-05-5.01854E-05 2.64262E-05-2.57286E-19 5.01232E-19
 -1      2536 8.78487E-05-1.07888E-05-3.30614E-05-1.51457E-06 4.30765E-19-7.34199E-19
 -1      2537 8.79544E-05-1.09114E-05-3.30525E-05-2.63203E-06 3.35389E-19-7.87370E-19
 -1      2538 8.93522E-05-1.30814E-05-3.26894E-05-2.92343E-06 3.02844E-19-7.01780E-19
 -1      2539 8.91024E-05-1.27444E-05-3.27280E-05-9.37471E-07 3.71485E-19-6.56136E-19
 -1      2540 1.09667E-04-4.42361E-05-2.73646E-05 3.32148E-05 8.55503E-20 1.21523E-18
 -1      2541 1.23744E-04-5.55412E-05-2.91250E-05 2.83263E-05 2.20864E-19 1.80100E-19
 -1      2542 1.51621E-04-9.48484E-06-6.14635E-05 3.41642E-06 2.88161E-18-2.46402E-18
 -1      2543 1.51282E-04-7.39731E-06-6.22694E-05 5.92630E-07 2.77657E-18-2.66322E-18
 -1      2544 3.29422E-05-2.52102E-05-3.13169E-06 2.53202E-05 8.55503E-19 7.84353E-19
 -1      2545 2.11667E-05-1.85376E-05-8.19486E-07 1.24339E-05 1.55918E-18-4.23516E-19
 -1      2546 1.54238E-04-2.53747E-05-5.56330E-05 2.89471E-06 1.77178E-18-2.70394E-18
 -1      2547 1.54553E-04-1.68260E-05-5.96469E-05 4.45094E-06 2.31854E-18-2.58642E-18
 -1      2548 1.32393E-04-5.63808E-05-3.26530E-05-3.25693E-05 1.20617E-18-2.94450E-18
 -1      2549 1.44662E-04-5.44361E-05-3.91042E-05-2.36101E-05 6.28393E-19-3.72335E-18
 -1      2550 1.05752E-04-5.35369E-05-2.22403E-05-4.59448E-05 1.42386E-18-2.77525E-18
 -1      2551 1.21302E-04-5.57466E-05-2.80157E-05-4.19977E-05 1.80164E-18-2.37487E-18
 -1      2552 1.30767E-04-5.92948E-05-3.04653E-05-3.17154E-05 1.08208E-18-2.31822E-18
 -1      2553 2.54013E-05-2.16976E-05-1.25336E-06-3.21587E-05 5.20714E-19-3.85781E-18
 -1      2554 3.65759E-05-2.57782E-05-4.38936E-06-4.21459E-05 9.56300E-19-4.48017E-18
 -1      2555 1.62794E-04-7.27012E-05-3.86442E-05-5.01923E-06-1.62906E-18-9.50794E-19
 -1      2556 1.76626E-04-7.02056E-05-4.60409E-05 8.89014E-06-1.01930E-18-4.84926E-19
 -1      2557 1.46149E-05-1.54494E-05 6.67584E-07-3.35790E-06 1.13959E-18-1.72075E-18
 -1      2558 1.66305E-05-1.61625E-05 6.07609E-08-1.96036E-05 7.09602E-19-2.23956E-18
 -1      2559 7.18484E-05-4.22980E-05-1.25660E-05 3.78623E-05 8.51268E-19 1.19559E-18
 -1      2560 4.89051E-05-3.37918E-05-6.36298E-06 3.19355E-05 6.00546E-19 1.46854E-18
 -1      2561 1.50907E-04-4.64837E-05-4.49350E-05-9.34185E-06 3.31640E-19-3.37246E-18
 -1      2562 1.55445E-04-3.83317E-05-5.07969E-05-2.96753E-06 8.97431E-19-2.88881E-18
 -1      2563 9.52750E-05-2.84863E-05-2.86240E-05 2.19541E-07-1.66482E-19 7.99441E-19
 -1      2564 7.07369E-05-4.25830E-05-1.18815E-05-3.61950E-05 1.66230E-19 6.64921E-20
 -1      2565 9.90908E-05-5.41543E-05-1.93275E-05-3.70528E-05-3.73965E-19-4.63115E-19
 -1      2566 1.00682E-04-5.17000E-05-2.09216E-05 5.00004E-05-2.56609E-18 6.48205E-19
 -1      2567 8.39012E-05-4.64676E-05-1.56407E-05 5.04915E-05-2.73634E-18 2.57191E-18
 -1      2568 1.50402E-05-1.42213E-05-5.29123E-08 4.27132E-06 3.93103E-19-1.27817E-18
 -1      2569 1.96638E-05-1.78662E-05-4.31186E-07-1.04902E-05 5.01549E-19-1.00628E-18
 -1      2570 9.08050E-05-1.50354E-05-3.24635E-05-6.78989E-06-1.74510E-20-8.01144E-19
 -1      2571 8.97163E-05-1.31878E-05-3.28494E-05-7.94118E-06-8.78135E-21-8.44068E-19
 -1      2572 9.03455E-05-1.39075E-05-3.28210E-05-9.17310E-06-1.68525E-19-8.70115E-19
 -1      2573 3.11096E-05-1.62408E-05-5.86792E-06-1.73684E-05 1.54584E-19 3.67612E-19
 -1      2574 9.59542E-05-2.62450E-05-2.98431E-05 5.38696E-06 5.14175E-19 1.73680E-18
 -1      2575 9.59000E-05-2.51586E-05-3.02936E-05 6.47653E-06 6.21517E-19 1.50030E-18
 -1      2576 9.52925E-05-2.64827E-05-2.94619E-05 4.09336E-06 4.53745E-19 1.63091E-18
 -1      2577 4.10621E-05-2.10304E-05-7.94616E-06 3.82799E-05-1.13629E-18 4.54433E-19
 -1      2578 9.52854E-05-2.84806E-05-2.86307E-05 2.68909E-07 1.58052E-19 1.17039E-18
 -1      2579 2.35593E-05-1.03664E-05-5.01547E-06 1.11408E-05 1.33937E-19 2.45640E-19
 -1      2580 7.98240E-05-1.96808E-05-2.55969E-05 2.94352E-05 1.08089E-18-4.86832E-19
 -1      2581 1.42457E-04-5.64041E-05-3.67654E-05 2.26182E-05-1.03274E-18-3.17468E-18
 -1      2582 6.64377E-05-3.50561E-05-1.31034E-05-3.59915E-05-8.08916E-20 4.32199E-19
 -1      2583 1.08029E-04-4.16223E-05-2.78819E-05-3.28806E-05-2.72533E-19-5.96364E-19
 -1      2584 8.63497E-05-3.16927E-05-2.31285E-05-3.49645E-05-2.37487E-19-8.05952E-19
 -1      2585 1.12136E-04-5.68365E-05-2.36209E-05-3.19370E-05-5.76618E-19 5.52001E-19
 -1      2586 1.19233E-04-6.33000E-05-2.42352E-05-2.88049E-05-6.52215E-19-1.33514E-19
 -1      2587 1.42134E-04-6.89445E-05-3.18066E-05-2.13685E-05-1.47553E-18-5.12243E-19
 -1      2588 1.39839E-04-6.56610E-05-3.16828E-05 2.06045E-05 1.27055E-20 1.42058E-18
 -1      2589 1.54077E-04-7.01381E-05-3.59941E-05 9.89705E-06-8.43645E-19 1.95665E-18
 -1      2590 9.20509E-05-1.62318E-05-3.25353E-05-1.03833E-05-3.62753E-19-7.99540E-19
 -1      2591 9.47159E-05-2.68448E-05-2.90583E-05 2.42195E-06 5.10810E-19 1.34321E-18
 -1      2592 9.50611E-05-2.66611E-05-2.92728E-05 3.30588E-06 3.92563E-19 1.45126E-18
 -1      2593 9.53135E-05-2.61346E-05-2.96591E-05 4.03182E-06 4.93734E-19 1.22278E-18
 -1      2594 9.50257E-05-2.65977E-05-2.93454E-05 2.50881E-06 4.20573E-19 1.01633E-18
 -1      2595 1.48061E-04-3.19712E-05-4.99845E-05 6.37222E-06 7.10555E-19-1.69428E-18
 -1      2596 9.52788E-05-2.84179E-05-2.86550E-05-2.81758E-07-2.27657E-18-1.08080E-18
 -1      2597 9.75265E-05-5.07655E-05-1.97356E-05-4.88335E-05 9.49947E-19-3.10974E-18
 -1      2598 1.10436E-04-5.48060E-05-2.38731E-05-4.23866E-05 4.64703E-19-1.52443E-18
 -1      2599 8.76809E-05-4.51652E-05-1.76117E-05-4.96908E-05 5.76406E-19-3.41360E-18
 -1      2600 1.52964E-04-2.04788E-05-5.69522E-05-4.95009E-06 3.07833E-18-4.23114E-18
 -1      2601 1.45159E-04-2.51675E-05-5.16811E-05-8.13606E-06 2.14532E-18-3.90895E-18
 -1      2602 1.42022E-04-1.34359E-05-5.59533E-05-8.72320E-06 2.72681E-18-3.46691E-18
 -1      2603 5.12844E-05-3.07747E-05-8.31567E-06-4.65966E-05 1.06811E-18-4.42617E-18
 -1      2604 6.60961E-05-3.52430E-05-1.31132E-05-4.89073E-05 1.27171E-18-4.09466E-18
 -1      2605 4.81714E-05-2.38647E-05-9.75131E-06-4.29390E-05 1.24122E-18-4.55174E-18
 -1      2606 1.46546E-04-5.25207E-05-4.02863E-05-1.11327E-05 2.68298E-19-2.41849E-18
 -1      2607 9.23075E-05-5.00387E-05-1.77875E-05 3.61163E-05 7.06849E-19 2.69780E-19
 -1      2608 8.45698E-05-4.16917E-05-1.80419E-05 3.76754E-05 3.34366E-19 6.26169E-19
 -1      2609 4.87781E-05-2.52498E-05-9.67590E-06 3.03347E-05 1.42894E-18 1.28876E-18
 -1      2610 1.17258E-04-5.25456E-05-2.75296E-05-3.07474E-05-1.48019E-19 7.65930E-19
 -1      2611 1.42208E-04-1.17487E-05-5.62100E-05 6.98217E-06 2.30266E-18-2.20483E-18
 -1      2612 1.43522E-04-6.30673E-06-5.92756E-05-5.11707E-07 2.47672E-18-3.05015E-18
 -1      2613 2.48348E-05-1.19664E-05-4.93889E-06 5.71041E-06 1.41391E-18-9.46771E-19
 -1      2614 1.50246E-04-6.96253E-05-3.45915E-05-1.30318E-05-1.61953E-18-8.25010E-19
 -1      2615 2.65442E-05-1.41789E-05-4.71065E-06-2.49009E-05 1.00649E-18-3.01904E-18
 -1      2616 1.14871E-04-5.65251E-05-2.48986E-05 4.16831E-05-2.99765E-18-1.68459E-18
 -1      2617 9.52677E-05-2.83651E-05-2.86728E-05-3.65412E-07-1.00227E-18-1.27096E-18
 -1      2618 1.15209E-04-5.87781E-05-2.42272E-05 3.22853E-05 3.75236E-19 8.46265E-19
 -1      2619 7.76084E-05-4.10510E-05-1.52087E-05 4.99486E-05-3.13063E-18 1.31354E-18
 -1      2620 9.05603E-05-1.51562E-05-3.23383E-05 3.18869E-06 6.72032E-19-2.60569E-19
 -1      2621 9.03700E-05-1.48839E-05-3.23714E-05 2.25696E-06 6.21138E-19-3.36361E-19
 -1      2622 9.02358E-05-1.46805E-05-3.24007E-05 1.42090E-06 5.59797E-19-4.59241E-19
 -1      2623 9.01711E-05-1.45881E-05-3.24120E-05 4.66079E-07 4.73033E-19-5.44732E-19
 -1      2624 9.14188E-05-1.65711E-05-3.20646E-05 1.63774E-06 5.42921E-19-3.75574E-19
 -1      2625 9.21433E-05-1.75415E-05-3.20109E-05 6.46057E-06 8.56803E-19 2.74674E-19
 -1      2626 9.16162E-05-1.67418E-05-3.21117E-05 5.62344E-06 8.60418E-19 9.78125E-20
 -1      2627 9.35101E-05-1.97201E-05-3.16826E-05 7.62743E-06 8.53400E-19 6.41338E-19
 -1      2628 9.27739E-05-1.85118E-05-3.18436E-05 6.99460E-06 8.38069E-19 4.89823E-19
 -1      2629 9.34302E-05-1.98353E-05-3.15132E-05 5.72730E-06 7.83845E-19 4.03346E-19
 -1      2630 9.58957E-05-2.43802E-05-3.06416E-05 7.13592E-06 6.35619E-19 1.39624E-18
 -1      2631 9.53315E-05-2.30586E-05-3.09994E-05 7.83149E-06 7.62581E-19 1.23977E-18
 -1      2632 9.55110E-05-2.49931E-05-3.02002E-05 5.55381E-06 5.74646E-19 1.28377E-18
 -1      2633 9.52089E-05-2.39659E-05-3.05211E-05-5.29236E-06-3.38941E-19-3.78968E-19
 -1      2634 9.51569E-05-2.49914E-05-3.00911E-05-3.76862E-06-3.33862E-19-3.13684E-19
 -1      2635 9.87515E-05-3.59571E-05-2.66462E-05 3.41327E-05 5.66453E-19 2.61627E-19
 -1      2636 9.13718E-05-3.81912E-05-2.24831E-05 3.58337E-05 5.85723E-19-1.99265E-19
 -1      2637 9.53718E-05-2.59013E-05-2.97426E-05-2.69185E-06-2.92685E-19-3.14972E-19
 -1      2638 9.51982E-05-2.64771E-05-2.94637E-05-1.69984E-06-2.10557E-19-2.25189E-19
 -1      2639 9.52190E-05-2.47252E-05-3.02236E-05-3.49903E-06-2.71415E-19-4.20633E-19
 -1      2640 9.52256E-05-2.69909E-05-2.92198E-05-9.47167E-07-2.11195E-19-2.63782E-19
 -1      2641 9.50956E-05-2.73450E-05-2.90419E-05-3.34981E-07-2.68037E-19-3.27049E-19
 -1      2642 9.54191E-05-2.63088E-05-2.96246E-05-1.58436E-06-2.86075E-19-3.94052E-19
 -1      2643 9.50640E-05-2.76475E-05-2.88770E-05 1.39659E-07-1.81757E-19-2.30471E-19
 -1      2644 9.49914E-05-2.78684E-05-2.87695E-05 5.01163E-07-1.39350E-19-2.27575E-19
 -1      2645 9.54277E-05-2.73028E-05-2.92039E-05-2.92090E-07-2.24621E-19-3.98469E-19
 -1      2646 9.49512E-05-2.80482E-05-2.86626E-05 7.83888E-07-2.65155E-19-2.44716E-19
 -1      2647 9.49301E-05-2.81903E-05-2.86032E-05 9.82359E-07-3.16469E-19-3.53684E-19
 -1      2648 9.53693E-05-2.79053E-05-2.89200E-05 5.20493E-07-2.70124E-19-4.80696E-19
 -1      2649 9.48971E-05-2.82944E-05-2.85381E-05 1.13534E-06-2.79826E-19-3.75953E-19
 -1      2650 9.49138E-05-2.83846E-05-2.85117E-05 1.23202E-06-3.51405E-19-3.17958E-19
 -1      2651 9.53088E-05-2.82696E-05-2.87366E-05 9.95896E-07-3.53472E-19-4.72780E-19
 -1      2652 9.48910E-05-2.84385E-05-2.84767E-05 1.30373E-06-3.16129E-19-1.59874E-19
 -1      2653 9.49328E-05-2.84919E-05-2.84730E-05 1.34199E-06-2.63710E-19 4.51072E-23
 -1      2654 9.52628E-05-2.84777E-05-2.86264E-05 1.24844E-06-1.82234E-19-1.91149E-19
 -1      2655 9.49179E-05-2.85098E-05-2.84598E-05 1.36881E-06-1.61099E-19 2.15770E-19
 -1      2656 9.49749E-05-2.85347E-05-2.84721E-05 1.38029E-06-1.53978E-19 4.10579E-19
 -1      2657 9.52321E-05-2.85773E-05-2.85694E-05 1.36621E-06-7.95787E-20 5.27938E-19
 -1      2658 9.49636E-05-2.85237E-05-2.84750E-05 1.38981E-06-3.29700E-19 5.56376E-19
 -1      2659 9.50287E-05-2.85238E-05-2.84991E-05 1.39893E-06 3.58712E-20 3.68181E-19
 -1      2660 9.52108E-05-2.85952E-05-2.85516E-05 1.41568E-06-6.49519E-20 9.25553E-19
 -1      2661 9.50147E-05-2.84858E-05-2.85145E-05 1.41295E-06 1.81599E-19 3.88631E-19
 -1      2662 9.50828E-05-2.84610E-05-2.85485E-05 1.44029E-06 2.57126E-19 1.11032E-19
 -1      2663 9.51889E-05-2.85437E-05-2.85633E-05 1.44809E-06-4.02526E-20 8.98821E-19
 -1      2664 9.50572E-05-2.83925E-05-2.85740E-05 1.47742E-06 2.81306E-19-3.86830E-20
 -1      2665 9.51231E-05-2.83382E-05-2.86175E-05 1.54262E-06 4.09807E-19-9.62252E-20
 -1      2666 9.51518E-05-2.84229E-05-2.85982E-05 1.50493E-06 9.18525E-20 1.87621E-19
 -1      2667 9.50721E-05-2.82297E-05-2.86518E-05 1.62050E-06 3.25258E-19-2.91968E-19
 -1      2668 9.51298E-05-2.81360E-05-2.87056E-05 1.74485E-06 2.06126E-19-4.25486E-19
 -1      2669 9.50779E-05-2.82199E-05-2.86521E-05 1.62255E-06 1.96914E-19-2.25449E-19
 -1      2670 9.50260E-05-2.79600E-05-2.87500E-05 1.88957E-06 3.27003E-20-2.98334E-19
 -1      2671 9.50605E-05-2.77986E-05-2.88190E-05 2.11390E-06-2.20378E-19-4.06844E-19
 -1      2672 9.49276E-05-2.78974E-05-2.87243E-05 1.84365E-06 2.13271E-19-4.17666E-19
 -1      2673 9.48724E-05-2.75398E-05-2.88678E-05 2.33530E-06-1.42780E-19-2.92371E-19
 -1      2674 9.48598E-05-2.72974E-05-2.89468E-05 2.67030E-06 6.23405E-21-2.47946E-19
 -1      2675 9.46431E-05-2.74049E-05-2.88093E-05 2.20213E-06-4.40408E-20-3.61697E-19
 -1      2676 9.45283E-05-2.69054E-05-2.89976E-05 2.99631E-06-8.49930E-20-1.45992E-19
 -1      2677 9.44277E-05-2.65316E-05-2.90887E-05 3.49353E-06-2.81987E-19-1.85758E-19
 -1      2678 9.41414E-05-2.66835E-05-2.88976E-05 2.72592E-06-1.24645E-19-3.16155E-20
 -1      2679 9.38582E-05-2.59420E-05-2.91313E-05 3.94939E-06-1.48859E-19-1.40422E-19
 -1      2680 9.35968E-05-2.53761E-05-2.92280E-05 4.65934E-06-1.91495E-19-1.03049E-19
 -1      2681 9.32714E-05-2.56112E-05-2.89745E-05 3.45757E-06-1.53281E-19-6.34007E-19
 -1      2682 9.26457E-05-2.45044E-05-2.92398E-05 5.26840E-06-3.81970E-19-1.43071E-19
 -1      2683 9.21056E-05-2.36721E-05-2.93219E-05 6.24511E-06-4.19318E-19-3.15727E-19
 -1      2684 9.18067E-05-2.40393E-05-2.90045E-05 4.42358E-06-3.27942E-19-3.98980E-19
 -1      2685 9.05625E-05-2.24235E-05-2.92560E-05 7.02337E-06-5.59248E-19-6.27021E-19
 -1      2686 8.95690E-05-2.12590E-05-2.92752E-05 8.31276E-06-7.69033E-19-9.38735E-19
 -1      2687 8.94082E-05-2.17925E-05-2.89144E-05 5.62565E-06-6.99571E-19-8.26626E-19
 -1      2688 8.71445E-05-1.95661E-05-2.90385E-05 9.26705E-06-2.63774E-19-7.11550E-19
 -1      2689 8.54779E-05-1.80792E-05-2.88911E-05 1.08923E-05 4.82633E-19-2.40456E-19
 -1      2690 8.55960E-05-1.87158E-05-2.85594E-05 7.02495E-06-2.42231E-19-9.57127E-19
 -1      2691 8.18076E-05-1.59926E-05-2.83042E-05 1.20390E-05 3.86106E-19-2.30582E-19
 -1      2692 7.93288E-05-1.44377E-05-2.77873E-05 1.39927E-05 3.34237E-19-4.78613E-19
 -1      2693 7.97422E-05-1.48014E-05-2.76614E-05 8.54933E-06 4.84819E-19-1.36962E-18
 -1      2694 7.40050E-05-1.23140E-05-2.65072E-05 1.56020E-05 9.56737E-19 2.22346E-20
 -1      2695 7.10668E-05-1.17000E-05-2.52512E-05 1.78403E-05 1.35570E-18-1.30496E-20
 -1      2696 7.09422E-05-1.03713E-05-2.56943E-05 1.01555E-05 9.44746E-19-4.45222E-19
 -1      2697 1.42737E-04-5.54154E-05-3.80236E-05 1.20634E-05-9.81162E-19-3.11994E-18
 -1      2698 1.34728E-04-5.87506E-05-3.24051E-05 2.43177E-05-1.67421E-18-3.20888E-18
 -1      2699 9.52728E-05-2.84567E-05-2.86355E-05 3.23781E-07-7.61507E-19 7.97852E-19
 -1      2700 9.53114E-05-2.84981E-05-2.86336E-05 3.09363E-07-1.28707E-18 9.97707E-19
 -1      2701 9.53474E-05-2.85233E-05-2.86389E-05 3.41744E-07-2.58023E-18 4.18858E-19
 -1      2702 1.34816E-04-1.48836E-05-5.18865E-05 1.06147E-05 1.05794E-18-5.77041E-19
 -1      2703 1.31141E-04-8.19124E-06-5.34520E-05 6.90992E-06 1.40946E-18-6.37181E-19
 -1      2704 8.31751E-05-2.75178E-05-2.33519E-05 3.43202E-05 1.19929E-18-6.32204E-19
 -1      2705 1.36197E-04-6.10815E-05-3.16651E-05-2.34289E-05-4.49139E-19 9.38274E-19
 -1      2706 2.75806E-05-8.09095E-06-7.63493E-06-1.68711E-05 1.06554E-18-2.58747E-18
 -1      2707 3.51152E-05-1.35893E-05-8.67256E-06-3.06807E-05 1.27754E-18-4.02341E-18
 -1      2708 7.96243E-05-1.48206E-05-2.77075E-05-1.86586E-05-6.19512E-19-7.13500E-19
 -1      2709 8.15778E-05-1.56971E-05-2.83373E-05-1.60965E-05 5.28201E-19-1.14029E-18
 -1      2710 8.56360E-05-1.76575E-05-2.91109E-05-1.42358E-05 1.64499E-18-1.95415E-18
 -1      2711 8.70693E-05-1.89628E-05-2.92755E-05-1.20993E-05 1.18862E-18-1.63171E-18
 -1      2712 7.80070E-05-1.35785E-05-2.74214E-05-1.21497E-05 5.88840E-19-1.23270E-18
 -1      2713 8.98021E-05-2.07374E-05-2.95833E-05-1.06558E-05 6.39430E-19-1.79130E-18
 -1      2714 9.06746E-05-2.18877E-05-2.95427E-05-8.94806E-06-6.25165E-19-2.01794E-18
 -1      2715 8.45901E-05-1.75491E-05-2.86109E-05-9.54855E-06 8.32499E-19-3.23273E-18
 -1      2716 9.24226E-05-2.32499E-05-2.96274E-05-7.80771E-06-1.92419E-18-1.16752E-18
 -1      2717 9.28758E-05-2.41080E-05-2.95140E-05-6.50640E-06-1.71470E-18-3.74609E-19
 -1      2718 8.89002E-05-2.08776E-05-2.90781E-05-7.34488E-06-1.05627E-18-1.93789E-18
 -1      2719 9.39464E-05-2.50711E-05-2.95000E-05-5.62560E-06-8.30469E-19 9.77701E-20
 -1      2720 9.41406E-05-2.56623E-05-2.93754E-05-4.67011E-06-5.34830E-19-3.14043E-20
 -1      2721 9.16109E-05-2.33763E-05-2.91984E-05-5.53058E-06-8.50849E-19-5.94950E-20
 -1      2722 9.47720E-05-2.63111E-05-2.93246E-05-4.00701E-06-4.67143E-19-1.14413E-18
 -1      2723 9.48237E-05-2.67006E-05-2.92134E-05-3.32315E-06 1.32192E-20-9.41910E-19
 -1      2724 9.32492E-05-2.51342E-05-2.91658E-05-4.09212E-06-9.08565E-19-1.69315E-18
 -1      2725 9.51827E-05-2.71250E-05-2.91548E-05-2.83441E-06 3.52167E-19-4.91299E-19
 -1      2726 9.51646E-05-2.73744E-05-2.90642E-05-2.35266E-06 1.05772E-18 2.69729E-19
 -1      2727 9.42045E-05-2.63234E-05-2.90772E-05-2.98939E-06 5.36638E-19-2.23069E-18
 -1      2728 9.53600E-05-2.76464E-05-2.90103E-05-1.99769E-06 1.48988E-18 8.69768E-19
 -1      2729 9.53132E-05-2.78026E-05-2.89401E-05-1.66083E-06 1.91149E-18 1.46423E-18
 -1      2730 9.47408E-05-2.71076E-05-2.89778E-05-2.16506E-06 1.35989E-18 1.14157E-19
 -1      2731 9.54128E-05-2.79738E-05-2.88951E-05-1.40476E-06 2.07312E-18 1.81506E-18
 -1      2732 9.53584E-05-2.80694E-05-2.88425E-05-1.16893E-06 2.30501E-18 2.26856E-18
 -1      2733 9.50274E-05-2.76148E-05-2.88871E-05-1.55879E-06 1.86204E-18 2.27912E-18
 -1      2734 9.54038E-05-2.81751E-05-2.88070E-05-9.83757E-07 2.11038E-18 1.18562E-18
 -1      2735 9.53522E-05-2.82316E-05-2.87684E-05-8.17159E-07 1.90411E-18 3.98475E-19
 -1      2736 9.51686E-05-2.79370E-05-2.88118E-05-1.11494E-06 1.51571E-18 1.80877E-18
 -1      2737 9.53658E-05-2.82933E-05-2.87414E-05-6.81750E-07 1.03812E-18 3.18345E-19
 -1      2738 9.53187E-05-2.83238E-05-2.87132E-05-5.60225E-07-3.50082E-19-8.20018E-19
 -1      2739 9.52270E-05-2.81364E-05-2.87527E-05-7.90673E-07 1.26123E-18 8.86339E-19
 -1      2740 9.52942E-05-2.83494E-05-2.86892E-05-4.40721E-07-4.18835E-19-1.38351E-18
 -1      2741 9.49030E-05-2.76262E-05-2.88362E-05-1.19733E-07 4.83386E-19 7.02659E-19
 -1      2742 9.50161E-05-2.73617E-05-2.89738E-05 3.57670E-07 5.28016E-19 7.09320E-19
 -1      2743 9.48065E-05-2.80194E-05-2.86240E-05-7.68135E-07 1.16904E-19 7.21402E-19
 -1      2744 9.48532E-05-2.78485E-05-2.87028E-05-4.97430E-07 3.31230E-19 7.22486E-19
 -1      2745 9.52853E-05-2.76291E-05-2.90034E-05-1.45128E-07 3.81464E-19 3.00484E-19
 -1      2746 9.50536E-05-2.69902E-05-2.91765E-05 9.77052E-07 4.59366E-19 7.81831E-19
 -1      2747 9.52433E-05-2.65747E-05-2.94011E-05 1.76518E-06 3.46713E-19 8.10840E-19
 -1      2748 9.53546E-05-2.68853E-05-2.93524E-05 9.17287E-07 5.36508E-19 3.88408E-19
 -1      2749 9.47821E-05-2.84225E-05-2.84389E-05-1.27767E-06 1.71131E-19 4.98849E-19
 -1      2750 9.47447E-05-2.83455E-05-2.84522E-05-1.22289E-06 2.43953E-19 5.45873E-19
 -1      2751 9.48308E-05-2.85202E-05-2.84175E-05-1.31929E-06-7.34154E-21 3.51155E-19
 -1      2752 9.47722E-05-2.84675E-05-2.84142E-05-1.31385E-06 9.62269E-20 4.09243E-19
 -1      2753 9.51319E-05-2.85325E-05-2.85463E-05-1.29887E-06 7.53093E-20 3.92786E-19
 -1      2754 9.49046E-05-2.85821E-05-2.84225E-05-1.29386E-06 3.39683E-19 8.50422E-20
 -1      2755 9.48337E-05-2.85445E-05-2.84091E-05-1.31570E-06 1.14173E-19 8.52481E-20
 -1      2756 9.51314E-05-2.86270E-05-2.85046E-05-1.34637E-06 2.09933E-19-1.47591E-19
 -1      2757 9.49972E-05-2.86261E-05-2.84434E-05-1.23333E-06 4.14160E-19 2.33527E-19
 -1      2758 9.49190E-05-2.85959E-05-2.84245E-05-1.26918E-06 3.87949E-19-4.23094E-20
 -1      2759 9.51530E-05-2.86791E-05-2.84908E-05-1.32758E-06 3.48839E-19-1.81530E-19
 -1      2760 9.51065E-05-2.86681E-05-2.84726E-05-1.15467E-06 4.44634E-19 6.37528E-19
 -1      2761 9.50233E-05-2.86379E-05-2.84515E-05-1.19841E-06 4.27990E-19 3.54691E-19
 -1      2762 9.51964E-05-2.87123E-05-2.84947E-05-1.27401E-06 2.56712E-19-2.05441E-19
 -1      2763 9.52347E-05-2.87247E-05-2.85039E-05-1.06159E-06 5.17983E-19 4.27210E-19
 -1      2764 9.51469E-05-2.86868E-05-2.84833E-05-1.11354E-06 6.25242E-19 7.00806E-19
 -1      2765 9.52647E-05-2.87484E-05-2.85084E-05-1.20201E-06 4.45422E-19 1.10748E-19
 -1      2766 9.53876E-05-2.88134E-05-2.85323E-05-9.45133E-07 8.97443E-20 4.88305E-19
 -1      2767 9.52942E-05-2.87596E-05-2.85147E-05-1.01184E-06 5.50146E-19 3.98196E-19
 -1      2768 9.53656E-05-2.88092E-05-2.85257E-05-1.11435E-06 4.67326E-19 1.97107E-19
 -1      2769 9.55733E-05-2.89530E-05-2.85534E-05-7.83465E-07 1.54627E-19 3.09844E-19
 -1      2770 9.54733E-05-2.88749E-05-2.85411E-05-8.77738E-07-5.14042E-20 3.09229E-19
 -1      2771 9.55113E-05-2.89183E-05-2.85417E-05-1.00044E-06 2.59929E-19 6.80350E-20
 -1      2772 9.58011E-05-2.91618E-05-2.85635E-05-5.41705E-07 3.92168E-19 1.59149E-19
 -1      2773 9.56942E-05-2.90520E-05-2.85585E-05-6.82471E-07 3.71992E-19 4.03855E-19
 -1      2774 9.57184E-05-2.91008E-05-2.85528E-05-8.35911E-07 2.10423E-19 2.97804E-20
 -1      2775 9.60772E-05-2.94529E-05-2.85596E-05-1.72876E-07 3.02083E-19 1.03985E-19
 -1      2776 9.59665E-05-2.93077E-05-2.85638E-05-3.84117E-07 3.59987E-19-2.26436E-19
 -1      2777 9.60054E-05-2.93807E-05-2.85565E-05-5.82084E-07 4.11701E-19 1.08873E-19
 -1      2778 9.63992E-05-2.98260E-05-2.85408E-05 3.78200E-07-5.55487E-20-5.02466E-20
 -1      2779 9.62936E-05-2.96499E-05-2.85555E-05 7.03613E-08 3.99216E-20 5.30781E-21
 -1      2780 9.63889E-05-2.97741E-05-2.85529E-05-1.86537E-07 9.05281E-20-4.51625E-19
 -1      2781 9.67466E-05-3.02549E-05-2.85091E-05 1.16541E-06-4.80895E-19 5.99337E-20
 -1      2782 9.66646E-05-3.00669E-05-2.85342E-05 7.38788E-07 2.07664E-20 4.09230E-19
 -1      2783 9.68741E-05-3.02782E-05-2.85450E-05 4.13015E-07-2.45739E-19-2.23930E-19
 -1      2784 9.70692E-05-3.06721E-05-2.84713E-05 2.22322E-06-9.56433E-19 5.85923E-19
 -1      2785 9.70425E-05-3.05129E-05-2.85044E-05 1.66998E-06-9.88121E-19 1.71775E-19
 -1      2786 9.74418E-05-3.08539E-05-2.85407E-05 1.27831E-06-7.83139E-19 2.11154E-19
 -1      2787 9.72769E-05-3.09567E-05-2.84391E-05 3.53769E-06-1.14935E-18 1.01930E-18
 -1      2788 9.73515E-05-3.08923E-05-2.84756E-05 2.87931E-06-8.93942E-19 8.47362E-19
 -1      2789 9.80301E-05-3.14064E-05-2.85536E-05 2.44943E-06-1.19693E-18 4.27816E-19
 -1      2790 9.72396E-05-3.09358E-05-2.84291E-05 5.00810E-06-5.78035E-19 8.76274E-19
 -1      2791 9.74701E-05-3.10529E-05-2.84619E-05 4.31272E-06-6.58898E-19 1.26500E-18
 -1      2792 9.85190E-05-3.17703E-05-2.86026E-05 3.90951E-06-1.02673E-18 5.16114E-19
 -1      2793 9.68109E-05-3.04188E-05-2.84590E-05 6.40984E-06 1.41038E-19 7.88365E-19
 -1      2794 9.72435E-05-3.08018E-05-2.84799E-05 5.80467E-06-3.51829E-19 9.42728E-19
 -1      2795 9.87293E-05-3.17184E-05-2.87086E-05 5.53643E-06-3.43060E-19 6.63960E-19
 -1      2796 9.58885E-05-2.92767E-05-2.85400E-05 7.38404E-06 2.47541E-19 6.16620E-19
 -1      2797 9.65304E-05-2.99637E-05-2.85432E-05 7.04955E-06 2.21420E-19 5.40348E-19
 -1      2798 9.84581E-05-3.10147E-05-2.88882E-05 7.05542E-06 4.13125E-19-5.91155E-21
 -1      2799 9.45051E-05-2.75589E-05-2.86686E-05 7.49585E-06 2.11614E-19 1.10010E-18
 -1      2800 9.52916E-05-2.84863E-05-2.86538E-05 7.62456E-06 2.08206E-19 6.31309E-19
 -1      2801 9.75685E-05-2.95310E-05-2.91417E-05 8.02939E-06 8.51801E-20 3.14458E-19
 -1      2802 9.29058E-05-2.55826E-05-2.88199E-05 6.38788E-06 3.55463E-19 1.02158E-18
 -1      2803 9.36866E-05-2.65570E-05-2.87948E-05 7.10485E-06 4.55700E-19 1.31372E-18
 -1      2804 9.61173E-05-2.73940E-05-2.94430E-05 7.94579E-06-6.45408E-22 5.45121E-19
 -1      2805 9.15305E-05-2.39003E-05-2.89517E-05 3.99412E-06-1.80228E-19 5.39823E-19
 -1      2806 9.21044E-05-2.46400E-05-2.89290E-05 5.26785E-06 3.41348E-19 5.53952E-19
 -1      2807 9.44456E-05-2.50746E-05-2.97354E-05 6.42624E-06 7.05911E-19 2.13595E-20
 -1      2808 9.08571E-05-2.30935E-05-2.90215E-05 6.81070E-07-5.17043E-19 1.59353E-18
 -1      2809 9.10468E-05-2.33423E-05-2.90133E-05 2.28657E-06-8.19209E-19 9.17836E-19
 -1      2810 9.31121E-05-2.32823E-05-2.99459E-05 3.49133E-06-3.35773E-19 2.44246E-19
 -1      2811 9.11589E-05-2.34791E-05-2.90056E-05-2.80664E-06-5.22861E-20 2.10915E-18
 -1      2812 9.09010E-05-2.31430E-05-2.90163E-05-1.23042E-06 1.39603E-20 1.94771E-18
 -1      2813 9.26546E-05-2.26745E-05-3.00154E-05-3.06763E-07-7.61970E-19 6.21825E-19
 -1      2814 9.23314E-05-2.49113E-05-2.89115E-05-5.64280E-06 1.35982E-19 1.55890E-18
 -1      2815 9.17110E-05-2.41159E-05-2.89351E-05-4.44429E-06 2.68068E-19 2.15100E-18
 -1      2816 9.32742E-05-2.34944E-05-2.99220E-05-4.02812E-06 2.65127E-19 9.89347E-19
 -1      2817 9.39530E-05-2.68697E-05-2.87744E-05-7.27700E-06 6.84541E-19 4.86764E-19
 -1      2818 9.31571E-05-2.58855E-05-2.87979E-05-6.65307E-06 7.63335E-19 1.05568E-18
 -1      2819 9.47022E-05-2.54174E-05-2.96943E-05-6.76889E-06 1.18361E-18 7.16475E-19
 -1      2820 9.55226E-05-2.87488E-05-2.86388E-05-7.60798E-06 1.89910E-19-1.09853E-18
 -1      2821 9.47497E-05-2.78514E-05-2.86498E-05-7.55960E-06 1.87684E-19-4.57485E-19
 -1      2822 9.63755E-05-2.77510E-05-2.93979E-05-8.05544E-06 1.12054E-18-7.37037E-20
 -1      2823 9.66857E-05-3.01261E-05-2.85383E-05-6.90821E-06 3.76399E-19-5.85932E-19
 -1      2824 9.60725E-05-2.94881E-05-2.85305E-05-7.29265E-06 2.37418E-19-5.96731E-19
 -1      2825 9.77539E-05-2.98022E-05-2.91044E-05-7.94885E-06 6.05347E-20-9.18188E-19
 -1      2826 9.73201E-05-3.08591E-05-2.84866E-05-5.61438E-06 1.84536E-20-1.77180E-19
 -1      2827 9.69179E-05-3.05243E-05-2.84612E-05-6.23638E-06 4.65825E-19-3.18636E-19
 -1      2828 9.85447E-05-3.11569E-05-2.88652E-05-6.86841E-06 1.50912E-19-4.27207E-20
 -1      2829 9.74885E-05-3.10271E-05-2.84796E-05-4.13602E-06-2.65163E-19-4.34252E-19
 -1      2830 9.72811E-05-3.09469E-05-2.84430E-05-4.82152E-06-2.41923E-19-8.53309E-19
 -1      2831 9.87304E-05-3.17378E-05-2.87020E-05-5.32572E-06 1.26138E-19-9.13703E-20
 -1      2832 9.73391E-05-3.08133E-05-2.85034E-05-2.75781E-06-2.74180E-19 6.25807E-19
 -1      2833 9.72770E-05-3.09007E-05-2.84633E-05-3.38834E-06-4.61444E-19 9.97234E-20
 -1      2834 9.84662E-05-3.16993E-05-2.86114E-05-3.73522E-06-3.82460E-19 3.09252E-19
 -1      2835 9.70243E-05-3.04067E-05-2.85416E-05-1.62704E-06 7.07520E-19 3.56848E-19
 -1      2836 9.70530E-05-3.05773E-05-2.85048E-05-2.14202E-06 3.48831E-19 7.43752E-19
 -1      2837 9.79555E-05-3.12809E-05-2.85761E-05-2.34744E-06-1.60428E-19 5.30464E-19
 -1      2838 9.66593E-05-2.99507E-05-2.85812E-05-7.85914E-07-5.81928E-19 8.99640E-19
 -1      2839 9.67343E-05-3.01425E-05-2.85517E-05-1.16868E-06 4.17733E-19 5.46493E-19
 -1      2840 9.73695E-05-3.07020E-05-2.85753E-05-1.26638E-06 1.30800E-19 4.28882E-19
 -1      2841 9.63139E-05-2.95323E-05-2.86140E-05-2.13638E-07 2.33537E-19 1.24927E-18
 -1      2842 9.64049E-05-2.97083E-05-2.85934E-05-4.74164E-07-5.07137E-19 1.32587E-18
 -1      2843 9.68189E-05-3.01163E-05-2.85909E-05-4.98798E-07-3.40275E-19 6.02445E-19
 -1      2844 9.60207E-05-2.91909E-05-2.86363E-05 1.39294E-07 2.58067E-19 3.39075E-19
 -1      2845 9.61103E-05-2.93347E-05-2.86244E-05-2.13503E-08 6.38163E-19 6.71689E-19
 -1      2846 9.63575E-05-2.96085E-05-2.86105E-05-1.23996E-09 2.90225E-20-7.78045E-20
 -1      2847 9.57882E-05-2.89347E-05-2.86481E-05 3.28948E-07 1.14770E-18-5.79448E-19
 -1      2848 9.58681E-05-2.90431E-05-2.86432E-05 2.42930E-07 1.25118E-19 2.18447E-19
 -1      2849 9.59997E-05-2.92105E-05-2.86271E-05 2.87303E-07 6.56643E-19 1.53442E-18
 -1      2850 9.56118E-05-2.87539E-05-2.86511E-05 4.05827E-07 1.31713E-18-2.19670E-19
 -1      2851 9.56791E-05-2.88311E-05-2.86513E-05 3.71673E-07 1.58429E-18 2.75944E-19
 -1      2852 9.57375E-05-2.89216E-05-2.86377E-05 4.26907E-07 1.17081E-18 1.91615E-18
 -1      2853 9.54818E-05-2.86330E-05-2.86479E-05 4.09170E-07-3.56310E-19-3.51114E-19
 -1      2854 9.55359E-05-2.86854E-05-2.86513E-05 4.08670E-07 3.55943E-19-4.91608E-19
 -1      2855 9.55519E-05-2.87236E-05-2.86425E-05 4.67227E-07 1.07893E-18 1.81220E-18
 -1      2856 9.53851E-05-2.85533E-05-2.86412E-05 3.71949E-07-1.96217E-18 1.89135E-19
 -1      2857 9.54285E-05-2.85888E-05-2.86460E-05 3.92119E-07-9.39412E-19-9.84136E-19
 -1      2858 9.54242E-05-2.85953E-05-2.86422E-05 4.49397E-07-3.71038E-19 1.57228E-18
 -1      2859 9.53354E-05-2.85125E-05-2.86395E-05 3.98525E-07-2.31997E-18 1.14894E-18
 -1      2860 2.96677E-05-7.23396E-06-9.15450E-06 1.69434E-05 2.96832E-19-2.09641E-20
 -1      2861 2.82706E-05-5.98988E-06-8.71619E-06 2.02682E-07 1.91535E-19 1.97994E-19
 -1      2862 9.49758E-05-2.80879E-05-2.86680E-05 2.85892E-07 6.61680E-20-7.26838E-19
 -1      2863 9.50171E-05-2.81340E-05-2.86630E-05 3.22785E-07-2.98753E-19 4.63260E-19
 -1      2864 1.41357E-04-3.65390E-05-4.52407E-05 7.65323E-06 3.19543E-19-7.47930E-19
 -1      2865 1.38858E-04-2.54256E-05-4.93075E-05 1.07034E-05 8.28504E-19-6.38028E-19
 -1      2866 9.50640E-05-2.81959E-05-2.86590E-05 3.48727E-07-6.44468E-19-5.95118E-19
 -1      2867 9.51057E-05-2.82445E-05-2.86537E-05 3.64267E-07 2.62778E-19-2.08004E-18
 -1      2868 9.50238E-05-2.81647E-05-2.86542E-05 3.88089E-07 6.59290E-19-2.50427E-19
 -1      2869 9.52423E-05-2.84161E-05-2.86401E-05 3.42616E-07-1.04579E-18-6.45453E-19
 -1      2870 9.48969E-05-2.79902E-05-2.86763E-05 1.75300E-07 9.75229E-19 5.81248E-19
 -1      2871 9.49308E-05-2.80271E-05-2.86721E-05 2.33363E-07 1.69157E-18-1.66801E-18
 -1      2872 9.49178E-05-2.80396E-05-2.86618E-05 3.08916E-07 8.25539E-19-7.72681E-20
 -1      2873 9.28542E-05-1.80040E-05-3.20774E-05-8.80204E-06-2.67051E-19-6.79406E-19
 -1      2874 9.47695E-05-2.82665E-05-2.85010E-05-1.11865E-06 2.83357E-19 6.56279E-19
 -1      2875 9.47660E-05-2.81528E-05-2.85403E-05-9.80900E-07 2.05142E-19 7.86408E-19
 -1      2876 9.52104E-05-2.80871E-05-2.87737E-05-7.84385E-07 2.03910E-19 3.98628E-19
 -1      2877 9.51574E-05-2.83664E-05-2.86298E-05-1.13554E-06 2.87483E-19 3.77074E-19
 -1      2878 9.48458E-05-2.79215E-05-2.86837E-05 2.39319E-08 7.06694E-20 2.95649E-18
 -1      2879 9.48634E-05-2.79415E-05-2.86806E-05 9.80299E-08 2.55310E-20 2.71856E-18
 -1      2880 9.48272E-05-2.79275E-05-2.86701E-05 1.74507E-07 6.28603E-19 7.25968E-19
 -1      2881 9.48406E-05-2.79007E-05-2.86899E-05-1.46199E-07 7.56237E-19-3.49801E-19
 -1      2882 9.48343E-05-2.78972E-05-2.86880E-05-6.81591E-08-3.16792E-19 2.98329E-18
 -1      2883 9.47751E-05-2.78522E-05-2.86792E-05-3.57968E-09-2.68999E-19 2.60878E-18
 -1      2884 9.48937E-05-2.79400E-05-2.86948E-05-3.11884E-07-9.97078E-20-2.09747E-18
 -1      2885 9.48587E-05-2.79097E-05-2.86941E-05-2.41428E-07 4.90166E-19-2.80695E-18
 -1      2886 9.47820E-05-2.78351E-05-2.86890E-05-2.02854E-07-4.26193E-19-1.53710E-18
 -1      2887 9.50045E-05-2.80425E-05-2.86972E-05-4.32661E-07-9.05585E-19-1.45428E-18
 -1      2888 9.49448E-05-2.79881E-05-2.86983E-05-3.88291E-07 4.30221E-20-1.38848E-18
 -1      2889 9.48631E-05-2.78927E-05-2.86986E-05-3.89135E-07-8.38218E-19-1.83365E-18
 -1      2890 5.19315E-05-2.34736E-05-1.19730E-05 4.27804E-05-1.45351E-18 2.97520E-19
 -1      2891 3.84150E-05-1.39750E-05-9.72446E-06 3.14169E-05-2.12076E-19-5.99276E-19
 -1      2892 1.75228E-04-7.39559E-05-4.36354E-05-3.74029E-06-4.83656E-19 5.01020E-19
 -1      2893 8.93834E-05-4.37178E-05-1.96210E-05 4.69714E-05-2.88330E-18 1.09945E-18
 -1      2894 7.07653E-05-3.32231E-05-1.53597E-05 4.57543E-05-2.62326E-18 1.24736E-18
 -1      2895 3.22884E-05-9.47515E-06-9.32472E-06-1.33906E-05-4.87044E-21 1.05201E-18
 -1      2896 4.32199E-05-1.66529E-05-1.07693E-05-2.60522E-05-5.22619E-19 1.34551E-18
 -1      2897 3.35071E-05-9.73674E-06-9.51649E-06 1.50849E-05 1.56309E-18-2.06041E-19
 -1      2898 2.66003E-05-6.56518E-06-8.04539E-06-1.61278E-06 1.16904E-18-9.30889E-19
 -1      2899 1.40687E-04-5.63593E-05-3.61959E-05-1.36095E-05 3.86935E-19-1.75516E-18
 -1      2900 1.43814E-04-4.90315E-05-4.10715E-05-1.74573E-06 1.26340E-19-1.15027E-18
 -1      2901 1.31650E-04-4.65559E-06-5.51150E-05-3.99993E-07 2.14871E-18-1.81820E-18
 -1      2902 1.37166E-04-7.15061E-06-5.62723E-05-5.31417E-06 2.30541E-18-2.29768E-18
 -1      2903 7.44320E-05-3.15134E-05-1.76633E-05 3.60769E-05 9.55771E-19 1.97676E-19
 -1      2904 1.27440E-04-5.84846E-05-2.95197E-05-2.97431E-05 8.55344E-19-1.93611E-18
 -1      2905 1.36377E-04-5.90969E-05-3.33943E-05-2.21967E-05 4.19228E-19-1.77665E-18
 -1      2906 1.37663E-04-5.65658E-05-3.47488E-05-1.24905E-05 9.78919E-20-9.90446E-19
 -1      2907 1.53017E-04-7.03552E-05-3.59000E-05 1.41116E-05-1.03126E-18 2.08243E-18
 -1      2908 9.52179E-05-2.82455E-05-2.87030E-05-5.25316E-07-3.64580E-19 2.60747E-19
 -1      2909 6.77288E-05-2.20685E-05-1.90872E-05 3.17459E-05 1.38945E-18 4.48080E-19
 -1      2910 5.81709E-05-2.28991E-05-1.46138E-05 3.23879E-05 1.31565E-18 1.35271E-18
 -1      2911 4.39211E-05-1.44035E-05-1.18540E-05 2.40055E-05 1.51841E-18 1.12507E-18
 -1      2912 9.51471E-05-2.82990E-05-2.86501E-05 3.66180E-07 2.47495E-19-2.14352E-18
 -1      2913 9.51850E-05-2.83448E-05-2.86447E-05 3.65064E-07-6.72834E-20-1.39048E-18
 -1      2914 9.51270E-05-2.82832E-05-2.86476E-05 4.14047E-07 6.21362E-19-1.80151E-18
 -1      2915 1.24514E-04-5.83613E-05-2.85161E-05 3.43053E-05-2.03013E-18-2.60394E-18
 -1      2916 1.09852E-04-5.31561E-05-2.38329E-05 4.01103E-05-2.38006E-18-1.16913E-18
 -1      2917 1.29166E-04-5.77689E-05-3.04753E-05 2.35442E-05-1.63255E-18-2.14691E-18
 -1      2918 1.45163E-04-3.74438E-05-4.68659E-05-5.58888E-06 1.17960E-18-2.97351E-18
 -1      2919 1.45894E-04-4.61005E-05-4.28635E-05-3.88256E-07 0.00000E+00-2.24337E-18
 -1      2920 7.25649E-05-1.49885E-05-2.45454E-05-2.39838E-05-1.75574E-19 4.30875E-19
 -1      2921 7.41504E-05-1.35282E-05-2.60138E-05-2.11005E-05-2.16774E-19 3.10226E-19
 -1      2922 6.89031E-05-1.01862E-05-2.48095E-05-1.55407E-05-6.41985E-19 1.03321E-18
 -1      2923 9.08047E-05-1.55306E-05-3.22821E-05-3.92113E-06 2.17212E-19-7.58430E-19
 -1      2924 9.11381E-05-1.60175E-05-3.22221E-05-4.84624E-06 1.44958E-19-7.19010E-19
 -1      2925 9.11781E-05-1.60735E-05-3.22155E-05 4.90719E-06 8.04455E-19 2.41752E-20
 -1      2926 9.08354E-05-1.55739E-05-3.22767E-05 3.98695E-06 7.18786E-19-7.01615E-20
 -1      2927 9.18108E-05-1.71802E-05-3.19694E-05 3.18944E-06 6.30798E-19-1.70173E-19
 -1      2928 9.24793E-05-1.82432E-05-3.17960E-05 4.60419E-06 7.07045E-19 8.03912E-20
 -1      2929 9.12871E-05-1.63680E-05-3.20959E-05 3.04325E-08 4.02900E-19-4.94145E-19
 -1      2930 9.01674E-05-1.45835E-05-3.24126E-05-3.80003E-07 3.67681E-19-5.62898E-19
 -1      2931 9.02246E-05-1.46645E-05-3.24026E-05-1.33555E-06 2.91140E-19-6.18179E-19
 -1      2932 9.44848E-05-2.13952E-05-3.13184E-05 7.85384E-06 8.17149E-19 9.49335E-19
 -1      2933 9.03508E-05-1.48570E-05-3.23748E-05-2.16922E-06 3.04690E-19-5.94893E-19
 -1      2934 9.05368E-05-1.51226E-05-3.23423E-05-3.11873E-06 2.07488E-19-6.44433E-19
 -1      2935 9.17860E-05-1.71407E-05-3.19752E-05-3.12856E-06 1.57282E-19-6.69455E-19
 -1      2936 9.14068E-05-1.65526E-05-3.20673E-05-1.57502E-06 2.32508E-19-5.99186E-19
 -1      2937 1.40748E-04-5.10897E-05-3.84860E-05 3.82801E-06-3.77831E-19-1.98841E-18
 -1      2938 3.81537E-05-6.53968E-06-1.29961E-05-7.36808E-06 2.35713E-19 1.51365E-18
 -1      2939 1.30657E-04-2.10217E-05-4.73337E-05 1.19672E-05 5.64336E-19-8.68368E-19
 -1      2940 6.81107E-05-1.92407E-05-2.05608E-05 3.05722E-05 1.22714E-18 3.29919E-19
 -1      2941 9.24414E-05-1.81801E-05-3.18057E-05-4.55698E-06 7.17269E-20-6.20745E-19
 -1      2942 9.15668E-05-1.66754E-05-3.21205E-05-5.56862E-06 2.77359E-21-7.39106E-19
 -1      2943 9.20465E-05-1.74366E-05-3.20262E-05-6.42402E-06-1.19493E-19-7.48499E-19
 -1      2944 3.46426E-05-6.27052E-06-1.15035E-05-7.89292E-06 1.54822E-18-1.57908E-18
 -1      2945 4.47845E-05-9.83240E-06-1.43055E-05 1.76862E-05 1.62164E-18 5.09808E-19
 -1      2946 1.11895E-04-5.31071E-05-2.50125E-05-3.75883E-05 3.99164E-20-1.89136E-18
 -1      2947 1.21360E-04-5.73628E-05-2.72552E-05-3.43837E-05 6.66827E-19-1.70553E-18
 -1      2948 1.27584E-04-5.74090E-05-3.00489E-05-2.44919E-05-1.87088E-19-1.37029E-18
 -1      2949 9.53231E-05-2.56574E-05-2.98646E-05 2.56307E-06 4.92328E-19 6.69519E-19
 -1      2950 9.52067E-05-2.58811E-05-2.97057E-05 2.74059E-06 3.70757E-19 8.94365E-19
 -1      2951 4.08140E-05-9.83176E-06-1.26347E-05 2.20007E-05-1.87141E-19 2.56651E-19
 -1      2952 9.28709E-05-1.86276E-05-3.18138E-05-7.05658E-06-1.35481E-19-7.04450E-19
 -1      2953 9.42393E-05-2.09596E-05-3.14445E-05-7.71661E-06-3.28609E-19-5.48784E-19
 -1      2954 9.47480E-05-2.27684E-05-3.08527E-05-6.02425E-06-3.02440E-19-4.20934E-19
 -1      2955 9.35500E-05-2.00253E-05-3.14784E-05-5.73674E-06-1.80924E-19-6.14627E-19
 -1      2956 1.21264E-04-9.18133E-06-4.83733E-05 6.32747E-06 1.16287E-18-1.19602E-18
 -1      2957 1.26704E-04-6.38590E-06-5.21200E-05 3.62421E-06 1.38755E-18-1.19988E-18
 -1      2958 1.20969E-04-6.01718E-06-4.97768E-05-2.22217E-07 1.51873E-18-1.76673E-18
 -1      2959 9.52401E-05-2.84111E-05-2.86409E-05 3.93597E-07-7.75846E-19-1.33779E-19
 -1      2960 6.95453E-05-1.67538E-05-2.22245E-05 2.72763E-05 1.34080E-18 1.35102E-19
 -1      2961 5.58329E-05-1.17166E-05-1.83877E-05 2.35391E-05 1.78703E-18 1.31608E-18
 -1      2962 4.58000E-05-6.75943E-06-1.63713E-05 1.43718E-05 1.90029E-18 5.55018E-19
 -1      2963 6.72105E-05-1.21687E-05-2.34397E-05 2.25620E-05 1.53848E-18-4.07635E-21
 -1      2964 1.02150E-04-4.72943E-05-2.32408E-05 3.90819E-05-2.06030E-18-4.42158E-19
 -1      2965 9.45956E-05-2.24493E-05-3.09123E-05-5.43450E-06-2.20374E-19-4.15205E-19
 -1      2966 6.68077E-05-2.71535E-05-1.65021E-05 4.08269E-05-1.45690E-18 3.96094E-19
 -1      2967 9.51552E-05-2.81994E-05-2.86953E-05-4.77581E-07-1.46045E-18-1.80283E-18
 -1      2968 9.50827E-05-2.81247E-05-2.86990E-05-4.75412E-07-1.07496E-18-2.60087E-18
 -1      2969 9.52331E-05-2.55502E-05-2.98408E-05 3.43897E-06 5.12027E-19 8.99122E-19
 -1      2970 6.40949E-05-1.55589E-05-2.04596E-05-2.79733E-05 9.18501E-20 3.37860E-19
 -1      2971 5.43916E-05-8.92514E-06-1.87398E-05-2.01807E-05 6.02717E-20 1.84357E-18
 -1      2972 9.50013E-05-2.80202E-05-2.87057E-05-5.17216E-07-3.54742E-19-2.48104E-18
 -1      2973 8.06712E-05-4.03400E-05-1.67592E-05-4.82530E-05 8.29457E-19-3.40015E-18
 -1      2974 9.34000E-05-4.50819E-05-2.07014E-05-4.42267E-05 5.67512E-20-2.40293E-18
 -1      2975 7.39234E-05-3.38817E-05-1.66433E-05-4.57430E-05 1.11713E-18-3.10522E-18
 -1      2976 1.32691E-04-1.12631E-05-5.25506E-05-7.84352E-06 2.06655E-18-2.23018E-18
 -1      2977 4.50809E-05-1.78731E-05-1.09536E-05-3.59118E-05 1.29903E-18-4.59134E-18
 -1      2978 5.63556E-05-2.26285E-05-1.41342E-05-3.97599E-05 1.32322E-18-4.51956E-18
 -1      2979 4.51071E-05-1.28438E-05-1.33033E-05-2.92511E-05 1.55526E-18-4.25962E-18
 -1      2980 1.34351E-04-2.37808E-05-4.80849E-05-1.23047E-05 2.22812E-18-3.58417E-18
 -1      2981 1.41344E-04-3.08488E-05-4.76977E-05-9.64713E-06 2.24877E-18-4.02277E-18
 -1      2982 1.36711E-04-3.52451E-05-4.36769E-05-9.62111E-06 1.84939E-18-4.12426E-18
 -1      2983 9.47478E-05-2.24087E-05-3.09710E-05 6.32416E-06 7.11440E-19 8.21454E-19
 -1      2984 1.40640E-04-4.37866E-05-4.18297E-05 5.16763E-06 2.44687E-19-8.70697E-19
 -1      2985 1.33194E-04-3.64938E-05-4.16836E-05 1.05181E-05 4.10652E-19-1.06604E-18
 -1      2986 1.36693E-04-4.78120E-05-3.80941E-05 1.52362E-06 3.18431E-19-8.71809E-19
 -1      2987 9.51703E-05-2.81574E-05-2.87179E-05-6.05706E-07 6.52041E-19-3.52172E-19
 -1      2988 6.12127E-05-8.34119E-06-2.23365E-05 1.55248E-05 1.39038E-18 4.93344E-19
 -1      2989 9.42684E-05-2.18521E-05-3.10707E-05 4.98079E-06 7.01896E-19 4.78221E-19
 -1      2990 9.38154E-05-2.09052E-05-3.12525E-05 4.59120E-06 7.10292E-19 2.83610E-19
 -1      2991 9.53802E-05-2.53492E-05-2.99896E-05 4.66288E-06 5.64862E-19 1.09426E-18
 -1      2992 7.52539E-05-2.86179E-05-1.98728E-05 3.73956E-05-1.43884E-18-4.44692E-20
 -1      2993 6.06233E-05-1.93717E-05-1.71499E-05 3.37149E-05-8.93593E-19 4.34051E-19
 -1      2994 1.31976E-04-5.57066E-05-3.26383E-05-1.37949E-05-4.50395E-19-1.47267E-18
 -1      2995 1.34743E-04-5.39081E-05-3.49928E-05-7.11052E-06-2.71315E-22-1.80611E-18
 -1      2996 9.55317E-05-2.55492E-05-2.99625E-05-2.11234E-06-3.23068E-19-4.09993E-19
 -1      2997 9.55436E-05-2.62437E-05-2.97117E-05-1.29231E-06-3.37672E-19-4.67199E-19
 -1      2998 9.56883E-05-2.68522E-05-2.94864E-05-6.96810E-07-3.01146E-19-4.24931E-19
 -1      2999 9.56627E-05-2.72923E-05-2.93094E-05-1.62402E-07-1.82436E-19-5.09662E-19
 -1      3000 9.57034E-05-2.61696E-05-2.98036E-05-1.12447E-06-2.92634E-19-3.91567E-19
 -1      3001 9.57042E-05-2.76686E-05-2.91470E-05 2.31319E-07-2.48316E-19-4.92307E-19
 -1      3002 9.56689E-05-2.79466E-05-2.90281E-05 5.61651E-07-3.71151E-19-4.97455E-19
 -1      3003 9.58937E-05-2.72802E-05-2.94089E-05-9.67950E-08-2.57933E-19-3.99822E-19
 -1      3004 9.56574E-05-2.81733E-05-2.89142E-05 8.00611E-07-1.90469E-19-4.15532E-19
 -1      3005 9.56271E-05-2.83423E-05-2.88381E-05 9.89649E-07-1.40248E-19-2.72661E-19
 -1      3006 9.59289E-05-2.79810E-05-2.91241E-05 5.68646E-07-1.63925E-19-3.29949E-19
 -1      3007 9.55883E-05-2.84669E-05-2.87616E-05 1.12204E-06-1.34033E-19-2.08969E-19
 -1      3008 9.55667E-05-2.85604E-05-2.87170E-05 1.22031E-06-4.87586E-20 3.01253E-20
 -1      3009 9.58845E-05-2.83997E-05-2.89254E-05 9.67466E-07-9.28110E-20-2.76701E-19
 -1      3010 9.55134E-05-2.86135E-05-2.86690E-05 1.28518E-06 3.69425E-20 1.44476E-19
 -1      3011 9.54987E-05-2.86519E-05-2.86476E-05 1.33113E-06 1.20660E-20 2.81916E-19
 -1      3012 9.57980E-05-2.86201E-05-2.87933E-05 1.18605E-06 4.63265E-20-5.57737E-21
 -1      3013 9.54354E-05-2.86516E-05-2.86211E-05 1.35891E-06-5.70248E-20 5.09445E-19
 -1      3014 9.54235E-05-2.86464E-05-2.86170E-05 1.38184E-06 8.45094E-20 6.09435E-19
 -1      3015 9.56864E-05-2.86965E-05-2.87120E-05 1.29450E-06 8.73966E-20 6.91481E-20
 -1      3016 9.53488E-05-2.86018E-05-2.86069E-05 1.39586E-06-5.68774E-20 7.06117E-19
 -1      3017 9.53335E-05-2.85577E-05-2.86160E-05 1.41864E-06-3.60473E-20 6.33505E-19
 -1      3018 9.55529E-05-2.86603E-05-2.86693E-05 1.34719E-06 4.30555E-20 4.68873E-19
 -1      3019 9.52404E-05-2.84704E-05-2.86182E-05 1.43678E-06-1.54864E-19 6.34822E-19
 -1      3020 9.52128E-05-2.83854E-05-2.86378E-05 1.47823E-06-7.95412E-20 3.80622E-19
 -1      3021 9.53897E-05-2.85257E-05-2.86559E-05 1.38547E-06-1.59268E-19 6.88658E-19
 -1      3022 9.50879E-05-2.82495E-05-2.86493E-05 1.51420E-06-4.70890E-20 9.15781E-20
 -1      3023 9.50348E-05-2.81146E-05-2.86775E-05 1.59096E-06 1.42665E-19-8.08814E-20
 -1      3024 9.51774E-05-2.82901E-05-2.86643E-05 1.44031E-06-1.54427E-19 6.30414E-19
 -1      3025 9.48461E-05-2.79037E-05-2.86959E-05 1.65856E-06 5.49931E-20-2.00654E-19
 -1      3026 9.47357E-05-2.76877E-05-2.87328E-05 1.79490E-06-3.73907E-20-6.53921E-19
 -1      3027 9.48724E-05-2.79240E-05-2.86884E-05 1.53724E-06 9.99223E-20-5.32498E-23
 -1      3028 9.44603E-05-2.73934E-05-2.87522E-05 1.89523E-06 1.38986E-19-7.37051E-19
 -1      3029 9.42673E-05-2.70871E-05-2.87912E-05 2.09257E-06 2.96584E-20-5.35424E-19
 -1      3030 9.44204E-05-2.73898E-05-2.87197E-05 1.68735E-06 1.30554E-19-4.17424E-19
 -1      3031 9.38457E-05-2.66628E-05-2.88058E-05 2.22847E-06-1.77127E-19-2.26363E-19
 -1      3032 9.35060E-05-2.62133E-05-2.88425E-05 2.50540E-06-4.40376E-20-2.25137E-19
 -1      3033 9.37463E-05-2.66423E-05-2.87455E-05 1.88695E-06 8.85587E-20-5.49833E-19
 -1      3034 9.28534E-05-2.56035E-05-2.88400E-05 2.66754E-06-4.29923E-19-5.51173E-19
 -1      3035 9.22731E-05-2.49495E-05-2.88617E-05 3.03060E-06-6.82287E-19-6.94707E-19
 -1      3036 9.27078E-05-2.55806E-05-2.87468E-05 2.11815E-06-4.00920E-19-1.04213E-18
 -1      3037 9.12673E-05-2.40829E-05-2.88196E-05 3.19240E-06-3.59414E-19-6.94679E-19
 -1      3038 9.03027E-05-2.31474E-05-2.88000E-05 3.63374E-06-5.20693E-19-7.59597E-19
 -1      3039 9.11084E-05-2.40876E-05-2.86880E-05 2.32549E-06-6.42734E-19-1.33653E-18
 -1      3040 8.87706E-05-2.19437E-05-2.86770E-05 3.74031E-06-7.73308E-19-5.21589E-19
 -1      3041 8.72105E-05-2.06453E-05-2.85645E-05 4.22566E-06-5.28085E-19-4.08670E-19
 -1      3042 8.86662E-05-2.20277E-05-2.85042E-05 2.39569E-06-3.50926E-19-1.08824E-18
 -1      3043 8.49144E-05-1.90361E-05-2.82847E-05 4.18242E-06-3.40002E-19-6.06645E-19
 -1      3044 8.24660E-05-1.73212E-05-2.79797E-05 4.64062E-06 5.22778E-21-6.76996E-19
 -1      3045 8.49914E-05-1.92753E-05-2.80785E-05 2.12840E-06-3.54574E-19-5.98765E-19
 -1      3046 7.90863E-05-1.52970E-05-2.74049E-05 4.31318E-06 8.22598E-20-1.04638E-18
 -1      3047 7.53906E-05-1.32112E-05-2.67209E-05 4.63331E-06 4.38823E-19-1.17198E-18
 -1      3048 7.95619E-05-1.57793E-05-2.72001E-05 1.21083E-06-1.78955E-19-8.40528E-19
 -1      3049 7.05584E-05-1.09808E-05-2.55996E-05 3.93664E-06 1.33975E-18-1.01812E-18
 -1      3050 6.54540E-05-8.81768E-06-2.42120E-05 3.89108E-06 1.58406E-18-4.09262E-19
 -1      3051 7.16258E-05-1.16473E-05-2.54858E-05-7.58659E-07 1.14980E-18-1.35411E-18
 -1      3052 4.78621E-05-5.33308E-06-1.79057E-05-7.26075E-06-1.32190E-19 1.60142E-18
 -1      3053 9.53571E-05-2.55228E-05-2.99433E-05 2.15090E-06 5.04148E-19 5.15743E-19
 -1      3054 9.52785E-05-2.46737E-05-3.02544E-05 3.17728E-06 5.36034E-19 6.07823E-19
 -1      3055 8.03598E-05-1.55869E-05-2.78108E-05-6.86334E-06 3.61921E-19-1.69298E-18
 -1      3056 8.31275E-05-1.74491E-05-2.82158E-05-6.02005E-06 3.52147E-20-2.65118E-18
 -1      3057 8.59558E-05-1.93062E-05-2.85996E-05-5.79966E-06 4.69337E-19-2.33138E-18
 -1      3058 8.77315E-05-2.07632E-05-2.87490E-05-5.00897E-06-1.68647E-19-1.17631E-18
 -1      3059 8.28287E-05-1.74137E-05-2.79250E-05-3.45082E-06 3.10426E-19-8.70872E-19
 -1      3060 8.96011E-05-2.21677E-05-2.89183E-05-4.69289E-06-7.29613E-19-1.69444E-19
 -1      3061 9.06915E-05-2.32283E-05-2.89465E-05-4.00875E-06-1.16911E-18 1.14180E-19
 -1      3062 8.73387E-05-2.06492E-05-2.85111E-05-3.33614E-06 4.64455E-19 3.45265E-20
 -1      3063 9.19010E-05-2.42359E-05-2.90068E-05-3.67305E-06-1.51745E-18-3.18895E-19
 -1      3064 9.25471E-05-2.49742E-05-2.89830E-05-3.11549E-06-7.45686E-19-5.02201E-19
 -1      3065 9.02998E-05-2.30745E-05-2.87665E-05-2.93283E-06-1.13429E-18 7.15197E-19
 -1      3066 9.33144E-05-2.56727E-05-2.89909E-05-2.80635E-06 6.68612E-19-8.88528E-19
 -1      3067 9.36839E-05-2.61721E-05-2.89494E-05-2.37105E-06 9.67545E-19-3.47366E-19
 -1      3068 9.22044E-05-2.48154E-05-2.88534E-05-2.43194E-06-2.17117E-19 1.14200E-18
 -1      3069 9.41619E-05-2.66451E-05-2.89346E-05-2.10827E-06 1.41800E-18-5.25930E-19
 -1      3070 9.43647E-05-2.69762E-05-2.88914E-05-1.77799E-06 1.91552E-18 4.57203E-19
 -1      3071 9.34063E-05-2.60280E-05-2.88596E-05-1.94148E-06 1.54660E-18 4.24845E-19
 -1      3072 9.46573E-05-2.72909E-05-2.88691E-05-1.56521E-06 1.90204E-18 6.21058E-19
 -1      3073 9.47616E-05-2.75067E-05-2.88308E-05-1.31861E-06 1.82527E-18 6.42830E-19
 -1      3074 9.41515E-05-2.68549E-05-2.88314E-05-1.51060E-06 1.71670E-18-3.13243E-19
 -1      3075 9.49368E-05-2.77110E-05-2.88083E-05-1.15246E-06 1.10223E-18 6.92046E-19
 -1      3076 9.49841E-05-2.78493E-05-2.87770E-05-9.67914E-07 1.06625E-18 2.25456E-19
 -1      3077 9.46064E-05-2.74105E-05-2.87926E-05-1.15430E-06 1.68938E-18-1.41039E-18
 -1      3078 9.50965E-05-2.79881E-05-2.87586E-05-8.43931E-07 1.23356E-18 6.05132E-19
 -1      3079 9.51129E-05-2.80728E-05-2.87341E-05-7.07436E-07 1.32171E-18 2.08916E-19
 -1      3080 9.50447E-05-2.80185E-05-2.87236E-05-6.54153E-07 2.24768E-19-1.00893E-18
 -1      3081 9.48800E-05-2.77763E-05-2.87562E-05-8.78727E-07 1.07324E-18-1.33203E-18
 -1      3082 9.46866E-05-2.77503E-05-2.86886E-05-2.52622E-07-5.60557E-19-2.98429E-18
 -1      3083 9.46646E-05-2.77402E-05-2.86828E-05-1.46126E-07-8.10033E-19-1.81864E-19
 -1      3084 4.95942E-05-1.13801E-05-1.61359E-05 2.55708E-05-9.45236E-19 6.09864E-20
 -1      3085 4.32644E-05-5.19773E-06-1.59481E-05 1.10882E-05-6.21424E-19 7.36919E-20
 -1      3086 6.07384E-05-1.45864E-05-1.94750E-05 2.42404E-05-1.51117E-18-2.87621E-19
 -1      3087 9.55749E-05-2.76411E-05-2.91203E-05-2.19903E-07 2.11328E-19 5.33207E-19
 -1      3088 9.56193E-05-2.72967E-05-2.92669E-05 2.14323E-07 4.59046E-19 5.53078E-19
 -1      3089 9.55424E-05-2.68214E-05-2.94615E-05 7.26521E-07 5.39854E-19 5.60669E-19
 -1      3090 9.55803E-05-2.62873E-05-2.96766E-05 1.42356E-06 5.13803E-19 5.28062E-19
 -1      3091 9.54956E-05-2.54372E-05-3.00360E-05 1.91810E-06 5.35102E-19 6.07967E-19
 -1      3092 9.57511E-05-2.67655E-05-2.95676E-05 6.17349E-07 5.06306E-19 7.78305E-19
 -1      3093 9.54054E-05-2.87216E-05-2.85777E-05-1.31472E-06 3.45790E-19-1.29063E-19
 -1      3094 9.54021E-05-2.86775E-05-2.85942E-05-1.30286E-06 3.01625E-19 1.29672E-19
 -1      3095 9.54437E-05-2.86301E-05-2.86341E-05-1.26796E-06 1.48957E-19 3.48939E-19
 -1      3096 9.54526E-05-2.85510E-05-2.86681E-05-1.20951E-06 2.14133E-19 3.92569E-19
 -1      3097 9.56859E-05-2.87109E-05-2.87065E-05-1.23726E-06 3.95502E-19 3.72392E-19
 -1      3098 9.53825E-05-2.87858E-05-2.85399E-05-1.26007E-06 3.15212E-19 8.37541E-20
 -1      3099 9.53563E-05-2.87682E-05-2.85374E-05-1.28747E-06 2.87525E-19 1.76901E-19
 -1      3100 9.54129E-05-2.88142E-05-2.85408E-05-1.20321E-06 4.86058E-19 1.11198E-19
 -1      3101 9.53721E-05-2.87907E-05-2.85347E-05-1.23854E-06 4.47270E-19 1.89153E-20
 -1      3102 9.55149E-05-2.88485E-05-2.85735E-05-1.25841E-06 4.16857E-19 3.34367E-19
 -1      3103 9.54875E-05-2.88766E-05-2.85463E-05-1.13411E-06 3.25827E-19 1.63954E-19
 -1      3104 9.54272E-05-2.88340E-05-2.85394E-05-1.17853E-06 3.86649E-19-7.21927E-20
 -1      3105 9.55191E-05-2.88779E-05-2.85629E-05-1.22064E-06 4.14737E-19 6.79096E-20
 -1      3106 9.56253E-05-2.90030E-05-2.85518E-05-1.04209E-06 2.78171E-19 2.74114E-19
 -1      3107 9.55382E-05-2.89270E-05-2.85462E-05-1.10346E-06 3.64167E-19 2.96175E-19
 -1      3108 9.55832E-05-2.89549E-05-2.85580E-05-1.17481E-06 1.43526E-19 3.51743E-19
 -1      3109 9.58510E-05-2.92255E-05-2.85542E-05-9.02555E-07 1.03857E-19 3.12581E-19
 -1      3110 9.57280E-05-2.91010E-05-2.85514E-05-9.95717E-07 1.18369E-19 2.14307E-19
 -1      3111 9.57343E-05-2.91163E-05-2.85547E-05-1.11011E-06 3.01358E-19 8.89818E-19
 -1      3112 9.61935E-05-2.95753E-05-2.85526E-05-6.75651E-07 7.28742E-19-2.75396E-19
 -1      3113 9.60251E-05-2.93889E-05-2.85532E-05-8.22685E-07 6.47965E-19 3.52465E-20
 -1      3114 9.60076E-05-2.94015E-05-2.85510E-05-1.00093E-06 6.52791E-19-3.52420E-20
 -1      3115 9.66800E-05-3.00748E-05-2.85493E-05-3.05679E-07 2.14476E-19-3.29825E-19
 -1      3116 9.64598E-05-2.98194E-05-2.85522E-05-5.35315E-07 3.00608E-19-2.80127E-19
 -1      3117 9.64436E-05-2.98483E-05-2.85483E-05-8.04374E-07 5.45704E-19 1.59832E-19
 -1      3118 9.73259E-05-3.07233E-05-2.85512E-05 2.76536E-07-6.75746E-19 4.04301E-19
 -1      3119 9.70561E-05-3.04059E-05-2.85533E-05-6.83517E-08-3.00384E-19-6.08414E-20
 -1      3120 9.70822E-05-3.04823E-05-2.85521E-05-4.57952E-07-1.85370E-19 7.19687E-19
 -1      3121 9.81163E-05-3.14744E-05-2.85718E-05 1.14457E-06-1.08471E-18 2.53435E-19
 -1      3122 9.78163E-05-3.11278E-05-2.85670E-05 6.54569E-07-5.53763E-19 4.93817E-19
 -1      3123 9.79475E-05-3.12980E-05-2.85747E-05 1.19664E-07-8.25433E-19 8.54557E-19
 -1      3124 9.89824E-05-3.22093E-05-2.86315E-05 2.35474E-06-9.25593E-19 1.57496E-19
 -1      3125 9.86978E-05-3.19046E-05-2.86106E-05 1.70577E-06-9.61605E-19 1.31326E-19
 -1      3126 9.90240E-05-3.22300E-05-2.86361E-05 1.01989E-06-1.01036E-18 4.72816E-19
 -1      3127 9.97784E-05-3.27154E-05-2.87573E-05 3.90627E-06-1.21320E-18 2.68577E-19
 -1      3128 9.95865E-05-3.25693E-05-2.87085E-05 3.12150E-06-1.10629E-18 4.08330E-19
 -1      3129 1.00223E-04-3.31194E-05-2.87653E-05 2.31890E-06-1.03394E-18-1.73811E-19
 -1      3130 1.00275E-04-3.26917E-05-2.89772E-05 5.68058E-06-1.99396E-19-3.85317E-19
 -1      3131 1.00278E-04-3.28560E-05-2.88888E-05 4.84806E-06-7.40355E-19 4.53247E-20
 -1      3132 1.01352E-04-3.36888E-05-2.89969E-05 4.02702E-06-6.90931E-19-1.39267E-19
 -1      3133 1.00202E-04-3.18162E-05-2.93108E-05 7.37313E-06 4.62188E-19-5.07781E-20
 -1      3134 1.00496E-04-3.24329E-05-2.91763E-05 6.66887E-06 1.69659E-19-2.61758E-19
 -1      3135 1.02103E-04-3.35553E-05-2.93639E-05 6.00702E-06-4.67334E-20-3.80698E-19
 -1      3136 9.93600E-05-2.99075E-05-2.97515E-05 8.46257E-06-1.13548E-19 4.01791E-19
 -1      3137 9.99739E-05-3.10169E-05-2.95771E-05 8.14548E-06 3.89332E-19 4.40427E-19
 -1      3138 1.02119E-04-3.23376E-05-2.98818E-05 7.87933E-06-2.59780E-19 3.49416E-19
 -1      3139 9.78027E-05-2.71472E-05-3.02499E-05 8.31637E-06 3.87137E-20 4.79011E-19
 -1      3140 9.86386E-05-2.85901E-05-3.00601E-05 8.65399E-06-3.25255E-19 6.06902E-19
 -1      3141 1.01168E-04-2.98806E-05-3.05248E-05 8.99092E-06-2.86072E-19 5.33630E-19
 -1      3142 9.59636E-05-2.42187E-05-3.07092E-05 6.46581E-06 3.17393E-19 5.33694E-19
 -1      3143 9.67761E-05-2.55990E-05-3.05467E-05 7.59472E-06 7.02011E-19 7.92506E-19
 -1      3144 9.93791E-05-2.65329E-05-3.12053E-05 8.58199E-06 1.04393E-19 9.29397E-19
 -1      3145 9.45640E-05-2.21293E-05-3.10133E-05 2.98482E-06-2.96566E-19 8.15397E-19
 -1      3146 9.50565E-05-2.29584E-05-3.09218E-05 4.77540E-06-1.18353E-19 7.70000E-19
 -1      3147 9.73870E-05-2.32519E-05-3.17792E-05 6.17011E-06-1.05259E-22 1.90145E-18
 -1      3148 9.42856E-05-2.17666E-05-3.10761E-05-1.35327E-06-7.89069E-19 5.07892E-19
 -1      3149 9.42420E-05-2.16932E-05-3.10838E-05 6.67584E-07-4.62578E-19 5.20003E-19
 -1      3150 9.61047E-05-2.12500E-05-3.20990E-05 2.01980E-06-1.92506E-19 1.63600E-18
 -1      3151 9.52835E-05-2.32991E-05-3.08764E-05-5.32354E-06 5.65255E-19 4.43203E-19
 -1      3152 9.47233E-05-2.23555E-05-3.09815E-05-3.61473E-06-3.59313E-19 2.93748E-19
 -1      3153 9.62234E-05-2.14327E-05-3.20722E-05-2.75013E-06-3.64591E-19 1.41500E-19
 -1      3154 9.70819E-05-2.60666E-05-3.04753E-05-7.88794E-06 1.33628E-18 8.98393E-19
 -1      3155 9.62418E-05-2.46417E-05-3.06450E-05-6.87951E-06 1.46188E-18 9.53496E-19
 -1      3156 9.76738E-05-2.37011E-05-3.17035E-05-6.68607E-06 2.73643E-19 4.63485E-19
 -1      3157 9.88982E-05-2.90164E-05-2.99855E-05-8.67472E-06 1.19215E-18 2.00503E-19
 -1      3158 9.80838E-05-2.76086E-05-3.01735E-05-8.45165E-06 1.48905E-18 7.01993E-19
 -1      3159 9.96972E-05-2.70786E-05-3.11022E-05-8.78011E-06 1.42521E-18 1.12815E-18
 -1      3160 1.00113E-04-3.12924E-05-2.95157E-05-7.97918E-06-4.23488E-19 2.01464E-19
 -1      3161 9.95466E-05-3.02598E-05-2.96831E-05-8.37087E-06 2.24158E-19 2.35017E-19
 -1      3162 1.01382E-04-3.03276E-05-3.04237E-05-8.91124E-06 6.74740E-19 2.54447E-19
 -1      3163 1.00506E-04-3.25318E-05-2.91360E-05-6.42561E-06-1.09813E-19 3.21500E-19
 -1      3164 1.00261E-04-3.19971E-05-2.92613E-05-7.15714E-06-3.08879E-19 1.23647E-19
 -1      3165 1.02176E-04-3.25855E-05-2.98014E-05-7.63936E-06-5.76117E-19-2.50985E-19
 -1      3166 1.00195E-04-3.28123E-05-2.88704E-05-4.61677E-06 3.11753E-19-1.18735E-19
 -1      3167 1.00228E-04-3.27117E-05-2.89498E-05-5.44048E-06 6.02185E-20 6.91269E-20
 -1      3168 1.02020E-04-3.36018E-05-2.93107E-05-5.73075E-06-1.19822E-20 4.20223E-19
 -1      3169 9.94554E-05-3.24325E-05-2.87100E-05-2.95560E-06-9.06016E-19 2.43240E-19
 -1      3170 9.96663E-05-3.26191E-05-2.87507E-05-3.70889E-06-3.22819E-19-2.39684E-19
 -1      3171 1.01183E-04-3.35847E-05-2.89706E-05-3.79699E-06-1.84610E-19 1.91680E-19
 -1      3172 9.85560E-05-3.17189E-05-2.86290E-05-1.63076E-06 5.12603E-19-7.51758E-20
 -1      3173 9.88449E-05-3.20443E-05-2.86430E-05-2.23672E-06-1.88794E-19-1.64150E-19
 -1      3174 1.00020E-04-3.29248E-05-2.87625E-05-2.17685E-06-6.84204E-19-6.85935E-19
 -1      3175 9.76869E-05-3.09225E-05-2.85994E-05-6.79003E-07-4.87951E-19 7.54339E-19
 -1      3176 9.79813E-05-3.12772E-05-2.85981E-05-1.12119E-06 3.37255E-19 4.42866E-20
 -1      3177 9.88229E-05-3.19915E-05-2.86524E-05-9.80476E-07 2.53092E-20-5.19443E-20
 -1      3178 9.69490E-05-3.01945E-05-2.85979E-05-5.69474E-08-7.75041E-19 3.41294E-19
 -1      3179 9.72080E-05-3.05144E-05-2.85901E-05-3.52036E-07-8.60442E-19 6.19432E-19
 -1      3180 9.77660E-05-3.10432E-05-2.86059E-05-1.83746E-07-8.15795E-19 1.07346E-18
 -1      3181 9.63752E-05-2.96037E-05-2.86082E-05 3.08003E-07-5.18007E-19 7.23293E-19
 -1      3182 9.65828E-05-2.98610E-05-2.85994E-05 1.30033E-07-6.50469E-19 6.55169E-19
 -1      3183 9.69228E-05-3.02212E-05-2.85953E-05 2.92995E-07-1.06155E-18 3.22636E-19
 -1      3184 9.59583E-05-2.91639E-05-2.86206E-05 4.89425E-07-1.72988E-19 2.91039E-18
 -1      3185 9.61140E-05-2.93542E-05-2.86137E-05 3.96984E-07-5.07110E-19 1.87149E-18
 -1      3186 9.62996E-05-2.95786E-05-2.86016E-05 5.38785E-07-1.64324E-18 9.53750E-19
 -1      3187 9.56714E-05-2.88590E-05-2.86305E-05 5.49661E-07 1.25945E-18 3.13453E-18
 -1      3188 9.57829E-05-2.89906E-05-2.86263E-05 5.15093E-07 1.02131E-18 3.16641E-18
 -1      3189 9.58674E-05-2.91151E-05-2.86132E-05 6.30971E-07-1.59736E-19 2.80030E-18
 -1      3190 9.54834E-05-2.86590E-05-2.86364E-05 5.36101E-07 8.97380E-19 2.64859E-18
 -1      3191 9.55602E-05-2.87458E-05-2.86349E-05 5.38205E-07 1.51086E-18 2.75378E-18
 -1      3192 9.55849E-05-2.88029E-05-2.86242E-05 6.28526E-07 1.00053E-18 2.84822E-18
 -1      3193 9.46700E-05-2.77675E-05-2.86748E-05-1.79076E-08-8.80998E-19 2.12210E-18
 -1      3194 9.46881E-05-2.77911E-05-2.86697E-05 8.27326E-08-4.61081E-19 1.66466E-18
 -1      3195 9.45743E-05-2.76629E-05-2.86736E-05-6.16327E-08-1.27966E-18 2.11405E-19
 -1      3196 1.26594E-04-2.51529E-05-4.37389E-05 1.29110E-05 1.50348E-19-1.56839E-18
 -1      3197 1.22416E-04-1.65021E-05-4.58572E-05 1.15132E-05 6.00652E-19-1.73192E-18
 -1      3198 9.47974E-05-2.78202E-05-2.87039E-05-4.72686E-07-1.00145E-18-2.72773E-18
 -1      3199 9.47290E-05-2.77724E-05-2.86984E-05-3.82138E-07-7.99472E-19-1.49074E-18
 -1      3200 9.46136E-05-2.76558E-05-2.86932E-05-3.34167E-07 3.19030E-19-1.85936E-18
 -1      3201 5.81579E-05-6.42397E-06-2.21985E-05 5.61524E-06 1.57185E-18-4.07899E-19
 -1      3202 5.42659E-05-6.51131E-06-2.00698E-05 9.64033E-06 1.90488E-18 1.66336E-19
 -1      3203 6.02762E-05-7.24421E-06-2.23584E-05-1.36130E-06 1.61569E-18-1.27071E-18
 -1      3204 9.53002E-05-2.45399E-05-3.03515E-05 4.82240E-06 5.74576E-19 8.59714E-19
 -1      3205 9.49350E-05-2.79299E-05-2.87188E-05-6.05683E-07-9.70010E-20-2.03770E-18
 -1      3206 5.86270E-05-2.55133E-05-1.36835E-05-3.21356E-05-4.80374E-19 5.75559E-19
 -1      3207 8.24501E-05-3.71219E-05-1.93396E-05-3.75889E-05-3.61260E-19-2.64274E-19
 -1      3208 9.43847E-05-2.20885E-05-3.10093E-05-5.08415E-06-2.40375E-19-5.98957E-19
 -1      3209 9.48621E-05-2.31644E-05-3.06941E-05-4.42290E-06-1.98464E-19-5.78406E-19
 -1      3210 9.50873E-05-2.43624E-05-3.03335E-05-3.24516E-06-2.25377E-19-5.52680E-19
 -1      3211 9.38254E-05-2.08946E-05-3.12548E-05-4.75094E-06-1.28421E-19-5.82577E-19
 -1      3212 5.92742E-05-1.88291E-05-1.66066E-05-2.84102E-05-3.55224E-19 5.11820E-19
 -1      3213 4.41222E-05-4.27768E-06-1.64669E-05 3.92685E-06 2.21424E-18-4.82597E-19
 -1      3214 9.51948E-05-2.83687E-05-2.86409E-05 4.69953E-07 2.53341E-19-2.82001E-19
 -1      3215 9.52655E-05-2.84403E-05-2.86383E-05 4.42761E-07-9.30663E-19 8.99253E-19
 -1      3216 9.53028E-05-2.84787E-05-2.86388E-05 4.78142E-07-1.00258E-18 1.52569E-18
 -1      3217 9.49796E-05-2.81363E-05-2.86487E-05 4.41733E-07 1.25544E-18 4.07066E-19
 -1      3218 9.50422E-05-2.81986E-05-2.86456E-05 4.65305E-07 1.56663E-18-1.03039E-18
 -1      3219 9.53830E-05-2.87638E-05-2.85496E-05-1.30233E-06 1.58232E-19 1.31724E-19
 -1      3220 9.53685E-05-2.87395E-05-2.85543E-05-1.31636E-06 1.85921E-19 1.05892E-20
 -1      3221 9.56115E-05-2.87984E-05-2.86367E-05-1.28812E-06 2.08653E-19 1.23263E-19
 -1      3222 9.55506E-05-2.88327E-05-2.85955E-05-1.28584E-06 3.08875E-19 1.50278E-19
 -1      3223 7.22162E-05-1.13124E-05-2.61074E-05-7.72080E-06-1.68871E-19 6.41575E-19
 -1      3224 7.61984E-05-1.33625E-05-2.70152E-05-6.93104E-06 7.83118E-19-7.33828E-19
 -1      3225 7.60968E-05-1.33681E-05-2.67080E-05-3.01572E-06-8.57819E-20 4.12181E-19
 -1      3226 1.23411E-04-8.95512E-06-4.96168E-05-7.56440E-06 1.79147E-18-2.13640E-18
 -1      3227 1.29681E-04-1.53172E-05-4.94448E-05-1.13335E-05 1.60439E-18-2.35364E-18
 -1      3228 1.27212E-04-2.09331E-05-4.58500E-05-1.21117E-05 1.65246E-18-2.97833E-18
 -1      3229 9.48460E-05-2.79894E-05-2.86551E-05 3.49975E-07 8.89328E-19-5.75290E-20
 -1      3230 9.49076E-05-2.80501E-05-2.86513E-05 4.03530E-07 4.22095E-19 1.67711E-19
 -1      3231 9.49167E-05-2.80868E-05-2.86420E-05 4.90747E-07 9.45575E-19-3.25491E-19
 -1      3232 9.50938E-05-2.82599E-05-2.86441E-05 4.74934E-07 1.67531E-18-2.37557E-18
 -1      3233 9.51482E-05-2.83153E-05-2.86416E-05 4.73879E-07 8.04793E-19-1.94871E-18
 -1      3234 9.51685E-05-2.83491E-05-2.86372E-05 5.32992E-07 3.55971E-19-1.50612E-18
 -1      3235 9.50573E-05-2.82350E-05-2.86387E-05 5.33607E-07 2.08565E-18-1.36499E-18
 -1      3236 1.31518E-04-5.68131E-05-3.23459E-05 1.60744E-05-1.02009E-18-2.60040E-18
 -1      3237 1.23281E-04-5.47726E-05-2.92484E-05 2.36242E-05-1.19044E-18-1.97175E-18
 -1      3238 9.47474E-05-2.29603E-05-3.07535E-05 4.93237E-06 6.25354E-19 6.81608E-19
 -1      3239 9.23658E-05-1.83111E-05-3.17530E-05 1.80515E-06 5.79343E-19-2.30227E-19
 -1      3240 9.22468E-05-1.81087E-05-3.17853E-05 1.05444E-06 4.54759E-19-3.08325E-19
 -1      3241 6.09136E-05-7.33297E-06-2.29143E-05-1.03522E-05-1.00354E-18 1.52897E-18
 -1      3242 6.64598E-05-9.00612E-06-2.47211E-05-8.94101E-06-1.01353E-18 7.60371E-19
 -1      3243 1.31577E-04-6.77313E-05-2.77854E-05 2.64228E-05-7.44965E-19 2.29186E-18
 -1      3244 4.31770E-05-5.29780E-06-1.58625E-05-1.08939E-05 2.06425E-18-2.13283E-18
 -1      3245 1.10485E-04-5.00148E-05-2.59473E-05 3.27199E-05-1.57739E-18-4.66980E-19
 -1      3246 9.37440E-05-4.06814E-05-2.24527E-05 3.80481E-05-1.95948E-18-1.23455E-19
 -1      3247 1.37246E-04-4.63017E-05-3.94176E-05-3.59739E-06-3.19384E-19-2.93328E-18
 -1      3248 1.36022E-04-5.33340E-05-3.53475E-05 6.36489E-06-1.21658E-18-1.92615E-18
 -1      3249 9.47323E-05-2.78563E-05-2.86636E-05 1.92402E-07 2.59920E-19 6.88499E-19
 -1      3250 9.47796E-05-2.79047E-05-2.86592E-05 2.74566E-07 1.23963E-18-5.96976E-19
 -1      3251 9.46327E-05-2.77586E-05-2.86587E-05 1.87575E-07 7.76774E-21 9.80926E-19
 -1      3252 4.89049E-05-4.88587E-06-1.83735E-05 7.92081E-07-4.71817E-19 5.33578E-19
 -1      3253 9.48093E-05-2.77883E-05-2.87216E-05-6.26749E-07-4.05160E-19-2.04557E-18
 -1      3254 8.61745E-05-3.42084E-05-2.20481E-05 3.59805E-05-1.36963E-18 2.92068E-19
 -1      3255 7.89537E-05-2.68295E-05-2.23109E-05 3.08110E-05-8.55847E-19 2.89447E-19
 -1      3256 9.51911E-05-3.76662E-05-2.45088E-05 3.06271E-05-1.02993E-18-2.19395E-19
 -1      3257 9.25214E-05-1.85764E-05-3.17019E-05-2.36112E-06 1.45123E-19-6.72572E-19
 -1      3258 9.27575E-05-1.89841E-05-3.16358E-05-3.06287E-06 1.62851E-19-6.28212E-19
 -1      3259 1.32856E-04-4.91174E-05-3.59684E-05-9.09830E-08 5.26249E-19-1.56124E-18
 -1      3260 9.31359E-05-1.95853E-05-3.15040E-05 6.26415E-07 3.70641E-19-3.23354E-19
 -1      3261 9.21869E-05-1.80083E-05-3.18039E-05 4.09059E-07 3.71665E-19-4.10617E-19
 -1      3262 9.21846E-05-1.80039E-05-3.18045E-05-3.55593E-07 3.14738E-19-5.05126E-19
 -1      3263 1.12992E-04-5.56736E-05-2.45223E-05 3.29348E-05 4.00435E-19 5.78206E-19
 -1      3264 1.35399E-04-6.09056E-05-3.10701E-05 2.29586E-05 5.63065E-19 9.36845E-19
 -1      3265 6.65315E-05-8.81296E-06-2.44411E-05-3.12935E-06-7.15017E-19 1.18162E-18
 -1      3266 9.34268E-05-2.01864E-05-3.14126E-05 4.23272E-06 6.24397E-19 8.66252E-20
 -1      3267 9.30705E-05-1.95297E-05-3.15269E-05 3.63563E-06 5.72538E-19-2.33054E-20
 -1      3268 9.43238E-05-2.19565E-05-3.09991E-05 3.59570E-06 6.05455E-19 2.34581E-19
 -1      3269 9.30297E-05-1.94705E-05-3.15365E-05-3.59480E-06 1.13011E-19-3.98776E-19
 -1      3270 9.33762E-05-2.01188E-05-3.14276E-05-4.18801E-06-2.18560E-20-4.71354E-19
 -1      3271 9.37437E-05-2.07058E-05-3.12743E-05-2.81337E-06 9.04425E-20-5.33835E-19
 -1      3272 1.05781E-04-4.96561E-05-2.36713E-05-3.91339E-05-7.82976E-20-1.84179E-18
 -1      3273 1.14516E-04-5.24326E-05-2.66872E-05-3.15308E-05-3.22296E-19-1.36661E-18
 -1      3274 9.76881E-05-4.41757E-05-2.27358E-05-3.91685E-05 3.11814E-20-1.78817E-18
 -1      3275 1.14536E-04-8.44566E-06-4.57173E-05-9.28353E-07 1.28924E-18-2.07424E-18
 -1      3276 1.19086E-04-8.05234E-06-4.80288E-05-4.15783E-06 1.79846E-18-2.12611E-18
 -1      3277 1.16653E-04-1.12170E-05-4.54717E-05-7.09137E-06 1.64457E-18-2.29500E-18
 -1      3278 1.15838E-04-1.75646E-05-4.22789E-05 1.04847E-05 6.31092E-19-1.64153E-18
 -1      3279 1.18500E-04-1.31015E-05-4.54994E-05 9.49964E-06 1.09336E-18-1.48935E-18
 -1      3280 1.13928E-04-1.06762E-05-4.45596E-05 6.09074E-06 1.25705E-18-1.89038E-18
 -1      3281 5.62293E-05-6.85967E-06-2.10093E-05 4.75944E-06-5.77438E-19 2.11864E-19
 -1      3282 9.55789E-05-2.79309E-05-2.89822E-05-5.39908E-07 1.60163E-19 4.21758E-19
 -1      3283 9.58390E-05-2.76538E-05-2.92261E-05-2.49607E-07 2.87676E-19 5.73463E-19
 -1      3284 9.55423E-05-2.81477E-05-2.88862E-05-7.96036E-07 2.69294E-19 4.13508E-19
 -1      3285 9.57617E-05-2.85298E-05-2.88171E-05-1.09039E-06 3.02847E-19 4.00426E-19
 -1      3286 9.54922E-05-2.84544E-05-2.87314E-05-1.11664E-06 2.65361E-19 4.58093E-19
 -1      3287 9.55150E-05-2.83206E-05-2.87910E-05-9.80884E-07 3.07196E-19 4.43598E-19
 -1      3288 9.53571E-05-2.85337E-05-2.86369E-05 5.05339E-07-1.85386E-20 1.93596E-18
 -1      3289 9.54098E-05-2.85909E-05-2.86371E-05 5.25619E-07 6.63097E-19 2.07321E-18
 -1      3290 9.54014E-05-2.85952E-05-2.86305E-05 5.96350E-07 9.35384E-19 2.75524E-18
 -1      3291 9.52708E-05-2.84599E-05-2.86341E-05 5.58685E-07 5.63014E-19 1.97214E-18
 -1      3292 1.20183E-04-5.12944E-05-2.94895E-05 1.86461E-05-1.91866E-19-3.17995E-18
 -1      3293 1.17018E-04-5.20120E-05-2.77488E-05 2.62390E-05-1.11851E-18-4.40920E-19
 -1      3294 1.08515E-04-4.63978E-05-2.66498E-05 2.72839E-05-6.97972E-19-3.31905E-19
 -1      3295 1.27669E-04-6.41382E-05-2.73472E-05 2.54803E-05 1.31714E-19 1.82070E-18
 -1      3296 1.27731E-04-3.15712E-05-4.15343E-05 1.23176E-05-5.57718E-20-7.70244E-19
 -1      3297 1.20552E-04-2.60452E-05-4.05873E-05 1.29077E-05-2.57816E-19-8.47549E-19
 -1      3298 1.27122E-04-3.64968E-05-3.88189E-05 1.03211E-05-9.86793E-20-9.48200E-19
 -1      3299 1.23016E-04-5.42940E-05-2.92130E-05-2.26659E-05-4.20247E-19-1.18019E-18
 -1      3300 1.28302E-04-5.58725E-05-3.10941E-05-1.85931E-05-1.07242E-19-8.06025E-19
 -1      3301 1.27160E-04-5.32487E-05-3.16270E-05-1.24142E-05-2.47492E-21-2.59232E-18
 -1      3302 9.51508E-05-2.42567E-05-3.04021E-05-2.88269E-06-2.62548E-19-5.07931E-19
 -1      3303 6.80446E-05-2.78825E-05-1.66428E-05-4.15298E-05 4.75715E-19-3.57660E-18
 -1      3304 7.93749E-05-3.31595E-05-1.97290E-05-4.01507E-05 3.93712E-19-2.86742E-18
 -1      3305 6.36982E-05-2.19863E-05-1.75214E-05-3.60499E-05 5.55442E-19-3.36367E-18
 -1      3306 1.31393E-04-5.26167E-05-3.37046E-05 7.27739E-06-1.38184E-18-2.52355E-18
 -1      3307 9.47596E-05-2.79126E-05-2.86483E-05 3.77864E-07 3.79597E-19-2.27858E-19
 -1      3308 1.30501E-04-3.50227E-05-4.13074E-05-1.11171E-05 1.31597E-18-3.89018E-18
 -1      3309 1.35391E-04-4.13067E-05-4.04341E-05-8.12649E-06 4.26296E-19-3.79640E-18
 -1      3310 1.31724E-04-4.48460E-05-3.73377E-05-4.61459E-06-2.69383E-19-3.50703E-18
 -1      3311 9.49385E-05-2.35741E-05-3.05745E-05 3.34274E-06 6.04505E-19 5.04327E-19
 -1      3312 9.50035E-05-2.37501E-05-3.05183E-05 3.79059E-06 5.57726E-19 5.46261E-19
 -1      3313 9.25429E-05-1.86093E-05-3.16967E-05 2.41048E-06 5.81872E-19-2.25562E-19
 -1      3314 9.33497E-05-1.99778E-05-3.14272E-05 1.78797E-06 5.61320E-19-1.89534E-19
 -1      3315 9.27810E-05-1.90235E-05-3.16288E-05 3.11276E-06 5.98989E-19-9.80513E-20
 -1      3316 5.25881E-05-7.14442E-06-1.93115E-05-9.97918E-06 1.75861E-18-2.23569E-18
 -1      3317 4.58932E-05-9.04126E-06-1.52876E-05-2.08115E-05 1.77289E-18-3.51709E-18
 -1      3318 5.34146E-05-1.31278E-05-1.70103E-05-2.65328E-05 1.37738E-18-4.02552E-18
 -1      3319 9.22386E-05-1.80965E-05-3.17873E-05-1.00200E-06 2.62803E-19-5.51751E-19
 -1      3320 9.23520E-05-1.82884E-05-3.17566E-05-1.74977E-06 1.53644E-19-5.81710E-19
 -1      3321 9.33390E-05-1.99524E-05-3.14316E-05-1.75605E-06 1.27374E-19-6.50410E-19
 -1      3322 1.27982E-04-4.90263E-05-3.38119E-05-1.73322E-06 4.92523E-19-7.38586E-19
 -1      3323 1.28658E-04-4.43920E-05-3.64504E-05 5.49488E-06 3.20946E-19-6.67356E-19
 -1      3324 6.28377E-05-8.91210E-06-2.31227E-05 3.78799E-06-2.63030E-19-1.61492E-19
 -1      3325 6.83582E-05-1.09698E-05-2.46407E-05 3.60505E-06-1.08308E-19 1.03100E-19
 -1      3326 6.01448E-05-9.35607E-06-2.13844E-05 1.26717E-05-4.90634E-19-9.50636E-19
 -1      3327 9.60321E-05-2.68617E-05-2.96340E-05-3.93800E-07-1.91735E-19-2.23194E-19
 -1      3328 9.60709E-05-2.73399E-05-2.94634E-05 3.66790E-08-1.49758E-19-1.36140E-19
 -1      3329 9.61480E-05-2.77485E-05-2.93065E-05 3.31099E-07-1.15543E-19-1.78343E-19
 -1      3330 9.61389E-05-2.80528E-05-2.91840E-05 6.00439E-07-7.76483E-20-1.14278E-19
 -1      3331 9.62399E-05-2.73698E-05-2.95156E-05 9.24735E-08-8.18585E-20 1.29621E-19
 -1      3332 9.61358E-05-2.82963E-05-2.90689E-05 7.79042E-07-8.36389E-20-1.33481E-19
 -1      3333 9.60989E-05-2.84735E-05-2.89843E-05 9.37258E-07-1.14058E-19-1.09478E-19
 -1      3334 9.63160E-05-2.80982E-05-2.92374E-05 5.82159E-07-4.84996E-20 2.07022E-19
 -1      3335 9.60472E-05-2.86000E-05-2.89027E-05 1.03625E-06-1.72366E-19 5.05916E-20
 -1      3336 9.59949E-05-2.86854E-05-2.88474E-05 1.12161E-06-1.06100E-20-2.62808E-20
 -1      3337 9.62633E-05-2.85198E-05-2.90346E-05 8.78233E-07-3.83744E-20 1.08044E-19
 -1      3338 9.59114E-05-2.87263E-05-2.87920E-05 1.16941E-06 1.32364E-19-3.22226E-19
 -1      3339 9.58482E-05-2.87426E-05-2.87591E-05 1.21240E-06 1.80115E-19-1.44629E-19
 -1      3340 9.61314E-05-2.87204E-05-2.88919E-05 1.04051E-06-4.62845E-20-3.29422E-19
 -1      3341 9.57405E-05-2.87174E-05-2.87240E-05 1.23136E-06 8.55584E-20-2.17156E-19
 -1      3342 9.56653E-05-2.86776E-05-2.87081E-05 1.25530E-06-1.71145E-20-1.83801E-19
 -1      3343 9.59441E-05-2.87549E-05-2.87964E-05 1.11908E-06 8.66335E-20-6.62133E-19
 -1      3344 9.55329E-05-2.85963E-05-2.86883E-05 1.26160E-06-9.48154E-20-8.20163E-20
 -1      3345 9.54389E-05-2.85048E-05-2.86851E-05 1.28379E-06-1.38113E-20 1.80573E-19
 -1      3346 9.57087E-05-2.86563E-05-2.87368E-05 1.15169E-06-2.41990E-20-4.82831E-19
 -1      3347 9.52741E-05-2.83687E-05-2.86763E-05 1.28771E-06-1.92907E-19 2.27630E-19
 -1      3348 9.51484E-05-2.82223E-05-2.86823E-05 1.32052E-06-2.83964E-19 1.67214E-19
 -1      3349 9.54177E-05-2.84393E-05-2.87037E-05 1.16371E-06 5.45387E-21-3.48018E-19
 -1      3350 9.49233E-05-2.80126E-05-2.86800E-05 1.32660E-06-2.05121E-19 4.24982E-20
 -1      3351 9.47310E-05-2.77854E-05-2.86920E-05 1.38004E-06 1.96527E-19-1.70376E-19
 -1      3352 9.50368E-05-2.80907E-05-2.86879E-05 1.16786E-06-3.30215E-19-1.81101E-19
 -1      3353 9.44361E-05-2.75031E-05-2.86913E-05 1.38432E-06 2.68074E-19-2.67780E-19
 -1      3354 9.41598E-05-2.71945E-05-2.87032E-05 1.45402E-06 2.18910E-19-3.15381E-19
 -1      3355 9.45289E-05-2.75938E-05-2.86800E-05 1.16075E-06 1.05985E-19-1.87394E-19
 -1      3356 9.37473E-05-2.68058E-05-2.86968E-05 1.44330E-06 3.42263E-20-4.57183E-19
 -1      3357 9.33236E-05-2.63728E-05-2.87015E-05 1.52270E-06-2.30496E-20-5.87701E-19
 -1      3358 9.38421E-05-2.69265E-05-2.86673E-05 1.12053E-06 8.03032E-20-4.92096E-19
 -1      3359 9.27339E-05-2.58406E-05-2.86784E-05 1.46757E-06-2.95521E-19-5.83892E-19
 -1      3360 9.20801E-05-2.52377E-05-2.86626E-05 1.53209E-06-6.30362E-19-9.96458E-19
 -1      3361 9.28700E-05-2.60238E-05-2.86312E-05 9.95446E-07-2.75429E-19-7.32982E-19
 -1      3362 9.12327E-05-2.45177E-05-2.86045E-05 1.37922E-06-6.65520E-19-1.02885E-18
 -1      3363 9.02285E-05-2.36902E-05-2.85444E-05 1.37812E-06-4.93948E-19-9.43314E-19
 -1      3364 9.14789E-05-2.48191E-05-2.85424E-05 6.89461E-07-6.24036E-19-6.35081E-19
 -1      3365 8.90186E-05-2.27384E-05-2.84208E-05 1.03753E-06-4.06138E-19-7.79266E-19
 -1      3366 8.74941E-05-2.16310E-05-2.82739E-05 8.78855E-07-2.34038E-19-6.27978E-19
 -1      3367 8.94919E-05-2.32461E-05-2.83524E-05 3.87683E-08-3.55799E-19-2.65278E-19
 -1      3368 8.57926E-05-2.04214E-05-2.80333E-05 2.07841E-07-4.59148E-19-7.72101E-19
 -1      3369 8.35153E-05-1.89988E-05-2.77243E-05-2.59299E-07-3.58498E-19-9.72283E-19
 -1      3370 8.66877E-05-2.12676E-05-2.79814E-05-1.21993E-06-1.66698E-19-5.87540E-19
 -1      3371 8.11733E-05-1.75600E-05-2.72803E-05-1.47200E-06-1.81983E-19-9.32840E-19
 -1      3372 7.78278E-05-1.58403E-05-2.66739E-05-2.47560E-06 1.10012E-19-5.35887E-19
 -1      3373 8.28080E-05-1.89278E-05-2.72972E-05-3.48736E-06-8.81692E-21-7.52913E-19
 -1      3374 7.47182E-05-1.43604E-05-2.58795E-05-4.53122E-06 2.07162E-19-4.81201E-19
 -1      3375 6.99571E-05-1.24790E-05-2.47385E-05-6.40152E-06 7.43725E-19-1.27201E-18
 -1      3376 7.76031E-05-1.64599E-05-2.60790E-05-7.32086E-06 1.59738E-19-4.02839E-19
 -1      3377 1.20423E-04-1.80281E-05-4.42459E-05-1.19043E-05 1.62779E-18-2.97187E-18
 -1      3378 1.26129E-04-2.57272E-05-4.31842E-05-1.33171E-05 1.68814E-18-3.07664E-18
 -1      3379 8.56447E-05-2.00070E-05-2.81866E-05-1.50470E-06 1.13027E-18-1.04785E-19
 -1      3380 8.75128E-05-2.13262E-05-2.83894E-05-1.53092E-06 8.26717E-20 5.00748E-19
 -1      3381 8.90405E-05-2.24734E-05-2.85626E-05-1.82250E-06-9.52934E-19 4.84092E-19
 -1      3382 9.02527E-05-2.34515E-05-2.86473E-05-1.69430E-06-1.24921E-18 7.57759E-19
 -1      3383 8.79281E-05-2.17936E-05-2.82912E-05-2.11378E-07-7.58405E-20-1.40698E-19
 -1      3384 9.12955E-05-2.43060E-05-2.87290E-05-1.77904E-06-2.47845E-19 1.17879E-18
 -1      3385 9.20668E-05-2.50061E-05-2.87540E-05-1.59341E-06 5.13794E-19 1.60797E-18
 -1      3386 9.04053E-05-2.36908E-05-2.85569E-05-7.97971E-07-5.21140E-19 7.34545E-19
 -1      3387 9.27659E-05-2.56214E-05-2.87866E-05-1.57119E-06 6.28723E-19 1.29153E-18
 -1      3388 9.32480E-05-2.61102E-05-2.87834E-05-1.38020E-06 1.27181E-18 4.01539E-19
 -1      3389 9.20873E-05-2.51113E-05-2.86809E-05-9.91062E-07-2.38200E-19 1.78306E-18
 -1      3390 9.37095E-05-2.65426E-05-2.87910E-05-1.31048E-06 1.10891E-18-6.21752E-19
 -1      3391 9.40057E-05-2.68780E-05-2.87765E-05-1.13796E-06 7.37914E-19-1.55955E-18
 -1      3392 9.32103E-05-2.61417E-05-2.87287E-05-9.79213E-07 2.70348E-19-1.36176E-18
 -1      3393 9.43055E-05-2.71732E-05-2.87726E-05-1.05376E-06 1.28609E-18-1.42638E-18
 -1      3394 9.44811E-05-2.73999E-05-2.87551E-05-9.06296E-07 1.63979E-18-1.81886E-18
 -1      3395 9.39486E-05-2.68735E-05-2.87380E-05-8.74610E-07 5.17118E-19-1.54689E-18
 -1      3396 9.46080E-05-2.75350E-05-2.87442E-05-8.11381E-07 1.89678E-18-2.64785E-18
 -1      3397 9.47226E-05-2.76920E-05-2.87301E-05-7.06167E-07 8.98739E-19-2.20450E-18
 -1      3398 9.45684E-05-2.75791E-05-2.87106E-05-5.43043E-07 8.55482E-19-2.02577E-18
 -1      3399 9.43471E-05-2.73130E-05-2.87261E-05-7.08824E-07 1.46308E-18-2.47659E-18
 -1      3400 7.13716E-05-2.04419E-05-2.16566E-05 2.74004E-05-1.45224E-18 3.59089E-19
 -1      3401 6.23379E-05-1.32265E-05-2.09487E-05 2.00079E-05-1.44485E-18-2.72189E-19
 -1      3402 6.90475E-05-1.47946E-05-2.31670E-05 1.64909E-05-5.79716E-19-6.69381E-19
 -1      3403 8.04097E-05-2.53587E-05-2.34388E-05 2.62159E-05-1.34034E-18 3.51294E-19
 -1      3404 9.58959E-05-2.87874E-05-2.87606E-05-1.17246E-06 4.53032E-19 2.42810E-19
 -1      3405 9.59365E-05-2.87118E-05-2.88075E-05-1.11853E-06 4.12456E-19 2.78511E-19
 -1      3406 9.56073E-05-2.89119E-05-2.85814E-05-1.20314E-06 2.50339E-19 5.79022E-19
 -1      3407 9.55925E-05-2.88897E-05-2.85865E-05-1.21743E-06 2.96552E-19 4.42780E-19
 -1      3408 9.56292E-05-2.88889E-05-2.86009E-05-1.21496E-06 5.26244E-19 2.05840E-19
 -1      3409 9.56394E-05-2.88807E-05-2.86104E-05-1.22609E-06 4.27606E-19 3.32573E-19
 -1      3410 9.56951E-05-2.89217E-05-2.86199E-05-1.19115E-06 3.84860E-19 3.64113E-19
 -1      3411 9.58157E-05-2.91771E-05-2.85570E-05-1.17522E-06 3.83017E-19 6.19450E-19
 -1      3412 9.57115E-05-2.90666E-05-2.85599E-05-1.20524E-06 2.50819E-19 7.07411E-19
 -1      3413 9.61256E-05-2.95101E-05-2.85476E-05-1.12636E-06 6.67342E-19 2.90842E-19
 -1      3414 9.59493E-05-2.93220E-05-2.85503E-05-1.18323E-06 4.90565E-19 5.81861E-19
 -1      3415 9.58857E-05-2.92756E-05-2.85537E-05-1.29304E-06 4.56300E-19 2.41990E-19
 -1      3416 9.66406E-05-3.00396E-05-2.85424E-05-1.00386E-06 5.47599E-20 1.19125E-18
 -1      3417 9.63710E-05-2.97530E-05-2.85434E-05-1.11212E-06 3.54707E-19 8.50056E-19
 -1      3418 9.62561E-05-2.96830E-05-2.85406E-05-1.31918E-06 2.68738E-19 9.10194E-19
 -1      3419 9.74143E-05-3.08001E-05-2.85502E-05-7.41718E-07-7.99389E-19 1.41329E-18
 -1      3420 9.70338E-05-3.04032E-05-2.85448E-05-9.36331E-07-2.65218E-19 1.29558E-18
 -1      3421 9.68841E-05-3.03273E-05-2.85371E-05-1.28369E-06-3.94087E-19 1.41227E-18
 -1      3422 9.84840E-05-3.17911E-05-2.85875E-05-2.47626E-07-9.46102E-19 1.09172E-18
 -1      3423 9.79882E-05-3.12941E-05-2.85674E-05-5.73208E-07-5.37370E-19 1.50816E-18
 -1      3424 9.78404E-05-3.12488E-05-2.85557E-05-1.11084E-06-7.91706E-19 1.11327E-18
 -1      3425 9.98410E-05-3.29413E-05-2.86813E-05 5.92182E-07-9.74437E-19 5.53199E-19
 -1      3426 9.92540E-05-3.23955E-05-2.86333E-05 8.73744E-08-8.56893E-19 9.16413E-19
 -1      3427 9.91773E-05-3.24440E-05-2.86193E-05-6.87194E-07-7.83804E-19 1.19611E-18
 -1      3428 1.01388E-04-3.40628E-05-2.88696E-05 1.88790E-06-8.50781E-19 2.27831E-19
 -1      3429 1.00780E-04-3.35822E-05-2.87759E-05 1.16895E-06-1.14597E-18 2.03182E-19
 -1      3430 1.00889E-04-3.38191E-05-2.87641E-05 1.35860E-07-7.90099E-19 1.00560E-18
 -1      3431 1.02895E-04-3.48129E-05-2.91980E-05 3.68960E-06-4.90332E-19 4.36738E-19
 -1      3432 1.02396E-04-3.45889E-05-2.90389E-05 2.76596E-06-6.53223E-19 2.94035E-19
 -1      3433 1.02857E-04-3.51331E-05-2.90392E-05 1.51200E-06-9.18372E-19 1.71082E-19
 -1      3434 1.03983E-04-3.46987E-05-2.97100E-05 5.88170E-06-1.99647E-19 3.01060E-19
 -1      3435 1.03770E-04-3.49826E-05-2.94686E-05 4.85867E-06-2.51872E-20 3.55956E-19
 -1      3436 1.04784E-04-3.59478E-05-2.95023E-05 3.52499E-06-1.37842E-19 8.36629E-19
 -1      3437 1.04179E-04-3.31877E-05-3.04285E-05 8.04350E-06-4.77367E-19 2.86664E-19
 -1      3438 1.04426E-04-3.42115E-05-3.01014E-05 7.17572E-06-4.87623E-19 5.11942E-20
 -1      3439 1.06165E-04-3.56299E-05-3.02060E-05 6.05101E-06-3.05006E-19 4.58141E-19
 -1      3440 1.03180E-04-3.00693E-05-3.13131E-05 9.37775E-06-9.03232E-19 1.29485E-18
 -1      3441 1.03923E-04-3.18483E-05-3.09294E-05 9.04539E-06-6.75139E-19 9.44579E-19
 -1      3442 1.06402E-04-3.35980E-05-3.11678E-05 8.52103E-06-1.01996E-18 1.64992E-18
 -1      3443 1.01127E-04-2.58016E-05-3.22349E-05 8.87754E-06-8.12407E-20 1.88391E-18
 -1      3444 1.02155E-04-2.79684E-05-3.18604E-05 9.49520E-06-7.20376E-19 1.52065E-18
 -1      3445 1.05114E-04-2.96514E-05-3.23081E-05 9.91275E-06-9.34999E-19 2.20319E-18
 -1      3446 9.88025E-05-2.17488E-05-3.29819E-05 5.98017E-06-1.85474E-19 2.27218E-18
 -1      3447 9.97262E-05-2.35638E-05-3.27102E-05 7.66282E-06 1.46306E-19 2.19992E-18
 -1      3448 1.02693E-04-2.48050E-05-3.33684E-05 9.01770E-06-3.99750E-19 2.04338E-18
 -1      3449 9.75408E-05-1.97051E-05-3.33424E-05 1.08066E-06-6.47616E-20 2.13598E-18
 -1      3450 9.78922E-05-2.03381E-05-3.32516E-05 3.45786E-06 5.84370E-20 2.33467E-18
 -1      3451 1.00282E-04-2.03936E-05-3.42477E-05 5.21228E-06 1.41810E-19 2.43907E-18
 -1      3452 9.80778E-05-2.06798E-05-3.31992E-05-4.25074E-06-4.21317E-19 1.51204E-18
 -1      3453 9.76322E-05-1.98204E-05-3.33208E-05-1.92218E-06-6.24091E-20 1.82321E-18
 -1      3454 9.93614E-05-1.88192E-05-3.45375E-05-4.67482E-07 1.90567E-19 2.91656E-18
 -1      3455 1.00122E-04-2.42145E-05-3.25923E-05-8.12614E-06 3.93195E-19 7.28751E-19
 -1      3456 9.91423E-05-2.22923E-05-3.28878E-05-6.59437E-06-1.33289E-19 6.59157E-19
 -1      3457 1.00585E-04-2.08865E-05-3.41657E-05-5.99591E-06 2.75732E-19 1.96364E-18
 -1      3458 1.02506E-04-2.86407E-05-3.17153E-05-9.57262E-06 1.40753E-18 1.39170E-19
 -1      3459 1.01480E-04-2.64922E-05-3.20957E-05-9.12466E-06 1.25062E-18 4.58652E-19
 -1      3460 1.03104E-04-2.54216E-05-3.32711E-05-9.33378E-06 8.60896E-19 4.18090E-19
 -1      3461 1.04083E-04-3.23060E-05-3.07965E-05-8.83480E-06 2.90932E-19 7.91376E-19
 -1      3462 1.03412E-04-3.06387E-05-3.11719E-05-9.26978E-06 9.03595E-19 6.41799E-19
 -1      3463 1.05421E-04-3.03559E-05-3.21284E-05-9.81593E-06 2.83251E-19 4.48047E-19
 -1      3464 1.04384E-04-3.43965E-05-3.00015E-05-6.84355E-06-6.63859E-19 3.70449E-19
 -1      3465 1.04221E-04-3.35072E-05-3.03132E-05-7.75407E-06-1.82929E-19 6.28370E-19
 -1      3466 1.06452E-04-3.40072E-05-3.10120E-05-8.19037E-06 7.77010E-20 1.27010E-18
 -1      3467 1.03577E-04-3.49353E-05-2.94045E-05-4.55020E-06 1.35774E-19 3.19366E-20
 -1      3468 1.03848E-04-3.47530E-05-2.96308E-05-5.56059E-06-4.52340E-20 2.22438E-19
 -1      3469 1.05995E-04-3.57399E-05-3.00940E-05-5.66568E-06 4.63753E-20 2.75825E-19
 -1      3470 1.02130E-04-3.43946E-05-2.90071E-05-2.54635E-06-1.48762E-19 9.82018E-20
 -1      3471 1.02659E-04-3.46831E-05-2.91525E-05-3.42961E-06 1.18823E-19 1.15783E-19
 -1      3472 1.04481E-04-3.58162E-05-2.94319E-05-3.21898E-06-2.82642E-19-1.06680E-19
 -1      3473 1.00500E-04-3.33125E-05-2.87714E-05-1.06172E-06-6.03562E-19-4.80575E-19
 -1      3474 1.01115E-04-3.38252E-05-2.88537E-05-1.73007E-06-1.17212E-18-1.01128E-19
 -1      3475 1.02508E-04-3.48650E-05-2.90057E-05-1.32480E-06-4.64294E-20 1.30347E-18
 -1      3476 9.89932E-05-3.20981E-05-2.86493E-05-9.20294E-08-3.17707E-19 4.32616E-19
 -1      3477 9.95735E-05-3.26553E-05-2.86887E-05-5.45024E-07-9.89325E-20-2.04000E-19
 -1      3478 1.00549E-04-3.34891E-05-2.87597E-05-7.40046E-08-5.29579E-19 8.43159E-19
 -1      3479 9.77568E-05-3.09912E-05-2.85985E-05 4.66295E-07-1.38403E-18 4.84216E-19
 -1      3480 9.82412E-05-3.14907E-05-2.86119E-05 1.90305E-07-8.35716E-19 1.23119E-18
 -1      3481 9.88700E-05-3.20968E-05-2.86358E-05 6.37055E-07-1.20140E-18 6.50253E-19
 -1      3482 9.68256E-05-3.00970E-05-2.85871E-05 7.34648E-07-1.84346E-18 4.82291E-19
 -1      3483 9.71962E-05-3.04961E-05-2.85871E-05 5.88324E-07-1.55131E-18-9.68661E-20
 -1      3484 9.75655E-05-3.09001E-05-2.85864E-05 9.64901E-07-8.78853E-19-2.42208E-19
 -1      3485 9.61714E-05-2.94353E-05-2.85941E-05 8.17531E-07-2.33917E-18 9.09891E-19
 -1      3486 9.64361E-05-2.97282E-05-2.85887E-05 7.58222E-07-2.48437E-18 1.90954E-20
 -1      3487 9.66266E-05-2.99733E-05-2.85773E-05 1.05123E-06-2.72931E-18 8.80158E-19
 -1      3488 9.57396E-05-2.89805E-05-2.86070E-05 7.91671E-07 1.82189E-20 1.73960E-18
 -1      3489 9.59178E-05-2.91800E-05-2.86007E-05 7.86859E-07-1.44030E-18 9.41716E-19
 -1      3490 9.59943E-05-2.93109E-05-2.85868E-05 1.00225E-06-2.18304E-18-4.55357E-20
 -1      3491 9.54681E-05-2.86869E-05-2.86202E-05 7.10830E-07 9.46793E-19 1.29316E-18
 -1      3492 9.55859E-05-2.88153E-05-2.86146E-05 7.38029E-07 1.12694E-18 1.57068E-18
 -1      3493 9.55975E-05-2.88735E-05-2.86022E-05 8.89083E-07 2.22372E-19-7.59795E-19
 -1      3494 9.44304E-05-2.75382E-05-2.86710E-05-8.42185E-08-1.13805E-18-1.74654E-19
 -1      3495 9.44442E-05-2.75650E-05-2.86617E-05 5.49589E-08-1.70550E-18 2.17233E-18
 -1      3496 9.56578E-05-2.89935E-05-2.85680E-05-1.19294E-06 1.99839E-20 7.43413E-19
 -1      3497 9.56062E-05-2.89378E-05-2.85711E-05-1.21130E-06 2.36177E-19 5.75714E-19
 -1      3498 9.56556E-05-2.89485E-05-2.85921E-05-1.21412E-06 1.46819E-19 8.62716E-19
 -1      3499 9.57045E-05-2.90495E-05-2.85710E-05-1.25047E-06 3.20254E-19 4.00434E-19
 -1      3500 9.44923E-05-2.75420E-05-2.86955E-05-3.86445E-07 4.38376E-19-8.43069E-19
 -1      3501 9.44456E-05-2.75191E-05-2.86836E-05-2.45454E-07-2.61002E-19-1.20995E-18
 -1      3502 9.43065E-05-2.74001E-05-2.86717E-05-1.31952E-07-4.82081E-19 7.08122E-19
 -1      3503 9.43957E-05-2.74197E-05-2.87011E-05-4.59149E-07 8.99787E-19-7.54183E-19
 -1      3504 6.54856E-05-1.07542E-05-2.35245E-05-8.20383E-06 1.37547E-18-2.08574E-18
 -1      3505 5.86187E-05-8.27819E-06-2.14508E-05-8.16919E-06 1.32588E-18-1.56963E-18
 -1      3506 6.08976E-05-1.12055E-05-2.08778E-05-1.72140E-05 1.14158E-18-2.11192E-18
 -1      3507 7.06827E-05-1.37665E-05-2.41072E-05-1.21513E-05 6.70622E-19-1.34971E-18
 -1      3508 9.43949E-05-2.19949E-05-3.09947E-05-3.75359E-06-9.61362E-20-3.84184E-19
 -1      3509 1.26433E-04-6.42471E-05-2.66919E-05 2.60107E-05 4.65868E-21 1.64261E-18
 -1      3510 7.91171E-05-2.27033E-05-2.32284E-05-3.27110E-05-3.01597E-19-1.06493E-18
 -1      3511 7.33877E-05-1.30683E-05-2.59599E-05 1.52187E-06-9.58173E-19-1.07070E-20
 -1      3512 7.75443E-05-1.51033E-05-2.67968E-05 6.72024E-07-8.61921E-19-3.71102E-19
 -1      3513 8.06397E-05-1.68543E-05-2.74221E-05-5.12149E-07-8.19571E-20 1.97254E-19
 -1      3514 8.34522E-05-1.85411E-05-2.78487E-05-8.49656E-07 9.55648E-19-1.57314E-19
 -1      3515 8.43542E-05-1.93740E-05-2.77708E-05 1.06814E-06 6.20526E-19 1.53932E-19
 -1      3516 9.48518E-05-2.80446E-05-2.86339E-05 5.64845E-07 6.44159E-19-6.11994E-19
 -1      3517 9.49441E-05-2.81307E-05-2.86320E-05 5.97123E-07 1.12493E-18-1.11941E-18
 -1      3518 9.56823E-05-2.55090E-05-3.00783E-05-1.46714E-06-3.82354E-19-2.18057E-19
 -1      3519 9.58233E-05-2.62183E-05-2.98423E-05-8.16504E-07-2.70948E-19-1.81117E-19
 -1      3520 9.59870E-05-2.62655E-05-2.98865E-05-6.51808E-07-2.61505E-19 3.48642E-20
 -1      3521 9.44971E-05-2.76509E-05-2.86518E-05 2.11670E-07-1.77013E-18 8.92874E-19
 -1      3522 9.45603E-05-2.77159E-05-2.86454E-05 3.27540E-07-5.11484E-19-7.95712E-19
 -1      3523 9.43605E-05-2.75093E-05-2.86479E-05 2.00912E-07-1.59995E-18 1.58208E-18
 -1      3524 9.51117E-05-2.38874E-05-3.05061E-05 2.64058E-06 5.86867E-19 3.99943E-19
 -1      3525 9.47438E-05-2.30037E-05-3.07593E-05 3.15548E-06 5.82751E-19 3.27085E-19
 -1      3526 9.44536E-05-2.23103E-05-3.09202E-05 2.90061E-06 5.57834E-19 1.77782E-19
 -1      3527 1.29064E-04-4.92431E-05-3.44192E-05 1.21768E-06-1.45277E-18-1.58191E-18
 -1      3528 1.26218E-04-5.15922E-05-3.19702E-05 9.04919E-06-9.94384E-19-2.02757E-18
 -1      3529 6.10658E-05-1.40490E-05-1.99847E-05-2.33899E-05 5.84797E-19-2.55830E-18
 -1      3530 6.13371E-05-1.73503E-05-1.84026E-05-2.98153E-05 6.50680E-19-3.24467E-18
 -1      3531 7.01600E-05-2.23960E-05-2.04323E-05-3.12834E-05 1.17102E-19-2.49965E-18
 -1      3532 9.46545E-05-2.78354E-05-2.86399E-05 4.35467E-07-3.85218E-19-1.55894E-19
 -1      3533 9.47443E-05-2.79199E-05-2.86361E-05 5.11340E-07-2.22488E-19-1.15084E-18
 -1      3534 9.47595E-05-2.79702E-05-2.86250E-05 6.34229E-07 2.24669E-19-1.61721E-18
 -1      3535 9.45311E-05-2.77210E-05-2.86322E-05 4.73780E-07-1.97565E-18-8.18146E-19
 -1      3536 9.49029E-05-2.35060E-05-3.06031E-05-2.59259E-06-1.82455E-19-2.53956E-19
 -1      3537 1.27127E-04-5.07451E-05-3.28354E-05-5.09340E-06-2.76411E-20-1.10932E-18
 -1      3538 1.24593E-04-4.63802E-05-3.34399E-05 1.05878E-06-1.73827E-19 8.34956E-19
 -1      3539 1.23888E-04-5.05570E-05-3.15140E-05-9.28400E-06-3.39248E-19-1.17999E-18
 -1      3540 1.01925E-04-4.14595E-05-2.57623E-05 2.80725E-05-8.56946E-19-1.01234E-19
 -1      3541 9.41422E-05-3.53902E-05-2.52559E-05 2.66885E-05-8.57462E-19-2.53726E-19
 -1      3542 1.07248E-04-4.35122E-05-2.72421E-05 2.26682E-05-4.50868E-19-1.00512E-19
 -1      3543 1.24150E-04-3.90538E-05-3.65163E-05 8.63041E-06-7.05899E-20-1.17076E-19
 -1      3544 7.17662E-05-1.31660E-05-2.49240E-05 7.50601E-06-8.84971E-19-1.15585E-18
 -1      3545 9.38527E-05-2.10045E-05-3.12321E-05 8.02787E-07 4.09643E-19-1.60696E-19
 -1      3546 9.38038E-05-2.09052E-05-3.12518E-05 2.47435E-07 2.60853E-19-4.15986E-19
 -1      3547 9.44820E-05-2.23434E-05-3.09400E-05-2.57751E-06-2.40511E-20-3.54775E-19
 -1      3548 9.53184E-05-2.43516E-05-3.03968E-05-1.90140E-06-2.43008E-19-3.13987E-19
 -1      3549 9.53868E-05-2.44077E-05-3.04134E-05-1.55465E-06-1.37380E-19-1.42187E-19
 -1      3550 9.42449E-05-2.18297E-05-3.10432E-05-2.12535E-06 1.04063E-19-6.04770E-19
 -1      3551 1.25220E-04-3.17035E-05-4.02223E-05-1.17492E-05 1.11022E-18-2.94540E-18
 -1      3552 1.16273E-04-1.50964E-05-4.36400E-05-9.93362E-06 1.71132E-18-2.42828E-18
 -1      3553 1.15522E-04-1.95401E-05-4.12999E-05-1.10765E-05 1.38882E-18-2.50114E-18
 -1      3554 1.11793E-04-1.29739E-05-4.24819E-05-7.10896E-06 1.58464E-18-2.18507E-18
 -1      3555 6.63308E-05-1.50664E-05-2.20100E-05-1.99716E-05 7.56111E-19-1.89127E-18
 -1      3556 1.21631E-04-4.82200E-05-3.14317E-05 6.20311E-06-1.01702E-18-1.76377E-18
 -1      3557 1.22397E-04-5.10744E-05-3.05792E-05 1.26976E-05-1.03321E-19-2.90632E-18
 -1      3558 1.16076E-04-4.79536E-05-2.92454E-05 1.55466E-05 1.53252E-19-2.52818E-18
 -1      3559 9.10024E-05-3.88226E-05-2.19532E-05-3.85469E-05-1.16255E-19-1.86204E-18
 -1      3560 1.00814E-04-4.35048E-05-2.45556E-05-3.35424E-05-7.35860E-20-2.23611E-18
 -1      3561 8.41879E-05-3.30032E-05-2.17896E-05-3.58264E-05-3.48104E-19-2.12322E-18
 -1      3562 1.11801E-04-1.03111E-05-4.37707E-05 2.79306E-06 1.27775E-18-1.44583E-18
 -1      3563 1.09538E-04-1.10818E-05-4.23707E-05-6.42856E-07 1.03047E-18-1.68779E-18
 -1      3564 1.09560E-04-1.33863E-05-4.13240E-05 5.24659E-06 9.39095E-19-7.89635E-19
 -1      3565 1.15954E-04-2.19790E-05-4.05067E-05 1.22002E-05-5.34690E-20-6.35817E-19
 -1      3566 1.11789E-04-1.80078E-05-4.03107E-05 1.01499E-05 2.22981E-19-1.98815E-19
 -1      3567 9.58221E-05-2.82022E-05-2.89838E-05-7.87352E-07 2.87375E-19 3.36425E-19
 -1      3568 9.59907E-05-2.86105E-05-2.88784E-05-1.04562E-06 3.73962E-19 2.65334E-19
 -1      3569 9.60286E-05-2.84684E-05-2.89496E-05-9.28567E-07 3.35344E-19 2.42652E-19
 -1      3570 9.61676E-05-2.86702E-05-2.89297E-05-9.84199E-07 3.98882E-19 1.47528E-19
 -1      3571 9.53841E-05-2.48885E-05-3.02235E-05 1.85602E-06 5.25308E-19 4.55189E-19
 -1      3572 9.52158E-05-2.84034E-05-2.86323E-05 5.85925E-07 4.83300E-19-8.90874E-19
 -1      3573 9.52668E-05-2.84690E-05-2.86295E-05 6.19710E-07 9.62261E-19 1.25429E-19
 -1      3574 9.51582E-05-2.83504E-05-2.86323E-05 5.93527E-07 6.74823E-19-2.80429E-18
 -1      3575 9.57901E-05-2.89234E-05-2.86595E-05-1.17657E-06 3.36828E-19 2.18430E-19
 -1      3576 9.56975E-05-2.88853E-05-2.86321E-05-1.22516E-06 2.90237E-19 1.24325E-19
 -1      3577 9.57240E-05-2.88734E-05-2.86494E-05-1.22805E-06 3.38932E-19 1.78467E-19
 -1      3578 9.53830E-05-2.85962E-05-2.86222E-05 6.95530E-07 9.73820E-19 1.13008E-18
 -1      3579 9.60460E-05-2.77151E-05-2.92907E-05-3.27048E-07 3.53075E-19 3.09999E-19
 -1      3580 9.60369E-05-2.73286E-05-2.94378E-05 2.74397E-08 4.66441E-19 5.50313E-19
 -1      3581 7.92871E-05-1.64673E-05-2.68050E-05 3.44011E-06-6.48371E-19-1.13142E-19
 -1      3582 1.16755E-04-5.16197E-05-2.79408E-05-2.54317E-05-4.24099E-19-1.31941E-18
 -1      3583 9.60843E-05-2.68375E-05-2.96779E-05 3.05902E-07 5.27366E-19 3.63352E-19
 -1      3584 9.59168E-05-2.68238E-05-2.96225E-05 4.07143E-07 4.96972E-19 6.04284E-19
 -1      3585 9.58540E-05-2.62366E-05-2.98223E-05 9.50452E-07 5.44469E-19 5.85595E-19
 -1      3586 9.39375E-05-2.11794E-05-3.11904E-05-1.24747E-06 2.67317E-19-5.50532E-19
 -1      3587 9.40756E-05-2.14700E-05-3.11317E-05-1.76427E-06 1.74983E-19-6.35944E-19
 -1      3588 9.48251E-05-2.28857E-05-3.08120E-05-1.58351E-06 1.37615E-19-4.63787E-19
 -1      3589 9.49642E-05-2.81831E-05-2.86231E-05 6.93543E-07 1.00719E-18-4.76758E-19
 -1      3590 9.50240E-05-2.82186E-05-2.86316E-05 6.11485E-07 9.19807E-19-3.27656E-19
 -1      3591 9.50908E-05-2.82809E-05-2.86308E-05 6.15905E-07 5.23225E-19-8.20453E-19
 -1      3592 9.57922E-05-2.88643E-05-2.86823E-05-1.21954E-06 2.71912E-19 1.78090E-19
 -1      3593 9.58286E-05-2.88305E-05-2.87117E-05-1.20300E-06 3.64793E-19 3.19157E-19
 -1      3594 9.60487E-05-2.88432E-05-2.88046E-05-1.10325E-06 4.54070E-19 1.44465E-19
 -1      3595 9.59153E-05-2.89115E-05-2.87181E-05-1.15552E-06 3.04257E-19 1.43709E-19
 -1      3596 9.31330E-05-1.95782E-05-3.15054E-05-5.81649E-07 2.82386E-19-4.72127E-19
 -1      3597 1.28713E-04-4.64734E-05-3.52491E-05-2.87369E-06-4.94270E-19-2.39180E-18
 -1      3598 1.24702E-04-4.66820E-05-3.34837E-05-5.16882E-07-1.05464E-18-2.18909E-18
 -1      3599 1.26528E-04-4.26013E-05-3.62128E-05-6.53439E-06 3.07837E-19-3.26748E-18
 -1      3600 9.37551E-05-2.07638E-05-3.12659E-05 2.81873E-06 5.05519E-19-4.33807E-20
 -1      3601 1.16762E-04-2.63243E-05-3.87233E-05 1.21972E-05-7.75220E-19-6.03048E-20
 -1      3602 9.40704E-05-2.14613E-05-3.11313E-05 1.74182E-06 5.53891E-19-1.08419E-19
 -1      3603 9.39346E-05-2.11739E-05-3.11908E-05 1.24043E-06 5.09106E-19-5.79677E-20
 -1      3604 9.45942E-05-2.23352E-05-3.09496E-05 8.23611E-07 3.85012E-19-1.38586E-20
 -1      3605 9.53120E-05-2.41501E-05-3.05150E-05-1.34354E-06 5.30388E-21-2.91005E-19
 -1      3606 9.57747E-05-2.52268E-05-3.02164E-05-1.03440E-06-1.88047E-19-9.31773E-20
 -1      3607 9.64625E-05-2.78966E-05-2.93810E-05 3.84976E-07 1.44522E-20 1.33751E-19
 -1      3608 9.64617E-05-2.81974E-05-2.92598E-05 5.82401E-07-1.23164E-19 1.33154E-19
 -1      3609 9.64487E-05-2.84309E-05-2.91473E-05 6.97392E-07-1.09209E-20-1.29762E-20
 -1      3610 9.63983E-05-2.85964E-05-2.90597E-05 8.14274E-07-1.00811E-19-8.34156E-20
 -1      3611 9.65733E-05-2.82545E-05-2.92794E-05 5.27532E-07-1.16206E-19 7.24831E-20
 -1      3612 9.63260E-05-2.87075E-05-2.89773E-05 8.74763E-07-1.71953E-19 5.01610E-20
 -1      3613 9.62432E-05-2.87729E-05-2.89165E-05 9.37489E-07-1.25413E-19-1.22098E-19
 -1      3614 9.64882E-05-2.86356E-05-2.90802E-05 7.15356E-07-1.33372E-19-1.32985E-20
 -1      3615 9.61296E-05-2.87920E-05-2.88579E-05 9.61734E-07 1.11303E-19-1.40086E-19
 -1      3616 9.60220E-05-2.87804E-05-2.88179E-05 9.91464E-07 1.87710E-19-1.40805E-19
 -1      3617 9.63043E-05-2.87902E-05-2.89353E-05 8.11217E-07-2.77956E-21 1.55435E-19
 -1      3618 9.58758E-05-2.87275E-05-2.87778E-05 9.92600E-07 4.59870E-20-1.83018E-19
 -1      3619 9.57433E-05-2.86524E-05-2.87534E-05 1.00429E-06-1.98405E-20-1.21313E-19
 -1      3620 9.60481E-05-2.87718E-05-2.88329E-05 8.44957E-07 2.91864E-20 1.54793E-19
 -1      3621 9.55650E-05-2.85381E-05-2.87267E-05 9.89486E-07 2.76428E-20-7.87551E-20
 -1      3622 9.54002E-05-2.84046E-05-2.87133E-05 9.91995E-07 4.91035E-21-1.49439E-19
 -1      3623 9.57287E-05-2.86142E-05-2.87626E-05 8.35379E-07 6.33590E-20 2.19030E-19
 -1      3624 9.51709E-05-2.82212E-05-2.86944E-05 9.59904E-07-2.33982E-19-6.72523E-20
 -1      3625 9.49443E-05-2.80135E-05-2.86870E-05 9.53529E-07-3.46972E-19 2.55625E-19
 -1      3626 9.53285E-05-2.83254E-05-2.87135E-05 7.86313E-07-3.20297E-20 2.83659E-19
 -1      3627 9.46680E-05-2.77713E-05-2.86723E-05 8.98128E-07-8.84596E-20 2.72077E-19
 -1      3628 9.43742E-05-2.74986E-05-2.86662E-05 8.76277E-07 3.80448E-19 1.95957E-19
 -1      3629 9.48325E-05-2.79110E-05-2.86763E-05 6.86977E-07-6.73845E-20 5.59589E-19
 -1      3630 9.40191E-05-2.71797E-05-2.86480E-05 7.77289E-07 1.63241E-19-2.37179E-19
 -1      3631 9.36079E-05-2.68148E-05-2.86351E-05 7.19248E-07-1.23071E-19-3.34098E-19
 -1      3632 9.42162E-05-2.73733E-05-2.86398E-05 5.08993E-07 7.06804E-20 4.75951E-19
 -1      3633 9.31409E-05-2.64022E-05-2.86047E-05 5.40500E-07-1.57843E-19-3.93097E-19
 -1      3634 9.25547E-05-2.59206E-05-2.85738E-05 4.07004E-07-6.12088E-19-5.54746E-19
 -1      3635 9.34147E-05-2.66851E-05-2.85874E-05 1.89680E-07-9.67075E-20-1.08077E-19
 -1      3636 9.19365E-05-2.53977E-05-2.85179E-05 8.94726E-08-5.21919E-19-5.96557E-19
 -1      3637 9.10972E-05-2.47744E-05-2.84505E-05-1.87562E-07-3.99589E-19-4.20232E-19
 -1      3638 9.23586E-05-2.58275E-05-2.84974E-05-3.73132E-07-5.17477E-19-4.39555E-19
 -1      3639 9.02861E-05-2.41342E-05-2.83491E-05-7.35966E-07-5.58918E-19-8.03637E-20
 -1      3640 8.90933E-05-2.33529E-05-2.82157E-05-1.26716E-06-4.82520E-19-1.03314E-19
 -1      3641 9.09696E-05-2.47979E-05-2.83374E-05-1.34062E-06-3.78346E-19-4.98137E-19
 -1      3642 8.80569E-05-2.26160E-05-2.80383E-05-2.18311E-06-1.72780E-19-2.58271E-19
 -1      3643 8.63897E-05-2.16898E-05-2.77903E-05-3.13937E-06 7.93432E-20-1.05845E-19
 -1      3644 8.91765E-05-2.36390E-05-2.80594E-05-2.95425E-06-2.67111E-19-1.03614E-19
 -1      3645 8.51291E-05-2.09375E-05-2.74917E-05-4.61642E-06-1.29065E-20-2.86706E-19
 -1      3646 8.28520E-05-1.99422E-05-2.70502E-05-6.24588E-06 2.33885E-19 1.16966E-19
 -1      3647 8.69504E-05-2.24903E-05-2.75922E-05-5.55877E-06 3.83729E-21 3.35835E-22
 -1      3648 8.14332E-05-1.93605E-05-2.65643E-05-8.55541E-06 2.69907E-19-6.53354E-19
 -1      3649 7.84184E-05-1.84732E-05-2.58038E-05-1.11655E-05 1.79904E-19-4.34075E-19
 -1      3650 8.43786E-05-2.16718E-05-2.68352E-05-9.62498E-06-1.21585E-19-4.15526E-19
 -1      3651 1.19166E-04-2.76757E-05-3.94433E-05-1.26074E-05 8.25116E-19-1.52162E-18
 -1      3652 1.24215E-04-3.57270E-05-3.78894E-05-1.09944E-05 4.53057E-19-2.51865E-18
 -1      3653 9.60526E-05-2.82777E-05-2.90495E-05-7.86469E-07 2.48331E-19 2.64718E-19
 -1      3654 9.60770E-05-2.80362E-05-2.91534E-05-5.71711E-07 1.66479E-19 2.72559E-19
 -1      3655 9.62346E-05-2.77544E-05-2.93499E-05-3.44185E-07 3.37159E-19 3.24090E-19
 -1      3656 9.62432E-05-2.83328E-05-2.91064E-05-7.50833E-07 3.11163E-19 3.91426E-19
 -1      3657 8.98106E-05-2.35656E-05-2.84249E-05 2.52215E-07-2.06430E-19 3.19934E-19
 -1      3658 9.08442E-05-2.43097E-05-2.85187E-05 6.14106E-11-1.63205E-19 6.47030E-19
 -1      3659 9.15966E-05-2.49256E-05-2.85945E-05-3.24898E-07-3.61271E-19 3.97158E-19
 -1      3660 9.22919E-05-2.54832E-05-2.86368E-05-4.09300E-07-1.23298E-18-2.05813E-19
 -1      3661 9.12611E-05-2.47453E-05-2.84840E-05 5.99451E-07-5.20054E-19-9.91768E-19
 -1      3662 9.28286E-05-2.59515E-05-2.86744E-05-5.65483E-07-1.30525E-18-4.57875E-19
 -1      3663 9.32896E-05-2.63579E-05-2.86892E-05-5.63067E-07-2.91294E-19-1.39540E-18
 -1      3664 9.25106E-05-2.57362E-05-2.86016E-05 2.28918E-08-1.58699E-18 1.18541E-19
 -1      3665 9.36639E-05-2.66996E-05-2.87058E-05-6.22195E-07 6.98742E-19-1.12055E-18
 -1      3666 9.39621E-05-2.69897E-05-2.87070E-05-5.81197E-07 5.47776E-19-1.28405E-18
 -1      3667 9.33953E-05-2.64984E-05-2.86598E-05-2.56885E-07-2.38036E-19-7.11074E-19
 -1      3668 9.41293E-05-2.71428E-05-2.87084E-05-5.64453E-07 3.43128E-19-8.12769E-19
 -1      3669 9.42603E-05-2.73008E-05-2.87006E-05-4.74391E-07 1.07280E-18-4.64593E-19
 -1      3670 9.41967E-05-2.72657E-05-2.86843E-05-3.12092E-07 6.63844E-19 1.28273E-19
 -1      3671 9.39073E-05-2.69759E-05-2.86797E-05-3.25466E-07 1.37466E-18-1.12050E-18
 -1      3672 9.57390E-05-2.89218E-05-2.86331E-05-1.13229E-06 3.54877E-19 2.33445E-19
 -1      3673 9.57755E-05-2.89233E-05-2.86508E-05-1.11715E-06 4.25784E-19 1.79810E-19
 -1      3674 9.63189E-05-2.97349E-05-2.85306E-05-1.53493E-06-1.07756E-20 9.64043E-19
 -1      3675 9.60712E-05-2.94752E-05-2.85365E-05-1.50937E-06-1.36433E-21 5.74355E-19
 -1      3676 9.59085E-05-2.92832E-05-2.85487E-05-1.40545E-06 1.86918E-19 5.33397E-19
 -1      3677 9.57736E-05-2.91342E-05-2.85576E-05-1.37000E-06 3.44351E-19 2.56943E-19
 -1      3678 9.58978E-05-2.93298E-05-2.85380E-05-1.60113E-06-1.10292E-19 9.82509E-19
 -1      3679 9.81377E-05-3.15218E-05-2.85465E-05-1.61760E-06-6.81755E-19 1.21179E-18
 -1      3680 9.75581E-05-3.09572E-05-2.85295E-05-1.70866E-06-6.11633E-19 1.10817E-18
 -1      3681 9.97098E-05-3.29227E-05-2.86245E-05-1.36295E-06-6.66251E-19 9.39545E-19
 -1      3682 9.89318E-05-3.22043E-05-2.85767E-05-1.60000E-06-6.65294E-19 9.35757E-19
 -1      3683 9.84844E-05-3.19472E-05-2.85409E-05-2.27684E-06-6.30131E-19 4.38909E-19
 -1      3684 1.01760E-04-3.45736E-05-2.88034E-05-6.81757E-07-1.13602E-18 1.01674E-18
 -1      3685 1.00811E-04-3.37723E-05-2.87024E-05-1.14906E-06-8.44027E-19 1.02081E-18
 -1      3686 1.00364E-04-3.35983E-05-2.86448E-05-2.17972E-06-6.65826E-19 2.94183E-19
 -1      3687 1.04163E-04-3.62034E-05-2.91460E-05 6.38106E-07-7.12320E-19 3.12550E-19
 -1      3688 1.03147E-04-3.54880E-05-2.89620E-05-1.38346E-07-8.66935E-19 6.06124E-19
 -1      3689 1.02851E-04-3.55440E-05-2.88794E-05-1.57960E-06-5.91418E-19 9.33511E-19
 -1      3690 1.06584E-04-3.72811E-05-2.97277E-05 2.76665E-06-4.17354E-21 5.47889E-19
 -1      3691 1.05706E-04-3.69600E-05-2.94285E-05 1.64852E-06-1.53411E-19 7.46985E-19
 -1      3692 1.05812E-04-3.74500E-05-2.93260E-05-1.80183E-07-5.51249E-19 7.48548E-19
 -1      3693 1.08439E-04-3.70380E-05-3.06208E-05 5.63789E-06-8.92422E-19 1.50969E-18
 -1      3694 1.07981E-04-3.75242E-05-3.01783E-05 4.26675E-06-7.18198E-19 8.35228E-19
 -1      3695 1.08810E-04-3.86444E-05-3.00817E-05 2.25821E-06-7.45037E-19 1.43503E-18
 -1      3696 1.08879E-04-3.45360E-05-3.18637E-05 8.52848E-06-1.56757E-18 2.22470E-18
 -1      3697 1.09113E-04-3.61517E-05-3.12839E-05 7.40493E-06-1.18551E-18 1.57068E-18
 -1      3698 1.11039E-04-3.80473E-05-3.12347E-05 5.70852E-06-1.37456E-18 1.72986E-18
 -1      3699 1.07336E-04-2.96342E-05-3.32735E-05 1.02131E-05-5.40754E-19 1.62855E-18
 -1      3700 1.08491E-04-3.23530E-05-3.26946E-05 1.00211E-05-1.11892E-18 1.55309E-18
 -1      3701 1.11552E-04-3.49460E-05-3.28071E-05 9.07684E-06-9.89005E-19 1.25288E-18
 -1      3702 1.06156E-04-2.18278E-05-3.61471E-05 9.55196E-06-1.29695E-19 1.46976E-18
 -1      3703 1.07853E-04-2.52707E-05-3.54507E-05 1.06978E-05-4.33410E-19 1.41211E-18
 -1      3704 1.01191E-04-1.72132E-05-3.60167E-05-2.07399E-06 1.15961E-19 2.42517E-18
 -1      3705 1.01073E-04-1.69991E-05-3.60308E-05 9.88408E-07 4.49490E-20 2.32795E-18
 -1      3706 1.03219E-04-2.09969E-05-3.53173E-05-7.91240E-06 1.02629E-18 1.29092E-18
 -1      3707 1.02049E-04-1.86661E-05-3.57057E-05-5.57669E-06 1.04407E-18 2.41047E-18
 -1      3708 1.03848E-04-1.68329E-05-3.73302E-05-4.28376E-06 3.80252E-19 1.53349E-18
 -1      3709 1.06392E-04-2.73165E-05-3.39906E-05-1.04849E-05 9.48033E-19 6.81099E-19
 -1      3710 1.04977E-04-2.41438E-05-3.45980E-05-9.63920E-06 1.06620E-18 7.50963E-19
 -1      3711 1.06812E-04-2.24493E-05-3.61667E-05-9.60268E-06 1.60655E-18 4.81968E-19
 -1      3712 1.08699E-04-3.30872E-05-3.24672E-05-9.66812E-06-2.86223E-19 5.81111E-19
 -1      3713 1.07779E-04-3.04612E-05-3.31126E-05-1.01983E-05 5.33796E-20 1.83376E-19
 -1      3714 1.10045E-04-2.97698E-05-3.43785E-05-1.08647E-05 4.21043E-19 8.29100E-19
 -1      3715 1.09046E-04-3.65210E-05-3.10996E-05-6.92910E-06 2.88149E-19 5.99430E-19
 -1      3716 1.08907E-04-3.50620E-05-3.16596E-05-8.17200E-06 3.20890E-19 5.46994E-19
 -1      3717 1.11580E-04-3.55131E-05-3.25679E-05-8.62147E-06 8.31689E-20 1.77606E-19
 -1      3718 1.07647E-04-3.74631E-05-3.00570E-05-3.85353E-06-1.48871E-19 2.34433E-19
 -1      3719 1.08186E-04-3.71378E-05-3.04757E-05-5.16947E-06-4.54404E-20 2.94318E-19
 -1      3720 1.10766E-04-3.82832E-05-3.10458E-05-5.07936E-06 4.50005E-19 2.35871E-19
 -1      3721 1.05279E-04-3.67006E-05-2.93552E-05-1.35923E-06 4.49407E-21 1.76318E-19
 -1      3722 1.06202E-04-3.71222E-05-2.96331E-05-2.41757E-06 2.58621E-19 2.84454E-19
 -1      3723 1.08343E-04-3.84675E-05-2.99551E-05-1.83601E-06 1.69035E-19 3.90066E-19
 -1      3724 1.02709E-04-3.51233E-05-2.89311E-05 2.73667E-07-4.18578E-19 4.06332E-19
 -1      3725 1.03734E-04-3.58828E-05-2.90974E-05-4.38377E-07-1.08500E-19 3.34812E-19
 -1      3726 1.05286E-04-3.70903E-05-2.92555E-05 4.18262E-07 1.59295E-19-1.01204E-18
 -1      3727 1.00412E-04-3.33772E-05-2.87018E-05 1.15057E-06-3.91747E-19 7.19684E-19
 -1      3728 1.01348E-04-3.41904E-05-2.87902E-05 7.42316E-07-3.96262E-19 2.71973E-19
 -1      3729 1.02356E-04-3.51092E-05-2.88533E-05 1.64986E-06-2.88383E-19-4.59591E-19
 -1      3730 9.85848E-05-3.18146E-05-2.85960E-05 1.49731E-06-1.54928E-18 4.66058E-19
 -1      3731 9.93445E-05-3.25309E-05-2.86353E-05 1.30864E-06-1.17779E-18 6.65870E-19
 -1      3732 9.99326E-05-3.31560E-05-2.86482E-05 2.12181E-06-1.16356E-18 3.81198E-19
 -1      3733 9.72476E-05-3.05742E-05-2.85613E-05 1.52425E-06-1.19061E-18 5.48967E-19
 -1      3734 9.78138E-05-3.11371E-05-2.85727E-05 1.47494E-06-8.68379E-19 2.95851E-19
 -1      3735 9.81116E-05-3.15208E-05-2.85622E-05 2.13064E-06-1.49595E-18 1.24340E-18
 -1      3736 9.63365E-05-2.96719E-05-2.85627E-05 1.38617E-06-2.39961E-18 3.03064E-19
 -1      3737 9.67296E-05-3.00782E-05-2.85603E-05 1.41457E-06-1.97052E-18 4.73407E-19
 -1      3738 9.68438E-05-3.02860E-05-2.85417E-05 1.90433E-06-1.56028E-18 9.32356E-19
 -1      3739 9.57568E-05-2.90619E-05-2.85790E-05 1.18278E-06-8.98096E-19-6.28865E-19
 -1      3740 9.60122E-05-2.93351E-05-2.85713E-05 1.24758E-06-2.03039E-18-7.17377E-19
 -1      3741 9.60206E-05-2.94253E-05-2.85523E-05 1.59120E-06-1.23163E-18-5.03536E-19
 -1      3742 9.54067E-05-2.86752E-05-2.85984E-05 9.68779E-07 6.33261E-19-1.06629E-18
 -1      3743 9.55679E-05-2.88466E-05-2.85899E-05 1.04341E-06 5.77732E-20-5.03265E-19
 -1      3744 9.55223E-05-2.88648E-05-2.85742E-05 1.27414E-06-1.31481E-19 3.58419E-19
 -1      3745 7.63037E-05-1.82102E-05-2.48812E-05-1.47491E-05-9.80044E-21-6.59296E-19
 -1      3746 7.25110E-05-1.72040E-05-2.37375E-05-1.74655E-05 6.25084E-19-1.38743E-18
 -1      3747 7.89747E-05-1.75565E-05-2.64369E-05 7.04810E-06-6.43341E-19-5.69212E-19
 -1      3748 8.20006E-05-1.88277E-05-2.70628E-05 5.25090E-06-5.39583E-19-2.12722E-19
 -1      3749 7.19626E-05-1.51910E-05-2.44349E-05 1.25572E-05-6.71062E-19-1.53239E-18
 -1      3750 7.66860E-05-1.66125E-05-2.57126E-05 9.55980E-06-1.05363E-18-1.10588E-18
 -1      3751 8.03657E-05-1.92822E-05-2.60685E-05 1.13948E-05-6.37415E-19-1.08138E-18
 -1      3752 7.55795E-05-1.88408E-05-2.41859E-05 1.86039E-05-1.29517E-18-7.33411E-19
 -1      3753 9.70320E-05-3.04627E-05-2.85246E-05-1.63185E-06-6.56032E-19 1.20253E-18
 -1      3754 9.66350E-05-3.00609E-05-2.85235E-05-1.64254E-06-8.49859E-20 1.40629E-18
 -1      3755 9.63618E-05-2.98553E-05-2.85158E-05-1.86056E-06-3.29804E-19 1.32996E-18
 -1      3756 7.40868E-05-1.98043E-05-2.30115E-05-2.27366E-05 1.99453E-19-1.78999E-18
 -1      3757 1.09297E-04-4.68919E-05-2.64890E-05-2.79721E-05 1.08063E-19-1.43655E-18
 -1      3758 1.16337E-04-4.93061E-05-2.87291E-05-1.99318E-05 1.22628E-19-9.76735E-19
 -1      3759 9.45178E-05-2.21618E-05-3.09923E-05 1.64474E-08 2.42794E-19-4.10104E-19
 -1      3760 9.38022E-05-2.09024E-05-3.12525E-05-2.08004E-07 2.85531E-19-5.24802E-19
 -1      3761 9.38483E-05-2.09931E-05-3.12348E-05-7.65840E-07 2.90095E-19-5.77859E-19
 -1      3762 8.37235E-05-1.97578E-05-2.74938E-05 3.50774E-06 2.73373E-19-5.92036E-19
 -1      3763 8.58830E-05-2.09068E-05-2.78437E-05 2.45996E-06 7.98656E-19-7.85164E-19
 -1      3764 8.42033E-05-2.06088E-05-2.71988E-05 6.64070E-06-2.21771E-19-2.02732E-19
 -1      3765 8.72745E-05-2.18382E-05-2.80974E-05 1.40698E-06 7.54380E-19-1.16101E-18
 -1      3766 8.87816E-05-2.27904E-05-2.82836E-05 8.57163E-07 1.81436E-19-8.39644E-19
 -1      3767 8.95362E-05-2.35145E-05-2.82640E-05 1.67242E-06 8.89989E-19-8.84226E-19
 -1      3768 9.59960E-05-2.60193E-05-2.99968E-05-5.76795E-07-1.70230E-19-9.63541E-21
 -1      3769 9.41658E-05-2.73464E-05-2.86404E-05 2.24913E-07-5.34958E-19 2.75475E-18
 -1      3770 9.42444E-05-2.74358E-05-2.86296E-05 3.95733E-07-1.71046E-18 1.86966E-18
 -1      3771 9.53172E-05-2.85387E-05-2.86189E-05 7.39337E-07 1.30381E-18-1.65561E-18
 -1      3772 9.54991E-05-2.48968E-05-3.02587E-05 1.55942E-06 4.64696E-19 2.93384E-19
 -1      3773 1.20853E-04-3.99544E-05-3.45829E-05 7.32515E-06-1.86612E-21 4.55413E-19
 -1      3774 1.19092E-04-3.43057E-05-3.66053E-05 1.12758E-05-6.31185E-19-4.21928E-20
 -1      3775 7.59098E-05-2.34331E-05-2.23967E-05-2.77077E-05 1.28908E-19-1.82053E-18
 -1      3776 7.93348E-05-2.76893E-05-2.17787E-05-3.24955E-05-1.89947E-19-1.55092E-18
 -1      3777 8.84520E-05-3.33351E-05-2.36681E-05-3.10302E-05-3.06348E-19-2.02470E-18
 -1      3778 9.63261E-05-2.70288E-05-2.96912E-05-1.16458E-07 4.92945E-21 9.47522E-20
 -1      3779 9.63902E-05-2.75030E-05-2.95305E-05 1.93155E-07 1.53012E-19 1.31162E-19
 -1      3780 9.65142E-05-2.75699E-05-2.95457E-05 2.07626E-07-5.49594E-21 2.58512E-19
 -1      3781 1.14760E-04-2.95147E-05-3.66083E-05 1.14289E-05-7.61748E-19 1.31171E-19
 -1      3782 9.43536E-05-2.20657E-05-3.09924E-05 2.55320E-06 5.19915E-19-3.72105E-20
 -1      3783 9.41371E-05-2.15854E-05-3.10971E-05 2.12573E-06 5.20784E-19-1.61184E-19
 -1      3784 9.47028E-05-2.26373E-05-3.08701E-05 1.55609E-06 4.75412E-19-5.53449E-20
 -1      3785 9.47991E-05-2.30025E-05-3.07606E-05 2.17139E-06 5.37698E-19 6.15600E-20
 -1      3786 1.02533E-04-1.90682E-05-3.58044E-05 6.40082E-06-3.17174E-20 1.70822E-18
 -1      3787 1.07954E-04-1.87999E-05-3.82788E-05 8.29389E-06-3.03595E-19 7.09023E-19
 -1      3788 1.08051E-04-1.52900E-05-3.98763E-05 6.74452E-06 3.96425E-19-1.65463E-19
 -1      3789 1.01771E-04-1.74970E-05-3.61203E-05 3.84650E-06 3.26108E-20 1.90769E-18
 -1      3790 1.11629E-04-4.54812E-05-2.83000E-05 1.83026E-05 2.63733E-19-2.29529E-18
 -1      3791 1.04915E-04-4.10517E-05-2.74612E-05 1.96230E-05-2.21883E-20-1.29329E-18
 -1      3792 1.13699E-04-4.52568E-05-2.92964E-05 1.24601E-05-5.50571E-21-3.38880E-18
 -1      3793 9.51320E-05-2.83437E-05-2.86249E-05 6.79384E-07 5.32782E-19-1.78264E-18
 -1      3794 9.41989E-05-2.74341E-05-2.86118E-05 6.03635E-07-1.10174E-18 7.02122E-19
 -1      3795 9.43762E-05-2.76042E-05-2.86211E-05 5.54886E-07-2.19752E-18-1.10914E-18
 -1      3796 9.45039E-05-2.77234E-05-2.86160E-05 6.63691E-07-1.61181E-18-1.71997E-18
 -1      3797 8.11739E-05-2.15031E-05-2.55332E-05-1.58509E-05-7.07984E-20-6.25933E-19
 -1      3798 1.20990E-04-4.42623E-05-3.29792E-05-2.29796E-06-5.96343E-19-1.69255E-18
 -1      3799 1.21878E-04-4.64616E-05-3.22644E-05 1.06523E-06-1.81434E-18-8.44540E-19
 -1      3800 1.21975E-04-3.85298E-05-3.58062E-05-8.63557E-06 1.24282E-19-2.71073E-18
 -1      3801 1.18492E-04-4.61405E-05-3.10597E-05 4.50695E-06-8.06236E-19-1.46152E-18
 -1      3802 9.63894E-05-2.78603E-05-2.93743E-05-3.93363E-07 2.63799E-19 2.70833E-19
 -1      3803 9.63653E-05-2.74727E-05-2.95180E-05-1.26024E-07 4.20565E-19 2.84756E-19
 -1      3804 1.05607E-04-1.43438E-05-3.91978E-05 3.59233E-06 6.33687E-20-1.88771E-19
 -1      3805 9.51150E-05-2.35021E-05-3.07004E-05 8.20693E-07 4.38153E-19 6.63343E-20
 -1      3806 9.50493E-05-2.33377E-05-3.07408E-05 4.70102E-07 3.82874E-19 6.02125E-21
 -1      3807 9.58808E-05-2.89408E-05-2.86909E-05-1.02533E-06 3.22181E-19-3.09103E-19
 -1      3808 9.58609E-05-2.89398E-05-2.86783E-05-1.09269E-06 2.21846E-19 1.07835E-19
 -1      3809 9.59188E-05-2.89423E-05-2.87037E-05-1.07913E-06 2.58702E-19-3.87411E-20
 -1      3810 8.08764E-05-2.48716E-05-2.41068E-05-2.40076E-05 1.35939E-19-1.33082E-18
 -1      3811 9.71850E-05-3.07048E-05-2.85100E-05-2.11623E-06-5.34696E-19 1.24946E-18
 -1      3812 9.56793E-05-2.89164E-05-2.86124E-05-1.17131E-06-2.88328E-20 3.35231E-19
 -1      3813 9.57343E-05-2.89139E-05-2.86403E-05-1.10133E-06 2.70048E-19-1.69092E-20
 -1      3814 9.56785E-05-2.89383E-05-2.85994E-05-1.19399E-06-1.82016E-19 2.98487E-19
 -1      3815 9.63139E-05-2.87443E-05-2.89592E-05-9.11265E-07 5.74915E-19-2.90886E-19
 -1      3816 9.63668E-05-2.86096E-05-2.90358E-05-8.19962E-07 4.40314E-19-9.43012E-20
 -1      3817 9.41484E-05-2.72623E-05-2.86678E-05-1.23175E-07 5.77557E-19 9.81369E-19
 -1      3818 9.41508E-05-2.72901E-05-2.86540E-05 4.81965E-08 6.18134E-19 1.60242E-18
 -1      3819 9.40280E-05-2.72033E-05-2.86348E-05 2.43961E-07 5.97260E-19 3.07365E-18
 -1      3820 9.40152E-05-2.71299E-05-2.86651E-05-1.26128E-07 1.28846E-18 8.97613E-19
 -1      3821 9.56902E-05-2.90477E-05-2.85671E-05-1.38173E-06 2.98475E-19 8.62689E-19
 -1      3822 9.57179E-05-2.90398E-05-2.85721E-05-1.28602E-06 4.22289E-19 2.31738E-19
 -1      3823 9.56635E-05-2.89686E-05-2.85826E-05-1.25457E-06 1.45661E-19 3.90699E-19
 -1      3824 1.11660E-04-2.78926E-05-3.59719E-05 1.13600E-05-4.91828E-19 1.00091E-18
 -1      3825 1.03653E-04-1.57772E-05-3.77245E-05 2.15315E-06 2.13214E-20 7.97984E-19
 -1      3826 1.12914E-04-4.61534E-05-2.86544E-05-1.67777E-05-4.77244E-19-5.00970E-19
 -1      3827 1.20231E-04-5.00215E-05-3.00113E-05-1.35913E-05-6.82603E-19-1.16407E-18
 -1      3828 1.20298E-04-4.78033E-05-3.11180E-05-6.54998E-06-1.23890E-18 2.60813E-19
 -1      3829 9.52375E-05-2.84619E-05-2.86159E-05 7.79405E-07 1.21333E-18-1.37720E-18
 -1      3830 9.51692E-05-2.84265E-05-2.86050E-05 9.10722E-07 8.56694E-19-1.32953E-18
 -1      3831 9.63617E-05-2.70449E-05-2.97097E-05 5.04103E-08 4.39992E-19 1.78861E-19
 -1      3832 9.62128E-05-2.69522E-05-2.96916E-05 1.20845E-07 5.11605E-19 3.56452E-19
 -1      3833 9.60857E-05-2.63511E-05-2.98826E-05 5.41095E-07 5.05925E-19 3.22776E-19
 -1      3834 9.55392E-05-2.42885E-05-3.05237E-05 2.36824E-07 3.93430E-19-9.23117E-20
 -1      3835 9.50266E-05-2.32666E-05-3.07626E-05 2.01612E-07 2.39445E-19-3.72806E-19
 -1      3836 9.50249E-05-2.32638E-05-3.07631E-05-1.71877E-07 2.45397E-19-6.11238E-19
 -1      3837 9.61239E-05-2.61276E-05-2.99973E-05-4.20181E-07-2.79318E-21 8.43027E-20
 -1      3838 1.02163E-04-4.21279E-05-2.57236E-05-2.83739E-05 1.85871E-19-1.82986E-18
 -1      3839 9.45896E-05-2.23349E-05-3.09493E-05-8.29756E-07 3.20459E-19-5.22133E-19
 -1      3840 9.52193E-05-2.38091E-05-3.06072E-05-1.08971E-06 1.79938E-19-3.44485E-19
 -1      3841 1.21253E-04-4.51393E-05-3.24841E-05 8.94811E-07-6.80697E-19 1.08240E-18
 -1      3842 1.21257E-04-4.39455E-05-3.33253E-05 3.45376E-06-2.20149E-19 1.00302E-18
 -1      3843 9.46623E-05-2.79054E-05-2.86136E-05 7.42984E-07-1.00813E-18-2.81220E-18
 -1      3844 9.48017E-05-2.80304E-05-2.86122E-05 7.90106E-07 4.44480E-19-2.02829E-18
 -1      3845 9.45260E-05-2.77920E-05-2.86016E-05 8.41718E-07-9.96966E-19-3.03529E-18
 -1      3846 8.72010E-05-2.20719E-05-2.78711E-05 3.54346E-06 6.30433E-19-7.18093E-19
 -1      3847 1.17590E-04-3.92444E-05-3.35447E-05 7.05335E-06-6.57435E-19 5.56226E-19
 -1      3848 9.58246E-05-2.56235E-05-3.00900E-05 8.59429E-07 3.57455E-19 1.34115E-19
 -1      3849 9.53186E-05-2.41740E-05-3.04909E-05 1.69885E-06 4.00318E-19 3.87392E-20
 -1      3850 9.52217E-05-2.39050E-05-3.05666E-05 1.45325E-06 3.70082E-19-1.21323E-19
 -1      3851 9.59429E-05-2.57026E-05-3.00993E-05 6.70658E-07 2.95154E-19 5.31579E-20
 -1      3852 9.61743E-05-2.88987E-05-2.88319E-05-1.00966E-06 3.34750E-19-2.13092E-19
 -1      3853 9.62410E-05-2.88360E-05-2.88859E-05-9.63064E-07 5.30265E-19-1.87435E-19
 -1      3854 9.64134E-05-2.87890E-05-2.89833E-05-8.18411E-07 5.40408E-19-3.03140E-19
 -1      3855 8.71670E-05-2.90492E-05-2.48332E-05 2.47571E-05-1.44753E-18 4.97605E-19
 -1      3856 7.97303E-05-2.30807E-05-2.43246E-05 2.17545E-05-1.78375E-18 1.22218E-19
 -1      3857 8.22279E-05-2.26986E-05-2.54264E-05 1.73691E-05-1.16977E-18-3.44367E-19
 -1      3858 9.32784E-05-3.26358E-05-2.59095E-05 2.24149E-05-1.03831E-18 1.99159E-19
 -1      3859 1.20176E-04-4.11807E-05-3.37971E-05-6.36203E-06 5.31844E-20-1.62064E-18
 -1      3860 1.17578E-04-4.16457E-05-3.25786E-05-4.31335E-06-2.70467E-19-1.70267E-19
 -1      3861 1.17408E-04-3.56407E-05-3.51282E-05-9.90789E-06 1.75428E-19-1.09973E-18
 -1      3862 1.08961E-04-1.21371E-05-4.16987E-05-3.39567E-06 7.39036E-19-1.51031E-18
 -1      3863 1.08299E-04-1.48241E-05-4.01504E-05-5.93952E-06 8.19147E-19-1.48935E-18
 -1      3864 9.66292E-05-2.85732E-05-2.91651E-05 5.39645E-07-6.54740E-20-7.10054E-21
 -1      3865 9.65577E-05-2.87111E-05-2.90785E-05 6.12482E-07 6.02839E-21 7.69047E-20
 -1      3866 9.64612E-05-2.87946E-05-2.89987E-05 6.35519E-07-3.64480E-20 2.58254E-19
 -1      3867 9.63481E-05-2.88318E-05-2.89363E-05 6.70303E-07 5.71349E-21 3.07078E-19
 -1      3868 9.65864E-05-2.87442E-05-2.90755E-05 4.74276E-07 9.88630E-20 5.64909E-19
 -1      3869 9.62087E-05-2.88251E-05-2.88779E-05 6.68495E-07 1.09121E-19 1.81527E-19
 -1      3870 9.60628E-05-2.87848E-05-2.88342E-05 6.76549E-07 3.81491E-21 1.91001E-19
 -1      3871 9.63520E-05-2.88385E-05-2.89347E-05 5.03911E-07-6.30368E-20 5.67623E-19
 -1      3872 9.58901E-05-2.87081E-05-2.87919E-05 6.53686E-07-3.69633E-20 1.74900E-19
 -1      3873 9.57122E-05-2.86047E-05-2.87617E-05 6.40649E-07 2.26542E-20 3.23817E-19
 -1      3874 9.60430E-05-2.87690E-05-2.88317E-05 4.85443E-07-3.97546E-20 4.18938E-19
 -1      3875 9.54975E-05-2.84622E-05-2.87292E-05 5.91923E-07 5.06204E-20 4.92031E-19
 -1      3876 9.52680E-05-2.82921E-05-2.87066E-05 5.52584E-07 2.01080E-20 5.98362E-19
 -1      3877 9.56607E-05-2.85646E-05-2.87546E-05 4.15842E-07 1.44117E-19 5.12716E-19
 -1      3878 9.50268E-05-2.81022E-05-2.86817E-05 4.71126E-07-4.45637E-20 7.24933E-19
 -1      3879 9.47522E-05-2.78827E-05-2.86633E-05 3.98638E-07 8.04482E-20 7.83847E-19
 -1      3880 9.52114E-05-2.82516E-05-2.86950E-05 2.81083E-07 1.53065E-19 7.61786E-19
 -1      3881 9.44673E-05-2.76422E-05-2.86385E-05 2.63979E-07-1.45672E-20 4.41717E-19
 -1      3882 9.41146E-05-2.73631E-05-2.86162E-05 1.33311E-07-1.24832E-19 2.16838E-19
 -1      3883 9.46945E-05-2.78520E-05-2.86431E-05 5.26629E-08-1.99479E-19 6.72827E-19
 -1      3884 9.37755E-05-2.70726E-05-2.85846E-05-8.95475E-08-1.88105E-19 2.48232E-21
 -1      3885 9.33130E-05-2.67282E-05-2.85499E-05-3.19864E-07-4.66488E-19-3.98820E-19
 -1      3886 9.40825E-05-2.73730E-05-2.85846E-05-3.27553E-07-4.82925E-19 7.70662E-20
 -1      3887 9.29108E-05-2.63923E-05-2.85025E-05-6.82166E-07-4.72364E-19-4.17047E-19
 -1      3888 9.23012E-05-2.59831E-05-2.84426E-05-1.07785E-06-3.90626E-19-3.85897E-19
 -1      3889 9.33553E-05-2.68292E-05-2.85041E-05-9.48355E-07-4.53244E-19-3.76588E-19
 -1      3890 9.18370E-05-2.56211E-05-2.83675E-05-1.65585E-06-3.68478E-19-4.16097E-19
 -1      3891 9.10418E-05-2.51625E-05-2.82638E-05-2.31642E-06-5.35155E-19-1.53108E-19
 -1      3892 9.25050E-05-2.62617E-05-2.83816E-05-1.94081E-06-3.74719E-19-5.88027E-20
 -1      3893 9.05416E-05-2.48239E-05-2.81451E-05-3.21442E-06-3.19466E-19-1.87661E-19
 -1      3894 8.95339E-05-2.43659E-05-2.79704E-05-4.28333E-06 8.91697E-20 4.58936E-20
 -1      3895 9.15565E-05-2.57582E-05-2.81912E-05-3.48627E-06-3.94462E-19 1.99656E-19
 -1      3896 8.90755E-05-2.41573E-05-2.77883E-05-5.63592E-06-2.88359E-20-3.59989E-19
 -1      3897 8.78666E-05-2.38135E-05-2.75041E-05-7.30872E-06-2.94924E-19-3.56040E-19
 -1      3898 9.06080E-05-2.54974E-05-2.79008E-05-5.82092E-06-2.25601E-19-1.35212E-20
 -1      3899 8.76226E-05-2.39439E-05-2.72377E-05-9.26384E-06-6.30815E-19-3.43744E-19
 -1      3900 8.63493E-05-2.39517E-05-2.67936E-05-1.17949E-05-3.31900E-19-8.51100E-19
 -1      3901 8.98936E-05-2.58019E-05-2.74763E-05-9.22069E-06-4.30050E-19-1.05238E-18
 -1      3902 1.15279E-04-2.25178E-05-3.98222E-05-1.21886E-05 1.78549E-18-1.56968E-18
 -1      3903 1.14775E-04-2.70112E-05-3.76902E-05-1.17196E-05 1.43011E-18-8.78128E-19
 -1      3904 9.65510E-05-2.72866E-05-2.96817E-05 5.03420E-08 4.34316E-20-2.84431E-21
 -1      3905 9.66249E-05-2.77369E-05-2.95285E-05 2.55793E-07-1.26432E-19-3.98196E-20
 -1      3906 1.05053E-04-1.40137E-05-3.90956E-05 8.91001E-07 6.71869E-20 4.06928E-19
 -1      3907 1.15874E-04-4.38327E-05-3.08806E-05 2.16291E-06-7.77812E-19-4.30902E-19
 -1      3908 1.15833E-04-4.53339E-05-3.01381E-05 7.09391E-06 1.58137E-19-2.12414E-18
 -1      3909 9.11247E-05-2.49093E-05-2.84056E-05 1.43691E-06-2.73001E-20-1.55371E-19
 -1      3910 9.18656E-05-2.53862E-05-2.84861E-05 9.99287E-07-5.93282E-19 8.75242E-20
 -1      3911 9.63083E-05-2.97950E-05-2.84953E-05-2.18059E-06-4.05272E-19 1.35240E-18
 -1      3912 9.59898E-05-2.94695E-05-2.85053E-05-2.01690E-06-1.28792E-19 1.55844E-18
 -1      3913 9.23270E-05-2.57608E-05-2.85461E-05 5.86952E-07-1.36776E-18 1.41886E-19
 -1      3914 9.28612E-05-2.61481E-05-2.85884E-05 3.57912E-07-1.65477E-18 8.94090E-19
 -1      3915 9.23407E-05-2.58557E-05-2.84807E-05 1.32397E-06-1.38806E-18 2.05810E-18
 -1      3916 8.75327E-05-2.29324E-05-2.77413E-05 5.25811E-06 3.07419E-19-8.42433E-19
 -1      3917 8.88784E-05-2.35154E-05-2.79917E-05 3.97799E-06 9.12075E-19-9.30659E-19
 -1      3918 8.59814E-05-2.67381E-05-2.53134E-05-2.08184E-05-4.10646E-19-1.19296E-18
 -1      3919 8.85720E-05-3.00292E-05-2.49112E-05-2.47506E-05-2.40478E-19-1.61421E-18
 -1      3920 9.91812E-05-3.65035E-05-2.68109E-05 2.05144E-05-1.11249E-18-1.72884E-19
 -1      3921 9.21471E-05-3.08666E-05-2.63686E-05 1.91512E-05-1.42878E-18 1.96303E-19
 -1      3922 1.00760E-04-3.39738E-05-2.86185E-05-3.23933E-06-9.21135E-19-4.39299E-20
 -1      3923 9.96449E-05-3.29805E-05-2.85442E-05-3.29617E-06-5.89941E-19 2.69826E-20
 -1      3924 9.86337E-05-3.20877E-05-2.85096E-05-3.04978E-06-4.60420E-19 2.92940E-19
 -1      3925 9.78312E-05-3.13343E-05-2.84833E-05-2.94948E-06-2.75426E-19 6.61784E-19
 -1      3926 9.87460E-05-3.23981E-05-2.84700E-05-4.06660E-06-4.51782E-19 4.68208E-19
 -1      3927 1.07179E-04-3.86479E-05-2.93946E-05-1.65226E-06-7.18189E-19 1.02261E-18
 -1      3928 1.05602E-04-3.75699E-05-2.91032E-05-2.47839E-06-9.24715E-19 9.16929E-19
 -1      3929 1.10800E-04-4.02743E-05-3.02646E-05 8.01426E-07-1.15579E-18 1.49213E-18
 -1      3930 1.09446E-04-3.97363E-05-2.98150E-05-4.90841E-07-4.79070E-19 1.45081E-18
 -1      3931 1.08875E-04-4.00939E-05-2.95404E-05-3.03833E-06-1.13185E-18 1.01201E-18
 -1      3932 1.13806E-04-3.39480E-05-3.41662E-05 1.04434E-05-7.38063E-19 7.63397E-19
 -1      3933 1.14018E-04-3.67260E-05-3.32245E-05 8.48985E-06-8.81771E-19 8.70068E-19
 -1      3934 1.13887E-04-3.81897E-05-3.24697E-05-7.26924E-06 3.40189E-19-3.35607E-19
 -1      3935 1.13586E-04-3.58228E-05-3.33391E-05-8.88278E-06-1.48439E-19 5.57073E-20
 -1      3936 1.08810E-04-3.94114E-05-2.96890E-05 8.60025E-07 8.30398E-19 4.44866E-19
 -1      3937 1.10299E-04-4.00492E-05-3.01412E-05-4.52865E-07 8.17097E-20 7.58021E-19
 -1      3938 1.04971E-04-3.70838E-05-2.90434E-05 2.62333E-06 2.94135E-19-9.52649E-19
 -1      3939 1.06537E-04-3.82052E-05-2.93076E-05 1.88899E-06 6.31753E-19-1.92049E-19
 -1      3940 1.08153E-04-3.95906E-05-2.94229E-05 3.40487E-06 9.81881E-19 6.86749E-19
 -1      3941 1.01692E-04-3.46235E-05-2.87058E-05 3.23860E-06-4.20783E-19-4.88729E-19
 -1      3942 1.03070E-04-3.57742E-05-2.88457E-05 2.95038E-06-4.61922E-19-8.79912E-19
 -1      3943 1.03949E-04-3.67259E-05-2.88588E-05 4.45613E-06-1.47779E-19-6.85499E-19
 -1      3944 9.91950E-05-3.25087E-05-2.85556E-05 3.16595E-06-1.91183E-18 8.05407E-19
 -1      3945 1.00276E-04-3.34855E-05-2.86188E-05 3.15661E-06-8.68106E-19 4.72315E-19
 -1      3946 1.00654E-04-3.40460E-05-2.85889E-05 4.42984E-06-9.25340E-19-1.27402E-19
 -1      3947 9.74461E-05-3.08915E-05-2.85090E-05 2.75891E-06-1.57750E-18 1.32363E-18
 -1      3948 9.82252E-05-3.16341E-05-2.85288E-05 2.89183E-06-2.05280E-18 1.01453E-18
 -1      3949 9.83006E-05-3.19024E-05-2.84874E-05 3.88225E-06-1.92206E-18 9.26834E-19
 -1      3950 9.63069E-05-2.97562E-05-2.85145E-05 2.24344E-06-1.20145E-18 1.32510E-18
 -1      3951 9.68290E-05-3.02749E-05-2.85125E-05 2.42903E-06-1.16549E-18 1.84760E-18
 -1      3952 9.67484E-05-3.03613E-05-2.84734E-05 3.14625E-06-1.46065E-18 1.24913E-18
 -1      3953 9.56183E-05-2.90173E-05-2.85404E-05 1.74543E-06-5.59269E-19 1.24990E-20
 -1      3954 9.59445E-05-2.93535E-05-2.85297E-05 1.93314E-06-1.01738E-18 6.66382E-19
 -1      3955 9.58001E-05-2.93371E-05-2.84986E-05 2.41875E-06-7.15620E-19 8.56589E-19
 -1      3956 9.52400E-05-2.85705E-05-2.85707E-05 1.32078E-06 9.89385E-19-5.71650E-19
 -1      3957 9.54258E-05-2.87751E-05-2.85581E-05 1.48675E-06 2.91490E-20-5.13871E-19
 -1      3958 9.52681E-05-2.87074E-05-2.85353E-05 1.79778E-06 4.00120E-19-1.10975E-18
 -1      3959 8.95457E-05-2.39330E-05-2.81599E-05 2.88235E-06 1.31489E-18-2.23319E-19
 -1      3960 9.05523E-05-2.44850E-05-2.83037E-05 2.11894E-06 5.62684E-19-7.80626E-20
 -1      3961 9.13310E-05-2.52206E-05-2.83195E-05 2.49883E-06 3.42958E-19 6.93492E-19
 -1      3962 9.59880E-05-2.55341E-05-3.01984E-05-5.44706E-07 6.72158E-20-2.03885E-19
 -1      3963 9.63412E-05-2.66170E-05-2.98877E-05-1.32148E-07 8.15321E-20-9.28076E-21
 -1      3964 1.18053E-04-4.54113E-05-3.11789E-05-3.35065E-06-1.29044E-18 7.31016E-19
 -1      3965 9.48748E-05-2.81411E-05-2.86022E-05 9.14928E-07 9.96924E-20-1.93385E-18
 -1      3966 9.49553E-05-2.81924E-05-2.86139E-05 7.95134E-07 1.16690E-18 2.90960E-19
 -1      3967 9.51109E-05-2.34968E-05-3.07032E-05-8.18050E-07 2.94166E-19-5.11280E-19
 -1      3968 9.56319E-05-2.46176E-05-3.04227E-05-6.49896E-07 1.50235E-19-3.75278E-19
 -1      3969 9.59071E-05-2.52411E-05-3.02905E-05-3.54610E-07 2.01769E-19-5.24617E-19
 -1      3970 9.50427E-05-2.33172E-05-3.07471E-05-4.32163E-07 2.74238E-19-6.49149E-19
 -1      3971 8.51772E-05-2.22030E-05-2.70680E-05 8.92860E-06-4.74964E-19-5.86608E-19
 -1      3972 8.68806E-05-2.26655E-05-2.74806E-05 6.92565E-06 2.65247E-19-2.35301E-19
 -1      3973 8.88344E-05-2.43228E-05-2.76405E-05 7.28535E-06 3.08056E-19-9.10936E-19
 -1      3974 9.52008E-05-2.37867E-05-3.06101E-05 1.15653E-06 3.41350E-19-7.33995E-20
 -1      3975 9.50416E-05-2.82727E-05-2.86144E-05 7.92421E-07 8.79483E-19-1.06103E-19
 -1      3976 9.71968E-05-3.07110E-05-2.84826E-05-2.63728E-06-3.87034E-19 7.97467E-19
 -1      3977 9.66662E-05-3.01916E-05-2.84811E-05-2.47735E-06-5.91934E-19 9.89059E-19
 -1      3978 9.71378E-05-3.08236E-05-2.84449E-05-3.36284E-06-2.62423E-19 7.41371E-19
 -1      3979 9.60145E-05-2.89472E-05-2.87417E-05-1.05961E-06 1.84691E-19-2.66476E-20
 -1      3980 9.60823E-05-2.89288E-05-2.87789E-05-1.03714E-06 2.63637E-19-2.80486E-19
 -1      3981 9.60620E-05-2.89620E-05-2.87592E-05-9.69713E-07 1.43096E-19-1.92309E-19
 -1      3982 1.14843E-04-3.96662E-05-3.21876E-05 5.72609E-06-8.26195E-19 1.09674E-18
 -1      3983 1.03641E-04-3.62721E-05-2.88797E-05-2.89829E-06-1.04417E-18 3.17906E-19
 -1      3984 1.02239E-04-3.51294E-05-2.87212E-05-3.25798E-06-1.07780E-18 3.26527E-19
 -1      3985 1.04621E-04-3.72979E-05-2.89053E-05-4.40001E-06-1.50230E-18 4.35410E-19
 -1      3986 1.06389E-04-1.31393E-05-4.00262E-05-2.92330E-07-1.71630E-19 4.67609E-19
 -1      3987 9.64005E-05-2.84237E-05-2.91355E-05-7.23559E-07 4.69508E-19 4.28730E-21
 -1      3988 9.64232E-05-2.81821E-05-2.92416E-05-5.61485E-07 3.43343E-19 1.93400E-19
 -1      3989 9.65177E-05-2.79234E-05-2.93971E-05-3.80800E-07 4.87866E-19 1.28511E-20
 -1      3990 9.20614E-05-3.35713E-05-2.50456E-05-2.62700E-05-4.22193E-19-2.08479E-18
 -1      3991 9.76374E-05-3.82498E-05-2.52114E-05-2.83114E-05-5.51465E-19-2.41898E-18
 -1      3992 1.04138E-04-4.15389E-05-2.68974E-05-2.30965E-05-3.52495E-19-6.73103E-19
 -1      3993 9.55669E-05-3.47030E-05-2.62033E-05-2.24741E-05-1.04520E-18-1.58870E-18
 -1      3994 1.10907E-04-1.91943E-05-3.93836E-05-1.03294E-05 2.15790E-18-1.36077E-18
 -1      3995 9.66771E-05-2.80986E-05-2.93887E-05 3.55904E-07-2.16120E-19 7.78069E-20
 -1      3996 9.66650E-05-2.83701E-05-2.92720E-05 4.83138E-07-1.66422E-19-9.26280E-20
 -1      3997 9.67062E-05-2.78353E-05-2.95142E-05 2.20312E-07-1.05039E-19-7.79220E-20
 -1      3998 1.09495E-04-2.42755E-05-3.66756E-05-1.10657E-05 1.75485E-18-2.30187E-19
 -1      3999 1.07747E-04-2.02742E-05-3.74769E-05-9.38457E-06 1.91588E-18 1.39511E-19
 -1      4000 8.66787E-05-2.46423E-05-2.65027E-05-1.40530E-05-3.22481E-19-8.31383E-19
 -1      4001 8.49560E-05-2.48993E-05-2.57208E-05-1.78491E-05-1.87816E-19-9.86008E-19
 -1      4002 9.10890E-05-2.97668E-05-2.63421E-05-1.86138E-05-6.05349E-19-1.08258E-18
 -1      4003 8.98611E-05-2.71223E-05-2.69477E-05-1.35406E-05-4.07668E-19-6.48151E-19
 -1      4004 9.58231E-05-2.92452E-05-2.85248E-05-1.77098E-06-3.13932E-19 1.76012E-18
 -1      4005 9.56598E-05-2.90653E-05-2.85393E-05-1.63031E-06-2.82433E-20 1.46812E-18
 -1      4006 9.56739E-05-2.91900E-05-2.85036E-05-2.05482E-06-1.20739E-19 1.86427E-18
 -1      4007 1.13330E-04-2.85449E-05-3.63222E-05-1.16302E-05 9.97222E-19-2.97908E-19
 -1      4008 1.08080E-04-1.78383E-05-3.87987E-05-8.54557E-06 1.50602E-18-5.64685E-19
 -1      4009 1.14161E-04-4.08385E-05-3.13956E-05 3.64254E-06-1.23121E-18 1.06200E-18
 -1      4010 1.14756E-04-4.23446E-05-3.10881E-05 6.16266E-07-8.50051E-19 6.70215E-19
 -1      4011 9.39679E-05-2.72567E-05-2.85958E-05 7.17528E-07-1.81917E-19 2.10119E-18
 -1      4012 9.41470E-05-2.74294E-05-2.85882E-05 8.78433E-07-2.26672E-19-8.60471E-19
 -1      4013 1.14887E-04-3.29457E-05-3.51887E-05-1.09634E-05 3.59154E-20-1.15013E-19
 -1      4014 9.66348E-05-2.80653E-05-2.93906E-05-3.93044E-07 5.69070E-19-1.38223E-19
 -1      4015 9.66106E-05-2.77118E-05-2.95267E-05-2.03347E-07 4.77390E-19-4.56715E-20
 -1      4016 9.54789E-05-2.88852E-05-2.85472E-05-1.58628E-06-2.37381E-19 1.43030E-18
 -1      4017 9.56179E-05-2.89622E-05-2.85602E-05-1.44135E-06 1.50815E-19 1.34983E-18
 -1      4018 9.55627E-05-2.88844E-05-2.85768E-05-1.33222E-06 2.47399E-20 1.03698E-18
 -1      4019 9.58791E-05-2.89151E-05-2.86960E-05-9.26117E-07 2.93817E-19-2.86408E-19
 -1      4020 9.59644E-05-2.89373E-05-2.87261E-05-8.89215E-07 1.83391E-20-3.52099E-19
 -1      4021 9.67191E-05-2.84335E-05-2.92648E-05 3.85928E-07-9.16273E-20 5.94085E-20
 -1      4022 1.04973E-04-4.08891E-05-2.74975E-05-1.91652E-05-7.68735E-19-4.64528E-19
 -1      4023 1.09816E-04-4.40851E-05-2.80298E-05-1.84297E-05-9.68810E-20-1.62749E-19
 -1      4024 1.12934E-04-4.49336E-05-2.91444E-05-1.27427E-05-1.16329E-18-1.11635E-19
 -1      4025 1.04310E-04-1.45769E-05-3.85084E-05-1.75024E-06-1.75746E-19 6.98647E-19
 -1      4026 9.56161E-05-2.46195E-05-3.04174E-05 7.50863E-07 2.90973E-19 1.12350E-20
 -1      4027 9.01215E-05-2.46274E-05-2.80550E-05 4.38326E-06 1.31997E-18-5.99076E-19
 -1      4028 9.32151E-05-2.64573E-05-2.86224E-05 1.12857E-07-8.00396E-19 1.58362E-18
 -1      4029 9.35865E-05-2.67518E-05-2.86432E-05 6.22112E-09 3.97692E-19 1.09740E-18
 -1      4030 9.38533E-05-2.69878E-05-2.86614E-05-1.23520E-07 9.21008E-19 7.44469E-19
 -1      4031 9.56559E-05-2.89307E-05-2.86006E-05-1.21569E-06-9.10856E-20 3.13992E-19
 -1      4032 8.72011E-05-2.62477E-05-2.60594E-05 1.77027E-05-1.32951E-18 1.73332E-19
 -1      4033 8.26994E-05-2.24333E-05-2.59199E-05 1.50171E-05-9.55999E-19-6.33696E-19
 -1      4034 8.47858E-05-2.25763E-05-2.66059E-05 1.19535E-05-9.70349E-19-1.23522E-18
 -1      4035 9.27157E-05-3.00096E-05-2.68072E-05 1.64003E-05-1.63355E-18-2.70584E-19
 -1      4036 9.37450E-05-2.69361E-05-2.86303E-05 2.10120E-07 6.60026E-19 3.46224E-18
 -1      4037 9.37701E-05-2.70025E-05-2.86148E-05 4.09721E-07-1.04132E-19 3.68412E-18
 -1      4038 9.36904E-05-2.69717E-05-2.85880E-05 7.04571E-07 2.51623E-19 2.90948E-18
 -1      4039 1.12757E-04-3.95607E-05-3.14015E-05-4.53208E-06 4.80754E-19 2.62787E-19
 -1      4040 1.15135E-04-4.01709E-05-3.21302E-05-5.00223E-06-2.18077E-19-5.35092E-19
 -1      4041 1.16308E-04-4.28338E-05-3.14306E-05-1.36819E-06-9.23620E-19-1.67032E-19
 -1      4042 1.11904E-04-4.01132E-05-3.07367E-05-2.74639E-06-4.08997E-19 9.27796E-19
 -1      4043 1.13657E-04-4.25120E-05-3.05519E-05 1.30656E-06-3.65382E-19-1.38196E-19
 -1      4044 9.59680E-05-2.55144E-05-3.02008E-05 5.47167E-07 3.41458E-19-1.55275E-19
 -1      4045 9.59174E-05-2.52571E-05-3.02842E-05 3.30926E-07 4.17150E-19 1.24674E-19
 -1      4046 9.62434E-05-2.62497E-05-2.99909E-05 2.70551E-07 4.16078E-19-7.32025E-20
 -1      4047 9.62492E-05-2.89288E-05-2.88533E-05-9.10639E-07 2.77518E-19-1.48721E-19
 -1      4048 1.01206E-04-3.45969E-05-2.85935E-05-4.54122E-06-1.12269E-18-3.20660E-19
 -1      4049 9.64447E-05-2.67484E-05-2.98634E-05-6.06582E-08 5.07769E-20-3.27009E-19
 -1      4050 1.14084E-04-4.39571E-05-2.99651E-05-5.85611E-06-1.24853E-18 3.96282E-19
 -1      4051 9.64245E-05-2.68831E-05-2.98061E-05 2.89472E-08 4.65018E-19-1.11563E-19
 -1      4052 1.11614E-04-4.33916E-05-2.92848E-05 9.92416E-06-1.82493E-20-1.86198E-18
 -1      4053 9.57650E-05-2.88799E-05-2.86656E-05-9.82219E-07 3.38101E-19 2.57628E-19
 -1      4054 9.58263E-05-2.88705E-05-2.86976E-05-8.47440E-07-6.76032E-20 1.54635E-19
 -1      4055 9.57056E-05-2.88636E-05-2.86427E-05-1.03501E-06-2.54568E-20 4.11714E-19
 -1      4056 9.62710E-05-2.60178E-05-3.00969E-05 8.64081E-08 3.26725E-19-7.72513E-20
 -1      4057 9.59257E-05-2.52240E-05-3.03074E-05 2.00673E-07 3.44837E-19-2.55361E-20
 -1      4058 9.59016E-05-2.51451E-05-3.03262E-05 1.01162E-08 2.64903E-19-4.75844E-19
 -1      4059 1.12262E-04-4.12555E-05-3.04331E-05 1.77790E-07 1.55603E-19 8.95277E-19
 -1      4060 1.05129E-04-1.60968E-05-3.81806E-05-5.34108E-06 3.91012E-19 7.52443E-19
 -1      4061 1.03431E-04-3.85068E-05-2.77427E-05 1.63932E-05-8.29897E-19-2.18855E-18
 -1      4062 9.64889E-05-2.88506E-05-2.89880E-05-7.16053E-07 3.70145E-19 2.23433E-19
 -1      4063 9.65610E-05-2.87386E-05-2.90652E-05-6.49944E-07 6.32054E-19 1.65468E-19
 -1      4064 9.65197E-05-2.84807E-05-2.91604E-05-6.56635E-07 6.67096E-19-1.66835E-19
 -1      4065 9.55403E-05-2.42837E-05-3.05286E-05-1.89044E-07 2.02715E-19-6.16263E-19
 -1      4066 9.65249E-05-2.70302E-05-2.97833E-05-1.09281E-08 4.05876E-19-1.45825E-19
 -1      4067 9.43793E-05-2.76924E-05-2.85851E-05 1.00071E-06-9.32862E-20-2.95970E-18
 -1      4068 9.45878E-05-2.78779E-05-2.85840E-05 1.07163E-06 3.95914E-19-3.83096E-18
 -1      4069 9.41790E-05-2.75251E-05-2.85680E-05 1.13331E-06 3.42115E-19-1.82930E-18
 -1      4070 9.48139E-05-2.81165E-05-2.85873E-05 1.07956E-06 7.87366E-20-3.30628E-18
 -1      4071 9.50069E-05-2.82828E-05-2.85906E-05 1.07167E-06 9.25041E-19-1.04576E-18
 -1      4072 9.31452E-05-2.64623E-05-2.85753E-05 6.22579E-07-7.02067E-19 2.46439E-18
 -1      4073 8.78717E-05-2.49218E-05-2.69701E-05 1.20339E-05-6.18269E-19-7.55298E-19
 -1      4074 9.61759E-05-2.97948E-05-2.84654E-05-2.65827E-06-3.36305E-19 1.19718E-18
 -1      4075 9.46984E-05-2.80406E-05-2.85696E-05 1.26321E-06 1.44272E-18-3.57005E-18
 -1      4076 9.66156E-05-2.85772E-05-2.91609E-05-5.93962E-07 7.12264E-19 1.08089E-19
 -1      4077 9.66476E-05-2.83586E-05-2.92648E-05-4.83014E-07 6.68570E-19 1.51375E-19
 -1      4078 9.67156E-05-2.81485E-05-2.93854E-05-3.35359E-07 4.90065E-19-1.34984E-20
 -1      4079 9.66708E-05-2.86300E-05-2.91608E-05-4.93420E-07 5.82355E-19 2.75696E-19
 -1      4080 9.92164E-05-3.28476E-05-2.84207E-05 5.59505E-06-1.63115E-18 7.30502E-19
 -1      4081 1.00676E-04-3.41443E-05-2.84937E-05 5.89447E-06-5.41496E-19-1.27497E-19
 -1      4082 9.67951E-05-2.83251E-05-2.93433E-05 2.28364E-07-7.19705E-20 4.08536E-19
 -1      4083 9.67590E-05-2.85507E-05-2.92339E-05 2.95549E-07 8.08849E-20 3.43991E-19
 -1      4084 9.64822E-05-2.88624E-05-2.89787E-05 3.24929E-07-7.10402E-20 8.12405E-19
 -1      4085 9.63423E-05-2.88695E-05-2.89178E-05 3.32815E-07-9.52828E-20 8.55141E-19
 -1      4086 9.61884E-05-2.88397E-05-2.88624E-05 3.04890E-07-2.10853E-19 9.88275E-19
 -1      4087 9.60151E-05-2.87769E-05-2.88178E-05 2.88616E-07-2.47806E-19 7.76361E-19
 -1      4088 9.63069E-05-2.88726E-05-2.89018E-05 1.36922E-07-9.44490E-20 9.97777E-19
 -1      4089 9.58258E-05-2.86822E-05-2.87743E-05 2.36110E-07-1.56989E-20 8.27730E-19
 -1      4090 9.56102E-05-2.85572E-05-2.87394E-05 1.87470E-07 1.84202E-19 8.91571E-19
 -1      4091 9.59645E-05-2.87638E-05-2.88014E-05 6.53269E-08-1.36551E-19 1.30556E-18
 -1      4092 9.54089E-05-2.84209E-05-2.87070E-05 1.03594E-07 3.43019E-19 8.66614E-19
 -1      4093 9.51676E-05-2.82583E-05-2.86797E-05 1.63675E-08 1.16796E-19 9.39185E-19
 -1      4094 9.55746E-05-2.85533E-05-2.87243E-05-6.67536E-08 1.79034E-19 1.02339E-18
 -1      4095 9.49506E-05-2.80906E-05-2.86509E-05-1.19238E-07-2.87814E-19 5.64097E-19
 -1      4096 9.46663E-05-2.78921E-05-2.86238E-05-2.69737E-07-3.17235E-19 4.78145E-19
 -1      4097 9.51582E-05-2.82816E-05-2.86617E-05-2.84433E-07-2.41660E-19 5.87550E-19
 -1      4098 9.44318E-05-2.77036E-05-2.85932E-05-4.80656E-07-5.20458E-19 6.09528E-19
 -1      4099 9.40960E-05-2.74819E-05-2.85593E-05-7.28657E-07-7.06388E-19 2.17270E-19
 -1      4100 9.47068E-05-2.79681E-05-2.86015E-05-6.40372E-07-4.63573E-19 4.95380E-19
 -1      4101 9.38637E-05-2.72930E-05-2.85210E-05-1.06236E-06-5.22408E-19 3.05021E-19
 -1      4102 9.34632E-05-2.70625E-05-2.84724E-05-1.46023E-06-2.82899E-19 4.57322E-19
 -1      4103 9.42460E-05-2.76755E-05-2.85320E-05-1.19842E-06-5.22718E-19 7.70402E-19
 -1      4104 9.32538E-05-2.69058E-05-2.84197E-05-1.96746E-06-2.59529E-19 2.13105E-19
 -1      4105 9.27936E-05-2.67007E-05-2.83456E-05-2.59101E-06-4.18829E-19 4.28433E-19
 -1      4106 9.37951E-05-2.74428E-05-2.84422E-05-2.05150E-06-2.46330E-19 4.64822E-19
 -1      4107 9.26584E-05-2.66359E-05-2.82714E-05-3.34084E-06-5.12007E-19 6.82538E-19
 -1      4108 9.21674E-05-2.65217E-05-2.81585E-05-4.28920E-06-2.53579E-19 4.50203E-19
 -1      4109 9.34320E-05-2.73821E-05-2.83193E-05-3.31960E-06-2.77024E-19 4.48804E-19
 -1      4110 9.22044E-05-2.66529E-05-2.80569E-05-5.35765E-06-6.76945E-19 2.59461E-19
 -1      4111 9.17653E-05-2.67484E-05-2.78906E-05-6.75044E-06-8.87137E-19-1.43322E-19
 -1      4112 9.32969E-05-2.76642E-05-2.81530E-05-5.13679E-06-7.61145E-19 4.44449E-19
 -1      4113 9.21534E-05-2.72553E-05-2.77613E-05-8.20170E-06-5.88960E-19-7.25639E-19
 -1      4114 9.19727E-05-2.77611E-05-2.75329E-05-1.01591E-05-6.25389E-19-7.39152E-19
 -1      4115 9.36481E-05-2.85626E-05-2.79408E-05-7.62036E-06-6.85763E-19 1.86154E-19
 -1      4116 9.05475E-05-2.75435E-05-2.70440E-05 1.33947E-05-6.21441E-19-6.41276E-19
 -1      4117 9.08807E-05-2.66802E-05-2.74378E-05 1.04161E-05-4.96929E-20-7.54780E-19
 -1      4118 1.02424E-04-3.56206E-05-2.85767E-05 6.33996E-06 4.96198E-19-1.91456E-19
 -1      4119 1.04297E-04-3.72179E-05-2.87594E-05 6.32517E-06 4.52378E-19 3.55944E-19
 -1      4120 1.00646E-04-3.46344E-05-2.83690E-05 7.83640E-06-2.20857E-19 8.08405E-19
 -1      4121 9.08826E-05-2.55917E-05-2.80095E-05 5.41239E-06 1.10312E-18-1.86071E-19
 -1      4122 9.15012E-05-2.57199E-05-2.81690E-05 4.22699E-06 1.60990E-18-1.35283E-19
 -1      4123 9.56044E-05-2.88600E-05-2.85989E-05-1.20248E-06-9.36179E-20 7.98906E-19
 -1      4124 9.56173E-05-2.88440E-05-2.86178E-05-1.12399E-06 3.64270E-22 5.75230E-19
 -1      4125 9.54938E-05-2.87913E-05-2.85921E-05-1.24199E-06-1.69647E-19 8.39163E-19
 -1      4126 9.52980E-05-3.16258E-05-2.73150E-05 1.46151E-05-1.75738E-18-5.08766E-19
 -1      4127 9.33648E-05-2.67576E-05-2.85545E-05 9.83129E-07-2.65135E-19 1.74232E-18
 -1      4128 1.06738E-04-4.04461E-05-2.83970E-05 1.32146E-05 4.04855E-20-3.11050E-18
 -1      4129 1.01168E-04-3.65245E-05-2.77728E-05 1.43328E-05-1.17777E-18-2.27852E-18
 -1      4130 1.12058E-04-4.20423E-05-2.99217E-05 3.57513E-06 9.66756E-19-1.79897E-19
 -1      4131 1.06846E-04-3.89454E-05-2.90300E-05 5.89121E-06 4.44745E-19 5.65829E-19
 -1      4132 1.09086E-04-4.05961E-05-2.93993E-05 5.17754E-06 1.13923E-18 3.84933E-19
 -1      4133 1.10367E-04-4.16434E-05-2.94867E-05 6.29878E-06 3.20387E-19-6.30042E-19
 -1      4134 1.04781E-04-3.78915E-05-2.86976E-05 8.04410E-06 3.68479E-19-3.73195E-19
 -1      4135 9.71330E-05-3.08531E-05-2.83956E-05 4.48730E-06-2.26403E-18 7.70518E-19
 -1      4136 9.81371E-05-3.17759E-05-2.84128E-05 4.90146E-06-1.85127E-18 1.60303E-19
 -1      4137 9.77476E-05-3.18101E-05-2.83056E-05 6.31282E-06-1.51256E-18 5.88370E-19
 -1      4138 9.58805E-05-2.95307E-05-2.84312E-05 3.38697E-06-1.10563E-18-3.45539E-19
 -1      4139 9.65003E-05-3.01366E-05-2.84206E-05 3.81313E-06-1.60866E-18 4.67599E-20
 -1      4140 9.60422E-05-2.99672E-05-2.83423E-05 4.76001E-06-1.54715E-18-7.49409E-19
 -1      4141 9.51923E-05-2.87303E-05-2.84829E-05 2.46434E-06-2.49521E-19-6.55414E-19
 -1      4142 9.55488E-05-2.90996E-05-2.84634E-05 2.83711E-06-7.30079E-19-7.31950E-19
 -1      4143 9.51446E-05-2.88907E-05-2.84115E-05 3.43499E-06-5.92638E-19-3.03138E-18
 -1      4144 9.48600E-05-2.82842E-05-2.85327E-05 1.74767E-06 1.22108E-18-3.25918E-18
 -1      4145 9.50493E-05-2.84940E-05-2.85127E-05 2.04073E-06 8.78769E-19-2.19598E-18
 -1      4146 9.47108E-05-2.82853E-05-2.84791E-05 2.40362E-06 1.23619E-18-3.19973E-18
 -1      4147 9.51636E-05-2.84759E-05-2.85803E-05 1.19047E-06 7.97033E-19-1.25161E-18
 -1      4148 9.50215E-05-2.83785E-05-2.85641E-05 1.38840E-06 7.18705E-19-2.48246E-18
 -1      4149 9.85859E-05-3.22765E-05-2.83941E-05-5.12342E-06-2.38879E-19 1.49418E-18
 -1      4150 9.75576E-05-3.13255E-05-2.83704E-05-4.70583E-06-1.19533E-19 1.68317E-18
 -1      4151 9.63955E-05-2.64096E-05-2.99877E-05-1.14916E-07 1.90702E-19-3.87181E-19
 -1      4152 9.65986E-05-2.71267E-05-2.97800E-05 4.46398E-08 8.13466E-20-3.46106E-19
 -1      4153 9.24678E-05-2.61609E-05-2.84377E-05 1.90424E-06-2.97686E-19 9.51223E-20
 -1      4154 9.29241E-05-2.64049E-05-2.84995E-05 1.42811E-06-8.23083E-19 1.02397E-18
 -1      4155 9.67071E-05-2.75739E-05-2.96247E-05-1.22625E-07 3.76662E-19-7.30301E-20
 -1      4156 9.64989E-05-2.67533E-05-2.98965E-05 5.91527E-08 4.09371E-19 1.83487E-20
 -1      4157 9.39645E-05-2.73572E-05-2.85444E-05 1.35258E-06 9.13022E-19-5.60359E-19
 -1      4158 9.42435E-05-2.76326E-05-2.85420E-05 1.48006E-06 9.82359E-19-3.07708E-18
 -1      4159 9.54522E-05-2.89643E-05-2.84803E-05-2.26946E-06 5.80297E-20 1.49185E-18
 -1      4160 9.52812E-05-2.87791E-05-2.85030E-05-1.97847E-06-5.78397E-20 1.75295E-18
 -1      4161 9.60854E-05-2.56322E-05-3.01928E-05-1.88467E-07 2.44042E-19-5.65300E-19
 -1      4162 1.12083E-04-4.36430E-05-2.93813E-05-9.61515E-06-1.52678E-18-3.37490E-20
 -1      4163 1.10331E-04-4.14114E-05-2.95365E-05-5.08577E-06-1.18811E-18 5.33792E-19
 -1      4164 1.07919E-04-3.97975E-05-2.91033E-05-6.10281E-06-1.50082E-18 1.47098E-19
 -1      4165 1.09294E-04-4.19068E-05-2.87957E-05-1.13082E-05-1.27955E-18 3.11243E-19
 -1      4166 9.68970E-05-3.06015E-05-2.83901E-05-4.05334E-06-6.60414E-19 1.21611E-18
 -1      4167 9.62513E-05-2.99805E-05-2.83969E-05-3.62730E-06-4.56196E-19 1.04804E-18
 -1      4168 9.64559E-05-3.04995E-05-2.83112E-05-5.02571E-06-7.54802E-19 2.10099E-18
 -1      4169 9.60642E-05-2.89403E-05-2.87692E-05-7.45014E-07 1.09480E-19-3.25632E-19
 -1      4170 9.60876E-05-2.89632E-05-2.87657E-05-8.53197E-07 2.42208E-19-3.79274E-19
 -1      4171 9.61831E-05-2.89668E-05-2.88066E-05-8.20951E-07 2.87189E-19-2.54029E-19
 -1      4172 1.05169E-04-3.79098E-05-2.88272E-05-6.25172E-06-1.46374E-18 5.56527E-19
 -1      4173 1.03215E-04-3.62883E-05-2.86164E-05-6.36131E-06-1.51852E-18-1.10212E-19
 -1      4174 1.05867E-04-3.89264E-05-2.87722E-05-8.39539E-06-1.31936E-18 3.82849E-19
 -1      4175 9.63009E-05-2.89590E-05-2.88599E-05-7.92162E-07 3.02547E-19-8.97175E-20
 -1      4176 9.63925E-05-2.89190E-05-2.89163E-05-7.51105E-07 3.16864E-19-4.63936E-20
 -1      4177 9.65192E-05-2.88762E-05-2.89910E-05-5.95040E-07 4.30226E-19 3.87463E-20
 -1      4178 9.63051E-05-2.89596E-05-2.88639E-05-6.69690E-07 3.74398E-19-3.32193E-19
 -1      4179 9.59341E-05-2.52054E-05-3.03110E-05-1.65127E-07 2.27611E-19-6.25149E-19
 -1      4180 9.77470E-05-3.51211E-05-2.68716E-05-1.90478E-05-1.36580E-18-7.72397E-19
 -1      4181 1.01860E-04-3.82491E-05-2.71017E-05-1.96352E-05-1.39417E-18-6.19347E-19
 -1      4182 1.06273E-04-4.08567E-05-2.81136E-05-1.54789E-05-1.14846E-18 1.50143E-19
 -1      4183 9.66963E-05-2.87110E-05-2.91353E-05 3.01312E-07 2.64920E-19 4.57749E-19
 -1      4184 9.65992E-05-2.88113E-05-2.90530E-05 3.35733E-07 2.36966E-19 7.06991E-19
 -1      4185 9.67610E-05-2.86120E-05-2.92070E-05 1.56819E-07 1.67493E-19 2.69693E-19
 -1      4186 9.67263E-05-2.76221E-05-2.96153E-05 9.15987E-08 1.76459E-19-1.64159E-19
 -1      4187 9.67779E-05-2.80146E-05-2.94730E-05 2.00541E-07 1.14343E-19 1.28396E-19
 -1      4188 9.68113E-05-2.81243E-05-2.94359E-05 1.12319E-07 2.05363E-19 1.96287E-19
 -1      4189 9.66645E-05-2.72836E-05-2.97314E-05 3.13124E-08 3.47853E-19-3.81537E-19
 -1      4190 9.16827E-05-2.57731E-05-2.82706E-05 3.28729E-06 7.92285E-19-6.31228E-19
 -1      4191 9.22292E-05-2.59992E-05-2.83701E-05 2.53231E-06-1.52192E-20-5.57251E-19
 -1      4192 9.28854E-05-2.66231E-05-2.83975E-05 2.60044E-06 5.80110E-20-2.37686E-18
 -1      4193 1.01242E-04-3.47292E-05-2.84969E-05-6.06078E-06-1.18495E-18 5.72754E-19
 -1      4194 9.97498E-05-3.33904E-05-2.84098E-05-5.79054E-06-6.12645E-19 8.12191E-19
 -1      4195 9.82235E-05-3.23698E-05-2.82900E-05-6.54438E-06-4.04147E-19 1.71700E-18
 -1      4196 9.02724E-05-2.58960E-05-2.76282E-05 8.47999E-06 2.65826E-19-7.64836E-19
 -1      4197 9.08765E-05-2.57685E-05-2.78663E-05 6.74117E-06 5.83423E-19-2.65183E-19
 -1      4198 9.22880E-05-2.69816E-05-2.80049E-05 6.45055E-06 1.51555E-18 8.67649E-19
 -1      4199 9.59279E-05-2.95510E-05-2.84286E-05-3.07143E-06-2.20951E-19 1.05043E-18
 -1      4200 9.55622E-05-2.91848E-05-2.84477E-05-2.70221E-06-1.05453E-20 1.57687E-18
 -1      4201 9.50888E-05-2.87561E-05-2.84442E-05-2.62832E-06-6.75807E-20 1.10038E-18
 -1      4202 9.55037E-05-2.93619E-05-2.83734E-05-3.69126E-06-6.23543E-20 1.04744E-18
 -1      4203 9.88542E-05-3.38047E-05-2.78633E-05 1.20916E-05-1.17918E-18-1.69153E-18
 -1      4204 9.64897E-05-2.66787E-05-2.99203E-05 1.23883E-08 3.05014E-19-2.26867E-19
 -1      4205 9.47803E-05-3.03101E-05-2.77206E-05-1.05311E-05-2.95967E-19 2.26153E-19
 -1      4206 9.28520E-05-2.87229E-05-2.74104E-05-1.17002E-05-5.22504E-19-3.63211E-19
 -1      4207 9.30150E-05-2.96403E-05-2.71431E-05-1.39143E-05-2.09647E-19-4.89580E-19
 -1      4208 9.28574E-05-2.83554E-05-2.76954E-05 9.80868E-06 1.67141E-19-4.69554E-19
 -1      4209 9.35551E-05-2.69972E-05-2.85210E-05 1.46213E-06 6.94443E-19 5.66680E-19
 -1      4210 9.65785E-05-2.88379E-05-2.90328E-05 1.64320E-07 1.00842E-19 5.39091E-19
 -1      4211 9.53024E-05-2.87000E-05-2.85332E-05-1.66076E-06-4.16309E-19 1.59172E-18
 -1      4212 9.52621E-05-2.86289E-05-2.85562E-05-1.45243E-06-4.65955E-19 1.25803E-18
 -1      4213 9.50052E-05-2.85033E-05-2.85105E-05-1.83554E-06-2.28940E-19 1.11347E-18
 -1      4214 9.56206E-05-2.87997E-05-2.86407E-05-1.00389E-06-1.81354E-19 5.29408E-19
 -1      4215 9.57549E-05-2.87956E-05-2.86930E-05-7.36752E-07-2.54122E-19 4.43978E-19
 -1      4216 9.58680E-05-2.88463E-05-2.87249E-05-6.68567E-07-1.22908E-19 3.37319E-19
 -1      4217 9.65303E-05-2.89155E-05-2.89769E-05-4.66275E-07 6.38109E-19 6.22893E-20
 -1      4218 9.66254E-05-2.88392E-05-2.90508E-05-4.17644E-07 5.18385E-19 1.87953E-19
 -1      4219 1.08430E-04-4.12548E-05-2.87669E-05 1.11175E-05-1.36915E-20-2.18654E-18
 -1      4220 9.51851E-05-2.84617E-05-2.85955E-05 1.01851E-06 8.50348E-19-8.46768E-19
 -1      4221 9.67088E-05-2.87175E-05-2.91393E-05-3.94041E-07 4.36000E-19 6.04565E-20
 -1      4222 9.67626E-05-2.85405E-05-2.92378E-05-3.24981E-07 5.38960E-19 4.17485E-20
 -1      4223 9.67027E-05-2.87555E-05-2.91212E-05-2.59682E-07 5.26219E-19 1.88392E-20
 -1      4224 9.35784E-05-2.71252E-05-2.84891E-05 1.85835E-06 1.47039E-18-1.66914E-18
 -1      4225 9.47623E-05-2.81178E-05-2.85587E-05 1.40985E-06 9.71248E-19-3.60352E-18
 -1      4226 9.24762E-05-2.66038E-05-2.82348E-05 4.18422E-06 5.76506E-19-1.19075E-18
 -1      4227 9.59322E-05-2.88365E-05-2.87574E-05-4.89692E-07-1.85573E-19 6.46594E-19
 -1      4228 9.60225E-05-2.89014E-05-2.87634E-05-6.13244E-07-9.88465E-21 2.72066E-19
 -1      4229 9.61445E-05-2.89348E-05-2.88047E-05-5.64835E-07-1.40787E-20 9.65135E-21
 -1      4230 9.43317E-05-2.77852E-05-2.85127E-05 1.85645E-06 1.29927E-18-3.01245E-18
 -1      4231 9.44950E-05-2.79161E-05-2.85389E-05 1.59943E-06 1.24479E-18-3.58330E-18
 -1      4232 9.67852E-05-2.82986E-05-2.93527E-05-2.80285E-07 4.79158E-19-3.01106E-20
 -1      4233 9.67748E-05-2.79877E-05-2.94816E-05-1.75107E-07 3.89034E-19-1.31113E-19
 -1      4234 9.67560E-05-2.77172E-05-2.95852E-05-7.49072E-08 4.66545E-19-2.11471E-19
 -1      4235 9.68085E-05-2.83822E-05-2.93252E-05-1.76699E-07 5.36674E-19-3.86845E-19
 -1      4236 1.01322E-04-3.52955E-05-2.83929E-05-7.88602E-06-7.82743E-19 1.19191E-18
 -1      4237 9.64452E-05-3.31683E-05-2.70915E-05-1.66366E-05-1.03847E-18-5.56420E-19
 -1      4238 9.48237E-05-2.88099E-05-2.82934E-05 4.70743E-06-5.12437E-19-3.09459E-18
 -1      4239 9.54447E-05-2.94585E-05-2.82601E-05 5.50287E-06-2.79198E-19-1.57091E-18
 -1      4240 9.61320E-05-2.88698E-05-2.88242E-05-1.65130E-07 1.69499E-20 9.47779E-19
 -1      4241 9.59446E-05-2.87948E-05-2.87790E-05-2.13033E-07 2.85329E-20 1.11532E-18
 -1      4242 9.57872E-05-2.87194E-05-2.87401E-05-2.78224E-07-1.19824E-19 9.67341E-19
 -1      4243 9.55884E-05-2.86109E-05-2.87061E-05-3.60869E-07-1.61556E-19 8.03657E-19
 -1      4244 9.50026E-05-2.82252E-05-2.86132E-05-7.12486E-07-5.75562E-19 5.75687E-19
 -1      4245 9.47740E-05-2.80876E-05-2.85816E-05-9.40091E-07-6.65534E-19 2.74548E-19
 -1      4246 9.47607E-05-2.81140E-05-2.85550E-05-1.21131E-06-6.30669E-19 3.80412E-19
 -1      4247 9.45500E-05-2.80152E-05-2.85177E-05-1.55312E-06-3.47680E-19 4.79103E-19
 -1      4248 9.45289E-05-2.80289E-05-2.84850E-05-1.89388E-06-2.04721E-19 4.98740E-19
 -1      4249 9.43420E-05-2.79950E-05-2.84359E-05-2.40688E-06-3.01772E-19 4.16707E-19
 -1      4250 9.44507E-05-2.81358E-05-2.83983E-05-2.88415E-06-9.10615E-20 4.89149E-19
 -1      4251 9.43484E-05-2.82327E-05-2.83329E-05-3.62534E-06-1.40352E-21 6.18813E-19
 -1      4252 9.46760E-05-2.85847E-05-2.82923E-05-4.26192E-06-5.19241E-19 7.78090E-19
 -1      4253 9.47581E-05-2.89117E-05-2.82088E-05-5.28564E-06-9.21966E-19 7.87991E-19
 -1      4254 9.54354E-05-2.95904E-05-2.81742E-05-6.07908E-06-9.15341E-19 8.44456E-19
 -1      4255 9.58766E-05-3.02995E-05-2.80784E-05-7.40448E-06-5.34012E-19 8.47906E-19
 -1      4256 9.48340E-05-2.92347E-05-2.81051E-05 6.81482E-06 5.25119E-20-4.51671E-19
 -1      4257 9.58584E-05-3.02123E-05-2.80819E-05 7.77971E-06 2.64147E-19 3.52856E-19
 -1      4258 9.56048E-05-2.87321E-05-2.86618E-05-8.27327E-07-2.23393E-19 3.38778E-19
 -1      4259 9.56316E-05-2.86995E-05-2.86871E-05-6.48563E-07-2.19857E-19 4.68335E-19
 -1      4260 9.55213E-05-2.86917E-05-2.86358E-05-9.28567E-07-2.21062E-19 3.94801E-19
 -1      4261 9.35037E-05-2.70840E-05-2.84495E-05 2.29583E-06 5.88566E-19-2.10661E-18
 -1      4262 9.39510E-05-2.75192E-05-2.84777E-05 2.14822E-06 1.84959E-18-2.72958E-18
 -1      4263 9.42481E-05-2.78092E-05-2.84760E-05 2.27448E-06 1.71929E-18-3.28435E-18
 -1      4264 9.32800E-05-2.70649E-05-2.83863E-05 2.92473E-06 4.11829E-19-3.06488E-18
 -1      4265 9.70712E-05-3.14351E-05-2.80697E-05-8.30703E-06-2.81325E-19 6.97432E-19
 -1      4266 1.06154E-04-3.92519E-05-2.87008E-05 9.51567E-06 1.29037E-19-1.55465E-18
 -1      4267 1.03562E-04-3.71307E-05-2.84014E-05 1.00400E-05-4.34005E-20-1.54468E-18
 -1      4268 9.43896E-05-2.79917E-05-2.84425E-05 2.73991E-06 1.26511E-18-3.72189E-18
 -1      4269 9.64016E-05-2.64032E-05-3.00055E-05 1.25093E-08 2.95087E-19-5.29514E-19
 -1      4270 9.66165E-05-2.70333E-05-2.98184E-05-2.12324E-08 4.00011E-19-3.84693E-19
 -1      4271 9.79285E-05-3.24768E-05-2.79902E-05-9.67849E-06 7.33995E-20 1.01099E-18
 -1      4272 9.66732E-05-2.88274E-05-2.90754E-05-6.66195E-08 3.57120E-19 2.76857E-19
 -1      4273 9.65575E-05-2.88921E-05-2.89994E-05-6.76046E-08 2.63544E-19 4.17717E-19
 -1      4274 1.06248E-04-3.99666E-05-2.84263E-05-1.22479E-05-1.29269E-18 1.15187E-20
 -1      4275 9.52654E-05-2.85628E-05-2.85811E-05-1.21531E-06-6.05959E-19 8.68698E-19
 -1      4276 9.53167E-05-2.85749E-05-2.86053E-05-1.05651E-06-5.40945E-19 5.87827E-19
 -1      4277 9.67466E-05-2.75627E-05-2.96531E-05 2.10126E-08 4.56625E-19-2.34006E-19
 -1      4278 1.03526E-04-3.76022E-05-2.81765E-05-1.19560E-05-1.00808E-18 5.12964E-19
 -1      4279 9.62903E-05-2.89578E-05-2.88550E-05-5.31309E-07 8.20615E-21 1.25283E-19
 -1      4280 9.64070E-05-2.89500E-05-2.89101E-05-4.89450E-07 3.89966E-19-5.24810E-21
 -1      4281 9.64969E-05-2.89159E-05-2.89649E-05-3.19840E-07 5.59644E-19 6.45568E-19
 -1      4282 9.62296E-05-2.89244E-05-2.88470E-05-3.89206E-07 1.08272E-19 7.53383E-19
 -1      4283 9.68176E-05-2.85316E-05-2.92647E-05-4.71383E-08 3.82833E-19-1.47905E-19
 -1      4284 9.67577E-05-2.87077E-05-2.91646E-05-3.28132E-08 3.37187E-19 1.25572E-20
 -1      4285 9.65665E-05-3.12949E-05-2.79459E-05 9.50228E-06-5.85867E-19-5.81624E-20
 -1      4286 9.88202E-05-3.46006E-05-2.76039E-05-1.43289E-05-7.39048E-19 1.99450E-19
 -1      4287 9.64324E-05-2.89199E-05-2.89321E-05-1.01771E-07 1.86573E-19 8.37738E-19
 -1      4288 9.62798E-05-2.89050E-05-2.88750E-05-1.21389E-07 1.80144E-19 1.06677E-18
 -1      4289 9.98555E-05-3.43113E-05-2.80633E-05-1.04334E-05-3.23590E-19 3.96961E-19
 -1      4290 9.54336E-05-2.85168E-05-2.86744E-05-4.62762E-07-2.83935E-19 8.86929E-19
 -1      4291 9.68201E-05-2.79645E-05-2.95090E-05-2.57446E-08 4.47226E-19-3.00834E-19
 -1      4292 9.68392E-05-2.82922E-05-2.93784E-05 5.28070E-09 3.35291E-19-2.21412E-19
 -1      4293 9.50304E-05-2.83897E-05-2.85672E-05-1.25824E-06-7.34361E-19 9.40590E-19
 -1      4294 9.52221E-05-2.83938E-05-2.86444E-05-5.96824E-07-4.46808E-19 6.22789E-19
 -1      4295 9.39035E-05-2.76974E-05-2.83860E-05 3.24172E-06 5.93283E-19-3.98236E-18
 -1      4296 9.44426E-05-2.81974E-05-2.83917E-05 3.37173E-06 4.16146E-19-4.42855E-18
 -1      4297 9.47688E-05-2.85688E-05-2.83528E-05 3.99812E-06-6.57046E-19-3.86145E-18
 -1      4298 9.33450E-05-2.71974E-05-2.83295E-05 3.60408E-06 3.32451E-19-3.74785E-18
 -1      4299 9.52770E-05-2.84890E-05-2.86251E-05-8.65338E-07-6.63028E-19 5.80000E-19
 -1      4300 9.33392E-05-2.79097E-05-2.80537E-05 6.62870E-06 9.30999E-19-1.29121E-18
 -1      4301 9.32695E-05-2.74793E-05-2.81725E-05 5.32307E-06 1.18502E-18-2.03567E-18
 -1      4302 9.82022E-05-3.29633E-05-2.79527E-05 1.05355E-05-2.77741E-19-4.71052E-19
 -1      4303 9.40359E-05-2.81119E-05-2.82705E-05 4.66332E-06 1.87588E-20-4.43905E-18
 -1      4304 9.31761E-05-2.73088E-05-2.82388E-05 4.53722E-06 5.71753E-19-3.10162E-18
 -3
    1PSTEP                         4           1           1          
  100CL  101 1.000000000        4304                     0    1           1
 -4  ERROR       1    1
 -5  STR(%)      1    1    0    0
 -1         1 4.83053E+01
 -1         2 2.37242E+01
 -1         3 3.96892E-03
 -1         4 8.16980E-03
 -1         5 1.40403E+01
 -1         6 1.31447E+01
 -1         7 1.31447E+01
 -1         8 3.66116E+00
 -1         9 1.82131E+00
 -1        10 1.29029E+00
 -1        11 1.04491E+00
 -1        12 8.98360E-01
 -1        13 8.08029E-01
 -1        14 7.53309E-01
 -1        15 7.55132E-01
 -1        16 8.12134E-01
 -1        17 8.99732E-01
 -1        18 1.05172E+00
 -1        19 1.30518E+00
 -1        20 1.82916E+00
 -1        21 3.50625E+00
 -1        22 8.64111E+00
 -1        23 1.31447E+01
 -1        24 4.32095E+00
 -1        25 3.34473E+00
 -1        26 2.11572E+00
 -1        27 1.36758E+00
 -1        28 1.02101E+00
 -1        29 7.84169E-01
 -1        30 6.07161E-01
 -1        31 4.70571E-01
 -1        32 3.64960E-01
 -1        33 2.87880E-01
 -1        34 2.29647E-01
 -1        35 1.87070E-01
 -1        36 1.65160E-01
 -1        37 1.95450E-01
 -1        38 2.58874E-01
 -1        39 3.84935E-01
 -1        40 5.45952E-01
 -1        41 8.09267E-01
 -1        42 1.18892E+00
 -1        43 1.69469E+00
 -1        44 2.34339E+00
 -1        45 3.45917E+00
 -1        46 4.78501E+00
 -1        47 6.31033E+00
 -1        48 6.46003E+00
 -1        49 6.46003E+00
 -1        50 5.75748E+00
 -1        51 1.38174E+01
 -1        52 1.68793E+01
 -1        53 1.68793E+01
 -1        54 1.45130E+01
 -1        55 5.84562E+00
 -1        56 5.66847E+00
 -1        57 5.66847E+00
 -1        58 5.19786E+00
 -1        59 3.98184E+00
 -1        60 2.91642E+00
 -1        61 2.09245E+00
 -1        62 1.51371E+00
 -1        63 1.04281E+00
 -1        64 6.97739E-01
 -1        65 4.59881E-01
 -1        66 3.01474E-01
 -1        67 1.97735E-01
 -1        68 1.29978E-01
 -1        69 8.50243E-02
 -1        70 6.35234E-02
 -1        71 4.58681E-02
 -1        72 2.47984E-02
 -1        73 1.40403E+01
 -1        74 3.39837E+00
 -1        75 2.42057E+00
 -1        76 1.67092E+00
 -1        77 1.15149E+00
 -1        78 9.13254E-01
 -1        79 7.40430E-01
 -1        80 5.99259E-01
 -1        81 4.82395E-01
 -1        82 3.85748E-01
 -1        83 3.09905E-01
 -1        84 2.49598E-01
 -1        85 1.98730E-01
 -1        86 1.55407E-01
 -1        87 1.17114E-01
 -1        88 1.02492E-01
 -1        89 8.62305E-02
 -1        90 1.00704E-01
 -1        91 1.74031E-01
 -1        92 2.58076E-01
 -1        93 3.38526E-01
 -1        94 4.92395E-01
 -1        95 6.66125E-01
 -1        96 8.25249E-01
 -1        97 9.27528E-01
 -1        98 1.27676E+00
 -1        99 1.69091E+00
 -1       100 2.00177E+00
 -1       101 2.12267E+00
 -1       102 2.31014E+00
 -1       103 2.36949E+00
 -1       104 2.36949E+00
 -1       105 2.17075E+00
 -1       106 1.79674E+00
 -1       107 1.38671E+00
 -1       108 1.01079E+00
 -1       109 6.77119E-01
 -1       110 4.35811E-01
 -1       111 2.87890E-01
 -1       112 1.69808E-01
 -1       113 1.06600E-01
 -1       114 8.05097E-02
 -1       115 7.57588E-02
 -1       116 6.50019E-02
 -1       117 4.89706E-02
 -1       118 3.65554E-02
 -1       119 3.12297E-02
 -1       120 2.17806E-02
 -1       121 1.39778E-02
 -1       122 6.12467E-03
 -1       123 6.12467E-03
 -1       124 5.67575E-03
 -1       125 3.59389E-03
 -1       126 1.34641E-03
 -1       127 3.77945E-03
 -1       128 6.06938E-03
 -1       129 7.78426E-03
 -1       130 8.46987E-03
 -1       131 8.46987E-03
 -1       132 7.59368E-03
 -1       133 5.12834E-03
 -1       134 5.25314E-03
 -1       135 9.25666E-03
 -1       136 9.25666E-03
 -1       137 7.52969E-03
 -1       138 2.37242E+01
 -1       139 4.46665E+01
 -1       140 4.46665E+01
 -1       141 1.73741E+01
 -1       142 1.26984E+01
 -1       143 1.31973E+01
 -1       144 1.31973E+01
 -1       145 1.25243E+01
 -1       146 1.25243E+01
 -1       147 1.25385E+01
 -1       148 2.79663E+01
 -1       149 2.84399E+01
 -1       150 2.84399E+01
 -1       151 2.42880E+01
 -1       152 2.40043E+01
 -1       153 2.52643E+01
 -1       154 4.83053E+01
 -1       155 2.15110E+01
 -1       156 1.37177E+01
 -1       157 1.40883E+01
 -1       158 1.40883E+01
 -1       159 1.39089E+01
 -1       160 1.55509E+01
 -1       161 3.59065E+01
 -1       162 3.59065E+01
 -1       163 2.51761E+01
 -1       164 2.47728E+01
 -1       165 6.07491E+00
 -1       166 2.29565E+00
 -1       167 1.50703E+00
 -1       168 1.15646E+00
 -1       169 9.72390E-01
 -1       170 8.63409E-01
 -1       171 7.95420E-01
 -1       172 7.55132E-01
 -1       173 7.98633E-01
 -1       174 8.66289E-01
 -1       175 9.80080E-01
 -1       176 1.17060E+00
 -1       177 1.52602E+00
 -1       178 2.25785E+00
 -1       179 3.93164E+00
 -1       180 1.40403E+01
 -1       181 4.32095E+00
 -1       182 3.34473E+00
 -1       183 2.11572E+00
 -1       184 1.45097E+00
 -1       185 1.03006E+00
 -1       186 7.84169E-01
 -1       187 6.07161E-01
 -1       188 4.79257E-01
 -1       189 3.82155E-01
 -1       190 3.03779E-01
 -1       191 2.44151E-01
 -1       192 1.96591E-01
 -1       193 1.65160E-01
 -1       194 1.61101E-01
 -1       195 2.04275E-01
 -1       196 2.92236E-01
 -1       197 4.07586E-01
 -1       198 6.71873E-01
 -1       199 1.08203E+00
 -1       200 1.69618E+00
 -1       201 2.55789E+00
 -1       202 3.64055E+00
 -1       203 4.75877E+00
 -1       204 5.51985E+00
 -1       205 6.31033E+00
 -1       206 7.54108E+00
 -1       207 5.89684E+00
 -1       208 1.38174E+01
 -1       209 1.68793E+01
 -1       210 1.45130E+01
 -1       211 6.52005E+00
 -1       212 6.54047E+00
 -1       213 6.23697E+00
 -1       214 5.42033E+00
 -1       215 4.77905E+00
 -1       216 3.90967E+00
 -1       217 2.87525E+00
 -1       218 1.96393E+00
 -1       219 1.27445E+00
 -1       220 7.98606E-01
 -1       221 4.99510E-01
 -1       222 3.34056E-01
 -1       223 2.22911E-01
 -1       224 1.48886E-01
 -1       225 9.94036E-02
 -1       226 6.56230E-02
 -1       227 4.58681E-02
 -1       228 2.76442E-02
 -1       229 1.23923E-02
 -1       230 3.39837E+00
 -1       231 2.42057E+00
 -1       232 1.67092E+00
 -1       233 1.15149E+00
 -1       234 9.13254E-01
 -1       235 7.40430E-01
 -1       236 5.99259E-01
 -1       237 4.82395E-01
 -1       238 3.85748E-01
 -1       239 3.09905E-01
 -1       240 2.49598E-01
 -1       241 1.98730E-01
 -1       242 1.55407E-01
 -1       243 1.18946E-01
 -1       244 1.02492E-01
 -1       245 8.62305E-02
 -1       246 7.93451E-02
 -1       247 1.07335E-01
 -1       248 1.74031E-01
 -1       249 2.62167E-01
 -1       250 4.39756E-01
 -1       251 6.65988E-01
 -1       252 9.29278E-01
 -1       253 1.20422E+00
 -1       254 1.52149E+00
 -1       255 1.78388E+00
 -1       256 1.92345E+00
 -1       257 2.00177E+00
 -1       258 2.12267E+00
 -1       259 2.31014E+00
 -1       260 2.36949E+00
 -1       261 2.17075E+00
 -1       262 1.79674E+00
 -1       263 1.38671E+00
 -1       264 1.03522E+00
 -1       265 7.33089E-01
 -1       266 4.77191E-01
 -1       267 2.87890E-01
 -1       268 1.69808E-01
 -1       269 1.06600E-01
 -1       270 8.05097E-02
 -1       271 7.57588E-02
 -1       272 6.50019E-02
 -1       273 4.89706E-02
 -1       274 3.65554E-02
 -1       275 3.12297E-02
 -1       276 2.17806E-02
 -1       277 1.39778E-02
 -1       278 1.08251E-02
 -1       279 1.08251E-02
 -1       280 8.96696E-03
 -1       281 5.43653E-03
 -1       282 5.83286E-03
 -1       283 1.04393E-02
 -1       284 1.43096E-02
 -1       285 1.63891E-02
 -1       286 1.67225E-02
 -1       287 1.67225E-02
 -1       288 1.52981E-02
 -1       289 1.05037E-02
 -1       290 1.49399E-02
 -1       291 1.82596E-02
 -1       292 1.93795E-02
 -1       293 2.96258E+01
 -1       294 3.79576E+01
 -1       295 4.46665E+01
 -1       296 1.85380E+01
 -1       297 1.07832E+01
 -1       298 1.26984E+01
 -1       299 1.31973E+01
 -1       300 1.17296E+01
 -1       301 1.25243E+01
 -1       302 1.16968E+01
 -1       303 1.25385E+01
 -1       304 2.79663E+01
 -1       305 2.84399E+01
 -1       306 2.42880E+01
 -1       307 3.01073E+01
 -1       308 3.01073E+01
 -1       309 3.03972E+01
 -1       310 4.83053E+01
 -1       311 2.25049E+01
 -1       312 1.27297E+01
 -1       313 1.37177E+01
 -1       314 1.62533E+01
 -1       315 1.62533E+01
 -1       316 1.28542E+01
 -1       317 1.55509E+01
 -1       318 3.59065E+01
 -1       319 3.32133E+01
 -1       320 2.77990E+01
 -1       321 2.96258E+01
 -1       322 6.78542E+00
 -1       323 1.04451E+00
 -1       324 2.47741E+00
 -1       325 7.90749E-01
 -1       326 6.93262E-01
 -1       327 6.31018E-01
 -1       328 5.86960E-01
 -1       329 5.90042E-01
 -1       330 6.33684E-01
 -1       331 7.00338E-01
 -1       332 7.95519E-01
 -1       333 9.29583E-01
 -1       334 1.14280E+00
 -1       335 1.32741E+00
 -1       336 2.19686E+00
 -1       337 1.91288E+00
 -1       338 1.73208E+00
 -1       339 1.27066E+00
 -1       340 9.10604E-01
 -1       341 6.59732E-01
 -1       342 5.46287E-01
 -1       343 4.51158E-01
 -1       344 3.68035E-01
 -1       345 2.99754E-01
 -1       346 2.44151E-01
 -1       347 1.96591E-01
 -1       348 1.59719E-01
 -1       349 1.34281E-01
 -1       350 1.59480E-01
 -1       351 2.04981E-01
 -1       352 3.48420E-01
 -1       353 5.61374E-01
 -1       354 8.83330E-01
 -1       355 1.36648E+00
 -1       356 2.07662E+00
 -1       357 3.08192E+00
 -1       358 4.42095E+00
 -1       359 6.01652E+00
 -1       360 6.04950E+00
 -1       361 8.38068E+00
 -1       362 4.18764E+01
 -1       363 8.57503E+00
 -1       364 1.06793E+01
 -1       365 8.00911E+00
 -1       366 6.56690E+00
 -1       367 5.14671E+00
 -1       368 3.81026E+00
 -1       369 2.64956E+00
 -1       370 1.76869E+00
 -1       371 1.14958E+00
 -1       372 7.33792E-01
 -1       373 4.62085E-01
 -1       374 2.87333E-01
 -1       375 1.75972E-01
 -1       376 1.05460E-01
 -1       377 6.79492E-02
 -1       378 4.65754E-02
 -1       379 3.09771E-02
 -1       380 1.13681E+00
 -1       381 8.17160E-01
 -1       382 6.36450E-01
 -1       383 5.23054E-01
 -1       384 4.23924E-01
 -1       385 3.39662E-01
 -1       386 2.73627E-01
 -1       387 2.16874E-01
 -1       388 1.68569E-01
 -1       389 1.31838E-01
 -1       390 1.00160E-01
 -1       391 8.65249E-02
 -1       392 7.26038E-02
 -1       393 5.74933E-02
 -1       394 7.74701E-02
 -1       395 1.33664E-01
 -1       396 2.37005E-01
 -1       397 3.77377E-01
 -1       398 5.52779E-01
 -1       399 7.53968E-01
 -1       400 9.94208E-01
 -1       401 1.25826E+00
 -1       402 1.52149E+00
 -1       403 1.78388E+00
 -1       404 1.92345E+00
 -1       405 1.90866E+00
 -1       406 1.91491E+00
 -1       407 1.91022E+00
 -1       408 1.75379E+00
 -1       409 1.48133E+00
 -1       410 1.21943E+00
 -1       411 9.52470E-01
 -1       412 7.23011E-01
 -1       413 5.24848E-01
 -1       414 3.54058E-01
 -1       415 2.18479E-01
 -1       416 1.18953E-01
 -1       417 5.41357E-02
 -1       418 4.54789E-02
 -1       419 4.16513E-02
 -1       420 3.21056E-02
 -1       421 2.95006E-02
 -1       422 2.67879E-02
 -1       423 2.07381E-02
 -1       424 1.55243E-02
 -1       425 1.04389E-02
 -1       426 1.95129E-02
 -1       427 8.06502E-03
 -1       428 1.23318E-02
 -1       429 1.84555E-02
 -1       430 2.28874E-02
 -1       431 2.38798E-02
 -1       432 2.58386E-02
 -1       433 2.58386E-02
 -1       434 2.34856E-02
 -1       435 1.78730E-02
 -1       436 2.84016E-02
 -1       437 1.36043E+00
 -1       438 2.65785E+01
 -1       439 8.59280E+00
 -1       440 9.19077E+00
 -1       441 9.17372E-01
 -1       442 7.31560E+00
 -1       443 8.61542E+00
 -1       444 1.10558E+01
 -1       445 1.11364E+01
 -1       446 8.99538E+00
 -1       447 6.86042E+00
 -1       448 1.19771E+01
 -1       449 1.94872E+01
 -1       450 2.35499E+01
 -1       451 3.78219E+01
 -1       452 3.78219E+01
 -1       453 3.02479E+01
 -1       454 3.03972E+01
 -1       455 1.77578E+01
 -1       456 9.40780E+00
 -1       457 8.03883E+00
 -1       458 1.16306E+01
 -1       459 6.99500E+00
 -1       460 1.35942E+01
 -1       461 2.28407E+01
 -1       462 2.80564E+01
 -1       463 4.18764E+01
 -1       464 1.53312E+01
 -1       465 2.71121E+01
 -1       466 9.87532E+00
 -1       467 1.10254E+01
 -1       468 2.84016E-02
 -1       469 7.80411E+00
 -1       470 1.81101E+01
 -1       471 9.56433E+00
 -1       472 4.85300E-01
 -1       473 5.10295E-01
 -1       474 4.30766E-01
 -1       475 4.56657E-01
 -1       476 4.86287E-01
 -1       477 5.10244E-01
 -1       478 5.10244E-01
 -1       479 5.03107E-01
 -1       480 6.38188E-01
 -1       481 1.31560E+00
 -1       482 8.02394E-01
 -1       483 2.71121E+01
 -1       484 7.04729E-01
 -1       485 5.90367E-01
 -1       486 4.77676E-01
 -1       487 3.78143E-01
 -1       488 3.29074E-01
 -1       489 2.79530E-01
 -1       490 2.32257E-01
 -1       491 1.89111E-01
 -1       492 1.50242E-01
 -1       493 1.14395E-01
 -1       494 1.07235E-01
 -1       495 1.35000E-01
 -1       496 2.34674E-01
 -1       497 3.72259E-01
 -1       498 5.68173E-01
 -1       499 9.12615E-01
 -1       500 1.46422E+00
 -1       501 2.34270E+00
 -1       502 3.76702E+00
 -1       503 5.76627E+00
 -1       504 7.54993E+00
 -1       505 9.72338E+00
 -1       506 5.62362E+00
 -1       507 1.88551E+01
 -1       508 1.35075E+01
 -1       509 7.17852E+00
 -1       510 4.45513E+00
 -1       511 2.85980E+00
 -1       512 1.82499E+00
 -1       513 1.17654E+00
 -1       514 7.83079E-01
 -1       515 5.18462E-01
 -1       516 3.40769E-01
 -1       517 2.21902E-01
 -1       518 1.42783E-01
 -1       519 9.03095E-02
 -1       520 5.56240E-02
 -1       521 4.54916E-02
 -1       522 4.43569E-01
 -1       523 5.62371E-01
 -1       524 6.92675E-01
 -1       525 3.69913E-01
 -1       526 3.14530E-01
 -1       527 2.60370E-01
 -1       528 2.10347E-01
 -1       529 1.68569E-01
 -1       530 1.31838E-01
 -1       531 1.00160E-01
 -1       532 7.74952E-02
 -1       533 6.22841E-02
 -1       534 6.09054E-02
 -1       535 8.14032E-02
 -1       536 1.21108E-01
 -1       537 1.88598E-01
 -1       538 2.88622E-01
 -1       539 4.16892E-01
 -1       540 6.04131E-01
 -1       541 8.28034E-01
 -1       542 1.04932E+00
 -1       543 1.22625E+00
 -1       544 1.37428E+00
 -1       545 1.47359E+00
 -1       546 1.47305E+00
 -1       547 1.40743E+00
 -1       548 1.47960E+00
 -1       549 1.46552E+00
 -1       550 1.35175E+00
 -1       551 1.20479E+00
 -1       552 1.01774E+00
 -1       553 7.93535E-01
 -1       554 5.71968E-01
 -1       555 3.90701E-01
 -1       556 2.62374E-01
 -1       557 1.62888E-01
 -1       558 9.48049E-02
 -1       559 6.04281E-02
 -1       560 4.40545E-02
 -1       561 3.16295E-02
 -1       562 2.59451E-02
 -1       563 2.12508E-02
 -1       564 1.95129E-02
 -1       565 1.52464E-02
 -1       566 2.02820E-02
 -1       567 2.02820E-02
 -1       568 2.06642E-02
 -1       569 2.84976E-02
 -1       570 3.29665E-02
 -1       571 3.47048E-02
 -1       572 3.75370E-02
 -1       573 3.75370E-02
 -1       574 3.34664E-02
 -1       575 4.54916E-02
 -1       576 8.74183E-01
 -1       577 2.80564E+01
 -1       578 5.41397E+00
 -1       579 4.56729E-01
 -1       580 1.23609E+01
 -1       581 7.93564E+00
 -1       582 3.02479E+01
 -1       583 6.62196E+00
 -1       584 5.16407E+00
 -1       585 8.86031E+00
 -1       586 2.35499E+01
 -1       587 3.78219E+01
 -1       588 2.08767E+01
 -1       589 4.24379E+00
 -1       590 1.77655E+01
 -1       591 1.24530E+01
 -1       592 4.18764E+01
 -1       593 7.18010E-01
 -1       594 7.46557E-01
 -1       595 1.06793E+01
 -1       596 9.19077E+00
 -1       597 6.31488E-01
 -1       598 1.00654E+01
 -1       599 6.96021E+00
 -1       600 1.45111E+01
 -1       601 3.57811E-01
 -1       602 3.42113E-01
 -1       603 3.60856E-01
 -1       604 3.41647E-01
 -1       605 5.92941E-01
 -1       606 4.07207E-01
 -1       607 1.00160E+01
 -1       608 3.98528E-01
 -1       609 3.83962E-01
 -1       610 3.42051E-01
 -1       611 2.90538E-01
 -1       612 2.38939E-01
 -1       613 2.04730E-01
 -1       614 1.70566E-01
 -1       615 1.35154E-01
 -1       616 9.82515E-02
 -1       617 5.77123E-02
 -1       618 7.38903E-02
 -1       619 1.58839E-01
 -1       620 2.88951E-01
 -1       621 4.83042E-01
 -1       622 7.77733E-01
 -1       623 1.23132E+00
 -1       624 1.94004E+00
 -1       625 3.06922E+00
 -1       626 5.04391E+00
 -1       627 6.58367E+00
 -1       628 4.44237E+00
 -1       629 2.73105E-02
 -1       630 5.34373E+00
 -1       631 1.72280E+01
 -1       632 6.03898E+00
 -1       633 4.00514E+00
 -1       634 2.51866E+00
 -1       635 1.59862E+00
 -1       636 1.01119E+00
 -1       637 6.36009E-01
 -1       638 3.96239E-01
 -1       639 2.44088E-01
 -1       640 1.53723E-01
 -1       641 9.71872E-02
 -1       642 6.04455E-02
 -1       643 3.85770E-01
 -1       644 3.30602E-01
 -1       645 4.29189E-01
 -1       646 2.30540E-01
 -1       647 1.94530E-01
 -1       648 1.59587E-01
 -1       649 1.26806E-01
 -1       650 9.89997E-02
 -1       651 7.74952E-02
 -1       652 6.22841E-02
 -1       653 5.65207E-02
 -1       654 7.69916E-02
 -1       655 1.18504E-01
 -1       656 1.88598E-01
 -1       657 2.88622E-01
 -1       658 4.16892E-01
 -1       659 5.64184E-01
 -1       660 7.15312E-01
 -1       661 8.77788E-01
 -1       662 1.07534E+00
 -1       663 1.19683E+00
 -1       664 1.25530E+00
 -1       665 1.29985E+00
 -1       666 1.22019E+00
 -1       667 1.23177E+00
 -1       668 1.30231E+00
 -1       669 1.25239E+00
 -1       670 1.18622E+00
 -1       671 1.04840E+00
 -1       672 8.46234E-01
 -1       673 6.86673E-01
 -1       674 5.37087E-01
 -1       675 3.89710E-01
 -1       676 2.62374E-01
 -1       677 1.62888E-01
 -1       678 1.01674E-01
 -1       679 6.56615E-02
 -1       680 4.40545E-02
 -1       681 3.72960E-02
 -1       682 3.64238E-02
 -1       683 1.58942E+01
 -1       684 3.13553E-02
 -1       685 3.38320E+00
 -1       686 2.52528E-02
 -1       687 4.15488E-02
 -1       688 2.72975E-01
 -1       689 4.59023E-02
 -1       690 5.15126E-02
 -1       691 5.68688E-02
 -1       692 5.68688E-02
 -1       693 1.49784E+01
 -1       694 1.09196E+01
 -1       695 1.92285E+01
 -1       696 1.64597E+01
 -1       697 3.18689E+00
 -1       698 6.11901E+00
 -1       699 4.44018E+00
 -1       700 1.38759E+01
 -1       701 2.73105E-02
 -1       702 8.17250E+00
 -1       703 3.42290E+00
 -1       704 1.51385E+01
 -1       705 3.61545E-01
 -1       706 3.60856E-01
 -1       707 3.41956E-01
 -1       708 3.57578E-01
 -1       709 4.21850E-01
 -1       710 5.67378E+00
 -1       711 4.16131E-01
 -1       712 4.45127E-01
 -1       713 5.68578E+00
 -1       714 1.09491E+01
 -1       715 4.55228E-02
 -1       716 9.39858E+00
 -1       717 1.02596E+01
 -1       718 4.57695E+00
 -1       719 3.18689E+00
 -1       720 2.42021E-01
 -1       721 7.66412E+00
 -1       722 2.51808E+00
 -1       723 2.34717E-01
 -1       724 2.53383E-01
 -1       725 2.45094E-01
 -1       726 2.20902E-01
 -1       727 1.88946E-01
 -1       728 1.61888E-01
 -1       729 1.35773E-01
 -1       730 1.06753E-01
 -1       731 7.61746E-02
 -1       732 8.56798E-02
 -1       733 1.20625E-01
 -1       734 2.12880E-01
 -1       735 3.41722E-01
 -1       736 5.24318E-01
 -1       737 7.85653E-01
 -1       738 1.17103E+00
 -1       739 1.92497E+00
 -1       740 3.15875E+00
 -1       741 5.98043E+00
 -1       742 2.27560E-01
 -1       743 2.64040E+00
 -1       744 1.68749E+00
 -1       745 1.10601E+00
 -1       746 7.29987E-01
 -1       747 4.80779E-01
 -1       748 3.14418E-01
 -1       749 2.03220E-01
 -1       750 1.28654E-01
 -1       751 1.09481E-01
 -1       752 7.30798E-02
 -1       753 1.20716E+01
 -1       754 2.66473E-01
 -1       755 2.68305E-01
 -1       756 1.55381E-01
 -1       757 1.80071E-01
 -1       758 9.87308E-02
 -1       759 7.07059E-02
 -1       760 5.66039E-02
 -1       761 5.11004E-02
 -1       762 6.68232E-02
 -1       763 1.05432E-01
 -1       764 1.56139E-01
 -1       765 2.51820E-01
 -1       766 3.82020E-01
 -1       767 5.41643E-01
 -1       768 7.15312E-01
 -1       769 8.69728E-01
 -1       770 1.03332E+00
 -1       771 1.12605E+00
 -1       772 1.24917E+00
 -1       773 1.48292E+00
 -1       774 1.41619E+00
 -1       775 1.28614E+00
 -1       776 1.45575E+00
 -1       777 1.38988E+00
 -1       778 1.22240E+00
 -1       779 1.11124E+00
 -1       780 1.01191E+00
 -1       781 8.46234E-01
 -1       782 6.85130E-01
 -1       783 5.10853E-01
 -1       784 3.52489E-01
 -1       785 2.27847E-01
 -1       786 1.50893E-01
 -1       787 1.01674E-01
 -1       788 6.56615E-02
 -1       789 4.09178E-02
 -1       790 6.24997E-02
 -1       791 3.38320E+00
 -1       792 1.00387E-01
 -1       793 1.07273E+01
 -1       794 1.44168E+01
 -1       795 2.70074E-01
 -1       796 3.64238E-02
 -1       797 3.86951E-02
 -1       798 1.27460E-01
 -1       799 4.39152E+00
 -1       800 4.67196E+00
 -1       801 4.60451E-02
 -1       802 2.70943E-02
 -1       803 3.59035E+00
 -1       804 2.87714E-01
 -1       805 1.20716E+01
 -1       806 6.02354E+00
 -1       807 2.63796E+00
 -1       808 5.94756E-02
 -1       809 5.26627E+00
 -1       810 2.88227E-01
 -1       811 2.80693E-01
 -1       812 9.87532E+00
 -1       813 2.78780E-01
 -1       814 2.80402E-01
 -1       815 6.09836E+00
 -1       816 3.91763E+00
 -1       817 4.24846E+00
 -1       818 2.45364E-01
 -1       819 2.13954E-01
 -1       820 4.38777E-02
 -1       821 3.87624E+00
 -1       822 2.73811E+00
 -1       823 4.10920E+00
 -1       824 8.03261E+00
 -1       825 2.47328E+00
 -1       826 2.87714E-01
 -1       827 7.95074E+00
 -1       828 2.88227E-01
 -1       829 2.20278E+00
 -1       830 5.72826E+00
 -1       831 1.73260E-01
 -1       832 1.77966E-01
 -1       833 1.68115E-01
 -1       834 1.48783E-01
 -1       835 1.28554E-01
 -1       836 1.10604E-01
 -1       837 8.99824E-02
 -1       838 9.32388E-02
 -1       839 1.09139E-01
 -1       840 1.62278E-01
 -1       841 2.47441E-01
 -1       842 3.80321E-01
 -1       843 5.82468E-01
 -1       844 8.80529E-01
 -1       845 1.29792E+00
 -1       846 2.18418E+00
 -1       847 3.53867E+00
 -1       848 2.99433E+00
 -1       849 1.17388E+00
 -1       850 7.54780E-01
 -1       851 4.78166E-01
 -1       852 2.99099E-01
 -1       853 2.09568E-01
 -1       854 1.45214E-01
 -1       855 1.09481E-01
 -1       856 6.82511E+00
 -1       857 1.43649E-01
 -1       858 5.28237E-02
 -1       859 7.82692E-02
 -1       860 4.71824E-02
 -1       861 9.20262E-02
 -1       862 1.54499E-01
 -1       863 2.36167E-01
 -1       864 3.33754E-01
 -1       865 4.70818E-01
 -1       866 6.42589E-01
 -1       867 8.59133E-01
 -1       868 1.03332E+00
 -1       869 1.25079E+00
 -1       870 1.32266E+00
 -1       871 2.28737E+00
 -1       872 2.90170E+00
 -1       873 1.81239E+00
 -1       874 1.69426E+00
 -1       875 1.71327E+00
 -1       876 1.39123E+00
 -1       877 1.32051E+00
 -1       878 1.20200E+00
 -1       879 1.01191E+00
 -1       880 8.22315E-01
 -1       881 6.09730E-01
 -1       882 4.51690E-01
 -1       883 3.21926E-01
 -1       884 2.27847E-01
 -1       885 1.50893E-01
 -1       886 9.35263E-02
 -1       887 8.41972E-02
 -1       888 8.70889E-02
 -1       889 3.51491E-02
 -1       890 8.51247E-02
 -1       891 7.13859E+00
 -1       892 3.07565E+00
 -1       893 1.78487E+00
 -1       894 5.85308E-02
 -1       895 1.42269E-01
 -1       896 8.70889E-02
 -1       897 1.33783E-01
 -1       898 2.27922E+00
 -1       899 5.46723E+00
 -1       900 6.85998E-02
 -1       901 1.99746E+00
 -1       902 3.79814E+00
 -1       903 2.14811E-01
 -1       904 2.11942E-01
 -1       905 2.97675E+00
 -1       906 2.88791E+00
 -1       907 5.90884E+00
 -1       908 3.30497E+00
 -1       909 2.90170E+00
 -1       910 1.66688E-01
 -1       911 6.99942E-02
 -1       912 1.02381E-01
 -1       913 1.87389E-01
 -1       914 1.71374E-01
 -1       915 2.15155E-01
 -1       916 8.41972E-02
 -1       917 1.23961E-01
 -1       918 2.07672E+00
 -1       919 2.14811E-01
 -1       920 1.38116E-01
 -1       921 1.31493E-01
 -1       922 1.28886E-01
 -1       923 1.17510E-01
 -1       924 1.03119E-01
 -1       925 9.18733E-02
 -1       926 9.64384E-02
 -1       927 1.09127E-01
 -1       928 1.46958E-01
 -1       929 2.04067E-01
 -1       930 2.86798E-01
 -1       931 4.00201E-01
 -1       932 6.44866E-01
 -1       933 1.04229E+00
 -1       934 1.60711E+00
 -1       935 2.58558E+00
 -1       936 2.16310E+00
 -1       937 1.83137E-01
 -1       938 5.20465E-01
 -1       939 3.58819E-01
 -1       940 2.41394E-01
 -1       941 1.59430E-01
 -1       942 9.35353E-02
 -1       943 6.06599E-02
 -1       944 1.29463E-01
 -1       945 8.12129E-02
 -1       946 3.22906E-01
 -1       947 4.70818E-01
 -1       948 6.30231E-01
 -1       949 8.70423E-01
 -1       950 1.08252E+00
 -1       951 1.82524E+00
 -1       952 1.50837E+00
 -1       953 2.28737E+00
 -1       954 1.81239E+00
 -1       955 2.01398E+00
 -1       956 2.16310E+00
 -1       957 1.96242E+00
 -1       958 1.32051E+00
 -1       959 1.20200E+00
 -1       960 1.07636E+00
 -1       961 8.30988E-01
 -1       962 6.09730E-01
 -1       963 4.51690E-01
 -1       964 3.09791E-01
 -1       965 2.01462E-01
 -1       966 1.42227E-01
 -1       967 1.01297E-01
 -1       968 4.52266E+00
 -1       969 2.19617E+00
 -1       970 3.58528E+00
 -1       971 2.03440E-01
 -1       972 3.73871E+00
 -1       973 2.15155E-01
 -1       974 1.36829E+00
 -1       975 8.22998E-01
 -1       976 1.25993E-01
 -1       977 1.63766E+00
 -1       978 4.85340E+00
 -1       979 1.21001E-01
 -1       980 1.84194E-01
 -1       981 2.90170E+00
 -1       982 2.92628E+00
 -1       983 1.02678E-01
 -1       984 1.90201E+00
 -1       985 1.36296E-01
 -1       986 1.50097E-01
 -1       987 7.90898E-02
 -1       988 4.88162E-02
 -1       989 1.29247E-01
 -1       990 1.25993E-01
 -1       991 5.25757E-02
 -1       992 3.32618E+00
 -1       993 1.14435E-01
 -1       994 1.52357E-01
 -1       995 1.99746E+00
 -1       996 8.76484E-02
 -1       997 1.26620E-01
 -1       998 1.13338E-01
 -1       999 3.85670E+00
 -1      1000 1.96242E+00
 -1      1001 2.26998E+00
 -1      1002 9.96758E-02
 -1      1003 9.38001E-02
 -1      1004 8.87603E-02
 -1      1005 9.82547E-02
 -1      1006 1.02687E-01
 -1      1007 1.21724E-01
 -1      1008 1.52673E-01
 -1      1009 2.18060E-01
 -1      1010 3.33013E-01
 -1      1011 5.03491E-01
 -1      1012 7.37575E-01
 -1      1013 1.04229E+00
 -1      1014 1.60711E+00
 -1      1015 2.36490E+00
 -1      1016 8.70067E-02
 -1      1017 1.98001E+00
 -1      1018 4.11739E-01
 -1      1019 2.24006E-01
 -1      1020 2.52249E-01
 -1      1021 9.74984E-01
 -1      1022 3.42631E+00
 -1      1023 3.22535E+00
 -1      1024 6.24803E-01
 -1      1025 4.39865E-01
 -1      1026 1.19676E+00
 -1      1027 1.82524E+00
 -1      1028 1.45487E+00
 -1      1029 1.13431E+00
 -1      1030 8.30988E-01
 -1      1031 5.88201E-01
 -1      1032 4.35076E-01
 -1      1033 3.21636E-01
 -1      1034 2.24505E-01
 -1      1035 1.48093E-01
 -1      1036 6.48323E-01
 -1      1037 1.16454E-01
 -1      1038 7.90976E-02
 -1      1039 1.52357E-01
 -1      1040 1.41407E+00
 -1      1041 3.24159E-01
 -1      1042 9.71010E-02
 -1      1043 8.70423E-01
 -1      1044 1.37882E-01
 -1      1045 3.98687E+00
 -1      1046 9.90545E-02
 -1      1047 2.61070E+00
 -1      1048 1.41941E-01
 -1      1049 2.52249E-01
 -1      1050 1.00016E-01
 -1      1051 1.03038E-01
 -1      1052 8.06115E-02
 -1      1053 2.51803E+00
 -1      1054 2.39183E-01
 -1      1055 2.39897E+00
 -1      1056 1.46625E+00
 -1      1057 1.02015E-01
 -1      1058 7.49555E-02
 -1      1059 1.02015E-01
 -1      1060 9.91547E-02
 -1      1061 1.44894E-01
 -1      1062 1.23508E-01
 -1      1063 1.04451E-01
 -1      1064 1.49123E+00
 -1      1065 7.68967E-02
 -1      1066 8.77054E-02
 -1      1067 9.37345E-02
 -1      1068 9.82547E-02
 -1      1069 1.12177E-01
 -1      1070 1.24227E-01
 -1      1071 2.27257E-01
 -1      1072 3.27388E-01
 -1      1073 4.61001E-01
 -1      1074 6.23880E-01
 -1      1075 9.14245E-01
 -1      1076 1.27079E+00
 -1      1077 2.33396E+00
 -1      1078 2.33396E+00
 -1      1079 6.48323E-01
 -1      1080 1.05174E-01
 -1      1081 2.35006E+00
 -1      1082 1.45487E+00
 -1      1083 1.11799E+00
 -1      1084 4.87275E-01
 -1      1085 2.88052E-01
 -1      1086 1.92435E-01
 -1      1087 9.14245E-01
 -1      1088 1.16454E-01
 -1      1089 2.90541E-01
 -1      1090 5.79535E-02
 -1      1091 1.91357E-01
 -1      1092 3.27388E-01
 -1      1093 1.80853E+00
 -1      1094 6.23880E-01
 -1      1095 8.31182E-02
 -1      1096 1.85679E+00
 -1      1097 8.70912E-02
 -1      1098 2.61766E+00
 -1      1099 8.42739E-02
 -1      1100 6.50716E-02
 -1      1101 4.11739E-01
 -1      1102 1.27079E+00
 -1      1103 1.49123E+00
 -1      1104 4.61001E-01
 -1      1105 2.32479E+00
 -1      1106 2.27257E-01
 -1      1107 9.22892E-02
 -1      1108 8.42739E-02
 -1      1109 7.86836E-02
 -1      1110 9.37345E-02
 -1      1111 7.51909E-02
 -1      1112 8.14966E-01
 -1      1113 1.24227E-01
 -1      1114 1.12177E-01
 -1      1115 2.90541E-01
 -1      1116 8.77054E-02
 -1      1117 4.04598E-01
 -1      1118 1.31447E+01
 -1      1119 8.40295E+00
 -1      1120 2.74124E+00
 -1      1121 1.55580E+00
 -1      1122 1.16760E+00
 -1      1123 9.71634E-01
 -1      1124 8.53194E-01
 -1      1125 7.80669E-01
 -1      1126 7.54220E-01
 -1      1127 7.83633E-01
 -1      1128 8.55933E-01
 -1      1129 9.75724E-01
 -1      1130 1.17845E+00
 -1      1131 1.56717E+00
 -1      1132 2.66770E+00
 -1      1133 6.07368E+00
 -1      1134 1.13407E+01
 -1      1135 1.31447E+01
 -1      1136 8.73285E+00
 -1      1137 3.83284E+00
 -1      1138 2.73023E+00
 -1      1139 1.74165E+00
 -1      1140 1.19430E+00
 -1      1141 9.02587E-01
 -1      1142 6.95665E-01
 -1      1143 5.38866E-01
 -1      1144 4.17765E-01
 -1      1145 3.26420E-01
 -1      1146 2.58764E-01
 -1      1147 2.08358E-01
 -1      1148 1.76115E-01
 -1      1149 1.80305E-01
 -1      1150 2.27162E-01
 -1      1151 3.21905E-01
 -1      1152 4.65443E-01
 -1      1153 6.77609E-01
 -1      1154 9.99094E-01
 -1      1155 1.44180E+00
 -1      1156 2.01904E+00
 -1      1157 2.90128E+00
 -1      1158 4.12209E+00
 -1      1159 5.54767E+00
 -1      1160 6.38518E+00
 -1      1161 6.46003E+00
 -1      1162 6.10875E+00
 -1      1163 9.78745E+00
 -1      1164 1.53483E+01
 -1      1165 1.68793E+01
 -1      1166 1.56961E+01
 -1      1167 1.01793E+01
 -1      1168 5.75705E+00
 -1      1169 5.66847E+00
 -1      1170 5.43316E+00
 -1      1171 4.58985E+00
 -1      1172 3.44913E+00
 -1      1173 2.50443E+00
 -1      1174 1.80308E+00
 -1      1175 1.27826E+00
 -1      1176 8.70275E-01
 -1      1177 5.78810E-01
 -1      1178 3.80678E-01
 -1      1179 2.49605E-01
 -1      1180 1.63856E-01
 -1      1181 1.07501E-01
 -1      1182 7.42739E-02
 -1      1183 5.46958E-02
 -1      1184 3.53333E-02
 -1      1185 1.64841E-02
 -1      1186 1.40403E+01
 -1      1187 8.71932E+00
 -1      1188 2.90947E+00
 -1      1189 2.04575E+00
 -1      1190 1.41121E+00
 -1      1191 1.03237E+00
 -1      1192 8.26842E-01
 -1      1193 6.69844E-01
 -1      1194 5.40827E-01
 -1      1195 4.34072E-01
 -1      1196 3.47827E-01
 -1      1197 2.79752E-01
 -1      1198 2.24164E-01
 -1      1199 1.77068E-01
 -1      1200 1.36261E-01
 -1      1201 1.09803E-01
 -1      1202 9.43614E-02
 -1      1203 9.34674E-02
 -1      1204 1.37368E-01
 -1      1205 2.16053E-01
 -1      1206 2.98301E-01
 -1      1207 4.15461E-01
 -1      1208 5.79260E-01
 -1      1209 7.45687E-01
 -1      1210 8.76389E-01
 -1      1211 1.10214E+00
 -1      1212 1.48383E+00
 -1      1213 1.84634E+00
 -1      1214 2.06222E+00
 -1      1215 2.21640E+00
 -1      1216 2.33982E+00
 -1      1217 2.36949E+00
 -1      1218 2.27012E+00
 -1      1219 1.98374E+00
 -1      1220 1.59173E+00
 -1      1221 1.19875E+00
 -1      1222 8.43954E-01
 -1      1223 5.56465E-01
 -1      1224 3.61851E-01
 -1      1225 2.28849E-01
 -1      1226 1.38204E-01
 -1      1227 9.35547E-02
 -1      1228 7.81342E-02
 -1      1229 7.03803E-02
 -1      1230 5.69862E-02
 -1      1231 4.27630E-02
 -1      1232 3.38925E-02
 -1      1233 2.65051E-02
 -1      1234 1.78792E-02
 -1      1235 8.97337E-03
 -1      1236 5.04679E-03
 -1      1237 6.12467E-03
 -1      1238 5.90021E-03
 -1      1239 4.63482E-03
 -1      1240 2.47015E-03
 -1      1241 2.56293E-03
 -1      1242 4.92442E-03
 -1      1243 6.92682E-03
 -1      1244 8.12707E-03
 -1      1245 8.46987E-03
 -1      1246 8.03178E-03
 -1      1247 6.36101E-03
 -1      1248 5.19074E-03
 -1      1249 7.25490E-03
 -1      1250 9.25666E-03
 -1      1251 8.39317E-03
 -1      1252 7.84974E-03
 -1      1253 2.37242E+01
 -1      1254 3.41954E+01
 -1      1255 4.46665E+01
 -1      1256 3.10203E+01
 -1      1257 1.50363E+01
 -1      1258 1.29479E+01
 -1      1259 1.31973E+01
 -1      1260 1.28608E+01
 -1      1261 1.25243E+01
 -1      1262 1.25314E+01
 -1      1263 2.02524E+01
 -1      1264 2.82031E+01
 -1      1265 2.84399E+01
 -1      1266 2.63640E+01
 -1      1267 2.41462E+01
 -1      1268 2.46343E+01
 -1      1269 3.67848E+01
 -1      1270 4.83053E+01
 -1      1271 3.49081E+01
 -1      1272 1.76144E+01
 -1      1273 1.39030E+01
 -1      1274 1.40883E+01
 -1      1275 1.39986E+01
 -1      1276 1.47299E+01
 -1      1277 2.57287E+01
 -1      1278 3.59065E+01
 -1      1279 3.05413E+01
 -1      1280 2.49745E+01
 -1      1281 2.42485E+01
 -1      1282 1.31447E+01
 -1      1283 4.86804E+00
 -1      1284 9.60982E+00
 -1      1285 2.05848E+00
 -1      1286 2.97841E+00
 -1      1287 4.18528E+00
 -1      1288 1.39866E+00
 -1      1289 1.66417E+00
 -1      1290 1.90134E+00
 -1      1291 1.10068E+00
 -1      1292 1.22337E+00
 -1      1293 1.33174E+00
 -1      1294 9.35375E-01
 -1      1295 1.00865E+00
 -1      1296 1.06442E+00
 -1      1297 8.35719E-01
 -1      1298 8.80884E-01
 -1      1299 9.17900E-01
 -1      1300 7.74364E-01
 -1      1301 8.01724E-01
 -1      1302 8.29415E-01
 -1      1303 7.55132E-01
 -1      1304 7.54220E-01
 -1      1305 7.75276E-01
 -1      1306 8.05383E-01
 -1      1307 7.76883E-01
 -1      1308 7.76883E-01
 -1      1309 8.83010E-01
 -1      1310 8.39212E-01
 -1      1311 8.32461E-01
 -1      1312 1.01590E+00
 -1      1313 9.39906E-01
 -1      1314 9.23184E-01
 -1      1315 1.23789E+00
 -1      1316 1.11116E+00
 -1      1317 1.07534E+00
 -1      1318 1.67759E+00
 -1      1319 1.41560E+00
 -1      1320 1.34831E+00
 -1      1321 2.88205E+00
 -1      1322 2.04351E+00
 -1      1323 1.89194E+00
 -1      1324 6.28638E+00
 -1      1325 3.71894E+00
 -1      1326 3.09475E+00
 -1      1327 1.40403E+01
 -1      1328 1.13407E+01
 -1      1329 8.98596E+00
 -1      1330 1.40403E+01
 -1      1331 8.73285E+00
 -1      1332 4.32095E+00
 -1      1333 3.83284E+00
 -1      1334 3.34473E+00
 -1      1335 3.83284E+00
 -1      1336 2.73023E+00
 -1      1337 2.11572E+00
 -1      1338 2.73023E+00
 -1      1339 1.78335E+00
 -1      1340 1.40928E+00
 -1      1341 1.78335E+00
 -1      1342 1.19882E+00
 -1      1343 1.02553E+00
 -1      1344 1.24051E+00
 -1      1345 9.02587E-01
 -1      1346 7.84169E-01
 -1      1347 9.07112E-01
 -1      1348 6.95665E-01
 -1      1349 6.07161E-01
 -1      1350 6.95665E-01
 -1      1351 5.43209E-01
 -1      1352 4.74914E-01
 -1      1353 5.43209E-01
 -1      1354 4.26363E-01
 -1      1355 3.73557E-01
 -1      1356 4.30706E-01
 -1      1357 3.34369E-01
 -1      1358 2.95830E-01
 -1      1359 3.42967E-01
 -1      1360 2.66016E-01
 -1      1361 2.36899E-01
 -1      1362 2.73965E-01
 -1      1363 2.13119E-01
 -1      1364 1.91830E-01
 -1      1365 2.20371E-01
 -1      1366 1.76115E-01
 -1      1367 1.65160E-01
 -1      1368 1.80875E-01
 -1      1369 1.63130E-01
 -1      1370 1.78276E-01
 -1      1371 1.63130E-01
 -1      1372 1.99862E-01
 -1      1373 2.31575E-01
 -1      1374 1.82688E-01
 -1      1375 2.75555E-01
 -1      1376 3.38585E-01
 -1      1377 2.48255E-01
 -1      1378 3.96260E-01
 -1      1379 4.76769E-01
 -1      1380 3.49911E-01
 -1      1381 6.08912E-01
 -1      1382 7.40570E-01
 -1      1383 5.39730E-01
 -1      1384 9.45649E-01
 -1      1385 1.13548E+00
 -1      1386 8.76952E-01
 -1      1387 1.44255E+00
 -1      1388 1.69544E+00
 -1      1389 1.38911E+00
 -1      1390 2.12629E+00
 -1      1391 2.45064E+00
 -1      1392 2.12704E+00
 -1      1393 2.99197E+00
 -1      1394 3.54986E+00
 -1      1395 3.09922E+00
 -1      1396 4.10897E+00
 -1      1397 4.77189E+00
 -1      1398 4.19966E+00
 -1      1399 5.15243E+00
 -1      1400 5.91509E+00
 -1      1401 5.13931E+00
 -1      1402 6.31033E+00
 -1      1403 6.38518E+00
 -1      1404 5.91509E+00
 -1      1405 7.00056E+00
 -1      1406 7.00056E+00
 -1      1407 6.92570E+00
 -1      1408 6.17844E+00
 -1      1409 5.82716E+00
 -1      1410 6.71896E+00
 -1      1411 1.38174E+01
 -1      1412 1.53483E+01
 -1      1413 1.68793E+01
 -1      1414 1.68793E+01
 -1      1415 1.53483E+01
 -1      1416 1.56961E+01
 -1      1417 1.45130E+01
 -1      1418 1.56961E+01
 -1      1419 1.05165E+01
 -1      1420 6.18284E+00
 -1      1421 1.05165E+01
 -1      1422 6.19305E+00
 -1      1423 6.10447E+00
 -1      1424 6.53026E+00
 -1      1425 5.95272E+00
 -1      1426 5.95272E+00
 -1      1427 6.38872E+00
 -1      1428 5.54440E+00
 -1      1429 5.30910E+00
 -1      1430 5.82865E+00
 -1      1431 4.98846E+00
 -1      1432 4.38045E+00
 -1      1433 5.09969E+00
 -1      1434 3.94575E+00
 -1      1435 3.41304E+00
 -1      1436 4.34436E+00
 -1      1437 2.89583E+00
 -1      1438 2.48385E+00
 -1      1439 3.39246E+00
 -1      1440 2.02819E+00
 -1      1441 1.73882E+00
 -1      1442 2.41959E+00
 -1      1443 1.39408E+00
 -1      1444 1.15863E+00
 -1      1445 1.61919E+00
 -1      1446 9.20709E-01
 -1      1447 7.48172E-01
 -1      1448 1.03653E+00
 -1      1449 5.98624E-01
 -1      1450 4.79695E-01
 -1      1451 6.49058E-01
 -1      1452 3.96968E-01
 -1      1453 3.17765E-01
 -1      1454 4.16783E-01
 -1      1455 2.62192E-01
 -1      1456 2.10323E-01
 -1      1457 2.78483E-01
 -1      1458 1.73311E-01
 -1      1459 1.39432E-01
 -1      1460 1.85898E-01
 -1      1461 1.14691E-01
 -1      1462 9.22140E-02
 -1      1463 1.24145E-01
 -1      1464 7.53237E-02
 -1      1465 6.45732E-02
 -1      1466 8.25133E-02
 -1      1467 5.46958E-02
 -1      1468 4.58681E-02
 -1      1469 5.57455E-02
 -1      1470 3.67561E-02
 -1      1471 2.62213E-02
 -1      1472 3.67561E-02
 -1      1473 1.85954E-02
 -1      1474 1.02810E-02
 -1      1475 9.96098E-03
 -1      1476 2.00182E-02
 -1      1477 3.39837E+00
 -1      1478 8.71932E+00
 -1      1479 8.71932E+00
 -1      1480 2.42057E+00
 -1      1481 2.90947E+00
 -1      1482 2.90947E+00
 -1      1483 1.67092E+00
 -1      1484 2.04575E+00
 -1      1485 2.04575E+00
 -1      1486 1.15149E+00
 -1      1487 1.41121E+00
 -1      1488 1.41121E+00
 -1      1489 9.13254E-01
 -1      1490 1.03237E+00
 -1      1491 1.03237E+00
 -1      1492 7.40430E-01
 -1      1493 8.26842E-01
 -1      1494 8.26842E-01
 -1      1495 5.99259E-01
 -1      1496 6.69844E-01
 -1      1497 6.69844E-01
 -1      1498 4.82395E-01
 -1      1499 5.40827E-01
 -1      1500 5.40827E-01
 -1      1501 3.85748E-01
 -1      1502 4.34072E-01
 -1      1503 4.34072E-01
 -1      1504 3.09905E-01
 -1      1505 3.47827E-01
 -1      1506 3.47827E-01
 -1      1507 2.49598E-01
 -1      1508 2.79752E-01
 -1      1509 2.79752E-01
 -1      1510 1.98730E-01
 -1      1511 2.24164E-01
 -1      1512 2.24164E-01
 -1      1513 1.55407E-01
 -1      1514 1.77068E-01
 -1      1515 1.77068E-01
 -1      1516 1.18030E-01
 -1      1517 1.37177E-01
 -1      1518 1.37177E-01
 -1      1519 1.02492E-01
 -1      1520 1.09803E-01
 -1      1521 1.10719E-01
 -1      1522 8.62305E-02
 -1      1523 9.43614E-02
 -1      1524 9.43614E-02
 -1      1525 9.00246E-02
 -1      1526 8.27878E-02
 -1      1527 8.27878E-02
 -1      1528 1.40683E-01
 -1      1529 1.04020E-01
 -1      1530 9.33402E-02
 -1      1531 2.16053E-01
 -1      1532 1.74031E-01
 -1      1533 1.40683E-01
 -1      1534 3.00347E-01
 -1      1535 2.60122E-01
 -1      1536 2.18099E-01
 -1      1537 4.66076E-01
 -1      1538 3.89141E-01
 -1      1539 3.50962E-01
 -1      1540 6.66057E-01
 -1      1541 5.79191E-01
 -1      1542 5.52872E-01
 -1      1543 8.77264E-01
 -1      1544 7.97702E-01
 -1      1545 7.97633E-01
 -1      1546 1.06587E+00
 -1      1547 1.01473E+00
 -1      1548 1.06675E+00
 -1      1549 1.39912E+00
 -1      1550 1.22451E+00
 -1      1551 1.36285E+00
 -1      1552 1.73740E+00
 -1      1553 1.53032E+00
 -1      1554 1.65269E+00
 -1      1555 1.96261E+00
 -1      1556 1.80718E+00
 -1      1557 1.85366E+00
 -1      1558 2.06222E+00
 -1      1559 2.00177E+00
 -1      1560 1.96261E+00
 -1      1561 2.21640E+00
 -1      1562 2.12267E+00
 -1      1563 2.06222E+00
 -1      1564 2.33982E+00
 -1      1565 2.31014E+00
 -1      1566 2.21640E+00
 -1      1567 2.36949E+00
 -1      1568 2.36949E+00
 -1      1569 2.33982E+00
 -1      1570 2.17075E+00
 -1      1571 2.27012E+00
 -1      1572 2.27012E+00
 -1      1573 1.79674E+00
 -1      1574 1.98374E+00
 -1      1575 1.98374E+00
 -1      1576 1.38671E+00
 -1      1577 1.59173E+00
 -1      1578 1.59173E+00
 -1      1579 1.02301E+00
 -1      1580 1.21097E+00
 -1      1581 1.21097E+00
 -1      1582 7.05104E-01
 -1      1583 8.71939E-01
 -1      1584 8.84156E-01
 -1      1585 4.56501E-01
 -1      1586 5.77155E-01
 -1      1587 6.05140E-01
 -1      1588 2.87890E-01
 -1      1589 3.61851E-01
 -1      1590 3.82540E-01
 -1      1591 1.69808E-01
 -1      1592 2.28849E-01
 -1      1593 2.28849E-01
 -1      1594 1.06600E-01
 -1      1595 1.38204E-01
 -1      1596 1.38204E-01
 -1      1597 8.05097E-02
 -1      1598 9.35547E-02
 -1      1599 9.35547E-02
 -1      1600 7.57588E-02
 -1      1601 7.81342E-02
 -1      1602 7.81342E-02
 -1      1603 6.50019E-02
 -1      1604 7.03803E-02
 -1      1605 7.03803E-02
 -1      1606 4.89706E-02
 -1      1607 5.69862E-02
 -1      1608 5.69862E-02
 -1      1609 3.65554E-02
 -1      1610 4.27630E-02
 -1      1611 4.27630E-02
 -1      1612 3.12297E-02
 -1      1613 3.38925E-02
 -1      1614 3.38925E-02
 -1      1615 2.17806E-02
 -1      1616 2.65051E-02
 -1      1617 2.65051E-02
 -1      1618 1.39778E-02
 -1      1619 1.78792E-02
 -1      1620 1.78792E-02
 -1      1621 1.00512E-02
 -1      1622 8.47489E-03
 -1      1623 8.47489E-03
 -1      1624 8.25043E-03
 -1      1625 8.47489E-03
 -1      1626 1.08251E-02
 -1      1627 6.28043E-03
 -1      1628 7.32136E-03
 -1      1629 9.89604E-03
 -1      1630 3.39147E-03
 -1      1631 4.51521E-03
 -1      1632 7.20174E-03
 -1      1633 4.80615E-03
 -1      1634 3.58963E-03
 -1      1635 5.63469E-03
 -1      1636 8.25434E-03
 -1      1637 7.10937E-03
 -1      1638 8.13607E-03
 -1      1639 1.10469E-02
 -1      1640 1.01895E-02
 -1      1641 1.23745E-02
 -1      1642 1.24295E-02
 -1      1643 1.20867E-02
 -1      1644 1.53494E-02
 -1      1645 1.25962E-02
 -1      1646 1.25962E-02
 -1      1647 1.65558E-02
 -1      1648 1.21581E-02
 -1      1649 1.25962E-02
 -1      1650 1.67225E-02
 -1      1651 1.02132E-02
 -1      1652 1.14459E-02
 -1      1653 1.60103E-02
 -1      1654 7.87840E-03
 -1      1655 7.81600E-03
 -1      1656 1.29009E-02
 -1      1657 1.20983E-02
 -1      1658 1.00965E-02
 -1      1659 1.27218E-02
 -1      1660 1.37581E-02
 -1      1661 1.37581E-02
 -1      1662 1.65997E-02
 -1      1663 1.34546E-02
 -1      1664 1.43181E-02
 -1      1665 1.88195E-02
 -1      1666 1.58859E-02
 -1      1667 2.66750E+01
 -1      1668 2.66750E+01
 -1      1669 4.13120E+01
 -1      1670 3.08409E+01
 -1      1671 4.46665E+01
 -1      1672 4.46665E+01
 -1      1673 1.79560E+01
 -1      1674 3.16022E+01
 -1      1675 1.17408E+01
 -1      1676 1.40787E+01
 -1      1677 1.29479E+01
 -1      1678 1.26984E+01
 -1      1679 1.31973E+01
 -1      1680 1.31973E+01
 -1      1681 1.21270E+01
 -1      1682 1.24635E+01
 -1      1683 1.25243E+01
 -1      1684 1.25243E+01
 -1      1685 1.21176E+01
 -1      1686 1.21105E+01
 -1      1687 2.02524E+01
 -1      1688 1.25385E+01
 -1      1689 2.82031E+01
 -1      1690 2.79663E+01
 -1      1691 2.84399E+01
 -1      1692 2.84399E+01
 -1      1693 2.42880E+01
 -1      1694 2.63640E+01
 -1      1695 2.70558E+01
 -1      1696 2.71976E+01
 -1      1697 2.76858E+01
 -1      1698 2.70558E+01
 -1      1699 3.93512E+01
 -1      1700 2.78308E+01
 -1      1701 4.83053E+01
 -1      1702 4.83053E+01
 -1      1703 2.20079E+01
 -1      1704 3.54051E+01
 -1      1705 1.32237E+01
 -1      1706 1.71204E+01
 -1      1707 1.39030E+01
 -1      1708 1.37177E+01
 -1      1709 1.51708E+01
 -1      1710 1.51708E+01
 -1      1711 1.50811E+01
 -1      1712 1.51708E+01
 -1      1713 1.42026E+01
 -1      1714 1.33816E+01
 -1      1715 2.57287E+01
 -1      1716 1.55509E+01
 -1      1717 3.59065E+01
 -1      1718 3.59065E+01
 -1      1719 2.91947E+01
 -1      1720 3.45599E+01
 -1      1721 2.62859E+01
 -1      1722 2.64876E+01
 -1      1723 2.66750E+01
 -1      1724 2.71993E+01
 -1      1725 6.27145E+00
 -1      1726 1.03014E+01
 -1      1727 2.96258E+01
 -1      1728 3.16022E+01
 -1      1729 6.34113E+00
 -1      1730 1.00512E-02
 -1      1731 1.24015E-02
 -1      1732 3.37917E+01
 -1      1733 4.13120E+01
 -1      1734 1.46606E+01
 -1      1735 1.17408E+01
 -1      1736 1.29479E+01
 -1      1737 1.24635E+01
 -1      1738 1.21270E+01
 -1      1739 1.21105E+01
 -1      1740 1.21176E+01
 -1      1741 2.02524E+01
 -1      1742 2.82031E+01
 -1      1743 2.63640E+01
 -1      1744 2.71976E+01
 -1      1745 3.01073E+01
 -1      1746 3.02522E+01
 -1      1747 3.93512E+01
 -1      1748 3.54051E+01
 -1      1749 1.76173E+01
 -1      1750 1.32237E+01
 -1      1751 1.49855E+01
 -1      1752 1.62533E+01
 -1      1753 1.45537E+01
 -1      1754 1.42026E+01
 -1      1755 2.57287E+01
 -1      1756 3.45599E+01
 -1      1757 3.05062E+01
 -1      1758 2.87124E+01
 -1      1759 1.03014E+01
 -1      1760 9.60982E+00
 -1      1761 1.27577E+00
 -1      1762 1.67008E+00
 -1      1763 2.38653E+00
 -1      1764 4.27616E+00
 -1      1765 1.76096E+00
 -1      1766 8.81570E-01
 -1      1767 9.73603E-01
 -1      1768 7.78336E-01
 -1      1769 8.32826E-01
 -1      1770 7.42005E-01
 -1      1771 7.13219E-01
 -1      1772 7.47214E-01
 -1      1773 6.62140E-01
 -1      1774 6.71046E-01
 -1      1775 6.91190E-01
 -1      1776 6.08989E-01
 -1      1777 6.94337E-01
 -1      1778 6.72587E-01
 -1      1779 5.88501E-01
 -1      1780 7.49986E-01
 -1      1781 7.16158E-01
 -1      1782 6.11863E-01
 -1      1783 8.40209E-01
 -1      1784 7.83314E-01
 -1      1785 6.67011E-01
 -1      1786 9.83058E-01
 -1      1787 8.87799E-01
 -1      1788 7.47929E-01
 -1      1789 1.22780E+00
 -1      1790 1.05009E+00
 -1      1791 8.62551E-01
 -1      1792 1.70033E+00
 -1      1793 1.33441E+00
 -1      1794 1.03619E+00
 -1      1795 2.62953E+00
 -1      1796 1.79263E+00
 -1      1797 1.23511E+00
 -1      1798 8.11857E+00
 -1      1799 3.06425E+00
 -1      1800 1.76214E+00
 -1      1801 2.79761E+00
 -1      1802 5.19793E+00
 -1      1803 2.16673E+00
 -1      1804 2.65562E+00
 -1      1805 2.05487E+00
 -1      1806 3.39918E+00
 -1      1807 2.53840E+00
 -1      1808 1.92390E+00
 -1      1809 1.69319E+00
 -1      1810 1.36081E+00
 -1      1811 1.50137E+00
 -1      1812 1.18079E+00
 -1      1813 9.70330E-01
 -1      1814 1.09063E+00
 -1      1815 8.44893E-01
 -1      1816 7.21950E-01
 -1      1817 7.85168E-01
 -1      1818 6.65228E-01
 -1      1819 5.76724E-01
 -1      1820 6.03009E-01
 -1      1821 5.29160E-01
 -1      1822 4.65207E-01
 -1      1823 4.98722E-01
 -1      1824 4.23646E-01
 -1      1825 3.75095E-01
 -1      1826 4.09597E-01
 -1      1827 3.40954E-01
 -1      1828 3.01766E-01
 -1      1829 3.33895E-01
 -1      1830 2.73965E-01
 -1      1831 2.44151E-01
 -1      1832 2.71953E-01
 -1      1833 2.20371E-01
 -1      1834 1.96591E-01
 -1      1835 2.20371E-01
 -1      1836 1.78155E-01
 -1      1837 1.62439E-01
 -1      1838 1.78155E-01
 -1      1839 1.49720E-01
 -1      1840 1.47691E-01
 -1      1841 1.47000E-01
 -1      1842 1.60291E-01
 -1      1843 1.81878E-01
 -1      1844 1.46881E-01
 -1      1845 2.04628E-01
 -1      1846 2.48608E-01
 -1      1847 1.82231E-01
 -1      1848 3.20328E-01
 -1      1849 3.78003E-01
 -1      1850 2.76701E-01
 -1      1851 4.84480E-01
 -1      1852 6.16624E-01
 -1      1853 4.54897E-01
 -1      1854 7.77602E-01
 -1      1855 9.82681E-01
 -1      1856 7.22352E-01
 -1      1857 1.22426E+00
 -1      1858 1.53133E+00
 -1      1859 1.12491E+00
 -1      1860 1.88640E+00
 -1      1861 2.31726E+00
 -1      1862 1.72155E+00
 -1      1863 2.81991E+00
 -1      1864 3.36123E+00
 -1      1865 2.57927E+00
 -1      1866 4.03075E+00
 -1      1867 4.58986E+00
 -1      1868 3.75144E+00
 -1      1869 5.38765E+00
 -1      1870 5.76819E+00
 -1      1871 5.21874E+00
 -1      1872 5.78468E+00
 -1      1873 6.17991E+00
 -1      1874 6.03301E+00
 -1      1875 7.34550E+00
 -1      1876 7.96088E+00
 -1      1877 7.21509E+00
 -1      1878 3.57511E+01
 -1      1879 3.57511E+01
 -1      1880 1.65663E+01
 -1      1881 1.53831E+01
 -1      1882 7.54754E+00
 -1      1883 7.55775E+00
 -1      1884 8.60990E+00
 -1      1885 8.45815E+00
 -1      1886 7.12304E+00
 -1      1887 6.71472E+00
 -1      1888 9.34422E+00
 -1      1889 5.99362E+00
 -1      1890 5.67298E+00
 -1      1891 7.28801E+00
 -1      1892 4.96288E+00
 -1      1893 4.52819E+00
 -1      1894 5.85681E+00
 -1      1895 3.85996E+00
 -1      1896 3.34275E+00
 -1      1897 4.47849E+00
 -1      1898 2.76240E+00
 -1      1899 2.30675E+00
 -1      1900 3.22991E+00
 -1      1901 1.86631E+00
 -1      1902 1.52157E+00
 -1      1903 2.20912E+00
 -1      1904 1.21202E+00
 -1      1905 9.74091E-01
 -1      1906 1.45913E+00
 -1      1907 7.66199E-01
 -1      1908 6.16651E-01
 -1      1909 9.41684E-01
 -1      1910 4.80797E-01
 -1      1911 3.98070E-01
 -1      1912 5.97938E-01
 -1      1913 3.10694E-01
 -1      1914 2.55122E-01
 -1      1915 3.74709E-01
 -1      1916 1.99441E-01
 -1      1917 1.62429E-01
 -1      1918 2.31652E-01
 -1      1919 1.27173E-01
 -1      1920 1.02432E-01
 -1      1921 1.40716E-01
 -1      1922 8.36764E-02
 -1      1923 6.67861E-02
 -1      1924 8.67044E-02
 -1      1925 5.60992E-02
 -1      1926 4.62218E-02
 -1      1927 5.72623E-02
 -1      1928 3.84226E-02
 -1      1929 2.93106E-02
 -1      1930 3.87763E-02
 -1      1931 2.35118E-02
 -1      1932 1.14415E+00
 -1      1933 1.40387E+00
 -1      1934 8.65207E-01
 -1      1935 9.84325E-01
 -1      1936 9.76983E-01
 -1      1937 6.88440E-01
 -1      1938 7.74852E-01
 -1      1939 7.26805E-01
 -1      1940 5.61156E-01
 -1      1941 6.31742E-01
 -1      1942 5.79752E-01
 -1      1943 4.53159E-01
 -1      1944 5.11591E-01
 -1      1945 4.73489E-01
 -1      1946 3.62705E-01
 -1      1947 4.11028E-01
 -1      1948 3.81793E-01
 -1      1949 2.91766E-01
 -1      1950 3.29688E-01
 -1      1951 3.06645E-01
 -1      1952 2.33236E-01
 -1      1953 2.63389E-01
 -1      1954 2.45251E-01
 -1      1955 1.83649E-01
 -1      1956 2.09083E-01
 -1      1957 1.92721E-01
 -1      1958 1.43623E-01
 -1      1959 1.65284E-01
 -1      1960 1.50203E-01
 -1      1961 1.09553E-01
 -1      1962 1.27784E-01
 -1      1963 1.15999E-01
 -1      1964 9.45086E-02
 -1      1965 1.02736E-01
 -1      1966 9.33425E-02
 -1      1967 7.94172E-02
 -1      1968 8.75481E-02
 -1      1969 7.95643E-02
 -1      1970 6.84192E-02
 -1      1971 7.18619E-02
 -1      1972 6.50486E-02
 -1      1973 9.24027E-02
 -1      1974 7.84076E-02
 -1      1975 6.74817E-02
 -1      1976 1.53848E-01
 -1      1977 1.20500E-01
 -1      1978 1.05567E-01
 -1      1979 2.49586E-01
 -1      1980 2.05518E-01
 -1      1981 1.85335E-01
 -1      1982 4.08567E-01
 -1      1983 3.19772E-01
 -1      1984 3.07191E-01
 -1      1985 6.09384E-01
 -1      1986 4.96268E-01
 -1      1987 4.65078E-01
 -1      1988 8.41623E-01
 -1      1989 7.09978E-01
 -1      1990 6.53374E-01
 -1      1991 1.09921E+00
 -1      1992 9.61743E-01
 -1      1993 8.74088E-01
 -1      1994 1.38987E+00
 -1      1995 1.23124E+00
 -1      1996 1.12623E+00
 -1      1997 1.65269E+00
 -1      1998 1.52149E+00
 -1      1999 1.38987E+00
 -1      2000 1.85366E+00
 -1      2001 1.78388E+00
 -1      2002 1.65269E+00
 -1      2003 1.96261E+00
 -1      2004 1.92345E+00
 -1      2005 1.85366E+00
 -1      2006 2.01566E+00
 -1      2007 1.95522E+00
 -1      2008 1.91605E+00
 -1      2009 2.11252E+00
 -1      2010 2.01879E+00
 -1      2011 1.91178E+00
 -1      2012 2.13986E+00
 -1      2013 2.11018E+00
 -1      2014 1.91257E+00
 -1      2015 1.96227E+00
 -1      2016 2.06164E+00
 -1      2017 1.83201E+00
 -1      2018 1.63904E+00
 -1      2019 1.82604E+00
 -1      2020 1.61756E+00
 -1      2021 1.30307E+00
 -1      2022 1.50809E+00
 -1      2023 1.35038E+00
 -1      2024 9.93846E-01
 -1      2025 1.16959E+00
 -1      2026 1.08595E+00
 -1      2027 7.28050E-01
 -1      2028 8.79117E-01
 -1      2029 8.37740E-01
 -1      2030 5.01019E-01
 -1      2031 6.28969E-01
 -1      2032 6.23929E-01
 -1      2033 3.20974E-01
 -1      2034 4.15625E-01
 -1      2035 4.39453E-01
 -1      2036 1.94144E-01
 -1      2037 2.53184E-01
 -1      2038 2.86269E-01
 -1      2039 1.12776E-01
 -1      2040 1.44381E-01
 -1      2041 1.68716E-01
 -1      2042 6.73227E-02
 -1      2043 8.03677E-02
 -1      2044 8.65442E-02
 -1      2045 6.06189E-02
 -1      2046 6.29943E-02
 -1      2047 4.98073E-02
 -1      2048 5.33266E-02
 -1      2049 5.87051E-02
 -1      2050 4.35651E-02
 -1      2051 4.05381E-02
 -1      2052 4.85537E-02
 -1      2053 3.68785E-02
 -1      2054 3.30280E-02
 -1      2055 3.92356E-02
 -1      2056 3.08031E-02
 -1      2057 2.90088E-02
 -1      2058 3.16716E-02
 -1      2059 2.81443E-02
 -1      2060 2.12594E-02
 -1      2061 2.59839E-02
 -1      2062 2.37630E-02
 -1      2063 1.47511E-02
 -1      2064 1.86525E-02
 -1      2065 1.81312E-02
 -1      2066 1.31747E-02
 -1      2067 7.93769E-03
 -1      2068 9.70291E-03
 -1      2069 1.42399E-02
 -1      2070 1.51690E-02
 -1      2071 1.49759E-02
 -1      2072 1.31747E-02
 -1      2073 6.94894E-03
 -1      2074 6.75077E-03
 -1      2075 9.25194E-03
 -1      2076 1.13855E-02
 -1      2077 9.08232E-03
 -1      2078 1.01984E-02
 -1      2079 1.63826E-02
 -1      2080 1.44474E-02
 -1      2081 1.53937E-02
 -1      2082 1.96383E-02
 -1      2083 1.85985E-02
 -1      2084 2.06715E-02
 -1      2085 2.03012E-02
 -1      2086 2.01345E-02
 -1      2087 2.33836E-02
 -1      2088 2.12805E-02
 -1      2089 2.12805E-02
 -1      2090 2.48592E-02
 -1      2091 2.05684E-02
 -1      2092 2.12805E-02
 -1      2093 2.58386E-02
 -1      2094 1.69947E-02
 -1      2095 1.93919E-02
 -1      2096 2.46621E-02
 -1      2097 1.64064E-02
 -1      2098 1.41883E-02
 -1      2099 2.06793E-02
 -1      2100 2.33306E-02
 -1      2101 2.16707E-02
 -1      2102 2.31373E-02
 -1      2103 1.51568E+00
 -1      2104 1.89050E+00
 -1      2105 1.63666E+00
 -1      2106 1.24862E+00
 -1      2107 3.56225E+01
 -1      2108 3.22680E+01
 -1      2109 9.68801E+00
 -1      2110 1.35654E+01
 -1      2111 7.54381E+00
 -1      2112 7.98810E+00
 -1      2113 1.03691E+00
 -1      2114 1.21220E+00
 -1      2115 9.80942E-01
 -1      2116 8.54061E-01
 -1      2117 1.00070E+01
 -1      2118 9.04941E+00
 -1      2119 1.09064E+01
 -1      2120 1.06569E+01
 -1      2121 1.13927E+01
 -1      2122 1.21265E+01
 -1      2123 1.18304E+01
 -1      2124 1.14330E+01
 -1      2125 1.10961E+01
 -1      2126 1.03461E+01
 -1      2127 1.07599E+01
 -1      2128 9.69945E+00
 -1      2129 9.27859E+00
 -1      2130 1.99717E+01
 -1      2131 1.22578E+01
 -1      2132 2.39636E+01
 -1      2133 2.37268E+01
 -1      2134 2.39190E+01
 -1      2135 2.59949E+01
 -1      2136 3.39646E+01
 -1      2137 3.10550E+01
 -1      2138 3.06859E+01
 -1      2139 3.39646E+01
 -1      2140 3.39646E+01
 -1      2141 3.03225E+01
 -1      2142 3.01776E+01
 -1      2143 3.93512E+01
 -1      2144 3.03972E+01
 -1      2145 2.01313E+01
 -1      2146 3.30315E+01
 -1      2147 1.10688E+01
 -1      2148 1.59563E+01
 -1      2149 1.08783E+01
 -1      2150 1.03843E+01
 -1      2151 1.39419E+01
 -1      2152 1.26742E+01
 -1      2153 1.65663E+01
 -1      2154 1.12730E+01
 -1      2155 9.92460E+00
 -1      2156 2.47504E+01
 -1      2157 1.45726E+01
 -1      2158 2.80270E+01
 -1      2159 2.93736E+01
 -1      2160 2.79277E+01
 -1      2161 3.06349E+01
 -1      2162 3.57511E+01
 -1      2163 3.48377E+01
 -1      2164 7.41213E+00
 -1      2165 1.09281E+01
 -1      2166 1.69346E+01
 -1      2167 2.99989E+01
 -1      2168 2.09549E+01
 -1      2169 3.25348E+01
 -1      2170 2.83689E+01
 -1      2171 4.18764E+01
 -1      2172 2.91107E+00
 -1      2173 3.44942E+01
 -1      2174 7.95420E+00
 -1      2175 2.10475E+00
 -1      2176 8.70820E+00
 -1      2177 7.88608E+00
 -1      2178 1.36394E+01
 -1      2179 1.27692E+01
 -1      2180 9.62718E+00
 -1      2181 8.77273E+00
 -1      2182 2.51783E-02
 -1      2183 1.75186E-02
 -1      2184 9.53305E+00
 -1      2185 2.38905E-02
 -1      2186 2.33306E-02
 -1      2187 2.84016E-02
 -1      2188 2.96894E-02
 -1      2189 2.68453E+01
 -1      2190 8.19845E+00
 -1      2191 1.31710E+01
 -1      2192 1.15676E+01
 -1      2193 8.61480E+00
 -1      2194 3.49664E+01
 -1      2195 2.54486E+01
 -1      2196 1.82175E+01
 -1      2197 9.83472E+00
 -1      2198 1.35828E+01
 -1      2199 2.40775E+01
 -1      2200 3.03225E+01
 -1      2201 3.78219E+01
 -1      2202 2.32750E+01
 -1      2203 1.87987E+01
 -1      2204 2.08300E+01
 -1      2205 1.57321E+01
 -1      2206 9.41874E+00
 -1      2207 1.00659E+01
 -1      2208 7.96551E+00
 -1      2209 1.13808E+01
 -1      2210 9.08988E+00
 -1      2211 1.03100E+01
 -1      2212 1.27240E+01
 -1      2213 1.42549E+01
 -1      2214 7.92790E+00
 -1      2215 3.40349E+01
 -1      2216 1.02946E+01
 -1      2217 1.19398E+01
 -1      2218 9.01020E+00
 -1      2219 9.12800E+00
 -1      2220 5.58159E-01
 -1      2221 5.89281E-01
 -1      2222 6.01778E-01
 -1      2223 6.50522E-01
 -1      2224 4.97797E-01
 -1      2225 5.10404E-01
 -1      2226 5.08863E-01
 -1      2227 5.45171E-01
 -1      2228 5.23350E-01
 -1      2229 4.43712E-01
 -1      2230 5.93313E-01
 -1      2231 5.59985E-01
 -1      2232 4.71472E-01
 -1      2233 6.52882E-01
 -1      2234 6.05291E-01
 -1      2235 4.98266E-01
 -1      2236 7.19913E-01
 -1      2237 6.52882E-01
 -1      2238 5.10244E-01
 -1      2239 8.22955E-01
 -1      2240 7.16345E-01
 -1      2241 5.06676E-01
 -1      2242 9.82800E-01
 -1      2243 8.90496E-01
 -1      2244 5.70647E-01
 -1      2245 1.75623E+00
 -1      2246 1.32151E+00
 -1      2247 9.76893E-01
 -1      2248 1.61424E+00
 -1      2249 1.26724E+00
 -1      2250 1.03653E+00
 -1      2251 2.71121E+01
 -1      2252 3.44942E+01
 -1      2253 9.87693E-01
 -1      2254 8.07666E-01
 -1      2255 7.53561E-01
 -1      2256 7.50486E-01
 -1      2257 6.25050E-01
 -1      2258 6.47548E-01
 -1      2259 5.68704E-01
 -1      2260 5.11981E-01
 -1      2261 5.34022E-01
 -1      2262 4.62215E-01
 -1      2263 4.14651E-01
 -1      2264 4.27910E-01
 -1      2265 3.90116E-01
 -1      2266 3.48555E-01
 -1      2267 3.53609E-01
 -1      2268 3.23783E-01
 -1      2269 2.89642E-01
 -1      2270 3.04302E-01
 -1      2271 2.66005E-01
 -1      2272 2.38204E-01
 -1      2273 2.55893E-01
 -1      2274 2.16631E-01
 -1      2275 1.92851E-01
 -1      2276 2.10684E-01
 -1      2277 1.73417E-01
 -1      2278 1.54980E-01
 -1      2279 1.69676E-01
 -1      2280 1.37057E-01
 -1      2281 1.24338E-01
 -1      2282 1.32318E-01
 -1      2283 1.20758E-01
 -1      2284 1.33358E-01
 -1      2285 1.10815E-01
 -1      2286 1.47240E-01
 -1      2287 1.69991E-01
 -1      2288 1.21118E-01
 -1      2289 2.19827E-01
 -1      2290 2.91547E-01
 -1      2291 1.84837E-01
 -1      2292 3.60340E-01
 -1      2293 4.66817E-01
 -1      2294 3.03466E-01
 -1      2295 5.64774E-01
 -1      2296 7.25752E-01
 -1      2297 4.70216E-01
 -1      2298 8.97973E-01
 -1      2299 1.13955E+00
 -1      2300 7.40394E-01
 -1      2301 1.41535E+00
 -1      2302 1.77042E+00
 -1      2303 1.18842E+00
 -1      2304 2.20966E+00
 -1      2305 2.71231E+00
 -1      2306 1.90346E+00
 -1      2307 3.42447E+00
 -1      2308 4.09399E+00
 -1      2309 3.05486E+00
 -1      2310 5.09361E+00
 -1      2311 5.89140E+00
 -1      2312 4.76664E+00
 -1      2313 6.78323E+00
 -1      2314 6.79972E+00
 -1      2315 6.65810E+00
 -1      2316 7.88644E+00
 -1      2317 9.05203E+00
 -1      2318 6.46961E+00
 -1      2319 7.10821E+00
 -1      2320 2.27168E+01
 -1      2321 2.29836E+01
 -1      2322 2.01255E-02
 -1      2323 1.07583E+01
 -1      2324 1.00372E+01
 -1      2325 6.87271E+00
 -1      2326 6.16262E+00
 -1      2327 1.03430E+01
 -1      2328 4.80092E+00
 -1      2329 4.13269E+00
 -1      2330 5.81682E+00
 -1      2331 3.33503E+00
 -1      2332 2.75468E+00
 -1      2333 3.65746E+00
 -1      2334 2.23728E+00
 -1      2335 1.79684E+00
 -1      2336 2.34239E+00
 -1      2337 1.47261E+00
 -1      2338 1.16306E+00
 -1      2339 1.50076E+00
 -1      2340 9.66327E-01
 -1      2341 7.58435E-01
 -1      2342 9.79809E-01
 -1      2343 6.26127E-01
 -1      2344 4.90273E-01
 -1      2345 6.50770E-01
 -1      2346 4.01427E-01
 -1      2347 3.14051E-01
 -1      2348 4.29615E-01
 -1      2349 2.54618E-01
 -1      2350 1.98937E-01
 -1      2351 2.81335E-01
 -1      2352 1.59377E-01
 -1      2353 1.24121E-01
 -1      2354 1.82342E-01
 -1      2355 9.78845E-02
 -1      2356 7.91293E-02
 -1      2357 1.16546E-01
 -1      2358 6.17866E-02
 -1      2359 5.10997E-02
 -1      2360 7.29668E-02
 -1      2361 4.60335E-02
 -1      2362 3.82343E-02
 -1      2363 3.69466E-02
 -1      2364 5.05578E-02
 -1      2365 4.83312E-01
 -1      2366 5.40009E-01
 -1      2367 5.99410E-01
 -1      2368 6.89765E-01
 -1      2369 5.02970E-01
 -1      2370 7.54917E-01
 -1      2371 9.14741E-01
 -1      2372 6.27523E-01
 -1      2373 3.96919E-01
 -1      2374 4.46484E-01
 -1      2375 4.06741E-01
 -1      2376 3.27096E-01
 -1      2377 3.69227E-01
 -1      2378 3.42222E-01
 -1      2379 2.66999E-01
 -1      2380 3.00016E-01
 -1      2381 2.87450E-01
 -1      2382 2.13611E-01
 -1      2383 2.41987E-01
 -1      2384 2.35359E-01
 -1      2385 1.68569E-01
 -1      2386 1.92721E-01
 -1      2387 1.89458E-01
 -1      2388 1.31838E-01
 -1      2389 1.50203E-01
 -1      2390 1.50203E-01
 -1      2391 1.00160E-01
 -1      2392 1.15999E-01
 -1      2393 1.15999E-01
 -1      2394 8.20101E-02
 -1      2395 8.88277E-02
 -1      2396 8.88277E-02
 -1      2397 6.74440E-02
 -1      2398 7.44045E-02
 -1      2399 6.98897E-02
 -1      2400 5.91994E-02
 -1      2401 6.67546E-02
 -1      2402 6.15948E-02
 -1      2403 7.94366E-02
 -1      2404 6.94483E-02
 -1      2405 7.11543E-02
 -1      2406 1.27386E-01
 -1      2407 9.92892E-02
 -1      2408 1.01256E-01
 -1      2409 2.12801E-01
 -1      2410 1.61131E-01
 -1      2411 1.54853E-01
 -1      2412 3.32999E-01
 -1      2413 2.62813E-01
 -1      2414 2.38610E-01
 -1      2415 4.84836E-01
 -1      2416 3.97135E-01
 -1      2417 3.52757E-01
 -1      2418 6.79050E-01
 -1      2419 5.78455E-01
 -1      2420 5.10512E-01
 -1      2421 9.11121E-01
 -1      2422 7.91001E-01
 -1      2423 7.16083E-01
 -1      2424 1.15379E+00
 -1      2425 1.02176E+00
 -1      2426 9.38677E-01
 -1      2427 1.37387E+00
 -1      2428 1.24226E+00
 -1      2429 1.13779E+00
 -1      2430 1.57908E+00
 -1      2431 1.44789E+00
 -1      2432 1.30027E+00
 -1      2433 1.69852E+00
 -1      2434 1.62873E+00
 -1      2435 1.42393E+00
 -1      2436 1.69086E+00
 -1      2437 1.69825E+00
 -1      2438 1.47332E+00
 -1      2439 1.66117E+00
 -1      2440 1.65804E+00
 -1      2441 1.44024E+00
 -1      2442 1.69491E+00
 -1      2443 1.69725E+00
 -1      2444 1.44351E+00
 -1      2445 1.60966E+00
 -1      2446 1.68787E+00
 -1      2447 1.47256E+00
 -1      2448 1.41654E+00
 -1      2449 1.55277E+00
 -1      2450 1.40863E+00
 -1      2451 1.21211E+00
 -1      2452 1.34306E+00
 -1      2453 1.27827E+00
 -1      2454 9.85103E-01
 -1      2455 1.11858E+00
 -1      2456 1.11126E+00
 -1      2457 7.58273E-01
 -1      2458 8.73002E-01
 -1      2459 9.05636E-01
 -1      2460 5.48408E-01
 -1      2461 6.47489E-01
 -1      2462 6.82751E-01
 -1      2463 3.72380E-01
 -1      2464 4.57775E-01
 -1      2465 4.81334E-01
 -1      2466 2.40427E-01
 -1      2467 3.08216E-01
 -1      2468 3.26538E-01
 -1      2469 1.40921E-01
 -1      2470 1.90684E-01
 -1      2471 2.12631E-01
 -1      2472 7.44703E-02
 -1      2473 1.06879E-01
 -1      2474 1.28847E-01
 -1      2475 5.29535E-02
 -1      2476 5.72819E-02
 -1      2477 7.76165E-02
 -1      2478 4.28529E-02
 -1      2479 4.47667E-02
 -1      2480 5.22413E-02
 -1      2481 3.18675E-02
 -1      2482 3.66404E-02
 -1      2483 3.78420E-02
 -1      2484 2.77229E-02
 -1      2485 2.90254E-02
 -1      2486 2.87873E-02
 -1      2487 2.40193E-02
 -1      2488 2.53757E-02
 -1      2489 2.35980E-02
 -1      2490 2.01255E-02
 -1      2491 2.31504E-02
 -1      2492 2.03819E-02
 -1      2493 1.37891E-02
 -1      2494 1.16557E-02
 -1      2495 1.41735E-02
 -1      2496 1.53604E-02
 -1      2497 1.77642E-02
 -1      2498 1.53604E-02
 -1      2499 1.98975E-02
 -1      2500 2.02820E-02
 -1      2501 1.95598E-02
 -1      2502 1.64980E-02
 -1      2503 1.79553E-02
 -1      2504 2.56925E-02
 -1      2505 2.34766E-02
 -1      2506 2.45809E-02
 -1      2507 2.84232E-02
 -1      2508 2.79270E-02
 -1      2509 3.07321E-02
 -1      2510 3.02717E-02
 -1      2511 2.92923E-02
 -1      2512 3.38357E-02
 -1      2513 3.16878E-02
 -1      2514 3.16878E-02
 -1      2515 3.61209E-02
 -1      2516 3.05113E-02
 -1      2517 3.16878E-02
 -1      2518 3.75370E-02
 -1      2519 2.56697E-02
 -1      2520 2.84760E-02
 -1      2521 3.55017E-02
 -1      2522 3.69466E-02
 -1      2523 3.16823E-02
 -1      2524 3.94790E-02
 -1      2525 1.67580E+00
 -1      2526 1.30313E+00
 -1      2527 8.38288E-01
 -1      2528 9.59348E-01
 -1      2529 3.49664E+01
 -1      2530 2.80564E+01
 -1      2531 8.72332E+00
 -1      2532 7.01470E+00
 -1      2533 6.36479E+00
 -1      2534 5.51879E+00
 -1      2535 6.75752E+00
 -1      2536 5.21844E-01
 -1      2537 5.43874E-01
 -1      2538 4.71014E-01
 -1      2539 4.43748E-01
 -1      2540 1.03708E+01
 -1      2541 1.11181E+01
 -1      2542 9.53603E+00
 -1      2543 9.49570E+00
 -1      2544 3.02479E+01
 -1      2545 3.40349E+01
 -1      2546 7.80867E+00
 -1      2547 8.87919E+00
 -1      2548 8.57056E+00
 -1      2549 6.01225E+00
 -1      2550 1.41738E+01
 -1      2551 1.04187E+01
 -1      2552 7.01219E+00
 -1      2553 3.06859E+01
 -1      2554 2.35499E+01
 -1      2555 1.10846E+01
 -1      2556 7.78501E+00
 -1      2557 3.78219E+01
 -1      2558 3.78219E+01
 -1      2559 2.56369E+01
 -1      2560 2.55623E+01
 -1      2561 5.55210E+00
 -1      2562 6.61958E+00
 -1      2563 1.95129E-02
 -1      2564 2.29110E+01
 -1      2565 2.03031E+01
 -1      2566 1.38921E+01
 -1      2567 1.95157E+01
 -1      2568 4.18764E+01
 -1      2569 4.18764E+01
 -1      2570 6.14152E-01
 -1      2571 7.54379E-01
 -1      2572 8.17691E-01
 -1      2573 3.49664E+01
 -1      2574 1.32972E+00
 -1      2575 1.03108E+00
 -1      2576 1.05349E+00
 -1      2577 2.29836E+01
 -1      2578 1.98975E-02
 -1      2579 3.44942E+01
 -1      2580 8.63666E+00
 -1      2581 6.71386E+00
 -1      2582 2.29110E+01
 -1      2583 1.28873E+01
 -1      2584 1.56365E+01
 -1      2585 1.42224E+01
 -1      2586 1.67600E+01
 -1      2587 1.21368E+01
 -1      2588 9.53305E+00
 -1      2589 9.19077E+00
 -1      2590 8.95778E-01
 -1      2591 8.84147E-01
 -1      2592 9.95959E-01
 -1      2593 6.89022E-01
 -1      2594 6.62081E-01
 -1      2595 5.43287E+00
 -1      2596 3.69466E-02
 -1      2597 1.47763E+01
 -1      2598 9.46284E+00
 -1      2599 1.40877E+01
 -1      2600 7.78782E+00
 -1      2601 6.18709E+00
 -1      2602 8.26227E+00
 -1      2603 1.90305E+01
 -1      2604 1.63106E+01
 -1      2605 1.90305E+01
 -1      2606 4.70393E+00
 -1      2607 2.13790E+01
 -1      2608 1.66188E+01
 -1      2609 2.55623E+01
 -1      2610 1.42224E+01
 -1      2611 7.27880E+00
 -1      2612 8.74998E+00
 -1      2613 3.40349E+01
 -1      2614 9.62718E+00
 -1      2615 3.06859E+01
 -1      2616 1.01285E+01
 -1      2617 4.54916E-02
 -1      2618 1.50593E+01
 -1      2619 1.56540E+01
 -1      2620 4.22049E-01
 -1      2621 4.07234E-01
 -1      2622 3.99385E-01
 -1      2623 3.86440E-01
 -1      2624 3.49962E-01
 -1      2625 4.35550E-01
 -1      2626 4.35550E-01
 -1      2627 4.22377E-01
 -1      2628 4.25945E-01
 -1      2629 3.51252E-01
 -1      2630 9.54270E-01
 -1      2631 6.15564E-01
 -1      2632 6.69749E-01
 -1      2633 6.04800E-01
 -1      2634 5.55968E-01
 -1      2635 9.19836E+00
 -1      2636 1.11885E+01
 -1      2637 5.51629E-01
 -1      2638 4.94448E-01
 -1      2639 4.02868E-01
 -1      2640 4.87165E-01
 -1      2641 4.30819E-01
 -1      2642 3.91245E-01
 -1      2643 4.09864E-01
 -1      2644 3.60097E-01
 -1      2645 3.63006E-01
 -1      2646 3.34340E-01
 -1      2647 3.09806E-01
 -1      2648 3.16294E-01
 -1      2649 2.84006E-01
 -1      2650 2.59234E-01
 -1      2651 2.64738E-01
 -1      2652 2.42130E-01
 -1      2653 2.18493E-01
 -1      2654 2.21834E-01
 -1      2655 2.01411E-01
 -1      2656 1.79839E-01
 -1      2657 1.87648E-01
 -1      2658 1.62133E-01
 -1      2659 1.42698E-01
 -1      2660 1.52860E-01
 -1      2661 1.24247E-01
 -1      2662 1.06323E-01
 -1      2663 1.16703E-01
 -1      2664 8.60536E-02
 -1      2665 8.24736E-02
 -1      2666 7.79819E-02
 -1      2667 9.05626E-02
 -1      2668 1.04445E-01
 -1      2669 6.58013E-02
 -1      2670 1.46920E-01
 -1      2671 1.96757E-01
 -1      2672 1.16365E-01
 -1      2673 2.61812E-01
 -1      2674 3.30605E-01
 -1      2675 2.23895E-01
 -1      2676 4.27651E-01
 -1      2677 5.25608E-01
 -1      2678 3.85996E-01
 -1      2679 6.72953E-01
 -1      2680 8.45174E-01
 -1      2681 6.30388E-01
 -1      2682 1.07197E+00
 -1      2683 1.34777E+00
 -1      2684 1.00453E+00
 -1      2685 1.70213E+00
 -1      2686 2.14137E+00
 -1      2687 1.58568E+00
 -1      2688 2.70596E+00
 -1      2689 3.41812E+00
 -1      2690 2.50463E+00
 -1      2691 4.40546E+00
 -1      2692 5.40509E+00
 -1      2693 4.05656E+00
 -1      2694 6.17497E+00
 -1      2695 7.06680E+00
 -1      2696 5.81379E+00
 -1      2697 5.03299E+00
 -1      2698 6.12324E+00
 -1      2699 2.37963E-02
 -1      2700 2.34117E-02
 -1      2701 2.42807E-02
 -1      2702 5.98285E+00
 -1      2703 6.63968E+00
 -1      2704 9.86971E+00
 -1      2705 1.06793E+01
 -1      2706 2.75250E+01
 -1      2707 2.03889E+01
 -1      2708 6.60875E+00
 -1      2709 5.24705E+00
 -1      2710 4.23013E+00
 -1      2711 3.43247E+00
 -1      2712 5.02206E+00
 -1      2713 2.68923E+00
 -1      2714 2.17183E+00
 -1      2715 3.26190E+00
 -1      2716 1.71181E+00
 -1      2717 1.38758E+00
 -1      2718 2.05864E+00
 -1      2719 1.09386E+00
 -1      2720 8.97133E-01
 -1      2721 1.30491E+00
 -1      2722 7.09544E-01
 -1      2723 5.77236E-01
 -1      2724 8.23598E-01
 -1      2725 4.57351E-01
 -1      2726 3.68504E-01
 -1      2727 5.16124E-01
 -1      2728 2.92429E-01
 -1      2729 2.32995E-01
 -1      2730 3.20164E-01
 -1      2731 1.87813E-01
 -1      2732 1.48253E-01
 -1      2733 1.98906E-01
 -1      2734 1.19985E-01
 -1      2735 9.37483E-02
 -1      2736 1.25455E-01
 -1      2737 7.53775E-02
 -1      2738 5.80348E-02
 -1      2739 7.88163E-02
 -1      2740 5.05578E-02
 -1      2741 4.14670E-01
 -1      2742 4.74071E-01
 -1      2743 3.50258E-01
 -1      2744 3.87086E-01
 -1      2745 3.58186E-01
 -1      2746 4.95780E-01
 -1      2747 5.60932E-01
 -1      2748 4.07480E-01
 -1      2749 2.45455E-01
 -1      2750 2.72535E-01
 -1      2751 2.02438E-01
 -1      2752 2.27450E-01
 -1      2753 2.12535E-01
 -1      2754 1.64078E-01
 -1      2755 1.84967E-01
 -1      2756 1.77058E-01
 -1      2757 1.29322E-01
 -1      2758 1.47687E-01
 -1      2759 1.43196E-01
 -1      2760 9.95799E-02
 -1      2761 1.15419E-01
 -1      2762 1.12903E-01
 -1      2763 7.74952E-02
 -1      2764 8.88277E-02
 -1      2765 8.82475E-02
 -1      2766 6.22841E-02
 -1      2767 6.98897E-02
 -1      2768 6.98897E-02
 -1      2769 5.87131E-02
 -1      2770 5.94024E-02
 -1      2771 5.94024E-02
 -1      2772 7.91974E-02
 -1      2773 6.89485E-02
 -1      2774 6.67562E-02
 -1      2775 1.19806E-01
 -1      2776 9.99534E-02
 -1      2777 9.77477E-02
 -1      2778 1.88598E-01
 -1      2779 1.54853E-01
 -1      2780 1.53551E-01
 -1      2781 2.88622E-01
 -1      2782 2.38610E-01
 -1      2783 2.38610E-01
 -1      2784 4.16892E-01
 -1      2785 3.52757E-01
 -1      2786 3.52757E-01
 -1      2787 5.84157E-01
 -1      2788 4.90538E-01
 -1      2789 4.90538E-01
 -1      2790 7.71673E-01
 -1      2791 6.59722E-01
 -1      2792 6.39748E-01
 -1      2793 9.63554E-01
 -1      2794 8.52911E-01
 -1      2795 7.96550E-01
 -1      2796 1.15080E+00
 -1      2797 1.06233E+00
 -1      2798 9.76565E-01
 -1      2799 1.28556E+00
 -1      2800 1.21154E+00
 -1      2801 1.13609E+00
 -1      2802 1.36444E+00
 -1      2803 1.31479E+00
 -1      2804 1.22606E+00
 -1      2805 1.38645E+00
 -1      2806 1.38672E+00
 -1      2807 1.27757E+00
 -1      2808 1.31381E+00
 -1      2809 1.34662E+00
 -1      2810 1.26002E+00
 -1      2811 1.35568E+00
 -1      2812 1.31960E+00
 -1      2813 1.22598E+00
 -1      2814 1.38391E+00
 -1      2815 1.39096E+00
 -1      2816 1.26704E+00
 -1      2817 1.30207E+00
 -1      2818 1.35895E+00
 -1      2819 1.27735E+00
 -1      2820 1.19551E+00
 -1      2821 1.26899E+00
 -1      2822 1.21930E+00
 -1      2823 1.03307E+00
 -1      2824 1.12659E+00
 -1      2825 1.11731E+00
 -1      2826 8.19885E-01
 -1      2827 9.31985E-01
 -1      2828 9.47317E-01
 -1      2829 6.29320E-01
 -1      2830 7.40104E-01
 -1      2831 7.66453E-01
 -1      2832 4.63894E-01
 -1      2833 5.54527E-01
 -1      2834 6.11880E-01
 -1      2835 3.26042E-01
 -1      2836 3.90206E-01
 -1      2837 4.63398E-01
 -1      2838 2.12631E-01
 -1      2839 2.62374E-01
 -1      2840 3.26042E-01
 -1      2841 1.28847E-01
 -1      2842 1.62888E-01
 -1      2843 2.12631E-01
 -1      2844 8.10510E-02
 -1      2845 9.82394E-02
 -1      2846 1.32281E-01
 -1      2847 5.48580E-02
 -1      2848 6.30448E-02
 -1      2849 8.36677E-02
 -1      2850 3.78420E-02
 -1      2851 4.40545E-02
 -1      2852 5.48580E-02
 -1      2853 3.16206E-02
 -1      2854 3.44628E-02
 -1      2855 4.06752E-02
 -1      2856 2.88373E-02
 -1      2857 3.11845E-02
 -1      2858 3.68599E-02
 -1      2859 3.18672E-02
 -1      2860 2.15031E+01
 -1      2861 2.88853E+01
 -1      2862 2.99264E-02
 -1      2863 2.60097E-02
 -1      2864 3.81349E+00
 -1      2865 5.00258E+00
 -1      2866 2.29585E-02
 -1      2867 2.02496E-02
 -1      2868 2.83040E-02
 -1      2869 2.37963E-02
 -1      2870 3.72577E-02
 -1      2871 3.50232E-02
 -1      2872 3.64520E-02
 -1      2873 7.96097E-01
 -1      2874 2.93753E-01
 -1      2875 3.21444E-01
 -1      2876 3.01789E-01
 -1      2877 2.51758E-01
 -1      2878 4.03035E-02
 -1      2879 3.94344E-02
 -1      2880 4.37255E-02
 -1      2881 4.45248E-02
 -1      2882 4.31087E-02
 -1      2883 4.87074E-02
 -1      2884 4.72029E-02
 -1      2885 4.72029E-02
 -1      2886 5.41907E-02
 -1      2887 4.51676E-02
 -1      2888 4.72029E-02
 -1      2889 5.68688E-02
 -1      2890 1.69167E+01
 -1      2891 2.10452E+01
 -1      2892 9.29929E+00
 -1      2893 1.16863E+01
 -1      2894 1.48873E+01
 -1      2895 3.05524E+01
 -1      2896 2.36424E+01
 -1      2897 2.33538E+01
 -1      2898 2.71408E+01
 -1      2899 4.17548E+00
 -1      2900 3.71534E+00
 -1      2901 7.02732E+00
 -1      2902 7.84167E+00
 -1      2903 1.54464E+01
 -1      2904 6.65025E+00
 -1      2905 4.80213E+00
 -1      2906 3.81354E+00
 -1      2907 9.29929E+00
 -1      2908 5.29685E-02
 -1      2909 1.19460E+01
 -1      2910 1.73763E+01
 -1      2911 2.20619E+01
 -1      2912 2.12785E-02
 -1      2913 2.37963E-02
 -1      2914 2.62817E-02
 -1      2915 7.98830E+00
 -1      2916 1.03127E+01
 -1      2917 6.30744E+00
 -1      2918 4.41844E+00
 -1      2919 4.52326E+00
 -1      2920 1.43230E+01
 -1      2921 1.11585E+01
 -1      2922 1.05888E+01
 -1      2923 4.23423E-01
 -1      2924 4.35920E-01
 -1      2925 4.35550E-01
 -1      2926 4.23572E-01
 -1      2927 3.59334E-01
 -1      2928 3.60856E-01
 -1      2929 3.42034E-01
 -1      2930 3.86361E-01
 -1      2931 3.99343E-01
 -1      2932 5.48024E-01
 -1      2933 4.07153E-01
 -1      2934 4.21439E-01
 -1      2935 3.59561E-01
 -1      2936 3.49767E-01
 -1      2937 3.93263E+00
 -1      2938 1.75613E+01
 -1      2939 4.36347E+00
 -1      2940 1.17996E+01
 -1      2941 3.91698E-01
 -1      2942 4.66072E-01
 -1      2943 5.69930E-01
 -1      2944 1.68438E+01
 -1      2945 1.51678E+01
 -1      2946 7.86957E+00
 -1      2947 7.26705E+00
 -1      2948 5.05698E+00
 -1      2949 4.22660E-01
 -1      2950 5.54403E-01
 -1      2951 1.54363E+01
 -1      2952 5.81569E-01
 -1      2953 6.59655E-01
 -1      2954 6.23760E-01
 -1      2955 4.33489E-01
 -1      2956 5.51475E+00
 -1      2957 6.81071E+00
 -1      2958 5.90239E+00
 -1      2959 2.73105E-02
 -1      2960 1.03362E+01
 -1      2961 1.24125E+01
 -1      2962 1.37044E+01
 -1      2963 9.24950E+00
 -1      2964 9.54602E+00
 -1      2965 4.26167E-01
 -1      2966 1.29490E+01
 -1      2967 4.55072E-02
 -1      2968 3.94946E-02
 -1      2969 5.23809E-01
 -1      2970 1.63680E+01
 -1      2971 1.71835E+01
 -1      2972 5.11958E-02
 -1      2973 1.37543E+01
 -1      2974 9.73197E+00
 -1      2975 1.19548E+01
 -1      2976 6.53961E+00
 -1      2977 1.69047E+01
 -1      2978 1.23853E+01
 -1      2979 1.37438E+01
 -1      2980 5.76858E+00
 -1      2981 4.99546E+00
 -1      2982 3.99993E+00
 -1      2983 4.67294E-01
 -1      2984 3.71534E+00
 -1      2985 3.28505E+00
 -1      2986 3.18689E+00
 -1      2987 5.29841E-02
 -1      2988 8.76637E+00
 -1      2989 2.91834E-01
 -1      2990 3.01438E-01
 -1      2991 6.12215E-01
 -1      2992 9.29184E+00
 -1      2993 1.13212E+01
 -1      2994 3.47913E+00
 -1      2995 2.85248E+00
 -1      2996 3.16623E-01
 -1      2997 3.09339E-01
 -1      2998 3.18672E-01
 -1      2999 2.97717E-01
 -1      3000 2.44050E-01
 -1      3001 2.93572E-01
 -1      3002 2.67816E-01
 -1      3003 2.49238E-01
 -1      3004 2.55720E-01
 -1      3005 2.29920E-01
 -1      3006 2.32998E-01
 -1      3007 2.13942E-01
 -1      3008 1.96838E-01
 -1      3009 2.04924E-01
 -1      3010 1.83309E-01
 -1      3011 1.66227E-01
 -1      3012 1.75417E-01
 -1      3013 1.53170E-01
 -1      3014 1.35464E-01
 -1      3015 1.48831E-01
 -1      3016 1.20954E-01
 -1      3017 1.02502E-01
 -1      3018 1.21263E-01
 -1      3019 8.72130E-02
 -1      3020 6.69435E-02
 -1      3021 9.14638E-02
 -1      3022 7.16961E-02
 -1      3023 7.97851E-02
 -1      3024 8.09272E-02
 -1      3025 9.72576E-02
 -1      3026 1.39732E-01
 -1      3027 1.03152E-01
 -1      3028 1.85860E-01
 -1      3029 2.50915E-01
 -1      3030 1.66752E-01
 -1      3031 3.15336E-01
 -1      3032 4.12382E-01
 -1      3033 2.77301E-01
 -1      3034 5.03680E-01
 -1      3035 6.51025E-01
 -1      3036 4.33020E-01
 -1      3037 7.81693E-01
 -1      3038 1.00849E+00
 -1      3039 6.54985E-01
 -1      3040 1.20118E+00
 -1      3041 1.55554E+00
 -1      3042 9.78343E-01
 -1      3043 1.93251E+00
 -1      3044 2.49710E+00
 -1      3045 1.54800E+00
 -1      3046 3.11399E+00
 -1      3047 4.10133E+00
 -1      3048 2.54186E+00
 -1      3049 5.51217E+00
 -1      3050 6.28205E+00
 -1      3051 4.56959E+00
 -1      3052 1.55163E+01
 -1      3053 3.28375E-01
 -1      3054 3.21845E-01
 -1      3055 3.32277E+00
 -1      3056 2.57953E+00
 -1      3057 2.10308E+00
 -1      3058 1.64306E+00
 -1      3059 2.16394E+00
 -1      3060 1.35231E+00
 -1      3061 1.05860E+00
 -1      3062 1.39675E+00
 -1      3063 8.70587E-01
 -1      3064 6.82998E-01
 -1      3065 9.17996E-01
 -1      3066 5.58394E-01
 -1      3067 4.38509E-01
 -1      3068 6.05383E-01
 -1      3069 3.55329E-01
 -1      3070 2.79253E-01
 -1      3071 3.97598E-01
 -1      3072 2.23654E-01
 -1      3073 1.78472E-01
 -1      3074 2.58819E-01
 -1      3075 1.41188E-01
 -1      3076 1.12921E-01
 -1      3077 1.65937E-01
 -1      3078 1.03334E-01
 -1      3079 8.49630E-02
 -1      3080 7.75017E-02
 -1      3081 1.19067E-01
 -1      3082 6.49743E-02
 -1      3083 6.22962E-02
 -1      3084 1.35250E+01
 -1      3085 1.39829E+01
 -1      3086 9.86788E+00
 -1      3087 2.98537E-01
 -1      3088 3.26122E-01
 -1      3089 3.27038E-01
 -1      3090 3.48747E-01
 -1      3091 2.47933E-01
 -1      3092 2.67389E-01
 -1      3093 1.57484E-01
 -1      3094 1.74955E-01
 -1      3095 1.87300E-01
 -1      3096 2.05305E-01
 -1      3097 1.67726E-01
 -1      3098 9.88652E-02
 -1      3099 1.12768E-01
 -1      3100 7.41006E-02
 -1      3101 8.48528E-02
 -1      3102 8.47183E-02
 -1      3103 5.94440E-02
 -1      3104 6.70496E-02
 -1      3105 6.36549E-02
 -1      3106 5.38106E-02
 -1      3107 5.66923E-02
 -1      3108 5.38522E-02
 -1      3109 7.19074E-02
 -1      3110 6.16719E-02
 -1      3111 5.89618E-02
 -1      3112 1.11968E-01
 -1      3113 9.12120E-02
 -1      3114 8.61278E-02
 -1      3115 1.72369E-01
 -1      3116 1.37322E-01
 -1      3117 1.30786E-01
 -1      3118 2.70221E-01
 -1      3119 2.20209E-01
 -1      3120 2.03979E-01
 -1      3121 3.99456E-01
 -1      3122 3.35321E-01
 -1      3123 3.16920E-01
 -1      3124 5.52913E-01
 -1      3125 4.79268E-01
 -1      3126 4.61832E-01
 -1      3127 7.15312E-01
 -1      3128 6.39748E-01
 -1      3129 6.28478E-01
 -1      3130 8.73758E-01
 -1      3131 7.92520E-01
 -1      3132 7.92520E-01
 -1      3133 1.05433E+00
 -1      3134 9.55555E-01
 -1      3135 9.51525E-01
 -1      3136 1.16144E+00
 -1      3137 1.10070E+00
 -1      3138 1.07969E+00
 -1      3139 1.25223E+00
 -1      3140 1.22300E+00
 -1      3141 1.18761E+00
 -1      3142 1.39138E+00
 -1      3143 1.36911E+00
 -1      3144 1.36604E+00
 -1      3145 1.31819E+00
 -1      3146 1.35802E+00
 -1      3147 1.44956E+00
 -1      3148 1.25896E+00
 -1      3149 1.25316E+00
 -1      3150 1.35117E+00
 -1      3151 1.37903E+00
 -1      3152 1.34376E+00
 -1      3153 1.37095E+00
 -1      3154 1.32113E+00
 -1      3155 1.34610E+00
 -1      3156 1.42282E+00
 -1      3157 1.20431E+00
 -1      3158 1.23740E+00
 -1      3159 1.30614E+00
 -1      3160 1.07982E+00
 -1      3161 1.14873E+00
 -1      3162 1.16682E+00
 -1      3163 9.29070E-01
 -1      3164 1.03015E+00
 -1      3165 1.06157E+00
 -1      3166 7.66453E-01
 -1      3167 8.46234E-01
 -1      3168 9.29070E-01
 -1      3169 6.11109E-01
 -1      3170 6.85902E-01
 -1      3171 7.65682E-01
 -1      3172 4.50281E-01
 -1      3173 5.23970E-01
 -1      3174 5.97992E-01
 -1      3175 3.07432E-01
 -1      3176 3.71099E-01
 -1      3177 4.31671E-01
 -1      3178 1.95368E-01
 -1      3179 2.45111E-01
 -1      3180 2.90168E-01
 -1      3181 1.26283E-01
 -1      3182 1.56891E-01
 -1      3183 1.89370E-01
 -1      3184 8.36677E-02
 -1      3185 1.01674E-01
 -1      3186 1.26283E-01
 -1      3187 5.48580E-02
 -1      3188 6.56615E-02
 -1      3189 8.36677E-02
 -1      3190 3.91069E-02
 -1      3191 4.24861E-02
 -1      3192 5.32897E-02
 -1      3193 5.70061E-02
 -1      3194 5.42010E-02
 -1      3195 6.77897E-02
 -1      3196 3.38320E+00
 -1      3197 4.36347E+00
 -1      3198 7.86281E-02
 -1      3199 7.86281E-02
 -1      3200 8.67336E-02
 -1      3201 8.65546E+00
 -1      3202 1.08382E+01
 -1      3203 8.35384E+00
 -1      3204 5.04536E-01
 -1      3205 8.31747E-02
 -1      3206 2.12366E+01
 -1      3207 1.60911E+01
 -1      3208 3.57600E-01
 -1      3209 3.38641E-01
 -1      3210 3.34301E-01
 -1      3211 3.45962E-01
 -1      3212 1.68226E+01
 -1      3213 1.35935E+01
 -1      3214 3.18672E-02
 -1      3215 3.18672E-02
 -1      3216 3.64238E-02
 -1      3217 3.50252E-02
 -1      3218 3.19739E-02
 -1      3219 1.27133E-01
 -1      3220 1.43523E-01
 -1      3221 1.41420E-01
 -1      3222 1.13095E-01
 -1      3223 5.21525E+00
 -1      3224 4.19833E+00
 -1      3225 3.51596E+00
 -1      3226 5.39548E+00
 -1      3227 5.81608E+00
 -1      3228 4.62446E+00
 -1      3229 4.37970E-02
 -1      3230 3.87002E-02
 -1      3231 4.23701E-02
 -1      3232 2.61736E-02
 -1      3233 2.72024E-02
 -1      3234 3.17591E-02
 -1      3235 3.28947E-02
 -1      3236 4.01636E+00
 -1      3237 5.88143E+00
 -1      3238 3.78889E-01
 -1      3239 3.22763E-01
 -1      3240 3.14913E-01
 -1      3241 1.36051E+01
 -1      3242 9.05531E+00
 -1      3243 1.34743E+01
 -1      3244 1.39776E+01
 -1      3245 7.09802E+00
 -1      3246 8.47154E+00
 -1      3247 3.03043E+00
 -1      3248 3.54016E+00
 -1      3249 5.26889E-02
 -1      3250 5.05122E-02
 -1      3251 6.09876E-02
 -1      3252 1.39829E+01
 -1      3253 1.04934E-01
 -1      3254 8.09291E+00
 -1      3255 6.46519E+00
 -1      3256 5.64490E+00
 -1      3257 3.22902E-01
 -1      3258 3.24886E-01
 -1      3259 2.85248E+00
 -1      3260 2.84203E-01
 -1      3261 3.11403E-01
 -1      3262 3.11324E-01
 -1      3263 1.11181E+01
 -1      3264 9.87532E+00
 -1      3265 8.23158E+00
 -1      3266 3.19818E-01
 -1      3267 3.19818E-01
 -1      3268 2.60400E-01
 -1      3269 3.20973E-01
 -1      3270 3.51126E-01
 -1      3271 2.84314E-01
 -1      3272 8.08186E+00
 -1      3273 5.88607E+00
 -1      3274 7.74847E+00
 -1      3275 4.80170E+00
 -1      3276 5.01832E+00
 -1      3277 4.29479E+00
 -1      3278 3.81583E+00
 -1      3279 4.79610E+00
 -1      3280 4.96712E+00
 -1      3281 1.20716E+01
 -1      3282 2.87983E-01
 -1      3283 2.55918E-01
 -1      3284 2.59169E-01
 -1      3285 1.97013E-01
 -1      3286 2.22247E-01
 -1      3287 2.43465E-01
 -1      3288 4.01508E-02
 -1      3289 4.05869E-02
 -1      3290 4.23978E-02
 -1      3291 4.01508E-02
 -1      3292 3.73330E+00
 -1      3293 6.02437E+00
 -1      3294 4.94989E+00
 -1      3295 9.53305E+00
 -1      3296 3.06066E+00
 -1      3297 3.06066E+00
 -1      3298 2.96250E+00
 -1      3299 4.89149E+00
 -1      3300 4.27469E+00
 -1      3301 3.31364E+00
 -1      3302 2.52396E-01
 -1      3303 1.12718E+01
 -1      3304 8.71560E+00
 -1      3305 9.14608E+00
 -1      3306 3.11416E+00
 -1      3307 5.27603E-02
 -1      3308 3.52512E+00
 -1      3309 2.94809E+00
 -1      3310 2.55562E+00
 -1      3311 2.34790E-01
 -1      3312 3.29076E-01
 -1      3313 3.22763E-01
 -1      3314 2.87714E-01
 -1      3315 3.24285E-01
 -1      3316 9.33900E+00
 -1      3317 1.25894E+01
 -1      3318 9.10515E+00
 -1      3319 3.15091E-01
 -1      3320 3.22902E-01
 -1      3321 2.88227E-01
 -1      3322 2.36043E+00
 -1      3323 2.69484E+00
 -1      3324 8.89995E+00
 -1      3325 5.05989E+00
 -1      3326 8.89995E+00
 -1      3327 2.13321E-01
 -1      3328 2.09177E-01
 -1      3329 2.11530E-01
 -1      3330 1.99434E-01
 -1      3331 1.75613E-01
 -1      3332 1.94508E-01
 -1      3333 1.78531E-01
 -1      3334 1.73041E-01
 -1      3335 1.68865E-01
 -1      3336 1.55336E-01
 -1      3337 1.58449E-01
 -1      3338 1.45221E-01
 -1      3339 1.32164E-01
 -1      3340 1.38669E-01
 -1      3341 1.23188E-01
 -1      3342 1.08678E-01
 -1      3343 1.19579E-01
 -1      3344 9.83677E-02
 -1      3345 8.30785E-02
 -1      3346 1.00293E-01
 -1      3347 8.47067E-02
 -1      3348 8.94593E-02
 -1      3349 9.16106E-02
 -1      3350 9.74094E-02
 -1      3351 1.14882E-01
 -1      3352 1.01189E-01
 -1      3353 1.41452E-01
 -1      3354 1.87579E-01
 -1      3355 1.35709E-01
 -1      3356 2.30160E-01
 -1      3357 2.94581E-01
 -1      3358 2.04860E-01
 -1      3359 3.61021E-01
 -1      3360 4.52319E-01
 -1      3361 3.13881E-01
 -1      3362 5.53393E-01
 -1      3363 6.84060E-01
 -1      3364 4.81395E-01
 -1      3365 8.33091E-01
 -1      3366 1.02578E+00
 -1      3367 7.31498E-01
 -1      3368 1.23448E+00
 -1      3369 1.61145E+00
 -1      3370 1.08923E+00
 -1      3371 2.05458E+00
 -1      3372 2.67146E+00
 -1      3373 1.74105E+00
 -1      3374 3.34871E+00
 -1      3375 4.75955E+00
 -1      3376 2.86143E+00
 -1      3377 3.83314E+00
 -1      3378 3.78564E+00
 -1      3379 1.43069E+00
 -1      3380 1.13994E+00
 -1      3381 9.30393E-01
 -1      3382 7.42384E-01
 -1      3383 9.64332E-01
 -1      3384 6.04076E-01
 -1      3385 4.79472E-01
 -1      3386 6.16473E-01
 -1      3387 3.89939E-01
 -1      3388 3.06759E-01
 -1      3389 3.88632E-01
 -1      3390 2.61993E-01
 -1      3391 2.06394E-01
 -1      3392 2.54333E-01
 -1      3393 1.74217E-01
 -1      3394 1.36934E-01
 -1      3395 1.77391E-01
 -1      3396 1.19067E-01
 -1      3397 1.09481E-01
 -1      3398 1.04934E-01
 -1      3399 1.27347E-01
 -1      3400 7.24461E+00
 -1      3401 9.44837E+00
 -1      3402 6.27669E+00
 -1      3403 6.04569E+00
 -1      3404 1.49515E-01
 -1      3405 1.61860E-01
 -1      3406 5.47138E-02
 -1      3407 6.17648E-02
 -1      3408 7.44876E-02
 -1      3409 8.85000E-02
 -1      3410 6.55464E-02
 -1      3411 5.70028E-02
 -1      3412 4.91414E-02
 -1      3413 9.87293E-02
 -1      3414 7.94247E-02
 -1      3415 6.96043E-02
 -1      3416 1.55319E-01
 -1      3417 1.29965E-01
 -1      3418 1.23262E-01
 -1      3419 2.43993E-01
 -1      3420 1.96153E-01
 -1      3421 1.95333E-01
 -1      3422 3.57887E-01
 -1      3423 2.92787E-01
 -1      3424 2.84961E-01
 -1      3425 5.06231E-01
 -1      3426 4.26419E-01
 -1      3427 4.02286E-01
 -1      3428 6.78950E-01
 -1      3429 5.92116E-01
 -1      3430 5.56704E-01
 -1      3431 8.64430E-01
 -1      3432 7.87222E-01
 -1      3433 7.50861E-01
 -1      3434 1.03332E+00
 -1      3435 9.51525E-01
 -1      3436 9.46227E-01
 -1      3437 1.18842E+00
 -1      3438 1.14205E+00
 -1      3439 1.14205E+00
 -1      3440 1.28591E+00
 -1      3441 1.22435E+00
 -1      3442 1.28672E+00
 -1      3443 1.88515E+00
 -1      3444 1.76827E+00
 -1      3445 1.80502E+00
 -1      3446 2.15895E+00
 -1      3447 2.19231E+00
 -1      3448 2.59453E+00
 -1      3449 1.54927E+00
 -1      3450 1.61429E+00
 -1      3451 2.35704E+00
 -1      3452 1.57501E+00
 -1      3453 1.49020E+00
 -1      3454 1.75332E+00
 -1      3455 1.55158E+00
 -1      3456 1.58451E+00
 -1      3457 1.70377E+00
 -1      3458 1.30682E+00
 -1      3459 1.39055E+00
 -1      3460 1.55225E+00
 -1      3461 1.21588E+00
 -1      3462 1.27146E+00
 -1      3463 1.35587E+00
 -1      3464 1.10695E+00
 -1      3465 1.15662E+00
 -1      3466 1.26126E+00
 -1      3467 9.29070E-01
 -1      3468 1.01191E+00
 -1      3469 1.10695E+00
 -1      3470 7.53722E-01
 -1      3471 8.34274E-01
 -1      3472 9.17110E-01
 -1      3473 5.60291E-01
 -1      3474 6.47430E-01
 -1      3475 7.16022E-01
 -1      3476 4.02090E-01
 -1      3477 4.81271E-01
 -1      3478 5.30710E-01
 -1      3479 2.74886E-01
 -1      3480 3.37207E-01
 -1      3481 3.86808E-01
 -1      3482 1.89370E-01
 -1      3483 2.27847E-01
 -1      3484 2.74886E-01
 -1      3485 1.26283E-01
 -1      3486 1.50893E-01
 -1      3487 1.89370E-01
 -1      3488 7.95939E-02
 -1      3489 9.76001E-02
 -1      3490 1.22210E-01
 -1      3491 6.25575E-02
 -1      3492 7.49294E-02
 -1      3493 8.88618E-02
 -1      3494 8.00844E-02
 -1      3495 7.47943E-02
 -1      3496 4.31248E-02
 -1      3497 4.58765E-02
 -1      3498 4.39864E-02
 -1      3499 4.11657E-02
 -1      3500 9.27561E-02
 -1      3501 7.91023E-02
 -1      3502 8.61068E-02
 -1      3503 9.73027E-02
 -1      3504 6.55951E+00
 -1      3505 8.93292E+00
 -1      3506 7.54466E+00
 -1      3507 5.33863E+00
 -1      3508 2.75238E-01
 -1      3509 1.38165E+01
 -1      3510 1.39621E+01
 -1      3511 3.73359E+00
 -1      3512 2.85802E+00
 -1      3513 2.21263E+00
 -1      3514 1.73618E+00
 -1      3515 1.47937E+00
 -1      3516 5.22879E-02
 -1      3517 4.86129E-02
 -1      3518 1.88493E-01
 -1      3519 1.97826E-01
 -1      3520 1.57764E-01
 -1      3521 7.47943E-02
 -1      3522 7.32823E-02
 -1      3523 8.70889E-02
 -1      3524 1.80672E-01
 -1      3525 1.87902E-01
 -1      3526 2.06282E-01
 -1      3527 2.45859E+00
 -1      3528 2.93479E+00
 -1      3529 6.70898E+00
 -1      3530 7.86339E+00
 -1      3531 6.74992E+00
 -1      3532 6.40377E-02
 -1      3533 5.73225E-02
 -1      3534 6.35653E-02
 -1      3535 7.78444E-02
 -1      3536 2.57559E-01
 -1      3537 2.25777E+00
 -1      3538 2.10012E+00
 -1      3539 3.05333E+00
 -1      3540 4.91084E+00
 -1      3541 4.53220E+00
 -1      3542 3.83719E+00
 -1      3543 2.47045E+00
 -1      3544 4.40196E+00
 -1      3545 2.51262E-01
 -1      3546 2.47752E-01
 -1      3547 2.46172E-01
 -1      3548 2.23329E-01
 -1      3549 1.77105E-01
 -1      3550 2.50084E-01
 -1      3551 2.73381E+00
 -1      3552 3.82435E+00
 -1      3553 2.98554E+00
 -1      3554 3.44719E+00
 -1      3555 6.30291E+00
 -1      3556 2.58357E+00
 -1      3557 3.23913E+00
 -1      3558 3.38208E+00
 -1      3559 7.65371E+00
 -1      3560 6.00360E+00
 -1      3561 6.97073E+00
 -1      3562 4.49537E+00
 -1      3563 3.61130E+00
 -1      3564 3.77671E+00
 -1      3565 3.14245E+00
 -1      3566 3.57508E+00
 -1      3567 2.29659E-01
 -1      3568 1.73379E-01
 -1      3569 1.90321E-01
 -1      3570 1.55168E-01
 -1      3571 2.01044E-01
 -1      3572 5.32090E-02
 -1      3573 5.69359E-02
 -1      3574 4.85442E-02
 -1      3575 9.03252E-02
 -1      3576 1.00556E-01
 -1      3577 1.14920E-01
 -1      3578 6.40375E-02
 -1      3579 2.16376E-01
 -1      3580 2.26931E-01
 -1      3581 2.43026E+00
 -1      3582 5.10378E+00
 -1      3583 1.79381E-01
 -1      3584 2.18923E-01
 -1      3585 2.19839E-01
 -1      3586 2.51691E-01
 -1      3587 2.51691E-01
 -1      3588 2.13548E-01
 -1      3589 7.13640E-02
 -1      3590 6.14461E-02
 -1      3591 5.56458E-02
 -1      3592 1.25710E-01
 -1      3593 1.39671E-01
 -1      3594 1.33805E-01
 -1      3595 1.13171E-01
 -1      3596 2.84460E-01
 -1      3597 2.35734E+00
 -1      3598 2.17797E+00
 -1      3599 2.27500E+00
 -1      3600 2.83247E-01
 -1      3601 2.81990E+00
 -1      3602 2.51262E-01
 -1      3603 2.51262E-01
 -1      3604 2.14811E-01
 -1      3605 1.75029E-01
 -1      3606 1.40193E-01
 -1      3607 1.54730E-01
 -1      3608 1.49804E-01
 -1      3609 1.48501E-01
 -1      3610 1.38835E-01
 -1      3611 1.30190E-01
 -1      3612 1.33147E-01
 -1      3613 1.23032E-01
 -1      3614 1.23198E-01
 -1      3615 1.15837E-01
 -1      3616 1.06861E-01
 -1      3617 1.10315E-01
 -1      3618 1.01238E-01
 -1      3619 9.09278E-02
 -1      3620 9.74962E-02
 -1      3621 9.32104E-02
 -1      3622 9.48386E-02
 -1      3623 9.41558E-02
 -1      3624 1.01183E-01
 -1      3625 1.09133E-01
 -1      3626 1.02783E-01
 -1      3627 1.28048E-01
 -1      3628 1.54618E-01
 -1      3629 1.28042E-01
 -1      3630 1.83173E-01
 -1      3631 2.25754E-01
 -1      3632 1.75512E-01
 -1      3633 2.67120E-01
 -1      3634 3.33560E-01
 -1      3635 2.45433E-01
 -1      3636 3.90261E-01
 -1      3637 4.91335E-01
 -1      3638 3.43500E-01
 -1      3639 6.13667E-01
 -1      3640 7.62698E-01
 -1      3641 5.22534E-01
 -1      3642 9.61412E-01
 -1      3643 1.17011E+00
 -1      3644 8.43580E-01
 -1      3645 1.45252E+00
 -1      3646 1.89565E+00
 -1      3647 1.32470E+00
 -1      3648 2.38488E+00
 -1      3649 3.06213E+00
 -1      3650 2.09635E+00
 -1      3651 2.57871E+00
 -1      3652 2.31819E+00
 -1      3653 1.98545E-01
 -1      3654 2.14250E-01
 -1      3655 1.85263E-01
 -1      3656 1.74912E-01
 -1      3657 6.37622E-01
 -1      3658 4.99315E-01
 -1      3659 4.18492E-01
 -1      3660 3.28959E-01
 -1      3661 4.39642E-01
 -1      3662 2.70247E-01
 -1      3663 2.25481E-01
 -1      3664 3.00107E-01
 -1      3665 1.84499E-01
 -1      3666 1.52322E-01
 -1      3667 2.00412E-01
 -1      3668 1.19375E-01
 -1      3669 1.01508E-01
 -1      3670 8.93300E-02
 -1      3671 1.26483E-01
 -1      3672 5.67418E-02
 -1      3673 6.94645E-02
 -1      3674 1.41981E-01
 -1      3675 1.10745E-01
 -1      3676 8.66195E-02
 -1      3677 6.41976E-02
 -1      3678 1.05338E-01
 -1      3679 3.28330E-01
 -1      3680 2.79536E-01
 -1      3681 4.70818E-01
 -1      3682 4.02286E-01
 -1      3683 3.96862E-01
 -1      3684 6.36410E-01
 -1      3685 5.50525E-01
 -1      3686 5.50525E-01
 -1      3687 8.64778E-01
 -1      3688 7.56506E-01
 -1      3689 7.50327E-01
 -1      3690 1.05792E+00
 -1      3691 9.70827E-01
 -1      3692 9.76472E-01
 -1      3693 1.53801E+00
 -1      3694 1.42928E+00
 -1      3695 1.45388E+00
 -1      3696 1.41551E+00
 -1      3697 1.37958E+00
 -1      3698 1.66680E+00
 -1      3699 2.28737E+00
 -1      3700 1.80502E+00
 -1      3701 1.89787E+00
 -1      3702 2.90170E+00
 -1      3703 2.59453E+00
 -1      3704 1.75332E+00
 -1      3705 1.81239E+00
 -1      3706 1.86363E+00
 -1      3707 1.85412E+00
 -1      3708 1.91318E+00
 -1      3709 1.77716E+00
 -1      3710 1.93818E+00
 -1      3711 2.08854E+00
 -1      3712 1.64147E+00
 -1      3713 1.67683E+00
 -1      3714 2.06276E+00
 -1      3715 1.26126E+00
 -1      3716 1.32051E+00
 -1      3717 1.64147E+00
 -1      3718 1.10695E+00
 -1      3719 1.20200E+00
 -1      3720 1.26126E+00
 -1      3721 9.49339E-01
 -1      3722 1.04413E+00
 -1      3723 1.13918E+00
 -1      3724 7.20359E-01
 -1      3725 8.26651E-01
 -1      3726 9.53676E-01
 -1      3727 5.30710E-01
 -1      3728 6.09730E-01
 -1      3729 7.20359E-01
 -1      3730 3.86808E-01
 -1      3731 4.51690E-01
 -1      3732 5.30710E-01
 -1      3733 2.68819E-01
 -1      3734 3.15858E-01
 -1      3735 3.80740E-01
 -1      3736 1.76178E-01
 -1      3737 2.14655E-01
 -1      3738 2.55627E-01
 -1      3739 1.17877E-01
 -1      3740 1.46560E-01
 -1      3741 1.71845E-01
 -1      3742 9.27471E-02
 -1      3743 9.74116E-02
 -1      3744 1.21762E-01
 -1      3745 4.03066E+00
 -1      3746 5.83062E+00
 -1      3747 2.63591E+00
 -1      3748 1.99052E+00
 -1      3749 4.65677E+00
 -1      3750 3.33047E+00
 -1      3751 2.89073E+00
 -1      3752 5.20519E+00
 -1      3753 2.19803E-01
 -1      3754 1.78969E-01
 -1      3755 1.66451E-01
 -1      3756 4.99494E+00
 -1      3757 4.91853E+00
 -1      3758 3.92395E+00
 -1      3759 2.14983E-01
 -1      3760 2.47924E-01
 -1      3761 2.51691E-01
 -1      3762 1.57658E+00
 -1      3763 1.27109E+00
 -1      3764 1.78223E+00
 -1      3765 9.98441E-01
 -1      3766 7.88889E-01
 -1      3767 6.71731E-01
 -1      3768 1.55688E-01
 -1      3769 1.06541E-01
 -1      3770 1.06541E-01
 -1      3771 7.70957E-02
 -1      3772 1.52579E-01
 -1      3773 1.92022E+00
 -1      3774 2.18789E+00
 -1      3775 5.16031E+00
 -1      3776 6.44300E+00
 -1      3777 5.38112E+00
 -1      3778 1.47130E-01
 -1      3779 1.49484E-01
 -1      3780 1.26247E-01
 -1      3781 2.26968E+00
 -1      3782 2.31487E-01
 -1      3783 2.35954E-01
 -1      3784 1.99502E-01
 -1      3785 1.58989E-01
 -1      3786 2.90170E+00
 -1      3787 2.90170E+00
 -1      3788 3.57508E+00
 -1      3789 2.35704E+00
 -1      3790 3.40126E+00
 -1      3791 3.36221E+00
 -1      3792 2.90710E+00
 -1      3793 7.70957E-02
 -1      3794 1.14335E-01
 -1      3795 9.48834E-02
 -1      3796 8.56389E-02
 -1      3797 3.55412E+00
 -1      3798 1.98936E+00
 -1      3799 2.09062E+00
 -1      3800 2.11991E+00
 -1      3801 2.39496E+00
 -1      3802 1.59716E-01
 -1      3803 1.61842E-01
 -1      3804 3.10333E+00
 -1      3805 1.82454E-01
 -1      3806 1.82454E-01
 -1      3807 6.98748E-02
 -1      3808 7.86795E-02
 -1      3809 9.07355E-02
 -1      3810 4.68803E+00
 -1      3811 2.63173E-01
 -1      3812 5.08200E-02
 -1      3813 5.47380E-02
 -1      3814 4.19827E-02
 -1      3815 1.36448E-01
 -1      3816 1.47967E-01
 -1      3817 1.05559E-01
 -1      3818 1.06541E-01
 -1      3819 1.25993E-01
 -1      3820 1.09764E-01
 -1      3821 6.68943E-02
 -1      3822 4.98790E-02
 -1      3823 4.38624E-02
 -1      3824 2.59453E+00
 -1      3825 2.35704E+00
 -1      3826 3.53244E+00
 -1      3827 3.71769E+00
 -1      3828 2.66182E+00
 -1      3829 8.41972E-02
 -1      3830 9.27471E-02
 -1      3831 1.25365E-01
 -1      3832 1.50912E-01
 -1      3833 1.42904E-01
 -1      3834 1.51227E-01
 -1      3835 1.83584E-01
 -1      3836 1.83756E-01
 -1      3837 1.29559E-01
 -1      3838 4.82378E+00
 -1      3839 2.15155E-01
 -1      3840 1.76636E-01
 -1      3841 1.99746E+00
 -1      3842 2.10012E+00
 -1      3843 7.81241E-02
 -1      3844 7.30896E-02
 -1      3845 9.51631E-02
 -1      3846 1.09564E+00
 -1      3847 1.81756E+00
 -1      3848 1.48997E-01
 -1      3849 1.30202E-01
 -1      3850 1.55407E-01
 -1      3851 1.20528E-01
 -1      3852 1.18649E-01
 -1      3853 1.28493E-01
 -1      3854 1.21292E-01
 -1      3855 4.56148E+00
 -1      3856 5.34090E+00
 -1      3857 3.72099E+00
 -1      3858 3.82742E+00
 -1      3859 2.01957E+00
 -1      3860 1.93222E+00
 -1      3861 2.06276E+00
 -1      3862 3.09380E+00
 -1      3863 2.62336E+00
 -1      3864 1.14281E-01
 -1      3865 1.08593E-01
 -1      3866 1.05655E-01
 -1      3867 9.84596E-02
 -1      3868 9.67379E-02
 -1      3869 9.59397E-02
 -1      3870 9.03168E-02
 -1      3871 9.12802E-02
 -1      3872 9.50640E-02
 -1      3873 9.73466E-02
 -1      3874 9.35075E-02
 -1      3875 9.95627E-02
 -1      3876 1.05907E-01
 -1      3877 1.00471E-01
 -1      3878 1.15425E-01
 -1      3879 1.34341E-01
 -1      3880 1.12205E-01
 -1      3881 1.49816E-01
 -1      3882 1.78370E-01
 -1      3883 1.37199E-01
 -1      3884 2.11063E-01
 -1      3885 2.52429E-01
 -1      3886 1.85367E-01
 -1      3887 3.09906E-01
 -1      3888 3.66607E-01
 -1      3889 2.75537E-01
 -1      3890 4.51846E-01
 -1      3891 5.74178E-01
 -1      3892 4.18252E-01
 -1      3893 6.91221E-01
 -1      3894 8.89935E-01
 -1      3895 6.20533E-01
 -1      3896 1.04229E+00
 -1      3897 1.32470E+00
 -1      3898 8.89935E-01
 -1      3899 1.60711E+00
 -1      3900 2.09635E+00
 -1      3901 1.32470E+00
 -1      3902 2.67961E+00
 -1      3903 2.26400E+00
 -1      3904 1.04004E-01
 -1      3905 1.09250E-01
 -1      3906 2.55868E+00
 -1      3907 1.94101E+00
 -1      3908 2.43396E+00
 -1      3909 4.66102E-01
 -1      3910 3.85279E-01
 -1      3911 2.13723E-01
 -1      3912 1.76735E-01
 -1      3913 3.05534E-01
 -1      3914 2.46822E-01
 -1      3915 3.31994E-01
 -1      3916 1.17164E+00
 -1      3917 8.98991E-01
 -1      3918 3.97448E+00
 -1      3919 4.13985E+00
 -1      3920 3.51174E+00
 -1      3921 3.54102E+00
 -1      3922 6.27517E-01
 -1      3923 5.47811E-01
 -1      3924 4.55342E-01
 -1      3925 3.81385E-01
 -1      3926 5.32334E-01
 -1      3927 1.13964E+00
 -1      3928 1.03359E+00
 -1      3929 1.82524E+00
 -1      3930 1.45388E+00
 -1      3931 1.51100E+00
 -1      3932 1.96252E+00
 -1      3933 1.57302E+00
 -1      3934 1.64147E+00
 -1      3935 1.96242E+00
 -1      3936 1.26561E+00
 -1      3937 1.32843E+00
 -1      3938 9.82650E-01
 -1      3939 1.10534E+00
 -1      3940 1.29459E+00
 -1      3941 7.20359E-01
 -1      3942 8.30988E-01
 -1      3943 9.82650E-01
 -1      3944 5.19945E-01
 -1      3945 5.98965E-01
 -1      3946 7.09594E-01
 -1      3947 3.72434E-01
 -1      3948 4.43383E-01
 -1      3949 5.11639E-01
 -1      3950 2.61549E-01
 -1      3951 3.15713E-01
 -1      3952 3.78356E-01
 -1      3953 1.83366E-01
 -1      3954 2.12984E-01
 -1      3955 2.73070E-01
 -1      3956 1.24695E-01
 -1      3957 1.45160E-01
 -1      3958 1.86299E-01
 -1      3959 7.35660E-01
 -1      3960 5.84394E-01
 -1      3961 5.30031E-01
 -1      3962 1.27285E-01
 -1      3963 1.18727E-01
 -1      3964 2.66182E+00
 -1      3965 8.33730E-02
 -1      3966 6.88142E-02
 -1      3967 1.83756E-01
 -1      3968 1.45237E-01
 -1      3969 1.34405E-01
 -1      3970 1.83756E-01
 -1      3971 1.80512E+00
 -1      3972 1.39118E+00
 -1      3973 1.19453E+00
 -1      3974 1.70716E-01
 -1      3975 8.16474E-02
 -1      3976 3.23532E-01
 -1      3977 2.63800E-01
 -1      3978 3.82012E-01
 -1      3979 9.97411E-02
 -1      3980 1.10531E-01
 -1      3981 8.80954E-02
 -1      3982 1.75291E+00
 -1      3983 8.70423E-01
 -1      3984 7.50327E-01
 -1      3985 1.03359E+00
 -1      3986 2.78747E+00
 -1      3987 1.52285E-01
 -1      3988 1.60509E-01
 -1      3989 1.37089E-01
 -1      3990 4.42013E+00
 -1      3991 4.94786E+00
 -1      3992 3.86279E+00
 -1      3993 3.70659E+00
 -1      3994 2.67083E+00
 -1      3995 1.15274E-01
 -1      3996 1.13970E-01
 -1      3997 9.30306E-02
 -1      3998 2.26400E+00
 -1      3999 2.18944E+00
 -1      4000 2.59814E+00
 -1      4001 3.56668E+00
 -1      4002 3.01851E+00
 -1      4003 2.10891E+00
 -1      4004 1.35702E-01
 -1      4005 1.11577E-01
 -1      4006 1.82974E-01
 -1      4007 2.16310E+00
 -1      4008 2.49537E+00
 -1      4009 1.91135E+00
 -1      4010 1.91135E+00
 -1      4011 1.89121E-01
 -1      4012 1.77463E-01
 -1      4013 2.06276E+00
 -1      4014 1.18949E-01
 -1      4015 1.18156E-01
 -1      4016 1.22490E-01
 -1      4017 9.21254E-02
 -1      4018 7.78068E-02
 -1      4019 7.06357E-02
 -1      4020 7.98506E-02
 -1      4021 9.93651E-02
 -1      4022 3.25245E+00
 -1      4023 3.12837E+00
 -1      4024 2.92211E+00
 -1      4025 2.04118E+00
 -1      4026 1.38359E-01
 -1      4027 8.11653E-01
 -1      4028 2.40288E-01
 -1      4029 1.99307E-01
 -1      4030 1.42712E-01
 -1      4031 5.06960E-02
 -1      4032 3.12784E+00
 -1      4033 2.99213E+00
 -1      4034 2.29757E+00
 -1      4035 2.81216E+00
 -1      4036 1.82588E-01
 -1      4037 1.82588E-01
 -1      4038 2.45716E-01
 -1      4039 1.39338E+00
 -1      4040 1.71434E+00
 -1      4041 1.68413E+00
 -1      4042 1.33413E+00
 -1      4043 1.72313E+00
 -1      4044 1.14317E-01
 -1      4045 1.26056E-01
 -1      4046 1.08225E-01
 -1      4047 1.05219E-01
 -1      4048 7.47613E-01
 -1      4049 1.01730E-01
 -1      4050 2.57571E+00
 -1      4051 1.19155E-01
 -1      4052 2.45314E+00
 -1      4053 6.78077E-02
 -1      4054 7.77835E-02
 -1      4055 6.18859E-02
 -1      4056 1.02015E-01
 -1      4057 1.26056E-01
 -1      4058 1.27186E-01
 -1      4059 1.46056E+00
 -1      4060 2.14198E+00
 -1      4061 3.07582E+00
 -1      4062 1.06246E-01
 -1      4063 1.14201E-01
 -1      4064 1.33565E-01
 -1      4065 1.52357E-01
 -1      4066 1.01015E-01
 -1      4067 1.23786E-01
 -1      4068 1.16271E-01
 -1      4069 1.98572E-01
 -1      4070 1.05578E-01
 -1      4071 1.01303E-01
 -1      4072 2.45716E-01
 -1      4073 1.90652E+00
 -1      4074 2.74083E-01
 -1      4075 1.34201E-01
 -1      4076 1.16849E-01
 -1      4077 1.21166E-01
 -1      4078 1.02233E-01
 -1      4079 1.01803E-01
 -1      4080 1.03971E+00
 -1      4081 1.16111E+00
 -1      4082 8.79756E-02
 -1      4083 8.82862E-02
 -1      4084 9.07527E-02
 -1      4085 8.82328E-02
 -1      4086 9.12474E-02
 -1      4087 9.59946E-02
 -1      4088 9.07200E-02
 -1      4089 9.82547E-02
 -1      4090 1.00471E-01
 -1      4091 9.59946E-02
 -1      4092 1.07432E-01
 -1      4093 1.16950E-01
 -1      4094 1.05216E-01
 -1      4095 1.22975E-01
 -1      4096 1.38450E-01
 -1      4097 1.18202E-01
 -1      4098 1.89965E-01
 -1      4099 2.22659E-01
 -1      4100 1.75742E-01
 -1      4101 2.72724E-01
 -1      4102 3.30201E-01
 -1      4103 2.77323E-01
 -1      4104 3.97007E-01
 -1      4105 4.82246E-01
 -1      4106 3.94195E-01
 -1      4107 5.63685E-01
 -1      4108 6.80728E-01
 -1      4109 5.42440E-01
 -1      4110 8.25910E-01
 -1      4111 9.78270E-01
 -1      4112 7.69063E-01
 -1      4113 1.15654E+00
 -1      4114 1.43895E+00
 -1      4115 1.09252E+00
 -1      4116 2.36647E+00
 -1      4117 1.87401E+00
 -1      4118 1.58247E+00
 -1      4119 1.73414E+00
 -1      4120 1.91259E+00
 -1      4121 8.11653E-01
 -1      4122 6.48323E-01
 -1      4123 7.88750E-02
 -1      4124 7.69952E-02
 -1      4125 1.04106E-01
 -1      4126 2.77965E+00
 -1      4127 2.52249E-01
 -1      4128 2.63817E+00
 -1      4129 2.78770E+00
 -1      4130 1.71744E+00
 -1      4131 1.29459E+00
 -1      4132 1.45487E+00
 -1      4133 1.71744E+00
 -1      4134 1.89441E+00
 -1      4135 7.76533E-01
 -1      4136 8.53095E-01
 -1      4137 1.30461E+00
 -1      4138 4.04455E-01
 -1      4139 4.61176E-01
 -1      4140 8.02633E-01
 -1      4141 2.56279E-01
 -1      4142 3.04844E-01
 -1      4143 3.87664E-01
 -1      4144 1.70264E-01
 -1      4145 2.08470E-01
 -1      4146 2.40243E-01
 -1      4147 1.12402E-01
 -1      4148 1.35800E-01
 -1      4149 7.69524E-01
 -1      4150 6.77055E-01
 -1      4151 1.16454E-01
 -1      4152 1.01730E-01
 -1      4153 3.51140E-01
 -1      4154 2.71395E-01
 -1      4155 7.89848E-02
 -1      4156 7.99841E-02
 -1      4157 2.21803E-01
 -1      4158 1.68125E-01
 -1      4159 2.75697E-01
 -1      4160 2.34665E-01
 -1      4161 1.34405E-01
 -1      4162 2.56735E+00
 -1      4163 1.81688E+00
 -1      4164 1.50265E+00
 -1      4165 2.16328E+00
 -1      4166 5.31872E-01
 -1      4167 4.74020E-01
 -1      4168 7.69063E-01
 -1      4169 8.18648E-02
 -1      4170 8.11040E-02
 -1      4171 9.01096E-02
 -1      4172 1.52678E+00
 -1      4173 1.36361E+00
 -1      4174 1.83266E+00
 -1      4175 9.20961E-02
 -1      4176 1.00214E-01
 -1      4177 9.31230E-02
 -1      4178 8.51047E-02
 -1      4179 1.27186E-01
 -1      4180 3.02199E+00
 -1      4181 3.30227E+00
 -1      4182 2.56785E+00
 -1      4183 9.19748E-02
 -1      4184 8.90370E-02
 -1      4185 8.05853E-02
 -1      4186 7.60392E-02
 -1      4187 8.20631E-02
 -1      4188 7.09842E-02
 -1      4189 9.07629E-02
 -1      4190 5.30031E-01
 -1      4191 4.11739E-01
 -1      4192 3.51140E-01
 -1      4193 1.07060E+00
 -1      4194 9.47795E-01
 -1      4195 1.09252E+00
 -1      4196 1.45265E+00
 -1      4197 1.23310E+00
 -1      4198 1.06977E+00
 -1      4199 3.92580E-01
 -1      4200 3.42504E-01
 -1      4201 3.94195E-01
 -1      4202 5.42440E-01
 -1      4203 2.34201E+00
 -1      4204 7.99841E-02
 -1      4205 1.79779E+00
 -1      4206 1.96595E+00
 -1      4207 2.46775E+00
 -1      4208 1.91259E+00
 -1      4209 2.71395E-01
 -1      4210 8.59896E-02
 -1      4211 1.84599E-01
 -1      4212 1.65148E-01
 -1      4213 2.77323E-01
 -1      4214 9.00648E-02
 -1      4215 8.36224E-02
 -1      4216 8.64504E-02
 -1      4217 8.56825E-02
 -1      4218 9.17143E-02
 -1      4219 2.19057E+00
 -1      4220 9.01972E-02
 -1      4221 8.89192E-02
 -1      4222 9.15671E-02
 -1      4223 8.14788E-02
 -1      4224 2.40949E-01
 -1      4225 1.46493E-01
 -1      4226 5.30031E-01
 -1      4227 9.30119E-02
 -1      4228 8.71730E-02
 -1      4229 8.84264E-02
 -1      4230 1.91896E-01
 -1      4231 1.68664E-01
 -1      4232 8.98207E-02
 -1      4233 8.76035E-02
 -1      4234 6.65722E-02
 -1      4235 7.69373E-02
 -1      4236 1.56379E+00
 -1      4237 2.61418E+00
 -1      4238 6.51121E-01
 -1      4239 9.66478E-01
 -1      4240 9.37345E-02
 -1      4241 9.59946E-02
 -1      4242 9.52720E-02
 -1      4243 1.02233E-01
 -1      4244 1.24227E-01
 -1      4245 1.75742E-01
 -1      4246 2.27257E-01
 -1      4247 2.77323E-01
 -1      4248 3.27388E-01
 -1      4249 3.94195E-01
 -1      4250 4.61001E-01
 -1      4251 5.42440E-01
 -1      4252 6.23880E-01
 -1      4253 7.69063E-01
 -1      4254 9.14245E-01
 -1      4255 1.09252E+00
 -1      4256 1.30461E+00
 -1      4257 1.49123E+00
 -1      4258 9.35660E-02
 -1      4259 1.02233E-01
 -1      4260 1.08675E-01
 -1      4261 2.90541E-01
 -1      4262 2.40949E-01
 -1      4263 2.41488E-01
 -1      4264 3.51140E-01
 -1      4265 1.27079E+00
 -1      4266 1.90246E+00
 -1      4267 2.34201E+00
 -1      4268 2.89297E-01
 -1      4269 1.09234E-01
 -1      4270 8.72038E-02
 -1      4271 1.79779E+00
 -1      4272 8.42739E-02
 -1      4273 8.59896E-02
 -1      4274 2.21310E+00
 -1      4275 1.13632E-01
 -1      4276 1.14700E-01
 -1      4277 6.15125E-02
 -1      4278 2.23723E+00
 -1      4279 8.54118E-02
 -1      4280 8.73983E-02
 -1      4281 8.59896E-02
 -1      4282 9.07200E-02
 -1      4283 7.77902E-02
 -1      4284 8.14788E-02
 -1      4285 1.91259E+00
 -1      4286 2.47123E+00
 -1      4287 8.77054E-02
 -1      4288 9.07200E-02
 -1      4289 2.09079E+00
 -1      4290 1.12177E-01
 -1      4291 7.01313E-02
 -1      4292 7.60438E-02
 -1      4293 1.75742E-01
 -1      4294 1.18202E-01
 -1      4295 3.47570E-01
 -1      4296 3.46325E-01
 -1      4297 4.45937E-01
 -1      4298 4.08168E-01
 -1      4299 1.18202E-01
 -1      4300 1.15310E+00
 -1      4301 7.31644E-01
 -1      4302 2.33396E+00
 -1      4303 6.09782E-01
 -1      4304 5.26460E-01
 -3
 9999
